
 stresses (elem, integ.pnt.,sxx,syy,szz,sxy,sxz,syz) for set ELALL and time  0.1000000E+01

         1   1 -4.012396E+06 -4.182854E+05 -5.340155E+05 -1.099807E+05 -3.640106E+05  6.488229E+01
         1   2 -3.935695E+06  7.259916E+04 -2.315710E+05 -3.051192E+04 -2.385497E+05  1.179548E+01
         1   3 -4.011570E+06  1.969986E+04 -1.470856E+05  4.896753E+04 -1.130913E+05 -8.975460E+00
         1   4 -4.012409E+06 -4.183083E+05 -5.340188E+05  2.166556E-08 -3.640106E+05 -2.704528E-10
         1   5 -3.935696E+06  7.259740E+04 -2.315712E+05  3.310752E-08 -2.385497E+05  3.470870E-10
         1   6 -4.011573E+06  1.969533E+04 -1.470863E+05  4.668581E-08 -1.130913E+05  2.580653E-09
         1   7 -4.012396E+06 -4.182854E+05 -5.340155E+05  1.099807E+05 -3.640106E+05 -6.488229E+01
         1   8 -3.935695E+06  7.259916E+04 -2.315710E+05  3.051192E+04 -2.385497E+05 -1.179548E+01
         1   9 -4.011570E+06  1.969986E+04 -1.470856E+05 -4.896753E+04 -1.130913E+05  8.975460E+00
         1  10 -4.012539E+06 -4.183213E+05 -5.342661E+05 -1.099807E+05  1.212798E-10 -2.014858E-10
         1  11 -3.935757E+06  7.258376E+04 -2.316786E+05 -3.051192E+04  1.410313E-09  4.894889E-11
         1  12 -4.011584E+06  1.969640E+04 -1.471098E+05  4.896753E+04  2.255992E-09  1.154133E-09
         1  13 -4.012552E+06 -4.183442E+05 -5.342694E+05 -4.185127E-09 -2.082807E-09 -2.003188E-10
         1  14 -3.935758E+06  7.258200E+04 -2.316789E+05  1.161687E-08 -2.205999E-11 -1.123994E-10
         1  15 -4.011587E+06  1.969186E+04 -1.471104E+05  2.310048E-08  2.424026E-09  1.009519E-09
         1  16 -4.012539E+06 -4.183213E+05 -5.342661E+05  1.099807E+05  7.120697E-10 -2.632492E-10
         1  17 -3.935757E+06  7.258376E+04 -2.316786E+05  3.051192E+04 -1.928532E-09 -1.941700E-10
         1  18 -4.011584E+06  1.969640E+04 -1.471098E+05 -4.896753E+04  1.211450E-09  7.011388E-10
         1  19 -4.012396E+06 -4.182854E+05 -5.340155E+05 -1.099807E+05  3.640106E+05 -6.488229E+01
         1  20 -3.935695E+06  7.259916E+04 -2.315710E+05 -3.051192E+04  2.385497E+05 -1.179548E+01
         1  21 -4.011570E+06  1.969986E+04 -1.470856E+05  4.896753E+04  1.130913E+05  8.975460E+00
         1  22 -4.012409E+06 -4.183083E+05 -5.340188E+05  3.019282E-08  3.640106E+05 -2.107492E-10
         1  23 -3.935696E+06  7.259740E+04 -2.315712E+05  3.035351E-09  2.385497E+05 -6.402034E-10
         1  24 -4.011573E+06  1.969533E+04 -1.470863E+05  2.211109E-08  1.130913E+05 -4.934256E-10
         1  25 -4.012396E+06 -4.182854E+05 -5.340155E+05  1.099807E+05  3.640106E+05  6.488229E+01
         1  26 -3.935695E+06  7.259916E+04 -2.315710E+05  3.051192E+04  2.385497E+05  1.179548E+01
         1  27 -4.011570E+06  1.969986E+04 -1.470856E+05 -4.896753E+04  1.130913E+05 -8.975460E+00
         2   1 -3.982410E+06 -5.007336E+04 -1.206018E+05 -1.214127E+04 -8.985107E+04  1.768013E+00
         2   2 -3.972120E+06  8.827808E+03 -6.009688E+04 -3.004630E+03 -5.886549E+04  2.866465E-01
         2   3 -3.982267E+06  2.319142E+03 -3.620988E+04  6.131974E+03 -2.787922E+04 -2.770659E-01
         2   4 -3.982410E+06 -5.007364E+04 -1.206018E+05  2.017521E-08 -8.985107E+04  3.850841E-10
         2   5 -3.972120E+06  8.827791E+03 -6.009689E+04  3.053348E-08 -5.886549E+04 -3.984952E-09
         2   6 -3.982267E+06  2.319071E+03 -3.620989E+04  6.780022E-08 -2.787922E+04  2.300362E-09
         2   7 -3.982410E+06 -5.007336E+04 -1.206018E+05  1.214127E+04 -8.985107E+04 -1.768013E+00
         2   8 -3.972120E+06  8.827808E+03 -6.009688E+04  3.004630E+03 -5.886549E+04 -2.866465E-01
         2   9 -3.982267E+06  2.319142E+03 -3.620988E+04 -6.131974E+03 -2.787922E+04  2.770659E-01
         2  10 -3.982418E+06 -5.007554E+04 -1.206171E+05 -1.214127E+04  3.763739E-09  5.779940E-10
         2  11 -3.972124E+06  8.826870E+03 -6.010344E+04 -3.004630E+03 -1.004693E-09 -2.033954E-09
         2  12 -3.982268E+06  2.318932E+03 -3.621135E+04  6.131974E+03 -4.602813E-09  1.346601E-10
         2  13 -3.982419E+06 -5.007582E+04 -1.206171E+05 -3.158993E-08 -1.792385E-09  2.718427E-10
         2  14 -3.972124E+06  8.826853E+03 -6.010344E+04  3.056474E-08 -5.152042E-09 -1.463584E-09
         2  15 -3.982268E+06  2.318861E+03 -3.621136E+04  5.184957E-08 -4.149559E-09  7.677718E-10
         2  16 -3.982418E+06 -5.007554E+04 -1.206171E+05  1.214127E+04 -2.738901E-09  2.360646E-10
         2  17 -3.972124E+06  8.826870E+03 -6.010344E+04  3.004630E+03 -1.918592E-09 -1.287651E-09
         2  18 -3.982268E+06  2.318932E+03 -3.621135E+04 -6.131974E+03 -9.802287E-10  8.719526E-10
         2  19 -3.982410E+06 -5.007336E+04 -1.206018E+05 -1.214127E+04  8.985107E+04 -1.768013E+00
         2  20 -3.972120E+06  8.827808E+03 -6.009688E+04 -3.004630E+03  5.886549E+04 -2.866465E-01
         2  21 -3.982267E+06  2.319142E+03 -3.620988E+04  6.131974E+03  2.787922E+04  2.770659E-01
         2  22 -3.982410E+06 -5.007364E+04 -1.206018E+05 -3.174089E-08  8.985107E+04  1.218759E-10
         2  23 -3.972120E+06  8.827791E+03 -6.009689E+04  1.336447E-08  5.886549E+04  7.246600E-10
         2  24 -3.982267E+06  2.319071E+03 -3.620989E+04  6.169465E-08  2.787922E+04 -7.110788E-10
         2  25 -3.982410E+06 -5.007336E+04 -1.206018E+05  1.214127E+04  8.985107E+04  1.768013E+00
         2  26 -3.972120E+06  8.827808E+03 -6.009688E+04  3.004630E+03  5.886549E+04  2.866465E-01
         2  27 -3.982267E+06  2.319142E+03 -3.620988E+04 -6.131974E+03  2.787922E+04 -2.770659E-01
         3   1 -3.978408E+06 -5.926858E+03 -2.856067E+04 -1.183065E+03 -2.214001E+04  4.245083E-02
         3   2 -3.976907E+06  1.081090E+03 -1.539337E+04 -1.967623E+02 -1.438747E+04  4.588019E-03
         3   3 -3.978381E+06  2.591793E+02 -9.254701E+03  7.895213E+02 -6.634968E+03 -8.489910E-03
         3   4 -3.978408E+06 -5.926861E+03 -2.856067E+04  4.844510E-08 -2.214001E+04  3.225188E-09
         3   5 -3.976907E+06  1.081090E+03 -1.539337E+04  3.724710E-08 -1.438747E+04 -1.663292E-09
         3   6 -3.978381E+06  2.591781E+02 -9.254701E+03  1.851790E-08 -6.634968E+03 -5.637701E-10
         3   7 -3.978408E+06 -5.926858E+03 -2.856067E+04  1.183065E+03 -2.214001E+04 -4.245082E-02
         3   8 -3.976907E+06  1.081090E+03 -1.539337E+04  1.967623E+02 -1.438747E+04 -4.588024E-03
         3   9 -3.978381E+06  2.591793E+02 -9.254701E+03 -7.895213E+02 -6.634968E+03  8.489909E-03
         3  10 -3.978409E+06 -5.926990E+03 -2.856160E+04 -1.183065E+03  4.621359E-10  1.794914E-09
         3  11 -3.976907E+06  1.081034E+03 -1.539376E+04 -1.967623E+02  1.275075E-10 -2.077521E-10
         3  12 -3.978381E+06  2.591674E+02 -9.254784E+03  7.895213E+02 -2.670591E-09  2.634265E-10
         3  13 -3.978409E+06 -5.926993E+03 -2.856160E+04  5.692346E-08 -4.278139E-09  9.838466E-10
         3  14 -3.976907E+06  1.081034E+03 -1.539376E+04  5.442178E-08 -3.225696E-09 -9.095537E-10
         3  15 -3.978381E+06  2.591662E+02 -9.254784E+03  4.335138E-08 -1.747045E-09  1.370059E-10
         3  16 -3.978409E+06 -5.926990E+03 -2.856160E+04  1.183065E+03 -4.761362E-11  9.349056E-10
         3  17 -3.976907E+06  1.081034E+03 -1.539376E+04  1.967623E+02 -2.390280E-09 -1.435171E-09
         3  18 -3.978381E+06  2.591674E+02 -9.254784E+03 -7.895213E+02  5.421434E-10  7.655027E-10
         3  19 -3.978408E+06 -5.926858E+03 -2.856067E+04 -1.183065E+03  2.214001E+04 -4.245082E-02
         3  20 -3.976907E+06  1.081090E+03 -1.539337E+04 -1.967623E+02  1.438747E+04 -4.588018E-03
         3  21 -3.978381E+06  2.591793E+02 -9.254701E+03  7.895213E+02  6.634968E+03  8.489911E-03
         3  22 -3.978408E+06 -5.926861E+03 -2.856067E+04  5.674522E-08  2.214001E+04 -1.166618E-09
         3  23 -3.976907E+06  1.081090E+03 -1.539337E+04  3.289994E-08  1.438747E+04 -6.864980E-11
         3  24 -3.978381E+06  2.591781E+02 -9.254701E+03  3.591689E-08  6.634968E+03  8.726905E-10
         3  25 -3.978408E+06 -5.926858E+03 -2.856067E+04  1.183065E+03  2.214001E+04  4.245082E-02
         3  26 -3.976907E+06  1.081090E+03 -1.539337E+04  1.967623E+02  1.438747E+04  4.588019E-03
         3  27 -3.978381E+06  2.591793E+02 -9.254701E+03 -7.895213E+02  6.634968E+03 -8.489909E-03
         4   1 -3.977845E+06 -6.826959E+02 -7.327112E+03 -8.512021E+01 -5.150277E+03  7.104993E-04
         4   2 -3.977566E+06  1.473758E+02 -4.588741E+03  8.195186E+00 -2.866507E+03 -3.807158E-05
         4   3 -3.977840E+06 -3.381629E+01 -3.597196E+03  1.015119E+02 -5.826980E+02 -9.586438E-05
         4   4 -3.977845E+06 -6.826960E+02 -7.327112E+03  2.789515E-08 -5.150277E+03  8.104970E-10
         4   5 -3.977566E+06  1.473758E+02 -4.588741E+03  1.779968E-08 -2.866507E+03  1.113781E-09
         4   6 -3.977840E+06 -3.381631E+01 -3.597196E+03 -8.956586E-10 -5.826980E+02 -1.062500E-11
         4   7 -3.977845E+06 -6.826959E+02 -7.327112E+03  8.512021E+01 -5.150277E+03 -7.104972E-04
         4   8 -3.977566E+06  1.473758E+02 -4.588741E+03 -8.195186E+00 -2.866507E+03  3.807228E-05
         4   9 -3.977840E+06 -3.381629E+01 -3.597196E+03 -1.015119E+02 -5.826980E+02  9.586449E-05
         4  10 -3.977845E+06 -6.827031E+02 -7.327162E+03 -8.512021E+01 -1.721999E-09  5.825024E-10
         4  11 -3.977566E+06  1.473736E+02 -4.588756E+03  8.195186E+00  4.079968E-09  1.310680E-10
         4  12 -3.977840E+06 -3.381638E+01 -3.597196E+03  1.015119E+02 -1.272662E-09 -1.000526E-10
         4  13 -3.977845E+06 -6.827031E+02 -7.327162E+03  1.067232E-08 -4.547865E-09  6.316464E-10
         4  14 -3.977566E+06  1.473736E+02 -4.588756E+03  1.350708E-08  1.798143E-10 -2.792271E-11
         4  15 -3.977840E+06 -3.381640E+01 -3.597196E+03 -2.024591E-08  4.040084E-10  3.655231E-10
         4  16 -3.977845E+06 -6.827031E+02 -7.327162E+03  8.512021E+01  5.004941E-10  6.842679E-10
         4  17 -3.977566E+06  1.473736E+02 -4.588756E+03 -8.195186E+00 -2.379020E-09 -7.279418E-10
         4  18 -3.977840E+06 -3.381638E+01 -3.597196E+03 -1.015119E+02  1.053716E-09  5.408039E-10
         4  19 -3.977845E+06 -6.826959E+02 -7.327112E+03 -8.512021E+01  5.150277E+03 -7.104971E-04
         4  20 -3.977566E+06  1.473758E+02 -4.588741E+03  8.195186E+00  2.866507E+03  3.807259E-05
         4  21 -3.977840E+06 -3.381629E+01 -3.597196E+03  1.015119E+02  5.826980E+02  9.586623E-05
         4  22 -3.977845E+06 -6.826960E+02 -7.327112E+03  4.506558E-08  5.150277E+03  2.066301E-10
         4  23 -3.977566E+06  1.473758E+02 -4.588741E+03 -8.010452E-09  2.866507E+03 -1.160935E-09
         4  24 -3.977840E+06 -3.381631E+01 -3.597196E+03  7.727284E-09  5.826980E+02  6.904198E-10
         4  25 -3.977845E+06 -6.826959E+02 -7.327112E+03  8.512021E+01  5.150277E+03  7.104983E-04
         4  26 -3.977566E+06  1.473758E+02 -4.588741E+03 -8.195186E+00  2.866507E+03 -3.807520E-05
         4  27 -3.977840E+06 -3.381629E+01 -3.597196E+03 -1.015119E+02  5.826980E+02 -9.586566E-05
         5   1 -3.977825E+06 -5.146461E+01 -3.508059E+03 -8.131224E+01  5.638077E+01 -7.430375E-06
         5   2 -3.977584E+06  1.274188E+02 -4.099611E+03 -2.818041E+00  2.096080E+03 -9.573219E-06
         5   3 -3.977829E+06 -5.650368E+02 -6.243325E+03  7.567623E+01  4.135777E+03  5.072439E-04
         5   4 -3.977825E+06 -5.146463E+01 -3.508059E+03  5.035453E-09  5.638077E+01 -1.808992E-10
         5   5 -3.977584E+06  1.274188E+02 -4.099611E+03  3.894838E-09  2.096080E+03 -6.763586E-10
         5   6 -3.977829E+06 -5.650368E+02 -6.243325E+03  2.211077E-08  4.135777E+03 -7.884431E-10
         5   7 -3.977825E+06 -5.146461E+01 -3.508059E+03  8.131224E+01  5.638077E+01  7.429611E-06
         5   8 -3.977584E+06  1.274188E+02 -4.099611E+03  2.818041E+00  2.096080E+03  9.570933E-06
         5   9 -3.977829E+06 -5.650368E+02 -6.243325E+03 -7.567623E+01  4.135777E+03 -5.072443E-04
         5  10 -3.977825E+06 -5.146462E+01 -3.508059E+03 -8.131224E+01 -2.235216E-09  2.141657E-10
         5  11 -3.977584E+06  1.274176E+02 -4.099619E+03 -2.818041E+00 -3.763346E-09  6.160301E-11
         5  12 -3.977829E+06 -5.650414E+02 -6.243357E+03  7.567623E+01 -1.383284E-10 -2.214333E-10
         5  13 -3.977825E+06 -5.146463E+01 -3.508059E+03 -3.801426E-08  2.241744E-09  2.866512E-10
         5  14 -3.977584E+06  1.274176E+02 -4.099619E+03  2.970287E-08 -8.954224E-10 -1.920098E-10
         5  15 -3.977829E+06 -5.650415E+02 -6.243357E+03  3.936506E-08  1.256069E-12  2.742156E-10
         5  16 -3.977825E+06 -5.146462E+01 -3.508059E+03  8.131224E+01  2.582285E-09  7.561326E-10
         5  17 -3.977584E+06  1.274176E+02 -4.099619E+03  2.818041E+00  1.657818E-09 -7.183994E-10
         5  18 -3.977829E+06 -5.650414E+02 -6.243357E+03 -7.567623E+01  3.330501E-09  9.578512E-10
         5  19 -3.977825E+06 -5.146462E+01 -3.508059E+03 -8.131224E+01 -5.638077E+01  7.431671E-06
         5  20 -3.977584E+06  1.274188E+02 -4.099611E+03 -2.818041E+00 -2.096080E+03  9.574439E-06
         5  21 -3.977829E+06 -5.650368E+02 -6.243325E+03  7.567623E+01 -4.135777E+03 -5.072423E-04
         5  22 -3.977825E+06 -5.146463E+01 -3.508059E+03  2.213037E-08 -5.638077E+01  9.166327E-10
         5  23 -3.977584E+06  1.274188E+02 -4.099611E+03  2.970497E-08 -2.096080E+03  9.970277E-11
         5  24 -3.977829E+06 -5.650368E+02 -6.243325E+03  4.800477E-08 -4.135777E+03  1.252986E-09
         5  25 -3.977825E+06 -5.146461E+01 -3.508059E+03  8.131224E+01 -5.638077E+01 -7.430127E-06
         5  26 -3.977584E+06  1.274188E+02 -4.099611E+03  2.818041E+00 -2.096080E+03 -9.574769E-06
         5  27 -3.977829E+06 -5.650368E+02 -6.243325E+03 -7.567623E+01 -4.135777E+03  5.072444E-04
         6   1 -3.978269E+06  2.125842E+02 -7.799870E+03 -6.526424E+02  5.393264E+03 -5.704628E-03
         6   2 -3.977043E+06  8.967028E+02 -1.283145E+04  1.643614E+02  1.185491E+04  3.157893E-03
         6   3 -3.978291E+06 -4.912068E+03 -2.371314E+04  9.813562E+02  1.831640E+04  2.913175E-02
         6   4 -3.978269E+06  2.125834E+02 -7.799870E+03  5.317154E-08  5.393264E+03 -1.453554E-10
         6   5 -3.977043E+06  8.967028E+02 -1.283145E+04  3.510654E-08  1.185491E+04  1.259205E-09
         6   6 -3.978291E+06 -4.912070E+03 -2.371314E+04  7.370394E-09  1.831640E+04  4.183701E-10
         6   7 -3.978269E+06  2.125842E+02 -7.799870E+03  6.526424E+02  5.393264E+03  5.704627E-03
         6   8 -3.977043E+06  8.967028E+02 -1.283145E+04 -1.643614E+02  1.185491E+04 -3.157892E-03
         6   9 -3.978291E+06 -4.912068E+03 -2.371314E+04 -9.813562E+02  1.831640E+04 -2.913175E-02
         6  10 -3.978269E+06  2.125763E+02 -7.799925E+03 -6.526424E+02 -2.670127E-09  2.084674E-10
         6  11 -3.977044E+06  8.966648E+02 -1.283172E+04  1.643614E+02  5.578649E-09 -9.107423E-11
         6  12 -3.978291E+06 -4.912159E+03 -2.371378E+04  9.813562E+02  3.821736E-10  6.260245E-11
         6  13 -3.978269E+06  2.125755E+02 -7.799925E+03  5.312331E-08 -2.923520E-10  5.492454E-10
         6  14 -3.977044E+06  8.966647E+02 -1.283172E+04  1.356585E-08 -3.594427E-10  9.100502E-11
         6  15 -3.978291E+06 -4.912161E+03 -2.371378E+04 -6.645619E-09 -3.629876E-09 -8.391585E-10
         6  16 -3.978269E+06  2.125763E+02 -7.799925E+03  6.526424E+02 -1.641447E-10  1.158085E-09
         6  17 -3.977044E+06  8.966648E+02 -1.283172E+04 -1.643614E+02 -2.174772E-09  2.169373E-12
         6  18 -3.978291E+06 -4.912159E+03 -2.371378E+04 -9.813562E+02 -1.058916E-09 -8.987443E-10
         6  19 -3.978269E+06  2.125842E+02 -7.799870E+03 -6.526424E+02 -5.393264E+03  5.704630E-03
         6  20 -3.977043E+06  8.967028E+02 -1.283145E+04  1.643614E+02 -1.185491E+04 -3.157893E-03
         6  21 -3.978291E+06 -4.912068E+03 -2.371314E+04  9.813562E+02 -1.831640E+04 -2.913175E-02
         6  22 -3.978269E+06  2.125834E+02 -7.799870E+03  6.168756E-08 -5.393264E+03  1.289422E-09
         6  23 -3.977043E+06  8.967028E+02 -1.283145E+04 -1.227164E-08 -1.185491E+04 -1.731411E-09
         6  24 -3.978291E+06 -4.912070E+03 -2.371314E+04 -9.900691E-09 -1.831640E+04 -2.425931E-09
         6  25 -3.978269E+06  2.125842E+02 -7.799870E+03  6.526424E+02 -5.393264E+03 -5.704628E-03
         6  26 -3.977043E+06  8.967028E+02 -1.283145E+04 -1.643614E+02 -1.185491E+04  3.157890E-03
         6  27 -3.978291E+06 -4.912068E+03 -2.371314E+04 -9.813562E+02 -1.831640E+04  2.913175E-02
         7   1 -3.981488E+06  1.921995E+03 -3.004270E+04 -5.081552E+03  2.308008E+04 -1.900796E-01
         7   2 -3.973078E+06  7.316363E+03 -4.982703E+04  2.490598E+03  4.876969E+04  1.968564E-01
         7   3 -3.981607E+06 -4.150064E+04 -9.996612E+04  1.006288E+04  7.445921E+04  1.214338E+00
         7   4 -3.981488E+06  1.921946E+03 -3.004270E+04 -1.307526E-08  2.308008E+04  1.529921E-10
         7   5 -3.973078E+06  7.316351E+03 -4.982704E+04 -2.298432E-08  4.876969E+04  6.858304E-10
         7   6 -3.981607E+06 -4.150083E+04 -9.996615E+04  2.196034E-08  7.445921E+04  5.652746E-10
         7   7 -3.981488E+06  1.921995E+03 -3.004270E+04  5.081552E+03  2.308008E+04  1.900796E-01
         7   8 -3.973078E+06  7.316363E+03 -4.982703E+04 -2.490598E+03  4.876969E+04 -1.968564E-01
         7   9 -3.981607E+06 -4.150064E+04 -9.996612E+04 -1.006288E+04  7.445921E+04 -1.214338E+00
         7  10 -3.981489E+06  1.921851E+03 -3.004370E+04 -5.081552E+03 -3.367764E-09  5.092224E-11
         7  11 -3.973080E+06  7.315719E+03 -4.983153E+04  2.490598E+03 -1.408617E-09  1.587737E-10
         7  12 -3.981613E+06 -4.150214E+04 -9.997660E+04  1.006288E+04 -2.573989E-09  5.000430E-10
         7  13 -3.981489E+06  1.921802E+03 -3.004371E+04 -1.302074E-08 -1.926102E-09 -5.662692E-10
         7  14 -3.973080E+06  7.315708E+03 -4.983153E+04 -5.767364E-09 -2.329661E-09  7.991780E-10
         7  15 -3.981613E+06 -4.150233E+04 -9.997663E+04 -6.388345E-10  2.236871E-11  5.648908E-10
         7  16 -3.981489E+06  1.921851E+03 -3.004370E+04  5.081552E+03 -1.537811E-09 -1.117737E-09
         7  17 -3.973080E+06  7.315719E+03 -4.983153E+04 -2.490598E+03 -2.444044E-09  1.353244E-09
         7  18 -3.981613E+06 -4.150214E+04 -9.997660E+04 -1.006288E+04 -1.921393E-10  7.946954E-10
         7  19 -3.981488E+06  1.921995E+03 -3.004270E+04 -5.081552E+03 -2.308008E+04  1.900796E-01
         7  20 -3.973078E+06  7.316363E+03 -4.982703E+04  2.490598E+03 -4.876969E+04 -1.968564E-01
         7  21 -3.981607E+06 -4.150064E+04 -9.996612E+04  1.006288E+04 -7.445921E+04 -1.214338E+00
         7  22 -3.981488E+06  1.921946E+03 -3.004270E+04 -1.294733E-08 -2.308008E+04 -1.331012E-09
         7  23 -3.973078E+06  7.316351E+03 -4.982704E+04 -1.864343E-08 -4.876969E+04  6.201211E-10
         7  24 -3.981607E+06 -4.150083E+04 -9.996615E+04  2.190995E-08 -7.445921E+04  5.396273E-10
         7  25 -3.981488E+06  1.921995E+03 -3.004270E+04  5.081552E+03 -2.308008E+04 -1.900796E-01
         7  26 -3.973078E+06  7.316363E+03 -4.982703E+04 -2.490598E+03 -4.876969E+04  1.968564E-01
         7  27 -3.981607E+06 -4.150064E+04 -9.996612E+04 -1.006288E+04 -7.445921E+04  1.214338E+00
         8   1 -4.005775E+06  1.632565E+04 -1.219153E+05 -4.058303E+04  9.372404E+04 -6.164694E+00
         8   2 -3.942893E+06  6.016828E+04 -1.919468E+05  2.528698E+04  1.977021E+05  8.101789E+00
         8   3 -4.006467E+06 -3.466756E+05 -4.426294E+05  9.115050E+04  3.016831E+05  4.456628E+01
         8   4 -4.005777E+06  1.632253E+04 -1.219158E+05  8.110305E-09  9.372404E+04 -2.241216E-10
         8   5 -3.942893E+06  6.016707E+04 -1.919470E+05 -5.674821E-09  1.977021E+05 -1.503306E-09
         8   6 -4.006476E+06 -3.466913E+05 -4.426317E+05  2.036042E-09  3.016831E+05 -8.766815E-10
         8   7 -4.005775E+06  1.632565E+04 -1.219153E+05  4.058303E+04  9.372404E+04  6.164694E+00
         8   8 -3.942893E+06  6.016828E+04 -1.919468E+05 -2.528698E+04  1.977021E+05 -8.101789E+00
         8   9 -4.006467E+06 -3.466756E+05 -4.426294E+05 -9.115050E+04  3.016831E+05 -4.456628E+01
         8  10 -4.005785E+06  1.632327E+04 -1.219320E+05 -4.058303E+04  1.315775E-09 -2.718486E-10
         8  11 -3.942935E+06  6.015770E+04 -1.920207E+05  2.528698E+04 -1.298307E-09 -5.790064E-10
         8  12 -4.006565E+06 -3.467002E+05 -4.428015E+05  9.115050E+04  1.647195E-09 -1.460362E-10
         8  13 -4.005787E+06  1.632016E+04 -1.219324E+05  1.666659E-08 -2.049606E-09 -2.523873E-11
         8  14 -3.942936E+06  6.015650E+04 -1.920209E+05 -1.368804E-09 -8.980095E-10 -5.802151E-10
         8  15 -4.006574E+06 -3.467159E+05 -4.428038E+05 -2.205533E-09 -5.817615E-10 -2.548892E-10
         8  16 -4.005785E+06  1.632327E+04 -1.219320E+05  4.058303E+04  3.184906E-09 -2.628460E-10
         8  17 -3.942935E+06  6.015770E+04 -1.920207E+05 -2.528698E+04 -8.454677E-10 -7.664725E-10
         8  18 -4.006565E+06 -3.467002E+05 -4.428015E+05 -9.115050E+04  1.474490E-09 -1.150224E-10
         8  19 -4.005775E+06  1.632565E+04 -1.219153E+05 -4.058303E+04 -9.372404E+04  6.164694E+00
         8  20 -3.942893E+06  6.016828E+04 -1.919468E+05  2.528698E+04 -1.977021E+05 -8.101789E+00
         8  21 -4.006467E+06 -3.466756E+05 -4.426294E+05  9.115050E+04 -3.016831E+05 -4.456628E+01
         8  22 -4.005777E+06  1.632253E+04 -1.219158E+05  1.661416E-08 -9.372404E+04  1.116089E-10
         8  23 -3.942893E+06  6.016707E+04 -1.919470E+05 -5.674636E-09 -1.977021E+05  3.436835E-10
         8  24 -4.006476E+06 -3.466913E+05 -4.426317E+05 -1.290236E-08 -3.016831E+05  3.996569E-10
         8  25 -4.005775E+06  1.632565E+04 -1.219153E+05  4.058303E+04 -9.372404E+04 -6.164694E+00
         8  26 -3.942893E+06  6.016828E+04 -1.919468E+05 -2.528698E+04 -1.977021E+05  8.101789E+00
         8  27 -4.006467E+06 -3.466756E+05 -4.426294E+05 -9.115050E+04 -3.016831E+05  4.456628E+01
         9   1  2.214201E+06  7.785465E+06  2.122033E+06 -1.406337E+06  1.011322E+05  7.952767E+05
         9   2  1.740653E+06  6.644299E+06  1.438064E+06 -1.246902E+06  3.369198E+05  3.726515E+05
         9   3  1.428403E+06  5.602112E+06  1.068227E+06 -1.283217E+06  3.883112E+05 -4.899988E+04
         9   4  1.855111E+05 -4.708259E+05  2.001070E+05 -1.267567E+06  1.029672E+05  1.372025E+05
         9   5  5.210938E+04 -4.855458E+05  1.007260E+05 -1.170022E+06  3.382595E+05  8.675249E+04
         9   6  1.679772E+04 -4.658490E+05  5.931255E+04 -1.268168E+06  3.882643E+05  3.642504E+04
         9   7 -1.847690E+06 -8.663755E+06 -1.724810E+06 -1.130542E+06  1.045301E+05 -5.122705E+05
         9   8 -1.639312E+06 -7.566390E+06 -1.238518E+06 -1.093959E+06  3.395401E+05 -1.959748E+05
         9   9 -1.396713E+06 -6.497631E+06 -9.506971E+05 -1.253197E+06  3.882210E+05  1.210473E+05
         9  10  2.214023E+06  7.784790E+06  2.120838E+06 -1.406401E+06  2.839867E-09  6.965444E-08
         9  11  1.740494E+06  6.644120E+06  1.437592E+06 -1.247003E+06  6.250617E-09 -1.296446E-09
         9  12  1.428241E+06  5.602069E+06  1.067939E+06 -1.283202E+06  2.075720E-09 -7.253191E-08
         9  13  1.854946E+05 -4.708490E+05  2.000516E+05 -1.267578E+06  2.997544E-09  1.255880E-12
         9  14  5.198445E+04 -4.855847E+05  1.004966E+05 -1.170046E+06  7.930569E-10  4.087698E-11
         9  15  1.663549E+04 -4.658909E+05  5.902670E+04 -1.268179E+06  5.345104E-09  9.497308E-11
         9  16 -1.847773E+06 -8.664043E+06 -1.725330E+06 -1.130499E+06 -1.047305E-10 -6.880793E-08
         9  17 -1.639446E+06 -7.566463E+06 -1.238807E+06 -1.093905E+06  2.928098E-09  1.286255E-09
         9  18 -1.396878E+06 -6.497688E+06 -9.510085E+05 -1.253236E+06 -1.661232E-09  7.199789E-08
         9  19  2.214201E+06  7.785465E+06  2.122033E+06 -1.406337E+06 -1.011322E+05 -7.952767E+05
         9  20  1.740653E+06  6.644299E+06  1.438064E+06 -1.246902E+06 -3.369198E+05 -3.726515E+05
         9  21  1.428403E+06  5.602112E+06  1.068227E+06 -1.283217E+06 -3.883112E+05  4.899988E+04
         9  22  1.855111E+05 -4.708259E+05  2.001070E+05 -1.267567E+06 -1.029672E+05 -1.372025E+05
         9  23  5.210938E+04 -4.855458E+05  1.007260E+05 -1.170022E+06 -3.382595E+05 -8.675249E+04
         9  24  1.679772E+04 -4.658490E+05  5.931255E+04 -1.268168E+06 -3.882643E+05 -3.642504E+04
         9  25 -1.847690E+06 -8.663755E+06 -1.724810E+06 -1.130542E+06 -1.045301E+05  5.122705E+05
         9  26 -1.639312E+06 -7.566390E+06 -1.238518E+06 -1.093959E+06 -3.395401E+05  1.959748E+05
         9  27 -1.396713E+06 -6.497631E+06 -9.506971E+05 -1.253197E+06 -3.882210E+05 -1.210473E+05
        10   1  1.262490E+06  4.894999E+06  9.224950E+05 -1.295257E+06  3.573172E+05 -5.187236E+04
        10   2  9.976006E+05  3.797880E+06  7.022106E+05 -1.183435E+06  3.074610E+05 -1.102171E+05
        10   3  7.522890E+05  2.714095E+06  5.245287E+05 -1.280248E+06  2.372463E+05 -1.687037E+05
        10   4  1.711525E+04 -4.708791E+05  4.770072E+04 -1.271041E+06  3.571921E+05  2.812650E+04
        10   5  1.183626E+04 -4.718990E+05  3.484832E+04 -1.166691E+06  3.069720E+05  1.065423E+04
        10   6  1.917393E+04 -4.677711E+05  3.639900E+04 -1.271058E+06  2.363213E+05 -7.056782E+03
        10   7 -1.229722E+06 -5.808352E+06 -8.278872E+05 -1.246980E+06  3.570724E+05  1.074613E+05
        10   8 -9.748148E+05 -4.723528E+06 -6.328965E+05 -1.150026E+06  3.064872E+05  1.307289E+05
        10   9 -7.144160E+05 -3.639479E+06 -4.518558E+05 -1.261892E+06  2.353978E+05  1.537964E+05
        10  10  1.262352E+06  4.894962E+06  9.222502E+05 -1.295242E+06 -3.013717E-09  6.774588E-08
        10  11  9.974960E+05  3.797842E+06  7.020105E+05 -1.183408E+06 -9.214783E-10 -2.241242E-08
        10  12  7.522211E+05  2.714050E+06  5.243701E+05 -1.280216E+06  4.046584E-09 -1.100589E-07
        10  13  1.697804E+04 -4.709143E+05  4.745944E+04 -1.271049E+06  2.979194E-09 -1.083874E-10
        10  14  1.173506E+04 -4.719244E+05  3.467104E+04 -1.166694E+06  2.988543E-09 -3.514984E-11
        10  15  1.911397E+04 -4.677862E+05  3.629400E+04 -1.271057E+06  5.403854E-09 -1.744110E-10
        10  16 -1.229862E+06 -5.808399E+06 -8.281489E+05 -1.247011E+06  9.129528E-10 -6.734041E-08
        10  17 -9.749204E+05 -4.723572E+06 -6.331056E+05 -1.150058E+06  1.467229E-09  2.221590E-08
        10  18 -7.144819E+05 -3.639520E+06 -4.520050E+05 -1.261922E+06  2.838071E-09  1.093887E-07
        10  19  1.262490E+06  4.894999E+06  9.224950E+05 -1.295257E+06 -3.573172E+05  5.187236E+04
        10  20  9.976006E+05  3.797880E+06  7.022106E+05 -1.183435E+06 -3.074610E+05  1.102171E+05
        10  21  7.522890E+05  2.714095E+06  5.245287E+05 -1.280248E+06 -2.372463E+05  1.687037E+05
        10  22  1.711525E+04 -4.708791E+05  4.770072E+04 -1.271041E+06 -3.571921E+05 -2.812650E+04
        10  23  1.183626E+04 -4.718990E+05  3.484832E+04 -1.166691E+06 -3.069720E+05 -1.065423E+04
        10  24  1.917393E+04 -4.677711E+05  3.639900E+04 -1.271058E+06 -2.363213E+05  7.056782E+03
        10  25 -1.229722E+06 -5.808352E+06 -8.278872E+05 -1.246980E+06 -3.570724E+05 -1.074613E+05
        10  26 -9.748148E+05 -4.723528E+06 -6.328965E+05 -1.150026E+06 -3.064872E+05 -1.307289E+05
        10  27 -7.144160E+05 -3.639479E+06 -4.518558E+05 -1.261892E+06 -2.353978E+05 -1.537964E+05
        11   1  5.947508E+05  2.026484E+06  4.189797E+05 -1.283713E+06  1.895111E+05 -1.743294E+05
        11   2  3.667884E+05  9.290184E+05  2.745567E+05 -1.136681E+06  1.084399E+05 -2.096368E+05
        11   3  1.965020E+05 -1.503045E+05  1.669041E+05 -1.199684E+06  2.604530E+04 -2.449677E+05
        11   4  2.137372E+04 -4.645229E+05  4.103936E+04 -1.271390E+06  1.885039E+05 -1.331675E+04
        11   5  4.488458E+04 -4.722147E+05  6.316743E+04 -1.166105E+06  1.073563E+05 -4.607396E+04
        11   6  1.257000E+05 -4.634672E+05  1.202296E+05 -1.270809E+06  2.488827E+04 -7.890779E+04
        11   7 -5.522861E+05 -2.949268E+06 -3.369334E+05 -1.259103E+06  1.875003E+05  1.470769E+05
        11   8 -2.770943E+05 -1.871420E+06 -1.481605E+05 -1.195454E+06  1.062555E+05  1.171348E+05
        11   9  5.492767E+04 -7.764607E+05  7.365969E+04 -1.341896E+06  2.369278E+04  8.707173E+04
        11  10  5.947042E+05  2.026442E+06  4.188556E+05 -1.283687E+06  2.650491E-09  4.561472E-08
        11  11  3.667641E+05  9.289682E+05  2.744523E+05 -1.136663E+06 -1.616859E-09  1.707009E-08
        11  12  1.964852E+05 -1.503691E+05  1.667901E+05 -1.199678E+06  4.263473E-10 -1.379745E-08
        11  13  2.133553E+04 -4.645326E+05  4.097229E+04 -1.271388E+06  2.826246E-09 -5.984834E-11
        11  14  4.487165E+04 -4.722201E+05  6.314183E+04 -1.166101E+06  9.412507E-10  1.605533E-10
        11  15  1.256977E+05 -4.634740E+05  1.202167E+05 -1.270807E+06 -9.770638E-10  5.097721E-11
        11  16 -5.523297E+05 -2.949301E+06 -3.370405E+05 -1.259126E+06  5.653484E-09 -4.590455E-08
        11  17 -2.771101E+05 -1.871438E+06 -1.482077E+05 -1.195465E+06  1.951411E-09 -1.716131E-08
        11  18  5.492502E+04 -7.764690E+05  7.364435E+04 -1.341898E+06  3.882838E-10  1.424435E-08
        11  19  5.947508E+05  2.026484E+06  4.189797E+05 -1.283713E+06 -1.895111E+05  1.743294E+05
        11  20  3.667884E+05  9.290184E+05  2.745567E+05 -1.136681E+06 -1.084399E+05  2.096368E+05
        11  21  1.965020E+05 -1.503045E+05  1.669041E+05 -1.199684E+06 -2.604530E+04  2.449677E+05
        11  22  2.137372E+04 -4.645229E+05  4.103936E+04 -1.271390E+06 -1.885039E+05  1.331675E+04
        11  23  4.488458E+04 -4.722147E+05  6.316743E+04 -1.166105E+06 -1.073563E+05  4.607396E+04
        11  24  1.257000E+05 -4.634672E+05  1.202296E+05 -1.270809E+06 -2.488827E+04  7.890779E+04
        11  25 -5.522861E+05 -2.949268E+06 -3.369334E+05 -1.259103E+06 -1.875003E+05 -1.470769E+05
        11  26 -2.770943E+05 -1.871420E+06 -1.481605E+05 -1.195454E+06 -1.062555E+05 -1.171348E+05
        11  27  5.492767E+04 -7.764607E+05  7.365969E+04 -1.341896E+06 -2.369278E+04 -8.707173E+04
        12   1 -4.791052E+06 -1.394823E+06 -8.504642E+05 -1.709008E+06 -4.834354E+05 -1.776033E+05
        12   2 -4.648339E+06 -6.615345E+05 -3.923490E+05 -1.793744E+06 -3.110129E+05 -1.066224E+05
        12   3 -4.766954E+06 -6.749876E+05 -2.608647E+05 -1.728727E+06 -1.357102E+05 -4.329377E+04
        12   4 -4.547448E+06 -1.169375E+06 -7.570129E+05 -1.505805E+06 -4.799694E+05 -1.764356E+05
        12   5 -4.378053E+06 -5.231298E+05 -3.125723E+05 -1.682764E+06 -3.104159E+05 -1.064221E+05
        12   6 -4.469286E+06 -6.229003E+05 -1.923707E+05 -1.710015E+06 -1.379743E+05 -4.412493E+04
        12   7 -4.303742E+06 -9.437851E+05 -6.635608E+05 -1.302501E+06 -4.765019E+05 -1.752655E+05
        12   8 -4.107692E+06 -3.847001E+05 -2.328025E+05 -1.571733E+06 -3.098187E+05 -1.062216E+05
        12   9 -4.171525E+06 -5.708131E+05 -1.238799E+05 -1.691304E+06 -1.402395E+05 -4.495599E+04
        12  10 -4.791313E+06 -1.394921E+06 -8.509671E+05 -1.709078E+06 -1.510192E-09  9.778240E-11
        12  11 -4.648447E+06 -6.615731E+05 -3.925539E+05 -1.793771E+06  6.879798E-10  1.399379E-09
        12  12 -4.766975E+06 -6.749946E+05 -2.609032E+05 -1.728731E+06 -8.071678E-11  1.312253E-09
        12  13 -4.547706E+06 -1.169472E+06 -7.575084E+05 -1.505873E+06 -4.358772E-09  1.962768E-10
        12  14 -4.378160E+06 -5.231682E+05 -3.127763E+05 -1.682791E+06 -1.384720E-09  5.309448E-10
        12  15 -4.469307E+06 -6.229075E+05 -1.924104E+05 -1.710020E+06  1.041545E-09  6.578198E-10
        12  16 -4.303995E+06 -9.438798E+05 -6.640489E+05 -1.302568E+06  1.244402E-09 -1.763223E-10
        12  17 -4.107798E+06 -3.847383E+05 -2.330057E+05 -1.571760E+06 -3.485019E-11  2.474188E-10
        12  18 -4.171547E+06 -5.708206E+05 -1.239209E+05 -1.691309E+06  3.535732E-10  4.428985E-11
        12  19 -4.791052E+06 -1.394823E+06 -8.504642E+05 -1.709008E+06  4.834354E+05  1.776033E+05
        12  20 -4.648339E+06 -6.615345E+05 -3.923490E+05 -1.793744E+06  3.110129E+05  1.066224E+05
        12  21 -4.766954E+06 -6.749876E+05 -2.608647E+05 -1.728727E+06  1.357102E+05  4.329377E+04
        12  22 -4.547448E+06 -1.169375E+06 -7.570129E+05 -1.505805E+06  4.799694E+05  1.764356E+05
        12  23 -4.378053E+06 -5.231298E+05 -3.125723E+05 -1.682764E+06  3.104159E+05  1.064221E+05
        12  24 -4.469286E+06 -6.229003E+05 -1.923707E+05 -1.710015E+06  1.379743E+05  4.412493E+04
        12  25 -4.303742E+06 -9.437851E+05 -6.635608E+05 -1.302501E+06  4.765019E+05  1.752655E+05
        12  26 -4.107692E+06 -3.847001E+05 -2.328025E+05 -1.571733E+06  3.098187E+05  1.062216E+05
        12  27 -4.171525E+06 -5.708131E+05 -1.238799E+05 -1.691304E+06  1.402395E+05  4.495599E+04
        13   1 -4.595177E+06 -7.796619E+05 -2.011808E+05 -1.721348E+06 -1.088957E+05 -3.577924E+04
        13   2 -4.547380E+06 -6.563784E+05 -1.039782E+05 -1.701319E+06 -6.951609E+04 -2.246511E+04
        13   3 -4.502400E+06 -6.577885E+05 -6.017125E+04 -1.700179E+06 -2.982362E+04 -9.974871E+03
        13   4 -4.443442E+06 -7.070882E+05 -1.572925E+05 -1.664338E+06 -1.092279E+05 -3.590701E+04
        13   5 -4.437185E+06 -6.109975E+05 -7.356359E+04 -1.667462E+06 -7.015259E+04 -2.270378E+04
        13   6 -4.433677E+06 -6.395284E+05 -4.297574E+04 -1.689479E+06 -3.076733E+04 -1.032727E+04
        13   7 -4.291684E+06 -6.345086E+05 -1.134064E+05 -1.607314E+06 -1.095602E+05 -3.603483E+04
        13   8 -4.326979E+06 -5.656153E+05 -4.315016E+04 -1.633600E+06 -7.078921E+04 -2.294250E+04
        13   9 -4.364949E+06 -6.212685E+05 -2.578063E+04 -1.678777E+06 -3.171116E+04 -1.067968E+04
        13  10 -4.595190E+06 -7.796665E+05 -2.012057E+05 -1.721351E+06  5.918960E-11  4.413675E-10
        13  11 -4.547385E+06 -6.563802E+05 -1.039883E+05 -1.701320E+06  2.975876E-09 -5.655946E-10
        13  12 -4.502401E+06 -6.577888E+05 -6.017312E+04 -1.700180E+06 -7.201252E-10 -2.102471E-10
        13  13 -4.443455E+06 -7.070928E+05 -1.573175E+05 -1.664341E+06  1.657974E-09  7.062929E-10
        13  14 -4.437191E+06 -6.109994E+05 -7.357389E+04 -1.667464E+06  1.237220E-09 -4.220532E-11
        13  15 -4.433678E+06 -6.395287E+05 -4.297774E+04 -1.689479E+06  6.265586E-10 -3.282895E-11
        13  16 -4.291698E+06 -6.345133E+05 -1.134316E+05 -1.607317E+06  3.554118E-09  6.053770E-10
        13  17 -4.326984E+06 -5.656172E+05 -4.316065E+04 -1.633602E+06  2.200990E-09  5.387106E-11
        13  18 -4.364950E+06 -6.212689E+05 -2.578275E+04 -1.678778E+06  1.928986E-09  3.750571E-10
        13  19 -4.595177E+06 -7.796619E+05 -2.011808E+05 -1.721348E+06  1.088957E+05  3.577924E+04
        13  20 -4.547380E+06 -6.563784E+05 -1.039782E+05 -1.701319E+06  6.951609E+04  2.246511E+04
        13  21 -4.502400E+06 -6.577885E+05 -6.017125E+04 -1.700179E+06  2.982362E+04  9.974871E+03
        13  22 -4.443442E+06 -7.070882E+05 -1.572925E+05 -1.664338E+06  1.092279E+05  3.590701E+04
        13  23 -4.437185E+06 -6.109975E+05 -7.356359E+04 -1.667462E+06  7.015259E+04  2.270378E+04
        13  24 -4.433677E+06 -6.395284E+05 -4.297574E+04 -1.689479E+06  3.076733E+04  1.032727E+04
        13  25 -4.291684E+06 -6.345086E+05 -1.134064E+05 -1.607314E+06  1.095602E+05  3.603483E+04
        13  26 -4.326979E+06 -5.656153E+05 -4.315016E+04 -1.633600E+06  7.078921E+04  2.294250E+04
        13  27 -4.364949E+06 -6.212685E+05 -2.578063E+04 -1.678777E+06  3.171116E+04  1.067968E+04
        14   1 -4.393912E+06 -6.376562E+05 -2.420992E+04 -1.675569E+06 -2.326935E+04 -9.042213E+03
        14   2 -4.359336E+06 -5.901927E+05  5.862010E+03 -1.642952E+06 -1.372490E+04 -7.738268E+03
        14   3 -4.294096E+06 -5.897402E+05  2.635436E+04 -1.649104E+06 -4.175959E+03 -6.442537E+03
        14   4 -4.430113E+06 -6.496729E+05 -3.381520E+04 -1.683662E+06 -2.402038E+04 -9.323096E+03
        14   5 -4.444882E+06 -6.220968E+05 -1.711156E+04 -1.665803E+06 -1.447961E+04 -8.020572E+03
        14   6 -4.428989E+06 -6.415320E+05 -9.983909E+03 -1.686713E+06 -4.935139E+03 -6.726591E+03
        14   7 -4.466313E+06 -6.616896E+05 -4.342062E+04 -1.691755E+06 -2.477137E+04 -9.603967E+03
        14   8 -4.530423E+06 -6.540007E+05 -4.008587E+04 -1.688651E+06 -1.523422E+04 -8.302835E+03
        14   9 -4.563865E+06 -6.933227E+05 -4.632390E+04 -1.724315E+06 -5.694139E+03 -7.010573E+03
        14  10 -4.393912E+06 -6.376565E+05 -2.421110E+04 -1.675569E+06 -3.231712E-09  4.679717E-10
        14  11 -4.359336E+06 -5.901928E+05  5.861540E+03 -1.642952E+06 -3.614551E-09  1.207674E-09
        14  12 -4.294096E+06 -5.897403E+05  2.635424E+04 -1.649104E+06 -4.336888E-09  6.570947E-10
        14  13 -4.430113E+06 -6.496732E+05 -3.381645E+04 -1.683662E+06  1.954968E-09 -6.929077E-12
        14  14 -4.444883E+06 -6.220969E+05 -1.711208E+04 -1.665803E+06 -2.657712E-09  1.869534E-09
        14  15 -4.428989E+06 -6.415321E+05 -9.984040E+03 -1.686713E+06 -1.580381E-09  1.446160E-09
        14  16 -4.466313E+06 -6.616899E+05 -4.342196E+04 -1.691755E+06  3.070846E-09  1.109361E-09
        14  17 -4.530423E+06 -6.540008E+05 -4.008644E+04 -1.688651E+06 -4.331871E-10  2.028221E-09
        14  18 -4.563865E+06 -6.933227E+05 -4.632405E+04 -1.724315E+06  3.325590E-09  1.596346E-09
        14  19 -4.393912E+06 -6.376562E+05 -2.420992E+04 -1.675569E+06  2.326935E+04  9.042213E+03
        14  20 -4.359336E+06 -5.901927E+05  5.862010E+03 -1.642952E+06  1.372490E+04  7.738268E+03
        14  21 -4.294096E+06 -5.897402E+05  2.635436E+04 -1.649104E+06  4.175959E+03  6.442537E+03
        14  22 -4.430113E+06 -6.496729E+05 -3.381520E+04 -1.683662E+06  2.402038E+04  9.323096E+03
        14  23 -4.444882E+06 -6.220968E+05 -1.711156E+04 -1.665803E+06  1.447961E+04  8.020572E+03
        14  24 -4.428989E+06 -6.415320E+05 -9.983909E+03 -1.686713E+06  4.935139E+03  6.726591E+03
        14  25 -4.466313E+06 -6.616896E+05 -4.342062E+04 -1.691755E+06  2.477137E+04  9.603967E+03
        14  26 -4.530423E+06 -6.540007E+05 -4.008587E+04 -1.688651E+06  1.523422E+04  8.302835E+03
        14  27 -4.563865E+06 -6.933227E+05 -4.632390E+04 -1.724315E+06  5.694139E+03  7.010573E+03
        15   1 -4.201059E+06 -5.558784E+05  5.375627E+04 -1.623170E+06 -2.275698E+03 -7.059557E+03
        15   2 -4.172275E+06 -5.220244E+05  6.857090E+04 -1.593005E+06  8.200724E+02 -8.043352E+03
        15   3 -4.112437E+06 -5.214476E+05  8.122602E+04 -1.598971E+06  3.847289E+03 -8.839126E+03
        15   4 -4.429422E+06 -6.418004E+05 -7.895514E+03 -1.684909E+06 -3.023389E+03 -7.339494E+03
        15   5 -4.444946E+06 -6.248199E+05 -4.858032E+03 -1.666991E+06  1.427481E+02 -8.297258E+03
        15   6 -4.429432E+06 -6.411319E+05 -4.036612E+03 -1.685206E+06  3.240135E+03 -9.067024E+03
        15   7 -4.657734E+06 -7.277191E+05 -6.955169E+04 -1.746628E+06 -3.770773E+03 -7.619317E+03
        15   8 -4.717545E+06 -7.276109E+05 -7.829348E+04 -1.740948E+06 -5.342459E+02 -8.551040E+03
        15   9 -4.746331E+06 -7.608106E+05 -8.930829E+04 -1.771401E+06  2.633324E+03 -9.294793E+03
        15  10 -4.201059E+06 -5.558784E+05  5.375616E+04 -1.623170E+06 -2.576098E-09 -1.287486E-09
        15  11 -4.172275E+06 -5.220245E+05  6.857078E+04 -1.593005E+06 -2.391869E-09 -3.475813E-09
        15  12 -4.112437E+06 -5.214476E+05  8.122584E+04 -1.598971E+06 -1.460046E-09  6.148758E-11
        15  13 -4.429422E+06 -6.418004E+05 -7.895633E+03 -1.684909E+06 -4.276761E-09 -2.802319E-10
        15  14 -4.444946E+06 -6.248200E+05 -4.858161E+03 -1.666991E+06  2.152327E-09 -2.465338E-09
        15  15 -4.429432E+06 -6.411320E+05 -4.036786E+03 -1.685206E+06 -6.758003E-10 -8.225915E-11
        15  16 -4.657734E+06 -7.277192E+05 -6.955183E+04 -1.746628E+06 -9.849542E-10 -5.895352E-10
        15  17 -4.717545E+06 -7.276110E+05 -7.829362E+04 -1.740948E+06 -5.420467E-09 -1.503836E-09
        15  18 -4.746331E+06 -7.608106E+05 -8.930847E+04 -1.771401E+06  2.381942E-10  3.726354E-10
        15  19 -4.201059E+06 -5.558784E+05  5.375627E+04 -1.623170E+06  2.275698E+03  7.059557E+03
        15  20 -4.172275E+06 -5.220244E+05  6.857090E+04 -1.593005E+06 -8.200724E+02  8.043352E+03
        15  21 -4.112437E+06 -5.214476E+05  8.122602E+04 -1.598971E+06 -3.847289E+03  8.839126E+03
        15  22 -4.429422E+06 -6.418004E+05 -7.895514E+03 -1.684909E+06  3.023389E+03  7.339494E+03
        15  23 -4.444946E+06 -6.248199E+05 -4.858032E+03 -1.666991E+06 -1.427481E+02  8.297258E+03
        15  24 -4.429432E+06 -6.411319E+05 -4.036612E+03 -1.685206E+06 -3.240135E+03  9.067024E+03
        15  25 -4.657734E+06 -7.277191E+05 -6.955169E+04 -1.746628E+06  3.770773E+03  7.619317E+03
        15  26 -4.717545E+06 -7.276109E+05 -7.829348E+04 -1.740948E+06  5.342459E+02  8.551040E+03
        15  27 -4.746331E+06 -7.608106E+05 -8.930829E+04 -1.771401E+06 -2.633324E+03  9.294793E+03
        16   1 -4.038222E+06 -4.911494E+05  1.018830E+05 -1.576548E+06  4.885197E+03 -9.529506E+03
        16   2 -4.016989E+06 -4.663715E+05  1.093788E+05 -1.553774E+06  8.010300E+03 -1.004525E+04
        16   3 -3.972649E+06 -4.668544E+05  1.146043E+05 -1.557649E+06  1.101999E+04 -1.024815E+04
        16   4 -4.431231E+06 -6.392941E+05 -4.103154E+03 -1.683138E+06  4.263719E+03 -9.763043E+03
        16   5 -4.442835E+06 -6.271787E+05 -5.341292E+03 -1.669611E+06  7.505772E+03 -1.023529E+04
        16   6 -4.431357E+06 -6.403492E+05 -8.944180E+03 -1.682733E+06  1.063223E+04 -1.039465E+04
        16   7 -4.824089E+06 -7.874296E+05 -1.101028E+05 -1.789667E+06  3.642678E+03 -9.996417E+03
        16   8 -4.868505E+06 -7.879752E+05 -1.200776E+05 -1.785375E+06  7.001626E+03 -1.042519E+04
        16   9 -4.889861E+06 -8.138318E+05 -1.325116E+05 -1.807734E+06  1.024478E+04 -1.054103E+04
        16  10 -4.038222E+06 -4.911495E+05  1.018828E+05 -1.576548E+06  1.227714E-09  1.557830E-09
        16  11 -4.016989E+06 -4.663716E+05  1.093785E+05 -1.553774E+06 -6.750576E-10  8.265142E-10
        16  12 -3.972649E+06 -4.668546E+05  1.146038E+05 -1.557649E+06 -4.146998E-09  1.622989E-09
        16  13 -4.431231E+06 -6.392942E+05 -4.103367E+03 -1.683138E+06  1.927952E-09  6.842860E-11
        16  14 -4.442835E+06 -6.271788E+05 -5.341594E+03 -1.669611E+06 -6.310978E-09  4.451116E-10
        16  15 -4.431357E+06 -6.403494E+05 -8.944595E+03 -1.682733E+06 -3.771162E-09  2.616738E-09
        16  16 -4.824089E+06 -7.874298E+05 -1.101030E+05 -1.789667E+06 -1.408743E-10 -8.291283E-10
        16  17 -4.868505E+06 -7.879753E+05 -1.200779E+05 -1.785375E+06 -7.898092E-10 -5.856720E-11
        16  18 -4.889861E+06 -8.138320E+05 -1.325120E+05 -1.807734E+06 -1.143122E-09  4.135861E-09
        16  19 -4.038222E+06 -4.911494E+05  1.018830E+05 -1.576548E+06 -4.885197E+03  9.529506E+03
        16  20 -4.016989E+06 -4.663715E+05  1.093788E+05 -1.553774E+06 -8.010300E+03  1.004525E+04
        16  21 -3.972649E+06 -4.668544E+05  1.146043E+05 -1.557649E+06 -1.101999E+04  1.024815E+04
        16  22 -4.431231E+06 -6.392941E+05 -4.103154E+03 -1.683138E+06 -4.263719E+03  9.763043E+03
        16  23 -4.442835E+06 -6.271787E+05 -5.341292E+03 -1.669611E+06 -7.505772E+03  1.023529E+04
        16  24 -4.431357E+06 -6.403492E+05 -8.944180E+03 -1.682733E+06 -1.063223E+04  1.039465E+04
        16  25 -4.824089E+06 -7.874296E+05 -1.101028E+05 -1.789667E+06 -3.642678E+03  9.996417E+03
        16  26 -4.868505E+06 -7.879752E+05 -1.200776E+05 -1.785375E+06 -7.001626E+03  1.042519E+04
        16  27 -4.889861E+06 -8.138318E+05 -1.325116E+05 -1.807734E+06 -1.024478E+04  1.054103E+04
        17   1 -3.925282E+06 -4.451555E+05  1.257168E+05 -1.543246E+06  1.296048E+04 -1.023519E+04
        17   2 -3.913208E+06 -4.294301E+05  1.220385E+05 -1.529674E+06  2.316852E+04 -7.405746E+03
        17   3 -3.893992E+06 -4.387127E+05  1.077131E+05 -1.527321E+06  3.319879E+04 -4.100860E+03
        17   4 -4.434331E+06 -6.364500E+05 -1.134326E+04 -1.680740E+06  1.252955E+04 -1.039814E+04
        17   5 -4.438479E+06 -6.285538E+05 -1.960807E+04 -1.673360E+06  2.290987E+04 -7.504165E+03
        17   6 -4.435525E+06 -6.457082E+05 -3.866422E+04 -1.677199E+06  3.311206E+04 -4.134733E+03
        17   7 -4.943129E+06 -8.277300E+05 -1.484264E+05 -1.818132E+06  1.209901E+04 -1.056094E+04
        17   8 -4.963482E+06 -8.276606E+05 -1.612791E+05 -1.816936E+06  2.265146E+04 -7.602494E+03
        17   9 -4.976771E+06 -8.526841E+05 -1.850675E+05 -1.826957E+06  3.302541E+04 -4.168578E+03
        17  10 -3.925282E+06 -4.451556E+05  1.257163E+05 -1.543245E+06  1.657457E-09  2.017072E-09
        17  11 -3.913209E+06 -4.294303E+05  1.220374E+05 -1.529674E+06 -5.402975E-11 -2.710398E-10
        17  12 -3.893994E+06 -4.387130E+05  1.077110E+05 -1.527321E+06 -3.711566E-09 -1.759934E-09
        17  13 -4.434331E+06 -6.364502E+05 -1.134376E+04 -1.680740E+06 -5.273134E-09  2.109262E-09
        17  14 -4.438480E+06 -6.285540E+05 -1.960917E+04 -1.673360E+06 -5.355767E-09 -1.103262E-09
        17  15 -4.435526E+06 -6.457085E+05 -3.866632E+04 -1.677199E+06 -3.905582E-09  1.549431E-10
        17  16 -4.943129E+06 -8.277302E+05 -1.484269E+05 -1.818132E+06 -5.625574E-09  2.185873E-09
        17  17 -4.963483E+06 -8.276608E+05 -1.612802E+05 -1.816936E+06 -4.757715E-09 -2.434133E-09
        17  18 -4.976773E+06 -8.526845E+05 -1.850696E+05 -1.826957E+06  1.665059E-09  1.963943E-09
        17  19 -3.925282E+06 -4.451555E+05  1.257168E+05 -1.543246E+06 -1.296048E+04  1.023519E+04
        17  20 -3.913208E+06 -4.294301E+05  1.220385E+05 -1.529674E+06 -2.316852E+04  7.405746E+03
        17  21 -3.893992E+06 -4.387127E+05  1.077131E+05 -1.527321E+06 -3.319879E+04  4.100860E+03
        17  22 -4.434331E+06 -6.364500E+05 -1.134326E+04 -1.680740E+06 -1.252955E+04  1.039814E+04
        17  23 -4.438479E+06 -6.285538E+05 -1.960807E+04 -1.673360E+06 -2.290987E+04  7.504165E+03
        17  24 -4.435525E+06 -6.457082E+05 -3.866422E+04 -1.677199E+06 -3.311206E+04  4.134733E+03
        17  25 -4.943129E+06 -8.277300E+05 -1.484264E+05 -1.818132E+06 -1.209901E+04  1.056094E+04
        17  26 -4.963482E+06 -8.276606E+05 -1.612791E+05 -1.816936E+06 -2.265146E+04  7.602494E+03
        17  27 -4.976771E+06 -8.526841E+05 -1.850675E+05 -1.826957E+06 -3.302541E+04  4.168578E+03
        18   1 -3.876018E+06 -4.256086E+05  1.018530E+05 -1.535029E+06  4.072893E+04 -1.652599E+03
        18   2 -3.869925E+06 -4.037224E+05  6.663843E+04 -1.522399E+06  8.446752E+04  1.465554E+04
        18   3 -3.907364E+06 -4.830183E+05 -2.881560E+04 -1.483884E+06  1.276798E+05  3.235293E+04
        18   4 -4.442238E+06 -6.313098E+05 -4.912726E+04 -1.680766E+06  4.037382E+04 -1.787130E+03
        18   5 -4.426035E+06 -6.191174E+05 -8.419900E+04 -1.679206E+06  8.460121E+04  1.470424E+04
        18   6 -4.453498E+06 -7.082631E+05 -1.799411E+05 -1.651753E+06  1.283028E+05  3.258334E+04
        18   7 -5.008149E+06 -8.369986E+05 -2.001358E+05 -1.826385E+06  4.001905E+04 -1.921545E+03
        18   8 -4.981845E+06 -8.344902E+05 -2.350645E+05 -1.835885E+06  8.473474E+04  1.475287E+04
        18   9 -4.999340E+06 -9.334746E+05 -3.310945E+05 -1.819482E+06  1.289252E+05  3.281344E+04
        18  10 -3.876020E+06 -4.256090E+05  1.018498E+05 -1.535029E+06  3.684825E-10 -1.092382E-10
        18  11 -3.869933E+06 -4.037245E+05  6.662452E+04 -1.522400E+06 -8.553975E-10 -5.085624E-10
        18  12 -3.907382E+06 -4.830239E+05 -2.884844E+04 -1.483887E+06  2.546013E-09 -6.405768E-10
        18  13 -4.442240E+06 -6.313102E+05 -4.913035E+04 -1.680766E+06 -4.162938E-09  5.658540E-10
        18  14 -4.426042E+06 -6.191195E+05 -8.421297E+04 -1.679207E+06 -1.884183E-09 -8.214875E-10
        18  15 -4.453516E+06 -7.082687E+05 -1.799743E+05 -1.651756E+06  1.494419E-09 -9.976292E-10
        18  16 -5.008151E+06 -8.369991E+05 -2.001388E+05 -1.826385E+06 -6.943558E-10  7.326800E-10
        18  17 -4.981852E+06 -8.344924E+05 -2.350785E+05 -1.835886E+06 -1.416550E-09  1.686367E-10
        18  18 -4.999358E+06 -9.334803E+05 -3.311280E+05 -1.819485E+06  1.517728E-09  1.608040E-09
        18  19 -3.876018E+06 -4.256086E+05  1.018530E+05 -1.535029E+06 -4.072893E+04  1.652599E+03
        18  20 -3.869925E+06 -4.037224E+05  6.663843E+04 -1.522399E+06 -8.446752E+04 -1.465554E+04
        18  21 -3.907364E+06 -4.830183E+05 -2.881560E+04 -1.483884E+06 -1.276798E+05 -3.235293E+04
        18  22 -4.442238E+06 -6.313098E+05 -4.912726E+04 -1.680766E+06 -4.037382E+04  1.787130E+03
        18  23 -4.426035E+06 -6.191174E+05 -8.419900E+04 -1.679206E+06 -8.460121E+04 -1.470424E+04
        18  24 -4.453498E+06 -7.082631E+05 -1.799411E+05 -1.651753E+06 -1.283028E+05 -3.258334E+04
        18  25 -5.008149E+06 -8.369986E+05 -2.001358E+05 -1.826385E+06 -4.001905E+04  1.921545E+03
        18  26 -4.981845E+06 -8.344902E+05 -2.350645E+05 -1.835885E+06 -8.473474E+04 -1.475287E+04
        18  27 -4.999340E+06 -9.334746E+05 -3.310945E+05 -1.819482E+06 -1.289252E+05 -3.281344E+04
        19   1 -3.892376E+06 -4.555444E+05 -7.417008E+04 -1.611199E+06  1.624866E+05  4.419010E+04
        19   2 -3.863772E+06 -2.912080E+05 -2.168408E+05 -1.520824E+06  3.549138E+05  1.176492E+05
        19   3 -4.182332E+06 -9.293160E+05 -7.273991E+05 -1.201722E+06  5.435007E+05  2.012245E+05
        19   4 -4.484338E+06 -6.107533E+05 -2.201202E+05 -1.702730E+06  1.606333E+05  4.350883E+04
        19   5 -4.356076E+06 -5.206788E+05 -3.577545E+05 -1.699107E+06  3.567329E+05  1.183085E+05
        19   6 -4.576003E+06 -1.234227E+06 -8.664291E+05 -1.466653E+06  5.490243E+05  2.031537E+05
        19   7 -5.075952E+06 -7.659722E+05 -3.660930E+05 -1.794202E+06  1.587819E+05  4.282778E+04
        19   8 -4.848138E+06 -7.500962E+05 -4.986914E+05 -1.877249E+06  3.585503E+05  1.189668E+05
        19   9 -4.969463E+06 -1.538920E+06 -1.005467E+06 -1.731382E+06  5.545439E+05  2.050778E+05
        19  10 -3.892405E+06 -4.555536E+05 -7.422375E+04 -1.611205E+06  2.098521E-09 -5.095544E-10
        19  11 -3.863912E+06 -2.912571E+05 -2.171054E+05 -1.520857E+06 -1.464148E-09 -1.695574E-10
        19  12 -4.182662E+06 -9.294397E+05 -7.280350E+05 -1.201811E+06 -2.335027E-09 -9.129815E-10
        19  13 -4.484367E+06 -6.107624E+05 -2.201727E+05 -1.702736E+06  6.096511E-09  2.547795E-10
        19  14 -4.356217E+06 -5.207285E+05 -3.580221E+05 -1.699141E+06 -4.492420E-10  1.271427E-09
        19  15 -4.576340E+06 -1.234353E+06 -8.670784E+05 -1.466743E+06  9.513259E-10  5.922381E-10
        19  16 -5.075980E+06 -7.659810E+05 -3.661443E+05 -1.794207E+06  1.913747E-09  8.258065E-10
        19  17 -4.848281E+06 -7.501464E+05 -4.989621E+05 -1.877284E+06 -2.265809E-09 -1.820368E-09
        19  18 -4.969807E+06 -1.539049E+06 -1.006130E+06 -1.731475E+06 -4.551009E-10 -1.592766E-10
        19  19 -3.892376E+06 -4.555444E+05 -7.417008E+04 -1.611199E+06 -1.624866E+05 -4.419010E+04
        19  20 -3.863772E+06 -2.912080E+05 -2.168408E+05 -1.520824E+06 -3.549138E+05 -1.176492E+05
        19  21 -4.182332E+06 -9.293160E+05 -7.273991E+05 -1.201722E+06 -5.435007E+05 -2.012245E+05
        19  22 -4.484338E+06 -6.107533E+05 -2.201202E+05 -1.702730E+06 -1.606333E+05 -4.350883E+04
        19  23 -4.356076E+06 -5.206788E+05 -3.577545E+05 -1.699107E+06 -3.567329E+05 -1.183085E+05
        19  24 -4.576003E+06 -1.234227E+06 -8.664291E+05 -1.466653E+06 -5.490243E+05 -2.031537E+05
        19  25 -5.075952E+06 -7.659722E+05 -3.660930E+05 -1.794202E+06 -1.587819E+05 -4.282778E+04
        19  26 -4.848138E+06 -7.500962E+05 -4.986914E+05 -1.877249E+06 -3.585503E+05 -1.189668E+05
        19  27 -4.969463E+06 -1.538920E+06 -1.005467E+06 -1.731382E+06 -5.545439E+05 -2.050778E+05
        20   1 -1.667202E+06  3.063369E+04  3.913107E+04  8.075296E+03  2.671074E+04  3.483298E-01
        20   2 -1.672797E+06 -5.312251E+03  1.697886E+04  2.240141E+03  1.751205E+04  6.335204E-02
        20   3 -1.667230E+06 -1.442995E+03  1.078147E+04 -3.594878E+03  8.313475E+03 -4.826265E-02
        20   4 -1.667202E+06  3.063357E+04  3.913106E+04 -6.978163E-10  2.671074E+04  1.634098E-10
        20   5 -1.672797E+06 -5.312260E+03  1.697886E+04 -6.498487E-09  1.751205E+04  7.217944E-10
        20   6 -1.667230E+06 -1.443019E+03  1.078147E+04  1.136560E-08  8.313475E+03  6.179538E-10
        20   7 -1.667202E+06  3.063369E+04  3.913107E+04 -8.075296E+03  2.671074E+04 -3.483298E-01
        20   8 -1.672797E+06 -5.312251E+03  1.697886E+04 -2.240141E+03  1.751205E+04 -6.335203E-02
        20   9 -1.667230E+06 -1.442995E+03  1.078147E+04  3.594878E+03  8.313475E+03  4.826265E-02
        20  10 -1.667203E+06  3.063350E+04  3.912973E+04  8.075296E+03  2.843614E-09  3.128368E-10
        20  11 -1.672797E+06 -5.312334E+03  1.697828E+04  2.240141E+03 -3.223172E-09  4.315877E-10
        20  12 -1.667230E+06 -1.443013E+03  1.078134E+04 -3.594878E+03 -7.735191E-10  3.391630E-13
        20  13 -1.667203E+06  3.063337E+04  3.912971E+04 -2.648815E-08  2.354385E-10  2.275907E-10
        20  14 -1.672797E+06 -5.312343E+03  1.697828E+04 -1.081184E-08 -3.839370E-27  4.406776E-10
        20  15 -1.667230E+06 -1.443038E+03  1.078134E+04  1.131938E-08  2.194615E-09 -1.964525E-10
        20  16 -1.667203E+06  3.063350E+04  3.912973E+04 -8.075296E+03 -5.733962E-10  1.060908E-10
        20  17 -1.672797E+06 -5.312334E+03  1.697828E+04 -2.240141E+03 -1.279347E-09  3.126943E-10
        20  18 -1.667230E+06 -1.443013E+03  1.078134E+04  3.594878E+03  5.613133E-10 -2.501082E-11
        20  19 -1.667202E+06  3.063369E+04  3.913107E+04  8.075296E+03 -2.671074E+04 -3.483298E-01
        20  20 -1.672797E+06 -5.312251E+03  1.697886E+04  2.240141E+03 -1.751205E+04 -6.335203E-02
        20  21 -1.667230E+06 -1.442995E+03  1.078147E+04 -3.594878E+03 -8.313475E+03  4.826265E-02
        20  22 -1.667202E+06  3.063357E+04  3.913106E+04 -6.390085E-10 -2.671074E+04  2.950420E-10
        20  23 -1.672797E+06 -5.312260E+03  1.697886E+04 -1.082025E-08 -1.751205E+04  1.645493E-10
        20  24 -1.667230E+06 -1.443019E+03  1.078147E+04  2.096253E-08 -8.313475E+03 -1.003782E-09
        20  25 -1.667202E+06  3.063369E+04  3.913107E+04 -8.075296E+03 -2.671074E+04  3.483298E-01
        20  26 -1.672797E+06 -5.312251E+03  1.697886E+04 -2.240141E+03 -1.751205E+04  6.335203E-02
        20  27 -1.667230E+06 -1.442995E+03  1.078147E+04  3.594878E+03 -8.313475E+03 -4.826265E-02
        21   1 -1.669372E+06  3.665448E+03  8.838153E+03  8.908325E+02  6.606161E+03  9.503667E-03
        21   2 -1.670121E+06 -6.457131E+02  4.400378E+03  2.202219E+02  4.335846E+03  1.541986E-03
        21   3 -1.669376E+06 -1.699351E+02  2.640456E+03 -4.503989E+02  2.065501E+03 -1.502340E-03
        21   4 -1.669372E+06  3.665446E+03  8.838153E+03  1.689914E-08  6.606161E+03 -1.036816E-10
        21   5 -1.670121E+06 -6.457132E+02  4.400378E+03  2.997185E-08  4.335846E+03 -6.898672E-10
        21   6 -1.669376E+06 -1.699355E+02  2.640456E+03  1.827627E-08  2.065501E+03  9.132557E-10
        21   7 -1.669372E+06  3.665448E+03  8.838153E+03 -8.908325E+02  6.606161E+03 -9.503667E-03
        21   8 -1.670121E+06 -6.457131E+02  4.400378E+03 -2.202219E+02  4.335846E+03 -1.541988E-03
        21   9 -1.669376E+06 -1.699351E+02  2.640456E+03  4.503989E+02  2.065501E+03  1.502342E-03
        21  10 -1.669372E+06  3.665436E+03  8.838071E+03  8.908325E+02 -9.420495E-10 -2.687378E-10
        21  11 -1.670121E+06 -6.457181E+02  4.400343E+03  2.202219E+02  2.736596E-09 -6.995695E-11
        21  12 -1.669376E+06 -1.699362E+02  2.640448E+03 -4.503989E+02 -2.189300E-09 -5.553092E-10
        21  13 -1.669372E+06  3.665434E+03  8.838071E+03  8.313306E-09  2.471362E-09 -3.320705E-10
        21  14 -1.670121E+06 -6.457182E+02  4.400343E+03  2.137238E-08 -4.909108E-09  7.670157E-11
        21  15 -1.669376E+06 -1.699366E+02  2.640448E+03  4.303733E-08 -2.181968E-09  2.047788E-10
        21  16 -1.669372E+06  3.665436E+03  8.838071E+03 -8.908325E+02  7.067779E-10 -3.973876E-10
        21  17 -1.670121E+06 -6.457181E+02  4.400343E+03 -2.202219E+02 -4.800416E-09  8.781137E-11
        21  18 -1.669376E+06 -1.699362E+02  2.640448E+03  4.503989E+02 -6.926958E-10  9.629233E-10
        21  19 -1.669372E+06  3.665448E+03  8.838153E+03  8.908325E+02 -6.606161E+03 -9.503668E-03
        21  20 -1.670121E+06 -6.457131E+02  4.400378E+03  2.202219E+02 -4.335846E+03 -1.541985E-03
        21  21 -1.669376E+06 -1.699351E+02  2.640456E+03 -4.503989E+02 -2.065501E+03  1.502339E-03
        21  22 -1.669372E+06  3.665446E+03  8.838153E+03  1.694641E-08 -6.606161E+03 -5.518781E-10
        21  23 -1.670121E+06 -6.457132E+02  4.400378E+03 -4.447037E-09 -4.335846E+03  9.523979E-10
        21  24 -1.669376E+06 -1.699355E+02  2.640456E+03  1.937037E-08 -2.065501E+03 -5.874892E-10
        21  25 -1.669372E+06  3.665448E+03  8.838153E+03 -8.908325E+02 -6.606161E+03  9.503666E-03
        21  26 -1.670121E+06 -6.457131E+02  4.400378E+03 -2.202219E+02 -4.335846E+03  1.541987E-03
        21  27 -1.669376E+06 -1.699351E+02  2.640456E+03  4.503989E+02 -2.065501E+03 -1.502340E-03
        22   1 -1.669660E+06  4.336875E+02  2.073372E+03  8.620998E+01  1.647046E+03  2.293033E-04
        22   2 -1.669768E+06 -7.868072E+01  1.090145E+03  1.364991E+01  1.097241E+03  2.418630E-05
        22   3 -1.669661E+06 -2.019415E+01  6.083045E+02 -5.891019E+01  5.474364E+02 -5.207822E-05
        22   4 -1.669660E+06  4.336875E+02  2.073372E+03 -1.004418E-08  1.647046E+03  5.451026E-10
        22   5 -1.669768E+06 -7.868072E+01  1.090145E+03 -7.948835E-09  1.097241E+03 -1.159503E-09
        22   6 -1.669661E+06 -2.019416E+01  6.083045E+02  1.566624E-08  5.474364E+02  1.269969E-09
        22   7 -1.669660E+06  4.336875E+02  2.073372E+03 -8.620998E+01  1.647046E+03 -2.293020E-04
        22   8 -1.669768E+06 -7.868072E+01  1.090145E+03 -1.364991E+01  1.097241E+03 -2.418895E-05
        22   9 -1.669661E+06 -2.019415E+01  6.083045E+02  5.891019E+01  5.474364E+02  5.208022E-05
        22  10 -1.669660E+06  4.336868E+02  2.073367E+03  8.620998E+01 -2.300595E-09 -1.287150E-10
        22  11 -1.669768E+06 -7.868105E+01  1.090143E+03  1.364991E+01 -2.645613E-09  4.915134E-10
        22  12 -1.669661E+06 -2.019423E+01  6.083039E+02 -5.891019E+01  4.521410E-10  4.642537E-10
        22  13 -1.669660E+06  4.336868E+02  2.073367E+03  7.183155E-09 -6.491116E-09  1.306452E-10
        22  14 -1.669768E+06 -7.868105E+01  1.090143E+03 -1.655777E-08 -6.234258E-10 -2.120292E-11
        22  15 -1.669661E+06 -2.019424E+01  6.083039E+02 -1.016794E-08 -1.018859E-09 -5.000375E-11
        22  16 -1.669660E+06  4.336868E+02  2.073367E+03 -8.620998E+01 -1.566962E-09  3.870602E-10
        22  17 -1.669768E+06 -7.868105E+01  1.090143E+03 -1.364991E+01 -3.803487E-09 -5.475502E-10
        22  18 -1.669661E+06 -2.019423E+01  6.083039E+02  5.891019E+01  1.068093E-09 -5.149668E-10
        22  19 -1.669660E+06  4.336875E+02  2.073372E+03  8.620998E+01 -1.647046E+03 -2.293033E-04
        22  20 -1.669768E+06 -7.868072E+01  1.090145E+03  1.364991E+01 -1.097241E+03 -2.418421E-05
        22  21 -1.669661E+06 -2.019415E+01  6.083045E+02 -5.891019E+01 -5.474364E+02  5.207908E-05
        22  22 -1.669660E+06  4.336875E+02  2.073372E+03  2.878159E-09 -1.647046E+03 -2.338511E-10
        22  23 -1.669768E+06 -7.868072E+01  1.090145E+03 -3.378091E-08 -1.097241E+03  1.321859E-09
        22  24 -1.669661E+06 -2.019416E+01  6.083045E+02  1.996284E-08 -5.474364E+02 -1.336096E-09
        22  25 -1.669660E+06  4.336875E+02  2.073372E+03 -8.620998E+01 -1.647046E+03  2.293029E-04
        22  26 -1.669768E+06 -7.868072E+01  1.090145E+03 -1.364991E+01 -1.097241E+03  2.418706E-05
        22  27 -1.669661E+06 -2.019415E+01  6.083045E+02  5.891019E+01 -5.474364E+02 -5.208169E-05
        23   1 -1.669703E+06  5.035807E+01  4.439394E+02  3.361235E+00  4.531449E+02  2.461831E-06
        23   2 -1.669716E+06 -7.866733E+00  1.731043E+02 -2.837720E+00  3.665626E+02 -1.680794E-06
        23   3 -1.669703E+06 -1.043260E+01 -2.733586E+01 -9.036583E+00  2.799815E+02 -4.085624E-06
        23   4 -1.669703E+06  5.035807E+01  4.439394E+02  7.123342E-10  4.531449E+02  1.691599E-09
        23   5 -1.669716E+06 -7.866733E+00  1.731043E+02 -7.950141E-09  3.665626E+02 -5.132047E-10
        23   6 -1.669703E+06 -1.043260E+01 -2.733586E+01  2.428066E-08  2.799815E+02 -9.217906E-11
        23   7 -1.669703E+06  5.035807E+01  4.439394E+02 -3.361235E+00  4.531449E+02 -2.458151E-06
        23   8 -1.669716E+06 -7.866733E+00  1.731043E+02  2.837720E+00  3.665626E+02  1.678900E-06
        23   9 -1.669703E+06 -1.043260E+01 -2.733586E+01  9.036583E+00  2.799815E+02  4.085607E-06
        23  10 -1.669703E+06  5.035802E+01  4.439390E+02  3.361235E+00 -7.196651E-10 -1.224096E-10
        23  11 -1.669716E+06 -7.866769E+00  1.731040E+02 -2.837720E+00 -2.199074E-09 -1.632144E-10
        23  12 -1.669703E+06 -1.043262E+01 -2.733601E+01 -9.036583E+00 -1.876641E-09  2.291488E-10
        23  13 -1.669703E+06  5.035802E+01  4.439390E+02 -1.222156E-08 -2.514298E-10 -2.606478E-10
        23  14 -1.669716E+06 -7.866769E+00  1.731040E+02 -3.629389E-09 -2.926906E-09 -2.986728E-10
        23  15 -1.669703E+06 -1.043262E+01 -2.733601E+01 -1.441811E-08 -7.521453E-10  3.643252E-10
        23  16 -1.669703E+06  5.035802E+01  4.439390E+02 -3.361235E+00  2.778728E-09 -2.650689E-10
        23  17 -1.669716E+06 -7.866769E+00  1.731040E+02  2.837720E+00  2.761577E-09 -1.675975E-10
        23  18 -1.669703E+06 -1.043262E+01 -2.733601E+01  9.036583E+00 -1.841208E-09  4.082098E-10
        23  19 -1.669703E+06  5.035807E+01  4.439394E+02  3.361235E+00 -4.531449E+02 -2.461180E-06
        23  20 -1.669716E+06 -7.866733E+00  1.731043E+02 -2.837720E+00 -3.665626E+02  1.680274E-06
        23  21 -1.669703E+06 -1.043260E+01 -2.733586E+01 -9.036583E+00 -2.799815E+02  4.087075E-06
        23  22 -1.669703E+06  5.035807E+01  4.439394E+02  2.219951E-08 -4.531449E+02 -2.189348E-09
        23  23 -1.669716E+06 -7.866733E+00  1.731043E+02  6.808595E-10 -3.665626E+02 -1.240487E-10
        23  24 -1.669703E+06 -1.043260E+01 -2.733586E+01 -4.691950E-09 -2.799815E+02  8.176771E-10
        23  25 -1.669703E+06  5.035807E+01  4.439394E+02 -3.361235E+00 -4.531449E+02  2.457408E-06
        23  26 -1.669716E+06 -7.866733E+00  1.731043E+02  2.837720E+00 -3.665626E+02 -1.679909E-06
        23  27 -1.669703E+06 -1.043260E+01 -2.733586E+01  9.036583E+00 -2.799815E+02 -4.085478E-06
        24   1 -1.669719E+06  8.634596E+00 -1.242413E+02 -1.292282E+01  2.936439E+02 -6.127942E-06
        24   2 -1.669696E+06  1.369930E+01 -3.584042E+02 -3.081477E+00  4.725076E+02 -2.351709E-06
        24   3 -1.669719E+06 -7.680383E+01 -7.331402E+02  6.760009E+00  6.513740E+02  7.112868E-06
        24   4 -1.669719E+06  8.634596E+00 -1.242413E+02  2.581242E-08  2.936439E+02  7.454304E-11
        24   5 -1.669696E+06  1.369930E+01 -3.584042E+02  7.179095E-10  4.725076E+02 -4.144253E-10
        24   6 -1.669719E+06 -7.680383E+01 -7.331402E+02 -1.145426E-08  6.513740E+02  1.427736E-09
        24   7 -1.669719E+06  8.634596E+00 -1.242413E+02  1.292282E+01  2.936439E+02  6.128444E-06
        24   8 -1.669696E+06  1.369930E+01 -3.584042E+02  3.081477E+00  4.725076E+02  2.350223E-06
        24   9 -1.669719E+06 -7.680383E+01 -7.331402E+02 -6.760009E+00  6.513740E+02 -7.109655E-06
        24  10 -1.669719E+06  8.634573E+00 -1.242415E+02 -1.292282E+01  4.656041E-10  5.648826E-10
        24  11 -1.669696E+06  1.369924E+01 -3.584047E+02 -3.081477E+00 -3.958214E-09  2.963053E-10
        24  12 -1.669719E+06 -7.680394E+01 -7.331410E+02  6.760009E+00 -2.504993E-09 -1.299232E-10
        24  13 -1.669719E+06  8.634573E+00 -1.242415E+02  2.145806E-08 -4.254582E-09  4.058772E-10
        24  14 -1.669696E+06  1.369924E+01 -3.584047E+02  9.321604E-09 -4.774532E-09 -8.875471E-11
        24  15 -1.669719E+06 -7.680394E+01 -7.331410E+02  3.808894E-08 -1.913443E-09  3.262705E-10
        24  16 -1.669719E+06  8.634573E+00 -1.242415E+02  1.292282E+01 -1.340866E-09  2.791571E-10
        24  17 -1.669696E+06  1.369924E+01 -3.584047E+02  3.081477E+00  2.241004E-10 -4.693872E-10
        24  18 -1.669719E+06 -7.680394E+01 -7.331410E+02 -6.760009E+00  1.782347E-09  4.307128E-10
        24  19 -1.669719E+06  8.634596E+00 -1.242413E+02 -1.292282E+01 -2.936439E+02  6.128757E-06
        24  20 -1.669696E+06  1.369930E+01 -3.584042E+02 -3.081477E+00 -4.725076E+02  2.352231E-06
        24  21 -1.669719E+06 -7.680383E+01 -7.331402E+02  6.760009E+00 -6.513740E+02 -7.111731E-06
        24  22 -1.669719E+06  8.634596E+00 -1.242413E+02 -8.722091E-09 -2.936439E+02  7.457827E-10
        24  23 -1.669696E+06  1.369930E+01 -3.584042E+02  3.945449E-08 -4.725076E+02  2.326880E-10
        24  24 -1.669719E+06 -7.680383E+01 -7.331402E+02  2.789818E-08 -6.513740E+02 -7.686986E-10
        24  25 -1.669719E+06  8.634596E+00 -1.242413E+02  1.292282E+01 -2.936439E+02 -6.127675E-06
        24  26 -1.669696E+06  1.369930E+01 -3.584042E+02  3.081477E+00 -4.725076E+02 -2.351728E-06
        24  27 -1.669719E+06 -7.680383E+01 -7.331402E+02 -6.760009E+00 -6.513740E+02  7.110007E-06
        25   1 -1.669782E+06  3.021625E+01 -9.716997E+02 -8.959698E+01  8.042156E+02 -1.163610E-04
        25   2 -1.669618E+06  1.206187E+02 -1.691270E+03  2.129549E+01  1.656976E+03  5.698239E-05
        25   3 -1.669784E+06 -6.635821E+02 -3.185794E+03  1.321880E+02  2.509735E+03  5.357535E-04
        25   4 -1.669782E+06  3.021624E+01 -9.716997E+02 -7.313906E-09  8.042156E+02  1.064507E-09
        25   5 -1.669618E+06  1.206187E+02 -1.691270E+03  5.367921E-09  1.656976E+03 -1.334362E-09
        25   6 -1.669784E+06 -6.635821E+02 -3.185794E+03  3.472953E-08  2.509735E+03 -6.192441E-10
        25   7 -1.669782E+06  3.021625E+01 -9.716997E+02  8.959698E+01  8.042156E+02  1.163631E-04
        25   8 -1.669618E+06  1.206187E+02 -1.691270E+03 -2.129549E+01  1.656976E+03 -5.698561E-05
        25   9 -1.669784E+06 -6.635821E+02 -3.185794E+03 -1.321880E+02  2.509735E+03 -5.357549E-04
        25  10 -1.669782E+06  3.021608E+01 -9.717009E+02 -8.959698E+01 -3.741935E-09  2.788212E-10
        25  11 -1.669618E+06  1.206179E+02 -1.691276E+03  2.129549E+01 -1.800228E-09  1.003815E-11
        25  12 -1.669784E+06 -6.635838E+02 -3.185806E+03  1.321880E+02 -1.110359E-09 -9.160253E-10
        25  13 -1.669782E+06  3.021606E+01 -9.717009E+02  1.256180E-09 -8.080968E-10  3.059735E-10
        25  14 -1.669618E+06  1.206179E+02 -1.691276E+03  3.548613E-08 -1.378010E-09 -2.961950E-10
        25  15 -1.669784E+06 -6.635838E+02 -3.185806E+03  5.138954E-09 -7.930342E-10 -4.806374E-10
        25  16 -1.669782E+06  3.021608E+01 -9.717009E+02  8.959698E+01  4.375666E-10  1.973360E-10
        25  17 -1.669618E+06  1.206179E+02 -1.691276E+03 -2.129549E+01  5.203179E-10 -5.982942E-10
        25  18 -1.669784E+06 -6.635838E+02 -3.185806E+03 -1.321880E+02 -7.616149E-10 -1.310330E-10
        25  19 -1.669782E+06  3.021625E+01 -9.716997E+02 -8.959698E+01 -8.042156E+02  1.163620E-04
        25  20 -1.669618E+06  1.206187E+02 -1.691270E+03  2.129549E+01 -1.656976E+03 -5.698228E-05
        25  21 -1.669784E+06 -6.635821E+02 -3.185794E+03  1.321880E+02 -2.509735E+03 -5.357551E-04
        25  22 -1.669782E+06  3.021624E+01 -9.716997E+02  3.565521E-08 -8.042156E+02 -4.731885E-10
        25  23 -1.669618E+06  1.206187E+02 -1.691270E+03  3.547142E-08 -1.656976E+03  5.789171E-10
        25  24 -1.669784E+06 -6.635821E+02 -3.185794E+03  3.206516E-08 -2.509735E+03 -3.492813E-10
        25  25 -1.669782E+06  3.021625E+01 -9.716997E+02  8.959698E+01 -8.042156E+02 -1.163626E-04
        25  26 -1.669618E+06  1.206187E+02 -1.691270E+03 -2.129549E+01 -1.656976E+03  5.698369E-05
        25  27 -1.669784E+06 -6.635821E+02 -3.185794E+03 -1.321880E+02 -2.509735E+03  5.357536E-04
        26   1 -1.670217E+06  2.600008E+02 -4.050236E+03 -6.889944E+02  3.152126E+03 -3.507239E-03
        26   2 -1.669078E+06  9.880721E+02 -6.738618E+03  3.370851E+02  6.628850E+03  3.608470E-03
        26   3 -1.670224E+06 -5.608590E+03 -1.352620E+04  1.363150E+03  1.010551E+04  2.224578E-02
        26   4 -1.670217E+06  2.599999E+02 -4.050237E+03 -5.964759E-09  3.152126E+03  6.333147E-10
        26   5 -1.669078E+06  9.880719E+02 -6.738618E+03  8.286279E-09  6.628850E+03  7.247163E-10
        26   6 -1.670224E+06 -5.608594E+03 -1.352620E+04  1.930639E-08  1.010551E+04 -1.009055E-09
        26   7 -1.670217E+06  2.600008E+02 -4.050236E+03  6.889944E+02  3.152126E+03  3.507240E-03
        26   8 -1.669078E+06  9.880721E+02 -6.738618E+03 -3.370851E+02  6.628850E+03 -3.608469E-03
        26   9 -1.670224E+06 -5.608590E+03 -1.352620E+04 -1.363150E+03  1.010551E+04 -2.224578E-02
        26  10 -1.670217E+06  2.599981E+02 -4.050255E+03 -6.889944E+02 -4.032090E-10 -1.845550E-10
        26  11 -1.669078E+06  9.880602E+02 -6.738701E+03  3.370851E+02 -1.149617E-09  8.930196E-10
        26  12 -1.670224E+06 -5.608618E+03 -1.352639E+04  1.363150E+03  1.740591E-09 -4.471474E-10
        26  13 -1.670217E+06  2.599973E+02 -4.050255E+03 -5.894390E-09 -5.431643E-09  7.461785E-11
        26  14 -1.669078E+06  9.880600E+02 -6.738701E+03  3.969708E-09  2.755509E-09  5.529720E-10
        26  15 -1.670224E+06 -5.608621E+03 -1.352639E+04  2.459207E-08 -2.560148E-09 -4.549708E-10
        26  16 -1.670217E+06  2.599981E+02 -4.050255E+03  6.889944E+02 -3.380455E-09  3.327298E-10
        26  17 -1.669078E+06  9.880602E+02 -6.738701E+03 -3.370851E+02 -1.261453E-09  3.458490E-10
        26  18 -1.670224E+06 -5.608618E+03 -1.352639E+04 -1.363150E+03 -5.423025E-10 -3.777576E-10
        26  19 -1.670217E+06  2.600008E+02 -4.050236E+03 -6.889944E+02 -3.152126E+03  3.507239E-03
        26  20 -1.669078E+06  9.880721E+02 -6.738618E+03  3.370851E+02 -6.628850E+03 -3.608468E-03
        26  21 -1.670224E+06 -5.608590E+03 -1.352620E+04  1.363150E+03 -1.010551E+04 -2.224578E-02
        26  22 -1.670217E+06  2.599999E+02 -4.050237E+03 -1.875163E-08 -3.152126E+03 -4.969461E-10
        26  23 -1.669078E+06  9.880719E+02 -6.738618E+03 -2.187088E-08 -6.628850E+03  5.859168E-10
        26  24 -1.670224E+06 -5.608594E+03 -1.352620E+04  7.816713E-09 -1.010551E+04  1.450087E-10
        26  25 -1.670217E+06  2.600008E+02 -4.050236E+03  6.889944E+02 -3.152126E+03 -3.507240E-03
        26  26 -1.669078E+06  9.880721E+02 -6.738618E+03 -3.370851E+02 -6.628850E+03  3.608469E-03
        26  27 -1.670224E+06 -5.608590E+03 -1.352620E+04 -1.363150E+03 -1.010551E+04  2.224578E-02
        27   1 -1.673502E+06  2.208141E+03 -1.649851E+04 -5.500586E+03  1.271814E+04 -1.129745E-01
        27   2 -1.664983E+06  8.128540E+03 -2.597802E+04  3.427876E+03  2.679393E+04  1.483213E-01
        27   3 -1.673542E+06 -4.687272E+04 -5.986953E+04  1.235635E+04  4.086998E+04  8.155300E-01
        27   4 -1.673502E+06  2.208084E+03 -1.649852E+04  7.960379E-09  1.271814E+04 -1.291213E-09
        27   5 -1.664983E+06  8.128518E+03 -2.597802E+04 -9.031651E-09  2.679393E+04 -7.768120E-11
        27   6 -1.673542E+06 -4.687301E+04 -5.986957E+04  3.209505E-08  4.086998E+04 -4.807553E-12
        27   7 -1.673502E+06  2.208141E+03 -1.649851E+04  5.500586E+03  1.271814E+04  1.129745E-01
        27   8 -1.664983E+06  8.128540E+03 -2.597802E+04 -3.427876E+03  2.679393E+04 -1.483213E-01
        27   9 -1.673542E+06 -4.687272E+04 -5.986953E+04 -1.235635E+04  4.086998E+04 -8.155300E-01
        27  10 -1.673502E+06  2.208098E+03 -1.649881E+04 -5.500586E+03 -2.338674E-09 -6.296185E-10
        27  11 -1.664984E+06  8.128347E+03 -2.597937E+04  3.427876E+03 -1.904079E-09  3.069867E-10
        27  12 -1.673544E+06 -4.687317E+04 -5.987268E+04  1.235635E+04  1.460818E-09  5.027112E-10
        27  13 -1.673502E+06  2.208041E+03 -1.649882E+04  8.022361E-09 -1.676886E-09 -6.651812E-10
        27  14 -1.664984E+06  8.128325E+03 -2.597937E+04 -2.193113E-08  2.327695E-09  2.532630E-10
        27  15 -1.673544E+06 -4.687346E+04 -5.987272E+04  6.233944E-09 -8.161926E-10  2.178073E-10
        27  16 -1.673502E+06  2.208098E+03 -1.649881E+04  5.500586E+03  1.814089E-10 -4.971363E-10
        27  17 -1.664984E+06  8.128347E+03 -2.597937E+04 -3.427876E+03  7.527724E-10  3.015261E-11
        27  18 -1.673544E+06 -4.687317E+04 -5.987268E+04 -1.235635E+04  4.582915E-11 -1.717880E-11
        27  19 -1.673502E+06  2.208141E+03 -1.649851E+04 -5.500586E+03 -1.271814E+04  1.129745E-01
        27  20 -1.664983E+06  8.128540E+03 -2.597802E+04  3.427876E+03 -2.679393E+04 -1.483213E-01
        27  21 -1.673542E+06 -4.687272E+04 -5.986953E+04  1.235635E+04 -4.086998E+04 -8.155300E-01
        27  22 -1.673502E+06  2.208084E+03 -1.649852E+04  8.085380E-09 -1.271814E+04 -9.629248E-12
        27  23 -1.664983E+06  8.128518E+03 -2.597802E+04 -3.847407E-10 -2.679393E+04  5.271306E-10
        27  24 -1.673542E+06 -4.687301E+04 -5.986957E+04  3.364111E-08 -4.086998E+04  3.709566E-10
        27  25 -1.673502E+06  2.208141E+03 -1.649851E+04  5.500586E+03 -1.271814E+04 -1.129745E-01
        27  26 -1.664983E+06  8.128540E+03 -2.597802E+04 -3.427876E+03 -2.679393E+04  1.483213E-01
        27  27 -1.673542E+06 -4.687272E+04 -5.986953E+04 -1.235635E+04 -4.086998E+04  8.155300E-01
        28   1  5.054153E+05  1.117028E+06  6.255749E+05 -6.202405E+04  3.051708E+03  3.699913E+05
        28   2  2.724872E+04  1.135131E+06  3.442572E+05 -2.456355E+04  1.084428E+04  2.358788E+05
        28   3  1.094556E+05  1.311118E+06  2.903832E+05  1.022806E+05  1.425563E+04  1.017423E+05
        28   4  4.271950E+05  8.031747E+05  5.480316E+05  5.153511E+04  3.119301E+03  3.657964E+05
        28   5 -7.476811E+04  7.244288E+05  2.445974E+05  6.816055E+03  1.085737E+04  2.335149E+05
        28   6 -1.651695E+04  8.032912E+05  1.674049E+05  5.148050E+04  1.424835E+04  1.012294E+05
        28   7  3.490157E+05  4.894382E+05  4.704879E+05  1.650369E+05  3.185392E+03  3.616036E+05
        28   8 -1.767936E+05  3.138826E+05  1.449260E+05  3.817488E+04  1.087023E+04  2.311526E+05
        28   9 -1.424987E+05  2.957051E+05  4.440943E+04  7.220683E+02  1.424115E+04  1.007169E+05
        28  10  5.053786E+05  1.116882E+06  6.253181E+05 -6.202496E+04 -2.455648E-10  2.251871E-10
        28  11  2.723370E+04  1.135071E+06  3.441527E+05 -2.456561E+04 -4.289609E-10 -3.370192E-10
        28  12  1.094526E+05  1.311107E+06  2.903634E+05  1.022794E+05 -1.996600E-09 -1.891235E-10
        28  13  4.271591E+05  8.030312E+05  5.477804E+05  5.153420E+04  3.314092E-10  1.336523E-11
        28  14 -7.478285E+04  7.243703E+05  2.444949E+05  6.814014E+03  7.658564E-10 -9.850664E-11
        28  15 -1.651991E+04  8.032801E+05  1.673853E+05  5.147934E+04 -1.402088E-09  2.144260E-11
        28  16  3.489806E+05  4.892979E+05  4.702424E+05  1.650360E+05 -3.960553E-10 -2.548836E-10
        28  17 -1.768081E+05  3.138253E+05  1.448254E+05  3.817286E+04 -5.676677E-10  2.259035E-10
        28  18 -1.425016E+05  2.956941E+05  4.439000E+04  7.209132E+02  1.626076E-09  3.020662E-10
        28  19  5.054153E+05  1.117028E+06  6.255749E+05 -6.202405E+04 -3.051708E+03 -3.699913E+05
        28  20  2.724872E+04  1.135131E+06  3.442572E+05 -2.456355E+04 -1.084428E+04 -2.358788E+05
        28  21  1.094556E+05  1.311118E+06  2.903832E+05  1.022806E+05 -1.425563E+04 -1.017423E+05
        28  22  4.271950E+05  8.031747E+05  5.480316E+05  5.153511E+04 -3.119301E+03 -3.657964E+05
        28  23 -7.476811E+04  7.244288E+05  2.445974E+05  6.816055E+03 -1.085737E+04 -2.335149E+05
        28  24 -1.651695E+04  8.032912E+05  1.674049E+05  5.148050E+04 -1.424835E+04 -1.012294E+05
        28  25  3.490157E+05  4.894382E+05  4.704879E+05  1.650369E+05 -3.185392E+03 -3.616036E+05
        28  26 -1.767936E+05  3.138826E+05  1.449260E+05  3.817488E+04 -1.087023E+04 -2.311526E+05
        28  27 -1.424987E+05  2.957051E+05  4.440943E+04  7.220683E+02 -1.424115E+04 -1.007169E+05
        29   1  2.182951E+05  1.455235E+06  3.107826E+05  3.522768E+04  1.610095E+04  7.615447E+04
        29   2  1.785962E+05  1.537335E+06  2.880136E+05  4.149357E+03  2.026416E+04  2.390158E+04
        29   3  2.475785E+05  1.654768E+06  3.266667E+05  6.489098E+04  2.177694E+04 -2.835702E+04
        29   4  4.952337E+04  7.759816E+05  1.454813E+05  5.207333E+04  1.610602E+04  7.387151E+04
        29   5 -1.481205E+04  7.583956E+05  9.893285E+04  6.163513E+03  2.026753E+04  2.275247E+04
        29   6  2.940909E+04  7.759735E+05  1.130672E+05  5.207844E+04  2.177958E+04 -2.836403E+04
        29   7 -1.192812E+05  9.714936E+04 -1.985330E+04  6.890061E+04  1.611098E+04  7.159101E+04
        29   8 -2.082648E+05 -1.999105E+04 -9.019170E+04  8.175337E+03  2.027089E+04  2.160477E+04
        29   9 -1.888164E+05 -1.021175E+05 -1.005879E+05  3.928438E+04  2.178223E+04 -2.837101E+04
        29  10  2.182933E+05  1.455228E+06  3.107712E+05  3.522669E+04 -2.569776E-10  6.310692E-10
        29  11  1.785956E+05  1.537334E+06  2.880118E+05  4.148968E+03 -2.429203E-09 -1.390778E-09
        29  12  2.475778E+05  1.654767E+06  3.266643E+05  6.489147E+04 -2.304220E-09 -1.704522E-09
        29  13  4.952163E+04  7.759757E+05  1.454705E+05  5.207237E+04  3.069707E-09  2.439684E-10
        29  14 -1.481263E+04  7.583950E+05  9.893110E+04  6.163141E+03  2.219385E-09 -4.094962E-10
        29  15  2.940836E+04  7.759725E+05  1.130648E+05  5.207894E+04  1.263425E-09  1.294363E-10
        29  16 -1.192829E+05  9.714379E+04 -1.986342E+04  6.889969E+04  3.518076E-09 -7.621349E-10
        29  17 -2.082654E+05 -1.999166E+04 -9.019335E+04  8.174984E+03  3.441469E-09  9.477727E-10
        29  18 -1.888171E+05 -1.021185E+05 -1.005903E+05  3.928487E+04 -2.166391E-09  1.982672E-09
        29  19  2.182951E+05  1.455235E+06  3.107826E+05  3.522768E+04 -1.610095E+04 -7.615447E+04
        29  20  1.785962E+05  1.537335E+06  2.880136E+05  4.149357E+03 -2.026416E+04 -2.390158E+04
        29  21  2.475785E+05  1.654768E+06  3.266667E+05  6.489098E+04 -2.177694E+04  2.835702E+04
        29  22  4.952337E+04  7.759816E+05  1.454813E+05  5.207333E+04 -1.610602E+04 -7.387151E+04
        29  23 -1.481205E+04  7.583956E+05  9.893285E+04  6.163513E+03 -2.026753E+04 -2.275247E+04
        29  24  2.940909E+04  7.759735E+05  1.130672E+05  5.207844E+04 -2.177958E+04  2.836403E+04
        29  25 -1.192812E+05  9.714936E+04 -1.985330E+04  6.890061E+04 -1.611098E+04 -7.159101E+04
        29  26 -2.082648E+05 -1.999105E+04 -9.019170E+04  8.175337E+03 -2.027089E+04 -2.160477E+04
        29  27 -1.888164E+05 -1.021175E+05 -1.005879E+05  3.928438E+04 -2.178223E+04  2.837101E+04
        30   1  2.553656E+05  1.847210E+06  3.782582E+05  1.796482E+04  2.770376E+04 -4.211613E+04
        30   2  2.395904E+05  1.899165E+06  4.422022E+05  2.184360E+04  3.230115E+04 -1.394841E+05
        30   3  5.829799E+05  2.056566E+06  6.598235E+05  1.220857E+05  1.180394E+04 -2.369612E+05
        30   4 -6.991788E+03  7.911488E+05  1.219462E+05  5.274583E+04  2.772110E+04 -4.896746E+04
        30   5 -4.812866E+04  7.391841E+05  1.611547E+05  5.108494E+03  3.229766E+04 -1.359343E+05
        30   6  2.684467E+05  7.910425E+05  3.470252E+05  5.383369E+04  1.177513E+04 -2.229926E+05
        30   7 -2.694266E+05 -2.638941E+05 -1.344455E+05  8.746822E+04  2.773768E+04 -5.580714E+04
        30   8 -3.359450E+05 -4.195704E+05 -1.199893E+05 -1.159433E+04  3.229399E+04 -1.323908E+05
        30   9 -4.618742E+04 -4.730180E+05  3.411159E+04 -1.427799E+04  1.174325E+04 -2.090519E+05
        30  10  2.553643E+05  1.847208E+06  3.782535E+05  1.796576E+04 -3.351197E-09 -2.645629E-09
        30  11  2.395841E+05  1.899144E+06  4.421638E+05  2.184723E+04  3.731398E-11 -1.785483E-09
        30  12  5.829648E+05  2.056506E+06  6.597180E+05  1.220879E+05 -7.880356E-10  9.298076E-10
        30  13 -6.993257E+03  7.911460E+05  1.219403E+05  5.274692E+04 -1.846104E-09  6.161988E-10
        30  14 -4.813473E+04  7.391640E+05  1.611181E+05  5.112028E+03  2.116502E-10 -9.160719E-10
        30  15  2.684333E+05  7.909891E+05  3.469316E+05  5.383581E+04 -1.419661E-09  2.735973E-10
        30  16 -2.694283E+05 -2.638977E+05 -1.344528E+05  8.746946E+04 -2.482012E-09  2.242779E-09
        30  17 -3.359508E+05 -4.195895E+05 -1.200243E+05 -1.159088E+04  1.202048E-09  9.921520E-10
        30  18 -4.619931E+04 -4.730650E+05  3.402915E+04 -1.427601E+04  5.088359E-10 -2.082656E-10
        30  19  2.553656E+05  1.847210E+06  3.782582E+05  1.796482E+04 -2.770376E+04  4.211613E+04
        30  20  2.395904E+05  1.899165E+06  4.422022E+05  2.184360E+04 -3.230115E+04  1.394841E+05
        30  21  5.829799E+05  2.056566E+06  6.598235E+05  1.220857E+05 -1.180394E+04  2.369612E+05
        30  22 -6.991788E+03  7.911488E+05  1.219462E+05  5.274583E+04 -2.772110E+04  4.896746E+04
        30  23 -4.812866E+04  7.391841E+05  1.611547E+05  5.108494E+03 -3.229766E+04  1.359343E+05
        30  24  2.684467E+05  7.910425E+05  3.470252E+05  5.383369E+04 -1.177513E+04  2.229926E+05
        30  25 -2.694266E+05 -2.638941E+05 -1.344455E+05  8.746822E+04 -2.773768E+04  5.580714E+04
        30  26 -3.359450E+05 -4.195704E+05 -1.199893E+05 -1.159433E+04 -3.229399E+04  1.323908E+05
        30  27 -4.618742E+04 -4.730180E+05  3.411159E+04 -1.427799E+04 -1.174325E+04  2.090519E+05
        31   1 -2.330407E+06 -4.764138E+05 -1.714589E+05 -8.543111E+05 -8.643191E+04 -3.097632E+04
        31   2 -2.300996E+06 -3.422769E+05 -8.853317E+04 -8.646811E+05 -5.588813E+04 -1.684319E+04
        31   3 -2.312917E+06 -3.444758E+05 -6.360360E+04 -8.541201E+05 -2.420694E+04 -5.743139E+03
        31   4 -2.208443E+06 -4.068186E+05 -1.333977E+05 -7.969609E+05 -8.497030E+04 -3.043243E+04
        31   5 -2.181074E+06 -2.906747E+05 -5.512914E+04 -8.254319E+05 -5.557653E+04 -1.672717E+04
        31   6 -2.194801E+06 -3.106235E+05 -3.393405E+04 -8.329748E+05 -2.504548E+04 -6.056878E+03
        31   7 -2.086463E+06 -3.372162E+05 -9.533826E+04 -7.395992E+05 -8.350839E+04 -2.988828E+04
        31   8 -2.061139E+06 -2.390705E+05 -2.172661E+04 -7.861756E+05 -5.526487E+04 -1.661112E+04
        31   9 -2.076670E+06 -2.767716E+05 -4.265517E+03 -8.118265E+05 -2.588421E+04 -6.370646E+03
        31  10 -2.330416E+06 -4.764168E+05 -1.714748E+05 -8.543132E+05  2.950003E-10 -5.330612E-10
        31  11 -2.300999E+06 -3.422780E+05 -8.853960E+04 -8.646819E+05  6.554675E-10 -2.294390E-09
        31  12 -2.312918E+06 -3.444759E+05 -6.360477E+04 -8.541202E+05 -1.234575E-09 -1.032913E-09
        31  13 -2.208451E+06 -4.068215E+05 -1.334131E+05 -7.969630E+05  2.838965E-10 -6.598504E-10
        31  14 -2.181078E+06 -2.906758E+05 -5.513550E+04 -8.254327E+05 -4.405314E-09 -1.276978E-09
        31  15 -2.194801E+06 -3.106237E+05 -3.393530E+04 -8.329749E+05  2.308761E-10 -9.213737E-10
        31  16 -2.086471E+06 -3.372190E+05 -9.535310E+04 -7.396012E+05 -2.219982E-09 -7.495266E-10
        31  17 -2.061143E+06 -2.390717E+05 -2.173289E+04 -7.861764E+05 -2.876913E-09 -1.350778E-09
        31  18 -2.076671E+06 -2.767718E+05 -4.266857E+03 -8.118266E+05 -2.276843E-10 -5.808443E-10
        31  19 -2.330407E+06 -4.764138E+05 -1.714589E+05 -8.543111E+05  8.643191E+04  3.097632E+04
        31  20 -2.300996E+06 -3.422769E+05 -8.853317E+04 -8.646811E+05  5.588813E+04  1.684319E+04
        31  21 -2.312917E+06 -3.444758E+05 -6.360360E+04 -8.541201E+05  2.420694E+04  5.743139E+03
        31  22 -2.208443E+06 -4.068186E+05 -1.333977E+05 -7.969609E+05  8.497030E+04  3.043243E+04
        31  23 -2.181074E+06 -2.906747E+05 -5.512914E+04 -8.254319E+05  5.557653E+04  1.672717E+04
        31  24 -2.194801E+06 -3.106235E+05 -3.393405E+04 -8.329748E+05  2.504548E+04  6.056878E+03
        31  25 -2.086463E+06 -3.372162E+05 -9.533826E+04 -7.395992E+05  8.350839E+04  2.988828E+04
        31  26 -2.061139E+06 -2.390705E+05 -2.172661E+04 -7.861756E+05  5.526487E+04  1.661112E+04
        31  27 -2.076670E+06 -2.767716E+05 -4.265517E+03 -8.118265E+05  2.588421E+04  6.370646E+03
        32   1 -2.269438E+06 -3.580643E+05 -4.958965E+04 -8.493194E+05 -1.973916E+04 -4.985130E+03
        32   2 -2.256512E+06 -3.312070E+05 -3.056065E+04 -8.410038E+05 -1.267159E+04 -2.720801E+03
        32   3 -2.239066E+06 -3.313233E+05 -2.098458E+04 -8.417574E+05 -5.483093E+03 -7.784646E+02
        32   4 -2.190182E+06 -3.255028E+05 -2.775055E+04 -8.249834E+05 -1.980755E+04 -5.010880E+03
        32   5 -2.191611E+06 -3.060930E+05 -1.300042E+04 -8.226676E+05 -1.286177E+04 -2.792071E+03
        32   6 -2.188494E+06 -3.136313E+05 -7.605483E+03 -8.294211E+05 -5.795283E+03 -8.953733E+02
        32   7 -2.110920E+06 -2.929405E+05 -5.911946E+03 -8.006445E+05 -1.987596E+04 -5.036636E+03
        32   8 -2.126706E+06 -2.809786E+05  4.559413E+03 -8.043297E+05 -1.305198E+04 -2.863351E+03
        32   9 -2.137920E+06 -2.959394E+05  5.773310E+03 -8.170840E+05 -6.107498E+03 -1.012290E+03
        32  10 -2.269438E+06 -3.580644E+05 -4.959043E+04 -8.493195E+05 -2.277167E-09 -2.057492E-10
        32  11 -2.256513E+06 -3.312071E+05 -3.056097E+04 -8.410038E+05  7.396009E-10 -6.194872E-11
        32  12 -2.239066E+06 -3.313233E+05 -2.098464E+04 -8.417574E+05  1.207275E-09 -4.274574E-11
        32  13 -2.190183E+06 -3.255029E+05 -2.775134E+04 -8.249835E+05  7.758596E-11 -1.321900E-10
        32  14 -2.191611E+06 -3.060930E+05 -1.300074E+04 -8.226676E+05 -4.614071E-09 -4.014645E-10
        32  15 -2.188494E+06 -3.136313E+05 -7.605547E+03 -8.294211E+05  1.936194E-09  2.846853E-10
        32  16 -2.110921E+06 -2.929406E+05 -5.912739E+03 -8.006445E+05 -2.371071E-09 -3.853740E-10
        32  17 -2.126706E+06 -2.809787E+05  4.559077E+03 -8.043297E+05 -1.122432E-09 -5.683067E-10
        32  18 -2.137920E+06 -2.959394E+05  5.773238E+03 -8.170840E+05  9.081227E-10  1.624900E-10
        32  19 -2.269438E+06 -3.580643E+05 -4.958965E+04 -8.493194E+05  1.973916E+04  4.985130E+03
        32  20 -2.256512E+06 -3.312070E+05 -3.056065E+04 -8.410038E+05  1.267159E+04  2.720801E+03
        32  21 -2.239066E+06 -3.313233E+05 -2.098458E+04 -8.417574E+05  5.483093E+03  7.784646E+02
        32  22 -2.190182E+06 -3.255028E+05 -2.775055E+04 -8.249834E+05  1.980755E+04  5.010880E+03
        32  23 -2.191611E+06 -3.060930E+05 -1.300042E+04 -8.226676E+05  1.286177E+04  2.792071E+03
        32  24 -2.188494E+06 -3.136313E+05 -7.605483E+03 -8.294211E+05  5.795283E+03  8.953733E+02
        32  25 -2.110920E+06 -2.929405E+05 -5.911946E+03 -8.006445E+05  1.987596E+04  5.036636E+03
        32  26 -2.126706E+06 -2.809786E+05  4.559413E+03 -8.043297E+05  1.305198E+04  2.863351E+03
        32  27 -2.137920E+06 -2.959394E+05  5.773310E+03 -8.170840E+05  6.107498E+03  1.012290E+03
        33   1 -2.205968E+06 -3.226161E+05 -1.087300E+04 -8.337233E+05 -4.292710E+03 -8.232076E+02
        33   2 -2.195039E+06 -3.087540E+05 -3.580961E+03 -8.228640E+05 -2.488020E+03 -8.674635E+02
        33   3 -2.173356E+06 -3.085261E+05  2.013879E+03 -8.249717E+05 -6.724620E+02 -9.406120E+02
        33   4 -2.187793E+06 -3.154931E+05 -5.989247E+03 -8.284824E+05 -4.527779E+03 -9.112402E+02
        33   5 -2.193068E+06 -3.079542E+05 -3.040860E+03 -8.222688E+05 -2.734056E+03 -9.596019E+02
        33   6 -2.187587E+06 -3.140475E+05 -1.780839E+03 -8.290224E+05 -9.295053E+02 -1.036873E+03
        33   7 -2.169617E+06 -3.083700E+05 -1.105508E+03 -8.232413E+05 -4.762856E+03 -9.992761E+02
        33   8 -2.191096E+06 -3.071545E+05 -2.500756E+03 -8.216736E+05 -2.980093E+03 -1.051741E+03
        33   9 -2.201817E+06 -3.195689E+05 -5.575603E+03 -8.330731E+05 -1.186544E+03 -1.133132E+03
        33  10 -2.205968E+06 -3.226161E+05 -1.087304E+04 -8.337233E+05  2.348453E-09  6.623995E-10
        33  11 -2.195039E+06 -3.087540E+05 -3.580974E+03 -8.228640E+05 -4.759300E-10 -5.007474E-10
        33  12 -2.173356E+06 -3.085261E+05  2.013877E+03 -8.249717E+05 -1.974727E-09 -2.160525E-10
        33  13 -2.187793E+06 -3.154931E+05 -5.989287E+03 -8.284824E+05  2.060612E-09  4.340040E-10
        33  14 -2.193068E+06 -3.079543E+05 -3.040876E+03 -8.222688E+05  8.856086E-10 -4.595137E-10
        33  15 -2.187587E+06 -3.140475E+05 -1.780842E+03 -8.290224E+05 -1.353157E-09 -8.422483E-11
        33  16 -2.169617E+06 -3.083701E+05 -1.105553E+03 -8.232413E+05  7.174186E-10  8.426179E-10
        33  17 -2.191096E+06 -3.071545E+05 -2.500775E+03 -8.216736E+05 -6.135089E-10  1.509448E-10
        33  18 -2.201817E+06 -3.195689E+05 -5.575608E+03 -8.330731E+05 -1.406583E-09 -1.724131E-09
        33  19 -2.205968E+06 -3.226161E+05 -1.087300E+04 -8.337233E+05  4.292710E+03  8.232076E+02
        33  20 -2.195039E+06 -3.087540E+05 -3.580961E+03 -8.228640E+05  2.488020E+03  8.674635E+02
        33  21 -2.173356E+06 -3.085261E+05  2.013879E+03 -8.249717E+05  6.724620E+02  9.406120E+02
        33  22 -2.187793E+06 -3.154931E+05 -5.989247E+03 -8.284824E+05  4.527779E+03  9.112402E+02
        33  23 -2.193068E+06 -3.079542E+05 -3.040860E+03 -8.222688E+05  2.734056E+03  9.596019E+02
        33  24 -2.187587E+06 -3.140475E+05 -1.780839E+03 -8.290224E+05  9.295053E+02  1.036873E+03
        33  25 -2.169617E+06 -3.083700E+05 -1.105508E+03 -8.232413E+05  4.762856E+03  9.992761E+02
        33  26 -2.191096E+06 -3.071545E+05 -2.500756E+03 -8.216736E+05  2.980093E+03  1.051741E+03
        33  27 -2.201817E+06 -3.195689E+05 -5.575603E+03 -8.330731E+05  1.186544E+03  1.133132E+03
        34   1 -2.142086E+06 -2.970739E+05  1.086366E+04 -8.164835E+05 -2.709061E+02 -1.234374E+03
        34   2 -2.131806E+06 -2.852051E+05  1.560759E+04 -8.056858E+05  4.051501E+02 -1.719852E+03
        34   3 -2.110339E+06 -2.849503E+05  1.995631E+04 -8.078477E+05  1.074563E+03 -2.187261E+03
        34   4 -2.187574E+06 -3.141771E+05 -1.411704E+03 -8.288051E+05 -5.210287E+02 -1.328053E+03
        34   5 -2.193159E+06 -3.082990E+05 -8.718473E+02 -8.223523E+05  1.618682E+02 -1.810992E+03
        34   6 -2.187557E+06 -3.140362E+05 -7.325826E+02 -8.288591E+05  8.381109E+02 -2.275864E+03
        34   7 -2.233060E+06 -3.312801E+05 -1.368717E+04 -8.411259E+05 -7.711295E+02 -1.421723E+03
        34   8 -2.254507E+06 -3.313926E+05 -1.735156E+04 -8.390173E+05 -8.138626E+01 -1.902121E+03
        34   9 -2.264769E+06 -3.431217E+05 -2.142198E+04 -8.498682E+05  6.016910E+02 -2.364455E+03
        34  10 -2.142086E+06 -2.970739E+05  1.086366E+04 -8.164835E+05 -2.008086E-09  4.487233E-10
        34  11 -2.131806E+06 -2.852051E+05  1.560759E+04 -8.056858E+05 -3.647272E-09  1.229206E-09
        34  12 -2.110339E+06 -2.849503E+05  1.995630E+04 -8.078477E+05  1.658529E-09 -1.233534E-09
        34  13 -2.187574E+06 -3.141771E+05 -1.411707E+03 -8.288051E+05 -3.949421E-10 -3.331157E-10
        34  14 -2.193159E+06 -3.082990E+05 -8.718536E+02 -8.223523E+05 -7.778924E-10 -3.137317E-10
        34  15 -2.187557E+06 -3.140362E+05 -7.325937E+02 -8.288591E+05 -3.245733E-09 -1.305122E-09
        34  16 -2.233060E+06 -3.312801E+05 -1.368718E+04 -8.411259E+05  3.843722E-11 -3.263402E-10
        34  17 -2.254507E+06 -3.313926E+05 -1.735157E+04 -8.390173E+05  1.644948E-09  7.916343E-10
        34  18 -2.264769E+06 -3.431217E+05 -2.142199E+04 -8.498682E+05  5.127645E-10 -1.752592E-09
        34  19 -2.142086E+06 -2.970739E+05  1.086366E+04 -8.164835E+05  2.709061E+02  1.234374E+03
        34  20 -2.131806E+06 -2.852051E+05  1.560759E+04 -8.056858E+05 -4.051501E+02  1.719852E+03
        34  21 -2.110339E+06 -2.849503E+05  1.995631E+04 -8.078477E+05 -1.074563E+03  2.187261E+03
        34  22 -2.187574E+06 -3.141771E+05 -1.411704E+03 -8.288051E+05  5.210287E+02  1.328053E+03
        34  23 -2.193159E+06 -3.082990E+05 -8.718473E+02 -8.223523E+05 -1.618682E+02  1.810992E+03
        34  24 -2.187557E+06 -3.140362E+05 -7.325826E+02 -8.288591E+05 -8.381109E+02  2.275864E+03
        34  25 -2.233060E+06 -3.312801E+05 -1.368717E+04 -8.411259E+05  7.711295E+02  1.421723E+03
        34  26 -2.254507E+06 -3.313926E+05 -1.735156E+04 -8.390173E+05  8.138626E+01  1.902121E+03
        34  27 -2.264769E+06 -3.431217E+05 -2.142198E+04 -8.498682E+05 -6.016910E+02  2.364455E+03
        35   1 -2.081185E+06 -2.736796E+05  2.794086E+04 -7.996600E+05  1.335503E+03 -2.504851E+03
        35   2 -2.071879E+06 -2.630208E+05  3.152336E+04 -7.897918E+05  2.037643E+03 -2.929356E+03
        35   3 -2.052420E+06 -2.629697E+05  3.467465E+04 -7.916648E+05  2.722249E+03 -3.306413E+03
        35   4 -2.187788E+06 -3.137972E+05 -7.493781E+02 -8.285956E+05  1.096801E+03 -2.594324E+03
        35   5 -2.192877E+06 -3.085906E+05 -9.805202E+02 -8.226880E+05  1.816903E+03 -3.012142E+03
        35   6 -2.187817E+06 -3.139955E+05 -1.657266E+03 -8.285220E+05  2.519457E+03 -3.382512E+03
        35   7 -2.294380E+06 -3.539142E+05 -2.944069E+04 -8.575267E+05  8.581444E+02 -2.683780E+03
        35   8 -2.313861E+06 -3.541595E+05 -3.348574E+04 -8.555784E+05  1.596210E+03 -3.094911E+03
        35   9 -2.323196E+06 -3.650203E+05 -3.799080E+04 -8.653720E+05  2.316713E+03 -3.458593E+03
        35  10 -2.081185E+06 -2.736797E+05  2.794085E+04 -7.996600E+05  7.526506E-10 -1.268785E-09
        35  11 -2.071879E+06 -2.630208E+05  3.152334E+04 -7.897918E+05 -1.185073E-09  1.509150E-09
        35  12 -2.052420E+06 -2.629697E+05  3.467461E+04 -7.916648E+05 -1.097569E-09  1.307010E-09
        35  13 -2.187788E+06 -3.137972E+05 -7.493930E+02 -8.285956E+05 -3.148819E-11 -1.662912E-09
        35  14 -2.192877E+06 -3.085906E+05 -9.805435E+02 -8.226880E+05 -1.021903E-09  1.572365E-09
        35  15 -2.187817E+06 -3.139956E+05 -1.657300E+03 -8.285220E+05  4.277973E-09  1.185462E-09
        35  16 -2.294380E+06 -3.539142E+05 -2.944071E+04 -8.575267E+05 -9.642526E-10 -1.569582E-10
        35  17 -2.313861E+06 -3.541595E+05 -3.348576E+04 -8.555784E+05 -6.301875E-10  1.568442E-09
        35  18 -2.323196E+06 -3.650203E+05 -3.799084E+04 -8.653720E+05  6.012503E-09  1.375861E-09
        35  19 -2.081185E+06 -2.736796E+05  2.794086E+04 -7.996600E+05 -1.335503E+03  2.504851E+03
        35  20 -2.071879E+06 -2.630208E+05  3.152336E+04 -7.897918E+05 -2.037643E+03  2.929356E+03
        35  21 -2.052420E+06 -2.629697E+05  3.467465E+04 -7.916648E+05 -2.722249E+03  3.306413E+03
        35  22 -2.187788E+06 -3.137972E+05 -7.493781E+02 -8.285956E+05 -1.096801E+03  2.594324E+03
        35  23 -2.192877E+06 -3.085906E+05 -9.805202E+02 -8.226880E+05 -1.816903E+03  3.012142E+03
        35  24 -2.187817E+06 -3.139955E+05 -1.657266E+03 -8.285220E+05 -2.519457E+03  3.382512E+03
        35  25 -2.294380E+06 -3.539142E+05 -2.944069E+04 -8.575267E+05 -8.581444E+02  2.683780E+03
        35  26 -2.313861E+06 -3.541595E+05 -3.348574E+04 -8.555784E+05 -1.596210E+03  3.094911E+03
        35  27 -2.323196E+06 -3.650203E+05 -3.799080E+04 -8.653720E+05 -2.316713E+03  3.458593E+03
        36   1 -2.027097E+06 -2.528485E+05  4.121040E+04 -7.846305E+05  3.168414E+03 -3.509004E+03
        36   2 -2.019151E+06 -2.434826E+05  4.286907E+04 -7.760962E+05  5.181544E+03 -3.345049E+03
        36   3 -2.003614E+06 -2.450597E+05  4.255774E+04 -7.768956E+05  7.153495E+03 -3.070514E+03
        36   4 -2.188290E+06 -3.133697E+05 -2.106085E+03 -8.282508E+05  2.949724E+03 -3.591101E+03
        36   5 -2.192204E+06 -3.087641E+05 -3.636978E+03 -8.232573E+05  5.004451E+03 -3.411598E+03
        36   6 -2.188535E+06 -3.151101E+05 -7.171336E+03 -8.275977E+05  7.017959E+03 -3.121516E+03
        36   7 -2.349458E+06 -3.738893E+05 -4.542477E+04 -8.718607E+05  2.731098E+03 -3.673175E+03
        36   8 -2.365227E+06 -3.740438E+05 -5.014568E+04 -8.704065E+05  4.827412E+03 -3.478128E+03
        36   9 -2.373423E+06 -3.851587E+05 -5.690356E+04 -8.782861E+05  6.882466E+03 -3.172501E+03
        36  10 -2.027097E+06 -2.528485E+05  4.121036E+04 -7.846305E+05 -4.942898E-10  6.028909E-10
        36  11 -2.019151E+06 -2.434826E+05  4.286900E+04 -7.760962E+05  2.066588E-09 -1.048556E-11
        36  12 -2.003614E+06 -2.450597E+05  4.255763E+04 -7.768956E+05  2.339752E-10 -1.411486E-10
        36  13 -2.188290E+06 -3.133697E+05 -2.106126E+03 -8.282507E+05  2.932111E-09  8.272586E-10
        36  14 -2.192204E+06 -3.087641E+05 -3.637047E+03 -8.232573E+05  1.653805E-09  7.248011E-10
        36  15 -2.188535E+06 -3.151102E+05 -7.171447E+03 -8.275976E+05  3.537720E-11 -2.344178E-10
        36  16 -2.349458E+06 -3.738893E+05 -4.542481E+04 -8.718607E+05  2.200749E-09  7.052038E-10
        36  17 -2.365227E+06 -3.740438E+05 -5.014574E+04 -8.704065E+05 -1.130793E-09  9.294889E-10
        36  18 -2.373423E+06 -3.851587E+05 -5.690367E+04 -8.782861E+05  3.571982E-10  4.310604E-11
        36  19 -2.027097E+06 -2.528485E+05  4.121040E+04 -7.846305E+05 -3.168414E+03  3.509004E+03
        36  20 -2.019151E+06 -2.434826E+05  4.286907E+04 -7.760962E+05 -5.181544E+03  3.345049E+03
        36  21 -2.003614E+06 -2.450597E+05  4.255774E+04 -7.768956E+05 -7.153495E+03  3.070514E+03
        36  22 -2.188290E+06 -3.133697E+05 -2.106085E+03 -8.282508E+05 -2.949724E+03  3.591101E+03
        36  23 -2.192204E+06 -3.087641E+05 -3.636978E+03 -8.232573E+05 -5.004451E+03  3.411598E+03
        36  24 -2.188535E+06 -3.151101E+05 -7.171336E+03 -8.275977E+05 -7.017959E+03  3.121516E+03
        36  25 -2.349458E+06 -3.738893E+05 -4.542477E+04 -8.718607E+05 -2.731098E+03  3.673175E+03
        36  26 -2.365227E+06 -3.740438E+05 -5.014568E+04 -8.704065E+05 -4.827412E+03  3.478128E+03
        36  27 -2.373423E+06 -3.851587E+05 -5.690356E+04 -8.782861E+05 -6.882466E+03  3.172501E+03
        37   1 -1.983065E+06 -2.361811E+05  4.614844E+04 -7.736740E+05  8.730432E+03 -2.848922E+03
        37   2 -1.976127E+06 -2.255473E+05  4.202495E+04 -7.651914E+05  1.684375E+04 -2.703398E+02
        37   3 -1.970752E+06 -2.400186E+05  2.687963E+04 -7.593397E+05  2.474241E+04  2.880090E+03
        37   4 -2.189758E+06 -3.124843E+05 -9.108561E+03 -8.282788E+05  8.463682E+03 -2.949203E+03
        37   5 -2.189969E+06 -3.070167E+05 -1.558751E+04 -8.242964E+05  1.679211E+04 -2.899291E+02
        37   6 -2.191787E+06 -3.267012E+05 -3.326218E+04 -8.229446E+05  2.490574E+04  2.941165E+03
        37   7 -2.396411E+06 -3.887854E+05 -6.436929E+04 -8.828673E+05  8.197031E+03 -3.049449E+03
        37   8 -2.403766E+06 -3.884831E+05 -7.320398E+04 -8.833829E+05  1.674049E+04 -3.095111E+02
        37   9 -2.412775E+06 -4.133798E+05 -9.340828E+04 -8.865286E+05  2.506899E+04  3.002214E+03
        37  10 -1.983065E+06 -2.361811E+05  4.614828E+04 -7.736740E+05 -1.214959E-09 -4.499718E-10
        37  11 -1.976127E+06 -2.255474E+05  4.202442E+04 -7.651914E+05 -3.066414E-09  9.482947E-10
        37  12 -1.970752E+06 -2.400187E+05  2.687846E+04 -7.593398E+05  1.826747E-10 -3.795502E-10
        37  13 -2.189758E+06 -3.124843E+05 -9.108712E+03 -8.282788E+05  1.144953E-09 -1.845138E-10
        37  14 -2.189969E+06 -3.070168E+05 -1.558805E+04 -8.242964E+05 -1.766797E-09  1.805707E-10
        37  15 -2.191788E+06 -3.267014E+05 -3.326337E+04 -8.229447E+05 -1.075512E-09 -7.999977E-10
        37  16 -2.396411E+06 -3.887854E+05 -6.436944E+04 -8.828673E+05 -8.725627E-10  4.899858E-10
        37  17 -2.403767E+06 -3.884832E+05 -7.320451E+04 -8.833829E+05 -5.735520E-09  8.302126E-10
        37  18 -2.412776E+06 -4.133800E+05 -9.340948E+04 -8.865286E+05 -7.646292E-10 -1.829473E-09
        37  19 -1.983065E+06 -2.361811E+05  4.614844E+04 -7.736740E+05 -8.730432E+03  2.848922E+03
        37  20 -1.976127E+06 -2.255473E+05  4.202495E+04 -7.651914E+05 -1.684375E+04  2.703398E+02
        37  21 -1.970752E+06 -2.400186E+05  2.687963E+04 -7.593397E+05 -2.474241E+04 -2.880090E+03
        37  22 -2.189758E+06 -3.124843E+05 -9.108561E+03 -8.282788E+05 -8.463682E+03  2.949203E+03
        37  23 -2.189969E+06 -3.070167E+05 -1.558751E+04 -8.242964E+05 -1.679211E+04  2.899291E+02
        37  24 -2.191787E+06 -3.267012E+05 -3.326218E+04 -8.229446E+05 -2.490574E+04 -2.941165E+03
        37  25 -2.396411E+06 -3.887854E+05 -6.436929E+04 -8.828673E+05 -8.197031E+03  3.049449E+03
        37  26 -2.403766E+06 -3.884831E+05 -7.320398E+04 -8.833829E+05 -1.674049E+04  3.095111E+02
        37  27 -2.412775E+06 -4.133798E+05 -9.340828E+04 -8.865286E+05 -2.506899E+04 -3.002214E+03
        38   1 -1.951065E+06 -2.283463E+05  2.303887E+04 -7.781114E+05  3.227357E+04  4.679588E+03
        38   2 -1.940198E+06 -1.917880E+05 -1.065532E+03 -7.554710E+05  6.679503E+04  1.722968E+04
        38   3 -1.986691E+06 -3.093699E+05 -9.203707E+04 -6.978710E+05  9.941944E+04  3.482305E+04
        38   4 -2.197598E+06 -3.085889E+05 -4.067605E+04 -8.322117E+05  3.116007E+04  4.261444E+03
        38   5 -2.176954E+06 -2.889113E+05 -6.609621E+04 -8.280424E+05  6.758902E+04  1.752721E+04
        38   6 -2.214072E+06 -4.237907E+05 -1.599193E+05 -7.889075E+05  1.021210E+05  3.583451E+04
        38   7 -2.444073E+06 -3.888315E+05 -1.043960E+05 -8.862943E+05  3.004706E+04  3.843424E+03
        38   8 -2.413656E+06 -3.860285E+05 -1.311321E+05 -9.005878E+05  6.838267E+04  1.782459E+04
        38   9 -2.441402E+06 -5.381953E+05 -2.278066E+05 -8.799097E+05  1.048215E+05  3.684525E+04
        38  10 -1.951066E+06 -2.283466E+05  2.303687E+04 -7.781115E+05  2.144767E-10 -1.096968E-09
        38  11 -1.940202E+06 -1.917896E+05 -1.074506E+03 -7.554719E+05  1.395482E-09  1.938775E-10
        38  12 -1.986702E+06 -3.093739E+05 -9.205799E+04 -6.978738E+05  6.209258E-10  5.228933E-10
        38  13 -2.197599E+06 -3.085892E+05 -4.067792E+04 -8.322118E+05 -2.513629E-09 -1.707092E-10
        38  14 -2.176959E+06 -2.889129E+05 -6.610541E+04 -8.280434E+05  6.421119E-10  2.628676E-10
        38  15 -2.214084E+06 -4.237949E+05 -1.599414E+05 -7.889104E+05  9.214601E-10  2.874910E-10
        38  16 -2.444074E+06 -3.888318E+05 -1.043977E+05 -8.862944E+05 -7.117795E-11 -7.078575E-10
        38  17 -2.413661E+06 -3.860301E+05 -1.311415E+05 -9.005888E+05 -3.255319E-10  1.244742E-09
        38  18 -2.441414E+06 -5.381997E+05 -2.278299E+05 -8.799129E+05  1.919886E-11  5.201680E-12
        38  19 -1.951065E+06 -2.283463E+05  2.303887E+04 -7.781114E+05 -3.227357E+04 -4.679588E+03
        38  20 -1.940198E+06 -1.917880E+05 -1.065532E+03 -7.554710E+05 -6.679503E+04 -1.722968E+04
        38  21 -1.986691E+06 -3.093699E+05 -9.203707E+04 -6.978710E+05 -9.941944E+04 -3.482305E+04
        38  22 -2.197598E+06 -3.085889E+05 -4.067605E+04 -8.322117E+05 -3.116007E+04 -4.261444E+03
        38  23 -2.176954E+06 -2.889113E+05 -6.609621E+04 -8.280424E+05 -6.758902E+04 -1.752721E+04
        38  24 -2.214072E+06 -4.237907E+05 -1.599193E+05 -7.889075E+05 -1.021210E+05 -3.583451E+04
        38  25 -2.444073E+06 -3.888315E+05 -1.043960E+05 -8.862943E+05 -3.004706E+04 -3.843424E+03
        38  26 -2.413656E+06 -3.860285E+05 -1.311321E+05 -9.005878E+05 -6.838267E+04 -1.782459E+04
        38  27 -2.441402E+06 -5.381953E+05 -2.278066E+05 -8.799097E+05 -1.048215E+05 -3.684525E+04
        39   1 -5.590628E+05  1.324997E+05  1.692782E+05  3.497148E+04  1.156327E+05  6.519336E+00
        39   2 -5.832108E+05 -2.296910E+04  7.347617E+04  9.701728E+03  7.581829E+04  1.185880E+00
        39   3 -5.591082E+05 -6.242633E+03  4.666814E+04 -1.556708E+04  3.600345E+04 -9.035506E-01
        39   4 -5.590641E+05  1.324974E+05  1.692778E+05  1.501577E-10  1.156327E+05 -2.321519E-10
        39   5 -5.832109E+05 -2.296928E+04  7.347615E+04  1.413939E-09  7.581829E+04 -2.428077E-11
        39   6 -5.591085E+05 -6.243089E+03  4.666808E+04  1.505916E-08  3.600345E+04 -8.979067E-10
        39   7 -5.590628E+05  1.324997E+05  1.692782E+05 -3.497148E+04  1.156327E+05 -6.519336E+00
        39   8 -5.832108E+05 -2.296910E+04  7.347617E+04 -9.701728E+03  7.581829E+04 -1.185880E+00
        39   9 -5.591082E+05 -6.242633E+03  4.666814E+04  1.556708E+04  3.600345E+04  9.035506E-01
        39  10 -5.590771E+05  1.324961E+05  1.692530E+05  3.497148E+04  2.179311E-10  3.633830E-10
        39  11 -5.832170E+05 -2.297064E+04  7.346536E+04  9.701728E+03  2.513294E-09  7.500523E-10
        39  12 -5.591096E+05 -6.242982E+03  4.666570E+04 -1.556708E+04  2.275156E-09  1.339301E-11
        39  13 -5.590784E+05  1.324938E+05  1.692527E+05  4.499322E-09 -1.060001E-09  2.551625E-10
        39  14 -5.832171E+05 -2.297082E+04  7.346533E+04 -1.151450E-08  3.217062E-10  5.782389E-10
        39  15 -5.591099E+05 -6.243438E+03  4.666564E+04 -2.322012E-08  1.988728E-09 -1.615605E-10
        39  16 -5.590771E+05  1.324961E+05  1.692530E+05 -3.497148E+04 -7.815672E-10  1.859535E-10
        39  17 -5.832170E+05 -2.297064E+04  7.346536E+04 -9.701728E+03 -6.568205E-10  4.905080E-10
        39  18 -5.591096E+05 -6.242982E+03  4.666570E+04  1.556708E+04 -2.329462E-10 -3.718304E-10
        39  19 -5.590628E+05  1.324997E+05  1.692782E+05  3.497148E+04 -1.156327E+05 -6.519336E+00
        39  20 -5.832108E+05 -2.296910E+04  7.347617E+04  9.701728E+03 -7.581829E+04 -1.185880E+00
        39  21 -5.591082E+05 -6.242633E+03  4.666814E+04 -1.556708E+04 -3.600345E+04  9.035506E-01
        39  22 -5.590641E+05  1.324974E+05  1.692778E+05  8.842612E-09 -1.156327E+05  7.518954E-10
        39  23 -5.832109E+05 -2.296928E+04  7.347615E+04  5.700573E-09 -7.581829E+04  1.172451E-09
        39  24 -5.591085E+05 -6.243089E+03  4.666808E+04  1.225019E-08 -3.600345E+04  5.395192E-10
        39  25 -5.590628E+05  1.324997E+05  1.692782E+05 -3.497148E+04 -1.156327E+05  6.519336E+00
        39  26 -5.832108E+05 -2.296910E+04  7.347617E+04 -9.701728E+03 -7.581829E+04  1.185880E+00
        39  27 -5.591082E+05 -6.242633E+03  4.666814E+04  1.556708E+04 -3.600345E+04 -9.035506E-01
        40   1 -5.683861E+05  1.585117E+04  3.826335E+04  3.857200E+03  2.860575E+04  1.778826E-01
        40   2 -5.716192E+05 -2.791582E+03  1.907584E+04  9.538474E+02  1.876121E+04  2.885019E-02
        40   3 -5.683931E+05 -7.349874E+02  1.147713E+04 -1.949466E+03  8.916888E+03 -2.802434E-02
        40   4 -5.683861E+05  1.585114E+04  3.826335E+04 -1.225250E-08  2.860575E+04 -5.584833E-10
        40   5 -5.716192E+05 -2.791584E+03  1.907584E+04 -9.277436E-09  1.876121E+04  7.429591E-10
        40   6 -5.683931E+05 -7.349946E+02  1.147712E+04 -1.060831E-08  8.916888E+03  1.696797E-09
        40   7 -5.683861E+05  1.585117E+04  3.826335E+04 -3.857200E+03  2.860575E+04 -1.778826E-01
        40   8 -5.716192E+05 -2.791582E+03  1.907584E+04 -9.538474E+02  1.876121E+04 -2.885019E-02
        40   9 -5.683931E+05 -7.349874E+02  1.147713E+04  1.949466E+03  8.916888E+03  2.802434E-02
        40  10 -5.683870E+05  1.585095E+04  3.826182E+04  3.857200E+03  2.196812E-10 -1.043938E-10
        40  11 -5.716195E+05 -2.791677E+03  1.907518E+04  9.538474E+02 -2.684244E-09  2.703733E-10
        40  12 -5.683932E+05 -7.350088E+02  1.147698E+04 -1.949466E+03 -1.057962E-09  2.207983E-10
        40  13 -5.683870E+05  1.585092E+04  3.826181E+04 -1.221648E-08 -2.145098E-09 -3.284717E-10
        40  14 -5.716195E+05 -2.791679E+03  1.907518E+04  7.962878E-09 -3.230232E-09  2.410987E-10
        40  15 -5.683932E+05 -7.350160E+02  1.147698E+04  2.168099E-08  3.686562E-12  2.291605E-10
        40  16 -5.683870E+05  1.585095E+04  3.826182E+04 -3.857200E+03  1.860854E-09 -5.048596E-10
        40  17 -5.716195E+05 -2.791677E+03  1.907518E+04 -9.538474E+02  3.547955E-09  4.158170E-10
        40  18 -5.683932E+05 -7.350088E+02  1.147698E+04  1.949466E+03  2.499799E-09  3.149942E-10
        40  19 -5.683861E+05  1.585117E+04  3.826335E+04  3.857200E+03 -2.860575E+04 -1.778826E-01
        40  20 -5.716192E+05 -2.791582E+03  1.907584E+04  9.538474E+02 -1.876121E+04 -2.885019E-02
        40  21 -5.683931E+05 -7.349874E+02  1.147713E+04 -1.949466E+03 -8.916888E+03  2.802434E-02
        40  22 -5.683861E+05  1.585114E+04  3.826335E+04  9.347454E-09 -2.860575E+04 -9.374359E-11
        40  23 -5.716192E+05 -2.791584E+03  1.907584E+04  2.520137E-08 -1.876121E+04 -2.256124E-10
        40  24 -5.683931E+05 -7.349946E+02  1.147712E+04  1.574720E-08 -8.916888E+03 -1.242742E-09
        40  25 -5.683861E+05  1.585117E+04  3.826335E+04 -3.857200E+03 -2.860575E+04  1.778826E-01
        40  26 -5.716192E+05 -2.791582E+03  1.907584E+04 -9.538474E+02 -1.876121E+04  2.885019E-02
        40  27 -5.683931E+05 -7.349874E+02  1.147713E+04  1.949466E+03 -8.916888E+03 -2.802434E-02
        41   1 -5.696196E+05  1.875058E+03  9.035916E+03  3.741959E+02  7.093873E+03  4.279468E-03
        41   2 -5.700879E+05 -3.410645E+02  4.823017E+03  6.072626E+01  4.661583E+03  4.563690E-04
        41   3 -5.696209E+05 -8.436108E+01  2.813004E+03 -2.527485E+02  2.229264E+03 -9.083585E-04
        41   4 -5.696196E+05  1.875057E+03  9.035916E+03 -8.799458E-09  7.093873E+03  7.395742E-10
        41   5 -5.700879E+05 -3.410645E+02  4.823017E+03 -3.976873E-09  4.661583E+03 -1.099716E-09
        41   6 -5.696209E+05 -8.436120E+01  2.813004E+03 -2.924387E-09  2.229264E+03  1.959589E-10
        41   7 -5.696196E+05  1.875058E+03  9.035916E+03 -3.741959E+02  7.093873E+03 -4.279467E-03
        41   8 -5.700879E+05 -3.410645E+02  4.823017E+03 -6.072626E+01  4.661583E+03 -4.563716E-04
        41   9 -5.696209E+05 -8.436108E+01  2.813004E+03  2.527485E+02  2.229264E+03  9.083588E-04
        41  10 -5.696197E+05  1.875044E+03  9.035821E+03  3.741959E+02 -9.172110E-10 -6.439603E-11
        41  11 -5.700880E+05 -3.410704E+02  4.822976E+03  6.072626E+01  1.015659E-09 -3.905844E-10
        41  12 -5.696209E+05 -8.436242E+01  2.812995E+03 -2.527485E+02 -1.191273E-09 -1.909176E-10
        41  13 -5.696197E+05  1.875044E+03  9.035821E+03 -8.826270E-09  8.410024E-12 -1.274762E-10
        41  14 -5.700880E+05 -3.410704E+02  4.822976E+03  1.325493E-08  4.203733E-09 -4.018721E-10
        41  15 -5.696209E+05 -8.436254E+01  2.812995E+03  7.343404E-09 -1.136736E-09  1.917981E-10
        41  16 -5.696197E+05  1.875044E+03  9.035821E+03 -3.741959E+02  1.356592E-09 -2.246600E-10
        41  17 -5.700880E+05 -3.410704E+02  4.822976E+03 -6.072626E+01 -7.980718E-10 -3.449128E-10
        41  18 -5.696209E+05 -8.436242E+01  2.812995E+03  2.527485E+02  2.561031E-09  4.402366E-10
        41  19 -5.696196E+05  1.875058E+03  9.035916E+03  3.741959E+02 -7.093873E+03 -4.279468E-03
        41  20 -5.700879E+05 -3.410645E+02  4.823017E+03  6.072626E+01 -4.661583E+03 -4.563699E-04
        41  21 -5.696209E+05 -8.436108E+01  2.813004E+03 -2.527485E+02 -2.229264E+03  9.083583E-04
        41  22 -5.696196E+05  1.875057E+03  9.035916E+03  8.375051E-09 -7.093873E+03 -9.808221E-10
        41  23 -5.700879E+05 -3.410645E+02  4.823017E+03 -6.118230E-09 -4.661583E+03  3.215712E-10
        41  24 -5.696209E+05 -8.436120E+01  2.813004E+03  1.761750E-08 -2.229264E+03  1.789708E-10
        41  25 -5.696196E+05  1.875058E+03  9.035916E+03 -3.741959E+02 -7.093873E+03  4.279466E-03
        41  26 -5.700879E+05 -3.410645E+02  4.823017E+03 -6.072626E+01 -4.661583E+03  4.563705E-04
        41  27 -5.696209E+05 -8.436108E+01  2.813004E+03  2.527485E+02 -2.229264E+03 -9.083580E-04
        42   1 -5.697961E+05  2.166192E+02  2.157032E+03  2.146279E+01  1.783178E+03  6.170122E-05
        42   2 -5.698695E+05 -4.116591E+01  1.155883E+03 -6.883313E+00  1.206565E+03 -1.338872E-05
        42   3 -5.697964E+05 -1.337834E+01  6.017888E+02 -3.522943E+01  6.299526E+02 -3.577902E-05
        42   4 -5.697961E+05  2.166192E+02  2.157032E+03 -5.121247E-09  1.783178E+03  8.860587E-10
        42   5 -5.698695E+05 -4.116591E+01  1.155883E+03 -1.190423E-08  1.206565E+03 -2.368728E-11
        42   6 -5.697964E+05 -1.337835E+01  6.017888E+02  2.307632E-09  6.299526E+02 -5.365653E-10
        42   7 -5.697961E+05  2.166192E+02  2.157032E+03 -2.146279E+01  1.783178E+03 -6.169947E-05
        42   8 -5.698695E+05 -4.116591E+01  1.155883E+03  6.883313E+00  1.206565E+03  1.338863E-05
        42   9 -5.697964E+05 -1.337834E+01  6.017888E+02  3.522943E+01  6.299526E+02  3.577807E-05
        42  10 -5.697961E+05  2.166183E+02  2.157026E+03  2.146279E+01 -2.866118E-10  2.660842E-10
        42  11 -5.698695E+05 -4.116630E+01  1.155880E+03 -6.883313E+00 -1.172946E-10  4.394164E-10
        42  12 -5.697964E+05 -1.337845E+01  6.017880E+02 -3.522943E+01 -2.325647E-09 -2.803706E-10
        42  13 -5.697961E+05  2.166183E+02  2.157026E+03  2.500396E-08 -8.538489E-10  3.286356E-10
        42  14 -5.698695E+05 -4.116630E+01  1.155880E+03  1.393431E-08 -2.256486E-09  1.167294E-11
        42  15 -5.697964E+05 -1.337845E+01  6.017880E+02 -3.593603E-09 -1.541480E-09  8.426522E-11
        42  16 -5.697961E+05  2.166183E+02  2.157026E+03 -2.146279E+01  6.851488E-10  4.073420E-10
        42  17 -5.698695E+05 -4.116630E+01  1.155880E+03  6.883313E+00 -2.150097E-10 -4.507029E-10
        42  18 -5.697964E+05 -1.337845E+01  6.017880E+02  3.522943E+01  2.252844E-09  3.936273E-10
        42  19 -5.697961E+05  2.166192E+02  2.157032E+03  2.146279E+01 -1.783178E+03 -6.170051E-05
        42  20 -5.698695E+05 -4.116591E+01  1.155883E+03 -6.883313E+00 -1.206565E+03  1.338993E-05
        42  21 -5.697964E+05 -1.337834E+01  6.017888E+02 -3.522943E+01 -6.299526E+02  3.577867E-05
        42  22 -5.697961E+05  2.166192E+02  2.157032E+03  2.067051E-08 -1.783178E+03 -1.848377E-10
        42  23 -5.698695E+05 -4.116591E+01  1.155883E+03 -3.298832E-09 -1.206565E+03  3.677313E-11
        42  24 -5.697964E+05 -1.337835E+01  6.017888E+02  4.109975E-08 -6.299526E+02  7.306771E-10
        42  25 -5.697961E+05  2.166192E+02  2.157032E+03 -2.146279E+01 -1.783178E+03  6.170028E-05
        42  26 -5.698695E+05 -4.116591E+01  1.155883E+03  6.883313E+00 -1.206565E+03 -1.338952E-05
        42  27 -5.697964E+05 -1.337834E+01  6.017888E+02  3.522943E+01 -6.299526E+02 -3.577745E-05
        43   1 -5.698291E+05  2.532273E+01  4.045221E+02 -9.474961E+00  5.391736E+02 -8.236640E-06
        43   2 -5.698288E+05  2.614639E+00  7.414392E+01 -5.236997E+00  5.030067E+02 -4.246397E-06
        43   3 -5.698292E+05 -4.152884E+01 -2.380334E+02 -9.990952E-01  4.668402E+02 -7.518902E-07
        43   4 -5.698291E+05  2.532273E+01  4.045221E+02 -1.594569E-08  5.391736E+02 -1.513397E-10
        43   5 -5.698288E+05  2.614639E+00  7.414392E+01  2.223099E-08  5.030067E+02  4.742021E-10
        43   6 -5.698292E+05 -4.152884E+01 -2.380334E+02  4.048639E-08  4.668402E+02 -3.732014E-10
        43   7 -5.698291E+05  2.532273E+01  4.045221E+02  9.474961E+00  5.391736E+02  8.236251E-06
        43   8 -5.698288E+05  2.614639E+00  7.414392E+01  5.236997E+00  5.030067E+02  4.247301E-06
        43   9 -5.698292E+05 -4.152884E+01 -2.380334E+02  9.990953E-01  4.668402E+02  7.510589E-07
        43  10 -5.698291E+05  2.532265E+01  4.045215E+02 -9.474961E+00 -9.130052E-11 -7.660156E-10
        43  11 -5.698288E+05  2.614571E+00  7.414345E+01 -5.236997E+00  5.186718E-10 -6.489311E-10
        43  12 -5.698292E+05 -4.152890E+01 -2.380339E+02 -9.990953E-01 -8.682216E-10  5.835168E-10
        43  13 -5.698291E+05  2.532265E+01  4.045215E+02 -3.078059E-09 -8.875760E-10 -1.850440E-10
        43  14 -5.698288E+05  2.614571E+00  7.414345E+01  7.001324E-10  1.282697E-09 -6.252921E-10
        43  15 -5.698292E+05 -4.152890E+01 -2.380339E+02  1.524139E-08  2.399685E-09  2.031405E-10
        43  16 -5.698291E+05  2.532265E+01  4.045215E+02  9.474961E+00  6.396803E-11  3.775719E-10
        43  17 -5.698288E+05  2.614571E+00  7.414345E+01  5.236997E+00 -2.297857E-09 -6.694905E-10
        43  18 -5.698292E+05 -4.152890E+01 -2.380339E+02  9.990953E-01 -3.708752E-10 -2.700822E-10
        43  19 -5.698291E+05  2.532273E+01  4.045221E+02 -9.474961E+00 -5.391736E+02  8.235094E-06
        43  20 -5.698288E+05  2.614639E+00  7.414392E+01 -5.236997E+00 -5.030067E+02  4.245201E-06
        43  21 -5.698292E+05 -4.152884E+01 -2.380334E+02 -9.990952E-01 -4.668402E+02  7.532689E-07
        43  22 -5.698291E+05  2.532273E+01  4.045221E+02  1.841469E-08 -5.391736E+02 -1.863102E-10
        43  23 -5.698288E+05  2.614639E+00  7.414392E+01 -1.221113E-08 -5.030067E+02 -1.755988E-09
        43  24 -5.698292E+05 -4.152884E+01 -2.380334E+02  1.853911E-08 -4.668402E+02  7.386663E-10
        43  25 -5.698291E+05  2.532273E+01  4.045221E+02  9.474961E+00 -5.391736E+02 -8.235576E-06
        43  26 -5.698288E+05  2.614639E+00  7.414392E+01  5.236997E+00 -5.030067E+02 -4.248647E-06
        43  27 -5.698292E+05 -4.152884E+01 -2.380334E+02  9.990953E-01 -4.668402E+02 -7.517662E-07
        44   1 -5.698669E+05  1.803692E+01 -4.018826E+02 -4.928252E+01  5.240816E+02 -4.163882E-05
        44   2 -5.697818E+05  6.353752E+01 -8.354790E+02  1.015418E+01  9.461182E+02  1.548858E-05
        44   3 -5.698672E+05 -3.530257E+02 -1.659539E+03  6.959178E+01  1.368161E+03  1.534992E-04
        44   4 -5.698669E+05  1.803692E+01 -4.018826E+02  3.162997E-08  5.240816E+02 -6.134507E-10
        44   5 -5.697818E+05  6.353752E+01 -8.354790E+02  8.194802E-09  9.461182E+02  6.323370E-10
        44   6 -5.698672E+05 -3.530257E+02 -1.659539E+03  1.598472E-08  1.368161E+03  1.933563E-09
        44   7 -5.698669E+05  1.803692E+01 -4.018826E+02  4.928252E+01  5.240816E+02  4.163791E-05
        44   8 -5.697818E+05  6.353752E+01 -8.354790E+02 -1.015418E+01  9.461182E+02 -1.548763E-05
        44   9 -5.698672E+05 -3.530257E+02 -1.659539E+03 -6.959178E+01  1.368161E+03 -1.534954E-04
        44  10 -5.698669E+05  1.803685E+01 -4.018831E+02 -4.928252E+01  1.472073E-10  1.174933E-09
        44  11 -5.697818E+05  6.353728E+01 -8.354807E+02  1.015418E+01  7.962074E-10  6.462816E-10
        44  12 -5.698672E+05 -3.530262E+02 -1.659543E+03  6.959178E+01 -1.452355E-09 -3.511483E-10
        44  13 -5.698669E+05  1.803684E+01 -4.018831E+02  1.010016E-08  1.972793E-09  7.089879E-10
        44  14 -5.697818E+05  6.353728E+01 -8.354807E+02  1.895367E-08  1.844616E-09  6.595730E-10
        44  15 -5.698672E+05 -3.530262E+02 -1.659543E+03 -4.493601E-09  4.384112E-09  2.425654E-10
        44  16 -5.698669E+05  1.803685E+01 -4.018831E+02  4.928252E+01  1.186881E-09  2.266974E-10
        44  17 -5.697818E+05  6.353728E+01 -8.354807E+02 -1.015418E+01 -3.489722E-10  6.406338E-10
        44  18 -5.698672E+05 -3.530262E+02 -1.659543E+03 -6.959178E+01  2.853794E-09  8.355158E-10
        44  19 -5.698669E+05  1.803692E+01 -4.018826E+02 -4.928252E+01 -5.240816E+02  4.164151E-05
        44  20 -5.697818E+05  6.353752E+01 -8.354790E+02  1.015418E+01 -9.461182E+02 -1.548717E-05
        44  21 -5.698672E+05 -3.530257E+02 -1.659539E+03  6.959178E+01 -1.368161E+03 -1.534997E-04
        44  22 -5.698669E+05  1.803692E+01 -4.018826E+02  3.594319E-08 -5.240816E+02  2.010791E-09
        44  23 -5.697818E+05  6.353752E+01 -8.354790E+02  3.832582E-08 -9.461182E+02  6.217363E-10
        44  24 -5.698672E+05 -3.530257E+02 -1.659539E+03  5.147756E-08 -1.368161E+03 -1.449394E-09
        44  25 -5.698669E+05  1.803692E+01 -4.018826E+02  4.928252E+01 -5.240816E+02 -4.163745E-05
        44  26 -5.697818E+05  6.353752E+01 -8.354790E+02 -1.015418E+01 -9.461182E+02  1.548869E-05
        44  27 -5.698672E+05 -3.530257E+02 -1.659539E+03 -6.959178E+01 -1.368161E+03  1.534968E-04
        45   1 -5.700991E+05  1.384866E+02 -2.129228E+03 -3.675632E+02  1.704725E+03 -1.010168E-03
        45   2 -5.694923E+05  5.254834E+02 -3.573353E+03  1.792173E+02  3.549325E+03  1.025491E-03
        45   3 -5.701003E+05 -2.984184E+03 -7.193367E+03  7.259980E+02  5.393924E+03  6.313166E-03
        45   4 -5.700991E+05  1.384864E+02 -2.129228E+03  3.074692E-08  1.704725E+03  7.558931E-10
        45   5 -5.694923E+05  5.254834E+02 -3.573353E+03  1.745623E-08  3.549325E+03 -1.957897E-09
        45   6 -5.701003E+05 -2.984185E+03 -7.193367E+03  2.193257E-08  5.393924E+03  1.753967E-11
        45   7 -5.700991E+05  1.384866E+02 -2.129228E+03  3.675632E+02  1.704725E+03  1.010169E-03
        45   8 -5.694923E+05  5.254834E+02 -3.573353E+03 -1.792173E+02  3.549325E+03 -1.025495E-03
        45   9 -5.701003E+05 -2.984184E+03 -7.193367E+03 -7.259980E+02  5.393924E+03 -6.313166E-03
        45  10 -5.700991E+05  1.384858E+02 -2.129234E+03 -3.675632E+02 -2.622220E-10 -7.593139E-10
        45  11 -5.694923E+05  5.254800E+02 -3.573376E+03  1.792173E+02  5.617791E-10 -8.307866E-10
        45  12 -5.701003E+05 -2.984192E+03 -7.193422E+03  7.259980E+02 -2.958029E-09 -4.869828E-10
        45  13 -5.700991E+05  1.384856E+02 -2.129234E+03  2.640006E-08  1.059905E-09 -2.385641E-10
        45  14 -5.694923E+05  5.254800E+02 -3.573376E+03  1.315642E-08  2.050637E-09 -5.700830E-10
        45  15 -5.701003E+05 -2.984193E+03 -7.193422E+03  8.529719E-09 -1.251975E-09  1.661651E-10
        45  16 -5.700991E+05  1.384858E+02 -2.129234E+03  3.675632E+02  7.552322E-11  3.152774E-10
        45  17 -5.694923E+05  5.254800E+02 -3.573376E+03 -1.792173E+02 -8.309601E-10 -3.768076E-10
        45  18 -5.701003E+05 -2.984192E+03 -7.193422E+03 -7.259980E+02  1.597172E-09  8.046365E-10
        45  19 -5.700991E+05  1.384866E+02 -2.129228E+03 -3.675632E+02 -1.704725E+03  1.010166E-03
        45  20 -5.694923E+05  5.254834E+02 -3.573353E+03  1.792173E+02 -3.549325E+03 -1.025493E-03
        45  21 -5.701003E+05 -2.984184E+03 -7.193367E+03  7.259980E+02 -5.393924E+03 -6.313167E-03
        45  22 -5.700991E+05  1.384864E+02 -2.129228E+03  6.942922E-08 -1.704725E+03 -1.172184E-09
        45  23 -5.694923E+05  5.254834E+02 -3.573353E+03  2.440753E-10 -3.549325E+03  7.639569E-10
        45  24 -5.701003E+05 -2.984185E+03 -7.193367E+03  2.796653E-08 -5.393924E+03  3.288212E-10
        45  25 -5.700991E+05  1.384866E+02 -2.129228E+03  3.675632E+02 -1.704725E+03 -1.010169E-03
        45  26 -5.694923E+05  5.254834E+02 -3.573353E+03 -1.792173E+02 -3.549325E+03  1.025494E-03
        45  27 -5.701003E+05 -2.984184E+03 -7.193367E+03 -7.259980E+02 -5.393924E+03  6.313168E-03
        46   1 -5.718471E+05  1.175449E+03 -8.777982E+03 -2.930961E+03  6.784809E+03 -3.205944E-02
        46   2 -5.673092E+05  4.324438E+03 -1.382658E+04  1.826551E+03  1.427924E+04  4.204769E-02
        46   3 -5.718544E+05 -2.494440E+04 -3.186201E+04  6.583959E+03  2.177358E+04  2.311127E-01
        46   4 -5.718471E+05  1.175432E+03 -8.777984E+03 -4.253797E-09  6.784809E+03  8.188424E-10
        46   5 -5.673092E+05  4.324432E+03 -1.382658E+04  8.164830E-09  1.427924E+04 -4.710335E-10
        46   6 -5.718544E+05 -2.494448E+04 -3.186202E+04  1.627143E-08  2.177358E+04 -3.738884E-10
        46   7 -5.718471E+05  1.175449E+03 -8.777982E+03  2.930961E+03  6.784809E+03  3.205944E-02
        46   8 -5.673092E+05  4.324438E+03 -1.382658E+04 -1.826551E+03  1.427924E+04 -4.204770E-02
        46   9 -5.718544E+05 -2.494440E+04 -3.186201E+04 -6.583959E+03  2.177358E+04 -2.311127E-01
        46  10 -5.718471E+05  1.175436E+03 -8.778068E+03 -2.930961E+03 -1.132941E-10  4.361906E-12
        46  11 -5.673094E+05  4.324383E+03 -1.382696E+04  1.826551E+03 -1.203193E-09  4.233332E-10
        46  12 -5.718549E+05 -2.494452E+04 -3.186290E+04  6.583959E+03  1.316751E-09  1.750370E-10
        46  13 -5.718471E+05  1.175420E+03 -8.778071E+03 -1.720795E-08 -2.846652E-09  3.246146E-10
        46  14 -5.673094E+05  4.324377E+03 -1.382696E+04 -4.766005E-09 -2.153428E-09 -1.779044E-10
        46  15 -5.718550E+05 -2.494460E+04 -3.186291E+04 -1.816646E-08  3.045996E-09 -1.337319E-10
        46  16 -5.718471E+05  1.175436E+03 -8.778068E+03  2.930961E+03  1.881461E-10  6.628430E-10
        46  17 -5.673094E+05  4.324383E+03 -1.382696E+04 -1.826551E+03 -1.873675E-09 -7.563963E-10
        46  18 -5.718549E+05 -2.494452E+04 -3.186290E+04 -6.583959E+03 -1.086106E-09 -4.575132E-10
        46  19 -5.718471E+05  1.175449E+03 -8.777982E+03 -2.930961E+03 -6.784809E+03  3.205944E-02
        46  20 -5.673092E+05  4.324438E+03 -1.382658E+04  1.826551E+03 -1.427924E+04 -4.204769E-02
        46  21 -5.718544E+05 -2.494440E+04 -3.186201E+04  6.583959E+03 -2.177358E+04 -2.311127E-01
        46  22 -5.718471E+05  1.175432E+03 -8.777984E+03  8.600742E-09 -6.784809E+03 -1.572691E-10
        46  23 -5.673092E+05  4.324432E+03 -1.382658E+04  3.838435E-09 -1.427924E+04  8.036917E-11
        46  24 -5.718544E+05 -2.494448E+04 -3.186202E+04  1.630429E-08 -2.177358E+04  1.188475E-10
        46  25 -5.718471E+05  1.175449E+03 -8.777982E+03  2.930961E+03 -6.784809E+03 -3.205944E-02
        46  26 -5.673092E+05  4.324438E+03 -1.382658E+04 -1.826551E+03 -1.427924E+04  4.204769E-02
        46  27 -5.718544E+05 -2.494440E+04 -3.186201E+04 -6.583959E+03 -2.177358E+04  2.311127E-01
        47   1 -4.287157E+04 -1.824119E+06 -7.772771E+04  2.596763E+04  2.774383E+03 -1.009662E+05
        47   2  9.664911E+04 -1.814989E+06  4.246955E+03  8.476477E+03  8.331288E+03 -6.595402E+04
        47   3  7.702907E+04 -1.850090E+06  2.363085E+04 -2.086373E+04  7.695301E+03 -3.094351E+04
        47   4 -1.218634E+05 -2.139988E+06 -1.561340E+05 -6.280128E+03  2.780011E+03 -1.044517E+05
        47   5  2.128657E+04 -2.117576E+06 -6.935711E+04 -3.469307E+02  8.332795E+03 -6.693630E+04
        47   6  4.816500E+03 -2.139855E+06 -4.693611E+04 -6.262446E+03  7.694004E+03 -2.942160E+04
        47   7 -2.008589E+05 -2.455763E+06 -2.345471E+05 -3.851141E+04  2.786004E+03 -1.079354E+05
        47   8 -5.408243E+04 -2.420079E+06 -1.429678E+05 -9.166008E+03  8.334330E+03 -6.791808E+04
        47   9 -6.740147E+04 -2.429543E+06 -1.175090E+05  8.331994E+03  7.692778E+03 -2.790041E+04
        47  10 -4.287432E+04 -1.824130E+06 -7.774693E+04  2.596785E+04  8.747573E-10  1.041505E-09
        47  11  9.664786E+04 -1.814994E+06  4.238626E+03  8.476920E+03  1.572470E-09 -1.997008E-09
        47  12  7.702875E+04 -1.850092E+06  2.362893E+04 -2.086354E+04  8.571235E-11 -3.365741E-09
        47  13 -1.218664E+05 -2.139999E+06 -1.561546E+05 -6.279894E+03  1.436500E-09  2.759207E-11
        47  14  2.128529E+04 -2.117581E+06 -6.936569E+04 -3.464812E+02  1.690102E-09  1.647283E-10
        47  15  4.816203E+03 -2.139856E+06 -4.693785E+04 -6.262264E+03  2.176021E-09  6.589199E-11
        47  16 -2.008621E+05 -2.455775E+06 -2.345691E+05 -3.851117E+04  1.517832E-09 -1.174267E-09
        47  17 -5.408375E+04 -2.420084E+06 -1.429766E+05 -9.165551E+03  3.080880E-09  1.392097E-09
        47  18 -6.740175E+04 -2.429544E+06 -1.175106E+05  8.332168E+03  1.082588E-09  3.260109E-09
        47  19 -4.287157E+04 -1.824119E+06 -7.772771E+04  2.596763E+04 -2.774383E+03  1.009662E+05
        47  20  9.664911E+04 -1.814989E+06  4.246955E+03  8.476477E+03 -8.331288E+03  6.595402E+04
        47  21  7.702907E+04 -1.850090E+06  2.363085E+04 -2.086373E+04 -7.695301E+03  3.094351E+04
        47  22 -1.218634E+05 -2.139988E+06 -1.561340E+05 -6.280128E+03 -2.780011E+03  1.044517E+05
        47  23  2.128657E+04 -2.117576E+06 -6.935711E+04 -3.469307E+02 -8.332795E+03  6.693630E+04
        47  24  4.816500E+03 -2.139855E+06 -4.693611E+04 -6.262446E+03 -7.694004E+03  2.942160E+04
        47  25 -2.008589E+05 -2.455763E+06 -2.345471E+05 -3.851141E+04 -2.786004E+03  1.079354E+05
        47  26 -5.408243E+04 -2.420079E+06 -1.429678E+05 -9.166008E+03 -8.334330E+03  6.791808E+04
        47  27 -6.740147E+04 -2.429543E+06 -1.175090E+05  8.331994E+03 -7.692778E+03  2.790041E+04
        48   1  5.152064E+04 -1.868126E+06  2.392857E+04 -2.629463E+03  6.507234E+03 -2.164185E+04
        48   2  6.556794E+04 -1.880060E+06  3.372290E+04  8.194399E+02  6.480299E+03 -8.299869E+03
        48   3  5.047374E+04 -1.900952E+06  2.754252E+04 -1.087987E+04  5.567320E+03  5.040757E+03
        48   4 -1.423080E+04 -2.131955E+06 -4.044954E+04 -7.008923E+03  6.507680E+03 -2.180838E+04
        48   5  3.931050E+03 -2.127438E+06 -2.653975E+04  5.669329E+02  6.480316E+03 -8.110834E+03
        48   6 -7.116962E+03 -2.131944E+06 -2.885680E+04 -7.005914E+03  5.566929E+03  5.585701E+03
        48   7 -7.998732E+04 -2.395720E+06 -1.048327E+05 -1.138650E+04  6.508128E+03 -2.197483E+04
        48   8 -5.771036E+04 -2.374759E+06 -8.680684E+04  3.145386E+02  6.480333E+03 -7.921875E+03
        48   9 -6.471156E+04 -2.362887E+06 -8.526001E+04 -3.133396E+03  5.566544E+03  6.130442E+03
        48  10  5.152047E+04 -1.868127E+06  2.392761E+04 -2.629350E+03  9.993770E-10  1.815376E-09
        48  11  6.556787E+04 -1.880060E+06  3.372269E+04  8.194832E+02  5.179866E-10 -9.532845E-11
        48  12  5.047370E+04 -1.900952E+06  2.754241E+04 -1.087989E+04  1.036334E-10 -1.911928E-09
        48  13 -1.423097E+04 -2.131956E+06 -4.045051E+04 -7.008809E+03 -9.164950E-10  3.878696E-10
        48  14  3.930987E+03 -2.127438E+06 -2.653995E+04  5.669752E+02 -2.532630E-09  7.454822E-10
        48  15 -7.117003E+03 -2.131944E+06 -2.885692E+04 -7.005939E+03 -3.831504E-09  3.416227E-10
        48  16 -7.998750E+04 -2.395721E+06 -1.048337E+05 -1.138639E+04  1.689871E-09 -1.640952E-09
        48  17 -5.771042E+04 -2.374759E+06 -8.680704E+04  3.145799E+02 -2.540855E-09 -1.433535E-09
        48  18 -6.471160E+04 -2.362887E+06 -8.526014E+04 -3.133424E+03 -2.661657E-09  1.760385E-09
        48  19  5.152064E+04 -1.868126E+06  2.392857E+04 -2.629463E+03 -6.507234E+03  2.164185E+04
        48  20  6.556794E+04 -1.880060E+06  3.372290E+04  8.194399E+02 -6.480299E+03  8.299869E+03
        48  21  5.047374E+04 -1.900952E+06  2.754252E+04 -1.087987E+04 -5.567320E+03 -5.040757E+03
        48  22 -1.423080E+04 -2.131955E+06 -4.044954E+04 -7.008923E+03 -6.507680E+03  2.180838E+04
        48  23  3.931050E+03 -2.127438E+06 -2.653975E+04  5.669329E+02 -6.480316E+03  8.110834E+03
        48  24 -7.116962E+03 -2.131944E+06 -2.885680E+04 -7.005914E+03 -5.566929E+03 -5.585701E+03
        48  25 -7.998732E+04 -2.395720E+06 -1.048327E+05 -1.138650E+04 -6.508128E+03  2.197483E+04
        48  26 -5.771036E+04 -2.374759E+06 -8.680684E+04  3.145386E+02 -6.480333E+03  7.921875E+03
        48  27 -6.471156E+04 -2.362887E+06 -8.526001E+04 -3.133396E+03 -5.566544E+03 -6.130442E+03
        49   1  5.108774E+04 -1.935638E+06  1.795151E+04  2.682574E+02  5.480110E+03  1.111135E+04
        49   2  5.660951E+04 -1.942580E+06  4.387291E+03 -3.623484E+03  4.851508E+03  3.129377E+04
        49   3 -2.463863E+04 -1.973864E+06 -4.403794E+04 -2.525793E+04  1.434289E+03  5.147138E+04
        49   4  1.354314E+03 -2.135376E+06 -3.063302E+04 -7.554110E+03  5.480442E+03  1.078838E+04
        49   5  1.161389E+04 -2.123135E+06 -3.955799E+04  1.273520E+03  4.850838E+03  3.210015E+04
        49   6 -6.510683E+04 -2.135441E+06 -8.413686E+04 -7.642737E+03  1.433084E+03  5.340765E+04
        49   7 -4.838183E+04 -2.335077E+06 -7.922041E+04 -1.537394E+04  5.480783E+03  1.046550E+04
        49   8 -3.338405E+04 -2.303661E+06 -8.350562E+04  6.169101E+03  4.850180E+03  3.290629E+04
        49   9 -1.055758E+05 -2.296994E+06 -1.242376E+05  9.967865E+03  1.431990E+03  5.534343E+04
        49  10  5.108768E+04 -1.935638E+06  1.795123E+04  2.682083E+02  1.906305E-09 -1.299106E-09
        49  11  5.660922E+04 -1.942581E+06  4.385401E+03 -3.623607E+03  1.884905E-09 -2.388804E-09
        49  12 -2.463934E+04 -1.973867E+06 -4.404294E+04 -2.525799E+04 -1.167791E-10 -1.118329E-10
        49  13  1.354250E+03 -2.135376E+06 -3.063329E+04 -7.554158E+03 -3.176636E-10  6.351232E-10
        49  14  1.161359E+04 -2.123137E+06 -3.955997E+04  1.273394E+03 -2.692964E-09  6.602841E-10
        49  15 -6.510760E+04 -2.135444E+06 -8.414224E+04 -7.642799E+03  1.852857E-09  4.665293E-10
        49  16 -4.838189E+04 -2.335077E+06 -7.922067E+04 -1.537398E+04 -7.239735E-10  1.564450E-09
        49  17 -3.338437E+04 -2.303662E+06 -8.350770E+04  6.168972E+03  3.355995E-09 -3.015214E-11
        49  18 -1.055767E+05 -2.296997E+06 -1.242433E+05  9.967801E+03  3.027759E-09 -5.428063E-11
        49  19  5.108774E+04 -1.935638E+06  1.795151E+04  2.682574E+02 -5.480110E+03 -1.111135E+04
        49  20  5.660951E+04 -1.942580E+06  4.387291E+03 -3.623484E+03 -4.851508E+03 -3.129377E+04
        49  21 -2.463863E+04 -1.973864E+06 -4.403794E+04 -2.525793E+04 -1.434289E+03 -5.147138E+04
        49  22  1.354314E+03 -2.135376E+06 -3.063302E+04 -7.554110E+03 -5.480442E+03 -1.078838E+04
        49  23  1.161389E+04 -2.123135E+06 -3.955799E+04  1.273520E+03 -4.850838E+03 -3.210015E+04
        49  24 -6.510683E+04 -2.135441E+06 -8.413686E+04 -7.642737E+03 -1.433084E+03 -5.340765E+04
        49  25 -4.838183E+04 -2.335077E+06 -7.922041E+04 -1.537394E+04 -5.480783E+03 -1.046550E+04
        49  26 -3.338405E+04 -2.303661E+06 -8.350562E+04  6.169101E+03 -4.850180E+03 -3.290629E+04
        49  27 -1.055758E+05 -2.296994E+06 -1.242376E+05  9.967865E+03 -1.431990E+03 -5.534343E+04
        50   1 -1.114883E+06 -1.474686E+05  1.825900E+04 -4.190148E+05  2.628559E+04  1.079779E+04
        50   2 -1.114539E+06 -1.798945E+05 -3.891040E+03 -4.053488E+05  1.661061E+04  8.916369E+03
        50   3 -1.090155E+06 -1.788961E+05 -8.050606E+03 -4.108506E+05  7.691544E+03  5.018131E+03
        50   4 -1.017033E+06 -1.182402E+05  4.347729E+04 -4.003350E+05  2.725745E+04  1.116178E+04
        50   5 -1.031341E+06 -1.506958E+05  1.797062E+04 -3.848803E+05  1.681164E+04  8.991630E+03
        50   6 -1.021457E+06 -1.495780E+05  1.106373E+04 -3.885930E+05  7.121880E+03  4.804664E+03
        50   7 -9.191743E+05 -8.901214E+04  6.869469E+04 -3.816530E+05  2.822948E+04  1.152580E+04
        50   8 -9.481358E+05 -1.214970E+05  3.983165E+04 -3.644095E+05  1.701269E+04  9.066900E+03
        50   9 -9.527545E+05 -1.202591E+05  3.017768E+04 -3.663329E+05  6.552145E+03  4.591161E+03
        50  10 -1.114883E+06 -1.474689E+05  1.825747E+04 -4.190151E+05  4.629837E-10 -1.551255E-10
        50  11 -1.114540E+06 -1.798946E+05 -3.891709E+03 -4.053489E+05 -8.507758E-10 -9.904687E-11
        50  12 -1.090155E+06 -1.788961E+05 -8.050765E+03 -4.108506E+05 -9.306166E-10 -8.495504E-11
        50  13 -1.017034E+06 -1.182405E+05  4.347566E+04 -4.003352E+05  1.018080E-09  2.623249E-11
        50  14 -1.031341E+06 -1.506960E+05  1.796993E+04 -3.848804E+05 -4.577720E-09  5.773411E-11
        50  15 -1.021457E+06 -1.495780E+05  1.106359E+04 -3.885930E+05  2.422258E-09  2.603106E-10
        50  16 -9.191752E+05 -8.901250E+04  6.869293E+04 -3.816533E+05  1.668943E-10  1.114666E-10
        50  17 -9.481361E+05 -1.214972E+05  3.983095E+04 -3.644096E+05  8.225793E-10  6.803731E-10
        50  18 -9.527546E+05 -1.202591E+05  3.017756E+04 -3.663329E+05 -9.488545E-10  6.917982E-10
        50  19 -1.114883E+06 -1.474686E+05  1.825900E+04 -4.190148E+05 -2.628559E+04 -1.079779E+04
        50  20 -1.114539E+06 -1.798945E+05 -3.891040E+03 -4.053488E+05 -1.661061E+04 -8.916369E+03
        50  21 -1.090155E+06 -1.788961E+05 -8.050606E+03 -4.108506E+05 -7.691544E+03 -5.018131E+03
        50  22 -1.017033E+06 -1.182402E+05  4.347729E+04 -4.003350E+05 -2.725745E+04 -1.116178E+04
        50  23 -1.031341E+06 -1.506958E+05  1.797062E+04 -3.848803E+05 -1.681164E+04 -8.991630E+03
        50  24 -1.021457E+06 -1.495780E+05  1.106373E+04 -3.885930E+05 -7.121880E+03 -4.804664E+03
        50  25 -9.191743E+05 -8.901214E+04  6.869469E+04 -3.816530E+05 -2.822948E+04 -1.152580E+04
        50  26 -9.481358E+05 -1.214970E+05  3.983165E+04 -3.644095E+05 -1.701269E+04 -9.066900E+03
        50  27 -9.527545E+05 -1.202591E+05  3.017768E+04 -3.663329E+05 -6.552145E+03 -4.591161E+03
        51   1 -1.074054E+06 -1.632876E+05 -4.538467E+03 -4.044040E+05  5.770459E+03  3.668032E+03
        51   2 -1.067891E+06 -1.602190E+05 -6.396412E+03 -3.961431E+05  3.720251E+03  2.621540E+03
        51   3 -1.051729E+06 -1.598756E+05 -5.270968E+03 -3.981030E+05  1.747680E+03  1.367627E+03
        51   4 -1.022811E+06 -1.448916E+05  9.044842E+03 -3.913821E+05  5.717345E+03  3.648106E+03
        51   5 -1.028090E+06 -1.454678E+05  4.232457E+03 -3.855487E+05  3.587826E+03  2.571909E+03
        51   6 -1.023356E+06 -1.487536E+05  2.466155E+03 -3.899359E+05  1.535995E+03  1.288313E+03
        51   7 -9.715644E+05 -1.264956E+05  2.262794E+04 -3.783591E+05  5.664226E+03  3.628179E+03
        51   8 -9.882880E+05 -1.307166E+05  1.486115E+04 -3.749536E+05  3.455392E+03  2.522274E+03
        51   9 -9.949823E+05 -1.376315E+05  1.020314E+04 -3.817685E+05  1.324301E+03  1.208996E+03
        51  10 -1.074054E+06 -1.632876E+05 -4.538555E+03 -4.044040E+05  1.021515E-10  2.389340E-11
        51  11 -1.067891E+06 -1.602190E+05 -6.396451E+03 -3.961431E+05  1.731367E-09 -1.038385E-09
        51  12 -1.051729E+06 -1.598756E+05 -5.270977E+03 -3.981030E+05 -5.773541E-10 -8.564897E-10
        51  13 -1.022811E+06 -1.448917E+05  9.044755E+03 -3.913821E+05  2.605150E-09  1.015992E-10
        51  14 -1.028090E+06 -1.454678E+05  4.232420E+03 -3.855487E+05  3.093286E-09 -5.124942E-10
        51  15 -1.023356E+06 -1.487536E+05  2.466148E+03 -3.899359E+05 -3.180607E-09 -4.401653E-10
        51  16 -9.715644E+05 -1.264956E+05  2.262786E+04 -3.783592E+05 -2.936724E-09 -4.330792E-10
        51  17 -9.882881E+05 -1.307166E+05  1.486111E+04 -3.749536E+05  7.203527E-10 -7.214429E-10
        51  18 -9.949823E+05 -1.376315E+05  1.020313E+04 -3.817685E+05  1.193067E-09 -3.991634E-10
        51  19 -1.074054E+06 -1.632876E+05 -4.538467E+03 -4.044040E+05 -5.770459E+03 -3.668032E+03
        51  20 -1.067891E+06 -1.602190E+05 -6.396412E+03 -3.961431E+05 -3.720251E+03 -2.621540E+03
        51  21 -1.051729E+06 -1.598756E+05 -5.270968E+03 -3.981030E+05 -1.747680E+03 -1.367627E+03
        51  22 -1.022811E+06 -1.448916E+05  9.044842E+03 -3.913821E+05 -5.717345E+03 -3.648106E+03
        51  23 -1.028090E+06 -1.454678E+05  4.232457E+03 -3.855487E+05 -3.587826E+03 -2.571909E+03
        51  24 -1.023356E+06 -1.487536E+05  2.466155E+03 -3.899359E+05 -1.535995E+03 -1.288313E+03
        51  25 -9.715644E+05 -1.264956E+05  2.262794E+04 -3.783591E+05 -5.664226E+03 -3.628179E+03
        51  26 -9.882880E+05 -1.307166E+05  1.486115E+04 -3.749536E+05 -3.455392E+03 -2.522274E+03
        51  27 -9.949823E+05 -1.376315E+05  1.020314E+04 -3.817685E+05 -1.324301E+03 -1.208996E+03
        52   1 -1.031060E+06 -1.509282E+05 -2.964650E+01 -3.922524E+05  1.446969E+03  9.224262E+02
        52   2 -1.024054E+06 -1.434156E+05  1.926718E+03 -3.846017E+05  1.127098E+03  3.136270E+02
        52   3 -1.008844E+06 -1.431845E+05  4.410624E+03 -3.861666E+05  8.141829E+02 -3.137420E+02
        52   4 -1.023536E+06 -1.481983E+05  1.932390E+03 -3.903010E+05  1.286950E+03  8.624723E+02
        52   5 -1.027673E+06 -1.447953E+05  9.520102E+02 -3.856044E+05  9.599869E+02  2.510134E+02
        52   6 -1.023603E+06 -1.486724E+05  5.047645E+02 -3.901236E+05  6.399900E+02 -3.790112E+02
        52   7 -1.016012E+06 -1.454684E+05  3.894436E+03 -3.883495E+05  1.126928E+03  8.025172E+02
        52   8 -1.031291E+06 -1.461749E+05 -2.270468E+01 -3.866071E+05  7.928762E+02  1.883999E+02
        52   9 -1.038362E+06 -1.541603E+05 -3.401134E+03 -3.940806E+05  4.658008E+02 -4.442790E+02
        52  10 -1.031060E+06 -1.509282E+05 -2.965204E+01 -3.922524E+05 -4.289137E-10 -4.435921E-10
        52  11 -1.024054E+06 -1.434156E+05  1.926715E+03 -3.846017E+05 -1.473747E-09  6.103765E-10
        52  12 -1.008844E+06 -1.431845E+05  4.410623E+03 -3.861666E+05  1.573485E-09  5.406320E-10
        52  13 -1.023536E+06 -1.481983E+05  1.932385E+03 -3.903010E+05 -4.340270E-09  8.198475E-11
        52  14 -1.027673E+06 -1.447953E+05  9.520084E+02 -3.856044E+05 -5.639046E-10  1.566266E-10
        52  15 -1.023603E+06 -1.486724E+05  5.047635E+02 -3.901236E+05  2.810801E-09 -1.946850E-10
        52  16 -1.016012E+06 -1.454684E+05  3.894433E+03 -3.883495E+05 -4.486971E-09  5.638674E-10
        52  17 -1.031291E+06 -1.461749E+05 -2.270593E+01 -3.866071E+05 -5.249276E-10  1.163848E-10
        52  18 -1.038362E+06 -1.541603E+05 -3.401135E+03 -3.940806E+05  3.293271E-09  4.494287E-10
        52  19 -1.031060E+06 -1.509282E+05 -2.964650E+01 -3.922524E+05 -1.446969E+03 -9.224262E+02
        52  20 -1.024054E+06 -1.434156E+05  1.926718E+03 -3.846017E+05 -1.127098E+03 -3.136270E+02
        52  21 -1.008844E+06 -1.431845E+05  4.410624E+03 -3.861666E+05 -8.141829E+02  3.137420E+02
        52  22 -1.023536E+06 -1.481983E+05  1.932390E+03 -3.903010E+05 -1.286950E+03 -8.624723E+02
        52  23 -1.027673E+06 -1.447953E+05  9.520102E+02 -3.856044E+05 -9.599869E+02 -2.510134E+02
        52  24 -1.023603E+06 -1.486724E+05  5.047645E+02 -3.901236E+05 -6.399900E+02  3.790112E+02
        52  25 -1.016012E+06 -1.454684E+05  3.894436E+03 -3.883495E+05 -1.126928E+03 -8.025172E+02
        52  26 -1.031291E+06 -1.461749E+05 -2.270468E+01 -3.866071E+05 -7.928762E+02 -1.883999E+02
        52  27 -1.038362E+06 -1.541603E+05 -3.401134E+03 -3.940806E+05 -4.658008E+02  4.442790E+02
        53   1 -9.878510E+05 -1.350875E+05  1.000936E+04 -3.803945E+05  8.372505E+02 -6.052829E+02
        53   2 -9.808543E+05 -1.271714E+05  1.263168E+04 -3.729502E+05  9.500697E+02 -1.066586E+03
        53   3 -9.660485E+05 -1.269801E+05  1.530843E+04 -3.744378E+05  1.060791E+03 -1.522128E+03
        53   4 -1.023664E+06 -1.485727E+05  3.590559E+02 -3.901351E+05  6.676754E+02 -6.688268E+02
        53   5 -1.027574E+06 -1.447481E+05  9.902529E+01 -3.856551E+05  7.826880E+02 -1.129319E+03
        53   6 -1.023675E+06 -1.486485E+05 -1.082995E+02 -3.901069E+05  8.956031E+02 -1.584052E+03
        53   7 -1.059476E+06 -1.620577E+05 -9.291281E+03 -3.998751E+05  4.981126E+02 -7.323661E+02
        53   8 -1.074291E+06 -1.623246E+05 -1.243379E+04 -3.983590E+05  6.153205E+02 -1.192047E+03
        53   9 -1.081299E+06 -1.703169E+05 -1.552537E+04 -4.057747E+05  7.304319E+02 -1.645969E+03
        53  10 -9.878510E+05 -1.350875E+05  1.000936E+04 -3.803945E+05 -7.749163E-10 -3.040016E-10
        53  11 -9.808543E+05 -1.271714E+05  1.263168E+04 -3.729502E+05 -1.304864E-09 -8.853864E-10
        53  12 -9.660485E+05 -1.269801E+05  1.530842E+04 -3.744378E+05 -3.337188E-10 -9.222696E-10
        53  13 -1.023664E+06 -1.485727E+05  3.590543E+02 -3.901351E+05 -3.093405E-11 -9.829815E-11
        53  14 -1.027574E+06 -1.447481E+05  9.902174E+01 -3.856551E+05 -7.186321E-10 -5.710483E-10
        53  15 -1.023675E+06 -1.486485E+05 -1.083058E+02 -3.901069E+05 -2.657885E-09 -2.184715E-10
        53  16 -1.059476E+06 -1.620577E+05 -9.291282E+03 -3.998751E+05  1.577015E-09 -4.784252E-10
        53  17 -1.074291E+06 -1.623246E+05 -1.243379E+04 -3.983590E+05 -2.504107E-09 -6.768246E-10
        53  18 -1.081299E+06 -1.703169E+05 -1.552538E+04 -4.057747E+05 -2.091257E-09  4.386113E-10
        53  19 -9.878510E+05 -1.350875E+05  1.000936E+04 -3.803945E+05 -8.372505E+02  6.052829E+02
        53  20 -9.808543E+05 -1.271714E+05  1.263168E+04 -3.729502E+05 -9.500697E+02  1.066586E+03
        53  21 -9.660485E+05 -1.269801E+05  1.530843E+04 -3.744378E+05 -1.060791E+03  1.522128E+03
        53  22 -1.023664E+06 -1.485727E+05  3.590559E+02 -3.901351E+05 -6.676754E+02  6.688268E+02
        53  23 -1.027574E+06 -1.447481E+05  9.902529E+01 -3.856551E+05 -7.826880E+02  1.129319E+03
        53  24 -1.023675E+06 -1.486485E+05 -1.082995E+02 -3.901069E+05 -8.956031E+02  1.584052E+03
        53  25 -1.059476E+06 -1.620577E+05 -9.291281E+03 -3.998751E+05 -4.981126E+02  7.323661E+02
        53  26 -1.074291E+06 -1.623246E+05 -1.243379E+04 -3.983590E+05 -6.153205E+02  1.192047E+03
        53  27 -1.081299E+06 -1.703169E+05 -1.552537E+04 -4.057747E+05 -7.304319E+02  1.645969E+03
        54   1 -9.456678E+05 -1.191633E+05  2.077812E+04 -3.688109E+05  1.183173E+03 -1.765128E+03
        54   2 -9.389701E+05 -1.115183E+05  2.323536E+04 -3.617016E+05  1.588874E+03 -2.099527E+03
        54   3 -9.249406E+05 -1.114699E+05  2.546428E+04 -3.630536E+05  1.987838E+03 -2.415644E+03
        54   4 -1.023771E+06 -1.485397E+05 -2.119842E+02 -3.900330E+05  1.016932E+03 -1.827460E+03
        54   5 -1.027447E+06 -1.448158E+05 -5.002703E+02 -3.857742E+05  1.429565E+03 -2.159283E+03
        54   6 -1.023793E+06 -1.486900E+05 -1.022372E+03 -3.899769E+05  1.835455E+03 -2.472824E+03
        54   7 -1.101868E+06 -1.779158E+05 -2.120263E+04 -4.112527E+05  8.507135E+02 -1.889783E+03
        54   8 -1.115916E+06 -1.781129E+05 -2.423656E+04 -4.098437E+05  1.270281E+03 -2.219029E+03
        54   9 -1.122635E+06 -1.859094E+05 -2.750982E+04 -4.168961E+05  1.683099E+03 -2.529994E+03
        54  10 -9.456678E+05 -1.191633E+05  2.077812E+04 -3.688109E+05  9.667105E-10  2.260531E-10
        54  11 -9.389701E+05 -1.115183E+05  2.323535E+04 -3.617016E+05 -1.430739E-09  1.123568E-09
        54  12 -9.249406E+05 -1.114699E+05  2.546426E+04 -3.630536E+05  7.978909E-10  2.564178E-10
        54  13 -1.023771E+06 -1.485397E+05 -2.119924E+02 -3.900330E+05 -1.594927E-10  4.114752E-10
        54  14 -1.027447E+06 -1.448158E+05 -5.002829E+02 -3.857742E+05  1.043558E-09  6.444498E-10
        54  15 -1.023793E+06 -1.486900E+05 -1.022390E+03 -3.899769E+05 -1.222790E-09  3.496305E-10
        54  16 -1.101868E+06 -1.779158E+05 -2.120264E+04 -4.112527E+05 -1.887254E-09  3.010911E-10
        54  17 -1.115916E+06 -1.781129E+05 -2.423658E+04 -4.098437E+05  9.837084E-10  2.130667E-10
        54  18 -1.122635E+06 -1.859094E+05 -2.750984E+04 -4.168961E+05 -1.481166E-09  3.574648E-10
        54  19 -9.456678E+05 -1.191633E+05  2.077812E+04 -3.688109E+05 -1.183173E+03  1.765128E+03
        54  20 -9.389701E+05 -1.115183E+05  2.323536E+04 -3.617016E+05 -1.588874E+03  2.099527E+03
        54  21 -9.249406E+05 -1.114699E+05  2.546428E+04 -3.630536E+05 -1.987838E+03  2.415644E+03
        54  22 -1.023771E+06 -1.485397E+05 -2.119842E+02 -3.900330E+05 -1.016932E+03  1.827460E+03
        54  23 -1.027447E+06 -1.448158E+05 -5.002703E+02 -3.857742E+05 -1.429565E+03  2.159283E+03
        54  24 -1.023793E+06 -1.486900E+05 -1.022372E+03 -3.899769E+05 -1.835455E+03  2.472824E+03
        54  25 -1.101868E+06 -1.779158E+05 -2.120263E+04 -4.112527E+05 -8.507135E+02  1.889783E+03
        54  26 -1.115916E+06 -1.781129E+05 -2.423656E+04 -4.098437E+05 -1.270281E+03  2.219029E+03
        54  27 -1.122635E+06 -1.859094E+05 -2.750982E+04 -4.168961E+05 -1.683099E+03  2.529994E+03
        55   1 -9.058063E+05 -1.040375E+05  3.037464E+04 -3.579169E+05  2.284803E+03 -2.581380E+03
        55   2 -8.995188E+05 -9.668127E+04  3.185279E+04 -3.511877E+05  3.637303E+03 -2.528424E+03
        55   3 -8.870891E+05 -9.770651E+04  3.202460E+04 -3.519261E+05  4.966696E+03 -2.413343E+03
        55   4 -1.023992E+06 -1.483903E+05 -1.343988E+03 -3.899347E+05  2.120860E+03 -2.642916E+03
        55   5 -1.027143E+06 -1.447792E+05 -2.396463E+03 -3.859825E+05  3.496800E+03 -2.581198E+03
        55   6 -1.024157E+06 -1.495547E+05 -4.774113E+03 -3.894981E+05  4.849610E+03 -2.457357E+03
        55   7 -1.142164E+06 -1.927424E+05 -3.306393E+04 -4.219470E+05  1.956950E+03 -2.704439E+03
        55   8 -1.154752E+06 -1.928763E+05 -3.664719E+04 -4.207708E+05  3.356329E+03 -2.633961E+03
        55   9 -1.161206E+06 -2.014018E+05 -4.157449E+04 -4.270626E+05  4.732552E+03 -2.501362E+03
        55  10 -9.058063E+05 -1.040375E+05  3.037462E+04 -3.579169E+05  3.033210E-09 -2.086595E-10
        55  11 -8.995189E+05 -9.668128E+04  3.185275E+04 -3.511877E+05 -7.336443E-10  9.093080E-11
        55  12 -8.870891E+05 -9.770652E+04  3.202455E+04 -3.519261E+05 -1.574882E-10 -3.424191E-10
        55  13 -1.023992E+06 -1.483903E+05 -1.344010E+03 -3.899346E+05  6.501247E-10 -5.258764E-11
        55  14 -1.027143E+06 -1.447792E+05 -2.396499E+03 -3.859825E+05  6.782989E-10 -3.972949E-11
        55  15 -1.024157E+06 -1.495547E+05 -4.774169E+03 -3.894981E+05 -2.177264E-09  1.641846E-10
        55  16 -1.142164E+06 -1.927424E+05 -3.306395E+04 -4.219470E+05 -9.401011E-10  3.214613E-10
        55  17 -1.154752E+06 -1.928763E+05 -3.664723E+04 -4.207708E+05  4.333804E-09 -1.441306E-10
        55  18 -1.161206E+06 -2.014018E+05 -4.157455E+04 -4.270626E+05 -4.298475E-10  2.582781E-10
        55  19 -9.058063E+05 -1.040375E+05  3.037464E+04 -3.579169E+05 -2.284803E+03  2.581380E+03
        55  20 -8.995188E+05 -9.668127E+04  3.185279E+04 -3.511877E+05 -3.637303E+03  2.528424E+03
        55  21 -8.870891E+05 -9.770651E+04  3.202460E+04 -3.519261E+05 -4.966696E+03  2.413343E+03
        55  22 -1.023992E+06 -1.483903E+05 -1.343988E+03 -3.899347E+05 -2.120860E+03  2.642916E+03
        55  23 -1.027143E+06 -1.447792E+05 -2.396463E+03 -3.859825E+05 -3.496800E+03  2.581198E+03
        55  24 -1.024157E+06 -1.495547E+05 -4.774113E+03 -3.894981E+05 -4.849610E+03  2.457357E+03
        55  25 -1.142164E+06 -1.927424E+05 -3.306393E+04 -4.219470E+05 -1.956950E+03  2.704439E+03
        55  26 -1.154752E+06 -1.928763E+05 -3.664719E+04 -4.207708E+05 -3.356329E+03  2.633961E+03
        55  27 -1.161206E+06 -2.014018E+05 -4.157449E+04 -4.270626E+05 -4.732552E+03  2.501362E+03
        56   1 -8.694150E+05 -9.051383E+04  3.544131E+04 -3.489238E+05  6.059403E+03 -2.316468E+03
        56   2 -8.631579E+05 -8.157861E+04  3.334598E+04 -3.415481E+05  1.149132E+04 -6.950929E+02
        56   3 -8.561497E+05 -9.118283E+04  2.391451E+04 -3.379836E+05  1.675984E+04  1.361875E+03
        56   4 -1.024818E+06 -1.479619E+05 -6.073815E+03 -3.901341E+05  5.835754E+03 -2.400499E+03
        56   5 -1.025849E+06 -1.434184E+05 -1.040711E+04 -3.864479E+05  1.143246E+04 -7.173043E+02
        56   6 -1.026164E+06 -1.574491E+05 -2.220879E+04 -3.865728E+05  1.686569E+04  1.401482E+03
        56   7 -1.180197E+06 -2.054087E+05 -4.759096E+04 -4.313350E+05  5.612167E+03 -2.484509E+03
        56   8 -1.188515E+06 -2.052566E+05 -5.416255E+04 -4.313372E+05  1.137362E+04 -7.395093E+02
        56   9 -1.196150E+06 -2.237134E+05 -6.833480E+04 -4.351500E+05  1.697151E+04  1.441077E+03
        56  10 -8.694150E+05 -9.051385E+04  3.544123E+04 -3.489238E+05 -2.614433E-09 -1.523094E-10
        56  11 -8.631580E+05 -8.157864E+04  3.334573E+04 -3.415481E+05 -1.292444E-11  7.212597E-10
        56  12 -8.561500E+05 -9.118290E+04  2.391398E+04 -3.379836E+05 -1.207967E-09 -4.768083E-11
        56  13 -1.024818E+06 -1.479620E+05 -6.073890E+03 -3.901341E+05 -6.786411E-10 -4.601499E-10
        56  14 -1.025849E+06 -1.434185E+05 -1.040736E+04 -3.864479E+05 -2.941349E-09 -4.976858E-10
        56  15 -1.026164E+06 -1.574492E+05 -2.220933E+04 -3.865729E+05  4.638071E-10  5.097783E-10
        56  16 -1.180197E+06 -2.054087E+05 -4.759103E+04 -4.313350E+05  2.488778E-09 -9.114578E-10
        56  17 -1.188515E+06 -2.052566E+05 -5.416280E+04 -4.313371E+05  4.507535E-09 -9.082495E-10
        56  18 -1.196150E+06 -2.237135E+05 -6.833535E+04 -4.351500E+05  2.196616E-09  1.286269E-09
        56  19 -8.694150E+05 -9.051383E+04  3.544131E+04 -3.489238E+05 -6.059403E+03  2.316468E+03
        56  20 -8.631579E+05 -8.157861E+04  3.334598E+04 -3.415481E+05 -1.149132E+04  6.950929E+02
        56  21 -8.561497E+05 -9.118283E+04  2.391451E+04 -3.379836E+05 -1.675984E+04 -1.361875E+03
        56  22 -1.024818E+06 -1.479619E+05 -6.073815E+03 -3.901341E+05 -5.835754E+03  2.400499E+03
        56  23 -1.025849E+06 -1.434184E+05 -1.040711E+04 -3.864479E+05 -1.143246E+04  7.173043E+02
        56  24 -1.026164E+06 -1.574491E+05 -2.220879E+04 -3.865728E+05 -1.686569E+04 -1.401482E+03
        56  25 -1.180197E+06 -2.054087E+05 -4.759096E+04 -4.313350E+05 -5.612167E+03  2.484509E+03
        56  26 -1.188515E+06 -2.052566E+05 -5.416255E+04 -4.313372E+05 -1.137362E+04  7.395093E+02
        56  27 -1.196150E+06 -2.237134E+05 -6.833480E+04 -4.351500E+05 -1.697151E+04 -1.441077E+03
        57   1 -8.370230E+05 -8.138879E+04  2.289732E+04 -3.491373E+05  2.206221E+04  2.452292E+03
        57   2 -8.274451E+05 -5.434400E+04  7.760047E+03 -3.315441E+05  4.488700E+04  1.056416E+04
        57   3 -8.534839E+05 -1.326806E+05 -5.175587E+04 -2.935851E+05  6.616461E+04  2.279002E+04
        57   4 -1.029878E+06 -1.455368E+05 -2.715894E+04 -3.929565E+05  2.111656E+04  2.097098E+03
        57   5 -1.017370E+06 -1.311192E+05 -4.412339E+04 -3.886914E+05  4.550389E+04  1.079554E+04
        57   6 -1.040801E+06 -2.224128E+05 -1.067168E+05 -3.640573E+05  6.834381E+04  2.360733E+04
        57   7 -1.222697E+06 -2.096844E+05 -7.721822E+04 -4.367642E+05  2.017122E+04  1.741993E+03
        57   8 -1.207260E+06 -2.078907E+05 -9.601005E+04 -4.458223E+05  4.612057E+04  1.102683E+04
        57   9 -1.228084E+06 -3.121359E+05 -1.616811E+05 -4.345081E+05  7.052228E+04  2.442420E+04
        57  10 -8.370235E+05 -8.138893E+04  2.289639E+04 -3.491374E+05  3.106907E-09  2.040103E-09
        57  11 -8.274473E+05 -5.434466E+04  7.756045E+03 -3.315445E+05 -2.495286E-10  8.892243E-10
        57  12 -8.534887E+05 -1.326824E+05 -5.176509E+04 -2.935863E+05 -1.746941E-10 -1.322384E-10
        57  13 -1.029879E+06 -1.455369E+05 -2.715979E+04 -3.929565E+05  2.211303E-09  2.969169E-10
        57  14 -1.017373E+06 -1.311199E+05 -4.412751E+04 -3.886918E+05  3.192260E-09  7.069605E-10
        57  15 -1.040807E+06 -2.224146E+05 -1.067267E+05 -3.640586E+05  4.096727E-10  3.142499E-12
        57  16 -1.222698E+06 -2.096845E+05 -7.721899E+04 -4.367642E+05 -3.242054E-09 -8.596107E-11
        57  17 -1.207263E+06 -2.078914E+05 -9.601429E+04 -4.458227E+05 -2.421839E-09 -1.595543E-09
        57  18 -1.228089E+06 -3.121379E+05 -1.616916E+05 -4.345095E+05 -1.112732E-09  4.235616E-10
        57  19 -8.370230E+05 -8.138879E+04  2.289732E+04 -3.491373E+05 -2.206221E+04 -2.452292E+03
        57  20 -8.274451E+05 -5.434400E+04  7.760047E+03 -3.315441E+05 -4.488700E+04 -1.056416E+04
        57  21 -8.534839E+05 -1.326806E+05 -5.175587E+04 -2.935851E+05 -6.616461E+04 -2.279002E+04
        57  22 -1.029878E+06 -1.455368E+05 -2.715894E+04 -3.929565E+05 -2.111656E+04 -2.097098E+03
        57  23 -1.017370E+06 -1.311192E+05 -4.412339E+04 -3.886914E+05 -4.550389E+04 -1.079554E+04
        57  24 -1.040801E+06 -2.224128E+05 -1.067168E+05 -3.640573E+05 -6.834381E+04 -2.360733E+04
        57  25 -1.222697E+06 -2.096844E+05 -7.721822E+04 -4.367642E+05 -2.017122E+04 -1.741993E+03
        57  26 -1.207260E+06 -2.078907E+05 -9.601005E+04 -4.458223E+05 -4.612057E+04 -1.102683E+04
        57  27 -1.228084E+06 -3.121359E+05 -1.616811E+05 -4.345081E+05 -7.052228E+04 -2.442420E+04
        58   1 -7.116856E+04  5.556947E+04  7.098782E+04  1.467544E+04  4.852250E+04  1.147125E+00
        58   2 -8.128508E+04 -9.632001E+03  3.081211E+04  4.071383E+03  3.182140E+04  2.087091E-01
        58   3 -7.117175E+04 -2.618745E+03  1.956556E+04 -6.532661E+03  1.511997E+04 -1.591161E-01
        58   4 -7.116879E+04  5.556906E+04  7.098777E+04 -1.418849E-09  4.852250E+04 -5.894501E-10
        58   5 -8.128510E+04 -9.632032E+03  3.081211E+04 -9.918552E-09  3.182140E+04 -3.766031E-10
        58   6 -7.117179E+04 -2.618825E+03  1.956555E+04  1.388972E-08  1.511997E+04  1.583572E-09
        58   7 -7.116856E+04  5.556947E+04  7.098782E+04 -1.467544E+04  4.852250E+04 -1.147125E+00
        58   8 -8.128508E+04 -9.632001E+03  3.081211E+04 -4.071383E+03  3.182140E+04 -2.087091E-01
        58   9 -7.117175E+04 -2.618745E+03  1.956556E+04  6.532661E+03  1.511997E+04  1.591161E-01
        58  10 -7.117109E+04  5.556883E+04  7.098340E+04  1.467544E+04 -1.317567E-09 -3.165732E-10
        58  11 -8.128616E+04 -9.632273E+03  3.081021E+04  4.071383E+03 -7.314840E-10 -6.088247E-10
        58  12 -7.117199E+04 -2.618807E+03  1.956513E+04 -6.532661E+03 -9.653728E-10  9.779220E-11
        58  13 -7.117132E+04  5.556843E+04  7.098334E+04 -1.437206E-08 -1.107890E-09 -2.641952E-10
        58  14 -8.128618E+04 -9.632304E+03  3.081020E+04  5.174073E-09 -1.107879E-09 -4.325128E-10
        58  15 -7.117204E+04 -2.618887E+03  1.956512E+04  7.488841E-09 -2.396804E-09  4.750089E-10
        58  16 -7.117109E+04  5.556883E+04  7.098340E+04 -1.467544E+04  2.146138E-10 -2.055635E-10
        58  17 -8.128616E+04 -9.632273E+03  3.081021E+04 -4.071383E+03  1.731180E-09 -2.207723E-10
        58  18 -7.117199E+04 -2.618807E+03  1.956513E+04  6.532661E+03  7.491927E-10  8.476830E-10
        58  19 -7.116856E+04  5.556947E+04  7.098782E+04  1.467544E+04 -4.852250E+04 -1.147125E+00
        58  20 -8.128508E+04 -9.632001E+03  3.081211E+04  4.071383E+03 -3.182140E+04 -2.087091E-01
        58  21 -7.117175E+04 -2.618745E+03  1.956556E+04 -6.532661E+03 -1.511997E+04  1.591161E-01
        58  22 -7.116879E+04  5.556906E+04  7.098777E+04  7.137700E-09 -4.852250E+04  7.886208E-11
        58  23 -8.128510E+04 -9.632032E+03  3.081211E+04 -9.887507E-09 -3.182140E+04 -4.748698E-10
        58  24 -7.117179E+04 -2.618825E+03  1.956555E+04  1.401197E-08 -1.511997E+04 -6.416272E-10
        58  25 -7.116856E+04  5.556947E+04  7.098782E+04 -1.467544E+04 -4.852250E+04  1.147125E+00
        58  26 -8.128508E+04 -9.632001E+03  3.081211E+04 -4.071383E+03 -3.182140E+04  2.087091E-01
        58  27 -7.117175E+04 -2.618745E+03  1.956556E+04  6.532661E+03 -1.511997E+04 -1.591161E-01
        59   1 -7.506537E+04  6.647342E+03  1.603671E+04  1.618150E+03  1.201799E+04  3.132757E-02
        59   2 -7.641875E+04 -1.170419E+03  7.977475E+03  3.996684E+02  7.899719E+03  5.086133E-03
        59   3 -7.506580E+04 -3.084332E+02  4.769689E+03 -8.188138E+02  3.781456E+03 -4.987923E-03
        59   4 -7.506537E+04  6.647338E+03  1.603671E+04  2.275154E-08  1.201799E+04  9.467931E-10
        59   5 -7.641875E+04 -1.170419E+03  7.977475E+03  1.530479E-08  7.899719E+03 -1.657477E-09
        59   6 -7.506580E+04 -3.084345E+02  4.769689E+03  1.378096E-08  3.781456E+03 -1.818142E-10
        59   7 -7.506537E+04  6.647342E+03  1.603671E+04 -1.618150E+03  1.201799E+04 -3.132757E-02
        59   8 -7.641875E+04 -1.170419E+03  7.977475E+03 -3.996684E+02  7.899719E+03 -5.086137E-03
        59   9 -7.506580E+04 -3.084332E+02  4.769689E+03  8.188138E+02  3.781456E+03  4.987922E-03
        59  10 -7.506552E+04  6.647304E+03  1.603644E+04  1.618150E+03  8.404836E-10  2.573154E-10
        59  11 -7.641882E+04 -1.170436E+03  7.977358E+03  3.996684E+02 -9.022643E-10 -1.179175E-10
        59  12 -7.506581E+04 -3.084371E+02  4.769663E+03 -8.188138E+02 -9.572203E-10  1.916012E-10
        59  13 -7.506553E+04  6.647299E+03  1.603644E+04  3.558825E-08 -2.190429E-09  2.514509E-10
        59  14 -7.641882E+04 -1.170436E+03  7.977358E+03  8.850674E-09 -3.275115E-09 -6.824513E-10
        59  15 -7.506581E+04 -3.084383E+02  4.769662E+03  1.011316E-08 -5.166725E-10  5.809628E-10
        59  16 -7.506552E+04  6.647304E+03  1.603644E+04 -1.618150E+03 -1.350181E-09  2.679710E-10
        59  17 -7.641882E+04 -1.170436E+03  7.977358E+03 -3.996684E+02 -4.871384E-10 -1.246980E-09
        59  18 -7.506581E+04 -3.084371E+02  4.769663E+03  8.188138E+02  2.783698E-09  9.717770E-10
        59  19 -7.506537E+04  6.647342E+03  1.603671E+04  1.618150E+03 -1.201799E+04 -3.132757E-02
        59  20 -7.641875E+04 -1.170419E+03  7.977475E+03  3.996684E+02 -7.899719E+03 -5.086134E-03
        59  21 -7.506580E+04 -3.084332E+02  4.769689E+03 -8.188138E+02 -3.781456E+03  4.987923E-03
        59  22 -7.506537E+04  6.647338E+03  1.603671E+04  1.827071E-08 -1.201799E+04 -4.373186E-10
        59  23 -7.641875E+04 -1.170419E+03  7.977475E+03  1.962701E-08 -7.899719E+03  2.791705E-10
        59  24 -7.506580E+04 -3.084345E+02  4.769689E+03  2.421419E-08 -3.781456E+03  1.345993E-09
        59  25 -7.506537E+04  6.647342E+03  1.603671E+04 -1.618150E+03 -1.201799E+04  3.132757E-02
        59  26 -7.641875E+04 -1.170419E+03  7.977475E+03 -3.996684E+02 -7.899719E+03  5.086134E-03
        59  27 -7.506580E+04 -3.084332E+02  4.769689E+03  8.188138E+02 -3.781456E+03 -4.987920E-03
        60   1 -7.558181E+04  7.862950E+02  3.730590E+03  1.557059E+02  3.025943E+03  7.589998E-04
        60   2 -7.577387E+04 -1.420120E+02  1.917768E+03  2.357577E+01  2.057611E+03  7.814638E-05
        60   3 -7.558188E+04 -3.852999E+01  9.933647E+02 -1.085525E+02  1.089295E+03 -1.904847E-04
        60   4 -7.558181E+04  7.862949E+02  3.730590E+03  4.153331E-09  3.025943E+03  8.776950E-10
        60   5 -7.577387E+04 -1.420120E+02  1.917768E+03 -2.820135E-08  2.057611E+03  6.084754E-10
        60   6 -7.558188E+04 -3.853001E+01  9.933647E+02  2.445344E-09  1.089295E+03  6.893858E-10
        60   7 -7.558181E+04  7.862950E+02  3.730590E+03 -1.557059E+02  3.025943E+03 -7.589980E-04
        60   8 -7.577387E+04 -1.420120E+02  1.917768E+03 -2.357577E+01  2.057611E+03 -7.814519E-05
        60   9 -7.558188E+04 -3.852999E+01  9.933647E+02  1.085525E+02  1.089295E+03  1.904861E-04
        60  10 -7.558182E+04  7.862925E+02  3.730572E+03  1.557059E+02 -3.035812E-10  2.002672E-10
        60  11 -7.577388E+04 -1.420132E+02  1.917760E+03  2.357577E+01 -4.409721E-09 -2.286059E-10
        60  12 -7.558189E+04 -3.853031E+01  9.933625E+02 -1.085525E+02 -3.278649E-09 -3.271384E-11
        60  13 -7.558182E+04  7.862925E+02  3.730572E+03 -2.608201E-08  3.257295E-09  7.513417E-10
        60  14 -7.577388E+04 -1.420132E+02  1.917760E+03 -4.521775E-09 -4.307772E-09 -3.407623E-10
        60  15 -7.558189E+04 -3.853033E+01  9.933625E+02  1.919261E-08 -3.311469E-09  1.595126E-10
        60  16 -7.558182E+04  7.862925E+02  3.730572E+03 -1.557059E+02  8.791173E-10  1.300158E-09
        60  17 -7.577388E+04 -1.420132E+02  1.917760E+03 -2.357577E+01 -8.861009E-10 -4.485477E-10
        60  18 -7.558189E+04 -3.853031E+01  9.933625E+02  1.085525E+02 -1.288848E-09  3.529507E-10
        60  19 -7.558181E+04  7.862950E+02  3.730590E+03  1.557059E+02 -3.025943E+03 -7.589993E-04
        60  20 -7.577387E+04 -1.420120E+02  1.917768E+03  2.357577E+01 -2.057611E+03 -7.814679E-05
        60  21 -7.558188E+04 -3.852999E+01  9.933647E+02 -1.085525E+02 -1.089295E+03  1.904846E-04
        60  22 -7.558181E+04  7.862949E+02  3.730590E+03  3.845366E-08 -3.025943E+03  6.295108E-10
        60  23 -7.577387E+04 -1.420120E+02  1.917768E+03  6.235142E-09 -2.057611E+03 -1.283897E-09
        60  24 -7.558188E+04 -3.853001E+01  9.933647E+02  1.978679E-08 -1.089295E+03 -3.716130E-10
        60  25 -7.558181E+04  7.862950E+02  3.730590E+03 -1.557059E+02 -3.025943E+03  7.590008E-04
        60  26 -7.577387E+04 -1.420120E+02  1.917768E+03 -2.357577E+01 -2.057611E+03  7.814414E-05
        60  27 -7.558188E+04 -3.852999E+01  9.933647E+02  1.085525E+02 -1.089295E+03 -1.904853E-04
        61   1 -7.566234E+04  9.192345E+01  6.588715E+02  1.598297E+00  9.412167E+02  2.423526E-06
        61   2 -7.567334E+04 -9.734054E+00  5.734244E+01 -8.685294E+00  9.114084E+02 -1.275178E-05
        61   3 -7.566237E+04 -3.899518E+01 -5.066741E+02 -1.896904E+01  8.815997E+02 -2.693871E-05
        61   4 -7.566234E+04  9.192345E+01  6.588715E+02  7.879625E-09  9.412167E+02  4.584029E-10
        61   5 -7.567334E+04 -9.734054E+00  5.734244E+01 -2.259017E-09  9.114084E+02  8.756382E-11
        61   6 -7.566237E+04 -3.899518E+01 -5.066741E+02  9.680002E-09  8.815997E+02  8.492218E-10
        61   7 -7.566234E+04  9.192345E+01  6.588715E+02 -1.598297E+00  9.412167E+02 -2.422608E-06
        61   8 -7.567334E+04 -9.734054E+00  5.734244E+01  8.685294E+00  9.114084E+02  1.275192E-05
        61   9 -7.566237E+04 -3.899518E+01 -5.066741E+02  1.896904E+01  8.815997E+02  2.694043E-05
        61  10 -7.566234E+04  9.192321E+01  6.588698E+02  1.598297E+00 -2.748661E-09 -1.295918E-10
        61  11 -7.567335E+04 -9.734277E+00  5.734088E+01 -8.685294E+00 -5.011549E-10 -4.037149E-10
        61  12 -7.566237E+04 -3.899539E+01 -5.066755E+02 -1.896904E+01  1.832545E-10  2.699056E-10
        61  13 -7.566234E+04  9.192321E+01  6.588698E+02 -5.095201E-09 -5.384709E-09  2.039951E-10
        61  14 -7.567335E+04 -9.734277E+00  5.734088E+01 -2.260561E-09 -6.447972E-09 -4.171584E-10
        61  15 -7.566237E+04 -3.899539E+01 -5.066755E+02  2.211357E-08 -5.144138E-09  1.213423E-10
        61  16 -7.566234E+04  9.192321E+01  6.588698E+02 -1.598297E+00 -4.263560E-09  5.419485E-10
        61  17 -7.567335E+04 -9.734277E+00  5.734088E+01  8.685294E+00 -2.163320E-09 -4.373793E-10
        61  18 -7.566237E+04 -3.899539E+01 -5.066755E+02  1.896904E+01 -1.448316E-09 -3.896546E-11
        61  19 -7.566234E+04  9.192345E+01  6.588715E+02  1.598296E+00 -9.412167E+02 -2.423756E-06
        61  20 -7.567334E+04 -9.734054E+00  5.734244E+01 -8.685294E+00 -9.114084E+02  1.275102E-05
        61  21 -7.566237E+04 -3.899518E+01 -5.066741E+02 -1.896904E+01 -8.815997E+02  2.693926E-05
        61  22 -7.566234E+04  9.192345E+01  6.588715E+02 -8.394285E-10 -9.412167E+02 -5.159038E-11
        61  23 -7.567334E+04 -9.734054E+00  5.734244E+01 -4.416218E-09 -9.114084E+02 -9.199199E-10
        61  24 -7.566237E+04 -3.899518E+01 -5.066741E+02 -1.499237E-08 -8.815997E+02 -6.080957E-10
        61  25 -7.566234E+04  9.192345E+01  6.588715E+02 -1.598296E+00 -9.412167E+02  2.423638E-06
        61  26 -7.567334E+04 -9.734054E+00  5.734244E+01  8.685294E+00 -9.114084E+02 -1.275287E-05
        61  27 -7.566237E+04 -3.899518E+01 -5.066741E+02  1.896904E+01 -8.815997E+02 -2.694048E-05
        62   1 -7.571498E+04  2.323372E+01 -8.242726E+02 -5.300745E+01  1.001716E+03 -8.553739E-05
        62   2 -7.560762E+04  6.066686E+01 -1.684076E+03 -1.087851E+01  1.842083E+03 -3.228308E-05
        62   3 -7.571503E+04 -3.231894E+02 -3.196362E+03  3.125047E+01  2.682450E+03  1.350404E-04
        62   4 -7.571498E+04  2.323372E+01 -8.242726E+02  5.278129E-09  1.001716E+03  7.445636E-11
        62   5 -7.560762E+04  6.066686E+01 -1.684076E+03  5.425198E-09  1.842083E+03 -1.741666E-09
        62   6 -7.571503E+04 -3.231894E+02 -3.196362E+03  1.472625E-08  2.682450E+03  1.150065E-11
        62   7 -7.571498E+04  2.323372E+01 -8.242726E+02  5.300745E+01  1.001716E+03  8.553755E-05
        62   8 -7.560762E+04  6.066686E+01 -1.684076E+03  1.087851E+01  1.842083E+03  3.227952E-05
        62   9 -7.571503E+04 -3.231894E+02 -3.196362E+03 -3.125047E+01  2.682450E+03 -1.350405E-04
        62  10 -7.571498E+04  2.323345E+01 -8.242745E+02 -5.300745E+01 -8.628514E-10  5.623794E-10
        62  11 -7.560762E+04  6.066595E+01 -1.684082E+03 -1.087851E+01 -3.352538E-10  1.086219E-10
        62  12 -7.571504E+04 -3.231914E+02 -3.196375E+03  3.125047E+01 -2.905362E-10 -6.486763E-10
        62  13 -7.571498E+04  2.323345E+01 -8.242745E+02  9.565716E-09 -5.336386E-11  3.613469E-10
        62  14 -7.560762E+04  6.066595E+01 -1.684082E+03  9.710588E-09  3.176404E-09 -1.311581E-10
        62  15 -7.571504E+04 -3.231914E+02 -3.196375E+03  3.394068E-09 -2.431212E-09 -6.786448E-10
        62  16 -7.571498E+04  2.323345E+01 -8.242745E+02  5.300745E+01 -2.379471E-09  1.562272E-10
        62  17 -7.560762E+04  6.066595E+01 -1.684082E+03  1.087851E+01 -1.562995E-09 -3.888083E-10
        62  18 -7.571504E+04 -3.231914E+02 -3.196375E+03 -3.125047E+01 -7.039295E-10 -7.058483E-10
        62  19 -7.571498E+04  2.323372E+01 -8.242726E+02 -5.300745E+01 -1.001716E+03  8.553848E-05
        62  20 -7.560762E+04  6.066686E+01 -1.684076E+03 -1.087851E+01 -1.842083E+03  3.228336E-05
        62  21 -7.571503E+04 -3.231894E+02 -3.196362E+03  3.125047E+01 -2.682450E+03 -1.350418E-04
        62  22 -7.571498E+04  2.323372E+01 -8.242726E+02 -2.491670E-08 -1.001716E+03  6.475471E-10
        62  23 -7.560762E+04  6.066686E+01 -1.684076E+03 -7.542803E-09 -1.842083E+03  1.476047E-09
        62  24 -7.571503E+04 -3.231894E+02 -3.196362E+03  1.898525E-08 -2.682450E+03 -1.385327E-09
        62  25 -7.571498E+04  2.323372E+01 -8.242726E+02  5.300745E+01 -1.001716E+03 -8.553729E-05
        62  26 -7.560762E+04  6.066686E+01 -1.684076E+03  1.087851E+01 -1.842083E+03 -3.228037E-05
        62  27 -7.571503E+04 -3.231894E+02 -3.196362E+03 -3.125047E+01 -2.682450E+03  1.350389E-04
        63   1 -7.597713E+04  1.261774E+02 -4.181465E+03 -3.775202E+02  3.344898E+03 -2.034223E-03
        63   2 -7.528008E+04  5.086194E+02 -7.189626E+03  9.036091E+01  6.971519E+03  1.014808E-03
        63   3 -7.597733E+04 -2.796927E+03 -1.348102E+04  5.582361E+02  1.059807E+04  9.530598E-03
        63   4 -7.597713E+04  1.261772E+02 -4.181465E+03  9.679027E-10  3.344898E+03  1.344395E-09
        63   5 -7.528008E+04  5.086194E+02 -7.189626E+03 -2.281826E-09  6.971519E+03  1.201965E-09
        63   6 -7.597733E+04 -2.796927E+03 -1.348102E+04  1.385341E-08  1.059807E+04 -5.744651E-11
        63   7 -7.597713E+04  1.261774E+02 -4.181465E+03  3.775202E+02  3.344898E+03  2.034226E-03
        63   8 -7.528008E+04  5.086194E+02 -7.189626E+03 -9.036091E+01  6.971519E+03 -1.014805E-03
        63   9 -7.597733E+04 -2.796927E+03 -1.348102E+04 -5.582361E+02  1.059807E+04 -9.530598E-03
        63  10 -7.597714E+04  1.261744E+02 -4.181486E+03 -3.775202E+02 -2.733576E-10 -2.330330E-10
        63  11 -7.528014E+04  5.086064E+02 -7.189717E+03  9.036091E+01  1.910181E-09  8.281243E-10
        63  12 -7.597745E+04 -2.796957E+03 -1.348123E+04  5.582361E+02 -1.637393E-09 -2.288982E-10
        63  13 -7.597714E+04  1.261742E+02 -4.181486E+03 -7.562691E-09  1.187706E-27 -1.949961E-10
        63  14 -7.528014E+04  5.086064E+02 -7.189717E+03  8.491989E-09 -1.050211E-09  8.451806E-10
        63  15 -7.597745E+04 -2.796957E+03 -1.348123E+04  3.746989E-08 -1.869164E-09  7.578154E-12
        63  16 -7.597714E+04  1.261744E+02 -4.181486E+03  3.775202E+02  8.251883E-10 -1.585129E-10
        63  17 -7.528014E+04  5.086064E+02 -7.189717E+03 -9.036091E+01  3.233340E-10  8.665257E-10
        63  18 -7.597745E+04 -2.796957E+03 -1.348123E+04 -5.582361E+02  4.808440E-10  2.467110E-10
        63  19 -7.597713E+04  1.261774E+02 -4.181465E+03 -3.775202E+02 -3.344898E+03  2.034223E-03
        63  20 -7.528008E+04  5.086194E+02 -7.189626E+03  9.036091E+01 -6.971519E+03 -1.014806E-03
        63  21 -7.597733E+04 -2.796927E+03 -1.348102E+04  5.582361E+02 -1.059807E+04 -9.530598E-03
        63  22 -7.597713E+04  1.261772E+02 -4.181465E+03  9.753129E-09 -3.344898E+03 -1.731929E-09
        63  23 -7.528008E+04  5.086194E+02 -7.189626E+03  2.034720E-09 -6.971519E+03  4.928640E-10
        63  24 -7.597733E+04 -2.796927E+03 -1.348102E+04  6.701242E-09 -1.059807E+04  1.187996E-10
        63  25 -7.597713E+04  1.261774E+02 -4.181465E+03  3.775202E+02 -3.344898E+03 -2.034226E-03
        63  26 -7.528008E+04  5.086194E+02 -7.189626E+03 -9.036091E+01 -6.971519E+03  1.014807E-03
        63  27 -7.597733E+04 -2.796927E+03 -1.348102E+04 -5.582361E+02 -1.059807E+04  9.530598E-03
        64   1 -7.780787E+04  1.096721E+03 -1.712568E+04 -2.909957E+03  1.331917E+04 -6.243675E-02
        64   2 -7.299185E+04  4.164033E+03 -2.846515E+04  1.423605E+03  2.801310E+04  6.424270E-02
        64   3 -7.780843E+04 -2.364632E+04 -5.708997E+04  5.757239E+03  4.270710E+04  3.960856E-01
        64   4 -7.780788E+04  1.096706E+03 -1.712568E+04  1.437161E-09  1.331917E+04 -6.412568E-10
        64   5 -7.299186E+04  4.164029E+03 -2.846515E+04  1.429714E-08  2.801310E+04 -3.423534E-10
        64   6 -7.780846E+04 -2.364638E+04 -5.708997E+04 -3.535976E-09  4.270710E+04  2.110361E-10
        64   7 -7.780787E+04  1.096721E+03 -1.712568E+04  2.909957E+03  1.331917E+04  6.243675E-02
        64   8 -7.299185E+04  4.164033E+03 -2.846515E+04 -1.423605E+03  2.801310E+04 -6.424270E-02
        64   9 -7.780843E+04 -2.364632E+04 -5.708997E+04 -5.757239E+03  4.270710E+04 -3.960856E-01
        64  10 -7.780806E+04  1.096674E+03 -1.712601E+04 -2.909957E+03 -7.028787E-11 -5.690644E-10
        64  11 -7.299270E+04  4.163823E+03 -2.846663E+04  1.423605E+03  2.273583E-09  2.468380E-10
        64  12 -7.781039E+04 -2.364681E+04 -5.709339E+04  5.757239E+03 -1.363565E-09  4.634195E-10
        64  13 -7.780807E+04  1.096658E+03 -1.712602E+04  1.443445E-09 -1.086144E-09 -5.556131E-10
        64  14 -7.299270E+04  4.163819E+03 -2.846663E+04 -2.015133E-08 -3.233854E-09 -3.200378E-10
        64  15 -7.781042E+04 -2.364687E+04 -5.709340E+04  1.210144E-08  2.681601E-09  9.683403E-11
        64  16 -7.780806E+04  1.096674E+03 -1.712601E+04  2.909957E+03 -2.101452E-09 -5.394450E-10
        64  17 -7.299270E+04  4.163823E+03 -2.846663E+04 -1.423605E+03 -1.526285E-09 -8.985194E-10
        64  18 -7.781039E+04 -2.364681E+04 -5.709339E+04 -5.757239E+03 -8.283539E-10 -2.319207E-10
        64  19 -7.780787E+04  1.096721E+03 -1.712568E+04 -2.909957E+03 -1.331917E+04  6.243675E-02
        64  20 -7.299185E+04  4.164033E+03 -2.846515E+04  1.423605E+03 -2.801310E+04 -6.424270E-02
        64  21 -7.780843E+04 -2.364632E+04 -5.708997E+04  5.757239E+03 -4.270710E+04 -3.960856E-01
        64  22 -7.780788E+04  1.096706E+03 -1.712568E+04 -1.147379E-08 -1.331917E+04 -4.696175E-10
        64  23 -7.299186E+04  4.164029E+03 -2.846515E+04 -1.798347E-08 -2.801310E+04 -3.043851E-10
        64  24 -7.780846E+04 -2.364638E+04 -5.708997E+04  8.155395E-10 -4.270710E+04 -1.640582E-11
        64  25 -7.780787E+04  1.096721E+03 -1.712568E+04  2.909957E+03 -1.331917E+04 -6.243675E-02
        64  26 -7.299185E+04  4.164033E+03 -2.846515E+04 -1.423605E+03 -2.801310E+04  6.424270E-02
        64  27 -7.780843E+04 -2.364632E+04 -5.708997E+04 -5.757239E+03 -4.270710E+04  3.960856E-01
        65   1 -9.165530E+04  9.317622E+03 -6.962439E+04 -2.323737E+04  5.374570E+04 -2.011942E+00
        65   2 -5.567679E+04  3.426462E+04 -1.095835E+05  1.448528E+04  1.131685E+05  2.640660E+00
        65   3 -9.165101E+04 -1.976640E+05 -2.524384E+05  5.220583E+04  1.725923E+05  1.451489E+01
        65   4 -9.165588E+04  9.316607E+03 -6.962453E+04 -3.391620E-09  5.374570E+04  8.571726E-10
        65   5 -5.567702E+04  3.426422E+04 -1.095836E+05 -7.443501E-09  1.131685E+05  1.434345E-09
        65   6 -9.165394E+04 -1.976691E+05 -2.524392E+05 -7.252840E-10  1.725923E+05 -1.044729E-09
        65   7 -9.165530E+04  9.317622E+03 -6.962439E+04  2.323737E+04  5.374570E+04  2.011942E+00
        65   8 -5.567679E+04  3.426462E+04 -1.095835E+05 -1.448528E+04  1.131685E+05 -2.640660E+00
        65   9 -9.165101E+04 -1.976640E+05 -2.524384E+05 -5.220583E+04  1.725923E+05 -1.451489E+01
        65  10 -9.165840E+04  9.316846E+03 -6.962982E+04 -2.323737E+04 -1.616614E-09  3.376191E-10
        65  11 -5.569055E+04  3.426118E+04 -1.096076E+05  1.448528E+04  1.134900E-09  1.166854E-10
        65  12 -9.168301E+04 -1.976720E+05 -2.524944E+05  5.220583E+04  1.920281E-11  1.276744E-10
        65  13 -9.165898E+04  9.315831E+03 -6.962996E+04 -1.201232E-08  1.144042E-09  2.424267E-10
        65  14 -5.569077E+04  3.426078E+04 -1.096077E+05 -2.252693E-08 -4.193184E-11  2.065948E-10
        65  15 -9.168593E+04 -1.976771E+05 -2.524952E+05 -7.287210E-10 -1.216905E-09  6.085474E-11
        65  16 -9.165840E+04  9.316846E+03 -6.962982E+04  2.323737E+04  2.156120E-09  2.243797E-10
        65  17 -5.569055E+04  3.426118E+04 -1.096076E+05 -1.448528E+04 -8.814211E-10  1.862224E-10
        65  18 -9.168301E+04 -1.976720E+05 -2.524944E+05 -5.220583E+04 -2.681980E-10  1.142237E-10
        65  19 -9.165530E+04  9.317622E+03 -6.962439E+04 -2.323737E+04 -5.374570E+04  2.011942E+00
        65  20 -5.567679E+04  3.426462E+04 -1.095835E+05  1.448528E+04 -1.131685E+05 -2.640660E+00
        65  21 -9.165101E+04 -1.976640E+05 -2.524384E+05  5.220583E+04 -1.725923E+05 -1.451489E+01
        65  22 -9.165588E+04  9.316607E+03 -6.962453E+04  1.813726E-08 -5.374570E+04 -3.565019E-10
        65  23 -5.567702E+04  3.426422E+04 -1.095836E+05 -3.144215E-09 -1.131685E+05 -1.091859E-09
        65  24 -9.165394E+04 -1.976691E+05 -2.524392E+05  7.342106E-09 -1.725923E+05  4.530107E-10
        65  25 -9.165530E+04  9.317622E+03 -6.962439E+04  2.323737E+04 -5.374570E+04 -2.011942E+00
        65  26 -5.567679E+04  3.426462E+04 -1.095835E+05 -1.448528E+04 -1.131685E+05  2.640660E+00
        65  27 -9.165101E+04 -1.976640E+05 -2.524384E+05 -5.220583E+04 -1.725923E+05  1.451489E+01
        66   1  4.891697E+04 -2.471154E+05  4.532434E+04 -1.827148E+03  2.139769E+03 -8.594282E+03
        66   2  6.034696E+04 -2.547799E+05  5.104208E+04  2.416590E+02  6.431023E+03 -7.288493E+03
        66   3  5.696444E+04 -2.662286E+05  5.222523E+04 -6.355014E+03  5.978642E+03 -5.983203E+03
        66   4 -1.208170E+04 -4.914682E+05 -1.522010E+04 -4.942436E+03  2.140031E+03 -1.130898E+04
        66   5  2.009108E+03 -4.894055E+05 -5.930124E+03 -6.088236E+02  6.431373E+03 -8.069396E+03
        66   6  9.485292E+02 -4.914643E+05 -2.519719E+03 -4.940880E+03  5.978298E+03 -4.830248E+03
        66   7 -7.308481E+04 -7.357667E+05 -7.576895E+04 -8.056495E+03  2.140320E+03 -1.402261E+04
        66   8 -5.633279E+04 -7.239808E+05 -6.290630E+04 -1.458981E+03  6.431725E+03 -8.850004E+03
        66   9 -5.507111E+04 -7.166537E+05 -5.726833E+04 -3.527256E+03  5.977959E+03 -3.677709E+03
        66  10  4.891695E+04 -2.471155E+05  4.532419E+04 -1.827133E+03 -1.665430E-09 -4.092961E-09
        66  11  6.034690E+04 -2.547800E+05  5.104190E+04  2.416968E+02 -3.849499E-09 -4.623732E-10
        66  12  5.696439E+04 -2.662286E+05  5.222509E+04 -6.354985E+03 -4.593119E-09  3.970874E-09
        66  13 -1.208174E+04 -4.914683E+05 -1.522035E+04 -4.942416E+03 -1.110539E-09 -2.750309E-11
        66  14  2.009046E+03 -4.894056E+05 -5.930325E+03 -6.087818E+02 -3.209571E-09  1.204650E-10
        66  15  9.484845E+02 -4.914643E+05 -2.519830E+03 -4.940857E+03 -2.886041E-09 -4.029875E-11
        66  16 -7.308487E+04 -7.357669E+05 -7.576933E+04 -8.056471E+03 -1.686446E-09  4.050555E-09
        66  17 -5.633286E+04 -7.239809E+05 -6.290653E+04 -1.458935E+03  2.609779E-10  5.739793E-10
        66  18 -5.507115E+04 -7.166537E+05 -5.726842E+04 -3.527239E+03 -1.467427E-09 -3.573267E-09
        66  19  4.891697E+04 -2.471154E+05  4.532434E+04 -1.827148E+03 -2.139769E+03  8.594282E+03
        66  20  6.034696E+04 -2.547799E+05  5.104208E+04  2.416590E+02 -6.431023E+03  7.288493E+03
        66  21  5.696444E+04 -2.662286E+05  5.222523E+04 -6.355014E+03 -5.978642E+03  5.983203E+03
        66  22 -1.208170E+04 -4.914682E+05 -1.522010E+04 -4.942436E+03 -2.140031E+03  1.130898E+04
        66  23  2.009108E+03 -4.894055E+05 -5.930124E+03 -6.088236E+02 -6.431373E+03  8.069396E+03
        66  24  9.485292E+02 -4.914643E+05 -2.519719E+03 -4.940880E+03 -5.978298E+03  4.830248E+03
        66  25 -7.308481E+04 -7.357667E+05 -7.576895E+04 -8.056495E+03 -2.140320E+03  1.402261E+04
        66  26 -5.633279E+04 -7.239808E+05 -6.290630E+04 -1.458981E+03 -6.431725E+03  8.850004E+03
        66  27 -5.507111E+04 -7.166537E+05 -5.726833E+04 -3.527256E+03 -5.977959E+03  3.677709E+03
        67   1  5.016014E+04 -2.823523E+05  4.944765E+04 -5.215289E+03  5.104955E+03 -4.344779E+03
        67   2  4.888984E+04 -2.928968E+05  5.023334E+04 -2.400015E+02  5.171043E+03 -5.723276E+03
        67   3  5.002321E+04 -3.026085E+05  5.252867E+04 -4.592883E+03  4.542173E+03 -7.102357E+03
        67   4 -1.595857E+03 -4.903730E+05 -1.223921E+03 -5.090216E+03  5.105150E+03 -4.512160E+03
        67   5 -3.230618E+02 -4.907637E+05  2.118244E+03 -4.243780E+02  5.171078E+03 -5.606908E+03
        67   6  3.304512E+03 -4.903709E+05  6.773172E+03 -5.086889E+03  4.541950E+03 -6.702263E+03
        67   7 -5.335505E+04 -6.983541E+05 -5.189863E+04 -4.965180E+03  5.105345E+03 -4.679484E+03
        67   8 -4.953885E+04 -6.885949E+05 -4.599968E+04 -6.086897E+02  5.171112E+03 -5.490578E+03
        67   9 -4.341678E+04 -6.781012E+05 -3.898489E+04 -5.580738E+03  4.541726E+03 -6.302290E+03
        67  10  5.016011E+04 -2.823524E+05  4.944756E+04 -5.215271E+03 -1.084020E-09 -5.892600E-10
        67  11  4.888980E+04 -2.928968E+05  5.023322E+04 -2.399777E+02 -2.399710E-09 -2.142495E-10
        67  12  5.002317E+04 -3.026085E+05  5.252854E+04 -4.592857E+03 -1.395824E-09  9.137064E-10
        67  13 -1.595890E+03 -4.903730E+05 -1.224009E+03 -5.090198E+03 -2.654440E-09  1.376407E-12
        67  14 -3.230989E+02 -4.907637E+05  2.118135E+03 -4.243546E+02 -2.134928E-09  3.948924E-10
        67  15  3.304477E+03 -4.903710E+05  6.773049E+03 -5.086864E+03  1.297993E-09 -1.239856E-10
        67  16 -5.335508E+04 -6.983542E+05 -5.189872E+04 -4.965161E+03 -1.674548E-09 -2.253417E-10
        67  17 -4.953888E+04 -6.885949E+05 -4.599979E+04 -6.086668E+02  1.621925E-10  5.940839E-10
        67  18 -4.341682E+04 -6.781012E+05 -3.898500E+04 -5.580715E+03 -2.245962E-09 -1.545292E-10
        67  19  5.016014E+04 -2.823523E+05  4.944765E+04 -5.215289E+03 -5.104955E+03  4.344779E+03
        67  20  4.888984E+04 -2.928968E+05  5.023334E+04 -2.400015E+02 -5.171043E+03  5.723276E+03
        67  21  5.002321E+04 -3.026085E+05  5.252867E+04 -4.592883E+03 -4.542173E+03  7.102357E+03
        67  22 -1.595857E+03 -4.903730E+05 -1.223921E+03 -5.090216E+03 -5.105150E+03  4.512160E+03
        67  23 -3.230618E+02 -4.907637E+05  2.118244E+03 -4.243780E+02 -5.171078E+03  5.606908E+03
        67  24  3.304512E+03 -4.903709E+05  6.773172E+03 -5.086889E+03 -4.541950E+03  6.702263E+03
        67  25 -5.335505E+04 -6.983541E+05 -5.189863E+04 -4.965180E+03 -5.105345E+03  4.679484E+03
        67  26 -4.953885E+04 -6.885949E+05 -4.599968E+04 -6.086897E+02 -5.171112E+03  5.490578E+03
        67  27 -4.341678E+04 -6.781012E+05 -3.898489E+04 -5.580738E+03 -4.541726E+03  6.302290E+03
        68   1  4.073123E+04 -3.187992E+05  4.991312E+04 -8.462538E+03  4.632386E+03 -7.642175E+03
        68   2  3.484533E+04 -3.343806E+05  5.321920E+04  1.585366E+03  4.325623E+03 -1.665992E+04
        68   3  6.406055E+04 -3.399915E+05  7.117799E+04  1.804196E+03  1.383350E+03 -2.568042E+04
        68   4 -1.441467E+03 -4.883703E+05  8.729177E+03 -5.209669E+03  4.632786E+03 -8.049852E+03
        68   5 -4.658601E+03 -4.932590E+05  1.462747E+04 -2.799468E+02  4.325087E+03 -1.599098E+04
        68   6  2.704291E+04 -4.883624E+05  3.443272E+04 -5.179330E+03  1.381727E+03 -2.393501E+04
        68   7 -4.361624E+04 -6.579150E+05 -3.245684E+04 -1.957686E+03  4.633182E+03 -8.457418E+03
        68   8 -4.416438E+04 -6.521142E+05 -2.396609E+04 -2.144775E+03  4.324547E+03 -1.532221E+04
        68   9 -9.976184E+03 -6.367131E+05 -2.314142E+03 -1.216118E+04  1.380063E+03 -2.219001E+04
        68  10  4.073119E+04 -3.187993E+05  4.991297E+04 -8.462510E+03 -2.562474E-09 -1.771892E-09
        68  11  3.484524E+04 -3.343809E+05  5.321865E+04  1.585424E+03 -6.211468E-12 -4.702374E-10
        68  12  6.406037E+04 -3.399922E+05  7.117674E+04  1.804225E+03 -1.439179E-09  1.906232E-09
        68  13 -1.441508E+03 -4.883703E+05  8.729015E+03 -5.209639E+03 -4.416562E-10  3.508968E-11
        68  14 -4.658690E+03 -4.932593E+05  1.462695E+04 -2.798911E+02  1.722559E-09  5.680379E-10
        68  15  2.704276E+04 -4.883630E+05  3.443164E+04 -5.179303E+03  8.824212E-10 -1.676001E-10
        68  16 -4.361628E+04 -6.579151E+05 -3.245701E+04 -1.957654E+03  5.494187E-10  3.902962E-10
        68  17 -4.416446E+04 -6.521145E+05 -2.396657E+04 -2.144721E+03  2.058959E-09  9.682938E-10
        68  18 -9.976319E+03 -6.367136E+05 -2.315072E+03 -1.216115E+04  1.294631E-09 -8.430576E-10
        68  19  4.073123E+04 -3.187992E+05  4.991312E+04 -8.462538E+03 -4.632386E+03  7.642175E+03
        68  20  3.484533E+04 -3.343806E+05  5.321920E+04  1.585366E+03 -4.325623E+03  1.665992E+04
        68  21  6.406055E+04 -3.399915E+05  7.117799E+04  1.804196E+03 -1.383350E+03  2.568042E+04
        68  22 -1.441467E+03 -4.883703E+05  8.729177E+03 -5.209669E+03 -4.632786E+03  8.049852E+03
        68  23 -4.658601E+03 -4.932590E+05  1.462747E+04 -2.799468E+02 -4.325087E+03  1.599098E+04
        68  24  2.704291E+04 -4.883624E+05  3.443272E+04 -5.179330E+03 -1.381727E+03  2.393501E+04
        68  25 -4.361624E+04 -6.579150E+05 -3.245684E+04 -1.957686E+03 -4.633182E+03  8.457418E+03
        68  26 -4.416438E+04 -6.521142E+05 -2.396609E+04 -2.144775E+03 -4.324547E+03  1.532221E+04
        68  27 -9.976184E+03 -6.367131E+05 -2.314142E+03 -1.216118E+04 -1.380063E+03  2.219001E+04
        69   1 -5.113142E+05 -1.066670E+05 -3.701697E+04 -1.889504E+05 -1.499485E+04 -5.089016E+03
        69   2 -5.025162E+05 -7.966461E+04 -2.127267E+04 -1.866716E+05 -9.733814E+03 -2.167515E+03
        69   3 -4.965198E+05 -7.992026E+04 -1.551570E+04 -1.856936E+05 -4.021538E+03 -4.489839E+02
        69   4 -4.610695E+05 -8.374171E+04 -2.250300E+04 -1.711969E+05 -1.444847E+04 -4.884257E+03
        69   5 -4.585719E+05 -6.204760E+04 -9.308171E+03 -1.735868E+05 -9.646293E+03 -2.134728E+03
        69   6 -4.587844E+05 -6.751978E+04 -5.736372E+03 -1.772779E+05 -4.392952E+03 -5.882131E+02
        69   7 -4.108225E+05 -6.081598E+04 -7.989347E+03 -1.534421E+05 -1.390204E+04 -4.679472E+03
        69   8 -4.146257E+05 -4.443042E+04  2.656137E+03 -1.605012E+05 -9.558765E+03 -2.101939E+03
        69   9 -4.210475E+05 -5.511928E+04  4.042858E+03 -1.688617E+05 -4.764392E+03 -7.274491E+02
        69  10 -5.113144E+05 -1.066671E+05 -3.701744E+04 -1.889505E+05  1.544453E-09 -1.726884E-10
        69  11 -5.025163E+05 -7.966464E+04 -2.127286E+04 -1.866716E+05  2.108104E-09 -9.310898E-10
        69  12 -4.965198E+05 -7.992026E+04 -1.551573E+04 -1.856936E+05 -5.236137E-10 -4.542478E-11
        69  13 -4.610697E+05 -8.374180E+04 -2.250344E+04 -1.711970E+05 -2.195227E-09 -3.932146E-10
        69  14 -4.585720E+05 -6.204763E+04 -9.308354E+03 -1.735868E+05  3.536014E-09 -5.414628E-10
        69  15 -4.587844E+05 -6.751979E+04 -5.736409E+03 -1.772779E+05  5.045727E-09  4.113855E-10
        69  16 -4.108227E+05 -6.081606E+04 -7.989751E+03 -1.534422E+05  8.674162E-10 -4.468214E-10
        69  17 -4.146258E+05 -4.443045E+04  2.655956E+03 -1.605012E+05  3.042625E-09 -2.585283E-10
        69  18 -4.210475E+05 -5.511929E+04  4.042815E+03 -1.688617E+05  3.391807E-09  5.131898E-10
        69  19 -5.113142E+05 -1.066670E+05 -3.701697E+04 -1.889504E+05  1.499485E+04  5.089016E+03
        69  20 -5.025162E+05 -7.966461E+04 -2.127267E+04 -1.866716E+05  9.733814E+03  2.167515E+03
        69  21 -4.965198E+05 -7.992026E+04 -1.551570E+04 -1.856936E+05  4.021538E+03  4.489839E+02
        69  22 -4.610695E+05 -8.374171E+04 -2.250300E+04 -1.711969E+05  1.444847E+04  4.884257E+03
        69  23 -4.585719E+05 -6.204760E+04 -9.308171E+03 -1.735868E+05  9.646293E+03  2.134728E+03
        69  24 -4.587844E+05 -6.751978E+04 -5.736372E+03 -1.772779E+05  4.392952E+03  5.882131E+02
        69  25 -4.108225E+05 -6.081598E+04 -7.989347E+03 -1.534421E+05  1.390204E+04  4.679472E+03
        69  26 -4.146257E+05 -4.443042E+04  2.656137E+03 -1.605012E+05  9.558765E+03  2.101939E+03
        69  27 -4.210475E+05 -5.511928E+04  4.042858E+03 -1.688617E+05  4.764392E+03  7.274491E+02
        70   1 -4.780464E+05 -7.799467E+04 -1.014967E+04 -1.818229E+05 -3.353171E+03 -6.274929E+02
        70   2 -4.721532E+05 -6.924168E+04 -5.405999E+03 -1.764940E+05 -2.061273E+03 -3.981248E+02
        70   3 -4.613932E+05 -6.915400E+04 -2.283810E+03 -1.774058E+05 -7.240395E+02 -2.896576E+02
        70   4 -4.580269E+05 -7.000511E+04 -4.695473E+03 -1.759017E+05 -3.415488E+03 -6.508580E+02
        70   5 -4.603240E+05 -6.467715E+04 -2.215123E+03 -1.731561E+05 -2.169708E+03 -4.387736E+02
        70   6 -4.577452E+05 -6.800530E+04 -1.319658E+03 -1.766511E+05 -8.786126E+02 -3.475974E+02
        70   7 -4.380071E+05 -6.201553E+04  7.586810E+02 -1.699804E+05 -3.477806E+03 -6.742239E+02
        70   8 -4.484946E+05 -6.011262E+04  9.757324E+02 -1.698181E+05 -2.278145E+03 -4.794233E+02
        70   9 -4.540972E+05 -6.685660E+04 -3.555107E+02 -1.758964E+05 -1.033186E+03 -4.055371E+02
        70  10 -4.780464E+05 -7.799467E+04 -1.014969E+04 -1.818229E+05  2.051676E-09  7.681799E-10
        70  11 -4.721532E+05 -6.924169E+04 -5.406007E+03 -1.764940E+05  2.758261E-10  4.127847E-10
        70  12 -4.613932E+05 -6.915400E+04 -2.283811E+03 -1.774058E+05  2.145753E-10 -1.531188E-10
        70  13 -4.580269E+05 -7.000512E+04 -4.695495E+03 -1.759017E+05  1.898393E-09  6.653321E-10
        70  14 -4.603240E+05 -6.467715E+04 -2.215132E+03 -1.731561E+05  3.354940E-09  5.327578E-10
        70  15 -4.577452E+05 -6.800530E+04 -1.319659E+03 -1.766511E+05  1.506609E-09 -3.204005E-10
        70  16 -4.380071E+05 -6.201553E+04  7.586574E+02 -1.699804E+05  7.969588E-10  7.607938E-10
        70  17 -4.484946E+05 -6.011262E+04  9.757222E+02 -1.698181E+05 -1.450928E-09 -4.491961E-11
        70  18 -4.540972E+05 -6.685660E+04 -3.555130E+02 -1.758964E+05 -2.220494E-10 -3.477038E-10
        70  19 -4.780464E+05 -7.799467E+04 -1.014967E+04 -1.818229E+05  3.353171E+03  6.274929E+02
        70  20 -4.721532E+05 -6.924168E+04 -5.405999E+03 -1.764940E+05  2.061273E+03  3.981248E+02
        70  21 -4.613932E+05 -6.915400E+04 -2.283810E+03 -1.774058E+05  7.240395E+02  2.896576E+02
        70  22 -4.580269E+05 -7.000511E+04 -4.695473E+03 -1.759017E+05  3.415488E+03  6.508580E+02
        70  23 -4.603240E+05 -6.467715E+04 -2.215123E+03 -1.731561E+05  2.169708E+03  4.387736E+02
        70  24 -4.577452E+05 -6.800530E+04 -1.319658E+03 -1.766511E+05  8.786126E+02  3.475974E+02
        70  25 -4.380071E+05 -6.201553E+04  7.586810E+02 -1.699804E+05  3.477806E+03  6.742239E+02
        70  26 -4.484946E+05 -6.011262E+04  9.757324E+02 -1.698181E+05  2.278145E+03  4.794233E+02
        70  27 -4.540972E+05 -6.685660E+04 -3.555107E+02 -1.758964E+05  1.033186E+03  4.055371E+02
        71   1 -4.449214E+05 -6.356095E+04  2.373290E+03 -1.730656E+05 -4.797329E+02 -4.453625E+02
        71   2 -4.394372E+05 -5.708176E+04  5.061532E+03 -1.673806E+05 -4.817094E+01 -6.590203E+02
        71   3 -4.281126E+05 -5.694403E+04  7.429743E+03 -1.685034E+05  3.872077E+02 -8.827899E+02
        71   4 -4.576447E+05 -6.830122E+04 -1.057626E+03 -1.764733E+05 -6.034635E+02 -4.917424E+02
        71   5 -4.605486E+05 -6.501205E+04 -5.964113E+02 -1.731140E+05 -1.757698E+02 -7.068554E+02
        71   6 -4.576112E+05 -6.806358E+04 -4.521162E+02 -1.765624E+05  2.557356E+02 -9.320818E+02
        71   7 -4.703679E+05 -7.304151E+04 -4.488573E+03 -1.798810E+05 -7.271918E+02 -5.381215E+02
        71   8 -4.816597E+05 -7.294235E+04 -6.254415E+03 -1.788472E+05 -3.033644E+02 -7.546889E+02
        71   9 -4.871090E+05 -7.918310E+04 -8.334074E+03 -1.846210E+05  1.242701E+02 -9.813712E+02
        71  10 -4.449214E+05 -6.356095E+04  2.373290E+03 -1.730656E+05 -6.103470E-10 -8.101737E-10
        71  11 -4.394372E+05 -5.708176E+04  5.061531E+03 -1.673806E+05  2.776353E-09 -4.637574E-11
        71  12 -4.281126E+05 -5.694403E+04  7.429741E+03 -1.685034E+05 -2.629982E-09 -4.571026E-10
        71  13 -4.576447E+05 -6.830122E+04 -1.057627E+03 -1.764733E+05  3.391030E-09 -4.505244E-10
        71  14 -4.605486E+05 -6.501206E+04 -5.964123E+02 -1.731140E+05 -2.125094E-09 -3.695228E-10
        71  15 -4.576112E+05 -6.806358E+04 -4.521180E+02 -1.765624E+05  1.060829E-09 -4.400677E-10
        71  16 -4.703679E+05 -7.304151E+04 -4.488574E+03 -1.798810E+05 -9.473997E-10 -2.906909E-10
        71  17 -4.816597E+05 -7.294235E+04 -6.254417E+03 -1.788472E+05 -3.071744E-09 -7.062109E-12
        71  18 -4.871090E+05 -7.918310E+04 -8.334076E+03 -1.846210E+05  1.325871E-09 -4.390980E-10
        71  19 -4.449214E+05 -6.356095E+04  2.373290E+03 -1.730656E+05  4.797329E+02  4.453625E+02
        71  20 -4.394372E+05 -5.708176E+04  5.061532E+03 -1.673806E+05  4.817094E+01  6.590203E+02
        71  21 -4.281126E+05 -5.694403E+04  7.429743E+03 -1.685034E+05 -3.872077E+02  8.827899E+02
        71  22 -4.576447E+05 -6.830122E+04 -1.057626E+03 -1.764733E+05  6.034635E+02  4.917424E+02
        71  23 -4.605486E+05 -6.501205E+04 -5.964113E+02 -1.731140E+05  1.757698E+02  7.068554E+02
        71  24 -4.576112E+05 -6.806358E+04 -4.521162E+02 -1.765624E+05 -2.557356E+02  9.320818E+02
        71  25 -4.703679E+05 -7.304151E+04 -4.488573E+03 -1.798810E+05  7.271918E+02  5.381215E+02
        71  26 -4.816597E+05 -7.294235E+04 -6.254415E+03 -1.788472E+05  3.033644E+02  7.546889E+02
        71  27 -4.871090E+05 -7.918310E+04 -8.334074E+03 -1.846210E+05 -1.242701E+02  9.813712E+02
        72   1 -4.120854E+05 -5.095000E+04  1.179908E+04 -1.641460E+05  5.324900E+02 -1.055136E+03
        72   2 -4.067268E+05 -4.482562E+04  1.392052E+04 -1.584935E+05  9.121895E+02 -1.295512E+03
        72   3 -3.955216E+05 -4.472935E+04  1.582454E+04 -1.596007E+05  1.290789E+03 -1.532781E+03
        72   4 -4.576216E+05 -6.807230E+04 -4.385729E+02 -1.765226E+05  4.037844E+02 -1.103397E+03
        72   5 -4.605463E+05 -6.506980E+04 -5.077464E+02 -1.731384E+05  7.846420E+02 -1.343348E+03
        72   6 -4.576250E+05 -6.809566E+04 -7.952843E+02 -1.765139E+05  1.164397E+03 -1.580195E+03
        72   7 -5.031556E+05 -8.519442E+04 -1.267636E+04 -1.888984E+05  2.750897E+02 -1.151653E+03
        72   8 -5.143631E+05 -8.531378E+04 -1.493624E+04 -1.877822E+05  6.571069E+02 -1.391180E+03
        72   9 -5.197248E+05 -9.146178E+04 -1.741547E+04 -1.934256E+05  1.038019E+03 -1.627604E+03
        72  10 -4.120854E+05 -5.095000E+04  1.179908E+04 -1.641460E+05 -8.952633E-11 -5.711642E-10
        72  11 -4.067268E+05 -4.482562E+04  1.392051E+04 -1.584935E+05  1.862998E-09  5.212519E-12
        72  12 -3.955216E+05 -4.472936E+04  1.582454E+04 -1.596007E+05  7.684388E-11  5.899045E-10
        72  13 -4.576216E+05 -6.807231E+04 -4.385755E+02 -1.765226E+05  2.003904E-10 -4.720866E-10
        72  14 -4.605463E+05 -6.506980E+04 -5.077509E+02 -1.731384E+05 -7.601091E-10  2.023975E-10
        72  15 -4.576250E+05 -6.809566E+04 -7.952915E+02 -1.765139E+05 -2.326933E-09  3.780408E-10
        72  16 -5.031556E+05 -8.519442E+04 -1.267636E+04 -1.888984E+05  4.066174E-10 -3.636029E-10
        72  17 -5.143631E+05 -8.531378E+04 -1.493625E+04 -1.877822E+05 -6.783140E-10 -2.313044E-10
        72  18 -5.197248E+05 -9.146178E+04 -1.741548E+04 -1.934256E+05  2.114776E-10  2.713565E-10
        72  19 -4.120854E+05 -5.095000E+04  1.179908E+04 -1.641460E+05 -5.324900E+02  1.055136E+03
        72  20 -4.067268E+05 -4.482562E+04  1.392052E+04 -1.584935E+05 -9.121895E+02  1.295512E+03
        72  21 -3.955216E+05 -4.472935E+04  1.582454E+04 -1.596007E+05 -1.290789E+03  1.532781E+03
        72  22 -4.576216E+05 -6.807230E+04 -4.385729E+02 -1.765226E+05 -4.037844E+02  1.103397E+03
        72  23 -4.605463E+05 -6.506980E+04 -5.077464E+02 -1.731384E+05 -7.846420E+02  1.343348E+03
        72  24 -4.576250E+05 -6.809566E+04 -7.952843E+02 -1.765139E+05 -1.164397E+03  1.580195E+03
        72  25 -5.031556E+05 -8.519442E+04 -1.267636E+04 -1.888984E+05 -2.750897E+02  1.151653E+03
        72  26 -5.143631E+05 -8.531378E+04 -1.493624E+04 -1.877822E+05 -6.571069E+02  1.391180E+03
        72  27 -5.197248E+05 -9.146178E+04 -1.741547E+04 -1.934256E+05 -1.038019E+03  1.627604E+03
        73   1 -3.798740E+05 -3.877543E+04  1.987368E+04 -1.553886E+05  1.513634E+03 -1.670048E+03
        73   2 -3.746084E+05 -3.274048E+04  2.126660E+04 -1.498217E+05  2.515335E+03 -1.668978E+03
        73   3 -3.639123E+05 -3.305683E+04  2.184882E+04 -1.507223E+05  3.513392E+03 -1.657918E+03
        73   4 -4.576951E+05 -6.800301E+04 -1.010913E+03 -1.765111E+05  1.386272E+03 -1.717836E+03
        73   5 -4.604406E+05 -6.504355E+04 -1.746673E+03 -1.731961E+05  2.391659E+03 -1.715401E+03
        73   6 -4.577564E+05 -6.843618E+04 -3.296134E+03 -1.763487E+05  3.393391E+03 -1.702979E+03
        73   7 -5.355102E+05 -9.723019E+04 -2.189599E+04 -1.976311E+05  1.258928E+03 -1.765618E+03
        73   8 -5.462657E+05 -9.734618E+04 -2.476059E+04 -1.965676E+05  2.268003E+03 -1.761816E+03
        73   9 -5.515923E+05 -1.038151E+05 -2.844192E+04 -2.019717E+05  3.273411E+03 -1.748032E+03
        73  10 -3.798740E+05 -3.877543E+04  1.987367E+04 -1.553886E+05 -2.000763E-09  9.348455E-10
        73  11 -3.746084E+05 -3.274048E+04  2.126658E+04 -1.498217E+05 -1.878400E-09  1.169561E-09
        73  12 -3.639123E+05 -3.305684E+04  2.184879E+04 -1.507223E+05 -4.822886E-11  3.293321E-10
        73  13 -4.576951E+05 -6.800302E+04 -1.010922E+03 -1.765111E+05 -3.736905E-09  7.694980E-10
        73  14 -4.604406E+05 -6.504355E+04 -1.746689E+03 -1.731961E+05 -2.306101E-09  7.783684E-10
        73  15 -4.577564E+05 -6.843619E+04 -3.296161E+03 -1.763487E+05  2.637642E-09 -6.178252E-11
        73  16 -5.355102E+05 -9.723019E+04 -2.189600E+04 -1.976311E+05 -1.282333E-09  6.523595E-10
        73  17 -5.462657E+05 -9.734619E+04 -2.476061E+04 -1.965676E+05 -1.735978E-09  6.550550E-10
        73  18 -5.515923E+05 -1.038151E+05 -2.844195E+04 -2.019717E+05  7.461394E-10 -3.039642E-10
        73  19 -3.798740E+05 -3.877543E+04  1.987368E+04 -1.553886E+05 -1.513634E+03  1.670048E+03
        73  20 -3.746084E+05 -3.274048E+04  2.126660E+04 -1.498217E+05 -2.515335E+03  1.668978E+03
        73  21 -3.639123E+05 -3.305683E+04  2.184882E+04 -1.507223E+05 -3.513392E+03  1.657918E+03
        73  22 -4.576951E+05 -6.800301E+04 -1.010913E+03 -1.765111E+05 -1.386272E+03  1.717836E+03
        73  23 -4.604406E+05 -6.504355E+04 -1.746673E+03 -1.731961E+05 -2.391659E+03  1.715401E+03
        73  24 -4.577564E+05 -6.843618E+04 -3.296134E+03 -1.763487E+05 -3.393391E+03  1.702979E+03
        73  25 -5.355102E+05 -9.723019E+04 -2.189599E+04 -1.976311E+05 -1.258928E+03  1.765618E+03
        73  26 -5.462657E+05 -9.734618E+04 -2.476059E+04 -1.965676E+05 -2.268003E+03  1.761816E+03
        73  27 -5.515923E+05 -1.038151E+05 -2.844192E+04 -2.019717E+05 -3.273411E+03  1.748032E+03
        74   1 -3.487085E+05 -2.714035E+04  2.498010E+04 -1.472894E+05  4.218118E+03 -1.611877E+03
        74   2 -3.432955E+05 -2.044454E+04  2.377676E+04 -1.414194E+05  8.169759E+03 -4.896310E+02
        74   3 -3.346454E+05 -2.409175E+04  1.841850E+04 -1.407391E+05  1.210430E+04  6.784860E+02
        74   4 -4.580388E+05 -6.785869E+04 -4.279228E+03 -1.766152E+05  4.088198E+03 -1.660672E+03
        74   5 -4.599112E+05 -6.449243E+04 -7.520000E+03 -1.733421E+05  8.056644E+03 -5.321457E+02
        74   6 -4.585503E+05 -7.147323E+04 -1.492961E+04 -1.752588E+05  1.200793E+04  6.422273E+02
        74   7 -5.673576E+05 -1.085764E+05 -3.353960E+04 -2.059363E+05  3.958303E+03 -1.709459E+03
        74   8 -5.765138E+05 -1.085395E+05 -3.881793E+04 -2.052594E+05  7.943552E+03 -5.746516E+02
        74   9 -5.824401E+05 -1.188536E+05 -4.827901E+04 -2.097722E+05  1.191159E+04  6.059768E+02
        74  10 -3.487085E+05 -2.714036E+04  2.498006E+04 -1.472894E+05 -5.047514E-10  2.311028E-10
        74  11 -3.432955E+05 -2.044456E+04  2.377664E+04 -1.414194E+05  1.752437E-09  1.426708E-09
        74  12 -3.346455E+05 -2.409179E+04  1.841822E+04 -1.407391E+05  3.292325E-09  8.655295E-10
        74  13 -4.580388E+05 -6.785870E+04 -4.279265E+03 -1.766152E+05  3.044564E-09  4.603720E-10
        74  14 -4.599113E+05 -6.449245E+04 -7.520122E+03 -1.733421E+05  1.392356E-09  2.067066E-09
        74  15 -4.585504E+05 -7.147327E+04 -1.492989E+04 -1.752588E+05  5.828221E-10  1.363498E-10
        74  16 -5.673576E+05 -1.085764E+05 -3.353964E+04 -2.059363E+05  1.619124E-09  8.387281E-10
        74  17 -5.765138E+05 -1.085395E+05 -3.881805E+04 -2.052593E+05  4.627225E-10  9.029442E-10
        74  18 -5.824403E+05 -1.188536E+05 -4.827928E+04 -2.097722E+05 -8.235563E-10 -4.680917E-11
        74  19 -3.487085E+05 -2.714035E+04  2.498010E+04 -1.472894E+05 -4.218118E+03  1.611877E+03
        74  20 -3.432955E+05 -2.044454E+04  2.377676E+04 -1.414194E+05 -8.169759E+03  4.896310E+02
        74  21 -3.346454E+05 -2.409175E+04  1.841850E+04 -1.407391E+05 -1.210430E+04 -6.784860E+02
        74  22 -4.580388E+05 -6.785869E+04 -4.279228E+03 -1.766152E+05 -4.088198E+03  1.660672E+03
        74  23 -4.599112E+05 -6.449243E+04 -7.520000E+03 -1.733421E+05 -8.056644E+03  5.321457E+02
        74  24 -4.585503E+05 -7.147323E+04 -1.492961E+04 -1.752588E+05 -1.200793E+04 -6.422273E+02
        74  25 -5.673576E+05 -1.085764E+05 -3.353960E+04 -2.059363E+05 -3.958303E+03  1.709459E+03
        74  26 -5.765138E+05 -1.085395E+05 -3.881793E+04 -2.052594E+05 -7.943552E+03  5.746516E+02
        74  27 -5.824401E+05 -1.188536E+05 -4.827901E+04 -2.097722E+05 -1.191159E+04 -6.059768E+02
        75   1 -3.188753E+05 -1.716546E+04  1.826328E+04 -1.427604E+05  1.504984E+04  1.521318E+03
        75   2 -3.116093E+05 -3.393770E+03  6.679308E+03 -1.328664E+05  3.206691E+04  7.564504E+03
        75   3 -3.159322E+05 -3.380860E+04 -2.811430E+04 -1.191835E+05  4.894101E+04  1.398948E+04
        75   4 -4.601536E+05 -6.698113E+04 -1.898474E+04 -1.777795E+05  1.485798E+04  1.449284E+03
        75   5 -4.564368E+05 -5.965746E+04 -3.248452E+04 -1.741185E+05  3.201682E+04  7.545501E+03
        75   6 -4.643408E+05 -9.655466E+04 -6.931063E+04 -1.666683E+05  4.903255E+04  1.402315E+04
        75   7 -6.014130E+05 -1.167963E+05 -5.623455E+04 -2.127917E+05  1.466616E+04  1.377264E+03
        75   8 -6.012442E+05 -1.159196E+05 -7.165028E+04 -2.153620E+05  3.196674E+04  7.526503E+03
        75   9 -6.127282E+05 -1.592978E+05 -1.105090E+05 -2.141422E+05  4.912407E+04  1.405682E+04
        75  10 -3.188756E+05 -1.716552E+04  1.826285E+04 -1.427604E+05  4.710338E-10 -1.353998E-09
        75  11 -3.116104E+05 -3.394108E+03  6.677267E+03 -1.328666E+05  1.142196E-09 -9.813636E-10
        75  12 -3.159348E+05 -3.380945E+04 -2.811918E+04 -1.191841E+05  4.372999E-09  3.405538E-09
        75  13 -4.601538E+05 -6.698119E+04 -1.898516E+04 -1.777795E+05  3.884159E-09 -2.039497E-09
        75  14 -4.564379E+05 -5.965780E+04 -3.248656E+04 -1.741187E+05  4.872710E-09 -1.449821E-09
        75  15 -4.643435E+05 -9.655552E+04 -6.931552E+04 -1.666688E+05  8.870415E-10  2.975600E-09
        75  16 -6.014132E+05 -1.167964E+05 -5.623496E+04 -2.127917E+05 -3.802604E-10 -9.499163E-10
        75  17 -6.012453E+05 -1.159200E+05 -7.165231E+04 -2.153621E+05  1.683477E-09 -1.266066E-09
        75  18 -6.127308E+05 -1.592987E+05 -1.105139E+05 -2.141428E+05  4.942401E-10  1.120404E-09
        75  19 -3.188753E+05 -1.716546E+04  1.826328E+04 -1.427604E+05 -1.504984E+04 -1.521318E+03
        75  20 -3.116093E+05 -3.393770E+03  6.679308E+03 -1.328664E+05 -3.206691E+04 -7.564504E+03
        75  21 -3.159322E+05 -3.380860E+04 -2.811430E+04 -1.191835E+05 -4.894101E+04 -1.398948E+04
        75  22 -4.601536E+05 -6.698113E+04 -1.898474E+04 -1.777795E+05 -1.485798E+04 -1.449284E+03
        75  23 -4.564368E+05 -5.965746E+04 -3.248452E+04 -1.741185E+05 -3.201682E+04 -7.545501E+03
        75  24 -4.643408E+05 -9.655466E+04 -6.931063E+04 -1.666683E+05 -4.903255E+04 -1.402315E+04
        75  25 -6.014130E+05 -1.167963E+05 -5.623455E+04 -2.127917E+05 -1.466616E+04 -1.377264E+03
        75  26 -6.012442E+05 -1.159196E+05 -7.165028E+04 -2.153620E+05 -3.196674E+04 -7.526503E+03
        75  27 -6.127282E+05 -1.592978E+05 -1.105090E+05 -2.141422E+05 -4.912407E+04 -1.405682E+04
        76   1 -2.891572E+05 -1.650766E+04 -4.004325E+04 -1.638743E+05  6.250178E+04  1.827628E+04
        76   2 -2.690122E+05  5.659428E+04 -9.119783E+04 -1.194748E+05  1.368643E+05  4.583317E+04
        76   3 -3.718399E+05 -1.887441E+05 -2.835619E+05  1.016538E+03  2.098324E+05  7.710444E+04
        76   4 -4.753388E+05 -6.001050E+04 -8.475397E+04 -1.872886E+05  6.164387E+04  1.795691E+04
        76   5 -4.306948E+05 -2.051944E+04 -1.376271E+05 -1.802363E+05  1.374025E+05  4.603110E+04
        76   6 -5.093390E+05 -2.998039E+05 -3.328460E+05 -9.708099E+04  2.117695E+05  7.780836E+04
        76   7 -6.614857E+05 -1.035144E+05 -1.294667E+05 -2.106990E+05  6.078625E+04  1.763754E+04
        76   8 -5.923508E+05 -9.762635E+04 -1.840586E+05 -2.409818E+05  1.379406E+05  4.622893E+04
        76   9 -6.468100E+05 -4.108323E+05 -3.821304E+05 -1.951517E+05  2.137062E+05  7.851162E+04
        76  10 -2.891614E+05 -1.650906E+04 -4.005122E+04 -1.638752E+05  3.522750E-09  1.600166E-09
        76  11 -2.690329E+05  5.658699E+04 -9.123700E+04 -1.194798E+05 -4.788714E-10 -2.532796E-09
        76  12 -3.718888E+05 -1.887623E+05 -2.836559E+05  1.003501E+03 -2.351597E-10 -2.088598E-09
        76  13 -4.753429E+05 -6.001187E+04 -8.476172E+04 -1.872895E+05 -5.469460E-10  1.132064E-09
        76  14 -4.307156E+05 -2.052679E+04 -1.376666E+05 -1.802414E+05 -1.703192E-09  4.804448E-09
        76  15 -5.093888E+05 -2.998225E+05 -3.329417E+05 -9.709427E+04  7.273187E-10  7.946076E-10
        76  16 -6.614898E+05 -1.035157E+05 -1.294742E+05 -2.106998E+05  9.635470E-10  1.378850E-09
        76  17 -5.923718E+05 -9.763377E+04 -1.840984E+05 -2.409870E+05  4.780278E-10  2.348828E-09
        76  18 -6.468607E+05 -4.108512E+05 -3.822280E+05 -1.951652E+05  4.858097E-10 -1.040648E-10
        76  19 -2.891572E+05 -1.650766E+04 -4.004325E+04 -1.638743E+05 -6.250178E+04 -1.827628E+04
        76  20 -2.690122E+05  5.659428E+04 -9.119783E+04 -1.194748E+05 -1.368643E+05 -4.583317E+04
        76  21 -3.718399E+05 -1.887441E+05 -2.835619E+05  1.016538E+03 -2.098324E+05 -7.710444E+04
        76  22 -4.753388E+05 -6.001050E+04 -8.475397E+04 -1.872886E+05 -6.164387E+04 -1.795691E+04
        76  23 -4.306948E+05 -2.051944E+04 -1.376271E+05 -1.802363E+05 -1.374025E+05 -4.603110E+04
        76  24 -5.093390E+05 -2.998039E+05 -3.328460E+05 -9.708099E+04 -2.117695E+05 -7.780836E+04
        76  25 -6.614857E+05 -1.035144E+05 -1.294667E+05 -2.106990E+05 -6.078625E+04 -1.763754E+04
        76  26 -5.923508E+05 -9.762635E+04 -1.840586E+05 -2.409818E+05 -1.379406E+05 -4.622893E+04
        76  27 -6.468100E+05 -4.108323E+05 -3.821304E+05 -1.951517E+05 -2.137062E+05 -7.851162E+04
        77   1  3.004470E+05  2.402489E+06  2.875646E+05 -4.057228E+04  1.569268E+04  1.284380E+05
        77   2  2.591383E+05  2.381732E+06  2.130163E+05 -2.764285E+04  5.455882E+04  7.088027E+04
        77   3  2.447089E+05  2.375241E+06  1.825914E+05 -1.552341E+04  7.004176E+04  1.333030E+04
        77   4  3.746993E+04  1.332015E+06  4.086339E+04 -1.566588E+04  1.570699E+04  2.741902E+04
        77   5  1.065194E+04  1.328936E+06  2.115291E+04 -1.526883E+04  5.458084E+04  1.660348E+04
        77   6  2.639376E+03  1.332044E+06  1.319606E+04 -1.567894E+04  7.005564E+04  5.791917E+03
        77   7 -2.255793E+05  2.626196E+05 -2.058753E+05  9.197421E+03  1.571324E+04 -7.342772E+04
        77   8 -2.378946E+05  2.772202E+05 -1.707440E+05 -2.916225E+03  5.460073E+04 -3.758406E+04
        77   9 -2.394853E+05  2.899227E+05 -1.562294E+05 -1.583409E+04  7.006955E+04 -1.734286E+03
        77  10  3.004423E+05  2.402472E+06  2.875332E+05 -4.057390E+04 -6.622536E-10  1.823927E-09
        77  11  2.591337E+05  2.381726E+06  2.130013E+05 -2.764596E+04  5.714492E-10 -1.165448E-09
        77  12  2.447036E+05  2.375239E+06  1.825818E+05 -1.552416E+04 -1.607268E-09 -3.431866E-09
        77  13  3.746946E+04  1.332014E+06  4.086152E+04 -1.566622E+04  2.332113E-10  5.445181E-11
        77  14  1.064867E+04  1.328935E+06  2.114679E+04 -1.526956E+04  1.869063E-09 -4.254340E-10
        77  15  2.634094E+03  1.332043E+06  1.318677E+04 -1.567926E+04 -1.617859E-09  4.149705E-10
        77  16 -2.255810E+05  2.626137E+05 -2.058859E+05  9.198350E+03  3.546554E-10 -1.940571E-09
        77  17 -2.378982E+05  2.772178E+05 -1.707523E+05 -2.914572E+03 -1.061074E-09  5.802713E-10
        77  18 -2.394906E+05  2.899213E+05 -1.562387E+05 -1.583399E+04 -1.781304E-09  3.218932E-09
        77  19  3.004470E+05  2.402489E+06  2.875646E+05 -4.057228E+04 -1.569268E+04 -1.284380E+05
        77  20  2.591383E+05  2.381732E+06  2.130163E+05 -2.764285E+04 -5.455882E+04 -7.088027E+04
        77  21  2.447089E+05  2.375241E+06  1.825914E+05 -1.552341E+04 -7.004176E+04 -1.333030E+04
        77  22  3.746993E+04  1.332015E+06  4.086339E+04 -1.566588E+04 -1.570699E+04 -2.741902E+04
        77  23  1.065194E+04  1.328936E+06  2.115291E+04 -1.526883E+04 -5.458084E+04 -1.660348E+04
        77  24  2.639376E+03  1.332044E+06  1.319606E+04 -1.567894E+04 -7.005564E+04 -5.791917E+03
        77  25 -2.255793E+05  2.626196E+05 -2.058753E+05  9.197421E+03 -1.571324E+04  7.342772E+04
        77  26 -2.378946E+05  2.772202E+05 -1.707440E+05 -2.916225E+03 -5.460073E+04  3.758406E+04
        77  27 -2.394853E+05  2.899227E+05 -1.562294E+05 -1.583409E+04 -7.006955E+04  1.734286E+03
        78   1  2.415509E+05  2.364581E+06  1.763383E+05 -1.790242E+04  7.156333E+04  1.221888E+04
        78   2  2.364532E+05  2.349990E+06  1.694204E+05 -1.518406E+04  7.328710E+04 -2.555567E+03
        78   3  2.360614E+05  2.338567E+06  1.732941E+05 -1.495627E+04  7.013970E+04 -1.733324E+04
        78   4  2.271603E+03  1.331001E+06  1.131420E+04 -1.605298E+04  7.157858E+04  3.919340E+03
        78   5  1.074614E+03  1.330263E+06  1.007609E+04 -1.480778E+04  7.329758E+04 -1.112842E+03
        78   6  2.900141E+03  1.331009E+06  1.288637E+04 -1.605339E+04  7.014140E+04 -6.148531E+03
        78   7 -2.370610E+05  2.984798E+05 -1.537376E+05 -1.420659E+04  7.159380E+04 -4.366929E+03
        78   8 -2.343549E+05  3.115692E+05 -1.492931E+05 -1.443198E+04  7.330807E+04  3.276103E+02
        78   9 -2.303116E+05  3.244577E+05 -1.475472E+05 -1.714847E+04  7.014308E+04  5.018742E+03
        78  10  2.415454E+05  2.364579E+06  1.763284E+05 -1.790312E+04 -4.845633E-09 -1.588316E-10
        78  11  2.364474E+05  2.349988E+06  1.694102E+05 -1.518391E+04  9.896392E-10 -1.435969E-09
        78  12  2.360560E+05  2.338565E+06  1.732843E+05 -1.495529E+04 -1.165795E-09 -6.148913E-11
        78  13  2.266094E+03  1.331000E+06  1.130454E+04 -1.605321E+04 -4.026530E-09  4.630796E-10
        78  14  1.068841E+03  1.330261E+06  1.006598E+04 -1.480772E+04 -9.649236E-10 -1.333161E-09
        78  15  2.894844E+03  1.331008E+06  1.287705E+04 -1.605304E+04 -1.339346E-09  1.185598E-09
        78  16 -2.370665E+05  2.984784E+05 -1.537473E+05 -1.420634E+04 -1.160032E-09 -6.425058E-10
        78  17 -2.343607E+05  3.115678E+05 -1.493032E+05 -1.443200E+04 -3.503224E-09 -2.367889E-10
        78  18 -2.303169E+05  3.244563E+05 -1.475565E+05 -1.714875E+04  9.300286E-10 -3.822992E-10
        78  19  2.415509E+05  2.364581E+06  1.763383E+05 -1.790242E+04 -7.156333E+04 -1.221888E+04
        78  20  2.364532E+05  2.349990E+06  1.694204E+05 -1.518406E+04 -7.328710E+04  2.555567E+03
        78  21  2.360614E+05  2.338567E+06  1.732941E+05 -1.495627E+04 -7.013970E+04  1.733324E+04
        78  22  2.271603E+03  1.331001E+06  1.131420E+04 -1.605298E+04 -7.157858E+04 -3.919340E+03
        78  23  1.074614E+03  1.330263E+06  1.007609E+04 -1.480778E+04 -7.329758E+04  1.112842E+03
        78  24  2.900141E+03  1.331009E+06  1.288637E+04 -1.605339E+04 -7.014140E+04  6.148531E+03
        78  25 -2.370610E+05  2.984798E+05 -1.537376E+05 -1.420659E+04 -7.159380E+04  4.366929E+03
        78  26 -2.343549E+05  3.115692E+05 -1.492931E+05 -1.443198E+04 -7.330807E+04 -3.276103E+02
        78  27 -2.303116E+05  3.244577E+05 -1.475472E+05 -1.714847E+04 -7.014308E+04 -5.018742E+03
        79   1  2.354457E+05  2.332986E+06  1.775469E+05 -1.772689E+04  6.767869E+04 -1.879214E+04
        79   2  2.457665E+05  2.313055E+06  2.048135E+05  2.697579E+02  5.189239E+04 -7.467380E+04
        79   3  2.872260E+05  2.308217E+06  2.761713E+05  1.424725E+04  1.491562E+04 -1.305866E+05
        79   4  3.381252E+03  1.332411E+06  1.568404E+04 -1.639844E+04  6.767940E+04 -8.310018E+03
        79   5  1.362787E+04  1.328516E+06  2.639620E+04 -1.436790E+04  5.184602E+04 -2.183862E+04
        79   6  4.770006E+04  1.332393E+06  5.186676E+04 -1.635888E+04  1.480964E+04 -3.539685E+04
        79   7 -2.287338E+05  3.328255E+05 -1.462060E+05 -1.507198E+04  6.768015E+04  2.155864E+03
        79   8 -2.185627E+05  3.449229E+05 -1.520490E+05 -2.898154E+04  5.179712E+04  3.091535E+04
        79   9 -1.918838E+05  3.574675E+05 -1.724662E+05 -4.691642E+04  1.469421E+04  5.964498E+04
        79  10  2.354407E+05  2.332984E+06  1.775376E+05 -1.772587E+04  1.592498E-09 -5.009724E-09
        79  11  2.457621E+05  2.313048E+06  2.047980E+05  2.728753E+02  1.029599E-09 -3.248219E-09
        79  12  2.872212E+05  2.308199E+06  2.761389E+05  1.424882E+04 -2.273995E-09  2.616843E-09
        79  13  3.376312E+03  1.332410E+06  1.567529E+04 -1.639799E+04 -1.392337E-10  8.751331E-10
        79  14  1.362486E+04  1.328515E+06  2.639025E+04 -1.436699E+04  2.143265E-10 -2.205397E-09
        79  15  4.769949E+04  1.332391E+06  5.186400E+04 -1.635845E+04 -1.216698E-09  1.427555E-09
        79  16 -2.287387E+05  3.328243E+05 -1.462146E+05 -1.507210E+04 -5.603838E-10  3.733587E-09
        79  17 -2.185659E+05  3.449211E+05 -1.520558E+05 -2.898283E+04  2.779257E-10  5.226818E-10
        79  18 -1.918850E+05  3.574636E+05 -1.724733E+05 -4.691712E+04 -5.528846E-10 -3.473796E-09
        79  19  2.354457E+05  2.332986E+06  1.775469E+05 -1.772689E+04 -6.767869E+04  1.879214E+04
        79  20  2.457665E+05  2.313055E+06  2.048135E+05  2.697579E+02 -5.189239E+04  7.467380E+04
        79  21  2.872260E+05  2.308217E+06  2.761713E+05  1.424725E+04 -1.491562E+04  1.305866E+05
        79  22  3.381252E+03  1.332411E+06  1.568404E+04 -1.639844E+04 -6.767940E+04  8.310018E+03
        79  23  1.362787E+04  1.328516E+06  2.639620E+04 -1.436790E+04 -5.184602E+04  2.183862E+04
        79  24  4.770006E+04  1.332393E+06  5.186676E+04 -1.635888E+04 -1.480964E+04  3.539685E+04
        79  25 -2.287338E+05  3.328255E+05 -1.462060E+05 -1.507198E+04 -6.768015E+04 -2.155864E+03
        79  26 -2.185627E+05  3.449229E+05 -1.520490E+05 -2.898154E+04 -5.179712E+04 -3.091535E+04
        79  27 -1.918838E+05  3.574675E+05 -1.724662E+05 -4.691642E+04 -1.469421E+04 -5.964498E+04
        80   1 -2.674108E+06 -4.202898E+05 -4.138649E+05 -6.469129E+04 -1.095009E+04  1.484098E+04
        80   2 -2.568571E+06 -4.021854E+05 -3.857353E+05 -1.500646E+04  9.049967E+01  4.417081E+04
        80   3 -2.456679E+06 -3.740475E+05 -3.613042E+05 -6.471125E+04  1.127708E+04  3.955403E+04
        80   4 -9.587927E+05  8.655097E+03  1.191007E+04 -6.118346E+04  7.874903E+03  1.492570E+04
        80   5 -9.631490E+05 -2.342810E+03  4.709966E+03 -1.147488E+04  5.110208E+03  4.418083E+04
        80   6 -9.587574E+05 -9.145883E+02  3.417633E+03 -6.114029E+04  2.489235E+03  3.952808E+04
        80   7  7.592045E+05  4.373791E+05  4.374664E+05 -5.766887E+04  2.675202E+04  1.501051E+04
        80   8  6.446343E+05  3.973097E+05  3.949684E+05 -7.936132E+03  1.014289E+04  4.419089E+04
        80   9  5.412183E+05  3.720528E+05  3.679768E+05 -5.756172E+04 -6.319830E+03  3.950206E+04
        80  10 -2.674108E+06 -4.202901E+05 -4.138655E+05 -6.469116E+04  8.972259E-10 -8.522661E-11
        80  11 -2.568572E+06 -4.021875E+05 -3.857389E+05 -1.500647E+04  1.282553E-09 -1.262054E-10
        80  12 -2.456679E+06 -3.740492E+05 -3.613074E+05 -6.471161E+04 -1.611899E-09  2.958982E-10
        80  13 -9.587928E+05  8.654841E+03  1.190953E+04 -6.118355E+04  2.108487E-09 -1.286284E-10
        80  14 -9.631495E+05 -2.344912E+03  4.706250E+03 -1.147506E+04  3.202557E-09  1.213768E-10
        80  15 -9.587578E+05 -9.162670E+02  3.414686E+03 -6.114037E+04  1.429044E-09 -1.158211E-11
        80  16  7.592037E+05  4.373786E+05  4.374646E+05 -5.766919E+04  1.438591E-09 -3.021293E-10
        80  17  6.446336E+05  3.973076E+05  3.949646E+05 -7.936493E+03 -4.771276E-10 -1.815988E-10
        80  18  5.412178E+05  3.720511E+05  3.679738E+05 -5.756152E+04  3.667297E-10 -4.509236E-10
        80  19 -2.674108E+06 -4.202898E+05 -4.138649E+05 -6.469129E+04  1.095009E+04 -1.484098E+04
        80  20 -2.568571E+06 -4.021854E+05 -3.857353E+05 -1.500646E+04 -9.049967E+01 -4.417081E+04
        80  21 -2.456679E+06 -3.740475E+05 -3.613042E+05 -6.471125E+04 -1.127708E+04 -3.955403E+04
        80  22 -9.587927E+05  8.655097E+03  1.191007E+04 -6.118346E+04 -7.874903E+03 -1.492570E+04
        80  23 -9.631490E+05 -2.342810E+03  4.709966E+03 -1.147488E+04 -5.110208E+03 -4.418083E+04
        80  24 -9.587574E+05 -9.145883E+02  3.417633E+03 -6.114029E+04 -2.489235E+03 -3.952808E+04
        80  25  7.592045E+05  4.373791E+05  4.374664E+05 -5.766887E+04 -2.675202E+04 -1.501051E+04
        80  26  6.446343E+05  3.973097E+05  3.949684E+05 -7.936132E+03 -1.014289E+04 -4.419089E+04
        80  27  5.412183E+05  3.720528E+05  3.679768E+05 -5.756172E+04  6.319830E+03 -3.950206E+04
        81   1 -2.260642E+06 -3.236004E+05 -3.145785E+05 -6.431133E+04  1.740649E+03  3.208534E+04
        81   2 -2.145832E+06 -2.955189E+05 -2.872815E+05 -9.985758E+03  2.459846E+03  3.090742E+04
        81   3 -2.028170E+06 -2.662326E+05 -2.596083E+05 -6.286836E+04  3.171868E+03  2.643437E+04
        81   4 -9.598534E+05  4.983380E+02  2.700403E+03 -6.289142E+04  1.934169E+03  3.208128E+04
        81   5 -9.613777E+05 -5.172372E+02  1.151955E+03 -9.292785E+03  1.311732E+03  3.090266E+04
        81   6 -9.598271E+05 -9.315442E+01  9.136551E+02 -6.288974E+04  6.819864E+02  2.643172E+04
        81   7  3.424831E+05  3.244719E+05  3.198560E+05 -6.146907E+04  2.128092E+03  3.207723E+04
        81   8  2.243608E+05  2.943808E+05  2.894835E+05 -8.598729E+03  1.614252E+02  3.089790E+04
        81   9  1.095605E+05  2.659620E+05  2.613525E+05 -6.291107E+04 -1.812181E+03  2.642908E+04
        81  10 -2.260642E+06 -3.236015E+05 -3.145804E+05 -6.431138E+04 -1.298759E-09  4.880145E-10
        81  11 -2.145832E+06 -2.955199E+05 -2.872833E+05 -9.985819E+03  6.878405E-10  3.926272E-10
        81  12 -2.028171E+06 -2.662334E+05 -2.596096E+05 -6.286843E+04 -1.071734E-09 -9.574937E-10
        81  13 -9.598537E+05  4.972323E+02  2.698463E+03 -6.289147E+04  5.485259E-11  2.394335E-10
        81  14 -9.613779E+05 -5.182626E+02  1.150158E+03 -9.292818E+03 -2.099236E-09  5.197164E-10
        81  15 -9.598272E+05 -9.390442E+01  9.123419E+02 -6.288975E+04 -1.096823E-09 -3.601630E-10
        81  16  3.424828E+05  3.244708E+05  3.198541E+05 -6.146912E+04  3.412217E-09 -1.255741E-10
        81  17  2.243606E+05  2.943798E+05  2.894817E+05 -8.598733E+03 -4.591046E-09  2.656880E-10
        81  18  1.095603E+05  2.659612E+05  2.613512E+05 -6.291103E+04 -1.436080E-10 -4.573303E-10
        81  19 -2.260642E+06 -3.236004E+05 -3.145785E+05 -6.431133E+04 -1.740649E+03 -3.208534E+04
        81  20 -2.145832E+06 -2.955189E+05 -2.872815E+05 -9.985758E+03 -2.459846E+03 -3.090742E+04
        81  21 -2.028170E+06 -2.662326E+05 -2.596083E+05 -6.286836E+04 -3.171868E+03 -2.643437E+04
        81  22 -9.598534E+05  4.983380E+02  2.700403E+03 -6.289142E+04 -1.934169E+03 -3.208128E+04
        81  23 -9.613777E+05 -5.172372E+02  1.151955E+03 -9.292785E+03 -1.311732E+03 -3.090266E+04
        81  24 -9.598271E+05 -9.315442E+01  9.136551E+02 -6.288974E+04 -6.819864E+02 -2.643172E+04
        81  25  3.424831E+05  3.244719E+05  3.198560E+05 -6.146907E+04 -2.128092E+03 -3.207723E+04
        81  26  2.243608E+05  2.943808E+05  2.894835E+05 -8.598729E+03 -1.614252E+02 -3.089790E+04
        81  27  1.095605E+05  2.659620E+05  2.613525E+05 -6.291107E+04  1.812181E+03 -2.642908E+04
        82   1 -1.819851E+06 -2.140790E+05 -2.084120E+05 -6.368933E+04  2.172865E+03  2.335274E+04
        82   2 -1.698587E+06 -1.838751E+05 -1.794206E+05 -7.348739E+03  2.175560E+03  1.911988E+04
        82   3 -1.576573E+06 -1.533344E+05 -1.502125E+05 -6.323165E+04  2.169610E+03  1.451144E+04
        82   4 -9.602207E+05 -7.045411E+01  6.336166E+02 -6.400575E+04  5.265526E+02  2.335152E+04
        82   5 -9.605931E+05 -1.121423E+02  2.783097E+02 -7.897931E+03  3.760264E+02  1.912028E+04
        82   6 -9.601999E+05  2.113409E+02  2.475571E+02 -6.400536E+04  2.168565E+02  1.451370E+04
        82   7 -9.991376E+04  2.138836E+05  2.096257E+05 -6.432248E+04 -1.122038E+03  2.335031E+04
        82   8 -2.221007E+05  1.836106E+05  1.799376E+05 -8.447647E+03 -1.425646E+03  1.912069E+04
        82   9 -3.434794E+05  1.537290E+05  1.506799E+05 -6.477967E+04 -1.737835E+03  1.451598E+04
        82  10 -1.819851E+06 -2.140796E+05 -2.084130E+05 -6.368937E+04 -1.295139E-09 -7.156064E-10
        82  11 -1.698587E+06 -1.838754E+05 -1.794213E+05 -7.348772E+03 -1.226455E-10  3.460852E-10
        82  12 -1.576573E+06 -1.533347E+05 -1.502129E+05 -6.323168E+04 -3.911623E-10  1.718262E-10
        82  13 -9.602208E+05 -7.103947E+01  6.325918E+02 -6.400576E+04 -2.182109E-09 -8.162708E-10
        82  14 -9.605932E+05 -1.125347E+02  2.776227E+02 -7.897937E+03  2.152944E-09 -1.668856E-10
        82  15 -9.601999E+05  2.111148E+02  2.471614E+02 -6.400536E+04  1.084974E-09 -1.776949E-10
        82  16 -9.991391E+04  2.138831E+05  2.096247E+05 -6.432246E+04 -8.634758E-10 -1.198315E-09
        82  17 -2.221008E+05  1.836102E+05  1.799369E+05 -8.447625E+03 -7.764740E-10 -1.164042E-09
        82  18 -3.434794E+05  1.537288E+05  1.506795E+05 -6.477965E+04  1.813214E-09  9.933381E-12
        82  19 -1.819851E+06 -2.140790E+05 -2.084120E+05 -6.368933E+04 -2.172865E+03 -2.335274E+04
        82  20 -1.698587E+06 -1.838751E+05 -1.794206E+05 -7.348739E+03 -2.175560E+03 -1.911988E+04
        82  21 -1.576573E+06 -1.533344E+05 -1.502125E+05 -6.323165E+04 -2.169610E+03 -1.451144E+04
        82  22 -9.602207E+05 -7.045411E+01  6.336166E+02 -6.400575E+04 -5.265526E+02 -2.335152E+04
        82  23 -9.605931E+05 -1.121423E+02  2.783097E+02 -7.897931E+03 -3.760264E+02 -1.912028E+04
        82  24 -9.601999E+05  2.113409E+02  2.475571E+02 -6.400536E+04 -2.168565E+02 -1.451370E+04
        82  25 -9.991376E+04  2.138836E+05  2.096257E+05 -6.432248E+04  1.122038E+03 -2.335031E+04
        82  26 -2.221007E+05  1.836106E+05  1.799376E+05 -8.447647E+03  1.425646E+03 -1.912069E+04
        82  27 -3.434794E+05  1.537290E+05  1.506799E+05 -6.477967E+04  1.737835E+03 -1.451598E+04
        83   1 -1.360737E+06 -9.945437E+04 -9.695713E+04 -6.406145E+04  2.044941E+03  1.176338E+04
        83   2 -1.236061E+06 -6.863748E+04 -6.708425E+04 -6.761053E+03  2.027082E+03  7.135169E+03
        83   3 -1.111712E+06 -3.746033E+04 -3.720322E+04 -6.431605E+04  2.005891E+03  2.452232E+03
        83   4 -9.603786E+05  1.423994E+02  1.381623E+02 -6.459148E+04  1.708666E+02  1.176637E+04
        83   5 -9.602045E+05  3.353952E+01  6.888400E+01 -7.165142E+03  1.305085E+02  7.138795E+03
        83   6 -9.603687E+05  2.895146E+02  2.389096E+01 -6.459100E+04  8.681988E+01  2.456553E+03
        83   7 -5.598736E+05  9.972738E+04  9.722190E+04 -6.512177E+04 -1.704415E+03  1.176936E+04
        83   8 -6.842783E+05  6.869895E+04  6.721651E+04 -7.569376E+03 -1.766907E+03  7.142422E+03
        83   9 -8.090049E+05  3.803766E+04  3.724933E+04 -6.486602E+04 -1.832719E+03  2.460876E+03
        83  10 -1.360737E+06 -9.945452E+04 -9.695740E+04 -6.406147E+04  1.482529E-10  9.018446E-11
        83  11 -1.236061E+06 -6.863754E+04 -6.708435E+04 -6.761065E+03 -1.302217E-09  7.234326E-11
        83  12 -1.111712E+06 -3.746034E+04 -3.720324E+04 -6.431605E+04 -2.562105E-09  4.142837E-10
        83  13 -9.603787E+05  1.422508E+02  1.379022E+02 -6.459148E+04  1.033404E-09  1.732679E-11
        83  14 -9.602046E+05  3.348481E+01  6.878824E+01 -7.165143E+03  1.121331E-09  8.970932E-10
        83  15 -9.603687E+05  2.895081E+02  2.387961E+01 -6.459100E+04 -3.366976E-09  7.670616E-10
        83  16 -5.598736E+05  9.972723E+04  9.722164E+04 -6.512175E+04  9.812323E-10  8.070666E-11
        83  17 -6.842783E+05  6.869889E+04  6.721640E+04 -7.569366E+03  7.871271E-10  5.317501E-10
        83  18 -8.090049E+05  3.803765E+04  3.724931E+04 -6.486601E+04 -7.128811E-10  1.949409E-10
        83  19 -1.360737E+06 -9.945437E+04 -9.695713E+04 -6.406145E+04 -2.044941E+03 -1.176338E+04
        83  20 -1.236061E+06 -6.863748E+04 -6.708425E+04 -6.761053E+03 -2.027082E+03 -7.135169E+03
        83  21 -1.111712E+06 -3.746033E+04 -3.720322E+04 -6.431605E+04 -2.005891E+03 -2.452232E+03
        83  22 -9.603786E+05  1.423994E+02  1.381623E+02 -6.459148E+04 -1.708666E+02 -1.176637E+04
        83  23 -9.602045E+05  3.353952E+01  6.888400E+01 -7.165142E+03 -1.305085E+02 -7.138795E+03
        83  24 -9.603687E+05  2.895146E+02  2.389096E+01 -6.459100E+04 -8.681988E+01 -2.456553E+03
        83  25 -5.598736E+05  9.972738E+04  9.722190E+04 -6.512177E+04  1.704415E+03 -1.176936E+04
        83  26 -6.842783E+05  6.869895E+04  6.721651E+04 -7.569376E+03  1.766907E+03 -7.142422E+03
        83  27 -8.090049E+05  3.803766E+04  3.724933E+04 -6.486602E+04  1.832719E+03 -2.460876E+03
        84   1 -8.929274E+05  1.715434E+04  1.679840E+04 -6.477676E+04  1.995581E+03 -2.927449E+02
        84   2 -7.679200E+05  4.789388E+04  4.671741E+04 -7.400655E+03  2.003910E+03 -4.978853E+03
        84   3 -6.433402E+05  7.897360E+04  7.660131E+04 -6.508712E+04  2.014582E+03 -9.620486E+03
        84   4 -9.603868E+05  2.870688E+02 -7.279173E+00 -6.463823E+04  7.651194E+01 -2.883520E+02
        84   5 -9.601679E+05  4.972815E+01 -6.903536E+01 -7.106058E+03  1.027866E+02 -4.974959E+03
        84   6 -9.603941E+05  1.505229E+02 -1.774438E+02 -6.463865E+04  1.314017E+02 -9.617033E+03
        84   7 -1.027842E+06 -1.658055E+04 -1.681328E+04 -6.449971E+04 -1.842349E+03 -2.839598E+02
        84   8 -1.152382E+06 -4.779715E+04 -4.685815E+04 -6.811534E+03 -1.797749E+03 -4.971067E+03
        84   9 -1.277356E+06 -7.867993E+04 -7.696342E+04 -6.419036E+04 -1.750819E+03 -9.613583E+03
        84  10 -8.929274E+05  1.715434E+04  1.679839E+04 -6.477676E+04 -2.190681E-09  1.417981E-10
        84  11 -7.679200E+05  4.789385E+04  4.671736E+04 -7.400647E+03 -1.409139E-09 -5.346012E-10
        84  12 -6.433402E+05  7.897349E+04  7.660113E+04 -6.508711E+04 -2.335899E-09  1.836738E-10
        84  13 -9.603868E+05  2.870687E+02 -7.279340E+00 -6.463823E+04 -9.216641E-10  7.770040E-10
        84  14 -9.601679E+05  4.970158E+01 -6.908187E+01 -7.106057E+03 -1.033021E-09  2.650030E-10
        84  15 -9.603941E+05  1.504236E+02 -1.776176E+02 -6.463865E+04  6.220167E-10  2.969581E-10
        84  16 -1.027842E+06 -1.658055E+04 -1.681329E+04 -6.449971E+04 -3.263518E-11 -5.760272E-11
        84  17 -1.152382E+06 -4.779717E+04 -4.685821E+04 -6.811541E+03 -5.945944E-11  4.157054E-10
        84  18 -1.277356E+06 -7.868003E+04 -7.696360E+04 -6.419038E+04 -9.364708E-10 -3.850337E-10
        84  19 -8.929274E+05  1.715434E+04  1.679840E+04 -6.477676E+04 -1.995581E+03  2.927449E+02
        84  20 -7.679200E+05  4.789388E+04  4.671741E+04 -7.400655E+03 -2.003910E+03  4.978853E+03
        84  21 -6.433402E+05  7.897360E+04  7.660131E+04 -6.508712E+04 -2.014582E+03  9.620486E+03
        84  22 -9.603868E+05  2.870688E+02 -7.279173E+00 -6.463823E+04 -7.651194E+01  2.883520E+02
        84  23 -9.601679E+05  4.972815E+01 -6.903536E+01 -7.106058E+03 -1.027866E+02  4.974959E+03
        84  24 -9.603941E+05  1.505229E+02 -1.774438E+02 -6.463865E+04 -1.314017E+02  9.617033E+03
        84  25 -1.027842E+06 -1.658055E+04 -1.681328E+04 -6.449971E+04  1.842349E+03  2.839598E+02
        84  26 -1.152382E+06 -4.779715E+04 -4.685815E+04 -6.811534E+03  1.797749E+03  4.971067E+03
        84  27 -1.277356E+06 -7.867993E+04 -7.696342E+04 -6.419036E+04  1.750819E+03  9.613583E+03
        85   1 -4.261955E+05  1.332148E+05  1.301457E+05 -6.493281E+04  2.112761E+03 -1.237584E+04
        85   2 -3.039341E+05  1.633110E+05  1.592716E+05 -8.311234E+03  2.181040E+03 -1.700245E+04
        85   3 -1.812699E+05  1.934474E+05  1.884368E+05 -6.456099E+04  2.257173E+03 -2.127391E+04
        85   4 -9.602701E+05  2.522539E+02 -1.862755E+02 -6.415264E+04  1.533687E+02 -1.237296E+04
        85   5 -9.604626E+05 -2.890766E+01 -4.551752E+02 -7.713608E+03  3.661608E+02 -1.700128E+04
        85   6 -9.602899E+05 -2.939603E+02 -7.840433E+02 -6.415338E+04  5.867909E+02 -2.127424E+04
        85   7 -1.494084E+06 -1.327314E+05 -1.305391E+05 -6.337301E+04 -1.804341E+03 -1.237009E+04
        85   8 -1.616597E+06 -1.634006E+05 -1.602133E+05 -7.116488E+03 -1.446804E+03 -1.700012E+04
        85   9 -1.738755E+06 -1.940800E+05 -1.900488E+05 -6.374614E+04 -1.081501E+03 -2.127458E+04
        85  10 -4.261956E+05  1.332146E+05  1.301455E+05 -6.493279E+04 -1.585190E-10 -1.278284E-10
        85  11 -3.039342E+05  1.633107E+05  1.592711E+05 -8.311204E+03  1.597992E-09 -1.643984E-10
        85  12 -1.812700E+05  1.934469E+05  1.884359E+05 -6.456095E+04  5.440840E-11  1.234570E-10
        85  13 -9.602701E+05  2.520896E+02 -1.865631E+02 -6.415264E+04 -2.206841E-09 -6.343123E-10
        85  14 -9.604626E+05 -2.921794E+01 -4.557184E+02 -7.713603E+03 -4.393465E-09 -3.592727E-10
        85  15 -9.602900E+05 -2.944462E+02 -7.848940E+02 -6.415337E+04 -1.305131E-09 -2.432619E-10
        85  16 -1.494084E+06 -1.327316E+05 -1.305394E+05 -6.337303E+04 -8.302469E-10 -2.711461E-10
        85  17 -1.616597E+06 -1.634009E+05 -1.602138E+05 -7.116508E+03 -1.791396E-09 -2.141891E-10
        85  18 -1.738755E+06 -1.940805E+05 -1.900496E+05 -6.374615E+04 -7.826314E-10  3.358481E-10
        85  19 -4.261955E+05  1.332148E+05  1.301457E+05 -6.493281E+04 -2.112761E+03  1.237584E+04
        85  20 -3.039341E+05  1.633110E+05  1.592716E+05 -8.311234E+03 -2.181040E+03  1.700245E+04
        85  21 -1.812699E+05  1.934474E+05  1.884368E+05 -6.456099E+04 -2.257173E+03  2.127391E+04
        85  22 -9.602701E+05  2.522539E+02 -1.862755E+02 -6.415264E+04 -1.533687E+02  1.237296E+04
        85  23 -9.604626E+05 -2.890766E+01 -4.551752E+02 -7.713608E+03 -3.661608E+02  1.700128E+04
        85  24 -9.602899E+05 -2.939603E+02 -7.840433E+02 -6.415338E+04 -5.867909E+02  2.127424E+04
        85  25 -1.494084E+06 -1.327314E+05 -1.305391E+05 -6.337301E+04  1.804341E+03  1.237009E+04
        85  26 -1.616597E+06 -1.634006E+05 -1.602133E+05 -7.116488E+03  1.446804E+03  1.700012E+04
        85  27 -1.738755E+06 -1.940800E+05 -1.900488E+05 -6.374614E+04  1.081501E+03  2.127458E+04
        86   1  2.960117E+04  2.463314E+05  2.401782E+05 -6.368494E+04  3.203060E+03 -2.435489E+04
        86   2  1.462571E+05  2.753500E+05  2.674289E+05 -8.535859E+03  2.820900E+03 -2.885865E+04
        86   3  2.648160E+05  3.028330E+05  2.949986E+05 -6.161115E+04  2.446869E+03 -3.020159E+04
        86   4 -9.601122E+05  8.051261E+01 -8.973390E+02 -6.312181E+04  7.194189E+02 -2.435627E+04
        86   5 -9.609563E+05 -3.076561E+01 -1.819126E+03 -9.002812E+03  1.625885E+03 -2.886248E+04
        86   6 -9.601386E+05 -1.904033E+03 -3.317982E+03 -6.312046E+04  2.540571E+03 -3.020535E+04
        86   7 -1.948931E+06 -2.462426E+05 -2.420440E+05 -6.255943E+04 -1.760273E+03 -2.435765E+04
        86   8 -2.067050E+06 -2.755018E+05 -2.711560E+05 -9.469035E+03  4.329928E+02 -2.886632E+04
        86   9 -2.183723E+06 -3.067518E+05 -3.017435E+05 -6.462712E+04  2.634085E+03 -3.020912E+04
        86  10  2.960100E+04  2.463307E+05  2.401770E+05 -6.368488E+04 -7.316197E-10  2.714200E-10
        86  11  1.462568E+05  2.753491E+05  2.674273E+05 -8.535794E+03  2.884023E-09  4.504486E-10
        86  12  2.648157E+05  3.028320E+05  2.949968E+05 -6.161109E+04 -7.336503E-10  1.768994E-10
        86  13 -9.601123E+05  7.987574E+01 -8.984543E+02 -6.312179E+04 -1.023321E-09  4.503223E-10
        86  14 -9.609565E+05 -3.166046E+01 -1.820696E+03 -9.002774E+03 -5.426298E-09  9.884933E-11
        86  15 -9.601389E+05 -1.905014E+03 -3.319708E+03 -6.312040E+04 -2.480054E-09 -4.865335E-10
        86  16 -1.948931E+06 -2.462432E+05 -2.420451E+05 -6.255947E+04 -9.712109E-10  3.300696E-10
        86  17 -2.067050E+06 -2.755027E+05 -2.711576E+05 -9.469025E+03 -1.504084E-09  4.133100E-10
        86  18 -2.183724E+06 -3.067527E+05 -3.017453E+05 -6.462706E+04 -7.212357E-10 -7.700486E-10
        86  19  2.960117E+04  2.463314E+05  2.401782E+05 -6.368494E+04 -3.203060E+03  2.435489E+04
        86  20  1.462571E+05  2.753500E+05  2.674289E+05 -8.535859E+03 -2.820900E+03  2.885865E+04
        86  21  2.648160E+05  3.028330E+05  2.949986E+05 -6.161115E+04 -2.446869E+03  3.020159E+04
        86  22 -9.601122E+05  8.051261E+01 -8.973390E+02 -6.312181E+04 -7.194189E+02  2.435627E+04
        86  23 -9.609563E+05 -3.076561E+01 -1.819126E+03 -9.002812E+03 -1.625885E+03  2.886248E+04
        86  24 -9.601386E+05 -1.904033E+03 -3.317982E+03 -6.312046E+04 -2.540571E+03  3.020535E+04
        86  25 -1.948931E+06 -2.462426E+05 -2.420440E+05 -6.255943E+04  1.760273E+03  2.435765E+04
        86  26 -2.067050E+06 -2.755018E+05 -2.711560E+05 -9.469035E+03 -4.329928E+02  2.886632E+04
        86  27 -2.183723E+06 -3.067518E+05 -3.017435E+05 -6.462712E+04 -2.634085E+03  3.020912E+04
        87   1  4.644601E+05  3.544770E+05  3.424352E+05 -6.098049E+04  1.171003E+04 -3.746361E+04
        87   2  5.734940E+05  3.827620E+05  3.656517E+05 -6.824111E+03  2.035478E+03 -4.215423E+04
        87   3  6.855089E+05  3.987404E+05  3.930745E+05 -5.339099E+04 -7.759491E+03 -1.427620E+04
        87   4 -9.605184E+05  1.524545E+02 -3.926510E+03 -6.146886E+04  3.148700E+03 -3.748427E+04
        87   5 -9.608644E+05  1.339747E+03 -6.797845E+03 -1.107727E+04  6.769093E+03 -4.214709E+04
        87   6 -9.605620E+05 -1.210792E+04 -1.470248E+04 -6.142478E+04  1.027065E+04 -1.420566E+04
        87   7 -2.383643E+06 -3.543216E+05 -3.504350E+05 -6.195684E+04 -5.393052E+03 -3.750494E+04
        87   8 -2.493072E+06 -3.802556E+05 -3.794175E+05 -1.532145E+04  1.149103E+04 -4.214000E+04
        87   9 -2.604171E+06 -4.231589E+05 -4.226802E+05 -6.943963E+04  2.825304E+04 -1.413551E+04
        87  10  4.644595E+05  3.544755E+05  3.424323E+05 -6.098014E+04 -1.378810E-09  1.090271E-09
        87  11  5.734936E+05  3.827601E+05  3.656484E+05 -6.824042E+03  2.385836E-09  1.006773E-09
        87  12  6.855087E+05  3.987401E+05  3.930740E+05 -5.339108E+04  1.661849E-09 -1.805351E-10
        87  13 -9.605188E+05  1.509437E+02 -3.929167E+03 -6.146877E+04  1.076859E-09 -2.862752E-11
        87  14 -9.608649E+05  1.337828E+03 -6.801268E+03 -1.107704E+04 -4.255558E-09  2.509102E-10
        87  15 -9.605622E+05 -1.210816E+04 -1.470306E+04 -6.142466E+04  6.129150E-10  3.694122E-10
        87  16 -2.383643E+06 -3.543231E+05 -3.504377E+05 -6.195700E+04  7.502090E-10 -9.033618E-10
        87  17 -2.493073E+06 -3.802575E+05 -3.794211E+05 -1.532106E+04 -2.141863E-09  1.169627E-09
        87  18 -2.604172E+06 -4.231593E+05 -4.226821E+05 -6.943930E+04  9.098607E-10  3.665702E-11
        87  19  4.644601E+05  3.544770E+05  3.424352E+05 -6.098049E+04 -1.171003E+04  3.746361E+04
        87  20  5.734940E+05  3.827620E+05  3.656517E+05 -6.824111E+03 -2.035478E+03  4.215423E+04
        87  21  6.855089E+05  3.987404E+05  3.930745E+05 -5.339099E+04  7.759491E+03  1.427620E+04
        87  22 -9.605184E+05  1.524545E+02 -3.926510E+03 -6.146886E+04 -3.148700E+03  3.748427E+04
        87  23 -9.608644E+05  1.339747E+03 -6.797845E+03 -1.107727E+04 -6.769093E+03  4.214709E+04
        87  24 -9.605620E+05 -1.210792E+04 -1.470248E+04 -6.142478E+04 -1.027065E+04  1.420566E+04
        87  25 -2.383643E+06 -3.543216E+05 -3.504350E+05 -6.195684E+04  5.393052E+03  3.750494E+04
        87  26 -2.493072E+06 -3.802556E+05 -3.794175E+05 -1.532145E+04 -1.149103E+04  4.214000E+04
        87  27 -2.604171E+06 -4.231589E+05 -4.226802E+05 -6.943963E+04 -2.825304E+04  1.413551E+04
        88   1  5.885002E+05  1.568118E+06  6.122709E+05 -2.726125E+05  1.476631E+04  1.155144E+05
        88   2  3.449322E+05  1.099958E+06  4.134433E+05 -4.593289E+04  4.061765E+04  6.634140E+04
        88   3  2.508430E+05  6.725497E+05  2.833610E+05 -2.298311E+05  2.397300E+04  1.691315E+04
        88   4  1.109851E+05 -3.448688E+05  1.384287E+05 -2.355351E+05  1.488876E+04  9.620422E+04
        88   5 -1.881196E+04 -3.636449E+05  5.859725E+04 -3.056280E+04  4.063738E+04  6.449909E+04
        88   6 -1.953308E+03 -3.447511E+05  3.554060E+04 -2.362127E+05  2.384920E+04  3.250235E+04
        88   7 -3.667995E+05 -2.254533E+06 -3.356843E+05 -1.985664E+05  1.500911E+04  7.695304E+04
        88   8 -3.827128E+05 -1.825293E+06 -2.964032E+05 -1.522563E+04  4.065704E+04  6.266096E+04
        88   9 -2.548254E+05 -1.361107E+06 -2.123540E+05 -2.425817E+05  2.372496E+04  4.806605E+04
        88  10  5.884964E+05  1.568103E+06  6.122454E+05 -2.726138E+05 -1.349535E-09  5.401807E-10
        88  11  3.449293E+05  1.099953E+06  4.134319E+05 -4.593506E+04 -2.388621E-09 -5.400340E-10
        88  12  2.508423E+05  6.725492E+05  2.833594E+05 -2.298314E+05 -1.141760E-09 -1.093509E-09
        88  13  1.109824E+05 -3.448788E+05  1.384109E+05 -2.355363E+05 -2.451315E-09  1.765850E-11
        88  14 -1.881485E+04 -3.636498E+05  5.858632E+04 -3.056491E+04  5.287219E-09  2.747569E-11
        88  15 -1.954203E+03 -3.447524E+05  3.553754E+04 -2.362133E+05 -6.244768E-10  8.326880E-11
        88  16 -3.668013E+05 -2.254539E+06 -3.356959E+05 -1.985674E+05 -3.982497E-10 -4.134009E-10
        88  17 -3.827156E+05 -1.825298E+06 -2.964137E+05 -1.522769E+04 -1.460858E-09  6.597650E-10
        88  18 -2.548267E+05 -1.361110E+06 -2.123594E+05 -2.425826E+05  4.072277E-10  1.245098E-09
        88  19  5.885002E+05  1.568118E+06  6.122709E+05 -2.726125E+05 -1.476631E+04 -1.155144E+05
        88  20  3.449322E+05  1.099958E+06  4.134433E+05 -4.593289E+04 -4.061765E+04 -6.634140E+04
        88  21  2.508430E+05  6.725497E+05  2.833610E+05 -2.298311E+05 -2.397300E+04 -1.691315E+04
        88  22  1.109851E+05 -3.448688E+05  1.384287E+05 -2.355351E+05 -1.488876E+04 -9.620422E+04
        88  23 -1.881196E+04 -3.636449E+05  5.859725E+04 -3.056280E+04 -4.063738E+04 -6.449909E+04
        88  24 -1.953308E+03 -3.447511E+05  3.554060E+04 -2.362127E+05 -2.384920E+04 -3.250235E+04
        88  25 -3.667995E+05 -2.254533E+06 -3.356843E+05 -1.985664E+05 -1.500911E+04 -7.695304E+04
        88  26 -3.827128E+05 -1.825293E+06 -2.964032E+05 -1.522563E+04 -4.065704E+04 -6.266096E+04
        88  27 -2.548254E+05 -1.361107E+06 -2.123540E+05 -2.425817E+05 -2.372496E+04 -4.806605E+04
        89   1  7.474844E+04 -1.208430E+05  8.378106E+04 -2.401766E+05  7.098434E+03  2.142637E+04
        89   2 -5.429952E+04 -5.674346E+05 -4.335955E+04 -2.984553E+04 -5.766248E+03  1.696277E+04
        89   3 -1.680252E+05 -1.017450E+06 -1.654824E+05 -2.324934E+05 -1.788510E+04  1.251576E+04
        89   4  1.686606E+04 -3.536108E+05  2.749658E+04 -2.364125E+05  7.053465E+03  2.683977E+04
        89   5 -6.845644E+02 -3.518518E+05  9.066981E+03 -3.000800E+04 -5.807137E+03  2.207566E+04
        89   6 -2.843972E+03 -3.536388E+05 -4.113515E+03 -2.365712E+05 -1.792250E+04  1.732502E+04
        89   7 -4.102023E+04 -5.863289E+05 -2.879169E+04 -2.326497E+05  7.008552E+03  3.225114E+04
        89   8  5.292698E+04 -1.362264E+05  6.149024E+04 -3.017045E+04 -5.848021E+03  2.719031E+04
        89   9  1.623048E+05  3.105750E+05  1.572235E+05 -2.406524E+05 -1.795994E+04  2.213941E+04
        89  10  7.474826E+04 -1.208435E+05  8.378011E+04 -2.401767E+05 -2.246997E-09  1.510550E-09
        89  11 -5.429963E+04 -5.674350E+05 -4.336015E+04 -2.984545E+04 -2.424826E-09  1.211050E-09
        89  12 -1.680256E+05 -1.017450E+06 -1.654833E+05 -2.324933E+05  1.604943E-09  4.000137E-10
        89  13  1.686581E+04 -3.536115E+05  2.749513E+04 -2.364127E+05  3.138346E-09  5.345960E-12
        89  14 -6.847316E+02 -3.518523E+05  9.066001E+03 -3.000790E+04  2.712234E-09  9.193786E-11
        89  15 -2.844398E+03 -3.536392E+05 -4.114682E+03 -2.365709E+05  2.982125E-09  2.897098E-11
        89  16 -4.102057E+04 -5.863300E+05 -2.879374E+04 -2.326499E+05 -2.298259E-09 -1.559059E-09
        89  17  5.292675E+04 -1.362272E+05  6.148878E+04 -3.017032E+04  1.924806E-09 -1.065930E-09
        89  18  1.623044E+05  3.105744E+05  1.572220E+05 -2.406521E+05 -1.039631E-10 -3.613709E-10
        89  19  7.474844E+04 -1.208430E+05  8.378106E+04 -2.401766E+05 -7.098434E+03 -2.142637E+04
        89  20 -5.429952E+04 -5.674346E+05 -4.335955E+04 -2.984553E+04  5.766248E+03 -1.696277E+04
        89  21 -1.680252E+05 -1.017450E+06 -1.654824E+05 -2.324934E+05  1.788510E+04 -1.251576E+04
        89  22  1.686606E+04 -3.536108E+05  2.749658E+04 -2.364125E+05 -7.053465E+03 -2.683977E+04
        89  23 -6.845644E+02 -3.518518E+05  9.066981E+03 -3.000800E+04  5.807137E+03 -2.207566E+04
        89  24 -2.843972E+03 -3.536388E+05 -4.113515E+03 -2.365712E+05  1.792250E+04 -1.732502E+04
        89  25 -4.102023E+04 -5.863289E+05 -2.879169E+04 -2.326497E+05 -7.008552E+03 -3.225114E+04
        89  26  5.292698E+04 -1.362264E+05  6.149024E+04 -3.017045E+04  5.848021E+03 -2.719031E+04
        89  27  1.623048E+05  3.105750E+05  1.572235E+05 -2.406524E+05  1.795994E+04 -2.213941E+04
        90   1 -3.530075E+05 -1.802737E+06 -3.613218E+05 -2.224590E+05 -3.569254E+04  9.011409E+02
        90   2 -4.634823E+05 -2.240072E+06 -4.820922E+05 -2.578114E+04 -5.302359E+04  3.371720E+04
        90   3 -6.285231E+05 -2.695037E+06 -6.379901E+05 -2.395242E+05 -1.959856E+04  6.680466E+04
        90   4  7.291689E+03 -3.564861E+05 -8.743356E+03 -2.358291E+05 -3.581838E+04  1.821969E+04
        90   5  7.087414E+03 -3.495073E+05 -2.275006E+04 -3.078547E+04 -5.299311E+04  3.042395E+04
        90   6 -4.397861E+04 -3.566819E+05 -5.747089E+04 -2.360918E+05 -1.947880E+04  4.292378E+04
        90   7  3.674369E+05  1.091678E+06  3.436841E+05 -2.492266E+05 -3.594481E+04  3.557853E+04
        90   8  4.773940E+05  1.544330E+06  4.363336E+05 -3.580015E+04 -5.296263E+04  2.712057E+04
        90   9  5.401557E+05  1.986653E+06  5.226418E+05 -2.326395E+05 -1.935955E+04  1.895246E+04
        90  10 -3.530088E+05 -1.802738E+06 -3.613242E+05 -2.224590E+05  3.181538E-10 -1.679029E-09
        90  11 -4.634856E+05 -2.240074E+06 -4.820997E+05 -2.577970E+04 -1.269448E-09 -1.403510E-10
        90  12 -6.285247E+05 -2.695041E+06 -6.379992E+05 -2.395232E+05  4.428672E-10  1.561523E-09
        90  13  7.290222E+03 -3.564868E+05 -8.746390E+03 -2.358286E+05 -2.009484E-09 -9.114432E-12
        90  14  7.084151E+03 -3.495090E+05 -2.275707E+04 -3.078417E+04 -5.971622E-10 -1.881450E-11
        90  15 -4.397951E+04 -3.566840E+05 -5.747507E+04 -2.360911E+05 -7.934484E-10 -5.740587E-11
        90  16  3.674352E+05  1.091676E+06  3.436793E+05 -2.492255E+05 -2.471014E-10  1.601664E-09
        90  17  4.773908E+05  1.544328E+06  4.363269E+05 -3.579900E+04 -4.606743E-10  6.600100E-11
        90  18  5.401552E+05  1.986653E+06  5.226404E+05 -2.326393E+05  1.306146E-09 -1.588838E-09
        90  19 -3.530075E+05 -1.802737E+06 -3.613218E+05 -2.224590E+05  3.569254E+04 -9.011409E+02
        90  20 -4.634823E+05 -2.240072E+06 -4.820922E+05 -2.578114E+04  5.302359E+04 -3.371720E+04
        90  21 -6.285231E+05 -2.695037E+06 -6.379901E+05 -2.395242E+05  1.959856E+04 -6.680466E+04
        90  22  7.291689E+03 -3.564861E+05 -8.743356E+03 -2.358291E+05  3.581838E+04 -1.821969E+04
        90  23  7.087414E+03 -3.495073E+05 -2.275006E+04 -3.078547E+04  5.299311E+04 -3.042395E+04
        90  24 -4.397861E+04 -3.566819E+05 -5.747089E+04 -2.360918E+05  1.947880E+04 -4.292378E+04
        90  25  3.674369E+05  1.091678E+06  3.436841E+05 -2.492266E+05  3.594481E+04 -3.557853E+04
        90  26  4.773940E+05  1.544330E+06  4.363336E+05 -3.580015E+04  5.296263E+04 -2.712057E+04
        90  27  5.401557E+05  1.986653E+06  5.226418E+05 -2.326395E+05  1.935955E+04 -1.895246E+04
        91   1 -5.684672E+06 -1.809601E+06 -1.176214E+06 -1.965212E+06 -5.649798E+05 -2.029421E+05
        91   2 -5.534487E+06 -9.833696E+05 -6.518483E+05 -2.081131E+06 -3.674885E+05 -1.037328E+05
        91   3 -5.701779E+06 -9.980229E+05 -5.067786E+05 -2.002930E+06 -1.611515E+05 -2.775860E+04
        91   4 -4.684563E+06 -1.272223E+06 -8.698322E+05 -1.533154E+06 -5.532321E+05 -1.986502E+05
        91   5 -4.480910E+06 -5.402068E+05 -3.594015E+05 -1.748708E+06 -3.642736E+05 -1.025482E+05
        91   6 -4.592512E+06 -6.465692E+05 -2.209805E+05 -1.770307E+06 -1.664595E+05 -2.974932E+04
        91   7 -3.683420E+06 -7.344438E+05 -5.635495E+05 -1.100362E+06 -5.414628E+05 -1.943426E+05
        91   8 -3.426248E+06 -9.690393E+04 -6.705897E+04 -1.415745E+06 -3.610522E+05 -1.013606E+05
        91   9 -3.482044E+06 -2.951217E+05  6.472114E+04 -1.537345E+06 -1.717778E+05 -3.174246E+04
        91  10 -5.685029E+06 -1.809733E+06 -1.176898E+06 -1.965305E+06  3.165056E-10 -3.964680E-10
        91  11 -5.534636E+06 -9.834180E+05 -6.521251E+05 -2.081162E+06  1.886638E-09 -5.129615E-10
        91  12 -5.701808E+06 -9.980308E+05 -5.068294E+05 -2.002934E+06 -7.015340E-10 -5.684017E-10
        91  13 -4.684905E+06 -1.272348E+06 -8.704870E+05 -1.533243E+06  8.032892E-10 -7.063973E-11
        91  14 -4.481056E+06 -5.402542E+05 -3.596729E+05 -1.748738E+06 -5.392754E-09  3.345393E-10
        91  15 -4.592542E+06 -6.465777E+05 -2.210347E+05 -1.770311E+06 -4.684979E-09 -2.008405E-10
        91  16 -3.683747E+06 -7.345639E+05 -5.641755E+05 -1.100447E+06  3.744523E-10  1.031054E-10
        91  17 -3.426391E+06 -9.695031E+04 -6.732497E+04 -1.415775E+06  4.282869E-09  6.957863E-11
        91  18 -3.482076E+06 -2.951308E+05  6.466343E+04 -1.537349E+06 -1.018700E-09 -4.988908E-11
        91  19 -5.684672E+06 -1.809601E+06 -1.176214E+06 -1.965212E+06  5.649798E+05  2.029421E+05
        91  20 -5.534487E+06 -9.833696E+05 -6.518483E+05 -2.081131E+06  3.674885E+05  1.037328E+05
        91  21 -5.701779E+06 -9.980229E+05 -5.067786E+05 -2.002930E+06  1.611515E+05  2.775860E+04
        91  22 -4.684563E+06 -1.272223E+06 -8.698322E+05 -1.533154E+06  5.532321E+05  1.986502E+05
        91  23 -4.480910E+06 -5.402068E+05 -3.594015E+05 -1.748708E+06  3.642736E+05  1.025482E+05
        91  24 -4.592512E+06 -6.465692E+05 -2.209805E+05 -1.770307E+06  1.664595E+05  2.974932E+04
        91  25 -3.683420E+06 -7.344438E+05 -5.635495E+05 -1.100362E+06  5.414628E+05  1.943426E+05
        91  26 -3.426248E+06 -9.690393E+04 -6.705897E+04 -1.415745E+06  3.610522E+05  1.013606E+05
        91  27 -3.482044E+06 -2.951217E+05  6.472114E+04 -1.537345E+06  1.717778E+05  3.174246E+04
        92   1 -5.518479E+06 -1.129112E+06 -4.436482E+05 -2.002685E+06 -1.332860E+05 -2.212476E+04
        92   2 -5.462602E+06 -9.843079E+05 -3.306988E+05 -1.977344E+06 -8.790846E+04 -4.890164E+03
        92   3 -5.405687E+06 -9.852414E+05 -2.792980E+05 -1.975686E+06 -4.142032E+04  9.401833E+03
        92   4 -4.559153E+06 -7.472704E+05 -1.807313E+05 -1.722199E+06 -1.328363E+05 -2.196265E+04
        92   5 -4.554188E+06 -6.357960E+05 -8.474540E+04 -1.724934E+06 -8.850732E+04 -5.119535E+03
        92   6 -4.547913E+06 -6.697503E+05 -4.939604E+04 -1.751366E+06 -4.307255E+04  8.779007E+03
        92   7 -3.598934E+06 -3.653484E+05  8.210047E+04 -1.441308E+06 -1.323858E+05 -2.180016E+04
        92   8 -3.644971E+06 -2.872289E+05  1.611338E+05 -1.472187E+06 -8.910707E+04 -5.349248E+03
        92   9 -3.689424E+06 -3.542252E+05  1.804417E+05 -1.526767E+06 -4.472728E+04  8.155301E+03
        92  10 -5.518499E+06 -1.129117E+06 -4.436829E+05 -2.002687E+06 -3.251908E-11 -2.410355E-10
        92  11 -5.462611E+06 -9.843101E+05 -3.307135E+05 -1.977344E+06 -5.128916E-09 -3.188341E-10
        92  12 -5.405689E+06 -9.852420E+05 -2.793015E+05 -1.975686E+06 -3.199212E-09 -6.991625E-10
        92  13 -4.559172E+06 -7.472757E+05 -1.807657E+05 -1.722201E+06 -3.573739E-10 -6.386734E-10
        92  14 -4.554196E+06 -6.357982E+05 -8.476028E+04 -1.724935E+06  2.078762E-09 -9.136312E-10
        92  15 -4.547915E+06 -6.697509E+05 -4.939969E+04 -1.751365E+06 -2.426200E-09 -1.969911E-10
        92  16 -3.598953E+06 -3.653537E+05  8.206642E+04 -1.441311E+06 -3.366702E-10 -4.321763E-10
        92  17 -3.644980E+06 -2.872311E+05  1.611187E+05 -1.472187E+06  1.170673E-11 -1.310796E-09
        92  18 -3.689426E+06 -3.542258E+05  1.804378E+05 -1.526766E+06  6.002681E-10 -1.858879E-10
        92  19 -5.518479E+06 -1.129112E+06 -4.436482E+05 -2.002685E+06  1.332860E+05  2.212476E+04
        92  20 -5.462602E+06 -9.843079E+05 -3.306988E+05 -1.977344E+06  8.790846E+04  4.890164E+03
        92  21 -5.405687E+06 -9.852414E+05 -2.792980E+05 -1.975686E+06  4.142032E+04 -9.401833E+03
        92  22 -4.559153E+06 -7.472704E+05 -1.807313E+05 -1.722199E+06  1.328363E+05  2.196265E+04
        92  23 -4.554188E+06 -6.357960E+05 -8.474540E+04 -1.724934E+06  8.850732E+04  5.119535E+03
        92  24 -4.547913E+06 -6.697503E+05 -4.939604E+04 -1.751366E+06  4.307255E+04 -8.779007E+03
        92  25 -3.598934E+06 -3.653484E+05  8.210047E+04 -1.441308E+06  1.323858E+05  2.180016E+04
        92  26 -3.644971E+06 -2.872289E+05  1.611338E+05 -1.472187E+06  8.910707E+04  5.349248E+03
        92  27 -3.689424E+06 -3.542252E+05  1.804417E+05 -1.526767E+06  4.472728E+04 -8.155301E+03
        93   1 -5.245724E+06 -9.540500E+05 -2.293961E+05 -1.943144E+06 -3.407787E+04  9.742342E+03
        93   2 -5.188042E+06 -8.778967E+05 -1.870838E+05 -1.885955E+06 -2.256826E+04  1.059126E+04
        93   3 -5.073589E+06 -8.763778E+05 -1.557821E+05 -1.896688E+06 -1.080715E+04  1.075513E+04
        93   4 -4.540052E+06 -6.855704E+05 -3.895840E+04 -1.749297E+06 -3.512441E+04  9.347548E+03
        93   5 -4.567745E+06 -6.434154E+05 -1.982040E+04 -1.717149E+06 -2.386288E+04  1.010469E+04
        93   6 -4.538619E+06 -6.758316E+05 -1.148399E+04 -1.752922E+06 -1.235156E+04  1.017647E+04
        93   7 -3.833897E+06 -4.170595E+05  1.514348E+05 -1.555250E+06 -3.617224E+04  8.952259E+03
        93   8 -3.947075E+06 -4.089116E+05  1.474085E+05 -1.548190E+06 -2.515892E+04  9.617572E+03
        93   9 -4.003374E+06 -4.752703E+05  1.327883E+05 -1.609043E+06 -1.389744E+04  9.597260E+03
        93  10 -5.245726E+06 -9.540505E+05 -2.293985E+05 -1.943143E+06 -1.120880E-09 -4.916918E-10
        93  11 -5.188043E+06 -8.778969E+05 -1.870850E+05 -1.885955E+06  1.394495E-09  6.390169E-10
        93  12 -5.073589E+06 -8.763779E+05 -1.557825E+05 -1.896688E+06  4.207262E-09  1.483801E-09
        93  13 -4.540054E+06 -6.855708E+05 -3.896089E+04 -1.749297E+06  7.434243E-10 -2.206775E-10
        93  14 -4.567746E+06 -6.434157E+05 -1.982166E+04 -1.717149E+06  1.840438E-09  2.923132E-10
        93  15 -4.538620E+06 -6.758318E+05 -1.148447E+04 -1.752921E+06  2.555006E-09  1.154548E-09
        93  16 -3.833899E+06 -4.170599E+05  1.514321E+05 -1.555250E+06  1.337929E-10  3.459224E-10
        93  17 -3.947076E+06 -4.089119E+05  1.474072E+05 -1.548190E+06 -2.061343E-09  1.599199E-10
        93  18 -4.003374E+06 -4.752704E+05  1.327878E+05 -1.609043E+06 -1.671546E-09  1.282156E-09
        93  19 -5.245724E+06 -9.540500E+05 -2.293961E+05 -1.943144E+06  3.407787E+04 -9.742342E+03
        93  20 -5.188042E+06 -8.778967E+05 -1.870838E+05 -1.885955E+06  2.256826E+04 -1.059126E+04
        93  21 -5.073589E+06 -8.763778E+05 -1.557821E+05 -1.896688E+06  1.080715E+04 -1.075513E+04
        93  22 -4.540052E+06 -6.855704E+05 -3.895840E+04 -1.749297E+06  3.512441E+04 -9.347548E+03
        93  23 -4.567745E+06 -6.434154E+05 -1.982040E+04 -1.717149E+06  2.386288E+04 -1.010469E+04
        93  24 -4.538619E+06 -6.758316E+05 -1.148399E+04 -1.752922E+06  1.235156E+04 -1.017647E+04
        93  25 -3.833897E+06 -4.170595E+05  1.514348E+05 -1.555250E+06  3.617224E+04 -8.952259E+03
        93  26 -3.947075E+06 -4.089116E+05  1.474085E+05 -1.548190E+06  2.515892E+04 -9.617572E+03
        93  27 -4.003374E+06 -4.752703E+05  1.327883E+05 -1.609043E+06  1.389744E+04 -9.597260E+03
        94   1 -4.885734E+06 -8.115395E+05 -1.030607E+05 -1.849790E+06 -8.328094E+03  9.030189E+03
        94   2 -4.820152E+06 -7.355863E+05 -7.253235E+04 -1.780915E+06 -3.959187E+03  6.139927E+03
        94   3 -4.683159E+06 -7.338140E+05 -4.463096E+04 -1.794899E+06  4.830870E+02  3.046050E+03
        94   4 -4.535847E+06 -6.795758E+05 -9.122509E+03 -1.754774E+06 -9.797650E+03  8.480323E+03
        94   5 -4.571434E+06 -6.418978E+05 -5.542214E+03 -1.713550E+06 -5.504458E+03  5.562342E+03
        94   6 -4.535609E+06 -6.783839E+05 -4.527207E+03 -1.755187E+06 -1.138465E+03  2.440635E+03
        94   7 -4.185839E+06 -5.476044E+05  8.480517E+04 -1.659709E+06 -1.126813E+04  7.930112E+03
        94   8 -4.322656E+06 -5.482058E+05  6.144234E+04 -1.646161E+06 -7.050412E+03  4.984502E+03
        94   9 -4.388040E+06 -6.229529E+05  3.557433E+04 -1.715466E+06 -2.760434E+03  1.835066E+03
        94  10 -4.885734E+06 -8.115396E+05 -1.030610E+05 -1.849790E+06 -7.730599E-10 -1.618949E-10
        94  11 -4.820152E+06 -7.355863E+05 -7.253245E+04 -1.780915E+06 -1.656840E-09  3.452131E-10
        94  12 -4.683159E+06 -7.338140E+05 -4.463097E+04 -1.794899E+06 -4.574436E-10  1.748330E-10
        94  13 -4.535847E+06 -6.795759E+05 -9.122824E+03 -1.754774E+06 -6.726190E-10  8.014069E-10
        94  14 -4.571434E+06 -6.418978E+05 -5.542329E+03 -1.713550E+06 -1.459946E-09  3.643646E-10
        94  15 -4.535609E+06 -6.783839E+05 -4.527221E+03 -1.755187E+06 -1.595697E-09  2.293770E-10
        94  16 -4.185839E+06 -5.476045E+05  8.480482E+04 -1.659709E+06  3.718738E-10  1.910296E-09
        94  17 -4.322656E+06 -5.482059E+05  6.144220E+04 -1.646161E+06 -1.136967E-09  7.252991E-10
        94  18 -4.388040E+06 -6.229529E+05  3.557431E+04 -1.715466E+06 -2.506407E-09  2.580401E-10
        94  19 -4.885734E+06 -8.115395E+05 -1.030607E+05 -1.849790E+06  8.328094E+03 -9.030189E+03
        94  20 -4.820152E+06 -7.355863E+05 -7.253235E+04 -1.780915E+06  3.959187E+03 -6.139927E+03
        94  21 -4.683159E+06 -7.338140E+05 -4.463096E+04 -1.794899E+06 -4.830870E+02 -3.046050E+03
        94  22 -4.535847E+06 -6.795758E+05 -9.122509E+03 -1.754774E+06  9.797650E+03 -8.480323E+03
        94  23 -4.571434E+06 -6.418978E+05 -5.542214E+03 -1.713550E+06  5.504458E+03 -5.562342E+03
        94  24 -4.535609E+06 -6.783839E+05 -4.527207E+03 -1.755187E+06  1.138465E+03 -2.440635E+03
        94  25 -4.185839E+06 -5.476044E+05  8.480517E+04 -1.659709E+06  1.126813E+04 -7.930112E+03
        94  26 -4.322656E+06 -5.482058E+05  6.144234E+04 -1.646161E+06  7.050412E+03 -4.984502E+03
        94  27 -4.388040E+06 -6.229529E+05  3.557433E+04 -1.715466E+06  2.760434E+03 -1.835066E+03
        95   1 -4.482479E+06 -6.588332E+05  1.001145E+04 -1.741404E+06  2.171807E+03  8.282659E+02
        95   2 -4.415966E+06 -5.828855E+05  3.601691E+04 -1.671013E+06  6.689235E+03 -2.270718E+03
        95   3 -4.277079E+06 -5.823814E+05  5.928998E+04 -1.684786E+06  1.115808E+04 -5.232230E+03
        95   4 -4.535379E+06 -6.786192E+05 -4.597084E+03 -1.755491E+06  5.510913E+02  2.232631E+02
        95   5 -4.571666E+06 -6.415190E+05 -5.906949E+03 -1.713181E+06  5.119711E+03 -2.857036E+03
        95   6 -4.535597E+06 -6.798749E+05 -9.989554E+03 -1.755042E+06  9.639198E+03 -5.800010E+03
        95   7 -4.588276E+06 -6.984051E+05 -1.920590E+04 -1.769577E+06 -1.069476E+03 -3.816855E+02
        95   8 -4.727343E+06 -7.001513E+05 -4.783317E+04 -1.755341E+06  3.550614E+03 -3.443194E+03
        95   9 -4.794052E+06 -7.773652E+05 -7.927550E+04 -1.825271E+06  8.121002E+03 -6.367532E+03
        95  10 -4.482479E+06 -6.588332E+05  1.001144E+04 -1.741404E+06  7.796840E-11 -2.287802E-10
        95  11 -4.415966E+06 -5.828855E+05  3.601682E+04 -1.671013E+06 -8.669737E-10 -5.726835E-10
        95  12 -4.277079E+06 -5.823814E+05  5.928970E+04 -1.684786E+06 -2.393618E-09  4.507552E-10
        95  13 -4.535379E+06 -6.786192E+05 -4.597085E+03 -1.755491E+06 -1.073679E-09  7.108251E-11
        95  14 -4.571666E+06 -6.415190E+05 -5.907014E+03 -1.713181E+06 -2.124332E-09 -3.305385E-10
        95  15 -4.535597E+06 -6.798750E+05 -9.989792E+03 -1.755042E+06  4.786575E-10  1.487391E-10
        95  16 -4.588276E+06 -6.984051E+05 -1.920591E+04 -1.769577E+06 -8.233129E-10  9.700310E-11
        95  17 -4.727343E+06 -7.001513E+05 -4.783322E+04 -1.755341E+06 -1.442091E-11 -5.158067E-10
        95  18 -4.794052E+06 -7.773653E+05 -7.927570E+04 -1.825271E+06  2.358007E-10 -5.622585E-10
        95  19 -4.482479E+06 -6.588332E+05  1.001145E+04 -1.741404E+06 -2.171807E+03 -8.282659E+02
        95  20 -4.415966E+06 -5.828855E+05  3.601691E+04 -1.671013E+06 -6.689235E+03  2.270718E+03
        95  21 -4.277079E+06 -5.823814E+05  5.928998E+04 -1.684786E+06 -1.115808E+04  5.232230E+03
        95  22 -4.535379E+06 -6.786192E+05 -4.597084E+03 -1.755491E+06 -5.510913E+02 -2.232631E+02
        95  23 -4.571666E+06 -6.415190E+05 -5.906949E+03 -1.713181E+06 -5.119711E+03  2.857036E+03
        95  24 -4.535597E+06 -6.798749E+05 -9.989554E+03 -1.755042E+06 -9.639198E+03  5.800010E+03
        95  25 -4.588276E+06 -6.984051E+05 -1.920590E+04 -1.769577E+06  1.069476E+03  3.816855E+02
        95  26 -4.727343E+06 -7.001513E+05 -4.783317E+04 -1.755341E+06 -3.550614E+03  3.443194E+03
        95  27 -4.794052E+06 -7.773652E+05 -7.927550E+04 -1.825271E+06 -8.121002E+03  6.367532E+03
        96   1 -4.088440E+06 -5.083661E+05  1.085178E+05 -1.633381E+06  1.398145E+04 -6.908858E+03
        96   2 -4.028935E+06 -4.384680E+05  1.234074E+05 -1.569308E+06  2.641293E+04 -6.664519E+03
        96   3 -3.910309E+06 -4.477408E+05  1.264175E+05 -1.576641E+06  3.862015E+04 -5.799696E+03
        96   4 -4.538017E+06 -6.764608E+05 -1.266498E+04 -1.753827E+06  1.239132E+04 -7.503915E+03
        96   5 -4.568362E+06 -6.422534E+05 -2.193342E+04 -1.716118E+06  2.504824E+04 -7.176548E+03
        96   6 -4.539641E+06 -6.872743E+05 -4.326883E+04 -1.749822E+06  3.747908E+04 -6.229138E+03
        96   7 -4.987396E+06 -8.445437E+05 -1.338649E+05 -1.874193E+06  1.080247E+04 -8.098502E+03
        96   8 -5.107504E+06 -8.460209E+05 -1.672996E+05 -1.862812E+06  2.368486E+04 -7.688085E+03
        96   9 -5.168589E+06 -9.267825E+05 -2.129903E+05 -1.922843E+06  3.633928E+04 -6.658096E+03
        96  10 -4.088440E+06 -5.083662E+05  1.085173E+05 -1.633381E+06  3.042834E-10  1.490204E-09
        96  11 -4.028936E+06 -4.384682E+05  1.234060E+05 -1.569308E+06  6.560784E-10  8.524175E-10
        96  12 -3.910310E+06 -4.477412E+05  1.264146E+05 -1.576641E+06  1.380287E-10  8.681263E-10
        96  13 -4.538017E+06 -6.764609E+05 -1.266537E+04 -1.753827E+06  2.919384E-09  7.209877E-10
        96  14 -4.568362E+06 -6.422537E+05 -2.193470E+04 -1.716118E+06 -7.990391E-10 -2.461919E-10
        96  15 -4.539643E+06 -6.872747E+05 -4.327156E+04 -1.749822E+06 -5.961199E-10  6.049481E-10
        96  16 -4.987396E+06 -8.445438E+05 -1.338653E+05 -1.874193E+06  1.578583E-10  3.719203E-10
        96  17 -5.107505E+06 -8.460211E+05 -1.673007E+05 -1.862812E+06 -1.304446E-09 -3.414325E-10
        96  18 -5.168590E+06 -9.267829E+05 -2.129929E+05 -1.922843E+06  1.115407E-09  1.946286E-09
        96  19 -4.088440E+06 -5.083661E+05  1.085178E+05 -1.633381E+06 -1.398145E+04  6.908858E+03
        96  20 -4.028935E+06 -4.384680E+05  1.234074E+05 -1.569308E+06 -2.641293E+04  6.664519E+03
        96  21 -3.910309E+06 -4.477408E+05  1.264175E+05 -1.576641E+06 -3.862015E+04  5.799696E+03
        96  22 -4.538017E+06 -6.764608E+05 -1.266498E+04 -1.753827E+06 -1.239132E+04  7.503915E+03
        96  23 -4.568362E+06 -6.422534E+05 -2.193342E+04 -1.716118E+06 -2.504824E+04  7.176548E+03
        96  24 -4.539641E+06 -6.872743E+05 -4.326883E+04 -1.749822E+06 -3.747908E+04  6.229138E+03
        96  25 -4.987396E+06 -8.445437E+05 -1.338649E+05 -1.874193E+06 -1.080247E+04  8.098502E+03
        96  26 -5.107504E+06 -8.460209E+05 -1.672996E+05 -1.862812E+06 -2.368486E+04  7.688085E+03
        96  27 -5.168589E+06 -9.267825E+05 -2.129903E+05 -1.922843E+06 -3.633928E+04  6.658096E+03
        97   1 -3.753873E+06 -3.806978E+05  1.572922E+05 -1.547351E+06  4.801555E+04 -4.845753E+03
        97   2 -3.704055E+06 -3.063343E+05  1.359184E+05 -1.486709E+06  9.743385E+04  1.024384E+04
        97   3 -3.652976E+06 -3.933496E+05  4.796252E+04 -1.452664E+06  1.457786E+05  2.821783E+04
        97   4 -4.547605E+06 -6.705560E+05 -5.489234E+04 -1.753055E+06  4.627596E+04 -5.499982E+03
        97   5 -4.554347E+06 -6.328029E+05 -9.412700E+04 -1.723577E+06  9.672256E+04  9.972685E+03
        97   6 -4.560104E+06 -7.567428E+05 -2.008377E+05 -1.720692E+06  1.460900E+05  2.832683E+04
        97   7 -5.340729E+06 -9.603883E+05 -2.671325E+05 -1.958526E+06  4.453879E+04 -6.153371E+03
        97   8 -5.403940E+06 -9.592229E+05 -3.242377E+05 -1.960149E+06  9.601226E+04  9.701914E+03
        97   9 -5.466432E+06 -1.120060E+06 -4.497137E+05 -1.988354E+06  1.464007E+05  2.843556E+04
        97  10 -3.753876E+06 -3.806984E+05  1.572878E+05 -1.547351E+06 -3.930446E-10  2.610519E-10
        97  11 -3.704065E+06 -3.063370E+05  1.359003E+05 -1.486710E+06 -1.200651E-09  9.956603E-10
        97  12 -3.652999E+06 -3.933562E+05  4.792082E+04 -1.452667E+06  1.586118E-09  1.095422E-09
        97  13 -4.547607E+06 -6.705566E+05 -5.489644E+04 -1.753055E+06 -1.674267E-09  5.450288E-10
        97  14 -4.554358E+06 -6.328055E+05 -9.414490E+04 -1.723578E+06  1.799118E-09 -2.215614E-10
        97  15 -4.560127E+06 -7.567495E+05 -2.008797E+05 -1.720695E+06  5.287121E-09  1.508109E-10
        97  16 -5.340732E+06 -9.603889E+05 -2.671363E+05 -1.958526E+06 -1.910622E-09  7.381964E-10
        97  17 -5.403950E+06 -9.592255E+05 -3.242553E+05 -1.960150E+06  3.156763E-10 -1.289230E-09
        97  18 -5.466455E+06 -1.120066E+06 -4.497559E+05 -1.988357E+06  1.657853E-09  5.863242E-10
        97  19 -3.753873E+06 -3.806978E+05  1.572922E+05 -1.547351E+06 -4.801555E+04  4.845753E+03
        97  20 -3.704055E+06 -3.063343E+05  1.359184E+05 -1.486709E+06 -9.743385E+04 -1.024384E+04
        97  21 -3.652976E+06 -3.933496E+05  4.796252E+04 -1.452664E+06 -1.457786E+05 -2.821783E+04
        97  22 -4.547605E+06 -6.705560E+05 -5.489234E+04 -1.753055E+06 -4.627596E+04  5.499982E+03
        97  23 -4.554347E+06 -6.328029E+05 -9.412700E+04 -1.723577E+06 -9.672256E+04 -9.972685E+03
        97  24 -4.560104E+06 -7.567428E+05 -2.008377E+05 -1.720692E+06 -1.460900E+05 -2.832683E+04
        97  25 -5.340729E+06 -9.603883E+05 -2.671325E+05 -1.958526E+06 -4.453879E+04  6.153371E+03
        97  26 -5.403940E+06 -9.592229E+05 -3.242377E+05 -1.960149E+06 -9.601226E+04 -9.701914E+03
        97  27 -5.466432E+06 -1.120060E+06 -4.497137E+05 -1.988354E+06 -1.464007E+05 -2.843556E+04
        98   1 -3.517136E+06 -3.141065E+05  3.018995E+04 -1.559009E+06  1.887349E+05  3.930904E+04
        98   2 -3.451153E+06 -9.006323E+04 -1.146535E+05 -1.420191E+06  4.001539E+05  1.168533E+05
        98   3 -3.729498E+06 -7.991002E+05 -6.656721E+05 -1.070899E+06  6.028143E+05  2.175617E+05
        98   4 -4.596370E+06 -6.456362E+05 -2.455503E+05 -1.775028E+06  1.833302E+05  3.729214E+04
        98   5 -4.473995E+06 -5.254767E+05 -3.992436E+05 -1.748773E+06  4.031802E+05  1.179581E+05
        98   6 -4.698266E+06 -1.341082E+06 -9.663660E+05 -1.511859E+06  6.142824E+05  2.217068E+05
        98   7 -5.674466E+06 -9.771792E+05 -5.213792E+05 -1.990749E+06  1.779356E+05  3.527742E+04
        98   8 -5.495812E+06 -9.607472E+05 -6.839319E+05 -2.076834E+06  4.062005E+05  1.190599E+05
        98   9 -5.666046E+06 -1.882622E+06 -1.267151E+06 -1.952084E+06  6.257301E+05  2.258359E+05
        98  10 -3.517175E+06 -3.141178E+05  3.011965E+04 -1.559015E+06  2.954424E-09  5.895225E-10
        98  11 -3.451330E+06 -9.012132E+04 -1.149822E+05 -1.420229E+06 -2.130965E-09 -1.493870E-10
        98  12 -3.729903E+06 -7.992496E+05 -6.664490E+05 -1.071005E+06 -9.206555E-10 -1.302245E-09
        98  13 -4.596406E+06 -6.456469E+05 -2.456166E+05 -1.775033E+06  1.594941E-09  1.050672E-09
        98  14 -4.474174E+06 -5.255359E+05 -3.995781E+05 -1.748811E+06 -3.955882E-09 -1.983137E-09
        98  15 -4.698688E+06 -1.341238E+06 -9.671742E+05 -1.511970E+06  1.883289E-10  4.942441E-10
        98  16 -5.674501E+06 -9.771891E+05 -5.214417E+05 -1.990754E+06 -1.124724E-09  7.912213E-10
        98  17 -5.495994E+06 -9.608074E+05 -6.842720E+05 -2.076873E+06  8.968151E-10 -1.613770E-09
        98  18 -5.666484E+06 -1.882784E+06 -1.267991E+06 -1.952199E+06 -1.009863E-09  6.667619E-11
        98  19 -3.517136E+06 -3.141065E+05  3.018995E+04 -1.559009E+06 -1.887349E+05 -3.930904E+04
        98  20 -3.451153E+06 -9.006323E+04 -1.146535E+05 -1.420191E+06 -4.001539E+05 -1.168533E+05
        98  21 -3.729498E+06 -7.991002E+05 -6.656721E+05 -1.070899E+06 -6.028143E+05 -2.175617E+05
        98  22 -4.596370E+06 -6.456362E+05 -2.455503E+05 -1.775028E+06 -1.833302E+05 -3.729214E+04
        98  23 -4.473995E+06 -5.254767E+05 -3.992436E+05 -1.748773E+06 -4.031802E+05 -1.179581E+05
        98  24 -4.698266E+06 -1.341082E+06 -9.663660E+05 -1.511859E+06 -6.142824E+05 -2.217068E+05
        98  25 -5.674466E+06 -9.771792E+05 -5.213792E+05 -1.990749E+06 -1.779356E+05 -3.527742E+04
        98  26 -5.495812E+06 -9.607472E+05 -6.839319E+05 -2.076834E+06 -4.062005E+05 -1.190599E+05
        98  27 -5.666046E+06 -1.882622E+06 -1.267151E+06 -1.952084E+06 -6.257301E+05 -2.258359E+05
        99   1 -2.027402E+06 -3.073332E+05 -2.931139E+05 -3.724089E+04  1.999820E+04  1.218298E+04
        99   2 -1.957450E+06 -3.341590E+05 -2.966866E+05 -8.047566E+03  1.891086E+04  3.611020E+04
        99   3 -1.871016E+06 -3.097420E+05 -2.860726E+05 -5.026437E+04  1.792782E+04  3.272788E+04
        99   4 -6.360618E+05  4.030310E+04  5.202193E+04 -4.367068E+04  3.534986E+04  1.224424E+04
        99   5 -6.452518E+05 -7.538674E+03  2.227816E+04 -7.887815E+03  2.312739E+04  3.611854E+04
        99   6 -6.360532E+05 -2.256940E+03  1.443859E+04 -4.350523E+04  1.100969E+04  3.270874E+04
        99   7  7.570419E+05  3.877945E+05  3.970141E+05 -5.011669E+04  5.073591E+04  1.230512E+04
        99   8  6.685227E+05  3.189548E+05  3.411183E+05 -7.728963E+03  2.735279E+04  3.612687E+04
        99   9  6.003052E+05  3.051158E+05  3.148393E+05 -3.673328E+04  4.077781E+03  3.268947E+04
        99  10 -2.027403E+06 -3.073335E+05 -2.931149E+05 -3.724109E+04  1.248659E-09  4.659273E-10
        99  11 -1.957451E+06 -3.341605E+05 -2.966897E+05 -8.048116E+03  6.530893E-10 -9.461598E-10
        99  12 -1.871017E+06 -3.097432E+05 -2.860752E+05 -5.026484E+04 -2.033526E-09 -6.855353E-10
        99  13 -6.360632E+05  4.030260E+04  5.201930E+04 -4.367103E+04 -9.916136E-10 -1.102591E-09
        99  14 -6.452527E+05 -7.540218E+03  2.227470E+04 -7.888487E+03 -3.229997E-09  2.450406E-12
        99  15 -6.360537E+05 -2.258121E+03  1.443635E+04 -4.350552E+04 -5.188708E-09 -8.342868E-10
        99  16  7.570391E+05  3.877937E+05  3.970090E+05 -5.011719E+04  1.512104E-09  1.703041E-09
        99  17  6.685216E+05  3.189532E+05  3.411145E+05 -7.729758E+03 -2.972483E-09 -9.009724E-10
        99  18  6.003049E+05  3.051147E+05  3.148373E+05 -3.673338E+04 -1.295140E-10 -5.155082E-10
        99  19 -2.027402E+06 -3.073332E+05 -2.931139E+05 -3.724089E+04 -1.999820E+04 -1.218298E+04
        99  20 -1.957450E+06 -3.341590E+05 -2.966866E+05 -8.047566E+03 -1.891086E+04 -3.611020E+04
        99  21 -1.871016E+06 -3.097420E+05 -2.860726E+05 -5.026437E+04 -1.792782E+04 -3.272788E+04
        99  22 -6.360618E+05  4.030310E+04  5.202193E+04 -4.367068E+04 -3.534986E+04 -1.224424E+04
        99  23 -6.452518E+05 -7.538674E+03  2.227816E+04 -7.887815E+03 -2.312739E+04 -3.611854E+04
        99  24 -6.360532E+05 -2.256940E+03  1.443859E+04 -4.350523E+04 -1.100969E+04 -3.270874E+04
        99  25  7.570419E+05  3.877945E+05  3.970141E+05 -5.011669E+04 -5.073591E+04 -1.230512E+04
        99  26  6.685227E+05  3.189548E+05  3.411183E+05 -7.728963E+03 -2.735279E+04 -3.612687E+04
        99  27  6.003052E+05  3.051158E+05  3.148393E+05 -3.673328E+04 -4.077781E+03 -3.268947E+04
       100   1 -1.733868E+06 -2.681646E+05 -2.551116E+05 -4.478733E+04  8.384905E+03  2.693408E+04
       100   2 -1.653525E+06 -2.531291E+05 -2.406763E+05 -7.085404E+03  6.469716E+03  2.639546E+04
       100   3 -1.569442E+06 -2.319319E+05 -2.230489E+05 -4.519997E+04  4.550945E+03  2.323257E+04
       100   4 -6.391689E+05  4.453489E+03  1.178665E+04 -4.453847E+04  8.711565E+03  2.693152E+04
       100   5 -6.411215E+05 -1.094261E+03  5.749949E+03 -6.630248E+03  5.723398E+03  2.639195E+04
       100   6 -6.391558E+05 -2.980685E+02  3.647547E+03 -4.453081E+04  2.731889E+03  2.323001E+04
       100   7  4.566256E+05  2.769831E+05  2.785977E+05 -4.428957E+04  9.038790E+03  2.692897E+04
       100   8  3.722198E+05  2.508650E+05  2.521018E+05 -6.174561E+03  4.975858E+03  2.638844E+04
       100   9  2.919216E+05  2.312719E+05  2.302811E+05 -4.386065E+04  9.101059E+02  2.322745E+04
       100  10 -1.733868E+06 -2.681654E+05 -2.551131E+05 -4.478752E+04 -2.423891E-09 -1.315715E-10
       100  11 -1.653526E+06 -2.531299E+05 -2.406776E+05 -7.085542E+03 -1.591904E-09  7.214713E-10
       100  12 -1.569442E+06 -2.319325E+05 -2.230500E+05 -4.520005E+04 -2.602369E-10 -1.842208E-10
       100  13 -6.391692E+05  4.452690E+03  1.178515E+04 -4.453865E+04 -4.215571E-09 -8.761411E-10
       100  14 -6.411217E+05 -1.095017E+03  5.748579E+03 -6.630369E+03  8.437256E-10  1.310393E-09
       100  15 -6.391560E+05 -2.986499E+02  3.646519E+03 -4.453086E+04 -1.242319E-10  1.694755E-10
       100  16  4.566253E+05  2.769823E+05  2.785962E+05 -4.428977E+04  7.422321E-10 -1.360545E-10
       100  17  3.722196E+05  2.508643E+05  2.521004E+05 -6.174667E+03 -2.737492E-09  2.005645E-10
       100  18  2.919214E+05  2.312713E+05  2.302801E+05 -4.386067E+04 -1.446698E-09  2.681013E-10
       100  19 -1.733868E+06 -2.681646E+05 -2.551116E+05 -4.478733E+04 -8.384905E+03 -2.693408E+04
       100  20 -1.653525E+06 -2.531291E+05 -2.406763E+05 -7.085404E+03 -6.469716E+03 -2.639546E+04
       100  21 -1.569442E+06 -2.319319E+05 -2.230489E+05 -4.519997E+04 -4.550945E+03 -2.323257E+04
       100  22 -6.391689E+05  4.453489E+03  1.178665E+04 -4.453847E+04 -8.711565E+03 -2.693152E+04
       100  23 -6.411215E+05 -1.094261E+03  5.749949E+03 -6.630248E+03 -5.723398E+03 -2.639195E+04
       100  24 -6.391558E+05 -2.980685E+02  3.647547E+03 -4.453081E+04 -2.731889E+03 -2.323001E+04
       100  25  4.566256E+05  2.769831E+05  2.785977E+05 -4.428957E+04 -9.038790E+03 -2.692897E+04
       100  26  3.722198E+05  2.508650E+05  2.521018E+05 -6.174561E+03 -4.975858E+03 -2.638844E+04
       100  27  2.919216E+05  2.312719E+05  2.302811E+05 -4.386065E+04 -9.101059E+02 -2.322745E+04
       101   1 -1.423117E+06 -1.945622E+05 -1.876530E+05 -4.499770E+04  3.281087E+03  2.101641E+04
       101   2 -1.338218E+06 -1.739326E+05 -1.683613E+05 -5.441621E+03  2.618565E+03  1.807166E+04
       101   3 -1.252306E+06 -1.524448E+05 -1.482770E+05 -4.467044E+04  1.950285E+03  1.483852E+04
       101   4 -6.397238E+05  4.017030E+02  2.844516E+03 -4.519289E+04  2.142165E+03  2.101492E+04
       101   5 -6.402309E+05 -1.977950E+02  1.532464E+03 -5.803137E+03  1.361232E+03  1.807121E+04
       101   6 -6.397115E+05  8.171399E+01  1.095199E+03 -4.519280E+04  5.746315E+02  1.483928E+04
       101   7  1.442307E+05  1.953204E+05  1.932976E+05 -4.538829E+04  1.001807E+03  2.101343E+04
       101   8  5.820129E+04  1.735010E+05  1.713909E+05 -6.164983E+03  1.024863E+02  1.807077E+04
       101   9 -2.677411E+04  1.525806E+05  1.504401E+05 -4.571555E+04 -8.023782E+02  1.484004E+04
       101  10 -1.423117E+06 -1.945627E+05 -1.876538E+05 -4.499775E+04 -7.558485E-10  3.696324E-10
       101  11 -1.338218E+06 -1.739329E+05 -1.683619E+05 -5.441659E+03 -3.185411E-09  1.215505E-09
       101  12 -1.252306E+06 -1.524451E+05 -1.482774E+05 -4.467046E+04 -4.133250E-10 -1.089695E-09
       101  13 -6.397239E+05  4.012277E+02  2.843678E+03 -4.519293E+04 -3.288938E-09  2.634233E-10
       101  14 -6.402310E+05 -1.981461E+02  1.531847E+03 -5.803157E+03  2.327376E-09  1.063604E-09
       101  15 -6.397116E+05  8.147751E+01  1.094784E+03 -4.519280E+04 -2.294191E-10  5.451119E-10
       101  16  1.442305E+05  1.953199E+05  1.932967E+05 -4.538831E+04 -9.598059E-10 -8.198345E-11
       101  17  5.820121E+04  1.735007E+05  1.713903E+05 -6.164984E+03 -8.586125E-11 -7.225268E-10
       101  18 -2.677417E+04  1.525803E+05  1.504397E+05 -4.571554E+04  8.721351E-10 -7.445428E-10
       101  19 -1.423117E+06 -1.945622E+05 -1.876530E+05 -4.499770E+04 -3.281087E+03 -2.101641E+04
       101  20 -1.338218E+06 -1.739326E+05 -1.683613E+05 -5.441621E+03 -2.618565E+03 -1.807166E+04
       101  21 -1.252306E+06 -1.524448E+05 -1.482770E+05 -4.467044E+04 -1.950285E+03 -1.483852E+04
       101  22 -6.397238E+05  4.017030E+02  2.844516E+03 -4.519289E+04 -2.142165E+03 -2.101492E+04
       101  23 -6.402309E+05 -1.977950E+02  1.532464E+03 -5.803137E+03 -1.361232E+03 -1.807121E+04
       101  24 -6.397115E+05  8.171399E+01  1.095199E+03 -4.519280E+04 -5.746315E+02 -1.483928E+04
       101  25  1.442307E+05  1.953204E+05  1.932976E+05 -4.538829E+04 -1.001807E+03 -2.101343E+04
       101  26  5.820129E+04  1.735010E+05  1.713909E+05 -6.164983E+03 -1.024863E+02 -1.807077E+04
       101  27 -2.677411E+04  1.525806E+05  1.504401E+05 -4.571555E+04  8.023782E+02 -1.484004E+04
       102   1 -1.101007E+06 -1.146090E+05 -1.110592E+05 -4.509889E+04  1.698479E+03  1.290824E+04
       102   2 -1.013603E+06 -9.302253E+04 -9.017591E+04 -4.817569E+03  1.329360E+03  9.664365E+03
       102   3 -9.261553E+05 -7.107361E+04 -6.898417E+04 -4.515847E+04  9.570510E+02  6.373346E+03
       102   4 -6.398814E+05  1.016440E+02  9.071512E+02 -4.560160E+04  3.862726E+02  1.290955E+04
       102   5 -6.398975E+05 -2.108651E+01  7.705417E+02 -5.291771E+03 -2.359509E+00  9.666281E+03
       102   6 -6.398722E+05  2.228810E+02  9.566375E+02 -4.560114E+04 -3.941302E+02  6.375904E+03
       102   7 -1.785610E+05  1.147967E+05  1.128581E+05 -4.610461E+04 -9.269069E+02  1.291087E+04
       102   8 -2.660642E+05  9.297007E+04  9.170687E+04 -5.766204E+03 -1.334880E+03  9.668199E+03
       102   9 -3.535142E+05  7.151331E+04  7.089147E+04 -4.604398E+04 -1.745934E+03  6.378462E+03
       102  10 -1.101007E+06 -1.146092E+05 -1.110595E+05 -4.509891E+04  1.058614E-10 -6.912374E-10
       102  11 -1.013603E+06 -9.302263E+04 -9.017609E+04 -4.817580E+03  2.526130E-09  2.245887E-10
       102  12 -9.261553E+05 -7.107366E+04 -6.898425E+04 -4.515847E+04  3.237567E-09 -3.884553E-10
       102  13 -6.398814E+05  1.014651E+02  9.068378E+02 -4.560161E+04  1.010645E-09 -1.673720E-09
       102  14 -6.398976E+05 -2.118681E+01  7.703661E+02 -5.291771E+03  2.277580E-09  6.596393E-10
       102  15 -6.398722E+05  2.228373E+02  9.565609E+02 -4.560114E+04 -1.408574E-09 -6.742022E-10
       102  16 -1.785610E+05  1.147965E+05  1.128578E+05 -4.610460E+04  1.220477E-09 -1.608897E-10
       102  17 -2.660642E+05  9.296997E+04  9.170669E+04 -5.766194E+03 -3.900765E-09 -5.401410E-10
       102  18 -3.535142E+05  7.151327E+04  7.089139E+04 -4.604397E+04 -5.232770E-09 -1.521953E-09
       102  19 -1.101007E+06 -1.146090E+05 -1.110592E+05 -4.509889E+04 -1.698479E+03 -1.290824E+04
       102  20 -1.013603E+06 -9.302253E+04 -9.017591E+04 -4.817569E+03 -1.329360E+03 -9.664365E+03
       102  21 -9.261553E+05 -7.107361E+04 -6.898417E+04 -4.515847E+04 -9.570510E+02 -6.373346E+03
       102  22 -6.398814E+05  1.016440E+02  9.071512E+02 -4.560160E+04 -3.862726E+02 -1.290955E+04
       102  23 -6.398975E+05 -2.108651E+01  7.705417E+02 -5.291771E+03  2.359509E+00 -9.666281E+03
       102  24 -6.398722E+05  2.228810E+02  9.566375E+02 -4.560114E+04  3.941302E+02 -6.375904E+03
       102  25 -1.785610E+05  1.147967E+05  1.128581E+05 -4.610461E+04  9.269069E+02 -1.291087E+04
       102  26 -2.660642E+05  9.297007E+04  9.170687E+04 -5.766204E+03  1.334880E+03 -9.668199E+03
       102  27 -3.535142E+05  7.151331E+04  7.089147E+04 -4.604398E+04  1.745934E+03 -6.378462E+03
       103   1 -7.722281E+05 -3.271239E+04 -3.081938E+04 -4.551668E+04  7.631620E+02  4.443044E+03
       103   2 -6.839411E+05 -1.099966E+04 -9.005612E+03 -5.015114E+03 -1.084862E+02  1.139902E+03
       103   3 -5.957824E+05  1.139718E+04  1.345724E+04 -4.585524E+04 -9.806115E+02 -2.151528E+03
       103   4 -6.398921E+05  1.624201E+02  1.110326E+03 -4.576185E+04 -5.864784E+02  4.445849E+03
       103   5 -6.398224E+05 -2.219424E+01  1.729502E+03 -5.090820E+03 -1.453496E+03  1.142754E+03
       103   6 -6.398903E+05  4.767422E+02  2.994731E+03 -4.576110E+04 -2.320870E+03 -2.148603E+03
       103   7 -5.075400E+05  3.303595E+04  3.303879E+04 -4.600706E+04 -1.936406E+03  4.448654E+03
       103   8 -5.957020E+05  1.095513E+04  1.246448E+04 -5.166531E+03 -2.798602E+03  1.145606E+03
       103   9 -6.839964E+05 -1.044384E+04 -7.467911E+03 -4.566697E+04 -3.661033E+03 -2.145679E+03
       103  10 -7.722281E+05 -3.271241E+04 -3.081942E+04 -4.551669E+04 -3.698770E-09  1.254763E-09
       103  11 -6.839411E+05 -1.099967E+04 -9.005614E+03 -5.015113E+03 -2.194984E-09  3.170069E-09
       103  12 -5.957824E+05  1.139718E+04  1.345723E+04 -4.585524E+04  3.511234E-09 -2.654528E-09
       103  13 -6.398921E+05  1.623988E+02  1.110288E+03 -4.576185E+04 -5.292248E-11  3.500132E-10
       103  14 -6.398225E+05 -2.219621E+01  1.729495E+03 -5.090819E+03 -2.326826E-09 -7.377604E-10
       103  15 -6.398903E+05  4.767358E+02  2.994712E+03 -4.576111E+04 -1.309318E-09 -7.117283E-10
       103  16 -5.075400E+05  3.303593E+04  3.303875E+04 -4.600705E+04  3.733133E-09  5.248110E-10
       103  17 -5.957020E+05  1.095513E+04  1.246446E+04 -5.166529E+03 -2.107977E-09 -2.099053E-10
       103  18 -6.839964E+05 -1.044385E+04 -7.467945E+03 -4.566698E+04 -4.314889E-09 -6.809796E-10
       103  19 -7.722281E+05 -3.271239E+04 -3.081938E+04 -4.551668E+04 -7.631620E+02 -4.443044E+03
       103  20 -6.839411E+05 -1.099966E+04 -9.005612E+03 -5.015114E+03  1.084862E+02 -1.139902E+03
       103  21 -5.957824E+05  1.139718E+04  1.345724E+04 -4.585524E+04  9.806115E+02  2.151528E+03
       103  22 -6.398921E+05  1.624201E+02  1.110326E+03 -4.576185E+04  5.864784E+02 -4.445849E+03
       103  23 -6.398224E+05 -2.219424E+01  1.729502E+03 -5.090820E+03  1.453496E+03 -1.142754E+03
       103  24 -6.398903E+05  4.767422E+02  2.994731E+03 -4.576110E+04  2.320870E+03  2.148603E+03
       103  25 -5.075400E+05  3.303595E+04  3.303879E+04 -4.600706E+04  1.936406E+03 -4.448654E+03
       103  26 -5.957020E+05  1.095513E+04  1.246448E+04 -5.166531E+03  2.798602E+03 -1.145606E+03
       103  27 -6.839964E+05 -1.044384E+04 -7.467911E+03 -4.566697E+04  3.661033E+03  2.145679E+03
       104   1 -4.412408E+05  4.949721E+04  5.239584E+04 -4.566022E+04 -1.554716E+03 -4.105190E+03
       104   2 -3.539984E+05  7.074696E+04  7.612135E+04 -5.686464E+03 -4.925254E+03 -7.402899E+03
       104   3 -2.656487E+05  9.558395E+04  1.028865E+05 -4.663045E+04 -8.293592E+03 -1.050290E+04
       104   4 -6.396298E+05  8.985274E+01  3.860916E+03 -4.566943E+04 -2.941908E+03 -4.102310E+03
       104   5 -6.401760E+05 -4.434696E+02  6.507287E+03 -5.207331E+03 -6.230517E+03 -7.400652E+03
       104   6 -6.396352E+05  2.597749E+03  1.213809E+04 -4.566523E+04 -9.516455E+03 -1.050123E+04
       104   7 -8.379828E+05 -4.932042E+04 -4.467688E+04 -4.567861E+04 -4.328657E+03 -4.099428E+03
       104   8 -9.262787E+05 -7.163994E+04 -6.311271E+04 -4.728383E+03 -7.535178E+03 -7.398407E+03
       104   9 -1.013494E+06 -9.039873E+04 -7.862042E+04 -4.470054E+04 -1.073858E+04 -1.049955E+04
       104  10 -4.412408E+05  4.949719E+04  5.239581E+04 -4.566023E+04  1.734202E-10 -2.972129E-09
       104  11 -3.539985E+05  7.074690E+04  7.612120E+04 -5.686494E+03  4.738862E-10  4.262347E-10
       104  12 -2.656488E+05  9.558381E+04  1.028862E+05 -4.663052E+04 -7.919044E-10  4.892071E-10
       104  13 -6.396298E+05  8.983234E+01  3.860868E+03 -4.566944E+04  1.139882E-09 -4.936240E-10
       104  14 -6.401760E+05 -4.435388E+02  6.507111E+03 -5.207368E+03  2.045982E-09 -4.987563E-10
       104  15 -6.396353E+05  2.597606E+03  1.213771E+04 -4.566531E+04 -7.457028E-10 -5.281858E-10
       104  16 -8.379828E+05 -4.932044E+04 -4.467695E+04 -4.567862E+04 -1.641005E-09 -3.069523E-10
       104  17 -9.262787E+05 -7.164001E+04 -6.311291E+04 -4.728428E+03 -3.747336E-09  2.717509E-09
       104  18 -1.013494E+06 -9.039888E+04 -7.862085E+04 -4.470063E+04 -1.662288E-09  4.219985E-10
       104  19 -4.412408E+05  4.949721E+04  5.239584E+04 -4.566022E+04  1.554716E+03  4.105190E+03
       104  20 -3.539984E+05  7.074696E+04  7.612135E+04 -5.686464E+03  4.925254E+03  7.402899E+03
       104  21 -2.656487E+05  9.558395E+04  1.028865E+05 -4.663045E+04  8.293592E+03  1.050290E+04
       104  22 -6.396298E+05  8.985274E+01  3.860916E+03 -4.566943E+04  2.941908E+03  4.102310E+03
       104  23 -6.401760E+05 -4.434696E+02  6.507287E+03 -5.207331E+03  6.230517E+03  7.400652E+03
       104  24 -6.396352E+05  2.597749E+03  1.213809E+04 -4.566523E+04  9.516455E+03  1.050123E+04
       104  25 -8.379828E+05 -4.932042E+04 -4.467688E+04 -4.567861E+04  4.328657E+03  4.099428E+03
       104  26 -9.262787E+05 -7.163994E+04 -6.311271E+04 -4.728383E+03  7.535178E+03  7.398407E+03
       104  27 -1.013494E+06 -9.039873E+04 -7.862042E+04 -4.470054E+04  1.073858E+04  1.049955E+04
       105   1 -1.114254E+05  1.301341E+05  1.437320E+05 -4.332684E+04 -1.024697E+04 -1.268659E+04
       105   2 -2.991077E+04  1.485354E+05  1.744864E+05 -7.379437E+03 -2.424211E+04 -1.595380E+04
       105   3  6.089008E+04  1.950003E+05  2.214560E+05 -5.077215E+04 -3.823314E+04 -1.728674E+04
       105   4 -6.378861E+05 -8.490435E+02  1.544198E+04 -4.532417E+04 -1.197526E+04 -1.268462E+04
       105   5 -6.424629E+05 -3.810435E+03  2.554115E+04 -5.644153E+03 -2.516956E+04 -1.595392E+04
       105   6 -6.378881E+05  2.116886E+04  5.131180E+04 -4.530867E+04 -3.835782E+04 -1.728824E+04
       105   7 -1.164094E+06 -1.318527E+05 -1.128681E+05 -4.731969E+04 -1.370209E+04 -1.268264E+04
       105   8 -1.254672E+06 -1.561839E+05 -1.234313E+05 -3.910498E+03 -2.609608E+04 -1.595404E+04
       105   9 -1.336221E+06 -1.526984E+05 -1.188679E+05 -3.985128E+04 -3.848234E+04 -1.728975E+04
       105  10 -1.114255E+05  1.301339E+05  1.437315E+05 -4.332694E+04  2.128524E-09  9.251814E-10
       105  11 -2.991147E+04  1.485350E+05  1.744848E+05 -7.379748E+03  2.465100E-09 -2.918424E-10
       105  12  6.088843E+04  1.949995E+05  2.214527E+05 -5.077269E+04 -1.353509E-09 -4.479204E-10
       105  13 -6.378863E+05 -8.492548E+02  1.544140E+04 -4.532429E+04 -3.187375E-09  6.436451E-10
       105  14 -6.424637E+05 -3.810879E+03  2.553948E+04 -5.644477E+03 -6.225818E-09  1.482047E-09
       105  15 -6.378898E+05  2.116815E+04  5.130847E+04 -4.530921E+04 -4.734359E-09 -7.251483E-10
       105  16 -1.164094E+06 -1.318529E+05 -1.128688E+05 -4.731983E+04 -1.485482E-09  1.994774E-10
       105  17 -1.254673E+06 -1.561844E+05 -1.234331E+05 -3.910833E+03 -3.953806E-09  2.636925E-10
       105  18 -1.336222E+06 -1.526991E+05 -1.188712E+05 -3.985181E+04 -1.434039E-09 -9.682681E-10
       105  19 -1.114254E+05  1.301341E+05  1.437320E+05 -4.332684E+04  1.024697E+04  1.268659E+04
       105  20 -2.991077E+04  1.485354E+05  1.744864E+05 -7.379437E+03  2.424211E+04  1.595380E+04
       105  21  6.089008E+04  1.950003E+05  2.214560E+05 -5.077215E+04  3.823314E+04  1.728674E+04
       105  22 -6.378861E+05 -8.490435E+02  1.544198E+04 -4.532417E+04  1.197526E+04  1.268462E+04
       105  23 -6.424629E+05 -3.810435E+03  2.554115E+04 -5.644153E+03  2.516956E+04  1.595392E+04
       105  24 -6.378881E+05  2.116886E+04  5.131180E+04 -4.530867E+04  3.835782E+04  1.728824E+04
       105  25 -1.164094E+06 -1.318527E+05 -1.128681E+05 -4.731969E+04  1.370209E+04  1.268264E+04
       105  26 -1.254672E+06 -1.561839E+05 -1.234313E+05 -3.910498E+03  2.609608E+04  1.595404E+04
       105  27 -1.336221E+06 -1.526984E+05 -1.188679E+05 -3.985128E+04  3.848234E+04  1.728975E+04
       106   1  2.220009E+05  2.022666E+05  2.685983E+05 -2.394718E+04 -4.278307E+04 -2.213786E+04
       106   2  2.717588E+05  2.001805E+05  3.241547E+05 -1.917051E+04 -1.044453E+05 -2.563526E+04
       106   3  3.892099E+05  4.305414E+05  4.782731E+05 -9.090778E+04 -1.661337E+05 -8.896765E+03
       106   4 -6.252617E+05 -8.399155E+03  6.263561E+04 -4.464635E+04 -4.829759E+04 -2.213689E+04
       106   5 -6.584043E+05 -3.102886E+04  9.838409E+04 -6.476599E+03 -1.016307E+05 -2.563868E+04
       106   6 -6.252088E+05  1.775250E+05  2.270104E+05 -4.482118E+04 -1.549807E+05 -8.897840E+03
       106   7 -1.471868E+06 -2.191161E+05 -1.433787E+05 -6.531714E+04 -5.380457E+04 -2.213555E+04
       106   8 -1.587777E+06 -2.623011E+05 -1.274489E+05  6.198157E+03 -9.882022E+04 -2.564199E+04
       106   9 -1.638688E+06 -7.556038E+04 -2.432725E+04  1.189844E+03 -1.438457E+05 -8.897269E+03
       106  10  2.219988E+05  2.022656E+05  2.685939E+05 -2.394794E+04 -5.802045E-10 -6.105486E-10
       106  11  2.717469E+05  2.001768E+05  3.241330E+05 -1.917266E+04 -2.249776E-09  2.260826E-10
       106  12  3.891803E+05  4.305339E+05  4.782211E+05 -9.090897E+04  6.992215E-10 -6.089769E-11
       106  13 -6.252644E+05 -8.400308E+03  6.263030E+04 -4.464721E+04 -1.286224E-09 -9.268628E-10
       106  14 -6.584156E+05 -3.103234E+04  9.836342E+04 -6.478697E+03 -1.979740E-09  1.069288E-09
       106  15 -6.252346E+05  1.775184E+05  2.269651E+05 -4.482229E+04 -1.699485E-09  2.944547E-10
       106  16 -1.471871E+06 -2.191174E+05 -1.433851E+05 -6.531810E+04 -8.200125E-10 -9.927851E-10
       106  17 -1.587787E+06 -2.623045E+05 -1.274686E+05  6.196114E+03  7.083832E-10  3.258846E-10
       106  18 -1.638710E+06 -7.556604E+04 -2.436638E+04  1.188813E+03 -7.756622E-10 -2.647874E-10
       106  19  2.220009E+05  2.022666E+05  2.685983E+05 -2.394718E+04  4.278307E+04  2.213786E+04
       106  20  2.717588E+05  2.001805E+05  3.241547E+05 -1.917051E+04  1.044453E+05  2.563526E+04
       106  21  3.892099E+05  4.305414E+05  4.782731E+05 -9.090778E+04  1.661337E+05  8.896765E+03
       106  22 -6.252617E+05 -8.399155E+03  6.263561E+04 -4.464635E+04  4.829759E+04  2.213689E+04
       106  23 -6.584043E+05 -3.102886E+04  9.838409E+04 -6.476599E+03  1.016307E+05  2.563868E+04
       106  24 -6.252088E+05  1.775250E+05  2.270104E+05 -4.482118E+04  1.549807E+05  8.897840E+03
       106  25 -1.471868E+06 -2.191161E+05 -1.433787E+05 -6.531714E+04  5.380457E+04  2.213555E+04
       106  26 -1.587777E+06 -2.623011E+05 -1.274489E+05  6.198157E+03  9.882022E+04  2.564199E+04
       106  27 -1.638688E+06 -7.556038E+04 -2.432725E+04  1.189844E+03  1.438457E+05  8.897269E+03
       107   1  2.652400E+05  3.984258E+05  2.785070E+05 -2.076494E+05  1.649481E+03  1.671398E+05
       107   2  1.022219E+05  3.190697E+05  1.470442E+05 -1.338523E+05  6.843165E+03  9.849101E+04
       107   3  4.269883E+04  2.744002E+05  8.612947E+04 -7.141388E+04  6.458806E+03  2.982431E+04
       107   4  2.045477E+05  1.592997E+05  2.216276E+05 -7.299076E+04  1.756021E+03  1.518952E+05
       107   5  5.932786E+04  1.429274E+05  1.123536E+05 -6.775176E+04  6.872935E+03  9.435310E+04
       107   6  1.567760E+04  1.593171E+05  6.593065E+04 -7.386226E+04  6.426220E+03  3.678544E+04
       107   7  1.439192E+05 -7.973495E+04  1.647548E+05  6.161566E+04  1.855977E+03  1.366565E+05
       107   8  1.644826E+04 -3.317604E+04  7.766377E+04 -1.670371E+03  6.901829E+03  9.021634E+04
       107   9 -1.134430E+04  4.424697E+04  4.573153E+04 -7.631015E+04  6.393575E+03  4.374533E+04
       107  10  2.652325E+05  3.983958E+05  2.784545E+05 -2.076496E+05 -6.825749E-10  6.359475E-10
       107  11  1.022192E+05  3.190593E+05  1.470259E+05 -1.338528E+05 -1.631252E-09  4.472861E-10
       107  12  4.269855E+04  2.743993E+05  8.612772E+04 -7.141404E+04 -3.051789E-09 -4.169283E-09
       107  13  2.045415E+05  1.592749E+05  2.215843E+05 -7.299098E+04 -2.604365E-09 -1.199401E-09
       107  14  5.932542E+04  1.429178E+05  1.123368E+05 -6.775228E+04  1.793457E-09  7.256208E-11
       107  15  1.567719E+04  1.593156E+05  6.592803E+04 -7.386245E+04  1.746240E-10 -1.512874E-09
       107  16  1.439142E+05 -7.975500E+04  1.647197E+05  6.161546E+04 -1.114896E-10 -6.051557E-10
       107  17  1.644602E+04 -3.318480E+04  7.764838E+04 -1.670872E+03 -1.328275E-09  3.544181E-09
       107  18 -1.134486E+04  4.424490E+04  4.572786E+04 -7.631038E+04  1.351710E-10  4.385328E-09
       107  19  2.652400E+05  3.984258E+05  2.785070E+05 -2.076494E+05 -1.649481E+03 -1.671398E+05
       107  20  1.022219E+05  3.190697E+05  1.470442E+05 -1.338523E+05 -6.843165E+03 -9.849101E+04
       107  21  4.269883E+04  2.744002E+05  8.612947E+04 -7.141388E+04 -6.458806E+03 -2.982431E+04
       107  22  2.045477E+05  1.592997E+05  2.216276E+05 -7.299076E+04 -1.756021E+03 -1.518952E+05
       107  23  5.932786E+04  1.429274E+05  1.123536E+05 -6.775176E+04 -6.872935E+03 -9.435310E+04
       107  24  1.567760E+04  1.593171E+05  6.593065E+04 -7.386226E+04 -6.426220E+03 -3.678544E+04
       107  25  1.439192E+05 -7.973495E+04  1.647548E+05  6.161566E+04 -1.855977E+03 -1.366565E+05
       107  26  1.644826E+04 -3.317604E+04  7.766377E+04 -1.670371E+03 -6.901829E+03 -9.021634E+04
       107  27 -1.134430E+04  4.424697E+04  4.573153E+04 -7.631015E+04 -6.393575E+03 -4.374533E+04
       108   1  3.138005E+04  2.283223E+05  6.670622E+04 -8.131522E+04  4.254028E+03  2.095632E+04
       108   2  8.537385E+03  1.630165E+05  4.234283E+04 -6.878449E+04  8.983824E+02  6.288023E+02
       108   3 -2.199639E+03  1.032492E+05  3.420057E+04 -6.823400E+04 -2.517803E+03 -1.969701E+04
       108   4  1.366335E+04  1.532618E+05  5.357430E+04 -7.392124E+04  4.222383E+03  2.777091E+04
       108   5  5.634282E+03  1.505050E+05  4.038271E+04 -6.794075E+04  8.659064E+02  7.564434E+03
       108   6  9.690322E+03  1.532624E+05  4.332942E+04 -7.393986E+04 -2.550694E+03 -1.264225E+04
       108   7 -4.053441E+03  7.820713E+04  4.044239E+04 -6.652817E+04  4.190898E+03  3.458471E+04
       108   8  2.731200E+03  1.379937E+05  3.842277E+04 -6.709703E+04  8.334488E+02  1.449993E+04
       108   9  2.158029E+04  2.032781E+05  5.245837E+04 -7.964619E+04 -2.583713E+03 -5.586935E+03
       108  10  3.137992E+04  2.283218E+05  6.670537E+04 -8.131529E+04 -3.279422E-09  2.212231E-08
       108  11  8.537384E+03  1.630165E+05  4.234283E+04 -6.878449E+04  1.818060E-09 -3.999834E-08
       108  12 -2.199750E+03  1.032488E+05  3.419983E+04 -6.823404E+04  2.594307E-09 -1.013540E-07
       108  13  1.366312E+04  1.532610E+05  5.357282E+04 -7.392133E+04  1.315837E-09 -1.120959E-09
       108  14  5.634266E+03  1.505049E+05  4.038260E+04 -6.794075E+04  1.202117E-10  1.466447E-10
       108  15  9.690272E+03  1.532622E+05  4.332911E+04 -7.393989E+04  2.650435E-09 -1.638878E-09
       108  16 -4.053781E+03  7.820584E+04  4.044010E+04 -6.652829E+04 -1.742110E-09 -2.203486E-08
       108  17  2.731143E+03  1.379935E+05  3.842237E+04 -6.709704E+04  8.187631E-10  4.371904E-08
       108  18  2.158027E+04  2.032780E+05  5.245829E+04 -7.964620E+04  1.697034E-09  1.009325E-07
       108  19  3.138005E+04  2.283223E+05  6.670622E+04 -8.131522E+04 -4.254028E+03 -2.095632E+04
       108  20  8.537385E+03  1.630165E+05  4.234283E+04 -6.878449E+04 -8.983824E+02 -6.288023E+02
       108  21 -2.199639E+03  1.032492E+05  3.420057E+04 -6.823400E+04  2.517803E+03  1.969701E+04
       108  22  1.366335E+04  1.532618E+05  5.357430E+04 -7.392124E+04 -4.222383E+03 -2.777091E+04
       108  23  5.634282E+03  1.505050E+05  4.038271E+04 -6.794075E+04 -8.659064E+02 -7.564434E+03
       108  24  9.690322E+03  1.532624E+05  4.332942E+04 -7.393986E+04  2.550694E+03  1.264225E+04
       108  25 -4.053441E+03  7.820713E+04  4.044239E+04 -6.652817E+04 -4.190898E+03 -3.458471E+04
       108  26  2.731200E+03  1.379937E+05  3.842277E+04 -6.709703E+04 -8.334488E+02 -1.449993E+04
       108  27  2.158029E+04  2.032781E+05  5.245837E+04 -7.964619E+04  2.583713E+03  5.586935E+03
       109   1 -1.016521E+04  6.701041E+04  3.358573E+04 -7.522510E+04 -4.778822E+03 -2.697648E+04
       109   2  3.415386E+03 -5.462784E+03  4.804082E+04 -2.287939E+04 -5.742337E+03 -5.699803E+04
       109   3  8.404283E+04 -5.738162E+04  9.877899E+04  1.797256E+04 -1.692941E+03 -8.699319E+04
       109   4  1.103610E+04  1.569862E+05  4.971089E+04 -7.388221E+04 -4.812479E+03 -1.979185E+04
       109   5  4.019607E+04  1.458432E+05  7.817953E+04 -6.784369E+04 -5.725026E+03 -5.981565E+04
       109   6  1.381209E+05  1.569732E+05  1.498692E+05 -7.329524E+04 -1.620753E+03 -9.981635E+04
       109   7  3.223701E+04  2.469701E+05  6.583594E+04 -7.253912E+04 -4.846103E+03 -1.260621E+04
       109   8  7.698287E+04  2.971753E+05  1.083182E+05 -1.128192E+05 -5.707309E+03 -6.263394E+04
       109   9  1.922268E+05  3.713882E+05  2.009612E+05 -1.645947E+05 -1.544810E+03 -1.126439E+05
       109  10 -1.016543E+04  6.700962E+04  3.358432E+04 -7.522521E+04  4.949646E-10  1.049052E-07
       109  11  3.414479E+03 -5.466282E+03  4.803465E+04 -2.287966E+04  9.243237E-10  4.469284E-08
       109  12  8.404079E+04 -5.738975E+04  9.876476E+04  1.797244E+04  2.045651E-09 -2.480110E-08
       109  13  1.103597E+04  1.569858E+05  4.971011E+04 -7.388229E+04 -4.836229E-10 -1.400376E-09
       109  14  4.019507E+04  1.458393E+05  7.817275E+04 -6.784397E+04  1.778699E-09 -1.155507E-10
       109  15  1.381182E+05  1.569625E+05  1.498505E+05 -7.329537E+04 -1.568803E-09 -1.471438E-09
       109  16  3.223694E+04  2.469699E+05  6.583560E+04 -7.253917E+04  2.001861E-09 -1.050794E-07
       109  17  7.698178E+04  2.971711E+05  1.083108E+05 -1.128194E+05  1.185619E-09 -4.053016E-08
       109  18  1.922234E+05  3.713746E+05  2.009374E+05 -1.645949E+05  1.261936E-10  2.463009E-08
       109  19 -1.016521E+04  6.701041E+04  3.358573E+04 -7.522510E+04  4.778822E+03  2.697648E+04
       109  20  3.415386E+03 -5.462784E+03  4.804082E+04 -2.287939E+04  5.742337E+03  5.699803E+04
       109  21  8.404283E+04 -5.738162E+04  9.877899E+04  1.797256E+04  1.692941E+03  8.699319E+04
       109  22  1.103610E+04  1.569862E+05  4.971089E+04 -7.388221E+04  4.812479E+03  1.979185E+04
       109  23  4.019607E+04  1.458432E+05  7.817953E+04 -6.784369E+04  5.725026E+03  5.981565E+04
       109  24  1.381209E+05  1.569732E+05  1.498692E+05 -7.329524E+04  1.620753E+03  9.981635E+04
       109  25  3.223701E+04  2.469701E+05  6.583594E+04 -7.253912E+04  4.846103E+03  1.260621E+04
       109  26  7.698287E+04  2.971753E+05  1.083182E+05 -1.128192E+05  5.707309E+03  6.263394E+04
       109  27  1.922268E+05  3.713882E+05  2.009612E+05 -1.645947E+05  1.544810E+03  1.126439E+05
       110   1 -5.394700E+06 -1.718877E+06 -1.127687E+06 -1.859440E+06 -5.535188E+05 -1.994601E+05
       110   2 -5.254894E+06 -9.166499E+05 -6.167026E+05 -1.981013E+06 -3.597618E+05 -1.041332E+05
       110   3 -5.435313E+06 -9.314008E+05 -4.774479E+05 -1.902715E+06 -1.581938E+05 -2.937951E+04
       110   4 -4.510215E+06 -1.229162E+06 -8.539200E+05 -1.462300E+06 -5.429581E+05 -1.956198E+05
       110   5 -4.306027E+06 -5.145430E+05 -3.527909E+05 -1.678431E+06 -3.567681E+05 -1.030322E+05
       110   6 -4.420104E+06 -6.146857E+05 -2.169422E+05 -1.694834E+06 -1.627523E+05 -3.108473E+04
       110   7 -3.624907E+06 -7.390927E+05 -5.802289E+05 -1.064557E+06 -5.323802E+05 -1.917662E+05
       110   8 -3.356279E+06 -1.123169E+05 -8.896389E+04 -1.375406E+06 -3.537689E+05 -1.019287E+05
       110   9 -3.403893E+06 -2.979805E+05  4.348279E+04 -1.486680E+06 -1.673188E+05 -3.279176E+04
       110  10 -5.395042E+06 -1.719003E+06 -1.128344E+06 -1.859529E+06  3.583492E-09  4.190520E-10
       110  11 -5.255037E+06 -9.166968E+05 -6.169688E+05 -1.981043E+06 -2.224868E-09  3.438460E-10
       110  12 -5.435340E+06 -9.314085E+05 -4.774970E+05 -1.902718E+06 -1.152930E-09 -1.072331E-09
       110  13 -4.510544E+06 -1.229284E+06 -8.545510E+05 -1.462386E+06 -2.249816E-09 -1.038240E-09
       110  14 -4.306168E+06 -5.145890E+05 -3.530521E+05 -1.678461E+06 -2.765525E-10 -3.535478E-09
       110  15 -4.420133E+06 -6.146939E+05 -2.169942E+05 -1.694838E+06 -3.203487E-09  4.179890E-10
       110  16 -3.625223E+06 -7.392090E+05 -5.808345E+05 -1.064639E+06 -5.743836E-10 -1.059399E-09
       110  17 -3.356417E+06 -1.123620E+05 -8.922023E+04 -1.375435E+06 -4.640029E-10 -2.889246E-09
       110  18 -3.403923E+06 -2.979892E+05  4.342782E+04 -1.486684E+06  1.040566E-09  1.221116E-09
       110  19 -5.394700E+06 -1.718877E+06 -1.127687E+06 -1.859440E+06  5.535188E+05  1.994601E+05
       110  20 -5.254894E+06 -9.166499E+05 -6.167026E+05 -1.981013E+06  3.597618E+05  1.041332E+05
       110  21 -5.435313E+06 -9.314008E+05 -4.774479E+05 -1.902715E+06  1.581938E+05  2.937951E+04
       110  22 -4.510215E+06 -1.229162E+06 -8.539200E+05 -1.462300E+06  5.429581E+05  1.956198E+05
       110  23 -4.306027E+06 -5.145430E+05 -3.527909E+05 -1.678431E+06  3.567681E+05  1.030322E+05
       110  24 -4.420104E+06 -6.146857E+05 -2.169422E+05 -1.694834E+06  1.627523E+05  3.108473E+04
       110  25 -3.624907E+06 -7.390927E+05 -5.802289E+05 -1.064557E+06  5.323802E+05  1.917662E+05
       110  26 -3.356279E+06 -1.123169E+05 -8.896389E+04 -1.375406E+06  3.537689E+05  1.019287E+05
       110  27 -3.403893E+06 -2.979805E+05  4.348279E+04 -1.486680E+06  1.673188E+05  3.279176E+04
       111   1 -5.282347E+06 -1.069659E+06 -4.226509E+05 -1.909298E+06 -1.305116E+05 -2.300189E+04
       111   2 -5.237133E+06 -9.388100E+05 -3.158729E+05 -1.894756E+06 -8.619338E+04 -5.753518E+03
       111   3 -5.201968E+06 -9.401144E+05 -2.694727E+05 -1.891121E+06 -4.088398E+04  8.869777E+03
       111   4 -4.387763E+06 -7.130073E+05 -1.774002E+05 -1.647052E+06 -1.299678E+05 -2.280386E+04
       111   5 -4.377370E+06 -6.090594E+05 -8.315585E+04 -1.655884E+06 -8.658404E+04 -5.903966E+03
       111   6 -4.376784E+06 -6.369868E+05 -4.847568E+04 -1.675636E+06 -4.221261E+04  8.369090E+03
       111   7 -3.492400E+06 -3.562835E+05  6.777748E+04 -1.384452E+06 -1.294230E+05 -2.260540E+04
       111   8 -3.516889E+06 -2.792590E+05  1.494950E+05 -1.416709E+06 -8.697522E+04 -6.054615E+03
       111   9 -3.550940E+06 -3.338286E+05  1.724615E+05 -1.459894E+06 -4.354317E+04  7.867728E+03
       111  10 -5.282365E+06 -1.069664E+06 -4.226842E+05 -1.909301E+06  1.030988E-09  8.385565E-10
       111  11 -5.237141E+06 -9.388121E+05 -3.158870E+05 -1.894756E+06  1.398639E-09  2.466591E-10
       111  12 -5.201970E+06 -9.401149E+05 -2.694760E+05 -1.891121E+06  3.518886E-09 -1.451712E-11
       111  13 -4.387782E+06 -7.130124E+05 -1.774332E+05 -1.647054E+06 -1.850648E-09  1.110335E-09
       111  14 -4.377378E+06 -6.090615E+05 -8.317010E+04 -1.655885E+06 -6.711084E-10  1.256880E-10
       111  15 -4.376786E+06 -6.369873E+05 -4.847918E+04 -1.675635E+06 -7.117845E-11  2.678307E-10
       111  16 -3.492418E+06 -3.562886E+05  6.774484E+04 -1.384454E+06 -3.358698E-09  1.038550E-09
       111  17 -3.516897E+06 -2.792610E+05  1.494807E+05 -1.416710E+06 -2.584853E-09  1.303374E-10
       111  18 -3.550942E+06 -3.338292E+05  1.724578E+05 -1.459894E+06 -5.037098E-10  7.712047E-10
       111  19 -5.282347E+06 -1.069659E+06 -4.226509E+05 -1.909298E+06  1.305116E+05  2.300189E+04
       111  20 -5.237133E+06 -9.388100E+05 -3.158729E+05 -1.894756E+06  8.619338E+04  5.753518E+03
       111  21 -5.201968E+06 -9.401144E+05 -2.694727E+05 -1.891121E+06  4.088398E+04 -8.869777E+03
       111  22 -4.387763E+06 -7.130073E+05 -1.774002E+05 -1.647052E+06  1.299678E+05  2.280386E+04
       111  23 -4.377370E+06 -6.090594E+05 -8.315585E+04 -1.655884E+06  8.658404E+04  5.903966E+03
       111  24 -4.376784E+06 -6.369868E+05 -4.847568E+04 -1.675636E+06  4.221261E+04 -8.369090E+03
       111  25 -3.492400E+06 -3.562835E+05  6.777748E+04 -1.384452E+06  1.294230E+05  2.260540E+04
       111  26 -3.516889E+06 -2.792590E+05  1.494950E+05 -1.416709E+06  8.697522E+04  6.054615E+03
       111  27 -3.550940E+06 -3.338286E+05  1.724615E+05 -1.459894E+06  4.354317E+04 -7.867728E+03
       112   1 -5.075882E+06 -9.210117E+05 -2.289104E+05 -1.867378E+06 -3.377239E+04  9.641538E+03
       112   2 -5.029726E+06 -8.582551E+05 -1.917090E+05 -1.822266E+06 -2.272083E+04  1.110305E+04
       112   3 -4.939396E+06 -8.570955E+05 -1.652836E+05 -1.830550E+06 -1.142830E+04  1.190979E+04
       112   4 -4.369197E+06 -6.523491E+05 -3.821515E+04 -1.673421E+06 -3.456303E+04  9.343034E+03
       112   5 -4.390650E+06 -6.168599E+05 -1.944655E+04 -1.648494E+06 -2.374842E+04  1.071677E+04
       112   6 -4.367880E+06 -6.429083E+05 -1.125471E+04 -1.676962E+06 -1.269416E+04  1.143556E+04
       112   7 -3.662030E+06 -3.836560E+05  1.524351E+05 -1.479263E+06 -3.535465E+04  9.044160E+03
       112   8 -3.751178E+06 -3.754406E+05  1.527796E+05 -1.474559E+06 -2.477718E+04  1.033005E+04
       112   9 -3.796047E+06 -4.287028E+05  1.427454E+05 -1.523246E+06 -1.396132E+04  1.096086E+04
       112  10 -5.075883E+06 -9.210121E+05 -2.289127E+05 -1.867378E+06  1.772980E-09  4.171831E-10
       112  11 -5.029727E+06 -8.582554E+05 -1.917103E+05 -1.822266E+06  2.926071E-10 -4.583139E-10
       112  12 -4.939396E+06 -8.570957E+05 -1.652841E+05 -1.830550E+06 -3.418977E-09  5.039149E-10
       112  13 -4.369199E+06 -6.523495E+05 -3.821757E+04 -1.673421E+06  1.990234E-09  1.398484E-10
       112  14 -4.390651E+06 -6.168602E+05 -1.944783E+04 -1.648494E+06 -3.256073E-09 -4.700778E-10
       112  15 -4.367880E+06 -6.429085E+05 -1.125526E+04 -1.676962E+06 -7.224614E-10  2.403040E-09
       112  16 -3.662031E+06 -3.836564E+05  1.524325E+05 -1.479263E+06 -1.513845E-09  6.125680E-10
       112  17 -3.751178E+06 -3.754408E+05  1.527782E+05 -1.474559E+06 -1.673871E-09 -7.503520E-10
       112  18 -3.796047E+06 -4.287030E+05  1.427448E+05 -1.523246E+06 -1.332492E-09  1.246453E-09
       112  19 -5.075882E+06 -9.210117E+05 -2.289104E+05 -1.867378E+06  3.377239E+04 -9.641538E+03
       112  20 -5.029726E+06 -8.582551E+05 -1.917090E+05 -1.822266E+06  2.272083E+04 -1.110305E+04
       112  21 -4.939396E+06 -8.570955E+05 -1.652836E+05 -1.830550E+06  1.142830E+04 -1.190979E+04
       112  22 -4.369197E+06 -6.523491E+05 -3.821515E+04 -1.673421E+06  3.456303E+04 -9.343034E+03
       112  23 -4.390650E+06 -6.168599E+05 -1.944655E+04 -1.648494E+06  2.374842E+04 -1.071677E+04
       112  24 -4.367880E+06 -6.429083E+05 -1.125471E+04 -1.676962E+06  1.269416E+04 -1.143556E+04
       112  25 -3.662030E+06 -3.836560E+05  1.524351E+05 -1.479263E+06  3.535465E+04 -9.044160E+03
       112  26 -3.751178E+06 -3.754406E+05  1.527796E+05 -1.474559E+06  2.477718E+04 -1.033005E+04
       112  27 -3.796047E+06 -4.287028E+05  1.427454E+05 -1.523246E+06  1.396132E+04 -1.096086E+04
       113   1 -4.785392E+06 -8.052456E+05 -1.219017E+05 -1.793050E+06 -9.141882E+03  1.060049E+04
       113   2 -4.730596E+06 -7.416127E+05 -9.585187E+04 -1.735550E+06 -5.099196E+03  8.381827E+03
       113   3 -4.616218E+06 -7.400668E+05 -7.232611E+04 -1.747205E+06 -9.638443E+02  5.905843E+03
       113   4 -4.364946E+06 -6.468088E+05 -8.927280E+03 -1.679025E+06 -1.033756E+04  1.015322E+04
       113   5 -4.394624E+06 -6.151755E+05 -5.395544E+03 -1.644655E+06 -6.390597E+03  7.899479E+03
       113   6 -4.364708E+06 -6.456066E+05 -4.309686E+03 -1.679441E+06 -2.351443E+03  5.388356E+03
       113   7 -3.944328E+06 -4.883616E+05  1.040316E+05 -1.564930E+06 -1.153413E+04  9.705619E+03
       113   8 -4.058543E+06 -4.887324E+05  8.505041E+04 -1.553717E+06 -7.682765E+03  7.416845E+03
       113   9 -4.113139E+06 -5.511437E+05  6.370049E+04 -1.611652E+06 -3.739652E+03  4.870642E+03
       113  10 -4.785392E+06 -8.052457E+05 -1.219020E+05 -1.793050E+06 -2.722901E-11  3.119334E-09
       113  11 -4.730596E+06 -7.416127E+05 -9.585205E+04 -1.735550E+06 -3.663363E-10  1.927401E-10
       113  12 -4.616218E+06 -7.400668E+05 -7.232618E+04 -1.747205E+06 -3.884753E-10  1.835543E-09
       113  13 -4.364946E+06 -6.468090E+05 -8.927674E+03 -1.679025E+06 -2.732731E-10  6.628056E-10
       113  14 -4.394624E+06 -6.151756E+05 -5.395738E+03 -1.644655E+06  2.932078E-10  1.417999E-09
       113  15 -4.364708E+06 -6.456066E+05 -4.309751E+03 -1.679441E+06  2.771117E-09  2.595197E-09
       113  16 -3.944328E+06 -4.883617E+05  1.040312E+05 -1.564930E+06 -3.997661E-10  1.913177E-09
       113  17 -4.058543E+06 -4.887324E+05  8.505019E+04 -1.553717E+06  2.375250E-09  1.743870E-09
       113  18 -4.113139E+06 -5.511437E+05  6.370042E+04 -1.611652E+06 -4.799507E-10 -6.627530E-11
       113  19 -4.785392E+06 -8.052456E+05 -1.219017E+05 -1.793050E+06  9.141882E+03 -1.060049E+04
       113  20 -4.730596E+06 -7.416127E+05 -9.585187E+04 -1.735550E+06  5.099196E+03 -8.381827E+03
       113  21 -4.616218E+06 -7.400668E+05 -7.232611E+04 -1.747205E+06  9.638443E+02 -5.905843E+03
       113  22 -4.364946E+06 -6.468088E+05 -8.927280E+03 -1.679025E+06  1.033756E+04 -1.015322E+04
       113  23 -4.394624E+06 -6.151755E+05 -5.395544E+03 -1.644655E+06  6.390597E+03 -7.899479E+03
       113  24 -4.364708E+06 -6.456066E+05 -4.309686E+03 -1.679441E+06  2.351443E+03 -5.388356E+03
       113  25 -3.944328E+06 -4.883616E+05  1.040316E+05 -1.564930E+06  1.153413E+04 -9.705619E+03
       113  26 -4.058543E+06 -4.887324E+05  8.505041E+04 -1.553717E+06  7.682765E+03 -7.416845E+03
       113  27 -4.113139E+06 -5.511437E+05  6.370049E+04 -1.611652E+06  3.739652E+03 -4.870642E+03
       114   1 -4.444150E+06 -6.767197E+05 -2.562740E+04 -1.702295E+06  5.416617E+02  4.035664E+03
       114   2 -4.385888E+06 -6.103809E+05 -2.871673E+03 -1.640823E+06  4.657689E+03  1.440835E+03
       114   3 -4.264619E+06 -6.099337E+05  1.732219E+04 -1.652944E+06  8.764362E+03 -1.127004E+03
       114   4 -4.363910E+06 -6.464425E+05 -4.339772E+03 -1.680415E+06 -8.399487E+02  3.520696E+03
       114   5 -4.395469E+06 -6.139961E+05 -5.452210E+03 -1.643426E+06  3.286161E+03  9.295715E+02
       114   6 -4.364032E+06 -6.474448E+05 -9.134316E+03 -1.680033E+06  7.402464E+03 -1.634696E+03
       114   7 -4.283663E+06 -6.161647E+05  1.694747E+04 -1.658533E+06 -2.221766E+03  3.005649E+03
       114   8 -4.405050E+06 -6.176114E+05 -8.032764E+03 -1.646029E+06  1.914649E+03  4.183135E+02
       114   9 -4.463436E+06 -6.849555E+05 -3.559182E+04 -1.707119E+06  6.040799E+03 -2.142300E+03
       114  10 -4.444150E+06 -6.767197E+05 -2.562743E+04 -1.702295E+06  8.005215E-10  1.578030E-09
       114  11 -4.385888E+06 -6.103809E+05 -2.871718E+03 -1.640823E+06  4.595779E-09  2.804278E-09
       114  12 -4.264619E+06 -6.099337E+05  1.732204E+04 -1.652944E+06 -1.083422E-09  5.395352E-10
       114  13 -4.363910E+06 -6.464425E+05 -4.339797E+03 -1.680415E+06 -9.566442E-10 -1.000204E-09
       114  14 -4.395469E+06 -6.139961E+05 -5.452232E+03 -1.643426E+06 -3.046956E-10  1.157311E-09
       114  15 -4.364032E+06 -6.474449E+05 -9.134424E+03 -1.680033E+06  9.461815E-10 -1.563008E-10
       114  16 -4.283663E+06 -6.161648E+05  1.694744E+04 -1.658533E+06 -3.044134E-09 -9.574297E-10
       114  17 -4.405050E+06 -6.176114E+05 -8.032771E+03 -1.646029E+06 -2.417117E-09  2.250722E-09
       114  18 -4.463436E+06 -6.849555E+05 -3.559189E+04 -1.707119E+06 -1.346090E-10 -2.292707E-09
       114  19 -4.444150E+06 -6.767197E+05 -2.562740E+04 -1.702295E+06 -5.416617E+02 -4.035664E+03
       114  20 -4.385888E+06 -6.103809E+05 -2.871673E+03 -1.640823E+06 -4.657689E+03 -1.440835E+03
       114  21 -4.264619E+06 -6.099337E+05  1.732219E+04 -1.652944E+06 -8.764362E+03  1.127004E+03
       114  22 -4.363910E+06 -6.464425E+05 -4.339772E+03 -1.680415E+06  8.399487E+02 -3.520696E+03
       114  23 -4.395469E+06 -6.139961E+05 -5.452210E+03 -1.643426E+06 -3.286161E+03 -9.295715E+02
       114  24 -4.364032E+06 -6.474448E+05 -9.134316E+03 -1.680033E+06 -7.402464E+03  1.634696E+03
       114  25 -4.283663E+06 -6.161647E+05  1.694747E+04 -1.658533E+06  2.221766E+03 -3.005649E+03
       114  26 -4.405050E+06 -6.176114E+05 -8.032764E+03 -1.646029E+06 -1.914649E+03 -4.183135E+02
       114  27 -4.463436E+06 -6.849555E+05 -3.559182E+04 -1.707119E+06 -6.040799E+03  2.142300E+03
       115   1 -4.094993E+06 -5.445270E+05  6.132833E+04 -1.607931E+06  1.132413E+04 -2.615382E+03
       115   2 -4.039822E+06 -4.802621E+05  7.519881E+04 -1.548947E+06  2.271202E+04 -2.363661E+03
       115   3 -3.930566E+06 -4.887782E+05  7.811006E+04 -1.556017E+06  3.394180E+04 -1.673888E+03
       115   4 -4.365509E+06 -6.451185E+05 -1.158157E+04 -1.679813E+06  9.905989E+03 -3.144329E+03
       115   5 -4.393266E+06 -6.136137E+05 -1.998919E+04 -1.644975E+06  2.145399E+04 -2.833675E+03
       115   6 -4.366981E+06 -6.549292E+05 -3.948852E+04 -1.676196E+06  3.284241E+04 -2.085426E+03
       115   7 -4.635952E+06 -7.457055E+05 -8.449733E+04 -1.751666E+06  8.488546E+03 -3.673024E+03
       115   8 -4.746589E+06 -7.469576E+05 -1.151880E+05 -1.740954E+06  2.019675E+04 -3.303391E+03
       115   9 -4.803213E+06 -8.210686E+05 -1.571045E+05 -1.796299E+06  3.174385E+04 -2.496640E+03
       115  10 -4.094993E+06 -5.445271E+05  6.132808E+04 -1.607931E+06  1.081765E-09  1.256522E-09
       115  11 -4.039822E+06 -4.802623E+05  7.519782E+04 -1.548947E+06  3.042019E-09  3.992796E-09
       115  12 -3.930568E+06 -4.887785E+05  7.810788E+04 -1.556017E+06  1.304991E-09  3.804793E-09
       115  13 -4.365509E+06 -6.451186E+05 -1.158177E+04 -1.679813E+06 -1.817021E-10  6.823050E-10
       115  14 -4.393267E+06 -6.136139E+05 -1.999007E+04 -1.644975E+06 -1.636482E-09  9.378014E-10
       115  15 -4.366983E+06 -6.549295E+05 -3.949057E+04 -1.676196E+06 -1.818588E-10  1.409487E-09
       115  16 -4.635952E+06 -7.457056E+05 -8.449749E+04 -1.751666E+06 -5.292486E-10 -7.314398E-12
       115  17 -4.746590E+06 -7.469577E+05 -1.151888E+05 -1.740954E+06 -1.363325E-09 -1.942971E-10
       115  18 -4.803214E+06 -8.210688E+05 -1.571064E+05 -1.796298E+06  7.492708E-11  1.565341E-09
       115  19 -4.094993E+06 -5.445270E+05  6.132833E+04 -1.607931E+06 -1.132413E+04  2.615382E+03
       115  20 -4.039822E+06 -4.802621E+05  7.519881E+04 -1.548947E+06 -2.271202E+04  2.363661E+03
       115  21 -3.930566E+06 -4.887782E+05  7.811006E+04 -1.556017E+06 -3.394180E+04  1.673888E+03
       115  22 -4.365509E+06 -6.451185E+05 -1.158157E+04 -1.679813E+06 -9.905989E+03  3.144329E+03
       115  23 -4.393266E+06 -6.136137E+05 -1.998919E+04 -1.644975E+06 -2.145399E+04  2.833675E+03
       115  24 -4.366981E+06 -6.549292E+05 -3.948852E+04 -1.676196E+06 -3.284241E+04  2.085426E+03
       115  25 -4.635952E+06 -7.457055E+05 -8.449733E+04 -1.751666E+06 -8.488546E+03  3.673024E+03
       115  26 -4.746589E+06 -7.469576E+05 -1.151880E+05 -1.740954E+06 -2.019675E+04  3.303391E+03
       115  27 -4.803213E+06 -8.210686E+05 -1.571045E+05 -1.796299E+06 -3.174385E+04  2.496640E+03
       116   1 -3.780608E+06 -4.261702E+05  1.080000E+05 -1.528667E+06  4.250689E+04 -8.875285E+02
       116   2 -3.730825E+06 -3.541811E+05  9.013515E+04 -1.469311E+06  8.778143E+04  1.266376E+04
       116   3 -3.676268E+06 -4.338167E+05  1.129376E+04 -1.439503E+06  1.321784E+05  2.858150E+04
       116   4 -4.373518E+06 -6.405295E+05 -5.012310E+04 -1.680067E+06  4.090437E+04 -1.487124E+03
       116   5 -4.381477E+06 -6.039784E+05 -8.587645E+04 -1.650586E+06  8.703064E+04  1.238025E+04
       116   6 -4.384881E+06 -7.192981E+05 -1.833370E+05 -1.650653E+06  1.322743E+05  2.861111E+04
       116   7 -4.966087E+06 -8.548756E+05 -2.082768E+05 -1.831339E+06  3.930354E+04 -2.086151E+03
       116   8 -5.031717E+06 -8.537466E+05 -2.619259E+05 -1.831688E+06  8.628068E+04  1.209706E+04
       116   9 -5.093004E+06 -1.004730E+06 -3.780136E+05 -1.861576E+06  1.323700E+05  2.864062E+04
       116  10 -3.780610E+06 -4.261707E+05  1.079966E+05 -1.528667E+06  2.513713E-09  3.359574E-09
       116  11 -3.730833E+06 -3.541834E+05  9.012027E+04 -1.469312E+06 -2.091785E-09  3.929271E-10
       116  12 -3.676287E+06 -4.338223E+05  1.125916E+04 -1.439506E+06 -3.928133E-09  5.416830E-10
       116  13 -4.373520E+06 -6.405300E+05 -5.012627E+04 -1.680067E+06 -3.781843E-10  1.403079E-09
       116  14 -4.381485E+06 -6.039806E+05 -8.589109E+04 -1.650587E+06 -4.579919E-10  2.610627E-10
       116  15 -4.384900E+06 -7.193037E+05 -1.833717E+05 -1.650656E+06 -1.857624E-09  2.096055E-10
       116  16 -4.966089E+06 -8.548760E+05 -2.082797E+05 -1.831339E+06 -2.969396E-09  8.864601E-10
       116  17 -5.031725E+06 -8.537488E+05 -2.619402E+05 -1.831689E+06 -5.035491E-09 -2.455529E-09
       116  18 -5.093023E+06 -1.004736E+06 -3.780484E+05 -1.861579E+06  9.882875E-10  2.511549E-10
       116  19 -3.780608E+06 -4.261702E+05  1.080000E+05 -1.528667E+06 -4.250689E+04  8.875285E+02
       116  20 -3.730825E+06 -3.541811E+05  9.013515E+04 -1.469311E+06 -8.778143E+04 -1.266376E+04
       116  21 -3.676268E+06 -4.338167E+05  1.129376E+04 -1.439503E+06 -1.321784E+05 -2.858150E+04
       116  22 -4.373518E+06 -6.405295E+05 -5.012310E+04 -1.680067E+06 -4.090437E+04  1.487124E+03
       116  23 -4.381477E+06 -6.039784E+05 -8.587645E+04 -1.650586E+06 -8.703064E+04 -1.238025E+04
       116  24 -4.384881E+06 -7.192981E+05 -1.833370E+05 -1.650653E+06 -1.322743E+05 -2.861111E+04
       116  25 -4.966087E+06 -8.548756E+05 -2.082768E+05 -1.831339E+06 -3.930354E+04  2.086151E+03
       116  26 -5.031717E+06 -8.537466E+05 -2.619259E+05 -1.831688E+06 -8.628068E+04 -1.209706E+04
       116  27 -5.093004E+06 -1.004730E+06 -3.780136E+05 -1.861576E+06 -1.323700E+05 -2.864062E+04
       117   1 -3.535801E+06 -3.559086E+05 -4.943774E+02 -1.533218E+06  1.710518E+05  3.850338E+04
       117   2 -3.467787E+06 -1.440806E+05 -1.297454E+05 -1.399033E+06  3.647985E+05  1.087298E+05
       117   3 -3.706296E+06 -7.926371E+05 -6.303053E+05 -1.082727E+06  5.511908E+05  1.985497E+05
       117   4 -4.417423E+06 -6.184929E+05 -2.241509E+05 -1.700868E+06  1.662981E+05  3.673849E+04
       117   5 -4.309169E+06 -5.050233E+05 -3.643559E+05 -1.672445E+06  3.672083E+05  1.096033E+05
       117   6 -4.509352E+06 -1.254133E+06 -8.819810E+05 -1.461772E+06  5.607696E+05  2.019896E+05
       117   7 -5.298288E+06 -8.810916E+05 -4.478662E+05 -1.868334E+06  1.615517E+05  3.497500E+04
       117   8 -5.149856E+06 -8.658636E+05 -5.990326E+05 -1.945500E+06  3.696141E+05  1.104749E+05
       117   9 -5.311712E+06 -1.715286E+06 -1.133716E+06 -1.840285E+06  5.703343E+05  2.054179E+05
       117  10 -3.535833E+06 -3.559182E+05 -5.525264E+02 -1.533223E+06 -1.561031E-09  1.095436E-09
       117  11 -3.467934E+06 -1.441294E+05 -1.300195E+05 -1.399065E+06 -1.894319E-10  1.824982E-10
       117  12 -3.706634E+06 -7.927619E+05 -6.309545E+05 -1.082816E+06 -4.166207E-10  4.812568E-10
       117  13 -4.417453E+06 -6.185018E+05 -2.242058E+05 -1.700873E+06 -3.531841E-09  3.820261E-10
       117  14 -4.309318E+06 -5.050728E+05 -3.646341E+05 -1.672478E+06 -3.806371E-09 -1.206859E-10
       117  15 -4.509703E+06 -1.254262E+06 -8.826540E+05 -1.461864E+06 -1.567183E-09  1.318978E-10
       117  16 -5.298317E+06 -8.811001E+05 -4.479180E+05 -1.868339E+06 -6.786266E-10  6.480366E-11
       117  17 -5.150007E+06 -8.659140E+05 -5.993149E+05 -1.945533E+06 -1.826446E-09  8.537038E-10
       117  18 -5.312075E+06 -1.715420E+06 -1.134414E+06 -1.840380E+06  5.510906E-10  1.381861E-10
       117  19 -3.535801E+06 -3.559086E+05 -4.943774E+02 -1.533218E+06 -1.710518E+05 -3.850338E+04
       117  20 -3.467787E+06 -1.440806E+05 -1.297454E+05 -1.399033E+06 -3.647985E+05 -1.087298E+05
       117  21 -3.706296E+06 -7.926371E+05 -6.303053E+05 -1.082727E+06 -5.511908E+05 -1.985497E+05
       117  22 -4.417423E+06 -6.184929E+05 -2.241509E+05 -1.700868E+06 -1.662981E+05 -3.673849E+04
       117  23 -4.309169E+06 -5.050233E+05 -3.643559E+05 -1.672445E+06 -3.672083E+05 -1.096033E+05
       117  24 -4.509352E+06 -1.254133E+06 -8.819810E+05 -1.461772E+06 -5.607696E+05 -2.019896E+05
       117  25 -5.298288E+06 -8.810916E+05 -4.478662E+05 -1.868334E+06 -1.615517E+05 -3.497500E+04
       117  26 -5.149856E+06 -8.658636E+05 -5.990326E+05 -1.945500E+06 -3.696141E+05 -1.104749E+05
       117  27 -5.311712E+06 -1.715286E+06 -1.133716E+06 -1.840285E+06 -5.703343E+05 -2.054179E+05
       118   1 -7.652574E+05  1.192599E+05  1.811079E+05  4.300579E+04  1.878530E+05  3.770897E+03
       118   2 -7.786178E+05 -1.323996E+05  3.024960E+04  1.349822E+04  1.249077E+05  1.053279E+04
       118   3 -7.119337E+05 -9.809986E+04 -8.017292E+03 -4.056817E+04  6.196761E+04  9.328782E+03
       118   4 -3.595752E+05  2.203572E+05  2.816143E+05 -1.476688E+04  1.923578E+05  3.758945E+03
       118   5 -3.998835E+05 -3.824461E+04  1.222211E+05 -2.347038E+03  1.261235E+05  1.053037E+04
       118   6 -3.596305E+05 -1.041651E+04  7.765222E+04 -1.448590E+04  5.989742E+04  9.329518E+03
       118   7  4.626403E+04  3.214547E+05  3.821105E+05 -7.257743E+04  1.968655E+05  3.746164E+03
       118   8 -2.101752E+04  5.590076E+04  2.141823E+05 -1.820203E+04  1.273399E+05  1.052788E+04
       118   9 -7.212474E+03  7.726025E+04  1.633131E+05  1.161121E+04  5.782606E+04  9.330080E+03
       118  10 -7.652953E+05  1.192504E+05  1.810414E+05  4.300522E+04 -3.826780E-10  5.217748E-10
       118  11 -7.786346E+05 -1.324039E+05  3.022004E+04  1.349716E+04  7.540787E-10 -2.609811E-10
       118  12 -7.119379E+05 -9.810098E+04 -8.024680E+03 -4.056863E+04  1.082147E-09 -8.628262E-10
       118  13 -3.596149E+05  2.203472E+05  2.815447E+05 -1.476747E+04 -1.733700E-11  3.877689E-10
       118  14 -3.999006E+05 -3.824900E+04  1.221910E+05 -2.348108E+03 -3.124092E-10 -9.343495E-10
       118  15 -3.596344E+05 -1.041756E+04  7.764532E+04 -1.448635E+04 -8.880321E-10 -5.662564E-10
       118  16  4.622242E+04  3.214443E+05  3.820376E+05 -7.257802E+04  7.712864E-10  7.099068E-11
       118  17 -2.103496E+04  5.589629E+04  2.141517E+05 -1.820311E+04 -1.153653E-09  5.172577E-10
       118  18 -7.216087E+03  7.725926E+04  1.633067E+05  1.161077E+04 -8.493312E-10 -6.566219E-10
       118  19 -7.652574E+05  1.192599E+05  1.811079E+05  4.300579E+04 -1.878530E+05 -3.770897E+03
       118  20 -7.786178E+05 -1.323996E+05  3.024960E+04  1.349822E+04 -1.249077E+05 -1.053279E+04
       118  21 -7.119337E+05 -9.809986E+04 -8.017292E+03 -4.056817E+04 -6.196761E+04 -9.328782E+03
       118  22 -3.595752E+05  2.203572E+05  2.816143E+05 -1.476688E+04 -1.923578E+05 -3.758945E+03
       118  23 -3.998835E+05 -3.824461E+04  1.222211E+05 -2.347038E+03 -1.261235E+05 -1.053037E+04
       118  24 -3.596305E+05 -1.041651E+04  7.765222E+04 -1.448590E+04 -5.989742E+04 -9.329518E+03
       118  25  4.626403E+04  3.214547E+05  3.821105E+05 -7.257743E+04 -1.968655E+05 -3.746164E+03
       118  26 -2.101752E+04  5.590076E+04  2.141823E+05 -1.820203E+04 -1.273399E+05 -1.052788E+04
       118  27 -7.212474E+03  7.726025E+04  1.633131E+05  1.161121E+04 -5.782606E+04 -9.330080E+03
       119   1 -6.804286E+05 -4.964346E+04 -1.071443E+04 -8.424542E+03  4.752975E+04  7.549138E+03
       119   2 -6.586132E+05 -7.383312E+04 -3.589301E+04 -6.393255E+02  3.146398E+04  7.257915E+03
       119   3 -6.259488E+05 -6.365030E+04 -4.197604E+04 -1.795776E+04  1.539769E+04  6.210410E+03
       119   4 -3.750925E+05  2.632670E+04  6.366385E+04 -1.470082E+04  4.758480E+04  7.548439E+03
       119   5 -3.805451E+05 -4.661313E+03  3.173920E+04 -2.142051E+03  3.120336E+04  7.257522E+03
       119   6 -3.750996E+05 -1.230702E+03  1.912271E+04 -1.468609E+04  1.482211E+04  6.210228E+03
       119   7 -6.967115E+04  1.022901E+05  1.380354E+05 -2.098021E+04  4.763987E+04  7.547739E+03
       119   8 -1.024064E+05  6.450480E+04  9.936582E+04 -3.645459E+03  3.094262E+04  7.257130E+03
       119   9 -1.241930E+05  6.118429E+04  8.021690E+04 -1.141309E+04  1.424630E+04  6.210040E+03
       119  10 -6.804310E+05 -4.964412E+04 -1.071879E+04 -8.424831E+03  2.375425E-09 -9.073670E-10
       119  11 -6.586143E+05 -7.383344E+04 -3.589497E+04 -6.395095E+02  1.172056E-09  1.440650E-09
       119  12 -6.259490E+05 -6.365040E+04 -4.197656E+04 -1.795784E+04 -9.007025E-10 -1.675958E-10
       119  13 -3.750949E+05  2.632603E+04  6.365949E+04 -1.470111E+04 -1.650004E-11 -4.537850E-10
       119  14 -3.805462E+05 -4.661631E+03  3.173728E+04 -2.142233E+03 -2.983775E-13  7.226167E-10
       119  15 -3.750999E+05 -1.230802E+03  1.912223E+04 -1.468616E+04 -1.499313E-09 -3.388235E-10
       119  16 -6.967360E+04  1.022895E+05  1.380310E+05 -2.098050E+04 -4.332695E-11  6.165884E-11
       119  17 -1.024074E+05  6.450449E+04  9.936392E+04 -3.645640E+03  6.868556E-11  6.530698E-11
       119  18 -1.241932E+05  6.118420E+04  8.021645E+04 -1.141316E+04 -1.901658E-10 -7.068030E-11
       119  19 -6.804286E+05 -4.964346E+04 -1.071443E+04 -8.424542E+03 -4.752975E+04 -7.549138E+03
       119  20 -6.586132E+05 -7.383312E+04 -3.589301E+04 -6.393255E+02 -3.146398E+04 -7.257915E+03
       119  21 -6.259488E+05 -6.365030E+04 -4.197604E+04 -1.795776E+04 -1.539769E+04 -6.210410E+03
       119  22 -3.750925E+05  2.632670E+04  6.366385E+04 -1.470082E+04 -4.758480E+04 -7.548439E+03
       119  23 -3.805451E+05 -4.661313E+03  3.173920E+04 -2.142051E+03 -3.120336E+04 -7.257522E+03
       119  24 -3.750996E+05 -1.230702E+03  1.912271E+04 -1.468609E+04 -1.482211E+04 -6.210228E+03
       119  25 -6.967115E+04  1.022901E+05  1.380354E+05 -2.098021E+04 -4.763987E+04 -7.547739E+03
       119  26 -1.024064E+05  6.450480E+04  9.936582E+04 -3.645459E+03 -3.094262E+04 -7.257130E+03
       119  27 -1.241930E+05  6.118429E+04  8.021690E+04 -1.141309E+04 -1.424630E+04 -6.210040E+03
       120   1 -5.798898E+05 -4.731704E+04 -3.418849E+04 -1.418533E+04  1.215899E+04  5.496818E+03
       120   2 -5.529637E+05 -4.410653E+04 -3.449927E+04 -1.904149E+03  8.121118E+03  4.528773E+03
       120   3 -5.244317E+05 -3.678544E+04 -3.114101E+04 -1.519044E+04  4.082582E+03  3.483756E+03
       120   4 -3.771562E+05  3.101669E+03  1.506216E+04 -1.479354E+04  1.178262E+04  5.496660E+03
       120   5 -3.779613E+05 -5.735223E+02  8.071117E+03 -2.009955E+03  7.712144E+03  4.528707E+03
       120   6 -3.771566E+05 -1.332576E+02  4.770778E+03 -1.479337E+04  3.641183E+03  3.483787E+03
       120   7 -1.743850E+05  5.351735E+04  6.430983E+04 -1.540194E+04  1.140612E+04  5.496504E+03
       120   8 -2.029309E+05  4.295723E+04  5.063929E+04 -2.115791E+03  7.303056E+03  4.528641E+03
       120   9 -2.298617E+05  3.651732E+04  4.068099E+04 -1.439620E+04  3.199680E+03  3.483817E+03
       120  10 -5.798900E+05 -4.731711E+04 -3.418882E+04 -1.418538E+04 -1.399245E-09 -5.880951E-10
       120  11 -5.529638E+05 -4.410657E+04 -3.449943E+04 -1.904178E+03  2.882432E-10  2.149170E-10
       120  12 -5.244318E+05 -3.678545E+04 -3.114107E+04 -1.519045E+04 -1.687537E-09  7.058939E-10
       120  13 -3.771564E+05  3.101599E+03  1.506184E+04 -1.479359E+04 -1.072547E-09 -6.852848E-10
       120  14 -3.779614E+05 -5.735603E+02  8.070967E+03 -2.009983E+03 -1.145395E-09  4.405896E-12
       120  15 -3.771567E+05 -1.332742E+02  4.770730E+03 -1.479338E+04 -2.215653E-09  5.587996E-10
       120  16 -1.743852E+05  5.351729E+04  6.430953E+04 -1.540199E+04  7.736534E-10 -6.357625E-10
       120  17 -2.029310E+05  4.295720E+04  5.063915E+04 -2.115818E+03 -1.115503E-09 -1.920371E-10
       120  18 -2.298618E+05  3.651731E+04  4.068095E+04 -1.439621E+04  1.315105E-09  6.070467E-10
       120  19 -5.798898E+05 -4.731704E+04 -3.418849E+04 -1.418533E+04 -1.215899E+04 -5.496818E+03
       120  20 -5.529637E+05 -4.410653E+04 -3.449927E+04 -1.904149E+03 -8.121118E+03 -4.528773E+03
       120  21 -5.244317E+05 -3.678544E+04 -3.114101E+04 -1.519044E+04 -4.082582E+03 -3.483756E+03
       120  22 -3.771562E+05  3.101669E+03  1.506216E+04 -1.479354E+04 -1.178262E+04 -5.496660E+03
       120  23 -3.779613E+05 -5.735223E+02  8.071117E+03 -2.009955E+03 -7.712144E+03 -4.528707E+03
       120  24 -3.771566E+05 -1.332576E+02  4.770778E+03 -1.479337E+04 -3.641183E+03 -3.483787E+03
       120  25 -1.743850E+05  5.351735E+04  6.430983E+04 -1.540194E+04 -1.140612E+04 -5.496504E+03
       120  26 -2.029309E+05  4.295723E+04  5.063929E+04 -2.115791E+03 -7.303056E+03 -4.528641E+03
       120  27 -2.298617E+05  3.651732E+04  4.068099E+04 -1.439620E+04 -3.199680E+03 -3.483817E+03
       121   1 -4.759318E+05 -2.411886E+04 -2.016695E+04 -1.479321E+04  3.302721E+03  2.863534E+03
       121   2 -4.480572E+05 -1.760124E+04 -1.502075E+04 -1.935944E+03  2.248170E+03  1.821515E+03
       121   3 -4.199269E+05 -1.057874E+04 -9.063325E+03 -1.489306E+04  1.193386E+03  7.705669E+02
       121   4 -3.774539E+05  3.602721E+02  3.703449E+03 -1.484824E+04  2.879813E+03  2.863604E+03
       121   5 -3.775815E+05 -7.098681E+01  2.122279E+03 -1.941182E+03  1.821458E+03  1.821621E+03
       121   6 -3.774536E+05  3.302703E+00  1.354911E+03 -1.484832E+04  7.629157E+02  7.707111E+02
       121   7 -2.789671E+05  2.483869E+04  2.757315E+04 -1.490328E+04  2.456839E+03  2.863675E+03
       121   8 -3.071013E+05  1.745890E+04  1.926495E+04 -1.946420E+03  1.394697E+03  1.821727E+03
       121   9 -3.349787E+05  1.058521E+04  1.177302E+04 -1.480357E+04  3.324158E+02  7.708552E+02
       121  10 -4.759318E+05 -2.411887E+04 -2.016699E+04 -1.479322E+04  1.722331E-09  3.937631E-10
       121  11 -4.480572E+05 -1.760125E+04 -1.502077E+04 -1.935948E+03  4.156043E-10 -1.548533E-10
       121  12 -4.199269E+05 -1.057874E+04 -9.063329E+03 -1.489306E+04  1.037733E-10 -1.242216E-10
       121  13 -3.774539E+05  3.602610E+02  3.703418E+03 -1.484825E+04 -9.485043E-10  5.446406E-10
       121  14 -3.775815E+05 -7.099126E+01  2.122266E+03 -1.941185E+03 -4.375740E-09 -7.523273E-10
       121  15 -3.774536E+05  3.301908E+00  1.354909E+03 -1.484832E+04 -3.055915E-09 -4.702919E-10
       121  16 -2.789671E+05  2.483868E+04  2.757312E+04 -1.490329E+04 -1.292455E-09 -7.322807E-13
       121  17 -3.071013E+05  1.745890E+04  1.926494E+04 -1.946422E+03 -3.796513E-09 -7.016872E-10
       121  18 -3.349787E+05  1.058521E+04  1.177301E+04 -1.480357E+04 -5.693867E-10 -5.190092E-10
       121  19 -4.759318E+05 -2.411886E+04 -2.016695E+04 -1.479321E+04 -3.302721E+03 -2.863534E+03
       121  20 -4.480572E+05 -1.760124E+04 -1.502075E+04 -1.935944E+03 -2.248170E+03 -1.821515E+03
       121  21 -4.199269E+05 -1.057874E+04 -9.063325E+03 -1.489306E+04 -1.193386E+03 -7.705669E+02
       121  22 -3.774539E+05  3.602721E+02  3.703449E+03 -1.484824E+04 -2.879813E+03 -2.863604E+03
       121  23 -3.775815E+05 -7.098681E+01  2.122279E+03 -1.941182E+03 -1.821458E+03 -1.821621E+03
       121  24 -3.774536E+05  3.302703E+00  1.354911E+03 -1.484832E+04 -7.629157E+02 -7.707111E+02
       121  25 -2.789671E+05  2.483869E+04  2.757315E+04 -1.490328E+04 -2.456839E+03 -2.863675E+03
       121  26 -3.071013E+05  1.745890E+04  1.926495E+04 -1.946420E+03 -1.394697E+03 -1.821727E+03
       121  27 -3.349787E+05  1.058521E+04  1.177302E+04 -1.480357E+04 -3.324158E+02 -7.708552E+02
       122   1 -3.708930E+05  1.704091E+03  2.826777E+03 -1.485217E+04  9.682792E+02  1.556836E+02
       122   2 -3.428912E+05  8.595085E+03  9.346114E+03 -1.943510E+03  5.076686E+02 -8.959634E+02
       122   3 -3.148051E+05  1.565210E+04  1.620301E+04 -1.488556E+04  4.713754E+01 -1.940715E+03
       122   4 -3.774912E+05  4.557505E+01  1.135103E+03 -1.485642E+04  5.379074E+02  1.558345E+02
       122   5 -3.775331E+05 -2.125510E+01  9.201406E+02 -1.931014E+03  8.011462E+01 -8.958323E+02
       122   6 -3.774914E+05  7.761123E+01  1.040939E+03 -1.485641E+04 -3.775782E+02 -1.940601E+03
       122   7 -3.840894E+05 -1.612944E+03 -5.565742E+02 -1.486066E+04  1.075403E+02  1.559854E+02
       122   8 -4.121739E+05 -8.637683E+03 -7.505919E+03 -1.918517E+03 -3.474156E+02 -8.957012E+02
       122   9 -4.401742E+05 -1.549717E+04 -1.412141E+04 -1.482726E+04 -8.022512E+02 -1.940487E+03
       122  10 -3.708930E+05  1.704090E+03  2.826776E+03 -1.485217E+04 -2.789767E-10  1.711289E-10
       122  11 -3.428912E+05  8.595084E+03  9.346112E+03 -1.943510E+03 -1.616491E-09  5.873710E-10
       122  12 -3.148051E+05  1.565210E+04  1.620300E+04 -1.488556E+04 -1.050326E-09  2.732830E-10
       122  13 -3.774912E+05  4.557495E+01  1.135102E+03 -1.485642E+04 -9.653953E-10  6.356180E-10
       122  14 -3.775331E+05 -2.125596E+01  9.201391E+02 -1.931014E+03  3.371384E-09  9.711893E-10
       122  15 -3.774914E+05  7.760714E+01  1.040932E+03 -1.485641E+04  1.258682E-09 -2.884342E-10
       122  16 -3.840894E+05 -1.612944E+03 -5.565743E+02 -1.486066E+04  7.385675E-10  3.021358E-10
       122  17 -4.121739E+05 -8.637684E+03 -7.505920E+03 -1.918518E+03 -1.834249E-09  8.062661E-10
       122  18 -4.401742E+05 -1.549717E+04 -1.412142E+04 -1.482726E+04 -2.854704E-10 -1.984533E-11
       122  19 -3.708930E+05  1.704091E+03  2.826777E+03 -1.485217E+04 -9.682792E+02 -1.556836E+02
       122  20 -3.428912E+05  8.595085E+03  9.346114E+03 -1.943510E+03 -5.076686E+02  8.959634E+02
       122  21 -3.148051E+05  1.565210E+04  1.620301E+04 -1.488556E+04 -4.713754E+01  1.940715E+03
       122  22 -3.774912E+05  4.557505E+01  1.135103E+03 -1.485642E+04 -5.379074E+02 -1.558345E+02
       122  23 -3.775331E+05 -2.125510E+01  9.201406E+02 -1.931014E+03 -8.011462E+01  8.958323E+02
       122  24 -3.774914E+05  7.761123E+01  1.040939E+03 -1.485641E+04  3.775782E+02  1.940601E+03
       122  25 -3.840894E+05 -1.612944E+03 -5.565742E+02 -1.486066E+04 -1.075403E+02 -1.559854E+02
       122  26 -4.121739E+05 -8.637683E+03 -7.505919E+03 -1.918517E+03  3.474156E+02  8.957012E+02
       122  27 -4.401742E+05 -1.549717E+04 -1.412141E+04 -1.482726E+04  8.022512E+02  1.940487E+03
       123   1 -2.658040E+05  2.776430E+04  2.843258E+04 -1.475610E+04 -1.372710E+02 -2.561730E+03
       123   2 -2.381282E+05  3.456993E+04  3.570570E+04 -2.018075E+03 -1.064332E+03 -3.609843E+03
       123   3 -2.100903E+05  4.223825E+04  4.380307E+04 -1.495041E+04 -1.991082E+03 -4.587410E+03
       123   4 -3.774335E+05 -1.674383E+01  1.195889E+03 -1.481642E+04 -5.791688E+02 -2.561644E+03
       123   5 -3.776119E+05 -1.208958E+02  1.782031E+03 -1.981052E+03 -1.477288E+03 -3.609835E+03
       123   6 -3.774342E+05  6.326846E+02  3.172408E+03 -1.481639E+04 -2.375054E+03 -4.587470E+03
       123   7 -4.890516E+05 -2.779871E+04 -2.604171E+04 -1.487674E+04 -1.020987E+03 -2.561558E+03
       123   8 -5.170778E+05 -3.481316E+04 -3.214304E+04 -1.944037E+03 -1.890152E+03 -3.609827E+03
       123   9 -5.447525E+05 -4.097494E+04 -3.746027E+04 -1.468241E+04 -2.758924E+03 -4.587531E+03
       123  10 -2.658040E+05  2.776429E+04  2.843257E+04 -1.475610E+04 -2.154779E-09  2.288724E-10
       123  11 -2.381282E+05  3.456992E+04  3.570567E+04 -2.018078E+03 -1.313461E-09 -2.253872E-10
       123  12 -2.100904E+05  4.223823E+04  4.380302E+04 -1.495041E+04 -1.646615E-09 -5.427461E-10
       123  13 -3.774335E+05 -1.675096E+01  1.195876E+03 -1.481643E+04 -1.179784E-09 -4.774544E-10
       123  14 -3.776119E+05 -1.209104E+02  1.782003E+03 -1.981057E+03 -2.049303E-10 -4.181200E-10
       123  15 -3.774342E+05  6.326604E+02  3.172358E+03 -1.481640E+04 -1.030190E-09 -6.180667E-10
       123  16 -4.890516E+05 -2.779871E+04 -2.604172E+04 -1.487674E+04  1.181442E-09  5.150061E-11
       123  17 -5.170778E+05 -3.481317E+04 -3.214307E+04 -1.944043E+03 -8.506078E-10 -1.830029E-10
       123  18 -5.447525E+05 -4.097497E+04 -3.746033E+04 -1.468242E+04  8.457187E-10 -6.121457E-10
       123  19 -2.658040E+05  2.776430E+04  2.843258E+04 -1.475610E+04  1.372710E+02  2.561730E+03
       123  20 -2.381282E+05  3.456993E+04  3.570570E+04 -2.018075E+03  1.064332E+03  3.609843E+03
       123  21 -2.100903E+05  4.223825E+04  4.380307E+04 -1.495041E+04  1.991082E+03  4.587410E+03
       123  22 -3.774335E+05 -1.674383E+01  1.195889E+03 -1.481642E+04  5.791688E+02  2.561644E+03
       123  23 -3.776119E+05 -1.208958E+02  1.782031E+03 -1.981052E+03  1.477288E+03  3.609835E+03
       123  24 -3.774342E+05  6.326846E+02  3.172408E+03 -1.481639E+04  2.375054E+03  4.587470E+03
       123  25 -4.890516E+05 -2.779871E+04 -2.604171E+04 -1.487674E+04  1.020987E+03  2.561558E+03
       123  26 -5.170778E+05 -3.481316E+04 -3.214304E+04 -1.944037E+03  1.890152E+03  3.609827E+03
       123  27 -5.447525E+05 -4.097494E+04 -3.746027E+04 -1.468241E+04  2.758924E+03  4.587531E+03
       124   1 -1.612459E+05  5.341893E+04  5.654420E+04 -1.405812E+04 -2.444817E+03 -5.294268E+03
       124   2 -1.349901E+05  5.950309E+04  6.569081E+04 -2.377047E+03 -6.120294E+03 -6.339135E+03
       124   3 -1.063548E+05  7.272534E+04  7.903883E+04 -1.596931E+04 -9.795605E+03 -6.683317E+03
       124   4 -3.770013E+05 -2.542875E+02  3.996143E+03 -1.472772E+04 -3.013127E+03 -5.294401E+03
       124   5 -3.781663E+05 -9.707208E+02  6.563857E+03 -2.091753E+03 -6.401579E+03 -6.339361E+03
       124   6 -3.770013E+05  5.402711E+03  1.313483E+04 -1.472970E+04 -9.789704E+03 -6.683524E+03
       124   7 -5.927143E+05 -5.393093E+04 -4.855529E+04 -1.539708E+04 -3.581240E+03 -5.294532E+03
       124   8 -6.212885E+05 -6.144888E+04 -5.256738E+04 -1.806573E+03 -6.682755E+03 -6.339587E+03
       124   9 -6.475809E+05 -6.192531E+04 -5.277449E+04 -1.349063E+04 -9.783804E+03 -6.683732E+03
       124  10 -1.612459E+05  5.341890E+04  5.654414E+04 -1.405813E+04  3.475137E-10 -3.821536E-10
       124  11 -1.349902E+05  5.950303E+04  6.569067E+04 -2.377078E+03 -1.181250E-10 -2.647714E-11
       124  12 -1.063549E+05  7.272527E+04  7.903857E+04 -1.596936E+04  8.235905E-10 -1.064964E-10
       124  13 -3.770014E+05 -2.543201E+02  3.996074E+03 -1.472773E+04 -1.059948E-09 -6.802506E-10
       124  14 -3.781664E+05 -9.707750E+02  6.563704E+03 -2.091785E+03 -1.683721E-09  4.850667E-11
       124  15 -3.770014E+05  5.402638E+03  1.313457E+04 -1.472975E+04 -3.244105E-10 -9.182851E-12
       124  16 -5.927143E+05 -5.393097E+04 -4.855537E+04 -1.539710E+04 -5.147747E-10 -9.239126E-10
       124  17 -6.212885E+05 -6.144893E+04 -5.256754E+04 -1.806607E+03 -3.174986E-09 -5.200346E-10
       124  18 -6.475810E+05 -6.192539E+04 -5.277476E+04 -1.349069E+04 -6.177959E-10  7.354940E-10
       124  19 -1.612459E+05  5.341893E+04  5.654420E+04 -1.405812E+04  2.444817E+03  5.294268E+03
       124  20 -1.349901E+05  5.950309E+04  6.569081E+04 -2.377047E+03  6.120294E+03  6.339135E+03
       124  21 -1.063548E+05  7.272534E+04  7.903883E+04 -1.596931E+04  9.795605E+03  6.683317E+03
       124  22 -3.770013E+05 -2.542875E+02  3.996143E+03 -1.472772E+04  3.013127E+03  5.294401E+03
       124  23 -3.781663E+05 -9.707208E+02  6.563857E+03 -2.091753E+03  6.401579E+03  6.339361E+03
       124  24 -3.770013E+05  5.402711E+03  1.313483E+04 -1.472970E+04  9.789704E+03  6.683524E+03
       124  25 -5.927143E+05 -5.393093E+04 -4.855529E+04 -1.539708E+04  3.581240E+03  5.294532E+03
       124  26 -6.212885E+05 -6.144888E+04 -5.256738E+04 -1.806573E+03  6.682755E+03  6.339587E+03
       124  27 -6.475809E+05 -6.192531E+04 -5.277449E+04 -1.349063E+04  9.783804E+03  6.683732E+03
       125   1 -5.566477E+04  7.695036E+04  9.334887E+04 -9.101512E+03 -1.037152E+04 -8.364521E+03
       125   2 -3.742729E+04  7.779271E+04  1.088601E+05 -5.416476E+03 -2.703228E+04 -9.497453E+03
       125   3 -1.884365E+03  1.381741E+05  1.501549E+05 -2.631447E+04 -4.370045E+04 -3.254588E+03
       125   4 -3.737981E+05 -2.163794E+03  1.601734E+04 -1.456140E+04 -1.233015E+04 -8.365723E+03
       125   5 -3.821896E+05 -7.907036E+03  2.517020E+04 -2.292567E+03 -2.597491E+04 -9.497113E+03
       125   6 -3.737903E+05  4.538264E+04  5.802143E+04 -1.460726E+04 -3.962631E+04 -3.251361E+03
       125   7 -6.918390E+05 -8.128528E+04 -6.132149E+04 -2.001848E+04 -1.428778E+04 -8.366891E+03
       125   8 -7.268433E+05 -9.361548E+04 -5.852829E+04  8.295810E+02 -2.491811E+04 -9.496762E+03
       125   9 -7.455702E+05 -4.741867E+04 -3.412223E+04 -2.907094E+03 -3.555460E+04 -3.247981E+03
       125  10 -5.566490E+04  7.695025E+04  9.334853E+04 -9.101582E+03  1.474119E-09 -2.130825E-10
       125  11 -3.742810E+04  7.779242E+04  1.088586E+05 -5.416683E+03  1.588725E-09 -3.558395E-10
       125  12 -1.886418E+03  1.381736E+05  1.501513E+05 -2.631459E+04 -1.812239E-09  4.262554E-10
       125  13 -3.737983E+05 -2.163910E+03  1.601692E+04 -1.456148E+04 -1.865922E-09 -8.407232E-10
       125  14 -3.821904E+05 -7.907314E+03  2.516876E+04 -2.292766E+03 -5.382373E-10 -1.606522E-10
       125  15 -3.737920E+05  4.538221E+04  5.801845E+04 -1.460736E+04  2.375456E-09 -5.682897E-10
       125  16 -6.918392E+05 -8.128541E+04 -6.132201E+04 -2.001858E+04 -1.266710E-09  5.909673E-10
       125  17 -7.268440E+05 -9.361575E+04 -5.852962E+04  8.293903E+02 -1.670085E-09 -6.753176E-10
       125  18 -7.455716E+05 -4.741902E+04 -3.412463E+04 -2.907187E+03 -1.262434E-09  7.389101E-10
       125  19 -5.566477E+04  7.695036E+04  9.334887E+04 -9.101512E+03  1.037152E+04  8.364521E+03
       125  20 -3.742729E+04  7.779271E+04  1.088601E+05 -5.416476E+03  2.703228E+04  9.497453E+03
       125  21 -1.884365E+03  1.381741E+05  1.501549E+05 -2.631447E+04  4.370045E+04  3.254588E+03
       125  22 -3.737981E+05 -2.163794E+03  1.601734E+04 -1.456140E+04  1.233015E+04  8.365723E+03
       125  23 -3.821896E+05 -7.907036E+03  2.517020E+04 -2.292567E+03  2.597491E+04  9.497113E+03
       125  24 -3.737903E+05  4.538264E+04  5.802143E+04 -1.460726E+04  3.962631E+04  3.251361E+03
       125  25 -6.918390E+05 -8.128528E+04 -6.132149E+04 -2.001848E+04  1.428778E+04  8.366891E+03
       125  26 -7.268433E+05 -9.361548E+04 -5.852829E+04  8.295810E+02  2.491811E+04  9.496762E+03
       125  27 -7.455702E+05 -4.741867E+04 -3.412223E+04 -2.907094E+03  3.555460E+04  3.247981E+03
       126   1  4.184674E+05 -1.878353E+05  3.969507E+05 -1.724642E+05  1.579463E+04 -2.515501E+04
       126   2  3.945631E+05 -5.391845E+05  3.364210E+05 -1.927790E+04  4.322329E+04 -2.117031E+04
       126   3  2.969093E+05 -9.077281E+05  2.552344E+05 -1.965998E+05  2.930325E+04 -1.731232E+04
       126   4 -5.773968E+04 -2.094027E+06 -7.597328E+04 -1.852818E+05  1.583995E+04 -4.468906E+04
       126   5  1.019165E+04 -2.083788E+06 -3.880317E+04 -1.993260E+04  4.323902E+04 -2.388774E+04
       126   6  1.350322E+03 -2.093850E+06 -3.403472E+04 -1.851497E+05  2.924417E+04 -3.210470E+03
       126   7 -5.342189E+05 -3.996911E+06 -5.491674E+05 -1.980578E+05  1.588617E+04 -6.416297E+04
       126   8 -3.743556E+05 -3.626208E+06 -4.142002E+05 -2.058394E+04  4.325477E+04 -2.659836E+04
       126   9 -2.943123E+05 -3.278684E+06 -3.234056E+05 -1.737200E+05  2.918556E+04  1.086447E+04
       126  10  4.184670E+05 -1.878361E+05  3.969490E+05 -1.724639E+05  2.765621E-09 -6.295327E-10
       126  11  3.945610E+05 -5.391855E+05  3.364167E+05 -1.927716E+04  1.671993E-09 -6.217871E-09
       126  12  2.969083E+05 -9.077286E+05  2.552322E+05 -1.965994E+05  4.231531E-10 -2.354465E-09
       126  13 -5.774048E+04 -2.094029E+06 -7.597751E+04 -1.852813E+05  6.085803E-10  7.570421E-10
       126  14  1.018949E+04 -2.083789E+06 -3.880776E+04 -1.993177E+04  1.922133E-09  1.853707E-09
       126  15  1.349402E+03 -2.093850E+06 -3.403635E+04 -1.851497E+05 -1.238341E-10  1.594867E-09
       126  16 -5.342203E+05 -3.996915E+06 -5.491757E+05 -1.980570E+05  8.752495E-10  4.289238E-10
       126  17 -3.743578E+05 -3.626210E+06 -4.142050E+05 -2.058301E+04 -1.320811E-09 -8.405055E-10
       126  18 -2.943132E+05 -3.278684E+06 -3.234074E+05 -1.737202E+05 -1.553946E-09  1.526475E-09
       126  19  4.184674E+05 -1.878353E+05  3.969507E+05 -1.724642E+05 -1.579463E+04  2.515501E+04
       126  20  3.945631E+05 -5.391845E+05  3.364210E+05 -1.927790E+04 -4.322329E+04  2.117031E+04
       126  21  2.969093E+05 -9.077281E+05  2.552344E+05 -1.965998E+05 -2.930325E+04  1.731232E+04
       126  22 -5.773968E+04 -2.094027E+06 -7.597328E+04 -1.852818E+05 -1.583995E+04  4.468906E+04
       126  23  1.019165E+04 -2.083788E+06 -3.880317E+04 -1.993260E+04 -4.323902E+04  2.388774E+04
       126  24  1.350322E+03 -2.093850E+06 -3.403472E+04 -1.851497E+05 -2.924417E+04  3.210470E+03
       126  25 -5.342189E+05 -3.996911E+06 -5.491674E+05 -1.980578E+05 -1.588617E+04  6.416297E+04
       126  26 -3.743556E+05 -3.626208E+06 -4.142002E+05 -2.058394E+04 -4.325477E+04  2.659836E+04
       126  27 -2.943123E+05 -3.278684E+06 -3.234056E+05 -1.737200E+05 -2.918556E+04 -1.086447E+04
       127   1  1.309097E+05 -1.549549E+06  9.734218E+04 -1.844113E+05  1.460219E+04 -1.241585E+03
       127   2  4.933651E+04 -1.911004E+06  3.186303E+03 -1.878184E+04  4.448332E+03  1.863928E+04
       127   3 -7.278537E+04 -2.288984E+06 -1.149197E+05 -1.941554E+05 -6.336677E+03  3.850025E+04
       127   4 -4.332950E+03 -2.092727E+06 -3.483953E+04 -1.874968E+05  1.458395E+04  2.726463E+03
       127   5  6.118312E+03 -2.084388E+06 -3.905443E+04 -1.703946E+04  4.428193E+03  2.285649E+04
       127   6 -2.401717E+04 -2.092741E+06 -6.738458E+04 -1.875942E+05 -6.358797E+03  4.297836E+04
       127   7 -1.395973E+05 -2.635634E+06 -1.670426E+05 -1.905793E+05  1.456565E+04  6.691041E+03
       127   8 -3.710209E+04 -2.257746E+06 -8.129727E+04 -1.529753E+04  4.408075E+03  2.707252E+04
       127   9  2.474839E+04 -1.896463E+06 -1.985212E+04 -1.810308E+05 -6.380819E+03  4.745789E+04
       127  10  1.309094E+05 -1.549549E+06  9.734178E+04 -1.844113E+05  1.604838E-09 -2.176719E-09
       127  11  4.933640E+04 -1.911004E+06  3.185611E+03 -1.878191E+04  2.317799E-09 -5.878987E-09
       127  12 -7.278581E+04 -2.288986E+06 -1.149226E+05 -1.941552E+05 -1.139610E-09  2.305803E-09
       127  13 -4.333181E+03 -2.092727E+06 -3.483995E+04 -1.874968E+05  2.375475E-09  2.755593E-09
       127  14  6.118150E+03 -2.084389E+06 -3.905545E+04 -1.703954E+04  2.174126E-09  3.246332E-09
       127  15 -2.401771E+04 -2.092743E+06 -6.738814E+04 -1.875939E+05 -4.149207E-12  2.120425E-09
       127  16 -1.395975E+05 -2.635634E+06 -1.670431E+05 -1.905793E+05 -2.480478E-09  2.114866E-09
       127  17 -3.710231E+04 -2.257746E+06 -8.129869E+04 -1.529763E+04 -5.083107E-10 -4.438950E-09
       127  18  2.474774E+04 -1.896466E+06 -1.985644E+04 -1.810305E+05 -4.157364E-09 -2.775966E-09
       127  19  1.309097E+05 -1.549549E+06  9.734218E+04 -1.844113E+05 -1.460219E+04  1.241585E+03
       127  20  4.933651E+04 -1.911004E+06  3.186303E+03 -1.878184E+04 -4.448332E+03 -1.863928E+04
       127  21 -7.278537E+04 -2.288984E+06 -1.149197E+05 -1.941554E+05  6.336677E+03 -3.850025E+04
       127  22 -4.332950E+03 -2.092727E+06 -3.483953E+04 -1.874968E+05 -1.458395E+04 -2.726463E+03
       127  23  6.118312E+03 -2.084388E+06 -3.905443E+04 -1.703946E+04 -4.428193E+03 -2.285649E+04
       127  24 -2.401717E+04 -2.092741E+06 -6.738458E+04 -1.875942E+05  6.358797E+03 -4.297836E+04
       127  25 -1.395973E+05 -2.635634E+06 -1.670426E+05 -1.905793E+05 -1.456565E+04 -6.691041E+03
       127  26 -3.710209E+04 -2.257746E+06 -8.129727E+04 -1.529753E+04 -4.408075E+03 -2.707252E+04
       127  27  2.474839E+04 -1.896463E+06 -1.985212E+04 -1.810308E+05  6.380819E+03 -4.745789E+04
       128   1 -1.991000E+05 -2.948802E+06 -2.857998E+05 -1.571256E+05 -2.021069E+04  4.287609E+04
       128   2 -2.622997E+05 -3.271413E+06 -4.153124E+05 -3.131416E+04 -3.439262E+04  1.232219E+05
       128   3 -6.092600E+05 -3.676084E+06 -6.684731E+05 -2.404874E+05 -1.338671E+04  2.036535E+05
       128   4  1.125175E+04 -2.106845E+06 -7.995190E+04 -1.859270E+05 -2.027283E+04  5.570574E+04
       128   5  3.771148E+04 -2.067253E+06 -1.223801E+05 -1.879826E+04 -3.437995E+04  1.218652E+05
       128   6 -2.168027E+05 -2.107171E+06 -2.783805E+05 -1.866409E+05 -1.331850E+04  1.881591E+05
       128   7  2.215538E+05 -1.264238E+06  1.258451E+05 -2.147669E+05 -2.033612E+04  6.855276E+04
       128   8  3.376163E+05 -8.617623E+05  1.704470E+05 -6.256615E+03 -3.436735E+04  1.205057E+05
       128   9  1.754809E+05 -5.360048E+05  1.115301E+05 -1.326556E+05 -1.325309E+04  1.726249E+05
       128  10 -1.991010E+05 -2.948804E+06 -2.858040E+05 -1.571249E+05 -1.159289E-09 -3.532547E-09
       128  11 -2.623051E+05 -3.271430E+06 -4.153433E+05 -3.131075E+04  1.556541E-09 -9.157041E-09
       128  12 -6.092714E+05 -3.676129E+06 -6.685518E+05 -2.404852E+05  1.380372E-09 -1.860883E-09
       128  13  1.125047E+04 -2.106849E+06 -7.995852E+04 -1.859261E+05 -2.785099E-09  2.221138E-09
       128  14  3.770621E+04 -2.067270E+06 -1.224104E+05 -1.879488E+04 -5.457925E-10  2.061763E-09
       128  15 -2.168124E+05 -2.107209E+06 -2.784476E+05 -1.866389E+05  1.599375E-09  3.966542E-10
       128  16  2.215521E+05 -1.264243E+06  1.258354E+05 -2.147658E+05 -1.991337E-09  3.661236E-09
       128  17  3.376112E+05 -8.617783E+05  1.704175E+05 -6.253280E+03  1.604073E-09  8.144993E-10
       128  18  1.754727E+05 -5.360369E+05  1.114737E+05 -1.326537E+05  1.366032E-09  2.035078E-09
       128  19 -1.991000E+05 -2.948802E+06 -2.857998E+05 -1.571256E+05  2.021069E+04 -4.287609E+04
       128  20 -2.622997E+05 -3.271413E+06 -4.153124E+05 -3.131416E+04  3.439262E+04 -1.232219E+05
       128  21 -6.092600E+05 -3.676084E+06 -6.684731E+05 -2.404874E+05  1.338671E+04 -2.036535E+05
       128  22  1.125175E+04 -2.106845E+06 -7.995190E+04 -1.859270E+05  2.027283E+04 -5.570574E+04
       128  23  3.771148E+04 -2.067253E+06 -1.223801E+05 -1.879826E+04  3.437995E+04 -1.218652E+05
       128  24 -2.168027E+05 -2.107171E+06 -2.783805E+05 -1.866409E+05  1.331850E+04 -1.881591E+05
       128  25  2.215538E+05 -1.264238E+06  1.258451E+05 -2.147669E+05  2.033612E+04 -6.855276E+04
       128  26  3.376163E+05 -8.617623E+05  1.704470E+05 -6.256615E+03  3.436735E+04 -1.205057E+05
       128  27  1.754809E+05 -5.360048E+05  1.115301E+05 -1.326556E+05  1.325309E+04 -1.726249E+05
       129   1 -2.579514E+06 -5.870154E+05 -2.605608E+05 -9.321874E+05 -1.263795E+05 -4.503538E+04
       129   2 -2.543157E+06 -3.992065E+05 -1.423649E+05 -9.544114E+05 -8.209119E+04 -2.331569E+04
       129   3 -2.574329E+06 -4.025485E+05 -1.087760E+05 -9.376522E+05 -3.590784E+04 -6.627437E+03
       129   4 -2.362148E+06 -4.703087E+05 -1.941806E+05 -8.376941E+05 -1.237698E+05 -4.406163E+04
       129   5 -2.318580E+06 -3.049969E+05 -8.025406E+04 -8.834728E+05 -8.138363E+04 -2.305118E+04
       129   6 -2.342139E+06 -3.304199E+05 -4.939943E+04 -8.902761E+05 -3.710220E+04 -7.075692E+03
       129   7 -2.144733E+06 -3.535830E+05 -1.278050E+05 -7.431662E+05 -1.211592E+05 -4.308714E+04
       129   8 -2.093955E+06 -2.107808E+05 -1.814789E+04 -8.125098E+05 -8.067580E+04 -2.278653E+04
       129   9 -2.109896E+06 -2.582916E+05  9.973105E+03 -8.428858E+05 -3.829705E+04 -7.524059E+03
       129  10 -2.579532E+06 -5.870219E+05 -2.605948E+05 -9.321920E+05 -1.160402E-09  2.005428E-11
       129  11 -2.543164E+06 -3.992089E+05 -1.423786E+05 -9.544129E+05 -3.359002E-10  3.537448E-10
       129  12 -2.574330E+06 -4.025489E+05 -1.087785E+05 -9.376524E+05  1.214385E-09  9.391724E-10
       129  13 -2.362165E+06 -4.703149E+05 -1.942132E+05 -8.376985E+05  2.244472E-09  4.295433E-10
       129  14 -2.318588E+06 -3.049992E+05 -8.026756E+04 -8.834743E+05  1.650505E-09 -4.480828E-10
       129  15 -2.342140E+06 -3.304203E+05 -4.940213E+04 -8.902763E+05 -1.572281E-09  9.104982E-11
       129  16 -2.144749E+06 -3.535890E+05 -1.278362E+05 -7.431704E+05  1.806368E-09  8.161387E-10
       129  17 -2.093962E+06 -2.107832E+05 -1.816115E+04 -8.125113E+05  6.537560E-10  6.121857E-10
       129  18 -2.109897E+06 -2.582920E+05  9.970231E+03 -8.428861E+05  2.446362E-11 -7.891810E-10
       129  19 -2.579514E+06 -5.870154E+05 -2.605608E+05 -9.321874E+05  1.263795E+05  4.503538E+04
       129  20 -2.543157E+06 -3.992065E+05 -1.423649E+05 -9.544114E+05  8.209119E+04  2.331569E+04
       129  21 -2.574329E+06 -4.025485E+05 -1.087760E+05 -9.376522E+05  3.590784E+04  6.627437E+03
       129  22 -2.362148E+06 -4.703087E+05 -1.941806E+05 -8.376941E+05  1.237698E+05  4.406163E+04
       129  23 -2.318580E+06 -3.049969E+05 -8.025406E+04 -8.834728E+05  8.138363E+04  2.305118E+04
       129  24 -2.342139E+06 -3.304199E+05 -4.939943E+04 -8.902761E+05  3.710220E+04  7.075692E+03
       129  25 -2.144733E+06 -3.535830E+05 -1.278050E+05 -7.431662E+05  1.211592E+05  4.308714E+04
       129  26 -2.093955E+06 -2.107808E+05 -1.814789E+04 -8.125098E+05  8.067580E+04  2.278653E+04
       129  27 -2.109896E+06 -2.582916E+05  9.973105E+03 -8.428858E+05  3.829705E+04  7.524059E+03
       130   1 -2.529235E+06 -4.294677E+05 -9.341791E+04 -9.357997E+05 -2.961382E+04 -5.433440E+03
       130   2 -2.516152E+06 -3.968206E+05 -6.805046E+04 -9.297355E+05 -1.944757E+04 -1.675867E+03
       130   3 -2.502732E+06 -3.971367E+05 -5.646532E+04 -9.295764E+05 -9.069213E+03  1.517300E+03
       130   4 -2.335237E+06 -3.522656E+05 -4.040255E+04 -8.788507E+05 -2.953412E+04 -5.403833E+03
       130   5 -2.334194E+06 -3.271741E+05 -1.894887E+04 -8.791369E+05 -1.957969E+04 -1.725668E+03
       130   6 -2.332769E+06 -3.349990E+05 -1.110567E+04 -8.853285E+05 -9.413418E+03  1.387964E+03
       130   7 -2.141203E+06 -2.750602E+05  1.260937E+04 -8.218852E+05 -2.945439E+04 -5.374213E+03
       130   8 -2.152204E+06 -2.575254E+05  3.014970E+04 -8.285248E+05 -1.971186E+04 -1.775486E+03
       130   9 -2.162779E+06 -2.728601E+05  3.425136E+04 -8.410700E+05 -9.757726E+03  1.258592E+03
       130  10 -2.529236E+06 -4.294680E+05 -9.341962E+04 -9.357998E+05  1.342434E-10 -7.604535E-11
       130  11 -2.516152E+06 -3.968207E+05 -6.805118E+04 -9.297355E+05  5.505606E-10 -4.096132E-10
       130  12 -2.502732E+06 -3.971367E+05 -5.646548E+04 -9.295764E+05 -1.872489E-09 -3.418752E-10
       130  13 -2.335238E+06 -3.522659E+05 -4.040425E+04 -8.788508E+05  1.038698E-09 -3.902279E-10
       130  14 -2.334195E+06 -3.271742E+05 -1.894960E+04 -8.791369E+05  8.810366E-10 -4.272283E-10
       130  15 -2.332769E+06 -3.349990E+05 -1.110584E+04 -8.853285E+05  1.462719E-09 -1.359622E-10
       130  16 -2.141204E+06 -2.750605E+05  1.260768E+04 -8.218853E+05 -1.028519E-09 -4.398799E-10
       130  17 -2.152205E+06 -2.575255E+05  3.014896E+04 -8.285249E+05 -1.272901E-10 -3.112714E-10
       130  18 -2.162779E+06 -2.728602E+05  3.425118E+04 -8.410700E+05  2.400776E-10  1.790706E-10
       130  19 -2.529235E+06 -4.294677E+05 -9.341791E+04 -9.357997E+05  2.961382E+04  5.433440E+03
       130  20 -2.516152E+06 -3.968206E+05 -6.805046E+04 -9.297355E+05  1.944757E+04  1.675867E+03
       130  21 -2.502732E+06 -3.971367E+05 -5.646532E+04 -9.295764E+05  9.069213E+03 -1.517300E+03
       130  22 -2.335237E+06 -3.522656E+05 -4.040255E+04 -8.788507E+05  2.953412E+04  5.403833E+03
       130  23 -2.334194E+06 -3.271741E+05 -1.894887E+04 -8.791369E+05  1.957969E+04  1.725668E+03
       130  24 -2.332769E+06 -3.349990E+05 -1.110567E+04 -8.853285E+05  9.413418E+03 -1.387964E+03
       130  25 -2.141203E+06 -2.750602E+05  1.260937E+04 -8.218852E+05  2.945439E+04  5.374213E+03
       130  26 -2.152204E+06 -2.575254E+05  3.014970E+04 -8.285248E+05  1.971186E+04  1.775486E+03
       130  27 -2.162779E+06 -2.728601E+05  3.425136E+04 -8.410700E+05  9.757726E+03 -1.258592E+03
       131   1 -2.469683E+06 -3.905381E+05 -4.595763E+04 -9.223600E+05 -7.416946E+03  1.630805E+03
       131   2 -2.458338E+06 -3.754832E+05 -3.723932E+04 -9.113483E+05 -4.843782E+03  1.904991E+03
       131   3 -2.436316E+06 -3.752805E+05 -3.103346E+04 -9.134210E+05 -2.235161E+03  2.084352E+03
       131   4 -2.331473E+06 -3.379990E+05 -8.768298E+03 -8.842888E+05 -7.630765E+03  1.550446E+03
       131   5 -2.336665E+06 -3.295222E+05 -4.519221E+03 -8.781414E+05 -5.093196E+03  1.811319E+03
       131   6 -2.331171E+06 -3.358899E+05 -2.753911E+03 -8.850784E+05 -2.520243E+03  1.977346E+03
       131   7 -2.193245E+06 -2.854586E+05  2.841943E+04 -8.462098E+05 -7.844637E+03  1.470067E+03
       131   8 -2.214977E+06 -2.835602E+05  2.819961E+04 -8.449286E+05 -5.342663E+03  1.717626E+03
       131   9 -2.226016E+06 -2.964988E+05  2.552466E+04 -8.567315E+05 -2.805379E+03  1.870320E+03
       131  10 -2.469683E+06 -3.905381E+05 -4.595774E+04 -9.223600E+05  7.222840E-10 -2.120150E-11
       131  11 -2.458338E+06 -3.754833E+05 -3.723937E+04 -9.113483E+05  2.931570E-09  3.991242E-10
       131  12 -2.436316E+06 -3.752805E+05 -3.103347E+04 -9.134210E+05  4.226641E-11  6.569696E-10
       131  13 -2.331473E+06 -3.379990E+05 -8.768413E+03 -8.842888E+05 -1.628643E-10  9.084449E-11
       131  14 -2.336665E+06 -3.295222E+05 -4.519276E+03 -8.781414E+05 -1.672844E-09  4.438907E-10
       131  15 -2.331171E+06 -3.358899E+05 -2.753930E+03 -8.850784E+05 -6.339585E-11  5.960699E-11
       131  16 -2.193245E+06 -2.854586E+05  2.841931E+04 -8.462098E+05  1.480434E-09  4.037111E-11
       131  17 -2.214977E+06 -2.835602E+05  2.819955E+04 -8.449286E+05  1.799388E-09 -4.667173E-10
       131  18 -2.226016E+06 -2.964988E+05  2.552464E+04 -8.567315E+05 -6.033952E-10 -5.297296E-11
       131  19 -2.469683E+06 -3.905381E+05 -4.595763E+04 -9.223600E+05  7.416946E+03 -1.630805E+03
       131  20 -2.458338E+06 -3.754832E+05 -3.723932E+04 -9.113483E+05  4.843782E+03 -1.904991E+03
       131  21 -2.436316E+06 -3.752805E+05 -3.103346E+04 -9.134210E+05  2.235161E+03 -2.084352E+03
       131  22 -2.331473E+06 -3.379990E+05 -8.768298E+03 -8.842888E+05  7.630765E+03 -1.550446E+03
       131  23 -2.336665E+06 -3.295222E+05 -4.519221E+03 -8.781414E+05  5.093196E+03 -1.811319E+03
       131  24 -2.331171E+06 -3.358899E+05 -2.753911E+03 -8.850784E+05  2.520243E+03 -1.977346E+03
       131  25 -2.193245E+06 -2.854586E+05  2.841943E+04 -8.462098E+05  7.844637E+03 -1.470067E+03
       131  26 -2.214977E+06 -2.835602E+05  2.819961E+04 -8.449286E+05  5.342663E+03 -1.717626E+03
       131  27 -2.226016E+06 -2.964988E+05  2.552466E+04 -8.567315E+05  2.805379E+03 -1.870320E+03
       132   1 -2.401799E+06 -3.632213E+05 -2.129326E+04 -9.045396E+05 -1.676640E+03  1.806327E+03
       132   2 -2.389929E+06 -3.494424E+05 -1.582623E+04 -8.921074E+05 -5.627116E+02  1.399615E+03
       132   3 -2.365258E+06 -3.492156E+05 -1.111212E+04 -8.945659E+05  5.604802E+02  9.679379E+02
       132   4 -2.330815E+06 -3.364267E+05 -2.271695E+03 -8.851696E+05 -1.947219E+03  1.704791E+03
       132   5 -2.337204E+06 -3.295645E+05 -1.655160E+03 -8.777567E+05 -8.427087E+02  1.294569E+03
       132   6 -2.330790E+06 -3.362523E+05 -1.784020E+03 -8.852344E+05  2.710355E+02  8.593746E+02
       132   7 -2.259827E+06 -3.096320E+05  1.674941E+04 -8.657976E+05 -2.217833E+03  1.603243E+03
       132   8 -2.284476E+06 -3.096865E+05  1.251563E+04 -8.634049E+05 -1.122731E+03  1.189514E+03
       132   9 -2.296320E+06 -3.232890E+05  7.543937E+03 -8.759026E+05 -1.842563E+01  7.508052E+02
       132  10 -2.401799E+06 -3.632213E+05 -2.129328E+04 -9.045396E+05  4.905406E-10 -7.004245E-11
       132  11 -2.389929E+06 -3.494424E+05 -1.582623E+04 -8.921074E+05 -1.823060E-09 -6.260498E-10
       132  12 -2.365258E+06 -3.492156E+05 -1.111212E+04 -8.945659E+05  3.255583E-10 -7.288251E-10
       132  13 -2.330815E+06 -3.364268E+05 -2.271708E+03 -8.851696E+05 -1.458388E-11  1.359558E-10
       132  14 -2.337204E+06 -3.295645E+05 -1.655164E+03 -8.777567E+05  1.162804E-09  2.489205E-10
       132  15 -2.330790E+06 -3.362523E+05 -1.784021E+03 -8.852344E+05 -6.800275E-10 -2.766403E-10
       132  16 -2.259827E+06 -3.096320E+05  1.674940E+04 -8.657976E+05  8.416079E-10  1.953894E-10
       132  17 -2.284476E+06 -3.096865E+05  1.251562E+04 -8.634049E+05  4.567097E-11  8.007355E-10
       132  18 -2.296320E+06 -3.232890E+05  7.543936E+03 -8.759026E+05 -1.549022E-09 -4.148623E-10
       132  19 -2.401799E+06 -3.632213E+05 -2.129326E+04 -9.045396E+05  1.676640E+03 -1.806327E+03
       132  20 -2.389929E+06 -3.494424E+05 -1.582623E+04 -8.921074E+05  5.627116E+02 -1.399615E+03
       132  21 -2.365258E+06 -3.492156E+05 -1.111212E+04 -8.945659E+05 -5.604802E+02 -9.679379E+02
       132  22 -2.330815E+06 -3.364267E+05 -2.271695E+03 -8.851696E+05  1.947219E+03 -1.704791E+03
       132  23 -2.337204E+06 -3.295645E+05 -1.655160E+03 -8.777567E+05  8.427087E+02 -1.294569E+03
       132  24 -2.330790E+06 -3.362523E+05 -1.784020E+03 -8.852344E+05 -2.710355E+02 -8.593746E+02
       132  25 -2.259827E+06 -3.096320E+05  1.674941E+04 -8.657976E+05  2.217833E+03 -1.603243E+03
       132  26 -2.284476E+06 -3.096865E+05  1.251563E+04 -8.634049E+05  1.122731E+03 -1.189514E+03
       132  27 -2.296320E+06 -3.232890E+05  7.543937E+03 -8.759026E+05  1.842563E+01 -7.508052E+02
       133   1 -2.329418E+06 -3.358019E+05 -1.618586E+03 -8.850652E+05  1.041949E+03  6.424115E+02
       133   2 -2.317324E+06 -3.219339E+05  2.221589E+03 -8.722933E+05  2.891742E+03  4.777298E+02
       133   3 -2.292551E+06 -3.223866E+05  4.612080E+03 -8.745176E+05  4.736811E+03  3.258614E+02
       133   4 -2.330790E+06 -3.362308E+05 -2.039558E+03 -8.853300E+05  7.529056E+02  5.340048E+02
       133   5 -2.337179E+06 -3.294220E+05 -3.115199E+03 -8.777004E+05  2.607520E+03  3.711194E+02
       133   6 -2.330892E+06 -3.369349E+05 -5.644297E+03 -8.850670E+05  4.457355E+03  2.210287E+02
       133   7 -2.332161E+06 -3.366596E+05 -2.460532E+03 -8.855949E+05  4.638616E+02  4.255977E+02
       133   8 -2.357034E+06 -3.369101E+05 -8.452043E+03 -8.831073E+05  2.323307E+03  2.645123E+02
       133   9 -2.369231E+06 -3.514833E+05 -1.590083E+04 -8.956159E+05  4.177919E+03  1.162030E+02
       133  10 -2.329418E+06 -3.358019E+05 -1.618588E+03 -8.850652E+05 -1.960769E-09 -3.227680E-11
       133  11 -2.317324E+06 -3.219339E+05  2.221572E+03 -8.722933E+05 -5.005173E-12  3.276494E-10
       133  12 -2.292551E+06 -3.223866E+05  4.612038E+03 -8.745176E+05  1.377928E-09  1.154163E-09
       133  13 -2.330790E+06 -3.362308E+05 -2.039560E+03 -8.853300E+05 -2.737164E-09 -4.995085E-10
       133  14 -2.337179E+06 -3.294220E+05 -3.115213E+03 -8.777004E+05  2.423536E-09  5.828085E-10
       133  15 -2.330892E+06 -3.369350E+05 -5.644335E+03 -8.850670E+05  1.023842E-09  1.533638E-09
       133  16 -2.332161E+06 -3.366596E+05 -2.460533E+03 -8.855949E+05 -4.781988E-10 -4.218603E-10
       133  17 -2.357034E+06 -3.369101E+05 -8.452053E+03 -8.831073E+05  1.484169E-09  2.912864E-10
       133  18 -2.369231E+06 -3.514833E+05 -1.590087E+04 -8.956159E+05  7.650023E-10  1.367156E-09
       133  19 -2.329418E+06 -3.358019E+05 -1.618586E+03 -8.850652E+05 -1.041949E+03 -6.424115E+02
       133  20 -2.317324E+06 -3.219339E+05  2.221589E+03 -8.722933E+05 -2.891742E+03 -4.777298E+02
       133  21 -2.292551E+06 -3.223866E+05  4.612080E+03 -8.745176E+05 -4.736811E+03 -3.258614E+02
       133  22 -2.330790E+06 -3.362308E+05 -2.039558E+03 -8.853300E+05 -7.529056E+02 -5.340048E+02
       133  23 -2.337179E+06 -3.294220E+05 -3.115199E+03 -8.777004E+05 -2.607520E+03 -3.711194E+02
       133  24 -2.330892E+06 -3.369349E+05 -5.644297E+03 -8.850670E+05 -4.457355E+03 -2.210287E+02
       133  25 -2.332161E+06 -3.366596E+05 -2.460532E+03 -8.855949E+05 -4.638616E+02 -4.255977E+02
       133  26 -2.357034E+06 -3.369101E+05 -8.452043E+03 -8.831073E+05 -2.323307E+03 -2.645123E+02
       133  27 -2.369231E+06 -3.514833E+05 -1.590083E+04 -8.956159E+05 -4.177919E+03 -1.162030E+02
       134   1 -2.257501E+06 -3.087724E+05  1.251877E+04 -8.661016E+05  5.975567E+03  2.890882E+02
       134   2 -2.245400E+06 -2.940961E+05  1.176196E+04 -8.530700E+05  1.271178E+04  1.986539E+03
       134   3 -2.224579E+06 -3.001840E+05  3.975343E+03 -8.525772E+05  1.941830E+04  3.764447E+03
       134   4 -2.331425E+06 -3.359033E+05 -7.273436E+03 -8.854459E+05  5.682793E+03  1.792491E+02
       134   5 -2.336220E+06 -3.285708E+05 -1.269094E+04 -8.780341E+05  1.244865E+04  1.887766E+03
       134   6 -2.332301E+06 -3.420095E+05 -2.516276E+04 -8.831613E+05  1.918463E+04  3.676655E+03
       134   7 -2.405344E+06 -3.630338E+05 -2.706604E+04 -9.047881E+05  5.390059E+03  6.942397E+01
       134   8 -2.427032E+06 -3.630449E+05 -3.714454E+04 -9.029949E+05  1.218556E+04  1.789010E+03
       134   9 -2.440012E+06 -3.838341E+05 -5.430194E+04 -9.137406E+05  1.895100E+04  3.588881E+03
       134  10 -2.257501E+06 -3.087724E+05  1.251871E+04 -8.661016E+05  1.252162E-09  1.561366E-09
       134  11 -2.245401E+06 -2.940961E+05  1.176165E+04 -8.530700E+05 -3.076176E-10  7.451399E-10
       134  12 -2.224579E+06 -3.001841E+05  3.974605E+03 -8.525773E+05 -2.866171E-10 -2.820946E-10
       134  13 -2.331425E+06 -3.359033E+05 -7.273497E+03 -8.854459E+05 -2.707048E-10  7.894676E-10
       134  14 -2.336220E+06 -3.285708E+05 -1.269124E+04 -8.780341E+05  1.221521E-09  2.725180E-10
       134  15 -2.332301E+06 -3.420096E+05 -2.516348E+04 -8.831614E+05  2.373461E-09 -6.089214E-11
       134  16 -2.405344E+06 -3.630338E+05 -2.706609E+04 -9.047881E+05  9.117423E-11  1.061125E-09
       134  17 -2.427032E+06 -3.630450E+05 -3.714483E+04 -9.029949E+05  2.312038E-09  2.938598E-10
       134  18 -2.440013E+06 -3.838342E+05 -5.430264E+04 -9.137407E+05  5.705695E-10  7.336253E-10
       134  19 -2.257501E+06 -3.087724E+05  1.251877E+04 -8.661016E+05 -5.975567E+03 -2.890882E+02
       134  20 -2.245400E+06 -2.940961E+05  1.176196E+04 -8.530700E+05 -1.271178E+04 -1.986539E+03
       134  21 -2.224579E+06 -3.001840E+05  3.975343E+03 -8.525772E+05 -1.941830E+04 -3.764447E+03
       134  22 -2.331425E+06 -3.359033E+05 -7.273436E+03 -8.854459E+05 -5.682793E+03 -1.792491E+02
       134  23 -2.336220E+06 -3.285708E+05 -1.269094E+04 -8.780341E+05 -1.244865E+04 -1.887766E+03
       134  24 -2.332301E+06 -3.420095E+05 -2.516276E+04 -8.831613E+05 -1.918463E+04 -3.676655E+03
       134  25 -2.405344E+06 -3.630338E+05 -2.706604E+04 -9.047881E+05 -5.390059E+03 -6.942397E+01
       134  26 -2.427032E+06 -3.630449E+05 -3.714454E+04 -9.029949E+05 -1.218556E+04 -1.789010E+03
       134  27 -2.440012E+06 -3.838341E+05 -5.430194E+04 -9.137406E+05 -1.895100E+04 -3.588881E+03
       135   1 -2.190397E+06 -2.853150E+05  5.877786E+03 -8.536290E+05  2.436155E+04  5.090210E+03
       135   2 -2.176051E+06 -2.597012E+05 -1.276799E+04 -8.347451E+05  5.311610E+04  1.513166E+04
       135   3 -2.178995E+06 -3.110487E+05 -7.064043E+04 -8.121460E+05  8.167372E+04  2.569898E+04
       135   4 -2.335215E+06 -3.342072E+05 -3.198615E+04 -8.871677E+05  2.400585E+04  4.956884E+03
       135   5 -2.330114E+06 -3.206767E+05 -5.472541E+04 -8.796622E+05  5.295335E+04  1.507015E+04
       135   6 -2.342349E+06 -3.841571E+05 -1.168526E+05 -8.684404E+05  8.170352E+04  2.570821E+04
       135   7 -2.480012E+06 -3.830990E+05 -6.985173E+04 -9.206998E+05  2.365024E+04  4.823585E+03
       135   8 -2.484154E+06 -3.816501E+05 -9.668499E+04 -9.245690E+05  5.279065E+04  1.500866E+04
       135   9 -2.505677E+06 -4.572608E+05 -1.630675E+05 -9.247203E+05  8.173330E+04  2.571743E+04
       135  10 -2.190398E+06 -2.853152E+05  5.876617E+03 -8.536291E+05 -1.536580E-09 -1.496672E-10
       135  11 -2.176054E+06 -2.597022E+05 -1.277375E+04 -8.347457E+05 -2.626293E-09  1.464728E-09
       135  12 -2.179003E+06 -3.110513E+05 -7.065426E+04 -8.121477E+05 -1.000865E-09  5.030388E-10
       135  13 -2.335216E+06 -3.342074E+05 -3.198728E+04 -8.871678E+05 -1.222470E-10  6.249169E-10
       135  14 -2.330117E+06 -3.206777E+05 -5.473114E+04 -8.796628E+05 -1.448355E-10  1.014062E-09
       135  15 -2.342357E+06 -3.841597E+05 -1.168665E+05 -8.684421E+05 -1.599395E-09  2.783137E-10
       135  16 -2.480013E+06 -3.830992E+05 -6.985283E+04 -9.206999E+05  7.183245E-10  1.030511E-09
       135  17 -2.484157E+06 -3.816511E+05 -9.669067E+04 -9.245696E+05  2.847027E-09  1.582295E-09
       135  18 -2.505685E+06 -4.572633E+05 -1.630813E+05 -9.247220E+05  7.944903E-10  4.651103E-10
       135  19 -2.190397E+06 -2.853150E+05  5.877786E+03 -8.536290E+05 -2.436155E+04 -5.090210E+03
       135  20 -2.176051E+06 -2.597012E+05 -1.276799E+04 -8.347451E+05 -5.311610E+04 -1.513166E+04
       135  21 -2.178995E+06 -3.110487E+05 -7.064043E+04 -8.121460E+05 -8.167372E+04 -2.569898E+04
       135  22 -2.335215E+06 -3.342072E+05 -3.198615E+04 -8.871677E+05 -2.400585E+04 -4.956884E+03
       135  23 -2.330114E+06 -3.206767E+05 -5.472541E+04 -8.796622E+05 -5.295335E+04 -1.507015E+04
       135  24 -2.342349E+06 -3.841571E+05 -1.168526E+05 -8.684404E+05 -8.170352E+04 -2.570821E+04
       135  25 -2.480012E+06 -3.830990E+05 -6.985173E+04 -9.206998E+05 -2.365024E+04 -4.823585E+03
       135  26 -2.484154E+06 -3.816501E+05 -9.668499E+04 -9.245690E+05 -5.279065E+04 -1.500866E+04
       135  27 -2.505677E+06 -4.572608E+05 -1.630675E+05 -9.247203E+05 -8.173330E+04 -2.571743E+04
       136   1 -2.129888E+06 -2.797111E+05 -8.949355E+04 -8.858855E+05  1.040182E+05  3.293077E+04
       136   2 -2.095221E+06 -1.556887E+05 -1.755004E+05 -8.104518E+05  2.299708E+05  7.957630E+04
       136   3 -2.267637E+06 -5.701168E+05 -5.004245E+05 -6.074935E+05  3.541423E+05  1.309757E+05
       136   4 -2.361199E+06 -3.220940E+05 -1.428928E+05 -9.028022E+05  1.028527E+05  3.250194E+04
       136   5 -2.286331E+06 -2.550412E+05 -2.320778E+05 -8.905454E+05  2.305688E+05  7.978838E+04
       136   6 -2.418984E+06 -7.269143E+05 -5.616425E+05 -7.507379E+05  3.565117E+05  1.317956E+05
       136   7 -2.592453E+06 -3.644774E+05 -1.962943E+05 -9.197177E+05  1.016877E+05  3.207307E+04
       136   8 -2.477402E+06 -3.543801E+05 -2.886584E+05 -9.706129E+05  2.311666E+05  8.000030E+04
       136   9 -2.570282E+06 -8.836359E+05 -6.228580E+05 -8.939348E+05  3.588804E+05  1.326143E+05
       136  10 -2.129900E+06 -2.797152E+05 -8.951602E+04 -8.858883E+05 -1.372201E-09  8.445279E-10
       136  11 -2.095280E+06 -1.557098E+05 -1.756122E+05 -8.104666E+05  1.050043E-09  2.185519E-09
       136  12 -2.267776E+06 -5.701691E+05 -5.006935E+05 -6.075310E+05 -6.429549E-10  1.863828E-09
       136  13 -2.361210E+06 -3.220980E+05 -1.429148E+05 -9.028049E+05 -3.145853E-10  1.084607E-09
       136  14 -2.286390E+06 -2.550625E+05 -2.321902E+05 -8.905602E+05  1.721043E-11  1.917350E-09
       136  15 -2.419125E+06 -7.269673E+05 -5.619152E+05 -7.507758E+05  6.595128E-10  5.483935E-10
       136  16 -2.592465E+06 -3.644813E+05 -1.963158E+05 -9.197204E+05  3.304649E-09  4.472790E-10
       136  17 -2.477462E+06 -3.544014E+05 -2.887714E+05 -9.706279E+05  1.996679E-09  8.754028E-11
       136  18 -2.570425E+06 -8.836896E+05 -6.231344E+05 -8.939732E+05 -8.684596E-10  5.198553E-10
       136  19 -2.129888E+06 -2.797111E+05 -8.949355E+04 -8.858855E+05 -1.040182E+05 -3.293077E+04
       136  20 -2.095221E+06 -1.556887E+05 -1.755004E+05 -8.104518E+05 -2.299708E+05 -7.957630E+04
       136  21 -2.267637E+06 -5.701168E+05 -5.004245E+05 -6.074935E+05 -3.541423E+05 -1.309757E+05
       136  22 -2.361199E+06 -3.220940E+05 -1.428928E+05 -9.028022E+05 -1.028527E+05 -3.250194E+04
       136  23 -2.286331E+06 -2.550412E+05 -2.320778E+05 -8.905454E+05 -2.305688E+05 -7.978838E+04
       136  24 -2.418984E+06 -7.269143E+05 -5.616425E+05 -7.507379E+05 -3.565117E+05 -1.317956E+05
       136  25 -2.592453E+06 -3.644774E+05 -1.962943E+05 -9.197177E+05 -1.016877E+05 -3.207307E+04
       136  26 -2.477402E+06 -3.543801E+05 -2.886584E+05 -9.706129E+05 -2.311666E+05 -8.000030E+04
       136  27 -2.570282E+06 -8.836359E+05 -6.228580E+05 -8.939348E+05 -3.588804E+05 -1.326143E+05
       137   1 -4.206021E+05  7.465293E+03  3.389267E+04  1.108461E+04  7.744603E+04  3.043277E+03
       137   2 -4.128143E+05 -9.521745E+04 -2.564696E+04  4.727849E+03  5.226903E+04  8.784097E+03
       137   3 -3.714052E+05 -7.745672E+04 -3.862855E+04 -2.416908E+04  2.709674E+04  7.738339E+03
       137   4 -7.769613E+04  9.299193E+04  1.188420E+05 -1.320852E+04  8.121277E+04  3.044014E+03
       137   5 -9.474107E+04 -1.615304E+04  5.156876E+04 -1.891454E+03  5.325407E+04  8.784029E+03
       137   6 -7.770107E+04 -4.406039E+03  3.276733E+04 -1.311335E+04  2.530119E+04  7.737564E+03
       137   7  2.653180E+05  1.785120E+05  2.037830E+05 -3.751511E+04  8.498159E+04  3.044458E+03
       137   8  2.234247E+05  6.290410E+04  1.287772E+05 -8.514179E+03  5.423961E+04  8.783941E+03
       137   9  2.160821E+05  6.863875E+04  1.041570E+05 -2.052392E+03  2.350479E+04  7.736725E+03
       137  10 -4.206085E+05  7.463671E+03  3.388137E+04  1.108442E+04  5.656634E-10 -1.020602E-09
       137  11 -4.128172E+05 -9.521826E+04 -2.565225E+04  4.727479E+03  2.580380E-10  1.573464E-10
       137  12 -3.714060E+05 -7.745698E+04 -3.863005E+04 -2.416925E+04 -7.934577E-10 -1.254331E-09
       137  13 -7.770322E+04  9.299015E+04  1.188296E+05 -1.320872E+04 -4.519608E-11  7.799098E-10
       137  14 -9.474413E+04 -1.615389E+04  5.156328E+04 -1.891831E+03 -4.344331E-09 -6.866976E-11
       137  15 -7.770178E+04 -4.406275E+03  3.276601E+04 -1.311351E+04  9.860219E-10 -1.202745E-09
       137  16  2.653102E+05  1.785101E+05  2.037694E+05 -3.751532E+04 -7.222381E-10  7.782403E-10
       137  17  2.234215E+05  6.290323E+04  1.287715E+05 -8.514563E+03 -1.153433E-09  1.015109E-10
       137  18  2.160815E+05  6.863854E+04  1.041559E+05 -2.052539E+03  1.171155E-09  7.921820E-10
       137  19 -4.206021E+05  7.465293E+03  3.389267E+04  1.108461E+04 -7.744603E+04 -3.043277E+03
       137  20 -4.128143E+05 -9.521745E+04 -2.564696E+04  4.727849E+03 -5.226903E+04 -8.784097E+03
       137  21 -3.714052E+05 -7.745672E+04 -3.862855E+04 -2.416908E+04 -2.709674E+04 -7.738339E+03
       137  22 -7.769613E+04  9.299193E+04  1.188420E+05 -1.320852E+04 -8.121277E+04 -3.044014E+03
       137  23 -9.474107E+04 -1.615304E+04  5.156876E+04 -1.891454E+03 -5.325407E+04 -8.784029E+03
       137  24 -7.770107E+04 -4.406039E+03  3.276733E+04 -1.311335E+04 -2.530119E+04 -7.737564E+03
       137  25  2.653180E+05  1.785120E+05  2.037830E+05 -3.751511E+04 -8.498159E+04 -3.044458E+03
       137  26  2.234247E+05  6.290410E+04  1.287772E+05 -8.514179E+03 -5.423961E+04 -8.783941E+03
       137  27  2.160821E+05  6.863875E+04  1.041570E+05 -2.052392E+03 -2.350479E+04 -7.736725E+03
       138   1 -3.349913E+05 -5.127209E+04 -3.420236E+04 -1.055998E+04  2.009062E+04  6.194117E+03
       138   2 -3.126445E+05 -5.819373E+04 -4.160303E+04 -1.210281E+03  1.345228E+04  5.894919E+03
       138   3 -2.857069E+05 -5.063606E+04 -4.103819E+04 -1.456043E+04  6.813484E+03  4.957593E+03
       138   4 -8.423789E+04  1.109975E+04  2.685713E+04 -1.318054E+04  2.010535E+04  6.193874E+03
       138   5 -8.655469E+04 -1.971512E+03  1.336734E+04 -1.828557E+03  1.320423E+04  5.894693E+03
       138   6 -8.423760E+04 -5.208155E+02  8.023228E+03 -1.317582E+04  6.302917E+03  4.957446E+03
       138   7  1.665729E+05  7.346698E+04  8.791206E+04 -1.580218E+04  2.012008E+04  6.193632E+03
       138   8  1.395818E+05  5.424695E+04  6.833400E+04 -2.447061E+03  1.295608E+04  5.894468E+03
       138   9  1.172688E+05  4.959145E+04  5.708170E+04 -1.179076E+04  5.792185E+03  4.957298E+03
       138  10 -3.349917E+05 -5.127224E+04 -3.420319E+04 -1.056008E+04 -2.129998E-09 -9.641783E-10
       138  11 -3.126447E+05 -5.819381E+04 -4.160343E+04 -1.210345E+03 -8.885454E-10  1.118969E-10
       138  12 -2.857070E+05 -5.063610E+04 -4.103832E+04 -1.456045E+04 -9.747760E-10 -2.140867E-11
       138  13 -8.423834E+04  1.109960E+04  2.685630E+04 -1.318064E+04 -1.109038E-09  3.242996E-10
       138  14 -8.655489E+04 -1.971596E+03  1.336694E+04 -1.828619E+03 -1.125168E-09  4.207434E-10
       138  15 -8.423765E+04 -5.208525E+02  8.023107E+03 -1.317584E+04 -2.659971E-09 -8.481619E-11
       138  16  1.665725E+05  7.346683E+04  8.791123E+04 -1.580228E+04  1.499331E-10  4.072597E-10
       138  17  1.395816E+05  5.424686E+04  6.833362E+04 -2.447123E+03 -1.059444E-09  2.390685E-10
       138  18  1.172687E+05  4.959141E+04  5.708159E+04 -1.179078E+04 -1.141504E-09 -3.329199E-13
       138  19 -3.349913E+05 -5.127209E+04 -3.420236E+04 -1.055998E+04 -2.009062E+04 -6.194117E+03
       138  20 -3.126445E+05 -5.819373E+04 -4.160303E+04 -1.210281E+03 -1.345228E+04 -5.894919E+03
       138  21 -2.857069E+05 -5.063606E+04 -4.103819E+04 -1.456043E+04 -6.813484E+03 -4.957593E+03
       138  22 -8.423789E+04  1.109975E+04  2.685713E+04 -1.318054E+04 -2.010535E+04 -6.193874E+03
       138  23 -8.655469E+04 -1.971512E+03  1.336734E+04 -1.828557E+03 -1.320423E+04 -5.894693E+03
       138  24 -8.423760E+04 -5.208155E+02  8.023228E+03 -1.317582E+04 -6.302917E+03 -4.957446E+03
       138  25  1.665729E+05  7.346698E+04  8.791206E+04 -1.580218E+04 -2.012008E+04 -6.193632E+03
       138  26  1.395818E+05  5.424695E+04  6.833400E+04 -2.447061E+03 -1.295608E+04 -5.894468E+03
       138  27  1.172688E+05  4.959145E+04  5.708170E+04 -1.179076E+04 -5.792185E+03 -4.957298E+03
       139   1 -2.434185E+05 -3.804903E+04 -3.214480E+04 -1.294140E+04  5.370800E+03  4.323919E+03
       139   2 -2.190279E+05 -3.345825E+04 -2.919385E+04 -1.758087E+03  3.736268E+03  3.455821E+03
       139   3 -1.939645E+05 -2.714080E+04 -2.474106E+04 -1.336184E+04  2.101393E+03  2.526847E+03
       139   4 -8.511220E+04  1.305319E+03  6.290681E+03 -1.319661E+04  5.029978E+03  4.323833E+03
       139   5 -8.545035E+04 -2.415753E+02  3.288351E+03 -1.803224E+03  3.370223E+03  3.455793E+03
       139   6 -8.511161E+04 -5.753828E+01  1.805205E+03 -1.319659E+04  1.710190E+03  2.526883E+03
       139   7  7.321695E+04  4.065783E+04  4.472435E+04 -1.345189E+04  4.689070E+03  4.323748E+03
       139   8  4.814354E+04  3.297378E+04  3.576926E+04 -1.848371E+03  3.004100E+03  3.455765E+03
       139   9  2.375211E+04  2.702485E+04  2.835061E+04 -1.303131E+04  1.318918E+03  2.526918E+03
       139  10 -2.434185E+05 -3.804906E+04 -3.214489E+04 -1.294142E+04  3.657289E-10  2.863430E-10
       139  11 -2.190280E+05 -3.345826E+04 -2.919390E+04 -1.758098E+03 -2.851717E-11  7.599008E-10
       139  12 -1.939645E+05 -2.714081E+04 -2.474108E+04 -1.336185E+04 -2.046275E-09 -3.988757E-10
       139  13 -8.511223E+04  1.305292E+03  6.290598E+03 -1.319663E+04 -2.124898E-09  1.896518E-10
       139  14 -8.545036E+04 -2.415912E+02  3.288307E+03 -1.803234E+03 -3.230802E-09  3.746231E-10
       139  15 -8.511161E+04 -5.754592E+01  1.805188E+03 -1.319660E+04  1.944508E-09  2.304815E-11
       139  16  7.321692E+04  4.065780E+04  4.472428E+04 -1.345191E+04  2.226715E-10  1.380011E-10
       139  17  4.814353E+04  3.297377E+04  3.576923E+04 -1.848379E+03  1.754063E-09  7.850025E-11
       139  18  2.375211E+04  2.702484E+04  2.835060E+04 -1.303132E+04 -1.812542E-09 -3.077830E-10
       139  19 -2.434185E+05 -3.804903E+04 -3.214480E+04 -1.294140E+04 -5.370800E+03 -4.323919E+03
       139  20 -2.190279E+05 -3.345825E+04 -2.919385E+04 -1.758087E+03 -3.736268E+03 -3.455821E+03
       139  21 -1.939645E+05 -2.714080E+04 -2.474106E+04 -1.336184E+04 -2.101393E+03 -2.526847E+03
       139  22 -8.511220E+04  1.305319E+03  6.290681E+03 -1.319661E+04 -5.029978E+03 -4.323833E+03
       139  23 -8.545035E+04 -2.415753E+02  3.288351E+03 -1.803224E+03 -3.370223E+03 -3.455793E+03
       139  24 -8.511161E+04 -5.753828E+01  1.805205E+03 -1.319659E+04 -1.710190E+03 -2.526883E+03
       139  25  7.321695E+04  4.065783E+04  4.472435E+04 -1.345189E+04 -4.689070E+03 -4.323748E+03
       139  26  4.814354E+04  3.297378E+04  3.576926E+04 -1.848371E+03 -3.004100E+03 -3.455765E+03
       139  27  2.375211E+04  2.702485E+04  2.835061E+04 -1.303131E+04 -1.318918E+03 -2.526918E+03
       140   1 -1.508157E+05 -1.613496E+04 -1.458161E+04 -1.318918E+04  1.807844E+03  1.977416E+03
       140   2 -1.260749E+05 -1.016572E+04 -9.503993E+03 -1.794955E+03  1.600965E+03  1.054162E+03
       140   3 -1.012750E+05 -4.034897E+03 -4.253220E+03 -1.323092E+04  1.393979E+03  1.254127E+02
       140   4 -8.524676E+04  1.544067E+02  1.287469E+03 -1.320619E+04  1.432412E+03  1.977478E+03
       140   5 -8.527590E+04 -2.078965E+01  4.168518E+02 -1.791162E+03  1.223250E+03  1.054242E+03
       140   6 -8.524654E+04 -3.407429E+01 -2.791127E+02 -1.320623E+04  1.013989E+03  1.255120E+02
       140   7 -1.967390E+04  1.644346E+04  1.715624E+04 -1.322321E+04  1.056941E+03  1.977540E+03
       140   8 -4.447542E+04  1.012402E+04  1.033758E+04 -1.787368E+03  8.455106E+02  1.054321E+03
       140   9 -6.921790E+04  3.966729E+03  3.694976E+03 -1.318153E+04  6.339901E+02  1.256114E+02
       140  10 -1.508157E+05 -1.613497E+04 -1.458162E+04 -1.318918E+04 -1.425237E-09 -5.446282E-10
       140  11 -1.260749E+05 -1.016572E+04 -9.504000E+03 -1.794956E+03 -4.445465E-10  4.090627E-10
       140  12 -1.012750E+05 -4.034897E+03 -4.253224E+03 -1.323092E+04 -2.397397E-10  5.858103E-10
       140  13 -8.524676E+04  1.544019E+02  1.287458E+03 -1.320619E+04 -1.080170E-09 -4.180968E-10
       140  14 -8.527590E+04 -2.079125E+01  4.168469E+02 -1.791163E+03 -3.752759E-09  2.593455E-10
       140  15 -8.524655E+04 -3.407458E+01 -2.791147E+02 -1.320623E+04 -1.763637E-10  7.363012E-11
       140  16 -1.967390E+04  1.644346E+04  1.715623E+04 -1.322321E+04  8.268713E-10 -4.962536E-10
       140  17 -4.447542E+04  1.012402E+04  1.033757E+04 -1.787369E+03  7.381826E-10  1.488512E-10
       140  18 -6.921790E+04  3.966729E+03  3.694975E+03 -1.318153E+04 -1.833162E-09  2.613719E-10
       140  19 -1.508157E+05 -1.613496E+04 -1.458161E+04 -1.318918E+04 -1.807844E+03 -1.977416E+03
       140  20 -1.260749E+05 -1.016572E+04 -9.503993E+03 -1.794955E+03 -1.600965E+03 -1.054162E+03
       140  21 -1.012750E+05 -4.034897E+03 -4.253220E+03 -1.323092E+04 -1.393979E+03 -1.254127E+02
       140  22 -8.524676E+04  1.544067E+02  1.287469E+03 -1.320619E+04 -1.432412E+03 -1.977478E+03
       140  23 -8.527590E+04 -2.078965E+01  4.168518E+02 -1.791162E+03 -1.223250E+03 -1.054242E+03
       140  24 -8.524654E+04 -3.407429E+01 -2.791127E+02 -1.320623E+04 -1.013989E+03 -1.255120E+02
       140  25 -1.967390E+04  1.644346E+04  1.715624E+04 -1.322321E+04 -1.056941E+03 -1.977540E+03
       140  26 -4.447542E+04  1.012402E+04  1.033758E+04 -1.787368E+03 -8.455106E+02 -1.054321E+03
       140  27 -6.921790E+04  3.966729E+03  3.694976E+03 -1.318153E+04 -6.339901E+02 -1.256114E+02
       141   1 -5.801050E+04  6.837964E+03  6.078612E+03 -1.326366E+04  1.476293E+03 -4.172122E+02
       141   2 -3.313898E+04  1.300323E+04  1.112476E+04 -1.811483E+03  2.239908E+03 -1.346001E+03
       141   3 -8.470960E+03  1.877718E+04  1.557433E+04 -1.318630E+04  3.003675E+03 -2.269054E+03
       141   4 -8.530513E+04  3.588260E+01 -6.348682E+02 -1.320552E+04  1.096224E+03 -4.171147E+02
       141   5 -8.520304E+04  5.786433E+01 -1.534679E+03 -1.792003E+03  1.862109E+03 -1.345928E+03
       141   6 -8.530546E+04 -3.118507E+02 -3.032676E+03 -1.320560E+04  2.628114E+03 -2.269004E+03
       141   7 -1.125991E+05 -6.766254E+03 -7.348402E+03 -1.314739E+04  7.161726E+02 -4.170172E+02
       141   8 -1.372646E+05 -1.288770E+04 -1.419432E+04 -1.772524E+03  1.484340E+03 -1.345856E+03
       141   9 -1.621346E+05 -1.940131E+04 -2.164011E+04 -1.322489E+04  2.252599E+03 -2.268954E+03
       141  10 -5.801050E+04  6.837963E+03  6.078607E+03 -1.326366E+04 -7.740266E-10  4.297097E-10
       141  11 -3.313899E+04  1.300322E+04  1.112475E+04 -1.811480E+03 -9.178893E-10 -5.274666E-11
       141  12 -8.470972E+03  1.877717E+04  1.557430E+04 -1.318629E+04  7.057852E-10  3.147796E-11
       141  13 -8.530513E+04  3.588209E+01 -6.348708E+02 -1.320552E+04 -2.215142E-09 -2.344064E-10
       141  14 -8.520304E+04  5.786146E+01 -1.534689E+03 -1.792001E+03 -3.292225E-09 -4.310220E-10
       141  15 -8.530547E+04 -3.118581E+02 -3.032699E+03 -1.320559E+04 -2.436653E-09 -3.006862E-10
       141  16 -1.125991E+05 -6.766254E+03 -7.348404E+03 -1.314739E+04 -1.498740E-09 -4.458236E-11
       141  17 -1.372646E+05 -1.288770E+04 -1.419433E+04 -1.772522E+03 -1.534076E-09 -5.890643E-11
       141  18 -1.621346E+05 -1.940132E+04 -2.164013E+04 -1.322489E+04 -2.726551E-09 -3.442390E-10
       141  19 -5.801050E+04  6.837964E+03  6.078612E+03 -1.326366E+04 -1.476293E+03  4.172122E+02
       141  20 -3.313898E+04  1.300323E+04  1.112476E+04 -1.811483E+03 -2.239908E+03  1.346001E+03
       141  21 -8.470960E+03  1.877718E+04  1.557433E+04 -1.318630E+04 -3.003675E+03  2.269054E+03
       141  22 -8.530513E+04  3.588260E+01 -6.348682E+02 -1.320552E+04 -1.096224E+03  4.171147E+02
       141  23 -8.520304E+04  5.786433E+01 -1.534679E+03 -1.792003E+03 -1.862109E+03  1.345928E+03
       141  24 -8.530546E+04 -3.118507E+02 -3.032676E+03 -1.320560E+04 -2.628114E+03  2.269004E+03
       141  25 -1.125991E+05 -6.766254E+03 -7.348402E+03 -1.314739E+04 -7.161726E+02  4.170172E+02
       141  26 -1.372646E+05 -1.288770E+04 -1.419432E+04 -1.772524E+03 -1.484340E+03  1.345856E+03
       141  27 -1.621346E+05 -1.940131E+04 -2.164011E+04 -1.322489E+04 -2.252599E+03  2.268954E+03
       142   1  3.456363E+04  3.000675E+04  2.528808E+04 -1.357444E+04  3.650580E+03 -2.818544E+03
       142   2  5.993797E+04  3.649732E+04  2.829678E+04 -1.718653E+03  7.114543E+03 -3.746780E+03
       142   3  8.400827E+04  3.943347E+04  2.816893E+04 -1.264496E+04  1.057891E+04 -4.611511E+03
       142   4 -8.555344E+04  1.263893E+02 -3.993398E+03 -1.319564E+04  3.258567E+03 -2.818522E+03
       142   5 -8.489943E+04  4.867791E+02 -6.917739E+03 -1.804361E+03  6.747704E+03 -3.746829E+03
       142   6 -8.555447E+04 -2.712028E+03 -1.299656E+04 -1.319552E+04  1.023710E+04 -4.611628E+03
       142   7 -2.056574E+05 -2.975503E+04 -3.327592E+04 -1.281692E+04  2.866629E+03 -2.818501E+03
       142   8 -2.297177E+05 -3.552531E+04 -4.213377E+04 -1.890049E+03  6.380951E+03 -3.746878E+03
       142   9 -2.550910E+05 -4.485963E+04 -5.416413E+04 -1.374592E+04  9.895397E+03 -4.611744E+03
       142  10  3.456362E+04  3.000673E+04  2.528804E+04 -1.357443E+04 -4.372761E-09 -1.256553E-10
       142  11  5.993791E+04  3.649730E+04  2.829665E+04 -1.718632E+03 -4.279912E-10  9.515507E-11
       142  12  8.400815E+04  3.943341E+04  2.816868E+04 -1.264492E+04  9.789507E-10  2.073449E-10
       142  13 -8.555345E+04  1.263779E+02 -3.993433E+03 -1.319563E+04 -2.153171E-09 -2.337882E-10
       142  14 -8.489948E+04  4.867518E+02 -6.917851E+03 -1.804340E+03 -5.082501E-10 -1.319496E-10
       142  15 -8.555459E+04 -2.712079E+03 -1.299679E+04 -1.319548E+04  2.860502E-10 -2.151047E-10
       142  16 -2.056574E+05 -2.975504E+04 -3.327595E+04 -1.281692E+04  2.813597E-09 -2.728201E-10
       142  17 -2.297177E+05 -3.552533E+04 -4.213388E+04 -1.890029E+03 -2.806761E-09 -3.501451E-10
       142  18 -2.550911E+05 -4.485968E+04 -5.416435E+04 -1.374588E+04 -1.693448E-09 -5.171669E-10
       142  19  3.456363E+04  3.000675E+04  2.528808E+04 -1.357444E+04 -3.650580E+03  2.818544E+03
       142  20  5.993797E+04  3.649732E+04  2.829678E+04 -1.718653E+03 -7.114543E+03  3.746780E+03
       142  21  8.400827E+04  3.943347E+04  2.816893E+04 -1.264496E+04 -1.057891E+04  4.611511E+03
       142  22 -8.555344E+04  1.263893E+02 -3.993398E+03 -1.319564E+04 -3.258567E+03  2.818522E+03
       142  23 -8.489943E+04  4.867791E+02 -6.917739E+03 -1.804361E+03 -6.747704E+03  3.746829E+03
       142  24 -8.555447E+04 -2.712028E+03 -1.299656E+04 -1.319552E+04 -1.023710E+04  4.611628E+03
       142  25 -2.056574E+05 -2.975503E+04 -3.327592E+04 -1.281692E+04 -2.866629E+03  2.818501E+03
       142  26 -2.297177E+05 -3.552531E+04 -4.213377E+04 -1.890049E+03 -6.380951E+03  3.746878E+03
       142  27 -2.550910E+05 -4.485963E+04 -5.416413E+04 -1.374592E+04 -9.895397E+03  4.611744E+03
       143   1  1.254197E+05  5.395267E+04  3.527411E+04 -1.595868E+04  1.337786E+04 -5.246057E+03
       143   2  1.546200E+05  6.300924E+04  3.021892E+04 -3.976157E+02  2.729166E+04 -6.172981E+03
       143   3  1.746896E+05  4.231054E+04  8.693783E+03 -7.500394E+03  4.120628E+04 -6.436043E+03
       143   4 -8.730873E+04  1.052195E+03 -1.651243E+04 -1.317262E+04  1.285994E+04 -5.246195E+03
       143   5 -8.271877E+04  4.004932E+03 -2.747148E+04 -1.834764E+03  2.703974E+04 -6.173281E+03
       143   6 -8.731078E+04 -2.285031E+04 -5.509000E+04 -1.316153E+04  4.121979E+04 -6.436582E+03
       143   7 -2.999958E+05 -5.185158E+04 -6.830225E+04 -1.038752E+04  1.234221E+04 -5.246337E+03
       143   8 -3.200061E+05 -5.500352E+04 -8.516596E+04 -3.271366E+03  2.678791E+04 -6.173580E+03
       143   9 -3.492484E+05 -8.801611E+04 -1.188788E+05 -1.882027E+04  4.123330E+04 -6.437121E+03
       143  10  1.254195E+05  5.395259E+04  3.527372E+04 -1.595862E+04  1.113404E-09 -4.732683E-11
       143  11  1.546192E+05  6.300900E+04  3.021745E+04 -3.974800E+02  2.649126E-09 -6.669040E-10
       143  12  1.746877E+05  4.231004E+04  8.690515E+03 -7.500181E+03  1.349691E-09 -5.361034E-10
       143  13 -8.730891E+04  1.052121E+03 -1.651280E+04 -1.317257E+04  4.304827E-09 -1.624825E-10
       143  14 -8.271956E+04  4.004694E+03 -2.747293E+04 -1.834630E+03  1.079385E-09 -3.103625E-10
       143  15 -8.731261E+04 -2.285082E+04 -5.509327E+04 -1.316131E+04 -5.447208E-10 -4.898149E-10
       143  16 -2.999960E+05 -5.185165E+04 -6.830259E+04 -1.038747E+04  5.834669E-10 -2.171139E-10
       143  17 -3.200069E+05 -5.500375E+04 -8.516738E+04 -3.271233E+03  4.581447E-10  9.618824E-10
       143  18 -3.492503E+05 -8.801661E+04 -1.188820E+05 -1.882006E+04 -2.528874E-09 -2.222941E-10
       143  19  1.254197E+05  5.395267E+04  3.527411E+04 -1.595868E+04 -1.337786E+04  5.246057E+03
       143  20  1.546200E+05  6.300924E+04  3.021892E+04 -3.976157E+02 -2.729166E+04  6.172981E+03
       143  21  1.746896E+05  4.231054E+04  8.693783E+03 -7.500394E+03 -4.120628E+04  6.436043E+03
       143  22 -8.730873E+04  1.052195E+03 -1.651243E+04 -1.317262E+04 -1.285994E+04  5.246195E+03
       143  23 -8.271877E+04  4.004932E+03 -2.747148E+04 -1.834764E+03 -2.703974E+04  6.173281E+03
       143  24 -8.731078E+04 -2.285031E+04 -5.509000E+04 -1.316153E+04 -4.121979E+04  6.436582E+03
       143  25 -2.999958E+05 -5.185158E+04 -6.830225E+04 -1.038752E+04 -1.234221E+04  5.246337E+03
       143  26 -3.200061E+05 -5.500352E+04 -8.516596E+04 -3.271366E+03 -2.678791E+04  6.173580E+03
       143  27 -3.492484E+05 -8.801611E+04 -1.188788E+05 -1.882027E+04 -4.123330E+04  6.437121E+03
       144   1  2.043941E+05  8.476093E+04  6.937769E+03 -3.541473E+04  5.373080E+04 -7.996016E+03
       144   2  2.632208E+05  1.148925E+05 -2.585610E+04  1.227674E+04  1.082370E+05 -8.951155E+03
       144   3  2.533777E+05 -1.023011E+05 -1.558905E+05  3.777525E+04  1.627395E+05 -2.863593E+03
       144   4 -1.006540E+05  8.965957E+03 -6.718151E+04 -1.312750E+04  5.187064E+04 -7.995508E+03
       144   5 -6.605241E+04  3.303489E+04 -1.057700E+05 -1.925320E+03  1.092219E+05 -8.953032E+03
       144   6 -1.006554E+05 -1.907908E+05 -2.436126E+05 -1.291625E+04  1.665669E+05 -2.872618E+03
       144   7 -4.056162E+05 -6.683398E+04 -1.413072E+05  9.148729E+03  5.001139E+04 -7.995132E+03
       144   8 -3.952262E+05 -4.882997E+04 -1.856916E+05 -1.611985E+04  1.102063E+05 -8.954954E+03
       144   9 -4.545693E+05 -2.792803E+05 -3.313426E+05 -6.357885E+04  1.703922E+05 -2.882274E+03
       144  10  2.043910E+05  8.476009E+04  6.932226E+03 -3.541438E+04 -4.874326E-11 -1.226320E-09
       144  11  2.632082E+05  1.148893E+05 -2.587826E+04  1.227752E+04  7.347057E-10 -3.234831E-09
       144  12  2.533493E+05 -1.023082E+05 -1.559403E+05  3.777563E+04  1.788517E-09 -1.158881E-09
       144  13 -1.006569E+05  8.965166E+03 -6.718669E+04 -1.312717E+04 -2.091526E-09 -3.373541E-09
       144  14 -6.606524E+04  3.303160E+04 -1.057926E+05 -1.924533E+03  4.827891E-10  1.188959E-09
       144  15 -1.006853E+05 -1.907983E+05 -2.436647E+05 -1.291587E+04 -3.188112E-09 -2.456685E-10
       144  16 -4.056189E+05 -6.683472E+04 -1.413121E+05  9.149051E+03 -1.968591E-09 -1.099101E-09
       144  17 -3.952392E+05 -4.883332E+04 -1.857146E+05 -1.611905E+04 -1.872696E-09  6.304484E-10
       144  18 -4.546005E+05 -2.792881E+05 -3.313972E+05 -6.357846E+04  8.603987E-10 -1.199780E-09
       144  19  2.043941E+05  8.476093E+04  6.937769E+03 -3.541473E+04 -5.373080E+04  7.996016E+03
       144  20  2.632208E+05  1.148925E+05 -2.585610E+04  1.227674E+04 -1.082370E+05  8.951155E+03
       144  21  2.533777E+05 -1.023011E+05 -1.558905E+05  3.777525E+04 -1.627395E+05  2.863593E+03
       144  22 -1.006540E+05  8.965957E+03 -6.718151E+04 -1.312750E+04 -5.187064E+04  7.995508E+03
       144  23 -6.605241E+04  3.303489E+04 -1.057700E+05 -1.925320E+03 -1.092219E+05  8.953032E+03
       144  24 -1.006554E+05 -1.907908E+05 -2.436126E+05 -1.291625E+04 -1.665669E+05  2.872618E+03
       144  25 -4.056162E+05 -6.683398E+04 -1.413072E+05  9.148729E+03 -5.001139E+04  7.995132E+03
       144  26 -3.952262E+05 -4.882997E+04 -1.856916E+05 -1.611985E+04 -1.102063E+05  8.954954E+03
       144  27 -4.545693E+05 -2.792803E+05 -3.313426E+05 -6.357885E+04 -1.703922E+05  2.882274E+03
       145   1  3.406515E+05  7.964956E+05  3.489834E+05 -1.451699E+05  9.723913E+03  4.986971E+04
       145   2  2.286009E+05  5.362615E+05  2.502666E+05 -2.216860E+04  2.645466E+04  2.803598E+04
       145   3  1.712276E+05  2.928996E+05  1.794906E+05 -1.302382E+05  1.690133E+04  6.153696E+03
       145   4  4.099611E+04 -4.043834E+05  5.144798E+04 -1.331325E+05  9.745710E+03  3.764077E+04
       145   5 -7.013118E+03 -4.118529E+05  2.030684E+04 -1.762457E+04  2.646071E+04  2.656399E+04
       145   6 -2.160818E+03 -4.043415E+05  9.676184E+03 -1.332066E+05  1.687448E+04  1.542971E+04
       145   7 -2.587667E+05 -1.603953E+06 -2.461943E+05 -1.211176E+05  9.767057E+03  2.543538E+04
       145   8 -2.426931E+05 -1.359147E+06 -2.097178E+05 -1.308704E+04  2.646674E+04  2.509422E+04
       145   9 -1.755849E+05 -1.101139E+06 -1.601732E+05 -1.361712E+05  1.684753E+04  2.469532E+04
       145  10  3.406507E+05  7.964929E+05  3.489786E+05 -1.451703E+05 -3.481309E-10 -9.730425E-10
       145  11  2.286000E+05  5.362605E+05  2.502638E+05 -2.216919E+04 -5.113162E-10 -5.411494E-10
       145  12  1.712273E+05  2.928994E+05  1.794899E+05 -1.302383E+05 -3.818722E-10  2.015524E-09
       145  13  4.099563E+04 -4.043850E+05  5.144514E+04 -1.331328E+05  2.454421E-10 -1.982605E-11
       145  14 -7.014060E+03 -4.118539E+05  2.030420E+04 -1.762514E+04  3.534507E-09  1.248812E-09
       145  15 -2.161188E+03 -4.043418E+05  9.675201E+03 -1.332068E+05 -2.233061E-09 -2.782374E-10
       145  16 -2.587670E+05 -1.603953E+06 -2.461957E+05 -1.211178E+05  8.785732E-10 -1.307743E-09
       145  17 -2.426940E+05 -1.359147E+06 -2.097203E+05 -1.308758E+04  2.957759E-09  1.775617E-09
       145  18 -1.755854E+05 -1.101139E+06 -1.601748E+05 -1.361715E+05 -7.889410E-11  6.428256E-10
       145  19  3.406515E+05  7.964956E+05  3.489834E+05 -1.451699E+05 -9.723913E+03 -4.986971E+04
       145  20  2.286009E+05  5.362615E+05  2.502666E+05 -2.216860E+04 -2.645466E+04 -2.803598E+04
       145  21  1.712276E+05  2.928996E+05  1.794906E+05 -1.302382E+05 -1.690133E+04 -6.153696E+03
       145  22  4.099611E+04 -4.043834E+05  5.144798E+04 -1.331325E+05 -9.745710E+03 -3.764077E+04
       145  23 -7.013118E+03 -4.118529E+05  2.030684E+04 -1.762457E+04 -2.646071E+04 -2.656399E+04
       145  24 -2.160818E+03 -4.043415E+05  9.676184E+03 -1.332066E+05 -1.687448E+04 -1.542971E+04
       145  25 -2.587667E+05 -1.603953E+06 -2.461943E+05 -1.211176E+05 -9.767057E+03 -2.543538E+04
       145  26 -2.426931E+05 -1.359147E+06 -2.097178E+05 -1.308704E+04 -2.646674E+04 -2.509422E+04
       145  27 -1.755849E+05 -1.101139E+06 -1.601732E+05 -1.361712E+05 -1.684753E+04 -2.469532E+04
       146   1  6.957969E+04 -1.524446E+05  6.760041E+04 -1.341480E+05  7.099649E+03  1.120627E+04
       146   2  1.674041E+03 -4.034542E+05 -3.949352E+03 -1.803576E+04  4.168084E+01  1.363046E+04
       146   3 -7.037550E+04 -6.575214E+05 -7.849665E+04 -1.345650E+05 -7.031759E+03  1.605354E+04
       146   4  5.989642E+03 -4.082347E+05  5.529004E+03 -1.335037E+05  7.090571E+03  1.407695E+04
       146   5  8.652164E+02 -4.066801E+05 -4.734902E+03 -1.720546E+04  3.266855E+01  1.650857E+04
       146   6 -8.398313E+03 -4.082388E+05 -1.799372E+04 -1.335488E+05 -7.040869E+03  1.894005E+04
       146   7 -5.760521E+04 -6.639650E+05 -5.654710E+04 -1.328597E+05  7.081498E+03  1.694645E+04
       146   8  5.639783E+01 -4.099060E+05 -5.520422E+03 -1.637516E+04  2.366394E+01  1.938666E+04
       146   9  5.357432E+04 -1.588994E+05  4.250474E+04 -1.325321E+05 -7.049967E+03  2.182773E+04
       146  10  6.957960E+04 -1.524447E+05  6.760008E+04 -1.341480E+05 -2.101990E-11 -7.495157E-10
       146  11  1.673991E+03 -4.034544E+05 -3.949701E+03 -1.803576E+04 -1.700520E-09 -2.346497E-09
       146  12 -7.037562E+04 -6.575217E+05 -7.849723E+04 -1.345649E+05 -1.730247E-09 -2.907879E-09
       146  13  5.989534E+03 -4.082349E+05  5.528537E+03 -1.335038E+05  1.923143E-09  1.219086E-10
       146  14  8.651431E+02 -4.066804E+05 -4.735415E+03 -1.720546E+04  1.044471E-10  1.728304E-09
       146  15 -8.398462E+03 -4.082392E+05 -1.799449E+04 -1.335487E+05 -2.313956E-09 -3.655654E-10
       146  16 -5.760534E+04 -6.639653E+05 -5.654773E+04 -1.328598E+05 -2.349132E-10 -4.090501E-09
       146  17  5.629685E+01 -4.099064E+05 -5.521129E+03 -1.637516E+04  2.188425E-09  4.054336E-09
       146  18  5.357414E+04 -1.588999E+05  4.250375E+04 -1.325320E+05  4.962883E-10  5.725050E-09
       146  19  6.957969E+04 -1.524446E+05  6.760041E+04 -1.341480E+05 -7.099649E+03 -1.120627E+04
       146  20  1.674041E+03 -4.034542E+05 -3.949352E+03 -1.803576E+04 -4.168084E+01 -1.363046E+04
       146  21 -7.037550E+04 -6.575214E+05 -7.849665E+04 -1.345650E+05  7.031759E+03 -1.605354E+04
       146  22  5.989642E+03 -4.082347E+05  5.529004E+03 -1.335037E+05 -7.090571E+03 -1.407695E+04
       146  23  8.652164E+02 -4.066801E+05 -4.734902E+03 -1.720546E+04 -3.266855E+01 -1.650857E+04
       146  24 -8.398313E+03 -4.082388E+05 -1.799372E+04 -1.335488E+05  7.040869E+03 -1.894005E+04
       146  25 -5.760521E+04 -6.639650E+05 -5.654710E+04 -1.328597E+05 -7.081498E+03 -1.694645E+04
       146  26  5.639783E+01 -4.099060E+05 -5.520422E+03 -1.637516E+04 -2.366394E+01 -1.938666E+04
       146  27  5.357432E+04 -1.588994E+05  4.250474E+04 -1.325321E+05  7.049967E+03 -2.182773E+04
       147   1 -1.670335E+05 -1.103828E+06 -1.917285E+05 -1.229463E+05 -1.679285E+04  1.322688E+04
       147   2 -2.214068E+05 -1.341342E+06 -2.686165E+05 -2.152578E+04 -2.645534E+04  4.563601E+04
       147   3 -3.721555E+05 -1.606865E+06 -3.907053E+05 -1.513527E+05 -9.881369E+03  7.808890E+04
       147   4  4.884689E+03 -4.134804E+05 -2.342478E+04 -1.331613E+05 -1.681990E+04  2.249030E+04
       147   5  1.263183E+04 -4.004324E+05 -4.015157E+04 -1.761373E+04 -2.644922E+04  4.424308E+04
       147   6 -7.405818E+04 -4.135472E+05 -9.461857E+04 -1.332980E+05 -9.858068E+03  6.605327E+04
       147   7  1.767680E+05  2.773027E+05  1.448446E+05 -1.433875E+05 -1.684723E+04  3.176401E+04
       147   8  2.466054E+05  5.412875E+05  1.882494E+05 -1.369526E+04 -2.644311E+04  4.284801E+04
       147   9  2.239337E+05  7.810674E+05  2.013626E+05 -1.152078E+05 -9.835495E+03  5.399437E+04
       147  10 -1.670338E+05 -1.103828E+06 -1.917293E+05 -1.229461E+05 -6.756283E-10 -2.142373E-09
       147  11 -2.214081E+05 -1.341345E+06 -2.686217E+05 -2.152480E+04  3.096690E-09  9.930034E-10
       147  12 -3.721572E+05 -1.606872E+06 -3.907170E+05 -1.513521E+05 -3.940037E-10  2.445898E-09
       147  13  4.884250E+03 -4.134810E+05 -2.342626E+04 -1.331610E+05 -2.737236E-09  1.194146E-11
       147  14  1.263055E+04 -4.004347E+05 -4.015656E+04 -1.761279E+04  2.435813E-10  1.164673E-09
       147  15 -7.405946E+04 -4.135519E+05 -9.462696E+04 -1.332975E+05  6.348379E-10 -2.354464E-10
       147  16  1.767675E+05  2.773015E+05  1.448422E+05 -1.433870E+05 -1.719509E-09 -2.413614E-09
       147  17  2.466042E+05  5.412853E+05  1.882446E+05 -1.369435E+04  9.474888E-10  1.868964E-10
       147  18  2.239328E+05  7.810643E+05  2.013569E+05 -1.152074E+05  1.145850E-09 -1.223155E-09
       147  19 -1.670335E+05 -1.103828E+06 -1.917285E+05 -1.229463E+05  1.679285E+04 -1.322688E+04
       147  20 -2.214068E+05 -1.341342E+06 -2.686165E+05 -2.152578E+04  2.645534E+04 -4.563601E+04
       147  21 -3.721555E+05 -1.606865E+06 -3.907053E+05 -1.513527E+05  9.881369E+03 -7.808890E+04
       147  22  4.884689E+03 -4.134804E+05 -2.342478E+04 -1.331613E+05  1.681990E+04 -2.249030E+04
       147  23  1.263183E+04 -4.004324E+05 -4.015157E+04 -1.761373E+04  2.644922E+04 -4.424308E+04
       147  24 -7.405818E+04 -4.135472E+05 -9.461857E+04 -1.332980E+05  9.858068E+03 -6.605327E+04
       147  25  1.767680E+05  2.773027E+05  1.448446E+05 -1.433875E+05  1.684723E+04 -3.176401E+04
       147  26  2.466054E+05  5.412875E+05  1.882494E+05 -1.369526E+04  2.644311E+04 -4.284801E+04
       147  27  2.239337E+05  7.810674E+05  2.013626E+05 -1.152078E+05  9.835495E+03 -5.399437E+04
       148   1 -1.473927E+06 -4.019479E+05 -2.222182E+05 -5.234998E+05 -1.012046E+05 -3.549055E+04
       148   2 -1.439073E+06 -2.458886E+05 -1.255633E+05 -5.347360E+05 -6.585399E+04 -1.719604E+04
       148   3 -1.451174E+06 -2.483422E+05 -9.643103E+04 -5.226706E+05 -2.852134E+04 -4.165874E+03
       148   4 -1.244963E+06 -2.880503E+05 -1.541628E+05 -4.330802E+05 -9.855762E+04 -3.450038E+04
       148   5 -1.213799E+06 -1.534720E+05 -6.374207E+04 -4.656007E+05 -6.520253E+04 -1.695227E+04
       148   6 -1.229173E+06 -1.769800E+05 -3.924067E+04 -4.748257E+05 -2.986621E+04 -4.670697E+03
       148   7 -1.015947E+06 -1.741368E+05 -8.611241E+04 -3.426265E+05 -9.590952E+04 -3.350951E+04
       148   8 -9.884759E+05 -6.104966E+04 -1.925438E+03 -3.964418E+05 -6.455080E+04 -1.670838E+04
       148   9 -1.007125E+06 -1.056178E+05  1.794580E+04 -4.269668E+05 -3.121161E+04 -5.175652E+03
       148  10 -1.473938E+06 -4.019520E+05 -2.222398E+05 -5.235026E+05  1.372311E-09 -3.436788E-10
       148  11 -1.439078E+06 -2.458901E+05 -1.255720E+05 -5.347369E+05 -2.451831E-09 -2.555554E-10
       148  12 -1.451175E+06 -2.483424E+05 -9.643260E+04 -5.226707E+05 -1.170729E-09  6.175381E-10
       148  13 -1.244974E+06 -2.880541E+05 -1.541833E+05 -4.330830E+05  3.111069E-09  7.567536E-10
       148  14 -1.213804E+06 -1.534735E+05 -6.375062E+04 -4.656016E+05 -1.798839E-09 -5.284803E-10
       148  15 -1.229174E+06 -1.769802E+05 -3.924239E+04 -4.748258E+05 -1.746866E-09 -1.028896E-10
       148  16 -1.015957E+06 -1.741404E+05 -8.613184E+04 -3.426291E+05 -1.235072E-09  1.000229E-10
       148  17 -9.884804E+05 -6.105108E+04 -1.933808E+03 -3.964426E+05 -4.474376E-10 -1.117069E-09
       148  18 -1.007126E+06 -1.056181E+05  1.794391E+04 -4.269669E+05 -8.951080E-10  1.754973E-10
       148  19 -1.473927E+06 -4.019479E+05 -2.222182E+05 -5.234998E+05  1.012046E+05  3.549055E+04
       148  20 -1.439073E+06 -2.458886E+05 -1.255633E+05 -5.347360E+05  6.585399E+04  1.719604E+04
       148  21 -1.451174E+06 -2.483422E+05 -9.643103E+04 -5.226706E+05  2.852134E+04  4.165874E+03
       148  22 -1.244963E+06 -2.880503E+05 -1.541628E+05 -4.330802E+05  9.855762E+04  3.450038E+04
       148  23 -1.213799E+06 -1.534720E+05 -6.374207E+04 -4.656007E+05  6.520253E+04  1.695227E+04
       148  24 -1.229173E+06 -1.769800E+05 -3.924067E+04 -4.748257E+05  2.986621E+04  4.670697E+03
       148  25 -1.015947E+06 -1.741368E+05 -8.611241E+04 -3.426265E+05  9.590952E+04  3.350951E+04
       148  26 -9.884759E+05 -6.104966E+04 -1.925438E+03 -3.964418E+05  6.455080E+04  1.670838E+04
       148  27 -1.007125E+06 -1.056178E+05  1.794580E+04 -4.269668E+05  3.121161E+04  5.175652E+03
       149   1 -1.398609E+06 -2.631922E+05 -7.968959E+04 -5.164307E+05 -2.369645E+04 -3.741128E+03
       149   2 -1.382878E+06 -2.311789E+05 -5.731635E+04 -5.059522E+05 -1.548986E+04 -9.629093E+02
       149   3 -1.360955E+06 -2.312710E+05 -4.591602E+04 -5.069582E+05 -7.075440E+03  1.261962E+03
       149   4 -1.223848E+06 -1.941631E+05 -3.209704E+04 -4.655708E+05 -2.369708E+04 -3.741610E+03
       149   5 -1.225991E+06 -1.712761E+05 -1.505902E+04 -4.624008E+05 -1.569930E+04 -1.041662E+03
       149   6 -1.221900E+06 -1.804499E+05 -8.825702E+03 -4.707157E+05 -7.493967E+03  1.104841E+03
       149   7 -1.049057E+06 -1.251316E+05  1.549262E+04 -4.146977E+05 -2.369770E+04 -3.742093E+03
       149   8 -1.069081E+06 -1.113716E+05  2.719612E+04 -4.188394E+05 -1.590881E+04 -1.120437E+03
       149   9 -1.082827E+06 -1.296278E+05  2.826302E+04 -4.344660E+05 -7.912597E+03  9.476837E+02
       149  10 -1.398610E+06 -2.631924E+05 -7.969067E+04 -5.164308E+05 -3.010650E-10  9.354054E-10
       149  11 -1.382878E+06 -2.311790E+05 -5.731681E+04 -5.059522E+05  1.066272E-09  5.400440E-10
       149  12 -1.360955E+06 -2.312710E+05 -4.591612E+04 -5.069582E+05  3.989676E-10  1.776479E-10
       149  13 -1.223848E+06 -1.941633E+05 -3.209813E+04 -4.655708E+05 -1.140866E-10  8.351890E-10
       149  14 -1.225992E+06 -1.712761E+05 -1.505949E+04 -4.624008E+05 -2.330539E-09  1.535473E-09
       149  15 -1.221900E+06 -1.804499E+05 -8.825810E+03 -4.707157E+05 -1.391579E-10  1.530174E-10
       149  16 -1.049058E+06 -1.251318E+05  1.549154E+04 -4.146978E+05  1.523356E-10  2.087891E-10
       149  17 -1.069081E+06 -1.113716E+05  2.719564E+04 -4.188394E+05  1.788609E-09  1.323236E-09
       149  18 -1.082827E+06 -1.296278E+05  2.826290E+04 -4.344660E+05  7.904098E-11  2.490797E-10
       149  19 -1.398609E+06 -2.631922E+05 -7.968959E+04 -5.164307E+05  2.369645E+04  3.741128E+03
       149  20 -1.382878E+06 -2.311789E+05 -5.731635E+04 -5.059522E+05  1.548986E+04  9.629093E+02
       149  21 -1.360955E+06 -2.312710E+05 -4.591602E+04 -5.069582E+05  7.075440E+03 -1.261962E+03
       149  22 -1.223848E+06 -1.941631E+05 -3.209704E+04 -4.655708E+05  2.369708E+04  3.741610E+03
       149  23 -1.225991E+06 -1.712761E+05 -1.505902E+04 -4.624008E+05  1.569930E+04  1.041662E+03
       149  24 -1.221900E+06 -1.804499E+05 -8.825702E+03 -4.707157E+05  7.493967E+03 -1.104841E+03
       149  25 -1.049057E+06 -1.251316E+05  1.549262E+04 -4.146977E+05  2.369770E+04  3.742093E+03
       149  26 -1.069081E+06 -1.113716E+05  2.719612E+04 -4.188394E+05  1.590881E+04  1.120437E+03
       149  27 -1.082827E+06 -1.296278E+05  2.826302E+04 -4.344660E+05  7.912597E+03 -9.476837E+02
       150   1 -1.320019E+06 -2.202800E+05 -3.353785E+04 -4.970081E+05 -5.717497E+03  1.139002E+03
       150   2 -1.306305E+06 -2.029898E+05 -2.468190E+04 -4.832970E+05 -3.567524E+03  1.062597E+03
       150   3 -1.278924E+06 -2.026929E+05 -1.781909E+04 -4.859385E+05 -1.392266E+03  9.183675E+02
       150   4 -1.221032E+06 -1.826703E+05 -6.967008E+03 -4.697055E+05 -6.000315E+03  1.032836E+03
       150   5 -1.227749E+06 -1.733385E+05 -3.585659E+03 -4.618430E+05 -3.875905E+03  9.468788E+02
       150   6 -1.220793E+06 -1.809946E+05 -2.176814E+03 -4.703331E+05 -1.726281E+03  7.930756E+02
       150   7 -1.122035E+06 -1.450600E+05  1.960296E+04 -4.423990E+05 -6.283183E+03  9.266504E+02
       150   8 -1.149187E+06 -1.436870E+05  1.751001E+04 -4.403866E+05 -4.184328E+03  8.311444E+02
       150   9 -1.162659E+06 -1.592962E+05  1.346513E+04 -4.547263E+05 -2.060329E+03  6.677714E+02
       150  10 -1.320019E+06 -2.202800E+05 -3.353791E+04 -4.970081E+05 -2.468525E-09  2.313774E-10
       150  11 -1.306305E+06 -2.029898E+05 -2.468193E+04 -4.832970E+05 -8.193510E-10  1.477436E-10
       150  12 -1.278924E+06 -2.026929E+05 -1.781910E+04 -4.859385E+05  9.031870E-10 -6.071031E-10
       150  13 -1.221032E+06 -1.826703E+05 -6.967078E+03 -4.697055E+05 -3.472556E-11  2.577565E-11
       150  14 -1.227749E+06 -1.733385E+05 -3.585689E+03 -4.618430E+05 -1.712633E-09 -6.810049E-11
       150  15 -1.220793E+06 -1.809946E+05 -2.176821E+03 -4.703331E+05  9.121382E-10 -6.723245E-10
       150  16 -1.122035E+06 -1.450600E+05  1.960289E+04 -4.423990E+05  1.968460E-09 -1.107898E-10
       150  17 -1.149187E+06 -1.436870E+05  1.750998E+04 -4.403866E+05  3.696159E-10 -1.140880E-10
       150  18 -1.162659E+06 -1.592962E+05  1.346512E+04 -4.547263E+05  4.275017E-10 -7.010946E-10
       150  19 -1.320019E+06 -2.202800E+05 -3.353785E+04 -4.970081E+05  5.717497E+03 -1.139002E+03
       150  20 -1.306305E+06 -2.029898E+05 -2.468190E+04 -4.832970E+05  3.567524E+03 -1.062597E+03
       150  21 -1.278924E+06 -2.026929E+05 -1.781909E+04 -4.859385E+05  1.392266E+03 -9.183675E+02
       150  22 -1.221032E+06 -1.826703E+05 -6.967008E+03 -4.697055E+05  6.000315E+03 -1.032836E+03
       150  23 -1.227749E+06 -1.733385E+05 -3.585659E+03 -4.618430E+05  3.875905E+03 -9.468788E+02
       150  24 -1.220793E+06 -1.809946E+05 -2.176814E+03 -4.703331E+05  1.726281E+03 -7.930756E+02
       150  25 -1.122035E+06 -1.450600E+05  1.960296E+04 -4.423990E+05  6.283183E+03 -9.266504E+02
       150  26 -1.149187E+06 -1.436870E+05  1.751001E+04 -4.403866E+05  4.184328E+03 -8.311444E+02
       150  27 -1.162659E+06 -1.592962E+05  1.346513E+04 -4.547263E+05  2.060329E+03 -6.677714E+02
       151   1 -1.238549E+06 -1.880530E+05 -6.521609E+03 -4.751693E+05 -8.917460E+02  5.336727E+02
       151   2 -1.224974E+06 -1.724048E+05 -4.681406E+02 -4.609110E+05  7.170753E+01 -6.507836E+01
       151   3 -1.196645E+06 -1.721032E+05  5.004182E+03 -4.637392E+05  1.036756E+03 -6.679611E+02
       151   4 -1.220644E+06 -1.812853E+05 -1.788221E+03 -4.702500E+05 -1.211966E+03  4.135692E+02
       151   5 -1.228012E+06 -1.735433E+05 -1.282384E+03 -4.617323E+05 -2.500869E+02 -1.857754E+02
       151   6 -1.220625E+06 -1.811478E+05 -1.356529E+03 -4.703015E+05  7.133585E+02 -7.892581E+02
       151   7 -1.202739E+06 -1.745175E+05  2.945157E+03 -4.653305E+05 -1.532197E+03  2.934613E+02
       151   8 -1.231049E+06 -1.746818E+05 -2.096626E+03 -4.625536E+05 -5.718791E+02 -3.064717E+02
       151   9 -1.244604E+06 -1.901923E+05 -7.717247E+03 -4.768636E+05  3.899770E+02 -9.105492E+02
       151  10 -1.238549E+06 -1.880530E+05 -6.521611E+03 -4.751693E+05 -6.495259E-10 -2.771561E-10
       151  11 -1.224974E+06 -1.724048E+05 -4.681406E+02 -4.609110E+05  4.353200E-09  6.944221E-10
       151  12 -1.196645E+06 -1.721032E+05  5.004179E+03 -4.637392E+05  2.411476E-09  8.562553E-12
       151  13 -1.220644E+06 -1.812853E+05 -1.788225E+03 -4.702500E+05  2.585666E-10 -5.232250E-10
       151  14 -1.228012E+06 -1.735433E+05 -1.282384E+03 -4.617323E+05 -5.004261E-10  8.030848E-10
       151  15 -1.220625E+06 -1.811478E+05 -1.356531E+03 -4.703015E+05 -3.985349E-10  2.656088E-10
       151  16 -1.202739E+06 -1.745175E+05  2.945152E+03 -4.653305E+05  1.403652E-09 -1.558078E-10
       151  17 -1.231049E+06 -1.746818E+05 -2.096627E+03 -4.625536E+05 -8.253623E-10  1.270941E-10
       151  18 -1.244604E+06 -1.901923E+05 -7.717249E+03 -4.768636E+05  1.036743E-09  5.535036E-10
       151  19 -1.238549E+06 -1.880530E+05 -6.521609E+03 -4.751693E+05  8.917460E+02 -5.336727E+02
       151  20 -1.224974E+06 -1.724048E+05 -4.681406E+02 -4.609110E+05 -7.170753E+01  6.507836E+01
       151  21 -1.196645E+06 -1.721032E+05  5.004182E+03 -4.637392E+05 -1.036756E+03  6.679611E+02
       151  22 -1.220644E+06 -1.812853E+05 -1.788221E+03 -4.702500E+05  1.211966E+03 -4.135692E+02
       151  23 -1.228012E+06 -1.735433E+05 -1.282384E+03 -4.617323E+05  2.500869E+02  1.857754E+02
       151  24 -1.220625E+06 -1.811478E+05 -1.356529E+03 -4.703015E+05 -7.133585E+02  7.892581E+02
       151  25 -1.202739E+06 -1.745175E+05  2.945157E+03 -4.653305E+05  1.532197E+03 -2.934613E+02
       151  26 -1.231049E+06 -1.746818E+05 -2.096626E+03 -4.625536E+05  5.718791E+02  3.064717E+02
       151  27 -1.244604E+06 -1.901923E+05 -7.717247E+03 -4.768636E+05 -3.899770E+02  9.105492E+02
       152   1 -1.156630E+06 -1.569724E+05  1.572589E+04 -4.529070E+05  1.462628E+03 -1.073349E+03
       152   2 -1.143288E+06 -1.416979E+05  2.037593E+04 -4.387898E+05  2.944073E+03 -1.474493E+03
       152   3 -1.115665E+06 -1.419048E+05  2.395277E+04 -4.413516E+05  4.416939E+03 -1.852020E+03
       152   4 -1.220712E+06 -1.810380E+05 -1.537653E+03 -4.702641E+05  1.138152E+03 -1.195067E+03
       152   5 -1.227889E+06 -1.735609E+05 -2.329166E+03 -4.618255E+05  2.628422E+03 -1.592946E+03
       152   6 -1.220788E+06 -1.815671E+05 -4.200917E+03 -4.700662E+05  4.110072E+03 -1.967221E+03
       152   7 -1.284789E+06 -2.051035E+05 -1.880161E+04 -4.876196E+05  8.137126E+02 -1.316772E+03
       152   8 -1.312484E+06 -2.054237E+05 -2.503501E+04 -4.848584E+05  2.312817E+03 -1.711382E+03
       152   9 -1.325900E+06 -2.212290E+05 -3.235579E+04 -4.987766E+05  3.803259E+03 -2.082402E+03
       152  10 -1.156630E+06 -1.569724E+05  1.572588E+04 -4.529070E+05  2.445319E-09 -2.171025E-10
       152  11 -1.143288E+06 -1.416980E+05  2.037591E+04 -4.387898E+05  2.395811E-09  9.402201E-10
       152  12 -1.115665E+06 -1.419048E+05  2.395273E+04 -4.413516E+05  1.918012E-09  1.772645E-09
       152  13 -1.220712E+06 -1.810380E+05 -1.537658E+03 -4.702641E+05 -1.867673E-09  1.732650E-11
       152  14 -1.227889E+06 -1.735609E+05 -2.329184E+03 -4.618255E+05 -2.420007E-10  3.153655E-10
       152  15 -1.220788E+06 -1.815671E+05 -4.200956E+03 -4.700662E+05 -3.345863E-10  5.118025E-10
       152  16 -1.284789E+06 -2.051035E+05 -1.880161E+04 -4.876196E+05  3.293694E-09  3.442994E-10
       152  17 -1.312484E+06 -2.054237E+05 -2.503502E+04 -4.848584E+05 -5.185335E-09 -6.026031E-10
       152  18 -1.325900E+06 -2.212290E+05 -3.235582E+04 -4.987766E+05 -4.456297E-09 -7.150793E-10
       152  19 -1.156630E+06 -1.569724E+05  1.572589E+04 -4.529070E+05 -1.462628E+03  1.073349E+03
       152  20 -1.143288E+06 -1.416979E+05  2.037593E+04 -4.387898E+05 -2.944073E+03  1.474493E+03
       152  21 -1.115665E+06 -1.419048E+05  2.395277E+04 -4.413516E+05 -4.416939E+03  1.852020E+03
       152  22 -1.220712E+06 -1.810380E+05 -1.537653E+03 -4.702641E+05 -1.138152E+03  1.195067E+03
       152  23 -1.227889E+06 -1.735609E+05 -2.329166E+03 -4.618255E+05 -2.628422E+03  1.592946E+03
       152  24 -1.220788E+06 -1.815671E+05 -4.200917E+03 -4.700662E+05 -4.110072E+03  1.967221E+03
       152  25 -1.284789E+06 -2.051035E+05 -1.880161E+04 -4.876196E+05 -8.137126E+02  1.316772E+03
       152  26 -1.312484E+06 -2.054237E+05 -2.503501E+04 -4.848584E+05 -2.312817E+03  1.711382E+03
       152  27 -1.325900E+06 -2.212290E+05 -3.235579E+04 -4.987766E+05 -3.803259E+03  2.082402E+03
       153   1 -1.077168E+06 -1.270037E+05  3.323011E+04 -4.316081E+05  5.406363E+03 -2.033330E+03
       153   2 -1.064110E+06 -1.114240E+05  3.434785E+04 -4.175736E+05  1.049868E+04 -1.036679E+03
       153   3 -1.039967E+06 -1.158055E+05  3.026979E+04 -4.180479E+05  1.555491E+04  5.737605E+01
       153   4 -1.221244E+06 -1.807339E+05 -5.407677E+03 -4.702724E+05  5.081270E+03 -2.155414E+03
       153   5 -1.227106E+06 -1.730161E+05 -9.433356E+03 -4.621678E+05  1.020946E+04 -1.145380E+03
       153   6 -1.221890E+06 -1.852679E+05 -1.868432E+04 -4.685721E+05  1.530141E+04 -3.799979E+01
       153   7 -1.365299E+06 -2.344625E+05 -4.404703E+04 -5.089284E+05  4.756262E+03 -2.277467E+03
       153   8 -1.390075E+06 -2.346065E+05 -5.321674E+04 -5.067513E+05  9.920321E+03 -1.254050E+03
       153   9 -1.403781E+06 -2.547281E+05 -6.764132E+04 -5.190828E+05  1.504799E+04 -1.333441E+02
       153  10 -1.077168E+06 -1.270037E+05  3.323005E+04 -4.316081E+05 -5.975843E-09 -9.387325E-10
       153  11 -1.064110E+06 -1.114240E+05  3.434764E+04 -4.175736E+05 -2.988898E-09 -6.877081E-10
       153  12 -1.039968E+06 -1.158056E+05  3.026933E+04 -4.180479E+05  9.647935E-11 -1.332781E-12
       153  13 -1.221244E+06 -1.807339E+05 -5.407734E+03 -4.702724E+05 -4.060383E-10  5.633098E-10
       153  14 -1.227106E+06 -1.730162E+05 -9.433554E+03 -4.621678E+05 -1.336446E-09  1.390667E-10
       153  15 -1.221890E+06 -1.852680E+05 -1.868476E+04 -4.685721E+05 -2.942391E-09 -6.874910E-10
       153  16 -1.365299E+06 -2.344626E+05 -4.404709E+04 -5.089284E+05  2.055130E-09  2.004800E-09
       153  17 -1.390075E+06 -2.346065E+05 -5.321693E+04 -5.067513E+05  2.320888E-09  7.568836E-10
       153  18 -1.403781E+06 -2.547282E+05 -6.764175E+04 -5.190828E+05 -4.520121E-10 -6.843380E-10
       153  19 -1.077168E+06 -1.270037E+05  3.323011E+04 -4.316081E+05 -5.406363E+03  2.033330E+03
       153  20 -1.064110E+06 -1.114240E+05  3.434785E+04 -4.175736E+05 -1.049868E+04  1.036679E+03
       153  21 -1.039967E+06 -1.158055E+05  3.026979E+04 -4.180479E+05 -1.555491E+04 -5.737605E+01
       153  22 -1.221244E+06 -1.807339E+05 -5.407677E+03 -4.702724E+05 -5.081270E+03  2.155414E+03
       153  23 -1.227106E+06 -1.730161E+05 -9.433356E+03 -4.621678E+05 -1.020946E+04  1.145380E+03
       153  24 -1.221890E+06 -1.852679E+05 -1.868432E+04 -4.685721E+05 -1.530141E+04  3.799979E+01
       153  25 -1.365299E+06 -2.344625E+05 -4.404703E+04 -5.089284E+05 -4.756262E+03  2.277467E+03
       153  26 -1.390075E+06 -2.346065E+05 -5.321674E+04 -5.067513E+05 -9.920321E+03  1.254050E+03
       153  27 -1.403781E+06 -2.547281E+05 -6.764132E+04 -5.190828E+05 -1.504799E+04  1.333441E+02
       154   1 -1.002648E+06 -1.002152E+05  3.492685E+04 -4.155026E+05  1.938009E+04  8.826588E+02
       154   2 -9.881114E+05 -7.668380E+04  2.270085E+04 -3.972802E+05  4.071220E+04  8.046976E+03
       154   3 -9.818758E+05 -1.145563E+05 -1.849270E+04 -3.812861E+05  6.178136E+04  1.591396E+04
       154   4 -1.224080E+06 -1.794428E+05 -2.374638E+04 -4.715003E+05  1.895657E+04  7.234980E+02
       154   5 -1.222536E+06 -1.672201E+05 -4.063196E+04 -4.634299E+05  4.054862E+04  7.985100E+03
       154   6 -1.229353E+06 -2.164656E+05 -8.670023E+04 -4.575871E+05  6.187716E+04  1.594876E+04
       154   7 -1.445466E+06 -2.586690E+05 -8.242394E+04 -5.274807E+05  1.853321E+04  5.643918E+02
       154   8 -1.456909E+06 -2.577525E+05 -1.039698E+05 -5.295569E+05  4.038510E+04  7.923249E+03
       154   9 -1.476771E+06 -3.183680E+05 -1.549134E+05 -5.338595E+05  6.197291E+04  1.598354E+04
       154  10 -1.002648E+06 -1.002153E+05  3.492614E+04 -4.155026E+05  2.437676E-09 -1.063219E-09
       154  11 -9.881132E+05 -7.668431E+04  2.269760E+04 -3.972805E+05  9.776923E-10 -2.119002E-10
       154  12 -9.818800E+05 -1.145576E+05 -1.850036E+04 -3.812869E+05 -1.221482E-09  2.307092E-09
       154  13 -1.224081E+06 -1.794429E+05 -2.374706E+04 -4.715003E+05  1.527743E-10 -1.814688E-09
       154  14 -1.222538E+06 -1.672206E+05 -4.063518E+04 -4.634302E+05  2.660728E-10 -6.558915E-10
       154  15 -1.229357E+06 -2.164669E+05 -8.670792E+04 -4.575879E+05 -8.729959E-10  2.581900E-09
       154  16 -1.445467E+06 -2.586691E+05 -8.242459E+04 -5.274808E+05  3.791650E-10 -8.392781E-10
       154  17 -1.456910E+06 -2.577530E+05 -1.039729E+05 -5.295572E+05  1.918336E-09 -5.349696E-10
       154  18 -1.476775E+06 -3.183693E+05 -1.549211E+05 -5.338603E+05  2.300815E-09  9.425145E-10
       154  19 -1.002648E+06 -1.002152E+05  3.492685E+04 -4.155026E+05 -1.938009E+04 -8.826588E+02
       154  20 -9.881114E+05 -7.668380E+04  2.270085E+04 -3.972802E+05 -4.071220E+04 -8.046976E+03
       154  21 -9.818758E+05 -1.145563E+05 -1.849270E+04 -3.812861E+05 -6.178136E+04 -1.591396E+04
       154  22 -1.224080E+06 -1.794428E+05 -2.374638E+04 -4.715003E+05 -1.895657E+04 -7.234980E+02
       154  23 -1.222536E+06 -1.672201E+05 -4.063196E+04 -4.634299E+05 -4.054862E+04 -7.985100E+03
       154  24 -1.229353E+06 -2.164656E+05 -8.670023E+04 -4.575871E+05 -6.187716E+04 -1.594876E+04
       154  25 -1.445466E+06 -2.586690E+05 -8.242394E+04 -5.274807E+05 -1.853321E+04 -5.643918E+02
       154  26 -1.456909E+06 -2.577525E+05 -1.039698E+05 -5.295569E+05 -4.038510E+04 -7.923249E+03
       154  27 -1.476771E+06 -3.183680E+05 -1.549134E+05 -5.338595E+05 -6.197291E+04 -1.598354E+04
       155   1 -9.336808E+05 -8.698684E+04 -2.941608E+04 -4.327629E+05  7.939324E+04  2.099756E+04
       155   2 -9.042699E+05  9.502879E+03 -9.166362E+04 -3.726488E+05  1.717947E+05  5.489951E+04
       155   3 -1.023760E+06 -2.970750E+05 -3.300311E+05 -2.226923E+05  2.617134E+05  9.540554E+04
       155   4 -1.243346E+06 -1.704591E+05 -1.060155E+05 -4.830814E+05  7.781011E+04  2.040653E+04
       155   5 -1.190014E+06 -1.186085E+05 -1.721837E+05 -4.715196E+05  1.726841E+05  5.522729E+04
       155   6 -1.286155E+06 -4.704411E+05 -4.164993E+05 -3.700931E+05  2.650780E+05  9.663485E+04
       155   7 -1.552917E+06 -2.539341E+05 -1.826213E+05 -5.333824E+05  7.622784E+04  1.981562E+04
       155   8 -1.475678E+06 -2.467043E+05 -2.527112E+05 -5.703456E+05  1.735730E+05  5.555482E+04
       155   9 -1.548468E+06 -6.437467E+05 -5.029724E+05 -5.174227E+05  2.684411E+05  9.786253E+04
       155  10 -9.336877E+05 -8.698901E+04 -2.942877E+04 -4.327643E+05  2.484625E-09  4.402439E-10
       155  11 -9.043025E+05  9.491696E+03 -9.172485E+04 -3.726564E+05  3.198397E-11 -2.661194E-09
       155  12 -1.023836E+06 -2.971032E+05 -3.301772E+05 -2.227124E+05 -6.445034E-10 -2.470935E-09
       155  13 -1.243353E+06 -1.704612E+05 -1.060277E+05 -4.830827E+05  2.961487E-10 -3.443316E-10
       155  14 -1.190047E+06 -1.186198E+05 -1.722456E+05 -4.715273E+05 -5.183662E-10  6.314529E-09
       155  15 -1.286233E+06 -4.704701E+05 -4.166492E+05 -3.701138E+05 -7.398548E-10  1.518630E-09
       155  16 -1.552924E+06 -2.539361E+05 -1.826330E+05 -5.333836E+05 -2.149259E-09 -1.808179E-10
       155  17 -1.475711E+06 -2.467158E+05 -2.527738E+05 -5.703534E+05 -1.944969E-10  1.734482E-09
       155  18 -1.548548E+06 -6.437764E+05 -5.031262E+05 -5.174439E+05  2.464148E-09 -3.468114E-10
       155  19 -9.336808E+05 -8.698684E+04 -2.941608E+04 -4.327629E+05 -7.939324E+04 -2.099756E+04
       155  20 -9.042699E+05  9.502879E+03 -9.166362E+04 -3.726488E+05 -1.717947E+05 -5.489951E+04
       155  21 -1.023760E+06 -2.970750E+05 -3.300311E+05 -2.226923E+05 -2.617134E+05 -9.540554E+04
       155  22 -1.243346E+06 -1.704591E+05 -1.060155E+05 -4.830814E+05 -7.781011E+04 -2.040653E+04
       155  23 -1.190014E+06 -1.186085E+05 -1.721837E+05 -4.715196E+05 -1.726841E+05 -5.522729E+04
       155  24 -1.286155E+06 -4.704411E+05 -4.164993E+05 -3.700931E+05 -2.650780E+05 -9.663485E+04
       155  25 -1.552917E+06 -2.539341E+05 -1.826213E+05 -5.333824E+05 -7.622784E+04 -1.981562E+04
       155  26 -1.475678E+06 -2.467043E+05 -2.527112E+05 -5.703456E+05 -1.735730E+05 -5.555482E+04
       155  27 -1.548468E+06 -6.437467E+05 -5.029724E+05 -5.174227E+05 -2.684411E+05 -9.786253E+04
       156   1  2.764972E+05  2.251184E+06  2.673438E+05 -1.658154E+05  1.202997E+04  1.047129E+05
       156   2  2.106293E+05  2.127230E+06  1.813996E+05 -1.418974E+05  4.011886E+04  4.940047E+04
       156   3  1.724005E+05  2.017355E+06  1.383080E+05 -1.388378E+05  4.671968E+04 -5.924831E+03
       156   4  4.024148E+04  1.291963E+06  4.380025E+04 -1.381638E+05  1.215040E+04  2.729670E+04
       156   5  1.177751E+04  1.288682E+06  2.429597E+04 -1.277652E+05  4.017967E+04  1.492918E+04
       156   6  3.534898E+03  1.292048E+06  1.790503E+04 -1.382232E+05  4.670996E+04  2.537025E+03
       156   7 -1.960731E+05  3.336016E+05 -1.797827E+05 -1.105546E+05  1.226406E+04 -5.000111E+04
       156   8 -1.871135E+05  4.508136E+05 -1.328336E+05 -1.136522E+05  4.023897E+04 -1.949685E+04
       156   9 -1.653579E+05  5.672585E+05 -1.025135E+05 -1.376090E+05  4.670025E+04  1.098935E+04
       156  10  2.764941E+05  2.251172E+06  2.673230E+05 -1.658165E+05 -4.702201E-10 -5.417753E-10
       156  11  2.106269E+05  2.127227E+06  1.813920E+05 -1.418990E+05  1.160695E-09 -3.222100E-09
       156  12  1.723982E+05  2.017354E+06  1.383038E+05 -1.388376E+05 -1.902675E-10 -1.032981E-09
       156  13  4.024113E+04  1.291962E+06  4.379857E+04 -1.381640E+05  8.735429E-10  1.377721E-09
       156  14  1.177572E+04  1.288681E+06  2.429251E+04 -1.277657E+05  2.583709E-10 -3.126621E-09
       156  15  3.532552E+03  1.292047E+06  1.790092E+04 -1.382233E+05  2.682727E-09  1.920731E-09
       156  16 -1.960740E+05  3.335989E+05 -1.797877E+05 -1.105541E+05 -1.046073E-09 -1.471932E-09
       156  17 -1.871154E+05  4.508128E+05 -1.328373E+05 -1.136516E+05  5.106205E-10 -5.157688E-10
       156  18 -1.653603E+05  5.672578E+05 -1.025179E+05 -1.376095E+05  8.182098E-10 -2.270605E-10
       156  19  2.764972E+05  2.251184E+06  2.673438E+05 -1.658154E+05 -1.202997E+04 -1.047129E+05
       156  20  2.106293E+05  2.127230E+06  1.813996E+05 -1.418974E+05 -4.011886E+04 -4.940047E+04
       156  21  1.724005E+05  2.017355E+06  1.383080E+05 -1.388378E+05 -4.671968E+04  5.924831E+03
       156  22  4.024148E+04  1.291963E+06  4.380025E+04 -1.381638E+05 -1.215040E+04 -2.729670E+04
       156  23  1.177751E+04  1.288682E+06  2.429597E+04 -1.277652E+05 -4.017967E+04 -1.492918E+04
       156  24  3.534898E+03  1.292048E+06  1.790503E+04 -1.382232E+05 -4.670996E+04 -2.537025E+03
       156  25 -1.960731E+05  3.336016E+05 -1.797827E+05 -1.105546E+05 -1.226406E+04  5.000111E+04
       156  26 -1.871135E+05  4.508136E+05 -1.328336E+05 -1.136522E+05 -4.023897E+04  1.949685E+04
       156  27 -1.653579E+05  5.672585E+05 -1.025135E+05 -1.376090E+05 -4.670025E+04 -1.098935E+04
       157   1  1.541699E+05  1.941513E+06  1.231472E+05 -1.414876E+05  4.354886E+04 -8.068832E+03
       157   2  1.260702E+05  1.823174E+06  1.037540E+05 -1.269964E+05  3.838653E+04 -2.336758E+04
       157   3  1.049768E+05  1.708517E+06  9.603473E+04 -1.348244E+05  3.067577E+04 -3.867017E+04
       157   4  3.177692E+03  1.291208E+06  1.733192E+04 -1.385450E+05  4.353897E+04 -2.499522E+02
       157   5  2.922876E+03  1.289831E+06  2.038508E+04 -1.273805E+05  3.836548E+04 -1.045283E+04
       157   6  8.795114E+03  1.291243E+06  3.158454E+04 -1.385357E+05  3.064259E+04 -2.066219E+04
       157   7 -1.478359E+05  6.413204E+05 -8.849499E+04 -1.356053E+05  4.352915E+04  7.561044E+03
       157   8 -1.202383E+05  7.567719E+05 -6.299002E+04 -1.277640E+05  3.834441E+04  2.451274E+03
       157   9 -8.739478E+04  8.741431E+05 -3.286839E+04 -1.422443E+05  3.060918E+04 -2.665819E+03
       157  10  1.541678E+05  1.941513E+06  1.231435E+05 -1.414873E+05  1.494438E-09 -5.884890E-08
       157  11  1.260684E+05  1.823173E+06  1.037502E+05 -1.269957E+05  3.132461E-09 -3.788179E-09
       157  12  1.049754E+05  1.708515E+06  9.603016E+04 -1.348234E+05  3.039982E-10  5.838592E-08
       157  13  3.175656E+03  1.291207E+06  1.732836E+04 -1.385450E+05  2.780173E-09  1.551889E-09
       157  14  2.921266E+03  1.289831E+06  2.038211E+04 -1.273802E+05  5.195615E-09 -3.552908E-09
       157  15  8.793991E+03  1.291242E+06  3.158197E+04 -1.385352E+05 -1.140705E-09  2.194031E-09
       157  16 -1.478380E+05  6.413199E+05 -8.849866E+04 -1.356056E+05  1.715284E-09  5.624396E-08
       157  17 -1.202398E+05  7.567715E+05 -6.299279E+04 -1.277641E+05  7.237994E-09 -7.080007E-10
       157  18 -8.739579E+04  8.741428E+05 -3.287017E+04 -1.422442E+05  1.695815E-09 -5.976784E-08
       157  19  1.541699E+05  1.941513E+06  1.231472E+05 -1.414876E+05 -4.354886E+04  8.068832E+03
       157  20  1.260702E+05  1.823174E+06  1.037540E+05 -1.269964E+05 -3.838653E+04  2.336758E+04
       157  21  1.049768E+05  1.708517E+06  9.603473E+04 -1.348244E+05 -3.067577E+04  3.867017E+04
       157  22  3.177692E+03  1.291208E+06  1.733192E+04 -1.385450E+05 -4.353897E+04  2.499522E+02
       157  23  2.922876E+03  1.289831E+06  2.038508E+04 -1.273805E+05 -3.836548E+04  1.045283E+04
       157  24  8.795114E+03  1.291243E+06  3.158454E+04 -1.385357E+05 -3.064259E+04  2.066219E+04
       157  25 -1.478359E+05  6.413204E+05 -8.849499E+04 -1.356053E+05 -4.352915E+04 -7.561044E+03
       157  26 -1.202383E+05  7.567719E+05 -6.299002E+04 -1.277640E+05 -3.834441E+04 -2.451274E+03
       157  27 -8.739478E+04  8.741431E+05 -3.286839E+04 -1.422443E+05 -3.060918E+04  2.665819E+03
       158   1  8.933911E+04  1.638985E+06  9.337387E+04 -1.410545E+05  2.542675E+04 -4.393485E+04
       158   2  9.108047E+04  1.511940E+06  1.084490E+05 -8.516529E+04  1.562943E+04 -8.445432E+04
       158   3  1.592145E+05  1.406678E+06  1.664371E+05 -5.176805E+04  3.994506E+03 -1.249717E+05
       158   4  1.013267E+04  1.295332E+06  4.046488E+04 -1.385951E+05  2.539217E+04 -2.604986E+04
       158   5  3.858973E+04  1.284739E+06  7.182999E+04 -1.272369E+05  1.559204E+04 -6.290571E+04
       158   6  1.328072E+05  1.295272E+06  1.435678E+05 -1.383633E+05  3.959783E+03 -9.976560E+04
       158   7 -6.907929E+04  9.517977E+05 -1.244555E+04 -1.361370E+05  2.535772E+04 -8.174361E+03
       158   8 -1.389667E+04  1.057595E+06  3.521225E+04 -1.692925E+05  1.555172E+04 -4.136468E+04
       158   9  1.064276E+05  1.183895E+06  1.207041E+05 -2.249428E+05  3.918041E+03 -7.456398E+04
       158  10  8.933790E+04  1.638983E+06  9.336904E+04 -1.410536E+05  7.345291E-10  6.170242E-08
       158  11  9.107830E+04  1.511932E+06  1.084352E+05 -8.516423E+04 -8.069198E-10 -8.866428E-10
       158  12  1.592103E+05  1.406661E+06  1.664078E+05 -5.176765E+04  1.220942E-09 -5.612832E-08
       158  13  1.013180E+04  1.295331E+06  4.046240E+04 -1.385945E+05 -2.378816E-09  1.807557E-09
       158  14  3.858841E+04  1.284735E+06  7.182211E+04 -1.272361E+05 -2.607806E-09 -3.745600E-09
       158  15  1.328045E+05  1.295261E+06  1.435491E+05 -1.383630E+05 -7.686720E-10  2.189313E-09
       158  16 -6.907999E+04  9.517974E+05 -1.244688E+04 -1.361369E+05 -4.430572E-09 -6.430360E-08
       158  17 -1.389739E+04  1.057593E+06  3.520859E+04 -1.692920E+05 -3.713820E-09 -3.413000E-09
       158  18  1.064261E+05  1.183889E+06  1.206937E+05 -2.249426E+05 -1.285929E-09  5.464463E-08
       158  19  8.933911E+04  1.638985E+06  9.337387E+04 -1.410545E+05 -2.542675E+04  4.393485E+04
       158  20  9.108047E+04  1.511940E+06  1.084490E+05 -8.516529E+04 -1.562943E+04  8.445432E+04
       158  21  1.592145E+05  1.406678E+06  1.664371E+05 -5.176805E+04 -3.994506E+03  1.249717E+05
       158  22  1.013267E+04  1.295332E+06  4.046488E+04 -1.385951E+05 -2.539217E+04  2.604986E+04
       158  23  3.858973E+04  1.284739E+06  7.182999E+04 -1.272369E+05 -1.559204E+04  6.290571E+04
       158  24  1.328072E+05  1.295272E+06  1.435678E+05 -1.383633E+05 -3.959783E+03  9.976560E+04
       158  25 -6.907929E+04  9.517977E+05 -1.244555E+04 -1.361370E+05 -2.535772E+04  8.174361E+03
       158  26 -1.389667E+04  1.057595E+06  3.521225E+04 -1.692925E+05 -1.555172E+04  4.136468E+04
       158  27  1.064276E+05  1.183895E+06  1.207041E+05 -2.249428E+05 -3.918041E+03  7.456398E+04
       159   1  2.196469E+05 -8.203812E+04 -1.419729E+03  1.025508E+04  2.289809E+05  1.328470E+04
       159   2  2.873286E+05 -3.802086E+05 -1.680668E+05  1.339184E+04  1.565470E+05  3.702735E+04
       159   3  4.589607E+05 -3.154782E+05 -1.960634E+05 -9.347305E+04  8.418239E+04  3.199530E+04
       159   4  1.674199E+06  2.799074E+05  3.583833E+05 -6.010634E+04  2.450365E+05  1.331084E+04
       159   5  1.621442E+06 -4.907238E+04  1.553557E+05 -4.645367E+03  1.606816E+05  3.702741E+04
       159   6  1.674456E+06 -1.351353E+04  9.901369E+04 -5.916486E+04  7.641149E+04  3.198429E+04
       159   7  3.130681E+06  6.417147E+05  7.180331E+05 -1.306342E+05  2.611292E+05  1.333335E+04
       159   8  2.957179E+06  2.819349E+05  4.786504E+05 -2.272243E+04  1.648248E+05  3.702724E+04
       159   9  2.891299E+06  2.883471E+05  3.939850E+05 -2.478980E+04  6.862532E+04  3.197242E+04
       159  10  2.195906E+05 -8.205237E+04 -1.518553E+03  1.025263E+04  4.607732E-10  1.620760E-10
       159  11  2.873019E+05 -3.802167E+05 -1.681154E+05  1.338717E+04  1.835777E-10  1.482706E-10
       159  12  4.589528E+05 -3.154812E+05 -1.960787E+05 -9.347522E+04 -2.873718E-10  3.310417E-10
       159  13  1.674134E+06  2.798911E+05  3.582704E+05 -6.010896E+04 -1.476988E-11  7.004494E-12
       159  14  1.621414E+06 -4.908076E+04  1.553047E+05 -4.650155E+03  6.103849E-10  1.645426E-10
       159  15  1.674449E+06 -1.351619E+04  9.900082E+04 -5.916683E+04  4.843329E-10  4.123875E-10
       159  16  3.130608E+06  6.416963E+05  7.179053E+05 -1.306370E+05  1.859904E-10 -3.323896E-11
       159  17  2.957150E+06  2.819262E+05  4.785970E+05 -2.272734E+04 -8.809249E-10  1.508111E-11
       159  18  2.891294E+06  2.883447E+05  3.939743E+05 -2.479157E+04 -5.331679E-10  1.272015E-10
       159  19  2.196469E+05 -8.203812E+04 -1.419729E+03  1.025508E+04 -2.289809E+05 -1.328470E+04
       159  20  2.873286E+05 -3.802086E+05 -1.680668E+05  1.339184E+04 -1.565470E+05 -3.702735E+04
       159  21  4.589607E+05 -3.154782E+05 -1.960634E+05 -9.347305E+04 -8.418239E+04 -3.199530E+04
       159  22  1.674199E+06  2.799074E+05  3.583833E+05 -6.010634E+04 -2.450365E+05 -1.331084E+04
       159  23  1.621442E+06 -4.907238E+04  1.553557E+05 -4.645367E+03 -1.606816E+05 -3.702741E+04
       159  24  1.674456E+06 -1.351353E+04  9.901369E+04 -5.916486E+04 -7.641149E+04 -3.198429E+04
       159  25  3.130681E+06  6.417147E+05  7.180331E+05 -1.306342E+05 -2.611292E+05 -1.333335E+04
       159  26  2.957179E+06  2.819349E+05  4.786504E+05 -2.272243E+04 -1.648248E+05 -3.702724E+04
       159  27  2.891299E+06  2.883471E+05  3.939850E+05 -2.478980E+04 -6.862532E+04 -3.197242E+04
       160   1  6.358454E+05 -2.198344E+05 -1.665258E+05 -4.982202E+04  6.068929E+04  2.518526E+04
       160   2  7.366196E+05 -2.320906E+05 -1.805663E+05 -5.579629E+03  4.088155E+04  2.369296E+04
       160   3  8.524058E+05 -2.007318E+05 -1.704984E+05 -6.102315E+04  2.106440E+04  1.965190E+04
       160   4  1.654397E+06  3.313525E+04  8.111537E+04 -5.716968E+04  6.067423E+04  2.518180E+04
       160   5  1.646844E+06 -6.083864E+03  4.040561E+04 -7.317203E+03  3.979483E+04  2.369018E+04
       160   6  1.654456E+06 -1.537432E+03  2.451880E+04 -5.714058E+04  1.890947E+04  1.965115E+04
       160   7  2.673893E+06  2.860290E+05  3.286816E+05 -6.452960E+04  6.065907E+04  2.517833E+04
       160   8  2.557824E+06  2.198621E+05  2.613177E+05 -9.057394E+03  3.870649E+04  2.368742E+04
       160   9  2.457092E+06  1.976098E+05  2.194895E+05 -5.325292E+04  1.675175E+04  1.965038E+04
       160  10  6.358413E+05 -2.198361E+05 -1.665339E+05 -4.982325E+04  3.168800E-10  2.779152E-10
       160  11  7.366177E+05 -2.320916E+05 -1.805705E+05 -5.580409E+03 -8.685854E-10 -3.958435E-11
       160  12  8.524052E+05 -2.007324E+05 -1.705000E+05 -6.102348E+04 -1.465840E-10  4.396946E-10
       160  13  1.654393E+06  3.313359E+04  8.110727E+04 -5.717091E+04 -1.182502E-09  1.981155E-10
       160  14  1.646842E+06 -6.084891E+03  4.040159E+04 -7.317962E+03 -3.190710E-10 -4.574715E-12
       160  15  1.654456E+06 -1.537942E+03  2.451741E+04 -5.714088E+04  4.479769E-10 -1.424515E-10
       160  16  2.673889E+06  2.860273E+05  3.286735E+05 -6.453083E+04  2.605339E-10  1.907436E-10
       160  17  2.557822E+06  2.198611E+05  2.613139E+05 -9.058131E+03 -1.219069E-09 -2.730417E-11
       160  18  2.457092E+06  1.976093E+05  2.194883E+05 -5.325318E+04  1.408991E-09 -1.825498E-10
       160  19  6.358454E+05 -2.198344E+05 -1.665258E+05 -4.982202E+04 -6.068929E+04 -2.518526E+04
       160  20  7.366196E+05 -2.320906E+05 -1.805663E+05 -5.579629E+03 -4.088155E+04 -2.369296E+04
       160  21  8.524058E+05 -2.007318E+05 -1.704984E+05 -6.102315E+04 -2.106440E+04 -1.965190E+04
       160  22  1.654397E+06  3.313525E+04  8.111537E+04 -5.716968E+04 -6.067423E+04 -2.518180E+04
       160  23  1.646844E+06 -6.083864E+03  4.040561E+04 -7.317203E+03 -3.979483E+04 -2.369018E+04
       160  24  1.654456E+06 -1.537432E+03  2.451880E+04 -5.714058E+04 -1.890947E+04 -1.965115E+04
       160  25  2.673893E+06  2.860290E+05  3.286816E+05 -6.452960E+04 -6.065907E+04 -2.517833E+04
       160  26  2.557824E+06  2.198621E+05  2.613177E+05 -9.057394E+03 -3.870649E+04 -2.368742E+04
       160  27  2.457092E+06  1.976098E+05  2.194895E+05 -5.325292E+04 -1.675175E+04 -1.965038E+04
       161   1  1.031628E+06 -1.500078E+05 -1.309652E+05 -5.468752E+04  1.642618E+04  1.697869E+04
       161   2  1.131933E+06 -1.294979E+05 -1.154458E+05 -8.556815E+03  1.121843E+04  1.337769E+04
       161   3  1.234501E+06 -1.036278E+05 -9.515215E+04 -5.581800E+04  6.004951E+03  9.617184E+03
       161   4  1.651661E+06  3.873293E+03  1.930335E+04 -5.574831E+04  1.499587E+04  1.697851E+04
       161   5  1.650540E+06 -7.533111E+02  1.045235E+04 -9.056316E+03  9.718061E+03  1.337846E+04
       161   6  1.651682E+06 -9.327102E+00  6.421360E+03 -5.575129E+04  4.435378E+03  9.618996E+03
       161   7  2.272044E+06  1.577263E+05  1.695443E+05 -5.681008E+04  1.356413E+04  1.697832E+04
       161   8  2.169391E+06  1.279715E+05  1.363311E+05 -9.556173E+03  8.216446E+03  1.337924E+04
       161   9  2.069022E+06  1.035964E+05  1.079823E+05 -5.568448E+04  2.864754E+03  9.620808E+03
       161  10  1.031628E+06 -1.500082E+05 -1.309663E+05 -5.468774E+04 -1.029118E-09 -1.805169E-10
       161  11  1.131933E+06 -1.294981E+05 -1.154463E+05 -8.556936E+03 -2.149182E-09 -8.590532E-10
       161  12  1.234500E+06 -1.036279E+05 -9.515240E+04 -5.581804E+04 -1.138132E-09 -3.878681E-10
       161  13  1.651661E+06  3.872923E+03  1.930238E+04 -5.574851E+04 -1.383914E-10 -1.906262E-10
       161  14  1.650539E+06 -7.535288E+02  1.045184E+04 -9.056421E+03 -3.939918E-10 -5.947494E-10
       161  15  1.651682E+06 -9.431805E+00  6.421149E+03 -5.575133E+04 -1.105023E-09 -1.022713E-10
       161  16  2.272044E+06  1.577259E+05  1.695434E+05 -5.681027E+04 -8.564833E-11 -1.984468E-10
       161  17  2.169391E+06  1.279713E+05  1.363306E+05 -9.556261E+03  5.870187E-10 -1.678908E-10
       161  18  2.069022E+06  1.035963E+05  1.079821E+05 -5.568450E+04 -2.418938E-10  5.194506E-11
       161  19  1.031628E+06 -1.500078E+05 -1.309652E+05 -5.468752E+04 -1.642618E+04 -1.697869E+04
       161  20  1.131933E+06 -1.294979E+05 -1.154458E+05 -8.556815E+03 -1.121843E+04 -1.337769E+04
       161  21  1.234501E+06 -1.036278E+05 -9.515215E+04 -5.581800E+04 -6.004951E+03 -9.617184E+03
       161  22  1.651661E+06  3.873293E+03  1.930335E+04 -5.574831E+04 -1.499587E+04 -1.697851E+04
       161  23  1.650540E+06 -7.533111E+02  1.045235E+04 -9.056316E+03 -9.718061E+03 -1.337846E+04
       161  24  1.651682E+06 -9.327102E+00  6.421360E+03 -5.575129E+04 -4.435378E+03 -9.618996E+03
       161  25  2.272044E+06  1.577263E+05  1.695443E+05 -5.681008E+04 -1.356413E+04 -1.697832E+04
       161  26  2.169391E+06  1.279715E+05  1.363311E+05 -9.556173E+03 -8.216446E+03 -1.337924E+04
       161  27  2.069022E+06  1.035964E+05  1.079823E+05 -5.568448E+04 -2.864754E+03 -9.620808E+03
       162   1  1.407463E+06 -5.988331E+04 -5.374211E+04 -5.477425E+04  4.892731E+03  7.421443E+03
       162   2  1.505675E+06 -3.617956E+04 -3.190533E+04 -9.694676E+03  3.187952E+03  3.746775E+03
       162   3  1.604026E+06 -1.155425E+04 -8.799385E+03 -5.509415E+04  1.481552E+03  7.698884E+01
       162   4  1.651243E+06  5.650770E+02  5.126873E+03 -5.510341E+04  3.389551E+03  7.423595E+03
       162   5  1.651181E+06 -6.522287E+01  3.411385E+03 -9.864883E+03  1.686087E+03  3.749164E+03
       162   6  1.651248E+06  2.259451E+02  2.963948E+03 -5.510407E+04 -1.873321E+01  7.964821E+01
       162   7  1.895076E+06  6.100913E+04  6.399161E+04 -5.543267E+04  1.885785E+03  7.425748E+03
       162   8  1.796707E+06  3.604756E+04  3.872658E+04 -1.003512E+04  1.838709E+02  3.751555E+03
       162   9  1.698473E+06  1.200597E+04  1.472712E+04 -5.511399E+04 -1.519132E+03  8.230752E+01
       162  10  1.407463E+06 -5.988337E+04 -5.374226E+04 -5.477428E+04 -1.121554E-09  1.900885E-10
       162  11  1.505675E+06 -3.617958E+04 -3.190537E+04 -9.694685E+03 -1.428957E-09  1.533488E-10
       162  12  1.604026E+06 -1.155425E+04 -8.799389E+03 -5.509415E+04  2.942910E-10 -5.213692E-10
       162  13  1.651243E+06  5.650146E+02  5.126748E+03 -5.510343E+04 -1.524848E-09  1.492071E-10
       162  14  1.651181E+06 -6.523873E+01  3.411353E+03 -9.864888E+03 -8.220530E-10  7.670741E-10
       162  15  1.651248E+06  2.259450E+02  2.963948E+03 -5.510407E+04 -6.792366E-10 -1.844856E-10
       162  16  1.895076E+06  6.100907E+04  6.399150E+04 -5.543268E+04  7.712572E-10  1.030414E-10
       162  17  1.796707E+06  3.604755E+04  3.872655E+04 -1.003512E+04  5.653218E-11  1.470852E-10
       162  18  1.698473E+06  1.200597E+04  1.472712E+04 -5.511399E+04 -5.217485E-11 -5.602101E-10
       162  19  1.407463E+06 -5.988331E+04 -5.374211E+04 -5.477425E+04 -4.892731E+03 -7.421443E+03
       162  20  1.505675E+06 -3.617956E+04 -3.190533E+04 -9.694676E+03 -3.187952E+03 -3.746775E+03
       162  21  1.604026E+06 -1.155425E+04 -8.799385E+03 -5.509415E+04 -1.481552E+03 -7.698884E+01
       162  22  1.651243E+06  5.650770E+02  5.126873E+03 -5.510341E+04 -3.389551E+03 -7.423595E+03
       162  23  1.651181E+06 -6.522287E+01  3.411385E+03 -9.864883E+03 -1.686087E+03 -3.749164E+03
       162  24  1.651248E+06  2.259451E+02  2.963948E+03 -5.510407E+04  1.873321E+01 -7.964821E+01
       162  25  1.895076E+06  6.100913E+04  6.399161E+04 -5.543267E+04 -1.885785E+03 -7.425748E+03
       162  26  1.796707E+06  3.604756E+04  3.872658E+04 -1.003512E+04 -1.838709E+02 -3.751555E+03
       162  27  1.698473E+06  1.200597E+04  1.472712E+04 -5.511399E+04  1.519132E+03 -8.230752E+01
       163   1  1.775073E+06  3.099452E+04  3.341022E+04 -5.526745E+04  9.318584E+02 -2.057196E+03
       163   2  1.873613E+06  5.511018E+04  5.793024E+04 -1.001410E+04 -1.033414E+03 -5.733110E+03
       163   3  1.972424E+06  8.028663E+04  8.393452E+04 -5.557352E+04 -2.996969E+03 -9.426500E+03
       163   4  1.651274E+06  2.128530E+02  3.065422E+03 -5.517900E+04 -5.688906E+02 -2.054586E+03
       163   5  1.651138E+06 -9.531057E+01  3.943830E+03 -9.771189E+03 -2.540826E+03 -5.730898E+03
       163   6  1.651264E+06  6.593946E+02  6.312177E+03 -5.517815E+04 -4.510735E+03 -9.424655E+03
       163   7  1.527489E+06 -3.056995E+04 -2.728049E+04 -5.509057E+04 -2.069342E+03 -2.051977E+03
       163   8  1.428708E+06 -5.530442E+04 -5.004614E+04 -9.528351E+03 -4.047700E+03 -5.728686E+03
       163   9  1.330199E+06 -7.897537E+04 -7.131755E+04 -5.478295E+04 -6.023723E+03 -9.422812E+03
       163  10  1.775073E+06  3.099452E+04  3.341021E+04 -5.526745E+04 -6.374059E-10 -5.810380E-10
       163  11  1.873613E+06  5.511014E+04  5.793017E+04 -1.001410E+04 -1.362530E-09  4.934285E-10
       163  12  1.972424E+06  8.028654E+04  8.393434E+04 -5.557354E+04 -1.572597E-10 -9.453133E-11
       163  13  1.651274E+06  2.128484E+02  3.065414E+03 -5.517900E+04  9.619962E-10  2.159652E-11
       163  14  1.651138E+06 -9.534760E+01  3.943756E+03 -9.771201E+03 -2.902452E-10  6.767240E-10
       163  15  1.651264E+06  6.592937E+02  6.311971E+03 -5.517819E+04 -6.598197E-11  3.936438E-10
       163  16  1.527489E+06 -3.056995E+04 -2.728051E+04 -5.509057E+04  6.842284E-10 -5.042705E-10
       163  17  1.428708E+06 -5.530446E+04 -5.004623E+04 -9.528370E+03  6.086389E-10  4.629813E-10
       163  18  1.330199E+06 -7.897548E+04 -7.131779E+04 -5.478300E+04 -1.009486E-09 -1.739844E-10
       163  19  1.775073E+06  3.099452E+04  3.341022E+04 -5.526745E+04 -9.318584E+02  2.057196E+03
       163  20  1.873613E+06  5.511018E+04  5.793024E+04 -1.001410E+04  1.033414E+03  5.733110E+03
       163  21  1.972424E+06  8.028663E+04  8.393452E+04 -5.557352E+04  2.996969E+03  9.426500E+03
       163  22  1.651274E+06  2.128530E+02  3.065422E+03 -5.517900E+04  5.688906E+02  2.054586E+03
       163  23  1.651138E+06 -9.531057E+01  3.943830E+03 -9.771189E+03  2.540826E+03  5.730898E+03
       163  24  1.651264E+06  6.593946E+02  6.312177E+03 -5.517815E+04  4.510735E+03  9.424655E+03
       163  25  1.527489E+06 -3.056995E+04 -2.728049E+04 -5.509057E+04  2.069342E+03  2.051977E+03
       163  26  1.428708E+06 -5.530442E+04 -5.004614E+04 -9.528351E+03  4.047700E+03  5.728686E+03
       163  27  1.330199E+06 -7.897537E+04 -7.131755E+04 -5.478295E+04  6.023723E+03  9.422812E+03
       164   1  2.147801E+06  1.230293E+05  1.286558E+05 -5.579356E+04 -4.223013E+03 -1.164004E+04
       164   2  2.248918E+06  1.475267E+05  1.584639E+05 -9.257177E+03 -1.098755E+04 -1.543401E+04
       164   3  2.353056E+06  1.788170E+05  1.944478E+05 -5.714708E+04 -1.774739E+04 -1.906814E+04
       164   4  1.651830E+06 -7.969946E+01  8.020865E+03 -5.598332E+04 -5.807569E+03 -1.163865E+04
       164   5  1.650317E+06 -9.765169E+02  1.324371E+04 -8.766203E+03 -1.250104E+04 -1.543381E+04
       164   6  1.651807E+06  4.912191E+03  2.459873E+04 -5.598092E+04 -1.918871E+04 -1.906902E+04
       164   7  1.156083E+06 -1.232067E+05 -1.126319E+05 -5.617285E+04 -7.390864E+03 -1.163725E+04
       164   8  1.052042E+06 -1.495059E+05 -1.320023E+05 -8.275637E+03 -1.401307E+04 -1.543360E+04
       164   9  9.510059E+05 -1.690285E+05 -1.452857E+05 -5.481602E+04 -2.062840E+04 -1.906992E+04
       164  10  2.147801E+06  1.230291E+05  1.286555E+05 -5.579360E+04 -3.749423E-10 -1.711044E-10
       164  11  2.248918E+06  1.475264E+05  1.584632E+05 -9.257314E+03 -9.632770E-10  5.253021E-10
       164  12  2.353055E+06  1.788165E+05  1.944465E+05 -5.714735E+04 -3.607745E-10  4.739776E-11
       164  13  1.651830E+06 -7.985406E+01  8.020547E+03 -5.598338E+04 -1.501598E-09 -3.077729E-10
       164  14  1.650317E+06 -9.768147E+02  1.324296E+04 -8.766358E+03  1.132563E-09  1.516770E-10
       164  15  1.651807E+06  4.911701E+03  2.459736E+04 -5.598122E+04 -4.869713E-11 -1.367438E-10
       164  16  1.156083E+06 -1.232069E+05 -1.126322E+05 -5.617292E+04  2.657649E-10  1.123125E-10
       164  17  1.052042E+06 -1.495062E+05 -1.320031E+05 -8.275811E+03 -3.531471E-10  1.885260E-10
       164  18  9.510053E+05 -1.690291E+05 -1.452872E+05 -5.481634E+04  7.060684E-10 -3.022592E-10
       164  19  2.147801E+06  1.230293E+05  1.286558E+05 -5.579356E+04  4.223013E+03  1.164004E+04
       164  20  2.248918E+06  1.475267E+05  1.584639E+05 -9.257177E+03  1.098755E+04  1.543401E+04
       164  21  2.353056E+06  1.788170E+05  1.944478E+05 -5.714708E+04  1.774739E+04  1.906814E+04
       164  22  1.651830E+06 -7.969946E+01  8.020865E+03 -5.598332E+04  5.807569E+03  1.163865E+04
       164  23  1.650317E+06 -9.765169E+02  1.324371E+04 -8.766203E+03  1.250104E+04  1.543381E+04
       164  24  1.651807E+06  4.912191E+03  2.459873E+04 -5.598092E+04  1.918871E+04  1.906902E+04
       164  25  1.156083E+06 -1.232067E+05 -1.126319E+05 -5.617285E+04  7.390864E+03  1.163725E+04
       164  26  1.052042E+06 -1.495059E+05 -1.320023E+05 -8.275637E+03  1.401307E+04  1.543360E+04
       164  27  9.510059E+05 -1.690285E+05 -1.452857E+05 -5.481602E+04  2.062840E+04  1.906992E+04
       165   1  2.541488E+06  2.178374E+05  2.464805E+05 -5.230820E+04 -2.196334E+04 -2.180132E+04
       165   2  2.642071E+06  2.393614E+05  2.932079E+05 -8.822055E+03 -4.976756E+04 -2.592187E+04
       165   3  2.762143E+06  3.168775E+05  3.723633E+05 -6.676821E+04 -7.757168E+04 -2.734678E+04
       165   4  1.655351E+06 -2.014680E+03  3.126428E+04 -5.752513E+04 -2.417586E+04 -2.180307E+04
       165   5  1.645662E+06 -7.759317E+03  5.159086E+04 -6.832533E+03 -5.083865E+04 -2.592555E+04
       165   6  1.655281E+06  4.234018E+04  1.035929E+05 -5.758099E+04 -7.749643E+04 -2.735109E+04
       165   7  7.699282E+05 -2.219242E+05 -1.840085E+05 -6.273460E+04 -2.638523E+04 -2.180478E+04
       165   8  6.501546E+05 -2.549527E+05 -1.900977E+05 -4.846364E+03 -5.190798E+04 -2.592924E+04
       165   9  5.495322E+05 -2.322866E+05 -1.652659E+05 -4.841049E+04 -7.742121E+04 -2.735540E+04
       165  10  2.541488E+06  2.178367E+05  2.464787E+05 -5.230858E+04  4.179034E-10 -5.301903E-10
       165  11  2.642069E+06  2.393600E+05  2.932020E+05 -8.823093E+03  1.145454E-09  5.398813E-10
       165  12  2.762136E+06  3.168751E+05  3.723506E+05 -6.676991E+04 -6.168462E-10  4.545298E-10
       165  13  1.655351E+06 -2.015348E+03  3.126229E+04 -5.752556E+04  1.435163E-09 -4.947899E-10
       165  14  1.645659E+06 -7.760730E+03  5.158476E+04 -6.833594E+03 -3.538060E-10  9.748709E-11
       165  15  1.655274E+06  4.233777E+04  1.035802E+05 -5.758270E+04  1.121487E-09  3.449786E-10
       165  16  7.699273E+05 -2.219249E+05 -1.840108E+05 -6.273506E+04  1.734508E-10 -3.810816E-10
       165  17  6.501516E+05 -2.549541E+05 -1.901040E+05 -4.847449E+03  5.219650E-10 -9.054818E-10
       165  18  5.495256E+05 -2.322890E+05 -1.652786E+05 -4.841219E+04 -2.904770E-10  4.927462E-10
       165  19  2.541488E+06  2.178374E+05  2.464805E+05 -5.230820E+04  2.196334E+04  2.180132E+04
       165  20  2.642071E+06  2.393614E+05  2.932079E+05 -8.822055E+03  4.976756E+04  2.592187E+04
       165  21  2.762143E+06  3.168775E+05  3.723633E+05 -6.676821E+04  7.757168E+04  2.734678E+04
       165  22  1.655351E+06 -2.014680E+03  3.126428E+04 -5.752513E+04  2.417586E+04  2.180307E+04
       165  23  1.645662E+06 -7.759317E+03  5.159086E+04 -6.832533E+03  5.083865E+04  2.592555E+04
       165  24  1.655281E+06  4.234018E+04  1.035929E+05 -5.758099E+04  7.749643E+04  2.735109E+04
       165  25  7.699282E+05 -2.219242E+05 -1.840085E+05 -6.273460E+04  2.638523E+04  2.180478E+04
       165  26  6.501546E+05 -2.549527E+05 -1.900977E+05 -4.846364E+03  5.190798E+04  2.592924E+04
       165  27  5.495322E+05 -2.322866E+05 -1.652659E+05 -4.841049E+04  7.742121E+04  2.735540E+04
       166   1  2.988943E+06  3.072939E+05  4.435116E+05 -1.557287E+04 -8.940751E+04 -3.448740E+04
       166   2  3.043302E+06  2.916719E+05  5.445457E+05 -2.693538E+04 -2.097614E+05 -3.981011E+04
       166   3  3.234225E+06  7.431977E+05  8.413305E+05 -1.512645E+05 -3.302504E+05 -1.460172E+04
       166   4  1.680838E+06 -1.726205E+04  1.264396E+05 -5.968240E+04 -9.759027E+04 -3.450200E+04
       166   5  1.613355E+06 -6.260935E+04  1.984771E+05 -3.914586E+03 -2.052284E+05 -3.981096E+04
       166   6  1.680523E+06  3.575486E+05  4.577704E+05 -6.110984E+04 -3.129753E+05 -1.458384E+04
       166   7  3.742926E+05 -3.419361E+05 -1.907542E+05 -1.036998E+05 -1.057557E+05 -3.451545E+04
       166   8  1.852683E+05 -4.170377E+05 -1.477378E+05  1.905183E+04 -2.007053E+05 -3.981148E+04
       166   9  1.290242E+05 -2.824806E+04  7.403767E+04  2.881790E+04 -2.957424E+05 -1.456099E+04
       166  10  2.988934E+06  3.072905E+05  4.434944E+05 -1.557535E+04  7.685137E-10  1.036630E-09
       166  11  3.043255E+06  2.916585E+05  5.444604E+05 -2.694209E+04 -8.865552E-10  4.906265E-10
       166  12  3.234108E+06  7.431684E+05  8.411262E+05 -1.512684E+05  9.472278E-10 -5.119182E-10
       166  13  1.680828E+06 -1.726588E+04  1.264195E+05 -5.968511E+04  1.569980E-11  6.783709E-10
       166  14  1.613309E+06 -6.262232E+04  1.983952E+05 -3.921162E+03  1.412593E-09 -5.369050E-11
       166  15  1.680418E+06  3.575222E+05  4.575864E+05 -6.111351E+04  3.105751E-10  1.859039E-10
       166  16  3.742803E+05 -3.419404E+05 -1.907775E+05 -1.037027E+05  1.590269E-09  6.495044E-10
       166  17  1.852246E+05 -4.170502E+05 -1.478164E+05  1.904539E+04 -7.141364E-10  1.452088E-09
       166  18  1.289303E+05 -2.827176E+04  7.387295E+04  2.881443E+04  1.749694E-10  7.529272E-11
       166  19  2.988943E+06  3.072939E+05  4.435116E+05 -1.557287E+04  8.940751E+04  3.448740E+04
       166  20  3.043302E+06  2.916719E+05  5.445457E+05 -2.693538E+04  2.097614E+05  3.981011E+04
       166  21  3.234225E+06  7.431977E+05  8.413305E+05 -1.512645E+05  3.302504E+05  1.460172E+04
       166  22  1.680838E+06 -1.726205E+04  1.264396E+05 -5.968240E+04  9.759027E+04  3.450200E+04
       166  23  1.613355E+06 -6.260935E+04  1.984771E+05 -3.914586E+03  2.052284E+05  3.981096E+04
       166  24  1.680523E+06  3.575486E+05  4.577704E+05 -6.110984E+04  3.129753E+05  1.458384E+04
       166  25  3.742926E+05 -3.419361E+05 -1.907542E+05 -1.036998E+05  1.057557E+05  3.451545E+04
       166  26  1.852683E+05 -4.170377E+05 -1.477378E+05  1.905183E+04  2.007053E+05  3.981148E+04
       166  27  1.290242E+05 -2.824806E+04  7.403767E+04  2.881790E+04  2.957424E+05  1.456099E+04
       167   1 -2.123961E+04  1.441792E+03 -4.944121E+02 -2.300607E+04 -3.578157E+03  5.812922E+04
       167   2 -1.075554E+05 -1.870936E+04 -5.213783E+04 -6.092284E+03 -1.054248E+04  3.892939E+04
       167   3 -9.997717E+04 -1.269611E+04 -6.778142E+04  4.263417E+03 -1.057602E+04  1.975561E+04
       167   4  7.224205E+04  3.768711E+05  9.241574E+04 -4.950411E+03 -3.592588E+03  6.244120E+04
       167   5 -1.260006E+04  3.635551E+05  4.063790E+04 -1.811039E+03 -1.054690E+04  4.040191E+04
       167   6 -3.086375E+03  3.768814E+05  2.681606E+04 -5.229270E+03 -1.057145E+04  1.838855E+04
       167   7  1.657145E+05  7.524291E+05  1.853157E+05  1.311630E+04 -3.606764E+03  6.675578E+04
       167   8  8.234462E+04  7.459531E+05  1.334031E+05  2.472967E+03 -1.055129E+04  4.187533E+04
       167   9  9.379358E+04  7.665977E+05  1.214026E+05 -1.472782E+04 -1.056684E+04  1.702064E+04
       167  10 -2.124053E+04  1.438160E+03 -5.007859E+02 -2.300590E+04  1.004719E-09  1.276844E-09
       167  11 -1.075559E+05 -1.871102E+04 -5.214089E+04 -6.091954E+03 -1.713205E-09 -9.483974E-11
       167  12 -9.997739E+04 -1.269655E+04 -6.778236E+04  4.263585E+03  3.826295E-10 -1.746696E-09
       167  13  7.224099E+04  3.768669E+05  9.240839E+04 -4.950230E+03  8.721125E-10 -6.054484E-11
       167  14 -1.260062E+04  3.635533E+05  4.063463E+04 -1.810696E+03  1.636955E-09 -1.103561E-11
       167  15 -3.086586E+03  3.768810E+05  2.681522E+04 -5.229114E+03  5.917537E-10 -3.637593E-11
       167  16  1.657133E+05  7.524244E+05  1.853073E+05  1.311649E+04  7.363087E-10 -1.274245E-09
       167  17  8.234403E+04  7.459511E+05  1.333996E+05  2.473322E+03  5.064580E-09 -9.795185E-11
       167  18  9.379338E+04  7.665973E+05  1.214019E+05 -1.472768E+04  4.723779E-10  1.652679E-09
       167  19 -2.123961E+04  1.441792E+03 -4.944121E+02 -2.300607E+04  3.578157E+03 -5.812922E+04
       167  20 -1.075554E+05 -1.870936E+04 -5.213783E+04 -6.092284E+03  1.054248E+04 -3.892939E+04
       167  21 -9.997717E+04 -1.269611E+04 -6.778142E+04  4.263417E+03  1.057602E+04 -1.975561E+04
       167  22  7.224205E+04  3.768711E+05  9.241574E+04 -4.950411E+03  3.592588E+03 -6.244120E+04
       167  23 -1.260006E+04  3.635551E+05  4.063790E+04 -1.811039E+03  1.054690E+04 -4.040191E+04
       167  24 -3.086375E+03  3.768814E+05  2.681606E+04 -5.229270E+03  1.057145E+04 -1.838855E+04
       167  25  1.657145E+05  7.524291E+05  1.853157E+05  1.311630E+04  3.606764E+03 -6.675578E+04
       167  26  8.234462E+04  7.459531E+05  1.334031E+05  2.472967E+03  1.055129E+04 -4.187533E+04
       167  27  9.379358E+04  7.665977E+05  1.214026E+05 -1.472782E+04  1.056684E+04 -1.702064E+04
       168   1 -9.168475E+04 -3.100889E+04 -7.548559E+04 -6.822457E+03 -9.824917E+03  1.338842E+04
       168   2 -1.042087E+05 -4.147642E+04 -8.648606E+04 -1.123580E+03 -1.074723E+04  7.038045E+03
       168   3 -1.019856E+05 -4.719236E+04 -8.961727E+04 -2.858716E+03 -1.023823E+04  6.919609E+02
       168   4  8.523512E+03  3.720329E+05  2.265502E+04 -5.321196E+03 -9.826538E+03  1.407100E+04
       168   5 -2.023666E+03  3.696079E+05  1.341829E+04 -1.614190E+03 -1.074703E+04  7.132756E+03
       168   6  2.273072E+03  3.720337E+05  1.245546E+04 -5.340871E+03 -1.023658E+04  1.987174E+02
       168   7  1.087198E+05  7.752228E+05  1.207839E+05 -3.818844E+03 -9.828156E+03  1.475403E+04
       168   8  1.001490E+05  7.808464E+05  1.133104E+05 -2.105020E+03 -1.074682E+04  7.227528E+03
       168   9  1.065188E+05  7.914201E+05  1.145154E+05 -7.824609E+03 -1.023492E+04 -2.948584E+02
       168  10 -9.168491E+04 -3.100911E+04 -7.548611E+04 -6.822351E+03 -7.429588E-10 -2.807463E-10
       168  11 -1.042089E+05 -4.147650E+04 -8.648637E+04 -1.123519E+03 -4.165106E-10 -1.245458E-10
       168  12 -1.019857E+05 -4.719239E+04 -8.961746E+04 -2.858710E+03 -7.844270E-11 -2.489450E-10
       168  13  8.523355E+03  3.720326E+05  2.265447E+04 -5.321084E+03 -4.982957E-10 -3.096981E-11
       168  14 -2.023804E+03  3.696078E+05  1.341798E+04 -1.614128E+03 -7.234292E-10  1.679207E-11
       168  15  2.272960E+03  3.720337E+05  1.245526E+04 -5.340870E+03 -3.707618E-11  4.136830E-11
       168  16  1.087197E+05  7.752226E+05  1.207833E+05 -3.818727E+03 -1.145921E-09  2.793603E-10
       168  17  1.001488E+05  7.808463E+05  1.133101E+05 -2.104957E+03 -1.927806E-09  3.351526E-10
       168  18  1.065187E+05  7.914201E+05  1.145152E+05 -7.824611E+03 -4.792863E-10  2.703257E-10
       168  19 -9.168475E+04 -3.100889E+04 -7.548559E+04 -6.822457E+03  9.824917E+03 -1.338842E+04
       168  20 -1.042087E+05 -4.147642E+04 -8.648606E+04 -1.123580E+03  1.074723E+04 -7.038045E+03
       168  21 -1.019856E+05 -4.719236E+04 -8.961727E+04 -2.858716E+03  1.023823E+04 -6.919609E+02
       168  22  8.523512E+03  3.720329E+05  2.265502E+04 -5.321196E+03  9.826538E+03 -1.407100E+04
       168  23 -2.023666E+03  3.696079E+05  1.341829E+04 -1.614190E+03  1.074703E+04 -7.132756E+03
       168  24  2.273072E+03  3.720337E+05  1.245546E+04 -5.340871E+03  1.023658E+04 -1.987174E+02
       168  25  1.087198E+05  7.752228E+05  1.207839E+05 -3.818844E+03  9.828156E+03 -1.475403E+04
       168  26  1.001490E+05  7.808464E+05  1.133104E+05 -2.105020E+03  1.074682E+04 -7.227528E+03
       168  27  1.065188E+05  7.914201E+05  1.145154E+05 -7.824609E+03  1.023492E+04  2.948584E+02
       169   1 -1.079460E+05 -6.127507E+04 -9.298359E+04 -7.586123E+03 -1.158578E+04 -3.967645E+03
       169   2 -1.142106E+05 -7.453886E+04 -9.310429E+04  8.359094E+02 -1.209121E+04 -8.194647E+03
       169   3 -9.054183E+04 -7.947115E+04 -8.292770E+04  1.153784E+03 -3.965494E+03 -1.240722E+04
       169   4 -3.888804E+01  3.729388E+05  1.247020E+04 -5.498231E+03 -1.158972E+04 -1.997897E+03
       169   5 -4.108219E+03  3.684678E+05  1.441700E+04 -1.427571E+03 -1.208762E+04 -9.750513E+03
       169   6  2.235636E+04  3.729344E+05  2.910325E+04 -5.460661E+03 -3.957033E+03 -1.748875E+04
       169   7  1.078544E+05  8.073248E+05  1.179104E+05 -3.408777E+03 -1.159365E+04 -2.677433E+01
       169   8  1.059797E+05  8.116536E+05  1.219241E+05 -3.692585E+03 -1.208403E+04 -1.130748E+04
       169   9  1.352394E+05  8.255259E+05  1.411191E+05 -1.207986E+04 -3.948467E+03 -2.257399E+04
       169  10 -1.079462E+05 -6.127513E+04 -9.298388E+04 -7.586160E+03 -5.001440E-10  3.273928E-10
       169  11 -1.142108E+05 -7.453897E+04 -9.310470E+04  8.358296E+02  1.071180E-09  1.496428E-10
       169  12 -9.054189E+04 -7.947132E+04 -8.292802E+04  1.153744E+03  4.306680E-11 -3.684747E-10
       169  13 -3.903337E+01  3.729388E+05  1.246994E+04 -5.498250E+03  9.614726E-10 -4.063295E-11
       169  14 -4.108402E+03  3.684676E+05  1.441655E+04 -1.427666E+03  1.703819E-10  3.107982E-11
       169  15  2.235626E+04  3.729341E+05  2.910264E+04 -5.460716E+03  4.104586E-10 -1.574037E-11
       169  16  1.078543E+05  8.073248E+05  1.179101E+05 -3.408778E+03 -1.085485E-09 -2.783221E-10
       169  17  1.059796E+05  8.116534E+05  1.219236E+05 -3.692695E+03  9.760186E-10 -1.880363E-10
       169  18  1.352393E+05  8.255254E+05  1.411181E+05 -1.207993E+04  1.120951E-09  3.204601E-10
       169  19 -1.079460E+05 -6.127507E+04 -9.298359E+04 -7.586123E+03  1.158578E+04  3.967645E+03
       169  20 -1.142106E+05 -7.453886E+04 -9.310429E+04  8.359094E+02  1.209121E+04  8.194647E+03
       169  21 -9.054183E+04 -7.947115E+04 -8.292770E+04  1.153784E+03  3.965494E+03  1.240722E+04
       169  22 -3.888804E+01  3.729388E+05  1.247020E+04 -5.498231E+03  1.158972E+04  1.997897E+03
       169  23 -4.108219E+03  3.684678E+05  1.441700E+04 -1.427571E+03  1.208762E+04  9.750513E+03
       169  24  2.235636E+04  3.729344E+05  2.910325E+04 -5.460661E+03  3.957033E+03  1.748875E+04
       169  25  1.078544E+05  8.073248E+05  1.179104E+05 -3.408777E+03  1.159365E+04  2.677433E+01
       169  26  1.059797E+05  8.116536E+05  1.219241E+05 -3.692585E+03  1.208403E+04  1.130748E+04
       169  27  1.352394E+05  8.255259E+05  1.411191E+05 -1.207986E+04  3.948467E+03  2.257399E+04
       170   1 -2.380263E+06 -8.319231E+05 -5.739922E+05 -8.032098E+05 -2.516528E+05 -8.801099E+04
       170   2 -2.306524E+06 -4.597792E+05 -3.394292E+05 -8.450560E+05 -1.645443E+05 -4.014834E+04
       170   3 -2.362938E+06 -4.658803E+05 -2.724021E+05 -8.123576E+05 -7.194587E+04 -6.755098E+03
       170   4 -1.728302E+06 -5.158633E+05 -3.817193E+05 -5.550283E+05 -2.441413E+05 -8.519760E+04
       170   5 -1.643985E+06 -1.901095E+05 -1.578707E+05 -6.442532E+05 -1.624598E+05 -3.936698E+04
       170   6 -1.688597E+06 -2.412960E+05 -9.710799E+04 -6.589776E+05 -7.529018E+04 -8.016165E+03
       170   7 -1.075919E+06 -1.996939E+05 -1.894889E+05 -3.065847E+05 -2.366210E+05 -8.237876E+04
       170   8 -9.810206E+05  7.960577E+04  2.364741E+04 -4.432497E+05 -1.603727E+05 -3.858450E+04
       170   9 -1.013815E+06 -1.670756E+04  7.814936E+04 -5.054578E+05 -7.863846E+04 -9.278323E+03
       170  10 -2.380334E+06 -8.319486E+05 -5.741263E+05 -8.032277E+05 -1.330255E-10 -3.602655E-10
       170  11 -2.306554E+06 -4.597883E+05 -3.394833E+05 -8.450614E+05 -4.949508E-10 -1.290122E-09
       170  12 -2.362943E+06 -4.658817E+05 -2.724119E+05 -8.123580E+05  1.278830E-09  7.736462E-11
       170  13 -1.728368E+06 -5.158872E+05 -3.818453E+05 -5.550451E+05  5.483227E-12 -4.223185E-10
       170  14 -1.644014E+06 -1.901183E+05 -1.579233E+05 -6.442583E+05 -1.366847E-09 -9.271177E-10
       170  15 -1.688603E+06 -2.412976E+05 -9.711880E+04 -6.589781E+05  1.550382E-09  3.605654E-10
       170  16 -1.075981E+06 -1.997163E+05 -1.896071E+05 -3.066004E+05 -8.235387E-10 -5.696837E-10
       170  17 -9.810487E+05  7.959725E+04  2.359618E+04 -4.432546E+05 -1.186686E-09 -6.299178E-10
       170  18 -1.013822E+06 -1.670931E+04  7.813756E+04 -5.054584E+05  2.018825E-09  7.562842E-10
       170  19 -2.380263E+06 -8.319231E+05 -5.739922E+05 -8.032098E+05  2.516528E+05  8.801099E+04
       170  20 -2.306524E+06 -4.597792E+05 -3.394292E+05 -8.450560E+05  1.645443E+05  4.014834E+04
       170  21 -2.362938E+06 -4.658803E+05 -2.724021E+05 -8.123576E+05  7.194587E+04  6.755098E+03
       170  22 -1.728302E+06 -5.158633E+05 -3.817193E+05 -5.550283E+05  2.441413E+05  8.519760E+04
       170  23 -1.643985E+06 -1.901095E+05 -1.578707E+05 -6.442532E+05  1.624598E+05  3.936698E+04
       170  24 -1.688597E+06 -2.412960E+05 -9.710799E+04 -6.589776E+05  7.529018E+04  8.016165E+03
       170  25 -1.075919E+06 -1.996939E+05 -1.894889E+05 -3.065847E+05  2.366210E+05  8.237876E+04
       170  26 -9.810206E+05  7.960577E+04  2.364741E+04 -4.432497E+05  1.603727E+05  3.858450E+04
       170  27 -1.013815E+06 -1.670756E+04  7.814936E+04 -5.054578E+05  7.863846E+04  9.278323E+03
       171   1 -2.266422E+06 -5.159548E+05 -2.402633E+05 -8.064391E+05 -6.045986E+04 -5.584299E+03
       171   2 -2.238271E+06 -4.483636E+05 -1.891127E+05 -7.915153E+05 -4.040568E+04  2.175952E+03
       171   3 -2.205767E+06 -4.486859E+05 -1.650622E+05 -7.915368E+05 -1.975258E+04  8.347245E+03
       171   4 -1.674995E+06 -2.843229E+05 -7.942383E+04 -6.365806E+05 -6.013187E+04 -5.462560E+03
       171   5 -1.674800E+06 -2.334502E+05 -3.727346E+04 -6.355073E+05 -4.066454E+04  2.077106E+03
       171   6 -1.670121E+06 -2.503475E+05 -2.173669E+04 -6.493825E+05 -2.059952E+04  8.027661E+03
       171   7 -1.083230E+06 -5.266361E+04  8.138368E+04 -4.665737E+05 -5.980351E+04 -5.340670E+03
       171   8 -1.111023E+06 -1.851618E+04  1.145375E+05 -4.793708E+05 -4.092365E+04  1.978166E+03
       171   9 -1.134197E+06 -5.199441E+04  1.215639E+05 -5.071184E+05 -2.144727E+04  7.707788E+03
       171  10 -2.266426E+06 -5.159558E+05 -2.402703E+05 -8.064394E+05  2.363319E-09  6.128533E-10
       171  11 -2.238273E+06 -4.483641E+05 -1.891157E+05 -7.915152E+05 -6.778130E-10  1.356245E-10
       171  12 -2.205767E+06 -4.486861E+05 -1.650630E+05 -7.915367E+05  3.045343E-10 -3.488632E-10
       171  13 -1.674998E+06 -2.843239E+05 -7.943070E+04 -6.365809E+05 -5.916156E-10  9.850254E-10
       171  14 -1.674802E+06 -2.334506E+05 -3.727658E+04 -6.355072E+05 -1.419288E-09  1.511899E-11
       171  15 -1.670121E+06 -2.503477E+05 -2.173761E+04 -6.493824E+05 -5.797968E-10 -4.604098E-10
       171  16 -1.083234E+06 -5.266460E+04  8.137689E+04 -4.665740E+05  6.271403E-10  6.732254E-10
       171  17 -1.111025E+06 -1.851663E+04  1.145343E+05 -4.793707E+05  2.373848E-10  6.639171E-12
       171  18 -1.134197E+06 -5.199460E+04  1.215630E+05 -5.071182E+05  1.106601E-10 -1.125888E-10
       171  19 -2.266422E+06 -5.159548E+05 -2.402633E+05 -8.064391E+05  6.045986E+04  5.584299E+03
       171  20 -2.238271E+06 -4.483636E+05 -1.891127E+05 -7.915153E+05  4.040568E+04 -2.175952E+03
       171  21 -2.205767E+06 -4.486859E+05 -1.650622E+05 -7.915368E+05  1.975258E+04 -8.347245E+03
       171  22 -1.674995E+06 -2.843229E+05 -7.942383E+04 -6.365806E+05  6.013187E+04  5.462560E+03
       171  23 -1.674800E+06 -2.334502E+05 -3.727346E+04 -6.355073E+05  4.066454E+04 -2.077106E+03
       171  24 -1.670121E+06 -2.503475E+05 -2.173669E+04 -6.493825E+05  2.059952E+04 -8.027661E+03
       171  25 -1.083230E+06 -5.266361E+04  8.138368E+04 -4.665737E+05  5.980351E+04  5.340670E+03
       171  26 -1.111023E+06 -1.851618E+04  1.145375E+05 -4.793708E+05  4.092365E+04 -1.978166E+03
       171  27 -1.134197E+06 -5.199441E+04  1.215639E+05 -5.071184E+05  2.144727E+04 -7.707788E+03
       172   1 -2.131543E+06 -4.323761E+05 -1.419049E+05 -7.749450E+05 -1.657556E+04  8.342844E+03
       172   2 -2.106039E+06 -3.987437E+05 -1.232611E+05 -7.496136E+05 -1.152003E+04  8.700608E+03
       172   3 -2.055334E+06 -3.980860E+05 -1.094209E+05 -7.542676E+05 -6.368652E+03  8.798349E+03
       172   4 -1.667466E+06 -2.564286E+05 -1.712735E+04 -6.475110E+05 -1.704763E+04  8.164523E+03
       172   5 -1.679778E+06 -2.378452E+05 -8.711066E+03 -6.333111E+05 -1.208775E+04  8.486714E+03
       172   6 -1.666871E+06 -2.522133E+05 -5.019471E+03 -6.490955E+05 -7.032350E+03  8.548846E+03
       172   7 -1.203182E+06 -8.046783E+04  1.076311E+05 -5.199908E+05 -1.752009E+04  7.986055E+03
       172   8 -1.253342E+06 -7.693616E+04  1.058227E+05 -5.169365E+05 -1.265589E+04  8.272660E+03
       172   9 -1.278262E+06 -1.063324E+05  9.936836E+04 -5.438644E+05 -7.696504E+03  8.299174E+03
       172  10 -2.131543E+06 -4.323763E+05 -1.419056E+05 -7.749449E+05  9.282334E-10 -2.736945E-10
       172  11 -2.106039E+06 -3.987438E+05 -1.232615E+05 -7.496136E+05  1.102342E-10 -6.727276E-10
       172  12 -2.055334E+06 -3.980860E+05 -1.094211E+05 -7.542676E+05  2.498161E-10 -7.918305E-11
       172  13 -1.667466E+06 -2.564288E+05 -1.712802E+04 -6.475109E+05  1.415575E-10 -3.897025E-10
       172  14 -1.679778E+06 -2.378453E+05 -8.711477E+03 -6.333110E+05  2.411089E-10 -4.510676E-10
       172  15 -1.666871E+06 -2.522134E+05 -5.019701E+03 -6.490955E+05 -4.252164E-10  9.016670E-12
       172  16 -1.203182E+06 -8.046798E+04  1.076305E+05 -5.199907E+05 -3.068091E-10 -6.469680E-10
       172  17 -1.253342E+06 -7.693628E+04  1.058223E+05 -5.169364E+05 -1.200948E-09 -5.242563E-10
       172  18 -1.278262E+06 -1.063325E+05  9.936812E+04 -5.438644E+05 -4.477478E-10 -3.660307E-10
       172  19 -2.131543E+06 -4.323761E+05 -1.419049E+05 -7.749450E+05  1.657556E+04 -8.342844E+03
       172  20 -2.106039E+06 -3.987437E+05 -1.232611E+05 -7.496136E+05  1.152003E+04 -8.700608E+03
       172  21 -2.055334E+06 -3.980860E+05 -1.094209E+05 -7.542676E+05  6.368652E+03 -8.798349E+03
       172  22 -1.667466E+06 -2.564286E+05 -1.712735E+04 -6.475110E+05  1.704763E+04 -8.164523E+03
       172  23 -1.679778E+06 -2.378452E+05 -8.711066E+03 -6.333111E+05  1.208775E+04 -8.486714E+03
       172  24 -1.666871E+06 -2.522133E+05 -5.019471E+03 -6.490955E+05  7.032350E+03 -8.548846E+03
       172  25 -1.203182E+06 -8.046783E+04  1.076311E+05 -5.199908E+05  1.752009E+04 -7.986055E+03
       172  26 -1.253342E+06 -7.693616E+04  1.058227E+05 -5.169365E+05  1.265589E+04 -8.272660E+03
       172  27 -1.278262E+06 -1.063324E+05  9.936836E+04 -5.438644E+05  7.696504E+03 -8.299174E+03
       173   1 -1.975840E+06 -3.702782E+05 -8.704148E+04 -7.338878E+05 -5.305705E+03  8.070768E+03
       173   2 -1.948327E+06 -3.382912E+05 -7.412388E+04 -7.049015E+05 -3.461945E+03  6.855002E+03
       173   3 -1.890632E+06 -3.375128E+05 -6.228084E+04 -7.106527E+05 -1.587473E+03  5.553540E+03
       173   4 -1.665992E+06 -2.535204E+05 -3.962017E+03 -6.495083E+05 -5.927293E+03  7.837329E+03
       173   5 -1.681045E+06 -2.376626E+05 -2.352086E+03 -6.322348E+05 -4.115544E+03  6.609829E+03
       173   6 -1.665914E+06 -2.530064E+05 -1.791003E+03 -6.496987E+05 -2.273187E+03  5.296623E+03
       173   7 -1.356050E+06 -1.367566E+05  7.910918E+04 -5.650905E+05 -6.549224E+03  7.603760E+03
       173   8 -1.413695E+06 -1.370298E+05  6.941349E+04 -5.595398E+05 -4.769455E+03  6.364539E+03
       173   9 -1.441148E+06 -1.684970E+05  5.869436E+04 -5.887248E+05 -2.959174E+03  5.039604E+03
       173  10 -1.975840E+06 -3.702782E+05 -8.704166E+04 -7.338878E+05 -2.108007E-10  9.351513E-11
       173  11 -1.948327E+06 -3.382912E+05 -7.412400E+04 -7.049015E+05  3.174963E-10 -5.278909E-10
       173  12 -1.890632E+06 -3.375128E+05 -6.228091E+04 -7.106527E+05 -5.039679E-10 -1.506532E-10
       173  13 -1.665992E+06 -2.535204E+05 -3.962198E+03 -6.495082E+05 -1.165623E-09 -1.657585E-10
       173  14 -1.681045E+06 -2.376627E+05 -2.352200E+03 -6.322348E+05  1.502204E-10 -6.213035E-10
       173  15 -1.665914E+06 -2.530064E+05 -1.791066E+03 -6.496987E+05 -7.179823E-10 -1.198803E-10
       173  16 -1.356050E+06 -1.367567E+05  7.910899E+04 -5.650904E+05 -8.480459E-10 -5.243485E-10
       173  17 -1.413695E+06 -1.370299E+05  6.941337E+04 -5.595398E+05 -1.313597E-10 -8.650143E-10
       173  18 -1.441148E+06 -1.684971E+05  5.869430E+04 -5.887248E+05 -4.714303E-11 -4.800922E-10
       173  19 -1.975840E+06 -3.702782E+05 -8.704148E+04 -7.338878E+05  5.305705E+03 -8.070768E+03
       173  20 -1.948327E+06 -3.382912E+05 -7.412388E+04 -7.049015E+05  3.461945E+03 -6.855002E+03
       173  21 -1.890632E+06 -3.375128E+05 -6.228084E+04 -7.106527E+05  1.587473E+03 -5.553540E+03
       173  22 -1.665992E+06 -2.535204E+05 -3.962017E+03 -6.495083E+05  5.927293E+03 -7.837329E+03
       173  23 -1.681045E+06 -2.376626E+05 -2.352086E+03 -6.322348E+05  4.115544E+03 -6.609829E+03
       173  24 -1.665914E+06 -2.530064E+05 -1.791003E+03 -6.496987E+05  2.273187E+03 -5.296623E+03
       173  25 -1.356050E+06 -1.367566E+05  7.910918E+04 -5.650905E+05  6.549224E+03 -7.603760E+03
       173  26 -1.413695E+06 -1.370298E+05  6.941349E+04 -5.595398E+05  4.769455E+03 -6.364539E+03
       173  27 -1.441148E+06 -1.684970E+05  5.869436E+04 -5.887248E+05  2.959174E+03 -5.039604E+03
       174   1 -1.805737E+06 -3.061444E+05 -3.922782E+04 -6.882404E+05 -9.071613E+02  4.614202E+03
       174   2 -1.776731E+06 -2.730431E+05 -2.767835E+04 -6.575844E+05  8.323477E+02  3.215372E+03
       174   3 -1.716066E+06 -2.726417E+05 -1.709949E+04 -6.635803E+05  2.578016E+03  1.798755E+03
       174   4 -1.665582E+06 -2.533874E+05 -1.759506E+03 -6.501009E+05 -1.588962E+03  4.358902E+03
       174   5 -1.681431E+06 -2.372029E+05 -2.097638E+03 -6.317117E+05  1.439430E+02  2.957701E+03
       174   6 -1.665622E+06 -2.537170E+05 -3.400955E+03 -6.499751E+05  1.882922E+03  1.538688E+03
       174   7 -1.525408E+06 -2.006293E+05  3.570700E+04 -6.119537E+05 -2.270931E+03  4.103540E+03
       174   8 -1.586123E+06 -2.013623E+05  2.348227E+04 -6.058355E+05 -5.445782E+02  2.699986E+03
       174   9 -1.615176E+06 -2.347922E+05  1.029738E+04 -6.363688E+05  1.187765E+03  1.278597E+03
       174  10 -1.805737E+06 -3.061445E+05 -3.922786E+04 -6.882404E+05 -4.938242E-10 -4.170628E-10
       174  11 -1.776731E+06 -2.730431E+05 -2.767837E+04 -6.575844E+05  4.948305E-10 -4.150985E-11
       174  12 -1.716066E+06 -2.726417E+05 -1.709951E+04 -6.635803E+05  3.050944E-10 -1.075956E-10
       174  13 -1.665582E+06 -2.533874E+05 -1.759547E+03 -6.501009E+05  2.631718E-10  1.823661E-10
       174  14 -1.681431E+06 -2.372030E+05 -2.097654E+03 -6.317117E+05  7.774681E-10 -2.740731E-11
       174  15 -1.665622E+06 -2.537170E+05 -3.400966E+03 -6.499751E+05 -8.372138E-11 -3.757894E-11
       174  16 -1.525408E+06 -2.006293E+05  3.570696E+04 -6.119537E+05 -5.975358E-10 -5.401033E-10
       174  17 -1.586123E+06 -2.013623E+05  2.348226E+04 -6.058355E+05  6.995689E-10 -2.821651E-10
       174  18 -1.615176E+06 -2.347922E+05  1.029738E+04 -6.363688E+05 -1.397039E-10  1.669831E-10
       174  19 -1.805737E+06 -3.061444E+05 -3.922782E+04 -6.882404E+05  9.071613E+02 -4.614202E+03
       174  20 -1.776731E+06 -2.730431E+05 -2.767835E+04 -6.575844E+05 -8.323477E+02 -3.215372E+03
       174  21 -1.716066E+06 -2.726417E+05 -1.709949E+04 -6.635803E+05 -2.578016E+03 -1.798755E+03
       174  22 -1.665582E+06 -2.533874E+05 -1.759506E+03 -6.501009E+05  1.588962E+03 -4.358902E+03
       174  23 -1.681431E+06 -2.372029E+05 -2.097638E+03 -6.317117E+05 -1.439430E+02 -2.957701E+03
       174  24 -1.665622E+06 -2.537170E+05 -3.400955E+03 -6.499751E+05 -1.882922E+03 -1.538688E+03
       174  25 -1.525408E+06 -2.006293E+05  3.570700E+04 -6.119537E+05  2.270931E+03 -4.103540E+03
       174  26 -1.586123E+06 -2.013623E+05  2.348227E+04 -6.058355E+05  5.445782E+02 -2.699986E+03
       174  27 -1.615176E+06 -2.347922E+05  1.029738E+04 -6.363688E+05 -1.187765E+03 -1.278597E+03
       175   1 -1.629188E+06 -2.398493E+05  5.633335E+03 -6.408041E+05  3.641213E+03  9.588807E+02
       175   2 -1.599784E+06 -2.059096E+05  1.449205E+04 -6.095613E+05  8.035874E+03  5.193405E+02
       175   3 -1.540521E+06 -2.087392E+05  1.931771E+04 -6.140900E+05  1.238717E+04  1.976066E+02
       175   4 -1.665828E+06 -2.532315E+05 -4.291646E+03 -6.502997E+05  2.921811E+03  6.897277E+02
       175   5 -1.681001E+06 -2.365939E+05 -7.331417E+03 -6.317594E+05  7.360804E+03  2.666771E+02
       175   6 -1.666326E+06 -2.567352E+05 -1.443977E+04 -6.489918E+05  1.175613E+04 -3.866998E+01
       175   7 -1.702466E+06 -2.666137E+05 -1.421674E+04 -6.597947E+05  2.202457E+03  4.205910E+02
       175   8 -1.762212E+06 -2.672777E+05 -2.915544E+04 -6.539548E+05  6.685832E+03  1.405087E+01
       175   9 -1.792116E+06 -3.047300E+05 -4.819856E+04 -6.838870E+05  1.112524E+04 -2.748916E+02
       175  10 -1.629188E+06 -2.398493E+05  5.633309E+03 -6.408042E+05 -5.268562E-10 -1.115973E-10
       175  11 -1.599784E+06 -2.059096E+05  1.449193E+04 -6.095613E+05  2.847713E-10  1.765009E-11
       175  12 -1.540522E+06 -2.087393E+05  1.931742E+04 -6.140900E+05  8.055537E-10  7.282257E-10
       175  13 -1.665828E+06 -2.532315E+05 -4.291663E+03 -6.502997E+05 -7.301025E-10 -3.646630E-10
       175  14 -1.681001E+06 -2.365939E+05 -7.331520E+03 -6.317594E+05 -5.704839E-10 -8.830447E-10
       175  15 -1.666326E+06 -2.567352E+05 -1.444003E+04 -6.489918E+05  1.321500E-09  1.286758E-10
       175  16 -1.702466E+06 -2.666137E+05 -1.421675E+04 -6.597947E+05  1.687292E-10  2.846477E-12
       175  17 -1.762212E+06 -2.672778E+05 -2.915552E+04 -6.539548E+05 -5.691475E-10 -5.338695E-10
       175  18 -1.792116E+06 -3.047301E+05 -4.819879E+04 -6.838870E+05  1.312874E-09  1.226401E-10
       175  19 -1.629188E+06 -2.398493E+05  5.633335E+03 -6.408041E+05 -3.641213E+03 -9.588807E+02
       175  20 -1.599784E+06 -2.059096E+05  1.449205E+04 -6.095613E+05 -8.035874E+03 -5.193405E+02
       175  21 -1.540521E+06 -2.087392E+05  1.931771E+04 -6.140900E+05 -1.238717E+04 -1.976066E+02
       175  22 -1.665828E+06 -2.532315E+05 -4.291646E+03 -6.502997E+05 -2.921811E+03 -6.897277E+02
       175  23 -1.681001E+06 -2.365939E+05 -7.331417E+03 -6.317594E+05 -7.360804E+03 -2.666771E+02
       175  24 -1.666326E+06 -2.567352E+05 -1.443977E+04 -6.489918E+05 -1.175613E+04  3.866998E+01
       175  25 -1.702466E+06 -2.666137E+05 -1.421674E+04 -6.597947E+05 -2.202457E+03 -4.205910E+02
       175  26 -1.762212E+06 -2.672777E+05 -2.915544E+04 -6.539548E+05 -6.685832E+03 -1.405087E+01
       175  27 -1.792116E+06 -3.047300E+05 -4.819856E+04 -6.838870E+05 -1.112524E+04  2.748916E+02
       176   1 -1.454575E+06 -1.750342E+05  3.850621E+04 -5.964898E+05  1.575092E+04  1.003024E+02
       176   2 -1.424538E+06 -1.354803E+05  3.682363E+04 -5.624663E+05  3.247653E+04  4.326410E+03
       176   3 -1.379938E+06 -1.641497E+05  1.294595E+04 -5.541587E+05  4.881690E+04  9.587944E+03
       176   4 -1.668114E+06 -2.521195E+05 -1.832782E+04 -6.511142E+05  1.486900E+04 -2.299317E+02
       176   5 -1.677386E+06 -2.322788E+05 -3.134401E+04 -6.328985E+05  3.198245E+04  4.140960E+03
       176   6 -1.672180E+06 -2.807506E+05 -6.687104E+04 -6.404002E+05  4.870945E+04  9.546748E+03
       176   7 -1.881611E+06 -3.292032E+05 -7.516593E+04 -7.057222E+05  1.398742E+04 -5.600534E+02
       176   8 -1.930173E+06 -3.290732E+05 -9.951743E+04 -7.033047E+05  3.148859E+04  3.955596E+03
       176   9 -1.964339E+06 -3.973437E+05 -1.466958E+05 -7.266039E+05  4.860205E+04  9.505573E+03
       176  10 -1.454575E+06 -1.750343E+05  3.850574E+04 -5.964899E+05  1.733289E-09  9.614462E-10
       176  11 -1.424540E+06 -1.354806E+05  3.682161E+04 -5.624664E+05 -5.979213E-10 -1.165676E-10
       176  12 -1.379941E+06 -1.641505E+05  1.294128E+04 -5.541591E+05 -8.031497E-10  3.732829E-10
       176  13 -1.668115E+06 -2.521196E+05 -1.832824E+04 -6.511142E+05  2.222396E-09  5.020487E-10
       176  14 -1.677387E+06 -2.322791E+05 -3.134597E+04 -6.328986E+05  9.724990E-10 -1.109554E-10
       176  15 -1.672183E+06 -2.807514E+05 -6.687568E+04 -6.404005E+05 -2.806409E-10  1.601184E-10
       176  16 -1.881611E+06 -3.292033E+05 -7.516630E+04 -7.057222E+05  1.045333E-09  7.132151E-11
       176  17 -1.930174E+06 -3.290735E+05 -9.951933E+04 -7.033048E+05 -1.055197E-10 -2.172869E-11
       176  18 -1.964342E+06 -3.973444E+05 -1.467004E+05 -7.266043E+05 -5.922167E-10 -4.217561E-12
       176  19 -1.454575E+06 -1.750342E+05  3.850621E+04 -5.964898E+05 -1.575092E+04 -1.003024E+02
       176  20 -1.424538E+06 -1.354803E+05  3.682363E+04 -5.624663E+05 -3.247653E+04 -4.326410E+03
       176  21 -1.379938E+06 -1.641497E+05  1.294595E+04 -5.541587E+05 -4.881690E+04 -9.587944E+03
       176  22 -1.668114E+06 -2.521195E+05 -1.832782E+04 -6.511142E+05 -1.486900E+04  2.299317E+02
       176  23 -1.677386E+06 -2.322788E+05 -3.134401E+04 -6.328985E+05 -3.198245E+04 -4.140960E+03
       176  24 -1.672180E+06 -2.807506E+05 -6.687104E+04 -6.404002E+05 -4.870945E+04 -9.546748E+03
       176  25 -1.881611E+06 -3.292032E+05 -7.516593E+04 -7.057222E+05 -1.398742E+04  5.600534E+02
       176  26 -1.930173E+06 -3.290732E+05 -9.951743E+04 -7.033047E+05 -3.148859E+04 -3.955596E+03
       176  27 -1.964339E+06 -3.973437E+05 -1.466958E+05 -7.266039E+05 -4.860205E+04 -9.505573E+03
       177   1 -1.288781E+06 -1.218843E+05  1.917232E+04 -5.786195E+05  6.409584E+04  1.258175E+04
       177   2 -1.248883E+06 -2.783476E+04 -2.180897E+04 -5.138375E+05  1.340784E+05  3.674229E+04
       177   3 -1.303888E+06 -2.636303E+05 -1.971866E+05 -4.019026E+05  2.003958E+05  7.067783E+04
       177   4 -1.683344E+06 -2.448271E+05 -8.175494E+04 -6.595762E+05  6.150318E+04  1.161189E+04
       177   5 -1.651950E+06 -1.952763E+05 -1.328345E+05 -6.396850E+05  1.351645E+05  3.714540E+04
       177   6 -1.716273E+06 -4.764340E+05 -3.213021E+05 -5.726220E+05  2.051581E+05  7.244492E+04
       177   7 -2.077755E+06 -3.677710E+05 -1.826940E+05 -7.404917E+05  5.891234E+04  1.064243E+04
       177   8 -2.054858E+06 -3.626983E+05 -2.438750E+05 -7.654552E+05  1.362498E+05  3.754813E+04
       177   9 -2.128485E+06 -6.891790E+05 -4.454344E+05 -7.432246E+05  2.099169E+05  7.420958E+04
       177  10 -1.288785E+06 -1.218856E+05  1.916428E+04 -5.786202E+05  1.047378E-10  2.840599E-10
       177  11 -1.248903E+06 -2.784105E+04 -2.184538E+04 -5.138415E+05 -1.734067E-10 -2.572833E-10
       177  12 -1.303932E+06 -2.636465E+05 -1.972717E+05 -4.019140E+05  4.288837E-10 -2.673384E-10
       177  13 -1.683348E+06 -2.448283E+05 -8.176232E+04 -6.595768E+05  5.599469E-10 -8.812611E-11
       177  14 -1.651970E+06 -1.952827E+05 -1.328716E+05 -6.396891E+05 -1.470272E-09 -2.083482E-11
       177  15 -1.716319E+06 -4.764510E+05 -3.213913E+05 -5.726340E+05  1.097333E-09  1.191758E-10
       177  16 -2.077759E+06 -3.677720E+05 -1.827008E+05 -7.404922E+05 -1.330279E-10 -3.120430E-10
       177  17 -2.054879E+06 -3.627048E+05 -2.439127E+05 -7.654593E+05  6.576092E-10 -3.270446E-10
       177  18 -2.128534E+06 -6.891968E+05 -4.455279E+05 -7.432371E+05  1.397120E-11 -5.912267E-11
       177  19 -1.288781E+06 -1.218843E+05  1.917232E+04 -5.786195E+05 -6.409584E+04 -1.258175E+04
       177  20 -1.248883E+06 -2.783476E+04 -2.180897E+04 -5.138375E+05 -1.340784E+05 -3.674229E+04
       177  21 -1.303888E+06 -2.636303E+05 -1.971866E+05 -4.019026E+05 -2.003958E+05 -7.067783E+04
       177  22 -1.683344E+06 -2.448271E+05 -8.175494E+04 -6.595762E+05 -6.150318E+04 -1.161189E+04
       177  23 -1.651950E+06 -1.952763E+05 -1.328345E+05 -6.396850E+05 -1.351645E+05 -3.714540E+04
       177  24 -1.716273E+06 -4.764340E+05 -3.213021E+05 -5.726220E+05 -2.051581E+05 -7.244492E+04
       177  25 -2.077755E+06 -3.677710E+05 -1.826940E+05 -7.404917E+05 -5.891234E+04 -1.064243E+04
       177  26 -2.054858E+06 -3.626983E+05 -2.438750E+05 -7.654552E+05 -1.362498E+05 -3.754813E+04
       177  27 -2.128485E+06 -6.891790E+05 -4.454344E+05 -7.432246E+05 -2.099169E+05 -7.420958E+04
       178   1 -1.478439E+06 -2.960606E+05 -2.606576E+05 -3.228273E+04  8.234623E+04  1.458030E+04
       178   2 -1.391906E+06 -4.027157E+05 -3.095685E+05 -2.608618E+03  6.099870E+04  4.238793E+04
       178   3 -1.260739E+06 -3.612713E+05 -3.065998E+05 -7.265346E+04  3.976580E+04  3.775668E+04
       178   4  1.677664E+05  1.147623E+05  1.473668E+05 -5.770207E+04  1.004932E+05  1.464749E+04
       178   5  1.443687E+05 -2.064070E+04  6.356465E+04 -7.623914E+03  6.585740E+04  4.239467E+04
       178   6  1.678062E+05 -5.829824E+03  4.077408E+04 -5.724699E+04  3.134089E+04  3.773694E+04
       178   7  1.816439E+06  5.253852E+05  5.551909E+05 -8.319140E+04  1.186881E+05  1.471310E+04
       178   8  1.682801E+06  3.612610E+05  4.365273E+05 -1.265326E+04  7.072794E+04  4.240132E+04
       178   9  1.598216E+06  3.494623E+05  3.880006E+05 -4.180567E+04  2.289654E+04  3.771680E+04
       178  10 -1.478446E+06 -2.960626E+05 -2.606708E+05 -3.228370E+04  1.498940E-09  4.220029E-10
       178  11 -1.391911E+06 -4.027187E+05 -3.095789E+05 -2.610702E+03  2.519509E-09 -1.551325E-09
       178  12 -1.260741E+06 -3.612733E+05 -3.066055E+05 -7.265467E+04  1.520731E-09 -4.174980E-10
       178  13  1.677555E+05  1.147594E+05  1.473474E+05 -5.770326E+04  1.066674E-09 -1.272238E-09
       178  14  1.443635E+05 -2.064379E+04  6.355313E+04 -7.626162E+03 -1.205362E-09 -2.307459E-10
       178  15  1.678048E+05 -5.831617E+03  4.076956E+04 -5.724794E+04  1.683396E-09 -4.113313E-10
       178  16  1.816424E+06  5.253812E+05  5.551641E+05 -8.319280E+04  1.150200E-09  1.515173E-09
       178  17  1.682795E+06  3.612577E+05  4.365146E+05 -1.265567E+04 -2.646221E-09 -1.338825E-09
       178  18  1.598215E+06  3.494607E+05  3.879969E+05 -4.180636E+04  7.276294E-10 -1.262543E-09
       178  19 -1.478439E+06 -2.960606E+05 -2.606576E+05 -3.228273E+04 -8.234623E+04 -1.458030E+04
       178  20 -1.391906E+06 -4.027157E+05 -3.095685E+05 -2.608618E+03 -6.099870E+04 -4.238793E+04
       178  21 -1.260739E+06 -3.612713E+05 -3.065998E+05 -7.265346E+04 -3.976580E+04 -3.775668E+04
       178  22  1.677664E+05  1.147623E+05  1.473668E+05 -5.770207E+04 -1.004932E+05 -1.464749E+04
       178  23  1.443687E+05 -2.064070E+04  6.356465E+04 -7.623914E+03 -6.585740E+04 -4.239467E+04
       178  24  1.678062E+05 -5.829824E+03  4.077408E+04 -5.724699E+04 -3.134089E+04 -3.773694E+04
       178  25  1.816439E+06  5.253852E+05  5.551909E+05 -8.319140E+04 -1.186881E+05 -1.471310E+04
       178  26  1.682801E+06  3.612610E+05  4.365273E+05 -1.265326E+04 -7.072794E+04 -4.240132E+04
       178  27  1.598216E+06  3.494623E+05  3.880006E+05 -4.180567E+04 -2.289654E+04 -3.771680E+04
       179   1 -1.081098E+06 -2.953668E+05 -2.688165E+05 -5.503385E+04  2.463090E+04  3.057179E+04
       179   2 -9.777946E+05 -2.845804E+05 -2.591207E+05 -7.338460E+03  1.735035E+04  2.952562E+04
       179   3 -8.667507E+05 -2.559250E+05 -2.397320E+05 -5.844391E+04  1.006104E+04  2.545774E+04
       179   4  1.593100E+05  1.328043E+04  3.334445E+04 -5.718681E+04  2.485704E+04  3.056798E+04
       179   5  1.553560E+05 -2.716104E+03  1.646906E+04 -7.785049E+03  1.633012E+04  2.952169E+04
       179   6  1.593378E+05 -6.434864E+02  1.013890E+04 -5.717262E+04  7.795686E+03  2.545612E+04
       179   7  1.401123E+06  3.218142E+05  3.353937E+05 -5.934446E+04  2.508358E+04  3.056417E+04
       179   8  1.289679E+06  2.790537E+05  2.919658E+05 -8.232568E+03  1.530800E+04  2.951777E+04
       179   9  1.186388E+06  2.545605E+05  2.599334E+05 -5.589906E+04  5.526583E+03  2.545450E+04
       179  10 -1.081099E+06 -2.953679E+05 -2.688194E+05 -5.503446E+04  4.590680E-10  1.375774E-10
       179  11 -9.777951E+05 -2.845814E+05 -2.591229E+05 -7.338872E+03  1.218220E-10  2.089120E-10
       179  12 -8.667510E+05 -2.559257E+05 -2.397334E+05 -5.844412E+04  7.489891E-10  1.050790E-10
       179  13  1.593091E+05  1.327926E+04  3.334154E+04 -5.718742E+04  1.047388E-09 -9.607799E-10
       179  14  1.553555E+05 -2.717111E+03  1.646692E+04 -7.785438E+03  6.565602E-10  1.145893E-09
       179  15  1.593375E+05 -6.441987E+02  1.013757E+04 -5.717278E+04 -1.763015E-09  3.339249E-10
       179  16  1.401122E+06  3.218130E+05  3.353907E+05 -5.934507E+04  1.151354E-09 -6.725984E-10
       179  17  1.289679E+06  2.790527E+05  2.919637E+05 -8.232931E+03  1.014321E-09  1.223328E-10
       179  18  1.186387E+06  2.545598E+05  2.599321E+05 -5.589917E+04 -7.502085E-10  4.539417E-10
       179  19 -1.081098E+06 -2.953668E+05 -2.688165E+05 -5.503385E+04 -2.463090E+04 -3.057179E+04
       179  20 -9.777946E+05 -2.845804E+05 -2.591207E+05 -7.338460E+03 -1.735035E+04 -2.952562E+04
       179  21 -8.667507E+05 -2.559250E+05 -2.397320E+05 -5.844391E+04 -1.006104E+04 -2.545774E+04
       179  22  1.593100E+05  1.328043E+04  3.334445E+04 -5.718681E+04 -2.485704E+04 -3.056798E+04
       179  23  1.553560E+05 -2.716104E+03  1.646906E+04 -7.785049E+03 -1.633012E+04 -2.952169E+04
       179  24  1.593378E+05 -6.434864E+02  1.013890E+04 -5.717262E+04 -7.795686E+03 -2.545612E+04
       179  25  1.401123E+06  3.218142E+05  3.353937E+05 -5.934446E+04 -2.508358E+04 -3.056417E+04
       179  26  1.289679E+06  2.790537E+05  2.919658E+05 -8.232568E+03 -1.530800E+04 -2.951777E+04
       179  27  1.186388E+06  2.545605E+05  2.599334E+05 -5.589906E+04 -5.526583E+03 -2.545450E+04
       180   1 -6.816010E+05 -2.072821E+05 -1.960134E+05 -5.617791E+04  7.625500E+03  2.267617E+04
       180   2 -5.760058E+05 -1.827462E+05 -1.740883E+05 -7.206146E+03  5.587884E+03  1.896082E+04
       180   3 -4.689471E+05 -1.558283E+05 -1.501183E+05 -5.626670E+04  3.542395E+03  1.497375E+04
       180   4  1.580051E+05  1.485183E+03  7.932099E+03 -5.700526E+04  6.170968E+03  2.267546E+04
       180   5  1.572777E+05 -3.823663E+02  4.243145E+03 -7.993299E+03  4.019841E+03  1.896154E+04
       180   6  1.580223E+05  1.513978E+02  2.676704E+03 -5.700646E+04  1.861188E+03  1.497608E+04
       180   7  9.982551E+05  2.102006E+05  2.118267E+05 -5.783357E+04  4.714469E+03  2.267474E+04
       180   8  8.910521E+05  1.819419E+05  1.825357E+05 -8.781214E+03  2.449948E+03  1.896226E+04
       180   9  7.853504E+05  1.561022E+05  1.554432E+05 -5.774678E+04  1.782863E+02  1.497841E+04
       180  10 -6.816012E+05 -2.072826E+05 -1.960145E+05 -5.617805E+04  1.197596E-09 -4.409069E-12
       180  11 -5.760059E+05 -1.827466E+05 -1.740891E+05 -7.206231E+03 -1.377583E-09  5.715038E-11
       180  12 -4.689472E+05 -1.558286E+05 -1.501188E+05 -5.626674E+04  1.875472E-10 -1.051232E-09
       180  13  1.580049E+05  1.484620E+03  7.931061E+03 -5.700537E+04  6.496885E-12  3.924740E-10
       180  14  1.572776E+05 -3.827567E+02  4.242439E+03 -7.993361E+03 -1.295009E-09  1.312798E-09
       180  15  1.580222E+05  1.511560E+02  2.676276E+03 -5.700648E+04 -5.115092E-10  1.385360E-09
       180  16  9.982550E+05  2.102000E+05  2.118257E+05 -5.783365E+04 -7.132405E-10  3.177942E-10
       180  17  8.910520E+05  1.819415E+05  1.825350E+05 -8.781251E+03 -5.495268E-10 -7.726890E-10
       180  18  7.853504E+05  1.561019E+05  1.554428E+05 -5.774678E+04 -5.083233E-10 -6.118365E-10
       180  19 -6.816010E+05 -2.072821E+05 -1.960134E+05 -5.617791E+04 -7.625500E+03 -2.267617E+04
       180  20 -5.760058E+05 -1.827462E+05 -1.740883E+05 -7.206146E+03 -5.587884E+03 -1.896082E+04
       180  21 -4.689471E+05 -1.558283E+05 -1.501183E+05 -5.626670E+04 -3.542395E+03 -1.497375E+04
       180  22  1.580051E+05  1.485183E+03  7.932099E+03 -5.700526E+04 -6.170968E+03 -2.267546E+04
       180  23  1.572777E+05 -3.823663E+02  4.243145E+03 -7.993299E+03 -4.019841E+03 -1.896154E+04
       180  24  1.580223E+05  1.513978E+02  2.676704E+03 -5.700646E+04 -1.861188E+03 -1.497608E+04
       180  25  9.982551E+05  2.102006E+05  2.118267E+05 -5.783357E+04 -4.714469E+03 -2.267474E+04
       180  26  8.910521E+05  1.819419E+05  1.825357E+05 -8.781214E+03 -2.449948E+03 -1.896226E+04
       180  27  7.853504E+05  1.561022E+05  1.554432E+05 -5.774678E+04 -1.782863E+02 -1.497841E+04
       181   1 -2.838799E+05 -1.094209E+05 -1.049556E+05 -5.617761E+04  3.026385E+03  1.261669E+04
       181   2 -1.779533E+05 -8.349646E+04 -8.023805E+04 -7.526631E+03  2.330542E+03  8.669448E+03
       181   3 -7.214171E+04 -5.689373E+04 -5.498070E+04 -5.645055E+04  1.631215E+03  4.703495E+03
       181   4  1.577271E+05  3.223214E+02  2.103465E+03 -5.690507E+04  1.420218E+03  1.261964E+04
       181   5  1.577922E+05 -1.689785E+01  1.396614E+03 -8.119252E+03  7.162059E+02  8.673033E+03
       181   6  1.577349E+05  3.247130E+02  1.236085E+03 -5.690504E+04  8.826732E+00  4.707758E+03
       181   7  5.995123E+05  1.100512E+05  1.091485E+05 -5.763295E+04 -1.870881E+02  1.262259E+04
       181   8  4.936406E+05  8.345438E+04  8.302313E+04 -8.712132E+03 -8.990011E+02  8.676619E+03
       181   9  3.876596E+05  5.753925E+04  5.744902E+04 -5.735966E+04 -1.614161E+03  4.712023E+03
       181  10 -2.838799E+05 -1.094211E+05 -1.049559E+05 -5.617764E+04 -1.386881E-10 -2.198369E-10
       181  11 -1.779533E+05 -8.349655E+04 -8.023821E+04 -7.526647E+03 -1.928061E-09  1.965738E-10
       181  12 -7.214172E+04 -5.689375E+04 -5.498075E+04 -5.645056E+04 -1.088757E-09 -2.569855E-10
       181  13  1.577271E+05  3.221498E+02  2.103162E+03 -5.690509E+04  2.996130E-11 -1.610888E-09
       181  14  1.577922E+05 -1.697877E+01  1.396472E+03 -8.119257E+03 -3.035148E-09  8.808956E-10
       181  15  1.577349E+05  3.246892E+02  1.236044E+03 -5.690504E+04 -4.757743E-10 -1.078112E-09
       181  16  5.995122E+05  1.100511E+05  1.091482E+05 -5.763295E+04 -9.995457E-10  1.191529E-10
       181  17  4.936405E+05  8.345430E+04  8.302299E+04 -8.712126E+03  7.468472E-11 -3.192776E-10
       181  18  3.876596E+05  5.753922E+04  5.744898E+04 -5.735965E+04  2.827000E-10 -2.018547E-09
       181  19 -2.838799E+05 -1.094209E+05 -1.049556E+05 -5.617761E+04 -3.026385E+03 -1.261669E+04
       181  20 -1.779533E+05 -8.349646E+04 -8.023805E+04 -7.526631E+03 -2.330542E+03 -8.669448E+03
       181  21 -7.214171E+04 -5.689373E+04 -5.498070E+04 -5.645055E+04 -1.631215E+03 -4.703495E+03
       181  22  1.577271E+05  3.223214E+02  2.103465E+03 -5.690507E+04 -1.420218E+03 -1.261964E+04
       181  23  1.577922E+05 -1.689785E+01  1.396614E+03 -8.119252E+03 -7.162059E+02 -8.673033E+03
       181  24  1.577349E+05  3.247130E+02  1.236085E+03 -5.690504E+04 -8.826732E+00 -4.707758E+03
       181  25  5.995123E+05  1.100512E+05  1.091485E+05 -5.763295E+04  1.870881E+02 -1.262259E+04
       181  26  4.936406E+05  8.345438E+04  8.302313E+04 -8.712132E+03  8.990011E+02 -8.676619E+03
       181  27  3.876596E+05  5.753925E+04  5.744902E+04 -5.735966E+04  1.614161E+03 -4.712023E+03
       182   1  1.127186E+05 -1.082411E+04 -9.345820E+03 -5.676529E+04  1.396017E+03  2.388905E+03
       182   2  2.186515E+05  1.511139E+04  1.641355E+04 -8.266808E+03  5.628819E+02 -1.572889E+03
       182   3  3.242666E+05  4.183248E+04  4.277595E+04 -5.722605E+04 -2.697528E+02 -5.515729E+03
       182   4  1.577037E+05  2.938513E+02  1.263302E+03 -5.688004E+04 -2.254624E+02  2.393362E+03
       182   5  1.578684E+05  1.959504E+00  1.638335E+03 -8.150630E+03 -1.050939E+03 -1.568587E+03
       182   6  1.577023E+05  4.947508E+02  2.611470E+03 -5.687950E+04 -1.875775E+03 -5.511544E+03
       182   7  2.026907E+05  1.141167E+04  1.187230E+04 -5.699480E+04 -1.847058E+03  2.397820E+03
       182   8  9.708875E+04 -1.510775E+04 -1.313713E+04 -8.034461E+03 -2.664601E+03 -1.564285E+03
       182   9 -8.836724E+03 -4.084500E+04 -3.755498E+04 -5.653302E+04 -3.481369E+03 -5.507360E+03
       182  10  1.127186E+05 -1.082412E+04 -9.345835E+03 -5.676529E+04 -3.563454E-09  1.603990E-09
       182  11  2.186515E+05  1.511139E+04  1.641354E+04 -8.266808E+03 -4.152208E-09  3.818094E-09
       182  12  3.242666E+05  4.183245E+04  4.277589E+04 -5.722605E+04 -8.061558E-10 -2.285225E-09
       182  13  1.577037E+05  2.938451E+02  1.263292E+03 -5.688004E+04 -1.073117E-09  2.181856E-10
       182  14  1.578684E+05  1.956565E+00  1.638329E+03 -8.150631E+03 -8.454074E-10 -1.195071E-09
       182  15  1.577023E+05  4.947172E+02  2.611406E+03 -5.687951E+04  7.055550E-10 -1.351046E-10
       182  16  2.026907E+05  1.141167E+04  1.187228E+04 -5.699480E+04  3.111276E-10  3.914847E-10
       182  17  9.708874E+04 -1.510775E+04 -1.313715E+04 -8.034464E+03  4.020750E-09 -4.755246E-10
       182  18 -8.836745E+03 -4.084504E+04 -3.755506E+04 -5.653304E+04 -5.791008E-10 -6.310918E-10
       182  19  1.127186E+05 -1.082411E+04 -9.345820E+03 -5.676529E+04 -1.396017E+03 -2.388905E+03
       182  20  2.186515E+05  1.511139E+04  1.641355E+04 -8.266808E+03 -5.628819E+02  1.572889E+03
       182  21  3.242666E+05  4.183248E+04  4.277595E+04 -5.722605E+04  2.697528E+02  5.515729E+03
       182  22  1.577037E+05  2.938513E+02  1.263302E+03 -5.688004E+04  2.254624E+02 -2.393362E+03
       182  23  1.578684E+05  1.959504E+00  1.638335E+03 -8.150630E+03  1.050939E+03  1.568587E+03
       182  24  1.577023E+05  4.947508E+02  2.611470E+03 -5.687950E+04  1.875775E+03  5.511544E+03
       182  25  2.026907E+05  1.141167E+04  1.187230E+04 -5.699480E+04  1.847058E+03 -2.397820E+03
       182  26  9.708875E+04 -1.510775E+04 -1.313713E+04 -8.034461E+03  2.664601E+03  1.564285E+03
       182  27 -8.836724E+03 -4.084500E+04 -3.755498E+04 -5.653302E+04  3.481369E+03  5.507360E+03
       183   1  5.095860E+05  8.765644E+04  8.911186E+04 -5.734015E+04 -7.495581E+02 -7.859045E+03
       183   2  6.151291E+05  1.133541E+05  1.166985E+05 -8.889246E+03 -3.621808E+03 -1.182768E+04
       183   3  7.216803E+05  1.422027E+05  1.469021E+05 -5.810728E+04 -6.489592E+03 -1.556592E+04
       183   4  1.579655E+05  2.025226E+02  3.328905E+03 -5.692898E+04 -2.418741E+03 -7.855067E+03
       183   5  1.574689E+05 -3.828908E+02  5.478737E+03 -8.090403E+03 -5.195192E+03 -1.182482E+04
       183   6  1.579546E+05  2.168005E+03  1.018122E+04 -5.692518E+04 -7.966693E+03 -1.556407E+04
       183   7 -1.935424E+05 -8.726051E+04 -8.246304E+04 -5.651797E+04 -4.086981E+03 -7.851091E+03
       183   8 -3.000002E+05 -1.141353E+05 -1.057562E+05 -7.292046E+03 -6.767419E+03 -1.182197E+04
       183   9 -4.054811E+05 -1.378900E+05 -1.265626E+05 -5.574401E+04 -9.442456E+03 -1.556223E+04
       183  10  5.095860E+05  8.765637E+04  8.911174E+04 -5.734015E+04  1.924198E-09 -2.524535E-09
       183  11  6.151290E+05  1.133540E+05  1.166982E+05 -8.889280E+03 -2.935138E-09  5.969414E-10
       183  12  7.216802E+05  1.422024E+05  1.469016E+05 -5.810736E+04 -2.891297E-09  1.837027E-10
       183  13  1.579655E+05  2.024548E+02  3.328778E+03 -5.692899E+04 -1.099663E-09 -1.950406E-10
       183  14  1.574689E+05 -3.830482E+02  5.478424E+03 -8.090453E+03 -1.872589E-09 -8.543906E-10
       183  15  1.579545E+05  2.167728E+03  1.018065E+04 -5.692528E+04  1.072206E-09 -4.771931E-10
       183  16 -1.935424E+05 -8.726058E+04 -8.246318E+04 -5.651799E+04 -2.759026E-09 -5.000763E-10
       183  17 -3.000003E+05 -1.141354E+05 -1.057565E+05 -7.292111E+03  1.034306E-09  2.579871E-09
       183  18 -4.054813E+05 -1.378903E+05 -1.265632E+05 -5.574413E+04  2.739303E-09  8.852406E-10
       183  19  5.095860E+05  8.765644E+04  8.911186E+04 -5.734015E+04  7.495581E+02  7.859045E+03
       183  20  6.151291E+05  1.133541E+05  1.166985E+05 -8.889246E+03  3.621808E+03  1.182768E+04
       183  21  7.216803E+05  1.422027E+05  1.469021E+05 -5.810728E+04  6.489592E+03  1.556592E+04
       183  22  1.579655E+05  2.025226E+02  3.328905E+03 -5.692898E+04  2.418741E+03  7.855067E+03
       183  23  1.574689E+05 -3.828908E+02  5.478737E+03 -8.090403E+03  5.195192E+03  1.182482E+04
       183  24  1.579546E+05  2.168005E+03  1.018122E+04 -5.692518E+04  7.966693E+03  1.556407E+04
       183  25 -1.935424E+05 -8.726051E+04 -8.246304E+04 -5.651797E+04  4.086981E+03  7.851091E+03
       183  26 -3.000002E+05 -1.141353E+05 -1.057562E+05 -7.292046E+03  6.767419E+03  1.182197E+04
       183  27 -4.054811E+05 -1.378900E+05 -1.265626E+05 -5.574401E+04  9.442456E+03  1.556223E+04
       184   1  9.091108E+05  1.856461E+05  1.953990E+05 -5.579064E+04 -7.881973E+03 -1.826002E+04
       184   2  1.011555E+06  2.094547E+05  2.293056E+05 -9.576497E+03 -1.995937E+04 -2.228045E+04
       184   3  1.122510E+06  2.568574E+05  2.771717E+05 -6.154878E+04 -3.202966E+04 -2.377225E+04
       184   4  1.595152E+05 -6.574440E+02  1.297408E+04 -5.704748E+04 -1.003935E+04 -1.825798E+04
       184   5  1.553390E+05 -3.270584E+03  2.132366E+04 -7.946049E+03 -2.107009E+04 -2.228146E+04
       184   6  1.594937E+05  1.754759E+04  4.292121E+04 -5.703901E+04 -3.209168E+04 -2.377484E+04
       184   7 -5.895682E+05 -1.870024E+05 -1.694916E+05 -5.830258E+04 -1.219412E+04 -1.825593E+04
       184   8 -7.002087E+05 -2.160497E+05 -1.867113E+05 -6.317697E+03 -2.217927E+04 -2.228247E+04
       184   9 -8.026771E+05 -2.218304E+05 -1.913965E+05 -5.253614E+04 -3.215356E+04 -2.377743E+04
       184  10  9.091106E+05  1.856458E+05  1.953983E+05 -5.579076E+04  8.140032E-10  8.804205E-10
       184  11  1.011555E+06  2.094540E+05  2.293040E+05 -9.576855E+03  1.311975E-09 -4.374498E-10
       184  12  1.122509E+06  2.568565E+05  2.771687E+05 -6.154939E+04 -5.361803E-10  3.697876E-10
       184  13  1.595150E+05 -6.578291E+02  1.297326E+04 -5.704763E+04  4.146105E-12  5.150954E-10
       184  14  1.553384E+05 -3.271236E+03  2.132189E+04 -7.946428E+03 -1.784347E-09  7.231302E-10
       184  15  1.594925E+05  1.754671E+04  4.291821E+04 -5.703963E+04 -1.483533E-09 -3.318356E-11
       184  16 -5.895685E+05 -1.870028E+05 -1.694925E+05 -5.830276E+04 -3.157354E-09  8.852991E-10
       184  17 -7.002093E+05 -2.160504E+05 -1.867132E+05 -6.318095E+03 -1.606821E-09  3.550468E-10
       184  18 -8.026784E+05 -2.218313E+05 -1.913995E+05 -5.253676E+04  8.855996E-10  2.465788E-10
       184  19  9.091108E+05  1.856461E+05  1.953990E+05 -5.579064E+04  7.881973E+03  1.826002E+04
       184  20  1.011555E+06  2.094547E+05  2.293056E+05 -9.576497E+03  1.995937E+04  2.228045E+04
       184  21  1.122510E+06  2.568574E+05  2.771717E+05 -6.154878E+04  3.202966E+04  2.377225E+04
       184  22  1.595152E+05 -6.574440E+02  1.297408E+04 -5.704748E+04  1.003935E+04  1.825798E+04
       184  23  1.553390E+05 -3.270584E+03  2.132366E+04 -7.946049E+03  2.107009E+04  2.228146E+04
       184  24  1.594937E+05  1.754759E+04  4.292121E+04 -5.703901E+04  3.209168E+04  2.377484E+04
       184  25 -5.895682E+05 -1.870024E+05 -1.694916E+05 -5.830258E+04  1.219412E+04  1.825593E+04
       184  26 -7.002087E+05 -2.160497E+05 -1.867113E+05 -6.317697E+03  2.217927E+04  2.228247E+04
       184  27 -8.026771E+05 -2.218304E+05 -1.913965E+05 -5.253614E+04  3.215356E+04  2.377743E+04
       185   1  1.320496E+06  2.786025E+05  3.317404E+05 -3.955077E+04 -3.310473E+04 -3.013544E+04
       185   2  1.399083E+06  2.860464E+05  3.870019E+05 -1.766642E+04 -8.882215E+04 -3.463734E+04
       185   3  1.536648E+06  4.886526E+05  5.278715E+05 -9.462827E+04 -1.445948E+05 -1.202551E+04
       185   4  1.702258E+05 -7.118295E+03  5.243543E+04 -5.711663E+04 -4.042618E+04 -3.013909E+04
       185   5  1.416368E+05 -2.616714E+04  8.211914E+04 -7.827712E+03 -8.498090E+04 -3.463920E+04
       185   6  1.701899E+05  1.482182E+05  1.897822E+05 -5.739100E+04 -1.295801E+05 -1.200632E+04
       185   7 -9.788372E+05 -2.929351E+05 -2.269647E+05 -7.464990E+04 -4.773406E+04 -3.014233E+04
       185   8 -1.114367E+06 -3.384962E+05 -2.228774E+05  1.990660E+03 -8.114726E+04 -3.464095E+04
       185   9 -1.194571E+06 -1.923502E+05 -1.484442E+05 -2.023637E+04 -1.145980E+05 -1.198532E+04
       185  10  1.320494E+06  2.786013E+05  3.317366E+05 -3.955157E+04  6.620305E-10  3.682428E-10
       185  11  1.399074E+06  2.860430E+05  3.869848E+05 -1.766890E+04  1.305883E-09  1.817043E-10
       185  12  1.536626E+06  4.886468E+05  5.278320E+05 -9.462967E+04 -7.903625E-10 -1.490607E-10
       185  13  1.702238E+05 -7.119709E+03  5.243065E+04 -5.711761E+04  1.115117E-09  4.628622E-10
       185  14  1.416288E+05 -2.617037E+04  8.210332E+04 -7.830082E+03 -1.935623E-09  1.359746E-09
       185  15  1.701718E+05  1.482135E+05  1.897504E+05 -5.739225E+04 -1.282893E-09 -3.252453E-10
       185  16 -9.788399E+05 -2.929367E+05 -2.269707E+05 -7.465106E+04 -1.207344E-09  4.042935E-10
       185  17 -1.114374E+06 -3.384993E+05 -2.228921E+05  1.988394E+03  3.548248E-10 -1.322101E-10
       185  18 -1.194585E+06 -1.923539E+05 -1.484692E+05 -2.023748E+04  1.199620E-09 -1.225754E-09
       185  19  1.320496E+06  2.786025E+05  3.317404E+05 -3.955077E+04  3.310473E+04  3.013544E+04
       185  20  1.399083E+06  2.860464E+05  3.870019E+05 -1.766642E+04  8.882215E+04  3.463734E+04
       185  21  1.536648E+06  4.886526E+05  5.278715E+05 -9.462827E+04  1.445948E+05  1.202551E+04
       185  22  1.702258E+05 -7.118295E+03  5.243543E+04 -5.711663E+04  4.042618E+04  3.013909E+04
       185  23  1.416368E+05 -2.616714E+04  8.211914E+04 -7.827712E+03  8.498090E+04  3.463920E+04
       185  24  1.701899E+05  1.482182E+05  1.897822E+05 -5.739100E+04  1.295801E+05  1.200632E+04
       185  25 -9.788372E+05 -2.929351E+05 -2.269647E+05 -7.464990E+04  4.773406E+04  3.014233E+04
       185  26 -1.114367E+06 -3.384962E+05 -2.228774E+05  1.990660E+03  8.114726E+04  3.464095E+04
       185  27 -1.194571E+06 -1.923502E+05 -1.484442E+05 -2.023637E+04  1.145980E+05  1.198532E+04
       186   1  1.822360E+05  4.776466E+05  2.195082E+05 -1.268001E+05  4.614744E+02  1.172513E+05
       186   2 -2.077752E+04  2.860814E+05  8.137633E+04 -2.364286E+04  4.166971E+02  7.233817E+04
       186   3 -4.281795E+04  1.438581E+05  1.735221E+04 -7.370133E+04 -5.474471E+03  2.740935E+04
       186   4  1.371805E+05  2.988355E+05  1.750153E+05 -8.990694E+04  4.734983E+02  1.161520E+05
       186   5 -2.377760E+04  2.743816E+05  7.862982E+04 -1.362908E+04  4.118321E+02  7.363635E+04
       186   6 -4.169960E+03  2.988475E+05  5.470762E+04 -9.055935E+04 -5.492467E+03  3.109304E+04
       186   7  9.212771E+04  1.200562E+05  1.305206E+05 -5.302435E+04  4.853940E+02  1.150530E+05
       186   8 -2.677732E+04  2.626821E+05  7.588336E+04 -3.615497E+03  4.070089E+02  7.493450E+04
       186   9  3.447732E+04  4.538595E+05  9.206150E+04 -1.074216E+05 -5.510661E+03  3.477764E+04
       186  10  1.822323E+05  4.776318E+05  2.194824E+05 -1.268002E+05  1.045227E-09  1.172325E-09
       186  11 -2.077893E+04  2.860758E+05  8.136650E+04 -2.364288E+04  2.873056E-11 -1.724385E-09
       186  12 -4.281818E+04  1.438573E+05  1.735074E+04 -7.370121E+04 -1.049046E-09 -2.170410E-09
       186  13  1.371769E+05  2.988210E+05  1.749899E+05 -8.990698E+04  3.337037E-09  1.265665E-09
       186  14 -2.377906E+04  2.743758E+05  7.861963E+04 -1.362911E+04  5.067851E-10 -1.221809E-09
       186  15 -4.170252E+03  2.988465E+05  5.470575E+04 -9.055922E+04 -7.993147E-10  2.745943E-10
       186  16  9.212416E+04  1.200420E+05  1.304958E+05 -5.302440E+04  1.827893E-09 -1.721774E-09
       186  17 -2.677883E+04  2.626761E+05  7.587281E+04 -3.615522E+03  6.319930E-09  5.415922E-10
       186  18  3.447696E+04  4.538582E+05  9.205917E+04 -1.074214E+05  1.058929E-09  2.948642E-09
       186  19  1.822360E+05  4.776466E+05  2.195082E+05 -1.268001E+05 -4.614744E+02 -1.172513E+05
       186  20 -2.077752E+04  2.860814E+05  8.137633E+04 -2.364286E+04 -4.166971E+02 -7.233817E+04
       186  21 -4.281795E+04  1.438581E+05  1.735221E+04 -7.370133E+04  5.474471E+03 -2.740935E+04
       186  22  1.371805E+05  2.988355E+05  1.750153E+05 -8.990694E+04 -4.734983E+02 -1.161520E+05
       186  23 -2.377760E+04  2.743816E+05  7.862982E+04 -1.362908E+04 -4.118321E+02 -7.363635E+04
       186  24 -4.169960E+03  2.988475E+05  5.470762E+04 -9.055935E+04  5.492467E+03 -3.109304E+04
       186  25  9.212771E+04  1.200562E+05  1.305206E+05 -5.302435E+04 -4.853940E+02 -1.150530E+05
       186  26 -2.677732E+04  2.626821E+05  7.588336E+04 -3.615497E+03 -4.070089E+02 -7.493450E+04
       186  27  3.447732E+04  4.538595E+05  9.206150E+04 -1.074216E+05  5.510661E+03 -3.477764E+04
       187   1 -9.465962E+04 -1.569389E+05 -6.094139E+04 -9.451572E+04 -1.038315E+04  1.928143E+04
       187   2 -1.579262E+05 -3.299726E+05 -1.150028E+05 -1.181756E+04 -1.605558E+04  2.343223E+03
       187   3 -1.822694E+05 -4.919371E+05 -1.484997E+05 -8.336302E+04 -1.959601E+04 -1.457386E+04
       187   4  1.656924E+04  2.904064E+05  4.814205E+04 -9.054611E+04 -1.039530E+04  2.207403E+04
       187   5 -5.069294E+03  2.848018E+05  3.443625E+04 -1.344309E+04 -1.606231E+04  4.253195E+03
       187   6  1.235128E+04  2.903842E+05  4.189796E+04 -9.057273E+04 -1.959805E+04 -1.355102E+04
       187   7  1.277834E+05  7.379343E+05  1.572110E+05 -8.657341E+04 -1.040741E+04  2.486863E+04
       187   8  1.477598E+05  8.999211E+05  1.838479E+05 -1.506988E+04 -1.606905E+04  6.165052E+03
       187   9  2.069271E+05  1.073264E+06  2.322513E+05 -9.779101E+04 -1.960010E+04 -1.252688E+04
       187  10 -9.465984E+04 -1.569394E+05 -6.094229E+04 -9.451556E+04 -2.160340E-09 -2.670239E-10
       187  11 -1.579265E+05 -3.299727E+05 -1.150033E+05 -1.181753E+04  1.414595E-10 -1.724302E-09
       187  12 -1.822699E+05 -4.919374E+05 -1.485009E+05 -8.336325E+04  2.981920E-10 -1.006251E-09
       187  13  1.656899E+04  2.904059E+05  4.814093E+04 -9.054593E+04 -1.070550E-09  1.246625E-09
       187  14 -5.069576E+03  2.848017E+05  3.443573E+04 -1.344304E+04 -3.841284E-10 -1.057978E-09
       187  15  1.235082E+04  2.903839E+05  4.189690E+04 -9.057295E+04 -1.421010E-09  2.013734E-10
       187  16  1.277831E+05  7.379336E+05  1.572096E+05 -8.657320E+04 -1.071917E-09 -2.913785E-10
       187  17  1.477596E+05  8.999210E+05  1.838474E+05 -1.506980E+04 -2.050808E-09  9.626827E-10
       187  18  2.069266E+05  1.073264E+06  2.322503E+05 -9.779121E+04 -9.553771E-10  1.690997E-09
       187  19 -9.465962E+04 -1.569389E+05 -6.094139E+04 -9.451572E+04  1.038315E+04 -1.928143E+04
       187  20 -1.579262E+05 -3.299726E+05 -1.150028E+05 -1.181756E+04  1.605558E+04 -2.343223E+03
       187  21 -1.822694E+05 -4.919371E+05 -1.484997E+05 -8.336302E+04  1.959601E+04  1.457386E+04
       187  22  1.656924E+04  2.904064E+05  4.814205E+04 -9.054611E+04  1.039530E+04 -2.207403E+04
       187  23 -5.069294E+03  2.848018E+05  3.443625E+04 -1.344309E+04  1.606231E+04 -4.253195E+03
       187  24  1.235128E+04  2.903842E+05  4.189796E+04 -9.057273E+04  1.959805E+04  1.355102E+04
       187  25  1.277834E+05  7.379343E+05  1.572110E+05 -8.657341E+04  1.040741E+04 -2.486863E+04
       187  26  1.477598E+05  8.999211E+05  1.838479E+05 -1.506988E+04  1.606905E+04 -6.165052E+03
       187  27  2.069271E+05  1.073264E+06  2.322513E+05 -9.779101E+04  1.960010E+04  1.252688E+04
       188   1 -2.701036E+05 -7.792294E+05 -2.156277E+05 -1.010351E+05 -2.760765E+04 -2.994649E+04
       188   2 -3.285753E+05 -9.683094E+05 -2.396401E+05 -3.353537E+03 -3.427728E+04 -5.185025E+04
       188   3 -2.470309E+05 -1.117676E+06 -2.139980E+05 -6.082763E+04 -1.188624E+04 -7.369082E+04
       188   4 -2.525661E+03  2.969983E+05  4.613199E+04 -9.084549E+04 -2.763343E+04 -2.130585E+04
       188   5 -1.910079E+04  2.761339E+05  6.247514E+04 -1.319299E+04 -3.426470E+04 -5.510948E+04
       188   6  1.062574E+05  2.969398E+05  1.366607E+05 -9.067210E+04 -1.185952E+04 -8.885637E+04
       188   7  2.649676E+05  1.374284E+06  3.078081E+05 -8.063725E+04 -2.765889E+04 -1.265023E+04
       188   8  2.902603E+05  1.521992E+06  3.644786E+05 -2.305143E+04 -3.425203E+04 -5.837514E+04
       188   9  4.593991E+05  1.713376E+06  4.871715E+05 -1.205840E+05 -1.183137E+04 -1.040563E+05
       188  10 -2.701047E+05 -7.792306E+05 -2.156308E+05 -1.010357E+05 -7.851314E-10  9.100955E-11
       188  11 -3.285773E+05 -9.683126E+05 -2.396473E+05 -3.354970E+03  1.587932E-09 -6.171049E-10
       188  12 -2.470325E+05 -1.117681E+06 -2.140085E+05 -6.082834E+04  2.719889E-10 -5.626127E-10
       188  13 -2.526603E+03  2.969976E+05  4.612971E+04 -9.084596E+04  9.430108E-10  9.182005E-10
       188  14 -1.910287E+04  2.761303E+05  6.246723E+04 -1.319451E+04  6.661390E-10 -5.770038E-10
       188  15  1.062551E+05  2.969313E+05  1.366456E+05 -9.067295E+04  5.548728E-10  7.852574E-11
       188  16  2.649667E+05  1.374284E+06  3.078064E+05 -8.063753E+04 -5.868355E-10 -2.968818E-10
       188  17  2.902581E+05  1.521989E+06  3.644700E+05 -2.305304E+04  1.965396E-09  1.404845E-11
       188  18  4.593961E+05  1.713365E+06  4.871509E+05 -1.205850E+05  1.110471E-09  6.289082E-10
       188  19 -2.701036E+05 -7.792294E+05 -2.156277E+05 -1.010351E+05  2.760765E+04  2.994649E+04
       188  20 -3.285753E+05 -9.683094E+05 -2.396401E+05 -3.353537E+03  3.427728E+04  5.185025E+04
       188  21 -2.470309E+05 -1.117676E+06 -2.139980E+05 -6.082763E+04  1.188624E+04  7.369082E+04
       188  22 -2.525661E+03  2.969983E+05  4.613199E+04 -9.084549E+04  2.763343E+04  2.130585E+04
       188  23 -1.910079E+04  2.761339E+05  6.247514E+04 -1.319299E+04  3.426470E+04  5.510948E+04
       188  24  1.062574E+05  2.969398E+05  1.366607E+05 -9.067210E+04  1.185952E+04  8.885637E+04
       188  25  2.649676E+05  1.374284E+06  3.078081E+05 -8.063725E+04  2.765889E+04  1.265023E+04
       188  26  2.902603E+05  1.521992E+06  3.644786E+05 -2.305143E+04  3.425203E+04  5.837514E+04
       188  27  4.593991E+05  1.713376E+06  4.871715E+05 -1.205840E+05  1.183137E+04  1.040563E+05
       189   1 -4.580739E+06 -1.517297E+06 -1.012469E+06 -1.563343E+06 -4.586009E+05 -1.620121E+05
       189   2 -4.452944E+06 -8.433919E+05 -5.861309E+05 -1.648245E+06 -2.992882E+05 -7.714055E+04
       189   3 -4.571639E+06 -8.546898E+05 -4.662228E+05 -1.586490E+06 -1.309856E+05 -1.593503E+04
       189   4 -3.534481E+06 -9.935077E+05 -6.999635E+05 -1.149409E+06 -4.465572E+05 -1.575546E+05
       189   5 -3.375557E+06 -4.003244E+05 -2.893953E+05 -1.318003E+06 -2.959882E+05 -7.591542E+04
       189   6 -3.460950E+06 -4.899269E+05 -1.778876E+05 -1.340068E+06 -1.364301E+05 -1.798115E+04
       189   7 -2.487118E+06 -4.693900E+05 -3.875664E+05 -7.347583E+05 -4.344904E+05 -1.530820E+05
       189   8 -2.297040E+06  4.287137E+04  7.232658E+03 -9.872194E+05 -2.926814E+05 -7.468724E+04
       189   9 -2.349067E+06 -1.251600E+05  1.103472E+05 -1.093280E+06 -1.418852E+05 -2.003005E+04
       189  10 -4.580974E+06 -1.517383E+06 -1.012917E+06 -1.563403E+06  1.034430E-09  4.158828E-10
       189  11 -4.453042E+06 -8.434227E+05 -5.863119E+05 -1.648264E+06  6.927735E-10  5.306651E-10
       189  12 -4.571657E+06 -8.546947E+05 -4.662558E+05 -1.586491E+06 -2.086369E-09 -7.122560E-10
       189  13 -3.534703E+06 -9.935885E+05 -7.003876E+05 -1.149466E+06  2.694742E-09 -6.320802E-10
       189  14 -3.375653E+06 -4.003543E+05 -2.895719E+05 -1.318021E+06 -9.389872E-10 -2.823373E-09
       189  15 -3.460970E+06 -4.899322E+05 -1.779234E+05 -1.340070E+06 -6.649579E-10  1.954267E-10
       189  16 -2.487328E+06 -4.694662E+05 -3.879669E+05 -7.348120E+05 -8.566454E-10 -5.598155E-10
       189  17 -2.297133E+06  4.284223E+04  7.060445E+03 -9.872371E+05  1.105151E-09 -1.766356E-09
       189  18 -2.349088E+06 -1.251659E+05  1.103085E+05 -1.093282E+06 -1.113235E-09  4.262038E-10
       189  19 -4.580739E+06 -1.517297E+06 -1.012469E+06 -1.563343E+06  4.586009E+05  1.620121E+05
       189  20 -4.452944E+06 -8.433919E+05 -5.861309E+05 -1.648245E+06  2.992882E+05  7.714055E+04
       189  21 -4.571639E+06 -8.546898E+05 -4.662228E+05 -1.586490E+06  1.309856E+05  1.593503E+04
       189  22 -3.534481E+06 -9.935077E+05 -6.999635E+05 -1.149409E+06  4.465572E+05  1.575546E+05
       189  23 -3.375557E+06 -4.003244E+05 -2.893953E+05 -1.318003E+06  2.959882E+05  7.591542E+04
       189  24 -3.460950E+06 -4.899269E+05 -1.778876E+05 -1.340068E+06  1.364301E+05  1.798115E+04
       189  25 -2.487118E+06 -4.693900E+05 -3.875664E+05 -7.347583E+05  4.344904E+05  1.530820E+05
       189  26 -2.297040E+06  4.287137E+04  7.232658E+03 -9.872194E+05  2.926814E+05  7.468724E+04
       189  27 -2.349067E+06 -1.251600E+05  1.103472E+05 -1.093280E+06  1.418852E+05  2.003005E+04
       190   1 -4.403248E+06 -9.520069E+05 -4.098789E+05 -1.580443E+06 -1.094218E+05 -1.288775E+04
       190   2 -4.351966E+06 -8.278979E+05 -3.161657E+05 -1.552977E+06 -7.268348E+04  1.099933E+03
       190   3 -4.292166E+06 -8.283027E+05 -2.720217E+05 -1.552899E+06 -3.487708E+04  1.224991E+04
       190   4 -3.434273E+06 -5.707748E+05 -1.454961E+05 -1.301179E+06 -1.089509E+05 -1.271643E+04
       190   5 -3.434170E+06 -4.774457E+05 -6.827921E+04 -1.299213E+06 -7.323529E+04  8.889031E+02
       190   6 -3.425298E+06 -5.083445E+05 -3.975574E+04 -1.324644E+06 -3.645576E+04  1.165560E+04
       190   7 -2.464384E+06 -1.894652E+05  1.188018E+05 -1.021511E+06 -1.084791E+05 -1.254472E+04
       190   8 -2.515556E+06 -1.269384E+05  1.795322E+05 -1.045108E+06 -7.378795E+04  6.775543E+02
       190   9 -2.557703E+06 -1.883507E+05  1.924441E+05 -1.096104E+06 -3.803686E+04  1.106044E+04
       190  10 -4.403261E+06 -9.520103E+05 -4.099019E+05 -1.580444E+06 -2.063241E-09  6.760207E-10
       190  11 -4.351972E+06 -8.278993E+05 -3.161757E+05 -1.552977E+06 -2.178401E-09 -1.720138E-10
       190  12 -4.292168E+06 -8.283032E+05 -2.720242E+05 -1.552899E+06  8.824996E-10 -7.438112E-10
       190  13 -3.434286E+06 -5.707781E+05 -1.455188E+05 -1.301180E+06 -1.456651E-09  5.587060E-10
       190  14 -3.434175E+06 -4.774471E+05 -6.828935E+04 -1.299213E+06 -4.841709E-10 -9.016057E-11
       190  15 -3.425299E+06 -5.083450E+05 -3.975850E+04 -1.324644E+06  1.086362E-09 -1.404456E-09
       190  16 -2.464397E+06 -1.894685E+05  1.187793E+05 -1.021512E+06 -1.748755E-09  1.427889E-09
       190  17 -2.515562E+06 -1.269399E+05  1.795220E+05 -1.045107E+06 -6.184085E-10 -6.490528E-11
       190  18 -2.557705E+06 -1.883512E+05  1.924412E+05 -1.096104E+06  5.442912E-10 -2.052175E-09
       190  19 -4.403248E+06 -9.520069E+05 -4.098789E+05 -1.580443E+06  1.094218E+05  1.288775E+04
       190  20 -4.351966E+06 -8.278979E+05 -3.161657E+05 -1.552977E+06  7.268348E+04 -1.099933E+03
       190  21 -4.292166E+06 -8.283027E+05 -2.720217E+05 -1.552899E+06  3.487708E+04 -1.224991E+04
       190  22 -3.434273E+06 -5.707748E+05 -1.454961E+05 -1.301179E+06  1.089509E+05  1.271643E+04
       190  23 -3.434170E+06 -4.774457E+05 -6.827921E+04 -1.299213E+06  7.323529E+04 -8.889031E+02
       190  24 -3.425298E+06 -5.083445E+05 -3.975574E+04 -1.324644E+06  3.645576E+04 -1.165560E+04
       190  25 -2.464384E+06 -1.894652E+05  1.188018E+05 -1.021511E+06  1.084791E+05  1.254472E+04
       190  26 -2.515556E+06 -1.269384E+05  1.795322E+05 -1.045108E+06  7.378795E+04 -6.775543E+02
       190  27 -2.557703E+06 -1.883507E+05  1.924441E+05 -1.096104E+06  3.803686E+04 -1.106044E+04
       191   1 -4.145119E+06 -7.961481E+05 -2.268732E+05 -1.521561E+06 -2.897744E+04  1.217565E+04
       191   2 -4.092773E+06 -7.280431E+05 -1.903444E+05 -1.469121E+06 -1.956985E+04  1.252391E+04
       191   3 -3.987908E+06 -7.265461E+05 -1.626219E+05 -1.479000E+06 -9.945571E+03  1.227865E+04
       191   4 -3.419143E+06 -5.209572E+05 -3.135520E+04 -1.322835E+06 -2.994131E+04  1.181254E+04
       191   5 -3.444866E+06 -4.837547E+05 -1.595459E+04 -1.293142E+06 -2.074943E+04  1.208123E+04
       191   6 -3.418029E+06 -5.131063E+05 -9.179866E+03 -1.325768E+06 -1.134212E+04  1.175625E+04
       191   7 -2.692659E+06 -2.457346E+05  1.641155E+05 -1.123898E+06 -3.090641E+04  1.144897E+04
       191   8 -2.796553E+06 -2.394418E+05  1.583979E+05 -1.116997E+06 -2.193037E+04  1.163805E+04
       191   9 -2.847836E+06 -2.996482E+05  1.442337E+05 -1.172409E+06 -1.274009E+04  1.123333E+04
       191  10 -4.145120E+06 -7.961485E+05 -2.268751E+05 -1.521561E+06  2.776554E-10 -6.857997E-10
       191  11 -4.092773E+06 -7.280434E+05 -1.903454E+05 -1.469121E+06  2.285849E-09  1.243273E-09
       191  12 -3.987908E+06 -7.265463E+05 -1.626224E+05 -1.479000E+06  8.418919E-10 -4.826202E-10
       191  13 -3.419144E+06 -5.209576E+05 -3.135715E+04 -1.322835E+06  1.116311E-09 -1.437027E-09
       191  14 -3.444866E+06 -4.837550E+05 -1.595568E+04 -1.293142E+06 -8.960936E-10  7.112629E-11
       191  15 -3.418029E+06 -5.131064E+05 -9.180367E+03 -1.325768E+06 -7.847500E-10 -9.958406E-10
       191  16 -2.692660E+06 -2.457350E+05  1.641134E+05 -1.123898E+06  4.455523E-10 -1.277550E-09
       191  17 -2.796553E+06 -2.394421E+05  1.583967E+05 -1.116997E+06  1.349443E-09  6.295504E-10
       191  18 -2.847836E+06 -2.996484E+05  1.442331E+05 -1.172409E+06 -6.458518E-10 -7.182256E-10
       191  19 -4.145119E+06 -7.961481E+05 -2.268732E+05 -1.521561E+06  2.897744E+04 -1.217565E+04
       191  20 -4.092773E+06 -7.280431E+05 -1.903444E+05 -1.469121E+06  1.956985E+04 -1.252391E+04
       191  21 -3.987908E+06 -7.265461E+05 -1.626219E+05 -1.479000E+06  9.945571E+03 -1.227865E+04
       191  22 -3.419143E+06 -5.209572E+05 -3.135520E+04 -1.322835E+06  2.994131E+04 -1.181254E+04
       191  23 -3.444866E+06 -4.837547E+05 -1.595459E+04 -1.293142E+06  2.074943E+04 -1.208123E+04
       191  24 -3.418029E+06 -5.131063E+05 -9.179866E+03 -1.325768E+06  1.134212E+04 -1.175625E+04
       191  25 -2.692659E+06 -2.457346E+05  1.641155E+05 -1.123898E+06  3.090641E+04 -1.144897E+04
       191  26 -2.796553E+06 -2.394418E+05  1.583979E+05 -1.116997E+06  2.193037E+04 -1.163805E+04
       191  27 -2.847836E+06 -2.996482E+05  1.442337E+05 -1.172409E+06  1.274009E+04 -1.123333E+04
       192   1 -3.818967E+06 -6.678651E+05 -1.154011E+05 -1.436564E+06 -7.895253E+03  1.065737E+04
       192   2 -3.759883E+06 -5.997272E+05 -8.820166E+04 -1.374509E+06 -4.308429E+03  7.925949E+03
       192   3 -3.636417E+06 -5.980108E+05 -6.302596E+04 -1.387144E+06 -6.525060E+02  4.999897E+03
       192   4 -3.415782E+06 -5.162019E+05 -7.266991E+03 -1.327322E+06 -9.217943E+03  1.016333E+04
       192   5 -3.447879E+06 -4.824889E+05 -4.314710E+03 -1.290156E+06 -5.703579E+03  7.405552E+03
       192   6 -3.415589E+06 -5.151800E+05 -3.326721E+03 -1.327680E+06 -2.120512E+03  4.453085E+03
       192   7 -3.012439E+06 -3.645292E+05  1.008527E+05 -1.218016E+06 -1.054158E+04  9.668934E+03
       192   8 -3.135781E+06 -3.652451E+05  7.956351E+04 -1.205765E+06 -7.099502E+03  6.884866E+03
       192   9 -3.194715E+06 -4.323468E+05  5.636803E+04 -1.268198E+06 -3.589092E+03  3.906061E+03
       192  10 -3.818967E+06 -6.678652E+05 -1.154014E+05 -1.436564E+06 -5.062992E-10 -7.573118E-10
       192  11 -3.759883E+06 -5.997273E+05 -8.820181E+04 -1.374509E+06 -9.267452E-10 -1.860344E-09
       192  12 -3.636417E+06 -5.980108E+05 -6.302601E+04 -1.387144E+06  9.313783E-10 -6.517488E-10
       192  13 -3.415782E+06 -5.162020E+05 -7.267344E+03 -1.327322E+06 -8.616149E-10 -1.672013E-09
       192  14 -3.447879E+06 -4.824889E+05 -4.314874E+03 -1.290156E+06 -7.630632E-10  4.529661E-10
       192  15 -3.415589E+06 -5.151801E+05 -3.326767E+03 -1.327680E+06 -1.126896E-09 -1.429661E-09
       192  16 -3.012439E+06 -3.645294E+05  1.008524E+05 -1.218016E+06 -5.866876E-10  4.594400E-10
       192  17 -3.135781E+06 -3.652452E+05  7.956333E+04 -1.205765E+06  1.987134E-10  1.924283E-09
       192  18 -3.194715E+06 -4.323468E+05  5.636798E+04 -1.268198E+06 -3.113480E-10 -1.636551E-09
       192  19 -3.818967E+06 -6.678651E+05 -1.154011E+05 -1.436564E+06  7.895253E+03 -1.065737E+04
       192  20 -3.759883E+06 -5.997272E+05 -8.820166E+04 -1.374509E+06  4.308429E+03 -7.925949E+03
       192  21 -3.636417E+06 -5.980108E+05 -6.302596E+04 -1.387144E+06  6.525060E+02 -4.999897E+03
       192  22 -3.415782E+06 -5.162019E+05 -7.266991E+03 -1.327322E+06  9.217943E+03 -1.016333E+04
       192  23 -3.447879E+06 -4.824889E+05 -4.314710E+03 -1.290156E+06  5.703579E+03 -7.405552E+03
       192  24 -3.415589E+06 -5.151800E+05 -3.326721E+03 -1.327680E+06  2.120512E+03 -4.453085E+03
       192  25 -3.012439E+06 -3.645292E+05  1.008527E+05 -1.218016E+06  1.054158E+04 -9.668934E+03
       192  26 -3.135781E+06 -3.652451E+05  7.956351E+04 -1.205765E+06  7.099502E+03 -6.884866E+03
       192  27 -3.194715E+06 -4.323468E+05  5.636803E+04 -1.268198E+06  3.589092E+03 -3.906061E+03
       193   1 -3.454660E+06 -5.306363E+05 -1.358107E+04 -1.339109E+06  7.299418E+02  2.947490E+03
       193   2 -3.393437E+06 -4.611361E+05  1.078918E+04 -1.274534E+06  4.162125E+03 -1.299794E+02
       193   3 -3.265713E+06 -4.602452E+05  3.329715E+04 -1.287441E+06  7.576801E+03 -3.157553E+03
       193   4 -3.415102E+06 -5.157219E+05 -3.287468E+03 -1.328271E+06 -7.338604E+02  2.402478E+03
       193   5 -3.448398E+06 -4.817813E+05 -3.983164E+03 -1.289390E+06  2.716968E+03 -6.681991E+02
       193   6 -3.415205E+06 -5.164557E+05 -6.555972E+03 -1.327998E+06  6.149937E+03 -3.689069E+03
       193   7 -3.375543E+06 -5.008074E+05  7.006038E+03 -1.317432E+06 -2.197769E+03  1.857427E+03
       193   8 -3.503355E+06 -5.024264E+05 -1.875579E+04 -1.304246E+06  1.271950E+03 -1.206367E+03
       193   9 -3.564675E+06 -5.726649E+05 -4.641105E+04 -1.368546E+06  4.723451E+03 -4.220442E+03
       193  10 -3.454660E+06 -5.306363E+05 -1.358109E+04 -1.339109E+06  1.399057E-09  1.739589E-09
       193  11 -3.393437E+06 -4.611361E+05  1.078915E+04 -1.274534E+06  6.802478E-10 -2.746465E-09
       193  12 -3.265713E+06 -4.602452E+05  3.329703E+04 -1.287441E+06 -1.655169E-09 -1.165625E-09
       193  13 -3.415102E+06 -5.157219E+05 -3.287480E+03 -1.328271E+06  9.618201E-10 -2.214349E-09
       193  14 -3.448398E+06 -4.817813E+05 -3.983179E+03 -1.289390E+06  1.695771E-09  1.836546E-09
       193  15 -3.415205E+06 -5.164558E+05 -6.556069E+03 -1.327998E+06 -7.226464E-10 -4.851186E-10
       193  16 -3.375543E+06 -5.008074E+05  7.006023E+03 -1.317432E+06 -7.895513E-10 -2.035747E-09
       193  17 -3.503355E+06 -5.024264E+05 -1.875579E+04 -1.304246E+06  1.768035E-09  2.571870E-09
       193  18 -3.564675E+06 -5.726650E+05 -4.641112E+04 -1.368546E+06  1.183309E-09 -2.178247E-10
       193  19 -3.454660E+06 -5.306363E+05 -1.358107E+04 -1.339109E+06 -7.299418E+02 -2.947490E+03
       193  20 -3.393437E+06 -4.611361E+05  1.078918E+04 -1.274534E+06 -4.162125E+03  1.299794E+02
       193  21 -3.265713E+06 -4.602452E+05  3.329715E+04 -1.287441E+06 -7.576801E+03  3.157553E+03
       193  22 -3.415102E+06 -5.157219E+05 -3.287468E+03 -1.328271E+06  7.338604E+02 -2.402478E+03
       193  23 -3.448398E+06 -4.817813E+05 -3.983164E+03 -1.289390E+06 -2.716968E+03  6.681991E+02
       193  24 -3.415205E+06 -5.164557E+05 -6.555972E+03 -1.327998E+06 -6.149937E+03  3.689069E+03
       193  25 -3.375543E+06 -5.008074E+05  7.006038E+03 -1.317432E+06  2.197769E+03 -1.857427E+03
       193  26 -3.503355E+06 -5.024264E+05 -1.875579E+04 -1.304246E+06 -1.271950E+03  1.206367E+03
       193  27 -3.564675E+06 -5.726649E+05 -4.641105E+04 -1.368546E+06 -4.723451E+03  4.220442E+03
       194   1 -3.087864E+06 -3.918841E+05  8.024660E+04 -1.239597E+06  9.693900E+03 -4.926006E+03
       194   2 -3.030144E+06 -3.251526E+05  9.773304E+04 -1.177969E+06  1.819315E+04 -5.957305E+03
       194   3 -2.913287E+06 -3.306029E+05  1.075139E+05 -1.186920E+06  2.653191E+04 -6.542347E+03
       194   4 -3.416499E+06 -5.145056E+05 -8.265858E+03 -1.327506E+06  8.204559E+03 -5.481205E+03
       194   5 -3.446571E+06 -4.819115E+05 -1.423705E+04 -1.290916E+06  1.686822E+04 -6.452174E+03
       194   6 -3.417548E+06 -5.215398E+05 -2.804853E+04 -1.324911E+06  2.537024E+04 -6.977156E+03
       194   7 -3.745029E+06 -6.371211E+05 -9.678770E+04 -1.415372E+06  6.716091E+03 -6.036085E+03
       194   8 -3.862831E+06 -6.386604E+05 -1.262225E+05 -1.403794E+06  1.554426E+04 -6.946678E+03
       194   9 -3.921564E+06 -7.124615E+05 -1.636338E+05 -1.462800E+06  2.420959E+04 -7.411573E+03
       194  10 -3.087864E+06 -3.918842E+05  8.024638E+04 -1.239597E+06 -8.565092E-10 -4.562417E-10
       194  11 -3.030144E+06 -3.251528E+05  9.773235E+04 -1.177969E+06  7.765066E-10 -9.777922E-10
       194  12 -2.913287E+06 -3.306031E+05  1.075125E+05 -1.186920E+06 -1.331504E-09 -9.909608E-11
       194  13 -3.416499E+06 -5.145056E+05 -8.266041E+03 -1.327506E+06  4.248026E-10 -2.945490E-10
       194  14 -3.446571E+06 -4.819116E+05 -1.423766E+04 -1.290916E+06 -2.745206E-09 -8.849500E-10
       194  15 -3.417549E+06 -5.215400E+05 -2.804983E+04 -1.324911E+06 -1.832136E-09 -2.286566E-09
       194  16 -3.745029E+06 -6.371211E+05 -9.678786E+04 -1.415372E+06  1.028442E-09 -1.072055E-10
       194  17 -3.862831E+06 -6.386605E+05 -1.262231E+05 -1.403794E+06 -7.669132E-10  1.047120E-09
       194  18 -3.921565E+06 -7.124617E+05 -1.636350E+05 -1.462800E+06 -2.986671E-09 -1.069963E-09
       194  19 -3.087864E+06 -3.918841E+05  8.024660E+04 -1.239597E+06 -9.693900E+03  4.926006E+03
       194  20 -3.030144E+06 -3.251526E+05  9.773304E+04 -1.177969E+06 -1.819315E+04  5.957305E+03
       194  21 -2.913287E+06 -3.306029E+05  1.075139E+05 -1.186920E+06 -2.653191E+04  6.542347E+03
       194  22 -3.416499E+06 -5.145056E+05 -8.265858E+03 -1.327506E+06 -8.204559E+03  5.481205E+03
       194  23 -3.446571E+06 -4.819115E+05 -1.423705E+04 -1.290916E+06 -1.686822E+04  6.452174E+03
       194  24 -3.417548E+06 -5.215398E+05 -2.804853E+04 -1.324911E+06 -2.537024E+04  6.977156E+03
       194  25 -3.745029E+06 -6.371211E+05 -9.678770E+04 -1.415372E+06 -6.716091E+03  6.036085E+03
       194  26 -3.862831E+06 -6.386604E+05 -1.262225E+05 -1.403794E+06 -1.554426E+04  6.946678E+03
       194  27 -3.921564E+06 -7.124615E+05 -1.636338E+05 -1.462800E+06 -2.420959E+04  7.411573E+03
       195   1 -2.754334E+06 -2.657210E+05  1.431328E+05 -1.152566E+06  3.311135E+04 -6.676486E+03
       195   2 -2.702707E+06 -1.956619E+05  1.372307E+05 -1.092706E+06  6.534532E+04  1.717905E+03
       195   3 -2.628596E+06 -2.514050E+05  8.848653E+04 -1.074867E+06  9.662833E+04  1.267605E+04
       195   4 -3.422594E+06 -5.108031E+05 -3.556479E+04 -1.327085E+06  3.138200E+04 -7.323967E+03
       195   5 -3.437735E+06 -4.757385E+05 -6.099301E+04 -1.295620E+06  6.455369E+04  1.419079E+03
       195   6 -3.430617E+06 -5.667252E+05 -1.300504E+05 -1.306179E+06  9.677015E+04  1.272472E+04
       195   7 -4.090424E+06 -7.558652E+05 -2.143015E+05 -1.501436E+06  2.965468E+04 -7.970730E+03
       195   8 -4.172240E+06 -7.557800E+05 -2.592647E+05 -1.498316E+06  6.376307E+04  1.120634E+03
       195   9 -4.232014E+06 -8.819920E+05 -3.486454E+05 -1.537215E+06  9.691170E+04  1.277328E+04
       195  10 -2.754335E+06 -2.657213E+05  1.431307E+05 -1.152566E+06  5.515754E-11  8.671658E-10
       195  11 -2.702712E+06 -1.956631E+05  1.372226E+05 -1.092706E+06 -9.818266E-11  4.456022E-10
       195  12 -2.628606E+06 -2.514077E+05  8.846860E+04 -1.074868E+06  5.593905E-10 -3.721386E-10
       195  13 -3.422595E+06 -5.108034E+05 -3.556675E+04 -1.327085E+06 -5.810925E-10 -4.634906E-10
       195  14 -3.437739E+06 -4.757396E+05 -6.100089E+04 -1.295620E+06  2.064039E-09  5.193436E-10
       195  15 -3.430627E+06 -5.667279E+05 -1.300685E+05 -1.306180E+06  5.973168E-10 -6.862993E-10
       195  16 -4.090424E+06 -7.558655E+05 -2.143033E+05 -1.501436E+06 -1.164494E-09 -4.285988E-10
       195  17 -4.172244E+06 -7.557811E+05 -2.592724E+05 -1.498316E+06 -1.811323E-09 -2.406248E-09
       195  18 -4.232024E+06 -8.819947E+05 -3.486634E+05 -1.537216E+06  4.157590E-10 -2.065031E-10
       195  19 -2.754334E+06 -2.657210E+05  1.431328E+05 -1.152566E+06 -3.311135E+04  6.676486E+03
       195  20 -2.702707E+06 -1.956619E+05  1.372307E+05 -1.092706E+06 -6.534532E+04 -1.717905E+03
       195  21 -2.628596E+06 -2.514050E+05  8.848653E+04 -1.074867E+06 -9.662833E+04 -1.267605E+04
       195  22 -3.422594E+06 -5.108031E+05 -3.556479E+04 -1.327085E+06 -3.138200E+04  7.323967E+03
       195  23 -3.437735E+06 -4.757385E+05 -6.099301E+04 -1.295620E+06 -6.455369E+04 -1.419079E+03
       195  24 -3.430617E+06 -5.667252E+05 -1.300504E+05 -1.306179E+06 -9.677015E+04 -1.272472E+04
       195  25 -4.090424E+06 -7.558652E+05 -2.143015E+05 -1.501436E+06 -2.965468E+04  7.970730E+03
       195  26 -4.172240E+06 -7.557800E+05 -2.592647E+05 -1.498316E+06 -6.376307E+04 -1.120634E+03
       195  27 -4.232014E+06 -8.819920E+05 -3.486454E+05 -1.537215E+06 -9.691170E+04 -1.277328E+04
       196   1 -2.483609E+06 -1.781019E+05  9.235487E+04 -1.127891E+06  1.269459E+05  1.875084E+04
       196   2 -2.422375E+06 -1.205217E+04  6.131557E+03 -1.017915E+06  2.617583E+05  6.630282E+04
       196   3 -2.561420E+06 -4.701830E+05 -3.405447E+05 -7.959636E+05  3.882904E+05  1.358622E+05
       196   4 -3.454335E+06 -4.945297E+05 -1.589705E+05 -1.340965E+06  1.215805E+05  1.674353E+04
       196   5 -3.385719E+06 -4.065818E+05 -2.585543E+05 -1.312152E+06  2.645495E+05  6.733527E+04
       196   6 -3.519380E+06 -9.450431E+05 -6.254054E+05 -1.171272E+06  3.992308E+05  1.399069E+05
       196   7 -4.424153E+06 -8.109567E+05 -4.103724E+05 -1.553764E+06  1.162242E+05  1.473857E+04
       196   8 -4.348159E+06 -8.010100E+05 -5.233254E+05 -1.605959E+06  2.673357E+05  6.836544E+04
       196   9 -4.476414E+06 -1.419635E+06 -9.103549E+05 -1.545988E+06  4.101522E+05  1.439393E+05
       196  10 -2.483627E+06 -1.781066E+05  9.232379E+04 -1.127893E+06  1.076345E-09 -5.495568E-10
       196  11 -2.422450E+06 -1.207541E+04  5.993909E+03 -1.017929E+06  2.016053E-09  3.910369E-10
       196  12 -2.561588E+06 -4.702436E+05 -3.408641E+05 -7.960062E+05  9.003576E-10  4.359792E-10
       196  13 -3.454351E+06 -4.945340E+05 -1.589989E+05 -1.340967E+06  1.706442E-10 -3.168984E-10
       196  14 -3.385796E+06 -4.066056E+05 -2.586952E+05 -1.312166E+06  1.036907E-09  9.783575E-10
       196  15 -3.519558E+06 -9.451073E+05 -6.257438E+05 -1.171317E+06  9.626878E-10  1.956591E-10
       196  16 -4.424167E+06 -8.109606E+05 -4.103984E+05 -1.553765E+06 -2.524357E-10  7.394930E-10
       196  17 -4.348238E+06 -8.010344E+05 -5.234696E+05 -1.605973E+06 -1.974743E-09  1.551554E-09
       196  18 -4.476601E+06 -1.419704E+06 -9.107129E+05 -1.546036E+06 -5.255434E-10 -1.231769E-10
       196  19 -2.483609E+06 -1.781019E+05  9.235487E+04 -1.127891E+06 -1.269459E+05 -1.875084E+04
       196  20 -2.422375E+06 -1.205217E+04  6.131557E+03 -1.017915E+06 -2.617583E+05 -6.630282E+04
       196  21 -2.561420E+06 -4.701830E+05 -3.405447E+05 -7.959636E+05 -3.882904E+05 -1.358622E+05
       196  22 -3.454335E+06 -4.945297E+05 -1.589705E+05 -1.340965E+06 -1.215805E+05 -1.674353E+04
       196  23 -3.385719E+06 -4.065818E+05 -2.585543E+05 -1.312152E+06 -2.645495E+05 -6.733527E+04
       196  24 -3.519380E+06 -9.450431E+05 -6.254054E+05 -1.171272E+06 -3.992308E+05 -1.399069E+05
       196  25 -4.424153E+06 -8.109567E+05 -4.103724E+05 -1.553764E+06 -1.162242E+05 -1.473857E+04
       196  26 -4.348159E+06 -8.010100E+05 -5.233254E+05 -1.605959E+06 -2.673357E+05 -6.836544E+04
       196  27 -4.476414E+06 -1.419635E+06 -9.103549E+05 -1.545988E+06 -4.101522E+05 -1.439393E+05
       197   1  5.963977E+05  1.643358E+05  2.521618E+05  6.128548E+04  2.668721E+05  5.777666E+03
       197   2  5.811647E+05 -1.922540E+05  3.889624E+04  2.129514E+04  1.775732E+05  1.557169E+04
       197   3  6.797803E+05 -1.427788E+05 -1.457477E+04 -5.712858E+04  8.828917E+04  1.368142E+04
       197   4  1.194266E+06  3.128983E+05  4.000063E+05 -2.045918E+04  2.735283E+05  5.756585E+03
       197   5  1.137064E+06 -5.431825E+04  1.736638E+05 -8.964297E+02  1.793713E+05  1.556752E+04
       197   6  1.194439E+06 -1.483644E+04  1.103762E+05 -1.976619E+04  8.523592E+04  1.368166E+04
       197   7  1.792473E+06  4.614595E+05  5.478280E+05 -1.022827E+05  2.801908E+05  5.733777E+03
       197   8  1.693246E+06  8.359681E+04  3.084094E+05 -2.310803E+04  1.811708E+05  1.556323E+04
       197   9  1.709342E+06  1.130916E+05  2.353088E+05  1.762714E+04  8.218012E+04  1.368153E+04
       197  10  5.963213E+05  1.643166E+05  2.520280E+05  6.128424E+04  7.281640E-10  6.414345E-10
       197  11  5.811308E+05 -1.922627E+05  3.883659E+04  2.129291E+04 -5.363803E-10 -1.066883E-10
       197  12  6.797719E+05 -1.427811E+05 -1.458975E+04 -5.712955E+04  7.178008E-10  4.819174E-10
       197  13  1.194186E+06  3.128782E+05  3.998659E+05 -2.046045E+04  5.823581E-11  5.840925E-10
       197  14  1.137030E+06 -5.432712E+04  1.736030E+05 -8.986773E+02  1.272468E-09 -2.089909E-09
       197  15  1.194431E+06 -1.483859E+04  1.103622E+05 -1.976713E+04  1.996367E-10  3.265833E-10
       197  16  1.792389E+06  4.614385E+05  5.476809E+05 -1.022840E+05  1.900164E-10 -3.469903E-11
       197  17  1.693211E+06  8.358777E+04  3.083475E+05 -2.311030E+04 -2.348675E-10 -4.103518E-11
       197  18  1.709334E+06  1.130896E+05  2.352958E+05  1.762624E+04 -1.076241E-09 -3.337610E-10
       197  19  5.963977E+05  1.643358E+05  2.521618E+05  6.128548E+04 -2.668721E+05 -5.777666E+03
       197  20  5.811647E+05 -1.922540E+05  3.889624E+04  2.129514E+04 -1.775732E+05 -1.557169E+04
       197  21  6.797803E+05 -1.427788E+05 -1.457477E+04 -5.712858E+04 -8.828917E+04 -1.368142E+04
       197  22  1.194266E+06  3.128983E+05  4.000063E+05 -2.045918E+04 -2.735283E+05 -5.756585E+03
       197  23  1.137064E+06 -5.431825E+04  1.736638E+05 -8.964297E+02 -1.793713E+05 -1.556752E+04
       197  24  1.194439E+06 -1.483644E+04  1.103762E+05 -1.976619E+04 -8.523592E+04 -1.368166E+04
       197  25  1.792473E+06  4.614595E+05  5.478280E+05 -1.022827E+05 -2.801908E+05 -5.733777E+03
       197  26  1.693246E+06  8.359681E+04  3.084094E+05 -2.310803E+04 -1.811708E+05 -1.556323E+04
       197  27  1.709342E+06  1.130916E+05  2.353088E+05  1.762714E+04 -8.218012E+04 -1.368153E+04
       198   1  7.264632E+05 -7.342434E+04 -1.795489E+04 -1.052810E+04  6.761434E+04  1.104235E+04
       198   2  7.567135E+05 -1.079356E+05 -5.390809E+04  2.511490E+02  4.474504E+04  1.064729E+04
       198   3  8.024963E+05 -9.367520E+04 -6.271360E+04 -2.396456E+04  2.187492E+04  9.205350E+03
       198   4  1.172418E+06  3.733879E+04  9.049792E+04 -1.924113E+04  6.771064E+04  1.104097E+04
       198   5  1.164636E+06 -6.629465E+03  4.514565E+04 -1.722785E+03  4.439860E+04  1.064637E+04
       198   6  1.172452E+06 -1.767321E+03  2.723418E+04 -1.919763E+04  2.108715E+04  9.204695E+03
       198   7  1.618555E+06  1.480876E+05  1.989364E+05 -2.796048E+04  6.780700E+04  1.103958E+04
       198   8  1.572711E+06  9.466449E+04  1.441874E+05 -3.698052E+03  4.405193E+04  1.064544E+04
       198   9  1.542531E+06  9.013059E+04  1.171721E+05 -1.442788E+04  2.029891E+04  9.204028E+03
       198  10  7.264582E+05 -7.342569E+04 -1.796370E+04 -1.052870E+04  1.192271E-10 -5.402096E-10
       198  11  7.567113E+05 -1.079363E+05 -5.391206E+04  2.507654E+02 -1.118044E-11  5.456436E-10
       198  12  8.024958E+05 -9.367542E+04 -6.271466E+04 -2.396472E+04  9.240743E-10 -3.648536E-10
       198  13  1.172413E+06  3.733744E+04  9.048909E+04 -1.924173E+04 -7.865595E-12 -4.484761E-10
       198  14  1.164634E+06 -6.630115E+03  4.514174E+04 -1.723165E+03 -9.683819E-10 -5.474845E-10
       198  15  1.172451E+06 -1.767531E+03  2.723318E+04 -1.919779E+04 -1.051039E-10 -4.607718E-10
       198  16  1.618550E+06  1.480862E+05  1.989275E+05 -2.796108E+04  9.576143E-11  3.002496E-10
       198  17  1.572709E+06  9.466385E+04  1.441835E+05 -3.698429E+03 -7.336788E-10 -2.280120E-09
       198  18  1.542531E+06  9.013039E+04  1.171711E+05 -1.442803E+04 -2.543072E-11  1.476129E-10
       198  19  7.264632E+05 -7.342434E+04 -1.795489E+04 -1.052810E+04 -6.761434E+04 -1.104235E+04
       198  20  7.567135E+05 -1.079356E+05 -5.390809E+04  2.511490E+02 -4.474504E+04 -1.064729E+04
       198  21  8.024963E+05 -9.367520E+04 -6.271360E+04 -2.396456E+04 -2.187492E+04 -9.205350E+03
       198  22  1.172418E+06  3.733879E+04  9.049792E+04 -1.924113E+04 -6.771064E+04 -1.104097E+04
       198  23  1.164636E+06 -6.629465E+03  4.514565E+04 -1.722785E+03 -4.439860E+04 -1.064637E+04
       198  24  1.172452E+06 -1.767321E+03  2.723418E+04 -1.919763E+04 -2.108715E+04 -9.204695E+03
       198  25  1.618555E+06  1.480876E+05  1.989364E+05 -2.796048E+04 -6.780700E+04 -1.103958E+04
       198  26  1.572711E+06  9.466449E+04  1.441874E+05 -3.698052E+03 -4.405193E+04 -1.064544E+04
       198  27  1.542531E+06  9.013059E+04  1.171721E+05 -1.442788E+04 -2.029891E+04 -9.204028E+03
       199   1  8.636273E+05 -7.157106E+04 -5.273517E+04 -1.796195E+04  1.724427E+04  8.238205E+03
       199   2  8.981300E+05 -6.792783E+04 -5.407157E+04 -2.216067E+03  1.144667E+04  6.980559E+03
       199   3  9.349905E+05 -5.846354E+04 -5.015112E+04 -1.933545E+04  5.647826E+03  5.655205E+03
       199   4  1.169518E+06  4.378299E+03  2.146534E+04 -1.873871E+04  1.675089E+04  8.237700E+03
       199   5  1.168342E+06 -8.220282E+02  1.155117E+04 -2.305674E+03  1.092303E+04  6.980226E+03
       199   6  1.169526E+06 -1.976901E+02  6.912805E+03 -1.873695E+04  5.094251E+03  5.655049E+03
       199   7  1.475494E+06  8.032080E+04  9.565912E+04 -1.951587E+04  1.625728E+04  8.237196E+03
       199   8  1.438621E+06  6.627841E+04  7.716864E+04 -2.395325E+03  1.039916E+04  6.979893E+03
       199   9  1.404112E+06  5.806411E+04  6.397275E+04 -1.813823E+04  4.540467E+03  5.654891E+03
       199  10  8.636270E+05 -7.157121E+04 -5.273586E+04 -1.796206E+04 -2.260593E-10  1.401281E-10
       199  11  8.981298E+05 -6.792791E+04 -5.407190E+04 -2.216131E+03 -7.942796E-10 -7.394062E-11
       199  12  9.349905E+05 -5.846358E+04 -5.015124E+04 -1.933547E+04 -1.556221E-09  3.889382E-10
       199  13  1.169518E+06  4.378151E+03  2.146469E+04 -1.873883E+04 -6.735143E-11 -1.780165E-10
       199  14  1.168342E+06 -8.221125E+02  1.155086E+04 -2.305736E+03  7.875870E-10 -2.984962E-10
       199  15  1.169526E+06 -1.977314E+02  6.912696E+03 -1.873698E+04  1.892700E-09  1.196113E-10
       199  16  1.475494E+06  8.032066E+04  9.565849E+04 -1.951598E+04 -1.125412E-09 -2.260370E-11
       199  17  1.438620E+06  6.627833E+04  7.716835E+04 -2.395383E+03  6.907591E-10 -8.054089E-10
       199  18  1.404112E+06  5.806407E+04  6.397265E+04 -1.813825E+04  1.129505E-10 -1.147438E-10
       199  19  8.636273E+05 -7.157106E+04 -5.273517E+04 -1.796195E+04 -1.724427E+04 -8.238205E+03
       199  20  8.981300E+05 -6.792783E+04 -5.407157E+04 -2.216067E+03 -1.144667E+04 -6.980559E+03
       199  21  9.349905E+05 -5.846354E+04 -5.015112E+04 -1.933545E+04 -5.647826E+03 -5.655205E+03
       199  22  1.169518E+06  4.378299E+03  2.146534E+04 -1.873871E+04 -1.675089E+04 -8.237700E+03
       199  23  1.168342E+06 -8.220282E+02  1.155117E+04 -2.305674E+03 -1.092303E+04 -6.980226E+03
       199  24  1.169526E+06 -1.976901E+02  6.912805E+03 -1.873695E+04 -5.094251E+03 -5.655049E+03
       199  25  1.475494E+06  8.032080E+04  9.565912E+04 -1.951587E+04 -1.625728E+04 -8.237196E+03
       199  26  1.438621E+06  6.627841E+04  7.716864E+04 -2.395325E+03 -1.039916E+04 -6.979893E+03
       199  27  1.404112E+06  5.806411E+04  6.397275E+04 -1.813823E+04 -4.540467E+03 -5.654891E+03
       200   1  9.954450E+05 -4.260696E+04 -3.663717E+04 -1.839037E+04  4.510182E+03  4.880903E+03
       200   2  1.029529E+06 -3.471639E+04 -3.055170E+04 -2.658461E+03  2.865178E+03  3.594770E+03
       200   3  1.064036E+06 -2.608986E+04 -2.320774E+04 -1.850889E+04  1.219639E+03  2.317704E+03
       200   4  1.169102E+06  4.963318E+02  5.428788E+03 -1.845245E+04  3.983627E+03  4.880837E+03
       200   5  1.168893E+06 -1.085662E+02  3.292104E+03 -2.661534E+03  2.341905E+03  3.594788E+03
       200   6  1.169105E+06  2.188500E+01  2.411427E+03 -1.845251E+04  6.997393E+02  2.317809E+03
       200   7  1.342787E+06  4.359742E+04  4.749257E+04 -1.851456E+04  3.456925E+03  4.880771E+03
       200   8  1.308275E+06  3.449784E+04  3.713451E+04 -2.664608E+03  1.818516E+03  3.594806E+03
       200   9  1.274184E+06  2.613281E+04  2.802979E+04 -1.839612E+04  1.797516E+02  2.317914E+03
       200  10  9.954450E+05 -4.260699E+04 -3.663725E+04 -1.839039E+04 -6.557112E-11  2.459327E-10
       200  11  1.029529E+06 -3.471641E+04 -3.055174E+04 -2.658469E+03 -1.953971E-09  3.631771E-11
       200  12  1.064036E+06 -2.608986E+04 -2.320775E+04 -1.850889E+04  1.735261E-10 -5.103348E-10
       200  13  1.169102E+06  4.963020E+02  5.428713E+03 -1.845247E+04  1.682354E-09  2.412287E-10
       200  14  1.168893E+06 -1.085815E+02  3.292069E+03 -2.661541E+03  7.519140E-10 -3.920260E-10
       200  15  1.169105E+06  2.187909E+01  2.411416E+03 -1.845251E+04 -1.984839E-09 -5.855575E-10
       200  16  1.342787E+06  4.359739E+04  4.749251E+04 -1.851457E+04  1.839740E-10  1.289572E-10
       200  17  1.308275E+06  3.449782E+04  3.713448E+04 -2.664613E+03 -6.377460E-10 -3.274381E-10
       200  18  1.274184E+06  2.613281E+04  2.802978E+04 -1.839612E+04 -1.498412E-09 -4.715411E-10
       200  19  9.954450E+05 -4.260696E+04 -3.663717E+04 -1.839037E+04 -4.510182E+03 -4.880903E+03
       200  20  1.029529E+06 -3.471639E+04 -3.055170E+04 -2.658461E+03 -2.865178E+03 -3.594770E+03
       200  21  1.064036E+06 -2.608986E+04 -2.320774E+04 -1.850889E+04 -1.219639E+03 -2.317704E+03
       200  22  1.169102E+06  4.963318E+02  5.428788E+03 -1.845245E+04 -3.983627E+03 -4.880837E+03
       200  23  1.168893E+06 -1.085662E+02  3.292104E+03 -2.661534E+03 -2.341905E+03 -3.594788E+03
       200  24  1.169105E+06  2.188500E+01  2.411427E+03 -1.845251E+04 -6.997393E+02 -2.317809E+03
       200  25  1.342787E+06  4.359742E+04  4.749257E+04 -1.851456E+04 -3.456925E+03 -4.880771E+03
       200  26  1.308275E+06  3.449784E+04  3.713451E+04 -2.664608E+03 -1.818516E+03 -3.594806E+03
       200  27  1.274184E+06  2.613281E+04  2.802979E+04 -1.839612E+04 -1.797516E+02 -2.317914E+03
       201   1  1.123232E+06 -1.131161E+04 -8.781631E+03 -1.829865E+04  7.979918E+02  1.577564E+03
       201   2  1.156888E+06 -3.060198E+03 -5.333226E+02 -2.791811E+03 -3.978188E+02  3.105620E+02
       201   3  1.190801E+06  5.679555E+03  8.609921E+03 -1.839378E+04 -1.593713E+03 -9.487748E+02
       201   4  1.169072E+06  5.001372E+01  2.244673E+03 -1.834738E+04  2.786573E+02  1.577703E+03
       201   5  1.168943E+06 -6.667104E+01  2.394231E+03 -2.792960E+03 -9.140668E+02  3.107055E+02
       201   6  1.169071E+06  3.046578E+02  3.436777E+03 -1.834731E+04 -2.106810E+03 -9.486232E+02
       201   7  1.214913E+06  1.141148E+04  1.327083E+04 -1.839612E+04 -2.407153E+02  1.577842E+03
       201   8  1.180999E+06  2.926845E+03  5.321775E+03 -2.794110E+03 -1.430325E+03  3.108490E+02
       201   9  1.147342E+06 -5.070273E+03 -1.736399E+03 -1.830084E+04 -2.619890E+03 -9.484716E+02
       201  10  1.123232E+06 -1.131161E+04 -8.781637E+03 -1.829865E+04 -3.096732E-10 -2.641120E-10
       201  11  1.156888E+06 -3.060198E+03 -5.333231E+02 -2.791811E+03  2.574187E-10  2.633196E-10
       201  12  1.190801E+06  5.679553E+03  8.609915E+03 -1.839379E+04  3.329376E-10  1.495146E-10
       201  13  1.169072E+06  5.001103E+01  2.244668E+03 -1.834738E+04 -1.482858E-09 -1.016939E-10
       201  14  1.168943E+06 -6.667137E+01  2.394229E+03 -2.792960E+03 -9.950671E-10  1.503650E-10
       201  15  1.169071E+06  3.046557E+02  3.436767E+03 -1.834731E+04 -3.351825E-10 -1.002709E-10
       201  16  1.214913E+06  1.141148E+04  1.327082E+04 -1.839612E+04 -1.778443E-09 -5.707643E-10
       201  17  1.180999E+06  2.926844E+03  5.321771E+03 -2.794109E+03 -1.037204E-09  1.349318E-10
       201  18  1.147342E+06 -5.070276E+03 -1.736414E+03 -1.830084E+04 -1.236964E-09  5.134386E-10
       201  19  1.123232E+06 -1.131161E+04 -8.781631E+03 -1.829865E+04 -7.979918E+02 -1.577564E+03
       201  20  1.156888E+06 -3.060198E+03 -5.333226E+02 -2.791811E+03  3.978188E+02 -3.105620E+02
       201  21  1.190801E+06  5.679555E+03  8.609921E+03 -1.839378E+04  1.593713E+03  9.487748E+02
       201  22  1.169072E+06  5.001372E+01  2.244673E+03 -1.834738E+04 -2.786573E+02 -1.577703E+03
       201  23  1.168943E+06 -6.667104E+01  2.394231E+03 -2.792960E+03  9.140668E+02 -3.107055E+02
       201  24  1.169071E+06  3.046578E+02  3.436777E+03 -1.834731E+04  2.106810E+03  9.486232E+02
       201  25  1.214913E+06  1.141148E+04  1.327083E+04 -1.839612E+04  2.407153E+02 -1.577842E+03
       201  26  1.180999E+06  2.926845E+03  5.321775E+03 -2.794110E+03  1.430325E+03 -3.108490E+02
       201  27  1.147342E+06 -5.070273E+03 -1.736399E+03 -1.830084E+04  2.619890E+03  9.484716E+02
       202   1  1.250127E+06  1.998951E+04  2.396133E+04 -1.809289E+04 -2.264709E+03 -1.695658E+03
       202   2  1.283605E+06  2.807232E+04  3.476336E+04 -2.805427E+03 -5.745158E+03 -2.969232E+03
       202   3  1.318400E+06  3.957270E+04  4.868383E+04 -1.894472E+04 -9.225491E+03 -4.183721E+03
       202   4  1.169304E+06 -9.877117E+01  4.233360E+03 -1.841822E+04 -2.797247E+03 -1.695523E+03
       202   5  1.168646E+06 -4.705097E+02  6.851850E+03 -2.704506E+03 -6.252995E+03 -2.969177E+03
       202   6  1.169299E+06  2.571418E+03  1.257209E+04 -1.841787E+04 -9.708436E+03 -4.183742E+03
       202   7  1.088487E+06 -2.018754E+04 -1.549508E+04 -1.874352E+04 -3.329717E+03 -1.695387E+03
       202   8  1.053699E+06 -2.901431E+04 -2.106062E+04 -2.603603E+03 -6.760737E+03 -2.969122E+03
       202   9  1.020219E+06 -3.443149E+04 -2.354125E+04 -1.789115E+04 -1.019126E+04 -4.183763E+03
       202  10  1.250127E+06  1.998951E+04  2.396131E+04 -1.809289E+04  7.198848E-10  1.337885E-10
       202  11  1.283605E+06  2.807230E+04  3.476328E+04 -2.805441E+03 -9.301372E-10 -1.922888E-10
       202  12  1.318400E+06  3.957266E+04  4.868364E+04 -1.894475E+04  2.560258E-10  2.447025E-10
       202  13  1.169304E+06 -9.877635E+01  4.233340E+03 -1.841823E+04  4.049348E-10 -2.467855E-10
       202  14  1.168646E+06 -4.705296E+02  6.851760E+03 -2.704521E+03  6.116156E-10 -6.821443E-10
       202  15  1.169299E+06  2.571374E+03  1.257188E+04 -1.841790E+04 -1.605031E-10  4.444489E-10
       202  16  1.088487E+06 -2.018754E+04 -1.549511E+04 -1.874352E+04 -1.627022E-09  7.356772E-10
       202  17  1.053699E+06 -2.901433E+04 -2.106072E+04 -2.603619E+03  2.732008E-12 -9.860828E-10
       202  18  1.020219E+06 -3.443154E+04 -2.354148E+04 -1.789118E+04 -1.614429E-10  3.503295E-10
       202  19  1.250127E+06  1.998951E+04  2.396133E+04 -1.809289E+04  2.264709E+03  1.695658E+03
       202  20  1.283605E+06  2.807232E+04  3.476336E+04 -2.805427E+03  5.745158E+03  2.969232E+03
       202  21  1.318400E+06  3.957270E+04  4.868383E+04 -1.894472E+04  9.225491E+03  4.183721E+03
       202  22  1.169304E+06 -9.877117E+01  4.233360E+03 -1.841822E+04  2.797247E+03  1.695523E+03
       202  23  1.168646E+06 -4.705097E+02  6.851850E+03 -2.704506E+03  6.252995E+03  2.969177E+03
       202  24  1.169299E+06  2.571418E+03  1.257209E+04 -1.841787E+04  9.708436E+03  4.183742E+03
       202  25  1.088487E+06 -2.018754E+04 -1.549508E+04 -1.874352E+04  3.329717E+03  1.695387E+03
       202  26  1.053699E+06 -2.901431E+04 -2.106062E+04 -2.603603E+03  6.760737E+03  2.969122E+03
       202  27  1.020219E+06 -3.443149E+04 -2.354125E+04 -1.789115E+04  1.019126E+04  4.183763E+03
       203   1  1.380567E+06  5.103750E+04  6.688858E+04 -1.598607E+04 -1.155142E+04 -5.054025E+03
       203   2  1.411404E+06  5.694783E+04  8.577880E+04 -3.678202E+03 -2.546292E+04 -6.379854E+03
       203   3  1.451290E+06  9.137331E+04  1.208634E+05 -2.391500E+04 -3.937480E+04 -6.949259E+03
       203   4  1.171004E+06 -1.010211E+03  1.591517E+04 -1.866482E+04 -1.224481E+04 -5.054063E+03
       203   5  1.166494E+06 -3.852287E+03  2.633393E+04 -2.395481E+03 -2.584242E+04 -6.380132E+03
       203   6  1.170983E+06  2.177278E+04  5.273441E+04 -1.867139E+04 -3.943963E+04 -6.949818E+03
       203   7  9.614797E+05 -5.306112E+04 -3.506142E+04 -2.134266E+04 -1.293797E+04 -5.054095E+03
       203   8  9.216392E+05 -6.465679E+04 -3.311526E+04 -1.113268E+03 -2.622177E+04 -6.380412E+03
       203   9  8.907476E+05 -4.783341E+04 -1.540027E+04 -1.343015E+04 -3.950442E+04 -6.950380E+03
       203  10  1.380567E+06  5.103743E+04  6.688828E+04 -1.598611E+04  3.853307E-10  5.994210E-10
       203  11  1.411403E+06  5.694761E+04  8.577750E+04 -3.678333E+03 -2.569473E-09  2.282660E-10
       203  12  1.451289E+06  9.137284E+04  1.208604E+05 -2.391522E+04 -9.173290E-10 -4.995547E-10
       203  13  1.171003E+06 -1.010278E+03  1.591484E+04 -1.866487E+04 -5.053932E-11  5.850073E-10
       203  14  1.166494E+06 -3.852510E+03  2.633260E+04 -2.395614E+03 -3.033420E-10 -3.686399E-10
       203  15  1.170981E+06  2.177231E+04  5.273140E+04 -1.867161E+04 -3.806667E-10 -1.288995E-10
       203  16  9.614795E+05 -5.306119E+04 -3.506178E+04 -2.134271E+04 -1.010376E-09  3.418969E-10
       203  17  9.216385E+05 -6.465702E+04 -3.311663E+04 -1.113403E+03  9.063767E-11 -9.500640E-10
       203  18  8.907459E+05 -4.783388E+04 -1.540329E+04 -1.343037E+04  5.881270E-10  5.728382E-10
       203  19  1.380567E+06  5.103750E+04  6.688858E+04 -1.598607E+04  1.155142E+04  5.054025E+03
       203  20  1.411404E+06  5.694783E+04  8.577880E+04 -3.678202E+03  2.546292E+04  6.379854E+03
       203  21  1.451290E+06  9.137331E+04  1.208634E+05 -2.391500E+04  3.937480E+04  6.949259E+03
       203  22  1.171004E+06 -1.010211E+03  1.591517E+04 -1.866482E+04  1.224481E+04  5.054063E+03
       203  23  1.166494E+06 -3.852287E+03  2.633393E+04 -2.395481E+03  2.584242E+04  6.380132E+03
       203  24  1.170983E+06  2.177278E+04  5.273441E+04 -1.867139E+04  3.943963E+04  6.949818E+03
       203  25  9.614797E+05 -5.306112E+04 -3.506142E+04 -2.134266E+04  1.293797E+04  5.054095E+03
       203  26  9.216392E+05 -6.465679E+04 -3.311526E+04 -1.113268E+03  2.622177E+04  6.380412E+03
       203  27  8.907476E+05 -4.783341E+04 -1.540027E+04 -1.343015E+04  3.950442E+04  6.950380E+03
       204   1  1.527457E+06  7.670833E+04  1.477103E+05  2.534429E+03 -4.733681E+04 -8.992581E+03
       204   2  1.531437E+06  6.289256E+04  1.934853E+05 -1.504687E+04 -1.056331E+05 -1.054733E+04
       204   3  1.602632E+06  2.865518E+05  3.365817E+05 -6.715705E+04 -1.639390E+05 -3.736922E+03
       204   4  1.183811E+06 -8.622504E+03  6.430908E+04 -1.905347E+04 -4.965060E+04 -8.992343E+03
       204   5  1.150428E+06 -3.163633E+04  1.011663E+05 -1.881719E+03 -1.045000E+05 -1.054916E+04
       204   6  1.183703E+06  1.823015E+05  2.329972E+05 -1.923681E+04 -1.593553E+05 -3.745074E+03
       204   7  8.402735E+05 -9.396026E+04 -1.910035E+04 -4.062942E+04 -5.196311E+04 -8.991944E+03
       204   8  7.695523E+05 -1.261752E+05  8.836967E+03  1.127532E+04 -1.033677E+05 -1.055094E+04
       204   9  7.649388E+05  7.804692E+04  1.294011E+05  2.865110E+04 -1.547747E+05 -3.752525E+03
       204  10  1.527454E+06  7.670765E+04  1.477059E+05  2.534086E+03  1.594021E-09 -2.876693E-10
       204  11  1.531425E+06  6.288946E+04  1.934642E+05 -1.504777E+04  3.092134E-10  2.677752E-10
       204  12  1.602603E+06  2.865445E+05  3.365313E+05 -6.715755E+04 -2.845280E-10  4.906416E-10
       204  13  1.183808E+06 -8.623251E+03  6.430430E+04 -1.905383E+04 -2.992758E-09 -5.739368E-10
       204  14  1.150416E+06 -3.163938E+04  1.011456E+05 -1.882607E+03  1.192073E-09  2.782967E-11
       204  15  1.183676E+06  1.822947E+05  2.329496E+05 -1.923729E+04 -2.440761E-10 -5.544188E-10
       204  16  8.402706E+05 -9.396107E+04 -1.910557E+04 -4.062979E+04 -2.220893E-09  8.317579E-10
       204  17  7.695408E+05 -1.261782E+05  8.816705E+03  1.127444E+04 -1.822211E-09 -8.258646E-10
       204  18  7.649131E+05  7.804048E+04  1.293561E+05  2.865063E+04 -1.092104E-09  6.548608E-10
       204  19  1.527457E+06  7.670833E+04  1.477103E+05  2.534429E+03  4.733681E+04  8.992581E+03
       204  20  1.531437E+06  6.289256E+04  1.934853E+05 -1.504687E+04  1.056331E+05  1.054733E+04
       204  21  1.602632E+06  2.865518E+05  3.365817E+05 -6.715705E+04  1.639390E+05  3.736922E+03
       204  22  1.183811E+06 -8.622504E+03  6.430908E+04 -1.905347E+04  4.965060E+04  8.992343E+03
       204  23  1.150428E+06 -3.163633E+04  1.011663E+05 -1.881719E+03  1.045000E+05  1.054916E+04
       204  24  1.183703E+06  1.823015E+05  2.329972E+05 -1.923681E+04  1.593553E+05  3.745074E+03
       204  25  8.402735E+05 -9.396026E+04 -1.910035E+04 -4.062942E+04  5.196311E+04  8.991944E+03
       204  26  7.695523E+05 -1.261752E+05  8.836967E+03  1.127532E+04  1.033677E+05  1.055094E+04
       204  27  7.649388E+05  7.804692E+04  1.294011E+05  2.865110E+04  1.547747E+05  3.752525E+03
       205   1  6.276360E+05  1.852259E+06  6.063299E+05 -6.763207E+05  2.272583E+04  2.020121E+05
       205   2  4.251399E+05  1.305096E+06  3.692836E+05 -6.000812E+05  7.077501E+04  7.799466E+04
       205   3  2.795512E+05  7.881099E+05  2.270153E+05 -6.224877E+05  6.782984E+04 -4.602617E+04
       205   4  8.037427E+04 -3.614776E+05  8.371107E+04 -6.200053E+05  2.325689E+04  5.599181E+04
       205   5  2.547502E+04 -3.673569E+05  4.354683E+04 -5.708088E+05  7.095712E+04  3.388402E+04
       205   6  9.921231E+03 -3.609071E+05  2.757095E+04 -6.202509E+05  6.761026E+04  1.166149E+04
       205   7 -4.672160E+05 -2.570664E+06 -4.391653E+05 -5.638856E+05  2.376268E+04 -8.951213E+04
       205   8 -3.743537E+05 -2.037123E+06 -2.823153E+05 -5.416134E+05  7.113539E+04 -1.011068E+04
       205   9 -2.597783E+05 -1.508623E+06 -1.719071E+05 -6.180166E+05  6.739083E+04  6.924572E+04
       205  10  6.276245E+05  1.852215E+06  6.062524E+05 -6.763244E+05  3.976826E-10  2.481688E-09
       205  11  4.251329E+05  1.305088E+06  3.692627E+05 -6.000857E+05 -2.431519E-09 -1.539155E-09
       205  12  2.795457E+05  7.881064E+05  2.270027E+05 -6.224851E+05 -1.397078E-09 -4.241399E-09
       205  13  8.037285E+04 -3.614811E+05  8.370416E+04 -6.200064E+05  1.286022E-09 -2.417383E-10
       205  14  2.546931E+04 -3.673595E+05  4.353520E+04 -5.708108E+05 -1.885506E-09 -9.308505E-10
       205  15  9.916286E+03 -3.609084E+05  2.756210E+04 -6.202515E+05 -1.128942E-09 -4.873773E-10
       205  16 -4.672187E+05 -2.570673E+06 -4.391815E+05 -5.638839E+05  4.545746E-10 -1.018290E-09
       205  17 -3.743592E+05 -2.037124E+06 -2.823250E+05 -5.416128E+05  2.479904E-09 -1.474136E-09
       205  18 -2.597844E+05 -1.508629E+06 -1.719246E+05 -6.180204E+05 -1.763358E-09  3.019885E-09
       205  19  6.276360E+05  1.852259E+06  6.063299E+05 -6.763207E+05 -2.272583E+04 -2.020121E+05
       205  20  4.251399E+05  1.305096E+06  3.692836E+05 -6.000812E+05 -7.077501E+04 -7.799466E+04
       205  21  2.795512E+05  7.881099E+05  2.270153E+05 -6.224877E+05 -6.782984E+04  4.602617E+04
       205  22  8.037427E+04 -3.614776E+05  8.371107E+04 -6.200053E+05 -2.325689E+04 -5.599181E+04
       205  23  2.547502E+04 -3.673569E+05  4.354683E+04 -5.708088E+05 -7.095712E+04 -3.388402E+04
       205  24  9.921231E+03 -3.609071E+05  2.757095E+04 -6.202509E+05 -6.761026E+04 -1.166149E+04
       205  25 -4.672160E+05 -2.570664E+06 -4.391653E+05 -5.638856E+05 -2.376268E+04  8.951213E+04
       205  26 -3.743537E+05 -2.037123E+06 -2.823153E+05 -5.416134E+05 -7.113539E+04  1.011068E+04
       205  27 -2.597783E+05 -1.508623E+06 -1.719071E+05 -6.180166E+05 -6.739083E+04 -6.924572E+04
       206   1  1.990446E+05  4.464380E+05  1.628108E+05 -6.263069E+05  4.909854E+04 -4.866178E+04
       206   2  7.097962E+04 -8.677071E+04  6.534445E+04 -5.703857E+05  2.023964E+04 -6.233890E+04
       206   3 -4.947419E+04 -6.167453E+05 -2.153387E+04 -6.164666E+05 -9.948103E+03 -7.601449E+04
       206   4  9.353292E+03 -3.629678E+05  2.388351E+04 -6.209802E+05  4.887377E+04  7.625803E+03
       206   5  6.797288E+03 -3.641667E+05  2.189027E+04 -5.699762E+05  1.999936E+04 -3.419441E+03
       206   6  1.140886E+04 -3.628681E+05  2.865508E+04 -6.209731E+05 -1.020441E+04 -1.447404E+04
       206   7 -1.803713E+05 -1.171723E+06 -1.150540E+05 -6.156598E+05  4.864978E+04  6.384233E+04
       206   8 -5.738697E+04 -6.414784E+05 -2.155272E+04 -5.695667E+05  1.975908E+04  5.547467E+04
       206   9  7.229010E+04 -1.089210E+05  7.885512E+04 -6.254815E+05 -1.046155E+04  4.709106E+04
       206  10  1.990414E+05  4.464348E+05  1.628019E+05 -6.263050E+05 -2.344082E-09  6.305273E-08
       206  11  7.097814E+04 -8.677499E+04  6.533639E+04 -5.703847E+05 -1.171106E-09 -2.725822E-09
       206  12 -4.947586E+04 -6.167516E+05 -2.154493E+04 -6.164672E+05 -5.797300E-10 -6.607068E-08
       206  13  9.350711E+03 -3.629685E+05  2.387891E+04 -6.209805E+05 -1.777245E-09  3.427367E-12
       206  14  6.796856E+03 -3.641668E+05  2.188949E+04 -5.699761E+05 -4.110238E-09 -1.720856E-09
       206  15  1.140870E+04 -3.628684E+05  2.865449E+04 -6.209733E+05 -7.537792E-10 -4.992276E-10
       206  16 -1.803749E+05 -1.171728E+06 -1.150661E+05 -6.156623E+05 -2.792007E-09 -6.149869E-08
       206  17 -5.738821E+04 -6.414818E+05 -2.155925E+04 -5.695676E+05 -4.235948E-09 -1.562778E-09
       206  18  7.228939E+04 -1.089234E+05  7.885075E+04 -6.254811E+05 -1.704295E-10  6.516286E-08
       206  19  1.990446E+05  4.464380E+05  1.628108E+05 -6.263069E+05 -4.909854E+04  4.866178E+04
       206  20  7.097962E+04 -8.677071E+04  6.534445E+04 -5.703857E+05 -2.023964E+04  6.233890E+04
       206  21 -4.947419E+04 -6.167453E+05 -2.153387E+04 -6.164666E+05  9.948103E+03  7.601449E+04
       206  22  9.353292E+03 -3.629678E+05  2.388351E+04 -6.209802E+05 -4.887377E+04 -7.625803E+03
       206  23  6.797288E+03 -3.641667E+05  2.189027E+04 -5.699762E+05 -1.999936E+04  3.419441E+03
       206  24  1.140886E+04 -3.628681E+05  2.865508E+04 -6.209731E+05  1.020441E+04  1.447404E+04
       206  25 -1.803713E+05 -1.171723E+06 -1.150540E+05 -6.156598E+05 -4.864978E+04 -6.384233E+04
       206  26 -5.738697E+04 -6.414784E+05 -2.155272E+04 -5.695667E+05 -1.975908E+04 -5.547467E+04
       206  27  7.229010E+04 -1.089210E+05  7.885512E+04 -6.254815E+05  1.046155E+04 -4.709106E+04
       207   1 -1.280098E+05 -9.521153E+05 -7.404392E+04 -6.202466E+05 -2.976948E+04 -8.189370E+04
       207   2 -2.340801E+05 -1.485127E+06 -1.654974E+05 -5.328212E+05 -4.194533E+04 -3.491625E+04
       207   3 -2.990792E+05 -2.014271E+06 -2.774656E+05 -5.449864E+05 -1.519190E+04  1.212199E+04
       207   4  1.239143E+04 -3.596967E+05  3.511296E+04 -6.204572E+05 -3.002598E+04 -1.937980E+04
       207   5  3.482701E+04 -3.683883E+05  5.946769E+04 -5.705041E+05 -4.187876E+04 -4.984241E+04
       207   6  1.117506E+05 -3.600692E+05  1.171135E+05 -6.200979E+05 -1.484020E+04 -8.020460E+04
       207   7  1.527747E+05  2.330711E+05  1.442700E+05 -6.206675E+05 -3.028237E+04  4.319225E+04
       207   8  3.036619E+05  7.495446E+05  2.843704E+05 -6.082546E+05 -4.181046E+04 -6.479489E+04
       207   9  5.224070E+05  1.296678E+06  5.115350E+05 -6.954076E+05 -1.446668E+04 -1.727764E+05
       207  10 -1.280125E+05 -9.521227E+05 -7.405822E+04 -6.202485E+05  1.112389E-09  2.658433E-09
       207  11 -2.340823E+05 -1.485129E+06 -1.655030E+05 -5.328224E+05  3.396855E-09 -2.199331E-09
       207  12 -2.990795E+05 -2.014272E+06 -2.774663E+05 -5.449863E+05  1.219955E-09 -6.454744E-09
       207  13  1.239036E+04 -3.596974E+05  3.511056E+04 -6.204576E+05  1.485992E-09  8.768803E-11
       207  14  3.482446E+04 -3.683914E+05  5.945972E+04 -5.705058E+05 -1.435000E-10 -2.258682E-09
       207  15  1.117486E+05 -3.600762E+05  1.171010E+05 -6.200989E+05  1.404297E-09 -4.292427E-10
       207  16  1.527732E+05  2.330689E+05  1.442648E+05 -6.206665E+05 -2.745068E-11 -4.661850E-10
       207  17  3.036589E+05  7.495396E+05  2.843592E+05 -6.082567E+05  3.701197E-09 -1.359521E-09
       207  18  5.223988E+05  1.296646E+06  5.114786E+05 -6.954096E+05  2.349074E-09  5.365848E-09
       207  19 -1.280098E+05 -9.521153E+05 -7.404392E+04 -6.202466E+05  2.976948E+04  8.189370E+04
       207  20 -2.340801E+05 -1.485127E+06 -1.654974E+05 -5.328212E+05  4.194533E+04  3.491625E+04
       207  21 -2.990792E+05 -2.014271E+06 -2.774656E+05 -5.449864E+05  1.519190E+04 -1.212199E+04
       207  22  1.239143E+04 -3.596967E+05  3.511296E+04 -6.204572E+05  3.002598E+04  1.937980E+04
       207  23  3.482701E+04 -3.683883E+05  5.946769E+04 -5.705041E+05  4.187876E+04  4.984241E+04
       207  24  1.117506E+05 -3.600692E+05  1.171135E+05 -6.200979E+05  1.484020E+04  8.020460E+04
       207  25  1.527747E+05  2.330711E+05  1.442700E+05 -6.206675E+05  3.028237E+04 -4.319225E+04
       207  26  3.036619E+05  7.495446E+05  2.843704E+05 -6.082546E+05  4.181046E+04  6.479489E+04
       207  27  5.224070E+05  1.296678E+06  5.115350E+05 -6.954076E+05  1.446668E+04  1.727764E+05
       208   1 -2.538338E+06 -9.850370E+05 -5.162504E+05 -9.507650E+05 -1.832399E+05 -3.485114E+04
       208   2 -2.367971E+06 -8.963620E+05 -3.742713E+05 -8.954033E+05 -1.177367E+05  7.027887E+04
       208   3 -2.191102E+06 -8.445146E+05 -3.042374E+05 -8.670457E+05 -3.301262E+04  1.246554E+05
       208   4 -4.821568E+05 -2.173700E+05  9.518455E+03 -3.919380E+05 -5.198336E+03  3.230340E+04
       208   5 -4.952095E+05 -2.120024E+05  4.423496E+03 -3.770062E+05 -3.397779E+04  1.018102E+05
       208   6 -4.830155E+05 -2.247141E+05  2.350623E+03 -3.890906E+05 -4.359919E+04  1.206312E+05
       208   7  1.578158E+06  5.505596E+05  5.350603E+05  1.685636E+05  1.734858E+05  9.969657E+04
       208   8  1.381173E+06  4.726563E+05  3.829700E+05  1.428384E+05  5.005298E+04  1.334433E+05
       208   9  1.228181E+06  3.953793E+05  3.088478E+05  9.010294E+04 -5.421716E+04  1.165953E+05
       208  10 -2.538374E+06 -9.850473E+05 -5.163160E+05 -9.507702E+05  2.246193E-08  9.149840E-09
       208  11 -2.367987E+06 -8.963711E+05 -3.743067E+05 -8.953966E+05 -4.781158E-08 -1.799886E-08
       208  12 -2.191107E+06 -8.445315E+05 -3.042687E+05 -8.670423E+05 -1.017332E-07 -3.869038E-08
       208  13 -4.821571E+05 -2.173711E+05  9.516444E+03 -3.919379E+05 -2.634422E-09 -7.673350E-10
       208  14 -4.952135E+05 -2.120139E+05  4.401854E+03 -3.770034E+05 -7.623688E-09 -1.726417E-09
       208  15 -4.830214E+05 -2.247302E+05  2.319714E+03 -3.890864E+05  2.627728E-09 -1.764459E-09
       208  16  1.578123E+06  5.505409E+05  5.349852E+05  1.685497E+05 -2.932307E-08 -1.279701E-08
       208  17  1.381166E+06  4.726366E+05  3.829319E+05  1.428330E+05  3.350616E-08  8.211097E-09
       208  18  1.228174E+06  3.953639E+05  3.088167E+05  9.010803E+04  1.063217E-07  3.714424E-08
       208  19 -2.538338E+06 -9.850370E+05 -5.162504E+05 -9.507650E+05  1.832399E+05  3.485114E+04
       208  20 -2.367971E+06 -8.963620E+05 -3.742713E+05 -8.954033E+05  1.177367E+05 -7.027887E+04
       208  21 -2.191102E+06 -8.445146E+05 -3.042374E+05 -8.670457E+05  3.301262E+04 -1.246554E+05
       208  22 -4.821568E+05 -2.173700E+05  9.518455E+03 -3.919380E+05  5.198336E+03 -3.230340E+04
       208  23 -4.952095E+05 -2.120024E+05  4.423496E+03 -3.770062E+05  3.397779E+04 -1.018102E+05
       208  24 -4.830155E+05 -2.247141E+05  2.350623E+03 -3.890906E+05  4.359919E+04 -1.206312E+05
       208  25  1.578158E+06  5.505596E+05  5.350603E+05  1.685636E+05 -1.734858E+05 -9.969657E+04
       208  26  1.381173E+06  4.726563E+05  3.829700E+05  1.428384E+05 -5.005298E+04 -1.334433E+05
       208  27  1.228181E+06  3.953793E+05  3.088478E+05  9.010294E+04  5.421716E+04 -1.165953E+05
       209   1 -2.079451E+06 -8.031881E+05 -2.802252E+05 -8.363410E+05 -3.592480E+04  1.183351E+05
       209   2 -1.920894E+06 -7.269429E+05 -2.417014E+05 -7.744163E+05 -2.498500E+04  1.158038E+05
       209   3 -1.738309E+06 -6.775725E+05 -2.099898E+05 -7.414728E+05 -1.219582E+04  1.083338E+05
       209   4 -4.826602E+05 -2.252249E+05  1.747463E+03 -3.898848E+05 -4.214581E+04  1.159591E+05
       209   5 -4.954839E+05 -2.127074E+05  8.830357E+02 -3.753505E+05 -4.038589E+04  1.099831E+05
       209   6 -4.824889E+05 -2.252393E+05  4.970249E+02 -3.898035E+05 -3.678154E+04  9.907407E+04
       209   7  1.116831E+06  3.529864E+05  2.836390E+05  5.764673E+04 -4.838398E+04  1.135768E+05
       209   8  9.320841E+05  3.017281E+05  2.434111E+05  2.457328E+04 -5.582442E+04  1.041483E+05
       209   9  7.750026E+05  2.272481E+05  2.109427E+05 -3.746944E+04 -6.141997E+04  8.979453E+04
       209  10 -2.079456E+06 -8.032035E+05 -2.802539E+05 -8.363375E+05  1.056562E-07  3.777695E-08
       209  11 -1.920898E+06 -7.269574E+05 -2.417278E+05 -7.744140E+05  4.407299E-08  1.486228E-08
       209  12 -1.738312E+06 -6.775852E+05 -2.100121E+05 -7.414718E+05 -2.470216E-08 -7.392446E-09
       209  13 -4.826657E+05 -2.252398E+05  1.718866E+03 -3.898809E+05  6.179475E-09  6.972242E-10
       209  14 -4.954889E+05 -2.127208E+05  8.572479E+02 -3.753469E+05 -3.137439E-09 -1.025740E-10
       209  15 -4.824930E+05 -2.252502E+05  4.760439E+02 -3.898006E+05 -5.689995E-09  2.772672E-10
       209  16  1.116825E+06  3.529719E+05  2.836103E+05  5.765115E+04 -9.380519E-08 -3.637876E-08
       209  17  9.320779E+05  3.017156E+05  2.433848E+05  2.457796E+04 -4.281379E-08 -1.470670E-08
       209  18  7.749964E+05  2.272385E+05  2.109205E+05 -3.746500E+04  1.082736E-08  7.077516E-09
       209  19 -2.079451E+06 -8.031881E+05 -2.802252E+05 -8.363410E+05  3.592480E+04 -1.183351E+05
       209  20 -1.920894E+06 -7.269429E+05 -2.417014E+05 -7.744163E+05  2.498500E+04 -1.158038E+05
       209  21 -1.738309E+06 -6.775725E+05 -2.099898E+05 -7.414728E+05  1.219582E+04 -1.083338E+05
       209  22 -4.826602E+05 -2.252249E+05  1.747463E+03 -3.898848E+05  4.214581E+04 -1.159591E+05
       209  23 -4.954839E+05 -2.127074E+05  8.830357E+02 -3.753505E+05  4.038589E+04 -1.099831E+05
       209  24 -4.824889E+05 -2.252393E+05  4.970249E+02 -3.898035E+05  3.678154E+04 -9.907407E+04
       209  25  1.116831E+06  3.529864E+05  2.836390E+05  5.764673E+04  4.838398E+04 -1.135768E+05
       209  26  9.320841E+05  3.017281E+05  2.434111E+05  2.457328E+04  5.582442E+04 -1.041483E+05
       209  27  7.750026E+05  2.272481E+05  2.109427E+05 -3.746944E+04  6.141997E+04 -8.979453E+04
       210   1 -1.628925E+06 -6.378510E+05 -1.906599E+05 -7.109261E+05 -9.729543E+03  1.003374E+05
       210   2 -1.470930E+06 -5.631869E+05 -1.618683E+05 -6.483787E+05 -3.924374E+03  8.740701E+04
       210   3 -1.287254E+06 -5.143434E+05 -1.336919E+05 -6.151635E+05  2.053574E+03  7.398783E+04
       210   4 -4.824221E+05 -2.252276E+05  3.586023E+02 -3.899164E+05 -3.390903E+04  9.123762E+04
       210   5 -4.952522E+05 -2.122633E+05  1.669233E+02 -3.752721E+05 -2.901398E+04  7.797577E+04
       210   6 -4.822599E+05 -2.249421E+05  7.629947E+01 -3.899703E+05 -2.394656E+04  6.422548E+04
       210   7  6.655007E+05  1.875340E+05  1.913509E+05 -6.834571E+04 -5.813632E+04  8.211993E+04
       210   8  4.814507E+05  1.387591E+05  1.621834E+05 -1.017603E+05 -5.414566E+04  6.852874E+04
       210   9  3.234283E+05  6.452519E+04  1.338318E+05 -1.645024E+05 -4.998255E+04  5.444967E+04
       210  10 -1.628928E+06 -6.378619E+05 -1.906790E+05 -7.109254E+05 -7.607543E-09 -7.319287E-10
       210  11 -1.470932E+06 -5.631951E+05 -1.618827E+05 -6.483784E+05 -1.608769E-09  6.533375E-10
       210  12 -1.287255E+06 -5.143493E+05 -1.337022E+05 -6.151636E+05  6.100653E-10  1.038376E-09
       210  13 -4.824255E+05 -2.252369E+05  3.408045E+02 -3.899139E+05 -6.420166E-09 -1.918646E-10
       210  14 -4.952547E+05 -2.122701E+05  1.539198E+02 -3.752703E+05  1.377236E-09  1.751351E-09
       210  15 -4.822616E+05 -2.249467E+05  6.747327E+01 -3.899690E+05  4.165419E-11  7.599472E-10
       210  16  6.654953E+05  1.875259E+05  1.913319E+05 -6.834186E+04 -2.628501E-09  1.331151E-09
       210  17  4.814463E+05  1.387533E+05  1.621691E+05 -1.017574E+05  3.295665E-10  2.669795E-09
       210  18  3.234248E+05  6.452133E+04  1.338215E+05 -1.645002E+05 -1.415293E-10  4.277725E-10
       210  19 -1.628925E+06 -6.378510E+05 -1.906599E+05 -7.109261E+05  9.729543E+03 -1.003374E+05
       210  20 -1.470930E+06 -5.631869E+05 -1.618683E+05 -6.483787E+05  3.924374E+03 -8.740701E+04
       210  21 -1.287254E+06 -5.143434E+05 -1.336919E+05 -6.151635E+05 -2.053574E+03 -7.398783E+04
       210  22 -4.824221E+05 -2.252276E+05  3.586023E+02 -3.899164E+05  3.390903E+04 -9.123762E+04
       210  23 -4.952522E+05 -2.122633E+05  1.669233E+02 -3.752721E+05  2.901398E+04 -7.797577E+04
       210  24 -4.822599E+05 -2.249421E+05  7.629947E+01 -3.899703E+05  2.394656E+04 -6.422548E+04
       210  25  6.655007E+05  1.875340E+05  1.913509E+05 -6.834571E+04  5.813632E+04 -8.211993E+04
       210  26  4.814507E+05  1.387591E+05  1.621834E+05 -1.017603E+05  5.414566E+04 -6.852874E+04
       210  27  3.234283E+05  6.452519E+04  1.338318E+05 -1.645024E+05  4.998255E+04 -5.444967E+04
       211   1 -1.177864E+06 -4.748095E+05 -1.147505E+05 -5.846281E+05  5.072747E+03  6.583016E+04
       211   2 -1.019564E+06 -4.003892E+05 -8.683448E+04 -5.220063E+05  1.044023E+04  5.190213E+04
       211   3 -8.354847E+05 -3.517010E+05 -5.899970E+04 -4.888165E+05  1.582000E+04  3.792465E+04
       211   4 -4.822302E+05 -2.249017E+05  2.975067E+01 -3.899988E+05 -2.089999E+04  5.608299E+04
       211   5 -4.950703E+05 -2.119584E+05 -5.940421E+01 -3.752960E+05 -1.562653E+04  4.212551E+04
       211   6 -4.821457E+05 -2.247313E+05 -1.587902E+02 -3.900363E+05 -1.034078E+04  2.811852E+04
       211   7  2.139151E+05  2.505277E+04  1.147995E+05 -1.951663E+05 -4.690338E+04  4.632431E+04
       211   8  2.971856E+04 -2.349928E+04  8.671207E+04 -2.284689E+05 -4.171668E+04  3.234011E+04
       211   9 -1.286679E+05 -9.774709E+04  5.868306E+04 -2.912018E+05 -3.651766E+04  1.830634E+04
       211  10 -1.177865E+06 -4.748142E+05 -1.147587E+05 -5.846284E+05 -5.637241E-08 -2.174804E-08
       211  11 -1.019564E+06 -4.003922E+05 -8.683975E+04 -5.220068E+05  4.010601E-09 -9.186320E-10
       211  12 -8.354854E+05 -3.517026E+05 -5.900287E+04 -4.888170E+05  6.076615E-08  2.073303E-08
       211  13 -4.822315E+05 -2.249052E+05  2.302140E+01 -3.899979E+05  1.403222E-09 -2.453141E-10
       211  14 -4.950711E+05 -2.119604E+05 -6.319658E+01 -3.752955E+05  3.123798E-09 -1.221622E-09
       211  15 -4.821460E+05 -2.247322E+05 -1.604764E+02 -3.900361E+05  2.772143E-09 -1.415879E-09
       211  16  2.139121E+05  2.504987E+04  1.147914E+05 -1.951645E+05  5.986787E-08  2.104339E-08
       211  17  2.971641E+04 -2.350087E+04  8.670684E+04 -2.284678E+05  2.759805E-09 -1.488309E-09
       211  18 -1.286694E+05 -9.774780E+04  5.867992E+04 -2.912013E+05 -5.762451E-08 -2.377774E-08
       211  19 -1.177864E+06 -4.748095E+05 -1.147505E+05 -5.846281E+05 -5.072747E+03 -6.583016E+04
       211  20 -1.019564E+06 -4.003892E+05 -8.683448E+04 -5.220063E+05 -1.044023E+04 -5.190213E+04
       211  21 -8.354847E+05 -3.517010E+05 -5.899970E+04 -4.888165E+05 -1.582000E+04 -3.792465E+04
       211  22 -4.822302E+05 -2.249017E+05  2.975067E+01 -3.899988E+05  2.089999E+04 -5.608299E+04
       211  23 -4.950703E+05 -2.119584E+05 -5.940421E+01 -3.752960E+05  1.562653E+04 -4.212551E+04
       211  24 -4.821457E+05 -2.247313E+05 -1.587902E+02 -3.900363E+05  1.034078E+04 -2.811852E+04
       211  25  2.139151E+05  2.505277E+04  1.147995E+05 -1.951663E+05  4.690338E+04 -4.632431E+04
       211  26  2.971856E+04 -2.349928E+04  8.671207E+04 -2.284689E+05  4.171668E+04 -3.234011E+04
       211  27 -1.286679E+05 -9.774709E+04  5.868306E+04 -2.912018E+05  3.651766E+04 -1.830634E+04
       212   1 -7.259448E+05 -3.122110E+05 -4.011459E+04 -4.582742E+05  1.892288E+04  2.976099E+04
       212   2 -5.674466E+05 -2.378794E+05 -1.239511E+04 -3.956291E+05  2.436092E+04  1.579765E+04
       212   3 -3.831962E+05 -1.892766E+05  1.519671E+04 -3.624530E+05  2.978753E+04  1.861916E+03
       212   4 -4.821393E+05 -2.247117E+05 -2.317691E+02 -3.900477E+05 -7.243746E+03  1.995458E+04
       212   5 -4.949877E+05 -2.118200E+05 -4.536703E+02 -3.753134E+05 -1.757637E+03  6.010094E+03
       212   6 -4.821256E+05 -2.246699E+05 -8.438209E+02 -3.900600E+05  3.716983E+03 -7.906798E+03
       212   7 -2.382688E+05 -1.372058E+05  3.965264E+04 -3.217956E+05 -3.342127E+04  1.014408E+04
       212   8 -4.225221E+05 -1.857596E+05  1.149046E+04 -3.549952E+05 -2.787929E+04 -3.778630E+03
       212   9 -5.810419E+05 -2.600612E+05 -1.688134E+04 -4.176622E+05 -2.234888E+04 -1.767376E+04
       212  10 -7.259454E+05 -3.122121E+05 -4.011693E+04 -4.582747E+05 -1.386980E-10 -5.844210E-10
       212  11 -5.674473E+05 -2.378799E+05 -1.239670E+04 -3.956294E+05 -9.277666E-10  1.160333E-09
       212  12 -3.831972E+05 -1.892769E+05  1.519504E+04 -3.624530E+05  1.000476E-09  1.551896E-09
       212  13 -4.821395E+05 -2.247121E+05 -2.326157E+02 -3.900476E+05  1.774432E-09 -5.753548E-10
       212  14 -4.949877E+05 -2.118201E+05 -4.537440E+02 -3.753134E+05 -1.166574E-09  8.725445E-10
       212  15 -4.821256E+05 -2.246700E+05 -8.439643E+02 -3.900600E+05 -2.770516E-10  6.716474E-10
       212  16 -2.382700E+05 -1.372062E+05  3.965035E+04 -3.217954E+05  6.664775E-10 -4.338371E-10
       212  17 -4.225229E+05 -1.857599E+05  1.148897E+04 -3.549953E+05 -1.673010E-09  3.115486E-10
       212  18 -5.810425E+05 -2.600616E+05 -1.688287E+04 -4.176625E+05 -2.303404E-09 -2.747069E-10
       212  19 -7.259448E+05 -3.122110E+05 -4.011459E+04 -4.582742E+05 -1.892288E+04 -2.976099E+04
       212  20 -5.674466E+05 -2.378794E+05 -1.239511E+04 -3.956291E+05 -2.436092E+04 -1.579765E+04
       212  21 -3.831962E+05 -1.892766E+05  1.519671E+04 -3.624530E+05 -2.978753E+04 -1.861916E+03
       212  22 -4.821393E+05 -2.247117E+05 -2.317691E+02 -3.900477E+05  7.243746E+03 -1.995458E+04
       212  23 -4.949877E+05 -2.118200E+05 -4.536703E+02 -3.753134E+05  1.757637E+03 -6.010094E+03
       212  24 -4.821256E+05 -2.246699E+05 -8.438209E+02 -3.900600E+05 -3.716983E+03  7.906798E+03
       212  25 -2.382688E+05 -1.372058E+05  3.965264E+04 -3.217956E+05  3.342127E+04 -1.014408E+04
       212  26 -4.225221E+05 -1.857596E+05  1.149046E+04 -3.549952E+05  2.787929E+04  3.778630E+03
       212  27 -5.810419E+05 -2.600612E+05 -1.688134E+04 -4.176622E+05  2.234888E+04  1.767376E+04
       213   1 -2.735868E+05 -1.498104E+05  3.389879E+04 -3.319087E+05  3.303727E+04 -6.223631E+03
       213   2 -1.150804E+05 -7.551732E+04  6.114159E+04 -2.692233E+05  3.862043E+04 -1.989966E+04
       213   3  6.912718E+04 -2.697143E+04  8.808544E+04 -2.359675E+05  4.407795E+04 -3.322941E+04
       213   4 -4.821650E+05 -2.246687E+05 -1.132506E+03 -3.900665E+05  6.937426E+03 -1.600432E+04
       213   5 -4.949760E+05 -2.118577E+05 -2.079376E+03 -3.753060E+05  1.316043E+04 -2.944473E+04
       213   6 -4.822477E+05 -2.249272E+05 -3.835409E+03 -3.899900E+05  1.925765E+04 -4.253876E+04
       213   7 -6.906977E+05 -2.995230E+05 -3.616264E+04 -4.482063E+05 -1.915340E+04 -2.578164E+04
       213   8 -8.747185E+05 -3.481840E+05 -6.530171E+04 -4.813280E+05 -1.228317E+04 -3.898367E+04
       213   9 -1.033297E+06 -4.228522E+05 -9.576119E+04 -5.438841E+05 -5.539269E+03 -5.183935E+04
       213  10 -2.735880E+05 -1.498107E+05  3.389666E+04 -3.319085E+05  8.963654E-10  3.649164E-10
       213  11 -1.150821E+05 -7.551815E+04  6.113804E+04 -2.692227E+05  6.651204E-10 -2.191106E-10
       213  12  6.912480E+04 -2.697314E+04  8.807971E+04 -2.359663E+05  1.416118E-09 -7.333777E-10
       213  13 -4.821651E+05 -2.246690E+05 -1.133078E+03 -3.900664E+05  9.139134E-10  1.517485E-10
       213  14 -4.949765E+05 -2.118587E+05 -2.081330E+03 -3.753056E+05  8.931750E-10  1.338210E-10
       213  15 -4.822486E+05 -2.249293E+05 -3.839505E+03 -3.899894E+05 -1.370599E-09 -3.039216E-10
       213  16 -6.906982E+05 -2.995238E+05 -3.616458E+04 -4.482067E+05 -1.535417E-10  2.626992E-10
       213  17 -8.747191E+05 -3.481857E+05 -6.530485E+04 -4.813284E+05 -5.991284E-10  4.836604E-10
       213  18 -1.033298E+06 -4.228551E+05 -9.576630E+04 -5.438843E+05 -1.899556E-10  5.121109E-10
       213  19 -2.735868E+05 -1.498104E+05  3.389879E+04 -3.319087E+05 -3.303727E+04  6.223631E+03
       213  20 -1.150804E+05 -7.551732E+04  6.114159E+04 -2.692233E+05 -3.862043E+04  1.989966E+04
       213  21  6.912718E+04 -2.697143E+04  8.808544E+04 -2.359675E+05 -4.407795E+04  3.322941E+04
       213  22 -4.821650E+05 -2.246687E+05 -1.132506E+03 -3.900665E+05 -6.937426E+03  1.600432E+04
       213  23 -4.949760E+05 -2.118577E+05 -2.079376E+03 -3.753060E+05 -1.316043E+04  2.944473E+04
       213  24 -4.822477E+05 -2.249272E+05 -3.835409E+03 -3.899900E+05 -1.925765E+04  4.253876E+04
       213  25 -6.906977E+05 -2.995230E+05 -3.616264E+04 -4.482063E+05  1.915340E+04  2.578164E+04
       213  26 -8.747185E+05 -3.481840E+05 -6.530171E+04 -4.813280E+05  1.228317E+04  3.898367E+04
       213  27 -1.033297E+06 -4.228522E+05 -9.576119E+04 -5.438841E+05  5.539269E+03  5.183935E+04
       214   1  1.788519E+05  1.239829E+04  1.061373E+05 -2.056626E+05  4.805352E+04 -4.077886E+04
       214   2  3.362690E+05  8.710223E+04  1.327551E+05 -1.417570E+05  5.061940E+04 -5.315787E+04
       214   3  5.189822E+05  1.348365E+05  1.603349E+05 -1.065129E+05  5.186383E+04 -6.200036E+04
       214   4 -4.825520E+05 -2.249229E+05 -5.121995E+03 -3.900340E+05  2.293226E+04 -5.020479E+04
       214   5 -4.948930E+05 -2.129969E+05 -9.446455E+03 -3.748867E+05  3.208767E+04 -6.012020E+04
       214   6 -4.832732E+05 -2.293528E+05 -1.803235E+04 -3.884152E+05  3.992114E+04 -6.649621E+04
       214   7 -1.143482E+06 -4.621978E+05 -1.163879E+05 -5.742193E+05 -2.160329E+03 -5.962001E+04
       214   8 -1.325320E+06 -5.130267E+05 -1.516658E+05 -6.077239E+05  1.358230E+04 -6.707258E+04
       214   9 -1.484479E+06 -5.934466E+05 -1.964350E+05 -6.698947E+05  2.799885E+04 -7.098432E+04
       214  10  1.788490E+05  1.239589E+04  1.061298E+05 -2.056610E+05  2.426841E-09 -8.876304E-10
       214  11  3.362655E+05  8.709850E+04  1.327450E+05 -1.417548E+05 -6.315219E-09 -3.555165E-09
       214  12  5.189783E+05  1.348316E+05  1.603226E+05 -1.065103E+05 -8.754319E-09 -2.687926E-09
       214  13 -4.825533E+05 -2.249257E+05 -5.127718E+03 -3.900330E+05 -2.509300E-09 -1.166484E-09
       214  14 -4.948950E+05 -2.130011E+05 -9.455179E+03 -3.748851E+05 -6.902458E-09 -3.048263E-09
       214  15 -4.832761E+05 -2.293580E+05 -1.804365E+04 -3.884131E+05 -8.456609E-09 -3.337944E-09
       214  16 -1.143483E+06 -4.622016E+05 -1.163946E+05 -5.742194E+05 -5.487396E-09 -1.381926E-09
       214  17 -1.325322E+06 -5.130316E+05 -1.516746E+05 -6.077231E+05 -1.035665E-08 -2.320158E-09
       214  18 -1.484481E+06 -5.934522E+05 -1.964459E+05 -6.698931E+05 -6.812853E-09 -3.789642E-09
       214  19  1.788519E+05  1.239829E+04  1.061373E+05 -2.056626E+05 -4.805352E+04  4.077886E+04
       214  20  3.362690E+05  8.710223E+04  1.327551E+05 -1.417570E+05 -5.061940E+04  5.315787E+04
       214  21  5.189822E+05  1.348365E+05  1.603349E+05 -1.065129E+05 -5.186383E+04  6.200036E+04
       214  22 -4.825520E+05 -2.249229E+05 -5.121995E+03 -3.900340E+05 -2.293226E+04  5.020479E+04
       214  23 -4.948930E+05 -2.129969E+05 -9.446455E+03 -3.748867E+05 -3.208767E+04  6.012020E+04
       214  24 -4.832732E+05 -2.293528E+05 -1.803235E+04 -3.884152E+05 -3.992114E+04  6.649621E+04
       214  25 -1.143482E+06 -4.621978E+05 -1.163879E+05 -5.742193E+05  2.160329E+03  5.962001E+04
       214  26 -1.325320E+06 -5.130267E+05 -1.516658E+05 -6.077239E+05 -1.358230E+04  6.707258E+04
       214  27 -1.484479E+06 -5.934466E+05 -1.964350E+05 -6.698947E+05 -2.799885E+04  7.098432E+04
       215   1  6.308327E+05  1.722746E+05  1.773150E+05 -7.997371E+04  5.983174E+04 -6.540146E+04
       215   2  7.692572E+05  2.537757E+05  2.149188E+05  9.325097E+03  1.211277E+04 -7.177715E+04
       215   3  9.254342E+05  2.812133E+05  2.765556E+05  8.233625E+04 -4.931151E+04 -4.179395E+04
       215   4 -4.864717E+05 -2.294005E+05 -2.409195E+04 -3.889503E+05  4.473352E+04 -7.108585E+04
       215   5 -4.939643E+05 -2.330090E+05 -4.611765E+04 -3.667932E+05  6.491010E+04 -5.195469E+04
       215   6 -4.972043E+05 -3.041851E+05 -9.791808E+04 -3.609338E+05  7.137780E+04  3.582384E+03
       215   7 -1.602463E+06 -6.309612E+05 -2.255411E+05 -6.974103E+05  2.966427E+04 -7.675953E+04
       215   8 -1.755526E+06 -7.196034E+05 -3.072229E+05 -7.421830E+05  1.175918E+05 -3.218105E+04
       215   9 -1.917811E+06 -8.893175E+05 -4.724980E+05 -8.032292E+05  1.917634E+05  4.881891E+04
       215  10  6.308277E+05  1.722690E+05  1.773003E+05 -7.997056E+04 -1.111610E-08 -3.157184E-09
       215  11  7.692556E+05  2.537701E+05  2.149089E+05  9.325797E+03 -1.671061E-09  1.277771E-09
       215  12  9.254311E+05  2.812108E+05  2.765477E+05  8.233459E+04  2.966956E-09  1.048394E-09
       215  13 -4.864752E+05 -2.294065E+05 -2.410520E+04 -3.889477E+05 -4.040992E-09 -1.529938E-09
       215  14 -4.939695E+05 -2.330130E+05 -4.613063E+04 -3.667905E+05 -1.520796E-09  5.887981E-10
       215  15 -4.972098E+05 -3.041865E+05 -9.792769E+04 -3.609340E+05  8.783477E-10  3.926447E-10
       215  16 -1.602465E+06 -6.309677E+05 -2.255538E+05 -6.974085E+05 -1.559733E-10 -1.447388E-09
       215  17 -1.755541E+06 -7.196082E+05 -3.072509E+05 -7.421800E+05  1.006889E-09  4.688044E-10
       215  18 -1.917851E+06 -8.893299E+05 -4.725718E+05 -8.032367E+05 -2.118396E-09  1.063005E-10
       215  19  6.308327E+05  1.722746E+05  1.773150E+05 -7.997371E+04 -5.983174E+04  6.540146E+04
       215  20  7.692572E+05  2.537757E+05  2.149188E+05  9.325097E+03 -1.211277E+04  7.177715E+04
       215  21  9.254342E+05  2.812133E+05  2.765556E+05  8.233625E+04  4.931151E+04  4.179395E+04
       215  22 -4.864717E+05 -2.294005E+05 -2.409195E+04 -3.889503E+05 -4.473352E+04  7.108585E+04
       215  23 -4.939643E+05 -2.330090E+05 -4.611765E+04 -3.667932E+05 -6.491010E+04  5.195469E+04
       215  24 -4.972043E+05 -3.041851E+05 -9.791808E+04 -3.609338E+05 -7.137780E+04 -3.582384E+03
       215  25 -1.602463E+06 -6.309612E+05 -2.255411E+05 -6.974103E+05 -2.966427E+04  7.675953E+04
       215  26 -1.755526E+06 -7.196034E+05 -3.072229E+05 -7.421830E+05 -1.175918E+05  3.218105E+04
       215  27 -1.917811E+06 -8.893175E+05 -4.724980E+05 -8.032292E+05 -1.917634E+05 -4.881891E+04
       216   1 -6.476073E+05 -2.116768E+05 -1.796240E+05 -9.558301E+04 -7.249618E+03  1.873079E+04
       216   2 -4.897387E+05 -2.627236E+05 -1.613410E+05 -1.299224E+05  1.709855E+04  6.214928E+04
       216   3 -3.193623E+05 -2.519830E+05 -1.434570E+05 -1.934682E+05  4.149235E+04  7.304514E+04
       216   4  8.051163E+05  1.464015E+05  1.591957E+05 -1.908429E+05  1.116606E+05  1.882141E+04
       216   5  7.933725E+05  4.181559E+04  7.878829E+04 -1.762072E+05  7.123355E+04  6.216920E+04
       216   6  8.053067E+05  1.017833E+04  4.292558E+04 -1.907672E+05  3.084785E+04  7.302907E+04
       216   7  2.259837E+06  5.043725E+05  4.979305E+05 -2.863275E+05  2.308471E+05  1.887545E+04
       216   8  2.078087E+06  3.462693E+05  3.188589E+05 -2.225901E+05  1.254776E+05  6.218103E+04
       216   9  1.931226E+06  2.722743E+05  2.292707E+05 -1.880610E+05  2.018467E+04  7.301293E+04
       216  10 -6.476075E+05 -2.116772E+05 -1.796247E+05 -9.558290E+04  8.907603E-10 -6.903207E-10
       216  11 -4.897400E+05 -2.627278E+05 -1.613488E+05 -1.299232E+05 -1.293528E-09  1.027864E-09
       216  12 -3.193656E+05 -2.519892E+05 -1.434703E+05 -1.934706E+05 -5.521784E-09  2.729265E-10
       216  13  8.051028E+05  1.463978E+05  1.591716E+05 -1.908446E+05  2.433875E-09  9.174484E-10
       216  14  7.933660E+05  4.181007E+04  7.877150E+04 -1.762108E+05  1.064432E-09  7.022533E-10
       216  15  8.053042E+05  1.017235E+04  4.291377E+04 -1.907690E+05 -1.373549E-09 -4.004909E-10
       216  16  2.259779E+06  5.043578E+05  4.978301E+05 -2.863310E+05  1.105416E-09  9.454468E-10
       216  17  2.078069E+06  3.462610E+05  3.188221E+05 -2.225964E+05  2.640581E-09  7.074216E-10
       216  18  1.931224E+06  2.722685E+05  2.292599E+05 -1.880622E+05  6.131014E-09  7.772202E-10
       216  19 -6.476073E+05 -2.116768E+05 -1.796240E+05 -9.558301E+04  7.249618E+03 -1.873079E+04
       216  20 -4.897387E+05 -2.627236E+05 -1.613410E+05 -1.299224E+05 -1.709855E+04 -6.214928E+04
       216  21 -3.193623E+05 -2.519830E+05 -1.434570E+05 -1.934682E+05 -4.149235E+04 -7.304514E+04
       216  22  8.051163E+05  1.464015E+05  1.591957E+05 -1.908429E+05 -1.116606E+05 -1.882141E+04
       216  23  7.933725E+05  4.181559E+04  7.878829E+04 -1.762072E+05 -7.123355E+04 -6.216920E+04
       216  24  8.053067E+05  1.017833E+04  4.292558E+04 -1.907672E+05 -3.084785E+04 -7.302907E+04
       216  25  2.259837E+06  5.043725E+05  4.979305E+05 -2.863275E+05 -2.308471E+05 -1.887545E+04
       216  26  2.078087E+06  3.462693E+05  3.188589E+05 -2.225901E+05 -1.254776E+05 -6.218103E+04
       216  27  1.931226E+06  2.722743E+05  2.292707E+05 -1.880610E+05 -2.018467E+04 -7.301293E+04
       217   1 -2.187124E+05 -2.281410E+05 -1.331729E+05 -1.870650E+05  3.497913E+04  6.883646E+04
       217   2 -5.580073E+04 -1.957162E+05 -1.154808E+05 -1.739769E+05  3.334977E+04  6.215310E+04
       217   3  1.084275E+05 -1.593872E+05 -9.572359E+04 -1.922378E+05  3.171687E+04  5.187031E+04
       217   4  8.006461E+05  8.767518E+03  3.232468E+04 -1.912578E+05  2.528432E+04  6.882293E+04
       217   5  7.994302E+05  1.886665E+03  1.763994E+04 -1.755846E+05  1.647286E+04  6.214205E+04
       217   6  8.007461E+05  1.530920E+02  9.998467E+03 -1.912570E+05  7.658328E+03  5.186430E+04
       217   7  1.821035E+06  2.456234E+05  1.977937E+05 -1.954577E+05  1.557412E+04  6.880955E+04
       217   8  1.655391E+06  1.994539E+05  1.507446E+05 -1.771946E+05 -4.264256E+02  6.213110E+04
       217   9  1.493545E+06  1.596707E+05  1.157124E+05 -1.902750E+05 -1.642600E+04  5.185823E+04
       217  10 -2.187150E+05 -2.281464E+05 -1.331841E+05 -1.870669E+05 -6.136479E-08 -6.991496E-10
       217  11 -5.580296E+04 -1.957207E+05 -1.154902E+05 -1.739786E+05 -3.535844E-10 -2.359317E-09
       217  12  1.084257E+05 -1.593904E+05 -9.573054E+04 -1.922391E+05  5.871459E-08 -2.089445E-09
       217  13  8.006441E+05  8.762258E+03  3.231457E+04 -1.912592E+05  2.983553E-10 -1.671773E-10
       217  14  7.994289E+05  1.882444E+03  1.763217E+04 -1.755855E+05  1.085731E-09 -2.215556E-09
       217  15  8.007453E+05  1.501865E+02  9.993300E+03 -1.912573E+05 -2.551019E-09 -2.244370E-09
       217  16  1.821033E+06  2.456182E+05  1.977843E+05 -1.954586E+05  6.151031E-08 -8.043316E-10
       217  17  1.655390E+06  1.994498E+05  1.507374E+05 -1.771946E+05 -6.944253E-10 -2.574335E-09
       217  18  1.493544E+06  1.596677E+05  1.157068E+05 -1.902743E+05 -6.243598E-08 -2.079073E-09
       217  19 -2.187124E+05 -2.281410E+05 -1.331729E+05 -1.870650E+05 -3.497913E+04 -6.883646E+04
       217  20 -5.580073E+04 -1.957162E+05 -1.154808E+05 -1.739769E+05 -3.334977E+04 -6.215310E+04
       217  21  1.084275E+05 -1.593872E+05 -9.572359E+04 -1.922378E+05 -3.171687E+04 -5.187031E+04
       217  22  8.006461E+05  8.767518E+03  3.232468E+04 -1.912578E+05 -2.528432E+04 -6.882293E+04
       217  23  7.994302E+05  1.886665E+03  1.763994E+04 -1.755846E+05 -1.647286E+04 -6.214205E+04
       217  24  8.007461E+05  1.530920E+02  9.998467E+03 -1.912570E+05 -7.658328E+03 -5.186430E+04
       217  25  1.821035E+06  2.456234E+05  1.977937E+05 -1.954577E+05 -1.557412E+04 -6.880955E+04
       217  26  1.655391E+06  1.994539E+05  1.507446E+05 -1.771946E+05  4.264256E+02 -6.213110E+04
       217  27  1.493545E+06  1.596707E+05  1.157124E+05 -1.902750E+05  1.642600E+04 -5.185823E+04
       218   1  2.114736E+05 -1.353555E+05 -8.155127E+04 -1.916332E+05  3.009641E+04  4.472071E+04
       218   2  3.747378E+05 -9.798170E+04 -5.982991E+04 -1.758077E+05  2.876649E+04  3.250138E+04
       218   3  5.382874E+05 -6.040980E+04 -3.718250E+04 -1.915421E+05  2.743312E+04  1.988610E+04
       218   4  8.002970E+05  1.683208E+02  7.571042E+03 -1.913048E+05  6.147288E+03  4.471753E+04
       218   5  8.001222E+05 -1.363552E+02  4.290674E+03 -1.755256E+05  4.023622E+03  3.250150E+04
       218   6  8.003450E+05 -1.042620E+02  2.485013E+03 -1.913050E+05  1.896841E+03  1.988965E+04
       218   7  1.389469E+06  1.356760E+05  9.668836E+04 -1.909760E+05 -1.782364E+04  4.471432E+04
       218   8  1.225689E+06  9.770072E+04  6.840990E+04 -1.752433E+05 -2.073552E+04  3.250159E+04
       218   9  1.062473E+06  6.019835E+04  4.215356E+04 -1.910679E+05 -2.364978E+04  1.989317E+04
       218  10  2.114721E+05 -1.353579E+05 -8.155673E+04 -1.916343E+05  6.501127E-10 -1.407731E-09
       218  11  3.747367E+05 -9.798305E+04 -5.983345E+04 -1.758084E+05  7.057358E-10 -8.960128E-10
       218  12  5.382865E+05 -6.041042E+04 -3.718466E+04 -1.915425E+05 -2.464965E-10  5.398232E-11
       218  13  8.002964E+05  1.661624E+02  7.567212E+03 -1.913050E+05  7.468595E-10 -1.200021E-09
       218  14  8.001219E+05 -1.374944E+02  4.288657E+03 -1.755257E+05  5.726499E-11 -2.520274E-10
       218  15  8.003449E+05 -1.046879E+02  2.484263E+03 -1.913051E+05 -5.896212E-10  5.420441E-10
       218  16  1.389468E+06  1.356737E+05  9.668401E+04 -1.909754E+05 -1.625155E-09 -9.411660E-10
       218  17  1.225688E+06  9.769947E+04  6.840711E+04 -1.752427E+05 -2.680325E-09  2.262588E-10
       218  18  1.062472E+06  6.019777E+04  4.215177E+04 -1.910675E+05 -1.634276E-09  9.657762E-10
       218  19  2.114736E+05 -1.353555E+05 -8.155127E+04 -1.916332E+05 -3.009641E+04 -4.472071E+04
       218  20  3.747378E+05 -9.798170E+04 -5.982991E+04 -1.758077E+05 -2.876649E+04 -3.250138E+04
       218  21  5.382874E+05 -6.040980E+04 -3.718250E+04 -1.915421E+05 -2.743312E+04 -1.988610E+04
       218  22  8.002970E+05  1.683208E+02  7.571042E+03 -1.913048E+05 -6.147288E+03 -4.471753E+04
       218  23  8.001222E+05 -1.363552E+02  4.290674E+03 -1.755256E+05 -4.023622E+03 -3.250150E+04
       218  24  8.003450E+05 -1.042620E+02  2.485013E+03 -1.913050E+05 -1.896841E+03 -1.988965E+04
       218  25  1.389469E+06  1.356760E+05  9.668836E+04 -1.909760E+05  1.782364E+04 -4.471432E+04
       218  26  1.225689E+06  9.770072E+04  6.840990E+04 -1.752433E+05  2.073552E+04 -3.250159E+04
       218  27  1.062473E+06  6.019835E+04  4.215356E+04 -1.910679E+05  2.364978E+04 -1.989317E+04
       219   1  6.415049E+05 -3.651340E+04 -2.165026E+04 -1.914746E+05  2.702585E+04  1.241683E+04
       219   2  8.048416E+05  9.830391E+02  1.763659E+03 -1.756316E+05  2.654520E+04 -4.048665E+02
       219   3  9.682865E+05  3.847686E+04  2.549449E+04 -1.913650E+05  2.606448E+04 -1.326458E+04
       219   4  8.002854E+05 -7.286325E+01  1.901297E+03 -1.913090E+05  1.501402E+03  1.242136E+04
       219   5  8.002393E+05 -6.270672E+01  1.132023E+03 -1.755208E+05  9.413802E+02 -4.003605E+02
       219   6  8.002851E+05 -4.141917E+01  7.320387E+02 -1.913091E+05  3.814003E+02 -1.326011E+04
       219   7  9.590927E+05  3.636684E+04  2.545483E+04 -1.911434E+05 -2.402930E+04  1.242588E+04
       219   8  7.956384E+05 -1.108102E+03  5.028470E+02 -1.754100E+05 -2.466226E+04 -3.958635E+02
       219   9  6.323135E+05 -3.856066E+04 -2.402844E+04 -1.912531E+05 -2.529502E+04 -1.325564E+04
       219  10  6.415040E+05 -3.651376E+04 -2.165192E+04 -1.914749E+05 -8.759728E-10  6.929653E-10
       219  11  8.048408E+05  9.828500E+02  1.762336E+03 -1.756316E+05 -1.239998E-09  1.449194E-09
       219  12  9.682858E+05  3.847649E+04  2.549288E+04 -1.913648E+05 -6.379558E-10  1.596588E-09
       219  13  8.002854E+05 -7.302960E+01  1.901003E+03 -1.913090E+05 -1.060709E-09  9.041648E-10
       219  14  8.002393E+05 -6.270713E+01  1.132021E+03 -1.755208E+05 -1.734791E-09  1.331283E-09
       219  15  8.002851E+05 -4.160809E+01  7.317079E+02 -1.913091E+05  5.564586E-10  1.198505E-09
       219  16  9.590920E+05  3.636652E+04  2.545346E+04 -1.911431E+05 -1.572656E-09  1.108265E-09
       219  17  7.956377E+05 -1.108265E+03  5.017052E+02 -1.754100E+05 -1.465783E-09  1.147653E-09
       219  18  6.323128E+05 -3.856102E+04 -2.402997E+04 -1.912534E+05 -3.605340E-10  8.361360E-10
       219  19  6.415049E+05 -3.651340E+04 -2.165026E+04 -1.914746E+05 -2.702585E+04 -1.241683E+04
       219  20  8.048416E+05  9.830391E+02  1.763659E+03 -1.756316E+05 -2.654520E+04  4.048665E+02
       219  21  9.682865E+05  3.847686E+04  2.549449E+04 -1.913650E+05 -2.606448E+04  1.326458E+04
       219  22  8.002854E+05 -7.286325E+01  1.901297E+03 -1.913090E+05 -1.501402E+03 -1.242136E+04
       219  23  8.002393E+05 -6.270672E+01  1.132023E+03 -1.755208E+05 -9.413802E+02  4.003605E+02
       219  24  8.002851E+05 -4.141917E+01  7.320387E+02 -1.913091E+05 -3.814003E+02  1.326011E+04
       219  25  9.590927E+05  3.636684E+04  2.545483E+04 -1.911434E+05  2.402930E+04 -1.242588E+04
       219  26  7.956384E+05 -1.108102E+03  5.028470E+02 -1.754100E+05  2.466226E+04  3.958635E+02
       219  27  6.323135E+05 -3.856066E+04 -2.402844E+04 -1.912531E+05  2.529502E+04  1.325564E+04
       220   1  1.071574E+06  6.231842E+04  4.145365E+04 -1.913570E+05  2.594548E+04 -2.076304E+04
       220   2  1.235018E+06  9.975696E+04  6.551172E+04 -1.755027E+05  2.558905E+04 -3.361561E+04
       220   3  1.398576E+06  1.372060E+05  8.981367E+04 -1.912351E+05  2.523597E+04 -4.641931E+04
       220   4  8.002718E+05 -4.949593E+01  6.217274E+02 -1.913116E+05  2.572420E+02 -2.075961E+04
       220   5  8.002125E+05 -9.748283E+01  5.298915E+02 -1.755176E+05 -4.789647E+00 -3.361566E+04
       220   6  8.002238E+05 -1.505893E+02  6.147960E+02 -1.913116E+05 -2.633923E+02 -4.642284E+04
       220   7  5.290446E+05 -6.242055E+04 -4.020920E+04 -1.912662E+05 -2.542023E+04 -2.075617E+04
       220   8  3.655980E+05 -9.996048E+04 -6.445314E+04 -1.755325E+05 -2.558146E+04 -3.361571E+04
       220   9  2.022319E+05 -1.375237E+05 -8.858849E+04 -1.913881E+05 -2.573922E+04 -4.642636E+04
       220  10  1.071573E+06  6.231778E+04  4.145158E+04 -1.913566E+05  3.786288E-10  1.281527E-09
       220  11  1.235017E+06  9.975557E+04  6.550837E+04 -1.755020E+05  9.468650E-10  5.703646E-10
       220  12  1.398575E+06  1.372036E+05  8.980843E+04 -1.912341E+05 -8.219683E-10  1.678750E-11
       220  13  8.002717E+05 -4.995889E+01  6.209171E+02 -1.913116E+05 -4.993771E-10  8.343150E-10
       220  14  8.002122E+05 -9.869672E+01  5.277672E+02 -1.755176E+05 -2.057009E-09  3.014987E-10
       220  15  8.002232E+05 -1.529044E+02  6.107445E+02 -1.913116E+05 -1.750487E-09 -4.928365E-11
       220  16  5.290438E+05 -6.242119E+04 -4.021122E+04 -1.912667E+05 -1.170232E-09  4.615108E-10
       220  17  3.655970E+05 -9.996187E+04 -6.445649E+04 -1.755332E+05 -1.052405E-09 -1.822044E-10
       220  18  2.022306E+05 -1.375262E+05 -8.859379E+04 -1.913890E+05 -1.107394E-09 -3.056233E-10
       220  19  1.071574E+06  6.231842E+04  4.145365E+04 -1.913570E+05 -2.594548E+04  2.076304E+04
       220  20  1.235018E+06  9.975696E+04  6.551172E+04 -1.755027E+05 -2.558905E+04  3.361561E+04
       220  21  1.398576E+06  1.372060E+05  8.981367E+04 -1.912351E+05 -2.523597E+04  4.641931E+04
       220  22  8.002718E+05 -4.949593E+01  6.217274E+02 -1.913116E+05 -2.572420E+02  2.075961E+04
       220  23  8.002125E+05 -9.748283E+01  5.298915E+02 -1.755176E+05  4.789647E+00  3.361566E+04
       220  24  8.002238E+05 -1.505893E+02  6.147960E+02 -1.913116E+05  2.633923E+02  4.642284E+04
       220  25  5.290446E+05 -6.242055E+04 -4.020920E+04 -1.912662E+05  2.542023E+04  2.075617E+04
       220  26  3.655980E+05 -9.996048E+04 -6.445314E+04 -1.755325E+05  2.558146E+04  3.361571E+04
       220  27  2.022319E+05 -1.375237E+05 -8.858849E+04 -1.913881E+05  2.573922E+04  4.642636E+04
       221   1  1.502026E+06  1.610474E+05  1.060675E+05 -1.911815E+05  2.514182E+04 -5.387853E+04
       221   2  1.665565E+06  1.985453E+05  1.310411E+05 -1.752483E+05  2.357990E+04 -6.641142E+04
       221   3  1.829495E+06  2.362874E+05  1.571171E+05 -1.909038E+05  2.202398E+04 -7.843515E+04
       221   4  8.002250E+05 -1.922736E+02  7.259237E+02 -1.913123E+05 -3.826997E+02 -5.388511E+04
       221   5  8.000820E+05 -2.870617E+02  1.113245E+03 -1.755167E+05 -9.303280E+02 -6.642465E+04
       221   6  8.001292E+05 -3.118776E+02  1.899522E+03 -1.913123E+05 -1.471578E+03 -7.845468E+04
       221   7  9.891834E+04 -1.614549E+05 -1.046230E+05 -1.914430E+05 -2.587957E+04 -5.389169E+04
       221   8 -6.465025E+04 -1.991545E+05 -1.288272E+05 -1.757846E+05 -2.540782E+04 -6.643788E+04
       221   9 -2.281756E+05 -2.369611E+05 -1.533375E+05 -1.917200E+05 -2.492982E+04 -7.847419E+04
       221  10  1.502025E+06  1.610442E+05  1.060609E+05 -1.911804E+05 -2.700668E-10  4.034443E-12
       221  11  1.665564E+06  1.985404E+05  1.310318E+05 -1.752470E+05 -1.472177E-09 -9.764873E-10
       221  12  1.829493E+06  2.362806E+05  1.571046E+05 -1.909024E+05 -1.114866E-09  2.956758E-10
       221  13  8.002242E+05 -1.953928E+02  7.204649E+02 -1.913124E+05  1.026803E-09  2.421367E-11
       221  14  8.000808E+05 -2.918017E+02  1.104949E+03 -1.755167E+05 -2.315101E-09 -1.970843E-10
       221  15  8.001276E+05 -3.184902E+02  1.887947E+03 -1.913124E+05 -3.077982E-09 -3.573288E-10
       221  16  9.891684E+04 -1.614582E+05 -1.046297E+05 -1.914441E+05  1.601351E-09 -1.245668E-10
       221  17 -6.465213E+04 -1.991595E+05 -1.288367E+05 -1.757860E+05 -4.830055E-10  2.170336E-10
       221  18 -2.281779E+05 -2.369679E+05 -1.533502E+05 -1.917216E+05 -1.775443E-09 -2.921627E-10
       221  19  1.502026E+06  1.610474E+05  1.060675E+05 -1.911815E+05 -2.514182E+04  5.387853E+04
       221  20  1.665565E+06  1.985453E+05  1.310411E+05 -1.752483E+05 -2.357990E+04  6.641142E+04
       221  21  1.829495E+06  2.362874E+05  1.571171E+05 -1.909038E+05 -2.202398E+04  7.843515E+04
       221  22  8.002250E+05 -1.922736E+02  7.259237E+02 -1.913123E+05  3.826997E+02  5.388511E+04
       221  23  8.000820E+05 -2.870617E+02  1.113245E+03 -1.755167E+05  9.303280E+02  6.642465E+04
       221  24  8.001292E+05 -3.118776E+02  1.899522E+03 -1.913123E+05  1.471578E+03  7.845468E+04
       221  25  9.891834E+04 -1.614549E+05 -1.046230E+05 -1.914430E+05  2.587957E+04  5.389169E+04
       221  26 -6.465025E+04 -1.991545E+05 -1.288272E+05 -1.757846E+05  2.540782E+04  6.643788E+04
       221  27 -2.281756E+05 -2.369611E+05 -1.533375E+05 -1.917200E+05  2.492982E+04  7.847419E+04
       222   1  1.933487E+06  2.603185E+05  1.744867E+05 -1.905777E+05  2.180300E+04 -8.548088E+04
       222   2  2.096385E+06  2.989031E+05  2.047369E+05 -1.753056E+05  1.035555E+04 -9.500211E+04
       222   3  2.261718E+06  3.403547E+05  2.431926E+05 -1.913452E+05 -1.092217E+03 -9.987443E+04
       222   4  8.002228E+05 -3.698419E+02  2.492188E+03 -1.912508E+05 -1.844075E+03 -8.550523E+04
       222   5  7.997502E+05 -6.115496E+01  4.342718E+03 -1.755934E+05 -4.001631E+03 -9.502976E+04
       222   6  8.000793E+05  1.508231E+03  7.963537E+03 -1.912517E+05 -6.156451E+03 -9.990039E+04
       222   7 -3.317572E+05 -2.611193E+05 -1.695271E+05 -1.919225E+05 -2.544978E+04 -8.552956E+04
       222   8 -4.952087E+05 -2.991069E+05 -1.960890E+05 -1.758807E+05 -1.833004E+04 -9.505743E+04
       222   9 -6.594449E+05 -3.374458E+05 -2.273231E+05 -1.911587E+05 -1.120921E+04 -9.992639E+04
       222  10  1.933485E+06  2.603105E+05  1.744720E+05 -1.905762E+05 -1.556688E-09  1.101042E-09
       222  11  2.096382E+06  2.988934E+05  2.047198E+05 -1.753048E+05  2.328064E-09  1.067052E-09
       222  12  2.261716E+06  3.403440E+05  2.431738E+05 -1.913452E+05  1.270302E-09 -7.495060E-10
       222  13  8.002208E+05 -3.776967E+02  2.478437E+03 -1.912509E+05  8.366988E-12  7.494265E-11
       222  14  7.997477E+05 -7.086037E+01  4.325711E+03 -1.755937E+05 -2.936548E-10  2.614670E-10
       222  15  8.000766E+05  1.497500E+03  7.944704E+03 -1.912522E+05  1.545757E-09 -1.746793E-10
       222  16 -3.317599E+05 -2.611273E+05 -1.695421E+05 -1.919243E+05  9.956771E-10 -6.075718E-10
       222  17 -4.952115E+05 -2.991167E+05 -1.961067E+05 -1.758821E+05 -8.991097E-10  1.435734E-09
       222  18 -6.594477E+05 -3.374565E+05 -2.273421E+05 -1.911596E+05 -1.065235E-10  7.208819E-10
       222  19  1.933487E+06  2.603185E+05  1.744867E+05 -1.905777E+05 -2.180300E+04  8.548088E+04
       222  20  2.096385E+06  2.989031E+05  2.047369E+05 -1.753056E+05 -1.035555E+04  9.500211E+04
       222  21  2.261718E+06  3.403547E+05  2.431926E+05 -1.913452E+05  1.092217E+03  9.987443E+04
       222  22  8.002228E+05 -3.698419E+02  2.492188E+03 -1.912508E+05  1.844075E+03  8.550523E+04
       222  23  7.997502E+05 -6.115496E+01  4.342718E+03 -1.755934E+05  4.001631E+03  9.502976E+04
       222  24  8.000793E+05  1.508231E+03  7.963537E+03 -1.912517E+05  6.156451E+03  9.990039E+04
       222  25 -3.317572E+05 -2.611193E+05 -1.695271E+05 -1.919225E+05  2.544978E+04  8.552956E+04
       222  26 -4.952087E+05 -2.991069E+05 -1.960890E+05 -1.758807E+05  1.833004E+04  9.505743E+04
       222  27 -6.594449E+05 -3.374458E+05 -2.273231E+05 -1.911587E+05  1.120921E+04  9.992639E+04
       223   1  2.369243E+06  3.663236E+05  2.681273E+05 -1.887920E+05 -1.212292E+03 -1.031177E+05
       223   2  2.523744E+06  4.179613E+05  3.393917E+05 -1.863872E+05 -9.511172E+04 -8.536865E+04
       223   3  2.698940E+06  5.022513E+05  4.798669E+05 -2.124684E+05 -1.891295E+05 -2.560686E+04
       223   4  8.012105E+05  1.788714E+03  1.057820E+04 -1.906164E+05 -7.526075E+03 -1.031476E+05
       223   5  7.980366E+05  9.521760E+03  1.936559E+04 -1.763945E+05 -1.742208E+04 -8.529657E+04
       223   6  8.010162E+05  3.539975E+04  3.918124E+04 -1.906539E+05 -2.740470E+04 -2.538285E+04
       223   7 -7.643959E+05 -3.628722E+05 -2.470423E+05 -1.924362E+05 -1.382449E+04 -1.031774E+05
       223   8 -9.247825E+05 -3.990845E+05 -3.007634E+05 -1.664307E+05  6.005790E+04 -8.522193E+04
       223   9 -1.093536E+06 -4.316893E+05 -4.016483E+05 -1.689070E+05  1.338310E+05 -2.514722E+04
       223  10  2.369240E+06  3.663122E+05  2.681073E+05 -1.887921E+05 -1.162225E-09 -2.607829E-09
       223  11  2.523733E+06  4.179511E+05  3.393610E+05 -1.863937E+05 -2.722347E-09 -4.868599E-09
       223  12  2.698901E+06  5.022411E+05  4.797987E+05 -2.124723E+05 -5.734883E-09 -1.459945E-09
       223  13  8.012076E+05  1.777270E+03  1.055809E+04 -1.906170E+05  2.501285E-10 -5.368234E-09
       223  14  7.980343E+05  9.513863E+03  1.935135E+04 -1.763957E+05  2.342889E-09  1.938316E-09
       223  15  8.010152E+05  3.539886E+04  3.917861E+04 -1.906545E+05 -2.053880E-09 -5.124670E-10
       223  16 -7.643990E+05 -3.628837E+05 -2.470627E+05 -1.924373E+05  6.298026E-10 -6.668611E-10
       223  17 -9.247883E+05 -3.990933E+05 -3.007838E+05 -1.664266E+05 -1.036411E-09  1.257707E-09
       223  18 -1.093556E+06 -4.316948E+05 -4.016832E+05 -1.689043E+05  3.583616E-09 -1.814267E-09
       223  19  2.369243E+06  3.663236E+05  2.681273E+05 -1.887920E+05  1.212292E+03  1.031177E+05
       223  20  2.523744E+06  4.179613E+05  3.393917E+05 -1.863872E+05  9.511172E+04  8.536865E+04
       223  21  2.698940E+06  5.022513E+05  4.798669E+05 -2.124684E+05  1.891295E+05  2.560686E+04
       223  22  8.012105E+05  1.788714E+03  1.057820E+04 -1.906164E+05  7.526075E+03  1.031476E+05
       223  23  7.980366E+05  9.521760E+03  1.936559E+04 -1.763945E+05  1.742208E+04  8.529657E+04
       223  24  8.010162E+05  3.539975E+04  3.918124E+04 -1.906539E+05  2.740470E+04  2.538285E+04
       223  25 -7.643959E+05 -3.628722E+05 -2.470423E+05 -1.924362E+05  1.382449E+04  1.031774E+05
       223  26 -9.247825E+05 -3.990845E+05 -3.007634E+05 -1.664307E+05 -6.005790E+04  8.522193E+04
       223  27 -1.093536E+06 -4.316893E+05 -4.016483E+05 -1.689070E+05 -1.338310E+05  2.514722E+04
       224   1  5.726277E+05  2.381460E+06  5.492439E+05 -7.021085E+05  2.210862E+04  1.554349E+05
       224   2  3.962550E+05  1.786002E+06  3.324283E+05 -6.389837E+05  6.652061E+04  4.584239E+04
       224   3  2.501773E+05  1.212513E+06  1.943212E+05 -6.845612E+05  5.972685E+04 -6.369631E+04
       224   4  2.583766E+04  1.679627E+05  2.581862E+04 -6.827401E+05  2.244549E+04  1.608681E+04
       224   5  9.031617E+03  1.662893E+05  1.438553E+04 -6.284084E+05  6.662980E+04  8.854085E+03
       224   6  4.851313E+03  1.685848E+05  1.077098E+04 -6.827886E+05  5.954977E+04  1.569987E+03
       224   7 -5.212917E+05 -2.041002E+06 -4.978734E+05 -6.634361E+05  2.277451E+04 -1.227686E+05
       224   8 -3.783490E+05 -1.450912E+06 -3.037792E+05 -6.178585E+05  6.673794E+04 -2.804002E+04
       224   9 -2.405319E+05 -8.742697E+05 -1.728029E+05 -6.810179E+05  5.937286E+04  6.672995E+04
       224  10  5.726207E+05  2.381434E+06  5.491978E+05 -7.021113E+05 -1.271935E-09  6.191563E-10
       224  11  3.962497E+05  1.785999E+06  3.324160E+05 -6.389862E+05 -4.909069E-10  2.683187E-09
       224  12  2.501724E+05  1.212508E+06  1.943069E+05 -6.845581E+05 -8.431491E-10 -2.606908E-10
       224  13  2.583705E+04  1.679623E+05  2.581718E+04 -6.827404E+05 -7.332875E-10 -2.095177E-11
       224  14  9.026828E+03  1.662880E+05  1.437704E+04 -6.284089E+05 -1.959410E-09 -7.522095E-10
       224  15  4.847504E+03  1.685839E+05  1.076431E+04 -6.827887E+05 -7.785044E-10 -3.037449E-09
       224  16 -5.212963E+05 -2.041018E+06 -4.979027E+05 -6.634339E+05 -1.289982E-09 -8.741902E-10
       224  17 -3.783540E+05 -1.450914E+06 -3.037890E+05 -6.178570E+05  1.055269E-09 -3.920360E-09
       224  18 -2.405369E+05 -8.742754E+05 -1.728179E+05 -6.810211E+05  3.879789E-10  1.008744E-09
       224  19  5.726277E+05  2.381460E+06  5.492439E+05 -7.021085E+05 -2.210862E+04 -1.554349E+05
       224  20  3.962550E+05  1.786002E+06  3.324283E+05 -6.389837E+05 -6.652061E+04 -4.584239E+04
       224  21  2.501773E+05  1.212513E+06  1.943212E+05 -6.845612E+05 -5.972685E+04  6.369631E+04
       224  22  2.583766E+04  1.679627E+05  2.581862E+04 -6.827401E+05 -2.244549E+04 -1.608681E+04
       224  23  9.031617E+03  1.662893E+05  1.438553E+04 -6.284084E+05 -6.662980E+04 -8.854085E+03
       224  24  4.851313E+03  1.685848E+05  1.077098E+04 -6.827886E+05 -5.954977E+04 -1.569987E+03
       224  25 -5.212917E+05 -2.041002E+06 -4.978734E+05 -6.634361E+05 -2.277451E+04  1.227686E+05
       224  26 -3.783490E+05 -1.450912E+06 -3.037792E+05 -6.178585E+05 -6.673794E+04  2.804002E+04
       224  27 -2.405319E+05 -8.742697E+05 -1.728029E+05 -6.810179E+05 -5.937286E+04 -6.672995E+04
       225   1  1.625556E+05  8.395071E+05  1.282228E+05 -6.860157E+05  3.873678E+04 -6.406174E+04
       225   2  2.470911E+04  2.549543E+05  2.608497E+04 -6.270023E+05  6.507779E+03 -7.113247E+04
       225   3 -1.088872E+05 -3.277101E+05 -7.053244E+04 -6.799481E+05 -2.613872E+04 -7.819959E+04
       225   4  4.799947E+03  1.681344E+05  1.046589E+04 -6.835073E+05  3.855335E+04 -1.887872E+02
       225   5  4.476372E+03  1.674469E+05  1.237883E+04 -6.275240E+05  6.320603E+03 -6.454455E+03
       225   6  8.276469E+03  1.681682E+05  1.924452E+04 -6.834983E+05 -2.633010E+04 -1.272271E+04
       225   7 -1.529781E+05 -5.027888E+05 -1.072919E+05 -6.810012E+05  3.837031E+04  6.361723E+04
       225   8 -1.575450E+04  7.995619E+04 -1.311777E+03 -6.280456E+05  6.133299E+03  5.821478E+04
       225   9  1.254287E+05  6.642950E+05  1.090279E+05 -6.870511E+05 -2.652212E+04  5.280505E+04
       225  10  1.625529E+05  8.395023E+05  1.282123E+05 -6.860137E+05 -4.621175E-10  9.818269E-10
       225  11  2.470771E+04  2.549488E+05  2.607539E+04 -6.270020E+05  1.882302E-09  2.543457E-09
       225  12 -1.088896E+05 -3.277168E+05 -7.054523E+04 -6.799498E+05 -9.282080E-11 -7.551386E-10
       225  13  4.798351E+03  1.681340E+05  1.046309E+04 -6.835073E+05 -2.373061E-10  1.364324E-10
       225  14  4.476318E+03  1.674469E+05  1.237868E+04 -6.275240E+05 -6.943637E-10 -7.928704E-10
       225  15  8.275680E+03  1.681678E+05  1.924291E+04 -6.834986E+05  3.402096E-10 -3.105801E-09
       225  16 -1.529807E+05 -5.027936E+05 -1.073023E+05 -6.810032E+05  3.596718E-10 -8.930253E-10
       225  17 -1.575545E+04  7.995254E+04 -1.318217E+03 -6.280459E+05 -2.729742E-09 -4.896437E-09
       225  18  1.254272E+05  6.642918E+05  1.090213E+05 -6.870500E+05 -1.084718E-09  1.762355E-09
       225  19  1.625556E+05  8.395071E+05  1.282228E+05 -6.860157E+05 -3.873678E+04  6.406174E+04
       225  20  2.470911E+04  2.549543E+05  2.608497E+04 -6.270023E+05 -6.507779E+03  7.113247E+04
       225  21 -1.088872E+05 -3.277101E+05 -7.053244E+04 -6.799481E+05  2.613872E+04  7.819959E+04
       225  22  4.799947E+03  1.681344E+05  1.046589E+04 -6.835073E+05 -3.855335E+04  1.887872E+02
       225  23  4.476372E+03  1.674469E+05  1.237883E+04 -6.275240E+05 -6.320603E+03  6.454455E+03
       225  24  8.276469E+03  1.681682E+05  1.924452E+04 -6.834983E+05  2.633010E+04  1.272271E+04
       225  25 -1.529781E+05 -5.027888E+05 -1.072919E+05 -6.810012E+05 -3.837031E+04 -6.361723E+04
       225  26 -1.575450E+04  7.995619E+04 -1.311777E+03 -6.280456E+05 -6.133299E+03 -5.821478E+04
       225  27  1.254287E+05  6.642950E+05  1.090279E+05 -6.870511E+05  2.652212E+04 -5.280505E+04
       226   1 -1.956739E+05 -6.970503E+05 -1.304294E+05 -6.823952E+05 -4.747668E+04 -8.277646E+04
       226   2 -3.205733E+05 -1.278756E+06 -2.426768E+05 -5.999563E+05 -5.748466E+04 -1.066668E+04
       226   3 -4.211692E+05 -1.863629E+06 -3.959166E+05 -6.265429E+05 -2.001273E+04  6.142736E+04
       226   4  8.936563E+03  1.706244E+05  2.466475E+04 -6.828500E+05 -4.766400E+04 -1.607961E+04
       226   5  2.558159E+04  1.639025E+05  4.366649E+04 -6.282723E+05 -5.740054E+04 -3.842060E+04
       226   6  8.291221E+04  1.700645E+05  8.728956E+04 -6.826782E+05 -1.971440E+04 -6.070893E+04
       226   7  2.135076E+05  1.039044E+06  1.797470E+05 -6.833046E+05 -4.785124E+04  5.070789E+04
       226   8  3.716127E+05  1.608557E+06  3.299098E+05 -6.566533E+05 -5.731402E+04 -6.623771E+04
       226   9  5.867148E+05  2.207601E+06  5.702646E+05 -7.389946E+05 -1.939461E+04 -1.832440E+05
       226  10 -1.956781E+05 -6.970583E+05 -1.304466E+05 -6.823983E+05  2.350311E-09  2.838969E-09
       226  11 -3.205769E+05 -1.278757E+06 -2.426832E+05 -5.999568E+05  2.619888E-09  2.895661E-09
       226  12 -4.211706E+05 -1.863633E+06 -3.959245E+05 -6.265419E+05  2.714058E-10 -1.476457E-09
       226  13  8.934053E+03  1.706235E+05  2.465999E+04 -6.828506E+05  1.280645E-09  8.625672E-11
       226  14  2.557765E+04  1.639000E+05  4.365752E+04 -6.282740E+05 -9.104539E-10 -8.303481E-10
       226  15  8.291080E+04  1.700605E+05  8.728190E+04 -6.826792E+05  4.645565E-10 -2.475561E-09
       226  16  2.135045E+05  1.039040E+06  1.797379E+05 -6.833026E+05 -1.441080E-10 -2.529603E-09
       226  17  3.716080E+05  1.608551E+06  3.298954E+05 -6.566563E+05  5.873871E-10 -4.326994E-09
       226  18  5.867054E+05  2.207565E+06  5.702010E+05 -7.389974E+05 -2.517155E-10  2.358073E-09
       226  19 -1.956739E+05 -6.970503E+05 -1.304294E+05 -6.823952E+05  4.747668E+04  8.277646E+04
       226  20 -3.205733E+05 -1.278756E+06 -2.426768E+05 -5.999563E+05  5.748466E+04  1.066668E+04
       226  21 -4.211692E+05 -1.863629E+06 -3.959166E+05 -6.265429E+05  2.001273E+04 -6.142736E+04
       226  22  8.936563E+03  1.706244E+05  2.466475E+04 -6.828500E+05  4.766400E+04  1.607961E+04
       226  23  2.558159E+04  1.639025E+05  4.366649E+04 -6.282723E+05  5.740054E+04  3.842060E+04
       226  24  8.291221E+04  1.700645E+05  8.728956E+04 -6.826782E+05  1.971440E+04  6.070893E+04
       226  25  2.135076E+05  1.039044E+06  1.797470E+05 -6.833046E+05  4.785124E+04 -5.070789E+04
       226  26  3.716127E+05  1.608557E+06  3.299098E+05 -6.566533E+05  5.731402E+04  6.623771E+04
       226  27  5.867148E+05  2.207601E+06  5.702646E+05 -7.389946E+05  1.939461E+04  1.832440E+05
       227   1 -1.148631E+06 -5.669528E+05 -3.213769E+05 -4.763489E+05 -1.470213E+05 -4.212646E+04
       227   2 -1.073737E+06 -4.298585E+05 -2.003942E+05 -4.451826E+05 -9.175846E+04  9.073626E+03
       227   3 -1.017977E+06 -3.628336E+05 -1.438728E+05 -4.142046E+05 -2.893281E+04  4.022237E+04
       227   4 -3.853116E+05 -2.196314E+05 -1.143892E+05 -2.045690E+05 -7.876044E+04 -1.647345E+04
       227   5 -3.732637E+05 -1.446688E+05 -5.386549E+04 -2.208639E+05 -6.081682E+04  2.069648E+04
       227   6 -3.729211E+05 -1.323385E+05 -2.816488E+04 -2.373595E+05 -3.532501E+04  3.781491E+04
       227   7  3.785853E+05  1.278093E+05  9.256303E+04  6.753952E+04 -1.040908E+04  9.230560E+03
       227   8  3.277177E+05  1.405960E+05  9.264041E+04  3.700385E+03 -2.983784E+04  3.233704E+04
       227   9  2.725778E+05  9.819516E+04  8.753028E+04 -6.034281E+04 -4.172435E+04  3.540486E+04
       227  10 -1.148655E+06 -5.669605E+05 -3.214209E+05 -4.763539E+05  2.466106E-09 -1.983820E-11
       227  11 -1.073746E+06 -4.298609E+05 -2.004102E+05 -4.451819E+05 -1.098738E-09 -6.008000E-11
       227  12 -1.017978E+06 -3.628356E+05 -1.438774E+05 -4.142037E+05 -1.228985E-09 -3.010769E-11
       227  13 -3.853183E+05 -2.196333E+05 -1.144014E+05 -2.045701E+05 -7.743471E-10  3.976748E-11
       227  14 -3.732677E+05 -1.446702E+05 -5.387325E+04 -2.208629E+05 -1.354409E-09  1.049504E-09
       227  15 -3.729228E+05 -1.323404E+05 -2.816991E+04 -2.373584E+05 -1.555450E-09 -1.291665E-09
       227  16  3.785852E+05  1.278092E+05  9.256267E+04  6.753960E+04 -6.888399E-10 -5.965216E-10
       227  17  3.277165E+05  1.405946E+05  9.263677E+04  3.701162E+03 -1.023708E-09  5.619244E-11
       227  18  2.725756E+05  9.819335E+04  8.752465E+04 -6.034162E+04  1.914275E-10  8.652057E-11
       227  19 -1.148631E+06 -5.669528E+05 -3.213769E+05 -4.763489E+05  1.470213E+05  4.212646E+04
       227  20 -1.073737E+06 -4.298585E+05 -2.003942E+05 -4.451826E+05  9.175846E+04 -9.073626E+03
       227  21 -1.017977E+06 -3.628336E+05 -1.438728E+05 -4.142046E+05  2.893281E+04 -4.022237E+04
       227  22 -3.853116E+05 -2.196314E+05 -1.143892E+05 -2.045690E+05  7.876044E+04  1.647345E+04
       227  23 -3.732637E+05 -1.446688E+05 -5.386549E+04 -2.208639E+05  6.081682E+04 -2.069648E+04
       227  24 -3.729211E+05 -1.323385E+05 -2.816488E+04 -2.373595E+05  3.532501E+04 -3.781491E+04
       227  25  3.785853E+05  1.278093E+05  9.256303E+04  6.753952E+04  1.040908E+04 -9.230560E+03
       227  26  3.277177E+05  1.405960E+05  9.264041E+04  3.700385E+03  2.983784E+04 -3.233704E+04
       227  27  2.725778E+05  9.819516E+04  8.753028E+04 -6.034281E+04  4.172435E+04 -3.540486E+04
       228   1 -9.571256E+05 -3.469716E+05 -1.254808E+05 -4.030717E+05 -2.656430E+04  3.827133E+04
       228   2 -8.809115E+05 -3.054000E+05 -9.756475E+04 -3.733701E+05 -1.606743E+04  3.825586E+04
       228   3 -7.951160E+05 -2.799776E+05 -7.752508E+04 -3.569908E+05 -4.839014E+03  3.629182E+04
       228   4 -3.694657E+05 -1.320841E+05 -2.107918E+04 -2.364198E+05 -3.122034E+04  3.651721E+04
       228   5 -3.742490E+05 -1.218840E+05 -1.104710E+04 -2.306848E+05 -2.434769E+04  3.514189E+04
       228   6 -3.687361E+05 -1.271124E+05 -6.012731E+03 -2.382745E+05 -1.674502E+04  3.181837E+04
       228   7  2.185531E+05  8.283634E+04  8.330956E+04 -6.962142E+04 -3.588103E+04  3.476130E+04
       228   8  1.326869E+05  6.165812E+04  7.546378E+04 -8.789009E+04 -3.263514E+04  3.202518E+04
       228   9  5.784262E+04  2.577250E+04  6.549688E+04 -1.194806E+05 -2.865985E+04  2.734164E+04
       228  10 -9.571267E+05 -3.469733E+05 -1.254849E+05 -4.030709E+05  2.771273E-09 -2.117969E-11
       228  11 -8.809122E+05 -3.054016E+05 -9.756798E+04 -3.733696E+05  6.745365E-10 -8.942845E-10
       228  12 -7.951164E+05 -2.799790E+05 -7.752760E+04 -3.569906E+05  6.375842E-11 -1.773858E-09
       228  13 -3.694671E+05 -1.320858E+05 -2.108352E+04 -2.364189E+05 -9.478026E-10 -4.530063E-10
       228  14 -3.742500E+05 -1.218855E+05 -1.105053E+04 -2.306841E+05 -1.916287E-09 -3.450090E-09
       228  15 -3.687367E+05 -1.271136E+05 -6.015160E+03 -2.382741E+05 -1.993574E-10 -1.206689E-09
       228  16  2.185514E+05  8.283470E+04  8.330487E+04 -6.962041E+04 -3.009724E-09 -8.116344E-10
       228  17  1.326855E+05  6.165673E+04  7.545985E+04 -8.788925E+04 -1.275525E-09  6.056279E-10
       228  18  5.784154E+04  2.577148E+04  6.549393E+04 -1.194800E+05 -1.796523E-10 -1.612208E-09
       228  19 -9.571256E+05 -3.469716E+05 -1.254808E+05 -4.030717E+05  2.656430E+04 -3.827133E+04
       228  20 -8.809115E+05 -3.054000E+05 -9.756475E+04 -3.733701E+05  1.606743E+04 -3.825586E+04
       228  21 -7.951160E+05 -2.799776E+05 -7.752508E+04 -3.569908E+05  4.839014E+03 -3.629182E+04
       228  22 -3.694657E+05 -1.320841E+05 -2.107918E+04 -2.364198E+05  3.122034E+04 -3.651721E+04
       228  23 -3.742490E+05 -1.218840E+05 -1.104710E+04 -2.306848E+05  2.434769E+04 -3.514189E+04
       228  24 -3.687361E+05 -1.271124E+05 -6.012731E+03 -2.382745E+05  1.674502E+04 -3.181837E+04
       228  25  2.185531E+05  8.283634E+04  8.330956E+04 -6.962142E+04  3.588103E+04 -3.476130E+04
       228  26  1.326869E+05  6.165812E+04  7.546378E+04 -8.789009E+04  3.263514E+04 -3.202518E+04
       228  27  5.784262E+04  2.577250E+04  6.549688E+04 -1.194806E+05  2.865985E+04 -2.734164E+04
       229   1 -7.421402E+05 -2.613591E+05 -6.676309E+04 -3.426177E+05 -2.765128E+03  3.277142E+04
       229   2 -6.663327E+05 -2.255757E+05 -5.096580E+04 -3.127506E+05  1.229098E+03  2.697259E+04
       229   3 -5.785189E+05 -2.023483E+05 -3.641499E+04 -2.969375E+05  5.293451E+03  2.098314E+04
       229   4 -3.684262E+05 -1.271247E+05 -4.512675E+03 -2.381823E+05 -1.450644E+04  2.836099E+04
       229   5 -3.744370E+05 -1.207752E+05 -2.478261E+03 -2.311904E+05 -1.086697E+04  2.243046E+04
       229   6 -3.683786E+05 -1.269116E+05 -1.409191E+03 -2.382546E+05 -7.157624E+03  1.630930E+04
       229   7  5.437124E+03  7.123755E+03  5.773486E+04 -1.336880E+05 -2.625525E+04  2.394776E+04
       229   8 -8.245164E+04 -1.596678E+04  4.600737E+04 -1.495947E+05 -2.296901E+04  1.788611E+04
       229   9 -1.581932E+05 -5.147129E+04  3.359553E+04 -1.795535E+05 -1.961304E+04  1.163384E+04
       229  10 -7.421405E+05 -2.613603E+05 -6.676512E+04 -3.426176E+05  2.591599E-09 -1.590681E-10
       229  11 -6.663329E+05 -2.255765E+05 -5.096717E+04 -3.127506E+05  1.902260E-09 -4.735096E-10
       229  12 -5.785191E+05 -2.023488E+05 -3.641587E+04 -2.969376E+05 -3.550046E-10  1.833726E-09
       229  13 -3.684266E+05 -1.271256E+05 -4.514581E+03 -2.381820E+05  4.173777E-10 -1.419223E-09
       229  14 -3.744372E+05 -1.207758E+05 -2.479428E+03 -2.311902E+05 -1.010770E-09 -1.268463E-09
       229  15 -3.683787E+05 -1.269119E+05 -1.409787E+03 -2.382545E+05 -3.108657E-09  6.403628E-10
       229  16  5.436230E+03  7.122955E+03  5.773249E+04 -1.336875E+05 -3.509342E-09 -2.018394E-09
       229  17 -8.245229E+04 -1.596726E+04  4.600578E+04 -1.495943E+05 -2.807791E-09 -1.977866E-09
       229  18 -1.581936E+05 -5.147154E+04  3.359455E+04 -1.795533E+05 -2.492952E-10 -6.707349E-10
       229  19 -7.421402E+05 -2.613591E+05 -6.676309E+04 -3.426177E+05  2.765128E+03 -3.277142E+04
       229  20 -6.663327E+05 -2.255757E+05 -5.096580E+04 -3.127506E+05 -1.229098E+03 -2.697259E+04
       229  21 -5.785189E+05 -2.023483E+05 -3.641499E+04 -2.969375E+05 -5.293451E+03 -2.098314E+04
       229  22 -3.684262E+05 -1.271247E+05 -4.512675E+03 -2.381823E+05  1.450644E+04 -2.836099E+04
       229  23 -3.744370E+05 -1.207752E+05 -2.478261E+03 -2.311904E+05  1.086697E+04 -2.243046E+04
       229  24 -3.683786E+05 -1.269116E+05 -1.409191E+03 -2.382546E+05  7.157624E+03 -1.630930E+04
       229  25  5.437124E+03  7.123755E+03  5.773486E+04 -1.336880E+05  2.625525E+04 -2.394776E+04
       229  26 -8.245164E+04 -1.596678E+04  4.600737E+04 -1.495947E+05  2.296901E+04 -1.788611E+04
       229  27 -1.581932E+05 -5.147129E+04  3.359553E+04 -1.795535E+05  1.961304E+04 -1.163384E+04
       230   1 -5.261273E+05 -1.835111E+05 -2.703129E+04 -2.823450E+05  6.947658E+03  1.716181E+04
       230   2 -4.503969E+05 -1.480075E+05 -1.328509E+04 -2.524166E+05  9.845696E+03  1.062660E+04
       230   3 -3.624112E+05 -1.248208E+05  1.695910E+02 -2.365687E+05  1.274967E+04  4.074489E+03
       230   4 -3.683412E+05 -1.269161E+05 -1.096567E+03 -2.382433E+05 -5.489356E+03  1.249382E+04
       230   5 -3.744647E+05 -1.207595E+05 -7.184764E+02 -2.312005E+05 -2.623582E+03  5.946870E+03
       230   6 -3.683358E+05 -1.269150E+05 -6.075518E+02 -2.382414E+05  2.480633E+02 -6.169820E+02
       230   7 -2.105262E+05 -7.031774E+04  2.483874E+04 -1.941306E+05 -1.792986E+04  7.824528E+03
       230   8 -2.985255E+05 -9.351065E+04  1.184879E+04 -2.099818E+05 -1.509455E+04  1.266512E+03
       230   9 -3.742602E+05 -1.290091E+05 -1.384024E+03 -2.399141E+05 -1.225342E+04 -5.308408E+03
       230  10 -5.261275E+05 -1.835114E+05 -2.703194E+04 -2.823451E+05  5.853524E-08  2.469984E-08
       230  11 -4.503971E+05 -1.480076E+05 -1.328548E+04 -2.524167E+05  3.618280E-09  4.486831E-09
       230  12 -3.624113E+05 -1.248208E+05  1.692541E+02 -2.365687E+05 -5.406089E-08 -1.695533E-08
       230  13 -3.683412E+05 -1.269162E+05 -1.096917E+03 -2.382433E+05  1.053541E-09  1.821369E-09
       230  14 -3.744647E+05 -1.207595E+05 -7.185558E+02 -2.312005E+05  3.367669E-09  3.420968E-09
       230  15 -3.683358E+05 -1.269150E+05 -6.075526E+02 -2.382414E+05  1.096948E-09  3.806701E-09
       230  16 -2.105266E+05 -7.031790E+04  2.483802E+04 -1.941305E+05 -5.730659E-08 -2.125187E-08
       230  17 -2.985258E+05 -9.351071E+04  1.184835E+04 -2.099818E+05  1.831634E-09  2.556470E-09
       230  18 -3.742603E+05 -1.290091E+05 -1.384360E+03 -2.399141E+05  5.668194E-08  2.330916E-08
       230  19 -5.261273E+05 -1.835111E+05 -2.703129E+04 -2.823450E+05 -6.947658E+03 -1.716181E+04
       230  20 -4.503969E+05 -1.480075E+05 -1.328509E+04 -2.524166E+05 -9.845696E+03 -1.062660E+04
       230  21 -3.624112E+05 -1.248208E+05  1.695910E+02 -2.365687E+05 -1.274967E+04 -4.074489E+03
       230  22 -3.683412E+05 -1.269161E+05 -1.096567E+03 -2.382433E+05  5.489356E+03 -1.249382E+04
       230  23 -3.744647E+05 -1.207595E+05 -7.184764E+02 -2.312005E+05  2.623582E+03 -5.946870E+03
       230  24 -3.683358E+05 -1.269150E+05 -6.075518E+02 -2.382414E+05 -2.480633E+02  6.169820E+02
       230  25 -2.105262E+05 -7.031774E+04  2.483874E+04 -1.941306E+05  1.792986E+04 -7.824528E+03
       230  26 -2.985255E+05 -9.351065E+04  1.184879E+04 -2.099818E+05  1.509455E+04 -1.266512E+03
       230  27 -3.742602E+05 -1.290091E+05 -1.384024E+03 -2.399141E+05  1.225342E+04  5.308408E+03
       231   1 -3.100709E+05 -1.059645E+05  9.197590E+03 -2.219629E+05  1.431923E+04  2.090407E+02
       231   2 -2.343303E+05 -7.046874E+04  2.231175E+04 -1.920341E+05  1.722809E+04 -6.339014E+03
       231   3 -1.463350E+05 -4.728078E+04  3.513209E+04 -1.761870E+05  2.013056E+04 -1.286807E+04
       231   4 -3.683395E+05 -1.269153E+05 -6.334368E+02 -2.382423E+05  1.817184E+03 -4.482682E+03
       231   5 -3.744637E+05 -1.207576E+05 -8.622549E+02 -2.312016E+05  4.760260E+03 -1.101861E+04
       231   6 -3.683468E+05 -1.269152E+05 -1.412286E+03 -2.382456E+05  7.696901E+03 -1.753559E+04
       231   7 -4.266034E+05 -1.478654E+05 -1.046371E+04 -2.545200E+05 -1.068348E+04 -9.173887E+03
       231   8 -5.145758E+05 -1.710443E+05 -2.403606E+04 -2.703609E+05 -7.704588E+03 -1.569709E+04
       231   9 -5.903080E+05 -2.065454E+05 -3.795780E+04 -3.002840E+05 -4.732173E+03 -2.220140E+04
       231  10 -3.100711E+05 -1.059646E+05  9.197205E+03 -2.219629E+05  5.414020E-08  2.441487E-08
       231  11 -2.343306E+05 -7.046886E+04  2.231111E+04 -1.920340E+05  1.055615E-08  6.085213E-09
       231  12 -1.463355E+05 -4.728106E+04  3.513101E+04 -1.761868E+05 -4.516829E-08 -1.861184E-08
       231  13 -3.683395E+05 -1.269153E+05 -6.334808E+02 -2.382423E+05  3.364378E-09  4.909691E-09
       231  14 -3.744638E+05 -1.207577E+05 -8.625256E+02 -2.312016E+05  1.034032E-08  6.387523E-09
       231  15 -3.683470E+05 -1.269155E+05 -1.412975E+03 -2.382455E+05  4.510659E-09  1.682120E-09
       231  16 -4.266036E+05 -1.478655E+05 -1.046408E+04 -2.545201E+05 -4.623990E-08 -1.529914E-08
       231  17 -5.145759E+05 -1.710446E+05 -2.403663E+04 -2.703610E+05  1.042625E-08  6.480248E-09
       231  18 -5.903082E+05 -2.065459E+05 -3.795877E+04 -3.002841E+05  5.418121E-08  2.238042E-08
       231  19 -3.100709E+05 -1.059645E+05  9.197590E+03 -2.219629E+05 -1.431923E+04 -2.090407E+02
       231  20 -2.343303E+05 -7.046874E+04  2.231175E+04 -1.920341E+05 -1.722809E+04  6.339014E+03
       231  21 -1.463350E+05 -4.728078E+04  3.513209E+04 -1.761870E+05 -2.013056E+04  1.286807E+04
       231  22 -3.683395E+05 -1.269153E+05 -6.334368E+02 -2.382423E+05 -1.817184E+03  4.482682E+03
       231  23 -3.744637E+05 -1.207576E+05 -8.622549E+02 -2.312016E+05 -4.760260E+03  1.101861E+04
       231  24 -3.683468E+05 -1.269152E+05 -1.412286E+03 -2.382456E+05 -7.696901E+03  1.753559E+04
       231  25 -4.266034E+05 -1.478654E+05 -1.046371E+04 -2.545200E+05  1.068348E+04  9.173887E+03
       231  26 -5.145758E+05 -1.710443E+05 -2.403606E+04 -2.703609E+05  7.704588E+03  1.569709E+04
       231  27 -5.903080E+05 -2.065454E+05 -3.795780E+04 -3.002840E+05  4.732173E+03  2.220140E+04
       232   1 -9.401372E+04 -2.844383E+04  4.376927E+04 -1.616258E+05  2.187609E+04 -1.665187E+04
       232   2 -1.825442E+04  7.059006E+03  5.581314E+04 -1.316598E+05  2.560682E+04 -2.275058E+04
       232   3  6.957622E+04  3.008303E+04  6.687455E+04 -1.157457E+05  2.926237E+04 -2.864385E+04
       232   4 -3.684002E+05 -1.269106E+05 -1.844754E+03 -2.382633E+05  9.426657E+03 -2.132610E+04
       232   5 -3.744257E+05 -1.207720E+05 -3.291230E+03 -2.311884E+05  1.353824E+04 -2.728366E+04
       232   6 -3.684620E+05 -1.271889E+05 -6.022639E+03 -2.381688E+05  1.757442E+04 -3.303577E+04
       232   7 -6.427060E+05 -2.253698E+05 -4.745992E+04 -3.148690E+05 -3.016927E+03 -2.599814E+04
       232   8 -7.304591E+05 -2.485893E+05 -6.239746E+04 -3.306628E+05  1.477077E+03 -3.181397E+04
       232   9 -8.062903E+05 -2.844397E+05 -7.892258E+04 -3.605096E+05  5.895355E+03 -3.742437E+04
       232  10 -9.401431E+04 -2.844426E+04  4.376785E+04 -1.616255E+05 -2.412412E-09 -3.937157E-09
       232  11 -1.825526E+04  7.058274E+03  5.581094E+04 -1.316593E+05  7.831901E-10 -2.212427E-09
       232  12  6.957508E+04  3.008192E+04  6.687140E+04 -1.157451E+05 -3.089913E-09 -1.207116E-09
       232  13 -3.684005E+05 -1.269112E+05 -1.845776E+03 -2.382632E+05 -2.648390E-10  2.506596E-10
       232  14 -3.744261E+05 -1.207728E+05 -3.292973E+03 -2.311881E+05 -4.112982E-10 -1.654247E-10
       232  15 -3.684626E+05 -1.271902E+05 -6.025270E+03 -2.381684E+05 -6.319492E-09 -2.019397E-09
       232  16 -6.427062E+05 -2.253705E+05 -4.746121E+04 -3.148690E+05  2.700440E-09  3.227263E-09
       232  17 -7.304594E+05 -2.485904E+05 -6.239937E+04 -3.306628E+05  7.407141E-10  9.018428E-10
       232  18 -8.062907E+05 -2.844413E+05 -7.892527E+04 -3.605094E+05 -7.576629E-09 -1.659740E-09
       232  19 -9.401372E+04 -2.844383E+04  4.376927E+04 -1.616258E+05 -2.187609E+04  1.665187E+04
       232  20 -1.825442E+04  7.059006E+03  5.581314E+04 -1.316598E+05 -2.560682E+04  2.275058E+04
       232  21  6.957622E+04  3.008303E+04  6.687455E+04 -1.157457E+05 -2.926237E+04  2.864385E+04
       232  22 -3.684002E+05 -1.269106E+05 -1.844754E+03 -2.382633E+05 -9.426657E+03  2.132610E+04
       232  23 -3.744257E+05 -1.207720E+05 -3.291230E+03 -2.311884E+05 -1.353824E+04  2.728366E+04
       232  24 -3.684620E+05 -1.271889E+05 -6.022639E+03 -2.381688E+05 -1.757442E+04  3.303577E+04
       232  25 -6.427060E+05 -2.253698E+05 -4.745992E+04 -3.148690E+05  3.016927E+03  2.599814E+04
       232  26 -7.304591E+05 -2.485893E+05 -6.239746E+04 -3.306628E+05 -1.477077E+03  3.181397E+04
       232  27 -8.062903E+05 -2.844397E+05 -7.892258E+04 -3.605096E+05 -5.895355E+03  3.742437E+04
       233   1  1.219769E+05  4.863548E+04  7.414156E+04 -1.016881E+05  3.195190E+04 -3.191717E+04
       233   2  1.966050E+05  8.461589E+04  8.253434E+04 -6.948530E+04  3.748530E+04 -3.589907E+04
       233   3  2.816545E+05  1.048650E+05  8.734404E+04 -5.038416E+04  4.223318E+04 -3.778345E+04
       233   4 -3.688654E+05 -1.271743E+05 -8.030297E+03 -2.382968E+05  2.008545E+04 -3.637749E+04
       233   5 -3.741703E+05 -1.222349E+05 -1.476414E+04 -2.305061E+05  2.952406E+04 -3.889502E+04
       233   6 -3.698379E+05 -1.338061E+05 -2.818028E+04 -2.358219E+05  3.817626E+04 -3.931411E+04
       233   7 -8.594563E+05 -3.029624E+05 -9.020918E+04 -3.748060E+05  8.228826E+03 -4.083415E+04
       233   8 -9.446024E+05 -3.290535E+05 -1.120722E+05 -3.913889E+05  2.157054E+04 -4.188803E+04
       233   9 -1.020882E+06 -3.724330E+05 -1.437183E+05 -4.210768E+05  3.412387E+04 -4.084303E+04
       233  10  1.219755E+05  4.863411E+04  7.413773E+04 -1.016873E+05 -1.100616E-08 -2.708118E-09
       233  11  1.966031E+05  8.461413E+04  8.252928E+04 -6.948422E+04 -2.619512E-09  7.321884E-10
       233  12  2.816522E+05  1.048630E+05  8.733801E+04 -5.038288E+04  1.573079E-09  5.211805E-10
       233  13 -3.688662E+05 -1.271758E+05 -8.033541E+03 -2.382962E+05 -7.426378E-09 -1.584660E-09
       233  14 -3.741717E+05 -1.222367E+05 -1.476862E+04 -2.305052E+05  2.591834E-10  6.139851E-10
       233  15 -3.698399E+05 -1.338081E+05 -2.818592E+04 -2.358206E+05  2.791685E-09  3.839505E-10
       233  16 -8.594568E+05 -3.029642E+05 -9.021244E+04 -3.748058E+05 -1.918259E-09  5.747331E-10
       233  17 -9.446034E+05 -3.290555E+05 -1.120764E+05 -3.913882E+05  2.139775E-09  6.018922E-10
       233  18 -1.020884E+06 -3.724351E+05 -1.437236E+05 -4.210757E+05  3.980372E-10 -8.088189E-11
       233  19  1.219769E+05  4.863548E+04  7.414156E+04 -1.016881E+05 -3.195190E+04  3.191717E+04
       233  20  1.966050E+05  8.461589E+04  8.253434E+04 -6.948530E+04 -3.748530E+04  3.589907E+04
       233  21  2.816545E+05  1.048650E+05  8.734404E+04 -5.038416E+04 -4.223318E+04  3.778345E+04
       233  22 -3.688654E+05 -1.271743E+05 -8.030297E+03 -2.382968E+05 -2.008545E+04  3.637749E+04
       233  23 -3.741703E+05 -1.222349E+05 -1.476414E+04 -2.305061E+05 -2.952406E+04  3.889502E+04
       233  24 -3.698379E+05 -1.338061E+05 -2.818028E+04 -2.358219E+05 -3.817626E+04  3.931411E+04
       233  25 -8.594563E+05 -3.029624E+05 -9.020918E+04 -3.748060E+05 -8.228826E+03  4.083415E+04
       233  26 -9.446024E+05 -3.290535E+05 -1.120722E+05 -3.913889E+05 -2.157054E+04  4.188803E+04
       233  27 -1.020882E+06 -3.724330E+05 -1.437183E+05 -4.210768E+05 -3.412387E+04  4.084303E+04
       234   1  3.360023E+05  1.187805E+05  8.934599E+04 -4.302825E+04  4.923967E+04 -3.786404E+04
       234   2  3.848309E+05  1.631519E+05  8.714100E+04  3.320281E+04  4.351462E+04 -3.130699E+04
       234   3  4.221445E+05  1.356642E+05  7.029712E+04  1.135729E+05  2.966465E+04 -3.166154E+03
       234   4 -3.743939E+05 -1.341989E+05 -3.765369E+04 -2.371462E+05  4.330775E+04 -4.010015E+04
       234   5 -3.729166E+05 -1.525983E+05 -7.201194E+04 -2.172951E+05  7.783473E+04 -1.840847E+04
       234   6 -3.909701E+05 -2.508935E+05 -1.529318E+05 -1.933034E+05  1.042297E+05  2.488023E+04
       234   7 -1.084258E+06 -3.871339E+05 -1.646698E+05 -4.310585E+05  3.738308E+04 -4.233365E+04
       234   8 -1.130050E+06 -4.682421E+05 -2.311862E+05 -4.674880E+05  1.121094E+05 -5.532454E+03
       234   9 -1.203381E+06 -6.372646E+05 -3.761876E+05 -4.997624E+05  1.786859E+05  5.286094E+04
       234  10  3.359993E+05  1.187783E+05  8.933874E+04 -4.302675E+04  2.864509E-09 -7.733640E-10
       234  11  3.848286E+05  1.631503E+05  8.713561E+04  3.320390E+04 -1.285741E-09 -1.907276E-09
       234  12  4.221435E+05  1.356640E+05  7.029544E+04  1.135730E+05 -3.107719E-09 -1.368672E-09
       234  13 -3.743964E+05 -1.342012E+05 -3.766023E+04 -2.371448E+05 -1.891817E-09 -1.140408E-09
       234  14 -3.729232E+05 -1.526003E+05 -7.202397E+04 -2.172939E+05  7.857190E-10 -1.040316E-10
       234  15 -3.909820E+05 -2.508971E+05 -1.529534E+05 -1.933055E+05 -4.412410E-10  1.868156E-09
       234  16 -1.084260E+06 -3.871362E+05 -1.646758E+05 -4.310572E+05 -1.247138E-09 -7.856598E-10
       234  17 -1.130064E+06 -4.682455E+05 -2.312099E+05 -4.674875E+05  8.922151E-11  1.122344E-09
       234  18 -1.203416E+06 -6.372762E+05 -3.762530E+05 -4.997700E+05  3.406384E-09  2.664945E-10
       234  19  3.360023E+05  1.187805E+05  8.934599E+04 -4.302825E+04 -4.923967E+04  3.786404E+04
       234  20  3.848309E+05  1.631519E+05  8.714100E+04  3.320281E+04 -4.351462E+04  3.130699E+04
       234  21  4.221445E+05  1.356642E+05  7.029712E+04  1.135729E+05 -2.966465E+04  3.166154E+03
       234  22 -3.743939E+05 -1.341989E+05 -3.765369E+04 -2.371462E+05 -4.330775E+04  4.010015E+04
       234  23 -3.729166E+05 -1.525983E+05 -7.201194E+04 -2.172951E+05 -7.783473E+04  1.840847E+04
       234  24 -3.909701E+05 -2.508935E+05 -1.529318E+05 -1.933034E+05 -1.042297E+05 -2.488023E+04
       234  25 -1.084258E+06 -3.871339E+05 -1.646698E+05 -4.310585E+05 -3.738308E+04  4.233365E+04
       234  26 -1.130050E+06 -4.682421E+05 -2.311862E+05 -4.674880E+05 -1.121094E+05  5.532454E+03
       234  27 -1.203381E+06 -6.372646E+05 -3.761876E+05 -4.997624E+05 -1.786859E+05 -5.286094E+04
       235   1  1.193021E+06  1.648210E+05  1.431119E+05  4.054480E+03  2.738366E+04 -1.413846E+04
       235   2  1.146907E+06  2.021055E+05  1.308815E+05  2.806825E+04  6.321731E+03 -4.866582E+04
       235   3  1.095186E+06  2.058206E+05  1.240071E+05  5.977939E+04 -1.477717E+04 -6.107911E+04
       235   4  1.843281E+05 -8.321362E+04 -9.040506E+04  5.708135E+04 -6.340911E+04 -1.431854E+04
       235   5  1.909755E+05 -2.392686E+04 -4.475689E+04  5.314654E+04 -4.036745E+04 -4.877172E+04
       235   6  1.843500E+05 -5.892999E+03 -2.436634E+04  5.690891E+04 -1.736408E+04 -6.109331E+04
       235   7 -8.234025E+05 -3.313044E+05 -3.239576E+05  1.100211E+05 -1.540556E+05 -1.451427E+04
       235   8 -7.640639E+05 -2.500075E+05 -2.204243E+05  7.818477E+04 -8.698670E+04 -4.888148E+04
       235   9 -7.256652E+05 -2.176489E+05 -1.727631E+05  5.404231E+04 -1.994731E+04 -6.110750E+04
       235  10  1.193020E+06  1.648205E+05  1.431101E+05  4.054792E+03  4.397417E-09 -7.988907E-10
       235  11  1.146906E+06  2.021030E+05  1.308770E+05  2.806850E+04 -4.935946E-10 -4.921520E-09
       235  12  1.095185E+06  2.058165E+05  1.239997E+05  5.977866E+04  9.005491E-11 -3.834357E-09
       235  13  1.843237E+05 -8.321492E+04 -9.041299E+04  5.708062E+04  8.139529E-11  1.350069E-09
       235  14  1.909731E+05 -2.392985E+04 -4.476442E+04  5.314495E+04  1.719874E-11 -2.654474E-09
       235  15  1.843487E+05 -5.897088E+03 -2.437392E+04  5.690806E+04  1.156756E-09  1.958174E-10
       235  16 -8.234281E+05 -3.313110E+05 -3.240026E+05  1.100193E+05 -3.207696E-09  1.460893E-10
       235  17 -7.640727E+05 -2.500121E+05 -2.204430E+05  7.818135E+04 -2.728836E-09 -6.876446E-09
       235  18 -7.256666E+05 -2.176530E+05 -1.727709E+05  5.404132E+04  1.203147E-09 -6.312250E-09
       235  19  1.193021E+06  1.648210E+05  1.431119E+05  4.054480E+03 -2.738366E+04  1.413846E+04
       235  20  1.146907E+06  2.021055E+05  1.308815E+05  2.806825E+04 -6.321731E+03  4.866582E+04
       235  21  1.095186E+06  2.058206E+05  1.240071E+05  5.977939E+04  1.477717E+04  6.107911E+04
       235  22  1.843281E+05 -8.321362E+04 -9.040506E+04  5.708135E+04  6.340911E+04  1.431854E+04
       235  23  1.909755E+05 -2.392686E+04 -4.475689E+04  5.314654E+04  4.036745E+04  4.877172E+04
       235  24  1.843500E+05 -5.892999E+03 -2.436634E+04  5.690891E+04  1.736408E+04  6.109331E+04
       235  25 -8.234025E+05 -3.313044E+05 -3.239576E+05  1.100211E+05  1.540556E+05  1.451427E+04
       235  26 -7.640639E+05 -2.500075E+05 -2.204243E+05  7.818477E+04  8.698670E+04  4.888148E+04
       235  27 -7.256652E+05 -2.176489E+05 -1.727631E+05  5.404231E+04  1.994731E+04  6.110750E+04
       236   1  1.065816E+06  1.986427E+05  1.219908E+05  5.627484E+04 -1.095912E+04 -6.109332E+04
       236   2  1.017495E+06  1.902635E+05  1.175503E+05  5.319725E+04 -1.082310E+04 -6.150470E+04
       236   3  9.686530E+05  1.798688E+05  1.125223E+05  5.931635E+04 -1.069399E+04 -5.946723E+04
       236   4  1.870053E+05 -5.046230E+03 -1.835205E+04  5.725744E+04 -1.420776E+04 -6.110918E+04
       236   5  1.877035E+05 -1.087849E+03 -1.002162E+04  5.265212E+04 -9.192514E+03 -6.150854E+04
       236   6  1.870310E+05  6.844964E+00 -5.666816E+03  5.724434E+04 -4.184069E+03 -5.945738E+04
       236   7 -6.910391E+05 -2.087738E+05 -1.587150E+05  5.823813E+04 -1.745196E+04 -6.112507E+04
       236   8 -6.414007E+05 -1.924726E+05 -1.376088E+05  5.210732E+04 -7.564014E+03 -6.151239E+04
       236   9 -5.939790E+05 -1.798842E+05 -1.238683E+05  5.517463E+04  2.317991E+03 -5.944757E+04
       236  10  1.065815E+06  1.986387E+05  1.219836E+05  5.627430E+04  3.138117E-09 -4.778528E-09
       236  11  1.017494E+06  1.902595E+05  1.175430E+05  5.319672E+04 -2.361158E-08  4.410086E-10
       236  12  9.686519E+05  1.798650E+05  1.125154E+05  5.931584E+04 -4.895704E-08  7.039118E-10
       236  13  1.870040E+05 -5.050295E+03 -1.835944E+04  5.725674E+04  1.070438E-09 -2.660258E-09
       236  14  1.877023E+05 -1.091935E+03 -1.002888E+04  5.265167E+04 -4.299028E-10  4.063864E-10
       236  15  1.870301E+05  3.043778E+00 -5.673492E+03  5.724414E+04 -8.661044E-10 -4.383738E-09
       236  16 -6.910404E+05 -2.087779E+05 -1.587226E+05  5.823727E+04 -1.573817E-09  3.083018E-10
       236  17 -6.414018E+05 -1.924766E+05 -1.376160E+05  5.210694E+04  2.174478E-08  2.362827E-09
       236  18 -5.939800E+05 -1.798880E+05 -1.238749E+05  5.517474E+04  4.837738E-08 -6.731810E-10
       236  19  1.065816E+06  1.986427E+05  1.219908E+05  5.627484E+04  1.095912E+04  6.109332E+04
       236  20  1.017495E+06  1.902635E+05  1.175503E+05  5.319725E+04  1.082310E+04  6.150470E+04
       236  21  9.686530E+05  1.798688E+05  1.125223E+05  5.931635E+04  1.069399E+04  5.946723E+04
       236  22  1.870053E+05 -5.046230E+03 -1.835205E+04  5.725744E+04  1.420776E+04  6.110918E+04
       236  23  1.877035E+05 -1.087849E+03 -1.002162E+04  5.265212E+04  9.192514E+03  6.150854E+04
       236  24  1.870310E+05  6.844964E+00 -5.666816E+03  5.724434E+04  4.184069E+03  5.945738E+04
       236  25 -6.910391E+05 -2.087738E+05 -1.587150E+05  5.823813E+04  1.745196E+04  6.112507E+04
       236  26 -6.414007E+05 -1.924726E+05 -1.376088E+05  5.210732E+04  7.564014E+03  6.151239E+04
       236  27 -5.939790E+05 -1.798842E+05 -1.238683E+05  5.517463E+04 -2.317991E+03  5.944757E+04
       237   1  9.380932E+05  1.727089E+05  1.087696E+05  5.897627E+04 -9.765187E+03 -5.748510E+04
       237   2  8.896517E+05  1.616550E+05  1.028632E+05  5.424765E+04 -9.106115E+03 -5.412381E+04
       237   3  8.410903E+05  1.505584E+05  9.651057E+04  5.887094E+04 -8.449390E+03 -5.049240E+04
       237   4  1.872966E+05  3.305196E+01 -4.289448E+03  5.728018E+04 -3.331188E+03 -5.747451E+04
       237   5  1.874159E+05  2.344103E+02 -2.426822E+03  5.260354E+04 -2.134860E+03 -5.411024E+04
       237   6  1.873194E+05  2.996428E+02 -1.383892E+03  5.727943E+04 -9.408308E+02 -5.047570E+04
       237   7 -5.629351E+05 -1.726696E+05 -1.173597E+05  5.558583E+04  3.095351E+03 -5.746394E+04
       237   8 -5.143253E+05 -1.612095E+05 -1.077263E+05  5.096102E+04  4.828834E+03 -5.409670E+04
       237   9 -4.660227E+05 -1.499792E+05 -9.928649E+04  5.568935E+04  6.560147E+03 -5.045902E+04
       237  10  9.380922E+05  1.727054E+05  1.087633E+05  5.897582E+04  4.801896E-08  2.621943E-09
       237  11  8.896508E+05  1.616519E+05  1.028575E+05  5.424725E+04  2.513186E-08  2.635047E-09
       237  12  8.410895E+05  1.505556E+05  9.650565E+04  5.887059E+04 -8.031297E-09  2.516363E-09
       237  13  1.872957E+05  2.950150E+01 -4.295677E+03  5.728002E+04 -1.252281E-09 -5.061390E-09
       237  14  1.874151E+05  2.312647E+02 -2.432333E+03  5.260345E+04  1.801347E-09  2.657526E-09
       237  15  1.873187E+05  2.969064E+02 -1.388682E+03  5.727939E+04  1.636982E-09  7.273897E-09
       237  16 -5.629360E+05 -1.726731E+05 -1.173659E+05  5.558597E+04 -4.756234E-08 -3.184432E-10
       237  17 -5.143261E+05 -1.612127E+05 -1.077319E+05  5.096123E+04 -2.459115E-08  2.527759E-09
       237  18 -4.660234E+05 -1.499820E+05 -9.929136E+04  5.568962E+04  6.522970E-09  7.638624E-10
       237  19  9.380932E+05  1.727089E+05  1.087696E+05  5.897627E+04  9.765187E+03  5.748510E+04
       237  20  8.896517E+05  1.616550E+05  1.028632E+05  5.424765E+04  9.106115E+03  5.412381E+04
       237  21  8.410903E+05  1.505584E+05  9.651057E+04  5.887094E+04  8.449390E+03  5.049240E+04
       237  22  1.872966E+05  3.305196E+01 -4.289448E+03  5.728018E+04  3.331188E+03  5.747451E+04
       237  23  1.874159E+05  2.344103E+02 -2.426822E+03  5.260354E+04  2.134860E+03  5.411024E+04
       237  24  1.873194E+05  2.996428E+02 -1.383892E+03  5.727943E+04  9.408308E+02  5.047570E+04
       237  25 -5.629351E+05 -1.726696E+05 -1.173597E+05  5.558583E+04 -3.095351E+03  5.746394E+04
       237  26 -5.143253E+05 -1.612095E+05 -1.077263E+05  5.096102E+04 -4.828834E+03  5.409670E+04
       237  27 -4.660227E+05 -1.499792E+05 -9.928649E+04  5.568935E+04 -6.560147E+03  5.045902E+04
       238   1  8.104679E+05  1.434709E+05  9.204322E+04  5.878694E+04 -8.225792E+03 -4.829197E+04
       238   2  7.620435E+05  1.323292E+05  8.528824E+04  5.400458E+04 -8.000010E+03 -4.451692E+04
       238   3  7.135633E+05  1.212486E+05  7.838880E+04  5.858238E+04 -7.775683E+03 -4.071286E+04
       238   4  1.873594E+05  2.998774E+02 -1.046514E+03  5.728137E+04 -7.275186E+02 -4.827441E+04
       238   5  1.874034E+05  2.849352E+02 -5.914376E+02  5.260103E+04 -4.444966E+02 -4.449784E+04
       238   6  1.873783E+05  3.210890E+02 -3.210670E+02  5.728135E+04 -1.629125E+02 -4.069224E+04
       238   7 -4.353593E+05 -1.428894E+05 -9.414353E+04  5.577708E+04  6.763539E+03 -4.825688E+04
       238   8 -3.869054E+05 -1.317748E+05 -8.647728E+04  5.119858E+04  7.104312E+03 -4.447878E+04
       238   9 -3.385289E+05 -1.206195E+05 -7.903610E+04  5.598124E+04  7.443670E+03 -4.067164E+04
       238  10  8.104672E+05  1.434684E+05  9.203871E+04  5.878662E+04  3.740720E-09  3.055037E-09
       238  11  7.620429E+05  1.323270E+05  8.528439E+04  5.400429E+04  1.707695E-09  8.856491E-09
       238  12  7.135628E+05  1.212468E+05  7.838557E+04  5.858213E+04 -1.843516E-09  7.846121E-09
       238  13  1.873588E+05  2.973745E+02 -1.050895E+03  5.728134E+04 -2.160457E-09  3.333896E-09
       238  14  1.874028E+05  2.828087E+02 -5.951592E+02  5.260101E+04 -1.775642E-09  8.864587E-09
       238  15  1.873778E+05  3.193108E+02 -3.241790E+02  5.728134E+04 -2.754048E-09  2.534107E-09
       238  16 -4.353600E+05 -1.428920E+05 -9.414799E+04  5.577734E+04 -4.575997E-09  2.531511E-09
       238  17 -3.869060E+05 -1.317770E+05 -8.648109E+04  5.119883E+04 -4.022940E-09  2.522586E-09
       238  18 -3.385294E+05 -1.206213E+05 -7.903931E+04  5.598149E+04 -1.084904E-10  7.351823E-10
       238  19  8.104679E+05  1.434709E+05  9.204322E+04  5.878694E+04  8.225792E+03  4.829197E+04
       238  20  7.620435E+05  1.323292E+05  8.528824E+04  5.400458E+04  8.000010E+03  4.451692E+04
       238  21  7.135633E+05  1.212486E+05  7.838880E+04  5.858238E+04  7.775683E+03  4.071286E+04
       238  22  1.873594E+05  2.998774E+02 -1.046514E+03  5.728137E+04  7.275186E+02  4.827441E+04
       238  23  1.874034E+05  2.849352E+02 -5.914376E+02  5.260103E+04  4.444966E+02  4.449784E+04
       238  24  1.873783E+05  3.210890E+02 -3.210670E+02  5.728135E+04  1.629125E+02  4.069224E+04
       238  25 -4.353593E+05 -1.428894E+05 -9.414353E+04  5.577708E+04 -6.763539E+03  4.825688E+04
       238  26 -3.869054E+05 -1.317748E+05 -8.647728E+04  5.119858E+04 -7.104312E+03  4.447878E+04
       238  27 -3.385289E+05 -1.206195E+05 -7.903610E+04  5.598124E+04 -7.443670E+03  4.067164E+04
       239   1  6.829527E+05  1.141811E+05  7.371424E+04  5.851819E+04 -7.729025E+03 -3.848992E+04
       239   2  6.345623E+05  1.030537E+05  6.670617E+04  5.373554E+04 -7.698171E+03 -3.467163E+04
       239   3  5.861260E+05  9.199111E+04  5.967634E+04  5.831302E+04 -7.668381E+03 -3.085084E+04
       239   4  1.873888E+05  3.259893E+02 -2.298028E+02  5.728133E+04 -1.189022E+02 -3.846859E+04
       239   5  1.874203E+05  3.044158E+02 -9.417204E+01  5.260106E+04 -8.333350E+01 -3.464922E+04
       239   6  1.874034E+05  3.470473E+02  1.646814E+01  5.728130E+04 -4.882604E+01 -3.082735E+04
       239   7 -3.079286E+05 -1.135406E+05 -7.417833E+04  5.604530E+04  7.485396E+03 -3.844728E+04
       239   8 -2.595210E+05 -1.024543E+05 -6.689815E+04  5.146727E+04  7.526244E+03 -3.462683E+04
       239   9 -2.111596E+05 -9.130449E+04 -5.964627E+04  5.625014E+04  7.566035E+03 -3.080388E+04
       239  10  6.829522E+05  1.141794E+05  7.371134E+04  5.851795E+04  1.375020E-08  2.089235E-09
       239  11  6.345620E+05  1.030524E+05  6.670380E+04  5.373533E+04  5.476542E-09 -8.072856E-10
       239  12  5.861257E+05  9.199007E+04  5.967444E+04  5.831283E+04 -5.530364E-09 -1.844008E-09
       239  13  1.873884E+05  3.244000E+02 -2.325839E+02  5.728132E+04 -9.550782E-10  8.569010E-09
       239  14  1.874200E+05  3.031265E+02 -9.642835E+01  5.260106E+04 -6.912899E-10  2.265328E-10
       239  15  1.874032E+05  3.460267E+02  1.468213E+01  5.728130E+04 -8.401436E-10 -2.768989E-09
       239  16 -3.079290E+05 -1.135422E+05 -7.418122E+04  5.604553E+04 -1.458378E-08  2.633901E-09
       239  17 -2.595213E+05 -1.024556E+05 -6.690051E+04  5.146748E+04 -5.826491E-09 -1.800637E-09
       239  18 -2.111599E+05 -9.130553E+04 -5.964816E+04  5.625033E+04  5.715731E-09 -4.219149E-09
       239  19  6.829527E+05  1.141811E+05  7.371424E+04  5.851819E+04  7.729025E+03  3.848992E+04
       239  20  6.345623E+05  1.030537E+05  6.670617E+04  5.373554E+04  7.698171E+03  3.467163E+04
       239  21  5.861260E+05  9.199111E+04  5.967634E+04  5.831302E+04  7.668381E+03  3.085084E+04
       239  22  1.873888E+05  3.259893E+02 -2.298028E+02  5.728133E+04  1.189022E+02  3.846859E+04
       239  23  1.874203E+05  3.044158E+02 -9.417204E+01  5.260106E+04  8.333350E+01  3.464922E+04
       239  24  1.874034E+05  3.470473E+02  1.646814E+01  5.728130E+04  4.882604E+01  3.082735E+04
       239  25 -3.079286E+05 -1.135406E+05 -7.417833E+04  5.604530E+04 -7.485396E+03  3.844728E+04
       239  26 -2.595210E+05 -1.024543E+05 -6.689815E+04  5.146727E+04 -7.526244E+03  3.462683E+04
       239  27 -2.111596E+05 -9.130449E+04 -5.964627E+04  5.625014E+04 -7.566035E+03  3.080388E+04
       240   1  5.555374E+05  8.492881E+04  5.497102E+04  5.824537E+04 -7.681405E+03 -2.862655E+04
       240   2  5.071702E+05  7.380911E+04  4.796654E+04  5.345342E+04 -7.792098E+03 -2.480518E+04
       240   3  4.587697E+05  6.277294E+04  4.103383E+04  5.801518E+04 -7.903539E+03 -2.098368E+04
       240   4  1.874107E+05  3.517257E+02  6.996530E+01  5.727986E+04 -6.328513E+01 -2.860253E+04
       240   5  1.874338E+05  3.310189E+02  1.987727E+02  5.260282E+04 -1.739359E+02 -2.478040E+04
       240   6  1.874212E+05  3.938905E+02  3.991756E+02  5.727975E+04 -2.853410E+02 -2.095814E+04
       240   7 -1.805799E+05 -8.423171E+04 -5.483346E+04  5.631484E+04  7.550502E+03 -2.857852E+04
       240   8 -1.321999E+05 -7.315187E+04 -4.757075E+04  5.175259E+04  7.440463E+03 -2.475563E+04
       240   9 -8.385338E+04 -6.198861E+04 -4.023670E+04  5.654460E+04  7.329663E+03 -2.093260E+04
       240  10  5.555371E+05  8.492791E+04  5.496937E+04  5.824520E+04  7.271638E-10  4.440737E-09
       240  11  5.071700E+05  7.380844E+04  4.796527E+04  5.345327E+04  6.269919E-10  1.542002E-09
       240  12  4.587695E+05  6.277245E+04  4.103289E+04  5.801505E+04 -3.654862E-09  2.048547E-09
       240  13  1.874105E+05  3.508471E+02  6.842778E+01  5.727986E+04 -1.066348E-09 -5.826068E-11
       240  14  1.874336E+05  3.303594E+02  1.976186E+02  5.260282E+04 -2.335882E-09  2.366122E-10
       240  15  1.874210E+05  3.934187E+02  3.983500E+02  5.727975E+04 -7.203927E-10  2.875645E-09
       240  16 -1.805802E+05 -8.423260E+04 -5.483510E+04  5.631501E+04  2.680005E-10  1.161078E-09
       240  17 -1.322001E+05 -7.315254E+04 -4.757201E+04  5.175273E+04 -4.307620E-10 -1.022972E-08
       240  18 -8.385356E+04 -6.198909E+04 -4.023763E+04  5.654472E+04  2.007813E-09 -4.896017E-10
       240  19  5.555374E+05  8.492881E+04  5.497102E+04  5.824537E+04  7.681405E+03  2.862655E+04
       240  20  5.071702E+05  7.380911E+04  4.796654E+04  5.345342E+04  7.792098E+03  2.480518E+04
       240  21  4.587697E+05  6.277294E+04  4.103383E+04  5.801518E+04  7.903539E+03  2.098368E+04
       240  22  1.874107E+05  3.517257E+02  6.996530E+01  5.727986E+04  6.328513E+01  2.860253E+04
       240  23  1.874338E+05  3.310189E+02  1.987727E+02  5.260282E+04  1.739359E+02  2.478040E+04
       240  24  1.874212E+05  3.938905E+02  3.991756E+02  5.727975E+04  2.853410E+02  2.095814E+04
       240  25 -1.805799E+05 -8.423171E+04 -5.483346E+04  5.631484E+04 -7.550502E+03  2.857852E+04
       240  26 -1.321999E+05 -7.315187E+04 -4.757075E+04  5.175259E+04 -7.440463E+03  2.475563E+04
       240  27 -8.385338E+04 -6.198861E+04 -4.023670E+04  5.654460E+04 -7.329663E+03  2.093260E+04
       241   1  4.282191E+05  5.571488E+04  3.641812E+04  5.797137E+04 -7.990512E+03 -1.875983E+04
       241   2  3.798184E+05  4.469511E+04  2.972367E+04  5.301944E+04 -8.495780E+03 -1.493817E+04
       241   3  3.314963E+05  3.402829E+04  2.342301E+04  5.741685E+04 -9.001472E+03 -1.111327E+04
       241   4  1.874486E+05  3.993895E+02  5.392875E+02  5.727895E+04 -3.733380E+02 -1.873393E+04
       241   5  1.874145E+05  4.755656E+02  9.723193E+02  5.260335E+04 -8.723703E+02 -1.491179E+04
       241   6  1.874548E+05  9.035178E+02  1.794473E+03  5.727722E+04 -1.371860E+03 -1.108641E+04
       241   7 -5.326361E+04 -5.491880E+04 -3.534043E+04  5.658676E+04  7.241003E+03 -1.870804E+04
       241   8 -4.952131E+03 -4.374569E+04 -2.777953E+04  5.218735E+04  6.748773E+03 -1.488541E+04
       241   9  4.343425E+04 -3.222220E+04 -1.983425E+04  5.713761E+04  6.256052E+03 -1.105956E+04
       241  10  4.282190E+05  5.571449E+04  3.641734E+04  5.797125E+04 -9.610457E-10  6.987861E-09
       241  11  3.798183E+05  4.469485E+04  2.972312E+04  5.301934E+04  5.132538E-09 -1.039260E-09
       241  12  3.314962E+05  3.402813E+04  2.342262E+04  5.741677E+04  1.151142E-08  6.086641E-09
       241  13  1.874485E+05  3.990126E+02  5.386277E+02  5.727895E+04  1.078848E-09  4.318387E-09
       241  14  1.874144E+05  4.753266E+02  9.719000E+02  5.260333E+04  3.740420E-10  5.389833E-09
       241  15  1.874548E+05  9.033853E+02  1.794238E+03  5.727721E+04  1.291678E-09 -6.215979E-11
       241  16 -5.326376E+04 -5.491919E+04 -3.534119E+04  5.658687E+04  4.696457E-09  5.407044E-09
       241  17 -4.952239E+03 -4.374594E+04 -2.778003E+04  5.218743E+04 -6.391380E-09  1.895742E-09
       241  18  4.343418E+04 -3.222234E+04 -1.983455E+04  5.713767E+04 -1.307659E-08 -8.784010E-09
       241  19  4.282191E+05  5.571488E+04  3.641812E+04  5.797137E+04  7.990512E+03  1.875983E+04
       241  20  3.798184E+05  4.469511E+04  2.972367E+04  5.301944E+04  8.495780E+03  1.493817E+04
       241  21  3.314963E+05  3.402829E+04  2.342301E+04  5.741685E+04  9.001472E+03  1.111327E+04
       241  22  1.874486E+05  3.993895E+02  5.392875E+02  5.727895E+04  3.733380E+02  1.873393E+04
       241  23  1.874145E+05  4.755656E+02  9.723193E+02  5.260335E+04  8.723703E+02  1.491179E+04
       241  24  1.874548E+05  9.035178E+02  1.794473E+03  5.727722E+04  1.371860E+03  1.108641E+04
       241  25 -5.326361E+04 -5.491880E+04 -3.534043E+04  5.658676E+04 -7.241003E+03  1.870804E+04
       241  26 -4.952131E+03 -4.374569E+04 -2.777953E+04  5.218735E+04 -6.748773E+03  1.488541E+04
       241  27  4.343425E+04 -3.222220E+04 -1.983425E+04  5.713761E+04 -6.256052E+03  1.105956E+04
       242   1  3.011898E+05  2.705357E+04  1.926350E+04  5.771330E+04 -9.316443E+03 -8.887680E+03
       242   2  2.522317E+05  1.768077E+04  1.416357E+04  5.015897E+04 -1.164323E+04 -5.051893E+03
       242   3  2.045291E+05  1.244005E+04  1.158629E+04  5.194684E+04 -1.397017E+04 -1.184009E+03
       242   4  1.877159E+05  9.873298E+02  2.385589E+03  5.727823E+04 -1.688352E+03 -8.860643E+03
       242   5  1.870954E+05  2.722839E+03  4.385654E+03  5.259384E+04 -3.951298E+03 -5.024524E+03
       242   6  1.877175E+05  8.579724E+03  8.864115E+03  5.725152E+04 -6.214543E+03 -1.156327E+03
       242   7  7.425517E+04 -2.507948E+04 -1.449235E+04  5.684324E+04  5.938403E+03 -8.833614E+03
       242   8  1.219636E+05 -1.223524E+04 -5.392115E+03  5.502844E+04  3.739862E+03 -4.997092E+03
       242   9  1.709065E+05  4.719521E+03  6.142177E+03  6.255606E+04  1.540881E+03 -1.128512E+03
       242  10  3.011896E+05  2.705346E+04  1.926319E+04  5.771323E+04  6.091510E-08  6.884697E-09
       242  11  2.522315E+05  1.768071E+04  1.416326E+04  5.015892E+04  1.095116E-09  2.474822E-09
       242  12  2.045289E+05  1.244000E+04  1.158592E+04  5.194683E+04 -6.021304E-08 -1.149671E-09
       242  13  1.877159E+05  9.872447E+02  2.385436E+03  5.727822E+04  1.604168E-10  9.945110E-09
       242  14  1.870954E+05  2.722807E+03  4.385577E+03  5.259382E+04 -2.325961E-09 -6.726637E-09
       242  15  1.877175E+05  8.579712E+03  8.864040E+03  5.725152E+04  1.181084E-09  6.279280E-09
       242  16  7.425512E+04 -2.507958E+04 -1.449256E+04  5.684328E+04 -6.292653E-08 -5.214118E-10
       242  17  1.219636E+05 -1.223527E+04 -5.392188E+03  5.502846E+04 -3.399653E-09  6.142333E-10
       242  18  1.709065E+05  4.719519E+03  6.142170E+03  6.255606E+04  5.810849E-08 -2.245142E-09
       242  19  3.011898E+05  2.705357E+04  1.926350E+04  5.771330E+04  9.316443E+03  8.887680E+03
       242  20  2.522317E+05  1.768077E+04  1.416357E+04  5.015897E+04  1.164323E+04  5.051893E+03
       242  21  2.045291E+05  1.244005E+04  1.158629E+04  5.194684E+04  1.397017E+04  1.184009E+03
       242  22  1.877159E+05  9.873298E+02  2.385589E+03  5.727823E+04  1.688352E+03  8.860643E+03
       242  23  1.870954E+05  2.722839E+03  4.385654E+03  5.259384E+04  3.951298E+03  5.024524E+03
       242  24  1.877175E+05  8.579724E+03  8.864115E+03  5.725152E+04  6.214543E+03  1.156327E+03
       242  25  7.425517E+04 -2.507948E+04 -1.449235E+04  5.684324E+04 -5.938403E+03  8.833614E+03
       242  26  1.219636E+05 -1.223524E+04 -5.392115E+03  5.502844E+04 -3.739862E+03  4.997092E+03
       242  27  1.709065E+05  4.719521E+03  6.142177E+03  6.255606E+04 -1.540881E+03  1.128512E+03
       243   1 -2.545677E+03  6.250096E+05  2.995048E+03 -1.385492E+05 -3.518107E+03 -7.837427E+03
       243   2 -4.259688E+04  5.197045E+05 -1.997664E+04 -1.203327E+05 -1.442405E+04 -1.167855E+04
       243   3 -7.118842E+04  4.176843E+05 -3.761520E+04 -1.222635E+05 -2.342099E+04 -1.551487E+04
       243   4  2.430225E+04  7.364730E+05  2.624152E+04 -1.228232E+05 -3.566704E+03  1.582263E+04
       243   5  7.278669E+03  7.345012E+05  1.494017E+04 -1.127711E+05 -1.446356E+04  8.173615E+03
       243   6  2.373983E+03  7.364651E+05  1.161359E+04 -1.228643E+05 -2.345162E+04  5.288964E+02
       243   7  5.115063E+04  8.479498E+05  4.948954E+04 -1.070943E+05 -3.614100E+03  3.948686E+04
       243   8  5.715230E+04  9.493445E+05  4.985720E+04 -1.052067E+05 -1.450258E+04  2.803241E+04
       243   9  7.593159E+04  1.055348E+06  6.084104E+04 -1.234653E+05 -2.348227E+04  1.658058E+04
       243  10 -2.545707E+03  6.250096E+05  2.994909E+03 -1.385492E+05 -1.965007E-10 -2.953082E-09
       243  11 -4.259714E+04  5.197043E+05 -1.997728E+04 -1.203329E+05 -1.637444E-09 -3.869195E-09
       243  12 -7.118907E+04  4.176839E+05 -3.761668E+04 -1.222638E+05 -1.806468E-09  2.044047E-09
       243  13  2.430217E+04  7.364727E+05  2.624102E+04 -1.228232E+05  1.300669E-09  2.015842E-09
       243  14  7.278427E+03  7.345011E+05  1.493965E+04 -1.127710E+05  8.460448E-10 -3.942724E-09
       243  15  2.373392E+03  7.364650E+05  1.161255E+04 -1.228643E+05  2.312351E-09  1.972630E-09
       243  16  5.115019E+04  8.479482E+05  4.948659E+04 -1.070942E+05  1.401172E-09 -1.466183E-10
       243  17  5.715187E+04  9.493436E+05  4.985533E+04 -1.052063E+05  9.371706E-10 -1.048405E-09
       243  18  7.593092E+04  1.055348E+06  6.083949E+04 -1.234650E+05 -9.296600E-10 -3.159168E-09
       243  19 -2.545677E+03  6.250096E+05  2.995048E+03 -1.385492E+05  3.518107E+03  7.837427E+03
       243  20 -4.259688E+04  5.197045E+05 -1.997664E+04 -1.203327E+05  1.442405E+04  1.167855E+04
       243  21 -7.118842E+04  4.176843E+05 -3.761520E+04 -1.222635E+05  2.342099E+04  1.551487E+04
       243  22  2.430225E+04  7.364730E+05  2.624152E+04 -1.228232E+05  3.566704E+03 -1.582263E+04
       243  23  7.278669E+03  7.345012E+05  1.494017E+04 -1.127711E+05  1.446356E+04 -8.173615E+03
       243  24  2.373983E+03  7.364651E+05  1.161359E+04 -1.228643E+05  2.345162E+04 -5.288964E+02
       243  25  5.115063E+04  8.479498E+05  4.948954E+04 -1.070943E+05  3.614100E+03 -3.948686E+04
       243  26  5.715230E+04  9.493445E+05  4.985720E+04 -1.052067E+05  1.450258E+04 -2.803241E+04
       243  27  7.593159E+04  1.055348E+06  6.084104E+04 -1.234653E+05  2.348227E+04 -1.658058E+04
       244   1 -8.658818E+04  3.516514E+05 -4.787989E+04 -1.236265E+05 -2.813750E+04 -1.748506E+04
       244   2 -1.106183E+05  2.472761E+05 -6.185106E+04 -1.112826E+05 -3.507365E+04 -2.007689E+04
       244   3 -1.310867E+05  1.440757E+05 -7.326425E+04 -1.188478E+05 -3.967290E+04 -2.266264E+04
       244   4  2.133001E+03  7.360194E+05  1.161625E+04 -1.228085E+05 -2.816736E+04 -1.326849E+03
       244   5  2.148740E+03  7.350154E+05  1.448185E+04 -1.128504E+05 -3.509245E+04 -8.580712E+03
       244   6  6.533558E+03  7.359825E+05  2.313802E+04 -1.227998E+05 -3.968155E+04 -1.582892E+04
       244   7  9.084714E+04  1.120535E+06  7.110999E+04 -1.219899E+05 -2.819718E+04  1.484098E+04
       244   8  1.149042E+05  1.222992E+06  9.080955E+04 -1.144192E+05 -3.511129E+04  2.924157E+03
       244   9  1.441361E+05  1.328236E+06  1.195306E+05 -1.267555E+05 -3.969029E+04 -8.988909E+03
       244  10 -8.658911E+04  3.516509E+05 -4.788195E+04 -1.236269E+05  1.443078E-10  7.235842E-10
       244  11 -1.106198E+05  2.472753E+05 -6.185413E+04 -1.112832E+05  5.586007E-10 -5.404227E-09
       244  12 -1.310885E+05  1.440747E+05 -7.326818E+04 -1.188486E+05 -3.496041E-09 -5.385879E-09
       244  13  2.132148E+03  7.360192E+05  1.161476E+04 -1.228085E+05  1.433705E-09  2.001819E-09
       244  14  2.147397E+03  7.350150E+05  1.447940E+04 -1.128506E+05 -2.293000E-09 -3.500623E-09
       244  15  6.531800E+03  7.359818E+05  2.313459E+04 -1.228003E+05 -2.031979E-09  1.706222E-09
       244  16  9.084623E+04  1.120535E+06  7.110808E+04 -1.219896E+05 -3.872559E-10 -3.740536E-09
       244  17  1.149029E+05  1.222992E+06  9.080722E+04 -1.144191E+05 -7.754841E-10  9.514804E-10
       244  18  1.441343E+05  1.328236E+06  1.195275E+05 -1.267558E+05 -1.596659E-09  3.848785E-09
       244  19 -8.658818E+04  3.516514E+05 -4.787989E+04 -1.236265E+05  2.813750E+04  1.748506E+04
       244  20 -1.106183E+05  2.472761E+05 -6.185106E+04 -1.112826E+05  3.507365E+04  2.007689E+04
       244  21 -1.310867E+05  1.440757E+05 -7.326425E+04 -1.188478E+05  3.967290E+04  2.266264E+04
       244  22  2.133001E+03  7.360194E+05  1.161625E+04 -1.228085E+05  2.816736E+04  1.326849E+03
       244  23  2.148740E+03  7.350154E+05  1.448185E+04 -1.128504E+05  3.509245E+04  8.580712E+03
       244  24  6.533558E+03  7.359825E+05  2.313802E+04 -1.227998E+05  3.968155E+04  1.582892E+04
       244  25  9.084714E+04  1.120535E+06  7.110999E+04 -1.219899E+05  2.819718E+04 -1.484098E+04
       244  26  1.149042E+05  1.222992E+06  9.080955E+04 -1.144192E+05  3.511129E+04 -2.924157E+03
       244  27  1.441361E+05  1.328236E+06  1.195306E+05 -1.267555E+05  3.969029E+04  8.988909E+03
       245   1 -1.460711E+05  8.035975E+04 -7.958919E+04 -1.231418E+05 -4.247385E+04 -2.719045E+04
       245   2 -1.517461E+05 -2.816680E+04 -8.904241E+04 -8.070850E+04 -3.649491E+04 -1.575831E+04
       245   3 -1.150749E+05 -1.275963E+05 -9.534647E+04 -5.681268E+04 -1.105687E+04 -4.303685E+03
       245   4  7.492498E+03  7.390407E+05  2.985882E+04 -1.225067E+05 -4.248268E+04 -1.978068E+04
       245   5  2.865212E+04  7.311013E+05  5.336490E+04 -1.131658E+05 -3.643964E+04 -4.712483E+04
       245   6  9.885302E+04  7.389564E+05  1.069223E+05 -1.223575E+05 -1.094965E+04 -7.444536E+04
       245   7  1.610336E+05  1.398150E+06  1.392939E+05 -1.218707E+05 -4.249149E+04 -1.236330E+04
       245   8  2.090214E+05  1.490931E+06  1.957515E+05 -1.456635E+05 -3.638113E+04 -7.852873E+04
       245   9  3.127463E+05  1.606221E+06  3.091608E+05 -1.879941E+05 -1.082771E+04 -1.446842E+05
       245  10 -1.460732E+05  8.035847E+04 -7.959397E+04 -1.231427E+05 -1.929953E-09  2.965890E-09
       245  11 -1.517476E+05 -2.816742E+04 -8.904538E+04 -8.070896E+04 -7.685337E-10 -2.075517E-09
       245  12 -1.150750E+05 -1.275964E+05 -9.534673E+04 -5.681272E+04 -1.349666E-10 -1.364729E-09
       245  13  7.490454E+03  7.390398E+05  2.985469E+04 -1.225074E+05 -8.790546E-10  1.602120E-09
       245  14  2.865010E+04  7.310986E+05  5.335824E+04 -1.131672E+05  1.928742E-09 -3.328364E-09
       245  15  9.885141E+04  7.389504E+05  1.069117E+05 -1.223581E+05 -2.231092E-10  1.181685E-09
       245  16  1.610316E+05  1.398149E+06  1.392902E+05 -1.218711E+05 -2.372677E-09 -5.696062E-09
       245  17  2.090183E+05  1.490924E+06  1.957374E+05 -1.456658E+05 -1.014182E-09 -1.783557E-09
       245  18  3.127406E+05  1.606198E+06  3.091214E+05 -1.879953E+05 -9.405786E-10  2.606998E-10
       245  19 -1.460711E+05  8.035975E+04 -7.958919E+04 -1.231418E+05  4.247385E+04  2.719045E+04
       245  20 -1.517461E+05 -2.816680E+04 -8.904241E+04 -8.070850E+04  3.649491E+04  1.575831E+04
       245  21 -1.150749E+05 -1.275963E+05 -9.534647E+04 -5.681268E+04  1.105687E+04  4.303685E+03
       245  22  7.492498E+03  7.390407E+05  2.985882E+04 -1.225067E+05  4.248268E+04  1.978068E+04
       245  23  2.865212E+04  7.311013E+05  5.336490E+04 -1.131658E+05  3.643964E+04  4.712483E+04
       245  24  9.885302E+04  7.389564E+05  1.069223E+05 -1.223575E+05  1.094965E+04  7.444536E+04
       245  25  1.610336E+05  1.398150E+06  1.392939E+05 -1.218707E+05  4.249149E+04  1.236330E+04
       245  26  2.090214E+05  1.490931E+06  1.957515E+05 -1.456635E+05  3.638113E+04  7.852873E+04
       245  27  3.127463E+05  1.606221E+06  3.091608E+05 -1.879941E+05  1.082771E+04  1.446842E+05
       246   1  1.257981E+06  4.098459E+05  1.984865E+05  4.502389E+05  5.890189E+04  5.915471E+03
       246   2  1.183457E+06  4.077521E+05  1.566386E+05  4.290616E+05  3.912948E+04 -4.005761E+04
       246   3  1.098688E+06  4.020743E+05  1.351699E+05  4.238902E+05  1.040527E+04 -6.227089E+04
       246   4  2.709265E+05  6.543359E+04 -4.859106E+04  2.056108E+05 -2.625036E+04 -2.621553E+04
       246   5  2.831099E+05  9.012487E+04 -2.289361E+04  1.906306E+05 -1.630456E+03 -5.545208E+04
       246   6  2.762476E+05  1.024328E+05 -1.196529E+04  1.916595E+05  1.402544E+04 -6.091257E+04
       246   7 -7.151254E+05 -2.789273E+05 -2.957026E+05 -3.866647E+04 -1.112510E+05 -5.829829E+04
       246   8 -6.163818E+05 -2.274382E+05 -2.024523E+05 -4.748178E+04 -4.232601E+04 -7.082429E+04
       246   9 -5.454781E+05 -1.971407E+05 -1.591225E+05 -4.028370E+04  1.764050E+04 -5.955619E+04
       246  10  1.257977E+06  4.098449E+05  1.984799E+05  4.502386E+05 -6.891300E-09 -7.710850E-10
       246  11  1.183455E+06  4.077499E+05  1.566327E+05  4.290628E+05  3.329984E-10  5.810965E-09
       246  12  1.098687E+06  4.020701E+05  1.351624E+05  4.238908E+05  6.416202E-09  5.621691E-10
       246  13  2.709255E+05  6.543267E+04 -4.859365E+04  2.056102E+05  2.464065E-09  5.033646E-09
       246  14  2.831091E+05  9.012156E+04 -2.289940E+04  1.906305E+05  6.546736E-10  1.521030E-09
       246  15  2.762464E+05  1.024287E+05 -1.197263E+04  1.916602E+05  4.893935E-09 -3.588066E-09
       246  16 -7.151396E+05 -2.789343E+05 -2.957323E+05 -3.867170E+04  5.375577E-09 -1.005645E-09
       246  17 -6.163850E+05 -2.274441E+05 -2.024651E+05 -4.748420E+04 -2.259754E-10 -4.964617E-09
       246  18 -5.454794E+05 -1.971445E+05 -1.591298E+05 -4.028286E+04 -4.029237E-09 -3.902902E-09
       246  19  1.257981E+06  4.098459E+05  1.984865E+05  4.502389E+05 -5.890189E+04 -5.915471E+03
       246  20  1.183457E+06  4.077521E+05  1.566386E+05  4.290616E+05 -3.912948E+04  4.005761E+04
       246  21  1.098688E+06  4.020743E+05  1.351699E+05  4.238902E+05 -1.040527E+04  6.227089E+04
       246  22  2.709265E+05  6.543359E+04 -4.859106E+04  2.056108E+05  2.625036E+04  2.621553E+04
       246  23  2.831099E+05  9.012487E+04 -2.289361E+04  1.906306E+05  1.630456E+03  5.545208E+04
       246  24  2.762476E+05  1.024328E+05 -1.196529E+04  1.916595E+05 -1.402544E+04  6.091257E+04
       246  25 -7.151254E+05 -2.789273E+05 -2.957026E+05 -3.866647E+04  1.112510E+05  5.829829E+04
       246  26 -6.163818E+05 -2.274382E+05 -2.024523E+05 -4.748178E+04  4.232601E+04  7.082429E+04
       246  27 -5.454781E+05 -1.971407E+05 -1.591225E+05 -4.028370E+04 -1.764050E+04  5.955619E+04
       247   1  1.054597E+06  3.835133E+05  1.276237E+05  4.097871E+05  1.317052E+04 -5.927071E+04
       247   2  9.883963E+05  3.538447E+05  1.149056E+05  3.840493E+05  1.049203E+04 -5.802137E+04
       247   3  9.116943E+05  3.342583E+05  1.034831E+05  3.705929E+05  6.941673E+03 -5.446979E+04
       247   4  2.773588E+05  1.029191E+05 -8.955054E+03  1.924676E+05  1.472581E+04 -5.869150E+04
       247   5  2.832075E+05  9.938336E+04 -4.693823E+03  1.859260E+05  1.634635E+04 -5.581625E+04
       247   6  2.776990E+05  1.050785E+05 -2.542954E+03  1.916652E+05  1.709431E+04 -5.063731E+04
       247   7 -4.992505E+05 -1.776202E+05 -1.455551E+05 -2.460121E+04  1.627905E+04 -5.811307E+04
       247   8 -4.214569E+05 -1.550296E+05 -1.243076E+05 -1.198814E+04  2.219364E+04 -5.361378E+04
       247   9 -3.558680E+05 -1.240599E+05 -1.085787E+05  1.290850E+04  2.723594E+04 -4.680900E+04
       247  10  1.054596E+06  3.835095E+05  1.276167E+05  4.097877E+05  1.820532E-09 -3.610699E-09
       247  11  9.883953E+05  3.538410E+05  1.148991E+05  3.840498E+05  1.748413E-09  3.203136E-09
       247  12  9.116935E+05  3.342551E+05  1.034774E+05  3.705932E+05 -1.650160E-09  4.132261E-09
       247  13  2.773576E+05  1.029153E+05 -8.961936E+03  1.924683E+05  1.797787E-09  3.682617E-12
       247  14  2.832064E+05  9.937994E+04 -4.700181E+03  1.859268E+05  3.242364E-09 -2.966430E-09
       247  15  2.776980E+05  1.050757E+05 -2.548322E+03  1.916659E+05  3.048823E-09 -1.802497E-09
       247  16 -4.992517E+05 -1.776239E+05 -1.455620E+05 -2.460045E+04  1.092369E-09 -6.644157E-10
       247  17 -4.214582E+05 -1.550329E+05 -1.243139E+05 -1.198718E+04  2.614196E-09 -6.339076E-09
       247  18 -3.558694E+05 -1.240625E+05 -1.085842E+05  1.290953E+04  6.715945E-09 -6.089953E-09
       247  19  1.054597E+06  3.835133E+05  1.276237E+05  4.097871E+05 -1.317052E+04  5.927071E+04
       247  20  9.883963E+05  3.538447E+05  1.149056E+05  3.840493E+05 -1.049203E+04  5.802137E+04
       247  21  9.116943E+05  3.342583E+05  1.034831E+05  3.705929E+05 -6.941673E+03  5.446979E+04
       247  22  2.773588E+05  1.029191E+05 -8.955054E+03  1.924676E+05 -1.472581E+04  5.869150E+04
       247  23  2.832075E+05  9.938336E+04 -4.693823E+03  1.859260E+05 -1.634635E+04  5.581625E+04
       247  24  2.776990E+05  1.050785E+05 -2.542954E+03  1.916652E+05 -1.709431E+04  5.063731E+04
       247  25 -4.992505E+05 -1.776202E+05 -1.455551E+05 -2.460121E+04 -1.627905E+04  5.811307E+04
       247  26 -4.214569E+05 -1.550296E+05 -1.243076E+05 -1.198814E+04 -2.219364E+04  5.361378E+04
       247  27 -3.558680E+05 -1.240599E+05 -1.085787E+05  1.290850E+04 -2.723594E+04  4.680900E+04
       248   1  8.664247E+05  3.176852E+05  9.602480E+04  3.577588E+05  6.278199E+03 -5.104178E+04
       248   2  8.008796E+05  2.868136E+05  8.484137E+04  3.317150E+05  4.323300E+03 -4.556819E+04
       248   3  7.246525E+05  2.666447E+05  7.359254E+04  3.178013E+05  2.282651E+03 -3.987404E+04
       248   4  2.778005E+05  1.051173E+05 -1.902259E+03  1.917378E+05  1.622586E+04 -4.728526E+04
       248   5  2.832099E+05  9.987430E+04 -1.023684E+03  1.856541E+05  1.468256E+04 -4.165378E+04
       248   6  2.778486E+05  1.052525E+05 -5.379341E+02  1.916993E+05  1.305346E+04 -3.580160E+04
       248   7 -3.104475E+05 -1.074125E+05 -9.983559E+04  2.586596E+04  2.616341E+04 -4.353257E+04
       248   8 -2.341736E+05 -8.703724E+04 -8.689471E+04  3.970733E+04  2.503265E+04 -3.774284E+04
       248   9 -1.687468E+05 -5.612089E+04 -7.467406E+04  6.568109E+04  2.381617E+04 -3.173222E+04
       248  10  8.664239E+05  3.176824E+05  9.601983E+04  3.577590E+05 -2.057100E-09  1.223864E-10
       248  11  8.008790E+05  2.868113E+05  8.483743E+04  3.317152E+05  1.451957E-08  5.678485E-09
       248  12  7.246521E+05  2.666430E+05  7.358955E+04  3.178013E+05  9.495394E-09  3.544926E-09
       248  13  2.777996E+05  1.051148E+05 -1.906957E+03  1.917384E+05  9.759112E-09  2.037050E-09
       248  14  2.832092E+05  9.987238E+04 -1.027350E+03  1.856546E+05  1.637828E-08 -3.644337E-09
       248  15  2.778481E+05  1.052510E+05 -5.406635E+02  1.916997E+05  4.793513E-09  6.636080E-09
       248  16 -3.104488E+05 -1.074147E+05 -9.984044E+04  2.586688E+04  1.428556E-08  1.784910E-09
       248  17 -2.341747E+05 -8.703893E+04 -8.689857E+04  3.970809E+04  1.583839E-08  4.372550E-09
       248  18 -1.687477E+05 -5.612212E+04 -7.467702E+04  6.568170E+04 -2.316480E-10  2.287321E-09
       248  19  8.664247E+05  3.176852E+05  9.602480E+04  3.577588E+05 -6.278199E+03  5.104178E+04
       248  20  8.008796E+05  2.868136E+05  8.484137E+04  3.317150E+05 -4.323300E+03  4.556819E+04
       248  21  7.246525E+05  2.666447E+05  7.359254E+04  3.178013E+05 -2.282651E+03  3.987404E+04
       248  22  2.778005E+05  1.051173E+05 -1.902259E+03  1.917378E+05 -1.622586E+04  4.728526E+04
       248  23  2.832099E+05  9.987430E+04 -1.023684E+03  1.856541E+05 -1.468256E+04  4.165378E+04
       248  24  2.778486E+05  1.052525E+05 -5.379341E+02  1.916993E+05 -1.305346E+04  3.580160E+04
       248  25 -3.104475E+05 -1.074125E+05 -9.983559E+04  2.586596E+04 -2.616341E+04  4.353257E+04
       248  26 -2.341736E+05 -8.703724E+04 -8.689471E+04  3.970733E+04 -2.503265E+04  3.774284E+04
       248  27 -1.687468E+05 -5.612089E+04 -7.467406E+04  6.568109E+04 -2.381617E+04  3.173222E+04
       249   1  6.793867E+05  2.502422E+05  6.589176E+04  3.050503E+05  1.110078E+03 -3.647471E+04
       249   2  6.139506E+05  2.193743E+05  5.454302E+04  2.790059E+05 -1.026923E+03 -3.069227E+04
       249   3  5.378201E+05  1.992159E+05  4.316579E+04  2.650847E+05 -3.172471E+03 -2.489114E+04
       249   4  2.778675E+05  1.052608E+05 -3.852546E+02  1.917039E+05  1.185790E+04 -3.240982E+04
       249   5  2.832310E+05  9.992344E+04 -1.580619E+02  1.856417E+05  9.755452E+03 -2.661280E+04
       249   6  2.778874E+05  1.052880E+05  1.235097E+01  1.917007E+05  7.644463E+03 -2.079712E+04
       249   7 -1.234792E+05 -3.970373E+04 -6.666551E+04  7.842634E+04  2.259835E+04 -2.834771E+04
       249   8 -4.736955E+04 -1.951529E+04 -5.486070E+04  9.232474E+04  2.053167E+04 -2.253567E+04
       249   9  1.803000E+04  1.136826E+04 -4.314141E+04  1.183464E+05  1.845647E+04 -1.670496E+04
       249  10  6.793864E+05  2.502407E+05  6.588926E+04  3.050504E+05  8.592299E-10 -1.713143E-09
       249  11  6.139503E+05  2.193733E+05  5.454125E+04  2.790059E+05  2.100839E-08  1.136859E-08
       249  12  5.378199E+05  1.992152E+05  4.316461E+04  2.650846E+05  4.529532E-08  1.818811E-08
       249  13  2.778670E+05  1.052596E+05 -3.874931E+02  1.917042E+05 -2.902845E-09  2.448029E-09
       249  14  2.832307E+05  9.992265E+04 -1.595719E+02  1.856419E+05  2.253977E-09 -6.749069E-09
       249  15  2.778872E+05  1.052875E+05  1.142820E+01  1.917008E+05  6.849822E-09  5.458166E-09
       249  16 -1.234799E+05 -3.970473E+04 -6.666798E+04  7.842686E+04 -4.930831E-09  6.683116E-09
       249  17 -4.737014E+04 -1.951595E+04 -5.486245E+04  9.232511E+04 -2.105963E-08 -3.607464E-09
       249  18  1.802956E+04  1.136786E+04 -4.314257E+04  1.183466E+05 -3.029293E-08 -1.328839E-08
       249  19  6.793867E+05  2.502422E+05  6.589176E+04  3.050503E+05 -1.110078E+03  3.647471E+04
       249  20  6.139506E+05  2.193743E+05  5.454302E+04  2.790059E+05  1.026923E+03  3.069227E+04
       249  21  5.378201E+05  1.992159E+05  4.316579E+04  2.650847E+05  3.172471E+03  2.489114E+04
       249  22  2.778675E+05  1.052608E+05 -3.852546E+02  1.917039E+05 -1.185790E+04  3.240982E+04
       249  23  2.832310E+05  9.992344E+04 -1.580619E+02  1.856417E+05 -9.755452E+03  2.661280E+04
       249  24  2.778874E+05  1.052880E+05  1.235097E+01  1.917007E+05 -7.644463E+03  2.079712E+04
       249  25 -1.234792E+05 -3.970373E+04 -6.666551E+04  7.842634E+04 -2.259835E+04  2.834771E+04
       249  26 -4.736955E+04 -1.951529E+04 -5.486070E+04  9.232474E+04 -2.053167E+04  2.253567E+04
       249  27  1.803000E+04  1.136826E+04 -4.314141E+04  1.183464E+05 -1.845647E+04  1.670496E+04
       250   1  4.925913E+05  1.828285E+05  3.541722E+04  2.523456E+05 -4.454897E+03 -2.152017E+04
       250   2  4.271905E+05  1.519678E+05  2.407983E+04  2.263219E+05 -6.770015E+03 -1.577865E+04
       250   3  3.511098E+05  1.318150E+05  1.283573E+04  2.124207E+05 -9.081958E+03 -1.004718E+04
       250   4  2.778994E+05  1.052922E+05  9.202847E+01  1.917024E+05  6.358728E+03 -1.742676E+04
       250   5  2.832427E+05  9.993663E+04  2.878607E+02  1.856432E+05  4.024485E+03 -1.169179E+04
       250   6  2.779059E+05  1.052930E+05  5.921072E+02  1.917049E+05  1.693410E+03 -5.966901E+03
       250   7  6.325464E+04  2.775978E+04 -3.523439E+04  1.310784E+05  1.716850E+04 -1.333480E+04
       250   8  1.393164E+05  4.790741E+04 -2.350433E+04  1.449731E+05  1.481639E+04 -7.605919E+03
       250   9  2.047078E+05  7.877158E+04 -1.165116E+04  1.709914E+05  1.246743E+04 -1.887134E+03
       250  10  4.925911E+05  1.828280E+05  3.541631E+04  2.523455E+05 -5.533295E-08 -2.099997E-08
       250  11  4.271904E+05  1.519675E+05  2.407928E+04  2.263219E+05  1.244357E-08  1.011653E-08
       250  12  3.511097E+05  1.318149E+05  1.283539E+04  2.124207E+05  1.012839E-07  4.134279E-08
       250  13  2.778993E+05  1.052918E+05  9.138168E+01  1.917025E+05  4.299739E-09  3.941152E-09
       250  14  2.832426E+05  9.993648E+04  2.875734E+02  1.856432E+05 -1.541997E-09  5.135780E-09
       250  15  2.779058E+05  1.052930E+05  5.920349E+02  1.917049E+05  7.022312E-09  1.003762E-08
       250  16  6.325428E+04  2.775951E+04 -3.523528E+04  1.310786E+05  6.593864E-08  2.499587E-08
       250  17  1.393161E+05  4.790729E+04 -2.350486E+04  1.449732E+05 -1.587588E-08 -2.576253E-09
       250  18  2.047076E+05  7.877154E+04 -1.165146E+04  1.709914E+05 -8.612469E-08 -3.268037E-08
       250  19  4.925913E+05  1.828285E+05  3.541722E+04  2.523456E+05  4.454897E+03  2.152017E+04
       250  20  4.271905E+05  1.519678E+05  2.407983E+04  2.263219E+05  6.770015E+03  1.577865E+04
       250  21  3.511098E+05  1.318150E+05  1.283573E+04  2.124207E+05  9.081958E+03  1.004718E+04
       250  22  2.778994E+05  1.052922E+05  9.202847E+01  1.917024E+05 -6.358728E+03  1.742676E+04
       250  23  2.832427E+05  9.993663E+04  2.878607E+02  1.856432E+05 -4.024485E+03  1.169179E+04
       250  24  2.779059E+05  1.052930E+05  5.921072E+02  1.917049E+05 -1.693410E+03  5.966901E+03
       250  25  6.325464E+04  2.775978E+04 -3.523439E+04  1.310784E+05 -1.716850E+04  1.333480E+04
       250  26  1.393164E+05  4.790741E+04 -2.350433E+04  1.449731E+05 -1.481639E+04  7.605919E+03
       250  27  2.047078E+05  7.877158E+04 -1.165116E+04  1.709914E+05 -1.246743E+04  1.887134E+03
       251   1  3.059041E+05  1.154367E+05  5.216412E+03  1.997126E+05 -1.048101E+04 -6.727975E+03
       251   2  2.404805E+05  8.455846E+04 -5.718876E+03  1.736878E+05 -1.317567E+04 -1.206239E+03
       251   3  1.644650E+05  6.446205E+04 -1.624016E+04  1.597772E+05 -1.582633E+04  4.200144E+03
       251   4  2.779305E+05  1.052884E+05  8.070439E+02  1.917145E+05  3.034126E+02 -2.644143E+03
       251   5  2.832137E+05  9.992491E+04  1.492401E+03  1.856397E+05 -2.607313E+03  2.795571E+03
       251   6  2.779418E+05  1.053851E+05  2.762448E+03  1.916767E+05 -5.474108E+03  8.119940E+03
       251   7  2.499584E+05  9.514039E+04 -3.601754E+03  1.837170E+05  1.108720E+04  1.439447E+03
       251   8  3.259491E+05  1.152916E+05  8.704110E+03  1.975924E+05  7.961821E+03  6.797671E+03
       251   9  3.914339E+05  1.463100E+05  2.176553E+04  2.235820E+05  4.880232E+03  1.204053E+04
       251  10  3.059039E+05  1.154366E+05  5.216121E+03  1.997125E+05 -7.868437E-08 -2.525692E-08
       251  11  2.404804E+05  8.455842E+04 -5.719204E+03  1.736878E+05 -3.652567E-08 -1.711370E-08
       251  12  1.644648E+05  6.446197E+04 -1.624066E+04  1.597773E+05  1.937410E-08  7.612857E-09
       251  13  2.779305E+05  1.052884E+05  8.070306E+02  1.917145E+05  8.767123E-09  7.750494E-09
       251  14  2.832137E+05  9.992490E+04  1.492374E+03  1.856397E+05  5.468978E-10  7.582426E-10
       251  15  2.779418E+05  1.053850E+05  2.762268E+03  1.916767E+05  6.046045E-10 -3.619196E-09
       251  16  2.499582E+05  9.514036E+04 -3.601989E+03  1.837169E+05  9.566573E-08  3.561397E-08
       251  17  3.259490E+05  1.152916E+05  8.703904E+03  1.975924E+05  3.427877E-08  1.248180E-08
       251  18  3.914338E+05  1.463099E+05  2.176521E+04  2.235820E+05 -2.227796E-08 -3.071349E-09
       251  19  3.059041E+05  1.154367E+05  5.216412E+03  1.997126E+05  1.048101E+04  6.727975E+03
       251  20  2.404805E+05  8.455846E+04 -5.718876E+03  1.736878E+05  1.317567E+04  1.206239E+03
       251  21  1.644650E+05  6.446205E+04 -1.624016E+04  1.597772E+05  1.582633E+04 -4.200144E+03
       251  22  2.779305E+05  1.052884E+05  8.070439E+02  1.917145E+05 -3.034126E+02  2.644143E+03
       251  23  2.832137E+05  9.992491E+04  1.492401E+03  1.856397E+05  2.607313E+03 -2.795571E+03
       251  24  2.779418E+05  1.053851E+05  2.762448E+03  1.916767E+05  5.474108E+03 -8.119940E+03
       251  25  2.499584E+05  9.514039E+04 -3.601754E+03  1.837170E+05 -1.108720E+04 -1.439447E+03
       251  26  3.259491E+05  1.152916E+05  8.704110E+03  1.975924E+05 -7.961821E+03 -6.797671E+03
       251  27  3.914339E+05  1.463100E+05  2.176553E+04  2.235820E+05 -4.880232E+03 -1.204053E+04
       252   1  1.191853E+05  4.819995E+04 -2.326832E+04  1.473085E+05 -1.768089E+04  7.260962E+03
       252   2  5.423200E+04  1.705773E+04 -3.273571E+04  1.202910E+05 -2.077388E+04  1.181740E+04
       252   3 -2.060330E+04 -1.876057E+03 -4.088445E+04  1.049571E+05 -2.341500E+04  1.518267E+04
       252   4  2.781252E+05  1.053683E+05  3.692127E+03  1.917397E+05 -7.225203E+03  1.121960E+04
       252   5  2.830571E+05  1.005375E+05  6.793228E+03  1.853314E+05 -1.254228E+04  1.493302E+04
       252   6  2.785419E+05  1.083544E+05  1.297520E+04  1.906041E+05 -1.740771E+04  1.745547E+04
       252   7  4.370922E+05  1.625393E+05  3.065234E+04  2.361815E+05  3.233330E+03  1.517930E+04
       252   8  5.119365E+05  1.840223E+05  4.632057E+04  2.503940E+05 -4.307501E+03  1.804986E+04
       252   9  5.777781E+05  2.185930E+05  6.683102E+04  2.762890E+05 -1.139740E+04  1.972944E+04
       252  10  1.191850E+05  4.819981E+04 -2.326901E+04  1.473086E+05  1.909544E-09 -1.170253E-09
       252  11  5.423150E+04  1.705747E+04 -3.273678E+04  1.202912E+05 -1.547490E-09  1.292183E-09
       252  12 -2.060395E+04 -1.876451E+03 -4.088591E+04  1.049574E+05 -6.770034E-09 -5.777789E-09
       252  13  2.781251E+05  1.053682E+05  3.691792E+03  1.917397E+05 -9.966899E-10  5.633800E-09
       252  14  2.830568E+05  1.005372E+05  6.792513E+03  1.853315E+05  1.823255E-09  1.090323E-08
       252  15  2.785415E+05  1.083540E+05  1.297406E+04  1.906044E+05 -5.682328E-10 -2.907807E-09
       252  16  4.370921E+05  1.625390E+05  3.065189E+04  2.361815E+05 -1.764915E-09 -3.566999E-10
       252  17  5.119364E+05  1.840220E+05  4.631992E+04  2.503940E+05  2.169803E-09  3.681803E-09
       252  18  5.777779E+05  2.185925E+05  6.683005E+04  2.762892E+05  5.110765E-09 -2.618517E-09
       252  19  1.191853E+05  4.819995E+04 -2.326832E+04  1.473085E+05  1.768089E+04 -7.260962E+03
       252  20  5.423200E+04  1.705773E+04 -3.273571E+04  1.202910E+05  2.077388E+04 -1.181740E+04
       252  21 -2.060330E+04 -1.876057E+03 -4.088445E+04  1.049571E+05  2.341500E+04 -1.518267E+04
       252  22  2.781252E+05  1.053683E+05  3.692127E+03  1.917397E+05  7.225203E+03 -1.121960E+04
       252  23  2.830571E+05  1.005375E+05  6.793228E+03  1.853314E+05  1.254228E+04 -1.493302E+04
       252  24  2.785419E+05  1.083544E+05  1.297520E+04  1.906041E+05  1.740771E+04 -1.745547E+04
       252  25  4.370922E+05  1.625393E+05  3.065234E+04  2.361815E+05 -3.233330E+03 -1.517930E+04
       252  26  5.119365E+05  1.840223E+05  4.632057E+04  2.503940E+05  4.307501E+03 -1.804986E+04
       252  27  5.777781E+05  2.185930E+05  6.683102E+04  2.762890E+05  1.139740E+04 -1.972944E+04
       253   1 -6.695599E+04 -1.610043E+04 -4.574385E+04  9.553199E+04 -2.737924E+04  1.655246E+04
       253   2 -1.198555E+05 -5.136706E+04 -5.223439E+04  4.854345E+04 -2.076819E+04  1.637119E+04
       253   3 -1.731439E+05 -4.943507E+04 -5.544855E+04  5.161718E+03 -9.512517E+03  3.905989E+03
       253   4  2.806500E+05  1.084995E+05  1.733981E+04  1.911958E+05 -2.031108E+04  1.922635E+04
       253   5  2.824041E+05  1.144374E+05  3.314953E+04  1.792452E+05 -3.661297E+04  1.037329E+04
       253   6  2.882995E+05  1.621011E+05  7.039679E+04  1.709015E+05 -4.827236E+04 -1.075912E+04
       253   7  6.283886E+05  2.331123E+05  8.042094E+04  2.869107E+05 -1.323859E+04  2.190183E+04
       253   8  6.848311E+05  2.802677E+05  1.185254E+05  3.100292E+05 -5.246874E+04  4.370076E+03
       253   9  7.499486E+05  3.736797E+05  1.962268E+05  3.367607E+05 -8.706287E+04 -2.544176E+04
       253  10 -6.695687E+04 -1.610093E+04 -4.574578E+04  9.553236E+04  3.893786E-09  9.647551E-10
       253  11 -1.198560E+05 -5.136747E+04 -5.223570E+04  4.854372E+04 -6.786791E-11  1.434161E-10
       253  12 -1.731440E+05 -4.943511E+04 -5.544875E+04  5.161748E+03 -5.514792E-09 -5.784744E-09
       253  13  2.806494E+05  1.084990E+05  1.733834E+04  1.911961E+05  4.269464E-09 -2.717995E-09
       253  14  2.824027E+05  1.144369E+05  3.314680E+04  1.792455E+05 -1.155108E-09 -1.162387E-08
       253  15  2.882970E+05  1.621003E+05  7.039220E+04  1.709011E+05  2.641737E-09  2.753414E-09
       253  16  6.283882E+05  2.331117E+05  8.041971E+04  2.869109E+05 -2.913527E-09 -6.985969E-09
       253  17  6.848282E+05  2.802670E+05  1.185202E+05  3.100294E+05  1.846963E-09 -3.638877E-09
       253  18  7.499403E+05  3.736769E+05  1.962114E+05  3.367589E+05  5.238462E-09  9.767887E-10
       253  19 -6.695599E+04 -1.610043E+04 -4.574385E+04  9.553199E+04  2.737924E+04 -1.655246E+04
       253  20 -1.198555E+05 -5.136706E+04 -5.223439E+04  4.854345E+04  2.076819E+04 -1.637119E+04
       253  21 -1.731439E+05 -4.943507E+04 -5.544855E+04  5.161718E+03  9.512517E+03 -3.905989E+03
       253  22  2.806500E+05  1.084995E+05  1.733981E+04  1.911958E+05  2.031108E+04 -1.922635E+04
       253  23  2.824041E+05  1.144374E+05  3.314953E+04  1.792452E+05  3.661297E+04 -1.037329E+04
       253  24  2.882995E+05  1.621011E+05  7.039679E+04  1.709015E+05  4.827236E+04  1.075912E+04
       253  25  6.283886E+05  2.331123E+05  8.042094E+04  2.869107E+05  1.323859E+04 -2.190183E+04
       253  26  6.848311E+05  2.802677E+05  1.185254E+05  3.100292E+05  5.246874E+04 -4.370076E+03
       253  27  7.499486E+05  3.736797E+05  1.962268E+05  3.367607E+05  8.706287E+04  2.544176E+04
       254   1  3.180810E+05  5.495972E+04  4.834048E+04  5.837659E+03 -1.558946E+04 -2.712210E+03
       254   2  3.017476E+05  7.503606E+04  5.756882E+04  7.623505E+02 -1.151055E+04 -7.920594E+03
       254   3  2.779555E+05  6.751042E+04  5.724955E+04  1.402223E+04 -7.453922E+03 -7.071450E+03
       254   4  1.089591E+04 -2.163341E+04 -2.772617E+04  1.074722E+04 -1.895106E+04 -2.724466E+03
       254   5  1.484239E+04  3.753118E+03 -1.204966E+04  1.538001E+03 -1.240245E+04 -7.924235E+03
       254   6  1.089735E+04  1.102000E+03 -7.639143E+03  1.066459E+04 -5.875954E+03 -7.065298E+03
       254   7 -2.962034E+05 -9.823348E+04 -1.037998E+05  1.565428E+04 -2.231100E+04 -2.736779E+03
       254   8 -2.719877E+05 -6.753586E+04 -8.167407E+04  2.313221E+03 -1.329393E+04 -7.927879E+03
       254   9 -2.560957E+05 -6.531162E+04 -7.253298E+04  7.308345E+03 -4.298663E+03 -7.059162E+03
       254  10  3.180807E+05  5.495965E+04  4.834001E+04  5.837625E+03 -1.724189E-09  2.850918E-09
       254  11  3.017475E+05  7.503595E+04  5.756845E+04  7.622771E+02  6.929479E-10  1.216284E-08
       254  12  2.779554E+05  6.751035E+04  5.724935E+04  1.402218E+04 -6.124674E-10  4.277295E-09
       254  13  1.089552E+04 -2.163351E+04 -2.772685E+04  1.074718E+04 -1.080960E-09 -7.144590E-09
       254  14  1.484220E+04  3.753010E+03 -1.205006E+04  1.537922E+03 -4.613638E-11 -1.032749E-08
       254  15  1.089730E+04  1.101937E+03 -7.639302E+03  1.066456E+04 -1.548464E-10 -3.457457E-10
       254  16 -2.962040E+05 -9.823362E+04 -1.038007E+05  1.565423E+04  3.591615E-09  1.543021E-09
       254  17 -2.719879E+05 -6.753597E+04 -8.167452E+04  2.313136E+03 -1.322695E-09  1.198774E-08
       254  18 -2.560957E+05 -6.531168E+04 -7.253311E+04  7.308321E+03  1.396432E-10 -1.159665E-09
       254  19  3.180810E+05  5.495972E+04  4.834048E+04  5.837659E+03  1.558946E+04  2.712210E+03
       254  20  3.017476E+05  7.503606E+04  5.756882E+04  7.623505E+02  1.151055E+04  7.920594E+03
       254  21  2.779555E+05  6.751042E+04  5.724955E+04  1.402223E+04  7.453922E+03  7.071450E+03
       254  22  1.089591E+04 -2.163341E+04 -2.772617E+04  1.074722E+04  1.895106E+04  2.724466E+03
       254  23  1.484239E+04  3.753118E+03 -1.204966E+04  1.538001E+03  1.240245E+04  7.924235E+03
       254  24  1.089735E+04  1.102000E+03 -7.639143E+03  1.066459E+04  5.875954E+03  7.065298E+03
       254  25 -2.962034E+05 -9.823348E+04 -1.037998E+05  1.565428E+04  2.231100E+04  2.736779E+03
       254  26 -2.719877E+05 -6.753586E+04 -8.167407E+04  2.313221E+03  1.329393E+04  7.927879E+03
       254  27 -2.560957E+05 -6.531162E+04 -7.253298E+04  7.308345E+03  4.298663E+03  7.059162E+03
       255   1  2.445767E+05  5.520652E+04  5.025119E+04  1.078964E+04 -4.632781E+03 -5.731912E+03
       255   2  2.251644E+05  5.320948E+04  4.844877E+04  2.036925E+03 -3.252817E+03 -5.538680E+03
       255   3  2.046578E+05  4.802417E+04  4.492762E+04  1.165739E+04 -1.875640E+03 -4.777090E+03
       255   4  1.240381E+04 -2.521490E+03 -6.265209E+03  1.070762E+04 -4.671042E+03 -5.732212E+03
       255   5  1.297209E+04  4.605497E+02 -3.124680E+03  1.515140E+03 -3.059652E+03 -5.537980E+03
       255   6  1.240488E+04  2.134468E+02 -1.864120E+03  1.069625E+04 -1.451009E+03 -4.775305E+03
       255   7 -2.197199E+05 -6.025347E+04 -6.278552E+04  1.062558E+04 -4.709288E+03 -5.732513E+03
       255   8 -1.991791E+05 -5.229169E+04 -5.470139E+04  9.934903E+02 -2.866553E+03 -5.537280E+03
       255   9 -1.798143E+05 -4.760000E+04 -4.865853E+04  9.735373E+03 -1.026508E+03 -4.773521E+03
       255  10  2.445767E+05  5.520648E+04  5.025109E+04  1.078961E+04  1.857766E-09 -4.533642E-09
       255  11  2.251643E+05  5.320944E+04  4.844869E+04  2.036910E+03  6.251578E-10 -1.095051E-10
       255  12  2.046578E+05  4.802415E+04  4.492757E+04  1.165739E+04 -1.434063E-09  1.074116E-08
       255  13  1.240378E+04 -2.521532E+03 -6.265312E+03  1.070760E+04 -1.821265E-11  1.056774E-08
       255  14  1.297207E+04  4.605143E+02 -3.124756E+03  1.515126E+03  2.224976E-09 -3.060211E-08
       255  15  1.240487E+04  2.134217E+02 -1.864167E+03  1.069625E+04  2.731443E-10  1.168384E-08
       255  16 -2.197200E+05 -6.025351E+04 -6.278562E+04  1.062556E+04  3.667550E-10 -9.009332E-09
       255  17 -1.991791E+05 -5.229173E+04 -5.470146E+04  9.934775E+02 -1.846771E-09 -3.357833E-09
       255  18 -1.798143E+05 -4.760003E+04 -4.865858E+04  9.735369E+03  1.835585E-10  1.819147E-09
       255  19  2.445767E+05  5.520652E+04  5.025119E+04  1.078964E+04  4.632781E+03  5.731912E+03
       255  20  2.251644E+05  5.320948E+04  4.844877E+04  2.036925E+03  3.252817E+03  5.538680E+03
       255  21  2.046578E+05  4.802417E+04  4.492762E+04  1.165739E+04  1.875640E+03  4.777090E+03
       255  22  1.240381E+04 -2.521490E+03 -6.265209E+03  1.070762E+04  4.671042E+03  5.732212E+03
       255  23  1.297209E+04  4.605497E+02 -3.124680E+03  1.515140E+03  3.059652E+03  5.537980E+03
       255  24  1.240488E+04  2.134468E+02 -1.864120E+03  1.069625E+04  1.451009E+03  4.775305E+03
       255  25 -2.197199E+05 -6.025347E+04 -6.278552E+04  1.062558E+04  4.709288E+03  5.732513E+03
       255  26 -1.991791E+05 -5.229169E+04 -5.470139E+04  9.934903E+02  2.866553E+03  5.537280E+03
       255  27 -1.798143E+05 -4.760000E+04 -4.865853E+04  9.735373E+03  1.026508E+03  4.773521E+03
       256   1  1.699888E+05  3.890109E+04  3.675238E+04  1.116951E+04 -1.431029E+03 -4.256277E+03
       256   2  1.501968E+05  3.424055E+04  3.265574E+04  1.978852E+03 -1.071768E+03 -3.559743E+03
       256   3  1.301216E+05  2.934815E+04  2.822970E+04  1.115714E+04 -7.130086E+02 -2.810053E+03
       256   4  1.259704E+04 -2.190641E+02 -1.462885E+03  1.069997E+04 -1.158103E+03 -4.255119E+03
       256   5  1.274102E+04  6.616884E+01 -7.611777E+02  1.514606E+03 -7.772402E+02 -3.558440E+03
       256   6  1.259775E+04  1.158458E+02 -4.038272E+02  1.069844E+04 -3.968675E+02 -2.808600E+03
       256   7 -1.447721E+05 -3.934104E+04 -3.967994E+04  1.023052E+04 -8.852458E+02 -4.253961E+03
       256   8 -1.246976E+05 -3.410960E+04 -3.417946E+04  1.050444E+03 -4.827776E+02 -3.557138E+03
       256   9 -1.049135E+05 -2.911747E+04 -2.903836E+04  1.023981E+04 -8.078606E+01 -2.807147E+03
       256  10  1.699888E+05  3.890107E+04  3.675234E+04  1.116950E+04  4.473167E-09 -1.832208E-09
       256  11  1.501968E+05  3.424053E+04  3.265571E+04  1.978849E+03  2.150821E-10 -6.715510E-09
       256  12  1.301216E+05  2.934814E+04  2.822969E+04  1.115713E+04  1.132590E-09 -6.139312E-09
       256  13  1.259703E+04 -2.190839E+02 -1.462922E+03  1.069996E+04  2.989753E-12 -6.679489E-10
       256  14  1.274101E+04  6.615508E+01 -7.612026E+02  1.514604E+03  9.974433E-11 -6.062179E-09
       256  15  1.259775E+04  1.158373E+02 -4.038423E+02  1.069843E+04  4.329497E-10 -3.883280E-09
       256  16 -1.447721E+05 -3.934106E+04 -3.967998E+04  1.023052E+04 -3.719498E-09 -9.394147E-09
       256  17 -1.246976E+05 -3.410961E+04 -3.417948E+04  1.050442E+03  1.232664E-09  7.282783E-09
       256  18 -1.049135E+05 -2.911748E+04 -2.903837E+04  1.023981E+04  2.437706E-09  1.279690E-08
       256  19  1.699888E+05  3.890109E+04  3.675238E+04  1.116951E+04  1.431029E+03  4.256277E+03
       256  20  1.501968E+05  3.424055E+04  3.265574E+04  1.978852E+03  1.071768E+03  3.559743E+03
       256  21  1.301216E+05  2.934815E+04  2.822970E+04  1.115714E+04  7.130086E+02  2.810053E+03
       256  22  1.259704E+04 -2.190641E+02 -1.462885E+03  1.069997E+04  1.158103E+03  4.255119E+03
       256  23  1.274102E+04  6.616884E+01 -7.611777E+02  1.514606E+03  7.772402E+02  3.558440E+03
       256  24  1.259775E+04  1.158458E+02 -4.038272E+02  1.069844E+04  3.968675E+02  2.808600E+03
       256  25 -1.447721E+05 -3.934104E+04 -3.967994E+04  1.023052E+04  8.852458E+02  4.253961E+03
       256  26 -1.246976E+05 -3.410960E+04 -3.417946E+04  1.050444E+03  4.827776E+02  3.557138E+03
       256  27 -1.049135E+05 -2.911747E+04 -2.903836E+04  1.023981E+04  8.078606E+01  2.807147E+03
       257   1  9.530431E+04  2.060734E+04  1.976067E+04  1.098985E+04 -6.397911E+02 -2.366897E+03
       257   2  7.547005E+04  1.562249E+04  1.519476E+04  1.744929E+03 -6.133260E+02 -1.624445E+03
       257   3  5.545476E+04  1.077812E+04  1.060193E+04  1.086013E+04 -5.870005E+02 -8.774934E+02
       257   4  1.262331E+04  6.226736E+01 -2.807156E+02  1.069708E+04 -3.377866E+02 -2.365483E+03
       257   5  1.271433E+04  1.913796E+01 -6.291633E+01  1.516822E+03 -3.094960E+02 -1.623001E+03
       257   6  1.262364E+04  1.161987E+02  1.266968E+02  1.069680E+04 -2.813442E+02 -8.760173E+02
       257   7 -7.005145E+04 -2.048331E+04 -2.032259E+04  1.040434E+04 -3.582218E+01 -2.364070E+03
       257   8 -5.003779E+04 -1.558450E+04 -1.532088E+04  1.288735E+03 -5.696653E+00 -1.621557E+03
       257   9 -3.020580E+04 -1.054586E+04 -1.034867E+04  1.053348E+04  2.429120E+01 -8.745414E+02
       257  10  9.530431E+04  2.060733E+04  1.976065E+04  1.098985E+04  1.654120E-09 -9.424888E-09
       257  11  7.547005E+04  1.562249E+04  1.519476E+04  1.744928E+03 -1.669819E-09  2.090647E-09
       257  12  5.545476E+04  1.077812E+04  1.060193E+04  1.086013E+04 -4.749934E-09 -3.487698E-10
       257  13  1.262331E+04  6.226132E+01 -2.807264E+02  1.069708E+04  1.061016E-09  5.426359E-09
       257  14  1.271433E+04  1.913511E+01 -6.292146E+01  1.516822E+03  3.872202E-09 -5.725649E-09
       257  15  1.262364E+04  1.161979E+02  1.266952E+02  1.069680E+04  2.062524E-09 -9.547110E-09
       257  16 -7.005145E+04 -2.048331E+04 -2.032260E+04  1.040434E+04  2.383848E-10  6.201326E-09
       257  17 -5.003779E+04 -1.558450E+04 -1.532089E+04  1.288735E+03  1.986399E-09  1.608117E-08
       257  18 -3.020580E+04 -1.054586E+04 -1.034867E+04  1.053348E+04  3.893578E-09  3.931893E-09
       257  19  9.530431E+04  2.060734E+04  1.976067E+04  1.098985E+04  6.397911E+02  2.366897E+03
       257  20  7.547005E+04  1.562249E+04  1.519476E+04  1.744929E+03  6.133260E+02  1.624445E+03
       257  21  5.545476E+04  1.077812E+04  1.060193E+04  1.086013E+04  5.870005E+02  8.774934E+02
       257  22  1.262331E+04  6.226736E+01 -2.807156E+02  1.069708E+04  3.377866E+02  2.365483E+03
       257  23  1.271433E+04  1.913796E+01 -6.291633E+01  1.516822E+03  3.094960E+02  1.623001E+03
       257  24  1.262364E+04  1.161987E+02  1.266968E+02  1.069680E+04  2.813442E+02  8.760173E+02
       257  25 -7.005145E+04 -2.048331E+04 -2.032259E+04  1.040434E+04  3.582218E+01  2.364070E+03
       257  26 -5.003779E+04 -1.558450E+04 -1.532088E+04  1.288735E+03  5.696653E+00  1.621557E+03
       257  27 -3.020580E+04 -1.054586E+04 -1.034867E+04  1.053348E+04 -2.429120E+01  8.745414E+02
       258   1  2.063888E+04  2.072442E+03  2.111477E+03  1.074131E+04 -6.209735E+02 -4.414869E+02
       258   2  7.745890E+02 -2.966642E+03 -2.402898E+03  1.477520E+03 -8.703006E+02  3.040599E+02
       258   3 -1.920350E+04 -7.706218E+03 -6.726708E+03  1.057169E+04 -1.119576E+03  1.045854E+03
       258   4  1.263918E+04  9.548212E+01  2.279841E+02  1.069655E+04 -3.155337E+02 -4.400051E+02
       258   5  1.269625E+04 -2.403717E+00  4.956567E+02  1.517322E+03 -5.664044E+02  3.055294E+02
       258   6  1.263912E+04  1.994335E+02  9.549056E+02  1.069602E+04 -8.172313E+02  1.047313E+03
       258   7  4.639537E+03 -1.881482E+03 -1.655513E+03  1.065180E+04 -1.009774E+01 -4.385232E+02
       258   8  2.461804E+04  2.961824E+03  3.394201E+03  1.557125E+03 -2.625024E+02  3.069988E+02
       258   9  4.448268E+04  8.105011E+03  8.636447E+03  1.082036E+04 -5.148711E+02  1.048771E+03
       258  10  2.063888E+04  2.072441E+03  2.111476E+03  1.074131E+04 -4.544255E-09 -4.565728E-10
       258  11  7.745881E+02 -2.966642E+03 -2.402899E+03  1.477520E+03  1.366435E-09 -7.154976E-09
       258  12 -1.920350E+04 -7.706220E+03 -6.726712E+03  1.057169E+04 -3.271022E-10 -9.615045E-09
       258  13  1.263918E+04  9.548189E+01  2.279835E+02  1.069655E+04 -1.080232E-09  7.807133E-09
       258  14  1.269625E+04 -2.403903E+00  4.956559E+02  1.517322E+03 -2.025627E-09 -6.890408E-09
       258  15  1.263912E+04  1.994322E+02  9.549023E+02  1.069602E+04 -9.916845E-10 -6.293717E-09
       258  16  4.639537E+03 -1.881482E+03 -1.655513E+03  1.065180E+04  7.054596E-09 -6.233003E-10
       258  17  2.461804E+04  2.961824E+03  3.394201E+03  1.557125E+03 -3.888827E-09 -2.332822E-08
       258  18  4.448267E+04  8.105010E+03  8.636444E+03  1.082036E+04 -2.637480E-09 -1.398925E-08
       258  19  2.063888E+04  2.072442E+03  2.111477E+03  1.074131E+04  6.209735E+02  4.414869E+02
       258  20  7.745890E+02 -2.966642E+03 -2.402898E+03  1.477520E+03  8.703006E+02 -3.040599E+02
       258  21 -1.920350E+04 -7.706218E+03 -6.726708E+03  1.057169E+04  1.119576E+03 -1.045854E+03
       258  22  1.263918E+04  9.548212E+01  2.279841E+02  1.069655E+04  3.155337E+02  4.400051E+02
       258  23  1.269625E+04 -2.403717E+00  4.956567E+02  1.517322E+03  5.664044E+02 -3.055294E+02
       258  24  1.263912E+04  1.994335E+02  9.549056E+02  1.069602E+04  8.172313E+02 -1.047313E+03
       258  25  4.639537E+03 -1.881482E+03 -1.655513E+03  1.065180E+04  1.009774E+01  4.385232E+02
       258  26  2.461804E+04  2.961824E+03  3.394201E+03  1.557125E+03  2.625024E+02 -3.069988E+02
       258  27  4.448268E+04  8.105011E+03  8.636447E+03  1.082036E+04  5.148711E+02 -1.048771E+03
       259   1 -5.395329E+04 -1.652404E+04 -1.501871E+04  1.056909E+04 -1.331966E+03  1.486399E+03
       259   2 -7.400392E+04 -2.167208E+04 -1.889596E+04  1.182196E+03 -2.406310E+03  2.229236E+03
       259   3 -9.380002E+04 -2.554264E+04 -2.179761E+04  1.015144E+04 -3.480267E+03  2.927355E+03
       259   4  1.272069E+04  6.567775E+01  1.253709E+03  1.069724E+04 -1.017783E+03  1.487901E+03
       259   5  1.259170E+04 -1.392398E+02  2.159012E+03  1.517185E+03 -2.110510E+03  2.230618E+03
       259   6  1.272026E+04  9.365267E+02  4.052677E+03  1.069311E+04 -3.202885E+03  2.928621E+03
       259   7  7.939873E+04  1.665507E+04  1.752580E+04  1.082539E+04 -7.035669E+02  1.489404E+03
       259   8  9.919415E+04  2.139305E+04  2.321344E+04  1.852213E+03 -1.814669E+03  2.232001E+03
       259   9  1.192509E+05  2.741486E+04  2.990214E+04  1.123486E+04 -2.925455E+03  2.929887E+03
       259  10 -5.395329E+04 -1.652404E+04 -1.501871E+04  1.056910E+04 -1.250785E-08 -5.215952E-09
       259  11 -7.400392E+04 -2.167209E+04 -1.889598E+04  1.182200E+03 -5.546750E-09 -1.535840E-08
       259  12 -9.380004E+04 -2.554265E+04 -2.179765E+04  1.015145E+04  4.338253E-09 -7.555108E-09
       259  13  1.272069E+04  6.567509E+01  1.253703E+03  1.069724E+04 -1.031470E-09 -3.031365E-09
       259  14  1.259169E+04 -1.392463E+02  2.158994E+03  1.517189E+03 -2.607601E-09  4.960501E-09
       259  15  1.272025E+04  9.365148E+02  4.052642E+03  1.069312E+04 -1.220399E-09  4.790343E-09
       259  16  7.939873E+04  1.665506E+04  1.752580E+04  1.082539E+04  1.296108E-08  7.216290E-09
       259  17  9.919415E+04  2.139305E+04  2.321343E+04  1.852216E+03  4.321246E-09 -6.853157E-09
       259  18  1.192509E+05  2.741485E+04  2.990211E+04  1.123487E+04 -4.898485E-09  1.424270E-08
       259  19 -5.395329E+04 -1.652404E+04 -1.501871E+04  1.056909E+04  1.331966E+03 -1.486399E+03
       259  20 -7.400392E+04 -2.167208E+04 -1.889596E+04  1.182196E+03  2.406310E+03 -2.229236E+03
       259  21 -9.380002E+04 -2.554264E+04 -2.179761E+04  1.015144E+04  3.480267E+03 -2.927355E+03
       259  22  1.272069E+04  6.567775E+01  1.253709E+03  1.069724E+04  1.017783E+03 -1.487901E+03
       259  23  1.259170E+04 -1.392398E+02  2.159012E+03  1.517185E+03  2.110510E+03 -2.230618E+03
       259  24  1.272026E+04  9.365267E+02  4.052677E+03  1.069311E+04  3.202885E+03 -2.928621E+03
       259  25  7.939873E+04  1.665507E+04  1.752580E+04  1.082539E+04  7.035669E+02 -1.489404E+03
       259  26  9.919415E+04  2.139305E+04  2.321344E+04  1.852213E+03  1.814669E+03 -2.232001E+03
       259  27  1.192509E+05  2.741486E+04  2.990214E+04  1.123486E+04  2.925455E+03 -2.929887E+03
       260   1 -1.280910E+05 -3.538481E+04 -2.927532E+04  1.108307E+04 -4.428804E+03  3.428760E+03
       260   2 -1.493877E+05 -4.135064E+04 -3.065037E+04  5.460225E+02 -8.653810E+03  4.164639E+03
       260   3 -1.679409E+05 -3.789734E+04 -2.695364E+04  8.341207E+03 -1.287630E+04  4.422559E+03
       260   4  1.327735E+04 -2.307363E+02  5.151522E+03  1.070118E+04 -4.023854E+03  3.430591E+03
       260   5  1.188880E+04 -1.243525E+03  8.557009E+03  1.518796E+03 -8.444864E+03  4.165504E+03
       260   6  1.327669E+04  7.195514E+03  1.716940E+04  1.066831E+04 -1.286350E+04  4.422495E+03
       260   7  1.546639E+05  3.492187E+04  3.957691E+04  1.031917E+04 -3.618812E+03  3.432421E+03
       260   8  1.731891E+05  3.886168E+04  4.776250E+04  2.491796E+03 -8.235863E+03  4.166368E+03
       260   9  1.945242E+05  5.228596E+04  6.129007E+04  1.299607E+04 -1.285068E+04  4.422431E+03
       260  10 -1.280910E+05 -3.538483E+04 -2.927538E+04  1.108309E+04  1.372730E-08 -2.073623E-09
       260  11 -1.493878E+05 -4.135068E+04 -3.065054E+04  5.460515E+02  2.624238E-09 -5.174939E-10
       260  12 -1.679410E+05 -3.789740E+04 -2.695399E+04  8.341252E+03 -2.913152E-09 -9.649922E-09
       260  13  1.327733E+04 -2.307533E+02  5.151470E+03  1.070119E+04 -1.060357E-09 -1.181199E-08
       260  14  1.188872E+04 -1.243563E+03  8.556842E+03  1.518824E+03 -4.442609E-10  3.519326E-09
       260  15  1.327651E+04  7.195448E+03  1.716906E+04  1.066836E+04 -2.247031E-09 -5.583634E-09
       260  16  1.546639E+05  3.492185E+04  3.957687E+04  1.031918E+04 -1.299501E-08 -5.919812E-09
       260  17  1.731890E+05  3.886164E+04  4.776234E+04  2.491823E+03 -5.146336E-09 -2.370798E-08
       260  18  1.945240E+05  5.228590E+04  6.128972E+04  1.299611E+04  1.522779E-09  5.411609E-09
       260  19 -1.280910E+05 -3.538481E+04 -2.927532E+04  1.108307E+04  4.428804E+03 -3.428760E+03
       260  20 -1.493877E+05 -4.135064E+04 -3.065037E+04  5.460225E+02  8.653810E+03 -4.164639E+03
       260  21 -1.679409E+05 -3.789734E+04 -2.695364E+04  8.341207E+03  1.287630E+04 -4.422559E+03
       260  22  1.327735E+04 -2.307363E+02  5.151522E+03  1.070118E+04  4.023854E+03 -3.430591E+03
       260  23  1.188880E+04 -1.243525E+03  8.557009E+03  1.518796E+03  8.444864E+03 -4.165504E+03
       260  24  1.327669E+04  7.195514E+03  1.716940E+04  1.066831E+04  1.286350E+04 -4.422495E+03
       260  25  1.546639E+05  3.492187E+04  3.957691E+04  1.031917E+04  3.618812E+03 -3.432421E+03
       260  26  1.731891E+05  3.886168E+04  4.776250E+04  2.491796E+03  8.235863E+03 -4.166368E+03
       260  27  1.945242E+05  5.228596E+04  6.129007E+04  1.299607E+04  1.285068E+04 -4.422431E+03
       261   1 -1.987027E+05 -5.638494E+04 -3.158137E+04  1.699747E+04 -1.756358E+04  5.591035E+03
       261   2 -2.292269E+05 -6.898755E+04 -2.430993E+04 -3.528706E+03 -3.334617E+04  6.350644E+03
       261   3 -2.385150E+05 -4.519777E+03  1.248957E+04 -5.994039E+03 -4.910734E+04  2.012100E+03
       261   4  1.745278E+04 -2.712523E+03  2.094347E+04  1.071108E+04 -1.619047E+04  5.597018E+03
       261   5  6.658489E+03 -1.030402E+04  3.295501E+04  1.556565E+03 -3.405867E+04  6.347311E+03
       261   6  1.745308E+04  5.952074E+04  7.593469E+04  1.046216E+04 -5.190599E+04  1.999727E+03
       261   7  2.336511E+05  5.095662E+04  7.346496E+04  4.422446E+03 -1.481689E+04  5.602972E+03
       261   8  2.425948E+05  4.837551E+04  9.021593E+04  6.643721E+03 -3.477144E+04  6.343967E+03
       261   9  2.734813E+05  1.235573E+05  1.393751E+05  2.692510E+04 -5.470580E+04  1.987207E+03
       261  10 -1.987031E+05 -5.638506E+04 -3.158201E+04  1.699755E+04  3.124740E-09 -9.741281E-09
       261  11 -2.292281E+05 -6.898789E+04 -2.431209E+04 -3.528536E+03  3.448704E-09 -1.378354E-09
       261  12 -2.385176E+05 -4.520429E+03  1.248503E+04 -5.993959E+03  2.338799E-09  9.522145E-09
       261  13  1.745250E+04 -2.712627E+03  2.094292E+04  1.071115E+04  1.090278E-09  5.339183E-09
       261  14  6.657232E+03 -1.030437E+04  3.295275E+04  1.556739E+03 -1.597656E-09  5.097895E-09
       261  15  1.745018E+04  5.952002E+04  7.592962E+04  1.046224E+04 -8.275767E-10  7.391841E-09
       261  16  2.336508E+05  5.095653E+04  7.346448E+04  4.422513E+03 -3.794925E-10  9.510222E-09
       261  17  2.425935E+05  4.837514E+04  9.021359E+04  6.643899E+03 -3.678762E-09  1.056114E-08
       261  18  2.734780E+05  1.235565E+05  1.393695E+05  2.692518E+04 -2.967680E-09  2.014288E-09
       261  19 -1.987027E+05 -5.638494E+04 -3.158137E+04  1.699747E+04  1.756358E+04 -5.591035E+03
       261  20 -2.292269E+05 -6.898755E+04 -2.430993E+04 -3.528706E+03  3.334617E+04 -6.350644E+03
       261  21 -2.385150E+05 -4.519777E+03  1.248957E+04 -5.994039E+03  4.910734E+04 -2.012100E+03
       261  22  1.745278E+04 -2.712523E+03  2.094347E+04  1.071108E+04  1.619047E+04 -5.597018E+03
       261  23  6.658489E+03 -1.030402E+04  3.295501E+04  1.556565E+03  3.405867E+04 -6.347311E+03
       261  24  1.745308E+04  5.952074E+04  7.593469E+04  1.046216E+04  5.190599E+04 -1.999727E+03
       261  25  2.336511E+05  5.095662E+04  7.346496E+04  4.422446E+03  1.481689E+04 -5.602972E+03
       261  26  2.425948E+05  4.837551E+04  9.021593E+04  6.643721E+03  3.477144E+04 -6.343967E+03
       261  27  2.734813E+05  1.235573E+05  1.393751E+05  2.692510E+04  5.470580E+04 -1.987207E+03
       262   1 -2.868863E+05 -1.346251E+06 -3.295880E+05  8.850731E+04 -3.922909E+03 -1.374347E+05
       262   2 -8.226085E+04 -1.235305E+06 -1.971378E+05  2.092035E+04 -1.198350E+04 -8.418011E+04
       262   3 -8.392373E+04 -1.182006E+06 -1.508221E+05  2.837339E+04 -8.944467E+03 -3.088373E+04
       262   4 -1.560125E+05 -8.238895E+05 -1.999179E+05  4.581949E+04 -3.931378E+03 -1.320295E+05
       262   5  2.726963E+04 -7.954413E+05 -9.027335E+04  8.560397E+03 -1.198416E+04 -8.326048E+04
       262   6  5.121358E+03 -8.238212E+05 -6.359445E+04  4.634393E+04 -8.935573E+03 -3.445711E+04
       262   7 -2.515254E+04 -3.012758E+05 -7.026728E+04  3.095832E+03 -3.940591E+03 -1.266198E+05
       262   8  1.367864E+05 -3.554001E+05  1.657721E+04 -3.808226E+03 -1.198486E+04 -8.234019E+04
       262   9  9.415825E+04 -4.655178E+05  2.362413E+04  6.432495E+04 -8.926888E+03 -3.803255E+04
       262  10 -2.868914E+05 -1.346272E+06 -3.296236E+05  8.850688E+04  2.595572E-09  7.572581E-09
       262  11 -8.226291E+04 -1.235313E+06 -1.971514E+05  2.091954E+04  1.531476E-09  2.715208E-09
       262  12 -8.392407E+04 -1.182008E+06 -1.508241E+05  2.837317E+04 -2.753684E-10  1.139504E-10
       262  13 -1.560172E+05 -8.239083E+05 -1.999508E+05  4.581907E+04  4.319901E-10  7.398369E-09
       262  14  2.726761E+04 -7.954487E+05 -9.028666E+04  8.559593E+03  4.259214E-09  1.491135E-08
       262  15  5.120953E+03 -8.238225E+05 -6.359683E+04  4.634368E+04  2.845986E-10  2.876841E-09
       262  16 -2.515687E+04 -3.012931E+05 -7.029745E+04  3.095430E+03  1.791587E-09 -1.096830E-09
       262  17  1.367844E+05 -3.554075E+05  1.656419E+04 -3.809021E+03  2.486981E-09 -4.138414E-09
       262  18  9.415777E+04 -4.655194E+05  2.362126E+04  6.432467E+04  1.842293E-11  7.899988E-10
       262  19 -2.868863E+05 -1.346251E+06 -3.295880E+05  8.850731E+04  3.922909E+03  1.374347E+05
       262  20 -8.226085E+04 -1.235305E+06 -1.971378E+05  2.092035E+04  1.198350E+04  8.418011E+04
       262  21 -8.392373E+04 -1.182006E+06 -1.508221E+05  2.837339E+04  8.944467E+03  3.088373E+04
       262  22 -1.560125E+05 -8.238895E+05 -1.999179E+05  4.581949E+04  3.931378E+03  1.320295E+05
       262  23  2.726963E+04 -7.954413E+05 -9.027335E+04  8.560397E+03  1.198416E+04  8.326048E+04
       262  24  5.121358E+03 -8.238212E+05 -6.359445E+04  4.634393E+04  8.935573E+03  3.445711E+04
       262  25 -2.515254E+04 -3.012758E+05 -7.026728E+04  3.095832E+03  3.940591E+03  1.266198E+05
       262  26  1.367864E+05 -3.554001E+05  1.657721E+04 -3.808226E+03  1.198486E+04  8.234019E+04
       262  27  9.415825E+04 -4.655178E+05  2.362413E+04  6.432495E+04  8.926888E+03  3.803255E+04
       263   1 -7.109575E+04 -1.026929E+06 -1.081943E+05  5.358970E+04 -5.426250E+03 -2.319638E+04
       263   2 -2.593702E+04 -9.364084E+05 -7.336974E+04  8.480911E+03 -3.370782E+03 -1.343028E+03
       263   3 -2.741530E+04 -8.598841E+05 -6.434301E+04  4.029186E+04 -8.568266E+02  2.051355E+04
       263   4 -1.812805E+04 -8.142866E+05 -5.642554E+04  4.657989E+04 -5.423928E+03 -2.396793E+04
       263   5  6.193403E+03 -8.073012E+05 -4.195682E+04  8.123798E+03 -3.368386E+03 -2.296134E+03
       263   6 -1.608469E+04 -8.142832E+05 -5.315443E+04  4.658735E+04 -8.539514E+02  1.937598E+04
       263   7  3.483649E+04 -6.016032E+05 -4.660051E+03  3.956769E+04 -5.421590E+03 -2.473975E+04
       263   8  3.832259E+04 -6.781787E+05 -1.054509E+04  7.766620E+03 -3.365989E+03 -3.249439E+03
       263   9 -4.754083E+03 -7.686803E+05 -4.196598E+04  5.288331E+04 -8.510993E+02  1.823833E+04
       263  10 -7.109592E+04 -1.026929E+06 -1.081954E+05  5.358960E+04 -8.682151E-10  9.357441E-09
       263  11 -2.593703E+04 -9.364084E+05 -7.336977E+04  8.480907E+03  3.940941E-09  5.386983E-09
       263  12 -2.741541E+04 -8.598845E+05 -6.434380E+04  4.029188E+04  8.314205E-10  1.056950E-09
       263  13 -1.812824E+04 -8.142872E+05 -5.642668E+04  4.657979E+04 -1.450302E-10  4.545850E-09
       263  14  6.193389E+03 -8.073012E+05 -4.195685E+04  8.123792E+03 -2.018632E-09  1.281615E-08
       263  15 -1.608479E+04 -8.142836E+05 -5.315514E+04  4.658737E+04 -3.833605E-12  2.122845E-09
       263  16  3.483629E+04 -6.016039E+05 -4.661257E+03  3.956758E+04  8.586628E-10 -6.618030E-09
       263  17  3.832258E+04 -6.781788E+05 -1.054514E+04  7.766611E+03  9.255150E-10 -6.815774E-09
       263  18 -4.754173E+03 -7.686807E+05 -4.196660E+04  5.288332E+04 -1.181695E-09 -1.756428E-09
       263  19 -7.109575E+04 -1.026929E+06 -1.081943E+05  5.358970E+04  5.426250E+03  2.319638E+04
       263  20 -2.593702E+04 -9.364084E+05 -7.336974E+04  8.480911E+03  3.370782E+03  1.343028E+03
       263  21 -2.741530E+04 -8.598841E+05 -6.434301E+04  4.029186E+04  8.568266E+02 -2.051355E+04
       263  22 -1.812805E+04 -8.142866E+05 -5.642554E+04  4.657989E+04  5.423928E+03  2.396793E+04
       263  23  6.193403E+03 -8.073012E+05 -4.195682E+04  8.123798E+03  3.368386E+03  2.296134E+03
       263  24 -1.608469E+04 -8.142832E+05 -5.315443E+04  4.658735E+04  8.539514E+02 -1.937598E+04
       263  25  3.483649E+04 -6.016032E+05 -4.660051E+03  3.956769E+04  5.421590E+03  2.473975E+04
       263  26  3.832259E+04 -6.781787E+05 -1.054509E+04  7.766620E+03  3.365989E+03  3.249439E+03
       263  27 -4.754083E+03 -7.686803E+05 -4.196598E+04  5.288331E+04  8.510993E+02 -1.823833E+04
       264   1  2.922239E+04 -7.216173E+05 -3.432544E+04  6.328812E+04  2.041116E+03  3.174463E+04
       264   2  7.044403E+04 -6.127850E+05 -3.717244E+04 -2.332336E+03  5.061008E+03  7.342028E+04
       264   3 -7.285241E+04 -5.549598E+05 -1.131773E+05  8.458029E+03  1.787506E+03  1.150859E+05
       264   4  4.164092E+03 -8.226089E+05 -5.901365E+04  4.660555E+04  2.046293E+03  2.918490E+04
       264   5  2.459391E+04 -7.968977E+05 -8.185727E+04  8.208982E+03  5.062334E+03  7.341313E+04
       264   6 -1.399713E+05 -8.226662E+05 -1.796517E+05  4.622676E+04  1.787807E+03  1.176256E+05
       264   7 -2.089390E+04 -9.235906E+05 -8.370243E+04  2.992570E+04  2.051608E+03  2.662558E+04
       264   8 -2.125830E+04 -9.809792E+05 -1.265445E+05  1.874718E+04  5.063660E+03  7.340599E+04
       264   9 -2.070903E+05 -1.090304E+06 -2.461308E+05  8.397921E+04  1.788419E+03  1.201642E+05
       264  10  2.922211E+04 -7.216184E+05 -3.432734E+04  6.328807E+04 -4.268122E-10  6.091030E-09
       264  11  7.044256E+04 -6.127908E+05 -3.718262E+04 -2.332636E+03  3.725156E-09  4.956561E-09
       264  12 -7.285597E+04 -5.549740E+05 -1.132022E+05  8.457863E+03  1.644986E-09  2.837072E-09
       264  13  4.163859E+03 -8.226098E+05 -5.901526E+04  4.660550E+04  4.120329E-10  5.329473E-09
       264  14  2.459243E+04 -7.969035E+05 -8.186746E+04  8.208683E+03  3.752947E-10  1.441863E-08
       264  15 -1.399750E+05 -8.226811E+05 -1.796778E+05  4.622659E+04  1.586092E-09  1.490718E-09
       264  16 -2.089409E+04 -9.235913E+05 -8.370377E+04  2.992566E+04 -3.184553E-09 -5.231931E-09
       264  17 -2.125978E+04 -9.809850E+05 -1.265547E+05  1.874688E+04 -3.762979E-10 -6.725209E-09
       264  18 -2.070942E+05 -1.090320E+06 -2.461580E+05  8.397904E+04  1.273064E-09 -1.104634E-09
       264  19  2.922239E+04 -7.216173E+05 -3.432544E+04  6.328812E+04 -2.041116E+03 -3.174463E+04
       264  20  7.044403E+04 -6.127850E+05 -3.717244E+04 -2.332336E+03 -5.061008E+03 -7.342028E+04
       264  21 -7.285241E+04 -5.549598E+05 -1.131773E+05  8.458029E+03 -1.787506E+03 -1.150859E+05
       264  22  4.164092E+03 -8.226089E+05 -5.901365E+04  4.660555E+04 -2.046293E+03 -2.918490E+04
       264  23  2.459391E+04 -7.968977E+05 -8.185727E+04  8.208982E+03 -5.062334E+03 -7.341313E+04
       264  24 -1.399713E+05 -8.226662E+05 -1.796517E+05  4.622676E+04 -1.787807E+03 -1.176256E+05
       264  25 -2.089390E+04 -9.235906E+05 -8.370243E+04  2.992570E+04 -2.051608E+03 -2.662558E+04
       264  26 -2.125830E+04 -9.809792E+05 -1.265445E+05  1.874718E+04 -5.063660E+03 -7.340599E+04
       264  27 -2.070903E+05 -1.090304E+06 -2.461308E+05  8.397921E+04 -1.788419E+03 -1.201642E+05
       265   1  1.073060E+06  3.579960E+05  2.335973E+05  3.751057E+05  1.072482E+05  3.801201E+04
       265   2  1.035568E+06  1.922087E+05  1.310543E+05  3.868023E+05  6.978036E+04  1.869738E+04
       265   3  1.047521E+06  1.947451E+05  9.998912E+04  3.742064E+05  3.026941E+04  4.774591E+03
       265   4  8.371037E+05  2.392610E+05  1.633639E+05  2.805200E+05  1.044800E+05  3.695626E+04
       265   5  8.041644E+05  9.659169E+04  6.756720E+04  3.149353E+05  6.908756E+04  1.843330E+04
       265   6  8.202816E+05  1.218687E+05  4.162522E+04  3.250524E+05  3.165105E+04  5.299586E+03
       265   7  6.012048E+05  1.205441E+05  9.312568E+04  1.859717E+05  1.017129E+05  3.590128E+04
       265   8  5.728131E+05  9.810515E+02  4.075317E+03  2.430937E+05  6.839504E+04  1.816934E+04
       265   9  5.930909E+05  4.899213E+04 -1.674293E+04  2.759128E+05  3.303214E+04  5.824445E+03
       265  10  1.073047E+06  3.579913E+05  2.335730E+05  3.751024E+05  1.719837E-10 -7.754182E-09
       265  11  1.035563E+06  1.922070E+05  1.310445E+05  3.868012E+05 -3.375973E-09 -3.238788E-09
       265  12  1.047520E+06  1.947448E+05  9.998735E+04  3.742063E+05 -6.715505E-09  1.256969E-09
       265  13  8.370916E+05  2.392566E+05  1.633409E+05  2.805169E+05 -3.387402E-10 -9.890130E-09
       265  14  8.041592E+05  9.659004E+04  6.755761E+04  3.149343E+05 -2.034498E-09  8.472924E-09
       265  15  8.202805E+05  1.218684E+05  4.162328E+04  3.250523E+05 -2.678848E-09  3.855525E-09
       265  16  6.011934E+05  1.205400E+05  9.310384E+04  1.859687E+05  1.812345E-10 -2.074486E-09
       265  17  5.728080E+05  9.794433E+02  4.065916E+03  2.430927E+05  1.460830E-09  6.917804E-09
       265  18  5.930897E+05  4.899180E+04 -1.674504E+04  2.759127E+05 -1.513524E-09 -7.399461E-09
       265  19  1.073060E+06  3.579960E+05  2.335973E+05  3.751057E+05 -1.072482E+05 -3.801201E+04
       265  20  1.035568E+06  1.922087E+05  1.310543E+05  3.868023E+05 -6.978036E+04 -1.869738E+04
       265  21  1.047521E+06  1.947451E+05  9.998912E+04  3.742064E+05 -3.026941E+04 -4.774591E+03
       265  22  8.371037E+05  2.392610E+05  1.633639E+05  2.805200E+05 -1.044800E+05 -3.695626E+04
       265  23  8.041644E+05  9.659169E+04  6.756720E+04  3.149353E+05 -6.908756E+04 -1.843330E+04
       265  24  8.202816E+05  1.218687E+05  4.162522E+04  3.250524E+05 -3.165105E+04 -5.299586E+03
       265  25  6.012048E+05  1.205441E+05  9.312568E+04  1.859717E+05 -1.017129E+05 -3.590128E+04
       265  26  5.728131E+05  9.810515E+02  4.075317E+03  2.430937E+05 -6.839504E+04 -1.816934E+04
       265  27  5.930909E+05  4.899213E+04 -1.674293E+04  2.759128E+05 -3.303214E+04 -5.824445E+03
       266   1  9.941087E+05  2.106979E+05  8.276632E+04  3.673397E+05  2.512333E+04  4.257752E+03
       266   2  9.789035E+05  1.784390E+05  5.966767E+04  3.578537E+05  1.646538E+04  1.233382E+03
       266   3  9.587924E+05  1.786270E+05  4.818919E+04  3.585582E+05  7.610152E+03 -1.271230E+03
       266   4  8.151429E+05  1.394972E+05  3.403924E+04  3.146011E+05  2.510699E+04  4.251280E+03
       266   5  8.165779E+05  1.160682E+05  1.596679E+04  3.122512E+05  1.665021E+04  1.303467E+03
       266   6  8.130688E+05  1.250494E+05  9.357756E+03  3.200914E+05  7.995877E+03 -1.124702E+03
       266   7  6.362079E+05  6.829935E+04 -1.469074E+04  2.618766E+05  2.509066E+04  4.244810E+03
       266   8  6.542777E+05  5.369920E+04 -2.773638E+04  2.666596E+05  1.683498E+04  1.373530E+03
       266   9  6.673659E+05  7.147286E+04 -2.947543E+04  2.816325E+05  8.381502E+03 -9.782099E+02
       266  10  9.941080E+05  2.106977E+05  8.276510E+04  3.673396E+05  2.111597E-09  1.583535E-08
       266  11  9.789032E+05  1.784389E+05  5.966716E+04  3.578537E+05  3.995283E-09  1.926905E-08
       266  12  9.587924E+05  1.786269E+05  4.818907E+04  3.585582E+05  1.622330E-09  2.738631E-09
       266  13  8.151422E+05  1.394970E+05  3.403802E+04  3.146010E+05 -6.950375E-09  2.124595E-09
       266  14  8.165776E+05  1.160681E+05  1.596626E+04  3.122512E+05  8.430876E-10  2.319529E-08
       266  15  8.130688E+05  1.250493E+05  9.357633E+03  3.200914E+05 -2.071745E-09  2.521321E-09
       266  16  6.362072E+05  6.829916E+04 -1.469196E+04  2.618765E+05 -5.177872E-09 -4.377509E-09
       266  17  6.542774E+05  5.369912E+04 -2.773691E+04  2.666596E+05 -5.875743E-09 -1.746417E-08
       266  18  6.673659E+05  7.147284E+04 -2.947556E+04  2.816326E+05  2.571627E-09  3.084967E-09
       266  19  9.941087E+05  2.106979E+05  8.276632E+04  3.673397E+05 -2.512333E+04 -4.257752E+03
       266  20  9.789035E+05  1.784390E+05  5.966767E+04  3.578537E+05 -1.646538E+04 -1.233382E+03
       266  21  9.587924E+05  1.786270E+05  4.818919E+04  3.585582E+05 -7.610152E+03  1.271230E+03
       266  22  8.151429E+05  1.394972E+05  3.403924E+04  3.146011E+05 -2.510699E+04 -4.251280E+03
       266  23  8.165779E+05  1.160682E+05  1.596679E+04  3.122512E+05 -1.665021E+04 -1.303467E+03
       266  24  8.130688E+05  1.250494E+05  9.357756E+03  3.200914E+05 -7.995877E+03  1.124702E+03
       266  25  6.362079E+05  6.829935E+04 -1.469074E+04  2.618766E+05 -2.509066E+04 -4.244810E+03
       266  26  6.542777E+05  5.369920E+04 -2.773638E+04  2.666596E+05 -1.683498E+04 -1.373530E+03
       266  27  6.673659E+05  7.147286E+04 -2.947543E+04  2.816325E+05 -8.381502E+03  9.782099E+02
       267   1  9.222738E+05  1.690821E+05  3.685564E+04  3.493294E+05  6.193942E+03 -1.233681E+03
       267   2  9.104821E+05  1.537412E+05  2.855655E+04  3.376451E+05  4.002628E+03 -1.301530E+03
       267   3  8.870881E+05  1.535373E+05  2.234614E+04  3.397759E+05  1.795302E+03 -1.327723E+03
       267   4  8.124370E+05  1.270811E+05  7.370447E+03  3.186677E+05  6.441011E+03 -1.139825E+03
       267   5  8.181140E+05  1.186384E+05  3.757811E+03  3.120934E+05  4.265979E+03 -1.201445E+03
       267   6  8.121857E+05  1.253300E+05  2.221365E+03  3.193343E+05  2.074877E+03 -1.221427E+03
       267   7  7.026115E+05  8.508082E+04 -2.211588E+04  2.880109E+05  6.688032E+03 -1.045988E+03
       267   8  7.257539E+05  8.353613E+04 -2.104171E+04  2.865452E+05  4.529288E+03 -1.101376E+03
       267   9  7.372886E+05  9.712297E+04 -1.790391E+04  2.988950E+05  2.354415E+03 -1.115146E+03
       267  10  9.222738E+05  1.690821E+05  3.685556E+04  3.493294E+05 -8.297377E-09 -6.968392E-09
       267  11  9.104821E+05  1.537412E+05  2.855652E+04  3.376451E+05 -1.501966E-09  6.696270E-09
       267  12  8.870881E+05  1.535373E+05  2.234613E+04  3.397759E+05  4.617496E-09  9.594309E-09
       267  13  8.124369E+05  1.270811E+05  7.370366E+03  3.186678E+05 -2.729661E-09 -5.144791E-10
       267  14  8.181139E+05  1.186384E+05  3.757774E+03  3.120934E+05 -3.425111E-09  6.233889E-09
       267  15  8.121857E+05  1.253300E+05  2.221355E+03  3.193343E+05 -1.650079E-09 -4.683096E-09
       267  16  7.026114E+05  8.508081E+04 -2.211596E+04  2.880109E+05  5.243007E-09  5.286452E-09
       267  17  7.257539E+05  8.353612E+04 -2.104176E+04  2.865452E+05 -7.479656E-09  1.253948E-08
       267  18  7.372886E+05  9.712296E+04 -1.790392E+04  2.988950E+05 -1.524515E-09 -1.865858E-09
       267  19  9.222738E+05  1.690821E+05  3.685564E+04  3.493294E+05 -6.193942E+03  1.233681E+03
       267  20  9.104821E+05  1.537412E+05  2.855655E+04  3.376451E+05 -4.002628E+03  1.301530E+03
       267  21  8.870881E+05  1.535373E+05  2.234614E+04  3.397759E+05 -1.795302E+03  1.327723E+03
       267  22  8.124370E+05  1.270811E+05  7.370447E+03  3.186677E+05 -6.441011E+03  1.139825E+03
       267  23  8.181140E+05  1.186384E+05  3.757811E+03  3.120934E+05 -4.265979E+03  1.201445E+03
       267  24  8.121857E+05  1.253300E+05  2.221365E+03  3.193343E+05 -2.074877E+03  1.221427E+03
       267  25  7.026115E+05  8.508082E+04 -2.211588E+04  2.880109E+05 -6.688032E+03  1.045988E+03
       267  26  7.257539E+05  8.353613E+04 -2.104171E+04  2.865452E+05 -4.529288E+03  1.101376E+03
       267  27  7.372886E+05  9.712297E+04 -1.790391E+04  2.988950E+05 -2.354415E+03  1.115146E+03
       268   1  8.535148E+05  1.412483E+05  1.282065E+04  3.305747E+05  1.321029E+03 -1.030591E+03
       268   2  8.423553E+05  1.281460E+05  7.597414E+03  3.187874E+05  4.839391E+02 -5.507910E+02
       268   3  8.188803E+05  1.279024E+05  2.890649E+03  3.210136E+05 -3.538014E+02 -6.935163E+01
       268   4  8.121298E+05  1.255231E+05  1.773765E+03  3.191133E+05  1.587365E+03 -9.293116E+02
       268   5  8.182754E+05  1.190074E+05  1.134497E+03  3.121394E+05  7.509356E+02 -4.492519E+02
       268   6  8.121052E+05  1.253505E+05  1.011242E+03  3.191791E+05 -8.616400E+01  3.244247E+01
       268   7  7.707466E+05  1.097980E+05 -9.273246E+03  3.076525E+05  1.853681E+03 -8.280404E+02
       268   8  7.941961E+05  1.098689E+05 -5.328472E+03  3.054917E+05  1.017921E+03 -3.477172E+02
       268   9  8.053300E+05  1.227986E+05 -8.681738E+02  3.173445E+05  1.814708E+02  1.342356E+02
       268  10  8.535148E+05  1.412483E+05  1.282065E+04  3.305747E+05 -4.986934E-09 -3.173043E-09
       268  11  8.423553E+05  1.281460E+05  7.597413E+03  3.187874E+05 -3.599807E-10 -3.599892E-09
       268  12  8.188803E+05  1.279024E+05  2.890649E+03  3.210136E+05  5.591967E-09 -1.965303E-09
       268  13  8.121298E+05  1.255231E+05  1.773759E+03  3.191133E+05  2.206481E-09 -4.127519E-09
       268  14  8.182754E+05  1.190074E+05  1.134495E+03  3.121394E+05  1.010426E-09  2.769821E-09
       268  15  8.121052E+05  1.253505E+05  1.011242E+03  3.191791E+05  1.594106E-09 -1.023993E-08
       268  16  7.707466E+05  1.097980E+05 -9.273253E+03  3.076525E+05  6.668161E-09 -9.339113E-09
       268  17  7.941961E+05  1.098689E+05 -5.328474E+03  3.054917E+05 -1.553190E-09 -5.808554E-09
       268  18  8.053300E+05  1.227986E+05 -8.681739E+02  3.173445E+05 -2.899758E-09  3.257676E-09
       268  19  8.535148E+05  1.412483E+05  1.282065E+04  3.305747E+05 -1.321029E+03  1.030591E+03
       268  20  8.423553E+05  1.281460E+05  7.597414E+03  3.187874E+05 -4.839391E+02  5.507910E+02
       268  21  8.188803E+05  1.279024E+05  2.890649E+03  3.210136E+05  3.538014E+02  6.935163E+01
       268  22  8.121298E+05  1.255231E+05  1.773765E+03  3.191133E+05 -1.587365E+03  9.293116E+02
       268  23  8.182754E+05  1.190074E+05  1.134497E+03  3.121394E+05 -7.509356E+02  4.492519E+02
       268  24  8.121052E+05  1.253505E+05  1.011242E+03  3.191791E+05  8.616400E+01 -3.244247E+01
       268  25  7.707466E+05  1.097980E+05 -9.273246E+03  3.076525E+05 -1.853681E+03  8.280404E+02
       268  26  7.941961E+05  1.098689E+05 -5.328472E+03  3.054917E+05 -1.017921E+03  3.477172E+02
       268  27  8.053300E+05  1.227986E+05 -8.681738E+02  3.173445E+05 -1.814708E+02 -1.342356E+02
       269   1  7.857733E+05  1.153875E+05 -6.057603E+03  3.119816E+05 -6.806586E+02  2.725570E+02
       269   2  7.745854E+05  1.024024E+05 -1.026659E+04  3.000722E+05 -1.681649E+03  6.931336E+02
       269   3  7.511176E+05  1.024424E+05 -1.380252E+04  3.021966E+05 -2.682705E+03  1.114271E+03
       269   4  8.121068E+05  1.253459E+05  1.068185E+03  3.191992E+05 -4.130524E+02  3.743365E+02
       269   5  8.182675E+05  1.189767E+05  1.457299E+03  3.121278E+05 -1.413894E+03  7.949500E+02
       269   6  8.121478E+05  1.256324E+05  2.519314E+03  3.190899E+05 -2.414824E+03  1.216117E+03
       269   7  8.384410E+05  1.353043E+05  8.193911E+03  3.264172E+05 -1.454337E+02  4.761206E+02
       269   8  8.619514E+05  1.355511E+05  1.318101E+04  3.241841E+05 -1.146119E+03  8.967742E+02
       269   9  8.731815E+05  1.488226E+05  1.884078E+04  3.359846E+05 -2.146915E+03  1.317973E+03
       269  10  7.857733E+05  1.153875E+05 -6.057604E+03  3.119816E+05 -6.451341E-09 -2.828687E-09
       269  11  7.745854E+05  1.024024E+05 -1.026660E+04  3.000722E+05 -9.025575E-09 -8.687014E-10
       269  12  7.511176E+05  1.024424E+05 -1.380253E+04  3.021966E+05  2.253687E-09  3.902581E-09
       269  13  8.121068E+05  1.253459E+05  1.068185E+03  3.191992E+05 -5.017281E-09 -1.701335E-08
       269  14  8.182675E+05  1.189767E+05  1.457294E+03  3.121278E+05 -8.665116E-09 -6.515833E-09
       269  15  8.121478E+05  1.256324E+05  2.519300E+03  3.190899E+05 -5.126423E-09 -7.860301E-09
       269  16  8.384410E+05  1.353043E+05  8.193911E+03  3.264172E+05  5.302591E-09  9.535122E-10
       269  17  8.619514E+05  1.355511E+05  1.318101E+04  3.241841E+05 -3.660351E-09  9.903153E-09
       269  18  8.731815E+05  1.488226E+05  1.884077E+04  3.359846E+05 -6.136061E-09 -6.395050E-09
       269  19  7.857733E+05  1.153875E+05 -6.057603E+03  3.119816E+05  6.806586E+02 -2.725570E+02
       269  20  7.745854E+05  1.024024E+05 -1.026659E+04  3.000722E+05  1.681649E+03 -6.931336E+02
       269  21  7.511176E+05  1.024424E+05 -1.380252E+04  3.021966E+05  2.682705E+03 -1.114271E+03
       269  22  8.121068E+05  1.253459E+05  1.068185E+03  3.191992E+05  4.130524E+02 -3.743365E+02
       269  23  8.182675E+05  1.189767E+05  1.457299E+03  3.121278E+05  1.413894E+03 -7.949500E+02
       269  24  8.121478E+05  1.256324E+05  2.519314E+03  3.190899E+05  2.414824E+03 -1.216117E+03
       269  25  8.384410E+05  1.353043E+05  8.193911E+03  3.264172E+05  1.454337E+02 -4.761206E+02
       269  26  8.619514E+05  1.355511E+05  1.318101E+04  3.241841E+05  1.146119E+03 -8.967742E+02
       269  27  8.731815E+05  1.488226E+05  1.884078E+04  3.359846E+05  2.146915E+03 -1.317973E+03
       270   1  7.173781E+05  8.966134E+04 -2.224240E+04  2.935792E+05 -3.329486E+03  1.349937E+03
       270   2  7.056061E+05  7.569587E+04 -2.462213E+04  2.809642E+05 -6.429010E+03  9.919231E+02
       270   3  6.826746E+05  7.815509E+04 -2.393183E+04  2.820388E+05 -9.511621E+03  5.901927E+02
       270   4  8.122435E+05  1.253321E+05  3.220883E+03  3.194142E+05 -3.047284E+03  1.457204E+03
       270   5  8.180099E+05  1.184298E+05  5.562473E+03  3.120703E+05 -6.164054E+03  1.092583E+03
       270   6  8.126199E+05  1.279552E+05  1.098742E+04  3.184161E+05 -9.263997E+03  6.842132E+02
       270   7  9.071178E+05  1.610034E+05  2.868344E+04  3.452528E+05 -2.765034E+03  1.564489E+03
       270   8  9.304259E+05  1.611646E+05  3.574600E+04  3.431816E+05 -5.899045E+03  1.193263E+03
       270   9  9.425813E+05  1.777565E+05  4.590517E+04  3.548002E+05 -9.016316E+03  7.782559E+02
       270  10  7.173781E+05  8.966134E+04 -2.224243E+04  2.935792E+05  5.952002E-09 -9.929749E-09
       270  11  7.056061E+05  7.569586E+04 -2.462221E+04  2.809642E+05  1.679259E-09 -1.067172E-08
       270  12  6.826745E+05  7.815507E+04 -2.393200E+04  2.820388E+05 -1.431612E-08  9.210827E-09
       270  13  8.122435E+05  1.253321E+05  3.220861E+03  3.194142E+05  3.710733E-09 -5.738411E-09
       270  14  8.180098E+05  1.184298E+05  5.562400E+03  3.120704E+05  1.456300E-09 -6.134895E-09
       270  15  8.126198E+05  1.279552E+05  1.098726E+04  3.184161E+05 -4.115222E-09 -7.212752E-10
       270  16  9.071178E+05  1.610034E+05  2.868342E+04  3.452528E+05 -7.922701E-10  1.275915E-08
       270  17  9.304258E+05  1.611646E+05  3.574593E+04  3.431816E+05 -1.036671E-09  1.039359E-08
       270  18  9.425812E+05  1.777564E+05  4.590502E+04  3.548002E+05  5.217688E-09  1.122983E-08
       270  19  7.173781E+05  8.966134E+04 -2.224240E+04  2.935792E+05  3.329486E+03 -1.349937E+03
       270  20  7.056061E+05  7.569587E+04 -2.462213E+04  2.809642E+05  6.429010E+03 -9.919231E+02
       270  21  6.826746E+05  7.815509E+04 -2.393183E+04  2.820388E+05  9.511621E+03 -5.901927E+02
       270  22  8.122435E+05  1.253321E+05  3.220883E+03  3.194142E+05  3.047284E+03 -1.457204E+03
       270  23  8.180099E+05  1.184298E+05  5.562473E+03  3.120703E+05  6.164054E+03 -1.092583E+03
       270  24  8.126199E+05  1.279552E+05  1.098742E+04  3.184161E+05  9.263997E+03 -6.842132E+02
       270  25  9.071178E+05  1.610034E+05  2.868344E+04  3.452528E+05  2.765034E+03 -1.564489E+03
       270  26  9.304259E+05  1.611646E+05  3.574600E+04  3.431816E+05  5.899045E+03 -1.193263E+03
       270  27  9.425813E+05  1.777565E+05  4.590517E+04  3.548002E+05  9.016316E+03 -7.782559E+02
       271   1  6.466125E+05  6.407319E+04 -3.041725E+04  2.770316E+05 -1.189183E+04  2.759357E+02
       271   2  6.326802E+05  4.402290E+04 -2.547780E+04  2.606578E+05 -2.446771E+04 -3.625564E+03
       271   3  6.176801E+05  6.602103E+04 -3.575806E+03  2.523608E+05 -3.682986E+04 -8.088211E+03
       271   4  8.136040E+05  1.248786E+05  1.396519E+04  3.205014E+05 -1.149399E+04  4.270328E+02
       271   5  8.156676E+05  1.146368E+05  2.385433E+04  3.123602E+05 -2.428812E+04 -3.557553E+03
       271   6  8.167028E+05  1.464807E+05  5.087492E+04  3.122958E+05 -3.686893E+04 -8.103531E+03
       271   7  9.806220E+05  1.856851E+05  5.834512E+04  3.639814E+05 -1.109604E+04  5.781704E+02
       271   8  9.986871E+05  1.852531E+05  7.318347E+04  3.640765E+05 -2.410848E+04 -3.489519E+03
       271   9  1.015764E+06  2.269445E+05  1.053222E+05  3.722488E+05 -3.690801E+04 -8.118857E+03
       271  10  6.466123E+05  6.407315E+04 -3.041752E+04  2.770316E+05 -4.482074E-10  1.535649E-08
       271  11  6.326796E+05  4.402272E+04 -2.547894E+04  2.606577E+05  1.845733E-09  4.807436E-09
       271  12  6.176786E+05  6.602059E+04 -3.578475E+03  2.523606E+05 -7.928393E-09 -5.350542E-09
       271  13  8.136039E+05  1.248786E+05  1.396494E+04  3.205014E+05 -7.290776E-09 -3.311877E-09
       271  14  8.156669E+05  1.146367E+05  2.385320E+04  3.123602E+05  1.821461E-09  5.435643E-09
       271  15  8.167013E+05  1.464803E+05  5.087225E+04  3.122956E+05 -5.624482E-10 -1.456639E-09
       271  16  9.806219E+05  1.856851E+05  5.834489E+04  3.639815E+05 -7.970824E-09  1.215550E-08
       271  17  9.986865E+05  1.852530E+05  7.318236E+04  3.640764E+05 -2.888855E-09 -6.575979E-09
       271  18  1.015763E+06  2.269441E+05  1.053195E+05  3.722486E+05  4.029277E-09  5.575797E-09
       271  19  6.466125E+05  6.407319E+04 -3.041725E+04  2.770316E+05  1.189183E+04 -2.759357E+02
       271  20  6.326802E+05  4.402290E+04 -2.547780E+04  2.606578E+05  2.446771E+04  3.625564E+03
       271  21  6.176801E+05  6.602103E+04 -3.575806E+03  2.523608E+05  3.682986E+04  8.088211E+03
       271  22  8.136040E+05  1.248786E+05  1.396519E+04  3.205014E+05  1.149399E+04 -4.270328E+02
       271  23  8.156676E+05  1.146368E+05  2.385433E+04  3.123602E+05  2.428812E+04  3.557553E+03
       271  24  8.167028E+05  1.464807E+05  5.087492E+04  3.122958E+05  3.686893E+04  8.103531E+03
       271  25  9.806220E+05  1.856851E+05  5.834512E+04  3.639814E+05  1.109604E+04 -5.781704E+02
       271  26  9.986871E+05  1.852531E+05  7.318347E+04  3.640765E+05  2.410848E+04  3.489519E+03
       271  27  1.015764E+06  2.269445E+05  1.053222E+05  3.722488E+05  3.690801E+04  8.118857E+03
       272   1  5.705546E+05  4.361370E+04 -2.037177E+03  2.780121E+05 -4.791929E+04 -1.077337E+04
       272   2  5.461471E+05 -2.132216E+04  3.151613E+04  2.352472E+05 -1.014644E+05 -2.996625E+04
       272   3  6.012857E+05  1.577462E+05  1.677317E+05  1.486680E+05 -1.527977E+05 -5.498640E+04
       272   4  8.244529E+05  1.200590E+05  6.221585E+04  3.278343E+05 -4.644467E+04 -1.021229E+04
       272   5  7.970395E+05  8.561348E+04  1.010036E+05  3.164692E+05 -1.022413E+05 -3.026342E+04
       272   6  8.495772E+05  2.955546E+05  2.442042E+05  2.613006E+05 -1.558262E+05 -5.614726E+04
       272   7  1.078414E+06  1.965036E+05  1.264642E+05  3.776723E+05 -4.496937E+04 -9.651081E+03
       272   8  1.047992E+06  1.925575E+05  1.704850E+05  3.977223E+05 -1.030185E+05 -3.056076E+04
       272   9  1.097931E+06  4.333902E+05  3.206702E+05  3.739798E+05 -1.588560E+05 -5.730913E+04
       272  10  5.705521E+05  4.361296E+04 -2.041706E+03  2.780116E+05 -4.051997E-09  1.575290E-08
       272  11  5.461359E+05 -2.132588E+04  3.149512E+04  2.352447E+05 -6.438153E-10 -1.310324E-09
       272  12  6.012599E+05  1.577367E+05  1.676822E+05  1.486613E+05  1.867734E-09 -2.278644E-09
       272  13  8.244506E+05  1.200583E+05  6.221161E+04  3.278339E+05 -2.951709E-09 -4.855838E-10
       272  14  7.970280E+05  8.560970E+04  1.009823E+05  3.164667E+05  4.343355E-09  1.286281E-08
       272  15  8.495503E+05  2.955447E+05  2.441528E+05  2.612935E+05  1.865103E-09  3.094681E-09
       272  16  1.078412E+06  1.965029E+05  1.264602E+05  3.776719E+05 -3.285986E-09  1.485777E-08
       272  17  1.047980E+06  1.925537E+05  1.704634E+05  3.977197E+05 -1.025902E-08 -1.059640E-08
       272  18  1.097903E+06  4.333800E+05  3.206168E+05  3.739725E+05 -5.168190E-09  4.932176E-09
       272  19  5.705546E+05  4.361370E+04 -2.037177E+03  2.780121E+05  4.791929E+04  1.077337E+04
       272  20  5.461471E+05 -2.132216E+04  3.151613E+04  2.352472E+05  1.014644E+05  2.996625E+04
       272  21  6.012857E+05  1.577462E+05  1.677317E+05  1.486680E+05  1.527977E+05  5.498640E+04
       272  22  8.244529E+05  1.200590E+05  6.221585E+04  3.278343E+05  4.644467E+04  1.021229E+04
       272  23  7.970395E+05  8.561348E+04  1.010036E+05  3.164692E+05  1.022413E+05  3.026342E+04
       272  24  8.495772E+05  2.955546E+05  2.442042E+05  2.613006E+05  1.558262E+05  5.614726E+04
       272  25  1.078414E+06  1.965036E+05  1.264642E+05  3.776723E+05  4.496937E+04  9.651081E+03
       272  26  1.047992E+06  1.925575E+05  1.704850E+05  3.977223E+05  1.030185E+05  3.056076E+04
       272  27  1.097931E+06  4.333902E+05  3.206702E+05  3.739798E+05  1.588560E+05  5.730913E+04
       273   1 -1.231856E+05 -9.806373E+05 -1.400506E+05  3.573032E+04 -1.890585E+03 -5.384393E+04
       273   2 -4.310290E+04 -9.387507E+05 -8.872756E+04  9.991586E+03 -5.874011E+03 -3.226233E+04
       273   3 -4.462178E+04 -9.197535E+05 -7.181439E+04  1.201356E+04 -4.741394E+03 -1.066040E+04
       273   4 -6.131881E+04 -7.336031E+05 -7.875531E+04  1.869970E+04 -1.899079E+03 -5.122429E+04
       273   5  1.077752E+04 -7.223308E+05 -3.615406E+04  4.937915E+03 -5.875621E+03 -3.172078E+04
       273   6  1.648502E+03 -7.335792E+05 -2.650894E+04  1.893725E+04 -4.736073E+03 -1.219808E+04
       273   7  5.444112E+02 -4.865127E+05 -1.746436E+04  1.662342E+03 -1.907715E+03 -4.860361E+04
       273   8  6.465457E+04 -5.058679E+05  1.641606E+04 -1.174868E+02 -5.877241E+03 -3.117903E+04
       273   9  4.791642E+04 -5.473731E+05  1.879403E+04  2.586304E+04 -4.730788E+03 -1.373623E+04
       273  10 -1.231863E+05 -9.806404E+05 -1.400561E+05  3.573024E+04  2.647135E-09  4.703674E-09
       273  11 -4.310321E+04 -9.387519E+05 -8.872959E+04  9.991433E+03  2.085921E-09 -1.114124E-08
       273  12 -4.462184E+04 -9.197536E+05 -7.181465E+04  1.201352E+04 -2.120034E-09 -1.532250E-08
       273  13 -6.131952E+04 -7.336059E+05 -7.876025E+04  1.869962E+04  3.606297E-09  2.196458E-09
       273  14  1.077721E+04 -7.223319E+05 -3.615602E+04  4.937765E+03  2.281185E-09  1.775966E-09
       273  15  1.648438E+03 -7.335793E+05 -2.650926E+04  1.893720E+04 -6.233984E-11 -7.632718E-09
       273  16  5.437725E+02 -4.865153E+05 -1.746881E+04  1.662267E+03 -5.465175E-10  3.049822E-10
       273  17  6.465427E+04 -5.058690E+05  1.641416E+04 -1.176344E+02  2.544791E-09  3.804543E-09
       273  18  4.791635E+04 -5.473733E+05  1.879363E+04  2.586299E+04 -2.289962E-09  3.030516E-09
       273  19 -1.231856E+05 -9.806373E+05 -1.400506E+05  3.573032E+04  1.890585E+03  5.384393E+04
       273  20 -4.310290E+04 -9.387507E+05 -8.872756E+04  9.991586E+03  5.874011E+03  3.226233E+04
       273  21 -4.462178E+04 -9.197535E+05 -7.181439E+04  1.201356E+04  4.741394E+03  1.066040E+04
       273  22 -6.131881E+04 -7.336031E+05 -7.875531E+04  1.869970E+04  1.899079E+03  5.122429E+04
       273  23  1.077752E+04 -7.223308E+05 -3.615406E+04  4.937915E+03  5.875621E+03  3.172078E+04
       273  24  1.648502E+03 -7.335792E+05 -2.650894E+04  1.893725E+04  4.736073E+03  1.219808E+04
       273  25  5.444112E+02 -4.865127E+05 -1.746436E+04  1.662342E+03  1.907715E+03  4.860361E+04
       273  26  6.465457E+04 -5.058679E+05  1.641606E+04 -1.174868E+02  5.877241E+03  3.117903E+04
       273  27  4.791642E+04 -5.473731E+05  1.879403E+04  2.586304E+04  4.730788E+03  1.373623E+04
       274   1 -3.991410E+04 -8.621005E+05 -5.631641E+04  2.233871E+04 -3.304828E+03 -7.552435E+03
       274   2 -2.218919E+04 -8.276624E+05 -4.441309E+04  4.854788E+03 -2.646471E+03  2.850003E+03
       274   3 -2.654578E+04 -7.998428E+05 -4.475590E+04  1.602452E+04 -1.631180E+03  1.325390E+04
       274   4 -7.019720E+03 -7.300398E+05 -2.415077E+04  1.905456E+04 -3.304026E+03 -7.763553E+03
       274   5  2.922419E+03 -7.267432E+05 -1.986160E+04  4.724587E+03 -2.645254E+03  2.495048E+03
       274   6 -9.189963E+03 -7.300402E+05 -2.771707E+04  1.904814E+04 -1.629471E+03  1.275459E+04
       274   7  2.587341E+04 -5.979630E+05  8.013603E+03  1.576972E+04 -3.303222E+03 -7.974716E+03
       274   8  2.803328E+04 -6.258148E+05  4.689144E+03  4.594373E+03 -2.644036E+03  2.140034E+03
       274   9  8.165536E+03 -6.602332E+05 -1.067860E+04  2.207211E+04 -1.627767E+03  1.225523E+04
       274  10 -3.991412E+04 -8.621006E+05 -5.631653E+04  2.233869E+04 -2.887272E-09 -5.342633E-09
       274  11 -2.218920E+04 -8.276624E+05 -4.441312E+04  4.854794E+03  1.671319E-09 -1.177429E-08
       274  12 -2.654583E+04 -7.998430E+05 -4.475623E+04  1.602454E+04 -2.870179E-09 -1.266598E-08
       274  13 -7.019748E+03 -7.300398E+05 -2.415090E+04  1.905454E+04 -2.059999E-09 -6.413796E-09
       274  14  2.922409E+03 -7.267433E+05 -1.986163E+04  4.724593E+03  1.456729E-09  1.251793E-09
       274  15 -9.190009E+03 -7.300404E+05 -2.771738E+04  1.904816E+04 -1.585941E-09 -1.416095E-09
       274  16  2.587338E+04 -5.979631E+05  8.013463E+03  1.576970E+04 -1.623333E-09  6.306405E-09
       274  17  2.803327E+04 -6.258148E+05  4.689122E+03  4.594377E+03  9.418255E-10  5.118368E-09
       274  18  8.165492E+03 -6.602333E+05 -1.067888E+04  2.207212E+04  1.046519E-10  3.714948E-09
       274  19 -3.991410E+04 -8.621005E+05 -5.631641E+04  2.233871E+04  3.304828E+03  7.552435E+03
       274  20 -2.218919E+04 -8.276624E+05 -4.441309E+04  4.854788E+03  2.646471E+03 -2.850003E+03
       274  21 -2.654578E+04 -7.998428E+05 -4.475590E+04  1.602452E+04  1.631180E+03 -1.325390E+04
       274  22 -7.019720E+03 -7.300398E+05 -2.415077E+04  1.905456E+04  3.304026E+03  7.763553E+03
       274  23  2.922419E+03 -7.267432E+05 -1.986160E+04  4.724587E+03  2.645254E+03 -2.495048E+03
       274  24 -9.189963E+03 -7.300402E+05 -2.771707E+04  1.904814E+04  1.629471E+03 -1.275459E+04
       274  25  2.587341E+04 -5.979630E+05  8.013603E+03  1.576972E+04  3.303222E+03  7.974716E+03
       274  26  2.803328E+04 -6.258148E+05  4.689144E+03  4.594373E+03  2.644036E+03 -2.140034E+03
       274  27  8.165536E+03 -6.602332E+05 -1.067860E+04  2.207211E+04  1.627767E+03 -1.225523E+04
       275   1 -1.059450E+03 -7.499211E+05 -3.512104E+04  2.858581E+04 -6.855246E+02  1.867774E+04
       275   2  1.785898E+04 -7.043126E+05 -4.138050E+04 -1.082239E+03  3.863977E+02  4.263193E+04
       275   3 -6.670396E+04 -6.874648E+05 -8.906663E+04 -2.144031E+03  9.667619E+01  6.658270E+04
       275   4  2.722141E+03 -7.349802E+05 -3.153335E+04  1.913601E+04 -6.833852E+02  1.793128E+04
       275   5  1.377359E+04 -7.205646E+05 -4.531651E+04  4.699114E+03  3.874225E+02  4.243943E+04
       275   6 -7.875524E+04 -7.350092E+05 -1.009130E+05  1.886871E+04  9.774365E+01  6.694294E+04
       275   7  6.504050E+03 -7.200390E+05 -2.794563E+04  9.685982E+03 -6.812231E+02  1.718480E+04
       275   8  9.688308E+03 -7.368162E+05 -4.925251E+04  1.048031E+04  3.884437E+02  4.224692E+04
       275   9 -9.080503E+04 -7.825507E+05 -1.127593E+05  3.987984E+04  9.883562E+01  6.730314E+04
       275  10 -1.059545E+03 -7.499215E+05 -3.512170E+04  2.858582E+04 -1.317025E-09  5.186394E-10
       275  11  1.785849E+04 -7.043145E+05 -4.138392E+04 -1.082252E+03  5.205798E-09 -3.274150E-09
       275  12 -6.670516E+04 -6.874695E+05 -8.907497E+04 -2.144036E+03  1.680517E-09 -4.108687E-09
       275  13  2.722054E+03 -7.349806E+05 -3.153396E+04  1.913602E+04 -4.144829E-10  7.679954E-11
       275  14  1.377311E+04 -7.205665E+05 -4.531990E+04  4.699101E+03  5.368284E-09  3.554050E-09
       275  15 -7.875644E+04 -7.350140E+05 -1.009214E+05  1.886871E+04  2.909353E-09  2.934307E-09
       275  16  6.503971E+03 -7.200393E+05 -2.794619E+04  9.685991E+03 -7.642483E-10  2.367436E-09
       275  17  9.687828E+03 -7.368182E+05 -4.925587E+04  1.048030E+04  4.498356E-09  8.063215E-09
       275  18 -9.080625E+04 -7.825556E+05 -1.127678E+05  3.987984E+04 -2.248312E-10 -1.367623E-10
       275  19 -1.059450E+03 -7.499211E+05 -3.512104E+04  2.858581E+04  6.855246E+02 -1.867774E+04
       275  20  1.785898E+04 -7.043126E+05 -4.138050E+04 -1.082239E+03 -3.863977E+02 -4.263193E+04
       275  21 -6.670396E+04 -6.874648E+05 -8.906663E+04 -2.144031E+03 -9.667619E+01 -6.658270E+04
       275  22  2.722141E+03 -7.349802E+05 -3.153335E+04  1.913601E+04  6.833852E+02 -1.793128E+04
       275  23  1.377359E+04 -7.205646E+05 -4.531651E+04  4.699114E+03 -3.874225E+02 -4.243943E+04
       275  24 -7.875524E+04 -7.350092E+05 -1.009130E+05  1.886871E+04 -9.774365E+01 -6.694294E+04
       275  25  6.504050E+03 -7.200390E+05 -2.794563E+04  9.685982E+03  6.812231E+02 -1.718480E+04
       275  26  9.688308E+03 -7.368162E+05 -4.925251E+04  1.048031E+04 -3.884437E+02 -4.224692E+04
       275  27 -9.080503E+04 -7.825507E+05 -1.127593E+05  3.987984E+04 -9.883562E+01 -6.730314E+04
       276   1  1.819529E+05 -4.536832E+04 -2.817795E+04  4.391584E+02  4.705471E+04  3.682330E+03
       276   2  2.002383E+05 -1.071314E+05 -6.178456E+04  2.523457E+03  3.264858E+04  1.073806E+04
       276   3  2.398100E+05 -9.259271E+04 -6.687303E+04 -2.184453E+04  1.825196E+04  9.529880E+03
       276   4  6.009916E+05  5.909968E+04  7.556468E+04 -1.475383E+04  5.165222E+04  3.687351E+03
       276   5  5.900727E+05 -1.029337E+04  3.278692E+04 -1.487889E+03  3.386311E+04  1.073874E+04
       276   6  6.010118E+05 -2.823951E+03  2.086137E+04 -1.467273E+04  1.608425E+04  9.527979E+03
       276   7  1.020190E+06  1.635554E+05  1.792945E+05 -2.995713E+04  5.625283E+04  3.692146E+03
       276   8  9.800458E+05  8.653356E+04  1.273475E+05 -5.501798E+03  3.507840E+04  1.073940E+04
       276   9  9.623327E+05  8.693541E+04  1.085864E+05 -7.496768E+03  1.391528E+04  9.526028E+03
       276  10  1.819506E+05 -4.536893E+04 -2.818213E+04  4.390189E+02 -4.467748E-10 -5.666045E-12
       276  11  2.002371E+05 -1.071318E+05 -6.178678E+04  2.523175E+03 -1.945639E-10 -3.595628E-11
       276  12  2.398096E+05 -9.259289E+04 -6.687383E+04 -2.184467E+04 -3.226325E-10  5.076379E-11
       276  13  6.009888E+05  5.909895E+04  7.555965E+04 -1.475398E+04  2.596705E-10 -2.463454E-11
       276  14  5.900714E+05 -1.029380E+04  3.278455E+04 -1.488182E+03 -5.672822E-10  1.881844E-11
       276  15  6.010115E+05 -2.824118E+03  2.086071E+04 -1.467285E+04  2.041665E-11 -8.277523E-11
       276  16  1.020187E+06  1.635546E+05  1.792885E+05 -2.995729E+04  1.196983E-10  3.315554E-11
       276  17  9.800444E+05  8.653311E+04  1.273449E+05 -5.502101E+03  1.046419E-10 -9.475232E-12
       276  18  9.623325E+05  8.693527E+04  1.085859E+05 -7.496875E+03  3.325570E-11 -1.595975E-10
       276  19  1.819529E+05 -4.536832E+04 -2.817795E+04  4.391584E+02 -4.705471E+04 -3.682330E+03
       276  20  2.002383E+05 -1.071314E+05 -6.178456E+04  2.523457E+03 -3.264858E+04 -1.073806E+04
       276  21  2.398100E+05 -9.259271E+04 -6.687303E+04 -2.184453E+04 -1.825196E+04 -9.529880E+03
       276  22  6.009916E+05  5.909968E+04  7.556468E+04 -1.475383E+04 -5.165222E+04 -3.687351E+03
       276  23  5.900727E+05 -1.029337E+04  3.278692E+04 -1.487889E+03 -3.386311E+04 -1.073874E+04
       276  24  6.010118E+05 -2.823951E+03  2.086137E+04 -1.467273E+04 -1.608425E+04 -9.527979E+03
       276  25  1.020190E+06  1.635554E+05  1.792945E+05 -2.995713E+04 -5.625283E+04 -3.692146E+03
       276  26  9.800458E+05  8.653356E+04  1.273475E+05 -5.501798E+03 -3.507840E+04 -1.073940E+04
       276  27  9.623327E+05  8.693541E+04  1.085864E+05 -7.496768E+03 -1.391528E+04 -9.526028E+03
       277   1  2.848531E+05 -7.051707E+04 -5.881384E+04 -1.291575E+04  1.272891E+04  7.686493E+03
       277   2  3.110067E+05 -7.191403E+04 -6.054002E+04 -1.423714E+03  8.632104E+03  7.403273E+03
       277   3  3.401553E+05 -6.414019E+04 -5.727225E+04 -1.538752E+04  4.534921E+03  6.361669E+03
       277   4  5.968372E+05  7.031156E+03  1.710464E+04 -1.447885E+04  1.277347E+04  7.686238E+03
       277   5  5.953161E+05 -1.264917E+03  8.536787E+03 -1.749079E+03  8.365152E+03  7.402924E+03
       277   6  5.968419E+05 -3.384486E+02  5.177284E+03 -1.447437E+04  3.956639E+03  6.361366E+03
       277   7  9.089100E+05  8.457223E+04  9.301607E+04 -1.604275E+04  1.281805E+04  7.685983E+03
       277   8  8.796992E+05  6.937826E+04  7.760775E+04 -2.074603E+03  8.098077E+03  7.402576E+03
       277   9  8.535885E+05  6.345845E+04  6.762204E+04 -1.356085E+04  3.378119E+03  6.361062E+03
       277  10  2.848529E+05 -7.051718E+04 -5.881426E+04 -1.291583E+04 -6.388434E-10  1.053153E-10
       277  11  3.110066E+05 -7.191411E+04 -6.054026E+04 -1.423765E+03 -2.263917E-10  1.116213E-10
       277  12  3.401553E+05 -6.414024E+04 -5.727236E+04 -1.538755E+04  5.676783E-12 -1.288237E-10
       277  13  5.968370E+05  7.031048E+03  1.710422E+04 -1.447893E+04  2.911201E-10  6.711437E-11
       277  14  5.953160E+05 -1.264995E+03  8.536552E+03 -1.749129E+03 -3.062462E-10  8.852764E-11
       277  15  5.968419E+05 -3.384963E+02  5.177178E+03 -1.447439E+04  2.623304E-10 -8.925159E-11
       277  16  9.089098E+05  8.457212E+04  9.301565E+04 -1.604283E+04  3.805883E-10 -1.099357E-10
       277  17  8.796991E+05  6.937819E+04  7.760753E+04 -2.074651E+03  5.262813E-10  2.502122E-10
       277  18  8.535885E+05  6.345840E+04  6.762194E+04 -1.356086E+04 -1.187247E-10 -1.446302E-10
       277  19  2.848531E+05 -7.051707E+04 -5.881384E+04 -1.291575E+04 -1.272891E+04 -7.686493E+03
       277  20  3.110067E+05 -7.191403E+04 -6.054002E+04 -1.423714E+03 -8.632104E+03 -7.403273E+03
       277  21  3.401553E+05 -6.414019E+04 -5.727225E+04 -1.538752E+04 -4.534921E+03 -6.361669E+03
       277  22  5.968372E+05  7.031156E+03  1.710464E+04 -1.447885E+04 -1.277347E+04 -7.686238E+03
       277  23  5.953161E+05 -1.264917E+03  8.536787E+03 -1.749079E+03 -8.365152E+03 -7.402924E+03
       277  24  5.968419E+05 -3.384486E+02  5.177284E+03 -1.447437E+04 -3.956639E+03 -6.361366E+03
       277  25  9.089100E+05  8.457223E+04  9.301607E+04 -1.604275E+04 -1.281805E+04 -7.685983E+03
       277  26  8.796992E+05  6.937826E+04  7.760775E+04 -2.074603E+03 -8.098077E+03 -7.402576E+03
       277  27  8.535885E+05  6.345845E+04  6.762204E+04 -1.356085E+04 -3.378119E+03 -6.361062E+03
       278   1  3.870940E+05 -5.115045E+04 -4.667254E+04 -1.416934E+04  3.501929E+03  5.653801E+03
       278   2  4.136913E+05 -4.547074E+04 -4.206105E+04 -1.927990E+03  2.393202E+03  4.712705E+03
       278   3  4.407668E+05 -3.869016E+04 -3.644083E+04 -1.440555E+04  1.283997E+03  3.710813E+03
       278   4  5.962781E+05  8.171793E+02  4.093733E+03 -1.431204E+04  3.130937E+03  5.653625E+03
       278   5  5.960378E+05 -1.595990E+02  2.248602E+03 -1.952771E+03  1.997045E+03  4.712609E+03
       278   6  5.962797E+05 -3.119441E+01  1.429560E+03 -1.431195E+04  8.627245E+02  3.710808E+03
       278   7  8.055021E+05  5.278160E+04  5.485684E+04 -1.445480E+04  2.759820E+03  5.653448E+03
       278   8  7.784146E+05  4.514910E+04  4.655585E+04 -1.977559E+03  1.600773E+03  4.712513E+03
       278   9  7.518146E+05  3.862600E+04  3.929819E+04 -1.421833E+04  4.413465E+02  3.710803E+03
       278  10  3.870940E+05 -5.115049E+04 -4.667262E+04 -1.416935E+04  1.598691E-10 -1.517982E-10
       278  11  4.136913E+05 -4.547077E+04 -4.206110E+04 -1.927999E+03 -3.846251E-10  1.683598E-10
       278  12  4.407668E+05 -3.869018E+04 -3.644086E+04 -1.440556E+04  1.155866E-10 -2.720590E-10
       278  13  5.962781E+05  8.171423E+02  4.093655E+03 -1.431206E+04 -2.184950E-11 -2.112941E-10
       278  14  5.960378E+05 -1.596239E+02  2.248553E+03 -1.952778E+03  3.946437E-10  1.239707E-10
       278  15  5.962797E+05 -3.120940E+01  1.429533E+03 -1.431195E+04 -2.052839E-10 -2.006730E-10
       278  16  8.055021E+05  5.278156E+04  5.485677E+04 -1.445481E+04  3.859419E-10 -7.188662E-11
       278  17  7.784146E+05  4.514908E+04  4.655580E+04 -1.977565E+03 -7.563983E-11  3.079620E-11
       278  18  7.518146E+05  3.862598E+04  3.929817E+04 -1.421833E+04  2.209136E-10 -6.058036E-11
       278  19  3.870940E+05 -5.115045E+04 -4.667254E+04 -1.416934E+04 -3.501929E+03 -5.653801E+03
       278  20  4.136913E+05 -4.547074E+04 -4.206105E+04 -1.927990E+03 -2.393202E+03 -4.712705E+03
       278  21  4.407668E+05 -3.869016E+04 -3.644083E+04 -1.440555E+04 -1.283997E+03 -3.710813E+03
       278  22  5.962781E+05  8.171793E+02  4.093733E+03 -1.431204E+04 -3.130937E+03 -5.653625E+03
       278  23  5.960378E+05 -1.595990E+02  2.248602E+03 -1.952771E+03 -1.997045E+03 -4.712609E+03
       278  24  5.962797E+05 -3.119441E+01  1.429560E+03 -1.431195E+04 -8.627245E+02 -3.710808E+03
       278  25  8.055021E+05  5.278160E+04  5.485684E+04 -1.445480E+04 -2.759820E+03 -5.653448E+03
       278  26  7.784146E+05  4.514910E+04  4.655585E+04 -1.977559E+03 -1.600773E+03 -4.712513E+03
       278  27  7.518146E+05  3.862600E+04  3.929819E+04 -1.421833E+04 -4.413465E+02 -3.710803E+03
       279   1  4.870885E+05 -2.700157E+04 -2.524621E+04 -1.418931E+04  1.029015E+03  3.121246E+03
       279   2  5.134146E+05 -2.058225E+04 -1.920239E+04 -2.052789E+03  5.806933E+02  2.135907E+03
       279   3  5.398420E+05 -1.398667E+04 -1.282329E+04 -1.421700E+04  1.321416E+02  1.149727E+03
       279   4  5.961984E+05  9.383686E+01  1.185870E+03 -1.421909E+04  6.269663E+02  3.121285E+03
       279   5  5.961485E+05 -2.488650E+01  9.010509E+02 -2.068828E+03  1.782267E+02  2.135984E+03
       279   6  5.961989E+05  3.265319E+01  9.517114E+02 -1.421909E+04 -2.707242E+02  1.149845E+03
       279   7  7.053192E+05  2.718838E+04  2.761710E+04 -1.424887E+04  2.248474E+02  3.121325E+03
       279   8  6.788887E+05  2.053198E+04  2.100400E+04 -2.084869E+03 -2.242933E+02  2.136062E+03
       279   9  6.525588E+05  1.405175E+04  1.472648E+04 -1.422119E+04 -6.736264E+02  1.149963E+03
       279  10  4.870885E+05 -2.700159E+04 -2.524623E+04 -1.418931E+04 -3.152896E-10 -2.969604E-10
       279  11  5.134146E+05 -2.058226E+04 -1.920240E+04 -2.052790E+03  4.928972E-10  1.692656E-10
       279  12  5.398420E+05 -1.398668E+04 -1.282329E+04 -1.421700E+04 -3.631675E-11  3.635642E-11
       279  13  5.961984E+05  9.382629E+01  1.185851E+03 -1.421909E+04 -2.508368E-10 -2.402534E-10
       279  14  5.961485E+05 -2.489141E+01  9.010422E+02 -2.068828E+03 -5.065159E-10  1.736003E-10
       279  15  5.961989E+05  3.265175E+01  9.517088E+02 -1.421909E+04  4.955814E-10  2.176124E-11
       279  16  7.053192E+05  2.718837E+04  2.761708E+04 -1.424887E+04  3.827640E-10 -2.183071E-10
       279  17  6.788887E+05  2.053197E+04  2.100399E+04 -2.084869E+03 -7.154856E-10 -6.985667E-11
       279  18  6.525588E+05  1.405174E+04  1.472648E+04 -1.422119E+04 -5.379425E-10 -4.095750E-11
       279  19  4.870885E+05 -2.700157E+04 -2.524621E+04 -1.418931E+04 -1.029015E+03 -3.121246E+03
       279  20  5.134146E+05 -2.058225E+04 -1.920239E+04 -2.052789E+03 -5.806933E+02 -2.135907E+03
       279  21  5.398420E+05 -1.398667E+04 -1.282329E+04 -1.421700E+04 -1.321416E+02 -1.149727E+03
       279  22  5.961984E+05  9.383686E+01  1.185870E+03 -1.421909E+04 -6.269663E+02 -3.121285E+03
       279  23  5.961485E+05 -2.488650E+01  9.010509E+02 -2.068828E+03 -1.782267E+02 -2.135984E+03
       279  24  5.961989E+05  3.265319E+01  9.517114E+02 -1.421909E+04  2.707242E+02 -1.149845E+03
       279  25  7.053192E+05  2.718838E+04  2.761710E+04 -1.424887E+04 -2.248474E+02 -3.121325E+03
       279  26  6.788887E+05  2.053198E+04  2.100400E+04 -2.084869E+03  2.242933E+02 -2.136062E+03
       279  27  6.525588E+05  1.405175E+04  1.472648E+04 -1.422119E+04  6.736264E+02 -1.149963E+03
       280   1  5.857659E+05 -2.573154E+03 -1.385022E+03 -1.415383E+04 -5.130526E+01  5.755109E+02
       280   2  6.119403E+05  3.878398E+03  5.414269E+03 -2.096726E+03 -8.373099E+02 -4.082621E+02
       280   3  6.382925E+05  1.069866E+04  1.281330E+04 -1.423230E+04 -1.623308E+03 -1.387982E+03
       280   4  5.962169E+05  7.339465E+00  1.073152E+03 -1.419516E+04 -4.538964E+02  5.756406E+02
       280   5  5.961282E+05 -5.025877E+01  1.572423E+03 -2.098762E+03 -1.238236E+03 -4.081416E+02
       280   6  5.962165E+05  2.606235E+02  2.670352E+03 -1.419508E+04 -2.022536E+03 -1.387868E+03
       280   7  6.066680E+05  2.587825E+03  3.531319E+03 -1.423649E+04 -8.564943E+02  5.757704E+02
       280   8  5.803164E+05 -3.978934E+03 -2.269440E+03 -2.100798E+03 -1.639152E+03 -4.080210E+02
       280   9  5.541421E+05 -1.017754E+04 -7.472725E+03 -1.415786E+04 -2.421738E+03 -1.387754E+03
       280  10  5.857659E+05 -2.573155E+03 -1.385023E+03 -1.415383E+04 -2.285896E-11 -1.469365E-10
       280  11  6.119403E+05  3.878398E+03  5.414267E+03 -2.096726E+03  2.027237E-10  1.001671E-11
       280  12  6.382925E+05  1.069865E+04  1.281329E+04 -1.423230E+04 -2.217136E-11  2.198768E-10
       280  13  5.962169E+05  7.339054E+00  1.073151E+03 -1.419516E+04 -3.568210E-10  2.357485E-11
       280  14  5.961282E+05 -5.025936E+01  1.572420E+03 -2.098763E+03  4.933718E-11  1.181218E-10
       280  15  5.962165E+05  2.606204E+02  2.670341E+03 -1.419508E+04 -2.579786E-10  8.484779E-11
       280  16  6.066680E+05  2.587825E+03  3.531317E+03 -1.423648E+04  1.760764E-10 -2.121836E-11
       280  17  5.803164E+05 -3.978935E+03 -2.269445E+03 -2.100799E+03 -6.254702E-10  5.949339E-11
       280  18  5.541421E+05 -1.017754E+04 -7.472740E+03 -1.415787E+04 -5.641574E-11 -2.203688E-10
       280  19  5.857659E+05 -2.573154E+03 -1.385022E+03 -1.415383E+04  5.130526E+01 -5.755109E+02
       280  20  6.119403E+05  3.878398E+03  5.414269E+03 -2.096726E+03  8.373099E+02  4.082621E+02
       280  21  6.382925E+05  1.069866E+04  1.281330E+04 -1.423230E+04  1.623308E+03  1.387982E+03
       280  22  5.962169E+05  7.339465E+00  1.073152E+03 -1.419516E+04  4.538964E+02 -5.756406E+02
       280  23  5.961282E+05 -5.025877E+01  1.572423E+03 -2.098762E+03  1.238236E+03  4.081416E+02
       280  24  5.962165E+05  2.606235E+02  2.670352E+03 -1.419508E+04  2.022536E+03  1.387868E+03
       280  25  6.066680E+05  2.587825E+03  3.531319E+03 -1.423649E+04  8.564943E+02 -5.757704E+02
       280  26  5.803164E+05 -3.978934E+03 -2.269440E+03 -2.100798E+03  1.639152E+03  4.080210E+02
       280  27  5.541421E+05 -1.017754E+04 -7.472725E+03 -1.415786E+04  2.421738E+03  1.387754E+03
       281   1  6.845070E+05  2.180975E+04  2.490148E+04 -1.396285E+04 -2.155053E+03 -1.970559E+03
       281   2  7.104344E+05  2.806005E+04  3.359249E+04 -2.127548E+03 -5.081754E+03 -2.960783E+03
       281   3  7.374874E+05  3.724102E+04  4.492213E+04 -1.469294E+04 -8.008257E+03 -3.897964E+03
       281   4  5.964248E+05 -9.016822E+01  3.420311E+03 -1.424151E+04 -2.570253E+03 -1.970462E+03
       281   5  5.958628E+05 -4.046393E+02  5.757265E+03 -2.040892E+03 -5.474816E+03 -2.960749E+03
       281   6  5.964226E+05  2.208210E+03  1.071804E+04 -1.424123E+04 -8.379058E+03 -3.897989E+03
       281   7  5.083496E+05 -2.199066E+04 -1.806142E+04 -1.452014E+04 -2.985394E+03 -1.970366E+03
       281   8  4.813032E+05 -2.887030E+04 -2.207891E+04 -1.954252E+03 -5.867805E+03 -2.960715E+03
       281   9  4.553760E+05 -3.282606E+04 -2.348748E+04 -1.378962E+04 -8.749774E+03 -3.898015E+03
       281  10  6.845070E+05  2.180975E+04  2.490147E+04 -1.396285E+04 -6.592726E-10 -6.034788E-12
       281  11  7.104344E+05  2.806004E+04  3.359242E+04 -2.127560E+03  1.203192E-10 -9.688345E-11
       281  12  7.374873E+05  3.724099E+04  4.492198E+04 -1.469296E+04 -4.837482E-10 -8.846207E-11
       281  13  5.964248E+05 -9.017417E+01  3.420291E+03 -1.424152E+04  3.688834E-11 -1.035377E-10
       281  14  5.958628E+05 -4.046568E+02  5.757192E+03 -2.040905E+03 -4.338384E-10 -1.489390E-10
       281  15  5.964225E+05  2.208175E+03  1.071788E+04 -1.424126E+04 -2.780465E-10 -1.474041E-10
       281  16  5.083496E+05 -2.199067E+04 -1.806145E+04 -1.452015E+04  8.580816E-11 -1.544423E-10
       281  17  4.813031E+05 -2.887031E+04 -2.207899E+04 -1.954266E+03  9.746976E-11 -6.859632E-11
       281  18  4.553759E+05 -3.282610E+04 -2.348765E+04 -1.378965E+04 -2.297618E-10 -1.913309E-10
       281  19  6.845070E+05  2.180975E+04  2.490148E+04 -1.396285E+04  2.155053E+03  1.970559E+03
       281  20  7.104344E+05  2.806005E+04  3.359249E+04 -2.127548E+03  5.081754E+03  2.960783E+03
       281  21  7.374874E+05  3.724102E+04  4.492213E+04 -1.469294E+04  8.008257E+03  3.897964E+03
       281  22  5.964248E+05 -9.016822E+01  3.420311E+03 -1.424151E+04  2.570253E+03  1.970462E+03
       281  23  5.958628E+05 -4.046393E+02  5.757265E+03 -2.040892E+03  5.474816E+03  2.960749E+03
       281  24  5.964226E+05  2.208210E+03  1.071804E+04 -1.424123E+04  8.379058E+03  3.897989E+03
       281  25  5.083496E+05 -2.199066E+04 -1.806142E+04 -1.452014E+04  2.985394E+03  1.970366E+03
       281  26  4.813032E+05 -2.887030E+04 -2.207891E+04 -1.954252E+03  5.867805E+03  2.960715E+03
       281  27  4.553760E+05 -3.282606E+04 -2.348748E+04 -1.378962E+04  8.749774E+03  3.898015E+03
       282   1  7.856522E+05  4.579383E+04  5.929210E+04 -1.205508E+04 -9.999840E+03 -4.576437E+03
       282   2  8.088431E+05  5.005823E+04  7.474404E+04 -3.003551E+03 -2.191293E+04 -5.596667E+03
       282   3  8.397912E+05  7.880926E+04  1.040842E+05 -1.886695E+04 -3.382646E+04 -5.984762E+03
       282   4  5.978841E+05 -8.684832E+02  1.360251E+04 -1.435443E+04 -1.054329E+04 -4.576472E+03
       282   5  5.940227E+05 -3.307052E+03  2.256773E+04 -1.899218E+03 -2.219466E+04 -5.596871E+03
       282   6  5.978751E+05  1.870030E+04  4.524312E+04 -1.435927E+04 -3.384594E+04 -5.985166E+03
       282   7  4.101482E+05 -4.753337E+04 -3.208963E+04 -1.665308E+04 -1.108659E+04 -4.576503E+03
       282   8  3.792444E+05 -5.667572E+04 -2.961192E+04 -7.952703E+02 -2.247629E+04 -5.597076E+03
       282   9  3.560124E+05 -4.141289E+04 -1.360218E+04 -9.853362E+03 -3.386542E+04 -5.985571E+03
       282  10  7.856521E+05  4.579378E+04  5.929188E+04 -1.205512E+04 -7.228829E-10 -2.691501E-11
       282  11  8.088426E+05  5.005807E+04  7.474308E+04 -3.003649E+03  6.140812E-11 -2.133130E-11
       282  12  8.397900E+05  7.880891E+04  1.040820E+05 -1.886711E+04 -3.879389E-10  1.842006E-10
       282  13  5.978840E+05 -8.685355E+02  1.360226E+04 -1.435447E+04 -3.057874E-10 -1.935370E-10
       282  14  5.940221E+05 -3.307218E+03  2.256674E+04 -1.899318E+03 -4.195275E-10 -5.568056E-11
       282  15  5.978739E+05  1.869995E+04  4.524091E+04 -1.435944E+04 -3.199643E-10  1.340515E-12
       282  16  4.101481E+05 -4.753342E+04 -3.208990E+04 -1.665312E+04  4.839110E-11 -2.677231E-10
       282  17  3.792438E+05 -5.667589E+04 -2.961293E+04 -7.953716E+02  3.946539E-10 -2.622015E-10
       282  18  3.560112E+05 -4.141324E+04 -1.360440E+04 -9.853525E+03  4.321396E-10  1.609308E-11
       282  19  7.856522E+05  4.579383E+04  5.929210E+04 -1.205508E+04  9.999840E+03  4.576437E+03
       282  20  8.088431E+05  5.005823E+04  7.474404E+04 -3.003551E+03  2.191293E+04  5.596667E+03
       282  21  8.397912E+05  7.880926E+04  1.040842E+05 -1.886695E+04  3.382646E+04  5.984762E+03
       282  22  5.978841E+05 -8.684832E+02  1.360251E+04 -1.435443E+04  1.054329E+04  4.576472E+03
       282  23  5.940227E+05 -3.307052E+03  2.256773E+04 -1.899218E+03  2.219466E+04  5.596871E+03
       282  24  5.978751E+05  1.870030E+04  4.524312E+04 -1.435927E+04  3.384594E+04  5.985166E+03
       282  25  4.101482E+05 -4.753337E+04 -3.208963E+04 -1.665308E+04  1.108659E+04  4.576503E+03
       282  26  3.792444E+05 -5.667572E+04 -2.961192E+04 -7.952703E+02  2.247629E+04  5.597076E+03
       282  27  3.560124E+05 -4.141289E+04 -1.360218E+04 -9.853362E+03  3.386542E+04  5.985571E+03
       283   1  8.987677E+05  6.463102E+04  1.255777E+05  3.999392E+03 -4.073988E+04 -7.610606E+03
       283   2  8.980308E+05  5.173818E+04  1.638841E+05 -1.301564E+04 -9.063984E+04 -8.787169E+03
       283   3  9.549446E+05  2.427200E+05  2.856589E+05 -5.580084E+04 -1.405470E+05 -3.084788E+03
       283   4  6.088733E+05 -7.397018E+03  5.518070E+04 -1.450642E+04 -4.260253E+04 -7.610374E+03
       283   5  5.802568E+05 -2.715780E+04  8.683239E+04 -1.688857E+03 -8.967323E+04 -8.788509E+03
       283   6  6.088283E+05  1.565182E+05  2.000193E+05 -1.463963E+04 -1.367486E+05 -3.090941E+03
       283   7  3.190563E+05 -7.942995E+04 -1.522218E+04 -3.300358E+04 -4.446430E+04 -7.610030E+03
       283   8  2.625752E+05 -1.060607E+05  9.773470E+03  9.632103E+03 -8.870710E+04 -8.789814E+03
       283   9  2.628243E+05  7.031378E+04  1.143718E+05  2.649863E+04 -1.329524E+05 -3.096594E+03
       283  10  8.987659E+05  6.463052E+04  1.255745E+05  3.999142E+03 -8.012699E-11  1.938939E-10
       283  11  8.980220E+05  5.173590E+04  1.638685E+05 -1.301628E+04  3.206271E-10 -5.314840E-11
       283  12  9.549234E+05  2.427147E+05  2.856218E+05 -5.580119E+04 -1.595881E-10 -1.809275E-10
       283  13  6.088714E+05 -7.397567E+03  5.517718E+04 -1.450668E+04 -8.451922E-12  1.101201E-10
       283  14  5.802482E+05 -2.716004E+04  8.681714E+04 -1.689492E+03 -2.050808E-10 -1.089468E-10
       283  15  6.088082E+05  1.565131E+05  1.999842E+05 -1.463997E+04 -1.154478E-09 -2.523661E-13
       283  16  3.190542E+05 -7.943054E+04 -1.522600E+04 -3.300385E+04 -1.794497E-10  4.119658E-11
       283  17  2.625667E+05 -1.060629E+05  9.758544E+03  9.631475E+03  7.861612E-11  2.754963E-10
       283  18  2.628053E+05  7.030903E+04  1.143385E+05  2.649829E+04  4.202326E-10 -2.792011E-11
       283  19  8.987677E+05  6.463102E+04  1.255777E+05  3.999392E+03  4.073988E+04  7.610606E+03
       283  20  8.980308E+05  5.173818E+04  1.638841E+05 -1.301564E+04  9.063984E+04  8.787169E+03
       283  21  9.549446E+05  2.427200E+05  2.856589E+05 -5.580084E+04  1.405470E+05  3.084788E+03
       283  22  6.088733E+05 -7.397018E+03  5.518070E+04 -1.450642E+04  4.260253E+04  7.610374E+03
       283  23  5.802568E+05 -2.715780E+04  8.683239E+04 -1.688857E+03  8.967323E+04  8.788509E+03
       283  24  6.088283E+05  1.565182E+05  2.000193E+05 -1.463963E+04  1.367486E+05  3.090941E+03
       283  25  3.190563E+05 -7.942995E+04 -1.522218E+04 -3.300358E+04  4.446430E+04  7.610030E+03
       283  26  2.625752E+05 -1.060607E+05  9.773470E+03  9.632103E+03  8.870710E+04  8.789814E+03
       283  27  2.628243E+05  7.031378E+04  1.143718E+05  2.649863E+04  1.329524E+05  3.096594E+03
       284   1  1.182969E+05  8.395864E+05  1.342756E+05 -4.696747E+04  1.775445E+03  5.581387E+04
       284   2  3.327516E+04  7.725485E+05  7.521388E+04 -9.813071E+03  4.872152E+03  3.597713E+04
       284   3  2.663007E+04  7.275148E+05  4.861719E+04 -2.406397E+04  2.790397E+03  1.613297E+04
       284   4  6.040210E+04  6.076729E+05  7.682907E+04 -3.081125E+04  1.780627E+03  5.349306E+04
       284   5 -1.037021E+04  5.968619E+05  3.263328E+04 -5.159878E+03  4.872840E+03  3.577727E+04
       284   6 -3.121112E+03  6.076936E+05  1.943999E+04 -3.091364E+04  2.786681E+03  1.805227E+04
       284   7  2.504299E+03  3.758089E+05  1.937865E+04 -1.466104E+04  1.785688E+03  5.117310E+04
       284   8 -5.401777E+04  4.212036E+05 -9.949520E+03 -5.079913E+02  4.873526E+03  3.557748E+04
       284   9 -3.287317E+04  4.878856E+05 -9.738204E+03 -3.776199E+04  2.782922E+03  1.997120E+04
       284  10  1.182960E+05  8.395830E+05  1.342698E+05 -4.696755E+04  3.089779E-12 -1.077945E-10
       284  11  3.327479E+04  7.725471E+05  7.521140E+04 -9.813212E+03 -8.794450E-13  5.199803E-11
       284  12  2.662999E+04  7.275145E+05  4.861669E+04 -2.406400E+04  9.101739E-10  2.654394E-10
       284  13  6.040133E+04  6.076699E+05  7.682369E+04 -3.081133E+04  3.366843E-10 -1.294755E-10
       284  14 -1.037058E+04  5.968606E+05  3.263084E+04 -5.160018E+03 -1.651918E-09  2.147112E-10
       284  15 -3.121208E+03  6.076932E+05  1.943937E+04 -3.091368E+04  5.914682E-10  1.293424E-11
       284  16  2.503593E+03  3.758061E+05  1.937373E+04 -1.466112E+04 -4.176774E-10  1.122397E-10
       284  17 -5.401814E+04  4.212022E+05 -9.951941E+03 -5.081309E+02 -8.433420E-10  9.081924E-11
       284  18 -3.287328E+04  4.878852E+05 -9.738967E+03 -3.776204E+04  4.103854E-10 -2.547572E-10
       284  19  1.182969E+05  8.395864E+05  1.342756E+05 -4.696747E+04 -1.775445E+03 -5.581387E+04
       284  20  3.327516E+04  7.725485E+05  7.521388E+04 -9.813071E+03 -4.872152E+03 -3.597713E+04
       284  21  2.663007E+04  7.275148E+05  4.861719E+04 -2.406397E+04 -2.790397E+03 -1.613297E+04
       284  22  6.040210E+04  6.076729E+05  7.682907E+04 -3.081125E+04 -1.780627E+03 -5.349306E+04
       284  23 -1.037021E+04  5.968619E+05  3.263328E+04 -5.159878E+03 -4.872840E+03 -3.577727E+04
       284  24 -3.121112E+03  6.076936E+05  1.943999E+04 -3.091364E+04 -2.786681E+03 -1.805227E+04
       284  25  2.504299E+03  3.758089E+05  1.937865E+04 -1.466104E+04 -1.785688E+03 -5.117310E+04
       284  26 -5.401777E+04  4.212036E+05 -9.949520E+03 -5.079913E+02 -4.873526E+03 -3.557748E+04
       284  27 -3.287317E+04  4.878856E+05 -9.738204E+03 -3.776199E+04 -2.782922E+03 -1.997120E+04
       285   1  1.301012E+04  6.254835E+05  2.042387E+04 -3.222925E+04  7.132318E+02  1.436565E+04
       285   2 -8.983298E+03  5.690136E+05 -3.500538E+03 -5.777703E+03 -8.955363E+02  1.201690E+04
       285   3 -2.572365E+04  5.139324E+05 -2.463312E+04 -3.066928E+04 -2.388487E+03  9.668730E+03
       285   4  7.474396E+03  6.031936E+05  1.505067E+04 -3.085440E+04  7.119748E+02  1.504805E+04
       285   5 -6.667508E+02  6.024983E+05  4.632671E+03 -5.193115E+03 -8.966932E+02  1.265234E+04
       285   6 -3.546315E+03  6.031977E+05 -2.960080E+03 -3.087472E+04 -2.389549E+03  1.025700E+04
       285   7  1.938639E+03  5.809040E+05  9.677437E+03 -2.947959E+04  7.107208E+02  1.573043E+04
       285   8  7.649716E+03  6.359840E+05  1.276580E+04 -4.608495E+03 -8.978489E+02  1.328782E+04
       285   9  1.863043E+04  6.924702E+05  1.871239E+04 -3.108019E+04 -2.390611E+03  1.084536E+04
       285  10  1.301007E+04  6.254833E+05  2.042348E+04 -3.222926E+04  1.698985E-10 -4.346938E-10
       285  11 -8.983338E+03  5.690134E+05 -3.500810E+03 -5.777695E+03  3.530250E-10 -2.309532E-10
       285  12 -2.572368E+04  5.139323E+05 -2.463331E+04 -3.066926E+04 -6.862926E-10  2.181710E-10
       285  13  7.474335E+03  6.031933E+05  1.505024E+04 -3.085440E+04  2.401854E-10  1.751673E-11
       285  14 -6.667946E+02  6.024981E+05  4.632369E+03 -5.193106E+03  1.319616E-09 -1.792247E-10
       285  15 -3.546350E+03  6.031976E+05 -2.960288E+03 -3.087470E+04  1.225020E-09 -1.722283E-10
       285  16  1.938572E+03  5.809038E+05  9.676971E+03 -2.947960E+04  3.485792E-10  5.354840E-10
       285  17  7.649667E+03  6.359838E+05  1.276547E+04 -4.608485E+03 -1.396957E-09  2.435267E-10
       285  18  1.863039E+04  6.924701E+05  1.871216E+04 -3.108017E+04 -2.943689E-10 -2.224190E-10
       285  19  1.301012E+04  6.254835E+05  2.042387E+04 -3.222925E+04 -7.132318E+02 -1.436565E+04
       285  20 -8.983298E+03  5.690136E+05 -3.500538E+03 -5.777703E+03  8.955363E+02 -1.201690E+04
       285  21 -2.572365E+04  5.139324E+05 -2.463312E+04 -3.066928E+04  2.388487E+03 -9.668730E+03
       285  22  7.474396E+03  6.031936E+05  1.505067E+04 -3.085440E+04 -7.119748E+02 -1.504805E+04
       285  23 -6.667508E+02  6.024983E+05  4.632671E+03 -5.193115E+03  8.966932E+02 -1.265234E+04
       285  24 -3.546315E+03  6.031977E+05 -2.960080E+03 -3.087472E+04  2.389549E+03 -1.025700E+04
       285  25  1.938639E+03  5.809040E+05  9.677437E+03 -2.947959E+04 -7.107208E+02 -1.573043E+04
       285  26  7.649716E+03  6.359840E+05  1.276580E+04 -4.608495E+03  8.978489E+02 -1.328782E+04
       285  27  1.863043E+04  6.924702E+05  1.871239E+04 -3.108019E+04  2.390611E+03 -1.084536E+04
       286   1 -4.421462E+04  4.137563E+05 -5.138853E+04 -2.758761E+04 -4.638578E+03  8.812174E+03
       286   2 -5.571485E+04  3.625356E+05 -7.259170E+04 -6.861477E+03 -6.802684E+03  1.890755E+04
       286   3 -1.023810E+05  3.011126E+05 -1.091792E+05 -3.784833E+04 -2.507503E+03  2.901188E+04
       286   4  2.267008E+03  6.007118E+05 -5.900494E+03 -3.093302E+04 -4.642445E+03  1.100931E+04
       286   5  4.648752E+03  6.055875E+05 -1.366082E+04 -5.098563E+03 -6.801759E+03  1.847090E+04
       286   6 -2.767080E+04  6.007188E+05 -3.497305E+04 -3.097642E+04 -2.502730E+03  2.594245E+04
       286   7  4.874611E+04  7.876993E+05  3.958503E+04 -3.427941E+04 -4.646335E+03  1.320711E+04
       286   8  6.500804E+04  8.486933E+05  4.526580E+04 -3.334936E+03 -6.800837E+03  1.803409E+04
       286   9  4.703287E+04  9.004066E+05  3.922653E+04 -2.410115E+04 -2.498026E+03  2.287153E+04
       286  10 -4.421466E+04  4.137562E+05 -5.138871E+04 -2.758758E+04  5.523067E-11 -2.682265E-10
       286  11 -5.571500E+04  3.625352E+05 -7.259246E+04 -6.861373E+03  3.469346E-10 -1.604079E-10
       286  12 -1.023812E+05  3.011117E+05 -1.091808E+05 -3.784827E+04 -1.659778E-10  1.466626E-10
       286  13  2.266952E+03  6.007117E+05 -5.900762E+03 -3.093297E+04 -1.067841E-09  1.088350E-10
       286  14  4.648610E+03  6.055871E+05 -1.366155E+04 -5.098462E+03  5.463091E-10 -1.097096E-10
       286  15 -2.767099E+04  6.007181E+05 -3.497432E+04 -3.097636E+04 -4.271062E-10  1.439489E-11
       286  16  4.874604E+04  7.876991E+05  3.958466E+04 -3.427936E+04  5.248201E-10  1.315482E-10
       286  17  6.500790E+04  8.486929E+05  4.526511E+04 -3.334837E+03 -3.563483E-10  7.717887E-11
       286  18  4.703272E+04  9.004061E+05  3.922554E+04 -2.410111E+04 -7.257510E-10 -7.812851E-11
       286  19 -4.421462E+04  4.137563E+05 -5.138853E+04 -2.758761E+04  4.638578E+03 -8.812174E+03
       286  20 -5.571485E+04  3.625356E+05 -7.259170E+04 -6.861477E+03  6.802684E+03 -1.890755E+04
       286  21 -1.023810E+05  3.011126E+05 -1.091792E+05 -3.784833E+04  2.507503E+03 -2.901188E+04
       286  22  2.267008E+03  6.007118E+05 -5.900494E+03 -3.093302E+04  4.642445E+03 -1.100931E+04
       286  23  4.648752E+03  6.055875E+05 -1.366082E+04 -5.098563E+03  6.801759E+03 -1.847090E+04
       286  24 -2.767080E+04  6.007188E+05 -3.497305E+04 -3.097642E+04  2.502730E+03 -2.594245E+04
       286  25  4.874611E+04  7.876993E+05  3.958503E+04 -3.427941E+04  4.646335E+03 -1.320711E+04
       286  26  6.500804E+04  8.486933E+05  4.526580E+04 -3.334936E+03  6.800837E+03 -1.803409E+04
       286  27  4.703287E+04  9.004066E+05  3.922653E+04 -2.410115E+04  2.498026E+03 -2.287153E+04
       287   1 -8.023737E+05 -3.252612E+05 -2.470627E+05 -2.647302E+05 -1.156078E+05 -4.084357E+04
       287   2 -7.678107E+05 -1.526463E+05 -1.387730E+05 -2.832332E+05 -7.525637E+04 -2.030547E+04
       287   3 -7.928454E+05 -1.555805E+05 -1.075745E+05 -2.682982E+05 -3.289644E+04 -5.097106E+03
       287   4 -5.670892E+05 -2.049328E+05 -1.765287E+05 -1.684080E+05 -1.128355E+05 -3.980682E+04
       287   5 -5.284709E+05 -5.380774E+04 -7.300346E+04 -2.090532E+05 -7.450469E+04 -2.002404E+04
       287   6 -5.490249E+05 -7.779417E+04 -4.494432E+04 -2.162684E+05 -3.416547E+04 -5.573752E+03
       287   7 -3.317496E+05 -8.458634E+04 -1.060003E+05 -7.204854E+04 -1.100621E+05 -3.876928E+04
       287   8 -2.890758E+05  4.503734E+04 -7.239207E+03 -1.348463E+05 -7.375269E+04 -1.974246E+04
       287   9 -3.051468E+05 -7.870392E+00  1.768128E+04 -1.642218E+05 -3.543505E+04 -6.050532E+03
       287  10 -8.023885E+05 -3.252665E+05 -2.470910E+05 -2.647340E+05  9.081250E-10 -3.070942E-11
       287  11 -7.678169E+05 -1.526483E+05 -1.387845E+05 -2.832344E+05  1.791426E-10 -6.228803E-11
       287  12 -7.928466E+05 -1.555808E+05 -1.075766E+05 -2.682984E+05  4.171442E-10 -4.644076E-11
       287  13 -5.671033E+05 -2.049379E+05 -1.765556E+05 -1.684116E+05 -5.428485E-10 -1.309977E-11
       287  14 -5.284769E+05 -5.380967E+04 -7.301465E+04 -2.090544E+05 -4.808411E-10  9.543497E-12
       287  15 -5.490262E+05 -7.779452E+04 -4.494658E+04 -2.162685E+05 -4.115765E-10 -1.695497E-10
       287  16 -3.317630E+05 -8.459121E+04 -1.060260E+05 -7.205197E+04  5.890204E-10  5.838854E-11
       287  17 -2.890817E+05  4.503546E+04 -7.250168E+03 -1.348475E+05 -3.448695E-10 -1.177591E-11
       287  18 -3.051481E+05 -8.247068E+00  1.767885E+04 -1.642220E+05  2.465552E-10 -3.613464E-10
       287  19 -8.023737E+05 -3.252612E+05 -2.470627E+05 -2.647302E+05  1.156078E+05  4.084357E+04
       287  20 -7.678107E+05 -1.526463E+05 -1.387730E+05 -2.832332E+05  7.525637E+04  2.030547E+04
       287  21 -7.928454E+05 -1.555805E+05 -1.075745E+05 -2.682982E+05  3.289644E+04  5.097106E+03
       287  22 -5.670892E+05 -2.049328E+05 -1.765287E+05 -1.684080E+05  1.128355E+05  3.980682E+04
       287  23 -5.284709E+05 -5.380774E+04 -7.300346E+04 -2.090532E+05  7.450469E+04  2.002404E+04
       287  24 -5.490249E+05 -7.779417E+04 -4.494432E+04 -2.162684E+05  3.416547E+04  5.573752E+03
       287  25 -3.317496E+05 -8.458634E+04 -1.060003E+05 -7.204854E+04  1.100621E+05  3.876928E+04
       287  26 -2.890758E+05  4.503734E+04 -7.239207E+03 -1.348463E+05  7.375269E+04  1.974246E+04
       287  27 -3.051468E+05 -7.870392E+00  1.768128E+04 -1.642218E+05  3.543505E+04  6.050532E+03
       288   1 -7.497775E+05 -1.788168E+05 -9.299938E+04 -2.655506E+05 -2.731000E+04 -4.231858E+03
       288   2 -7.377909E+05 -1.490149E+05 -6.986685E+04 -2.599167E+05 -1.805997E+04 -7.569634E+02
       288   3 -7.253561E+05 -1.492857E+05 -5.926041E+04 -2.597787E+05 -8.603554E+03  2.169010E+03
       288   4 -5.430997E+05 -9.727979E+04 -3.675806E+04 -2.054523E+05 -2.721243E+04 -4.195503E+03
       288   5 -5.422336E+05 -7.441998E+04 -1.723993E+04 -2.056524E+05 -1.816897E+04 -7.980925E+02
       288   6 -5.408756E+05 -8.158785E+04 -1.008083E+04 -2.113490E+05 -8.919313E+03  2.050318E+03
       288   7 -3.363813E+05 -1.573929E+04  1.947927E+04 -1.453357E+05 -2.711483E+04 -4.159133E+03
       288   8 -3.466395E+05  1.774409E+02  3.538361E+04 -1.513727E+05 -1.827800E+04 -8.392360E+02
       288   9 -3.563620E+05 -1.388826E+04  3.909590E+04 -1.629065E+05 -9.235176E+03  1.931590E+03
       288  10 -7.497783E+05 -1.788171E+05 -9.300081E+04 -2.655507E+05 -2.644682E-10  6.608753E-11
       288  11 -7.377912E+05 -1.490150E+05 -6.986747E+04 -2.599168E+05  8.446295E-10  3.677758E-10
       288  12 -7.253562E+05 -1.492858E+05 -5.926056E+04 -2.597787E+05  1.149766E-09  2.243033E-10
       288  13 -5.431005E+05 -9.728000E+04 -3.675948E+04 -2.054524E+05 -1.650715E-11  6.505991E-11
       288  14 -5.422339E+05 -7.442007E+04 -1.724055E+04 -2.056525E+05  1.559712E-09  4.516915E-10
       288  15 -5.408757E+05 -8.158788E+04 -1.008099E+04 -2.113490E+05  7.331796E-10  1.526584E-10
       288  16 -3.363821E+05 -1.573950E+04  1.947786E+04 -1.453358E+05  1.292787E-09 -6.084283E-12
       288  17 -3.466398E+05  1.773504E+02  3.538298E+04 -1.513727E+05  1.622926E-09  5.228954E-10
       288  18 -3.563621E+05 -1.388829E+04  3.909573E+04 -1.629065E+05 -9.445920E-11  1.912821E-10
       288  19 -7.497775E+05 -1.788168E+05 -9.299938E+04 -2.655506E+05  2.731000E+04  4.231858E+03
       288  20 -7.377909E+05 -1.490149E+05 -6.986685E+04 -2.599167E+05  1.805997E+04  7.569634E+02
       288  21 -7.253561E+05 -1.492857E+05 -5.926041E+04 -2.597787E+05  8.603554E+03 -2.169010E+03
       288  22 -5.430997E+05 -9.727979E+04 -3.675806E+04 -2.054523E+05  2.721243E+04  4.195503E+03
       288  23 -5.422336E+05 -7.441998E+04 -1.723993E+04 -2.056524E+05  1.816897E+04  7.980925E+02
       288  24 -5.408756E+05 -8.158785E+04 -1.008083E+04 -2.113490E+05  8.919313E+03 -2.050318E+03
       288  25 -3.363813E+05 -1.573929E+04  1.947927E+04 -1.453357E+05  2.711483E+04  4.159133E+03
       288  26 -3.466395E+05  1.774409E+02  3.538361E+04 -1.513727E+05  1.827800E+04  8.392360E+02
       288  27 -3.563620E+05 -1.388826E+04  3.909590E+04 -1.629065E+05  9.235176E+03 -1.931590E+03
       289   1 -6.971314E+05 -1.436186E+05 -5.013399E+04 -2.533257E+05 -7.125219E+03  2.273467E+03
       289   2 -6.878000E+05 -1.310564E+05 -4.257506E+04 -2.443506E+05 -4.850666E+03  2.560089E+03
       289   3 -6.698271E+05 -1.308837E+05 -3.725536E+04 -2.460091E+05 -2.551587E+03  2.780785E+03
       289   4 -5.399624E+05 -8.404405E+04 -7.938956E+03 -2.100932E+05 -7.303498E+03  2.206427E+03
       289   5 -5.441493E+05 -7.689067E+04 -4.032674E+03 -2.051372E+05 -5.053576E+03  2.483848E+03
       289   6 -5.396899E+05 -8.212123E+04 -2.345606E+03 -2.108146E+05 -2.779183E+03  2.695330E+03
       289   7 -3.827696E+05 -2.446798E+04  3.425389E+04 -1.668509E+05 -7.481827E+03  2.139367E+03
       289   8 -4.004790E+05 -2.272378E+04  3.450784E+04 -1.659157E+05 -5.256538E+03  2.407588E+03
       289   9 -4.095368E+05 -3.335793E+04  3.256258E+04 -1.756136E+05 -3.006831E+03  2.609856E+03
       289  10 -6.971315E+05 -1.436186E+05 -5.013410E+04 -2.533257E+05  2.634490E-10 -1.948484E-10
       289  11 -6.878000E+05 -1.310564E+05 -4.257511E+04 -2.443506E+05  1.049538E-09  6.030855E-10
       289  12 -6.698271E+05 -1.308837E+05 -3.725539E+04 -2.460091E+05  2.427481E-09  1.182388E-09
       289  13 -5.399624E+05 -8.404407E+04 -7.939066E+03 -2.100932E+05  4.768491E-10  1.682266E-11
       289  14 -5.441494E+05 -7.689068E+04 -4.032733E+03 -2.051372E+05  8.355875E-10  2.865301E-10
       289  15 -5.396900E+05 -8.212124E+04 -2.345634E+03 -2.108146E+05  9.456355E-10  6.340554E-10
       289  16 -3.827696E+05 -2.446800E+04  3.425378E+04 -1.668508E+05 -1.865212E-10 -1.706327E-11
       289  17 -4.004790E+05 -2.272380E+04  3.450778E+04 -1.659156E+05 -5.590707E-10 -2.652519E-10
       289  18 -4.095368E+05 -3.335794E+04  3.256255E+04 -1.756135E+05 -7.333338E-10  1.322143E-10
       289  19 -6.971314E+05 -1.436186E+05 -5.013399E+04 -2.533257E+05  7.125219E+03 -2.273467E+03
       289  20 -6.878000E+05 -1.310564E+05 -4.257506E+04 -2.443506E+05  4.850666E+03 -2.560089E+03
       289  21 -6.698271E+05 -1.308837E+05 -3.725536E+04 -2.460091E+05  2.551587E+03 -2.780785E+03
       289  22 -5.399624E+05 -8.404405E+04 -7.938956E+03 -2.100932E+05  7.303498E+03 -2.206427E+03
       289  23 -5.441493E+05 -7.689067E+04 -4.032674E+03 -2.051372E+05  5.053576E+03 -2.483848E+03
       289  24 -5.396899E+05 -8.212123E+04 -2.345606E+03 -2.108146E+05  2.779183E+03 -2.695330E+03
       289  25 -3.827696E+05 -2.446798E+04  3.425389E+04 -1.668509E+05  7.481827E+03 -2.139367E+03
       289  26 -4.004790E+05 -2.272378E+04  3.450784E+04 -1.659157E+05  5.256538E+03 -2.407588E+03
       289  27 -4.095368E+05 -3.335793E+04  3.256258E+04 -1.756136E+05  3.006831E+03 -2.609856E+03
       290   1 -6.426181E+05 -1.213127E+05 -2.945991E+04 -2.388477E+05 -2.093924E+03  2.566715E+03
       290   2 -6.334009E+05 -1.105875E+05 -2.496381E+04 -2.292049E+05 -1.314589E+03  2.214487E+03
       290   3 -6.142216E+05 -1.103635E+05 -2.098029E+04 -2.311133E+05 -5.306202E+02  1.849519E+03
       290   4 -5.395043E+05 -8.247307E+04 -1.852296E+03 -2.107286E+05 -2.307309E+03  2.486623E+03
       290   5 -5.444705E+05 -7.711754E+04 -1.115472E+03 -2.049924E+05 -1.532742E+03  2.132635E+03
       290   6 -5.394741E+05 -8.226223E+04 -8.874464E+02 -2.108075E+05 -7.535571E+02  1.765904E+03
       290   7 -4.363801E+05 -4.363274E+04  2.575445E+04 -1.826053E+05 -2.520733E+03  2.406515E+03
       290   8 -4.555323E+05 -4.364708E+04  2.273220E+04 -1.807768E+05 -1.750930E+03  2.050771E+03
       290   9 -4.647213E+05 -5.416061E+04  1.920491E+04 -1.904995E+05 -9.765235E+02  1.682278E+03
       290  10 -6.426181E+05 -1.213127E+05 -2.945993E+04 -2.388477E+05 -7.931410E-10 -2.861074E-10
       290  11 -6.334009E+05 -1.105875E+05 -2.496382E+04 -2.292049E+05 -8.292292E-10 -2.724755E-10
       290  12 -6.142216E+05 -1.103635E+05 -2.098030E+04 -2.311133E+05 -4.125966E-11 -3.919708E-11
       290  13 -5.395043E+05 -8.247307E+04 -1.852317E+03 -2.107286E+05  9.259140E-10  4.214381E-10
       290  14 -5.444705E+05 -7.711754E+04 -1.115485E+03 -2.049924E+05  1.202788E-10  4.485206E-11
       290  15 -5.394741E+05 -8.226224E+04 -8.874533E+02 -2.108075E+05  1.922583E-10 -2.372855E-11
       290  16 -4.363801E+05 -4.363275E+04  2.575443E+04 -1.826053E+05  2.401672E-09  1.015589E-09
       290  17 -4.555323E+05 -4.364709E+04  2.273219E+04 -1.807768E+05  5.712611E-10  2.233712E-10
       290  18 -4.647213E+05 -5.416062E+04  1.920490E+04 -1.904995E+05 -3.292596E-10 -2.826391E-10
       290  19 -6.426181E+05 -1.213127E+05 -2.945991E+04 -2.388477E+05  2.093924E+03 -2.566715E+03
       290  20 -6.334009E+05 -1.105875E+05 -2.496381E+04 -2.292049E+05  1.314589E+03 -2.214487E+03
       290  21 -6.142216E+05 -1.103635E+05 -2.098029E+04 -2.311133E+05  5.306202E+02 -1.849519E+03
       290  22 -5.395043E+05 -8.247307E+04 -1.852296E+03 -2.107286E+05  2.307309E+03 -2.486623E+03
       290  23 -5.444705E+05 -7.711754E+04 -1.115472E+03 -2.049924E+05  1.532742E+03 -2.132635E+03
       290  24 -5.394741E+05 -8.226223E+04 -8.874464E+02 -2.108075E+05  7.535571E+02 -1.765904E+03
       290  25 -4.363801E+05 -4.363274E+04  2.575445E+04 -1.826053E+05  2.520733E+03 -2.406515E+03
       290  26 -4.555323E+05 -4.364708E+04  2.273220E+04 -1.807768E+05  1.750930E+03 -2.050771E+03
       290  27 -4.647213E+05 -5.416061E+04  1.920491E+04 -1.904995E+05  9.765235E+02 -1.682278E+03
       291   1 -5.866426E+05 -1.000856E+05 -1.349417E+04 -2.237341E+05 -2.575311E+02  1.564312E+03
       291   2 -5.772831E+05 -8.939364E+04 -9.885024E+03 -2.138504E+05  5.150968E+02  1.190152E+03
       291   3 -5.578030E+05 -8.936857E+04 -6.780720E+03 -2.157255E+05  1.287761E+03  8.157496E+02
       291   4 -5.394385E+05 -8.230357E+04 -8.859974E+02 -2.108515E+05 -4.796513E+02  1.481020E+03
       291   5 -5.445124E+05 -7.706756E+04 -1.098590E+03 -2.049355E+05  2.929140E+02  1.106848E+03
       291   6 -5.394659E+05 -8.249841E+04 -1.815952E+03 -2.107785E+05  1.065503E+03  7.324288E+02
       291   7 -4.922325E+05 -6.452146E+04  1.172195E+04 -1.979680E+05 -7.017897E+02  1.397721E+03
       291   8 -5.117407E+05 -6.474141E+04  7.687750E+03 -1.960202E+05  7.071832E+01  1.023539E+03
       291   9 -5.211285E+05 -7.562821E+04  3.148796E+03 -2.058313E+05  8.432367E+02  6.491050E+02
       291  10 -5.866426E+05 -1.000856E+05 -1.349417E+04 -2.237341E+05  1.065934E-10 -1.030670E-10
       291  11 -5.772831E+05 -8.939364E+04 -9.885027E+03 -2.138504E+05 -1.769510E-10 -1.503598E-11
       291  12 -5.578030E+05 -8.936857E+04 -6.780724E+03 -2.157255E+05  6.194044E-11 -1.398946E-10
       291  13 -5.394385E+05 -8.230357E+04 -8.860019E+02 -2.108515E+05  3.591874E-11  7.715753E-11
       291  14 -5.445124E+05 -7.706756E+04 -1.098592E+03 -2.049355E+05  1.193493E-10 -4.773266E-11
       291  15 -5.394659E+05 -8.249841E+04 -1.815955E+03 -2.107785E+05 -3.025363E-10 -8.421006E-11
       291  16 -4.922325E+05 -6.452146E+04  1.172194E+04 -1.979680E+05 -1.171118E-12 -1.414577E-10
       291  17 -5.117407E+05 -6.474141E+04  7.687748E+03 -1.960202E+05 -4.623951E-10  1.624834E-10
       291  18 -5.211285E+05 -7.562821E+04  3.148794E+03 -2.058313E+05 -1.533676E-10 -1.210857E-10
       291  19 -5.866426E+05 -1.000856E+05 -1.349417E+04 -2.237341E+05  2.575311E+02 -1.564312E+03
       291  20 -5.772831E+05 -8.939364E+04 -9.885024E+03 -2.138504E+05 -5.150968E+02 -1.190152E+03
       291  21 -5.578030E+05 -8.936857E+04 -6.780720E+03 -2.157255E+05 -1.287761E+03 -8.157496E+02
       291  22 -5.394385E+05 -8.230357E+04 -8.859974E+02 -2.108515E+05  4.796513E+02 -1.481020E+03
       291  23 -5.445124E+05 -7.706756E+04 -1.098590E+03 -2.049355E+05 -2.929140E+02 -1.106848E+03
       291  24 -5.394659E+05 -8.249841E+04 -1.815952E+03 -2.107785E+05 -1.065503E+03 -7.324288E+02
       291  25 -4.922325E+05 -6.452146E+04  1.172195E+04 -1.979680E+05  7.017897E+02 -1.397721E+03
       291  26 -5.117407E+05 -6.474141E+04  7.687750E+03 -1.960202E+05 -7.071832E+01 -1.023539E+03
       291  27 -5.211285E+05 -7.562821E+04  3.148796E+03 -2.058313E+05 -8.432367E+02 -6.491050E+02
       292   1 -5.299779E+05 -7.883890E+04  2.861927E+02 -2.085740E+05  1.764337E+03  5.992901E+02
       292   2 -5.204206E+05 -6.769783E+04  2.469014E+03 -1.983979E+05  3.988922E+03  7.645834E+02
       292   3 -5.017316E+05 -6.939752E+04  2.479853E+03 -1.994839E+05  6.200890E+03  9.637192E+02
       292   4 -5.395808E+05 -8.223339E+04 -2.299866E+03 -2.109487E+05  1.534034E+03  5.129557E+02
       292   5 -5.442774E+05 -7.674743E+04 -3.941309E+03 -2.049670E+05  3.771455E+03  6.830507E+02
       292   6 -5.398450E+05 -8.410486E+04 -7.764961E+03 -2.102475E+05  5.996206E+03  8.869678E+02
       292   7 -5.491835E+05 -8.562788E+04 -4.885933E+03 -2.133233E+05  1.303736E+03  4.266225E+02
       292   8 -5.681336E+05 -8.579698E+04 -1.035167E+04 -2.115359E+05  3.553998E+03  6.015216E+02
       292   9 -5.779569E+05 -9.881205E+04 -1.800988E+04 -2.210105E+05  5.791535E+03  8.102221E+02
       292  10 -5.299779E+05 -7.883890E+04  2.861862E+02 -2.085740E+05  8.327738E-11 -5.583751E-11
       292  11 -5.204207E+05 -6.769784E+04  2.468983E+03 -1.983979E+05 -8.649693E-11  4.168165E-11
       292  12 -5.017317E+05 -6.939753E+04  2.479779E+03 -1.994839E+05  3.552694E-11  1.190108E-10
       292  13 -5.395808E+05 -8.223339E+04 -2.299871E+03 -2.109487E+05 -3.171638E-11 -1.428173E-10
       292  14 -5.442774E+05 -7.674744E+04 -3.941336E+03 -2.049670E+05 -1.859789E-10 -6.356378E-11
       292  15 -5.398450E+05 -8.410487E+04 -7.765030E+03 -2.102475E+05  1.561392E-10  5.191710E-11
       292  16 -5.491835E+05 -8.562788E+04 -4.885937E+03 -2.133233E+05  5.200516E-12 -8.025554E-11
       292  17 -5.681336E+05 -8.579699E+04 -1.035170E+04 -2.115359E+05 -3.599044E-10 -2.608826E-10
       292  18 -5.779569E+05 -9.881206E+04 -1.800994E+04 -2.210105E+05 -6.524666E-12 -7.598144E-11
       292  19 -5.299779E+05 -7.883890E+04  2.861927E+02 -2.085740E+05 -1.764337E+03 -5.992901E+02
       292  20 -5.204206E+05 -6.769783E+04  2.469014E+03 -1.983979E+05 -3.988922E+03 -7.645834E+02
       292  21 -5.017316E+05 -6.939752E+04  2.479853E+03 -1.994839E+05 -6.200890E+03 -9.637192E+02
       292  22 -5.395808E+05 -8.223339E+04 -2.299866E+03 -2.109487E+05 -1.534034E+03 -5.129557E+02
       292  23 -5.442774E+05 -7.674743E+04 -3.941309E+03 -2.049670E+05 -3.771455E+03 -6.830507E+02
       292  24 -5.398450E+05 -8.410486E+04 -7.764961E+03 -2.102475E+05 -5.996206E+03 -8.869678E+02
       292  25 -5.491835E+05 -8.562788E+04 -4.885933E+03 -2.133233E+05 -1.303736E+03 -4.266225E+02
       292  26 -5.681336E+05 -8.579698E+04 -1.035167E+04 -2.115359E+05 -3.553998E+03 -6.015216E+02
       292  27 -5.779569E+05 -9.881205E+04 -1.800988E+04 -2.210105E+05 -5.791535E+03 -8.102221E+02
       293   1 -4.734339E+05 -5.822878E+04  7.875531E+03 -1.950708E+05  7.864983E+03  1.146564E+03
       293   2 -4.629054E+05 -4.341139E+04  4.649920E+03 -1.827915E+05  1.680455E+04  3.828699E+03
       293   3 -4.508968E+05 -5.899178E+04 -1.057818E+04 -1.771404E+05  2.562202E+04  6.837753E+03
       293   4 -5.406734E+05 -8.177722E+04 -9.861197E+03 -2.115560E+05  7.577748E+03  1.038877E+03
       293   5 -5.424831E+05 -7.423748E+04 -1.685162E+04 -2.053652E+05  1.664093E+04  3.767282E+03
       293   6 -5.428388E+05 -9.712214E+04 -3.594391E+04 -2.058028E+05  2.558180E+04  6.822461E+03
       293   7 -6.079087E+05 -1.053256E+05 -2.759835E+04 -2.280396E+05  7.290546E+03  9.312002E+02
       293   8 -6.220548E+05 -1.050631E+05 -3.835374E+04 -2.279363E+05  1.647733E+04  3.705875E+03
       293   9 -6.347726E+05 -1.352515E+05 -6.131042E+04 -2.344612E+05  2.554159E+04  6.807172E+03
       293  10 -4.734340E+05 -5.822880E+04  7.875412E+03 -1.950708E+05 -9.452587E-11  5.817564E-11
       293  11 -4.629057E+05 -4.341148E+04  4.649361E+03 -1.827916E+05  1.256728E-10 -6.955605E-11
       293  12 -4.508975E+05 -5.899201E+04 -1.057951E+04 -1.771406E+05 -2.218081E-10 -8.418743E-11
       293  13 -5.406735E+05 -8.177724E+04 -9.861307E+03 -2.115560E+05 -1.414060E-11 -8.137140E-12
       293  14 -5.424834E+05 -7.423757E+04 -1.685216E+04 -2.053652E+05  1.427415E-10 -7.026306E-11
       293  15 -5.428395E+05 -9.712237E+04 -3.594523E+04 -2.058030E+05  1.412957E-10 -9.986605E-11
       293  16 -6.079088E+05 -1.053256E+05 -2.759845E+04 -2.280396E+05  2.391714E-10 -7.716560E-11
       293  17 -6.220551E+05 -1.050632E+05 -3.835428E+04 -2.279363E+05 -6.706962E-11  9.275624E-11
       293  18 -6.347733E+05 -1.352517E+05 -6.131173E+04 -2.344613E+05  1.526456E-10  5.950438E-11
       293  19 -4.734339E+05 -5.822878E+04  7.875531E+03 -1.950708E+05 -7.864983E+03 -1.146564E+03
       293  20 -4.629054E+05 -4.341139E+04  4.649920E+03 -1.827915E+05 -1.680455E+04 -3.828699E+03
       293  21 -4.508968E+05 -5.899178E+04 -1.057818E+04 -1.771404E+05 -2.562202E+04 -6.837753E+03
       293  22 -5.406734E+05 -8.177722E+04 -9.861197E+03 -2.115560E+05 -7.577748E+03 -1.038877E+03
       293  23 -5.424831E+05 -7.423748E+04 -1.685162E+04 -2.053652E+05 -1.664093E+04 -3.767282E+03
       293  24 -5.428388E+05 -9.712214E+04 -3.594391E+04 -2.058028E+05 -2.558180E+04 -6.822461E+03
       293  25 -6.079087E+05 -1.053256E+05 -2.759835E+04 -2.280396E+05 -7.290546E+03 -9.312002E+02
       293  26 -6.220548E+05 -1.050631E+05 -3.835374E+04 -2.279363E+05 -1.647733E+04 -3.705875E+03
       293  27 -6.347726E+05 -1.352515E+05 -6.131042E+04 -2.344612E+05 -2.554159E+04 -6.807172E+03
       294   1 -4.170852E+05 -4.243289E+04 -1.137634E+04 -1.948428E+05  3.315136E+04  8.743172E+03
       294   2 -3.999769E+05  2.994771E+03 -3.519216E+04 -1.647725E+05  7.139498E+04  2.235886E+04
       294   3 -4.391067E+05 -1.240318E+05 -1.318455E+05 -1.037583E+05  1.084349E+05  3.918603E+04
       294   4 -5.485795E+05 -7.813016E+04 -4.395007E+04 -2.164454E+05  3.228768E+04  8.419981E+03
       294   5 -5.291167E+05 -5.397682E+04 -7.137346E+04 -2.085739E+05  7.174867E+04  2.249035E+04
       294   6 -5.661488E+05 -2.025426E+05 -1.726119E+05 -1.697552E+05  1.100059E+05  3.976910E+04
       294   7 -6.800569E+05 -1.138279E+05 -7.652495E+04 -2.380449E+05  3.142421E+04  8.096817E+03
       294   8 -6.582399E+05 -1.109454E+05 -1.075562E+05 -2.523663E+05  7.210227E+04  2.262179E+04
       294   9 -6.931720E+05 -2.810417E+05 -2.133794E+05 -2.357369E+05  1.115764E+05  4.035184E+04
       294  10 -4.170864E+05 -4.243327E+04 -1.137855E+04 -1.948430E+05  1.139760E-10 -2.876088E-11
       294  11 -3.999825E+05  2.992864E+03 -3.520269E+04 -1.647738E+05 -9.530554E-11  1.600035E-10
       294  12 -4.391197E+05 -1.240366E+05 -1.318705E+05 -1.037617E+05  1.763755E-11 -9.213756E-11
       294  13 -5.485807E+05 -7.813052E+04 -4.395216E+04 -2.164457E+05  3.549372E-10  1.011314E-10
       294  14 -5.291224E+05 -5.397875E+04 -7.138410E+04 -2.085752E+05  3.755365E-10  1.438314E-10
       294  15 -5.661622E+05 -2.025475E+05 -1.726376E+05 -1.697588E+05 -1.387283E-10  1.340404E-10
       294  16 -6.800580E+05 -1.138282E+05 -7.652693E+04 -2.380451E+05 -2.407673E-10  5.362792E-11
       294  17 -6.582456E+05 -1.109473E+05 -1.075670E+05 -2.523676E+05  5.691616E-10  7.644605E-11
       294  18 -6.931858E+05 -2.810468E+05 -2.134059E+05 -2.357405E+05 -3.040852E-10 -4.666161E-11
       294  19 -4.170852E+05 -4.243289E+04 -1.137634E+04 -1.948428E+05 -3.315136E+04 -8.743172E+03
       294  20 -3.999769E+05  2.994771E+03 -3.519216E+04 -1.647725E+05 -7.139498E+04 -2.235886E+04
       294  21 -4.391067E+05 -1.240318E+05 -1.318455E+05 -1.037583E+05 -1.084349E+05 -3.918603E+04
       294  22 -5.485795E+05 -7.813016E+04 -4.395007E+04 -2.164454E+05 -3.228768E+04 -8.419981E+03
       294  23 -5.291167E+05 -5.397682E+04 -7.137346E+04 -2.085739E+05 -7.174867E+04 -2.249035E+04
       294  24 -5.661488E+05 -2.025426E+05 -1.726119E+05 -1.697552E+05 -1.100059E+05 -3.976910E+04
       294  25 -6.800569E+05 -1.138279E+05 -7.652495E+04 -2.380449E+05 -3.142421E+04 -8.096817E+03
       294  26 -6.582399E+05 -1.109454E+05 -1.075562E+05 -2.523663E+05 -7.210227E+04 -2.262179E+04
       294  27 -6.931720E+05 -2.810417E+05 -2.133794E+05 -2.357369E+05 -1.115764E+05 -4.035184E+04
       295   1 -4.294117E+05 -8.398451E+04 -4.829215E+04 -4.385508E+03  9.828276E+04  7.201360E+03
       295   2 -3.832451E+05 -2.103925E+05 -1.163686E+05  3.881857E+03  6.812025E+04  2.092210E+04
       295   3 -2.923704E+05 -1.778722E+05 -1.248475E+05 -5.056401E+04  3.796234E+04  1.810830E+04
       295   4  3.997986E+05  1.228799E+05  1.571072E+05 -3.640276E+04  1.073559E+05  7.202243E+03
       295   5  3.769024E+05 -2.146149E+04  6.811623E+04 -5.011034E+03  7.040683E+04  2.091989E+04
       295   6  3.998315E+05 -5.802711E+03  4.337808E+04 -3.632648E+04  3.346627E+04  1.810965E+04
       295   7  1.229636E+06  3.296968E+05  3.624562E+05 -6.846293E+04  1.164410E+05  7.202193E+03
       295   8  1.137578E+06  1.674274E+05  2.525595E+05 -1.391487E+04  7.269615E+04  2.091761E+04
       295   9  1.092471E+06  1.662323E+05  2.115692E+05 -2.207297E+04  2.896517E+04  1.811080E+04
       295  10 -4.294221E+05 -8.398716E+04 -4.831041E+04 -4.386078E+03 -3.438490E-10  2.344013E-10
       295  11 -3.832502E+05 -2.103943E+05 -1.163782E+05  3.880709E+03 -1.824420E-10  2.573589E-10
       295  12 -2.923720E+05 -1.778729E+05 -1.248508E+05 -5.056457E+04  4.126968E-11 -1.765916E-10
       295  13  3.997862E+05  1.228767E+05  1.570855E+05 -3.640338E+04  2.234207E-10 -1.113705E-10
       295  14  3.768970E+05 -2.146329E+04  6.810610E+04 -5.012220E+03 -6.534965E-11 -1.236090E-12
       295  15  3.998302E+05 -5.803363E+03  4.337536E+04 -3.632697E+04 -1.122966E-10 -1.306265E-10
       295  16  1.229621E+06  3.296931E+05  3.624307E+05 -6.846361E+04  1.188287E-11  3.028757E-10
       295  17  1.137572E+06  1.674255E+05  2.525487E+05 -1.391610E+04 -1.278031E-10 -8.676451E-11
       295  18  1.092470E+06  1.662317E+05  2.115670E+05 -2.207339E+04 -4.988551E-11 -1.799399E-10
       295  19 -4.294117E+05 -8.398451E+04 -4.829215E+04 -4.385508E+03 -9.828276E+04 -7.201360E+03
       295  20 -3.832451E+05 -2.103925E+05 -1.163686E+05  3.881857E+03 -6.812025E+04 -2.092210E+04
       295  21 -2.923704E+05 -1.778722E+05 -1.248475E+05 -5.056401E+04 -3.796234E+04 -1.810830E+04
       295  22  3.997986E+05  1.228799E+05  1.571072E+05 -3.640276E+04 -1.073559E+05 -7.202243E+03
       295  23  3.769024E+05 -2.146149E+04  6.811623E+04 -5.011034E+03 -7.040683E+04 -2.091989E+04
       295  24  3.998315E+05 -5.802711E+03  4.337808E+04 -3.632648E+04 -3.346627E+04 -1.810965E+04
       295  25  1.229636E+06  3.296968E+05  3.624562E+05 -6.846293E+04 -1.164410E+05 -7.202193E+03
       295  26  1.137578E+06  1.674274E+05  2.525595E+05 -1.391487E+04 -7.269615E+04 -2.091761E+04
       295  27  1.092471E+06  1.662323E+05  2.115692E+05 -2.207297E+04 -2.896517E+04 -1.811080E+04
       296   1 -1.831323E+05 -1.281313E+05 -1.042233E+05 -3.224273E+04  2.665123E+04  1.418702E+04
       296   2 -1.193492E+05 -1.287407E+05 -1.055758E+05 -4.030133E+03  1.813198E+04  1.320219E+04
       296   3 -4.935057E+04 -1.101047E+05 -9.650802E+04 -3.743120E+04  9.607659E+03  1.068625E+04
       296   4  3.910899E+05  1.466236E+04  3.554559E+04 -3.609254E+04  2.657565E+04  1.418607E+04
       296   5  3.879383E+05 -2.634065E+03  1.771807E+04 -5.293196E+03  1.742418E+04  1.320218E+04
       296   6  3.911011E+05 -5.841818E+02  1.074264E+04 -3.610407E+04  8.268538E+03  1.068769E+04
       296   7  9.656129E+05  1.574318E+05  1.752906E+05 -3.994586E+04  2.649999E+04  1.418512E+04
       296   8  8.954606E+05  1.234537E+05  1.409934E+05 -6.557234E+03  1.671579E+04  1.320218E+04
       296   9  8.317298E+05  1.089221E+05  1.179792E+05 -3.477593E+04  6.928468E+03  1.068912E+04
       296  10 -1.831331E+05 -1.281317E+05 -1.042251E+05 -3.224303E+04 -4.944101E-10 -2.715321E-10
       296  11 -1.193496E+05 -1.287410E+05 -1.055768E+05 -4.030326E+03  7.448452E-10 -2.607672E-10
       296  12 -4.935070E+04 -1.101048E+05 -9.650841E+04 -3.743128E+04  3.518387E-10  5.925246E-10
       296  13  3.910891E+05  1.466196E+04  3.554388E+04 -3.609284E+04  1.872035E-10 -3.276749E-11
       296  14  3.879380E+05 -2.634333E+03  1.771717E+04 -5.293382E+03  4.000157E-10 -1.062534E-09
       296  15  3.911010E+05 -5.843229E+02  1.074229E+04 -3.610414E+04  3.182676E-10  3.801939E-10
       296  16  9.656121E+05  1.574314E+05  1.752889E+05 -3.994617E+04  4.663578E-10 -3.083811E-10
       296  17  8.954603E+05  1.234534E+05  1.409925E+05 -6.557411E+03 -2.445859E-10 -2.627817E-11
       296  18  8.317297E+05  1.089219E+05  1.179789E+05 -3.477599E+04 -5.254512E-10  9.298850E-11
       296  19 -1.831323E+05 -1.281313E+05 -1.042233E+05 -3.224273E+04 -2.665123E+04 -1.418702E+04
       296  20 -1.193492E+05 -1.287407E+05 -1.055758E+05 -4.030133E+03 -1.813198E+04 -1.320219E+04
       296  21 -4.935057E+04 -1.101047E+05 -9.650802E+04 -3.743120E+04 -9.607659E+03 -1.068625E+04
       296  22  3.910899E+05  1.466236E+04  3.554559E+04 -3.609254E+04 -2.657565E+04 -1.418607E+04
       296  23  3.879383E+05 -2.634065E+03  1.771807E+04 -5.293196E+03 -1.742418E+04 -1.320218E+04
       296  24  3.911011E+05 -5.841818E+02  1.074264E+04 -3.610407E+04 -8.268538E+03 -1.068769E+04
       296  25  9.656129E+05  1.574318E+05  1.752906E+05 -3.994586E+04 -2.649999E+04 -1.418512E+04
       296  26  8.954606E+05  1.234537E+05  1.409934E+05 -6.557234E+03 -1.671579E+04 -1.320218E+04
       296  27  8.317298E+05  1.089221E+05  1.179792E+05 -3.477593E+04 -6.928468E+03 -1.068912E+04
       297   1  6.544973E+04 -7.881463E+04 -7.022611E+04 -3.520303E+04  7.478878E+03  9.010746E+03
       297   2  1.310918E+05 -6.454233E+04 -5.819949E+04 -5.116378E+03  5.205577E+03  6.675128E+03
       297   3  1.975052E+05 -4.779256E+04 -4.410525E+04 -3.586982E+04  2.930239E+03  4.205094E+03
       297   4  3.898964E+05  1.800535E+03  8.469811E+03 -3.592641E+04  6.553962E+03  9.011902E+03
       297   5  3.895104E+05 -3.096395E+02  4.611865E+03 -5.508590E+03  4.224655E+03  6.676666E+03
       297   6  3.899009E+05  6.703264E+01  2.859803E+03 -3.592926E+04  1.893550E+03  4.207051E+03
       297   7  7.144392E+05  8.240797E+04  8.715815E+04 -3.665013E+04  5.628562E+03  9.013059E+03
       297   8  6.479899E+05  6.391814E+04  6.741839E+04 -5.900938E+03  3.243325E+03  6.678205E+03
       297   9  5.823303E+05  4.792390E+04  4.982216E+04 -3.598870E+04  8.565397E+02  4.209008E+03
       297  10  6.544964E+04 -7.881473E+04 -7.022637E+04 -3.520309E+04  6.505313E-10  2.961939E-11
       297  11  1.310918E+05 -6.454238E+04 -5.819963E+04 -5.116406E+03  2.795931E-11  3.326862E-10
       297  12  1.975052E+05 -4.779259E+04 -4.410529E+04 -3.586983E+04 -2.051422E-10 -9.671741E-10
       297  13  3.898963E+05  1.800436E+03  8.469577E+03 -3.592646E+04 -4.195454E-12  8.542441E-12
       297  14  3.895104E+05 -3.096922E+02  4.611747E+03 -5.508612E+03  3.536263E-10  7.622701E-10
       297  15  3.899009E+05  6.701266E+01  2.859763E+03 -3.592926E+04 -1.991520E-10  1.676758E-09
       297  16  7.144391E+05  8.240788E+04  8.715793E+04 -3.665017E+04 -1.636242E-10 -2.630741E-10
       297  17  6.479899E+05  6.391809E+04  6.741829E+04 -5.900956E+03  4.698651E-11 -1.414582E-09
       297  18  5.823303E+05  4.792388E+04  4.982212E+04 -3.598870E+04 -2.140662E-10  3.999855E-11
       297  19  6.544973E+04 -7.881463E+04 -7.022611E+04 -3.520303E+04 -7.478878E+03 -9.010746E+03
       297  20  1.310918E+05 -6.454233E+04 -5.819949E+04 -5.116378E+03 -5.205577E+03 -6.675128E+03
       297  21  1.975052E+05 -4.779256E+04 -4.410525E+04 -3.586982E+04 -2.930239E+03 -4.205094E+03
       297  22  3.898964E+05  1.800535E+03  8.469811E+03 -3.592641E+04 -6.553962E+03 -9.011902E+03
       297  23  3.895104E+05 -3.096395E+02  4.611865E+03 -5.508590E+03 -4.224655E+03 -6.676666E+03
       297  24  3.899009E+05  6.703264E+01  2.859803E+03 -3.592926E+04 -1.893550E+03 -4.207051E+03
       297  25  7.144392E+05  8.240797E+04  8.715815E+04 -3.665013E+04 -5.628562E+03 -9.013059E+03
       297  26  6.479899E+05  6.391814E+04  6.741839E+04 -5.900938E+03 -3.243325E+03 -6.678205E+03
       297  27  5.823303E+05  4.792390E+04  4.982216E+04 -3.598870E+04 -8.565397E+02 -4.209008E+03
       298   1  3.123272E+05 -1.886858E+04 -1.629417E+04 -3.572542E+04  2.422711E+03  2.749405E+03
       298   2  3.780910E+05 -2.920756E+03 -1.216704E+03 -5.568071E+03  1.617681E+03  2.988374E+02
       298   3  4.437951E+05  1.355754E+04  1.445314E+04 -3.597118E+04  8.124853E+02 -2.163356E+03
       298   4  3.897238E+05  3.271936E+02  2.315954E+03 -3.586627E+04  1.424253E+03  2.751405E+03
       298   5  3.897549E+05 -2.202946E+01  1.617786E+03 -5.586251E+03  6.143628E+02  3.008543E+02
       298   6  3.897240E+05  1.605862E+02  1.515811E+03 -3.586661E+04 -1.956098E+02 -2.161308E+03
       298   7  4.671259E+05  1.952253E+04  2.092566E+04 -3.600714E+04  4.256719E+02  2.753406E+03
       298   8  4.014189E+05  2.876688E+03  4.452269E+03 -5.604431E+03 -3.889743E+02  3.028713E+02
       298   9  3.356557E+05 -1.323657E+04 -1.142172E+04 -3.576205E+04 -1.203618E+03 -2.159261E+03
       298  10  3.123272E+05 -1.886859E+04 -1.629420E+04 -3.572543E+04  1.146029E-09 -1.511916E-10
       298  11  3.780910E+05 -2.920757E+03 -1.216709E+03 -5.568072E+03  8.854665E-10  2.426415E-10
       298  12  4.437951E+05  1.355753E+04  1.445313E+04 -3.597118E+04  7.890209E-10 -6.232913E-10
       298  13  3.897238E+05  3.271849E+02  2.315936E+03 -3.586628E+04 -2.004766E-10 -1.409956E-09
       298  14  3.897549E+05 -2.202966E+01  1.617785E+03 -5.586251E+03  8.654378E-10  2.736264E-10
       298  15  3.897240E+05  1.605811E+02  1.515802E+03 -3.586661E+04 -5.095502E-11 -1.085153E-09
       298  16  4.671259E+05  1.952252E+04  2.092564E+04 -3.600714E+04  7.558520E-11  8.224895E-10
       298  17  4.014189E+05  2.876688E+03  4.452269E+03 -5.604431E+03 -3.630600E-10 -8.001125E-10
       298  18  3.356557E+05 -1.323658E+04 -1.142173E+04 -3.576205E+04 -3.049445E-10 -1.803517E-09
       298  19  3.123272E+05 -1.886858E+04 -1.629417E+04 -3.572542E+04 -2.422711E+03 -2.749405E+03
       298  20  3.780910E+05 -2.920756E+03 -1.216704E+03 -5.568071E+03 -1.617681E+03 -2.988374E+02
       298  21  4.437951E+05  1.355754E+04  1.445314E+04 -3.597118E+04 -8.124853E+02  2.163356E+03
       298  22  3.897238E+05  3.271936E+02  2.315954E+03 -3.586627E+04 -1.424253E+03 -2.751405E+03
       298  23  3.897549E+05 -2.202946E+01  1.617786E+03 -5.586251E+03 -6.143628E+02 -3.008543E+02
       298  24  3.897240E+05  1.605862E+02  1.515811E+03 -3.586661E+04  1.956098E+02  2.161308E+03
       298  25  4.671259E+05  1.952253E+04  2.092566E+04 -3.600714E+04 -4.256719E+02 -2.753406E+03
       298  26  4.014189E+05  2.876688E+03  4.452269E+03 -5.604431E+03  3.889743E+02 -3.028713E+02
       298  27  3.356557E+05 -1.323657E+04 -1.142172E+04 -3.576205E+04  1.203618E+03  2.159261E+03
       299   1  5.588109E+05  4.219928E+04  4.291821E+04 -3.612486E+04  5.251244E+02 -3.601406E+03
       299   2  6.247390E+05  5.834591E+04  5.933984E+04 -5.827452E+03 -5.914067E+02 -6.068114E+03
       299   3  6.908139E+05  7.517848E+04  7.662108E+04 -3.631900E+04 -1.706609E+03 -8.529060E+03
       299   4  3.897616E+05  1.503948E+02  1.634750E+03 -3.591776E+04 -4.839701E+02 -3.599455E+03
       299   5  3.896890E+05 -6.107474E+01  2.223139E+03 -5.522338E+03 -1.597839E+03 -6.066454E+03
       299   6  3.897580E+05  4.131210E+02  3.669564E+03 -3.591729E+04 -2.710263E+03 -8.527675E+03
       299   7  2.207383E+05 -4.190060E+04 -3.965079E+04 -3.571070E+04 -1.492791E+03 -3.597505E+03
       299   8  1.546894E+05 -5.847212E+04 -5.489755E+04 -5.217317E+03 -2.603892E+03 -6.064795E+03
       299   9  8.878476E+04 -7.435888E+04 -6.928848E+04 -3.551574E+04 -3.713431E+03 -8.526292E+03
       299  10  5.588109E+05  4.219926E+04  4.291818E+04 -3.612486E+04  1.128608E-10  8.888007E-10
       299  11  6.247390E+05  5.834587E+04  5.933977E+04 -5.827455E+03 -3.969844E-10  2.406261E-09
       299  12  6.908138E+05  7.517841E+04  7.662094E+04 -3.631901E+04  1.397623E-09 -1.600803E-09
       299  13  3.897616E+05  1.503809E+02  1.634725E+03 -3.591776E+04  2.775953E-10  8.043425E-11
       299  14  3.896890E+05 -6.111495E+01  2.223065E+03 -5.522346E+03  7.105895E-10 -9.499238E-10
       299  15  3.897579E+05  4.130409E+02  3.669413E+03 -3.591731E+04 -2.494388E-10  4.243587E-11
       299  16  2.207383E+05 -4.190061E+04 -3.965082E+04 -3.571070E+04  1.130399E-09  4.121042E-11
       299  17  1.546894E+05 -5.847216E+04 -5.489764E+04 -5.217330E+03 -4.443152E-10 -7.104601E-10
       299  18  8.878473E+04 -7.435897E+04 -6.928864E+04 -3.551577E+04 -1.947727E-09 -5.102825E-10
       299  19  5.588109E+05  4.219928E+04  4.291821E+04 -3.612486E+04 -5.251244E+02  3.601406E+03
       299  20  6.247390E+05  5.834591E+04  5.933984E+04 -5.827452E+03  5.914067E+02  6.068114E+03
       299  21  6.908139E+05  7.517848E+04  7.662108E+04 -3.631900E+04  1.706609E+03  8.529060E+03
       299  22  3.897616E+05  1.503948E+02  1.634750E+03 -3.591776E+04  4.839701E+02  3.599455E+03
       299  23  3.896890E+05 -6.107474E+01  2.223139E+03 -5.522338E+03  1.597839E+03  6.066454E+03
       299  24  3.897580E+05  4.131210E+02  3.669564E+03 -3.591729E+04  2.710263E+03  8.527675E+03
       299  25  2.207383E+05 -4.190060E+04 -3.965079E+04 -3.571070E+04  1.492791E+03  3.597505E+03
       299  26  1.546894E+05 -5.847212E+04 -5.489755E+04 -5.217317E+03  2.603892E+03  6.064795E+03
       299  27  8.878476E+04 -7.435888E+04 -6.928848E+04 -3.551574E+04  3.713431E+03  8.526292E+03
       300   1  8.070848E+05  1.036170E+05  1.062103E+05 -3.616329E+04 -2.414466E+03 -1.000133E+04
       300   2  8.730222E+05  1.196216E+05  1.253366E+05 -5.803250E+03 -6.421792E+03 -1.249509E+04
       300   3  9.407410E+05  1.397213E+05  1.481387E+05 -3.698046E+04 -1.042642E+04 -1.482658E+04
       300   4  3.900944E+05 -2.716954E+01  4.691918E+03 -3.608518E+04 -3.466749E+03 -1.000020E+04
       300   5  3.892069E+05 -5.813303E+02  7.791512E+03 -5.313812E+03 -7.405104E+03 -1.249463E+04
       300   6  3.900862E+05  2.949738E+03  1.452136E+04 -3.608263E+04 -1.134034E+04 -1.482674E+04
       300   7 -2.673755E+04 -1.036841E+05 -9.683907E+04 -3.600706E+04 -4.518327E+03 -9.999058E+03
       300   8 -9.439495E+04 -1.208015E+05 -1.097705E+05 -4.824697E+03 -8.387651E+03 -1.249418E+04
       300   9 -1.602921E+05 -1.338441E+05 -1.191178E+05 -3.518554E+04 -1.225344E+04 -1.482689E+04
       300  10  8.070848E+05  1.036169E+05  1.062101E+05 -3.616331E+04  8.304965E-10 -2.419160E-09
       300  11  8.730221E+05  1.196214E+05  1.253363E+05 -5.803315E+03 -8.035555E-11  6.381400E-11
       300  12  9.407409E+05  1.397210E+05  1.481381E+05 -3.698058E+04 -3.697711E-10  4.493278E-10
       300  13  3.900944E+05 -2.728018E+01  4.691707E+03 -3.608521E+04 -3.447912E-10 -7.754227E-10
       300  14  3.892068E+05 -5.815126E+02  7.791116E+03 -5.313887E+03  6.207356E-10 -5.975385E-10
       300  15  3.900860E+05  2.949467E+03  1.452071E+04 -3.608276E+04  3.683192E-10  1.061855E-10
       300  16 -2.673760E+04 -1.036843E+05 -9.683929E+04 -3.600709E+04  2.990240E-10 -5.947087E-10
       300  17 -9.439507E+04 -1.208016E+05 -1.097710E+05 -4.824781E+03  9.583213E-10  1.852588E-09
       300  18 -1.602923E+05 -1.338443E+05 -1.191185E+05 -3.518568E+04 -3.158977E-10  9.683710E-10
       300  19  8.070848E+05  1.036170E+05  1.062103E+05 -3.616329E+04  2.414466E+03  1.000133E+04
       300  20  8.730222E+05  1.196216E+05  1.253366E+05 -5.803250E+03  6.421792E+03  1.249509E+04
       300  21  9.407410E+05  1.397213E+05  1.481387E+05 -3.698046E+04  1.042642E+04  1.482658E+04
       300  22  3.900944E+05 -2.716954E+01  4.691918E+03 -3.608518E+04  3.466749E+03  1.000020E+04
       300  23  3.892069E+05 -5.813303E+02  7.791512E+03 -5.313812E+03  7.405104E+03  1.249463E+04
       300  24  3.900862E+05  2.949738E+03  1.452136E+04 -3.608263E+04  1.134034E+04  1.482674E+04
       300  25 -2.673755E+04 -1.036841E+05 -9.683907E+04 -3.600706E+04  4.518327E+03  9.999058E+03
       300  26 -9.439495E+04 -1.208015E+05 -1.097705E+05 -4.824697E+03  8.387651E+03  1.249418E+04
       300  27 -1.602921E+05 -1.338441E+05 -1.191178E+05 -3.518554E+04  1.225344E+04  1.482689E+04
       301   1  1.060695E+06  1.649451E+05  1.810389E+05 -3.352326E+04 -1.284239E+04 -1.658858E+04
       301   2  1.123231E+06  1.784199E+05  2.094104E+05 -6.445090E+03 -2.939741E+04 -1.916537E+04
       301   3  1.197172E+06  2.251564E+05  2.570525E+05 -4.216814E+04 -4.595075E+04 -1.981373E+04
       301   4  3.921574E+05 -1.163906E+03  1.845476E+04 -3.636318E+04 -1.428114E+04 -1.658894E+04
       301   5  3.865111E+05 -4.581350E+03  3.048416E+04 -4.966239E+03 -3.003160E+04 -1.916695E+04
       301   6  3.921401E+05  2.514554E+04  6.124279E+04 -3.637474E+04 -4.577857E+04 -1.981575E+04
       301   7 -2.759728E+05 -1.673058E+05 -1.441617E+05 -3.919997E+04 -1.571835E+04 -1.658928E+04
       301   8 -3.497140E+05 -1.876224E+05 -1.484813E+05 -3.489150E+03 -3.066503E+04 -1.916853E+04
       301   9 -4.123012E+05 -1.749128E+05 -1.346138E+05 -3.058894E+04 -4.560658E+04 -1.981776E+04
       301  10  1.060695E+06  1.649448E+05  1.810381E+05 -3.352343E+04  1.779560E-10  4.047618E-10
       301  11  1.123230E+06  1.784192E+05  2.094081E+05 -6.445544E+03 -1.207326E-09 -5.056312E-11
       301  12  1.197170E+06  2.251554E+05  2.570478E+05 -4.216887E+04 -2.307165E-09 -6.037140E-10
       301  13  3.921571E+05 -1.164256E+03  1.845386E+04 -3.636337E+04  2.693274E-10  9.503994E-10
       301  14  3.865101E+05 -4.581986E+03  3.048178E+04 -4.966703E+03 -3.198217E-11  3.611520E-10
       301  15  3.921378E+05  2.514455E+04  6.123812E+04 -3.637547E+04 -2.115386E-10  1.436950E-10
       301  16 -2.759731E+05 -1.673061E+05 -1.441627E+05 -3.920018E+04 -3.998559E-10  9.734392E-10
       301  17 -3.497151E+05 -1.876231E+05 -1.484838E+05 -3.489624E+03  9.187458E-10  3.624461E-10
       301  18 -4.123036E+05 -1.749138E+05 -1.346185E+05 -3.058967E+04  2.451507E-09  6.661312E-10
       301  19  1.060695E+06  1.649451E+05  1.810389E+05 -3.352326E+04  1.284239E+04  1.658858E+04
       301  20  1.123231E+06  1.784199E+05  2.094104E+05 -6.445090E+03  2.939741E+04  1.916537E+04
       301  21  1.197172E+06  2.251564E+05  2.570525E+05 -4.216814E+04  4.595075E+04  1.981373E+04
       301  22  3.921574E+05 -1.163906E+03  1.845476E+04 -3.636318E+04  1.428114E+04  1.658894E+04
       301  23  3.865111E+05 -4.581350E+03  3.048416E+04 -4.966239E+03  3.003160E+04  1.916695E+04
       301  24  3.921401E+05  2.514554E+04  6.124279E+04 -3.637474E+04  4.577857E+04  1.981575E+04
       301  25 -2.759728E+05 -1.673058E+05 -1.441617E+05 -3.919997E+04  1.571835E+04  1.658928E+04
       301  26 -3.497140E+05 -1.876224E+05 -1.484813E+05 -3.489150E+03  3.066503E+04  1.916853E+04
       301  27 -4.123012E+05 -1.749128E+05 -1.346138E+05 -3.058894E+04  4.560658E+04  1.981776E+04
       302   1  1.332895E+06  2.198280E+05  2.994569E+05 -1.106241E+04 -5.221033E+04 -2.444485E+04
       302   2  1.363231E+06  2.101598E+05  3.587733E+05 -1.880142E+04 -1.244893E+05 -2.751070E+04
       302   3  1.474077E+06  4.772784E+05  5.346703E+05 -9.123685E+04 -1.968231E+05 -9.670611E+03
       302   4  4.071669E+05 -1.013715E+04  7.473358E+04 -3.664321E+04 -5.764425E+04 -2.445027E+04
       302   5  3.675784E+05 -3.699243E+04  1.173870E+05 -4.543317E+03 -1.212908E+05 -2.751118E+04
       302   6  4.071205E+05  2.116732E+05  2.707597E+05 -3.713881E+04 -1.849827E+05 -9.660632E+03
       302   7 -5.177791E+05 -2.401628E+05 -1.500512E+05 -6.218600E+04 -6.307005E+04 -2.445525E+04
       302   8 -6.271703E+05 -2.842165E+05 -1.240705E+05  9.691515E+03 -1.180973E+05 -2.751151E+04
       302   9 -6.587970E+05 -5.400567E+04  6.766714E+03  1.686577E+04 -1.731624E+05 -9.648596E+03
       302  10  1.332892E+06  2.198266E+05  2.994507E+05 -1.106344E+04  1.782577E-09  1.564836E-10
       302  11  1.363215E+06  2.101548E+05  3.587428E+05 -1.880418E+04  7.098101E-10  8.151919E-10
       302  12  1.474036E+06  4.772680E+05  5.345975E+05 -9.123838E+04 -4.163633E-10 -5.011299E-10
       302  13  4.071632E+05 -1.013868E+04  7.472622E+04 -3.664435E+04 -1.469924E-10  8.775849E-10
       302  14  3.675624E+05 -3.699719E+04  1.173580E+05 -4.546004E+03  5.118136E-10  2.768993E-09
       302  15  4.070837E+05  2.116639E+05  2.706952E+05 -3.714024E+04 -4.194445E-10  3.494041E-11
       302  16 -5.177835E+05 -2.401645E+05 -1.500598E+05 -6.218724E+04 -1.630483E-09  4.854740E-10
       302  17 -6.271855E+05 -2.842210E+05 -1.240982E+05  9.688897E+03 -1.185419E-09  3.816282E-10
       302  18 -6.588293E+05 -5.401383E+04  6.710134E+03  1.686443E+04  2.570818E-10 -1.146672E-09
       302  19  1.332895E+06  2.198280E+05  2.994569E+05 -1.106241E+04  5.221033E+04  2.444485E+04
       302  20  1.363231E+06  2.101598E+05  3.587733E+05 -1.880142E+04  1.244893E+05  2.751070E+04
       302  21  1.474077E+06  4.772784E+05  5.346703E+05 -9.123685E+04  1.968231E+05  9.670611E+03
       302  22  4.071669E+05 -1.013715E+04  7.473358E+04 -3.664321E+04  5.764425E+04  2.445027E+04
       302  23  3.675784E+05 -3.699243E+04  1.173870E+05 -4.543317E+03  1.212908E+05  2.751118E+04
       302  24  4.071205E+05  2.116732E+05  2.707597E+05 -3.713881E+04  1.849827E+05  9.660632E+03
       302  25 -5.177791E+05 -2.401628E+05 -1.500512E+05 -6.218600E+04  6.307005E+04  2.445525E+04
       302  26 -6.271703E+05 -2.842165E+05 -1.240705E+05  9.691515E+03  1.180973E+05  2.751151E+04
       302  27 -6.587970E+05 -5.400567E+04  6.766714E+03  1.686577E+04  1.731624E+05  9.648596E+03
       303   1  2.208000E+05  7.301620E+05  2.462569E+05 -9.255158E+04  3.916499E+03  8.840128E+04
       303   2  7.690611E+04  5.873309E+05  1.441186E+05 -1.691187E+04  1.050120E+04  5.509740E+04
       303   3  5.822557E+04  4.799817E+05  9.491626E+04 -5.609723E+04  5.825799E+03  2.178350E+04
       303   4  9.559679E+04  2.284971E+05  1.219706E+05 -6.687244E+04  3.926255E+03  8.339012E+04
       303   5 -1.655782E+04  2.111582E+05  5.292621E+04 -9.520134E+03  1.050280E+04  5.470566E+04
       303   6 -4.256424E+03  2.285161E+05  3.364313E+04 -6.699334E+04  5.818183E+03  2.600436E+04
       303   7 -2.962283E+04 -2.729380E+05 -2.333959E+03 -4.121396E+04  3.935601E+03  7.838298E+04
       303   8 -1.100319E+05 -1.648853E+05 -3.827633E+04 -2.132844E+03  1.050438E+04  5.431414E+04
       303   9 -6.674261E+04 -2.289151E+04 -2.763445E+04 -7.788499E+04  5.810418E+03  3.022352E+04
       303  10  2.207979E+05  7.301536E+05  2.462422E+05 -9.255186E+04  1.409878E-10 -2.874161E-10
       303  11  7.690518E+04  5.873276E+05  1.441127E+05 -1.691233E+04 -7.851438E-10 -5.357711E-10
       303  12  5.822541E+04  4.799811E+05  9.491530E+04 -5.609733E+04 -2.048997E-10  8.329495E-11
       303  13  9.559491E+04  2.284897E+05  1.219576E+05 -6.687270E+04  5.967874E-10  1.793175E-10
       303  14 -1.655874E+04  2.111549E+05  5.292038E+04 -9.520597E+03 -2.013701E-09 -3.492375E-10
       303  15 -4.256641E+03  2.285154E+05  3.364180E+04 -6.699346E+04  7.668961E-10  1.123379E-10
       303  16 -2.962450E+04 -2.729446E+05 -2.345538E+03 -4.121421E+04 -3.046908E-11  2.021265E-10
       303  17 -1.100328E+05 -1.648885E+05 -3.828208E+04 -2.133304E+03 -8.041125E-10  1.752040E-10
       303  18 -6.674289E+04 -2.289250E+04 -2.763623E+04 -7.788513E+04  1.661489E-10  1.031147E-10
       303  19  2.208000E+05  7.301620E+05  2.462569E+05 -9.255158E+04 -3.916499E+03 -8.840128E+04
       303  20  7.690611E+04  5.873309E+05  1.441186E+05 -1.691187E+04 -1.050120E+04 -5.509740E+04
       303  21  5.822557E+04  4.799817E+05  9.491626E+04 -5.609723E+04 -5.825799E+03 -2.178350E+04
       303  22  9.559679E+04  2.284971E+05  1.219706E+05 -6.687244E+04 -3.926255E+03 -8.339012E+04
       303  23 -1.655782E+04  2.111582E+05  5.292621E+04 -9.520134E+03 -1.050280E+04 -5.470566E+04
       303  24 -4.256424E+03  2.285161E+05  3.364313E+04 -6.699334E+04 -5.818183E+03 -2.600436E+04
       303  25 -2.962283E+04 -2.729380E+05 -2.333959E+03 -4.121396E+04 -3.935601E+03 -7.838298E+04
       303  26 -1.100319E+05 -1.648853E+05 -3.827633E+04 -2.132844E+03 -1.050438E+04 -5.431414E+04
       303  27 -6.674261E+04 -2.289151E+04 -2.763445E+04 -7.788499E+04 -5.810418E+03 -3.022352E+04
       304   1  1.987982E+04  2.549944E+05  3.553365E+04 -6.978496E+04  1.218754E+03  1.910726E+04
       304   2 -2.475392E+04  1.280351E+05 -8.544276E+03 -1.007278E+04 -2.410669E+03  1.214829E+04
       304   3 -5.403740E+04  5.374957E+03 -4.435509E+04 -6.528369E+04 -5.722676E+03  5.192146E+03
       304   4  1.163228E+04  2.217790E+05  2.756276E+04 -6.695936E+04  1.216037E+03  2.065888E+04
       304   5 -1.990497E+03  2.196244E+05  1.371327E+04 -9.508882E+03 -2.413044E+03  1.357088E+04
       304   6 -2.399493E+02  2.217782E+05  8.222740E+03 -6.698000E+04 -5.724721E+03  6.484322E+03
       304   7  3.384688E+03  1.885647E+05  1.959181E+04 -6.413392E+04  1.213335E+03  2.221042E+04
       304   8  2.077231E+04  3.112213E+05  3.597022E+04 -8.944897E+03 -2.415416E+03  1.499367E+04
       304   9  5.355406E+04  4.382241E+05  6.079719E+04 -6.867687E+04 -5.726772E+03  7.776947E+03
       304  10  1.987972E+04  2.549940E+05  3.553296E+04 -6.978498E+04 -3.687724E-10 -6.194295E-10
       304  11 -2.475396E+04  1.280350E+05 -8.544564E+03 -1.007276E+04  7.349758E-10 -9.095630E-10
       304  12 -5.403744E+04  5.374919E+03 -4.435520E+04 -6.528367E+04 -8.730805E-10  4.451740E-11
       304  13  1.163216E+04  2.217786E+05  2.756196E+04 -6.695938E+04  2.621866E-10  5.108671E-10
       304  14 -1.990552E+03  2.196242E+05  1.371291E+04 -9.508856E+03  1.020644E-09 -5.577028E-10
       304  15 -2.399958E+02  2.217781E+05  8.222600E+03 -6.697997E+04  1.136445E-09 -4.344513E-11
       304  16  3.384554E+03  1.885642E+05  1.959088E+04 -6.413394E+04  1.362297E-10  3.509242E-10
       304  17  2.077224E+04  3.112211E+05  3.596978E+04 -8.944868E+03 -1.490116E-09  4.002397E-10
       304  18  5.355401E+04  4.382241E+05  6.079701E+04 -6.867684E+04 -1.987649E-10  1.341033E-10
       304  19  1.987982E+04  2.549944E+05  3.553365E+04 -6.978496E+04 -1.218754E+03 -1.910726E+04
       304  20 -2.475392E+04  1.280351E+05 -8.544276E+03 -1.007278E+04  2.410669E+03 -1.214829E+04
       304  21 -5.403740E+04  5.374957E+03 -4.435509E+04 -6.528369E+04  5.722676E+03 -5.192146E+03
       304  22  1.163228E+04  2.217790E+05  2.756276E+04 -6.695936E+04 -1.216037E+03 -2.065888E+04
       304  23 -1.990497E+03  2.196244E+05  1.371327E+04 -9.508882E+03  2.413044E+03 -1.357088E+04
       304  24 -2.399493E+02  2.217782E+05  8.222740E+03 -6.698000E+04  5.724721E+03 -6.484322E+03
       304  25  3.384688E+03  1.885647E+05  1.959181E+04 -6.413392E+04 -1.213335E+03 -2.221042E+04
       304  26  2.077231E+04  3.112213E+05  3.597022E+04 -8.944897E+03  2.415416E+03 -1.499367E+04
       304  27  5.355406E+04  4.382241E+05  6.079719E+04 -6.867687E+04  5.726772E+03 -7.776947E+03
       305   1 -1.066088E+05 -2.136858E+05 -9.937377E+04 -6.687525E+04 -1.078749E+04  2.016163E+02
       305   2 -1.395497E+05 -3.391500E+05 -1.325584E+05 -8.992173E+03 -1.559586E+04  4.554533E+03
       305   3 -1.700955E+05 -4.643240E+05 -1.679354E+05 -6.617475E+04 -5.664678E+03  8.921351E+03
       305   4  1.508721E+03  2.210710E+05  6.451610E+03 -6.700306E+04 -1.079461E+04  5.168878E+03
       305   5 -4.755738E+02  2.204045E+05  3.201827E+03 -9.474168E+03 -1.559382E+04  3.510067E+03
       305   6  9.788649E+02  2.210561E+05  1.935534E+03 -6.700443E+04 -5.659330E+03  1.866139E+03
       305   7  1.096123E+05  6.560003E+05  1.122634E+05 -6.713089E+04 -1.080173E+04  1.013961E+04
       305   8  1.385755E+05  7.802449E+05  1.389395E+05 -9.956520E+03 -1.559179E+04  2.464661E+03
       305   9  1.720181E+05  9.068629E+05  1.717716E+05 -6.783493E+04 -5.653967E+03 -5.196860E+03
       305  10 -1.066089E+05 -2.136858E+05 -9.937399E+04 -6.687525E+04 -1.088492E-10 -2.757187E-10
       305  11 -1.395499E+05 -3.391500E+05 -1.325589E+05 -8.992116E+03 -8.991210E-12 -3.337445E-10
       305  12 -1.700956E+05 -4.643241E+05 -1.679356E+05 -6.617471E+04 -1.385172E-10  1.060327E-10
       305  13  1.508588E+03  2.210710E+05  6.451341E+03 -6.700302E+04 -7.456144E-10  3.515797E-10
       305  14 -4.758382E+02  2.204044E+05  3.201347E+03 -9.474123E+03  2.356664E-10 -3.372283E-10
       305  15  9.788296E+02  2.210560E+05  1.935467E+03 -6.700442E+04 -4.150878E-10  1.641919E-10
       305  16  1.096121E+05  6.560002E+05  1.122630E+05 -6.713080E+04  4.648444E-10  3.869022E-11
       305  17  1.385753E+05  7.802448E+05  1.389390E+05 -9.956489E+03 -7.444105E-10 -1.504365E-10
       305  18  1.720181E+05  9.068629E+05  1.717715E+05 -6.783496E+04 -4.746414E-10  3.184531E-11
       305  19 -1.066088E+05 -2.136858E+05 -9.937377E+04 -6.687525E+04  1.078749E+04 -2.016163E+02
       305  20 -1.395497E+05 -3.391500E+05 -1.325584E+05 -8.992173E+03  1.559586E+04 -4.554533E+03
       305  21 -1.700955E+05 -4.643240E+05 -1.679354E+05 -6.617475E+04  5.664678E+03 -8.921351E+03
       305  22  1.508721E+03  2.210710E+05  6.451610E+03 -6.700306E+04  1.079461E+04 -5.168878E+03
       305  23 -4.755738E+02  2.204045E+05  3.201827E+03 -9.474168E+03  1.559382E+04 -3.510067E+03
       305  24  9.788649E+02  2.210561E+05  1.935534E+03 -6.700443E+04  5.659330E+03 -1.866139E+03
       305  25  1.096123E+05  6.560003E+05  1.122634E+05 -6.713089E+04  1.080173E+04 -1.013961E+04
       305  26  1.385755E+05  7.802449E+05  1.389395E+05 -9.956520E+03  1.559179E+04 -2.464661E+03
       305  27  1.720181E+05  9.068629E+05  1.717716E+05 -6.783493E+04  5.653967E+03  5.196860E+03
       306   1 -1.828988E+06 -5.710167E+05 -3.679917E+05 -6.338029E+05 -1.810438E+05 -6.462728E+04
       306   2 -1.777610E+06 -3.024396E+05 -1.989593E+05 -6.661445E+05 -1.175383E+05 -3.392957E+04
       306   3 -1.823502E+06 -3.072196E+05 -1.510301E+05 -6.419374E+05 -5.148043E+04 -1.001903E+04
       306   4 -1.537059E+06 -4.113515E+05 -2.783287E+05 -5.037162E+05 -1.775308E+05 -6.332455E+04
       306   5 -1.474448E+06 -1.746747E+05 -1.150663E+05 -5.696481E+05 -1.165864E+05 -3.357546E+04
       306   6 -1.508550E+06 -2.107728E+05 -7.082950E+04 -5.790457E+05 -5.308922E+04 -1.062106E+04
       306   7 -1.245041E+06 -2.516488E+05 -1.886739E+05 -3.735647E+05 -1.740160E+05 -6.202043E+04
       306   8 -1.171197E+06 -4.689800E+04 -3.118195E+04 -4.731069E+05 -1.156340E+05 -3.322110E+04
       306   9 -1.193503E+06 -1.143274E+05  9.363375E+03 -5.161290E+05 -5.469890E+04 -1.122327E+04
       306  10 -1.829024E+06 -5.710300E+05 -3.680614E+05 -6.338123E+05  1.015950E-09 -4.156783E-11
       306  11 -1.777625E+06 -3.024445E+05 -1.989875E+05 -6.661478E+05 -8.450137E-10 -3.117396E-10
       306  12 -1.823505E+06 -3.072204E+05 -1.510353E+05 -6.419378E+05 -9.380982E-10  9.109447E-11
       306  13 -1.537094E+06 -4.113643E+05 -2.783957E+05 -5.037252E+05 -2.017542E-10 -3.593010E-10
       306  14 -1.474463E+06 -1.746796E+05 -1.150940E+05 -5.696513E+05  1.106197E-11 -8.946114E-10
       306  15 -1.508553E+06 -2.107737E+05 -7.083502E+04 -5.790461E+05  3.032260E-10  8.296357E-11
       306  16 -1.245075E+06 -2.516611E+05 -1.887381E+05 -3.735734E+05  7.020502E-10 -2.744665E-10
       306  17 -1.171211E+06 -4.690279E+04 -3.120921E+04 -4.731100E+05 -3.492939E-10 -6.753630E-10
       306  18 -1.193506E+06 -1.143284E+05  9.357503E+03 -5.161295E+05  5.186923E-10  1.931589E-10
       306  19 -1.828988E+06 -5.710167E+05 -3.679917E+05 -6.338029E+05  1.810438E+05  6.462728E+04
       306  20 -1.777610E+06 -3.024396E+05 -1.989593E+05 -6.661445E+05  1.175383E+05  3.392957E+04
       306  21 -1.823502E+06 -3.072196E+05 -1.510301E+05 -6.419374E+05  5.148043E+04  1.001903E+04
       306  22 -1.537059E+06 -4.113515E+05 -2.783287E+05 -5.037162E+05  1.775308E+05  6.332455E+04
       306  23 -1.474448E+06 -1.746747E+05 -1.150663E+05 -5.696481E+05  1.165864E+05  3.357546E+04
       306  24 -1.508550E+06 -2.107728E+05 -7.082950E+04 -5.790457E+05  5.308922E+04  1.062106E+04
       306  25 -1.245041E+06 -2.516488E+05 -1.886739E+05 -3.735647E+05  1.740160E+05  6.202043E+04
       306  26 -1.171197E+06 -4.689800E+04 -3.118195E+04 -4.731069E+05  1.156340E+05  3.322110E+04
       306  27 -1.193503E+06 -1.143274E+05  9.363375E+03 -5.161290E+05  5.469890E+04  1.122327E+04
       307   1 -1.762830E+06 -3.469055E+05 -1.300048E+05 -6.399998E+05 -4.238718E+04 -8.165697E+03
       307   2 -1.745934E+06 -3.022185E+05 -9.440125E+04 -6.332292E+05 -2.786261E+04 -2.740900E+03
       307   3 -1.730570E+06 -3.027110E+05 -7.851097E+04 -6.326079E+05 -1.306253E+04  1.950677E+03
       307   4 -1.498939E+06 -2.417922E+05 -5.792642E+04 -5.623314E+05 -4.226807E+04 -8.121707E+03
       307   5 -1.496447E+06 -2.068521E+05 -2.715545E+04 -5.638951E+05 -2.801710E+04 -2.799127E+03
       307   6 -1.495427E+06 -2.170288E+05 -1.587404E+04 -5.716092E+05 -1.349107E+04  1.789977E+03
       307   7 -1.234980E+06 -1.366723E+05  1.414580E+04 -4.846323E+05 -4.214890E+04 -8.077693E+03
       307   8 -1.246899E+06 -1.114815E+05  4.008489E+04 -4.945357E+05 -2.817166E+04 -2.857381E+03
       307   9 -1.260230E+06 -1.313442E+05  4.675809E+04 -5.105901E+05 -1.391980E+04  1.629215E+03
       307  10 -1.762832E+06 -3.469060E+05 -1.300083E+05 -6.400001E+05 -3.886343E-10  4.520481E-10
       307  11 -1.745935E+06 -3.022187E+05 -9.440273E+04 -6.332293E+05 -2.006185E-10  7.822191E-11
       307  12 -1.730570E+06 -3.027111E+05 -7.851130E+04 -6.326079E+05 -4.406790E-10  3.710218E-11
       307  13 -1.498941E+06 -2.417927E+05 -5.792991E+04 -5.623317E+05 -4.607422E-10  2.686506E-10
       307  14 -1.496448E+06 -2.068524E+05 -2.715695E+04 -5.638952E+05  4.121266E-10 -6.400609E-11
       307  15 -1.495427E+06 -2.170288E+05 -1.587439E+04 -5.716092E+05 -3.591730E-10 -3.523445E-11
       307  16 -1.234982E+06 -1.366728E+05  1.414233E+04 -4.846325E+05 -2.777172E-10  2.721411E-10
       307  17 -1.246900E+06 -1.114817E+05  4.008338E+04 -4.945357E+05 -4.732697E-10  7.784323E-11
       307  18 -1.260231E+06 -1.313442E+05  4.675772E+04 -5.105900E+05  2.545043E-11  1.740891E-10
       307  19 -1.762830E+06 -3.469055E+05 -1.300048E+05 -6.399998E+05  4.238718E+04  8.165697E+03
       307  20 -1.745934E+06 -3.022185E+05 -9.440125E+04 -6.332292E+05  2.786261E+04  2.740900E+03
       307  21 -1.730570E+06 -3.027110E+05 -7.851097E+04 -6.326079E+05  1.306253E+04 -1.950677E+03
       307  22 -1.498939E+06 -2.417922E+05 -5.792642E+04 -5.623314E+05  4.226807E+04  8.121707E+03
       307  23 -1.496447E+06 -2.068521E+05 -2.715545E+04 -5.638951E+05  2.801710E+04  2.799127E+03
       307  24 -1.495427E+06 -2.170288E+05 -1.587404E+04 -5.716092E+05  1.349107E+04 -1.789977E+03
       307  25 -1.234980E+06 -1.366723E+05  1.414580E+04 -4.846323E+05  4.214890E+04  8.077693E+03
       307  26 -1.246899E+06 -1.114815E+05  4.008489E+04 -4.945357E+05  2.817166E+04  2.857381E+03
       307  27 -1.260230E+06 -1.313442E+05  4.675809E+04 -5.105901E+05  1.391980E+04 -1.629215E+03
       308   1 -1.690463E+06 -2.957191E+05 -6.535977E+04 -6.239494E+05 -1.072573E+04  2.207399E+03
       308   2 -1.676917E+06 -2.772754E+05 -5.392498E+04 -6.110495E+05 -7.173129E+03  2.724199E+03
       308   3 -1.651088E+06 -2.770360E+05 -4.602067E+04 -6.134469E+05 -3.579624E+03  3.130909E+03
       308   4 -1.493783E+06 -2.211108E+05 -1.249996E+04 -5.698681E+05 -1.097882E+04  2.112445E+03
       308   5 -1.499714E+06 -2.104946E+05 -6.340980E+03 -5.627871E+05 -7.467152E+03  2.614002E+03
       308   6 -1.493353E+06 -2.180737E+05 -3.679091E+03 -5.710036E+05 -3.914694E+03  3.005438E+03
       308   7 -1.297067E+06 -1.465003E+05  4.035632E+04 -5.157714E+05 -1.123199E+04  2.017458E+03
       308   8 -1.322481E+06 -1.437120E+05  4.124025E+04 -5.145124E+05 -7.761267E+03  2.503771E+03
       308   9 -1.335593E+06 -1.591099E+05  3.866039E+04 -5.285505E+05 -4.249859E+03  2.879933E+03
       308  10 -1.690463E+06 -2.957191E+05 -6.536000E+04 -6.239494E+05  3.762495E-10  6.499689E-11
       308  11 -1.676917E+06 -2.772754E+05 -5.392509E+04 -6.110495E+05  9.232473E-10 -1.371767E-10
       308  12 -1.651088E+06 -2.770360E+05 -4.602071E+04 -6.134469E+05  1.647819E-09  1.284058E-10
       308  13 -1.493783E+06 -2.211109E+05 -1.250019E+04 -5.698681E+05 -5.006549E-10 -2.699494E-10
       308  14 -1.499714E+06 -2.104946E+05 -6.341098E+03 -5.627871E+05 -3.490430E-10 -8.138354E-10
       308  15 -1.493353E+06 -2.180737E+05 -3.679137E+03 -5.710036E+05  4.448320E-10  5.059822E-10
       308  16 -1.297067E+06 -1.465003E+05  4.035607E+04 -5.157714E+05 -1.790417E-10  1.353685E-11
       308  17 -1.322481E+06 -1.437120E+05  4.124012E+04 -5.145124E+05  3.631027E-11 -8.947285E-10
       308  18 -1.335593E+06 -1.591099E+05  3.866034E+04 -5.285505E+05 -1.082652E-09 -1.254015E-10
       308  19 -1.690463E+06 -2.957191E+05 -6.535977E+04 -6.239494E+05  1.072573E+04 -2.207399E+03
       308  20 -1.676917E+06 -2.772754E+05 -5.392498E+04 -6.110495E+05  7.173129E+03 -2.724199E+03
       308  21 -1.651088E+06 -2.770360E+05 -4.602067E+04 -6.134469E+05  3.579624E+03 -3.130909E+03
       308  22 -1.493783E+06 -2.211108E+05 -1.249996E+04 -5.698681E+05  1.097882E+04 -2.112445E+03
       308  23 -1.499714E+06 -2.104946E+05 -6.340980E+03 -5.627871E+05  7.467152E+03 -2.614002E+03
       308  24 -1.493353E+06 -2.180737E+05 -3.679091E+03 -5.710036E+05  3.914694E+03 -3.005438E+03
       308  25 -1.297067E+06 -1.465003E+05  4.035632E+04 -5.157714E+05  1.123199E+04 -2.017458E+03
       308  26 -1.322481E+06 -1.437120E+05  4.124025E+04 -5.145124E+05  7.761267E+03 -2.503771E+03
       308  27 -1.335593E+06 -1.591099E+05  3.866039E+04 -5.285505E+05  4.249859E+03 -2.879933E+03
       309   1 -1.610692E+06 -2.630710E+05 -3.443321E+04 -6.030396E+05 -2.871696E+03  2.826034E+03
       309   2 -1.596831E+06 -2.469716E+05 -2.760925E+04 -5.885725E+05 -1.675839E+03  2.312681E+03
       309   3 -1.568063E+06 -2.466293E+05 -2.158420E+04 -5.914698E+05 -4.691426E+02  1.769658E+03
       309   4 -1.492939E+06 -2.187495E+05 -2.898275E+03 -5.710054E+05 -3.187549E+03  2.707807E+03
       309   5 -1.500369E+06 -2.107033E+05 -1.723333E+03 -5.623861E+05 -2.002828E+03  2.190336E+03
       309   6 -1.492890E+06 -2.184117E+05 -1.338270E+03 -5.711310E+05 -8.073031E+02  1.643187E+03
       309   7 -1.375172E+06 -1.744272E+05  2.863544E+04 -5.389658E+05 -3.503468E+03  2.589554E+03
       309   8 -1.403898E+06 -1.744345E+05  2.416173E+04 -5.361960E+05 -2.329872E+03  2.067970E+03
       309   9 -1.417711E+06 -1.901938E+05  1.890711E+04 -5.507901E+05 -1.145508E+03  1.516700E+03
       309  10 -1.610692E+06 -2.630710E+05 -3.443324E+04 -6.030396E+05  4.656308E-09  2.278287E-09
       309  11 -1.596831E+06 -2.469716E+05 -2.760927E+04 -5.885725E+05 -1.814934E-09  2.792152E-11
       309  12 -1.568063E+06 -2.466293E+05 -2.158420E+04 -5.914698E+05 -4.444279E-09 -1.446009E-09
       309  13 -1.492939E+06 -2.187495E+05 -2.898308E+03 -5.710054E+05 -6.899169E-10 -2.490518E-10
       309  14 -1.500369E+06 -2.107033E+05 -1.723350E+03 -5.623861E+05 -1.278750E-09  5.841281E-10
       309  15 -1.492890E+06 -2.184117E+05 -1.338276E+03 -5.711310E+05  3.059318E-11  1.401019E-09
       309  16 -1.375172E+06 -1.744272E+05  2.863540E+04 -5.389657E+05 -5.744291E-09 -1.609263E-09
       309  17 -1.403898E+06 -1.744345E+05  2.416171E+04 -5.361960E+05 -9.573560E-10  4.882660E-10
       309  18 -1.417711E+06 -1.901938E+05  1.890710E+04 -5.507901E+05  6.492937E-09  2.252114E-09
       309  19 -1.610692E+06 -2.630710E+05 -3.443321E+04 -6.030396E+05  2.871696E+03 -2.826034E+03
       309  20 -1.596831E+06 -2.469716E+05 -2.760925E+04 -5.885725E+05  1.675839E+03 -2.312681E+03
       309  21 -1.568063E+06 -2.466293E+05 -2.158420E+04 -5.914698E+05  4.691426E+02 -1.769658E+03
       309  22 -1.492939E+06 -2.187495E+05 -2.898275E+03 -5.710054E+05  3.187549E+03 -2.707807E+03
       309  23 -1.500369E+06 -2.107033E+05 -1.723333E+03 -5.623861E+05  2.002828E+03 -2.190336E+03
       309  24 -1.492890E+06 -2.184117E+05 -1.338270E+03 -5.711310E+05  8.073031E+02 -1.643187E+03
       309  25 -1.375172E+06 -1.744272E+05  2.863544E+04 -5.389658E+05  3.503468E+03 -2.589554E+03
       309  26 -1.403898E+06 -1.744345E+05  2.416173E+04 -5.361960E+05  2.329872E+03 -2.067970E+03
       309  27 -1.417711E+06 -1.901938E+05  1.890711E+04 -5.507901E+05  1.145508E+03 -1.516700E+03
       310   1 -1.526185E+06 -2.310929E+05 -1.020103E+04 -5.803468E+05 -5.779043E+01  1.334485E+03
       310   2 -1.511978E+06 -2.149056E+05 -4.675706E+03 -5.653634E+05  1.075055E+03  7.515798E+02
       310   3 -1.482441E+06 -2.148434E+05  1.172224E+02 -5.682501E+05  2.207157E+03  1.706888E+02
       310   4 -1.492798E+06 -2.185139E+05 -1.317516E+03 -5.712354E+05 -3.948042E+02  1.208466E+03
       310   5 -1.500482E+06 -2.105892E+05 -1.591868E+03 -5.622485E+05  7.388171E+02  6.258545E+02
       310   6 -1.492836E+06 -2.187900E+05 -2.599307E+03 -5.711321E+05  1.871663E+03  4.524806E+01
       310   7 -1.459410E+06 -2.059347E+05  7.565918E+03 -5.621235E+05 -7.318387E+02  1.082438E+03
       310   8 -1.488985E+06 -2.062728E+05  1.491963E+03 -5.591337E+05  4.025719E+02  5.001265E+02
       310   9 -1.503232E+06 -2.227367E+05 -5.315845E+03 -5.740142E+05  1.536174E+03 -8.019035E+01
       310  10 -1.526185E+06 -2.310929E+05 -1.020103E+04 -5.803468E+05  3.416036E-10  4.269357E-11
       310  11 -1.511978E+06 -2.149056E+05 -4.675709E+03 -5.653634E+05  9.265947E-10 -1.191718E-09
       310  12 -1.482441E+06 -2.148434E+05  1.172132E+02 -5.682501E+05  2.345853E-10  2.275366E-10
       310  13 -1.492798E+06 -2.185139E+05 -1.317519E+03 -5.712354E+05  1.161349E-09 -3.626948E-10
       310  14 -1.500482E+06 -2.105892E+05 -1.591869E+03 -5.622485E+05  1.056555E-09  2.627750E-10
       310  15 -1.492836E+06 -2.187900E+05 -2.599313E+03 -5.711321E+05 -5.041900E-13 -1.845446E-10
       310  16 -1.459410E+06 -2.059347E+05  7.565914E+03 -5.621235E+05  2.031993E-09  2.776788E-11
       310  17 -1.488985E+06 -2.062728E+05  1.491962E+03 -5.591337E+05 -1.172367E-10 -2.966501E-10
       310  18 -1.503232E+06 -2.227367E+05 -5.315849E+03 -5.740142E+05  2.443079E-10 -1.140680E-09
       310  19 -1.526185E+06 -2.310929E+05 -1.020103E+04 -5.803468E+05  5.779043E+01 -1.334485E+03
       310  20 -1.511978E+06 -2.149056E+05 -4.675706E+03 -5.653634E+05 -1.075055E+03 -7.515798E+02
       310  21 -1.482441E+06 -2.148434E+05  1.172224E+02 -5.682501E+05 -2.207157E+03 -1.706888E+02
       310  22 -1.492798E+06 -2.185139E+05 -1.317516E+03 -5.712354E+05  3.948042E+02 -1.208466E+03
       310  23 -1.500482E+06 -2.105892E+05 -1.591868E+03 -5.622485E+05 -7.388171E+02 -6.258545E+02
       310  24 -1.492836E+06 -2.187900E+05 -2.599307E+03 -5.711321E+05 -1.871663E+03 -4.524806E+01
       310  25 -1.459410E+06 -2.059347E+05  7.565918E+03 -5.621235E+05  7.318387E+02 -1.082438E+03
       310  26 -1.488985E+06 -2.062728E+05  1.491963E+03 -5.591337E+05 -4.025719E+02 -5.001265E+02
       310  27 -1.503232E+06 -2.227367E+05 -5.315845E+03 -5.740142E+05 -1.536174E+03  8.019035E+01
       311   1 -1.440446E+06 -1.988925E+05  1.085378E+04 -5.573749E+05  2.901244E+03 -1.688208E+02
       311   2 -1.426200E+06 -1.823293E+05  1.423065E+04 -5.422143E+05  6.077385E+03  1.464094E+01
       311   3 -1.398264E+06 -1.847299E+05  1.452014E+04 -5.439201E+05  9.227527E+03  2.684644E+02
       311   4 -1.493053E+06 -2.183541E+05 -3.282084E+03 -5.713087E+05  2.551787E+03 -2.994928E+02
       311   5 -1.500085E+06 -2.102069E+05 -5.612710E+03 -5.623762E+05  5.754379E+03 -1.061820E+02
       311   6 -1.493432E+06 -2.210292E+05 -1.105204E+04 -5.703103E+05  8.930871E+03  1.574530E+02
       311   7 -1.545657E+06 -2.378156E+05 -1.741816E+04 -5.852415E+05  2.202364E+03 -4.301527E+02
       311   8 -1.573964E+06 -2.380842E+05 -2.545656E+04 -5.825359E+05  5.431416E+03 -2.269889E+02
       311   9 -1.588592E+06 -2.573280E+05 -3.662507E+04 -5.966968E+05  8.634264E+03  4.646075E+01
       311  10 -1.440446E+06 -1.988925E+05  1.085376E+04 -5.573749E+05 -7.258650E-10 -9.708245E-11
       311  11 -1.426200E+06 -1.823293E+05  1.423058E+04 -5.422143E+05 -6.823615E-10  2.431267E-10
       311  12 -1.398264E+06 -1.847299E+05  1.451998E+04 -5.439201E+05  1.374132E-10  4.406396E-10
       311  13 -1.493053E+06 -2.183541E+05 -3.282096E+03 -5.713087E+05 -1.149395E-10  1.894479E-10
       311  14 -1.500085E+06 -2.102069E+05 -5.612773E+03 -5.623762E+05  1.822846E-10 -9.069287E-10
       311  15 -1.493432E+06 -2.210292E+05 -1.105219E+04 -5.703103E+05 -5.843674E-10 -6.062744E-10
       311  16 -1.545657E+06 -2.378156E+05 -1.741816E+04 -5.852415E+05  4.003996E-10  1.275568E-10
       311  17 -1.573964E+06 -2.380842E+05 -2.545661E+04 -5.825359E+05  6.931856E-10  8.515480E-10
       311  18 -1.588592E+06 -2.573280E+05 -3.662521E+04 -5.966968E+05 -4.048658E-10  2.824989E-10
       311  19 -1.440446E+06 -1.988925E+05  1.085378E+04 -5.573749E+05 -2.901244E+03  1.688208E+02
       311  20 -1.426200E+06 -1.823293E+05  1.423065E+04 -5.422143E+05 -6.077385E+03 -1.464094E+01
       311  21 -1.398264E+06 -1.847299E+05  1.452014E+04 -5.439201E+05 -9.227527E+03 -2.684644E+02
       311  22 -1.493053E+06 -2.183541E+05 -3.282084E+03 -5.713087E+05 -2.551787E+03  2.994928E+02
       311  23 -1.500085E+06 -2.102069E+05 -5.612710E+03 -5.623762E+05 -5.754379E+03  1.061820E+02
       311  24 -1.493432E+06 -2.210292E+05 -1.105204E+04 -5.703103E+05 -8.930871E+03 -1.574530E+02
       311  25 -1.545657E+06 -2.378156E+05 -1.741816E+04 -5.852415E+05 -2.202364E+03  4.301527E+02
       311  26 -1.573964E+06 -2.380842E+05 -2.545656E+04 -5.825359E+05 -5.431416E+03  2.269889E+02
       311  27 -1.588592E+06 -2.573280E+05 -3.662507E+04 -5.966968E+05 -8.634264E+03 -4.646075E+01
       312   1 -1.356996E+06 -1.682443E+05  2.252034E+04 -5.371755E+05  1.162232E+04  5.076201E+02
       312   2 -1.342013E+06 -1.471568E+05  1.792949E+04 -5.196808E+05  2.431417E+04  4.287103E+03
       312   3 -1.324898E+06 -1.693578E+05 -3.725399E+03 -5.116544E+05  3.679549E+04  8.630698E+03
       312   4 -1.494763E+06 -2.175536E+05 -1.403236E+04 -5.719935E+05  1.118884E+04  3.454372E+02
       312   5 -1.497352E+06 -2.068270E+05 -2.398532E+04 -5.631683E+05  2.409263E+04  4.204035E+03
       312   6 -1.497856E+06 -2.394361E+05 -5.117397E+04 -5.638115E+05  3.678545E+04  8.626475E+03
       312   7 -1.632512E+06 -2.668623E+05 -5.058670E+04 -6.068046E+05  1.075547E+04  1.832895E+02
       312   8 -1.652669E+06 -2.664955E+05 -6.590223E+04 -6.066459E+05  2.387114E+04  4.120990E+03
       312   9 -1.670784E+06 -3.095112E+05 -9.862518E+04 -6.159550E+05  3.677542E+04  8.622253E+03
       312  10 -1.356996E+06 -1.682443E+05  2.252009E+04 -5.371755E+05 -2.754501E-10  3.069422E-10
       312  11 -1.342013E+06 -1.471570E+05  1.792834E+04 -5.196809E+05 -7.169081E-10  1.476861E-11
       312  12 -1.324899E+06 -1.693583E+05 -3.728090E+03 -5.116547E+05 -6.776180E-10  1.634343E-10
       312  13 -1.494763E+06 -2.175537E+05 -1.403260E+04 -5.719935E+05 -5.708186E-10  4.718262E-11
       312  14 -1.497353E+06 -2.068272E+05 -2.398645E+04 -5.631684E+05 -6.245471E-10 -8.366718E-10
       312  15 -1.497857E+06 -2.394366E+05 -5.117666E+04 -5.638118E+05 -2.627204E-10 -2.849286E-11
       312  16 -1.632513E+06 -2.668623E+05 -5.058692E+04 -6.068046E+05  5.212497E-10  7.849244E-10
       312  17 -1.652670E+06 -2.664957E+05 -6.590334E+04 -6.066460E+05 -1.352250E-10 -4.116386E-10
       312  18 -1.670786E+06 -3.095117E+05 -9.862787E+04 -6.159552E+05  2.456353E-11  8.532673E-10
       312  19 -1.356996E+06 -1.682443E+05  2.252034E+04 -5.371755E+05 -1.162232E+04 -5.076201E+02
       312  20 -1.342013E+06 -1.471568E+05  1.792949E+04 -5.196808E+05 -2.431417E+04 -4.287103E+03
       312  21 -1.324898E+06 -1.693578E+05 -3.725399E+03 -5.116544E+05 -3.679549E+04 -8.630698E+03
       312  22 -1.494763E+06 -2.175536E+05 -1.403236E+04 -5.719935E+05 -1.118884E+04 -3.454372E+02
       312  23 -1.497352E+06 -2.068270E+05 -2.398532E+04 -5.631683E+05 -2.409263E+04 -4.204035E+03
       312  24 -1.497856E+06 -2.394361E+05 -5.117397E+04 -5.638115E+05 -3.678545E+04 -8.626475E+03
       312  25 -1.632512E+06 -2.668623E+05 -5.058670E+04 -6.068046E+05 -1.075547E+04 -1.832895E+02
       312  26 -1.652669E+06 -2.664955E+05 -6.590223E+04 -6.066459E+05 -2.387114E+04 -4.120990E+03
       312  27 -1.670784E+06 -3.095112E+05 -9.862518E+04 -6.159550E+05 -3.677542E+04 -8.622253E+03
       313   1 -1.278250E+06 -1.459306E+05 -5.212490E+03 -5.369098E+05  4.772175E+04  1.131268E+04
       313   2 -1.254888E+06 -8.240706E+04 -3.955649E+04 -4.951438E+05  1.018904E+05  3.059574E+04
       313   3 -1.312610E+06 -2.634100E+05 -1.774399E+05 -4.080961E+05  1.540680E+05  5.520118E+04
       313   4 -1.506271E+06 -2.121138E+05 -6.257212E+04 -5.786642E+05  4.635732E+04  1.080329E+04
       313   5 -1.478047E+06 -1.782704E+05 -1.016385E+05 -5.681012E+05  1.025344E+05  3.083449E+04
       313   6 -1.531343E+06 -3.894099E+05 -2.458685E+05 -5.122485E+05  1.567201E+05  5.618215E+04
       313   7 -1.734241E+06 -2.782983E+05 -1.199357E+05 -6.204072E+05  4.499345E+04  1.029399E+04
       313   8 -1.701158E+06 -2.741262E+05 -1.637252E+05 -6.410333E+05  1.031781E+05  3.107310E+04
       313   9 -1.750023E+06 -5.153833E+05 -3.143012E+05 -6.163609E+05  1.593712E+05  5.716226E+04
       313  10 -1.278252E+06 -1.459313E+05 -5.217021E+03 -5.369102E+05 -4.036945E-10 -4.555560E-11
       313  11 -1.254900E+06 -8.241086E+04 -3.957781E+04 -4.951463E+05 -7.263684E-12 -1.960309E-10
       313  12 -1.312636E+06 -2.634197E+05 -1.774903E+05 -4.081029E+05 -3.616168E-11  1.228086E-10
       313  13 -1.506273E+06 -2.121145E+05 -6.257639E+04 -5.786646E+05 -7.497426E-10 -6.835492E-10
       313  14 -1.478059E+06 -1.782742E+05 -1.016601E+05 -5.681037E+05 -1.607796E-10  1.986904E-10
       313  15 -1.531370E+06 -3.894199E+05 -2.459207E+05 -5.122556E+05  1.980693E-10 -2.014215E-10
       313  16 -1.734243E+06 -2.782989E+05 -1.199397E+05 -6.204076E+05 -1.989930E-10 -4.097989E-11
       313  17 -1.701170E+06 -2.741302E+05 -1.637470E+05 -6.410359E+05 -1.763343E-09 -4.392827E-10
       313  18 -1.750052E+06 -5.153937E+05 -3.143552E+05 -6.163683E+05 -8.663984E-11  8.285542E-12
       313  19 -1.278250E+06 -1.459306E+05 -5.212490E+03 -5.369098E+05 -4.772175E+04 -1.131268E+04
       313  20 -1.254888E+06 -8.240706E+04 -3.955649E+04 -4.951438E+05 -1.018904E+05 -3.059574E+04
       313  21 -1.312610E+06 -2.634100E+05 -1.774399E+05 -4.080961E+05 -1.540680E+05 -5.520118E+04
       313  22 -1.506271E+06 -2.121138E+05 -6.257212E+04 -5.786642E+05 -4.635732E+04 -1.080329E+04
       313  23 -1.478047E+06 -1.782704E+05 -1.016385E+05 -5.681012E+05 -1.025344E+05 -3.083449E+04
       313  24 -1.531343E+06 -3.894099E+05 -2.458685E+05 -5.122485E+05 -1.567201E+05 -5.618215E+04
       313  25 -1.734241E+06 -2.782983E+05 -1.199357E+05 -6.204072E+05 -4.499345E+04 -1.029399E+04
       313  26 -1.701158E+06 -2.741262E+05 -1.637252E+05 -6.410333E+05 -1.031781E+05 -3.107310E+04
       313  27 -1.750023E+06 -5.153833E+05 -3.143012E+05 -6.163609E+05 -1.593712E+05 -5.716226E+04
       314   1  1.943843E+06  3.976035E+05  5.569502E+05  1.248950E+05  4.909662E+05  7.315126E+03
       314   2  1.895150E+06 -2.576594E+05  1.613468E+05  4.231965E+04  3.250639E+05  1.825347E+04
       314   3  2.053938E+06 -1.728222E+05  5.886189E+04 -9.114746E+04  1.591682E+05  1.566479E+04
       314   4  2.640311E+06  5.699439E+05  7.288180E+05 -2.471968E+04  4.987991E+05  7.215413E+03
       314   5  2.536556E+06 -9.883921E+04  3.165828E+05  1.445716E+03  3.271693E+05  1.823478E+04
       314   6  2.641020E+06 -2.698745E+04  2.011963E+05 -2.328530E+04  1.555626E+05  1.567534E+04
       314   7  3.337266E+06  7.423328E+05  9.006623E+05 -1.745020E+05  5.066404E+05  7.112042E+03
       314   8  3.178340E+06  5.995732E+04  4.717901E+05 -3.947064E+04  3.292768E+05  1.821584E+04
       314   9  3.228426E+06  1.188393E+05  3.435084E+05  4.464092E+04  1.519537E+05  1.568511E+04
       314  10  1.943585E+06  3.975390E+05  5.564985E+05  1.248921E+05 -7.353969E-10  8.755261E-10
       314  11  1.895037E+06 -2.576880E+05  1.611483E+05  4.231488E+04 -2.299083E-10 -9.214841E-10
       314  12  2.053911E+06 -1.728293E+05  5.881398E+04 -9.114947E+04  2.950295E-10 -3.468315E-10
       314  13  2.640045E+06  5.698774E+05  7.283523E+05 -2.472258E+04  2.600370E-10  4.464750E-10
       314  14  2.536441E+06 -9.886815E+04  3.163818E+05  1.440917E+03 -3.281943E-09 -2.715901E-09
       314  15  2.640995E+06 -2.699417E+04  2.011506E+05 -2.328726E+04 -2.139683E-10 -2.562855E-10
       314  16  3.336992E+06  7.422643E+05  9.001824E+05 -1.745049E+05 -3.119737E-11 -1.266506E-10
       314  17  3.178224E+06  5.992805E+04  4.715868E+05 -3.947547E+04 -3.761018E-10  2.606787E-10
       314  18  3.228401E+06  1.188328E+05  3.434648E+05  4.463900E+04 -1.159892E-09 -1.760992E-10
       314  19  1.943843E+06  3.976035E+05  5.569502E+05  1.248950E+05 -4.909662E+05 -7.315126E+03
       314  20  1.895150E+06 -2.576594E+05  1.613468E+05  4.231965E+04 -3.250639E+05 -1.825347E+04
       314  21  2.053938E+06 -1.728222E+05  5.886189E+04 -9.114746E+04 -1.591682E+05 -1.566479E+04
       314  22  2.640311E+06  5.699439E+05  7.288180E+05 -2.471968E+04 -4.987991E+05 -7.215413E+03
       314  23  2.536556E+06 -9.883921E+04  3.165828E+05  1.445716E+03 -3.271693E+05 -1.823478E+04
       314  24  2.641020E+06 -2.698745E+04  2.011963E+05 -2.328530E+04 -1.555626E+05 -1.567534E+04
       314  25  3.337266E+06  7.423328E+05  9.006623E+05 -1.745020E+05 -5.066404E+05 -7.112042E+03
       314  26  3.178340E+06  5.995732E+04  4.717901E+05 -3.947064E+04 -3.292768E+05 -1.821584E+04
       314  27  3.228426E+06  1.188393E+05  3.435084E+05  4.464092E+04 -1.519537E+05 -1.568511E+04
       315   1  2.099711E+06 -5.620981E+04  4.329961E+04 -5.738556E+03  1.234845E+05  1.248073E+04
       315   2  2.131586E+06 -1.249175E+05 -2.800498E+04  3.064066E+03  8.144281E+04  1.190078E+04
       315   3  2.191589E+06 -1.047555E+05 -4.968322E+04 -3.037176E+04  3.939970E+04  1.016998E+04
       315   4  2.600861E+06  6.804185E+04  1.649743E+05 -2.185515E+04  1.235731E+05  1.247691E+04
       315   5  2.586829E+06 -1.203868E+04  8.236616E+04 -6.925497E+02  8.102917E+04  1.189926E+04
       315   6  2.600987E+06 -3.199753E+03  4.970320E+04 -2.176568E+04  3.848688E+04  1.016946E+04
       315   7  3.102239E+06  1.922761E+05  2.866310E+05 -3.798482E+04  1.236617E+05  1.247309E+04
       315   8  3.042260E+06  1.008251E+05  1.927224E+05 -4.451968E+03  8.061520E+04  1.189775E+04
       315   9  3.010537E+06  9.834399E+04  1.490776E+05 -1.315394E+04  3.757346E+04  1.016893E+04
       315  10  2.099695E+06 -5.621405E+04  4.327076E+04 -5.739796E+03 -1.838332E-10 -1.535131E-09
       315  11  2.131579E+06 -1.249194E+05 -2.801766E+04  3.063286E+03  1.229617E-10  2.185429E-10
       315  12  2.191587E+06 -1.047560E+05 -4.968632E+04 -3.037209E+04 -8.299059E-10 -1.977910E-10
       315  13  2.600844E+06  6.803761E+04  1.649454E+05 -2.185639E+04 -5.718063E-10 -7.328007E-10
       315  14  2.586822E+06 -1.204058E+04  8.235361E+04 -6.933255E+02 -5.538673E-10 -5.686912E-10
       315  15  2.600985E+06 -3.200260E+03  4.970023E+04 -2.176599E+04 -8.458499E-10 -6.808987E-10
       315  16  3.102223E+06  1.922719E+05  2.866021E+05 -3.798607E+04 -4.133804E-10  2.803908E-10
       315  17  3.042253E+06  1.008232E+05  1.927100E+05 -4.452739E+03 -1.972689E-09 -1.892914E-09
       315  18  3.010536E+06  9.834350E+04  1.490747E+05 -1.315425E+04  4.743010E-10 -2.454716E-11
       315  19  2.099711E+06 -5.620981E+04  4.329961E+04 -5.738556E+03 -1.234845E+05 -1.248073E+04
       315  20  2.131586E+06 -1.249175E+05 -2.800498E+04  3.064066E+03 -8.144281E+04 -1.190078E+04
       315  21  2.191589E+06 -1.047555E+05 -4.968322E+04 -3.037176E+04 -3.939970E+04 -1.016998E+04
       315  22  2.600861E+06  6.804185E+04  1.649743E+05 -2.185515E+04 -1.235731E+05 -1.247691E+04
       315  23  2.586829E+06 -1.203868E+04  8.236616E+04 -6.925497E+02 -8.102917E+04 -1.189926E+04
       315  24  2.600987E+06 -3.199753E+03  4.970320E+04 -2.176568E+04 -3.848688E+04 -1.016946E+04
       315  25  3.102239E+06  1.922761E+05  2.866310E+05 -3.798482E+04 -1.236617E+05 -1.247309E+04
       315  26  3.042260E+06  1.008251E+05  1.927224E+05 -4.451968E+03 -8.061520E+04 -1.189775E+04
       315  27  3.010537E+06  9.834399E+04  1.490776E+05 -1.315394E+04 -3.757346E+04 -1.016893E+04
       316   1  2.260658E+06 -7.504511E+04 -4.192773E+04 -1.915706E+04  3.113108E+04  9.043176E+03
       316   2  2.298779E+06 -7.457941E+04 -5.031777E+04 -1.934603E+03  2.047104E+04  7.603483E+03
       316   3  2.341115E+06 -6.350063E+04 -4.909511E+04 -2.172326E+04  9.809220E+03  6.129021E+03
       316   4  2.595655E+06  7.998755E+03  3.919829E+04 -2.063366E+04  3.056220E+04  9.042490E+03
       316   5  2.593561E+06 -1.485981E+03  2.116067E+04 -2.126801E+03  1.988271E+04  7.603059E+03
       316   6  2.595680E+06 -3.575021E+02  1.274522E+04 -2.062986E+04  9.202120E+03  6.128828E+03
       316   7  2.930755E+06  9.103443E+04  1.203163E+05 -2.211106E+04  2.999302E+04  9.041806E+03
       316   8  2.888422E+06  7.160110E+04  9.263286E+04 -2.319096E+03  1.929410E+04  7.602636E+03
       316   9  2.850305E+06  6.278088E+04  7.458088E+04 -1.953602E+04  8.594772E+03  6.128634E+03
       316  10  2.260657E+06 -7.504545E+04 -4.192970E+04 -1.915729E+04  6.156065E-10  1.669320E-10
       316  11  2.298778E+06 -7.457959E+04 -5.031867E+04 -1.934728E+03  7.975152E-11  1.124176E-10
       316  12  2.341114E+06 -6.350069E+04 -4.909536E+04 -2.172331E+04 -1.328412E-09  2.039328E-10
       316  13  2.595654E+06  7.998417E+03  3.919639E+04 -2.063388E+04 -1.280440E-09 -1.469624E-10
       316  14  2.593560E+06 -1.486149E+03  2.115982E+04 -2.126923E+03 -1.293887E-10 -4.414080E-10
       316  15  2.595680E+06 -3.575651E+02  1.274499E+04 -2.062991E+04 -3.218625E-10  2.303268E-10
       316  16  2.930754E+06  9.103410E+04  1.203144E+05 -2.211128E+04 -1.129733E-09 -2.272269E-10
       316  17  2.888421E+06  7.160094E+04  9.263206E+04 -2.319214E+03 -1.474347E-09 -5.713186E-10
       316  18  2.850305E+06  6.278082E+04  7.458067E+04 -1.953606E+04 -2.786391E-10  4.609701E-10
       316  19  2.260658E+06 -7.504511E+04 -4.192773E+04 -1.915706E+04 -3.113108E+04 -9.043176E+03
       316  20  2.298779E+06 -7.457941E+04 -5.031777E+04 -1.934603E+03 -2.047104E+04 -7.603483E+03
       316  21  2.341115E+06 -6.350063E+04 -4.909511E+04 -2.172326E+04 -9.809220E+03 -6.129021E+03
       316  22  2.595655E+06  7.998755E+03  3.919829E+04 -2.063366E+04 -3.056220E+04 -9.042490E+03
       316  23  2.593561E+06 -1.485981E+03  2.116067E+04 -2.126801E+03 -1.988271E+04 -7.603059E+03
       316  24  2.595680E+06 -3.575021E+02  1.274522E+04 -2.062986E+04 -9.202120E+03 -6.128828E+03
       316  25  2.930755E+06  9.103443E+04  1.203163E+05 -2.211106E+04 -2.999302E+04 -9.041806E+03
       316  26  2.888422E+06  7.160110E+04  9.263286E+04 -2.319096E+03 -1.929410E+04 -7.602636E+03
       316  27  2.850305E+06  6.278088E+04  7.458088E+04 -1.953602E+04 -8.594772E+03 -6.128634E+03
       317   1  2.407045E+06 -4.565027E+04 -3.535495E+04 -1.983463E+04  7.721797E+03  5.281616E+03
       317   2  2.443536E+06 -3.764020E+04 -3.030213E+04 -2.984225E+03  4.561453E+03  3.886987E+03
       317   3  2.480811E+06 -2.825978E+04 -2.284889E+04 -2.006315E+04  1.400415E+03  2.525261E+03
       317   4  2.594925E+06  9.096180E+02  1.008238E+04 -1.994623E+04  7.145744E+03  5.281519E+03
       317   5  2.594539E+06 -2.008869E+02  6.310976E+03 -2.981841E+03  3.998011E+03  3.886990E+03
       317   6  2.594933E+06  5.659114E+01  4.930788E+03 -1.994627E+04  8.497692E+02  2.525362E+03
       317   7  2.782837E+06  4.746694E+04  5.551718E+04 -2.005786E+04  6.569517E+03  5.281423E+03
       317   8  2.745562E+06  3.723676E+04  4.292244E+04 -2.979457E+03  3.434433E+03  3.886992E+03
       317   9  2.709067E+06  2.837200E+04  3.270952E+04 -1.982936E+04  2.990233E+02  2.525463E+03
       317  10  2.407045E+06 -4.565032E+04 -3.535511E+04 -1.983466E+04 -6.175653E-10  4.156275E-10
       317  11  2.443536E+06 -3.764022E+04 -3.030220E+04 -2.984239E+03 -9.816825E-10  5.013042E-10
       317  12  2.480811E+06 -2.825978E+04 -2.284891E+04 -2.006316E+04 -5.076388E-10  2.718350E-10
       317  13  2.594925E+06  9.095744E+02  1.008223E+04 -1.994626E+04 -8.354919E-10  3.428588E-10
       317  14  2.594539E+06 -2.009074E+02  6.310918E+03 -2.981854E+03 -8.155558E-11  1.629608E-10
       317  15  2.594933E+06  5.658409E+01  4.930774E+03 -1.994627E+04  5.680482E-11 -4.903586E-10
       317  16  2.782837E+06  4.746689E+04  5.551704E+04 -2.005789E+04  1.067496E-09  4.796397E-10
       317  17  2.745562E+06  3.723674E+04  4.292239E+04 -2.979467E+03 -1.437125E-09 -5.526218E-10
       317  18  2.709067E+06  2.837200E+04  3.270951E+04 -1.982936E+04  7.474752E-10 -1.022247E-09
       317  19  2.407045E+06 -4.565027E+04 -3.535495E+04 -1.983463E+04 -7.721797E+03 -5.281616E+03
       317  20  2.443536E+06 -3.764020E+04 -3.030213E+04 -2.984225E+03 -4.561453E+03 -3.886987E+03
       317  21  2.480811E+06 -2.825978E+04 -2.284889E+04 -2.006315E+04 -1.400415E+03 -2.525261E+03
       317  22  2.594925E+06  9.096180E+02  1.008238E+04 -1.994623E+04 -7.145744E+03 -5.281519E+03
       317  23  2.594539E+06 -2.008869E+02  6.310976E+03 -2.981841E+03 -3.998011E+03 -3.886990E+03
       317  24  2.594933E+06  5.659114E+01  4.930788E+03 -1.994627E+04 -8.497692E+02 -2.525362E+03
       317  25  2.782837E+06  4.746694E+04  5.551718E+04 -2.005786E+04 -6.569517E+03 -5.281423E+03
       317  26  2.745562E+06  3.723676E+04  4.292244E+04 -2.979457E+03 -3.434433E+03 -3.886992E+03
       317  27  2.709067E+06  2.837200E+04  3.270952E+04 -1.982936E+04 -2.990233E+02 -2.525463E+03
       318   1  2.543502E+06 -1.264219E+04 -7.559887E+03 -1.957402E+04  5.201672E+02  1.743628E+03
       318   2  2.578819E+06 -4.071108E+03  1.739170E+03 -3.294622E+03 -2.257113E+03  4.059627E+02
       318   3  2.614767E+06  5.665002E+03  1.312735E+04 -1.979310E+04 -5.034564E+03 -9.203736E+02
       318   4  2.594904E+06  7.920356E+01  4.790873E+03 -1.969054E+04 -2.988970E+01  1.743768E+03
       318   5  2.594588E+06 -1.615346E+02  5.562599E+03 -3.301528E+03 -2.802633E+03  4.061095E+02
       318   6  2.594902E+06  7.621871E+02  8.420518E+03 -1.969034E+04 -5.575390E+03 -9.202167E+02
       318   7  2.646308E+06  1.280041E+04  1.714145E+04 -1.980707E+04 -5.799918E+02  1.743909E+03
       318   8  2.610358E+06  3.748021E+03  9.386010E+03 -3.308434E+03 -3.348166E+03  4.062564E+02
       318   9  2.575039E+06 -4.140656E+03  3.713658E+03 -1.958758E+04 -6.116199E+03 -9.200601E+02
       318  10  2.543502E+06 -1.264220E+04 -7.559894E+03 -1.957402E+04 -1.405025E-10 -3.624412E-10
       318  11  2.578819E+06 -4.071110E+03  1.739160E+03 -3.294621E+03  2.491811E-10  3.047902E-11
       318  12  2.614767E+06  5.664994E+03  1.312730E+04 -1.979310E+04  4.487439E-10  1.558766E-11
       318  13  2.594904E+06  7.920029E+01  4.790867E+03 -1.969054E+04 -9.704919E-10  1.208077E-11
       318  14  2.594588E+06 -1.615368E+02  5.562584E+03 -3.301527E+03 -2.487984E-09  4.809241E-10
       318  15  2.594902E+06  7.621779E+02  8.420458E+03 -1.969034E+04  1.810384E-09 -3.997736E-10
       318  16  2.646308E+06  1.280041E+04  1.714144E+04 -1.980707E+04  1.865778E-10 -4.968396E-10
       318  17  2.610358E+06  3.748018E+03  9.385989E+03 -3.308433E+03 -1.476784E-09  1.700242E-10
       318  18  2.575038E+06 -4.140667E+03  3.713586E+03 -1.958758E+04 -1.187130E-09 -3.548230E-11
       318  19  2.543502E+06 -1.264219E+04 -7.559887E+03 -1.957402E+04 -5.201672E+02 -1.743628E+03
       318  20  2.578819E+06 -4.071108E+03  1.739170E+03 -3.294622E+03  2.257113E+03 -4.059627E+02
       318  21  2.614767E+06  5.665002E+03  1.312735E+04 -1.979310E+04  5.034564E+03  9.203736E+02
       318  22  2.594904E+06  7.920356E+01  4.790873E+03 -1.969054E+04  2.988970E+01 -1.743768E+03
       318  23  2.594588E+06 -1.615346E+02  5.562599E+03 -3.301528E+03  2.802633E+03 -4.061095E+02
       318  24  2.594902E+06  7.621871E+02  8.420518E+03 -1.969034E+04  5.575390E+03  9.202167E+02
       318  25  2.646308E+06  1.280041E+04  1.714145E+04 -1.980707E+04  5.799918E+02 -1.743909E+03
       318  26  2.610358E+06  3.748021E+03  9.386010E+03 -3.308434E+03  3.348166E+03 -4.062564E+02
       318  27  2.575039E+06 -4.140656E+03  3.713658E+03 -1.958758E+04  6.116199E+03  9.200601E+02
       319   1  2.677670E+06  2.012665E+04  3.053759E+04 -1.899245E+04 -6.718060E+03 -1.706122E+03
       319   2  2.712421E+06  2.821197E+04  4.598678E+04 -3.336082E+03 -1.543793E+04 -3.055352E+03
       319   3  2.750467E+06  4.491583E+04  6.925112E+04 -2.116326E+04 -2.415812E+04 -4.357114E+03
       319   4  2.595493E+06 -2.664548E+02  1.050706E+04 -1.984767E+04 -7.280118E+03 -1.705973E+03
       319   5  2.593836E+06 -1.184686E+03  1.724030E+04 -3.105329E+03 -1.597909E+04 -3.055302E+03
       319   6  2.595471E+06  6.513062E+03  3.177548E+04 -1.984686E+04 -2.467788E+04 -4.357183E+03
       319   7  2.513322E+06 -2.066005E+04 -9.523958E+03 -2.070278E+04 -7.842103E+03 -1.705823E+03
       319   8  2.475265E+06 -3.058237E+04 -1.150720E+04 -2.874620E+03 -1.652015E+04 -3.055252E+03
       319   9  2.440496E+06 -3.189145E+04 -5.701888E+03 -1.853078E+04 -2.519751E+04 -4.357255E+03
       319  10  2.677670E+06  2.012663E+04  3.053750E+04 -1.899246E+04 -8.322985E-10  1.493157E-10
       319  11  2.712421E+06  2.821189E+04  4.598632E+04 -3.336119E+03 -2.089853E-10 -1.340303E-10
       319  12  2.750466E+06  4.491566E+04  6.925000E+04 -2.116335E+04 -2.384995E-10  2.004548E-10
       319  13  2.595493E+06 -2.664721E+02  1.050695E+04 -1.984768E+04  1.508456E-09 -1.152960E-10
       319  14  2.593836E+06 -1.184764E+03  1.723980E+04 -3.105368E+03  1.173356E-09 -2.789234E-10
       319  15  2.595470E+06  6.512878E+03  3.177430E+04 -1.984694E+04  1.960410E-10  3.475684E-10
       319  16  2.513321E+06 -2.066007E+04 -9.524079E+03 -2.070279E+04 -4.377398E-10  1.253408E-11
       319  17  2.475264E+06 -3.058245E+04 -1.150773E+04 -2.874661E+03  1.072066E-09 -1.823157E-10
       319  18  2.440496E+06 -3.189164E+04 -5.703112E+03 -1.853087E+04  1.442334E-09  3.246718E-10
       319  19  2.677670E+06  2.012665E+04  3.053759E+04 -1.899245E+04  6.718060E+03  1.706122E+03
       319  20  2.712421E+06  2.821197E+04  4.598678E+04 -3.336082E+03  1.543793E+04  3.055352E+03
       319  21  2.750467E+06  4.491583E+04  6.925112E+04 -2.116326E+04  2.415812E+04  4.357114E+03
       319  22  2.595493E+06 -2.664548E+02  1.050706E+04 -1.984767E+04  7.280118E+03  1.705973E+03
       319  23  2.593836E+06 -1.184686E+03  1.724030E+04 -3.105329E+03  1.597909E+04  3.055302E+03
       319  24  2.595471E+06  6.513062E+03  3.177548E+04 -1.984686E+04  2.467788E+04  4.357183E+03
       319  25  2.513322E+06 -2.066005E+04 -9.523958E+03 -2.070278E+04  7.842103E+03  1.705823E+03
       319  26  2.475265E+06 -3.058237E+04 -1.150720E+04 -2.874620E+03  1.652015E+04  3.055252E+03
       319  27  2.440496E+06 -3.189145E+04 -5.701888E+03 -1.853078E+04  2.519751E+04  4.357255E+03
       320   1  2.820193E+06  5.210423E+04  9.378409E+04 -1.362474E+04 -3.034603E+04 -5.300827E+03
       320   2  2.848091E+06  5.464420E+04  1.295986E+05 -5.673521E+03 -6.511947E+04 -6.759908E+03
       320   3  2.898614E+06  1.292075E+05  2.060119E+05 -3.382282E+04 -9.989531E+04 -7.426325E+03
       320   4  2.599764E+06 -2.555765E+03  4.025146E+04 -2.042398E+04 -3.109731E+04 -5.300602E+03
       320   5  2.588422E+06 -9.717184E+03  6.667212E+04 -2.382772E+03 -6.553379E+04 -6.760515E+03
       320   6  2.599658E+06  5.510325E+04  1.334715E+05 -2.044243E+04 -9.997048E+04 -7.428738E+03
       320   7  2.379378E+06 -5.721914E+04 -1.328465E+04 -2.722080E+04 -3.184833E+04 -5.300361E+03
       320   8  2.328815E+06 -7.408346E+04  3.740843E+03  9.065994E+02 -6.594793E+04 -6.761126E+03
       320   9  2.300784E+06 -1.900687E+04  6.092485E+04 -7.068480E+03 -1.000456E+05 -7.431155E+03
       320  10  2.820192E+06  5.210395E+04  9.378232E+04 -1.362487E+04  1.347578E-09  5.205673E-10
       320  11  2.848086E+06  5.464302E+04  1.295905E+05 -5.673875E+03 -1.177159E-10 -4.241462E-10
       320  12  2.898603E+06  1.292048E+05  2.059931E+05 -3.382342E+04 -7.429860E-10 -2.013673E-10
       320  13  2.599762E+06 -2.556054E+03  4.024960E+04 -2.042411E+04  1.715619E-15 -2.719211E-11
       320  14  2.588417E+06 -9.718380E+03  6.666400E+04 -2.383129E+03 -1.315073E-10 -5.078746E-10
       320  15  2.599647E+06  5.510052E+04  1.334527E+05 -2.044303E+04 -1.681567E-10 -2.115704E-10
       320  16  2.379377E+06 -5.721944E+04 -1.328660E+04 -2.722094E+04 -2.572288E-10 -6.090724E-10
       320  17  2.328810E+06 -7.408467E+04  3.732615E+03  9.062406E+02  6.637427E-10 -4.170678E-10
       320  18  2.300773E+06 -1.900960E+04  6.090601E+04 -7.069079E+03  2.728038E-10  2.429512E-10
       320  19  2.820193E+06  5.210423E+04  9.378409E+04 -1.362474E+04  3.034603E+04  5.300827E+03
       320  20  2.848091E+06  5.464420E+04  1.295986E+05 -5.673521E+03  6.511947E+04  6.759908E+03
       320  21  2.898614E+06  1.292075E+05  2.060119E+05 -3.382282E+04  9.989531E+04  7.426325E+03
       320  22  2.599764E+06 -2.555765E+03  4.025146E+04 -2.042398E+04  3.109731E+04  5.300602E+03
       320  23  2.588422E+06 -9.717184E+03  6.667212E+04 -2.382772E+03  6.553379E+04  6.760515E+03
       320  24  2.599658E+06  5.510325E+04  1.334715E+05 -2.044243E+04  9.997048E+04  7.428738E+03
       320  25  2.379378E+06 -5.721914E+04 -1.328465E+04 -2.722080E+04  3.184833E+04  5.300361E+03
       320  26  2.328815E+06 -7.408346E+04  3.740843E+03  9.065994E+02  6.594793E+04  6.761126E+03
       320  27  2.300784E+06 -1.900687E+04  6.092485E+04 -7.068480E+03  1.000456E+05  7.431155E+03
       321   1  3.003203E+06  7.026185E+04  2.526808E+05  3.313382E+04 -1.232900E+05 -9.736219E+03
       321   2  2.963200E+06  2.293859E+04  3.565900E+05 -3.474181E+04 -2.659637E+05 -1.160058E+04
       321   3  3.091815E+06  5.753053E+05  7.031063E+05 -1.437310E+05 -4.086495E+05 -4.287912E+03
       321   4  2.632120E+06 -2.178012E+04  1.627603E+05 -2.139229E+04 -1.258482E+05 -9.727131E+03
       321   5  2.547799E+06 -7.992311E+04  2.561096E+05 -1.095518E+03 -2.646981E+05 -1.161448E+04
       321   6  2.631536E+06  4.611495E+05  5.895327E+05 -2.189769E+04 -4.035491E+05 -4.362470E+03
       321   7  2.261168E+06 -1.138211E+05  7.283148E+04 -7.588587E+04 -1.284048E+05 -9.717590E+03
       321   8  2.132557E+06 -1.827931E+05  1.556174E+05  3.252825E+04 -2.634333E+05 -1.162826E+04
       321   9  2.171481E+06  3.470336E+05  4.759515E+05  9.984559E+04 -3.984523E+05 -4.435085E+03
       321  10  3.003187E+06  7.025770E+04  2.526522E+05  3.313285E+04 -4.709487E-10 -7.542708E-11
       321  11  2.963125E+06  2.291957E+04  3.564575E+05 -3.474429E+04 -2.696307E-10 -2.848085E-10
       321  12  3.091636E+06  5.752607E+05  7.027940E+05 -1.437324E+05 -4.982405E-10  3.338139E-10
       321  13  2.632103E+06 -2.178445E+04  1.627305E+05 -2.139328E+04 -1.814733E-09 -6.217344E-10
       321  14  2.547724E+06 -7.994196E+04  2.559782E+05 -1.097991E+03 -1.832308E-09 -7.711127E-11
       321  15  2.631362E+06  4.611060E+05  5.892279E+05 -2.189911E+04  3.450346E-10 -4.608600E-10
       321  16  2.261151E+06 -1.138256E+05  7.280043E+04 -7.588687E+04 -1.124487E-09  6.924372E-11
       321  17  2.132482E+06 -1.828118E+05  1.554872E+05  3.252579E+04 -1.224624E-09 -4.845446E-10
       321  18  2.171311E+06  3.469912E+05  4.756542E+05  9.984417E+04  1.088974E-09  9.925561E-10
       321  19  3.003203E+06  7.026185E+04  2.526808E+05  3.313382E+04  1.232900E+05  9.736219E+03
       321  20  2.963200E+06  2.293859E+04  3.565900E+05 -3.474181E+04  2.659637E+05  1.160058E+04
       321  21  3.091815E+06  5.753053E+05  7.031063E+05 -1.437310E+05  4.086495E+05  4.287912E+03
       321  22  2.632120E+06 -2.178012E+04  1.627603E+05 -2.139229E+04  1.258482E+05  9.727131E+03
       321  23  2.547799E+06 -7.992311E+04  2.561096E+05 -1.095518E+03  2.646981E+05  1.161448E+04
       321  24  2.631536E+06  4.611495E+05  5.895327E+05 -2.189769E+04  4.035491E+05  4.362470E+03
       321  25  2.261168E+06 -1.138211E+05  7.283148E+04 -7.588587E+04  1.284048E+05  9.717590E+03
       321  26  2.132557E+06 -1.827931E+05  1.556174E+05  3.252825E+04  2.634333E+05  1.162826E+04
       321  27  2.171481E+06  3.470336E+05  4.759515E+05  9.984559E+04  3.984523E+05  4.435085E+03
       322   1  1.407591E+05  2.039465E+05  2.116903E+05 -6.811165E+04 -4.426001E+03  2.070024E+05
       322   2 -1.521322E+05  1.547840E+05  3.701027E+04 -1.911697E+04 -1.221399E+04  1.329310E+05
       322   3 -1.188205E+05  1.971333E+05 -7.825594E+03  2.688672E+04 -1.198065E+04  5.887774E+04
       322   4  2.485651E+05  6.379791E+05  3.190282E+05 -2.868307E+03 -4.416946E+03  2.120090E+05
       322   5 -4.360515E+04  5.919978E+05  1.430821E+05 -1.700338E+03 -1.221343E+04  1.346123E+05
       322   6 -9.125035E+03  6.380408E+05  9.922515E+04 -3.520203E+03 -1.197967E+04  5.723375E+04
       322   7  3.563732E+05  1.072192E+06  4.263544E+05  6.242077E+04 -4.406848E+03  2.170191E+05
       322   8  6.490911E+04  1.029387E+06  2.491404E+05  1.572869E+04 -1.221277E+04  1.362947E+05
       322   9  1.005596E+05  1.079128E+06  2.062623E+05 -3.394869E+04 -1.197853E+04  5.558857E+04
       322  10  1.407476E+05  2.039005E+05  2.116098E+05 -6.811091E+04  5.941935E-10 -2.027863E-09
       322  11 -1.521371E+05  1.547650E+05  3.697680E+04 -1.911566E+04  9.266258E-10 -4.406567E-09
       322  12 -1.188216E+05  1.971295E+05 -7.832376E+03  2.688729E+04  6.829571E-10 -4.966577E-12
       322  13  2.485530E+05  6.379309E+05  3.189437E+05 -2.867553E+03  1.144407E-09  1.580627E-09
       322  14 -4.361016E+04  5.919783E+05  1.430478E+05 -1.699014E+03 -2.337426E-09  1.560841E-09
       322  15 -9.126067E+03  6.380373E+05  9.921873E+04 -3.519651E+03  1.283004E-10  6.103725E-10
       322  16  3.563605E+05  1.072142E+06  4.262660E+05  6.242154E+04  4.016243E-11  1.633571E-09
       322  17  6.490398E+04  1.029367E+06  2.491053E+05  1.573003E+04 -1.804294E-09 -4.970573E-10
       322  18  1.005586E+05  1.079124E+06  2.062563E+05 -3.394815E+04 -7.730935E-10  3.028465E-10
       322  19  1.407591E+05  2.039465E+05  2.116903E+05 -6.811165E+04  4.426001E+03 -2.070024E+05
       322  20 -1.521322E+05  1.547840E+05  3.701027E+04 -1.911697E+04  1.221399E+04 -1.329310E+05
       322  21 -1.188205E+05  1.971333E+05 -7.825594E+03  2.688672E+04  1.198065E+04 -5.887774E+04
       322  22  2.485651E+05  6.379791E+05  3.190282E+05 -2.868307E+03  4.416946E+03 -2.120090E+05
       322  23 -4.360515E+04  5.919978E+05  1.430821E+05 -1.700338E+03  1.221343E+04 -1.346123E+05
       322  24 -9.125035E+03  6.380408E+05  9.922515E+04 -3.520203E+03  1.197967E+04 -5.723375E+04
       322  25  3.563732E+05  1.072192E+06  4.263544E+05  6.242077E+04  4.406848E+03 -2.170191E+05
       322  26  6.490911E+04  1.029387E+06  2.491404E+05  1.572869E+04  1.221277E+04 -1.362947E+05
       322  27  1.005596E+05  1.079128E+06  2.062623E+05 -3.394869E+04  1.197853E+04 -5.558857E+04
       323   1 -8.288999E+04  1.732827E+05 -2.230386E+04 -1.308073E+04 -1.098260E+04  4.022828E+04
       323   2 -1.220860E+05  1.572879E+05 -4.874932E+04 -1.252414E+03 -1.186458E+04  9.039176E+03
       323   3 -9.355677E+04  1.626219E+05 -3.788902E+04  5.710839E+03 -1.118495E+04 -2.214711E+04
       323   4  2.870140E+04  6.223334E+05  8.700120E+04 -3.712532E+03 -1.098274E+04  4.095066E+04
       323   5 -9.178724E+03  6.116205E+05  6.163670E+04 -1.292186E+03 -1.186410E+04  9.103593E+03
       323   6  2.075346E+04  6.223357E+05  7.401617E+04 -3.736621E+03 -1.118342E+04 -2.274091E+04
       323   7  1.402783E+05  1.071568E+06  1.962917E+05  5.662539E+03 -1.098285E+04  4.167354E+04
       323   8  1.037134E+05  1.066141E+06  1.720078E+05 -1.331920E+03 -1.186362E+04  9.168055E+03
       323   9  1.350485E+05  1.082242E+06  1.859061E+05 -1.319104E+04 -1.118188E+04 -2.333514E+04
       323  10 -8.289055E+04  1.732810E+05 -2.230712E+04 -1.308037E+04 -6.248918E-10 -8.815088E-10
       323  11 -1.220862E+05  1.572878E+05 -4.874974E+04 -1.252327E+03  7.600600E-11 -2.752604E-09
       323  12 -9.355704E+04  1.626213E+05 -3.789018E+04  5.710639E+03 -8.315762E-10 -6.623710E-10
       323  13  2.870083E+04  6.223315E+05  8.699783E+04 -3.712170E+03 -5.381703E-11  9.514072E-10
       323  14 -9.178898E+03  6.116204E+05  6.163628E+04 -1.292099E+03  8.455768E-10  8.852762E-10
       323  15  2.075319E+04  6.223351E+05  7.401497E+04 -3.736826E+03  8.879265E-10  6.846692E-10
       323  16  1.402777E+05  1.071566E+06  1.962882E+05  5.662908E+03  3.243654E-10  9.576359E-10
       323  17  1.037132E+05  1.066141E+06  1.720074E+05 -1.331832E+03 -1.018280E-09  2.792167E-10
       323  18  1.350482E+05  1.082242E+06  1.859048E+05 -1.319125E+04 -3.454845E-10  8.298369E-10
       323  19 -8.288999E+04  1.732827E+05 -2.230386E+04 -1.308073E+04  1.098260E+04 -4.022828E+04
       323  20 -1.220860E+05  1.572879E+05 -4.874932E+04 -1.252414E+03  1.186458E+04 -9.039176E+03
       323  21 -9.355677E+04  1.626219E+05 -3.788902E+04  5.710839E+03  1.118495E+04  2.214711E+04
       323  22  2.870140E+04  6.223334E+05  8.700120E+04 -3.712532E+03  1.098274E+04 -4.095066E+04
       323  23 -9.178724E+03  6.116205E+05  6.163670E+04 -1.292186E+03  1.186410E+04 -9.103593E+03
       323  24  2.075346E+04  6.223357E+05  7.401617E+04 -3.736621E+03  1.118342E+04  2.274091E+04
       323  25  1.402783E+05  1.071568E+06  1.962917E+05  5.662539E+03  1.098285E+04 -4.167354E+04
       323  26  1.037134E+05  1.066141E+06  1.720078E+05 -1.331920E+03  1.186362E+04 -9.168055E+03
       323  27  1.350485E+05  1.082242E+06  1.859061E+05 -1.319104E+04  1.118188E+04  2.333514E+04
       324   1 -1.221121E+05  1.624565E+05 -3.327631E+04 -2.621786E+04 -1.254668E+04 -3.836436E+04
       324   2 -1.514091E+05  1.209199E+05 -6.138929E+03  1.279330E+04 -1.298019E+04 -9.381250E+04
       324   3  6.415405E+04  1.482086E+05  1.184031E+05  4.553372E+04 -4.257785E+03 -1.492554E+05
       324   4 -5.242456E+03  6.330116E+05  8.095641E+04 -4.076549E+03 -1.254932E+04 -3.631787E+04
       324   5 -3.278772E+04  5.982727E+05  1.096918E+05 -9.117915E+02 -1.297653E+04 -9.554419E+04
       324   6  1.850782E+05  6.329614E+05  2.384018E+05 -4.018644E+03 -4.244537E+03 -1.547663E+05
       324   7  1.116128E+05  1.103770E+06  1.951734E+05  1.808163E+04 -1.255182E+04 -3.426982E+04
       324   8  8.581763E+04  1.075834E+06  2.255062E+05 -1.462742E+04 -1.297279E+04 -9.727718E+04
       324   9  3.059940E+05  1.117933E+06  3.583845E+05 -5.360972E+04 -4.230419E+03 -1.602815E+05
       324  10 -1.221126E+05  1.624548E+05 -3.327937E+04 -2.621825E+04 -1.230491E-10 -3.204373E-09
       324  11 -1.514116E+05  1.209104E+05 -6.155780E+03  1.279232E+04  3.401439E-10 -1.276585E-09
       324  12  6.414805E+04  1.481847E+05  1.183612E+05  4.553321E+04 -2.838231E-11  1.924840E-09
       324  13 -5.242979E+03  6.330101E+05  8.095363E+04 -4.076916E+03 -5.263039E-10  8.576443E-10
       324  14 -3.279035E+04  5.982629E+05  1.096743E+05 -9.127897E+02 -2.240426E-10  6.030627E-10
       324  15  1.850718E+05  6.329357E+05  2.383568E+05 -4.019173E+03 -2.158558E-10  1.358294E-10
       324  16  1.116123E+05  1.103769E+06  1.951709E+05  1.808129E+04  3.890061E-10  2.962356E-09
       324  17  8.581492E+04  1.075824E+06  2.254881E+05 -1.462843E+04 -5.382469E-10  3.141072E-10
       324  18  3.059871E+05  1.117905E+06  3.583362E+05 -5.361026E+04 -2.654157E-10 -1.724886E-09
       324  19 -1.221121E+05  1.624565E+05 -3.327631E+04 -2.621786E+04  1.254668E+04  3.836436E+04
       324  20 -1.514091E+05  1.209199E+05 -6.138929E+03  1.279330E+04  1.298019E+04  9.381250E+04
       324  21  6.415405E+04  1.482086E+05  1.184031E+05  4.553372E+04  4.257785E+03  1.492554E+05
       324  22 -5.242456E+03  6.330116E+05  8.095641E+04 -4.076549E+03  1.254932E+04  3.631787E+04
       324  23 -3.278772E+04  5.982727E+05  1.096918E+05 -9.117915E+02  1.297653E+04  9.554419E+04
       324  24  1.850782E+05  6.329614E+05  2.384018E+05 -4.018644E+03  4.244537E+03  1.547663E+05
       324  25  1.116128E+05  1.103770E+06  1.951734E+05  1.808163E+04  1.255182E+04  3.426982E+04
       324  26  8.581763E+04  1.075834E+06  2.255062E+05 -1.462742E+04  1.297279E+04  9.727718E+04
       324  27  3.059940E+05  1.117933E+06  3.583845E+05 -5.360972E+04  4.230419E+03  1.602815E+05
       325   1 -3.093486E+06 -1.134287E+06 -6.028948E+05 -1.161797E+06 -2.872824E+05 -8.250474E+04
       325   2 -3.023237E+06 -9.049852E+05 -3.870998E+05 -1.130796E+06 -1.858994E+05  1.806601E+04
       325   3 -3.001116E+06 -7.983514E+05 -2.927956E+05 -1.086422E+06 -7.061656E+04  8.198637E+04
       325   4 -1.685818E+06 -4.862102E+05 -2.210064E+05 -6.539966E+05 -1.521778E+05 -3.152803E+04
       325   5 -1.656470E+06 -3.475062E+05 -1.040454E+05 -6.923962E+05 -1.187809E+05  4.336948E+04
       325   6 -1.661619E+06 -3.178135E+05 -5.438163E+04 -7.174564E+05 -7.151882E+04  8.162209E+04
       325   7 -2.761616E+05  1.622989E+05  1.607740E+05 -1.450505E+05 -1.674110E+04  1.963920E+04
       325   8 -2.877479E+05  2.102657E+05  1.789304E+05 -2.530526E+05 -5.150353E+04  6.874828E+04
       325   9 -3.201990E+05  1.628957E+05  1.839791E+05 -3.477422E+05 -7.242313E+04  8.125709E+04
       325  10 -3.093577E+06 -1.134316E+06 -6.030636E+05 -1.161816E+06  2.082551E-09  1.204554E-09
       325  11 -3.023274E+06 -9.049949E+05 -3.871656E+05 -1.130794E+06 -3.379723E-10  1.117211E-09
       325  12 -3.001124E+06 -7.983600E+05 -2.928176E+05 -1.086418E+06 -1.284546E-09  1.922871E-10
       325  13 -1.685843E+06 -4.862175E+05 -2.210519E+05 -6.540005E+05  1.450393E-09  1.087010E-09
       325  14 -1.656485E+06 -3.475120E+05 -1.040755E+05 -6.923921E+05 -4.798555E-10  2.166861E-09
       325  15 -1.661626E+06 -3.178221E+05 -5.440375E+04 -7.174517E+05 -8.523960E-10 -5.474574E-10
       325  16 -2.761620E+05  1.622984E+05  1.607728E+05 -1.450502E+05 -5.115090E-10 -2.369917E-10
       325  17 -2.877520E+05  2.102599E+05  1.789166E+05 -2.530497E+05  4.562291E-10 -3.468808E-09
       325  18 -3.202064E+05  1.628872E+05  1.839569E+05 -3.477374E+05  9.792346E-10  1.582560E-09
       325  19 -3.093486E+06 -1.134287E+06 -6.028948E+05 -1.161797E+06  2.872824E+05  8.250474E+04
       325  20 -3.023237E+06 -9.049852E+05 -3.870998E+05 -1.130796E+06  1.858994E+05 -1.806601E+04
       325  21 -3.001116E+06 -7.983514E+05 -2.927956E+05 -1.086422E+06  7.061656E+04 -8.198637E+04
       325  22 -1.685818E+06 -4.862102E+05 -2.210064E+05 -6.539966E+05  1.521778E+05  3.152803E+04
       325  23 -1.656470E+06 -3.475062E+05 -1.040454E+05 -6.923962E+05  1.187809E+05 -4.336948E+04
       325  24 -1.661619E+06 -3.178135E+05 -5.438163E+04 -7.174564E+05  7.151882E+04 -8.162209E+04
       325  25 -2.761616E+05  1.622989E+05  1.607740E+05 -1.450505E+05  1.674110E+04 -1.963920E+04
       325  26 -2.877479E+05  2.102657E+05  1.789304E+05 -2.530526E+05  5.150353E+04 -6.874828E+04
       325  27 -3.201990E+05  1.628957E+05  1.839791E+05 -3.477422E+05  7.242313E+04 -8.125709E+04
       326   1 -2.934603E+06 -7.860568E+05 -2.663008E+05 -1.079025E+06 -6.722401E+04  8.192445E+04
       326   2 -2.860822E+06 -7.400410E+05 -2.257315E+05 -1.050496E+06 -4.963782E+04  8.792115E+04
       326   3 -2.780231E+06 -7.132559E+05 -2.000766E+05 -1.034072E+06 -3.070279E+04  9.033747E+04
       326   4 -1.654946E+06 -3.173355E+05 -4.069997E+04 -7.156328E+05 -6.496901E+04  8.275118E+04
       326   5 -1.658286E+06 -3.035802E+05 -2.133487E+04 -7.113700E+05 -5.400814E+04  8.625200E+04
       326   6 -1.653496E+06 -3.077262E+05 -1.159683E+04 -7.192141E+05 -4.170239E+04  8.617529E+04
       326   7 -3.735472E+05  1.515562E+05  1.848495E+05 -3.515331E+05 -6.270902E+04  8.357987E+04
       326   8 -4.542112E+05  1.330272E+05  1.830212E+05 -3.716267E+05 -5.838748E+04  8.457946E+04
       326   9 -5.254136E+05  9.792607E+04  1.768483E+05 -4.038217E+05 -5.272317E+04  8.200522E+04
       326  10 -2.934610E+06 -7.860652E+05 -2.663219E+05 -1.079021E+06  5.550109E-10  7.400969E-10
       326  11 -2.860827E+06 -7.400499E+05 -2.257507E+05 -1.050492E+06 -3.122241E-09  6.361428E-10
       326  12 -2.780234E+06 -7.132649E+05 -2.000937E+05 -1.034070E+06 -8.608171E-10  7.735755E-10
       326  13 -1.654952E+06 -3.173440E+05 -4.072076E+04 -7.156285E+05 -2.229877E-09  4.585371E-10
       326  14 -1.658291E+06 -3.035889E+05 -2.135432E+04 -7.113663E+05 -1.886566E-10  3.944114E-10
       326  15 -1.653500E+06 -3.077346E+05 -1.161404E+04 -7.192112E+05  3.821642E-09  3.501136E-09
       326  16 -3.735533E+05  1.515476E+05  1.848290E+05 -3.515289E+05 -3.203752E-09  6.737404E-10
       326  17 -4.542167E+05  1.330186E+05  1.830013E+05 -3.716227E+05  2.226275E-09  6.771767E-10
       326  18 -5.254184E+05  9.791811E+04  1.768304E+05 -4.038182E+05  9.515129E-09  4.854368E-09
       326  19 -2.934603E+06 -7.860568E+05 -2.663008E+05 -1.079025E+06  6.722401E+04 -8.192445E+04
       326  20 -2.860822E+06 -7.400410E+05 -2.257315E+05 -1.050496E+06  4.963782E+04 -8.792115E+04
       326  21 -2.780231E+06 -7.132559E+05 -2.000766E+05 -1.034072E+06  3.070279E+04 -9.033747E+04
       326  22 -1.654946E+06 -3.173355E+05 -4.069997E+04 -7.156328E+05  6.496901E+04 -8.275118E+04
       326  23 -1.658286E+06 -3.035802E+05 -2.133487E+04 -7.113700E+05  5.400814E+04 -8.625200E+04
       326  24 -1.653496E+06 -3.077262E+05 -1.159683E+04 -7.192141E+05  4.170239E+04 -8.617529E+04
       326  25 -3.735472E+05  1.515562E+05  1.848495E+05 -3.515331E+05  6.270902E+04 -8.357987E+04
       326  26 -4.542112E+05  1.330272E+05  1.830212E+05 -3.716267E+05  5.838748E+04 -8.457946E+04
       326  27 -5.254136E+05  9.792607E+04  1.768483E+05 -4.038217E+05  5.272317E+04 -8.200522E+04
       327   1 -2.728314E+06 -6.953705E+05 -1.880006E+05 -1.020330E+06 -2.805273E+04  8.729525E+04
       327   2 -2.654606E+06 -6.601190E+05 -1.702674E+05 -9.912531E+05 -2.274450E+04  8.249237E+04
       327   3 -2.569380E+06 -6.373441E+05 -1.549101E+05 -9.758234E+05 -1.730221E+04  7.732089E+04
       327   4 -1.652881E+06 -3.077669E+05 -8.702511E+03 -7.190685E+05 -3.878060E+04  8.323848E+04
       327   5 -1.658638E+06 -3.013623E+05 -4.774022E+03 -7.123184E+05 -3.415244E+04  7.818438E+04
       327   6 -1.652752E+06 -3.072983E+05 -2.680154E+03 -7.192173E+05 -2.939080E+04  7.276185E+04
       327   7 -5.761956E+05  7.995859E+04  1.705711E+05 -4.173117E+05 -4.952840E+04  7.917424E+04
       327   8 -6.616010E+05  5.749740E+04  1.606976E+05 -4.329606E+05 -4.557996E+04  7.386905E+04
       327   9 -7.352232E+05  2.283289E+04  1.495304E+05 -4.622541E+05 -4.149841E+04  6.819568E+04
       327  10 -2.728317E+06 -6.953789E+05 -1.880164E+05 -1.020328E+06  1.047681E-08  3.567672E-09
       327  11 -2.654608E+06 -6.601264E+05 -1.702811E+05 -9.912515E+05  3.715771E-09 -1.048843E-09
       327  12 -2.569382E+06 -6.373506E+05 -1.549219E+05 -9.758224E+05 -1.224382E-09 -1.108260E-09
       327  13 -1.652884E+06 -3.077748E+05 -8.718343E+03 -7.190659E+05  5.210136E-09  1.336468E-09
       327  14 -1.658641E+06 -3.013692E+05 -4.787688E+03 -7.123162E+05  1.069268E-09  3.204238E-10
       327  15 -1.652755E+06 -3.073042E+05 -2.691716E+03 -7.192156E+05 -9.492458E-10  1.868154E-10
       327  16 -5.761999E+05  7.995121E+04  1.705548E+05 -4.173085E+05 -1.307047E-09  1.228421E-09
       327  17 -6.616046E+05  5.749099E+04  1.606835E+05 -4.329579E+05 -2.681786E-09  1.889502E-09
       327  18 -7.352263E+05  2.282744E+04  1.495184E+05 -4.622518E+05 -1.242076E-10  6.918546E-10
       327  19 -2.728314E+06 -6.953705E+05 -1.880006E+05 -1.020330E+06  2.805273E+04 -8.729525E+04
       327  20 -2.654606E+06 -6.601190E+05 -1.702674E+05 -9.912531E+05  2.274450E+04 -8.249237E+04
       327  21 -2.569380E+06 -6.373441E+05 -1.549101E+05 -9.758234E+05  1.730221E+04 -7.732089E+04
       327  22 -1.652881E+06 -3.077669E+05 -8.702511E+03 -7.190685E+05  3.878060E+04 -8.323848E+04
       327  23 -1.658638E+06 -3.013623E+05 -4.774022E+03 -7.123184E+05  3.415244E+04 -7.818438E+04
       327  24 -1.652752E+06 -3.072983E+05 -2.680154E+03 -7.192173E+05  2.939080E+04 -7.276185E+04
       327  25 -5.761956E+05  7.995859E+04  1.705711E+05 -4.173117E+05  4.952840E+04 -7.917424E+04
       327  26 -6.616010E+05  5.749740E+04  1.606976E+05 -4.329606E+05  4.557996E+04 -7.386905E+04
       327  27 -7.352232E+05  2.283289E+04  1.495304E+05 -4.622541E+05  4.149841E+04 -6.819568E+04
       328   1 -2.518164E+06 -6.188886E+05 -1.453916E+05 -9.615625E+05 -1.547768E+04  7.366893E+04
       328   2 -2.443972E+06 -5.839099E+05 -1.314302E+05 -9.321756E+05 -1.227995E+04  6.741454E+04
       328   3 -2.357720E+06 -5.610424E+05 -1.180034E+05 -9.166021E+05 -9.066723E+03  6.110754E+04
       328   4 -1.652646E+06 -3.073093E+05 -2.062110E+03 -7.192203E+05 -2.756862E+04  6.911173E+04
       328   5 -1.658655E+06 -3.012202E+05 -1.291268E+03 -7.123197E+05 -2.446736E+04  6.282516E+04
       328   6 -1.652593E+06 -3.072235E+05 -9.791639E+02 -7.192347E+05 -2.135069E+04  5.648594E+04
       328   7 -7.863336E+05  4.342656E+03  1.412477E+05 -4.765623E+05 -3.967740E+04  6.454785E+04
       328   8 -8.726770E+05 -1.846783E+04  1.288337E+05 -4.922017E+05 -3.667120E+04  5.822961E+04
       328   9 -9.469248E+05 -5.335127E+04  1.160359E+05 -5.216539E+05 -3.364966E+04  5.185871E+04
       328  10 -2.518165E+06 -6.188945E+05 -1.454023E+05 -9.615616E+05  3.902517E-10  4.949968E-10
       328  11 -2.443973E+06 -5.839149E+05 -1.314390E+05 -9.321750E+05  1.659814E-10 -1.859034E-10
       328  12 -2.357721E+06 -5.610464E+05 -1.180105E+05 -9.166017E+05 -5.994663E-10 -7.427688E-10
       328  13 -1.652648E+06 -3.073146E+05 -2.072505E+03 -7.192187E+05  6.993075E-11  8.409549E-10
       328  14 -1.658657E+06 -3.012246E+05 -1.299803E+03 -7.123185E+05  7.147229E-10 -2.264623E-11
       328  15 -1.652594E+06 -3.072271E+05 -9.860101E+02 -7.192337E+05  2.990038E-10 -3.189027E-10
       328  16 -7.863364E+05  4.337765E+03  1.412369E+05 -4.765602E+05 -1.011071E-09 -5.483837E-10
       328  17 -8.726794E+05 -1.847183E+04  1.288248E+05 -4.922000E+05 -1.558404E-11  4.958587E-10
       328  18 -9.469268E+05 -5.335446E+04  1.160287E+05 -5.216525E+05  8.318849E-10  2.773793E-10
       328  19 -2.518164E+06 -6.188886E+05 -1.453916E+05 -9.615625E+05  1.547768E+04 -7.366893E+04
       328  20 -2.443972E+06 -5.839099E+05 -1.314302E+05 -9.321756E+05  1.227995E+04 -6.741454E+04
       328  21 -2.357720E+06 -5.610424E+05 -1.180034E+05 -9.166021E+05  9.066723E+03 -6.110754E+04
       328  22 -1.652646E+06 -3.073093E+05 -2.062110E+03 -7.192203E+05  2.756862E+04 -6.911173E+04
       328  23 -1.658655E+06 -3.012202E+05 -1.291268E+03 -7.123197E+05  2.446736E+04 -6.282516E+04
       328  24 -1.652593E+06 -3.072235E+05 -9.791639E+02 -7.192347E+05  2.135069E+04 -5.648594E+04
       328  25 -7.863336E+05  4.342656E+03  1.412477E+05 -4.765623E+05  3.967740E+04 -6.454785E+04
       328  26 -8.726770E+05 -1.846783E+04  1.288337E+05 -4.922017E+05  3.667120E+04 -5.822961E+04
       328  27 -9.469248E+05 -5.335127E+04  1.160359E+05 -5.216539E+05  3.364966E+04 -5.185871E+04
       329   1 -2.306201E+06 -5.424243E+05 -1.090529E+05 -9.022334E+05 -7.434485E+03  5.732527E+04
       329   2 -2.231452E+06 -5.072604E+05 -9.607745E+04 -8.726864E+05 -4.325232E+03  5.093076E+04
       329   3 -2.144580E+06 -4.842720E+05 -8.355264E+04 -8.570602E+05 -1.213955E+03  4.452234E+04
       329   4 -1.652562E+06 -3.072196E+05 -9.637207E+02 -7.192591E+05 -1.974073E+04  5.269738E+04
       329   5 -1.658599E+06 -3.010823E+05 -1.193421E+03 -7.123103E+05 -1.665663E+04  4.629644E+04
       329   6 -1.652514E+06 -3.071154E+05 -1.854766E+03 -7.192836E+05 -1.357059E+04  3.988158E+04
       329   7 -9.984658E+05 -7.197140E+04  1.071160E+05 -5.361034E+05 -3.206077E+04  4.806432E+04
       329   8 -1.085397E+06 -9.487197E+04  9.368255E+04 -5.517955E+05 -2.900006E+04  4.165760E+04
       329   9 -1.160194E+06 -1.299362E+05  7.983641E+04 -5.814056E+05 -2.593751E+04  3.523694E+04
       329  10 -2.306202E+06 -5.424278E+05 -1.090592E+05 -9.022330E+05 -1.315322E-09 -1.107647E-09
       329  11 -2.231453E+06 -5.072632E+05 -9.608235E+04 -8.726862E+05 -1.451813E-09 -4.755877E-11
       329  12 -2.144580E+06 -4.842742E+05 -8.355637E+04 -8.570601E+05 -6.034014E-10 -1.419708E-10
       329  13 -1.652564E+06 -3.072227E+05 -9.696661E+02 -7.192583E+05 -2.334552E-10 -1.336987E-10
       329  14 -1.658600E+06 -3.010846E+05 -1.197966E+03 -7.123096E+05  9.321979E-10  3.190994E-11
       329  15 -1.652515E+06 -3.071172E+05 -1.858098E+03 -7.192831E+05  6.825560E-10  7.253637E-11
       329  16 -9.984675E+05 -7.197416E+04  1.071097E+05 -5.361022E+05  1.952367E-09  7.019690E-10
       329  17 -1.085398E+06 -9.487406E+04  9.367771E+04 -5.517946E+05  1.241849E-09  5.453541E-10
       329  18 -1.160195E+06 -1.299377E+05  7.983282E+04 -5.814048E+05 -9.468322E-12  3.571097E-10
       329  19 -2.306201E+06 -5.424243E+05 -1.090529E+05 -9.022334E+05  7.434485E+03 -5.732527E+04
       329  20 -2.231452E+06 -5.072604E+05 -9.607745E+04 -8.726864E+05  4.325232E+03 -5.093076E+04
       329  21 -2.144580E+06 -4.842720E+05 -8.355264E+04 -8.570602E+05  1.213955E+03 -4.452234E+04
       329  22 -1.652562E+06 -3.072196E+05 -9.637207E+02 -7.192591E+05  1.974073E+04 -5.269738E+04
       329  23 -1.658599E+06 -3.010823E+05 -1.193421E+03 -7.123103E+05  1.665663E+04 -4.629644E+04
       329  24 -1.652514E+06 -3.071154E+05 -1.854766E+03 -7.192836E+05  1.357059E+04 -3.988158E+04
       329  25 -9.984658E+05 -7.197140E+04  1.071160E+05 -5.361034E+05  3.206077E+04 -4.806432E+04
       329  26 -1.085397E+06 -9.487197E+04  9.368255E+04 -5.517955E+05  2.900006E+04 -4.165760E+04
       329  27 -1.160194E+06 -1.299362E+05  7.983641E+04 -5.814056E+05  2.593751E+04 -3.523694E+04
       330   1 -2.092754E+06 -4.655906E+05 -7.510752E+04 -8.426931E+05  6.109615E+02  4.078846E+04
       330   2 -2.017494E+06 -4.302856E+05 -6.365872E+04 -8.129634E+05  5.159957E+03  3.491933E+04
       330   3 -1.930378E+06 -4.075275E+05 -5.381774E+04 -7.972224E+05  9.695696E+03  2.908102E+04
       330   4 -1.652557E+06 -3.071025E+05 -2.400323E+03 -7.193333E+05 -1.176593E+04  3.614155E+04
       330   5 -1.658481E+06 -3.009421E+05 -4.237796E+03 -7.122885E+05 -7.158977E+03  3.029601E+04
       330   6 -1.652571E+06 -3.073413E+05 -7.730300E+03 -7.192351E+05 -2.565570E+03  2.448120E+04
       330   7 -1.212147E+06 -1.485925E+05  7.030438E+04 -5.958896E+05 -2.415229E+04  3.149106E+04
       330   8 -1.299328E+06 -1.715846E+05  5.518132E+04 -6.115580E+05 -1.948556E+04  2.566981E+04
       330   9 -1.374681E+06 -2.071471E+05  3.835598E+04 -6.412148E+05 -1.483268E+04  1.987916E+04
       330  10 -2.092754E+06 -4.655924E+05 -7.511064E+04 -8.426931E+05  9.362676E-11 -3.085883E-10
       330  11 -2.017494E+06 -4.302869E+05 -6.366107E+04 -8.129635E+05 -2.195811E-10 -5.187558E-10
       330  12 -1.930378E+06 -4.075284E+05 -5.381951E+04 -7.972226E+05 -9.873074E-10 -2.066152E-10
       330  13 -1.652557E+06 -3.071039E+05 -2.403035E+03 -7.193329E+05  1.295959E-10 -2.024963E-10
       330  14 -1.658481E+06 -3.009431E+05 -4.239615E+03 -7.122883E+05 -1.121564E-09 -3.875901E-10
       330  15 -1.652571E+06 -3.073420E+05 -7.731438E+03 -7.192351E+05 -3.440933E-10  1.786789E-10
       330  16 -1.212148E+06 -1.485937E+05  7.030142E+04 -5.958890E+05 -7.718042E-11 -1.824341E-10
       330  17 -1.299328E+06 -1.715854E+05  5.517937E+04 -6.115576E+05  6.936161E-10 -1.578735E-10
       330  18 -1.374681E+06 -2.071476E+05  3.835482E+04 -6.412146E+05  4.026138E-10  7.827800E-10
       330  19 -2.092754E+06 -4.655906E+05 -7.510752E+04 -8.426931E+05 -6.109615E+02 -4.078846E+04
       330  20 -2.017494E+06 -4.302856E+05 -6.365872E+04 -8.129634E+05 -5.159957E+03 -3.491933E+04
       330  21 -1.930378E+06 -4.075275E+05 -5.381774E+04 -7.972224E+05 -9.695696E+03 -2.908102E+04
       330  22 -1.652557E+06 -3.071025E+05 -2.400323E+03 -7.193333E+05  1.176593E+04 -3.614155E+04
       330  23 -1.658481E+06 -3.009421E+05 -4.237796E+03 -7.122885E+05  7.158977E+03 -3.029601E+04
       330  24 -1.652571E+06 -3.073413E+05 -7.730300E+03 -7.192351E+05  2.565570E+03 -2.448120E+04
       330  25 -1.212147E+06 -1.485925E+05  7.030438E+04 -5.958896E+05  2.415229E+04 -3.149106E+04
       330  26 -1.299328E+06 -1.715846E+05  5.518132E+04 -6.115580E+05  1.948556E+04 -2.566981E+04
       330  27 -1.374681E+06 -2.071471E+05  3.835598E+04 -6.412148E+05  1.483268E+04 -1.987916E+04
       331   1 -1.878297E+06 -3.892555E+05 -4.733297E+04 -7.835178E+05  1.259922E+04  2.576643E+04
       331   2 -1.803888E+06 -3.533997E+05 -4.231917E+04 -7.505779E+05  2.377788E+04  2.264613E+04
       331   3 -1.720390E+06 -3.352043E+05 -4.528972E+04 -7.306182E+05  3.480215E+04  1.993796E+04
       331   4 -1.653045E+06 -3.073319E+05 -1.030607E+04 -7.194501E+05  2.921087E+02  2.115023E+04
       331   5 -1.658104E+06 -3.026228E+05 -1.893711E+04 -7.113858E+05  1.223806E+04  1.831831E+04
       331   6 -1.654234E+06 -3.157271E+05 -3.616191E+04 -7.163050E+05  2.402862E+04  1.589794E+04
       331   7 -1.427740E+06 -2.254035E+05  2.671966E+04 -6.553610E+05 -1.201962E+04  1.653225E+04
       331   8 -1.512297E+06 -2.518440E+05  4.445087E+03 -6.721850E+05  6.953699E+02  1.398949E+04
       331   9 -1.588072E+06 -2.962494E+05 -2.703343E+04 -7.019902E+05  1.325376E+04  1.185761E+04
       331  10 -1.878298E+06 -3.892563E+05 -4.733452E+04 -7.835181E+05  6.315658E-10  6.172738E-10
       331  11 -1.803889E+06 -3.534004E+05 -4.232121E+04 -7.505783E+05 -6.391200E-10  2.050868E-10
       331  12 -1.720392E+06 -3.352050E+05 -4.529275E+04 -7.306188E+05 -1.068618E-09 -5.118953E-11
       331  13 -1.653045E+06 -3.073324E+05 -1.030691E+04 -7.194501E+05 -3.595599E-10  6.297728E-10
       331  14 -1.658104E+06 -3.026232E+05 -1.893803E+04 -7.113860E+05  5.556968E-11  3.464340E-10
       331  15 -1.654235E+06 -3.157275E+05 -3.616347E+04 -7.163053E+05 -1.643693E-10  1.815325E-10
       331  16 -1.427740E+06 -2.254039E+05  2.671888E+04 -6.553609E+05 -7.704612E-10  4.317830E-10
       331  17 -1.512297E+06 -2.518442E+05  4.444718E+03 -6.721850E+05  1.459425E-10  2.915139E-10
       331  18 -1.588073E+06 -2.962496E+05 -2.703402E+04 -7.019903E+05  5.623971E-11  1.831276E-10
       331  19 -1.878297E+06 -3.892555E+05 -4.733297E+04 -7.835178E+05 -1.259922E+04 -2.576643E+04
       331  20 -1.803888E+06 -3.533997E+05 -4.231917E+04 -7.505779E+05 -2.377788E+04 -2.264613E+04
       331  21 -1.720390E+06 -3.352043E+05 -4.528972E+04 -7.306182E+05 -3.480215E+04 -1.993796E+04
       331  22 -1.653045E+06 -3.073319E+05 -1.030607E+04 -7.194501E+05 -2.921087E+02 -2.115023E+04
       331  23 -1.658104E+06 -3.026228E+05 -1.893711E+04 -7.113858E+05 -1.223806E+04 -1.831831E+04
       331  24 -1.654234E+06 -3.157271E+05 -3.616191E+04 -7.163050E+05 -2.402862E+04 -1.589794E+04
       331  25 -1.427740E+06 -2.254035E+05  2.671966E+04 -6.553610E+05  1.201962E+04 -1.653225E+04
       331  26 -1.512297E+06 -2.518440E+05  4.445087E+03 -6.721850E+05 -6.953699E+02 -1.398949E+04
       331  27 -1.588072E+06 -2.962494E+05 -2.703343E+04 -7.019902E+05 -1.325376E+04 -1.185761E+04
       332   1 -1.666676E+06 -3.239006E+05 -4.794032E+04 -7.259981E+05  4.195869E+04  1.852118E+04
       332   2 -1.622742E+06 -2.789355E+05 -7.500814E+04 -6.336114E+05  8.337828E+04  2.967863E+04
       332   3 -1.604580E+06 -3.329648E+05 -1.555843E+05 -5.334764E+05  1.231879E+05  4.514545E+04
       332   4 -1.659807E+06 -3.164564E+05 -4.832421E+04 -7.183225E+05  3.080608E+04  1.433991E+04
       332   5 -1.656739E+06 -3.411580E+05 -9.243015E+04 -6.940955E+05  8.022486E+04  2.848778E+04
       332   6 -1.681057E+06 -4.664684E+05 -1.964033E+05 -6.621288E+05  1.280296E+05  4.693476E+04
       332   7 -1.652938E+06 -3.090117E+05 -4.870750E+04 -7.106467E+05  1.965330E+04  1.015833E+04
       332   8 -1.690729E+06 -4.033638E+05 -1.098505E+05 -7.545729E+05  7.707169E+04  2.729766E+04
       332   9 -1.757497E+06 -5.998966E+05 -2.372153E+05 -7.907500E+05  1.328705E+05  4.872168E+04
       332  10 -1.666678E+06 -3.239015E+05 -4.794429E+04 -7.259987E+05 -1.413879E-09 -5.246157E-11
       332  11 -1.622749E+06 -2.789384E+05 -7.502290E+04 -6.336134E+05 -1.188076E-09  3.080945E-11
       332  12 -1.604597E+06 -3.329711E+05 -1.556167E+05 -5.334809E+05 -3.162008E-10  1.480072E-10
       332  13 -1.659808E+06 -3.164569E+05 -4.832638E+04 -7.183229E+05  8.761447E-10  5.398593E-10
       332  14 -1.656747E+06 -3.411607E+05 -9.244382E+04 -6.940974E+05  2.853073E-10  3.095932E-10
       332  15 -1.681075E+06 -4.664752E+05 -1.964384E+05 -6.621336E+05  1.267037E-10  1.444350E-10
       332  16 -1.652938E+06 -3.090119E+05 -4.870842E+04 -7.106469E+05  1.098199E-09  6.309801E-10
       332  17 -1.690736E+06 -4.033662E+05 -1.098631E+05 -7.545746E+05  6.617810E-10  5.294544E-10
       332  18 -1.757517E+06 -5.999039E+05 -2.372531E+05 -7.907552E+05 -8.125743E-10 -1.981223E-10
       332  19 -1.666676E+06 -3.239006E+05 -4.794032E+04 -7.259981E+05 -4.195869E+04 -1.852118E+04
       332  20 -1.622742E+06 -2.789355E+05 -7.500814E+04 -6.336114E+05 -8.337828E+04 -2.967863E+04
       332  21 -1.604580E+06 -3.329648E+05 -1.555843E+05 -5.334764E+05 -1.231879E+05 -4.514545E+04
       332  22 -1.659807E+06 -3.164564E+05 -4.832421E+04 -7.183225E+05 -3.080608E+04 -1.433991E+04
       332  23 -1.656739E+06 -3.411580E+05 -9.243015E+04 -6.940955E+05 -8.022486E+04 -2.848778E+04
       332  24 -1.681057E+06 -4.664684E+05 -1.964033E+05 -6.621288E+05 -1.280296E+05 -4.693476E+04
       332  25 -1.652938E+06 -3.090117E+05 -4.870750E+04 -7.106467E+05 -1.965330E+04 -1.015833E+04
       332  26 -1.690729E+06 -4.033638E+05 -1.098505E+05 -7.545729E+05 -7.707169E+04 -2.729766E+04
       332  27 -1.757497E+06 -5.998966E+05 -2.372153E+05 -7.907500E+05 -1.328705E+05 -4.872168E+04
       333   1  1.045588E+06  1.820194E+05  2.524885E+05  5.568904E+04  2.173620E+05  2.703246E+03
       333   2  1.022197E+06 -1.082265E+05  7.696248E+04  1.798288E+04  1.437832E+05  7.282543E+03
       333   3  1.090382E+06 -7.103532E+04  3.120029E+04 -4.030366E+04  7.020470E+04  6.296008E+03
       333   4  1.328118E+06  2.522210E+05  3.223387E+05 -1.077003E+04  2.204816E+05  2.683525E+03
       333   5  1.282233E+06 -4.372377E+04  1.399812E+05 -3.306370E+02  1.445936E+05  7.278872E+03
       333   6  1.328278E+06 -1.191393E+04  8.894633E+04 -1.047209E+04  6.870882E+04  6.298023E+03
       333   7  1.610731E+06  3.224332E+05  3.921853E+05 -7.725933E+04  2.236027E+05  2.663145E+03
       333   8  1.542332E+06  2.077532E+04  2.029953E+05 -1.865185E+04  1.454043E+05  7.275156E+03
       333   9  1.566228E+06  4.720665E+04  1.466888E+05  1.937091E+04  6.721236E+04  6.299893E+03
       333  10  1.045537E+06  1.820068E+05  2.523999E+05  5.568856E+04  1.018062E-09 -1.387805E-09
       333  11  1.022174E+06 -1.082321E+05  7.692359E+04  1.798204E+04 -9.656546E-10 -1.547528E-10
       333  12  1.090376E+06 -7.103668E+04  3.119097E+04 -4.030402E+04 -2.067651E-09 -1.118620E-09
       333  13  1.328066E+06  2.522080E+05  3.222475E+05 -1.077050E+04 -1.453815E-10  6.344117E-10
       333  14  1.282211E+06 -4.372942E+04  1.399419E+05 -3.314841E+02 -1.430550E-09 -5.763795E-10
       333  15  1.328273E+06 -1.191523E+04  8.893740E+04 -1.047244E+04 -8.245027E-10 -1.118709E-09
       333  16  1.610677E+06  3.224198E+05  3.920916E+05 -7.725981E+04  4.834853E-10  5.263532E-10
       333  17  1.542309E+06  2.076960E+04  2.029555E+05 -1.865270E+04  7.838846E-10 -2.768219E-10
       333  18  1.566223E+06  4.720539E+04  1.466802E+05  1.937057E+04  2.201000E-09  1.668476E-09
       333  19  1.045588E+06  1.820194E+05  2.524885E+05  5.568904E+04 -2.173620E+05 -2.703246E+03
       333  20  1.022197E+06 -1.082265E+05  7.696248E+04  1.798288E+04 -1.437832E+05 -7.282543E+03
       333  21  1.090382E+06 -7.103532E+04  3.120029E+04 -4.030366E+04 -7.020470E+04 -6.296008E+03
       333  22  1.328118E+06  2.522210E+05  3.223387E+05 -1.077003E+04 -2.204816E+05 -2.683525E+03
       333  23  1.282233E+06 -4.372377E+04  1.399812E+05 -3.306370E+02 -1.445936E+05 -7.278872E+03
       333  24  1.328278E+06 -1.191393E+04  8.894633E+04 -1.047209E+04 -6.870882E+04 -6.298023E+03
       333  25  1.610731E+06  3.224332E+05  3.921853E+05 -7.725933E+04 -2.236027E+05 -2.663145E+03
       333  26  1.542332E+06  2.077532E+04  2.029953E+05 -1.865185E+04 -1.454043E+05 -7.275156E+03
       333  27  1.566228E+06  4.720665E+04  1.466888E+05  1.937091E+04 -6.721236E+04 -6.299893E+03
       334   1  1.109657E+06 -1.974030E+04  2.409675E+04 -2.950719E+03  5.457957E+04  4.989874E+03
       334   2  1.124003E+06 -5.010411E+04 -7.386231E+03  9.897531E+02  3.599211E+04  4.712625E+03
       334   3  1.150681E+06 -4.112757E+04 -1.692953E+04 -1.394406E+04  1.740432E+04  3.936412E+03
       334   4  1.310561E+06  3.014223E+04  7.293652E+04 -1.019778E+04  5.458545E+04  4.989129E+03
       334   5  1.304393E+06 -5.318596E+03  3.640345E+04 -7.504273E+02  3.578852E+04  4.712316E+03
       334   6  1.310589E+06 -1.409390E+03  2.195011E+04 -1.017682E+04  1.699186E+04  3.936273E+03
       334   7  1.511501E+06  8.002201E+04  1.217734E+05 -1.744720E+04  5.459132E+04  4.988384E+03
       334   8  1.484813E+06  3.946454E+04  8.019079E+04 -2.491118E+03  3.558486E+04  4.712007E+03
       334   9  1.470521E+06  3.830696E+04  6.082791E+04 -6.408612E+03  1.657929E+04  3.936129E+03
       334  10  1.109654E+06 -1.974113E+04  2.409112E+04 -2.950938E+03  6.270907E-11 -7.339388E-10
       334  11  1.124002E+06 -5.010448E+04 -7.388702E+03  9.896165E+02 -1.074270E-09  4.013745E-10
       334  12  1.150681E+06 -4.112766E+04 -1.693013E+04 -1.394412E+04 -4.580478E-10 -5.889345E-10
       334  13  1.310557E+06  3.014141E+04  7.293088E+04 -1.019800E+04 -6.511515E-10  1.148191E-09
       334  14  1.304392E+06 -5.318963E+03  3.640101E+04 -7.505631E+02  1.084231E-09  6.450241E-10
       334  15  1.310589E+06 -1.409484E+03  2.194954E+04 -1.017688E+04 -1.278884E-09 -9.861946E-10
       334  16  1.511498E+06  8.002118E+04  1.217678E+05 -1.744742E+04 -3.362461E-10  1.056665E-09
       334  17  1.484812E+06  3.946418E+04  8.018838E+04 -2.491253E+03  6.956444E-10 -1.378484E-11
       334  18  1.470520E+06  3.830687E+04  6.082736E+04 -6.408665E+03  4.284461E-10 -3.989847E-10
       334  19  1.109657E+06 -1.974030E+04  2.409675E+04 -2.950719E+03 -5.457957E+04 -4.989874E+03
       334  20  1.124003E+06 -5.010411E+04 -7.386231E+03  9.897531E+02 -3.599211E+04 -4.712625E+03
       334  21  1.150681E+06 -4.112757E+04 -1.692953E+04 -1.394406E+04 -1.740432E+04 -3.936412E+03
       334  22  1.310561E+06  3.014223E+04  7.293652E+04 -1.019778E+04 -5.458545E+04 -4.989129E+03
       334  23  1.304393E+06 -5.318596E+03  3.640345E+04 -7.504273E+02 -3.578852E+04 -4.712316E+03
       334  24  1.310589E+06 -1.409390E+03  2.195011E+04 -1.017682E+04 -1.699186E+04 -3.936273E+03
       334  25  1.511501E+06  8.002201E+04  1.217734E+05 -1.744720E+04 -5.459132E+04 -4.988384E+03
       334  26  1.484813E+06  3.946454E+04  8.019079E+04 -2.491118E+03 -3.558486E+04 -4.712007E+03
       334  27  1.470521E+06  3.830696E+04  6.082791E+04 -6.408612E+03 -1.657929E+04 -3.936129E+03
       335   1  1.183012E+06 -2.752917E+04 -1.304674E+04 -9.281564E+03  1.376906E+04  3.424217E+03
       335   2  1.201510E+06 -2.692774E+04 -1.636224E+04 -9.341321E+02  9.075963E+03  2.735386E+03
       335   3  1.221824E+06 -2.163072E+04 -1.544592E+04 -1.045046E+04  4.382635E+03  2.012683E+03
       335   4  1.308245E+06  3.553505E+03  1.730969E+04 -9.959578E+03  1.349700E+04  3.424056E+03
       335   5  1.307338E+06 -6.525998E+02  9.332142E+03 -1.027143E+03  8.789188E+03  2.735268E+03
       335   6  1.308250E+06 -1.610072E+02  5.596036E+03 -9.958270E+03  4.081296E+03  2.012604E+03
       335   7  1.433491E+06  3.463504E+04  4.766500E+04 -1.063773E+04  1.322488E+04  3.423896E+03
       335   8  1.413177E+06  2.562172E+04  3.502572E+04 -1.120171E+03  8.502363E+03  2.735151E+03
       335   9  1.394683E+06  2.130816E+04  2.663745E+04 -9.466009E+03  3.779915E+03  2.012524E+03
       335  10  1.183012E+06 -2.752924E+04 -1.304712E+04 -9.281602E+03 -1.891363E-11 -3.914967E-10
       335  11  1.201510E+06 -2.692777E+04 -1.636241E+04 -9.341521E+02 -3.821039E-10 -4.945401E-10
       335  12  1.221824E+06 -2.163073E+04 -1.544596E+04 -1.045047E+04 -1.090303E-10 -3.517444E-10
       335  13  1.308244E+06  3.553444E+03  1.730933E+04 -9.959615E+03  6.717820E-11 -6.417898E-10
       335  14  1.307338E+06 -6.526285E+02  9.331984E+03 -1.027163E+03 -1.717474E-09  1.868508E-10
       335  15  1.308250E+06 -1.610160E+02  5.595997E+03 -9.958276E+03 -2.052364E-09 -6.566938E-10
       335  16  1.433491E+06  3.463498E+04  4.766465E+04 -1.063777E+04 -8.722794E-10 -2.446263E-10
       335  17  1.413177E+06  2.562169E+04  3.502557E+04 -1.120190E+03 -3.972864E-10 -3.522054E-10
       335  18  1.394683E+06  2.130815E+04  2.663742E+04 -9.466015E+03 -4.603924E-10 -4.113440E-11
       335  19  1.183012E+06 -2.752917E+04 -1.304674E+04 -9.281564E+03 -1.376906E+04 -3.424217E+03
       335  20  1.201510E+06 -2.692774E+04 -1.636224E+04 -9.341321E+02 -9.075963E+03 -2.735386E+03
       335  21  1.221824E+06 -2.163072E+04 -1.544592E+04 -1.045046E+04 -4.382635E+03 -2.012683E+03
       335  22  1.308245E+06  3.553505E+03  1.730969E+04 -9.959578E+03 -1.349700E+04 -3.424056E+03
       335  23  1.307338E+06 -6.525998E+02  9.332142E+03 -1.027143E+03 -8.789188E+03 -2.735268E+03
       335  24  1.308250E+06 -1.610072E+02  5.596036E+03 -9.958270E+03 -4.081296E+03 -2.012604E+03
       335  25  1.433491E+06  3.463504E+04  4.766500E+04 -1.063773E+04 -1.322488E+04 -3.423896E+03
       335  26  1.413177E+06  2.562172E+04  3.502572E+04 -1.120171E+03 -8.502363E+03 -2.735151E+03
       335  27  1.394683E+06  2.130816E+04  2.663745E+04 -9.466009E+03 -3.779915E+03 -2.012524E+03
       336   1  1.254774E+06 -1.277897E+04 -8.432520E+03 -9.808960E+03  3.469420E+03  1.590600E+03
       336   2  1.273479E+06 -8.597355E+03 -5.602797E+03 -1.173207E+03  2.113548E+03  8.844923E+02
       336   3  1.292518E+06 -3.824938E+03 -1.741941E+03 -9.913602E+03  7.575567E+02  1.791244E+02
       336   4  1.307921E+06  4.045023E+02  4.413074E+03 -9.850386E+03  3.181001E+03  1.590538E+03
       336   5  1.307755E+06 -8.749334E+01  2.719170E+03 -1.162306E+03  1.825322E+03  8.844416E+02
       336   6  1.307923E+06  1.119989E+01  2.056134E+03 -9.850313E+03  4.695635E+02  1.790860E+02
       336   7  1.361071E+06  1.358777E+04  1.725847E+04 -9.891815E+03  2.892557E+03  1.590476E+03
       336   8  1.342033E+06  8.422283E+03  1.104105E+04 -1.151404E+03  1.537079E+03  8.843910E+02
       336   9  1.323327E+06  3.847321E+03  5.854193E+03 -9.787022E+03  1.815632E+02  1.790476E+02
       336  10  1.254774E+06 -1.277897E+04 -8.432547E+03 -9.808965E+03 -1.190912E-09 -3.490975E-10
       336  11  1.273479E+06 -8.597357E+03 -5.602807E+03 -1.173208E+03  5.076191E-10  1.095011E-10
       336  12  1.292518E+06 -3.824939E+03 -1.741942E+03 -9.913602E+03  1.192049E-09 -4.023333E-10
       336  13  1.307921E+06  4.044969E+02  4.413050E+03 -9.850390E+03 -5.387442E-10 -1.353822E-10
       336  14  1.307755E+06 -8.749507E+01  2.719162E+03 -1.162307E+03 -1.900620E-09  1.008696E-10
       336  15  1.307923E+06  1.119979E+01  2.056134E+03 -9.850313E+03 -6.167134E-11 -3.397378E-10
       336  16  1.361071E+06  1.358776E+04  1.725845E+04 -9.891818E+03  8.115383E-10 -3.596900E-11
       336  17  1.342033E+06  8.422281E+03  1.104105E+04 -1.151405E+03 -7.410914E-10 -8.458534E-11
       336  18  1.323327E+06  3.847321E+03  5.854192E+03 -9.787022E+03 -1.021124E-09 -3.567685E-10
       336  19  1.254774E+06 -1.277897E+04 -8.432520E+03 -9.808960E+03 -3.469420E+03 -1.590600E+03
       336  20  1.273479E+06 -8.597355E+03 -5.602797E+03 -1.173207E+03 -2.113548E+03 -8.844923E+02
       336  21  1.292518E+06 -3.824938E+03 -1.741941E+03 -9.913602E+03 -7.575567E+02 -1.791244E+02
       336  22  1.307921E+06  4.045023E+02  4.413074E+03 -9.850386E+03 -3.181001E+03 -1.590538E+03
       336  23  1.307755E+06 -8.749334E+01  2.719170E+03 -1.162306E+03 -1.825322E+03 -8.844416E+02
       336  24  1.307923E+06  1.119989E+01  2.056134E+03 -9.850313E+03 -4.695635E+02 -1.790860E+02
       336  25  1.361071E+06  1.358777E+04  1.725847E+04 -9.891815E+03 -2.892557E+03 -1.590476E+03
       336  26  1.342033E+06  8.422283E+03  1.104105E+04 -1.151404E+03 -1.537079E+03 -8.843910E+02
       336  27  1.323327E+06  3.847321E+03  5.854193E+03 -9.787022E+03 -1.815632E+02 -1.790476E+02
       337   1  1.325328E+06  4.366918E+03  6.246737E+03 -9.810306E+03  3.947677E+02 -2.310244E+02
       337   2  1.344077E+06  8.946248E+03  1.100056E+04 -1.155246E+03 -6.946783E+02 -9.364556E+02
       337   3  1.363088E+06  1.396578E+04  1.657454E+04 -9.882903E+03 -1.784094E+03 -1.642901E+03
       337   4  1.307907E+06  3.017050E+01  1.959108E+03 -9.851809E+03  1.067578E+02 -2.310631E+02
       337   5  1.307775E+06 -6.610114E+01  2.187195E+03 -1.160445E+03 -9.830579E+02 -9.365073E+02
       337   6  1.307906E+06  2.779376E+02  3.235754E+03 -9.851861E+03 -2.072810E+03 -1.642965E+03
       337   7  1.290485E+06 -4.306599E+03 -2.328544E+03 -9.893310E+03 -1.812440E+02 -2.311018E+02
       337   8  1.271475E+06 -9.078547E+03 -6.626267E+03 -1.165644E+03 -1.271421E+03 -9.365589E+02
       337   9  1.252726E+06 -1.341013E+04 -1.010325E+04 -9.820822E+03 -2.361501E+03 -1.643028E+03
       337  10  1.325328E+06  4.366917E+03  6.246736E+03 -9.810306E+03  3.445972E-10 -7.090162E-10
       337  11  1.344077E+06  8.946247E+03  1.100056E+04 -1.155246E+03  9.415482E-10  6.669481E-10
       337  12  1.363088E+06  1.396578E+04  1.657453E+04 -9.882906E+03  6.580877E-10  3.734876E-10
       337  13  1.307907E+06  3.017044E+01  1.959108E+03 -9.851809E+03  9.278398E-10  9.755612E-11
       337  14  1.307775E+06 -6.610234E+01  2.187192E+03 -1.160446E+03  1.434674E-09  8.450400E-10
       337  15  1.307906E+06  2.779335E+02  3.235741E+03 -9.851864E+03 -2.549562E-10  2.614532E-10
       337  16  1.290485E+06 -4.306599E+03 -2.328544E+03 -9.893310E+03  5.253017E-11 -1.173220E-10
       337  17  1.271475E+06 -9.078549E+03 -6.626271E+03 -1.165645E+03 -3.301111E-09  2.406093E-10
       337  18  1.252726E+06 -1.341013E+04 -1.010327E+04 -9.820826E+03 -5.110557E-10 -1.026645E-11
       337  19  1.325328E+06  4.366918E+03  6.246737E+03 -9.810306E+03 -3.947677E+02  2.310244E+02
       337  20  1.344077E+06  8.946248E+03  1.100056E+04 -1.155246E+03  6.946783E+02  9.364556E+02
       337  21  1.363088E+06  1.396578E+04  1.657454E+04 -9.882903E+03  1.784094E+03  1.642901E+03
       337  22  1.307907E+06  3.017050E+01  1.959108E+03 -9.851809E+03 -1.067578E+02  2.310631E+02
       337  23  1.307775E+06 -6.610114E+01  2.187195E+03 -1.160445E+03  9.830579E+02  9.365073E+02
       337  24  1.307906E+06  2.779376E+02  3.235754E+03 -9.851861E+03  2.072810E+03  1.642965E+03
       337  25  1.290485E+06 -4.306599E+03 -2.328544E+03 -9.893310E+03  1.812440E+02  2.311018E+02
       337  26  1.271475E+06 -9.078547E+03 -6.626267E+03 -1.165644E+03  1.271421E+03  9.365589E+02
       337  27  1.252726E+06 -1.341013E+04 -1.010325E+04 -9.820822E+03  2.361501E+03  1.643028E+03
       338   1  1.396624E+06  2.186964E+04  2.555738E+04 -9.619233E+03 -2.423450E+03 -2.065262E+03
       338   2  1.415410E+06  2.633665E+04  3.275045E+04 -1.077801E+03 -5.742345E+03 -2.788096E+03
       338   3  1.435477E+06  3.406583E+04  4.292300E+04 -1.042383E+04 -9.061123E+03 -3.476808E+03
       338   4  1.308131E+06 -1.109217E+02  4.015771E+03 -9.963745E+03 -2.725233E+03 -2.065345E+03
       338   5  1.307490E+06 -4.545986E+02  6.551345E+03 -1.020384E+03 -6.029672E+03 -2.788215E+03
       338   6  1.308126E+06  2.461846E+03  1.205689E+04 -9.964674E+03 -9.333893E+03 -3.476964E+03
       338   7  1.219644E+06 -2.209205E+04 -1.752641E+04 -1.030821E+04 -3.026973E+03 -2.065428E+03
       338   8  1.199580E+06 -2.724670E+04 -1.964860E+04 -9.629783E+02 -6.316950E+03 -2.788335E+03
       338   9  1.180791E+06 -2.914332E+04 -1.881038E+04 -9.505612E+03 -9.606608E+03 -3.477120E+03
       338  10  1.396624E+06  2.186963E+04  2.555737E+04 -9.619237E+03 -3.406798E-10  5.799056E-10
       338  11  1.415410E+06  2.633663E+04  3.275037E+04 -1.077814E+03 -8.240266E-10  1.225046E-10
       338  12  1.435477E+06  3.406579E+04  4.292282E+04 -1.042386E+04  4.270766E-10  5.220209E-12
       338  13  1.308131E+06 -1.109283E+02  4.015749E+03 -9.963749E+03 -5.460432E-14  2.255472E-10
       338  14  1.307490E+06 -4.546166E+02  6.551262E+03 -1.020398E+03 -5.578627E-10  2.781280E-10
       338  15  1.308126E+06  2.461810E+03  1.205670E+04 -9.964701E+03 -1.885751E-10 -3.093311E-10
       338  16  1.219644E+06 -2.209206E+04 -1.752644E+04 -1.030821E+04 -5.199878E-10 -1.269735E-10
       338  17  1.199579E+06 -2.724672E+04 -1.964869E+04 -9.629924E+02 -1.677797E-09 -1.845176E-10
       338  18  1.180791E+06 -2.914336E+04 -1.881058E+04 -9.505639E+03 -1.605234E-11  7.911142E-11
       338  19  1.396624E+06  2.186964E+04  2.555738E+04 -9.619233E+03  2.423450E+03  2.065262E+03
       338  20  1.415410E+06  2.633665E+04  3.275045E+04 -1.077801E+03  5.742345E+03  2.788096E+03
       338  21  1.435477E+06  3.406583E+04  4.292300E+04 -1.042383E+04  9.061123E+03  3.476808E+03
       338  22  1.308131E+06 -1.109217E+02  4.015771E+03 -9.963745E+03  2.725233E+03  2.065345E+03
       338  23  1.307490E+06 -4.545986E+02  6.551345E+03 -1.020384E+03  6.029672E+03  2.788215E+03
       338  24  1.308126E+06  2.461846E+03  1.205689E+04 -9.964674E+03  9.333893E+03  3.476964E+03
       338  25  1.219644E+06 -2.209205E+04 -1.752641E+04 -1.030821E+04  3.026973E+03  2.065428E+03
       338  26  1.199580E+06 -2.724670E+04 -1.964860E+04 -9.629783E+02  6.316950E+03  2.788335E+03
       338  27  1.180791E+06 -2.914332E+04 -1.881038E+04 -9.505612E+03  9.606608E+03  3.477120E+03
       339   1  1.471848E+06  3.927036E+04  5.467053E+04 -7.552885E+03 -1.135202E+04 -3.989651E+03
       339   2  1.488061E+06  4.163558E+04  6.960446E+04 -1.923747E+03 -2.461625E+04 -4.763259E+03
       339   3  1.512915E+06  7.135274E+04  1.000144E+05 -1.519563E+04 -3.788125E+04 -5.032230E+03
       339   4  1.309755E+06 -9.813797E+02  1.526811E+04 -1.018479E+04 -1.176666E+04 -3.989853E+03
       339   5  1.305441E+06 -3.694220E+03  2.528299E+04 -7.415933E+02 -2.482126E+04 -4.763518E+03
       339   6  1.309735E+06  2.091299E+04  5.063189E+04 -1.019958E+04 -3.787619E+04 -5.032642E+03
       339   7  1.147686E+06 -4.123502E+04 -2.413620E+04 -1.281602E+04 -1.218118E+04 -3.990051E+03
       339   8  1.122852E+06 -4.902645E+04 -1.904088E+04  4.402082E+02 -2.502620E+04 -4.763779E+03
       339   9  1.106593E+06 -2.952971E+04  1.246395E+03 -5.205179E+03 -3.787113E+04 -5.033055E+03
       339  10  1.471848E+06  3.927031E+04  5.467026E+04 -7.552921E+03 -5.020833E-10 -7.004108E-10
       339  11  1.488060E+06  4.163539E+04  6.960328E+04 -1.923841E+03  1.908620E-09 -8.557500E-10
       339  12  1.512913E+06  7.135233E+04  1.000117E+05 -1.519579E+04 -2.072198E-10 -8.604178E-10
       339  13  1.309755E+06 -9.814338E+02  1.526782E+04 -1.018483E+04 -5.034365E-11 -6.798512E-10
       339  14  1.305441E+06 -3.694409E+03  2.528179E+04 -7.416884E+02 -6.990698E-10 -6.696837E-10
       339  15  1.309733E+06  2.091257E+04  5.062915E+04 -1.019974E+04 -2.439138E-09 -5.084108E-10
       339  16  1.147686E+06 -4.123508E+04 -2.413651E+04 -1.281606E+04 -7.744738E-10 -4.976227E-11
       339  17  1.122852E+06 -4.902665E+04 -1.904210E+04  4.401122E+02 -1.039119E-09  9.457049E-10
       339  18  1.106591E+06 -2.953012E+04  1.243657E+03 -5.205332E+03  6.191339E-11  1.384166E-10
       339  19  1.471848E+06  3.927036E+04  5.467053E+04 -7.552885E+03  1.135202E+04  3.989651E+03
       339  20  1.488061E+06  4.163558E+04  6.960446E+04 -1.923747E+03  2.461625E+04  4.763259E+03
       339  21  1.512915E+06  7.135274E+04  1.000144E+05 -1.519563E+04  3.788125E+04  5.032230E+03
       339  22  1.309755E+06 -9.813797E+02  1.526811E+04 -1.018479E+04  1.176666E+04  3.989853E+03
       339  23  1.305441E+06 -3.694220E+03  2.528299E+04 -7.415933E+02  2.482126E+04  4.763518E+03
       339  24  1.309735E+06  2.091299E+04  5.063189E+04 -1.019958E+04  3.787619E+04  5.032642E+03
       339  25  1.147686E+06 -4.123502E+04 -2.413620E+04 -1.281602E+04  1.218118E+04  3.990051E+03
       339  26  1.122852E+06 -4.902645E+04 -1.904088E+04  4.402082E+02  2.502620E+04  4.763779E+03
       339  27  1.106593E+06 -2.952971E+04  1.246395E+03 -5.205179E+03  3.787113E+04  5.033055E+03
       340   1  1.562335E+06  5.140944E+04  1.200507E+05  1.026969E+04 -4.616837E+04 -6.345225E+03
       340   2  1.552519E+06  3.474559E+04  1.607380E+05 -1.297737E+04 -1.011605E+05 -7.301022E+03
       340   3  1.606936E+06  2.459181E+05  2.941607E+05 -5.676696E+04 -1.561603E+05 -2.620290E+03
       340   4  1.322036E+06 -8.276289E+03  6.174109E+04 -1.048986E+04 -4.767965E+04 -6.345067E+03
       340   5  1.290050E+06 -3.035386E+04  9.714679E+04 -3.245582E+02 -1.003503E+05 -7.302493E+03
       340   6  1.321921E+06  1.750502E+05  2.237058E+05 -1.069949E+04 -1.530265E+05 -2.628250E+03
       340   7  1.081790E+06 -6.796464E+04  3.427525E+03 -3.124138E+04 -4.919033E+04 -6.344809E+03
       340   8  1.027644E+06 -9.545774E+04  3.355071E+04  1.232288E+04 -9.954050E+04 -7.303933E+03
       340   9  1.036984E+06  1.041842E+05  1.532460E+05  3.534683E+04 -1.498941E+05 -2.635751E+03
       340  10  1.562333E+06  5.140883E+04  1.200467E+05  1.026946E+04 -5.138080E-11 -1.233460E-09
       340  11  1.552508E+06  3.474279E+04  1.607187E+05 -1.297796E+04  2.057120E-10 -3.480573E-09
       340  12  1.606910E+06  2.459116E+05  2.941150E+05 -5.676729E+04 -5.989278E-10 -1.088643E-09
       340  13  1.322033E+06 -8.276941E+03  6.173675E+04 -1.049010E+04 -2.441897E-09 -4.005865E-09
       340  14  1.290039E+06 -3.035661E+04  9.712781E+04 -3.251481E+02  2.186589E-09  1.160990E-09
       340  15  1.321896E+06  1.750439E+05  2.236618E+05 -1.069982E+04  2.960795E-10 -2.647977E-10
       340  16  1.081787E+06 -6.796533E+04  3.422911E+03 -3.124163E+04 -1.460994E-09 -9.995092E-10
       340  17  1.027633E+06 -9.546045E+04  3.353202E+04  1.232230E+04 -1.054658E-09  5.915380E-10
       340  18  1.036960E+06  1.041781E+05  1.532038E+05  3.534651E+04  1.229236E-09 -1.471519E-09
       340  19  1.562335E+06  5.140944E+04  1.200507E+05  1.026969E+04  4.616837E+04  6.345225E+03
       340  20  1.552519E+06  3.474559E+04  1.607380E+05 -1.297737E+04  1.011605E+05  7.301022E+03
       340  21  1.606936E+06  2.459181E+05  2.941607E+05 -5.676696E+04  1.561603E+05  2.620290E+03
       340  22  1.322036E+06 -8.276289E+03  6.174109E+04 -1.048986E+04  4.767965E+04  6.345067E+03
       340  23  1.290050E+06 -3.035386E+04  9.714679E+04 -3.245582E+02  1.003503E+05  7.302493E+03
       340  24  1.321921E+06  1.750502E+05  2.237058E+05 -1.069949E+04  1.530265E+05  2.628250E+03
       340  25  1.081790E+06 -6.796464E+04  3.427525E+03 -3.124138E+04  4.919033E+04  6.344809E+03
       340  26  1.027644E+06 -9.545774E+04  3.355071E+04  1.232288E+04  9.954050E+04  7.303933E+03
       340  27  1.036984E+06  1.041842E+05  1.532460E+05  3.534683E+04  1.498941E+05  2.635751E+03
       341   1  1.029555E+06  4.277981E+06  1.073143E+06 -4.649669E+05  2.730409E+04  1.782607E+05
       341   2  6.286065E+05  3.471165E+06  7.486487E+05 -8.104531E+04  7.407755E+04  9.098433E+04
       341   3  4.726407E+05  2.742293E+06  5.429027E+05 -4.002658E+05  4.551181E+04  3.490513E+03
       341   4  1.744141E+05  8.422637E+05  2.241803E+05 -4.113994E+05  2.742074E+04  1.432515E+05
       341   5 -3.217224E+04  8.063302E+05  1.038797E+05 -5.999335E+04  7.411670E+04  8.716851E+04
       341   6  1.429762E+03  8.427697E+05  8.117057E+04 -4.118760E+05  4.534021E+04  3.075845E+04
       341   7 -6.815964E+05 -2.582774E+06 -6.256522E+05 -3.581166E+05  2.753178E+04  1.084331E+05
       341   8 -6.934689E+05 -1.852043E+06 -5.413993E+05 -3.902432E+04  7.415571E+04  8.336831E+04
       341   9 -4.700446E+05 -1.053470E+06 -3.808195E+05 -4.234443E+05  4.516731E+04  5.794335E+04
       341  10  1.029546E+06  4.277947E+06  1.073083E+06 -4.649708E+05 -1.989039E-10 -5.200367E-10
       341  11  6.285984E+05  3.471155E+06  7.486229E+05 -8.105072E+04 -1.877102E-09 -1.044387E-09
       341  12  4.726384E+05  2.742292E+06  5.428988E+05 -4.002659E+05 -4.326980E-10  1.963841E-09
       341  13  1.744078E+05  8.422415E+05  2.241404E+05 -4.114026E+05  1.035561E-09 -3.793932E-11
       341  14 -3.218018E+04  8.063205E+05  1.038551E+05 -5.999855E+04 -1.404432E-09  2.336418E-09
       341  15  1.427298E+03  8.427681E+05  8.116493E+04 -4.118771E+05 -1.758217E-10 -7.300415E-10
       341  16 -6.816003E+05 -2.582786E+06 -6.256758E+05 -3.581190E+05  6.643530E-11 -2.741375E-09
       341  17 -6.934767E+05 -1.852052E+06 -5.414227E+05 -3.902931E+04  1.012881E-09  3.810837E-09
       341  18 -4.700477E+05 -1.053474E+06 -3.808296E+05 -4.234464E+05 -1.434624E-09  3.325535E-09
       341  19  1.029555E+06  4.277981E+06  1.073143E+06 -4.649669E+05 -2.730409E+04 -1.782607E+05
       341  20  6.286065E+05  3.471165E+06  7.486487E+05 -8.104531E+04 -7.407755E+04 -9.098433E+04
       341  21  4.726407E+05  2.742293E+06  5.429027E+05 -4.002658E+05 -4.551181E+04 -3.490513E+03
       341  22  1.744141E+05  8.422637E+05  2.241803E+05 -4.113994E+05 -2.742074E+04 -1.432515E+05
       341  23 -3.217224E+04  8.063302E+05  1.038797E+05 -5.999335E+04 -7.411670E+04 -8.716851E+04
       341  24  1.429762E+03  8.427697E+05  8.117057E+04 -4.118760E+05 -4.534021E+04 -3.075845E+04
       341  25 -6.815964E+05 -2.582774E+06 -6.256522E+05 -3.581166E+05 -2.753178E+04 -1.084331E+05
       341  26 -6.934689E+05 -1.852043E+06 -5.413993E+05 -3.902432E+04 -7.415571E+04 -8.336831E+04
       341  27 -4.700446E+05 -1.053470E+06 -3.808195E+05 -4.234443E+05 -4.516731E+04 -5.794335E+04
       342   1  1.650755E+05  1.399498E+06  2.128831E+05 -4.227711E+05  1.646803E+04  7.795072E+03
       342   2 -5.628836E+04  6.328812E+05  2.157967E+04 -5.934860E+04 -4.798118E+03 -2.711790E+04
       342   3 -1.971951E+05 -1.196477E+05 -1.293299E+05 -3.949468E+05 -2.539521E+04 -6.197349E+04
       342   4  2.374340E+04  8.306721E+05  7.521648E+04 -4.107236E+05  1.640540E+04  1.671072E+04
       342   5 -8.824411E+03  8.238568E+05  6.796496E+04 -6.117895E+04 -4.856098E+03 -1.847633E+04
       342   6  3.913947E+04  8.306328E+05  1.013284E+05 -4.106256E+05 -2.544873E+04 -5.364799E+04
       342   7 -1.176119E+05  2.621416E+05 -6.247303E+04 -3.986866E+05  1.634308E+04  2.561824E+04
       342   8  3.863691E+04  1.014866E+06  1.143479E+05 -6.300980E+04 -4.914120E+03 -9.832107E+03
       342   9  2.754085E+05  1.781738E+06  3.319218E+05 -4.263268E+05 -2.550264E+04 -4.530974E+04
       342  10  1.650752E+05  1.399498E+06  2.128825E+05 -4.227712E+05 -4.927147E-10 -5.105302E-09
       342  11 -5.628858E+04  6.328804E+05  2.157825E+04 -5.934870E+04  3.518412E-09 -2.503161E-09
       342  12 -1.971969E+05 -1.196520E+05 -1.293384E+05 -3.949481E+05 -4.744210E-09  8.636046E-10
       342  13  2.374303E+04  8.306717E+05  7.521545E+04 -4.107238E+05 -4.330649E-10  6.817000E-11
       342  14 -8.824527E+03  8.238564E+05  6.796427E+04 -6.117902E+04  5.516120E-09  3.484487E-09
       342  15  3.913800E+04  8.306296E+05  1.013217E+05 -4.106267E+05  3.610411E-09 -1.083421E-09
       342  16 -1.176124E+05  2.621408E+05 -6.247476E+04 -3.986870E+05 -2.920895E-10 -5.303052E-09
       342  17  3.863686E+04  1.014866E+06  1.143477E+05 -6.300984E+04 -4.333968E-09  6.314464E-09
       342  18  2.754073E+05  1.781735E+06  3.319167E+05 -4.263278E+05 -2.573299E-09  5.074095E-09
       342  19  1.650755E+05  1.399498E+06  2.128831E+05 -4.227711E+05 -1.646803E+04 -7.795072E+03
       342  20 -5.628836E+04  6.328812E+05  2.157967E+04 -5.934860E+04  4.798118E+03  2.711790E+04
       342  21 -1.971951E+05 -1.196477E+05 -1.293299E+05 -3.949468E+05  2.539521E+04  6.197349E+04
       342  22  2.374340E+04  8.306721E+05  7.521648E+04 -4.107236E+05 -1.640540E+04 -1.671072E+04
       342  23 -8.824411E+03  8.238568E+05  6.796496E+04 -6.117895E+04  4.856098E+03  1.847633E+04
       342  24  3.913947E+04  8.306328E+05  1.013284E+05 -4.106256E+05  2.544873E+04  5.364799E+04
       342  25 -1.176119E+05  2.621416E+05 -6.247303E+04 -3.986866E+05 -1.634308E+04 -2.561824E+04
       342  26  3.863691E+04  1.014866E+06  1.143479E+05 -6.300980E+04  4.914120E+03  9.832107E+03
       342  27  2.754085E+05  1.781738E+06  3.319218E+05 -4.263268E+05  2.550264E+04  4.530974E+04
       343   1 -5.732798E+05 -1.425329E+06 -4.368382E+05 -4.374416E+05 -5.519463E+04 -1.018476E+05
       343   2 -8.118350E+05 -2.250822E+06 -5.679306E+05 -2.964659E+04 -8.442875E+04 -1.606747E+05
       343   3 -6.510921E+05 -2.957921E+06 -5.587580E+05 -3.271325E+05 -3.090687E+04 -2.191396E+05
       343   4 -6.697787E+03  8.537232E+05  1.182183E+05 -4.123290E+05 -5.536411E+04 -7.319057E+04
       343   5 -5.470566E+04  7.918408E+05  1.708774E+05 -5.953590E+04 -8.437636E+04 -1.660884E+05
       343   6  3.014912E+05  8.531091E+05  3.869195E+05 -4.117488E+05 -3.080084E+04 -2.587010E+05
       343   7  5.595056E+05  3.137521E+06  6.729018E+05 -3.871150E+05 -5.553095E+04 -4.442803E+04
       343   8  7.017459E+05  3.842972E+06  9.090173E+05 -8.956448E+04 -8.432362E+04 -1.715271E+05
       343   9  1.253012E+06  4.677376E+06  1.331523E+06 -4.968772E+05 -3.068448E+04 -2.985019E+05
       343  10 -5.732859E+05 -1.425341E+06 -4.368635E+05 -4.374461E+05 -2.501313E-09 -4.143672E-09
       343  11 -8.118496E+05 -2.250852E+06 -5.679927E+05 -2.965753E+04  2.332343E-09  2.954776E-10
       343  12 -6.511061E+05 -2.957973E+06 -5.588505E+05 -3.271379E+05  1.106213E-09  1.024694E-09
       343  13 -6.702520E+03  8.537166E+05  1.182024E+05 -4.123322E+05 -5.421024E-09  1.120906E-10
       343  14 -5.472070E+04  7.918093E+05  1.708122E+05 -5.954718E+04  2.536544E-09  1.801832E-09
       343  15  3.014723E+05  8.530371E+05  3.867921E+05 -4.117552E+05  3.221040E-10 -1.031232E-10
       343  16  5.595018E+05  3.137518E+06  6.728923E+05 -3.871170E+05  1.056453E-09 -4.966888E-09
       343  17  7.017305E+05  3.842939E+06  9.089489E+05 -8.957610E+04  8.951653E-10  1.303035E-09
       343  18  1.252987E+06  4.677281E+06  1.331355E+06 -4.968846E+05 -3.265569E-10  1.077397E-11
       343  19 -5.732798E+05 -1.425329E+06 -4.368382E+05 -4.374416E+05  5.519463E+04  1.018476E+05
       343  20 -8.118350E+05 -2.250822E+06 -5.679306E+05 -2.964659E+04  8.442875E+04  1.606747E+05
       343  21 -6.510921E+05 -2.957921E+06 -5.587580E+05 -3.271325E+05  3.090687E+04  2.191396E+05
       343  22 -6.697787E+03  8.537232E+05  1.182183E+05 -4.123290E+05  5.536411E+04  7.319057E+04
       343  23 -5.470566E+04  7.918408E+05  1.708774E+05 -5.953590E+04  8.437636E+04  1.660884E+05
       343  24  3.014912E+05  8.531091E+05  3.869195E+05 -4.117488E+05  3.080084E+04  2.587010E+05
       343  25  5.595056E+05  3.137521E+06  6.729018E+05 -3.871150E+05  5.553095E+04  4.442803E+04
       343  26  7.017459E+05  3.842972E+06  9.090173E+05 -8.956448E+04  8.432362E+04  1.715271E+05
       343  27  1.253012E+06  4.677376E+06  1.331523E+06 -4.968772E+05  3.068448E+04  2.985019E+05
       344   1 -1.407919E+06 -6.076132E+05 -3.201371E+05 -5.923337E+05 -1.606793E+05 -5.078924E+04
       344   2 -1.348308E+06 -4.366884E+05 -1.859436E+05 -5.632943E+05 -9.955533E+04 -5.758293E+03
       344   3 -1.317859E+06 -3.554557E+05 -1.243760E+05 -5.270223E+05 -3.275919E+04  2.424804E+04
       344   4 -8.697529E+05 -3.172876E+05 -1.654681E+05 -3.541188E+05 -1.107827E+05 -3.204517E+04
       344   5 -8.489830E+05 -2.120921E+05 -7.789791E+04 -3.814565E+05 -7.761920E+04  2.482586E+03
       344   6 -8.517988E+05 -1.910116E+05 -4.073140E+04 -4.015737E+05 -3.879419E+04  2.197613E+04
       344   7 -3.312684E+05 -2.682998E+04 -1.081132E+04 -1.156807E+05 -6.083838E+04 -1.326516E+04
       344   8 -3.493891E+05  1.256716E+04  3.013758E+04 -1.994686E+05 -5.566398E+04  1.073439E+04
       344   9 -3.855101E+05 -2.654973E+04  4.290594E+04 -2.760383E+05 -4.483402E+04  1.970251E+04
       344  10 -1.407947E+06 -6.076230E+05 -3.201906E+05 -5.923403E+05  1.774692E-08  5.814235E-09
       344  11 -1.348319E+06 -4.366911E+05 -1.859623E+05 -5.632948E+05 -3.613027E-08 -1.550846E-08
       344  12 -1.317860E+06 -3.554567E+05 -1.243791E+05 -5.270216E+05 -9.578352E-08 -3.793780E-08
       344  13 -8.697664E+05 -3.172920E+05 -1.654932E+05 -3.541216E+05  1.437451E-09  9.228155E-10
       344  14 -8.489894E+05 -2.120937E+05 -7.790926E+04 -3.814563E+05 -1.722066E-09  1.068178E-09
       344  15 -8.518006E+05 -1.910126E+05 -4.073513E+04 -4.015730E+05 -1.540103E-08 -8.727728E-09
       344  16 -3.312724E+05 -2.683116E+04 -1.081861E+04 -1.156813E+05 -1.496845E-08 -3.292379E-09
       344  17 -3.493924E+05  1.256620E+04  3.013154E+04 -1.994681E+05  3.406331E-08  1.569968E-08
       344  18 -3.855124E+05 -2.655069E+04  4.290144E+04 -2.760376E+05  6.690929E-08  2.366826E-08
       344  19 -1.407919E+06 -6.076132E+05 -3.201371E+05 -5.923337E+05  1.606793E+05  5.078924E+04
       344  20 -1.348308E+06 -4.366884E+05 -1.859436E+05 -5.632943E+05  9.955533E+04  5.758293E+03
       344  21 -1.317859E+06 -3.554557E+05 -1.243760E+05 -5.270223E+05  3.275919E+04 -2.424804E+04
       344  22 -8.697529E+05 -3.172876E+05 -1.654681E+05 -3.541188E+05  1.107827E+05  3.204517E+04
       344  23 -8.489830E+05 -2.120921E+05 -7.789791E+04 -3.814565E+05  7.761920E+04 -2.482586E+03
       344  24 -8.517988E+05 -1.910116E+05 -4.073140E+04 -4.015737E+05  3.879419E+04 -2.197613E+04
       344  25 -3.312684E+05 -2.682998E+04 -1.081132E+04 -1.156807E+05  6.083838E+04  1.326516E+04
       344  26 -3.493891E+05  1.256716E+04  3.013758E+04 -1.994686E+05  5.566398E+04 -1.073439E+04
       344  27 -3.855101E+05 -2.654973E+04  4.290594E+04 -2.760383E+05  4.483402E+04 -1.970251E+04
       345   1 -1.262022E+06 -3.442054E+05 -1.047571E+05 -5.196111E+05 -2.863342E+04  2.322690E+04
       345   2 -1.197257E+06 -3.059116E+05 -7.551325E+04 -4.943558E+05 -1.664309E+04  2.400517E+04
       345   3 -1.125430E+06 -2.832248E+05 -5.566579E+04 -4.800697E+05 -4.103076E+03  2.332223E+04
       345   4 -8.469658E+05 -1.905087E+05 -3.048230E+04 -4.000299E+05 -3.336653E+04  2.144491E+04
       345   5 -8.502508E+05 -1.794105E+05 -1.596784E+04 -3.958795E+05 -2.409198E+04  2.120332E+04
       345   6 -8.459366E+05 -1.833785E+05 -8.690247E+03 -4.027003E+05 -1.426906E+04  1.950043E+04
       345   7 -4.317316E+05 -3.679486E+04  4.378563E+04 -2.803742E+05 -3.810296E+04  1.966160E+04
       345   8 -5.031162E+05 -5.289675E+04  4.357443E+04 -2.973514E+05 -3.154530E+04  1.839975E+04
       345   9 -5.663569E+05 -8.352353E+04  3.828456E+04 -3.252975E+05 -2.444002E+04  1.567680E+04
       345  10 -1.262023E+06 -3.442062E+05 -1.047596E+05 -5.196106E+05  6.804565E-08  2.492244E-08
       345  11 -1.197257E+06 -3.059123E+05 -7.551485E+04 -4.943555E+05  3.189155E-08  1.508943E-08
       345  12 -1.125430E+06 -2.832254E+05 -5.566684E+04 -4.800696E+05 -1.663768E-08 -4.738807E-09
       345  13 -8.469671E+05 -1.905095E+05 -3.048526E+04 -4.000293E+05 -1.550726E-08 -7.563183E-09
       345  14 -8.502515E+05 -1.794112E+05 -1.596978E+04 -3.958791E+05  3.606109E-10 -3.335222E-09
       345  15 -8.459369E+05 -1.833790E+05 -8.691344E+03 -4.027001E+05  9.168299E-10  1.834245E-09
       345  16 -4.317332E+05 -3.679566E+04  4.378217E+04 -2.803736E+05 -9.781368E-08 -3.995393E-08
       345  17 -5.031174E+05 -5.289738E+04  4.357193E+04 -2.973509E+05 -3.358798E-08 -1.282701E-08
       345  18 -5.663576E+05 -8.352395E+04  3.828298E+04 -3.252972E+05  2.006266E-08  7.105246E-09
       345  19 -1.262022E+06 -3.442054E+05 -1.047571E+05 -5.196111E+05  2.863342E+04 -2.322690E+04
       345  20 -1.197257E+06 -3.059116E+05 -7.551325E+04 -4.943558E+05  1.664309E+04 -2.400517E+04
       345  21 -1.125430E+06 -2.832248E+05 -5.566579E+04 -4.800697E+05  4.103076E+03 -2.332223E+04
       345  22 -8.469658E+05 -1.905087E+05 -3.048230E+04 -4.000299E+05  3.336653E+04 -2.144491E+04
       345  23 -8.502508E+05 -1.794105E+05 -1.596784E+04 -3.958795E+05  2.409198E+04 -2.120332E+04
       345  24 -8.459366E+05 -1.833785E+05 -8.690247E+03 -4.027003E+05  1.426906E+04 -1.950043E+04
       345  25 -4.317316E+05 -3.679486E+04  4.378563E+04 -2.803742E+05  3.810296E+04 -1.966160E+04
       345  26 -5.031162E+05 -5.289675E+04  4.357443E+04 -2.973514E+05  3.154530E+04 -1.839975E+04
       345  27 -5.663569E+05 -8.352353E+04  3.828456E+04 -3.252975E+05  2.444002E+04 -1.567680E+04
       346   1 -1.080113E+06 -2.676013E+05 -4.564803E+04 -4.679968E+05 -1.827669E+03  2.050989E+04
       346   2 -1.015668E+06 -2.371097E+05 -3.105152E+04 -4.426534E+05  2.274962E+03  1.581547E+04
       346   3 -9.411520E+05 -2.174095E+05 -1.806303E+04 -4.292506E+05  6.430824E+03  1.097785E+04
       346   4 -8.455093E+05 -1.833931E+05 -6.519153E+03 -4.025466E+05 -1.187181E+04  1.673453E+04
       346   5 -8.505448E+05 -1.778907E+05 -3.571660E+03 -3.966234E+05 -8.035587E+03  1.194072E+04
       346   6 -8.454625E+05 -1.831270E+05 -2.020671E+03 -4.026424E+05 -4.146395E+03  7.003652E+03
       346   7 -6.108464E+05 -9.917940E+04  3.260877E+04 -3.370731E+05 -2.191997E+04  1.295767E+04
       346   8 -6.853935E+05 -1.186693E+05  2.390772E+04 -3.505821E+05 -1.834899E+04  8.064904E+03
       346   9 -7.497641E+05 -1.488438E+05  1.402164E+04 -3.760306E+05 -1.472523E+04  3.028854E+03
       346  10 -1.080113E+06 -2.676018E+05 -4.564883E+04 -4.679968E+05  1.663154E-09  2.805652E-09
       346  11 -1.015668E+06 -2.371100E+05 -3.105199E+04 -4.426534E+05 -9.577593E-10  1.715461E-09
       346  12 -9.411521E+05 -2.174097E+05 -1.806333E+04 -4.292507E+05 -2.279569E-09  1.842359E-09
       346  13 -8.455096E+05 -1.833935E+05 -6.519944E+03 -4.025464E+05 -7.827101E-10  1.086753E-09
       346  14 -8.505449E+05 -1.778909E+05 -3.572049E+03 -3.966233E+05 -5.270435E-10  5.955016E-10
       346  15 -8.454626E+05 -1.831270E+05 -2.020795E+03 -4.026424E+05 -1.539126E-09  1.601293E-09
       346  16 -6.108470E+05 -9.917971E+04  3.260755E+04 -3.370729E+05 -3.862239E-09  2.255660E-10
       346  17 -6.853939E+05 -1.186695E+05  2.390696E+04 -3.505820E+05 -8.185686E-10 -3.497739E-10
       346  18 -7.497643E+05 -1.488439E+05  1.402121E+04 -3.760306E+05  1.300770E-09  9.668451E-10
       346  19 -1.080113E+06 -2.676013E+05 -4.564803E+04 -4.679968E+05  1.827669E+03 -2.050989E+04
       346  20 -1.015668E+06 -2.371097E+05 -3.105152E+04 -4.426534E+05 -2.274962E+03 -1.581547E+04
       346  21 -9.411520E+05 -2.174095E+05 -1.806303E+04 -4.292506E+05 -6.430824E+03 -1.097785E+04
       346  22 -8.455093E+05 -1.833931E+05 -6.519153E+03 -4.025466E+05  1.187181E+04 -1.673453E+04
       346  23 -8.505448E+05 -1.778907E+05 -3.571660E+03 -3.966234E+05  8.035587E+03 -1.194072E+04
       346  24 -8.454625E+05 -1.831270E+05 -2.020671E+03 -4.026424E+05  4.146395E+03 -7.003652E+03
       346  25 -6.108464E+05 -9.917940E+04  3.260877E+04 -3.370731E+05  2.191997E+04 -1.295767E+04
       346  26 -6.853935E+05 -1.186693E+05  2.390772E+04 -3.505821E+05  1.834899E+04 -8.064904E+03
       346  27 -7.497641E+05 -1.488438E+05  1.402164E+04 -3.760306E+05  1.472523E+04 -3.028854E+03
       347   1 -8.966224E+05 -2.014235E+05 -9.897119E+03 -4.168588E+05  7.959071E+03  7.776149E+03
       347   2 -8.323085E+05 -1.712711E+05  2.022482E+03 -3.914442E+05  1.061045E+04  2.292409E+03
       347   3 -7.576044E+05 -1.515959E+05  1.355424E+04 -3.779906E+05  1.326629E+04 -3.202873E+03
       347   4 -8.454114E+05 -1.831373E+05 -1.561765E+03 -4.026208E+05 -2.607649E+03  3.806090E+03
       347   5 -8.506068E+05 -1.779102E+05 -9.954584E+02 -3.966353E+05  2.150033E+01 -1.686109E+03
       347   6 -8.454145E+05 -1.831573E+05 -8.002224E+02 -4.026134E+05  2.655037E+03 -7.189862E+03
       347   7 -7.941967E+05 -1.648505E+05  6.774171E+03 -3.883815E+05 -1.317541E+04 -1.643546E+02
       347   8 -8.689046E+05 -1.845493E+05 -4.012954E+03 -4.018262E+05 -1.056718E+04 -5.664522E+03
       347   9 -9.332162E+05 -2.147179E+05 -1.515438E+04 -4.272329E+05 -7.954623E+03 -1.117625E+04
       347  10 -8.966225E+05 -2.014236E+05 -9.897352E+03 -4.168589E+05 -2.287665E-10  1.666072E-09
       347  11 -8.323086E+05 -1.712711E+05  2.022260E+03 -3.914442E+05  5.054020E-10 -3.379719E-11
       347  12 -7.576046E+05 -1.515960E+05  1.355389E+04 -3.779906E+05 -4.015785E-10 -1.174054E-09
       347  13 -8.454114E+05 -1.831373E+05 -1.561805E+03 -4.026208E+05 -3.362234E-10  7.344127E-10
       347  14 -8.506068E+05 -1.779102E+05 -9.954637E+02 -3.966353E+05  1.016653E-10 -3.944429E-10
       347  15 -8.454146E+05 -1.831574E+05 -8.003328E+02 -4.026134E+05  1.004120E-10  8.004487E-10
       347  16 -7.941969E+05 -1.648506E+05  6.773845E+03 -3.883815E+05 -1.491145E-09  4.535860E-10
       347  17 -8.689048E+05 -1.845493E+05 -4.013225E+03 -4.018262E+05  1.050810E-09  3.233456E-10
       347  18 -9.332163E+05 -2.147180E+05 -1.515473E+04 -4.272329E+05  1.187356E-09  6.468758E-10
       347  19 -8.966224E+05 -2.014235E+05 -9.897119E+03 -4.168588E+05 -7.959071E+03 -7.776149E+03
       347  20 -8.323085E+05 -1.712711E+05  2.022482E+03 -3.914442E+05 -1.061045E+04 -2.292409E+03
       347  21 -7.576044E+05 -1.515959E+05  1.355424E+04 -3.779906E+05 -1.326629E+04  3.202873E+03
       347  22 -8.454114E+05 -1.831373E+05 -1.561765E+03 -4.026208E+05  2.607649E+03 -3.806090E+03
       347  23 -8.506068E+05 -1.779102E+05 -9.954584E+02 -3.966353E+05 -2.150033E+01  1.686109E+03
       347  24 -8.454145E+05 -1.831573E+05 -8.002224E+02 -4.026134E+05 -2.655037E+03  7.189862E+03
       347  25 -7.941967E+05 -1.648505E+05  6.774171E+03 -3.883815E+05  1.317541E+04  1.643546E+02
       347  26 -8.689046E+05 -1.845493E+05 -4.012954E+03 -4.018262E+05  1.056718E+04  5.664522E+03
       347  27 -9.332162E+05 -2.147179E+05 -1.515438E+04 -4.272329E+05  7.954623E+03  1.117625E+04
       348   1 -7.131704E+05 -1.355759E+05  2.123584E+04 -3.655821E+05  1.464574E+04 -6.468390E+03
       348   2 -6.488962E+05 -1.054322E+05  3.232153E+04 -3.401796E+05  1.727126E+04 -1.196883E+04
       348   3 -5.742297E+05 -8.575019E+04  4.304334E+04 -3.267300E+05  1.989020E+04 -1.744932E+04
       348   4 -8.454192E+05 -1.831588E+05 -8.107915E+02 -4.026116E+05  4.035670E+03 -1.045522E+04
       348   5 -8.506140E+05 -1.779256E+05 -1.054992E+03 -3.966356E+05  6.697240E+03 -1.594299E+04
       348   6 -8.454286E+05 -1.831617E+05 -1.691811E+03 -4.026145E+05  9.352201E+03 -2.141086E+04
       348   7 -9.776476E+05 -2.307393E+05 -2.285697E+04 -4.396333E+05 -6.571888E+03 -1.444110E+04
       348   8 -1.052288E+06 -2.504148E+05 -3.443199E+04 -4.530744E+05 -3.873128E+03 -1.991578E+04
       348   9 -1.116551E+06 -2.805669E+05 -4.642901E+04 -4.784687E+05 -1.181025E+03 -2.537062E+04
       348  10 -7.131707E+05 -1.355760E+05  2.123536E+04 -3.655820E+05 -2.260045E-09 -8.374055E-10
       348  11 -6.488965E+05 -1.054324E+05  3.232070E+04 -3.401794E+05  1.257994E-09  5.560645E-10
       348  12 -5.742302E+05 -8.575063E+04  4.304202E+04 -3.267297E+05  3.718101E-09  1.021994E-09
       348  13 -8.454192E+05 -1.831589E+05 -8.110274E+02 -4.026116E+05 -8.906661E-10  8.550500E-10
       348  14 -8.506141E+05 -1.779259E+05 -1.055554E+03 -3.966355E+05  1.137960E-09  3.864616E-10
       348  15 -8.454288E+05 -1.831623E+05 -1.692836E+03 -4.026143E+05 -1.755139E-09 -6.087385E-10
       348  16 -9.776477E+05 -2.307396E+05 -2.285745E+04 -4.396334E+05  1.940074E-09  1.313599E-09
       348  17 -1.052288E+06 -2.504152E+05 -3.443277E+04 -4.530744E+05 -9.591665E-10  5.503934E-10
       348  18 -1.116552E+06 -2.805676E+05 -4.643023E+04 -4.784687E+05 -3.228360E-09 -1.481087E-09
       348  19 -7.131704E+05 -1.355759E+05  2.123584E+04 -3.655821E+05 -1.464574E+04  6.468390E+03
       348  20 -6.488962E+05 -1.054322E+05  3.232153E+04 -3.401796E+05 -1.727126E+04  1.196883E+04
       348  21 -5.742297E+05 -8.575019E+04  4.304334E+04 -3.267300E+05 -1.989020E+04  1.744932E+04
       348  22 -8.454192E+05 -1.831588E+05 -8.107915E+02 -4.026116E+05 -4.035670E+03  1.045522E+04
       348  23 -8.506140E+05 -1.779256E+05 -1.054992E+03 -3.966356E+05 -6.697240E+03  1.594299E+04
       348  24 -8.454286E+05 -1.831617E+05 -1.691811E+03 -4.026145E+05 -9.352201E+03  2.141086E+04
       348  25 -9.776476E+05 -2.307393E+05 -2.285697E+04 -4.396333E+05  6.571888E+03  1.444110E+04
       348  26 -1.052288E+06 -2.504148E+05 -3.443199E+04 -4.530744E+05  3.873128E+03  1.991578E+04
       348  27 -1.116551E+06 -2.805669E+05 -4.642901E+04 -4.784687E+05  1.181025E+03  2.537062E+04
       349   1 -5.298603E+05 -6.976169E+04  5.023652E+04 -3.143858E+05  2.146350E+04 -2.062410E+04
       349   2 -4.656209E+05 -3.963497E+04  5.998541E+04 -2.889639E+05  2.514247E+04 -2.558948E+04
       349   3 -3.912308E+05 -2.018189E+04  6.849676E+04 -2.754517E+05  2.874969E+04 -3.035918E+04
       349   4 -8.454926E+05 -1.831535E+05 -2.199601E+03 -4.026339E+05  1.091409E+04 -2.459071E+04
       349   5 -8.505627E+05 -1.779383E+05 -3.906563E+03 -3.966230E+05  1.495547E+04 -2.942154E+04
       349   6 -8.455588E+05 -1.834697E+05 -7.139213E+03 -4.025246E+05  1.892488E+04 -3.405667E+04
       349   7 -1.161018E+06 -2.965351E+05 -5.463762E+04 -4.908398E+05  3.703897E+02 -2.855519E+04
       349   8 -1.235344E+06 -3.162257E+05 -6.780104E+04 -5.042189E+05  4.775242E+03 -3.325106E+04
       349   9 -1.299661E+06 -3.467349E+05 -8.277841E+04 -5.295088E+05  9.107811E+03 -3.775127E+04
       349  10 -5.298609E+05 -6.976227E+04  5.023485E+04 -3.143855E+05 -7.050314E-10 -7.042483E-10
       349  11 -4.656218E+05 -3.963585E+04  5.998299E+04 -2.889634E+05 -2.609460E-09 -1.383871E-09
       349  12 -3.912319E+05 -2.018310E+04  6.849348E+04 -2.754510E+05 -1.320465E-09  4.460090E-10
       349  13 -8.454928E+05 -1.831542E+05 -2.200961E+03 -4.026337E+05 -9.365879E-10  7.169785E-10
       349  14 -8.505632E+05 -1.779393E+05 -3.908609E+03 -3.966227E+05 -1.873920E-09  8.932892E-10
       349  15 -8.455595E+05 -1.834711E+05 -7.142064E+03 -4.025240E+05  5.576815E-12 -4.638996E-10
       349  16 -1.161018E+06 -2.965360E+05 -5.463915E+04 -4.908398E+05  1.344430E-10 -2.457193E-10
       349  17 -1.235344E+06 -3.162269E+05 -6.780316E+04 -5.042187E+05  1.530120E-09 -5.729844E-10
       349  18 -1.299662E+06 -3.467364E+05 -8.278124E+04 -5.295085E+05 -4.969892E-10  1.305050E-09
       349  19 -5.298603E+05 -6.976169E+04  5.023652E+04 -3.143858E+05 -2.146350E+04  2.062410E+04
       349  20 -4.656209E+05 -3.963497E+04  5.998541E+04 -2.889639E+05 -2.514247E+04  2.558948E+04
       349  21 -3.912308E+05 -2.018189E+04  6.849676E+04 -2.754517E+05 -2.874969E+04  3.035918E+04
       349  22 -8.454926E+05 -1.831535E+05 -2.199601E+03 -4.026339E+05 -1.091409E+04  2.459071E+04
       349  23 -8.505627E+05 -1.779383E+05 -3.906563E+03 -3.966230E+05 -1.495547E+04  2.942154E+04
       349  24 -8.455588E+05 -1.834697E+05 -7.139213E+03 -4.025246E+05 -1.892488E+04  3.405667E+04
       349  25 -1.161018E+06 -2.965351E+05 -5.463762E+04 -4.908398E+05 -3.703897E+02  2.855519E+04
       349  26 -1.235344E+06 -3.162257E+05 -6.780104E+04 -5.042189E+05 -4.775242E+03  3.325106E+04
       349  27 -1.299661E+06 -3.467349E+05 -8.277841E+04 -5.295088E+05 -9.107811E+03  3.775127E+04
       350   1 -3.468387E+05 -4.571281E+03  7.400204E+04 -2.637345E+05  3.140814E+04 -3.297457E+04
       350   2 -2.839654E+05  2.604880E+04  7.899966E+04 -2.356468E+05  3.819516E+04 -3.540865E+04
       350   3 -2.130651E+05  4.195499E+04  7.899190E+04 -2.183603E+05  4.424173E+04 -3.586828E+04
       350   4 -8.460324E+05 -1.834506E+05 -9.517225E+03 -4.026813E+05  2.142008E+04 -3.673463E+04
       350   5 -8.502494E+05 -1.796415E+05 -1.749351E+04 -3.958143E+05  3.187924E+04 -3.778961E+04
       350   6 -8.471763E+05 -1.912801E+05 -3.339283E+04 -3.997523E+05  4.159697E+04 -3.686936E+04
       350   7 -1.344966E+06 -3.623075E+05 -9.304390E+04 -5.415250E+05  1.144043E+04 -4.049156E+04
       350   8 -1.416195E+06 -3.852998E+05 -1.139962E+05 -5.558452E+05  2.556941E+04 -4.016825E+04
       350   9 -1.480862E+06 -4.244725E+05 -1.457905E+05 -5.809697E+05  3.895509E+04 -3.786933E+04
       350  10 -3.468401E+05 -4.572712E+03  7.399815E+04 -2.637337E+05 -1.293447E-09  1.668511E-09
       350  11 -2.839673E+05  2.604707E+04  7.899456E+04 -2.356457E+05  3.867472E-10  2.412772E-09
       350  12 -2.130675E+05  4.195308E+04  7.898580E+04 -2.183591E+05  3.563829E-09  5.529725E-10
       350  13 -8.460333E+05 -1.834521E+05 -9.520621E+03 -4.026807E+05 -1.858653E-09  3.041832E-10
       350  14 -8.502509E+05 -1.796433E+05 -1.749811E+04 -3.958133E+05 -1.596178E-09  1.477914E-09
       350  15 -8.471785E+05 -1.912820E+05 -3.339863E+04 -3.997510E+05 -1.616826E-09 -7.698580E-10
       350  16 -1.344966E+06 -3.623093E+05 -9.304722E+04 -5.415247E+05 -1.148869E-09  1.086264E-09
       350  17 -1.416196E+06 -3.853017E+05 -1.140004E+05 -5.558444E+05 -1.096176E-09 -3.575396E-10
       350  18 -1.480864E+06 -4.244744E+05 -1.457960E+05 -5.809685E+05 -3.204441E-09 -2.064436E-09
       350  19 -3.468387E+05 -4.571281E+03  7.400204E+04 -2.637345E+05 -3.140814E+04  3.297457E+04
       350  20 -2.839654E+05  2.604880E+04  7.899966E+04 -2.356468E+05 -3.819516E+04  3.540865E+04
       350  21 -2.130651E+05  4.195499E+04  7.899190E+04 -2.183603E+05 -4.424173E+04  3.586828E+04
       350  22 -8.460324E+05 -1.834506E+05 -9.517225E+03 -4.026813E+05 -2.142008E+04  3.673463E+04
       350  23 -8.502494E+05 -1.796415E+05 -1.749351E+04 -3.958143E+05 -3.187924E+04  3.778961E+04
       350  24 -8.471763E+05 -1.912801E+05 -3.339283E+04 -3.997523E+05 -4.159697E+04  3.686936E+04
       350  25 -1.344966E+06 -3.623075E+05 -9.304390E+04 -5.415250E+05 -1.144043E+04  4.049156E+04
       350  26 -1.416195E+06 -3.852998E+05 -1.139962E+05 -5.558452E+05 -2.556941E+04  4.016825E+04
       350  27 -1.480862E+06 -4.244725E+05 -1.457905E+05 -5.809697E+05 -3.895509E+04  3.786933E+04
       351   1 -1.666561E+05  5.179505E+04  7.770023E+04 -2.147233E+05  5.172332E+04 -3.518756E+04
       351   2 -1.339743E+05  9.199001E+04  6.593085E+04 -1.338839E+05  5.527323E+04 -2.494017E+04
       351   3 -1.208287E+05  4.890537E+04  2.897050E+04 -4.367734E+04  5.117629E+04  5.602577E+03
       351   4 -8.525161E+05 -1.917905E+05 -4.461963E+04 -4.013914E+05  4.731833E+04 -3.685144E+04
       351   5 -8.488309E+05 -2.155046E+05 -8.533737E+04 -3.800716E+05  8.867896E+04 -1.237011E+04
       351   6 -8.722266E+05 -3.300676E+05 -1.812635E+05 -3.493806E+05  1.223848E+05  3.241601E+04
       351   7 -1.537879E+06 -4.353352E+05 -1.669548E+05 -5.878686E+05  4.291854E+04 -3.851345E+04
       351   8 -1.563136E+06 -5.228898E+05 -2.366239E+05 -6.259722E+05  1.220429E+05  1.779632E+02
       351   9 -1.623010E+06 -7.088369E+05 -3.915182E+05 -6.546899E+05  1.934971E+05  5.916517E+04
       351  10 -1.666593E+05  5.179300E+04  7.769288E+04 -2.147218E+05  8.592053E-10 -2.205116E-09
       351  11 -1.339777E+05  9.198852E+04  6.592394E+04 -1.338827E+05  4.923887E-10 -3.020992E-09
       351  12 -1.208315E+05  4.890463E+04  2.896552E+04 -4.367757E+04 -1.549587E-09 -6.234539E-11
       351  13 -8.525189E+05 -1.917926E+05 -4.462639E+04 -4.013900E+05 -2.096680E-10 -2.631323E-09
       351  14 -8.488394E+05 -2.155069E+05 -8.535245E+04 -3.800708E+05  1.334153E-09  1.284388E-09
       351  15 -8.722430E+05 -3.300728E+05 -1.812937E+05 -3.493838E+05 -2.454840E-09  2.781439E-09
       351  16 -1.537882E+06 -4.353373E+05 -1.669610E+05 -5.878673E+05 -7.639086E-10 -7.679851E-10
       351  17 -1.563152E+06 -5.228938E+05 -2.366519E+05 -6.259723E+05 -8.452547E-10  2.132878E-09
       351  18 -1.623051E+06 -7.088508E+05 -3.915954E+05 -6.546991E+05  2.766528E-10 -3.240248E-10
       351  19 -1.666561E+05  5.179505E+04  7.770023E+04 -2.147233E+05 -5.172332E+04  3.518756E+04
       351  20 -1.339743E+05  9.199001E+04  6.593085E+04 -1.338839E+05 -5.527323E+04  2.494017E+04
       351  21 -1.208287E+05  4.890537E+04  2.897050E+04 -4.367734E+04 -5.117629E+04 -5.602577E+03
       351  22 -8.525161E+05 -1.917905E+05 -4.461963E+04 -4.013914E+05 -4.731833E+04  3.685144E+04
       351  23 -8.488309E+05 -2.155046E+05 -8.533737E+04 -3.800716E+05 -8.867896E+04  1.237011E+04
       351  24 -8.722266E+05 -3.300676E+05 -1.812635E+05 -3.493806E+05 -1.223848E+05 -3.241601E+04
       351  25 -1.537879E+06 -4.353352E+05 -1.669548E+05 -5.878686E+05 -4.291854E+04  3.851345E+04
       351  26 -1.563136E+06 -5.228898E+05 -2.366239E+05 -6.259722E+05 -1.220429E+05 -1.779632E+02
       351  27 -1.623010E+06 -7.088369E+05 -3.915182E+05 -6.546899E+05 -1.934971E+05 -5.916517E+04
       352   1 -5.000698E+05 -8.460045E+04 -1.344452E+05 -3.867821E+04 -1.510197E+05 -3.454449E+03
       352   2 -4.851928E+05  1.193231E+05 -1.205582E+04 -1.270910E+04 -1.005319E+05 -9.931750E+03
       352   3 -5.343242E+05  9.290082E+04  1.991362E+04  2.896294E+04 -5.005778E+04 -9.108070E+03
       352   4 -8.736711E+05 -1.777477E+05 -2.270240E+05  7.859533E+03 -1.551095E+05 -3.471591E+03
       352   5 -8.413532E+05  3.079079E+04 -9.855783E+04 -1.261285E+02 -1.016753E+05 -9.936085E+03
       352   6 -8.735960E+05  8.396176E+03 -6.259808E+04  7.591456E+03 -4.825316E+04 -9.103281E+03
       352   7 -1.247141E+06 -2.708973E+05 -3.196120E+05  5.436918E+04 -1.591967E+05 -3.489355E+03
       352   8 -1.197397E+06 -5.775021E+04 -1.850689E+05  1.244955E+04 -1.028180E+05 -9.940468E+03
       352   9 -1.212762E+06 -7.611526E+04 -1.451179E+05 -1.376836E+04 -4.644951E+04 -9.098614E+03
       352  10 -5.000943E+05 -8.460659E+04 -1.344881E+05 -3.867863E+04 -1.998889E-09  4.622471E-10
       352  11 -4.852037E+05  1.193202E+05 -1.207501E+04 -1.270990E+04  1.893369E-09 -1.069959E-09
       352  12 -5.343269E+05  9.290005E+04  1.990875E+04  2.896257E+04  9.059890E-10 -3.278130E-09
       352  13 -8.736970E+05 -1.777542E+05 -2.270693E+05  7.859099E+03  7.686901E-10  2.403919E-09
       352  14 -8.413644E+05  3.078790E+04 -9.857747E+04 -1.269424E+02  6.370394E-10  3.545479E-10
       352  15 -8.735985E+05  8.395461E+03 -6.260262E+04  7.591103E+03 -1.145256E-09 -1.020397E-10
       352  16 -1.247168E+06 -2.709041E+05 -3.196598E+05  5.436873E+04  3.887006E-10  1.545620E-09
       352  17 -1.197409E+06 -5.775316E+04 -1.850890E+05  1.244873E+04 -1.216070E-09 -2.210179E-09
       352  18 -1.212764E+06 -7.611593E+04 -1.451221E+05 -1.376870E+04 -2.180485E-09 -5.351007E-09
       352  19 -5.000698E+05 -8.460045E+04 -1.344452E+05 -3.867821E+04  1.510197E+05  3.454449E+03
       352  20 -4.851928E+05  1.193231E+05 -1.205582E+04 -1.270910E+04  1.005319E+05  9.931750E+03
       352  21 -5.343242E+05  9.290082E+04  1.991362E+04  2.896294E+04  5.005778E+04  9.108070E+03
       352  22 -8.736711E+05 -1.777477E+05 -2.270240E+05  7.859533E+03  1.551095E+05  3.471591E+03
       352  23 -8.413532E+05  3.079079E+04 -9.855783E+04 -1.261285E+02  1.016753E+05  9.936085E+03
       352  24 -8.735960E+05  8.396176E+03 -6.259808E+04  7.591456E+03  4.825316E+04  9.103281E+03
       352  25 -1.247141E+06 -2.708973E+05 -3.196120E+05  5.436918E+04  1.591967E+05  3.489355E+03
       352  26 -1.197397E+06 -5.775021E+04 -1.850689E+05  1.244955E+04  1.028180E+05  9.940468E+03
       352  27 -1.212762E+06 -7.611526E+04 -1.451179E+05 -1.376836E+04  4.644951E+04  9.098614E+03
       353   1 -5.530799E+05  5.540600E+04  2.373763E+04  3.332601E+03 -3.820993E+04 -7.630627E+03
       353   2 -5.674248E+05  7.574029E+04  4.479326E+04 -1.363733E+03 -2.527432E+04 -7.594862E+03
       353   3 -5.903157E+05  6.844514E+04  5.052591E+04  1.111456E+04 -1.234072E+04 -6.847597E+03
       353   4 -8.611732E+05 -2.125094E+04 -5.133537E+04  8.040926E+03 -3.833818E+04 -7.631451E+03
       353   5 -8.568662E+05  3.730087E+03 -2.562068E+04 -5.699938E+02 -2.511839E+04 -7.594793E+03
       353   6 -8.611592E+05  1.025057E+03 -1.543187E+04  7.994278E+03 -1.190024E+04 -6.846650E+03
       353   7 -1.169180E+06 -9.791480E+04 -1.264153E+05  1.274686E+04 -3.846635E+04 -7.632277E+03
       353   8 -1.146231E+06 -6.828629E+04 -9.604069E+04  2.233310E+02 -2.496254E+04 -7.594723E+03
       353   9 -1.131936E+06 -6.640041E+04 -8.139498E+04  4.875325E+03 -1.145994E+04 -6.845709E+03
       353  10 -5.530815E+05  5.540555E+04  2.373477E+04  3.332366E+03 -6.150403E-10 -5.301550E-09
       353  11 -5.674255E+05  7.574006E+04  4.479195E+04 -1.363887E+03 -1.657411E-09  1.212984E-09
       353  12 -5.903159E+05  6.844505E+04  5.052553E+04  1.111449E+04 -3.788280E-09  2.985502E-09
       353  13 -8.611748E+05 -2.125140E+04 -5.133825E+04  8.040691E+03  2.054968E-13 -4.546017E-09
       353  14 -8.568669E+05  3.729855E+03 -2.562197E+04 -5.701475E+02 -1.665985E-09 -6.873481E-10
       353  15 -8.611594E+05  1.024968E+03 -1.543223E+04  7.994213E+03 -9.453261E-10 -1.073220E-09
       353  16 -1.169181E+06 -9.791526E+04 -1.264182E+05  1.274663E+04  1.114763E-10 -2.269613E-09
       353  17 -1.146232E+06 -6.828652E+04 -9.604197E+04  2.231782E+02 -9.061439E-10 -1.232529E-09
       353  18 -1.131936E+06 -6.640050E+04 -8.139531E+04  4.875262E+03  1.525203E-09  1.375614E-09
       353  19 -5.530799E+05  5.540600E+04  2.373763E+04  3.332601E+03  3.820993E+04  7.630627E+03
       353  20 -5.674248E+05  7.574029E+04  4.479326E+04 -1.363733E+03  2.527432E+04  7.594862E+03
       353  21 -5.903157E+05  6.844514E+04  5.052591E+04  1.111456E+04  1.234072E+04  6.847597E+03
       353  22 -8.611732E+05 -2.125094E+04 -5.133537E+04  8.040926E+03  3.833818E+04  7.631451E+03
       353  23 -8.568662E+05  3.730087E+03 -2.562068E+04 -5.699938E+02  2.511839E+04  7.594793E+03
       353  24 -8.611592E+05  1.025057E+03 -1.543187E+04  7.994278E+03  1.190024E+04  6.846650E+03
       353  25 -1.169180E+06 -9.791480E+04 -1.264153E+05  1.274686E+04  3.846635E+04  7.632277E+03
       353  26 -1.146231E+06 -6.828629E+04 -9.604069E+04  2.233310E+02  2.496254E+04  7.594723E+03
       353  27 -1.131936E+06 -6.640041E+04 -8.139498E+04  4.875325E+03  1.145994E+04  6.845709E+03
       354   1 -6.224302E+05  5.650444E+04  4.547420E+04  8.221903E+03 -9.708276E+03 -6.319927E+03
       354   2 -6.416650E+05  5.450307E+04  4.628071E+04 -5.346239E+02 -6.429066E+03 -5.640485E+03
       354   3 -6.621744E+05  4.928823E+04  4.413807E+04  9.031395E+03 -3.150574E+03 -4.875934E+03
       354   4 -8.595299E+05 -2.482461E+03 -1.217672E+04  8.269482E+03 -9.449661E+03 -6.319425E+03
       354   5 -8.588876E+05  4.504897E+02 -6.576423E+03 -8.955097E+02 -6.136892E+03 -5.639815E+03
       354   6 -8.595268E+05  1.634225E+02 -3.949425E+03  8.262458E+03 -2.824738E+03 -4.875087E+03
       354   7 -1.096578E+06 -6.147350E+04 -6.983171E+04  8.317009E+03 -9.191145E+03 -6.318922E+03
       354   8 -1.076067E+06 -5.360557E+04 -5.943698E+04 -1.256298E+03 -5.844820E+03 -5.639146E+03
       354   9 -1.056844E+06 -4.896426E+04 -5.203975E+04  7.493741E+03 -2.499005E+03 -4.874241E+03
       354  10 -6.224303E+05  5.650437E+04  4.547394E+04  8.221853E+03 -1.210126E-09  5.934828E-09
       354  11 -6.416650E+05  5.450303E+04  4.628057E+04 -5.346532E+02 -4.408734E-10  5.848539E-09
       354  12 -6.621744E+05  4.928820E+04  4.413801E+04  9.031383E+03  1.669082E-09  9.916595E-10
       354  13 -8.595300E+05 -2.482528E+03 -1.217697E+04  8.269434E+03 -4.504834E-10 -1.298695E-09
       354  14 -8.588877E+05  4.504454E+02 -6.576554E+03 -8.955376E+02 -1.283852E-09  5.945248E-09
       354  15 -8.595268E+05  1.633949E+02 -3.949485E+03  8.262447E+03 -8.671230E-10  8.168627E-09
       354  16 -1.096578E+06 -6.147356E+04 -6.983195E+04  8.316962E+03 -2.676034E-10  4.407778E-09
       354  17 -1.076067E+06 -5.360562E+04 -5.943711E+04 -1.256325E+03 -7.349753E-10  4.579250E-09
       354  18 -1.056844E+06 -4.896429E+04 -5.203981E+04  7.493731E+03 -1.253555E-09  6.075956E-09
       354  19 -6.224302E+05  5.650444E+04  4.547420E+04  8.221903E+03  9.708276E+03  6.319927E+03
       354  20 -6.416650E+05  5.450307E+04  4.628071E+04 -5.346239E+02  6.429066E+03  5.640485E+03
       354  21 -6.621744E+05  4.928823E+04  4.413807E+04  9.031395E+03  3.150574E+03  4.875934E+03
       354  22 -8.595299E+05 -2.482461E+03 -1.217672E+04  8.269482E+03  9.449661E+03  6.319425E+03
       354  23 -8.588876E+05  4.504897E+02 -6.576423E+03 -8.955097E+02  6.136892E+03  5.639815E+03
       354  24 -8.595268E+05  1.634225E+02 -3.949425E+03  8.262458E+03  2.824738E+03  4.875087E+03
       354  25 -1.096578E+06 -6.147350E+04 -6.983171E+04  8.317009E+03  9.191145E+03  6.318922E+03
       354  26 -1.076067E+06 -5.360557E+04 -5.943698E+04 -1.256298E+03  5.844820E+03  5.639146E+03
       354  27 -1.056844E+06 -4.896426E+04 -5.203975E+04  7.493741E+03  2.499005E+03  4.874241E+03
       355   1 -6.976032E+05  3.998711E+04  3.615911E+04  8.771578E+03 -2.499712E+03 -4.419086E+03
       355   2 -7.182110E+05  3.513282E+04  3.233160E+04 -7.965533E+02 -1.530595E+03 -3.650350E+03
       355   3 -7.391352E+05  2.996762E+04  2.777113E+04  8.778814E+03 -5.618567E+02 -2.862432E+03
       355   4 -8.593093E+05 -2.407759E+02 -3.130503E+03  8.447694E+03 -2.191044E+03 -4.418241E+03
       355   5 -8.591494E+05  5.996845E+01 -1.965569E+03 -1.124708E+03 -1.214338E+03 -3.649431E+03
       355   6 -8.593082E+05  4.835714E+01 -1.539073E+03  8.446659E+03 -2.379791E+02 -2.861435E+03
       355   7 -1.020991E+06 -4.047059E+04 -4.242201E+04  8.123877E+03 -1.882456E+03 -4.417397E+03
       355   8 -1.000070E+06 -3.501435E+04 -3.626418E+04 -1.452802E+03 -8.981531E+02 -3.648512E+03
       355   9 -9.794679E+05 -2.987197E+04 -3.085033E+04  8.114558E+03  8.583588E+01 -2.860438E+03
       355  10 -6.976032E+05  3.998709E+04  3.615907E+04  8.771569E+03  3.530584E-09 -1.823856E-10
       355  11 -7.182110E+05  3.513281E+04  3.233158E+04 -7.965578E+02 -1.360638E-10  7.266893E-09
       355  12 -7.391352E+05  2.996761E+04  2.777111E+04  8.778813E+03 -1.074454E-09  6.553932E-09
       355  13 -8.593093E+05 -2.407981E+02 -3.130548E+03  8.447687E+03  1.052494E-09  2.468391E-09
       355  14 -8.591494E+05  5.995376E+01 -1.965597E+03 -1.124712E+03  6.935708E-10  3.801691E-09
       355  15 -8.593082E+05  4.834834E+01 -1.539089E+03  8.446659E+03 -8.169330E-11  3.376424E-10
       355  16 -1.020991E+06 -4.047061E+04 -4.242206E+04  8.123871E+03 -5.225678E-09  3.417170E-09
       355  17 -1.000070E+06 -3.501436E+04 -3.626421E+04 -1.452805E+03 -1.576512E-09 -2.615893E-09
       355  18 -9.794679E+05 -2.987198E+04 -3.085034E+04  8.114558E+03 -1.016185E-10 -3.280197E-09
       355  19 -6.976032E+05  3.998711E+04  3.615911E+04  8.771578E+03  2.499712E+03  4.419086E+03
       355  20 -7.182110E+05  3.513282E+04  3.233160E+04 -7.965533E+02  1.530595E+03  3.650350E+03
       355  21 -7.391352E+05  2.996762E+04  2.777113E+04  8.778814E+03  5.618567E+02  2.862432E+03
       355  22 -8.593093E+05 -2.407759E+02 -3.130503E+03  8.447694E+03  2.191044E+03  4.418241E+03
       355  23 -8.591494E+05  5.996845E+01 -1.965569E+03 -1.124708E+03  1.214338E+03  3.649431E+03
       355  24 -8.593082E+05  4.835714E+01 -1.539073E+03  8.446659E+03  2.379791E+02  2.861435E+03
       355  25 -1.020991E+06 -4.047059E+04 -4.242201E+04  8.123877E+03  1.882456E+03  4.417397E+03
       355  26 -1.000070E+06 -3.501435E+04 -3.626418E+04 -1.452802E+03  8.981531E+02  3.648512E+03
       355  27 -9.794679E+05 -2.987197E+04 -3.085033E+04  8.114558E+03 -8.583588E+01  2.860438E+03
       356   1 -7.760123E+05  2.075445E+04  1.870221E+04  8.717751E+03 -2.882888E+02 -2.399091E+03
       356   2 -7.971186E+05  1.549106E+04  1.333627E+04 -1.105086E+03  5.836825E+02 -1.602151E+03
       356   3 -8.185536E+05  9.982077E+03  7.308271E+03  8.686224E+03  1.455502E+03 -8.019738E+02
       356   4 -8.593082E+05  3.849578E+01 -1.503733E+03  8.551225E+03  3.474553E+01 -2.398068E+03
       356   5 -8.591436E+05  5.518707E+01 -1.758262E+03 -1.255621E+03  9.079518E+02 -1.601101E+03
       356   6 -8.593080E+05 -1.738345E+02 -2.675648E+03  8.551801E+03  1.781036E+03 -8.008948E+02
       356   7 -9.425978E+05 -2.067797E+04 -2.171017E+04  8.384716E+03  3.577366E+02 -2.397045E+03
       356   8 -9.211651E+05 -1.538097E+04 -1.685308E+04 -1.406145E+03  1.232189E+03 -1.600050E+03
       356   9 -9.000609E+05 -1.032987E+04 -1.265969E+04  8.417385E+03  2.106549E+03 -7.998159E+02
       356  10 -7.760123E+05  2.075444E+04  1.870219E+04  8.717751E+03  4.107552E-09  3.300056E-09
       356  11 -7.971186E+05  1.549106E+04  1.333627E+04 -1.105085E+03  1.144600E-09  6.312050E-10
       356  12 -8.185536E+05  9.982076E+03  7.308265E+03  8.686225E+03 -2.281750E-09 -5.382186E-09
       356  13 -8.593082E+05  3.848960E+01 -1.503744E+03  8.551225E+03 -6.182012E-10  1.004355E-08
       356  14 -8.591436E+05  5.518410E+01 -1.758269E+03 -1.255620E+03 -2.802044E-09  3.367015E-09
       356  15 -8.593080E+05 -1.738361E+02 -2.675655E+03  8.551802E+03 -1.582680E-09 -5.358797E-09
       356  16 -9.425978E+05 -2.067797E+04 -2.171018E+04  8.384717E+03 -4.974042E-09  4.397579E-09
       356  17 -9.211651E+05 -1.538097E+04 -1.685308E+04 -1.406143E+03 -4.368095E-09 -1.855230E-09
       356  18 -9.000609E+05 -1.032987E+04 -1.265970E+04  8.417386E+03 -3.473280E-10 -7.375748E-09
       356  19 -7.760123E+05  2.075445E+04  1.870221E+04  8.717751E+03  2.882888E+02  2.399091E+03
       356  20 -7.971186E+05  1.549106E+04  1.333627E+04 -1.105086E+03 -5.836825E+02  1.602151E+03
       356  21 -8.185536E+05  9.982077E+03  7.308271E+03  8.686224E+03 -1.455502E+03  8.019738E+02
       356  22 -8.593082E+05  3.849578E+01 -1.503733E+03  8.551225E+03 -3.474553E+01  2.398068E+03
       356  23 -8.591436E+05  5.518707E+01 -1.758262E+03 -1.255621E+03 -9.079518E+02  1.601101E+03
       356  24 -8.593080E+05 -1.738345E+02 -2.675648E+03  8.551801E+03 -1.781036E+03  8.008948E+02
       356  25 -9.425978E+05 -2.067797E+04 -2.171017E+04  8.384716E+03 -3.577366E+02  2.397045E+03
       356  26 -9.211651E+05 -1.538097E+04 -1.685308E+04 -1.406145E+03 -1.232189E+03  1.600050E+03
       356  27 -9.000609E+05 -1.032987E+04 -1.265969E+04  8.417385E+03 -2.106549E+03  7.998159E+02
       357   1 -8.561568E+05  9.727963E+02 -2.596260E+03  8.300746E+03  1.985036E+03 -3.270461E+02
       357   2 -8.769468E+05 -4.105405E+03 -9.886472E+03 -1.258595E+03  4.768188E+03  4.851257E+02
       357   3 -8.989225E+05 -1.182515E+04 -1.968525E+04  8.901084E+03  7.551392E+03  1.260568E+03
       357   4 -8.594972E+05  1.569258E+02 -3.343065E+03  8.572199E+03  2.319792E+03 -3.259290E+02
       357   5 -8.589065E+05  3.836829E+02 -5.496784E+03 -1.283690E+03  5.088046E+03  4.861841E+02
       357   6 -8.594993E+05 -2.028407E+03 -1.014858E+04  8.579415E+03  7.856449E+03  1.261567E+03
       357   7 -8.628376E+05 -6.589450E+02 -4.089870E+03  8.843650E+03  2.654545E+03 -3.248115E+02
       357   8 -8.408660E+05  4.872747E+03 -1.107118E+03 -1.308786E+03  5.407914E+03  4.872425E+02
       357   9 -8.200748E+05  7.768222E+03 -6.120100E+02  8.257724E+03  8.161526E+03  1.262565E+03
       357  10 -8.561568E+05  9.727951E+02 -2.596268E+03  8.300746E+03 -3.597712E-09  1.461622E-09
       357  11 -8.769468E+05 -4.105411E+03 -9.886515E+03 -1.258597E+03 -1.147552E-09  5.055834E-09
       357  12 -8.989225E+05 -1.182517E+04 -1.968536E+04  8.901076E+03 -2.267596E-09  6.197256E-10
       357  13 -8.594972E+05  1.569243E+02 -3.343075E+03  8.572199E+03 -1.585319E-09 -2.779441E-09
       357  14 -8.589065E+05  3.836757E+02 -5.496833E+03 -1.283692E+03 -1.426453E-09  2.863638E-09
       357  15 -8.594994E+05 -2.028425E+03 -1.014870E+04  8.579407E+03 -8.328358E-10  2.550091E-09
       357  16 -8.628376E+05 -6.589471E+02 -4.089883E+03  8.843651E+03  1.823531E-09  3.494105E-11
       357  17 -8.408660E+05  4.872739E+03 -1.107174E+03 -1.308788E+03 -1.945579E-10 -5.974475E-09
       357  18 -8.200749E+05  7.768203E+03 -6.121383E+02  8.257715E+03  2.558502E-09  3.741768E-10
       357  19 -8.561568E+05  9.727963E+02 -2.596260E+03  8.300746E+03 -1.985036E+03  3.270461E+02
       357  20 -8.769468E+05 -4.105405E+03 -9.886472E+03 -1.258595E+03 -4.768188E+03 -4.851257E+02
       357  21 -8.989225E+05 -1.182515E+04 -1.968525E+04  8.901084E+03 -7.551392E+03 -1.260568E+03
       357  22 -8.594972E+05  1.569258E+02 -3.343065E+03  8.572199E+03 -2.319792E+03  3.259290E+02
       357  23 -8.589065E+05  3.836829E+02 -5.496784E+03 -1.283690E+03 -5.088046E+03 -4.861841E+02
       357  24 -8.594993E+05 -2.028407E+03 -1.014858E+04  8.579415E+03 -7.856449E+03 -1.261567E+03
       357  25 -8.628376E+05 -6.589450E+02 -4.089870E+03  8.843650E+03 -2.654545E+03  3.248115E+02
       357  26 -8.408660E+05  4.872747E+03 -1.107118E+03 -1.308786E+03 -5.407914E+03 -4.872425E+02
       357  27 -8.200748E+05  7.768222E+03 -6.120100E+02  8.257724E+03 -8.161526E+03 -1.262565E+03
       358   1 -9.375265E+05 -1.822451E+04 -3.157728E+04  6.140753E+03  9.493293E+03  1.787877E+03
       358   2 -9.549701E+05 -2.120558E+04 -4.509774E+04 -3.803709E+02  2.064439E+04  2.623809E+03
       358   3 -9.797619E+05 -4.719751E+04 -7.166829E+04  1.258787E+04  3.179625E+04  3.075111E+03
       358   4 -8.608627E+05  8.859361E+02 -1.285491E+04  8.504622E+03  9.898444E+03  1.789226E+03
       358   5 -8.572083E+05  3.116113E+03 -2.131321E+04 -1.210819E+03  2.089431E+04  2.624548E+03
       358   6 -8.608743E+05 -1.763555E+04 -4.271206E+04  8.563062E+03  3.189132E+04  3.075151E+03
       358   7 -7.841935E+05  1.999597E+04  5.867033E+03  1.086878E+04  1.030364E+04  1.790578E+03
       358   8 -7.594377E+05  2.743711E+04  2.470641E+03 -2.041406E+03  2.114427E+04  2.625285E+03
       358   9 -7.419738E+05  1.192543E+04 -1.375684E+04  4.537472E+03  3.198641E+04  3.075190E+03
       358  10 -9.375266E+05 -1.822454E+04 -3.157746E+04  6.140739E+03 -5.766884E-09  7.531222E-09
       358  11 -9.549706E+05 -2.120570E+04 -4.509856E+04 -3.804146E+02 -2.827910E-09  6.741650E-09
       358  12 -9.797630E+05 -4.719779E+04 -7.167021E+04  1.258779E+04  4.604026E-10  4.680028E-09
       358  13 -8.608628E+05  8.859063E+02 -1.285510E+04  8.504608E+03  4.880315E-10  1.446308E-09
       358  14 -8.572088E+05  3.115989E+03 -2.131404E+04 -1.210864E+03 -8.647662E-10  8.604005E-09
       358  15 -8.608754E+05 -1.763583E+04 -4.271399E+04  8.562983E+03 -1.035146E-09 -2.088172E-09
       358  16 -7.841936E+05  1.999593E+04  5.866828E+03  1.086876E+04  4.485055E-09  1.112971E-09
       358  17 -7.594382E+05  2.743698E+04  2.469787E+03 -2.041451E+03  3.639432E-10 -4.262436E-09
       358  18 -7.419749E+05  1.192514E+04 -1.375878E+04  4.537393E+03  5.756057E-11 -6.287121E-09
       358  19 -9.375265E+05 -1.822451E+04 -3.157728E+04  6.140753E+03 -9.493293E+03 -1.787877E+03
       358  20 -9.549701E+05 -2.120558E+04 -4.509774E+04 -3.803709E+02 -2.064439E+04 -2.623809E+03
       358  21 -9.797619E+05 -4.719751E+04 -7.166829E+04  1.258787E+04 -3.179625E+04 -3.075111E+03
       358  22 -8.608627E+05  8.859361E+02 -1.285491E+04  8.504622E+03 -9.898444E+03 -1.789226E+03
       358  23 -8.572083E+05  3.116113E+03 -2.131321E+04 -1.210819E+03 -2.089431E+04 -2.624548E+03
       358  24 -8.608743E+05 -1.763555E+04 -4.271206E+04  8.563062E+03 -3.189132E+04 -3.075151E+03
       358  25 -7.841935E+05  1.999597E+04  5.867033E+03  1.086878E+04 -1.030364E+04 -1.790578E+03
       358  26 -7.594377E+05  2.743711E+04  2.470641E+03 -2.041406E+03 -2.114427E+04 -2.625285E+03
       358  27 -7.419738E+05  1.192543E+04 -1.375684E+04  4.537472E+03 -3.198641E+04 -3.075190E+03
       359   1 -1.026393E+06 -3.172974E+04 -8.987809E+04 -9.430790E+03  3.898101E+04  4.138022E+03
       359   2 -1.019928E+06 -1.798564E+04 -1.246338E+05  9.399519E+03  8.504202E+04  5.102150E+03
       359   3 -1.067672E+06 -1.966205E+05 -2.375227E+05  4.733649E+04  1.311142E+05  2.053513E+03
       359   4 -8.712146E+05  7.026924E+03 -5.208188E+04  8.295514E+03  4.014117E+04  4.142620E+03
       359   5 -8.442911E+05  2.563312E+04 -8.198118E+04 -1.038082E+03  8.457655E+04  5.099207E+03
       359   6 -8.712785E+05 -1.478304E+05 -1.888677E+05  8.736302E+03  1.290247E+05  2.039340E+03
       359   7 -7.160132E+05  4.578297E+04 -1.428727E+04  2.602625E+04  4.130161E+04  4.147284E+03
       359   8 -6.686252E+05  6.925003E+04 -3.933075E+04 -1.147867E+04  8.411095E+04  5.096280E+03
       359   9 -6.748467E+05 -9.903762E+04 -1.402148E+05 -2.987614E+04  1.269346E+05  2.025430E+03
       359  10 -1.026395E+06 -3.173017E+04 -8.988098E+04 -9.430920E+03 -5.931474E-10 -6.755171E-10
       359  11 -1.019936E+06 -1.798761E+04 -1.246474E+05  9.399170E+03  6.637791E-10 -4.170401E-09
       359  12 -1.067690E+06 -1.966251E+05 -2.375550E+05  4.733627E+04  1.577419E-10 -1.900644E-09
       359  13 -8.712163E+05  7.026473E+03 -5.208495E+04  8.295380E+03 -7.480658E-11  5.788926E-09
       359  14 -8.442988E+05  2.563117E+04 -8.199469E+04 -1.038429E+03  3.715866E-10 -6.535900E-09
       359  15 -8.712964E+05 -1.478349E+05 -1.888991E+05  8.736090E+03 -6.904628E-10  3.939314E-09
       359  16 -7.160151E+05  4.578250E+04 -1.429051E+04  2.602611E+04 -2.070667E-09  2.607937E-09
       359  17 -6.686328E+05  6.924810E+04 -3.934411E+04 -1.147901E+04 -1.604002E-09  1.654530E-09
       359  18 -6.748640E+05 -9.904195E+04 -1.402451E+05 -2.987635E+04  2.210332E-10  4.743709E-10
       359  19 -1.026393E+06 -3.172974E+04 -8.987809E+04 -9.430790E+03 -3.898101E+04 -4.138022E+03
       359  20 -1.019928E+06 -1.798564E+04 -1.246338E+05  9.399519E+03 -8.504202E+04 -5.102150E+03
       359  21 -1.067672E+06 -1.966205E+05 -2.375227E+05  4.733649E+04 -1.311142E+05 -2.053513E+03
       359  22 -8.712146E+05  7.026924E+03 -5.208188E+04  8.295514E+03 -4.014117E+04 -4.142620E+03
       359  23 -8.442911E+05  2.563312E+04 -8.198118E+04 -1.038082E+03 -8.457655E+04 -5.099207E+03
       359  24 -8.712785E+05 -1.478304E+05 -1.888677E+05  8.736302E+03 -1.290247E+05 -2.039340E+03
       359  25 -7.160132E+05  4.578297E+04 -1.428727E+04  2.602625E+04 -4.130161E+04 -4.147284E+03
       359  26 -6.686252E+05  6.925003E+04 -3.933075E+04 -1.147867E+04 -8.411095E+04 -5.096280E+03
       359  27 -6.748467E+05 -9.903762E+04 -1.402148E+05 -2.987614E+04 -1.269346E+05 -2.025430E+03
       360   1  7.110063E+05  3.886340E+06  8.107710E+05 -2.568199E+05  1.089198E+04  3.165447E+05
       360   2  2.156277E+05  3.530529E+06  4.830470E+05 -5.580900E+04  3.082874E+04  1.899077E+05
       360   3  1.977340E+05  3.310868E+06  3.568760E+05 -1.183057E+05  2.027976E+04  6.324945E+04
       360   4  3.587961E+05  2.471577E+06  4.613804E+05 -1.588438E+05  1.096931E+04  3.018134E+05
       360   5 -6.340128E+04  2.404730E+06  2.108465E+05 -2.744868E+04  3.084551E+04  1.879003E+05
       360   6 -9.839863E+03  2.472059E+06  1.533815E+05 -1.595519E+05  2.023990E+04  7.390582E+04
       360   7  6.472324E+03  1.058642E+06  1.118475E+05 -6.108905E+04  1.104214E+04  2.871149E+05
       360   8 -3.425198E+05  1.280084E+06 -6.144439E+04  8.610640E+02  3.086211E+04  1.858962E+05
       360   9 -2.174585E+05  1.633893E+06 -5.016220E+04 -2.007419E+05  2.019860E+04  8.454785E+04
       360  10  7.109795E+05  3.886233E+06  8.105836E+05 -2.568227E+05  1.171208E-10 -1.511007E-09
       360  11  2.156170E+05  3.530490E+06  4.829778E+05 -5.581371E+04  1.956064E-10 -1.012731E-08
       360  12  1.977325E+05  3.310864E+06  3.568677E+05 -1.183068E+05  6.333399E-10 -1.986638E-10
       360  13  3.587716E+05  2.471480E+06  4.612097E+05 -1.588465E+05 -8.604870E-10 -3.621458E-10
       360  14 -6.341173E+04  2.404692E+06  2.107786E+05 -2.745334E+04  6.570423E-10  2.799621E-09
       360  15 -9.841763E+03  2.472053E+06  1.533705E+05 -1.595531E+05  4.074186E-11 -4.627319E-09
       360  16  6.450110E+03  1.058554E+06  1.116926E+05 -6.109161E+04  4.521235E-10  2.710725E-09
       360  17 -3.425301E+05  1.280046E+06 -6.151098E+04  8.564446E+02 -3.622806E-10  3.161765E-09
       360  18 -2.174608E+05  1.633885E+06 -5.017637E+04 -2.007432E+05 -9.397824E-10  5.709851E-10
       360  19  7.110063E+05  3.886340E+06  8.107710E+05 -2.568199E+05 -1.089198E+04 -3.165447E+05
       360  20  2.156277E+05  3.530529E+06  4.830470E+05 -5.580900E+04 -3.082874E+04 -1.899077E+05
       360  21  1.977340E+05  3.310868E+06  3.568760E+05 -1.183057E+05 -2.027976E+04 -6.324945E+04
       360  22  3.587961E+05  2.471577E+06  4.613804E+05 -1.588438E+05 -1.096931E+04 -3.018134E+05
       360  23 -6.340128E+04  2.404730E+06  2.108465E+05 -2.744868E+04 -3.084551E+04 -1.879003E+05
       360  24 -9.839863E+03  2.472059E+06  1.533815E+05 -1.595519E+05 -2.023990E+04 -7.390582E+04
       360  25  6.472324E+03  1.058642E+06  1.118475E+05 -6.108905E+04 -1.104214E+04 -2.871149E+05
       360  26 -3.425198E+05  1.280084E+06 -6.144439E+04  8.610640E+02 -3.086211E+04 -1.858962E+05
       360  27 -2.174585E+05  1.633893E+06 -5.016220E+04 -2.007419E+05 -2.019860E+04 -8.454785E+04
       361   1  1.277923E+05  2.797992E+06  2.228516E+05 -1.753397E+05  9.244910E+03  4.517375E+04
       361   2  7.472081E+02  2.500749E+06  1.280150E+05 -2.916543E+04  1.827081E+03 -1.254267E+04
       361   3 -2.681064E+03  2.239659E+06  1.010626E+05 -1.394410E+05 -5.820447E+03 -7.023607E+04
       361   4  4.147479E+04  2.450337E+06  1.386679E+05 -1.576874E+05  9.234982E+03  4.823735E+04
       361   5 -1.622055E+04  2.432299E+06  1.114237E+05 -2.944881E+04  1.815387E+03 -9.370012E+03
       361   6  4.969501E+04  2.450328E+06  1.520046E+05 -1.576538E+05 -5.830854E+03 -6.697988E+04
       361   7 -4.485047E+04  2.102792E+06  5.447565E+04 -1.400449E+05  9.225225E+03  5.129925E+04
       361   8 -3.318864E+04  2.363854E+06  9.483206E+04 -2.973216E+04  1.803690E+03 -6.197700E+03
       361   9  1.020691E+05  2.661038E+06  2.029436E+05 -1.758727E+05 -5.841451E+03 -6.372259E+04
       361  10  1.277917E+05  2.797990E+06  2.228476E+05 -1.753400E+05  1.093413E-10 -4.109215E-10
       361  11  7.471625E+02  2.500749E+06  1.280147E+05 -2.916541E+04  1.618889E-09 -1.626139E-08
       361  12 -2.682419E+03  2.239654E+06  1.010533E+05 -1.394413E+05 -2.146285E-09 -1.088233E-10
       361  13  4.147408E+04  2.450334E+06  1.386633E+05 -1.576878E+05 -2.211476E-10  3.342164E-10
       361  14 -1.622057E+04  2.432299E+06  1.114235E+05 -2.944880E+04  1.453523E-11  2.972200E-09
       361  15  4.969378E+04  2.450323E+06  1.519961E+05 -1.576541E+05  3.650961E-09 -6.557767E-09
       361  16 -4.485127E+04  2.102789E+06  5.447057E+04 -1.400453E+05 -8.278805E-10  2.469707E-09
       361  17 -3.318865E+04  2.363853E+06  9.483198E+04 -2.973215E+04 -3.181748E-09  6.078323E-09
       361  18  1.020679E+05  2.661033E+06  2.029359E+05 -1.758730E+05  7.913827E-10  6.680363E-10
       361  19  1.277923E+05  2.797992E+06  2.228516E+05 -1.753397E+05 -9.244910E+03 -4.517375E+04
       361  20  7.472081E+02  2.500749E+06  1.280150E+05 -2.916543E+04 -1.827081E+03  1.254267E+04
       361  21 -2.681064E+03  2.239659E+06  1.010626E+05 -1.394410E+05  5.820447E+03  7.023607E+04
       361  22  4.147479E+04  2.450337E+06  1.386679E+05 -1.576874E+05 -9.234982E+03 -4.823735E+04
       361  23 -1.622055E+04  2.432299E+06  1.114237E+05 -2.944881E+04 -1.815387E+03  9.370012E+03
       361  24  4.969501E+04  2.450328E+06  1.520046E+05 -1.576538E+05  5.830854E+03  6.697988E+04
       361  25 -4.485047E+04  2.102792E+06  5.447565E+04 -1.400449E+05 -9.225225E+03 -5.129925E+04
       361  26 -3.318864E+04  2.363854E+06  9.483206E+04 -2.973216E+04 -1.803690E+03  6.197700E+03
       361  27  1.020691E+05  2.661038E+06  2.029436E+05 -1.758727E+05  5.841451E+03  6.372259E+04
       362   1 -1.869676E+05  1.777415E+06  2.150697E+03 -2.081617E+05 -1.639532E+04 -1.054722E+05
       362   2 -3.187313E+05  1.414245E+06  6.900291E+03  5.088460E+03 -2.687400E+04 -2.265632E+05
       362   3  1.070689E+05  1.206218E+06  2.298096E+05 -4.322539E+04 -9.568772E+03 -3.475120E+05
       362   4 -1.379042E+04  2.477126E+06  1.721121E+05 -1.592020E+05 -1.643941E+04 -9.543070E+04
       362   5 -7.440942E+04  2.398484E+06  2.451664E+05 -2.795097E+04 -2.685564E+04 -2.280759E+05
       362   6  4.240261E+05  2.476580E+06  5.441020E+05 -1.582102E+05 -9.475519E+03 -3.606359E+05
       362   7  1.593603E+05  3.177288E+06  3.420399E+05 -1.101867E+05 -1.648189E+04 -8.537790E+04
       362   8  1.698456E+05  3.383607E+06  4.833634E+05 -6.104219E+04 -2.683715E+04 -2.295907E+05
       362   9  7.409119E+05  3.748431E+06  8.582821E+05 -2.734291E+05 -9.377565E+03 -3.737860E+05
       362  10 -1.869709E+05  1.777403E+06  2.129345E+03 -2.081631E+05  3.591005E-10 -6.945244E-10
       362  11 -3.187458E+05  1.414190E+06  6.802704E+03  5.083558E+03  1.568325E-09 -1.262513E-08
       362  12  1.070364E+05  1.206088E+06  2.295830E+05 -4.322807E+04  5.080772E-10 -1.037166E-09
       362  13 -1.379315E+04  2.477116E+06  1.720945E+05 -1.592033E+05 -1.701831E-09  1.550047E-10
       362  14 -7.442409E+04  2.398428E+06  2.450676E+05 -2.795590E+04  4.312715E-10  2.252540E-09
       362  15  4.239913E+05  2.476440E+06  5.438584E+05 -1.582129E+05 -1.574911E-09 -2.399071E-09
       362  16  1.593580E+05  3.177280E+06  3.420257E+05 -1.101879E+05  1.772425E-09  1.775390E-09
       362  17  1.698307E+05  3.383550E+06  4.832636E+05 -6.104715E+04 -2.064279E-09  4.202277E-09
       362  18  7.408746E+05  3.748282E+06  8.580210E+05 -2.734319E+05 -1.665346E-09  2.090077E-09
       362  19 -1.869676E+05  1.777415E+06  2.150697E+03 -2.081617E+05  1.639532E+04  1.054722E+05
       362  20 -3.187313E+05  1.414245E+06  6.900291E+03  5.088460E+03  2.687400E+04  2.265632E+05
       362  21  1.070689E+05  1.206218E+06  2.298096E+05 -4.322539E+04  9.568772E+03  3.475120E+05
       362  22 -1.379042E+04  2.477126E+06  1.721121E+05 -1.592020E+05  1.643941E+04  9.543070E+04
       362  23 -7.440942E+04  2.398484E+06  2.451664E+05 -2.795097E+04  2.685564E+04  2.280759E+05
       362  24  4.240261E+05  2.476580E+06  5.441020E+05 -1.582102E+05  9.475519E+03  3.606359E+05
       362  25  1.593603E+05  3.177288E+06  3.420399E+05 -1.101867E+05  1.648189E+04  8.537790E+04
       362  26  1.698456E+05  3.383607E+06  4.833634E+05 -6.104219E+04  2.683715E+04  2.295907E+05
       362  27  7.409119E+05  3.748431E+06  8.582821E+05 -2.734291E+05  9.377565E+03  3.737860E+05
       363   1 -3.858921E+04 -2.745575E+04 -4.130308E+04 -2.685423E+04 -8.243491E+04 -3.471790E+04
       363   2 -2.993478E+04  8.661617E+04  3.271902E+04 -5.970582E+04 -5.148671E+04 -3.035204E+04
       363   3 -8.614003E+04  8.394562E+04  5.006888E+04 -4.437057E+04 -2.329353E+04 -1.867734E+04
       363   4 -4.097918E+05 -1.432966E+05 -1.378573E+05 -1.030648E+05 -8.622951E+04 -3.615119E+04
       363   5 -3.700193E+05 -3.499106E+04 -5.702773E+04 -1.458546E+05 -5.250787E+04 -3.073809E+04
       363   6 -3.956856E+05 -4.402079E+04 -3.509518E+04 -1.404495E+05 -2.154008E+04 -1.801563E+04
       363   7 -7.808590E+05 -2.591378E+05 -2.344217E+05 -1.792386E+05 -9.002157E+04 -3.758389E+04
       363   8 -7.099912E+05 -1.565937E+05 -1.467839E+05 -2.319619E+05 -5.352839E+04 -3.112393E+04
       363   9 -7.051383E+05 -1.719760E+05 -1.202680E+05 -2.364832E+05 -1.978759E+04 -1.735436E+04
       363  10 -3.859683E+04 -2.745887E+04 -4.131811E+04 -2.685653E+04  1.057545E-09 -1.579796E-09
       363  11 -2.993787E+04  8.661447E+04  3.271230E+04 -5.970708E+04 -2.677148E-09 -5.267871E-09
       363  12 -8.614071E+04  8.394510E+04  5.006721E+04 -4.437092E+04 -7.972617E-10 -2.627621E-09
       363  13 -4.098001E+05 -1.433000E+05 -1.378738E+05 -1.030673E+05  1.171781E-10  6.159084E-10
       363  14 -3.700225E+05 -3.499282E+04 -5.703469E+04 -1.458559E+05  1.508564E-09 -4.511404E-09
       363  15 -3.956862E+05 -4.402126E+04 -3.509666E+04 -1.404498E+05 -1.350752E-09  1.793910E-09
       363  16 -7.808681E+05 -2.591415E+05 -2.344396E+05 -1.792414E+05  7.182683E-10 -7.102014E-10
       363  17 -7.099945E+05 -1.565956E+05 -1.467911E+05 -2.319632E+05  2.800194E-10 -5.822476E-09
       363  18 -7.051388E+05 -1.719764E+05 -1.202693E+05 -2.364835E+05  3.248775E-09 -2.975489E-09
       363  19 -3.858921E+04 -2.745575E+04 -4.130308E+04 -2.685423E+04  8.243491E+04  3.471790E+04
       363  20 -2.993478E+04  8.661617E+04  3.271902E+04 -5.970582E+04  5.148671E+04  3.035204E+04
       363  21 -8.614003E+04  8.394562E+04  5.006888E+04 -4.437057E+04  2.329353E+04  1.867734E+04
       363  22 -4.097918E+05 -1.432966E+05 -1.378573E+05 -1.030648E+05  8.622951E+04  3.615119E+04
       363  23 -3.700193E+05 -3.499106E+04 -5.702773E+04 -1.458546E+05  5.250787E+04  3.073809E+04
       363  24 -3.956856E+05 -4.402079E+04 -3.509518E+04 -1.404495E+05  2.154008E+04  1.801563E+04
       363  25 -7.808590E+05 -2.591378E+05 -2.344217E+05 -1.792386E+05  9.002157E+04  3.758389E+04
       363  26 -7.099912E+05 -1.565937E+05 -1.467839E+05 -2.319619E+05  5.352839E+04  3.112393E+04
       363  27 -7.051383E+05 -1.719760E+05 -1.202680E+05 -2.364832E+05  1.978759E+04  1.735436E+04
       364   1 -1.066114E+05  4.580918E+04  4.726871E+04 -5.659850E+04 -1.687663E+04 -1.453381E+04
       364   2 -1.158465E+05  4.784223E+04  5.737723E+04 -7.182697E+04 -1.011179E+04 -1.194235E+04
       364   3 -1.452114E+05  4.715341E+04  5.808070E+04 -6.783042E+04 -3.628969E+03 -8.605578E+03
       364   4 -3.913646E+05 -5.894221E+04 -2.870375E+04 -1.316674E+05 -1.699939E+04 -1.458052E+04
       364   5 -3.803950E+05 -5.142409E+04 -1.346616E+04 -1.435925E+05 -9.953010E+03 -1.188265E+04
       364   6 -3.896145E+05 -4.668771E+04 -7.860249E+03 -1.362915E+05 -3.188458E+03 -8.439274E+03
       364   7 -6.760405E+05 -1.636900E+05 -1.046834E+05 -2.067060E+05 -1.712209E+04 -1.462721E+04
       364   8 -6.448766E+05 -1.506866E+05 -8.431579E+04 -2.153306E+05 -9.794301E+03 -1.182297E+04
       364   9 -6.339601E+05 -1.405248E+05 -7.380652E+04 -2.047282E+05 -2.748137E+03 -8.273046E+03
       364  10 -1.066118E+05  4.580887E+04  4.726777E+04 -5.659870E+04  1.843058E-09 -1.249449E-09
       364  11 -1.158467E+05  4.784205E+04  5.737677E+04 -7.182707E+04  1.027879E-09  2.195491E-09
       364  12 -1.452115E+05  4.715333E+04  5.808053E+04 -6.783044E+04 -3.121107E-09  1.884039E-09
       364  13 -3.913650E+05 -5.894251E+04 -2.870469E+04 -1.316676E+05  1.016797E-09 -1.761461E-09
       364  14 -3.803952E+05 -5.142427E+04 -1.346661E+04 -1.435926E+05 -2.128211E-09  7.269079E-09
       364  15 -3.896145E+05 -4.668779E+04 -7.860402E+03 -1.362916E+05  3.536681E-10 -3.039082E-09
       364  16 -6.760409E+05 -1.636903E+05 -1.046844E+05 -2.067062E+05 -1.181054E-10 -3.395519E-09
       364  17 -6.448767E+05 -1.506867E+05 -8.431624E+04 -2.153307E+05  1.228487E-09 -3.757965E-09
       364  18 -6.339601E+05 -1.405248E+05 -7.380667E+04 -2.047282E+05  5.196989E-09 -1.013122E-09
       364  19 -1.066114E+05  4.580918E+04  4.726871E+04 -5.659850E+04  1.687663E+04  1.453381E+04
       364  20 -1.158465E+05  4.784223E+04  5.737723E+04 -7.182697E+04  1.011179E+04  1.194235E+04
       364  21 -1.452114E+05  4.715341E+04  5.808070E+04 -6.783042E+04  3.628969E+03  8.605578E+03
       364  22 -3.913646E+05 -5.894221E+04 -2.870375E+04 -1.316674E+05  1.699939E+04  1.458052E+04
       364  23 -3.803950E+05 -5.142409E+04 -1.346616E+04 -1.435925E+05  9.953010E+03  1.188265E+04
       364  24 -3.896145E+05 -4.668771E+04 -7.860249E+03 -1.362915E+05  3.188458E+03  8.439274E+03
       364  25 -6.760405E+05 -1.636900E+05 -1.046834E+05 -2.067060E+05  1.712209E+04  1.462721E+04
       364  26 -6.448766E+05 -1.506866E+05 -8.431579E+04 -2.153306E+05  9.794301E+03  1.182297E+04
       364  27 -6.339601E+05 -1.405248E+05 -7.380652E+04 -2.047282E+05  2.748137E+03  8.273046E+03
       365   1 -1.796952E+05  3.046389E+04  4.991219E+04 -7.796516E+04 -2.507136E+03 -7.549086E+03
       365   2 -1.916456E+05  1.824230E+04  4.786601E+04 -9.137495E+04 -1.204151E+03 -6.257096E+03
       365   3 -2.182921E+05  1.785200E+04  4.412857E+04 -8.864730E+04  6.641522E+01 -4.880766E+03
       365   4 -3.891012E+05 -4.842058E+04 -6.187440E+03 -1.350954E+05 -2.255011E+03 -7.453925E+03
       365   5 -3.816407E+05 -5.357734E+04 -3.128249E+03 -1.434498E+05 -9.203126E+02 -6.149859E+03
       365   6 -3.888837E+05 -4.690909E+04 -1.785933E+03 -1.356664E+05  3.820183E+02 -4.761419E+03
       365   7 -5.984645E+05 -1.273023E+05 -6.229080E+04 -1.922082E+05 -2.002979E+03 -7.358799E+03
       365   8 -5.716010E+05 -1.253948E+05 -5.412569E+04 -1.955104E+05 -6.365696E+02 -6.042658E+03
       365   9 -5.594476E+05 -1.116685E+05 -4.770312E+04 -1.826740E+05  6.975266E+02 -4.642108E+03
       365  10 -1.796952E+05  3.046383E+04  4.991207E+04 -7.796518E+04 -2.757016E-09  6.944231E-10
       365  11 -1.916456E+05  1.824225E+04  4.786593E+04 -9.137496E+04 -2.404501E-09 -1.166234E-09
       365  12 -2.182921E+05  1.785198E+04  4.412852E+04 -8.864730E+04  1.940536E-09 -4.040565E-09
       365  13 -3.891012E+05 -4.842064E+04 -6.187554E+03 -1.350954E+05 -1.038608E-09  1.805139E-09
       365  14 -3.816407E+05 -5.357738E+04 -3.128322E+03 -1.434499E+05  2.906454E-09 -2.042111E-09
       365  15 -3.888837E+05 -4.690912E+04 -1.785976E+03 -1.356664E+05  3.481686E-10 -2.369930E-09
       365  16 -5.984645E+05 -1.273024E+05 -6.229091E+04 -1.922083E+05  6.045624E-10 -4.707482E-10
       365  17 -5.716010E+05 -1.253948E+05 -5.412576E+04 -1.955104E+05 -3.987342E-09 -3.559737E-10
       365  18 -5.594476E+05 -1.116685E+05 -4.770316E+04 -1.826740E+05  9.345813E-11 -3.806841E-09
       365  19 -1.796952E+05  3.046389E+04  4.991219E+04 -7.796516E+04  2.507136E+03  7.549086E+03
       365  20 -1.916456E+05  1.824230E+04  4.786601E+04 -9.137495E+04  1.204151E+03  6.257096E+03
       365  21 -2.182921E+05  1.785200E+04  4.412857E+04 -8.864730E+04 -6.641522E+01  4.880766E+03
       365  22 -3.891012E+05 -4.842058E+04 -6.187440E+03 -1.350954E+05  2.255011E+03  7.453925E+03
       365  23 -3.816407E+05 -5.357734E+04 -3.128249E+03 -1.434498E+05  9.203126E+02  6.149859E+03
       365  24 -3.888837E+05 -4.690909E+04 -1.785933E+03 -1.356664E+05 -3.820183E+02  4.761419E+03
       365  25 -5.984645E+05 -1.273023E+05 -6.229080E+04 -1.922082E+05  2.002979E+03  7.358799E+03
       365  26 -5.716010E+05 -1.253948E+05 -5.412569E+04 -1.955104E+05  6.365696E+02  6.042658E+03
       365  27 -5.594476E+05 -1.116685E+05 -4.770312E+04 -1.826740E+05 -6.975266E+02  4.642108E+03
       366   1 -2.553503E+05  3.436607E+03  3.438488E+04 -9.881463E+04  1.684331E+02 -4.306045E+03
       366   2 -2.678650E+05 -1.080227E+04  2.980970E+04 -1.122392E+05  2.529867E+02 -3.379349E+03
       366   3 -2.946329E+05 -1.116474E+04  2.488737E+04 -1.096204E+05  3.320770E+02 -2.439020E+03
       366   4 -3.888678E+05 -4.706313E+04 -1.388098E+03 -1.354554E+05  4.648312E+02 -4.193911E+03
       366   5 -3.817268E+05 -5.390854E+04 -7.654341E+02 -1.435119E+05  5.545250E+02 -3.265216E+03
       366   6 -3.888407E+05 -4.687856E+04 -4.940971E+02 -1.355251E+05  6.387674E+02 -2.322881E+03
       366   7 -5.223680E+05 -9.756177E+04 -3.716264E+04 -1.720890E+05  7.611591E+02 -4.081803E+03
       366   8 -4.955760E+05 -9.701396E+04 -3.134168E+04 -1.747793E+05  8.560020E+02 -3.151107E+03
       366   9 -4.830398E+05 -8.259177E+04 -2.587630E+04 -1.614262E+05  9.454058E+02 -2.206762E+03
       366  10 -2.553503E+05  3.436587E+03  3.438484E+04 -9.881463E+04 -3.002150E-09  5.998406E-09
       366  11 -2.678650E+05 -1.080228E+04  2.980968E+04 -1.122392E+05 -2.444350E-09  8.090539E-09
       366  12 -2.946329E+05 -1.116474E+04  2.488736E+04 -1.096204E+05  2.479919E-09  7.371886E-09
       366  13 -3.888678E+05 -4.706315E+04 -1.388131E+03 -1.354554E+05  1.586440E-09  1.181007E-09
       366  14 -3.817268E+05 -5.390855E+04 -7.654548E+02 -1.435119E+05  7.570425E-10  1.267348E-08
       366  15 -3.888407E+05 -4.687857E+04 -4.941081E+02 -1.355251E+05  5.980464E-10  1.319349E-09
       366  16 -5.223681E+05 -9.756179E+04 -3.716267E+04 -1.720890E+05  3.244521E-09 -1.746802E-10
       366  17 -4.955760E+05 -9.701397E+04 -3.134170E+04 -1.747793E+05 -1.936164E-10  3.865994E-09
       366  18 -4.830398E+05 -8.259177E+04 -2.587631E+04 -1.614262E+05 -6.535527E-09 -6.499803E-09
       366  19 -2.553503E+05  3.436607E+03  3.438488E+04 -9.881463E+04 -1.684331E+02  4.306045E+03
       366  20 -2.678650E+05 -1.080227E+04  2.980970E+04 -1.122392E+05 -2.529867E+02  3.379349E+03
       366  21 -2.946329E+05 -1.116474E+04  2.488737E+04 -1.096204E+05 -3.320770E+02  2.439020E+03
       366  22 -3.888678E+05 -4.706313E+04 -1.388098E+03 -1.354554E+05 -4.648312E+02  4.193911E+03
       366  23 -3.817268E+05 -5.390854E+04 -7.654341E+02 -1.435119E+05 -5.545250E+02  3.265216E+03
       366  24 -3.888407E+05 -4.687856E+04 -4.940971E+02 -1.355251E+05 -6.387674E+02  2.322881E+03
       366  25 -5.223680E+05 -9.756177E+04 -3.716264E+04 -1.720890E+05 -7.611591E+02  4.081803E+03
       366  26 -4.955760E+05 -9.701396E+04 -3.134168E+04 -1.747793E+05 -8.560020E+02  3.151107E+03
       366  27 -4.830398E+05 -8.259177E+04 -2.587630E+04 -1.614262E+05 -9.454058E+02  2.206762E+03
       367   1 -3.324483E+05 -2.551924E+04  1.464368E+04 -1.199765E+05  2.323140E+02 -1.942523E+03
       367   2 -3.451155E+05 -4.011305E+04  9.433715E+03 -1.335024E+05  1.266192E+02 -1.068106E+03
       367   3 -3.721354E+05 -4.053259E+04  4.047036E+03 -1.308563E+05  2.141954E+01 -1.952432E+02
       367   4 -3.888681E+05 -4.686471E+04 -4.307300E+02 -1.354758E+05  5.379773E+02 -1.826746E+03
       367   5 -3.816940E+05 -5.396835E+04 -3.906311E+02 -1.435556E+05  4.316792E+02 -9.525397E+02
       367   6 -3.888726E+05 -4.689745E+04 -5.266415E+02 -1.354634E+05  3.258825E+02 -7.988389E+01
       367   7 -4.452849E+05 -6.821002E+04 -1.550546E+04 -1.509739E+05  8.436107E+02 -1.710979E+03
       367   8 -4.182713E+05 -6.782359E+04 -1.021511E+04 -1.536082E+05  7.367198E+02 -8.369804E+02
       367   9 -4.056096E+05 -5.326229E+04 -5.100345E+03 -1.400704E+05  6.303364E+02  3.547193E+01
       367  10 -3.324483E+05 -2.551925E+04  1.464367E+04 -1.199765E+05  5.216317E-09 -5.017074E-09
       367  11 -3.451155E+05 -4.011305E+04  9.433712E+03 -1.335024E+05  1.592646E-09 -4.817206E-09
       367  12 -3.721354E+05 -4.053259E+04  4.047036E+03 -1.308563E+05 -4.090661E-09 -5.756101E-09
       367  13 -3.888681E+05 -4.686471E+04 -4.307368E+02 -1.354758E+05  1.076837E-09 -5.998235E-09
       367  14 -3.816940E+05 -5.396835E+04 -3.906332E+02 -1.435556E+05  2.639557E-10 -6.602439E-09
       367  15 -3.888726E+05 -4.689745E+04 -5.266417E+02 -1.354634E+05 -1.769356E-09 -3.133998E-09
       367  16 -4.452849E+05 -6.821002E+04 -1.550546E+04 -1.509739E+05 -2.664302E-09 -8.977266E-09
       367  17 -4.182713E+05 -6.782359E+04 -1.021511E+04 -1.536082E+05  3.068564E-09  7.250751E-09
       367  18 -4.056096E+05 -5.326229E+04 -5.100346E+03 -1.400704E+05  1.631129E-09 -2.440302E-09
       367  19 -3.324483E+05 -2.551924E+04  1.464368E+04 -1.199765E+05 -2.323140E+02  1.942523E+03
       367  20 -3.451155E+05 -4.011305E+04  9.433715E+03 -1.335024E+05 -1.266192E+02  1.068106E+03
       367  21 -3.721354E+05 -4.053259E+04  4.047036E+03 -1.308563E+05 -2.141954E+01  1.952432E+02
       367  22 -3.888681E+05 -4.686471E+04 -4.307300E+02 -1.354758E+05 -5.379773E+02  1.826746E+03
       367  23 -3.816940E+05 -5.396835E+04 -3.906311E+02 -1.435556E+05 -4.316792E+02  9.525397E+02
       367  24 -3.888726E+05 -4.689745E+04 -5.266415E+02 -1.354634E+05 -3.258825E+02  7.988389E+01
       367  25 -4.452849E+05 -6.821002E+04 -1.550546E+04 -1.509739E+05 -8.436107E+02  1.710979E+03
       367  26 -4.182713E+05 -6.782359E+04 -1.021511E+04 -1.536082E+05 -7.367198E+02  8.369804E+02
       367  27 -4.056096E+05 -5.326229E+04 -5.100345E+03 -1.400704E+05 -6.303364E+02 -3.547193E+01
       368   1 -4.101145E+05 -5.494022E+04 -6.422137E+03 -1.413924E+05 -7.445707E+01  3.113954E+02
       368   2 -4.227357E+05 -6.943330E+04 -1.207021E+04 -1.548354E+05  1.693909E+02  1.322688E+03
       368   3 -4.499482E+05 -7.029985E+04 -1.830298E+04 -1.519839E+05  4.314844E+02  2.286076E+03
       368   4 -3.888981E+05 -4.683192E+04 -6.358495E+02 -1.355069E+05  2.415071E+02  4.311112E+02
       368   5 -3.816390E+05 -5.388809E+04 -1.037285E+03 -1.435627E+05  4.670907E+02  1.435462E+03
       368   6 -3.889677E+05 -4.731417E+04 -2.008844E+03 -1.353244E+05  7.109385E+02  2.391921E+03
       368   7 -3.676813E+05 -3.872362E+04  5.150385E+03 -1.296212E+05  5.574824E+02  5.508314E+02
       368   8 -3.405407E+05 -3.834278E+04  9.995488E+03 -1.322894E+05  7.648121E+02  1.548245E+03
       368   9 -3.279835E+05 -2.432823E+04  1.428501E+04 -1.186633E+05  9.904235E+02  2.497778E+03
       368  10 -4.101145E+05 -5.494022E+04 -6.422137E+03 -1.413924E+05  2.575348E-09 -4.504257E-09
       368  11 -4.227357E+05 -6.943330E+04 -1.207021E+04 -1.548354E+05  1.770323E-10 -9.356288E-09
       368  12 -4.499482E+05 -7.029986E+04 -1.830300E+04 -1.519839E+05 -7.366006E-09  2.437527E-09
       368  13 -3.888981E+05 -4.683193E+04 -6.358500E+02 -1.355069E+05 -1.569349E-09  1.293884E-08
       368  14 -3.816390E+05 -5.388809E+04 -1.037289E+03 -1.435627E+05 -3.955209E-09 -6.709776E-09
       368  15 -3.889677E+05 -4.731418E+04 -2.008855E+03 -1.353244E+05 -1.390406E-09  7.197744E-09
       368  16 -3.676813E+05 -3.872362E+04  5.150384E+03 -1.296212E+05 -2.187435E-09 -4.759604E-10
       368  17 -3.405407E+05 -3.834279E+04  9.995483E+03 -1.322894E+05  1.131806E-09 -9.569600E-10
       368  18 -3.279835E+05 -2.432823E+04  1.428499E+04 -1.186634E+05  2.623740E-09  6.024328E-09
       368  19 -4.101145E+05 -5.494022E+04 -6.422137E+03 -1.413924E+05  7.445707E+01 -3.113954E+02
       368  20 -4.227357E+05 -6.943330E+04 -1.207021E+04 -1.548354E+05 -1.693909E+02 -1.322688E+03
       368  21 -4.499482E+05 -7.029985E+04 -1.830298E+04 -1.519839E+05 -4.314844E+02 -2.286076E+03
       368  22 -3.888981E+05 -4.683192E+04 -6.358495E+02 -1.355069E+05 -2.415071E+02 -4.311112E+02
       368  23 -3.816390E+05 -5.388809E+04 -1.037285E+03 -1.435627E+05 -4.670907E+02 -1.435462E+03
       368  24 -3.889677E+05 -4.731417E+04 -2.008844E+03 -1.353244E+05 -7.109385E+02 -2.391921E+03
       368  25 -3.676813E+05 -3.872362E+04  5.150385E+03 -1.296212E+05 -5.574824E+02 -5.508314E+02
       368  26 -3.405407E+05 -3.834278E+04  9.995488E+03 -1.322894E+05 -7.648121E+02 -1.548245E+03
       368  27 -3.279835E+05 -2.432823E+04  1.428501E+04 -1.186633E+05 -9.904235E+02 -2.497778E+03
       369   1 -4.874941E+05 -8.448074E+04 -2.911994E+04 -1.631983E+05  4.822175E+02  2.914713E+03
       369   2 -4.997107E+05 -9.781491E+04 -3.609780E+04 -1.759071E+05  2.625201E+03  4.650261E+03
       369   3 -5.282912E+05 -1.022621E+05 -4.632019E+04 -1.713396E+05  4.943588E+03  5.922935E+03
       369   4 -3.891269E+05 -4.675993E+04 -2.541830E+03 -1.357129E+05  8.792853E+02  3.065079E+03
       369   5 -3.812458E+05 -5.319277E+04 -4.337569E+03 -1.436048E+05  2.845996E+03  4.733810E+03
       369   6 -3.896935E+05 -5.070322E+04 -9.237431E+03 -1.342208E+05  4.988178E+03  5.939737E+03
       369   7 -2.907504E+05 -9.038466E+03  2.403542E+04 -1.082236E+05  1.276422E+03  3.215472E+03
       369   8 -2.627675E+05 -8.569858E+03  2.742139E+04 -1.112970E+05  3.066836E+03  4.817376E+03
       369   9 -2.510776E+05  8.565620E+02  2.784356E+04 -9.709460E+04  5.032779E+03  5.956544E+03
       369  10 -4.874941E+05 -8.448075E+04 -2.911996E+04 -1.631983E+05 -4.854277E-09  1.331858E-09
       369  11 -4.997107E+05 -9.781494E+04 -3.609786E+04 -1.759071E+05 -1.232871E-09  7.415983E-09
       369  12 -5.282912E+05 -1.022622E+05 -4.632030E+04 -1.713396E+05  3.511883E-09  5.636457E-09
       369  13 -3.891269E+05 -4.675994E+04 -2.541849E+03 -1.357129E+05 -1.415982E-09  5.640774E-09
       369  14 -3.812458E+05 -5.319280E+04 -4.337626E+03 -1.436048E+05 -4.936260E-09  1.017130E-09
       369  15 -3.896935E+05 -5.070327E+04 -9.237545E+03 -1.342208E+05  9.673519E-10  1.695252E-10
       369  16 -2.907504E+05 -9.038478E+03  2.403539E+04 -1.082236E+05 -2.909982E-09  1.021899E-08
       369  17 -2.627675E+05 -8.569886E+03  2.742133E+04 -1.112970E+05 -3.586758E-09  4.595450E-09
       369  18 -2.510776E+05  8.565171E+02  2.784344E+04 -9.709462E+04 -3.807179E-09 -6.126060E-09
       369  19 -4.874941E+05 -8.448074E+04 -2.911994E+04 -1.631983E+05 -4.822175E+02 -2.914713E+03
       369  20 -4.997107E+05 -9.781491E+04 -3.609780E+04 -1.759071E+05 -2.625201E+03 -4.650261E+03
       369  21 -5.282912E+05 -1.022621E+05 -4.632019E+04 -1.713396E+05 -4.943588E+03 -5.922935E+03
       369  22 -3.891269E+05 -4.675993E+04 -2.541830E+03 -1.357129E+05 -8.792853E+02 -3.065079E+03
       369  23 -3.812458E+05 -5.319277E+04 -4.337569E+03 -1.436048E+05 -2.845996E+03 -4.733810E+03
       369  24 -3.896935E+05 -5.070322E+04 -9.237431E+03 -1.342208E+05 -4.988178E+03 -5.939737E+03
       369  25 -2.907504E+05 -9.038466E+03  2.403542E+04 -1.082236E+05 -1.276422E+03 -3.215472E+03
       369  26 -2.627675E+05 -8.569858E+03  2.742139E+04 -1.112970E+05 -3.066836E+03 -4.817376E+03
       369  27 -2.510776E+05  8.565620E+02  2.784356E+04 -9.709460E+04 -5.032779E+03 -5.956544E+03
       370   1 -5.635517E+05 -1.148083E+05 -5.831455E+04 -1.880906E+05  4.983468E+03  7.235173E+03
       370   2 -5.737168E+05 -1.197559E+05 -7.037916E+04 -1.957967E+05  1.645148E+04  1.260670E+04
       370   3 -6.149605E+05 -1.531015E+05 -1.027729E+05 -1.770381E+05  2.964783E+04  1.340704E+04
       370   4 -3.910389E+05 -4.593916E+04 -1.129031E+04 -1.370890E+05  6.202177E+03  7.696315E+03
       370   5 -3.779592E+05 -4.787217E+04 -1.834701E+04 -1.442899E+05  1.592858E+04  1.240870E+04
       370   6 -3.956074E+05 -7.784945E+04 -4.434587E+04 -1.250272E+05  2.738353E+04  1.255050E+04
       370   7 -2.184967E+05  2.293297E+04  3.573139E+04 -8.607424E+04  7.421263E+03  8.157617E+03
       370   8 -1.821649E+05  2.401327E+04  3.368180E+04 -9.276876E+04  1.540551E+04  1.221063E+04
       370   9 -1.762092E+05 -2.597001E+03  1.407683E+04 -7.300104E+04  2.511834E+04  1.169369E+04
       370  10 -5.635518E+05 -1.148084E+05 -5.831469E+04 -1.880906E+05  3.364880E-09  2.167411E-09
       370  11 -5.737172E+05 -1.197561E+05 -7.037997E+04 -1.957969E+05  2.382522E-10 -1.376419E-09
       370  12 -6.149615E+05 -1.531019E+05 -1.027749E+05 -1.770384E+05  6.411797E-10  1.245706E-09
       370  13 -3.910389E+05 -4.593924E+04 -1.129049E+04 -1.370891E+05  1.210020E-09 -5.524130E-09
       370  14 -3.779596E+05 -4.787240E+04 -1.834777E+04 -1.442901E+05  5.031189E-10  3.494651E-09
       370  15 -3.956082E+05 -7.784982E+04 -4.434758E+04 -1.250275E+05 -9.209439E-10 -1.389104E-09
       370  16 -2.184968E+05  2.293288E+04  3.573116E+04 -8.607429E+04 -2.872760E-09  4.081489E-10
       370  17 -1.821652E+05  2.401304E+04  3.368107E+04 -9.276892E+04 -5.125302E-09  1.633361E-09
       370  18 -1.762099E+05 -2.597318E+03  1.407538E+04 -7.300127E+04 -2.391601E-09  3.291053E-09
       370  19 -5.635517E+05 -1.148083E+05 -5.831455E+04 -1.880906E+05 -4.983468E+03 -7.235173E+03
       370  20 -5.737168E+05 -1.197559E+05 -7.037916E+04 -1.957967E+05 -1.645148E+04 -1.260670E+04
       370  21 -6.149605E+05 -1.531015E+05 -1.027729E+05 -1.770381E+05 -2.964783E+04 -1.340704E+04
       370  22 -3.910389E+05 -4.593916E+04 -1.129031E+04 -1.370890E+05 -6.202177E+03 -7.696315E+03
       370  23 -3.779592E+05 -4.787217E+04 -1.834701E+04 -1.442899E+05 -1.592858E+04 -1.240870E+04
       370  24 -3.956074E+05 -7.784945E+04 -4.434587E+04 -1.250272E+05 -2.738353E+04 -1.255050E+04
       370  25 -2.184967E+05  2.293297E+04  3.573139E+04 -8.607424E+04 -7.421263E+03 -8.157617E+03
       370  26 -1.821649E+05  2.401327E+04  3.368180E+04 -9.276876E+04 -1.540551E+04 -1.221063E+04
       370  27 -1.762092E+05 -2.597001E+03  1.407683E+04 -7.300104E+04 -2.511834E+04 -1.169369E+04
       371   1 -2.973496E+05 -6.643214E+03 -4.756034E+04 -2.142953E+04 -1.200164E+05 -5.134079E+03
       371   2 -3.053972E+05  1.538041E+05  4.575462E+04 -9.561640E+03 -8.098691E+04 -1.450438E+04
       371   3 -3.649488E+05  1.276945E+05  6.708834E+04  3.335776E+04 -4.199360E+04 -1.295709E+04
       371   4 -8.499234E+05 -1.443544E+05 -1.844686E+05  1.549598E+04 -1.260320E+05 -5.159201E+03
       371   5 -8.237316E+05  2.498157E+04 -8.011227E+04 -2.579834E+02 -8.258526E+04 -1.451178E+04
       371   6 -8.498590E+05  6.906055E+03 -5.085293E+04  1.504162E+04 -3.917211E+04 -1.294622E+04
       371   7 -1.402216E+06 -2.820832E+05 -3.213988E+05  5.238837E+04 -1.320424E+05 -5.185052E+03
       371   8 -1.341820E+06 -1.038603E+05 -2.059985E+05  9.037680E+03 -8.418226E+04 -1.451922E+04
       371   9 -1.334554E+06 -1.138985E+05 -1.688111E+05 -3.260364E+03 -3.635280E+04 -1.293551E+04
       371  10 -2.973651E+05 -6.647111E+03 -4.758747E+04 -2.143002E+04 -4.804612E-09  1.528009E-09
       371  11 -3.054043E+05  1.538021E+05  4.574189E+04 -9.562586E+03  2.797621E-10  1.100002E-08
       371  12 -3.649508E+05  1.276938E+05  6.708471E+04  3.335732E+04  1.336746E-09  2.752734E-09
       371  13 -8.499405E+05 -1.443587E+05 -1.844986E+05  1.549545E+04 -1.056731E-09 -3.598754E-09
       371  14 -8.237390E+05  2.497951E+04 -8.012550E+04 -2.589490E+02  2.214141E-09 -5.214339E-09
       371  15 -8.498607E+05  6.905462E+03 -5.085614E+04  1.504121E+04 -1.223208E-11  5.040597E-09
       371  16 -1.402235E+06 -2.820879E+05 -3.214316E+05  5.238782E+04  2.669564E-09  2.921492E-09
       371  17 -1.341828E+06 -1.038625E+05 -2.060123E+05  9.036695E+03 -3.281417E-09  1.032804E-08
       371  18 -1.334555E+06 -1.138990E+05 -1.688139E+05 -3.260743E+03 -5.439998E-10 -1.699095E-09
       371  19 -2.973496E+05 -6.643214E+03 -4.756034E+04 -2.142953E+04  1.200164E+05  5.134079E+03
       371  20 -3.053972E+05  1.538041E+05  4.575462E+04 -9.561640E+03  8.098691E+04  1.450438E+04
       371  21 -3.649488E+05  1.276945E+05  6.708834E+04  3.335776E+04  4.199360E+04  1.295709E+04
       371  22 -8.499234E+05 -1.443544E+05 -1.844686E+05  1.549598E+04  1.260320E+05  5.159201E+03
       371  23 -8.237316E+05  2.498157E+04 -8.011227E+04 -2.579834E+02  8.258526E+04  1.451178E+04
       371  24 -8.498590E+05  6.906055E+03 -5.085293E+04  1.504162E+04  3.917211E+04  1.294622E+04
       371  25 -1.402216E+06 -2.820832E+05 -3.213988E+05  5.238837E+04  1.320424E+05  5.185052E+03
       371  26 -1.341820E+06 -1.038603E+05 -2.059985E+05  9.037680E+03  8.418226E+04  1.451922E+04
       371  27 -1.334554E+06 -1.138985E+05 -1.688111E+05 -3.260364E+03  3.635280E+04  1.293551E+04
       372   1 -4.156014E+05  8.834281E+04  6.163233E+04  1.269135E+04 -3.105296E+04 -1.056234E+04
       372   2 -4.479080E+05  9.963292E+04  7.364245E+04 -6.947788E+02 -2.073500E+04 -1.020755E+04
       372   3 -4.871877E+05  8.872863E+04  7.336916E+04  1.891030E+04 -1.042308E+04 -8.794698E+03
       372   4 -8.397991E+05 -1.718958E+04 -4.171002E+04  1.567240E+04 -3.112601E+04 -1.056330E+04
       372   5 -8.362653E+05  3.018537E+03 -2.082579E+04 -8.598016E+02 -2.038321E+04 -1.020653E+04
       372   6 -8.397855E+05  9.502889E+02 -1.252650E+04  1.560073E+04 -9.645863E+03 -8.791526E+03
       372   7 -1.263832E+06 -1.227352E+05 -1.450654E+05  1.865126E+04 -3.119901E+04 -1.056426E+04
       372   8 -1.224485E+06 -9.360696E+04 -1.153050E+05 -1.024863E+03 -2.003163E+04 -1.020552E+04
       372   9 -1.192270E+06 -8.683720E+04 -9.843120E+04  1.229292E+04 -8.869082E+03 -8.788362E+03
       372  10 -4.156025E+05  8.834243E+04  6.163030E+04  1.269108E+04 -3.066837E-09 -4.734527E-09
       372  11 -4.479084E+05  9.963270E+04  7.364144E+04 -6.949492E+02  4.719508E-10  1.833183E-09
       372  12 -4.871879E+05  8.872852E+04  7.336881E+04  1.891022E+04  3.574190E-09  8.712614E-09
       372  13 -8.398002E+05 -1.718996E+04 -4.171206E+04  1.567214E+04 -5.605901E-11  1.308247E-08
       372  14 -8.362658E+05  3.018314E+03 -2.082676E+04 -8.599692E+02  2.375657E-09 -3.008692E-08
       372  15 -8.397856E+05  9.501810E+02 -1.252682E+04  1.560066E+04 -2.130853E-10  7.887216E-09
       372  16 -1.263833E+06 -1.227356E+05 -1.450675E+05  1.865099E+04  2.482279E-09 -1.020182E-08
       372  17 -1.224485E+06 -9.360718E+04 -1.153059E+05 -1.025028E+03 -3.193312E-10 -7.013556E-09
       372  18 -1.192270E+06 -8.683730E+04 -9.843149E+04  1.229285E+04 -2.707565E-09 -2.257828E-09
       372  19 -4.156014E+05  8.834281E+04  6.163233E+04  1.269135E+04  3.105296E+04  1.056234E+04
       372  20 -4.479080E+05  9.963292E+04  7.364245E+04 -6.947788E+02  2.073500E+04  1.020755E+04
       372  21 -4.871877E+05  8.872863E+04  7.336916E+04  1.891030E+04  1.042308E+04  8.794698E+03
       372  22 -8.397991E+05 -1.718958E+04 -4.171002E+04  1.567240E+04  3.112601E+04  1.056330E+04
       372  23 -8.362653E+05  3.018537E+03 -2.082579E+04 -8.598016E+02  2.038321E+04  1.020653E+04
       372  24 -8.397855E+05  9.502889E+02 -1.252650E+04  1.560073E+04  9.645863E+03  8.791526E+03
       372  25 -1.263832E+06 -1.227352E+05 -1.450654E+05  1.865126E+04  3.119901E+04  1.056426E+04
       372  26 -1.224485E+06 -9.360696E+04 -1.153050E+05 -1.024863E+03  2.003163E+04  1.020552E+04
       372  27 -1.192270E+06 -8.683720E+04 -9.843120E+04  1.229292E+04  8.869082E+03  8.788362E+03
       373   1 -5.499737E+05  6.986045E+04  6.022477E+04  1.652515E+04 -8.165421E+03 -7.834349E+03
       373   2 -5.866729E+05  6.287231E+04  5.578678E+04 -4.368896E+02 -5.531493E+03 -6.529876E+03
       373   3 -6.246069E+05  5.351849E+04  4.897813E+04  1.700972E+04 -2.899103E+03 -5.106115E+03
       373   4 -8.384839E+05 -1.908531E+03 -9.886899E+03  1.594575E+04 -7.660479E+03 -7.832274E+03
       373   5 -8.378596E+05  3.677161E+02 -5.332394E+03 -1.264267E+03 -4.979054E+03 -6.527417E+03
       373   6 -8.384796E+05  2.695450E+02 -3.182212E+03  1.593525E+04 -2.299010E+03 -5.103250E+03
       373   7 -1.126918E+06 -7.368364E+04 -8.000459E+04  1.536653E+04 -7.155770E+03 -7.830199E+03
       373   8 -1.088989E+06 -6.214153E+04 -6.645614E+04 -2.091377E+03 -4.426838E+03 -6.524959E+03
       373   9 -1.052311E+06 -5.298278E+04 -5.534588E+04  1.486109E+04 -1.699124E+03 -5.100386E+03
       373  10 -5.499737E+05  6.986037E+04  6.022453E+04  1.652510E+04  2.993427E-09 -7.094730E-09
       373  11 -5.866729E+05  6.287226E+04  5.578664E+04 -4.369187E+02 -1.233382E-10 -9.340071E-09
       373  12 -6.246069E+05  5.351846E+04  4.897806E+04  1.700971E+04 -8.905680E-10 -9.091175E-09
       373  13 -8.384840E+05 -1.908613E+03 -9.887125E+03  1.594570E+04  5.209472E-10 -6.825669E-09
       373  14 -8.378596E+05  3.676637E+02 -5.332520E+03 -1.264293E+03  1.210975E-09 -1.093134E-08
       373  15 -8.384796E+05  2.695156E+02 -3.182270E+03  1.593524E+04 -3.426672E-10 -9.511375E-09
       373  16 -1.126918E+06 -7.368372E+04 -8.000480E+04  1.536649E+04 -4.225200E-09 -1.147158E-08
       373  17 -1.088989E+06 -6.214158E+04 -6.645626E+04 -2.091401E+03 -1.920008E-09  2.115272E-09
       373  18 -1.052311E+06 -5.298281E+04 -5.534593E+04  1.486108E+04 -2.903599E-10  9.954737E-09
       373  19 -5.499737E+05  6.986045E+04  6.022477E+04  1.652515E+04  8.165421E+03  7.834349E+03
       373  20 -5.866729E+05  6.287231E+04  5.578678E+04 -4.368896E+02  5.531493E+03  6.529876E+03
       373  21 -6.246069E+05  5.351849E+04  4.897813E+04  1.700972E+04  2.899103E+03  5.106115E+03
       373  22 -8.384839E+05 -1.908531E+03 -9.886899E+03  1.594575E+04  7.660479E+03  7.832274E+03
       373  23 -8.378596E+05  3.677161E+02 -5.332394E+03 -1.264267E+03  4.979054E+03  6.527417E+03
       373  24 -8.384796E+05  2.695450E+02 -3.182212E+03  1.593525E+04  2.299010E+03  5.103250E+03
       373  25 -1.126918E+06 -7.368364E+04 -8.000459E+04  1.536653E+04  7.155770E+03  7.830199E+03
       373  26 -1.088989E+06 -6.214153E+04 -6.645614E+04 -2.091377E+03  4.426838E+03  6.524959E+03
       373  27 -1.052311E+06 -5.298278E+04 -5.534588E+04  1.486109E+04  1.699124E+03  5.100386E+03
       374   1 -6.906723E+05  3.665455E+04  3.330011E+04  1.664474E+04 -2.367241E+03 -4.261394E+03
       374   2 -7.285992E+05  2.729510E+04  2.509319E+04 -1.066805E+03 -1.613405E+03 -2.839674E+03
       374   3 -7.670495E+05  1.794348E+04  1.630678E+04  1.643160E+04 -8.600991E+02 -1.399618E+03
       374   4 -8.383129E+05 -6.407993E+01 -2.513059E+03  1.611720E+04 -1.792708E+03 -4.258564E+03
       374   5 -8.380490E+05  5.668510E+01 -1.541416E+03 -1.488760E+03 -1.031575E+03 -2.836734E+03
       374   6 -8.383112E+05  1.840524E+02 -1.154357E+03  1.611561E+04 -2.709260E+02 -1.396563E+03
       374   7 -9.859335E+05 -3.678431E+04 -3.832780E+04  1.558976E+04 -1.218311E+03 -4.255734E+03
       374   8 -9.474878E+05 -2.718261E+04 -2.817689E+04 -1.910655E+03 -4.498469E+02 -2.833795E+03
       374   9 -9.095683E+05 -1.757575E+04 -1.861586E+04  1.579965E+04  3.181796E+02 -1.393507E+03
       374  10 -6.906723E+05  3.665453E+04  3.330006E+04  1.664473E+04 -2.669327E-09 -1.067188E-08
       374  11 -7.285992E+05  2.729509E+04  2.509317E+04 -1.066808E+03 -5.333985E-09  1.133411E-08
       374  12 -7.670495E+05  1.794348E+04  1.630677E+04  1.643159E+04 -4.210906E-09 -2.340819E-09
       374  13 -8.383129E+05 -6.410026E+01 -2.513099E+03  1.611719E+04 -1.085863E-09  3.538389E-09
       374  14 -8.380490E+05  5.667617E+01 -1.541433E+03 -1.488762E+03 -1.301738E-09 -2.994149E-09
       374  15 -8.383112E+05  1.840503E+02 -1.154361E+03  1.611561E+04  4.430632E-11 -8.670603E-09
       374  16 -9.859336E+05 -3.678433E+04 -3.832784E+04  1.558975E+04  2.021725E-10  7.206031E-09
       374  17 -9.474878E+05 -2.718262E+04 -2.817690E+04 -1.910656E+03  1.684122E-09  1.933954E-08
       374  18 -9.095683E+05 -1.757575E+04 -1.861587E+04  1.579965E+04  3.804489E-09  1.503053E-09
       374  19 -6.906723E+05  3.665455E+04  3.330011E+04  1.664474E+04  2.367241E+03  4.261394E+03
       374  20 -7.285992E+05  2.729510E+04  2.509319E+04 -1.066805E+03  1.613405E+03  2.839674E+03
       374  21 -7.670495E+05  1.794348E+04  1.630678E+04  1.643160E+04  8.600991E+02  1.399618E+03
       374  22 -8.383129E+05 -6.407992E+01 -2.513059E+03  1.611720E+04  1.792708E+03  4.258564E+03
       374  23 -8.380490E+05  5.668510E+01 -1.541416E+03 -1.488760E+03  1.031575E+03  2.836734E+03
       374  24 -8.383112E+05  1.840524E+02 -1.154357E+03  1.611561E+04  2.709260E+02  1.396563E+03
       374  25 -9.859335E+05 -3.678431E+04 -3.832780E+04  1.558976E+04  1.218311E+03  4.255734E+03
       374  26 -9.474878E+05 -2.718261E+04 -2.817689E+04 -1.910655E+03  4.498469E+02  2.833795E+03
       374  27 -9.095683E+05 -1.757575E+04 -1.861586E+04  1.579965E+04 -3.181796E+02  1.393507E+03
       375   1 -8.341968E+05  1.169094E+03 -2.146665E+02  1.614536E+04 -6.614604E+02 -5.563744E+02
       375   2 -8.723105E+05 -8.480545E+03 -9.548988E+03 -1.668524E+03 -6.108238E+01  8.863551E+02
       375   3 -9.109300E+05 -1.802567E+04 -1.934447E+04  1.589616E+04  5.394255E+02  2.318781E+03
       375   4 -8.383054E+05  1.705589E+02 -1.095874E+03  1.615310E+04 -7.261525E+01 -5.533009E+02
       375   5 -8.380521E+05  4.594062E+01 -1.211598E+03 -1.535741E+03  5.235638E+02  8.893806E+02
       375   6 -8.383059E+05  2.653896E+01 -1.785593E+03  1.615387E+04  1.119910E+03  2.321764E+03
       375   7 -8.424140E+05 -8.279771E+02 -1.977081E+03  1.616083E+04  5.162260E+02 -5.502273E+02
       375   8 -8.037928E+05  8.572340E+03  7.125709E+03 -1.402952E+03  1.108242E+03  8.924062E+02
       375   9 -7.656771E+05  1.807836E+04  1.577290E+04  1.641159E+04  1.700462E+03  2.324747E+03
       375  10 -8.341968E+05  1.169093E+03 -2.146679E+02  1.614536E+04 -7.644828E-09 -6.107451E-09
       375  11 -8.723105E+05 -8.480546E+03 -9.548990E+03 -1.668523E+03 -1.494888E-09 -5.582452E-09
       375  12 -9.109300E+05 -1.802568E+04 -1.934448E+04  1.589616E+04 -3.832907E-09 -4.958669E-09
       375  13 -8.383054E+05  1.705585E+02 -1.095875E+03  1.615310E+04 -6.504529E-10  6.126170E-09
       375  14 -8.380521E+05  4.593970E+01 -1.211600E+03 -1.535741E+03 -3.518518E-09  2.855637E-09
       375  15 -8.383060E+05  2.653283E+01 -1.785606E+03  1.615387E+04 -4.479902E-10 -5.449612E-09
       375  16 -8.424140E+05 -8.279775E+02 -1.977082E+03  1.616083E+04  4.497125E-09 -3.756748E-09
       375  17 -8.037928E+05  8.572339E+03  7.125705E+03 -1.402952E+03  2.596226E-10 -2.326105E-08
       375  18 -7.656771E+05  1.807835E+04  1.577289E+04  1.641159E+04  3.632091E-09 -1.112019E-08
       375  19 -8.341968E+05  1.169094E+03 -2.146665E+02  1.614536E+04  6.614604E+02  5.563744E+02
       375  20 -8.723105E+05 -8.480545E+03 -9.548988E+03 -1.668524E+03  6.108238E+01 -8.863551E+02
       375  21 -9.109300E+05 -1.802567E+04 -1.934447E+04  1.589616E+04 -5.394255E+02 -2.318781E+03
       375  22 -8.383054E+05  1.705589E+02 -1.095874E+03  1.615310E+04  7.261525E+01  5.533009E+02
       375  23 -8.380521E+05  4.594062E+01 -1.211598E+03 -1.535741E+03 -5.235638E+02 -8.893806E+02
       375  24 -8.383059E+05  2.653896E+01 -1.785593E+03  1.615387E+04 -1.119910E+03 -2.321764E+03
       375  25 -8.424140E+05 -8.279771E+02 -1.977081E+03  1.616083E+04 -5.162260E+02  5.502273E+02
       375  26 -8.037928E+05  8.572340E+03  7.125709E+03 -1.402952E+03 -1.108242E+03 -8.924062E+02
       375  27 -7.656771E+05  1.807836E+04  1.577290E+04  1.641159E+04 -1.700462E+03 -2.324747E+03
       376   1 -9.778912E+05 -3.449473E+04 -3.627339E+04  1.532451E+04  8.708279E+02  3.169207E+03
       376   2 -1.015248E+06 -4.388411E+04 -4.676768E+04 -2.016878E+03  2.723631E+03  4.607096E+03
       376   3 -1.053595E+06 -5.474877E+04 -5.891919E+04  1.554596E+04  4.577468E+03  5.943556E+03
       376   4 -8.384160E+05  2.471818E+02 -2.208584E+03  1.604557E+04  1.473840E+03  3.172250E+03
       376   5 -8.379260E+05  2.520340E+02 -3.610383E+03 -1.402516E+03  3.285766E+03  4.609808E+03
       376   6 -8.384192E+05 -1.210704E+03 -6.640364E+03  1.605301E+04  5.098838E+03  5.945953E+03
       376   7 -6.989229E+05  3.498765E+04  3.185480E+04  1.676676E+04  2.076987E+03  3.175295E+03
       376   8 -6.605748E+05  4.438586E+04  3.954463E+04 -7.880128E+02  3.848062E+03  4.612521E+03
       376   9 -6.232006E+05  5.232396E+04  4.563511E+04  1.656019E+04  5.620388E+03  5.948351E+03
       376  10 -9.778912E+05 -3.449474E+04 -3.627341E+04  1.532451E+04 -1.146489E-08 -5.479288E-09
       376  11 -1.015248E+06 -4.388414E+04 -4.676773E+04 -2.016888E+03 -4.017751E-09 -1.565044E-08
       376  12 -1.053596E+06 -5.474881E+04 -5.891929E+04  1.554593E+04  3.073852E-10  2.797042E-09
       376  13 -8.384160E+05  2.471704E+02 -2.208607E+03  1.604556E+04 -1.017662E-09 -1.655224E-10
       376  14 -8.379260E+05  2.520083E+02 -3.610443E+03 -1.402528E+03 -5.242509E-10  2.685794E-09
       376  15 -8.384192E+05 -1.210749E+03 -6.640480E+03  1.605299E+04 -1.243483E-09  5.205374E-09
       376  16 -6.989230E+05  3.498764E+04  3.185478E+04  1.676675E+04  8.705113E-09  7.364399E-09
       376  17 -6.605748E+05  4.438584E+04  3.954456E+04 -7.880271E+02  4.723967E-09 -7.986205E-09
       376  18 -6.232006E+05  5.232391E+04  4.563498E+04  1.656017E+04  3.924872E-10  1.396691E-08
       376  19 -9.778912E+05 -3.449473E+04 -3.627339E+04  1.532451E+04 -8.708279E+02 -3.169207E+03
       376  20 -1.015248E+06 -4.388411E+04 -4.676768E+04 -2.016878E+03 -2.723631E+03 -4.607096E+03
       376  21 -1.053595E+06 -5.474877E+04 -5.891919E+04  1.554596E+04 -4.577468E+03 -5.943556E+03
       376  22 -8.384160E+05  2.471818E+02 -2.208584E+03  1.604557E+04 -1.473840E+03 -3.172250E+03
       376  23 -8.379260E+05  2.520340E+02 -3.610383E+03 -1.402516E+03 -3.285766E+03 -4.609808E+03
       376  24 -8.384192E+05 -1.210704E+03 -6.640364E+03  1.605301E+04 -5.098838E+03 -5.945953E+03
       376  25 -6.989229E+05  3.498765E+04  3.185480E+04  1.676676E+04 -2.076987E+03 -3.175295E+03
       376  26 -6.605748E+05  4.438586E+04  3.954463E+04 -7.880128E+02 -3.848062E+03 -4.612521E+03
       376  27 -6.232006E+05  5.232396E+04  4.563511E+04  1.656019E+04 -5.620388E+03 -5.948351E+03
       377   1 -1.119784E+06 -6.915686E+04 -7.678011E+04  1.336364E+04  5.666558E+03  6.898837E+03
       377   2 -1.154000E+06 -7.690790E+04 -9.111632E+04 -1.464522E+03  1.323019E+04  8.333558E+03
       377   3 -1.193124E+06 -9.951219E+04 -1.141420E+05  1.752340E+04  2.079841E+04  8.832389E+03
       377   4 -8.392852E+05  7.029970E+02 -8.398535E+03  1.578926E+04  6.429330E+03  6.902273E+03
       377   5 -8.368695E+05  2.022194E+03 -1.394240E+04 -1.091840E+03  1.361494E+04  8.335001E+03
       377   6 -8.392953E+05 -1.144168E+04 -2.790947E+04  1.584218E+04  2.080558E+04  8.832001E+03
       377   7 -5.587142E+05  7.055706E+04  5.997732E+04  1.821590E+04  7.192446E+03  6.905714E+03
       377   8 -5.196473E+05  8.094487E+04  6.322423E+04 -7.190694E+02  1.399988E+04  8.336443E+03
       377   9 -4.853520E+05  7.661961E+04  5.831390E+04  1.415988E+04  2.081275E+04  8.831613E+03
       377  10 -1.119784E+06 -6.915692E+04 -7.678026E+04  1.336361E+04  1.195921E-08  4.675069E-09
       377  11 -1.154000E+06 -7.690802E+04 -9.111678E+04 -1.464611E+03  1.198298E-09  5.030417E-09
       377  12 -1.193125E+06 -9.951239E+04 -1.141429E+05  1.752325E+04 -3.907168E-09 -9.915753E-09
       377  13 -8.392853E+05  7.029348E+02 -8.398702E+03  1.578923E+04  3.933720E-11 -7.159459E-09
       377  14 -8.368697E+05  2.022070E+03 -1.394288E+04 -1.091931E+03 -2.364922E-09  7.449640E-09
       377  15 -8.392958E+05 -1.144188E+04 -2.791044E+04  1.584203E+04 -1.121685E-09 -5.022715E-09
       377  16 -5.587143E+05  7.055699E+04  5.997714E+04  1.821586E+04 -1.486214E-08 -3.425200E-09
       377  17 -5.196475E+05  8.094474E+04  6.322373E+04 -7.191634E+02 -3.738349E-09 -2.891733E-08
       377  18 -4.853525E+05  7.661941E+04  5.831294E+04  1.415973E+04  3.543613E-09 -5.555333E-09
       377  19 -1.119784E+06 -6.915686E+04 -7.678011E+04  1.336364E+04 -5.666558E+03 -6.898837E+03
       377  20 -1.154000E+06 -7.690790E+04 -9.111632E+04 -1.464522E+03 -1.323019E+04 -8.333558E+03
       377  21 -1.193124E+06 -9.951219E+04 -1.141420E+05  1.752340E+04 -2.079841E+04 -8.832389E+03
       377  22 -8.392852E+05  7.029970E+02 -8.398535E+03  1.578926E+04 -6.429330E+03 -6.902273E+03
       377  23 -8.368695E+05  2.022194E+03 -1.394240E+04 -1.091840E+03 -1.361494E+04 -8.335001E+03
       377  24 -8.392953E+05 -1.144168E+04 -2.790947E+04  1.584218E+04 -2.080558E+04 -8.832001E+03
       377  25 -5.587142E+05  7.055706E+04  5.997732E+04  1.821590E+04 -7.192446E+03 -6.905714E+03
       377  26 -5.196473E+05  8.094487E+04  6.322423E+04 -7.190694E+02 -1.399988E+04 -8.336443E+03
       377  27 -4.853520E+05  7.661961E+04  5.831390E+04  1.415988E+04 -2.081275E+04 -8.831613E+03
       378   1 -1.262406E+06 -9.908402E+04 -1.353619E+05  2.684993E+03  2.360986E+04  1.104431E+04
       378   2 -1.279532E+06 -9.546231E+04 -1.631850E+05  5.217892E+03  5.657997E+04  1.262564E+04
       378   3 -1.332426E+06 -2.178240E+05 -2.439947E+05  3.990624E+04  8.958230E+04  4.516467E+03
       378   4 -8.460147E+05  4.679203E+03 -3.402156E+04  1.532012E+04  2.618557E+04  1.105485E+04
       378   5 -8.285067E+05  1.670779E+04 -5.360068E+04 -5.793516E+02  5.522641E+04  1.261930E+04
       378   6 -8.460602E+05 -9.651586E+04 -1.234079E+05  1.567693E+04  8.430163E+04  4.494394E+03
       378   7 -4.294642E+05  1.084302E+05  6.730630E+04  2.796360E+04  2.876299E+04  1.106550E+04
       378   8 -3.772955E+05  1.288631E+05  5.596890E+04 -6.381001E+03  5.387186E+04  1.261300E+04
       378   9 -3.594775E+05  2.477685E+04 -2.838388E+03 -8.571598E+03  7.901680E+04  4.472744E+03
       378  10 -1.262407E+06 -9.908430E+04 -1.353632E+05  2.684783E+03  2.048064E-09 -8.995513E-09
       378  11 -1.279535E+06 -9.546334E+04 -1.631913E+05  5.217316E+03  3.270129E-09  9.560534E-10
       378  12 -1.332435E+06 -2.178262E+05 -2.440098E+05  3.990591E+04  1.008436E-09  7.142447E-09
       378  13 -8.460155E+05  4.678888E+03 -3.402308E+04  1.531989E+04 -5.239028E-10  6.917306E-10
       378  14 -8.285100E+05  1.670680E+04 -5.360672E+04 -5.799131E+02 -1.277295E-09 -2.759753E-09
       378  15 -8.460678E+05 -9.651779E+04 -1.234213E+05  1.567662E+04 -1.193195E-09  2.772040E-09
       378  16 -4.294652E+05  1.084298E+05  6.730452E+04  2.796335E+04 -4.576317E-09  5.354453E-09
       378  17 -3.772987E+05  1.288621E+05  5.596315E+04 -6.381548E+03 -5.593250E-09  6.787978E-09
       378  18 -3.594842E+05  2.477516E+04 -2.850165E+03 -8.571883E+03 -1.196317E-09 -1.185773E-09
       378  19 -1.262406E+06 -9.908402E+04 -1.353619E+05  2.684993E+03 -2.360986E+04 -1.104431E+04
       378  20 -1.279532E+06 -9.546231E+04 -1.631850E+05  5.217892E+03 -5.657997E+04 -1.262564E+04
       378  21 -1.332426E+06 -2.178240E+05 -2.439947E+05  3.990624E+04 -8.958230E+04 -4.516467E+03
       378  22 -8.460147E+05  4.679203E+03 -3.402156E+04  1.532012E+04 -2.618557E+04 -1.105485E+04
       378  23 -8.285067E+05  1.670779E+04 -5.360068E+04 -5.793516E+02 -5.522641E+04 -1.261930E+04
       378  24 -8.460602E+05 -9.651586E+04 -1.234079E+05  1.567693E+04 -8.430163E+04 -4.494394E+03
       378  25 -4.294642E+05  1.084302E+05  6.730630E+04  2.796360E+04 -2.876299E+04 -1.106550E+04
       378  26 -3.772955E+05  1.288631E+05  5.596890E+04 -6.381001E+03 -5.387186E+04 -1.261300E+04
       378  27 -3.594775E+05  2.477685E+04 -2.838388E+03 -8.571598E+03 -7.901680E+04 -4.472744E+03
       379   1 -1.563827E+05 -5.974337E+05 -1.501745E+05  1.498781E+05 -6.194839E+03 -5.217052E+04
       379   2 -1.115417E+05 -4.753496E+05 -9.345659E+04  1.335435E+05 -1.961850E+04 -2.248255E+04
       379   3 -7.888829E+04 -3.600093E+05 -5.911855E+04  1.391085E+05 -2.004606E+04  7.248348E+03
       379   4 -1.623031E+04 -3.074824E+04 -1.664092E+04  1.387835E+05 -6.292648E+03 -1.266717E+04
       379   5 -5.140223E+03 -2.959996E+04 -7.492516E+03  1.278516E+05 -1.965054E+04 -8.842291E+03
       379   6 -1.739936E+03 -3.071327E+04 -2.750088E+03  1.388195E+05 -2.001612E+04 -4.981067E+03
       379   7  1.239004E+05  5.362365E+05  1.168764E+05  1.276789E+05 -6.391826E+03  2.687207E+04
       379   8  1.012496E+05  4.163413E+05  7.846305E+04  1.221556E+05 -1.968282E+04  4.807540E+03
       379   9  7.540272E+04  2.986897E+05  5.361531E+04  1.385304E+05 -1.998617E+04 -1.721677E+04
       379  10 -1.563834E+05 -5.974367E+05 -1.501797E+05  1.498778E+05  1.560482E-09 -6.221686E-08
       379  11 -1.115422E+05 -4.753503E+05 -9.345827E+04  1.335432E+05 -2.675464E-10  2.570792E-09
       379  12 -7.888874E+04 -3.600094E+05 -5.911940E+04  1.391086E+05 -5.803160E-10  5.916970E-08
       379  13 -1.623040E+04 -3.074842E+04 -1.664129E+04  1.387834E+05  3.422920E-10  3.714718E-09
       379  14 -5.140658E+03 -2.960015E+04 -7.493388E+03  1.278515E+05 -2.764432E-09 -8.519981E-09
       379  15 -1.740373E+03 -3.071341E+04 -2.750887E+03  1.388194E+05  7.009141E-10  1.292900E-09
       379  16  1.239001E+05  5.362357E+05  1.168750E+05  1.276790E+05 -1.005126E-10  6.207608E-08
       379  17  1.012492E+05  4.163412E+05  7.846228E+04  1.221556E+05 -1.581277E-09 -3.887933E-09
       379  18  7.540221E+04  2.986892E+05  5.361401E+04  1.385301E+05 -5.063789E-11 -6.193235E-08
       379  19 -1.563827E+05 -5.974337E+05 -1.501745E+05  1.498781E+05  6.194839E+03  5.217052E+04
       379  20 -1.115417E+05 -4.753496E+05 -9.345659E+04  1.335435E+05  1.961850E+04  2.248255E+04
       379  21 -7.888829E+04 -3.600093E+05 -5.911855E+04  1.391085E+05  2.004606E+04 -7.248348E+03
       379  22 -1.623031E+04 -3.074824E+04 -1.664092E+04  1.387835E+05  6.292648E+03  1.266717E+04
       379  23 -5.140223E+03 -2.959996E+04 -7.492516E+03  1.278516E+05  1.965054E+04  8.842291E+03
       379  24 -1.739936E+03 -3.071327E+04 -2.750088E+03  1.388195E+05  2.001612E+04  4.981067E+03
       379  25  1.239004E+05  5.362365E+05  1.168764E+05  1.276789E+05  6.391826E+03 -2.687207E+04
       379  26  1.012496E+05  4.163413E+05  7.846305E+04  1.221556E+05  1.968282E+04 -4.807540E+03
       379  27  7.540272E+04  2.986897E+05  5.361531E+04  1.385304E+05  1.998617E+04  1.721677E+04
       380   1 -6.080868E+04 -2.835719E+05 -4.362829E+04  1.397135E+05 -1.600193E+04  7.119137E+03
       380   2 -3.147442E+04 -1.650294E+05 -1.852339E+04  1.285110E+05 -9.720640E+03  7.136462E+03
       380   3 -1.715546E+03 -4.621755E+04  6.715551E+03  1.400831E+05 -2.793502E+03  7.154875E+03
       380   4 -1.571049E+03 -3.009595E+04 -9.776391E+02  1.390093E+05 -1.597354E+04 -4.747112E+03
       380   5 -3.081313E+02 -3.033030E+04  2.571351E+03  1.276260E+05 -9.689779E+03 -6.017014E+03
       380   6  1.603626E+03 -3.008511E+04  7.148683E+03  1.390169E+05 -2.760269E+03 -7.285837E+03
       380   7  5.766329E+04  2.234436E+05  4.167151E+04  1.383049E+05 -1.594512E+04 -1.661805E+04
       380   8  3.085735E+04  1.043873E+05  2.366630E+04  1.267409E+05 -9.658883E+03 -1.917324E+04
       380   9  4.922910E+03 -1.395191E+04  7.582621E+03  1.379506E+05 -2.726987E+03 -2.172689E+04
       380  10 -6.080897E+04 -2.835720E+05 -4.362886E+04  1.397136E+05 -2.471594E-10  3.286297E-09
       380  11 -3.147453E+04 -1.650295E+05 -1.852366E+04  1.285111E+05  1.390996E-09  7.910934E-10
       380  12 -1.715568E+03 -4.621761E+04  6.715440E+03  1.400831E+05 -2.220527E-09 -5.850233E-09
       380  13 -1.571329E+03 -3.009604E+04 -9.781608E+02  1.390093E+05 -4.582700E-10  5.539907E-09
       380  14 -3.082418E+02 -3.033036E+04  2.571107E+03  1.276260E+05  1.875839E-09 -7.100932E-09
       380  15  1.603603E+03 -3.008516E+04  7.148569E+03  1.390169E+05  8.308666E-10  9.822948E-10
       380  16  5.766294E+04  2.234433E+05  4.167051E+04  1.383047E+05  8.270468E-11 -8.252951E-10
       380  17  3.085716E+04  1.043869E+05  2.366544E+04  1.267407E+05 -2.115133E-09 -3.239806E-09
       380  18  4.922776E+03 -1.395242E+04  7.581720E+03  1.379506E+05  2.413572E-10  4.831709E-09
       380  19 -6.080868E+04 -2.835719E+05 -4.362829E+04  1.397135E+05  1.600193E+04 -7.119137E+03
       380  20 -3.147442E+04 -1.650294E+05 -1.852339E+04  1.285110E+05  9.720640E+03 -7.136462E+03
       380  21 -1.715546E+03 -4.621755E+04  6.715551E+03  1.400831E+05  2.793502E+03 -7.154875E+03
       380  22 -1.571049E+03 -3.009595E+04 -9.776391E+02  1.390093E+05  1.597354E+04  4.747112E+03
       380  23 -3.081313E+02 -3.033030E+04  2.571351E+03  1.276260E+05  9.689779E+03  6.017014E+03
       380  24  1.603626E+03 -3.008511E+04  7.148683E+03  1.390169E+05  2.760269E+03  7.285837E+03
       380  25  5.766329E+04  2.234436E+05  4.167151E+04  1.383049E+05  1.594512E+04  1.661805E+04
       380  26  3.085735E+04  1.043873E+05  2.366630E+04  1.267409E+05  9.658883E+03  1.917324E+04
       380  27  4.922910E+03 -1.395191E+04  7.582621E+03  1.379506E+05  2.726987E+03  2.172689E+04
       381   1  1.636120E+04  3.054059E+04  2.263466E+04  1.382005E+05  1.780625E+03  6.083099E+03
       381   2  5.280707E+04  1.450900E+05  5.658958E+04  1.392848E+05  5.628338E+03 -1.809117E+04
       381   3  1.100174E+05  2.681373E+05  1.115064E+05  1.627713E+05  2.388514E+03 -4.228853E+04
       381   4  1.975057E+03 -2.885034E+04  1.011368E+04  1.389249E+05  1.814304E+03 -8.529231E+03
       381   5  1.008702E+04 -3.187621E+04  1.961119E+04  1.277665E+05  5.629955E+03 -1.858247E+04
       381   6  3.651667E+04 -2.886341E+04  4.026822E+04  1.390086E+05  2.358093E+03 -2.865425E+04
       381   7 -1.241119E+04 -8.823748E+04 -2.406706E+03  1.396493E+05  1.847950E+03 -2.314019E+04
       381   8 -3.263452E+04 -2.088125E+05 -1.736886E+04  1.162516E+05  5.631590E+03 -1.907362E+04
       381   9 -3.698823E+04 -3.257817E+05 -3.097523E+04  1.152573E+05  2.326622E+03 -1.502647E+04
       381  10  1.636118E+04  3.054055E+04  2.263458E+04  1.382005E+05 -1.701267E-09  3.179119E-09
       381  11  5.280694E+04  1.450897E+05  5.658891E+04  1.392849E+05  6.429804E-10  2.578429E-09
       381  12  1.100169E+05  2.681353E+05  1.115031E+05  1.627714E+05 -3.806638E-10 -1.214364E-09
       381  13  1.975034E+03 -2.885042E+04  1.011353E+04  1.389249E+05 -2.584522E-09  6.520155E-09
       381  14  1.008689E+04 -3.187659E+04  1.961048E+04  1.277666E+05  6.829719E-10 -4.968519E-09
       381  15  3.651644E+04 -2.886429E+04  4.026667E+04  1.390086E+05  1.953318E-10  3.319816E-09
       381  16 -1.241134E+04 -8.823806E+04 -2.407719E+03  1.396493E+05 -6.659123E-11 -2.338180E-09
       381  17 -3.263465E+04 -2.088129E+05 -1.736960E+04  1.162517E+05  1.058276E-10 -7.703829E-09
       381  18 -3.698830E+04 -3.257819E+05 -3.097567E+04  1.152574E+05 -7.495320E-10  3.320490E-10
       381  19  1.636120E+04  3.054059E+04  2.263466E+04  1.382005E+05 -1.780625E+03 -6.083099E+03
       381  20  5.280707E+04  1.450900E+05  5.658958E+04  1.392848E+05 -5.628338E+03  1.809117E+04
       381  21  1.100174E+05  2.681373E+05  1.115064E+05  1.627713E+05 -2.388514E+03  4.228853E+04
       381  22  1.975057E+03 -2.885034E+04  1.011368E+04  1.389249E+05 -1.814304E+03  8.529231E+03
       381  23  1.008702E+04 -3.187621E+04  1.961119E+04  1.277665E+05 -5.629955E+03  1.858247E+04
       381  24  3.651667E+04 -2.886341E+04  4.026822E+04  1.390086E+05 -2.358093E+03  2.865425E+04
       381  25 -1.241119E+04 -8.823748E+04 -2.406706E+03  1.396493E+05 -1.847950E+03  2.314019E+04
       381  26 -3.263452E+04 -2.088125E+05 -1.736886E+04  1.162516E+05 -5.631590E+03  1.907362E+04
       381  27 -3.698823E+04 -3.257817E+05 -3.097523E+04  1.152573E+05 -2.326622E+03  1.502647E+04
       382   1  1.308475E+06  4.641120E+05  3.155200E+05  4.485334E+05  1.346150E+05  4.667638E+04
       382   2  1.259292E+06  2.552636E+05  1.865755E+05  4.604260E+05  8.796307E+04  2.076168E+04
       382   3  1.269102E+06  2.584262E+05  1.470291E+05  4.453256E+05  3.807000E+04  3.418381E+03
       382   4  9.223837E+05  2.816273E+05  2.029575E+05  3.056624E+05  1.301512E+05  4.497779E+04
       382   5  8.827840E+05  1.029624E+05  8.392708E+04  3.467853E+05  8.680602E+04  2.032132E+04
       382   6  9.015668E+05  1.357232E+05  5.171913E+04  3.609035E+05  4.021744E+04  4.233081E+03
       382   7  5.364424E+05  9.917865E+04  9.038124E+04  1.628805E+05  1.256905E+05  4.328099E+04
       382   8  5.064138E+05 -4.932406E+04 -1.873400E+04  2.332088E+05  8.564973E+04  1.988128E+04
       382   9  5.341604E+05  1.302127E+04 -4.360212E+04  2.765229E+05  4.236347E+04  5.047393E+03
       382  10  1.308455E+06  4.641048E+05  3.154820E+05  4.485284E+05 -1.800923E-10 -7.214666E-09
       382  11  1.259283E+06  2.552610E+05  1.865602E+05  4.604246E+05 -1.541727E-09 -3.024552E-09
       382  12  1.269100E+06  2.584258E+05  1.470264E+05  4.453255E+05 -4.343381E-09  3.053740E-09
       382  13  9.223650E+05  2.816206E+05  2.029219E+05  3.056577E+05  2.649394E-10 -6.684500E-09
       382  14  8.827758E+05  1.029600E+05  8.391217E+04  3.467839E+05 -3.199394E-10  4.523892E-09
       382  15  9.015650E+05  1.357228E+05  5.171606E+04  3.609034E+05 -2.850120E-09  5.376143E-09
       382  16  5.364249E+05  9.917240E+04  9.034806E+04  1.628761E+05  4.214224E-10 -3.764730E-12
       382  17  5.064058E+05 -4.932646E+04 -1.874852E+04  2.332074E+05  3.775513E-09  6.212579E-09
       382  18  5.341584E+05  1.302076E+04 -4.360554E+04  2.765227E+05  1.161684E-09 -5.708130E-10
       382  19  1.308475E+06  4.641120E+05  3.155200E+05  4.485334E+05 -1.346150E+05 -4.667638E+04
       382  20  1.259292E+06  2.552636E+05  1.865755E+05  4.604260E+05 -8.796307E+04 -2.076168E+04
       382  21  1.269102E+06  2.584262E+05  1.470291E+05  4.453256E+05 -3.807000E+04 -3.418381E+03
       382  22  9.223837E+05  2.816273E+05  2.029575E+05  3.056624E+05 -1.301512E+05 -4.497779E+04
       382  23  8.827840E+05  1.029624E+05  8.392708E+04  3.467853E+05 -8.680602E+04 -2.032132E+04
       382  24  9.015668E+05  1.357232E+05  5.171913E+04  3.609035E+05 -4.021744E+04 -4.233081E+03
       382  25  5.364424E+05  9.917865E+04  9.038124E+04  1.628805E+05 -1.256905E+05 -4.328099E+04
       382  26  5.064138E+05 -4.932406E+04 -1.873400E+04  2.332088E+05 -8.564973E+04 -1.988128E+04
       382  27  5.341604E+05  1.302127E+04 -4.360212E+04  2.765229E+05 -4.236347E+04 -5.047393E+03
       383   1  1.196329E+06  2.757133E+05  1.239465E+05  4.349364E+05  3.202373E+04  3.326515E+03
       383   2  1.175388E+06  2.333873E+05  9.437604E+04  4.210555E+05  2.122079E+04 -5.033992E+02
       383   3  1.146248E+06  2.336046E+05  7.931263E+04  4.223756E+05  1.010667E+04 -3.513322E+03
       383   4  8.952594E+05  1.575219E+05  4.228883E+04  3.478085E+05  3.194607E+04  3.296508E+03
       383   5  8.981048E+05  1.273104E+05  1.982617E+04  3.436129E+05  2.146183E+04 -4.122301E+02
       383   6  8.926915E+05  1.395861E+05  1.162364E+04  3.546175E+05  1.066591E+04 -3.301096E+03
       383   7  5.942767E+05  3.933801E+04 -3.937701E+04  2.607192E+05  3.186845E+04  3.266516E+03
       383   8  6.208954E+05  2.123876E+04 -5.473042E+04  2.662017E+05  2.170276E+04 -3.211079E+02
       383   9  6.391972E+05  4.557102E+04 -5.607080E+04  2.868842E+05  1.122490E+04 -3.088962E+03
       383  10  1.196328E+06  2.757130E+05  1.239446E+05  4.349363E+05 -6.873402E-10  1.405609E-08
       383  11  1.175388E+06  2.333871E+05  9.437519E+04  4.210555E+05 -3.186945E-09  1.318718E-08
       383  12  1.146248E+06  2.336046E+05  7.931242E+04  4.223756E+05  1.836938E-09 -1.865216E-09
       383  13  8.952583E+05  1.575217E+05  4.228690E+04  3.478084E+05 -1.101658E-09  4.939507E-09
       383  14  8.981043E+05  1.273103E+05  1.982530E+04  3.436130E+05 -3.304182E-09  2.346460E-08
       383  15  8.926914E+05  1.395860E+05  1.162340E+04  3.546176E+05  2.645824E-09 -2.186208E-09
       383  16  5.942756E+05  3.933773E+04 -3.937893E+04  2.607191E+05 -4.543150E-09  6.095446E-10
       383  17  6.208949E+05  2.123864E+04 -5.473130E+04  2.662017E+05 -4.796662E-09 -9.956420E-09
       383  18  6.391970E+05  4.557098E+04 -5.607106E+04  2.868842E+05  6.943314E-11  3.881548E-09
       383  19  1.196329E+06  2.757133E+05  1.239465E+05  4.349364E+05 -3.202373E+04 -3.326515E+03
       383  20  1.175388E+06  2.333873E+05  9.437604E+04  4.210555E+05 -2.122079E+04  5.033992E+02
       383  21  1.146248E+06  2.336046E+05  7.931263E+04  4.223756E+05 -1.010667E+04  3.513322E+03
       383  22  8.952594E+05  1.575219E+05  4.228883E+04  3.478085E+05 -3.194607E+04 -3.296508E+03
       383  23  8.981048E+05  1.273104E+05  1.982617E+04  3.436129E+05 -2.146183E+04  4.122301E+02
       383  24  8.926915E+05  1.395861E+05  1.162364E+04  3.546175E+05 -1.066591E+04  3.301096E+03
       383  25  5.942767E+05  3.933801E+04 -3.937701E+04  2.607192E+05 -3.186845E+04 -3.266516E+03
       383  26  6.208954E+05  2.123876E+04 -5.473042E+04  2.662017E+05 -2.170276E+04  3.211079E+02
       383  27  6.391972E+05  4.557102E+04 -5.607080E+04  2.868842E+05 -1.122490E+04  3.088962E+03
       384   1  1.095638E+06  2.196486E+05  6.379099E+04  4.093574E+05  8.359697E+03 -3.354739E+03
       384   2  1.079343E+06  1.987433E+05  5.279958E+04  3.931236E+05  5.609759E+03 -3.347147E+03
       384   3  1.046860E+06  1.984656E+05  4.440793E+04  3.961179E+05  2.836706E+03 -3.280040E+03
       384   4  8.919831E+05  1.420159E+05  9.148111E+03  3.527490E+05  8.698647E+03 -3.226117E+03
       384   5  8.999247E+05  1.306223E+05  4.647930E+03  3.435466E+05  5.972280E+03 -3.209464E+03
       384   6  8.916730E+05  1.398527E+05  2.729673E+03  3.535724E+05  3.222694E+03 -3.133325E+03
       384   7  6.883674E+05  6.438573E+04 -4.549855E+04  2.961572E+05  9.037475E+03 -3.097543E+03
       384   8  7.205368E+05  6.250327E+04 -4.350662E+04  2.939824E+05  6.334685E+03 -3.071824E+03
       384   9  7.365095E+05  8.124123E+04 -3.895071E+04  3.110364E+05  3.608577E+03 -2.986649E+03
       384  10  1.095638E+06  2.196486E+05  6.379084E+04  4.093574E+05 -3.167980E-09  2.598781E-09
       384  11  1.079343E+06  1.987433E+05  5.279950E+04  3.931236E+05 -3.322120E-09  2.173843E-08
       384  12  1.046860E+06  1.984656E+05  4.440789E+04  3.961179E+05  2.464583E-09  4.071150E-09
       384  13  8.919830E+05  1.420159E+05  9.147950E+03  3.527490E+05 -7.818886E-10  3.689717E-10
       384  14  8.999246E+05  1.306223E+05  4.647844E+03  3.435466E+05 -1.357342E-09 -5.983934E-09
       384  15  8.916730E+05  1.398527E+05  2.729635E+03  3.535724E+05 -3.708014E-10  6.836038E-09
       384  16  6.883673E+05  6.438570E+04 -4.549872E+04  2.961572E+05  4.541586E-09 -4.000537E-09
       384  17  7.205368E+05  6.250325E+04 -4.350671E+04  2.939824E+05 -5.376461E-09 -4.777550E-09
       384  18  7.365095E+05  8.124121E+04 -3.895075E+04  3.110364E+05 -7.330521E-10 -4.937343E-09
       384  19  1.095638E+06  2.196486E+05  6.379099E+04  4.093574E+05 -8.359697E+03  3.354739E+03
       384  20  1.079343E+06  1.987433E+05  5.279958E+04  3.931236E+05 -5.609759E+03  3.347147E+03
       384  21  1.046860E+06  1.984656E+05  4.440793E+04  3.961179E+05 -2.836706E+03  3.280040E+03
       384  22  8.919831E+05  1.420159E+05  9.148111E+03  3.527490E+05 -8.698647E+03  3.226117E+03
       384  23  8.999247E+05  1.306223E+05  4.647930E+03  3.435466E+05 -5.972280E+03  3.209464E+03
       384  24  8.916730E+05  1.398527E+05  2.729673E+03  3.535724E+05 -3.222694E+03  3.133325E+03
       384  25  6.883674E+05  6.438573E+04 -4.549855E+04  2.961572E+05 -9.037475E+03  3.097543E+03
       384  26  7.205368E+05  6.250327E+04 -4.350662E+04  2.939824E+05 -6.334685E+03  3.071824E+03
       384  27  7.365095E+05  8.124123E+04 -3.895071E+04  3.110364E+05 -3.608577E+03  2.986649E+03
       385   1  1.000841E+06  1.814657E+05  3.137292E+04  3.834001E+05  2.236048E+03 -2.850861E+03
       385   2  9.856429E+05  1.636542E+05  2.429849E+04  3.673357E+05  1.205112E+03 -2.152104E+03
       385   3  9.536361E+05  1.633122E+05  1.783284E+04  3.703758E+05  1.756754E+02 -1.457887E+03
       385   4  8.916650E+05  1.400189E+05  2.159936E+03  3.532171E+05  2.601325E+03 -2.711965E+03
       385   5  9.000542E+05  1.311763E+05  1.330086E+03  3.437062E+05  1.568772E+03 -2.013775E+03
       385   6  8.916345E+05  1.398037E+05  1.110436E+03  3.532997E+05  5.376895E+02 -1.320134E+03
       385   7  7.825007E+05  9.857301E+04 -2.705403E+04  3.230390E+05  2.966530E+03 -2.573096E+03
       385   8  8.144726E+05  9.869886E+04 -2.163896E+04  3.200795E+05  1.932378E+03 -1.875468E+03
       385   9  8.296365E+05  1.162955E+05 -1.561234E+04  3.362251E+05  8.996645E+02 -1.182395E+03
       385  10  1.000841E+06  1.814657E+05  3.137290E+04  3.834001E+05 -2.897460E-09 -3.986091E-09
       385  11  9.856429E+05  1.636542E+05  2.429848E+04  3.673357E+05 -1.784411E-09  1.625965E-09
       385  12  9.536361E+05  1.633122E+05  1.783283E+04  3.703758E+05  1.970727E-09 -1.990359E-09
       385  13  8.916650E+05  1.400189E+05  2.159910E+03  3.532171E+05  1.381585E-09  1.908673E-09
       385  14  9.000542E+05  1.311763E+05  1.330073E+03  3.437062E+05  2.906568E-09  5.323999E-09
       385  15  8.916345E+05  1.398037E+05  1.110432E+03  3.532997E+05 -3.093178E-09 -6.260530E-09
       385  16  7.825006E+05  9.857300E+04 -2.705406E+04  3.230390E+05  5.217706E-09 -5.397047E-09
       385  17  8.144726E+05  9.869885E+04 -2.163898E+04  3.200795E+05  1.071441E-10 -1.107246E-09
       385  18  8.296365E+05  1.162955E+05 -1.561235E+04  3.362251E+05 -2.197805E-10  8.941094E-09
       385  19  1.000841E+06  1.814657E+05  3.137292E+04  3.834001E+05 -2.236048E+03  2.850861E+03
       385  20  9.856429E+05  1.636542E+05  2.429849E+04  3.673357E+05 -1.205112E+03  2.152104E+03
       385  21  9.536361E+05  1.633122E+05  1.783284E+04  3.703758E+05 -1.756754E+02  1.457887E+03
       385  22  8.916650E+05  1.400189E+05  2.159936E+03  3.532171E+05 -2.601325E+03  2.711965E+03
       385  23  9.000542E+05  1.311763E+05  1.330086E+03  3.437062E+05 -1.568772E+03  2.013775E+03
       385  24  8.916345E+05  1.398037E+05  1.110436E+03  3.532997E+05 -5.376895E+02  1.320134E+03
       385  25  7.825007E+05  9.857301E+04 -2.705403E+04  3.230390E+05 -2.966530E+03  2.573096E+03
       385  26  8.144726E+05  9.869886E+04 -2.163896E+04  3.200795E+05 -1.932378E+03  1.875468E+03
       385  27  8.296365E+05  1.162955E+05 -1.561234E+04  3.362251E+05 -8.996645E+02  1.182395E+03
       386   1  9.089195E+05  1.463245E+05  5.677671E+03  3.580665E+05 -2.192880E+02 -9.777796E+02
       386   2  8.939288E+05  1.289166E+05 -1.649107E+02  3.420878E+05 -1.314611E+03 -3.144612E+02
       386   3  8.623324E+05  1.288419E+05 -5.337048E+03  3.449817E+05 -2.407999E+03  3.439785E+02
       386   4  8.916778E+05  1.397538E+05  1.132771E+03  3.532561E+05  1.425442E+02 -8.400780E+02
       386   5  9.000006E+05  1.312243E+05  1.465162E+03  3.437678E+05 -9.546655E+02 -1.774827E+02
       386   6  8.917172E+05  1.400282E+05  2.469474E+03  3.531516E+05 -2.049970E+03  4.802242E+02
       386   7  8.744365E+05  1.331832E+05 -3.412153E+03  3.484459E+05  5.043653E+02 -7.023807E+02
       386   8  9.060723E+05  1.335320E+05  3.095231E+03  3.454478E+05 -5.947167E+02 -4.050297E+01
       386   9  9.211028E+05  1.512146E+05  1.027590E+04  3.613219E+05 -1.691924E+03  6.164767E+02
       386  10  9.089195E+05  1.463245E+05  5.677670E+03  3.580665E+05 -3.332561E-09 -4.518204E-09
       386  11  8.939288E+05  1.289166E+05 -1.649141E+02  3.420878E+05 -2.121121E-09  7.009612E-09
       386  12  8.623324E+05  1.288419E+05 -5.337059E+03  3.449817E+05  1.755384E-09  9.603289E-10
       386  13  8.916778E+05  1.397538E+05  1.132770E+03  3.532561E+05  2.296904E-10 -1.141882E-08
       386  14  9.000006E+05  1.312243E+05  1.465160E+03  3.437678E+05  5.458031E-09  2.462972E-10
       386  15  8.917172E+05  1.400282E+05  2.469466E+03  3.531516E+05  2.232371E-09 -8.251777E-09
       386  16  8.744365E+05  1.331832E+05 -3.412155E+03  3.484459E+05  4.316646E-09  3.260428E-09
       386  17  9.060723E+05  1.335320E+05  3.095230E+03  3.454478E+05 -2.523350E-10  1.267716E-08
       386  18  9.211028E+05  1.512146E+05  1.027590E+04  3.613219E+05 -4.205489E-09 -4.876565E-09
       386  19  9.089195E+05  1.463245E+05  5.677671E+03  3.580665E+05  2.192880E+02  9.777796E+02
       386  20  8.939288E+05  1.289166E+05 -1.649107E+02  3.420878E+05  1.314611E+03  3.144612E+02
       386  21  8.623324E+05  1.288419E+05 -5.337048E+03  3.449817E+05  2.407999E+03 -3.439785E+02
       386  22  8.916778E+05  1.397538E+05  1.132771E+03  3.532561E+05 -1.425442E+02  8.400780E+02
       386  23  9.000006E+05  1.312243E+05  1.465162E+03  3.437678E+05  9.546655E+02  1.774827E+02
       386  24  8.917172E+05  1.400282E+05  2.469474E+03  3.531516E+05  2.049970E+03 -4.802242E+02
       386  25  8.744365E+05  1.331832E+05 -3.412153E+03  3.484459E+05 -5.043653E+02  7.023807E+02
       386  26  9.060723E+05  1.335320E+05  3.095231E+03  3.454478E+05  5.947167E+02  4.050297E+01
       386  27  9.211028E+05  1.512146E+05  1.027590E+04  3.613219E+05  1.691924E+03 -6.164767E+02
       387   1  8.173881E+05  1.117704E+05 -1.686501E+04  3.332194E+05 -3.099467E+03  7.216049E+02
       387   2  8.019063E+05  9.349721E+04 -2.087251E+04  3.166315E+05 -6.202232E+03  6.326823E+02
       387   3  7.709752E+05  9.576202E+04 -2.190764E+04  3.184947E+05 -9.284427E+03  4.906735E+02
       387   4  8.918261E+05  1.397208E+05  3.141631E+03  3.534455E+05 -2.724798E+03  8.641620E+02
       387   5  8.997309E+05  1.307181E+05  5.400067E+03  3.437369E+05 -5.848327E+03  7.672797E+02
       387   6  8.921902E+05  1.422571E+05  1.064709E+04  3.524792E+05 -8.951400E+03  6.172707E+02
       387   7  9.662696E+05  1.676715E+05  2.314783E+04  3.736739E+05 -2.350079E+03  1.006738E+03
       387   8  9.975649E+05  1.679396E+05  3.167183E+04  3.708463E+05 -5.494361E+03  9.019008E+02
       387   9  1.013419E+06  1.887533E+05  4.320052E+04  3.864698E+05 -8.618300E+03  7.438958E+02
       387  10  8.173881E+05  1.117704E+05 -1.686503E+04  3.332194E+05  7.759436E-09 -1.463221E-08
       387  11  8.019063E+05  9.349720E+04 -2.087258E+04  3.166315E+05  5.447467E-09 -1.659142E-08
       387  12  7.709751E+05  9.576200E+04 -2.190780E+04  3.184947E+05 -1.908050E-08  1.282331E-08
       387  13  8.918261E+05  1.397208E+05  3.141616E+03  3.534455E+05  5.463001E-10 -6.732692E-09
       387  14  8.997309E+05  1.307181E+05  5.400001E+03  3.437369E+05  1.816343E-09 -1.515046E-08
       387  15  8.921901E+05  1.422571E+05  1.064694E+04  3.524792E+05 -3.131500E-09  4.458047E-09
       387  16  9.662696E+05  1.676715E+05  2.314782E+04  3.736739E+05 -2.953417E-10  1.491196E-08
       387  17  9.975648E+05  1.679396E+05  3.167177E+04  3.708463E+05  5.640291E-09  1.972276E-09
       387  18  1.013419E+06  1.887532E+05  4.320038E+04  3.864698E+05  1.435122E-08  1.049383E-08
       387  19  8.173881E+05  1.117704E+05 -1.686501E+04  3.332194E+05  3.099467E+03 -7.216049E+02
       387  20  8.019063E+05  9.349721E+04 -2.087251E+04  3.166315E+05  6.202232E+03 -6.326823E+02
       387  21  7.709752E+05  9.576202E+04 -2.190764E+04  3.184947E+05  9.284427E+03 -4.906735E+02
       387  22  8.918261E+05  1.397208E+05  3.141631E+03  3.534455E+05  2.724798E+03 -8.641620E+02
       387  23  8.997309E+05  1.307181E+05  5.400067E+03  3.437369E+05  5.848327E+03 -7.672797E+02
       387  24  8.921902E+05  1.422571E+05  1.064709E+04  3.524792E+05  8.951400E+03 -6.172707E+02
       387  25  9.662696E+05  1.676715E+05  2.314783E+04  3.736739E+05  2.350079E+03 -1.006738E+03
       387  26  9.975649E+05  1.679396E+05  3.167183E+04  3.708463E+05  5.494361E+03 -9.019008E+02
       387  27  1.013419E+06  1.887533E+05  4.320052E+04  3.864698E+05  8.618300E+03 -7.438958E+02
       388   1  7.237682E+05  7.747477E+04 -3.152775E+04  3.102716E+05 -1.168089E+04  3.410543E+02
       388   2  7.061237E+05  5.324042E+04 -2.846649E+04  2.899833E+05 -2.392177E+04 -3.162869E+03
       388   3  6.827489E+05  7.441386E+04 -9.007476E+03  2.827903E+05 -3.591683E+04 -7.311126E+03
       388   4  8.931304E+05  1.392963E+05  1.353047E+04  3.545171E+05 -1.117541E+04  5.332194E+02
       388   5  8.974741E+05  1.270236E+05  2.310351E+04  3.439950E+05 -2.366645E+04 -3.066022E+03
       388   6  8.961331E+05  1.602020E+05  4.926841E+04  3.465680E+05 -3.591220E+04 -7.309857E+03
       388   7  1.062520E+06  2.011188E+05  5.858611E+04  3.987731E+05 -1.066978E+04  7.254371E+02
       388   8  1.088860E+06  2.008093E+05  7.467025E+04  3.980218E+05 -2.341105E+04 -2.969142E+03
       388   9  1.109562E+06  2.459947E+05  1.075403E+05  4.103662E+05 -3.590757E+04 -7.308586E+03
       388  10  7.237680E+05  7.747473E+04 -3.152800E+04  3.102716E+05 -3.185834E-10  2.300210E-08
       388  11  7.061231E+05  5.324026E+04 -2.846758E+04  2.899832E+05  5.110685E-09  6.895224E-09
       388  12  6.827475E+05  7.441346E+04 -9.009998E+03  2.827901E+05 -8.234106E-09 -3.838685E-12
       388  13  8.931303E+05  1.392962E+05  1.353024E+04  3.545171E+05 -4.597064E-09  4.654732E-09
       388  14  8.974735E+05  1.270234E+05  2.310244E+04  3.439949E+05  3.021330E-09  6.846289E-09
       388  15  8.961317E+05  1.602016E+05  4.926589E+04  3.465678E+05 -3.753935E-09  2.040939E-10
       388  16  1.062520E+06  2.011188E+05  5.858590E+04  3.987731E+05 -4.444401E-09  1.160679E-08
       388  17  1.088859E+06  2.008092E+05  7.466921E+04  3.980218E+05 -1.071528E-09 -9.623302E-09
       388  18  1.109560E+06  2.459943E+05  1.075378E+05  4.103660E+05  2.354867E-09  2.215860E-09
       388  19  7.237682E+05  7.747477E+04 -3.152775E+04  3.102716E+05  1.168089E+04 -3.410543E+02
       388  20  7.061237E+05  5.324042E+04 -2.846649E+04  2.899833E+05  2.392177E+04  3.162869E+03
       388  21  6.827489E+05  7.441386E+04 -9.007476E+03  2.827903E+05  3.591683E+04  7.311126E+03
       388  22  8.931304E+05  1.392963E+05  1.353047E+04  3.545171E+05  1.117541E+04 -5.332194E+02
       388  23  8.974741E+05  1.270236E+05  2.310351E+04  3.439950E+05  2.366645E+04  3.066022E+03
       388  24  8.961331E+05  1.602020E+05  4.926841E+04  3.465680E+05  3.591220E+04  7.309857E+03
       388  25  1.062520E+06  2.011188E+05  5.858611E+04  3.987731E+05  1.066978E+04 -7.254371E+02
       388  26  1.088860E+06  2.008093E+05  7.467025E+04  3.980218E+05  2.341105E+04  2.969142E+03
       388  27  1.109562E+06  2.459947E+05  1.075403E+05  4.103662E+05  3.590757E+04  7.308586E+03
       389   1  6.244070E+05  4.798552E+04 -1.091703E+04  3.041934E+05 -4.704655E+04 -9.705636E+03
       389   2  5.964191E+05 -1.993335E+04  1.977929E+04  2.581632E+05 -9.860669E+04 -2.785165E+04
       389   3  6.405543E+05  1.532475E+05  1.495840E+05  1.752003E+05 -1.476268E+05 -5.268459E+04
       389   4  9.035930E+05  1.346748E+05  6.025296E+04  3.616777E+05 -4.530489E+04 -9.042821E+03
       389   5  8.794729E+05  9.885591E+04  9.780562E+04  3.479071E+05 -9.944725E+04 -2.817313E+04
       389   6  9.279429E+05  3.045791E+05  2.364761E+05  2.972143E+05 -1.510505E+05 -5.399522E+04
       389   7  1.182854E+06  2.213635E+05  1.314171E+05  4.191825E+05 -4.356236E+04 -8.379811E+03
       389   8  1.162603E+06  2.176549E+05  1.758243E+05  4.376893E+05 -1.002882E+05 -2.849480E+04
       389   9  1.215414E+06  4.559404E+05  3.233594E+05  4.192859E+05 -1.544759E+05 -5.530707E+04
       389  10  6.244046E+05  4.798483E+04 -1.092136E+04  3.041930E+05 -1.055081E-08  2.084543E-08
       389  11  5.964085E+05 -1.993679E+04  1.975959E+04  2.581610E+05 -7.091001E-09  1.163179E-09
       389  12  6.405301E+05  1.532386E+05  1.495379E+05  1.751940E+05  8.509482E-10 -4.331278E-09
       389  13  9.035907E+05  1.346742E+05  6.024896E+04  3.616774E+05 -4.317161E-09 -2.447605E-11
       389  14  8.794621E+05  9.885241E+04  9.778558E+04  3.479048E+05 -1.827228E-09  2.054503E-08
       389  15  9.279177E+05  3.045699E+05  2.364278E+05  2.972077E+05 -1.074592E-09  1.706080E-09
       389  16  1.182852E+06  2.213629E+05  1.314134E+05  4.191823E+05  2.605644E-10  1.914862E-08
       389  17  1.162592E+06  2.176514E+05  1.758039E+05  4.376870E+05 -6.794490E-09 -3.009907E-09
       389  18  1.215387E+06  4.559307E+05  3.233090E+05  4.192790E+05 -4.207440E-09  6.265227E-09
       389  19  6.244070E+05  4.798552E+04 -1.091703E+04  3.041934E+05  4.704655E+04  9.705636E+03
       389  20  5.964191E+05 -1.993335E+04  1.977929E+04  2.581632E+05  9.860669E+04  2.785165E+04
       389  21  6.405543E+05  1.532475E+05  1.495840E+05  1.752003E+05  1.476268E+05  5.268459E+04
       389  22  9.035930E+05  1.346748E+05  6.025296E+04  3.616777E+05  4.530489E+04  9.042821E+03
       389  23  8.794729E+05  9.885591E+04  9.780562E+04  3.479071E+05  9.944725E+04  2.817313E+04
       389  24  9.279429E+05  3.045791E+05  2.364761E+05  2.972143E+05  1.510505E+05  5.399522E+04
       389  25  1.182854E+06  2.213635E+05  1.314171E+05  4.191825E+05  4.356236E+04  8.379811E+03
       389  26  1.162603E+06  2.176549E+05  1.758243E+05  4.376893E+05  1.002882E+05  2.849480E+04
       389  27  1.215414E+06  4.559404E+05  3.233594E+05  4.192859E+05  1.544759E+05  5.530707E+04
       390   1 -1.841179E+05 -1.029279E+06 -1.889150E+05  8.503305E+04 -5.179662E+03 -2.461990E+04
       390   2 -1.210522E+05 -8.814713E+05 -1.354140E+05  1.427808E+04 -1.405092E+04 -1.153497E+04
       390   3 -8.923033E+04 -7.418178E+05 -9.800342E+04  7.557390E+04 -8.617000E+03  1.592284E+03
       390   4 -2.263724E+04 -3.829776E+05 -2.859142E+04  7.761863E+04 -5.198844E+03 -1.811780E+04
       390   5  3.825278E+03 -3.793906E+05 -1.353970E+04  1.163011E+04 -1.405200E+04 -1.085468E+04
       390   6  7.069296E+01 -3.829577E+05 -1.052116E+04  7.768693E+04 -8.604868E+03 -3.552423E+03
       390   7  1.388123E+05  2.637040E+05  1.317011E+05  7.019673E+04 -5.218172E+03 -1.160892E+04
       390   8  1.286842E+05  1.229206E+05  1.083164E+05  8.980135E+03 -1.405308E+04 -1.017384E+04
       390   9  8.936225E+04 -2.397986E+04  7.695184E+04  7.980124E+04 -8.592774E+03 -8.700098E+03
       390  10 -1.841181E+05 -1.029280E+06 -1.889162E+05  8.503294E+04  4.365323E-10  5.718736E-09
       390  11 -1.210524E+05 -8.814715E+05 -1.354146E+05  1.427795E+04 -4.574980E-10 -4.665949E-09
       390  12 -8.923041E+04 -7.418178E+05 -9.800356E+04  7.557391E+04 -6.507750E-10 -6.251751E-09
       390  13 -2.263736E+04 -3.829779E+05 -2.859209E+04  7.761855E+04  1.093304E-09 -2.086982E-09
       390  14  3.825035E+03 -3.793908E+05 -1.354029E+04  1.162998E+04 -2.937587E-09  7.208876E-09
       390  15  7.061008E+01 -3.829577E+05 -1.052132E+04  7.768690E+04 -2.207262E-09  6.803589E-10
       390  16  1.388122E+05  2.637038E+05  1.317008E+05  7.019669E+04 -6.062902E-10  4.401682E-09
       390  17  1.286840E+05  1.229205E+05  1.083158E+05  8.980020E+03  1.238063E-09  1.464778E-08
       390  18  8.936215E+04 -2.397996E+04  7.695155E+04  7.980118E+04 -3.689948E-09 -9.981056E-10
       390  19 -1.841179E+05 -1.029279E+06 -1.889150E+05  8.503305E+04  5.179662E+03  2.461990E+04
       390  20 -1.210522E+05 -8.814713E+05 -1.354140E+05  1.427808E+04  1.405092E+04  1.153497E+04
       390  21 -8.923033E+04 -7.418178E+05 -9.800342E+04  7.557390E+04  8.617000E+03 -1.592284E+03
       390  22 -2.263724E+04 -3.829776E+05 -2.859142E+04  7.761863E+04  5.198844E+03  1.811780E+04
       390  23  3.825278E+03 -3.793906E+05 -1.353970E+04  1.163011E+04  1.405200E+04  1.085468E+04
       390  24  7.069296E+01 -3.829577E+05 -1.052116E+04  7.768693E+04  8.604868E+03  3.552423E+03
       390  25  1.388123E+05  2.637040E+05  1.317011E+05  7.019673E+04  5.218172E+03  1.160892E+04
       390  26  1.286842E+05  1.229206E+05  1.083164E+05  8.980135E+03  1.405308E+04  1.017384E+04
       390  27  8.936225E+04 -2.397986E+04  7.695184E+04  7.980124E+04  8.592774E+03  8.700098E+03
       391   1 -2.935247E+04 -4.887356E+05 -3.588263E+04  7.932333E+04 -3.119862E+03 -5.079782E+01
       391   2  1.064286E+04 -3.432480E+05 -2.317953E+02  1.120479E+04  9.651064E+02  4.719911E+03
       391   3  3.966408E+04 -2.003255E+05  2.972585E+04  7.591004E+04  4.919075E+03  9.491823E+03
       391   4 -2.791058E+03 -3.819102E+05 -9.990234E+03  7.783934E+04 -3.116104E+03 -1.747822E+03
       391   5  1.348347E+03 -3.806142E+05 -9.318158E+03  1.142385E+04  9.688500E+02  3.076196E+03
       391   6 -5.494561E+03 -3.819121E+05 -1.437521E+04  7.783302E+04  4.922773E+03  7.900326E+03
       391   7  2.376953E+04 -2.750745E+05  1.590135E+04  7.635511E+04 -3.112340E+03 -3.445138E+03
       391   8 -7.946270E+03 -4.179792E+05 -1.840461E+04  1.164290E+04  9.725924E+02  1.432580E+03
       391   9 -5.065561E+04 -5.634686E+05 -5.847864E+04  7.975546E+04  4.926461E+03  6.309293E+03
       391  10 -2.935248E+04 -4.887356E+05 -3.588264E+04  7.932333E+04 -2.101950E-10  5.683860E-09
       391  11  1.064286E+04 -3.432480E+05 -2.318389E+02  1.120479E+04  3.276342E-09 -4.517740E-09
       391  12  3.966403E+04 -2.003256E+05  2.972563E+04  7.591000E+04 -6.821799E-12 -1.367302E-08
       391  13 -2.791069E+03 -3.819102E+05 -9.990258E+03  7.783934E+04 -1.281835E-09 -2.033515E-11
       391  14  1.348344E+03 -3.806142E+05 -9.318178E+03  1.142385E+04  3.597107E-09 -8.086398E-09
       391  15 -5.494603E+03 -3.819122E+05 -1.437537E+04  7.783299E+04  1.236648E-09 -8.325546E-09
       391  16  2.376951E+04 -2.750745E+05  1.590131E+04  7.635510E+04 -2.576823E-09  4.451794E-10
       391  17 -7.946272E+03 -4.179792E+05 -1.840462E+04  1.164289E+04 -2.744888E-12  2.261800E-09
       391  18 -5.065565E+04 -5.634687E+05 -5.847876E+04  7.975543E+04 -1.207007E-09  6.344368E-09
       391  19 -2.935247E+04 -4.887356E+05 -3.588263E+04  7.932333E+04  3.119862E+03  5.079782E+01
       391  20  1.064286E+04 -3.432480E+05 -2.317953E+02  1.120479E+04 -9.651064E+02 -4.719911E+03
       391  21  3.966408E+04 -2.003255E+05  2.972585E+04  7.591004E+04 -4.919075E+03 -9.491823E+03
       391  22 -2.791058E+03 -3.819102E+05 -9.990234E+03  7.783934E+04  3.116104E+03  1.747822E+03
       391  23  1.348347E+03 -3.806142E+05 -9.318158E+03  1.142385E+04 -9.688500E+02 -3.076196E+03
       391  24 -5.494561E+03 -3.819121E+05 -1.437521E+04  7.783302E+04 -4.922773E+03 -7.900326E+03
       391  25  2.376953E+04 -2.750745E+05  1.590135E+04  7.635511E+04  3.112340E+03  3.445138E+03
       391  26 -7.946270E+03 -4.179792E+05 -1.840461E+04  1.164290E+04 -9.725924E+02 -1.432580E+03
       391  27 -5.065561E+04 -5.634686E+05 -5.847864E+04  7.975546E+04 -4.926461E+03 -6.309293E+03
       392   1  1.092038E+05  4.899633E+04  8.891935E+04  8.206999E+04  1.057816E+04  1.606490E+04
       392   2  1.508245E+05  1.994085E+05  1.151069E+05  7.244895E+03  1.604551E+04  2.310370E+04
       392   3  1.359320E+05  3.363364E+05  1.229030E+05  6.419971E+04  5.816481E+03  3.009860E+04
       392   4  1.372097E+03 -3.846307E+05 -1.668037E+04  7.765376E+04  1.059148E+04  1.061795E+04
       392   5  7.458869E+03 -3.773293E+05 -2.481507E+04  1.168681E+04  1.604389E+04  2.405173E+04
       392   6 -4.410534E+04 -3.846573E+05 -5.579696E+04  7.750915E+04  5.793705E+03  3.743975E+04
       392   7 -1.064734E+05 -8.180861E+05 -1.222936E+05  7.324071E+04  1.060488E+04  5.174801E+03
       392   8 -1.359312E+05 -9.537633E+05 -1.647610E+05  1.612479E+04  1.604228E+04  2.499887E+04
       392   9 -2.241810E+05 -1.105178E+06 -2.345354E+05  9.080347E+04  5.771232E+03  4.477237E+04
       392  10  1.092037E+05  4.899602E+04  8.891866E+04  8.206985E+04  3.545330E-10 -2.557326E-09
       392  11  1.508241E+05  1.994079E+05  1.151054E+05  7.244596E+03  5.516299E-10 -9.358453E-09
       392  12  1.359317E+05  3.363354E+05  1.229012E+05  6.419957E+04 -6.977655E-10 -6.558780E-09
       392  13  1.371946E+03 -3.846309E+05 -1.668080E+04  7.765367E+04 -2.547132E-09  2.085329E-09
       392  14  7.458437E+03 -3.773300E+05 -2.481664E+04  1.168649E+04  2.906035E-09  5.422444E-09
       392  15 -4.410576E+04 -3.846588E+05 -5.579966E+04  7.750897E+04  5.162880E-11  6.607018E-09
       392  16 -1.064735E+05 -8.180861E+05 -1.222939E+05  7.324067E+04 -1.123400E-10  1.645480E-09
       392  17 -1.359316E+05 -9.537640E+05 -1.647627E+05  1.612447E+04  3.280045E-09  4.058580E-09
       392  18 -2.241816E+05 -1.105181E+06 -2.345392E+05  9.080326E+04 -1.204810E-10 -1.705047E-09
       392  19  1.092038E+05  4.899633E+04  8.891935E+04  8.206999E+04 -1.057816E+04 -1.606490E+04
       392  20  1.508245E+05  1.994085E+05  1.151069E+05  7.244895E+03 -1.604551E+04 -2.310370E+04
       392  21  1.359320E+05  3.363364E+05  1.229030E+05  6.419971E+04 -5.816481E+03 -3.009860E+04
       392  22  1.372097E+03 -3.846307E+05 -1.668037E+04  7.765376E+04 -1.059148E+04 -1.061795E+04
       392  23  7.458869E+03 -3.773293E+05 -2.481507E+04  1.168681E+04 -1.604389E+04 -2.405173E+04
       392  24 -4.410534E+04 -3.846573E+05 -5.579696E+04  7.750915E+04 -5.793705E+03 -3.743975E+04
       392  25 -1.064734E+05 -8.180861E+05 -1.222936E+05  7.324071E+04 -1.060488E+04 -5.174801E+03
       392  26 -1.359312E+05 -9.537633E+05 -1.647610E+05  1.612479E+04 -1.604228E+04 -2.499887E+04
       392  27 -2.241810E+05 -1.105178E+06 -2.345354E+05  9.080347E+04 -5.771232E+03 -4.477237E+04
       393   1  6.240559E+05 -5.312434E+04 -4.443550E+04 -3.153602E+03  2.178684E+04  2.873458E+03
       393   2  6.404991E+05 -8.151213E+04 -5.853420E+04  1.242066E+03  1.568578E+04  8.460248E+03
       393   3  6.672815E+05 -7.255843E+04 -5.928827E+04 -1.408968E+04  9.591729E+03  7.567411E+03
       393   4  9.537540E+05  2.905430E+04  3.715664E+04 -1.054113E+04  2.540298E+04  2.877490E+03
       393   5  9.483659E+05 -5.065565E+03  1.612126E+04 -6.602313E+02  1.665229E+04  8.460885E+03
       393   6  9.537704E+05 -1.394499E+03  1.026342E+04 -1.050592E+04  7.908837E+03  7.565958E+03
       393   7  1.283551E+06  1.112250E+05  1.187408E+05 -1.793261E+04  2.902103E+04  2.881435E+03
       393   8  1.256319E+06  7.137406E+04  9.076991E+04 -2.563495E+03  1.761928E+04  8.461516E+03
       393   9  1.240334E+06  6.976346E+04  7.980920E+04 -6.920524E+03  6.225170E+03  7.564486E+03
       393  10  6.240554E+05 -5.312448E+04 -4.443641E+04 -3.153652E+03 -1.721412E-10  3.354667E-11
       393  11  6.404988E+05 -8.151227E+04 -5.853480E+04  1.241959E+03 -8.758076E-10 -3.258079E-11
       393  12  6.672814E+05 -7.255852E+04 -5.928855E+04 -1.408973E+04 -2.611767E-10  2.083230E-10
       393  13  9.537533E+05  2.905412E+04  3.715541E+04 -1.054119E+04  6.899406E-10  4.165247E-11
       393  14  9.483656E+05 -5.065716E+03  1.612061E+04 -6.603447E+02 -3.001569E-10 -1.960438E-11
       393  15  9.537703E+05 -1.394577E+03  1.026319E+04 -1.050597E+04  1.420987E-10 -7.405802E-12
       393  16  1.283550E+06  1.112248E+05  1.187392E+05 -1.793268E+04  1.686310E-10  1.010203E-10
       393  17  1.256319E+06  7.137390E+04  9.076919E+04 -2.563615E+03 -3.363810E-10  2.211189E-10
       393  18  1.240334E+06  6.976339E+04  7.980902E+04 -6.920562E+03  6.263318E-11  2.106666E-11
       393  19  6.240559E+05 -5.312434E+04 -4.443550E+04 -3.153602E+03 -2.178684E+04 -2.873458E+03
       393  20  6.404991E+05 -8.151213E+04 -5.853420E+04  1.242066E+03 -1.568578E+04 -8.460248E+03
       393  21  6.672815E+05 -7.255843E+04 -5.928827E+04 -1.408968E+04 -9.591729E+03 -7.567411E+03
       393  22  9.537540E+05  2.905430E+04  3.715664E+04 -1.054113E+04 -2.540298E+04 -2.877490E+03
       393  23  9.483659E+05 -5.065565E+03  1.612126E+04 -6.602313E+02 -1.665229E+04 -8.460885E+03
       393  24  9.537704E+05 -1.394499E+03  1.026342E+04 -1.050592E+04 -7.908837E+03 -7.565958E+03
       393  25  1.283551E+06  1.112250E+05  1.187408E+05 -1.793261E+04 -2.902103E+04 -2.881435E+03
       393  26  1.256319E+06  7.137406E+04  9.076991E+04 -2.563495E+03 -1.761928E+04 -8.461516E+03
       393  27  1.240334E+06  6.976346E+04  7.980920E+04 -6.920524E+03 -6.225170E+03 -7.564486E+03
       394   1  7.014270E+05 -5.873608E+04 -5.246523E+04 -9.511101E+03  6.224376E+03  6.152500E+03
       394   2  7.207329E+05 -5.780806E+04 -5.170796E+04 -8.836353E+02  4.293656E+03  5.988994E+03
       394   3  7.415257E+05 -5.239082E+04 -4.854908E+04 -1.070577E+04  2.362838E+03  5.239108E+03
       394   4  9.517139E+05  3.451092E+03  8.416281E+03 -1.023419E+04  6.279535E+03  6.152367E+03
       394   5  9.509517E+05 -6.242889E+02  4.203626E+03 -1.008528E+03  4.108595E+03  5.988759E+03
       394   6  9.517170E+05 -1.697038E+02  2.558540E+03 -1.023203E+04  1.937618E+03  5.238865E+03
       394   7  1.202058E+06  6.563367E+04  6.929325E+04 -1.095758E+04  6.334717E+03  6.152233E+03
       394   8  1.181219E+06  5.655559E+04  6.011138E+04 -1.133472E+03  3.923464E+03  5.988525E+03
       394   9  1.161949E+06  5.204817E+04  5.366297E+04 -9.758121E+03  1.512254E+03  5.238622E+03
       394  10  7.014269E+05 -5.873614E+04 -5.246537E+04 -9.511132E+03 -2.563715E-10  1.432234E-10
       394  11  7.207329E+05 -5.780810E+04 -5.170806E+04 -8.836560E+02 -5.004867E-10  3.588391E-11
       394  12  7.415257E+05 -5.239085E+04 -4.854914E+04 -1.070578E+04 -1.034663E-10 -1.998374E-11
       394  13  9.517139E+05  3.451041E+03  8.416136E+03 -1.023422E+04  3.381714E-10  1.110823E-10
       394  14  9.509517E+05 -6.243320E+02  4.203527E+03 -1.008547E+03 -2.043988E-10  5.965842E-11
       394  15  9.517170E+05 -1.697343E+02  2.558482E+03 -1.023203E+04  9.022900E-11  2.703214E-10
       394  16  1.202058E+06  6.563362E+04  6.929311E+04 -1.095761E+04  1.931947E-10  5.921413E-11
       394  17  1.181219E+06  5.655555E+04  6.011129E+04 -1.133491E+03 -1.349426E-10  1.575843E-10
       394  18  1.161949E+06  5.204814E+04  5.366291E+04 -9.758127E+03  2.063889E-11  9.378975E-11
       394  19  7.014270E+05 -5.873608E+04 -5.246523E+04 -9.511101E+03 -6.224376E+03 -6.152500E+03
       394  20  7.207329E+05 -5.780806E+04 -5.170796E+04 -8.836353E+02 -4.293656E+03 -5.988994E+03
       394  21  7.415257E+05 -5.239082E+04 -4.854908E+04 -1.070577E+04 -2.362838E+03 -5.239108E+03
       394  22  9.517139E+05  3.451092E+03  8.416281E+03 -1.023419E+04 -6.279535E+03 -6.152367E+03
       394  23  9.509517E+05 -6.242889E+02  4.203626E+03 -1.008528E+03 -4.108595E+03 -5.988759E+03
       394  24  9.517170E+05 -1.697038E+02  2.558540E+03 -1.023203E+04 -1.937618E+03 -5.238865E+03
       394  25  1.202058E+06  6.563367E+04  6.929325E+04 -1.095758E+04 -6.334717E+03 -6.152233E+03
       394  26  1.181219E+06  5.655559E+04  6.011138E+04 -1.133472E+03 -3.923464E+03 -5.988525E+03
       394  27  1.161949E+06  5.204817E+04  5.366297E+04 -9.758121E+03 -1.512254E+03 -5.238622E+03
       395   1  7.752185E+05 -4.336461E+04 -4.072969E+04 -9.964062E+03  1.791313E+03  4.725286E+03
       395   2  7.940656E+05 -3.913801E+04 -3.706460E+04 -1.279599E+03  1.238441E+03  4.061500E+03
       395   3  8.131669E+05 -3.437258E+04 -3.289540E+04 -1.006678E+04  6.852930E+02  3.357012E+03
       395   4  9.514381E+05  3.974451E+02  2.028323E+03 -1.001544E+04  1.528880E+03  4.725140E+03
       395   5  9.513099E+05 -8.041450E+01  1.129931E+03 -1.279706E+03  9.592400E+02  4.061402E+03
       395   6  9.514387E+05 -1.652887E+01  7.472694E+02 -1.001535E+04  3.893405E+02  3.356967E+03
       395   7  1.127686E+06  4.415723E+04  4.478410E+04 -1.006683E+04  1.266372E+03  4.724995E+03
       395   8  1.108577E+06  3.897536E+04  3.932268E+04 -1.279814E+03  6.799681E+02  4.061304E+03
       395   9  1.089728E+06  3.433812E+04  3.438856E+04 -9.963900E+03  9.332236E+01  3.356922E+03
       395  10  7.752184E+05 -4.336464E+04 -4.072974E+04 -9.964069E+03 -4.924652E-11 -8.614836E-11
       395  11  7.940656E+05 -3.913803E+04 -3.706464E+04 -1.279603E+03 -1.353409E-10 -2.390706E-10
       395  12  8.131669E+05 -3.437259E+04 -3.289543E+04 -1.006679E+04 -2.174049E-11 -1.803410E-10
       395  13  9.514381E+05  3.974205E+02  2.028277E+03 -1.001544E+04  7.569747E-11  5.563409E-11
       395  14  9.513099E+05 -8.043247E+01  1.129898E+03 -1.279709E+03 -1.013852E-10 -1.564540E-10
       395  15  9.514387E+05 -1.654102E+01  7.472480E+02 -1.001535E+04 -6.532807E-11 -2.870135E-10
       395  16  1.127686E+06  4.415720E+04  4.478406E+04 -1.006683E+04  9.486036E-12  5.605173E-11
       395  17  1.108577E+06  3.897535E+04  3.932265E+04 -1.279816E+03  2.918592E-11 -1.371731E-11
       395  18  1.089728E+06  3.433810E+04  3.438854E+04 -9.963901E+03  5.253099E-11 -3.346488E-10
       395  19  7.752185E+05 -4.336461E+04 -4.072969E+04 -9.964062E+03 -1.791313E+03 -4.725286E+03
       395  20  7.940656E+05 -3.913801E+04 -3.706460E+04 -1.279599E+03 -1.238441E+03 -4.061500E+03
       395  21  8.131669E+05 -3.437258E+04 -3.289540E+04 -1.006678E+04 -6.852930E+02 -3.357012E+03
       395  22  9.514381E+05  3.974451E+02  2.028323E+03 -1.001544E+04 -1.528880E+03 -4.725140E+03
       395  23  9.513099E+05 -8.041450E+01  1.129931E+03 -1.279706E+03 -9.592400E+02 -4.061402E+03
       395  24  9.514387E+05 -1.652887E+01  7.472694E+02 -1.001535E+04 -3.893405E+02 -3.356967E+03
       395  25  1.127686E+06  4.415723E+04  4.478410E+04 -1.006683E+04 -1.266372E+03 -4.724995E+03
       395  26  1.108577E+06  3.897536E+04  3.932268E+04 -1.279814E+03 -6.799681E+02 -4.061304E+03
       395  27  1.089728E+06  3.433812E+04  3.438856E+04 -9.963900E+03 -9.332236E+01 -3.356922E+03
       396   1  8.455813E+05 -2.622875E+04 -2.500569E+04 -9.864514E+03  5.449928E+02  2.944041E+03
       396   2  8.638442E+05 -2.175338E+04 -2.071693E+04 -1.441658E+03  2.737555E+02  2.258339E+03
       396   3  8.821754E+05 -1.718127E+04 -1.622584E+04 -9.872304E+03  2.356574E+00  1.576793E+03
       396   4  9.513989E+05  4.302980E+01  6.404614E+02 -9.878028E+03  2.641152E+02  2.944027E+03
       396   5  9.513653E+05 -1.499942E+01  5.415412E+02 -1.451345E+03 -5.467568E+00  2.258352E+03
       396   6  9.513991E+05  2.337195E+01  6.437273E+02 -9.878018E+03 -2.752039E+02  1.576835E+03
       396   7  1.057227E+06  2.631399E+04  2.628581E+04 -9.891544E+03 -1.681018E+01  2.944012E+03
       396   8  1.038893E+06  2.172282E+04  2.179946E+04 -1.461034E+03 -2.847298E+02  2.258365E+03
       396   9  1.020627E+06  1.722766E+04  1.751295E+04 -9.883732E+03 -5.527952E+02  1.576877E+03
       396  10  8.455813E+05 -2.622876E+04 -2.500571E+04 -9.864515E+03 -2.621607E-11 -1.103103E-10
       396  11  8.638442E+05 -2.175339E+04 -2.071694E+04 -1.441658E+03  2.876913E-10 -1.226802E-10
       396  12  8.821754E+05 -1.718127E+04 -1.622584E+04 -9.872304E+03  1.129700E-10 -1.120830E-13
       396  13  9.513989E+05  4.302047E+01  6.404450E+02 -9.878029E+03 -3.060812E-11 -4.522303E-11
       396  14  9.513653E+05 -1.500490E+01  5.415316E+02 -1.451345E+03  1.970297E-11  6.626523E-11
       396  15  9.513991E+05  2.336926E+01  6.437225E+02 -9.878017E+03 -7.895970E-11 -9.656637E-12
       396  16  1.057227E+06  2.631398E+04  2.628579E+04 -9.891544E+03  2.288576E-11 -2.112426E-10
       396  17  1.038893E+06  2.172281E+04  2.179945E+04 -1.461034E+03  1.574089E-11  1.294868E-10
       396  18  1.020627E+06  1.722766E+04  1.751294E+04 -9.883731E+03  6.502910E-12 -9.072040E-11
       396  19  8.455813E+05 -2.622875E+04 -2.500569E+04 -9.864514E+03 -5.449928E+02 -2.944041E+03
       396  20  8.638442E+05 -2.175338E+04 -2.071693E+04 -1.441658E+03 -2.737555E+02 -2.258339E+03
       396  21  8.821754E+05 -1.718127E+04 -1.622584E+04 -9.872304E+03 -2.356574E+00 -1.576793E+03
       396  22  9.513989E+05  4.302980E+01  6.404614E+02 -9.878028E+03 -2.641152E+02 -2.944027E+03
       396  23  9.513653E+05 -1.499942E+01  5.415412E+02 -1.451345E+03  5.467568E+00 -2.258352E+03
       396  24  9.513991E+05  2.337195E+01  6.437273E+02 -9.878018E+03  2.752039E+02 -1.576835E+03
       396  25  1.057227E+06  2.631399E+04  2.628581E+04 -9.891544E+03  1.681018E+01 -2.944012E+03
       396  26  1.038893E+06  2.172282E+04  2.179946E+04 -1.461034E+03  2.847298E+02 -2.258365E+03
       396  27  1.020627E+06  1.722766E+04  1.751295E+04 -9.883732E+03  5.527952E+02 -1.576877E+03
       397   1  9.138023E+05 -9.331357E+03 -8.322697E+03 -9.780868E+03 -1.248047E+02  1.181629E+03
       397   2  9.317363E+05 -4.909124E+03 -3.594356E+03 -1.519475E+03 -7.099955E+02  5.058547E+02
       397   3  9.498076E+05 -2.103104E+02  1.581879E+03 -9.837866E+03 -1.295235E+03 -1.648717E+02
       397   4  9.514155E+05 -5.083200E-01  7.570440E+02 -9.817231E+03 -4.019175E+02  1.181684E+03
       397   5  9.513471E+05 -3.840982E+01  1.168893E+03 -1.527329E+03 -9.850657E+02  5.059151E+02
       397   6  9.514153E+05  1.999377E+02  2.027240E+03 -9.817177E+03 -1.568246E+03 -1.648050E+02
       397   7  9.890301E+05  9.330237E+03  9.836684E+03 -9.853596E+03 -6.790470E+02  1.181739E+03
       397   8  9.709582E+05  4.832277E+03  5.932115E+03 -1.535183E+03 -1.260145E+03  5.059755E+02
       397   9  9.530229E+05  6.101856E+02  2.472602E+03 -9.796489E+03 -1.841258E+03 -1.647382E+02
       397  10  9.138023E+05 -9.331358E+03 -8.322699E+03 -9.780868E+03 -3.832870E-12 -1.595004E-10
       397  11  9.317363E+05 -4.909125E+03 -3.594358E+03 -1.519475E+03  1.292188E-10 -3.239420E-10
       397  12  9.498076E+05 -2.103109E+02  1.581875E+03 -9.837866E+03  2.232142E-11 -3.137513E-11
       397  13  9.514155E+05 -5.098634E-01  7.570410E+02 -9.817230E+03  1.074411E-11  2.291076E-10
       397  14  9.513471E+05 -3.841035E+01  1.168891E+03 -1.527329E+03  1.819800E-10 -1.504757E-10
       397  15  9.514153E+05  1.999370E+02  2.027236E+03 -9.817178E+03  3.403209E-11 -6.802689E-11
       397  16  9.890301E+05  9.330235E+03  9.836680E+03 -9.853595E+03  4.670685E-11 -1.408082E-10
       397  17  9.709582E+05  4.832276E+03  5.932112E+03 -1.535183E+03  3.028906E-11 -3.872627E-11
       397  18  9.530229E+05  6.101846E+02  2.472596E+03 -9.796489E+03 -9.241823E-12  8.621417E-11
       397  19  9.138023E+05 -9.331357E+03 -8.322697E+03 -9.780868E+03  1.248047E+02 -1.181629E+03
       397  20  9.317363E+05 -4.909124E+03 -3.594356E+03 -1.519475E+03  7.099955E+02 -5.058547E+02
       397  21  9.498076E+05 -2.103104E+02  1.581879E+03 -9.837866E+03  1.295235E+03  1.648717E+02
       397  22  9.514155E+05 -5.083200E-01  7.570440E+02 -9.817231E+03  4.019175E+02 -1.181684E+03
       397  23  9.513471E+05 -3.840982E+01  1.168893E+03 -1.527329E+03  9.850657E+02 -5.059151E+02
       397  24  9.514153E+05  1.999377E+02  2.027240E+03 -9.817177E+03  1.568246E+03  1.648050E+02
       397  25  9.890301E+05  9.330237E+03  9.836684E+03 -9.853596E+03  6.790470E+02 -1.181739E+03
       397  26  9.709582E+05  4.832277E+03  5.932115E+03 -1.535183E+03  1.260145E+03 -5.059755E+02
       397  27  9.530229E+05  6.101856E+02  2.472602E+03 -9.796489E+03  1.841258E+03  1.647382E+02
       398   1  9.813878E+05  7.344771E+03  9.903016E+03 -9.610350E+03 -1.702282E+03 -5.618014E+02
       398   2  9.990445E+05  1.158667E+04  1.603978E+04 -1.569550E+03 -3.939250E+03 -1.237626E+03
       398   3  1.017549E+06  1.807489E+04  2.419174E+04 -1.018002E+04 -6.176169E+03 -1.881777E+03
       398   4  9.515728E+05 -7.098581E+01  2.606631E+03 -9.833224E+03 -1.984940E+03 -5.617351E+02
       398   5  9.511487E+05 -3.085448E+02  4.407776E+03 -1.507395E+03 -4.208814E+03 -1.237580E+03
       398   6  9.515707E+05  1.698159E+03  8.215278E+03 -9.832914E+03 -6.432575E+03 -1.881750E+03
       398   7  9.217586E+05 -7.486808E+03 -4.689819E+03 -1.005609E+04 -2.267585E+03 -5.616686E+02
       398   8  9.032550E+05 -1.220392E+04 -7.224391E+03 -1.445244E+03 -4.478357E+03 -1.237534E+03
       398   9  8.855960E+05 -1.467889E+04 -7.761498E+03 -9.485841E+03 -6.688953E+03 -1.881724E+03
       398  10  9.813878E+05  7.344770E+03  9.903010E+03 -9.610350E+03  3.927697E-11 -8.724801E-11
       398  11  9.990445E+05  1.158666E+04  1.603974E+04 -1.569554E+03  1.583147E-10 -2.142428E-10
       398  12  1.017549E+06  1.807487E+04  2.419166E+04 -1.018003E+04 -3.551098E-11 -4.704919E-11
       398  13  9.515728E+05 -7.098721E+01  2.606623E+03 -9.833225E+03 -1.749712E-10 -1.932101E-10
       398  14  9.511487E+05 -3.085512E+02  4.407739E+03 -1.507399E+03  6.778959E-11 -2.279359E-10
       398  15  9.515707E+05  1.698144E+03  8.215194E+03 -9.832924E+03 -1.085030E-10 -8.386236E-11
       398  16  9.217586E+05 -7.486810E+03 -4.689829E+03 -1.005609E+04 -8.055416E-11 -3.674227E-11
       398  17  9.032550E+05 -1.220393E+04 -7.224432E+03 -1.445248E+03  1.600570E-10 -1.141933E-10
       398  18  8.855959E+05 -1.467890E+04 -7.761588E+03 -9.485852E+03 -2.110359E-10  1.359625E-10
       398  19  9.813878E+05  7.344771E+03  9.903016E+03 -9.610350E+03  1.702282E+03  5.618014E+02
       398  20  9.990445E+05  1.158667E+04  1.603978E+04 -1.569550E+03  3.939250E+03  1.237626E+03
       398  21  1.017549E+06  1.807489E+04  2.419174E+04 -1.018002E+04  6.176169E+03  1.881777E+03
       398  22  9.515728E+05 -7.098581E+01  2.606631E+03 -9.833224E+03  1.984940E+03  5.617351E+02
       398  23  9.511487E+05 -3.085448E+02  4.407776E+03 -1.507395E+03  4.208814E+03  1.237580E+03
       398  24  9.515707E+05  1.698159E+03  8.215278E+03 -9.832914E+03  6.432575E+03  1.881750E+03
       398  25  9.217586E+05 -7.486808E+03 -4.689819E+03 -1.005609E+04  2.267585E+03  5.616686E+02
       398  26  9.032550E+05 -1.220392E+04 -7.224391E+03 -1.445244E+03  4.478357E+03  1.237534E+03
       398  27  8.855960E+05 -1.467889E+04 -7.761498E+03 -9.485841E+03  6.688953E+03  1.881724E+03
       399   1  1.050553E+06  2.365129E+04  3.424508E+04 -8.165882E+03 -7.730962E+03 -2.336918E+03
       399   2  1.066142E+06  2.637518E+04  4.556856E+04 -2.262034E+03 -1.682390E+04 -3.031910E+03
       399   3  1.087626E+06  4.786967E+04  6.750154E+04 -1.341849E+04 -2.591712E+04 -3.348008E+03
       399   4  9.526866E+05 -6.632865E+02  1.042697E+04 -9.924036E+03 -8.091760E+03 -2.336872E+03
       399   5  9.497474E+05 -2.529857E+03  1.730828E+04 -1.393996E+03 -1.702844E+04 -3.031963E+03
       399   6  9.526764E+05  1.434900E+04  3.469218E+04 -9.924346E+03 -2.596513E+04 -3.348202E+03
       399   7  8.548289E+05 -2.497855E+04 -1.339182E+04 -1.168191E+04 -8.452502E+03 -2.336824E+03
       399   8  8.333649E+05 -3.143589E+04 -1.095298E+04 -5.261200E+02 -1.723294E+04 -3.032015E+03
       399   9  8.177434E+05 -1.917295E+04  1.881507E+03 -6.430959E+03 -2.601312E+04 -3.348398E+03
       399  10  1.050553E+06  2.365126E+04  3.424495E+04 -8.165896E+03  4.128166E-11  7.670292E-11
       399  11  1.066142E+06  2.637510E+04  4.556802E+04 -2.262075E+03  1.197992E-10 -1.270599E-10
       399  12  1.087625E+06  4.786947E+04  6.750026E+04 -1.341856E+04 -2.104756E-10 -1.248534E-11
       399  13  9.526866E+05 -6.633099E+02  1.042684E+04 -9.924051E+03 -3.732108E-10  2.472001E-10
       399  14  9.497471E+05 -2.529945E+03  1.730772E+04 -1.394037E+03 -1.758946E-11  3.896099E-11
       399  15  9.526757E+05  1.434881E+04  3.469089E+04 -9.924416E+03 -1.086004E-10 -5.652029E-11
       399  16  8.548289E+05 -2.497858E+04 -1.339197E+04 -1.168193E+04 -1.254516E-10  7.670581E-11
       399  17  8.333646E+05 -3.143598E+04 -1.095356E+04 -5.261621E+02 -1.712875E-10 -2.777026E-11
       399  18  8.177427E+05 -1.917315E+04  1.880216E+03 -6.431029E+03  1.031322E-11 -1.673246E-10
       399  19  1.050553E+06  2.365129E+04  3.424508E+04 -8.165882E+03  7.730962E+03  2.336918E+03
       399  20  1.066142E+06  2.637518E+04  4.556856E+04 -2.262034E+03  1.682390E+04  3.031910E+03
       399  21  1.087626E+06  4.786967E+04  6.750154E+04 -1.341849E+04  2.591712E+04  3.348008E+03
       399  22  9.526866E+05 -6.632865E+02  1.042697E+04 -9.924036E+03  8.091760E+03  2.336872E+03
       399  23  9.497474E+05 -2.529857E+03  1.730828E+04 -1.393996E+03  1.702844E+04  3.031963E+03
       399  24  9.526764E+05  1.434900E+04  3.469218E+04 -9.924346E+03  2.596513E+04  3.348202E+03
       399  25  8.548289E+05 -2.497855E+04 -1.339182E+04 -1.168191E+04  8.452502E+03  2.336824E+03
       399  26  8.333649E+05 -3.143589E+04 -1.095298E+04 -5.261200E+02  1.723294E+04  3.032015E+03
       399  27  8.177434E+05 -1.917295E+04  1.881507E+03 -6.430959E+03  2.601312E+04  3.348398E+03
       400   1  1.129061E+06  3.605011E+04  8.308783E+04  4.063421E+03 -3.151838E+04 -4.378517E+03
       400   2  1.126456E+06  2.567266E+04  1.119734E+05 -9.968403E+03 -6.932414E+04 -5.167060E+03
       400   3  1.167877E+06  1.715371E+05  2.045165E+05 -4.180216E+04 -1.071321E+05 -1.801990E+03
       400   4  9.611043E+05 -5.661944E+03  4.230961E+04 -1.007622E+04 -3.268089E+04 -4.378000E+03
       400   5  9.392035E+05 -2.080770E+04  6.658495E+04 -1.197762E+03 -6.878107E+04 -5.168006E+03
       400   6  9.610467E+05  1.200162E+05  1.533483E+05 -1.012008E+04 -1.048822E+05 -1.806637E+03
       400   7  7.931735E+05 -4.737532E+04  1.529468E+03 -2.421203E+04 -3.384308E+04 -4.377429E+03
       400   8  7.519836E+05 -6.729033E+04  2.119399E+04  7.570228E+03 -6.823816E+04 -5.168938E+03
       400   9  7.542573E+05  6.849582E+04  1.021775E+05  2.155144E+04 -1.026330E+05 -1.811055E+03
       400  10  1.129060E+06  3.604983E+04  8.308593E+04  4.063309E+03 -1.351799E-10 -2.063466E-12
       400  11  1.126450E+06  2.567134E+04  1.119644E+05 -9.968691E+03 -2.984562E-10 -1.380004E-10
       400  12  1.167865E+06  1.715340E+05  2.044949E+05 -4.180232E+04 -1.102727E-10 -9.278198E-11
       400  13  9.611031E+05 -5.662251E+03  4.230757E+04 -1.007634E+04 -1.679283E-10 -4.860591E-11
       400  14  9.391984E+05 -2.080900E+04  6.657602E+04 -1.198048E+03 -2.479370E-10 -2.735888E-11
       400  15  9.610349E+05  1.200132E+05  1.533277E+05 -1.012024E+04 -1.016504E-10 -2.001586E-11
       400  16  7.931723E+05 -4.737565E+04  1.527282E+03 -2.421215E+04  1.223787E-10 -3.379447E-11
       400  17  7.519786E+05 -6.729161E+04  2.118520E+04  7.569944E+03  5.812519E-11  1.233427E-10
       400  18  7.542460E+05  6.849300E+04  1.021578E+05  2.155129E+04 -2.081763E-10  2.419128E-11
       400  19  1.129061E+06  3.605011E+04  8.308783E+04  4.063421E+03  3.151838E+04  4.378517E+03
       400  20  1.126456E+06  2.567266E+04  1.119734E+05 -9.968403E+03  6.932414E+04  5.167060E+03
       400  21  1.167877E+06  1.715371E+05  2.045165E+05 -4.180216E+04  1.071321E+05  1.801990E+03
       400  22  9.611043E+05 -5.661944E+03  4.230961E+04 -1.007622E+04  3.268089E+04  4.378000E+03
       400  23  9.392035E+05 -2.080770E+04  6.658495E+04 -1.197762E+03  6.878107E+04  5.168006E+03
       400  24  9.610467E+05  1.200162E+05  1.533483E+05 -1.012008E+04  1.048822E+05  1.806637E+03
       400  25  7.931735E+05 -4.737532E+04  1.529468E+03 -2.421203E+04  3.384308E+04  4.377429E+03
       400  26  7.519836E+05 -6.729033E+04  2.119399E+04  7.570228E+03  6.823816E+04  5.168938E+03
       400  27  7.542573E+05  6.849582E+04  1.021775E+05  2.155144E+04  1.026330E+05  1.811055E+03
       401   1 -3.893342E+04 -7.348421E+04 -6.756813E+04 -8.590087E+03  1.238376E+04  3.199036E+03
       401   2 -1.678246E+04 -8.884591E+04 -7.311506E+04 -5.110736E+02  9.709774E+03  9.455617E+03
       401   3  1.192681E+04 -8.020570E+04 -7.087828E+04 -1.563533E+04  7.037523E+03  8.403884E+03
       401   4  3.310211E+05  1.881644E+04  2.405704E+04 -1.346974E+04  1.643418E+04  3.200198E+03
       401   5  3.274875E+05 -3.294313E+03  1.042721E+04 -1.865815E+03  1.077578E+04  9.455356E+03
       401   6  3.310262E+05 -8.921828E+02  6.649606E+03 -1.346430E+04  5.119289E+03  8.403953E+03
       401   7  7.010999E+05  1.111070E+05  1.156721E+05 -1.835232E+04  2.048702E+04  3.201297E+03
       401   8  6.718656E+05  8.224859E+04  9.396093E+04 -3.221312E+03  1.184237E+04  9.455091E+03
       401   9  6.502186E+05  7.841387E+04  8.417014E+04 -1.129215E+04  3.200072E+03  8.404009E+03
       401  10 -3.893359E+04 -7.348426E+04 -6.756844E+04 -8.590118E+03 -1.557471E-10  2.941078E-11
       401  11 -1.678258E+04 -8.884603E+04 -7.311541E+04 -5.111475E+02 -1.886697E-10 -3.824633E-11
       401  12  1.192673E+04 -8.020579E+04 -7.087850E+04 -1.563538E+04  1.229675E-10 -1.642961E-10
       401  13  3.310208E+05  1.881636E+04  2.405651E+04 -1.346978E+04  3.082724E-10 -7.317883E-11
       401  14  3.274873E+05 -3.294441E+03  1.042682E+04 -1.865897E+03  2.385826E-10  7.241561E-13
       401  15  3.310262E+05 -8.922657E+02  6.649424E+03 -1.346434E+04 -5.800376E-11 -3.705858E-12
       401  16  7.010995E+05  1.111068E+05  1.156713E+05 -1.835237E+04  2.648747E-10  2.231654E-10
       401  17  6.718654E+05  8.224845E+04  9.396049E+04 -3.221403E+03 -2.107069E-10 -6.229517E-11
       401  18  6.502185E+05  7.841379E+04  8.416999E+04 -1.129217E+04 -9.939001E-11 -3.448151E-11
       401  19 -3.893342E+04 -7.348421E+04 -6.756813E+04 -8.590087E+03 -1.238376E+04 -3.199036E+03
       401  20 -1.678246E+04 -8.884591E+04 -7.311506E+04 -5.110736E+02 -9.709774E+03 -9.455617E+03
       401  21  1.192681E+04 -8.020570E+04 -7.087828E+04 -1.563533E+04 -7.037523E+03 -8.403884E+03
       401  22  3.310211E+05  1.881644E+04  2.405704E+04 -1.346974E+04 -1.643418E+04 -3.200198E+03
       401  23  3.274875E+05 -3.294313E+03  1.042721E+04 -1.865815E+03 -1.077578E+04 -9.455356E+03
       401  24  3.310262E+05 -8.921828E+02  6.649606E+03 -1.346430E+04 -5.119289E+03 -8.403953E+03
       401  25  7.010999E+05  1.111070E+05  1.156721E+05 -1.835232E+04 -2.048702E+04 -3.201297E+03
       401  26  6.718656E+05  8.224859E+04  9.396093E+04 -3.221312E+03 -1.184237E+04 -9.455091E+03
       401  27  6.502186E+05  7.841387E+04  8.417014E+04 -1.129215E+04 -3.200072E+03 -8.404009E+03
       402   1  5.435945E+04 -6.621640E+04 -6.156491E+04 -1.277453E+04  4.027875E+03  6.778112E+03
       402   2  7.866339E+04 -6.267870E+04 -5.815919E+04 -1.746855E+03  2.897354E+03  6.521100E+03
       402   3  1.039269E+05 -5.621906E+04 -5.327004E+04 -1.354184E+04  1.766006E+03  5.586488E+03
       402   4  3.296852E+05  2.241514E+03  5.451965E+03 -1.338051E+04  4.062311E+03  6.777904E+03
       402   5  3.291830E+05 -4.084943E+02  2.724729E+03 -1.969873E+03  2.654762E+03  6.521044E+03
       402   6  3.296870E+05 -8.918241E+01  1.672699E+03 -1.338130E+04  1.246426E+03  5.586704E+03
       402   7  6.050801E+05  7.069385E+04  7.246334E+04 -1.398675E+04  4.096763E+03  6.777695E+03
       402   8  5.797598E+05  6.185709E+04  6.360411E+04 -2.192974E+03  2.412072E+03  6.520988E+03
       402   9  5.554937E+05  5.603695E+04  5.661175E+04 -1.322070E+04  7.266577E+02  5.586921E+03
       402  10  5.435942E+04 -6.621645E+04 -6.156502E+04 -1.277455E+04  1.139872E-10 -1.892703E-10
       402  11  7.866337E+04 -6.267874E+04 -5.815929E+04 -1.746870E+03  4.022006E-10 -1.028487E-10
       402  12  1.039269E+05 -5.621910E+04 -5.327011E+04 -1.354185E+04  3.227998E-10  2.021847E-10
       402  13  3.296852E+05  2.241460E+03  5.451848E+03 -1.338053E+04 -4.864850E-10 -2.018962E-11
       402  14  3.291829E+05 -4.085419E+02  2.724636E+03 -1.969887E+03  2.454531E-10 -4.735464E-10
       402  15  3.296870E+05 -8.921635E+01  1.672638E+03 -1.338131E+04 -2.841145E-10  5.795649E-11
       402  16  6.050801E+05  7.069379E+04  7.246322E+04 -1.398677E+04 -2.634876E-10 -1.219626E-10
       402  17  5.797598E+05  6.185705E+04  6.360402E+04 -2.192987E+03  2.150995E-10 -3.205888E-10
       402  18  5.554937E+05  5.603691E+04  5.661169E+04 -1.322070E+04 -1.071318E-10 -1.083369E-10
       402  19  5.435945E+04 -6.621640E+04 -6.156491E+04 -1.277453E+04 -4.027875E+03 -6.778112E+03
       402  20  7.866339E+04 -6.267870E+04 -5.815919E+04 -1.746855E+03 -2.897354E+03 -6.521100E+03
       402  21  1.039269E+05 -5.621906E+04 -5.327004E+04 -1.354184E+04 -1.766006E+03 -5.586488E+03
       402  22  3.296852E+05  2.241514E+03  5.451965E+03 -1.338051E+04 -4.062311E+03 -6.777904E+03
       402  23  3.291830E+05 -4.084943E+02  2.724729E+03 -1.969873E+03 -2.654762E+03 -6.521044E+03
       402  24  3.296870E+05 -8.918241E+01  1.672699E+03 -1.338130E+04 -1.246426E+03 -5.586704E+03
       402  25  6.050801E+05  7.069385E+04  7.246334E+04 -1.398675E+04 -4.096763E+03 -6.777695E+03
       402  26  5.797598E+05  6.185709E+04  6.360411E+04 -2.192974E+03 -2.412072E+03 -6.520988E+03
       402  27  5.554937E+05  5.603695E+04  5.661175E+04 -1.322070E+04 -7.266577E+02 -5.586921E+03
       403   1  1.466658E+05 -4.515993E+04 -4.304992E+04 -1.314761E+04  1.314332E+03  4.949738E+03
       403   2  1.709850E+05 -3.943363E+04 -3.774751E+04 -1.955825E+03  9.523167E+02  4.095710E+03
       403   3  1.954438E+05 -3.331924E+04 -3.211363E+04 -1.323591E+04  5.898824E+02  3.183111E+03
       403   4  3.295004E+05  2.742332E+02  1.332037E+03 -1.330296E+04  9.778533E+02  4.949898E+03
       403   5  3.294292E+05 -5.075207E+01  7.647319E+02 -2.067309E+03  5.918303E+02  4.095954E+03
       403   6  3.295013E+05  1.649278E+01  5.455286E+02 -1.330316E+04  2.054023E+02  3.183447E+03
       403   7  5.123655E+05  4.570595E+04  4.571158E+04 -1.345836E+04  6.412760E+02  4.950058E+03
       403   8  4.878964E+05  3.933028E+04  3.927516E+04 -2.178817E+03  2.312523E+02  4.096198E+03
       403   9  4.635751E+05  3.335091E+04  3.320338E+04 -1.337043E+04 -1.791606E+02  3.183784E+03
       403  10  1.466657E+05 -4.515996E+04 -4.304997E+04 -1.314761E+04  4.611676E-10  8.068160E-12
       403  11  1.709850E+05 -3.943365E+04 -3.774754E+04 -1.955828E+03  6.544897E-10  3.819510E-11
       403  12  1.954438E+05 -3.331926E+04 -3.211365E+04 -1.323591E+04  2.142149E-10 -4.037436E-10
       403  13  3.295004E+05  2.742066E+02  1.331989E+03 -1.330296E+04 -3.801614E-10 -2.759356E-11
       403  14  3.294292E+05 -5.077019E+01  7.646997E+02 -2.067311E+03  7.154513E-11  4.143941E-10
       403  15  3.295013E+05  1.648188E+01  5.455095E+02 -1.330316E+04 -2.144541E-10  8.381914E-10
       403  16  5.123655E+05  4.570592E+04  4.571153E+04 -1.345836E+04 -3.141021E-10 -1.278205E-10
       403  17  4.878964E+05  3.933026E+04  3.927513E+04 -2.178818E+03  3.059052E-10 -6.317609E-10
       403  18  4.635751E+05  3.335090E+04  3.320336E+04 -1.337043E+04  1.032879E-11 -3.105605E-11
       403  19  1.466658E+05 -4.515993E+04 -4.304992E+04 -1.314761E+04 -1.314332E+03 -4.949738E+03
       403  20  1.709850E+05 -3.943363E+04 -3.774751E+04 -1.955825E+03 -9.523167E+02 -4.095710E+03
       403  21  1.954438E+05 -3.331924E+04 -3.211363E+04 -1.323591E+04 -5.898824E+02 -3.183111E+03
       403  22  3.295004E+05  2.742332E+02  1.332037E+03 -1.330296E+04 -9.778533E+02 -4.949898E+03
       403  23  3.294292E+05 -5.075207E+01  7.647319E+02 -2.067309E+03 -5.918303E+02 -4.095954E+03
       403  24  3.295013E+05  1.649278E+01  5.455286E+02 -1.330316E+04 -2.054023E+02 -3.183447E+03
       403  25  5.123655E+05  4.570595E+04  4.571158E+04 -1.345836E+04 -6.412760E+02 -4.950058E+03
       403  26  4.878964E+05  3.933028E+04  3.927516E+04 -2.178817E+03 -2.312523E+02 -4.096198E+03
       403  27  4.635751E+05  3.335091E+04  3.320338E+04 -1.337043E+04  1.791606E+02 -3.183784E+03
       404   1  2.378114E+05 -2.271652E+04 -2.171155E+04 -1.317988E+04  4.783995E+02  2.644647E+03
       404   2  2.619807E+05 -1.678198E+04 -1.591351E+04 -2.065074E+03  2.350641E+02  1.742888E+03
       404   3  2.861599E+05 -1.072747E+04 -9.938189E+03 -1.322278E+04 -8.433355E+00  8.380576E+02
       404   4  3.294745E+05  5.173311E+01  4.945211E+02 -1.325883E+04  1.109050E+02  2.645004E+03
       404   5  3.294697E+05 -7.724355E+00  4.902558E+02 -2.122652E+03 -1.337135E+02  1.743274E+03
       404   6  3.294749E+05  5.312670E+01  6.642817E+02 -1.325883E+04 -3.784846E+02  8.384756E+02
       404   7  4.211453E+05  2.281937E+04  2.269998E+04 -1.333780E+04 -2.566435E+02  2.645360E+03
       404   8  3.969629E+05  1.676619E+04  1.689369E+04 -2.180234E+03 -5.025310E+02  1.743660E+03
       404   9  3.727916E+05  1.083359E+04  1.126662E+04 -1.329488E+04 -7.485616E+02  8.388937E+02
       404  10  2.378114E+05 -2.271653E+04 -2.171156E+04 -1.317988E+04  5.205238E-10 -3.404666E-11
       404  11  2.619807E+05 -1.678198E+04 -1.591352E+04 -2.065075E+03  1.239396E-09 -6.570030E-11
       404  12  2.861599E+05 -1.072747E+04 -9.938190E+03 -1.322278E+04  6.729432E-10 -1.405612E-10
       404  13  3.294745E+05  5.172559E+01  4.945079E+02 -1.325883E+04 -3.434180E-10 -6.973754E-10
       404  14  3.294697E+05 -7.727624E+00  4.902500E+02 -2.122651E+03  2.463633E-11  9.419326E-11
       404  15  3.294749E+05  5.312591E+01  6.642802E+02 -1.325883E+04 -3.291371E-10 -6.235638E-10
       404  16  4.211453E+05  2.281936E+04  2.269997E+04 -1.333780E+04 -5.211960E-10  2.845193E-10
       404  17  3.969629E+05  1.676619E+04  1.689369E+04 -2.180233E+03 -5.279141E-11 -3.978966E-10
       404  18  3.727916E+05  1.083359E+04  1.126661E+04 -1.329488E+04 -7.356956E-11 -8.885577E-10
       404  19  2.378114E+05 -2.271652E+04 -2.171155E+04 -1.317988E+04 -4.783995E+02 -2.644647E+03
       404  20  2.619807E+05 -1.678198E+04 -1.591351E+04 -2.065074E+03 -2.350641E+02 -1.742888E+03
       404  21  2.861599E+05 -1.072747E+04 -9.938189E+03 -1.322278E+04  8.433355E+00 -8.380576E+02
       404  22  3.294745E+05  5.173311E+01  4.945211E+02 -1.325883E+04 -1.109050E+02 -2.645004E+03
       404  23  3.294697E+05 -7.724355E+00  4.902558E+02 -2.122652E+03  1.337135E+02 -1.743274E+03
       404  24  3.294749E+05  5.312670E+01  6.642817E+02 -1.325883E+04  3.784846E+02 -8.384756E+02
       404  25  4.211453E+05  2.281937E+04  2.269998E+04 -1.333780E+04  2.566435E+02 -2.645360E+03
       404  26  3.969629E+05  1.676619E+04  1.689369E+04 -2.180234E+03  5.025310E+02 -1.743660E+03
       404  27  3.727916E+05  1.083359E+04  1.126662E+04 -1.329488E+04  7.485616E+02 -8.388937E+02
       405   1  3.283557E+05 -2.463819E+02  6.110704E+02 -1.321414E+04 -1.428284E+02  3.103919E+02
       405   2  3.524314E+05  5.673721E+03  6.903432E+03 -2.146698E+03 -8.017562E+02 -5.930828E+02
       405   3  3.766215E+05  1.194956E+04  1.370062E+04 -1.331282E+04 -1.460663E+03 -1.492625E+03
       405   4  3.294984E+05  2.281487E+01  8.142620E+02 -1.325032E+04 -5.126948E+02  3.108170E+02
       405   5  3.294416E+05 -3.999488E+01  1.315949E+03 -2.133382E+03 -1.170004E+03 -5.926705E+02
       405   6  3.294981E+05  2.526125E+02  2.321307E+03 -1.325006E+04 -1.827267E+03 -1.492224E+03
       405   7  3.306411E+05  2.920116E+02  1.017454E+03 -1.328649E+04 -8.825619E+02  3.112421E+02
       405   8  3.064523E+05 -5.753750E+03 -4.271571E+03 -2.120067E+03 -1.538238E+03 -5.922583E+02
       405   9  2.823767E+05 -1.144450E+04 -9.058160E+03 -1.318730E+04 -2.193842E+03 -1.491823E+03
       405  10  3.283557E+05 -2.463820E+02  6.110702E+02 -1.321414E+04  1.031027E-10  7.223930E-10
       405  11  3.524314E+05  5.673721E+03  6.903430E+03 -2.146699E+03  8.205989E-10  1.476921E-09
       405  12  3.766215E+05  1.194956E+04  1.370061E+04 -1.331282E+04  1.253631E-09 -1.291407E-09
       405  13  3.294984E+05  2.281470E+01  8.142613E+02 -1.325031E+04 -6.003336E-10  7.894139E-11
       405  14  3.294416E+05 -3.999562E+01  1.315946E+03 -2.133383E+03  3.867068E-10 -7.349434E-10
       405  15  3.294981E+05  2.526092E+02  2.321297E+03 -1.325006E+04 -3.584329E-10 -3.228363E-10
       405  16  3.306411E+05  2.920113E+02  1.017452E+03 -1.328649E+04  5.676636E-11  6.556441E-11
       405  17  3.064523E+05 -5.753751E+03 -4.271576E+03 -2.120068E+03  3.820636E-10 -2.817076E-10
       405  18  2.823767E+05 -1.144450E+04 -9.058173E+03 -1.318730E+04 -1.052432E-09 -1.078240E-10
       405  19  3.283557E+05 -2.463819E+02  6.110704E+02 -1.321414E+04  1.428284E+02 -3.103919E+02
       405  20  3.524314E+05  5.673721E+03  6.903432E+03 -2.146698E+03  8.017562E+02  5.930828E+02
       405  21  3.766215E+05  1.194956E+04  1.370062E+04 -1.331282E+04  1.460663E+03  1.492625E+03
       405  22  3.294984E+05  2.281487E+01  8.142620E+02 -1.325032E+04  5.126948E+02 -3.108170E+02
       405  23  3.294416E+05 -3.999488E+01  1.315949E+03 -2.133382E+03  1.170004E+03  5.926705E+02
       405  24  3.294981E+05  2.526125E+02  2.321307E+03 -1.325006E+04  1.827267E+03  1.492224E+03
       405  25  3.306411E+05  2.920116E+02  1.017454E+03 -1.328649E+04  8.825619E+02 -3.112421E+02
       405  26  3.064523E+05 -5.753750E+03 -4.271571E+03 -2.120067E+03  1.538238E+03  5.922583E+02
       405  27  2.823767E+05 -1.144450E+04 -9.058160E+03 -1.318730E+04  2.193842E+03  1.491823E+03
       406   1  4.190606E+05  2.216742E+04  2.479190E+04 -1.308684E+04 -1.924286E+03 -2.027699E+03
       406   2  4.428445E+05  2.788627E+04  3.269849E+04 -2.247783E+03 -4.510334E+03 -2.933986E+03
       406   3  4.675908E+05  3.623945E+04  4.293921E+04 -1.376082E+04 -7.096184E+03 -3.788001E+03
       406   4  3.296843E+05 -5.885102E+01  2.996491E+03 -1.327725E+04 -2.305780E+03 -2.027303E+03
       406   5  3.292044E+05 -3.555913E+02  5.081340E+03 -2.100118E+03 -4.870074E+03 -2.933664E+03
       406   6  3.296829E+05  1.978582E+03  9.485593E+03 -1.327533E+04 -7.434070E+03 -3.787750E+03
       406   7  2.403152E+05 -2.228571E+04 -1.879949E+04 -1.346762E+04 -2.687219E+03 -2.026907E+03
       406   8  2.155761E+05 -2.859840E+04 -2.253675E+04 -1.952477E+03 -5.229748E+03 -2.933342E+03
       406   9  1.917924E+05 -3.228368E+04 -2.396939E+04 -1.278994E+04 -7.771881E+03 -3.787499E+03
       406  10  4.190606E+05  2.216742E+04  2.479188E+04 -1.308685E+04  3.594233E-10 -1.347826E-09
       406  11  4.428444E+05  2.788625E+04  3.269844E+04 -2.247794E+03  1.000457E-09  1.988986E-10
       406  12  4.675907E+05  3.623942E+04  4.293908E+04 -1.376085E+04  2.613489E-10  4.391257E-10
       406  13  3.296842E+05 -5.885686E+01  2.996473E+03 -1.327725E+04 -7.648567E-10 -1.884619E-10
       406  14  3.292043E+05 -3.556070E+02  5.081279E+03 -2.100130E+03  3.889161E-10 -1.661910E-10
       406  15  3.296829E+05  1.978552E+03  9.485462E+03 -1.327535E+04  1.310987E-10 -4.731952E-10
       406  16  2.403151E+05 -2.228572E+04 -1.879952E+04 -1.346763E+04 -3.302124E-10  5.544024E-11
       406  17  2.155760E+05 -2.859841E+04 -2.253681E+04 -1.952490E+03  2.101279E-10  1.165695E-09
       406  18  1.917924E+05 -3.228371E+04 -2.396953E+04 -1.278997E+04 -2.991628E-11  1.927916E-10
       406  19  4.190606E+05  2.216742E+04  2.479190E+04 -1.308684E+04  1.924286E+03  2.027699E+03
       406  20  4.428445E+05  2.788627E+04  3.269849E+04 -2.247783E+03  4.510334E+03  2.933986E+03
       406  21  4.675908E+05  3.623945E+04  4.293921E+04 -1.376082E+04  7.096184E+03  3.788001E+03
       406  22  3.296843E+05 -5.885102E+01  2.996491E+03 -1.327725E+04  2.305780E+03  2.027303E+03
       406  23  3.292044E+05 -3.555913E+02  5.081340E+03 -2.100118E+03  4.870074E+03  2.933664E+03
       406  24  3.296829E+05  1.978582E+03  9.485593E+03 -1.327533E+04  7.434070E+03  3.787750E+03
       406  25  2.403152E+05 -2.228571E+04 -1.879949E+04 -1.346762E+04  2.687219E+03  2.026907E+03
       406  26  2.155761E+05 -2.859840E+04 -2.253675E+04 -1.952477E+03  5.229748E+03  2.933342E+03
       406  27  1.917924E+05 -3.228368E+04 -2.396939E+04 -1.278994E+04  7.771881E+03  3.787499E+03
       407   1  5.115277E+05  4.412884E+04  5.598602E+04 -1.141306E+04 -8.851149E+03 -4.407981E+03
       407   2  5.326781E+05  4.804046E+04  6.982357E+04 -3.128910E+03 -1.941862E+04 -5.328284E+03
       407   3  5.606712E+05  7.369537E+04  9.597913E+04 -1.746329E+04 -2.998565E+04 -5.653946E+03
       407   4  3.309781E+05 -7.483194E+02  1.204404E+04 -1.333935E+04 -9.349857E+03 -4.407611E+03
       407   5  3.275745E+05 -2.928532E+03  1.999165E+04 -2.024835E+03 -1.967154E+04 -5.328255E+03
       407   6  3.309734E+05  1.659604E+04  4.008983E+04 -1.332925E+04 -2.999237E+04 -5.654273E+03
       407   7  1.504583E+05 -4.562787E+04 -3.190030E+04 -1.526507E+04 -9.848421E+03 -4.407239E+03
       407   8  1.225093E+05 -5.390061E+04 -2.984332E+04 -9.211176E+02 -1.992437E+04 -5.328228E+03
       407   9  1.013237E+05 -4.050712E+04 -1.580329E+04 -9.196721E+03 -2.999908E+04 -5.654600E+03
       407  10  5.115276E+05  4.412880E+04  5.598583E+04 -1.141309E+04  2.310490E-10  2.922475E-10
       407  11  5.326776E+05  4.804033E+04  6.982281E+04 -3.128994E+03  8.454498E-10 -1.033319E-09
       407  12  5.606702E+05  7.369510E+04  9.597738E+04 -1.746343E+04  3.080039E-10 -1.190040E-10
       407  13  3.309780E+05 -7.483637E+02  1.204384E+04 -1.333938E+04 -4.507339E-10  5.270519E-10
       407  14  3.275741E+05 -2.928666E+03  1.999087E+04 -2.024919E+03  6.349584E-11  8.916440E-10
       407  15  3.309724E+05  1.659576E+04  4.008808E+04 -1.332938E+04  4.155555E-11 -3.498834E-10
       407  16  1.504582E+05 -4.562791E+04 -3.190052E+04 -1.526511E+04 -3.784429E-10  2.931086E-10
       407  17  1.225089E+05 -5.390075E+04 -2.984412E+04 -9.212031E+02  3.775375E-10  1.557911E-10
       407  18  1.013228E+05 -4.050739E+04 -1.580504E+04 -9.196858E+03 -2.817380E-10  5.532386E-11
       407  19  5.115277E+05  4.412884E+04  5.598602E+04 -1.141306E+04  8.851149E+03  4.407981E+03
       407  20  5.326781E+05  4.804046E+04  6.982357E+04 -3.128910E+03  1.941862E+04  5.328284E+03
       407  21  5.606712E+05  7.369537E+04  9.597913E+04 -1.746329E+04  2.998565E+04  5.653946E+03
       407  22  3.309781E+05 -7.483194E+02  1.204404E+04 -1.333935E+04  9.349857E+03  4.407611E+03
       407  23  3.275745E+05 -2.928532E+03  1.999165E+04 -2.024835E+03  1.967154E+04  5.328255E+03
       407  24  3.309734E+05  1.659604E+04  4.008983E+04 -1.332925E+04  2.999237E+04  5.654273E+03
       407  25  1.504583E+05 -4.562787E+04 -3.190030E+04 -1.526507E+04  9.848421E+03  4.407239E+03
       407  26  1.225093E+05 -5.390061E+04 -2.984332E+04 -9.211176E+02  1.992437E+04  5.328228E+03
       407  27  1.013237E+05 -4.050712E+04 -1.580329E+04 -9.196721E+03  2.999908E+04  5.654600E+03
       408   1  6.137516E+05  6.129065E+04  1.152119E+05  2.814521E+03 -3.602843E+04 -7.145409E+03
       408   2  6.133232E+05  4.994958E+04  1.492197E+05 -1.215508E+04 -8.037555E+04 -8.168038E+03
       408   3  6.639796E+05  2.193652E+05  2.572983E+05 -5.007544E+04 -1.247243E+05 -2.774495E+03
       408   4  3.407166E+05 -6.533685E+03  4.889718E+04 -1.341479E+04 -3.775160E+04 -7.143914E+03
       408   5  3.153809E+05 -2.406777E+04  7.694925E+04 -1.936638E+03 -7.946260E+04 -8.169798E+03
       408   6  3.406956E+05  1.387414E+05  1.772671E+05 -1.340743E+04 -1.211732E+05 -2.781930E+03
       408   7  6.775014E+04 -7.436250E+04 -1.742281E+04 -2.963693E+04 -3.947402E+04 -7.142329E+03
       408   8  1.751994E+04 -9.809125E+04  4.672442E+03  8.276894E+03 -7.855009E+04 -8.171528E+03
       408   9  1.750945E+04  5.811477E+04  9.722904E+04  2.324149E+04 -1.176239E+05 -2.788948E+03
       408  10  6.137502E+05  6.129024E+04  1.152094E+05  2.814313E+03  7.902000E-11  2.204004E-11
       408  11  6.133162E+05  4.994778E+04  1.492075E+05 -1.215561E+04  3.747849E-10 -2.261037E-10
       408  12  6.639629E+05  2.193610E+05  2.572690E+05 -5.007572E+04 -1.033384E-10 -1.936225E-11
       408  13  3.407150E+05 -6.534122E+03  4.889441E+04 -1.341500E+04 -3.627497E-10 -6.078613E-10
       408  14  3.153741E+05 -2.406954E+04  7.693726E+04 -1.937160E+03  8.551442E-11 -5.298247E-10
       408  15  3.406799E+05  1.387374E+05  1.772396E+05 -1.340770E+04 -2.723078E-10  9.322370E-14
       408  16  6.774846E+04 -7.436297E+04 -1.742583E+04 -2.963716E+04 -2.820263E-10 -3.547617E-10
       408  17  1.751329E+04 -9.809298E+04  4.660723E+03  8.276377E+03  1.101881E-10 -2.592778E-10
       408  18  1.749460E+04  5.811105E+04  9.720302E+04  2.324123E+04  5.212863E-11  1.267942E-11
       408  19  6.137516E+05  6.129065E+04  1.152119E+05  2.814521E+03  3.602843E+04  7.145409E+03
       408  20  6.133232E+05  4.994958E+04  1.492197E+05 -1.215508E+04  8.037555E+04  8.168038E+03
       408  21  6.639796E+05  2.193652E+05  2.572983E+05 -5.007544E+04  1.247243E+05  2.774495E+03
       408  22  3.407166E+05 -6.533685E+03  4.889718E+04 -1.341479E+04  3.775160E+04  7.143914E+03
       408  23  3.153809E+05 -2.406777E+04  7.694925E+04 -1.936638E+03  7.946260E+04  8.169798E+03
       408  24  3.406956E+05  1.387414E+05  1.772671E+05 -1.340743E+04  1.211732E+05  2.781930E+03
       408  25  6.775014E+04 -7.436250E+04 -1.742281E+04 -2.963693E+04  3.947402E+04  7.142329E+03
       408  26  1.751994E+04 -9.809125E+04  4.672442E+03  8.276894E+03  7.855009E+04  8.171528E+03
       408  27  1.750945E+04  5.811477E+04  9.722904E+04  2.324149E+04  1.176239E+05  2.788948E+03
       409   1 -1.142780E+06 -8.733151E+04 -1.215297E+05 -2.800153E+04 -1.052881E+05 -1.230347E+03
       409   2 -1.129160E+06  5.406519E+04 -3.581645E+04 -8.589056E+03 -6.962326E+04 -3.643120E+03
       409   3 -1.159918E+06  3.651339E+04 -1.307921E+04  1.867856E+04 -3.395988E+04 -3.269452E+03
       409   4 -1.283441E+06 -1.224715E+05 -1.564170E+05  4.288211E+03 -1.068221E+05 -1.236059E+03
       409   5 -1.261109E+06  2.123244E+04 -6.788336E+04  3.505430E+02 -7.003051E+04 -3.644271E+03
       409   6 -1.283362E+06  5.771672E+03 -4.311959E+04  4.267631E+03 -3.323980E+04 -3.268468E+03
       409   7 -1.424081E+06 -1.576090E+05 -1.913052E+05  3.657061E+04 -1.083557E+05 -1.241932E+03
       409   8 -1.393041E+06 -1.160128E+04 -9.995149E+04  9.288233E+03 -7.043768E+04 -3.645433E+03
       409   9 -1.406791E+06 -2.497039E+04 -7.316097E+04 -1.014042E+04 -3.251986E+04 -3.267517E+03
       409  10 -1.142792E+06 -8.733449E+04 -1.215505E+05 -2.800163E+04  5.974661E-11  1.421811E-10
       409  11 -1.129165E+06  5.406387E+04 -3.582560E+04 -8.589260E+03  2.301855E-10 -3.756482E-10
       409  12 -1.159919E+06  3.651307E+04 -1.308140E+04  1.867847E+04 -3.076380E-11 -3.591190E-10
       409  13 -1.283453E+06 -1.224745E+05 -1.564385E+05  4.288105E+03  8.573558E-12 -2.053968E-10
       409  14 -1.261114E+06  2.123111E+04 -6.789262E+04  3.503374E+02  5.514842E-10 -6.748023E-10
       409  15 -1.283363E+06  5.771363E+03 -4.312169E+04  4.267543E+03 -2.225692E-11 -2.933115E-10
       409  16 -1.424093E+06 -1.576122E+05 -1.913273E+05  3.657051E+04  1.042238E-10 -5.982603E-11
       409  17 -1.393047E+06 -1.160263E+04 -9.996086E+04  9.288026E+03  2.094818E-11 -3.224423E-10
       409  18 -1.406792E+06 -2.497069E+04 -7.316298E+04 -1.014050E+04  1.908795E-10 -4.936406E-10
       409  19 -1.142780E+06 -8.733151E+04 -1.215297E+05 -2.800153E+04  1.052881E+05  1.230347E+03
       409  20 -1.129160E+06  5.406519E+04 -3.581645E+04 -8.589056E+03  6.962326E+04  3.643120E+03
       409  21 -1.159918E+06  3.651339E+04 -1.307921E+04  1.867856E+04  3.395988E+04  3.269452E+03
       409  22 -1.283441E+06 -1.224715E+05 -1.564170E+05  4.288211E+03  1.068221E+05  1.236059E+03
       409  23 -1.261109E+06  2.123244E+04 -6.788336E+04  3.505430E+02  7.003051E+04  3.644271E+03
       409  24 -1.283362E+06  5.771672E+03 -4.311959E+04  4.267631E+03  3.323980E+04  3.268468E+03
       409  25 -1.424081E+06 -1.576090E+05 -1.913052E+05  3.657061E+04  1.083557E+05  1.241932E+03
       409  26 -1.393041E+06 -1.160128E+04 -9.995149E+04  9.288233E+03  7.043768E+04  3.645433E+03
       409  27 -1.406791E+06 -2.497039E+04 -7.316097E+04 -1.014042E+04  3.251986E+04  3.267517E+03
       410   1 -1.167173E+06  1.214550E+04 -9.119356E+03  9.319855E+02 -2.639416E+04 -2.662357E+03
       410   2 -1.173626E+06  2.702149E+04  6.268196E+03 -7.316860E+02 -1.740736E+04 -2.568823E+03
       410   3 -1.186022E+06  2.279032E+04  1.102213E+04  6.295353E+03 -8.420957E+03 -2.201376E+03
       410   4 -1.274797E+06 -1.465292E+04 -3.535705E+04  4.465376E+03 -2.641013E+04 -2.662545E+03
       410   5 -1.271808E+06  2.579600E+03 -1.763048E+04  1.168643E+02 -1.731318E+04 -2.568832E+03
       410   6 -1.274784E+06  6.840284E+02 -1.061551E+04  4.459233E+03 -8.216504E+03 -2.201265E+03
       410   7 -1.382411E+06 -4.145215E+04 -6.159559E+04  7.998150E+03 -2.642610E+04 -2.662733E+03
       410   8 -1.369982E+06 -2.186300E+04 -4.152985E+04  9.652788E+02 -1.721902E+04 -2.568840E+03
       410   9 -1.363538E+06 -2.142283E+04 -3.225372E+04  2.623376E+03 -8.012080E+03 -2.201154E+03
       410  10 -1.167174E+06  1.214531E+04 -9.120681E+03  9.319289E+02 -3.053001E-10 -8.385645E-11
       410  11 -1.173626E+06  2.702140E+04  6.267613E+03 -7.317220E+02 -8.457764E-10  3.888929E-10
       410  12 -1.186022E+06  2.279030E+04  1.102199E+04  6.295338E+03  4.150888E-10 -2.864997E-10
       410  13 -1.274798E+06 -1.465311E+04 -3.535838E+04  4.465319E+03  1.156366E-10 -1.412148E-10
       410  14 -1.271809E+06  2.579512E+03 -1.763106E+04  1.168285E+02 -3.885590E-10  3.140942E-10
       410  15 -1.274784E+06  6.840050E+02 -1.061564E+04  4.459219E+03  1.219876E-10 -4.035051E-10
       410  16 -1.382412E+06 -4.145234E+04 -6.159692E+04  7.998093E+03  6.992202E-11  7.810794E-11
       410  17 -1.369983E+06 -2.186309E+04 -4.153042E+04  9.652432E+02  3.864527E-10 -6.394408E-10
       410  18 -1.363538E+06 -2.142286E+04 -3.225385E+04  2.623362E+03 -4.698637E-10 -1.371041E-10
       410  19 -1.167173E+06  1.214550E+04 -9.119356E+03  9.319855E+02  2.639416E+04  2.662357E+03
       410  20 -1.173626E+06  2.702149E+04  6.268196E+03 -7.316860E+02  1.740736E+04  2.568823E+03
       410  21 -1.186022E+06  2.279032E+04  1.102213E+04  6.295353E+03  8.420957E+03  2.201376E+03
       410  22 -1.274797E+06 -1.465292E+04 -3.535705E+04  4.465376E+03  2.641013E+04  2.662545E+03
       410  23 -1.271808E+06  2.579600E+03 -1.763048E+04  1.168643E+02  1.731318E+04  2.568832E+03
       410  24 -1.274784E+06  6.840284E+02 -1.061551E+04  4.459233E+03  8.216504E+03  2.201265E+03
       410  25 -1.382411E+06 -4.145215E+04 -6.159559E+04  7.998150E+03  2.642610E+04  2.662733E+03
       410  26 -1.369982E+06 -2.186300E+04 -4.152985E+04  9.652788E+02  1.721902E+04  2.568840E+03
       410  27 -1.363538E+06 -2.142283E+04 -3.225372E+04  2.623376E+03  8.012080E+03  2.201154E+03
       411   1 -1.201979E+06  1.610954E+04  9.060178E+03  4.268167E+03 -6.666004E+03 -1.948598E+03
       411   2 -1.211563E+06  1.566520E+04  1.052044E+04 -6.625094E+01 -4.416049E+03 -1.600138E+03
       411   3 -1.222016E+06  1.294603E+04  9.943474E+03  4.841723E+03 -2.166167E+03 -1.218571E+03
       411   4 -1.273653E+06 -1.729793E+03 -8.366299E+03  4.584579E+03 -6.530808E+03 -1.948540E+03
       411   5 -1.273216E+06  3.156129E+02 -4.489769E+03 -3.717105E+01 -4.267604E+03 -1.600059E+03
       411   6 -1.273650E+06  8.378543E+01 -2.659820E+03  4.583528E+03 -2.004437E+03 -1.218471E+03
       411   7 -1.345323E+06 -1.956950E+04 -2.579315E+04  4.900954E+03 -6.395629E+03 -1.948483E+03
       411   8 -1.334865E+06 -1.503425E+04 -1.950025E+04 -8.094585E+00 -4.119174E+03 -1.599980E+03
       411   9 -1.325282E+06 -1.277866E+04 -1.526331E+04  4.325355E+03 -1.842720E+03 -1.218372E+03
       411  10 -1.201979E+06  1.610952E+04  9.060087E+03  4.268157E+03 -2.619451E-10 -4.156647E-11
       411  11 -1.211563E+06  1.566519E+04  1.052040E+04 -6.625664E+01 -6.957690E-10 -4.001291E-11
       411  12 -1.222016E+06  1.294603E+04  9.943463E+03  4.841720E+03 -2.709171E-10 -2.138715E-10
       411  13 -1.273653E+06 -1.729808E+03 -8.366386E+03  4.584569E+03  9.504865E-11 -3.789799E-10
       411  14 -1.273216E+06  3.156052E+02 -4.489808E+03 -3.717655E+01 -5.250628E-10 -2.178166E-10
       411  15 -1.273650E+06  8.378276E+01 -2.659831E+03  4.583526E+03 -1.868048E-11 -2.866901E-10
       411  16 -1.345323E+06 -1.956952E+04 -2.579323E+04  4.900944E+03 -9.225017E-11 -2.995174E-10
       411  17 -1.334865E+06 -1.503426E+04 -1.950029E+04 -8.099895E+00 -1.384314E-10 -5.960222E-10
       411  18 -1.325282E+06 -1.277866E+04 -1.526332E+04  4.325353E+03  3.051888E-10 -8.237627E-10
       411  19 -1.201979E+06  1.610954E+04  9.060178E+03  4.268167E+03  6.666004E+03  1.948598E+03
       411  20 -1.211563E+06  1.566520E+04  1.052044E+04 -6.625094E+01  4.416049E+03  1.600138E+03
       411  21 -1.222016E+06  1.294603E+04  9.943474E+03  4.841723E+03  2.166167E+03  1.218571E+03
       411  22 -1.273653E+06 -1.729793E+03 -8.366299E+03  4.584579E+03  6.530808E+03  1.948540E+03
       411  23 -1.273216E+06  3.156129E+02 -4.489769E+03 -3.717105E+01  4.267604E+03  1.600059E+03
       411  24 -1.273650E+06  8.378543E+01 -2.659820E+03  4.583528E+03  2.004437E+03  1.218471E+03
       411  25 -1.345323E+06 -1.956950E+04 -2.579315E+04  4.900954E+03  6.395629E+03  1.948483E+03
       411  26 -1.334865E+06 -1.503425E+04 -1.950025E+04 -8.094585E+00  4.119174E+03  1.599980E+03
       411  27 -1.325282E+06 -1.277866E+04 -1.526331E+04  4.325355E+03  1.842720E+03  1.218372E+03
       412   1 -1.239745E+06  8.202346E+03  6.111202E+03  4.642996E+03 -1.735077E+03 -9.908432E+02
       412   2 -1.250000E+06  5.870320E+03  4.489154E+03 -1.017114E+02 -1.133879E+03 -6.068366E+02
       412   3 -1.260415E+06  3.270865E+03  2.405023E+03  4.686604E+03 -5.327166E+02 -2.174583E+02
       412   4 -1.273492E+06 -1.935732E+02 -2.074438E+03  4.648539E+03 -1.579846E+03 -9.907423E+02
       412   5 -1.273411E+06  4.146723E+01 -1.210901E+03 -1.180552E+02 -9.764907E+02 -6.067301E+02
       412   6 -1.273491E+06  8.700133E+00 -8.109641E+02  4.648396E+03 -3.731612E+02 -2.173457E+02
       412   7 -1.307238E+06 -8.589576E+03 -1.026016E+04  4.654081E+03 -1.424623E+03 -9.906415E+02
       412   8 -1.296822E+06 -5.787426E+03 -6.910995E+03 -1.343985E+02 -8.191082E+02 -6.066236E+02
       412   9 -1.286567E+06 -3.253477E+03 -4.026964E+03  4.610190E+03 -2.136091E+02 -2.172331E+02
       412  10 -1.239745E+06  8.202344E+03  6.111194E+03  4.642995E+03  4.693261E-11 -3.321260E-10
       412  11 -1.250000E+06  5.870319E+03  4.489151E+03 -1.017119E+02  2.666702E-10 -8.032506E-10
       412  12 -1.260415E+06  3.270865E+03  2.405022E+03  4.686604E+03  5.990119E-10 -5.633969E-10
       412  13 -1.273492E+06 -1.935749E+02 -2.074445E+03  4.648538E+03  1.001423E-09 -6.791855E-10
       412  14 -1.273411E+06  4.146658E+01 -1.210903E+03 -1.180557E+02 -5.475904E-10  3.384846E-10
       412  15 -1.273491E+06  8.700045E+00 -8.109645E+02  4.648396E+03 -4.429797E-10  5.054651E-10
       412  16 -1.307238E+06 -8.589578E+03 -1.026017E+04  4.654080E+03 -3.596775E-10  6.585948E-10
       412  17 -1.296822E+06 -5.787427E+03 -6.910997E+03 -1.343989E+02 -4.096354E-10  1.954777E-10
       412  18 -1.286567E+06 -3.253477E+03 -4.026964E+03  4.610190E+03 -9.705107E-10  9.360606E-10
       412  19 -1.239745E+06  8.202346E+03  6.111202E+03  4.642996E+03  1.735077E+03  9.908432E+02
       412  20 -1.250000E+06  5.870320E+03  4.489154E+03 -1.017114E+02  1.133879E+03  6.068366E+02
       412  21 -1.260415E+06  3.270865E+03  2.405023E+03  4.686604E+03  5.327166E+02  2.174583E+02
       412  22 -1.273492E+06 -1.935732E+02 -2.074438E+03  4.648539E+03  1.579846E+03  9.907423E+02
       412  23 -1.273411E+06  4.146723E+01 -1.210901E+03 -1.180552E+02  9.764907E+02  6.067301E+02
       412  24 -1.273491E+06  8.700133E+00 -8.109641E+02  4.648396E+03  3.731612E+02  2.173457E+02
       412  25 -1.307238E+06 -8.589576E+03 -1.026016E+04  4.654081E+03  1.424623E+03  9.906415E+02
       412  26 -1.296822E+06 -5.787426E+03 -6.910995E+03 -1.343985E+02  8.191082E+02  6.066236E+02
       412  27 -1.286567E+06 -3.253477E+03 -4.026964E+03  4.610190E+03  2.136091E+02  2.172331E+02
       413   1 -1.278589E+06 -1.291396E+03 -1.985459E+03  4.643846E+03 -3.958838E+02  1.096056E+01
       413   2 -1.288911E+06 -3.835226E+03 -4.414946E+03 -1.317296E+02 -7.290918E+01  4.007058E+02
       413   3 -1.299318E+06 -6.486479E+03 -7.085266E+03  4.653051E+03  2.500732E+02  7.862942E+02
       413   4 -1.273474E+06 -1.158335E+01 -7.080484E+02  4.654500E+03 -2.363615E+02  1.107369E+01
       413   5 -1.273432E+06  1.867175E+01 -6.462115E+02 -1.256530E+02  8.492223E+01  4.008147E+02
       413   6 -1.273474E+06 -5.823216E+01 -8.240609E+02  4.654535E+03  4.062191E+02  7.863992E+02
       413   7 -1.268360E+06  1.268227E+03  5.693604E+02  4.665154E+03 -7.683787E+01  1.118682E+01
       413   8 -1.257953E+06  3.872551E+03  3.122506E+03 -1.195763E+02  2.427576E+02  4.009236E+02
       413   9 -1.247631E+06  6.369966E+03  5.437096E+03  4.656020E+03  5.623715E+02  7.865042E+02
       413  10 -1.278589E+06 -1.291396E+03 -1.985459E+03  4.643846E+03  1.084752E-11  2.995546E-10
       413  11 -1.288911E+06 -3.835226E+03 -4.414947E+03 -1.317296E+02 -7.200698E-10  5.460458E-10
       413  12 -1.299318E+06 -6.486480E+03 -7.085267E+03  4.653050E+03  1.489844E-10  1.274752E-10
       413  13 -1.273474E+06 -1.158337E+01 -7.080485E+02  4.654500E+03  9.874774E-10 -9.292152E-10
       413  14 -1.273432E+06  1.867158E+01 -6.462118E+02 -1.256530E+02  7.395645E-11 -8.397416E-10
       413  15 -1.273474E+06 -5.823287E+01 -8.240624E+02  4.654535E+03 -6.051296E-10  1.007277E-09
       413  16 -1.268360E+06  1.268227E+03  5.693604E+02  4.665154E+03 -4.212177E-11  1.006963E-10
       413  17 -1.257953E+06  3.872551E+03  3.122506E+03 -1.195764E+02  1.022306E-10 -5.261528E-10
       413  18 -1.247631E+06  6.369965E+03  5.437094E+03  4.656019E+03 -4.878588E-10  4.250264E-10
       413  19 -1.278589E+06 -1.291396E+03 -1.985459E+03  4.643846E+03  3.958838E+02 -1.096056E+01
       413  20 -1.288911E+06 -3.835226E+03 -4.414946E+03 -1.317296E+02  7.290918E+01 -4.007058E+02
       413  21 -1.299318E+06 -6.486479E+03 -7.085266E+03  4.653051E+03 -2.500732E+02 -7.862942E+02
       413  22 -1.273474E+06 -1.158335E+01 -7.080484E+02  4.654500E+03  2.363615E+02 -1.107369E+01
       413  23 -1.273432E+06  1.867175E+01 -6.462115E+02 -1.256530E+02 -8.492223E+01 -4.008147E+02
       413  24 -1.273474E+06 -5.823216E+01 -8.240609E+02  4.654535E+03 -4.062191E+02 -7.863992E+02
       413  25 -1.268360E+06  1.268227E+03  5.693604E+02  4.665154E+03  7.683787E+01 -1.118682E+01
       413  26 -1.257953E+06  3.872551E+03  3.122506E+03 -1.195763E+02 -2.427576E+02 -4.009236E+02
       413  27 -1.247631E+06  6.369966E+03  5.437096E+03  4.656020E+03 -5.623715E+02 -7.865042E+02
       414   1 -1.317354E+06 -1.088951E+04 -1.168583E+04  4.504097E+03  4.058914E+02  1.015015E+03
       414   2 -1.327312E+06 -1.332538E+04 -1.466801E+04 -6.460358E+01  1.191550E+03  1.398545E+03
       414   3 -1.337569E+06 -1.650607E+04 -1.835079E+04  4.687914E+03  1.977276E+03  1.751187E+03
       414   4 -1.273522E+06  3.054248E+01 -9.815237E+02  4.601245E+03  5.682300E+02  1.015119E+03
       414   5 -1.273374E+06  1.043218E+02 -1.535314E+03 -5.915572E+01  1.341366E+03  1.398631E+03
       414   6 -1.273523E+06 -5.644489E+02 -2.780912E+03  4.601612E+03  2.114582E+03  1.751256E+03
       414   7 -1.229688E+06  1.095045E+04  9.722646E+03  4.698399E+03  7.305800E+02  1.015223E+03
       414   8 -1.219434E+06  1.353381E+04  1.159716E+04 -5.370781E+01  1.491195E+03  1.398717E+03
       414   9 -1.209473E+06  1.537687E+04  1.278866E+04  4.515300E+03  2.251903E+03  1.751325E+03
       414  10 -1.317354E+06 -1.088951E+04 -1.168584E+04  4.504096E+03  7.024720E-10 -6.109916E-10
       414  11 -1.327312E+06 -1.332538E+04 -1.466801E+04 -6.460492E+01 -6.652516E-10  4.321265E-10
       414  12 -1.337569E+06 -1.650607E+04 -1.835080E+04  4.687911E+03  3.063618E-10 -3.244787E-10
       414  13 -1.273522E+06  3.054128E+01 -9.815263E+02  4.601244E+03 -2.398800E-10  7.428618E-10
       414  14 -1.273374E+06  1.043192E+02 -1.535322E+03 -5.915723E+01 -8.743403E-10  1.230064E-09
       414  15 -1.273523E+06 -5.644534E+02 -2.780926E+03  4.601609E+03  1.972841E-10 -4.586853E-10
       414  16 -1.229688E+06  1.095045E+04  9.722643E+03  4.698399E+03 -2.165788E-11 -2.401571E-10
       414  17 -1.219434E+06  1.353381E+04  1.159716E+04 -5.370949E+01 -9.790520E-10  1.347593E-09
       414  18 -1.209473E+06  1.537686E+04  1.278865E+04  4.515296E+03 -5.930251E-10  2.617334E-10
       414  19 -1.317354E+06 -1.088951E+04 -1.168583E+04  4.504097E+03 -4.058914E+02 -1.015015E+03
       414  20 -1.327312E+06 -1.332538E+04 -1.466801E+04 -6.460358E+01 -1.191550E+03 -1.398545E+03
       414  21 -1.337569E+06 -1.650607E+04 -1.835079E+04  4.687914E+03 -1.977276E+03 -1.751187E+03
       414  22 -1.273522E+06  3.054248E+01 -9.815237E+02  4.601245E+03 -5.682300E+02 -1.015119E+03
       414  23 -1.273374E+06  1.043218E+02 -1.535314E+03 -5.915572E+01 -1.341366E+03 -1.398631E+03
       414  24 -1.273523E+06 -5.644489E+02 -2.780912E+03  4.601612E+03 -2.114582E+03 -1.751256E+03
       414  25 -1.229688E+06  1.095045E+04  9.722646E+03  4.698399E+03 -7.305800E+02 -1.015223E+03
       414  26 -1.219434E+06  1.353381E+04  1.159716E+04 -5.370781E+01 -1.491195E+03 -1.398717E+03
       414  27 -1.209473E+06  1.537687E+04  1.278866E+04  4.515300E+03 -2.251903E+03 -1.751325E+03
       415   1 -1.355226E+06 -2.002970E+04 -2.334144E+04  3.864884E+03  2.469698E+03  2.004369E+03
       415   2 -1.363812E+06 -2.178523E+04 -2.792886E+04  3.363448E+02  5.568366E+03  2.374454E+03
       415   3 -1.374373E+06 -2.983036E+04 -3.610873E+04  5.629826E+03  8.667172E+03  2.483486E+03
       415   4 -1.273892E+06  2.280641E+02 -3.509960E+03  4.489693E+03  2.673168E+03  2.004468E+03
       415   5 -1.272916E+06  8.457835E+02 -5.801508E+03  7.982987E+01  5.665894E+03  2.374476E+03
       415   6 -1.273897E+06 -4.807154E+03 -1.161143E+04  4.491920E+03  8.658803E+03  2.483440E+03
       415   7 -1.192552E+06  2.048534E+04  1.632104E+04  5.114582E+03  2.876665E+03  2.004567E+03
       415   8 -1.182013E+06  2.347618E+04  1.632524E+04 -1.767237E+02  5.763435E+03  2.374498E+03
       415   9 -1.173411E+06  2.021531E+04  1.288514E+04  3.353829E+03  8.650434E+03  2.483394E+03
       415  10 -1.355226E+06 -2.002970E+04 -2.334146E+04  3.864880E+03 -3.544854E-10  2.672277E-10
       415  11 -1.363812E+06 -2.178524E+04 -2.792893E+04  3.363341E+02 -5.247150E-10 -1.753697E-10
       415  12 -1.374373E+06 -2.983038E+04 -3.610888E+04  5.629809E+03 -3.485306E-10  2.151987E-10
       415  13 -1.273892E+06  2.280579E+02 -3.509981E+03  4.489688E+03  2.617188E-10 -4.620887E-10
       415  14 -1.272916E+06  8.457688E+02 -5.801579E+03  7.981903E+01 -4.096633E-10 -8.017631E-11
       415  15 -1.273897E+06 -4.807181E+03 -1.161158E+04  4.491903E+03  2.978631E-10 -2.205977E-11
       415  16 -1.192552E+06  2.048533E+04  1.632102E+04  5.114578E+03 -2.395236E-10 -4.233527E-10
       415  17 -1.182013E+06  2.347617E+04  1.632517E+04 -1.767347E+02 -7.800859E-11 -4.531049E-10
       415  18 -1.173411E+06  2.021528E+04  1.288499E+04  3.353812E+03  2.570374E-10  3.002183E-10
       415  19 -1.355226E+06 -2.002970E+04 -2.334144E+04  3.864884E+03 -2.469698E+03 -2.004369E+03
       415  20 -1.363812E+06 -2.178523E+04 -2.792886E+04  3.363448E+02 -5.568366E+03 -2.374454E+03
       415  21 -1.374373E+06 -2.983036E+04 -3.610873E+04  5.629826E+03 -8.667172E+03 -2.483486E+03
       415  22 -1.273892E+06  2.280641E+02 -3.509960E+03  4.489693E+03 -2.673168E+03 -2.004468E+03
       415  23 -1.272916E+06  8.457835E+02 -5.801508E+03  7.982987E+01 -5.665894E+03 -2.374476E+03
       415  24 -1.273897E+06 -4.807154E+03 -1.161143E+04  4.491920E+03 -8.658803E+03 -2.483440E+03
       415  25 -1.192552E+06  2.048534E+04  1.632104E+04  5.114582E+03 -2.876665E+03 -2.004567E+03
       415  26 -1.182013E+06  2.347618E+04  1.632524E+04 -1.767237E+02 -5.763435E+03 -2.374498E+03
       415  27 -1.173411E+06  2.021531E+04  1.288514E+04  3.353829E+03 -8.650434E+03 -2.483394E+03
       416   1 -1.393296E+06 -2.713670E+04 -4.253278E+04 -4.390061E+02  1.020563E+04  3.074797E+03
       416   2 -1.394700E+06 -2.421866E+04 -5.273684E+04  3.213680E+03  2.336213E+04  3.453392E+03
       416   3 -1.410911E+06 -7.371770E+04 -8.462062E+04  1.490024E+04  3.651886E+04  1.171250E+03
       416   4 -1.276705E+06  1.895716E+03 -1.415626E+04  4.312075E+03  1.090119E+04  3.075099E+03
       416   5 -1.269410E+06  6.965139E+03 -2.228346E+04  2.995442E+02  2.297600E+04  3.453127E+03
       416   6 -1.276732E+06 -4.018898E+04 -5.133500E+04  4.321095E+03  3.505126E+04  1.170331E+03
       416   7 -1.160102E+06  3.092721E+04  1.421928E+04  9.064051E+03  1.159688E+04  3.075412E+03
       416   8 -1.144106E+06  3.814781E+04  8.168799E+03 -2.615183E+03  2.258978E+04  3.452866E+03
       416   9 -1.142536E+06 -6.661181E+03 -1.805065E+04 -6.260342E+03  3.358334E+04  1.169461E+03
       416  10 -1.393296E+06 -2.713674E+04 -4.253299E+04 -4.390314E+02  4.962337E-11  6.312560E-12
       416  11 -1.394700E+06 -2.421882E+04 -5.273789E+04  3.213615E+03 -1.791879E-10  2.574188E-10
       416  12 -1.410913E+06 -7.371806E+04 -8.462314E+04  1.490020E+04 -1.647918E-10  3.113820E-10
       416  13 -1.276705E+06  1.895674E+03 -1.415650E+04  4.312048E+03  1.112850E-09 -5.218705E-10
       416  14 -1.269411E+06  6.964984E+03 -2.228447E+04  2.994803E+02 -9.046709E-11  1.389222E-10
       416  15 -1.276733E+06 -4.018931E+04 -5.133731E+04  4.321062E+03  1.954969E-10 -4.826360E-11
       416  16 -1.160102E+06  3.092717E+04  1.421901E+04  9.064023E+03  4.821758E-11  3.474014E-10
       416  17 -1.144106E+06  3.814766E+04  8.167816E+03 -2.615246E+03  1.557564E-10  1.591140E-11
       416  18 -1.142537E+06 -6.661486E+03 -1.805277E+04 -6.260373E+03 -3.480813E-10  2.032435E-10
       416  19 -1.393296E+06 -2.713670E+04 -4.253278E+04 -4.390061E+02 -1.020563E+04 -3.074797E+03
       416  20 -1.394700E+06 -2.421866E+04 -5.273684E+04  3.213680E+03 -2.336213E+04 -3.453392E+03
       416  21 -1.410911E+06 -7.371770E+04 -8.462062E+04  1.490024E+04 -3.651886E+04 -1.171250E+03
       416  22 -1.276705E+06  1.895716E+03 -1.415626E+04  4.312075E+03 -1.090119E+04 -3.075099E+03
       416  23 -1.269410E+06  6.965139E+03 -2.228346E+04  2.995442E+02 -2.297600E+04 -3.453127E+03
       416  24 -1.276732E+06 -4.018898E+04 -5.133500E+04  4.321095E+03 -3.505126E+04 -1.170331E+03
       416  25 -1.160102E+06  3.092721E+04  1.421928E+04  9.064051E+03 -1.159688E+04 -3.075412E+03
       416  26 -1.144106E+06  3.814781E+04  8.168799E+03 -2.615183E+03 -2.258978E+04 -3.452866E+03
       416  27 -1.142536E+06 -6.661181E+03 -1.805065E+04 -6.260342E+03 -3.358334E+04 -1.169461E+03
       417   1  3.520263E+06  7.343814E+05  9.351565E+05  1.916796E+05  6.321723E+05 -1.615236E+02
       417   2  3.390048E+06 -1.118742E+05  4.134824E+05  5.374946E+04  4.145361E+05 -1.300684E+03
       417   3  3.522061E+06 -2.099514E+04  2.673830E+05 -8.454095E+04  1.968822E+05 -1.406894E+03
       417   4  3.468137E+06  7.212909E+05  9.222850E+05  4.250343E+02  6.315568E+05 -3.553375E+02
       417   5  3.337655E+06 -1.248804E+05  4.008066E+05  6.849168E+02  4.143203E+05 -1.335979E+03
       417   6  3.469312E+06 -3.401601E+04  2.546377E+05  5.587154E+02  1.970661E+05 -1.380013E+03
       417   7  3.416091E+06  7.083369E+05  9.094328E+05 -1.908136E+05  6.309414E+05 -5.487883E+02
       417   8  3.285270E+06 -1.378763E+05  3.881322E+05 -5.237516E+04  4.141046E+05 -1.371239E+03
       417   9  3.416581E+06 -4.701001E+04  2.418961E+05  8.565117E+04  1.972500E+05 -1.353079E+03
       417  10  3.519836E+06  7.342748E+05  9.344097E+05  1.916798E+05 -9.524177E-11 -5.033426E-10
       417  11  3.389865E+06 -1.119200E+05  4.131612E+05  5.374990E+04  1.380758E-09 -8.713358E-10
       417  12  3.522019E+06 -2.100548E+04  2.673106E+05 -8.454073E+04 -1.586813E-09 -1.006288E-09
       417  13  3.467710E+06  7.211845E+05  9.215396E+05  4.252146E+02  1.279158E-09 -2.033028E-10
       417  14  3.337472E+06 -1.249262E+05  4.004858E+05  6.853619E+02  1.148041E-09 -8.734216E-10
       417  15  3.469270E+06 -3.402637E+04  2.545652E+05  5.589341E+02 -1.297520E-09 -6.225225E-10
       417  16  3.415665E+06  7.082308E+05  9.086888E+05 -1.908133E+05  7.092014E-10 -5.355561E-10
       417  17  3.285087E+06 -1.379221E+05  3.878117E+05 -5.237471E+04  1.442787E-09 -9.402170E-10
       417  18  3.416539E+06 -4.702039E+04  2.418234E+05  8.565138E+04  2.672759E-09  4.219912E-10
       417  19  3.520263E+06  7.343814E+05  9.351565E+05  1.916796E+05 -6.321723E+05  1.615236E+02
       417  20  3.390048E+06 -1.118742E+05  4.134824E+05  5.374946E+04 -4.145361E+05  1.300684E+03
       417  21  3.522061E+06 -2.099514E+04  2.673830E+05 -8.454095E+04 -1.968822E+05  1.406894E+03
       417  22  3.468137E+06  7.212909E+05  9.222850E+05  4.250343E+02 -6.315568E+05  3.553375E+02
       417  23  3.337655E+06 -1.248804E+05  4.008066E+05  6.849168E+02 -4.143203E+05  1.335979E+03
       417  24  3.469312E+06 -3.401601E+04  2.546377E+05  5.587154E+02 -1.970661E+05  1.380013E+03
       417  25  3.416091E+06  7.083369E+05  9.094328E+05 -1.908136E+05 -6.309414E+05  5.487883E+02
       417  26  3.285270E+06 -1.378763E+05  3.881322E+05 -5.237516E+04 -4.141046E+05  1.371239E+03
       417  27  3.416581E+06 -4.701001E+04  2.418961E+05  8.565117E+04 -1.972500E+05  1.353079E+03
       418   1  3.472674E+06  9.965646E+04  2.219540E+05  2.138536E+04  1.566222E+05 -1.255478E+03
       418   2  3.456587E+06 -1.421198E+03  1.177551E+05  6.168114E+03  1.027012E+05 -1.400492E+03
       418   3  3.475595E+06  1.006750E+04  7.667257E+04 -1.031019E+04  4.878205E+04 -1.476617E+03
       418   4  3.418553E+06  8.623290E+04  2.088197E+05  3.017724E+02  1.565474E+05 -1.260793E+03
       418   5  3.401111E+06 -1.516557E+04  1.043191E+05  9.447815E+02  1.026576E+05 -1.401371E+03
       418   6  3.418761E+06 -3.998627E+03  6.291685E+04  3.268675E+02  4.876976E+04 -1.475797E+03
       418   7  3.364437E+06  7.281079E+04  1.956854E+05 -2.077998E+04  1.564726E+05 -1.266103E+03
       418   8  3.345638E+06 -2.891007E+04  9.088285E+04 -4.278086E+03  1.026140E+05 -1.402249E+03
       418   9  3.361930E+06 -1.806457E+04  4.916096E+04  1.096295E+04  4.875747E+04 -1.474978E+03
       418  10  3.472648E+06  9.964992E+04  2.219082E+05  2.138552E+04 -1.634016E-09 -2.022602E-10
       418  11  3.456576E+06 -1.424013E+03  1.177354E+05  6.168230E+03  8.374026E-10  1.616116E-10
       418  12  3.475593E+06  1.006687E+04  7.666812E+04 -1.031013E+04  3.079221E-11 -6.483333E-10
       418  13  3.418527E+06  8.622636E+04  2.087739E+05  3.019311E+02  1.297641E-09  3.527192E-10
       418  14  3.401100E+06 -1.516838E+04  1.042994E+05  9.448972E+02  1.548023E-09  2.335136E-10
       418  15  3.418759E+06 -3.999263E+03  6.291240E+04  3.269254E+02 -1.396010E-09 -7.053582E-10
       418  16  3.364411E+06  7.280426E+04  1.956396E+05 -2.077982E+04  6.594816E-10  2.082481E-10
       418  17  3.345627E+06 -2.891288E+04  9.086317E+04 -4.277970E+03  6.076389E-10 -5.480706E-10
       418  18  3.361928E+06 -1.806521E+04  4.915651E+04  1.096301E+04 -4.761133E-10 -4.985769E-11
       418  19  3.472674E+06  9.965646E+04  2.219540E+05  2.138536E+04 -1.566222E+05  1.255478E+03
       418  20  3.456587E+06 -1.421198E+03  1.177551E+05  6.168114E+03 -1.027012E+05  1.400492E+03
       418  21  3.475595E+06  1.006750E+04  7.667257E+04 -1.031019E+04 -4.878205E+04  1.476617E+03
       418  22  3.418553E+06  8.623290E+04  2.088197E+05  3.017724E+02 -1.565474E+05  1.260793E+03
       418  23  3.401111E+06 -1.516557E+04  1.043191E+05  9.447815E+02 -1.026576E+05  1.401371E+03
       418  24  3.418761E+06 -3.998627E+03  6.291685E+04  3.268675E+02 -4.876976E+04  1.475797E+03
       418  25  3.364437E+06  7.281079E+04  1.956854E+05 -2.077998E+04 -1.564726E+05  1.266103E+03
       418  26  3.345638E+06 -2.891007E+04  9.088285E+04 -4.278086E+03 -1.026140E+05  1.402249E+03
       418  27  3.361930E+06 -1.806457E+04  4.916096E+04  1.096295E+04 -4.875747E+04  1.474978E+03
       419   1  3.472225E+06  2.509947E+04  6.421403E+04  2.143060E+03  3.876902E+04 -1.506028E+03
       419   2  3.472196E+06  1.366911E+04  4.199347E+04  1.596303E+03  2.523959E+04 -1.600979E+03
       419   3  3.477287E+06  1.569374E+04  3.191084E+04 -1.262857E+03  1.171054E+04 -1.712046E+03
       419   4  3.412069E+06  1.019665E+04  4.963609E+04  8.201353E+01  3.873291E+04 -1.506178E+03
       419   5  3.409527E+06 -1.853251E+03  2.681404E+04  1.240256E+03  2.519798E+04 -1.601020E+03
       419   6  3.412107E+06 -4.464591E+02  1.613446E+04  8.607659E+01  1.166349E+04 -1.712054E+03
       419   7  3.351917E+06 -4.706409E+03  3.505790E+04 -1.978834E+03  3.869680E+04 -1.506327E+03
       419   8  3.346862E+06 -1.737589E+04  1.163432E+04  8.842443E+02  2.515637E+04 -1.601062E+03
       419   9  3.346930E+06 -1.658696E+04  3.577680E+02  1.434868E+03  1.161644E+04 -1.712062E+03
       419  10  3.472223E+06  2.509907E+04  6.421121E+04  2.143107E+03 -9.831843E-10 -1.147397E-09
       419  11  3.472195E+06  1.366893E+04  4.199227E+04  1.596336E+03 -3.249146E-09 -1.467179E-09
       419  12  3.477287E+06  1.569370E+04  3.191058E+04 -1.262841E+03 -7.018550E-10 -1.174749E-10
       419  13  3.412068E+06  1.019625E+04  4.963328E+04  8.206046E+01 -7.249407E-10 -5.689394E-10
       419  14  3.409527E+06 -1.853423E+03  2.681284E+04  1.240288E+03  1.565551E-10  1.341038E-10
       419  15  3.412107E+06 -4.464986E+02  1.613420E+04  8.609265E+01 -2.348015E-09 -7.024071E-10
       419  16  3.351915E+06 -4.706811E+03  3.505510E+04 -1.978787E+03 -5.808320E-10  6.472409E-12
       419  17  3.346861E+06 -1.737607E+04  1.163313E+04  8.842767E+02 -1.209194E-09 -2.895686E-10
       419  18  3.346930E+06 -1.658700E+04  3.575102E+02  1.434884E+03  1.053536E-10 -1.860951E-11
       419  19  3.472225E+06  2.509947E+04  6.421403E+04  2.143060E+03 -3.876902E+04  1.506028E+03
       419  20  3.472196E+06  1.366911E+04  4.199347E+04  1.596303E+03 -2.523959E+04  1.600979E+03
       419  21  3.477287E+06  1.569374E+04  3.191084E+04 -1.262857E+03 -1.171054E+04  1.712046E+03
       419  22  3.412069E+06  1.019665E+04  4.963609E+04  8.201353E+01 -3.873291E+04  1.506178E+03
       419  23  3.409527E+06 -1.853251E+03  2.681404E+04  1.240256E+03 -2.519798E+04  1.601020E+03
       419  24  3.412107E+06 -4.464591E+02  1.613446E+04  8.607659E+01 -1.166349E+04  1.712054E+03
       419  25  3.351917E+06 -4.706409E+03  3.505790E+04 -1.978834E+03 -3.869680E+04  1.506327E+03
       419  26  3.346862E+06 -1.737589E+04  1.163432E+04  8.842443E+02 -2.515637E+04  1.601062E+03
       419  27  3.346930E+06 -1.658696E+04  3.577680E+02  1.434868E+03 -1.161644E+04  1.712062E+03
       420   1  3.481852E+06  1.867880E+04  2.989832E+04 -2.061308E+01  9.107923E+03 -1.779867E+03
       420   2  3.485236E+06  1.820902E+04  2.604663E+04  1.598935E+03  5.131008E+03 -1.913270E+03
       420   3  3.489581E+06  1.946592E+04  2.520804E+04 -3.305327E+02  1.154066E+03 -2.073995E+03
       420   4  3.411179E+06  1.172508E+03  1.277144E+04 -1.905182E+02  9.058941E+03 -1.779906E+03
       420   5  3.410700E+06 -2.521467E+02  7.992693E+03  1.584245E+03  5.071225E+03 -1.913317E+03
       420   6  3.411184E+06  5.186104E+01  6.234714E+03 -1.900306E+02  1.083508E+03 -2.074054E+03
       420   7  3.340511E+06 -1.633415E+04 -4.355808E+03 -3.604047E+02  9.009964E+03 -1.779945E+03
       420   8  3.336169E+06 -1.871372E+04 -1.006165E+04  1.569556E+03  5.011450E+03 -1.913364E+03
       420   9  3.332793E+06 -1.936265E+04 -1.273906E+04 -4.954697E+01  1.012958E+03 -2.074113E+03
       420  10  3.481852E+06  1.867878E+04  2.989816E+04 -2.060004E+01  4.862258E-10  8.834246E-11
       420  11  3.485236E+06  1.820901E+04  2.604658E+04  1.598943E+03 -5.394840E-10 -9.320251E-10
       420  12  3.489581E+06  1.946592E+04  2.520803E+04 -3.305308E+02 -1.085619E-09 -8.565878E-10
       420  13  3.411179E+06  1.172483E+03  1.277128E+04 -1.905053E+02  1.319794E-10  2.637582E-11
       420  14  3.410700E+06 -2.521575E+02  7.992638E+03  1.584253E+03 -6.958688E-10 -1.184616E-09
       420  15  3.411184E+06  5.185610E+01  6.234704E+03 -1.900288E+02  8.502068E-10  2.803360E-10
       420  16  3.340510E+06 -1.633418E+04 -4.355966E+03 -3.603918E+02  3.531064E-10  8.867034E-10
       420  17  3.336169E+06 -1.871373E+04 -1.006170E+04  1.569564E+03 -1.049550E-09 -1.446914E-09
       420  18  3.332793E+06 -1.936265E+04 -1.273907E+04 -4.954528E+01  9.286434E-10 -4.459676E-10
       420  19  3.481852E+06  1.867880E+04  2.989832E+04 -2.061308E+01 -9.107923E+03  1.779867E+03
       420  20  3.485236E+06  1.820902E+04  2.604663E+04  1.598935E+03 -5.131008E+03  1.913270E+03
       420  21  3.489581E+06  1.946592E+04  2.520804E+04 -3.305327E+02 -1.154066E+03  2.073995E+03
       420  22  3.411179E+06  1.172508E+03  1.277144E+04 -1.905182E+02 -9.058941E+03  1.779906E+03
       420  23  3.410700E+06 -2.521467E+02  7.992693E+03  1.584245E+03 -5.071225E+03  1.913317E+03
       420  24  3.411184E+06  5.186104E+01  6.234714E+03 -1.900306E+02 -1.083508E+03  2.074054E+03
       420  25  3.340511E+06 -1.633415E+04 -4.355808E+03 -3.604047E+02 -9.009964E+03  1.779945E+03
       420  26  3.336169E+06 -1.871372E+04 -1.006165E+04  1.569556E+03 -5.011450E+03  1.913364E+03
       420  27  3.332793E+06 -1.936265E+04 -1.273906E+04 -4.954697E+01 -1.012958E+03  2.074113E+03
       421   1  3.497623E+06  2.150511E+04  2.701468E+04 -3.478603E+02  4.188408E+01 -2.175088E+03
       421   2  3.502703E+06  2.256488E+04  2.930001E+04  2.056839E+03 -3.448838E+03 -2.366769E+03
       421   3  3.508620E+06  2.507567E+04  3.421604E+04 -5.948449E+02 -6.939530E+03 -2.589983E+03
       421   4  3.411156E+06  8.632802E+01  6.058355E+03 -5.250195E+02 -2.927543E+01 -2.175153E+03
       421   5  3.410735E+06 -2.136436E+02  7.024012E+03  2.002839E+03 -3.532471E+03 -2.366850E+03
       421   6  3.411153E+06  9.396998E+02  1.062926E+04 -5.257315E+02 -7.035605E+03 -2.590084E+03
       421   7  3.324697E+06 -2.133300E+04 -1.489850E+04 -7.021551E+02 -1.004251E+02 -2.175218E+03
       421   8  3.318775E+06 -2.299279E+04 -1.525259E+04  1.948846E+03 -3.616091E+03 -2.366932E+03
       421   9  3.313695E+06 -2.319696E+04 -1.295820E+04 -4.566306E+02 -7.131666E+03 -2.590186E+03
       421  10  3.497623E+06  2.150511E+04  2.701467E+04 -3.478602E+02 -1.514770E-09 -1.946392E-10
       421  11  3.502703E+06  2.256488E+04  2.929997E+04  2.056833E+03  6.460843E-10  1.138444E-09
       421  12  3.508620E+06  2.507565E+04  3.421594E+04 -5.948594E+02 -3.932303E-10  1.752083E-10
       421  13  3.411156E+06  8.632293E+01  6.058346E+03 -5.250195E+02  2.841057E-09  1.467096E-09
       421  14  3.410735E+06 -2.136529E+02  7.023979E+03  2.002833E+03  2.540135E-09  1.660398E-09
       421  15  3.411153E+06  9.396794E+02  1.062916E+04 -5.257462E+02  1.180011E-11  1.920050E-10
       421  16  3.324697E+06 -2.133301E+04 -1.489851E+04 -7.021553E+02  1.835932E-09  9.310150E-10
       421  17  3.318775E+06 -2.299280E+04 -1.525262E+04  1.948839E+03 -8.573112E-10  1.609612E-10
       421  18  3.313695E+06 -2.319698E+04 -1.295830E+04 -4.566455E+02 -7.515321E-10 -1.787872E-10
       421  19  3.497623E+06  2.150511E+04  2.701468E+04 -3.478603E+02 -4.188408E+01  2.175088E+03
       421  20  3.502703E+06  2.256488E+04  2.930001E+04  2.056839E+03  3.448838E+03  2.366769E+03
       421  21  3.508620E+06  2.507567E+04  3.421604E+04 -5.948449E+02  6.939530E+03  2.589983E+03
       421  22  3.411156E+06  8.632802E+01  6.058355E+03 -5.250195E+02  2.927543E+01  2.175153E+03
       421  23  3.410735E+06 -2.136436E+02  7.024012E+03  2.002839E+03  3.532471E+03  2.366850E+03
       421  24  3.411153E+06  9.396998E+02  1.062926E+04 -5.257315E+02  7.035605E+03  2.590084E+03
       421  25  3.324697E+06 -2.133300E+04 -1.489850E+04 -7.021551E+02  1.004251E+02  2.175218E+03
       421  26  3.318775E+06 -2.299279E+04 -1.525259E+04  1.948846E+03  3.616091E+03  2.366932E+03
       421  27  3.313695E+06 -2.319696E+04 -1.295820E+04 -4.566306E+02  7.131666E+03  2.590186E+03
       422   1  3.520609E+06  2.657314E+04  3.960976E+04  2.252428E+02 -9.083370E+03 -2.736800E+03
       422   2  3.526062E+06  2.730110E+04  4.991514E+04  2.332089E+03 -2.006122E+04 -3.009334E+03
       422   3  3.535682E+06  3.886955E+04  7.005611E+04 -2.508042E+03 -3.103909E+04 -3.290968E+03
       422   4  3.411895E+06 -3.585760E+02  1.326005E+04 -9.428233E+02 -9.188350E+03 -2.736900E+03
       422   5  3.409797E+06 -1.494380E+03  2.175517E+04  2.526586E+03 -2.016814E+04 -3.009476E+03
       422   6  3.411866E+06  8.211881E+03  4.008857E+04 -9.510749E+02 -3.114781E+04 -3.291199E+03
       422   7  3.303191E+06 -2.729115E+04 -1.309051E+04 -2.110688E+03 -9.293312E+03 -2.737000E+03
       422   8  3.293543E+06 -3.029084E+04 -6.405765E+03  2.721043E+03 -2.027503E+04 -3.009617E+03
       422   9  3.288065E+06 -2.244690E+04  1.011993E+04  6.055785E+02 -3.125651E+04 -3.291430E+03
       422  10  3.520609E+06  2.657311E+04  3.960960E+04  2.252228E+02 -3.792829E-10  1.217837E-09
       422  11  3.526062E+06  2.730098E+04  4.991437E+04  2.332040E+03 -3.241859E-09 -9.753003E-10
       422  12  3.535681E+06  3.886928E+04  7.005429E+04 -2.508124E+03  6.983117E-10  4.962255E-10
       422  13  3.411895E+06 -3.586066E+02  1.325988E+04 -9.428435E+02  7.206964E-11  6.546622E-10
       422  14  3.409796E+06 -1.494498E+03  2.175439E+04  2.526537E+03 -1.610143E-09  5.914673E-10
       422  15  3.411865E+06  8.211610E+03  4.008674E+04 -9.511574E+02 -3.803869E-10  6.027944E-13
       422  16  3.303191E+06 -2.729118E+04 -1.309069E+04 -2.110708E+03 -7.023323E-10 -5.742867E-10
       422  17  3.293543E+06 -3.029096E+04 -6.406550E+03  2.720994E+03 -1.692631E-09  6.114859E-10
       422  18  3.288063E+06 -2.244717E+04  1.011808E+04  6.054958E+02 -3.078006E-10  5.283118E-10
       422  19  3.520609E+06  2.657314E+04  3.960976E+04  2.252428E+02  9.083370E+03  2.736800E+03
       422  20  3.526062E+06  2.730110E+04  4.991514E+04  2.332089E+03  2.006122E+04  3.009334E+03
       422  21  3.535682E+06  3.886955E+04  7.005611E+04 -2.508042E+03  3.103909E+04  3.290968E+03
       422  22  3.411895E+06 -3.585760E+02  1.326005E+04 -9.428233E+02  9.188350E+03  2.736900E+03
       422  23  3.409797E+06 -1.494380E+03  2.175517E+04  2.526586E+03  2.016814E+04  3.009476E+03
       422  24  3.411866E+06  8.211881E+03  4.008857E+04 -9.510749E+02  3.114781E+04  3.291199E+03
       422  25  3.303191E+06 -2.729115E+04 -1.309051E+04 -2.110688E+03  9.293312E+03  2.737000E+03
       422  26  3.293543E+06 -3.029084E+04 -6.405765E+03  2.721043E+03  2.027503E+04  3.009617E+03
       422  27  3.288065E+06 -2.244690E+04  1.011993E+04  6.055785E+02  3.125651E+04  3.291430E+03
       423   1  3.556319E+06  3.123856E+04  8.447546E+04  7.227212E+03 -3.904091E+04 -3.547479E+03
       423   2  3.552252E+06  2.472848E+04  1.202446E+05 -8.748408E+02 -8.262900E+04 -3.959349E+03
       423   3  3.576542E+06  1.089370E+05  2.069725E+05 -1.838857E+04 -1.262200E+05 -4.049010E+03
       423   4  3.417263E+06 -3.227712E+03  5.077319E+04 -1.465092E+03 -3.925085E+04 -3.547211E+03
       423   5  3.403009E+06 -1.222166E+04  8.410768E+04  3.195889E+03 -8.269838E+04 -3.960045E+03
       423   6  3.417094E+06  6.949007E+04  1.683125E+05 -1.554621E+03 -1.261482E+05 -4.052418E+03
       423   7  3.278224E+06 -3.769511E+04  1.706958E+04 -1.015546E+04 -3.946073E+04 -3.546937E+03
       423   8  3.253786E+06 -4.917337E+04  4.796921E+04  7.265636E+03 -8.276775E+04 -3.960741E+03
       423   9  3.257670E+06  3.004240E+04  1.296509E+05  1.527501E+04 -1.260763E+05 -4.055823E+03
       423  10  3.556317E+06  3.123814E+04  8.447259E+04  7.227100E+03  3.689031E-11  3.460438E-11
       423  11  3.552244E+06  2.472664E+04  1.202318E+05 -8.751040E+02 -8.139740E-10 -1.460735E-09
       423  12  3.576524E+06  1.089327E+05  2.069427E+05 -1.838898E+04 -1.193635E-10 -1.891853E-09
       423  13  3.417261E+06 -3.228136E+03  5.077029E+04 -1.465204E+03  2.751326E-11 -4.368736E-10
       423  14  3.403001E+06 -1.222350E+04  8.409487E+04  3.195625E+03 -1.120517E-09 -1.092502E-09
       423  15  3.417077E+06  6.948581E+04  1.682828E+05 -1.555032E+03  1.968875E-10 -1.414632E-09
       423  16  3.278223E+06 -3.769554E+04  1.706664E+04 -1.015557E+04  1.782092E-10 -1.820768E-10
       423  17  3.253778E+06 -4.917521E+04  4.795638E+04  7.265372E+03  3.007200E-09  2.575383E-09
       423  18  3.257653E+06  3.003814E+04  1.296211E+05  1.527460E+04  1.565733E-09 -1.655236E-12
       423  19  3.556319E+06  3.123856E+04  8.447546E+04  7.227212E+03  3.904091E+04  3.547479E+03
       423  20  3.552252E+06  2.472848E+04  1.202446E+05 -8.748408E+02  8.262900E+04  3.959349E+03
       423  21  3.576542E+06  1.089370E+05  2.069725E+05 -1.838857E+04  1.262200E+05  4.049010E+03
       423  22  3.417263E+06 -3.227712E+03  5.077319E+04 -1.465092E+03  3.925085E+04  3.547211E+03
       423  23  3.403009E+06 -1.222166E+04  8.410768E+04  3.195889E+03  8.269838E+04  3.960045E+03
       423  24  3.417094E+06  6.949007E+04  1.683125E+05 -1.554621E+03  1.261482E+05  4.052418E+03
       423  25  3.278224E+06 -3.769511E+04  1.706958E+04 -1.015546E+04  3.946073E+04  3.546937E+03
       423  26  3.253786E+06 -4.917337E+04  4.796921E+04  7.265636E+03  8.276775E+04  3.960741E+03
       423  27  3.257670E+06  3.004240E+04  1.296509E+05  1.527501E+04  1.260763E+05  4.055823E+03
       424   1  3.637597E+06  1.727707E+04  2.487295E+05  6.673185E+04 -1.577832E+05 -4.976990E+03
       424   2  3.545238E+06 -5.292184E+04  3.696999E+05 -3.845411E+04 -3.345678E+05 -5.748542E+03
       424   3  3.664492E+06  6.322823E+05  7.942476E+05 -1.569207E+05 -5.113537E+05 -2.476235E+03
       424   4  3.458007E+06 -2.742846E+04  2.052286E+05 -2.048860E+03 -1.588017E+05 -4.961095E+03
       424   5  3.351840E+06 -1.006535E+05  3.229745E+05  4.100269E+03 -3.339070E+05 -5.770596E+03
       424   6  3.457038E+06  5.813135E+05  7.431967E+05 -3.010966E+03 -5.090092E+05 -2.598762E+03
       424   7  3.278456E+06 -7.211871E+04  1.617279E+05 -7.080972E+04 -1.598198E+05 -4.944971E+03
       424   8  3.158481E+06 -1.483811E+05  2.762474E+05  4.664141E+04 -3.332464E+05 -5.792566E+03
       424   9  3.249673E+06  5.304301E+05  6.921553E+05  1.508476E+05 -5.066655E+05 -2.720168E+03
       424  10  3.637570E+06  1.727041E+04  2.486830E+05  6.673122E+04  4.855659E-11 -2.388803E-09
       424  11  3.545118E+06 -5.295170E+04  3.694907E+05 -3.845566E+04 -3.250231E-09 -4.167445E-09
       424  12  3.664213E+06  6.322126E+05  7.937591E+05 -1.569217E+05 -1.791333E-09 -1.452415E-09
       424  13  3.457980E+06 -2.743521E+04  2.051814E+05 -2.049494E+03 -2.616059E-09 -6.629953E-09
       424  14  3.351721E+06 -1.006833E+05  3.227661E+05  4.098720E+03  3.756470E-09  2.353888E-09
       424  15  3.456761E+06  5.812444E+05  7.427125E+05 -3.012029E+03  6.776262E-10 -2.863884E-10
       424  16  3.278429E+06 -7.212555E+04  1.616801E+05 -7.081035E+04  6.917246E-10 -2.247780E-09
       424  17  3.158362E+06 -1.484108E+05  2.760397E+05  4.663986E+04  1.936615E-09  1.388719E-09
       424  18  3.249399E+06  5.303616E+05  6.916754E+05  1.508465E+05  4.892165E-10 -1.867008E-09
       424  19  3.637597E+06  1.727707E+04  2.487295E+05  6.673185E+04  1.577832E+05  4.976990E+03
       424  20  3.545238E+06 -5.292184E+04  3.696999E+05 -3.845411E+04  3.345678E+05  5.748542E+03
       424  21  3.664492E+06  6.322823E+05  7.942476E+05 -1.569207E+05  5.113537E+05  2.476235E+03
       424  22  3.458007E+06 -2.742846E+04  2.052286E+05 -2.048860E+03  1.588017E+05  4.961095E+03
       424  23  3.351840E+06 -1.006535E+05  3.229745E+05  4.100269E+03  3.339070E+05  5.770596E+03
       424  24  3.457038E+06  5.813135E+05  7.431967E+05 -3.010966E+03  5.090092E+05  2.598762E+03
       424  25  3.278456E+06 -7.211871E+04  1.617279E+05 -7.080972E+04  1.598198E+05  4.944971E+03
       424  26  3.158481E+06 -1.483811E+05  2.762474E+05  4.664141E+04  3.332464E+05  5.792566E+03
       424  27  3.249673E+06  5.304301E+05  6.921553E+05  1.508476E+05  5.066655E+05  2.720168E+03
       425   1  6.010013E+05  1.941901E+05  1.802893E+05  5.408242E+04  6.223009E+04 -1.171796E+04
       425   2  5.433371E+05  1.844768E+05  1.382434E+05  5.526234E+04  2.935167E+04 -4.019687E+04
       425   3  4.894608E+05  1.727364E+05  1.171202E+05  6.570640E+04 -3.552321E+03 -4.973935E+04
       425   4 -2.575852E+05 -1.729164E+04 -1.896424E+04  6.430783E+04 -1.328789E+04 -1.185497E+04
       425   5 -2.561857E+05 -4.900858E+03 -9.392799E+03  5.965978E+04 -8.409988E+03 -4.027407E+04
       425   6 -2.575551E+05 -1.092852E+03 -5.109751E+03  6.427550E+04 -3.561836E+03 -4.974492E+04
       425   7 -1.115479E+06 -2.288218E+05 -2.182458E+05  7.451868E+04 -8.870224E+04 -1.199457E+04
       425   8 -1.055086E+06 -1.943141E+05 -1.570503E+05  6.405110E+04 -4.612431E+04 -4.035186E+04
       425   9 -1.004019E+06 -1.749506E+05 -1.273556E+05  6.284609E+04 -3.571339E+03 -4.975049E+04
       425  10  6.009971E+05  1.941889E+05  1.802818E+05  5.408301E+04  4.080499E-09 -8.467497E-10
       425  11  5.433358E+05  1.844748E+05  1.382388E+05  5.526329E+04  9.795653E-10 -4.121708E-09
       425  12  4.894601E+05  1.727337E+05  1.171155E+05  6.570626E+04 -4.029899E-10 -3.837359E-09
       425  13 -2.575855E+05 -1.729184E+04 -1.896484E+04  6.430770E+04  4.442632E-10  1.578597E-09
       425  14 -2.561862E+05 -4.902619E+03 -9.395979E+03  5.965951E+04  8.141640E-10 -2.746382E-09
       425  15 -2.575558E+05 -1.095512E+03 -5.114425E+03  6.427536E+04  2.393014E-09  2.438337E-10
       425  16 -1.115487E+06 -2.288241E+05 -2.182609E+05  7.451782E+04 -4.668398E-09 -2.457110E-10
       425  17 -1.055088E+06 -1.943165E+05 -1.570573E+05  6.404960E+04 -1.344842E-09 -6.920592E-09
       425  18 -1.004019E+06 -1.749533E+05 -1.273603E+05  6.284594E+04  1.827158E-09 -6.042261E-09
       425  19  6.010013E+05  1.941901E+05  1.802893E+05  5.408242E+04 -6.223009E+04  1.171796E+04
       425  20  5.433371E+05  1.844768E+05  1.382434E+05  5.526234E+04 -2.935167E+04  4.019687E+04
       425  21  4.894608E+05  1.727364E+05  1.171202E+05  6.570640E+04  3.552321E+03  4.973935E+04
       425  22 -2.575852E+05 -1.729164E+04 -1.896424E+04  6.430783E+04  1.328789E+04  1.185497E+04
       425  23 -2.561857E+05 -4.900858E+03 -9.392799E+03  5.965978E+04  8.409988E+03  4.027407E+04
       425  24 -2.575551E+05 -1.092852E+03 -5.109751E+03  6.427550E+04  3.561836E+03  4.974492E+04
       425  25 -1.115479E+06 -2.288218E+05 -2.182458E+05  7.451868E+04  8.870224E+04  1.199457E+04
       425  26 -1.055086E+06 -1.943141E+05 -1.570503E+05  6.405110E+04  4.612431E+04  4.035186E+04
       425  27 -1.004019E+06 -1.749506E+05 -1.273556E+05  6.284609E+04  3.571339E+03  4.975049E+04
       426   1  4.537141E+05  1.640125E+05  1.101225E+05  6.517986E+04 -2.331761E+03 -4.910913E+04
       426   2  3.978192E+05  1.510326E+05  9.884932E+04  6.015794E+04 -5.461058E+03 -4.835364E+04
       426   3  3.423532E+05  1.382215E+05  8.965180E+04  6.573597E+04 -8.595676E+03 -4.549928E+04
       426   4 -2.569969E+05 -9.044094E+02 -3.849755E+03  6.457543E+04 -2.901470E+03 -4.911562E+04
       426   5 -2.568349E+05 -7.712729E+01 -2.105548E+03  5.927386E+04 -1.847810E+03 -4.835049E+04
       426   6 -2.569723E+05  1.932325E+02 -1.189695E+03  6.457295E+04 -7.996789E+02 -4.548536E+04
       426   7 -9.672061E+05 -1.658468E+05 -1.178354E+05  6.397143E+04 -3.470550E+03 -4.912211E+04
       426   8 -9.110607E+05 -1.512076E+05 -1.030700E+05  5.839050E+04  1.761775E+03 -4.834736E+04
       426   9 -8.559378E+05 -1.378522E+05 -9.203841E+04  6.341088E+04  6.989092E+03 -4.547146E+04
       426  10  4.537135E+05  1.640099E+05  1.101180E+05  6.517976E+04 -6.187172E-09 -4.229235E-09
       426  11  3.978186E+05  1.510301E+05  9.884487E+04  6.015773E+04 -1.923736E-09  1.179432E-09
       426  12  3.423526E+05  1.382193E+05  8.964777E+04  6.573565E+04  1.634988E-09  2.108439E-09
       426  13 -2.569975E+05 -9.070018E+02 -3.854304E+03  6.457531E+04  5.404634E-10 -2.099456E-09
       426  14 -2.568355E+05 -7.963826E+01 -2.109947E+03  5.927379E+04  3.891633E-12  9.774785E-10
       426  15 -2.569729E+05  1.910110E+02 -1.193584E+03  6.457292E+04  1.749937E-09 -2.388320E-09
       426  16 -9.672068E+05 -1.658494E+05 -1.178400E+05  6.397130E+04  5.937701E-09  1.213710E-10
       426  17 -9.110613E+05 -1.512102E+05 -1.030744E+05  5.839057E+04  1.387679E-09  1.882416E-09
       426  18 -8.559384E+05 -1.378544E+05 -9.204239E+04  6.341113E+04 -1.040919E-09  5.058927E-10
       426  19  4.537141E+05  1.640125E+05  1.101225E+05  6.517986E+04  2.331761E+03  4.910913E+04
       426  20  3.978192E+05  1.510326E+05  9.884932E+04  6.015794E+04  5.461058E+03  4.835364E+04
       426  21  3.423532E+05  1.382215E+05  8.965180E+04  6.573597E+04  8.595676E+03  4.549928E+04
       426  22 -2.569969E+05 -9.044094E+02 -3.849755E+03  6.457543E+04  2.901470E+03  4.911562E+04
       426  23 -2.568349E+05 -7.712729E+01 -2.105548E+03  5.927386E+04  1.847810E+03  4.835049E+04
       426  24 -2.569723E+05  1.932325E+02 -1.189695E+03  6.457295E+04  7.996789E+02  4.548536E+04
       426  25 -9.672061E+05 -1.658468E+05 -1.178354E+05  6.397143E+04  3.470550E+03  4.912211E+04
       426  26 -9.110607E+05 -1.512076E+05 -1.030700E+05  5.839050E+04 -1.761775E+03  4.834736E+04
       426  27 -8.559378E+05 -1.378522E+05 -9.203841E+04  6.341088E+04 -6.989092E+03  4.547146E+04
       427   1  3.070756E+05  1.300140E+05  8.415274E+04  6.565576E+04 -8.359971E+03 -4.315214E+04
       427   2  2.513570E+05  1.171522E+05  7.579018E+04  6.020444E+04 -8.577776E+03 -3.915448E+04
       427   3  1.956498E+05  1.043855E+05  6.758078E+04  6.550712E+04 -8.797430E+03 -3.492333E+04
       427   4 -2.569141E+05  2.077653E+02 -9.020700E+02  6.460739E+04 -6.243125E+02 -4.313751E+04
       427   5 -2.568683E+05  2.449343E+02 -5.143536E+02  5.923004E+04 -3.773048E+02 -3.913744E+04
       427   6 -2.568949E+05  2.966671E+02 -2.964730E+02  6.460720E+04 -1.321648E+02 -3.490378E+04
       427   7 -8.205847E+05 -1.296136E+05 -8.596309E+04  6.355981E+04  7.104600E+03 -4.312290E+04
       427   8 -7.648342E+05 -1.166745E+05 -7.682374E+04  5.825630E+04  7.816723E+03 -3.912042E+04
       427   9 -7.092339E+05 -1.038018E+05 -6.817747E+04  6.370782E+04  8.527038E+03 -3.488425E+04
       427  10  3.070750E+05  1.300120E+05  8.414911E+04  6.565547E+04  8.511589E-09  2.466559E-09
       427  11  2.513565E+05  1.171505E+05  7.578716E+04  6.020417E+04 -1.792598E-08  2.008416E-09
       427  12  1.956494E+05  1.043841E+05  6.757835E+04  6.550688E+04 -4.320857E-08 -2.491673E-09
       427  13 -2.569146E+05  2.057672E+02 -9.055672E+02  6.460737E+04 -8.740446E-10 -3.245060E-09
       427  14 -2.568687E+05  2.432896E+02 -5.172320E+02  5.923003E+04 -7.171272E-12  1.556136E-09
       427  15 -2.568952E+05  2.953590E+02 -2.987621E+02  6.460720E+04  3.010347E-09  4.305252E-09
       427  16 -8.205852E+05 -1.296156E+05 -8.596667E+04  6.356006E+04 -8.583314E-09  9.865241E-10
       427  17 -7.648347E+05 -1.166762E+05 -7.682673E+04  5.825655E+04  1.792232E-08  3.484473E-09
       427  18 -7.092343E+05 -1.038031E+05 -6.817990E+04  6.370806E+04  4.416244E-08 -1.282088E-09
       427  19  3.070756E+05  1.300140E+05  8.415274E+04  6.565576E+04  8.359971E+03  4.315214E+04
       427  20  2.513570E+05  1.171522E+05  7.579018E+04  6.020444E+04  8.577776E+03  3.915448E+04
       427  21  1.956498E+05  1.043855E+05  6.758078E+04  6.550712E+04  8.797430E+03  3.492333E+04
       427  22 -2.569141E+05  2.077653E+02 -9.020700E+02  6.460739E+04  6.243125E+02  4.313751E+04
       427  23 -2.568683E+05  2.449343E+02 -5.143536E+02  5.923004E+04  3.773048E+02  3.913744E+04
       427  24 -2.568949E+05  2.966671E+02 -2.964730E+02  6.460720E+04  1.321648E+02  3.490378E+04
       427  25 -8.205847E+05 -1.296136E+05 -8.596309E+04  6.355981E+04 -7.104600E+03  4.312290E+04
       427  26 -7.648342E+05 -1.166745E+05 -7.682374E+04  5.825630E+04 -7.816723E+03  3.912042E+04
       427  27 -7.092339E+05 -1.038018E+05 -6.817747E+04  6.370782E+04 -8.527038E+03  3.488425E+04
       428   1  1.604113E+05  9.624045E+04  6.213187E+04  6.544632E+04 -8.750748E+03 -3.238431E+04
       428   2  1.046859E+05  8.342033E+04  5.393684E+04  5.995577E+04 -8.742631E+03 -2.802517E+04
       428   3  4.892056E+04  7.066398E+04  4.573530E+04  6.524159E+04 -8.735557E+03 -2.364032E+04
       428   4 -2.568847E+05  3.033307E+02 -2.282839E+02  6.461215E+04 -9.084038E+01 -3.236408E+04
       428   5 -2.568515E+05  2.898986E+02 -1.398388E+02  5.922377E+04 -3.196072E+01 -2.800382E+04
       428   6 -2.568711E+05  3.312836E+02 -9.363685E+01  6.461210E+04  2.587584E+01 -2.361785E+04
       428   7 -6.740057E+05 -9.564197E+04 -6.259152E+04  6.377845E+04  8.563482E+03 -3.234386E+04
       428   8 -6.182575E+05 -8.284667E+04 -5.421877E+04  5.849212E+04  8.673841E+03 -2.798249E+04
       428   9 -5.625686E+05 -7.000580E+04 -4.592412E+04  6.398288E+04  8.783166E+03 -2.359539E+04
       428  10  1.604109E+05  9.623931E+04  6.212976E+04  6.544609E+04  5.624093E-08 -1.907930E-09
       428  11  1.046856E+05  8.341946E+04  5.393522E+04  5.995558E+04  2.296831E-08  5.203200E-09
       428  12  4.892033E+04  7.066336E+04  4.573411E+04  6.524143E+04 -1.147698E-08  6.662680E-09
       428  13 -2.568850E+05  3.022060E+02 -2.302520E+02  6.461215E+04  5.070316E-10 -1.729507E-09
       428  14 -2.568517E+05  2.890566E+02 -1.413123E+02  5.922377E+04 -1.862348E-10  5.349064E-09
       428  15 -2.568712E+05  3.306847E+02 -9.468495E+01  6.461210E+04  1.010822E-09  2.502170E-09
       428  16 -6.740060E+05 -9.564312E+04 -6.259362E+04  6.377867E+04 -5.629367E-08 -2.945654E-09
       428  17 -6.182577E+05 -8.284753E+04 -5.422038E+04  5.849231E+04 -2.300525E-08 -4.300315E-10
       428  18 -5.625689E+05 -7.000642E+04 -4.592531E+04  6.398304E+04  1.264901E-08  2.098795E-09
       428  19  1.604113E+05  9.624045E+04  6.213187E+04  6.544632E+04  8.750748E+03  3.238431E+04
       428  20  1.046859E+05  8.342033E+04  5.393684E+04  5.995577E+04  8.742631E+03  2.802517E+04
       428  21  4.892056E+04  7.066398E+04  4.573530E+04  6.524159E+04  8.735557E+03  2.364032E+04
       428  22 -2.568847E+05  3.033307E+02 -2.282839E+02  6.461215E+04  9.084038E+01  3.236408E+04
       428  23 -2.568515E+05  2.898986E+02 -1.398388E+02  5.922377E+04  3.196072E+01  2.800382E+04
       428  24 -2.568711E+05  3.312836E+02 -9.363685E+01  6.461210E+04 -2.587584E+01  2.361785E+04
       428  25 -6.740057E+05 -9.564197E+04 -6.259152E+04  6.377845E+04 -8.563482E+03  3.234386E+04
       428  26 -6.182575E+05 -8.284667E+04 -5.421877E+04  5.849212E+04 -8.673841E+03  2.798249E+04
       428  27 -5.625686E+05 -7.000580E+04 -4.592412E+04  6.398288E+04 -8.783166E+03  2.359539E+04
       429   1  1.366941E+04  6.252051E+04  4.025403E+04  6.517383E+04 -8.726474E+03 -2.107936E+04
       429   2 -4.206760E+04  4.969836E+04  3.201439E+04  5.966623E+04 -8.686522E+03 -1.668354E+04
       429   3 -9.786223E+04  3.693117E+04  2.374182E+04  6.494384E+04 -8.647142E+03 -1.229314E+04
       429   4 -2.568684E+05  3.366931E+02 -8.337469E+01  6.461403E+04  3.536478E+01 -2.105642E+04
       429   5 -2.568353E+05  3.172380E+02 -8.138945E+01  5.922131E+04  6.419367E+01 -1.666004E+04
       429   6 -2.568603E+05  3.549708E+02 -1.045726E+02  6.461400E+04  9.245402E+01 -1.226909E+04
       429   7 -5.273324E+05 -6.185053E+04 -4.042189E+04  6.405443E+04  8.793539E+03 -2.103350E+04
       429   8 -4.715565E+05 -4.906602E+04 -3.217777E+04  5.877651E+04  8.812004E+03 -1.663656E+04
       429   9 -4.158327E+05 -3.622238E+04 -2.395117E+04  6.428423E+04  8.829901E+03 -1.224504E+04
       429  10  1.366921E+04  6.252001E+04  4.025305E+04  6.517368E+04  1.388579E-07  4.745139E-09
       429  11 -4.206776E+04  4.969804E+04  3.201373E+04  5.966611E+04  4.286111E-09  3.704717E-09
       429  12 -9.786235E+04  3.693099E+04  2.374139E+04  6.494375E+04 -1.312435E-07  1.119036E-09
       429  13 -2.568685E+05  3.362170E+02 -8.420778E+01  6.461403E+04  9.336451E-10  1.112596E-08
       429  14 -2.568354E+05  3.169400E+02 -8.191098E+01  5.922131E+04 -5.007793E-10  3.507427E-09
       429  15 -2.568603E+05  3.548091E+02 -1.048555E+02  6.461400E+04  1.755469E-09 -1.948675E-09
       429  16 -5.273326E+05 -6.185102E+04 -4.042286E+04  6.405458E+04 -1.388693E-07  6.245089E-09
       429  17 -4.715566E+05 -4.906634E+04 -3.217844E+04  5.877663E+04 -4.436234E-09  7.038516E-10
       429  18 -4.158328E+05 -3.622257E+04 -2.395160E+04  6.428432E+04  1.331837E-07  4.990751E-10
       429  19  1.366941E+04  6.252051E+04  4.025403E+04  6.517383E+04  8.726474E+03  2.107936E+04
       429  20 -4.206760E+04  4.969836E+04  3.201439E+04  5.966623E+04  8.686522E+03  1.668354E+04
       429  21 -9.786223E+04  3.693117E+04  2.374182E+04  6.494384E+04  8.647142E+03  1.229314E+04
       429  22 -2.568684E+05  3.366931E+02 -8.337469E+01  6.461403E+04 -3.536478E+01  2.105642E+04
       429  23 -2.568353E+05  3.172380E+02 -8.138945E+01  5.922131E+04 -6.419367E+01  1.666004E+04
       429  24 -2.568603E+05  3.549708E+02 -1.045726E+02  6.461400E+04 -9.245402E+01  1.226909E+04
       429  25 -5.273324E+05 -6.185053E+04 -4.042189E+04  6.405443E+04 -8.793539E+03  2.103350E+04
       429  26 -4.715565E+05 -4.906602E+04 -3.217777E+04  5.877651E+04 -8.812004E+03  1.663656E+04
       429  27 -4.158327E+05 -3.622238E+04 -2.395117E+04  6.428423E+04 -8.829901E+03  1.224504E+04
       430   1 -1.331268E+05  2.878099E+04  1.821776E+04  6.486505E+04 -8.635823E+03 -9.735929E+03
       430   2 -1.888516E+05  1.593818E+04  9.835512E+03  5.935508E+04 -8.386716E+03 -5.385269E+03
       430   3 -2.446752E+05  3.110184E+03  1.272809E+03  6.462677E+04 -8.137606E+03 -1.113592E+03
       430   4 -2.568621E+05  3.585503E+02 -1.282613E+02  6.461317E+04  1.063669E+02 -9.711639E+03
       430   5 -2.568235E+05  3.311862E+02 -2.084954E+02  5.922232E+04  1.977864E+02 -5.361235E+03
       430   6 -2.568595E+05  3.461019E+02 -3.598529E+02  6.461321E+04  2.892311E+02 -1.089819E+03
       430   7 -3.805817E+05 -2.806457E+04 -1.847428E+04  6.436132E+04  8.846885E+03 -9.687354E+03
       430   8 -3.247905E+05 -1.527598E+04 -1.025231E+04  5.908957E+04  8.781387E+03 -5.337204E+03
       430   9 -2.690435E+05 -2.417949E+03 -1.992249E+03  6.459964E+04  8.715910E+03 -1.066046E+03
       430  10 -1.331269E+05  2.878087E+04  1.821744E+04  6.486499E+04 -4.930647E-09  3.081580E-09
       430  11 -1.888517E+05  1.593813E+04  9.835325E+03  5.935504E+04 -3.534488E-09  8.059475E-10
       430  12 -2.446752E+05  3.110165E+03  1.272682E+03  6.462677E+04 -4.451229E-09  1.261230E-09
       430  13 -2.568621E+05  3.584490E+02 -1.284385E+02  6.461317E+04 -5.511021E-10  5.133811E-10
       430  14 -2.568235E+05  3.311553E+02 -2.085495E+02  5.922232E+04 -2.720153E-10 -1.140929E-09
       430  15 -2.568595E+05  3.461006E+02 -3.598553E+02  6.461321E+04  2.640165E-09  1.124029E-09
       430  16 -3.805818E+05 -2.806469E+04 -1.847460E+04  6.436139E+04  4.098821E-09  3.480177E-09
       430  17 -3.247906E+05 -1.527603E+04 -1.025251E+04  5.908961E+04  3.920195E-09 -7.823476E-09
       430  18 -2.690436E+05 -2.417970E+03 -1.992394E+03  6.459965E+04  6.055450E-09 -2.291242E-09
       430  19 -1.331268E+05  2.878099E+04  1.821776E+04  6.486505E+04  8.635823E+03  9.735929E+03
       430  20 -1.888516E+05  1.593818E+04  9.835512E+03  5.935508E+04  8.386716E+03  5.385269E+03
       430  21 -2.446752E+05  3.110184E+03  1.272809E+03  6.462677E+04  8.137606E+03  1.113592E+03
       430  22 -2.568621E+05  3.585503E+02 -1.282613E+02  6.461317E+04 -1.063669E+02  9.711639E+03
       430  23 -2.568235E+05  3.311862E+02 -2.084954E+02  5.922232E+04 -1.977864E+02  5.361235E+03
       430  24 -2.568595E+05  3.461019E+02 -3.598529E+02  6.461321E+04 -2.892311E+02  1.089819E+03
       430  25 -3.805817E+05 -2.806457E+04 -1.847428E+04  6.436132E+04 -8.846885E+03  9.687354E+03
       430  26 -3.247905E+05 -1.527598E+04 -1.025231E+04  5.908957E+04 -8.781387E+03  5.337204E+03
       430  27 -2.690435E+05 -2.417949E+03 -1.992249E+03  6.459964E+04 -8.715910E+03  1.066046E+03
       431   1 -2.799960E+05 -5.072392E+03 -4.435168E+03  6.451022E+04 -8.094038E+03  1.379460E+03
       431   2 -3.355619E+05 -1.810076E+04 -1.367657E+04  5.915497E+04 -6.258359E+03  5.268186E+03
       431   3 -3.915438E+05 -3.156190E+04 -2.424277E+04  6.453180E+04 -4.420783E+03  8.439048E+03
       431   4 -2.568811E+05  3.448491E+02 -4.732790E+02  6.460202E+04  3.538635E+02  1.403285E+03
       431   5 -2.567968E+05  2.262222E+02 -8.335622E+02  5.923661E+04  7.598079E+02  5.287806E+03
       431   6 -2.568842E+05 -7.695135E+01 -1.525743E+03  6.460318E+04  1.167826E+03  8.454511E+03
       431   7 -2.337656E+05  5.762100E+03  3.488860E+03  6.469382E+04  8.802069E+03  1.427112E+03
       431   8 -1.780255E+05  1.855291E+04  1.200946E+04  5.931825E+04  7.778834E+03  5.307426E+03
       431   9 -1.222066E+05  3.140706E+04  2.119083E+04  6.467457E+04  6.757609E+03  8.469973E+03
       431  10 -2.799961E+05 -5.072412E+03 -4.435294E+03  6.451023E+04 -5.646347E-09  4.565887E-09
       431  11 -3.355619E+05 -1.810080E+04 -1.367670E+04  5.915499E+04  9.771640E-10 -1.189207E-09
       431  12 -3.915439E+05 -3.156198E+04 -2.424294E+04  6.453183E+04  4.730194E-09  3.561732E-09
       431  13 -2.568811E+05  3.448470E+02 -4.732829E+02  6.460202E+04 -3.830660E-13  2.821401E-09
       431  14 -2.567968E+05  2.261921E+02 -8.336158E+02  5.923660E+04 -2.738823E-10  3.399407E-09
       431  15 -2.568842E+05 -7.702847E+01 -1.525880E+03  6.460318E+04  1.590009E-09  1.264032E-09
       431  16 -2.337657E+05  5.762077E+03  3.488711E+03  6.469381E+04  5.842949E-09  9.496032E-10
       431  17 -1.780256E+05  1.855287E+04  1.200929E+04  5.931822E+04  2.159934E-10 -3.872391E-10
       431  18 -1.222067E+05  3.140697E+04  2.119061E+04  6.467453E+04 -4.255399E-09 -7.036128E-09
       431  19 -2.799960E+05 -5.072392E+03 -4.435168E+03  6.451022E+04  8.094038E+03 -1.379460E+03
       431  20 -3.355619E+05 -1.810076E+04 -1.367657E+04  5.915497E+04  6.258359E+03 -5.268186E+03
       431  21 -3.915438E+05 -3.156190E+04 -2.424277E+04  6.453180E+04  4.420783E+03 -8.439048E+03
       431  22 -2.568811E+05  3.448491E+02 -4.732790E+02  6.460202E+04 -3.538635E+02 -1.403285E+03
       431  23 -2.567968E+05  2.262222E+02 -8.335622E+02  5.923661E+04 -7.598079E+02 -5.287806E+03
       431  24 -2.568842E+05 -7.695135E+01 -1.525743E+03  6.460318E+04 -1.167826E+03 -8.454511E+03
       431  25 -2.337656E+05  5.762100E+03  3.488860E+03  6.469382E+04 -8.802069E+03 -1.427112E+03
       431  26 -1.780255E+05  1.855291E+04  1.200946E+04  5.931825E+04 -7.778834E+03 -5.307426E+03
       431  27 -1.222066E+05  3.140706E+04  2.119083E+04  6.467457E+04 -6.757609E+03 -8.469973E+03
       432   1 -4.273971E+05 -4.005493E+04 -3.118411E+04  6.403577E+04 -4.355584E+03  1.034482E+04
       432   2 -4.815130E+05 -5.533825E+04 -4.699388E+04  6.111733E+04  1.045784E+04  1.004828E+04
       432   3 -5.390263E+05 -7.624389E+04 -7.387073E+04  6.847885E+04  2.528674E+04  3.270149E+03
       432   4 -2.571052E+05 -1.494256E+02 -2.025476E+03  6.450104E+04  1.424512E+03  1.036064E+04
       432   5 -2.565311E+05 -1.681073E+03 -3.721188E+03  5.936983E+04  3.335152E+03  1.002840E+04
       432   6 -2.571142E+05 -6.592475E+03 -7.518595E+03  6.451858E+04  5.262524E+03  3.215537E+03
       432   7 -8.678463E+04  3.975455E+04  2.713232E+04  6.496642E+04  7.206145E+03  1.037647E+04
       432   8 -3.150034E+04  5.197314E+04  3.954937E+04  5.762165E+04 -3.790059E+03  1.000856E+04
       432   9  2.487196E+04  6.305355E+04  5.882959E+04  6.055645E+04 -1.477074E+04  3.161193E+03
       432  10 -4.273972E+05 -4.005505E+04 -3.118435E+04  6.403581E+04 -9.184193E-10  3.467545E-09
       432  11 -4.815132E+05 -5.533838E+04 -4.699428E+04  6.111724E+04 -5.059691E-10 -2.757605E-09
       432  12 -5.390270E+05 -7.624408E+04 -7.387195E+04  6.847878E+04 -2.589428E-09 -2.344241E-09
       432  13 -2.571052E+05 -1.495414E+02 -2.025681E+03  6.450103E+04  8.149792E-11  4.214076E-09
       432  14 -2.565311E+05 -1.681184E+03 -3.721397E+03  5.936980E+04  1.954377E-10 -4.416969E-09
       432  15 -2.571143E+05 -6.592493E+03 -7.518667E+03  6.451857E+04  1.285676E-09  2.828761E-09
       432  16 -8.678472E+04  3.975442E+04  2.713202E+04  6.496636E+04  4.594338E-10 -1.387306E-09
       432  17 -3.150038E+04  5.197303E+04  3.954915E+04  5.762168E+04  5.873123E-10 -3.825273E-10
       432  18  2.487172E+04  6.305348E+04  5.882917E+04  6.055649E+04  3.217801E-09 -1.343098E-09
       432  19 -4.273971E+05 -4.005493E+04 -3.118411E+04  6.403577E+04  4.355584E+03 -1.034482E+04
       432  20 -4.815130E+05 -5.533825E+04 -4.699388E+04  6.111733E+04 -1.045784E+04 -1.004828E+04
       432  21 -5.390263E+05 -7.624389E+04 -7.387073E+04  6.847885E+04 -2.528674E+04 -3.270149E+03
       432  22 -2.571052E+05 -1.494256E+02 -2.025476E+03  6.450104E+04 -1.424512E+03 -1.036064E+04
       432  23 -2.565311E+05 -1.681073E+03 -3.721188E+03  5.936983E+04 -3.335152E+03 -1.002840E+04
       432  24 -2.571142E+05 -6.592475E+03 -7.518595E+03  6.451858E+04 -5.262524E+03 -3.215537E+03
       432  25 -8.678463E+04  3.975455E+04  2.713232E+04  6.496642E+04 -7.206145E+03 -1.037647E+04
       432  26 -3.150034E+04  5.197314E+04  3.954937E+04  5.762165E+04  3.790059E+03 -1.000856E+04
       432  27  2.487196E+04  6.305355E+04  5.882959E+04  6.055645E+04  1.477074E+04 -3.161193E+03
       433   1 -4.724103E+05  8.048049E+03 -2.844917E+04 -1.928956E+04 -1.060739E+05 -5.040343E+03
       433   2 -4.804207E+05  1.504412E+05  5.404416E+04 -9.060221E+03 -7.180217E+04 -1.438914E+04
       433   3 -5.341050E+05  1.270251E+05  7.283930E+04  2.947484E+04 -3.756366E+04 -1.296765E+04
       433   4 -1.019512E+06 -1.283651E+05 -1.640325E+05  1.348406E+04 -1.120511E+05 -5.062783E+03
       433   5 -9.962402E+05  2.220589E+04 -7.124021E+04 -8.605996E+02 -7.341857E+04 -1.439602E+04
       433   6 -1.019442E+06  6.133007E+03 -4.521763E+04  1.310230E+04 -3.481721E+04 -1.295776E+04
       433   7 -1.566339E+06 -2.647965E+05 -2.996373E+05  4.622856E+04 -1.180230E+05 -5.085867E+03
       433   8 -1.511816E+06 -1.060488E+05 -1.965438E+05  7.331997E+03 -7.503360E+04 -1.440296E+04
       433   9 -1.504563E+06 -1.147755E+05 -1.632915E+05 -3.257577E+03 -3.207290E+04 -1.294801E+04
       433  10 -4.724224E+05  8.044998E+03 -2.847038E+04 -1.928999E+04 -4.324903E-09  2.121857E-09
       433  11 -4.804263E+05  1.504396E+05  5.403408E+04 -9.061053E+03 -3.642857E-09  1.152258E-08
       433  12 -5.341066E+05  1.270245E+05  7.283633E+04  2.947445E+04 -1.150059E-09  3.784356E-09
       433  13 -1.019525E+06 -1.283685E+05 -1.640561E+05  1.348360E+04  1.612119E-09 -3.412492E-09
       433  14 -9.962461E+05  2.220421E+04 -7.125074E+04 -8.614511E+02  4.117817E-10 -8.351154E-09
       433  15 -1.019443E+06  6.132501E+03 -4.522023E+04  1.310194E+04  2.418136E-10  3.775170E-10
       433  16 -1.566354E+06 -2.648002E+05 -2.996636E+05  4.622808E+04  4.380140E-09  2.776380E-09
       433  17 -1.511822E+06 -1.060505E+05 -1.965548E+05  7.331125E+03 -2.153095E-10  1.234791E-08
       433  18 -1.504564E+06 -1.147759E+05 -1.632937E+05 -3.257912E+03  2.912128E-10 -1.918908E-09
       433  19 -4.724103E+05  8.048049E+03 -2.844917E+04 -1.928956E+04  1.060739E+05  5.040343E+03
       433  20 -4.804207E+05  1.504412E+05  5.404416E+04 -9.060221E+03  7.180217E+04  1.438914E+04
       433  21 -5.341050E+05  1.270251E+05  7.283930E+04  2.947484E+04  3.756366E+04  1.296765E+04
       433  22 -1.019512E+06 -1.283651E+05 -1.640325E+05  1.348406E+04  1.120511E+05  5.062783E+03
       433  23 -9.962402E+05  2.220589E+04 -7.124021E+04 -8.605996E+02  7.341857E+04  1.439602E+04
       433  24 -1.019442E+06  6.133007E+03 -4.521763E+04  1.310230E+04  3.481721E+04  1.295776E+04
       433  25 -1.566339E+06 -2.647965E+05 -2.996373E+05  4.622856E+04  1.180230E+05  5.085867E+03
       433  26 -1.511816E+06 -1.060488E+05 -1.965438E+05  7.331997E+03  7.503360E+04  1.440296E+04
       433  27 -1.504563E+06 -1.147755E+05 -1.632915E+05 -3.257577E+03  3.207290E+04  1.294801E+04
       434   1 -5.812210E+05  9.153134E+04  6.751511E+04  1.125526E+04 -2.755783E+04 -1.065845E+04
       434   2 -6.114802E+05  1.011860E+05  7.779363E+04 -1.329203E+03 -1.842460E+04 -1.039132E+04
       434   3 -6.478954E+05  9.111801E+04  7.718643E+04  1.681269E+04 -9.297044E+03 -9.072624E+03
       434   4 -1.010501E+06 -1.529212E+04 -3.708943E+04  1.380898E+04 -2.766420E+04 -1.065949E+04
       434   5 -1.007377E+06  2.676390E+03 -1.852706E+04 -1.585435E+03 -1.810817E+04 -1.039051E+04
       434   6 -1.010487E+06  8.413957E+02 -1.114993E+04  1.374794E+04 -8.557339E+03 -9.069761E+03
       434   7 -1.439614E+06 -1.221292E+05 -1.417074E+05  1.636077E+04 -2.777048E+04 -1.066053E+04
       434   8 -1.403130E+06 -9.584478E+04 -1.148591E+05 -1.841644E+03 -1.779194E+04 -1.038971E+04
       434   9 -1.372959E+06 -8.944490E+04 -9.949585E+04  1.068485E+04 -7.818064E+03 -9.066906E+03
       434  10 -5.812219E+05  9.153102E+04  6.751347E+04  1.125503E+04 -4.466967E-10 -4.702036E-09
       434  11 -6.114806E+05  1.011858E+05  7.779279E+04 -1.329357E+03 -2.045047E-09  1.400690E-09
       434  12 -6.478956E+05  9.111790E+04  7.718611E+04  1.681263E+04  1.425525E-09  1.063313E-08
       434  13 -1.010502E+06 -1.529245E+04 -3.709109E+04  1.380875E+04  1.453453E-09  8.103350E-09
       434  14 -1.007377E+06  2.676186E+03 -1.852788E+04 -1.585586E+03  8.594991E-11 -2.785061E-08
       434  15 -1.010487E+06  8.412877E+02 -1.115023E+04  1.374788E+04 -1.144712E-10  7.651254E-09
       434  16 -1.439614E+06 -1.221295E+05 -1.417090E+05  1.636054E+04  1.969519E-09 -1.279130E-08
       434  17 -1.403130E+06 -9.584499E+04 -1.148599E+05 -1.841793E+03 -2.119709E-09 -5.837562E-09
       434  18 -1.372959E+06 -8.944500E+04 -9.949612E+04  1.068480E+04 -3.834032E-09  1.360013E-09
       434  19 -5.812210E+05  9.153134E+04  6.751511E+04  1.125526E+04  2.755783E+04  1.065845E+04
       434  20 -6.114802E+05  1.011860E+05  7.779363E+04 -1.329203E+03  1.842460E+04  1.039132E+04
       434  21 -6.478954E+05  9.111801E+04  7.718643E+04  1.681269E+04  9.297044E+03  9.072624E+03
       434  22 -1.010501E+06 -1.529212E+04 -3.708943E+04  1.380898E+04  2.766420E+04  1.065949E+04
       434  23 -1.007377E+06  2.676390E+03 -1.852706E+04 -1.585435E+03  1.810817E+04  1.039051E+04
       434  24 -1.010487E+06  8.413957E+02 -1.114993E+04  1.374794E+04  8.557339E+03  9.069761E+03
       434  25 -1.439614E+06 -1.221292E+05 -1.417074E+05  1.636077E+04  2.777048E+04  1.066053E+04
       434  26 -1.403130E+06 -9.584478E+04 -1.148591E+05 -1.841644E+03  1.779194E+04  1.038971E+04
       434  27 -1.372959E+06 -8.944490E+04 -9.949585E+04  1.068485E+04  7.818064E+03  9.066906E+03
       435   1 -7.069152E+05  7.354407E+04  6.470744E+04  1.480790E+04 -7.261271E+03 -8.164328E+03
       435   2 -7.416278E+05  6.681078E+04  6.024079E+04 -1.226334E+03 -4.909971E+03 -6.940820E+03
       435   3 -7.774225E+05  5.798485E+04  5.366560E+04  1.524950E+04 -2.560201E+03 -5.592841E+03
       435   4 -1.009334E+06 -1.701197E+03 -8.808823E+03  1.417000E+04 -6.789961E+03 -8.162498E+03
       435   5 -1.008786E+06  3.200088E+02 -4.776358E+03 -2.090064E+03 -4.388985E+03 -6.938605E+03
       435   6 -1.009330E+06  2.394802E+02 -2.887554E+03  1.416082E+04 -1.989406E+03 -5.590215E+03
       435   7 -1.311670E+06 -7.695320E+04 -8.233171E+04  1.353232E+04 -6.318880E+03 -8.160669E+03
       435   8 -1.275879E+06 -6.617603E+04 -6.979868E+04 -2.953496E+03 -3.868222E+03 -6.936391E+03
       435   9 -1.241188E+06 -5.750986E+04 -5.944462E+04  1.307249E+04 -1.418823E+03 -5.587590E+03
       435  10 -7.069153E+05  7.354399E+04  6.470722E+04  1.480786E+04  2.100176E-09 -4.875774E-09
       435  11 -7.416279E+05  6.681073E+04  6.024065E+04 -1.226362E+03 -3.579250E-09 -5.924488E-09
       435  12 -7.774225E+05  5.798481E+04  5.366553E+04  1.524949E+04 -3.206858E-10 -7.775508E-09
       435  13 -1.009334E+06 -1.701281E+03 -8.809035E+03  1.416996E+04  2.389908E-09 -3.209998E-09
       435  14 -1.008786E+06  3.199519E+02 -4.776484E+03 -2.090089E+03 -1.129011E-09 -5.388917E-09
       435  15 -1.009330E+06  2.394456E+02 -2.887620E+03  1.416081E+04  1.316870E-09 -8.083896E-09
       435  16 -1.311670E+06 -7.695329E+04 -8.233192E+04  1.353228E+04 -2.214106E-09 -7.028746E-09
       435  17 -1.275879E+06 -6.617608E+04 -6.979880E+04 -2.953518E+03 -3.170289E-09  1.211741E-08
       435  18 -1.241188E+06 -5.750989E+04 -5.944469E+04  1.307248E+04 -1.717395E-09  1.323314E-08
       435  19 -7.069152E+05  7.354407E+04  6.470744E+04  1.480790E+04  7.261271E+03  8.164328E+03
       435  20 -7.416278E+05  6.681078E+04  6.024079E+04 -1.226334E+03  4.909971E+03  6.940820E+03
       435  21 -7.774225E+05  5.798485E+04  5.366560E+04  1.524950E+04  2.560201E+03  5.592841E+03
       435  22 -1.009334E+06 -1.701197E+03 -8.808823E+03  1.417000E+04  6.789961E+03  8.162498E+03
       435  23 -1.008786E+06  3.200088E+02 -4.776358E+03 -2.090064E+03  4.388985E+03  6.938605E+03
       435  24 -1.009330E+06  2.394802E+02 -2.887554E+03  1.416082E+04  1.989406E+03  5.590215E+03
       435  25 -1.311670E+06 -7.695320E+04 -8.233171E+04  1.353232E+04  6.318880E+03  8.160669E+03
       435  26 -1.275879E+06 -6.617603E+04 -6.979868E+04 -2.953496E+03  3.868222E+03  6.936391E+03
       435  27 -1.241188E+06 -5.750986E+04 -5.944462E+04  1.307249E+04  1.418823E+03  5.587590E+03
       436   1 -8.401974E+05  4.198347E+04  3.870914E+04  1.499663E+04 -2.072859E+03 -4.789804E+03
       436   2 -8.763772E+05  3.304397E+04  3.075808E+04 -1.891916E+03 -1.337671E+03 -3.436822E+03
       436   3 -9.130391E+05  2.411395E+04  2.224815E+04  1.480304E+04 -6.030923E+02 -2.060903E+03
       436   4 -1.009188E+06 -5.672712E+01 -2.312673E+03  1.440265E+04 -1.527306E+03 -4.787203E+03
       436   5 -1.008944E+06  4.682269E+01 -1.507714E+03 -2.390091E+03 -7.829602E+02 -3.434091E+03
       436   6 -1.009186E+06  1.582853E+02 -1.268028E+03  1.440111E+04 -3.918114E+01 -2.058036E+03
       436   7 -1.178152E+06 -4.209902E+04 -4.333655E+04  1.380880E+04 -9.819016E+02 -4.784603E+03
       436   8 -1.141495E+06 -3.295162E+04 -3.377478E+04 -2.888178E+03 -2.283681E+02 -3.431361E+03
       436   9 -1.105324E+06 -2.379806E+04 -2.478488E+04  1.399923E+04  5.246427E+02 -2.055169E+03
       436  10 -8.401974E+05  4.198344E+04  3.870909E+04  1.499662E+04 -2.703932E-11 -1.505813E-08
       436  11 -8.763772E+05  3.304396E+04  3.075805E+04 -1.891920E+03 -1.037566E-08  1.976744E-09
       436  12 -9.130391E+05  2.411394E+04  2.224814E+04  1.480303E+04 -1.137509E-08 -1.585007E-09
       436  13 -1.009188E+06 -5.675235E+01 -2.312720E+03  1.440265E+04  2.069525E-09  7.899526E-10
       436  14 -1.008944E+06  4.680987E+01 -1.507737E+03 -2.390093E+03 -1.532907E-09 -9.496139E-09
       436  15 -1.009186E+06  1.582808E+02 -1.268036E+03  1.440111E+04  6.209790E-10 -7.567711E-09
       436  16 -1.178152E+06 -4.209905E+04 -4.333660E+04  1.380880E+04  1.625958E-10  4.534713E-09
       436  17 -1.141495E+06 -3.295164E+04 -3.377480E+04 -2.888179E+03  3.805098E-09  1.439871E-08
       436  18 -1.105324E+06 -2.379807E+04 -2.478488E+04  1.399923E+04  9.667083E-09 -1.557419E-12
       436  19 -8.401974E+05  4.198347E+04  3.870914E+04  1.499663E+04  2.072859E+03  4.789804E+03
       436  20 -8.763772E+05  3.304397E+04  3.075808E+04 -1.891916E+03  1.337671E+03  3.436822E+03
       436  21 -9.130391E+05  2.411395E+04  2.224815E+04  1.480304E+04  6.030923E+02  2.060903E+03
       436  22 -1.009188E+06 -5.672712E+01 -2.312673E+03  1.440265E+04  1.527306E+03  4.787203E+03
       436  23 -1.008944E+06  4.682269E+01 -1.507714E+03 -2.390091E+03  7.829602E+02  3.434091E+03
       436  24 -1.009186E+06  1.582853E+02 -1.268028E+03  1.440111E+04  3.918114E+01  2.058036E+03
       436  25 -1.178152E+06 -4.209902E+04 -4.333655E+04  1.380880E+04  9.819016E+02  4.784603E+03
       436  26 -1.141495E+06 -3.295162E+04 -3.377478E+04 -2.888178E+03  2.283681E+02  3.431361E+03
       436  27 -1.105324E+06 -2.379806E+04 -2.478488E+04  1.399923E+04 -5.246427E+02  2.055169E+03
       437   1 -9.773141E+05  8.073077E+03  6.354805E+03  1.456364E+04 -3.761058E+02 -1.253533E+03
       437   2 -1.013833E+06 -1.166235E+03 -2.819850E+03 -2.507639E+03  4.296245E+02  1.296951E+02
       437   3 -1.050895E+06 -1.042284E+04 -1.261559E+04  1.434905E+04  1.235346E+03  1.506027E+03
       437   4 -1.009196E+06  1.599447E+02 -1.292119E+03  1.447741E+04  1.872855E+02 -1.250636E+03
       437   5 -1.008925E+06  5.574666E+01 -1.625082E+03 -2.486027E+03  9.901874E+02  1.325713E+02
       437   6 -1.009196E+06 -6.528363E+01 -2.577198E+03  1.447848E+04  1.793129E+03  1.508888E+03
       437   7 -1.041077E+06 -7.753261E+03 -8.939114E+03  1.439119E+04  7.506481E+02 -1.247740E+03
       437   8 -1.004016E+06  1.277727E+03 -4.303147E+02 -2.464414E+03  1.550755E+03  1.354476E+02
       437   9 -9.674964E+05  1.029214E+04  7.461068E+03  1.460791E+04  2.350948E+03  1.511749E+03
       437  10 -9.773141E+05  8.073075E+03  6.354802E+03  1.456364E+04 -1.672954E-09 -5.454525E-10
       437  11 -1.013833E+06 -1.166235E+03 -2.819850E+03 -2.507639E+03 -3.623894E-09 -4.923743E-09
       437  12 -1.050895E+06 -1.042284E+04 -1.261559E+04  1.434905E+04 -9.875899E-09 -2.710678E-10
       437  13 -1.009196E+06  1.599430E+02 -1.292122E+03  1.447741E+04  2.236876E-09  8.161681E-09
       437  14 -1.008925E+06  5.574638E+01 -1.625084E+03 -2.486027E+03 -2.156557E-09 -4.778443E-09
       437  15 -1.009197E+06 -6.528694E+01 -2.577208E+03  1.447847E+04  1.820981E-09 -5.933900E-09
       437  16 -1.041077E+06 -7.753263E+03 -8.939118E+03  1.439119E+04  1.091427E-09  4.229462E-10
       437  17 -1.004016E+06  1.277726E+03 -4.303193E+02 -2.464414E+03 -8.303069E-10 -1.409764E-08
       437  18 -9.674964E+05  1.029214E+04  7.461053E+03  1.460791E+04  9.838778E-09 -6.166382E-09
       437  19 -9.773141E+05  8.073077E+03  6.354805E+03  1.456364E+04  3.761058E+02  1.253533E+03
       437  20 -1.013833E+06 -1.166235E+03 -2.819850E+03 -2.507639E+03 -4.296245E+02 -1.296951E+02
       437  21 -1.050895E+06 -1.042284E+04 -1.261559E+04  1.434905E+04 -1.235346E+03 -1.506027E+03
       437  22 -1.009196E+06  1.599447E+02 -1.292119E+03  1.447741E+04 -1.872855E+02  1.250636E+03
       437  23 -1.008925E+06  5.574666E+01 -1.625082E+03 -2.486027E+03 -9.901874E+02 -1.325713E+02
       437  24 -1.009196E+06 -6.528363E+01 -2.577198E+03  1.447848E+04 -1.793129E+03 -1.508888E+03
       437  25 -1.041077E+06 -7.753261E+03 -8.939114E+03  1.439119E+04 -7.506481E+02  1.247740E+03
       437  26 -1.004016E+06  1.277727E+03 -4.303147E+02 -2.464414E+03 -1.550755E+03 -1.354476E+02
       437  27 -9.674964E+05  1.029214E+04  7.461068E+03  1.460791E+04 -2.350948E+03 -1.511749E+03
       438   1 -1.115277E+06 -2.612432E+04 -2.914048E+04  1.370232E+04  1.733397E+03  2.323207E+03
       438   2 -1.150966E+06 -3.503767E+04 -4.002461E+04 -2.837290E+03  4.483548E+03  3.709044E+03
       438   3 -1.187998E+06 -4.635850E+04 -5.338479E+04  1.415698E+04  7.234510E+03  5.002166E+03
       438   4 -1.009376E+06  2.656066E+02 -3.247227E+03  1.438655E+04  2.311538E+03  2.326136E+03
       438   5 -1.008709E+06  3.760930E+02 -5.396116E+03 -2.374641E+03  5.024467E+03  3.711688E+03
       438   6 -1.009380E+06 -1.913781E+03 -9.994461E+03  1.439758E+04  7.738366E+03  5.004536E+03
       438   7 -9.034640E+05  2.665470E+04  2.264521E+04  1.507088E+04  2.889779E+03  2.329066E+03
       438   8 -8.664335E+05  3.578837E+04  2.923091E+04 -1.911909E+03  5.565510E+03  3.714332E+03
       438   9 -8.307318E+05  4.252859E+04  3.339356E+04  1.463821E+04  8.242367E+03  5.006905E+03
       438  10 -1.115277E+06 -2.612432E+04 -2.914050E+04  1.370232E+04 -1.071280E-08  3.020589E-09
       438  11 -1.150966E+06 -3.503769E+04 -4.002467E+04 -2.837303E+03 -4.643796E-09 -8.555882E-09
       438  12 -1.187998E+06 -4.635854E+04 -5.338493E+04  1.415695E+04  2.572272E-09  3.126432E-09
       438  13 -1.009376E+06  2.655994E+02 -3.247247E+03  1.438655E+04  3.290396E-09 -2.423109E-10
       438  14 -1.008709E+06  3.760714E+02 -5.396189E+03 -2.374656E+03 -1.642945E-09  6.575822E-09
       438  15 -1.009380E+06 -1.913824E+03 -9.994621E+03  1.439755E+04  2.603899E-10  1.297624E-08
       438  16 -9.034640E+05  2.665469E+04  2.264518E+04  1.507088E+04  1.030097E-08  7.330918E-09
       438  17 -8.664336E+05  3.578834E+04  2.923083E+04 -1.911925E+03  6.128853E-10 -6.333557E-09
       438  18 -8.307319E+05  4.252854E+04  3.339338E+04  1.463818E+04 -3.692000E-09  1.378757E-08
       438  19 -1.115277E+06 -2.612432E+04 -2.914048E+04  1.370232E+04 -1.733397E+03 -2.323207E+03
       438  20 -1.150966E+06 -3.503767E+04 -4.002461E+04 -2.837290E+03 -4.483548E+03 -3.709044E+03
       438  21 -1.187998E+06 -4.635850E+04 -5.338479E+04  1.415698E+04 -7.234510E+03 -5.002166E+03
       438  22 -1.009376E+06  2.656066E+02 -3.247227E+03  1.438655E+04 -2.311538E+03 -2.326136E+03
       438  23 -1.008709E+06  3.760930E+02 -5.396116E+03 -2.374641E+03 -5.024467E+03 -3.711688E+03
       438  24 -1.009380E+06 -1.913781E+03 -9.994461E+03  1.439758E+04 -7.738366E+03 -5.004536E+03
       438  25 -9.034640E+05  2.665470E+04  2.264521E+04  1.507088E+04 -2.889779E+03 -2.329066E+03
       438  26 -8.664335E+05  3.578837E+04  2.923091E+04 -1.911909E+03 -5.565510E+03 -3.714332E+03
       438  27 -8.307318E+05  4.252859E+04  3.339356E+04  1.463821E+04 -8.242367E+03 -5.006905E+03
       439   1 -1.252044E+06 -5.916241E+04 -7.151952E+04  1.110341E+04  9.023536E+03  5.915621E+03
       439   2 -1.283539E+06 -6.575408E+04 -8.831172E+04 -1.958710E+03  2.020660E+04  7.309630E+03
       439   3 -1.322376E+06 -9.490109E+04 -1.180862E+05  1.742514E+04  3.139357E+04  7.852660E+03
       439   4 -1.010706E+06  9.677902E+02 -1.266161E+04  1.412218E+04  9.745754E+03  5.918975E+03
       439   5 -1.007074E+06  3.061081E+03 -2.102410E+04 -2.059609E+03  2.058645E+04  7.311129E+03
       439   6 -1.010721E+06 -1.733560E+04 -4.212634E+04  1.420384E+04  3.143170E+04  7.852360E+03
       439   7 -7.693144E+05  6.109371E+04  4.619205E+04  1.714207E+04  1.046825E+04  5.922336E+03
       439   8 -7.305391E+05  7.187061E+04  4.625798E+04 -2.160633E+03  2.096648E+04  7.312628E+03
       439   9 -6.989783E+05  6.022277E+04  3.382647E+04  1.098081E+04  3.146985E+04  7.852060E+03
       439  10 -1.252044E+06 -5.916247E+04 -7.151973E+04  1.110337E+04  9.420732E-09  5.030640E-09
       439  11 -1.283540E+06 -6.575425E+04 -8.831259E+04 -1.958829E+03 -3.678749E-09  1.099240E-08
       439  12 -1.322377E+06 -9.490142E+04 -1.180882E+05  1.742494E+04 -4.004725E-09 -2.872953E-09
       439  13 -1.010706E+06  9.677271E+02 -1.266186E+04  1.412214E+04  3.244706E-09 -5.963193E-09
       439  14 -1.007075E+06  3.060909E+03 -2.102500E+04 -2.059731E+03 -2.862238E-09  1.240695E-08
       439  15 -1.010722E+06 -1.733593E+04 -4.212832E+04  1.420364E+04  7.445257E-10  3.287032E-09
       439  16 -7.693145E+05  6.109365E+04  4.619178E+04  1.714202E+04 -9.219961E-09 -4.218058E-09
       439  17 -7.305396E+05  7.187043E+04  4.625705E+04 -2.160757E+03 -2.647719E-09 -2.027985E-08
       439  18 -6.989793E+05  6.022244E+04  3.382449E+04  1.098061E+04  2.654595E-09  2.166379E-09
       439  19 -1.252044E+06 -5.916241E+04 -7.151952E+04  1.110341E+04 -9.023536E+03 -5.915621E+03
       439  20 -1.283539E+06 -6.575408E+04 -8.831172E+04 -1.958710E+03 -2.020660E+04 -7.309630E+03
       439  21 -1.322376E+06 -9.490109E+04 -1.180862E+05  1.742514E+04 -3.139357E+04 -7.852660E+03
       439  22 -1.010706E+06  9.677902E+02 -1.266161E+04  1.412218E+04 -9.745754E+03 -5.918975E+03
       439  23 -1.007074E+06  3.061081E+03 -2.102410E+04 -2.059609E+03 -2.058645E+04 -7.311129E+03
       439  24 -1.010721E+06 -1.733560E+04 -4.212634E+04  1.420384E+04 -3.143170E+04 -7.852360E+03
       439  25 -7.693144E+05  6.109371E+04  4.619205E+04  1.714207E+04 -1.046825E+04 -5.922336E+03
       439  26 -7.305391E+05  7.187061E+04  4.625798E+04 -2.160633E+03 -2.096648E+04 -7.312628E+03
       439  27 -6.989783E+05  6.022277E+04  3.382647E+04  1.098081E+04 -3.146985E+04 -7.852060E+03
       440   1 -1.392322E+06 -8.565585E+04 -1.417968E+05 -4.707249E+03  3.719846E+04  9.905323E+03
       440   2 -1.398911E+06 -7.531841E+04 -1.791788E+05  7.949076E+03  8.458069E+04  1.147382E+04
       440   3 -1.459225E+06 -2.549482E+05 -2.949569E+05  5.144785E+04  1.319929E+05  4.272270E+03
       440   4 -1.020892E+06  6.997400E+03 -5.136247E+04  1.360643E+04  3.955885E+04  9.915995E+03
       440   5 -9.943927E+05  2.525562E+04 -8.088818E+04 -1.531584E+03  8.339290E+04  1.146722E+04
       440   6 -1.020970E+06 -1.457726E+05 -1.863070E+05  1.417457E+04  1.272599E+05  4.246651E+03
       440   7 -6.493342E+05  9.964166E+04  3.906200E+04  3.193098E+04  4.192064E+04  9.926803E+03
       440   8 -5.897246E+05  1.258180E+05  1.739065E+04 -1.101860E+04  8.220433E+04  1.146066E+04
       440   9 -5.825356E+05 -3.660601E+04 -7.767046E+04 -2.312526E+04  1.225235E+05  4.221614E+03
       440  10 -1.392324E+06 -8.565633E+04 -1.417996E+05 -4.707546E+03  2.478738E-09 -7.065290E-09
       440  11 -1.398919E+06 -7.532047E+04 -1.791925E+05  7.948294E+03  1.103740E-09 -5.165769E-09
       440  12 -1.459244E+06 -2.549529E+05 -2.949898E+05  5.144740E+04  2.262856E-09  4.373417E-09
       440  13 -1.020893E+06  6.996873E+03 -5.136560E+04  1.360611E+04  2.249524E-09  5.810448E-09
       440  14 -9.944002E+05  2.525361E+04 -8.090151E+04 -1.532355E+03 -9.516653E-10 -4.176572E-09
       440  15 -1.020987E+06 -1.457770E+05 -1.863375E+05  1.417413E+04  2.740082E-10  6.463633E-09
       440  16 -6.493361E+05  9.964109E+04  3.905851E+04  3.193064E+04 -2.456511E-09  1.026860E-08
       440  17 -5.897319E+05  1.258160E+05  1.737770E+04 -1.101936E+04 -5.536167E-09  1.087531E-08
       440  18 -5.825517E+05 -3.661007E+04 -7.769873E+04 -2.312568E+04 -4.017904E-09 -2.034118E-09
       440  19 -1.392322E+06 -8.565585E+04 -1.417968E+05 -4.707249E+03 -3.719846E+04 -9.905323E+03
       440  20 -1.398911E+06 -7.531841E+04 -1.791788E+05  7.949076E+03 -8.458069E+04 -1.147382E+04
       440  21 -1.459225E+06 -2.549482E+05 -2.949569E+05  5.144785E+04 -1.319929E+05 -4.272270E+03
       440  22 -1.020892E+06  6.997400E+03 -5.136247E+04  1.360643E+04 -3.955885E+04 -9.915995E+03
       440  23 -9.943927E+05  2.525562E+04 -8.088818E+04 -1.531584E+03 -8.339290E+04 -1.146722E+04
       440  24 -1.020970E+06 -1.457726E+05 -1.863070E+05  1.417457E+04 -1.272599E+05 -4.246651E+03
       440  25 -6.493342E+05  9.964166E+04  3.906200E+04  3.193098E+04 -4.192064E+04 -9.926803E+03
       440  26 -5.897246E+05  1.258180E+05  1.739065E+04 -1.101860E+04 -8.220433E+04 -1.146066E+04
       440  27 -5.825356E+05 -3.660601E+04 -7.767046E+04 -2.312526E+04 -1.225235E+05 -4.221614E+03
