    1C
    1UUSER                                                              
    1UDATE              11.october.2022                                 
    1UTIME              17:34:50                                        
    1UHOST                                                              
    1UPGM               CalculiX                                        
    1UVERSION           Version 2.20                             
    1UCOMPILETIME       Sun Jul 31 18:08:37 CEST 2022                    
    1UDIR                                                               
    1UDBN                                                               
    1UMAT    1MESH_MATERIAL                                             
    2C                           841                                     1
 -1         1 0.00000E+00 0.00000E+00 0.00000E+00
 -1         2 1.66667E-02 0.00000E+00 0.00000E+00
 -1         3 3.33333E-02 0.00000E+00 0.00000E+00
 -1         4 5.00000E-02 0.00000E+00 0.00000E+00
 -1         5 6.66667E-02 0.00000E+00 0.00000E+00
 -1         8 0.00000E+00 6.25000E-03 0.00000E+00
 -1         9 1.66667E-02 6.25000E-03 0.00000E+00
 -1        10 3.33333E-02 6.25000E-03 0.00000E+00
 -1        11 5.00000E-02 6.25000E-03 0.00000E+00
 -1        12 6.66667E-02 6.25000E-03 0.00000E+00
 -1        15 0.00000E+00 1.25000E-02 0.00000E+00
 -1        16 1.66667E-02 1.25000E-02 0.00000E+00
 -1        17 3.33333E-02 1.25000E-02 0.00000E+00
 -1        18 5.00000E-02 1.25000E-02 0.00000E+00
 -1        19 6.66667E-02 1.25000E-02 0.00000E+00
 -1        20 8.33333E-02 1.25000E-02 0.00000E+00
 -1        21 1.00000E-01 1.25000E-02 0.00000E+00
 -1        22 0.00000E+00 1.87500E-02 0.00000E+00
 -1        23 1.66667E-02 1.87500E-02 0.00000E+00
 -1        24 3.33333E-02 1.87500E-02 0.00000E+00
 -1        25 5.00000E-02 1.87500E-02 0.00000E+00
 -1        26 6.66667E-02 1.87500E-02 0.00000E+00
 -1        27 8.33333E-02 1.87500E-02 0.00000E+00
 -1        28 1.00000E-01 1.87500E-02 0.00000E+00
 -1        29 0.00000E+00 2.50000E-02 0.00000E+00
 -1        30 1.66667E-02 2.50000E-02 0.00000E+00
 -1        31 3.33333E-02 2.50000E-02 0.00000E+00
 -1        32 5.00000E-02 2.50000E-02 0.00000E+00
 -1        33 6.66667E-02 2.50000E-02 0.00000E+00
 -1        34 8.33333E-02 2.50000E-02 0.00000E+00
 -1        35 1.00000E-01 2.50000E-02 0.00000E+00
 -1        36 1.04167E-03 0.00000E+00 0.00000E+00
 -1        37 2.08333E-03 0.00000E+00 0.00000E+00
 -1        38 3.12500E-03 0.00000E+00 0.00000E+00
 -1        39 4.16667E-03 0.00000E+00 0.00000E+00
 -1        40 5.20833E-03 0.00000E+00 0.00000E+00
 -1        41 6.25000E-03 0.00000E+00 0.00000E+00
 -1        42 7.29167E-03 0.00000E+00 0.00000E+00
 -1        43 8.33333E-03 0.00000E+00 0.00000E+00
 -1        44 9.37500E-03 0.00000E+00 0.00000E+00
 -1        45 1.04167E-02 0.00000E+00 0.00000E+00
 -1        46 1.14583E-02 0.00000E+00 0.00000E+00
 -1        47 1.25000E-02 0.00000E+00 0.00000E+00
 -1        48 1.35417E-02 0.00000E+00 0.00000E+00
 -1        49 1.45833E-02 0.00000E+00 0.00000E+00
 -1        50 1.56250E-02 0.00000E+00 0.00000E+00
 -1        51 0.00000E+00 1.04167E-03 0.00000E+00
 -1        52 0.00000E+00 2.08333E-03 0.00000E+00
 -1        53 0.00000E+00 3.12500E-03 0.00000E+00
 -1        54 0.00000E+00 4.16667E-03 0.00000E+00
 -1        55 0.00000E+00 5.20833E-03 0.00000E+00
 -1        56 1.04167E-03 3.90630E-04 0.00000E+00
 -1        57 2.08333E-03 7.81250E-04 0.00000E+00
 -1        58 3.12500E-03 1.17188E-03 0.00000E+00
 -1        59 4.16667E-03 1.56250E-03 0.00000E+00
 -1        60 5.20833E-03 1.95312E-03 0.00000E+00
 -1        61 6.25000E-03 2.34375E-03 0.00000E+00
 -1        62 7.29167E-03 2.73438E-03 0.00000E+00
 -1        63 8.33333E-03 3.12500E-03 0.00000E+00
 -1        64 9.37500E-03 3.51563E-03 0.00000E+00
 -1        65 1.04167E-02 3.90625E-03 0.00000E+00
 -1        66 1.14583E-02 4.29688E-03 0.00000E+00
 -1        67 1.25000E-02 4.68750E-03 0.00000E+00
 -1        68 1.35417E-02 5.07813E-03 0.00000E+00
 -1        69 1.45833E-02 5.46875E-03 0.00000E+00
 -1        70 1.56250E-02 5.85938E-03 0.00000E+00
 -1        71 1.77083E-02 0.00000E+00 0.00000E+00
 -1        72 1.87500E-02 0.00000E+00 0.00000E+00
 -1        73 1.97917E-02 0.00000E+00 0.00000E+00
 -1        74 2.08333E-02 0.00000E+00 0.00000E+00
 -1        75 2.18750E-02 0.00000E+00 0.00000E+00
 -1        76 2.29167E-02 0.00000E+00 0.00000E+00
 -1        77 2.39583E-02 0.00000E+00 0.00000E+00
 -1        78 2.50000E-02 0.00000E+00 0.00000E+00
 -1        79 2.60417E-02 0.00000E+00 0.00000E+00
 -1        80 2.70833E-02 0.00000E+00 0.00000E+00
 -1        81 2.81250E-02 0.00000E+00 0.00000E+00
 -1        82 2.91667E-02 0.00000E+00 0.00000E+00
 -1        83 3.02083E-02 0.00000E+00 0.00000E+00
 -1        84 3.12500E-02 0.00000E+00 0.00000E+00
 -1        85 3.22917E-02 0.00000E+00 0.00000E+00
 -1        86 1.66667E-02 1.04167E-03 0.00000E+00
 -1        87 1.66667E-02 2.08333E-03 0.00000E+00
 -1        88 1.66667E-02 3.12500E-03 0.00000E+00
 -1        89 1.66667E-02 4.16667E-03 0.00000E+00
 -1        90 1.66667E-02 5.20833E-03 0.00000E+00
 -1        91 1.77083E-02 3.90630E-04 0.00000E+00
 -1        92 1.87500E-02 7.81250E-04 0.00000E+00
 -1        93 1.97917E-02 1.17188E-03 0.00000E+00
 -1        94 2.08333E-02 1.56250E-03 0.00000E+00
 -1        95 2.18750E-02 1.95312E-03 0.00000E+00
 -1        96 2.29167E-02 2.34375E-03 0.00000E+00
 -1        97 2.39583E-02 2.73438E-03 0.00000E+00
 -1        98 2.50000E-02 3.12500E-03 0.00000E+00
 -1        99 2.60417E-02 3.51563E-03 0.00000E+00
 -1       100 2.70833E-02 3.90625E-03 0.00000E+00
 -1       101 2.81250E-02 4.29688E-03 0.00000E+00
 -1       102 2.91667E-02 4.68750E-03 0.00000E+00
 -1       103 3.02083E-02 5.07813E-03 0.00000E+00
 -1       104 3.12500E-02 5.46875E-03 0.00000E+00
 -1       105 3.22917E-02 5.85938E-03 0.00000E+00
 -1       106 3.43750E-02 0.00000E+00 0.00000E+00
 -1       107 3.54167E-02 0.00000E+00 0.00000E+00
 -1       108 3.64583E-02 0.00000E+00 0.00000E+00
 -1       109 3.75000E-02 0.00000E+00 0.00000E+00
 -1       110 3.85417E-02 0.00000E+00 0.00000E+00
 -1       111 3.95833E-02 0.00000E+00 0.00000E+00
 -1       112 4.06250E-02 0.00000E+00 0.00000E+00
 -1       113 4.16667E-02 0.00000E+00 0.00000E+00
 -1       114 4.27083E-02 0.00000E+00 0.00000E+00
 -1       115 4.37500E-02 0.00000E+00 0.00000E+00
 -1       116 4.47917E-02 0.00000E+00 0.00000E+00
 -1       117 4.58333E-02 0.00000E+00 0.00000E+00
 -1       118 4.68750E-02 0.00000E+00 0.00000E+00
 -1       119 4.79167E-02 0.00000E+00 0.00000E+00
 -1       120 4.89583E-02 0.00000E+00 0.00000E+00
 -1       121 3.33333E-02 1.04167E-03 0.00000E+00
 -1       122 3.33333E-02 2.08333E-03 0.00000E+00
 -1       123 3.33333E-02 3.12500E-03 0.00000E+00
 -1       124 3.33333E-02 4.16667E-03 0.00000E+00
 -1       125 3.33333E-02 5.20833E-03 0.00000E+00
 -1       126 3.43750E-02 3.90630E-04 0.00000E+00
 -1       127 3.54167E-02 7.81250E-04 0.00000E+00
 -1       128 3.64583E-02 1.17188E-03 0.00000E+00
 -1       129 3.75000E-02 1.56250E-03 0.00000E+00
 -1       130 3.85417E-02 1.95312E-03 0.00000E+00
 -1       131 3.95833E-02 2.34375E-03 0.00000E+00
 -1       132 4.06250E-02 2.73438E-03 0.00000E+00
 -1       133 4.16667E-02 3.12500E-03 0.00000E+00
 -1       134 4.27083E-02 3.51563E-03 0.00000E+00
 -1       135 4.37500E-02 3.90625E-03 0.00000E+00
 -1       136 4.47917E-02 4.29688E-03 0.00000E+00
 -1       137 4.58333E-02 4.68750E-03 0.00000E+00
 -1       138 4.68750E-02 5.07813E-03 0.00000E+00
 -1       139 4.79167E-02 5.46875E-03 0.00000E+00
 -1       140 4.89583E-02 5.85938E-03 0.00000E+00
 -1       141 5.10417E-02 0.00000E+00 0.00000E+00
 -1       142 5.20833E-02 0.00000E+00 0.00000E+00
 -1       143 5.31250E-02 0.00000E+00 0.00000E+00
 -1       144 5.41667E-02 0.00000E+00 0.00000E+00
 -1       145 5.52083E-02 0.00000E+00 0.00000E+00
 -1       146 5.62500E-02 0.00000E+00 0.00000E+00
 -1       147 5.72917E-02 0.00000E+00 0.00000E+00
 -1       148 5.83333E-02 0.00000E+00 0.00000E+00
 -1       149 5.93750E-02 0.00000E+00 0.00000E+00
 -1       150 6.04167E-02 0.00000E+00 0.00000E+00
 -1       151 6.14583E-02 0.00000E+00 0.00000E+00
 -1       152 6.25000E-02 0.00000E+00 0.00000E+00
 -1       153 6.35417E-02 0.00000E+00 0.00000E+00
 -1       154 6.45833E-02 0.00000E+00 0.00000E+00
 -1       155 6.56250E-02 0.00000E+00 0.00000E+00
 -1       156 5.00000E-02 1.04167E-03 0.00000E+00
 -1       157 5.00000E-02 2.08333E-03 0.00000E+00
 -1       158 5.00000E-02 3.12500E-03 0.00000E+00
 -1       159 5.00000E-02 4.16667E-03 0.00000E+00
 -1       160 5.00000E-02 5.20833E-03 0.00000E+00
 -1       161 5.10417E-02 3.90630E-04 0.00000E+00
 -1       162 5.20833E-02 7.81250E-04 0.00000E+00
 -1       163 5.31250E-02 1.17188E-03 0.00000E+00
 -1       164 5.41667E-02 1.56250E-03 0.00000E+00
 -1       165 5.52083E-02 1.95312E-03 0.00000E+00
 -1       166 5.62500E-02 2.34375E-03 0.00000E+00
 -1       167 5.72917E-02 2.73438E-03 0.00000E+00
 -1       168 5.83333E-02 3.12500E-03 0.00000E+00
 -1       169 5.93750E-02 3.51563E-03 0.00000E+00
 -1       170 6.04167E-02 3.90625E-03 0.00000E+00
 -1       171 6.14583E-02 4.29688E-03 0.00000E+00
 -1       172 6.25000E-02 4.68750E-03 0.00000E+00
 -1       173 6.35417E-02 5.07813E-03 0.00000E+00
 -1       174 6.45833E-02 5.46875E-03 0.00000E+00
 -1       175 6.56250E-02 5.85938E-03 0.00000E+00
 -1       191 6.66667E-02 1.04167E-03 0.00000E+00
 -1       192 6.66667E-02 2.08333E-03 0.00000E+00
 -1       193 6.66667E-02 3.12500E-03 0.00000E+00
 -1       194 6.66667E-02 4.16667E-03 0.00000E+00
 -1       195 6.66667E-02 5.20833E-03 0.00000E+00
 -1       251 1.04167E-03 6.25000E-03 0.00000E+00
 -1       252 2.08333E-03 6.25000E-03 0.00000E+00
 -1       253 3.12500E-03 6.25000E-03 0.00000E+00
 -1       254 4.16667E-03 6.25000E-03 0.00000E+00
 -1       255 5.20833E-03 6.25000E-03 0.00000E+00
 -1       256 6.25000E-03 6.25000E-03 0.00000E+00
 -1       257 7.29167E-03 6.25000E-03 0.00000E+00
 -1       258 8.33333E-03 6.25000E-03 0.00000E+00
 -1       259 9.37500E-03 6.25000E-03 0.00000E+00
 -1       260 1.04167E-02 6.25000E-03 0.00000E+00
 -1       261 1.14583E-02 6.25000E-03 0.00000E+00
 -1       262 1.25000E-02 6.25000E-03 0.00000E+00
 -1       263 1.35417E-02 6.25000E-03 0.00000E+00
 -1       264 1.45833E-02 6.25000E-03 0.00000E+00
 -1       265 1.56250E-02 6.25000E-03 0.00000E+00
 -1       266 0.00000E+00 7.29167E-03 0.00000E+00
 -1       267 0.00000E+00 8.33333E-03 0.00000E+00
 -1       268 0.00000E+00 9.37500E-03 0.00000E+00
 -1       269 0.00000E+00 1.04167E-02 0.00000E+00
 -1       270 0.00000E+00 1.14583E-02 0.00000E+00
 -1       271 1.04167E-03 6.64063E-03 0.00000E+00
 -1       272 2.08333E-03 7.03125E-03 0.00000E+00
 -1       273 3.12500E-03 7.42188E-03 0.00000E+00
 -1       274 4.16667E-03 7.81250E-03 0.00000E+00
 -1       275 5.20833E-03 8.20313E-03 0.00000E+00
 -1       276 6.25000E-03 8.59375E-03 0.00000E+00
 -1       277 7.29167E-03 8.98438E-03 0.00000E+00
 -1       278 8.33333E-03 9.37500E-03 0.00000E+00
 -1       279 9.37500E-03 9.76562E-03 0.00000E+00
 -1       280 1.04167E-02 1.01562E-02 0.00000E+00
 -1       281 1.14583E-02 1.05469E-02 0.00000E+00
 -1       282 1.25000E-02 1.09375E-02 0.00000E+00
 -1       283 1.35417E-02 1.13281E-02 0.00000E+00
 -1       284 1.45833E-02 1.17188E-02 0.00000E+00
 -1       285 1.56250E-02 1.21094E-02 0.00000E+00
 -1       286 1.77083E-02 6.25000E-03 0.00000E+00
 -1       287 1.87500E-02 6.25000E-03 0.00000E+00
 -1       288 1.97917E-02 6.25000E-03 0.00000E+00
 -1       289 2.08333E-02 6.25000E-03 0.00000E+00
 -1       290 2.18750E-02 6.25000E-03 0.00000E+00
 -1       291 2.29167E-02 6.25000E-03 0.00000E+00
 -1       292 2.39583E-02 6.25000E-03 0.00000E+00
 -1       293 2.50000E-02 6.25000E-03 0.00000E+00
 -1       294 2.60417E-02 6.25000E-03 0.00000E+00
 -1       295 2.70833E-02 6.25000E-03 0.00000E+00
 -1       296 2.81250E-02 6.25000E-03 0.00000E+00
 -1       297 2.91667E-02 6.25000E-03 0.00000E+00
 -1       298 3.02083E-02 6.25000E-03 0.00000E+00
 -1       299 3.12500E-02 6.25000E-03 0.00000E+00
 -1       300 3.22917E-02 6.25000E-03 0.00000E+00
 -1       301 1.66667E-02 7.29167E-03 0.00000E+00
 -1       302 1.66667E-02 8.33333E-03 0.00000E+00
 -1       303 1.66667E-02 9.37500E-03 0.00000E+00
 -1       304 1.66667E-02 1.04167E-02 0.00000E+00
 -1       305 1.66667E-02 1.14583E-02 0.00000E+00
 -1       306 1.77083E-02 6.64063E-03 0.00000E+00
 -1       307 1.87500E-02 7.03125E-03 0.00000E+00
 -1       308 1.97917E-02 7.42188E-03 0.00000E+00
 -1       309 2.08333E-02 7.81250E-03 0.00000E+00
 -1       310 2.18750E-02 8.20313E-03 0.00000E+00
 -1       311 2.29167E-02 8.59375E-03 0.00000E+00
 -1       312 2.39583E-02 8.98438E-03 0.00000E+00
 -1       313 2.50000E-02 9.37500E-03 0.00000E+00
 -1       314 2.60417E-02 9.76562E-03 0.00000E+00
 -1       315 2.70833E-02 1.01562E-02 0.00000E+00
 -1       316 2.81250E-02 1.05469E-02 0.00000E+00
 -1       317 2.91667E-02 1.09375E-02 0.00000E+00
 -1       318 3.02083E-02 1.13281E-02 0.00000E+00
 -1       319 3.12500E-02 1.17188E-02 0.00000E+00
 -1       320 3.22917E-02 1.21094E-02 0.00000E+00
 -1       321 3.43750E-02 6.25000E-03 0.00000E+00
 -1       322 3.54167E-02 6.25000E-03 0.00000E+00
 -1       323 3.64583E-02 6.25000E-03 0.00000E+00
 -1       324 3.75000E-02 6.25000E-03 0.00000E+00
 -1       325 3.85417E-02 6.25000E-03 0.00000E+00
 -1       326 3.95833E-02 6.25000E-03 0.00000E+00
 -1       327 4.06250E-02 6.25000E-03 0.00000E+00
 -1       328 4.16667E-02 6.25000E-03 0.00000E+00
 -1       329 4.27083E-02 6.25000E-03 0.00000E+00
 -1       330 4.37500E-02 6.25000E-03 0.00000E+00
 -1       331 4.47917E-02 6.25000E-03 0.00000E+00
 -1       332 4.58333E-02 6.25000E-03 0.00000E+00
 -1       333 4.68750E-02 6.25000E-03 0.00000E+00
 -1       334 4.79167E-02 6.25000E-03 0.00000E+00
 -1       335 4.89583E-02 6.25000E-03 0.00000E+00
 -1       336 3.33333E-02 7.29167E-03 0.00000E+00
 -1       337 3.33333E-02 8.33333E-03 0.00000E+00
 -1       338 3.33333E-02 9.37500E-03 0.00000E+00
 -1       339 3.33333E-02 1.04167E-02 0.00000E+00
 -1       340 3.33333E-02 1.14583E-02 0.00000E+00
 -1       341 3.43750E-02 6.64063E-03 0.00000E+00
 -1       342 3.54167E-02 7.03125E-03 0.00000E+00
 -1       343 3.64583E-02 7.42188E-03 0.00000E+00
 -1       344 3.75000E-02 7.81250E-03 0.00000E+00
 -1       345 3.85417E-02 8.20313E-03 0.00000E+00
 -1       346 3.95833E-02 8.59375E-03 0.00000E+00
 -1       347 4.06250E-02 8.98438E-03 0.00000E+00
 -1       348 4.16667E-02 9.37500E-03 0.00000E+00
 -1       349 4.27083E-02 9.76562E-03 0.00000E+00
 -1       350 4.37500E-02 1.01562E-02 0.00000E+00
 -1       351 4.47917E-02 1.05469E-02 0.00000E+00
 -1       352 4.58333E-02 1.09375E-02 0.00000E+00
 -1       353 4.68750E-02 1.13281E-02 0.00000E+00
 -1       354 4.79167E-02 1.17188E-02 0.00000E+00
 -1       355 4.89583E-02 1.21094E-02 0.00000E+00
 -1       356 5.10417E-02 6.25000E-03 0.00000E+00
 -1       357 5.20833E-02 6.25000E-03 0.00000E+00
 -1       358 5.31250E-02 6.25000E-03 0.00000E+00
 -1       359 5.41667E-02 6.25000E-03 0.00000E+00
 -1       360 5.52083E-02 6.25000E-03 0.00000E+00
 -1       361 5.62500E-02 6.25000E-03 0.00000E+00
 -1       362 5.72917E-02 6.25000E-03 0.00000E+00
 -1       363 5.83333E-02 6.25000E-03 0.00000E+00
 -1       364 5.93750E-02 6.25000E-03 0.00000E+00
 -1       365 6.04167E-02 6.25000E-03 0.00000E+00
 -1       366 6.14583E-02 6.25000E-03 0.00000E+00
 -1       367 6.25000E-02 6.25000E-03 0.00000E+00
 -1       368 6.35417E-02 6.25000E-03 0.00000E+00
 -1       369 6.45833E-02 6.25000E-03 0.00000E+00
 -1       370 6.56250E-02 6.25000E-03 0.00000E+00
 -1       371 5.00000E-02 7.29167E-03 0.00000E+00
 -1       372 5.00000E-02 8.33333E-03 0.00000E+00
 -1       373 5.00000E-02 9.37500E-03 0.00000E+00
 -1       374 5.00000E-02 1.04167E-02 0.00000E+00
 -1       375 5.00000E-02 1.14583E-02 0.00000E+00
 -1       376 5.10417E-02 6.64063E-03 0.00000E+00
 -1       377 5.20833E-02 7.03125E-03 0.00000E+00
 -1       378 5.31250E-02 7.42188E-03 0.00000E+00
 -1       379 5.41667E-02 7.81250E-03 0.00000E+00
 -1       380 5.52083E-02 8.20313E-03 0.00000E+00
 -1       381 5.62500E-02 8.59375E-03 0.00000E+00
 -1       382 5.72917E-02 8.98438E-03 0.00000E+00
 -1       383 5.83333E-02 9.37500E-03 0.00000E+00
 -1       384 5.93750E-02 9.76562E-03 0.00000E+00
 -1       385 6.04167E-02 1.01562E-02 0.00000E+00
 -1       386 6.14583E-02 1.05469E-02 0.00000E+00
 -1       387 6.25000E-02 1.09375E-02 0.00000E+00
 -1       388 6.35417E-02 1.13281E-02 0.00000E+00
 -1       389 6.45833E-02 1.17188E-02 0.00000E+00
 -1       390 6.56250E-02 1.21094E-02 0.00000E+00
 -1       406 6.66667E-02 7.29167E-03 0.00000E+00
 -1       407 6.66667E-02 8.33333E-03 0.00000E+00
 -1       408 6.66667E-02 9.37500E-03 0.00000E+00
 -1       409 6.66667E-02 1.04167E-02 0.00000E+00
 -1       410 6.66667E-02 1.14583E-02 0.00000E+00
 -1       466 1.04167E-03 1.25000E-02 0.00000E+00
 -1       467 2.08333E-03 1.25000E-02 0.00000E+00
 -1       468 3.12500E-03 1.25000E-02 0.00000E+00
 -1       469 4.16667E-03 1.25000E-02 0.00000E+00
 -1       470 5.20833E-03 1.25000E-02 0.00000E+00
 -1       471 6.25000E-03 1.25000E-02 0.00000E+00
 -1       472 7.29167E-03 1.25000E-02 0.00000E+00
 -1       473 8.33333E-03 1.25000E-02 0.00000E+00
 -1       474 9.37500E-03 1.25000E-02 0.00000E+00
 -1       475 1.04167E-02 1.25000E-02 0.00000E+00
 -1       476 1.14583E-02 1.25000E-02 0.00000E+00
 -1       477 1.25000E-02 1.25000E-02 0.00000E+00
 -1       478 1.35417E-02 1.25000E-02 0.00000E+00
 -1       479 1.45833E-02 1.25000E-02 0.00000E+00
 -1       480 1.56250E-02 1.25000E-02 0.00000E+00
 -1       481 0.00000E+00 1.35417E-02 0.00000E+00
 -1       482 0.00000E+00 1.45833E-02 0.00000E+00
 -1       483 0.00000E+00 1.56250E-02 0.00000E+00
 -1       484 0.00000E+00 1.66667E-02 0.00000E+00
 -1       485 0.00000E+00 1.77083E-02 0.00000E+00
 -1       486 1.04167E-03 1.28906E-02 0.00000E+00
 -1       487 2.08333E-03 1.32813E-02 0.00000E+00
 -1       488 3.12500E-03 1.36719E-02 0.00000E+00
 -1       489 4.16667E-03 1.40625E-02 0.00000E+00
 -1       490 5.20833E-03 1.44531E-02 0.00000E+00
 -1       491 6.25000E-03 1.48437E-02 0.00000E+00
 -1       492 7.29167E-03 1.52344E-02 0.00000E+00
 -1       493 8.33333E-03 1.56250E-02 0.00000E+00
 -1       494 9.37500E-03 1.60156E-02 0.00000E+00
 -1       495 1.04167E-02 1.64062E-02 0.00000E+00
 -1       496 1.14583E-02 1.67969E-02 0.00000E+00
 -1       497 1.25000E-02 1.71875E-02 0.00000E+00
 -1       498 1.35417E-02 1.75781E-02 0.00000E+00
 -1       499 1.45833E-02 1.79687E-02 0.00000E+00
 -1       500 1.56250E-02 1.83594E-02 0.00000E+00
 -1       501 1.77083E-02 1.25000E-02 0.00000E+00
 -1       502 1.87500E-02 1.25000E-02 0.00000E+00
 -1       503 1.97917E-02 1.25000E-02 0.00000E+00
 -1       504 2.08333E-02 1.25000E-02 0.00000E+00
 -1       505 2.18750E-02 1.25000E-02 0.00000E+00
 -1       506 2.29167E-02 1.25000E-02 0.00000E+00
 -1       507 2.39583E-02 1.25000E-02 0.00000E+00
 -1       508 2.50000E-02 1.25000E-02 0.00000E+00
 -1       509 2.60417E-02 1.25000E-02 0.00000E+00
 -1       510 2.70833E-02 1.25000E-02 0.00000E+00
 -1       511 2.81250E-02 1.25000E-02 0.00000E+00
 -1       512 2.91667E-02 1.25000E-02 0.00000E+00
 -1       513 3.02083E-02 1.25000E-02 0.00000E+00
 -1       514 3.12500E-02 1.25000E-02 0.00000E+00
 -1       515 3.22917E-02 1.25000E-02 0.00000E+00
 -1       516 1.66667E-02 1.35417E-02 0.00000E+00
 -1       517 1.66667E-02 1.45833E-02 0.00000E+00
 -1       518 1.66667E-02 1.56250E-02 0.00000E+00
 -1       519 1.66667E-02 1.66667E-02 0.00000E+00
 -1       520 1.66667E-02 1.77083E-02 0.00000E+00
 -1       521 1.77083E-02 1.28906E-02 0.00000E+00
 -1       522 1.87500E-02 1.32813E-02 0.00000E+00
 -1       523 1.97917E-02 1.36719E-02 0.00000E+00
 -1       524 2.08333E-02 1.40625E-02 0.00000E+00
 -1       525 2.18750E-02 1.44531E-02 0.00000E+00
 -1       526 2.29167E-02 1.48437E-02 0.00000E+00
 -1       527 2.39583E-02 1.52344E-02 0.00000E+00
 -1       528 2.50000E-02 1.56250E-02 0.00000E+00
 -1       529 2.60417E-02 1.60156E-02 0.00000E+00
 -1       530 2.70833E-02 1.64062E-02 0.00000E+00
 -1       531 2.81250E-02 1.67969E-02 0.00000E+00
 -1       532 2.91667E-02 1.71875E-02 0.00000E+00
 -1       533 3.02083E-02 1.75781E-02 0.00000E+00
 -1       534 3.12500E-02 1.79687E-02 0.00000E+00
 -1       535 3.22917E-02 1.83594E-02 0.00000E+00
 -1       536 3.43750E-02 1.25000E-02 0.00000E+00
 -1       537 3.54167E-02 1.25000E-02 0.00000E+00
 -1       538 3.64583E-02 1.25000E-02 0.00000E+00
 -1       539 3.75000E-02 1.25000E-02 0.00000E+00
 -1       540 3.85417E-02 1.25000E-02 0.00000E+00
 -1       541 3.95833E-02 1.25000E-02 0.00000E+00
 -1       542 4.06250E-02 1.25000E-02 0.00000E+00
 -1       543 4.16667E-02 1.25000E-02 0.00000E+00
 -1       544 4.27083E-02 1.25000E-02 0.00000E+00
 -1       545 4.37500E-02 1.25000E-02 0.00000E+00
 -1       546 4.47917E-02 1.25000E-02 0.00000E+00
 -1       547 4.58333E-02 1.25000E-02 0.00000E+00
 -1       548 4.68750E-02 1.25000E-02 0.00000E+00
 -1       549 4.79167E-02 1.25000E-02 0.00000E+00
 -1       550 4.89583E-02 1.25000E-02 0.00000E+00
 -1       551 3.33333E-02 1.35417E-02 0.00000E+00
 -1       552 3.33333E-02 1.45833E-02 0.00000E+00
 -1       553 3.33333E-02 1.56250E-02 0.00000E+00
 -1       554 3.33333E-02 1.66667E-02 0.00000E+00
 -1       555 3.33333E-02 1.77083E-02 0.00000E+00
 -1       556 3.43750E-02 1.28906E-02 0.00000E+00
 -1       557 3.54167E-02 1.32813E-02 0.00000E+00
 -1       558 3.64583E-02 1.36719E-02 0.00000E+00
 -1       559 3.75000E-02 1.40625E-02 0.00000E+00
 -1       560 3.85417E-02 1.44531E-02 0.00000E+00
 -1       561 3.95833E-02 1.48437E-02 0.00000E+00
 -1       562 4.06250E-02 1.52344E-02 0.00000E+00
 -1       563 4.16667E-02 1.56250E-02 0.00000E+00
 -1       564 4.27083E-02 1.60156E-02 0.00000E+00
 -1       565 4.37500E-02 1.64062E-02 0.00000E+00
 -1       566 4.47917E-02 1.67969E-02 0.00000E+00
 -1       567 4.58333E-02 1.71875E-02 0.00000E+00
 -1       568 4.68750E-02 1.75781E-02 0.00000E+00
 -1       569 4.79167E-02 1.79687E-02 0.00000E+00
 -1       570 4.89583E-02 1.83594E-02 0.00000E+00
 -1       571 5.10417E-02 1.25000E-02 0.00000E+00
 -1       572 5.20833E-02 1.25000E-02 0.00000E+00
 -1       573 5.31250E-02 1.25000E-02 0.00000E+00
 -1       574 5.41667E-02 1.25000E-02 0.00000E+00
 -1       575 5.52083E-02 1.25000E-02 0.00000E+00
 -1       576 5.62500E-02 1.25000E-02 0.00000E+00
 -1       577 5.72917E-02 1.25000E-02 0.00000E+00
 -1       578 5.83333E-02 1.25000E-02 0.00000E+00
 -1       579 5.93750E-02 1.25000E-02 0.00000E+00
 -1       580 6.04167E-02 1.25000E-02 0.00000E+00
 -1       581 6.14583E-02 1.25000E-02 0.00000E+00
 -1       582 6.25000E-02 1.25000E-02 0.00000E+00
 -1       583 6.35417E-02 1.25000E-02 0.00000E+00
 -1       584 6.45833E-02 1.25000E-02 0.00000E+00
 -1       585 6.56250E-02 1.25000E-02 0.00000E+00
 -1       586 5.00000E-02 1.35417E-02 0.00000E+00
 -1       587 5.00000E-02 1.45833E-02 0.00000E+00
 -1       588 5.00000E-02 1.56250E-02 0.00000E+00
 -1       589 5.00000E-02 1.66667E-02 0.00000E+00
 -1       590 5.00000E-02 1.77083E-02 0.00000E+00
 -1       591 5.10417E-02 1.28906E-02 0.00000E+00
 -1       592 5.20833E-02 1.32813E-02 0.00000E+00
 -1       593 5.31250E-02 1.36719E-02 0.00000E+00
 -1       594 5.41667E-02 1.40625E-02 0.00000E+00
 -1       595 5.52083E-02 1.44531E-02 0.00000E+00
 -1       596 5.62500E-02 1.48437E-02 0.00000E+00
 -1       597 5.72917E-02 1.52344E-02 0.00000E+00
 -1       598 5.83333E-02 1.56250E-02 0.00000E+00
 -1       599 5.93750E-02 1.60156E-02 0.00000E+00
 -1       600 6.04167E-02 1.64062E-02 0.00000E+00
 -1       601 6.14583E-02 1.67969E-02 0.00000E+00
 -1       602 6.25000E-02 1.71875E-02 0.00000E+00
 -1       603 6.35417E-02 1.75781E-02 0.00000E+00
 -1       604 6.45833E-02 1.79687E-02 0.00000E+00
 -1       605 6.56250E-02 1.83594E-02 0.00000E+00
 -1       606 6.77083E-02 1.25000E-02 0.00000E+00
 -1       607 6.87500E-02 1.25000E-02 0.00000E+00
 -1       608 6.97917E-02 1.25000E-02 0.00000E+00
 -1       609 7.08333E-02 1.25000E-02 0.00000E+00
 -1       610 7.18750E-02 1.25000E-02 0.00000E+00
 -1       611 7.29167E-02 1.25000E-02 0.00000E+00
 -1       612 7.39583E-02 1.25000E-02 0.00000E+00
 -1       613 7.50000E-02 1.25000E-02 0.00000E+00
 -1       614 7.60417E-02 1.25000E-02 0.00000E+00
 -1       615 7.70833E-02 1.25000E-02 0.00000E+00
 -1       616 7.81250E-02 1.25000E-02 0.00000E+00
 -1       617 7.91667E-02 1.25000E-02 0.00000E+00
 -1       618 8.02083E-02 1.25000E-02 0.00000E+00
 -1       619 8.12500E-02 1.25000E-02 0.00000E+00
 -1       620 8.22917E-02 1.25000E-02 0.00000E+00
 -1       621 6.66667E-02 1.35417E-02 0.00000E+00
 -1       622 6.66667E-02 1.45833E-02 0.00000E+00
 -1       623 6.66667E-02 1.56250E-02 0.00000E+00
 -1       624 6.66667E-02 1.66667E-02 0.00000E+00
 -1       625 6.66667E-02 1.77083E-02 0.00000E+00
 -1       626 6.77083E-02 1.28906E-02 0.00000E+00
 -1       627 6.87500E-02 1.32813E-02 0.00000E+00
 -1       628 6.97917E-02 1.36719E-02 0.00000E+00
 -1       629 7.08333E-02 1.40625E-02 0.00000E+00
 -1       630 7.18750E-02 1.44531E-02 0.00000E+00
 -1       631 7.29167E-02 1.48437E-02 0.00000E+00
 -1       632 7.39583E-02 1.52344E-02 0.00000E+00
 -1       633 7.50000E-02 1.56250E-02 0.00000E+00
 -1       634 7.60417E-02 1.60156E-02 0.00000E+00
 -1       635 7.70833E-02 1.64062E-02 0.00000E+00
 -1       636 7.81250E-02 1.67969E-02 0.00000E+00
 -1       637 7.91667E-02 1.71875E-02 0.00000E+00
 -1       638 8.02083E-02 1.75781E-02 0.00000E+00
 -1       639 8.12500E-02 1.79687E-02 0.00000E+00
 -1       640 8.22917E-02 1.83594E-02 0.00000E+00
 -1       641 8.43750E-02 1.25000E-02 0.00000E+00
 -1       642 8.54167E-02 1.25000E-02 0.00000E+00
 -1       643 8.64583E-02 1.25000E-02 0.00000E+00
 -1       644 8.75000E-02 1.25000E-02 0.00000E+00
 -1       645 8.85417E-02 1.25000E-02 0.00000E+00
 -1       646 8.95833E-02 1.25000E-02 0.00000E+00
 -1       647 9.06250E-02 1.25000E-02 0.00000E+00
 -1       648 9.16667E-02 1.25000E-02 0.00000E+00
 -1       649 9.27083E-02 1.25000E-02 0.00000E+00
 -1       650 9.37500E-02 1.25000E-02 0.00000E+00
 -1       651 9.47917E-02 1.25000E-02 0.00000E+00
 -1       652 9.58333E-02 1.25000E-02 0.00000E+00
 -1       653 9.68750E-02 1.25000E-02 0.00000E+00
 -1       654 9.79167E-02 1.25000E-02 0.00000E+00
 -1       655 9.89583E-02 1.25000E-02 0.00000E+00
 -1       656 8.33333E-02 1.35417E-02 0.00000E+00
 -1       657 8.33333E-02 1.45833E-02 0.00000E+00
 -1       658 8.33333E-02 1.56250E-02 0.00000E+00
 -1       659 8.33333E-02 1.66667E-02 0.00000E+00
 -1       660 8.33333E-02 1.77083E-02 0.00000E+00
 -1       661 8.43750E-02 1.28906E-02 0.00000E+00
 -1       662 8.54167E-02 1.32813E-02 0.00000E+00
 -1       663 8.64583E-02 1.36719E-02 0.00000E+00
 -1       664 8.75000E-02 1.40625E-02 0.00000E+00
 -1       665 8.85417E-02 1.44531E-02 0.00000E+00
 -1       666 8.95833E-02 1.48437E-02 0.00000E+00
 -1       667 9.06250E-02 1.52344E-02 0.00000E+00
 -1       668 9.16667E-02 1.56250E-02 0.00000E+00
 -1       669 9.27083E-02 1.60156E-02 0.00000E+00
 -1       670 9.37500E-02 1.64062E-02 0.00000E+00
 -1       671 9.47917E-02 1.67969E-02 0.00000E+00
 -1       672 9.58333E-02 1.71875E-02 0.00000E+00
 -1       673 9.68750E-02 1.75781E-02 0.00000E+00
 -1       674 9.79167E-02 1.79687E-02 0.00000E+00
 -1       675 9.89583E-02 1.83594E-02 0.00000E+00
 -1       676 1.00000E-01 1.35417E-02 0.00000E+00
 -1       677 1.00000E-01 1.45833E-02 0.00000E+00
 -1       678 1.00000E-01 1.56250E-02 0.00000E+00
 -1       679 1.00000E-01 1.66667E-02 0.00000E+00
 -1       680 1.00000E-01 1.77083E-02 0.00000E+00
 -1       681 1.04167E-03 1.87500E-02 0.00000E+00
 -1       682 2.08333E-03 1.87500E-02 0.00000E+00
 -1       683 3.12500E-03 1.87500E-02 0.00000E+00
 -1       684 4.16667E-03 1.87500E-02 0.00000E+00
 -1       685 5.20833E-03 1.87500E-02 0.00000E+00
 -1       686 6.25000E-03 1.87500E-02 0.00000E+00
 -1       687 7.29167E-03 1.87500E-02 0.00000E+00
 -1       688 8.33333E-03 1.87500E-02 0.00000E+00
 -1       689 9.37500E-03 1.87500E-02 0.00000E+00
 -1       690 1.04167E-02 1.87500E-02 0.00000E+00
 -1       691 1.14583E-02 1.87500E-02 0.00000E+00
 -1       692 1.25000E-02 1.87500E-02 0.00000E+00
 -1       693 1.35417E-02 1.87500E-02 0.00000E+00
 -1       694 1.45833E-02 1.87500E-02 0.00000E+00
 -1       695 1.56250E-02 1.87500E-02 0.00000E+00
 -1       696 0.00000E+00 1.97917E-02 0.00000E+00
 -1       697 0.00000E+00 2.08333E-02 0.00000E+00
 -1       698 0.00000E+00 2.18750E-02 0.00000E+00
 -1       699 0.00000E+00 2.29167E-02 0.00000E+00
 -1       700 0.00000E+00 2.39583E-02 0.00000E+00
 -1       701 1.04167E-03 1.91406E-02 0.00000E+00
 -1       702 2.08333E-03 1.95312E-02 0.00000E+00
 -1       703 3.12500E-03 1.99219E-02 0.00000E+00
 -1       704 4.16667E-03 2.03125E-02 0.00000E+00
 -1       705 5.20833E-03 2.07031E-02 0.00000E+00
 -1       706 6.25000E-03 2.10938E-02 0.00000E+00
 -1       707 7.29167E-03 2.14844E-02 0.00000E+00
 -1       708 8.33333E-03 2.18750E-02 0.00000E+00
 -1       709 9.37500E-03 2.22656E-02 0.00000E+00
 -1       710 1.04167E-02 2.26563E-02 0.00000E+00
 -1       711 1.14583E-02 2.30469E-02 0.00000E+00
 -1       712 1.25000E-02 2.34375E-02 0.00000E+00
 -1       713 1.35417E-02 2.38281E-02 0.00000E+00
 -1       714 1.45833E-02 2.42187E-02 0.00000E+00
 -1       715 1.56250E-02 2.46094E-02 0.00000E+00
 -1       716 1.77083E-02 1.87500E-02 0.00000E+00
 -1       717 1.87500E-02 1.87500E-02 0.00000E+00
 -1       718 1.97917E-02 1.87500E-02 0.00000E+00
 -1       719 2.08333E-02 1.87500E-02 0.00000E+00
 -1       720 2.18750E-02 1.87500E-02 0.00000E+00
 -1       721 2.29167E-02 1.87500E-02 0.00000E+00
 -1       722 2.39583E-02 1.87500E-02 0.00000E+00
 -1       723 2.50000E-02 1.87500E-02 0.00000E+00
 -1       724 2.60417E-02 1.87500E-02 0.00000E+00
 -1       725 2.70833E-02 1.87500E-02 0.00000E+00
 -1       726 2.81250E-02 1.87500E-02 0.00000E+00
 -1       727 2.91667E-02 1.87500E-02 0.00000E+00
 -1       728 3.02083E-02 1.87500E-02 0.00000E+00
 -1       729 3.12500E-02 1.87500E-02 0.00000E+00
 -1       730 3.22917E-02 1.87500E-02 0.00000E+00
 -1       731 1.66667E-02 1.97917E-02 0.00000E+00
 -1       732 1.66667E-02 2.08333E-02 0.00000E+00
 -1       733 1.66667E-02 2.18750E-02 0.00000E+00
 -1       734 1.66667E-02 2.29167E-02 0.00000E+00
 -1       735 1.66667E-02 2.39583E-02 0.00000E+00
 -1       736 1.77083E-02 1.91406E-02 0.00000E+00
 -1       737 1.87500E-02 1.95312E-02 0.00000E+00
 -1       738 1.97917E-02 1.99219E-02 0.00000E+00
 -1       739 2.08333E-02 2.03125E-02 0.00000E+00
 -1       740 2.18750E-02 2.07031E-02 0.00000E+00
 -1       741 2.29167E-02 2.10938E-02 0.00000E+00
 -1       742 2.39583E-02 2.14844E-02 0.00000E+00
 -1       743 2.50000E-02 2.18750E-02 0.00000E+00
 -1       744 2.60417E-02 2.22656E-02 0.00000E+00
 -1       745 2.70833E-02 2.26563E-02 0.00000E+00
 -1       746 2.81250E-02 2.30469E-02 0.00000E+00
 -1       747 2.91667E-02 2.34375E-02 0.00000E+00
 -1       748 3.02083E-02 2.38281E-02 0.00000E+00
 -1       749 3.12500E-02 2.42187E-02 0.00000E+00
 -1       750 3.22917E-02 2.46094E-02 0.00000E+00
 -1       751 3.43750E-02 1.87500E-02 0.00000E+00
 -1       752 3.54167E-02 1.87500E-02 0.00000E+00
 -1       753 3.64583E-02 1.87500E-02 0.00000E+00
 -1       754 3.75000E-02 1.87500E-02 0.00000E+00
 -1       755 3.85417E-02 1.87500E-02 0.00000E+00
 -1       756 3.95833E-02 1.87500E-02 0.00000E+00
 -1       757 4.06250E-02 1.87500E-02 0.00000E+00
 -1       758 4.16667E-02 1.87500E-02 0.00000E+00
 -1       759 4.27083E-02 1.87500E-02 0.00000E+00
 -1       760 4.37500E-02 1.87500E-02 0.00000E+00
 -1       761 4.47917E-02 1.87500E-02 0.00000E+00
 -1       762 4.58333E-02 1.87500E-02 0.00000E+00
 -1       763 4.68750E-02 1.87500E-02 0.00000E+00
 -1       764 4.79167E-02 1.87500E-02 0.00000E+00
 -1       765 4.89583E-02 1.87500E-02 0.00000E+00
 -1       766 3.33333E-02 1.97917E-02 0.00000E+00
 -1       767 3.33333E-02 2.08333E-02 0.00000E+00
 -1       768 3.33333E-02 2.18750E-02 0.00000E+00
 -1       769 3.33333E-02 2.29167E-02 0.00000E+00
 -1       770 3.33333E-02 2.39583E-02 0.00000E+00
 -1       771 3.43750E-02 1.91406E-02 0.00000E+00
 -1       772 3.54167E-02 1.95312E-02 0.00000E+00
 -1       773 3.64583E-02 1.99219E-02 0.00000E+00
 -1       774 3.75000E-02 2.03125E-02 0.00000E+00
 -1       775 3.85417E-02 2.07031E-02 0.00000E+00
 -1       776 3.95833E-02 2.10938E-02 0.00000E+00
 -1       777 4.06250E-02 2.14844E-02 0.00000E+00
 -1       778 4.16667E-02 2.18750E-02 0.00000E+00
 -1       779 4.27083E-02 2.22656E-02 0.00000E+00
 -1       780 4.37500E-02 2.26563E-02 0.00000E+00
 -1       781 4.47917E-02 2.30469E-02 0.00000E+00
 -1       782 4.58333E-02 2.34375E-02 0.00000E+00
 -1       783 4.68750E-02 2.38281E-02 0.00000E+00
 -1       784 4.79167E-02 2.42187E-02 0.00000E+00
 -1       785 4.89583E-02 2.46094E-02 0.00000E+00
 -1       786 5.10417E-02 1.87500E-02 0.00000E+00
 -1       787 5.20833E-02 1.87500E-02 0.00000E+00
 -1       788 5.31250E-02 1.87500E-02 0.00000E+00
 -1       789 5.41667E-02 1.87500E-02 0.00000E+00
 -1       790 5.52083E-02 1.87500E-02 0.00000E+00
 -1       791 5.62500E-02 1.87500E-02 0.00000E+00
 -1       792 5.72917E-02 1.87500E-02 0.00000E+00
 -1       793 5.83333E-02 1.87500E-02 0.00000E+00
 -1       794 5.93750E-02 1.87500E-02 0.00000E+00
 -1       795 6.04167E-02 1.87500E-02 0.00000E+00
 -1       796 6.14583E-02 1.87500E-02 0.00000E+00
 -1       797 6.25000E-02 1.87500E-02 0.00000E+00
 -1       798 6.35417E-02 1.87500E-02 0.00000E+00
 -1       799 6.45833E-02 1.87500E-02 0.00000E+00
 -1       800 6.56250E-02 1.87500E-02 0.00000E+00
 -1       801 5.00000E-02 1.97917E-02 0.00000E+00
 -1       802 5.00000E-02 2.08333E-02 0.00000E+00
 -1       803 5.00000E-02 2.18750E-02 0.00000E+00
 -1       804 5.00000E-02 2.29167E-02 0.00000E+00
 -1       805 5.00000E-02 2.39583E-02 0.00000E+00
 -1       806 5.10417E-02 1.91406E-02 0.00000E+00
 -1       807 5.20833E-02 1.95312E-02 0.00000E+00
 -1       808 5.31250E-02 1.99219E-02 0.00000E+00
 -1       809 5.41667E-02 2.03125E-02 0.00000E+00
 -1       810 5.52083E-02 2.07031E-02 0.00000E+00
 -1       811 5.62500E-02 2.10938E-02 0.00000E+00
 -1       812 5.72917E-02 2.14844E-02 0.00000E+00
 -1       813 5.83333E-02 2.18750E-02 0.00000E+00
 -1       814 5.93750E-02 2.22656E-02 0.00000E+00
 -1       815 6.04167E-02 2.26563E-02 0.00000E+00
 -1       816 6.14583E-02 2.30469E-02 0.00000E+00
 -1       817 6.25000E-02 2.34375E-02 0.00000E+00
 -1       818 6.35417E-02 2.38281E-02 0.00000E+00
 -1       819 6.45833E-02 2.42187E-02 0.00000E+00
 -1       820 6.56250E-02 2.46094E-02 0.00000E+00
 -1       821 6.77083E-02 1.87500E-02 0.00000E+00
 -1       822 6.87500E-02 1.87500E-02 0.00000E+00
 -1       823 6.97917E-02 1.87500E-02 0.00000E+00
 -1       824 7.08333E-02 1.87500E-02 0.00000E+00
 -1       825 7.18750E-02 1.87500E-02 0.00000E+00
 -1       826 7.29167E-02 1.87500E-02 0.00000E+00
 -1       827 7.39583E-02 1.87500E-02 0.00000E+00
 -1       828 7.50000E-02 1.87500E-02 0.00000E+00
 -1       829 7.60417E-02 1.87500E-02 0.00000E+00
 -1       830 7.70833E-02 1.87500E-02 0.00000E+00
 -1       831 7.81250E-02 1.87500E-02 0.00000E+00
 -1       832 7.91667E-02 1.87500E-02 0.00000E+00
 -1       833 8.02083E-02 1.87500E-02 0.00000E+00
 -1       834 8.12500E-02 1.87500E-02 0.00000E+00
 -1       835 8.22917E-02 1.87500E-02 0.00000E+00
 -1       836 6.66667E-02 1.97917E-02 0.00000E+00
 -1       837 6.66667E-02 2.08333E-02 0.00000E+00
 -1       838 6.66667E-02 2.18750E-02 0.00000E+00
 -1       839 6.66667E-02 2.29167E-02 0.00000E+00
 -1       840 6.66667E-02 2.39583E-02 0.00000E+00
 -1       841 6.77083E-02 1.91406E-02 0.00000E+00
 -1       842 6.87500E-02 1.95312E-02 0.00000E+00
 -1       843 6.97917E-02 1.99219E-02 0.00000E+00
 -1       844 7.08333E-02 2.03125E-02 0.00000E+00
 -1       845 7.18750E-02 2.07031E-02 0.00000E+00
 -1       846 7.29167E-02 2.10938E-02 0.00000E+00
 -1       847 7.39583E-02 2.14844E-02 0.00000E+00
 -1       848 7.50000E-02 2.18750E-02 0.00000E+00
 -1       849 7.60417E-02 2.22656E-02 0.00000E+00
 -1       850 7.70833E-02 2.26563E-02 0.00000E+00
 -1       851 7.81250E-02 2.30469E-02 0.00000E+00
 -1       852 7.91667E-02 2.34375E-02 0.00000E+00
 -1       853 8.02083E-02 2.38281E-02 0.00000E+00
 -1       854 8.12500E-02 2.42187E-02 0.00000E+00
 -1       855 8.22917E-02 2.46094E-02 0.00000E+00
 -1       856 8.43750E-02 1.87500E-02 0.00000E+00
 -1       857 8.54167E-02 1.87500E-02 0.00000E+00
 -1       858 8.64583E-02 1.87500E-02 0.00000E+00
 -1       859 8.75000E-02 1.87500E-02 0.00000E+00
 -1       860 8.85417E-02 1.87500E-02 0.00000E+00
 -1       861 8.95833E-02 1.87500E-02 0.00000E+00
 -1       862 9.06250E-02 1.87500E-02 0.00000E+00
 -1       863 9.16667E-02 1.87500E-02 0.00000E+00
 -1       864 9.27083E-02 1.87500E-02 0.00000E+00
 -1       865 9.37500E-02 1.87500E-02 0.00000E+00
 -1       866 9.47917E-02 1.87500E-02 0.00000E+00
 -1       867 9.58333E-02 1.87500E-02 0.00000E+00
 -1       868 9.68750E-02 1.87500E-02 0.00000E+00
 -1       869 9.79167E-02 1.87500E-02 0.00000E+00
 -1       870 9.89583E-02 1.87500E-02 0.00000E+00
 -1       871 8.33333E-02 1.97917E-02 0.00000E+00
 -1       872 8.33333E-02 2.08333E-02 0.00000E+00
 -1       873 8.33333E-02 2.18750E-02 0.00000E+00
 -1       874 8.33333E-02 2.29167E-02 0.00000E+00
 -1       875 8.33333E-02 2.39583E-02 0.00000E+00
 -1       876 8.43750E-02 1.91406E-02 0.00000E+00
 -1       877 8.54167E-02 1.95312E-02 0.00000E+00
 -1       878 8.64583E-02 1.99219E-02 0.00000E+00
 -1       879 8.75000E-02 2.03125E-02 0.00000E+00
 -1       880 8.85417E-02 2.07031E-02 0.00000E+00
 -1       881 8.95833E-02 2.10938E-02 0.00000E+00
 -1       882 9.06250E-02 2.14844E-02 0.00000E+00
 -1       883 9.16667E-02 2.18750E-02 0.00000E+00
 -1       884 9.27083E-02 2.22656E-02 0.00000E+00
 -1       885 9.37500E-02 2.26563E-02 0.00000E+00
 -1       886 9.47917E-02 2.30469E-02 0.00000E+00
 -1       887 9.58333E-02 2.34375E-02 0.00000E+00
 -1       888 9.68750E-02 2.38281E-02 0.00000E+00
 -1       889 9.79167E-02 2.42187E-02 0.00000E+00
 -1       890 9.89583E-02 2.46094E-02 0.00000E+00
 -1       891 1.00000E-01 1.97917E-02 0.00000E+00
 -1       892 1.00000E-01 2.08333E-02 0.00000E+00
 -1       893 1.00000E-01 2.18750E-02 0.00000E+00
 -1       894 1.00000E-01 2.29167E-02 0.00000E+00
 -1       895 1.00000E-01 2.39583E-02 0.00000E+00
 -1       896 1.04167E-03 2.50000E-02 0.00000E+00
 -1       897 2.08333E-03 2.50000E-02 0.00000E+00
 -1       898 3.12500E-03 2.50000E-02 0.00000E+00
 -1       899 4.16667E-03 2.50000E-02 0.00000E+00
 -1       900 5.20833E-03 2.50000E-02 0.00000E+00
 -1       901 6.25000E-03 2.50000E-02 0.00000E+00
 -1       902 7.29167E-03 2.50000E-02 0.00000E+00
 -1       903 8.33333E-03 2.50000E-02 0.00000E+00
 -1       904 9.37500E-03 2.50000E-02 0.00000E+00
 -1       905 1.04167E-02 2.50000E-02 0.00000E+00
 -1       906 1.14583E-02 2.50000E-02 0.00000E+00
 -1       907 1.25000E-02 2.50000E-02 0.00000E+00
 -1       908 1.35417E-02 2.50000E-02 0.00000E+00
 -1       909 1.45833E-02 2.50000E-02 0.00000E+00
 -1       910 1.56250E-02 2.50000E-02 0.00000E+00
 -1       911 1.77083E-02 2.50000E-02 0.00000E+00
 -1       912 1.87500E-02 2.50000E-02 0.00000E+00
 -1       913 1.97917E-02 2.50000E-02 0.00000E+00
 -1       914 2.08333E-02 2.50000E-02 0.00000E+00
 -1       915 2.18750E-02 2.50000E-02 0.00000E+00
 -1       916 2.29167E-02 2.50000E-02 0.00000E+00
 -1       917 2.39583E-02 2.50000E-02 0.00000E+00
 -1       918 2.50000E-02 2.50000E-02 0.00000E+00
 -1       919 2.60417E-02 2.50000E-02 0.00000E+00
 -1       920 2.70833E-02 2.50000E-02 0.00000E+00
 -1       921 2.81250E-02 2.50000E-02 0.00000E+00
 -1       922 2.91667E-02 2.50000E-02 0.00000E+00
 -1       923 3.02083E-02 2.50000E-02 0.00000E+00
 -1       924 3.12500E-02 2.50000E-02 0.00000E+00
 -1       925 3.22917E-02 2.50000E-02 0.00000E+00
 -1       926 3.43750E-02 2.50000E-02 0.00000E+00
 -1       927 3.54167E-02 2.50000E-02 0.00000E+00
 -1       928 3.64583E-02 2.50000E-02 0.00000E+00
 -1       929 3.75000E-02 2.50000E-02 0.00000E+00
 -1       930 3.85417E-02 2.50000E-02 0.00000E+00
 -1       931 3.95833E-02 2.50000E-02 0.00000E+00
 -1       932 4.06250E-02 2.50000E-02 0.00000E+00
 -1       933 4.16667E-02 2.50000E-02 0.00000E+00
 -1       934 4.27083E-02 2.50000E-02 0.00000E+00
 -1       935 4.37500E-02 2.50000E-02 0.00000E+00
 -1       936 4.47917E-02 2.50000E-02 0.00000E+00
 -1       937 4.58333E-02 2.50000E-02 0.00000E+00
 -1       938 4.68750E-02 2.50000E-02 0.00000E+00
 -1       939 4.79167E-02 2.50000E-02 0.00000E+00
 -1       940 4.89583E-02 2.50000E-02 0.00000E+00
 -1       941 5.10417E-02 2.50000E-02 0.00000E+00
 -1       942 5.20833E-02 2.50000E-02 0.00000E+00
 -1       943 5.31250E-02 2.50000E-02 0.00000E+00
 -1       944 5.41667E-02 2.50000E-02 0.00000E+00
 -1       945 5.52083E-02 2.50000E-02 0.00000E+00
 -1       946 5.62500E-02 2.50000E-02 0.00000E+00
 -1       947 5.72917E-02 2.50000E-02 0.00000E+00
 -1       948 5.83333E-02 2.50000E-02 0.00000E+00
 -1       949 5.93750E-02 2.50000E-02 0.00000E+00
 -1       950 6.04167E-02 2.50000E-02 0.00000E+00
 -1       951 6.14583E-02 2.50000E-02 0.00000E+00
 -1       952 6.25000E-02 2.50000E-02 0.00000E+00
 -1       953 6.35417E-02 2.50000E-02 0.00000E+00
 -1       954 6.45833E-02 2.50000E-02 0.00000E+00
 -1       955 6.56250E-02 2.50000E-02 0.00000E+00
 -1       956 6.77083E-02 2.50000E-02 0.00000E+00
 -1       957 6.87500E-02 2.50000E-02 0.00000E+00
 -1       958 6.97917E-02 2.50000E-02 0.00000E+00
 -1       959 7.08333E-02 2.50000E-02 0.00000E+00
 -1       960 7.18750E-02 2.50000E-02 0.00000E+00
 -1       961 7.29167E-02 2.50000E-02 0.00000E+00
 -1       962 7.39583E-02 2.50000E-02 0.00000E+00
 -1       963 7.50000E-02 2.50000E-02 0.00000E+00
 -1       964 7.60417E-02 2.50000E-02 0.00000E+00
 -1       965 7.70833E-02 2.50000E-02 0.00000E+00
 -1       966 7.81250E-02 2.50000E-02 0.00000E+00
 -1       967 7.91667E-02 2.50000E-02 0.00000E+00
 -1       968 8.02083E-02 2.50000E-02 0.00000E+00
 -1       969 8.12500E-02 2.50000E-02 0.00000E+00
 -1       970 8.22917E-02 2.50000E-02 0.00000E+00
 -1       971 8.43750E-02 2.50000E-02 0.00000E+00
 -1       972 8.54167E-02 2.50000E-02 0.00000E+00
 -1       973 8.64583E-02 2.50000E-02 0.00000E+00
 -1       974 8.75000E-02 2.50000E-02 0.00000E+00
 -1       975 8.85417E-02 2.50000E-02 0.00000E+00
 -1       976 8.95833E-02 2.50000E-02 0.00000E+00
 -1       977 9.06250E-02 2.50000E-02 0.00000E+00
 -1       978 9.16667E-02 2.50000E-02 0.00000E+00
 -1       979 9.27083E-02 2.50000E-02 0.00000E+00
 -1       980 9.37500E-02 2.50000E-02 0.00000E+00
 -1       981 9.47917E-02 2.50000E-02 0.00000E+00
 -1       982 9.58333E-02 2.50000E-02 0.00000E+00
 -1       983 9.68750E-02 2.50000E-02 0.00000E+00
 -1       984 9.79167E-02 2.50000E-02 0.00000E+00
 -1       985 9.89583E-02 2.50000E-02 0.00000E+00
 -3
    3C                           440                                     1
 -1         1   12    0    1
 -2         1        37        36
 -1         2   12    0    1
 -2        37        39        38
 -1         3   12    0    1
 -2        39        41        40
 -1         4   12    0    1
 -2        41        43        42
 -1         5   12    0    1
 -2        43        45        44
 -1         6   12    0    1
 -2        45        47        46
 -1         7   12    0    1
 -2        47        49        48
 -1         8   12    0    1
 -2        49         2        50
 -1         9   12    0    1
 -2         1        52        51
 -1        10   12    0    1
 -2        52        54        53
 -1        11   12    0    1
 -2        54         8        55
 -1        12   12    0    1
 -2         1        57        56
 -1        13   12    0    1
 -2        57        59        58
 -1        14   12    0    1
 -2        59        61        60
 -1        15   12    0    1
 -2        61        63        62
 -1        16   12    0    1
 -2        63        65        64
 -1        17   12    0    1
 -2        65        67        66
 -1        18   12    0    1
 -2        67        69        68
 -1        19   12    0    1
 -2        69         9        70
 -1        20   12    0    1
 -2         2        72        71
 -1        21   12    0    1
 -2        72        74        73
 -1        22   12    0    1
 -2        74        76        75
 -1        23   12    0    1
 -2        76        78        77
 -1        24   12    0    1
 -2        78        80        79
 -1        25   12    0    1
 -2        80        82        81
 -1        26   12    0    1
 -2        82        84        83
 -1        27   12    0    1
 -2        84         3        85
 -1        28   12    0    1
 -2         2        87        86
 -1        29   12    0    1
 -2        87        89        88
 -1        30   12    0    1
 -2        89         9        90
 -1        31   12    0    1
 -2         2        92        91
 -1        32   12    0    1
 -2        92        94        93
 -1        33   12    0    1
 -2        94        96        95
 -1        34   12    0    1
 -2        96        98        97
 -1        35   12    0    1
 -2        98       100        99
 -1        36   12    0    1
 -2       100       102       101
 -1        37   12    0    1
 -2       102       104       103
 -1        38   12    0    1
 -2       104        10       105
 -1        39   12    0    1
 -2         3       107       106
 -1        40   12    0    1
 -2       107       109       108
 -1        41   12    0    1
 -2       109       111       110
 -1        42   12    0    1
 -2       111       113       112
 -1        43   12    0    1
 -2       113       115       114
 -1        44   12    0    1
 -2       115       117       116
 -1        45   12    0    1
 -2       117       119       118
 -1        46   12    0    1
 -2       119         4       120
 -1        47   12    0    1
 -2         3       122       121
 -1        48   12    0    1
 -2       122       124       123
 -1        49   12    0    1
 -2       124        10       125
 -1        50   12    0    1
 -2         3       127       126
 -1        51   12    0    1
 -2       127       129       128
 -1        52   12    0    1
 -2       129       131       130
 -1        53   12    0    1
 -2       131       133       132
 -1        54   12    0    1
 -2       133       135       134
 -1        55   12    0    1
 -2       135       137       136
 -1        56   12    0    1
 -2       137       139       138
 -1        57   12    0    1
 -2       139        11       140
 -1        58   12    0    1
 -2         4       142       141
 -1        59   12    0    1
 -2       142       144       143
 -1        60   12    0    1
 -2       144       146       145
 -1        61   12    0    1
 -2       146       148       147
 -1        62   12    0    1
 -2       148       150       149
 -1        63   12    0    1
 -2       150       152       151
 -1        64   12    0    1
 -2       152       154       153
 -1        65   12    0    1
 -2       154         5       155
 -1        66   12    0    1
 -2         4       157       156
 -1        67   12    0    1
 -2       157       159       158
 -1        68   12    0    1
 -2       159        11       160
 -1        69   12    0    1
 -2         4       162       161
 -1        70   12    0    1
 -2       162       164       163
 -1        71   12    0    1
 -2       164       166       165
 -1        72   12    0    1
 -2       166       168       167
 -1        73   12    0    1
 -2       168       170       169
 -1        74   12    0    1
 -2       170       172       171
 -1        75   12    0    1
 -2       172       174       173
 -1        76   12    0    1
 -2       174        12       175
 -1        77   12    0    1
 -2         5       192       191
 -1        78   12    0    1
 -2       192       194       193
 -1        79   12    0    1
 -2       194        12       195
 -1        80   12    0    1
 -2         8       252       251
 -1        81   12    0    1
 -2       252       254       253
 -1        82   12    0    1
 -2       254       256       255
 -1        83   12    0    1
 -2       256       258       257
 -1        84   12    0    1
 -2       258       260       259
 -1        85   12    0    1
 -2       260       262       261
 -1        86   12    0    1
 -2       262       264       263
 -1        87   12    0    1
 -2       264         9       265
 -1        88   12    0    1
 -2         8       267       266
 -1        89   12    0    1
 -2       267       269       268
 -1        90   12    0    1
 -2       269        15       270
 -1        91   12    0    1
 -2         8       272       271
 -1        92   12    0    1
 -2       272       274       273
 -1        93   12    0    1
 -2       274       276       275
 -1        94   12    0    1
 -2       276       278       277
 -1        95   12    0    1
 -2       278       280       279
 -1        96   12    0    1
 -2       280       282       281
 -1        97   12    0    1
 -2       282       284       283
 -1        98   12    0    1
 -2       284        16       285
 -1        99   12    0    1
 -2         9       287       286
 -1       100   12    0    1
 -2       287       289       288
 -1       101   12    0    1
 -2       289       291       290
 -1       102   12    0    1
 -2       291       293       292
 -1       103   12    0    1
 -2       293       295       294
 -1       104   12    0    1
 -2       295       297       296
 -1       105   12    0    1
 -2       297       299       298
 -1       106   12    0    1
 -2       299        10       300
 -1       107   12    0    1
 -2         9       302       301
 -1       108   12    0    1
 -2       302       304       303
 -1       109   12    0    1
 -2       304        16       305
 -1       110   12    0    1
 -2         9       307       306
 -1       111   12    0    1
 -2       307       309       308
 -1       112   12    0    1
 -2       309       311       310
 -1       113   12    0    1
 -2       311       313       312
 -1       114   12    0    1
 -2       313       315       314
 -1       115   12    0    1
 -2       315       317       316
 -1       116   12    0    1
 -2       317       319       318
 -1       117   12    0    1
 -2       319        17       320
 -1       118   12    0    1
 -2        10       322       321
 -1       119   12    0    1
 -2       322       324       323
 -1       120   12    0    1
 -2       324       326       325
 -1       121   12    0    1
 -2       326       328       327
 -1       122   12    0    1
 -2       328       330       329
 -1       123   12    0    1
 -2       330       332       331
 -1       124   12    0    1
 -2       332       334       333
 -1       125   12    0    1
 -2       334        11       335
 -1       126   12    0    1
 -2        10       337       336
 -1       127   12    0    1
 -2       337       339       338
 -1       128   12    0    1
 -2       339        17       340
 -1       129   12    0    1
 -2        10       342       341
 -1       130   12    0    1
 -2       342       344       343
 -1       131   12    0    1
 -2       344       346       345
 -1       132   12    0    1
 -2       346       348       347
 -1       133   12    0    1
 -2       348       350       349
 -1       134   12    0    1
 -2       350       352       351
 -1       135   12    0    1
 -2       352       354       353
 -1       136   12    0    1
 -2       354        18       355
 -1       137   12    0    1
 -2        11       357       356
 -1       138   12    0    1
 -2       357       359       358
 -1       139   12    0    1
 -2       359       361       360
 -1       140   12    0    1
 -2       361       363       362
 -1       141   12    0    1
 -2       363       365       364
 -1       142   12    0    1
 -2       365       367       366
 -1       143   12    0    1
 -2       367       369       368
 -1       144   12    0    1
 -2       369        12       370
 -1       145   12    0    1
 -2        11       372       371
 -1       146   12    0    1
 -2       372       374       373
 -1       147   12    0    1
 -2       374        18       375
 -1       148   12    0    1
 -2        11       377       376
 -1       149   12    0    1
 -2       377       379       378
 -1       150   12    0    1
 -2       379       381       380
 -1       151   12    0    1
 -2       381       383       382
 -1       152   12    0    1
 -2       383       385       384
 -1       153   12    0    1
 -2       385       387       386
 -1       154   12    0    1
 -2       387       389       388
 -1       155   12    0    1
 -2       389        19       390
 -1       156   12    0    1
 -2        12       407       406
 -1       157   12    0    1
 -2       407       409       408
 -1       158   12    0    1
 -2       409        19       410
 -1       159   12    0    1
 -2        15       467       466
 -1       160   12    0    1
 -2       467       469       468
 -1       161   12    0    1
 -2       469       471       470
 -1       162   12    0    1
 -2       471       473       472
 -1       163   12    0    1
 -2       473       475       474
 -1       164   12    0    1
 -2       475       477       476
 -1       165   12    0    1
 -2       477       479       478
 -1       166   12    0    1
 -2       479        16       480
 -1       167   12    0    1
 -2        15       482       481
 -1       168   12    0    1
 -2       482       484       483
 -1       169   12    0    1
 -2       484        22       485
 -1       170   12    0    1
 -2        15       487       486
 -1       171   12    0    1
 -2       487       489       488
 -1       172   12    0    1
 -2       489       491       490
 -1       173   12    0    1
 -2       491       493       492
 -1       174   12    0    1
 -2       493       495       494
 -1       175   12    0    1
 -2       495       497       496
 -1       176   12    0    1
 -2       497       499       498
 -1       177   12    0    1
 -2       499        23       500
 -1       178   12    0    1
 -2        16       502       501
 -1       179   12    0    1
 -2       502       504       503
 -1       180   12    0    1
 -2       504       506       505
 -1       181   12    0    1
 -2       506       508       507
 -1       182   12    0    1
 -2       508       510       509
 -1       183   12    0    1
 -2       510       512       511
 -1       184   12    0    1
 -2       512       514       513
 -1       185   12    0    1
 -2       514        17       515
 -1       186   12    0    1
 -2        16       517       516
 -1       187   12    0    1
 -2       517       519       518
 -1       188   12    0    1
 -2       519        23       520
 -1       189   12    0    1
 -2        16       522       521
 -1       190   12    0    1
 -2       522       524       523
 -1       191   12    0    1
 -2       524       526       525
 -1       192   12    0    1
 -2       526       528       527
 -1       193   12    0    1
 -2       528       530       529
 -1       194   12    0    1
 -2       530       532       531
 -1       195   12    0    1
 -2       532       534       533
 -1       196   12    0    1
 -2       534        24       535
 -1       197   12    0    1
 -2        17       537       536
 -1       198   12    0    1
 -2       537       539       538
 -1       199   12    0    1
 -2       539       541       540
 -1       200   12    0    1
 -2       541       543       542
 -1       201   12    0    1
 -2       543       545       544
 -1       202   12    0    1
 -2       545       547       546
 -1       203   12    0    1
 -2       547       549       548
 -1       204   12    0    1
 -2       549        18       550
 -1       205   12    0    1
 -2        17       552       551
 -1       206   12    0    1
 -2       552       554       553
 -1       207   12    0    1
 -2       554        24       555
 -1       208   12    0    1
 -2        17       557       556
 -1       209   12    0    1
 -2       557       559       558
 -1       210   12    0    1
 -2       559       561       560
 -1       211   12    0    1
 -2       561       563       562
 -1       212   12    0    1
 -2       563       565       564
 -1       213   12    0    1
 -2       565       567       566
 -1       214   12    0    1
 -2       567       569       568
 -1       215   12    0    1
 -2       569        25       570
 -1       216   12    0    1
 -2        18       572       571
 -1       217   12    0    1
 -2       572       574       573
 -1       218   12    0    1
 -2       574       576       575
 -1       219   12    0    1
 -2       576       578       577
 -1       220   12    0    1
 -2       578       580       579
 -1       221   12    0    1
 -2       580       582       581
 -1       222   12    0    1
 -2       582       584       583
 -1       223   12    0    1
 -2       584        19       585
 -1       224   12    0    1
 -2        18       587       586
 -1       225   12    0    1
 -2       587       589       588
 -1       226   12    0    1
 -2       589        25       590
 -1       227   12    0    1
 -2        18       592       591
 -1       228   12    0    1
 -2       592       594       593
 -1       229   12    0    1
 -2       594       596       595
 -1       230   12    0    1
 -2       596       598       597
 -1       231   12    0    1
 -2       598       600       599
 -1       232   12    0    1
 -2       600       602       601
 -1       233   12    0    1
 -2       602       604       603
 -1       234   12    0    1
 -2       604        26       605
 -1       235   12    0    1
 -2        19       607       606
 -1       236   12    0    1
 -2       607       609       608
 -1       237   12    0    1
 -2       609       611       610
 -1       238   12    0    1
 -2       611       613       612
 -1       239   12    0    1
 -2       613       615       614
 -1       240   12    0    1
 -2       615       617       616
 -1       241   12    0    1
 -2       617       619       618
 -1       242   12    0    1
 -2       619        20       620
 -1       243   12    0    1
 -2        19       622       621
 -1       244   12    0    1
 -2       622       624       623
 -1       245   12    0    1
 -2       624        26       625
 -1       246   12    0    1
 -2        19       627       626
 -1       247   12    0    1
 -2       627       629       628
 -1       248   12    0    1
 -2       629       631       630
 -1       249   12    0    1
 -2       631       633       632
 -1       250   12    0    1
 -2       633       635       634
 -1       251   12    0    1
 -2       635       637       636
 -1       252   12    0    1
 -2       637       639       638
 -1       253   12    0    1
 -2       639        27       640
 -1       254   12    0    1
 -2        20       642       641
 -1       255   12    0    1
 -2       642       644       643
 -1       256   12    0    1
 -2       644       646       645
 -1       257   12    0    1
 -2       646       648       647
 -1       258   12    0    1
 -2       648       650       649
 -1       259   12    0    1
 -2       650       652       651
 -1       260   12    0    1
 -2       652       654       653
 -1       261   12    0    1
 -2       654        21       655
 -1       262   12    0    1
 -2        20       657       656
 -1       263   12    0    1
 -2       657       659       658
 -1       264   12    0    1
 -2       659        27       660
 -1       265   12    0    1
 -2        20       662       661
 -1       266   12    0    1
 -2       662       664       663
 -1       267   12    0    1
 -2       664       666       665
 -1       268   12    0    1
 -2       666       668       667
 -1       269   12    0    1
 -2       668       670       669
 -1       270   12    0    1
 -2       670       672       671
 -1       271   12    0    1
 -2       672       674       673
 -1       272   12    0    1
 -2       674        28       675
 -1       273   12    0    1
 -2        21       677       676
 -1       274   12    0    1
 -2       677       679       678
 -1       275   12    0    1
 -2       679        28       680
 -1       276   12    0    1
 -2        22       682       681
 -1       277   12    0    1
 -2       682       684       683
 -1       278   12    0    1
 -2       684       686       685
 -1       279   12    0    1
 -2       686       688       687
 -1       280   12    0    1
 -2       688       690       689
 -1       281   12    0    1
 -2       690       692       691
 -1       282   12    0    1
 -2       692       694       693
 -1       283   12    0    1
 -2       694        23       695
 -1       284   12    0    1
 -2        22       697       696
 -1       285   12    0    1
 -2       697       699       698
 -1       286   12    0    1
 -2       699        29       700
 -1       287   12    0    1
 -2        22       702       701
 -1       288   12    0    1
 -2       702       704       703
 -1       289   12    0    1
 -2       704       706       705
 -1       290   12    0    1
 -2       706       708       707
 -1       291   12    0    1
 -2       708       710       709
 -1       292   12    0    1
 -2       710       712       711
 -1       293   12    0    1
 -2       712       714       713
 -1       294   12    0    1
 -2       714        30       715
 -1       295   12    0    1
 -2        23       717       716
 -1       296   12    0    1
 -2       717       719       718
 -1       297   12    0    1
 -2       719       721       720
 -1       298   12    0    1
 -2       721       723       722
 -1       299   12    0    1
 -2       723       725       724
 -1       300   12    0    1
 -2       725       727       726
 -1       301   12    0    1
 -2       727       729       728
 -1       302   12    0    1
 -2       729        24       730
 -1       303   12    0    1
 -2        23       732       731
 -1       304   12    0    1
 -2       732       734       733
 -1       305   12    0    1
 -2       734        30       735
 -1       306   12    0    1
 -2        23       737       736
 -1       307   12    0    1
 -2       737       739       738
 -1       308   12    0    1
 -2       739       741       740
 -1       309   12    0    1
 -2       741       743       742
 -1       310   12    0    1
 -2       743       745       744
 -1       311   12    0    1
 -2       745       747       746
 -1       312   12    0    1
 -2       747       749       748
 -1       313   12    0    1
 -2       749        31       750
 -1       314   12    0    1
 -2        24       752       751
 -1       315   12    0    1
 -2       752       754       753
 -1       316   12    0    1
 -2       754       756       755
 -1       317   12    0    1
 -2       756       758       757
 -1       318   12    0    1
 -2       758       760       759
 -1       319   12    0    1
 -2       760       762       761
 -1       320   12    0    1
 -2       762       764       763
 -1       321   12    0    1
 -2       764        25       765
 -1       322   12    0    1
 -2        24       767       766
 -1       323   12    0    1
 -2       767       769       768
 -1       324   12    0    1
 -2       769        31       770
 -1       325   12    0    1
 -2        24       772       771
 -1       326   12    0    1
 -2       772       774       773
 -1       327   12    0    1
 -2       774       776       775
 -1       328   12    0    1
 -2       776       778       777
 -1       329   12    0    1
 -2       778       780       779
 -1       330   12    0    1
 -2       780       782       781
 -1       331   12    0    1
 -2       782       784       783
 -1       332   12    0    1
 -2       784        32       785
 -1       333   12    0    1
 -2        25       787       786
 -1       334   12    0    1
 -2       787       789       788
 -1       335   12    0    1
 -2       789       791       790
 -1       336   12    0    1
 -2       791       793       792
 -1       337   12    0    1
 -2       793       795       794
 -1       338   12    0    1
 -2       795       797       796
 -1       339   12    0    1
 -2       797       799       798
 -1       340   12    0    1
 -2       799        26       800
 -1       341   12    0    1
 -2        25       802       801
 -1       342   12    0    1
 -2       802       804       803
 -1       343   12    0    1
 -2       804        32       805
 -1       344   12    0    1
 -2        25       807       806
 -1       345   12    0    1
 -2       807       809       808
 -1       346   12    0    1
 -2       809       811       810
 -1       347   12    0    1
 -2       811       813       812
 -1       348   12    0    1
 -2       813       815       814
 -1       349   12    0    1
 -2       815       817       816
 -1       350   12    0    1
 -2       817       819       818
 -1       351   12    0    1
 -2       819        33       820
 -1       352   12    0    1
 -2        26       822       821
 -1       353   12    0    1
 -2       822       824       823
 -1       354   12    0    1
 -2       824       826       825
 -1       355   12    0    1
 -2       826       828       827
 -1       356   12    0    1
 -2       828       830       829
 -1       357   12    0    1
 -2       830       832       831
 -1       358   12    0    1
 -2       832       834       833
 -1       359   12    0    1
 -2       834        27       835
 -1       360   12    0    1
 -2        26       837       836
 -1       361   12    0    1
 -2       837       839       838
 -1       362   12    0    1
 -2       839        33       840
 -1       363   12    0    1
 -2        26       842       841
 -1       364   12    0    1
 -2       842       844       843
 -1       365   12    0    1
 -2       844       846       845
 -1       366   12    0    1
 -2       846       848       847
 -1       367   12    0    1
 -2       848       850       849
 -1       368   12    0    1
 -2       850       852       851
 -1       369   12    0    1
 -2       852       854       853
 -1       370   12    0    1
 -2       854        34       855
 -1       371   12    0    1
 -2        27       857       856
 -1       372   12    0    1
 -2       857       859       858
 -1       373   12    0    1
 -2       859       861       860
 -1       374   12    0    1
 -2       861       863       862
 -1       375   12    0    1
 -2       863       865       864
 -1       376   12    0    1
 -2       865       867       866
 -1       377   12    0    1
 -2       867       869       868
 -1       378   12    0    1
 -2       869        28       870
 -1       379   12    0    1
 -2        27       872       871
 -1       380   12    0    1
 -2       872       874       873
 -1       381   12    0    1
 -2       874        34       875
 -1       382   12    0    1
 -2        27       877       876
 -1       383   12    0    1
 -2       877       879       878
 -1       384   12    0    1
 -2       879       881       880
 -1       385   12    0    1
 -2       881       883       882
 -1       386   12    0    1
 -2       883       885       884
 -1       387   12    0    1
 -2       885       887       886
 -1       388   12    0    1
 -2       887       889       888
 -1       389   12    0    1
 -2       889        35       890
 -1       390   12    0    1
 -2        28       892       891
 -1       391   12    0    1
 -2       892       894       893
 -1       392   12    0    1
 -2       894        35       895
 -1       393   12    0    1
 -2        29       897       896
 -1       394   12    0    1
 -2       897       899       898
 -1       395   12    0    1
 -2       899       901       900
 -1       396   12    0    1
 -2       901       903       902
 -1       397   12    0    1
 -2       903       905       904
 -1       398   12    0    1
 -2       905       907       906
 -1       399   12    0    1
 -2       907       909       908
 -1       400   12    0    1
 -2       909        30       910
 -1       401   12    0    1
 -2        30       912       911
 -1       402   12    0    1
 -2       912       914       913
 -1       403   12    0    1
 -2       914       916       915
 -1       404   12    0    1
 -2       916       918       917
 -1       405   12    0    1
 -2       918       920       919
 -1       406   12    0    1
 -2       920       922       921
 -1       407   12    0    1
 -2       922       924       923
 -1       408   12    0    1
 -2       924        31       925
 -1       409   12    0    1
 -2        31       927       926
 -1       410   12    0    1
 -2       927       929       928
 -1       411   12    0    1
 -2       929       931       930
 -1       412   12    0    1
 -2       931       933       932
 -1       413   12    0    1
 -2       933       935       934
 -1       414   12    0    1
 -2       935       937       936
 -1       415   12    0    1
 -2       937       939       938
 -1       416   12    0    1
 -2       939        32       940
 -1       417   12    0    1
 -2        32       942       941
 -1       418   12    0    1
 -2       942       944       943
 -1       419   12    0    1
 -2       944       946       945
 -1       420   12    0    1
 -2       946       948       947
 -1       421   12    0    1
 -2       948       950       949
 -1       422   12    0    1
 -2       950       952       951
 -1       423   12    0    1
 -2       952       954       953
 -1       424   12    0    1
 -2       954        33       955
 -1       425   12    0    1
 -2        33       957       956
 -1       426   12    0    1
 -2       957       959       958
 -1       427   12    0    1
 -2       959       961       960
 -1       428   12    0    1
 -2       961       963       962
 -1       429   12    0    1
 -2       963       965       964
 -1       430   12    0    1
 -2       965       967       966
 -1       431   12    0    1
 -2       967       969       968
 -1       432   12    0    1
 -2       969        34       970
 -1       433   12    0    1
 -2        34       972       971
 -1       434   12    0    1
 -2       972       974       973
 -1       435   12    0    1
 -2       974       976       975
 -1       436   12    0    1
 -2       976       978       977
 -1       437   12    0    1
 -2       978       980       979
 -1       438   12    0    1
 -2       980       982       981
 -1       439   12    0    1
 -2       982       984       983
 -1       440   12    0    1
 -2       984        35       985
 -3
    1PSTEP                         1           1           1          
  100CL  101 1.000000000         841                     0    1           1
 -4  DISP        4    1
 -5  D1          1    2    1    0
 -5  D2          1    2    2    0
 -5  D3          1    2    3    0
 -5  ALL         1    2    0    0    1ALL
 -1         1 9.84343E-05 0.00000E+00 0.00000E+00
 -1         2 7.62523E-05 0.00000E+00 0.00000E+00
 -1         3 6.69065E-05 0.00000E+00 0.00000E+00
 -1         4 6.37013E-05 0.00000E+00 0.00000E+00
 -1         5 6.33006E-05 0.00000E+00 0.00000E+00
 -1         8 7.10259E-05-1.08800E-06 0.00000E+00
 -1         9 6.56144E-05 1.48757E-06 0.00000E+00
 -1        10 6.19731E-05-4.44662E-06 0.00000E+00
 -1        11 5.98167E-05-1.03301E-06 0.00000E+00
 -1        12 5.93533E-05 2.77235E-06 0.00000E+00
 -1        15 2.77233E-05-1.98835E-06 0.00000E+00
 -1        16 3.68206E-05 1.68288E-06 0.00000E+00
 -1        17 3.76268E-05-8.83957E-06 0.00000E+00
 -1        18 4.40758E-05-1.90305E-06 0.00000E+00
 -1        19 4.85120E-05 5.43882E-06 0.00000E+00
 -1        20 4.94984E-05 5.52815E-05 0.00000E+00
 -1        21 4.93972E-05 1.29507E-04 0.00000E+00
 -1        22 1.06765E-05-1.24985E-06 0.00000E+00
 -1        23 1.39729E-05 2.20425E-06 0.00000E+00
 -1        24 1.60819E-05-9.66398E-06 0.00000E+00
 -1        25 3.03993E-05-1.57994E-06 0.00000E+00
 -1        26 3.76368E-05 6.95108E-06 0.00000E+00
 -1        27 3.28125E-05 5.36023E-05 0.00000E+00
 -1        28 2.79912E-05 1.27963E-04 0.00000E+00
 -1        29 0.00000E+00 0.00000E+00 0.00000E+00
 -1        30 5.29249E-06 2.64617E-06 0.00000E+00
 -1        31 7.10459E-06-8.44475E-06 0.00000E+00
 -1        32 0.00000E+00 0.00000E+00 0.00000E+00
 -1        33 1.88232E-05 1.19154E-05 0.00000E+00
 -1        34 1.73396E-05 5.35146E-05 0.00000E+00
 -1        35 1.15698E-05 1.27151E-04 0.00000E+00
 -1        36 9.70849E-05-1.35658E-21-2.64698E-23
 -1        37 9.56983E-05 5.08882E-21 0.00000E+00
 -1        38 9.43130E-05-1.58091E-20 0.00000E+00
 -1        39 9.29215E-05-1.59083E-20 2.64698E-23
 -1        40 9.15294E-05-2.15332E-20 0.00000E+00
 -1        41 9.01361E-05-1.11504E-20-2.64698E-23
 -1        42 8.87426E-05-1.33672E-21 0.00000E+00
 -1        43 8.73490E-05 1.15441E-20 0.00000E+00
 -1        44 8.59552E-05 8.17916E-21 0.00000E+00
 -1        45 8.45617E-05 3.62305E-21 0.00000E+00
 -1        46 8.31683E-05 1.78472E-20 0.00000E+00
 -1        47 8.17759E-05 2.64764E-20 2.64698E-23
 -1        48 8.03840E-05 2.02593E-20 0.00000E+00
 -1        49 7.89972E-05 3.12807E-20 0.00000E+00
 -1        50 7.76093E-05 1.60936E-20 2.64698E-23
 -1        51 9.65788E-05-1.88489E-07 0.00000E+00
 -1        52 9.32494E-05-3.64023E-07 0.00000E+00
 -1        53 8.87314E-05-5.39098E-07 0.00000E+00
 -1        54 8.33224E-05-7.16392E-07 0.00000E+00
 -1        55 7.73208E-05-8.97453E-07-3.30872E-24
 -1        56 9.67972E-05-8.52032E-07-2.64698E-23
 -1        57 9.52379E-05-2.07523E-06-2.64698E-23
 -1        58 9.37731E-05-3.54346E-06 5.29396E-23
 -1        59 9.23497E-05-5.14855E-06-2.64698E-23
 -1        60 9.09319E-05-6.77044E-06 0.00000E+00
 -1        61 8.94749E-05-8.29203E-06 0.00000E+00
 -1        62 8.79373E-05-9.59910E-06 0.00000E+00
 -1        63 8.62787E-05-1.05838E-05 2.64698E-23
 -1        64 8.44631E-05-1.11498E-05-5.29396E-23
 -1        65 8.24587E-05-1.12120E-05-2.64698E-23
 -1        66 8.02401E-05-1.07036E-05 0.00000E+00
 -1        67 7.77892E-05-9.57309E-06 0.00000E+00
 -1        68 7.50934E-05-7.79164E-06-5.29396E-23
 -1        69 7.21575E-05-5.34485E-06-2.64698E-23
 -1        70 6.89727E-05-2.24967E-06 0.00000E+00
 -1        71 7.56648E-05-8.24699E-21 0.00000E+00
 -1        72 7.50800E-05-1.81698E-20-6.61744E-24
 -1        73 7.44951E-05-2.43274E-20 0.00000E+00
 -1        74 7.39106E-05-2.56608E-20 6.61744E-24
 -1        75 7.33262E-05-2.83409E-20 0.00000E+00
 -1        76 7.27419E-05-1.00833E-20 6.61744E-24
 -1        77 7.21576E-05 3.44273E-21 1.32349E-23
 -1        78 7.15733E-05-1.73046E-21 0.00000E+00
 -1        79 7.09890E-05-1.11190E-20-1.32349E-23
 -1        80 7.04048E-05-1.49902E-20 0.00000E+00
 -1        81 6.98206E-05-1.39942E-20 1.32349E-23
 -1        82 6.92365E-05-1.32283E-20-6.61744E-24
 -1        83 6.86525E-05-1.78075E-20 1.32349E-23
 -1        84 6.80692E-05-2.10253E-20 0.00000E+00
 -1        85 6.74858E-05-1.29454E-20 0.00000E+00
 -1        86 7.61159E-05 2.22663E-07 6.61744E-24
 -1        87 7.55705E-05 4.82366E-07-4.13590E-25
 -1        88 7.44337E-05 7.39743E-07 3.30872E-24
 -1        89 7.25213E-05 9.98317E-07 0.00000E+00
 -1        90 6.96453E-05 1.25618E-06 0.00000E+00
 -1        91 7.54192E-05-4.08861E-07 2.64698E-23
 -1        92 7.46318E-05-9.68102E-07 1.32349E-23
 -1        93 7.38870E-05-1.63993E-06 0.00000E+00
 -1        94 7.31695E-05-2.38937E-06 1.32349E-23
 -1        95 7.24669E-05-3.17885E-06 2.64698E-23
 -1        96 7.17649E-05-3.97080E-06 0.00000E+00
 -1        97 7.10498E-05-4.72756E-06-2.64698E-23
 -1        98 7.03074E-05-5.41207E-06 0.00000E+00
 -1        99 6.95246E-05-5.98842E-06 0.00000E+00
 -1       100 6.86884E-05-6.42221E-06-1.32349E-23
 -1       101 6.77869E-05-6.68154E-06-2.64698E-23
 -1       102 6.68091E-05-6.73682E-06 0.00000E+00
 -1       103 6.57452E-05-6.56217E-06 2.64698E-23
 -1       104 6.45882E-05-6.13419E-06 0.00000E+00
 -1       105 6.33287E-05-5.43535E-06 0.00000E+00
 -1       106 6.66931E-05 4.13425E-21 0.00000E+00
 -1       107 6.64916E-05 9.58454E-21 3.30872E-24
 -1       108 6.62896E-05 2.08450E-22 0.00000E+00
 -1       109 6.60895E-05-5.96811E-21-3.30872E-24
 -1       110 6.58897E-05-1.19313E-20 0.00000E+00
 -1       111 6.56902E-05-1.26335E-20 3.30872E-24
 -1       112 6.54908E-05 5.05490E-21 6.61744E-24
 -1       113 6.52915E-05 1.07492E-20 3.30872E-24
 -1       114 6.50922E-05 9.29751E-21-6.61744E-24
 -1       115 6.48930E-05 1.19370E-20-3.30872E-24
 -1       116 6.46937E-05 6.02353E-21 0.00000E+00
 -1       117 6.44946E-05 3.71404E-22 3.30872E-24
 -1       118 6.42955E-05 1.85884E-20-6.61744E-24
 -1       119 6.40967E-05 2.24588E-20 3.30872E-24
 -1       120 6.38979E-05 9.15606E-21 0.00000E+00
 -1       121 6.67466E-05-7.32512E-07 0.00000E+00
 -1       122 6.62839E-05-1.47576E-06 1.32349E-23
 -1       123 6.55446E-05-2.21867E-06 2.64698E-23
 -1       124 6.45578E-05-2.96263E-06 0.00000E+00
 -1       125 6.33558E-05-3.70722E-06 0.00000E+00
 -1       126 6.65140E-05-2.11480E-07 1.32349E-23
 -1       127 6.61605E-05-5.17857E-07 6.61744E-24
 -1       128 6.58337E-05-8.95858E-07 0.00000E+00
 -1       129 6.55249E-05-1.32029E-06 0.00000E+00
 -1       130 6.52240E-05-1.76595E-06 0.00000E+00
 -1       131 6.49217E-05-2.20730E-06-6.61744E-24
 -1       132 6.46083E-05-2.61895E-06 0.00000E+00
 -1       133 6.42742E-05-2.97566E-06-6.61744E-24
 -1       134 6.39104E-05-3.25263E-06 0.00000E+00
 -1       135 6.35075E-05-3.42555E-06 0.00000E+00
 -1       136 6.30569E-05-3.47097E-06 1.32349E-23
 -1       137 6.25502E-05-3.36621E-06 0.00000E+00
 -1       138 6.19792E-05-3.08993E-06-1.32349E-23
 -1       139 6.13373E-05-2.62142E-06 0.00000E+00
 -1       140 6.06161E-05-1.94253E-06 0.00000E+00
 -1       141 6.36690E-05-1.13696E-20 3.30872E-24
 -1       142 6.36415E-05-2.02315E-20 0.00000E+00
 -1       143 6.36139E-05-5.09554E-21 0.00000E+00
 -1       144 6.35871E-05 9.07500E-21 0.00000E+00
 -1       145 6.35605E-05 1.73941E-20 8.27181E-25
 -1       146 6.35339E-05 3.04024E-20-4.13590E-25
 -1       147 6.35074E-05 2.69700E-20 0.00000E+00
 -1       148 6.34810E-05 2.66083E-20 4.13590E-25
 -1       149 6.34546E-05 3.46769E-20 0.00000E+00
 -1       150 6.34284E-05 4.29025E-20 4.13590E-25
 -1       151 6.34023E-05 3.87701E-20 0.00000E+00
 -1       152 6.33767E-05 4.26949E-20 0.00000E+00
 -1       153 6.33514E-05 2.81514E-20-8.27181E-25
 -1       154 6.33290E-05 8.88201E-21 0.00000E+00
 -1       155 6.33060E-05 8.02779E-22-6.61744E-24
 -1       156 6.35777E-05-1.70273E-07 6.61744E-24
 -1       157 6.32199E-05-3.41759E-07 3.30872E-24
 -1       158 6.26459E-05-5.13349E-07 0.00000E+00
 -1       159 6.18745E-05-6.85648E-07 3.30872E-24
 -1       160 6.09249E-05-8.58026E-07 0.00000E+00
 -1       161 6.35317E-05-1.01170E-07 0.00000E+00
 -1       162 6.33803E-05-2.55499E-07 0.00000E+00
 -1       163 6.32414E-05-4.43144E-07 0.00000E+00
 -1       164 6.31074E-05-6.44881E-07 0.00000E+00
 -1       165 6.29715E-05-8.41215E-07 0.00000E+00
 -1       166 6.28262E-05-1.01278E-06 0.00000E+00
 -1       167 6.26644E-05-1.14027E-06 0.00000E+00
 -1       168 6.24789E-05-1.20454E-06-3.30872E-24
 -1       169 6.22626E-05-1.18665E-06 0.00000E+00
 -1       170 6.20087E-05-1.06788E-06 0.00000E+00
 -1       171 6.17101E-05-8.29927E-07 0.00000E+00
 -1       172 6.13607E-05-4.54604E-07-1.65436E-24
 -1       173 6.09535E-05 7.54004E-08 0.00000E+00
 -1       174 6.04857E-05 7.78423E-07 8.27181E-25
 -1       175 5.99460E-05 1.66907E-06 0.00000E+00
 -1       191 6.31783E-05 4.60512E-07-1.32349E-23
 -1       192 6.28380E-05 9.23796E-07 0.00000E+00
 -1       193 6.22817E-05 1.38753E-06 0.00000E+00
 -1       194 6.15128E-05 1.85104E-06 0.00000E+00
 -1       195 6.05350E-05 2.31361E-06 0.00000E+00
 -1       251 7.06792E-05 3.34747E-06 0.00000E+00
 -1       252 7.03391E-05 6.17818E-06-6.61744E-24
 -1       253 7.00019E-05 7.61107E-06 0.00000E+00
 -1       254 6.96658E-05 7.86035E-06 6.61744E-24
 -1       255 6.93296E-05 7.14683E-06 1.32349E-23
 -1       256 6.89927E-05 5.69600E-06-6.61744E-24
 -1       257 6.86550E-05 3.73753E-06 1.32349E-23
 -1       258 6.83168E-05 1.50354E-06-6.61744E-24
 -1       259 6.79785E-05-7.72352E-07 1.32349E-23
 -1       260 6.76406E-05-2.85626E-06 0.00000E+00
 -1       261 6.73034E-05-4.51538E-06 1.32349E-23
 -1       262 6.69671E-05-5.51902E-06-6.61744E-24
 -1       263 6.66312E-05-5.64013E-06 0.00000E+00
 -1       264 6.62949E-05-4.65599E-06 0.00000E+00
 -1       265 6.59565E-05-2.34997E-06 1.32349E-23
 -1       266 6.46675E-05-1.24193E-06 0.00000E+00
 -1       267 5.68493E-05-1.39573E-06-3.30872E-24
 -1       268 4.84079E-05-1.55446E-06 3.30872E-24
 -1       269 4.01815E-05-1.70920E-06-1.65436E-24
 -1       270 3.30083E-05-1.85648E-06 0.00000E+00
 -1       271 6.75164E-05 2.89551E-06 2.64698E-23
 -1       272 6.44326E-05 5.57138E-06-2.64698E-23
 -1       273 6.18050E-05 7.04897E-06 0.00000E+00
 -1       274 5.95742E-05 7.44363E-06 0.00000E+00
 -1       275 5.76883E-05 6.91808E-06 0.00000E+00
 -1       276 5.60760E-05 5.65758E-06 0.00000E+00
 -1       277 5.46586E-05 3.87522E-06 5.29396E-23
 -1       278 5.33509E-05 1.79858E-06-2.64698E-23
 -1       279 5.20640E-05-3.33928E-07 0.00000E+00
 -1       280 5.07087E-05-2.28218E-06 0.00000E+00
 -1       281 4.91977E-05-3.81308E-06 0.00000E+00
 -1       282 4.74496E-05-4.70504E-06 0.00000E+00
 -1       283 4.53883E-05-4.76062E-06-5.29396E-23
 -1       284 4.29582E-05-3.80220E-06 0.00000E+00
 -1       285 4.00920E-05-1.69786E-06 0.00000E+00
 -1       286 6.53785E-05 5.45805E-06 0.00000E+00
 -1       287 6.51505E-05 8.11776E-06 0.00000E+00
 -1       288 6.49247E-05 9.61442E-06 0.00000E+00
 -1       289 6.47005E-05 1.01000E-05 0.00000E+00
 -1       290 6.44765E-05 9.73007E-06 0.00000E+00
 -1       291 6.42520E-05 8.66320E-06-3.30872E-24
 -1       292 6.40270E-05 7.06043E-06-6.61744E-24
 -1       293 6.38013E-05 5.08453E-06 3.30872E-24
 -1       294 6.35753E-05 2.89973E-06 0.00000E+00
 -1       295 6.33490E-05 6.70898E-07 0.00000E+00
 -1       296 6.31228E-05-1.43696E-06-6.61744E-24
 -1       297 6.28967E-05-3.25917E-06 3.30872E-24
 -1       298 6.26710E-05-4.63216E-06 0.00000E+00
 -1       299 6.24432E-05-5.39383E-06 0.00000E+00
 -1       300 6.22163E-05-5.38434E-06 1.32349E-23
 -1       301 6.08504E-05 1.50711E-06 3.30872E-24
 -1       302 5.60497E-05 1.54204E-06-4.13590E-25
 -1       303 5.12293E-05 1.58021E-06 0.00000E+00
 -1       304 4.64062E-05 1.61902E-06 0.00000E+00
 -1       305 4.15977E-05 1.65601E-06 0.00000E+00
 -1       306 6.23877E-05 4.93825E-06 0.00000E+00
 -1       307 5.95397E-05 7.20702E-06-2.64698E-23
 -1       308 5.71120E-05 8.37114E-06 0.00000E+00
 -1       309 5.50589E-05 8.51047E-06 0.00000E+00
 -1       310 5.33434E-05 7.74839E-06 5.29396E-23
 -1       311 5.19095E-05 6.22943E-06 0.00000E+00
 -1       312 5.06939E-05 4.12555E-06 5.29396E-23
 -1       313 4.96263E-05 1.62427E-06 0.00000E+00
 -1       314 4.86317E-05-1.07268E-06 0.00000E+00
 -1       315 4.76332E-05-3.75816E-06 0.00000E+00
 -1       316 4.65538E-05-6.22583E-06-5.29396E-23
 -1       317 4.53200E-05-8.27471E-06-2.64698E-23
 -1       318 4.38611E-05-9.71940E-06 0.00000E+00
 -1       319 4.21226E-05-1.03873E-05 0.00000E+00
 -1       320 4.00377E-05-1.01410E-05 0.00000E+00
 -1       321 6.18169E-05-3.19410E-06-1.32349E-23
 -1       322 6.16806E-05-2.31957E-06 0.00000E+00
 -1       323 6.15439E-05-1.77317E-06-6.61744E-24
 -1       324 6.14106E-05-1.50427E-06-3.30872E-24
 -1       325 6.12776E-05-1.46166E-06 0.00000E+00
 -1       326 6.11452E-05-1.59369E-06 1.65436E-24
 -1       327 6.10130E-05-1.84832E-06 0.00000E+00
 -1       328 6.08808E-05-2.17328E-06-1.65436E-24
 -1       329 6.07487E-05-2.51613E-06 0.00000E+00
 -1       330 6.06166E-05-2.82442E-06 0.00000E+00
 -1       331 6.04845E-05-3.04576E-06 0.00000E+00
 -1       332 6.03523E-05-3.12792E-06 0.00000E+00
 -1       333 6.02200E-05-3.01899E-06 0.00000E+00
 -1       334 6.00870E-05-2.66743E-06 1.65436E-24
 -1       335 5.99540E-05-2.02222E-06 6.61744E-24
 -1       336 5.94910E-05-5.17444E-06 0.00000E+00
 -1       337 5.54647E-05-5.91138E-06 0.00000E+00
 -1       338 5.05744E-05-6.65124E-06-2.64698E-23
 -1       339 4.55107E-05-7.38953E-06-6.61744E-24
 -1       340 4.09661E-05-8.12636E-06 0.00000E+00
 -1       341 6.05616E-05-3.47654E-06 2.64698E-23
 -1       342 5.92389E-05-2.78446E-06 0.00000E+00
 -1       343 5.80094E-05-2.33808E-06 0.00000E+00
 -1       344 5.68586E-05-2.10786E-06 1.32349E-23
 -1       345 5.57755E-05-2.05843E-06 0.00000E+00
 -1       346 5.47459E-05-2.15261E-06 0.00000E+00
 -1       347 5.37551E-05-2.35039E-06 0.00000E+00
 -1       348 5.27876E-05-2.61033E-06 0.00000E+00
 -1       349 5.18274E-05-2.88976E-06 0.00000E+00
 -1       350 5.08586E-05-3.14571E-06 1.32349E-23
 -1       351 4.98654E-05-3.33579E-06 0.00000E+00
 -1       352 4.88330E-05-3.41821E-06 0.00000E+00
 -1       353 4.77460E-05-3.35377E-06 2.64698E-23
 -1       354 4.65963E-05-3.10290E-06 0.00000E+00
 -1       355 4.53629E-05-2.63473E-06-1.32349E-23
 -1       356 5.97765E-05-2.88173E-08 3.30872E-24
 -1       357 5.97448E-05 6.58049E-07 1.65436E-24
 -1       358 5.97130E-05 1.07338E-06 0.00000E+00
 -1       359 5.96826E-05 1.26319E-06 0.00000E+00
 -1       360 5.96524E-05 1.27356E-06 8.27181E-25
 -1       361 5.96224E-05 1.15070E-06 0.00000E+00
 -1       362 5.95925E-05 9.40845E-07 0.00000E+00
 -1       363 5.95627E-05 6.90304E-07 0.00000E+00
 -1       364 5.95329E-05 4.45378E-07 0.00000E+00
 -1       365 5.95033E-05 2.52381E-07 0.00000E+00
 -1       366 5.94738E-05 1.57595E-07-4.13590E-25
 -1       367 5.94449E-05 2.07260E-07 5.16988E-26
 -1       368 5.94161E-05 4.47548E-07 8.27181E-25
 -1       369 5.93902E-05 9.24532E-07 0.00000E+00
 -1       370 5.93634E-05 1.68422E-06 6.61744E-24
 -1       371 5.79870E-05-1.18138E-06 6.61744E-24
 -1       372 5.52115E-05-1.32789E-06-1.65436E-24
 -1       373 5.19607E-05-1.47570E-06-3.30872E-24
 -1       374 4.87067E-05-1.62180E-06 0.00000E+00
 -1       375 4.59216E-05-1.76680E-06 0.00000E+00
 -1       376 5.89524E-05-1.82523E-07 1.32349E-23
 -1       377 5.81792E-05 3.92377E-07 6.61744E-24
 -1       378 5.74927E-05 7.38156E-07-1.32349E-23
 -1       379 5.68740E-05 8.98030E-07-6.61744E-24
 -1       380 5.63074E-05 9.18465E-07 0.00000E+00
 -1       381 5.57753E-05 8.46318E-07 6.61744E-24
 -1       382 5.52599E-05 7.29534E-07-1.32349E-23
 -1       383 5.47431E-05 6.16309E-07 6.61744E-24
 -1       384 5.42069E-05 5.54831E-07 1.32349E-23
 -1       385 5.36335E-05 5.92925E-07 0.00000E+00
 -1       386 5.30054E-05 7.77337E-07 0.00000E+00
 -1       387 5.23061E-05 1.15394E-06 0.00000E+00
 -1       388 5.15185E-05 1.76631E-06-1.32349E-23
 -1       389 5.06313E-05 2.65804E-06 0.00000E+00
 -1       390 4.96235E-05 3.86614E-06-3.30872E-24
 -1       406 5.78762E-05 3.21761E-06 0.00000E+00
 -1       407 5.62257E-05 3.66546E-06-6.61744E-24
 -1       408 5.44322E-05 4.11340E-06 1.32349E-23
 -1       409 5.25274E-05 4.56027E-06 0.00000E+00
 -1       410 5.05434E-05 5.00467E-06 0.00000E+00
 -1       466 2.82646E-05 1.29186E-06 6.61744E-24
 -1       467 2.88343E-05 3.24404E-06 0.00000E+00
 -1       468 2.94046E-05 4.08368E-06 1.32349E-23
 -1       469 2.99795E-05 4.01744E-06-6.61744E-24
 -1       470 3.05545E-05 3.24316E-06-1.32349E-23
 -1       471 3.11298E-05 1.95285E-06-6.61744E-24
 -1       472 3.17048E-05 3.33498E-07-1.32349E-23
 -1       473 3.22797E-05-1.43059E-06 0.00000E+00
 -1       474 3.28547E-05-3.15659E-06 0.00000E+00
 -1       475 3.34298E-05-4.66129E-06 0.00000E+00
 -1       476 3.40052E-05-5.75935E-06-1.32349E-23
 -1       477 3.45801E-05-6.26210E-06 0.00000E+00
 -1       478 3.51544E-05-5.97504E-06 1.32349E-23
 -1       479 3.57226E-05-4.69721E-06-6.61744E-24
 -1       480 3.62898E-05-2.21794E-06-6.61744E-24
 -1       481 2.38809E-05-1.87350E-06-1.65436E-24
 -1       482 2.04195E-05-1.75095E-06 0.00000E+00
 -1       483 1.73532E-05-1.62744E-06 0.00000E+00
 -1       484 1.46968E-05-1.50207E-06 0.00000E+00
 -1       485 1.24658E-05-1.37550E-06 0.00000E+00
 -1       486 2.57241E-05 1.37706E-06 0.00000E+00
 -1       487 2.39995E-05 3.93564E-06 0.00000E+00
 -1       488 2.25536E-05 5.75965E-06 0.00000E+00
 -1       489 2.13542E-05 6.91667E-06 0.00000E+00
 -1       490 2.03754E-05 7.48675E-06-2.64698E-23
 -1       491 1.95843E-05 7.55447E-06 0.00000E+00
 -1       492 1.89472E-05 7.21160E-06 0.00000E+00
 -1       493 1.84278E-05 6.55403E-06 0.00000E+00
 -1       494 1.79888E-05 5.68188E-06 0.00000E+00
 -1       495 1.75919E-05 4.69759E-06 1.32349E-23
 -1       496 1.71981E-05 3.70509E-06 0.00000E+00
 -1       497 1.67692E-05 2.80853E-06 1.32349E-23
 -1       498 1.62662E-05 2.11047E-06-1.32349E-23
 -1       499 1.56549E-05 1.71280E-06 0.00000E+00
 -1       500 1.48941E-05 1.71036E-06 0.00000E+00
 -1       501 3.68560E-05 5.53679E-06 0.00000E+00
 -1       502 3.69063E-05 7.85782E-06 0.00000E+00
 -1       503 3.69585E-05 8.84745E-06 6.20385E-25
 -1       504 3.70128E-05 8.70668E-06 0.00000E+00
 -1       505 3.70669E-05 7.63538E-06 8.27181E-25
 -1       506 3.71203E-05 5.83271E-06 8.27181E-25
 -1       507 3.71727E-05 3.49719E-06 0.00000E+00
 -1       508 3.72244E-05 8.26852E-07 0.00000E+00
 -1       509 3.72757E-05-1.98053E-06 1.65436E-24
 -1       510 3.73272E-05-4.72729E-06 0.00000E+00
 -1       511 3.73791E-05-7.21577E-06 0.00000E+00
 -1       512 3.74317E-05-9.24804E-06 0.00000E+00
 -1       513 3.74850E-05-1.06257E-05 0.00000E+00
 -1       514 3.75369E-05-1.11501E-05 4.13590E-25
 -1       515 3.75891E-05-1.06214E-05-3.30872E-24
 -1       516 3.19999E-05 1.75794E-06 0.00000E+00
 -1       517 2.71675E-05 1.84474E-06 2.06795E-25
 -1       518 2.26353E-05 1.93224E-06 0.00000E+00
 -1       519 1.87162E-05 2.02265E-06 4.13590E-25
 -1       520 1.57238E-05 2.11659E-06 0.00000E+00
 -1       521 3.39873E-05 5.20074E-06 2.64698E-23
 -1       522 3.15978E-05 7.39713E-06 1.32349E-23
 -1       523 2.96666E-05 8.38584E-06-5.29396E-23
 -1       524 2.81363E-05 8.28419E-06 0.00000E+00
 -1       525 2.69567E-05 7.24578E-06 5.29396E-23
 -1       526 2.60619E-05 5.44148E-06 0.00000E+00
 -1       527 2.53809E-05 3.06406E-06 5.29396E-23
 -1       528 2.48370E-05 3.18209E-07 0.00000E+00
 -1       529 2.43502E-05-2.58103E-06 0.00000E+00
 -1       530 2.38395E-05-5.41530E-06 2.64698E-23
 -1       531 2.32241E-05-7.96820E-06 0.00000E+00
 -1       532 2.24265E-05-1.00290E-05-2.64698E-23
 -1       533 2.13721E-05-1.14011E-05 0.00000E+00
 -1       534 1.99988E-05-1.19004E-05 0.00000E+00
 -1       535 1.82374E-05-1.13722E-05 2.64698E-23
 -1       536 3.79994E-05-6.66085E-06 0.00000E+00
 -1       537 3.84010E-05-5.03564E-06 0.00000E+00
 -1       538 3.88021E-05-3.88896E-06-1.32349E-23
 -1       539 3.92083E-05-3.14844E-06-6.61744E-24
 -1       540 3.96152E-05-2.74454E-06 0.00000E+00
 -1       541 4.00229E-05-2.60968E-06 0.00000E+00
 -1       542 4.04309E-05-2.67812E-06-1.32349E-23
 -1       543 4.08391E-05-2.88530E-06-6.61744E-24
 -1       544 4.12472E-05-3.16764E-06 1.32349E-23
 -1       545 4.16553E-05-3.46198E-06-6.61744E-24
 -1       546 4.20632E-05-3.70525E-06 0.00000E+00
 -1       547 4.24707E-05-3.83408E-06 0.00000E+00
 -1       548 4.28780E-05-3.78432E-06 0.00000E+00
 -1       549 4.32825E-05-3.49076E-06 6.61744E-24
 -1       550 4.36874E-05-2.88654E-06-6.61744E-24
 -1       551 3.44212E-05-8.97940E-06-5.37667E-24
 -1       552 3.08698E-05-9.11433E-06-7.23783E-25
 -1       553 2.71147E-05-9.24874E-06 3.30872E-24
 -1       554 2.33017E-05-9.38363E-06 6.61744E-24
 -1       555 1.95763E-05-9.52001E-06 1.32349E-23
 -1       556 3.65994E-05-6.86275E-06 0.00000E+00
 -1       557 3.57458E-05-5.34446E-06 0.00000E+00
 -1       558 3.50460E-05-4.23357E-06 0.00000E+00
 -1       559 3.44789E-05-3.47501E-06-6.61744E-24
 -1       560 3.40235E-05-3.01353E-06 0.00000E+00
 -1       561 3.36588E-05-2.79344E-06 0.00000E+00
 -1       562 3.33638E-05-2.75895E-06-1.32349E-23
 -1       563 3.31175E-05-2.85419E-06 0.00000E+00
 -1       564 3.28990E-05-3.02327E-06 0.00000E+00
 -1       565 3.26872E-05-3.21027E-06 0.00000E+00
 -1       566 3.24612E-05-3.35927E-06 3.30872E-24
 -1       567 3.22001E-05-3.41435E-06 1.65436E-24
 -1       568 3.18830E-05-3.31961E-06 0.00000E+00
 -1       569 3.14897E-05-3.01928E-06-7.23783E-25
 -1       570 3.09998E-05-2.45768E-06-8.27181E-25
 -1       571 4.43384E-05-1.00508E-06 8.27181E-25
 -1       572 4.46125E-05-3.72973E-07-3.30872E-24
 -1       573 4.48896E-05 3.58892E-08 3.30872E-24
 -1       574 4.51682E-05 2.66140E-07 3.30872E-24
 -1       575 4.54473E-05 3.62516E-07 0.00000E+00
 -1       576 4.57267E-05 3.69961E-07 3.30872E-24
 -1       577 4.60061E-05 3.33414E-07-6.61744E-24
 -1       578 4.62856E-05 2.97833E-07 0.00000E+00
 -1       579 4.65652E-05 3.08175E-07 0.00000E+00
 -1       580 4.68447E-05 4.09409E-07 0.00000E+00
 -1       581 4.71241E-05 6.46510E-07 0.00000E+00
 -1       582 4.74034E-05 1.06446E-06 0.00000E+00
 -1       583 4.76824E-05 1.70825E-06 0.00000E+00
 -1       584 4.79608E-05 2.62260E-06 0.00000E+00
 -1       585 4.82381E-05 3.85214E-06 1.32349E-23
 -1       586 4.21061E-05-1.84853E-06 0.00000E+00
 -1       587 3.98019E-05-1.79275E-06 0.00000E+00
 -1       588 3.73196E-05-1.73705E-06 0.00000E+00
 -1       589 3.48191E-05-1.68194E-06 0.00000E+00
 -1       590 3.24600E-05-1.62803E-06 6.61744E-24
 -1       591 4.35301E-05-9.41052E-07 6.61744E-24
 -1       592 4.30426E-05-1.58913E-07 0.00000E+00
 -1       593 4.26102E-05 4.70837E-07-6.61744E-24
 -1       594 4.22241E-05 9.74938E-07 3.30872E-24
 -1       595 4.18748E-05 1.38013E-06-6.61744E-24
 -1       596 4.15524E-05 1.71314E-06 0.00000E+00
 -1       597 4.12470E-05 2.00067E-06 6.61744E-24
 -1       598 4.09487E-05 2.26941E-06 0.00000E+00
 -1       599 4.06474E-05 2.54610E-06-3.30872E-24
 -1       600 4.03331E-05 2.85743E-06 3.30872E-24
 -1       601 3.99959E-05 3.23011E-06-3.30872E-24
 -1       602 3.96258E-05 3.69085E-06-1.65436E-24
 -1       603 3.92130E-05 4.26638E-06-8.27181E-25
 -1       604 3.87484E-05 4.98348E-06-4.13590E-25
 -1       605 3.82232E-05 5.86901E-06 1.65436E-24
 -1       606 4.85848E-05 7.52134E-06-6.61744E-24
 -1       607 4.86507E-05 9.80202E-06 0.00000E+00
 -1       608 4.87147E-05 1.22692E-05 0.00000E+00
 -1       609 4.87775E-05 1.49097E-05 0.00000E+00
 -1       610 4.88395E-05 1.77105E-05 0.00000E+00
 -1       611 4.89011E-05 2.06582E-05 0.00000E+00
 -1       612 4.89622E-05 2.37395E-05 0.00000E+00
 -1       613 4.90229E-05 2.69409E-05 0.00000E+00
 -1       614 4.90833E-05 3.02493E-05 0.00000E+00
 -1       615 4.91434E-05 3.36513E-05 1.65436E-24
 -1       616 4.92032E-05 3.71334E-05 0.00000E+00
 -1       617 4.92627E-05 4.06825E-05-1.65436E-24
 -1       618 4.93221E-05 4.42852E-05 0.00000E+00
 -1       619 4.93813E-05 4.79281E-05 1.65436E-24
 -1       620 4.94402E-05 5.15980E-05 0.00000E+00
 -1       621 4.64927E-05 5.69129E-06 0.00000E+00
 -1       622 4.45182E-05 5.94548E-06-3.30872E-24
 -1       623 4.26170E-05 6.19992E-06-3.30872E-24
 -1       624 4.08177E-05 6.45381E-06 0.00000E+00
 -1       625 3.91486E-05 6.70614E-06-4.96308E-24
 -1       626 4.78537E-05 7.60965E-06 0.00000E+00
 -1       627 4.71097E-05 9.99715E-06 0.00000E+00
 -1       628 4.62905E-05 1.25811E-05 0.00000E+00
 -1       629 4.54054E-05 1.53388E-05 0.00000E+00
 -1       630 4.44630E-05 1.82474E-05 6.61744E-24
 -1       631 4.34722E-05 2.12838E-05 0.00000E+00
 -1       632 4.24418E-05 2.44249E-05 0.00000E+00
 -1       633 4.13805E-05 2.76477E-05 0.00000E+00
 -1       634 4.02969E-05 3.09292E-05 6.61744E-24
 -1       635 3.91999E-05 3.42462E-05 0.00000E+00
 -1       636 3.80981E-05 3.75757E-05 0.00000E+00
 -1       637 3.70003E-05 4.08947E-05 0.00000E+00
 -1       638 3.59149E-05 4.41799E-05-1.65436E-24
 -1       639 3.48503E-05 4.74085E-05 8.27181E-25
 -1       640 3.38148E-05 5.05572E-05-2.89513E-24
 -1       641 4.94982E-05 5.90786E-05-8.27181E-25
 -1       642 4.94950E-05 6.31618E-05 0.00000E+00
 -1       643 4.94909E-05 6.74938E-05-4.13590E-25
 -1       644 4.94856E-05 7.20375E-05-2.06795E-25
 -1       645 4.94794E-05 7.67555E-05-2.06795E-25
 -1       646 4.94726E-05 8.16105E-05 0.00000E+00
 -1       647 4.94653E-05 8.65654E-05 0.00000E+00
 -1       648 4.94576E-05 9.15829E-05-5.16988E-26
 -1       649 4.94498E-05 9.66257E-05 1.03398E-25
 -1       650 4.94421E-05 1.01657E-04 0.00000E+00
 -1       651 4.94345E-05 1.06638E-04 0.00000E+00
 -1       652 4.94272E-05 1.11534E-04 0.00000E+00
 -1       653 4.94204E-05 1.16306E-04-4.13590E-25
 -1       654 4.94134E-05 1.20917E-04 4.13590E-25
 -1       655 4.94074E-05 1.25329E-04 1.65436E-24
 -1       656 4.61367E-05 5.50090E-05-3.30872E-24
 -1       657 4.32144E-05 5.47244E-05 0.00000E+00
 -1       658 4.05770E-05 5.44414E-05 0.00000E+00
 -1       659 3.80685E-05 5.41584E-05 0.00000E+00
 -1       660 3.55325E-05 5.38746E-05 3.30872E-24
 -1       661 4.83818E-05 5.91930E-05 0.00000E+00
 -1       662 4.71712E-05 6.33871E-05 0.00000E+00
 -1       663 4.58712E-05 6.78151E-05 0.00000E+00
 -1       664 4.45005E-05 7.24350E-05 0.00000E+00
 -1       665 4.30731E-05 7.72043E-05 0.00000E+00
 -1       666 4.16048E-05 8.20821E-05 0.00000E+00
 -1       667 4.01107E-05 8.70281E-05 0.00000E+00
 -1       668 3.86059E-05 9.20024E-05 0.00000E+00
 -1       669 3.71054E-05 9.69652E-05 0.00000E+00
 -1       670 3.56244E-05 1.01877E-04 0.00000E+00
 -1       671 3.41779E-05 1.06697E-04 1.32349E-23
 -1       672 3.27812E-05 1.11385E-04 3.30872E-24
 -1       673 3.14502E-05 1.15899E-04 6.61744E-24
 -1       674 3.01983E-05 1.20197E-04 0.00000E+00
 -1       675 2.90456E-05 1.24236E-04 0.00000E+00
 -1       676 4.54817E-05 1.29251E-04-6.61744E-24
 -1       677 4.17825E-05 1.28991E-04-3.30872E-24
 -1       678 3.82420E-05 1.28732E-04-6.61744E-24
 -1       679 3.48022E-05 1.28474E-04 3.30872E-24
 -1       680 3.14049E-05 1.28215E-04 6.61744E-24
 -1       681 1.08776E-05 9.76303E-08 0.00000E+00
 -1       682 1.10844E-05 1.05657E-06 0.00000E+00
 -1       683 1.12913E-05 1.68003E-06-6.61744E-24
 -1       684 1.14992E-05 2.02017E-06-3.30872E-24
 -1       685 1.17072E-05 2.12814E-06 0.00000E+00
 -1       686 1.19154E-05 2.05440E-06 0.00000E+00
 -1       687 1.21237E-05 1.84879E-06-6.61744E-24
 -1       688 1.23319E-05 1.56075E-06 0.00000E+00
 -1       689 1.25401E-05 1.23942E-06-6.61744E-24
 -1       690 1.27482E-05 9.33838E-07-3.30872E-24
 -1       691 1.29562E-05 6.93116E-07 0.00000E+00
 -1       692 1.31638E-05 5.66543E-07-3.30872E-24
 -1       693 1.33712E-05 6.03817E-07 0.00000E+00
 -1       694 1.35762E-05 8.55114E-07 0.00000E+00
 -1       695 1.37816E-05 1.37139E-06 1.65436E-24
 -1       696 8.98721E-06-1.04693E-06 3.30872E-24
 -1       697 7.12290E-06-8.38862E-07 3.30872E-24
 -1       698 5.18777E-06-6.31059E-07 0.00000E+00
 -1       699 3.28601E-06-4.21885E-07-3.30872E-24
 -1       700 1.52190E-06-2.12463E-07-6.61744E-24
 -1       701 9.94486E-06 8.13069E-08 0.00000E+00
 -1       702 9.30944E-06 1.11910E-06-1.65436E-24
 -1       703 8.77240E-06 1.89698E-06 0.00000E+00
 -1       704 8.32002E-06 2.44351E-06 3.30872E-24
 -1       705 7.94264E-06 2.78992E-06 0.00000E+00
 -1       706 7.62830E-06 2.96734E-06 0.00000E+00
 -1       707 7.36528E-06 3.00782E-06 0.00000E+00
 -1       708 7.14139E-06 2.94379E-06 3.30872E-24
 -1       709 6.94436E-06 2.80814E-06 0.00000E+00
 -1       710 6.76182E-06 2.63400E-06 0.00000E+00
 -1       711 6.58129E-06 2.45468E-06 0.00000E+00
 -1       712 6.39057E-06 2.30358E-06 0.00000E+00
 -1       713 6.17700E-06 2.21381E-06-6.61744E-24
 -1       714 5.93006E-06 2.21902E-06-1.65436E-24
 -1       715 5.63498E-06 2.35086E-06-1.65436E-24
 -1       716 1.40958E-05 2.78790E-06 0.00000E+00
 -1       717 1.42298E-05 2.61356E-06 8.27181E-25
 -1       718 1.43631E-05 1.80785E-06 3.30872E-24
 -1       719 1.44978E-05 4.96420E-07-1.65436E-24
 -1       720 1.46321E-05-1.19633E-06 0.00000E+00
 -1       721 1.47662E-05-3.14668E-06-1.65436E-24
 -1       722 1.49002E-05-5.23149E-06-3.30872E-24
 -1       723 1.50343E-05-7.32795E-06 0.00000E+00
 -1       724 1.51685E-05-9.31320E-06-3.30872E-24
 -1       725 1.53030E-05-1.10642E-05 0.00000E+00
 -1       726 1.54379E-05-1.24574E-05-3.30872E-24
 -1       727 1.55727E-05-1.33684E-05 0.00000E+00
 -1       728 1.57076E-05-1.36720E-05 0.00000E+00
 -1       729 1.58393E-05-1.32415E-05 4.13590E-25
 -1       730 1.59709E-05-1.19487E-05 3.30872E-24
 -1       731 1.26864E-05 2.27049E-06 8.27181E-25
 -1       732 1.10249E-05 2.34471E-06 0.00000E+00
 -1       733 9.22148E-06 2.41840E-06 1.65436E-24
 -1       734 7.50936E-06 2.49365E-06 8.27181E-25
 -1       735 6.12190E-06 2.56951E-06 0.00000E+00
 -1       736 1.30912E-05 2.80318E-06 0.00000E+00
 -1       737 1.23282E-05 3.02628E-06 0.00000E+00
 -1       738 1.16912E-05 2.91642E-06 0.00000E+00
 -1       739 1.11615E-05 2.51052E-06 0.00000E+00
 -1       740 1.07264E-05 1.85159E-06 0.00000E+00
 -1       741 1.03689E-05 9.83818E-07 0.00000E+00
 -1       742 1.00718E-05-4.58103E-08 0.00000E+00
 -1       743 9.81714E-06-1.18899E-06 0.00000E+00
 -1       744 9.58632E-06-2.39599E-06 1.32349E-23
 -1       745 9.36063E-06-3.61648E-06 0.00000E+00
 -1       746 9.12121E-06-4.80002E-06 0.00000E+00
 -1       747 8.84973E-06-5.89636E-06 0.00000E+00
 -1       748 8.52752E-06-6.85653E-06 0.00000E+00
 -1       749 8.13930E-06-7.63182E-06 6.61744E-24
 -1       750 7.66436E-06-8.17794E-06 0.00000E+00
 -1       751 1.69237E-05-7.18957E-06 6.61744E-24
 -1       752 1.78175E-05-5.35236E-06-6.61744E-24
 -1       753 1.87104E-05-4.05649E-06 2.64698E-23
 -1       754 1.96121E-05-3.21294E-06 1.32349E-23
 -1       755 2.05149E-05-2.73958E-06 0.00000E+00
 -1       756 2.14194E-05-2.55909E-06-1.32349E-23
 -1       757 2.23243E-05-2.59861E-06 0.00000E+00
 -1       758 2.32294E-05-2.78814E-06-1.32349E-23
 -1       759 2.41346E-05-3.05998E-06-2.64698E-23
 -1       760 2.50395E-05-3.34749E-06 0.00000E+00
 -1       761 2.59442E-05-3.58426E-06 2.64698E-23
 -1       762 2.68476E-05-3.70323E-06-1.32349E-23
 -1       763 2.77504E-05-3.63556E-06-2.64698E-23
 -1       764 2.86463E-05-3.30995E-06 1.32349E-23
 -1       765 2.95434E-05-2.65123E-06-1.32349E-23
 -1       766 1.34667E-05-9.47810E-06 0.00000E+00
 -1       767 1.12871E-05-9.26968E-06 0.00000E+00
 -1       768 9.55112E-06-9.06153E-06 0.00000E+00
 -1       769 8.26792E-06-8.85177E-06 0.00000E+00
 -1       770 7.44836E-06-8.64055E-06 1.55096E-25
 -1       771 1.44504E-05-7.34162E-06 2.64698E-23
 -1       772 1.29334E-05-5.37124E-06 0.00000E+00
 -1       773 1.15351E-05-3.72563E-06-5.29396E-23
 -1       774 1.02474E-05-2.37893E-06 1.32349E-23
 -1       775 9.06190E-06-1.30521E-06 0.00000E+00
 -1       776 7.96909E-06-4.78477E-07 0.00000E+00
 -1       777 6.95924E-06 1.27360E-07 0.00000E+00
 -1       778 6.02254E-06 5.38510E-07 0.00000E+00
 -1       779 5.14912E-06 7.81261E-07 0.00000E+00
 -1       780 4.32907E-06 8.82027E-07-1.32349E-23
 -1       781 3.55250E-06 8.67274E-07 2.64698E-23
 -1       782 2.80960E-06 7.63596E-07 3.97047E-23
 -1       783 2.09063E-06 5.97641E-07 0.00000E+00
 -1       784 1.38672E-06 3.96406E-07-1.32349E-23
 -1       785 6.89339E-07 1.87014E-07 1.32349E-23
 -1       786 3.08285E-05-4.16193E-07 6.61744E-24
 -1       787 3.12805E-05 4.88718E-07 0.00000E+00
 -1       788 3.17318E-05 1.17511E-06 1.32349E-23
 -1       789 3.21870E-05 1.68195E-06 0.00000E+00
 -1       790 3.26425E-05 2.04679E-06 1.32349E-23
 -1       791 3.30989E-05 2.30630E-06 0.00000E+00
 -1       792 3.35553E-05 2.49632E-06 0.00000E+00
 -1       793 3.40120E-05 2.65221E-06 0.00000E+00
 -1       794 3.44686E-05 2.80911E-06 0.00000E+00
 -1       795 3.49251E-05 3.00215E-06 0.00000E+00
 -1       796 3.53816E-05 3.26671E-06-1.32349E-23
 -1       797 3.58375E-05 3.63869E-06-6.61744E-24
 -1       798 3.62931E-05 4.15478E-06-1.32349E-23
 -1       799 3.67460E-05 4.85261E-06 6.61744E-24
 -1       800 3.71993E-05 5.77124E-06 6.61744E-24
 -1       801 2.72238E-05-1.31464E-06 6.61744E-24
 -1       802 2.13967E-05-1.04556E-06 0.00000E+00
 -1       803 1.43409E-05-7.84449E-07-6.61744E-24
 -1       804 7.47536E-06-5.24008E-07 0.00000E+00
 -1       805 2.21989E-06-2.53878E-07 0.00000E+00
 -1       806 2.96174E-05-5.40360E-07 0.00000E+00
 -1       807 2.88724E-05 3.64840E-07-6.61744E-24
 -1       808 2.81655E-05 1.16062E-06 0.00000E+00
 -1       809 2.74896E-05 1.86990E-06-6.61744E-24
 -1       810 2.68372E-05 2.51556E-06-1.32349E-23
 -1       811 2.62000E-05 3.12032E-06 0.00000E+00
 -1       812 2.55694E-05 3.70691E-06 0.00000E+00
 -1       813 2.49371E-05 4.29803E-06 6.61744E-24
 -1       814 2.42946E-05 4.91637E-06 0.00000E+00
 -1       815 2.36334E-05 5.58462E-06 3.30872E-24
 -1       816 2.29450E-05 6.32546E-06 6.61744E-24
 -1       817 2.22210E-05 7.16157E-06 3.30872E-24
 -1       818 2.14531E-05 8.11563E-06 6.61744E-24
 -1       819 2.06340E-05 9.21042E-06 0.00000E+00
 -1       820 1.97565E-05 1.04688E-05 6.61744E-24
 -1       821 3.73541E-05 8.46593E-06-3.30872E-24
 -1       822 3.70550E-05 1.03364E-05 3.30872E-24
 -1       823 3.67559E-05 1.25298E-05 0.00000E+00
 -1       824 3.64535E-05 1.50123E-05 3.30872E-24
 -1       825 3.61502E-05 1.77483E-05 0.00000E+00
 -1       826 3.58458E-05 2.07011E-05 3.30872E-24
 -1       827 3.55408E-05 2.38331E-05 6.61744E-24
 -1       828 3.52352E-05 2.71059E-05-3.30872E-24
 -1       829 3.49294E-05 3.04802E-05 6.61744E-24
 -1       830 3.46234E-05 3.39164E-05-3.30872E-24
 -1       831 3.43174E-05 3.73747E-05-6.61744E-24
 -1       832 3.40119E-05 4.08150E-05 0.00000E+00
 -1       833 3.37068E-05 4.41972E-05 6.61744E-24
 -1       834 3.34041E-05 4.74819E-05 0.00000E+00
 -1       835 3.31015E-05 5.06298E-05 0.00000E+00
 -1       836 3.55463E-05 7.76288E-06 1.32349E-23
 -1       837 3.23374E-05 8.60249E-06 0.00000E+00
 -1       838 2.85388E-05 9.43840E-06 2.64698E-23
 -1       839 2.46721E-05 1.02731E-05 0.00000E+00
 -1       840 2.12582E-05 1.11112E-05 1.32349E-23
 -1       841 3.69184E-05 8.43447E-06 8.27181E-25
 -1       842 3.60419E-05 1.03080E-05-1.65436E-24
 -1       843 3.50328E-05 1.25343E-05 3.30872E-24
 -1       844 3.39050E-05 1.50701E-05 0.00000E+00
 -1       845 3.26761E-05 1.78730E-05 3.30872E-24
 -1       846 3.13626E-05 2.08989E-05-1.65436E-24
 -1       847 2.99813E-05 2.41036E-05 3.30872E-24
 -1       848 2.85494E-05 2.74420E-05 0.00000E+00
 -1       849 2.70839E-05 3.08689E-05 3.30872E-24
 -1       850 2.56021E-05 3.43388E-05 0.00000E+00
 -1       851 2.41214E-05 3.78061E-05 3.30872E-24
 -1       852 2.26590E-05 4.12251E-05 1.65436E-24
 -1       853 2.12322E-05 4.45504E-05-3.30872E-24
 -1       854 1.98585E-05 4.77368E-05-1.65436E-24
 -1       855 1.85543E-05 5.07393E-05 0.00000E+00
 -1       856 3.25299E-05 5.67549E-05-3.30872E-24
 -1       857 3.22328E-05 6.04249E-05-3.30872E-24
 -1       858 3.19345E-05 6.45485E-05 6.61744E-24
 -1       859 3.16325E-05 6.90598E-05-3.30872E-24
 -1       860 3.13288E-05 7.38911E-05 6.61744E-24
 -1       861 3.10235E-05 7.89731E-05 0.00000E+00
 -1       862 3.07173E-05 8.42356E-05-6.61744E-24
 -1       863 3.04104E-05 8.96073E-05 0.00000E+00
 -1       864 3.01033E-05 9.50167E-05 0.00000E+00
 -1       865 2.97964E-05 1.00392E-04 0.00000E+00
 -1       866 2.94902E-05 1.05661E-04-6.61744E-24
 -1       867 2.91850E-05 1.10753E-04 0.00000E+00
 -1       868 2.88812E-05 1.15598E-04 6.61744E-24
 -1       869 2.85802E-05 1.20126E-04 3.30872E-24
 -1       870 2.82806E-05 1.24270E-04 0.00000E+00
 -1       871 3.01098E-05 5.35897E-05 0.00000E+00
 -1       872 2.74994E-05 5.35761E-05 0.00000E+00
 -1       873 2.49496E-05 5.35622E-05 0.00000E+00
 -1       874 2.24280E-05 5.35478E-05-4.13590E-25
 -1       875 1.99020E-05 5.35327E-05-8.27181E-25
 -1       876 3.19810E-05 5.68499E-05-6.61744E-24
 -1       877 3.09936E-05 6.05529E-05-3.30872E-24
 -1       878 2.98588E-05 6.46425E-05 0.00000E+00
 -1       879 2.86026E-05 6.90592E-05 0.00000E+00
 -1       880 2.72449E-05 7.37434E-05 0.00000E+00
 -1       881 2.58076E-05 7.86383E-05 0.00000E+00
 -1       882 2.43114E-05 8.36882E-05-1.32349E-23
 -1       883 2.27771E-05 8.88385E-05 0.00000E+00
 -1       884 2.12251E-05 9.40353E-05 0.00000E+00
 -1       885 1.96757E-05 9.92250E-05 6.61744E-24
 -1       886 1.81494E-05 1.04354E-04 1.32349E-23
 -1       887 1.66663E-05 1.09368E-04 0.00000E+00
 -1       888 1.52475E-05 1.14212E-04 0.00000E+00
 -1       889 1.39118E-05 1.18829E-04 3.30872E-24
 -1       890 1.26843E-05 1.23164E-04-6.61744E-24
 -1       891 2.48985E-05 1.27827E-04 0.00000E+00
 -1       892 2.23071E-05 1.27691E-04 0.00000E+00
 -1       893 1.99480E-05 1.27556E-04-3.30872E-24
 -1       894 1.75516E-05 1.27421E-04 0.00000E+00
 -1       895 1.48484E-05 1.27285E-04 1.65436E-24
 -1       896 3.28566E-07 1.19253E-06-6.61744E-24
 -1       897 6.60024E-07 2.07840E-06 0.00000E+00
 -1       898 9.91589E-07 2.69688E-06 1.32349E-23
 -1       899 1.32369E-06 3.08607E-06 0.00000E+00
 -1       900 1.65590E-06 3.28277E-06 1.32349E-23
 -1       901 1.98820E-06 3.32286E-06 6.61744E-24
 -1       902 2.32051E-06 3.24137E-06 0.00000E+00
 -1       903 2.65281E-06 3.07271E-06 0.00000E+00
 -1       904 2.98508E-06 2.85084E-06 0.00000E+00
 -1       905 3.31729E-06 2.60944E-06-6.61744E-24
 -1       906 3.64942E-06 2.38209E-06 1.32349E-23
 -1       907 3.98123E-06 2.20243E-06-6.61744E-24
 -1       908 4.31287E-06 2.10438E-06-6.61744E-24
 -1       909 4.64273E-06 2.12224E-06 0.00000E+00
 -1       910 4.97297E-06 2.29097E-06 0.00000E+00
 -1       911 5.40558E-06 2.91875E-06 0.00000E+00
 -1       912 5.52038E-06 2.84808E-06 1.65436E-24
 -1       913 5.63506E-06 2.48108E-06 3.30872E-24
 -1       914 5.74991E-06 1.86435E-06-1.65436E-24
 -1       915 5.86465E-06 1.04393E-06 0.00000E+00
 -1       916 5.97929E-06 6.55656E-08 0.00000E+00
 -1       917 6.09384E-06-1.02531E-06 0.00000E+00
 -1       918 6.20830E-06-2.18347E-06 1.65436E-24
 -1       919 6.32272E-06-3.36378E-06-3.30872E-24
 -1       920 6.43708E-06-4.52117E-06 1.65436E-24
 -1       921 6.55143E-06-5.61054E-06 0.00000E+00
 -1       922 6.66550E-06-6.58664E-06 0.00000E+00
 -1       923 6.77950E-06-7.40400E-06 0.00000E+00
 -1       924 6.89159E-06-8.01695E-06 0.00000E+00
 -1       925 7.00424E-06-8.37934E-06 8.27181E-25
 -1       926 6.67212E-06-8.27222E-06-1.32349E-23
 -1       927 6.22871E-06-7.96785E-06 0.00000E+00
 -1       928 5.78567E-06-7.54811E-06 0.00000E+00
 -1       929 5.34076E-06-7.03028E-06 6.61744E-24
 -1       930 4.89563E-06-6.43233E-06 0.00000E+00
 -1       931 4.45013E-06-5.77279E-06-6.61744E-24
 -1       932 4.00453E-06-5.07061E-06 0.00000E+00
 -1       933 3.55883E-06-4.34503E-06-6.61744E-24
 -1       934 3.11313E-06-3.61549E-06 0.00000E+00
 -1       935 2.66744E-06-2.90140E-06 6.61744E-24
 -1       936 2.22179E-06-2.22211E-06 1.32349E-23
 -1       937 1.77628E-06-1.59672E-06 6.61744E-24
 -1       938 1.33088E-06-1.04392E-06 1.32349E-23
 -1       939 8.86104E-07-5.81953E-07 0.00000E+00
 -1       940 4.41248E-07-2.28374E-07 1.32349E-23
 -1       941 1.11291E-06 1.85907E-07 0.00000E+00
 -1       942 2.28995E-06 4.23834E-07-1.32349E-23
 -1       943 3.46469E-06 7.14836E-07-2.64698E-23
 -1       944 4.65006E-06 1.06089E-06 0.00000E+00
 -1       945 5.83647E-06 1.46505E-06 0.00000E+00
 -1       946 7.02486E-06 1.93139E-06-1.32349E-23
 -1       947 8.21365E-06 2.46521E-06 0.00000E+00
 -1       948 9.40274E-06 3.07298E-06-1.32349E-23
 -1       949 1.05918E-05 3.76265E-06 0.00000E+00
 -1       950 1.17806E-05 4.54357E-06 0.00000E+00
 -1       951 1.29689E-05 5.42689E-06-2.64698E-23
 -1       952 1.41555E-05 6.42557E-06 0.00000E+00
 -1       953 1.53412E-05 7.55484E-06 2.64698E-23
 -1       954 1.65181E-05 8.83214E-06 0.00000E+00
 -1       955 1.76966E-05 1.02779E-05 0.00000E+00
 -1       956 1.87337E-05 1.37966E-05-8.27181E-25
 -1       957 1.86425E-05 1.58436E-05 8.27181E-25
 -1       958 1.85507E-05 1.80426E-05 3.30872E-24
 -1       959 1.84585E-05 2.03785E-05-1.24077E-24
 -1       960 1.83660E-05 2.28361E-05-8.27181E-25
 -1       961 1.82731E-05 2.54001E-05 8.27181E-25
 -1       962 1.81801E-05 2.80552E-05-4.13590E-25
 -1       963 1.80868E-05 3.07859E-05-8.27181E-25
 -1       964 1.79934E-05 3.35770E-05 0.00000E+00
 -1       965 1.78998E-05 3.64131E-05 1.65436E-24
 -1       966 1.78062E-05 3.92788E-05-1.65436E-24
 -1       967 1.77126E-05 4.21588E-05 0.00000E+00
 -1       968 1.76190E-05 4.50376E-05 0.00000E+00
 -1       969 1.75255E-05 4.78999E-05 1.65436E-24
 -1       970 1.74322E-05 5.07306E-05 0.00000E+00
 -1       971 1.69960E-05 5.64958E-05-6.61744E-24
 -1       972 1.66394E-05 5.99920E-05 0.00000E+00
 -1       973 1.62817E-05 6.39447E-05 0.00000E+00
 -1       974 1.59204E-05 6.82927E-05 0.00000E+00
 -1       975 1.55575E-05 7.29727E-05 0.00000E+00
 -1       976 1.51931E-05 7.79194E-05 0.00000E+00
 -1       977 1.48276E-05 8.30663E-05-1.32349E-23
 -1       978 1.44614E-05 8.83455E-05 0.00000E+00
 -1       979 1.40949E-05 9.36887E-05-1.32349E-23
 -1       980 1.37284E-05 9.90269E-05-6.61744E-24
 -1       981 1.33624E-05 1.04292E-04-1.32349E-23
 -1       982 1.29976E-05 1.09414E-04 0.00000E+00
 -1       983 1.26339E-05 1.14327E-04 1.32349E-23
 -1       984 1.22737E-05 1.18964E-04 3.30872E-24
 -1       985 1.19144E-05 1.23259E-04 6.61744E-24
 -3
    1PSTEP                         2           1           1          
  100CL  101 1.000000000         841                     0    1           1
 -4  STRESS      6    1
 -5  SXX         1    4    1    1
 -5  SYY         1    4    2    2
 -5  SZZ         1    4    3    3
 -5  SXY         1    4    1    2
 -5  SYZ         1    4    2    3
 -5  SZX         1    4    3    1
 -1         1-2.82323E+06-8.54814E+05-4.57470E+05-9.20096E+05 1.06714E-10-5.99539E-09
 -1         2-1.81434E+06-2.78583E+04 2.82467E+03-1.75855E+05-2.52840E-10-3.15958E-09
 -1         3-8.55972E+05-5.30362E+05-8.13461E+02-1.04658E+05-2.15664E-10-2.18370E-09
 -1         4-2.80149E+05-1.34843E+05 3.46278E+02-4.46419E+04-1.35287E-11-2.44290E-09
 -1         5-3.34324E+04 5.10763E+05-1.32258E+05-7.98657E+03 1.32059E-09 7.25083E-09
 -1         8-1.35481E+06-6.03949E+05-1.89338E+05-8.10141E+05 1.63709E-10 4.19823E-09
 -1         9-1.70435E+06-3.56638E+05-2.35205E+05-4.78313E+05-1.16173E-09-8.37493E-10
 -1        10-9.58930E+05-7.76083E+05-1.40711E+03-3.31724E+05-1.55524E-09-1.57585E-09
 -1        11-4.40607E+05-2.14919E+05 4.65630E+01-1.72400E+05-1.65907E-09 1.73592E-09
 -1        12-1.41148E+05 4.71790E+05-1.51180E+05-6.03978E+04 2.85218E-09 1.45997E-09
 -1        15-4.90835E+03-5.20898E+04 2.57418E+03-2.47959E+05-1.09139E-11-5.82077E-11
 -1        16-1.02375E+06-3.03106E+05-1.56165E+05-4.80477E+05-5.00222E-10-3.43789E-09
 -1        17-6.51914E+05-6.01537E+05-1.00833E+05-4.73450E+05-4.26614E-09 3.62585E-09
 -1        18-1.58405E+05-1.64430E+05-7.47044E+04-3.41085E+05-3.20445E-09-3.06682E-09
 -1        19 1.89021E+04 2.30883E+05-7.30515E+04-8.77140E+04-3.89567E-10-3.38938E-10
 -1        20 2.01112E+05-1.38367E+05-1.67012E+04 1.03478E+05 9.46147E-09-3.54521E-09
 -1        21-3.64273E+04-3.23327E+05-1.54244E+03 2.21820E+04 3.17159E-08-2.09965E-09
 -1        22 3.76139E+04 2.00726E+05 1.06381E+03-5.74867E+04-3.18323E-11 7.63976E-10
 -1        23-3.26928E+05-2.59867E+04 2.27746E+03-2.24355E+05 1.88265E-10 7.88229E-11
 -1        24-2.68441E+05-3.49072E+04 1.21020E+05-4.17657E+05-2.77820E-09 7.95505E-10
 -1        25 5.09476E+05 2.47372E+05 1.99004E+05-3.54101E+05 1.54553E-09 1.00044E-09
 -1        26 5.24666E+04 4.61211E+05 5.61520E+04-1.07760E+05-1.81596E-10 8.17939E-10
 -1        27-1.27308E+05-1.29496E+05-6.10831E+04 1.19445E+05 1.21848E-08-2.81458E-09
 -1        28-3.46956E+04-2.20005E+05-1.96085E+03 1.03365E+05 1.39701E-08-2.69764E-09
 -1        29 4.56899E+05 3.21798E+05 1.19855E+03-3.26707E+04 1.28722E-10-8.98126E-10
 -1        30 1.80906E+05 4.09533E+04 1.54964E+03-7.38139E+04 6.26638E-10-2.72848E-10
 -1        31-5.52012E+05 4.63154E+04 3.24835E+03-1.26934E+05-6.98659E-10 4.40195E-10
 -1        32 2.65246E+05 3.66112E+05 3.30758E+05-3.22793E+05-1.17898E-09 3.00861E-09
 -1        33 7.65017E+05 7.62259E+05 3.38472E+05-1.31004E+05-6.12676E-09-7.67614E-10
 -1        34-4.12741E+05-8.26913E+04-5.49244E+04 3.07376E+04 1.05829E-08-2.46655E-09
 -1        35-5.09020E+04-7.01157E+04-1.50626E+03 1.40495E+05 3.44783E-08-1.79231E-09
 -1        36-3.93584E+06 7.26196E+04-2.31492E+05 4.41651E-09-3.91953E-11 5.44242E-09
 -1        37-4.02562E+06-8.86682E+04-1.54262E+05 2.79215E-09 1.27821E-09-6.91216E-10
 -1        38-3.97232E+06 8.82851E+03-6.00947E+04 3.44945E-08-2.11847E-09 1.37152E-09
 -1        39-3.98407E+06-1.06487E+04-3.49233E+04-6.19639E-09 2.39203E-09 2.95904E-09
 -1        40-3.97711E+06 1.08112E+03-1.53939E+04 1.10754E-08-9.58609E-10 2.79397E-09
 -1        41-3.97854E+06-1.28242E+03-8.61990E+03-4.26840E-08 1.08911E-09-4.25644E-09
 -1        42-3.97776E+06 1.47375E+02-4.58897E+03 4.77975E-09-4.17261E-10 2.88298E-09
 -1        43-3.97785E+06-2.71833E+02-3.63193E+03 4.79393E-08 2.87798E-10-5.84500E-09
 -1        44-3.97778E+06 1.27418E+02-4.09982E+03 2.46974E-08-6.35565E-10-5.52131E-09
 -1        45-3.97838E+06-1.06812E+03-7.29624E+03-3.73747E-08 5.53402E-10-7.07496E-09
 -1        46-3.97724E+06 8.96716E+02-1.28319E+04-2.94158E-08-7.73008E-10-1.23691E-09
 -1        47-3.98296E+06-8.82605E+03-2.89816E+04-5.75037E-08-1.73321E-09-1.35969E-10
 -1        48-3.97327E+06 7.31681E+03-4.98260E+04-3.23752E-08 3.21421E-10 3.09046E-09
 -1        49-4.01739E+06-7.34882E+04-1.27861E+05 1.36060E-08 7.50101E-11 4.68390E-09
 -1        50-3.94305E+06 6.01821E+04-1.91894E+05-3.99932E-08-1.80278E-09-6.50471E-09
 -1        51 4.96749E+04-4.44415E+05 9.92851E+04-1.17079E+06-8.73115E-11-2.85218E-09
 -1        52 2.17812E+04-4.35187E+05 5.55981E+04-1.33700E+06-4.36557E-11 2.80124E-09
 -1        53 1.11370E+04-4.56401E+05 3.46249E+04-1.16682E+06 1.38243E-10-1.41154E-09
 -1        54 2.42375E+04-4.56202E+05 4.03760E+04-1.34103E+06-5.82077E-10 2.96859E-09
 -1        55 4.48220E+04-4.70144E+05 6.32459E+04-1.16613E+06 2.32831E-10 5.23869E-10
 -1        56-4.37811E+06-5.23093E+05-3.12417E+05-1.68278E+06 2.83762E-10 8.19273E-09
 -1        57-4.49507E+06-7.75240E+05-2.04977E+05-1.67834E+06 1.89721E-09 2.09548E-09
 -1        58-4.43739E+06-6.11026E+05-7.35598E+04-1.66754E+06 2.00089E-11-3.98722E-09
 -1        59-4.42644E+06-6.68858E+05-4.22642E+04-1.69772E+06-1.56660E-09 2.19552E-09
 -1        60-4.44510E+06-6.22128E+05-1.71127E+04-1.66588E+06 3.41515E-10-3.36513E-10
 -1        61-4.41864E+06-6.54479E+05-9.45394E+03-1.69842E+06-9.51331E-10-7.59701E-09
 -1        62-4.44511E+06-6.24848E+05-4.86370E+03-1.66705E+06-3.06227E-09-7.89049E-09
 -1        63-4.42102E+06-6.49819E+05-4.20946E+03-1.69458E+06 1.51522E-09 4.44629E-10
 -1        64-4.44291E+06-6.27201E+05-5.35487E+03-1.66963E+06 5.25688E-10-5.84305E-09
 -1        65-4.42737E+06-6.46156E+05-1.07179E+04-1.68813E+06 4.58931E-09-9.46602E-09
 -1        66-4.43848E+06-6.28571E+05-1.96287E+04-1.67335E+06-1.85310E-09-9.30413E-10
 -1        67-4.44382E+06-6.54611E+05-4.82980E+04-1.67822E+06 1.67847E-09-1.85355E-09
 -1        68-4.42600E+06-6.19129E+05-8.42151E+04-1.67918E+06-5.98448E-10 3.87445E-09
 -1        69-4.52794E+06-7.70554E+05-2.34513E+05-1.64971E+06-4.45652E-11 5.52973E-10
 -1        70-4.35596E+06-5.20606E+05-3.57559E+05-1.69904E+06-3.31056E-09-2.77942E-09
 -1        71-1.67288E+06-5.31200E+03 1.69804E+04-6.98037E-10 2.09022E-10-4.58931E-09
 -1        72-1.66613E+06 6.49016E+03 1.13031E+04 2.88413E-08-6.26329E-10 1.48407E-09
 -1        73-1.67020E+06-6.45693E+02 4.40066E+03-2.59226E-08 1.02379E-10-3.06704E-09
 -1        74-1.66917E+06 7.78816E+02 2.54235E+03-1.75331E-09 4.00351E-10-9.68612E-10
 -1        75-1.66985E+06-7.86787E+01 1.09021E+03 1.04735E-08 3.38707E-11-1.26499E-09
 -1        76-1.66958E+06 9.09011E+01 5.49091E+02-6.40171E-09 8.13811E-12 7.28103E-09
 -1        77-1.66980E+06-7.86654E+00 1.73114E+02 3.20601E-08-2.44636E-10 4.12911E-09
 -1        78-1.66965E+06-5.75720E+00-7.74686E+01 9.71543E-08 6.38783E-10-8.11752E-09
 -1        79-1.66978E+06 1.36991E+01-3.58423E+02 1.00149E-08-1.95182E-10-5.80002E-09
 -1        80-1.66975E+06-1.40727E+02-8.88183E+02-4.65711E-08 7.00390E-10 1.54618E-09
 -1        81-1.66970E+06 1.20617E+02-1.69136E+03-1.32618E-08-5.10232E-10-1.45542E-09
 -1        82-1.67037E+06-1.19185E+03-3.90188E+03-4.37071E-08-7.74237E-10-4.17663E-09
 -1        83-1.66916E+06 9.88060E+02-6.73893E+03 1.30771E-09 4.64448E-10 1.37334E-10
 -1        84-1.67502E+06-9.93070E+03-1.72976E+04 4.72301E-09-1.19647E-09 4.79486E-09
 -1        85-1.66507E+06 8.12862E+03-2.59784E+04 4.62705E-10-3.54858E-12 3.72529E-09
 -1        86-7.47523E+04 7.24656E+05 2.44693E+05 6.80497E+03 5.67525E-10-3.31056E-10
 -1        87 9.71257E+04 8.22004E+05 1.78891E+05 8.19875E+04 1.45519E-10-5.10909E-09
 -1        88-1.48480E+04 7.58900E+05 9.89060E+04 6.16374E+03 1.55160E-09 5.03678E-09
 -1        89 6.73610E+04 8.07406E+05 1.33262E+05 8.36691E+04 7.56700E-10-1.30422E-09
 -1        90-4.82009E+04 7.40268E+05 1.61117E+05 5.13840E+03 3.36149E-09-1.42063E-09
 -1        91-2.18117E+06-2.90687E+05-5.51281E+04-8.25466E+05-1.84264E-09-6.07179E-09
 -1        92-2.19762E+06-3.39089E+05-3.61427E+04-8.29265E+05-5.35692E-10-3.93084E-09
 -1        93-2.19172E+06-3.06108E+05-1.30012E+04-8.22707E+05-3.45153E-10 3.15777E-09
 -1        94-2.18540E+06-3.20555E+05-7.47832E+03-8.32875E+05-1.80762E-11 2.57501E-09
 -1        95-2.19318E+06-3.07970E+05-3.04102E+03-8.22310E+05-2.35218E-10 1.56888E-11
 -1        96-2.18382E+06-3.18213E+05-1.68763E+03-8.33237E+05 5.65137E-10-3.20022E-09
 -1        97-2.19326E+06-3.08314E+05-8.72127E+02-8.22392E+05 1.86549E-09 1.21278E-09
 -1        98-2.18402E+06-3.17584E+05-7.67159E+02-8.32818E+05-1.28512E-09 3.22007E-09
 -1        99-2.19297E+06-3.08605E+05-9.81674E+02-8.22724E+05 2.20302E-09 7.03267E-10
 -1       100-2.18498E+06-3.17151E+05-1.98885E+03-8.31901E+05 8.94943E-10 6.05291E-09
 -1       101-2.19229E+06-3.08778E+05-3.63935E+03-8.23289E+05 3.97904E-11-3.84944E-10
 -1       102-2.18790E+06-3.18893E+05-8.95355E+03-8.30228E+05-5.89353E-10 4.66116E-09
 -1       103-2.19004E+06-3.07030E+05-1.55913E+04-8.24322E+05 4.34781E-10-3.37423E-10
 -1       104-2.20340E+06-3.40236E+05-4.33203E+04-8.24903E+05-1.58991E-09 7.02130E-09
 -1       105-2.17701E+06-2.88920E+05-6.60965E+04-8.28061E+05-1.42973E-09 4.78394E-09
 -1       106-5.83234E+05-2.29663E+04 7.34899E+04-2.56309E-08-5.29416E-10-4.20914E-09
 -1       107-5.54609E+05 2.80654E+04 4.89220E+04-3.01184E-08-6.25234E-10 4.12638E-09
 -1       108-5.71647E+05-2.79142E+03 1.90775E+04-8.16146E-09 1.77374E-10 1.04319E-09
 -1       109-5.67752E+05 3.36787E+03 1.10585E+04-1.13717E-08 6.64115E-11 5.37239E-09
 -1       110-5.70116E+05-3.41052E+02 4.82331E+03-2.27523E-08-4.98435E-10 2.61070E-09
 -1       111-5.69505E+05 4.00036E+02 2.58696E+03 4.04369E-08 5.12950E-10-2.62276E-10
 -1       112-5.69898E+05-4.11648E+01 1.15595E+03 1.66828E-08 8.43230E-11 3.65037E-09
 -1       113-5.69766E+05 3.81252E+01 5.14272E+02-2.27778E-08 1.39752E-10-2.63915E-09
 -1       114-5.69857E+05 2.61460E+00 7.41481E+01 1.03653E-09-6.63342E-10 3.43391E-10
 -1       115-5.69854E+05-7.01959E+01-3.37235E+02 6.86884E-08 7.29783E-10-3.14697E-09
 -1       116-5.69810E+05 6.35363E+01-8.35523E+02 2.27217E-08 6.43381E-10-1.62686E-09
 -1       117-5.70191E+05-6.33528E+02-2.04508E+03 1.74778E-08 1.09173E-11 2.16858E-09
 -1       118-5.69521E+05 5.25474E+02-3.57353E+03 3.76558E-08-7.47642E-10-1.56888E-11
 -1       119-5.72667E+05-5.28361E+03-9.20142E+03 9.96965E-09 5.75264E-10 3.49337E-09
 -1       120-5.67337E+05 4.32441E+03-1.38271E+04-1.64487E-08-2.29975E-10-3.08773E-09
 -1       121 2.12824E+04-2.11761E+06-6.93592E+04-3.43436E+02-7.27596E-10-1.56388E-09
 -1       122-2.74842E+04-2.14471E+06-5.00254E+04-1.11374E+04-1.35333E-09 9.19499E-10
 -1       123 3.92727E+03-2.12750E+06-2.65446E+04 5.66911E+02-1.92813E-09 2.33285E-10
 -1       124-1.68961E+04-2.13913E+06-3.36576E+04-1.27545E+04-2.51202E-09 4.04270E-09
 -1       125 1.16121E+04-2.12322E+06-3.95604E+04 1.27239E+03-3.09956E-09 1.17529E-09
 -1       126-1.03139E+06-1.50703E+05 1.79718E+04-3.84898E+05 1.51431E-10 1.69712E-09
 -1       127-1.01667E+06-1.44084E+05 1.17816E+04-3.94119E+05-5.90376E-10-2.21098E-09
 -1       128-1.02814E+06-1.45475E+05 4.23258E+03-3.85568E+05-2.84444E-10 1.10344E-09
 -1       129-1.02040E+06-1.50382E+05 2.42089E+03-3.93250E+05 5.29894E-10 1.96982E-09
 -1       130-1.02772E+06-1.44803E+05 9.52057E+02-3.85624E+05 1.28779E-10 2.82284E-09
 -1       131-1.02093E+06-1.51146E+05 4.59652E+02-3.93127E+05-2.81645E-10 4.24754E-09
 -1       132-1.02762E+06-1.44755E+05 9.88904E+01-3.85674E+05-1.07832E-09 1.44780E-10
 -1       133-1.02115E+06-1.51136E+05-1.65731E+02-3.92954E+05-1.61663E-10 4.30313E-09
 -1       134-1.02749E+06-1.44823E+05-5.00842E+02-3.85791E+05 8.27185E-10 1.05524E-09
 -1       135-1.02159E+06-1.51124E+05-1.25322E+03-3.92619E+05-3.30090E-10-2.93335E-09
 -1       136-1.02718E+06-1.44786E+05-2.39780E+03-3.85996E+05 1.54955E-10-4.30850E-09
 -1       137-1.02320E+06-1.52639E+05-5.96647E+03-3.91901E+05-1.28068E-10 3.03271E-09
 -1       138-1.02588E+06-1.43424E+05-1.04095E+04-3.86458E+05-3.87956E-11-2.36878E-09
 -1       139-1.03313E+06-1.67298E+05-2.89207E+04-3.88824E+05 1.60000E-09 2.10275E-09
 -1       140-1.01739E+06-1.31123E+05-4.41252E+04-3.88696E+05-3.19687E-09 8.27276E-09
 -1       141-8.12879E+04-9.63137E+03 3.08156E+04-2.42699E-08-1.93888E-10 4.39650E-09
 -1       142-6.92931E+04 1.17692E+04 2.05088E+04-1.26443E-08 1.16640E-09 6.78483E-10
 -1       143-7.64225E+04-1.17037E+03 7.97802E+03-1.84036E-08-6.24187E-10-1.98725E-09
 -1       144-7.48057E+04 1.41145E+03 4.58600E+03 5.07356E-08 1.36197E-09 4.09983E-09
 -1       145-7.57776E+04-1.42008E+02 1.91788E+03-3.62394E-09-3.32609E-10-1.48350E-09
 -1       146-7.55514E+04 1.60242E+02 8.66055E+02-2.08354E-08 6.02812E-10-5.98646E-10
 -1       147-7.56771E+04-9.73367E+00 5.73467E+01-7.76477E-08-4.26456E-10 1.47008E-09
 -1       148-7.57178E+04-5.03503E+01-6.80156E+02-7.63665E-08 4.86459E-10-4.23677E-09
 -1       149-7.56114E+04 6.06664E+01-1.68416E+03-2.85802E-08-1.70701E-10-1.86787E-10
 -1       150-7.61112E+04-5.95917E+02-3.84069E+03 3.20802E-08-8.94067E-10-1.25169E-09
 -1       151-7.52838E+04 5.08619E+02-7.18994E+03 1.83328E-08 8.15113E-10-9.62245E-10
 -1       152-7.87274E+04-5.02352E+03-1.64998E+04-2.27531E-08-6.04582E-10 7.17364E-09
 -1       153-7.29949E+04 4.16414E+03-2.84655E+04-5.68468E-09 2.21890E-10-4.29281E-10
 -1       154-9.83277E+04-4.18650E+04-7.29929E+04 2.62280E-08 2.81191E-10-3.90719E-09
 -1       155-5.56674E+04 3.42687E+04-1.09569E+05 5.94082E-09 1.28623E-09 2.85945E-09
 -1       156 2.00570E+03-4.89388E+05-5.93369E+03-6.08672E+02 5.91172E-11-9.18135E-10
 -1       157-1.86778E+03-4.91419E+05-2.29345E+03-8.01490E+03-9.59517E-11-2.86843E-09
 -1       158-3.25438E+02-4.90758E+05 2.11606E+03-4.24455E+02 4.90672E-10-1.71508E-09
 -1       159 5.42594E+03-4.87566E+05 8.99731E+03-8.34349E+03-5.61386E-10-2.67050E-09
 -1       160-4.65993E+03-4.93264E+05 1.46272E+04-2.79704E+02 8.33097E-10 1.63959E-09
 -1       161-4.58593E+05-6.20508E+04-9.30874E+03-1.73595E+05-4.16662E-10 1.14774E-08
 -1       162-4.57880E+05-7.36954E+04-6.10948E+03-1.78227E+05 1.11919E-09 3.53441E-09
 -1       163-4.60347E+05-6.46805E+04-2.21526E+03-1.73165E+05 2.57387E-10-7.10497E-09
 -1       164-4.55872E+05-7.05219E+04-1.30401E+03-1.78778E+05-2.64890E-10-2.86911E-09
 -1       165-4.60571E+05-6.50154E+04-5.96496E+02-1.73123E+05 3.58853E-10 2.20539E-09
 -1       166-4.55646E+05-7.01077E+04-4.64617E+02-1.78803E+05-9.18988E-10-7.93534E-11
 -1       167-4.60567E+05-6.50729E+04-5.07971E+02-1.73146E+05-6.00835E-11 6.16012E-09
 -1       168-4.55754E+05-7.00800E+04-9.35103E+02-1.78720E+05 6.43979E-10 3.61899E-09
 -1       169-4.60458E+05-6.50465E+04-1.74730E+03-1.73202E+05 6.46764E-10 3.15197E-09
 -1       170-4.56394E+05-7.06961E+04-4.01011E+03-1.78501E+05-3.22416E-10 8.50366E-09
 -1       171-4.59923E+05-6.44950E+04-7.52128E+03-1.73346E+05-1.03174E-09 6.83303E-09
 -1       172-4.60450E+05-7.64300E+04-1.86538E+04-1.77450E+05 1.05194E-09-6.54154E-10
 -1       173-4.56442E+05-5.96593E+04-3.24862E+04-1.74120E+05-4.08363E-10 4.76575E-10
 -1       174-4.90115E+05-1.23486E+05-9.02575E+04-1.69406E+05-1.77079E-09 1.12213E-08
 -1       175-4.30676E+05-2.05086E+04-1.37602E+05-1.80227E+05 1.24419E-09-1.03319E-09
 -1       191 1.06035E+04 1.32990E+06 2.11313E+04-1.52872E+04-5.42059E-10-7.86167E-09
 -1       192 3.47296E+03 1.33364E+06 1.27434E+04-1.64144E+04-1.37675E-09-1.22236E-09
 -1       193 1.03554E+03 1.33119E+06 1.00616E+04-1.48090E+04-2.02260E-09 1.32422E-09
 -1       194 4.39858E+03 1.33404E+06 1.48849E+04-1.73168E+04-2.42380E-09-2.67028E-09
 -1       195 1.35868E+04 1.32937E+06 2.63796E+04-1.43492E+04-3.35422E-09 5.82077E-11
 -1       251-9.61227E+05-2.50157E+03 4.55457E+03-1.14704E+04-8.36735E-11 2.02965E-09
 -1       252-9.55801E+05 1.33066E+03 3.65803E+03-9.64349E+04-6.54836E-11-1.86037E-09
 -1       253-9.60351E+05-6.03317E+02 1.06778E+03-9.29335E+03-2.03727E-10 1.30888E-09
 -1       254-9.58638E+05 9.89053E+01 8.88847E+02-1.00015E+05-1.90448E-09-2.17153E-09
 -1       255-9.60221E+05-1.45731E+02 2.45488E+02-7.89986E+03-6.79393E-10-7.26652E-09
 -1       256-9.59984E+05 2.92747E+02 2.15959E+02-1.02142E+05 2.11003E-10-4.79122E-09
 -1       257-9.60190E+05 2.85434E+01 6.40177E+01-7.16677E+03-4.82942E-10 1.39187E-09
 -1       258-9.60470E+05 4.26184E+02 8.72703E+00-1.02932E+05 4.51365E-10 1.21281E-09
 -1       259-9.60183E+05 4.71195E+01-7.15740E+01-7.10763E+03-8.59245E-10-5.31088E-09
 -1       260-9.60171E+05 2.79381E+02-1.79136E+02-1.02385E+05 1.50976E-10-2.13345E-09
 -1       261-9.60178E+05-5.55322E+01-4.81225E+02-7.71553E+03 1.02045E-09-2.30796E-09
 -1       262-9.59231E+05-3.40540E+02-8.60626E+02-1.00489E+05 1.10958E-10-7.88987E-11
 -1       263-9.60067E+05-1.05886E+02-1.89273E+03-9.00369E+03-2.32831E-10-1.82990E-09
 -1       264-9.58568E+05-2.96734E+03-4.05290E+03-9.71250E+04-3.37423E-09 7.78482E-09
 -1       265-9.59118E+05 1.19504E+03-6.94006E+03-1.10712E+04-2.61389E-09 2.68403E-09
 -1       266-1.89461E+04-3.61970E+05 5.84731E+04-3.06003E+04 2.87400E-10-1.97542E-09
 -1       267 2.76611E+04-3.43210E+05 3.66497E+04-3.73596E+05 3.70846E-10 4.53838E-10
 -1       268-6.91975E+02-3.51772E+05 9.06080E+03-3.00145E+04 3.13776E-10-1.88879E-09
 -1       269-1.45534E+03-3.57175E+05-7.82150E+03-3.73422E+05 3.25258E-10 4.34693E-09
 -1       270 6.86254E+03-3.46739E+05-2.29710E+04-3.07979E+04-1.23691E-10 9.45511E-09
 -1       271-4.48010E+06-5.40062E+05-3.59272E+05-1.74831E+06 2.18279E-10 4.49654E-09
 -1       272-4.62121E+06-8.20977E+05-2.35402E+05-1.73265E+06 2.60570E-10-1.94996E-09
 -1       273-4.55374E+06-6.35781E+05-8.47996E+04-1.72474E+06-1.11186E-09-5.73709E-09
 -1       274-4.53290E+06-7.09344E+05-4.85709E+04-1.76719E+06-2.63526E-10-2.85127E-09
 -1       275-4.56766E+06-6.43429E+05-1.98495E+04-1.71711E+06 1.02591E-09 1.19780E-09
 -1       276-4.51543E+06-7.01835E+05-1.08804E+04-1.77908E+06 1.21145E-09 5.77961E-09
 -1       277-4.57161E+06-6.41927E+05-5.54731E+03-1.71361E+06 7.32143E-11-1.75305E-10
 -1       278-4.51132E+06-7.03234E+05-4.72521E+03-1.78317E+06 1.15335E-10 6.75425E-09
 -1       279-4.57187E+06-6.41551E+05-5.90949E+03-1.71326E+06 2.97632E-10 1.84446E-09
 -1       280-4.51452E+06-7.03221E+05-1.19749E+04-1.78051E+06 1.49964E-09-6.82803E-10
 -1       281-4.56835E+06-6.42271E+05-2.19550E+04-1.71611E+06 1.93495E-09 1.78079E-09
 -1       282-4.53223E+06-7.13539E+05-5.39825E+04-1.76961E+06 1.74600E-09 2.03727E-10
 -1       283-4.55398E+06-6.32792E+05-9.41715E+04-1.72341E+06 8.27640E-11-3.55431E-09
 -1       284-4.62834E+06-8.39749E+05-2.61607E+05-1.73365E+06 7.16682E-10 5.55883E-09
 -1       285-4.47320E+06-5.25314E+05-3.99055E+05-1.74839E+06-1.71713E-09 8.14907E-10
 -1       286-6.43969E+05-7.64423E+03 2.21765E+04-7.88973E+03 4.52019E-09-1.71713E-09
 -1       287-6.32833E+05 8.17639E+03 1.51959E+04-6.85366E+04 1.84900E-09 2.62753E-09
 -1       288-6.40370E+05-1.15698E+03 5.68892E+03-6.63082E+03 9.71340E-10 4.43424E-09
 -1       289-6.38031E+05 8.88538E+02 3.53882E+03-7.06243E+04-4.03361E-10-5.42286E-10
 -1       290-6.39889E+05-2.27674E+02 1.50333E+03-5.80447E+03 5.66615E-10-6.37840E-09
 -1       291-6.39374E+05 2.49708E+02 1.05273E+03-7.19627E+04 1.94632E-09-2.52567E-09
 -1       292-6.39821E+05-2.97736E+01 7.62094E+02-5.29303E+03 1.80762E-09-1.09856E-09
 -1       293-6.39840E+05 3.51070E+02 1.05887E+03-7.26737E+04 1.25226E-09 7.51947E-09
 -1       294-6.39851E+05-2.24869E+01 1.72932E+03-5.09190E+03 2.03966E-09 8.58805E-10
 -1       295-6.39566E+05 8.32586E+02 3.56686E+03-7.27577E+04 2.30943E-09-1.56186E-09
 -1       296-6.40143E+05-4.48616E+02 6.50266E+03-5.20855E+03 2.17187E-09-3.79669E-09
 -1       297-6.36876E+05 4.69517E+03 1.48792E+04-7.22040E+04 3.28578E-09-5.03064E-09
 -1       298-6.42206E+05-3.83323E+03 2.55210E+04-5.64654E+03 1.68893E-09-3.89264E-10
 -1       299-6.18518E+05 3.76112E+04 6.56772E+04-7.09231E+04-1.70803E-09 5.26779E-09
 -1       300-6.57766E+05-3.10770E+04 9.83545E+04-6.49447E+03 8.36735E-11-8.58563E-10
 -1       301 5.93518E+04 1.42981E+05 1.12377E+05-6.77733E+04-1.73895E-09-4.74211E-09
 -1       302 2.01555E+04 1.62666E+05 6.23292E+04-7.78362E+04-4.71482E-09-5.02462E-09
 -1       303 5.63478E+03 1.50514E+05 4.03856E+04-6.79445E+04-1.99157E-09-4.68236E-09
 -1       304 1.43004E+04 1.59751E+05 4.83771E+04-7.78621E+04-5.88034E-09 3.80112E-09
 -1       305 4.02073E+04 1.45879E+05 7.81907E+04-6.78580E+04-1.97906E-09 6.05360E-09
 -1       306-4.30538E+06-5.14417E+05-3.52653E+05-1.67812E+06 3.82715E-09-3.76895E-09
 -1       307-4.45193E+06-7.82416E+05-2.31093E+05-1.65401E+06 2.77032E-09-6.34100E-09
 -1       308-4.37698E+06-6.09047E+05-8.32036E+04-1.65571E+06 3.91083E-10-2.35377E-09
 -1       309-4.36590E+06-6.72010E+05-4.76596E+04-1.68681E+06 7.88532E-10-3.74257E-09
 -1       310-4.39054E+06-6.16871E+05-1.94771E+04-1.64844E+06-2.13277E-10 6.55746E-10
 -1       311-4.34866E+06-6.64822E+05-1.06533E+04-1.69850E+06 1.06775E-09-3.41083E-09
 -1       312-4.39475E+06-6.15202E+05-5.40450E+03-1.64470E+06 2.18279E-11 1.59480E-09
 -1       313-4.34366E+06-6.67164E+05-4.47788E+03-1.70370E+06-2.38674E-09 5.48261E-09
 -1       314-4.39569E+06-6.14027E+05-5.45270E+03-1.64351E+06-3.51724E-09 1.07775E-10
 -1       315-4.34496E+06-6.68733E+05-1.09551E+04-1.70336E+06-1.20963E-09-9.95442E-10
 -1       316-4.39338E+06-6.13638E+05-1.99989E+04-1.64502E+06 2.96950E-09 2.62844E-10
 -1       317-4.35937E+06-6.80127E+05-4.92960E+04-1.69579E+06 1.86310E-09 2.39015E-09
 -1       318-4.38134E+06-6.03983E+05-8.59004E+04-1.65052E+06 7.21229E-10-6.69388E-10
 -1       319-4.44524E+06-7.97439E+05-2.38822E+05-1.66535E+06 1.46338E-09 1.55342E-09
 -1       320-4.30867E+06-5.04905E+05-3.64188E+05-1.67220E+06-1.82627E-09 5.83532E-09
 -1       321-3.99777E+05-3.82458E+04 1.22246E+05-2.35576E+03-2.36014E-10-5.13683E-09
 -1       322-3.52025E+05 4.66385E+04 8.14037E+04-2.28423E+04-2.51953E-09-2.61934E-09
 -1       323-3.80504E+05-4.66568E+03 3.17379E+04-2.14293E+03 7.58064E-10 3.89264E-10
 -1       324-3.73990E+05 5.58510E+03 1.84298E+04-2.31826E+04-2.39993E-10 6.92239E-09
 -1       325-3.77957E+05-5.75379E+02 8.06981E+03-2.01032E+03-6.88942E-11 1.94177E-09
 -1       326-3.76968E+05 6.73375E+02 4.40889E+03-2.33838E+04 6.72060E-10-2.24190E-09
 -1       327-3.77596E+05-7.13051E+01 2.12209E+03-1.94154E+03-9.82709E-10 2.20462E-09
 -1       328-3.77401E+05 1.08001E+02 1.27252E+03-2.34628E+04-3.38616E-10-6.84054E-10
 -1       329-3.77551E+05-2.13457E+01 9.20102E+02-1.93137E+03 7.22935E-10-1.56518E-10
 -1       330-3.77368E+05 1.55634E+02 1.15727E+03-2.34229E+04-4.09386E-10 2.55476E-09
 -1       331-3.77616E+05-1.22096E+02 1.78096E+03-1.98141E+03 1.11868E-10 1.33980E-10
 -1       332-3.76727E+05 1.14724E+03 3.86210E+03-2.32621E+04-2.31921E-10-3.18727E-09
 -1       333-3.78140E+05-9.74310E+02 6.56075E+03-2.09220E+03 2.85127E-10 9.38599E-10
 -1       334-3.72133E+05 9.58698E+03 1.67961E+04-2.29500E+04 9.54287E-10 3.23780E-10
 -1       335-3.82117E+05-7.91387E+03 2.51656E+04-2.29446E+03-1.66210E-09-2.89219E-10
 -1       336 1.00415E+04-2.08203E+06-3.89518E+04-1.99319E+04-7.71706E-09-7.41420E-09
 -1       337-1.53630E+04-2.09881E+06-3.84783E+04-2.98242E+05-9.49058E-09-3.58750E-09
 -1       338 6.11331E+03-2.08443E+06-3.90604E+04-1.70431E+04-1.22618E-08-2.56705E-09
 -1       339-4.48294E+04-2.11554E+06-8.45593E+04-2.99400E+05-9.76434E-09-6.57474E-09
 -1       340 3.76238E+04-2.06619E+06-1.22454E+05-1.87739E+04-8.17090E-09 2.47564E-09
 -1       341-2.31865E+06-3.05006E+05-8.02509E+04-8.83495E+05 1.19053E-09-1.15688E-09
 -1       342-2.34840E+06-3.69683E+05-5.26148E+04-8.82359E+05 1.09947E-09-2.80852E-09
 -1       343-2.33428E+06-3.27189E+05-1.89518E+04-8.79170E+05-3.29578E-10 1.07411E-09
 -1       344-2.33001E+06-3.43342E+05-1.09268E+04-8.88345E+05-5.29042E-10 1.74532E-09
 -1       345-2.33677E+06-3.29538E+05-4.52050E+03-8.78180E+05 1.92813E-10-1.91903E-10
 -1       346-2.32696E+06-3.40736E+05-2.64936E+03-8.89801E+05 4.09273E-11 6.85009E-09
 -1       347-2.33732E+06-3.29581E+05-1.65549E+03-8.77800E+05 6.55689E-10 5.38722E-09
 -1       348-2.32644E+06-3.40810E+05-1.98047E+03-8.90252E+05-4.36444E-10-4.69498E-09
 -1       349-2.33730E+06-3.29439E+05-3.11541E+03-8.77744E+05 9.60597E-10-1.62902E-09
 -1       350-2.32744E+06-3.41861E+05-6.83748E+03-8.89956E+05 4.29630E-11 5.61954E-10
 -1       351-2.33633E+06-3.28587E+05-1.26920E+04-8.78075E+05-2.42380E-10-2.39197E-10
 -1       352-2.33463E+06-3.51202E+05-3.14422E+04-8.87792E+05 4.22006E-10 1.95541E-09
 -1       353-2.33021E+06-3.20691E+05-5.47253E+04-8.79697E+05-6.33918E-10 1.33514E-09
 -1       354-2.38544E+06-4.29953E+05-1.52215E+05-8.73407E+05 9.39508E-10-6.79574E-09
 -1       355-2.28636E+06-2.55021E+05-2.31995E+05-8.90554E+05-5.66433E-09-1.20781E-09
 -1       356-9.46654E+04-1.61577E+04 5.15703E+04-1.89474E+03 7.87622E-10 2.31375E-09
 -1       357-7.44571E+04 1.96706E+04 3.43504E+04-2.06768E+04-1.51852E-09-4.37876E-09
 -1       358-8.65197E+04-1.97455E+03 1.33653E+04-1.82905E+03-1.74850E-10-1.54614E-10
 -1       359-8.37619E+04 2.35280E+03 7.72159E+03-2.07662E+04 1.33696E-10-3.09353E-09
 -1       360-8.54408E+04-2.42668E+02 3.28747E+03-1.80355E+03 7.43512E-11-6.93603E-09
 -1       361-8.50475E+04 2.78010E+02 1.61576E+03-2.08038E+04-1.43035E-09-4.60511E-09
 -1       362-8.52787E+04-2.09043E+01 4.16764E+02-1.79148E+03-5.92536E-10 3.46063E-10
 -1       363-8.52968E+04-2.58005E+01-4.67076E+02-2.08150E+04-2.05599E-10-4.20235E-09
 -1       364-8.52050E+04 5.76849E+01-1.53493E+03-1.79232E+03 9.00116E-10-7.03358E-09
 -1       365-8.56710E+04-5.70582E+02-3.65832E+03-2.08019E+04-7.99332E-10 4.91315E-09
 -1       366-8.48875E+04 4.85488E+02-6.91931E+03-1.80467E+03-3.04226E-10 3.91992E-09
 -1       367-8.81490E+04-4.86078E+03-1.59067E+04-2.07595E+04-1.55637E-10-5.14774E-09
 -1       368-8.26793E+04 4.00158E+03-2.74752E+04-1.83466E+03 1.86219E-10-2.28647E-09
 -1       369-1.06983E+05-4.04360E+04-7.04283E+04-2.06411E+04-2.82625E-09 3.28328E-10
 -1       370-6.59616E+04 3.30324E+04-1.05763E+05-1.91913E+03 1.85992E-09 6.62112E-10
 -1       371-7.06949E+03-4.11170E+05 2.02533E+04-1.76340E+04 1.42791E-09-5.00222E-10
 -1       372 7.92910E+03-4.04130E+05 9.18186E+03-2.10639E+05-1.50806E-09-5.79962E-09
 -1       373 8.63747E+02-4.06681E+05-4.73627E+03-1.72086E+04 2.92312E-09-2.10363E-09
 -1       374-1.35015E+04-4.15562E+05-2.40409E+04-2.10664E+05-2.08456E-09 2.74667E-10
 -1       375 1.25762E+04-3.99757E+05-4.02059E+04-1.76099E+04 2.98678E-09 4.18368E-11
 -1       376-1.21381E+06-1.53474E+05-6.37423E+04-4.65603E+05-1.79443E-09 7.27232E-09
 -1       377-1.23214E+06-2.10172E+05-4.17900E+04-4.70864E+05 1.42217E-09 4.28872E-09
 -1       378-1.22603E+06-1.71284E+05-1.50613E+04-4.62416E+05 1.87697E-10 2.49747E-09
 -1       379-1.21796E+06-1.88851E+05-8.68194E+03-4.75156E+05-2.63981E-10-2.62253E-09
 -1       380-1.22780E+06-1.73347E+05-3.58632E+03-4.61864E+05 1.13687E-11 5.52950E-09
 -1       381-1.21591E+06-1.86410E+05-2.09085E+03-4.75888E+05-9.78133E-10 5.65029E-09
 -1       382-1.22807E+06-1.73552E+05-1.28245E+03-4.61756E+05 4.70532E-10 6.36641E-09
 -1       383-1.21577E+06-1.86175E+05-1.49868E+03-4.75909E+05 1.12635E-10 4.55032E-09
 -1       384-1.22795E+06-1.73570E+05-2.32992E+03-4.61846E+05 1.13801E-10 9.58607E-10
 -1       385-1.21669E+06-1.86760E+05-5.08393E+03-4.75453E+05 2.18677E-10 2.48883E-09
 -1       386-1.22714E+06-1.73023E+05-9.43555E+03-4.62182E+05-1.58195E-09 5.54292E-09
 -1       387-1.22211E+06-1.93556E+05-2.33380E+04-4.73683E+05 1.79313E-09-7.39874E-10
 -1       388-1.22255E+06-1.67225E+05-4.06357E+04-4.63434E+05 4.68845E-10 7.33598E-09
 -1       389-1.25981E+06-2.51851E+05-1.12910E+05-4.62902E+05-4.99995E-09 1.12777E-09
 -1       390-1.18998E+06-1.18591E+05-1.72146E+05-4.71498E+05 1.36788E-09 5.39148E-09
 -1       406 1.17454E+04 1.28932E+06 2.42781E+04-1.27788E+05-3.68527E-09 2.33013E-09
 -1       407 4.65055E+03 1.29354E+06 1.82317E+04-1.45579E+05-3.39423E-09-4.71482E-09
 -1       408 2.91228E+03 1.29014E+06 2.03828E+04-1.27387E+05-5.29690E-09-8.74934E-10
 -1       409 1.29216E+04 1.29734E+06 3.76437E+04-1.46044E+05-5.11500E-09-1.36151E-09
 -1       410 3.85994E+04 1.28486E+06 7.18425E+04-1.27233E+05-5.48607E-09-2.27828E-09
 -1       466 1.62291E+06-4.91697E+04 1.55300E+05-4.68170E+03-4.54747E-11-2.37196E-09
 -1       467 1.68547E+06 5.89621E+04 1.03817E+05-9.30047E+04-7.27596E-12 3.77622E-09
 -1       468 1.64756E+06-6.13388E+03 4.03609E+04-7.32056E+03 2.08274E-10 2.24827E-09
 -1       469 1.65628E+06 7.08675E+03 2.36403E+04-8.86148E+04 1.25510E-10 6.51653E-10
 -1       470 1.65083E+06-7.69812E+02 1.04369E+04-9.05795E+03-2.57387E-10 2.20234E-09
 -1       471 1.65188E+06 1.06228E+03 6.00232E+03-8.60700E+04 5.43423E-11 2.39049E-09
 -1       472 1.65128E+06-6.67209E+01 3.41012E+03-9.86631E+03 2.00771E-10 5.22482E-09
 -1       473 1.65126E+06 4.93000E+02 3.08066E+03-8.53555E+04-4.06885E-10 1.47179E-09
 -1       474 1.65126E+06-9.85243E+01 3.94092E+03-9.77264E+03 1.97815E-10 1.08187E-09
 -1       475 1.65215E+06 1.25727E+03 7.45689E+03-8.64536E+04-4.05407E-10 1.07502E-09
 -1       476 1.65067E+06-9.98400E+02 1.32232E+04-8.76784E+03 9.68612E-10 1.13005E-09
 -1       477 1.65771E+06 8.98531E+03 3.01381E+04-8.93885E+04 5.50244E-10 2.77714E-09
 -1       478 1.64650E+06-7.81891E+03 5.15387E+04-6.83640E+03-3.81988E-11 1.14596E-10
 -1       479 1.69477E+06 7.53021E+04 1.32567E+05-9.42130E+04-2.74122E-09-1.14233E-09
 -1       480 1.61503E+06-6.27156E+04 1.98435E+05-3.96343E+03-2.49202E-09-3.55067E-09
 -1       481-1.26080E+04 3.63686E+05 4.06343E+04-1.80906E+03 5.63887E-11 1.01772E-09
 -1       482 1.58832E+04 3.79811E+05 2.83993E+04-7.62881E+03-3.29692E-10 5.73414E-09
 -1       483-2.03389E+03 3.69755E+05 1.34091E+04-1.61457E+03 2.45564E-11 7.74435E-10
 -1       484 6.58489E+03 3.74908E+05 1.40014E+04-8.01289E+03 2.70859E-10-3.06773E-09
 -1       485-4.12006E+03 3.68636E+05 1.44063E+04-1.42900E+03 2.66937E-10-2.59433E-09
 -1       486-1.64369E+06-1.90073E+05-1.57868E+05-6.44112E+05-4.18368E-10-3.97267E-09
 -1       487-1.69961E+06-3.19407E+05-1.03401E+05-6.44346E+05 1.12254E-09 2.20825E-09
 -1       488-1.67463E+06-2.33445E+05-3.72966E+04-6.35432E+05-1.94518E-10 1.35697E-09
 -1       489-1.66326E+06-2.67989E+05-2.13562E+04-6.56645E+05-3.24690E-10-7.42148E-10
 -1       490-1.67972E+06-2.37848E+05-8.72480E+03-6.33283E+05 2.95586E-10-6.53017E-10
 -1       491-1.65699E+06-2.63274E+05-4.73874E+03-6.60125E+05 4.91582E-10-1.13596E-09
 -1       492-1.68107E+06-2.37671E+05-2.35737E+03-6.32243E+05 3.69255E-10 1.06047E-09
 -1       493-1.65534E+06-2.63774E+05-1.83594E+03-6.61785E+05 3.71415E-10 9.80236E-10
 -1       494-1.68151E+06-2.37215E+05-2.09847E+03-6.31740E+05 4.62023E-10 2.32535E-09
 -1       495-1.65537E+06-2.64813E+05-4.06617E+03-6.62269E+05 1.08457E-09-2.09752E-10
 -1       496-1.68108E+06-2.36606E+05-7.33225E+03-6.31789E+05 6.82348E-10 5.80258E-10
 -1       497-1.65948E+06-2.70104E+05-1.80217E+04-6.60951E+05 3.76353E-10 3.11115E-09
 -1       498-1.67742E+06-2.32287E+05-3.13490E+04-6.32908E+05-1.33241E-10 1.20417E-09
 -1       499-1.68904E+06-3.14516E+05-8.70740E+04-6.51905E+05 2.01908E-10 2.09184E-09
 -1       500-1.65188E+06-1.95264E+05-1.32823E+05-6.39647E+05-5.83896E-10 1.29512E-09
 -1       501 1.46182E+05-2.07835E+04 6.34333E+04-7.63746E+03 4.01269E-09-1.94632E-09
 -1       502 1.74035E+05 2.39042E+04 4.28116E+04-9.02457E+04 6.98492E-10 1.77079E-09
 -1       503 1.56345E+05-2.79451E+03 1.63936E+04-7.78704E+03 7.69433E-10 3.25326E-09
 -1       504 1.60894E+05 2.86385E+03 9.78883E+03-8.98876E+04-3.24690E-10-5.43423E-10
 -1       505 1.57698E+05-4.15343E+02 4.21115E+03-7.99527E+03 1.23873E-09-1.36879E-10
 -1       506 1.58309E+05 6.36126E+02 2.49869E+03-8.95541E+04 1.61253E-09 1.75464E-09
 -1       507 1.57889E+05-2.40072E+01 1.38975E+03-8.12085E+03 2.17642E-09 8.82324E-10
 -1       508 1.57650E+05 5.38088E+02 1.27820E+03-8.93960E+04 2.31933E-09 2.83308E-09
 -1       509 1.57883E+05 1.48455E+00 1.63797E+03-8.15203E+03 2.06472E-09 3.09711E-09
 -1       510 1.57986E+05 8.69818E+02 3.09087E+03-8.94248E+04 3.62161E-09 3.90122E-09
 -1       511 1.57640E+05-3.95866E+02 5.46638E+03-8.09217E+03 1.67074E-09 8.28550E-10
 -1       512 1.60607E+05 3.97567E+03 1.25048E+04-8.96288E+04 3.98632E-09 2.89629E-09
 -1       513 1.55908E+05-3.31526E+03 2.12816E+04-7.94908E+03 1.47611E-09 2.62389E-09
 -1       514 1.76612E+05 3.13147E+04 5.50007E+04-8.98788E+04-5.78439E-10 3.17414E-10
 -1       515 1.42856E+05-2.62606E+04 8.20406E+04-7.84686E+03-6.27551E-10 1.06593E-09
 -1       516-2.37752E+04 2.74410E+05 7.86430E+04-1.36339E+04 4.11092E-09 1.70806E-09
 -1       517 3.28215E+04 3.04698E+05 5.87227E+04-1.41836E+05 2.60115E-09 8.17022E-09
 -1       518-5.09275E+03 2.85112E+05 3.44154E+04-1.34468E+04 3.24644E-09 5.26416E-09
 -1       519 2.68050E+04 3.03143E+05 5.00893E+04-1.42273E+05 2.98905E-09-6.44832E-10
 -1       520-1.91945E+04 2.77339E+05 6.23902E+04-1.32124E+04 1.50976E-09-2.44108E-09
 -1       521-3.37470E+06-4.00203E+05-2.89348E+05-1.31760E+06 4.01633E-09-9.18226E-09
 -1       522-3.48115E+06-6.32723E+05-1.89445E+05-1.31258E+06 8.46057E-10-4.07090E-09
 -1       523-3.43365E+06-4.77423E+05-6.83373E+04-1.29899E+06-2.95017E-11-4.25644E-09
 -1       524-3.41078E+06-5.42430E+05-3.90746E+04-1.33993E+06-8.46285E-10 1.78170E-09
 -1       525-3.44470E+06-4.83759E+05-1.59859E+04-1.29307E+06 1.43973E-09 2.97678E-09
 -1       526-3.39702E+06-5.36286E+05-8.67855E+03-1.34944E+06 2.21235E-09 2.34104E-09
 -1       527-3.44797E+06-4.82509E+05-4.32231E+03-1.29019E+06 3.50565E-09-1.81240E-09
 -1       528-3.39336E+06-5.37806E+05-3.42396E+03-1.35333E+06 1.24146E-09-3.89377E-12
 -1       529-3.44856E+06-4.81806E+05-3.98382E+03-1.28945E+06 1.23600E-09 3.30874E-09
 -1       530-3.39467E+06-5.38472E+05-7.83271E+03-1.35253E+06 1.13869E-09 9.14724E-10
 -1       531-3.44660E+06-4.81928E+05-1.42504E+04-1.29092E+06 3.39855E-09-1.25874E-09
 -1       532-3.40559E+06-5.45627E+05-3.49742E+04-1.34594E+06 9.34961E-10-5.39330E-10
 -1       533-3.43747E+06-4.75733E+05-6.10300E+04-1.29550E+06 9.21887E-10-2.35013E-09
 -1       534-3.46755E+06-6.27302E+05-1.69326E+05-1.32246E+06-4.20187E-10-3.73802E-09
 -1       535-3.38507E+06-4.06490E+05-2.58518E+05-1.31184E+06-1.77897E-09 2.99769E-09
 -1       536 1.13739E+06-5.43224E+04 1.73708E+05-9.14130E+02-3.28328E-10 7.20320E-10
 -1       537 1.20526E+06 6.61602E+04 1.15696E+05-3.16764E+04-2.26373E-09 1.98997E-09
 -1       538 1.16482E+06-6.63893E+03 4.51414E+04-1.72422E+03-2.21462E-10 2.00089E-11
 -1       539 1.17402E+06 7.89550E+03 2.62505E+04-3.02726E+04 2.39152E-09 1.75169E-09
 -1       540 1.16846E+06-8.26442E+02 1.15476E+04-2.30612E+03-3.00133E-10 5.75710E-10
 -1       541 1.16976E+06 9.41738E+02 6.41744E+03-2.93349E+04-3.76303E-11 1.47281E-09
 -1       542 1.16897E+06-1.09768E+02 3.29111E+03-2.66198E+03-7.27596E-11 3.38150E-09
 -1       543 1.16916E+06 1.86468E+02 2.37952E+03-2.88479E+04-3.42254E-10 7.89771E-09
 -1       544 1.16900E+06-6.67042E+01 2.39433E+03-2.79341E+03-1.59062E-10 4.19196E-09
 -1       545 1.16940E+06 5.77333E+02 3.98058E+03-2.88049E+04-4.46647E-10 6.88601E-09
 -1       546 1.16871E+06-4.71318E+02 6.85148E+03-2.70497E+03-5.20799E-10 1.74032E-09
 -1       547 1.17185E+06 4.62881E+03 1.53495E+04-2.92018E+04 1.71212E-09-1.01863E-09
 -1       548 1.16660E+06-3.85569E+03 2.63329E+04-2.39633E+03 4.04270E-10-1.31149E-09
 -1       549 1.19004E+06 3.85728E+04 6.74108E+04-3.00210E+04 7.87622E-10 2.61934E-10
 -1       550 1.15061E+06-3.16399E+04 1.01181E+05-1.88933E+03-1.61253E-09-6.11180E-10
 -1       551 2.53312E+04-3.65052E+05 4.34480E+04-5.70909E+05-5.43514E-09-3.89264E-10
 -1       552 1.20860E+04-3.58753E+05 2.67818E+04-6.54042E+05-6.75209E-09 1.98634E-09
 -1       553 6.79191E+03-3.64022E+05 2.18997E+04-5.70007E+05-5.51154E-09 1.35606E-09
 -1       554 1.50982E+04-3.57962E+05 3.32859E+04-6.54297E+05-4.58385E-09-1.10049E-10
 -1       555 3.47627E+04-3.67323E+05 5.94211E+04-5.70600E+05-6.22640E-09-1.65892E-09
 -1       556-4.92211E+05-2.11764E+05 4.31355E+03-3.75817E+05-4.03816E-09-5.28962E-09
 -1       557-4.71957E+05-2.32438E+05 2.15583E+03-3.97645E+05-1.83354E-09 1.08789E-08
 -1       558-4.93697E+05-2.12543E+05 8.51107E+02-3.74653E+05-9.89530E-10 5.31145E-10
 -1       559-4.72554E+05-2.33568E+05 4.40672E+02-3.99054E+05-1.36788E-09-8.70205E-09
 -1       560-4.94410E+05-2.12186E+05 1.60140E+02-3.74950E+05 1.54978E-09-3.43334E-10
 -1       561-4.73138E+05-2.33417E+05 5.66963E+01-3.99577E+05 1.01863E-09-3.36058E-10
 -1       562-4.94838E+05-2.11943E+05-5.98341E+01-3.75214E+05-1.44064E-09 3.03044E-09
 -1       563-4.73471E+05-2.33272E+05-1.92025E+02-3.99823E+05-1.62618E-09-6.27551E-10
 -1       564-4.94996E+05-2.11829E+05-4.51091E+02-3.75326E+05 9.86802E-10-2.09548E-09
 -1       565-4.73571E+05-2.33242E+05-9.96756E+02-3.99873E+05 6.82988E-10 1.32786E-10
 -1       566-4.94862E+05-2.11855E+05-2.07909E+03-3.75270E+05 2.12822E-10-1.52249E-09
 -1       567-4.73766E+05-2.33607E+05-4.58122E+03-3.99672E+05-9.35870E-10 2.72121E-09
 -1       568-4.94295E+05-2.12947E+05-9.45710E+03-3.74659E+05-2.31739E-09-5.50790E-09
 -1       569-4.78444E+05-2.40139E+05-2.23247E+04-3.97707E+05-3.12502E-09-1.00026E-08
 -1       570-4.92597E+05-2.32860E+05-4.61689E+04-3.66199E+05 4.36557E-11-1.64982E-09
 -1       571 7.94762E+05 4.17505E+04 7.87572E+04-1.76301E+05 1.49885E-09-1.95223E-09
 -1       572 8.08258E+05 1.31595E+04 3.93659E+04-2.01076E+05-1.03137E-09-5.74437E-09
 -1       573 8.00088E+05 1.85918E+03 1.76319E+04-1.75595E+05-2.96859E-09 4.42742E-09
 -1       574 8.01312E+05 4.54126E+02 8.94801E+03-2.01756E+05-1.45883E-09 1.01318E-09
 -1       575 8.00324E+05-1.42806E+02 4.29122E+03-1.75534E+05-1.81899E-10-4.65661E-10
 -1       576 8.00393E+05-5.34771E+01 2.21718E+03-2.01822E+05 6.99856E-10-1.12777E-09
 -1       577 8.00290E+05-6.26952E+01 1.13432E+03-1.75530E+05 1.23615E-09-1.19144E-09
 -1       578 8.00305E+05-3.57355E+01 6.85019E+02-2.01830E+05 9.03583E-10-6.38465E-10
 -1       579 8.00421E+05-1.04093E+02 5.30507E+02-1.75527E+05 4.36557E-11-5.44242E-09
 -1       580 8.00580E+05-1.73275E+02 6.78897E+02-2.01834E+05 5.67525E-10 2.08274E-09
 -1       581 8.00758E+05-3.13537E+02 1.10835E+03-1.75525E+05-1.20417E-09-1.60253E-09
 -1       582 8.01277E+05-3.04688E+02 2.23604E+03-2.01757E+05-8.36735E-10 3.32875E-10
 -1       583 8.01196E+05-1.23787E+02 4.32138E+03-1.75602E+05 3.63798E-10-4.64752E-10
 -1       584 8.03663E+05 2.48834E+03 9.68193E+03-2.00884E+05-4.53292E-09-8.97671E-10
 -1       585 8.00491E+05 9.38319E+03 1.92911E+04-1.76428E+05 1.05501E-09 1.76806E-09
 -1       586 8.88960E+03 1.68491E+05 1.42843E+04-6.28465E+05 1.34241E-09-1.01500E-09
 -1       587 5.82091E+03 1.69746E+05 1.10183E+04-7.19902E+05-1.23691E-09 3.72347E-09
 -1       588 4.47286E+03 1.67581E+05 1.23905E+04-6.27557E+05 5.02041E-10 3.23780E-09
 -1       589 1.09387E+04 1.72045E+05 2.29762E+04-7.19973E+05-7.09406E-10 1.47884E-09
 -1       590 2.54702E+04 1.65677E+05 4.35865E+04-6.28367E+05 6.73026E-10 1.95359E-09
 -1       591-3.72855E+05-1.44611E+05-5.38813E+04-2.20669E+05 1.55251E-09-2.21553E-09
 -1       592-3.70228E+05-1.39200E+05-2.60883E+04-2.41259E+05-1.09139E-10-2.77214E-09
 -1       593-3.74037E+05-1.21867E+05-1.10514E+04-2.30605E+05 4.92946E-10-3.81442E-09
 -1       594-3.64647E+05-1.31405E+05-5.38636E+03-2.42857E+05-1.54250E-09-3.09683E-10
 -1       595-3.74378E+05-1.20774E+05-2.47914E+03-2.31172E+05-2.61571E-09-4.47380E-09
 -1       596-3.64262E+05-1.31024E+05-1.26787E+03-2.42924E+05 4.54293E-10-3.11229E-09
 -1       597-3.74475E+05-1.20765E+05-7.17825E+02-2.31209E+05 3.48109E-09-1.02682E-09
 -1       598-3.64242E+05-1.31015E+05-6.25631E+02-2.42928E+05 3.66231E-09-4.49654E-09
 -1       599-3.74462E+05-1.20762E+05-8.61984E+02-2.31206E+05 6.74618E-09 9.10950E-09
 -1       600-3.64266E+05-1.31028E+05-1.64931E+03-2.42922E+05-8.05812E-10-5.04770E-10
 -1       601-3.74327E+05-1.20766E+05-3.29174E+03-2.31154E+05-5.92991E-10 4.11819E-09
 -1       602-3.64789E+05-1.31540E+05-7.19381E+03-2.42850E+05-3.16868E-09-3.15777E-09
 -1       603-3.73900E+05-1.22213E+05-1.47702E+04-2.30402E+05-1.57161E-09-3.61979E-10
 -1       604-3.72203E+05-1.42026E+05-3.48783E+04-2.40826E+05-6.54836E-10 3.93447E-09
 -1       605-3.72417E+05-1.52513E+05-7.20235E+04-2.17049E+05-3.13958E-09 1.53341E-09
 -1       606 1.91731E+05-2.39670E+04-4.47773E+04 5.31159E+04-1.38407E-08 5.65888E-09
 -1       607 1.83892E+05-7.59469E+03-2.23621E+04 5.98919E+04-3.34694E-09-9.22228E-10
 -1       608 1.88287E+05-1.11325E+03-1.00305E+04 5.26554E+04 1.03137E-08 9.23137E-11
 -1       609 1.87382E+05-1.52353E+02-5.07075E+03 6.03529E+04-6.70843E-09 7.41329E-09
 -1       610 1.87839E+05 2.17047E+02-2.43124E+03 5.26076E+04-1.88593E-08-5.17275E-09
 -1       611 1.87625E+05 2.89225E+02-1.22725E+03 6.03981E+04-2.80634E-08-1.32150E-09
 -1       612 1.87690E+05 2.73385E+02-5.94117E+02 5.26047E+04-9.43874E-09-1.78761E-09
 -1       613 1.87574E+05 3.33687E+02-2.77552E+02 6.04000E+04-1.61544E-08-3.80351E-09
 -1       614 1.87598E+05 2.97435E+02-9.56886E+01 5.26044E+04-1.44064E-09-8.09450E-10
 -1       615 1.87508E+05 3.67389E+02 4.38797E+01 6.03979E+04 1.60298E-08 3.22871E-11
 -1       616 1.87530E+05 3.27460E+02 1.98108E+02 5.26059E+04-1.13941E-08-9.79526E-10
 -1       617 1.87488E+05 4.33344E+02 4.78253E+02 6.03947E+04-2.78578E-09-4.64706E-09
 -1       618 1.87456E+05 4.74299E+02 9.72254E+02 5.26062E+04 1.21872E-10 2.94676E-10
 -1       619 1.87811E+05 1.17466E+03 2.18787E+03 6.03926E+04-1.06979E-09-4.11501E-09
 -1       620 1.87109E+05 2.72290E+03 4.38609E+03 5.25964E+04 3.53316E-09-1.12050E-09
 -1       621 7.27771E+03 7.34581E+05 1.49417E+04-1.12775E+05-5.86897E-09-3.11684E-09
 -1       622 3.08159E+03 7.37298E+05 1.20055E+04-1.29511E+05-3.64162E-09 4.70754E-09
 -1       623 2.13982E+03 7.35254E+05 1.44797E+04-1.12857E+05-5.59885E-09 1.41699E-09
 -1       624 9.57209E+03 7.40765E+05 2.76951E+04-1.29061E+05-3.60524E-09-6.45832E-09
 -1       625 2.86314E+04 7.31612E+05 5.33561E+04-1.13207E+05-4.23097E-09-1.76806E-09
 -1       626 2.83839E+05 9.01832E+04-2.29128E+04 1.90906E+05-1.30403E-08-1.69530E-09
 -1       627 2.72642E+05 1.04737E+05-1.10882E+04 1.96039E+05 2.85218E-09-2.94813E-09
 -1       628 2.83661E+05 9.94308E+04-4.70233E+03 1.86110E+05 1.72804E-08 4.96630E-09
 -1       629 2.74406E+05 1.08585E+05-2.27501E+03 1.95839E+05 7.52334E-09 1.13982E-09
 -1       630 2.83465E+05 9.99041E+04-1.02621E+03 1.85759E+05 1.78115E-08 9.95578E-09
 -1       631 2.74424E+05 1.08829E+05-4.68401E+02 1.95795E+05-9.43783E-09-8.86993E-09
 -1       632 2.83346E+05 9.99394E+04-1.58358E+02 1.85691E+05-1.05338E-08 1.84446E-09
 -1       633 2.74367E+05 1.08862E+05 5.32378E+01 1.95753E+05 1.59780E-08 1.11813E-08
 -1       634 2.83276E+05 9.99436E+04 2.87888E+02 1.85660E+05 1.25683E-08 4.60659E-10
 -1       635 2.74367E+05 1.08869E+05 7.09643E+02 1.95744E+05 1.95628E-08 6.42012E-09
 -1       636 2.83232E+05 9.99305E+04 1.49296E+03 1.85651E+05 5.58884E-10-5.68525E-09
 -1       637 2.74674E+05 1.09076E+05 3.30538E+03 1.95752E+05 2.66100E-08-8.86757E-10
 -1       638 2.83118E+05 1.00547E+05 6.79263E+03 1.85360E+05 2.71029E-09-1.00135E-09
 -1       639 2.78267E+05 1.13810E+05 1.60568E+04 1.94869E+05 5.33873E-09-2.35741E-09
 -1       640 2.82560E+05 1.14466E+05 3.31468E+04 1.79324E+05-9.15861E-10 6.42103E-10
 -1       641 1.49059E+04 3.74804E+03-1.20551E+04 1.53788E+03-1.69771E-08-6.17092E-10
 -1       642 1.01929E+04-4.46947E+03-8.00531E+03 1.67997E+04-2.14692E-08-4.20187E-09
 -1       643 1.30071E+04 4.57792E+02-3.12753E+03 1.51552E+03-1.91471E-08-2.18847E-09
 -1       644 1.22865E+04-4.07495E+02-1.79281E+03 1.68211E+04 2.90981E-09-4.96686E-09
 -1       645 1.27561E+04 6.50117E+01-7.62351E+02 1.51494E+03 2.03204E-09-6.20673E-09
 -1       646 1.25394E+04 9.29986E+01-3.57527E+02 1.68190E+04-2.76589E-08 1.12493E-10
 -1       647 1.27181E+04 1.88917E+01-6.31624E+01 1.51710E+03 1.90241E-08-6.15205E-09
 -1       648 1.25820E+04 1.75483E+02 1.81285E+02 1.68161E+04 3.88577E-08-3.56353E-09
 -1       649 1.26971E+04-2.41859E+00 4.95667E+02 1.51758E+03 2.72917E-08-5.02081E-09
 -1       650 1.27051E+04 3.40015E+02 1.15002E+03 1.68156E+04 2.50699E-08-2.03542E-09
 -1       651 1.25982E+04-1.39698E+02 2.15868E+03 1.51748E+03-4.77644E-09-2.88662E-09
 -1       652 1.35156E+04 1.66377E+03 4.96280E+03 1.68135E+04-4.25865E-09-4.57999E-09
 -1       653 1.19094E+04-1.24507E+03 8.55604E+03 1.51924E+03 5.41536E-09-2.53385E-09
 -1       654 1.94550E+04 1.27296E+04 2.19558E+04 1.67692E+04 6.93376E-10 1.07502E-09
 -1       655 6.70267E+03-1.03067E+04 3.29555E+04 1.55846E+03 1.63041E-08-5.45697E-11
 -1       656 2.72601E+04-7.95325E+05-9.02786E+04 8.55324E+03-1.85573E-08-8.24912E-10
 -1       657-3.69382E+04-8.30756E+05-6.84389E+04 7.18313E+04-1.33496E-08 1.70223E-09
 -1       658 6.19220E+03-8.07326E+05-4.19597E+04 8.12465E+03-9.52252E-09 6.79688E-09
 -1       659-3.39238E+04-8.29318E+05-6.38376E+04 7.21814E+04-1.13614E-08-2.62434E-09
 -1       660 2.45936E+04-7.96904E+05-8.18549E+04 8.20641E+03-1.49121E-08-3.12957E-09
 -1       661 8.04253E+05 9.66059E+04 6.75757E+04 3.14973E+05 3.81897E-09-7.89441E-10
 -1       662 8.23992E+05 1.56581E+05 4.43184E+04 3.20314E+05-2.46209E-08-2.63617E-09
 -1       663 8.16640E+05 1.16076E+05 1.59662E+04 3.12276E+05-1.66963E-08 8.76753E-10
 -1       664 8.09843E+05 1.33061E+05 9.19804E+03 3.23724E+05-8.01953E-09-3.51793E-09
 -1       665 8.18162E+05 1.18645E+05 3.75739E+03 3.12112E+05-1.39328E-08-9.21364E-09
 -1       666 8.08124E+05 1.29972E+05 2.11013E+03 3.23894E+05 1.56548E-08-5.10721E-09
 -1       667 8.18317E+05 1.19014E+05 1.13451E+03 3.12155E+05 1.46673E-08-5.60109E-09
 -1       668 8.07969E+05 1.29624E+05 1.07676E+03 3.23864E+05 3.36314E-09 5.25876E-09
 -1       669 8.18310E+05 1.18983E+05 1.45722E+03 3.12144E+05 1.77503E-08-2.53567E-09
 -1       670 8.08237E+05 1.30216E+05 3.03610E+03 3.23927E+05 4.63372E-08 6.63113E-09
 -1       671 8.18061E+05 1.18437E+05 5.56193E+03 3.12090E+05 5.71384E-09-1.18916E-09
 -1       672 8.10868E+05 1.34784E+05 1.37228E+04 3.23605E+05-2.07158E-08-1.26829E-08
 -1       673 8.15736E+05 1.14645E+05 2.38542E+04 3.12388E+05 1.31186E-08-5.24687E-09
 -1       674 8.32139E+05 1.69813E+05 6.62399E+04 3.18354E+05 9.06334E-09-8.02993E-09
 -1       675 7.97141E+05 8.56323E+04 1.01023E+05 3.16513E+05 1.09358E-08-6.49015E-09
 -1       676 1.07748E+04-7.22330E+05-3.61573E+04 4.93684E+03 7.52152E-09-8.22638E-10
 -1       677-1.51613E+04-7.36612E+05-2.87867E+04 2.84166E+04-2.05901E-08-6.19275E-09
 -1       678 2.92173E+03-7.26772E+05-1.98632E+04 4.72505E+03 4.54736E-09 5.76836E-09
 -1       679-1.84030E+04-7.38387E+05-3.38291E+04 2.86540E+04-1.17088E-08-1.87848E-09
 -1       680 1.37740E+04-7.20598E+05-4.53162E+04 4.69925E+03 4.62569E-09 2.60955E-09
 -1       681 5.90219E+05-1.03020E+04 3.27816E+04-1.49044E+03-4.68390E-11 1.13141E-09
 -1       682 6.03138E+05 1.24752E+04 2.18733E+04-2.32185E+04-2.30557E-10 1.11686E-09
 -1       683 5.95408E+05-1.26980E+03 8.53255E+03-1.74954E+03 6.13909E-11-7.27596E-11
 -1       684 5.97166E+05 1.48291E+03 4.99721E+03-2.27545E+04-3.32079E-10-1.44087E-09
 -1       685 5.96093E+05-1.61632E+02 2.24674E+03-1.95312E+03 2.37378E-10 2.51703E-10
 -1       686 5.96326E+05 1.86570E+02 1.35676E+03-2.24349E+04-3.69255E-10 1.92762E-09
 -1       687 5.96184E+05-2.53178E+01 9.00678E+02-2.06918E+03-1.11527E-10 7.34502E-10
 -1       688 5.96231E+05 8.78490E+01 1.03478E+03-2.22889E+04-1.07178E-10-2.30216E-11
 -1       689 5.96158E+05-5.02883E+01 1.57248E+03-2.09911E+03 1.06638E-10 2.88935E-10
 -1       690 5.96516E+05 4.85487E+02 3.16728E+03-2.23168E+04-2.59774E-11 7.79892E-10
 -1       691 5.95903E+05-4.05437E+02 5.75683E+03-2.04125E+03 2.21803E-10 3.21279E-10
 -1       692 5.98623E+05 3.97391E+03 1.31094E+04-2.25160E+04-9.09495E-12 6.59384E-10
 -1       693 5.94088E+05-3.30967E+03 2.25670E+04-1.89986E+03-1.63709E-10 4.92037E-10
 -1       694 6.14223E+05 3.31260E+04 5.78433E+04-2.28655E+04-5.74005E-10-2.72757E-09
 -1       695 5.80372E+05-2.71600E+04 8.68445E+04-1.69430E+03-2.18279E-10-7.27596E-10
 -1       696-1.03714E+04 5.96918E+05 3.26353E+04-5.16204E+03 2.23736E-10-5.52518E-10
 -1       697 1.22370E+04 6.09263E+05 2.00173E+04-4.80128E+04 2.32831E-10-1.29563E-09
 -1       698-6.66842E+02 6.02530E+05 4.63300E+03-5.19389E+03-1.44610E-10 1.75049E-09
 -1       699-4.17101E+03 6.00553E+05-5.41407E+03-4.80779E+04-2.81943E-10 2.82358E-09
 -1       700 4.64505E+03 6.05664E+05-1.36648E+04-5.09862E+03-1.23691E-10 1.70667E-09
 -1       701-5.28446E+05-5.38041E+04-7.30025E+04-2.09040E+05-1.64619E-10-1.20053E-09
 -1       702-5.54627E+05-1.13615E+05-4.78588E+04-2.09236E+05-2.93312E-10 1.25328E-09
 -1       703-5.42230E+05-7.44218E+04-1.72432E+04-2.05650E+05 4.64439E-10 3.24690E-09
 -1       704-5.38709E+05-8.88783E+04-9.90731E+03-2.13768E+05-6.57110E-11-3.56522E-10
 -1       705-5.44160E+05-7.68937E+04-4.03441E+03-2.05141E+05 2.92971E-10-2.18279E-11
 -1       706-5.36446E+05-8.59828E+04-2.21777E+03-2.14503E+05 4.82942E-10 4.81805E-10
 -1       707-5.44491E+05-7.71211E+04-1.11608E+03-2.05000E+05-1.87811E-10-5.21254E-11
 -1       708-5.36080E+05-8.57779E+04-9.18038E+02-2.14716E+05-4.07624E-10-2.46636E-10
 -1       709-5.44539E+05-7.70715E+04-1.09873E+03-2.04946E+05-4.63274E-11 6.98833E-10
 -1       710-5.36276E+05-8.61591E+04-2.17569E+03-2.14738E+05 8.20393E-11 9.13502E-10
 -1       711-5.44304E+05-7.67513E+04-3.94154E+03-2.04977E+05 4.60943E-10 5.14774E-10
 -1       712-5.38333E+05-8.91688E+04-9.69357E+03-2.14242E+05 1.26931E-10-3.92106E-10
 -1       713-5.42505E+05-7.42410E+04-1.68526E+04-2.05373E+05-2.47837E-11-3.23780E-10
 -1       714-5.53730E+05-1.13545E+05-4.68032E+04-2.10039E+05-8.09450E-11-5.04770E-10
 -1       715-5.29125E+05-5.39761E+04-7.13696E+04-2.08575E+05 2.92857E-10 1.67347E-10
 -1       716 3.77368E+05-2.14944E+04 6.80935E+04-5.02151E+03 3.39242E-10 2.54659E-10
 -1       717 4.04440E+05 2.60437E+04 4.54837E+04-5.69128E+04-5.82077E-10 7.36691E-11
 -1       718 3.88155E+05-2.64969E+03 1.77041E+04-5.29486E+03-5.49335E-10 4.72937E-10
 -1       719 3.91776E+05 3.25506E+03 1.03604E+04-5.64224E+04-9.03128E-10-4.60204E-10
 -1       720 3.89582E+05-3.13787E+02 4.60808E+03-5.50958E+03 1.64755E-09-1.16165E-09
 -1       721 3.89929E+05 5.85176E+02 2.68714E+03-5.61301E+04 2.87616E-09-9.34847E-10
 -1       722 3.89776E+05-2.21331E+01 1.61777E+03-5.58714E+03 1.95922E-09-1.21463E-09
 -1       723 3.89749E+05 3.26471E+02 1.61063E+03-5.61164E+04 1.24192E-09 5.38705E-10
 -1       724 3.89752E+05-6.45275E+01 2.21989E+03-5.52330E+03 1.27193E-09 2.76970E-11
 -1       725 3.90326E+05 7.82885E+02 4.35390E+03-5.63888E+04 2.37219E-09-3.64366E-11
 -1       726 3.89406E+05-5.95630E+02 7.77802E+03-5.31492E+03 2.27783E-09 9.36780E-10
 -1       727 3.93562E+05 5.37778E+03 1.77939E+04-5.69434E+04 1.42609E-09 1.64641E-09
 -1       728 3.86945E+05-4.61412E+03 3.04549E+04-4.96843E+03-4.98403E-10 5.76620E-10
 -1       729 4.15275E+05 4.46798E+04 7.83656E+04-5.77020E+04-1.26010E-09-1.30967E-10
 -1       730 3.68367E+05-3.70462E+04 1.17358E+05-4.56421E+03-8.34916E-10-4.72937E-10
 -1       731-1.65652E+04 2.11284E+05 5.29253E+04-9.52655E+03 1.41154E-09-1.51340E-09
 -1       732 2.05908E+04 2.31653E+05 3.52680E+04-1.05270E+05 8.44011E-10-1.94342E-09
 -1       733-1.99128E+03 2.19647E+05 1.37135E+04-9.51059E+03 1.35742E-09 1.52374E-09
 -1       734 2.93838E+03 2.22432E+05 7.97616E+03-1.05321E+05 1.03924E-09 1.51249E-09
 -1       735-4.95174E+02 2.20658E+05 3.18277E+03-9.47613E+03 5.77529E-10 1.31422E-09
 -1       736-1.47443E+06-1.74670E+05-1.15056E+05-5.69636E+05 7.67614E-10-2.27737E-09
 -1       737-1.51816E+06-2.66465E+05-7.54319E+04-5.67053E+05 5.28416E-10-6.43013E-10
 -1       738-1.49647E+06-2.06859E+05-2.71603E+04-5.63902E+05 1.62572E-11-1.06411E-09
 -1       739-1.49248E+06-2.28031E+05-1.56032E+04-5.74868E+05 1.23123E-10-1.31331E-09
 -1       740-1.49976E+06-2.10504E+05-6.34357E+03-5.62805E+05-1.99748E-10 6.52562E-10
 -1       741-1.48851E+06-2.23864E+05-3.47609E+03-5.76493E+05 8.07006E-10 1.89226E-09
 -1       742-1.50044E+06-2.10714E+05-1.72414E+03-5.62411E+05 9.43146E-10-1.08622E-09
 -1       743-1.48774E+06-2.23723E+05-1.37513E+03-5.77049E+05 5.93445E-10 1.75357E-09
 -1       744-1.50056E+06-2.10600E+05-1.59197E+03-5.62277E+05-1.84826E-10-5.19037E-10
 -1       745-1.48802E+06-2.24238E+05-3.10887E+03-5.77052E+05 1.56579E-09-1.05365E-09
 -1       746-1.50015E+06-2.10217E+05-5.61339E+03-5.62403E+05 2.78131E-09 7.59883E-10
 -1       747-1.49120E+06-2.28269E+05-1.37965E+04-5.76037E+05 2.06023E-09-2.54659E-11
 -1       748-1.49741E+06-2.06836E+05-2.39875E+04-5.63188E+05 9.32687E-10 3.41970E-10
 -1       749-1.51361E+06-2.62513E+05-6.66414E+04-5.69473E+05-2.59433E-10 7.74889E-10
 -1       750-1.47807E+06-1.78270E+05-1.01629E+05-5.68105E+05 2.69210E-10 8.14907E-10
 -1       751 2.53711E+06-9.88174E+04 3.16750E+05 1.40841E+03-2.63390E-09 5.52973E-10
 -1       752 2.66050E+06 1.20525E+05 2.10848E+05-3.79582E+04-2.58956E-09-1.56433E-10
 -1       753 2.58712E+06-1.20492E+04 8.23689E+04-6.95127E+02-2.99224E-10 1.63709E-10
 -1       754 2.60373E+06 1.44047E+04 4.79059E+04-3.43973E+04 2.03659E-09 2.25555E-10
 -1       755 2.59376E+06-1.49115E+03 2.11573E+04-2.12730E+03-5.02041E-10 3.76531E-10
 -1       756 2.59607E+06 1.72409E+03 1.18628E+04-3.21101E+04 3.75621E-10-1.07525E-09
 -1       757 2.59469E+06-2.02288E+02 6.30997E+03-2.98232E+03 2.60343E-10 2.86309E-09
 -1       758 2.59506E+06 3.77821E+02 4.96756E+03-3.09356E+04-8.50662E-10 1.93563E-09
 -1       759 2.59472E+06-1.61572E+02 5.56288E+03-3.30202E+03 1.38044E-10 2.30762E-09
 -1       760 2.59575E+06 1.43424E+03 9.82789E+03-3.08120E+04-3.79003E-10 4.69424E-09
 -1       761 2.59398E+06-1.18548E+03 1.72408E+04-3.10584E+03 3.36513E-10-8.88576E-10
 -1       762 2.60186E+06 1.17077E+04 3.88046E+04-3.17295E+04 1.17143E-09 2.30693E-09
 -1       763 2.58861E+06-9.71993E+03 6.66787E+04-2.38437E+03 4.17913E-10 2.05546E-09
 -1       764 2.64767E+06 9.75820E+04 1.70571E+05-3.37295E+04 5.24324E-10-8.00355E-11
 -1       765 2.54813E+06-7.99025E+04 2.56228E+05-1.11603E+03-1.87174E-09 1.83354E-09
 -1       766-4.36076E+04 5.92193E+05 1.43110E+05-1.69066E+03-6.02449E-09-1.27966E-09
 -1       767 5.73501E+04 6.49224E+05 1.06352E+05-4.98058E+03-3.76258E-09-1.52045E-09
 -1       768-9.19076E+03 6.11809E+05 6.16292E+04-1.29235E+03-4.09727E-09 2.13004E-09
 -1       769 4.55212E+04 6.42958E+05 8.80202E+04-5.76149E+03-1.28148E-09 9.53150E-10
 -1       770-3.27964E+04 5.98487E+05 1.09701E+05-9.20509E+02-1.60799E-09 8.49468E-10
 -1       771-1.65491E+06-3.47272E+05-1.04092E+05-6.91643E+05-1.75942E-09 1.57161E-09
 -1       772-1.65941E+06-3.27026E+05-5.03844E+04-7.20079E+05-4.36557E-09 2.78305E-09
 -1       773-1.65708E+06-3.03468E+05-2.13580E+04-7.10892E+05-6.03904E-10 1.91540E-09
 -1       774-1.64865E+06-3.12003E+05-1.03930E+04-7.23230E+05 1.95723E-09 5.35601E-09
 -1       775-1.65783E+06-3.01287E+05-4.78329E+03-7.12002E+05 9.42237E-10 1.19144E-09
 -1       776-1.64797E+06-3.11267E+05-2.40327E+03-7.23500E+05 2.95768E-09-4.76575E-10
 -1       777-1.65818E+06-3.01180E+05-1.29737E+03-7.12137E+05 4.58385E-10 1.23373E-09
 -1       778-1.64806E+06-3.11212E+05-9.79261E+02-7.23678E+05-4.07454E-10 3.01452E-09
 -1       779-1.65839E+06-3.01069E+05-1.19708E+03-7.12230E+05-2.72848E-10 8.79595E-10
 -1       780-1.64828E+06-3.11174E+05-2.15406E+03-7.23866E+05-1.12777E-10-4.16264E-10
 -1       781-1.65844E+06-3.00945E+05-4.23822E+03-7.12277E+05-6.51198E-10-1.56660E-09
 -1       782-1.64914E+06-3.11788E+05-9.23307E+03-7.24010E+05 8.25821E-10-4.45652E-11
 -1       783-1.65817E+06-3.02636E+05-1.89373E+04-7.11413E+05 5.72072E-10 8.18545E-10
 -1       784-1.65857E+06-3.25517E+05-4.47602E+04-7.22021E+05 6.23913E-10 2.06637E-09
 -1       785-1.65681E+06-3.41153E+05-9.24208E+04-6.94120E+05 4.52928E-10 6.76664E-10
 -1       786 1.28237E+06-4.37181E+04 1.40019E+05-3.37567E+02 1.30876E-09 1.21508E-09
 -1       787 1.33679E+06 5.33774E+04 9.32291E+04-1.68839E+04-8.00355E-10-2.00089E-11
 -1       788 1.30448E+06-5.32011E+03 3.64056E+04-7.51049E+02 4.79758E-11-1.08594E-09
 -1       789 1.31175E+06 6.39013E+03 2.11573E+04-1.61888E+04-5.12500E-10-2.13731E-09
 -1       790 1.30741E+06-6.53255E+02 9.33210E+03-1.02738E+03 7.25095E-10-3.18778E-10
 -1       791 1.30840E+06 7.61216E+02 5.20200E+03-1.57772E+04 5.57463E-10 2.06910E-09
 -1       792 1.30782E+06-8.75703E+01 2.71925E+03-1.16254E+03 7.39135E-10 1.92335E-09
 -1       793 1.30796E+06 1.45881E+02 2.05173E+03-1.56439E+04-5.81023E-10 2.37122E-10
 -1       794 1.30784E+06-6.61878E+01 2.18723E+03-1.16068E+03-2.50225E-10-3.28259E-09
 -1       795 1.30823E+06 5.30781E+02 3.76488E+03-1.57858E+04 5.79575E-10 4.36103E-10
 -1       796 1.30756E+06-4.55295E+02 6.55106E+03-1.02062E+03-6.38124E-10-2.62844E-09
 -1       797 1.31055E+06 4.42990E+03 1.47234E+04-1.62045E+04-6.43468E-10-1.64709E-09
 -1       798 1.30553E+06-3.69600E+03 2.52834E+04-7.42091E+02-1.01022E-09 1.05319E-09
 -1       799 1.32795E+06 3.70374E+04 6.47172E+04-1.68994E+04-3.46358E-09-2.93221E-09
 -1       800 1.29018E+06-3.03531E+04 9.71648E+04-3.29460E+02-4.55657E-10-6.80302E-10
 -1       801-3.26162E+04 8.11937E+05 1.03459E+05-6.00839E+04 1.45519E-09-3.49246E-09
 -1       802 5.22527E+04 8.52093E+05 8.88397E+04-6.45010E+05-2.76782E-09-5.81394E-09
 -1       803-8.83954E+03 8.24103E+05 6.79555E+04-6.11943E+04 6.39920E-09 8.13634E-09
 -1       804 7.55611E+04 8.66842E+05 1.25973E+05-6.45430E+05-5.79712E-09 3.45517E-09
 -1       805-5.52755E+04 7.99139E+05 1.70360E+05-5.96808E+04 4.96220E-09 7.78164E-09
 -1       806-8.48795E+05-2.12045E+05-7.79005E+04-3.81348E+05-1.01272E-09-1.09139E-10
 -1       807-8.50611E+05-1.98605E+05-3.77279E+04-4.04609E+05-1.15751E-08-1.70994E-08
 -1       808-8.50184E+05-1.79409E+05-1.59702E+04-3.95856E+05 2.01362E-09-2.29102E-09
 -1       809-8.42606E+05-1.87174E+05-7.78489E+03-4.06591E+05 1.04410E-09-4.13809E-09
 -1       810-8.50562E+05-1.77897E+05-3.57193E+03-3.96633E+05-1.59616E-09 1.57888E-09
 -1       811-8.41980E+05-1.86639E+05-1.81355E+03-4.06607E+05 2.83762E-10 4.10182E-10
 -1       812-8.50647E+05-1.77919E+05-9.95065E+02-3.96654E+05-3.31283E-10-7.31234E-10
 -1       813-8.41912E+05-1.86641E+05-8.12737E+02-4.06579E+05 3.15708E-10 1.86992E-09
 -1       814-8.50618E+05-1.77931E+05-1.05511E+03-3.96641E+05 1.86174E-09-1.56979E-09
 -1       815-8.41941E+05-1.86657E+05-1.97103E+03-4.06565E+05-1.50612E-09-2.93858E-09
 -1       816-8.50469E+05-1.77933E+05-3.90745E+03-3.96590E+05-1.93631E-09 1.58616E-09
 -1       817-8.42589E+05-1.87253E+05-8.52707E+03-4.06500E+05-4.44561E-09 3.14321E-09
 -1       818-8.50007E+05-1.79623E+05-1.74995E+04-3.95720E+05-2.47383E-09 7.20320E-10
 -1       819-8.51372E+05-1.99725E+05-4.13318E+04-4.04223E+05-1.20053E-10 1.27693E-09
 -1       820-8.48406E+05-2.15418E+05-8.53441E+04-3.79849E+05-3.67982E-09 4.56566E-09
 -1       821-8.41289E+05 3.07866E+04-9.85545E+04-1.32097E+02-7.63703E-09 4.87489E-10
 -1       822-8.79460E+05-3.76142E+04-6.56261E+04 1.32860E+04-5.34146E-09 4.48381E-10
 -1       823-8.56845E+05 3.72504E+03-2.56261E+04-5.70135E+02 7.33917E-09-9.54969E-10
 -1       824-8.61907E+05-4.45543E+03-1.48772E+04 1.40459E+04-2.78465E-09-1.05956E-10
 -1       825-8.58894E+05 4.47603E+02-6.57954E+03-8.95275E+02-1.69327E-08 1.02136E-09
 -1       826-8.59626E+05-4.57900E+02-3.67756E+03 1.45990E+04-2.92761E-08 1.84571E-10
 -1       827-8.59177E+05 5.87480E+01-1.96687E+03-1.12452E+03-1.65942E-08-8.21842E-10
 -1       828-8.59374E+05-1.37281E+01-1.55445E+03 1.49583E+04-2.01394E-08 2.39862E-09
 -1       829-8.59184E+05 5.49427E+01-1.75859E+03-1.25548E+03-5.06475E-10 2.41437E-09
 -1       830-8.59620E+05-3.45692E+02-3.12619E+03 1.51168E+04 1.03222E-08-8.64702E-10
 -1       831-8.58949E+05 3.83651E+02-5.49707E+03-1.28356E+03-6.70354E-09 1.15233E-09
 -1       832-8.61561E+05-3.65299E+03-1.23974E+04 1.50730E+04 1.32343E-09-1.16938E-09
 -1       833-8.57243E+05 3.11556E+03-2.13143E+04-1.21081E+03 2.84649E-09-3.13321E-09
 -1       834-8.76197E+05-3.12279E+04-5.46050E+04 1.48367E+04-1.77090E-09-2.03636E-09
 -1       835-8.44303E+05 2.56336E+04-8.19763E+04-1.04062E+03 7.51129E-09 4.36557E-10
 -1       836-6.34621E+04 2.40587E+06 2.10842E+05-2.75042E+04-3.72529E-09-1.65528E-10
 -1       837 8.82746E+04 2.48975E+06 1.66092E+05-2.45290E+05-7.70888E-09-2.48610E-09
 -1       838-1.62213E+04 2.43245E+06 1.11432E+05-2.94553E+04-5.05952E-09 5.93320E-09
 -1       839 1.00464E+05 2.49594E+06 1.84885E+05-2.44780E+05-9.91895E-09 9.11496E-09
 -1       840-7.44448E+04 2.39942E+06 2.45209E+05-2.80093E+04-4.94765E-09 6.40466E-09
 -1       841-3.69941E+05-3.49886E+04-5.70330E+04-1.45826E+05-3.15049E-09-1.78261E-10
 -1       842-4.06813E+05-6.51607E+04-3.73666E+04-1.27167E+05-7.73252E-09 2.05182E-09
 -1       843-3.80358E+05-5.14234E+04-1.34718E+04-1.43577E+05 3.16049E-09 2.57796E-09
 -1       844-3.95005E+05-4.52604E+04-7.72241E+03-1.30071E+05 5.81713E-09 6.42956E-10
 -1       845-3.81631E+05-5.35780E+04-3.13103E+03-1.43445E+05-4.15162E-09-1.55967E-09
 -1       846-3.93654E+05-4.26031E+04-1.67819E+03-1.30221E+05-8.11895E-09-3.87013E-09
 -1       847-3.81735E+05-5.39104E+04-7.66398E+02-1.43514E+05-7.06427E-09 6.16843E-10
 -1       848-3.93600E+05-4.21786E+04-4.78676E+02-1.30130E+05 1.41023E-08-1.80876E-09
 -1       849-3.81712E+05-5.39708E+04-3.90771E+02-1.43562E+05 2.02068E-08 3.85517E-09
 -1       850-3.93689E+05-4.21959E+04-6.12681E+02-1.30081E+05-1.58385E-08 1.42733E-09
 -1       851-3.81657E+05-5.38906E+04-1.03747E+03-1.43569E+05-1.32843E-08-1.41794E-09
 -1       852-3.94143E+05-4.30241E+04-2.50080E+03-1.30011E+05-9.85665E-10-3.42119E-09
 -1       853-3.81254E+05-5.31947E+04-4.33885E+03-1.43607E+05-8.43329E-09-3.09467E-09
 -1       854-3.97883E+05-4.94696E+04-1.20217E+04-1.29120E+05-1.18921E-08 3.47654E-09
 -1       855-3.77947E+05-4.78733E+04-1.83503E+04-1.44285E+05 2.57432E-09-5.96447E-09
 -1       856-8.23561E+05 2.49673E+04-8.01221E+04-2.64531E+02-7.54426E-09 2.85581E-09
 -1       857-8.54530E+05-3.04167E+04-5.33080E+04 2.60111E+04-1.85437E-08 3.18232E-09
 -1       858-8.36192E+05 3.00934E+03-2.08353E+04-8.59497E+02-1.98916E-08-2.36741E-09
 -1       859-8.40405E+05-3.43251E+03-1.20751E+04 2.70032E+04 3.63639E-09-2.75918E-09
 -1       860-8.37853E+05 3.63839E+02-5.33644E+03-1.26375E+03 3.12821E-09-9.30413E-10
 -1       861-8.38633E+05-1.53467E+02-2.95864E+03 2.76287E+04-2.92601E-08 2.25901E-09
 -1       862-8.38081E+05 5.59245E+01-1.54224E+03-1.48843E+03 1.48433E-08-1.78647E-09
 -1       863-8.38446E+05 2.24401E+02-1.14991E+03 2.78986E+04 3.29524E-08-4.47574E-09
 -1       864-8.38093E+05 4.58384E+01-1.21176E+03-1.53546E+03 2.22461E-08-1.60111E-09
 -1       865-8.38567E+05 4.71833E+00-2.07314E+03 2.78126E+04 2.54023E-08 1.11251E-09
 -1       866-8.37944E+05 2.50084E+02-3.61247E+03-1.40211E+03-1.18753E-08 2.02249E-09
 -1       867-8.39742E+05-2.18849E+03-8.10092E+03 2.73712E+04-5.97720E-09-2.92061E-10
 -1       868-8.36834E+05 2.01602E+03-1.39489E+04-1.09146E+03 1.18689E-10-3.79532E-09
 -1       869-8.49156E+05-2.02504E+04-3.56646E+04 2.65585E+04-1.66906E-08-1.19189E-09
 -1       870-8.28390E+05 1.66961E+04-5.36112E+04-5.82894E+02 8.59200E-09-1.20053E-10
 -1       871-5.15070E+03-2.94377E+04-7.49969E+03 1.27855E+05-1.61344E-09 1.08867E-09
 -1       872-2.00840E+03-3.06347E+04-2.00822E+03 1.46357E+05 9.08221E-09 1.29012E-09
 -1       873-3.08964E+02-3.03118E+04 2.57173E+03 1.27633E+05 2.68301E-11-8.77662E-10
 -1       874 2.66856E+03-2.83844E+04 9.06039E+03 1.46488E+05 9.24592E-09-1.84941E-09
 -1       875 1.00863E+04-3.18481E+04 1.96113E+04 1.27777E+05-2.75304E-09 2.55432E-09
 -1       876 8.82951E+05 1.02986E+05 8.39345E+04 3.46858E+05-1.81262E-09-1.13505E-09
 -1       877 9.05493E+05 1.79627E+05 5.50674E+04 3.55929E+05-2.03865E-08-1.82354E-09
 -1       878 8.98212E+05 1.27322E+05 1.98224E+04 3.43656E+05-1.33563E-08-2.94494E-09
 -1       879 8.88104E+05 1.50169E+05 1.14245E+04 3.59860E+05 4.41059E-09 2.16278E-09
 -1       880 8.99995E+05 1.30631E+05 4.64582E+03 3.43575E+05 1.17745E-08-7.65249E-09
 -1       881 8.86127E+05 1.46139E+05 2.58487E+03 3.59829E+05 9.50308E-09-6.89238E-09
 -1       882 9.00105E+05 1.31183E+05 1.32962E+03 3.43726E+05 9.49137E-09-1.32059E-09
 -1       883 8.86047E+05 1.45538E+05 1.16150E+03 3.59607E+05 6.37135E-09 1.82215E-09
 -1       884 9.00046E+05 1.31231E+05 1.46522E+03 3.43785E+05 2.78569E-08-3.99592E-09
 -1       885 8.86372E+05 1.46017E+05 2.96652E+03 3.59569E+05 4.94556E-08 1.02364E-09
 -1       886 8.99784E+05 1.30725E+05 5.39973E+03 3.43758E+05-3.84409E-09-6.96514E-09
 -1       887 8.88928E+05 1.50434E+05 1.32959E+04 3.59256E+05-4.50196E-08-2.15978E-08
 -1       888 8.97549E+05 1.27033E+05 2.31030E+04 3.44025E+05 5.57793E-09 1.62618E-09
 -1       889 9.09475E+05 1.84424E+05 6.41498E+04 3.54264E+05 1.01661E-08-1.44428E-09
 -1       890 8.79591E+05 9.88763E+04 9.78227E+04 3.47959E+05 2.87564E-08 1.51340E-09
 -1       891 3.80921E+03-3.79211E+05-1.35560E+04 1.16300E+04 6.65614E-09 2.97587E-09
 -1       892-6.38081E+03-3.84004E+05-1.15847E+04 1.21912E+05 5.14615E-09-1.75919E-09
 -1       893 1.34773E+03-3.80626E+05-9.31919E+03 1.14256E+04 9.74387E-09 5.71561E-09
 -1       894-1.03934E+04-3.86057E+05-1.77682E+04 1.21856E+05-3.86399E-09-3.52065E-09
 -1       895 7.43799E+03-3.77088E+05-2.48362E+04 1.16848E+04 1.91812E-09 3.08410E-09
 -1       896 9.48486E+05-5.07113E+03 1.61170E+04-6.61294E+02 5.82077E-11-1.02500E-09
 -1       897 9.54813E+05 6.12555E+03 1.07623E+04-1.67291E+04-1.33014E-11-1.60981E-10
 -1       898 9.51040E+05-6.27500E+02 4.20073E+03-1.00880E+03-7.32143E-11-6.81894E-10
 -1       899 9.51865E+05 7.23585E+02 2.47203E+03-1.61100E+04-1.47679E-10-1.15961E-11
 -1       900 9.51376E+05-8.19220E+01 1.12852E+03-1.27994E+03 9.00400E-11-2.54090E-10
 -1       901 9.51446E+05 9.00217E+01 7.18987E+02-1.56672E+04 1.42791E-10-7.84439E-12
 -1       902 9.51419E+05-1.54718E+01 5.41109E+02-1.45159E+03 9.73159E-11 7.88134E-11
 -1       903 9.51405E+05 5.73577E+01 7.15947E+02-1.54195E+04-3.04908E-10 9.13047E-12
 -1       904 9.51395E+05-3.84396E+01 1.16893E+03-1.52757E+03 3.60842E-10 1.66636E-10
 -1       905 9.51620E+05 3.70421E+02 2.40999E+03-1.53634E+04 5.62743E-10 3.62320E-10
 -1       906 9.51198E+05-3.08680E+02 4.40790E+03-1.50764E+03 3.55499E-10 1.20735E-10
 -1       907 9.53215E+05 3.05179E+03 1.00477E+04-1.54966E+04 4.44288E-10 3.51065E-10
 -1       908 9.49806E+05-2.53055E+03 1.73089E+04-1.39437E+03-2.10321E-11 3.05590E-10
 -1       909 9.65142E+05 2.54098E+04 4.43493E+04-1.58049E+04-1.12209E-10-7.03949E-10
 -1       910 9.39282E+05-2.08074E+04 6.65945E+04-1.20036E+03 1.68711E-10-1.34605E-10
 -1       911 3.27594E+05-3.30146E+03 1.04209E+04-1.86679E+03-1.90994E-11 2.17369E-10
 -1       912 3.31756E+05 3.98535E+03 6.97503E+03-2.10917E+04-2.20325E-10 8.25366E-10
 -1       913 3.29247E+05-4.12318E+02 2.72114E+03-1.97026E+03-3.70164E-10 4.45539E-10
 -1       914 3.29804E+05 4.99438E+02 1.61931E+03-2.08907E+04-4.58499E-10 7.50561E-10
 -1       915 3.29465E+05-5.22907E+01 7.63268E+02-2.06766E+03 9.05402E-10 8.03595E-10
 -1       916 3.29510E+05 9.99162E+01 5.37410E+02-2.07379E+04 1.61026E-09 4.08306E-10
 -1       917 3.29490E+05-8.01388E+00 4.89999E+02-2.12298E+03 1.20463E-09 3.97520E-10
 -1       918 3.29494E+05 1.00618E+02 7.55582E+02-2.06719E+04 9.11299E-10 3.77380E-10
 -1       919 3.29459E+05-4.00386E+01 1.31598E+03-2.13371E+03 7.21229E-10 4.16293E-10
 -1       920 3.29760E+05 4.62810E+02 2.76655E+03-2.06944E+04 1.29450E-09 2.74042E-10
 -1       921 3.29231E+05-3.56376E+02 5.08088E+03-2.10046E+03 1.23339E-09 9.18135E-10
 -1       922 3.31630E+05 3.55587E+03 1.16061E+04-2.08024E+04 1.39664E-09 5.52518E-10
 -1       923 3.27623E+05-2.93093E+03 1.99909E+04-2.02544E+03 7.43739E-10 4.29281E-10
 -1       924 3.45456E+05 2.93945E+04 5.12575E+04-2.09621E+04 1.36527E-09 1.50067E-10
 -1       925 3.15471E+05-2.40700E+04 7.69587E+04-1.94125E+03 6.35282E-10-1.27329E-10
 -1       926-1.26115E+06 2.12329E+04-6.78805E+04 3.49006E+02 5.24096E-10 2.18279E-11
 -1       927-1.28744E+06-2.59421E+04-4.52085E+04 7.12452E+03-6.66205E-10-3.20142E-10
 -1       928-1.27186E+06 2.57903E+03-1.76316E+04 1.16854E+02 2.31353E-10-1.77351E-10
 -1       929-1.27530E+06-3.10692E+03-1.02324E+04 7.51045E+03 1.32411E-09-1.48520E-09
 -1       930-1.27328E+06 3.15376E+02-4.49021E+03-3.70808E+01 1.53705E-10-6.70298E-10
 -1       931-1.27369E+06-3.61945E+02-2.46224E+03 7.74511E+03 7.11680E-11-3.48564E-10
 -1       932-1.27347E+06 4.14309E+01-1.21100E+03-1.17965E+02 4.26837E-10-8.51287E-10
 -1       933-1.27347E+06-4.58252E+01-7.76321E+02 7.83354E+03 3.52987E-10-4.59124E-10
 -1       934-1.27350E+06 1.86545E+01-6.46263E+02-1.25564E+02 8.72546E-11-4.82387E-10
 -1       935-1.27351E+06-1.15641E+02-9.35597E+02 7.77467E+03 8.93891E-10-6.99970E-10
 -1       936-1.27344E+06 1.04140E+02-1.53557E+03-5.90648E+01-2.94392E-10-1.75135E-10
 -1       937-1.27403E+06-1.01433E+03-3.38880E+03 7.56930E+03 8.15135E-10-9.96067E-10
 -1       938-1.27297E+06 8.45265E+02-5.80228E+03 7.98925E+01 7.64544E-10-1.38925E-09
 -1       939-1.27800E+06-8.50987E+03-1.48423E+04 7.21122E+03 5.06020E-10-5.93218E-10
 -1       940-1.26946E+06 6.96422E+03-2.22849E+04 2.99130E+02-8.64020E-12 5.54792E-11
 -1       941 3.33800E+06-1.24806E+05 4.01108E+05 6.88513E+02 2.88094E-09 3.46336E-09
 -1       942 3.49340E+06 1.52658E+05 2.66810E+05 1.59937E+02 2.06776E-09-3.46336E-09
 -1       943 3.40129E+06-1.51626E+04 1.04342E+05 9.45120E+02 5.92138E-10-2.83762E-10
 -1       944 3.42200E+06 1.83119E+04 6.06351E+04-3.90113E+02-1.28964E-09-2.28465E-09
 -1       945 3.40970E+06-1.85330E+03 2.68163E+04 1.24030E+03 1.33628E-09 1.28057E-09
 -1       946 3.41253E+06 2.20081E+03 1.50173E+04-1.02897E+03 3.24098E-09 5.17048E-09
 -1       947 3.41088E+06-2.52470E+02 7.99285E+03 1.58428E+03 9.36552E-10 3.97199E-09
 -1       948 3.41134E+06 4.55392E+02 6.28109E+03-1.79170E+03 1.05189E-09 2.33771E-09
 -1       949 3.41091E+06-2.14146E+02 7.02392E+03 2.00290E+03-2.13242E-09-5.74141E-09
 -1       950 3.41223E+06 1.77768E+03 1.24037E+04-2.73421E+03 2.47218E-09 3.40015E-09
 -1       951 3.40998E+06-1.49507E+03 2.17562E+04 2.52664E+03-1.85003E-09-5.78984E-09
 -1       952 3.41987E+06 1.47485E+04 4.89456E+04-3.92753E+03-1.53511E-09-2.85945E-09
 -1       953 3.40320E+06-1.22209E+04 8.41220E+04 3.19524E+03-2.14095E-09-1.06957E-09
 -1       954 3.47744E+06 1.23016E+05 2.15053E+05-5.50604E+03-6.46185E-09-3.94357E-09
 -1       955 3.35215E+06-1.00607E+05 3.23172E+05 4.08907E+03-3.48928E-09-9.16771E-10
 -1       956-2.55679E+05-4.93077E+03-9.40864E+03 5.96577E+04-1.32441E-08-2.36651E-09
 -1       957-2.57337E+05-1.44307E+03-4.69341E+03 6.77334E+04-3.09956E-09-3.17027E-09
 -1       958-2.56490E+05-9.30226E+01-2.11107E+03 5.92776E+04 8.53288E-09-5.24324E-09
 -1       959-2.56713E+05 1.71657E+02-1.06557E+03 6.81475E+04-7.22503E-09-1.97451E-09
 -1       960-2.56664E+05 2.35817E+02-5.16522E+02 5.92337E+04-1.54851E-08-5.25051E-09
 -1       961-2.56743E+05 3.09439E+02-2.64832E+02 6.81961E+04-2.84199E-08-2.55159E-09
 -1       962-2.56754E+05 2.85328E+02-1.40718E+02 5.92271E+04-1.46028E-08-4.06226E-09
 -1       963-2.56809E+05 3.50524E+02-8.88605E+01 6.82044E+04-1.57361E-08 2.16914E-10
 -1       964-2.56808E+05 3.15640E+02-8.15257E+01 5.92245E+04 8.18545E-11-4.63206E-09
 -1       965-2.56857E+05 3.74950E+02-1.17072E+02 6.82056E+04 1.46842E-08-5.06816E-09
 -1       966-2.56831E+05 3.31044E+02-2.08290E+02 5.92254E+04-1.21884E-08-5.74846E-09
 -1       967-2.56902E+05 3.51630E+02-4.23737E+02 6.81906E+04-8.23118E-09-2.77942E-09
 -1       968-2.56803E+05 2.25960E+02-8.33579E+02 5.92397E+04-1.08480E-09-4.70209E-09
 -1       969-2.57188E+05-2.69933E+02-1.85835E+03 6.80506E+04 2.42744E-09-3.19233E-09
 -1       970-2.56502E+05-1.68377E+03-3.72309E+03 5.93723E+04 2.58979E-09-5.44060E-09
 -1       971-9.96082E+05 2.21912E+04-7.12517E+04-8.66341E+02-1.32923E-08-3.49246E-10
 -1       972-1.02355E+06-2.70548E+04-4.73999E+04 2.32783E+04-1.58525E-08-2.03727E-09
 -1       973-1.00731E+06 2.66682E+03-1.85370E+04-1.58514E+03-1.44901E-08-1.71167E-09
 -1       974-1.01101E+06-3.05488E+03-1.07506E+04 2.44957E+04-2.00339E-09-2.11367E-09
 -1       975-1.00878E+06 3.15628E+02-4.78087E+03-2.08958E+03 7.01675E-10-3.49883E-09
 -1       976-1.00945E+06-1.34481E+02-2.69907E+03 2.52969E+04-2.15064E-08-1.51135E-09
 -1       977-1.00898E+06 4.57231E+01-1.50887E+03-2.38980E+03 2.31203E-08-4.89814E-09
 -1       978-1.00932E+06 1.89421E+02-1.30815E+03 2.56907E+04 4.29750E-08-4.69717E-09
 -1       979-1.00897E+06 5.57167E+01-1.62520E+03-2.48581E+03 2.87874E-08-7.08339E-09
 -1       980-1.00956E+06-1.60846E+02-3.02643E+03 2.56750E+04 2.80477E-08-6.47262E-09
 -1       981-1.00874E+06 3.74829E+02-5.39760E+03-2.37435E+03-1.14287E-08-4.54543E-09
 -1       982-1.01140E+06-3.45093E+03-1.22089E+04 2.52515E+04-2.71257E-09-1.97269E-09
 -1       983-1.00707E+06 3.05642E+03-2.10292E+04-2.05947E+03 1.11468E-08-5.59976E-09
 -1       984-1.02573E+06-3.06887E+04-5.38478E+04 2.44238E+04-2.16560E-08-3.22598E-09
 -1       985-9.94311E+05 2.52478E+04-8.08915E+04-1.53689E+03 1.82272E-08-4.58022E-09
 -3
 9999
