    1C
    1UUSER                                                              
    1UDATE              11.october.2022                                 
    1UTIME              19:11:35                                        
    1UHOST                                                              
    1UPGM               CalculiX                                        
    1UVERSION           Version 2.20                             
    1UCOMPILETIME       Sun Jul 31 18:08:37 CEST 2022                    
    1UDIR                                                               
    1UDBN                                                               
    1UMAT    1MESH_MATERIAL                                             
    2C                           409                                     1
 -1         1 0.00000E+00 0.00000E+00 0.00000E+00
 -1         2 1.66667E-02 0.00000E+00 0.00000E+00
 -1         3 3.33333E-02 0.00000E+00 0.00000E+00
 -1         5 6.66667E-02 0.00000E+00 0.00000E+00
 -1         8 0.00000E+00 6.25000E-03 0.00000E+00
 -1         9 1.66667E-02 6.25000E-03 0.00000E+00
 -1        10 3.33333E-02 6.25000E-03 0.00000E+00
 -1        12 6.66667E-02 6.25000E-03 0.00000E+00
 -1        15 0.00000E+00 1.25000E-02 0.00000E+00
 -1        16 1.66667E-02 1.25000E-02 0.00000E+00
 -1        17 3.33333E-02 1.25000E-02 0.00000E+00
 -1        18 5.00000E-02 1.25000E-02 0.00000E+00
 -1        19 6.66667E-02 1.25000E-02 0.00000E+00
 -1        20 8.33333E-02 1.25000E-02 0.00000E+00
 -1        21 1.00000E-01 1.25000E-02 0.00000E+00
 -1        24 3.33333E-02 1.87500E-02 0.00000E+00
 -1        25 5.00000E-02 1.87500E-02 0.00000E+00
 -1        26 6.66667E-02 1.87500E-02 0.00000E+00
 -1        27 8.33333E-02 1.87500E-02 0.00000E+00
 -1        28 1.00000E-01 1.87500E-02 0.00000E+00
 -1        32 5.00000E-02 2.50000E-02 0.00000E+00
 -1        33 6.66667E-02 2.50000E-02 0.00000E+00
 -1        34 8.33333E-02 2.50000E-02 0.00000E+00
 -1        35 1.00000E-01 2.50000E-02 0.00000E+00
 -1        51 0.00000E+00 1.04167E-03 0.00000E+00
 -1        52 0.00000E+00 2.08333E-03 0.00000E+00
 -1        53 0.00000E+00 3.12500E-03 0.00000E+00
 -1        54 0.00000E+00 4.16667E-03 0.00000E+00
 -1        55 0.00000E+00 5.20833E-03 0.00000E+00
 -1        56 1.04167E-03 3.90630E-04 0.00000E+00
 -1        57 2.08333E-03 7.81250E-04 0.00000E+00
 -1        58 3.12500E-03 1.17188E-03 0.00000E+00
 -1        59 4.16667E-03 1.56250E-03 0.00000E+00
 -1        60 5.20833E-03 1.95312E-03 0.00000E+00
 -1        61 6.25000E-03 2.34375E-03 0.00000E+00
 -1        62 7.29167E-03 2.73438E-03 0.00000E+00
 -1        63 8.33333E-03 3.12500E-03 0.00000E+00
 -1        64 9.37500E-03 3.51563E-03 0.00000E+00
 -1        65 1.04167E-02 3.90625E-03 0.00000E+00
 -1        66 1.14583E-02 4.29688E-03 0.00000E+00
 -1        67 1.25000E-02 4.68750E-03 0.00000E+00
 -1        68 1.35417E-02 5.07813E-03 0.00000E+00
 -1        69 1.45833E-02 5.46875E-03 0.00000E+00
 -1        70 1.56250E-02 5.85938E-03 0.00000E+00
 -1        86 1.66667E-02 1.04167E-03 0.00000E+00
 -1        87 1.66667E-02 2.08333E-03 0.00000E+00
 -1        88 1.66667E-02 3.12500E-03 0.00000E+00
 -1        89 1.66667E-02 4.16667E-03 0.00000E+00
 -1        90 1.66667E-02 5.20833E-03 0.00000E+00
 -1       121 3.33333E-02 1.04167E-03 0.00000E+00
 -1       122 3.33333E-02 2.08333E-03 0.00000E+00
 -1       123 3.33333E-02 3.12500E-03 0.00000E+00
 -1       124 3.33333E-02 4.16667E-03 0.00000E+00
 -1       125 3.33333E-02 5.20833E-03 0.00000E+00
 -1       191 6.66667E-02 1.04167E-03 0.00000E+00
 -1       192 6.66667E-02 2.08333E-03 0.00000E+00
 -1       193 6.66667E-02 3.12500E-03 0.00000E+00
 -1       194 6.66667E-02 4.16667E-03 0.00000E+00
 -1       195 6.66667E-02 5.20833E-03 0.00000E+00
 -1       251 1.04167E-03 6.25000E-03 0.00000E+00
 -1       252 2.08333E-03 6.25000E-03 0.00000E+00
 -1       253 3.12500E-03 6.25000E-03 0.00000E+00
 -1       254 4.16667E-03 6.25000E-03 0.00000E+00
 -1       255 5.20833E-03 6.25000E-03 0.00000E+00
 -1       256 6.25000E-03 6.25000E-03 0.00000E+00
 -1       257 7.29167E-03 6.25000E-03 0.00000E+00
 -1       258 8.33333E-03 6.25000E-03 0.00000E+00
 -1       259 9.37500E-03 6.25000E-03 0.00000E+00
 -1       260 1.04167E-02 6.25000E-03 0.00000E+00
 -1       261 1.14583E-02 6.25000E-03 0.00000E+00
 -1       262 1.25000E-02 6.25000E-03 0.00000E+00
 -1       263 1.35417E-02 6.25000E-03 0.00000E+00
 -1       264 1.45833E-02 6.25000E-03 0.00000E+00
 -1       265 1.56250E-02 6.25000E-03 0.00000E+00
 -1       266 0.00000E+00 7.29167E-03 0.00000E+00
 -1       267 0.00000E+00 8.33333E-03 0.00000E+00
 -1       268 0.00000E+00 9.37500E-03 0.00000E+00
 -1       269 0.00000E+00 1.04167E-02 0.00000E+00
 -1       270 0.00000E+00 1.14583E-02 0.00000E+00
 -1       271 1.04167E-03 6.64063E-03 0.00000E+00
 -1       272 2.08333E-03 7.03125E-03 0.00000E+00
 -1       273 3.12500E-03 7.42188E-03 0.00000E+00
 -1       274 4.16667E-03 7.81250E-03 0.00000E+00
 -1       275 5.20833E-03 8.20313E-03 0.00000E+00
 -1       276 6.25000E-03 8.59375E-03 0.00000E+00
 -1       277 7.29167E-03 8.98438E-03 0.00000E+00
 -1       278 8.33333E-03 9.37500E-03 0.00000E+00
 -1       279 9.37500E-03 9.76562E-03 0.00000E+00
 -1       280 1.04167E-02 1.01562E-02 0.00000E+00
 -1       281 1.14583E-02 1.05469E-02 0.00000E+00
 -1       282 1.25000E-02 1.09375E-02 0.00000E+00
 -1       283 1.35417E-02 1.13281E-02 0.00000E+00
 -1       284 1.45833E-02 1.17188E-02 0.00000E+00
 -1       285 1.56250E-02 1.21094E-02 0.00000E+00
 -1       301 1.66667E-02 7.29167E-03 0.00000E+00
 -1       302 1.66667E-02 8.33333E-03 0.00000E+00
 -1       303 1.66667E-02 9.37500E-03 0.00000E+00
 -1       304 1.66667E-02 1.04167E-02 0.00000E+00
 -1       305 1.66667E-02 1.14583E-02 0.00000E+00
 -1       306 1.77083E-02 6.64063E-03 0.00000E+00
 -1       307 1.87500E-02 7.03125E-03 0.00000E+00
 -1       308 1.97917E-02 7.42188E-03 0.00000E+00
 -1       309 2.08333E-02 7.81250E-03 0.00000E+00
 -1       310 2.18750E-02 8.20313E-03 0.00000E+00
 -1       311 2.29167E-02 8.59375E-03 0.00000E+00
 -1       312 2.39583E-02 8.98438E-03 0.00000E+00
 -1       313 2.50000E-02 9.37500E-03 0.00000E+00
 -1       314 2.60417E-02 9.76562E-03 0.00000E+00
 -1       315 2.70833E-02 1.01562E-02 0.00000E+00
 -1       316 2.81250E-02 1.05469E-02 0.00000E+00
 -1       317 2.91667E-02 1.09375E-02 0.00000E+00
 -1       318 3.02083E-02 1.13281E-02 0.00000E+00
 -1       319 3.12500E-02 1.17188E-02 0.00000E+00
 -1       320 3.22917E-02 1.21094E-02 0.00000E+00
 -1       336 3.33333E-02 7.29167E-03 0.00000E+00
 -1       337 3.33333E-02 8.33333E-03 0.00000E+00
 -1       338 3.33333E-02 9.37500E-03 0.00000E+00
 -1       339 3.33333E-02 1.04167E-02 0.00000E+00
 -1       340 3.33333E-02 1.14583E-02 0.00000E+00
 -1       406 6.66667E-02 7.29167E-03 0.00000E+00
 -1       407 6.66667E-02 8.33333E-03 0.00000E+00
 -1       408 6.66667E-02 9.37500E-03 0.00000E+00
 -1       409 6.66667E-02 1.04167E-02 0.00000E+00
 -1       410 6.66667E-02 1.14583E-02 0.00000E+00
 -1       521 1.77083E-02 1.28906E-02 0.00000E+00
 -1       522 1.87500E-02 1.32813E-02 0.00000E+00
 -1       523 1.97917E-02 1.36719E-02 0.00000E+00
 -1       524 2.08333E-02 1.40625E-02 0.00000E+00
 -1       525 2.18750E-02 1.44531E-02 0.00000E+00
 -1       526 2.29167E-02 1.48437E-02 0.00000E+00
 -1       527 2.39583E-02 1.52344E-02 0.00000E+00
 -1       528 2.50000E-02 1.56250E-02 0.00000E+00
 -1       529 2.60417E-02 1.60156E-02 0.00000E+00
 -1       530 2.70833E-02 1.64062E-02 0.00000E+00
 -1       531 2.81250E-02 1.67969E-02 0.00000E+00
 -1       532 2.91667E-02 1.71875E-02 0.00000E+00
 -1       533 3.02083E-02 1.75781E-02 0.00000E+00
 -1       534 3.12500E-02 1.79687E-02 0.00000E+00
 -1       535 3.22917E-02 1.83594E-02 0.00000E+00
 -1       536 3.43750E-02 1.25000E-02 0.00000E+00
 -1       537 3.54167E-02 1.25000E-02 0.00000E+00
 -1       538 3.64583E-02 1.25000E-02 0.00000E+00
 -1       539 3.75000E-02 1.25000E-02 0.00000E+00
 -1       540 3.85417E-02 1.25000E-02 0.00000E+00
 -1       541 3.95833E-02 1.25000E-02 0.00000E+00
 -1       542 4.06250E-02 1.25000E-02 0.00000E+00
 -1       543 4.16667E-02 1.25000E-02 0.00000E+00
 -1       544 4.27083E-02 1.25000E-02 0.00000E+00
 -1       545 4.37500E-02 1.25000E-02 0.00000E+00
 -1       546 4.47917E-02 1.25000E-02 0.00000E+00
 -1       547 4.58333E-02 1.25000E-02 0.00000E+00
 -1       548 4.68750E-02 1.25000E-02 0.00000E+00
 -1       549 4.79167E-02 1.25000E-02 0.00000E+00
 -1       550 4.89583E-02 1.25000E-02 0.00000E+00
 -1       551 3.33333E-02 1.35417E-02 0.00000E+00
 -1       552 3.33333E-02 1.45833E-02 0.00000E+00
 -1       553 3.33333E-02 1.56250E-02 0.00000E+00
 -1       554 3.33333E-02 1.66667E-02 0.00000E+00
 -1       555 3.33333E-02 1.77083E-02 0.00000E+00
 -1       556 3.43750E-02 1.28906E-02 0.00000E+00
 -1       557 3.54167E-02 1.32813E-02 0.00000E+00
 -1       558 3.64583E-02 1.36719E-02 0.00000E+00
 -1       559 3.75000E-02 1.40625E-02 0.00000E+00
 -1       560 3.85417E-02 1.44531E-02 0.00000E+00
 -1       561 3.95833E-02 1.48437E-02 0.00000E+00
 -1       562 4.06250E-02 1.52344E-02 0.00000E+00
 -1       563 4.16667E-02 1.56250E-02 0.00000E+00
 -1       564 4.27083E-02 1.60156E-02 0.00000E+00
 -1       565 4.37500E-02 1.64062E-02 0.00000E+00
 -1       566 4.47917E-02 1.67969E-02 0.00000E+00
 -1       567 4.58333E-02 1.71875E-02 0.00000E+00
 -1       568 4.68750E-02 1.75781E-02 0.00000E+00
 -1       569 4.79167E-02 1.79687E-02 0.00000E+00
 -1       570 4.89583E-02 1.83594E-02 0.00000E+00
 -1       571 5.10417E-02 1.25000E-02 0.00000E+00
 -1       572 5.20833E-02 1.25000E-02 0.00000E+00
 -1       573 5.31250E-02 1.25000E-02 0.00000E+00
 -1       574 5.41667E-02 1.25000E-02 0.00000E+00
 -1       575 5.52083E-02 1.25000E-02 0.00000E+00
 -1       576 5.62500E-02 1.25000E-02 0.00000E+00
 -1       577 5.72917E-02 1.25000E-02 0.00000E+00
 -1       578 5.83333E-02 1.25000E-02 0.00000E+00
 -1       579 5.93750E-02 1.25000E-02 0.00000E+00
 -1       580 6.04167E-02 1.25000E-02 0.00000E+00
 -1       581 6.14583E-02 1.25000E-02 0.00000E+00
 -1       582 6.25000E-02 1.25000E-02 0.00000E+00
 -1       583 6.35417E-02 1.25000E-02 0.00000E+00
 -1       584 6.45833E-02 1.25000E-02 0.00000E+00
 -1       585 6.56250E-02 1.25000E-02 0.00000E+00
 -1       586 5.00000E-02 1.35417E-02 0.00000E+00
 -1       587 5.00000E-02 1.45833E-02 0.00000E+00
 -1       588 5.00000E-02 1.56250E-02 0.00000E+00
 -1       589 5.00000E-02 1.66667E-02 0.00000E+00
 -1       590 5.00000E-02 1.77083E-02 0.00000E+00
 -1       591 5.10417E-02 1.28906E-02 0.00000E+00
 -1       592 5.20833E-02 1.32813E-02 0.00000E+00
 -1       593 5.31250E-02 1.36719E-02 0.00000E+00
 -1       594 5.41667E-02 1.40625E-02 0.00000E+00
 -1       595 5.52083E-02 1.44531E-02 0.00000E+00
 -1       596 5.62500E-02 1.48437E-02 0.00000E+00
 -1       597 5.72917E-02 1.52344E-02 0.00000E+00
 -1       598 5.83333E-02 1.56250E-02 0.00000E+00
 -1       599 5.93750E-02 1.60156E-02 0.00000E+00
 -1       600 6.04167E-02 1.64062E-02 0.00000E+00
 -1       601 6.14583E-02 1.67969E-02 0.00000E+00
 -1       602 6.25000E-02 1.71875E-02 0.00000E+00
 -1       603 6.35417E-02 1.75781E-02 0.00000E+00
 -1       604 6.45833E-02 1.79687E-02 0.00000E+00
 -1       605 6.56250E-02 1.83594E-02 0.00000E+00
 -1       606 6.77083E-02 1.25000E-02 0.00000E+00
 -1       607 6.87500E-02 1.25000E-02 0.00000E+00
 -1       608 6.97917E-02 1.25000E-02 0.00000E+00
 -1       609 7.08333E-02 1.25000E-02 0.00000E+00
 -1       610 7.18750E-02 1.25000E-02 0.00000E+00
 -1       611 7.29167E-02 1.25000E-02 0.00000E+00
 -1       612 7.39583E-02 1.25000E-02 0.00000E+00
 -1       613 7.50000E-02 1.25000E-02 0.00000E+00
 -1       614 7.60417E-02 1.25000E-02 0.00000E+00
 -1       615 7.70833E-02 1.25000E-02 0.00000E+00
 -1       616 7.81250E-02 1.25000E-02 0.00000E+00
 -1       617 7.91667E-02 1.25000E-02 0.00000E+00
 -1       618 8.02083E-02 1.25000E-02 0.00000E+00
 -1       619 8.12500E-02 1.25000E-02 0.00000E+00
 -1       620 8.22917E-02 1.25000E-02 0.00000E+00
 -1       621 6.66667E-02 1.35417E-02 0.00000E+00
 -1       622 6.66667E-02 1.45833E-02 0.00000E+00
 -1       623 6.66667E-02 1.56250E-02 0.00000E+00
 -1       624 6.66667E-02 1.66667E-02 0.00000E+00
 -1       625 6.66667E-02 1.77083E-02 0.00000E+00
 -1       626 6.77083E-02 1.28906E-02 0.00000E+00
 -1       627 6.87500E-02 1.32813E-02 0.00000E+00
 -1       628 6.97917E-02 1.36719E-02 0.00000E+00
 -1       629 7.08333E-02 1.40625E-02 0.00000E+00
 -1       630 7.18750E-02 1.44531E-02 0.00000E+00
 -1       631 7.29167E-02 1.48437E-02 0.00000E+00
 -1       632 7.39583E-02 1.52344E-02 0.00000E+00
 -1       633 7.50000E-02 1.56250E-02 0.00000E+00
 -1       634 7.60417E-02 1.60156E-02 0.00000E+00
 -1       635 7.70833E-02 1.64062E-02 0.00000E+00
 -1       636 7.81250E-02 1.67969E-02 0.00000E+00
 -1       637 7.91667E-02 1.71875E-02 0.00000E+00
 -1       638 8.02083E-02 1.75781E-02 0.00000E+00
 -1       639 8.12500E-02 1.79687E-02 0.00000E+00
 -1       640 8.22917E-02 1.83594E-02 0.00000E+00
 -1       656 8.33333E-02 1.35417E-02 0.00000E+00
 -1       657 8.33333E-02 1.45833E-02 0.00000E+00
 -1       658 8.33333E-02 1.56250E-02 0.00000E+00
 -1       659 8.33333E-02 1.66667E-02 0.00000E+00
 -1       660 8.33333E-02 1.77083E-02 0.00000E+00
 -1       661 8.43750E-02 1.28906E-02 0.00000E+00
 -1       662 8.54167E-02 1.32813E-02 0.00000E+00
 -1       663 8.64583E-02 1.36719E-02 0.00000E+00
 -1       664 8.75000E-02 1.40625E-02 0.00000E+00
 -1       665 8.85417E-02 1.44531E-02 0.00000E+00
 -1       666 8.95833E-02 1.48437E-02 0.00000E+00
 -1       667 9.06250E-02 1.52344E-02 0.00000E+00
 -1       668 9.16667E-02 1.56250E-02 0.00000E+00
 -1       669 9.27083E-02 1.60156E-02 0.00000E+00
 -1       670 9.37500E-02 1.64062E-02 0.00000E+00
 -1       671 9.47917E-02 1.67969E-02 0.00000E+00
 -1       672 9.58333E-02 1.71875E-02 0.00000E+00
 -1       673 9.68750E-02 1.75781E-02 0.00000E+00
 -1       674 9.79167E-02 1.79687E-02 0.00000E+00
 -1       675 9.89583E-02 1.83594E-02 0.00000E+00
 -1       676 1.00000E-01 1.35417E-02 0.00000E+00
 -1       677 1.00000E-01 1.45833E-02 0.00000E+00
 -1       678 1.00000E-01 1.56250E-02 0.00000E+00
 -1       679 1.00000E-01 1.66667E-02 0.00000E+00
 -1       680 1.00000E-01 1.77083E-02 0.00000E+00
 -1       771 3.43750E-02 1.91406E-02 0.00000E+00
 -1       772 3.54167E-02 1.95312E-02 0.00000E+00
 -1       773 3.64583E-02 1.99219E-02 0.00000E+00
 -1       774 3.75000E-02 2.03125E-02 0.00000E+00
 -1       775 3.85417E-02 2.07031E-02 0.00000E+00
 -1       776 3.95833E-02 2.10938E-02 0.00000E+00
 -1       777 4.06250E-02 2.14844E-02 0.00000E+00
 -1       778 4.16667E-02 2.18750E-02 0.00000E+00
 -1       779 4.27083E-02 2.22656E-02 0.00000E+00
 -1       780 4.37500E-02 2.26563E-02 0.00000E+00
 -1       781 4.47917E-02 2.30469E-02 0.00000E+00
 -1       782 4.58333E-02 2.34375E-02 0.00000E+00
 -1       783 4.68750E-02 2.38281E-02 0.00000E+00
 -1       784 4.79167E-02 2.42187E-02 0.00000E+00
 -1       785 4.89583E-02 2.46094E-02 0.00000E+00
 -1       786 5.10417E-02 1.87500E-02 0.00000E+00
 -1       787 5.20833E-02 1.87500E-02 0.00000E+00
 -1       788 5.31250E-02 1.87500E-02 0.00000E+00
 -1       789 5.41667E-02 1.87500E-02 0.00000E+00
 -1       790 5.52083E-02 1.87500E-02 0.00000E+00
 -1       791 5.62500E-02 1.87500E-02 0.00000E+00
 -1       792 5.72917E-02 1.87500E-02 0.00000E+00
 -1       793 5.83333E-02 1.87500E-02 0.00000E+00
 -1       794 5.93750E-02 1.87500E-02 0.00000E+00
 -1       795 6.04167E-02 1.87500E-02 0.00000E+00
 -1       796 6.14583E-02 1.87500E-02 0.00000E+00
 -1       797 6.25000E-02 1.87500E-02 0.00000E+00
 -1       798 6.35417E-02 1.87500E-02 0.00000E+00
 -1       799 6.45833E-02 1.87500E-02 0.00000E+00
 -1       800 6.56250E-02 1.87500E-02 0.00000E+00
 -1       801 5.00000E-02 1.97917E-02 0.00000E+00
 -1       802 5.00000E-02 2.08333E-02 0.00000E+00
 -1       803 5.00000E-02 2.18750E-02 0.00000E+00
 -1       804 5.00000E-02 2.29167E-02 0.00000E+00
 -1       805 5.00000E-02 2.39583E-02 0.00000E+00
 -1       806 5.10417E-02 1.91406E-02 0.00000E+00
 -1       807 5.20833E-02 1.95312E-02 0.00000E+00
 -1       808 5.31250E-02 1.99219E-02 0.00000E+00
 -1       809 5.41667E-02 2.03125E-02 0.00000E+00
 -1       810 5.52083E-02 2.07031E-02 0.00000E+00
 -1       811 5.62500E-02 2.10938E-02 0.00000E+00
 -1       812 5.72917E-02 2.14844E-02 0.00000E+00
 -1       813 5.83333E-02 2.18750E-02 0.00000E+00
 -1       814 5.93750E-02 2.22656E-02 0.00000E+00
 -1       815 6.04167E-02 2.26563E-02 0.00000E+00
 -1       816 6.14583E-02 2.30469E-02 0.00000E+00
 -1       817 6.25000E-02 2.34375E-02 0.00000E+00
 -1       818 6.35417E-02 2.38281E-02 0.00000E+00
 -1       819 6.45833E-02 2.42187E-02 0.00000E+00
 -1       820 6.56250E-02 2.46094E-02 0.00000E+00
 -1       821 6.77083E-02 1.87500E-02 0.00000E+00
 -1       822 6.87500E-02 1.87500E-02 0.00000E+00
 -1       823 6.97917E-02 1.87500E-02 0.00000E+00
 -1       824 7.08333E-02 1.87500E-02 0.00000E+00
 -1       825 7.18750E-02 1.87500E-02 0.00000E+00
 -1       826 7.29167E-02 1.87500E-02 0.00000E+00
 -1       827 7.39583E-02 1.87500E-02 0.00000E+00
 -1       828 7.50000E-02 1.87500E-02 0.00000E+00
 -1       829 7.60417E-02 1.87500E-02 0.00000E+00
 -1       830 7.70833E-02 1.87500E-02 0.00000E+00
 -1       831 7.81250E-02 1.87500E-02 0.00000E+00
 -1       832 7.91667E-02 1.87500E-02 0.00000E+00
 -1       833 8.02083E-02 1.87500E-02 0.00000E+00
 -1       834 8.12500E-02 1.87500E-02 0.00000E+00
 -1       835 8.22917E-02 1.87500E-02 0.00000E+00
 -1       836 6.66667E-02 1.97917E-02 0.00000E+00
 -1       837 6.66667E-02 2.08333E-02 0.00000E+00
 -1       838 6.66667E-02 2.18750E-02 0.00000E+00
 -1       839 6.66667E-02 2.29167E-02 0.00000E+00
 -1       840 6.66667E-02 2.39583E-02 0.00000E+00
 -1       856 8.43750E-02 1.87500E-02 0.00000E+00
 -1       857 8.54167E-02 1.87500E-02 0.00000E+00
 -1       858 8.64583E-02 1.87500E-02 0.00000E+00
 -1       859 8.75000E-02 1.87500E-02 0.00000E+00
 -1       860 8.85417E-02 1.87500E-02 0.00000E+00
 -1       861 8.95833E-02 1.87500E-02 0.00000E+00
 -1       862 9.06250E-02 1.87500E-02 0.00000E+00
 -1       863 9.16667E-02 1.87500E-02 0.00000E+00
 -1       864 9.27083E-02 1.87500E-02 0.00000E+00
 -1       865 9.37500E-02 1.87500E-02 0.00000E+00
 -1       866 9.47917E-02 1.87500E-02 0.00000E+00
 -1       867 9.58333E-02 1.87500E-02 0.00000E+00
 -1       868 9.68750E-02 1.87500E-02 0.00000E+00
 -1       869 9.79167E-02 1.87500E-02 0.00000E+00
 -1       870 9.89583E-02 1.87500E-02 0.00000E+00
 -1       871 8.33333E-02 1.97917E-02 0.00000E+00
 -1       872 8.33333E-02 2.08333E-02 0.00000E+00
 -1       873 8.33333E-02 2.18750E-02 0.00000E+00
 -1       874 8.33333E-02 2.29167E-02 0.00000E+00
 -1       875 8.33333E-02 2.39583E-02 0.00000E+00
 -1       876 8.43750E-02 1.91406E-02 0.00000E+00
 -1       877 8.54167E-02 1.95312E-02 0.00000E+00
 -1       878 8.64583E-02 1.99219E-02 0.00000E+00
 -1       879 8.75000E-02 2.03125E-02 0.00000E+00
 -1       880 8.85417E-02 2.07031E-02 0.00000E+00
 -1       881 8.95833E-02 2.10938E-02 0.00000E+00
 -1       882 9.06250E-02 2.14844E-02 0.00000E+00
 -1       883 9.16667E-02 2.18750E-02 0.00000E+00
 -1       884 9.27083E-02 2.22656E-02 0.00000E+00
 -1       885 9.37500E-02 2.26563E-02 0.00000E+00
 -1       886 9.47917E-02 2.30469E-02 0.00000E+00
 -1       887 9.58333E-02 2.34375E-02 0.00000E+00
 -1       888 9.68750E-02 2.38281E-02 0.00000E+00
 -1       889 9.79167E-02 2.42187E-02 0.00000E+00
 -1       890 9.89583E-02 2.46094E-02 0.00000E+00
 -1       891 1.00000E-01 1.97917E-02 0.00000E+00
 -1       892 1.00000E-01 2.08333E-02 0.00000E+00
 -1       893 1.00000E-01 2.18750E-02 0.00000E+00
 -1       894 1.00000E-01 2.29167E-02 0.00000E+00
 -1       895 1.00000E-01 2.39583E-02 0.00000E+00
 -1       956 6.77083E-02 2.50000E-02 0.00000E+00
 -1       957 6.87500E-02 2.50000E-02 0.00000E+00
 -1       958 6.97917E-02 2.50000E-02 0.00000E+00
 -1       959 7.08333E-02 2.50000E-02 0.00000E+00
 -1       960 7.18750E-02 2.50000E-02 0.00000E+00
 -1       961 7.29167E-02 2.50000E-02 0.00000E+00
 -1       962 7.39583E-02 2.50000E-02 0.00000E+00
 -1       963 7.50000E-02 2.50000E-02 0.00000E+00
 -1       964 7.60417E-02 2.50000E-02 0.00000E+00
 -1       965 7.70833E-02 2.50000E-02 0.00000E+00
 -1       966 7.81250E-02 2.50000E-02 0.00000E+00
 -1       967 7.91667E-02 2.50000E-02 0.00000E+00
 -1       968 8.02083E-02 2.50000E-02 0.00000E+00
 -1       969 8.12500E-02 2.50000E-02 0.00000E+00
 -1       970 8.22917E-02 2.50000E-02 0.00000E+00
 -1       971 8.43750E-02 2.50000E-02 0.00000E+00
 -1       972 8.54167E-02 2.50000E-02 0.00000E+00
 -1       973 8.64583E-02 2.50000E-02 0.00000E+00
 -1       974 8.75000E-02 2.50000E-02 0.00000E+00
 -1       975 8.85417E-02 2.50000E-02 0.00000E+00
 -1       976 8.95833E-02 2.50000E-02 0.00000E+00
 -1       977 9.06250E-02 2.50000E-02 0.00000E+00
 -1       978 9.16667E-02 2.50000E-02 0.00000E+00
 -1       979 9.27083E-02 2.50000E-02 0.00000E+00
 -1       980 9.37500E-02 2.50000E-02 0.00000E+00
 -1       981 9.47917E-02 2.50000E-02 0.00000E+00
 -1       982 9.58333E-02 2.50000E-02 0.00000E+00
 -1       983 9.68750E-02 2.50000E-02 0.00000E+00
 -1       984 9.79167E-02 2.50000E-02 0.00000E+00
 -1       985 9.89583E-02 2.50000E-02 0.00000E+00
 -3
    3C                           211                                     1
 -1         1   12    0    1
 -2         1        52        51
 -1         2   12    0    1
 -2        52        54        53
 -1         3   12    0    1
 -2        54         8        55
 -1         4   12    0    1
 -2         1        57        56
 -1         5   12    0    1
 -2        57        59        58
 -1         6   12    0    1
 -2        59        61        60
 -1         7   12    0    1
 -2        61        63        62
 -1         8   12    0    1
 -2        63        65        64
 -1         9   12    0    1
 -2        65        67        66
 -1        10   12    0    1
 -2        67        69        68
 -1        11   12    0    1
 -2        69         9        70
 -1        12   12    0    1
 -2         2        87        86
 -1        13   12    0    1
 -2        87        89        88
 -1        14   12    0    1
 -2        89         9        90
 -1        15   12    0    1
 -2         3       122       121
 -1        16   12    0    1
 -2       122       124       123
 -1        17   12    0    1
 -2       124        10       125
 -1        18   12    0    1
 -2         5       192       191
 -1        19   12    0    1
 -2       192       194       193
 -1        20   12    0    1
 -2       194        12       195
 -1        21   12    0    1
 -2         8       252       251
 -1        22   12    0    1
 -2       252       254       253
 -1        23   12    0    1
 -2       254       256       255
 -1        24   12    0    1
 -2       256       258       257
 -1        25   12    0    1
 -2       258       260       259
 -1        26   12    0    1
 -2       260       262       261
 -1        27   12    0    1
 -2       262       264       263
 -1        28   12    0    1
 -2       264         9       265
 -1        29   12    0    1
 -2         8       267       266
 -1        30   12    0    1
 -2       267       269       268
 -1        31   12    0    1
 -2       269        15       270
 -1        32   12    0    1
 -2         8       272       271
 -1        33   12    0    1
 -2       272       274       273
 -1        34   12    0    1
 -2       274       276       275
 -1        35   12    0    1
 -2       276       278       277
 -1        36   12    0    1
 -2       278       280       279
 -1        37   12    0    1
 -2       280       282       281
 -1        38   12    0    1
 -2       282       284       283
 -1        39   12    0    1
 -2       284        16       285
 -1        40   12    0    1
 -2         9       302       301
 -1        41   12    0    1
 -2       302       304       303
 -1        42   12    0    1
 -2       304        16       305
 -1        43   12    0    1
 -2         9       307       306
 -1        44   12    0    1
 -2       307       309       308
 -1        45   12    0    1
 -2       309       311       310
 -1        46   12    0    1
 -2       311       313       312
 -1        47   12    0    1
 -2       313       315       314
 -1        48   12    0    1
 -2       315       317       316
 -1        49   12    0    1
 -2       317       319       318
 -1        50   12    0    1
 -2       319        17       320
 -1        51   12    0    1
 -2        10       337       336
 -1        52   12    0    1
 -2       337       339       338
 -1        53   12    0    1
 -2       339        17       340
 -1        54   12    0    1
 -2        12       407       406
 -1        55   12    0    1
 -2       407       409       408
 -1        56   12    0    1
 -2       409        19       410
 -1        57   12    0    1
 -2        16       522       521
 -1        58   12    0    1
 -2       522       524       523
 -1        59   12    0    1
 -2       524       526       525
 -1        60   12    0    1
 -2       526       528       527
 -1        61   12    0    1
 -2       528       530       529
 -1        62   12    0    1
 -2       530       532       531
 -1        63   12    0    1
 -2       532       534       533
 -1        64   12    0    1
 -2       534        24       535
 -1        65   12    0    1
 -2        17       537       536
 -1        66   12    0    1
 -2       537       539       538
 -1        67   12    0    1
 -2       539       541       540
 -1        68   12    0    1
 -2       541       543       542
 -1        69   12    0    1
 -2       543       545       544
 -1        70   12    0    1
 -2       545       547       546
 -1        71   12    0    1
 -2       547       549       548
 -1        72   12    0    1
 -2       549        18       550
 -1        73   12    0    1
 -2        17       552       551
 -1        74   12    0    1
 -2       552       554       553
 -1        75   12    0    1
 -2       554        24       555
 -1        76   12    0    1
 -2        17       557       556
 -1        77   12    0    1
 -2       557       559       558
 -1        78   12    0    1
 -2       559       561       560
 -1        79   12    0    1
 -2       561       563       562
 -1        80   12    0    1
 -2       563       565       564
 -1        81   12    0    1
 -2       565       567       566
 -1        82   12    0    1
 -2       567       569       568
 -1        83   12    0    1
 -2       569        25       570
 -1        84   12    0    1
 -2        18       572       571
 -1        85   12    0    1
 -2       572       574       573
 -1        86   12    0    1
 -2       574       576       575
 -1        87   12    0    1
 -2       576       578       577
 -1        88   12    0    1
 -2       578       580       579
 -1        89   12    0    1
 -2       580       582       581
 -1        90   12    0    1
 -2       582       584       583
 -1        91   12    0    1
 -2       584        19       585
 -1        92   12    0    1
 -2        18       587       586
 -1        93   12    0    1
 -2       587       589       588
 -1        94   12    0    1
 -2       589        25       590
 -1        95   12    0    1
 -2        18       592       591
 -1        96   12    0    1
 -2       592       594       593
 -1        97   12    0    1
 -2       594       596       595
 -1        98   12    0    1
 -2       596       598       597
 -1        99   12    0    1
 -2       598       600       599
 -1       100   12    0    1
 -2       600       602       601
 -1       101   12    0    1
 -2       602       604       603
 -1       102   12    0    1
 -2       604        26       605
 -1       103   12    0    1
 -2        19       607       606
 -1       104   12    0    1
 -2       607       609       608
 -1       105   12    0    1
 -2       609       611       610
 -1       106   12    0    1
 -2       611       613       612
 -1       107   12    0    1
 -2       613       615       614
 -1       108   12    0    1
 -2       615       617       616
 -1       109   12    0    1
 -2       617       619       618
 -1       110   12    0    1
 -2       619        20       620
 -1       111   12    0    1
 -2        19       622       621
 -1       112   12    0    1
 -2       622       624       623
 -1       113   12    0    1
 -2       624        26       625
 -1       114   12    0    1
 -2        19       627       626
 -1       115   12    0    1
 -2       627       629       628
 -1       116   12    0    1
 -2       629       631       630
 -1       117   12    0    1
 -2       631       633       632
 -1       118   12    0    1
 -2       633       635       634
 -1       119   12    0    1
 -2       635       637       636
 -1       120   12    0    1
 -2       637       639       638
 -1       121   12    0    1
 -2       639        27       640
 -1       122   12    0    1
 -2        20       657       656
 -1       123   12    0    1
 -2       657       659       658
 -1       124   12    0    1
 -2       659        27       660
 -1       125   12    0    1
 -2        20       662       661
 -1       126   12    0    1
 -2       662       664       663
 -1       127   12    0    1
 -2       664       666       665
 -1       128   12    0    1
 -2       666       668       667
 -1       129   12    0    1
 -2       668       670       669
 -1       130   12    0    1
 -2       670       672       671
 -1       131   12    0    1
 -2       672       674       673
 -1       132   12    0    1
 -2       674        28       675
 -1       133   12    0    1
 -2        21       677       676
 -1       134   12    0    1
 -2       677       679       678
 -1       135   12    0    1
 -2       679        28       680
 -1       136   12    0    1
 -2        24       772       771
 -1       137   12    0    1
 -2       772       774       773
 -1       138   12    0    1
 -2       774       776       775
 -1       139   12    0    1
 -2       776       778       777
 -1       140   12    0    1
 -2       778       780       779
 -1       141   12    0    1
 -2       780       782       781
 -1       142   12    0    1
 -2       782       784       783
 -1       143   12    0    1
 -2       784        32       785
 -1       144   12    0    1
 -2        25       787       786
 -1       145   12    0    1
 -2       787       789       788
 -1       146   12    0    1
 -2       789       791       790
 -1       147   12    0    1
 -2       791       793       792
 -1       148   12    0    1
 -2       793       795       794
 -1       149   12    0    1
 -2       795       797       796
 -1       150   12    0    1
 -2       797       799       798
 -1       151   12    0    1
 -2       799        26       800
 -1       152   12    0    1
 -2        25       802       801
 -1       153   12    0    1
 -2       802       804       803
 -1       154   12    0    1
 -2       804        32       805
 -1       155   12    0    1
 -2        25       807       806
 -1       156   12    0    1
 -2       807       809       808
 -1       157   12    0    1
 -2       809       811       810
 -1       158   12    0    1
 -2       811       813       812
 -1       159   12    0    1
 -2       813       815       814
 -1       160   12    0    1
 -2       815       817       816
 -1       161   12    0    1
 -2       817       819       818
 -1       162   12    0    1
 -2       819        33       820
 -1       163   12    0    1
 -2        26       822       821
 -1       164   12    0    1
 -2       822       824       823
 -1       165   12    0    1
 -2       824       826       825
 -1       166   12    0    1
 -2       826       828       827
 -1       167   12    0    1
 -2       828       830       829
 -1       168   12    0    1
 -2       830       832       831
 -1       169   12    0    1
 -2       832       834       833
 -1       170   12    0    1
 -2       834        27       835
 -1       171   12    0    1
 -2        26       837       836
 -1       172   12    0    1
 -2       837       839       838
 -1       173   12    0    1
 -2       839        33       840
 -1       174   12    0    1
 -2        27       857       856
 -1       175   12    0    1
 -2       857       859       858
 -1       176   12    0    1
 -2       859       861       860
 -1       177   12    0    1
 -2       861       863       862
 -1       178   12    0    1
 -2       863       865       864
 -1       179   12    0    1
 -2       865       867       866
 -1       180   12    0    1
 -2       867       869       868
 -1       181   12    0    1
 -2       869        28       870
 -1       182   12    0    1
 -2        27       872       871
 -1       183   12    0    1
 -2       872       874       873
 -1       184   12    0    1
 -2       874        34       875
 -1       185   12    0    1
 -2        27       877       876
 -1       186   12    0    1
 -2       877       879       878
 -1       187   12    0    1
 -2       879       881       880
 -1       188   12    0    1
 -2       881       883       882
 -1       189   12    0    1
 -2       883       885       884
 -1       190   12    0    1
 -2       885       887       886
 -1       191   12    0    1
 -2       887       889       888
 -1       192   12    0    1
 -2       889        35       890
 -1       193   12    0    1
 -2        28       892       891
 -1       194   12    0    1
 -2       892       894       893
 -1       195   12    0    1
 -2       894        35       895
 -1       196   12    0    1
 -2        33       957       956
 -1       197   12    0    1
 -2       957       959       958
 -1       198   12    0    1
 -2       959       961       960
 -1       199   12    0    1
 -2       961       963       962
 -1       200   12    0    1
 -2       963       965       964
 -1       201   12    0    1
 -2       965       967       966
 -1       202   12    0    1
 -2       967       969       968
 -1       203   12    0    1
 -2       969        34       970
 -1       204   12    0    1
 -2        34       972       971
 -1       205   12    0    1
 -2       972       974       973
 -1       206   12    0    1
 -2       974       976       975
 -1       207   12    0    1
 -2       976       978       977
 -1       208   12    0    1
 -2       978       980       979
 -1       209   12    0    1
 -2       980       982       981
 -1       210   12    0    1
 -2       982       984       983
 -1       211   12    0    1
 -2       984        35       985
 -3
    1PSTEP                         1           1           1          
  100CL  101 1.25000E-01         409                     0    1           1
 -4  DISP        4    1
 -5  D1          1    2    1    0
 -5  D2          1    2    2    0
 -5  D3          1    2    3    0
 -5  ALL         1    2    0    0    1ALL
 -1         1 3.25378E-05 0.00000E+00 0.00000E+00
 -1         2 3.01048E-05-6.89422E-30 0.00000E+00
 -1         3 2.75346E-05 8.94038E-28 1.65436E-24
 -1         5 1.99656E-05-1.67120E-26 0.00000E+00
 -1         8 2.59675E-05-2.30043E-07 0.00000E+00
 -1         9 2.63620E-05 1.50779E-07 0.00000E+00
 -1        10 2.55482E-05-3.78418E-07 0.00000E+00
 -1        12 1.98192E-05 1.35841E-07 0.00000E+00
 -1        15 1.81544E-05-2.41422E-07 0.00000E+00
 -1        16 1.87864E-05 1.24786E-07 0.00000E+00
 -1        17 1.90911E-05-7.89699E-07 0.00000E+00
 -1        18 1.91170E-05-3.07721E-09 0.00000E+00
 -1        19 1.93802E-05 2.70961E-07 0.00000E+00
 -1        20 1.94167E-05 4.08511E-06 0.00000E+00
 -1        21 1.92798E-05 7.73214E-06 0.00000E+00
 -1        24 4.89311E-06-1.03611E-06 0.00000E+00
 -1        25 1.86476E-05 2.78501E-08 0.00000E+00
 -1        26 1.88928E-05 3.77558E-07 0.00000E+00
 -1        27 1.85176E-05 3.48014E-06 0.00000E+00
 -1        28 1.83963E-05 7.61582E-06 0.00000E+00
 -1        32 0.00000E+00 0.00000E+00 0.00000E+00
 -1        33 1.80819E-05 5.06541E-07 0.00000E+00
 -1        34 1.77182E-05 3.47489E-06 0.00000E+00
 -1        35 1.73729E-05 7.55453E-06 0.00000E+00
 -1        51 3.21101E-05-3.87045E-08 0.00000E+00
 -1        52 3.13177E-05-7.61205E-08 0.00000E+00
 -1        53 3.02325E-05-1.13486E-07 0.00000E+00
 -1        54 2.89292E-05-1.51143E-07 8.27181E-25
 -1        55 2.74825E-05-1.89396E-07-1.29247E-24
 -1        56 3.22335E-05-1.75435E-07 0.00000E+00
 -1        57 3.19541E-05-4.51167E-07 0.00000E+00
 -1        58 3.17017E-05-7.96928E-07 0.00000E+00
 -1        59 3.14637E-05-1.18719E-06 0.00000E+00
 -1        60 3.12320E-05-1.59406E-06-1.32349E-23
 -1        61 3.09959E-05-1.99031E-06 6.61744E-24
 -1        62 3.07455E-05-2.34873E-06 0.00000E+00
 -1        63 3.04709E-05-2.64253E-06 0.00000E+00
 -1        64 3.01623E-05-2.84590E-06-1.32349E-23
 -1        65 2.98105E-05-2.93376E-06 6.61744E-24
 -1        66 2.94067E-05-2.88291E-06-1.32349E-23
 -1        67 2.89429E-05-2.67115E-06 0.00000E+00
 -1        68 2.84114E-05-2.27905E-06-6.61744E-24
 -1        69 2.78072E-05-1.68790E-06 0.00000E+00
 -1        70 2.71221E-05-8.83682E-07-6.61744E-24
 -1        86 3.00029E-05 2.66767E-08 0.00000E+00
 -1        87 2.96972E-05 5.31679E-08 0.00000E+00
 -1        88 2.91846E-05 7.95566E-08 4.13590E-25
 -1        89 2.84621E-05 1.04906E-07-5.16988E-26
 -1        90 2.75233E-05 1.30392E-07 0.00000E+00
 -1       121 2.74793E-05-6.29752E-08 0.00000E+00
 -1       122 2.73136E-05-1.25964E-07-8.27181E-25
 -1       123 2.70375E-05-1.88978E-07 0.00000E+00
 -1       124 2.66511E-05-2.52042E-07 0.00000E+00
 -1       125 2.61546E-05-3.15150E-07 0.00000E+00
 -1       191 1.99616E-05 2.26414E-08 0.00000E+00
 -1       192 1.99494E-05 4.52824E-08 4.13590E-25
 -1       193 1.99290E-05 6.79234E-08 0.00000E+00
 -1       194 1.99006E-05 9.05639E-08-4.13590E-25
 -1       195 1.98640E-05 1.13203E-07-8.27181E-25
 -1       251 2.59872E-05 8.54957E-07 0.00000E+00
 -1       252 2.60120E-05 1.51164E-06 5.16988E-26
 -1       253 2.60367E-05 1.80548E-06 0.00000E+00
 -1       254 2.60622E-05 1.80153E-06 0.00000E+00
 -1       255 2.60878E-05 1.56085E-06 8.27181E-25
 -1       256 2.61135E-05 1.14425E-06 0.00000E+00
 -1       257 2.61392E-05 6.10151E-07 0.00000E+00
 -1       258 2.61649E-05 1.68617E-08 0.00000E+00
 -1       259 2.61905E-05-5.78135E-07-8.27181E-25
 -1       260 2.62162E-05-1.11734E-06 0.00000E+00
 -1       261 2.62419E-05-1.54249E-06 8.27181E-25
 -1       262 2.62675E-05-1.79523E-06 0.00000E+00
 -1       263 2.62930E-05-1.81486E-06-4.13590E-25
 -1       264 2.63177E-05-1.54040E-06-5.16988E-26
 -1       265 2.63424E-05-9.06955E-07 0.00000E+00
 -1       266 2.46653E-05-2.35184E-07-1.65436E-24
 -1       267 2.33631E-05-2.36685E-07 0.00000E+00
 -1       268 2.20609E-05-2.38417E-07-4.13590E-25
 -1       269 2.07588E-05-2.39465E-07 0.00000E+00
 -1       270 1.94566E-05-2.40498E-07 1.03398E-25
 -1       271 2.51792E-05 7.34015E-07 0.00000E+00
 -1       272 2.45126E-05 1.33649E-06-6.61744E-24
 -1       273 2.39630E-05 1.62870E-06 0.00000E+00
 -1       274 2.35099E-05 1.65794E-06 6.61744E-24
 -1       275 2.31365E-05 1.47435E-06 0.00000E+00
 -1       276 2.28235E-05 1.12842E-06 0.00000E+00
 -1       277 2.25520E-05 6.71636E-07 0.00000E+00
 -1       278 2.23025E-05 1.55945E-07 0.00000E+00
 -1       279 2.20555E-05-3.66397E-07 0.00000E+00
 -1       280 2.17914E-05-8.43087E-07 6.61744E-24
 -1       281 2.14908E-05-1.22210E-06 1.32349E-23
 -1       282 2.11345E-05-1.45184E-06-6.61744E-24
 -1       283 2.07033E-05-1.48155E-06-1.32349E-23
 -1       284 2.01796E-05-1.26101E-06 0.00000E+00
 -1       285 1.95436E-05-7.42285E-07-6.61744E-24
 -1       301 2.50798E-05 1.44899E-07-1.65436E-24
 -1       302 2.37972E-05 1.42933E-07 4.13590E-25
 -1       303 2.25204E-05 1.41074E-07-8.27181E-25
 -1       304 2.12555E-05 1.38769E-07 0.00000E+00
 -1       305 2.00089E-05 1.35830E-07-3.30872E-24
 -1       306 2.55548E-05 1.07000E-06 6.61744E-24
 -1       307 2.48819E-05 1.59122E-06-6.61744E-24
 -1       308 2.43423E-05 1.75991E-06 0.00000E+00
 -1       309 2.39161E-05 1.61950E-06 0.00000E+00
 -1       310 2.35839E-05 1.22786E-06 1.32349E-23
 -1       311 2.33229E-05 6.45010E-07 6.61744E-24
 -1       312 2.31079E-05-6.09835E-08-1.32349E-23
 -1       313 2.29130E-05-8.20708E-07 0.00000E+00
 -1       314 2.27114E-05-1.56242E-06 0.00000E+00
 -1       315 2.24763E-05-2.21460E-06 0.00000E+00
 -1       316 2.21824E-05-2.70958E-06-1.32349E-23
 -1       317 2.18055E-05-2.98148E-06 0.00000E+00
 -1       318 2.13237E-05-2.97366E-06-1.32349E-23
 -1       319 2.07196E-05-2.63188E-06 0.00000E+00
 -1       320 1.99745E-05-1.91762E-06 0.00000E+00
 -1       336 2.48176E-05-4.46740E-07 0.00000E+00
 -1       337 2.39481E-05-5.15263E-07-8.27181E-25
 -1       338 2.29401E-05-5.83893E-07 0.00000E+00
 -1       339 2.17942E-05-6.52571E-07 8.27181E-25
 -1       340 2.05109E-05-7.21419E-07-1.65436E-24
 -1       406 1.97664E-05 1.58476E-07 0.00000E+00
 -1       407 1.97054E-05 1.81103E-07-8.27181E-25
 -1       408 1.96362E-05 2.03716E-07-8.27181E-25
 -1       409 1.95590E-05 2.26286E-07-4.13590E-25
 -1       410 1.94736E-05 2.48770E-07 0.00000E+00
 -1       521 1.76546E-05 8.26378E-07-1.32349E-23
 -1       522 1.66545E-05 1.10223E-06 1.32349E-23
 -1       523 1.57957E-05 1.00616E-06 0.00000E+00
 -1       524 1.50528E-05 5.88130E-07 0.00000E+00
 -1       525 1.44032E-05-7.94835E-08 0.00000E+00
 -1       526 1.38178E-05-9.20678E-07-1.32349E-23
 -1       527 1.32648E-05-1.84878E-06 2.64698E-23
 -1       528 1.27112E-05-2.77555E-06-1.32349E-23
 -1       529 1.21240E-05-3.61269E-06-2.64698E-23
 -1       530 1.14711E-05-4.27388E-06 1.32349E-23
 -1       531 1.07239E-05-4.68318E-06 0.00000E+00
 -1       532 9.85650E-06-4.76985E-06 1.32349E-23
 -1       533 8.84886E-06-4.48253E-06-2.64698E-23
 -1       534 7.68863E-06-3.77617E-06-1.32349E-23
 -1       535 6.36260E-06-2.63383E-06 0.00000E+00
 -1       536 1.90897E-05 5.31222E-07 8.27181E-25
 -1       537 1.90908E-05 1.51946E-06 0.00000E+00
 -1       538 1.90920E-05 2.21117E-06-1.03398E-25
 -1       539 1.90937E-05 2.64248E-06 2.58494E-26
 -1       540 1.90956E-05 2.84843E-06 0.00000E+00
 -1       541 1.90975E-05 2.86401E-06 0.00000E+00
 -1       542 1.90994E-05 2.72343E-06 0.00000E+00
 -1       543 1.91013E-05 2.46086E-06 2.58494E-26
 -1       544 1.91032E-05 2.10997E-06 0.00000E+00
 -1       545 1.91051E-05 1.70442E-06 0.00000E+00
 -1       546 1.91070E-05 1.27761E-06 0.00000E+00
 -1       547 1.91088E-05 8.62975E-07-2.58494E-26
 -1       548 1.91108E-05 4.93977E-07 0.00000E+00
 -1       549 1.91127E-05 2.04091E-07 0.00000E+00
 -1       550 1.91147E-05 2.71342E-08 0.00000E+00
 -1       551 1.72064E-05-8.28402E-07-8.27181E-25
 -1       552 1.49510E-05-8.67296E-07 6.20385E-25
 -1       553 1.24575E-05-9.06860E-07-8.27181E-25
 -1       554 9.86047E-06-9.47345E-07 1.65436E-24
 -1       555 7.29452E-06-9.88475E-07 3.30872E-24
 -1       556 1.86000E-05 4.88000E-07 3.30872E-24
 -1       557 1.82252E-05 1.46247E-06 0.00000E+00
 -1       558 1.79541E-05 2.16185E-06 0.00000E+00
 -1       559 1.77752E-05 2.61645E-06 0.00000E+00
 -1       560 1.76769E-05 2.85650E-06 0.00000E+00
 -1       561 1.76477E-05 2.91237E-06 0.00000E+00
 -1       562 1.76763E-05 2.81444E-06 0.00000E+00
 -1       563 1.77511E-05 2.59311E-06-8.27181E-25
 -1       564 1.78608E-05 2.27878E-06 0.00000E+00
 -1       565 1.79939E-05 1.90185E-06 4.13590E-25
 -1       566 1.81391E-05 1.49274E-06 0.00000E+00
 -1       567 1.82849E-05 1.08187E-06 1.03398E-25
 -1       568 1.84201E-05 6.99624E-07 0.00000E+00
 -1       569 1.85331E-05 3.76393E-07 0.00000E+00
 -1       570 1.86126E-05 1.42563E-07 0.00000E+00
 -1       571 1.91330E-05 2.43479E-08-2.06795E-25
 -1       572 1.91493E-05 4.10011E-08 0.00000E+00
 -1       573 1.91657E-05 4.88013E-08 2.06795E-25
 -1       574 1.91822E-05 4.97687E-08-1.03398E-25
 -1       575 1.91987E-05 4.59325E-08 4.13590E-25
 -1       576 1.92152E-05 3.93356E-08 0.00000E+00
 -1       577 1.92317E-05 3.20220E-08 4.13590E-25
 -1       578 1.92482E-05 2.60376E-08 4.13590E-25
 -1       579 1.92647E-05 2.34282E-08-8.27181E-25
 -1       580 1.92813E-05 2.62398E-08 0.00000E+00
 -1       581 1.92978E-05 3.65179E-08 0.00000E+00
 -1       582 1.93143E-05 5.63057E-08 0.00000E+00
 -1       583 1.93308E-05 8.76444E-08 0.00000E+00
 -1       584 1.93473E-05 1.32554E-07 0.00000E+00
 -1       585 1.93638E-05 1.93042E-07 8.27181E-25
 -1       586 1.90329E-05 2.40533E-09 0.00000E+00
 -1       587 1.89419E-05 7.74623E-09-1.03398E-25
 -1       588 1.88510E-05 1.30266E-08 0.00000E+00
 -1       589 1.87670E-05 1.82215E-08 0.00000E+00
 -1       590 1.86970E-05 2.32731E-08 0.00000E+00
 -1       591 1.90992E-05 3.26394E-08 3.87741E-26
 -1       592 1.90840E-05 5.94250E-08 0.00000E+00
 -1       593 1.90716E-05 7.89832E-08 0.00000E+00
 -1       594 1.90611E-05 9.28481E-08 1.03398E-25
 -1       595 1.90523E-05 1.02574E-07 0.00000E+00
 -1       596 1.90444E-05 1.09705E-07-5.16988E-26
 -1       597 1.90369E-05 1.15781E-07 1.03398E-25
 -1       598 1.90292E-05 1.22344E-07-5.16988E-26
 -1       599 1.90207E-05 1.30935E-07-1.03398E-25
 -1       600 1.90109E-05 1.43095E-07-5.16988E-26
 -1       601 1.89992E-05 1.60363E-07-1.03398E-25
 -1       602 1.89850E-05 1.84284E-07-5.16988E-26
 -1       603 1.89677E-05 2.16399E-07 0.00000E+00
 -1       604 1.89469E-05 2.58263E-07 0.00000E+00
 -1       605 1.89219E-05 3.11412E-07 0.00000E+00
 -1       606 1.93833E-05 3.86311E-07 8.27181E-25
 -1       607 1.93858E-05 5.25289E-07 0.00000E+00
 -1       608 1.93882E-05 6.86508E-07 0.00000E+00
 -1       609 1.93904E-05 8.68402E-07 0.00000E+00
 -1       610 1.93927E-05 1.06940E-06 0.00000E+00
 -1       611 1.93949E-05 1.28792E-06 0.00000E+00
 -1       612 1.93971E-05 1.52235E-06 0.00000E+00
 -1       613 1.93993E-05 1.77110E-06 0.00000E+00
 -1       614 1.94015E-05 2.03258E-06 0.00000E+00
 -1       615 1.94037E-05 2.30519E-06-2.06795E-25
 -1       616 1.94059E-05 2.58733E-06 0.00000E+00
 -1       617 1.94081E-05 2.87740E-06 1.03398E-25
 -1       618 1.94103E-05 3.17381E-06 0.00000E+00
 -1       619 1.94124E-05 3.47497E-06 0.00000E+00
 -1       620 1.94146E-05 3.77927E-06 1.03398E-25
 -1       621 1.92879E-05 2.88741E-07 0.00000E+00
 -1       622 1.92017E-05 3.06607E-07 0.00000E+00
 -1       623 1.91205E-05 3.24469E-07-4.13590E-25
 -1       624 1.90427E-05 3.42302E-07 0.00000E+00
 -1       625 1.89673E-05 3.60105E-07 0.00000E+00
 -1       626 1.93561E-05 3.91916E-07 0.00000E+00
 -1       627 1.93247E-05 5.32453E-07-4.13590E-25
 -1       628 1.92867E-05 6.90758E-07 0.00000E+00
 -1       629 1.92427E-05 8.64897E-07-8.27181E-25
 -1       630 1.91936E-05 1.05293E-06 0.00000E+00
 -1       631 1.91400E-05 1.25291E-06-4.13590E-25
 -1       632 1.90826E-05 1.46289E-06 0.00000E+00
 -1       633 1.90222E-05 1.68090E-06-4.13590E-25
 -1       634 1.89596E-05 1.90501E-06 0.00000E+00
 -1       635 1.88953E-05 2.13325E-06 0.00000E+00
 -1       636 1.88303E-05 2.36367E-06-4.13590E-25
 -1       637 1.87651E-05 2.59433E-06-2.06795E-25
 -1       638 1.87006E-05 2.82326E-06-4.13590E-25
 -1       639 1.86375E-05 3.04851E-06 2.06795E-25
 -1       640 1.85763E-05 3.26813E-06 4.13590E-25
 -1       656 1.91625E-05 3.98672E-06 0.00000E+00
 -1       657 1.89976E-05 3.88436E-06 0.00000E+00
 -1       658 1.88866E-05 3.78230E-06 1.65436E-24
 -1       659 1.87940E-05 3.68032E-06 0.00000E+00
 -1       660 1.86832E-05 3.57802E-06-1.65436E-24
 -1       661 1.93225E-05 4.38500E-06 2.06795E-25
 -1       662 1.92337E-05 4.67242E-06 0.00000E+00
 -1       663 1.91496E-05 4.94758E-06 0.00000E+00
 -1       664 1.90699E-05 5.21101E-06 0.00000E+00
 -1       665 1.89945E-05 5.46313E-06 0.00000E+00
 -1       666 1.89232E-05 5.70441E-06 0.00000E+00
 -1       667 1.88558E-05 5.93528E-06 4.13590E-25
 -1       668 1.87921E-05 6.15620E-06-2.06795E-25
 -1       669 1.87320E-05 6.36759E-06-4.13590E-25
 -1       670 1.86754E-05 6.56990E-06 0.00000E+00
 -1       671 1.86219E-05 6.76355E-06 4.13590E-25
 -1       672 1.85715E-05 6.94894E-06 2.06795E-25
 -1       673 1.85241E-05 7.12651E-06 4.13590E-25
 -1       674 1.84792E-05 7.29660E-06 2.06795E-25
 -1       675 1.84370E-05 7.45971E-06 1.03398E-25
 -1       676 1.91325E-05 7.71264E-06 4.13590E-25
 -1       677 1.89851E-05 7.69314E-06-2.06795E-25
 -1       678 1.88378E-05 7.67366E-06-4.13590E-25
 -1       679 1.86906E-05 7.65423E-06 0.00000E+00
 -1       680 1.85434E-05 7.63481E-06 0.00000E+00
 -1       771 3.93098E-06 7.82644E-07-6.61744E-24
 -1       772 3.09297E-06 2.26486E-06 0.00000E+00
 -1       773 2.37350E-06 3.43173E-06 0.00000E+00
 -1       774 1.76420E-06 4.30504E-06 0.00000E+00
 -1       775 1.25694E-06 4.90669E-06 0.00000E+00
 -1       776 8.43373E-07 5.25881E-06 3.30872E-24
 -1       777 5.15123E-07 5.38360E-06-6.61744E-24
 -1       778 2.63753E-07 5.30344E-06 0.00000E+00
 -1       779 8.08051E-08 5.04080E-06 0.00000E+00
 -1       780-4.22269E-08 4.61827E-06 0.00000E+00
 -1       781-1.13850E-07 4.05851E-06-6.61744E-24
 -1       782-1.42611E-07 3.38429E-06 3.30872E-24
 -1       783-1.37054E-07 2.61842E-06-6.61744E-24
 -1       784-1.05745E-07 1.78379E-06 0.00000E+00
 -1       785-5.72526E-08 9.03323E-07-6.61744E-24
 -1       786 1.86620E-05 2.97177E-08 0.00000E+00
 -1       787 1.86773E-05 3.13430E-08 2.06795E-25
 -1       788 1.86925E-05 3.32534E-08 4.13590E-25
 -1       789 1.87079E-05 3.59764E-08-2.06795E-25
 -1       790 1.87233E-05 4.00676E-08 0.00000E+00
 -1       791 1.87388E-05 4.60835E-08 2.06795E-25
 -1       792 1.87542E-05 5.46468E-08 0.00000E+00
 -1       793 1.87696E-05 6.63820E-08 0.00000E+00
 -1       794 1.87851E-05 8.20235E-08-4.13590E-25
 -1       795 1.88005E-05 1.02308E-07 0.00000E+00
 -1       796 1.88160E-05 1.28131E-07-4.13590E-25
 -1       797 1.88314E-05 1.60395E-07-2.06795E-25
 -1       798 1.88468E-05 2.00222E-07 0.00000E+00
 -1       799 1.88622E-05 2.48738E-07 0.00000E+00
 -1       800 1.88776E-05 3.07373E-07-4.13590E-25
 -1       801 1.73954E-05 3.07826E-08 2.06795E-25
 -1       802 1.36510E-05 2.77186E-08-2.06795E-25
 -1       803 8.72730E-06 1.99146E-08-8.27181E-25
 -1       804 3.93677E-06 1.08978E-08 0.00000E+00
 -1       805 5.90461E-07 7.83217E-09 0.00000E+00
 -1       806 1.86275E-05 1.96440E-08-4.13590E-25
 -1       807 1.86064E-05 1.16913E-08 0.00000E+00
 -1       808 1.85847E-05 5.18799E-09 0.00000E+00
 -1       809 1.85620E-05 1.14440E-09 0.00000E+00
 -1       810 1.85380E-05 5.68990E-10 8.27181E-25
 -1       811 1.85123E-05 4.45521E-09 2.06795E-25
 -1       812 1.84845E-05 1.37954E-08-8.27181E-25
 -1       813 1.84543E-05 2.95797E-08 2.06795E-25
 -1       814 1.84213E-05 5.27984E-08 4.13590E-25
 -1       815 1.83852E-05 8.44407E-08 2.06795E-25
 -1       816 1.83455E-05 1.25496E-07-4.13590E-25
 -1       817 1.83019E-05 1.76953E-07 0.00000E+00
 -1       818 1.82541E-05 2.39802E-07-8.27181E-25
 -1       819 1.82017E-05 3.15029E-07 0.00000E+00
 -1       820 1.81443E-05 4.03620E-07 0.00000E+00
 -1       821 1.88707E-05 4.64833E-07 2.06795E-25
 -1       822 1.88472E-05 5.74708E-07 0.00000E+00
 -1       823 1.88238E-05 7.06688E-07-8.27181E-25
 -1       824 1.88001E-05 8.60253E-07 0.00000E+00
 -1       825 1.87764E-05 1.03378E-06 8.27181E-25
 -1       826 1.87527E-05 1.22562E-06-4.13590E-25
 -1       827 1.87290E-05 1.43317E-06-8.27181E-25
 -1       828 1.87052E-05 1.65384E-06-4.13590E-25
 -1       829 1.86815E-05 1.88434E-06 8.27181E-25
 -1       830 1.86577E-05 2.12139E-06-4.13590E-25
 -1       831 1.86340E-05 2.36134E-06 0.00000E+00
 -1       832 1.86103E-05 2.60058E-06-4.13590E-25
 -1       833 1.85866E-05 2.83550E-06 0.00000E+00
 -1       834 1.85632E-05 3.06253E-06-2.06795E-25
 -1       835 1.85397E-05 3.27846E-06 0.00000E+00
 -1       836 1.87935E-05 3.99024E-07-4.13590E-25
 -1       837 1.86661E-05 4.20969E-07-2.06795E-25
 -1       838 1.85208E-05 4.42877E-07 0.00000E+00
 -1       839 1.83681E-05 4.64647E-07 2.06795E-25
 -1       840 1.82183E-05 4.86382E-07 0.00000E+00
 -1       856 1.85109E-05 3.68855E-06-5.16988E-26
 -1       857 1.85034E-05 3.92292E-06 5.16988E-26
 -1       858 1.84959E-05 4.17911E-06 2.06795E-25
 -1       859 1.84883E-05 4.45302E-06 1.03398E-25
 -1       860 1.84806E-05 4.74050E-06-2.06795E-25
 -1       861 1.84730E-05 5.03742E-06 0.00000E+00
 -1       862 1.84653E-05 5.33965E-06 0.00000E+00
 -1       863 1.84577E-05 5.64304E-06-1.03398E-25
 -1       864 1.84500E-05 5.94346E-06-2.06795E-25
 -1       865 1.84423E-05 6.23676E-06 1.03398E-25
 -1       866 1.84346E-05 6.51882E-06 0.00000E+00
 -1       867 1.84270E-05 6.78548E-06-1.03398E-25
 -1       868 1.84193E-05 7.03264E-06 0.00000E+00
 -1       869 1.84116E-05 7.25616E-06 1.03398E-25
 -1       870 1.84040E-05 7.45192E-06 0.00000E+00
 -1       871 1.83580E-05 3.47998E-06 0.00000E+00
 -1       872 1.82232E-05 3.47929E-06 0.00000E+00
 -1       873 1.81027E-05 3.47850E-06 0.00000E+00
 -1       874 1.79856E-05 3.47759E-06-3.87741E-26
 -1       875 1.78610E-05 3.47656E-06 0.00000E+00
 -1       876 1.84622E-05 3.69067E-06 0.00000E+00
 -1       877 1.84025E-05 3.91381E-06 0.00000E+00
 -1       878 1.83388E-05 4.14803E-06 0.00000E+00
 -1       879 1.82714E-05 4.39192E-06 0.00000E+00
 -1       880 1.82010E-05 4.64405E-06-8.27181E-25
 -1       881 1.81280E-05 4.90300E-06 4.13590E-25
 -1       882 1.80530E-05 5.16734E-06-8.27181E-25
 -1       883 1.79766E-05 5.43566E-06 4.13590E-25
 -1       884 1.78991E-05 5.70654E-06 0.00000E+00
 -1       885 1.78213E-05 5.97855E-06 4.13590E-25
 -1       886 1.77435E-05 6.25029E-06 0.00000E+00
 -1       887 1.76663E-05 6.52032E-06-4.13590E-25
 -1       888 1.75903E-05 6.78723E-06 4.13590E-25
 -1       889 1.75159E-05 7.04957E-06 0.00000E+00
 -1       890 1.74436E-05 7.30592E-06-2.06795E-25
 -1       891 1.82540E-05 7.60555E-06 2.06795E-25
 -1       892 1.81073E-05 7.59526E-06 0.00000E+00
 -1       893 1.79510E-05 7.58497E-06 0.00000E+00
 -1       894 1.77799E-05 7.57471E-06-5.16988E-26
 -1       895 1.75889E-05 7.56447E-06 1.03398E-25
 -1       956 1.80595E-05 6.38761E-07 0.00000E+00
 -1       957 1.80368E-05 7.85511E-07-2.06795E-25
 -1       958 1.80141E-05 9.45278E-07 0.00000E+00
 -1       959 1.79913E-05 1.11646E-06 0.00000E+00
 -1       960 1.79685E-05 1.29746E-06-4.13590E-25
 -1       961 1.79457E-05 1.48665E-06 0.00000E+00
 -1       962 1.79229E-05 1.68243E-06 0.00000E+00
 -1       963 1.79001E-05 1.88319E-06 0.00000E+00
 -1       964 1.78772E-05 2.08731E-06-8.27181E-25
 -1       965 1.78544E-05 2.29318E-06 0.00000E+00
 -1       966 1.78316E-05 2.49919E-06-8.27181E-25
 -1       967 1.78088E-05 2.70371E-06 4.13590E-25
 -1       968 1.77860E-05 2.90515E-06 8.27181E-25
 -1       969 1.77632E-05 3.10188E-06 0.00000E+00
 -1       970 1.77405E-05 3.29232E-06-8.27181E-25
 -1       971 1.76969E-05 3.66240E-06 0.00000E+00
 -1       972 1.76752E-05 3.86919E-06-2.06795E-25
 -1       973 1.76536E-05 4.09312E-06-8.27181E-25
 -1       974 1.76319E-05 4.33198E-06 2.06795E-25
 -1       975 1.76102E-05 4.58354E-06-4.13590E-25
 -1       976 1.75885E-05 4.84559E-06-4.13590E-25
 -1       977 1.75668E-05 5.11592E-06 0.00000E+00
 -1       978 1.75451E-05 5.39229E-06 4.13590E-25
 -1       979 1.75234E-05 5.67248E-06-8.27181E-25
 -1       980 1.75017E-05 5.95429E-06 0.00000E+00
 -1       981 1.74800E-05 6.23548E-06 8.27181E-25
 -1       982 1.74583E-05 6.51383E-06 0.00000E+00
 -1       983 1.74366E-05 6.78712E-06 0.00000E+00
 -1       984 1.74151E-05 7.05314E-06 4.13590E-25
 -1       985 1.73936E-05 7.30967E-06 4.13590E-25
 -3
    1PSTEP                         2           1           1          
  100CL  101 1.25000E-01         409                     0    1           1
 -4  STRESS      6    1
 -5  SXX         1    4    1    1
 -5  SYY         1    4    2    2
 -5  SZZ         1    4    3    3
 -5  SXY         1    4    1    2
 -5  SYZ         1    4    2    3
 -5  SZX         1    4    3    1
 -1         1-4.32655E+05-2.00293E+05-8.73414E+04-2.79137E+05 5.00222E-11-3.23780E-10
 -1         2 7.19408E+02 7.71950E+04 2.33479E+03 6.68539E+01-4.26397E-11-1.17515E-09
 -1         3-2.95296E+00-1.80081E+05 4.09764E+01-1.67737E+01-2.12079E-11-1.65801E-09
 -1         5-6.43070E-01 6.47746E+04 1.69309E+00-6.00125E-02 2.80400E-11-8.49241E-09
 -1         8-2.04077E+05-8.88480E+04-7.06897E+03-1.54317E+05 3.72893E-11-1.23691E-10
 -1         9-3.49984E+05-9.32228E+04-3.49956E+04-1.22855E+05 9.53150E-10 4.46744E-10
 -1        10-1.26873E+02-1.87612E+05-2.36718E+02-1.06264E+02-8.39236E-10-3.14231E-09
 -1        12 5.29735E-02 6.47781E+04 5.48559E+01-2.55778E-01 4.71303E-11 9.45420E-10
 -1        15 5.37611E+02 2.95452E+02 1.73776E+03 3.91776E-01-3.50013E-11-1.78392E-09
 -1        16-9.78559E+05-3.17733E+05-1.52221E+05-3.24052E+05 2.95525E-09-3.62343E-09
 -1        17-2.15145E+05-1.34620E+05-4.12476E+04-1.27838E+05-1.46429E-09-1.06884E-09
 -1        18 9.62574E+03 1.17471E+03-2.58269E+03-1.52192E+04 1.96678E-10-7.45445E-10
 -1        19 2.03309E+04 2.42170E+04-1.11795E+02 3.99487E+03-1.79489E-10 4.21824E-10
 -1        20-8.42054E+03-9.61525E+04-2.11957E+04 7.20219E+03 9.41479E-10 3.51368E-10
 -1        21-9.11680E+00-5.58143E+04-1.80254E+02-5.64184E+00-1.51589E-09-2.26428E-09
 -1        24-8.57428E+05-3.04332E+05-1.22576E+05-3.72003E+05-3.84777E-09-2.04697E-09
 -1        25 7.00777E+03-2.77549E+03 4.12456E+03-2.47051E+04 9.18908E-10 2.60661E-10
 -1        26-4.76928E+03 1.65346E+04-3.30847E+03-2.33278E+03 4.03998E-10 1.37125E-09
 -1        27-1.53720E+04-5.27601E+04-1.97893E+04 1.18949E+04 1.57483E-09 1.09283E-09
 -1        28 4.30288E+03-1.54253E+04 3.14850E+03 4.94548E+03 1.02544E-09-2.58675E-10
 -1        32-2.05462E+05-3.39572E+04 9.07260E+04-1.31655E+05-3.08501E-09 6.62204E-09
 -1        33-3.02195E+04 1.55095E+04 5.50161E+03-8.96361E+03 2.94946E-10 7.88987E-11
 -1        34-3.91936E+04-3.90141E+03 9.40913E+01 1.20576E+04 8.49026E-10 1.33999E-09
 -1        35-4.38109E+03-6.14046E+03-2.38283E+02 9.71900E+03 1.24560E-09-4.13972E-10
 -1        51 4.44174E+03-1.03475E+05 1.02610E+04-2.51503E+05 2.18279E-11 6.29370E-10
 -1        52 1.80977E+03-1.01959E+05 6.62293E+03-2.93324E+05 1.41881E-10-2.25373E-09
 -1        53 8.55160E+02-1.03814E+05 5.73373E+03-2.50664E+05 1.30967E-10-3.15777E-09
 -1        54 3.23075E+03-1.02361E+05 9.13576E+03-2.94228E+05-1.14596E-10-1.72713E-09
 -1        55 8.37088E+03-1.05539E+05 1.64317E+04-2.50578E+05 8.36735E-11-1.26965E-09
 -1        56-8.31363E+05-9.42192E+04-6.48653E+04-3.20848E+05-2.40107E-10 2.18279E-11
 -1        57-8.58262E+05-1.51991E+05-4.37107E+04-3.17400E+05 1.81444E-10-3.71074E-10
 -1        58-8.44122E+05-1.15016E+05-1.52773E+04-3.17113E+05 2.18279E-10 2.14914E-09
 -1        59-8.43523E+05-1.27602E+05-9.11997E+03-3.21888E+05-4.54349E-10-2.83160E-09
 -1        60-8.45991E+05-1.17917E+05-3.57300E+03-3.16613E+05-1.50123E-10-9.19727E-11
 -1        61-8.41425E+05-1.24152E+05-2.03257E+03-3.22409E+05-4.14019E-10-1.36060E-09
 -1        62-8.46203E+05-1.18380E+05-9.78859E+02-3.16622E+05-4.49575E-10-1.67384E-09
 -1        63-8.41341E+05-1.23540E+05-8.09946E+02-3.22242E+05 6.03706E-10-1.10980E-09
 -1        64-8.46072E+05-1.18526E+05-9.23060E+02-3.16780E+05 3.00133E-11 2.68579E-09
 -1        65-8.41925E+05-1.23555E+05-1.86126E+03-3.21776E+05 1.50294E-10-8.56744E-10
 -1        66-8.45614E+05-1.18377E+05-3.25669E+03-3.17080E+05 5.25148E-10 1.57615E-09
 -1        67-8.44338E+05-1.26160E+05-8.28456E+03-3.20691E+05-6.17518E-10 1.42938E-09
 -1        68-8.43661E+05-1.16000E+05-1.38856E+04-3.17831E+05 9.68271E-10 1.16597E-09
 -1        69-8.58215E+05-1.47816E+05-3.97051E+04-3.16039E+05 7.38964E-12-8.77662E-11
 -1        70-8.31831E+05-9.73484E+04-5.89380E+04-3.21498E+05 8.00355E-11 2.91038E-10
 -1        86-3.59588E+02 7.65492E+04 2.51671E+03-3.34211E+01 3.39128E-10-7.06805E-10
 -1        87 2.39211E+03 7.80051E+04 5.22967E+03 1.35842E+02 5.65365E-10 1.04509E-09
 -1        88-2.02640E+03 7.57399E+04 8.02921E+03-1.02397E+02 8.30823E-10 8.78373E-10
 -1        89 1.51099E+04 8.39087E+04 2.16216E+04 2.84949E+02 1.26988E-09 1.30564E-09
 -1        90-1.30351E+04 7.06465E+04 3.05696E+04-1.82509E+02 1.38425E-09-8.53618E-10
 -1       121-9.03859E+00-1.80120E+05 4.50840E+01 8.38496E+00 9.31593E-11-2.02317E-09
 -1       122 1.05868E+01-1.80072E+05 9.03541E+01-3.36550E+01-3.20989E-10-4.32760E-09
 -1       123-1.90793E+01-1.80130E+05 1.52962E+02 2.52608E+01 2.97277E-10-2.30148E-09
 -1       124 1.77804E+02-1.79968E+05 3.81256E+02-9.87667E+01-6.18201E-10-2.44609E-09
 -1       125-1.28254E+02-1.80225E+05 5.91296E+02 7.35254E+01 4.29054E-10-5.68662E-10
 -1       191-7.31538E-01 6.47802E+04 2.05321E+00 2.99831E-02 4.25781E-11-2.30648E-09
 -1       192-7.98157E-01 6.47747E+04 3.58372E+00 1.29663E-02 6.74742E-11 1.09708E-09
 -1       193-1.14421E+00 6.47801E+04 6.69371E+00-4.31322E-02 7.10076E-11 3.29374E-09
 -1       194-1.29746E+00 6.47752E+04 1.35532E+01 1.18326E-01 3.94502E-11 1.40108E-09
 -1       195-1.93763E+00 6.47797E+04 2.65406E+01-7.57888E-02 1.10211E-10-9.32005E-10
 -1       251 6.80831E+04-1.25356E+04 2.93464E+04 8.88939E+02 1.07349E-10 1.93540E-09
 -1       252 8.09838E+04 1.45183E+04 2.07431E+04-3.46131E+03 5.75540E-12-5.74119E-10
 -1       253 7.30269E+04-1.94193E+03 7.60020E+03 7.63348E+02-1.30456E-11-2.64845E-09
 -1       254 7.52055E+04 2.24728E+03 4.77891E+03-3.25985E+03-2.52193E-10-1.29035E-09
 -1       255 7.38533E+04-3.00487E+02 1.96413E+03 6.87534E+02-6.24851E-11 2.99485E-09
 -1       256 7.42327E+04 3.55281E+02 1.18855E+03-3.14690E+03 7.44329E-11 2.39440E-09
 -1       257 7.39957E+04-5.27268E+01 6.14169E+02 6.50434E+02 3.62235E-11-1.32482E-09
 -1       258 7.40899E+04 1.09411E+02 5.45203E+02-3.10921E+03-2.06944E-10-1.06170E-09
 -1       259 7.39952E+04-5.39461E+01 6.25973E+02 6.49857E+02-2.19913E-12-3.28824E-09
 -1       260 7.42379E+04 3.66240E+02 1.22229E+03-3.14489E+03-5.65876E-11-2.23427E-09
 -1       261 7.38487E+04-3.10055E+02 2.02546E+03 6.86106E+02 4.02494E-10 4.68617E-10
 -1       262 7.52397E+04 2.31948E+03 4.93080E+03-3.25543E+03 8.33467E-12-6.41819E-10
 -1       263 7.29970E+04-2.00435E+03 7.84448E+03 7.60370E+02-5.26370E-11 2.63753E-10
 -1       264 8.11998E+04 1.49847E+04 2.14081E+04-3.45421E+03-5.64071E-10 1.40972E-10
 -1       265 6.78965E+04-1.29380E+04 3.02907E+04 8.84828E+02-3.31255E-10 1.61890E-10
 -1       266-9.73247E+03-4.55185E+03 2.28309E+04-6.50570E+00 5.45697E-12 5.21890E-10
 -1       267 1.12823E+04 5.30390E+03 1.61388E+04 7.56126E+00 3.27418E-11-2.64875E-09
 -1       268-1.51293E+03-7.51233E+02 5.99858E+03-9.83323E-01-1.95541E-11-3.15311E-09
 -1       269 1.78635E+03 8.99024E+02 3.89910E+03 1.19841E+00-7.95808E-12 7.10896E-10
 -1       270-2.68111E+02-1.47697E+02 1.88215E+03-1.81573E-01-2.43290E-11 2.58648E-09
 -1       271-9.55375E+05-1.18209E+05-7.33432E+04-3.70877E+05-1.81899E-11 2.61934E-10
 -1       272-9.74204E+05-1.79422E+05-4.71818E+04-3.79169E+05 7.13840E-10-2.75850E-09
 -1       273-9.68873E+05-1.36795E+05-1.73226E+04-3.67973E+05 7.08951E-10-5.85715E-10
 -1       274-9.58610E+05-1.56463E+05-9.71966E+03-3.83484E+05 5.50813E-10-4.28145E-10
 -1       275-9.70705E+05-1.38778E+05-4.03032E+03-3.67494E+05-1.42336E-10 4.36103E-10
 -1       276-9.56481E+05-1.54068E+05-2.15124E+03-3.84226E+05-7.33507E-10 1.31462E-09
 -1       277-9.71020E+05-1.38921E+05-1.05151E+03-3.67356E+05 5.80258E-10 6.86470E-10
 -1       278-9.56166E+05-1.53891E+05-7.66372E+02-3.84394E+05-2.28511E-10 3.70562E-10
 -1       279-9.71037E+05-1.38924E+05-8.21140E+02-3.67348E+05 1.30342E-10 4.65320E-10
 -1       280-9.56370E+05-1.53981E+05-1.50493E+03-3.84269E+05-1.78034E-10 2.42829E-09
 -1       281-9.70802E+05-1.38853E+05-2.73994E+03-3.67465E+05 1.13687E-11 1.32241E-09
 -1       282-9.57869E+05-1.55516E+05-6.55896E+03-3.83671E+05-2.87855E-10-1.69689E-09
 -1       283-9.69513E+05-1.37579E+05-1.16758E+04-3.67851E+05 1.88265E-10-5.22050E-10
 -1       284-9.68499E+05-1.70832E+05-3.17791E+04-3.80579E+05 3.93754E-10-1.12095E-09
 -1       285-9.60325E+05-1.25163E+05-4.94109E+04-3.69912E+05 3.50155E-10-8.94943E-10
 -1       301 3.66215E+03-2.50147E+03 2.87606E+04-7.41735E+03-1.47338E-10-6.28688E-10
 -1       302 3.92411E+03 4.81115E+03 2.07530E+04-1.08926E+04 4.66628E-10-1.03660E-09
 -1       303 1.48340E+02 8.46231E+01 1.90762E+04-7.41975E+03-2.76486E-10-9.33142E-10
 -1       304 7.40385E+03 8.01658E+03 3.20598E+04-1.08661E+04 1.08685E-10 3.71074E-09
 -1       305 7.34464E+03-5.69934E+03 5.37725E+04-7.43634E+03-2.07365E-10 1.53977E-09
 -1       306-1.03547E+06-1.17063E+05-7.87029E+04-4.00982E+05 6.05723E-10-5.16593E-10
 -1       307-1.06978E+06-1.90056E+05-5.36957E+04-3.94860E+05 7.42148E-10 1.61617E-09
 -1       308-1.05199E+06-1.42850E+05-1.85106E+04-3.95154E+05 5.89353E-10 2.76395E-09
 -1       309-1.05021E+06-1.60500E+05-1.12547E+04-4.02251E+05-7.05782E-10 2.07524E-09
 -1       310-1.05497E+06-1.46152E+05-4.34228E+03-3.93767E+05 8.29345E-11-9.92713E-10
 -1       311-1.04657E+06-1.56859E+05-2.53147E+03-4.04107E+05 8.09571E-10 1.09708E-11
 -1       312-1.05562E+06-1.46408E+05-1.23386E+03-3.93331E+05 2.40625E-10-5.96714E-10
 -1       313-1.04598E+06-1.56551E+05-1.11355E+03-4.04496E+05 4.17977E-11 8.81762E-10
 -1       314-1.05557E+06-1.46444E+05-1.33606E+03-3.93383E+05-6.18655E-10 6.13738E-10
 -1       315-1.04681E+06-1.56792E+05-2.83595E+03-4.03891E+05-7.56003E-10 3.36740E-10
 -1       316-1.05479E+06-1.46193E+05-4.90566E+03-3.93928E+05 7.33053E-10 3.17505E-09
 -1       317-1.05097E+06-1.60885E+05-1.27429E+04-4.01754E+05-1.00385E-09 1.45724E-09
 -1       318-1.05141E+06-1.42434E+05-2.09646E+04-3.95484E+05-5.45697E-10 3.16140E-09
 -1       319-1.07307E+06-1.94442E+05-6.08291E+04-3.93473E+05-9.34051E-10 1.49157E-10
 -1       320-1.03275E+06-1.13156E+05-8.91510E+04-4.02011E+05 2.12094E-09-1.06957E-09
 -1       336 1.57400E+02-1.94993E+05-1.02253E+03 3.27751E+01-1.68689E-09 2.51475E-10
 -1       337-3.61675E+02-1.95318E+05-1.12299E+03-1.26098E+02-3.16956E-09-1.98065E-09
 -1       338 1.06354E+02-1.95025E+05-1.39599E+03 9.32663E+01-2.25765E-09-7.68523E-10
 -1       339-1.44152E+03-1.95974E+05-3.06734E+03-2.46626E+02-4.11933E-09 3.97290E-09
 -1       340 9.99223E+02-1.94339E+05-4.71360E+03 1.52932E+02-2.78078E-09 2.93767E-10
 -1       406 4.27020E+00 6.47772E+04 1.08333E+02 3.30696E-01 1.45931E-10 3.12298E-09
 -1       407 3.78102E+01 6.47971E+04 2.30195E+02-3.15547E+00 2.18847E-11 2.76123E-09
 -1       408 1.18559E+02 6.47607E+04 4.59800E+02 2.83761E+00 1.91164E-10-8.75616E-10
 -1       409 4.97187E+02 6.49441E+04 1.03515E+03-2.45810E+01-1.38130E-11-1.89220E-09
 -1       410 1.42842E+03 6.46301E+04 2.11328E+03 2.19757E+01 1.61208E-10 3.36627E-10
 -1       521-1.94429E+06-2.22073E+05-1.45261E+05-7.52688E+05 1.09503E-09-2.15368E-09
 -1       522-2.01037E+06-3.51617E+05-9.87566E+04-7.38315E+05-2.31012E-10 6.83031E-10
 -1       523-1.97460E+06-2.68996E+05-3.41627E+04-7.42185E+05 4.38831E-10 1.13687E-09
 -1       524-1.97449E+06-2.97643E+05-2.06511E+04-7.51610E+05-2.61991E-10 6.53927E-10
 -1       525-1.97993E+06-2.74941E+05-7.98583E+03-7.39774E+05 1.31422E-10 2.03272E-10
 -1       526-1.96809E+06-2.90867E+05-4.60448E+03-7.54655E+05-3.63784E-10-1.73918E-09
 -1       527-1.98092E+06-2.75564E+05-2.20760E+03-7.39198E+05 9.54572E-10 1.14346E-09
 -1       528-1.96747E+06-2.89848E+05-1.90166E+03-7.54797E+05-3.47612E-10-1.37311E-09
 -1       529-1.98058E+06-2.75972E+05-2.20932E+03-7.39636E+05-3.02009E-10 7.89441E-10
 -1       530-1.96953E+06-2.89437E+05-4.57742E+03-7.52960E+05 9.49001E-11 2.41153E-09
 -1       531-1.97890E+06-2.76054E+05-7.93720E+03-7.41015E+05 4.37147E-10 9.09040E-10
 -1       532-1.97704E+06-2.94863E+05-2.04660E+04-7.48510E+05-6.64471E-10-1.79216E-09
 -1       533-1.97300E+06-2.70639E+05-3.38752E+04-7.44022E+05-1.03228E-10-2.59934E-09
 -1       534-2.01346E+06-3.47508E+05-9.79205E+04-7.34381E+05 9.83619E-10 1.59253E-09
 -1       535-1.94264E+06-2.24416E+05-1.44068E+05-7.54774E+05-2.55386E-09 1.83354E-09
 -1       536 2.89145E+03-5.73364E+03 1.32409E+04 1.40294E+02-6.12125E-10-4.44743E-10
 -1       537 8.78612E+03 6.63629E+03 9.39328E+03-5.18803E+02-1.99570E-09 3.99382E-10
 -1       538 5.12891E+03-8.98613E+02 3.42213E+03 1.27200E+02-1.47885E-10 7.91033E-10
 -1       539 6.16655E+03 1.03871E+03 2.16186E+03-4.99407E+02 6.93838E-10 7.16824E-10
 -1       540 5.50987E+03-1.40027E+02 8.68107E+02 1.20921E+02 1.67809E-10 1.69456E-09
 -1       541 5.71287E+03 1.61047E+02 5.07909E+02-4.89023E+02-1.08479E-10 8.86274E-10
 -1       542 5.58194E+03-2.11416E+01 2.12184E+02 1.16802E+02 6.27249E-11 1.14568E-09
 -1       543 5.62279E+03 2.17748E+01 1.08278E+02-4.82631E+02-2.39141E-10-2.26198E-09
 -1       544 5.59961E+03-4.84457E-01 2.83869E+01 1.14510E+02-1.42167E-10-1.69789E-09
 -1       545 5.59428E+03-1.58181E+01-3.16301E+01-4.79811E+02-3.25491E-10-2.96501E-10
 -1       546 5.61034E+03 1.66357E+01-9.16467E+01 1.13970E+02 2.79039E-11-1.22505E-10
 -1       547 5.54201E+03-1.24857E+02-2.52416E+02-4.80447E+02-3.68644E-10-1.54193E-09
 -1       548 5.65189E+03 1.08415E+02-4.11404E+02 1.15149E+02-5.88635E-10-7.28079E-10
 -1       549 5.24063E+03-7.99973E+02-1.12810E+03-4.84442E+02-1.22956E-10 9.27571E-10
 -1       550 5.91191E+03 6.90938E+02-1.60244E+03 1.17984E+02-6.44640E-11 1.63095E-09
 -1       551 1.06636E+03-1.03535E+05 5.93296E+03-1.77654E+05-7.61247E-09-2.15005E-09
 -1       552 1.82743E+03-1.02619E+05 7.41165E+03-2.52661E+05-6.08452E-09 3.29510E-09
 -1       553 9.48444E+02-1.03991E+05 1.15546E+04-1.77113E+05-9.51877E-09 5.06861E-09
 -1       554 7.15564E+03-9.82389E+04 2.45075E+04-2.52899E+05-6.24004E-09 2.64987E-09
 -1       555 8.13701E+03-1.08787E+05 4.41649E+04-1.77389E+05-9.24956E-09-1.47611E-09
 -1       556 1.35073E+04-3.24534E+04 1.16134E+04-4.43876E+04-1.61890E-09-9.82254E-10
 -1       557 2.67692E+04-4.37776E+04 6.04423E+03-5.53322E+04 1.38243E-10 1.72861E-09
 -1       558 1.38927E+04-3.42460E+04 2.52255E+03-4.28180E+04-1.13505E-09-7.08951E-10
 -1       559 2.54729E+04-4.55284E+04 1.25375E+03-5.57852E+04 1.32422E-09-1.31831E-09
 -1       560 1.38329E+04-3.41922E+04 5.59195E+02-4.28274E+04 8.31278E-10-5.36829E-10
 -1       561 2.52572E+04-4.55453E+04 2.78332E+02-5.59145E+04 1.47338E-10 6.34259E-10
 -1       562 1.37583E+04-3.41304E+04 1.22744E+02-4.28853E+04-4.31100E-10-6.09930E-10
 -1       563 2.51551E+04-4.55038E+04 6.31461E+01-5.59790E+04-5.47516E-10-1.47085E-09
 -1       564 1.37103E+04-3.40960E+04 2.47180E+01-4.29213E+04 8.91305E-10-1.10276E-10
 -1       565 2.51029E+04-4.54830E+04 7.92296E+00-5.60103E+04 1.04160E-09-5.54110E-10
 -1       566 1.36951E+04-3.40838E+04-1.01922E+01-4.29338E+04-5.61613E-11-1.20690E-09
 -1       567 2.50888E+04-4.54757E+04-3.52572E+01-5.60025E+04 1.47105E-09-2.95586E-11
 -1       568 1.37215E+04-3.41026E+04-8.18815E+01-4.29306E+04-4.32010E-11-7.46240E-10
 -1       569 2.49430E+04-4.54009E+04-1.96053E+02-5.58105E+04-6.10726E-10 2.72848E-10
 -1       570 1.39324E+04-3.43331E+04-3.87137E+02-4.30097E+04 1.98270E-10 6.90306E-10
 -1       571 4.70685E+04 1.70779E+03 2.52754E+03-1.17262E+04 1.49043E-10 1.20303E-09
 -1       572 4.74460E+04 5.94416E+02 1.23814E+03-1.28542E+04-1.46565E-09-8.76753E-10
 -1       573 4.72232E+04 1.41927E+02 5.50018E+02-1.16958E+04-3.08182E-09-4.39172E-10
 -1       574 4.72689E+04 4.56603E+01 2.75451E+02-1.28886E+04-1.83519E-09-4.13252E-10
 -1       575 4.72422E+04 5.71157E+00 1.29798E+02-1.16917E+04 1.15989E-09 1.95530E-09
 -1       576 4.72457E+04 7.69973E-01 6.59989E+01-1.28932E+04 2.86065E-09 1.15983E-09
 -1       577 4.72450E+04-1.68469E+00 3.24875E+01-1.16912E+04 1.34901E-09 5.14774E-10
 -1       578 4.72425E+04-1.03849E+00 1.76527E+01-1.28937E+04-2.33513E-10 2.61480E-10
 -1       579 4.72460E+04-1.16656E+00 1.08120E+01-1.16912E+04-1.72122E-10 4.98176E-10
 -1       580 4.72432E+04-8.53072E-01 1.00330E+01-1.28929E+04 7.13953E-11-7.93534E-11
 -1       581 4.72472E+04-7.34645E-01 1.37565E+01-1.16919E+04-7.86713E-11-8.00014E-10
 -1       582 4.72470E+04 2.51749E+00 2.60727E+01-1.28858E+04-1.82240E-10-9.04492E-10
 -1       583 4.72474E+04 1.06910E+01 5.04014E+01-1.16983E+04 8.41283E-12-4.01997E-10
 -1       584 4.72655E+04 5.12728E+01 1.12709E+02-1.28334E+04-4.63956E-10-1.29555E-09
 -1       585 4.72357E+04 1.51973E+02 2.29477E+02-1.17444E+04 1.09139E-11-6.03904E-10
 -1       586-6.05331E+02 1.52108E+04-7.87631E+02-4.01987E+04 1.31422E-10-9.08983E-10
 -1       587-1.45844E+02 1.51081E+04-1.00642E+02-4.42361E+04 2.28738E-10-1.03232E-09
 -1       588 1.46330E+02 1.51269E+04 5.30846E+02-4.01745E+04 1.38016E-10-3.28896E-10
 -1       589 7.88228E+02 1.54138E+04 1.56309E+03-4.41990E+04 2.05546E-10-1.29512E-09
 -1       590 2.29410E+03 1.49176E+04 3.35535E+03-4.02358E+04 9.98170E-11-1.45974E-10
 -1       591-1.01131E+04-2.91443E+03-3.40449E+03-5.26390E+03-1.15179E-10-4.52928E-10
 -1       592-1.04316E+04-3.75095E+03-1.84401E+03-6.15214E+03 9.54969E-12 2.87173E-10
 -1       593-1.04570E+04-2.66370E+03-7.67663E+02-5.50952E+03-2.92033E-10-1.76112E-09
 -1       594-9.95687E+03-3.25622E+03-3.82891E+02-6.17544E+03-9.00542E-11 3.30658E-10
 -1       595-1.04832E+04-2.66270E+03-1.75962E+02-5.52070E+03-3.96938E-10-1.37108E-09
 -1       596-9.92461E+03-3.23360E+03-8.97095E+01-6.17194E+03-2.52840E-10 5.28601E-10
 -1       597-1.04865E+04-2.66492E+03-4.93875E+01-5.52112E+03-4.97860E-11-3.47512E-10
 -1       598-9.92159E+03-3.23273E+03-4.06893E+01-6.17104E+03 3.88931E-09 3.49027E-09
 -1       599-1.04863E+04-2.66486E+03-5.31812E+01-5.52110E+03 8.36167E-11 4.38575E-10
 -1       600-9.92522E+03-3.23383E+03-9.97969E+01-6.17209E+03-6.98776E-10-2.29988E-10
 -1       601-1.04824E+04-2.66230E+03-1.97336E+02-5.52054E+03-5.03064E-10-2.36116E-09
 -1       602-9.96169E+03-3.25915E+03-4.30440E+02-6.17582E+03-2.81858E-10-7.22139E-10
 -1       603-1.04528E+04-2.66371E+03-8.63269E+02-5.50812E+03-3.50610E-10 7.74207E-10
 -1       604-1.04976E+04-3.81355E+03-2.07391E+03-6.14723E+03 1.20508E-10 1.07752E-09
 -1       605-1.00638E+04-2.94732E+03-3.82883E+03-5.23392E+03 3.00361E-10 2.01385E-09
 -1       606 6.72655E+03-2.26124E+03-4.07570E+03 6.60174E+03-1.95359E-09 7.00084E-10
 -1       607 6.02884E+03-7.29337E+02-2.02967E+03 7.41088E+03-2.26464E-10 3.78719E-10
 -1       608 6.42924E+03-1.22295E+02-9.08425E+02 6.54904E+03 1.65028E-09-1.66438E-10
 -1       609 6.35210E+03-3.37705E+01-4.59015E+02 7.46931E+03 7.40329E-10 1.25152E-09
 -1       610 6.39736E+03 3.93377E+00-2.18906E+02 6.54317E+03-5.02496E-10-4.76348E-10
 -1       611 6.38446E+03 4.42170E+00-1.10532E+02 7.47574E+03-1.42688E-09-4.58101E-10
 -1       612 6.39159E+03 5.07211E+00-5.26705E+01 6.54258E+03-6.72571E-10-8.21274E-10
 -1       613 6.38801E+03 4.12445E+00-2.40980E+01 7.47654E+03-1.56297E-09-6.63135E-10
 -1       614 6.38944E+03 3.26079E+00-6.61892E+00 6.54237E+03 2.48065E-10 2.06370E-09
 -1       615 6.38842E+03 3.63023E+00 7.46573E+00 7.47670E+03 2.45063E-09 2.36167E-09
 -1       616 6.38779E+03 3.12084E+00 2.48733E+01 6.54242E+03-1.91335E-10 1.06621E-09
 -1       617 6.39219E+03 8.59595E+00 5.75581E+01 7.47659E+03-1.29893E-09 7.20775E-11
 -1       618 6.38325E+03 1.94552E+01 1.16407E+02 6.54246E+03-2.38435E-09-5.91285E-10
 -1       619 6.43375E+03 9.84499E+01 2.61597E+02 7.47647E+03-9.98995E-10-4.59806E-10
 -1       620 6.34479E+03 2.95606E+02 5.25907E+02 6.54243E+03 7.30182E-10 4.05180E-10
 -1       621 8.18398E+01 5.11602E+04 7.02815E+02 1.58363E+03-9.61453E-11 1.41767E-10
 -1       622 9.36145E+01 5.13341E+04 5.97090E+02 2.30880E+03-7.08553E-11 2.06417E-09
 -1       623 4.44102E+00 5.12106E+04 6.87498E+02 1.57606E+03-6.43254E-11 2.30915E-09
 -1       624 3.11993E+02 5.15349E+04 1.30627E+03 2.31635E+03-2.61480E-11-8.97060E-11
 -1       625 3.12922E+02 5.09591E+04 2.27124E+03 1.57611E+03-4.10409E-11 7.10493E-10
 -1       626 4.23070E+04 1.17423E+04 8.51558E+02 2.28932E+04-1.78034E-10-1.62117E-09
 -1       627 4.17266E+04 1.21682E+04 4.10044E+02 2.38240E+04-3.47313E-10-3.07466E-09
 -1       628 4.23427E+04 1.13382E+04 1.73451E+02 2.30234E+04 4.72255E-10 1.72889E-09
 -1       629 4.16075E+04 1.20701E+04 8.48592E+01 2.38827E+04 1.06411E-09 1.58016E-09
 -1       630 4.23478E+04 1.13174E+04 3.93725E+01 2.30286E+04-2.21303E-09-7.79301E-09
 -1       631 4.15954E+04 1.20669E+04 2.10668E+01 2.38854E+04-2.31921E-10-4.45546E-10
 -1       632 4.23479E+04 1.13177E+04 1.39394E+01 2.30281E+04-1.44587E-09-2.34971E-09
 -1       633 4.15942E+04 1.20674E+04 1.54470E+01 2.38852E+04-8.13202E-10-3.99211E-10
 -1       634 4.23469E+04 1.13172E+04 2.50200E+01 2.30278E+04 3.62297E-09 6.61589E-09
 -1       635 4.15961E+04 1.20674E+04 5.06996E+01 2.38857E+04 1.20247E-09-2.93994E-10
 -1       636 4.23446E+04 1.13167E+04 1.02462E+02 2.30273E+04-4.71886E-10-2.16630E-10
 -1       637 4.16170E+04 1.20837E+04 2.25225E+02 2.38847E+04 2.78141E-10 4.71232E-11
 -1       638 4.23353E+04 1.13673E+04 4.62995E+02 2.30039E+04-1.05047E-10-1.13539E-09
 -1       639 4.18582E+04 1.24229E+04 1.09536E+03 2.38121E+04-6.60833E-10-7.86827E-10
 -1       640 4.23013E+04 1.23765E+04 2.27336E+03 2.25755E+04-5.98220E-10 1.89289E-10
 -1       656 1.14660E+04-2.90305E+05-2.76919E+04-3.40014E+02 7.27596E-12-2.62273E-09
 -1       657-1.51496E+04-3.02823E+05-2.29014E+04 1.91170E+03 2.86491E-10-3.02703E-09
 -1       658 3.63468E+03-2.93880E+05-1.40561E+04-4.10325E+02-2.17369E-10-5.89278E-10
 -1       659-1.62413E+04-3.03334E+05-2.43349E+04 1.95750E+03-4.18368E-10-1.18062E-09
 -1       660 1.25544E+04-2.89795E+05-3.01631E+04-3.85811E+02-2.21917E-10-1.69846E-09
 -1       661 4.13269E+04 4.47297E+03 3.95930E+03 1.61122E+04 7.91260E-11-1.54159E-09
 -1       662 4.33646E+04 7.60261E+03 2.66788E+03 1.54508E+04 1.67503E-10 7.12106E-10
 -1       663 4.20998E+04 5.74772E+03 9.33253E+02 1.58918E+04-6.29001E-10 4.41105E-11
 -1       664 4.24722E+04 6.10834E+03 5.57881E+02 1.57166E+04-3.64480E-10 1.00096E-09
 -1       665 4.22134E+04 5.92538E+03 2.20113E+02 1.58622E+04-3.78691E-10 9.72094E-11
 -1       666 4.23409E+04 5.90206E+03 1.28285E+02 1.57528E+04-9.82482E-10 8.16315E-10
 -1       667 4.22304E+04 5.94870E+03 6.76805E+01 1.58576E+04-1.69351E-10-3.32780E-10
 -1       668 4.23247E+04 5.88102E+03 6.77113E+01 1.57580E+04 5.19719E-10-1.41790E-09
 -1       669 4.22295E+04 5.94590E+03 9.07848E+01 1.58571E+04 1.77955E-10 6.87734E-11
 -1       670 4.23516E+04 5.92498E+03 1.96701E+02 1.57533E+04 1.99952E-09 9.40656E-10
 -1       671 4.22036E+04 5.90568E+03 3.49036E+02 1.58620E+04 1.46843E-10 6.26073E-10
 -1       672 4.25588E+04 6.26072E+03 8.92742E+02 1.56998E+04-1.87117E-09 8.32316E-10
 -1       673 4.20234E+04 5.61868E+03 1.49605E+03 1.59073E+04-5.85970E-10-5.37909E-10
 -1       674 4.39867E+04 8.66097E+03 4.27867E+03 1.52773E+04-6.06974E-10-3.63138E-09
 -1       675 4.07851E+04 3.57259E+03 6.35051E+03 1.62593E+04 3.37423E-10 1.52977E-09
 -1       676 4.67763E+00-5.57992E+04-2.17250E+02 2.82091E+00 1.50493E-11-1.27213E-09
 -1       677-5.76658E+01-5.58518E+04-3.97562E+02-5.64297E+00-1.57076E-09-1.60093E-10
 -1       678 3.84958E+01-5.57618E+04-7.02771E+02 2.81996E+00 4.27946E-10 1.31815E-09
 -1       679-7.02788E+02-5.62759E+04-1.66930E+03-5.63596E+00-9.82794E-10-2.97742E-11
 -1       680 4.19356E+02-5.53752E+04-2.69039E+03 2.78136E+00 4.89649E-10 4.03427E-10
 -1       771-6.01092E+05-1.03798E+05-1.44438E+04-2.48507E+05-2.26828E-09-1.97542E-09
 -1       772-5.97115E+05-1.12389E+05-7.79688E+03-2.58066E+05-1.51249E-09 1.05683E-09
 -1       773-6.02857E+05-1.02443E+05-3.28268E+03-2.49311E+05-8.02174E-10 8.37645E-10
 -1       774-5.94935E+05-1.10564E+05-1.62107E+03-2.58581E+05 1.38334E-09-3.84034E-10
 -1       775-6.03079E+05-1.02341E+05-7.63341E+02-2.49351E+05-6.14818E-10 8.18545E-11
 -1       776-5.94822E+05-1.10508E+05-3.66009E+02-2.58721E+05-8.97671E-10 4.40650E-10
 -1       777-6.03183E+05-1.02282E+05-1.89323E+02-2.49360E+05 2.54659E-10 4.37012E-10
 -1       778-5.94832E+05-1.10521E+05-8.99271E+01-2.58831E+05-1.74623E-10 9.88621E-10
 -1       779-6.03257E+05-1.02230E+05-6.35275E+01-2.49367E+05-7.56700E-10-6.08679E-10
 -1       780-5.94855E+05-1.10539E+05-4.83476E+01-2.58922E+05-4.16549E-10 5.63887E-11
 -1       781-6.03309E+05-1.02184E+05-7.33558E+01-2.49370E+05-1.98634E-09-3.22757E-10
 -1       782-5.94883E+05-1.10559E+05-1.34537E+02-2.58989E+05-2.38651E-09-7.05313E-10
 -1       783-6.03336E+05-1.02156E+05-2.65542E+02-2.49369E+05 9.33596E-10 2.57134E-09
 -1       784-5.95052E+05-1.10735E+05-6.29534E+02-2.59022E+05-1.32559E-09-1.15506E-10
 -1       785-6.03239E+05-1.02225E+05-1.16315E+03-2.49285E+05-2.40539E-09 2.69665E-10
 -1       786 4.31172E+04-2.31713E+03 5.36008E+03 1.90622E+00 1.18806E-09 4.25871E-10
 -1       787 4.54399E+04 2.68248E+03 3.79232E+03-7.49480E+00 1.97400E-09 8.33779E-10
 -1       788 4.40133E+04-3.63232E+02 1.38729E+03 1.96171E+00 1.40530E-08 4.85898E-10
 -1       789 4.43960E+04 4.20278E+02 8.71642E+02-7.83207E+00 2.60428E-08 2.20368E-10
 -1       790 4.41612E+04-5.67411E+01 3.54626E+02 2.24364E+00 4.75443E-08-1.95766E-09
 -1       791 4.42234E+04 6.59183E+01 2.08164E+02-8.63804E+00 6.90151E-08 2.99498E-09
 -1       792 4.41859E+04-9.13623E+00 9.49113E+01 2.76752E+00 1.10384E-07-2.09939E-09
 -1       793 4.41954E+04 1.27931E+01 6.20097E+01-9.96745E+00 1.51794E-07-2.79021E-09
 -1       794 4.41891E+04-3.63698E+00 4.56575E+01 3.57267E+00 2.32394E-07-1.66354E-09
 -1       795 4.41980E+04 1.87252E+01 6.56363E+01-1.19152E+01 3.13441E-07 2.42568E-09
 -1       796 4.41834E+04-1.50252E+01 9.80853E+01 4.71480E+00 4.55201E-07-4.23552E-09
 -1       797 4.42424E+04 1.10336E+02 2.31046E+02-1.46145E+01 5.97807E-07 1.85903E-09
 -1       798 4.41448E+04-9.51372E+01 3.64666E+02 6.27168E+00 7.65460E-07-1.75640E-09
 -1       799 4.45158E+04 7.02717E+02 9.94011E+02-1.82798E+01 9.31009E-07 2.95853E-09
 -1       800 4.39100E+04-6.06937E+02 1.40423E+03 8.38027E+00 4.66742E-07 1.43245E-10
 -1       801-2.00460E+03 9.01181E+03 5.02907E+03 1.19438E+03 1.64061E-09-2.35373E-09
 -1       802 6.26950E+03 1.88493E+04 1.20230E+04-4.86018E+03 2.47599E-09-1.58609E-09
 -1       803-4.24409E+03 1.08171E+04 1.65859E+04 1.10365E+03 6.27733E-09 4.25577E-09
 -1       804 3.17424E+04 3.12597E+04 4.52111E+04-4.94807E+03 1.34605E-10 4.42002E-09
 -1       805-2.74753E+04-3.38978E+03 6.17111E+04 1.28179E+03 4.04179E-09 8.11789E-09
 -1       806-5.13968E+04-1.09660E+04-4.34972E+03-2.13541E+04 2.46087E-09 2.24441E-09
 -1       807-5.16577E+04-1.03382E+04-2.13690E+03-2.25020E+04 7.80432E-10-2.11526E-09
 -1       808-5.15202E+04-9.39463E+03-9.06525E+02-2.20924E+04-1.10612E-09 2.16131E-09
 -1       809-5.12021E+04-9.74456E+03-4.43193E+02-2.25636E+04-1.32218E-09 2.59540E-09
 -1       810-5.15398E+04-9.33901E+03-2.02922E+02-2.21251E+04-3.07068E-10 1.79284E-09
 -1       811-5.11675E+04-9.72099E+03-1.00649E+02-2.25587E+04-3.20568E-10 4.41389E-10
 -1       812-5.15437E+04-9.34282E+03-5.01885E+01-2.21253E+04 1.49271E-10 7.14635E-10
 -1       813-5.11635E+04-9.72146E+03-3.16886E+01-2.25566E+04 2.71405E-09 5.99107E-09
 -1       814-5.15438E+04-9.34393E+03-2.96629E+01-2.21249E+04 3.44471E-11-3.31852E-10
 -1       815-5.11647E+04-9.72180E+03-4.65599E+01-2.25566E+04-1.65983E-10 4.59721E-10
 -1       816-5.15416E+04-9.34304E+03-8.71711E+01-2.21247E+04-2.16801E-10 2.65345E-10
 -1       817-5.11804E+04-9.72995E+03-1.87149E+02-2.25559E+04 4.26553E-10-6.69957E-10
 -1       818-5.15316E+04-9.36866E+03-3.81294E+02-2.21127E+04 2.89447E-10-2.23622E-10
 -1       819-5.13918E+04-9.95883E+03-8.97771E+02-2.25060E+04-5.38591E-10-1.16228E-09
 -1       820-5.14599E+04-1.00471E+04-1.82692E+03-2.18238E+04 2.41243E-10 4.83084E-10
 -1       821-6.61978E+04 3.67682E+03-8.50487E+03-6.18772E+00-2.22639E-10-1.20053E-10
 -1       822-6.98829E+04-4.25628E+03-6.01788E+03-6.20792E-01-9.34478E-10 1.80421E-10
 -1       823-6.76195E+04 5.76592E+02-2.20270E+03-1.31298E+01 6.12530E-10 9.81913E-10
 -1       824-6.82266E+04-6.66962E+02-1.38633E+03 1.26085E+01-9.30307E-11 2.71868E-09
 -1       825-6.78540E+04 9.03761E+01-5.69363E+02-1.94168E+01-9.83679E-10 9.50820E-10
 -1       826-6.79541E+04-1.06419E+02-3.44632E+02 2.38556E+01 8.60549E-09 1.89206E-09
 -1       827-6.78923E+04 1.61308E+01-1.77643E+02-2.43781E+01 3.02525E-06-3.33707E-09
 -1       828-6.79162E+04-3.25660E+01-1.57904E+02 3.19244E+01 6.03800E-06-3.99316E-11
 -1       829-6.78920E+04 1.64473E+01-1.80379E+02-2.74877E+01 4.02204E-06-2.41958E-09
 -1       830-6.79558E+04-1.09051E+02-3.52637E+02 3.59593E+01 1.99163E-06-1.17403E-10
 -1       831-6.78526E+04 9.26529E+01-5.83684E+02-2.84145E+01-1.14270E-06 9.86091E-10
 -1       832-6.82357E+04-6.84406E+02-1.42224E+03 3.55756E+01-4.27711E-06-4.11433E-10
 -1       833-6.76121E+04 5.91404E+02-2.25986E+03-2.71042E+01-7.29564E-06 3.33171E-09
 -1       834-6.99351E+04-4.36708E+03-6.17436E+03 3.10358E+01-1.02827E-05 1.62879E-09
 -1       835-6.61534E+04 3.77230E+03-8.72585E+03-2.38729E+01-5.16039E-06 4.68071E-09
 -1       836-2.21301E+02 6.28312E+04 3.78136E+03-5.45679E+03 5.33532E-10 8.85052E-10
 -1       837 8.26796E+02 6.40052E+04 3.22744E+03-1.09771E+04 7.15659E-10-6.86896E-10
 -1       838-8.43636E+01 6.31600E+04 3.32826E+03-5.43691E+03 6.15842E-10-2.13078E-10
 -1       839 2.13005E+03 6.49813E+04 6.33568E+03-1.09850E+04 7.71252E-10-1.91257E-10
 -1       840-6.45618E+02 6.18528E+04 1.01191E+04-5.44874E+03 5.68434E-10 7.19353E-10
 -1       856-2.09206E+04 1.78263E+03-4.69672E+03-9.39859E+01-5.47772E-10 2.00725E-09
 -1       857-2.28615E+04-2.09154E+03-3.23389E+03 1.08721E+03-7.46738E-10-7.45786E-10
 -1       858-2.16874E+04 2.49961E+02-1.21889E+03-9.58336E+01-1.37655E-09-7.48798E-10
 -1       859-2.19800E+04-2.91757E+02-7.36342E+02 1.08995E+03-2.68262E-10 4.44288E-10
 -1       860-2.18023E+04 3.49000E+01-3.09588E+02-9.67329E+01 4.78458E-10-8.97643E-10
 -1       861-2.18474E+04-3.99134E+01-1.72541E+02 1.09112E+03-2.14323E-09-2.17049E-10
 -1       862-2.18202E+04 4.75313E+00-7.61357E+01-9.70076E+01 1.35926E-09 1.76925E-11
 -1       863-2.18262E+04-4.41703E+00-3.77514E+01 1.09125E+03 2.25626E-09-1.86400E-09
 -1       864-2.18234E+04 1.54302E-01-1.20359E+01-9.68629E+01 1.26286E-09-1.50971E-09
 -1       865-2.18206E+04 3.72932E+00 6.47462E+00 1.09042E+03 1.56547E-09-1.88079E-09
 -1       866-2.18257E+04-3.32782E+00 2.48262E+01-9.61726E+01-4.23157E-10-1.85029E-09
 -1       867-2.18069E+04 2.84290E+01 6.81622E+01 1.08858E+03 1.07664E-09-1.09997E-09
 -1       868-2.18369E+04-2.40548E+01 1.15549E+02-9.50236E+01 1.12044E-09 1.56788E-10
 -1       869-2.17217E+04 2.00898E+02 3.09472E+02 1.08498E+03-1.56143E-09-1.58097E-09
 -1       870-2.19106E+04-1.71032E+02 4.49704E+02-9.25768E+01-4.31584E-11-8.06040E-10
 -1       871-9.53450E+02-2.00062E+03-3.14774E+03 2.06576E+04 1.04478E-09 1.61344E-09
 -1       872-4.08022E+02-2.70244E+03-1.28197E+03 2.67801E+04 1.31581E-09-7.30779E-10
 -1       873-2.48756E-01-2.36514E+03 1.88904E+02 2.06113E+04 4.59920E-10 1.51277E-09
 -1       874 4.98568E+02-1.90838E+03 1.79956E+03 2.67900E+04 1.43200E-09 2.20757E-09
 -1       875 1.16719E+03-2.79791E+03 3.98895E+03 2.06483E+04 6.28688E-10-1.33275E-09
 -1       876 5.17805E+04 8.90332E+03 2.77628E+03 2.09828E+04-1.29330E-09 6.94627E-10
 -1       877 5.19395E+04 9.51198E+03 1.48251E+03 2.18043E+04-1.54091E-09 1.40091E-10
 -1       878 5.20409E+04 8.59531E+03 6.21169E+02 2.12105E+04 6.93490E-10-6.20446E-10
 -1       879 5.15620E+04 9.13611E+03 3.09376E+02 2.18252E+04-1.02773E-10 4.70507E-10
 -1       880 5.20605E+04 8.59133E+03 1.44067E+02 2.12198E+04 2.71200E-10 2.16284E-09
 -1       881 5.15371E+04 9.12031E+03 7.66851E+01 2.18221E+04 1.11891E-09-6.92381E-10
 -1       882 5.20628E+04 8.59324E+03 4.86999E+01 2.12201E+04 1.42438E-09 6.10878E-10
 -1       883 5.15353E+04 9.11966E+03 5.17321E+01 2.18214E+04 2.10591E-10 1.82970E-09
 -1       884 5.20620E+04 8.59249E+03 8.17633E+01 2.12201E+04 2.26478E-10 1.26511E-09
 -1       885 5.15418E+04 9.12086E+03 1.64062E+02 2.18236E+04 1.02832E-09 1.09556E-09
 -1       886 5.20556E+04 8.58772E+03 3.30535E+02 2.12195E+04 8.01940E-10-9.72705E-10
 -1       887 5.16000E+04 9.15889E+03 7.22002E+02 2.18318E+04-3.68914E-10-2.90669E-09
 -1       888 5.20098E+04 8.59599E+03 1.45492E+03 2.11964E+04 1.71568E-09 4.85034E-09
 -1       889 5.24671E+04 1.00591E+04 3.47594E+03 2.18037E+04 7.18311E-10 6.35964E-10
 -1       890 5.14159E+04 9.30082E+03 6.50988E+03 2.06422E+04 1.33826E-09 1.20235E-09
 -1       891-2.87629E+01-2.94542E+04-3.45881E+02 5.59447E+03 4.54918E-10 2.80630E-09
 -1       892-5.04363E+01-2.95400E+04-3.77184E+02 8.47072E+03 2.19586E-10 1.30882E-09
 -1       893-4.26009E+00-2.94670E+04-5.39499E+02 5.59537E+03 6.93490E-11 9.54969E-11
 -1       894-2.87334E+02-2.97524E+04-1.12124E+03 8.44111E+03-8.07518E-10-1.14301E-09
 -1       895-2.22746E+02-2.92378E+04-1.97512E+03 5.62397E+03-4.42242E-10-1.10344E-09
 -1       956-6.50076E+04-9.37373E+02-2.35819E+03 4.29618E+03-8.66635E-10-1.53159E-09
 -1       957-6.54727E+04-3.17740E+02-1.21076E+03 5.16876E+03-5.02610E-10-1.18081E-09
 -1       958-6.52149E+04-2.67237E+01-5.45335E+02 4.26869E+03 5.17048E-10-9.93509E-10
 -1       959-6.52508E+04-7.32530E+00-2.78631E+02 5.19852E+03-3.01952E-10 1.15517E-09
 -1       960-6.52318E+04 5.15684E+00-1.35738E+02 4.26630E+03-8.56289E-10 6.30394E-10
 -1       961-6.52329E+04 3.39142E+00-7.20224E+01 5.20114E+03-1.88720E-09-9.75547E-10
 -1       962-6.52343E+04 3.41428E+00-4.11033E+01 4.26606E+03-6.23174E-10 6.10214E-10
 -1       963-6.52311E+04 3.07455E+00-3.28477E+01 5.20144E+03-1.04944E-09 1.91719E-09
 -1       964-6.52345E+04 3.48719E+00-3.96230E+01 4.26599E+03-1.99066E-10-1.52733E-09
 -1       965-6.52333E+04 3.59917E+00-6.82630E+01 5.20139E+03 8.49080E-10-2.20467E-09
 -1       966-6.52325E+04 5.35189E+00-1.27966E+02 4.26612E+03-4.65633E-10-8.59075E-10
 -1       967-6.52505E+04-6.23766E+00-2.62371E+02 5.19987E+03 9.18590E-11 1.40662E-09
 -1       968-6.52170E+04-2.44179E+01-5.13314E+02 4.26752E+03-2.53465E-10 5.06631E-10
 -1       969-6.54599E+04-2.98201E+02-1.13968E+03 5.18245E+03-7.99787E-11-7.20703E-11
 -1       970-6.50223E+04-8.81438E+02-2.21966E+03 4.28373E+03 1.14824E-11 1.43450E-09
 -1       971-6.17999E+04-3.27694E+02-1.81971E+03 3.06827E+03-1.36413E-09-8.81627E-10
 -1       972-6.22420E+04-2.37050E+02-9.91268E+02 4.27416E+03-1.05683E-09-1.14244E-09
 -1       973-6.20004E+04-3.73316E+00-4.43586E+02 3.04385E+03-1.13062E-09 1.37442E-09
 -1       974-6.20297E+04-5.88849E+00-2.29920E+02 4.30020E+03 7.01448E-10 1.51556E-09
 -1       975-6.20144E+04 3.56844E+00-1.14514E+02 3.04215E+03 2.04636E-10 3.30971E-10
 -1       976-6.20153E+04 2.54986E+00-6.56369E+01 4.30204E+03-1.10444E-09 9.64718E-10
 -1       977-6.20163E+04 2.71447E+00-4.66717E+01 3.04200E+03 8.95398E-10 7.88987E-11
 -1       978-6.20148E+04 2.97380E+00-5.34110E+01 4.30223E+03 3.08553E-09-7.73355E-10
 -1       979-6.20158E+04 3.77904E+00-8.46838E+01 3.04196E+03 7.47818E-10-6.65921E-10
 -1       980-6.20207E+04 3.32674E+00-1.62807E+02 4.30220E+03 1.37955E-09-5.06986E-10
 -1       981-6.20107E+04 7.88686E+00-3.14874E+02 3.04202E+03-5.38847E-10-1.51417E-09
 -1       982-6.20644E+04-1.96091E+01-6.50585E+02 4.30119E+03-1.42307E-09-1.61459E-09
 -1       983-6.19717E+04-1.17590E+01-1.26383E+03 3.04298E+03 4.58670E-10 1.12124E-10
 -1       984-6.26735E+04-6.78753E+02-2.83004E+03 4.28459E+03 9.73046E-10 2.07143E-09
 -1       985-6.14006E+04-9.35981E+02-5.19680E+03 3.05898E+03 1.19826E-09 3.75849E-10
 -3
    1PSTEP                         3           2           1          
  100CL  102 2.50000E-01         409                     0    2           1
 -4  DISP        4    1
 -5  D1          1    2    1    0
 -5  D2          1    2    2    0
 -5  D3          1    2    3    0
 -5  ALL         1    2    0    0    1ALL
 -1         1 6.52421E-05 0.00000E+00 0.00000E+00
 -1         2 6.02769E-05-4.91904E-30 0.00000E+00
 -1         3 5.54805E-05 4.56006E-28-3.30872E-24
 -1         5 4.00643E-05-2.11277E-26 0.00000E+00
 -1         8 5.20756E-05-4.68878E-07 0.00000E+00
 -1         9 5.29015E-05 3.10239E-07 0.00000E+00
 -1        10 5.14405E-05-7.60165E-07 0.00000E+00
 -1        12 3.97762E-05 2.72016E-07 8.27181E-25
 -1        15 3.64128E-05-5.01500E-07 0.00000E+00
 -1        16 3.76719E-05 2.49642E-07 0.00000E+00
 -1        17 3.83847E-05-1.59261E-06 0.00000E+00
 -1        18 3.83855E-05 5.43924E-08 0.00000E+00
 -1        19 3.89122E-05 5.42561E-07 0.00000E+00
 -1        20 3.89842E-05 8.11780E-06 0.00000E+00
 -1        21 3.87133E-05 1.53564E-05 0.00000E+00
 -1        24 9.82201E-06-2.11751E-06 0.00000E+00
 -1        25 3.74655E-05 1.16493E-07 0.00000E+00
 -1        26 3.79585E-05 7.55955E-07 0.00000E+00
 -1        27 3.72066E-05 6.90709E-06 0.00000E+00
 -1        28 3.69633E-05 1.51236E-05 0.00000E+00
 -1        32 0.00000E+00 0.00000E+00 0.00000E+00
 -1        33 3.63564E-05 1.01397E-06 0.00000E+00
 -1        34 3.56285E-05 6.89642E-06 0.00000E+00
 -1        35 3.49369E-05 1.50009E-05 0.00000E+00
 -1        51 6.43853E-05-7.81478E-08 0.00000E+00
 -1        52 6.27978E-05-1.53941E-07 0.00000E+00
 -1        53 6.06233E-05-2.29978E-07 0.00000E+00
 -1        54 5.80114E-05-3.06972E-07 0.00000E+00
 -1        55 5.51121E-05-3.85449E-07 2.89513E-24
 -1        56 6.46397E-05-3.64441E-07-1.32349E-23
 -1        57 6.40971E-05-9.55937E-07-6.61744E-24
 -1        58 6.36161E-05-1.70814E-06-1.32349E-23
 -1        59 6.31691E-05-2.56275E-06 0.00000E+00
 -1        60 6.27360E-05-3.45487E-06 2.64698E-23
 -1        61 6.22923E-05-4.32066E-06 0.00000E+00
 -1        62 6.18149E-05-5.09677E-06 0.00000E+00
 -1        63 6.12807E-05-5.72153E-06 0.00000E+00
 -1        64 6.06685E-05-6.13803E-06 2.64698E-23
 -1        65 5.99581E-05-6.29266E-06 0.00000E+00
 -1        66 5.91327E-05-6.14023E-06 2.64698E-23
 -1        67 5.81773E-05-5.64024E-06-1.32349E-23
 -1        68 5.70805E-05-4.76369E-06 2.64698E-23
 -1        69 5.58367E-05-3.48611E-06 0.00000E+00
 -1        70 5.44371E-05-1.79876E-06 0.00000E+00
 -1        86 6.00805E-05 5.52856E-08 0.00000E+00
 -1        87 5.94908E-05 1.10130E-07 8.27181E-25
 -1        88 5.84959E-05 1.64622E-07-8.27181E-25
 -1        89 5.70829E-05 2.16793E-07-5.16988E-26
 -1        90 5.52268E-05 2.68887E-07-1.65436E-24
 -1       121 5.53679E-05-1.26360E-07 0.00000E+00
 -1       122 5.50305E-05-2.52771E-07 0.00000E+00
 -1       123 5.44685E-05-3.79285E-07 0.00000E+00
 -1       124 5.36823E-05-5.05972E-07-1.65436E-24
 -1       125 5.26726E-05-6.32847E-07-3.30872E-24
 -1       191 4.00563E-05 4.53391E-08 1.65436E-24
 -1       192 4.00323E-05 9.06775E-08-8.27181E-25
 -1       193 3.99923E-05 1.36016E-07 0.00000E+00
 -1       194 3.99362E-05 1.81352E-07-8.27181E-25
 -1       195 3.98642E-05 2.26686E-07 0.00000E+00
 -1       251 5.21164E-05 1.69858E-06 1.65436E-24
 -1       252 5.21681E-05 2.99384E-06 5.16988E-26
 -1       253 5.22200E-05 3.55988E-06 0.00000E+00
 -1       254 5.22737E-05 3.53792E-06 8.27181E-25
 -1       255 5.23275E-05 3.05255E-06 0.00000E+00
 -1       256 5.23813E-05 2.22729E-06-8.27181E-25
 -1       257 5.24350E-05 1.17599E-06-1.65436E-24
 -1       258 5.24887E-05 1.19567E-08-8.27181E-25
 -1       259 5.25423E-05-1.15473E-06 1.65436E-24
 -1       260 5.25960E-05-2.21396E-06 0.00000E+00
 -1       261 5.26499E-05-3.05258E-06 0.00000E+00
 -1       262 5.27036E-05-3.55694E-06-8.27181E-25
 -1       263 5.27573E-05-3.60384E-06-8.27181E-25
 -1       264 5.28091E-05-3.06904E-06 0.00000E+00
 -1       265 5.28609E-05-1.81182E-06 0.00000E+00
 -1       266 4.94651E-05-4.80806E-07 0.00000E+00
 -1       267 4.68547E-05-4.85452E-07 0.00000E+00
 -1       268 4.42442E-05-4.90559E-07 0.00000E+00
 -1       269 4.16337E-05-4.94300E-07 0.00000E+00
 -1       270 3.90233E-05-4.98008E-07 0.00000E+00
 -1       271 5.04914E-05 1.47062E-06 1.32349E-23
 -1       272 4.91490E-05 2.69252E-06 1.32349E-23
 -1       273 4.80420E-05 3.29160E-06 0.00000E+00
 -1       274 4.71309E-05 3.35760E-06-1.32349E-23
 -1       275 4.63825E-05 2.98879E-06 2.64698E-23
 -1       276 4.57585E-05 2.28630E-06 0.00000E+00
 -1       277 4.52199E-05 1.35506E-06 2.64698E-23
 -1       278 4.47268E-05 3.02051E-07-1.32349E-23
 -1       279 4.42387E-05-7.64440E-07 0.00000E+00
 -1       280 4.37152E-05-1.73598E-06 0.00000E+00
 -1       281 4.31160E-05-2.50519E-06-2.64698E-23
 -1       282 4.24019E-05-2.96660E-06 0.00000E+00
 -1       283 4.15344E-05-3.01809E-06-2.64698E-23
 -1       284 4.04788E-05-2.56062E-06 0.00000E+00
 -1       285 3.91964E-05-1.50245E-06 0.00000E+00
 -1       301 5.03227E-05 2.97025E-07-3.30872E-24
 -1       302 4.77443E-05 2.91617E-07-8.27181E-25
 -1       303 4.51781E-05 2.86435E-07 0.00000E+00
 -1       304 4.26361E-05 2.80383E-07 1.65436E-24
 -1       305 4.01301E-05 2.73106E-07 0.00000E+00
 -1       306 5.12718E-05 2.18970E-06 0.00000E+00
 -1       307 4.98991E-05 3.30639E-06 1.32349E-23
 -1       308 4.87981E-05 3.70606E-06 0.00000E+00
 -1       309 4.79417E-05 3.43949E-06 1.32349E-23
 -1       310 4.72946E-05 2.61437E-06 0.00000E+00
 -1       311 4.68107E-05 1.35044E-06-1.32349E-23
 -1       312 4.64327E-05-1.96971E-07 0.00000E+00
 -1       313 4.60999E-05-1.86582E-06-1.32349E-23
 -1       314 4.57481E-05-3.48403E-06 0.00000E+00
 -1       315 4.53139E-05-4.88081E-06 0.00000E+00
 -1       316 4.47398E-05-5.90349E-06 0.00000E+00
 -1       317 4.39729E-05-6.40842E-06 1.32349E-23
 -1       318 4.29736E-05-6.29371E-06-2.64698E-23
 -1       319 4.17143E-05-5.47075E-06 1.32349E-23
 -1       320 4.01756E-05-3.91174E-06 0.00000E+00
 -1       336 4.99573E-05-8.97794E-07 0.00000E+00
 -1       337 4.81942E-05-1.03605E-06 0.00000E+00
 -1       338 4.61531E-05-1.17477E-06 0.00000E+00
 -1       339 4.38361E-05-1.31388E-06 1.65436E-24
 -1       340 4.12456E-05-1.45365E-06 0.00000E+00
 -1       406 3.96722E-05 3.17340E-07-1.65436E-24
 -1       407 3.95521E-05 3.62647E-07-8.27181E-25
 -1       408 3.94161E-05 4.07924E-07 0.00000E+00
 -1       409 3.92640E-05 4.53116E-07 0.00000E+00
 -1       410 3.90960E-05 4.98134E-07-1.65436E-24
 -1       521 3.54057E-05 1.64724E-06-2.64698E-23
 -1       522 3.34268E-05 2.13106E-06 0.00000E+00
 -1       523 3.17706E-05 1.76515E-06 0.00000E+00
 -1       524 3.03941E-05 6.26551E-07-2.64698E-23
 -1       525 2.92416E-05-1.11143E-06 5.29396E-23
 -1       526 2.82381E-05-3.25303E-06-2.64698E-23
 -1       527 2.72942E-05-5.55475E-06 5.29396E-23
 -1       528 2.63165E-05-7.76680E-06 0.00000E+00
 -1       529 2.52158E-05-9.64952E-06-5.29396E-23
 -1       530 2.39080E-05-1.09776E-05-2.64698E-23
 -1       531 2.23324E-05-1.15901E-05 5.29396E-23
 -1       532 2.04409E-05-1.13568E-05 0.00000E+00
 -1       533 1.82194E-05-1.02460E-05 0.00000E+00
 -1       534 1.56777E-05-8.26042E-06 0.00000E+00
 -1       535 1.28437E-05-5.51098E-06-2.64698E-23
 -1       536 3.83774E-05 1.06916E-06-1.65436E-24
 -1       537 3.83756E-05 3.06688E-06-4.13590E-25
 -1       538 3.83746E-05 4.47087E-06-4.13590E-25
 -1       539 3.83750E-05 5.35144E-06 0.00000E+00
 -1       540 3.83756E-05 5.77790E-06 5.16988E-26
 -1       541 3.83766E-05 5.81952E-06 0.00000E+00
 -1       542 3.83774E-05 5.54476E-06-6.46235E-27
 -1       543 3.83783E-05 5.02209E-06 0.00000E+00
 -1       544 3.83790E-05 4.31942E-06 2.58494E-26
 -1       545 3.83797E-05 3.50467E-06-1.29247E-26
 -1       546 3.83803E-05 2.64550E-06 0.00000E+00
 -1       547 3.83810E-05 1.80960E-06 0.00000E+00
 -1       548 3.83817E-05 1.06467E-06-1.03398E-25
 -1       549 3.83827E-05 4.78432E-07 0.00000E+00
 -1       550 3.83838E-05 1.18982E-07-2.06795E-25
 -1       551 3.45953E-05-1.67353E-06 0.00000E+00
 -1       552 3.00617E-05-1.75614E-06 1.24077E-24
 -1       553 2.50488E-05-1.84107E-06 1.65436E-24
 -1       554 1.98257E-05-1.92833E-06 0.00000E+00
 -1       555 1.46612E-05-2.01676E-06-6.61744E-24
 -1       556 3.73940E-05 9.79978E-07 0.00000E+00
 -1       557 3.66376E-05 2.94399E-06 0.00000E+00
 -1       558 3.60898E-05 4.35573E-06 0.00000E+00
 -1       559 3.57276E-05 5.27589E-06 0.00000E+00
 -1       560 3.55276E-05 5.76500E-06 0.00000E+00
 -1       561 3.54666E-05 5.88392E-06 0.00000E+00
 -1       562 3.55217E-05 5.69351E-06 0.00000E+00
 -1       563 3.56699E-05 5.25472E-06-1.65436E-24
 -1       564 3.58883E-05 4.62848E-06 0.00000E+00
 -1       565 3.61541E-05 3.87577E-06 0.00000E+00
 -1       566 3.64444E-05 3.05756E-06-4.13590E-25
 -1       567 3.67364E-05 2.23485E-06 2.06795E-25
 -1       568 3.70073E-05 1.46860E-06 0.00000E+00
 -1       569 3.72342E-05 8.19726E-07 0.00000E+00
 -1       570 3.73944E-05 3.49165E-07 0.00000E+00
 -1       571 3.84174E-05 1.05618E-07-2.06795E-25
 -1       572 3.84501E-05 1.35203E-07 2.06795E-25
 -1       573 3.84830E-05 1.47002E-07 8.27181E-25
 -1       574 3.85160E-05 1.45073E-07 0.00000E+00
 -1       575 3.85490E-05 1.33492E-07-8.27181E-25
 -1       576 3.85820E-05 1.16362E-07 0.00000E+00
 -1       577 3.86150E-05 9.77879E-08-8.27181E-25
 -1       578 3.86481E-05 8.18792E-08 0.00000E+00
 -1       579 3.86811E-05 7.27449E-08-1.65436E-24
 -1       580 3.87142E-05 7.44945E-08-8.27181E-25
 -1       581 3.87472E-05 9.12365E-08 0.00000E+00
 -1       582 3.87802E-05 1.27075E-07 0.00000E+00
 -1       583 3.88133E-05 1.86110E-07 0.00000E+00
 -1       584 3.88463E-05 2.72399E-07 0.00000E+00
 -1       585 3.88793E-05 3.89976E-07 1.65436E-24
 -1       586 3.82206E-05 6.53961E-08-8.27181E-25
 -1       587 3.80419E-05 7.61179E-08 1.03398E-25
 -1       588 3.78631E-05 8.67193E-08 0.00000E+00
 -1       589 3.76982E-05 9.71507E-08 0.00000E+00
 -1       590 3.75612E-05 1.07296E-07 0.00000E+00
 -1       591 3.83511E-05 1.22284E-07-5.16988E-26
 -1       592 3.83221E-05 1.72253E-07 2.06795E-25
 -1       593 3.82985E-05 2.07714E-07 2.06795E-25
 -1       594 3.82790E-05 2.31743E-07-2.06795E-25
 -1       595 3.82626E-05 2.47456E-07-4.13590E-25
 -1       596 3.82481E-05 2.57946E-07-1.03398E-25
 -1       597 3.82345E-05 2.66306E-07 0.00000E+00
 -1       598 3.82204E-05 2.75625E-07 1.03398E-25
 -1       599 3.82049E-05 2.88992E-07 0.00000E+00
 -1       600 3.81866E-05 3.09497E-07 1.03398E-25
 -1       601 3.81646E-05 3.40227E-07 0.00000E+00
 -1       602 3.81376E-05 3.84276E-07-5.16988E-26
 -1       603 3.81044E-05 4.44736E-07-5.16988E-26
 -1       604 3.80641E-05 5.24726E-07 0.00000E+00
 -1       605 3.80155E-05 6.27321E-07 0.00000E+00
 -1       606 3.89184E-05 7.70153E-07 0.00000E+00
 -1       607 3.89233E-05 1.04496E-06 8.27181E-25
 -1       608 3.89280E-05 1.36421E-06 0.00000E+00
 -1       609 3.89325E-05 1.72478E-06-8.27181E-25
 -1       610 3.89369E-05 2.12354E-06 0.00000E+00
 -1       611 3.89413E-05 2.55728E-06-8.27181E-25
 -1       612 3.89457E-05 3.02284E-06 0.00000E+00
 -1       613 3.89500E-05 3.51701E-06 0.00000E+00
 -1       614 3.89544E-05 4.03661E-06 0.00000E+00
 -1       615 3.89587E-05 4.57845E-06 0.00000E+00
 -1       616 3.89630E-05 5.13934E-06 0.00000E+00
 -1       617 3.89673E-05 5.71608E-06 0.00000E+00
 -1       618 3.89716E-05 6.30549E-06 0.00000E+00
 -1       619 3.89759E-05 6.90437E-06 0.00000E+00
 -1       620 3.89801E-05 7.50954E-06 0.00000E+00
 -1       621 3.87308E-05 5.78153E-07 0.00000E+00
 -1       622 3.85619E-05 6.13917E-07-4.13590E-25
 -1       623 3.84028E-05 6.49675E-07-8.27181E-25
 -1       624 3.82511E-05 6.85376E-07-4.13590E-25
 -1       625 3.81038E-05 7.21015E-07 0.00000E+00
 -1       626 3.88650E-05 7.81365E-07 0.00000E+00
 -1       627 3.88034E-05 1.05928E-06 0.00000E+00
 -1       628 3.87286E-05 1.37269E-06 0.00000E+00
 -1       629 3.86419E-05 1.71773E-06 0.00000E+00
 -1       630 3.85448E-05 2.09051E-06 0.00000E+00
 -1       631 3.84388E-05 2.48715E-06 0.00000E+00
 -1       632 3.83253E-05 2.90373E-06 0.00000E+00
 -1       633 3.82058E-05 3.33637E-06 0.00000E+00
 -1       634 3.80817E-05 3.78116E-06 1.65436E-24
 -1       635 3.79545E-05 4.23419E-06-8.27181E-25
 -1       636 3.78256E-05 4.69158E-06-8.27181E-25
 -1       637 3.76966E-05 5.14941E-06 0.00000E+00
 -1       638 3.75689E-05 5.60379E-06 8.27181E-25
 -1       639 3.74438E-05 6.05080E-06 0.00000E+00
 -1       640 3.73228E-05 6.48655E-06-8.27181E-25
 -1       656 3.84787E-05 7.92085E-06 0.00000E+00
 -1       657 3.81511E-05 7.71599E-06 1.65436E-24
 -1       658 3.79320E-05 7.51176E-06 3.30872E-24
 -1       659 3.77511E-05 7.30769E-06 0.00000E+00
 -1       660 3.75340E-05 7.10298E-06 0.00000E+00
 -1       661 3.87970E-05 8.71401E-06 4.13590E-25
 -1       662 3.86209E-05 9.28509E-06 0.00000E+00
 -1       663 3.84539E-05 9.83154E-06 8.27181E-25
 -1       664 3.82960E-05 1.03545E-05-4.13590E-25
 -1       665 3.81466E-05 1.08549E-05 8.27181E-25
 -1       666 3.80053E-05 1.13336E-05 0.00000E+00
 -1       667 3.78718E-05 1.17917E-05 8.27181E-25
 -1       668 3.77458E-05 1.22299E-05-4.13590E-25
 -1       669 3.76269E-05 1.26493E-05 8.27181E-25
 -1       670 3.75147E-05 1.30505E-05 4.13590E-25
 -1       671 3.74090E-05 1.34346E-05 0.00000E+00
 -1       672 3.73093E-05 1.38023E-05 0.00000E+00
 -1       673 3.72156E-05 1.41544E-05 0.00000E+00
 -1       674 3.71269E-05 1.44915E-05 4.13590E-25
 -1       675 3.70437E-05 1.48146E-05 0.00000E+00
 -1       676 3.84213E-05 1.53174E-05 8.27181E-25
 -1       677 3.81293E-05 1.52783E-05 0.00000E+00
 -1       678 3.78374E-05 1.52394E-05-8.27181E-25
 -1       679 3.75458E-05 1.52005E-05 0.00000E+00
 -1       680 3.72544E-05 1.51616E-05 8.27181E-25
 -1       771 7.87879E-06 1.55833E-06 0.00000E+00
 -1       772 6.18566E-06 4.55978E-06 0.00000E+00
 -1       773 4.73180E-06 6.92741E-06 2.64698E-23
 -1       774 3.50072E-06 8.70350E-06 0.00000E+00
 -1       775 2.47630E-06 9.93081E-06 0.00000E+00
 -1       776 1.64194E-06 1.06529E-05 0.00000E+00
 -1       777 9.80867E-07 1.09137E-05 0.00000E+00
 -1       778 4.76136E-07 1.07580E-05 6.61744E-24
 -1       779 1.10704E-07 1.02307E-05 1.32349E-23
 -1       780-1.32640E-07 9.37737E-06 6.61744E-24
 -1       781-2.71135E-07 8.24388E-06 1.32349E-23
 -1       782-3.22159E-07 6.87646E-06 6.61744E-24
 -1       783-3.03105E-07 5.32156E-06-1.32349E-23
 -1       784-2.31446E-07 3.62590E-06 0.00000E+00
 -1       785-1.24672E-07 1.83636E-06-1.32349E-23
 -1       786 3.74945E-05 1.17685E-07 0.00000E+00
 -1       787 3.75253E-05 1.19636E-07-4.13590E-25
 -1       788 3.75559E-05 1.22929E-07 0.00000E+00
 -1       789 3.75868E-05 1.28150E-07 4.13590E-25
 -1       790 3.76178E-05 1.36018E-07 0.00000E+00
 -1       791 3.76488E-05 1.47256E-07 0.00000E+00
 -1       792 3.76798E-05 1.62826E-07-8.27181E-25
 -1       793 3.77109E-05 1.83692E-07 0.00000E+00
 -1       794 3.77419E-05 2.11193E-07 0.00000E+00
 -1       795 3.77730E-05 2.46673E-07 0.00000E+00
 -1       796 3.78040E-05 2.92039E-07 0.00000E+00
 -1       797 3.78351E-05 3.49210E-07-4.13590E-25
 -1       798 3.78661E-05 4.20933E-07-8.27181E-25
 -1       799 3.78970E-05 5.09972E-07 0.00000E+00
 -1       800 3.79280E-05 6.20310E-07-8.27181E-25
 -1       801 3.49493E-05 1.22587E-07-4.13590E-25
 -1       802 2.74198E-05 1.04618E-07-4.13590E-25
 -1       803 1.75200E-05 6.76839E-08-1.65436E-24
 -1       804 7.89148E-06 2.96333E-08-1.65436E-24
 -1       805 1.17143E-06 1.43645E-08 6.61744E-24
 -1       806 3.74265E-05 9.68031E-08 0.00000E+00
 -1       807 3.73857E-05 7.74894E-08 0.00000E+00
 -1       808 3.73436E-05 6.09586E-08 8.27181E-25
 -1       809 3.72996E-05 4.92468E-08-8.27181E-25
 -1       810 3.72529E-05 4.43858E-08 0.00000E+00
 -1       811 3.72028E-05 4.83776E-08-8.27181E-25
 -1       812 3.71487E-05 6.32216E-08-8.27181E-25
 -1       813 3.70898E-05 9.09127E-08 0.00000E+00
 -1       814 3.70253E-05 1.33445E-07 0.00000E+00
 -1       815 3.69545E-05 1.92813E-07 4.13590E-25
 -1       816 3.68766E-05 2.71006E-07-8.27181E-25
 -1       817 3.67909E-05 3.70018E-07-4.13590E-25
 -1       818 3.66967E-05 4.91840E-07 1.65436E-24
 -1       819 3.65933E-05 6.38457E-07 4.13590E-25
 -1       820 3.64799E-05 8.11853E-07 0.00000E+00
 -1       821 3.79142E-05 9.20896E-07 0.00000E+00
 -1       822 3.78671E-05 1.11920E-06 0.00000E+00
 -1       823 3.78203E-05 1.35561E-06-1.65436E-24
 -1       824 3.77729E-05 1.63481E-06-8.27181E-25
 -1       825 3.77254E-05 1.95713E-06 0.00000E+00
 -1       826 3.76779E-05 2.32282E-06 0.00000E+00
 -1       827 3.76303E-05 2.72773E-06 1.65436E-24
 -1       828 3.75827E-05 3.16764E-06-8.27181E-25
 -1       829 3.75351E-05 3.63477E-06 0.00000E+00
 -1       830 3.74875E-05 4.12129E-06-8.27181E-25
 -1       831 3.74399E-05 4.61741E-06 0.00000E+00
 -1       832 3.73924E-05 5.11331E-06 0.00000E+00
 -1       833 3.73450E-05 5.59919E-06 0.00000E+00
 -1       834 3.72980E-05 6.06529E-06-4.13590E-25
 -1       835 3.72509E-05 6.50383E-06-4.13590E-25
 -1       836 3.77634E-05 7.98901E-07 0.00000E+00
 -1       837 3.75118E-05 8.42802E-07 0.00000E+00
 -1       838 3.72245E-05 8.86625E-07-8.27181E-25
 -1       839 3.69222E-05 9.30170E-07 4.13590E-25
 -1       840 3.66259E-05 9.73645E-07 0.00000E+00
 -1       856 3.71931E-05 7.32042E-06 0.00000E+00
 -1       857 3.71781E-05 7.78564E-06-1.03398E-25
 -1       858 3.71631E-05 8.29454E-06 4.13590E-25
 -1       859 3.71478E-05 8.83889E-06-2.06795E-25
 -1       860 3.71325E-05 9.41042E-06-4.13590E-25
 -1       861 3.71171E-05 1.00009E-05 0.00000E+00
 -1       862 3.71018E-05 1.06019E-05 0.00000E+00
 -1       863 3.70864E-05 1.12053E-05-2.06795E-25
 -1       864 3.70710E-05 1.18028E-05-4.13590E-25
 -1       865 3.70556E-05 1.23860E-05 0.00000E+00
 -1       866 3.70402E-05 1.29467E-05 0.00000E+00
 -1       867 3.70248E-05 1.34766E-05-2.06795E-25
 -1       868 3.70095E-05 1.39674E-05 4.13590E-25
 -1       869 3.69941E-05 1.44110E-05-2.06795E-25
 -1       870 3.69788E-05 1.47991E-05 0.00000E+00
 -1       871 3.68908E-05 6.90672E-06 2.06795E-25
 -1       872 3.66248E-05 6.90531E-06 0.00000E+00
 -1       873 3.63872E-05 6.90372E-06 0.00000E+00
 -1       874 3.61564E-05 6.90187E-06 7.75482E-26
 -1       875 3.59106E-05 6.89980E-06 0.00000E+00
 -1       876 3.70970E-05 7.32468E-06 0.00000E+00
 -1       877 3.69789E-05 7.76750E-06 0.00000E+00
 -1       878 3.68526E-05 8.23250E-06 0.00000E+00
 -1       879 3.67192E-05 8.71683E-06 8.27181E-25
 -1       880 3.65796E-05 9.21765E-06 1.65436E-24
 -1       881 3.64349E-05 9.73210E-06 0.00000E+00
 -1       882 3.62861E-05 1.02573E-05 0.00000E+00
 -1       883 3.61344E-05 1.07905E-05-8.27181E-25
 -1       884 3.59808E-05 1.13289E-05 0.00000E+00
 -1       885 3.58262E-05 1.18695E-05-8.27181E-25
 -1       886 3.56719E-05 1.24095E-05 0.00000E+00
 -1       887 3.55188E-05 1.29461E-05 0.00000E+00
 -1       888 3.53680E-05 1.34765E-05 8.27181E-25
 -1       889 3.52203E-05 1.39978E-05-4.13590E-25
 -1       890 3.50769E-05 1.45071E-05-4.13590E-25
 -1       891 3.66822E-05 1.51031E-05 4.13590E-25
 -1       892 3.63921E-05 1.50825E-05 0.00000E+00
 -1       893 3.60828E-05 1.50618E-05 0.00000E+00
 -1       894 3.57439E-05 1.50413E-05 0.00000E+00
 -1       895 3.53653E-05 1.50208E-05 3.10193E-25
 -1       956 3.63118E-05 1.27479E-06 0.00000E+00
 -1       957 3.62664E-05 1.56472E-06-4.13590E-25
 -1       958 3.62209E-05 1.88073E-06-8.27181E-25
 -1       959 3.61752E-05 2.21963E-06-8.27181E-25
 -1       960 3.61296E-05 2.57819E-06 8.27181E-25
 -1       961 3.60839E-05 2.95319E-06 0.00000E+00
 -1       962 3.60382E-05 3.34139E-06 8.27181E-25
 -1       963 3.59926E-05 3.73958E-06 8.27181E-25
 -1       964 3.59469E-05 4.14450E-06 0.00000E+00
 -1       965 3.59012E-05 4.55293E-06 0.00000E+00
 -1       966 3.58555E-05 4.96164E-06 0.00000E+00
 -1       967 3.58098E-05 5.36740E-06 0.00000E+00
 -1       968 3.57642E-05 5.76696E-06 1.65436E-24
 -1       969 3.57186E-05 6.15712E-06 0.00000E+00
 -1       970 3.56732E-05 6.53464E-06-1.65436E-24
 -1       971 3.55858E-05 7.26804E-06 0.00000E+00
 -1       972 3.55425E-05 7.67820E-06 0.00000E+00
 -1       973 3.54991E-05 8.12263E-06 8.27181E-25
 -1       974 3.54557E-05 8.59691E-06 4.13590E-25
 -1       975 3.54122E-05 9.09661E-06 0.00000E+00
 -1       976 3.53688E-05 9.61727E-06-4.13590E-25
 -1       977 3.53253E-05 1.01545E-05 1.65436E-24
 -1       978 3.52818E-05 1.07038E-05 8.27181E-25
 -1       979 3.52383E-05 1.12608E-05 0.00000E+00
 -1       980 3.51948E-05 1.18209E-05 8.27181E-25
 -1       981 3.51513E-05 1.23799E-05 0.00000E+00
 -1       982 3.51079E-05 1.29332E-05 0.00000E+00
 -1       983 3.50645E-05 1.34763E-05 1.65436E-24
 -1       984 3.50213E-05 1.40049E-05-8.27181E-25
 -1       985 3.49783E-05 1.45146E-05 0.00000E+00
 -3
    1PSTEP                         4           2           1          
  100CL  102 2.50000E-01         409                     0    2           1
 -4  STRESS      6    1
 -5  SXX         1    4    1    1
 -5  SYY         1    4    2    2
 -5  SZZ         1    4    3    3
 -5  SXY         1    4    1    2
 -5  SYZ         1    4    2    3
 -5  SZX         1    4    3    1
 -1         1-8.63824E+05-3.98563E+05-1.75213E+05-5.58298E+05 3.09228E-11 2.15368E-09
 -1         2 1.44480E+03 1.60038E+05 4.70721E+03 2.67470E+02-9.69891E-11-2.91487E-09
 -1         3-1.82436E+01-3.61210E+05 8.30280E+01-6.59024E+01-7.57767E-11-7.09952E-09
 -1         5-2.16078E+00 1.29719E+05 3.39277E+00-5.18796E-02 4.60901E-11-3.54134E-08
 -1         8-4.06965E+05-1.77333E+05-1.38629E+04-3.08536E+05 1.16415E-10 5.49335E-10
 -1         9-6.98360E+05-1.82596E+05-6.93672E+04-2.42717E+05 1.90630E-09-3.18396E-09
 -1        10-2.68002E+02-3.76308E+05-4.79100E+02-4.36598E+02-1.65437E-09-5.65450E-11
 -1        12-7.68031E-01 1.29726E+05 1.09974E+02-1.08313E-01 8.94715E-11-2.64595E-09
 -1        15 1.07559E+03 5.91092E+02 3.47683E+03 1.21419E+00-3.43951E-09-1.37324E-06
 -1        16-1.96264E+06-6.33061E+05-3.05173E+05-6.44154E+05 6.16274E-09-4.56930E-09
 -1        17-4.31928E+05-2.67964E+05-8.30092E+04-2.53439E+05-3.09446E-09 2.29193E-09
 -1        18 1.70801E+04 1.82868E+03-5.70729E+03-3.05166E+04 3.87331E-10 1.80694E-09
 -1        19 4.06883E+04 4.84851E+04-2.25691E+02 7.98515E+03-3.15958E-10-3.79514E-09
 -1        20-1.68699E+04-1.92372E+05-4.24144E+04 1.43375E+04 1.17931E-09-2.32346E-09
 -1        21-1.82284E+01-1.11628E+05-3.60545E+02-2.23611E+01-4.01482E-09-2.39499E-09
 -1        24-1.72183E+06-6.03063E+05-2.45957E+05-7.35854E+05-7.83984E-09-4.47956E-09
 -1        25 1.52211E+04-1.57278E+03 9.23012E+03-4.95880E+04 1.86328E-09 4.04143E-09
 -1        26-9.49197E+03 3.31123E+04-6.60157E+03-4.70605E+03 8.04721E-10 1.23989E-09
 -1        27-3.07756E+04-1.05554E+05-3.95962E+04 2.37940E+04 3.01122E-09-5.81622E-10
 -1        28 8.62007E+03-3.08410E+04 6.30002E+03 9.89207E+03 9.43984E-10-1.69241E-09
 -1        32-4.07885E+05-5.66591E+04 1.84327E+05-2.64156E+05-6.20639E-09 1.38503E-08
 -1        33-6.04243E+04 3.10318E+04 1.10057E+04-1.79757E+04 5.67354E-10-2.16702E-09
 -1        34-7.84037E+04-7.80097E+03 1.86363E+02 2.41080E+04 1.48493E-09 9.22228E-10
 -1        35-8.77220E+03-1.22698E+04-4.77827E+02 1.94406E+04 2.71573E-09-1.08745E-09
 -1        51 8.24022E+03-2.04658E+05 1.98507E+04-5.03553E+05 3.63798E-11 3.44880E-09
 -1        52 3.99411E+03-2.02608E+05 1.30344E+04-5.87298E+05 4.14730E-10 4.12183E-09
 -1        53 2.40217E+03-2.07375E+05 1.13523E+04-5.01850E+05 4.43833E-10-1.56433E-09
 -1        54 7.88709E+03-2.05285E+05 1.82964E+04-5.89115E+05-1.81899E-11-6.28825E-09
 -1        55 1.81387E+04-2.11885E+05 3.29173E+04-5.01641E+05 1.96451E-10-4.13638E-09
 -1        56-1.65934E+06-1.87738E+05-1.29592E+05-6.40094E+05-1.27329E-10-1.23691E-09
 -1        57-1.71201E+06-3.04287E+05-8.73396E+04-6.34408E+05-5.07953E-10-3.85717E-09
 -1        58-1.68510E+06-2.29035E+05-3.05119E+04-6.32296E+05-1.06456E-09 1.60071E-09
 -1        59-1.68222E+06-2.55874E+05-1.82152E+04-6.43779E+05-3.54703E-10 2.53863E-09
 -1        60-1.68889E+06-2.34771E+05-7.13306E+03-6.31220E+05-1.10049E-09-4.11546E-11
 -1        61-1.67811E+06-2.48881E+05-4.05711E+03-6.44709E+05 7.23446E-10-1.16114E-09
 -1        62-1.68916E+06-2.35855E+05-1.95489E+03-6.31421E+05-4.45652E-11 4.51405E-09
 -1        63-1.67844E+06-2.47137E+05-1.61148E+03-6.43765E+05 2.81716E-10 1.11967E-09
 -1        64-1.68854E+06-2.36510E+05-1.84656E+03-6.32155E+05-9.02673E-11-9.08926E-10
 -1        65-1.68045E+06-2.46291E+05-3.70602E+03-6.41811E+05 1.50351E-10-2.94676E-10
 -1        66-1.68712E+06-2.36737E+05-6.50974E+03-6.33349E+05 2.69210E-10 1.68666E-09
 -1        67-1.68638E+06-2.50380E+05-1.65330E+04-6.38348E+05-1.00340E-09-2.42062E-09
 -1        68-1.68262E+06-2.32598E+05-2.77397E+04-6.35544E+05 5.40012E-10-8.54925E-10
 -1        69-1.71535E+06-2.92437E+05-7.93146E+04-6.27653E+05 1.41335E-09-2.96768E-09
 -1        70-1.65837E+06-1.95936E+05-1.17740E+05-6.43588E+05-2.76486E-10-2.35741E-09
 -1        86-7.23849E+02 1.58638E+05 5.05346E+03-1.33742E+02 6.52904E-10 7.53687E-10
 -1        87 4.80674E+03 1.61674E+05 1.05288E+04 5.47310E+02 1.09071E-09-2.02733E-09
 -1        88-4.07588E+03 1.57003E+05 1.61352E+04-4.13582E+02 1.60344E-09-2.91740E-09
 -1        89 3.03775E+04 1.73571E+05 4.34910E+04 1.16652E+03 2.44472E-09-4.32088E-09
 -1        90-2.62108E+04 1.46746E+05 6.14553E+04-7.52774E+02 2.75395E-09-9.56163E-10
 -1       121-3.46440E+01-3.61326E+05 8.30095E+01 3.29318E+01 1.87040E-10-5.14228E-09
 -1       122 9.05302E+00-3.61191E+05 1.81930E+02-1.31952E+02-6.58964E-10 6.98037E-10
 -1       123-5.47030E+01-3.61346E+05 2.99148E+02 9.89071E+01 5.50187E-10-7.20502E-09
 -1       124 3.44869E+02-3.60983E+05 7.64747E+02-3.27083E+02-1.34912E-09-3.66708E-09
 -1       125-2.73535E+02-3.61536E+05 1.17734E+03 2.28084E+02 7.88305E-10-7.51243E-10
 -1       191-2.38111E+00 1.29730E+05 4.07023E+00 2.57780E-02 8.93621E-11-1.12227E-08
 -1       192-2.47216E+00 1.29719E+05 7.18328E+00 1.57706E-01 1.24128E-10 3.28873E-09
 -1       193-3.20932E+00 1.29730E+05 1.33739E+01-1.84619E-01 1.44786E-10 2.78123E-09
 -1       194-3.47442E+00 1.29721E+05 2.71708E+01 4.97011E-01 8.40039E-11-3.76531E-10
 -1       195-4.80139E+00 1.29729E+05 5.31634E+01-3.15554E-01 2.30738E-10-3.88036E-09
 -1       251 1.43356E+05-2.53810E+04 5.93394E+04 2.15152E+03 1.61094E-10-2.81943E-09
 -1       252 1.69929E+05 2.93795E+04 4.20240E+04-7.51308E+03-5.26370E-10-3.28509E-09
 -1       253 1.53469E+05-3.93118E+03 1.53618E+04 1.62229E+03 5.20686E-11-1.71258E-09
 -1       254 1.58057E+05 4.54503E+03 9.68846E+03-6.67225E+03-4.17003E-10-9.39849E-10
 -1       255 1.55195E+05-6.07787E+02 3.96934E+03 1.31080E+03 1.13118E-10 2.10161E-09
 -1       256 1.56006E+05 7.20114E+02 2.40873E+03-6.21053E+03 1.04286E-10 5.23355E-09
 -1       257 1.55504E+05-1.06605E+02 1.24163E+03 1.16057E+03 8.94929E-11 1.81825E-09
 -1       258 1.55692E+05 2.23385E+02 1.10114E+03-6.05847E+03-2.77957E-10-4.16886E-09
 -1       259 1.55503E+05-1.08853E+02 1.26289E+03 1.15874E+03 1.42322E-11-4.91602E-09
 -1       260 1.56014E+05 7.39828E+02 2.46924E+03-6.20374E+03 2.18847E-12-3.34816E-09
 -1       261 1.55187E+05-6.25035E+02 4.07986E+03 1.30584E+03 9.74524E-10-3.87809E-09
 -1       262 1.58116E+05 4.67516E+03 9.96135E+03-6.65759E+03 2.25342E-10-5.98561E-10
 -1       263 1.53417E+05-4.04331E+03 1.58017E+04 1.61260E+03-4.64922E-10 1.90994E-10
 -1       264 1.70312E+05 3.02191E+04 4.32195E+04-7.48960E+03-1.90320E-09 2.98314E-10
 -1       265 1.43024E+05-2.61046E+04 6.10398E+04 2.13772E+03-6.26983E-10 6.00267E-10
 -1       266-1.94720E+04-9.10572E+03 4.56838E+04-2.59785E+01-5.34965E-09-2.14126E-06
 -1       267 2.25732E+04 1.06119E+04 3.22902E+04 2.99757E+01-1.05615E-08-4.24429E-06
 -1       268-3.02703E+03-1.50300E+03 1.20020E+04-3.81933E+00-8.46785E-09-3.40383E-06
 -1       269 3.57402E+03 1.79871E+03 7.80119E+03 4.44906E+00-6.39284E-09-2.56488E-06
 -1       270-5.36466E+02-2.95545E+02 3.76575E+03-6.03759E-01-4.75620E-09-1.89263E-06
 -1       271-1.91296E+06-2.37702E+05-1.47092E+05-7.43961E+05-3.36513E-10-1.11322E-09
 -1       272-1.95268E+06-3.58215E+05-9.45869E+04-7.57892E+05 1.50055E-09-6.29188E-09
 -1       273-1.94062E+06-2.74357E+05-3.47424E+04-7.37453E+05-4.95902E-10 9.67702E-10
 -1       274-1.92052E+06-3.13147E+05-1.94661E+04-7.67803E+05-4.64752E-10 4.02724E-09
 -1       275-1.94471E+06-2.77884E+05-8.08184E+03-7.36021E+05 1.07502E-09-1.06411E-10
 -1       276-1.91571E+06-3.08961E+05-4.30309E+03-7.70094E+05-1.84605E-09 1.45383E-09
 -1       277-1.94556E+06-2.77928E+05-2.10414E+03-7.35493E+05-6.68479E-11 1.28335E-09
 -1       278-1.91489E+06-3.08831E+05-1.53171E+03-7.70726E+05 2.29420E-10-2.63924E-09
 -1       279-1.94561E+06-2.77920E+05-1.64259E+03-7.35463E+05 2.05432E-10 2.56478E-10
 -1       280-1.91545E+06-3.08836E+05-3.00998E+03-7.70242E+05-3.44357E-10 5.71890E-09
 -1       281-1.94494E+06-2.77992E+05-5.49704E+03-7.35919E+05-9.11314E-10 1.61117E-09
 -1       282-1.91895E+06-3.11345E+05-1.31366E+04-7.68303E+05 5.88443E-10 1.75987E-09
 -1       283-1.94196E+06-2.75864E+05-2.34306E+04-7.37139E+05 2.20098E-10-1.28966E-09
 -1       284-1.94111E+06-3.41128E+05-6.37191E+04-7.60896E+05-7.49424E-10-2.44927E-09
 -1       285-1.92296E+06-2.51564E+05-9.91463E+04-7.41928E+05 1.00499E-09-1.89175E-10
 -1       301 7.33813E+03-4.64575E+03 5.73794E+04-1.42772E+04-3.61979E-10 7.79039E-11
 -1       302 7.87767E+03 9.92471E+03 4.14420E+04-2.09945E+04 8.61064E-10 2.33331E-09
 -1       303 3.29893E+02 5.07126E+02 3.81582E+04-1.42986E+04-5.21140E-10-6.67342E-10
 -1       304 1.48788E+04 1.63797E+04 6.41982E+04-2.09393E+04 3.31056E-10 3.91128E-09
 -1       305 1.47507E+04-1.10708E+04 1.07732E+05-1.43021E+04-4.69299E-10 2.14254E-09
 -1       306-2.06349E+06-2.36007E+05-1.57168E+05-8.02933E+05 1.79716E-09-1.27329E-09
 -1       307-2.13827E+06-3.75226E+05-1.07186E+05-7.83066E+05 1.42973E-09 3.10320E-09
 -1       308-2.09828E+06-2.85720E+05-3.69718E+04-7.89216E+05 3.13776E-10 1.84991E-09
 -1       309-2.09592E+06-3.19469E+05-2.24289E+04-8.01637E+05 3.39782E-10 1.97497E-09
 -1       310-2.10568E+06-2.90808E+05-8.67456E+03-7.84714E+05-8.78014E-10-4.94128E-09
 -1       311-2.08653E+06-3.14473E+05-5.04174E+03-8.08010E+05 8.94715E-10-6.46139E-10
 -1       312-2.10771E+06-2.90539E+05-2.46304E+03-7.82934E+05-1.21875E-09-1.80296E-09
 -1       313-2.08477E+06-3.14483E+05-2.22246E+03-8.09521E+05-2.32001E-09-8.78032E-10
 -1       314-2.10746E+06-2.90767E+05-2.66769E+03-7.83224E+05-1.63942E-09 4.25644E-10
 -1       315-2.08754E+06-3.13744E+05-5.63798E+03-8.06881E+05-2.52925E-10 2.33604E-09
 -1       316-2.10490E+06-2.91325E+05-9.79887E+03-7.85537E+05 7.16227E-10 2.30239E-09
 -1       317-2.09842E+06-3.19209E+05-2.53823E+04-7.99451E+05-3.77781E-10-1.40835E-09
 -1       318-2.09655E+06-2.85498E+05-4.18557E+04-7.90557E+05-1.85901E-09 3.12866E-09
 -1       319-2.14603E+06-3.82768E+05-1.21382E+05-7.78944E+05-2.84308E-09-5.22050E-09
 -1       320-2.05749E+06-2.28830E+05-1.77938E+05-8.05661E+05 4.56566E-09-5.06407E-09
 -1       336 2.94109E+02-3.91160E+05-2.07166E+03 2.08341E+02-3.42106E-09 3.43971E-09
 -1       337-7.42709E+02-3.91762E+05-2.27191E+03-5.87681E+02-6.32366E-09-2.58296E-10
 -1       338 1.95365E+02-3.91222E+05-2.84841E+03 3.78534E+02-4.47994E-09-1.01863E-10
 -1       339-2.94506E+03-3.93106E+05-6.24456E+03-9.25656E+02-8.17897E-09 8.50378E-11
 -1       340 2.01540E+03-3.89826E+05-9.61302E+03 5.44583E+02-5.35169E-09 3.41061E-09
 -1       406 7.64442E+00 1.29724E+05 2.17138E+02 4.19216E-01 2.87258E-10-1.72049E-08
 -1       407 7.49326E+01 1.29764E+05 4.61480E+02-5.68639E+00 3.22302E-11-3.43441E-08
 -1       408 2.36782E+02 1.29691E+05 9.21711E+02 5.31614E+00 3.53566E-10-1.81435E-08
 -1       409 9.95901E+02 1.30059E+05 2.07510E+03-4.77022E+01 1.94973E-11-9.22228E-10
 -1       410 2.86278E+03 1.29429E+05 4.23629E+03 4.33001E+01 3.69710E-10-2.78033E-09
 -1       521-3.88798E+06-4.47733E+05-2.90930E+05-1.51048E+06 3.26690E-09-4.11819E-09
 -1       522-4.02734E+06-6.99926E+05-1.97758E+05-1.47288E+06 7.81256E-10-2.08820E-09
 -1       523-3.95273E+06-5.37749E+05-6.83997E+04-1.48471E+06-1.41881E-10-3.78350E-10
 -1       524-3.94856E+06-5.98725E+05-4.12874E+04-1.50766E+06 7.72047E-10-2.14141E-09
 -1       525-3.96627E+06-5.46733E+05-1.59856E+04-1.47646E+06 1.08935E-09-9.45874E-11
 -1       526-3.93245E+06-5.88723E+05-9.22117E+03-1.51795E+06-5.53747E-10-4.22051E-09
 -1       527-3.96884E+06-5.47372E+05-4.42612E+03-1.47458E+06 4.70209E-10-1.66767E-09
 -1       528-3.93249E+06-5.85256E+05-3.79508E+03-1.51658E+06-1.99975E-10-6.64159E-10
 -1       529-3.96617E+06-5.50189E+05-4.44496E+03-1.47781E+06 1.58070E-09 4.53042E-09
 -1       530-3.94219E+06-5.78474E+05-9.08537E+03-1.50597E+06 1.54887E-09 5.77620E-09
 -1       531-3.95900E+06-5.54293E+05-1.59380E+04-1.48508E+06-1.26471E-09 2.36196E-09
 -1       532-3.96541E+06-5.81259E+05-4.09119E+04-1.48767E+06-1.46593E-09-2.40834E-09
 -1       533-3.94299E+06-5.47760E+05-6.78914E+04-1.49596E+06-1.12050E-09-5.12591E-09
 -1       534-4.04599E+06-6.79822E+05-1.96256E+05-1.45141E+06 2.18279E-10 4.82396E-09
 -1       535-3.87912E+06-4.57770E+05-2.88620E+05-1.52075E+06-5.34055E-09 4.83124E-09
 -1       536-2.55817E+03-1.11308E+04 2.56600E+04 2.76152E+02-8.78558E-10 8.16726E-10
 -1       537 9.16944E+03 1.28801E+04 1.82562E+04-1.02643E+03-4.15147E-09 1.51886E-10
 -1       538 1.82459E+03-1.74426E+03 6.62386E+03 2.48027E+02-9.27969E-11 2.78169E-09
 -1       539 4.01208E+03 2.01438E+03 4.21310E+03-9.90674E+02 1.51037E-09 2.07683E-09
 -1       540 2.59469E+03-2.71481E+02 1.67569E+03 2.40400E+02 8.37382E-10 2.50645E-09
 -1       541 3.07792E+03 3.11193E+02 9.93123E+02-9.78722E+02 3.86223E-10 4.40848E-09
 -1       542 2.75609E+03-4.04843E+01 4.05105E+02 2.36071E+02-2.31182E-10-2.84786E-11
 -1       543 2.86771E+03 4.00037E+01 2.05557E+02-9.72009E+02-3.93641E-10-1.94799E-09
 -1       544 2.80324E+03 7.25765E-01 4.05569E+01 2.33686E+02 4.65334E-10-1.25441E-09
 -1       545 2.79206E+03-4.13572E+01-9.32104E+01-9.69065E+02-5.67407E-10-4.84473E-10
 -1       546 2.83100E+03 4.13661E+01-2.33031E+02 2.33128E+02 4.70917E-11 2.46747E-09
 -1       547 2.66686E+03-3.08017E+02-6.25014E+02-9.69724E+02-1.01256E-09 3.36868E-09
 -1       548 2.92860E+03 2.67080E+02-1.01639E+03 2.34344E+02-1.18437E-09 1.85491E-09
 -1       549 1.94179E+03-1.96943E+03-2.77606E+03-9.73452E+02-6.17066E-10 2.62440E-09
 -1       550 3.55717E+03 1.70071E+03-3.95225E+03 2.36855E+02 4.13536E-12 1.06979E-09
 -1       551 2.97751E+03-2.06475E+05 1.15980E+04-3.54475E+05-1.53632E-08-6.91216E-11
 -1       552 5.84044E+03-2.05812E+05 1.48373E+04-5.04310E+05-1.15251E-08 1.33150E-09
 -1       553 3.57988E+03-2.08531E+05 2.31349E+04-3.53365E+05-1.88738E-08 1.75532E-09
 -1       554 1.69087E+04-1.97823E+05 4.91151E+04-5.04790E+05-1.21563E-08 6.77448E-09
 -1       555 1.78884E+04-2.18007E+05 8.83786E+04-3.53873E+05-1.93832E-08 1.04956E-09
 -1       556 2.81746E+04-6.55070E+04 2.29966E+04-8.83387E+04-4.05271E-09 2.20462E-09
 -1       557 5.48404E+04-8.80504E+04 1.20086E+04-1.10268E+05-3.54703E-09-4.04521E-09
 -1       558 2.86481E+04-6.88933E+04 4.95572E+03-8.53883E+04-2.48838E-09 2.34195E-09
 -1       559 5.18808E+04-9.14039E+04 2.48180E+03-1.11417E+05 2.71757E-09 1.32059E-09
 -1       560 2.82933E+04-6.86388E+04 1.07813E+03-8.55731E+04 4.83851E-10 2.26873E-09
 -1       561 5.11698E+04-9.13161E+04 5.49168E+02-1.11857E+05-7.27596E-10-2.27828E-09
 -1       562 2.79741E+04-6.84094E+04 2.30542E+02-8.58080E+04-4.00178E-11 1.44109E-09
 -1       563 5.07770E+04-9.11505E+04 1.27268E+02-1.12107E+05-2.11912E-10-2.19671E-09
 -1       564 2.77745E+04-6.82761E+04 4.82442E+01-8.59523E+04 1.31695E-09 7.27596E-11
 -1       565 5.05760E+04-9.10666E+04 2.04765E+01-1.12232E+05 1.28830E-09 2.11003E-10
 -1       566 2.77077E+04-6.82288E+04-1.70949E+01-8.60027E+04-1.12186E-09 7.14863E-10
 -1       567 5.05440E+04-9.10502E+04-6.61735E+01-1.12219E+05 3.50315E-09 4.25644E-10
 -1       568 2.77908E+04-6.82853E+04-1.65743E+02-8.59754E+04-5.17502E-10 8.04903E-10
 -1       569 5.03433E+04-9.09360E+04-3.92944E+02-1.11779E+05-2.35286E-09 1.83718E-09
 -1       570 2.83046E+04-6.88028E+04-7.98442E+02-8.60694E+04 6.11180E-10 1.50430E-09
 -1       571 9.41865E+04 3.41565E+03 5.05811E+03-2.35545E+04 6.93944E-10 6.51880E-10
 -1       572 9.49409E+04 1.18827E+03 2.47790E+03-2.58200E+04-9.89530E-10-2.14504E-09
 -1       573 9.44932E+04 2.83308E+02 1.10076E+03-2.34931E+04-2.59888E-09 1.36333E-09
 -1       574 9.45838E+04 9.13416E+01 5.51349E+02-2.58890E+04-8.85166E-10-1.44155E-10
 -1       575 9.45295E+04 1.16653E+01 2.59815E+02-2.34849E+04-8.27458E-09 1.03319E-09
 -1       576 9.45362E+04 2.07862E+00 1.32155E+02-2.58982E+04-2.03598E-08 4.26735E-09
 -1       577 9.45349E+04-2.98959E+00 6.50564E+01-2.34839E+04-1.17370E-08-4.49927E-09
 -1       578 9.45304E+04-1.83098E+00 3.53742E+01-2.58993E+04-1.78352E-09-1.70735E-09
 -1       579 9.45382E+04-2.67301E+00 2.16163E+01-2.34839E+04-5.84350E-10-1.37356E-09
 -1       580 9.45340E+04-2.63789E+00 2.00469E+01-2.58978E+04 4.16776E-10 1.44314E-09
 -1       581 9.45432E+04-3.40749E+00 2.73038E+01-2.34853E+04 3.42880E-10 5.10909E-10
 -1       582 9.45452E+04 2.01137E+00 5.18107E+01-2.58837E+04-2.31921E-10 1.27034E-09
 -1       583 9.45478E+04 1.68738E+01 9.98200E+01-2.34980E+04-2.63753E-11-1.17200E-09
 -1       584 9.45872E+04 9.61484E+01 2.23443E+02-2.57786E+04-6.75755E-10-1.64766E-09
 -1       585 9.45294E+04 2.94768E+02 4.54457E+02-2.35905E+04 4.04725E-10-2.28192E-09
 -1       586-1.18903E+03 3.05538E+04-1.56190E+03-8.05382E+04 2.50111E-10 2.11526E-09
 -1       587-2.73010E+02 3.03473E+04-1.94383E+02-8.86263E+04 4.39286E-10 3.40833E-10
 -1       588 3.05222E+02 3.03869E+04 1.06395E+03-8.04894E+04 2.46473E-10 1.54023E-09
 -1       589 1.58659E+03 3.09666E+04 3.12573E+03-8.85524E+04 3.80169E-10-8.11724E-10
 -1       590 4.58905E+03 2.99842E+04 6.70529E+03-8.06124E+04 2.02817E-10-2.77214E-09
 -1       591-2.03530E+04-5.85441E+03-6.82405E+03-1.05827E+04 2.60769E-10-2.38697E-09
 -1       592-2.09912E+04-7.53132E+03-3.69619E+03-1.23634E+04-2.26237E-10-2.45944E-09
 -1       593-2.10427E+04-5.35173E+03-1.53874E+03-1.10752E+04-5.50983E-10-4.87091E-09
 -1       594-2.00399E+04-6.53961E+03-7.67469E+02-1.24104E+04-4.93543E-10-1.07789E-10
 -1       595-2.10953E+04-5.34961E+03-3.52702E+02-1.10977E+04-1.68251E-09 3.75306E-09
 -1       596-1.99753E+04-6.49423E+03-1.79805E+02-1.24035E+04-5.30022E-10 2.17307E-09
 -1       597-2.11019E+04-5.35403E+03-9.89843E+01-1.10986E+04-3.82618E-09-3.84830E-10
 -1       598-1.99692E+04-6.49248E+03-8.15416E+01-1.24016E+04-3.92254E-09 2.64640E-09
 -1       599-2.11015E+04-5.35396E+03-1.06583E+02-1.10985E+04-3.25258E-09 8.39009E-10
 -1       600-1.99763E+04-6.49474E+03-1.99986E+02-1.24036E+04-1.32286E-09 2.14186E-09
 -1       601-2.10934E+04-5.34899E+03-3.95482E+02-1.10973E+04-3.93356E-11 4.61512E-09
 -1       602-2.00491E+04-6.54558E+03-8.62573E+02-1.24107E+04-1.83547E-09-7.20092E-09
 -1       603-2.10339E+04-5.35204E+03-1.73000E+03-1.10722E+04-1.38039E-09-4.10739E-09
 -1       604-2.11225E+04-7.65668E+03-4.15597E+03-1.23530E+04-4.94765E-10-3.67686E-09
 -1       605-2.02540E+04-5.92051E+03-7.67273E+03-1.05224E+04-1.31263E-09-2.59206E-11
 -1       606 1.34685E+04-4.52882E+03-8.16024E+03 1.31958E+04-2.77396E-09-2.70074E-09
 -1       607 1.20713E+04-1.46064E+03-4.06359E+03 1.48130E+04-7.23958E-10-2.57739E-09
 -1       608 1.28697E+04-2.45266E+02-1.81913E+03 1.30904E+04 1.69075E-09 3.49246E-10
 -1       609 1.27139E+04-6.59558E+01-9.19037E+02 1.49296E+04-1.89175E-10-1.01056E-09
 -1       610 1.28023E+04 9.65618E+00-4.38567E+02 1.30787E+04-1.03500E-09 2.14391E-09
 -1       611 1.27748E+04 1.26314E+01-2.21357E+02 1.49423E+04-3.98245E-09 2.85684E-09
 -1       612 1.27876E+04 1.38429E+01-1.05660E+02 1.30775E+04-2.16096E-09-2.67619E-09
 -1       613 1.27788E+04 1.37971E+01-4.82860E+01 1.49439E+04-2.90584E-09-3.61570E-09
 -1       614 1.27809E+04 1.17458E+01-1.33769E+01 1.30771E+04-6.86668E-11 1.09765E-09
 -1       615 1.27771E+04 1.41771E+01 1.49292E+01 1.49442E+04 3.79305E-09 3.66526E-10
 -1       616 1.27757E+04 1.26112E+01 4.97308E+01 1.30772E+04-5.95719E-10-1.68552E-09
 -1       617 1.27829E+04 2.50929E+01 1.15217E+02 1.49440E+04-3.51065E-10-1.22009E-09
 -1       618 1.27654E+04 4.60682E+01 2.32988E+02 1.30773E+04-1.33764E-09-3.66072E-11
 -1       619 1.28651E+04 2.05528E+02 5.23627E+02 1.49437E+04-1.82240E-09-4.08477E-09
 -1       620 1.26878E+04 5.99189E+02 1.05265E+03 1.30771E+04 1.20474E-09-3.20006E-09
 -1       621 1.63567E+02 1.02438E+05 1.41023E+03 3.21540E+03-1.36616E-10 2.52771E-09
 -1       622 1.87030E+02 1.02787E+05 1.19772E+03 4.69148E+03-1.02887E-10 2.25967E-09
 -1       623 8.36818E+00 1.02539E+05 1.37854E+03 3.20013E+03-1.55921E-10 1.44496E-09
 -1       624 6.24719E+02 1.03189E+05 2.61878E+03 4.70658E+03-1.55751E-10-1.16458E-10
 -1       625 6.26897E+02 1.02034E+05 4.55309E+03 3.20040E+03-1.14369E-10 3.80808E-10
 -1       626 8.46355E+04 2.34910E+04 1.69710E+03 4.58032E+04-8.49241E-10-3.67436E-10
 -1       627 8.34737E+04 2.43452E+04 8.17393E+02 4.76624E+04-9.98170E-10-4.27315E-09
 -1       628 8.47039E+04 2.26864E+04 3.45563E+02 4.60611E+04 7.00311E-10-9.50649E-10
 -1       629 8.32332E+04 2.41509E+04 1.69183E+02 4.77774E+04 1.39198E-09 2.64481E-09
 -1       630 8.47117E+04 2.26463E+04 7.83909E+01 4.60701E+04 8.28550E-10 4.03020E-11
 -1       631 8.32069E+04 2.41453E+04 4.20300E+01 4.77811E+04-1.06161E-09-2.24324E-09
 -1       632 8.47102E+04 2.26479E+04 2.77893E+01 4.60679E+04-2.45927E-09-1.28000E-09
 -1       633 8.32030E+04 2.41469E+04 3.09034E+01 4.77795E+04-4.40389E-09-6.38795E-09
 -1       634 8.47070E+04 2.26474E+04 5.00539E+01 4.60667E+04 4.90536E-09 6.94820E-09
 -1       635 8.32061E+04 2.41472E+04 1.01468E+02 4.77801E+04 2.29034E-09 2.37912E-09
 -1       636 8.47021E+04 2.26467E+04 2.05023E+02 4.60655E+04-5.41547E-10-5.53882E-10
 -1       637 8.32478E+04 2.41799E+04 4.50650E+02 4.77780E+04 1.14802E-09-2.92289E-10
 -1       638 8.46838E+04 2.27476E+04 9.26323E+02 4.60188E+04-7.01448E-11 2.30261E-09
 -1       639 8.37310E+04 2.48581E+04 2.19148E+03 4.76331E+04-8.52367E-10 8.22411E-10
 -1       640 8.46169E+04 2.47660E+04 4.54814E+03 4.51618E+04-5.78098E-10-1.16870E-10
 -1       656 2.29448E+04-5.80814E+05-5.54052E+04-4.98551E+02-2.94676E-10-2.43436E-09
 -1       657-3.03168E+04-6.05846E+05-4.58199E+04 3.81047E+03 6.65750E-10-3.52941E-09
 -1       658 7.27381E+03-5.87960E+05-2.81201E+04-7.81117E+02 4.61341E-10 7.72985E-10
 -1       659-3.25011E+04-6.06872E+05-4.86885E+04 3.99582E+03-6.87578E-10 1.15869E-09
 -1       660 2.51228E+04-5.79790E+05-6.03463E+04-6.83898E+02-3.38332E-10 4.43841E-10
 -1       661 8.26317E+04 8.96449E+03 7.91838E+03 3.22448E+04 2.45564E-09 8.01265E-10
 -1       662 8.67246E+04 1.52062E+04 5.33563E+03 3.09027E+04 7.99702E-10 9.41668E-10
 -1       663 8.41797E+04 1.15117E+04 1.86645E+03 3.18014E+04 9.49910E-10-6.84850E-10
 -1       664 8.49360E+04 1.22218E+04 1.11579E+03 3.14388E+04 2.90981E-10-5.13197E-10
 -1       665 8.44086E+04 1.18652E+04 4.40200E+02 3.17402E+04-1.50496E-09 9.45334E-10
 -1       666 8.46699E+04 1.18126E+04 2.56603E+02 3.15149E+04-4.43225E-09 2.42241E-09
 -1       667 8.44443E+04 1.19103E+04 1.35337E+02 3.17293E+04 6.57508E-10 5.40812E-11
 -1       668 8.46343E+04 1.17736E+04 1.35448E+02 3.15289E+04 3.12216E-09 1.04610E-09
 -1       669 8.44440E+04 1.19032E+04 1.81546E+02 3.17266E+04 7.07701E-10 3.36037E-09
 -1       670 8.46853E+04 1.18643E+04 3.93410E+02 3.15225E+04 3.89551E-09-1.25624E-11
 -1       671 8.43935E+04 1.18215E+04 6.98032E+02 3.17350E+04-7.36058E-10 2.04804E-09
 -1       672 8.50973E+04 1.25382E+04 1.78540E+03 3.14184E+04-3.77365E-09 1.45832E-10
 -1       673 8.40343E+04 1.12464E+04 2.99192E+03 3.18242E+04-2.97820E-09-3.84443E-09
 -1       674 8.79506E+04 1.73402E+04 8.55664E+03 3.05759E+04-3.34467E-10-1.19019E-09
 -1       675 8.15588E+04 7.15377E+03 1.27002E+04 3.25270E+04 8.47194E-10-1.42927E-09
 -1       676 9.35320E+00-1.11598E+05-4.34546E+02 1.11808E+01 9.28537E-11 1.07388E-09
 -1       677-1.15349E+02-1.11703E+05-7.95228E+02-2.23606E+01-2.87348E-09-3.19250E-09
 -1       678 7.70065E+01-1.11523E+05-1.40573E+03 1.11720E+01-1.43302E-09-2.50667E-10
 -1       679-1.40586E+03-1.12551E+05-3.33913E+03-2.23178E+01-1.52698E-09 4.99519E-10
 -1       680 8.38922E+02-1.10749E+05-5.38163E+03 1.10094E+01-8.18090E-10 3.11676E-09
 -1       771-1.20119E+06-2.08282E+05-2.90960E+04-4.96914E+05-4.63842E-09-3.65981E-09
 -1       772-1.19355E+06-2.24798E+05-1.56632E+04-5.15301E+05-3.16686E-09 1.76396E-09
 -1       773-1.20492E+06-2.05401E+05-6.66907E+03-4.98543E+05-1.33878E-09 1.79898E-09
 -1       774-1.18925E+06-2.21221E+05-3.27147E+03-5.16655E+05 4.12547E-09-1.27329E-09
 -1       775-1.20557E+06-2.05032E+05-1.59275E+03-4.98635E+05-1.18234E-09 8.09450E-11
 -1       776-1.18908E+06-2.21164E+05-7.48209E+02-5.17219E+05-1.20053E-09 1.08275E-09
 -1       777-1.20596E+06-2.04771E+05-4.21681E+02-4.98666E+05 3.60160E-10 7.05768E-10
 -1       778-1.18916E+06-2.21234E+05-1.88890E+02-5.17679E+05 1.10958E-09 1.99725E-09
 -1       779-1.20626E+06-2.04547E+05-1.52793E+02-4.98691E+05-1.36424E-09-1.36515E-09
 -1       780-1.18926E+06-2.21300E+05-1.01077E+02-5.18052E+05-9.74978E-10 1.19144E-10
 -1       781-1.20647E+06-2.04366E+05-1.59916E+02-4.98708E+05-3.91992E-09-6.91671E-10
 -1       782-1.18935E+06-2.21362E+05-2.71445E+02-5.18326E+05-4.59386E-09-1.37436E-09
 -1       783-1.20661E+06-2.04249E+05-5.38358E+02-4.98714E+05 2.08274E-10 1.54699E-09
 -1       784-1.18971E+06-2.21730E+05-1.26675E+03-5.18476E+05-2.65027E-09-9.23137E-11
 -1       785-1.20645E+06-2.04358E+05-2.34265E+03-4.98549E+05-4.92173E-09 5.54792E-10
 -1       786 8.67001E+04-4.64553E+03 1.07467E+04 2.02614E+00 4.06919E-08-3.31784E-09
 -1       787 9.13570E+04 5.37803E+03 7.60328E+03-8.18992E+00 8.04731E-08-1.47804E-09
 -1       788 8.84968E+04-7.28234E+02 2.78148E+03 2.58230E+00 1.26949E-07 8.25366E-11
 -1       789 8.92640E+04 8.42606E+02 1.74762E+03-9.84263E+00 1.73133E-07 5.40274E-09
 -1       790 8.87933E+04-1.13760E+02 7.11062E+02 3.67889E+00 2.49420E-07-1.84320E-09
 -1       791 8.89180E+04 1.32167E+02 4.17447E+02-1.27303E+01 3.25788E-07 3.62297E-09
 -1       792 8.88429E+04-1.83275E+01 1.90442E+02 5.47002E+00 4.72708E-07-7.14459E-09
 -1       793 8.88620E+04 2.57034E+01 1.24643E+02-1.72682E+01 6.20588E-07 5.93586E-09
 -1       794 8.88493E+04-7.36548E+00 9.20997E+01 8.21688E+00 9.22097E-07-6.07863E-09
 -1       795 8.88674E+04 3.79167E+01 1.32890E+02-2.41098E+01 1.22232E-06 7.15895E-09
 -1       796 8.88376E+04-3.05323E+01 1.98867E+02 1.23117E+01 6.10639E-07-3.45227E-09
 -1       797 8.89575E+04 2.23789E+02 4.68729E+02-3.42328E+01 1.31839E-09 2.35963E-09
 -1       798 8.87592E+04-1.93101E+02 7.39860E+02 1.83401E+01 7.39195E-11 1.16924E-09
 -1       799 8.95122E+04 1.42575E+03 2.01689E+03-4.91836E+01 2.46435E-10 3.20122E-09
 -1       800 8.82827E+04-1.23152E+03 2.84916E+03 2.72625E+01 4.07599E-10-5.77757E-10
 -1       801-4.92936E+03 1.86493E+04 9.39280E+03 2.44958E+03 3.29305E-09-4.37151E-09
 -1       802 1.32240E+04 5.10052E+04 2.58281E+04-1.00861E+04 4.98676E-09 1.02767E-09
 -1       803-8.22492E+03 2.87814E+04 3.35656E+04 1.98885E+03 1.26438E-08 1.00648E-08
 -1       804 6.43331E+04 7.72768E+04 9.25371E+04-1.04553E+04 2.50111E-10 8.87844E-09
 -1       805-5.60354E+04-7.58282E+03 1.22522E+05 2.81863E+03 8.14907E-09 1.91743E-08
 -1       806-1.02763E+05-2.19657E+04-8.71616E+03-4.27365E+04 2.17369E-09 5.37511E-09
 -1       807-1.03281E+05-2.07117E+04-4.28202E+03-4.50411E+04-4.20073E-10 4.49748E-09
 -1       808-1.03010E+05-1.88169E+04-1.81650E+03-4.42155E+04-1.08366E-09 9.16494E-10
 -1       809-1.02368E+05-1.95224E+04-8.88061E+02-4.51644E+04-4.48927E-09-6.89374E-09
 -1       810-1.03049E+05-1.87056E+04-4.06621E+02-4.42810E+04-1.44496E-10-5.03633E-10
 -1       811-1.02298E+05-1.94753E+04-2.01672E+02-4.51544E+04 5.39899E-10 2.04579E-09
 -1       812-1.03056E+05-1.87135E+04-1.00592E+02-4.42811E+04-7.76936E-10 1.35742E-10
 -1       813-1.02290E+05-1.94763E+04-6.34818E+01-4.51496E+04 1.01988E-09 6.39739E-09
 -1       814-1.03056E+05-1.87161E+04-5.94492E+01-4.42801E+04 1.19690E-09 6.94035E-09
 -1       815-1.02292E+05-1.94771E+04-9.31862E+01-4.51490E+04-6.13909E-10 2.68057E-09
 -1       816-1.03051E+05-1.87147E+04-1.74503E+02-4.42793E+04-6.80302E-10 5.23642E-09
 -1       817-1.02323E+05-1.94936E+04-3.74424E+02-4.51469E+04 1.55160E-09 2.72576E-09
 -1       818-1.03030E+05-1.87665E+04-7.62930E+02-4.42550E+04 7.21684E-10 1.00044E-09
 -1       819-1.02745E+05-1.99515E+04-1.79604E+03-4.50462E+04-1.04751E-09-1.53443E-09
 -1       820-1.02886E+05-2.01241E+04-3.65501E+03-4.36767E+04-2.54522E-09-4.87296E-09
 -1       821-1.32552E+05 7.36030E+03-1.70244E+04-8.74560E-01-3.81831E-10-1.91267E-09
 -1       822-1.39928E+05-8.52079E+03-1.20465E+04-9.43568E+01-1.45417E-09-2.18984E-09
 -1       823-1.35399E+05 1.15383E+03-4.40937E+03-2.47149E+01 9.73272E-10 2.12822E-10
 -1       824-1.36612E+05-1.33551E+03-2.77497E+03-4.33000E+01-9.59577E-10 1.48077E-10
 -1       825-1.35868E+05 1.80679E+02-1.13985E+03-5.19331E+01-1.60542E-09-1.30484E-09
 -1       826-1.36066E+05-2.13095E+02-6.89653E+02 8.72087E+00-3.15023E-09-7.31866E-10
 -1       827-1.35944E+05 3.22402E+01-3.55650E+02-7.67369E+01-3.07244E-09-3.14920E-09
 -1       828-1.35991E+05-6.51593E+01-3.15941E+02 5.07634E+01 2.92804E-08 4.99096E-09
 -1       829-1.35943E+05 3.28574E+01-3.61068E+02-9.39764E+01 9.49249E-06-7.96172E-09
 -1       830-1.36071E+05-2.18348E+02-7.05841E+02 7.41068E+01 1.88945E-05-6.45445E-09
 -1       831-1.35864E+05 1.85336E+02-1.16832E+03-1.00081E+02-1.21396E-06-1.77528E-09
 -1       832-1.36631E+05-1.37009E+03-2.84685E+03 7.40814E+01-2.13153E-05 1.19629E-08
 -1       833-1.35383E+05 1.18376E+03-4.52346E+03-9.39506E+01-1.07072E-05 1.20992E-08
 -1       834-1.40032E+05-8.74186E+03-1.23592E+04 5.15521E+01-3.49768E-08-3.85694E-09
 -1       835-1.32463E+05 7.55129E+03-1.74662E+04-7.75489E+01 2.37361E-09-4.99313E-10
 -1       836-4.42312E+02 1.25742E+05 7.56864E+03-1.09774E+04 9.73387E-10 1.17325E-09
 -1       837 1.66027E+03 1.28089E+05 6.45971E+03-2.20678E+04 1.27250E-09 6.72969E-10
 -1       838-1.65828E+02 1.26398E+05 6.66006E+03-1.09386E+04 1.19940E-09-2.64265E-10
 -1       839 4.26777E+03 1.30038E+05 1.26764E+04-2.20826E+04 1.63436E-09 4.75709E-09
 -1       840-1.28866E+03 1.23783E+05 2.02457E+04-1.09622E+04 1.14142E-09 3.74325E-09
 -1       856-4.17585E+04 3.56241E+03-9.38665E+03-1.96651E+02-1.50240E-09-1.10958E-09
 -1       857-4.56370E+04-4.17911E+03-6.46291E+03 2.15914E+03-1.44915E-09 7.58746E-10
 -1       858-4.32908E+04 4.99381E+02-2.43606E+03-2.02441E+02-1.88189E-09 6.41421E-10
 -1       859-4.38762E+04-5.81988E+02-1.47153E+03 2.16812E+03-1.48589E-10 4.68475E-10
 -1       860-4.35202E+04 6.96174E+01-6.18726E+02-2.05667E+02 4.92619E-10-1.25263E-09
 -1       861-4.36115E+04-7.85623E+01-3.44798E+02 2.17246E+03-3.55057E-09-2.47621E-09
 -1       862-4.35559E+04 9.38388E+00-1.52122E+02-2.06786E+02 2.68940E-09 6.11955E-10
 -1       863-4.35693E+04-7.60044E+00-7.53760E+01 2.17297E+03 4.74948E-09 7.27596E-11
 -1       864-4.35624E+04 1.76671E-01-2.39400E+01-2.06174E+02 3.33420E-09 4.31641E-10
 -1       865-4.35577E+04 8.65710E+00 1.32552E+01 2.16975E+03 3.57539E-09-1.14012E-09
 -1       866-4.35672E+04-6.86748E+00 5.00462E+01-2.03572E+02-2.24972E-10-2.15060E-10
 -1       867-4.35294E+04 5.82608E+01 1.37514E+02 2.16274E+03 1.45485E-09 1.78009E-09
 -1       868-4.35900E+04-4.87060E+01 2.32708E+02-1.99158E+02 1.84252E-09 3.82822E-09
 -1       869-4.33566E+04 4.05642E+02 6.23887E+02 2.15041E+03-1.35647E-09 1.39619E-09
 -1       870-4.37388E+04-3.45050E+02 9.05895E+02-1.91250E+02-5.50529E-11-2.49770E-09
 -1       871-1.92265E+03-4.00723E+03-6.30046E+03 4.13248E+04 1.41426E-09 1.24828E-09
 -1       872-8.29678E+02-5.41313E+03-2.56565E+03 5.35733E+04 2.13936E-09 1.52193E-09
 -1       873-9.90827E+00-4.74461E+03 3.76967E+02 4.12327E+04 1.09617E-09 1.89061E-10
 -1       874 9.85194E+02-3.82734E+03 3.59866E+03 5.35930E+04 2.12685E-09 1.89902E-09
 -1       875 2.32200E+03-5.60588E+03 7.97618E+03 4.13074E+04 8.53561E-10 1.71940E-09
 -1       876 1.03552E+05 1.78278E+04 5.55246E+03 4.19909E+04-2.14459E-09 1.00954E-09
 -1       877 1.03868E+05 1.90473E+04 2.96503E+03 4.36352E+04-2.81261E-09-5.14547E-10
 -1       878 1.04072E+05 1.72123E+04 1.24229E+03 4.24465E+04 1.45121E-09 2.76032E-10
 -1       879 1.03113E+05 1.82954E+04 6.18765E+02 4.36761E+04-5.41320E-10 4.16634E-10
 -1       880 1.04111E+05 1.72048E+04 2.88111E+02 4.24651E+04 9.87939E-11-1.47429E-09
 -1       881 1.03063E+05 1.82637E+04 1.53381E+02 4.36693E+04 3.06625E-09 2.43446E-10
 -1       882 1.04115E+05 1.72088E+04 9.73994E+01 4.24656E+04 3.50042E-09 1.24266E-09
 -1       883 1.03060E+05 1.82623E+04 1.03484E+02 4.36677E+04 1.50271E-09 1.33582E-11
 -1       884 1.04113E+05 1.72075E+04 1.63554E+02 4.24657E+04-7.75884E-10 4.65491E-10
 -1       885 1.03073E+05 1.82647E+04 3.28176E+02 4.36720E+04 2.51453E-09 2.88566E-10
 -1       886 1.04101E+05 1.71979E+04 6.61156E+02 4.24644E+04 1.55752E-09-1.86640E-09
 -1       887 1.03189E+05 1.83408E+04 1.44416E+03 4.36885E+04-1.57922E-09-1.90636E-09
 -1       888 1.04009E+05 1.72143E+04 2.91010E+03 4.24182E+04 9.90454E-10 1.88561E-09
 -1       889 1.04923E+05 2.01412E+04 6.95234E+03 4.36327E+04 5.69905E-10-8.29687E-10
 -1       890 1.02822E+05 1.86236E+04 1.30208E+04 4.13091E+04 3.14515E-09 1.32741E-09
 -1       891-6.07465E+01-5.89052E+04-6.92593E+02 1.12049E+04-6.95763E-11 1.71502E-09
 -1       892-1.06062E+02-5.90744E+04-7.54813E+02 1.69613E+04 1.40767E-09 2.13163E-11
 -1       893-1.27836E+01-5.89293E+04-1.07947E+03 1.12068E+04 1.79796E-09 5.76620E-10
 -1       894-5.81557E+02-5.94956E+04-2.24284E+03 1.69017E+04-1.38630E-09 1.28011E-09
 -1       895-4.52035E+02-5.84680E+04-3.95146E+03 1.12641E+04 2.36696E-10 1.95541E-11
 -1       956-1.30032E+05-1.87507E+03-4.71978E+03 8.58429E+03-2.50452E-09-8.11951E-10
 -1       957-1.30963E+05-6.34021E+02-2.42316E+03 1.03313E+04-8.03084E-10-5.36602E-10
 -1       958-1.30448E+05-5.18252E+01-1.09151E+03 8.52885E+03 1.10731E-09-2.67812E-09
 -1       959-1.30521E+05-1.18782E+01-5.57631E+02 1.03912E+04-1.03876E-09 1.34901E-09
 -1       960-1.30483E+05 1.27675E+01-2.71707E+02 8.52386E+03-2.13754E-09 3.97813E-09
 -1       961-1.30486E+05 1.02669E+01-1.44126E+02 1.03968E+04-3.06602E-09 2.73030E-09
 -1       962-1.30489E+05 9.82226E+00-8.22607E+01 8.52328E+03-1.77897E-09-2.11492E-09
 -1       963-1.30483E+05 1.00586E+01-6.56977E+01 1.03975E+04-3.29260E-09 2.42807E-09
 -1       964-1.30489E+05 1.02445E+01-7.92436E+01 8.52308E+03-1.02943E-10 1.43967E-09
 -1       965-1.30488E+05 1.12577E+01-1.36510E+02 1.03975E+04 2.19036E-09-1.96502E-09
 -1       966-1.30486E+05 1.39860E+01-2.55929E+02 8.52333E+03-9.51331E-10-1.54290E-09
 -1       967-1.30522E+05-8.54266E+00-5.24749E+02 1.03944E+04-5.95548E-10-3.84034E-10
 -1       968-1.30454E+05-4.58026E+01-1.02670E+03 8.52621E+03-2.22258E-10-6.58531E-11
 -1       969-1.30940E+05-5.92906E+02-2.27954E+03 1.03594E+04 3.75621E-10 5.81664E-09
 -1       970-1.30064E+05-1.76036E+03-4.43980E+03 8.55908E+03 6.69729E-10 1.73213E-09
 -1       971-1.23611E+05-6.54606E+02-3.63983E+03 6.10492E+03-2.55318E-09 8.16357E-10
 -1       972-1.24496E+05-4.71687E+02-1.98260E+03 8.51366E+03-2.61900E-09 1.16404E-09
 -1       973-1.24013E+05-5.79995E+00-8.87378E+02 6.05550E+03-1.23077E-09-1.15836E-09
 -1       974-1.24073E+05-8.41045E+00-4.59862E+02 8.56652E+03 3.36058E-10-2.91550E-09
 -1       975-1.24043E+05 9.58857E+00-2.29120E+02 6.05172E+03 4.80668E-10-4.70777E-10
 -1       976-1.24046E+05 9.17020E+00-1.31270E+02 8.57080E+03-2.08797E-09-2.68295E-09
 -1       977-1.24047E+05 8.39690E+00-9.33629E+01 6.05119E+03 4.29623E-10-6.49720E-11
 -1       978-1.24045E+05 1.04253E+01-1.06803E+02 8.57153E+03 6.76081E-09 2.90356E-10
 -1       979-1.24046E+05 1.07655E+01-1.69360E+02 6.05099E+03 3.15899E-09 1.17831E-09
 -1       980-1.24057E+05 1.12390E+01-3.25610E+02 8.57157E+03 3.51401E-09 2.24287E-09
 -1       981-1.24036E+05 1.89439E+01-6.29795E+02 6.05114E+03-2.78533E-12-1.79489E-09
 -1       982-1.24145E+05-3.48335E+01-1.30130E+03 8.56938E+03-1.92404E-09 7.59400E-10
 -1       983-1.23958E+05-2.06614E+01-2.52800E+03 6.05324E+03 5.91513E-10 5.05088E-09
 -1       984-1.25362E+05-1.35384E+03-5.66090E+03 8.53584E+03-1.65073E-10 2.50117E-09
 -1       985-1.22815E+05-1.86971E+03-1.03952E+04 6.08607E+03 1.96223E-09 2.62162E-09
 -3
    1PSTEP                         5           3           1          
  100CL  103 4.37500E-01         409                     0    3           1
 -4  DISP        4    1
 -5  D1          1    2    1    0
 -5  D2          1    2    2    0
 -5  D3          1    2    3    0
 -5  ALL         1    2    0    0    1ALL
 -1         1 1.15111E-04 0.00000E+00 0.00000E+00
 -1         2 1.06049E-04-2.93271E-30 0.00000E+00
 -1         3 9.88595E-05 2.45311E-27 6.61744E-24
 -1         5 7.08168E-05 2.68291E-26 0.00000E+00
 -1         8 9.20450E-05-8.40986E-07 0.00000E+00
 -1         9 9.34626E-05 5.52598E-07 0.00000E+00
 -1        10 9.15515E-05-1.35014E-06 0.00000E+00
 -1        12 7.03308E-05 4.77180E-07 0.00000E+00
 -1        15 6.45885E-05-9.23993E-07 2.06795E-25
 -1        16 6.68178E-05 4.20060E-07 0.00000E+00
 -1        17 6.81480E-05-2.84617E-06 0.00000E+00
 -1        18 6.79502E-05 3.30533E-07 0.00000E+00
 -1        19 6.88730E-05 9.51716E-07 0.00000E+00
 -1        20 6.89966E-05 1.40003E-05 0.00000E+00
 -1        21 6.85295E-05 2.64479E-05 0.00000E+00
 -1        24 1.73037E-05-3.85788E-06 0.00000E+00
 -1        25 6.64168E-05 4.40107E-07 0.00000E+00
 -1        26 6.72869E-05 1.32587E-06 0.00000E+00
 -1        27 6.59664E-05 1.18789E-05 0.00000E+00
 -1        28 6.55399E-05 2.60403E-05 0.00000E+00
 -1        32 0.00000E+00 0.00000E+00 0.00000E+00
 -1        33 6.45629E-05 1.77770E-06 0.00000E+00
 -1        34 6.32870E-05 1.18599E-05 0.00000E+00
 -1        35 6.20739E-05 2.58250E-05 0.00000E+00
 -1        51 1.13611E-04-1.38285E-07 0.00000E+00
 -1        52 1.10831E-04-2.73009E-07 0.00000E+00
 -1        53 1.07022E-04-4.09064E-07 0.00000E+00
 -1        54 1.02446E-04-5.47774E-07 0.00000E+00
 -1        55 9.73663E-05-6.89839E-07 6.10046E-24
 -1        56 1.14072E-04-6.84119E-07 2.64698E-23
 -1        57 1.13171E-04-1.85273E-06 1.32349E-23
 -1        58 1.12402E-04-3.37053E-06 2.64698E-23
 -1        59 1.11709E-04-5.11104E-06 0.00000E+00
 -1        60 1.11045E-04-6.92963E-06 2.64698E-23
 -1        61 1.10355E-04-8.68237E-06 0.00000E+00
 -1        62 1.09588E-04-1.02284E-05 0.00000E+00
 -1        63 1.08692E-04-1.14331E-05-1.32349E-23
 -1        64 1.07626E-04-1.21808E-05-2.64698E-23
 -1        65 1.06350E-04-1.23684E-05-1.32349E-23
 -1        66 1.04836E-04-1.19243E-05 0.00000E+00
 -1        67 1.03066E-04-1.07940E-05 0.00000E+00
 -1        68 1.01031E-04-8.96203E-06 0.00000E+00
 -1        69 9.87384E-05-6.42975E-06 1.32349E-23
 -1        70 9.61956E-05-3.24267E-06 0.00000E+00
 -1        86 1.05725E-04 9.95555E-08 0.00000E+00
 -1        87 1.04751E-04 1.98191E-07 0.00000E+00
 -1        88 1.03093E-04 2.95881E-07 0.00000E+00
 -1        89 1.00710E-04 3.88931E-07 0.00000E+00
 -1        90 9.75268E-05 4.80923E-07 0.00000E+00
 -1       121 9.86556E-05-2.24010E-07-6.61744E-24
 -1       122 9.80442E-05-4.48184E-07 3.30872E-24
 -1       123 9.70262E-05-6.72685E-07-6.61744E-24
 -1       124 9.56033E-05-8.97711E-07 3.30872E-24
 -1       125 9.37773E-05-1.12336E-06 6.61744E-24
 -1       191 7.08033E-05 7.95369E-08 0.00000E+00
 -1       192 7.07628E-05 1.59072E-07 0.00000E+00
 -1       193 7.06953E-05 2.38606E-07-3.30872E-24
 -1       194 7.06008E-05 3.18137E-07 0.00000E+00
 -1       195 7.04793E-05 3.97662E-07-3.30872E-24
 -1       251 9.21125E-05 2.94090E-06 0.00000E+00
 -1       252 9.22011E-05 5.16249E-06 0.00000E+00
 -1       253 9.22907E-05 6.10190E-06 1.65436E-24
 -1       254 9.23838E-05 6.03198E-06 0.00000E+00
 -1       255 9.24767E-05 5.17575E-06 0.00000E+00
 -1       256 9.25695E-05 3.75314E-06 0.00000E+00
 -1       257 9.26619E-05 1.95592E-06-3.30872E-24
 -1       258 9.27541E-05-2.56309E-08 0.00000E+00
 -1       259 9.28462E-05-2.01044E-06 0.00000E+00
 -1       260 9.29386E-05-3.81741E-06-1.65436E-24
 -1       261 9.30314E-05-5.25658E-06 0.00000E+00
 -1       262 9.31243E-05-6.13660E-06 0.00000E+00
 -1       263 9.32173E-05-6.23824E-06 0.00000E+00
 -1       264 9.33068E-05-5.33924E-06 0.00000E+00
 -1       265 9.33954E-05-3.16791E-06-3.30872E-24
 -1       266 8.74690E-05-8.66158E-07 6.61744E-24
 -1       267 8.28929E-05-8.78611E-07 0.00000E+00
 -1       268 7.83168E-05-8.91869E-07 0.00000E+00
 -1       269 7.37407E-05-9.02741E-07 4.13590E-25
 -1       270 6.91646E-05-9.13557E-07 0.00000E+00
 -1       271 8.92572E-05 2.58345E-06 0.00000E+00
 -1       272 8.68844E-05 4.77852E-06 1.32349E-23
 -1       273 8.49238E-05 5.88648E-06 0.00000E+00
 -1       274 8.33113E-05 6.04863E-06 0.00000E+00
 -1       275 8.19917E-05 5.42875E-06 0.00000E+00
 -1       276 8.08983E-05 4.20151E-06 0.00000E+00
 -1       277 7.99621E-05 2.55325E-06-5.29396E-23
 -1       278 7.91108E-05 6.77240E-07 0.00000E+00
 -1       279 7.82708E-05-1.22909E-06 5.29396E-23
 -1       280 7.73683E-05-2.96771E-06 0.00000E+00
 -1       281 7.63303E-05-4.34382E-06-5.29396E-23
 -1       282 7.50869E-05-5.16866E-06 0.00000E+00
 -1       283 7.35702E-05-5.26381E-06-5.29396E-23
 -1       284 7.17213E-05-4.46173E-06 1.32349E-23
 -1       285 6.94772E-05-2.61468E-06 0.00000E+00
 -1       301 8.89225E-05 5.24846E-07-6.61744E-24
 -1       302 8.43905E-05 5.10757E-07 1.65436E-24
 -1       303 7.98903E-05 4.97143E-07 3.30872E-24
 -1       304 7.54456E-05 4.82137E-07 0.00000E+00
 -1       305 7.10804E-05 4.65161E-07-1.32349E-23
 -1       306 9.05791E-05 3.93122E-06 0.00000E+00
 -1       307 8.81196E-05 6.04914E-06 0.00000E+00
 -1       308 8.61587E-05 6.85356E-06-5.29396E-23
 -1       309 8.46889E-05 6.32616E-06 0.00000E+00
 -1       310 8.36539E-05 4.63721E-06 0.00000E+00
 -1       311 8.29695E-05 2.00413E-06 2.64698E-23
 -1       312 8.25071E-05-1.22531E-06-5.29396E-23
 -1       313 8.21274E-05-4.67797E-06-2.64698E-23
 -1       314 8.16804E-05-7.94952E-06-5.29396E-23
 -1       315 8.10187E-05-1.06435E-05 0.00000E+00
 -1       316 8.00235E-05-1.24437E-05 0.00000E+00
 -1       317 7.85916E-05-1.30718E-05 0.00000E+00
 -1       318 7.66758E-05-1.24111E-05-5.29396E-23
 -1       319 7.42604E-05-1.03970E-05 0.00000E+00
 -1       320 7.13772E-05-7.15696E-06 0.00000E+00
 -1       336 8.88761E-05-1.59569E-06-6.61744E-24
 -1       337 8.57019E-05-1.84296E-06 0.00000E+00
 -1       338 8.20344E-05-2.09179E-06 6.61744E-24
 -1       339 7.78809E-05-2.34208E-06 0.00000E+00
 -1       340 7.32490E-05-2.59443E-06 6.61744E-24
 -1       406 7.01553E-05 5.56683E-07 3.30872E-24
 -1       407 6.99527E-05 6.36156E-07 1.65436E-24
 -1       408 6.97232E-05 7.15575E-07 0.00000E+00
 -1       409 6.94666E-05 7.94841E-07 0.00000E+00
 -1       410 6.91832E-05 8.73798E-07 0.00000E+00
 -1       521 6.34369E-05 1.27737E-06 5.29396E-23
 -1       522 6.16883E-05-2.49056E-06 0.00000E+00
 -1       523 6.14050E-05-1.02013E-05 1.05879E-22
 -1       524 6.22019E-05-2.09100E-05-5.29396E-23
 -1       525 6.35242E-05-3.30629E-05-1.05879E-22
 -1       526 6.47652E-05-4.50005E-05 0.00000E+00
 -1       527 6.53379E-05-5.51054E-05 1.05879E-22
 -1       528 6.46961E-05-6.19023E-05-5.29396E-23
 -1       529 6.25244E-05-6.45771E-05 1.05879E-22
 -1       530 5.86165E-05-6.26298E-05 0.00000E+00
 -1       531 5.31099E-05-5.64796E-05 1.05879E-22
 -1       532 4.62716E-05-4.68601E-05-5.29396E-23
 -1       533 3.86398E-05-3.51921E-05 0.00000E+00
 -1       534 3.08376E-05-2.30415E-05 2.64698E-23
 -1       535 2.34924E-05-1.20831E-05 5.29396E-23
 -1       536 6.81191E-05 1.93656E-06 3.30872E-24
 -1       537 6.81013E-05 5.62447E-06 0.00000E+00
 -1       538 6.80862E-05 8.29809E-06 0.00000E+00
 -1       539 6.80744E-05 1.00385E-05 0.00000E+00
 -1       540 6.80637E-05 1.09472E-05 0.00000E+00
 -1       541 6.80536E-05 1.11264E-05 0.00000E+00
 -1       542 6.80435E-05 1.06939E-05 4.13590E-25
 -1       543 6.80331E-05 9.76789E-06 0.00000E+00
 -1       544 6.80224E-05 8.47742E-06 0.00000E+00
 -1       545 6.80113E-05 6.95155E-06-1.03398E-25
 -1       546 6.80002E-05 5.32451E-06 2.06795E-25
 -1       547 6.79891E-05 3.73061E-06 0.00000E+00
 -1       548 6.79783E-05 2.30337E-06-2.06795E-25
 -1       549 6.79681E-05 1.17631E-06 3.23117E-27
 -1       550 6.79583E-05 4.76431E-07 2.06795E-25
 -1       551 6.14202E-05-2.99801E-06 6.61744E-24
 -1       552 5.33727E-05-3.15648E-06-2.48154E-24
 -1       553 4.44682E-05-3.32181E-06 3.30872E-24
 -1       554 3.51762E-05-3.49266E-06 0.00000E+00
 -1       555 2.59660E-05-3.66535E-06 0.00000E+00
 -1       556 6.63784E-05 1.73677E-06 1.32349E-23
 -1       557 6.50253E-05 5.24300E-06 0.00000E+00
 -1       558 6.40433E-05 7.77155E-06 0.00000E+00
 -1       559 6.33908E-05 9.42930E-06 0.00000E+00
 -1       560 6.30264E-05 1.03229E-05 0.00000E+00
 -1       561 6.29091E-05 1.05595E-05 0.00000E+00
 -1       562 6.29980E-05 1.02465E-05 0.00000E+00
 -1       563 6.32527E-05 9.49143E-06-3.30872E-24
 -1       564 6.36326E-05 8.40171E-06-3.30872E-24
 -1       565 6.40974E-05 7.08494E-06 8.27181E-25
 -1       566 6.46069E-05 5.64876E-06 0.00000E+00
 -1       567 6.51208E-05 4.20080E-06 2.06795E-25
 -1       568 6.55988E-05 2.84869E-06 0.00000E+00
 -1       569 6.60009E-05 1.69991E-06 0.00000E+00
 -1       570 6.62866E-05 8.62010E-07 0.00000E+00
 -1       571 6.80062E-05 4.05812E-07-4.13590E-25
 -1       572 6.80634E-05 4.42904E-07-2.06795E-25
 -1       573 6.81210E-05 4.48612E-07 8.27181E-25
 -1       574 6.81788E-05 4.30101E-07 0.00000E+00
 -1       575 6.82366E-05 3.94567E-07 1.65436E-24
 -1       576 6.82945E-05 3.49252E-07 8.27181E-25
 -1       577 6.83524E-05 3.01403E-07 0.00000E+00
 -1       578 6.84103E-05 2.58274E-07-8.27181E-25
 -1       579 6.84681E-05 2.27118E-07 0.00000E+00
 -1       580 6.85260E-05 2.15191E-07-1.65436E-24
 -1       581 6.85839E-05 2.29744E-07 0.00000E+00
 -1       582 6.86418E-05 2.78024E-07 3.30872E-24
 -1       583 6.86997E-05 3.67268E-07 0.00000E+00
 -1       584 6.87575E-05 5.04642E-07 0.00000E+00
 -1       585 6.88153E-05 6.97267E-07-3.30872E-24
 -1       586 6.76748E-05 3.49932E-07-8.27181E-25
 -1       587 6.73749E-05 3.68844E-07-2.06795E-25
 -1       588 6.70747E-05 3.87546E-07-4.13590E-25
 -1       589 6.67987E-05 4.05953E-07 0.00000E+00
 -1       590 6.65715E-05 4.23861E-07 0.00000E+00
 -1       591 6.78951E-05 4.35312E-07 0.00000E+00
 -1       592 6.78495E-05 5.08571E-07 0.00000E+00
 -1       593 6.78133E-05 5.56305E-07 0.00000E+00
 -1       594 6.77844E-05 5.83916E-07-2.06795E-25
 -1       595 6.77610E-05 5.96877E-07 0.00000E+00
 -1       596 6.77409E-05 6.00620E-07 2.06795E-25
 -1       597 6.77223E-05 6.00575E-07 4.13590E-25
 -1       598 6.77031E-05 6.02169E-07-2.06795E-25
 -1       599 6.76812E-05 6.10826E-07 0.00000E+00
 -1       600 6.76546E-05 6.31972E-07 2.06795E-25
 -1       601 6.76213E-05 6.71031E-07-2.06795E-25
 -1       602 6.75793E-05 7.33434E-07 0.00000E+00
 -1       603 6.75266E-05 8.24612E-07-1.55096E-25
 -1       604 6.74614E-05 9.50038E-07 5.16988E-26
 -1       605 6.73814E-05 1.11511E-06 0.00000E+00
 -1       606 6.88837E-05 1.33792E-06 0.00000E+00
 -1       607 6.88923E-05 1.80658E-06 0.00000E+00
 -1       608 6.89004E-05 2.35285E-06 0.00000E+00
 -1       609 6.89082E-05 2.97128E-06 1.65436E-24
 -1       610 6.89159E-05 3.65637E-06 0.00000E+00
 -1       611 6.89235E-05 4.40258E-06 0.00000E+00
 -1       612 6.89310E-05 5.20433E-06 0.00000E+00
 -1       613 6.89385E-05 6.05606E-06 0.00000E+00
 -1       614 6.89459E-05 6.95219E-06 1.65436E-24
 -1       615 6.89533E-05 7.88715E-06 0.00000E+00
 -1       616 6.89607E-05 8.85537E-06 0.00000E+00
 -1       617 6.89680E-05 9.85128E-06 0.00000E+00
 -1       618 6.89753E-05 1.08693E-05 0.00000E+00
 -1       619 6.89826E-05 1.19039E-05 0.00000E+00
 -1       620 6.89897E-05 1.29494E-05 0.00000E+00
 -1       621 6.85680E-05 1.01411E-06 1.65436E-24
 -1       622 6.82857E-05 1.07682E-06-8.27181E-25
 -1       623 6.80213E-05 1.13952E-06 0.00000E+00
 -1       624 6.77700E-05 1.20211E-06 8.27181E-25
 -1       625 6.75268E-05 1.26460E-06 1.65436E-24
 -1       626 6.87949E-05 1.35756E-06 0.00000E+00
 -1       627 6.86917E-05 1.83166E-06-3.30872E-24
 -1       628 6.85654E-05 2.36767E-06 3.30872E-24
 -1       629 6.84185E-05 2.95883E-06 0.00000E+00
 -1       630 6.82534E-05 3.59839E-06 0.00000E+00
 -1       631 6.80726E-05 4.27952E-06 0.00000E+00
 -1       632 6.78789E-05 4.99542E-06-3.30872E-24
 -1       633 6.76746E-05 5.73928E-06 0.00000E+00
 -1       634 6.74623E-05 6.50428E-06 0.00000E+00
 -1       635 6.72447E-05 7.28361E-06 0.00000E+00
 -1       636 6.70243E-05 8.07046E-06-1.65436E-24
 -1       637 6.68035E-05 8.85802E-06-8.27181E-25
 -1       638 6.65850E-05 9.63947E-06 1.65436E-24
 -1       639 6.63712E-05 1.04080E-05 8.27181E-25
 -1       640 6.61645E-05 1.11568E-05 0.00000E+00
 -1       656 6.81239E-05 1.36552E-05 6.61744E-24
 -1       657 6.75605E-05 1.32962E-05 0.00000E+00
 -1       658 6.71888E-05 1.29384E-05 0.00000E+00
 -1       659 6.68879E-05 1.25809E-05-3.30872E-24
 -1       660 6.65245E-05 1.22222E-05-3.30872E-24
 -1       661 6.86741E-05 1.50298E-05 8.27181E-25
 -1       662 6.83709E-05 1.60148E-05-8.27181E-25
 -1       663 6.80840E-05 1.69563E-05 0.00000E+00
 -1       664 6.78130E-05 1.78567E-05 0.00000E+00
 -1       665 6.75568E-05 1.87175E-05 0.00000E+00
 -1       666 6.73149E-05 1.95407E-05-8.27181E-25
 -1       667 6.70866E-05 2.03278E-05 0.00000E+00
 -1       668 6.68711E-05 2.10807E-05 0.00000E+00
 -1       669 6.66680E-05 2.18008E-05 0.00000E+00
 -1       670 6.64766E-05 2.24896E-05 0.00000E+00
 -1       671 6.62963E-05 2.31486E-05 1.65436E-24
 -1       672 6.61267E-05 2.37791E-05-8.27181E-25
 -1       673 6.59672E-05 2.43825E-05 0.00000E+00
 -1       674 6.58167E-05 2.49598E-05 0.00000E+00
 -1       675 6.56758E-05 2.55125E-05-4.13590E-25
 -1       676 6.80301E-05 2.63796E-05 0.00000E+00
 -1       677 6.75309E-05 2.63113E-05 0.00000E+00
 -1       678 6.70320E-05 2.62430E-05-1.65436E-24
 -1       679 6.65338E-05 2.61749E-05-8.27181E-25
 -1       680 6.60363E-05 2.61068E-05 0.00000E+00
 -1       771 1.38163E-05 2.77028E-06 2.64698E-23
 -1       772 1.07779E-05 8.19797E-06-1.32349E-23
 -1       773 8.17041E-06 1.24923E-05-2.64698E-23
 -1       774 5.96504E-06 1.57246E-05 0.00000E+00
 -1       775 4.13374E-06 1.79678E-05 0.00000E+00
 -1       776 2.64712E-06 1.92973E-05-1.32349E-23
 -1       777 1.47548E-06 1.97900E-05 0.00000E+00
 -1       778 5.88464E-07 1.95249E-05 0.00000E+00
 -1       779-4.45097E-08 1.85820E-05 2.64698E-23
 -1       780-4.54551E-07 1.70432E-05 0.00000E+00
 -1       781-6.72887E-07 1.49913E-05 0.00000E+00
 -1       782-7.31154E-07 1.25102E-05 1.32349E-23
 -1       783-6.61057E-07 9.68468E-06 2.64698E-23
 -1       784-4.94559E-07 6.60037E-06-1.32349E-23
 -1       785-2.63675E-07 3.34328E-06 0.00000E+00
 -1       786 6.64680E-05 4.30173E-07 0.00000E+00
 -1       787 6.65223E-05 4.24219E-07-4.13590E-25
 -1       788 6.65763E-05 4.22224E-07 0.00000E+00
 -1       789 6.66309E-05 4.24174E-07 0.00000E+00
 -1       790 6.66856E-05 4.30555E-07-1.65436E-24
 -1       791 6.67404E-05 4.41859E-07 0.00000E+00
 -1       792 6.67951E-05 4.59203E-07 0.00000E+00
 -1       793 6.68499E-05 4.83714E-07 0.00000E+00
 -1       794 6.69047E-05 5.17426E-07 0.00000E+00
 -1       795 6.69595E-05 5.62393E-07 0.00000E+00
 -1       796 6.70143E-05 6.22086E-07 0.00000E+00
 -1       797 6.70691E-05 7.00013E-07 8.27181E-25
 -1       798 6.71238E-05 8.01978E-07 0.00000E+00
 -1       799 6.71784E-05 9.33841E-07 0.00000E+00
 -1       800 6.72331E-05 1.10523E-06 0.00000E+00
 -1       801 6.19504E-05 4.40382E-07 0.00000E+00
 -1       802 4.85605E-05 3.64335E-07 0.00000E+00
 -1       803 3.09683E-05 2.28832E-07 0.00000E+00
 -1       804 1.38926E-05 9.55388E-08 3.30872E-24
 -1       805 2.00856E-06 3.24554E-08 0.00000E+00
 -1       806 6.63536E-05 3.92026E-07 1.65436E-24
 -1       807 6.62875E-05 3.44302E-07-8.27181E-25
 -1       808 6.62191E-05 3.01185E-07 1.65436E-24
 -1       809 6.61474E-05 2.66276E-07 8.27181E-25
 -1       810 6.60711E-05 2.43173E-07 0.00000E+00
 -1       811 6.59891E-05 2.35414E-07 0.00000E+00
 -1       812 6.58999E-05 2.46539E-07 1.65436E-24
 -1       813 6.58024E-05 2.80075E-07 8.27181E-25
 -1       814 6.56951E-05 3.39550E-07 1.65436E-24
 -1       815 6.55767E-05 4.28486E-07-8.27181E-25
 -1       816 6.54460E-05 5.50406E-07 0.00000E+00
 -1       817 6.53016E-05 7.08829E-07 0.00000E+00
 -1       818 6.51423E-05 9.07273E-07-8.27181E-25
 -1       819 6.49667E-05 1.14924E-06 0.00000E+00
 -1       820 6.47737E-05 1.43824E-06 1.65436E-24
 -1       821 6.72092E-05 1.57277E-06 0.00000E+00
 -1       822 6.71267E-05 1.82355E-06 8.27181E-25
 -1       823 6.70445E-05 2.10937E-06-1.65436E-24
 -1       824 6.69613E-05 2.46130E-06-8.27181E-25
 -1       825 6.68781E-05 2.89894E-06 0.00000E+00
 -1       826 6.67947E-05 3.44155E-06-1.65436E-24
 -1       827 6.67112E-05 4.09022E-06-3.30872E-24
 -1       828 6.66276E-05 4.84564E-06-1.65436E-24
 -1       829 6.65439E-05 5.68999E-06 0.00000E+00
 -1       830 6.64602E-05 6.60513E-06 0.00000E+00
 -1       831 6.63765E-05 7.56065E-06 0.00000E+00
 -1       832 6.62930E-05 8.52598E-06 0.00000E+00
 -1       833 6.62095E-05 9.46884E-06-1.65436E-24
 -1       834 6.61270E-05 1.03571E-05 0.00000E+00
 -1       835 6.60442E-05 1.11679E-05-8.27181E-25
 -1       836 6.69592E-05 1.40109E-06 1.65436E-24
 -1       837 6.65322E-05 1.47797E-06 8.27181E-25
 -1       838 6.60422E-05 1.55471E-06 0.00000E+00
 -1       839 6.55262E-05 1.63095E-06-8.27181E-25
 -1       840 6.50209E-05 1.70708E-06 0.00000E+00
 -1       856 6.59428E-05 1.25885E-05 0.00000E+00
 -1       857 6.59164E-05 1.33888E-05 2.06795E-25
 -1       858 6.58901E-05 1.42656E-05 4.13590E-25
 -1       859 6.58634E-05 1.52045E-05-4.13590E-25
 -1       860 6.58365E-05 1.61910E-05-8.27181E-25
 -1       861 6.58095E-05 1.72107E-05-4.13590E-25
 -1       862 6.57825E-05 1.82491E-05 0.00000E+00
 -1       863 6.57554E-05 1.92916E-05 4.13590E-25
 -1       864 6.57284E-05 2.03236E-05 8.27181E-25
 -1       865 6.57014E-05 2.13307E-05 4.13590E-25
 -1       866 6.56744E-05 2.22983E-05 0.00000E+00
 -1       867 6.56474E-05 2.32120E-05 4.13590E-25
 -1       868 6.56205E-05 2.40574E-05-8.27181E-25
 -1       869 6.55937E-05 2.48200E-05-4.13590E-25
 -1       870 6.55669E-05 2.54857E-05 0.00000E+00
 -1       871 6.54275E-05 1.18782E-05 4.13590E-25
 -1       872 6.49758E-05 1.18757E-05 0.00000E+00
 -1       873 6.45739E-05 1.18728E-05 0.00000E+00
 -1       874 6.41836E-05 1.18695E-05-1.55096E-25
 -1       875 6.37672E-05 1.18658E-05 2.06795E-25
 -1       876 6.57796E-05 1.25960E-05 0.00000E+00
 -1       877 6.55780E-05 1.33573E-05 8.27181E-25
 -1       878 6.53620E-05 1.41573E-05 3.30872E-24
 -1       879 6.51335E-05 1.49913E-05 0.00000E+00
 -1       880 6.48942E-05 1.58541E-05 3.30872E-24
 -1       881 6.46459E-05 1.67407E-05 0.00000E+00
 -1       882 6.43906E-05 1.76463E-05 0.00000E+00
 -1       883 6.41300E-05 1.85657E-05 0.00000E+00
 -1       884 6.38660E-05 1.94941E-05-1.65436E-24
 -1       885 6.36006E-05 2.04266E-05 8.27181E-25
 -1       886 6.33354E-05 2.13580E-05 0.00000E+00
 -1       887 6.30724E-05 2.22835E-05 0.00000E+00
 -1       888 6.28134E-05 2.31981E-05 1.65436E-24
 -1       889 6.25600E-05 2.40967E-05 0.00000E+00
 -1       890 6.23140E-05 2.49744E-05 0.00000E+00
 -1       891 6.50611E-05 2.60043E-05 8.27181E-25
 -1       892 6.45667E-05 2.59681E-05-4.13590E-25
 -1       893 6.40387E-05 2.59320E-05-8.27181E-25
 -1       894 6.34592E-05 2.58960E-05 2.06795E-25
 -1       895 6.28101E-05 2.58600E-05-2.06795E-25
 -1       956 6.44846E-05 2.22019E-06 1.65436E-24
 -1       957 6.44051E-05 2.71382E-06 8.27181E-25
 -1       958 6.43253E-05 3.25325E-06 0.00000E+00
 -1       959 6.42454E-05 3.83287E-06-8.27181E-25
 -1       960 6.41654E-05 4.44704E-06 0.00000E+00
 -1       961 6.40853E-05 5.09009E-06-8.27181E-25
 -1       962 6.40053E-05 5.75633E-06 3.30872E-24
 -1       963 6.39252E-05 6.44010E-06 1.65436E-24
 -1       964 6.38451E-05 7.13571E-06 1.65436E-24
 -1       965 6.37650E-05 7.83748E-06 0.00000E+00
 -1       966 6.36850E-05 8.53973E-06 0.00000E+00
 -1       967 6.36049E-05 9.23679E-06-1.65436E-24
 -1       968 6.35249E-05 9.92297E-06 3.30872E-24
 -1       969 6.34450E-05 1.05926E-05 0.00000E+00
 -1       970 6.33654E-05 1.12401E-05-3.30872E-24
 -1       971 6.32121E-05 1.24967E-05 0.00000E+00
 -1       972 6.31363E-05 1.32009E-05 8.27181E-25
 -1       973 6.30603E-05 1.39651E-05-1.65436E-24
 -1       974 6.29841E-05 1.47815E-05 0.00000E+00
 -1       975 6.29079E-05 1.56423E-05 1.65436E-24
 -1       976 6.28316E-05 1.65399E-05 0.00000E+00
 -1       977 6.27553E-05 1.74664E-05-1.65436E-24
 -1       978 6.26790E-05 1.84141E-05 0.00000E+00
 -1       979 6.26027E-05 1.93751E-05-1.65436E-24
 -1       980 6.25263E-05 2.03418E-05 8.27181E-25
 -1       981 6.24500E-05 2.13063E-05 0.00000E+00
 -1       982 6.23738E-05 2.22609E-05 1.65436E-24
 -1       983 6.22977E-05 2.31979E-05 0.00000E+00
 -1       984 6.22219E-05 2.41093E-05 8.27181E-25
 -1       985 6.21465E-05 2.49876E-05 0.00000E+00
 -3
    1PSTEP                         6           3           1          
  100CL  103 4.37500E-01         409                     0    3           1
 -4  STRESS      6    1
 -5  SXX         1    4    1    1
 -5  SYY         1    4    2    2
 -5  SZZ         1    4    3    3
 -5  SXY         1    4    1    2
 -5  SYZ         1    4    2    3
 -5  SZX         1    4    3    1
 -1         1-1.51350E+06-6.93892E+05-3.09457E+05-9.77828E+05 5.82077E-11 6.07542E-09
 -1         2 2.53720E+03 2.88351E+05 8.31225E+03 7.95692E+02-1.34207E-10 5.87988E-09
 -1         3-6.83648E+01-6.39996E+05 1.49265E+02-2.08048E+02-1.71429E-10 7.44876E-10
 -1         5-5.76407E+00 2.27584E+05 5.96058E+00 8.07733E-02 7.61969E-11 1.59116E-09
 -1         8-7.12409E+05-3.09478E+05-2.46847E+04-5.38029E+05 2.09184E-10-4.94765E-10
 -1         9-1.22456E+06-3.11803E+05-1.20756E+05-4.18348E+05 3.24071E-09 4.59841E-10
 -1        10-5.09199E+02-6.66740E+05-8.68620E+02-1.40149E+03-3.10729E-09-2.29443E-09
 -1        12-3.32107E+00 2.27597E+05 1.93313E+02 8.20745E-01 1.66612E-10 1.00354E-08
 -1        15 1.87850E+03 1.03235E+03 6.07224E+03 3.71731E+00-1.88749E-10 7.36890E-09
 -1        16-3.42654E+06-1.11322E+06-5.34507E+05-1.13223E+06 1.04919E-08-6.01479E-09
 -1        17-7.62501E+05-4.66505E+05-1.47051E+05-4.36568E+05-5.23214E-09 6.21949E-09
 -1        18 2.12823E+04 1.13251E+03-1.21326E+04-5.37149E+04 6.49948E-10-2.51657E-09
 -1        19 7.13043E+04 8.50208E+04-4.01011E+02 1.39585E+04-4.99858E-10-8.14180E-10
 -1        20-2.96651E+04-3.36948E+05-7.43157E+04 2.48882E+04 4.06044E-09-2.03272E-09
 -1        21-3.18373E+01-1.95347E+05-6.30985E+02-6.69170E+01-4.53073E-09-3.68021E-09
 -1        24-3.05177E+06-1.01947E+06-4.32345E+05-1.24232E+06-1.57064E-08-8.89607E-09
 -1        25 2.84316E+04 1.40833E+03 1.72042E+04-8.74126E+04 3.27527E-09 2.46309E-09
 -1        26-1.65043E+04 5.80824E+04-1.15131E+04-8.33688E+03 1.40099E-09 2.94910E-09
 -1        27-5.39413E+04-1.84867E+05-6.93576E+04 4.16659E+04 4.78894E-09-3.89355E-09
 -1        28 1.51206E+04-5.39531E+04 1.10331E+04 1.73039E+04 2.71795E-09-1.12482E-09
 -1        32-7.09118E+05-8.54075E+04 3.26500E+05-4.65158E+05-1.12195E-08 2.53870E-08
 -1        33-1.05731E+05 5.43597E+04 1.92721E+04-3.15832E+04 9.55689E-10-3.68209E-09
 -1        34-1.37277E+05-1.36558E+04 3.21738E+02 4.21926E+04 3.17560E-09-5.19958E-09
 -1        35-1.53765E+04-2.14457E+04-8.39625E+02 3.40275E+04 6.83799E-09 9.17377E-10
 -1        51 1.28007E+04-3.50866E+05 3.31288E+04-8.80877E+05 0.00000E+00-3.81260E-09
 -1        52 7.98860E+03-3.49820E+05 2.23219E+04-1.02740E+06 5.16593E-10-3.89991E-09
 -1        53 6.01384E+03-3.60959E+05 1.95743E+04-8.77828E+05 2.54659E-10-4.24916E-09
 -1        54 1.75235E+04-3.59447E+05 3.20456E+04-1.03058E+06-5.38421E-10-4.59841E-09
 -1        55 3.53539E+04-3.71624E+05 5.76438E+04-8.77354E+05 2.83762E-10 1.29512E-09
 -1        56-2.90619E+06-3.27725E+05-2.27503E+05-1.12007E+06-5.45697E-10 4.19095E-09
 -1        57-2.99522E+06-5.35864E+05-1.53344E+05-1.11393E+06 2.01544E-09 7.52698E-09
 -1        58-2.95239E+06-3.99264E+05-5.35337E+04-1.10517E+06-2.84672E-10 5.82077E-10
 -1        59-2.94170E+06-4.52015E+05-3.19561E+04-1.13184E+06-3.69596E-10-7.04676E-09
 -1        60-2.95924E+06-4.09122E+05-1.25029E+04-1.10302E+06-1.17257E-09-8.67158E-09
 -1        61-2.93486E+06-4.39318E+05-7.10542E+03-1.13298E+06-1.69621E-10 9.23023E-09
 -1        62-2.95911E+06-4.11662E+05-3.43217E+03-1.10410E+06 3.78805E-10 2.26206E-09
 -1        63-2.93727E+06-4.34309E+05-2.79999E+03-1.12902E+06-2.21701E-09-8.67749E-09
 -1        64-2.95673E+06-4.14161E+05-3.25693E+03-1.10692E+06-4.21551E-10-5.80826E-09
 -1        65-2.94376E+06-4.29759E+05-6.45298E+03-1.12202E+06 6.42103E-10-8.30823E-09
 -1        66-2.95251E+06-4.16314E+05-1.14330E+04-1.11101E+06 6.99174E-10-1.06520E-08
 -1        67-2.95766E+06-4.33436E+05-2.89325E+04-1.11196E+06 9.20863E-10-8.13634E-09
 -1        68-2.94286E+06-4.10802E+05-4.86322E+04-1.11686E+06 2.44654E-10 5.04224E-09
 -1        69-3.01178E+06-5.04102E+05-1.39062E+05-1.08973E+06 1.83536E-09 8.03811E-09
 -1        70-2.89892E+06-3.47807E+05-2.06418E+05-1.13252E+06-7.63976E-10-1.00408E-09
 -1        86-1.27424E+03 2.85676E+05 8.88184E+03-3.97871E+02 1.07684E-09-5.95207E-10
 -1        87 8.45251E+03 2.91267E+05 1.85656E+04 1.64777E+03 1.81785E-09-1.64696E-08
 -1        88-7.17423E+03 2.82764E+05 2.83817E+04-1.24997E+03 2.72303E-09-6.39756E-09
 -1        89 5.34632E+04 3.12341E+05 7.66093E+04 3.60050E+03 4.13638E-09-8.06639E-09
 -1        90-4.61433E+04 2.64625E+05 1.08146E+05-2.35012E+03 4.87489E-09-6.33463E-10
 -1       121-1.09670E+02-6.40315E+05 1.25046E+02 1.03909E+02 3.18529E-10 4.99313E-09
 -1       122-1.89718E+01-6.39965E+05 3.23884E+02-4.16041E+02-1.24032E-09 3.86535E-09
 -1       123-1.44233E+02-6.40350E+05 5.06947E+02 3.11453E+02 1.06030E-09-3.70164E-10
 -1       124 5.78998E+02-6.39604E+05 1.35331E+03-9.43338E+02-2.30170E-09 6.33236E-09
 -1       125-5.30133E+02-6.40688E+05 2.05775E+03 6.30982E+02 1.53113E-09 1.23237E-09
 -1       191-6.24828E+00 2.27603E+05 7.05110E+00-4.10615E-02 1.44259E-10-2.56932E-10
 -1       192-6.31237E+00 2.27585E+05 1.26242E+01 6.01813E-01 2.17379E-10 6.09816E-10
 -1       193-7.70590E+00 2.27603E+05 2.34063E+01-5.65280E-01 2.32712E-10-5.25415E-09
 -1       194-8.07675E+00 2.27586E+05 4.77604E+01 1.50946E+00 1.01473E-10-6.78597E-09
 -1       195-1.05071E+01 2.27601E+05 9.33505E+01-9.55878E-01 3.60551E-10-2.77669E-09
 -1       251 2.47628E+05-4.42938E+04 1.03334E+05 4.66132E+03 2.97518E-10-4.70027E-09
 -1       252 2.95267E+05 5.12278E+04 7.34068E+04-1.45312E+04-5.35806E-10-6.51198E-09
 -1       253 2.65600E+05-6.85534E+03 2.67404E+04 3.04835E+03 6.58360E-10-1.99361E-09
 -1       254 2.74040E+05 7.91619E+03 1.69357E+04-1.20024E+04 4.48040E-10 9.14270E-10
 -1       255 2.68747E+05-1.05792E+03 6.90982E+03 2.13276E+03 1.21491E-09 1.94768E-09
 -1       256 2.70259E+05 1.25813E+03 4.20867E+03-1.06551E+04 6.45400E-10 1.77693E-09
 -1       257 2.69335E+05-1.84542E+02 2.16489E+03 1.70098E+03 2.20780E-10 6.03791E-09
 -1       258 2.69658E+05 3.96193E+02 1.92033E+03-1.02194E+04 4.79087E-10 4.32419E-10
 -1       259 2.69334E+05-1.88566E+02 2.20290E+03 1.69712E+03-9.07093E-10-9.76934E-09
 -1       260 2.70273E+05 1.29343E+03 4.31662E+03-1.06403E+04 1.26170E-09-4.45766E-09
 -1       261 2.68734E+05-1.08876E+03 7.10736E+03 2.12183E+03 7.16625E-10-5.04861E-09
 -1       262 2.74143E+05 8.14882E+03 1.74227E+04-1.19702E+04 6.77232E-10-2.28079E-09
 -1       263 2.65508E+05-7.05561E+03 2.75268E+04 3.02705E+03-9.28310E-10 6.85213E-09
 -1       264 2.95944E+05 5.27273E+04 7.55405E+04-1.44793E+04-2.34047E-09 9.26411E-09
 -1       265 2.47041E+05-4.55856E+04 1.06374E+05 4.63074E+03-1.24521E-09 1.65164E-09
 -1       266-3.40062E+04-1.58992E+04 7.97981E+04-7.95475E+01 6.18456E-11 2.89317E-09
 -1       267 3.94236E+04 1.85341E+04 5.63951E+04 9.17714E+01 3.72893E-11 9.90737E-09
 -1       268-5.28659E+03-2.62477E+03 2.09621E+04-1.16939E+01-4.54747E-11 6.78308E-09
 -1       269 6.24195E+03 3.14148E+03 1.36248E+04 1.36210E+01 5.34328E-11 9.59542E-09
 -1       270-9.36924E+02-5.16162E+02 6.57687E+03-1.84849E+00-5.43423E-11 6.26502E-09
 -1       271-3.34254E+06-4.17976E+05-2.57563E+05-1.30345E+06-8.73115E-11-6.83940E-10
 -1       272-3.41793E+06-6.22462E+05-1.65540E+05-1.32004E+06 9.50877E-10-9.37143E-09
 -1       273-3.39250E+06-4.80576E+05-6.08468E+04-1.29027E+06-5.73891E-10-3.27418E-11
 -1       274-3.35919E+06-5.46151E+05-3.40163E+04-1.34070E+06-3.39242E-10 8.60518E-09
 -1       275-3.40080E+06-4.85526E+05-1.41542E+04-1.28648E+06 1.15961E-09-8.96307E-09
 -1       276-3.34929E+06-5.40528E+05-7.50376E+03-1.34693E+06-2.86946E-09-3.31329E-09
 -1       277-3.40294E+06-4.84917E+05-3.67189E+03-1.28484E+06-1.31104E-09-2.87764E-09
 -1       278-3.34729E+06-5.40958E+05-2.66512E+03-1.34890E+06 2.38720E-09 5.44037E-09
 -1       279-3.40308E+06-4.84843E+05-2.86024E+03-1.28473E+06-3.68118E-10 3.77690E-09
 -1       280-3.34864E+06-5.40515E+05-5.23880E+03-1.34746E+06-1.64664E-09 8.77299E-09
 -1       281-3.40137E+06-4.85542E+05-9.61407E+03-1.28612E+06 7.82165E-11-2.52021E-09
 -1       282-3.35608E+06-5.43379E+05-2.29117E+04-1.34209E+06-5.98902E-10 1.31286E-09
 -1       283-3.39510E+06-4.82957E+05-4.09865E+04-1.28944E+06-4.46562E-10 2.26828E-09
 -1       284-3.39705E+06-5.92989E+05-1.11320E+05-1.32603E+06-9.69408E-10-6.97037E-09
 -1       285-3.36044E+06-4.42018E+05-1.73387E+05-1.29949E+06 1.28966E-09-6.89033E-09
 -1       301 1.29401E+04-9.25038E+03 1.00220E+05-2.84448E+04-7.27596E-10-3.29442E-09
 -1       302 1.39381E+04 1.61365E+04 7.24201E+04-4.19033E+04 1.95587E-09 3.02953E-09
 -1       303 6.95321E+02-2.53637E+02 6.67519E+04-2.85284E+04-8.65839E-10-1.62572E-09
 -1       304 2.62199E+04 2.74930E+04 1.12379E+05-4.17717E+04 8.64020E-10 6.18707E-09
 -1       305 2.59486E+04-2.04891E+04 1.88668E+05-2.84878E+04-8.00355E-10 8.44284E-09
 -1       306-3.58717E+06-4.18105E+05-2.73670E+05-1.40656E+06 6.51198E-10 5.32600E-09
 -1       307-3.73539E+06-6.41677E+05-1.86516E+05-1.35012E+06 1.92722E-09 8.15453E-09
 -1       308-3.65302E+06-4.99667E+05-6.44424E+04-1.37686E+06 1.63709E-11 9.82254E-10
 -1       309-3.65135E+06-5.54716E+05-3.88852E+04-1.39413E+06-3.17129E-10 2.01908E-09
 -1       310-3.67081E+06-5.03394E+05-1.51409E+04-1.36312E+06-3.88070E-10 2.78305E-10
 -1       311-3.62782E+06-5.53704E+05-8.71491E+03-1.41434E+06 5.39353E-09 4.08306E-09
 -1       312-3.67674E+06-5.00240E+05-4.26994E+03-1.35693E+06-4.92548E-10-3.31090E-09
 -1       313-3.62341E+06-5.55242E+05-3.84039E+03-1.41881E+06-1.51917E-09-8.02231E-10
 -1       314-3.67530E+06-5.01760E+05-4.65652E+03-1.35873E+06-1.28637E-09-4.68822E-09
 -1       315-3.63320E+06-5.48500E+05-9.70351E+03-1.40769E+06-4.27463E-11 2.22030E-09
 -1       316-3.66673E+06-5.07178E+05-1.71472E+04-1.36787E+06-5.94355E-10 1.11777E-09
 -1       317-3.66180E+06-5.48006E+05-4.40147E+04-1.38307E+06-1.79955E-09-5.63159E-09
 -1       318-3.64656E+06-5.02693E+05-7.29610E+04-1.38309E+06-4.59841E-09 6.33372E-09
 -1       319-3.75520E+06-6.48906E+05-2.11365E+05-1.33627E+06-2.89583E-09 6.91216E-10
 -1       320-3.57395E+06-4.08041E+05-3.09871E+05-1.41416E+06 8.09814E-09-8.44011E-09
 -1       336 4.62975E+02-6.93180E+05-3.74353E+03 7.68896E+02-6.27733E-09 1.39607E-09
 -1       337-1.36185E+03-6.94121E+05-4.11425E+03-1.97671E+03-1.17353E-08 8.78754E-09
 -1       338 3.05506E+02-6.93281E+05-5.24334E+03 1.20372E+03-8.41146E-09 4.55566E-09
 -1       339-5.42740E+03-6.96639E+05-1.14770E+04-2.83518E+03-1.44619E-08 5.95946E-09
 -1       340 3.66207E+03-6.90717E+05-1.77165E+04 1.62152E+03-9.79981E-09 7.11498E-09
 -1       406 1.13720E+01 2.27593E+05 3.81575E+02 1.17833E-01 4.91951E-10 1.30995E-08
 -1       407 1.29757E+02 2.27664E+05 8.11153E+02-8.26389E+00 1.36851E-11 2.51548E-08
 -1       408 4.14172E+02 2.27534E+05 1.61995E+03 8.28653E+00 6.22549E-10 1.34128E-08
 -1       409 1.74863E+03 2.28181E+05 3.64717E+03-7.87713E+01-1.29603E-11-5.79348E-10
 -1       410 5.03006E+03 2.27073E+05 7.44551E+03 7.31897E+01 6.03904E-10-1.10504E-09
 -1       521-6.83367E+06-7.73788E+05-5.13262E+05-2.63357E+06 3.70346E-09-8.55653E-09
 -1       522-6.97999E+06-1.29046E+06-3.44810E+05-2.65323E+06-6.31644E-09-7.33053E-09
 -1       523-6.98782E+06-8.84974E+05-1.20786E+05-2.53438E+06 1.11504E-09-1.12050E-09
 -1       524-6.79669E+06-1.16929E+06-7.17532E+04-2.78668E+06 9.62575E-09-7.46331E-09
 -1       525-7.02038E+06-8.87704E+05-2.76949E+04-2.50473E+06 7.15363E-09-4.00451E-09
 -1       526-6.78352E+06-1.13492E+06-1.52878E+04-2.78437E+06 4.59249E-09-2.74893E-09
 -1       527-7.00017E+06-9.19178E+05-9.03854E+03-2.53642E+06 8.04539E-09 3.13457E-09
 -1       528-6.85500E+06-1.04526E+06-3.98936E+03-2.67818E+06 2.91038E-11-4.37285E-09
 -1       529-6.94382E+06-9.80902E+05-1.05013E+04-2.60719E+06 4.36557E-10 3.21506E-09
 -1       530-6.97932E+06-9.26017E+05-1.32477E+04-2.53703E+06-9.57607E-09 8.32188E-09
 -1       531-6.87565E+06-1.03861E+06-2.92031E+04-2.67730E+06-7.06223E-09 6.01904E-09
 -1       532-7.10308E+06-8.60590E+05-7.09277E+04-2.43335E+06 7.11225E-09-1.62181E-08
 -1       533-6.82536E+06-1.04333E+06-1.18636E+05-2.71455E+06 4.62569E-09-1.57379E-08
 -1       534-7.23546E+06-1.04508E+06-3.44089E+05-2.38423E+06-2.05182E-09 1.48793E-08
 -1       535-6.74586E+06-8.57091E+05-5.07470E+05-2.72626E+06-1.00263E-08 1.28930E-08
 -1       536-3.74053E+04-1.82015E+04 4.18670E+04 1.89330E+02-1.08150E-09 9.14406E-09
 -1       537-1.75709E+04 2.10587E+04 2.99092E+04-1.31154E+03-7.16468E-09 1.62800E-09
 -1       538-3.02165E+04-2.85507E+03 1.07780E+04 2.66209E+02-1.56462E-11 1.02455E-09
 -1       539-2.60932E+04 3.29323E+03 6.94697E+03-1.49351E+03 2.94987E-09 4.60227E-09
 -1       540-2.88943E+04-4.45137E+02 2.70613E+03 3.71296E+02 1.33809E-09-2.75952E-09
 -1       541-2.77581E+04 5.06766E+02 1.65429E+03-1.67913E+03-1.24341E-09 1.27409E-09
 -1       542-2.85596E+04-6.51216E+01 6.34296E+02 4.51799E+02-1.41043E-11-4.34255E-10
 -1       543-2.82303E+04 5.76471E+01 3.19890E+02-1.80776E+03 5.70534E-10 1.62490E-09
 -1       544-2.84281E+04 7.94562E+00 6.76883E+00 4.99925E+02 1.44734E-10-2.96068E-09
 -1       545-2.84426E+04-1.10301E+02-2.80694E+02-1.86932E+03-7.72523E-10-3.06257E-09
 -1       546-2.83503E+04 1.04896E+02-6.04726E+02 5.13364E+02 6.44476E-10 7.09832E-10
 -1       547-2.87495E+04-7.70041E+02-1.57090E+03-1.86085E+03-2.42233E-09-1.56774E-09
 -1       548-2.81207E+04 6.66896E+02-2.54636E+03 4.91455E+02-2.47616E-09-1.89698E-09
 -1       549-3.05133E+04-4.91376E+03-6.92360E+03-1.78027E+03-1.21909E-09-1.87549E-09
 -1       550-2.65827E+04 4.24263E+03-9.88032E+03 4.32779E+02 2.03073E-11 2.68301E-09
 -1       551 7.42511E+03-3.61076E+05 1.95337E+04-6.17498E+05-2.69065E-08 6.03177E-09
 -1       552 1.60469E+04-3.63047E+05 2.59765E+04-8.78919E+05-2.08674E-08 1.18744E-08
 -1       553 1.07708E+04-3.67800E+05 4.05357E+04-6.15442E+05-3.33239E-08 9.14588E-09
 -1       554 3.66064E+04-3.51293E+05 8.62046E+04-8.79781E+05-2.05546E-08 4.37205E-09
 -1       555 3.57409E+04-3.84229E+05 1.54796E+05-6.16191E+05-3.40151E-08-2.05546E-09
 -1       556 5.30317E+04-1.16744E+05 3.97357E+04-1.53941E+05-4.62023E-09-2.34286E-09
 -1       557 1.00285E+05-1.56083E+05 2.08598E+04-1.92599E+05 8.73115E-11-7.17273E-09
 -1       558 5.30570E+04-1.22150E+05 8.45341E+03-1.49279E+05-1.92813E-09 8.83847E-09
 -1       559 9.40973E+04-1.61573E+05 4.28547E+03-1.95288E+05 4.20550E-09-7.39692E-09
 -1       560 5.17949E+04-1.21305E+05 1.78124E+03-1.50058E+05-7.34872E-10-1.03910E-08
 -1       561 9.20867E+04-1.61089E+05 9.42914E+02-1.96557E+05-2.12458E-09 8.96671E-09
 -1       562 5.07700E+04-1.20613E+05 3.62751E+02-1.50798E+05-8.47649E-10 1.36561E-09
 -1       563 9.08797E+04-1.60571E+05 2.25679E+02-1.97329E+05 1.24965E-09 3.64389E-09
 -1       564 5.01340E+04-1.20201E+05 8.08530E+01-1.51250E+05 3.64525E-09 4.81987E-09
 -1       565 9.02575E+04-1.60306E+05 4.87140E+01-1.97719E+05 2.47019E-09-3.71983E-10
 -1       566 4.99119E+04-1.20053E+05-2.03106E+01-1.51412E+05-1.09594E-09-1.59525E-09
 -1       567 9.01823E+04-1.60268E+05-1.02459E+02-1.97709E+05 6.70070E-09-2.57387E-09
 -1       568 5.01337E+04-1.20199E+05-2.91825E+02-1.51311E+05-6.03904E-10 1.54978E-09
 -1       569 9.00707E+04-1.60159E+05-6.82779E+02-1.96791E+05-1.88993E-09 8.37463E-09
 -1       570 5.12771E+04-1.21253E+05-1.44803E+03-1.51308E+05 1.58252E-09-6.05723E-10
 -1       571 1.65038E+05 5.98427E+03 8.86827E+03-4.15878E+04 1.00772E-09-7.59201E-10
 -1       572 1.66357E+05 2.08101E+03 4.34482E+03-4.55871E+04 1.29626E-09-5.83077E-09
 -1       573 1.65568E+05 4.95785E+02 1.93013E+03-4.14789E+04 1.69211E-09-4.77939E-09
 -1       574 1.65724E+05 1.61160E+02 9.66996E+02-4.57087E+04 9.42691E-10 7.60247E-09
 -1       575 1.65627E+05 2.20920E+01 4.55717E+02-4.14646E+04 9.37621E-09 6.64932E-09
 -1       576 1.65638E+05 6.19813E+00 2.31929E+02-4.57249E+04 1.78965E-08-6.59384E-09
 -1       577 1.65636E+05-3.21216E+00 1.14193E+02-4.14627E+04 1.03551E-08 1.93313E-09
 -1       578 1.65629E+05-1.44943E+00 6.21690E+01-4.57269E+04 5.34328E-10 5.50153E-09
 -1       579 1.65645E+05-4.61335E+00 3.78669E+01-4.14627E+04 1.44610E-10 3.98995E-09
 -1       580 1.65641E+05-6.05836E+00 3.50981E+01-4.57244E+04-1.73713E-09-4.54747E-11
 -1       581 1.65661E+05-1.02326E+01 4.73143E+01-4.14651E+04-8.09450E-10-5.44651E-09
 -1       582 1.65671E+05-3.57273E+00 8.99493E+01-4.56997E+04 1.06229E-09-3.96631E-09
 -1       583 1.65680E+05 1.83696E+01 1.72376E+02-4.14873E+04 1.84627E-09 4.51814E-09
 -1       584 1.65758E+05 1.52351E+02 3.86456E+02-4.55146E+04-2.90584E-10 5.38125E-09
 -1       585 1.65662E+05 4.92998E+02 7.84695E+02-4.16506E+04-2.52840E-10 4.24552E-09
 -1       586-2.01822E+03 5.39357E+04-2.68526E+03-1.41566E+05 3.76531E-10-4.52474E-10
 -1       587-4.28230E+02 5.35736E+04-3.14269E+02-1.55781E+05 6.91216E-10-3.44261E-09
 -1       588 5.66275E+02 5.36467E+04 1.87406E+03-1.41479E+05 4.67480E-10-3.10001E-09
 -1       589 2.80451E+03 5.46784E+04 5.47824E+03-1.55652E+05 6.73936E-10-7.87668E-09
 -1       590 8.04164E+03 5.29833E+04 1.17371E+04-1.41696E+05 2.92857E-10-4.69117E-09
 -1       591-3.60379E+04-1.03241E+04-1.19910E+04-1.86950E+04-9.47068E-10-8.09905E-09
 -1       592-3.71605E+04-1.32693E+04-6.49483E+03-2.18224E+04-1.06547E-09-1.62368E-09
 -1       593-3.72503E+04-9.44056E+03-2.70386E+03-1.95609E+04 5.82645E-10 2.05921E-09
 -1       594-3.54895E+04-1.15264E+04-1.34854E+03-2.19056E+04 2.29323E-09-3.75751E-09
 -1       595-3.73432E+04-9.43651E+03-6.19740E+02-1.96006E+04 1.49214E-10 9.05182E-10
 -1       596-3.53764E+04-1.14466E+04-3.15907E+02-2.18938E+04 6.72685E-10 4.55339E-09
 -1       597-3.73550E+04-9.44419E+03-1.73893E+02-1.96022E+04 4.87772E-09 6.84008E-09
 -1       598-3.53656E+04-1.14436E+04-1.43222E+02-2.18905E+04 1.09632E-08 3.18067E-09
 -1       599-3.73541E+04-9.44422E+03-1.87228E+02-1.96019E+04 6.16217E-09 3.31704E-09
 -1       600-3.53777E+04-1.14476E+04-3.51256E+02-2.18935E+04-1.88652E-09-3.60399E-09
 -1       601-3.73394E+04-9.43589E+03-6.94729E+02-1.95995E+04-2.53976E-10-2.78123E-09
 -1       602-3.55047E+04-1.15372E+04-1.51507E+03-2.19053E+04 1.94939E-09-3.03760E-09
 -1       603-3.72339E+04-9.44187E+03-3.03884E+03-1.95551E+04-1.08457E-10 3.09501E-09
 -1       604-3.73888E+04-1.34892E+04-7.29980E+03-2.18028E+04 1.47838E-09 8.75843E-09
 -1       605-3.58632E+04-1.04407E+04-1.34770E+04-1.85885E+04 9.97602E-10 5.78439E-09
 -1       606 2.35941E+04-7.94750E+03-1.43128E+04 2.30519E+04-3.65071E-09-3.05499E-09
 -1       607 2.11427E+04-2.56335E+03-7.12698E+03 2.58769E+04 4.38376E-10-2.33752E-09
 -1       608 2.25345E+04-4.31624E+02-3.19150E+03 2.28679E+04 3.80169E-09 1.62345E-10
 -1       609 2.22577E+04-1.11800E+02-1.61198E+03 2.60798E+04-6.67114E-10 2.86718E-09
 -1       610 2.24069E+04 2.11938E+01-7.69954E+02 2.28474E+04-3.98722E-09 2.61753E-09
 -1       611 2.23545E+04 3.15485E+01-3.88380E+02 2.61020E+04-9.05311E-09-3.09910E-09
 -1       612 2.23732E+04 3.34945E+01-1.85843E+02 2.28454E+04-3.42425E-09 5.13410E-10
 -1       613 2.23533E+04 3.81685E+01-8.47750E+01 2.61047E+04-5.03132E-09 3.43562E-10
 -1       614 2.23550E+04 3.37900E+01-2.37661E+01 2.28447E+04-7.34872E-10 2.80511E-09
 -1       615 2.23440E+04 4.23933E+01 2.61691E+01 2.61051E+04 5.13251E-09 5.23596E-09
 -1       616 2.23412E+04 3.82847E+01 8.70974E+01 2.28449E+04-3.08501E-09-1.99634E-09
 -1       617 2.23497E+04 6.40758E+01 2.02121E+02 2.61046E+04 1.52158E-09 1.19053E-09
 -1       618 2.23199E+04 9.89472E+01 4.08636E+02 2.28450E+04 2.03045E-10-8.01492E-10
 -1       619 2.24910E+04 3.82068E+02 9.18472E+02 2.61040E+04 9.52014E-10 3.92220E-09
 -1       620 2.21822E+04 1.07009E+03 1.84632E+03 2.28441E+04 1.76658E-09 3.68095E-09
 -1       621 2.86113E+02 1.79657E+05 2.48159E+03 5.82629E+03-1.93282E-10 2.46064E-09
 -1       622 3.27041E+02 1.80272E+05 2.10689E+03 8.50958E+03-2.11912E-10-3.43027E-09
 -1       623 1.33624E+01 1.79834E+05 2.42378E+03 5.79894E+03-3.34978E-10 5.90944E-10
 -1       624 1.09627E+03 1.80977E+05 4.60333E+03 8.53630E+03-2.39254E-10-8.84620E-09
 -1       625 1.10092E+03 1.78947E+05 8.00302E+03 5.79988E+03-2.38288E-10 1.99850E-09
 -1       626 1.48235E+05 4.11222E+04 2.95345E+03 8.02079E+04-1.52022E-09-1.23509E-09
 -1       627 1.46201E+05 4.26220E+04 1.42304E+03 8.34537E+04-2.13595E-09-2.63594E-09
 -1       628 1.48347E+05 3.97240E+04 6.01094E+02 8.06528E+04 9.73159E-10 6.36055E-09
 -1       629 1.45774E+05 4.22866E+04 2.94605E+02 8.36486E+04 3.38650E-09 4.75575E-09
 -1       630 1.48355E+05 3.96576E+04 1.36239E+02 8.06648E+04-1.58616E-09-7.01334E-09
 -1       631 1.45723E+05 4.22791E+04 7.32803E+01 8.36507E+04-1.54341E-09 3.91447E-09
 -1       632 1.48347E+05 3.96628E+04 4.84093E+01 8.06583E+04-4.14093E-09-9.70886E-11
 -1       633 1.45712E+05 4.22835E+04 5.41295E+01 8.36450E+04-1.17097E-10-3.71756E-09
 -1       634 1.48339E+05 3.96634E+04 8.76747E+01 8.06545E+04 3.51065E-09-3.76338E-09
 -1       635 1.45715E+05 4.22849E+04 1.77833E+02 8.36445E+04-2.98314E-10-6.12749E-09
 -1       636 1.48329E+05 3.96628E+04 3.59213E+02 8.06518E+04-7.88646E-10 2.19052E-09
 -1       637 1.45788E+05 4.23422E+04 7.89510E+02 8.36407E+04 3.12625E-10 3.04158E-09
 -1       638 1.48298E+05 3.98390E+04 1.62264E+03 8.05704E+04-1.50158E-09-2.34786E-09
 -1       639 1.46637E+05 4.35294E+04 3.83869E+03 8.33882E+04-1.27068E-09-2.81034E-10
 -1       640 1.48184E+05 4.33727E+04 7.96634E+03 7.90696E+04 1.09958E-09 6.25255E-09
 -1       656 4.01971E+04-1.01727E+06-9.70414E+04-4.01585E+02 5.63887E-10 7.54767E-10
 -1       657-5.31149E+04-1.06107E+06-8.02516E+04 6.61729E+03-3.12866E-10-6.65003E-09
 -1       658 1.27444E+04-1.02976E+06-4.92449E+04-1.27358E+03 3.81988E-10-3.26729E-10
 -1       659-5.69422E+04-1.06288E+06-8.52785E+04 7.19584E+03-3.50155E-10-2.15743E-09
 -1       660 4.40148E+04-1.01546E+06-1.05690E+05-9.80113E+02 6.91216E-10-2.47094E-09
 -1       661 1.44440E+05 1.57227E+04 1.38491E+04 5.64385E+04 2.51066E-09-1.16415E-09
 -1       662 1.51646E+05 2.65926E+04 9.33194E+03 5.40394E+04 2.94312E-09-6.67455E-10
 -1       663 1.47153E+05 2.01718E+04 3.26439E+03 5.56566E+04-1.32331E-10-1.51340E-09
 -1       664 1.48507E+05 2.13836E+04 1.95165E+03 5.49888E+04-1.25445E-09 8.21217E-10
 -1       665 1.47559E+05 2.07854E+04 7.69876E+02 5.55443E+04-1.05570E-09-5.24298E-09
 -1       666 1.48033E+05 2.06769E+04 4.48912E+02 5.51318E+04-6.19207E-09-4.00862E-09
 -1       667 1.47625E+05 2.08601E+04 2.36668E+02 5.55205E+04-1.02267E-09 7.90321E-10
 -1       668 1.47963E+05 2.06166E+04 2.36995E+02 5.51653E+04 4.58101E-09-2.32819E-09
 -1       669 1.47628E+05 2.08440E+04 3.17512E+02 5.55114E+04 4.25530E-10-9.94049E-11
 -1       670 1.48045E+05 2.07824E+04 6.88190E+02 5.51623E+04 5.97492E-09-1.14539E-09
 -1       671 1.47544E+05 2.06976E+04 1.22092E+03 5.55222E+04-9.41384E-10-1.14886E-09
 -1       672 1.48759E+05 2.19674E+04 3.12285E+03 5.49876E+04-1.42149E-09 1.49839E-09
 -1       673 1.46918E+05 1.96887E+04 5.23310E+03 5.56747E+04-8.54243E-10-6.29620E-09
 -1       674 1.53743E+05 3.03714E+04 1.49657E+04 5.35202E+04 3.50622E-09-1.66574E-09
 -1       675 1.42591E+05 1.25287E+04 2.22136E+04 5.69011E+04-9.54969E-12 7.03039E-10
 -1       676 1.63804E+01-1.95294E+05-7.60498E+02 3.34593E+01-1.94927E-09-9.05095E-10
 -1       677-2.01840E+02-1.95478E+05-1.39178E+03-6.68928E+01-5.39035E-09-3.09427E-09
 -1       678 1.34809E+02-1.95163E+05-2.46029E+03 3.34104E+01-2.12299E-09 6.42998E-09
 -1       679-2.46071E+03-1.96963E+05-5.84433E+03-6.66974E+01-4.81305E-09-1.80333E-09
 -1       680 1.46855E+03-1.93809E+05-9.41914E+03 3.28804E+01-9.67702E-10 7.67379E-10
 -1       771-2.09900E+06-3.67224E+05-5.14386E+04-8.70347E+05-8.69113E-09-8.22183E-09
 -1       772-2.08608E+06-3.94638E+05-2.75721E+04-9.00902E+05-6.30098E-09 1.73168E-09
 -1       773-2.10607E+06-3.61727E+05-1.19565E+04-8.73220E+05-1.79716E-09 4.08181E-09
 -1       774-2.07869E+06-3.88623E+05-5.80420E+03-9.04163E+05 6.56291E-09-4.94765E-10
 -1       775-2.10777E+06-3.60625E+05-2.98054E+03-8.73414E+05-2.00816E-09 9.98625E-10
 -1       776-2.07856E+06-3.88685E+05-1.35727E+03-9.05955E+05-3.44880E-09 2.11730E-09
 -1       777-2.10896E+06-3.59762E+05-8.67863E+02-8.73511E+05 4.07454E-10 1.83354E-09
 -1       778-2.07887E+06-3.88922E+05-3.58317E+02-9.07449E+05 3.78350E-10 3.71710E-09
 -1       779-2.10991E+06-3.59028E+05-3.46000E+02-8.73600E+05-3.05226E-09-2.23645E-09
 -1       780-2.07920E+06-3.89117E+05-1.89388E+02-9.08659E+05-6.25732E-10-2.38288E-10
 -1       781-2.11063E+06-3.58443E+05-3.17890E+02-8.73668E+05-1.01136E-08 2.41926E-10
 -1       782-2.07949E+06-3.89278E+05-4.75927E+02-9.09546E+05-2.10493E-08-4.19436E-09
 -1       783-2.11109E+06-3.58055E+05-9.51573E+02-8.73708E+05-6.24277E-09-2.25361E-09
 -1       784-2.08021E+06-3.89950E+05-2.20921E+03-9.10059E+05-5.46788E-09-3.33785E-10
 -1       785-2.11094E+06-3.58152E+05-4.09270E+03-8.73436E+05-9.83164E-09 1.34423E-09
 -1       786 1.53048E+05-8.16457E+03 1.88886E+04-2.18515E+00 3.59589E-07 3.21143E-09
 -1       787 1.61232E+05 9.45202E+03 1.33634E+04-2.55394E-01 7.15830E-07 1.34669E-08
 -1       788 1.56205E+05-1.27989E+03 4.88888E+03 7.76303E-01 8.39330E-07 3.94789E-09
 -1       789 1.57554E+05 1.48091E+03 3.07174E+03-6.46070E+00 9.62374E-07 7.68114E-09
 -1       790 1.56727E+05-1.99941E+02 1.24993E+03 4.02017E+00 1.18015E-06-5.95037E-09
 -1       791 1.56946E+05 2.32315E+02 7.33956E+02-1.41158E+01 1.39944E-06 1.29541E-08
 -1       792 1.56814E+05-3.22339E+01 3.35141E+02 8.43151E+00 1.86251E-06-1.20530E-08
 -1       793 1.56847E+05 4.53478E+01 2.19951E+02-2.52516E+01 2.32179E-06 8.08996E-09
 -1       794 1.56825E+05-1.30975E+01 1.63444E+02 1.51562E+01 1.16127E-06-2.48096E-09
 -1       795 1.56857E+05 6.77733E+01 2.37169E+02-4.27432E+01 3.69762E-09 1.46854E-08
 -1       796 1.56804E+05-5.46429E+01 3.55706E+02 2.59234E+01 2.69262E-10 5.41887E-09
 -1       797 1.57019E+05 4.00630E+02 8.39089E+02-7.10966E+01-3.64843E-10 1.22964E-09
 -1       798 1.56663E+05-3.45709E+02 1.32457E+03 4.35101E+01 2.53519E-10 6.13522E-09
 -1       799 1.58013E+05 2.55261E+03 3.61116E+03-1.17895E+02-8.25302E-10 3.41407E-09
 -1       800 1.55810E+05-2.20489E+03 5.10100E+03 7.27226E+01 4.36131E-11 5.67343E-09
 -1       801-9.90731E+03 1.70944E+03 1.14979E+04 4.63059E+03 5.80349E-09-1.07885E-08
 -1       802 2.33873E+04 9.25179E+04 4.76930E+04-1.86214E+04 8.88531E-09 2.29477E-10
 -1       803-1.32522E+04 3.73114E+04 5.83695E+04 3.34485E+03 2.24572E-08 1.70608E-08
 -1       804 1.13313E+05 1.42523E+05 1.65400E+05-1.97140E+04 2.85581E-10 1.61945E-08
 -1       805-9.98393E+04-4.81704E+04 2.08897E+05 5.72205E+03 1.44937E-08 3.26950E-08
 -1       806-1.79802E+05-3.85324E+04-1.52987E+04-7.48768E+04-5.53473E-09-1.37957E-08
 -1       807-1.80703E+05-3.63416E+04-7.51592E+03-7.89330E+04 7.13726E-10-1.08082E-09
 -1       808-1.80236E+05-3.30056E+04-3.18825E+03-7.74720E+04 1.03216E-09 6.11294E-10
 -1       809-1.79099E+05-3.42546E+04-1.55865E+03-7.91495E+04-6.02995E-10-1.23464E-10
 -1       810-1.80304E+05-3.28106E+04-7.13686E+02-7.75865E+04 8.13770E-10 2.61912E-09
 -1       811-1.78976E+05-3.41721E+04-3.53934E+02-7.91311E+04-1.89607E-09 2.34877E-10
 -1       812-1.80316E+05-3.28251E+04-1.76607E+02-7.75862E+04-2.34877E-10 1.10504E-09
 -1       813-1.78960E+05-3.41742E+04-1.11370E+02-7.91215E+04-1.25874E-09-8.93988E-09
 -1       814-1.80314E+05-3.28306E+04-1.04369E+02-7.75838E+04-6.45286E-10-5.85919E-09
 -1       815-1.78962E+05-3.41761E+04-1.63280E+02-7.91187E+04-8.36735E-10-3.82443E-09
 -1       816-1.80303E+05-3.28294E+04-3.05875E+02-7.75816E+04-1.24101E-09-3.35513E-09
 -1       817-1.79014E+05-3.42053E+04-6.55746E+02-7.91130E+04 1.94450E-09 7.36122E-09
 -1       818-1.80264E+05-3.29215E+04-1.33640E+03-7.75381E+04 1.27920E-09 3.69710E-10
 -1       819-1.79752E+05-3.50073E+04-3.14527E+03-7.89341E+04-1.27875E-09 2.78214E-09
 -1       820-1.80010E+05-3.52997E+04-6.40117E+03-7.65243E+04 1.60890E-09 6.78972E-09
 -1       821-2.32489E+05 1.29034E+04-2.98419E+04 5.77450E+01-5.30754E-10 3.44153E-09
 -1       822-2.45422E+05-1.49378E+04-2.11173E+04-4.93715E+02-1.53721E-09 1.07295E-08
 -1       823-2.37481E+05 2.02285E+03-7.72918E+03 2.02892E+01 9.44411E-10 1.18507E-09
 -1       824-2.39603E+05-2.34140E+03-4.86337E+03-3.61297E+02 3.63698E-10-6.84264E-09
 -1       825-2.38307E+05 3.16605E+02-1.99867E+03-7.46772E+01-3.09262E-09-3.48427E-09
 -1       826-2.38643E+05-3.73437E+02-1.20717E+03-1.48687E+02-4.99822E-09 7.63727E-09
 -1       827-2.38441E+05 5.62465E+01-6.24240E+02-1.92325E+02-4.07746E-09-4.52134E-09
 -1       828-2.38512E+05-1.13971E+02-5.52456E+02 6.76771E+01-5.21543E-09-4.60980E-09
 -1       829-2.38437E+05 5.73730E+01-6.33246E+02-2.91045E+02-1.55707E-10 1.65888E-09
 -1       830-2.38657E+05-3.82538E+02-1.23683E+03 2.11301E+02 1.64253E-09 8.80959E-10
 -1       831-2.38296E+05 3.24747E+02-2.04781E+03-3.35952E+02-2.88282E-09-4.51848E-09
 -1       832-2.39640E+05-2.40158E+03-4.99006E+03 2.31942E+02-2.39366E-09 7.30154E-10
 -1       833-2.37454E+05 2.07497E+03-7.92931E+03-3.11685E+02-6.14271E-10-4.36557E-09
 -1       834-2.45599E+05-1.53245E+04-2.16644E+04 1.24516E+02-4.01590E-11-3.39992E-09
 -1       835-2.32339E+05 1.32376E+04-3.06176E+04-2.28517E+02 4.66801E-09 2.61753E-09
 -1       836-7.74045E+02 2.20327E+05 1.32668E+04-1.93786E+04 1.66983E-09-5.23596E-09
 -1       837 2.92374E+03 2.24433E+05 1.13218E+04-3.89199E+04 2.16824E-09-3.90139E-09
 -1       838-2.82955E+02 2.21471E+05 1.16683E+04-1.93130E+04 1.96314E-09 1.27932E-09
 -1       839 7.49035E+03 2.27839E+05 2.22036E+04-3.89432E+04 2.62480E-09 2.79471E-09
 -1       840-2.24936E+03 2.16892E+05 3.54600E+04-1.93539E+04 1.73895E-09-4.36580E-09
 -1       856-7.27609E+04 6.22435E+03-1.64024E+04-3.65878E+02-3.51559E-09-8.78117E-09
 -1       857-7.95370E+04-7.30024E+03-1.12929E+04 3.73923E+03-3.64331E-09 5.36602E-11
 -1       858-7.54379E+04 8.72177E+02-4.25691E+03-3.81492E+02-4.86310E-09 8.08996E-10
 -1       859-7.64623E+04-1.01415E+03-2.57114E+03 3.76410E+03-7.63876E-10-8.11269E-10
 -1       860-7.58382E+04 1.21316E+02-1.08115E+03-3.90870E+02-5.55900E-10-6.00471E-09
 -1       861-7.60010E+04-1.34176E+02-6.02382E+02 3.77691E+03-4.33647E-09-2.68862E-09
 -1       862-7.59005E+04 1.61025E+01-2.65665E+02-3.94319E+02 3.92382E-09 1.45927E-09
 -1       863-7.59274E+04-1.01098E+01-1.31421E+02 3.77844E+03 9.88245E-09 5.92829E-09
 -1       864-7.59120E+04-3.72717E-02-4.13489E+01-3.92405E+02 4.60811E-09-1.64572E-09
 -1       865-7.59061E+04 1.83103E+01 2.43882E+01 3.76879E+03 3.32710E-09-3.84510E-10
 -1       866-7.59207E+04-1.26324E+01 8.92806E+01-3.84669E+02-1.25792E-09-7.14821E-09
 -1       867-7.58538E+04 1.06171E+02 2.45329E+02 3.74782E+03 7.36577E-10 3.68544E-10
 -1       868-7.59619E+04-8.73029E+01 4.14032E+02-3.71430E+02-8.93635E-10-3.16328E-09
 -1       869-7.55433E+04 7.24264E+02 1.11156E+03 3.71290E+03-1.65284E-09-7.05950E-09
 -1       870-7.62277E+04-6.15378E+02 1.61220E+03-3.49760E+02 1.34867E-09-9.86461E-10
 -1       871-3.40591E+03-7.05109E+03-1.10440E+04 7.23803E+04 1.75078E-09-2.20189E-09
 -1       872-1.48636E+03-9.51895E+03-4.49689E+03 9.38356E+04 3.39287E-09-8.33097E-10
 -1       873-4.05268E+01-8.36396E+03 6.56684E+02 7.22206E+04 1.64573E-09 5.83555E-10
 -1       874 1.69490E+03-6.74916E+03 6.29677E+03 9.38695E+04 3.97404E-09 1.06002E-09
 -1       875 4.03296E+03-9.86007E+03 1.39552E+04 7.23532E+04 2.53749E-09-9.40418E-10
 -1       876 1.81227E+05 3.12576E+04 9.71734E+03 7.35610E+04-1.06991E-09-2.06455E-10
 -1       877 1.81776E+05 3.33970E+04 5.18923E+03 7.64420E+04-5.67616E-09 3.14594E-09
 -1       878 1.82136E+05 3.01817E+04 2.17407E+03 7.43589E+04 4.25985E-09 2.19893E-09
 -1       879 1.80454E+05 3.20809E+04 1.08297E+03 7.65115E+04-7.53744E-11 1.33565E-09
 -1       880 1.82202E+05 3.01695E+04 5.04186E+02 7.43914E+04 3.43630E-09 9.49035E-09
 -1       881 1.80366E+05 3.20251E+04 2.68479E+02 7.64982E+04 4.40741E-09 5.36988E-09
 -1       882 1.82209E+05 3.01772E+04 1.70477E+02 7.43923E+04 3.36217E-09 4.31953E-10
 -1       883 1.80360E+05 3.20225E+04 1.81184E+02 7.64945E+04 1.59031E-09 2.94334E-09
 -1       884 1.82205E+05 3.01751E+04 2.86346E+02 7.43924E+04 1.08400E-10-7.00084E-10
 -1       885 1.80383E+05 3.20266E+04 5.74547E+02 7.65018E+04 4.59958E-09 3.80828E-09
 -1       886 1.82183E+05 3.01584E+04 1.15744E+03 7.43901E+04 1.43362E-09-1.79193E-09
 -1       887 1.80586E+05 3.21599E+04 2.52810E+03 7.65309E+04-4.12010E-09-3.66413E-09
 -1       888 1.82023E+05 3.01866E+04 5.09419E+03 7.43092E+04-6.04302E-10-2.26441E-09
 -1       889 1.83622E+05 3.53112E+04 1.21698E+04 7.64341E+04-7.69035E-10-1.75532E-09
 -1       890 1.79947E+05 3.26523E+04 2.27929E+04 7.23662E+04 1.99157E-09-2.67028E-09
 -1       891-1.14364E+02-1.03088E+05-1.21444E+03 1.96448E+04 1.85878E-10-1.45269E-09
 -1       892-1.98634E+02-1.03378E+05-1.32230E+03 2.97263E+04-3.57829E-09 5.45333E-09
 -1       893-3.31377E+01-1.03126E+05-1.89058E+03 1.96485E+04 7.10543E-10 4.20005E-09
 -1       894-1.03533E+03-1.04105E+05-3.92652E+03 2.96210E+04 1.48748E-09 5.63614E-09
 -1       895-8.07923E+02-1.02311E+05-6.91926E+03 1.97488E+04 1.66483E-09 7.29051E-09
 -1       956-2.27655E+05-3.28349E+03-8.27088E+03 1.50193E+04-3.37241E-09 1.94370E-09
 -1       957-2.29289E+05-1.10639E+03-4.24603E+03 1.80846E+04-1.27966E-09-2.06114E-09
 -1       958-2.28388E+05-8.67609E+01-1.91288E+03 1.49210E+04 2.04636E-09 3.51520E-10
 -1       959-2.28518E+05-1.38568E+01-9.77091E+02 1.81908E+04-2.96677E-09 4.34738E-09
 -1       960-2.28452E+05 2.85161E+01-4.76217E+02 1.49118E+04-4.14911E-09-5.21140E-09
 -1       961-2.28461E+05 2.67989E+01-2.52494E+02 1.82012E+04-4.56475E-09-5.24756E-09
 -1       962-2.28465E+05 2.47947E+01-1.44129E+02 1.49104E+04-3.20847E-09 2.37958E-09
 -1       963-2.28458E+05 2.75649E+01-1.14998E+02 1.82030E+04-3.74348E-09-6.76664E-10
 -1       964-2.28468E+05 2.62680E+01-1.38696E+02 1.49099E+04-4.87717E-10-3.85410E-09
 -1       965-2.28466E+05 3.00615E+01-2.38899E+02 1.82031E+04 2.69621E-09-3.58659E-09
 -1       966-2.28461E+05 3.28482E+01-4.47971E+02 1.49104E+04-6.20958E-10 2.30068E-09
 -1       967-2.28526E+05-4.93628E+00-9.18554E+02 1.81975E+04 2.60570E-10 1.27147E-09
 -1       968-2.28405E+05-7.24722E+01-1.79738E+03 1.49156E+04-1.12709E-09 3.02344E-09
 -1       969-2.29256E+05-1.02900E+03-3.99070E+03 1.81357E+04-6.09361E-11-9.36126E-10
 -1       970-2.27720E+05-3.07508E+03-7.77287E+03 1.49744E+04 1.09981E-09-7.48605E-09
 -1       971-2.16380E+05-1.14361E+03-6.37008E+03 1.06005E+04-4.15457E-09-3.37691E-09
 -1       972-2.17930E+05-8.19363E+02-3.46930E+03 1.48069E+04-2.30352E-09-7.22218E-09
 -1       973-2.17087E+05-6.02160E+00-1.55326E+03 1.05125E+04-2.76623E-09-3.53384E-09
 -1       974-2.17195E+05-6.22927E+00-8.04716E+02 1.49014E+04-2.65572E-10-3.33176E-09
 -1       975-2.17141E+05 2.29606E+01-4.01150E+02 1.05049E+04 1.09139E-09 1.18087E-09
 -1       976-2.17150E+05 2.63798E+01-2.29684E+02 1.49105E+04-9.88166E-10-8.09996E-09
 -1       977-2.17151E+05 2.22285E+01-1.63426E+02 1.05033E+04 9.70886E-11-2.22326E-09
 -1       978-2.17152E+05 2.96454E+01-1.86862E+02 1.49127E+04 6.61583E-09-3.78793E-09
 -1       979-2.17150E+05 2.70025E+01-2.96390E+02 1.05027E+04 6.21526E-10 3.55902E-09
 -1       980-2.17173E+05 3.13533E+01-5.69888E+02 1.49130E+04-2.30250E-09-4.86347E-09
 -1       981-2.17132E+05 4.12197E+01-1.10243E+03 1.05030E+04-3.62365E-09 7.69433E-10
 -1       982-2.17325E+05-4.98136E+01-2.27795E+03 1.49087E+04-2.82955E-09-9.46898E-10
 -1       983-2.16994E+05-2.89223E+01-4.42559E+03 1.05072E+04-2.59433E-10 2.43290E-11
 -1       984-2.19454E+05-2.36034E+03-9.91032E+03 1.48492E+04-1.91960E-09 3.20745E-09
 -1       985-2.14991E+05-3.26686E+03-1.81985E+04 1.05667E+04 6.29529E-09 2.19825E-09
 -3
    1PSTEP                         7           4           1          
  100CL  104 4.55078E-01         409                     0    4           1
 -4  DISP        4    1
 -5  D1          1    2    1    0
 -5  D2          1    2    2    0
 -5  D3          1    2    3    0
 -5  ALL         1    2    0    0    1ALL
 -1         1 1.20678E-04 0.00000E+00 0.00000E+00
 -1         2 1.11031E-04-9.18869E-31 3.30872E-24
 -1         3 1.03983E-04-2.39833E-29 0.00000E+00
 -1         5 7.42163E-05 1.55632E-26 0.00000E+00
 -1         8 9.67591E-05-8.72144E-07 0.00000E+00
 -1         9 9.80288E-05 5.40913E-07 0.00000E+00
 -1        10 9.62708E-05-1.41901E-06 0.00000E+00
 -1        12 7.37215E-05 4.96856E-07 4.96308E-24
 -1        15 6.82830E-05-9.60526E-07 0.00000E+00
 -1        16 7.06675E-05 3.97358E-07 0.00000E+00
 -1        17 7.15993E-05-2.99366E-06 0.00000E+00
 -1        18 7.12766E-05 4.84735E-07 0.00000E+00
 -1        19 7.22373E-05 9.90958E-07 0.00000E+00
 -1        20 7.23657E-05 1.44369E-05 0.00000E+00
 -1        21 7.18801E-05 2.72475E-05 0.00000E+00
 -1        24 1.80323E-05-4.06599E-06 0.00000E+00
 -1        25 6.97317E-05 5.99152E-07 0.00000E+00
 -1        26 7.06379E-05 1.38046E-06 0.00000E+00
 -1        27 6.92627E-05 1.22290E-05 0.00000E+00
 -1        28 6.88200E-05 2.68235E-05 0.00000E+00
 -1        32 0.00000E+00 0.00000E+00 0.00000E+00
 -1        33 6.78551E-05 1.85069E-06 0.00000E+00
 -1        34 6.65273E-05 1.22091E-05 0.00000E+00
 -1        35 6.52651E-05 2.65995E-05 0.00000E+00
 -1        51 1.19123E-04-1.43299E-07 0.00000E+00
 -1        52 1.16240E-04-2.82900E-07 0.00000E+00
 -1        53 1.12290E-04-4.23949E-07 0.00000E+00
 -1        54 1.07546E-04-5.67833E-07 0.00000E+00
 -1        55 1.02278E-04-7.15262E-07-6.20385E-25
 -1        56 1.19591E-04-7.17475E-07 2.64698E-23
 -1        57 1.18649E-04-1.94502E-06 0.00000E+00
 -1        58 1.17847E-04-3.54035E-06-2.64698E-23
 -1        59 1.17124E-04-5.36988E-06 0.00000E+00
 -1        60 1.16431E-04-7.28040E-06 2.64698E-23
 -1        61 1.15711E-04-9.11931E-06 0.00000E+00
 -1        62 1.14907E-04-1.07376E-05-2.64698E-23
 -1        63 1.13968E-04-1.19932E-05-1.32349E-23
 -1        64 1.12847E-04-1.27650E-05 0.00000E+00
 -1        65 1.11506E-04-1.29459E-05 0.00000E+00
 -1        66 1.09915E-04-1.24638E-05 2.64698E-23
 -1        67 1.08055E-04-1.12649E-05 1.32349E-23
 -1        68 1.05922E-04-9.33848E-06 0.00000E+00
 -1        69 1.03523E-04-6.69193E-06 0.00000E+00
 -1        70 1.00871E-04-3.38005E-06-2.64698E-23
 -1        86 1.10696E-04 9.79545E-08 0.00000E+00
 -1        87 1.09689E-04 1.94943E-07 0.00000E+00
 -1        88 1.07974E-04 2.90924E-07 0.00000E+00
 -1        89 1.05511E-04 3.82061E-07 0.00000E+00
 -1        90 1.02224E-04 4.72036E-07 3.30872E-24
 -1       121 1.03768E-04-2.35379E-07 0.00000E+00
 -1       122 1.03122E-04-4.70941E-07 3.30872E-24
 -1       123 1.02048E-04-7.06866E-07 6.61744E-24
 -1       124 1.00546E-04-9.43373E-07 0.00000E+00
 -1       125 9.86193E-05-1.18057E-06-6.61744E-24
 -1       191 7.42026E-05 8.28165E-08-3.30872E-24
 -1       192 7.41613E-05 1.65631E-07 0.00000E+00
 -1       193 7.40926E-05 2.48445E-07-3.30872E-24
 -1       194 7.39964E-05 3.31255E-07 1.65436E-24
 -1       195 7.38727E-05 4.14059E-07-3.30872E-24
 -1       251 9.68169E-05 3.05487E-06 0.00000E+00
 -1       252 9.68962E-05 5.37213E-06 2.06795E-25
 -1       253 9.69766E-05 6.36136E-06 8.27181E-25
 -1       254 9.70607E-05 6.29931E-06-8.27181E-25
 -1       255 9.71445E-05 5.41599E-06 0.00000E+00
 -1       256 9.72282E-05 3.93844E-06 1.65436E-24
 -1       257 9.73114E-05 2.06707E-06 3.30872E-24
 -1       258 9.73943E-05 8.69471E-10-1.65436E-24
 -1       259 9.74772E-05-2.06996E-06-3.30872E-24
 -1       260 9.75604E-05-3.95519E-06 1.65436E-24
 -1       261 9.76441E-05-5.45624E-06-1.65436E-24
 -1       262 9.77278E-05-6.37324E-06 0.00000E+00
 -1       263 9.78118E-05-6.48003E-06 0.00000E+00
 -1       264 9.78921E-05-5.54760E-06-4.13590E-25
 -1       265 9.79714E-05-3.30065E-06 0.00000E+00
 -1       266 9.20131E-05-8.98617E-07 6.61744E-24
 -1       267 8.72671E-05-9.11916E-07-1.65436E-24
 -1       268 8.25211E-05-9.26050E-07 0.00000E+00
 -1       269 7.77750E-05-9.37711E-07 4.13590E-25
 -1       270 7.30290E-05-9.49315E-07 4.13590E-25
 -1       271 9.38675E-05 2.68847E-06 2.64698E-23
 -1       272 9.14021E-05 4.98643E-06 0.00000E+00
 -1       273 8.93612E-05 6.16491E-06-5.29396E-23
 -1       274 8.76799E-05 6.36667E-06 2.64698E-23
 -1       275 8.63020E-05 5.75828E-06 5.29396E-23
 -1       276 8.51595E-05 4.51812E-06-2.64698E-23
 -1       277 8.41816E-05 2.83707E-06 0.00000E+00
 -1       278 8.32940E-05 9.13531E-07 0.00000E+00
 -1       279 8.24212E-05-1.04948E-06 0.00000E+00
 -1       280 8.14871E-05-2.84819E-06 2.64698E-23
 -1       281 8.04168E-05-4.28210E-06 0.00000E+00
 -1       282 7.91382E-05-5.15699E-06 0.00000E+00
 -1       283 7.75815E-05-5.28949E-06 0.00000E+00
 -1       284 7.56865E-05-4.50772E-06 1.32349E-23
 -1       285 7.33885E-05-2.66061E-06-2.64698E-23
 -1       301 9.33398E-05 5.10845E-07 0.00000E+00
 -1       302 8.86639E-05 4.95111E-07-1.65436E-24
 -1       303 8.40299E-05 4.79928E-07-3.30872E-24
 -1       304 7.94666E-05 4.63385E-07-3.30872E-24
 -1       305 7.50030E-05 4.44889E-07 1.32349E-23
 -1       306 9.50397E-05 4.01234E-06 0.00000E+00
 -1       307 9.24959E-05 6.16094E-06 2.64698E-23
 -1       308 9.04782E-05 6.92381E-06 0.00000E+00
 -1       309 8.89803E-05 6.27730E-06 2.64698E-23
 -1       310 8.79409E-05 4.40532E-06 0.00000E+00
 -1       311 8.72687E-05 1.54386E-06-2.64698E-23
 -1       312 8.68240E-05-1.92876E-06 0.00000E+00
 -1       313 8.64554E-05-5.60705E-06 2.64698E-23
 -1       314 8.60013E-05-9.05558E-06 0.00000E+00
 -1       315 8.53040E-05-1.18493E-05 0.00000E+00
 -1       316 8.42390E-05-1.36578E-05 0.00000E+00
 -1       317 8.27001E-05-1.41944E-05 0.00000E+00
 -1       318 8.06442E-05-1.33552E-05 0.00000E+00
 -1       319 7.80630E-05-1.10942E-05 0.00000E+00
 -1       320 7.50016E-05-7.57561E-06 0.00000E+00
 -1       336 9.34484E-05-1.67723E-06 0.00000E+00
 -1       337 9.01005E-05-1.93735E-06-3.30872E-24
 -1       338 8.62333E-05-2.19920E-06 6.61744E-24
 -1       339 8.18546E-05-2.46269E-06 0.00000E+00
 -1       340 7.69733E-05-2.72845E-06 0.00000E+00
 -1       406 7.35428E-05 5.79637E-07-3.30872E-24
 -1       407 7.33366E-05 6.62387E-07 0.00000E+00
 -1       408 7.31029E-05 7.45081E-07-3.30872E-24
 -1       409 7.28417E-05 8.27615E-07 0.00000E+00
 -1       410 7.25531E-05 9.09828E-07-3.30872E-24
 -1       521 6.77670E-05-3.44805E-07 5.29396E-23
 -1       522 6.76352E-05-8.82593E-06 0.00000E+00
 -1       523 6.97976E-05-2.35930E-05-1.05879E-22
 -1       524 7.35045E-05-4.27273E-05 0.00000E+00
 -1       525 7.77549E-05-6.33920E-05 1.05879E-22
 -1       526 8.14966E-05-8.26314E-05-5.29396E-23
 -1       527 8.37753E-05-9.77869E-05 0.00000E+00
 -1       528 8.37245E-05-1.06530E-04 5.29396E-23
 -1       529 8.09261E-05-1.07865E-04-1.05879E-22
 -1       530 7.51651E-05-1.01382E-04-5.29396E-23
 -1       531 6.68450E-05-8.82786E-05 0.00000E+00
 -1       532 5.65958E-05-7.02625E-05 0.00000E+00
 -1       533 4.54730E-05-5.00429E-05 0.00000E+00
 -1       534 3.46332E-05-3.04881E-05-2.64698E-23
 -1       535 2.51370E-05-1.43490E-05 0.00000E+00
 -1       536 7.15615E-05 2.07867E-06 0.00000E+00
 -1       537 7.15351E-05 6.06593E-06-8.27181E-25
 -1       538 7.15117E-05 9.01869E-06 8.27181E-25
 -1       539 7.14920E-05 1.09884E-05 0.00000E+00
 -1       540 7.14736E-05 1.20640E-05 0.00000E+00
 -1       541 7.14560E-05 1.23354E-05 0.00000E+00
 -1       542 7.14383E-05 1.19227E-05 4.13590E-25
 -1       543 7.14204E-05 1.09470E-05 0.00000E+00
 -1       544 7.14020E-05 9.55032E-06 4.13590E-25
 -1       545 7.13833E-05 7.87533E-06-2.06795E-25
 -1       546 7.13643E-05 6.07512E-06-4.13590E-25
 -1       547 7.13455E-05 4.30291E-06-2.06795E-25
 -1       548 7.13269E-05 2.71080E-06-4.13590E-25
 -1       549 7.13092E-05 1.45082E-06 1.03398E-25
 -1       550 7.12918E-05 6.62444E-07 2.06795E-25
 -1       551 6.45208E-05-3.15405E-06-3.30872E-24
 -1       552 5.60541E-05-3.32191E-06 8.27181E-25
 -1       553 4.66822E-05-3.49734E-06 0.00000E+00
 -1       554 3.68952E-05-3.67877E-06 0.00000E+00
 -1       555 2.71830E-05-3.86217E-06-1.32349E-23
 -1       556 6.97341E-05 1.83625E-06 0.00000E+00
 -1       557 6.83066E-05 5.53541E-06 0.00000E+00
 -1       558 6.72691E-05 8.20760E-06 0.00000E+00
 -1       559 6.65780E-05 9.96480E-06 0.00000E+00
 -1       560 6.61898E-05 1.09188E-05 0.00000E+00
 -1       561 6.60614E-05 1.11818E-05 0.00000E+00
 -1       562 6.61502E-05 1.08666E-05 0.00000E+00
 -1       563 6.64135E-05 1.00855E-05 3.30872E-24
 -1       564 6.68089E-05 8.95150E-06 0.00000E+00
 -1       565 6.72942E-05 7.57716E-06 0.00000E+00
 -1       566 6.78271E-05 6.07535E-06-8.27181E-25
 -1       567 6.83655E-05 4.55891E-06-2.06795E-25
 -1       568 6.88672E-05 3.14063E-06 0.00000E+00
 -1       569 6.92901E-05 1.93318E-06 0.00000E+00
 -1       570 6.95920E-05 1.04929E-06 0.00000E+00
 -1       571 7.13349E-05 5.54097E-07-1.24077E-24
 -1       572 7.13945E-05 5.83620E-07 4.13590E-25
 -1       573 7.14545E-05 5.80410E-07 8.27181E-25
 -1       574 7.15146E-05 5.51951E-07 0.00000E+00
 -1       575 7.15748E-05 5.05758E-07 0.00000E+00
 -1       576 7.16351E-05 4.49396E-07 0.00000E+00
 -1       577 7.16953E-05 3.90435E-07 1.65436E-24
 -1       578 7.17556E-05 3.36451E-07 0.00000E+00
 -1       579 7.18159E-05 2.95021E-07 0.00000E+00
 -1       580 7.18761E-05 2.73721E-07 1.65436E-24
 -1       581 7.19364E-05 2.80127E-07 0.00000E+00
 -1       582 7.19966E-05 3.21808E-07 0.00000E+00
 -1       583 7.20569E-05 4.06323E-07-3.30872E-24
 -1       584 7.21171E-05 5.41156E-07 0.00000E+00
 -1       585 7.21773E-05 7.33746E-07 0.00000E+00
 -1       586 7.09984E-05 5.04984E-07 8.27181E-25
 -1       587 7.06946E-05 5.24731E-07-2.06795E-25
 -1       588 7.03906E-05 5.44260E-07-4.13590E-25
 -1       589 7.01118E-05 5.63482E-07 0.00000E+00
 -1       590 6.98840E-05 5.82183E-07 0.00000E+00
 -1       591 7.12225E-05 5.84990E-07-1.03398E-25
 -1       592 7.11783E-05 6.52466E-07 0.00000E+00
 -1       593 7.11438E-05 6.93398E-07 4.13590E-25
 -1       594 7.11170E-05 7.13403E-07 0.00000E+00
 -1       595 7.10958E-05 7.18173E-07 0.00000E+00
 -1       596 7.10782E-05 7.13357E-07 2.06795E-25
 -1       597 7.10620E-05 7.04601E-07 0.00000E+00
 -1       598 7.10452E-05 6.97549E-07 2.06795E-25
 -1       599 7.10256E-05 6.97842E-07 0.00000E+00
 -1       600 7.10011E-05 7.11122E-07-2.06795E-25
 -1       601 7.09697E-05 7.43031E-07-4.13590E-25
 -1       602 7.09292E-05 7.99216E-07 1.03398E-25
 -1       603 7.08776E-05 8.85323E-07-3.10193E-25
 -1       604 7.08129E-05 1.00705E-06 0.00000E+00
 -1       605 7.07330E-05 1.17000E-06 0.00000E+00
 -1       606 7.22485E-05 1.38544E-06 0.00000E+00
 -1       607 7.22574E-05 1.86556E-06 0.00000E+00
 -1       608 7.22659E-05 2.42628E-06 0.00000E+00
 -1       609 7.22739E-05 3.06194E-06 0.00000E+00
 -1       610 7.22819E-05 3.76685E-06 0.00000E+00
 -1       611 7.22898E-05 4.53522E-06 0.00000E+00
 -1       612 7.22976E-05 5.36127E-06 0.00000E+00
 -1       613 7.23053E-05 6.23923E-06 0.00000E+00
 -1       614 7.23131E-05 7.16330E-06 1.65436E-24
 -1       615 7.23207E-05 8.12770E-06-8.27181E-25
 -1       616 7.23284E-05 9.12664E-06-1.65436E-24
 -1       617 7.23360E-05 1.01543E-05 0.00000E+00
 -1       618 7.23436E-05 1.12050E-05 0.00000E+00
 -1       619 7.23511E-05 1.22728E-05 2.06795E-25
 -1       620 7.23585E-05 1.33521E-05 0.00000E+00
 -1       621 7.19277E-05 1.05592E-06 0.00000E+00
 -1       622 7.16421E-05 1.12119E-06-8.27181E-25
 -1       623 7.13754E-05 1.18646E-06-1.65436E-24
 -1       624 7.11227E-05 1.25163E-06-8.27181E-25
 -1       625 7.08785E-05 1.31668E-06 1.65436E-24
 -1       626 7.21589E-05 1.40589E-06-3.30872E-24
 -1       627 7.20544E-05 1.89168E-06 0.00000E+00
 -1       628 7.19258E-05 2.44173E-06-3.30872E-24
 -1       629 7.17759E-05 3.04903E-06 0.00000E+00
 -1       630 7.16071E-05 3.70655E-06 3.30872E-24
 -1       631 7.14221E-05 4.40720E-06 0.00000E+00
 -1       632 7.12235E-05 5.14391E-06 0.00000E+00
 -1       633 7.10141E-05 5.90960E-06 1.65436E-24
 -1       634 7.07964E-05 6.69720E-06 0.00000E+00
 -1       635 7.05732E-05 7.49962E-06 8.27181E-25
 -1       636 7.03470E-05 8.30980E-06 0.00000E+00
 -1       637 7.01206E-05 9.12065E-06 0.00000E+00
 -1       638 6.98965E-05 9.92509E-06 0.00000E+00
 -1       639 6.96773E-05 1.07160E-05 8.27181E-25
 -1       640 6.94655E-05 1.14864E-05 8.27181E-25
 -1       656 7.14659E-05 1.40777E-05-6.61744E-24
 -1       657 7.08877E-05 1.37041E-05-3.30872E-24
 -1       658 7.05088E-05 1.33317E-05 0.00000E+00
 -1       659 7.02042E-05 1.29596E-05-3.30872E-24
 -1       660 6.98347E-05 1.25863E-05-6.61744E-24
 -1       661 7.20332E-05 1.54994E-05-8.27181E-25
 -1       662 7.17210E-05 1.65154E-05-8.27181E-25
 -1       663 7.14256E-05 1.74862E-05 0.00000E+00
 -1       664 7.11468E-05 1.84141E-05 0.00000E+00
 -1       665 7.08836E-05 1.93008E-05 0.00000E+00
 -1       666 7.06351E-05 2.01483E-05 8.27181E-25
 -1       667 7.04008E-05 2.09584E-05 1.65436E-24
 -1       668 7.01798E-05 2.17328E-05 0.00000E+00
 -1       669 6.99717E-05 2.24732E-05 0.00000E+00
 -1       670 6.97757E-05 2.31810E-05 0.00000E+00
 -1       671 6.95914E-05 2.38579E-05 0.00000E+00
 -1       672 6.94181E-05 2.45052E-05-8.27181E-25
 -1       673 6.92553E-05 2.51243E-05 1.65436E-24
 -1       674 6.91019E-05 2.57164E-05 8.27181E-25
 -1       675 6.89583E-05 2.62828E-05 0.00000E+00
 -1       676 7.13688E-05 2.71764E-05-1.65436E-24
 -1       677 7.08578E-05 2.71053E-05 0.00000E+00
 -1       678 7.03472E-05 2.70343E-05 0.00000E+00
 -1       679 6.98372E-05 2.69635E-05 0.00000E+00
 -1       680 6.93281E-05 2.68927E-05 0.00000E+00
 -1       771 1.43538E-05 2.95744E-06-2.64698E-23
 -1       772 1.11514E-05 8.71016E-06 0.00000E+00
 -1       773 8.40562E-06 1.32626E-05-5.29396E-23
 -1       774 6.08628E-06 1.66899E-05 0.00000E+00
 -1       775 4.16360E-06 1.90689E-05 0.00000E+00
 -1       776 2.60649E-06 2.04792E-05-1.32349E-23
 -1       777 1.38350E-06 2.10021E-05-2.64698E-23
 -1       778 4.62469E-07 2.07210E-05-1.32349E-23
 -1       779-1.89015E-07 1.97208E-05-2.64698E-23
 -1       780-6.03939E-07 1.80882E-05-1.32349E-23
 -1       781-8.15417E-07 1.59108E-05 0.00000E+00
 -1       782-8.57014E-07 1.32778E-05 0.00000E+00
 -1       783-7.62367E-07 1.02791E-05 2.64698E-23
 -1       784-5.65401E-07 7.00561E-06-1.32349E-23
 -1       785-3.00091E-07 3.54858E-06 0.00000E+00
 -1       786 6.97851E-05 5.79785E-07 4.13590E-25
 -1       787 6.98416E-05 5.64961E-07 0.00000E+00
 -1       788 6.98979E-05 5.54530E-07 1.65436E-24
 -1       789 6.99548E-05 5.48350E-07 8.27181E-25
 -1       790 7.00117E-05 5.46840E-07 0.00000E+00
 -1       791 7.00687E-05 5.50428E-07 0.00000E+00
 -1       792 7.01257E-05 5.60213E-07-1.65436E-24
 -1       793 7.01828E-05 5.77310E-07 8.27181E-25
 -1       794 7.02399E-05 6.03795E-07-1.65436E-24
 -1       795 7.02969E-05 6.41766E-07 0.00000E+00
 -1       796 7.03540E-05 6.94831E-07 0.00000E+00
 -1       797 7.04110E-05 7.66637E-07 8.27181E-25
 -1       798 7.04681E-05 8.63291E-07 0.00000E+00
 -1       799 7.05249E-05 9.90965E-07-8.27181E-25
 -1       800 7.05818E-05 1.15990E-06 1.65436E-24
 -1       801 6.50306E-05 5.80418E-07 8.27181E-25
 -1       802 5.09155E-05 4.76117E-07-8.27181E-25
 -1       803 3.23974E-05 3.06303E-07 0.00000E+00
 -1       804 1.44884E-05 1.40496E-07 3.30872E-24
 -1       805 2.06302E-06 5.21938E-08 1.32349E-23
 -1       806 6.96694E-05 5.39924E-07 0.00000E+00
 -1       807 6.96040E-05 4.81130E-07-8.27181E-25
 -1       808 6.95363E-05 4.27194E-07 1.65436E-24
 -1       809 6.94650E-05 3.81862E-07 0.00000E+00
 -1       810 6.93890E-05 3.48873E-07 0.00000E+00
 -1       811 6.93070E-05 3.31910E-07 0.00000E+00
 -1       812 6.92175E-05 3.34653E-07 0.00000E+00
 -1       813 6.91193E-05 3.60772E-07 0.00000E+00
 -1       814 6.90109E-05 4.13936E-07 1.65436E-24
 -1       815 6.88910E-05 4.97808E-07 0.00000E+00
 -1       816 6.87582E-05 6.16051E-07 1.65436E-24
 -1       817 6.86112E-05 7.72326E-07 0.00000E+00
 -1       818 6.84485E-05 9.70291E-07 1.65436E-24
 -1       819 6.82690E-05 1.21359E-06 0.00000E+00
 -1       820 6.80713E-05 1.50587E-06-1.65436E-24
 -1       821 7.05569E-05 1.62426E-06 8.27181E-25
 -1       822 7.04710E-05 1.86361E-06 0.00000E+00
 -1       823 7.03854E-05 2.13424E-06-1.65436E-24
 -1       824 7.02989E-05 2.47177E-06-1.65436E-24
 -1       825 7.02123E-05 2.89976E-06 0.00000E+00
 -1       826 7.01254E-05 3.44144E-06-1.65436E-24
 -1       827 7.00384E-05 4.09954E-06-3.30872E-24
 -1       828 6.99514E-05 4.87638E-06 0.00000E+00
 -1       829 6.98642E-05 5.75286E-06 0.00000E+00
 -1       830 6.97771E-05 6.70952E-06 1.65436E-24
 -1       831 6.96899E-05 7.71246E-06 0.00000E+00
 -1       832 6.96028E-05 8.72760E-06-1.65436E-24
 -1       833 6.95159E-05 9.71864E-06 1.65436E-24
 -1       834 6.94299E-05 1.06494E-05 0.00000E+00
 -1       835 6.93437E-05 1.14946E-05 8.27181E-25
 -1       836 7.03057E-05 1.45874E-06 0.00000E+00
 -1       837 6.98701E-05 1.53876E-06-8.27181E-25
 -1       838 6.93690E-05 1.61862E-06 0.00000E+00
 -1       839 6.88406E-05 1.69797E-06-8.27181E-25
 -1       840 6.83233E-05 1.77719E-06 2.06795E-25
 -1       856 6.92382E-05 1.29585E-05 0.00000E+00
 -1       857 6.92108E-05 1.37825E-05 0.00000E+00
 -1       858 6.91836E-05 1.46859E-05-4.13590E-25
 -1       859 6.91558E-05 1.56540E-05 0.00000E+00
 -1       860 6.91279E-05 1.66716E-05 8.27181E-25
 -1       861 6.90999E-05 1.77238E-05-4.13590E-25
 -1       862 6.90718E-05 1.87954E-05-8.27181E-25
 -1       863 6.90437E-05 1.98712E-05 0.00000E+00
 -1       864 6.90157E-05 2.09362E-05 8.27181E-25
 -1       865 6.89876E-05 2.19753E-05 4.13590E-25
 -1       866 6.89596E-05 2.29733E-05 8.27181E-25
 -1       867 6.89316E-05 2.39153E-05 4.13590E-25
 -1       868 6.89037E-05 2.47861E-05 0.00000E+00
 -1       869 6.88758E-05 2.55710E-05 0.00000E+00
 -1       870 6.88480E-05 2.62550E-05 8.27181E-25
 -1       871 6.87108E-05 1.22283E-05 4.13590E-25
 -1       872 6.82496E-05 1.22256E-05 0.00000E+00
 -1       873 6.78402E-05 1.22226E-05 0.00000E+00
 -1       874 6.74429E-05 1.22192E-05 5.16988E-26
 -1       875 6.70183E-05 1.22153E-05-4.13590E-25
 -1       876 6.90716E-05 1.29664E-05 1.65436E-24
 -1       877 6.88651E-05 1.37497E-05 1.65436E-24
 -1       878 6.86437E-05 1.45734E-05 0.00000E+00
 -1       879 6.84092E-05 1.54324E-05 0.00000E+00
 -1       880 6.81635E-05 1.63213E-05 3.30872E-24
 -1       881 6.79084E-05 1.72350E-05 0.00000E+00
 -1       882 6.76460E-05 1.81685E-05 0.00000E+00
 -1       883 6.73782E-05 1.91164E-05 0.00000E+00
 -1       884 6.71068E-05 2.00736E-05 0.00000E+00
 -1       885 6.68339E-05 2.10350E-05 0.00000E+00
 -1       886 6.65613E-05 2.19954E-05-1.65436E-24
 -1       887 6.62910E-05 2.29496E-05-8.27181E-25
 -1       888 6.60247E-05 2.38925E-05 0.00000E+00
 -1       889 6.57643E-05 2.48187E-05-8.27181E-25
 -1       890 6.55116E-05 2.57232E-05 8.27181E-25
 -1       891 6.83303E-05 2.67860E-05 0.00000E+00
 -1       892 6.78244E-05 2.67484E-05 0.00000E+00
 -1       893 6.72836E-05 2.67108E-05 8.27181E-25
 -1       894 6.66892E-05 2.66733E-05 0.00000E+00
 -1       895 6.60224E-05 2.66359E-05 2.06795E-25
 -1       956 6.77737E-05 2.30278E-06 1.65436E-24
 -1       957 6.76909E-05 2.80813E-06 0.00000E+00
 -1       958 6.76079E-05 3.36118E-06 0.00000E+00
 -1       959 6.75247E-05 3.95608E-06-8.27181E-25
 -1       960 6.74415E-05 4.58695E-06-1.65436E-24
 -1       961 6.73582E-05 5.24788E-06-8.27181E-25
 -1       962 6.72749E-05 5.93296E-06 3.30872E-24
 -1       963 6.71915E-05 6.63627E-06-8.27181E-25
 -1       964 6.71082E-05 7.35189E-06 0.00000E+00
 -1       965 6.70248E-05 8.07389E-06 0.00000E+00
 -1       966 6.69415E-05 8.79637E-06-3.30872E-24
 -1       967 6.68582E-05 9.51341E-06-1.65436E-24
 -1       968 6.67749E-05 1.02191E-05-6.61744E-24
 -1       969 6.66918E-05 1.09075E-05 0.00000E+00
 -1       970 6.66090E-05 1.15727E-05 3.30872E-24
 -1       971 6.64495E-05 1.28631E-05 0.00000E+00
 -1       972 6.63706E-05 1.35872E-05 0.00000E+00
 -1       973 6.62915E-05 1.43737E-05 0.00000E+00
 -1       974 6.62122E-05 1.52144E-05 0.00000E+00
 -1       975 6.61329E-05 1.61013E-05-1.65436E-24
 -1       976 6.60535E-05 1.70264E-05 0.00000E+00
 -1       977 6.59741E-05 1.79816E-05 0.00000E+00
 -1       978 6.58947E-05 1.89589E-05 8.27181E-25
 -1       979 6.58153E-05 1.99500E-05 0.00000E+00
 -1       980 6.57359E-05 2.09470E-05-1.65436E-24
 -1       981 6.56565E-05 2.19418E-05 0.00000E+00
 -1       982 6.55771E-05 2.29262E-05 0.00000E+00
 -1       983 6.54979E-05 2.38923E-05 0.00000E+00
 -1       984 6.54191E-05 2.48319E-05-8.27181E-25
 -1       985 6.53406E-05 2.57369E-05 1.65436E-24
 -3
    1PSTEP                         8           4           1          
  100CL  104 4.55078E-01         409                     0    4           1
 -4  STRESS      6    1
 -5  SXX         1    4    1    1
 -5  SYY         1    4    2    2
 -5  SZZ         1    4    3    3
 -5  SXY         1    4    1    2
 -5  SYZ         1    4    2    3
 -5  SZX         1    4    3    1
 -1         1-1.58444E+06-7.24219E+05-3.24575E+05-1.01818E+06 3.05590E-10 5.00586E-09
 -1         2 2.62356E+03 2.83911E+05 8.59856E+03 8.10037E+02-1.51800E-10-6.21839E-09
 -1         3-7.67916E+01-6.72431E+05 1.56986E+02-2.30487E+02-1.32360E-10-9.49512E-09
 -1         5-5.97752E+00 2.36970E+05 6.20977E+00 9.86637E-02 1.02346E-10 9.43692E-09
 -1         8-7.46233E+05-3.22111E+05-2.75688E+04-5.56766E+05 3.40151E-10 1.92085E-09
 -1         9-1.28843E+06-3.30774E+05-1.28128E+05-4.38026E+05 3.31784E-09 4.41796E-09
 -1        10-5.39660E+02-7.00531E+05-9.19879E+02-1.55393E+03-3.28419E-09-1.59056E-08
 -1        12-3.43198E+00 2.36983E+05 2.01390E+02 9.33648E-01 2.15323E-10-1.29667E-08
 -1        15 1.94565E+03 1.06926E+03 6.28926E+03 3.99314E+00 2.62384E-09 5.81697E-07
 -1        16-3.52609E+06-1.16743E+06-5.52264E+05-1.19071E+06 1.07636E-08-5.04466E-09
 -1        17-8.00396E+05-4.88401E+05-1.54587E+05-4.54893E+05-5.15574E-09 4.25498E-09
 -1        18 1.68943E+04-8.67003E+01-1.39233E+04-5.60653E+04 7.55335E-10 2.07274E-09
 -1        19 7.42255E+04 8.85068E+04-4.18802E+02 1.45141E+04-5.77165E-10 3.39060E-10
 -1        20-3.09787E+04-3.50705E+05-7.73585E+04 2.58331E+04 3.08804E-09 9.56607E-09
 -1        21-3.31023E+01-2.03195E+05-6.56246E+02-7.12511E+01-2.82524E-09-6.40112E-09
 -1        24-3.18055E+06-1.03819E+06-4.47276E+05-1.26802E+06-1.71543E-08-8.96883E-09
 -1        25 2.73714E+04-8.82927E+03 1.53978E+04-9.09272E+04 3.44016E-09 4.93437E-09
 -1        26-1.72052E+04 6.04539E+04-1.19787E+04-8.65399E+03 1.43336E-09 2.48236E-09
 -1        27-5.61239E+04-1.92405E+05-7.21809E+04 4.33594E+04 4.83707E-09 1.74926E-09
 -1        28 1.57298E+04-5.61294E+04 1.14777E+04 1.79824E+04 2.27053E-09-1.12874E-08
 -1        32-7.43155E+05-1.14773E+05 3.33642E+05-4.83841E+05-1.18380E-08 3.06492E-08
 -1        33-1.10026E+05 5.65774E+04 2.00559E+04-3.28549E+04 1.03307E-09 8.09860E-09
 -1        34-1.42844E+05-1.42179E+04 3.34850E+02 4.39225E+04 2.55272E-09 4.03861E-09
 -1        35-1.59957E+04-2.23087E+04-8.73893E+02 3.53952E+04 7.61185E-09-4.28857E-09
 -1        51 1.33099E+04-3.62325E+05 3.45876E+04-9.13207E+05-4.36557E-11 2.40107E-09
 -1        52 8.42911E+03-3.61396E+05 2.32930E+04-1.06511E+06 1.89175E-10-9.02219E-09
 -1        53 6.40282E+03-3.73236E+05 2.03548E+04-9.10040E+05 2.40107E-10 8.81846E-09
 -1        54 1.85023E+04-3.71853E+05 3.32707E+04-1.06841E+06-4.14730E-10 4.48199E-09
 -1        55 3.69786E+04-3.84540E+05 5.97884E+04-9.09538E+05 6.69388E-10 9.58971E-09
 -1        56-3.04194E+06-3.42826E+05-2.38515E+05-1.17236E+06-5.85715E-10-7.14499E-09
 -1        57-3.13521E+06-5.61118E+05-1.60769E+05-1.16599E+06 1.43427E-09 5.83350E-09
 -1        58-3.09047E+06-4.17734E+05-5.61214E+04-1.15662E+06-1.28148E-09 5.15502E-09
 -1        59-3.07898E+06-4.73316E+05-3.35004E+04-1.18490E+06-1.94632E-10-1.22945E-08
 -1        60-3.09767E+06-4.28055E+05-1.31056E+04-1.15435E+06-3.36058E-10 3.38332E-10
 -1        61-3.07187E+06-4.59943E+05-7.44659E+03-1.18603E+06-1.96906E-09-3.01702E-09
 -1        62-3.09745E+06-4.30795E+05-3.59704E+03-1.15557E+06 1.90653E-09 5.88409E-09
 -1        63-3.07460E+06-4.54470E+05-2.92889E+03-1.18162E+06 8.53902E-10 1.62208E-09
 -1        64-3.09481E+06-4.33563E+05-3.40974E+03-1.15870E+06 1.19144E-09-2.34832E-09
 -1        65-3.08172E+06-4.49380E+05-6.74465E+03-1.17391E+06-7.80119E-10-2.78260E-09
 -1        66-3.09023E+06-4.35995E+05-1.19577E+04-1.16318E+06 8.88804E-10-1.20654E-08
 -1        67-3.09659E+06-4.52895E+05-3.02523E+04-1.16302E+06 2.06256E-09-5.82440E-09
 -1        68-3.07998E+06-4.30378E+05-5.08545E+04-1.16946E+06 2.08729E-09-1.44428E-09
 -1        69-3.15344E+06-5.26584E+05-1.45428E+05-1.13954E+06 2.84490E-09-5.61704E-09
 -1        70-3.03396E+06-3.64556E+05-2.15858E+05-1.18591E+06-4.32919E-10-1.03319E-09
 -1        86-1.31792E+03 2.81122E+05 9.18346E+03-4.05046E+02 1.08957E-09 5.11221E-09
 -1        87 8.74077E+03 2.86927E+05 1.92020E+04 1.67722E+03 1.83104E-09 6.71122E-10
 -1        88-7.41933E+03 2.78109E+05 2.93486E+04-1.27225E+03 2.80488E-09-1.38596E-09
 -1        89 5.52881E+04 3.08724E+05 7.92274E+04 3.66737E+03 4.34102E-09-2.43816E-09
 -1        90-4.77187E+04 2.59350E+05 1.11836E+05-2.39471E+03 4.95493E-09-2.34002E-09
 -1       121-1.21875E+02-6.72782E+05 1.28179E+02 1.15110E+02 3.51697E-10-1.48430E-08
 -1       122-2.47110E+01-6.72398E+05 3.40217E+02-4.60870E+02-1.26926E-09-3.24326E-09
 -1       123-1.57998E+02-6.72819E+05 5.28930E+02 3.44965E+02 1.00812E-09-4.72573E-09
 -1       124 6.04074E+02-6.72021E+05 1.42055E+03-1.03871E+03-2.41869E-09-7.27596E-10
 -1       125-5.63071E+02-6.73174E+05 2.15602E+03 6.92664E+02 1.54796E-09-1.12168E-08
 -1       191-6.48061E+00 2.36989E+05 7.34726E+00-5.00428E-02 1.35784E-10 5.31145E-09
 -1       192-6.54869E+00 2.36970E+05 1.31519E+01 6.45502E-01 2.01961E-10 6.09134E-10
 -1       193-7.99903E+00 2.36989E+05 2.43859E+01-6.00233E-01 2.30653E-10-1.92722E-09
 -1       194-8.38664E+00 2.36972E+05 4.97561E+01 1.60231E+00 1.13410E-10 1.62891E-09
 -1       195-1.09170E+01 2.36988E+05 9.72523E+01-1.01443E+00 3.76659E-10-2.31466E-10
 -1       251 2.21521E+05-4.45395E+04 1.03873E+05 4.63720E+03 6.75868E-10-3.46336E-09
 -1       252 2.69601E+05 5.15065E+04 7.38229E+04-1.47526E+04-1.15415E-09-9.38326E-09
 -1       253 2.39620E+05-6.89383E+03 2.68758E+04 3.11352E+03 1.34719E-10 3.08683E-09
 -1       254 2.48199E+05 7.95876E+03 1.70371E+04-1.23636E+04 8.59046E-10 3.20142E-09
 -1       255 2.42807E+05-1.06395E+03 6.94513E+03 2.24833E+03 2.45677E-10 5.39558E-09
 -1       256 2.44357E+05 1.26623E+03 4.23655E+03-1.10881E+04 5.80684E-10 1.21665E-08
 -1       257 2.43411E+05-1.85798E+02 2.18134E+03 1.83807E+03 1.01096E-10 2.45365E-09
 -1       258 2.43740E+05 4.02193E+02 1.94187E+03-1.06729E+04-8.40789E-10-1.37479E-09
 -1       259 2.43410E+05-1.91462E+02 2.23490E+03 1.83313E+03-2.40163E-12 3.35910E-09
 -1       260 2.44376E+05 1.31598E+03 4.38856E+03-1.10690E+04-5.04315E-10-4.80242E-09
 -1       261 2.42789E+05-1.10738E+03 7.22348E+03 2.23413E+03 1.22503E-09-3.66163E-09
 -1       262 2.48344E+05 8.28652E+03 1.77230E+04-1.23224E+04 2.80551E-10 1.76146E-09
 -1       263 2.39492E+05-7.17598E+03 2.79836E+04 3.08655E+03-8.79822E-10-4.18368E-09
 -1       264 2.70554E+05 5.36188E+04 7.68290E+04-1.46878E+04-2.24171E-09 7.05040E-09
 -1       265 2.20693E+05-4.63595E+04 1.08155E+05 4.59938E+03-9.71909E-10 4.27826E-09
 -1       266-3.52214E+04-1.64671E+04 8.26510E+04-8.54511E+01 4.10000E-09 9.00921E-07
 -1       267 4.08325E+04 1.91965E+04 5.84107E+04 9.85808E+01 8.34552E-09 1.77793E-06
 -1       268-5.47550E+03-2.71854E+03 2.17113E+04-1.25616E+01 6.55655E-09 1.42978E-06
 -1       269 6.46504E+03 3.25377E+03 1.41117E+04 1.46316E+01 5.00518E-09 1.08740E-06
 -1       270-9.70392E+02-5.34593E+02 6.81193E+03-1.98565E+00 3.65344E-09 8.02720E-07
 -1       271-3.45828E+06-4.32645E+05-2.66428E+05-1.34881E+06 7.74889E-10 2.27010E-09
 -1       272-3.53734E+06-6.43062E+05-1.71234E+05-1.36468E+06 1.10344E-09 3.44153E-09
 -1       273-3.51007E+06-4.97291E+05-6.29422E+04-1.33505E+06-1.54205E-09-3.44517E-09
 -1       274-3.47637E+06-5.64329E+05-3.51820E+04-1.38629E+06 4.81577E-10-3.22325E-09
 -1       275-3.51876E+06-5.02311E+05-1.46425E+04-1.33101E+06 1.29148E-10 4.09182E-09
 -1       276-3.46598E+06-5.58673E+05-7.75899E+03-1.39293E+06 1.47747E-09-2.16755E-09
 -1       277-3.52104E+06-5.01608E+05-3.79723E+03-1.32925E+06-1.41245E-09 1.09821E-09
 -1       278-3.46383E+06-5.59214E+05-2.75365E+03-1.39510E+06 4.60238E-09 6.37760E-09
 -1       279-3.52121E+06-5.01498E+05-2.95293E+03-1.32909E+06-3.39014E-10-1.31422E-10
 -1       280-3.46522E+06-5.58776E+05-5.40833E+03-1.39364E+06-1.05138E-09-1.01979E-08
 -1       281-3.51944E+06-5.02230E+05-9.92411E+03-1.33054E+06-5.27507E-10-5.05224E-09
 -1       282-3.47294E+06-5.61676E+05-2.36523E+04-1.38802E+06 6.80302E-10-1.67847E-09
 -1       283-3.51292E+06-4.99611E+05-4.23129E+04-1.33402E+06-1.60981E-10-7.10133E-09
 -1       284-3.51537E+06-6.12775E+05-1.14928E+05-1.37130E+06 6.70184E-10-4.90218E-09
 -1       285-3.47706E+06-4.57419E+05-1.79007E+05-1.34449E+06 8.23093E-10 2.49565E-09
 -1       301 1.36003E+04-1.20822E+04 1.04829E+05-3.45552E+04-6.83940E-10 3.36922E-09
 -1       302 1.46555E+04 1.44523E+04 7.55771E+04-5.08987E+04 1.76442E-09 8.53947E-09
 -1       303 7.70771E+02-2.64090E+03 6.93944E+04-3.46483E+04-6.76664E-10-2.85991E-09
 -1       304 2.72369E+04 2.61122E+04 1.16539E+05-5.07316E+04 1.36970E-09 7.09451E-09
 -1       305 2.69203E+04-2.35795E+04 1.95499E+05-3.46340E+04-8.58563E-10 3.30328E-09
 -1       306-3.74300E+06-4.36954E+05-2.85149E+05-1.46831E+06 3.31056E-10-9.64792E-09
 -1       307-3.89847E+06-6.68727E+05-1.94317E+05-1.40813E+06 2.18006E-09 3.74348E-09
 -1       308-3.81229E+06-5.21288E+05-6.71551E+04-1.43661E+06 1.03591E-09 5.68980E-09
 -1       309-3.80969E+06-5.79345E+05-4.04955E+04-1.45541E+06 1.59750E-09 3.55067E-09
 -1       310-3.83136E+06-5.24588E+05-1.57781E+04-1.42163E+06-1.69541E-09-1.87629E-09
 -1       311-3.78455E+06-5.78995E+05-9.07617E+03-1.47732E+06 5.45606E-09-6.55064E-09
 -1       312-3.83766E+06-5.21161E+05-4.44585E+03-1.41501E+06-1.02006E-10 4.31669E-10
 -1       313-3.78024E+06-5.80304E+05-3.99742E+03-1.48164E+06-5.38165E-10-6.26301E-10
 -1       314-3.83576E+06-5.23184E+05-4.86483E+03-1.41739E+06-2.93380E-09 1.51431E-09
 -1       315-3.79157E+06-5.72042E+05-1.00978E+04-1.46857E+06-1.72429E-09 1.35860E-08
 -1       316-3.82606E+06-5.29652E+05-1.79086E+04-1.42786E+06 2.57626E-09 7.45422E-09
 -1       317-3.82296E+06-5.69953E+05-4.58899E+04-1.44108E+06-1.98293E-09-3.70346E-09
 -1       318-3.80421E+06-5.25736E+05-7.61253E+04-1.44461E+06-5.60067E-09 5.21686E-09
 -1       319-3.92163E+06-6.74160E+05-2.20513E+05-1.39110E+06-2.57933E-09-2.51384E-09
 -1       320-3.72809E+06-4.27251E+05-3.23265E+05-1.47734E+06 8.01083E-09-4.94765E-09
 -1       336 4.79104E+02-7.28326E+05-3.95204E+03 8.59343E+02-6.50994E-09-5.67888E-09
 -1       337-1.44029E+03-7.29303E+05-4.35469E+03-2.19752E+03-1.20190E-08-1.09821E-09
 -1       338 3.18973E+02-7.28429E+05-5.57153E+03 1.33344E+03-8.44761E-09-9.42600E-09
 -1       339-5.77177E+03-7.31990E+05-1.22031E+04-3.13294E+03-1.57142E-08 9.96624E-09
 -1       340 3.89093E+03-7.25702E+05-1.88461E+04 1.78820E+03-1.03973E-08 1.16297E-08
 -1       406 1.18766E+01 2.36978E+05 3.97517E+02 6.25206E-02 5.65876E-10-1.31240E-08
 -1       407 1.35206E+02 2.37052E+05 8.45036E+02-8.28334E+00 1.20821E-10-1.83429E-08
 -1       408 4.31503E+02 2.36918E+05 1.68762E+03 8.36993E+00 6.46878E-10-1.12905E-08
 -1       409 1.82169E+03 2.37591E+05 3.79950E+03-8.00285E+01-2.34195E-11 1.64709E-09
 -1       410 5.24017E+03 2.36437E+05 7.75648E+03 7.45276E+01 6.35737E-10 1.49430E-09
 -1       521-7.13249E+06-7.85593E+05-5.38587E+05-2.70985E+06 2.75759E-09-3.05590E-09
 -1       522-7.14588E+06-1.41614E+06-3.54186E+05-2.84554E+06-1.31859E-08-8.76389E-09
 -1       523-7.31634E+06-8.62118E+05-1.26452E+05-2.56232E+06-1.95541E-11-6.33736E-09
 -1       524-6.94232E+06-1.32506E+06-7.36502E+04-3.03708E+06 2.41165E-08-1.42199E-08
 -1       525-7.34808E+06-8.62984E+05-2.85806E+04-2.52915E+06 1.50267E-08-1.18807E-08
 -1       526-6.94859E+06-1.25809E+06-1.33212E+04-2.99089E+06-3.81715E-09-5.00563E-09
 -1       527-7.30444E+06-9.32420E+05-1.31405E+04-2.60481E+06 4.76575E-09 3.91992E-09
 -1       528-7.08291E+06-1.08338E+06 1.57856E+03-2.77259E+06-4.47471E-10 7.35781E-09
 -1       529-7.19968E+06-1.04770E+06-1.60345E+04-2.73701E+06 2.44108E-09 9.60426E-10
 -1       530-7.31107E+06-8.70644E+05-9.52113E+03-2.53160E+06-1.19926E-08 2.11521E-08
 -1       531-7.08035E+06-1.14218E+06-3.15384E+04-2.84848E+06-1.38498E-08 3.99450E-09
 -1       532-7.50432E+06-7.60262E+05-7.26732E+04-2.39120E+06 5.80667E-09-2.24645E-08
 -1       533-7.02093E+06-1.14851E+06-1.22759E+05-2.88832E+06 8.52015E-09-3.12793E-08
 -1       534-7.59965E+06-9.83902E+05-3.54773E+05-2.37180E+06-4.84579E-09 2.55968E-08
 -1       535-6.98429E+06-9.24124E+05-5.30592E+05-2.86495E+06-1.20635E-08 2.01981E-08
 -1       536-5.88977E+04-1.82597E+04 4.20098E+04-4.44702E+01-1.37922E-09 6.25732E-09
 -1       537-3.89789E+04 2.11327E+04 3.00154E+04-9.67786E+02-8.16021E-09-9.19727E-09
 -1       538-5.17426E+04-2.86492E+03 1.08051E+04 1.36299E+02-4.73619E-10 3.51747E-09
 -1       539-4.74603E+04 3.30952E+03 6.98961E+03-1.35088E+03 4.62606E-09 9.71534E-09
 -1       540-5.04270E+04-4.47533E+02 2.70238E+03 3.38627E+02 5.35294E-10 2.31319E-09
 -1       541-4.91428E+04 5.09891E+02 1.67275E+03-1.71148E+03-5.34826E-11 8.61601E-09
 -1       542-5.00725E+04-6.55094E+01 6.20522E+02 4.96960E+02 4.58499E-10-2.42466E-10
 -1       543-4.96642E+04 5.40960E+01 3.09752E+02-1.96724E+03-4.37481E-11-7.15453E-09
 -1       544-4.99136E+04 1.22402E+01-3.08349E+01 5.94490E+02 1.41824E-10-3.33399E-09
 -1       545-4.99244E+04-1.36496E+02-3.62465E+02-2.09377E+03 1.11215E-10 1.20396E-09
 -1       546-4.98142E+04 1.29817E+02-7.48420E+02 6.23581E+02 7.35891E-10-5.30167E-09
 -1       547-5.03024E+04-9.40670E+02-1.92532E+03-2.08122E+03-1.74722E-09 5.14007E-10
 -1       548-4.95344E+04 8.16284E+02-3.11548E+03 5.81954E+02-2.36289E-09-1.38800E-09
 -1       549-5.24602E+04-6.00780E+03-8.46683E+03-1.92730E+03-1.42225E-09-3.22791E-09
 -1       550-4.76535E+04 5.18794E+03-1.20810E+04 4.69604E+02 4.95533E-11-2.09457E-09
 -1       551 7.99863E+03-3.78131E+05 2.02235E+04-6.44415E+05-2.94858E-08 4.63479E-09
 -1       552 1.74520E+04-3.80584E+05 2.70020E+04-9.17263E+05-2.09911E-08 1.12959E-08
 -1       553 1.17989E+04-3.85564E+05 4.21133E+04-6.42243E+05-3.54485E-08 6.42103E-09
 -1       554 3.90046E+04-3.68773E+05 8.95691E+04-9.18184E+05-2.29047E-08 2.40254E-09
 -1       555 3.77838E+04-4.02690E+05 1.60798E+05-6.42994E+05-3.55358E-08-4.07817E-09
 -1       556 5.65308E+04-1.22442E+05 4.15454E+04-1.60916E+05-7.08678E-09-5.44969E-09
 -1       557 1.06086E+05-1.63619E+05 2.18238E+04-2.01427E+05-5.64614E-09-1.05365E-08
 -1       558 5.64577E+04-1.28037E+05 8.82389E+03-1.56094E+05-6.57019E-09-8.13088E-09
 -1       559 9.94841E+04-1.69324E+05 4.47998E+03-2.04328E+05 5.32600E-09-6.38011E-09
 -1       560 5.50568E+04-1.27104E+05 1.85122E+03-1.56967E+05-5.35510E-09-9.85983E-09
 -1       561 9.72830E+04-1.68775E+05 9.84748E+02-2.05719E+05-1.71349E-09 3.49974E-09
 -1       562 5.39246E+04-1.26343E+05 3.74059E+02-1.57783E+05-1.22236E-09-2.92425E-09
 -1       563 9.59522E+04-1.68204E+05 2.36526E+02-2.06570E+05 8.29459E-10 9.99398E-09
 -1       564 5.32208E+04-1.25888E+05 8.40063E+01-1.58284E+05 3.09956E-09-1.85264E-09
 -1       565 9.52631E+04-1.67910E+05 5.31216E+01-2.07003E+05 1.86992E-09-3.63616E-09
 -1       566 5.29718E+04-1.25722E+05-1.87320E+01-1.58464E+05-8.92214E-10-5.69344E-10
 -1       567 9.51767E+04-1.67867E+05-1.02498E+02-2.06997E+05 7.53107E-09-1.42245E-09
 -1       568 5.32085E+04-1.25878E+05-2.98927E+02-1.58356E+05-8.89486E-10-4.30555E-09
 -1       569 9.50875E+04-1.67759E+05-6.99045E+02-2.06025E+05-2.70120E-09 7.62702E-09
 -1       570 5.44270E+04-1.26990E+05-1.49199E+03-1.58336E+05 1.49521E-09-1.58252E-10
 -1       571 1.71818E+05 6.23520E+03 9.23979E+03-4.34399E+04-1.28421E-09 3.13639E-09
 -1       572 1.73192E+05 2.16871E+03 4.52689E+03-4.76175E+04-2.63731E-09-5.67707E-09
 -1       573 1.72370E+05 5.17157E+02 2.01101E+03-4.33263E+04-2.07638E-09 1.05319E-09
 -1       574 1.72532E+05 1.68793E+02 1.00754E+03-4.77443E+04-5.63887E-11-3.42334E-09
 -1       575 1.72431E+05 2.38909E+01 4.74833E+02-4.33114E+04-6.98969E-09-6.62794E-09
 -1       576 1.72442E+05 7.49374E+00 2.41675E+02-4.77613E+04-1.56998E-08 3.70483E-09
 -1       577 1.72440E+05-2.44804E+00 1.18999E+02-4.33094E+04-6.91625E-09 9.22182E-09
 -1       578 1.72433E+05-5.82046E-01 6.48022E+01-4.77633E+04-8.29232E-10-4.21096E-09
 -1       579 1.72450E+05-4.14632E+00 3.94706E+01-4.33093E+04-1.55069E-09-7.85667E-09
 -1       580 1.72446E+05-5.76013E+00 3.66054E+01-4.77607E+04-2.28238E-09 6.98901E-09
 -1       581 1.72467E+05-1.05007E+01 4.93147E+01-4.33119E+04-1.43336E-09 4.97221E-09
 -1       582 1.72478E+05-3.79705E+00 9.37897E+01-4.77350E+04-6.18456E-10 8.26913E-09
 -1       583 1.72488E+05 1.85862E+01 1.79641E+02-4.33351E+04-2.17369E-10 4.54747E-12
 -1       584 1.72571E+05 1.57956E+02 4.02815E+02-4.75415E+04-2.26783E-09-9.67316E-09
 -1       585 1.72471E+05 5.12645E+02 8.17768E+02-4.35057E+04-3.75621E-10-8.33461E-09
 -1       586-2.08290E+03 5.63196E+04-2.76949E+03-1.47710E+05 3.86990E-10 3.93811E-10
 -1       587-4.37918E+02 5.59461E+04-3.12806E+02-1.62542E+05 6.85759E-10 4.14570E-09
 -1       588 5.92764E+02 5.60202E+04 1.96020E+03-1.47620E+05 3.90173E-10 5.76301E-09
 -1       589 2.92438E+03 5.70983E+04 5.71421E+03-1.62407E+05 6.52108E-10-4.83487E-09
 -1       590 8.38184E+03 5.53333E+04 1.22366E+04-1.47845E+05 3.14685E-10 3.80169E-10
 -1       591-3.76495E+04-1.07622E+04-1.24907E+04-1.95050E+04 1.38823E-09 6.02267E-09
 -1       592-3.88224E+04-1.38265E+04-6.76547E+03-2.27589E+04 1.80592E-10 6.42331E-09
 -1       593-3.89126E+04-9.84176E+03-2.81654E+03-2.04071E+04-1.15369E-09-7.10043E-09
 -1       594-3.70819E+04-1.20110E+04-1.40473E+03-2.28456E+04 3.32705E-10-4.34352E-09
 -1       595-3.90093E+04-9.83751E+03-6.45560E+02-2.04485E+04 1.55683E-09-7.85631E-09
 -1       596-3.69641E+04-1.19278E+04-3.29064E+02-2.28333E+04 1.38806E-09-3.03237E-09
 -1       597-3.90216E+04-9.84550E+03-1.81132E+02-2.04502E+04 1.80982E-09-9.22347E-09
 -1       598-3.69529E+04-1.19247E+04-1.49178E+02-2.28299E+04 9.93727E-09 2.72962E-09
 -1       599-3.90207E+04-9.84555E+03-1.95012E+02-2.04499E+04 5.38495E-09-2.68869E-09
 -1       600-3.69654E+04-1.19289E+04-3.65853E+02-2.28330E+04 1.00215E-09-6.20025E-09
 -1       601-3.90053E+04-9.83690E+03-7.23609E+02-2.04473E+04 9.73955E-10 3.48621E-09
 -1       602-3.70976E+04-1.20222E+04-1.57804E+03-2.28451E+04 1.08957E-09 3.11400E-09
 -1       603-3.88953E+04-9.84319E+03-3.16516E+03-2.04010E+04-2.13049E-10 3.88741E-09
 -1       604-3.90599E+04-1.40554E+04-7.60320E+03-2.27384E+04-6.71662E-10 1.38061E-09
 -1       605-3.74676E+04-1.08836E+04-1.40371E+04-1.93941E+04 1.50465E-09-2.87719E-09
 -1       606 2.45186E+04-8.27692E+03-1.49049E+04 2.39416E+04-4.38376E-09-7.15590E-09
 -1       607 2.19658E+04-2.66983E+03-7.42178E+03 2.68757E+04-2.02544E-09-1.09677E-08
 -1       608 2.34144E+04-4.49878E+02-3.32360E+03 2.37506E+04 2.72121E-09-2.68255E-09
 -1       609 2.31259E+04-1.16396E+02-1.67867E+03 2.70864E+04-1.37152E-09 7.84269E-09
 -1       610 2.32807E+04 2.21719E+01-8.01868E+02 2.37292E+04-4.53110E-09 1.42222E-09
 -1       611 2.32258E+04 3.33660E+01-4.04454E+02 2.71094E+04-6.57019E-09-6.03063E-09
 -1       612 2.32449E+04 3.54161E+01-1.93570E+02 2.37271E+04-2.95859E-09 4.32783E-09
 -1       613 2.32238E+04 4.06608E+01-8.82783E+01 2.71122E+04-5.02905E-09 1.06547E-09
 -1       614 2.32254E+04 3.60717E+01-2.47559E+01 2.37264E+04-1.87629E-09-2.53135E-09
 -1       615 2.32136E+04 4.53721E+01 2.72895E+01 2.71126E+04 4.19641E-09-3.01839E-09
 -1       616 2.32105E+04 4.10134E+01 9.07648E+01 2.37267E+04-3.63434E-09-5.81394E-10
 -1       617 2.32191E+04 6.81866E+01 2.10642E+02 2.71121E+04 2.38288E-10-3.01338E-09
 -1       618 2.31881E+04 1.04401E+02 4.25846E+02 2.37268E+04-8.86757E-11 4.72005E-09
 -1       619 2.33662E+04 3.99700E+02 9.57156E+02 2.71115E+04-1.79352E-09-5.92172E-09
 -1       620 2.30445E+04 1.11652E+03 1.92407E+03 2.37258E+04 1.65096E-09-3.73325E-09
 -1       621 2.97673E+02 1.87026E+05 2.58383E+03 6.19080E+03-2.82029E-10-3.02725E-09
 -1       622 3.40332E+02 1.87667E+05 2.19421E+03 9.04181E+03-1.97076E-10 5.63659E-10
 -1       623 1.38149E+01 1.87211E+05 2.52487E+03 6.16180E+03-2.10832E-10 2.35912E-09
 -1       624 1.14205E+03 1.88402E+05 4.79589E+03 9.07011E+03-2.69239E-10 4.44658E-10
 -1       625 1.14697E+03 1.86287E+05 8.33804E+03 6.16283E+03-1.79170E-10 4.92864E-09
 -1       626 1.54310E+05 4.27715E+04 3.07034E+03 8.34508E+04-1.46429E-09-6.27551E-10
 -1       627 1.52197E+05 4.43300E+04 1.47941E+03 8.68238E+04 2.12685E-09 9.14395E-09
 -1       628 1.54426E+05 4.13183E+04 6.24863E+02 8.39132E+04 3.22871E-09 7.07587E-10
 -1       629 1.51752E+05 4.39814E+04 3.06284E+02 8.70257E+04 3.75803E-09-1.19405E-09
 -1       630 1.54433E+05 4.12496E+04 1.41621E+02 8.39252E+04 9.88621E-10-3.57306E-09
 -1       631 1.51698E+05 4.39738E+04 7.62035E+01 8.70275E+04-1.59935E-09-2.29451E-09
 -1       632 1.54425E+05 4.12552E+04 5.03467E+01 8.39182E+04-4.08590E-09 1.03478E-09
 -1       633 1.51687E+05 4.39785E+04 5.63374E+01 8.70214E+04-3.40833E-09 8.91612E-09
 -1       634 1.54416E+05 4.12561E+04 9.12629E+01 8.39142E+04 3.85944E-09 1.52294E-08
 -1       635 1.51690E+05 4.39800E+04 1.85125E+02 8.70208E+04 4.87557E-09 1.52786E-08
 -1       636 1.54406E+05 4.12554E+04 3.73933E+02 8.39113E+04-1.88970E-09-3.45608E-11
 -1       637 1.51766E+05 4.40396E+04 8.21858E+02 8.70168E+04-7.08066E-10-8.21501E-10
 -1       638 1.54374E+05 4.14388E+04 1.68910E+03 8.38266E+04-9.81117E-10-5.10863E-09
 -1       639 1.52649E+05 4.52754E+04 3.99590E+03 8.67541E+04-3.43778E-09-4.46562E-09
 -1       640 1.54255E+05 4.51171E+04 8.29256E+03 8.22645E+04 3.28055E-09 1.71467E-08
 -1       656 4.18335E+04-1.05871E+06-1.00990E+05-3.77838E+02 1.76442E-09-2.17852E-09
 -1       657-5.52777E+04-1.10430E+06-8.35174E+04 6.86604E+03 3.02862E-10-3.26977E-09
 -1       658 1.32637E+04-1.07172E+06-5.12492E+04-1.32214E+03-7.04858E-11 7.40918E-10
 -1       659-5.92632E+04-1.10618E+06-8.87520E+04 7.49384E+03-1.40699E-09 1.01850E-08
 -1       660 4.58092E+04-1.05683E+06-1.09995E+05-1.00562E+03-7.27596E-10 1.99171E-09
 -1       661 1.50055E+05 1.63367E+04 1.43925E+04 5.86393E+04 1.21213E-09 3.46336E-09
 -1       662 1.57550E+05 2.76267E+04 9.69816E+03 5.61387E+04 2.41829E-09-1.86049E-09
 -1       663 1.52875E+05 2.09598E+04 3.39250E+03 5.78261E+04 1.32377E-09-1.68086E-09
 -1       664 1.54287E+05 2.22144E+04 2.02826E+03 5.71265E+04 4.30930E-09-2.06197E-09
 -1       665 1.53297E+05 2.15971E+04 8.00090E+02 5.77088E+04 2.12026E-11-8.95824E-10
 -1       666 1.53793E+05 2.14808E+04 4.66548E+02 5.72762E+04-6.10929E-09 4.74300E-09
 -1       667 1.53366E+05 2.16743E+04 2.45964E+02 5.76837E+04-1.49817E-09-2.44985E-09
 -1       668 1.53720E+05 2.14189E+04 2.46332E+02 5.73118E+04 4.66724E-09-3.68681E-09
 -1       669 1.53370E+05 2.16572E+04 3.30021E+02 5.76738E+04 1.86964E-09-3.51903E-10
 -1       670 1.53804E+05 2.15918E+04 7.15325E+02 5.73095E+04 3.45644E-09-1.36218E-09
 -1       671 1.53282E+05 2.15047E+04 1.26905E+03 5.76846E+04-1.50859E-10-1.76664E-09
 -1       672 1.54546E+05 2.28242E+04 3.24595E+03 5.71286E+04-6.54978E-10-2.40135E-09
 -1       673 1.52633E+05 2.04558E+04 5.43938E+03 5.78428E+04-4.47949E-09-1.49385E-09
 -1       674 1.59726E+05 3.15599E+04 1.55556E+04 5.56039E+04-6.23913E-09 5.54428E-09
 -1       675 1.48135E+05 1.30134E+04 2.30892E+04 5.91172E+04 1.54614E-11-7.42057E-09
 -1       676 1.70421E+01-2.03140E+05-7.90945E+02 3.56264E+01 1.07829E-09-1.43381E-09
 -1       677-2.09914E+02-2.03332E+05-1.44751E+03-7.12232E+01-4.86966E-09-6.83809E-10
 -1       678 1.40215E+02-2.03004E+05-2.55880E+03 3.55721E+01-3.84489E-10-6.47537E-10
 -1       679-2.55926E+03-2.04876E+05-6.07838E+03-7.10083E+01-2.81887E-09 1.79312E-09
 -1       680 1.52739E+03-2.01596E+05-9.79634E+03 3.50035E+01-9.88166E-10 4.18284E-09
 -1       771-2.18249E+06-3.83355E+05-5.36435E+04-9.06572E+05-9.00036E-09-6.94126E-09
 -1       772-2.16865E+06-4.12096E+05-2.87329E+04-9.38629E+05-6.19548E-09 2.68756E-09
 -1       773-2.18995E+06-3.77547E+05-1.24988E+04-9.09562E+05-3.30328E-09 3.04135E-09
 -1       774-2.16098E+06-4.05874E+05-6.05688E+03-9.42178E+05 7.30506E-09-5.12955E-10
 -1       775-2.19182E+06-3.76326E+05-3.13760E+03-9.09778E+05-2.83762E-10 1.08230E-09
 -1       776-2.16090E+06-4.05953E+05-1.42159E+03-9.44170E+05 3.78350E-10 1.80444E-09
 -1       777-2.19314E+06-3.75363E+05-9.26624E+02-9.09895E+05 1.46974E-09 1.41699E-09
 -1       778-2.16126E+06-4.06208E+05-3.77520E+02-9.45834E+05 7.56700E-10 3.49610E-09
 -1       779-2.19420E+06-3.74544E+05-3.73369E+02-9.10003E+05-2.52112E-09-2.28738E-09
 -1       780-2.16164E+06-4.06416E+05-1.97274E+02-9.47181E+05-3.04135E-09 6.76664E-10
 -1       781-2.19500E+06-3.73891E+05-3.33424E+02-9.10085E+05-1.18453E-08 4.17913E-10
 -1       782-2.16197E+06-4.06584E+05-4.86069E+02-9.48169E+05-1.40535E-08 4.98426E-09
 -1       783-2.19552E+06-3.73458E+05-9.73133E+02-9.10136E+05-5.80621E-09-2.38731E-09
 -1       784-2.16273E+06-4.07272E+05-2.25226E+03-9.48743E+05-6.42103E-09 3.48450E-10
 -1       785-2.19539E+06-3.73536E+05-4.17406E+03-9.09864E+05-7.73434E-09 6.66478E-09
 -1       786 1.59388E+05-8.50161E+03 1.96685E+04-4.30889E+00 5.21993E-07 1.10067E-08
 -1       787 1.67911E+05 9.84224E+03 1.39151E+04 2.88044E-01 1.03878E-06 1.04480E-08
 -1       788 1.62677E+05-1.33272E+03 5.09075E+03-8.54368E-01 1.17351E-06 7.35326E-10
 -1       789 1.64081E+05 1.54205E+03 3.19858E+03-6.73219E+00 1.30684E-06 8.80738E-09
 -1       790 1.63219E+05-2.08190E+02 1.30156E+03 2.71129E+00 1.54938E-06-4.83794E-09
 -1       791 1.63447E+05 2.41914E+02 7.64289E+02-1.50132E+01 1.79299E-06 1.26300E-08
 -1       792 1.63310E+05-3.35622E+01 3.49026E+02 7.42675E+00 2.31741E-06-1.26571E-08
 -1       793 1.63345E+05 4.72447E+01 2.29131E+02-2.68742E+01 2.83696E-06 9.99095E-09
 -1       794 1.63322E+05-1.36503E+01 1.70369E+02 1.45725E+01 1.41931E-06-1.06615E-08
 -1       795 1.63356E+05 7.07027E+01 2.47362E+02-4.55131E+01 4.80841E-09 6.36488E-09
 -1       796 1.63300E+05-5.70033E+01 3.71080E+02 2.60660E+01-1.50013E-11-3.60575E-09
 -1       797 1.63524E+05 4.17987E+02 8.75426E+02-7.59391E+01-6.13465E-11 2.90146E-09
 -1       798 1.63153E+05-3.60679E+02 1.38195E+03 4.49990E+01-1.20852E-10 7.08269E-10
 -1       799 1.64561E+05 2.66320E+03 3.76761E+03-1.26625E+02-8.58419E-10-2.50736E-09
 -1       800 1.62262E+05-2.30041E+03 5.32197E+03 7.67523E+01-1.18813E-10 1.41767E-09
 -1       801-8.47610E+03-5.45241E+04 6.33308E+03 4.96327E+03 6.08270E-09-1.15882E-08
 -1       802 2.17289E+04 4.33667E+04 4.60905E+04-1.86151E+04 9.25866E-09-6.89425E-09
 -1       803-1.30281E+04-1.52451E+04 5.83252E+04 4.70001E+03 2.36978E-08 2.13253E-08
 -1       804 1.15326E+05 9.54802E+04 1.68618E+05-1.95270E+04 3.40151E-10 1.74816E-08
 -1       805-1.02090E+05-1.06505E+05 2.11785E+05 5.87355E+03 1.52359E-08 3.77321E-08
 -1       806-1.87111E+05-4.00923E+04-1.59187E+04-7.79136E+04 1.53091E-09 1.72986E-09
 -1       807-1.88049E+05-3.78123E+04-7.82049E+03-8.21337E+04 6.88033E-10-3.39287E-09
 -1       808-1.87563E+05-3.43416E+04-3.31744E+03-8.06139E+04-3.70619E-11 3.96766E-09
 -1       809-1.86380E+05-3.56407E+04-1.62180E+03-8.23588E+04 1.35515E-10 7.68523E-10
 -1       810-1.87633E+05-3.41388E+04-7.42604E+02-8.07330E+04 1.87401E-09 1.74055E-10
 -1       811-1.86252E+05-3.55548E+04-3.68274E+02-8.23396E+04 1.33014E-09 1.89107E-09
 -1       812-1.87645E+05-3.41539E+04-1.83775E+02-8.07327E+04-2.87309E-09-8.87439E-09
 -1       813-1.86235E+05-3.55571E+04-1.15890E+02-8.23294E+04 3.63798E-11-8.26162E-09
 -1       814-1.87643E+05-3.41597E+04-1.08627E+02-8.07301E+04-1.04455E-09 3.04453E-09
 -1       815-1.86237E+05-3.55590E+04-1.69925E+02-8.23264E+04 5.72527E-10-6.07656E-10
 -1       816-1.87632E+05-3.41586E+04-3.18347E+02-8.07278E+04-1.25374E-09 1.22623E-09
 -1       817-1.86291E+05-3.55895E+04-6.82434E+02-8.23202E+04 1.76328E-09-4.24916E-09
 -1       818-1.87591E+05-3.42545E+04-1.39081E+03-8.06824E+04 1.96178E-09-3.09728E-09
 -1       819-1.87059E+05-3.64241E+04-3.27326E+03-8.21338E+04-1.34423E-09-4.04475E-09
 -1       820-1.87326E+05-3.67296E+04-6.66171E+03-7.96272E+04-4.50473E-09-1.00952E-08
 -1       821-2.42092E+05 1.34326E+04-3.10656E+04 7.13438E+01-4.82238E-10-8.14907E-10
 -1       822-2.55555E+05-1.55506E+04-2.19833E+04-5.55962E+02-2.42129E-09-1.00658E-09
 -1       823-2.47288E+05 2.10587E+03-8.04610E+03 3.68106E+01 6.73309E-10 1.11868E-10
 -1       824-2.49497E+05-2.43747E+03-5.06268E+03-4.17031E+02-1.62864E-10 2.79482E-09
 -1       825-2.48148E+05 3.29582E+02-2.08076E+03-6.75912E+01-2.58590E-09-4.67696E-09
 -1       826-2.48496E+05-3.88720E+02-1.25631E+03-1.78148E+02-5.21086E-09-3.42349E-09
 -1       827-2.48289E+05 5.85041E+01-6.50058E+02-2.02077E+02-4.21008E-09-8.50893E-09
 -1       828-2.48360E+05-1.18588E+02-5.74798E+02 7.15095E+01-5.34962E-09-4.78930E-10
 -1       829-2.48284E+05 5.96941E+01-6.59366E+02-3.17253E+02-5.04812E-10 8.11298E-10
 -1       830-2.48512E+05-3.98215E+02-1.28754E+03 2.40268E+02 2.48861E-09-1.21844E-09
 -1       831-2.48137E+05 3.38084E+02-2.13196E+03-3.70839E+02-2.65354E-09-3.79612E-09
 -1       832-2.49536E+05-2.50025E+03-5.19510E+03 2.66730E+02-1.44258E-09-9.15861E-10
 -1       833-2.47260E+05 2.16024E+03-8.25523E+03-3.43715E+02-2.80600E-10 4.52974E-09
 -1       834-2.55739E+05-1.59543E+04-2.25546E+04 1.43455E+02-1.44183E-09 4.72937E-09
 -1       835-2.41935E+05 1.37816E+04-3.18761E+04-2.47554E+02 5.02781E-09 3.19960E-09
 -1       836-8.05995E+02 2.29302E+05 1.38107E+04-2.01651E+04 1.60207E-09 1.00727E-09
 -1       837 3.04426E+03 2.33576E+05 1.17851E+04-4.04975E+04 2.47201E-09-7.64157E-09
 -1       838-2.94064E+02 2.30492E+05 1.21442E+04-2.00970E+04 2.14368E-09 9.61904E-10
 -1       839 7.79604E+03 2.37119E+05 2.31075E+04-4.05216E+04 2.76123E-09 6.67922E-09
 -1       840-2.34041E+03 2.25728E+05 3.69029E+04-2.01396E+04 1.90266E-09 4.89558E-09
 -1       856-7.54871E+04 6.46942E+03-1.70484E+04-3.81918E+02-2.21542E-09-2.41380E-09
 -1       857-8.25299E+04-7.58756E+03-1.17376E+04 3.88596E+03-1.87315E-09 7.02585E-11
 -1       858-7.82695E+04 9.06490E+02-4.42456E+03-3.98679E+02-2.76486E-09-9.70658E-10
 -1       859-7.93343E+04-1.05386E+03-2.67236E+03 3.91270E+03-3.67535E-10 3.06903E-09
 -1       860-7.86856E+04 1.26070E+02-1.12370E+03-4.08779E+02-1.17159E-09 4.16094E-10
 -1       861-7.88550E+04-1.39204E+02-6.26054E+02 3.92650E+03-1.11066E-08 2.92941E-09
 -1       862-7.87503E+04 1.67149E+01-2.76039E+02-4.12506E+02 2.25075E-09 7.16615E-09
 -1       863-7.87785E+04-1.02279E+01-1.36411E+02 3.92815E+03 1.02271E-08-1.28875E-09
 -1       864-7.87623E+04-8.09658E-02-4.26391E+01-4.10439E+02 5.73239E-09-1.99161E-09
 -1       865-7.87562E+04 1.94421E+01 2.61131E+01 3.91775E+03 4.75136E-09 3.88766E-10
 -1       866-7.87714E+04-1.33116E+01 9.41256E+01-4.02102E+02-1.26673E-09-1.17170E-09
 -1       867-7.87011E+04 1.11811E+02 2.58213E+02 3.89514E+03 1.11125E-09-4.72482E-09
 -1       868-7.88148E+04-9.18718E+01 4.35577E+02-3.87829E+02-2.15834E-10-4.56103E-09
 -1       869-7.83742E+04 7.61992E+02 1.16940E+03 3.85761E+03-2.29761E-10-1.00807E-08
 -1       870-7.90945E+04-6.47421E+02 1.69595E+03-3.64576E+02 1.17853E-09-6.83076E-09
 -1       871-3.54803E+03-7.37118E+03-1.14975E+04 7.53541E+04 3.76531E-09-5.32964E-10
 -1       872-1.54902E+03-9.94109E+03-4.68223E+03 9.76912E+04 5.12864E-09 5.02132E-09
 -1       873-4.33463E+01-8.73988E+03 6.81532E+02 7.51880E+04 1.74168E-09-3.80169E-10
 -1       874 1.76190E+03-7.05934E+03 6.55025E+03 9.77263E+04 3.71574E-09 1.95905E-09
 -1       875 4.19388E+03-1.02953E+04 1.45181E+04 7.53262E+04 1.61526E-09-5.04861E-09
 -1       876 1.88564E+05 3.25255E+04 1.01090E+04 7.65426E+04-2.65129E-09 3.60797E-09
 -1       877 1.89136E+05 3.47513E+04 5.39840E+03 7.95397E+04-6.01131E-09-3.44914E-09
 -1       878 1.89510E+05 3.14064E+04 2.26169E+03 7.73727E+04 2.72098E-09 7.65544E-09
 -1       879 1.87760E+05 3.33820E+04 1.12663E+03 7.96117E+04-1.57979E-09-2.13393E-09
 -1       880 1.89579E+05 3.13937E+04 5.24506E+02 7.74065E+04 1.02727E-09-8.02629E-10
 -1       881 1.87669E+05 3.33239E+04 2.79310E+02 7.95978E+04 3.85990E-09 7.45550E-09
 -1       882 1.89586E+05 3.14019E+04 1.77360E+02 7.74074E+04 4.36592E-09-5.49036E-10
 -1       883 1.87662E+05 3.33212E+04 1.88514E+02 7.95938E+04 3.67891E-09 1.01684E-08
 -1       884 1.89582E+05 3.13997E+04 2.97936E+02 7.74075E+04 8.14680E-10 4.81634E-09
 -1       885 1.87686E+05 3.33255E+04 5.97802E+02 7.96013E+04 4.82514E-09-1.70331E-09
 -1       886 1.89559E+05 3.13822E+04 1.20428E+03 7.74052E+04 3.21955E-09-1.20190E-09
 -1       887 1.87898E+05 3.34642E+04 2.63041E+03 7.96317E+04-1.76078E-09 2.56364E-10
 -1       888 1.89392E+05 3.14116E+04 5.30033E+03 7.73210E+04 1.53457E-09-4.88490E-09
 -1       889 1.91057E+05 3.67431E+04 1.26622E+04 7.95311E+04 1.80204E-09 4.60909E-09
 -1       890 1.87233E+05 3.39769E+04 2.37151E+04 7.52992E+04-5.72982E-10-9.45511E-09
 -1       891-1.19475E+02-1.07249E+05-1.26392E+03 2.04301E+04-7.90578E-10 1.00654E-08
 -1       892-2.07480E+02-1.07550E+05-1.37597E+03 3.09141E+04-2.25282E-09 8.42647E-09
 -1       893-3.52062E+01-1.07288E+05-1.96718E+03 2.04340E+04 1.20667E-09-1.30149E-09
 -1       894-1.07841E+03-1.08306E+05-4.08538E+03 3.08044E+04-1.97815E-09-6.22322E-10
 -1       895-8.41886E+02-1.06439E+05-7.19932E+03 2.05383E+04-1.84093E-09-1.12595E-09
 -1       956-2.36904E+05-3.41715E+03-8.60761E+03 1.56476E+04-2.63526E-09 8.92101E-10
 -1       957-2.38604E+05-1.15123E+03-4.41887E+03 1.88418E+04-1.43154E-09-3.85478E-09
 -1       958-2.37667E+05-9.01007E+01-1.99077E+03 1.55451E+04 3.22825E-09 3.96994E-10
 -1       959-2.37803E+05-1.39816E+01-1.01686E+03 1.89524E+04-1.33491E-09 2.84763E-09
 -1       960-2.37735E+05 3.00834E+01-4.95612E+02 1.55354E+04-3.65389E-09 2.09184E-11
 -1       961-2.37744E+05 2.85180E+01-2.62765E+02 1.89633E+04-7.63703E-09 1.49350E-09
 -1       962-2.37748E+05 2.63568E+01-1.49992E+02 1.55340E+04-3.35149E-09 6.99060E-09
 -1       963-2.37741E+05 2.94289E+01-1.19666E+02 1.89653E+04-3.79634E-09 4.87591E-09
 -1       964-2.37751E+05 2.79624E+01-1.44326E+02 1.55335E+04-8.08427E-10 2.35673E-09
 -1       965-2.37750E+05 3.20639E+01-2.48597E+02 1.89654E+04 3.45499E-09-6.37783E-10
 -1       966-2.37744E+05 3.48086E+01-4.66166E+02 1.55339E+04-1.11271E-09-1.22304E-09
 -1       967-2.37812E+05-4.39575E+00-9.55870E+02 1.89595E+04-7.02130E-10 6.31371E-09
 -1       968-2.37685E+05-7.48646E+01-1.87042E+03 1.55394E+04-6.70980E-10-5.04545E-09
 -1       969-2.38571E+05-1.07018E+03-4.15287E+03 1.88950E+04-1.94950E-09-4.92352E-09
 -1       970-2.36973E+05-3.19961E+03-8.08877E+03 1.56008E+04 6.09816E-10 7.51788E-09
 -1       971-2.25130E+05-1.18934E+03-6.62497E+03 1.10162E+04-4.57385E-09-3.37803E-09
 -1       972-2.26742E+05-8.51778E+02-3.60807E+03 1.53893E+04-3.83579E-09-1.62390E-09
 -1       973-2.25866E+05-6.02013E+00-1.61544E+03 1.09246E+04-4.22415E-09-3.62093E-10
 -1       974-2.25978E+05-5.88248E+00-8.36910E+02 1.54878E+04 3.26509E-10-1.00692E-09
 -1       975-2.25922E+05 2.43191E+01-4.17223E+02 1.09166E+04 1.31240E-09 3.48064E-09
 -1       976-2.25932E+05 2.82086E+01-2.38882E+02 1.54974E+04-4.27644E-09-2.22656E-09
 -1       977-2.25932E+05 2.36884E+01-1.69996E+02 1.09149E+04 2.92425E-09-1.33957E-09
 -1       978-2.25934E+05 3.17084E+01-1.94391E+02 1.54997E+04 1.33539E-08-4.26428E-09
 -1       979-2.25932E+05 2.87160E+01-3.08366E+02 1.09142E+04 1.03055E-08 2.73189E-10
 -1       980-2.25956E+05 3.35126E+01-5.92935E+02 1.55001E+04 9.36909E-09-2.12628E-09
 -1       981-2.25913E+05 4.34994E+01-1.14703E+03 1.09145E+04 6.09566E-09 2.24952E-09
 -1       982-2.26114E+05-5.09883E+01-2.37014E+03 1.54956E+04 9.87711E-10-4.08205E-09
 -1       983-2.25769E+05-2.95584E+01-4.60472E+03 1.09189E+04 4.13024E-09-4.75893E-10
 -1       984-2.28329E+05-2.45518E+03-1.03115E+04 1.54336E+04-1.29103E-09 1.77442E-09
 -1       985-2.23685E+05-3.39865E+03-1.89352E+04 1.09810E+04 4.52951E-09 1.84173E-09
 -3
    1PSTEP                         9           5           1          
  100CL  105 4.72656E-01         409                     0    5           1
 -4  DISP        4    1
 -5  D1          1    2    1    0
 -5  D2          1    2    2    0
 -5  D3          1    2    3    0
 -5  ALL         1    2    0    0    1ALL
 -1         1 1.29648E-04 0.00000E+00 0.00000E+00
 -1         2 1.18674E-04-3.05690E-31 0.00000E+00
 -1         3 1.12745E-04-2.27695E-28-6.61744E-24
 -1         5 7.93358E-05 5.07321E-27 3.30872E-24
 -1         8 1.05148E-04-8.87312E-07 0.00000E+00
 -1         9 1.05556E-04 4.07039E-07 0.00000E+00
 -1        10 1.04290E-04-1.53126E-06 0.00000E+00
 -1        12 7.88675E-05 5.18040E-07-3.30872E-24
 -1        15 7.59691E-05-9.79409E-07 0.00000E+00
 -1        16 7.87198E-05 2.48874E-07 0.00000E+00
 -1        17 7.72877E-05-3.23556E-06 0.00000E+00
 -1        18 7.64612E-05 1.10219E-06 0.00000E+00
 -1        19 7.74626E-05 1.03323E-06 0.00000E+00
 -1        20 7.75954E-05 1.44573E-05 0.00000E+00
 -1        21 7.70897E-05 2.71756E-05 1.65436E-24
 -1        24 1.88377E-05-4.41389E-06 0.00000E+00
 -1        25 7.50728E-05 1.22281E-06 0.00000E+00
 -1        26 7.60159E-05 1.43901E-06 0.00000E+00
 -1        27 7.45816E-05 1.21589E-05 0.00000E+00
 -1        28 7.41268E-05 2.67353E-05 0.00000E+00
 -1        32 0.00000E+00 0.00000E+00 0.00000E+00
 -1        33 7.33437E-05 1.92847E-06 0.00000E+00
 -1        34 7.19622E-05 1.21380E-05 0.00000E+00
 -1        35 7.06500E-05 2.65026E-05 0.00000E+00
 -1        51 1.28056E-04-1.45923E-07 0.00000E+00
 -1        52 1.25103E-04-2.87842E-07 0.00000E+00
 -1        53 1.21058E-04-4.31246E-07 0.00000E+00
 -1        54 1.16198E-04-5.77586E-07 0.00000E+00
 -1        55 1.10801E-04-7.27596E-07-2.99853E-24
 -1        56 1.28484E-04-7.50682E-07 0.00000E+00
 -1        57 1.27463E-04-2.01930E-06 0.00000E+00
 -1        58 1.26585E-04-3.65967E-06-2.64698E-23
 -1        59 1.25786E-04-5.53488E-06 0.00000E+00
 -1        60 1.25015E-04-7.48704E-06 0.00000E+00
 -1        61 1.24213E-04-9.35906E-06-2.64698E-23
 -1        62 1.23323E-04-1.09982E-05-5.29396E-23
 -1        63 1.22292E-04-1.22595E-05 0.00000E+00
 -1        64 1.21074E-04-1.30213E-05 0.00000E+00
 -1        65 1.19629E-04-1.31774E-05 0.00000E+00
 -1        66 1.17931E-04-1.26595E-05 5.29396E-23
 -1        67 1.15962E-04-1.14198E-05 2.64698E-23
 -1        68 1.13721E-04-9.45606E-06 0.00000E+00
 -1        69 1.11220E-04-6.78561E-06-1.32349E-23
 -1        70 1.08474E-04-3.47534E-06 2.64698E-23
 -1        86 1.18330E-04 7.57338E-08-1.65436E-24
 -1        87 1.17297E-04 1.50472E-07 8.27181E-25
 -1        88 1.15547E-04 2.24169E-07 0.00000E+00
 -1        89 1.13047E-04 2.92948E-07 4.13590E-25
 -1        90 1.09738E-04 3.60604E-07 3.30872E-24
 -1       121 1.12509E-04-2.53873E-07 0.00000E+00
 -1       122 1.11801E-04-5.07965E-07 0.00000E+00
 -1       123 1.10623E-04-7.62493E-07 6.61744E-24
 -1       124 1.08976E-04-1.01771E-06 0.00000E+00
 -1       125 1.06864E-04-1.27376E-06 0.00000E+00
 -1       191 7.93228E-05 8.63469E-08 3.30872E-24
 -1       192 7.92838E-05 1.72692E-07 0.00000E+00
 -1       193 7.92187E-05 2.59036E-07 3.30872E-24
 -1       194 7.91277E-05 3.45377E-07-1.65436E-24
 -1       195 7.90106E-05 4.31712E-07 0.00000E+00
 -1       251 1.05153E-04 3.16741E-06-3.30872E-24
 -1       252 1.05179E-04 5.62862E-06 0.00000E+00
 -1       253 1.05205E-04 6.74207E-06 0.00000E+00
 -1       254 1.05235E-04 6.75153E-06 0.00000E+00
 -1       255 1.05265E-04 5.88327E-06 0.00000E+00
 -1       256 1.05295E-04 4.36239E-06 4.13590E-25
 -1       257 1.05324E-04 2.40343E-06 8.27181E-25
 -1       258 1.05353E-04 2.20394E-07 0.00000E+00
 -1       259 1.05381E-04-1.97643E-06 8.27181E-25
 -1       260 1.05410E-04-3.97672E-06 0.00000E+00
 -1       261 1.05440E-04-5.56693E-06 0.00000E+00
 -1       262 1.05469E-04-6.53307E-06 0.00000E+00
 -1       263 1.05499E-04-6.65100E-06 0.00000E+00
 -1       264 1.05526E-04-5.69545E-06 8.27181E-25
 -1       265 1.05551E-04-3.42416E-06 0.00000E+00
 -1       266 1.00285E-04-9.14641E-07-6.61744E-24
 -1       267 9.54216E-05-9.28531E-07 0.00000E+00
 -1       268 9.05585E-05-9.43271E-07 0.00000E+00
 -1       269 8.56954E-05-9.55490E-07 4.13590E-25
 -1       270 8.08323E-05-9.67650E-07 4.13590E-25
 -1       271 1.02190E-04 2.78704E-06 0.00000E+00
 -1       272 9.96553E-05 5.20302E-06 0.00000E+00
 -1       273 9.75463E-05 6.49821E-06 0.00000E+00
 -1       274 9.57994E-05 6.80983E-06-2.64698E-23
 -1       275 9.43606E-05 6.29938E-06 0.00000E+00
 -1       276 9.31633E-05 5.14052E-06 0.00000E+00
 -1       277 9.21385E-05 3.51997E-06 5.29396E-23
 -1       278 9.12133E-05 1.63242E-06-2.64698E-23
 -1       279 9.03131E-05-3.22274E-07 5.29396E-23
 -1       280 8.93630E-05-2.14299E-06 2.64698E-23
 -1       281 8.82888E-05-3.63134E-06 0.00000E+00
 -1       282 8.70190E-05-4.59474E-06-2.64698E-23
 -1       283 8.54845E-05-4.85095E-06 0.00000E+00
 -1       284 8.36254E-05-4.22878E-06-2.64698E-23
 -1       285 8.13770E-05-2.57741E-06 2.64698E-23
 -1       301 1.00886E-04 3.73316E-07 6.61744E-24
 -1       302 9.62402E-05 3.55100E-07 0.00000E+00
 -1       303 9.16604E-05 3.37627E-07-6.61744E-24
 -1       304 8.71867E-05 3.19006E-07 0.00000E+00
 -1       305 8.28598E-05 2.98605E-07-1.32349E-23
 -1       306 1.02506E-04 3.74088E-06-2.64698E-23
 -1       307 9.99512E-05 5.60813E-06-2.64698E-23
 -1       308 9.79714E-05 5.96046E-06-5.29396E-23
 -1       309 9.65496E-05 4.79787E-06 0.00000E+00
 -1       310 9.56053E-05 2.35727E-06-5.29396E-23
 -1       311 9.50252E-05-1.06624E-06 0.00000E+00
 -1       312 9.46446E-05-5.02697E-06 0.00000E+00
 -1       313 9.42883E-05-9.05390E-06 0.00000E+00
 -1       314 9.37776E-05-1.26653E-05-5.29396E-23
 -1       315 9.29408E-05-1.53996E-05-2.64698E-23
 -1       316 9.16545E-05-1.69296E-05 0.00000E+00
 -1       317 8.98181E-05-1.69859E-05 0.00000E+00
 -1       318 8.74101E-05-1.55236E-05 0.00000E+00
 -1       319 8.44491E-05-1.25669E-05 0.00000E+00
 -1       320 8.10148E-05-8.37439E-06 2.64698E-23
 -1       336 1.01197E-04-1.81023E-06 0.00000E+00
 -1       337 9.75299E-05-2.09144E-06-3.30872E-24
 -1       338 9.32955E-05-2.37472E-06 0.00000E+00
 -1       339 8.85032E-05-2.65999E-06-3.30872E-24
 -1       340 8.31633E-05-2.94797E-06 0.00000E+00
 -1       406 7.86983E-05 6.04353E-07 0.00000E+00
 -1       407 7.85032E-05 6.90633E-07-1.65436E-24
 -1       408 7.82819E-05 7.76855E-07 0.00000E+00
 -1       409 7.80347E-05 8.62912E-07-1.65436E-24
 -1       410 7.77615E-05 9.48635E-07 0.00000E+00
 -1       521 7.73417E-05-4.82596E-06 0.00000E+00
 -1       522 8.14961E-05-2.54633E-05-2.64698E-23
 -1       523 8.98712E-05-5.81965E-05 0.00000E+00
 -1       524 1.00803E-04-9.85720E-05 5.29396E-23
 -1       525 1.12246E-04-1.40480E-04 0.00000E+00
 -1       526 1.22116E-04-1.77685E-04 0.00000E+00
 -1       527 1.28585E-04-2.04969E-04 0.00000E+00
 -1       528 1.29987E-04-2.17957E-04-5.29396E-23
 -1       529 1.25598E-04-2.15329E-04 0.00000E+00
 -1       530 1.15136E-04-1.97038E-04 0.00000E+00
 -1       531 9.96686E-05-1.66307E-04 0.00000E+00
 -1       532 8.07776E-05-1.27321E-04 0.00000E+00
 -1       533 6.08890E-05-8.59568E-05-1.05879E-22
 -1       534 4.25617E-05-4.82614E-05 2.64698E-23
 -1       535 2.79304E-05-1.95538E-05 0.00000E+00
 -1       536 7.72169E-05 2.50246E-06 3.30872E-24
 -1       537 7.71563E-05 7.43757E-06 0.00000E+00
 -1       538 7.70993E-05 1.14450E-05 0.00000E+00
 -1       539 7.70470E-05 1.44021E-05 0.00000E+00
 -1       540 7.69971E-05 1.62931E-05 1.65436E-24
 -1       541 7.69489E-05 1.71047E-05 8.27181E-25
 -1       542 7.69010E-05 1.69333E-05 1.65436E-24
 -1       543 7.68527E-05 1.58776E-05 8.27181E-25
 -1       544 7.68034E-05 1.41261E-05 0.00000E+00
 -1       545 7.67533E-05 1.18688E-05 0.00000E+00
 -1       546 7.67025E-05 9.34745E-06-1.65436E-24
 -1       547 7.66518E-05 6.80406E-06-8.27181E-25
 -1       548 7.66017E-05 4.48299E-06 8.27181E-25
 -1       549 7.65531E-05 2.62816E-06-4.13590E-25
 -1       550 7.65052E-05 1.43619E-06 2.06795E-25
 -1       551 6.95767E-05-3.41092E-06 0.00000E+00
 -1       552 6.03611E-05-3.59531E-06-3.30872E-24
 -1       553 5.01565E-05-3.78862E-06 3.30872E-24
 -1       554 3.94862E-05-3.98877E-06-3.30872E-24
 -1       555 2.88733E-05-4.19106E-06 0.00000E+00
 -1       556 7.52453E-05 2.05467E-06-1.32349E-23
 -1       557 7.36767E-05 6.12266E-06 0.00000E+00
 -1       558 7.25304E-05 9.07959E-06 0.00000E+00
 -1       559 7.17595E-05 1.10455E-05 0.00000E+00
 -1       560 7.13173E-05 1.21403E-05 0.00000E+00
 -1       561 7.11576E-05 1.24845E-05 0.00000E+00
 -1       562 7.12344E-05 1.21986E-05 0.00000E+00
 -1       563 7.15021E-05 1.14035E-05 0.00000E+00
 -1       564 7.19151E-05 1.02201E-05 0.00000E+00
 -1       565 7.24280E-05 8.76935E-06 0.00000E+00
 -1       566 7.29957E-05 7.17221E-06 8.27181E-25
 -1       567 7.35728E-05 5.54974E-06 4.13590E-25
 -1       568 7.41142E-05 4.02294E-06 0.00000E+00
 -1       569 7.45747E-05 2.71269E-06 0.00000E+00
 -1       570 7.49089E-05 1.73989E-06 0.00000E+00
 -1       571 7.65219E-05 1.13597E-06 1.65436E-24
 -1       572 7.65841E-05 1.12793E-06-6.20385E-25
 -1       573 7.66466E-05 1.08557E-06 8.27181E-25
 -1       574 7.67093E-05 1.01679E-06 0.00000E+00
 -1       575 7.67720E-05 9.29522E-07-1.65436E-24
 -1       576 7.68348E-05 8.31753E-07 0.00000E+00
 -1       577 7.68976E-05 7.31472E-07-1.65436E-24
 -1       578 7.69605E-05 6.36675E-07 0.00000E+00
 -1       579 7.70233E-05 5.55358E-07 0.00000E+00
 -1       580 7.70861E-05 4.95519E-07 0.00000E+00
 -1       581 7.71489E-05 4.65154E-07 0.00000E+00
 -1       582 7.72117E-05 4.72249E-07 0.00000E+00
 -1       583 7.72745E-05 5.24785E-07 0.00000E+00
 -1       584 7.73373E-05 6.30661E-07 0.00000E+00
 -1       585 7.74000E-05 7.97728E-07 0.00000E+00
 -1       586 7.62077E-05 1.12352E-06 0.00000E+00
 -1       587 7.59274E-05 1.14433E-06-2.06795E-25
 -1       588 7.56469E-05 1.16492E-06 0.00000E+00
 -1       589 7.53932E-05 1.18519E-06 0.00000E+00
 -1       590 7.51932E-05 1.20491E-06 0.00000E+00
 -1       591 7.64187E-05 1.16895E-06 5.16988E-26
 -1       592 7.63865E-05 1.20176E-06 0.00000E+00
 -1       593 7.63644E-05 1.20711E-06 0.00000E+00
 -1       594 7.63501E-05 1.19080E-06 0.00000E+00
 -1       595 7.63417E-05 1.15873E-06-4.13590E-25
 -1       596 7.63370E-05 1.11675E-06 0.00000E+00
 -1       597 7.63337E-05 1.07071E-06 4.13590E-25
 -1       598 7.63298E-05 1.02646E-06 0.00000E+00
 -1       599 7.63230E-05 9.89841E-07-4.13590E-25
 -1       600 7.63112E-05 9.66693E-07 0.00000E+00
 -1       601 7.62922E-05 9.62862E-07-4.13590E-25
 -1       602 7.62637E-05 9.84197E-07 1.03398E-25
 -1       603 7.62238E-05 1.03655E-06-3.10193E-25
 -1       604 7.61702E-05 1.12581E-06-1.03398E-25
 -1       605 7.61009E-05 1.25779E-06 0.00000E+00
 -1       606 7.74742E-05 1.41219E-06 0.00000E+00
 -1       607 7.74835E-05 1.87950E-06 0.00000E+00
 -1       608 7.74922E-05 2.42998E-06 0.00000E+00
 -1       609 7.75005E-05 3.05777E-06 0.00000E+00
 -1       610 7.75088E-05 3.75701E-06 0.00000E+00
 -1       611 7.75169E-05 4.52172E-06 0.00000E+00
 -1       612 7.75250E-05 5.34595E-06 0.00000E+00
 -1       613 7.75330E-05 6.22374E-06 0.00000E+00
 -1       614 7.75410E-05 7.14911E-06 0.00000E+00
 -1       615 7.75489E-05 8.11607E-06 0.00000E+00
 -1       616 7.75568E-05 9.11868E-06-1.65436E-24
 -1       617 7.75647E-05 1.01510E-05 0.00000E+00
 -1       618 7.75725E-05 1.12069E-05 0.00000E+00
 -1       619 7.75803E-05 1.22806E-05 0.00000E+00
 -1       620 7.75880E-05 1.33661E-05 4.13590E-25
 -1       621 7.71731E-05 1.10090E-06 0.00000E+00
 -1       622 7.69106E-05 1.16891E-06 8.27181E-25
 -1       623 7.66694E-05 1.23691E-06 1.65436E-24
 -1       624 7.64438E-05 1.30480E-06 0.00000E+00
 -1       625 7.62279E-05 1.37257E-06-1.65436E-24
 -1       626 7.73929E-05 1.43352E-06 0.00000E+00
 -1       627 7.72963E-05 1.90680E-06 3.30872E-24
 -1       628 7.71750E-05 2.44623E-06 0.00000E+00
 -1       629 7.70316E-05 3.04457E-06 0.00000E+00
 -1       630 7.68688E-05 3.69455E-06 0.00000E+00
 -1       631 7.66894E-05 4.38884E-06 0.00000E+00
 -1       632 7.64962E-05 5.12012E-06 0.00000E+00
 -1       633 7.62917E-05 5.88108E-06-1.65436E-24
 -1       634 7.60789E-05 6.66441E-06 0.00000E+00
 -1       635 7.58604E-05 7.46277E-06 0.00000E+00
 -1       636 7.56390E-05 8.26887E-06 0.00000E+00
 -1       637 7.54174E-05 9.07538E-06 0.00000E+00
 -1       638 7.51983E-05 9.87497E-06 0.00000E+00
 -1       639 7.49844E-05 1.06603E-05 0.00000E+00
 -1       640 7.47783E-05 1.14241E-05 8.27181E-25
 -1       656 7.66958E-05 1.40833E-05 0.00000E+00
 -1       657 7.61292E-05 1.36944E-05 0.00000E+00
 -1       658 7.57697E-05 1.33067E-05-6.61744E-24
 -1       659 7.54879E-05 1.29194E-05 3.30872E-24
 -1       660 7.51396E-05 1.25308E-05-6.61744E-24
 -1       661 7.72631E-05 1.55251E-05 8.27181E-25
 -1       662 7.69520E-05 1.65443E-05 0.00000E+00
 -1       663 7.66585E-05 1.75162E-05-1.65436E-24
 -1       664 7.63823E-05 1.84432E-05 0.00000E+00
 -1       665 7.61224E-05 1.93273E-05 0.00000E+00
 -1       666 7.58778E-05 2.01705E-05 8.27181E-25
 -1       667 7.56479E-05 2.09748E-05 0.00000E+00
 -1       668 7.54320E-05 2.17419E-05 0.00000E+00
 -1       669 7.52294E-05 2.24737E-05-1.65436E-24
 -1       670 7.50394E-05 2.31718E-05 0.00000E+00
 -1       671 7.48615E-05 2.38378E-05 1.65436E-24
 -1       672 7.46949E-05 2.44732E-05-8.27181E-25
 -1       673 7.45392E-05 2.50795E-05 0.00000E+00
 -1       674 7.43932E-05 2.56578E-05 0.00000E+00
 -1       675 7.42573E-05 2.62098E-05 0.00000E+00
 -1       676 7.65947E-05 2.71018E-05-1.65436E-24
 -1       677 7.60999E-05 2.70280E-05 8.27181E-25
 -1       678 7.56055E-05 2.69542E-05 1.65436E-24
 -1       679 7.51117E-05 2.68807E-05 0.00000E+00
 -1       680 7.46187E-05 2.68072E-05 0.00000E+00
 -1       771 1.48372E-05 3.34343E-06 0.00000E+00
 -1       772 1.13638E-05 9.69835E-06 0.00000E+00
 -1       773 8.39551E-06 1.47278E-05 2.64698E-23
 -1       774 5.89895E-06 1.85143E-05 1.32349E-23
 -1       775 3.84123E-06 2.11422E-05 0.00000E+00
 -1       776 2.18796E-06 2.26992E-05 0.00000E+00
 -1       777 9.04356E-07 2.32746E-05 0.00000E+00
 -1       778-4.51557E-08 2.29607E-05 0.00000E+00
 -1       779-6.96418E-07 2.18510E-05 2.64698E-23
 -1       780-1.08593E-06 2.00412E-05 1.32349E-23
 -1       781-1.25032E-06 1.76283E-05 0.00000E+00
 -1       782-1.22673E-06 1.47109E-05 0.00000E+00
 -1       783-1.05238E-06 1.13885E-05 0.00000E+00
 -1       784-7.64802E-07 7.76172E-06 1.32349E-23
 -1       785-4.01595E-07 3.93161E-06 0.00000E+00
 -1       786 7.51283E-05 1.16315E-06 0.00000E+00
 -1       787 7.51871E-05 1.10934E-06 0.00000E+00
 -1       788 7.52457E-05 1.06095E-06 0.00000E+00
 -1       789 7.53049E-05 1.01754E-06-8.27181E-25
 -1       790 7.53641E-05 9.79376E-07-1.65436E-24
 -1       791 7.54235E-05 9.46712E-07 0.00000E+00
 -1       792 7.54828E-05 9.20573E-07 1.65436E-24
 -1       793 7.55422E-05 9.01998E-07 8.27181E-25
 -1       794 7.56016E-05 8.93061E-07-1.65436E-24
 -1       795 7.56610E-05 8.95860E-07 8.27181E-25
 -1       796 7.57204E-05 9.14102E-07-1.65436E-24
 -1       797 7.57798E-05 9.51536E-07 0.00000E+00
 -1       798 7.58391E-05 1.01454E-06 1.65436E-24
 -1       799 7.58983E-05 1.10954E-06 8.27181E-25
 -1       800 7.59575E-05 1.24739E-06-1.65436E-24
 -1       801 6.99175E-05 1.11403E-06 0.00000E+00
 -1       802 5.43415E-05 8.97532E-07 0.00000E+00
 -1       803 3.41130E-05 6.05592E-07-6.61744E-24
 -1       804 1.50215E-05 3.28169E-07 3.30872E-24
 -1       805 2.00990E-06 1.41404E-07-1.32349E-23
 -1       806 7.50228E-05 1.12139E-06-1.65436E-24
 -1       807 7.49695E-05 1.02087E-06 0.00000E+00
 -1       808 7.49137E-05 9.25826E-07 1.65436E-24
 -1       809 7.48539E-05 8.40135E-07 1.65436E-24
 -1       810 7.47892E-05 7.67663E-07-3.30872E-24
 -1       811 7.47179E-05 7.12217E-07 8.27181E-25
 -1       812 7.46389E-05 6.77603E-07 3.30872E-24
 -1       813 7.45506E-05 6.67615E-07 0.00000E+00
 -1       814 7.44517E-05 6.86044E-07 0.00000E+00
 -1       815 7.43406E-05 7.36679E-07-8.27181E-25
 -1       816 7.42161E-05 8.23306E-07 1.65436E-24
 -1       817 7.40767E-05 9.49709E-07-8.27181E-25
 -1       818 7.39209E-05 1.11967E-06 1.65436E-24
 -1       819 7.37476E-05 1.33695E-06 4.13590E-25
 -1       820 7.35553E-05 1.60533E-06-8.27181E-25
 -1       821 7.59314E-05 1.64967E-06 0.00000E+00
 -1       822 7.58418E-05 1.84538E-06 8.27181E-25
 -1       823 7.57526E-05 2.06743E-06 0.00000E+00
 -1       824 7.56623E-05 2.35702E-06 1.65436E-24
 -1       825 7.55720E-05 2.74270E-06 3.30872E-24
 -1       826 7.54814E-05 3.25260E-06-1.65436E-24
 -1       827 7.53907E-05 3.89161E-06-3.30872E-24
 -1       828 7.52999E-05 4.66409E-06-1.65436E-24
 -1       829 7.52090E-05 5.54937E-06-3.30872E-24
 -1       830 7.51181E-05 6.52637E-06 0.00000E+00
 -1       831 7.50272E-05 7.55680E-06 3.30872E-24
 -1       832 7.49364E-05 8.60217E-06 0.00000E+00
 -1       833 7.48457E-05 9.62117E-06 0.00000E+00
 -1       834 7.47560E-05 1.05726E-05-8.27181E-25
 -1       835 7.46661E-05 1.14279E-05 8.27181E-25
 -1       836 7.57082E-05 1.52049E-06 0.00000E+00
 -1       837 7.52927E-05 1.60378E-06 0.00000E+00
 -1       838 7.48088E-05 1.68691E-06-1.65436E-24
 -1       839 7.42963E-05 1.76950E-06 0.00000E+00
 -1       840 7.37947E-05 1.85197E-06-4.13590E-25
 -1       856 7.45564E-05 1.28801E-05-2.06795E-25
 -1       857 7.45283E-05 1.36993E-05-2.06795E-25
 -1       858 7.45003E-05 1.46011E-05 8.27181E-25
 -1       859 7.44718E-05 1.55700E-05 4.13590E-25
 -1       860 7.44431E-05 1.65904E-05 0.00000E+00
 -1       861 7.44144E-05 1.76466E-05 0.00000E+00
 -1       862 7.43855E-05 1.87231E-05 8.27181E-25
 -1       863 7.43567E-05 1.98040E-05 4.13590E-25
 -1       864 7.43279E-05 2.08737E-05 0.00000E+00
 -1       865 7.42990E-05 2.19166E-05-4.13590E-25
 -1       866 7.42703E-05 2.29168E-05 0.00000E+00
 -1       867 7.42415E-05 2.38589E-05 0.00000E+00
 -1       868 7.42129E-05 2.47272E-05 0.00000E+00
 -1       869 7.41842E-05 2.55062E-05 0.00000E+00
 -1       870 7.41556E-05 2.61807E-05 0.00000E+00
 -1       871 7.40454E-05 1.21581E-05 0.00000E+00
 -1       872 7.36035E-05 1.21553E-05 0.00000E+00
 -1       873 7.32155E-05 1.21522E-05 0.00000E+00
 -1       874 7.28399E-05 1.21486E-05 0.00000E+00
 -1       875 7.24358E-05 1.21445E-05 2.06795E-25
 -1       876 7.43969E-05 1.28883E-05 0.00000E+00
 -1       877 7.41963E-05 1.36654E-05 1.65436E-24
 -1       878 7.39801E-05 1.44845E-05 0.00000E+00
 -1       879 7.37504E-05 1.53401E-05 0.00000E+00
 -1       880 7.35090E-05 1.62270E-05 0.00000E+00
 -1       881 7.32579E-05 1.71396E-05 1.65436E-24
 -1       882 7.29991E-05 1.80726E-05-3.30872E-24
 -1       883 7.27348E-05 1.90208E-05 0.00000E+00
 -1       884 7.24667E-05 1.99786E-05 3.30872E-24
 -1       885 7.21970E-05 2.09407E-05 0.00000E+00
 -1       886 7.19276E-05 2.19019E-05 1.65436E-24
 -1       887 7.16606E-05 2.28567E-05 8.27181E-25
 -1       888 7.13979E-05 2.37996E-05 1.65436E-24
 -1       889 7.11411E-05 2.47254E-05 8.27181E-25
 -1       890 7.08924E-05 2.56286E-05 0.00000E+00
 -1       891 7.36540E-05 2.66963E-05 0.00000E+00
 -1       892 7.31644E-05 2.66573E-05 0.00000E+00
 -1       893 7.26385E-05 2.66182E-05-8.27181E-25
 -1       894 7.20570E-05 2.65793E-05 0.00000E+00
 -1       895 7.14005E-05 2.65404E-05-8.27181E-25
 -1       956 7.32590E-05 2.36338E-06 1.65436E-24
 -1       957 7.31729E-05 2.85385E-06 8.27181E-25
 -1       958 7.30865E-05 3.39408E-06 0.00000E+00
 -1       959 7.29999E-05 3.97794E-06-1.65436E-24
 -1       960 7.29133E-05 4.59928E-06 0.00000E+00
 -1       961 7.28267E-05 5.25191E-06 0.00000E+00
 -1       962 7.27400E-05 5.92965E-06 1.65436E-24
 -1       963 7.26533E-05 6.62632E-06 8.27181E-25
 -1       964 7.25665E-05 7.33571E-06-3.30872E-24
 -1       965 7.24798E-05 8.05163E-06 1.65436E-24
 -1       966 7.23931E-05 8.76789E-06 0.00000E+00
 -1       967 7.23064E-05 9.47830E-06 0.00000E+00
 -1       968 7.22198E-05 1.01767E-05-3.30872E-24
 -1       969 7.21334E-05 1.08568E-05 1.65436E-24
 -1       970 7.20471E-05 1.15125E-05 0.00000E+00
 -1       971 7.18813E-05 1.27813E-05 1.65436E-24
 -1       972 7.17992E-05 1.34973E-05 0.00000E+00
 -1       973 7.17170E-05 1.42779E-05-1.65436E-24
 -1       974 7.16346E-05 1.51149E-05 8.27181E-25
 -1       975 7.15522E-05 1.59997E-05-1.65436E-24
 -1       976 7.14697E-05 1.69242E-05-8.27181E-25
 -1       977 7.13871E-05 1.78798E-05 1.65436E-24
 -1       978 7.13046E-05 1.88583E-05 1.65436E-24
 -1       979 7.12220E-05 1.98512E-05 3.30872E-24
 -1       980 7.11394E-05 2.08502E-05 0.00000E+00
 -1       981 7.10569E-05 2.18469E-05 3.30872E-24
 -1       982 7.09744E-05 2.28329E-05 0.00000E+00
 -1       983 7.08921E-05 2.37998E-05 3.30872E-24
 -1       984 7.08101E-05 2.47393E-05 0.00000E+00
 -1       985 7.07285E-05 2.56429E-05 0.00000E+00
 -3
    1PSTEP                        10           5           1          
  100CL  105 4.72656E-01         409                     0    5           1
 -4  STRESS      6    1
 -5  SXX         1    4    1    1
 -5  SYY         1    4    2    2
 -5  SZZ         1    4    3    3
 -5  SXY         1    4    1    2
 -5  SYZ         1    4    2    3
 -5  SZX         1    4    3    1
 -1         1-1.69052E+06-7.64327E+05-3.48170E+05-1.06186E+06 2.98314E-10-1.03755E-08
 -1         2 2.66022E+03 2.20399E+05 8.71675E+03 6.43976E+02-1.46457E-10 1.87587E-08
 -1         3-9.36558E+01-7.25167E+05 1.69739E+02-2.72211E+02-6.65317E-11 5.47516E-10
 -1         5-5.45163E+00 2.47070E+05 6.48698E+00 1.10128E-01 9.50094E-11-6.62021E-09
 -1         8-7.98204E+05-3.35962E+05-3.69789E+04-5.66170E+05 3.83807E-10 2.66300E-09
 -1         9-1.41265E+06-3.77781E+05-1.46353E+05-4.70564E+05 3.51138E-09 8.26549E-10
 -1        10-5.92226E+02-7.55471E+05-1.00464E+03-1.83725E+03-3.67936E-09-2.03599E-08
 -1        12-2.79317E+00 2.47083E+05 2.10321E+02 9.84042E-01 2.17458E-10 2.27942E-09
 -1        15 1.98492E+03 1.09083E+03 6.41626E+03 4.17428E+00-7.30438E-12 7.79120E-09
 -1        16-3.49884E+06-1.22095E+06-5.53300E+05-1.25497E+06 1.10304E-08-3.49246E-09
 -1        17-8.72527E+05-5.26080E+05-1.69483E+05-4.83345E+05-5.69999E-09 3.27418E-09
 -1        18-4.26529E+03-5.35406E+03-1.98832E+04-5.90721E+04 8.26958E-10-1.34833E-09
 -1        19 7.73304E+04 9.21979E+04-4.41117E+02 1.50568E+04-5.23505E-10 5.32782E-09
 -1        20-3.27202E+04-3.65211E+05-8.05916E+04 2.66373E+04 3.50383E-09 1.48551E-09
 -1        21-3.43717E+01-2.11044E+05-6.81147E+02-7.16597E+01-4.60024E-09-1.24400E-08
 -1        24-3.26411E+06-1.01049E+06-4.47479E+05-1.25089E+06-2.10736E-08-9.69158E-09
 -1        25 1.70258E+04-6.07290E+04 3.46420E+03-9.40503E+04 3.80442E-09 2.16132E-09
 -1        26-1.81144E+04 6.29151E+04-1.24764E+04-8.85293E+03 1.57597E-09 6.84508E-11
 -1        27-5.83338E+04-2.00322E+05-7.51246E+04 4.51169E+04 5.19617E-09 8.61291E-10
 -1        28 1.63320E+04-5.83467E+04 1.19244E+04 1.85972E+04 2.67175E-09-7.82791E-10
 -1        32-8.01548E+05-2.52034E+05 3.15391E+05-4.99669E+05-1.27329E-08 2.37596E-08
 -1        33-1.14516E+05 5.89059E+04 2.08720E+04-3.40821E+04 1.05073E-09 3.90264E-09
 -1        34-1.48590E+05-1.48316E+04 3.50353E+02 4.57880E+04 3.57646E-09 3.46699E-09
 -1        35-1.66110E+04-2.31868E+04-9.08990E+02 3.67621E+04 5.16480E-09-5.14895E-09
 -1        51 1.43526E+04-3.67086E+05 3.70417E+04-9.34878E+05-2.91038E-11-1.84809E-09
 -1        52 8.95385E+03-3.65973E+05 2.46907E+04-1.09037E+06 8.73115E-11 2.34577E-08
 -1        53 6.69840E+03-3.78453E+05 2.12139E+04-9.31625E+05 6.18456E-10 4.68572E-09
 -1        54 1.91863E+04-3.77138E+05 3.42667E+04-1.09376E+06 0.00000E+00 1.88084E-09
 -1        55 3.80967E+04-3.90194E+05 6.13167E+04-9.31103E+05 5.67525E-10 1.45665E-08
 -1        56-3.24357E+06-3.65075E+05-2.55856E+05-1.25040E+06-6.54836E-11-1.69239E-08
 -1        57-3.34490E+06-5.98034E+05-1.72469E+05-1.24213E+06 2.54659E-10 6.84668E-09
 -1        58-3.29565E+06-4.45438E+05-6.01963E+04-1.23350E+06-4.09273E-11 6.83576E-09
 -1        59-3.28459E+06-5.03811E+05-3.59331E+04-1.26239E+06 6.11180E-10 1.98406E-09
 -1        60-3.30334E+06-4.56540E+05-1.40541E+04-1.23110E+06-9.49740E-10-7.67614E-10
 -1        61-3.27705E+06-4.89370E+05-7.98224E+03-1.26350E+06 5.44674E-10 5.48613E-09
 -1        62-3.30304E+06-4.59545E+05-3.85019E+03-1.23248E+06 1.44610E-10-4.65997E-09
 -1        63-3.28012E+06-4.83355E+05-3.12391E+03-1.25860E+06-3.45722E-10-5.86743E-09
 -1        64-3.30014E+06-4.62591E+05-3.62284E+03-1.23592E+06-4.78849E-10-9.02514E-09
 -1        65-3.28788E+06-4.77757E+05-7.15721E+03-1.25022E+06-1.58252E-10 4.96061E-09
 -1        66-3.29519E+06-4.65254E+05-1.26774E+04-1.24077E+06 1.79102E-09-6.97037E-09
 -1        67-3.30377E+06-4.81396E+05-3.20868E+04-1.23858E+06 2.23724E-09 5.07589E-09
 -1        68-3.28431E+06-4.59292E+05-5.39203E+04-1.24743E+06 2.91857E-09-5.50062E-09
 -1        69-3.36396E+06-5.59692E+05-1.54244E+05-1.21385E+06 1.42836E-09 7.29415E-09
 -1        70-3.23564E+06-3.89336E+05-2.28911E+05-1.26473E+06-2.65572E-10 2.53203E-09
 -1        86-1.33672E+03 2.17541E+05 9.30398E+03-3.22014E+02 1.14187E-09 2.22883E-10
 -1        87 8.86054E+03 2.23444E+05 1.94600E+04 1.32771E+03 1.92153E-09-1.45889E-10
 -1        88-7.52029E+03 2.14500E+05 2.97414E+04-1.00577E+03 2.87946E-09 1.78079E-09
 -1        89 5.60330E+04 2.45485E+05 8.02813E+04 2.89504E+03 4.41287E-09 1.04858E-08
 -1        90-4.83579E+04 1.95524E+05 1.13344E+05-1.88882E+03 4.97676E-09-2.86798E-09
 -1       121-1.45962E+02-7.25580E+05 1.31351E+02 1.35928E+02 4.51010E-10-6.88851E-09
 -1       122-3.71256E+01-7.25134E+05 3.66921E+02-5.44227E+02-1.36805E-09-7.82165E-10
 -1       123-1.84569E+02-7.25620E+05 5.62672E+02 4.07245E+02 1.14943E-09-1.95723E-09
 -1       124 6.41984E+02-7.24729E+05 1.52977E+03-1.21588E+03-2.63481E-09 5.63887E-11
 -1       125-6.20711E+02-7.26004E+05 2.31344E+03 8.07142E+02 1.75578E-09-7.24503E-09
 -1       191-5.93812E+00 2.47091E+05 7.71533E+00-5.56944E-02 1.33832E-10-2.51839E-09
 -1       192-6.04806E+00 2.47070E+05 1.37369E+01 6.44548E-01 1.83874E-10 5.64069E-09
 -1       193-7.52374E+00 2.47090E+05 2.55095E+01-5.93136E-01 2.23443E-10 2.94904E-09
 -1       194-7.96734E+00 2.47072E+05 5.19641E+01 1.58371E+00 1.39770E-10 2.95699E-09
 -1       195-1.05710E+01 2.47089E+05 1.01607E+02-1.00191E+00 4.11376E-10 1.45474E-09
 -1       251 6.92994E+04-3.94170E+04 9.18538E+04 3.49727E+03 2.92857E-10-1.01318E-08
 -1       252 1.12202E+05 4.55739E+04 6.53503E+04-1.30704E+04-3.33443E-10-7.67886E-09
 -1       253 8.53108E+04-6.10615E+03 2.37484E+04 2.86021E+03-6.17320E-10-7.45331E-09
 -1       254 9.31976E+04 7.04343E+03 1.51057E+04-1.20908E+04 7.15403E-10 5.75892E-09
 -1       255 8.81913E+04-9.43963E+02 6.13768E+03 2.51773E+03-3.81760E-10-1.08616E-09
 -1       256 8.96802E+04 1.12581E+03 3.77105E+03-1.15819E+04 1.38478E-09 7.54994E-09
 -1       257 8.87709E+04-1.66345E+02 1.95284E+03 2.35135E+03-2.51660E-10 9.02719E-09
 -1       258 8.90840E+04 3.72373E+02 1.77247E+03-1.14101E+04-3.50539E-10 4.19899E-09
 -1       259 8.87686E+04-1.79196E+02 2.07511E+03 2.34595E+03-2.44569E-11 3.25872E-09
 -1       260 8.97166E+04 1.23927E+03 4.11581E+03-1.15614E+04-9.82254E-11-6.88806E-09
 -1       261 8.81548E+04-1.04263E+03 6.77228E+03 2.50260E+03 1.00670E-09-1.75396E-09
 -1       262 9.35164E+04 7.78988E+03 1.66653E+04-1.20482E+04 9.14611E-10-1.84264E-09
 -1       263 8.50234E+04-6.74815E+03 2.62712E+04 2.83282E+03-1.02182E-09-9.16589E-09
 -1       264 1.14371E+05 5.03829E+04 7.21939E+04-1.30114E+04-2.59789E-09 3.26236E-09
 -1       265 6.74125E+04-4.35611E+04 1.01600E+05 3.46565E+03-2.10491E-09 6.76664E-10
 -1       266-3.59326E+04-1.67995E+04 8.43206E+04-8.93281E+01 7.27596E-12-5.51753E-09
 -1       267 4.16570E+04 1.95842E+04 5.95902E+04 1.03053E+02 3.63798E-11-4.98966E-09
 -1       268-5.58607E+03-2.77344E+03 2.21498E+04-1.31315E+01 4.82032E-11-1.84681E-09
 -1       269 6.59557E+03 3.31947E+03 1.43966E+04 1.52954E+01 4.97948E-11-2.14680E-10
 -1       270-9.90003E+02-5.45404E+02 6.94948E+03-2.07572E+00 2.43290E-11 1.29612E-08
 -1       271-3.51048E+06-4.39239E+05-2.70026E+05-1.36909E+06-1.60071E-10 9.16771E-10
 -1       272-3.59278E+06-6.50389E+05-1.73556E+05-1.38272E+06 6.60748E-10-8.70932E-09
 -1       273-3.56298E+06-5.04766E+05-6.37930E+04-1.35512E+06-1.62072E-09 2.04454E-09
 -1       274-3.53088E+06-5.70652E+05-3.56568E+04-1.40467E+06 3.40196E-09 9.54697E-09
 -1       275-3.57184E+06-5.09813E+05-1.48432E+04-1.35098E+06-1.66710E-09 9.88530E-09
 -1       276-3.52021E+06-5.65042E+05-7.86155E+03-1.41154E+06 2.52385E-10 3.10024E-09
 -1       277-3.57422E+06-5.09025E+05-3.84918E+03-1.34910E+06-2.01226E-09 9.31095E-11
 -1       278-3.51788E+06-5.65757E+05-2.78631E+03-1.41394E+06 1.61100E-09 2.38549E-09
 -1       279-3.57449E+06-5.08809E+05-2.98170E+03-1.34884E+06-5.32964E-10-2.03659E-09
 -1       280-3.51912E+06-5.65507E+05-5.46238E+03-1.41272E+06-1.36333E-09-1.51226E-09
 -1       281-3.57281E+06-5.09432E+05-1.00086E+04-1.35018E+06-1.40062E-10 1.70894E-09
 -1       282-3.52676E+06-5.68638E+05-2.38770E+04-1.40733E+06 8.54925E-11-6.83713E-09
 -1       283-3.56634E+06-5.06667E+05-4.26896E+04-1.35358E+06-1.40517E-10-9.09495E-10
 -1       284-3.56940E+06-6.20432E+05-1.16004E+05-1.39073E+06-3.65958E-10-3.81806E-09
 -1       285-3.53026E+06-4.63955E+05-1.80646E+05-1.36403E+06 4.36557E-10-1.30167E-08
 -1       301 1.47343E+04-1.96115E+04 1.12229E+05-4.86908E+04-1.12050E-09 2.27897E-09
 -1       302 1.58473E+04 8.76590E+03 7.99684E+04-7.16950E+04 1.34241E-09-7.98627E-09
 -1       303 8.93904E+02-9.34887E+03 7.19677E+04-4.87966E+04-7.47605E-10 1.25692E-09
 -1       304 2.78917E+04 2.00176E+04 1.19280E+05-7.14463E+04 1.39880E-09 1.12068E-08
 -1       305 2.74629E+04-3.05688E+04 1.99240E+05-4.88716E+04-8.65839E-10 6.18820E-09
 -1       306-3.99530E+06-4.66130E+05-3.03127E+05-1.56609E+06 8.65839E-10-4.65661E-09
 -1       307-4.15793E+06-7.14763E+05-2.06511E+05-1.50462E+06 3.79441E-09 6.03904E-10
 -1       308-4.07017E+06-5.54514E+05-7.13951E+04-1.53092E+06 2.01271E-09 2.93221E-09
 -1       309-4.06198E+06-6.21515E+05-4.30308E+04-1.55703E+06 9.27415E-10-1.60344E-09
 -1       310-4.09086E+06-5.57472E+05-1.67550E+04-1.51435E+06-1.63391E-09-2.87218E-09
 -1       311-4.03555E+06-6.20979E+05-9.65869E+03-1.58022E+06 8.45262E-09 3.43050E-09
 -1       312-4.09688E+06-5.54510E+05-4.71833E+03-1.50809E+06 1.30956E-09 5.94014E-10
 -1       313-4.03317E+06-6.19950E+05-4.23233E+03-1.58192E+06-3.60160E-10 3.45176E-09
 -1       314-4.09326E+06-5.58447E+05-5.22307E+03-1.51268E+06-3.09569E-09-7.91943E-09
 -1       315-4.04877E+06-6.07348E+05-1.07005E+04-1.56349E+06-1.35424E-09 3.36786E-09
 -1       316-4.08090E+06-5.67421E+05-1.91554E+04-1.52622E+06 3.24349E-09 3.92902E-10
 -1       317-4.08582E+06-6.01702E+05-4.89029E+04-1.53033E+06 4.20641E-12 1.70166E-09
 -1       318-4.05610E+06-5.64562E+05-8.12070E+04-1.54559E+06-6.11544E-09 9.14952E-09
 -1       319-4.19271E+06-7.11705E+05-2.35269E+05-1.47591E+06-4.42469E-09-5.16593E-09
 -1       320-3.97493E+06-4.59249E+05-3.44799E+05-1.58023E+06 9.10222E-09-8.77480E-09
 -1       336 4.99979E+02-7.85482E+05-4.29673E+03 1.02747E+03-7.12294E-09 8.40373E-09
 -1       337-1.57162E+03-7.86505E+05-4.75186E+03-2.60781E+03-1.34376E-08 6.28188E-09
 -1       338 3.36662E+02-7.85588E+05-6.11941E+03 1.57422E+03-9.27002E-09 2.81943E-10
 -1       339-6.34658E+03-7.89480E+05-1.34126E+04-3.68549E+03-1.70764E-08 1.81171E-09
 -1       340 4.26777E+03-7.82589E+05-2.07308E+04 2.09723E+03-1.14032E-08 1.22363E-08
 -1       406 1.32330E+01 2.47079E+05 4.15186E+02 1.12105E-03 5.53229E-10 7.05177E-09
 -1       407 1.41986E+02 2.47156E+05 8.82506E+02-7.70747E+00 8.77662E-11 2.27133E-08
 -1       408 4.51454E+02 2.47016E+05 1.76250E+03 7.85547E+00 6.24141E-10 9.41600E-09
 -1       409 1.90319E+03 2.47719E+05 3.96798E+03-7.55780E+01-3.47882E-11-8.03084E-10
 -1       410 5.47318E+03 2.46514E+05 8.10045E+03 7.05607E+01 6.39375E-10-4.76575E-09
 -1       521-7.43092E+06-7.69740E+05-5.78046E+05-2.71311E+06 7.27596E-12-2.00816E-09
 -1       522-7.01602E+06-1.63562E+06-3.44656E+05-3.15162E+06-3.55690E-08-8.17818E-09
 -1       523-7.64871E+06-7.41752E+05-1.33203E+05-2.44048E+06 1.56433E-09-2.73940E-08
 -1       524-6.82556E+06-1.62232E+06-7.12379E+04-3.49792E+06 4.06767E-08-3.75221E-08
 -1       525-7.67296E+06-7.40840E+05-2.98522E+04-2.40456E+06 1.26347E-08-1.98895E-08
 -1       526-6.84131E+06-1.47425E+06 9.84111E+02-3.31038E+06 7.03585E-09 8.88713E-09
 -1       527-7.59696E+06-9.14977E+05-3.40618E+04-2.60379E+06 1.02009E-08 2.08092E-09
 -1       528-7.09019E+06-1.08809E+06 3.03693E+04-2.78416E+06 1.00554E-08-8.42192E-10
 -1       529-7.37068E+06-1.16480E+06-4.05692E+04-2.89022E+06-2.31375E-09-4.72937E-11
 -1       530-7.62185E+06-6.38827E+05 9.24794E+03-2.31951E+06-1.53341E-08 1.73113E-08
 -1       531-7.09817E+06-1.34051E+06-3.64038E+04-3.09015E+06-5.29399E-08-3.39423E-09
 -1       532-8.02492E+06-4.19066E+05-6.97483E+04-2.12339E+06 2.76759E-08-4.18331E-08
 -1       533-7.02177E+06-1.34732E+06-1.25320E+05-3.12968E+06 9.49512E-09-6.52144E-08
 -1       534-7.96534E+06-7.35753E+05-3.47735E+05-2.16670E+06-1.71167E-08 4.74865E-08
 -1       535-7.13248E+06-1.04646E+06-5.63400E+05-3.02364E+06-1.11031E-08 3.20142E-08
 -1       536-1.44460E+05-1.63393E+04 3.76703E+04-1.23508E+03-7.32001E-10 1.43173E-08
 -1       537-1.26934E+05 1.89233E+04 2.68601E+04 1.08775E+03-9.12830E-09 1.20781E-09
 -1       538-1.38375E+05-2.57717E+03 9.65129E+03-6.99383E+02 1.61151E-10 3.17323E-09
 -1       539-1.34025E+05 2.98057E+03 6.33474E+03-1.20050E+02 4.42640E-09 3.21279E-09
 -1       540-1.37365E+05-4.14886E+02 2.35331E+03-2.72183E+01 1.89146E-10 4.29441E-09
 -1       541-1.35402E+05 4.68874E+02 1.58224E+03-1.41723E+03-3.53319E-09-1.76144E-09
 -1       542-1.37003E+05-6.45166E+01 4.69503E+02 5.97756E+02-3.21720E-10 1.07451E-09
 -1       543-1.36078E+05 3.64946E+01 2.56715E+02-2.48453E+03 3.90656E-10-2.73991E-09
 -1       544-1.36701E+05 2.57407E+01-1.97767E+02 1.04007E+03 2.23629E-10-5.36494E-09
 -1       545-1.36612E+05-2.37418E+02-6.63555E+02-3.09484E+03-3.47491E-10-9.96579E-10
 -1       546-1.36479E+05 2.16736E+02-1.27652E+03 1.20809E+03 5.15971E-10 1.00391E-09
 -1       547-1.37281E+05-1.56625E+03-3.21450E+03-3.12200E+03-3.54589E-09 6.09776E-09
 -1       548-1.36033E+05 1.35402E+03-5.18676E+03 1.06723E+03-3.62931E-09-5.28053E-09
 -1       549-1.40801E+05-9.97475E+03-1.40534E+04-2.55325E+03-2.00816E-09 5.90194E-09
 -1       550-1.32950E+05 8.61165E+03-2.00811E+04 6.39312E+02-3.86535E-11-5.08771E-09
 -1       551 9.00159E+03-4.06863E+05 2.09293E+04-6.87787E+05-3.10465E-08-2.34286E-09
 -1       552 1.99217E+04-4.10302E+05 2.79730E+04-9.79054E+05-2.43745E-08 1.39298E-08
 -1       553 1.36365E+04-4.15545E+05 4.33948E+04-6.85413E+05-3.94721E-08 1.03682E-08
 -1       554 4.25170E+04-3.99142E+05 9.22037E+04-9.80082E+05-2.57351E-08 3.63934E-09
 -1       555 4.04687E+04-4.33301E+05 1.65380E+05-6.86162E+05-3.96249E-08-4.04179E-09
 -1       556 6.39201E+04-1.31241E+05 4.46206E+04-1.71246E+05-6.24277E-09-1.16415E-09
 -1       557 1.17180E+05-1.75314E+05 2.34638E+04-2.14636E+05 2.71393E-09 7.90760E-09
 -1       558 6.36733E+04-1.37157E+05 9.44909E+03-1.66157E+05-6.08270E-09-4.39468E-09
 -1       559 1.09859E+05-1.81379E+05 4.80933E+03-2.17906E+05 4.52928E-09-1.98634E-09
 -1       560 6.20270E+04-1.36066E+05 1.96578E+03-1.67197E+05-7.49424E-10-1.18234E-10
 -1       561 1.07319E+05-1.80715E+05 1.05454E+03-2.19514E+05-2.32831E-10 3.57113E-09
 -1       562 6.07016E+04-1.35181E+05 3.90223E+02-1.68152E+05-4.19095E-09-1.14342E-08
 -1       563 1.05762E+05-1.80045E+05 2.54512E+02-2.20510E+05-6.25732E-10-2.05824E-09
 -1       564 5.98704E+04-1.34645E+05 8.85994E+01-1.68742E+05 2.00089E-09 2.17005E-09
 -1       565 1.04942E+05-1.79694E+05 6.25482E+01-2.21026E+05 3.62434E-09-7.50333E-10
 -1       566 5.95622E+04-1.34442E+05-1.14132E+01-1.68964E+05-1.56433E-09-1.73350E-09
 -1       567 1.04819E+05-1.79633E+05-9.17889E+01-2.21040E+05 9.84005E-09 1.11322E-09
 -1       568 5.98093E+04-1.34605E+05-2.87920E+02-1.68851E+05 4.57658E-09 9.56061E-09
 -1       569 1.04768E+05-1.79515E+05-6.74882E+02-2.19998E+05 2.12731E-09 1.32786E-08
 -1       570 6.11261E+04-1.35780E+05-1.46434E+03-1.68817E+05 9.71340E-10 7.45786E-10
 -1       571 1.79106E+05 6.52418E+03 9.66394E+03-4.58553E+04-7.79437E-10 4.81941E-09
 -1       572 1.80543E+05 2.27166E+03 4.73475E+03-5.02661E+04-1.00226E-09 8.54834E-09
 -1       573 1.79682E+05 5.44166E+02 2.10336E+03-4.57361E+04-3.75621E-10 3.46699E-09
 -1       574 1.79851E+05 1.80433E+02 1.05385E+03-5.03993E+04-8.16726E-10 6.11180E-10
 -1       575 1.79745E+05 2.86019E+01 4.96665E+02-4.57204E+04 6.59384E-10 6.81075E-09
 -1       576 1.79756E+05 1.18967E+01 2.52817E+02-5.04171E+04 1.58502E-09-6.42558E-10
 -1       577 1.79755E+05 1.02320E+00 1.24505E+02-4.57183E+04 2.37480E-09 1.36697E-09
 -1       578 1.79748E+05 3.21661E+00 6.78524E+01-5.04193E+04 4.62023E-10-1.63709E-10
 -1       579 1.79766E+05-1.18394E+00 4.13754E+01-4.57183E+04-3.44244E-10-4.56021E-09
 -1       580 1.79763E+05-2.83345E+00 3.84912E+01-5.04166E+04-2.32194E-09 2.18279E-10
 -1       581 1.79786E+05-8.63601E+00 5.19022E+01-4.57210E+04-1.61617E-09-2.51066E-09
 -1       582 1.79798E+05-1.69069E+00 9.88492E+01-5.03894E+04-4.12911E-10 2.75304E-09
 -1       583 1.79810E+05 2.09658E+01 1.89237E+02-4.57455E+04 1.42791E-10 2.92766E-09
 -1       584 1.79898E+05 1.67655E+02 4.24474E+02-5.01846E+04-1.90221E-09-9.96465E-10
 -1       585 1.79793E+05 5.40689E+02 8.61547E+02-4.59261E+04 1.84627E-10 5.60067E-09
 -1       586-2.10852E+03 5.93648E+04-2.78148E+03-1.55378E+05 2.86946E-10 4.16185E-09
 -1       587-4.37396E+02 5.89919E+04-2.66996E+02-1.70981E+05 6.40284E-10 1.65784E-09
 -1       588 6.21630E+02 5.90587E+04 2.08391E+03-1.55284E+05 3.91083E-10 3.53839E-09
 -1       589 3.06194E+03 6.01961E+04 6.00936E+03-1.70839E+05 5.08408E-10-2.94449E-09
 -1       590 8.78540E+03 5.83451E+04 1.28452E+04-1.55522E+05 2.27828E-10 3.65526E-09
 -1       591-3.97311E+04-1.12577E+04-1.30414E+04-2.04727E+04 1.40938E-09-7.42148E-10
 -1       592-4.09728E+04-1.44401E+04-7.06376E+03-2.38508E+04 5.77529E-11-2.70074E-09
 -1       593-4.10497E+04-1.02969E+04-2.94071E+03-2.14148E+04-5.71390E-10-2.52373E-09
 -1       594-3.91558E+04-1.25443E+04-1.46666E+03-2.39411E+04 9.06311E-10 1.59324E-09
 -1       595-4.11508E+04-1.02925E+04-6.74018E+02-2.14580E+04 2.92744E-10-1.40770E-09
 -1       596-3.90328E+04-1.24575E+04-3.43564E+02-2.39283E+04 8.41681E-10 1.40138E-08
 -1       597-4.11636E+04-1.03008E+04-1.89102E+02-2.14598E+04 4.09431E-09-3.81431E-09
 -1       598-3.90211E+04-1.24542E+04-1.55720E+02-2.39247E+04 4.94680E-09 6.41847E-10
 -1       599-4.11626E+04-1.03009E+04-2.03543E+02-2.14595E+04 3.47575E-09-5.23187E-09
 -1       600-3.90342E+04-1.24586E+04-3.81833E+02-2.39279E+04-5.65933E-10 3.75849E-10
 -1       601-4.11465E+04-1.02919E+04-7.55215E+02-2.14568E+04 7.49878E-10-4.17629E-09
 -1       602-3.91721E+04-1.25560E+04-1.64694E+03-2.39405E+04 1.40062E-09-6.05280E-09
 -1       603-4.10317E+04-1.02985E+04-3.30337E+03-2.14084E+04-1.91403E-09-5.56815E-09
 -1       604-4.12196E+04-1.46783E+04-7.93517E+03-2.38294E+04-1.08525E-09 5.66342E-09
 -1       605-3.95418E+04-1.13841E+04-1.46500E+04-2.03573E+04 3.20938E-10-1.31149E-09
 -1       606 2.53407E+04-8.63751E+03-1.55515E+04 2.47024E+04-2.72303E-09 6.27551E-10
 -1       607 2.26773E+04-2.78721E+03-7.74372E+03 2.77301E+04-2.30648E-09-9.58562E-09
 -1       608 2.41881E+04-4.70785E+02-3.46782E+03 2.45056E+04 2.07183E-09-2.15732E-09
 -1       609 2.38871E+04-1.22734E+02-1.75149E+03 2.79475E+04-8.22183E-10 5.77097E-09
 -1       610 2.40481E+04 2.20493E+01-8.36688E+02 2.44836E+04-3.65344E-09-1.83718E-09
 -1       611 2.39908E+04 3.38181E+01-4.21997E+02 2.79712E+04-6.02631E-09-3.71779E-09
 -1       612 2.40103E+04 3.61331E+01-2.01974E+02 2.44814E+04-4.16912E-09-9.32664E-09
 -1       613 2.39883E+04 4.16731E+01-9.20678E+01 2.79740E+04-5.01359E-09-2.33695E-09
 -1       614 2.39896E+04 3.70266E+01-2.57569E+01 2.44807E+04-1.10140E-09 8.13566E-09
 -1       615 2.39773E+04 4.67778E+01 2.86573E+01 2.79745E+04 4.23097E-09 5.69594E-09
 -1       616 2.39739E+04 4.23428E+01 9.50608E+01 2.44809E+04-4.37012E-09 5.75551E-09
 -1       617 2.39829E+04 7.07803E+01 2.20549E+02 2.79740E+04 1.58479E-10-9.71795E-10
 -1       618 2.39502E+04 1.08796E+02 4.45839E+02 2.44810E+04 1.70530E-10-4.45516E-09
 -1       619 2.41367E+04 4.17920E+02 1.00208E+03 2.79733E+04-1.09935E-10-6.97264E-09
 -1       620 2.37998E+04 1.16846E+03 2.01436E+03 2.44800E+04 5.78439E-10-5.82804E-09
 -1       621 3.09412E+02 1.94829E+05 2.68988E+03 6.99089E+03-2.66567E-10-1.41904E-09
 -1       622 3.54209E+02 1.95496E+05 2.28725E+03 1.02065E+04-1.16643E-10 1.35446E-09
 -1       623 1.44248E+01 1.95020E+05 2.63572E+03 6.95830E+03-1.29972E-10 5.97606E-09
 -1       624 1.19336E+03 1.96264E+05 5.00976E+03 1.02382E+04-2.45791E-10 8.15425E-09
 -1       625 1.19854E+03 1.94054E+05 8.71143E+03 6.95944E+03-1.89175E-10-1.48827E-09
 -1       626 1.60812E+05 4.44054E+04 3.18732E+03 8.67546E+04-6.28006E-10-1.68257E-09
 -1       627 1.58627E+05 4.60142E+04 1.53583E+03 9.02458E+04-1.79944E-09-2.53567E-09
 -1       628 1.60931E+05 4.28979E+04 6.48667E+02 8.72354E+04 1.75351E-09 1.73873E-09
 -1       629 1.58166E+05 4.56515E+04 3.17975E+02 9.04539E+04 3.81169E-09 1.72281E-09
 -1       630 1.60938E+05 4.28269E+04 1.47027E+02 8.72478E+04-2.02544E-09-6.67677E-09
 -1       631 1.58110E+05 4.56437E+04 7.91556E+01 9.04553E+04-7.46695E-10-2.25828E-09
 -1       632 1.60929E+05 4.28329E+04 5.23368E+01 8.72404E+04-3.95175E-09-3.96710E-09
 -1       633 1.58098E+05 4.56486E+04 5.86514E+01 9.04488E+04 2.11639E-09 3.37559E-09
 -1       634 1.60920E+05 4.28338E+04 9.50714E+01 8.72361E+04 7.38464E-09 5.34601E-09
 -1       635 1.58101E+05 4.56502E+04 1.92884E+02 9.04481E+04 4.02224E-09-4.15866E-10
 -1       636 1.60909E+05 4.28331E+04 3.89619E+02 8.72331E+04-2.57603E-09 2.95313E-09
 -1       637 1.58180E+05 4.57123E+04 8.56343E+02 9.04441E+04-1.00806E-09 1.34287E-09
 -1       638 1.60876E+05 4.30241E+04 1.75995E+03 8.71450E+04 3.25258E-10 5.27507E-10
 -1       639 1.59101E+05 4.69998E+04 4.16353E+03 9.01705E+04-3.32750E-09-5.00222E-10
 -1       640 1.60752E+05 4.68566E+04 8.64038E+03 8.55175E+04-5.51972E-09-1.41406E-08
 -1       656 4.35378E+04-1.10210E+06-1.05102E+05-3.74668E+02 6.07542E-10-2.50779E-09
 -1       657-5.75312E+04-1.14954E+06-8.69214E+04 7.06805E+03 4.85670E-10-4.90459E-09
 -1       658 1.38058E+04-1.11563E+06-5.33416E+04-1.39479E+03 1.90357E-09 1.05931E-09
 -1       659-6.16904E+04-1.15151E+06-9.23843E+04 7.75004E+03-6.54836E-10 1.85360E-09
 -1       660 4.76869E+04-1.10013E+06-1.14499E+05-1.05664E+03-7.27596E-10 9.31398E-09
 -1       661 1.54984E+05 1.68674E+04 1.48876E+04 6.05710E+04 1.05501E-10 4.15002E-09
 -1       662 1.62751E+05 2.85314E+04 1.00318E+04 5.79681E+04 5.39046E-10-4.17276E-09
 -1       663 1.57902E+05 2.16489E+04 3.50919E+03 5.97292E+04-2.90379E-09 6.74049E-09
 -1       664 1.59375E+05 2.29339E+04 2.09805E+03 5.89911E+04-3.01981E-10-2.25268E-09
 -1       665 1.58338E+05 2.23076E+04 8.27616E+02 5.96073E+04-2.86258E-09 2.01197E-10
 -1       666 1.58863E+05 2.21760E+04 4.82636E+02 5.91469E+04-9.48420E-09 4.11531E-09
 -1       667 1.58411E+05 2.23870E+04 2.54471E+02 5.95808E+04-5.67439E-10-3.58249E-09
 -1       668 1.58786E+05 2.21128E+04 2.54937E+02 5.91847E+04 1.57055E-09-5.68979E-09
 -1       669 1.58415E+05 2.23690E+04 3.41602E+02 5.95701E+04 4.52505E-09 1.90698E-09
 -1       670 1.58873E+05 2.22926E+04 7.40501E+02 5.91830E+04 1.14261E-08-2.84672E-10
 -1       671 1.58324E+05 2.22109E+04 1.31372E+03 5.95810E+04 2.26236E-09-7.42529E-09
 -1       672 1.59640E+05 2.35689E+04 3.36024E+03 5.89964E+04-4.26989E-09-6.30507E-09
 -1       673 1.57652E+05 2.11247E+04 5.63091E+03 5.97445E+04-1.18985E-09-1.39994E-09
 -1       674 1.65002E+05 3.26126E+04 1.61032E+04 5.74186E+04-4.13138E-10 8.41965E-10
 -1       675 1.52996E+05 1.34200E+04 2.39022E+04 6.10635E+04 2.39379E-09-3.50701E-09
 -1       676 1.76831E+01-2.10987E+05-8.20957E+02 3.58307E+01-2.41238E-09-6.16423E-09
 -1       677-2.17896E+02-2.11185E+05-1.50243E+03-7.16293E+01-3.80544E-09-5.72555E-09
 -1       678 1.45532E+02-2.10845E+05-2.65590E+03 3.57739E+01-3.00747E-09 4.75881E-10
 -1       679-2.65641E+03-2.12788E+05-6.30906E+03-7.14062E+01-5.72186E-09 3.79153E-09
 -1       680 1.58537E+03-2.09384E+05-1.01681E+04 3.51976E+01-2.71439E-09 4.25421E-09
 -1       771-2.26425E+06-4.02948E+05-5.64424E+04-9.46375E+05-1.02300E-08-7.55244E-09
 -1       772-2.24821E+06-4.34159E+05-3.01810E+04-9.81271E+05-7.63248E-09 2.71029E-09
 -1       773-2.27232E+06-3.96653E+05-1.32222E+04-9.49514E+05-3.09956E-09 3.52156E-09
 -1       774-2.24027E+06-4.27714E+05-6.38201E+03-9.85341E+05 9.10586E-09-1.61890E-09
 -1       775-2.27448E+06-3.95212E+05-3.37031E+03-9.49796E+05-8.51287E-10 8.14907E-10
 -1       776-2.24032E+06-4.27799E+05-1.50983E+03-9.87697E+05-3.18323E-09 2.25464E-09
 -1       777-2.27605E+06-3.94062E+05-1.02487E+03-9.49974E+05-8.00355E-10 1.30240E-09
 -1       778-2.24083E+06-4.28058E+05-4.04695E+02-9.89668E+05-5.27507E-10 3.13867E-09
 -1       779-2.27731E+06-3.93085E+05-4.19351E+02-9.50135E+05-3.65981E-09-3.40515E-09
 -1       780-2.24134E+06-4.28266E+05-2.00977E+02-9.91263E+05 1.45519E-09-1.00590E-09
 -1       781-2.27828E+06-3.92307E+05-3.42989E+02-9.50258E+05-5.25324E-09-2.80488E-09
 -1       782-2.24177E+06-4.28430E+05-4.60521E+02-9.92433E+05-8.10724E-09-6.50971E-10
 -1       783-2.27891E+06-3.91789E+05-9.24763E+02-9.50340E+05 1.81899E-11-5.69923E-09
 -1       784-2.24255E+06-4.29078E+05-2.11839E+03-9.93120E+05-3.03135E-09-7.87622E-10
 -1       785-2.27886E+06-3.91807E+05-3.93052E+03-9.50101E+05-6.64204E-09 5.89444E-09
 -1       786 1.65876E+05-8.85752E+03 2.04920E+04-1.23980E+01 1.24651E-06 4.07181E-09
 -1       787 1.74755E+05 1.02543E+04 1.44977E+04-1.62484E+00 2.48335E-06 1.83750E-08
 -1       788 1.69302E+05-1.38852E+03 5.30390E+03-7.82440E+00 2.60761E-06 1.33468E-09
 -1       789 1.70765E+05 1.60660E+03 3.33251E+03-1.03836E+01 2.72786E-06 1.06648E-08
 -1       790 1.69867E+05-2.16911E+02 1.35606E+03-3.63956E+00 2.99668E-06-1.08448E-08
 -1       791 1.70105E+05 2.52040E+02 7.96310E+02-1.97391E+01 3.26846E-06 1.45071E-08
 -1       792 1.69962E+05-3.49748E+01 3.63675E+02 1.53122E+00 3.92923E-06-1.43188E-08
 -1       793 1.69999E+05 4.92349E+01 2.38800E+02-3.25451E+01 4.58359E-06 1.11331E-08
 -1       794 1.69974E+05-1.42411E+01 1.77639E+02 9.16662E+00 2.29401E-06-7.80821E-09
 -1       795 1.70010E+05 7.37608E+01 2.58033E+02-5.24178E+01 7.40522E-09 1.22681E-08
 -1       796 1.69951E+05-5.94830E+01 3.87159E+02 2.14042E+01 4.41884E-10 6.68464E-10
 -1       797 1.70185E+05 4.36130E+02 9.13418E+02-8.49236E+01-5.72104E-10 4.40632E-09
 -1       798 1.69798E+05-3.76344E+02 1.44193E+03 4.16730E+01 2.65067E-10 2.91720E-10
 -1       799 1.71267E+05 2.77881E+03 3.93119E+03-1.39460E+02-9.88939E-10 4.15520E-09
 -1       800 1.68869E+05-2.40028E+03 5.55300E+03 7.59409E+01 2.14113E-11-7.86031E-10
 -1       801 5.29741E+02-3.21010E+05-1.92391E+04 5.88450E+03 6.59202E-09-6.51204E-09
 -1       802 9.86509E+03-2.13561E+05 2.99514E+04-1.48981E+04 9.76797E-09-3.62273E-09
 -1       803-1.03385E+04-2.75389E+05 4.89664E+04 1.14021E+04 2.60334E-08 1.74824E-08
 -1       804 1.06917E+05-1.62779E+05 1.56771E+05-1.40390E+04 3.76531E-10 1.93972E-08
 -1       805-9.65648E+04-3.71638E+05 1.95398E+05 5.02427E+03 1.61817E-08 3.17769E-08
 -1       806-1.94776E+05-4.16606E+04-1.65411E+04-8.10275E+04 8.29914E-11-6.41285E-09
 -1       807-1.95756E+05-3.92851E+04-8.12629E+03-8.54055E+04 5.91501E-09 8.13782E-09
 -1       808-1.95244E+05-3.56854E+04-3.44716E+03-8.38337E+04 7.31006E-10-2.81261E-09
 -1       809-1.94022E+05-3.70279E+04-1.68522E+03-8.56386E+04 3.12525E-10-1.74532E-09
 -1       810-1.95317E+05-3.54748E+04-7.71653E+02-8.39575E+04 5.15274E-09 5.66615E-09
 -1       811-1.93889E+05-3.69387E+04-3.82693E+02-8.56185E+04 1.03967E-09-8.04903E-10
 -1       812-1.95330E+05-3.54906E+04-1.91010E+02-8.39571E+04 1.11640E-08 1.26852E-08
 -1       813-1.93872E+05-3.69411E+04-1.20489E+02-8.56077E+04 1.79698E-08-4.65457E-09
 -1       814-1.95327E+05-3.54967E+04-1.13027E+02-8.39543E+04 5.37830E-09-1.09692E-08
 -1       815-1.93874E+05-3.69431E+04-1.76846E+02-8.56044E+04 3.40606E-10 4.41037E-09
 -1       816-1.95315E+05-3.54957E+04-3.31369E+02-8.39518E+04-1.59343E-09 1.28011E-09
 -1       817-1.93930E+05-3.69749E+04-7.10302E+02-8.55978E+04 3.85103E-09 1.25783E-09
 -1       818-1.95273E+05-3.55957E+04-1.44764E+03-8.39045E+04 1.24555E-09 3.67072E-09
 -1       819-1.94729E+05-3.78435E+04-3.40692E+03-8.54033E+04-2.77396E-09 3.98472E-09
 -1       820-1.94997E+05-3.81720E+04-6.93377E+03-8.28063E+04 7.25777E-10 2.33888E-09
 -1       821-2.52522E+05 1.39957E+04-3.23676E+04 9.56756E+01-3.30302E-10 6.33008E-10
 -1       822-2.66549E+05-1.62024E+04-2.29047E+04-6.24150E+02-1.94421E-09 6.44695E-09
 -1       823-2.57936E+05 2.19419E+03-8.38328E+03 6.55679E+01 7.87059E-10 2.06910E-09
 -1       824-2.60236E+05-2.53967E+03-5.27469E+03-4.78343E+02-1.52260E-11 1.16793E-08
 -1       825-2.58833E+05 3.43377E+02-2.16815E+03-5.01355E+01-2.66535E-09-2.81591E-09
 -1       826-2.59191E+05-4.04966E+02-1.30849E+03-2.07091E+02-5.19808E-09 5.01677E-09
 -1       827-2.58979E+05 6.08915E+01-6.77658E+02-2.05689E+02-4.02413E-09-2.91094E-09
 -1       828-2.59050E+05-1.23509E+02-5.98546E+02 8.44594E+01-4.72409E-09-4.73065E-09
 -1       829-2.58974E+05 6.21799E+01-6.87387E+02-3.41691E+02-9.41114E-11 3.05664E-09
 -1       830-2.59210E+05-4.15039E+02-1.34188E+03 2.84972E+02 2.81507E-09 7.52857E-09
 -1       831-2.58820E+05 3.52405E+02-2.22222E+03-4.06205E+02-2.96533E-09-2.40891E-09
 -1       832-2.60278E+05-2.60612E+03-5.41505E+03 3.18450E+02-1.95864E-09-7.19012E-09
 -1       833-2.57907E+05 2.25172E+03-8.60490E+03-3.75168E+02-1.50992E-09-2.90265E-09
 -1       834-2.66742E+05-1.66300E+04-2.35096E+04 1.74250E+02 5.22808E-11 1.82263E-09
 -1       835-2.52357E+05 1.43653E+04-3.32264E+04-2.61996E+02 4.73558E-09 5.16047E-09
 -1       836-8.41262E+02 2.38646E+05 1.43886E+04-2.09086E+04 1.58616E-09 5.09999E-09
 -1       837 3.16972E+03 2.43100E+05 1.22743E+04-4.19941E+04 2.14391E-09-2.26657E-09
 -1       838-3.06920E+02 2.39887E+05 1.26425E+04-2.08380E+04 2.09184E-09-3.83227E-09
 -1       839 8.11208E+03 2.46785E+05 2.40500E+04-4.20193E+04 2.62708E-09-6.65202E-09
 -1       840-2.43632E+03 2.34928E+05 3.84057E+04-2.08820E+04 1.78989E-09-2.27351E-09
 -1       856-7.75501E+04 6.69832E+03-1.76517E+04-3.95143E+02-4.01678E-09 2.31012E-10
 -1       857-8.48418E+04-7.85610E+03-1.21529E+04 4.03355E+03-1.60865E-09-3.03316E-09
 -1       858-8.04309E+04 9.38544E+02-4.58114E+03-4.13035E+02-2.45444E-09-1.45133E-09
 -1       859-8.15333E+04-1.09114E+03-2.76687E+03 4.06209E+03-9.15179E-11-3.04772E-09
 -1       860-8.08617E+04 1.30517E+02-1.16338E+03-4.23809E+02 1.06246E-09-5.95281E-09
 -1       861-8.10372E+04-1.44071E+02-6.48014E+02 4.07682E+03-7.06999E-09-3.42393E-09
 -1       862-8.09287E+04 1.72863E+01-2.85437E+02-4.27794E+02 3.20796E-09 1.52582E-09
 -1       863-8.09579E+04-1.04338E+01-1.40447E+02 4.07860E+03 9.08937E-09 4.20002E-09
 -1       864-8.09411E+04-1.85838E-01-4.26742E+01-4.25595E+02 4.64583E-09-2.96730E-09
 -1       865-8.09343E+04 2.09284E+01 3.03333E+01 4.06753E+03 5.28938E-09-1.47654E-09
 -1       866-8.09510E+04-1.44650E+01 1.03311E+02-4.16717E+02-5.01103E-10-3.43553E-09
 -1       867-8.08746E+04 1.21290E+02 2.81333E+02 4.04344E+03 6.99174E-11-2.97116E-09
 -1       868-8.09981E+04-9.98992E+01 4.74034E+02-4.01506E+02-1.05592E-09-1.02902E-08
 -1       869-8.05191E+04 8.28524E+02 1.27211E+03 4.00353E+03-2.33968E-09-3.30579E-09
 -1       870-8.13023E+04-7.04186E+02 1.84484E+03-3.76810E+02 2.93545E-09 9.84187E-10
 -1       871-3.69552E+03-7.82064E+03-1.19831E+04 7.85649E+04 2.84217E-09 3.33966E-09
 -1       872-1.61044E+03-1.05012E+04-4.88334E+03 1.01854E+05 3.70028E-09-2.41630E-09
 -1       873-4.22331E+01-9.24884E+03 7.01468E+02 7.83919E+04 2.65413E-09 1.93893E-09
 -1       874 1.83545E+03-7.50275E+03 6.80605E+03 1.01890E+05 3.15640E-09 4.10273E-09
 -1       875 4.36184E+03-1.08645E+04 1.50908E+04 7.85362E+04 1.14142E-09 1.90948E-09
 -1       876 1.96119E+05 3.38187E+04 1.05052E+04 7.95983E+04-4.74319E-09 7.82165E-10
 -1       877 1.96714E+05 3.61303E+04 5.60999E+03 8.27112E+04-4.91593E-09 5.78950E-09
 -1       878 1.97101E+05 3.26558E+04 2.35033E+03 8.04609E+04 3.01520E-09-1.04797E-09
 -1       879 1.95285E+05 3.47073E+04 1.17080E+03 8.27859E+04 7.88532E-10-3.75366E-09
 -1       880 1.97173E+05 3.26428E+04 5.45066E+02 8.04960E+04 1.70962E-09 1.08383E-09
 -1       881 1.95190E+05 3.46469E+04 2.90279E+02 8.27712E+04 6.51187E-09-5.92809E-09
 -1       882 1.97180E+05 3.26513E+04 1.84351E+02 8.04970E+04 6.60077E-09-3.07340E-09
 -1       883 1.95183E+05 3.46441E+04 1.95994E+02 8.27670E+04 1.89044E-09 2.16764E-09
 -1       884 1.97176E+05 3.26491E+04 3.09800E+02 8.04971E+04 9.21943E-10 4.96465E-09
 -1       885 1.95208E+05 3.46485E+04 6.21633E+02 8.27749E+04 2.68508E-09-3.03419E-09
 -1       886 1.97152E+05 3.26309E+04 1.25230E+03 8.04947E+04 3.10139E-09 1.80989E-09
 -1       887 1.95428E+05 3.47927E+04 2.73529E+03 8.28065E+04-5.86351E-09 3.70233E-09
 -1       888 1.96979E+05 3.26614E+04 5.51166E+03 8.04072E+04-1.47247E-09 1.00044E-09
 -1       889 1.98713E+05 3.82024E+04 1.31670E+04 8.27020E+04 4.46789E-11-1.80353E-09
 -1       890 1.94734E+05 3.53290E+04 2.46606E+04 7.83047E+04 5.02632E-09 3.52338E-09
 -1       891-1.23639E+02-1.11485E+05-1.31520E+03 2.11863E+04-5.80940E-11 7.57836E-10
 -1       892-2.14895E+02-1.11799E+05-1.43125E+03 3.20591E+04 2.28283E-09-5.89546E-09
 -1       893-3.61776E+01-1.11526E+05-2.04572E+03 2.11903E+04 2.52680E-09-1.91130E-09
 -1       894-1.12076E+03-1.12584E+05-4.24804E+03 3.19452E+04 2.31466E-10-2.36741E-09
 -1       895-8.75471E+02-1.10642E+05-7.48596E+03 2.12986E+04 3.77781E-10 1.49066E-09
 -1       956-2.46522E+05-3.55674E+03-8.95717E+03 1.63738E+04-3.66163E-09 5.99130E-09
 -1       957-2.48291E+05-1.19873E+03-4.59829E+03 1.97162E+04-1.80853E-09 1.05933E-09
 -1       958-2.47316E+05-9.43455E+01-2.07163E+03 1.62669E+04 2.33103E-09-2.41448E-09
 -1       959-2.47457E+05-1.50162E+01-1.05814E+03 1.98317E+04-1.58889E-09 5.66160E-11
 -1       960-2.47387E+05 3.09802E+01-5.15749E+02 1.62568E+04-2.51475E-09-2.30921E-09
 -1       961-2.47396E+05 2.94347E+01-2.73430E+02 1.98432E+04-4.91741E-09 1.64562E-09
 -1       962-2.47401E+05 2.72737E+01-1.56085E+02 1.62553E+04-2.88060E-09 2.37549E-09
 -1       963-2.47394E+05 3.05110E+01-1.24520E+02 1.98453E+04-1.55387E-09 1.40096E-09
 -1       964-2.47404E+05 2.90204E+01-1.50186E+02 1.62547E+04-9.12564E-10-3.57397E-09
 -1       965-2.47403E+05 3.32817E+01-2.58696E+02 1.98454E+04-5.01267E-10-5.01711E-09
 -1       966-2.47396E+05 3.61247E+01-4.85118E+02 1.62552E+04-3.32852E-09-2.50077E-09
 -1       967-2.47467E+05-4.73096E+00-9.94735E+02 1.98392E+04-4.36330E-10-7.47718E-10
 -1       968-2.47336E+05-7.81224E+01-1.94649E+03 1.62609E+04 5.94582E-10-1.25232E-09
 -1       969-2.48257E+05-1.11402E+03-4.32177E+03 1.97714E+04 1.03864E-09 3.81107E-09
 -1       970-2.46594E+05-3.33011E+03-8.41779E+03 1.63254E+04 1.28580E-09-1.98997E-09
 -1       971-2.34080E+05-1.23491E+03-6.87565E+03 1.14229E+04-4.32010E-09 3.45722E-09
 -1       972-2.35753E+05-8.84493E+02-3.74456E+03 1.59569E+04-1.08957E-09-9.89803E-09
 -1       973-2.34844E+05-6.61625E+00-1.67660E+03 1.13278E+04-3.43607E-09-4.67821E-10
 -1       974-2.34960E+05-6.37472E+00-8.68588E+02 1.60593E+04-7.56927E-10-1.35549E-09
 -1       975-2.34902E+05 2.50659E+01-4.33064E+02 1.13194E+04 1.39516E-09 5.59680E-10
 -1       976-2.34913E+05 2.91807E+01-2.47991E+02 1.60694E+04-1.72804E-11 3.82227E-09
 -1       977-2.34913E+05 2.45423E+01-1.76577E+02 1.13176E+04 3.82965E-09 6.35976E-09
 -1       978-2.34915E+05 3.29169E+01-2.02038E+02 1.60720E+04 1.04848E-08 4.47528E-09
 -1       979-2.34913E+05 2.98306E+01-3.20614E+02 1.13168E+04 9.34614E-09 2.82455E-09
 -1       980-2.34938E+05 3.48194E+01-6.16561E+02 1.60723E+04 9.85108E-09 3.09626E-09
 -1       981-2.34893E+05 4.51960E+01-1.19279E+03 1.13172E+04 2.52498E-09 2.14737E-09
 -1       982-2.35102E+05-5.30989E+01-2.46471E+03 1.60676E+04-1.21418E-10 2.84099E-09
 -1       983-2.34743E+05-3.08494E+01-4.78848E+03 1.13217E+04 2.87514E-09-2.27226E-09
 -1       984-2.37405E+05-2.55336E+03-1.07230E+04 1.60033E+04-4.24041E-09 6.81837E-09
 -1       985-2.32576E+05-3.53447E+03-1.96909E+04 1.13862E+04 1.39335E-09 1.19144E-09
 -3
    1PSTEP                        11           6           1          
  100CL  106 4.99023E-01         409                     0    6           1
 -4  DISP        4    1
 -5  D1          1    2    1    0
 -5  D2          1    2    2    0
 -5  D3          1    2    3    0
 -5  ALL         1    2    0    0    1ALL
 -1         1 1.49621E-04 0.00000E+00 0.00000E+00
 -1         2 1.35231E-04-1.70082E-32 0.00000E+00
 -1         3 1.32665E-04 4.00885E-28 6.61744E-24
 -1         5 8.97461E-05 2.73764E-27 6.61744E-24
 -1         8 1.24707E-04-8.83612E-07 0.00000E+00
 -1         9 1.22629E-04 8.00348E-09 0.00000E+00
 -1        10 1.22421E-04-1.77116E-06 0.00000E+00
 -1        12 8.94052E-05 5.53747E-07 0.00000E+00
 -1        15 9.50138E-05-9.78291E-07 0.00000E+00
 -1        16 9.86459E-05-1.67302E-07 0.00000E+00
 -1        17 8.98255E-05-3.75814E-06 0.00000E+00
 -1        18 8.73129E-05 3.18161E-06 0.00000E+00
 -1        19 8.83824E-05 1.10451E-06 0.00000E+00
 -1        20 8.85213E-05 1.34494E-05 0.00000E+00
 -1        21 8.79813E-05 2.48934E-05 0.00000E+00
 -1        24 2.01860E-05-5.19307E-06 0.00000E+00
 -1        25 8.65807E-05 3.31477E-06 0.00000E+00
 -1        26 8.75778E-05 1.53773E-06 0.00000E+00
 -1        27 8.60452E-05 1.10050E-05 0.00000E+00
 -1        28 8.55825E-05 2.44287E-05 0.00000E+00
 -1        32 0.00000E+00 0.00000E+00 0.00000E+00
 -1        33 8.54951E-05 2.05916E-06 0.00000E+00
 -1        34 8.40286E-05 1.09818E-05 0.00000E+00
 -1        35 8.26396E-05 2.41827E-05 0.00000E+00
 -1        51 1.48003E-04-1.45926E-07 0.00000E+00
 -1        52 1.45002E-04-2.87102E-07 0.00000E+00
 -1        53 1.40889E-04-4.29676E-07 0.00000E+00
 -1        54 1.35947E-04-5.75199E-07 3.30872E-24
 -1        55 1.30459E-04-7.24465E-07-3.92911E-24
 -1        56 1.48290E-04-7.94866E-07 0.00000E+00
 -1        57 1.47085E-04-2.07970E-06 1.32349E-23
 -1        58 1.46012E-04-3.70932E-06 0.00000E+00
 -1        59 1.45008E-04-5.55031E-06 2.64698E-23
 -1        60 1.44025E-04-7.44722E-06 0.00000E+00
 -1        61 1.43004E-04-9.24625E-06-2.64698E-23
 -1        62 1.41890E-04-1.07998E-05 5.29396E-23
 -1        63 1.40633E-04-1.19693E-05-2.64698E-23
 -1        64 1.39190E-04-1.26431E-05 5.29396E-23
 -1        65 1.37525E-04-1.27267E-05 0.00000E+00
 -1        66 1.35620E-04-1.21672E-05 5.29396E-23
 -1        67 1.33461E-04-1.09335E-05-2.64698E-23
 -1        68 1.31056E-04-9.04282E-06 0.00000E+00
 -1        69 1.28424E-04-6.53178E-06 0.00000E+00
 -1        70 1.25587E-04-3.48686E-06 0.00000E+00
 -1        86 1.34884E-04 8.88750E-09 0.00000E+00
 -1        87 1.33841E-04 1.67748E-08 2.06795E-25
 -1        88 1.32099E-04 2.36488E-08 1.65436E-24
 -1        89 1.29655E-04 2.57415E-08 1.65436E-24
 -1        90 1.26501E-04 2.70635E-08-6.61744E-24
 -1       121 1.32379E-04-2.93265E-07 0.00000E+00
 -1       122 1.31521E-04-5.86850E-07 3.30872E-24
 -1       123 1.30092E-04-8.81073E-07 0.00000E+00
 -1       124 1.28097E-04-1.17629E-06 0.00000E+00
 -1       125 1.25538E-04-1.47273E-06 6.61744E-24
 -1       191 8.97367E-05 9.22964E-08-3.30872E-24
 -1       192 8.97083E-05 1.84591E-07 0.00000E+00
 -1       193 8.96609E-05 2.76886E-07-3.30872E-24
 -1       194 8.95946E-05 3.69178E-07-1.65436E-24
 -1       195 8.95094E-05 4.61466E-07 0.00000E+00
 -1       251 1.24563E-04 3.35777E-06 0.00000E+00
 -1       252 1.24433E-04 6.18971E-06 3.30872E-24
 -1       253 1.24304E-04 7.71411E-06-3.30872E-24
 -1       254 1.24178E-04 8.03945E-06 0.00000E+00
 -1       255 1.24052E-04 7.35115E-06 3.30872E-24
 -1       256 1.23926E-04 5.83982E-06 0.00000E+00
 -1       257 1.23798E-04 3.74876E-06 0.00000E+00
 -1       258 1.23670E-04 1.32426E-06 1.65436E-24
 -1       259 1.23542E-04-1.16614E-06 0.00000E+00
 -1       260 1.23414E-04-3.45445E-06 0.00000E+00
 -1       261 1.23287E-04-5.28565E-06-3.30872E-24
 -1       262 1.23160E-04-6.40712E-06-1.65436E-24
 -1       263 1.23034E-04-6.61163E-06 0.00000E+00
 -1       264 1.22905E-04-5.69665E-06 3.30872E-24
 -1       265 1.22775E-04-3.53154E-06-6.61744E-24
 -1       266 1.19759E-04-9.11450E-07-6.61744E-24
 -1       267 1.14810E-04-9.25760E-07-1.65436E-24
 -1       268 1.09861E-04-9.40927E-07 1.65436E-24
 -1       269 1.04912E-04-9.53556E-07 0.00000E+00
 -1       270 9.99628E-05-9.66125E-07 0.00000E+00
 -1       271 1.21715E-04 2.91278E-06 2.64698E-23
 -1       272 1.19128E-04 5.50380E-06 0.00000E+00
 -1       273 1.16951E-04 7.01158E-06 0.00000E+00
 -1       274 1.15130E-04 7.55722E-06-2.64698E-23
 -1       275 1.13614E-04 7.28549E-06-5.29396E-23
 -1       276 1.12345E-04 6.35316E-06-2.64698E-23
 -1       277 1.11259E-04 4.93012E-06 0.00000E+00
 -1       278 1.10290E-04 3.19474E-06 0.00000E+00
 -1       279 1.09369E-04 1.33132E-06-5.29396E-23
 -1       280 1.08426E-04-4.73469E-07 0.00000E+00
 -1       281 1.07392E-04-2.03423E-06 5.29396E-23
 -1       282 1.06200E-04-3.16975E-06 0.00000E+00
 -1       283 1.04784E-04-3.70717E-06 0.00000E+00
 -1       284 1.03087E-04-3.48264E-06 2.64698E-23
 -1       285 1.01047E-04-2.35033E-06 2.64698E-23
 -1       301 1.18332E-04-3.14659E-08 0.00000E+00
 -1       302 1.14076E-04-5.27356E-08 0.00000E+00
 -1       303 1.09920E-04-7.28893E-08 0.00000E+00
 -1       304 1.05924E-04-9.37259E-08 3.30872E-24
 -1       305 1.02147E-04-1.16048E-07 1.32349E-23
 -1       306 1.19620E-04 2.51223E-06 0.00000E+00
 -1       307 1.17354E-04 2.86524E-06 2.64698E-23
 -1       308 1.15862E-04 1.16758E-06-5.29396E-23
 -1       309 1.15053E-04-2.39397E-06 2.64698E-23
 -1       310 1.14743E-04-7.30064E-06-5.29396E-23
 -1       311 1.14710E-04-1.29626E-05 0.00000E+00
 -1       312 1.14689E-04-1.86569E-05 5.29396E-23
 -1       313 1.14412E-04-2.36601E-05 0.00000E+00
 -1       314 1.13654E-04-2.73682E-05 0.00000E+00
 -1       315 1.12217E-04-2.92501E-05 0.00000E+00
 -1       316 1.10015E-04-2.90935E-05 5.29396E-23
 -1       317 1.07009E-04-2.67988E-05 2.64698E-23
 -1       318 1.03296E-04-2.26387E-05-5.29396E-23
 -1       319 9.90274E-05-1.69836E-05 0.00000E+00
 -1       320 9.44265E-05-1.04726E-05 2.64698E-23
 -1       336 1.18678E-04-2.09484E-06-6.61744E-24
 -1       337 1.14243E-04-2.42166E-06 3.30872E-24
 -1       338 1.09127E-04-2.75150E-06 0.00000E+00
 -1       339 1.03342E-04-3.08435E-06 3.30872E-24
 -1       340 9.69027E-05-3.42109E-06-6.61744E-24
 -1       406 8.92821E-05 6.46014E-07 3.30872E-24
 -1       407 8.91400E-05 7.38249E-07-1.65436E-24
 -1       408 8.89789E-05 8.30424E-07 3.30872E-24
 -1       409 8.87989E-05 9.22425E-07 1.65436E-24
 -1       410 8.86001E-05 1.01407E-06 0.00000E+00
 -1       521 9.98410E-05-1.24446E-05 0.00000E+00
 -1       522 1.10693E-04-5.27742E-05 5.29396E-23
 -1       523 1.28463E-04-1.14456E-04 0.00000E+00
 -1       524 1.50107E-04-1.88930E-04 0.00000E+00
 -1       525 1.72168E-04-2.64796E-04 0.00000E+00
 -1       526 1.91170E-04-3.30528E-04 0.00000E+00
 -1       527 2.03990E-04-3.76863E-04 0.00000E+00
 -1       528 2.07622E-04-3.96253E-04 0.00000E+00
 -1       529 2.00623E-04-3.86986E-04 0.00000E+00
 -1       530 1.82372E-04-3.49731E-04 0.00000E+00
 -1       531 1.54906E-04-2.90964E-04 1.05879E-22
 -1       532 1.21393E-04-2.18770E-04 5.29396E-23
 -1       533 8.66697E-05-1.43929E-04 1.05879E-22
 -1       534 5.57607E-05-7.73958E-05 0.00000E+00
 -1       535 3.25900E-05-2.84934E-05 0.00000E+00
 -1       536 8.96657E-05 5.05090E-06-6.61744E-24
 -1       537 8.94828E-05 1.66751E-05-1.65436E-24
 -1       538 8.92842E-05 2.96322E-05 0.00000E+00
 -1       539 8.90884E-05 4.24339E-05 0.00000E+00
 -1       540 8.89107E-05 5.36274E-05-3.30872E-24
 -1       541 8.87616E-05 6.17685E-05-1.65436E-24
 -1       542 8.86347E-05 6.61389E-05 0.00000E+00
 -1       543 8.85169E-05 6.60399E-05-1.65436E-24
 -1       544 8.83910E-05 6.18320E-05 3.30872E-24
 -1       545 8.82434E-05 5.38974E-05 0.00000E+00
 -1       546 8.80747E-05 4.35033E-05 0.00000E+00
 -1       547 8.78938E-05 3.19297E-05-1.65436E-24
 -1       548 8.77170E-05 2.07374E-05 3.30872E-24
 -1       549 8.75604E-05 1.14857E-05-1.65436E-24
 -1       550 8.74255E-05 5.27314E-06-1.65436E-24
 -1       551 8.06131E-05-3.96997E-06 0.00000E+00
 -1       552 6.96445E-05-4.19484E-06 1.65436E-24
 -1       553 5.75144E-05-4.43193E-06 0.00000E+00
 -1       554 4.48262E-05-4.67772E-06 6.61744E-24
 -1       555 3.21836E-05-4.92572E-06 0.00000E+00
 -1       556 8.73546E-05 2.64479E-06 0.00000E+00
 -1       557 8.54386E-05 7.62022E-06 0.00000E+00
 -1       558 8.40181E-05 1.12949E-05 0.00000E+00
 -1       559 8.30395E-05 1.38058E-05 0.00000E+00
 -1       560 8.24488E-05 1.52900E-05 0.00000E+00
 -1       561 8.21931E-05 1.58850E-05 0.00000E+00
 -1       562 8.22196E-05 1.57287E-05 0.00000E+00
 -1       563 8.24760E-05 1.49591E-05 0.00000E+00
 -1       564 8.29103E-05 1.37145E-05 6.61744E-24
 -1       565 8.34704E-05 1.21331E-05 0.00000E+00
 -1       566 8.41047E-05 1.03532E-05 0.00000E+00
 -1       567 8.47614E-05 8.51314E-06-3.10193E-25
 -1       568 8.53890E-05 6.75135E-06 0.00000E+00
 -1       569 8.59357E-05 5.20601E-06 0.00000E+00
 -1       570 8.63498E-05 4.01537E-06 0.00000E+00
 -1       571 8.73778E-05 3.08775E-06 1.24077E-24
 -1       572 8.74441E-05 2.94838E-06-2.06795E-25
 -1       573 8.75109E-05 2.77182E-06 8.27181E-25
 -1       574 8.75778E-05 2.56682E-06-8.27181E-25
 -1       575 8.76449E-05 2.34218E-06 0.00000E+00
 -1       576 8.77119E-05 2.10674E-06 8.27181E-25
 -1       577 8.77790E-05 1.86934E-06 0.00000E+00
 -1       578 8.78461E-05 1.63886E-06 0.00000E+00
 -1       579 8.79131E-05 1.42415E-06 3.30872E-24
 -1       580 8.79802E-05 1.23406E-06 0.00000E+00
 -1       581 8.80473E-05 1.07746E-06 3.30872E-24
 -1       582 8.81144E-05 9.63197E-07 0.00000E+00
 -1       583 8.81815E-05 9.00108E-07 0.00000E+00
 -1       584 8.82486E-05 8.96947E-07 0.00000E+00
 -1       585 8.83156E-05 9.62407E-07 0.00000E+00
 -1       586 8.71670E-05 3.20508E-06 1.65436E-24
 -1       587 8.69920E-05 3.22805E-06-4.13590E-25
 -1       588 8.68167E-05 3.25079E-06 0.00000E+00
 -1       589 8.66704E-05 3.27318E-06 0.00000E+00
 -1       590 8.65823E-05 3.29497E-06 0.00000E+00
 -1       591 8.73147E-05 3.12554E-06 1.55096E-25
 -1       592 8.73270E-05 3.03416E-06 0.00000E+00
 -1       593 8.73498E-05 2.91426E-06 0.00000E+00
 -1       594 8.73807E-05 2.77189E-06 4.13590E-25
 -1       595 8.74177E-05 2.61323E-06 0.00000E+00
 -1       596 8.74585E-05 2.44436E-06-4.13590E-25
 -1       597 8.75007E-05 2.27140E-06 4.13590E-25
 -1       598 8.75423E-05 2.10045E-06-4.13590E-25
 -1       599 8.75807E-05 1.93759E-06-4.13590E-25
 -1       600 8.76139E-05 1.78894E-06 0.00000E+00
 -1       601 8.76395E-05 1.66058E-06 0.00000E+00
 -1       602 8.76552E-05 1.55862E-06 1.03398E-25
 -1       603 8.76588E-05 1.48916E-06-1.03398E-25
 -1       604 8.76483E-05 1.45836E-06 1.03398E-25
 -1       605 8.76212E-05 1.47228E-06 0.00000E+00
 -1       606 8.83946E-05 1.40091E-06 0.00000E+00
 -1       607 8.84043E-05 1.78858E-06 0.00000E+00
 -1       608 8.84133E-05 2.26214E-06 0.00000E+00
 -1       609 8.84221E-05 2.81556E-06 0.00000E+00
 -1       610 8.84307E-05 3.44277E-06 0.00000E+00
 -1       611 8.84391E-05 4.13761E-06 0.00000E+00
 -1       612 8.84476E-05 4.89391E-06 0.00000E+00
 -1       613 8.84560E-05 5.70553E-06 0.00000E+00
 -1       614 8.84643E-05 6.56628E-06 0.00000E+00
 -1       615 8.84726E-05 7.47000E-06 0.00000E+00
 -1       616 8.84809E-05 8.41053E-06 1.65436E-24
 -1       617 8.84891E-05 9.38170E-06 0.00000E+00
 -1       618 8.84973E-05 1.03773E-05 0.00000E+00
 -1       619 8.85055E-05 1.13913E-05 0.00000E+00
 -1       620 8.85135E-05 1.24173E-05 0.00000E+00
 -1       621 8.81847E-05 1.17676E-06 0.00000E+00
 -1       622 8.80226E-05 1.24938E-06 8.27181E-25
 -1       623 8.78885E-05 1.32198E-06-1.65436E-24
 -1       624 8.77749E-05 1.39446E-06-8.27181E-25
 -1       625 8.76738E-05 1.46682E-06 0.00000E+00
 -1       626 8.83483E-05 1.42376E-06 0.00000E+00
 -1       627 8.82866E-05 1.81795E-06 3.30872E-24
 -1       628 8.81996E-05 2.27997E-06 0.00000E+00
 -1       629 8.80900E-05 2.80227E-06 0.00000E+00
 -1       630 8.79606E-05 3.37730E-06 3.30872E-24
 -1       631 8.78143E-05 3.99743E-06 0.00000E+00
 -1       632 8.76540E-05 4.65505E-06 0.00000E+00
 -1       633 8.74824E-05 5.34256E-06 1.65436E-24
 -1       634 8.73024E-05 6.05234E-06-3.30872E-24
 -1       635 8.71169E-05 6.77678E-06 0.00000E+00
 -1       636 8.69288E-05 7.50828E-06 1.65436E-24
 -1       637 8.67408E-05 8.23922E-06 0.00000E+00
 -1       638 8.65559E-05 8.96199E-06-1.65436E-24
 -1       639 8.63767E-05 9.66896E-06 8.27181E-25
 -1       640 8.62059E-05 1.03525E-05 1.65436E-24
 -1       656 8.76895E-05 1.30516E-05 0.00000E+00
 -1       657 8.72068E-05 1.26380E-05-3.30872E-24
 -1       658 8.69423E-05 1.22257E-05-1.32349E-23
 -1       659 8.67614E-05 1.18137E-05 0.00000E+00
 -1       660 8.65125E-05 1.14005E-05 6.61744E-24
 -1       661 8.82144E-05 1.44561E-05 0.00000E+00
 -1       662 8.79304E-05 1.54102E-05 0.00000E+00
 -1       663 8.76653E-05 1.63134E-05 0.00000E+00
 -1       664 8.74189E-05 1.71684E-05-8.27181E-25
 -1       665 8.71898E-05 1.79774E-05-1.65436E-24
 -1       666 8.69772E-05 1.87427E-05 0.00000E+00
 -1       667 8.67802E-05 1.94665E-05-1.65436E-24
 -1       668 8.65980E-05 2.01510E-05 8.27181E-25
 -1       669 8.64299E-05 2.07980E-05 1.65436E-24
 -1       670 8.62751E-05 2.14096E-05 0.00000E+00
 -1       671 8.61329E-05 2.19875E-05-1.65436E-24
 -1       672 8.60025E-05 2.25334E-05 0.00000E+00
 -1       673 8.58835E-05 2.30492E-05 1.65436E-24
 -1       674 8.57744E-05 2.35360E-05-8.27181E-25
 -1       675 8.56758E-05 2.39959E-05 4.13590E-25
 -1       676 8.75804E-05 2.48155E-05 0.00000E+00
 -1       677 8.71798E-05 2.47376E-05 0.00000E+00
 -1       678 8.67795E-05 2.46598E-05 1.65436E-24
 -1       679 8.63797E-05 2.45822E-05 0.00000E+00
 -1       680 8.59807E-05 2.45046E-05-1.65436E-24
 -1       771 1.55036E-05 4.17497E-06 0.00000E+00
 -1       772 1.14609E-05 1.18519E-05 0.00000E+00
 -1       773 8.03015E-06 1.79288E-05 5.29396E-23
 -1       774 5.17097E-06 2.25043E-05-2.64698E-23
 -1       775 2.84337E-06 2.56793E-05 0.00000E+00
 -1       776 1.00566E-06 2.75591E-05 0.00000E+00
 -1       777-3.84336E-07 2.82511E-05 0.00000E+00
 -1       778-1.36974E-06 2.78663E-05 0.00000E+00
 -1       779-1.99397E-06 2.65175E-05 0.00000E+00
 -1       780-2.30124E-06 2.43203E-05-1.32349E-23
 -1       781-2.33592E-06 2.13920E-05-2.64698E-23
 -1       782-2.14297E-06 1.78519E-05 0.00000E+00
 -1       783-1.76744E-06 1.38204E-05 0.00000E+00
 -1       784-1.25482E-06 9.41937E-06 1.32349E-23
 -1       785-6.50556E-07 4.77147E-06 0.00000E+00
 -1       786 8.66394E-05 3.12171E-06-8.27181E-25
 -1       787 8.67016E-05 2.93702E-06-8.27181E-25
 -1       788 8.67635E-05 2.75969E-06 0.00000E+00
 -1       789 8.68261E-05 2.58874E-06 0.00000E+00
 -1       790 8.68887E-05 2.42410E-06 1.65436E-24
 -1       791 8.69514E-05 2.26571E-06 0.00000E+00
 -1       792 8.70142E-05 2.11444E-06 1.65436E-24
 -1       793 8.70770E-05 1.97116E-06-8.27181E-25
 -1       794 8.71398E-05 1.83792E-06 0.00000E+00
 -1       795 8.72026E-05 1.71679E-06 0.00000E+00
 -1       796 8.72654E-05 1.61159E-06 1.65436E-24
 -1       797 8.73281E-05 1.52619E-06-8.27181E-25
 -1       798 8.73909E-05 1.46733E-06-1.65436E-24
 -1       799 8.74535E-05 1.44184E-06 8.27181E-25
 -1       800 8.75161E-05 1.46138E-06 0.00000E+00
 -1       801 7.58257E-05 2.91168E-06 0.00000E+00
 -1       802 4.32110E-05 2.04290E-06 3.30872E-24
 -1       803 1.00307E-05 1.15833E-06-1.32349E-23
 -1       804-2.40557E-06 7.19267E-07 0.00000E+00
 -1       805-2.78691E-06 3.75666E-07 0.00000E+00
 -1       806 8.65764E-05 3.07672E-06 1.65436E-24
 -1       807 8.65683E-05 2.84043E-06 8.27181E-25
 -1       808 8.65572E-05 2.61071E-06-1.65436E-24
 -1       809 8.65417E-05 2.39167E-06 0.00000E+00
 -1       810 8.65205E-05 2.18739E-06 1.65436E-24
 -1       811 8.64923E-05 2.00187E-06-8.27181E-25
 -1       812 8.64555E-05 1.83915E-06 0.00000E+00
 -1       813 8.64087E-05 1.70321E-06 8.27181E-25
 -1       814 8.63503E-05 1.59805E-06 3.30872E-24
 -1       815 8.62788E-05 1.52769E-06 8.27181E-25
 -1       816 8.61929E-05 1.49610E-06 0.00000E+00
 -1       817 8.60909E-05 1.50727E-06 1.65436E-24
 -1       818 8.59714E-05 1.56521E-06-1.65436E-24
 -1       819 8.58331E-05 1.67387E-06-1.65436E-24
 -1       820 8.56744E-05 1.83723E-06 1.65436E-24
 -1       821 8.74876E-05 1.62355E-06 8.27181E-25
 -1       822 8.73918E-05 1.67235E-06 8.27181E-25
 -1       823 8.72964E-05 1.73655E-06 0.00000E+00
 -1       824 8.71999E-05 1.86853E-06 1.65436E-24
 -1       825 8.71034E-05 2.10709E-06 0.00000E+00
 -1       826 8.70066E-05 2.49062E-06 1.65436E-24
 -1       827 8.69097E-05 3.02855E-06 0.00000E+00
 -1       828 8.68127E-05 3.72969E-06-1.65436E-24
 -1       829 8.67156E-05 4.57029E-06 0.00000E+00
 -1       830 8.66185E-05 5.52597E-06-1.65436E-24
 -1       831 8.65213E-05 6.54946E-06 0.00000E+00
 -1       832 8.64243E-05 7.59314E-06 0.00000E+00
 -1       833 8.63273E-05 8.60537E-06 3.30872E-24
 -1       834 8.62315E-05 9.53467E-06 0.00000E+00
 -1       835 8.61355E-05 1.03460E-05 0.00000E+00
 -1       836 8.73787E-05 1.62452E-06 0.00000E+00
 -1       837 8.70650E-05 1.71324E-06 0.00000E+00
 -1       838 8.66781E-05 1.80180E-06 0.00000E+00
 -1       839 8.62598E-05 1.88979E-06 0.00000E+00
 -1       840 8.58516E-05 1.97765E-06 4.13590E-25
 -1       856 8.60197E-05 1.16429E-05 2.06795E-25
 -1       857 8.59911E-05 1.23842E-05 0.00000E+00
 -1       858 8.59626E-05 1.32127E-05 0.00000E+00
 -1       859 8.59336E-05 1.41121E-05-4.13590E-25
 -1       860 8.59044E-05 1.50659E-05-8.27181E-25
 -1       861 8.58752E-05 1.60577E-05 4.13590E-25
 -1       862 8.58459E-05 1.70708E-05 0.00000E+00
 -1       863 8.58165E-05 1.80889E-05 0.00000E+00
 -1       864 8.57872E-05 1.90952E-05 0.00000E+00
 -1       865 8.57579E-05 2.00733E-05-4.13590E-25
 -1       866 8.57286E-05 2.10067E-05-8.27181E-25
 -1       867 8.56994E-05 2.18788E-05-4.13590E-25
 -1       868 8.56702E-05 2.26734E-05 0.00000E+00
 -1       869 8.56410E-05 2.33740E-05-4.13590E-25
 -1       870 8.56119E-05 2.39644E-05 8.27181E-25
 -1       871 8.56040E-05 1.10040E-05 0.00000E+00
 -1       872 8.52631E-05 1.10008E-05 0.00000E+00
 -1       873 8.49791E-05 1.09973E-05 0.00000E+00
 -1       874 8.47079E-05 1.09934E-05 1.03398E-25
 -1       875 8.44056E-05 1.09889E-05-6.20385E-25
 -1       876 8.58970E-05 1.16517E-05 3.30872E-24
 -1       877 8.57319E-05 1.23489E-05 1.65436E-24
 -1       878 8.55503E-05 1.30905E-05 0.00000E+00
 -1       879 8.53544E-05 1.38707E-05 1.65436E-24
 -1       880 8.51462E-05 1.46839E-05 0.00000E+00
 -1       881 8.49278E-05 1.55243E-05-1.65436E-24
 -1       882 8.47013E-05 1.63864E-05 0.00000E+00
 -1       883 8.44688E-05 1.72645E-05 0.00000E+00
 -1       884 8.42324E-05 1.81528E-05-3.30872E-24
 -1       885 8.39942E-05 1.90458E-05 1.65436E-24
 -1       886 8.37563E-05 1.99379E-05 0.00000E+00
 -1       887 8.35209E-05 2.08232E-05 1.65436E-24
 -1       888 8.32900E-05 2.16962E-05 1.65436E-24
 -1       889 8.30654E-05 2.25511E-05 0.00000E+00
 -1       890 8.28492E-05 2.33823E-05 1.65436E-24
 -1       891 8.52043E-05 2.43875E-05 0.00000E+00
 -1       892 8.48082E-05 2.43462E-05 0.00000E+00
 -1       893 8.43741E-05 2.43050E-05 0.00000E+00
 -1       894 8.38814E-05 2.42638E-05-2.06795E-25
 -1       895 8.33100E-05 2.42226E-05-4.13590E-25
 -1       956 8.54052E-05 2.40058E-06-1.65436E-24
 -1       957 8.53138E-05 2.80163E-06 0.00000E+00
 -1       958 8.52220E-05 3.25606E-06 1.65436E-24
 -1       959 8.51302E-05 3.75721E-06 8.27181E-25
 -1       960 8.50382E-05 4.29845E-06 3.30872E-24
 -1       961 8.49462E-05 4.87307E-06 0.00000E+00
 -1       962 8.48542E-05 5.47437E-06 0.00000E+00
 -1       963 8.47621E-05 6.09566E-06 0.00000E+00
 -1       964 8.46701E-05 6.73025E-06 3.30872E-24
 -1       965 8.45780E-05 7.37141E-06 1.65436E-24
 -1       966 8.44860E-05 8.01246E-06 0.00000E+00
 -1       967 8.43940E-05 8.64669E-06 0.00000E+00
 -1       968 8.43020E-05 9.26739E-06-3.30872E-24
 -1       969 8.42102E-05 9.86789E-06 1.65436E-24
 -1       970 8.41187E-05 1.04415E-05 0.00000E+00
 -1       971 8.39429E-05 1.15397E-05 0.00000E+00
 -1       972 8.38560E-05 1.21739E-05 8.27181E-25
 -1       973 8.37690E-05 1.28759E-05 0.00000E+00
 -1       974 8.36818E-05 1.36370E-05-8.27181E-25
 -1       975 8.35945E-05 1.44485E-05 1.65436E-24
 -1       976 8.35072E-05 1.53016E-05-8.27181E-25
 -1       977 8.34198E-05 1.61874E-05 3.30872E-24
 -1       978 8.33324E-05 1.70972E-05-1.65436E-24
 -1       979 8.32450E-05 1.80222E-05 0.00000E+00
 -1       980 8.31576E-05 1.89535E-05-1.65436E-24
 -1       981 8.30703E-05 1.98824E-05 0.00000E+00
 -1       982 8.29830E-05 2.08001E-05-1.65436E-24
 -1       983 8.28959E-05 2.16977E-05 0.00000E+00
 -1       984 8.28091E-05 2.25665E-05 0.00000E+00
 -1       985 8.27227E-05 2.33977E-05 0.00000E+00
 -3
    1PSTEP                        12           6           1          
  100CL  106 4.99023E-01         409                     0    6           1
 -4  STRESS      6    1
 -5  SXX         1    4    1    1
 -5  SYY         1    4    2    2
 -5  SZZ         1    4    3    3
 -5  SXY         1    4    1    2
 -5  SYZ         1    4    2    3
 -5  SZX         1    4    3    1
 -1         1-1.90816E+06-8.40783E+05-3.97638E+05-1.13286E+06 5.38421E-10-5.29690E-09
 -1         2 2.64779E+03 2.91382E+04 8.66103E+03 8.20020E+01-1.24430E-10 8.83284E-09
 -1         3-1.41198E+02-8.37408E+05 1.98279E+02-3.80217E+02-1.04201E-10-8.90032E-09
 -1         5-3.25799E+00 2.64086E+05 6.97449E+00 1.00713E-01 4.33267E-11-2.08579E-08
 -1         8-9.06359E+05-3.59138E+05-6.19992E+04-5.64837E+05 3.01952E-10 3.31784E-09
 -1         9-1.71255E+06-4.99430E+05-1.94310E+05-5.42594E+05 3.37022E-09-4.33647E-09
 -1        10-7.11710E+02-8.72400E+05-1.16727E+03-2.57031E+03-4.13365E-09-5.19424E-09
 -1        12-3.97754E-01 2.64101E+05 2.25939E+02 8.40026E-01 1.39980E-10 1.78420E-09
 -1        15 1.99789E+03 1.09796E+03 6.45817E+03 4.27571E+00-2.37293E-10 6.05942E-09
 -1        16-3.25481E+06-1.25034E+06-5.21793E+05-1.30239E+06 1.19811E-08-5.33570E-09
 -1        17-1.04428E+06-6.10197E+05-2.04603E+05-5.47536E+05-4.85597E-09-7.27305E-09
 -1        18-4.95589E+04-1.63965E+04-3.22928E+04-6.58546E+04 2.65777E-09-1.04410E-08
 -1        19 8.24606E+04 9.83237E+04-4.77477E+02 1.58483E+04-4.42924E-10-3.41097E-09
 -1        20-3.64132E+04-3.88904E+05-8.59309E+04 2.74880E+04 3.69876E-09 4.38498E-09
 -1        21-3.62534E+01-2.22816E+05-7.17585E+02-6.12596E+01-5.23513E-09 2.55394E-09
 -1        24-3.23569E+06-9.19090E+05-4.15135E+05-1.19238E+06-3.02001E-08-1.68317E-08
 -1        25 3.16058E+03-1.37764E+05-1.38938E+04-1.07873E+05 7.47687E-09 1.06309E-08
 -1        26-2.00591E+04 6.69555E+04-1.33409E+04-8.85734E+03 1.41699E-09-1.17425E-09
 -1        27-6.16835E+04-2.13176E+05-7.98354E+04 4.79091E+04 5.94249E-09 4.64752E-09
 -1        28 1.72164E+04-6.17751E+04 1.25995E+04 1.93611E+04 5.69401E-10 3.68880E-09
 -1        32-9.42927E+05-6.89977E+05 2.32476E+05-4.91782E+05-1.35842E-08 1.42255E-08
 -1        33-1.21664E+05 6.27899E+04 2.22017E+04-3.58721E+04 8.52860E-10 2.76365E-09
 -1        34-1.57655E+05-1.58928E+04 3.79475E+02 4.89370E+04 3.94560E-09-1.47581E-09
 -1        35-1.75239E+04-2.45413E+04-9.63668E+02 3.88104E+04 3.83081E-09-9.85892E-10
 -1        51 1.68183E+04-3.63299E+05 4.23897E+04-9.49653E+05 5.82077E-11 5.20959E-09
 -1        52 9.87523E+03-3.61391E+05 2.75000E+04-1.10758E+06 2.18279E-11 1.61817E-08
 -1        53 6.97415E+03-3.74706E+05 2.26353E+04-9.46334E+05 4.14730E-10 1.20926E-08
 -1        54 1.96944E+04-3.73377E+05 3.53796E+04-1.11103E+06 1.30967E-10 2.46655E-08
 -1        55 3.89037E+04-3.86743E+05 6.25837E+04-9.45796E+05 4.94765E-10 1.54796E-08
 -1        56-3.65552E+06-4.10389E+05-2.92376E+05-1.41035E+06-1.23691E-10-3.68163E-09
 -1        57-3.77561E+06-6.72530E+05-1.97123E+05-1.39607E+06 1.44519E-09-1.68729E-08
 -1        58-3.71483E+06-5.02492E+05-6.87762E+04-1.39128E+06-1.53705E-09-1.45847E-08
 -1        59-3.70698E+06-5.64445E+05-4.10564E+04-1.41879E+06-4.19277E-10 7.81938E-09
 -1        60-3.72348E+06-5.15336E+05-1.60501E+04-1.38870E+06-2.08547E-09 7.46513E-09
 -1        61-3.69856E+06-5.47722E+05-9.10786E+03-1.41981E+06 2.75895E-09 1.84332E-09
 -1        62-3.72306E+06-5.18833E+05-4.37419E+03-1.39035E+06-1.67552E-09-9.79648E-09
 -1        63-3.70210E+06-5.40844E+05-3.52483E+03-1.41425E+06 1.97724E-09-5.54894E-09
 -1        64-3.71981E+06-5.22240E+05-4.03478E+03-1.39419E+06 5.32054E-10 1.38357E-09
 -1        65-3.71065E+06-5.34732E+05-7.96654E+03-1.40511E+06-3.86535E-11-1.22568E-08
 -1        66-3.71443E+06-5.25046E+05-1.40545E+04-1.39941E+06-1.24305E-09-3.98995E-09
 -1        67-3.72784E+06-5.39296E+05-3.56357E+04-1.39283E+06-5.55090E-09-7.34872E-10
 -1        68-3.70273E+06-5.18033E+05-5.98185E+04-1.40637E+06 1.01227E-09 8.00355E-10
 -1        69-3.79364E+06-6.27300E+05-1.71254E+05-1.36657E+06 3.54612E-09 6.05905E-09
 -1        70-3.64939E+06-4.39677E+05-2.54076E+05-1.42483E+06-1.00408E-09 6.25732E-09
 -1        86-1.33079E+03 2.62626E+04 9.23891E+03-4.10232E+01 1.15801E-09 4.35017E-09
 -1        87 8.81033E+03 3.21225E+04 1.93260E+04 1.75733E+02 1.94314E-09 2.41315E-08
 -1        88-7.47412E+03 2.32797E+04 2.95484E+04-1.34763E+02 2.83944E-09-4.70504E-09
 -1        89 5.56750E+04 5.38792E+04 7.97213E+04 4.64448E+02 4.37285E-09 3.17905E-09
 -1        90-4.80366E+04 4.52542E+03 1.12626E+05-3.29232E+02 4.62023E-09-1.24476E-09
 -1       121-2.12843E+02-8.37988E+05 1.31851E+02 1.89793E+02 5.06560E-10-1.44810E-08
 -1       122-7.46998E+01-8.37371E+05 4.25773E+02-7.60000E+02-1.78983E-09-1.05147E-08
 -1       123-2.56272E+02-8.38035E+05 6.29959E+02 5.68328E+02 1.38112E-09 7.86895E-09
 -1       124 7.13043E+02-8.36911E+05 1.76752E+03-1.67213E+03-3.31420E-09-4.94765E-09
 -1       125-7.57740E+02-8.38479E+05 2.65086E+03 1.10094E+03 2.18506E-09-6.71753E-09
 -1       191-3.65265E+00 2.64109E+05 8.42685E+00-5.06708E-02 8.46807E-11 2.20052E-09
 -1       192-3.89798E+00 2.64087E+05 1.47626E+01 5.10604E-01 1.45607E-10 1.58275E-09
 -1       193-5.35461E+00 2.64109E+05 2.75420E+01-4.62206E-01 1.70775E-10 8.45921E-09
 -1       194-5.95768E+00 2.64089E+05 5.58274E+01 1.23562E+00 6.53735E-11 1.77581E-08
 -1       195-8.62553E+00 2.64107E+05 1.09289E+02-7.80127E-01 2.69971E-10 1.14369E-08
 -1       251-3.69739E+05-2.27580E+04 5.28726E+04-4.45920E+02-1.01602E-09-8.84029E-10
 -1       252-3.44121E+05 2.62998E+04 3.77851E+04-6.39015E+03 2.36923E-10-4.90172E-09
 -1       253-3.60621E+05-3.54563E+03 1.36119E+04 1.48530E+03-2.80806E-11-3.97722E-09
 -1       254-3.55121E+05 4.07209E+03 8.82426E+03-9.86637E+03 1.73145E-10 3.29237E-09
 -1       255-3.58816E+05-5.56729E+02 3.51317E+03 3.03015E+03 6.00096E-10 5.56065E-09
 -1       256-3.57495E+05 6.68723E+02 2.26092E+03-1.22983E+04-4.20073E-11 9.73242E-09
 -1       257-3.58315E+05-1.04057E+02 1.20065E+03 3.91717E+03 5.31799E-10-4.39002E-10
 -1       258-3.58042E+05 2.70868E+02 1.20560E+03-1.32856E+04-6.85425E-11-8.22637E-09
 -1       259-3.58302E+05-1.36635E+02 1.52339E+03 4.01762E+03-5.28786E-10 2.20717E-09
 -1       260-3.57465E+05 9.65698E+02 3.14725E+03-1.26879E+04 7.35980E-11-7.47480E-09
 -1       261-3.58872E+05-8.11420E+02 5.17510E+03 3.31934E+03 5.62864E-10-2.47155E-09
 -1       262-3.54338E+05 6.01699E+03 1.28791E+04-1.05926E+04 2.46700E-11-9.54833E-09
 -1       263-3.61364E+05-5.21688E+03 2.01875E+04 1.92236E+03-5.96856E-11 2.53931E-09
 -1       264-3.38372E+05 3.88353E+04 5.56413E+04-7.37535E+03-2.34547E-09 1.07184E-08
 -1       265-3.74748E+05-3.35694E+04 7.82521E+04 1.02012E+02-1.29614E-09-2.63390E-09
 -1       266-3.61673E+04-1.69091E+04 8.48715E+04-9.14988E+01 5.09317E-11 4.63643E-10
 -1       267 4.19290E+04 1.97121E+04 5.99794E+04 1.05557E+02-2.18279E-11 2.53099E-09
 -1       268-5.62256E+03-2.79156E+03 2.22945E+04-1.34506E+01 2.91038E-11-8.50028E-09
 -1       269 6.63865E+03 3.34115E+03 1.44907E+04 1.56670E+01 5.13865E-11-4.27979E-09
 -1       270-9.96469E+02-5.48967E+02 6.99487E+03-2.12616E+00-5.02496E-11 8.31923E-09
 -1       271-3.48305E+06-4.35800E+05-2.66661E+05-1.35787E+06 1.43336E-09-8.71660E-09
 -1       272-3.56836E+06-6.40434E+05-1.71417E+05-1.36686E+06-9.92941E-10-5.61704E-09
 -1       273-3.53479E+06-5.00660E+05-6.29993E+04-1.34420E+06 1.02773E-10-5.67161E-09
 -1       274-3.50723E+06-5.61590E+05-3.52175E+04-1.38834E+06 3.89264E-10 1.63018E-08
 -1       275-3.54353E+06-5.05665E+05-1.46655E+04-1.34010E+06 1.31058E-09 2.48292E-09
 -1       276-3.49654E+06-5.56167E+05-7.76233E+03-1.39521E+06 3.41061E-11-7.87441E-09
 -1       277-3.54599E+06-5.04780E+05-3.80693E+03-1.33812E+06 9.11768E-10 9.47716E-09
 -1       278-3.49395E+06-5.57185E+05-2.74792E+03-1.39797E+06-1.17234E-09 4.66187E-09
 -1       279-3.54647E+06-5.04341E+05-2.93366E+03-1.33762E+06-2.96211E-10-2.86150E-09
 -1       280-3.49476E+06-5.57423E+05-5.37883E+03-1.39741E+06 7.12475E-10 3.38696E-09
 -1       281-3.54512E+06-5.04633E+05-9.82507E+03-1.33862E+06-2.28829E-09 3.79259E-10
 -1       282-3.50175E+06-5.61125E+05-2.34914E+04-1.39292E+06-2.04295E-09 2.43017E-09
 -1       283-3.53912E+06-5.01523E+05-4.19387E+04-1.34156E+06 3.12411E-10 3.21597E-09
 -1       284-3.54305E+06-6.12802E+05-1.14083E+05-1.37754E+06-8.82494E-11-5.05679E-09
 -1       285-3.50405E+06-4.59084E+05-1.77563E+05-1.35139E+06-7.82165E-11-4.96948E-09
 -1       301 1.72274E+04-3.31821E+04 1.28983E+05-7.08209E+04-9.38599E-10 5.27825E-09
 -1       302 1.83557E+04-5.64978E+02 8.91015E+04-1.04241E+05 1.24078E-09 7.89623E-09
 -1       303 1.02293E+03-2.09469E+04 7.58046E+04-7.09418E+04-1.01863E-09-9.50786E-09
 -1       304 2.79887E+04 8.65910E+03 1.20787E+05-1.03869E+05 8.69477E-10-1.84082E-09
 -1       305 2.73469E+04-4.18215E+04 1.99095E+05-7.11753E+04-6.91216E-10-1.99907E-09
 -1       306-4.60775E+06-5.32273E+05-3.47614E+05-1.79742E+06 2.57569E-09 1.74623E-10
 -1       307-4.77212E+06-8.36557E+05-2.36382E+05-1.74891E+06-2.23736E-10 7.90169E-09
 -1       308-4.69882E+06-6.27589E+05-8.18823E+04-1.75020E+06 8.22183E-10-6.91216E-11
 -1       309-4.65718E+06-7.36179E+05-4.92758E+04-1.81731E+06 3.38787E-10 2.72394E-09
 -1       310-4.72267E+06-6.30112E+05-1.90980E+04-1.73013E+06 7.16341E-10-1.39062E-09
 -1       311-4.63184E+06-7.30840E+05-1.10816E+04-1.83864E+06 9.42265E-09-5.45822E-09
 -1       312-4.72454E+06-6.32249E+05-5.44818E+03-1.72933E+06-2.86127E-09-3.17843E-09
 -1       313-4.64226E+06-7.14806E+05-4.60649E+03-1.82262E+06-5.30304E-09 6.86236E-09
 -1       314-4.71171E+06-6.46474E+05-6.31531E+03-1.74577E+06-1.88629E-09-6.06042E-09
 -1       315-4.67780E+06-6.81814E+05-1.19185E+04-1.77975E+06-3.20028E-09-2.92084E-09
 -1       316-4.68827E+06-6.65814E+05-2.23119E+04-1.77163E+06-1.96042E-09 4.37467E-10
 -1       317-4.73498E+06-6.62398E+05-5.61756E+04-1.72773E+06 4.34727E-09-4.05635E-09
 -1       318-4.65493E+06-6.66074E+05-9.34676E+04-1.79789E+06-1.05629E-08 5.71890E-09
 -1       319-4.85965E+06-7.89413E+05-2.71186E+05-1.66630E+06-3.97267E-09-1.36788E-09
 -1       320-4.56530E+06-5.40513E+05-3.97065E+05-1.83304E+06 1.02518E-08-1.12195E-08
 -1       336 5.25044E+02-9.07168E+05-5.00583E+03 1.46438E+03-8.54334E-09 4.97857E-09
 -1       337-1.84168E+03-9.08238E+05-5.52066E+03-3.67024E+03-1.57843E-08 1.85537E-09
 -1       338 3.47183E+02-9.07290E+05-7.15797E+03 2.19547E+03-1.14114E-08-1.41154E-09
 -1       339-7.41002E+03-9.11747E+05-1.56522E+04-5.10776E+03-2.08911E-08-2.22735E-09
 -1       340 4.94303E+03-9.03794E+05-2.42259E+04 2.89065E+03-1.32231E-08 1.18271E-08
 -1       406 1.69462E+01 2.64097E+05 4.46150E+02-6.97641E-02 3.95886E-10 1.24683E-08
 -1       407 1.55114E+02 2.64179E+05 9.48027E+02-5.44727E+00 3.19460E-11 1.29842E-08
 -1       408 4.87663E+02 2.64029E+05 1.89351E+03 5.63794E+00 3.14117E-10 2.08092E-09
 -1       409 2.04686E+03 2.64784E+05 4.26263E+03-5.48103E+01 2.84217E-11-3.49678E-09
 -1       410 5.88169E+03 2.63490E+05 8.70207E+03 5.13971E+01 4.47471E-10 8.14225E-09
 -1       521-7.76197E+06-7.57327E+05-6.59279E+05-2.63980E+06-3.97995E-09 5.82077E-10
 -1       522-6.46345E+06-1.89625E+06-2.93367E+05-3.54913E+06-5.59830E-08-1.01281E-08
 -1       523-7.93636E+06-5.37619E+05-1.42746E+05-2.14742E+06-4.87489E-10-3.91374E-08
 -1       524-6.44579E+06-1.99057E+06-5.85684E+04-4.18665E+06 7.81547E-08-6.28734E-08
 -1       525-7.94739E+06-5.36082E+05-3.41248E+04-2.11196E+06 3.36659E-08-3.03771E-08
 -1       526-6.33434E+06-1.73445E+06 4.87995E+04-3.71070E+06 2.98714E-08-3.01225E-09
 -1       527-7.90750E+06-8.95233E+05-9.99570E+04-2.53462E+06 2.31958E-08-8.61837E-09
 -1       528-6.63281E+06-1.02385E+06 1.18697E+05-2.62465E+06 2.52330E-08-1.60599E-08
 -1       529-7.48601E+06-1.36161E+06-1.12358E+05-3.06880E+06 6.63567E-09 1.02227E-09
 -1       530-7.78410E+06-1.80270E+05 6.45573E+04-1.86809E+06-7.26723E-08 5.59794E-08
 -1       531-6.88809E+06-1.64266E+06-4.64696E+04-3.37530E+06-8.71296E-08 2.16096E-09
 -1       532-8.64900E+06 2.19260E+05-5.56274E+04-1.66645E+06 5.26452E-08-7.04013E-08
 -1       533-6.78343E+06-1.64929E+06-1.27108E+05-3.41074E+06 2.66300E-08-1.03417E-07
 -1       534-8.21441E+06-2.38049E+05-2.97991E+05-1.74048E+06-3.10683E-08 8.15726E-08
 -1       535-7.21692E+06-1.26294E+06-6.29840E+05-3.20499E+06-1.14960E-08 5.12518E-08
 -1       536-3.43628E+05-1.25119E+04 2.69025E+04-7.62905E+03-6.89795E-10 1.74896E-08
 -1       537-3.24392E+05 1.43773E+04 2.03618E+04 1.65933E+04-2.31822E-08 1.62679E-08
 -1       538-3.34922E+05-1.75714E+03 7.22702E+03-9.67695E+03 2.12670E-09 1.99029E-08
 -1       539-3.29273E+05 2.25809E+03 5.24280E+03 1.61880E+04 2.34374E-08 1.51385E-08
 -1       540-3.38732E+05-4.15860E+02 9.19828E+02-7.22342E+03-3.56573E-09 7.36668E-09
 -1       541-3.20058E+05 7.83565E+02 3.77456E+03 7.85576E+03-4.72869E-09 1.67960E-08
 -1       542-3.43876E+05-4.97249E+02-1.64447E+03-1.34226E+03-1.27284E-09 8.88147E-09
 -1       543-3.17911E+05 5.12582E+02 3.17385E+03-4.47086E+03 4.76516E-09-3.09241E-09
 -1       544-3.40820E+05-1.95192E+02-1.84471E+03 5.10038E+03-2.82745E-09-1.21507E-08
 -1       545-3.27565E+05-3.47608E+02-3.92415E+01-1.47126E+04-8.58645E-09-1.36863E-08
 -1       546-3.34467E+05 5.61173E+02-2.53619E+03 8.89956E+03-1.16049E-09-1.47180E-08
 -1       547-3.33895E+05-3.01644E+03-5.82240E+03-1.79299E+04-1.66721E-08-1.34175E-08
 -1       548-3.34623E+05 2.58068E+03-1.01384E+04 8.31950E+03-1.82160E-08-1.46174E-08
 -1       549-3.33157E+05-1.81471E+04-2.47597E+04-1.25843E+04-1.07809E-08-9.51468E-09
 -1       550-3.35003E+05 1.55135E+04-3.97431E+04 3.55148E+03 4.23256E-10-1.15051E-08
 -1       551 1.17977E+04-4.73647E+05 2.20980E+04-7.92364E+05-3.74566E-08-9.16771E-10
 -1       552 2.64892E+04-4.79869E+05 2.93567E+04-1.12816E+06-2.92130E-08 1.31586E-08
 -1       553 1.85194E+04-4.85393E+05 4.46750E+04-7.89528E+05-4.54093E-08 1.35478E-08
 -1       554 5.06151E+04-4.71029E+05 9.45069E+04-1.12937E+06-2.94240E-08 1.10687E-08
 -1       555 4.60017E+04-5.03616E+05 1.68968E+05-7.90335E+05-4.72937E-08-8.70568E-09
 -1       556 8.04357E+04-1.49895E+05 5.16854E+04-1.92698E+05-1.00845E-08-5.36966E-09
 -1       557 1.41723E+05-2.00046E+05 2.72399E+04-2.42040E+05 4.14730E-10-1.88993E-09
 -1       558 7.97516E+04-1.56531E+05 1.08703E+04-1.87028E+05-6.83940E-09-1.28675E-08
 -1       559 1.32672E+05-2.06917E+05 5.56257E+03-2.46196E+05 6.92671E-09 3.47427E-09
 -1       560 7.74972E+04-1.55052E+05 2.21445E+03-1.88486E+05-2.18279E-10-6.36646E-10
 -1       561 1.29291E+05-2.05962E+05 1.21069E+03-2.48344E+05-7.27596E-10-3.35376E-09
 -1       562 7.56851E+04-1.53855E+05 4.16895E+02-1.89791E+05 1.43336E-09-6.04587E-09
 -1       563 1.27155E+05-2.05040E+05 2.92842E+02-2.49711E+05 4.80213E-10-8.49104E-09
 -1       564 7.45206E+04-1.53109E+05 9.29556E+01-1.90617E+05 3.97631E-09-2.73940E-09
 -1       565 1.25978E+05-2.04534E+05 8.18811E+01-2.50452E+05 4.13274E-09 7.74889E-09
 -1       566 7.40394E+04-1.52795E+05 1.71820E+00-1.90961E+05-1.75896E-09-1.06775E-08
 -1       567 1.25722E+05-2.04413E+05-7.26108E+01-2.50547E+05 7.33556E-09-1.93540E-09
 -1       568 7.42753E+04-1.52952E+05-2.71562E+02-1.90861E+05-8.58563E-10 1.50067E-09
 -1       569 1.25723E+05-2.04277E+05-6.46407E+02-2.49390E+05-1.62981E-09-4.54020E-09
 -1       570 7.57769E+04-1.54251E+05-1.44868E+03-1.90787E+05 3.52884E-09 7.82165E-11
 -1       571 1.91305E+05 7.01496E+03 1.03736E+04-5.08226E+04-1.30467E-09 3.22916E-09
 -1       572 1.92845E+05 2.45217E+03 5.08259E+03-5.57146E+04 5.14774E-10 4.71118E-10
 -1       573 1.91921E+05 5.97012E+02 2.25790E+03-5.06934E+04-2.64604E-08 6.54836E-09
 -1       574 1.92100E+05 2.08516E+02 1.13137E+03-5.58603E+04-5.69453E-08 8.25958E-09
 -1       575 1.91987E+05 4.43085E+01 5.33236E+02-5.06763E+04-3.03778E-08 7.96263E-10
 -1       576 1.91998E+05 2.78699E+01 2.71517E+02-5.58797E+04-4.35534E-09 1.16052E-09
 -1       577 1.91998E+05 1.44700E+01 1.33785E+02-5.06741E+04-4.42424E-09 6.10908E-09
 -1       578 1.91990E+05 1.78039E+01 7.30782E+01-5.58820E+04-3.56613E-09 1.61663E-09
 -1       579 1.92012E+05 1.08562E+01 4.47412E+01-5.06740E+04-1.48157E-09-8.31142E-09
 -1       580 1.92009E+05 9.55765E+00 4.20356E+01-5.58791E+04-1.64437E-09-4.62978E-09
 -1       581 1.92037E+05 6.93166E-01 5.69089E+01-5.06770E+04-9.86620E-09 2.64754E-09
 -1       582 1.92053E+05 8.46694E+00 1.08831E+02-5.58487E+04-1.99448E-08 4.34875E-09
 -1       583 1.92068E+05 3.06627E+01 2.08153E+02-5.07044E+04-8.07449E-09-1.59116E-09
 -1       584 1.92168E+05 1.92154E+02 4.67296E+02-5.56197E+04-9.12223E-10-1.04432E-08
 -1       585 1.92055E+05 6.00668E+02 9.48001E+02-5.09063E+04-9.78616E-10 2.33740E-09
 -1       586-2.09907E+03 6.55169E+04-2.68655E+03-1.68847E+05 2.14641E-10-6.37874E-09
 -1       587-4.33093E+02 6.51647E+04-1.24633E+02-1.85803E+05 3.51065E-10-9.06311E-10
 -1       588 6.59960E+02 6.52049E+04 2.33882E+03-1.68745E+05 4.82032E-11 1.27211E-08
 -1       589 3.29558E+03 6.64567E+04 6.56953E+03-1.85649E+05-3.81988E-10 2.22044E-08
 -1       590 9.51343E+03 6.44423E+04 1.39800E+04-1.69005E+05-3.36513E-11 1.52941E-08
 -1       591-4.40139E+04-1.21372E+04-1.40424E+04-2.22981E+04-8.31335E-10-5.14683E-09
 -1       592-4.54213E+04-1.54933E+04-7.60598E+03-2.58558E+04 4.53610E-10-1.69860E-09
 -1       593-4.54330E+04-1.11033E+04-3.16643E+03-2.33133E+04 7.65112E-11-4.24666E-09
 -1       594-4.34659E+04-1.34510E+04-1.57922E+03-2.59519E+04 5.39956E-10-3.17527E-09
 -1       595-4.55418E+04-1.10986E+04-7.25718E+02-2.33599E+04 7.85690E-10 1.68839E-09
 -1       596-4.33335E+04-1.33574E+04-3.69868E+02-2.59381E+04 3.37053E-09 4.64775E-09
 -1       597-4.55556E+04-1.11075E+04-2.03479E+02-2.33618E+04 4.92619E-11-4.44919E-09
 -1       598-4.33209E+04-1.33538E+04-1.67379E+02-2.59342E+04-2.99906E-09-1.87015E-11
 -1       599-4.55546E+04-1.11076E+04-2.18568E+02-2.33614E+04 1.36390E-09 3.10808E-09
 -1       600-4.33349E+04-1.33586E+04-4.09842E+02-2.59376E+04-2.13544E-09-3.88019E-09
 -1       601-4.55372E+04-1.10980E+04-8.10543E+02-2.33586E+04 1.32786E-10 7.07837E-09
 -1       602-4.34828E+04-1.34631E+04-1.76753E+03-2.59511E+04 7.02244E-10 2.80647E-09
 -1       603-4.54140E+04-1.11051E+04-3.54524E+03-2.33066E+04 2.35627E-09 1.17689E-09
 -1       604-4.56791E+04-1.57419E+04-8.51616E+03-2.58329E+04-1.34105E-09-4.59613E-09
 -1       605-4.38157E+04-1.22695E+04-1.57226E+04-2.21777E+04 1.28375E-09 8.02083E-09
 -1       606 2.63193E+04-9.25907E+03-1.66623E+04 2.55136E+04-1.52977E-09 1.14233E-09
 -1       607 2.34663E+04-2.99151E+03-8.29687E+03 2.86420E+04-2.21098E-09-1.43268E-09
 -1       608 2.50844E+04-5.09007E+02-3.71552E+03 2.53113E+04 4.54747E-11 1.72190E-09
 -1       609 2.47626E+04-1.36807E+02-1.87659E+03 2.88666E+04-2.63935E-09 4.99176E-09
 -1       610 2.49345E+04 1.89656E+01-8.96426E+02 2.52886E+04-4.83487E-09 8.92669E-10
 -1       611 2.48739E+04 3.08540E+01-4.52100E+02 2.88912E+04-7.80528E-09-4.63342E-09
 -1       612 2.48941E+04 3.39901E+01-2.16318E+02 2.52864E+04-3.93811E-09 7.21320E-09
 -1       613 2.48713E+04 3.92065E+01-9.84848E+01 2.88941E+04-3.34330E-09 9.03810E-10
 -1       614 2.48720E+04 3.48847E+01-2.72812E+01 2.52856E+04-1.31877E-10-7.24185E-10
 -1       615 2.48597E+04 4.46251E+01 3.13435E+01 2.88945E+04 5.60976E-09 3.81397E-09
 -1       616 2.48552E+04 4.05446E+01 1.03110E+02 2.52859E+04-2.67437E-09 2.70256E-09
 -1       617 2.48659E+04 7.05229E+01 2.38936E+02 2.88940E+04 9.84983E-10-5.34055E-09
 -1       618 2.48297E+04 1.12437E+02 4.82895E+02 2.52860E+04-6.26642E-10-7.88668E-09
 -1       619 2.50326E+04 4.46422E+02 1.08530E+03 2.88933E+04-3.70619E-10-9.64042E-09
 -1       620 2.46669E+04 1.26004E+03 2.18162E+03 2.52850E+04 2.04363E-09-1.15278E-09
 -1       621 3.31990E+02 2.07961E+05 2.88839E+03 9.28173E+03-1.41881E-10-1.60048E-09
 -1       622 3.81392E+02 2.08676E+05 2.45846E+03 1.35367E+04-5.99130E-11-1.80012E-09
 -1       623 1.63745E+01 2.08164E+05 2.83580E+03 9.23896E+03-1.58664E-10-9.15952E-09
 -1       624 1.28651E+03 2.09503E+05 5.39262E+03 1.35781E+04-3.43391E-10-1.43654E-08
 -1       625 1.29169E+03 2.07124E+05 9.37832E+03 9.24033E+03 1.00044E-11-5.85482E-09
 -1       626 1.71624E+05 4.68028E+04 3.35652E+03 9.18474E+04-2.74531E-09-1.44610E-09
 -1       627 1.69353E+05 4.84668E+04 1.61742E+03 9.54899E+04-4.09500E-09-5.83782E-10
 -1       628 1.71746E+05 4.52183E+04 6.83152E+02 9.23568E+04-3.17414E-10 7.99037E-09
 -1       629 1.68871E+05 4.80816E+04 3.34902E+02 9.57053E+04 4.52792E-09-4.52985E-10
 -1       630 1.71753E+05 4.51439E+04 1.54917E+02 9.23700E+04-5.26234E-09 2.22576E-09
 -1       631 1.68812E+05 4.80731E+04 8.35248E+01 9.57064E+04-5.89898E-09 3.11825E-08
 -1       632 1.71744E+05 4.51502E+04 5.54007E+01 9.23623E+04-1.13878E-08 2.01305E-09
 -1       633 1.68799E+05 4.80782E+04 6.23678E+01 9.56995E+04-4.19732E-09 6.41535E-09
 -1       634 1.71734E+05 4.51511E+04 1.01334E+02 9.23579E+04 2.68983E-09 9.52014E-10
 -1       635 1.68803E+05 4.80797E+04 2.05704E+02 9.56990E+04 2.37969E-09-6.86668E-11
 -1       636 1.71723E+05 4.51502E+04 4.15580E+02 9.23549E+04-2.33808E-09-6.48265E-09
 -1       637 1.68888E+05 4.81458E+04 9.13451E+02 9.56949E+04-2.23116E-09 5.62454E-09
 -1       638 1.71688E+05 4.53538E+04 1.87728E+03 9.22611E+04-6.52528E-09 5.69526E-09
 -1       639 1.69870E+05 4.95190E+04 4.44113E+03 9.54034E+04-1.23109E-08 1.15569E-08
 -1       640 1.71556E+05 4.94419E+04 9.21644E+03 9.05257E+04-1.54221E-08-5.47470E-09
 -1       656 4.62706E+04-1.17221E+06-1.11697E+05-4.31673E+02 3.85626E-10-9.73179E-09
 -1       657-6.11467E+04-1.22263E+06-9.23860E+04 7.24488E+03 1.89175E-10-7.96663E-09
 -1       658 1.46778E+04-1.18658E+06-5.67084E+04-1.57266E+03 1.11277E-09 6.49462E-09
 -1       659-6.56048E+04-1.22474E+06-9.82416E+04 8.02020E+03 6.87578E-10 6.88137E-09
 -1       660 5.07180E+04-1.17010E+06-1.21769E+05-1.20698E+03-1.74623E-10 2.85401E-09
 -1       661 1.60674E+05 1.74552E+04 1.55106E+04 6.27991E+04 2.81807E-09 3.09046E-09
 -1       662 1.68807E+05 2.95668E+04 1.04516E+04 6.00411E+04 1.32377E-09-2.08672E-09
 -1       663 1.63714E+05 2.24359E+04 3.65602E+03 6.19211E+04-3.49019E-11-6.79393E-09
 -1       664 1.65288E+05 2.37369E+04 2.18591E+03 6.11088E+04 5.92308E-10 6.82121E-12
 -1       665 1.64170E+05 2.31214E+04 8.62273E+02 6.17931E+04-1.52932E-09 1.54895E-09
 -1       666 1.64753E+05 2.29488E+04 5.02952E+02 6.12729E+04-5.12327E-09 6.87123E-09
 -1       667 1.64246E+05 2.32034E+04 2.65288E+02 6.17648E+04-1.83101E-09 9.94678E-10
 -1       668 1.64671E+05 2.28843E+04 2.66043E+02 6.13137E+04 2.68589E-09-2.22294E-09
 -1       669 1.64251E+05 2.31840E+04 3.56688E+02 6.17530E+04 9.96053E-10-3.55760E-09
 -1       670 1.64761E+05 2.30730E+04 7.73419E+02 6.13130E+04 6.76239E-09 2.60576E-09
 -1       671 1.64157E+05 2.30184E+04 1.37218E+03 6.17639E+04-3.62938E-10 1.89272E-09
 -1       672 1.65561E+05 2.44069E+04 3.50981E+03 6.11188E+04-1.40171E-09 1.65710E-09
 -1       673 1.63455E+05 2.18836E+04 5.88156E+03 6.19343E+04-8.10246E-10 1.78898E-09
 -1       674 1.71162E+05 3.38538E+04 1.68200E+04 5.94717E+04 1.54654E-09 7.55108E-10
 -1       675 1.58593E+05 1.38356E+04 2.49662E+04 6.33115E+04 4.72301E-09 2.57478E-09
 -1       676 1.86247E+01-2.22756E+05-8.64875E+02 3.06306E+01-8.02061E-10-5.85804E-09
 -1       677-2.29600E+02-2.22965E+05-1.58282E+03-6.12307E+01-4.38502E-09-1.20624E-08
 -1       678 1.53318E+02-2.22607E+05-2.79800E+03 3.05791E+01-1.77431E-09 4.53777E-10
 -1       679-2.79863E+03-2.24654E+05-6.64665E+03-6.10306E+01-3.99984E-09-6.97363E-09
 -1       680 1.67023E+03-2.21068E+05-1.07122E+04 3.00809E+01-2.08820E-09-4.77208E-09
 -1       771-2.38402E+06-4.37695E+05-6.21169E+04-1.01119E+06-1.19471E-08-9.83709E-09
 -1       772-2.36284E+06-4.74249E+05-3.30829E+04-1.05226E+06-1.01572E-08 5.18958E-09
 -1       773-2.39342E+06-4.30330E+05-1.47373E+04-1.01468E+06-7.01402E-09 6.00267E-09
 -1       774-2.35450E+06-4.67353E+05-7.04780E+03-1.05754E+06 8.95670E-09 5.88625E-09
 -1       775-2.39628E+06-4.28366E+05-3.88904E+03-1.01516E+06-3.46336E-09 1.85173E-09
 -1       776-2.35495E+06-4.67409E+05-1.69838E+03-1.06076E+06-2.96859E-09 2.66391E-09
 -1       777-2.39846E+06-4.26767E+05-1.25778E+03-1.01552E+06 1.66619E-09-3.54521E-09
 -1       778-2.35588E+06-4.67633E+05-4.64700E+02-1.06346E+06 2.72848E-10-6.33372E-09
 -1       779-2.40023E+06-4.25408E+05-5.29845E+02-1.01584E+06-4.32192E-09-3.29965E-09
 -1       780-2.35676E+06-4.67804E+05-2.02565E+02-1.06564E+06-1.39698E-09 7.34690E-09
 -1       781-2.40159E+06-4.24328E+05-3.53994E+02-1.01609E+06-1.38971E-08 2.32194E-09
 -1       782-2.35746E+06-4.67928E+05-3.67319E+02-1.06725E+06-1.67274E-08-2.74395E-09
 -1       783-2.40251E+06-4.23604E+05-7.45628E+02-1.01626E+06-2.37560E-09-5.66979E-09
 -1       784-2.35831E+06-4.68421E+05-1.64312E+03-1.06820E+06-5.67525E-09-1.27329E-10
 -1       785-2.40268E+06-4.23455E+05-3.06221E+03-1.01613E+06-1.30131E-08 4.04270E-09
 -1       786 1.75378E+05-9.40064E+03 2.17488E+04-3.89864E+01 4.37737E-06 1.26120E-08
 -1       787 1.84802E+05 1.08830E+04 1.53868E+04-1.55026E+01 8.72392E-06 5.84805E-09
 -1       788 1.79014E+05-1.47366E+03 5.62917E+03-3.19414E+01 8.52949E-06 1.23032E-09
 -1       789 1.80567E+05 1.70512E+03 3.53687E+03-2.79510E+01 8.31875E-06 2.10154E-08
 -1       790 1.79614E+05-2.30206E+02 1.43919E+03-2.65395E+01 8.44319E-06-7.57166E-09
 -1       791 1.79866E+05 2.67487E+02 8.45050E+02-3.93273E+01 8.55726E-06 1.36348E-08
 -1       792 1.79714E+05-3.71071E+01 3.85792E+02-2.05652E+01 4.28388E-06-1.27864E-08
 -1       793 1.79753E+05 5.21779E+01 2.53031E+02-5.37107E+01 1.34734E-08-4.85701E-09
 -1       794 1.79727E+05-1.50376E+01 1.87780E+02-1.21558E+01 1.29832E-09-3.54317E-09
 -1       795 1.79765E+05 7.77429E+01 2.72120E+02-7.54653E+01-1.12863E-09 5.90493E-09
 -1       796 1.79703E+05-6.26513E+01 4.07908E+02 1.18987E+00 7.88917E-10-4.71246E-09
 -1       797 1.79950E+05 4.59328E+02 9.62047E+02-1.11044E+02-1.06511E-09 5.41024E-09
 -1       798 1.79542E+05-3.96345E+02 1.51859E+03 2.34238E+01 1.45357E-10 3.93834E-09
 -1       799 1.81089E+05 2.92649E+03 4.14009E+03-1.71228E+02 3.75655E-12 9.00150E-09
 -1       800 1.78563E+05-2.52782E+03 5.84803E+03 6.13745E+01-1.88562E-10-1.55637E-09
 -1       801 1.28981E+04-1.19145E+06-1.20159E+05 3.48546E+04 1.39480E-08-1.35619E-08
 -1       802 3.90210E+03-5.42983E+05 6.11063E+04-3.32168E+04 6.26096E-09-6.46924E-09
 -1       803-1.68156E+04-1.18284E+06-2.10642E+04 3.81101E+04 4.29682E-08 2.42113E-08
 -1       804 7.94545E+04-7.27496E+05 1.43401E+05 2.37279E+04-3.58705E-09 1.17244E-09
 -1       805-6.34860E+04-1.00731E+06 1.57462E+05-2.20718E+04 4.36557E-10 1.84025E-08
 -1       806-2.07087E+05-4.41774E+04-1.75232E+04-8.60406E+04 8.47876E-10 8.14362E-09
 -1       807-2.08130E+05-4.16558E+04-8.60877E+03-9.06734E+04 7.67955E-10 1.68251E-09
 -1       808-2.07583E+05-3.78479E+04-3.65181E+03-8.90136E+04-8.84552E-09 1.05575E-09
 -1       809-2.06295E+05-3.92635E+04-1.78528E+03-9.09188E+04-1.34548E-08-9.83391E-10
 -1       810-2.07660E+05-3.76249E+04-8.17495E+02-8.91446E+04 8.06267E-10 1.03275E-08
 -1       811-2.06154E+05-3.91689E+04-4.05463E+02-9.08971E+04 3.66526E-10 4.00678E-09
 -1       812-2.07673E+05-3.76419E+04-2.02476E+02-8.91441E+04-9.92713E-10 3.14367E-09
 -1       813-2.06135E+05-3.91714E+04-1.27843E+02-9.08854E+04 1.53523E-09 1.56151E-08
 -1       814-2.07670E+05-3.76486E+04-1.20179E+02-8.91410E+04-8.35371E-10-4.44902E-09
 -1       815-2.06136E+05-3.91737E+04-1.88201E+02-9.08815E+04 6.39375E-10-5.00791E-09
 -1       816-2.07656E+05-3.76477E+04-3.52815E+02-8.91382E+04 4.10273E-09 6.75936E-09
 -1       817-2.06196E+05-3.92076E+04-7.56222E+02-9.08740E+04 5.98834E-09 1.43525E-08
 -1       818-2.07610E+05-3.77545E+04-1.54132E+03-8.90877E+04-1.50612E-09-2.63799E-09
 -1       819-2.07047E+05-4.01321E+04-3.62720E+03-9.06662E+04-4.65207E-10-5.95855E-09
 -1       820-2.07316E+05-4.04980E+04-7.38217E+03-8.79190E+04 1.15233E-09 6.08304E-09
 -1       821-2.69976E+05 1.49246E+04-3.45155E+04 1.62286E+02 4.04591E-10 2.50657E-09
 -1       822-2.84933E+05-1.72777E+04-2.44247E+04-7.41488E+02-1.51323E-09-9.41327E-10
 -1       823-2.75748E+05 2.33992E+03-8.93949E+03 1.43748E+02 1.57284E-10-5.93900E-09
 -1       824-2.78200E+05-2.70821E+03-5.62433E+03-5.85581E+02 4.04721E-10 5.59248E-09
 -1       825-2.76707E+05 3.66132E+02-2.31246E+03 6.37513E+00-2.22391E-09 1.80353E-09
 -1       826-2.77082E+05-4.31673E+02-1.39418E+03-2.49301E+02-4.17172E-09 1.18665E-09
 -1       827-2.76865E+05 6.48008E+01-7.23456E+02-1.92537E+02-3.87539E-09-7.55466E-09
 -1       828-2.76931E+05-1.31566E+02-6.37330E+02 1.29314E+02-5.12254E-09 3.86208E-09
 -1       829-2.76858E+05 6.63053E+01-7.33796E+02-3.72247E+02-2.83903E-10-4.51905E-12
 -1       830-2.77105E+05-4.42836E+02-1.43147E+03 3.96476E+02 1.04289E-09-8.12861E-10
 -1       831-2.76691E+05 3.76131E+02-2.37125E+03-4.59705E+02-3.42301E-09 6.59190E-09
 -1       832-2.78246E+05-2.78098E+03-5.77820E+03 4.44153E+02-1.46782E-09 5.73959E-09
 -1       833-2.75718E+05 2.40283E+03-9.18240E+03-4.19924E+02-1.16940E-09-2.58933E-09
 -1       834-2.85141E+05-1.77457E+04-2.50863E+04 2.54357E+02-1.02788E-09 1.12286E-08
 -1       835-2.69798E+05 1.53291E+04-3.54564E+04-2.69898E+02 4.70713E-09-2.83762E-10
 -1       836-9.04336E+02 2.54107E+05 1.53681E+04-2.19375E+04 1.06957E-09 5.50654E-09
 -1       837 3.37569E+03 2.58869E+05 1.30937E+04-4.40821E+04 1.89539E-09 8.35485E-10
 -1       838-3.31260E+02 2.55434E+05 1.34635E+04-2.18632E+04 1.45837E-09 8.25287E-09
 -1       839 8.62088E+03 2.62777E+05 2.55895E+04-4.41093E+04 2.18870E-09 3.15310E-09
 -1       840-2.59542E+03 2.50160E+05 4.08544E+04-2.19089E+04 1.32241E-09-3.57772E-09
 -1       856-7.90049E+04 7.00117E+03-1.84499E+04-4.07616E+02-1.64658E-09 1.93268E-09
 -1       857-8.66251E+04-8.21192E+03-1.27023E+04 4.25823E+03-1.14244E-09-6.38670E-09
 -1       858-8.20159E+04 9.81003E+02-4.78825E+03-4.27121E+02-2.65311E-09-6.20480E-09
 -1       859-8.31675E+04-1.14098E+03-2.89179E+03 4.28926E+03-1.79091E-09-3.08319E-10
 -1       860-8.24661E+04 1.36458E+02-1.21569E+03-4.38755E+02 1.01903E-09-3.23701E-09
 -1       861-8.26490E+04-1.51000E+02-6.76655E+02 4.30518E+03-3.71034E-09 9.64064E-11
 -1       862-8.25361E+04 1.80799E+01-2.97090E+02-4.43071E+02 4.37534E-09 2.52673E-09
 -1       863-8.25660E+04-1.10019E+01-1.44117E+02 4.30716E+03 1.02647E-08-7.28139E-10
 -1       864-8.25493E+04-4.55237E-01-3.96027E+01-4.40733E+02 3.97314E-09-4.03780E-09
 -1       865-8.25398E+04 2.39933E+01 4.28530E+01 4.29531E+03 1.82558E-09-1.23257E-08
 -1       866-8.25608E+04-1.73290E+01 1.27843E+02-4.31222E+02-5.14348E-10-1.08923E-08
 -1       867-8.24686E+04 1.44973E+02 3.41355E+02 4.26948E+03 1.40878E-09 3.39185E-10
 -1       868-8.26176E+04-1.20459E+02 5.73586E+02-4.14905E+02-3.43448E-10 1.20622E-10
 -1       869-8.20400E+04 9.99559E+02 1.53718E+03 4.22673E+03-3.19778E-09-2.52149E-09
 -1       870-8.29848E+04-8.50465E+02 2.22938E+03-3.88479E+02-1.05734E-09 1.67802E-10
 -1       871-3.92918E+03-8.86049E+03-1.27935E+04 8.39713E+04 1.38698E-09 1.31604E-09
 -1       872-1.69772E+03-1.17292E+04-5.22581E+03 1.08865E+05 2.84081E-09-1.13891E-09
 -1       873-2.92294E+01-1.03872E+04 7.17919E+02 8.37869E+04 1.26806E-09-1.41290E-09
 -1       874 1.96372E+03-8.54409E+03 7.19371E+03 1.08902E+05 3.15868E-09-2.06603E-09
 -1       875 4.63202E+03-1.20953E+04 1.59715E+04 8.39414E+04 8.98581E-10 4.47108E-09
 -1       876 2.07992E+05 3.58217E+04 1.11125E+04 8.43663E+04-2.78840E-09-4.63660E-09
 -1       877 2.08628E+05 3.82615E+04 5.93433E+03 8.76536E+04-5.13774E-09 1.13084E-09
 -1       878 2.09031E+05 3.45917E+04 2.48620E+03 8.52787E+04 2.03909E-09-2.68415E-09
 -1       879 2.07116E+05 3.67561E+04 1.23851E+03 8.77321E+04-1.11049E-09 1.13630E-10
 -1       880 2.09107E+05 3.45781E+04 5.76600E+02 8.53158E+04 2.04295E-09-5.28416E-09
 -1       881 2.07015E+05 3.66921E+04 3.07131E+02 8.77164E+04 6.37738E-09 2.95699E-09
 -1       882 2.09114E+05 3.45872E+04 1.95140E+02 8.53169E+04 1.07495E-08 2.54623E-09
 -1       883 2.07008E+05 3.66891E+04 2.07613E+02 8.77118E+04 1.26553E-08-7.61291E-09
 -1       884 2.09110E+05 3.45849E+04 3.28295E+02 8.53170E+04 8.58455E-09-9.95198E-09
 -1       885 2.07034E+05 3.66938E+04 6.58826E+02 8.77200E+04 8.30556E-09-2.00601E-08
 -1       886 2.09085E+05 3.45656E+04 1.32726E+03 8.53144E+04 7.84812E-09 9.55197E-10
 -1       887 2.07267E+05 3.68466E+04 2.89902E+03 8.77536E+04 5.68377E-10 5.04770E-10
 -1       888 2.08901E+05 3.45979E+04 5.84157E+03 8.52216E+04-3.03146E-10 8.35234E-09
 -1       889 2.10749E+05 4.04606E+04 1.39550E+04 8.76432E+04-5.02354E-11-1.07252E-09
 -1       890 2.06521E+05 3.74253E+04 2.61367E+04 8.29934E+04 4.24802E-09-9.18590E-11
 -1       891-1.27170E+02-1.18025E+05-1.39652E+03 2.22462E+04-2.46814E-10 5.98004E-09
 -1       892-2.21931E+02-1.18360E+05-1.51814E+03 3.36684E+04-2.45154E-09 1.45227E-08
 -1       893-3.45384E+01-1.18068E+05-2.16836E+03 2.22506E+04 2.40652E-09 2.87855E-09
 -1       894-1.18194E+03-1.19190E+05-4.50146E+03 3.35484E+04 3.65480E-09-6.77142E-09
 -1       895-9.24507E+02-1.17131E+05-7.93226E+03 2.23647E+04 9.30413E-10 5.47971E-10
 -1       956-2.61863E+05-3.78370E+03-9.51960E+03 1.77413E+04-2.16505E-09-2.82307E-09
 -1       957-2.63743E+05-1.27787E+03-4.88695E+03 2.13604E+04-1.58616E-09 5.00222E-11
 -1       958-2.62708E+05-1.03382E+02-2.20174E+03 1.76269E+04 6.14818E-10-3.33216E-09
 -1       959-2.62858E+05-1.92483E+01-1.12456E+03 2.14848E+04-7.86940E-10 7.23480E-09
 -1       960-2.62784E+05 3.03557E+01-5.48142E+02 1.76159E+04-2.24873E-09 2.72712E-09
 -1       961-2.62794E+05 2.84541E+01-2.90572E+02 2.14972E+04-4.13934E-09-2.17506E-09
 -1       962-2.62800E+05 2.67608E+01-1.65862E+02 1.76143E+04-3.75599E-09 5.90717E-10
 -1       963-2.62792E+05 2.98456E+01-1.32287E+02 2.14995E+04-6.16660E-09 5.59407E-09
 -1       964-2.62803E+05 2.87497E+01-1.59541E+02 1.76136E+04-1.86958E-09 3.63059E-09
 -1       965-2.62802E+05 3.28188E+01-2.74801E+02 2.14996E+04 1.99447E-09 2.90584E-10
 -1       966-2.62795E+05 3.62198E+01-5.15343E+02 1.76142E+04-1.50965E-09-2.83626E-09
 -1       967-2.62870E+05-7.75029E+00-1.05671E+03 2.14928E+04 1.43154E-09-3.16527E-09
 -1       968-2.62730E+05-8.54309E+01-2.06783E+03 1.76205E+04 1.51203E-10 1.04814E-09
 -1       969-2.63708E+05-1.18655E+03-4.59115E+03 2.14184E+04-1.13687E-10-1.05017E-08
 -1       970-2.61941E+05-3.54052E+03-8.94257E+03 1.76907E+04 6.62112E-10 1.20235E-09
 -1       971-2.48001E+05-1.30276E+03-7.23969E+03 1.20102E+04-4.60886E-09 3.98410E-09
 -1       972-2.49761E+05-9.34328E+02-3.94277E+03 1.67705E+04-2.92675E-09 7.41352E-10
 -1       973-2.48805E+05-9.12955E+00-1.76544E+03 1.19103E+04-3.43653E-09 5.53825E-09
 -1       974-2.48928E+05-9.42061E+00-9.14627E+02 1.68784E+04-1.26579E-09-5.69526E-09
 -1       975-2.48868E+05 2.45111E+01-4.56141E+02 1.19014E+04 3.01952E-10-4.11819E-09
 -1       976-2.48878E+05 2.82668E+01-2.61374E+02 1.68893E+04 4.56566E-10-6.41296E-09
 -1       977-2.48879E+05 2.41531E+01-1.86442E+02 1.18994E+04 4.71914E-09-3.21427E-09
 -1       978-2.48880E+05 3.23547E+01-2.13772E+02 1.68921E+04 9.73506E-09 7.18501E-09
 -1       979-2.48879E+05 2.98449E+01-3.39647E+02 1.18985E+04 1.20033E-08 7.35542E-09
 -1       980-2.48905E+05 3.44075E+01-6.53422E+02 1.68925E+04 1.29902E-08-9.03697E-10
 -1       981-2.48858E+05 4.61233E+01-1.26425E+03 1.18989E+04 1.40788E-08 7.32030E-10
 -1       982-2.49079E+05-5.88409E+01-2.61246E+03 1.68875E+04 1.73286E-08-1.44087E-09
 -1       983-2.48699E+05-3.45754E+01-5.07560E+03 1.19037E+04 1.45790E-08 3.29237E-09
 -1       984-2.51520E+05-2.70919E+03-1.13660E+04 1.68197E+04 1.55524E-09 5.75483E-10
 -1       985-2.46402E+05-3.74838E+03-2.08716E+04 1.19711E+04 2.89947E-09 2.87491E-09
 -3
    1PSTEP                        13           7           1          
  100CL  107 5.25391E-01         409                     0    7           1
 -4  DISP        4    1
 -5  D1          1    2    1    0
 -5  D2          1    2    2    0
 -5  D3          1    2    3    0
 -5  ALL         1    2    0    0    1ALL
 -1         1 1.71772E-04 0.00000E+00 0.00000E+00
 -1         2 1.53545E-04-1.67022E-30 1.65436E-24
 -1         3 1.55097E-04 7.10081E-28 6.61744E-24
 -1         5 9.97772E-05-5.42827E-26 0.00000E+00
 -1         8 1.46515E-04-8.76145E-07 0.00000E+00
 -1         9 1.41767E-04-4.17485E-07 0.00000E+00
 -1        10 1.42738E-04-2.01750E-06-6.61744E-24
 -1        12 9.96756E-05 5.95728E-07 0.00000E+00
 -1        15 1.16391E-04-9.72957E-07-4.13590E-25
 -1        16 1.20945E-04-6.07471E-07 0.00000E+00
 -1        17 1.03561E-04-4.30412E-06 0.00000E+00
 -1        18 9.82253E-05 6.73612E-06 0.00000E+00
 -1        19 9.93709E-05 1.18829E-06 0.00000E+00
 -1        20 9.95149E-05 1.11192E-05 0.00000E+00
 -1        21 9.89354E-05 1.98521E-05 3.30872E-24
 -1        24 2.15785E-05-6.04013E-06 0.00000E+00
 -1        25 9.86803E-05 6.88608E-06 0.00000E+00
 -1        26 9.97330E-05 1.65549E-06 0.00000E+00
 -1        27 9.80908E-05 8.51500E-06 0.00000E+00
 -1        28 9.76313E-05 1.93632E-05 0.00000E+00
 -1        32 0.00000E+00 0.00000E+00 0.00000E+00
 -1        33 9.87751E-05 2.21627E-06 0.00000E+00
 -1        34 9.72181E-05 8.48850E-06 0.00000E+00
 -1        35 9.57503E-05 1.91036E-05 0.00000E+00
 -1        51 1.70132E-04-1.45373E-07 0.00000E+00
 -1        52 1.67091E-04-2.85205E-07 0.00000E+00
 -1        53 1.62922E-04-4.26329E-07 0.00000E+00
 -1        54 1.57912E-04-5.70394E-07-3.30872E-24
 -1        55 1.52347E-04-7.18257E-07 6.20385E-24
 -1        56 1.70264E-04-8.33133E-07-2.64698E-23
 -1        57 1.68858E-04-2.11231E-06-2.64698E-23
 -1        58 1.67570E-04-3.69575E-06 0.00000E+00
 -1        59 1.66337E-04-5.45678E-06 0.00000E+00
 -1        60 1.65114E-04-7.24667E-06 0.00000E+00
 -1        61 1.63846E-04-8.91967E-06 2.64698E-23
 -1        62 1.62482E-04-1.03384E-05 5.29396E-23
 -1        63 1.60976E-04-1.13760E-05 2.64698E-23
 -1        64 1.59290E-04-1.19352E-05 0.00000E+00
 -1        65 1.57395E-04-1.19374E-05 0.00000E+00
 -1        66 1.55278E-04-1.13477E-05-5.29396E-23
 -1        67 1.52935E-04-1.01538E-05 0.00000E+00
 -1        68 1.50378E-04-8.39138E-06 0.00000E+00
 -1        69 1.47636E-04-6.11478E-06 2.64698E-23
 -1        70 1.44734E-04-3.42542E-06 0.00000E+00
 -1        86 1.53202E-04-6.24827E-08 3.30872E-24
 -1        87 1.52174E-04-1.25947E-07 0.00000E+00
 -1        88 1.50484E-04-1.90352E-07 0.00000E+00
 -1        89 1.48156E-04-2.59328E-07 3.30872E-24
 -1        90 1.45235E-04-3.28663E-07 0.00000E+00
 -1       121 1.54751E-04-3.33482E-07-6.61744E-24
 -1       122 1.53715E-04-6.67429E-07-6.61744E-24
 -1       123 1.51991E-04-1.00230E-06 1.32349E-23
 -1       124 1.49583E-04-1.33860E-06 6.61744E-24
 -1       125 1.46496E-04-1.67668E-06 0.00000E+00
 -1       191 9.97744E-05 9.92918E-08 0.00000E+00
 -1       192 9.97659E-05 1.98582E-07-1.65436E-24
 -1       193 9.97518E-05 2.97873E-07-3.30872E-24
 -1       194 9.97321E-05 3.97163E-07 0.00000E+00
 -1       195 9.97067E-05 4.96448E-07-3.30872E-24
 -1       251 1.46210E-04 3.62705E-06 1.32349E-23
 -1       252 1.45911E-04 7.07857E-06 3.30872E-24
 -1       253 1.45615E-04 9.36048E-06 0.00000E+00
 -1       254 1.45322E-04 1.03688E-05-3.30872E-24
 -1       255 1.45029E-04 1.01849E-05 6.61744E-24
 -1       256 1.44735E-04 8.90466E-06 0.00000E+00
 -1       257 1.44440E-04 6.78338E-06 0.00000E+00
 -1       258 1.44144E-04 4.08655E-06 3.30872E-24
 -1       259 1.43847E-04 1.16335E-06 0.00000E+00
 -1       260 1.43550E-04-1.63421E-06 3.30872E-24
 -1       261 1.43254E-04-3.97246E-06-6.61744E-24
 -1       262 1.42960E-04-5.52326E-06-3.30872E-24
 -1       263 1.42666E-04-6.07314E-06 1.32349E-23
 -1       264 1.42371E-04-5.42055E-06 0.00000E+00
 -1       265 1.42075E-04-3.53921E-06 1.32349E-23
 -1       266 1.41494E-04-9.04377E-07 6.61744E-24
 -1       267 1.36474E-04-9.19038E-07 0.00000E+00
 -1       268 1.31453E-04-9.34558E-07 0.00000E+00
 -1       269 1.26432E-04-9.47533E-07 0.00000E+00
 -1       270 1.21412E-04-9.60447E-07 0.00000E+00
 -1       271 1.43500E-04 3.02944E-06 0.00000E+00
 -1       272 1.40872E-04 5.78147E-06-1.32349E-23
 -1       273 1.38641E-04 7.48737E-06-5.29396E-23
 -1       274 1.36757E-04 8.25293E-06-2.64698E-23
 -1       275 1.35177E-04 8.20690E-06-5.29396E-23
 -1       276 1.33848E-04 7.48973E-06 0.00000E+00
 -1       277 1.32712E-04 6.25507E-06-5.29396E-23
 -1       278 1.31709E-04 4.66535E-06 0.00000E+00
 -1       279 1.30775E-04 2.88971E-06 0.00000E+00
 -1       280 1.29846E-04 1.10060E-06 0.00000E+00
 -1       281 1.28859E-04-5.29388E-07 5.29396E-23
 -1       282 1.27749E-04-1.83034E-06 0.00000E+00
 -1       283 1.26454E-04-2.63874E-06 0.00000E+00
 -1       284 1.24922E-04-2.79812E-06 2.64698E-23
 -1       285 1.23092E-04-2.16769E-06 0.00000E+00
 -1       301 1.37940E-04-4.62251E-07 0.00000E+00
 -1       302 1.34155E-04-4.86008E-07-3.30872E-24
 -1       303 1.30489E-04-5.08351E-07 0.00000E+00
 -1       304 1.27016E-04-5.30998E-07-3.30872E-24
 -1       305 1.23810E-04-5.54967E-07 0.00000E+00
 -1       306 1.39149E-04 2.59396E-07 0.00000E+00
 -1       307 1.38157E-04-3.61619E-06 2.64698E-23
 -1       308 1.38595E-04-1.13460E-05 0.00000E+00
 -1       309 1.40094E-04-2.20144E-05 0.00000E+00
 -1       310 1.42114E-04-3.41149E-05 5.29396E-23
 -1       311 1.44072E-04-4.60528E-05-2.64698E-23
 -1       312 1.45402E-04-5.62643E-05 5.29396E-23
 -1       313 1.45567E-04-6.32989E-05 0.00000E+00
 -1       314 1.44251E-04-6.63362E-05 0.00000E+00
 -1       315 1.41224E-04-6.48118E-05 2.64698E-23
 -1       316 1.36593E-04-5.90634E-05 0.00000E+00
 -1       317 1.30574E-04-4.96938E-05 2.64698E-23
 -1       318 1.23663E-04-3.80181E-05 0.00000E+00
 -1       319 1.16435E-04-2.54882E-05 2.64698E-23
 -1       320 1.09504E-04-1.37360E-05 5.29396E-23
 -1       336 1.38228E-04-2.38767E-06-1.32349E-23
 -1       337 1.32888E-04-2.76225E-06 6.61744E-24
 -1       338 1.26732E-04-3.14122E-06 0.00000E+00
 -1       339 1.19779E-04-3.52465E-06-3.30872E-24
 -1       340 1.12048E-04-3.91361E-06 0.00000E+00
 -1       406 9.96389E-05 6.94996E-07 3.30872E-24
 -1       407 9.95966E-05 7.94230E-07-1.65436E-24
 -1       408 9.95486E-05 8.93403E-07 3.30872E-24
 -1       409 9.94950E-05 9.92389E-07 0.00000E+00
 -1       410 9.94357E-05 1.09099E-06 0.00000E+00
 -1       521 1.24099E-04-1.84720E-05 0.00000E+00
 -1       522 1.39790E-04-7.38305E-05-5.29396E-23
 -1       523 1.64146E-04-1.57554E-04 0.00000E+00
 -1       524 1.93151E-04-2.57951E-04 5.29396E-23
 -1       525 2.22495E-04-3.59579E-04-1.05879E-22
 -1       526 2.47858E-04-4.46879E-04 5.29396E-23
 -1       527 2.65203E-04-5.07537E-04-1.05879E-22
 -1       528 2.70456E-04-5.31661E-04-5.29396E-23
 -1       529 2.61422E-04-5.17297E-04 0.00000E+00
 -1       530 2.37027E-04-4.65748E-04-5.29396E-23
 -1       531 1.99962E-04-3.85937E-04 0.00000E+00
 -1       532 1.54633E-04-2.88839E-04-5.29396E-23
 -1       533 1.07884E-04-1.88824E-04-1.05879E-22
 -1       534 6.67975E-05-1.00439E-04 5.29396E-23
 -1       535 3.67341E-05-3.59918E-05 0.00000E+00
 -1       536 1.03337E-04 8.90321E-06 6.61744E-24
 -1       537 1.02974E-04 3.07645E-05 0.00000E+00
 -1       538 1.02488E-04 5.79327E-05-3.30872E-24
 -1       539 1.01951E-04 8.70319E-05 0.00000E+00
 -1       540 1.01465E-04 1.14167E-04-3.30872E-24
 -1       541 1.01117E-04 1.35452E-04 1.65436E-24
 -1       542 1.00899E-04 1.48554E-04 0.00000E+00
 -1       543 1.00761E-04 1.51184E-04 0.00000E+00
 -1       544 1.00601E-04 1.43770E-04-3.30872E-24
 -1       545 1.00329E-04 1.26801E-04 0.00000E+00
 -1       546 9.99326E-05 1.03254E-04 0.00000E+00
 -1       547 9.94495E-05 7.61485E-05 0.00000E+00
 -1       548 9.89768E-05 4.94480E-05 0.00000E+00
 -1       549 9.86083E-05 2.71165E-05-1.65436E-24
 -1       550 9.83651E-05 1.19587E-05 0.00000E+00
 -1       551 9.26219E-05-4.55863E-06 0.00000E+00
 -1       552 7.96789E-05-4.83127E-06-1.65436E-24
 -1       553 6.54125E-05-5.12010E-06 3.30872E-24
 -1       554 5.05137E-05-5.41969E-06 6.61744E-24
 -1       555 3.56736E-05-5.72126E-06 0.00000E+00
 -1       556 1.00577E-04 3.42232E-06 0.00000E+00
 -1       557 9.82337E-05 9.50597E-06 0.00000E+00
 -1       558 9.64645E-05 1.40878E-05 0.00000E+00
 -1       559 9.52085E-05 1.73208E-05 0.00000E+00
 -1       560 9.44054E-05 1.93576E-05 0.00000E+00
 -1       561 9.39956E-05 2.03518E-05 0.00000E+00
 -1       562 9.39200E-05 2.04575E-05 0.00000E+00
 -1       563 9.41200E-05 1.98286E-05 0.00000E+00
 -1       564 9.45372E-05 1.86196E-05 0.00000E+00
 -1       565 9.51136E-05 1.69848E-05 0.00000E+00
 -1       566 9.57913E-05 1.50788E-05 0.00000E+00
 -1       567 9.65125E-05 1.30561E-05 0.00000E+00
 -1       568 9.72196E-05 1.10713E-05 0.00000E+00
 -1       569 9.78549E-05 9.27889E-06 0.00000E+00
 -1       570 9.83606E-05 7.83333E-06 0.00000E+00
 -1       571 9.82948E-05 6.41993E-06 1.65436E-24
 -1       572 9.83659E-05 6.05360E-06-2.06795E-25
 -1       573 9.84374E-05 5.64655E-06-1.65436E-24
 -1       574 9.85091E-05 5.20868E-06 0.00000E+00
 -1       575 9.85808E-05 4.74994E-06 0.00000E+00
 -1       576 9.86526E-05 4.28034E-06-8.27181E-25
 -1       577 9.87244E-05 3.80988E-06 0.00000E+00
 -1       578 9.87963E-05 3.34859E-06 0.00000E+00
 -1       579 9.88681E-05 2.90649E-06 0.00000E+00
 -1       580 9.89399E-05 2.49360E-06 1.65436E-24
 -1       581 9.90118E-05 2.11995E-06 0.00000E+00
 -1       582 9.90836E-05 1.79554E-06 0.00000E+00
 -1       583 9.91555E-05 1.53038E-06 0.00000E+00
 -1       584 9.92274E-05 1.33435E-06 0.00000E+00
 -1       585 9.92992E-05 1.21730E-06-3.30872E-24
 -1       586 9.82811E-05 6.76246E-06-1.65436E-24
 -1       587 9.83038E-05 6.78830E-06 2.06795E-25
 -1       588 9.83240E-05 6.81390E-06-4.13590E-25
 -1       589 9.83729E-05 6.83913E-06 0.00000E+00
 -1       590 9.84816E-05 6.86370E-06 0.00000E+00
 -1       591 9.83052E-05 6.46461E-06 1.03398E-25
 -1       592 9.83958E-05 6.15685E-06 0.00000E+00
 -1       593 9.84972E-05 5.81987E-06 0.00000E+00
 -1       594 9.86068E-05 5.45997E-06 0.00000E+00
 -1       595 9.87225E-05 5.08351E-06 0.00000E+00
 -1       596 9.88420E-05 4.69680E-06-4.13590E-25
 -1       597 9.89629E-05 4.30616E-06 8.27181E-25
 -1       598 9.90830E-05 3.91791E-06 0.00000E+00
 -1       599 9.91998E-05 3.53833E-06 0.00000E+00
 -1       600 9.93110E-05 3.17375E-06 2.06795E-25
 -1       601 9.94142E-05 2.83047E-06 4.13590E-25
 -1       602 9.95072E-05 2.51480E-06 2.06795E-25
 -1       603 9.95875E-05 2.23305E-06-2.06795E-25
 -1       604 9.96531E-05 1.99161E-06-5.16988E-26
 -1       605 9.97015E-05 1.79672E-06 4.13590E-25
 -1       606 9.93835E-05 1.32647E-06 0.00000E+00
 -1       607 9.93935E-05 1.55733E-06 0.00000E+00
 -1       608 9.94029E-05 1.87542E-06 0.00000E+00
 -1       609 9.94119E-05 2.27461E-06 0.00000E+00
 -1       610 9.94208E-05 2.74873E-06 0.00000E+00
 -1       611 9.94296E-05 3.29152E-06 1.65436E-24
 -1       612 9.94383E-05 3.89674E-06 0.00000E+00
 -1       613 9.94470E-05 4.55812E-06 0.00000E+00
 -1       614 9.94557E-05 5.26939E-06 0.00000E+00
 -1       615 9.94643E-05 6.02429E-06 0.00000E+00
 -1       616 9.94729E-05 6.81657E-06-1.65436E-24
 -1       617 9.94815E-05 7.63995E-06 0.00000E+00
 -1       618 9.94900E-05 8.48816E-06 8.27181E-25
 -1       619 9.94985E-05 9.35495E-06 0.00000E+00
 -1       620 9.95068E-05 1.02341E-05 4.13590E-25
 -1       621 9.93437E-05 1.26621E-06 1.65436E-24
 -1       622 9.93657E-05 1.34453E-06 0.00000E+00
 -1       623 9.94264E-05 1.42283E-06 0.00000E+00
 -1       624 9.95149E-05 1.50100E-06 8.27181E-25
 -1       625 9.96207E-05 1.57903E-06 0.00000E+00
 -1       626 9.94011E-05 1.35098E-06 0.00000E+00
 -1       627 9.94037E-05 1.58897E-06-1.65436E-24
 -1       628 9.93810E-05 1.89495E-06 0.00000E+00
 -1       629 9.93357E-05 2.26117E-06 0.00000E+00
 -1       630 9.92707E-05 2.67987E-06 0.00000E+00
 -1       631 9.91889E-05 3.14324E-06 0.00000E+00
 -1       632 9.90934E-05 3.64346E-06 3.30872E-24
 -1       633 9.89869E-05 4.17273E-06 1.65436E-24
 -1       634 9.88724E-05 4.72323E-06-3.30872E-24
 -1       635 9.87529E-05 5.28715E-06 0.00000E+00
 -1       636 9.86313E-05 5.85669E-06 0.00000E+00
 -1       637 9.85105E-05 6.42403E-06-8.27181E-25
 -1       638 9.83933E-05 6.98136E-06-1.65436E-24
 -1       639 9.82827E-05 7.52087E-06 0.00000E+00
 -1       640 9.81813E-05 8.03472E-06-1.65436E-24
 -1       656 9.88374E-05 1.06955E-05 0.00000E+00
 -1       657 9.85231E-05 1.02549E-05 0.00000E+00
 -1       658 9.84376E-05 9.81561E-06 1.32349E-23
 -1       659 9.84422E-05 9.37666E-06-3.30872E-24
 -1       660 9.83789E-05 8.93633E-06 6.61744E-24
 -1       661 9.92657E-05 1.19769E-05 0.00000E+00
 -1       662 9.90412E-05 1.27774E-05 8.27181E-25
 -1       663 9.88372E-05 1.35227E-05-1.65436E-24
 -1       664 9.86534E-05 1.42160E-05 0.00000E+00
 -1       665 9.84881E-05 1.48598E-05 0.00000E+00
 -1       666 9.83405E-05 1.54569E-05 0.00000E+00
 -1       667 9.82095E-05 1.60097E-05 0.00000E+00
 -1       668 9.80942E-05 1.65207E-05 0.00000E+00
 -1       669 9.79938E-05 1.69922E-05 0.00000E+00
 -1       670 9.79073E-05 1.74265E-05-8.27181E-25
 -1       671 9.78339E-05 1.78257E-05-1.65436E-24
 -1       672 9.77728E-05 1.81919E-05 8.27181E-25
 -1       673 9.77233E-05 1.85271E-05 0.00000E+00
 -1       674 9.76840E-05 1.88329E-05 0.00000E+00
 -1       675 9.76551E-05 1.91116E-05 4.13590E-25
 -1       676 9.87174E-05 1.97701E-05-3.30872E-24
 -1       677 9.84996E-05 1.96882E-05 0.00000E+00
 -1       678 9.82820E-05 1.96063E-05 0.00000E+00
 -1       679 9.80646E-05 1.95247E-05 0.00000E+00
 -1       680 9.78477E-05 1.94430E-05 0.00000E+00
 -1       771 1.61732E-05 5.03638E-06 0.00000E+00
 -1       772 1.15273E-05 1.41169E-05 0.00000E+00
 -1       773 7.60729E-06 2.13073E-05 5.29396E-23
 -1       774 4.36504E-06 2.67227E-05 0.00000E+00
 -1       775 1.75309E-06 3.04814E-05 5.29396E-23
 -1       776-2.78090E-07 3.27068E-05 0.00000E+00
 -1       777-1.77854E-06 3.35255E-05 5.29396E-23
 -1       778-2.79942E-06 3.30680E-05 0.00000E+00
 -1       779-3.39224E-06 3.14677E-05 0.00000E+00
 -1       780-3.60942E-06 2.88611E-05 0.00000E+00
 -1       781-3.50354E-06 2.53870E-05-2.64698E-23
 -1       782-3.12790E-06 2.11867E-05 1.32349E-23
 -1       783-2.53587E-06 1.64028E-05 0.00000E+00
 -1       784-1.78132E-06 1.11800E-05 0.00000E+00
 -1       785-9.18090E-07 5.66359E-06 2.64698E-23
 -1       786 9.87422E-05 6.48010E-06 8.27181E-25
 -1       787 9.88078E-05 6.08096E-06 0.00000E+00
 -1       788 9.88732E-05 5.68794E-06 0.00000E+00
 -1       789 9.89393E-05 5.30033E-06 8.27181E-25
 -1       790 9.90054E-05 4.91826E-06 0.00000E+00
 -1       791 9.90716E-05 4.54187E-06 0.00000E+00
 -1       792 9.91378E-05 4.17217E-06 1.65436E-24
 -1       793 9.92041E-05 3.81022E-06-8.27181E-25
 -1       794 9.92704E-05 3.45823E-06 0.00000E+00
 -1       795 9.93367E-05 3.11845E-06 0.00000E+00
 -1       796 9.94030E-05 2.79503E-06 0.00000E+00
 -1       797 9.94693E-05 2.49215E-06 0.00000E+00
 -1       798 9.95355E-05 2.21714E-06 1.65436E-24
 -1       799 9.96016E-05 1.97744E-06-8.27181E-25
 -1       800 9.96678E-05 1.78589E-06 0.00000E+00
 -1       801 7.87718E-05 6.15856E-06-6.61744E-24
 -1       802 1.85247E-05 3.87623E-06 6.61744E-24
 -1       803-3.47031E-05 1.91555E-06-1.32349E-23
 -1       804-3.37328E-05 1.30301E-06-6.61744E-24
 -1       805-1.11131E-05 5.76753E-07 0.00000E+00
 -1       806 9.87511E-05 6.43166E-06 0.00000E+00
 -1       807 9.88186E-05 5.97709E-06-8.27181E-25
 -1       808 9.88836E-05 5.52774E-06-1.65436E-24
 -1       809 9.89444E-05 5.08817E-06 8.27181E-25
 -1       810 9.89998E-05 4.66296E-06-1.65436E-24
 -1       811 9.90481E-05 4.25660E-06 1.65436E-24
 -1       812 9.90876E-05 3.87360E-06 1.65436E-24
 -1       813 9.91167E-05 3.51845E-06-1.65436E-24
 -1       814 9.91336E-05 3.19561E-06 1.65436E-24
 -1       815 9.91368E-05 2.90957E-06 8.27181E-25
 -1       816 9.91245E-05 2.66481E-06-1.65436E-24
 -1       817 9.90951E-05 2.46579E-06 1.65436E-24
 -1       818 9.90469E-05 2.31698E-06-1.65436E-24
 -1       819 9.89784E-05 2.22285E-06 0.00000E+00
 -1       820 9.88879E-05 2.18783E-06 1.65436E-24
 -1       821 9.96362E-05 1.51924E-06 0.00000E+00
 -1       822 9.95335E-05 1.31121E-06 8.27181E-25
 -1       823 9.94312E-05 1.09984E-06-3.30872E-24
 -1       824 9.93278E-05 9.53578E-07-1.65436E-24
 -1       825 9.92243E-05 9.26995E-07 0.00000E+00
 -1       826 9.91206E-05 1.07410E-06-1.65436E-24
 -1       827 9.90169E-05 1.41194E-06 0.00000E+00
 -1       828 9.89130E-05 1.95670E-06 0.00000E+00
 -1       829 9.88090E-05 2.68051E-06-3.30872E-24
 -1       830 9.87049E-05 3.55468E-06 1.65436E-24
 -1       831 9.86008E-05 4.51854E-06 0.00000E+00
 -1       832 9.84969E-05 5.51098E-06-1.65436E-24
 -1       833 9.83930E-05 6.46482E-06-3.30872E-24
 -1       834 9.82904E-05 7.31305E-06 0.00000E+00
 -1       835 9.81875E-05 8.01108E-06-8.27181E-25
 -1       836 9.97324E-05 1.74877E-06 0.00000E+00
 -1       837 9.96096E-05 1.84417E-06 1.65436E-24
 -1       838 9.94083E-05 1.93941E-06 0.00000E+00
 -1       839 9.91728E-05 2.03406E-06-8.27181E-25
 -1       840 9.89471E-05 2.12857E-06 0.00000E+00
 -1       856 9.80656E-05 8.97991E-06 0.00000E+00
 -1       857 9.80372E-05 9.55377E-06-2.06795E-25
 -1       858 9.80090E-05 1.02195E-05 0.00000E+00
 -1       859 9.79802E-05 1.09599E-05-4.13590E-25
 -1       860 9.79512E-05 1.17578E-05 0.00000E+00
 -1       861 9.79222E-05 1.25957E-05 0.00000E+00
 -1       862 9.78931E-05 1.34564E-05 0.00000E+00
 -1       863 9.78640E-05 1.43224E-05-4.13590E-25
 -1       864 9.78349E-05 1.51764E-05-8.27181E-25
 -1       865 9.78058E-05 1.60010E-05-4.13590E-25
 -1       866 9.77767E-05 1.67788E-05-8.27181E-25
 -1       867 9.77476E-05 1.74925E-05 0.00000E+00
 -1       868 9.77187E-05 1.81248E-05 8.27181E-25
 -1       869 9.76896E-05 1.86588E-05-4.13590E-25
 -1       870 9.76607E-05 1.90772E-05-8.27181E-25
 -1       871 9.78352E-05 8.51363E-06 4.13590E-25
 -1       872 9.76862E-05 8.51000E-06 0.00000E+00
 -1       873 9.75971E-05 8.50596E-06 0.00000E+00
 -1       874 9.75208E-05 8.50139E-06 1.03398E-25
 -1       875 9.74101E-05 8.49632E-06-4.13590E-25
 -1       876 9.80129E-05 8.98955E-06 3.30872E-24
 -1       877 9.79172E-05 9.51738E-06 4.96308E-24
 -1       878 9.78041E-05 1.00920E-05 0.00000E+00
 -1       879 9.76759E-05 1.07076E-05-1.65436E-24
 -1       880 9.75347E-05 1.13579E-05 0.00000E+00
 -1       881 9.73827E-05 1.20371E-05-1.65436E-24
 -1       882 9.72221E-05 1.27393E-05 0.00000E+00
 -1       883 9.70551E-05 1.34584E-05 0.00000E+00
 -1       884 9.68840E-05 1.41884E-05 0.00000E+00
 -1       885 9.67110E-05 1.49235E-05 0.00000E+00
 -1       886 9.65383E-05 1.56577E-05 0.00000E+00
 -1       887 9.63681E-05 1.63849E-05 0.00000E+00
 -1       888 9.62025E-05 1.70993E-05-1.65436E-24
 -1       889 9.60436E-05 1.77948E-05-8.27181E-25
 -1       890 9.58935E-05 1.84653E-05 8.27181E-25
 -1       891 9.74354E-05 1.93198E-05 0.00000E+00
 -1       892 9.72208E-05 1.92762E-05 0.00000E+00
 -1       893 9.69662E-05 1.92326E-05 0.00000E+00
 -1       894 9.66503E-05 1.91891E-05 0.00000E+00
 -1       895 9.62520E-05 1.91457E-05 4.13590E-25
 -1       956 9.86796E-05 2.37447E-06-1.65436E-24
 -1       957 9.85825E-05 2.59774E-06 0.00000E+00
 -1       958 9.84851E-05 2.87919E-06-1.65436E-24
 -1       959 9.83876E-05 3.21151E-06 1.65436E-24
 -1       960 9.82899E-05 3.58737E-06-1.65436E-24
 -1       961 9.81923E-05 3.99942E-06-1.65436E-24
 -1       962 9.80946E-05 4.44027E-06-3.30872E-24
 -1       963 9.79969E-05 4.90258E-06 0.00000E+00
 -1       964 9.78991E-05 5.37895E-06-3.30872E-24
 -1       965 9.78014E-05 5.86202E-06 0.00000E+00
 -1       966 9.77037E-05 6.34440E-06-3.30872E-24
 -1       967 9.76061E-05 6.81873E-06-1.65436E-24
 -1       968 9.75084E-05 7.27762E-06 0.00000E+00
 -1       969 9.74110E-05 7.71373E-06-1.65436E-24
 -1       970 9.73138E-05 8.11972E-06 0.00000E+00
 -1       971 9.71275E-05 8.87333E-06-3.30872E-24
 -1       972 9.70356E-05 9.33774E-06-8.27181E-25
 -1       973 9.69436E-05 9.87293E-06 0.00000E+00
 -1       974 9.68515E-05 1.04698E-05 0.00000E+00
 -1       975 9.67592E-05 1.11191E-05 0.00000E+00
 -1       976 9.66670E-05 1.18118E-05 0.00000E+00
 -1       977 9.65746E-05 1.25387E-05 0.00000E+00
 -1       978 9.64823E-05 1.32905E-05-1.65436E-24
 -1       979 9.63900E-05 1.40582E-05-3.30872E-24
 -1       980 9.62976E-05 1.48325E-05-1.65436E-24
 -1       981 9.62053E-05 1.56042E-05 0.00000E+00
 -1       982 9.61131E-05 1.63642E-05 0.00000E+00
 -1       983 9.60210E-05 1.71033E-05 3.30872E-24
 -1       984 9.59293E-05 1.78123E-05 0.00000E+00
 -1       985 9.58381E-05 1.84821E-05 0.00000E+00
 -3
    1PSTEP                        14           7           1          
  100CL  107 5.25391E-01         409                     0    7           1
 -4  STRESS      6    1
 -5  SXX         1    4    1    1
 -5  SYY         1    4    2    2
 -5  SZZ         1    4    3    3
 -5  SXY         1    4    1    2
 -5  SYZ         1    4    2    3
 -5  SZX         1    4    3    1
 -1         1-2.13456E+06-9.19696E+05-4.49220E+05-1.20461E+06 3.56522E-10-1.33441E-08
 -1         2 2.62981E+03-1.75054E+05 8.58380E+03-5.17534E+02-1.13971E-10 3.34427E-09
 -1         3-2.09944E+02-9.51849E+05 2.29230E+02-5.20895E+02-1.34477E-10-2.39197E-09
 -1         5-1.01514E+00 2.84096E+05 7.58174E+00 3.72047E-02-5.64648E-11-5.67070E-10
 -1         8-1.01896E+06-3.82853E+05-8.86613E+04-5.60851E+05-1.27329E-11 9.67702E-10
 -1         9-2.02546E+06-6.33822E+05-2.45527E+05-6.23371E+05 4.36557E-09 8.91741E-09
 -1        10-8.47726E+02-9.91623E+05-1.32136E+03-3.52441E+03-5.46879E-09-1.30678E-08
 -1        12 2.09699E+00 2.84112E+05 2.45427E+02 2.93565E-01 7.53921E-11 1.53418E-08
 -1        15 2.00418E+03 1.10142E+03 6.47850E+03 4.35125E+00-1.86446E-10 2.05396E-08
 -1        16-2.98176E+06-1.25107E+06-4.82797E+05-1.31853E+06 1.14960E-08 5.87897E-09
 -1        17-1.18890E+06-6.81061E+05-2.30852E+05-6.09279E+05-5.01022E-09 6.57165E-09
 -1        18-3.73070E+04-1.29922E+04-3.07820E+04-7.41461E+04 5.68343E-09 1.08957E-09
 -1        19 8.82305E+04 1.05551E+05-4.87501E+02 1.66002E+04-2.04091E-10-4.46453E-09
 -1        20-4.14048E+04-4.15115E+05-9.18999E+04 2.79111E+04 2.29314E-09 6.53987E-09
 -1        21-3.81026E+01-2.34589E+05-7.52989E+02-3.50667E+01-4.82912E-09-1.10393E-08
 -1        24-3.15032E+06-8.30546E+05-3.74454E+05-1.14315E+06-3.55455E-08-1.76369E-08
 -1        25 4.09648E+04-3.04299E+03 2.11999E+04-1.50094E+05 1.34861E-08 8.31860E-09
 -1        26-2.25531E+04 7.19714E+04-1.43671E+04-8.62868E+03 1.19835E-09 5.14660E-09
 -1        27-6.51137E+04-2.27331E+05-8.49126E+04 5.08657E+04 5.67100E-09-2.07365E-10
 -1        28 1.80754E+04-6.53199E+04 1.32793E+04 1.99478E+04 1.94424E-09-1.22171E-10
 -1        32-1.01999E+06-8.71750E+05 2.12293E+05-4.49761E+05-1.37297E-08 2.60220E-08
 -1        33-1.28986E+05 6.75389E+04 2.37378E+04-3.79707E+04 4.32635E-10-6.02389E-10
 -1        34-1.67230E+05-1.71671E+04 4.14776E+02 5.25382E+04 2.09421E-09 1.61754E-09
 -1        35-1.84254E+04-2.59360E+04-1.02065E+03 4.08542E+04 4.07491E-09-1.33393E-11
 -1        51 1.94184E+04-3.57968E+05 4.79856E+04-9.61786E+05 3.20142E-10-5.09317E-09
 -1        52 1.08175E+04-3.55187E+05 3.04153E+04-1.12170E+06 6.54836E-11-1.87501E-08
 -1        53 7.22593E+03-3.69320E+05 2.40764E+04-9.58409E+05 4.29281E-10-3.66708E-09
 -1        54 2.01265E+04-3.67959E+05 3.64357E+04-1.12520E+06-6.54836E-10-9.31323E-09
 -1        55 3.95819E+04-3.81598E+05 6.36980E+04-9.57857E+05 4.07454E-10 9.32414E-09
 -1        56-4.08368E+06-4.57530E+05-3.30455E+05-1.57675E+06 3.63798E-10 4.39468E-09
 -1        57-4.22379E+06-7.49693E+05-2.22839E+05-1.55570E+06 2.01908E-09 1.13359E-08
 -1        58-4.15040E+06-5.62025E+05-7.77198E+04-1.55557E+06-7.73070E-11 7.40692E-09
 -1        59-4.14668E+06-6.26930E+05-4.63974E+04-1.58073E+06-5.75255E-11-7.14908E-09
 -1        60-4.15997E+06-5.76761E+05-1.81298E+04-1.55290E+06-1.13278E-09 2.77032E-09
 -1        61-4.13741E+06-6.07767E+05-1.02806E+04-1.58159E+06 3.47973E-09-7.48219E-09
 -1        62-4.15945E+06-5.80755E+05-4.91799E+03-1.55480E+06 4.72801E-09-2.36710E-08
 -1        63-4.14133E+06-6.00110E+05-3.94209E+03-1.57549E+06-2.12947E-09-1.28343E-08
 -1        64-4.15593E+06-5.84428E+05-4.45684E+03-1.55894E+06 1.72577E-09 4.53565E-09
 -1        65-4.15042E+06-5.93764E+05-8.80262E+03-1.56592E+06-2.80261E-09 1.53827E-08
 -1        66-4.15031E+06-5.87189E+05-1.54681E+04-1.56432E+06-1.71974E-09 1.02946E-08
 -1        67-4.16848E+06-5.99726E+05-3.92899E+04-1.55347E+06-3.84878E-09-2.56841E-09
 -1        68-4.13802E+06-5.78842E+05-6.58881E+04-1.57129E+06 8.61291E-10-1.07320E-08
 -1        69-4.23951E+06-6.98251E+05-1.88767E+05-1.52623E+06 1.22964E-09-3.01952E-09
 -1        70-4.08014E+06-4.91574E+05-2.79989E+05-1.59065E+06-1.49157E-09 4.94765E-10
 -1        86-1.32160E+03-1.77911E+05 9.15752E+03 2.58751E+02 1.14255E-09 3.36581E-09
 -1        87 8.74158E+03-1.72135E+05 1.91492E+04-1.00671E+03 1.89493E-09 6.28341E-09
 -1        88-7.41174E+03-1.80831E+05 2.92985E+04 7.47929E+02 2.69756E-09 6.33014E-09
 -1        89 5.52049E+04-1.50675E+05 7.90039E+04-1.84873E+03 4.08363E-09 4.72664E-09
 -1        90-4.76202E+04-1.99352E+05 1.11679E+05 1.10125E+03 4.16912E-09 5.03115E-09
 -1       121-3.08214E+02-9.52662E+05 1.20768E+02 2.59893E+02 6.01290E-10-1.11322E-08
 -1       122-1.32370E+02-9.51811E+05 4.88043E+02-1.04106E+03-2.10734E-09 4.19823E-09
 -1       123-3.55712E+02-9.52717E+05 6.88380E+02 7.77858E+02 1.67455E-09 9.35324E-09
 -1       124 7.68830E+02-9.51301E+05 2.01438E+03-2.26259E+03-3.82511E-09 1.27748E-08
 -1       125-9.22238E+02-9.53225E+05 2.98996E+03 1.47942E+03 2.68665E-09 1.21963E-08
 -1       191-1.31953E+00 2.84121E+05 9.28834E+00-1.86523E-02 2.62439E-11 4.61796E-10
 -1       192-1.70952E+00 2.84096E+05 1.60414E+01 1.66621E-01 7.49460E-11 3.32557E-09
 -1       193-3.16674E+00 2.84121E+05 3.00520E+01-1.48393E-01 2.29807E-11-6.29848E-09
 -1       194-3.94455E+00 2.84099E+05 6.06473E+01 3.97105E-01-1.22178E-11 6.31189E-10
 -1       195-6.71689E+00 2.84119E+05 1.18848E+02-2.50262E-01 2.60130E-11 9.98728E-09
 -1       251-8.39997E+05-4.74398E+03 1.08065E+04-5.62594E+03-8.13998E-10 3.57022E-09
 -1       252-8.33396E+05 5.48184E+03 7.97410E+03 3.46636E+03-7.51101E-10-7.27368E-09
 -1       253-8.38438E+05-7.80117E+02 2.67357E+03-1.46338E+03-2.08729E-10-4.34193E-09
 -1       254-8.35448E+05 8.67946E+02 2.06197E+03-4.95160E+03 5.41831E-10-4.61330E-09
 -1       255-8.37944E+05-1.49052E+02 6.53756E+02 2.79186E+03 2.00657E-10 9.77434E-09
 -1       256-8.36476E+05 1.79248E+02 6.71350E+02-1.22102E+04-7.93904E-10 4.57533E-09
 -1       257-8.37477E+05-4.29415E+01 3.73386E+02 5.79518E+03 1.34321E-10-2.65191E-09
 -1       258-8.37125E+05 1.68327E+02 6.04764E+02-1.60206E+04-1.84599E-11-6.19006E-09
 -1       259-8.37356E+05-9.17199E+01 9.31343E+02 6.60246E+03-1.12287E-09-3.15981E-09
 -1       260-8.36695E+05 6.78280E+02 2.09519E+03-1.51893E+04-1.98132E-09-4.98346E-09
 -1       261-8.37892E+05-5.62864E+02 3.44941E+03 4.96383E+03 1.63141E-09 4.20641E-10
 -1       262-8.34234E+05 4.10089E+03 8.78905E+03-9.98057E+03 1.96198E-09 1.40471E-09
 -1       263-8.39738E+05-3.55990E+03 1.35977E+04 1.39356E+03-1.87981E-09 1.94286E-08
 -1       264-8.23426E+05 2.63355E+04 3.77572E+04-2.07851E+03-1.85682E-09 1.16247E-08
 -1       265-8.48631E+05-2.27587E+04 5.29565E+04-2.93819E+03-8.17067E-10 8.80391E-09
 -1       266-3.62811E+04-1.69624E+04 8.51389E+04-9.31156E+01-2.91038E-11-4.52079E-09
 -1       267 4.20610E+04 1.97742E+04 6.01683E+04 1.07422E+02 1.20053E-10-6.68459E-09
 -1       268-5.64026E+03-2.80035E+03 2.23647E+04-1.36882E+01-2.36469E-11-1.15589E-08
 -1       269 6.65955E+03 3.35167E+03 1.45363E+04 1.59438E+01 4.54747E-11-1.02455E-08
 -1       270-9.99606E+02-5.50695E+02 7.01690E+03-2.16373E+00-6.86668E-11 8.32384E-09
 -1       271-3.43991E+06-4.30440E+05-2.62000E+05-1.34053E+06 6.40284E-10 4.80213E-09
 -1       272-3.52742E+06-6.27936E+05-1.68439E+05-1.34527E+06-5.43650E-10-6.53381E-09
 -1       273-3.49064E+06-4.94306E+05-6.18995E+04-1.32721E+06 3.28464E-09 6.11908E-09
 -1       274-3.46737E+06-5.50371E+05-3.46063E+04-1.36619E+06 3.52884E-10 1.62954E-08
 -1       275-3.49923E+06-4.99245E+05-1.44165E+04-1.32318E+06 1.81899E-09 8.09905E-09
 -1       276-3.45673E+06-5.45149E+05-7.62552E+03-1.37303E+06-2.53749E-09-1.18598E-09
 -1       277-3.50174E+06-4.98278E+05-3.74750E+03-1.32113E+06-4.32010E-10-1.31013E-09
 -1       278-3.45390E+06-5.46446E+05-2.69758E+03-1.37609E+06 1.37015E-09 4.20918E-10
 -1       279-3.50242E+06-4.97635E+05-2.87797E+03-1.32042E+06-1.31138E-09 2.75122E-11
 -1       280-3.45429E+06-5.47143E+05-5.27759E+03-1.37614E+06 5.19833E-10-4.68003E-09
 -1       281-3.50138E+06-4.97615E+05-9.61798E+03-1.32108E+06 3.65162E-10 4.70300E-09
 -1       282-3.46063E+06-5.51376E+05-2.30364E+04-1.37253E+06-6.30507E-10 4.52928E-09
 -1       283-3.49585E+06-4.94191E+05-4.10762E+04-1.32358E+06-9.92713E-10 1.07320E-10
 -1       284-3.50048E+06-6.02757E+05-1.11835E+05-1.35838E+06-8.52992E-10 1.99361E-09
 -1       285-3.46187E+06-4.52166E+05-1.73987E+05-1.33277E+06 4.42014E-10-1.04992E-08
 -1       301 1.98117E+04-4.55270E+04 1.46835E+05-8.96944E+04-9.09495E-10 1.84127E-09
 -1       302 2.09152E+04-8.36430E+03 9.87358E+04-1.31953E+05 8.94943E-10 1.26183E-08
 -1       303 1.08603E+03-3.11874E+04 7.96555E+04-8.98104E+04-9.60426E-10 3.98904E-09
 -1       304 2.78414E+04-1.44527E+03 1.21829E+05-1.31504E+05 1.32422E-09 5.42059E-09
 -1       305 2.70082E+04-5.15800E+04 1.97909E+05-9.01684E+04-3.49246E-10 4.67116E-09
 -1       306-5.29109E+06-5.93386E+05-3.98299E+05-2.03571E+06-9.31323E-10-1.03610E-08
 -1       307-5.39125E+06-1.00876E+06-2.67682E+05-2.06041E+06-9.64610E-09 4.16549E-09
 -1       308-5.41251E+06-6.78528E+05-9.38046E+04-1.95478E+06 7.06223E-10 1.48721E-08
 -1       309-5.24687E+06-9.17177E+05-5.58733E+04-2.16961E+06 6.36666E-09 9.32050E-09
 -1       310-5.43842E+06-6.79897E+05-2.15186E+04-1.92997E+06 1.02727E-09-4.37558E-09
 -1       311-5.23571E+06-8.90693E+05-1.19241E+04-2.16895E+06 1.11809E-08-1.51801E-08
 -1       312-5.42316E+06-7.04881E+05-7.32305E+03-1.95528E+06-1.21418E-09 2.11548E-09
 -1       313-5.29176E+06-8.18154E+05-2.96191E+03-2.08268E+06-2.52385E-09 1.16868E-08
 -1       314-5.37838E+06-7.55199E+05-9.35480E+03-2.01333E+06-4.07817E-09-2.91311E-09
 -1       315-5.39381E+06-7.19853E+05-1.14643E+04-1.96499E+06-6.29916E-09-5.00631E-09
 -1       316-5.32060E+06-8.03612E+05-2.64285E+04-2.07249E+06-7.69433E-10-3.74894E-09
 -1       317-5.50339E+06-6.64192E+05-6.37780E+04-1.87374E+06 1.60712E-08-6.62840E-09
 -1       318-5.27284E+06-8.08565E+05-1.06524E+05-2.10737E+06-1.60107E-08-5.78439E-09
 -1       319-5.63252E+06-8.24063E+05-3.09953E+05-1.82118E+06-5.57156E-09-1.79789E-08
 -1       320-5.19394E+06-6.45368E+05-4.54964E+05-2.12543E+06 1.35187E-08-3.84171E-09
 -1       336 5.18395E+02-1.03131E+06-5.72354E+03 2.03582E+03-1.06966E-08-4.90400E-09
 -1       337-2.11621E+03-1.03235E+06-6.25471E+03-5.05412E+03-1.93620E-08-1.42700E-09
 -1       338 3.23450E+02-1.03146E+06-8.14504E+03 3.00084E+03-1.37281E-08 4.48381E-09
 -1       339-8.39035E+03-1.03637E+06-1.77232E+04-6.94651E+03-2.47110E-08 1.22564E-08
 -1       340 5.53655E+03-1.02751E+06-2.74719E+04 3.91280E+03-1.67947E-08 9.31504E-09
 -1       406 2.10615E+01 2.84108E+05 4.84760E+02-4.55618E-02 1.23748E-10 2.53340E-09
 -1       407 1.71004E+02 2.84196E+05 1.02978E+03-1.56576E+00-5.52660E-11-1.77697E-08
 -1       408 5.32335E+02 2.84033E+05 2.05696E+03 1.65169E+00 1.28466E-10-1.22993E-08
 -1       409 2.22568E+03 2.84854E+05 4.63027E+03-1.62574E+01 2.88765E-11 3.94124E-09
 -1       410 6.39101E+03 2.83449E+05 9.45270E+03 1.53272E+01 1.77351E-11-2.10866E-09
 -1       521-8.03989E+06-7.75450E+05-7.46218E+05-2.57821E+06-5.66797E-09 1.33587E-08
 -1       522-5.92160E+06-2.04601E+06-2.33266E+05-3.83172E+06-7.71834E-08-2.10712E-08
 -1       523-8.10509E+06-3.95021E+05-1.51477E+05-1.90356E+06 1.16415E-10-4.61077E-08
 -1       524-6.15376E+06-2.20304E+06-4.34155E+04-4.72308E+06 9.44946E-08-7.72964E-08
 -1       525-8.10773E+06-3.93877E+05-3.99178E+04-1.87063E+06 5.82077E-08-5.67097E-08
 -1       526-5.82450E+06-1.88818E+06 1.04794E+05-3.98608E+06 8.00355E-08-8.91305E-09
 -1       527-8.16758E+06-9.05084E+05-1.76136E+05-2.48066E+06 7.01402E-08 2.28538E-08
 -1       528-6.05423E+06-9.41433E+05 2.19552E+05-2.41981E+06 5.99757E-08 1.40099E-08
 -1       529-7.59602E+06-1.53881E+06-1.93288E+05-3.20567E+06-2.91038E-10-1.86265E-09
 -1       530-7.78588E+06 2.18237E+05 1.26756E+05-1.49013E+06-7.53571E-08 5.61013E-08
 -1       531-6.68689E+06-1.88059E+06-5.69513E+04-3.56518E+06-1.55509E-07 8.73843E-09
 -1       532-9.10366E+06 7.56417E+05-3.88904E+04-1.35350E+06 6.13118E-08-9.67775E-08
 -1       533-6.55605E+06-1.88689E+06-1.28999E+05-3.59599E+06 2.47237E-08-1.38756E-07
 -1       534-8.29600E+06 2.01833E+05-2.37585E+05-1.38861E+06-1.55414E-08 1.10100E-07
 -1       535-7.29904E+06-1.46360E+06-7.02304E+05-3.34408E+06-8.96398E-09 6.77537E-08
 -1       536-4.14847E+05-1.83738E+04 2.45466E+04-1.53425E+04-2.71439E-09 2.31194E-08
 -1       537-3.27934E+05 2.01137E+04 3.07064E+04 3.83932E+04-4.12549E-08 2.60252E-08
 -1       538-3.73096E+05-1.50793E+03 8.37845E+03-2.39644E+04 1.03231E-08 3.49655E-08
 -1       539-3.56185E+05 2.51634E+03 7.92769E+03 4.39194E+04 6.45906E-08 4.75081E-08
 -1       540-3.87148E+05-3.46227E+02-9.22946E+02-2.08875E+04 1.70481E-08 4.67354E-08
 -1       541-3.03480E+05 2.47975E+03 1.47082E+04 2.67324E+04 3.72438E-10 2.16243E-08
 -1       542-4.24382E+05-2.62772E+03-1.03257E+04-6.74104E+03 1.26320E-08 1.21230E-08
 -1       543-2.74604E+05 3.36486E+03 1.93929E+04-5.65604E+03-4.74438E-09-2.91669E-09
 -1       544-4.15259E+05-1.85345E+03-9.38246E+03 1.14699E+04-9.97397E-09-2.15646E-08
 -1       545-3.24157E+05 5.14259E+02 7.88435E+03-3.49426E+04 1.28296E-09-4.01702E-08
 -1       546-3.76129E+05 1.27870E+03-3.54587E+03 2.25351E+04 9.96431E-09-3.05847E-08
 -1       547-3.62061E+05-3.58280E+03-4.74358E+03-4.53462E+04-3.77552E-08-2.33466E-08
 -1       548-3.78325E+05 3.02951E+03-1.24085E+04 2.19018E+04-3.95338E-08-2.77751E-08
 -1       549-3.25174E+05-1.60817E+04-1.77562E+04-3.24221E+04-2.09607E-08-2.44813E-08
 -1       550-4.11867E+05 1.28298E+04-5.22577E+04 9.57925E+03 9.32459E-10-1.50776E-08
 -1       551 1.56312E+04-5.45636E+05 2.32036E+04-9.06010E+05-4.52055E-08 2.56114E-09
 -1       552 3.49902E+04-5.55483E+05 3.07163E+04-1.29037E+06-3.35713E-08 1.65310E-08
 -1       553 2.48069E+04-5.60956E+05 4.58123E+04-9.02673E+05-5.37402E-08 9.84437E-09
 -1       554 6.06395E+04-5.49256E+05 9.64426E+04-1.29170E+06-3.42843E-08 7.81893E-09
 -1       555 5.26166E+04-5.79289E+05 1.71753E+05-9.03588E+05-5.48534E-08-5.60976E-09
 -1       556 9.17429E+04-1.68356E+05 5.86467E+04-2.14164E+05-1.00117E-08-1.20490E-08
 -1       557 1.60742E+05-2.24079E+05 3.09827E+04-2.68886E+05 6.69388E-10 1.22573E-08
 -1       558 9.05032E+04-1.75634E+05 1.22331E+04-2.07973E+05-1.01427E-08 1.05865E-09
 -1       559 1.49818E+05-2.31716E+05 6.29663E+03-2.74047E+05 4.28554E-09 7.20047E-09
 -1       560 8.75339E+04-1.73700E+05 2.42326E+03-2.09930E+05 4.75848E-09 3.56522E-09
 -1       561 1.45454E+05-2.30411E+05 1.35391E+03-2.76836E+05 1.81899E-09 6.82121E-10
 -1       562 8.51343E+04-1.72128E+05 4.16190E+02-2.11657E+05 9.82254E-10 2.50566E-09
 -1       563 1.42606E+05-2.29179E+05 3.21065E+02-2.78662E+05 5.20231E-10-6.07963E-09
 -1       564 8.35434E+04-1.71115E+05 7.67501E+01-2.12785E+05 1.62981E-09 3.41061E-09
 -1       565 1.40951E+05-2.28465E+05 8.46928E+01-2.79708E+05 3.41061E-09 3.22416E-09
 -1       566 8.28053E+04-1.70637E+05-1.69187E+01-2.13309E+05-9.93168E-10-8.18181E-09
 -1       567 1.40447E+05-2.28241E+05-1.14387E+02-2.79955E+05 4.69572E-09-5.29326E-09
 -1       568 8.29567E+04-1.70742E+05-3.74835E+02-2.13271E+05-6.95763E-10 1.07502E-08
 -1       569 1.40358E+05-2.28145E+05-9.11368E+02-2.78774E+05-1.75442E-09 1.45119E-08
 -1       570 8.45964E+04-1.72210E+05-1.99039E+03-2.13109E+05 4.34375E-09-1.62572E-09
 -1       571 2.05041E+05 7.47338E+03 1.10159E+04-5.75294E+04 1.47793E-09 9.33369E-09
 -1       572 2.06672E+05 2.63192E+03 5.39751E+03-6.30724E+04 1.82490E-09 5.94537E-09
 -1       573 2.05690E+05 6.60097E+02 2.39783E+03-5.73879E+04 6.36192E-10 1.10826E-08
 -1       574 2.05876E+05 2.51243E+02 1.20163E+03-6.32339E+04-3.24417E-09 2.69392E-09
 -1       575 2.05759E+05 7.43127E+01 5.66403E+02-5.73692E+04-1.37038E-09 3.83034E-09
 -1       576 2.05767E+05 5.97591E+01 2.88525E+02-6.32554E+04-3.60671E-11 4.98494E-09
 -1       577 2.05771E+05 4.21045E+01 1.42238E+02-5.73667E+04-6.67569E-10 6.10498E-09
 -1       578 2.05761E+05 4.76533E+01 7.78915E+01-6.32580E+04-4.22551E-09-2.82898E-09
 -1       579 2.05790E+05 3.59936E+01 4.78134E+01-5.73666E+04-3.16777E-09-3.36149E-09
 -1       580 2.05787E+05 3.57192E+01 4.53473E+01-6.32547E+04-3.87081E-09-4.13820E-09
 -1       581 2.05823E+05 2.12642E+01 6.14370E+01-5.73700E+04-1.75260E-08-2.29011E-09
 -1       582 2.05843E+05 3.00456E+01 1.18044E+02-6.32200E+04-3.44016E-08-2.16187E-09
 -1       583 2.05865E+05 4.87225E+01 2.25237E+02-5.74014E+04-1.72113E-08 8.92965E-09
 -1       584 2.05979E+05 2.23804E+02 5.06312E+02-6.29575E+04-1.17598E-09-1.67029E-09
 -1       585 2.05860E+05 6.62193E+02 1.02623E+03-5.76328E+04-1.65619E-09-1.36733E-08
 -1       586-2.13352E+03 7.37987E+04-2.59561E+03-1.79815E+05-1.12595E-09 2.29716E-09
 -1       587-4.69622E+02 7.34685E+04 2.59900E+01-1.97862E+05-2.01908E-10 1.77920E-09
 -1       588 6.69337E+02 7.34738E+04 2.61823E+03-1.79701E+05-6.27551E-10 7.30006E-09
 -1       589 3.52071E+03 7.48495E+04 7.18873E+03-1.97710E+05-1.68438E-09-1.30422E-08
 -1       590 1.02929E+04 7.26467E+04 1.52377E+04-1.79975E+05-6.11180E-10-1.11868E-09
 -1       591-5.00770E+04-1.32591E+04-1.54316E+04-2.47236E+04-1.53477E-09-1.27702E-08
 -1       592-5.17661E+04-1.68050E+04-8.35850E+03-2.84721E+04-1.04910E-09-9.77911E-09
 -1       593-5.16350E+04-1.21245E+04-3.47966E+03-2.58408E+04 8.88690E-10-4.95334E-09
 -1       594-4.96191E+04-1.45585E+04-1.73542E+03-2.85753E+04 5.53581E-09 1.95937E-08
 -1       595-5.17544E+04-1.21194E+04-7.97399E+02-2.58921E+04-1.29921E-09 5.53715E-09
 -1       596-4.94736E+04-1.44556E+04-4.06233E+02-2.85600E+04 2.03056E-09 6.05002E-09
 -1       597-5.17696E+04-1.21293E+04-2.23137E+02-2.58941E+04-1.20584E-09 9.84187E-10
 -1       598-4.94597E+04-1.44517E+04-1.82922E+02-2.85557E+04-1.30029E-10 9.89564E-09
 -1       599-5.17684E+04-1.21295E+04-2.38103E+02-2.58937E+04 2.84899E-10-3.49200E-09
 -1       600-4.94749E+04-1.44568E+04-4.45874E+02-2.85592E+04 9.74467E-10-5.42900E-09
 -1       601-5.17496E+04-1.21191E+04-8.81508E+02-2.58907E+04 1.10185E-09 6.85486E-09
 -1       602-4.96357E+04-1.45705E+04-1.92211E+03-2.85740E+04-3.79089E-09 5.70344E-09
 -1       603-5.16156E+04-1.21267E+04-3.85522E+03-2.58341E+04-3.44016E-09-9.30822E-09
 -1       604-5.20222E+04-1.70505E+04-9.26075E+03-2.84477E+04-2.15164E-09 1.19135E-08
 -1       605-4.98790E+04-1.33916E+04-1.70972E+04-2.46050E+04 1.70144E-09 1.28475E-08
 -1       606 2.70136E+04-9.99491E+03-1.79734E+04 2.59078E+04-1.49521E-09-1.14878E-08
 -1       607 2.39372E+04-3.23553E+03-8.94983E+03 2.90870E+04 7.88532E-10-1.48000E-08
 -1       608 2.56827E+04-5.56635E+02-4.00779E+03 2.57041E+04 1.62254E-09-1.05729E-10
 -1       609 2.53372E+04-1.56964E+02-2.02425E+03 2.93152E+04-1.00317E-09-2.90402E-09
 -1       610 2.55222E+04 1.21145E+01-9.66842E+02 2.56811E+04-2.58115E-09 3.90628E-10
 -1       611 2.54587E+04 2.31299E+01-4.87602E+02 2.93401E+04-5.66524E-09 1.46699E-08
 -1       612 2.54798E+04 2.76393E+01-2.33155E+02 2.56789E+04-3.78714E-09 1.50089E-09
 -1       613 2.54570E+04 3.15054E+01-1.05990E+02 2.93430E+04-5.12728E-09 2.33581E-09
 -1       614 2.54567E+04 2.80424E+01-2.89272E+01 2.56781E+04 1.11504E-09 1.03739E-08
 -1       615 2.54453E+04 3.68548E+01 3.47541E+01 2.93435E+04 4.96175E-09 2.87901E-09
 -1       616 2.54392E+04 3.37426E+01 1.13095E+02 2.56784E+04-2.54204E-09-5.35351E-09
 -1       617 2.54529E+04 6.47573E+01 2.61616E+02 2.93430E+04 2.60115E-10-9.98716E-09
 -1       618 2.54119E+04 1.12078E+02 5.28577E+02 2.56785E+04 1.41608E-09 1.33673E-09
 -1       619 2.56359E+04 4.75899E+02 1.18786E+03 2.93422E+04 6.35850E-10-2.59888E-09
 -1       620 2.52340E+04 1.36793E+03 2.38776E+03 2.56776E+04 4.74415E-10-1.12095E-09
 -1       621 3.77685E+02 2.24273E+05 3.25107E+03 1.29799E+04-5.21254E-11 4.21051E-09
 -1       622 4.34746E+02 2.25077E+05 2.73827E+03 1.89087E+04-9.50422E-11 7.63634E-10
 -1       623 2.16379E+01 2.24503E+05 3.11998E+03 1.29211E+04 1.08713E-10-2.12162E-09
 -1       624 1.41167E+03 2.25965E+05 5.89994E+03 1.89653E+04 3.13207E-11 2.75406E-09
 -1       625 1.41494E+03 2.23367E+05 1.02447E+04 1.29229E+04 5.59339E-11-3.82556E-11
 -1       626 1.83657E+05 4.90706E+04 3.47711E+03 9.70417E+04-1.52886E-09 1.99907E-09
 -1       627 1.81325E+05 5.07728E+04 1.67558E+03 1.00792E+05-6.93035E-10 2.03545E-09
 -1       628 1.83780E+05 4.74326E+04 7.07807E+02 9.75731E+04-8.34007E-10 9.22296E-09
 -1       629 1.80830E+05 5.03697E+04 3.47029E+02 1.01011E+05 6.73026E-11-4.37484E-09
 -1       630 1.83787E+05 4.73557E+04 1.60702E+02 9.75874E+04 7.86713E-10-5.83623E-09
 -1       631 1.80769E+05 5.03604E+04 8.69218E+01 1.01012E+05-2.66482E-10-9.96542E-09
 -1       632 1.83778E+05 4.73620E+04 5.81412E+01 9.75796E+04 8.53970E-09 1.03880E-08
 -1       633 1.80757E+05 5.03653E+04 6.61754E+01 1.01005E+05-3.48518E-09-9.59511E-09
 -1       634 1.83768E+05 4.73626E+04 1.08166E+02 9.75754E+04 1.20144E-09 1.60207E-09
 -1       635 1.80762E+05 5.03666E+04 2.19911E+02 1.01005E+05 3.30829E-10 6.42808E-09
 -1       636 1.83757E+05 4.73613E+04 4.44480E+02 9.75726E+04-2.24793E-09 2.79715E-09
 -1       637 1.80853E+05 5.04372E+04 9.77101E+02 1.01001E+05 1.68654E-09 9.11677E-09
 -1       638 1.83720E+05 4.75787E+04 2.00808E+03 9.74726E+04-8.50491E-09 8.50378E-10
 -1       639 1.81904E+05 5.19061E+04 4.75063E+03 1.00690E+05-2.53192E-08-6.98537E-09
 -1       640 1.83579E+05 5.19522E+04 9.85870E+03 9.56172E+04-1.37006E-08-4.17913E-10
 -1       656 4.92394E+04-1.24896E+06-1.18862E+05-5.84322E+02 9.02219E-10-3.13025E-09
 -1       657-6.50757E+04-1.30262E+06-9.83273E+04 7.24583E+03 5.45697E-10 8.18687E-10
 -1       658 1.56272E+04-1.26426E+06-6.03745E+04-1.85501E+03-1.80535E-10 5.37277E-10
 -1       659-6.98741E+04-1.30490E+06-1.04630E+05 8.13057E+03-8.12179E-10-1.23427E-08
 -1       660 5.40265E+04-1.24670E+06-1.29701E+05-1.46905E+03-4.58385E-10 1.61670E-09
 -1       661 1.64451E+05 1.78060E+04 1.60017E+04 6.42729E+04-6.60293E-10 1.80989E-10
 -1       662 1.72902E+05 3.02416E+04 1.07827E+04 6.13592E+04-2.51021E-10-4.70175E-09
 -1       663 1.67589E+05 2.29437E+04 3.77178E+03 6.33661E+04-2.78385E-09 6.00926E-09
 -1       664 1.69269E+05 2.42288E+04 2.25522E+03 6.24628E+04 1.64459E-09 5.62636E-10
 -1       665 1.68060E+05 2.36499E+04 8.89618E+02 6.32331E+04-2.18563E-09 2.10048E-09
 -1       666 1.68716E+05 2.34175E+04 5.19058E+02 6.26339E+04-4.71347E-09 3.28341E-09
 -1       667 1.68139E+05 2.37338E+04 2.73953E+02 6.32030E+04-2.39083E-09-3.22238E-09
 -1       668 1.68630E+05 2.33523E+04 2.75140E+02 6.26774E+04-8.32031E-10-5.81889E-09
 -1       669 1.68145E+05 2.37131E+04 3.69210E+02 6.31902E+04 1.06853E-09 1.04422E-08
 -1       670 1.68723E+05 2.35486E+04 8.00896E+02 6.26775E+04 2.90559E-09-2.02026E-09
 -1       671 1.68047E+05 2.35414E+04 1.42102E+03 6.32012E+04-1.37081E-09-9.96982E-09
 -1       672 1.69551E+05 2.49305E+04 3.63483E+03 6.24771E+04-1.01168E-09-1.29506E-08
 -1       673 1.67321E+05 2.23660E+04 6.09109E+03 6.33774E+04-9.79185E-10-2.58660E-09
 -1       674 1.75350E+05 3.47147E+04 1.74192E+04 6.07720E+04 1.30990E-09-1.08389E-08
 -1       675 1.62286E+05 1.40308E+04 2.58557E+04 6.48031E+04 5.97083E-10-3.80714E-09
 -1       676 1.95372E+01-2.34526E+05-9.07547E+02 1.75337E+01 1.43189E-10 4.80582E-09
 -1       677-2.40994E+02-2.34745E+05-1.66092E+03-3.50484E+01-2.64663E-09 7.12054E-09
 -1       678 1.60881E+02-2.34369E+05-2.93607E+03 1.75026E+01-1.22509E-09 5.54182E-09
 -1       679-2.93683E+03-2.36517E+05-6.97468E+03-3.49282E+01-1.03728E-09 2.52334E-09
 -1       680 1.75269E+03-2.32754E+05-1.12408E+04 1.72143E+01-1.71167E-09 1.28619E-08
 -1       771-2.50269E+06-4.73679E+05-6.82962E+04-1.07656E+06-1.48066E-08-1.08557E-08
 -1       772-2.47597E+06-5.15687E+05-3.62150E+04-1.12398E+06-1.12923E-08 5.23687E-09
 -1       773-2.51358E+06-4.65108E+05-1.64298E+04-1.08049E+06-1.12195E-08 7.10133E-09
 -1       774-2.46734E+06-5.08288E+05-7.77958E+03-1.13067E+06 2.91038E-10 9.96806E-10
 -1       775-2.51731E+06-4.62513E+05-4.49633E+03-1.08125E+06-1.24128E-08 4.14366E-09
 -1       776-2.46835E+06-5.08278E+05-1.91398E+03-1.13494E+06-8.64384E-09 9.59699E-09
 -1       777-2.52022E+06-4.60364E+05-1.54455E+03-1.08186E+06 1.50612E-09 7.97445E-09
 -1       778-2.46985E+06-5.08428E+05-5.40712E+02-1.13852E+06 1.83354E-09 3.90537E-09
 -1       779-2.52262E+06-4.58536E+05-6.78072E+02-1.08240E+06-4.85306E-09-3.16868E-09
 -1       780-2.47121E+06-5.08525E+05-2.25394E+02-1.14143E+06-1.98997E-09 8.00355E-11
 -1       781-2.52448E+06-4.57084E+05-4.12331E+02-1.08282E+06-1.52650E-08-5.62250E-09
 -1       782-2.47229E+06-5.08583E+05-3.46692E+02-1.14356E+06-1.53395E-08-4.14047E-09
 -1       783-2.52573E+06-4.56105E+05-7.14949E+02-1.08311E+06-2.76123E-09-6.92842E-09
 -1       784-2.47334E+06-5.08998E+05-1.51299E+03-1.14484E+06-6.58838E-09 3.18323E-09
 -1       785-2.52610E+06-4.55808E+05-2.83375E+03-1.08306E+06-1.49303E-08 2.34013E-09
 -1       786 1.85285E+05-9.92230E+03 2.29559E+04-7.96620E+01 7.64224E-06 1.90485E-08
 -1       787 1.95231E+05 1.14870E+04 1.62407E+04-5.93335E+01 1.52333E-05 1.13512E-08
 -1       788 1.89122E+05-1.55542E+03 5.94161E+03-7.24136E+01 1.51994E-05-6.93490E-11
 -1       789 1.90761E+05 1.79977E+03 3.73313E+03-7.17522E+01 1.51368E-05 2.17956E-08
 -1       790 1.89756E+05-2.42959E+02 1.51898E+03-6.72467E+01 1.57193E-05-9.45789E-09
 -1       791 1.90022E+05 2.82329E+02 8.91729E+02-8.28821E+01 1.62824E-05 7.93480E-09
 -1       792 1.89862E+05-3.91232E+01 4.06779E+02-6.12842E+01 8.15349E-06-8.82577E-09
 -1       793 1.89903E+05 5.49099E+01 2.66127E+02-9.76652E+01 2.58003E-08 1.25330E-08
 -1       794 1.89876E+05-1.56883E+01 1.96483E+02-5.24635E+01 2.12968E-09 8.59025E-09
 -1       795 1.89914E+05 8.08310E+01 2.83259E+02-1.20954E+02-2.55187E-09 1.40884E-09
 -1       796 1.89850E+05-6.50231E+01 4.23719E+02-3.79949E+01 2.00546E-09-1.22722E-09
 -1       797 1.90106E+05 4.76748E+02 9.98608E+02-1.60054E+02-6.66905E-10 7.18747E-09
 -1       798 1.89683E+05-4.11317E+02 1.57605E+03-1.33621E+01 5.33081E-10 3.62161E-09
 -1       799 1.91289E+05 3.03711E+03 4.29657E+03-2.27318E+02 2.81528E-10-2.54886E-09
 -1       800 1.88667E+05-2.62333E+03 6.06889E+03 2.92700E+01 9.44347E-11 3.53793E-10
 -1       801-4.89120E+03-2.13649E+06-2.67895E+05 1.29806E+05 2.50293E-08-2.63917E-08
 -1       802 9.81327E+04 8.21270E+05 4.02770E+05-1.54329E+05-8.13088E-10-1.26483E-08
 -1       803-9.25414E+04-2.80128E+06-2.82527E+05 8.95662E+04 6.95909E-08 2.12965E-08
 -1       804 1.18179E+05 1.31879E+05 3.80414E+05 6.56481E+04-9.53787E-09-3.66834E-08
 -1       805-2.86596E+04-1.44816E+06 1.28878E+05-9.00377E+04-2.85727E-08-3.25826E-10
 -1       806-2.19919E+05-4.74095E+04-1.87129E+04-9.19707E+04-5.20618E-09-3.52975E-09
 -1       807-2.20962E+05-4.47886E+04-9.19326E+03-9.70023E+04 3.50235E-09 8.44290E-09
 -1       808-2.20453E+05-4.06461E+04-3.89972E+03-9.51410E+04 6.40966E-10 1.31557E-09
 -1       809-2.18999E+05-4.22367E+04-1.90645E+03-9.72677E+04-3.91344E-09-8.90111E-09
 -1       810-2.20536E+05-4.04077E+04-8.72990E+02-9.52805E+04 1.21031E-09-1.19394E-09
 -1       811-2.18848E+05-4.21361E+04-4.32997E+02-9.72447E+04 1.53022E-09 3.02862E-09
 -1       812-2.20549E+05-4.04260E+04-2.16278E+02-9.52798E+04-2.76850E-09-1.21750E-08
 -1       813-2.18827E+05-4.21390E+04-1.36657E+02-9.72320E+04 9.21318E-10-8.05153E-09
 -1       814-2.20546E+05-4.04333E+04-1.28655E+02-9.52763E+04 3.12230E-09-6.69979E-09
 -1       815-2.18828E+05-4.21416E+04-2.01609E+02-9.72273E+04 5.74346E-09-1.90857E-09
 -1       816-2.20531E+05-4.04328E+04-3.78120E+02-9.52729E+04 3.64980E-09-1.77715E-09
 -1       817-2.18892E+05-4.21781E+04-8.10404E+02-9.72185E+04-7.13044E-10 1.81376E-09
 -1       818-2.20480E+05-4.05479E+04-1.65186E+03-9.52184E+04 1.20053E-10-1.99861E-09
 -1       819-2.19803E+05-4.31681E+04-3.88715E+03-9.69937E+04-9.55424E-10 6.21708E-09
 -1       820-2.20162E+05-4.34899E+04-7.91138E+03-9.39674E+04-6.98037E-09-1.64531E-08
 -1       821-2.89459E+05 1.59803E+04-3.69572E+04 2.76364E+02 1.63396E-09 5.16957E-09
 -1       822-3.05472E+05-1.84997E+04-2.61523E+04-8.89130E+02-1.87480E-09-1.40562E-09
 -1       823-2.95638E+05 2.50559E+03-9.57163E+03 2.81461E+02-2.56257E-10 7.24867E-09
 -1       824-2.98260E+05-2.89967E+03-6.02152E+03-7.28614E+02 6.43007E-10 1.08495E-08
 -1       825-2.96669E+05 3.91942E+02-2.47666E+03 1.15847E+02-3.85455E-10 1.84514E-10
 -1       826-2.97055E+05-4.61824E+02-1.49054E+03-2.99548E+02-2.78383E-09-3.54672E-09
 -1       827-2.96841E+05 6.91013E+01-7.75777E+02-1.47612E+02-2.49475E-09-8.04030E-09
 -1       828-2.96894E+05-1.40445E+02-6.79706E+02 2.11264E+02-4.05318E-09 4.62435E-09
 -1       829-2.96830E+05 7.08557E+01-7.85573E+02-3.94974E+02 1.16270E-10 1.48358E-09
 -1       830-2.97087E+05-4.73511E+02-1.52986E+03 5.82599E+02 1.32458E-09-5.36031E-09
 -1       831-2.96649E+05 4.02380E+02-2.53534E+03-5.18954E+02-2.32827E-09-2.69142E-09
 -1       832-2.98310E+05-2.97352E+03-6.17775E+03 6.53887E+02-1.62421E-09-2.73212E-09
 -1       833-2.95609E+05 2.56918E+03-9.81810E+03-4.66263E+02-5.97794E-10 6.59384E-10
 -1       834-3.05675E+05-1.89733E+04-2.68206E+04 3.93954E+02-3.58844E-10 1.08394E-08
 -1       835-2.89285E+05 1.63895E+04-3.79111E+04-2.59009E+02 5.87546E-09 3.41061E-09
 -1       836-9.86660E+02 2.73120E+05 1.65866E+04-2.31811E+04 3.73802E-10-2.97132E-09
 -1       837 3.62428E+03 2.78268E+05 1.40917E+04-4.66288E+04 7.96490E-10 1.57092E-09
 -1       838-3.63608E+02 2.74558E+05 1.44330E+04-2.31025E+04 6.75300E-10 7.02244E-09
 -1       839 9.20158E+03 2.82421E+05 2.73770E+04-4.66582E+04 1.43473E-09-6.14250E-09
 -1       840-2.78288E+03 2.68922E+05 4.36841E+04-2.31510E+04 8.02174E-10-1.45560E-08
 -1       856-7.86374E+04 7.25669E+03-1.91233E+04-4.11285E+02-1.70206E-09 2.92312E-09
 -1       857-8.65336E+04-8.51295E+03-1.31657E+04 4.49003E+03 1.03455E-10-8.45307E-09
 -1       858-8.17582E+04 1.01689E+03-4.96292E+03-4.32336E+02-2.10161E-09-1.06020E-08
 -1       859-8.29502E+04-1.18389E+03-2.99703E+03 4.52331E+03 1.00511E-09 7.77339E-09
 -1       860-8.22247E+04 1.41547E+02-1.25957E+03-4.44647E+02-3.81618E-10-5.48454E-09
 -1       861-8.24131E+04-1.57657E+02-7.00295E+02 4.54017E+03-5.18897E-09-1.09170E-08
 -1       862-8.22973E+04 1.88023E+01-3.05923E+02-4.49226E+02 4.02719E-09-3.58737E-09
 -1       863-8.23267E+04-1.20421E+01-1.45081E+02 4.54235E+03 1.03813E-08-1.48710E-08
 -1       864-8.23113E+04-8.44623E-01-3.30295E+01-4.46826E+02 3.37997E-09-2.85410E-09
 -1       865-8.22973E+04 2.78002E+01 6.22776E+01 4.53003E+03 2.79208E-09 6.45344E-09
 -1       866-8.23251E+04-2.14512E+01 1.64360E+02-4.36910E+02-1.35927E-09-9.67496E-09
 -1       867-8.22095E+04 1.79011E+02 4.29611E+02 4.50307E+03 6.69502E-10 5.79269E-09
 -1       868-8.23958E+04-1.50504E+02 7.19779E+02-4.19865E+02 1.18024E-09 1.85958E-09
 -1       869-8.16740E+04 1.24977E+03 1.92595E+03 4.45844E+03-1.66736E-09-1.44601E-08
 -1       870-8.28555E+04-1.06485E+03 2.79352E+03-3.92273E+02 1.06559E-09-7.27709E-09
 -1       871-4.17547E+03-1.05003E+04-1.37080E+04 9.00496E+04 7.86713E-10 4.80304E-09
 -1       872-1.77513E+03-1.35862E+04-5.62149E+03 1.16748E+05 4.97039E-10 1.50676E-08
 -1       873 8.43834E-01-1.21370E+04 7.13715E+02 8.98524E+04 8.99718E-10 2.27953E-09
 -1       874 2.11628E+03-1.02011E+04 7.57801E+03 1.16785E+05 1.87993E-09-5.49880E-09
 -1       875 4.92339E+03-1.39383E+04 1.68635E+04 9.00185E+04 7.24867E-10 1.17006E-09
 -1       876 2.20474E+05 3.79001E+04 1.17417E+04 8.93462E+04-2.31796E-09-3.78168E-09
 -1       877 2.21152E+05 4.04705E+04 6.27036E+03 9.28125E+04-2.37833E-09-7.72400E-09
 -1       878 2.21571E+05 3.66003E+04 2.62696E+03 9.03099E+04 2.90697E-09-7.92670E-09
 -1       879 2.19555E+05 3.88797E+04 1.30866E+03 9.28951E+04 3.59250E-10-4.44243E-09
 -1       880 2.21651E+05 3.65861E+04 6.09274E+02 9.03491E+04 3.73007E-09 6.44900E-09
 -1       881 2.19449E+05 3.88121E+04 3.24605E+02 9.28782E+04 2.02760E-09 5.20809E-09
 -1       882 2.21658E+05 3.65959E+04 2.06348E+02 9.03502E+04 1.70303E-10 4.09871E-09
 -1       883 2.19441E+05 3.88088E+04 2.19717E+02 9.28732E+04-1.17757E-09 9.41702E-09
 -1       884 2.21654E+05 3.65935E+04 3.47595E+02 9.03504E+04-6.90648E-10-7.36122E-11
 -1       885 2.19469E+05 3.88138E+04 6.97656E+02 9.28818E+04 7.80642E-09-3.65253E-09
 -1       886 2.21627E+05 3.65731E+04 1.40553E+03 9.03476E+04 4.16688E-09-1.27386E-09
 -1       887 2.19716E+05 3.89757E+04 3.06998E+03 9.29174E+04-3.68073E-09-1.08049E-08
 -1       888 2.21433E+05 3.66073E+04 6.18604E+03 9.02494E+04-5.51381E-10 3.53430E-09
 -1       889 2.23402E+05 4.28029E+04 1.47779E+04 9.28010E+04-5.01458E-10 1.19965E-08
 -1       890 2.18912E+05 3.96019E+04 2.76779E+04 8.78904E+04 5.96697E-09 4.85306E-09
 -1       891-1.26786E+02-1.24774E+05-1.48259E+03 2.32187E+04 9.58948E-10-5.16843E-09
 -1       892-2.23065E+02-1.25135E+05-1.60941E+03 3.51513E+04-2.01862E-09-1.11831E-08
 -1       893-2.85776E+01-1.24820E+05-2.29642E+03 2.32235E+04-1.07866E-09-1.54596E-08
 -1       894-1.23922E+03-1.26012E+05-4.76556E+03 3.50255E+04-2.11458E-10-7.67432E-09
 -1       895-9.71200E+02-1.23828E+05-8.39712E+03 2.33432E+04-1.74509E-10-6.06542E-09
 -1       956-2.78235E+05-4.04349E+03-1.01540E+04 1.95681E+04-2.33194E-09-6.60611E-09
 -1       957-2.80239E+05-1.37141E+03-5.21251E+03 2.35529E+04-2.44108E-09-1.18957E-08
 -1       958-2.79138E+05-1.17072E+02-2.34851E+03 1.94440E+04 2.50020E-09-2.68005E-09
 -1       959-2.79298E+05-2.80144E+01-1.19945E+03 2.36889E+04 1.69712E-09-1.32609E-08
 -1       960-2.79221E+05 2.64380E+01-5.84660E+02 1.94320E+04-1.90721E-09 1.74032E-09
 -1       961-2.79231E+05 2.35943E+01-3.09834E+02 2.37027E+04-4.00655E-09 3.05590E-09
 -1       962-2.79238E+05 2.31483E+01-1.76758E+02 1.94301E+04-1.88879E-09-7.91874E-09
 -1       963-2.79229E+05 2.54714E+01-1.40767E+02 2.37052E+04-3.28191E-09 7.41920E-10
 -1       964-2.79242E+05 2.54728E+01-1.69554E+02 1.94294E+04-1.88709E-09 4.45652E-10
 -1       965-2.79239E+05 2.86870E+01-2.91869E+02 2.37053E+04 4.08401E-09-1.25829E-09
 -1       966-2.79233E+05 3.32942E+01-5.47292E+02 1.94301E+04-1.22350E-09 2.87628E-10
 -1       967-2.79311E+05-1.46790E+01-1.12218E+03 2.36977E+04-1.72167E-09-3.02475E-09
 -1       968-2.79164E+05-9.63333E+01-2.19599E+03 1.94371E+04 5.67525E-10-1.44036E-09
 -1       969-2.80200E+05-1.26709E+03-4.87565E+03 2.36146E+04 1.43450E-09 3.60296E-09
 -1       970-2.78325E+05-3.76615E+03-9.49685E+03 1.95145E+04 8.20819E-10 8.84575E-09
 -1       971-2.62478E+05-1.36934E+03-7.58395E+03 1.25661E+04-2.03454E-09 6.10927E-09
 -1       972-2.64320E+05-9.84829E+02-4.13022E+03 1.75312E+04-3.78259E-09-7.04858E-11
 -1       973-2.63321E+05-1.39030E+01-1.84946E+03 1.24620E+04-2.98223E-09 2.82535E-09
 -1       974-2.63447E+05-1.56968E+01-9.58217E+02 1.76441E+04 2.54659E-10 4.53474E-09
 -1       975-2.63386E+05 2.15925E+01-4.78072E+02 1.24525E+04-7.91715E-10 1.87788E-09
 -1       976-2.63395E+05 2.40057E+01-2.74250E+02 1.76557E+04-8.24230E-10 1.78784E-09
 -1       977-2.63399E+05 2.13988E+01-1.96207E+02 1.24503E+04 4.13593E-09-6.43922E-10
 -1       978-2.63398E+05 2.84325E+01-2.25761E+02 1.76588E+04 6.69860E-09-8.62963E-09
 -1       979-2.63399E+05 2.75036E+01-3.59402E+02 1.24494E+04 8.22467E-09 2.12276E-09
 -1       980-2.63425E+05 3.06351E+01-6.91875E+02 1.76593E+04 1.44985E-08-2.98996E-10
 -1       981-2.63377E+05 4.47395E+01-1.33889E+03 1.24498E+04-4.15650E-09 8.23138E-09
 -1       982-2.63608E+05-6.81704E+01-2.76684E+03 1.76541E+04-1.72864E-08-5.16764E-10
 -1       983-2.63208E+05-4.08016E+01-5.37562E+03 1.24549E+04-6.94649E-09-1.87856E-09
 -1       984-2.66194E+05-2.87532E+03-1.20379E+04 1.75831E+04-2.04454E-09-8.21444E-09
 -1       985-2.60775E+05-3.97422E+03-2.21055E+04 1.25243E+04 2.37151E-09-1.60708E-09
 -3
    1PSTEP                        15           8           1          
  100CL  108 5.51758E-01         409                     0    8           1
 -4  DISP        4    1
 -5  D1          1    2    1    0
 -5  D2          1    2    2    0
 -5  D3          1    2    3    0
 -5  ALL         1    2    0    0    1ALL
 -1         1 2.14724E-04 0.00000E+00 0.00000E+00
 -1         2 1.90730E-04 3.27623E-32 6.61744E-24
 -1         3 1.82178E-04 1.99688E-27-1.32349E-23
 -1         5 1.10511E-04 1.27079E-26-3.30872E-24
 -1         8 1.89441E-04-8.51167E-07 0.00000E+00
 -1         9 1.81194E-04-9.86548E-07 0.00000E+00
 -1        10 1.67093E-04-2.30740E-06 0.00000E+00
 -1        12 1.10752E-04 6.42569E-07 0.00000E+00
 -1        15 1.59257E-04-9.47970E-07 0.00000E+00
 -1        16 1.64949E-04-1.21998E-06 0.00000E+00
 -1        17 1.19486E-04-4.95874E-06 0.00000E+00
 -1        18 1.10245E-04 1.16436E-05 0.00000E+00
 -1        19 1.11473E-04 1.28165E-06 0.00000E+00
 -1        20 1.11621E-04 7.56870E-06 0.00000E+00
 -1        21 1.10995E-04 1.22565E-05 3.30872E-24
 -1        24 2.30735E-05-7.05343E-06 0.00000E+00
 -1        25 1.12384E-04 1.18136E-05 0.00000E+00
 -1        26 1.13487E-04 1.78683E-06 0.00000E+00
 -1        27 1.11724E-04 4.79178E-06 0.00000E+00
 -1        28 1.11278E-04 1.17432E-05 0.00000E+00
 -1        32 0.00000E+00 0.00000E+00 0.00000E+00
 -1        33 1.14152E-04 2.39148E-06 0.00000E+00
 -1        34 1.12498E-04 4.76070E-06 0.00000E+00
 -1        35 1.10949E-04 1.14694E-05 0.00000E+00
 -1        51 2.13084E-04-1.42237E-07 0.00000E+00
 -1        52 2.10041E-04-2.77944E-07 0.00000E+00
 -1        53 2.05868E-04-4.14731E-07 0.00000E+00
 -1        54 2.00853E-04-5.54354E-07-3.30872E-24
 -1        55 1.95282E-04-6.97748E-07 6.20385E-24
 -1        56 2.12994E-04-8.42297E-07 0.00000E+00
 -1        57 2.11312E-04-2.01068E-06-2.64698E-23
 -1        58 2.09710E-04-3.38038E-06 5.29396E-23
 -1        59 2.08132E-04-4.84858E-06 0.00000E+00
 -1        60 2.06546E-04-6.29456E-06 0.00000E+00
 -1        61 2.04906E-04-7.60324E-06 0.00000E+00
 -1        62 2.03175E-04-8.67071E-06 0.00000E+00
 -1        63 2.01319E-04-9.40426E-06-2.64698E-23
 -1        64 1.99313E-04-9.74037E-06-5.29396E-23
 -1        65 1.97142E-04-9.63277E-06 0.00000E+00
 -1        66 1.94800E-04-9.07436E-06 0.00000E+00
 -1        67 1.92296E-04-8.07708E-06-2.64698E-23
 -1        68 1.89645E-04-6.69240E-06 5.29396E-23
 -1        69 1.86884E-04-4.98481E-06 2.64698E-23
 -1        70 1.84035E-04-3.05477E-06 0.00000E+00
 -1        86 1.90431E-04-1.58416E-07 6.61744E-24
 -1        87 1.89537E-04-3.17679E-07 0.00000E+00
 -1        88 1.88096E-04-4.77623E-07-6.61744E-24
 -1        89 1.86164E-04-6.41546E-07 3.30872E-24
 -1        90 1.83831E-04-8.05204E-07 1.32349E-23
 -1       121 1.81756E-04-3.80495E-07 0.00000E+00
 -1       122 1.80491E-04-7.61681E-07 6.61744E-24
 -1       123 1.78385E-04-1.14424E-06 1.32349E-23
 -1       124 1.75445E-04-1.52890E-06 0.00000E+00
 -1       125 1.71678E-04-1.91621E-06 0.00000E+00
 -1       191 1.10518E-04 1.07100E-07-3.30872E-24
 -1       192 1.10538E-04 2.14198E-07-1.65436E-24
 -1       193 1.10571E-04 3.21296E-07 3.30872E-24
 -1       194 1.10618E-04 4.28392E-07 1.65436E-24
 -1       195 1.10678E-04 5.35484E-07-3.30872E-24
 -1       251 1.88929E-04 4.78263E-06-1.32349E-23
 -1       252 1.88404E-04 1.15543E-05 0.00000E+00
 -1       253 1.87878E-04 1.85419E-05 1.32349E-23
 -1       254 1.87355E-04 2.48190E-05-6.61744E-24
 -1       255 1.86840E-04 2.96313E-05 0.00000E+00
 -1       256 1.86332E-04 3.22553E-05-6.61744E-24
 -1       257 1.85828E-04 3.24977E-05 1.32349E-23
 -1       258 1.85321E-04 3.02147E-05-6.61744E-24
 -1       259 1.84807E-04 2.58746E-05 1.32349E-23
 -1       260 1.84286E-04 1.99883E-05 0.00000E+00
 -1       261 1.83761E-04 1.34418E-05 0.00000E+00
 -1       262 1.83237E-04 7.13438E-06 0.00000E+00
 -1       263 1.82720E-04 1.90766E-06 0.00000E+00
 -1       264 1.82209E-04-1.41914E-06 6.61744E-24
 -1       265 1.81703E-04-2.48781E-06 0.00000E+00
 -1       266 1.84410E-04-8.79247E-07 6.61744E-24
 -1       267 1.79379E-04-8.93925E-07-1.65436E-24
 -1       268 1.74349E-04-9.09451E-07 1.65436E-24
 -1       269 1.69318E-04-9.22463E-07 4.13590E-25
 -1       270 1.64287E-04-9.35416E-07 0.00000E+00
 -1       271 1.86449E-04 3.12834E-06 2.64698E-23
 -1       272 1.83814E-04 6.03531E-06-1.32349E-23
 -1       273 1.81554E-04 7.95806E-06 0.00000E+00
 -1       274 1.79625E-04 8.98239E-06 0.00000E+00
 -1       275 1.77993E-04 9.21545E-06 5.29396E-23
 -1       276 1.76612E-04 8.77541E-06 2.64698E-23
 -1       277 1.75435E-04 7.79317E-06 0.00000E+00
 -1       278 1.74408E-04 6.40857E-06-2.64698E-23
 -1       279 1.73476E-04 4.76879E-06 5.29396E-23
 -1       280 1.72583E-04 3.02538E-06 0.00000E+00
 -1       281 1.71672E-04 1.33166E-06 0.00000E+00
 -1       282 1.70685E-04-1.59777E-07 0.00000E+00
 -1       283 1.69568E-04-1.30020E-06 0.00000E+00
 -1       284 1.68271E-04-1.94532E-06 1.32349E-23
 -1       285 1.66737E-04-1.96317E-06-2.64698E-23
 -1       301 1.78213E-04-1.04109E-06-6.61744E-24
 -1       302 1.75186E-04-1.07197E-06 0.00000E+00
 -1       303 1.72229E-04-1.10135E-06 0.00000E+00
 -1       304 1.69459E-04-1.13078E-06 0.00000E+00
 -1       305 1.66994E-04-1.16147E-06 1.32349E-23
 -1       306 1.82391E-04-1.14839E-05 5.29396E-23
 -1       307 1.91998E-04-4.61383E-05-2.64698E-23
 -1       308 2.07670E-04-9.91163E-05 5.29396E-23
 -1       309 2.26809E-04-1.63192E-04 2.64698E-23
 -1       310 2.46363E-04-2.28606E-04 5.29396E-23
 -1       311 2.63261E-04-2.85494E-04 2.64698E-23
 -1       312 2.74806E-04-3.25950E-04 0.00000E+00
 -1       313 2.78394E-04-3.43334E-04 0.00000E+00
 -1       314 2.72882E-04-3.36164E-04-5.29396E-23
 -1       315 2.57731E-04-3.04742E-04 2.64698E-23
 -1       316 2.34716E-04-2.54598E-04 0.00000E+00
 -1       317 2.06447E-04-1.92493E-04 0.00000E+00
 -1       318 1.76981E-04-1.27701E-04-5.29396E-23
 -1       319 1.50539E-04-6.96523E-05 0.00000E+00
 -1       320 1.30467E-04-2.63916E-05 0.00000E+00
 -1       336 1.61596E-04-2.73310E-06-1.32349E-23
 -1       337 1.55093E-04-3.16515E-06 6.61744E-24
 -1       338 1.47605E-04-3.60367E-06 1.32349E-23
 -1       339 1.39156E-04-4.04887E-06-6.61744E-24
 -1       340 1.29772E-04-4.50212E-06-1.32349E-23
 -1       406 1.10839E-04 7.49639E-07 3.30872E-24
 -1       407 1.10939E-04 8.56672E-07 0.00000E+00
 -1       408 1.11053E-04 9.63637E-07 0.00000E+00
 -1       409 1.11180E-04 1.07040E-06 0.00000E+00
 -1       410 1.11320E-04 1.17674E-06 3.30872E-24
 -1       521 1.70895E-04-2.73199E-05-5.29396E-23
 -1       522 1.93321E-04-1.05029E-04 5.29396E-23
 -1       523 2.26571E-04-2.21612E-04 0.00000E+00
 -1       524 2.65296E-04-3.60649E-04 5.29396E-23
 -1       525 3.04226E-04-5.00555E-04 0.00000E+00
 -1       526 3.38100E-04-6.19656E-04 0.00000E+00
 -1       527 3.61601E-04-7.01093E-04 1.05879E-22
 -1       528 3.68955E-04-7.31580E-04 0.00000E+00
 -1       529 3.56534E-04-7.08957E-04 0.00000E+00
 -1       530 3.22318E-04-6.35696E-04-5.29396E-23
 -1       531 2.69902E-04-5.24460E-04 0.00000E+00
 -1       532 2.05676E-04-3.90555E-04 0.00000E+00
 -1       533 1.39815E-04-2.53575E-04-1.05879E-22
 -1       534 8.27956E-05-1.33276E-04 5.29396E-23
 -1       535 4.22036E-05-4.63145E-05-5.29396E-23
 -1       536 1.19191E-04 1.25177E-05-6.61744E-24
 -1       537 1.18590E-04 4.34258E-05 0.00000E+00
 -1       538 1.17707E-04 8.28839E-05-3.30872E-24
 -1       539 1.16682E-04 1.25963E-04-1.65436E-24
 -1       540 1.15748E-04 1.66719E-04 0.00000E+00
 -1       541 1.15105E-04 1.99218E-04 0.00000E+00
 -1       542 1.14758E-04 2.19796E-04 0.00000E+00
 -1       543 1.14603E-04 2.24858E-04 0.00000E+00
 -1       544 1.14413E-04 2.14875E-04 3.30872E-24
 -1       545 1.13984E-04 1.90411E-04 1.65436E-24
 -1       546 1.13276E-04 1.55858E-04 3.30872E-24
 -1       547 1.12367E-04 1.15665E-04 1.65436E-24
 -1       548 1.11471E-04 7.58456E-05-3.30872E-24
 -1       549 1.10801E-04 4.24136E-05 0.00000E+00
 -1       550 1.10411E-04 1.96183E-05-1.65436E-24
 -1       551 1.06433E-04-5.26383E-06 0.00000E+00
 -1       552 9.11481E-05-5.59355E-06 0.00000E+00
 -1       553 7.43946E-05-5.94431E-06 3.30872E-24
 -1       554 5.69483E-05-6.30819E-06 6.61744E-24
 -1       555 3.95845E-05-6.67360E-06 0.00000E+00
 -1       556 1.15844E-04 4.46056E-06 0.00000E+00
 -1       557 1.12948E-04 1.19713E-05 0.00000E+00
 -1       558 1.10725E-04 1.77313E-05 2.64698E-23
 -1       559 1.09104E-04 2.19123E-05 0.00000E+00
 -1       560 1.08017E-04 2.46857E-05 0.00000E+00
 -1       561 1.07397E-04 2.62240E-05 0.00000E+00
 -1       562 1.07177E-04 2.67001E-05 0.00000E+00
 -1       563 1.07291E-04 2.62872E-05 0.00000E+00
 -1       564 1.07673E-04 2.51588E-05 0.00000E+00
 -1       565 1.08258E-04 2.34884E-05 0.00000E+00
 -1       566 1.08980E-04 2.14498E-05 0.00000E+00
 -1       567 1.09775E-04 1.92168E-05 0.00000E+00
 -1       568 1.10577E-04 1.69633E-05 0.00000E+00
 -1       569 1.11323E-04 1.48629E-05 0.00000E+00
 -1       570 1.11946E-04 1.30895E-05 0.00000E+00
 -1       571 1.10320E-04 1.10177E-05-8.27181E-25
 -1       572 1.10396E-04 1.03362E-05 4.13590E-25
 -1       573 1.10472E-04 9.60997E-06 0.00000E+00
 -1       574 1.10549E-04 8.85030E-06 0.00000E+00
 -1       575 1.10626E-04 8.06855E-06 0.00000E+00
 -1       576 1.10703E-04 7.27615E-06 0.00000E+00
 -1       577 1.10780E-04 6.48454E-06-3.30872E-24
 -1       578 1.10857E-04 5.70517E-06 0.00000E+00
 -1       579 1.10934E-04 4.94949E-06 0.00000E+00
 -1       580 1.11011E-04 4.22895E-06 0.00000E+00
 -1       581 1.11088E-04 3.55500E-06 0.00000E+00
 -1       582 1.11165E-04 2.93906E-06 0.00000E+00
 -1       583 1.11242E-04 2.39257E-06 0.00000E+00
 -1       584 1.11319E-04 1.92684E-06 0.00000E+00
 -1       585 1.11397E-04 1.55309E-06 6.61744E-24
 -1       586 1.10588E-04 1.16734E-05 0.00000E+00
 -1       587 1.10892E-04 1.17026E-05 0.00000E+00
 -1       588 1.11191E-04 1.17317E-05 8.27181E-25
 -1       589 1.11517E-04 1.17603E-05 0.00000E+00
 -1       590 1.11904E-04 1.17882E-05 0.00000E+00
 -1       591 1.10435E-04 1.10712E-05 1.03398E-25
 -1       592 1.10635E-04 1.04621E-05 0.00000E+00
 -1       593 1.10845E-04 9.82354E-06 0.00000E+00
 -1       594 1.11064E-04 9.16202E-06 0.00000E+00
 -1       595 1.11290E-04 8.48404E-06 8.27181E-25
 -1       596 1.11518E-04 7.79604E-06-4.13590E-25
 -1       597 1.11749E-04 7.10450E-06 0.00000E+00
 -1       598 1.11978E-04 6.41587E-06 0.00000E+00
 -1       599 1.12203E-04 5.73659E-06-8.27181E-25
 -1       600 1.12423E-04 5.07311E-06-4.13590E-25
 -1       601 1.12634E-04 4.43190E-06-4.13590E-25
 -1       602 1.12835E-04 3.81941E-06 0.00000E+00
 -1       603 1.13022E-04 3.24208E-06-4.13590E-25
 -1       604 1.13195E-04 2.70646E-06-7.75482E-26
 -1       605 1.13349E-04 2.21893E-06 0.00000E+00
 -1       606 1.11487E-04 1.19208E-06 0.00000E+00
 -1       607 1.11497E-04 1.19520E-06 0.00000E+00
 -1       608 1.11506E-04 1.28555E-06 0.00000E+00
 -1       609 1.11516E-04 1.45701E-06-1.65436E-24
 -1       610 1.11525E-04 1.70340E-06 0.00000E+00
 -1       611 1.11534E-04 2.01847E-06 0.00000E+00
 -1       612 1.11543E-04 2.39597E-06 0.00000E+00
 -1       613 1.11551E-04 2.82962E-06 0.00000E+00
 -1       614 1.11560E-04 3.31317E-06 0.00000E+00
 -1       615 1.11569E-04 3.84034E-06 0.00000E+00
 -1       616 1.11578E-04 4.40488E-06 0.00000E+00
 -1       617 1.11587E-04 5.00052E-06 0.00000E+00
 -1       618 1.11596E-04 5.62098E-06-8.27181E-25
 -1       619 1.11604E-04 6.26001E-06 0.00000E+00
 -1       620 1.11613E-04 6.91134E-06 0.00000E+00
 -1       621 1.11689E-04 1.36592E-06 1.65436E-24
 -1       622 1.11972E-04 1.45062E-06-8.27181E-25
 -1       623 1.12309E-04 1.53530E-06 0.00000E+00
 -1       624 1.12683E-04 1.61983E-06-8.27181E-25
 -1       625 1.13080E-04 1.70419E-06-1.65436E-24
 -1       626 1.11595E-04 1.21843E-06 0.00000E+00
 -1       627 1.11688E-04 1.22938E-06 0.00000E+00
 -1       628 1.11758E-04 1.30706E-06 0.00000E+00
 -1       629 1.11805E-04 1.44362E-06 1.65436E-24
 -1       630 1.11832E-04 1.63116E-06 3.30872E-24
 -1       631 1.11844E-04 1.86176E-06 1.65436E-24
 -1       632 1.11843E-04 2.12750E-06 3.30872E-24
 -1       633 1.11831E-04 2.42044E-06 1.65436E-24
 -1       634 1.11812E-04 2.73265E-06 0.00000E+00
 -1       635 1.11789E-04 3.05621E-06 0.00000E+00
 -1       636 1.11765E-04 3.38320E-06 3.30872E-24
 -1       637 1.11742E-04 3.70568E-06-8.27181E-25
 -1       638 1.11724E-04 4.01573E-06 0.00000E+00
 -1       639 1.11713E-04 4.30541E-06-8.27181E-25
 -1       640 1.11713E-04 4.56677E-06 0.00000E+00
 -1       656 1.11178E-04 7.11701E-06-6.61744E-24
 -1       657 1.11110E-04 6.64719E-06 6.61744E-24
 -1       658 1.11281E-04 6.17872E-06-1.32349E-23
 -1       659 1.11549E-04 5.71060E-06-6.61744E-24
 -1       660 1.11751E-04 5.24103E-06 0.00000E+00
 -1       661 1.11459E-04 8.19606E-06 0.00000E+00
 -1       662 1.11324E-04 8.76098E-06-8.27181E-25
 -1       663 1.11211E-04 9.26581E-06 1.65436E-24
 -1       664 1.11120E-04 9.71423E-06-8.27181E-25
 -1       665 1.11049E-04 1.01093E-05 0.00000E+00
 -1       666 1.10997E-04 1.04541E-05 0.00000E+00
 -1       667 1.10963E-04 1.07517E-05 0.00000E+00
 -1       668 1.10945E-04 1.10049E-05-8.27181E-25
 -1       669 1.10943E-04 1.12164E-05 1.65436E-24
 -1       670 1.10956E-04 1.13891E-05 0.00000E+00
 -1       671 1.10982E-04 1.15254E-05 1.65436E-24
 -1       672 1.11021E-04 1.16277E-05 8.27181E-25
 -1       673 1.11071E-04 1.16986E-05-1.65436E-24
 -1       674 1.11132E-04 1.17401E-05-8.27181E-25
 -1       675 1.11203E-04 1.17549E-05 0.00000E+00
 -1       676 1.11043E-04 1.21705E-05-3.30872E-24
 -1       677 1.11090E-04 1.20844E-05 1.65436E-24
 -1       678 1.11137E-04 1.19985E-05 3.30872E-24
 -1       679 1.11184E-04 1.19128E-05 8.27181E-25
 -1       680 1.11231E-04 1.18270E-05 1.65436E-24
 -1       771 1.68286E-05 6.01975E-06 5.29396E-23
 -1       772 1.14842E-05 1.67420E-05 0.00000E+00
 -1       773 6.99943E-06 2.52359E-05 0.00000E+00
 -1       774 3.31717E-06 3.16357E-05 2.64698E-23
 -1       775 3.81011E-07 3.60795E-05 5.29396E-23
 -1       776-1.86782E-06 3.87120E-05-2.64698E-23
 -1       777-3.48865E-06 3.96815E-05-5.29396E-23
 -1       778-4.54215E-06 3.91417E-05 0.00000E+00
 -1       779-5.08929E-06 3.72496E-05 0.00000E+00
 -1       780-5.19219E-06 3.41663E-05 0.00000E+00
 -1       781-4.91302E-06 3.00555E-05 0.00000E+00
 -1       782-4.31487E-06 2.50844E-05 0.00000E+00
 -1       783-3.46081E-06 1.94216E-05 0.00000E+00
 -1       784-2.41456E-06 1.32382E-05 0.00000E+00
 -1       785-1.23972E-06 6.70661E-06 2.64698E-23
 -1       786 1.12449E-04 1.11137E-05-8.27181E-25
 -1       787 1.12517E-04 1.04181E-05 8.27181E-25
 -1       788 1.12586E-04 9.72646E-06 0.00000E+00
 -1       789 1.12655E-04 9.03877E-06-8.27181E-25
 -1       790 1.12724E-04 8.35543E-06 0.00000E+00
 -1       791 1.12794E-04 7.67691E-06-8.27181E-25
 -1       792 1.12863E-04 7.00447E-06 0.00000E+00
 -1       793 1.12932E-04 6.33936E-06-8.27181E-25
 -1       794 1.13002E-04 5.68404E-06 1.65436E-24
 -1       795 1.13071E-04 5.04100E-06-8.27181E-25
 -1       796 1.13141E-04 4.41472E-06-1.65436E-24
 -1       797 1.13210E-04 3.80970E-06 0.00000E+00
 -1       798 1.13280E-04 3.23392E-06 1.65436E-24
 -1       799 1.13349E-04 2.69543E-06 0.00000E+00
 -1       800 1.13418E-04 2.20832E-06-1.65436E-24
 -1       801 8.49824E-05 1.06705E-05 0.00000E+00
 -1       802 2.07021E-06 6.59483E-06 0.00000E+00
 -1       803-6.80936E-05 3.29913E-06 2.64698E-23
 -1       804-5.77708E-05 2.30243E-06 0.00000E+00
 -1       805-1.77239E-05 8.66202E-07 0.00000E+00
 -1       806 1.12560E-04 1.10615E-05-1.65436E-24
 -1       807 1.12733E-04 1.03065E-05 0.00000E+00
 -1       808 1.12905E-04 9.55466E-06 0.00000E+00
 -1       809 1.13073E-04 8.81114E-06 0.00000E+00
 -1       810 1.13236E-04 8.08111E-06 0.00000E+00
 -1       811 1.13391E-04 7.36963E-06-8.27181E-25
 -1       812 1.13538E-04 6.68182E-06-1.65436E-24
 -1       813 1.13674E-04 6.02274E-06-8.27181E-25
 -1       814 1.13798E-04 5.39745E-06 1.65436E-24
 -1       815 1.13907E-04 4.81102E-06-1.65436E-24
 -1       816 1.13999E-04 4.26852E-06 0.00000E+00
 -1       817 1.14074E-04 3.77499E-06-1.65436E-24
 -1       818 1.14128E-04 3.33550E-06 1.65436E-24
 -1       819 1.14160E-04 2.95509E-06 0.00000E+00
 -1       820 1.14168E-04 2.63878E-06 1.65436E-24
 -1       821 1.13383E-04 1.33237E-06 8.27181E-25
 -1       822 1.13272E-04 7.47670E-07 0.00000E+00
 -1       823 1.13162E-04 1.25476E-07 0.00000E+00
 -1       824 1.13051E-04-4.41272E-07 1.65436E-24
 -1       825 1.12940E-04-8.72305E-07 0.00000E+00
 -1       826 1.12828E-04-1.08802E-06 0.00000E+00
 -1       827 1.12717E-04-1.05774E-06 3.30872E-24
 -1       828 1.12606E-04-7.52026E-07 1.65436E-24
 -1       829 1.12494E-04-2.04034E-07 3.30872E-24
 -1       830 1.12383E-04 5.51878E-07 1.65436E-24
 -1       831 1.12271E-04 1.43412E-06 3.30872E-24
 -1       832 1.12159E-04 2.36045E-06 0.00000E+00
 -1       833 1.12048E-04 3.23858E-06 0.00000E+00
 -1       834 1.11938E-04 3.97652E-06-8.27181E-25
 -1       835 1.11828E-04 4.51400E-06 0.00000E+00
 -1       836 1.13769E-04 1.88733E-06 0.00000E+00
 -1       837 1.13920E-04 1.99017E-06 0.00000E+00
 -1       838 1.13988E-04 2.09287E-06 0.00000E+00
 -1       839 1.14018E-04 2.19494E-06 0.00000E+00
 -1       840 1.14058E-04 2.29686E-06 0.00000E+00
 -1       856 1.11700E-04 5.00060E-06 0.00000E+00
 -1       857 1.11672E-04 5.32388E-06 0.00000E+00
 -1       858 1.11645E-04 5.74370E-06 4.13590E-25
 -1       859 1.11617E-04 6.24209E-06 0.00000E+00
 -1       860 1.11589E-04 6.80096E-06 0.00000E+00
 -1       861 1.11561E-04 7.40215E-06 0.00000E+00
 -1       862 1.11533E-04 8.02748E-06 0.00000E+00
 -1       863 1.11504E-04 8.65874E-06 0.00000E+00
 -1       864 1.11476E-04 9.27771E-06-8.27181E-25
 -1       865 1.11448E-04 9.86617E-06 0.00000E+00
 -1       866 1.11420E-04 1.04060E-05 8.27181E-25
 -1       867 1.11392E-04 1.08789E-05 0.00000E+00
 -1       868 1.11363E-04 1.12671E-05 0.00000E+00
 -1       869 1.11335E-04 1.15524E-05 0.00000E+00
 -1       870 1.11307E-04 1.17170E-05-8.27181E-25
 -1       871 1.11738E-04 4.78988E-06 8.27181E-25
 -1       872 1.11865E-04 4.78554E-06 0.00000E+00
 -1       873 1.12056E-04 4.78073E-06 0.00000E+00
 -1       874 1.12258E-04 4.77536E-06 5.16988E-26
 -1       875 1.12423E-04 4.76948E-06 8.27181E-25
 -1       876 1.11748E-04 5.01112E-06 3.30872E-24
 -1       877 1.11753E-04 5.28662E-06 0.00000E+00
 -1       878 1.11740E-04 5.61148E-06-3.30872E-24
 -1       879 1.11710E-04 5.97946E-06 0.00000E+00
 -1       880 1.11667E-04 6.38421E-06-3.30872E-24
 -1       881 1.11613E-04 6.81947E-06 1.65436E-24
 -1       882 1.11550E-04 7.27895E-06 3.30872E-24
 -1       883 1.11480E-04 7.75641E-06 0.00000E+00
 -1       884 1.11405E-04 8.24557E-06-3.30872E-24
 -1       885 1.11328E-04 8.74020E-06 0.00000E+00
 -1       886 1.11252E-04 9.23401E-06-3.30872E-24
 -1       887 1.11178E-04 9.72075E-06 0.00000E+00
 -1       888 1.11109E-04 1.01941E-05-3.30872E-24
 -1       889 1.11047E-04 1.06478E-05 0.00000E+00
 -1       890 1.10994E-04 1.10755E-05-8.27181E-25
 -1       891 1.11346E-04 1.16974E-05 1.65436E-24
 -1       892 1.11394E-04 1.16514E-05 4.13590E-25
 -1       893 1.11401E-04 1.16054E-05 8.27181E-25
 -1       894 1.11343E-04 1.15595E-05-4.13590E-25
 -1       895 1.11200E-04 1.15138E-05 2.06795E-25
 -1       956 1.14051E-04 2.28581E-06 0.00000E+00
 -1       957 1.13947E-04 2.25157E-06-8.27181E-25
 -1       958 1.13844E-04 2.28109E-06 1.65436E-24
 -1       959 1.13740E-04 2.36628E-06 0.00000E+00
 -1       960 1.13637E-04 2.49902E-06 1.65436E-24
 -1       961 1.13533E-04 2.67114E-06 1.65436E-24
 -1       962 1.13429E-04 2.87447E-06 0.00000E+00
 -1       963 1.13325E-04 3.10085E-06 1.65436E-24
 -1       964 1.13222E-04 3.34209E-06 0.00000E+00
 -1       965 1.13118E-04 3.59002E-06 1.65436E-24
 -1       966 1.13014E-04 3.83646E-06 3.30872E-24
 -1       967 1.12910E-04 4.07323E-06-1.65436E-24
 -1       968 1.12807E-04 4.29215E-06 3.30872E-24
 -1       969 1.12703E-04 4.48508E-06-1.65436E-24
 -1       970 1.12600E-04 4.64388E-06 0.00000E+00
 -1       971 1.12403E-04 4.89106E-06 1.65436E-24
 -1       972 1.12306E-04 5.10397E-06-1.65436E-24
 -1       973 1.12208E-04 5.39030E-06-1.65436E-24
 -1       974 1.12111E-04 5.74058E-06 0.00000E+00
 -1       975 1.12014E-04 6.14532E-06 3.30872E-24
 -1       976 1.11916E-04 6.59500E-06 0.00000E+00
 -1       977 1.11819E-04 7.08013E-06-3.30872E-24
 -1       978 1.11721E-04 7.59118E-06 1.65436E-24
 -1       979 1.11624E-04 8.11861E-06 0.00000E+00
 -1       980 1.11526E-04 8.65290E-06 1.65436E-24
 -1       981 1.11429E-04 9.18452E-06 0.00000E+00
 -1       982 1.11332E-04 9.70394E-06 0.00000E+00
 -1       983 1.11235E-04 1.02016E-05-3.30872E-24
 -1       984 1.11138E-04 1.06681E-05 0.00000E+00
 -1       985 1.11041E-04 1.10938E-05-1.65436E-24
 -3
    1PSTEP                        16           8           1          
  100CL  108 5.51758E-01         409                     0    8           1
 -4  STRESS      6    1
 -5  SXX         1    4    1    1
 -5  SYY         1    4    2    2
 -5  SZZ         1    4    3    3
 -5  SXY         1    4    1    2
 -5  SYZ         1    4    2    3
 -5  SZX         1    4    3    1
 -1         1-2.40232E+06-1.00984E+06-5.10620E+05-1.27968E+06 1.23691E-10 3.15777E-08
 -1         2 2.50766E+03-4.49688E+05 8.15355E+03-1.15049E+03-4.11546E-11 1.94734E-09
 -1         3-3.18409E+02-1.08542E+06 2.66018E+02-7.24635E+02-3.54699E-10-6.00448E-09
 -1         5-2.12198E+00 3.06444E+05 8.26753E+00-1.07121E-01-1.52742E-10-3.92447E-09
 -1         8-1.14701E+06-4.07099E+05-1.21509E+05-5.43162E+05 1.16415E-10-1.04119E-08
 -1         9-2.21471E+06-8.14186E+05-2.82853E+05-7.50304E+05 6.47851E-09-6.17001E-10
 -1        10-1.02885E+03-1.13079E+06-1.54790E+03-4.90487E+03-6.23004E-09-2.60220E-08
 -1        12 1.27031E+00 3.06462E+05 2.67688E+02-8.08471E-01-6.12772E-11-2.84471E-08
 -1        15 1.97931E+03 1.08775E+03 6.39813E+03 4.30587E+00-2.33058E-11-5.14928E-09
 -1        16-2.45401E+06-1.22953E+06-4.05067E+05-1.32917E+06 1.08557E-08 1.25340E-08
 -1        17-1.27507E+06-6.68034E+05-2.34292E+05-5.81995E+05-4.95929E-09 9.53442E-09
 -1        18-7.82339E+03-5.10077E+03-2.52180E+04-8.29926E+04 9.62496E-09 4.47426E-09
 -1        19 9.45734E+04 1.13573E+05-4.92177E+02 1.73302E+04 2.71029E-11-2.34068E-09
 -1        20-4.76741E+04-4.43659E+05-9.84573E+04 2.79050E+04 1.72774E-09 3.11835E-09
 -1        21-3.98661E+01-2.46361E+05-7.87320E+02 7.99805E+00 2.05430E-05-4.88406E-10
 -1        24-2.91018E+06-6.47782E+05-2.98366E+05-9.94717E+05-4.76915E-08-2.00428E-08
 -1        25 8.70081E+04 1.62095E+05 6.41154E+04-2.13811E+05 1.76385E-08 1.76049E-08
 -1        26-2.57556E+04 7.75540E+04-1.55643E+04-8.07109E+03 9.92077E-10 5.13382E-09
 -1        27-6.85448E+04-2.42663E+05-9.03289E+04 5.39999E+04 4.99980E-09-2.25342E-09
 -1        28 1.89067E+04-6.89853E+04 1.39640E+04 2.03505E+04 1.37942E-09 3.03950E-09
 -1        32-1.08236E+06-1.00625E+06 2.04879E+05-3.69188E+05-1.47666E-08 1.20019E-08
 -1        33-1.36704E+05 7.28821E+04 2.54257E+04-4.00894E+04-4.36141E-10 2.31557E-09
 -1        34-1.77320E+05-1.86233E+04 4.56649E+02 5.65663E+04 8.68151E-10 4.11319E-09
 -1        35-1.93131E+04-2.73751E+04-1.08001E+03 4.28938E+04 1.44140E-09 3.31420E-09
 -1        51 2.26509E+04-3.45512E+05 5.47474E+04-9.61507E+05 1.16415E-10 6.06815E-09
 -1        52 1.18484E+04-3.41489E+05 3.38278E+04-1.12134E+06 5.45697E-10-2.76486E-08
 -1        53 7.35345E+03-3.56343E+05 2.56095E+04-9.58113E+05 1.09139E-09-7.81438E-09
 -1        54 2.01833E+04-3.54861E+05 3.72231E+04-1.12485E+06 9.02219E-10-1.74623E-10
 -1        55 3.96383E+04-3.68604E+05 6.40917E+04-9.57558E+05 5.38421E-10 1.91358E-09
 -1        56-4.58808E+06-5.13322E+05-3.75844E+05-1.77349E+06-8.65839E-10 1.45519E-08
 -1        57-4.75451E+06-8.38911E+05-2.53507E+05-1.74159E+06 1.76806E-09 6.60657E-09
 -1        58-4.66309E+06-6.33161E+05-8.83776E+04-1.75043E+06-4.89308E-10-2.89583E-09
 -1        59-4.66802E+06-6.97872E+05-5.27633E+04-1.76850E+06-2.17028E-09-3.50337E-09
 -1        60-4.67354E+06-6.50369E+05-2.06080E+04-1.74788E+06-1.20099E-09 3.99268E-10
 -1        61-4.65778E+06-6.75764E+05-1.16808E+04-1.76915E+06-3.34990E-09 1.31389E-08
 -1        62-4.67308E+06-6.54769E+05-5.56366E+03-1.74989E+06 5.95492E-10-6.83360E-09
 -1        63-4.66145E+06-6.67910E+05-4.45185E+03-1.76326E+06-1.04728E-09 2.76259E-10
 -1        64-4.66978E+06-6.58202E+05-4.96014E+03-1.75373E+06 3.57227E-09-1.06979E-09
 -1        65-4.66987E+06-6.62630E+05-9.83389E+03-1.75472E+06-7.33473E-09 1.22734E-08
 -1        66-4.66466E+06-6.60112E+05-1.71885E+04-1.75840E+06 2.49315E-10-1.00135E-08
 -1        67-4.68735E+06-6.71938E+05-4.37697E+04-1.74390E+06-4.56987E-09 2.63299E-10
 -1        68-4.65250E+06-6.49308E+05-7.33186E+04-1.76446E+06-3.31966E-10-1.68002E-08
 -1        69-4.76326E+06-7.84840E+05-2.10220E+05-1.71709E+06-2.90129E-09-6.71935E-09
 -1        70-4.58973E+06-5.50480E+05-3.11737E+05-1.78420E+06-4.22006E-10-5.23869E-09
 -1        86-1.25833E+03-4.52301E+05 8.72403E+03 5.75241E+02 1.01204E-09-1.48777E-08
 -1        87 8.32729E+03-4.46937E+05 1.82061E+04-2.19337E+03 1.66392E-09-2.41262E-08
 -1        88-7.05536E+03-4.55054E+05 2.79030E+04 1.61815E+03 2.31194E-09 7.71971E-09
 -1        89 5.25628E+04-4.26559E+05 7.51795E+04-3.94258E+03 3.39696E-09 1.56729E-08
 -1        90-4.53333E+04-4.72656E+05 1.06341E+05 2.32479E+03 3.16504E-09 1.45282E-08
 -1       121-4.57366E+02-1.08659E+06 8.93464E+01 3.61309E+02 7.39547E-10-1.36442E-08
 -1       122-2.26415E+02-1.08538E+06 5.59809E+02-1.44814E+03-2.52366E-09 1.67802E-09
 -1       123-5.08140E+02-1.08666E+06 7.34879E+02 1.08082E+03 1.97883E-09 4.43106E-09
 -1       124 8.11302E+02-1.08482E+06 2.29323E+03-3.11174E+03-4.68594E-09 1.35333E-09
 -1       125-1.14758E+03-1.08724E+06 3.34910E+03 2.02086E+03 3.30056E-09-1.80771E-08
 -1       191-2.50397E+00 3.06471E+05 1.00771E+01 5.37393E-02-6.40019E-11-1.41899E-08
 -1       192-2.87974E+00 3.06445E+05 1.74948E+01-4.32483E-01-9.00764E-11-3.02198E-08
 -1       193-4.51947E+00 3.06471E+05 3.27245E+01 3.80138E-01-1.56147E-10-2.39977E-08
 -1       194-5.31858E+00 3.06447E+05 6.61473E+01-1.01614E+00-8.97415E-11-1.25229E-08
 -1       195-8.39279E+00 3.06469E+05 1.29575E+02 6.40599E-01-1.94902E-10-2.02610E-08
 -1       251-1.43325E+06 1.84017E+04-4.37807E+04-1.87877E+04-9.24729E-10-6.77392E-09
 -1       252-1.45123E+06-2.10903E+04-3.06364E+04 3.79680E+04 1.57177E-09 8.41601E-09
 -1       253-1.44008E+06 2.77950E+03-1.13097E+04-2.00880E+04 7.23503E-10 2.68074E-09
 -1       254-1.44086E+06-3.01702E+03-6.57703E+03 3.02838E+04 1.36782E-09-8.23695E-09
 -1       255-1.44341E+06 2.37541E+02-3.33763E+03-1.11020E+04 1.04023E-09 7.35088E-09
 -1       256-1.43621E+06-3.01916E+02-5.54908E+02 6.67625E+03 1.31729E-09 3.54697E-08
 -1       257-1.44441E+06-1.79135E+02-1.30255E+03 3.51997E+03 7.87622E-10 1.72064E-08
 -1       258-1.43728E+06 1.84286E+02 5.90429E+02-2.05657E+04-5.51950E-10 4.01652E-09
 -1       259-1.44247E+06-1.44576E+02-9.75861E+01 1.61384E+04-2.05114E-09-1.88468E-08
 -1       260-1.44064E+06 5.26386E+02 7.84385E+02-3.72272E+04-2.70146E-09-2.01018E-08
 -1       261-1.44139E+06-2.49384E+02 1.20302E+03 2.01834E+04 4.79196E-09 4.23955E-09
 -1       262-1.43935E+06 1.74353E+03 3.28040E+03-3.46493E+04-1.29205E-09 8.74428E-09
 -1       263-1.44368E+06-1.41024E+03 4.42116E+03 1.35599E+04 1.00601E-09 2.25145E-09
 -1       264-1.43206E+06 9.55758E+03 1.40861E+04-1.41932E+04 3.76485E-09 2.07849E-08
 -1       265-1.44832E+06-8.31806E+03 1.78129E+04-2.73917E+02-1.56888E-10 2.77942E-09
 -1       266-3.58311E+04-1.67521E+04 8.40822E+04-9.21440E+01 4.00178E-11 1.00258E-08
 -1       267 4.15392E+04 1.95289E+04 5.94218E+04 1.06301E+02 5.00222E-11 2.39370E-08
 -1       268-5.57029E+03-2.76561E+03 2.20872E+04-1.35455E+01 3.63798E-11 3.80332E-09
 -1       269 6.57693E+03 3.31009E+03 1.43560E+04 1.57775E+01 1.13687E-10-1.28625E-08
 -1       270-9.87205E+02-5.43864E+02 6.92984E+03-2.14116E+00-2.47837E-11-4.43540E-09
 -1       271-3.32744E+06-4.16300E+05-2.51637E+05-1.29586E+06-3.63798E-10 1.06229E-09
 -1       272-3.41588E+06-6.01761E+05-1.61801E+05-1.29558E+06 4.34648E-09-1.94068E-08
 -1       273-3.37598E+06-4.77856E+05-5.94523E+04-1.28326E+06-1.57797E-10-1.36097E-08
 -1       274-3.35830E+06-5.27055E+05-3.32441E+04-1.31534E+06-3.17050E-09-7.00948E-09
 -1       275-3.38418E+06-4.82670E+05-1.38537E+04-1.27944E+06 1.03955E-09 9.98352E-09
 -1       276-3.34796E+06-5.22104E+05-7.32053E+03-1.32192E+06-2.56478E-09 8.40373E-09
 -1       277-3.38669E+06-4.81653E+05-3.60384E+03-1.27735E+06 8.85848E-10 9.57266E-09
 -1       278-3.34493E+06-5.23674E+05-2.57580E+03-1.32524E+06 1.58252E-09 1.00823E-08
 -1       279-3.38758E+06-4.80793E+05-2.73884E+03-1.27641E+06-1.77670E-09-6.46003E-09
 -1       280-3.34479E+06-5.24903E+05-5.00566E+03-1.32601E+06 2.59499E-09 9.86688E-09
 -1       281-3.38695E+06-4.80400E+05-9.09796E+03-1.27664E+06 1.00272E-10-4.36376E-09
 -1       282-3.35014E+06-5.29664E+05-2.18222E+04-1.32357E+06-9.06084E-10 9.14770E-09
 -1       283-3.38215E+06-4.76689E+05-3.88588E+04-1.27852E+06 7.06166E-10-1.23691E-10
 -1       284-3.38707E+06-5.79223E+05-1.05895E+05-1.31132E+06-1.54898E-09 1.08066E-08
 -1       285-3.35049E+06-4.36367E+05-1.64663E+05-1.28667E+06-1.35697E-09-5.20231E-09
 -1       301 2.25569E+04-7.31424E+04 1.65112E+05-1.40595E+05-4.07454E-10-3.43573E-09
 -1       302 2.37071E+04-3.14322E+04 1.08343E+05-2.06366E+05 7.33962E-10 2.63890E-09
 -1       303 1.26729E+03-5.66693E+04 8.29520E+04-1.40556E+05-6.53017E-10 4.84397E-09
 -1       304 2.74365E+04-2.71776E+04 1.21350E+05-2.05928E+05 6.47560E-10 1.29112E-08
 -1       305 2.62810E+04-7.61072E+04 1.93826E+05-1.41086E+05-4.36557E-10-6.69388E-10
 -1       306-6.25759E+06-6.06469E+05-5.16895E+05-2.15192E+06-6.42649E-09 7.33417E-09
 -1       307-5.28636E+06-1.50788E+06-2.38298E+05-2.81518E+06-7.82820E-08 3.50410E-08
 -1       308-6.39307E+06-4.54640E+05-1.13531E+05-1.77560E+06-6.49925E-09 3.40369E-08
 -1       309-5.24248E+06-1.58456E+06-4.91631E+04-3.28919E+06 2.69828E-08-1.81763E-08
 -1       310-6.40187E+06-4.53228E+05-2.70007E+04-1.74523E+06-1.04337E-08-3.20085E-08
 -1       311-5.17752E+06-1.38086E+06 3.52879E+04-2.94856E+06 4.74865E-08-2.03909E-08
 -1       312-6.37613E+06-7.17806E+05-7.08995E+04-2.06317E+06-1.18307E-08-1.77497E-08
 -1       313-5.41484E+06-8.36755E+05 9.04991E+04-2.14923E+06-1.02009E-08-2.58842E-09
 -1       314-6.06506E+06-1.06823E+06-8.18507E+04-2.46644E+06 4.23097E-08-6.02449E-09
 -1       315-6.25704E+06-2.13398E+05 4.72751E+04-1.56249E+06-3.37204E-08-3.03262E-08
 -1       316-5.60979E+06-1.28557E+06-4.15090E+04-2.69889E+06-4.16876E-08-4.22406E-08
 -1       317-6.90742E+06 7.78676E+04-5.82126E+04-1.38350E+06 9.04133E-08-3.23198E-08
 -1       318-5.51494E+06-1.28964E+06-1.20177E+05-2.73041E+06-6.45050E-08 1.67856E-08
 -1       319-6.64268E+06-2.91262E+05-2.99536E+05-1.43791E+06-8.64384E-09 8.64020E-09
 -1       320-5.81449E+06-9.61969E+05-5.74627E+05-2.59034E+06 3.19269E-08-1.13505E-09
 -1       336 4.71805E+02-1.17630E+06-6.67672E+03 2.86682E+03-1.25074E-08 1.09994E-08
 -1       337-2.48592E+03-1.17726E+06-7.31617E+03-7.05782E+03-2.28788E-08 1.14687E-08
 -1       338 2.91767E+02-1.17645E+06-9.69084E+03 4.16066E+03-1.65228E-08-2.25555E-10
 -1       339-9.96347E+03-1.18215E+06-2.10628E+04-9.58811E+03-3.04699E-08-4.72755E-09
 -1       340 6.51464E+03-1.17176E+06-3.27310E+04 5.37487E+03-2.03199E-08 1.02464E-08
 -1       406 2.19059E+01 3.06457E+05 5.28673E+02 1.74601E-01-2.49855E-10-8.98581E-09
 -1       407 1.85504E+02 3.06554E+05 1.12317E+03 3.55774E+00-4.96243E-11-5.18412E-11
 -1       408 5.79566E+02 3.06376E+05 2.24343E+03-3.83542E+00-3.54476E-10-8.63793E-09
 -1       409 2.42657E+03 3.07271E+05 5.05009E+03 3.83041E+01-2.37833E-10-1.69879E-08
 -1       410 6.96967E+03 3.05738E+05 1.03097E+04-3.63310E+01-5.98448E-10-1.60132E-08
 -1       521-8.57066E+06-8.53184E+05-9.22657E+05-2.50368E+06-1.25438E-08 1.95578E-08
 -1       522-4.98940E+06-2.21215E+06-1.14434E+05-4.25952E+06-1.03231E-07-3.93811E-08
 -1       523-8.35396E+06-2.08942E+05-1.68113E+05-1.53018E+06 2.58660E-08-6.96673E-08
 -1       524-5.78066E+06-2.42772E+06-1.24630E+04-5.57686E+06 1.76065E-07-1.26178E-07
 -1       525-8.34973E+06-2.10729E+05-5.37009E+04-1.50529E+06 8.64529E-08-7.40674E-08
 -1       526-4.92517E+06-2.06475E+06 2.20550E+05-4.38366E+06 9.68430E-09-1.70985E-09
 -1       527-8.67177E+06-9.70417E+05-3.32732E+05-2.42644E+06 3.07336E-08 1.48502E-08
 -1       528-4.90515E+06-7.66687E+05 4.23649E+05-1.99881E+06 8.48595E-08 4.80213E-10
 -1       529-7.85874E+06-1.86583E+06-3.55459E+05-3.44775E+06-2.70666E-09 4.36557E-10
 -1       530-7.70022E+06 9.03242E+05 2.49796E+05-8.85520E+05-1.35740E-07 7.48150E-08
 -1       531-6.38310E+06-2.26541E+06-7.63658E+04-3.83888E+06-1.01914E-07-3.25454E-08
 -1       532-9.83279E+06 1.63691E+06-6.22489E+03-9.64812E+05 1.49808E-07-1.29347E-07
 -1       533-6.21937E+06-2.26692E+06-1.37531E+05-3.85762E+06 6.70116E-08-1.88440E-07
 -1       534-8.30758E+06 9.39126E+05-1.18795E+05-8.39541E+05-2.73649E-08 1.43295E-07
 -1       535-7.53310E+06-1.82256E+06-8.62410E+05-3.57862E+06-8.90577E-09 9.31032E-08
 -1       536-4.76439E+05-2.74783E+04 2.06817E+04-2.27881E+04-7.48219E-09 3.30583E-08
 -1       537-2.80908E+05 2.90886E+04 4.72934E+04 5.77078E+04-5.24563E-08 4.66753E-08
 -1       538-3.84444E+05-1.28740E+03 9.77015E+03-3.61927E+04 1.63640E-08 5.80849E-08
 -1       539-3.48584E+05 2.97114E+03 1.20323E+04 6.77745E+04 8.39281E-08 5.36724E-08
 -1       540-4.10285E+05-1.39326E+02-3.32437E+03-3.29307E+04-2.00043E-09 5.27632E-08
 -1       541-2.34311E+05 4.88329E+03 3.04185E+04 4.37542E+04-2.65537E-08 4.68305E-08
 -1       542-4.95649E+05-5.71346E+03-2.29779E+04-1.20512E+04 8.81050E-09 2.87690E-08
 -1       543-1.62434E+05 7.64254E+03 4.36502E+04-6.69225E+03 1.69324E-08-1.21848E-08
 -1       544-4.80255E+05-4.45630E+03-2.08501E+04 1.74203E+04-1.54239E-08-1.50134E-08
 -1       545-2.68960E+05 2.00740E+03 2.04117E+04-5.31091E+04-1.09795E-08-4.47503E-08
 -1       546-3.91940E+05 2.22140E+03-4.99177E+03 3.43211E+04 1.48880E-08-4.09894E-08
 -1       547-3.55908E+05-4.02954E+03-2.30624E+03-6.93835E+04-5.71490E-08-4.87119E-08
 -1       548-3.95586E+05 3.44432E+03-1.45295E+04 3.37916E+04-5.69437E-08-5.37552E-08
 -1       549-2.65868E+05-1.08300E+04-4.40735E+03-5.07261E+04-3.51822E-08-3.76585E-08
 -1       550-4.79451E+05 6.94185E+03-6.64095E+04 1.55599E+04 9.72250E-10-1.74459E-08
 -1       551 2.08107E+04-6.19548E+05 2.41296E+04-1.01507E+06-5.35656E-08-2.37196E-09
 -1       552 4.55960E+04-6.33806E+05 3.19845E+04-1.44626E+06-4.08036E-08 2.10857E-08
 -1       553 3.25938E+04-6.38636E+05 4.68630E+04-1.01122E+06-6.35991E-08 1.78406E-08
 -1       554 7.27530E+04-6.30213E+05 9.82255E+04-1.44766E+06-3.75730E-08 1.25692E-09
 -1       555 6.05525E+04-6.56867E+05 1.74221E+05-1.01224E+06-6.56219E-08-1.01754E-08
 -1       556 1.04887E+05-1.91184E+05 6.49779E+04-2.39367E+05-9.58971E-09 3.92902E-10
 -1       557 1.82811E+05-2.53312E+05 3.44538E+04-3.00601E+05 1.09139E-10-3.00315E-09
 -1       558 1.02692E+05-1.98780E+05 1.33827E+04-2.32870E+05-5.00586E-09 5.56247E-09
 -1       559 1.69658E+05-2.61559E+05 6.95122E+03-3.07132E+05 1.14305E-08 3.88900E-09
 -1       560 9.87098E+04-1.96206E+05 2.53355E+03-2.35542E+05-1.25146E-09-3.24872E-09
 -1       561 1.63943E+05-2.59748E+05 1.46651E+03-3.10817E+05-4.87489E-10 5.52427E-09
 -1       562 9.54776E+04-1.94110E+05 3.64070E+02-2.37870E+05-2.51748E-09-1.42845E-08
 -1       563 1.60084E+05-2.58076E+05 3.36512E+02-3.13300E+05-2.86673E-09-8.83983E-09
 -1       564 9.32689E+04-1.92710E+05 3.47051E+01-2.39435E+05-1.04774E-09-1.14285E-08
 -1       565 1.57724E+05-2.57055E+05 7.96910E+01-3.14796E+05 3.26690E-09 9.62200E-09
 -1       566 9.21382E+04-1.91982E+05-5.27849E+01-2.40234E+05-4.30737E-09 8.54925E-11
 -1       567 1.56821E+05-2.56663E+05-1.79213E+02-3.15293E+05 8.06722E-09 2.03181E-08
 -1       568 9.21260E+04-1.91985E+05-5.27066E+02-2.40312E+05-1.93540E-09 9.96442E-09
 -1       569 1.56544E+05-2.56613E+05-1.29797E+03-3.14138E+05-4.99131E-09 1.20781E-09
 -1       570 9.38930E+04-1.93648E+05-2.77061E+03-2.40045E+05-1.22964E-09-1.05315E-08
 -1       571 2.20255E+05 7.96246E+03 1.16770E+04-6.57774E+04 2.62662E-09 1.32695E-09
 -1       572 2.21976E+05 2.83645E+03 5.72179E+03-7.21218E+04 2.07956E-09 1.27870E-08
 -1       573 2.20937E+05 7.43051E+02 2.54192E+03-6.56220E+04 4.07363E-09 1.04910E-09
 -1       574 2.21127E+05 3.15445E+02 1.27405E+03-7.23020E+04 2.05341E-09 1.82172E-09
 -1       575 2.21007E+05 1.23555E+02 6.00616E+02-6.56013E+04 6.53245E-10 8.86985E-09
 -1       576 2.21011E+05 1.12763E+02 3.06131E+02-7.23260E+04-1.92595E-09 5.09317E-10
 -1       577 2.21021E+05 8.84547E+01 1.51026E+02-6.55986E+04-9.85210E-10 1.04928E-08
 -1       578 2.21008E+05 9.76803E+01 8.30085E+01-7.23290E+04-3.76349E-09-3.73757E-09
 -1       579 2.21047E+05 7.84942E+01 5.11608E+01-6.55984E+04 8.38554E-09 2.12822E-10
 -1       580 2.21045E+05 8.02458E+01 4.92007E+01-7.23253E+04 1.15178E-08 7.16364E-09
 -1       581 2.21092E+05 5.70164E+01 6.67730E+01-6.56024E+04 9.65156E-09 7.98855E-09
 -1       582 2.21118E+05 6.75940E+01 1.29157E+02-7.22851E+04 2.38197E-09-2.03727E-10
 -1       583 2.21150E+05 7.98691E+01 2.45695E+02-6.56387E+04 4.56021E-09-6.60111E-09
 -1       584 2.21283E+05 2.71833E+02 5.53286E+02-7.19807E+04 4.53292E-09-7.76708E-09
 -1       585 2.21159E+05 7.44496E+02 1.12012E+03-6.59069E+04 7.49424E-10 5.94446E-09
 -1       586-2.17311E+03 8.39073E+04-2.44537E+03-1.90980E+05-1.45587E-09-2.69074E-09
 -1       587-5.32911E+02 8.36115E+04 2.24925E+02-2.10133E+05-5.80258E-10-8.63551E-09
 -1       588 6.56270E+02 8.35676E+04 2.95783E+03-1.90851E+05-7.91260E-10 3.37695E-09
 -1       589 3.75932E+03 8.50914E+04 7.92539E+03-2.09988E+05-2.64481E-09-1.13123E-08
 -1       590 1.11903E+04 8.26609E+04 1.67270E+04-1.91138E+05-1.46429E-09-4.00178E-11
 -1       591-5.75135E+04-1.45377E+04-1.70846E+04-2.75775E+04-2.70006E-10 1.70257E-09
 -1       592-5.95757E+04-1.82715E+04-9.25388E+03-3.15101E+04-2.56250E-09-8.80925E-09
 -1       593-5.92363E+04-1.32838E+04-3.85233E+03-2.88164E+04 9.01537E-11-4.76371E-09
 -1       594-5.72013E+04-1.57816E+04-1.92126E+03-3.16210E+04-5.05224E-10 2.95137E-09
 -1       595-5.93684E+04-1.32783E+04-8.82654E+02-2.88732E+04-1.40437E-09 6.31211E-09
 -1       596-5.70402E+04-1.56676E+04-4.49437E+02-3.16038E+04 1.30370E-09 1.07471E-08
 -1       597-5.93851E+04-1.32893E+04-2.46390E+02-2.88754E+04-5.86969E-10 3.10683E-09
 -1       598-5.70247E+04-1.56633E+04-2.01119E+02-3.15990E+04 9.90212E-10-1.90380E-09
 -1       599-5.93839E+04-1.32895E+04-2.60735E+02-2.88750E+04 7.55222E-10 6.47333E-10
 -1       600-5.70412E+04-1.56688E+04-4.87425E+02-3.16028E+04-2.35104E-10-1.10265E-08
 -1       601-5.93633E+04-1.32782E+04-9.63240E+02-2.88717E+04 2.53522E-09 3.47677E-09
 -1       602-5.72170E+04-1.57931E+04-2.10009E+03-3.16191E+04-5.27962E-10-6.60668E-09
 -1       603-5.92171E+04-1.32864E+04-4.21209E+03-2.88100E+04 3.54703E-10 3.41515E-10
 -1       604-5.98220E+04-1.85051E+04-1.01180E+04-3.14840E+04 3.09228E-11 6.50994E-09
 -1       605-5.73215E+04-1.46666E+04-1.86798E+04-2.74653E+04 2.26510E-09-4.45834E-09
 -1       606 2.74102E+04-1.08292E+04-1.94570E+04 2.59067E+04-5.24778E-10-3.79077E-09
 -1       607 2.40813E+04-3.51374E+03-9.68880E+03 2.90895E+04-2.81943E-09-8.01356E-09
 -1       608 2.59715E+04-6.12344E+02-4.33845E+03 2.57058E+04-3.60160E-10 3.31283E-09
 -1       609 2.56000E+04-1.82399E+02-2.19135E+03 2.93181E+04-9.45874E-11 3.59705E-10
 -1       610 2.58000E+04 1.97577E+00-1.04645E+03 2.56830E+04-8.76753E-10 7.24867E-10
 -1       611 2.57339E+04 1.12029E+01-5.27748E+02 2.93430E+04-2.23554E-09 4.02451E-09
 -1       612 2.57560E+04 1.75620E+01-2.52121E+02 2.56807E+04-2.16460E-09 2.86400E-09
 -1       613 2.57341E+04 1.91370E+01-1.14403E+02 2.93460E+04-2.30102E-09 3.05363E-10
 -1       614 2.57327E+04 1.69996E+01-3.06178E+01 2.56800E+04 8.37736E-09 2.19347E-09
 -1       615 2.57231E+04 2.40443E+01 3.89049E+01 2.93464E+04 2.31271E-08 5.74573E-09
 -1       616 2.57148E+04 2.24437E+01 1.24977E+02 2.56802E+04 8.58790E-09 5.37966E-09
 -1       617 2.57328E+04 5.40544E+01 2.88472E+02 2.93459E+04 6.39375E-10 6.69411E-09
 -1       618 2.56857E+04 1.08195E+02 5.82636E+02 2.56804E+04 2.55659E-09 8.72137E-09
 -1       619 2.59353E+04 5.06729E+02 1.30918E+03 2.93452E+04 7.72275E-10 7.22275E-09
 -1       620 2.54901E+04 1.49201E+03 2.63162E+03 2.56797E+04 2.20462E-09-7.73070E-12
 -1       621 4.37538E+02 2.42683E+05 3.69525E+03 1.79694E+04 7.60565E-11 3.75621E-10
 -1       622 5.07072E+02 2.43594E+05 3.07609E+03 2.61513E+04 1.73713E-10 2.56182E-09
 -1       623 3.29045E+01 2.42946E+05 3.45546E+03 1.78890E+04 2.28056E-10 5.06452E-09
 -1       624 1.56545E+03 2.44546E+05 6.49162E+03 2.62282E+04 2.82881E-10 2.17528E-09
 -1       625 1.56385E+03 2.41697E+05 1.12514E+04 1.78914E+04 3.86535E-10-9.28867E-09
 -1       626 1.96923E+05 5.12534E+04 3.58067E+03 1.02373E+05-2.43244E-09-5.68434E-09
 -1       627 1.94556E+05 5.29714E+04 1.72551E+03 1.06198E+05-1.95314E-09 2.66061E-09
 -1       628 1.97046E+05 4.95715E+04 7.29060E+02 1.02926E+05-7.63066E-10 1.16756E-08
 -1       629 1.94052E+05 5.25504E+04 3.57480E+02 1.06418E+05 4.55839E-09 7.28352E-09
 -1       630 1.97053E+05 4.94923E+04 1.65794E+02 1.02942E+05-2.45291E-09-6.00360E-09
 -1       631 1.93992E+05 5.25399E+04 9.00332E+01 1.06419E+05 2.06728E-09-1.19567E-09
 -1       632 1.97045E+05 4.94984E+04 6.08699E+01 1.02935E+05 2.18870E-09-5.63830E-09
 -1       633 1.93980E+05 5.25445E+04 7.02176E+01 1.06412E+05 9.34733E-10 1.05824E-08
 -1       634 1.97035E+05 4.94985E+04 1.15614E+02 1.02931E+05 8.15885E-09 1.95814E-09
 -1       635 1.93986E+05 5.25453E+04 2.35487E+02 1.06413E+05 1.07174E-08-1.15378E-08
 -1       636 1.97024E+05 4.94965E+04 4.76225E+02 1.02928E+05 6.99168E-09 7.96194E-09
 -1       637 1.94085E+05 5.26207E+04 1.04706E+03 1.06410E+05 1.45837E-09-1.66892E-10
 -1       638 1.96985E+05 4.97292E+04 2.15185E+03 1.02822E+05-6.92830E-09 4.50200E-11
 -1       639 1.95211E+05 5.41949E+04 5.09088E+03 1.06077E+05-1.86642E-08-3.90992E-09
 -1       640 1.96833E+05 5.44168E+04 1.05648E+04 1.00835E+05-1.22254E-08-7.23503E-09
 -1       656 5.24226E+04-1.33181E+06-1.26543E+05-8.47038E+02 9.09495E-10-1.87185E-10
 -1       657-6.92902E+04-1.38894E+06-1.04703E+05 7.05895E+03 6.24823E-10-1.07923E-08
 -1       658 1.66475E+04-1.34808E+06-6.43161E+04-2.25625E+03 5.20686E-10-1.35171E-08
 -1       659-7.44728E+04-1.39140E+06-1.11511E+05 8.07107E+03-8.73115E-11-1.35802E-08
 -1       660 5.75930E+04-1.32936E+06-1.38251E+05-1.85914E+03-6.47560E-10-6.50522E-09
 -1       661 1.66248E+05 1.79136E+04 1.63545E+04 6.49674E+04-4.04725E-11-1.20963E-10
 -1       662 1.74967E+05 3.05432E+04 1.10206E+04 6.18972E+04 2.60451E-09-4.36739E-09
 -1       663 1.69456E+05 2.31637E+04 3.85491E+03 6.40396E+04-1.28830E-09-3.32193E-10
 -1       664 1.71252E+05 2.43996E+04 2.30506E+03 6.30270E+04-1.02895E-09 4.08420E-09
 -1       665 1.69938E+05 2.38846E+04 9.09287E+02 6.39025E+04-2.29647E-10-4.56620E-09
 -1       666 1.70684E+05 2.35721E+04 5.30747E+02 6.32039E+04-1.92483E-09-8.64018E-09
 -1       667 1.70020E+05 2.39695E+04 2.80365E+02 6.38708E+04-1.28978E-10-8.32460E-09
 -1       668 1.70596E+05 2.35069E+04 2.82145E+02 6.32498E+04 2.26362E-09-7.68970E-09
 -1       669 1.70026E+05 2.39478E+04 3.79074E+02 6.38572E+04 5.05253E-10 4.20570E-09
 -1       670 1.70690E+05 2.37094E+04 8.22739E+02 6.32507E+04 2.50407E-09 1.99583E-09
 -1       671 1.69927E+05 2.37711E+04 1.45992E+03 6.38682E+04 6.13426E-10-8.06665E-09
 -1       672 1.71540E+05 2.51296E+04 3.73445E+03 6.30451E+04-6.24205E-10 3.51014E-09
 -1       673 1.69180E+05 2.25634E+04 6.25807E+03 6.40492E+04-1.13391E-09-6.43058E-09
 -1       674 1.77498E+05 3.51826E+04 1.78967E+04 6.12941E+04 1.12942E-09-3.54248E-09
 -1       675 1.64008E+05 1.39993E+04 2.65646E+04 6.55133E+04 1.06047E-09-2.38470E-09
 -1       676 2.04254E+01-2.46295E+05-9.48924E+02-3.99912E+00-3.12781E-10 5.31126E-09
 -1       677-2.52014E+02-2.46525E+05-1.73666E+03 7.99350E+00-3.99439E-10-1.50358E-08
 -1       678 1.68218E+02-2.46132E+05-3.06996E+03-3.99164E+00-2.33058E-10 1.16584E-10
 -1       679-3.07082E+03-2.48378E+05-7.29277E+03 7.96477E+00-5.33532E-10 1.64183E-08
 -1       680 1.83266E+03-2.44443E+05-1.17535E+04-3.92515E+00 1.89175E-10 5.97671E-09
 -1       771-2.61920E+06-5.12975E+05-7.51436E+04-1.14438E+06-1.78261E-08-1.63127E-08
 -1       772-2.58570E+06-5.61104E+05-3.96300E+04-1.19898E+06-1.39626E-08 5.98266E-09
 -1       773-2.63190E+06-5.02949E+05-1.83881E+04-1.14888E+06-1.22236E-08 7.61065E-09
 -1       774-2.57697E+06-5.53160E+05-8.60272E+03-1.20749E+06 1.39698E-09 2.14641E-09
 -1       775-2.63676E+06-4.99526E+05-5.25037E+03-1.15005E+06-1.56724E-08 4.58385E-09
 -1       776-2.57881E+06-5.53017E+05-2.17069E+03-1.21313E+06-1.77533E-08 8.22183E-10
 -1       777-2.64066E+06-4.96647E+05-1.92238E+03-1.15105E+06-5.39876E-09 6.02085E-09
 -1       778-2.58113E+06-5.53023E+05-6.37155E+02-1.21789E+06-7.24685E-09 3.26690E-09
 -1       779-2.64391E+06-4.94192E+05-8.79419E+02-1.15191E+06-1.12996E-08-1.48066E-09
 -1       780-2.58322E+06-5.52981E+05-2.55521E+02-1.22175E+06-4.88944E-09-3.12139E-09
 -1       781-2.64642E+06-4.92240E+05-4.93100E+02-1.15259E+06-1.24564E-08 3.97904E-09
 -1       782-2.58484E+06-5.52921E+05-3.19010E+02-1.22459E+06-1.93722E-08-3.56931E-09
 -1       783-2.64815E+06-4.90918E+05-6.74851E+02-1.15306E+06-4.07817E-09-7.04654E-09
 -1       784-2.58619E+06-5.53211E+05-1.33863E+03-1.22630E+06-1.00918E-08-2.11458E-10
 -1       785-2.64878E+06-4.90422E+05-2.52809E+03-1.15312E+06-1.82208E-08 2.81852E-09
 -1       786 1.94424E+05-1.04276E+04 2.41254E+04-1.39039E+02 9.05780E-06 2.65209E-08
 -1       787 2.04877E+05 1.20722E+04 1.70680E+04-1.25633E+02 1.80608E-05 2.11605E-08
 -1       788 1.98457E+05-1.63458E+03 6.24424E+03-1.32012E+02 1.93630E-05 6.81075E-09
 -1       789 2.00180E+05 1.89150E+03 3.92319E+03-1.37191E+02 2.06372E-05 2.95231E-08
 -1       790 1.99123E+05-2.55269E+02 1.59614E+03-1.27488E+02 2.29022E-05 2.95319E-09
 -1       791 1.99403E+05 2.96717E+02 9.36671E+02-1.47419E+02 2.51336E-05 1.61874E-08
 -1       792 1.99234E+05-4.10071E+01 4.26592E+02-1.21784E+02 1.25872E-05 3.31391E-09
 -1       793 1.99277E+05 5.73692E+01 2.77671E+02-1.62224E+02 4.00558E-08 1.33825E-08
 -1       794 1.99249E+05-1.60784E+01 2.02844E+02-1.12683E+02 3.11201E-09-1.33312E-09
 -1       795 1.99288E+05 8.23531E+01 2.89284E+02-1.86869E+02-3.24863E-09 1.72536E-08
 -1       796 1.99224E+05-6.59703E+01 4.30826E+02-9.71395E+01 2.80886E-09-1.08585E-10
 -1       797 1.99483E+05 4.83918E+02 1.01378E+03-2.29471E+02-8.16884E-10-5.55923E-09
 -1       798 1.99054E+05-4.17352E+02 1.59947E+03-7.00790E+01 8.03041E-10-2.97211E-09
 -1       799 2.00683E+05 3.08202E+03 4.36001E+03-3.03935E+02 2.11574E-09 1.42347E-09
 -1       800 1.98023E+05-2.66198E+03 6.15825E+03-2.26738E+01 6.82139E-11 1.50430E-09
 -1       801-2.67013E+04-3.33662E+06-4.55183E+05 2.81032E+05 3.41097E-08-3.23816E-08
 -1       802 2.26890E+05 2.70267E+06 8.68878E+05-3.53354E+05-5.84987E-09-1.83684E-08
 -1       803-1.96487E+05-5.03795E+06-6.50898E+05 1.74811E+05 9.18735E-08 2.26992E-08
 -1       804 1.82558E+05 1.48178E+06 7.34839E+05 1.21004E+05-1.36588E-08-6.40948E-08
 -1       805 8.11611E+03-2.11635E+06 6.74920E+04-1.93034E+05-4.96148E-08-3.15468E-08
 -1       806-2.33607E+05-5.09909E+04-1.99838E+04-9.84783E+04-2.82193E-09-3.15231E-09
 -1       807-2.34624E+05-4.82880E+04-9.81762E+03-1.03965E+05 4.18754E-09 1.30555E-08
 -1       808-2.34183E+05-4.37624E+04-4.16453E+03-1.01858E+05-1.63357E-09-2.00821E-09
 -1       809-2.32524E+05-4.55666E+04-2.03588E+03-1.04253E+05-4.30509E-09 7.24413E-09
 -1       810-2.34271E+05-4.35075E+04-9.32274E+02-1.02006E+05-2.22781E-09-8.82437E-10
 -1       811-2.32362E+05-4.54596E+04-4.62426E+02-1.04228E+05 1.61435E-09-5.03314E-09
 -1       812-2.34286E+05-4.35270E+04-2.31069E+02-1.02005E+05 4.09273E-12 9.20636E-09
 -1       813-2.32340E+05-4.54629E+04-1.46187E+02-1.04214E+05-2.03181E-09 8.84131E-09
 -1       814-2.34281E+05-4.35352E+04-1.37958E+02-1.02001E+05-5.92081E-09 6.02222E-09
 -1       815-2.32341E+05-4.54660E+04-2.16473E+02-1.04209E+05-1.17482E-08 6.55723E-09
 -1       816-2.34264E+05-4.35351E+04-4.06276E+02-1.01997E+05-2.22008E-09 1.26988E-08
 -1       817-2.32408E+05-4.55054E+04-8.70733E+02-1.04198E+05-4.01269E-09 2.34495E-08
 -1       818-2.34209E+05-4.36595E+04-1.77500E+03-1.01938E+05 4.38376E-10-2.80352E-09
 -1       819-2.33387E+05-4.65682E+04-4.17666E+03-1.03954E+05-4.37467E-10-1.01072E-08
 -1       820-2.33864E+05-4.68232E+04-8.50082E+03-1.00596E+05-3.43152E-09-8.89486E-09
 -1       821-3.10760E+05 1.71336E+04-3.96270E+04 4.53619E+02-8.40258E-07 3.39769E-08
 -1       822-3.27920E+05-1.98349E+04-2.80400E+04-1.10160E+03-1.70849E-06-1.45565E-09
 -1       823-3.17378E+05 2.68670E+03-1.02625E+04 5.08450E+02-8.52727E-07 1.06984E-08
 -1       824-3.20186E+05-3.10876E+03-6.45527E+03-9.54460E+02-2.26769E-09 1.92892E-09
 -1       825-3.18491E+05 4.20011E+02-2.65669E+03 3.06477E+02 1.55660E-09 6.44150E-10
 -1       826-3.18878E+05-4.94364E+02-1.59375E+03-3.87708E+02 9.68358E-10 1.24029E-09
 -1       827-3.18684E+05 7.34200E+01-8.34390E+02-5.83116E+01-3.78897E-10-9.00104E-09
 -1       828-3.18702E+05-1.49767E+02-7.23363E+02 3.36370E+02-2.33028E-09-5.67667E-09
 -1       829-3.18667E+05 7.56774E+01-8.42853E+02-4.17613E+02 7.21315E-10-1.23626E-09
 -1       830-3.18924E+05-5.06935E+02-1.63574E+03 8.83041E+02 1.43091E-09 4.99017E-09
 -1       831-3.18464E+05 4.31126E+02-2.71348E+03-6.04993E+02-2.39389E-09-2.27919E-09
 -1       832-3.20238E+05-3.18277E+03-6.61117E+03 9.99419E+02-1.51819E-09-4.85215E-10
 -1       833-3.17355E+05 2.74983E+03-1.05085E+04-5.33992E+02-1.97698E-09-4.93219E-09
 -1       834-3.28108E+05-2.03054E+04-2.87015E+04 6.28483E+02-1.48428E-09 3.58341E-09
 -1       835-3.10596E+05 1.75399E+04-4.05773E+04-2.34044E+02 5.69144E-09-9.47693E-10
 -1       836-1.08408E+03 2.94438E+05 1.79698E+04-2.43605E+04-1.01954E-09 1.34200E-08
 -1       837 3.89842E+03 3.00028E+05 1.52144E+04-4.90767E+04-4.47017E-10 1.04330E-08
 -1       838-4.03520E+02 2.96005E+05 1.55090E+04-2.42776E+04-3.45153E-10 1.24335E-08
 -1       839 9.83161E+03 3.04443E+05 2.93455E+04-4.91084E+04 4.36557E-11 1.60825E-08
 -1       840-2.99264E+03 2.89971E+05 4.67935E+04-2.43290E+04-4.32919E-10 1.58452E-08
 -1       856-7.63883E+04 7.46517E+03-1.96727E+04-4.07487E+02-1.15460E-09-9.61427E-09
 -1       857-8.45084E+04-8.75960E+03-1.35437E+04 4.72589E+03-7.45558E-10 4.26780E-10
 -1       858-7.95986E+04 1.04624E+03-5.10536E+03-4.29922E+02-4.39968E-11-1.17984E-09
 -1       859-8.08226E+04-1.21997E+03-3.08272E+03 4.76105E+03-1.25834E-09 8.04681E-09
 -1       860-8.00784E+04 1.45787E+02-1.29507E+03-4.42670E+02 1.04282E-09 8.57443E-09
 -1       861-8.02702E+04-1.64113E+02-7.18950E+02 4.77852E+03-2.71018E-09-1.15004E-09
 -1       862-8.01531E+04 1.94502E+01-3.11927E+02-4.47415E+02 2.89636E-09 2.51536E-09
 -1       863-8.01809E+04-1.36128E+01-1.43294E+02 4.78088E+03 3.92048E-09-1.64984E-09
 -1       864-8.01680E+04-1.36329E+00-2.28605E+01-4.45033E+02 2.63225E-09 1.81785E-10
 -1       865-8.01475E+04 3.23357E+01 8.88211E+01 4.76844E+03 5.11136E-10 1.30050E-09
 -1       866-8.01848E+04-2.68781E+01 2.13247E+02-4.34976E+02-2.16289E-10 1.47570E-09
 -1       867-8.00378E+04 2.23702E+02 5.47016E+02 4.74106E+03 7.61219E-10 5.14873E-09
 -1       868-8.02740E+04-1.90348E+02 9.14130E+02-4.17652E+02-1.36311E-10 8.26350E-09
 -1       869-7.93606E+04 1.58170E+03 2.44242E+03 4.69569E+03 6.78938E-10-1.20614E-08
 -1       870-8.08564E+04-1.34956E+03 3.54311E+03-3.89592E+02-7.79323E-10-7.29506E-09
 -1       871-4.43033E+03-1.26237E+04-1.47211E+04 9.68142E+04-1.01863E-10 5.95992E-09
 -1       872-1.83844E+03-1.59555E+04-6.06654E+03 1.25522E+05-4.66571E-10 9.14838E-09
 -1       873 5.08158E+01-1.43815E+04 6.92334E+02 9.66027E+04-3.38559E-10 1.03058E-08
 -1       874 2.29793E+03-1.23567E+04 7.96464E+03 1.25557E+05-7.05768E-10 5.51518E-09
 -1       875 5.24131E+03-1.62775E+04 1.77767E+04 9.67816E+04-1.90994E-11 3.12866E-10
 -1       876 2.33587E+05 4.00493E+04 1.23882E+04 9.45374E+04-2.11060E-09-5.27507E-09
 -1       877 2.34314E+05 4.27504E+04 6.61567E+03 9.81846E+04 1.56615E-09-9.78275E-09
 -1       878 2.34745E+05 3.86776E+04 2.77162E+03 9.55536E+04 1.43518E-09-8.14020E-09
 -1       879 2.32628E+05 4.10718E+04 1.38076E+03 9.82713E+04-1.28557E-09-1.74327E-09
 -1       880 2.34829E+05 3.86628E+04 6.42864E+02 9.55950E+04-4.07908E-09 3.24934E-09
 -1       881 2.32516E+05 4.10003E+04 3.42592E+02 9.82532E+04-1.92540E-09 1.09706E-08
 -1       882 2.34837E+05 3.86732E+04 2.17928E+02 9.55962E+04-1.14665E-09 2.04725E-09
 -1       883 2.32508E+05 4.09968E+04 2.32293E+02 9.82477E+04-3.10729E-09 2.29302E-08
 -1       884 2.34832E+05 3.86708E+04 3.67710E+02 9.55964E+04-4.02935E-09 8.95386E-09
 -1       885 2.32537E+05 4.10020E+04 7.38164E+02 9.82568E+04 5.53172E-10 5.40547E-09
 -1       886 2.34803E+05 3.86492E+04 1.48720E+03 9.55934E+04 8.38710E-10 1.13034E-08
 -1       887 2.32799E+05 4.11733E+04 3.24838E+03 9.82945E+04-2.30528E-09-2.80420E-09
 -1       888 2.34598E+05 3.86854E+04 6.54551E+03 9.54895E+04 1.43643E-10-5.56747E-09
 -1       889 2.36699E+05 4.52234E+04 1.56365E+04 9.81718E+04 1.83099E-09 8.58563E-10
 -1       890 2.31930E+05 4.18549E+04 2.92862E+04 9.29944E+04-1.53568E-09-1.50139E-08
 -1       891-1.22384E+02-1.31741E+05-1.57352E+03 2.40993E+04 2.88310E-10 1.00042E-08
 -1       892-2.18132E+02-1.32130E+05-1.70516E+03 3.65017E+04 3.88809E-10 1.58254E-08
 -1       893-1.81733E+01-1.31790E+05-2.43005E+03 2.41045E+04 3.86081E-10 2.51930E-10
 -1       894-1.29251E+03-1.33056E+05-5.04065E+03 3.63703E+04 4.83624E-10 6.71616E-09
 -1       895-1.01547E+03-1.30740E+05-8.88107E+03 2.42297E+04-2.44597E-10-2.70666E-09
 -1       956-2.95666E+05-4.32917E+03-1.08406E+04 2.17664E+04-6.80302E-10-7.86144E-09
 -1       957-2.97804E+05-1.47783E+03-5.56481E+03 2.61880E+04-8.80391E-10-1.07239E-08
 -1       958-2.96633E+05-1.36132E+02-2.50737E+03 2.16313E+04-2.10093E-10 7.33303E-09
 -1       959-2.96801E+05-4.24204E+01-1.28048E+03 2.63378E+04-3.48518E-09 1.99575E-08
 -1       960-2.96722E+05 1.82238E+01-6.24178E+02 2.16180E+04 4.62478E-10 2.00280E-08
 -1       961-2.96731E+05 1.36355E+01-3.30650E+02 2.63530E+04 1.60139E-09 3.04794E-09
 -1       962-2.96742E+05 1.54238E+01-1.88506E+02 2.16159E+04-1.65073E-10-1.24269E-08
 -1       963-2.96730E+05 1.61437E+01-1.49855E+02 2.63559E+04 8.23320E-10-4.35739E-09
 -1       964-2.96747E+05 1.81543E+01-1.80226E+02 2.16152E+04-1.49350E-09 1.42404E-09
 -1       965-2.96742E+05 1.96083E+01-3.10013E+02 2.63559E+04-1.18619E-09-1.16142E-09
 -1       966-2.96737E+05 2.62800E+01-5.81243E+02 2.16159E+04 4.65434E-10 2.37310E-09
 -1       967-2.96817E+05-2.68605E+01-1.19173E+03 2.63473E+04-7.08496E-10 4.46266E-09
 -1       968-2.96662E+05-1.12011E+02-2.33217E+03 2.16238E+04-1.94177E-10 8.03078E-09
 -1       969-2.97760E+05-1.35771E+03-5.17791E+03 2.62537E+04 9.23819E-10 5.20345E-10
 -1       970-2.95770E+05-4.01025E+03-1.00858E+04 2.17097E+04 2.07820E-10 1.26684E-08
 -1       971-2.77528E+05-1.43544E+03-7.91246E+03 1.30996E+04 2.90675E-09 6.76866E-09
 -1       972-2.79447E+05-1.03662E+03-4.30911E+03 1.82508E+04 8.42238E-09 6.04814E-10
 -1       973-2.78408E+05-2.10202E+01-1.92967E+03 1.29920E+04 5.32555E-09-1.22941E-09
 -1       974-2.78537E+05-2.53137E+01-9.99863E+02 1.83684E+04 7.36691E-10 4.17117E-09
 -1       975-2.78477E+05 1.62430E+01-4.99100E+02 1.29820E+04-3.64707E-10 1.35856E-09
 -1       976-2.78483E+05 1.63059E+01-2.86746E+02 1.83808E+04-1.75987E-09-1.85014E-09
 -1       977-2.78490E+05 1.62104E+01-2.05939E+02 1.29796E+04 3.39810E-09 1.57036E-09
 -1       978-2.78486E+05 2.10597E+01-2.38048E+02 1.83841E+04 1.02928E-08 1.15725E-08
 -1       979-2.78490E+05 2.27382E+01-3.79918E+02 1.29786E+04 5.22442E-09 6.59213E-09
 -1       980-2.78515E+05 2.34123E+01-7.31977E+02 1.83847E+04 9.27433E-09 7.87441E-09
 -1       981-2.78466E+05 4.09780E+01-1.41682E+03 1.29790E+04 4.13490E-09 1.44820E-09
 -1       982-2.78709E+05-8.11834E+01-2.92805E+03 1.83792E+04 4.71846E-09-4.56905E-09
 -1       983-2.78288E+05-4.95998E+01-5.68895E+03 1.29843E+04 3.80442E-09-1.49657E-09
 -1       984-2.81445E+05-3.05205E+03-1.27397E+04 1.83053E+04-2.50566E-09 1.00729E-08
 -1       985-2.75713E+05-4.21234E+03-2.33942E+04 1.30549E+04 9.53605E-10 9.27685E-11
 -3
    1PSTEP                        17           9           1          
  100CL  109 5.64941E-01         409                     0    9           1
 -4  DISP        4    1
 -5  D1          1    2    1    0
 -5  D2          1    2    2    0
 -5  D3          1    2    3    0
 -5  ALL         1    2    0    0    1ALL
 -1         1 3.68380E-04 0.00000E+00 0.00000E+00
 -1         2 3.34351E-04 3.61429E-29 6.61744E-24
 -1         3 2.06767E-04 1.50032E-27 0.00000E+00
 -1         5 1.18439E-04-2.97080E-26 0.00000E+00
 -1         8 3.44539E-04-7.86908E-07 0.00000E+00
 -1         9 3.30500E-04-1.44844E-06 0.00000E+00
 -1        10 1.88999E-04-2.54637E-06-6.61744E-24
 -1        12 1.19068E-04 6.76493E-07 1.65436E-24
 -1        15 3.16008E-04-8.74367E-07-2.06795E-25
 -1        16 3.22107E-04-1.79706E-06 0.00000E+00
 -1        17 1.33125E-04-5.51494E-06 0.00000E+00
 -1        18 1.19670E-04 1.69533E-05 0.00000E+00
 -1        19 1.20954E-04 1.34906E-06 0.00000E+00
 -1        20 1.21100E-04 3.22474E-06 0.00000E+00
 -1        21 1.20438E-04 3.08681E-06 3.30872E-24
 -1        24 2.40480E-05-7.89066E-06 0.00000E+00
 -1        25 1.23689E-04 1.71407E-05 0.00000E+00
 -1        26 1.24813E-04 1.88172E-06 0.00000E+00
 -1        27 1.22965E-04 3.34812E-07 0.00000E+00
 -1        28 1.22549E-04 2.56089E-06 0.00000E+00
 -1        32 0.00000E+00 0.00000E+00 0.00000E+00
 -1        33 1.27336E-04 2.51752E-06 0.00000E+00
 -1        34 1.25621E-04 2.98893E-07 0.00000E+00
 -1        35 1.24024E-04 2.27880E-06 0.00000E+00
 -1        51 3.66837E-04-1.33569E-07 0.00000E+00
 -1        52 3.63970E-04-2.59204E-07 0.00000E+00
 -1        53 3.60038E-04-3.85355E-07 0.00000E+00
 -1        54 3.55310E-04-5.13837E-07 0.00000E+00
 -1        55 3.50053E-04-6.45699E-07 0.00000E+00
 -1        56 3.66353E-04-7.78935E-07 5.29396E-23
 -1        57 3.64257E-04-1.59645E-06 2.64698E-23
 -1        58 3.62150E-04-2.37444E-06 0.00000E+00
 -1        59 3.59998E-04-3.07231E-06 0.00000E+00
 -1        60 3.57800E-04-3.64675E-06-5.29396E-23
 -1        61 3.55541E-04-4.06591E-06 0.00000E+00
 -1        62 3.53217E-04-4.31236E-06 5.29396E-23
 -1        63 3.50825E-04-4.37799E-06-2.64698E-23
 -1        64 3.48368E-04-4.27238E-06 0.00000E+00
 -1        65 3.45854E-04-4.01352E-06 2.64698E-23
 -1        66 3.43294E-04-3.63480E-06 0.00000E+00
 -1        67 3.40707E-04-3.17485E-06-2.64698E-23
 -1        68 3.38107E-04-2.68147E-06-5.29396E-23
 -1        69 3.35524E-04-2.19965E-06-2.64698E-23
 -1        70 3.32961E-04-1.78211E-06 0.00000E+00
 -1        86 3.34222E-04-2.37003E-07 6.61744E-24
 -1        87 3.33839E-04-4.74532E-07 0.00000E+00
 -1        88 3.33233E-04-7.12236E-07 0.00000E+00
 -1        89 3.32436E-04-9.52996E-07 0.00000E+00
 -1        90 3.31506E-04-1.19287E-06 0.00000E+00
 -1       121 2.06269E-04-4.18795E-07 0.00000E+00
 -1       122 2.04778E-04-8.38547E-07 0.00000E+00
 -1       123 2.02296E-04-1.26020E-06 0.00000E+00
 -1       124 1.98833E-04-1.68475E-06 0.00000E+00
 -1       125 1.94396E-04-2.11296E-06-1.32349E-23
 -1       191 1.18457E-04 1.12760E-07-3.30872E-24
 -1       192 1.18509E-04 2.25517E-07-8.27181E-25
 -1       193 1.18596E-04 3.38273E-07 0.00000E+00
 -1       194 1.18719E-04 4.51023E-07 1.65436E-24
 -1       195 1.18876E-04 5.63764E-07 1.65436E-24
 -1       251 3.43928E-04 1.03153E-05-1.32349E-23
 -1       252 3.43101E-04 3.39047E-05-6.61744E-24
 -1       253 3.42057E-04 6.58532E-05-1.32349E-23
 -1       254 3.40879E-04 1.01841E-04 0.00000E+00
 -1       255 3.39746E-04 1.36473E-04-1.32349E-23
 -1       256 3.38815E-04 1.64385E-04 0.00000E+00
 -1       257 3.38102E-04 1.82001E-04 1.32349E-23
 -1       258 3.37531E-04 1.85980E-04-6.61744E-24
 -1       259 3.36926E-04 1.76581E-04-1.32349E-23
 -1       260 3.36125E-04 1.54368E-04 0.00000E+00
 -1       261 3.35105E-04 1.23292E-04 0.00000E+00
 -1       262 3.33934E-04 8.75062E-05 0.00000E+00
 -1       263 3.32785E-04 5.24184E-05 0.00000E+00
 -1       264 3.31824E-04 2.34216E-05 0.00000E+00
 -1       265 3.31084E-04 4.28413E-06 1.32349E-23
 -1       266 3.39784E-04-8.12641E-07 3.30872E-24
 -1       267 3.35029E-04-8.25857E-07-8.27181E-25
 -1       268 3.30273E-04-8.39867E-07 8.27181E-25
 -1       269 3.25518E-04-8.51528E-07 4.13590E-25
 -1       270 3.20763E-04-8.63134E-07 4.13590E-25
 -1       271 3.41702E-04 3.07603E-06 0.00000E+00
 -1       272 3.39144E-04 6.08288E-06 0.00000E+00
 -1       273 3.36892E-04 8.28354E-06-2.64698E-23
 -1       274 3.34921E-04 9.72262E-06-1.32349E-23
 -1       275 3.33213E-04 1.04622E-05 0.00000E+00
 -1       276 3.31740E-04 1.05732E-05 0.00000E+00
 -1       277 3.30472E-04 1.01375E-05 0.00000E+00
 -1       278 3.29375E-04 9.24519E-06 2.64698E-23
 -1       279 3.28413E-04 7.99416E-06 0.00000E+00
 -1       280 3.27546E-04 6.48798E-06 0.00000E+00
 -1       281 3.26734E-04 4.83433E-06 0.00000E+00
 -1       282 3.25936E-04 3.14338E-06 1.32349E-23
 -1       283 3.25112E-04 1.52571E-06 0.00000E+00
 -1       284 3.24224E-04 9.21709E-08 0.00000E+00
 -1       285 3.23226E-04-1.05254E-06 0.00000E+00
 -1       301 3.29009E-04-1.52315E-06-1.32349E-23
 -1       302 3.27265E-04-1.57330E-06 0.00000E+00
 -1       303 3.25484E-04-1.62201E-06-6.61744E-24
 -1       304 3.23886E-04-1.67069E-06 0.00000E+00
 -1       305 3.22688E-04-1.72070E-06-1.32349E-23
 -1       306 3.39934E-04-3.64423E-05-5.29396E-23
 -1       307 3.70018E-04-1.39744E-04 0.00000E+00
 -1       308 4.12755E-04-2.94112E-04-5.29396E-23
 -1       309 4.61445E-04-4.77659E-04-2.64698E-23
 -1       310 5.10136E-04-6.61216E-04-5.29396E-23
 -1       311 5.52863E-04-8.15607E-04 2.64698E-23
 -1       312 5.82938E-04-9.18956E-04 5.29396E-23
 -1       313 5.92318E-04-9.54020E-04-2.64698E-23
 -1       314 5.75389E-04-9.19184E-04-5.29396E-23
 -1       315 5.28624E-04-8.18577E-04-2.64698E-23
 -1       316 4.56919E-04-6.69877E-04-5.29396E-23
 -1       317 3.69304E-04-4.93469E-04 0.00000E+00
 -1       318 2.80538E-04-3.15098E-04 5.29396E-23
 -1       319 2.05611E-04-1.60572E-04 2.64698E-23
 -1       320 1.54480E-04-5.11295E-05 5.29396E-23
 -1       336 1.82531E-04-3.01900E-06-1.32349E-23
 -1       337 1.74886E-04-3.50018E-06-6.61744E-24
 -1       338 1.66089E-04-3.99027E-06 1.32349E-23
 -1       339 1.56172E-04-4.48954E-06 0.00000E+00
 -1       340 1.45171E-04-4.99976E-06 1.32349E-23
 -1       406 1.19295E-04 7.89201E-07 0.00000E+00
 -1       407 1.19557E-04 9.01863E-07-8.27181E-25
 -1       408 1.19854E-04 1.01444E-06-1.65436E-24
 -1       409 1.20186E-04 1.12680E-06 1.65436E-24
 -1       410 1.20553E-04 1.23870E-06-1.65436E-24
 -1       521 3.34203E-04-4.73029E-05 0.00000E+00
 -1       522 3.70578E-04-1.78507E-04 5.29396E-23
 -1       523 4.20849E-04-3.74069E-04-1.05879E-22
 -1       524 4.77002E-04-6.05878E-04 0.00000E+00
 -1       525 5.33052E-04-8.37031E-04 1.05879E-22
 -1       526 5.82953E-04-1.03069E-03 0.00000E+00
 -1       527 6.18618E-04-1.15910E-03 1.05879E-22
 -1       528 6.29558E-04-1.20141E-03 0.00000E+00
 -1       529 6.07115E-04-1.15560E-03 0.00000E+00
 -1       530 5.45779E-04-1.02823E-03 5.29396E-23
 -1       531 4.51109E-04-8.41363E-04 1.05879E-22
 -1       532 3.35068E-04-6.20753E-04 0.00000E+00
 -1       533 2.17548E-04-3.97864E-04-1.05879E-22
 -1       534 1.18770E-04-2.04231E-04 0.00000E+00
 -1       535 5.19404E-05-6.64715E-05 0.00000E+00
 -1       536 1.32753E-04 1.56786E-05 6.61744E-24
 -1       537 1.31897E-04 5.40632E-05 3.30872E-24
 -1       538 1.30585E-04 1.03540E-04-3.30872E-24
 -1       539 1.29027E-04 1.57951E-04-1.65436E-24
 -1       540 1.27601E-04 2.09707E-04 3.30872E-24
 -1       541 1.26634E-04 2.51234E-04 0.00000E+00
 -1       542 1.26143E-04 2.77837E-04 0.00000E+00
 -1       543 1.25969E-04 2.84914E-04 0.00000E+00
 -1       544 1.25752E-04 2.72963E-04 0.00000E+00
 -1       545 1.25160E-04 2.42609E-04 0.00000E+00
 -1       546 1.24125E-04 1.99343E-04 0.00000E+00
 -1       547 1.22758E-04 1.48733E-04 1.65436E-24
 -1       548 1.21407E-04 9.84422E-05 3.30872E-24
 -1       549 1.20412E-04 5.61329E-05 0.00000E+00
 -1       550 1.19862E-04 2.71997E-05 1.65436E-24
 -1       551 1.18151E-04-5.85810E-06-6.61744E-24
 -1       552 1.00835E-04-6.23178E-06 3.30872E-24
 -1       553 8.19660E-05-6.63072E-06-3.30872E-24
 -1       554 6.23453E-05-7.04520E-06-6.61744E-24
 -1       555 4.27741E-05-7.46159E-06 2.64698E-23
 -1       556 1.28834E-04 5.56771E-06 0.00000E+00
 -1       557 1.25390E-04 1.44928E-05 0.00000E+00
 -1       558 1.22710E-04 2.14333E-05 0.00000E+00
 -1       559 1.20718E-04 2.65772E-05 0.00000E+00
 -1       560 1.19338E-04 3.01123E-05 2.64698E-23
 -1       561 1.18495E-04 3.22278E-05 0.00000E+00
 -1       562 1.18117E-04 3.31133E-05 0.00000E+00
 -1       563 1.18130E-04 3.29588E-05 0.00000E+00
 -1       564 1.18461E-04 3.19544E-05 0.00000E+00
 -1       565 1.19039E-04 3.02907E-05 0.00000E+00
 -1       566 1.19792E-04 2.81583E-05 0.00000E+00
 -1       567 1.20648E-04 2.57481E-05 0.00000E+00
 -1       568 1.21537E-04 2.32507E-05 1.03398E-25
 -1       569 1.22388E-04 2.08570E-05 0.00000E+00
 -1       570 1.23128E-04 1.87578E-05 0.00000E+00
 -1       571 1.19748E-04 1.59888E-05-4.13590E-25
 -1       572 1.19827E-04 1.49642E-05 6.20385E-25
 -1       573 1.19907E-04 1.38917E-05-8.27181E-25
 -1       574 1.19988E-04 1.27836E-05 8.27181E-25
 -1       575 1.20068E-04 1.16529E-05-1.65436E-24
 -1       576 1.20148E-04 1.05120E-05-1.65436E-24
 -1       577 1.20229E-04 9.37384E-06 0.00000E+00
 -1       578 1.20309E-04 8.25108E-06-1.65436E-24
 -1       579 1.20390E-04 7.15646E-06 3.30872E-24
 -1       580 1.20470E-04 6.10273E-06 0.00000E+00
 -1       581 1.20551E-04 5.10264E-06 6.61744E-24
 -1       582 1.20631E-04 4.16890E-06 6.61744E-24
 -1       583 1.20712E-04 3.31422E-06-6.61744E-24
 -1       584 1.20793E-04 2.55120E-06 3.30872E-24
 -1       585 1.20873E-04 1.89232E-06 0.00000E+00
 -1       586 1.20333E-04 1.69860E-05 0.00000E+00
 -1       587 1.20954E-04 1.70182E-05 0.00000E+00
 -1       588 1.21565E-04 1.70502E-05 0.00000E+00
 -1       589 1.22203E-04 1.70818E-05 0.00000E+00
 -1       590 1.22899E-04 1.71125E-05 0.00000E+00
 -1       591 1.19980E-04 1.60508E-05 1.03398E-25
 -1       592 1.20300E-04 1.51123E-05-4.13590E-25
 -1       593 1.20631E-04 1.41450E-05-8.27181E-25
 -1       594 1.20970E-04 1.31554E-05-4.13590E-25
 -1       595 1.21314E-04 1.21500E-05-8.27181E-25
 -1       596 1.21662E-04 1.11351E-05-4.13590E-25
 -1       597 1.22011E-04 1.01172E-05 8.27181E-25
 -1       598 1.22359E-04 9.10281E-06-4.13590E-25
 -1       599 1.22703E-04 8.09821E-06 8.27181E-25
 -1       600 1.23041E-04 7.10986E-06 0.00000E+00
 -1       601 1.23371E-04 6.14419E-06-8.27181E-25
 -1       602 1.23689E-04 5.20760E-06 2.06795E-25
 -1       603 1.23995E-04 4.30652E-06 6.20385E-25
 -1       604 1.24285E-04 3.44744E-06-5.16988E-26
 -1       605 1.24558E-04 2.63672E-06 0.00000E+00
 -1       606 1.20967E-04 9.98924E-07-3.30872E-24
 -1       607 1.20977E-04 7.38568E-07 0.00000E+00
 -1       608 1.20986E-04 5.62720E-07 0.00000E+00
 -1       609 1.20995E-04 4.65439E-07 0.00000E+00
 -1       610 1.21004E-04 4.40742E-07 0.00000E+00
 -1       611 1.21013E-04 4.82572E-07 0.00000E+00
 -1       612 1.21022E-04 5.84865E-07 0.00000E+00
 -1       613 1.21031E-04 7.41554E-07 0.00000E+00
 -1       614 1.21040E-04 9.46566E-07 0.00000E+00
 -1       615 1.21048E-04 1.19383E-06 8.27181E-25
 -1       616 1.21057E-04 1.47727E-06 0.00000E+00
 -1       617 1.21066E-04 1.79083E-06-4.13590E-25
 -1       618 1.21075E-04 2.12842E-06 0.00000E+00
 -1       619 1.21083E-04 2.48399E-06 0.00000E+00
 -1       620 1.21092E-04 2.85145E-06 0.00000E+00
 -1       621 1.21444E-04 1.43794E-06 3.30872E-24
 -1       622 1.22020E-04 1.52729E-06-8.27181E-25
 -1       623 1.22664E-04 1.61658E-06 1.65436E-24
 -1       624 1.23357E-04 1.70570E-06-8.27181E-25
 -1       625 1.24080E-04 1.79464E-06 0.00000E+00
 -1       626 1.21176E-04 1.02655E-06-3.30872E-24
 -1       627 1.21373E-04 7.74565E-07 0.00000E+00
 -1       628 1.21546E-04 5.85780E-07-3.30872E-24
 -1       629 1.21698E-04 4.52433E-07 0.00000E+00
 -1       630 1.21832E-04 3.66747E-07 3.30872E-24
 -1       631 1.21952E-04 3.20909E-07 1.65436E-24
 -1       632 1.22059E-04 3.07106E-07 0.00000E+00
 -1       633 1.22158E-04 3.17522E-07 0.00000E+00
 -1       634 1.22250E-04 3.44343E-07 3.30872E-24
 -1       635 1.22339E-04 3.79756E-07 1.65436E-24
 -1       636 1.22428E-04 4.15948E-07 0.00000E+00
 -1       637 1.22519E-04 4.45103E-07 8.27181E-25
 -1       638 1.22616E-04 4.59405E-07 1.65436E-24
 -1       639 1.22721E-04 4.51028E-07 8.27181E-25
 -1       640 1.22837E-04 4.12141E-07 1.65436E-24
 -1       656 1.20941E-04 2.75477E-06-6.61744E-24
 -1       657 1.21161E-04 2.26586E-06-6.61744E-24
 -1       658 1.21623E-04 1.77829E-06 0.00000E+00
 -1       659 1.22187E-04 1.29106E-06 0.00000E+00
 -1       660 1.22689E-04 8.02336E-07 6.61744E-24
 -1       661 1.21044E-04 3.56608E-06 8.27181E-25
 -1       662 1.21017E-04 3.84081E-06 0.00000E+00
 -1       663 1.21013E-04 4.05175E-06-1.65436E-24
 -1       664 1.21032E-04 4.20298E-06 0.00000E+00
 -1       665 1.21072E-04 4.29797E-06-1.65436E-24
 -1       666 1.21132E-04 4.34031E-06 0.00000E+00
 -1       667 1.21210E-04 4.33335E-06 0.00000E+00
 -1       668 1.21306E-04 4.28040E-06 0.00000E+00
 -1       669 1.21418E-04 4.18464E-06 0.00000E+00
 -1       670 1.21544E-04 4.04915E-06 8.27181E-25
 -1       671 1.21685E-04 3.87691E-06 0.00000E+00
 -1       672 1.21838E-04 3.67079E-06 8.27181E-25
 -1       673 1.22002E-04 3.43364E-06 0.00000E+00
 -1       674 1.22176E-04 3.16794E-06-8.27181E-25
 -1       675 1.22361E-04 2.87674E-06 4.13590E-25
 -1       676 1.20791E-04 2.99864E-06-3.30872E-24
 -1       677 1.21143E-04 2.91051E-06 1.65436E-24
 -1       678 1.21496E-04 2.82242E-06 3.30872E-24
 -1       679 1.21848E-04 2.73460E-06 0.00000E+00
 -1       680 1.22199E-04 2.64678E-06 0.00000E+00
 -1       771 1.70043E-05 7.13840E-06 0.00000E+00
 -1       772 1.10016E-05 1.94665E-05 0.00000E+00
 -1       773 5.99147E-06 2.92329E-05 0.00000E+00
 -1       774 1.90747E-06 3.65908E-05 2.64698E-23
 -1       775-1.31586E-06 4.16981E-05 0.00000E+00
 -1       776-3.74670E-06 4.47203E-05 0.00000E+00
 -1       777-5.45370E-06 4.58276E-05-5.29396E-23
 -1       778-6.50707E-06 4.51964E-05-2.64698E-23
 -1       779-6.97720E-06 4.30068E-05 0.00000E+00
 -1       780-6.93581E-06 3.94443E-05-2.64698E-23
 -1       781-6.45456E-06 3.46972E-05-5.29396E-23
 -1       782-5.60617E-06 2.89578E-05-2.64698E-23
 -1       783-4.46323E-06 2.24205E-05 0.00000E+00
 -1       784-3.09908E-06 1.52826E-05 1.32349E-23
 -1       785-1.58687E-06 7.74250E-06-2.64698E-23
 -1       786 1.23755E-04 1.61222E-05 8.27181E-25
 -1       787 1.23825E-04 1.51047E-05 0.00000E+00
 -1       788 1.23895E-04 1.40888E-05 1.65436E-24
 -1       789 1.23966E-04 1.30749E-05 0.00000E+00
 -1       790 1.24036E-04 1.20640E-05 1.65436E-24
 -1       791 1.24107E-04 1.10568E-05 8.27181E-25
 -1       792 1.24178E-04 1.00550E-05 0.00000E+00
 -1       793 1.24248E-04 9.06007E-06 0.00000E+00
 -1       794 1.24319E-04 8.07461E-06 0.00000E+00
 -1       795 1.24390E-04 7.10134E-06 0.00000E+00
 -1       796 1.24460E-04 6.14498E-06 0.00000E+00
 -1       797 1.24531E-04 5.21028E-06 0.00000E+00
 -1       798 1.24602E-04 4.30559E-06 0.00000E+00
 -1       799 1.24673E-04 3.43937E-06-8.27181E-25
 -1       800 1.24743E-04 2.62641E-06 0.00000E+00
 -1       801 9.01834E-05 1.55571E-05 0.00000E+00
 -1       802-1.11600E-05 9.59734E-06 0.00000E+00
 -1       803-9.51074E-05 4.92125E-06 2.64698E-23
 -1       804-7.74145E-05 3.46466E-06 0.00000E+00
 -1       805-2.32639E-05 1.18905E-06 0.00000E+00
 -1       806 1.23981E-04 1.60673E-05-1.65436E-24
 -1       807 1.24272E-04 1.49882E-05 0.00000E+00
 -1       808 1.24561E-04 1.39098E-05 0.00000E+00
 -1       809 1.24848E-04 1.28379E-05 0.00000E+00
 -1       810 1.25130E-04 1.17781E-05 0.00000E+00
 -1       811 1.25405E-04 1.07360E-05 0.00000E+00
 -1       812 1.25671E-04 9.71726E-06 1.65436E-24
 -1       813 1.25927E-04 8.72741E-06-8.27181E-25
 -1       814 1.26170E-04 7.77202E-06-1.65436E-24
 -1       815 1.26397E-04 6.85670E-06 1.65436E-24
 -1       816 1.26608E-04 5.98702E-06-1.65436E-24
 -1       817 1.26800E-04 5.16853E-06-8.27181E-25
 -1       818 1.26970E-04 4.40680E-06 0.00000E+00
 -1       819 1.27117E-04 3.70740E-06 0.00000E+00
 -1       820 1.27239E-04 3.07583E-06 1.65436E-24
 -1       821 1.24704E-04 1.07484E-06 0.00000E+00
 -1       822 1.24588E-04 7.69176E-08-8.27181E-25
 -1       823 1.24472E-04-9.95611E-07 3.30872E-24
 -1       824 1.24355E-04-2.02588E-06 0.00000E+00
 -1       825 1.24239E-04-2.90717E-06 3.30872E-24
 -1       826 1.24122E-04-3.53351E-06 0.00000E+00
 -1       827 1.24005E-04-3.85942E-06 0.00000E+00
 -1       828 1.23889E-04-3.84101E-06-1.65436E-24
 -1       829 1.23772E-04-3.51607E-06-3.30872E-24
 -1       830 1.23655E-04-2.92399E-06-1.65436E-24
 -1       831 1.23538E-04-2.16753E-06 0.00000E+00
 -1       832 1.23421E-04-1.35033E-06 1.65436E-24
 -1       833 1.23305E-04-5.90443E-07 3.30872E-24
 -1       834 1.23190E-04-5.61994E-09-8.27181E-25
 -1       835 1.23074E-04 3.27799E-07 0.00000E+00
 -1       836 1.25413E-04 1.98731E-06-3.30872E-24
 -1       837 1.25878E-04 2.09543E-06-1.65436E-24
 -1       838 1.26255E-04 2.20342E-06 0.00000E+00
 -1       839 1.26592E-04 2.31078E-06-8.27181E-25
 -1       840 1.26936E-04 2.41797E-06-4.13590E-25
 -1       856 1.22943E-04 2.40894E-07 4.13590E-25
 -1       857 1.22917E-04 2.64209E-07 0.00000E+00
 -1       858 1.22892E-04 3.86461E-07 0.00000E+00
 -1       859 1.22866E-04 5.89278E-07 4.13590E-25
 -1       860 1.22839E-04 8.54183E-07 0.00000E+00
 -1       861 1.22813E-04 1.16266E-06 0.00000E+00
 -1       862 1.22787E-04 1.49613E-06-8.27181E-25
 -1       863 1.22761E-04 1.83601E-06 0.00000E+00
 -1       864 1.22734E-04 2.16370E-06 0.00000E+00
 -1       865 1.22708E-04 2.46060E-06 0.00000E+00
 -1       866 1.22682E-04 2.70818E-06 0.00000E+00
 -1       867 1.22655E-04 2.88790E-06-4.13590E-25
 -1       868 1.22629E-04 2.98134E-06 0.00000E+00
 -1       869 1.22602E-04 2.97013E-06-4.13590E-25
 -1       870 1.22576E-04 2.83603E-06 8.27181E-25
 -1       871 1.23291E-04 3.32281E-07-4.13590E-25
 -1       872 1.23734E-04 3.27155E-07 0.00000E+00
 -1       873 1.24242E-04 3.21531E-07 4.13590E-25
 -1       874 1.24761E-04 3.15309E-07 1.03398E-25
 -1       875 1.25238E-04 3.08578E-07 2.06795E-25
 -1       876 1.23106E-04 2.52060E-07 0.00000E+00
 -1       877 1.23227E-04 2.27018E-07 0.00000E+00
 -1       878 1.23330E-04 2.52748E-07 0.00000E+00
 -1       879 1.23416E-04 3.22821E-07-1.65436E-24
 -1       880 1.23488E-04 4.30758E-07 0.00000E+00
 -1       881 1.23549E-04 5.70127E-07-1.65436E-24
 -1       882 1.23600E-04 7.34507E-07 0.00000E+00
 -1       883 1.23644E-04 9.17480E-07 1.65436E-24
 -1       884 1.23683E-04 1.11264E-06 0.00000E+00
 -1       885 1.23720E-04 1.31357E-06 1.65436E-24
 -1       886 1.23758E-04 1.51387E-06 0.00000E+00
 -1       887 1.23798E-04 1.70710E-06 1.65436E-24
 -1       888 1.23843E-04 1.88685E-06 0.00000E+00
 -1       889 1.23894E-04 2.04658E-06-8.27181E-25
 -1       890 1.23955E-04 2.17989E-06-8.27181E-25
 -1       891 1.22920E-04 2.51360E-06 0.00000E+00
 -1       892 1.23270E-04 2.46617E-06 0.00000E+00
 -1       893 1.23578E-04 2.41879E-06 0.00000E+00
 -1       894 1.23821E-04 2.37156E-06 4.13590E-25
 -1       895 1.23977E-04 2.32446E-06-6.20385E-25
 -1       956 1.27230E-04 2.11014E-06 0.00000E+00
 -1       957 1.27123E-04 1.77925E-06-8.27181E-25
 -1       958 1.27016E-04 1.51658E-06-1.65436E-24
 -1       959 1.26908E-04 1.31336E-06 8.27181E-25
 -1       960 1.26801E-04 1.16081E-06 0.00000E+00
 -1       961 1.26693E-04 1.05010E-06 1.65436E-24
 -1       962 1.26586E-04 9.72381E-07 3.30872E-24
 -1       963 1.26478E-04 9.18819E-07-1.65436E-24
 -1       964 1.26371E-04 8.80564E-07-3.30872E-24
 -1       965 1.26263E-04 8.48770E-07 1.65436E-24
 -1       966 1.26156E-04 8.14586E-07-3.30872E-24
 -1       967 1.26048E-04 7.69167E-07 0.00000E+00
 -1       968 1.25941E-04 7.03668E-07 3.30872E-24
 -1       969 1.25833E-04 6.09274E-07 0.00000E+00
 -1       970 1.25726E-04 4.77178E-07-3.30872E-24
 -1       971 1.25522E-04 1.30832E-07 1.65436E-24
 -1       972 1.25422E-04 4.61634E-08-8.27181E-25
 -1       973 1.25322E-04 3.56701E-08 1.65436E-24
 -1       974 1.25222E-04 8.97680E-08 1.65436E-24
 -1       975 1.25121E-04 1.98880E-07 0.00000E+00
 -1       976 1.25021E-04 3.53395E-07 0.00000E+00
 -1       977 1.24920E-04 5.43702E-07 3.30872E-24
 -1       978 1.24820E-04 7.60174E-07 0.00000E+00
 -1       979 1.24720E-04 9.93184E-07 0.00000E+00
 -1       980 1.24619E-04 1.23311E-06 0.00000E+00
 -1       981 1.24519E-04 1.47030E-06 0.00000E+00
 -1       982 1.24419E-04 1.69515E-06-1.65436E-24
 -1       983 1.24318E-04 1.89801E-06 0.00000E+00
 -1       984 1.24219E-04 2.06928E-06-1.65436E-24
 -1       985 1.24119E-04 2.19933E-06 1.65436E-24
 -3
    1PSTEP                        18           9           1          
  100CL  109 5.64941E-01         409                     0    9           1
 -4  STRESS      6    1
 -5  SXX         1    4    1    1
 -5  SYY         1    4    2    2
 -5  SZZ         1    4    3    3
 -5  SXY         1    4    1    2
 -5  SYZ         1    4    2    3
 -5  SZX         1    4    3    1
 -1         1-2.72731E+06-1.11440E+06-5.85630E+05-1.33513E+06 2.54659E-10 2.43745E-08
 -1         2 2.30598E+03-6.74984E+05 7.45497E+03-7.38786E+02 1.18234E-11-5.05355E-09
 -1         3-4.47145E+02-1.19395E+06 2.94160E+02-9.38924E+02-3.18863E-10 3.77404E-08
 -1         5-9.52023E+00 3.22672E+05 8.78592E+00-3.15948E-01-1.36064E-10-5.07735E-08
 -1         8-1.09045E+06-3.79994E+05-1.17698E+05-4.82716E+05-2.41926E-10-2.85218E-09
 -1         9-1.44130E+06-8.50913E+05-1.52521E+05-8.31593E+05 1.13971E-08-2.58442E-08
 -1        10-1.21645E+03-1.24389E+06-1.89045E+03-6.35550E+03-7.59155E-09 1.08014E-09
 -1        12-5.92777E+00 3.22691E+05 2.84966E+02-2.32215E+00-2.26784E-10-1.31513E-09
 -1        15 1.84844E+03 1.01583E+03 5.97509E+03 3.80103E+00-1.14511E-10 5.40959E-08
 -1        16-6.61426E+05-1.09604E+06-1.33724E+05-1.28349E+06 1.12535E-08 3.80290E-08
 -1        17-7.05541E+05-3.01767E+05-8.61053E+04-1.99691E+05-3.36440E-09 2.34577E-08
 -1        18 2.41564E+04 3.61494E+03-1.85697E+04-9.02422E+04 1.13992E-08-7.53562E-09
 -1        19 9.89411E+04 1.19280E+05-4.83682E+02 1.76298E+04 6.08634E-10-5.51845E-09
 -1        20-5.34373E+04-4.62751E+05-1.02951E+05 2.70342E+04 7.31992E-10 1.30882E-08
 -1        21-4.05562E+01-2.52247E+05-8.02298E+02 6.10549E+01 3.24253E-07-6.69438E-09
 -1        24-1.78738E+06 5.80886E+04-2.94655E+04-2.80302E+05-6.33784E-08-2.80658E-08
 -1        25 1.33407E+05 3.29823E+05 1.07359E+05-2.91152E+05 2.12936E-08 8.88758E-10
 -1        26-2.86564E+04 8.15615E+04-1.64613E+04-7.15583E+03 5.93354E-10 4.65075E-09
 -1        27-7.03502E+04-2.52783E+05-9.37573E+04 5.59295E+04 4.70876E-09-1.74805E-09
 -1        28 1.92695E+04-7.10636E+04 1.43169E+04 2.01748E+04-3.60188E-10-4.73639E-09
 -1        32-1.11611E+06-1.11866E+06 1.93192E+05-2.43605E+05-1.58943E-08 1.13163E-08
 -1        33-1.41357E+05 7.67684E+04 2.65789E+04-4.12616E+04-1.09587E-09 3.45608E-10
 -1        34-1.83426E+05-1.97265E+04 4.91277E+02 5.94572E+04-7.25602E-10 3.58765E-09
 -1        35-1.97307E+04-2.81844E+04-1.11446E+03 4.39059E+04 8.13804E-10 6.89154E-09
 -1        51 2.71181E+04-3.20150E+05 6.33825E+04-9.03497E+05-3.05590E-10 3.57977E-09
 -1        52 1.27573E+04-3.13827E+05 3.77521E+04-1.05363E+06-2.61934E-10-3.92392E-08
 -1        53 6.84600E+03-3.28610E+05 2.67353E+04-9.00288E+05 6.76664E-10 1.84227E-08
 -1        54 1.84740E+04-3.26692E+05 3.62785E+04-1.05695E+06-1.45519E-11 4.02360E-09
 -1        55 3.67373E+04-3.39673E+05 6.07881E+04-8.99773E+05 1.89175E-10-2.13186E-09
 -1        56-5.19719E+06-5.81404E+05-4.31610E+05-2.01263E+06 1.38243E-09-4.56930E-09
 -1        57-5.40070E+06-9.43342E+05-2.91195E+05-1.96193E+06 9.05857E-09-1.56542E-08
 -1        58-5.28102E+06-7.21479E+05-1.01471E+05-1.98881E+06-8.36008E-09 1.73095E-08
 -1        59-5.30454E+06-7.77965E+05-6.05832E+04-1.98901E+06 5.35874E-09-1.34023E-08
 -1        60-5.29205E+06-7.42220E+05-2.36559E+04-1.98698E+06 5.61158E-10 1.07611E-08
 -1        61-5.29311E+06-7.52276E+05-1.34169E+04-1.98947E+06 2.02158E-09-1.08574E-08
 -1        62-5.29217E+06-7.46571E+05-6.37908E+03-1.98848E+06-8.61519E-10-6.29359E-09
 -1        63-5.29454E+06-7.46157E+05-5.14956E+03-1.98612E+06-1.74481E-09 2.33072E-08
 -1        64-5.29058E+06-7.48271E+05-5.70039E+03-1.99035E+06 3.93482E-09-1.91199E-08
 -1        65-5.29882E+06-7.45581E+05-1.14087E+04-1.98259E+06 7.04716E-11 1.79087E-08
 -1        66-5.28794E+06-7.47196E+05-1.98649E+04-1.99200E+06 2.43222E-09 3.85253E-08
 -1        67-5.31224E+06-7.63172E+05-5.07111E+04-1.97778E+06-5.71822E-09 4.82687E-08
 -1        68-5.27739E+06-7.31180E+05-8.48881E+04-1.99505E+06 1.11322E-09 5.52245E-09
 -1        69-5.39369E+06-9.00435E+05-2.43548E+05-1.95392E+06 3.11775E-09 8.41828E-09
 -1        70-5.20760E+06-6.13769E+05-3.61093E+05-2.01466E+06 6.83940E-10-3.06172E-08
 -1        86-1.15154E+03-6.77038E+05 8.05446E+03 3.69396E+02 4.21551E-10 3.90645E-08
 -1        87 7.66052E+03-6.72411E+05 1.67149E+04-1.38014E+03 6.62112E-10 1.57617E-08
 -1        88-6.48802E+03-6.79606E+05 2.57002E+04 1.01077E+03 8.89486E-10 3.51201E-08
 -1        89 4.83749E+04-6.53552E+05 6.91774E+04-2.38617E+03 1.28421E-09 1.71930E-08
 -1        90-4.17253E+04-6.95859E+05 9.78931E+04 1.37554E+03 1.21508E-09 5.20069E-09
 -1       121-6.32948E+02-1.19554E+06 3.38898E+01 4.67812E+02 7.91772E-10-5.83168E-09
 -1       122-3.41425E+02-1.19392E+06 6.10993E+02-1.87650E+03-2.96421E-09-2.93276E-08
 -1       123-6.84268E+02-1.19562E+06 7.30465E+02 1.39884E+03 2.37117E-09-1.03864E-08
 -1       124 8.12228E+02-1.19333E+06 2.48409E+03-4.00169E+03-5.73027E-09 1.15542E-08
 -1       125-1.37816E+03-1.19626E+06 3.54455E+03 2.58597E+03 3.59796E-09-2.52840E-09
 -1       191-1.02847E+01 3.22699E+05 1.03413E+01 1.59392E-01-2.22686E-10-1.49466E-08
 -1       192-1.03298E+01 3.22673E+05 1.86096E+01-1.20028E+00-2.96875E-10-2.51021E-10
 -1       193-1.24358E+01 3.22698E+05 3.44523E+01 1.05030E+00-3.42210E-10 2.77487E-09
 -1       194-1.29344E+01 3.22676E+05 7.04064E+01-2.79547E+00-1.89767E-10-9.24865E-09
 -1       195-1.65691E+01 3.22696E+05 1.37560E+02 1.76904E+00-5.49282E-10 2.23645E-09
 -1       251-1.64692E+06 1.48783E+04-7.92570E+04-5.98108E+04-2.10093E-10 5.26779E-09
 -1       252-1.52630E+06-1.59619E+04-2.68605E+04 1.75427E+05 9.16771E-10 1.48061E-08
 -1       253-1.58535E+06 1.02100E+03-1.68772E+04-1.15499E+05 2.65163E-09-4.40650E-09
 -1       254-1.57797E+06 6.52208E+03-5.88942E+03 2.22056E+05 1.22055E-08-3.57711E-08
 -1       255-1.60124E+06-2.66746E+03-7.86055E+03-1.06677E+05 6.60475E-09-1.76694E-08
 -1       256-1.48193E+06 7.43732E+03 1.89704E+04 1.44294E+05-2.19593E-08 2.01743E-08
 -1       257-1.67215E+06-7.34917E+03-2.00616E+04-3.74324E+04-3.10774E-09 7.57495E-09
 -1       258-1.41540E+06 6.34018E+03 3.30483E+04-1.73110E+04 8.68704E-09-1.15288E-08
 -1       259-1.66129E+06-6.80763E+03-1.67087E+04 5.46813E+04-1.82572E-08 1.07104E-09
 -1       260-1.50633E+06 8.96269E+03 1.72241E+04-1.68569E+05-7.79619E-09-2.00294E-08
 -1       261-1.59014E+06-2.76364E+03-2.24950E+02 1.13720E+05 3.65749E-08-2.02878E-09
 -1       262-1.57616E+06 1.26131E+04 6.65059E+03-2.22801E+05-6.18618E-09-4.09106E-08
 -1       263-1.59837E+06-4.85923E+03 1.32058E+03 1.09176E+05 4.45107E-09 3.04044E-09
 -1       264-1.48308E+06 2.26513E+04 3.35713E+04-1.52576E+05 4.82742E-08 2.66891E-09
 -1       265-1.67463E+06-1.96908E+04-2.65967E+03 4.31968E+04 1.51485E-08 7.83984E-10
 -1       266-3.34622E+04-1.56450E+04 7.85209E+04-8.13385E+01-2.54659E-11 1.56608E-08
 -1       267 3.87928E+04 1.82376E+04 5.54928E+04 9.38382E+01 1.45519E-11-1.23951E-10
 -1       268-5.20200E+03-2.58279E+03 2.06267E+04-1.19572E+01-6.27551E-11-7.41203E-10
 -1       269 6.14208E+03 3.09122E+03 1.34068E+04 1.39277E+01-1.59162E-12-5.42724E-09
 -1       270-9.21933E+02-5.07905E+02 6.47164E+03-1.89012E+00-3.59250E-11 2.60826E-08
 -1       271-3.08318E+06-3.84146E+05-2.32304E+05-1.19842E+06 4.43470E-09-3.98722E-09
 -1       272-3.17434E+06-5.46331E+05-1.49437E+05-1.18787E+06 2.73303E-10 2.40107E-09
 -1       273-3.12746E+06-4.41596E+05-5.48738E+04-1.18740E+06-1.69825E-09 3.03771E-08
 -1       274-3.12175E+06-4.76573E+05-3.07124E+04-1.20503E+06 2.54295E-09 4.55839E-09
 -1       275-3.13476E+06-4.46364E+05-1.27905E+04-1.18416E+06 4.94856E-09-8.52197E-09
 -1       276-3.11227E+06-4.71792E+05-6.75381E+03-1.21071E+06-9.44965E-10-8.56198E-09
 -1       277-3.13710E+06-4.45434E+05-3.32693E+03-1.18220E+06-1.81262E-09 2.00139E-08
 -1       278-3.10906E+06-4.73596E+05-2.33741E+03-1.21413E+06-3.09228E-10 4.19100E-08
 -1       279-3.13823E+06-4.44320E+05-2.46564E+03-1.18096E+06-8.57654E-10-3.38320E-08
 -1       280-3.10807E+06-4.75606E+05-4.44499E+03-1.21595E+06 4.56021E-09-3.44880E-08
 -1       281-3.13828E+06-4.43348E+05-8.05474E+03-1.18050E+06 7.71706E-10-7.60838E-09
 -1       282-3.11160E+06-4.81172E+05-1.93262E+04-1.21551E+06 7.18501E-09 2.12531E-08
 -1       283-3.13484E+06-4.39206E+05-3.43526E+04-1.18127E+06-7.18092E-09 2.37142E-08
 -1       284-3.14273E+06-5.26773E+05-9.37260E+04-1.20687E+06 9.03583E-10-7.78164E-09
 -1       285-3.10781E+06-4.02477E+05-1.45623E+05-1.18737E+06-3.28328E-09 8.44739E-09
 -1       301 2.33599E+04-1.36499E+05 1.71004E+05-2.62927E+05-1.52795E-10 1.33950E-08
 -1       302 2.47199E+04-9.35195E+04 1.10475E+05-3.85159E+05 3.33785E-10 2.49331E-08
 -1       303 1.32896E+03-1.19439E+05 8.14845E+04-2.62502E+05-2.91038E-10-9.64246E-09
 -1       304 2.56710E+04-9.11577E+04 1.15172E+05-3.84729E+05 5.62068E-10-2.03781E-08
 -1       305 2.39420E+04-1.36543E+05 1.81252E+05-2.63422E+05-5.52973E-10-6.20639E-09
 -1       306-8.09928E+06-8.76502E+05-1.04774E+06-2.05722E+06-1.77970E-08 4.88944E-09
 -1       307-2.52735E+06-1.92628E+06 1.64079E+05-3.97719E+06-2.32758E-07-2.75941E-09
 -1       308-7.20233E+06 3.87189E+04-1.63404E+05-7.74915E+05-6.31771E-08 6.15328E-08
 -1       309-4.22764E+06-2.21691E+06 5.00830E+04-5.66963E+06 5.86947E-08 4.43606E-09
 -1       310-7.20780E+06 2.97860E+04-7.58497E+04-7.73606E+05 1.92013E-08-1.14178E-08
 -1       311-2.47466E+06-1.84656E+06 4.25155E+05-3.99299E+06 1.78727E-07-2.79633E-08
 -1       312-8.14597E+06-9.45850E+05-5.58434E+05-2.04261E+06-3.57104E-08 4.12547E-08
 -1       313-1.91385E+06-2.33917E+05 7.72680E+05-8.30187E+05-9.03383E-08 5.05679E-08
 -1       314-7.09522E+06-2.05503E+06-5.74429E+05-3.30121E+06 3.67581E-08 2.97732E-08
 -1       315-5.97394E+06 1.78317E+06 4.43553E+05 1.84313E+05-1.37814E-07-2.33995E-08
 -1       316-4.85349E+06-2.38459E+06-9.60828E+04-3.50343E+06-2.64117E-07-1.18736E-07
 -1       317-8.97030E+06 2.52115E+06 3.95573E+04-3.12771E+05 2.29748E-07-1.43147E-07
 -1       318-4.72692E+06-2.37178E+06-1.66717E+05-3.49783E+06-2.19181E-07 1.04092E-08
 -1       319-6.41788E+06 1.77636E+06 9.00791E+04 1.70518E+05-5.68834E-08 8.62201E-10
 -1       320-6.85805E+06-2.00732E+06-1.11027E+06-3.36805E+06 4.70318E-08-7.30506E-09
 -1       336 3.83760E+02-1.29423E+06-7.79722E+03 3.74098E+03-1.51458E-08 1.64800E-09
 -1       337-2.93930E+03-1.29512E+06-8.87085E+03-9.16290E+03-2.74786E-08 6.15000E-09
 -1       338 3.19292E+02-1.29432E+06-1.22331E+04 5.37396E+03-1.95614E-08 2.11003E-09
 -1       339-1.27052E+04-1.30159E+06-2.68725E+04-1.23539E+04-3.49223E-08 6.67933E-09
 -1       340 8.31944E+03-1.28831E+06-4.19026E+04 6.89905E+03-2.30702E-08 1.96087E-08
 -1       406 1.56828E+01 3.22683E+05 5.62420E+02 5.88468E-01-6.45684E-10-7.09224E-09
 -1       407 1.90244E+02 3.22789E+05 1.19567E+03 9.01941E+00-1.25794E-10-3.00893E-08
 -1       408 6.09454E+02 3.22597E+05 2.38776E+03-9.87257E+00-8.45915E-10-1.98661E-08
 -1       409 2.57649E+03 3.23552E+05 5.37576E+03 9.97326E+01-2.75406E-10-1.06143E-08
 -1       410 7.41331E+03 3.21917E+05 1.09742E+04-9.50151E+01-1.01090E-09-6.64704E-09
 -1       521-1.03777E+07-1.26780E+06-1.56525E+06-2.37302E+06-1.55123E-08 2.65427E-08
 -1       522-2.10322E+06-2.34527E+06 3.14429E+05-5.36027E+06-1.80131E-07-6.50107E-08
 -1       523-8.88999E+06 1.14260E+05-2.21818E+05-5.71085E+05 3.37604E-09-1.01812E-07
 -1       524-5.14631E+06-2.49430E+06 1.07136E+05-7.85524E+06 2.57323E-07-2.23150E-07
 -1       525-8.92281E+06 9.12382E+04-1.17443E+05-5.88606E+05 2.00787E-07-1.69510E-07
 -1       526-1.97212E+06-2.26102E+06 6.61339E+05-5.28837E+06 1.16415E-08-3.86735E-08
 -1       527-1.04310E+07-1.36037E+06-9.23162E+05-2.40163E+06-1.60071E-09 6.94126E-09
 -1       528-7.46413E+05-6.95466E+04 1.17183E+06-3.95331E+05-3.70201E-08 1.05501E-08
 -1       529-8.88535E+06-2.96873E+06-9.40324E+05-4.20915E+06 1.74623E-10 3.43425E-08
 -1       530-7.14474E+06 3.06006E+06 6.84202E+05 7.73102E+05-4.77303E-09 1.63236E-07
 -1       531-5.57364E+06-3.32666E+06-1.34266E+05-4.41787E+06-1.98081E-07 5.30708E-08
 -1       532-1.17666E+07 4.13588E+06 1.13966E+05-4.29993E+05 1.85864E-07-1.83238E-07
 -1       533-5.40512E+06-3.31113E+06-1.93999E+05-4.40257E+06 2.89729E-08-3.15900E-07
 -1       534-7.73177E+06 3.16648E+06 3.21962E+05 6.84782E+05-6.05069E-08 2.18162E-07
 -1       535-8.60943E+06-2.99533E+06-1.50353E+06-4.27933E+06-6.92671E-09 1.45774E-07
 -1       536-5.36820E+05-3.46699E+04 1.00797E+04-2.97836E+04-6.34145E-09 5.12773E-08
 -1       537-2.25059E+05 3.57601E+04 6.09875E+04 7.44023E+04-7.43607E-08 6.06578E-08
 -1       538-3.91545E+05-6.86955E+02 9.53443E+03-4.62720E+04 1.48199E-08 6.51489E-08
 -1       539-3.34817E+05 3.08931E+03 1.55352E+04 8.75391E+04 9.14193E-08 7.26337E-08
 -1       540-4.29658E+05 1.11758E+02-6.31409E+03-4.30834E+04-5.92695E-09 5.94322E-08
 -1       541-1.54864E+05 7.41394E+03 4.70200E+04 5.84973E+04-4.01917E-09 3.97811E-08
 -1       542-5.66666E+05-8.99340E+03-3.66411E+04-1.69844E+04 4.00737E-08 2.71364E-08
 -1       543-3.57905E+04 1.22369E+04 6.98058E+04-7.57635E+03-6.68035E-09-1.08639E-08
 -1       544-5.45564E+05-7.30943E+03-3.33656E+04 2.28046E+04 7.04358E-09-2.91253E-08
 -1       545-2.02608E+05 3.71840E+03 3.42244E+04-6.87191E+04 9.32232E-12-5.33074E-08
 -1       546-4.04280E+05 3.16027E+03-6.66118E+03 4.40591E+04 1.43677E-09-5.82068E-08
 -1       547-3.43375E+05-4.36703E+03 5.39595E+02-8.93798E+04-7.39146E-08-7.07651E-08
 -1       548-4.08524E+05 3.84397E+03-1.65778E+04 4.36636E+04-7.67222E-08-5.96015E-08
 -1       549-1.97049E+05-4.80515E+03 1.03598E+04-6.66798E+04-4.84115E-08-4.13525E-08
 -1       550-5.46610E+05 3.01173E+02-8.08519E+04 2.11514E+04 1.83809E-09-2.28119E-08
 -1       551 2.44232E+04-6.56502E+05 2.21553E+04-1.04720E+06-6.09216E-08-6.33008E-09
 -1       552 5.24505E+04-6.73958E+05 3.10574E+04-1.49247E+06-4.36848E-08 2.03727E-08
 -1       553 3.77971E+04-6.77596E+05 4.62990E+04-1.04306E+06-7.20393E-08 1.48357E-08
 -1       554 8.06132E+04-6.72054E+05 9.77140E+04-1.49394E+06-4.25789E-08 7.72502E-09
 -1       555 6.59766E+04-6.96216E+05 1.73427E+05-1.04398E+06-7.39674E-08-7.71615E-09
 -1       556 1.17625E+05-2.12830E+05 6.47944E+04-2.60377E+05-1.41590E-08-1.37516E-08
 -1       557 2.02435E+05-2.80184E+05 3.45588E+04-3.27922E+05 3.49246E-10-1.29421E-09
 -1       558 1.14032E+05-2.19562E+05 1.30815E+04-2.54373E+05-1.11904E-08-5.32236E-09
 -1       559 1.87767E+05-2.88185E+05 6.89580E+03-3.35861E+05 1.51631E-08-5.39694E-09
 -1       560 1.08960E+05-2.16304E+05 2.29546E+03-2.57827E+05 5.26779E-09 1.44428E-09
 -1       561 1.80692E+05-2.85813E+05 1.41310E+03-3.40478E+05-6.40284E-10 4.55566E-09
 -1       562 1.04843E+05-2.13661E+05 2.16498E+02-2.60794E+05 1.99361E-09-1.02955E-09
 -1       563 1.75758E+05-2.83670E+05 3.08787E+02-3.43663E+05 6.58474E-10-9.24774E-09
 -1       564 1.01961E+05-2.11843E+05-4.01809E+01-2.62836E+05-3.56522E-10 1.80171E-09
 -1       565 1.72615E+05-2.82310E+05 6.12269E+01-3.45662E+05-7.40692E-09 4.47426E-09
 -1       566 1.00378E+05-2.10828E+05-1.01900E+02-2.63951E+05-3.08501E-09 2.43199E-09
 -1       567 1.71229E+05-2.81712E+05-2.49651E+02-3.46463E+05 2.21098E-08 6.64113E-09
 -1       568 1.00137E+05-2.10689E+05-6.84044E+02-2.64189E+05 1.75942E-09-8.31642E-09
 -1       569 1.70686E+05-2.81688E+05-1.69197E+03-3.45412E+05-7.39419E-09 6.77392E-09
 -1       570 1.01950E+05-2.12495E+05-3.55598E+03-2.63843E+05 3.32875E-09-3.42652E-09
 -1       571 2.30942E+05 8.28981E+03 1.20802E+04-7.32551E+04-7.67068E-09 7.97036E-09
 -1       572 2.32713E+05 2.99406E+03 5.91972E+03-8.03272E+04-1.69189E-08-3.30147E-10
 -1       573 2.31641E+05 8.23967E+02 2.62990E+03-7.30886E+04-7.42057E-09 1.76442E-10
 -1       574 2.31830E+05 3.88563E+02 1.31836E+03-8.05235E+04-5.21823E-10 1.98997E-09
 -1       575 2.31711E+05 1.84400E+02 6.21591E+02-7.30664E+04-2.20734E-09 1.07357E-08
 -1       576 2.31710E+05 1.78948E+02 3.17014E+02-8.05496E+04-7.33701E-09 8.10905E-09
 -1       577 2.31728E+05 1.46791E+02 1.56510E+02-7.30634E+04 5.76074E-09 6.26096E-09
 -1       578 2.31712E+05 1.60641E+02 8.63623E+01-8.05529E+04 1.94809E-08 2.80124E-10
 -1       579 2.31761E+05 1.32450E+02 5.34495E+01-7.30632E+04 7.49787E-09 7.83257E-09
 -1       580 2.31760E+05 1.37154E+02 5.21638E+01-8.05488E+04-2.14750E-08 3.19233E-09
 -1       581 2.31819E+05 1.03617E+02 7.09178E+01-7.30676E+04-6.14091E-09 1.06179E-08
 -1       582 2.31850E+05 1.16627E+02 1.38139E+02-8.05037E+04-2.85581E-10-3.50792E-09
 -1       583 2.31895E+05 1.20310E+02 2.61974E+02-7.31086E+04 7.21957E-09-2.75350E-09
 -1       584 2.32044E+05 3.26727E+02 5.91043E+02-8.01604E+04 1.93941E-08-3.60615E-10
 -1       585 2.31919E+05 8.24222E+02 1.19516E+03-7.34110E+04 9.52787E-09-2.01726E-09
 -1       586-2.15641E+03 9.29647E+04-2.19159E+03-1.98028E+05-2.89128E-09-7.59292E-09
 -1       587-5.97383E+02 9.27197E+04 4.50204E+02-2.17875E+05-3.90537E-09-1.05310E-08
 -1       588 6.13878E+02 9.26183E+04 3.26051E+03-1.97887E+05-2.09366E-09 1.39175E-08
 -1       589 3.91233E+03 9.42652E+04 8.53388E+03-2.17742E+05-2.11094E-09 1.62299E-08
 -1       590 1.18790E+04 9.16427E+04 1.79354E+04-1.98180E+05-1.69712E-09 1.51313E-08
 -1       591-6.42941E+04-1.55541E+04-1.84551E+04-3.00022E+04-1.11038E-09-1.18507E-08
 -1       592-6.67222E+04-1.93873E+04-9.99631E+03-3.40233E+04-9.99762E-10-3.79441E-09
 -1       593-6.61531E+04-1.42018E+04-4.16131E+03-3.13425E+04-1.71246E-09 3.11502E-10
 -1       594-6.41601E+04-1.66947E+04-2.07533E+03-3.41395E+04-1.39698E-09 2.29532E-08
 -1       595-6.62955E+04-1.41960E+04-9.53297E+02-3.14038E+04-1.31627E-09-1.01562E-09
 -1       596-6.39859E+04-1.65715E+04-4.85174E+02-3.41207E+04 3.96045E-09-1.59794E-09
 -1       597-6.63135E+04-1.42080E+04-2.65485E+02-3.14062E+04-3.45691E-09 6.50510E-09
 -1       598-6.39691E+04-1.65668E+04-2.15809E+02-3.41154E+04-1.22978E-09 6.43865E-09
 -1       599-6.63123E+04-1.42083E+04-2.78674E+02-3.14058E+04 1.30626E-09-2.82967E-09
 -1       600-6.39868E+04-1.65726E+04-5.20094E+02-3.41194E+04 7.63976E-10 1.00133E-08
 -1       601-6.62905E+04-1.41962E+04-1.02735E+03-3.14024E+04-2.69665E-10 6.12999E-10
 -1       602-6.41743E+04-1.67052E+04-2.23963E+03-3.41370E+04-1.22259E-09-9.42316E-09
 -1       603-6.61347E+04-1.42048E+04-4.49185E+03-3.13366E+04 5.87761E-10 9.83619E-09
 -1       604-6.69500E+04-1.96000E+04-1.07901E+04-3.39963E+04-7.05313E-10 1.15979E-08
 -1       605-6.41152E+04-1.56748E+04-1.99205E+04-2.99009E+04 2.09440E-09 8.00628E-09
 -1       606 2.69999E+04-1.14525E+04-2.05621E+04 2.50913E+04 1.13869E-09 2.54977E-09
 -1       607 2.34834E+04-3.72376E+03-1.02393E+04 2.81785E+04 2.79488E-09 1.23955E-08
 -1       608 2.54825E+04-6.56255E+02-4.58460E+03 2.49001E+04-1.15506E-09-1.52113E-09
 -1       609 2.50927E+04-2.05112E+02-2.31580E+03 2.84004E+04-5.02951E-10-1.52784E-08
 -1       610 2.53046E+04-9.03345E+00-1.10560E+03 2.48782E+04 8.13088E-10 6.72571E-09
 -1       611 2.52378E+04-2.46380E+00-5.57599E+02 2.84245E+04 9.95897E-11 7.30643E-09
 -1       612 2.52610E+04 5.68540E+00-2.66093E+02 2.48760E+04-1.37788E-09-3.60160E-10
 -1       613 2.52408E+04 4.29656E+00-1.20533E+02 2.84273E+04-1.68438E-09-1.04214E-08
 -1       614 2.52385E+04 3.66411E+00-3.15816E+01 2.48753E+04-1.63709E-11 1.25112E-08
 -1       615 2.52315E+04 8.21629E+00 4.24916E+01 2.84278E+04 1.20053E-09 8.72410E-09
 -1       616 2.52213E+04 8.37184E+00 1.34820E+02 2.48756E+04-1.10322E-09-6.01858E-10
 -1       617 2.52439E+04 3.94942E+01 3.10498E+02 2.84273E+04 1.57343E-09-3.39151E-09
 -1       618 2.51913E+04 9.98359E+01 6.26917E+02 2.48757E+04-3.71983E-10 1.55819E-09
 -1       619 2.54628E+04 5.25894E+02 1.40851E+03 2.84266E+04-2.72848E-12-3.02271E-09
 -1       620 2.49815E+04 1.58822E+03 2.83126E+03 2.48755E+04 2.80249E-09 1.73213E-09
 -1       621 4.96724E+02 2.56320E+05 4.08905E+03 2.31826E+04 3.47654E-10 8.48559E-10
 -1       622 5.81957E+02 2.57321E+05 3.36811E+03 3.37134E+04 5.14774E-10-4.61660E-09
 -1       623 5.03075E+01 2.56609E+05 3.73360E+03 2.30799E+04 4.51166E-10 2.21871E-09
 -1       624 1.70250E+03 2.58317E+05 6.97070E+03 3.38114E+04 5.61890E-10 9.27685E-11
 -1       625 1.69266E+03 2.55269E+05 1.20604E+04 2.30827E+04 5.87534E-10 2.60434E-09
 -1       626 2.06097E+05 5.21672E+04 3.58963E+03 1.05324E+05-1.98452E-09-6.04996E-09
 -1       627 2.03764E+05 5.38488E+04 1.72982E+03 1.09115E+05-2.66573E-09-8.70284E-09
 -1       628 2.06217E+05 5.04862E+04 7.31096E+02 1.05885E+05-1.55433E-09 1.29571E-08
 -1       629 2.03267E+05 5.34198E+04 3.58486E+02 1.09329E+05-2.41062E-09-2.79618E-09
 -1       630 2.06225E+05 5.04066E+04 1.66558E+02 1.05902E+05 2.86491E-10-7.11734E-09
 -1       631 2.03209E+05 5.34081E+04 9.08300E+01 1.09330E+05 2.09366E-09-6.38920E-10
 -1       632 2.06217E+05 5.04120E+04 6.21281E+01 1.05896E+05 1.44883E-09 6.66637E-09
 -1       633 2.03198E+05 5.34119E+04 7.26863E+01 1.09325E+05-4.44720E-09-1.00761E-08
 -1       634 2.06209E+05 5.04113E+04 1.20593E+02 1.05893E+05 6.41717E-09 1.03266E-08
 -1       635 2.03206E+05 5.34122E+04 2.46106E+02 1.09327E+05 9.19954E-10 1.13935E-08
 -1       636 2.06199E+05 5.04087E+04 4.97993E+02 1.05891E+05-1.97528E-09-1.27648E-09
 -1       637 2.03310E+05 5.34908E+04 1.09513E+03 1.09324E+05-4.01997E-10-4.73847E-09
 -1       638 2.06158E+05 5.06518E+04 2.25065E+03 1.05779E+05-2.26009E-09 1.99907E-09
 -1       639 2.04488E+05 5.51375E+04 5.32477E+03 1.08976E+05-6.90306E-09 3.36513E-09
 -1       640 2.05998E+05 5.55558E+04 1.10501E+04 1.03703E+05-1.54673E-08-2.53383E-08
 -1       656 5.44575E+04-1.38583E+06-1.31456E+05-1.19091E+03-1.67347E-10 1.25415E-08
 -1       657-7.19887E+04-1.44520E+06-1.08792E+05 6.60969E+03 6.54836E-11-1.03091E-08
 -1       658 1.73046E+04-1.40274E+06-6.68570E+04-2.67566E+03 4.58158E-10-1.32473E-08
 -1       659-7.74532E+04-1.44779E+06-1.15970E+05 7.71110E+03-7.65795E-10-2.96533E-09
 -1       660 5.99092E+04-1.38325E+06-1.43801E+05-2.29231E+03-1.09867E-09-5.71561E-09
 -1       661 1.63088E+05 1.74708E+04 1.62476E+04 6.37202E+04-4.04725E-11-1.95269E-09
 -1       662 1.71837E+05 2.99319E+04 1.09487E+04 6.05707E+04 7.99162E-10-1.74397E-08
 -1       663 1.66276E+05 2.26864E+04 3.82970E+03 6.27981E+04-1.33355E-09-1.57604E-08
 -1       664 1.68146E+05 2.38293E+04 2.29012E+03 6.16941E+04-8.50832E-10-9.38655E-09
 -1       665 1.66756E+05 2.34020E+04 9.03412E+02 6.26612E+04-5.80997E-10-3.06784E-09
 -1       666 1.67581E+05 2.30082E+04 5.27547E+02 6.18709E+04 4.67111E-10 2.30910E-09
 -1       667 1.66837E+05 2.34860E+04 2.78959E+02 6.26293E+04 2.26180E-10-8.32868E-09
 -1       668 1.67492E+05 2.29442E+04 2.81360E+02 6.19171E+04 2.24063E-10-6.01982E-09
 -1       669 1.66844E+05 2.34640E+04 3.78561E+02 6.26155E+04-3.93030E-10 1.87475E-09
 -1       670 1.67586E+05 2.31468E+04 8.22116E+02 6.19181E+04 1.19314E-09 1.21956E-09
 -1       671 1.66744E+05 2.32875E+04 1.45899E+03 6.26266E+04 9.23585E-10-8.01049E-09
 -1       672 1.68436E+05 2.45658E+04 3.73220E+03 6.17123E+04 1.04826E-09-2.96808E-09
 -1       673 1.65998E+05 2.20808E+04 6.25436E+03 6.28077E+04-1.10788E-09 5.14819E-09
 -1       674 1.74390E+05 3.46131E+04 1.78861E+04 5.99625E+04-4.65434E-10 6.84486E-09
 -1       675 1.60829E+05 1.35213E+04 2.65489E+04 6.42706E+04-2.72848E-11-4.05271E-09
 -1       676 2.08224E+01-2.52180E+05-9.66978E+02-3.05282E+01-7.20206E-11-2.23335E-09
 -1       677-2.56743E+02-2.52414E+05-1.76970E+03 6.10186E+01 1.96141E-09 1.08146E-09
 -1       678 1.71429E+02-2.52014E+05-3.12837E+03-3.04697E+01-4.77485E-11 1.40277E-10
 -1       679-3.12921E+03-2.54302E+05-7.43156E+03 6.07934E+01 2.23940E-09-7.53416E-09
 -1       680 1.86756E+03-2.50293E+05-1.19772E+04-2.99594E+01 4.22915E-11-1.44910E-09
 -1       771-2.67111E+06-5.43240E+05-8.18567E+04-1.18728E+06-2.06346E-08-1.70112E-08
 -1       772-2.63043E+06-5.97397E+05-4.29291E+04-1.24901E+06-1.37152E-08 6.98674E-09
 -1       773-2.68567E+06-5.31725E+05-2.03780E+04-1.19246E+06-1.30967E-08 1.01936E-08
 -1       774-2.62190E+06-5.88851E+05-9.41953E+03-1.25944E+06 8.23638E-09 2.93949E-09
 -1       775-2.69176E+06-5.27409E+05-6.05739E+03-1.19418E+06-8.38190E-09 3.99086E-09
 -1       776-2.62481E+06-5.88472E+05-2.43674E+03-1.26655E+06-1.42536E-08-2.80488E-09
 -1       777-2.69675E+06-5.23737E+05-2.34220E+03-1.19566E+06-1.25146E-09 3.93629E-09
 -1       778-2.62815E+06-5.88236E+05-7.41007E+02-1.27258E+06 1.68802E-09 5.20959E-09
 -1       779-2.70093E+06-5.20598E+05-1.10594E+03-1.19694E+06-4.46744E-09 8.38554E-10
 -1       780-2.63112E+06-5.87972E+05-2.86116E+02-1.27746E+06-4.16185E-09-2.00089E-11
 -1       781-2.70418E+06-5.18101E+05-5.79696E+02-1.19794E+06-1.00845E-08 2.94676E-09
 -1       782-2.63342E+06-5.87729E+05-2.75173E+02-1.28105E+06-1.96851E-08-1.17459E-08
 -1       783-2.70642E+06-5.16402E+05-6.04996E+02-1.19864E+06-2.05910E-09-9.39667E-09
 -1       784-2.63513E+06-5.87832E+05-1.08150E+03-1.28322E+06-6.21731E-09 6.98628E-09
 -1       785-2.70737E+06-5.15679E+05-2.07186E+03-1.19885E+06-1.99379E-08 3.31056E-09
 -1       786 1.98822E+05-1.06859E+04 2.47233E+04-2.03315E+02 5.88147E-06 1.20617E-08
 -1       787 2.09534E+05 1.23715E+04 1.74910E+04-2.00004E+02 1.17308E-05 1.20690E-08
 -1       788 2.02955E+05-1.67499E+03 6.39896E+03-1.97069E+02 1.62506E-05 1.52095E-08
 -1       789 2.04720E+05 1.93848E+03 4.02029E+03-2.09764E+02 2.07560E-05 2.97996E-08
 -1       790 2.03637E+05-2.61485E+02 1.63545E+03-1.93564E+02 2.63665E-05 1.83632E-08
 -1       791 2.03924E+05 3.04121E+02 9.59340E+02-2.18424E+02 3.19959E-05 5.35534E-08
 -1       792 2.03751E+05-4.18609E+01 4.36139E+02-1.88410E+02 3.93295E-05 1.43401E-08
 -1       793 2.03795E+05 5.84524E+01 2.82286E+02-2.32614E+02 4.65919E-05 5.49365E-08
 -1       794 2.03767E+05-1.59809E+01 2.03762E+02-1.79374E+02 2.33389E-05-4.40820E-09
 -1       795 2.03804E+05 8.15143E+01 2.86992E+02-2.57684E+02 7.24365E-08 8.11805E-09
 -1       796 2.03742E+05-6.49064E+01 4.25209E+02-1.63340E+02 4.47173E-09 2.01067E-09
 -1       797 2.03996E+05 4.76695E+02 9.98730E+02-3.02076E+02-1.17063E-09 3.96381E-09
 -1       798 2.03575E+05-4.10872E+02 1.57511E+03-1.34980E+02 3.79477E-09 6.36402E-09
 -1       799 2.05178E+05 3.03487E+03 4.29314E+03-3.80363E+02-1.19041E-09 1.05676E-08
 -1       800 2.02559E+05-2.62103E+03 6.06354E+03-8.50504E+01 7.43896E-10 8.09860E-09
 -1       801-5.29456E+04-4.59631E+06-6.52367E+05 4.74391E+05 4.16039E-08-4.22524E-08
 -1       802 3.67383E+05 4.71665E+06 1.36789E+06-6.08378E+05-9.27685E-09-1.98456E-08
 -1       803-3.05238E+05-7.45946E+06-1.05310E+06 2.80372E+05 1.10831E-07 3.26345E-08
 -1       804 2.51746E+05 2.97855E+06 1.12084E+06 1.92004E+05-1.80235E-08-7.65021E-08
 -1       805 4.44367E+04-2.85709E+06-1.18628E+04-3.25694E+05-6.68297E-08-4.43609E-08
 -1       806-2.42136E+05-5.35115E+04-2.08179E+04-1.02899E+05-1.57593E-09-6.64932E-09
 -1       807-2.43094E+05-5.07972E+04-1.02273E+04-1.08734E+05 4.81191E-09 3.30095E-09
 -1       808-2.42742E+05-4.59752E+04-4.33830E+03-1.06413E+05-3.03930E-09 1.67216E-09
 -1       809-2.40902E+05-4.79662E+04-2.12080E+03-1.09039E+05-8.31000E-09 3.78805E-09
 -1       810-2.42835E+05-4.57090E+04-9.71178E+02-1.06567E+05 7.28505E-10-5.27780E-09
 -1       811-2.40734E+05-4.78552E+04-4.81753E+02-1.09014E+05 1.39198E-09-4.68879E-09
 -1       812-2.42849E+05-4.57294E+04-2.40820E+02-1.06566E+05-2.16869E-09 8.64316E-09
 -1       813-2.40710E+05-4.78589E+04-1.52571E+02-1.09000E+05-7.65181E-09-9.01468E-09
 -1       814-2.42844E+05-4.57382E+04-1.44343E+02-1.06561E+05-1.57206E-09 9.19499E-10
 -1       815-2.40710E+05-4.78623E+04-2.26840E+02-1.08993E+05 2.00453E-09-1.21165E-08
 -1       816-2.42826E+05-4.57385E+04-4.26032E+02-1.06557E+05-4.18368E-10-7.10497E-09
 -1       817-2.40780E+05-4.79039E+04-9.13114E+02-1.08981E+05-6.14182E-09 7.04199E-09
 -1       818-2.42767E+05-4.58698E+04-1.86155E+03-1.06494E+05-2.01726E-09-8.53242E-09
 -1       819-2.41807E+05-4.90175E+04-4.38014E+03-1.08723E+05-1.03500E-09-4.61819E-09
 -1       820-2.42401E+05-4.91903E+04-8.91516E+03-1.05089E+05-9.09495E-13 2.95086E-09
 -1       821-3.25623E+05 1.79278E+04-4.14685E+04 6.46906E+02 4.72316E-09 3.50155E-09
 -1       822-3.43564E+05-2.07543E+04-2.93401E+04-1.28373E+03-4.81922E-10-2.28511E-09
 -1       823-3.32538E+05 2.81144E+03-1.07385E+04 7.60425E+02-2.78824E-09 9.66475E-09
 -1       824-3.35473E+05-3.25249E+03-6.75372E+03-1.16456E+03 2.19778E-10 1.36662E-08
 -1       825-3.33712E+05 4.39104E+02-2.78143E+03 5.27745E+02 3.26674E-09 5.77677E-09
 -1       826-3.34083E+05-5.16184E+02-1.66222E+03-4.65077E+02 3.05503E-09 7.64140E-09
 -1       827-3.33925E+05 7.58629E+01-8.76611E+02 6.09268E+01 1.78377E-09-1.01008E-08
 -1       828-3.33893E+05-1.55720E+02-7.49901E+02 4.78005E+02-2.88426E-09 1.58836E-08
 -1       829-3.33901E+05 7.88130E+01-8.83166E+02-4.15352E+02 4.81243E-10 1.10091E-08
 -1       830-3.34143E+05-5.29915E+02-1.70625E+03 1.20967E+03 5.58103E-10 1.45110E-09
 -1       831-3.33677E+05 4.51026E+02-2.83429E+03-6.70752E+02-2.32862E-09 3.18767E-09
 -1       832-3.35524E+05-3.32514E+03-6.90459E+03 1.37620E+03-2.25217E-09 1.72093E-08
 -1       833-3.32522E+05 2.87245E+03-1.09770E+04-5.81882E+02-2.33265E-09 1.50903E-08
 -1       834-3.43726E+05-2.12078E+04-2.99742E+04 8.90466E+02-1.59277E-09 8.14634E-09
 -1       835-3.25476E+05 1.83190E+04-4.23868E+04-1.85007E+02 5.01849E-09 6.30644E-09
 -1       836-1.16294E+03 3.09813E+05 1.90035E+04-2.49353E+04-2.32285E-09 1.60167E-08
 -1       837 4.09077E+03 3.15739E+05 1.60337E+04-5.03278E+04-1.84082E-09 1.84236E-08
 -1       838-4.37986E+02 3.11479E+05 1.62655E+04-2.48498E+04-1.82899E-09 5.09681E-09
 -1       839 1.02491E+04 3.20320E+05 3.06996E+04-5.03617E+04-1.64846E-09 6.15562E-09
 -1       840-3.14215E+03 3.05175E+05 4.89186E+04-2.49029E+04-2.00271E-09 4.77803E-09
 -1       856-7.13908E+04 7.47234E+03-1.96913E+04-3.91875E+02 5.96856E-12-3.60160E-09
 -1       857-7.95152E+04-8.77057E+03-1.35563E+04 4.85078E+03 1.33187E-09-9.43601E-11
 -1       858-7.46039E+04 1.04742E+03-5.11005E+03-4.14581E+02-1.16671E-09-2.59115E-09
 -1       859-7.58263E+04-1.22378E+03-3.08521E+03 4.88597E+03 6.29370E-10-6.23697E-09
 -1       860-7.50842E+04 1.46140E+02-1.29553E+03-4.27021E+02 1.85011E-09-3.17596E-09
 -1       861-7.52735E+04-1.66790E+02-7.17994E+02 4.90302E+03 2.43851E-10-5.25634E-09
 -1       862-7.51591E+04 1.96048E+01-3.09095E+02-4.31640E+02 2.89035E-09-2.88082E-10
 -1       863-7.51836E+04-1.53608E+01-1.36735E+02 4.90543E+03 3.10334E-09-4.97961E-09
 -1       864-7.51744E+04-1.90280E+00-1.03769E+01-4.29431E+02 9.13573E-10 1.05010E-09
 -1       865-7.51468E+04 3.62329E+01 1.16734E+02 4.89364E+03 2.92096E-09-1.28877E-08
 -1       866-7.51941E+04-3.22856E+01 2.63136E+02-4.19853E+02-1.36026E-09-5.78338E-09
 -1       867-7.50155E+04 2.68100E+02 6.65660E+02 4.86754E+03 1.98202E-09-3.64535E-09
 -1       868-7.53019E+04-2.30428E+02 1.11036E+03-4.03332E+02 5.47800E-10-4.36603E-09
 -1       869-7.41959E+04 1.91587E+03 2.96328E+03 4.82420E+03 1.73813E-09 2.69517E-09
 -1       870-7.60079E+04-1.63653E+03 4.29932E+03-3.76493E+02 3.33443E-10 3.42698E-09
 -1       871-4.57861E+03-1.46868E+04-1.54304E+04 1.01605E+05-9.67702E-10 3.96813E-09
 -1       872-1.84585E+03-1.81991E+04-6.39090E+03 1.31738E+05-2.80784E-09-1.30635E-08
 -1       873 1.13039E+02-1.65273E+04 6.46025E+02 1.01383E+05-1.55524E-09-1.70288E-08
 -1       874 2.44370E+03-1.44650E+04 8.16222E+03 1.31770E+05-3.21597E-09 1.64073E-09
 -1       875 5.45144E+03-1.84745E+04 1.82760E+04 1.01571E+05-1.29148E-09 5.45697E-11
 -1       876 2.41436E+05 4.12720E+04 1.27474E+04 9.75693E+04 1.46019E-09-4.05362E-09
 -1       877 2.42196E+05 4.40389E+04 6.80750E+03 1.01311E+05 2.45223E-09-1.54760E-08
 -1       878 2.42628E+05 3.98602E+04 2.85198E+03 9.86144E+04 2.61252E-09 7.78277E-09
 -1       879 2.40462E+05 4.23114E+04 1.42083E+03 1.01400E+05 3.42789E-09 1.22958E-08
 -1       880 2.42714E+05 3.98450E+04 6.61552E+02 9.86570E+04-4.05566E-09-6.64727E-09
 -1       881 2.40347E+05 4.22378E+04 3.52646E+02 1.01381E+05-1.37470E-09 1.21162E-10
 -1       882 2.42722E+05 3.98558E+04 2.24486E+02 9.86582E+04 3.77031E-09 1.71023E-09
 -1       883 2.40339E+05 4.22342E+04 2.39548E+02 1.01375E+05 2.77640E-09 4.30360E-09
 -1       884 2.42717E+05 3.98534E+04 3.79437E+02 9.86584E+04 8.33495E-10-7.08894E-09
 -1       885 2.40369E+05 4.22396E+04 7.61859E+02 1.01385E+05 2.02404E-09 2.17600E-08
 -1       886 2.42687E+05 3.98311E+04 1.53501E+03 9.86554E+04-8.15383E-10 9.11962E-09
 -1       887 2.40638E+05 4.24164E+04 3.35284E+03 1.01423E+05 3.30351E-09-9.58335E-09
 -1       888 2.42475E+05 3.98684E+04 6.75600E+03 9.85481E+04 2.85934E-09 2.39788E-09
 -1       889 2.44663E+05 4.65971E+04 1.61393E+04 1.01297E+05-7.49020E-10 4.80054E-09
 -1       890 2.39720E+05 4.31411E+04 3.02279E+04 9.59740E+04-6.10044E-10 4.64934E-09
 -1       891-1.12807E+02-1.35669E+05-1.62913E+03 2.43553E+04-2.78078E-10 5.21800E-09
 -1       892-2.04510E+02-1.36079E+05-1.76232E+03 3.69103E+04 7.14863E-10-7.97854E-10
 -1       893-4.63639E+00-1.35720E+05-2.50829E+03 2.43608E+04-2.84672E-10 6.93171E-09
 -1       894-1.31206E+03-1.37034E+05-5.20069E+03 3.67767E+04 8.72433E-10 1.80644E-08
 -1       895-1.03328E+03-1.34637E+05-9.16205E+03 2.44885E+04-1.06411E-10-3.83534E-09
 -1       956-3.06556E+05-4.52539E+03-1.12937E+04 2.36320E+04 2.13731E-09-6.75300E-11
 -1       957-3.08781E+05-1.55692E+03-5.79728E+03 2.84200E+04-1.80080E-09-9.61336E-10
 -1       958-3.07565E+05-1.55954E+02-2.61223E+03 2.34886E+04 3.66617E-09 9.58516E-09
 -1       959-3.07739E+05-6.04035E+01-1.33394E+03 2.85809E+04 1.04392E-08 1.20265E-08
 -1       960-3.07660E+05 5.93171E+00-6.50245E+02 2.34745E+04 6.68661E-09 6.68342E-09
 -1       961-3.07668E+05-1.11517E+00-3.44333E+02 2.85973E+04 4.78053E-09-1.14910E-08
 -1       962-3.07682E+05 3.66717E+00-1.96166E+02 2.34722E+04-1.52340E-10 1.49430E-09
 -1       963-3.07667E+05 1.94413E+00-1.55665E+02 2.86004E+04-2.57421E-09 1.49882E-08
 -1       964-3.07687E+05 6.70899E+00-1.86922E+02 2.34714E+04-1.26226E-09-4.20118E-09
 -1       965-3.07679E+05 5.53666E+00-3.21291E+02 2.86004E+04-2.80011E-10-1.46913E-08
 -1       966-3.07677E+05 1.49058E+01-6.02308E+02 2.34722E+04 2.82375E-09-2.57501E-09
 -1       967-3.07756E+05-4.30669E+01-1.23484E+03 2.85909E+04 7.50788E-10 2.38879E-09
 -1       968-3.07598E+05-1.29055E+02-2.41662E+03 2.34809E+04-2.38742E-10-1.22486E-09
 -1       969-3.08732E+05-1.42287E+03-5.36529E+03 2.84879E+04-8.31506E-10 7.89470E-10
 -1       970-3.06672E+05-4.16931E+03-1.04510E+04 2.35737E+04-4.06089E-10-1.35424E-09
 -1       971-2.86231E+05-1.46695E+03-8.04399E+03 1.33159E+04-1.06456E-09 5.84919E-09
 -1       972-2.88178E+05-1.06449E+03-4.38076E+03 1.85213E+04 1.40426E-09-3.62888E-10
 -1       973-2.87126E+05-2.89474E+01-1.96182E+03 1.32077E+04-5.48880E-10-1.38180E-08
 -1       974-2.87253E+05-3.64036E+01-1.01665E+03 1.86404E+04 9.62245E-10-1.96144E-09
 -1       975-2.87196E+05 8.97671E+00-5.07733E+02 1.31975E+04 2.52021E-09 1.89607E-09
 -1       976-2.87199E+05 5.93428E+00-2.92204E+02 1.86531E+04 1.17257E-09-4.20584E-09
 -1       977-2.87209E+05 8.99046E+00-2.10730E+02 1.31950E+04-3.06613E-09 4.50575E-09
 -1       978-2.87202E+05 1.08052E+01-2.44799E+02 1.86566E+04 2.31591E-09 4.85272E-09
 -1       979-2.87209E+05 1.57372E+01-3.91739E+02 1.31939E+04 6.62709E-09 3.35763E-09
 -1       980-2.87231E+05 1.32280E+01-7.55413E+02 1.86572E+04 1.05330E-08-3.12934E-09
 -1       981-2.87185E+05 3.45765E+01-1.46252E+03 1.31944E+04 6.08622E-09-2.38060E-09
 -1       982-2.87432E+05-9.47305E+01-3.02269E+03 1.86516E+04 9.28821E-11-2.09202E-09
 -1       983-2.87001E+05-5.89011E+01-5.87291E+03 1.31997E+04-3.99950E-10 1.35517E-08
 -1       984-2.90257E+05-3.16162E+03-1.31518E+04 1.85767E+04-1.30717E-09 6.60089E-09
 -1       985-2.84342E+05-4.35621E+03-2.41508E+04 1.32692E+04 1.36424E-11 3.47063E-09
 -3
    1PSTEP                        19          10           1          
  100CL  110 5.78125E-01         409                     0   10           1
 -4  DISP        4    1
 -5  D1          1    2    1    0
 -5  D2          1    2    2    0
 -5  D3          1    2    3    0
 -5  ALL         1    2    0    0    1ALL
 -1         1 6.24314E-04 0.00000E+00 0.00000E+00
 -1         2 5.78851E-04-6.37839E-31 0.00000E+00
 -1         3 2.31127E-04-3.62001E-27-1.32349E-23
 -1         5 1.26432E-04-3.48933E-26 8.27181E-25
 -1         8 6.02091E-04-7.22128E-07 0.00000E+00
 -1         9 5.81812E-04-2.01616E-06 0.00000E+00
 -1        10 2.10714E-04-2.75598E-06-1.32349E-23
 -1        12 1.27442E-04 7.10056E-07 4.13590E-25
 -1        15 5.75429E-04-7.99647E-07 0.00000E+00
 -1        16 5.81750E-04-2.50498E-06 0.00000E+00
 -1        17 1.46723E-04-6.01795E-06 0.00000E+00
 -1        18 1.29133E-04 2.21726E-05 0.00000E+00
 -1        19 1.30471E-04 1.41556E-06 0.00000E+00
 -1        20 1.30615E-04-1.03818E-06 0.00000E+00
 -1        21 1.29915E-04-5.91311E-06-3.30872E-24
 -1        24 2.50296E-05-8.68532E-06 0.00000E+00
 -1        25 1.35001E-04 2.23766E-05 0.00000E+00
 -1        26 1.36145E-04 1.97491E-06 0.00000E+00
 -1        27 1.34211E-04-4.04075E-06 0.00000E+00
 -1        28 1.33822E-04-6.45218E-06 0.00000E+00
 -1        32 0.00000E+00 0.00000E+00 0.00000E+00
 -1        33 1.40491E-04 2.64105E-06 0.00000E+00
 -1        34 1.38714E-04-4.08199E-06 0.00000E+00
 -1        35 1.37069E-04-6.74304E-06 0.00000E+00
 -1        51 6.22879E-04-1.24951E-07 0.00000E+00
 -1        52 6.20210E-04-2.40476E-07 0.00000E+00
 -1        53 6.16547E-04-3.55919E-07 0.00000E+00
 -1        54 6.12140E-04-4.73153E-07 0.00000E+00
 -1        55 6.07238E-04-5.93345E-07-1.65436E-24
 -1        56 6.21961E-04-6.84184E-07 0.00000E+00
 -1        57 6.19391E-04-1.04611E-06 0.00000E+00
 -1        58 6.16698E-04-1.06699E-06 5.29396E-23
 -1        59 6.13875E-04-7.87687E-07 2.64698E-23
 -1        60 6.10963E-04-2.70351E-07 0.00000E+00
 -1        61 6.07989E-04 4.03597E-07 2.64698E-23
 -1        62 6.04992E-04 1.13639E-06 5.29396E-23
 -1        63 6.02010E-04 1.82610E-06 0.00000E+00
 -1        64 5.99082E-04 2.37595E-06 0.00000E+00
 -1        65 5.96240E-04 2.69692E-06 2.64698E-23
 -1        66 5.93508E-04 2.72540E-06 5.29396E-23
 -1        67 5.90906E-04 2.41468E-06 2.64698E-23
 -1        68 5.88436E-04 1.75475E-06 0.00000E+00
 -1        69 5.86106E-04 7.60066E-07 0.00000E+00
 -1        70 5.83880E-04-5.27734E-07-5.29396E-23
 -1        86 5.78957E-04-3.32387E-07-1.32349E-23
 -1        87 5.79274E-04-6.65206E-07 6.61744E-24
 -1        88 5.79765E-04-9.98151E-07-1.32349E-23
 -1        89 5.80392E-04-1.33363E-06-6.61744E-24
 -1        90 5.81095E-04-1.66833E-06 1.32349E-23
 -1       121 2.30555E-04-4.51986E-07 0.00000E+00
 -1       122 2.28840E-04-9.05234E-07 6.61744E-24
 -1       123 2.25989E-04-1.36099E-06 0.00000E+00
 -1       124 2.22008E-04-1.82054E-06 6.61744E-24
 -1       125 2.16911E-04-2.28492E-06-1.32349E-23
 -1       191 1.26460E-04 1.18365E-07-3.30872E-24
 -1       192 1.26544E-04 2.36725E-07-1.65436E-24
 -1       193 1.26684E-04 3.55080E-07-1.65436E-24
 -1       194 1.26881E-04 4.73423E-07 8.27181E-25
 -1       195 1.27133E-04 5.91750E-07 3.30872E-24
 -1       251 6.01433E-04 1.33627E-05 0.00000E+00
 -1       252 6.00335E-04 4.64449E-05 0.00000E+00
 -1       253 5.98754E-04 9.26338E-05 1.32349E-23
 -1       254 5.96840E-04 1.45737E-04 0.00000E+00
 -1       255 5.94981E-04 1.97699E-04 0.00000E+00
 -1       256 5.93541E-04 2.40493E-04 0.00000E+00
 -1       257 5.92587E-04 2.68556E-04-1.32349E-23
 -1       258 5.91979E-04 2.76664E-04-6.61744E-24
 -1       259 5.91337E-04 2.64855E-04 0.00000E+00
 -1       260 5.90294E-04 2.33634E-04 0.00000E+00
 -1       261 5.88761E-04 1.88635E-04 0.00000E+00
 -1       262 5.86859E-04 1.35802E-04-6.61744E-24
 -1       263 5.84968E-04 8.31931E-05 0.00000E+00
 -1       264 5.83463E-04 3.88609E-05 6.61744E-24
 -1       265 5.82448E-04 8.62447E-06 0.00000E+00
 -1       266 5.97648E-04-7.45360E-07 3.30872E-24
 -1       267 5.93204E-04-7.57023E-07 0.00000E+00
 -1       268 5.88760E-04-7.69418E-07 8.27181E-25
 -1       269 5.84316E-04-7.79644E-07 2.06795E-25
 -1       270 5.79872E-04-7.89818E-07-4.13590E-25
 -1       271 5.99417E-04 3.00132E-06 2.64698E-23
 -1       272 5.96934E-04 6.10757E-06 1.32349E-23
 -1       273 5.94685E-04 8.60347E-06-2.64698E-23
 -1       274 5.92659E-04 1.04881E-05 1.32349E-23
 -1       275 5.90859E-04 1.17741E-05 0.00000E+00
 -1       276 5.89276E-04 1.24811E-05-1.32349E-23
 -1       277 5.87900E-04 1.26377E-05 0.00000E+00
 -1       278 5.86716E-04 1.22802E-05 0.00000E+00
 -1       279 5.85708E-04 1.14531E-05 0.00000E+00
 -1       280 5.84858E-04 1.02075E-05-1.32349E-23
 -1       281 5.84142E-04 8.60083E-06-2.64698E-23
 -1       282 5.83538E-04 6.69595E-06 0.00000E+00
 -1       283 5.83021E-04 4.56006E-06 0.00000E+00
 -1       284 5.82567E-04 2.26504E-06 0.00000E+00
 -1       285 5.82145E-04-1.17619E-07 0.00000E+00
 -1       301 5.81832E-04-2.11525E-06 1.32349E-23
 -1       302 5.81409E-04-2.18885E-06 3.30872E-24
 -1       303 5.80865E-04-2.26082E-06 6.61744E-24
 -1       304 5.80525E-04-2.33267E-06 0.00000E+00
 -1       305 5.80713E-04-2.40627E-06 0.00000E+00
 -1       306 5.98148E-04-5.98732E-05 5.29396E-23
 -1       307 6.42826E-04-2.26804E-04 0.00000E+00
 -1       308 7.01777E-04-4.75353E-04 0.00000E+00
 -1       309 7.65710E-04-7.69658E-04 0.00000E+00
 -1       310 8.29409E-04-1.06164E-03-5.29396E-23
 -1       311 8.87427E-04-1.30344E-03 5.29396E-23
 -1       312 9.29966E-04-1.46051E-03 0.00000E+00
 -1       313 9.42618E-04-1.50709E-03 5.29396E-23
 -1       314 9.12218E-04-1.44240E-03-1.05879E-22
 -1       315 8.29844E-04-1.27640E-03 2.64698E-23
 -1       316 7.02575E-04-1.03825E-03 1.05879E-22
 -1       317 5.46756E-04-7.60400E-04 0.00000E+00
 -1       318 3.90548E-04-4.82019E-04 5.29396E-23
 -1       319 2.62213E-04-2.42282E-04 0.00000E+00
 -1       320 1.78445E-04-7.38035E-05 0.00000E+00
 -1       336 2.03291E-04-3.27080E-06 0.00000E+00
 -1       337 1.94521E-04-3.79667E-06 6.61744E-24
 -1       338 1.84439E-04-4.33421E-06-1.32349E-23
 -1       339 1.73081E-04-4.88374E-06 0.00000E+00
 -1       340 1.60493E-04-5.44749E-06 1.32349E-23
 -1       406 1.27807E-04 8.28328E-07 0.00000E+00
 -1       407 1.28227E-04 9.46538E-07-4.13590E-25
 -1       408 1.28704E-04 1.06465E-06 0.00000E+00
 -1       409 1.29238E-04 1.18250E-06-1.24077E-24
 -1       410 1.29827E-04 1.29986E-06-3.30872E-24
 -1       521 5.99991E-04-6.94330E-05 0.00000E+00
 -1       522 6.48300E-04-2.59350E-04 0.00000E+00
 -1       523 7.10461E-04-5.41672E-04-1.05879E-22
 -1       524 7.76515E-04-8.75076E-04 0.00000E+00
 -1       525 8.42353E-04-1.20527E-03 0.00000E+00
 -1       526 9.03497E-04-1.47830E-03 0.00000E+00
 -1       527 9.49119E-04-1.65461E-03-1.05879E-22
 -1       528 9.62384E-04-1.70600E-03-5.29396E-23
 -1       529 9.26428E-04-1.63130E-03-1.05879E-22
 -1       530 8.30046E-04-1.44348E-03 0.00000E+00
 -1       531 6.80502E-04-1.17518E-03 0.00000E+00
 -1       532 4.97087E-04-8.63201E-04 0.00000E+00
 -1       533 3.13040E-04-5.50424E-04-1.05879E-22
 -1       534 1.61766E-04-2.79742E-04 5.29396E-23
 -1       535 6.31234E-05-8.81335E-05 1.05879E-22
 -1       536 1.46273E-04 1.84617E-05-6.61744E-24
 -1       537 1.45162E-04 6.31090E-05 3.30872E-24
 -1       538 1.43422E-04 1.20845E-04 3.30872E-24
 -1       539 1.41337E-04 1.84520E-04 1.65436E-24
 -1       540 1.39425E-04 2.45219E-04-3.30872E-24
 -1       541 1.38140E-04 2.94041E-04-1.65436E-24
 -1       542 1.37507E-04 3.25495E-04 0.00000E+00
 -1       543 1.37314E-04 3.34201E-04 0.00000E+00
 -1       544 1.37072E-04 3.20682E-04 0.00000E+00
 -1       545 1.36326E-04 2.85618E-04 1.65436E-24
 -1       546 1.34976E-04 2.35367E-04 0.00000E+00
 -1       547 1.33165E-04 1.76379E-04-1.65436E-24
 -1       548 1.31370E-04 1.17654E-04 0.00000E+00
 -1       549 1.30059E-04 6.81908E-05-1.65436E-24
 -1       550 1.29353E-04 3.42947E-05 0.00000E+00
 -1       551 1.29869E-04-6.39945E-06 0.00000E+00
 -1       552 1.10557E-04-6.81816E-06 0.00000E+00
 -1       553 8.95952E-05-7.26687E-06-3.30872E-24
 -1       554 6.78059E-05-7.73409E-06 6.61744E-24
 -1       555 4.60117E-05-8.20415E-06 0.00000E+00
 -1       556 1.41794E-04 6.69207E-06 0.00000E+00
 -1       557 1.37812E-04 1.70008E-05 0.00000E+00
 -1       558 1.34684E-04 2.50958E-05 0.00000E+00
 -1       559 1.32328E-04 3.11812E-05 0.00000E+00
 -1       560 1.30660E-04 3.54610E-05 0.00000E+00
 -1       561 1.29600E-04 3.81404E-05 0.00000E+00
 -1       562 1.29067E-04 3.94254E-05 0.00000E+00
 -1       563 1.28981E-04 3.95225E-05 0.00000E+00
 -1       564 1.29263E-04 3.86382E-05 0.00000E+00
 -1       565 1.29834E-04 3.69796E-05 0.00000E+00
 -1       566 1.30617E-04 3.47539E-05 0.00000E+00
 -1       567 1.31535E-04 3.21686E-05 1.65436E-24
 -1       568 1.32509E-04 2.94310E-05-8.27181E-25
 -1       569 1.33463E-04 2.67487E-05 0.00000E+00
 -1       570 1.34319E-04 2.43291E-05 0.00000E+00
 -1       571 1.29215E-04 2.08753E-05-4.13590E-25
 -1       572 1.29298E-04 1.95136E-05 4.13590E-25
 -1       573 1.29381E-04 1.81005E-05 8.27181E-25
 -1       574 1.29465E-04 1.66501E-05 8.27181E-25
 -1       575 1.29548E-04 1.51762E-05 0.00000E+00
 -1       576 1.29632E-04 1.36928E-05 4.96308E-24
 -1       577 1.29716E-04 1.22139E-05 0.00000E+00
 -1       578 1.29799E-04 1.07536E-05 0.00000E+00
 -1       579 1.29883E-04 9.32578E-06 0.00000E+00
 -1       580 1.29967E-04 7.94452E-06 0.00000E+00
 -1       581 1.30051E-04 6.62384E-06 0.00000E+00
 -1       582 1.30135E-04 5.37771E-06 0.00000E+00
 -1       583 1.30219E-04 4.22013E-06 6.61744E-24
 -1       584 1.30303E-04 3.16495E-06 0.00000E+00
 -1       585 1.30387E-04 2.22589E-06 0.00000E+00
 -1       586 1.30112E-04 2.22081E-05 0.00000E+00
 -1       587 1.31043E-04 2.22432E-05-8.27181E-25
 -1       588 1.31962E-04 2.22780E-05 5.16988E-25
 -1       589 1.32905E-04 2.23124E-05 0.00000E+00
 -1       590 1.33906E-04 2.23459E-05 0.00000E+00
 -1       591 1.29562E-04 2.09457E-05 1.03398E-25
 -1       592 1.30001E-04 1.96833E-05 0.00000E+00
 -1       593 1.30449E-04 1.83929E-05 0.00000E+00
 -1       594 1.30905E-04 1.70808E-05-4.13590E-25
 -1       595 1.31367E-04 1.57534E-05-8.27181E-25
 -1       596 1.31832E-04 1.44172E-05 4.13590E-25
 -1       597 1.32298E-04 1.30786E-05 0.00000E+00
 -1       598 1.32762E-04 1.17439E-05 4.13590E-25
 -1       599 1.33223E-04 1.04195E-05 0.00000E+00
 -1       600 1.33677E-04 9.11173E-06 0.00000E+00
 -1       601 1.34123E-04 7.82710E-06 0.00000E+00
 -1       602 1.34557E-04 6.57192E-06 2.06795E-25
 -1       603 1.34979E-04 5.35260E-06 4.13590E-25
 -1       604 1.35385E-04 4.17560E-06 9.04729E-26
 -1       605 1.35773E-04 3.04724E-06 0.00000E+00
 -1       606 1.30484E-04 8.09502E-07 0.00000E+00
 -1       607 1.30494E-04 2.90408E-07 0.00000E+00
 -1       608 1.30504E-04-1.46820E-07 0.00000E+00
 -1       609 1.30512E-04-5.07938E-07 0.00000E+00
 -1       610 1.30521E-04-7.98749E-07 3.30872E-24
 -1       611 1.30530E-04-1.02512E-06 0.00000E+00
 -1       612 1.30538E-04-1.19292E-06 0.00000E+00
 -1       613 1.30547E-04-1.30804E-06 0.00000E+00
 -1       614 1.30556E-04-1.37635E-06 0.00000E+00
 -1       615 1.30564E-04-1.40374E-06 0.00000E+00
 -1       616 1.30573E-04-1.39610E-06 0.00000E+00
 -1       617 1.30582E-04-1.35929E-06 0.00000E+00
 -1       618 1.30590E-04-1.29922E-06 8.27181E-25
 -1       619 1.30599E-04-1.22176E-06 0.00000E+00
 -1       620 1.30607E-04-1.13278E-06 0.00000E+00
 -1       621 1.31231E-04 1.50894E-06-3.30872E-24
 -1       622 1.32095E-04 1.60280E-06 0.00000E+00
 -1       623 1.33042E-04 1.69659E-06-1.65436E-24
 -1       624 1.34048E-04 1.79016E-06 8.27181E-25
 -1       625 1.35090E-04 1.88352E-06 1.65436E-24
 -1       626 1.30793E-04 8.38360E-07 3.30872E-24
 -1       627 1.31090E-04 3.28154E-07 1.65436E-24
 -1       628 1.31365E-04-1.22308E-07 0.00000E+00
 -1       629 1.31621E-04-5.20679E-07 3.30872E-24
 -1       630 1.31860E-04-8.74634E-07 0.00000E+00
 -1       631 1.32085E-04-1.19188E-06-1.65436E-24
 -1       632 1.32299E-04-1.48011E-06 3.30872E-24
 -1       633 1.32506E-04-1.74705E-06 1.65436E-24
 -1       634 1.32707E-04-2.00039E-06 3.30872E-24
 -1       635 1.32906E-04-2.24784E-06 0.00000E+00
 -1       636 1.33105E-04-2.49711E-06-3.30872E-24
 -1       637 1.33309E-04-2.75590E-06 0.00000E+00
 -1       638 1.33518E-04-3.03193E-06-1.65436E-24
 -1       639 1.33737E-04-3.33292E-06 0.00000E+00
 -1       640 1.33968E-04-3.66658E-06 1.65436E-24
 -1       656 1.30735E-04-1.52636E-06 0.00000E+00
 -1       657 1.31237E-04-2.03430E-06 0.00000E+00
 -1       658 1.31985E-04-2.54091E-06 0.00000E+00
 -1       659 1.32841E-04-3.04719E-06-6.61744E-24
 -1       660 1.33638E-04-3.55501E-06 0.00000E+00
 -1       661 1.30663E-04-9.77478E-07-8.27181E-25
 -1       662 1.30741E-04-9.87499E-07 8.27181E-25
 -1       663 1.30844E-04-1.06498E-06-1.65436E-24
 -1       664 1.30971E-04-1.20542E-06 0.00000E+00
 -1       665 1.31120E-04-1.40494E-06 1.65436E-24
 -1       666 1.31290E-04-1.65953E-06 8.27181E-25
 -1       667 1.31479E-04-1.96544E-06-1.65436E-24
 -1       668 1.31686E-04-2.31894E-06 8.27181E-25
 -1       669 1.31909E-04-2.71645E-06 1.65436E-24
 -1       670 1.32148E-04-3.15450E-06 8.27181E-25
 -1       671 1.32400E-04-3.62969E-06 0.00000E+00
 -1       672 1.32665E-04-4.13875E-06 8.27181E-25
 -1       673 1.32942E-04-4.67843E-06-1.65436E-24
 -1       674 1.33228E-04-5.24584E-06 0.00000E+00
 -1       675 1.33523E-04-5.83750E-06 0.00000E+00
 -1       676 1.30568E-04-6.00348E-06 3.30872E-24
 -1       677 1.31221E-04-6.09382E-06 0.00000E+00
 -1       678 1.31873E-04-6.18410E-06 0.00000E+00
 -1       679 1.32524E-04-6.27412E-06 1.65436E-24
 -1       680 1.33174E-04-6.36413E-06 0.00000E+00
 -1       771 1.71616E-05 8.35361E-06-5.29396E-23
 -1       772 1.04802E-05 2.23320E-05-2.64698E-23
 -1       773 4.92896E-06 3.34059E-05 0.00000E+00
 -1       774 4.31901E-07 4.17480E-05 0.00000E+00
 -1       775-3.08598E-06 4.75360E-05 0.00000E+00
 -1       776-5.70266E-06 5.09570E-05 2.64698E-23
 -1       777-7.49654E-06 5.22032E-05 5.29396E-23
 -1       778-8.54771E-06 5.14745E-05 0.00000E+00
 -1       779-8.93638E-06 4.89748E-05 0.00000E+00
 -1       780-8.74419E-06 4.49145E-05 0.00000E+00
 -1       781-8.05264E-06 3.95071E-05-5.29396E-23
 -1       782-6.94437E-06 3.29713E-05 0.00000E+00
 -1       783-5.50179E-06 2.55278E-05 0.00000E+00
 -1       784-3.80816E-06 1.74007E-05 2.64698E-23
 -1       785-1.94645E-06 8.81575E-06-2.64698E-23
 -1       786 1.35068E-04 2.10450E-05 0.00000E+00
 -1       787 1.35140E-04 1.97112E-05 0.00000E+00
 -1       788 1.35210E-04 1.83764E-05 0.00000E+00
 -1       789 1.35282E-04 1.70419E-05 8.27181E-25
 -1       790 1.35354E-04 1.57089E-05 1.65436E-24
 -1       791 1.35426E-04 1.43788E-05 0.00000E+00
 -1       792 1.35498E-04 1.30532E-05 0.00000E+00
 -1       793 1.35570E-04 1.17341E-05 0.00000E+00
 -1       794 1.35642E-04 1.04241E-05-1.65436E-24
 -1       795 1.35714E-04 9.12624E-06-8.27181E-25
 -1       796 1.35786E-04 7.84546E-06 1.65436E-24
 -1       797 1.35858E-04 6.58670E-06 0.00000E+00
 -1       798 1.35930E-04 5.35873E-06 1.65436E-24
 -1       799 1.36002E-04 4.17039E-06-8.27181E-25
 -1       800 1.36074E-04 3.03720E-06 0.00000E+00
 -1       801 9.64051E-05 2.03624E-05 0.00000E+00
 -1       802-2.02559E-05 1.25508E-05 1.32349E-23
 -1       803-1.15899E-04 6.51546E-06-2.64698E-23
 -1       804-9.29544E-05 4.60652E-06 1.32349E-23
 -1       805-2.78097E-05 1.50677E-06 0.00000E+00
 -1       806 1.35407E-04 2.09875E-05 1.65436E-24
 -1       807 1.35812E-04 1.95897E-05-1.65436E-24
 -1       808 1.36217E-04 1.81904E-05-3.30872E-24
 -1       809 1.36620E-04 1.67956E-05-1.65436E-24
 -1       810 1.37019E-04 1.54117E-05 3.30872E-24
 -1       811 1.37411E-04 1.40446E-05-1.65436E-24
 -1       812 1.37795E-04 1.27004E-05 0.00000E+00
 -1       813 1.38168E-04 1.13854E-05 1.65436E-24
 -1       814 1.38528E-04 1.01055E-05-3.30872E-24
 -1       815 1.38872E-04 8.86688E-06-8.27181E-25
 -1       816 1.39199E-04 7.67558E-06 3.30872E-24
 -1       817 1.39506E-04 6.53767E-06 0.00000E+00
 -1       818 1.39790E-04 5.45923E-06 0.00000E+00
 -1       819 1.40051E-04 4.44632E-06 0.00000E+00
 -1       820 1.40284E-04 3.50496E-06 3.30872E-24
 -1       821 1.36030E-04 8.05852E-07 0.00000E+00
 -1       822 1.35909E-04-6.45715E-07-1.65436E-24
 -1       823 1.35787E-04-2.23044E-06-3.30872E-24
 -1       824 1.35664E-04-3.79821E-06 0.00000E+00
 -1       825 1.35542E-04-5.20327E-06 0.00000E+00
 -1       826 1.35419E-04-6.30069E-06-1.65436E-24
 -1       827 1.35297E-04-7.02156E-06 3.30872E-24
 -1       828 1.35175E-04-7.29905E-06-1.65436E-24
 -1       829 1.35053E-04-7.17579E-06 0.00000E+00
 -1       830 1.34932E-04-6.69665E-06 0.00000E+00
 -1       831 1.34809E-04-5.99435E-06-3.30872E-24
 -1       832 1.34688E-04-5.20287E-06-1.65436E-24
 -1       833 1.34566E-04-4.47822E-06 0.00000E+00
 -1       834 1.34445E-04-3.97605E-06 1.65436E-24
 -1       835 1.34325E-04-3.79721E-06-8.27181E-25
 -1       836 1.37058E-04 2.08545E-06-3.30872E-24
 -1       837 1.37830E-04 2.19870E-06-1.65436E-24
 -1       838 1.38510E-04 2.31186E-06-3.30872E-24
 -1       839 1.39148E-04 2.42436E-06-8.27181E-25
 -1       840 1.39792E-04 2.53670E-06 4.13590E-25
 -1       856 1.34190E-04-4.43188E-06-4.13590E-25
 -1       857 1.34166E-04-4.70299E-06-1.03398E-25
 -1       858 1.34142E-04-4.87278E-06 0.00000E+00
 -1       859 1.34118E-04-4.96000E-06 0.00000E+00
 -1       860 1.34094E-04-4.98352E-06-8.27181E-25
 -1       861 1.34069E-04-4.96224E-06 0.00000E+00
 -1       862 1.34045E-04-4.91511E-06 8.27181E-25
 -1       863 1.34020E-04-4.86110E-06 4.13590E-25
 -1       864 1.33995E-04-4.81919E-06-8.27181E-25
 -1       865 1.33971E-04-4.80835E-06 0.00000E+00
 -1       866 1.33946E-04-4.84751E-06 8.27181E-25
 -1       867 1.33922E-04-4.95559E-06-4.13590E-25
 -1       868 1.33897E-04-5.15138E-06-8.27181E-25
 -1       869 1.33872E-04-5.45368E-06-4.13590E-25
 -1       870 1.33847E-04-5.88109E-06 0.00000E+00
 -1       871 1.34843E-04-4.04400E-06 4.13590E-25
 -1       872 1.35596E-04-4.04998E-06 0.00000E+00
 -1       873 1.36415E-04-4.05651E-06-4.13590E-25
 -1       874 1.37245E-04-4.06366E-06-2.06795E-25
 -1       875 1.38030E-04-4.07132E-06-2.06795E-25
 -1       876 1.34466E-04-4.42011E-06 0.00000E+00
 -1       877 1.34702E-04-4.74020E-06 0.00000E+00
 -1       878 1.34918E-04-5.00813E-06 0.00000E+00
 -1       879 1.35118E-04-5.23048E-06-1.65436E-24
 -1       880 1.35303E-04-5.41388E-06 3.30872E-24
 -1       881 1.35475E-04-5.56493E-06 1.65436E-24
 -1       882 1.35639E-04-5.69019E-06 0.00000E+00
 -1       883 1.35795E-04-5.79624E-06-1.65436E-24
 -1       884 1.35946E-04-5.88963E-06 3.30872E-24
 -1       885 1.36095E-04-5.97693E-06 0.00000E+00
 -1       886 1.36244E-04-6.06470E-06 0.00000E+00
 -1       887 1.36395E-04-6.15952E-06 0.00000E+00
 -1       888 1.36552E-04-6.26797E-06-3.30872E-24
 -1       889 1.36715E-04-6.39673E-06-8.27181E-25
 -1       890 1.36889E-04-6.55236E-06 0.00000E+00
 -1       891 1.34490E-04-6.50097E-06 1.65436E-24
 -1       892 1.35137E-04-6.54990E-06 8.27181E-25
 -1       893 1.35742E-04-6.59878E-06-8.27181E-25
 -1       894 1.36280E-04-6.64748E-06 0.00000E+00
 -1       895 1.36730E-04-6.69601E-06 0.00000E+00
 -1       956 1.40382E-04 1.93730E-06 3.30872E-24
 -1       957 1.40271E-04 1.31507E-06 8.27181E-25
 -1       958 1.40160E-04 7.65454E-07 0.00000E+00
 -1       959 1.40048E-04 2.79042E-07 0.00000E+00
 -1       960 1.39937E-04-1.53618E-07 0.00000E+00
 -1       961 1.39825E-04-5.42015E-07-1.65436E-24
 -1       962 1.39714E-04-8.95643E-07 3.30872E-24
 -1       963 1.39603E-04-1.22402E-06 1.65436E-24
 -1       964 1.39491E-04-1.53664E-06 3.30872E-24
 -1       965 1.39380E-04-1.84301E-06 0.00000E+00
 -1       966 1.39268E-04-2.15266E-06 0.00000E+00
 -1       967 1.39157E-04-2.47509E-06 0.00000E+00
 -1       968 1.39046E-04-2.81980E-06-3.30872E-24
 -1       969 1.38934E-04-3.19627E-06 0.00000E+00
 -1       970 1.38824E-04-3.61396E-06-3.30872E-24
 -1       971 1.38612E-04-4.54305E-06 0.00000E+00
 -1       972 1.38509E-04-4.91986E-06 1.65436E-24
 -1       973 1.38406E-04-5.22172E-06 0.00000E+00
 -1       974 1.38303E-04-5.45832E-06 1.65436E-24
 -1       975 1.38199E-04-5.63935E-06 0.00000E+00
 -1       976 1.38096E-04-5.77451E-06 0.00000E+00
 -1       977 1.37992E-04-5.87352E-06 0.00000E+00
 -1       978 1.37889E-04-5.94610E-06 0.00000E+00
 -1       979 1.37786E-04-6.00200E-06 0.00000E+00
 -1       980 1.37682E-04-6.05093E-06 0.00000E+00
 -1       981 1.37579E-04-6.10264E-06 3.30872E-24
 -1       982 1.37475E-04-6.16685E-06 1.65436E-24
 -1       983 1.37372E-04-6.25331E-06-3.30872E-24
 -1       984 1.37270E-04-6.37172E-06 0.00000E+00
 -1       985 1.37167E-04-6.53180E-06-1.65436E-24
 -3
    1PSTEP                        20          10           1          
  100CL  110 5.78125E-01         409                     0   10           1
 -4  STRESS      6    1
 -5  SXX         1    4    1    1
 -5  SYY         1    4    2    2
 -5  SZZ         1    4    3    3
 -5  SXY         1    4    1    2
 -5  SYZ         1    4    2    3
 -5  SZX         1    4    3    1
 -1         1-3.07337E+06-1.22650E+06-6.65410E+05-1.39264E+06 1.09139E-10 4.42960E-08
 -1         2 1.93968E+03-9.48012E+05 6.26601E+03 8.57293E+02 2.29818E-10-7.74085E-08
 -1         3-5.95277E+02-1.28775E+06 3.18861E+02-1.16383E+03-2.64432E-10-1.90230E-08
 -1         5-2.31691E+01 3.38767E+05 9.28469E+00-5.64805E-01-2.75246E-10 1.86810E-09
 -1         8-9.86407E+05-3.41234E+05-1.03051E+05-4.28687E+05 3.89264E-10-1.45774E-08
 -1         9-3.35554E+04-7.92789E+05 8.52354E+04-8.35890E+05 1.62399E-08 2.06986E-08
 -1        10-1.40803E+03-1.34165E+06-2.26342E+03-7.87692E+03-8.70205E-09-3.95187E-09
 -1        12-1.93983E+01 3.38786E+05 3.02037E+02-4.05545E+00-3.95257E-10 7.34144E-09
 -1        15 1.70867E+03 9.39018E+02 5.52323E+03 3.28347E+00-4.86656E-09-1.05116E-06
 -1        16 2.17232E+06-8.57430E+05 2.96167E+05-1.17094E+06 1.23303E-08 5.32018E-08
 -1        17 3.95437E+05 3.29746E+05 1.82034E+05 4.32184E+05 1.38534E-09 1.32655E-08
 -1        18 5.54152E+04 1.21508E+04-1.20858E+04-9.72162E+04 1.14421E-08-1.28875E-09
 -1        19 1.03273E+05 1.24939E+05-4.76937E+02 1.79299E+04 7.41238E-10-2.29811E-09
 -1        20-5.91210E+04-4.81688E+05-1.07407E+05 2.61812E+04-6.59384E-11-1.46974E-09
 -1        21-4.11378E+01-2.58133E+05-8.17330E+02 1.15639E+02 8.65923E-08-2.33422E-11
 -1        24 1.47026E+05 1.23498E+06 4.20909E+05 9.01381E+05-8.06128E-08-3.47306E-08
 -1        25 1.79329E+05 4.94437E+05 1.49932E+05-3.76537E+05 2.45871E-08 1.35260E-09
 -1        26-3.14718E+04 8.55431E+04-1.73391E+04-6.27123E+03 2.07365E-10 6.34486E-09
 -1        27-7.21183E+04-2.62818E+05-9.71546E+04 5.78528E+04 4.37512E-09 2.91584E-09
 -1        28 1.96299E+04-7.31351E+04 1.46689E+04 2.00100E+04-1.47531E-09-1.19728E-08
 -1        32-1.14844E+06-1.23201E+06 1.81638E+05-1.01898E+05-1.75887E-08 8.14200E-09
 -1        33-1.45984E+05 8.06202E+04 2.77228E+04-4.24288E+04-1.61159E-09 1.55778E-08
 -1        34-1.89495E+05-2.08212E+04 5.25353E+02 6.23242E+04-2.39407E-09 4.51413E-10
 -1        35-2.01474E+04-2.89921E+04-1.14878E+03 4.49174E+04-8.49572E-11 3.08016E-09
 -1        51 3.18646E+04-2.94851E+05 7.25421E+04-8.39081E+05-8.73115E-11 4.99422E-08
 -1        52 1.37363E+04-2.86105E+05 4.18976E+04-9.78446E+05 7.34872E-10-3.15704E-08
 -1        53 6.32043E+03-3.00818E+05 2.78844E+04-8.36080E+05 1.16415E-10-2.00671E-08
 -1        54 1.66513E+04-2.98468E+05 3.51702E+04-9.81564E+05-4.29281E-10-3.19487E-08
 -1        55 3.35754E+04-3.10598E+05 5.70690E+04-8.35610E+05 9.45874E-10-5.79530E-09
 -1        56-5.84540E+06-6.54545E+05-4.90920E+05-2.26799E+06 3.49974E-09-1.45228E-08
 -1        57-6.08986E+06-1.05339E+06-3.31245E+05-2.19529E+06-4.95857E-09 5.44824E-08
 -1        58-5.93748E+06-8.17219E+05-1.15394E+05-2.24458E+06-1.72440E-09 5.95610E-08
 -1        59-5.98498E+06-8.60685E+05-6.88865E+04-2.22102E+06-5.20004E-09-2.10566E-08
 -1        60-5.94877E+06-8.42032E+05-2.68904E+04-2.24388E+06-1.15483E-08-5.95719E-10
 -1        61-5.97201E+06-8.31471E+05-1.52613E+04-2.22163E+06-8.26094E-09 3.89366E-08
 -1        62-5.95014E+06-8.45725E+05-7.25907E+03-2.24415E+06-7.48474E-09-3.83041E-08
 -1        63-5.96898E+06-8.29156E+05-5.89177E+03-2.22310E+06-1.53864E-09 1.06312E-08
 -1        64-5.95173E+06-8.44276E+05-6.55885E+03-2.24241E+06-2.47360E-09 2.94040E-08
 -1        65-5.96593E+06-8.36418E+05-1.31457E+04-2.22802E+06-1.25392E-08 1.93984E-09
 -1        66-5.95321E+06-8.38551E+05-2.29421E+04-2.23920E+06 4.29191E-09 3.24717E-08
 -1        67-5.97274E+06-8.65406E+05-5.85420E+04-2.23231E+06-9.73205E-09 4.15530E-08
 -1        68-5.94518E+06-8.15887E+05-9.80449E+04-2.23797E+06-4.24916E-09 1.09249E-08
 -1        69-6.06026E+06-1.03073E+06-2.81361E+05-2.21242E+06-5.41149E-09-5.35219E-08
 -1        70-5.86707E+06-6.77645E+05-4.17109E+05-2.25776E+06 2.56841E-09-1.44355E-08
 -1        86-9.68397E+02-9.49758E+05 6.77280E+03-4.28653E+02-3.20370E-10 1.44304E-08
 -1        87 6.44336E+03-9.45848E+05 1.40531E+04 1.56128E+03-6.76664E-10 2.82564E-08
 -1        88-5.45671E+03-9.51916E+05 2.16121E+04-1.13266E+03-6.62112E-10 1.73910E-08
 -1        89 4.06884E+04-9.29980E+05 5.81769E+04 2.55978E+03-9.91349E-10-1.04017E-07
 -1        90-3.50956E+04-9.65586E+05 8.23264E+04-1.42723E+03-9.31323E-10-1.02116E-08
 -1       121-8.34118E+02-1.28982E+06-3.87811E+01 5.79411E+02 1.01093E-09-8.62201E-09
 -1       122-4.75641E+02-1.28773E+06 6.53005E+02-2.32630E+03-3.38380E-09 3.54339E-09
 -1       123-8.83860E+02-1.28990E+06 6.96432E+02 1.73196E+03 2.62310E-09-2.61571E-09
 -1       124 7.83756E+02-1.28713E+06 2.63297E+03-4.93287E+03-6.56019E-09 1.21217E-08
 -1       125-1.62054E+03-1.29061E+06 3.65805E+03 3.17488E+03 4.56384E-09-1.30967E-10
 -1       191-2.46239E+01 3.38792E+05 1.02651E+01 2.87483E-01-3.15159E-10 1.49521E-09
 -1       192-2.40327E+01 3.38767E+05 1.96985E+01-2.03696E+00-3.99360E-10-2.97255E-08
 -1       193-2.69145E+01 3.38792E+05 3.58234E+01 1.78156E+00-5.83544E-10-1.60344E-08
 -1       194-2.68093E+01 3.38770E+05 7.46051E+01-4.70807E+00-3.44982E-10 1.25465E-09
 -1       195-3.13145E+01 3.38789E+05 1.45116E+02 2.99929E+00-9.18540E-10-8.13543E-09
 -1       251-1.74752E+06 3.02156E+03-1.08316E+05-8.36303E+04-1.66619E-09-3.77258E-09
 -1       252-1.42755E+06-1.61456E+03-8.03338E+03 2.54476E+05 6.01904E-09-4.26171E-08
 -1       253-1.59767E+06-2.65846E+03-2.08273E+04-1.70106E+05-3.36513E-11-1.24110E-08
 -1       254-1.57297E+06 1.98459E+04-2.30282E+03 3.33014E+05 2.57620E-09-9.90894E-09
 -1       255-1.61711E+06-6.13937E+03-1.11547E+04-1.63019E+05 4.12911E-10 2.54722E-08
 -1       256-1.37649E+06 1.76693E+04 4.16111E+04 2.28452E+05 6.92489E-09 4.83076E-08
 -1       257-1.77507E+06-1.59682E+04-4.18730E+04-6.45676E+04-1.70730E-08-3.44446E-08
 -1       258-1.21328E+06 1.40630E+04 7.36855E+04-1.16827E+04 5.83532E-09 1.04551E-08
 -1       259-1.76438E+06-1.54898E+04-3.83804E+04 7.64198E+04-4.22187E-09-1.69079E-08
 -1       260-1.40052E+06 1.94097E+04 4.04470E+04-2.44355E+05-2.23963E-09-1.43403E-08
 -1       261-1.60619E+06-6.41308E+03-2.60266E+03 1.67619E+05 1.59384E-08 3.36295E-08
 -1       262-1.57057E+06 2.71117E+04 1.25975E+04-3.33211E+05-1.09420E-08-2.05299E-09
 -1       263-1.61109E+06-9.53781E+03 1.13820E+03 1.66192E+05 3.33057E-09-3.22780E-09
 -1       264-1.38144E+06 4.42431E+04 6.25748E+04-2.39426E+05 6.76159E-08 2.96859E-09
 -1       265-1.77775E+06-3.77398E+04-1.70913E+04 7.28928E+04 2.65227E-08 1.35678E-08
 -1       266-3.09318E+04-1.44625E+04 7.25810E+04-7.02612E+01-5.90808E-09-1.42512E-06
 -1       267 3.58592E+04 1.68583E+04 5.12961E+04 8.10610E+01-1.16706E-08-2.74826E-06
 -1       268-4.80861E+03-2.38748E+03 1.90667E+04-1.03289E+01-9.78434E-09-2.30955E-06
 -1       269 5.67761E+03 2.85745E+03 1.23929E+04 1.20313E+01-7.86781E-09-1.88952E-06
 -1       270-8.52203E+02-4.69484E+02 5.98223E+03-1.63275E+00-6.05951E-09-1.36649E-06
 -1       271-2.84039E+06-3.51830E+05-2.13490E+05-1.10125E+06 6.37738E-09 3.68018E-08
 -1       272-2.93576E+06-4.89723E+05-1.37394E+05-1.07888E+06-9.76320E-09 3.39242E-09
 -1       273-2.88053E+06-4.05256E+05-5.04172E+04-1.09175E+06-8.86143E-09 3.53757E-08
 -1       274-2.88807E+06-4.24792E+05-2.82457E+04-1.09356E+06 5.82259E-09 1.96287E-08
 -1       275-2.88695E+06-4.09966E+05-1.17538E+04-1.08908E+06-5.54974E-09-9.65883E-09
 -1       276-2.87942E+06-4.20175E+05-6.20249E+03-1.09837E+06-8.45966E-09-2.11865E-08
 -1       277-2.88912E+06-4.09131E+05-3.06233E+03-1.08725E+06 3.18960E-09-3.17641E-09
 -1       278-2.87602E+06-4.22190E+05-2.11089E+03-1.10182E+06 5.07043E-09 6.02649E-08
 -1       279-2.89048E+06-4.07808E+05-2.22994E+03-1.08574E+06-5.12227E-09 4.32487E-09
 -1       280-2.87416E+06-4.24935E+05-3.93531E+03-1.10454E+06-9.63087E-09-3.01702E-09
 -1       281-2.89114E+06-4.06324E+05-7.15253E+03-1.08463E+06-4.77485E-10-2.38156E-08
 -1       282-2.87591E+06-4.31303E+05-1.70958E+04-1.10589E+06-1.35935E-08 3.73855E-08
 -1       283-2.88895E+06-4.01774E+05-3.03916E+04-1.08434E+06 1.32059E-09-4.07072E-08
 -1       284-2.90170E+06-4.73527E+05-8.29110E+04-1.10058E+06-6.09180E-09-7.78709E-09
 -1       285-2.86612E+06-3.68169E+05-1.28782E+05-1.08852E+06 4.50382E-09-1.35333E-09
 -1       301 2.28044E+04-2.06341E+05 1.72747E+05-3.90853E+05 3.27418E-10 7.89805E-09
 -1       302 2.42932E+04-1.63004E+05 1.10098E+05-5.72127E+05-3.27418E-11-1.55414E-08
 -1       303 7.52195E+02-1.89360E+05 7.83292E+04-3.90052E+05-2.54659E-11 6.13454E-08
 -1       304 2.24736E+04-1.62214E+05 1.06851E+05-5.71643E+05 1.38243E-10 1.25183E-08
 -1       305 2.01630E+04-2.03297E+05 1.65303E+05-3.91398E+05-2.14641E-10 2.02053E-08
 -1       306-1.08680E+07-1.51736E+06-1.95329E+06-2.02513E+06-3.64380E-08-4.69736E-08
 -1       307 1.50554E+06-1.79513E+06 8.48472E+05-5.15678E+06-3.41926E-07-1.16343E-08
 -1       308-7.73048E+06 2.70281E+05-2.36662E+05 3.05925E+05-9.46166E-08 1.69501E-07
 -1       309-3.58047E+06-1.90584E+06 2.39582E+05-8.22103E+06 8.16872E-08 6.60802E-08
 -1       310-7.87240E+06 2.31333E+05-1.88710E+05 2.42286E+05-2.45927E-09-8.70914E-08
 -1       311 1.83682E+06-1.85721E+06 1.13387E+06-4.83232E+06 3.72413E-07-4.10037E-08
 -1       312-1.08960E+07-1.54035E+06-1.42950E+06-2.19861E+06 9.63337E-08-2.47019E-08
 -1       313 4.27101E+06 9.12236E+05 1.95432E+06 1.59431E+06 1.61526E-08 3.32875E-08
 -1       314-8.79587E+06-3.58016E+06-1.41424E+06-4.44649E+06 2.56987E-07 1.90048E-08
 -1       315-4.81835E+06 4.65063E+06 1.10871E+06 2.28065E+06-8.05521E-08-1.88302E-08
 -1       316-3.92821E+06-3.63887E+06-1.74342E+05-4.04076E+06-3.46190E-07-2.61112E-07
 -1       317-1.10145E+07 5.51555E+06 2.26719E+05-3.54460E+02 2.93719E-07-2.43391E-07
 -1       318-3.88572E+06-3.63582E+06-2.75343E+05-4.02662E+06-3.54645E-07 3.44007E-08
 -1       319-4.94374E+06 4.73935E+06 8.11976E+05 2.22157E+06-6.72881E-08 1.94996E-09
 -1       320-8.74860E+06-3.64743E+06-2.05821E+06-4.43941E+06 8.83592E-08-2.38797E-08
 -1       336 2.58735E+02-1.39628E+06-8.94741E+03 4.65835E+03-1.72276E-08 2.92493E-09
 -1       337-3.40767E+03-1.39705E+06-1.05513E+04-1.13701E+04-3.14440E-08-1.50467E-08
 -1       338 3.49458E+02-1.39628E+06-1.50696E+04 6.64102E+03-2.22522E-08 4.51473E-09
 -1       339-1.57802E+04-1.40533E+06-3.34075E+04-1.52436E+04-4.03902E-08 2.93039E-08
 -1       340 1.03587E+04-1.38878E+06-5.22349E+04 8.48553E+03-2.74067E-08 1.16815E-08
 -1       406 2.86258E+00 3.38776E+05 5.95435E+02 1.16459E+00-1.00523E-09-3.18141E-09
 -1       407 1.88608E+02 3.38891E+05 1.26732E+03 1.40571E+01-2.63739E-10-2.30375E-09
 -1       408 6.32412E+02 3.38684E+05 2.52997E+03-1.56084E+01-1.24066E-09 1.39516E-09
 -1       409 2.71880E+03 3.39699E+05 5.69733E+03 1.59639E+02-1.88066E-10-1.21963E-08
 -1       410 7.84626E+03 3.37962E+05 1.16301E+04-1.52732E+02-1.78716E-09-5.76620E-09
 -1       521-1.31266E+07-2.04061E+06-2.60229E+06-2.23209E+06-4.64497E-08 8.32952E-08
 -1       522 2.10615E+06-2.07009E+06 1.00521E+06-6.77856E+06-2.17755E-07-1.68147E-07
 -1       523-9.27873E+06 2.62468E+05-2.97651E+05 5.82100E+05 8.75734E-08-1.86443E-07
 -1       524-4.82926E+06-1.72877E+06 3.19385E+05-1.06182E+07 3.92009E-07-3.19933E-07
 -1       525-9.49189E+06 1.93474E+05-2.47508E+05 4.92032E+05 2.93803E-07-1.39744E-07
 -1       526 2.68967E+06-2.16649E+06 1.40632E+06-6.27585E+06 8.33825E-08 3.47245E-08
 -1       527-1.31849E+07-2.11348E+06-1.91075E+06-2.48479E+06 8.50414E-08 1.45083E-08
 -1       528 6.01675E+06 1.16924E+06 2.38953E+06 2.33178E+06 3.09665E-08-6.64877E-08
 -1       529-1.05086E+07-4.69964E+06-1.88464E+06-5.30646E+06 2.13098E-07-6.37665E-08
 -1       530-6.04938E+06 6.35278E+06 1.37572E+06 2.90774E+06-1.41328E-07 1.78828E-07
 -1       531-4.51720E+06-4.67604E+06-2.15153E+05-4.84668E+06-4.17393E-07 6.01285E-08
 -1       532-1.39992E+07 7.44019E+06 3.25571E+05-5.73798E+05 1.59383E-07-3.08160E-07
 -1       533-4.44946E+06-4.67111E+06-3.13861E+05-4.82320E+06 4.45289E-09-4.75673E-07
 -1       534-6.24722E+06 6.54009E+06 1.07145E+06 2.78728E+06-8.23929E-08 3.32802E-07
 -1       535-1.04516E+07-4.84255E+06-2.57929E+06-5.29274E+06 1.58325E-08 2.12331E-07
 -1       536-5.93096E+05-4.06586E+04-2.48546E+03-3.63400E+04-7.34371E-09 3.54958E-08
 -1       537-1.70129E+05 4.11345E+04 7.25845E+04 8.89710E+04-8.91200E-08 7.92779E-08
 -1       538-3.96753E+05 2.39512E+01 8.70265E+03-5.46539E+04 1.64467E-08 8.54770E-08
 -1       539-3.19504E+05 3.16032E+03 1.86732E+04 1.04058E+05 9.37174E-08 8.97089E-08
 -1       540-4.47341E+05 2.91019E+02-9.47733E+03-5.16940E+04 1.55035E-08 8.16692E-08
 -1       541-7.57988E+04 9.90887E+03 6.31325E+04 7.12782E+04 1.87547E-08 6.21571E-08
 -1       542-6.33911E+05-1.21550E+04-4.99199E+04-2.14797E+04 5.71863E-08 3.42459E-08
 -1       543 8.87771E+04 1.66678E+04 9.51800E+04-8.39304E+03-2.95859E-08-7.64112E-09
 -1       544-6.07531E+05-1.00854E+04-4.55542E+04 2.76862E+04 2.03499E-09-3.00050E-08
 -1       545-1.36009E+05 5.43838E+03 4.77614E+04-8.22242E+04-1.71767E-08-5.99881E-08
 -1       546-4.15115E+05 4.01366E+03-8.37119E+03 5.21851E+04 2.00964E-08-6.54081E-08
 -1       547-3.29278E+05-4.58880E+03 3.40649E+03-1.06123E+05-8.78625E-08-6.92980E-08
 -1       548-4.19406E+05 4.20698E+03-1.85185E+04 5.19034E+04-8.81962E-08-8.02629E-08
 -1       549-1.29167E+05 1.11491E+03 2.46812E+04-8.05635E+04-5.79288E-08-6.13095E-08
 -1       550-6.09824E+05-6.17223E+03-9.46593E+04 2.62967E+04 3.73620E-09-2.99424E-08
 -1       551 2.75105E+04-6.86670E+05 1.78510E+04-1.07330E+06-6.77537E-08 3.60887E-09
 -1       552 5.88593E+04-7.07828E+05 2.86682E+04-1.53004E+06-4.68863E-08 2.55604E-08
 -1       553 4.29149E+04-7.10113E+05 4.46885E+04-1.06886E+06-8.00355E-08 1.50540E-08
 -1       554 8.82258E+04-7.07954E+05 9.58127E+04-1.53160E+06-5.14046E-08 1.19035E-08
 -1       555 7.12332E+04-7.29254E+05 1.70513E+05-1.06963E+06-7.92861E-08-8.45466E-09
 -1       556 1.30792E+05-2.34831E+05 6.18383E+04-2.80274E+05-1.40717E-08-1.12777E-08
 -1       557 2.21936E+05-3.07111E+05 3.32454E+04-3.54298E+05-1.51340E-09 6.25732E-09
 -1       558 1.25540E+05-2.40163E+05 1.21449E+04-2.75166E+05-1.57452E-08-4.64934E-09
 -1       559 2.05936E+05-3.14471E+05 6.53589E+03-3.63745E+05 1.75787E-08-9.09495E-09
 -1       560 1.19275E+05-2.36160E+05 1.89323E+03-2.79487E+05 1.08703E-08-1.98634E-09
 -1       561 1.97406E+05-3.11477E+05 1.28583E+03-3.69373E+05 5.51518E-09-1.52886E-09
 -1       562 1.14192E+05-2.32925E+05 1.81001E+01-2.83154E+05-4.35102E-09-6.86668E-09
 -1       563 1.91301E+05-3.08823E+05 2.61075E+02-3.73328E+05-2.79397E-09 7.42875E-09
 -1       564 1.10573E+05-2.30651E+05-1.34186E+02-2.85719E+05 9.53878E-09-5.62250E-09
 -1       565 1.87298E+05-3.07088E+05 3.72531E+01-3.75880E+05 1.63855E-08-3.49246E-09
 -1       566 1.08487E+05-2.29318E+05-1.57968E+02-2.87186E+05 7.88714E-09-1.16052E-09
 -1       567 1.85370E+05-3.06260E+05-3.19586E+02-3.77023E+05 2.03181E-08-4.60204E-10
 -1       568 1.07982E+05-2.29015E+05-8.39662E+02-2.87607E+05-9.93623E-10-9.16043E-09
 -1       569 1.84526E+05-3.06242E+05-2.07677E+03-3.76098E+05-1.23250E-08 2.06528E-08
 -1       570 1.09822E+05-2.30948E+05-4.32438E+03-2.87198E+05-2.29193E-10 9.17544E-09
 -1       571 2.41529E+05 8.62352E+03 1.24803E+04-8.06369E+04 1.12314E-08 9.67748E-09
 -1       572 2.43350E+05 3.16040E+03 6.11619E+03-8.84269E+04 2.27428E-08-1.17334E-08
 -1       573 2.42245E+05 9.13378E+02 2.71724E+03-8.04596E+04 1.25447E-08 7.82666E-09
 -1       574 2.42432E+05 4.71270E+02 1.36237E+03-8.86390E+04 1.06070E-09 1.50731E-08
 -1       575 2.42315E+05 2.53964E+02 6.42429E+02-8.04358E+04 8.45830E-10 1.20890E-08
 -1       576 2.42307E+05 2.54699E+02 3.27843E+02-8.86672E+04-4.40099E-09 1.75623E-09
 -1       577 2.42335E+05 2.13634E+02 1.61965E+02-8.04326E+04-1.29858E-08 2.27647E-09
 -1       578 2.42315E+05 2.32797E+02 8.97158E+01-8.86708E+04-2.58119E-08 9.58607E-10
 -1       579 2.42376E+05 1.94399E+02 5.57125E+01-8.04324E+04 1.44519E-09 5.44787E-10
 -1       580 2.42376E+05 2.02586E+02 5.51189E+01-8.86664E+04 1.60007E-08 1.05501E-09
 -1       581 2.42449E+05 1.57405E+02 7.49739E+01-8.04373E+04 1.59980E-08-4.26735E-09
 -1       582 2.42486E+05 1.73210E+02 1.47018E+02-8.86164E+04 3.68073E-09 3.39332E-09
 -1       583 2.42543E+05 1.66830E+02 2.77899E+02-8.04828E+04-8.94215E-09 3.71870E-09
 -1       584 2.42709E+05 3.87793E+02 6.28144E+02-8.82347E+04-1.78852E-08-5.12614E-09
 -1       585 2.42585E+05 9.08415E+02 1.26865E+03-8.08190E+04-1.27275E-08 6.17729E-09
 -1       586-2.15037E+03 1.01909E+05-1.94452E+03-2.04997E+05-3.25440E-09 1.46747E-08
 -1       587-6.70509E+02 1.01714E+05 6.70964E+02-2.25530E+05-2.57751E-09 1.20643E-08
 -1       588 5.64048E+02 1.01555E+05 3.55863E+03-2.04845E+05-3.22689E-09 1.97488E-08
 -1       589 4.05489E+03 1.03324E+05 9.13433E+03-2.25409E+05-5.94446E-09 1.64400E-08
 -1       590 1.25512E+04 1.00511E+05 1.91284E+04-2.05145E+05-4.01269E-09-7.59974E-09
 -1       591-7.09802E+04-1.65560E+04-1.98095E+04-3.23919E+04-2.95449E-09-5.87897E-09
 -1       592-7.37688E+04-2.04885E+04-1.07300E+04-3.65018E+04 1.40273E-09-6.68820E-09
 -1       593-7.29738E+04-1.51062E+04-4.46666E+03-3.38323E+04 4.44629E-10 2.31307E-09
 -1       594-7.10209E+04-1.75957E+04-2.22759E+03-3.66233E+04-1.42296E-09-2.88668E-09
 -1       595-7.31264E+04-1.51002E+04-1.02311E+03-3.38981E+04-1.60895E-09 1.59757E-08
 -1       596-7.08340E+04-1.74633E+04-5.20490E+02-3.66028E+04 2.27307E-09 1.26689E-08
 -1       597-7.31458E+04-1.51131E+04-2.84358E+02-3.39007E+04 4.44624E-09 1.21281E-09
 -1       598-7.08158E+04-1.74582E+04-2.30331E+02-3.65971E+04-2.56000E-09-6.92773E-09
 -1       599-7.31445E+04-1.51135E+04-2.96412E+02-3.39003E+04 3.07489E-09-9.88450E-09
 -1       600-7.08346E+04-1.74644E+04-5.52404E+02-3.66014E+04 3.72114E-09-3.93197E-09
 -1       601-7.31214E+04-1.51006E+04-1.09076E+03-3.38968E+04 1.29603E-11-1.73579E-08
 -1       602-7.10338E+04-1.76051E+04-2.37766E+03-3.66202E+04-2.72428E-09-1.03146E-08
 -1       603-7.29563E+04-1.51095E+04-4.76857E+03-3.38269E+04-1.67120E-10-2.76577E-09
 -1       604-7.39783E+04-2.06807E+04-1.14549E+04-3.64739E+04 2.36571E-09-8.16476E-09
 -1       605-7.08140E+04-1.66686E+04-2.11477E+04-3.23014E+04-5.88386E-10-3.14685E-10
 -1       606 2.66061E+04-1.20690E+04-2.16566E+04 2.43016E+04 4.14366E-09-3.43107E-09
 -1       607 2.29037E+04-3.93085E+03-1.07845E+04 2.72965E+04-1.62800E-10-6.30530E-09
 -1       608 2.50108E+04-6.98950E+02-4.82838E+03 2.41201E+04-8.76753E-10 2.94449E-10
 -1       609 2.46026E+04-2.26651E+02-2.43906E+03 2.75119E+04 1.25601E-09-5.64910E-09
 -1       610 2.48263E+04-1.90907E+01-1.16418E+03 2.40991E+04 1.43700E-09 4.30191E-10
 -1       611 2.47586E+04-1.49898E+01-5.87162E+02 2.75353E+04 3.74712E-10 1.15340E-08
 -1       612 2.47829E+04-5.18325E+00-2.79936E+02 2.40970E+04-1.06047E-09 7.20320E-09
 -1       613 2.47645E+04-9.34772E+00-1.26606E+02 2.75381E+04-3.73348E-10-5.18753E-09
 -1       614 2.47613E+04-8.61091E+00-3.25441E+01 2.40963E+04 1.14233E-09-5.34919E-09
 -1       615 2.47568E+04-6.37165E+00 4.60313E+01 2.75385E+04 2.37742E-09-6.07452E-09
 -1       616 2.47447E+04-4.60379E+00 1.44541E+02 2.40966E+04-6.61203E-10-2.78192E-09
 -1       617 2.47716E+04 2.61818E+01 3.32257E+02 2.75380E+04 9.82254E-10-1.42329E-08
 -1       618 2.47137E+04 9.25212E+01 6.70660E+02 2.40968E+04 6.63022E-10-8.49809E-09
 -1       619 2.50068E+04 5.45910E+02 1.50663E+03 2.75374E+04-7.70342E-10 8.18545E-12
 -1       620 2.44899E+04 1.68422E+03 3.02847E+03 2.40970E+04 1.69962E-10 9.90212E-09
 -1       621 5.59227E+02 2.69822E+05 4.47704E+03 2.83194E+04 5.70935E-10 2.13549E-09
 -1       622 6.63617E+02 2.70909E+05 3.65627E+03 4.11613E+04 7.26232E-10-7.43785E-09
 -1       623 7.30319E+01 2.70135E+05 4.00820E+03 2.81948E+04 8.00128E-10-4.76120E-10
 -1       624 1.84677E+03 2.71946E+05 7.44406E+03 4.12798E+04 6.39375E-10 1.71973E-08
 -1       625 1.82613E+03 2.68704E+05 1.28597E+04 2.81979E+04 9.05857E-10 8.61246E-09
 -1       626 2.15192E+05 5.30825E+04 3.59909E+03 1.08260E+05 1.71758E-09-3.73984E-09
 -1       627 2.12891E+05 5.47295E+04 1.73438E+03 1.12020E+05 3.27464E-09-4.46630E-09
 -1       628 2.15308E+05 5.14022E+04 7.33222E+02 1.08829E+05-3.11047E-10 3.33921E-09
 -1       629 2.12401E+05 5.42925E+04 3.59540E+02 1.12228E+05-7.48378E-09-1.36652E-08
 -1       630 2.15317E+05 5.13222E+04 1.67332E+02 1.08848E+05 7.16409E-09-2.07797E-09
 -1       631 2.12344E+05 5.42797E+04 9.16309E+01 1.12230E+05 1.40185E-08-8.63827E-09
 -1       632 2.15311E+05 5.13268E+04 6.33731E+01 1.08842E+05 1.34860E-08-7.29551E-09
 -1       633 2.12335E+05 5.42828E+04 7.51344E+01 1.12226E+05 1.19167E-09-1.62518E-08
 -1       634 2.15304E+05 5.13255E+04 1.25522E+02 1.08840E+05 1.66347E-09-4.80100E-09
 -1       635 2.12344E+05 5.42826E+04 2.56629E+02 1.12228E+05 3.49087E-09 7.23026E-09
 -1       636 2.15294E+05 5.13221E+04 5.19556E+02 1.08839E+05 1.08093E-09 1.10736E-08
 -1       637 2.12454E+05 5.43644E+04 1.14276E+03 1.12226E+05 3.54783E-09 8.57199E-09
 -1       638 2.15251E+05 5.15755E+04 2.34854E+03 1.08723E+05 1.12022E-08-1.93540E-09
 -1       639 2.13683E+05 5.60829E+04 5.55650E+03 1.11864E+05 7.56449E-09-3.72972E-08
 -1       640 2.15084E+05 5.66942E+04 1.15310E+04 1.06557E+05 1.18525E-08 5.29963E-09
 -1       656 5.64780E+04-1.43945E+06-1.36334E+05-1.55767E+03-8.00355E-11-3.93823E-09
 -1       657-7.46685E+04-1.50103E+06-1.12851E+05 6.13940E+03-2.24645E-10 1.99202E-09
 -1       658 1.79566E+04-1.45698E+06-6.93794E+04-3.11941E+03-2.84217E-11-1.85290E-08
 -1       659-8.04120E+04-1.50376E+06-1.20397E+05 7.33339E+03-1.17143E-09-1.21393E-08
 -1       660 6.22082E+04-1.43674E+06-1.49311E+05-2.75164E+03-1.01136E-09 1.38044E-08
 -1       661 1.60049E+05 1.70441E+04 1.61492E+04 6.25220E+04 9.63610E-10 8.89304E-09
 -1       662 1.68831E+05 2.93453E+04 1.08826E+04 5.92938E+04 8.78117E-10 2.18495E-09
 -1       663 1.63217E+05 2.22279E+04 3.80648E+03 6.16052E+04-7.61929E-10-6.38124E-09
 -1       664 1.65161E+05 2.32803E+04 2.27638E+03 6.04112E+04 2.70333E-09-3.28131E-09
 -1       665 1.63695E+05 2.29387E+04 8.98006E+02 6.14686E+04 6.92864E-10 7.47053E-09
 -1       666 1.64598E+05 2.24651E+04 5.24621E+02 6.05880E+04 3.34489E-09 7.36127E-09
 -1       667 1.63777E+05 2.30218E+04 2.77693E+02 6.14363E+04 4.91696E-11 2.84061E-10
 -1       668 1.64509E+05 2.24024E+04 2.80706E+02 6.06346E+04-4.82544E-10-5.87625E-09
 -1       669 1.63783E+05 2.29997E+04 3.78213E+02 6.14225E+04-3.10125E-09 1.12663E-08
 -1       670 1.64603E+05 2.26050E+04 8.21843E+02 6.06356E+04-3.71163E-09 1.55814E-08
 -1       671 1.63683E+05 2.28233E+04 1.45868E+03 6.14336E+04 3.86336E-10 1.55388E-08
 -1       672 1.65453E+05 2.40236E+04 3.73153E+03 6.04295E+04 3.65530E-09-1.55455E-09
 -1       673 1.62937E+05 2.16169E+04 6.25328E+03 6.16149E+04 1.96019E-09 1.35365E-08
 -1       674 1.71406E+05 3.40694E+04 1.78830E+04 5.86803E+04-2.55312E-09 3.18869E-09
 -1       675 1.57769E+05 1.30586E+04 2.65444E+04 6.30771E+04-1.96178E-09-2.84126E-09
 -1       676 2.12375E+01-2.58065E+05-9.85096E+02-5.78210E+01 8.74309E-10-2.05273E-09
 -1       677-2.61379E+02-2.58303E+05-1.80287E+03 1.15567E+02 4.61560E-09-8.65878E-09
 -1       678 1.74668E+02-2.57895E+05-3.18700E+03-5.77075E+01 5.97311E-10-6.57726E-09
 -1       679-3.18771E+03-2.60227E+05-7.57086E+03 1.15130E+02 3.85307E-09 2.80592E-09
 -1       680 1.90261E+03-2.56142E+05-1.22017E+04-5.67357E+01 7.04404E-10 4.69996E-09
 -1       771-2.72177E+06-5.74653E+05-9.13592E+04-1.23000E+06-2.00671E-08-1.31840E-08
 -1       772-2.67408E+06-6.35035E+05-4.76823E+04-1.29909E+06-1.60653E-08 5.79166E-09
 -1       773-2.73859E+06-5.61360E+05-2.30808E+04-1.23619E+06-9.69158E-09 6.32281E-09
 -1       774-2.66561E+06-6.25472E+05-1.05613E+04-1.31168E+06 1.64000E-08-1.31331E-09
 -1       775-2.74610E+06-5.56029E+05-7.08975E+03-1.23857E+06-5.28235E-09 3.05590E-09
 -1       776-2.66978E+06-6.24769E+05-2.79048E+03-1.32048E+06-2.08383E-08 6.29370E-10
 -1       777-2.75235E+06-5.51450E+05-2.85610E+03-1.24066E+06-8.65839E-09-1.70985E-10
 -1       778-2.67437E+06-6.24216E+05-8.73461E+02-1.32795E+06 4.65661E-09 5.21868E-09
 -1       779-2.75761E+06-5.47523E+05-1.37866E+03-1.24245E+06-2.61934E-09-5.01313E-09
 -1       780-2.67841E+06-6.23663E+05-3.26871E+02-1.33400E+06-1.97906E-09-4.28736E-09
 -1       781-2.76172E+06-5.44395E+05-6.87898E+02-1.24384E+06-1.23255E-08 7.83075E-09
 -1       782-2.68152E+06-6.23183E+05-2.34500E+02-1.33846E+06-2.44909E-08-4.07181E-09
 -1       783-2.76456E+06-5.42259E+05-5.43971E+02-1.24482E+06-5.27507E-09-8.95920E-09
 -1       784-2.68368E+06-6.23066E+05-8.28971E+02-1.34116E+06-1.14669E-08-7.50333E-11
 -1       785-2.76585E+06-5.41278E+05-1.62715E+03-1.24520E+06-2.31794E-08 4.65479E-09
 -1       786 2.03247E+05-1.09444E+04 2.53219E+04-2.69296E+02-1.76132E-06-4.95675E-09
 -1       787 2.14219E+05 1.26711E+04 1.79143E+04-2.76184E+02-3.48785E-06-8.07427E-09
 -1       788 2.07480E+05-1.71539E+03 6.55382E+03-2.63877E+02 5.90192E-06 1.48752E-08
 -1       789 2.09288E+05 1.98556E+03 4.11749E+03-2.84075E+02 1.53287E-05 4.02301E-08
 -1       790 2.08179E+05-2.67662E+02 1.67480E+03-2.61418E+02 2.57221E-05 2.70530E-08
 -1       791 2.08472E+05 3.11585E+02 9.82043E+02-2.91129E+02 3.61353E-05 6.28315E-08
 -1       792 2.08296E+05-4.26721E+01 4.45720E+02-2.56825E+02 4.74929E-05 3.89452E-08
 -1       793 2.08340E+05 5.95983E+01 2.86959E+02-3.04692E+02 5.87549E-05 7.33158E-08
 -1       794 2.08311E+05-1.58433E+01 2.04778E+02-2.47854E+02 2.94337E-05 1.10540E-08
 -1       795 2.08348E+05 8.07962E+01 2.84919E+02-3.30194E+02 9.12323E-08 1.04903E-08
 -1       796 2.08287E+05-6.38551E+01 4.19963E+02-2.31323E+02 6.23634E-09 1.44300E-09
 -1       797 2.08537E+05 4.69964E+02 9.84591E+02-3.76413E+02-1.36399E-09-1.46072E-08
 -1       798 2.08123E+05-4.04727E+02 1.55221E+03-2.01634E+02 4.13469E-09-5.03178E-10
 -1       799 2.09702E+05 2.99059E+03 4.23023E+03-4.58651E+02-9.40403E-12-4.16367E-09
 -1       800 2.07122E+05-2.58247E+03 5.97444E+03-1.49081E+02 6.90640E-10 5.44333E-09
 -1       801-8.55153E+04-5.81591E+06-8.45129E+05 6.90343E+05 4.73810E-08-4.28990E-08
 -1       802 5.09319E+05 6.66897E+06 1.85288E+06-8.95019E+05-1.20890E-08-2.73308E-08
 -1       803-4.06934E+05-9.79840E+06-1.44229E+06 4.00003E+05 1.25976E-07 3.11111E-08
 -1       804 3.18187E+05 4.42320E+06 1.49379E+06 2.67942E+05-2.06292E-08-9.48341E-08
 -1       805 7.60040E+04-3.56616E+06-8.78266E+04-4.72613E+05-7.99555E-08-5.68454E-08
 -1       806-2.50614E+05-5.60072E+04-2.16468E+04-1.07283E+05 1.52636E-09 1.35287E-08
 -1       807-2.51515E+05-5.32804E+04-1.06346E+04-1.13464E+05 1.03057E-08-4.39564E-09
 -1       808-2.51250E+05-4.81646E+04-4.51101E+03-1.10930E+05-8.41283E-12 1.08597E-09
 -1       809-2.49232E+05-5.03403E+04-2.20519E+03-1.13785E+05-4.71215E-09 7.17273E-09
 -1       810-2.51347E+05-4.78874E+04-1.00984E+03-1.11090E+05 4.79258E-09 1.14107E-08
 -1       811-2.49056E+05-5.02253E+04-5.00957E+02-1.13760E+05 9.85540E-09 1.03219E-08
 -1       812-2.51362E+05-4.79086E+04-2.50506E+02-1.11088E+05 2.06273E-09-9.35847E-09
 -1       813-2.49031E+05-5.02293E+04-1.58906E+02-1.13745E+05-4.02201E-09-1.91649E-08
 -1       814-2.51357E+05-4.79180E+04-1.50675E+02-1.11083E+05-1.77215E-09 1.70576E-09
 -1       815-2.49031E+05-5.02332E+04-2.37117E+02-1.13738E+05 3.77213E-10 1.11877E-08
 -1       816-2.51337E+05-4.79187E+04-4.45621E+02-1.11078E+05 1.62345E-09 3.98722E-09
 -1       817-2.49103E+05-5.02770E+04-9.55128E+02-1.13724E+05-9.58289E-09-1.18453E-08
 -1       818-2.51274E+05-4.80568E+04-1.94736E+03-1.11012E+05-8.63110E-10-1.31909E-08
 -1       819-2.50177E+05-5.14410E+04-4.58187E+03-1.13451E+05 9.49058E-10-8.46035E-09
 -1       820-2.50888E+05-5.15330E+04-9.32594E+03-1.09544E+05-1.93722E-09-7.13044E-10
 -1       821-3.40204E+05 1.87075E+04-4.32827E+04 8.77801E+02 6.85464E-09 2.18279E-10
 -1       822-3.58891E+05-2.16573E+04-3.06169E+04-1.56298E+03 2.98694E-11 1.27375E-09
 -1       823-3.47398E+05 2.93419E+03-1.12068E+04 1.09029E+03-4.18969E-09-1.72122E-09
 -1       824-3.50454E+05-3.39359E+03-7.04660E+03-1.50960E+03 8.74145E-10 1.04401E-08
 -1       825-3.48637E+05 4.57646E+02-2.90515E+03 8.24435E+02 6.28778E-09-7.50754E-09
 -1       826-3.48966E+05-5.36738E+02-1.72509E+03-6.32508E+02 7.51649E-09 5.65132E-09
 -1       827-3.48883E+05 7.72894E+01-9.21668E+02 2.13183E+02 2.85196E-09-1.71553E-09
 -1       828-3.48754E+05-1.60591E+02-7.69831E+02 6.29189E+02-2.43555E-09 3.58665E-09
 -1       829-3.48848E+05 8.13999E+01-9.25481E+02-4.37282E+02 5.29390E-10-4.05606E-10
 -1       830-3.49049E+05-5.52643E+02-1.77292E+03 1.64179E+03 1.57620E-09-5.03292E-10
 -1       831-3.48591E+05 4.71092E+02-2.95324E+03-7.99436E+02-1.73929E-09-1.96098E-09
 -1       832-3.50505E+05-3.46573E+03-7.19252E+03 1.89540E+03-1.82677E-09 2.16880E-09
 -1       833-3.47395E+05 2.99322E+03-1.14386E+04-6.90889E+02-1.85311E-09-4.41059E-09
 -1       834-3.59019E+05-2.20942E+04-3.12220E+04 1.25150E+03-1.97392E-09-8.48740E-09
 -1       835-3.40078E+05 1.90835E+04-4.41702E+04-1.55526E+02 5.10759E-09 1.85537E-09
 -1       836-1.24167E+03 3.25051E+05 2.00266E+04-2.55054E+04-3.65890E-09 9.28185E-09
 -1       837 4.27985E+03 3.31311E+05 1.68451E+04-5.15769E+04-3.69209E-09 1.33650E-09
 -1       838-4.72746E+02 3.26816E+05 1.70153E+04-2.54172E+04-3.02362E-09 7.57109E-09
 -1       839 1.06620E+04 3.36056E+05 3.20425E+04-5.16128E+04-2.61480E-09 8.65857E-09
 -1       840-3.29103E+03 3.20244E+05 5.10267E+04-2.54723E+04-3.16322E-09 9.49240E-09
 -1       856-6.65243E+04 7.48287E+03-1.97188E+04-3.79547E+02 2.09673E-09-5.70253E-10
 -1       857-7.46568E+04-8.78558E+03-1.35750E+04 4.97302E+03 1.21918E-09-6.11408E-09
 -1       858-6.97419E+04 1.04907E+03-5.11705E+03-4.02483E+02 4.53156E-10 8.37645E-10
 -1       859-7.09631E+04-1.22822E+03-3.08909E+03 5.00817E+03-2.67319E-09 6.64335E-09
 -1       860-7.02227E+04 1.46556E+02-1.29659E+03-4.14594E+02 1.74117E-09-9.06653E-11
 -1       861-7.04096E+04-1.69614E+02-7.17391E+02 5.02476E+03-2.01470E-09 3.81937E-09
 -1       862-7.02978E+04 1.97659E+01-3.06462E+02-4.19072E+02 8.16360E-10-4.24703E-09
 -1       863-7.03191E+04-1.72033E+01-1.30366E+02 5.02719E+03 1.64986E-09-2.31377E-08
 -1       864-7.03136E+04-2.43234E+00 1.86157E+00-4.17030E+02-4.93785E-10-6.09162E-09
 -1       865-7.02789E+04 3.99489E+01 1.44162E+02 5.01605E+03 1.00397E-09 1.10571E-08
 -1       866-7.03362E+04-3.76028E+01 3.12183E+02-4.07929E+02 1.54159E-10-9.50781E-09
 -1       867-7.01263E+04 3.11637E+02 7.82319E+02 4.99124E+03 1.01110E-09-1.12618E-08
 -1       868-7.04623E+04-2.69838E+02 1.30331E+03-3.92223E+02-1.11709E-09 1.03773E-09
 -1       869-6.91666E+04 2.24432E+03 3.47544E+03 4.95003E+03 1.98631E-09-1.07713E-09
 -1       870-7.12898E+04-1.91871E+03 5.04290E+03-3.66682E+02-1.92506E-09-1.23198E-08
 -1       871-4.72059E+03-1.67247E+04-1.61335E+04 1.06352E+05-2.23008E-09-9.77525E-09
 -1       872-1.84648E+03-2.04176E+04-6.71206E+03 1.37897E+05-5.17502E-09-1.44178E-08
 -1       873 1.79888E+02-1.86475E+04 6.00820E+02 1.06120E+05-2.75850E-09 1.69098E-09
 -1       874 2.59522E+03-1.65490E+04 8.35965E+03 1.37926E+05-6.13500E-09-3.95630E-11
 -1       875 5.66545E+03-2.06452E+04 1.87739E+04 1.06317E+05-2.50839E-09-4.19277E-10
 -1       876 2.49249E+05 4.24868E+04 1.31056E+04 1.00584E+05 2.38788E-09-1.11668E-08
 -1       877 2.50043E+05 4.53193E+04 6.99883E+03 1.04420E+05 2.35991E-09-9.34142E-09
 -1       878 2.50475E+05 4.10349E+04 2.93214E+03 1.01658E+05 3.93584E-09 5.66638E-09
 -1       879 2.48260E+05 4.35431E+04 1.46079E+03 1.04511E+05 4.01587E-09 3.97796E-09
 -1       880 2.50563E+05 4.10194E+04 6.80190E+02 1.01702E+05-4.60454E-09-5.64796E-10
 -1       881 2.48142E+05 4.34674E+04 3.62672E+02 1.04492E+05-2.64743E-09 1.16068E-08
 -1       882 2.50571E+05 4.10306E+04 2.31023E+02 1.01703E+05-4.00632E-10 1.94769E-08
 -1       883 2.48133E+05 4.34637E+04 2.46775E+02 1.04486E+05-2.64072E-09 3.58283E-09
 -1       884 2.50566E+05 4.10281E+04 3.91116E+02 1.01703E+05 4.03492E-09-4.62438E-09
 -1       885 2.48164E+05 4.34692E+04 7.85451E+02 1.04495E+05-3.39639E-10 2.59433E-09
 -1       886 2.50536E+05 4.10051E+04 1.58261E+03 1.01700E+05-1.83567E-09 2.99997E-09
 -1       887 2.48442E+05 4.36515E+04 3.45683E+03 1.04535E+05 5.89978E-10-5.57566E-09
 -1       888 2.50317E+05 4.10437E+04 6.96556E+03 1.01590E+05-5.31401E-10 6.15410E-09
 -1       889 2.52591E+05 4.79622E+04 1.66398E+04 1.04406E+05-1.96818E-09-9.83437E-09
 -1       890 2.47476E+05 4.44190E+04 3.11654E+04 9.89371E+04 1.20940E-09 2.98314E-10
 -1       891-1.03114E+02-1.39584E+05-1.68428E+03 2.46131E+04 2.04636E-12-3.90992E-09
 -1       892-1.90706E+02-1.40014E+05-1.81913E+03 3.73224E+04 1.18985E-09 1.24860E-08
 -1       893 8.96443E+00-1.39637E+05-2.58616E+03 2.46190E+04-2.87628E-10 4.73074E-09
 -1       894-1.33135E+03-1.40998E+05-5.36007E+03 3.71866E+04 1.31877E-09 1.00167E-08
 -1       895-1.05091E+03-1.38521E+05-9.44191E+03 2.47491E+04 1.08230E-10 6.84940E-09
 -1       956-3.17376E+05-4.72229E+03-1.17438E+04 2.54803E+04 3.11593E-09 2.78055E-09
 -1       957-3.19687E+05-1.63781E+03-6.02813E+03 3.06304E+04 2.40107E-10-6.00767E-09
 -1       958-3.18428E+05-1.77575E+02-2.71638E+03 2.53289E+04-6.63567E-09-2.26669E-09
 -1       959-3.18606E+05-8.05221E+01-1.38702E+03 3.08023E+04-8.44602E-09-3.29578E-09
 -1       960-3.18528E+05-8.11529E+00-6.76132E+02 2.53138E+04 2.17642E-09 1.16524E-08
 -1       961-3.18534E+05-1.79460E+01-3.57916E+02 3.08199E+04 1.49678E-08 2.09807E-08
 -1       962-3.18552E+05-9.79190E+00-2.03771E+02 2.53114E+04 5.08908E-09 7.00356E-09
 -1       963-3.18534E+05-1.43032E+01-1.61433E+02 3.08232E+04 1.32889E-09-3.03771E-10
 -1       964-3.18558E+05-6.42634E+00-1.93573E+02 2.53105E+04-1.73952E-09 8.87667E-10
 -1       965-3.18546E+05-1.05900E+01-3.32497E+02 3.08232E+04-2.67048E-09 2.53794E-09
 -1       966-3.18547E+05 1.81403E+00-6.23248E+02 2.53114E+04 6.16183E-11 7.66931E-09
 -1       967-3.18625E+05-6.13639E+01-1.27770E+03 3.08128E+04 1.32695E-09 6.45468E-09
 -1       968-3.18464E+05-1.47851E+02-2.50058E+03 2.53209E+04 1.78443E-09 1.91443E-09
 -1       969-3.19633E+05-1.48992E+03-5.55157E+03 3.07005E+04 1.09821E-10-3.66612E-10
 -1       970-3.17504E+05-4.32939E+03-1.08141E+04 2.54204E+04-7.64885E-10-6.09361E-09
 -1       971-2.94896E+05-1.49871E+03-8.17648E+03 1.35387E+04 1.73713E-10-3.87530E-09
 -1       972-2.96872E+05-1.09256E+03-4.45293E+03 1.87996E+04 5.13319E-09-1.21272E-08
 -1       973-2.95806E+05-3.69420E+01-1.99421E+03 1.34299E+04 3.68300E-09 1.22282E-09
 -1       974-2.95932E+05-4.75657E+01-1.03355E+03 1.89202E+04 8.82210E-11-5.23414E-09
 -1       975-2.95877E+05 1.65189E+00-5.16421E+02 1.34195E+04-3.06136E-09-4.84874E-09
 -1       976-2.95877E+05-4.50100E+00-2.97683E+02 1.89332E+04 4.31760E-09-2.96711E-09
 -1       977-2.95891E+05 1.71435E+00-2.15522E+02 1.34169E+04 7.10997E-10 6.80473E-09
 -1       978-2.95880E+05 4.89337E-01-2.51529E+02 1.89369E+04-4.17003E-10 7.06564E-09
 -1       979-2.95890E+05 8.68039E+00-4.03510E+02 1.34158E+04-4.43208E-09 4.84067E-09
 -1       980-2.95910E+05 2.98249E+00-7.78741E+02 1.89376E+04-1.02935E-08-9.64371E-09
 -1       981-2.95865E+05 2.81160E+01-1.50801E+03 1.34163E+04-5.02121E-09 3.40265E-10
 -1       982-2.96117E+05-1.08325E+02-3.11689E+03 1.89318E+04-2.74520E-09-5.59596E-09
 -1       983-2.95676E+05-6.82504E+01-6.05601E+03 1.34216E+04 7.18501E-11 4.28827E-10
 -1       984-2.99030E+05-3.27080E+03-1.35619E+04 1.88560E+04 1.26784E-09-8.50105E-09
 -1       985-2.92934E+05-4.49951E+03-2.49039E+04 1.34900E+04-2.42926E-09-2.23190E-09
 -3
    1PSTEP                        21          11           1          
  100CL  111 5.91309E-01         409                     0   11           1
 -4  DISP        4    1
 -5  D1          1    2    1    0
 -5  D2          1    2    2    0
 -5  D3          1    2    3    0
 -5  ALL         1    2    0    0    1ALL
 -1         1 9.07367E-04 0.00000E+00 0.00000E+00
 -1         2 8.50338E-04 3.11295E-30 0.00000E+00
 -1         3 2.52663E-04-8.62717E-28-1.32349E-23
 -1         5 1.33688E-04-1.31220E-26-8.27181E-25
 -1         8 8.86459E-04-6.69920E-07 0.00000E+00
 -1         9 8.60801E-04-2.65781E-06 0.00000E+00
 -1        10 2.29925E-04-2.92131E-06 0.00000E+00
 -1        12 1.35026E-04 7.41039E-07-3.10193E-25
 -1        15 8.61317E-04-7.39764E-07 0.00000E+00
 -1        16 8.67883E-04-3.28367E-06 0.00000E+00
 -1        17 1.58820E-04-6.42810E-06 0.00000E+00
 -1        18 1.37654E-04 2.66974E-05 0.00000E+00
 -1        19 1.39041E-04 1.47683E-06 0.00000E+00
 -1        20 1.39182E-04-4.67657E-06 0.00000E+00
 -1        21 1.38445E-04-1.36068E-05 0.00000E+00
 -1        24 2.59603E-05-9.37024E-06 0.00000E+00
 -1        25 1.45117E-04 2.69157E-05 0.00000E+00
 -1        26 1.46280E-04 2.06039E-06 0.00000E+00
 -1        27 1.44266E-04-7.78565E-06 0.00000E+00
 -1        28 1.43897E-04-1.41593E-05 0.00000E+00
 -1        32 0.00000E+00 0.00000E+00 0.00000E+00
 -1        33 1.52196E-04 2.75425E-06 0.00000E+00
 -1        34 1.50360E-04-7.83200E-06 0.00000E+00
 -1        35 1.48666E-04-1.44591E-05 0.00000E+00
 -1        51 9.06019E-04-1.18086E-07 0.00000E+00
 -1        52 9.03511E-04-2.25453E-07 0.00000E+00
 -1        53 9.00067E-04-3.32245E-07 0.00000E+00
 -1        54 8.95921E-04-4.40395E-07 0.00000E+00
 -1        55 8.91306E-04-5.51168E-07 5.79026E-24
 -1        56 9.04710E-04-5.62312E-07 5.29396E-23
 -1        57 9.01678E-04-4.08489E-07 0.00000E+00
 -1        58 8.98400E-04 4.12553E-07 0.00000E+00
 -1        59 8.94903E-04 1.76585E-06 0.00000E+00
 -1        60 8.91276E-04 3.46499E-06 0.00000E+00
 -1        61 8.87595E-04 5.29584E-06-5.29396E-23
 -1        62 8.83950E-04 7.02939E-06 0.00000E+00
 -1        63 8.80427E-04 8.44153E-06-5.29396E-23
 -1        64 8.77094E-04 9.34788E-06-1.05879E-22
 -1        65 8.74010E-04 9.59470E-06-5.29396E-23
 -1        66 8.71202E-04 9.10892E-06 1.05879E-22
 -1        67 8.68682E-04 7.86272E-06-5.29396E-23
 -1        68 8.66423E-04 5.92022E-06 0.00000E+00
 -1        69 8.64398E-04 3.39366E-06 2.64698E-23
 -1        70 8.62521E-04 4.55573E-07-5.29396E-23
 -1        86 8.50745E-04-4.38701E-07-1.32349E-23
 -1        87 8.51957E-04-8.78322E-07-6.61744E-24
 -1        88 8.53797E-04-1.31889E-06 1.32349E-23
 -1        89 8.56073E-04-1.76218E-06 6.61744E-24
 -1        90 8.58503E-04-2.20517E-06 0.00000E+00
 -1       121 2.52025E-04-4.77812E-07 0.00000E+00
 -1       122 2.50115E-04-9.57190E-07 0.00000E+00
 -1       123 2.46937E-04-1.43967E-06 0.00000E+00
 -1       124 2.42503E-04-1.92685E-06-6.61744E-24
 -1       125 2.36826E-04-2.42002E-06 1.32349E-23
 -1       191 1.33725E-04 1.23542E-07-1.65436E-24
 -1       192 1.33837E-04 2.47077E-07 1.44757E-24
 -1       193 1.34023E-04 3.70603E-07-1.86116E-24
 -1       194 1.34283E-04 4.94110E-07-7.23783E-25
 -1       195 1.34617E-04 6.17591E-07-1.65436E-24
 -1       251 8.85765E-04 1.53010E-05 0.00000E+00
 -1       252 8.84447E-04 5.44955E-05-6.61744E-24
 -1       253 8.82414E-04 1.09899E-04-1.32349E-23
 -1       254 8.79870E-04 1.74122E-04-6.61744E-24
 -1       255 8.77384E-04 2.37384E-04 1.32349E-23
 -1       256 8.75495E-04 2.89927E-04 0.00000E+00
 -1       257 8.74322E-04 3.24895E-04 1.32349E-23
 -1       258 8.73680E-04 3.35837E-04 0.00000E+00
 -1       259 8.73013E-04 3.22618E-04-1.32349E-23
 -1       260 8.71772E-04 2.85683E-04 0.00000E+00
 -1       261 8.69812E-04 2.31720E-04 0.00000E+00
 -1       262 8.67285E-04 1.67803E-04-6.61744E-24
 -1       263 8.64748E-04 1.03710E-04 0.00000E+00
 -1       264 8.62758E-04 4.92196E-05 0.00000E+00
 -1       265 8.61490E-04 1.15004E-05 0.00000E+00
 -1       266 8.82269E-04-6.91186E-07-3.30872E-24
 -1       267 8.78079E-04-7.01654E-07 0.00000E+00
 -1       268 8.73888E-04-7.12805E-07 0.00000E+00
 -1       269 8.69698E-04-7.21931E-07 0.00000E+00
 -1       270 8.65507E-04-7.31008E-07-4.13590E-25
 -1       271 8.83916E-04 2.94326E-06-2.64698E-23
 -1       272 8.81492E-04 6.13832E-06-1.32349E-23
 -1       273 8.79239E-04 8.88514E-06-2.64698E-23
 -1       274 8.77164E-04 1.11440E-05-1.32349E-23
 -1       275 8.75284E-04 1.28863E-05-2.64698E-23
 -1       276 8.73607E-04 1.40883E-05-1.32349E-23
 -1       277 8.72139E-04 1.47345E-05 2.64698E-23
 -1       278 8.70883E-04 1.48166E-05 0.00000E+00
 -1       279 8.69838E-04 1.43342E-05 0.00000E+00
 -1       280 8.69002E-04 1.32947E-05 0.00000E+00
 -1       281 8.68369E-04 1.17131E-05 2.64698E-23
 -1       282 8.67931E-04 9.61211E-06 0.00000E+00
 -1       283 8.67676E-04 7.02135E-06 0.00000E+00
 -1       284 8.67592E-04 3.97839E-06 1.32349E-23
 -1       285 8.67660E-04 5.24621E-07 2.64698E-23
 -1       301 8.62107E-04-2.78077E-06-6.61744E-24
 -1       302 8.62811E-04-2.87715E-06-3.30872E-24
 -1       303 8.63325E-04-2.97155E-06 0.00000E+00
 -1       304 8.64066E-04-3.06584E-06 0.00000E+00
 -1       305 8.65448E-04-3.16249E-06 0.00000E+00
 -1       306 8.82151E-04-7.89385E-05-5.29396E-23
 -1       307 9.35539E-04-2.96550E-04 0.00000E+00
 -1       308 1.00151E-03-6.20132E-04 0.00000E+00
 -1       309 1.06954E-03-1.00242E-03-2.64698E-23
 -1       310 1.13745E-03-1.37971E-03 0.00000E+00
 -1       311 1.20236E-03-1.68879E-03-5.29396E-23
 -1       312 1.25206E-03-1.88520E-03 1.05879E-22
 -1       313 1.26594E-03-1.93748E-03 0.00000E+00
 -1       314 1.22241E-03-1.84595E-03 0.00000E+00
 -1       315 1.10674E-03-1.62713E-03 0.00000E+00
 -1       316 9.27381E-04-1.31940E-03 0.00000E+00
 -1       317 7.07582E-04-9.64382E-04-2.64698E-23
 -1       318 4.88700E-04-6.10402E-04 1.05879E-22
 -1       319 3.11864E-04-3.05822E-04 0.00000E+00
 -1       320 1.99420E-04-9.18608E-05 5.29396E-23
 -1       336 2.21663E-04-3.47031E-06 1.32349E-23
 -1       337 2.11907E-04-4.03282E-06 0.00000E+00
 -1       338 2.00697E-04-4.60971E-06 0.00000E+00
 -1       339 1.88077E-04-5.20138E-06 0.00000E+00
 -1       340 1.74099E-04-5.81047E-06 1.32349E-23
 -1       406 1.35510E-04 8.64439E-07 2.06795E-25
 -1       407 1.36067E-04 9.87759E-07-7.23783E-25
 -1       408 1.36700E-04 1.11096E-06-1.65436E-24
 -1       409 1.37406E-04 1.23387E-06-8.27181E-25
 -1       410 1.38187E-04 1.35623E-06 1.65436E-24
 -1       521 8.90784E-04-8.82429E-05-1.05879E-22
 -1       522 9.46406E-04-3.26995E-04 0.00000E+00
 -1       523 1.01318E-03-6.81388E-04 0.00000E+00
 -1       524 1.08035E-03-1.09880E-03 5.29396E-23
 -1       525 1.14755E-03-1.51013E-03 0.00000E+00
 -1       526 1.21348E-03-1.84693E-03 0.00000E+00
 -1       527 1.26504E-03-2.05987E-03 0.00000E+00
 -1       528 1.27900E-03-2.11562E-03 0.00000E+00
 -1       529 1.22946E-03-2.01406E-03 0.00000E+00
 -1       530 1.09925E-03-1.77530E-03-5.29396E-23
 -1       531 8.96787E-04-1.44097E-03 0.00000E+00
 -1       532 6.48565E-04-1.05662E-03 0.00000E+00
 -1       533 4.01102E-04-6.73073E-04-1.05879E-22
 -1       534 2.00724E-04-3.41175E-04 0.00000E+00
 -1       535 7.31449E-05-1.06176E-04 2.11758E-22
 -1       536 1.58299E-04 2.07310E-05 6.61744E-24
 -1       537 1.56962E-04 7.02733E-05 0.00000E+00
 -1       538 1.54849E-04 1.34378E-04 3.30872E-24
 -1       539 1.52305E-04 2.05144E-04-1.65436E-24
 -1       540 1.49971E-04 2.72650E-04 0.00000E+00
 -1       541 1.48410E-04 3.26994E-04 0.00000E+00
 -1       542 1.47655E-04 3.62105E-04 3.30872E-24
 -1       543 1.47445E-04 3.72036E-04 0.00000E+00
 -1       544 1.47182E-04 3.57335E-04 3.30872E-24
 -1       545 1.46305E-04 3.18726E-04 0.00000E+00
 -1       546 1.44687E-04 2.63211E-04 0.00000E+00
 -1       547 1.42497E-04 1.97895E-04 0.00000E+00
 -1       548 1.40321E-04 1.32794E-04 3.30872E-24
 -1       549 1.38737E-04 7.79217E-05 1.65436E-24
 -1       550 1.37897E-04 4.02645E-05 1.65436E-24
 -1       551 1.40315E-04-6.84529E-06 0.00000E+00
 -1       552 1.19240E-04-7.30622E-06 0.00000E+00
 -1       553 9.64243E-05-7.80178E-06 6.61744E-24
 -1       554 7.27109E-05-8.31881E-06 6.61744E-24
 -1       555 4.89435E-05-8.83968E-06 0.00000E+00
 -1       556 1.53334E-04 7.70292E-06 0.00000E+00
 -1       557 1.48879E-04 1.92182E-05 0.00000E+00
 -1       558 1.45360E-04 2.83185E-05 0.00000E+00
 -1       559 1.42686E-04 3.52220E-05 0.00000E+00
 -1       560 1.40769E-04 4.01470E-05 0.00000E+00
 -1       561 1.39521E-04 4.33131E-05 0.00000E+00
 -1       562 1.38854E-04 4.49409E-05 0.00000E+00
 -1       563 1.38684E-04 4.52512E-05 0.00000E+00
 -1       564 1.38925E-04 4.44654E-05 0.00000E+00
 -1       565 1.39493E-04 4.28051E-05 0.00000E+00
 -1       566 1.40306E-04 4.04923E-05 0.00000E+00
 -1       567 1.41278E-04 3.77492E-05 0.00000E+00
 -1       568 1.42328E-04 3.47980E-05 0.00000E+00
 -1       569 1.43373E-04 3.18610E-05 8.27181E-25
 -1       570 1.44329E-04 2.91605E-05 0.00000E+00
 -1       571 1.37738E-04 2.51120E-05 1.44757E-24
 -1       572 1.37824E-04 2.34582E-05 8.27181E-25
 -1       573 1.37911E-04 2.17501E-05 1.65436E-24
 -1       574 1.37997E-04 2.00028E-05 0.00000E+00
 -1       575 1.38084E-04 1.82314E-05 1.65436E-24
 -1       576 1.38171E-04 1.64509E-05 0.00000E+00
 -1       577 1.38257E-04 1.46765E-05 0.00000E+00
 -1       578 1.38344E-04 1.29234E-05 0.00000E+00
 -1       579 1.38431E-04 1.12067E-05 0.00000E+00
 -1       580 1.38518E-04 9.54151E-06 6.61744E-24
 -1       581 1.38605E-04 7.94303E-06 0.00000E+00
 -1       582 1.38692E-04 6.42634E-06 0.00000E+00
 -1       583 1.38779E-04 5.00658E-06 6.61744E-24
 -1       584 1.38866E-04 3.69873E-06 0.00000E+00
 -1       585 1.38954E-04 2.51760E-06-6.61744E-24
 -1       586 1.38905E-04 2.67353E-05 1.65436E-24
 -1       587 1.40104E-04 2.67728E-05 8.27181E-25
 -1       588 1.41288E-04 2.68101E-05-5.68687E-25
 -1       589 1.42495E-04 2.68469E-05 0.00000E+00
 -1       590 1.43759E-04 2.68828E-05 0.00000E+00
 -1       591 1.38185E-04 2.51897E-05 0.00000E+00
 -1       592 1.38726E-04 2.36470E-05 0.00000E+00
 -1       593 1.39276E-04 2.20767E-05 0.00000E+00
 -1       594 1.39834E-04 2.04851E-05 0.00000E+00
 -1       595 1.40397E-04 1.88788E-05 0.00000E+00
 -1       596 1.40963E-04 1.72640E-05 4.13590E-25
 -1       597 1.41530E-04 1.56473E-05 8.27181E-25
 -1       598 1.42095E-04 1.40350E-05 4.13590E-25
 -1       599 1.42657E-04 1.24334E-05 0.00000E+00
 -1       600 1.43212E-04 1.08489E-05-4.13590E-25
 -1       601 1.43758E-04 9.28795E-06-8.27181E-25
 -1       602 1.44293E-04 7.75686E-06 0.00000E+00
 -1       603 1.44815E-04 6.26205E-06-4.13590E-25
 -1       604 1.45321E-04 4.80998E-06 1.03398E-25
 -1       605 1.45809E-04 3.40694E-06-4.13590E-25
 -1       606 1.39054E-04 6.50521E-07 0.00000E+00
 -1       607 1.39064E-04-9.09266E-08 0.00000E+00
 -1       608 1.39073E-04-7.52488E-07 0.00000E+00
 -1       609 1.39081E-04-1.33978E-06 1.65436E-24
 -1       610 1.39090E-04-1.85846E-06 3.30872E-24
 -1       611 1.39098E-04-2.31427E-06 0.00000E+00
 -1       612 1.39107E-04-2.71293E-06 0.00000E+00
 -1       613 1.39115E-04-3.06018E-06 0.00000E+00
 -1       614 1.39124E-04-3.36177E-06 0.00000E+00
 -1       615 1.39132E-04-3.62343E-06-8.27181E-25
 -1       616 1.39141E-04-3.85092E-06 0.00000E+00
 -1       617 1.39149E-04-4.04997E-06 0.00000E+00
 -1       618 1.39158E-04-4.22631E-06 0.00000E+00
 -1       619 1.39166E-04-4.38570E-06 0.00000E+00
 -1       620 1.39175E-04-4.53387E-06-2.06795E-25
 -1       621 1.40033E-04 1.57431E-06 0.00000E+00
 -1       622 1.41146E-04 1.67227E-06 0.00000E+00
 -1       623 1.42354E-04 1.77012E-06 3.30872E-24
 -1       624 1.43630E-04 1.86774E-06-8.27181E-25
 -1       625 1.44948E-04 1.96511E-06 0.00000E+00
 -1       626 1.39449E-04 6.80509E-07 0.00000E+00
 -1       627 1.39833E-04-5.16052E-08 0.00000E+00
 -1       628 1.40195E-04-7.26720E-07-3.30872E-24
 -1       629 1.40540E-04-1.35242E-06 0.00000E+00
 -1       630 1.40869E-04-1.93632E-06 0.00000E+00
 -1       631 1.41185E-04-2.48606E-06 0.00000E+00
 -1       632 1.41491E-04-3.00928E-06 3.30872E-24
 -1       633 1.41790E-04-3.51361E-06 0.00000E+00
 -1       634 1.42084E-04-4.00670E-06 3.30872E-24
 -1       635 1.42378E-04-4.49619E-06 0.00000E+00
 -1       636 1.42673E-04-4.98971E-06 3.30872E-24
 -1       637 1.42972E-04-5.49492E-06 0.00000E+00
 -1       638 1.43279E-04-6.01944E-06-1.65436E-24
 -1       639 1.43595E-04-6.57095E-06-1.65436E-24
 -1       640 1.43924E-04-7.15710E-06-1.65436E-24
 -1       656 1.39541E-04-5.18198E-06-6.61744E-24
 -1       657 1.40285E-04-5.70791E-06 0.00000E+00
 -1       658 1.41280E-04-6.23252E-06 1.32349E-23
 -1       659 1.42386E-04-6.75680E-06 0.00000E+00
 -1       660 1.43437E-04-7.28267E-06-6.61744E-24
 -1       661 1.39319E-04-4.85498E-06 8.27181E-25
 -1       662 1.39487E-04-5.10784E-06 0.00000E+00
 -1       663 1.39681E-04-5.43152E-06 0.00000E+00
 -1       664 1.39900E-04-5.82115E-06 8.27181E-25
 -1       665 1.40143E-04-6.27247E-06-1.65436E-24
 -1       666 1.40407E-04-6.78112E-06-8.27181E-25
 -1       667 1.40691E-04-7.34297E-06 0.00000E+00
 -1       668 1.40993E-04-7.95394E-06 0.00000E+00
 -1       669 1.41313E-04-8.61010E-06 1.65436E-24
 -1       670 1.41648E-04-9.30761E-06-8.27181E-25
 -1       671 1.41996E-04-1.00427E-05 0.00000E+00
 -1       672 1.42358E-04-1.08118E-05 0.00000E+00
 -1       673 1.42730E-04-1.16113E-05-1.65436E-24
 -1       674 1.43112E-04-1.24379E-05-8.27181E-25
 -1       675 1.43503E-04-1.32878E-05 0.00000E+00
 -1       676 1.39357E-04-1.36995E-05 3.30872E-24
 -1       677 1.40268E-04-1.37920E-05 0.00000E+00
 -1       678 1.41178E-04-1.38846E-05 0.00000E+00
 -1       679 1.42086E-04-1.39768E-05 0.00000E+00
 -1       680 1.42993E-04-1.40691E-05-1.65436E-24
 -1       771 1.73564E-05 9.44609E-06 0.00000E+00
 -1       772 1.00683E-05 2.48848E-05 5.29396E-23
 -1       773 4.03292E-06 3.71165E-05 0.00000E+00
 -1       774-8.34489E-07 4.63305E-05 0.00000E+00
 -1       775-4.61737E-06 5.27220E-05-5.29396E-23
 -1       776-7.40248E-06 5.64968E-05-2.64698E-23
 -1       777-9.27688E-06 5.78665E-05 0.00000E+00
 -1       778-1.03295E-05 5.70514E-05 0.00000E+00
 -1       779-1.06493E-05 5.42766E-05 5.29396E-23
 -1       780-1.03268E-05 4.97744E-05-2.64698E-23
 -1       781-9.45222E-06 4.37809E-05 5.29396E-23
 -1       782-8.11695E-06 3.65377E-05 0.00000E+00
 -1       783-6.41216E-06 2.82891E-05-5.29396E-23
 -1       784-4.42987E-06 1.92831E-05 0.00000E+00
 -1       785-2.26177E-06 9.76957E-06 0.00000E+00
 -1       786 1.45185E-04 2.53128E-05-8.27181E-25
 -1       787 1.45258E-04 2.37049E-05 0.00000E+00
 -1       788 1.45330E-04 2.20938E-05 1.65436E-24
 -1       789 1.45403E-04 2.04815E-05 0.00000E+00
 -1       790 1.45476E-04 1.88695E-05 0.00000E+00
 -1       791 1.45549E-04 1.72595E-05 0.00000E+00
 -1       792 1.45622E-04 1.56535E-05-1.65436E-24
 -1       793 1.45695E-04 1.40534E-05-8.27181E-25
 -1       794 1.45768E-04 1.24624E-05 0.00000E+00
 -1       795 1.45842E-04 1.08834E-05 8.27181E-25
 -1       796 1.45915E-04 9.32161E-06-1.65436E-24
 -1       797 1.45988E-04 7.78224E-06-8.27181E-25
 -1       798 1.46061E-04 6.27438E-06 1.65436E-24
 -1       799 1.46134E-04 4.80726E-06 8.27181E-25
 -1       800 1.46208E-04 3.39711E-06 0.00000E+00
 -1       801 1.02550E-04 2.45282E-05 0.00000E+00
 -1       802-2.60184E-05 1.50992E-05 0.00000E+00
 -1       803-1.30917E-04 7.87145E-06 0.00000E+00
 -1       804-1.04481E-04 5.58033E-06-1.32349E-23
 -1       805-3.12857E-05 1.78069E-06 2.64698E-23
 -1       806 1.45621E-04 2.52528E-05 1.65436E-24
 -1       807 1.46126E-04 2.35788E-05 1.65436E-24
 -1       808 1.46631E-04 2.19011E-05 0.00000E+00
 -1       809 1.47134E-04 2.02263E-05-1.65436E-24
 -1       810 1.47634E-04 1.85613E-05 3.30872E-24
 -1       811 1.48128E-04 1.69124E-05-1.65436E-24
 -1       812 1.48613E-04 1.52863E-05 0.00000E+00
 -1       813 1.49087E-04 1.36896E-05-1.65436E-24
 -1       814 1.49547E-04 1.21286E-05-1.65436E-24
 -1       815 1.49992E-04 1.06101E-05 1.65436E-24
 -1       816 1.50419E-04 9.14047E-06 1.65436E-24
 -1       817 1.50825E-04 7.72631E-06 8.27181E-25
 -1       818 1.51208E-04 6.37412E-06-1.65436E-24
 -1       819 1.51565E-04 5.09043E-06-8.27181E-25
 -1       820 1.51895E-04 3.88169E-06 1.65436E-24
 -1       821 1.46161E-04 5.50599E-07 0.00000E+00
 -1       822 1.46034E-04-1.37644E-06 0.00000E+00
 -1       823 1.45907E-04-3.52612E-06 0.00000E+00
 -1       824 1.45778E-04-5.70253E-06 1.65436E-24
 -1       825 1.45650E-04-7.70318E-06 3.30872E-24
 -1       826 1.45522E-04-9.32648E-06 0.00000E+00
 -1       827 1.45395E-04-1.04674E-05 3.30872E-24
 -1       828 1.45268E-04-1.10237E-05 0.00000E+00
 -1       829 1.45141E-04-1.10426E-05 0.00000E+00
 -1       830 1.45015E-04-1.05743E-05 0.00000E+00
 -1       831 1.44888E-04-9.79385E-06 0.00000E+00
 -1       832 1.44761E-04-8.87779E-06 0.00000E+00
 -1       833 1.44635E-04-8.03751E-06-3.30872E-24
 -1       834 1.44510E-04-7.48392E-06-1.65436E-24
 -1       835 1.44384E-04-7.35485E-06 8.27181E-25
 -1       836 1.47463E-04 2.17547E-06 0.00000E+00
 -1       837 1.48500E-04 2.29341E-06 0.00000E+00
 -1       838 1.49441E-04 2.41127E-06 0.00000E+00
 -1       839 1.50338E-04 2.52849E-06 8.27181E-25
 -1       840 1.51239E-04 2.64552E-06 4.13590E-25
 -1       856 1.44246E-04-8.43150E-06 0.00000E+00
 -1       857 1.44224E-04-8.95456E-06 5.16988E-26
 -1       858 1.44201E-04-9.37391E-06-4.13590E-25
 -1       859 1.44178E-04-9.70872E-06 0.00000E+00
 -1       860 1.44155E-04-9.97824E-06 0.00000E+00
 -1       861 1.44132E-04-1.02017E-05 0.00000E+00
 -1       862 1.44109E-04-1.03986E-05 8.27181E-25
 -1       863 1.44085E-04-1.05881E-05 0.00000E+00
 -1       864 1.44062E-04-1.07897E-05-8.27181E-25
 -1       865 1.44039E-04-1.10228E-05 4.13590E-25
 -1       866 1.44016E-04-1.13066E-05 0.00000E+00
 -1       867 1.43992E-04-1.16604E-05 4.13590E-25
 -1       868 1.43969E-04-1.21035E-05 8.27181E-25
 -1       869 1.43945E-04-1.26550E-05 4.13590E-25
 -1       870 1.43922E-04-1.33340E-05 0.00000E+00
 -1       871 1.45161E-04-7.78959E-06-4.13590E-25
 -1       872 1.46180E-04-7.79641E-06 0.00000E+00
 -1       873 1.47268E-04-7.80380E-06 0.00000E+00
 -1       874 1.48366E-04-7.81184E-06-5.16988E-26
 -1       875 1.49416E-04-7.82039E-06 0.00000E+00
 -1       876 1.44620E-04-8.41921E-06 3.30872E-24
 -1       877 1.44954E-04-8.99197E-06-1.65436E-24
 -1       878 1.45267E-04-9.51120E-06 3.30872E-24
 -1       879 1.45564E-04-9.98366E-06 1.65436E-24
 -1       880 1.45846E-04-1.04161E-05 3.30872E-24
 -1       881 1.46115E-04-1.08153E-05 0.00000E+00
 -1       882 1.46374E-04-1.11880E-05 3.30872E-24
 -1       883 1.46626E-04-1.15409E-05 0.00000E+00
 -1       884 1.46873E-04-1.18806E-05 0.00000E+00
 -1       885 1.47118E-04-1.22140E-05 0.00000E+00
 -1       886 1.47362E-04-1.25477E-05-3.30872E-24
 -1       887 1.47610E-04-1.28885E-05 1.65436E-24
 -1       888 1.47862E-04-1.32431E-05-3.30872E-24
 -1       889 1.48121E-04-1.36183E-05 0.00000E+00
 -1       890 1.48390E-04-1.40208E-05 0.00000E+00
 -1       891 1.44821E-04-1.42096E-05 0.00000E+00
 -1       892 1.45724E-04-1.42601E-05-4.13590E-25
 -1       893 1.46583E-04-1.43105E-05 0.00000E+00
 -1       894 1.47375E-04-1.43607E-05 8.27181E-25
 -1       895 1.48077E-04-1.44107E-05-4.13590E-25
 -1       956 1.52083E-04 1.79542E-06 3.30872E-24
 -1       957 1.51968E-04 9.22661E-07-8.27181E-25
 -1       958 1.51853E-04 1.26530E-07-1.65436E-24
 -1       959 1.51738E-04-6.02987E-07 8.27181E-25
 -1       960 1.51623E-04-1.27594E-06 0.00000E+00
 -1       961 1.51508E-04-1.90240E-06 0.00000E+00
 -1       962 1.51393E-04-2.49247E-06 3.30872E-24
 -1       963 1.51278E-04-3.05625E-06-1.65436E-24
 -1       964 1.51163E-04-3.60385E-06 3.30872E-24
 -1       965 1.51047E-04-4.14537E-06 0.00000E+00
 -1       966 1.50932E-04-4.69092E-06-3.30872E-24
 -1       967 1.50817E-04-5.25061E-06 1.65436E-24
 -1       968 1.50702E-04-5.83453E-06 0.00000E+00
 -1       969 1.50587E-04-6.45276E-06 1.65436E-24
 -1       970 1.50473E-04-7.11536E-06 0.00000E+00
 -1       971 1.50255E-04-8.54444E-06 1.65436E-24
 -1       972 1.50149E-04-9.17160E-06 0.00000E+00
 -1       973 1.50042E-04-9.72291E-06-3.30872E-24
 -1       974 1.49936E-04-1.02082E-05 0.00000E+00
 -1       975 1.49830E-04-1.06372E-05 0.00000E+00
 -1       976 1.49723E-04-1.10198E-05 0.00000E+00
 -1       977 1.49617E-04-1.13658E-05 3.30872E-24
 -1       978 1.49510E-04-1.16851E-05 0.00000E+00
 -1       979 1.49404E-04-1.19875E-05 3.30872E-24
 -1       980 1.49297E-04-1.22829E-05-1.65436E-24
 -1       981 1.49191E-04-1.25811E-05 3.30872E-24
 -1       982 1.49085E-04-1.28920E-05 0.00000E+00
 -1       983 1.48979E-04-1.32254E-05 0.00000E+00
 -1       984 1.48873E-04-1.35912E-05 0.00000E+00
 -1       985 1.48768E-04-1.39992E-05 0.00000E+00
 -3
    1PSTEP                        22          11           1          
  100CL  111 5.91309E-01         409                     0   11           1
 -4  STRESS      6    1
 -5  SXX         1    4    1    1
 -5  SYY         1    4    2    2
 -5  SZZ         1    4    3    3
 -5  SXY         1    4    1    2
 -5  SYZ         1    4    2    3
 -5  SZX         1    4    3    1
 -1         1-3.37994E+06-1.32605E+06-7.35948E+05-1.44589E+06-2.76486E-10 3.01516E-08
 -1         2 1.48652E+03-1.25137E+06 4.85294E+03 4.33806E+03 1.93694E-10-4.15156E-09
 -1         3-7.42842E+02-1.36051E+06 3.39204E+02-1.37022E+03-3.10770E-10 8.89486E-09
 -1         5-4.00004E+01 3.53651E+05 9.73032E+00-8.18580E-01-4.39924E-10 1.10704E-08
 -1         8-8.98117E+05-3.08675E+05-9.02446E+04-3.86074E+05-2.03727E-10-4.24880E-08
 -1         9 1.52242E+06-7.35012E+05 3.39757E+05-8.40315E+05 2.06463E-08 5.75092E-09
 -1        10-1.58008E+03-1.41751E+06-2.59242E+03-9.27248E+03-9.75524E-09-3.60120E-08
 -1        12-3.60854E+01 3.53672E+05 3.17603E+02-5.76547E+00-4.51237E-10 1.91903E-09
 -1        15 1.59491E+03 8.76495E+02 5.15553E+03 2.89015E+00-1.56604E-10 2.35261E-08
 -1        16 5.20768E+06-6.31234E+05 7.47946E+05-1.09092E+06 1.27087E-08 1.08266E-07
 -1        17 1.60417E+06 1.06146E+06 4.79251E+05 1.14934E+06 1.94123E-09 1.80677E-08
 -1        18 8.22582E+04 1.94829E+04-6.59620E+03-1.03407E+05 1.40810E-08 7.53698E-09
 -1        19 1.07313E+05 1.30189E+05-4.73980E+02 1.82450E+04 1.11959E-09-6.82085E-09
 -1        20-6.41697E+04-4.99449E+05-1.11566E+05 2.55295E+04-1.47353E-09-3.12199E-09
 -1        21-4.16844E+01-2.64019E+05-8.32881E+02 1.65062E+02-1.11406E-09-1.19383E-08
 -1        24 2.23556E+06 2.57380E+06 9.12769E+05 2.22730E+06-9.49707E-08-3.85432E-08
 -1        25 2.20009E+05 6.38928E+05 1.87449E+05-4.57407E+05 2.84504E-08-6.42904E-09
 -1        26-3.38854E+04 8.92506E+04-1.81252E+04-5.55890E+03 2.69210E-11-8.39714E-10
 -1        27-7.37942E+04-2.72239E+05-1.00360E+05 5.97001E+04 3.75091E-09 7.58034E-09
 -1        28 1.99992E+04-7.51482E+04 1.50178E+04 1.99356E+04-2.46334E-09 3.60924E-09
 -1        32-1.18013E+06-1.33886E+06 1.71128E+05 3.21527E+04-1.90489E-08 8.18144E-09
 -1        33-1.50420E+05 8.41797E+04 2.87918E+04-4.35672E+04-2.12606E-09 6.32432E-09
 -1        34-1.95305E+05-2.18277E+04 5.56007E+02 6.49823E+04-2.90132E-09 2.20643E-09
 -1        35-2.05689E+04-2.97793E+04-1.18198E+03 4.59298E+04-2.28648E-09 1.00445E-08
 -1        51 3.59947E+04-2.74178E+05 8.05792E+04-7.86719E+05 1.45519E-11 1.29949E-08
 -1        52 1.46479E+04-2.63395E+05 4.55705E+04-9.17337E+05 9.82254E-10-9.77889E-08
 -1        53 5.93970E+03-2.78163E+05 2.89522E+04-7.83886E+05 9.42237E-10-1.29425E-07
 -1        54 1.52404E+04-2.75488E+05 3.43377E+04-9.20284E+05 5.09317E-11 1.33477E-08
 -1        55 3.10690E+04-2.86940E+05 5.40736E+04-7.83452E+05 7.13044E-10 1.04410E-09
 -1        56-6.41858E+06-7.20134E+05-5.43350E+05-2.49491E+06-5.31145E-09 4.43833E-08
 -1        57-6.70168E+06-1.14875E+06-3.66589E+05-2.39960E+06 1.35333E-09-2.14459E-08
 -1        58-6.51655E+06-9.04069E+05-1.27699E+05-2.47334E+06-3.49246E-10-6.96673E-08
 -1        59-6.59093E+06-9.30250E+05-7.62077E+04-2.42241E+06-4.12774E-09-5.11245E-08
 -1        60-6.52772E+06-9.32770E+05-2.97384E+04-2.47397E+06-1.74305E-09-4.23115E-08
 -1        61-6.57601E+06-8.98503E+05-1.68797E+04-2.42380E+06-1.31917E-09-4.04973E-08
 -1        62-6.53113E+06-9.35011E+05-8.05258E+03-2.47215E+06-7.41466E-09-3.21534E-08
 -1        63-6.56621E+06-9.02172E+05-6.51350E+03-2.43237E+06-3.25815E-09 7.63737E-09
 -1        64-6.53732E+06-9.29107E+05-7.37723E+03-2.46531E+06 5.30736E-09-1.03024E-08
 -1        65-6.55310E+06-9.19804E+05-1.46472E+04-2.44856E+06-1.77831E-08-2.09816E-08
 -1        66-6.54414E+06-9.17554E+05-2.57569E+04-2.45584E+06 1.37152E-08 3.38687E-08
 -1        67-6.55168E+06-9.61462E+05-6.55397E+04-2.46393E+06 7.76254E-09 4.99858E-08
 -1        68-6.53910E+06-8.88088E+05-1.09882E+05-2.44982E+06-7.62157E-09-4.27390E-08
 -1        69-6.64473E+06-1.15221E+06-3.15356E+05-2.44802E+06 4.38376E-10-9.81527E-08
 -1        70-6.45286E+06-7.31660E+05-4.67450E+05-2.47041E+06 3.25963E-09 3.00934E-08
 -1        86-7.55797E+02-1.25362E+06 5.05551E+03-2.16904E+03-1.36822E-09-8.69750E-09
 -1        87 4.90028E+03-1.24997E+06 1.06954E+04 7.67690E+03-2.50611E-09 6.74336E-08
 -1        88-4.13960E+03-1.25503E+06 1.63198E+04-5.50795E+03-2.44745E-09-4.25114E-08
 -1        89 3.08116E+04-1.23830E+06 4.39960E+04 1.18134E+04-3.73893E-09-1.87712E-08
 -1        90-2.65535E+04-1.26529E+06 6.22333E+04-6.30581E+03-2.80852E-09 3.33157E-08
 -1       121-1.03395E+03-1.36305E+06-1.16026E+02 6.81647E+02 1.01659E-09-2.16023E-08
 -1       122-6.10536E+02-1.36050E+06 6.85437E+02-2.73934E+03-3.80146E-09-1.81517E-08
 -1       123-1.08065E+03-1.36315E+06 6.46701E+02 2.03705E+03 3.02452E-09 3.58705E-09
 -1       124 7.36089E+02-1.35991E+06 2.74119E+03-5.78582E+03-7.18637E-09 1.05592E-08
 -1       125-1.84688E+03-1.36390E+06 3.71062E+03 3.71243E+03 4.69390E-09-1.71567E-08
 -1       191-4.23010E+01 3.53674E+05 9.96224E+00 4.20589E-01-4.21318E-10 3.75985E-09
 -1       192-4.09159E+01 3.53652E+05 2.06826E+01-2.83033E+00-5.42719E-10 1.17752E-08
 -1       193-4.47236E+01 3.53674E+05 3.68412E+01 2.47984E+00-7.94117E-10 9.85528E-09
 -1       194-4.38567E+01 3.53655E+05 7.84272E+01-6.50076E+00-3.94480E-10-7.47605E-09
 -1       195-4.93758E+01 3.53671E+05 1.51777E+02 4.17316E+00-1.08509E-09 3.00497E-09
 -1       251-1.83119E+06-7.52668E+03-1.32916E+05-9.99352E+04 2.36469E-11 2.32940E-08
 -1       252-1.33562E+06 1.10218E+04 9.12816E+03 3.07166E+05 1.60799E-09 1.58730E-07
 -1       253-1.60569E+06-6.03579E+03-2.43951E+04-2.05808E+05-3.45699E-09 6.99310E-09
 -1       254-1.56452E+06 3.14535E+04 9.14428E+02 4.05768E+05 1.88600E-08-5.44555E-08
 -1       255-1.62540E+06-9.13432E+03-1.36786E+04-2.00101E+05 2.32740E-09 2.93535E-08
 -1       256-1.28516E+06 2.66031E+04 6.04840E+04 2.85397E+05 7.14817E-09 4.07163E-08
 -1       257-1.85780E+06-2.32919E+04-6.02530E+04-8.37185E+04 1.27238E-08 4.40282E-08
 -1       258-1.03570E+06 2.06950E+04 1.08575E+05-6.75472E+03 9.88257E-09 5.10474E-08
 -1       259-1.85040E+06-2.30500E+04-5.73317E+04 9.08981E+04 3.83443E-09-4.95265E-09
 -1       260-1.30170E+06 2.83692E+04 6.11154E+04-2.94286E+05 3.10197E-08-6.82608E-08
 -1       261-1.61793E+06-9.78055E+03-5.11772E+03 2.02846E+05 4.01824E-08 1.56051E-09
 -1       262-1.56145E+06 3.96928E+04 1.77515E+04-4.05540E+05-1.16481E-08 6.11035E-08
 -1       263-1.61628E+06-1.35415E+04 1.26861E+03 2.03828E+05 1.13896E-08 6.01890E-08
 -1       264-1.29446E+06 6.28873E+04 8.65596E+04-2.98676E+05 9.43487E-08 8.10105E-08
 -1       265-1.86003E+06-5.30662E+04-2.92240E+04 9.43355E+04 3.11247E-08 2.27665E-08
 -1       266-2.88728E+04-1.35001E+04 6.77476E+04-6.18434E+01-6.54836E-11-7.39760E-10
 -1       267 3.34719E+04 1.57359E+04 4.78811E+04 7.13511E+01-5.91172E-11-1.70871E-08
 -1       268-4.48850E+03-2.22857E+03 1.77973E+04-9.09159E+00-1.40972E-10-8.31444E-08
 -1       269 5.29963E+03 2.66721E+03 1.15678E+04 1.05901E+01 1.19257E-10 1.75499E-09
 -1       270-7.95478E+02-4.38237E+02 5.58397E+03-1.43716E+00-9.43601E-11-2.87693E-09
 -1       271-2.64363E+06-3.25570E+05-1.98278E+05-1.02238E+06 1.72804E-09-4.30082E-08
 -1       272-2.74296E+06-4.43159E+05-1.27640E+05-9.89730E+05 9.03810E-10-1.49545E-07
 -1       273-2.68048E+06-3.75660E+05-4.68147E+04-1.01405E+06-3.97586E-09-3.23325E-08
 -1       274-2.69919E+06-3.82217E+05-2.62461E+04-1.00256E+06 4.72778E-09 2.03913E-08
 -1       275-2.68623E+06-3.80280E+05-1.09144E+04-1.01180E+06 4.02451E-09-5.39758E-08
 -1       276-2.69120E+06-3.77768E+05-5.75550E+03-1.00671E+06-1.06702E-08-6.05562E-08
 -1       277-2.68826E+06-3.79519E+05-2.85101E+03-1.01006E+06 9.71249E-09 4.58840E-10
 -1       278-2.68764E+06-3.79941E+05-1.92951E+03-1.01015E+06 1.25415E-08 7.51731E-08
 -1       279-2.68977E+06-3.78066E+05-2.05884E+03-1.00837E+06-4.72937E-09-2.49429E-09
 -1       280-2.68507E+06-3.83223E+05-3.54108E+03-1.01345E+06 8.15999E-09 5.65933E-08
 -1       281-2.69088E+06-3.76240E+05-6.49554E+03-1.00678E+06-3.85990E-09 1.48154E-08
 -1       282-2.68541E+06-3.90172E+05-1.54020E+04-1.01604E+06 8.62747E-09-9.62432E-08
 -1       283-2.68959E+06-3.71436E+05-2.74502E+04-1.00571E+06-1.49566E-08 2.27792E-08
 -1       284-2.70712E+06-4.29824E+05-7.47545E+04-1.01312E+06 4.94038E-09-4.86434E-08
 -1       285-2.66990E+06-3.40229E+05-1.16173E+05-1.00845E+06-1.76442E-09 1.79862E-08
 -1       301 2.15397E+04-2.69262E+05 1.73142E+05-5.00723E+05 5.82077E-10-1.06775E-08
 -1       302 2.30709E+04-2.25787E+05 1.09116E+05-7.32655E+05-6.91216E-10 3.23889E-08
 -1       303-2.42849E+02-2.52657E+05 7.51254E+04-4.99604E+05-6.18456E-11 7.45185E-08
 -1       304 1.87940E+04-2.26223E+05 9.90065E+04-7.32112E+05 1.16415E-10-1.88011E-08
 -1       305 1.59915E+04-2.63385E+05 1.50398E+05-5.01300E+05-4.36557E-11-2.36541E-08
 -1       306-1.38158E+07-2.24867E+06-2.94495E+06-1.98262E+06-4.46453E-08-9.44419E-08
 -1       307 5.60981E+06-1.37439E+06 1.58620E+06-6.34428E+06-4.81785E-07-4.33283E-09
 -1       308-8.01844E+06 2.84162E+05-3.10854E+05 1.25160E+06-4.03961E-08 7.73289E-08
 -1       309-3.30124E+06-9.88942E+05 4.69539E+05-1.04760E+07 2.64823E-07 1.62763E-08
 -1       310-8.44008E+06 2.02313E+05-3.42538E+05 1.12267E+06 1.23982E-08 7.30869E-08
 -1       311 6.56764E+06-1.65609E+06 1.93846E+06-5.54818E+06 3.03917E-07-6.40539E-08
 -1       312-1.38958E+07-2.24256E+06-2.40555E+06-2.42816E+06 8.92323E-08 1.14218E-07
 -1       313 1.09651E+07 2.28673E+06 3.24643E+06 4.35974E+06-7.57864E-08 8.60600E-08
 -1       314-1.05637E+07-5.28528E+06-2.32946E+06-5.65640E+06 2.86265E-07-2.27301E-08
 -1       315-3.60108E+06 7.79899E+06 1.82522E+06 4.23798E+06-9.01928E-08-5.93573E-08
 -1       316-3.06932E+06-4.80680E+06-2.53133E+05-4.29980E+06-4.69241E-07-2.39248E-07
 -1       317-1.26999E+07 8.38429E+06 4.53690E+05-3.31144E+05 4.56410E-07-3.46809E-07
 -1       318-3.20279E+06-4.86887E+06-4.24081E+05-4.33265E+06-4.27928E-07-1.86119E-08
 -1       319-3.11429E+06 7.99666E+06 1.63216E+06 4.30452E+06-6.33881E-08 7.94535E-08
 -1       320-1.08408E+07-5.47083E+06-3.12245E+06-5.58705E+06 9.81963E-08-1.97142E-08
 -1       336 1.16628E+02-1.47556E+06-9.94454E+03 5.49939E+03-1.87902E-08 1.05356E-08
 -1       337-3.81311E+03-1.47618E+06-1.20292E+04-1.33940E+04-3.48959E-08-9.98443E-09
 -1       338 3.60029E+02-1.47547E+06-1.76117E+04 7.79878E+03-2.49202E-08 1.39480E-08
 -1       339-1.85263E+04-1.48610E+06-3.92659E+04-1.78861E+04-4.51300E-08 2.75450E-08
 -1       340 1.21781E+04-1.46663E+06-6.15124E+04 9.93181E+03-2.93912E-08 3.15667E-08
 -1       406-1.34494E+01 3.53657E+05 6.25313E+02 1.81970E+00-1.37189E-09-3.82897E-09
 -1       407 1.82735E+02 3.53782E+05 1.33265E+03 1.81094E+01-3.95843E-10-1.53668E-08
 -1       408 6.48791E+02 3.53560E+05 2.65937E+03-2.03668E+01-1.75692E-09-5.97356E-09
 -1       409 2.84453E+03 3.54631E+05 5.99043E+03 2.10869E+02-1.84230E-10-1.59807E-08
 -1       410 8.23734E+03 3.52799E+05 1.22277E+04-2.02509E+02-2.12003E-09-1.76633E-08
 -1       521-1.60061E+07-2.90180E+06-3.71734E+06-2.07379E+06-3.71365E-08 5.46570E-08
 -1       522 6.34336E+06-1.51375E+06 1.73922E+06-8.24950E+06-3.01778E-07-1.10129E-07
 -1       523-9.43148E+06 2.12129E+05-3.70623E+05 1.60197E+06 7.96572E-08-1.70717E-07
 -1       524-4.87744E+06-3.75081E+05 5.69619E+05-1.30789E+07 5.09594E-07-3.38890E-07
 -1       525-9.96419E+06 8.00601E+04-4.17998E+05 1.44472E+06 2.87371E-07-2.22833E-07
 -1       526 7.76106E+06-1.89463E+06 2.23403E+06-7.18769E+06 1.06986E-07-1.74972E-07
 -1       527-1.61407E+07-2.97183E+06-2.99891E+06-2.63163E+06 2.26428E-08 7.13626E-08
 -1       528 1.32000E+07 2.64399E+06 3.69663E+06 5.39987E+06 8.17527E-08 1.09430E-08
 -1       529-1.21598E+07-6.60049E+06-2.89788E+06-6.44239E+06 1.54832E-07-4.18222E-08
 -1       530-4.97951E+06 9.96330E+06 2.10776E+06 4.87471E+06-1.44864E-07 1.86978E-07
 -1       531-3.52110E+06-5.93027E+06-2.93233E+05-5.00061E+06-4.35888E-07 3.98722E-08
 -1       532-1.58487E+07 1.05777E+07 5.74057E+05-1.37674E+06 1.51093E-07-3.57948E-07
 -1       533-3.64141E+06-5.99451E+06-4.73010E+05-5.02204E+06-3.80387E-08-5.69416E-07
 -1       534-4.48799E+06 1.02412E+07 1.90535E+06 4.92041E+06-1.05501E-07 4.28117E-07
 -1       535-1.24560E+07-6.86090E+06-3.76778E+06-6.35660E+06 1.96742E-08 2.67697E-07
 -1       536-6.40046E+05-4.53134E+04-1.42258E+04-4.19438E+04-6.51198E-09 5.53355E-08
 -1       537-1.23450E+05 4.52204E+04 8.16324E+04 1.00769E+05-8.89020E-08 9.82436E-08
 -1       538-4.00483E+05 6.84380E+02 7.73663E+03-6.11662E+04 1.96286E-08 9.83068E-08
 -1       539-3.05549E+05 3.24069E+03 2.12719E+04 1.16974E+05 1.34871E-07 8.76996E-08
 -1       540-4.62426E+05 3.67610E+02-1.23688E+04-5.85164E+04 1.88882E-08 9.56342E-08
 -1       541-7.13094E+03 1.20910E+04 7.69826E+04 8.15788E+04-6.01591E-08 6.34033E-08
 -1       542-6.90868E+05-1.48486E+04-6.12927E+04-2.52305E+04 3.02248E-08 3.41822E-08
 -1       543 1.95855E+05 2.04326E+04 1.16866E+05-9.08613E+03-1.45328E-08-3.00338E-08
 -1       544-6.59987E+05-1.24564E+04-5.59841E+04 3.17546E+04-2.05346E-08-4.18775E-08
 -1       545-7.82322E+04 6.94270E+03 5.93965E+04-9.30808E+04 6.94456E-09-7.51071E-08
 -1       546-4.24109E+05 4.69760E+03-9.89527E+03 5.85307E+04 2.56473E-08-8.84072E-08
 -1       547-3.16440E+05-4.70709E+03 5.91909E+03-1.19218E+05-8.80858E-08-9.18990E-08
 -1       548-4.28148E+05 4.49358E+03-2.01764E+04 5.83288E+04-8.47656E-08-8.01215E-08
 -1       549-7.09038E+04 6.19182E+03 3.68722E+04-9.17555E+04-6.10053E-08-6.29188E-08
 -1       550-6.63046E+05-1.16945E+04-1.06397E+05 3.06207E+04 2.09548E-09-3.81588E-08
 -1       551 3.02095E+04-7.11188E+05 1.29260E+04-1.09941E+06-7.55826E-08 2.88128E-09
 -1       552 6.47715E+04-7.36077E+05 2.59008E+04-1.56757E+06-5.52536E-08 4.35393E-08
 -1       553 4.77313E+04-7.37031E+05 4.28294E+04-1.09467E+06-8.87740E-08 3.33457E-08
 -1       554 9.53424E+04-7.38171E+05 9.36049E+04-1.56921E+06-5.46861E-08 1.90275E-08
 -1       555 7.60899E+04-7.56611E+05 1.67132E+05-1.09531E+06-8.77917E-08-1.31295E-08
 -1       556 1.42945E+05-2.54800E+05 5.79500E+04-2.97514E+05-1.59780E-08-1.73604E-08
 -1       557 2.39576E+05-3.31356E+05 3.14412E+04-3.77425E+05-4.19095E-09 4.30555E-09
 -1       558 1.36061E+05-2.58628E+05 1.10119E+04-2.93424E+05-1.64728E-08-1.21072E-08
 -1       559 2.22406E+05-3.37950E+05 6.07572E+03-3.88307E+05 2.37778E-08 1.44737E-08
 -1       560 1.28645E+05-2.53909E+05 1.45061E+03-2.98591E+05 5.42786E-09 3.56522E-10
 -1       561 2.12484E+05-3.34354E+05 1.13676E+03-3.94911E+05-3.78350E-10-8.45102E-09
 -1       562 1.22632E+05-2.50106E+05-1.88303E+02-3.02934E+05 3.09956E-09 8.30005E-09
 -1       563 2.05251E+05-3.31208E+05 2.08248E+02-3.99609E+05-3.21597E-09-3.09228E-09
 -1       564 1.18301E+05-2.47391E+05-2.30104E+02-3.06005E+05-5.55883E-09 6.03359E-09
 -1       565 2.00416E+05-3.29111E+05 1.32415E+01-4.02697E+05-1.35624E-08 6.89442E-09
 -1       566 1.15728E+05-2.45751E+05-2.12107E+02-3.07814E+05-7.22503E-09 3.28146E-09
 -1       567 1.97961E+05-3.28059E+05-3.80425E+02-4.04172E+05 1.68875E-08-8.65111E-09
 -1       568 1.14964E+05-2.45286E+05-9.76094E+02-3.08415E+05 5.00677E-09-5.28235E-09
 -1       569 1.96827E+05-3.28033E+05-2.41006E+03-4.03372E+05 3.65071E-09-1.34969E-09
 -1       570 1.16820E+05-2.47326E+05-4.99260E+03-3.07960E+05 1.17070E-08-2.89447E-09
 -1       571 2.51364E+05 8.94440E+03 1.28623E+04-8.72117E+04-6.00267E-11 1.74514E-08
 -1       572 2.53232E+05 3.32177E+03 6.30374E+03-9.56403E+04 6.92216E-09 3.67618E-09
 -1       573 2.52096E+05 1.00108E+03 2.80060E+03-8.70247E+04-5.90444E-09-5.33146E-09
 -1       574 2.52281E+05 5.52821E+02 1.40439E+03-9.58668E+04-2.07781E-08 7.43148E-09
 -1       575 2.52166E+05 3.22712E+02 6.62318E+02-8.69995E+04-1.25997E-08 3.87354E-09
 -1       576 2.52152E+05 3.29572E+02 3.38176E+02-9.58969E+04-6.12829E-09-3.80533E-09
 -1       577 2.52189E+05 2.79721E+02 1.67158E+02-8.69961E+04-5.45879E-09-1.25510E-10
 -1       578 2.52166E+05 3.04148E+02 9.28935E+01-9.59008E+04-3.91447E-09 4.13638E-09
 -1       579 2.52239E+05 2.55699E+02 5.78180E+01-8.69959E+04-7.60338E-09 3.60978E-09
 -1       580 2.52238E+05 2.67369E+02 5.78403E+01-9.58961E+04-3.10029E-08 9.87711E-10
 -1       581 2.52325E+05 2.10732E+02 7.86347E+01-8.70013E+04-4.43288E-09 3.19687E-09
 -1       582 2.52367E+05 2.29276E+02 1.55070E+02-9.58417E+04 5.43150E-09-8.13998E-10
 -1       583 2.52438E+05 2.12793E+02 2.92226E+02-8.70508E+04-9.40599E-09-3.15208E-09
 -1       584 2.52620E+05 4.47058E+02 6.61625E+02-9.54262E+04-1.83436E-08 6.38238E-09
 -1       585 2.52497E+05 9.87750E+02 1.33482E+03-8.74168E+04-1.23255E-08-2.37560E-09
 -1       586-2.16168E+03 1.09890E+05-1.74168E+03-2.11594E+05-3.48894E-09 1.72804E-09
 -1       587-7.44382E+02 1.09738E+05 8.60700E+02-2.32777E+05-2.01544E-09 2.37657E-09
 -1       588 5.15169E+02 1.09528E+05 3.82409E+03-2.11431E+05-2.69938E-09 2.48779E-08
 -1       589 4.18067E+03 1.11408E+05 9.67586E+03-2.32666E+05-2.85581E-09 3.33675E-08
 -1       590 1.31568E+04 1.08423E+05 2.02076E+04-2.11738E+05-1.25146E-09 1.09831E-08
 -1       591-7.69181E+04-1.74630E+04-2.10317E+04-3.45342E+04-2.56045E-09-4.27463E-09
 -1       592-8.00236E+04-2.14935E+04-1.13921E+04-3.87337E+04 1.29569E-09-4.92537E-09
 -1       593-7.90334E+04-1.59251E+04-4.74222E+03-3.60646E+04 6.96650E-09-3.08387E-09
 -1       594-7.71081E+04-1.84201E+04-2.36500E+03-3.88601E+04 5.97282E-09-8.55681E-09
 -1       595-7.91953E+04-1.59188E+04-1.08612E+03-3.61345E+04 2.63753E-11 1.83529E-08
 -1       596-7.69096E+04-1.82795E+04-5.52375E+02-3.88381E+04 2.42088E-09 2.56097E-08
 -1       597-7.92158E+04-1.59327E+04-3.01419E+02-3.61372E+04 1.89539E-09 1.38501E-08
 -1       598-7.68902E+04-1.82741E+04-2.43498E+02-3.88320E+04-3.70147E-09 8.16897E-09
 -1       599-7.92145E+04-1.59331E+04-3.12548E+02-3.61368E+04 2.55579E-09 1.08613E-08
 -1       600-7.69101E+04-1.82805E+04-5.81834E+02-3.88365E+04 2.02357E-09-2.07484E-09
 -1       601-7.91903E+04-1.59195E+04-1.14854E+03-3.61332E+04 3.59159E-09-9.60358E-09
 -1       602-7.71199E+04-1.84286E+04-2.50343E+03-3.88564E+04-5.38137E-09 3.46108E-09
 -1       603-7.90165E+04-1.59288E+04-5.02073E+03-3.60596E+04 5.04997E-10 2.97359E-09
 -1       604-8.02182E+04-2.16689E+04-1.20607E+04-3.87048E+04 2.13061E-09 1.66901E-08
 -1       605-7.67622E+04-1.75691E+04-2.22660E+04-3.44525E+04 5.45253E-09 1.84727E-08
 -1       606 2.63572E+04-1.26354E+04-2.26632E+04 2.37099E+04 4.83305E-09 1.13146E-08
 -1       607 2.24837E+04-4.12035E+03-1.12860E+04 2.66365E+04 1.92813E-09 2.87173E-09
 -1       608 2.46898E+04-7.37360E+02-5.05264E+03 2.35364E+04-2.84854E-09 2.23963E-10
 -1       609 2.42646E+04-2.45298E+02-2.55243E+03 2.68472E+04-2.58296E-10 1.85798E-08
 -1       610 2.44992E+04-2.72929E+01-1.21810E+03 2.35162E+04 3.01407E-09 1.76510E-09
 -1       611 2.44303E+04-2.51633E+01-6.14366E+02 2.68700E+04 5.70208E-09-1.23964E-09
 -1       612 2.44557E+04-1.39680E+01-2.92699E+02 2.35141E+04 2.49020E-09 6.84463E-09
 -1       613 2.44385E+04-2.03981E+01-1.32217E+02 2.68727E+04 2.10275E-09 1.35028E-08
 -1       614 2.44346E+04-1.85565E+01-3.34825E+01 2.35134E+04-5.41149E-10 4.06499E-09
 -1       615 2.44321E+04-1.81719E+01 4.92011E+01 2.68732E+04-2.84126E-09-4.86057E-09
 -1       616 2.44184E+04-1.50958E+01 1.53312E+02 2.35137E+04 6.27551E-10-9.66656E-09
 -1       617 2.44490E+04 1.56108E+01 3.51926E+02 2.68727E+04 4.02224E-10-7.10293E-09
 -1       618 2.43865E+04 8.72084E+01 7.10216E+02 2.35139E+04-1.19780E-09 8.05744E-09
 -1       619 2.46988E+04 5.65527E+02 1.59537E+03 2.68721E+04-1.09139E-11 4.32010E-12
 -1       620 2.41499E+04 1.77237E+03 3.20683E+03 2.35146E+04 2.88821E-09-1.02978E-08
 -1       621 6.17833E+02 2.82247E+05 4.82279E+03 3.28048E+04 6.73936E-10-8.77571E-09
 -1       622 7.41987E+02 2.83410E+05 3.91436E+03 4.76619E+04 8.56744E-10-1.92376E-08
 -1       623 9.72738E+01 2.82581E+05 4.25570E+03 3.26612E+04 8.58790E-10 8.64020E-11
 -1       624 1.98338E+03 2.84483E+05 7.87251E+03 4.77982E+04 9.61734E-10 1.49157E-10
 -1       625 1.95119E+03 2.81066E+05 1.35841E+04 3.26645E+04 1.24282E-09-3.45426E-09
 -1       626 2.23668E+05 5.40375E+04 3.61826E+03 1.11123E+05 1.12141E-09-7.04676E-09
 -1       627 2.21387E+05 5.56607E+04 1.74362E+03 1.14868E+05 7.31643E-09 4.47676E-09
 -1       628 2.23782E+05 5.23525E+04 7.37286E+02 1.11700E+05-2.35377E-09 1.06043E-08
 -1       629 2.20900E+05 5.52158E+04 3.61548E+02 1.15073E+05-5.13182E-09 3.81358E-09
 -1       630 2.23791E+05 5.22718E+04 1.68500E+02 1.11721E+05 7.03221E-09-5.42320E-09
 -1       631 2.20845E+05 5.52020E+04 9.25962E+01 1.15075E+05 2.29650E-08-5.90819E-09
 -1       632 2.23786E+05 5.22760E+04 6.46274E+01 1.11715E+05 4.85352E-09-2.13117E-09
 -1       633 2.20837E+05 5.52045E+04 7.74633E+01 1.15071E+05-2.07310E-08-1.10779E-08
 -1       634 2.23780E+05 5.22740E+04 1.30131E+02 1.11714E+05-1.17403E-08 4.82260E-09
 -1       635 2.20847E+05 5.52038E+04 2.66445E+02 1.15074E+05-4.53703E-09 4.34920E-09
 -1       636 2.23770E+05 5.22701E+04 5.39654E+02 1.11713E+05-2.82580E-09-3.39924E-09
 -1       637 2.20962E+05 5.52887E+04 1.18715E+03 1.15072E+05 2.28704E-09-1.07048E-09
 -1       638 2.23726E+05 5.25331E+04 2.43976E+03 1.11593E+05-7.33735E-09-1.85810E-09
 -1       639 2.22239E+05 5.70742E+04 5.77245E+03 1.14696E+05-8.52833E-09 3.02389E-08
 -1       640 2.23551E+05 5.78519E+04 1.19792E+04 1.09344E+05-7.63566E-09-1.19167E-09
 -1       656 5.83900E+04-1.48999E+06-1.40950E+05-1.89849E+03-6.03904E-10-9.65713E-10
 -1       657-7.72040E+04-1.55367E+06-1.16689E+05 5.72628E+03-2.91038E-10-3.79028E-09
 -1       658 1.85726E+04-1.50810E+06-7.17624E+04-3.53802E+03 1.09139E-11 4.52325E-09
 -1       659-8.32049E+04-1.55651E+06-1.24574E+05 7.01090E+03-3.63798E-10-3.00920E-10
 -1       660 6.43770E+04-1.48715E+06-1.54508E+05-3.18310E+03-1.59343E-09 9.43908E-09
 -1       661 1.57985E+05 1.67375E+04 1.61189E+04 6.17080E+04-8.62656E-10 4.44379E-09
 -1       662 1.66824E+05 2.89429E+04 1.08623E+04 5.84016E+04-8.78913E-10 6.74072E-09
 -1       663 1.61147E+05 2.19113E+04 3.79930E+03 6.07926E+04 1.11766E-09-8.67885E-10
 -1       664 1.63160E+05 2.28900E+04 2.27222E+03 5.95177E+04-1.77545E-09 7.76083E-09
 -1       665 1.61625E+05 2.26203E+04 8.96373E+02 6.06556E+04-1.61873E-09-7.82705E-10
 -1       666 1.62597E+05 2.20772E+04 5.23867E+02 5.96951E+04 4.43647E-09-1.33300E-09
 -1       667 1.61707E+05 2.27028E+04 2.77533E+02 6.06230E+04 1.45582E-09 6.03839E-09
 -1       668 1.62508E+05 2.20153E+04 2.81082E+02 5.97422E+04-3.53953E-09 1.55683E-09
 -1       669 1.61713E+05 2.26805E+04 3.79174E+02 6.06089E+04-3.40681E-09 9.76982E-09
 -1       670 1.62602E+05 2.22188E+04 8.24348E+02 5.97433E+04-7.35276E-09 2.23342E-09
 -1       671 1.61613E+05 2.25035E+04 1.46327E+03 6.06202E+04-4.17103E-10 9.29992E-09
 -1       672 1.63455E+05 2.36417E+04 3.74339E+03 5.95363E+04 3.91356E-09-2.70029E-09
 -1       673 1.60864E+05 2.12935E+04 6.27321E+03 6.08022E+04 3.80089E-09 6.52426E-09
 -1       674 1.69426E+05 3.37199E+04 1.79401E+04 5.77819E+04-2.54113E-09 1.26649E-08
 -1       675 1.55680E+05 1.27075E+04 2.66291E+04 6.22686E+04-2.86855E-09-3.91083E-09
 -1       676 2.16668E+01-2.63950E+05-1.00384E+03-8.25332E+01 3.23155E-10-9.38325E-09
 -1       677-2.66119E+02-2.64193E+05-1.83717E+03 1.64956E+02 6.60233E-09-1.94819E-08
 -1       678 1.78019E+02-2.63777E+05-3.24765E+03-8.23673E+01 1.64187E-09 9.98099E-11
 -1       679-3.24816E+03-2.66153E+05-7.71495E+03 1.64316E+02 5.96447E-09-1.39309E-10
 -1       680 1.93887E+03-2.61991E+05-1.24339E+04-8.09728E+01 2.09184E-10-8.17625E-09
 -1       771-2.77329E+06-6.03895E+05-1.01609E+05-1.26998E+06-2.25264E-08-2.03436E-08
 -1       772-2.71966E+06-6.69723E+05-5.28474E+04-1.34551E+06-1.78261E-08 8.15271E-09
 -1       773-2.79236E+06-5.88851E+05-2.59469E+04-1.27728E+06-9.34233E-09 1.07248E-08
 -1       774-2.71118E+06-6.58990E+05-1.17873E+04-1.36017E+06 2.05328E-08 2.44472E-09
 -1       775-2.80126E+06-5.82540E+05-8.15642E+03-1.28035E+06-6.66478E-09-9.16771E-10
 -1       776-2.71660E+06-6.57946E+05-3.16271E+03-1.37062E+06-1.08339E-08 1.02154E-08
 -1       777-2.80874E+06-5.77076E+05-3.37662E+03-1.28304E+06-1.00699E-08 4.72937E-11
 -1       778-2.72242E+06-6.57066E+05-1.01062E+03-1.37950E+06-2.82307E-09 5.58612E-09
 -1       779-2.81506E+06-5.72378E+05-1.65314E+03-1.28534E+06-6.35919E-09 5.60249E-10
 -1       780-2.72753E+06-6.56211E+05-3.70533E+02-1.38671E+06-2.58296E-09 4.52019E-10
 -1       781-2.82002E+06-5.68628E+05-7.99958E+02-1.28714E+06-9.34233E-09 3.79077E-09
 -1       782-2.73147E+06-6.55484E+05-2.02300E+02-1.39201E+06-1.88593E-08-6.38056E-09
 -1       783-2.82345E+06-5.66060E+05-4.99359E+02-1.28839E+06-2.68483E-09-1.24212E-08
 -1       784-2.73410E+06-6.55151E+05-6.15930E+02-1.39524E+06-1.25183E-08-4.26098E-10
 -1       785-2.82508E+06-5.64828E+05-1.25503E+03-1.28895E+06-2.56550E-08 4.45107E-09
 -1       786 2.07735E+05-1.12020E+04 2.59181E+04-3.29771E+02-1.18121E-05-1.58670E-08
 -1       787 2.18965E+05 1.29696E+04 1.83361E+04-3.45483E+02-2.35162E-05-3.98834E-08
 -1       788 2.12068E+05-1.75562E+03 6.70810E+03-3.25069E+02-8.56691E-06 8.51651E-09
 -1       789 2.13918E+05 2.03248E+03 4.21435E+03-3.51741E+02 6.47378E-06 3.47214E-08
 -1       790 2.12783E+05-2.73804E+02 1.71404E+03-3.23529E+02 2.21599E-05 3.52206E-08
 -1       791 2.13084E+05 3.19045E+02 1.00474E+03-3.57396E+02 3.78680E-05 7.96013E-08
 -1       792 2.12903E+05-4.34758E+01 4.55405E+02-3.19416E+02 5.34228E-05 6.26136E-08
 -1       793 2.12948E+05 6.08170E+01 2.91929E+02-3.70458E+02 6.88545E-05 1.13060E-07
 -1       794 2.12919E+05-1.57492E+01 2.06362E+02-3.10468E+02 3.44986E-05 3.86094E-08
 -1       795 2.12956E+05 8.05136E+01 2.84172E+02-3.96453E+02 1.09402E-07 1.29504E-08
 -1       796 2.12895E+05-6.31587E+01 4.17011E+02-2.93420E+02 6.59752E-09 7.62773E-09
 -1       797 2.13143E+05 4.65976E+02 9.76117E+02-4.44533E+02-5.53060E-11-5.06638E-09
 -1       798 2.12732E+05-4.00931E+02 1.53833E+03-2.62386E+02 5.81567E-09 1.50537E-08
 -1       799 2.14297E+05 2.96378E+03 4.19201E+03-5.30815E+02 9.80285E-10 2.69199E-08
 -1       800 2.11741E+05-2.55896E+03 5.92023E+03-2.07134E+02 1.04121E-09 1.71060E-08
 -1       801-1.19818E+05-6.86375E+06-1.01246E+06 8.96028E+05 5.29399E-08-4.72301E-08
 -1       802 6.36286E+05 8.34183E+06 2.26965E+06-1.17020E+06-1.39917E-08-3.86963E-08
 -1       803-4.91168E+05-1.17904E+07-1.77402E+06 5.16916E+05 1.39025E-07 2.47760E-08
 -1       804 3.74183E+05 5.64552E+06 1.81056E+06 3.36014E+05-2.35159E-08-1.07460E-07
 -1       805 1.00482E+05-4.15999E+06-1.50054E+05-6.10757E+05-8.92160E-08-6.69532E-08
 -1       806-2.58687E+05-5.83230E+04-2.24288E+04-1.11382E+05-1.87515E-09-1.25010E-08
 -1       807-2.59542E+05-5.55762E+04-1.10187E+04-1.17879E+05 8.09402E-09 2.16448E-09
 -1       808-2.59352E+05-5.01920E+04-4.67392E+03-1.15155E+05-2.09269E-09 1.05370E-08
 -1       809-2.57174E+05-5.25330E+04-2.28481E+03-1.18217E+05-6.17155E-09-9.63382E-09
 -1       810-2.59453E+05-4.99043E+04-1.04631E+03-1.15320E+05 6.44377E-10-2.00157E-09
 -1       811-2.56992E+05-5.24142E+04-5.19068E+02-1.18191E+05-1.18387E-08-6.56826E-09
 -1       812-2.59468E+05-4.99263E+04-2.59634E+02-1.15319E+05-7.81165E-09 3.13389E-09
 -1       813-2.56966E+05-5.24185E+04-1.64856E+02-1.18175E+05-5.09658E-09-1.54196E-08
 -1       814-2.59462E+05-4.99362E+04-1.56594E+02-1.15313E+05-3.94721E-09 1.53705E-09
 -1       815-2.56964E+05-5.24227E+04-2.46687E+02-1.18167E+05-1.33878E-09 1.13305E-08
 -1       816-2.59441E+05-4.99374E+04-4.63843E+02-1.15307E+05 4.92491E-09 3.56249E-09
 -1       817-2.57038E+05-5.24686E+04-9.94190E+02-1.18152E+05-7.05586E-09 9.04402E-09
 -1       818-2.59374E+05-5.00818E+04-2.02714E+03-1.15239E+05-1.93268E-09-2.09106E-08
 -1       819-2.58157E+05-5.36796E+04-4.76940E+03-1.17865E+05 2.90856E-09-2.59329E-08
 -1       820-2.58969E+05-5.37026E+04-9.70781E+03-1.13712E+05 3.66890E-09 1.59298E-09
 -1       821-3.53458E+05 1.94187E+04-4.49508E+04 1.14073E+03 8.28065E-09-4.84579E-09
 -1       822-3.72777E+05-2.24816E+04-3.17812E+04-1.98723E+03 9.98456E-10 5.50790E-09
 -1       823-3.60881E+05 3.04684E+03-1.16357E+04 1.51218E+03-6.44952E-09 3.63525E-09
 -1       824-3.64042E+05-3.52249E+03-7.31349E+03-2.05999E+03 1.07280E-09 6.05121E-09
 -1       825-3.62190E+05 4.74393E+02-3.02031E+03 1.21351E+03 9.31360E-09-2.54590E-09
 -1       826-3.62426E+05-5.53856E+02-1.77383E+03-9.47951E+02 9.79487E-09 4.44879E-09
 -1       827-3.62492E+05 7.66564E+01-9.70170E+02 4.00118E+02 5.41041E-09 1.25409E-08
 -1       828-3.62174E+05-1.62837E+02-7.75154E+02 7.71593E+02-1.65289E-09 1.92166E-08
 -1       829-3.62440E+05 8.26087E+01-9.70111E+02-5.06057E+02 2.04189E-10 2.42713E-09
 -1       830-3.62544E+05-5.73397E+02-1.82819E+03 2.20411E+03-6.00018E-10 1.13646E-08
 -1       831-3.62126E+05 4.90430E+02-3.06282E+03-1.03242E+03-2.55243E-09-3.25247E-09
 -1       832-3.64091E+05-3.59572E+03-7.45556E+03 2.60248E+03-1.86888E-09-3.29453E-09
 -1       833-3.60897E+05 3.10443E+03-1.18639E+04-9.04429E+02-3.32368E-09 4.74120E-09
 -1       834-3.72858E+05-2.29054E+04-3.23595E+04 1.74327E+03-2.73380E-09-1.16415E-09
 -1       835-3.53358E+05 1.97822E+04-4.58155E+04-1.73196E+02 4.89329E-09-6.00267E-11
 -1       836-1.31389E+03 3.39152E+05 2.09664E+04-2.60750E+04-4.90854E-09-4.82260E-09
 -1       837 4.45388E+03 3.45718E+05 1.75938E+04-5.28191E+04-5.17616E-09-1.56660E-08
 -1       838-5.04725E+02 3.41007E+05 1.77123E+04-2.59843E+04-4.26871E-09-3.33762E-09
 -1       839 1.10486E+04 3.50619E+05 3.32961E+04-5.28568E+04-4.74165E-09-4.28083E-09
 -1       840-3.42981E+03 3.34184E+05 5.29969E+04-2.60412E+04-4.43106E-09-3.30510E-09
 -1       856-6.26044E+04 7.51721E+03-1.98092E+04-3.72362E+02 2.47991E-09-5.50608E-09
 -1       857-7.07712E+04-8.82828E+03-1.36371E+04 5.09206E+03 2.14118E-09-1.95614E-08
 -1       858-6.58367E+04 1.05403E+03-5.14037E+03-3.95596E+02 1.90414E-09-2.48974E-10
 -1       859-6.70609E+04-1.23628E+03-3.10288E+03 5.12733E+03-9.63595E-10 1.69085E-08
 -1       860-6.63197E+04 1.47399E+02-1.30190E+03-4.07474E+02 3.68686E-10 5.38233E-09
 -1       861-6.65050E+04-1.72709E+02-7.19313E+02 5.14359E+03-2.50159E-09 1.13716E-08
 -1       862-6.63951E+04 1.99632E+01-3.05260E+02-4.11846E+02-1.22675E-10 1.61552E-09
 -1       863-6.64137E+04-1.89433E+01-1.25385E+02 5.14604E+03-1.48216E-09-1.42717E-08
 -1       864-6.64114E+04-2.89889E+00 1.22922E+01-4.09929E+02 4.64041E-10 2.39777E-09
 -1       865-6.63704E+04 4.31350E+01 1.68018E+02 5.13538E+03 2.45063E-09 7.75621E-09
 -1       866-6.64366E+04-4.22688E+01 3.55025E+02-4.01189E+02 1.65707E-09-2.37162E-09
 -1       867-6.61992E+04 3.49664E+02 8.84367E+02 5.11156E+03 4.91980E-10 1.98679E-09
 -1       868-6.65786E+04-3.04341E+02 1.47211E+03-3.86108E+02 1.52568E-10-5.18838E-09
 -1       869-6.51169E+04 2.53164E+03 3.92359E+03 5.07204E+03 5.72754E-10-2.84533E-08
 -1       870-6.75125E+04-2.16564E+03 5.69350E+03-3.61615E+02-1.57513E-09 1.50158E-09
 -1       871-4.85269E+03-1.85246E+04-1.67875E+04 1.10758E+05-2.44654E-09 1.43300E-08
 -1       872-1.84647E+03-2.23860E+04-7.00856E+03 1.43614E+05-7.34144E-09 5.87079E-09
 -1       873 2.42713E+02-2.05246E+04 5.64251E+02 1.10517E+05-4.02497E-09 6.30769E-09
 -1       874 2.73987E+03-1.83895E+04 8.55607E+03 1.43640E+05-8.09814E-09 2.41016E-09
 -1       875 5.87180E+03-2.25716E+04 1.92613E+04 1.10721E+05-3.57068E-09 1.11595E-08
 -1       876 2.56754E+05 4.36627E+04 1.34553E+04 1.03491E+05 2.91493E-09-4.96129E-09
 -1       877 2.57579E+05 4.65607E+04 7.18558E+03 1.07420E+05 8.72683E-09-4.14207E-09
 -1       878 2.58013E+05 4.21717E+04 3.01037E+03 1.04593E+05-4.11092E-10-8.37076E-09
 -1       879 2.55749E+05 4.47369E+04 1.49980E+03 1.07513E+05 4.58658E-09-2.22099E-09
 -1       880 2.58104E+05 4.21558E+04 6.98374E+02 1.04638E+05-7.09474E-09-2.62560E-09
 -1       881 2.55628E+05 4.46591E+04 3.72443E+02 1.07493E+05-1.62263E-08-1.25804E-08
 -1       882 2.58112E+05 4.21674E+04 2.37374E+02 1.04639E+05-1.86037E-09-2.16099E-09
 -1       883 2.55619E+05 4.46552E+04 2.53768E+02 1.07487E+05-2.75048E-09 1.29702E-08
 -1       884 2.58106E+05 4.21648E+04 4.02390E+02 1.04639E+05-9.34165E-10-9.66008E-09
 -1       885 2.55651E+05 4.46609E+04 8.08211E+02 1.07496E+05-2.48517E-09-7.20570E-09
 -1       886 2.58075E+05 4.21413E+04 1.62853E+03 1.04636E+05-1.39112E-09 5.41490E-09
 -1       887 2.55937E+05 4.48485E+04 3.55714E+03 1.07538E+05 6.78037E-09 1.48050E-08
 -1       888 2.57850E+05 4.21809E+04 7.16769E+03 1.04522E+05-1.11709E-09-1.54887E-09
 -1       889 2.60206E+05 4.92846E+04 1.71226E+04 1.07405E+05-2.66521E-09 9.11996E-10
 -1       890 2.54925E+05 4.56553E+04 3.20698E+04 1.01794E+05-2.41607E-09-1.40572E-08
 -1       891-9.47978E+01-1.43392E+05-1.73684E+03 2.49118E+04-2.77169E-10 8.50127E-09
 -1       892-1.78978E+02-1.43842E+05-1.87362E+03 3.77944E+04 1.76215E-09 1.84018E-08
 -1       893 2.09306E+01-1.43447E+05-2.66127E+03 2.49179E+04-7.73070E-10 4.71937E-09
 -1       894-1.35179E+03-1.44853E+05-5.51405E+03 3.76563E+04 4.16549E-10-1.31404E-08
 -1       895-1.06923E+03-1.42299E+05-9.71243E+03 2.50507E+04-1.21963E-09 3.06045E-09
 -1       956-3.27669E+05-4.90821E+03-1.21674E+04 2.71486E+04 3.43152E-09 9.76797E-10
 -1       957-3.30061E+05-1.71459E+03-6.24546E+03 3.26251E+04-2.18461E-09-1.42245E-08
 -1       958-3.28761E+05-1.98449E+02-2.81443E+03 2.69900E+04 6.09361E-11-9.46170E-09
 -1       959-3.28943E+05-1.00054E+02-1.43699E+03 3.28069E+04 9.46238E-09 6.40966E-09
 -1       960-3.28866E+05-2.18251E+01-7.00510E+02 2.69740E+04 4.47017E-09-1.59594E-09
 -1       961-3.28870E+05-3.43543E+01-3.70713E+02 3.28257E+04 2.65027E-09-2.58592E-08
 -1       962-3.28891E+05-2.29270E+01-2.10949E+02 2.69714E+04-2.01180E-09-3.17186E-09
 -1       963-3.28871E+05-3.01471E+01-1.66895E+02 3.28292E+04 1.84593E-09-5.32873E-09
 -1       964-3.28898E+05-1.92479E+01-1.99896E+02 2.69705E+04 9.68384E-10-7.06905E-10
 -1       965-3.28883E+05-2.63189E+01-3.43171E+02 3.28291E+04-3.36649E-09-1.32745E-08
 -1       966-3.28886E+05-1.09693E+01-6.43206E+02 2.69715E+04-1.22577E-09-6.59338E-09
 -1       967-3.28964E+05-7.91685E+01-1.31855E+03 3.28179E+04-2.97882E-09 1.51886E-09
 -1       968-3.28800E+05-1.66082E+02-2.58062E+03 2.69816E+04-1.94632E-09-1.06072E-08
 -1       969-3.30003E+05-1.55421E+03-5.72915E+03 3.26974E+04 1.63163E-09-6.92489E-09
 -1       970-3.27808E+05-4.48231E+03-1.11602E+04 2.70872E+04 5.70708E-10 1.43027E-08
 -1       971-3.03276E+05-1.53109E+03-8.31686E+03 1.37783E+04 7.98536E-09-1.01808E-08
 -1       972-3.05283E+05-1.12048E+03-4.52940E+03 1.91042E+04 5.29690E-09-3.58068E-09
 -1       973-3.04202E+05-4.41294E+01-2.02851E+03 1.36687E+04 1.10831E-08-1.71713E-09
 -1       974-3.04327E+05-5.75381E+01-1.05143E+03 1.92266E+04 6.74709E-09 2.96677E-09
 -1       975-3.04274E+05-4.80786E+00-5.25565E+02 1.36581E+04-6.69206E-09-1.22327E-09
 -1       976-3.04271E+05-1.36855E+01-3.03355E+02 1.92399E+04-1.94700E-09-6.63874E-09
 -1       977-3.04288E+05-4.68574E+00-2.20333E+02 1.36554E+04 9.93691E-09 5.19037E-09
 -1       978-3.04274E+05-8.56281E+00-2.58115E+02 1.92437E+04 8.24980E-09-9.12223E-10
 -1       979-3.04287E+05 2.49894E+00-4.14904E+02 1.36543E+04 8.25565E-09-1.82760E-08
 -1       980-3.04305E+05-5.99768E+00-8.01252E+02 1.92444E+04 8.12598E-09-1.02157E-08
 -1       981-3.04262E+05 2.25069E+01-1.55187E+03 1.36547E+04 7.33769E-09-1.04966E-08
 -1       982-3.04518E+05-1.20542E+02-3.20769E+03 1.92386E+04 1.77249E-09-7.30667E-09
 -1       983-3.04067E+05-7.66577E+01-6.23251E+03 1.36601E+04 3.59250E-10 3.14003E-09
 -1       984-3.07516E+05-3.37518E+03-1.39573E+04 1.91616E+04 1.88265E-10 1.72222E-08
 -1       985-3.01245E+05-4.63704E+03-2.56299E+04 1.37276E+04-4.04270E-09 8.36371E-09
 -3
    1PSTEP                        23          12           1          
  100CL  112 6.04492E-01         409                     0   12           1
 -4  DISP        4    1
 -5  D1          1    2    1    0
 -5  D2          1    2    2    0
 -5  D3          1    2    3    0
 -5  ALL         1    2    0    0    1ALL
 -1         1 1.20164E-03 0.00000E+00 0.00000E+00
 -1         2 1.13114E-03-6.05622E-29 0.00000E+00
 -1         3 2.72477E-04 1.83185E-27 0.00000E+00
 -1         5 1.40477E-04-6.91987E-26-1.24077E-24
 -1         8 1.18187E-03-6.25320E-07 0.00000E+00
 -1         9 1.15135E-03-3.36937E-06 0.00000E+00
 -1        10 2.47609E-04-3.05772E-06-6.61744E-24
 -1        12 1.42112E-04 7.70481E-07 4.13590E-25
 -1        15 1.15803E-03-6.88864E-07 0.00000E+00
 -1        16 1.16487E-03-4.13192E-06 0.00000E+00
 -1        17 1.69994E-04-6.77869E-06 0.00000E+00
 -1        18 1.45585E-04 3.08079E-05 0.00000E+00
 -1        19 1.47018E-04 1.53496E-06 0.00000E+00
 -1        20 1.47156E-04-7.94223E-06 0.00000E+00
 -1        21 1.46383E-04-2.05211E-05 3.30872E-24
 -1        24 2.68613E-05-9.98753E-06 0.00000E+00
 -1        25 1.54492E-04 3.10392E-05 0.00000E+00
 -1        26 1.55675E-04 2.14122E-06 0.00000E+00
 -1        27 1.53583E-04-1.11542E-05 0.00000E+00
 -1        28 1.53230E-04-2.10873E-05 0.00000E+00
 -1        32 0.00000E+00 0.00000E+00 0.00000E+00
 -1        33 1.63008E-04 2.86119E-06 0.00000E+00
 -1        34 1.61113E-04-1.12056E-05 0.00000E+00
 -1        35 1.59372E-04-2.13960E-05 0.00000E+00
 -1        51 1.20037E-03-1.12281E-07 0.00000E+00
 -1        52 1.19800E-03-2.12670E-07 0.00000E+00
 -1        53 1.19474E-03-3.12057E-07 0.00000E+00
 -1        54 1.19082E-03-4.12432E-07 0.00000E+00
 -1        55 1.18646E-03-5.15148E-07 4.13590E-24
 -1        56 1.19869E-03-3.98124E-07-5.29396E-23
 -1        57 1.19517E-03 3.83169E-07 0.00000E+00
 -1        58 1.19127E-03 2.21055E-06-1.05879E-22
 -1        59 1.18704E-03 4.83196E-06 5.29396E-23
 -1        60 1.18264E-03 7.90556E-06 0.00000E+00
 -1        61 1.17822E-03 1.10525E-05 0.00000E+00
 -1        62 1.17391E-03 1.38855E-05 1.05879E-22
 -1        63 1.16985E-03 1.60370E-05 0.00000E+00
 -1        64 1.16616E-03 1.72296E-05 0.00000E+00
 -1        65 1.16292E-03 1.72490E-05-5.29396E-23
 -1        66 1.16013E-03 1.60359E-05 0.00000E+00
 -1        67 1.15781E-03 1.36131E-05-5.29396E-23
 -1        68 1.15586E-03 1.01622E-05 1.05879E-22
 -1        69 1.15422E-03 5.93907E-06 0.00000E+00
 -1        70 1.15274E-03 1.28975E-06 0.00000E+00
 -1        86 1.13200E-03-5.54052E-07 0.00000E+00
 -1        87 1.13456E-03-1.11108E-06-6.61744E-24
 -1        88 1.13835E-03-1.67176E-06-1.32349E-23
 -1        89 1.14287E-03-2.23656E-06-6.61744E-24
 -1        90 1.14743E-03-2.80114E-06 0.00000E+00
 -1       121 2.71779E-04-4.98801E-07 0.00000E+00
 -1       122 2.69689E-04-9.99474E-07-6.61744E-24
 -1       123 2.66213E-04-1.50386E-06 0.00000E+00
 -1       124 2.61363E-04-2.01384E-06-6.61744E-24
 -1       125 2.55154E-04-2.53099E-06-1.32349E-23
 -1       191 1.40523E-04 1.28465E-07-2.06795E-24
 -1       192 1.40659E-04 2.56920E-07-1.24077E-24
 -1       193 1.40886E-04 3.85360E-07-2.48154E-24
 -1       194 1.41204E-04 5.13774E-07 1.24077E-24
 -1       195 1.41613E-04 6.42151E-07 4.13590E-25
 -1       251 1.18114E-03 1.67700E-05-1.32349E-23
 -1       252 1.17963E-03 6.06307E-05 0.00000E+00
 -1       253 1.17719E-03 1.23090E-04-1.32349E-23
 -1       254 1.17409E-03 1.95851E-04 0.00000E+00
 -1       255 1.17103E-03 2.67808E-04 0.00000E+00
 -1       256 1.16874E-03 3.27874E-04-6.61744E-24
 -1       257 1.16736E-03 3.68199E-04 1.32349E-23
 -1       258 1.16669E-03 3.81389E-04 6.61744E-24
 -1       259 1.16600E-03 3.67163E-04-1.32349E-23
 -1       260 1.16459E-03 3.25908E-04 0.00000E+00
 -1       261 1.16225E-03 2.65100E-04 0.00000E+00
 -1       262 1.15916E-03 1.92664E-04 6.61744E-24
 -1       263 1.15604E-03 1.19693E-04 1.32349E-23
 -1       264 1.15360E-03 5.72918E-05-6.61744E-24
 -1       265 1.15209E-03 1.36748E-05 2.64698E-23
 -1       266 1.17789E-03-6.44946E-07 3.30872E-24
 -1       267 1.17392E-03-6.54435E-07 0.00000E+00
 -1       268 1.16995E-03-6.64567E-07 0.00000E+00
 -1       269 1.16597E-03-6.72796E-07-2.06795E-25
 -1       270 1.16200E-03-6.80982E-07-2.06795E-25
 -1       271 1.17943E-03 2.89486E-06-2.64698E-23
 -1       272 1.17706E-03 6.17029E-06 1.32349E-23
 -1       273 1.17480E-03 9.13783E-06 0.00000E+00
 -1       274 1.17268E-03 1.17235E-05 1.32349E-23
 -1       275 1.17073E-03 1.38623E-05 2.64698E-23
 -1       276 1.16897E-03 1.54929E-05 0.00000E+00
 -1       277 1.16742E-03 1.65613E-05 0.00000E+00
 -1       278 1.16611E-03 1.70200E-05 0.00000E+00
 -1       279 1.16503E-03 1.68300E-05 2.64698E-23
 -1       280 1.16421E-03 1.59600E-05 0.00000E+00
 -1       281 1.16365E-03 1.43881E-05 0.00000E+00
 -1       282 1.16336E-03 1.21008E-05 0.00000E+00
 -1       283 1.16334E-03 9.09435E-06 0.00000E+00
 -1       284 1.16359E-03 5.37498E-06-1.32349E-23
 -1       285 1.16409E-03 9.55950E-07 0.00000E+00
 -1       301 1.15382E-03-3.51623E-06 1.32349E-23
 -1       302 1.15554E-03-3.63520E-06 0.00000E+00
 -1       303 1.15700E-03-3.75176E-06-6.61744E-24
 -1       304 1.15872E-03-3.86822E-06 6.61744E-24
 -1       305 1.16117E-03-3.98786E-06 0.00000E+00
 -1       306 1.17661E-03-9.54111E-05 0.00000E+00
 -1       307 1.23539E-03-3.55774E-04 0.00000E+00
 -1       308 1.30329E-03-7.42550E-04-2.11758E-22
 -1       309 1.36938E-03-1.19863E-03 0.00000E+00
 -1       310 1.43577E-03-1.64684E-03 1.05879E-22
 -1       311 1.50319E-03-2.01078E-03 0.00000E+00
 -1       312 1.55730E-03-2.23770E-03 1.05879E-22
 -1       313 1.57123E-03-2.29219E-03 5.29396E-23
 -1       314 1.51464E-03-2.17576E-03 1.05879E-22
 -1       315 1.36705E-03-1.91191E-03 0.00000E+00
 -1       316 1.13789E-03-1.54696E-03 0.00000E+00
 -1       317 8.57104E-04-1.12988E-03 0.00000E+00
 -1       318 5.78964E-04-7.15384E-04 1.05879E-22
 -1       319 3.57031E-04-3.58380E-04-2.64698E-23
 -1       320 2.18549E-04-1.07139E-04 1.05879E-22
 -1       336 2.38578E-04-3.63574E-06 1.32349E-23
 -1       337 2.27919E-04-4.22973E-06 0.00000E+00
 -1       338 2.15676E-04-4.84083E-06-1.32349E-23
 -1       339 2.01901E-04-5.46953E-06 0.00000E+00
 -1       340 1.86652E-04-6.11885E-06 0.00000E+00
 -1       406 1.42703E-04 8.98747E-07-1.24077E-24
 -1       407 1.43384E-04 1.02691E-06-1.44757E-24
 -1       408 1.44157E-04 1.15493E-06 2.48154E-24
 -1       409 1.45020E-04 1.28263E-06 9.30578E-25
 -1       410 1.45974E-04 1.40973E-06-3.30872E-24
 -1       521 1.19145E-03-1.04779E-04-1.05879E-22
 -1       522 1.25150E-03-3.85417E-04-5.29396E-23
 -1       523 1.31849E-03-8.01441E-04 1.05879E-22
 -1       524 1.38160E-03-1.29029E-03 0.00000E+00
 -1       525 1.44529E-03-1.77000E-03 0.00000E+00
 -1       526 1.51235E-03-2.15958E-03 0.00000E+00
 -1       527 1.56755E-03-2.40135E-03 1.05879E-22
 -1       528 1.58115E-03-2.45833E-03 0.00000E+00
 -1       529 1.51795E-03-2.33151E-03 0.00000E+00
 -1       530 1.35490E-03-2.04865E-03 5.29396E-23
 -1       531 1.10137E-03-1.65924E-03 0.00000E+00
 -1       532 7.90921E-04-1.21598E-03 5.29396E-23
 -1       533 4.83047E-04-7.75072E-04-1.05879E-22
 -1       534 2.36540E-04-3.92929E-04 0.00000E+00
 -1       535 8.23300E-05-1.21743E-04 1.05879E-22
 -1       536 1.69406E-04 2.27169E-05 0.00000E+00
 -1       537 1.67860E-04 7.63972E-05 0.00000E+00
 -1       538 1.65404E-04 1.45828E-04 0.00000E+00
 -1       539 1.62441E-04 2.22490E-04 0.00000E+00
 -1       540 1.59724E-04 2.95634E-04 3.30872E-24
 -1       541 1.57914E-04 3.54527E-04-1.65436E-24
 -1       542 1.57048E-04 3.92639E-04 3.30872E-24
 -1       543 1.56824E-04 4.03574E-04 0.00000E+00
 -1       544 1.56542E-04 3.87899E-04-3.30872E-24
 -1       545 1.55549E-04 3.46381E-04 1.65436E-24
 -1       546 1.53690E-04 2.86543E-04 0.00000E+00
 -1       547 1.51158E-04 2.16020E-04 1.65436E-24
 -1       548 1.48639E-04 1.45667E-04 0.00000E+00
 -1       549 1.46810E-04 8.63424E-05 1.65436E-24
 -1       550 1.45848E-04 4.55825E-05 0.00000E+00
 -1       551 1.49975E-04-7.23026E-06 0.00000E+00
 -1       552 1.27279E-04-7.73205E-06 0.00000E+00
 -1       553 1.02755E-04-8.27304E-06 1.65436E-24
 -1       554 7.72692E-05-8.83847E-06 0.00000E+00
 -1       555 5.16847E-05-9.40882E-06 0.00000E+00
 -1       556 1.63996E-04 8.64946E-06 0.00000E+00
 -1       557 1.59110E-04 2.12650E-05 0.00000E+00
 -1       558 1.55233E-04 3.12809E-05 0.00000E+00
 -1       559 1.52271E-04 3.89285E-05 0.00000E+00
 -1       560 1.50127E-04 4.44390E-05 0.00000E+00
 -1       561 1.48707E-04 4.80456E-05 0.00000E+00
 -1       562 1.47920E-04 4.99819E-05 0.00000E+00
 -1       563 1.47675E-04 5.04824E-05 0.00000E+00
 -1       564 1.47880E-04 4.97820E-05 0.00000E+00
 -1       565 1.48447E-04 4.81158E-05 0.00000E+00
 -1       566 1.49287E-04 4.57194E-05 0.00000E+00
 -1       567 1.50311E-04 4.28288E-05 0.00000E+00
 -1       568 1.51431E-04 3.96798E-05 1.65436E-24
 -1       569 1.52559E-04 3.65084E-05 0.00000E+00
 -1       570 1.53608E-04 3.35505E-05 0.00000E+00
 -1       571 1.45672E-04 2.89611E-05 1.65436E-24
 -1       572 1.45761E-04 2.70420E-05-1.03398E-24
 -1       573 1.45850E-04 2.50660E-05-1.65436E-24
 -1       574 1.45939E-04 2.30490E-05 0.00000E+00
 -1       575 1.46029E-04 2.10073E-05 0.00000E+00
 -1       576 1.46118E-04 1.89568E-05 1.65436E-24
 -1       577 1.46208E-04 1.69140E-05 0.00000E+00
 -1       578 1.46297E-04 1.48948E-05 0.00000E+00
 -1       579 1.46387E-04 1.29156E-05 0.00000E+00
 -1       580 1.46477E-04 1.09925E-05 6.61744E-24
 -1       581 1.46566E-04 9.14168E-06 0.00000E+00
 -1       582 1.46656E-04 7.37938E-06 0.00000E+00
 -1       583 1.46747E-04 5.72175E-06 6.61744E-24
 -1       584 1.46837E-04 4.18478E-06-3.30872E-24
 -1       585 1.46927E-04 2.78433E-06 6.61744E-24
 -1       586 1.47081E-04 3.08480E-05-3.30872E-24
 -1       587 1.48523E-04 3.08877E-05-8.27181E-25
 -1       588 1.49948E-04 3.09273E-05-6.20385E-25
 -1       589 1.51393E-04 3.09663E-05 0.00000E+00
 -1       590 1.52895E-04 3.10043E-05 0.00000E+00
 -1       591 1.46209E-04 2.90455E-05 0.00000E+00
 -1       592 1.46841E-04 2.72483E-05 0.00000E+00
 -1       593 1.47484E-04 2.54239E-05-8.27181E-25
 -1       594 1.48134E-04 2.35786E-05 0.00000E+00
 -1       595 1.48789E-04 2.17189E-05 8.27181E-25
 -1       596 1.49447E-04 1.98512E-05-4.13590E-25
 -1       597 1.50106E-04 1.79818E-05 0.00000E+00
 -1       598 1.50763E-04 1.61173E-05-4.13590E-25
 -1       599 1.51415E-04 1.42640E-05 8.27181E-25
 -1       600 1.52062E-04 1.24282E-05-4.13590E-25
 -1       601 1.52699E-04 1.06163E-05 8.27181E-25
 -1       602 1.53325E-04 8.83476E-06-4.13590E-25
 -1       603 1.53937E-04 7.08995E-06 4.13590E-25
 -1       604 1.54534E-04 5.38836E-06 0.00000E+00
 -1       605 1.55113E-04 3.73628E-06 0.00000E+00
 -1       606 1.47031E-04 5.09686E-07 0.00000E+00
 -1       607 1.47040E-04-4.32406E-07 0.00000E+00
 -1       608 1.47049E-04-1.29619E-06 0.00000E+00
 -1       609 1.47057E-04-2.08718E-06 1.65436E-24
 -1       610 1.47066E-04-2.81092E-06-3.30872E-24
 -1       611 1.47074E-04-3.47303E-06 0.00000E+00
 -1       612 1.47082E-04-4.07912E-06 0.00000E+00
 -1       613 1.47091E-04-4.63483E-06 0.00000E+00
 -1       614 1.47099E-04-5.14580E-06 1.65436E-24
 -1       615 1.47107E-04-5.61763E-06-8.27181E-25
 -1       616 1.47115E-04-6.05597E-06 0.00000E+00
 -1       617 1.47124E-04-6.46644E-06 0.00000E+00
 -1       618 1.47132E-04-6.85467E-06 0.00000E+00
 -1       619 1.47140E-04-7.22630E-06 2.06795E-25
 -1       620 1.47149E-04-7.58694E-06 0.00000E+00
 -1       621 1.48219E-04 1.63629E-06 1.65436E-24
 -1       622 1.49557E-04 1.73810E-06 1.65436E-24
 -1       623 1.51002E-04 1.83977E-06 0.00000E+00
 -1       624 1.52523E-04 1.94116E-06-8.27181E-25
 -1       625 1.54091E-04 2.04230E-06-1.65436E-24
 -1       626 1.47503E-04 5.40739E-07 3.30872E-24
 -1       627 1.47965E-04-3.91614E-07-1.65436E-24
 -1       628 1.48407E-04-1.26928E-06 3.30872E-24
 -1       629 1.48832E-04-2.09982E-06 0.00000E+00
 -1       630 1.49242E-04-2.89080E-06 0.00000E+00
 -1       631 1.49640E-04-3.64981E-06-1.65436E-24
 -1       632 1.50029E-04-4.38445E-06 0.00000E+00
 -1       633 1.50411E-04-5.10234E-06-1.65436E-24
 -1       634 1.50790E-04-5.81106E-06 3.30872E-24
 -1       635 1.51169E-04-6.51820E-06 0.00000E+00
 -1       636 1.51550E-04-7.23138E-06 0.00000E+00
 -1       637 1.51935E-04-7.95820E-06 8.27181E-25
 -1       638 1.52329E-04-8.70626E-06 3.30872E-24
 -1       639 1.52733E-04-9.48317E-06-8.27181E-25
 -1       640 1.53151E-04-1.02966E-05-1.65436E-24
 -1       656 1.47729E-04-8.46428E-06 0.00000E+00
 -1       657 1.48691E-04-9.00757E-06 0.00000E+00
 -1       658 1.49908E-04-9.54956E-06 0.00000E+00
 -1       659 1.51243E-04-1.00912E-05 0.00000E+00
 -1       660 1.52523E-04-1.06345E-05-6.61744E-24
 -1       661 1.47373E-04-8.33495E-06-8.27181E-25
 -1       662 1.47621E-04-8.80565E-06 0.00000E+00
 -1       663 1.47898E-04-9.35034E-06 0.00000E+00
 -1       664 1.48200E-04-9.96381E-06 8.27181E-25
 -1       665 1.48527E-04-1.06415E-05 0.00000E+00
 -1       666 1.48876E-04-1.13786E-05 8.27181E-25
 -1       667 1.49245E-04-1.21707E-05 0.00000E+00
 -1       668 1.49633E-04-1.30134E-05 8.27181E-25
 -1       669 1.50039E-04-1.39025E-05 1.65436E-24
 -1       670 1.50461E-04-1.48338E-05 0.00000E+00
 -1       671 1.50897E-04-1.58032E-05 0.00000E+00
 -1       672 1.51345E-04-1.68067E-05 0.00000E+00
 -1       673 1.51804E-04-1.78405E-05-1.65436E-24
 -1       674 1.52273E-04-1.89009E-05 8.27181E-25
 -1       675 1.52751E-04-1.99838E-05 0.00000E+00
 -1       676 1.47528E-04-2.06160E-05 3.30872E-24
 -1       677 1.48672E-04-2.07109E-05 0.00000E+00
 -1       678 1.49815E-04-2.08057E-05 0.00000E+00
 -1       679 1.50956E-04-2.09003E-05 0.00000E+00
 -1       680 1.52095E-04-2.09948E-05-1.65436E-24
 -1       771 1.75771E-05 1.04587E-05 5.29396E-23
 -1       772 9.72766E-06 2.72373E-05 5.29396E-23
 -1       773 3.24387E-06 4.05321E-05-5.29396E-23
 -1       774-1.96706E-06 5.05473E-05 0.00000E+00
 -1       775-5.99641E-06 5.74937E-05 0.00000E+00
 -1       776-8.93907E-06 6.15942E-05 2.64698E-23
 -1       777-1.08901E-05 6.30779E-05 0.00000E+00
 -1       778-1.19467E-05 6.21838E-05 0.00000E+00
 -1       779-1.22058E-05 5.91564E-05 0.00000E+00
 -1       780-1.17660E-05 5.42479E-05 0.00000E+00
 -1       781-1.07257E-05 4.77152E-05 0.00000E+00
 -1       782-9.18431E-06 3.98211E-05 2.64698E-23
 -1       783-7.24108E-06 3.08314E-05 5.29396E-23
 -1       784-4.99608E-06 2.10163E-05 0.00000E+00
 -1       785-2.54898E-06 1.06478E-05 0.00000E+00
 -1       786 1.54562E-04 2.91899E-05 8.27181E-25
 -1       787 1.54635E-04 2.73330E-05 8.27181E-25
 -1       788 1.54709E-04 2.54710E-05 1.65436E-24
 -1       789 1.54783E-04 2.36063E-05 8.27181E-25
 -1       790 1.54857E-04 2.17410E-05 0.00000E+00
 -1       791 1.54931E-04 1.98769E-05 0.00000E+00
 -1       792 1.55005E-04 1.80163E-05 1.65436E-24
 -1       793 1.55080E-04 1.61612E-05 0.00000E+00
 -1       794 1.55154E-04 1.43150E-05 0.00000E+00
 -1       795 1.55229E-04 1.24808E-05 0.00000E+00
 -1       796 1.55303E-04 1.06639E-05-1.65436E-24
 -1       797 1.55377E-04 8.86984E-06 0.00000E+00
 -1       798 1.55452E-04 7.10798E-06 0.00000E+00
 -1       799 1.55526E-04 5.38792E-06 0.00000E+00
 -1       800 1.55601E-04 3.72660E-06 0.00000E+00
 -1       801 1.08570E-04 2.83121E-05 0.00000E+00
 -1       802-3.00210E-05 1.74011E-05 1.32349E-23
 -1       803-1.42817E-04 9.07664E-06 0.00000E+00
 -1       804-1.13826E-04 6.44866E-06-1.32349E-23
 -1       805-3.41752E-05 2.02788E-06 5.29396E-23
 -1       806 1.55086E-04 2.91275E-05 0.00000E+00
 -1       807 1.55680E-04 2.72024E-05 1.65436E-24
 -1       808 1.56275E-04 2.52717E-05 3.30872E-24
 -1       809 1.56870E-04 2.33426E-05 0.00000E+00
 -1       810 1.57461E-04 2.14222E-05 3.30872E-24
 -1       811 1.58046E-04 1.95174E-05 1.65436E-24
 -1       812 1.58623E-04 1.76351E-05 0.00000E+00
 -1       813 1.59188E-04 1.57825E-05 0.00000E+00
 -1       814 1.59740E-04 1.39665E-05-3.30872E-24
 -1       815 1.60276E-04 1.21939E-05-8.27181E-25
 -1       816 1.60793E-04 1.04718E-05-3.30872E-24
 -1       817 1.61289E-04 8.80716E-06 1.65436E-24
 -1       818 1.61760E-04 7.20686E-06-1.65436E-24
 -1       819 1.62205E-04 5.67786E-06 8.27181E-25
 -1       820 1.62622E-04 4.22705E-06 0.00000E+00
 -1       821 1.55551E-04 2.78821E-07-1.65436E-24
 -1       822 1.55418E-04-2.21049E-06 0.00000E+00
 -1       823 1.55285E-04-5.06524E-06 0.00000E+00
 -1       824 1.55151E-04-8.02170E-06 0.00000E+00
 -1       825 1.55016E-04-1.07897E-05-3.30872E-24
 -1       826 1.54883E-04-1.30802E-05 1.65436E-24
 -1       827 1.54751E-04-1.47298E-05-3.30872E-24
 -1       828 1.54620E-04-1.55792E-05 1.65436E-24
 -1       829 1.54489E-04-1.56800E-05 0.00000E+00
 -1       830 1.54358E-04-1.50880E-05 1.65436E-24
 -1       831 1.54226E-04-1.40418E-05 0.00000E+00
 -1       832 1.54095E-04-1.27825E-05-1.65436E-24
 -1       833 1.53964E-04-1.16077E-05 3.30872E-24
 -1       834 1.53834E-04-1.08141E-05-1.65436E-24
 -1       835 1.53705E-04-1.05985E-05 8.27181E-25
 -1       836 1.57101E-04 2.26056E-06 3.30872E-24
 -1       837 1.58377E-04 2.38292E-06 1.65436E-24
 -1       838 1.59554E-04 2.50523E-06 3.30872E-24
 -1       839 1.60684E-04 2.62687E-06 0.00000E+00
 -1       840 1.61818E-04 2.74833E-06 0.00000E+00
 -1       856 1.53564E-04-1.20294E-05-4.13590E-25
 -1       857 1.53542E-04-1.27790E-05 5.16988E-26
 -1       858 1.53521E-04-1.34226E-05-4.13590E-25
 -1       859 1.53499E-04-1.39797E-05 2.06795E-25
 -1       860 1.53477E-04-1.44699E-05-8.27181E-25
 -1       861 1.53455E-04-1.49129E-05 4.13590E-25
 -1       862 1.53433E-04-1.53284E-05 0.00000E+00
 -1       863 1.53411E-04-1.57363E-05 0.00000E+00
 -1       864 1.53388E-04-1.61562E-05-8.27181E-25
 -1       865 1.53366E-04-1.66080E-05-4.13590E-25
 -1       866 1.53344E-04-1.71112E-05 8.27181E-25
 -1       867 1.53322E-04-1.76857E-05-4.13590E-25
 -1       868 1.53299E-04-1.83511E-05 0.00000E+00
 -1       869 1.53277E-04-1.91269E-05 4.13590E-25
 -1       870 1.53254E-04-2.00325E-05 0.00000E+00
 -1       871 1.54714E-04-1.11588E-05 0.00000E+00
 -1       872 1.55975E-04-1.11664E-05 0.00000E+00
 -1       873 1.57306E-04-1.11747E-05 0.00000E+00
 -1       874 1.58646E-04-1.11836E-05 2.06795E-25
 -1       875 1.59935E-04-1.11930E-05-2.06795E-25
 -1       876 1.54025E-04-1.20166E-05 0.00000E+00
 -1       877 1.54447E-04-1.28168E-05 0.00000E+00
 -1       878 1.54849E-04-1.35620E-05 0.00000E+00
 -1       879 1.55233E-04-1.42593E-05 0.00000E+00
 -1       880 1.55602E-04-1.49156E-05 0.00000E+00
 -1       881 1.55958E-04-1.55378E-05 0.00000E+00
 -1       882 1.56304E-04-1.61327E-05 0.00000E+00
 -1       883 1.56642E-04-1.67072E-05-1.65436E-24
 -1       884 1.56976E-04-1.72681E-05 0.00000E+00
 -1       885 1.57306E-04-1.78225E-05 0.00000E+00
 -1       886 1.57637E-04-1.83770E-05 0.00000E+00
 -1       887 1.57970E-04-1.89386E-05 0.00000E+00
 -1       888 1.58309E-04-1.95142E-05 0.00000E+00
 -1       889 1.58654E-04-2.01108E-05 8.27181E-25
 -1       890 1.59010E-04-2.07352E-05 1.65436E-24
 -1       891 1.54386E-04-2.11391E-05 0.00000E+00
 -1       892 1.55519E-04-2.11911E-05-8.27181E-25
 -1       893 1.56608E-04-2.12430E-05-8.27181E-25
 -1       894 1.57628E-04-2.12947E-05 0.00000E+00
 -1       895 1.58558E-04-2.13461E-05-4.13590E-25
 -1       956 1.62892E-04 1.67191E-06-1.65436E-24
 -1       957 1.62773E-04 5.73006E-07-8.27181E-25
 -1       958 1.62654E-04-4.45512E-07 3.30872E-24
 -1       959 1.62536E-04-1.39420E-06 1.65436E-24
 -1       960 1.62417E-04-2.28367E-06 0.00000E+00
 -1       961 1.62298E-04-3.12455E-06 1.65436E-24
 -1       962 1.62179E-04-3.92749E-06 3.30872E-24
 -1       963 1.62060E-04-4.70316E-06 1.65436E-24
 -1       964 1.61942E-04-5.46222E-06 3.30872E-24
 -1       965 1.61823E-04-6.21533E-06-1.65436E-24
 -1       966 1.61704E-04-6.97317E-06 0.00000E+00
 -1       967 1.61585E-04-7.74640E-06 1.65436E-24
 -1       968 1.61467E-04-8.54567E-06 0.00000E+00
 -1       969 1.61348E-04-9.38161E-06 1.65436E-24
 -1       970 1.61230E-04-1.02648E-05 0.00000E+00
 -1       971 1.61005E-04-1.21445E-05-3.30872E-24
 -1       972 1.60896E-04-1.29971E-05-1.65436E-24
 -1       973 1.60787E-04-1.37729E-05 3.30872E-24
 -1       974 1.60677E-04-1.44817E-05 0.00000E+00
 -1       975 1.60568E-04-1.51336E-05 0.00000E+00
 -1       976 1.60459E-04-1.57384E-05 0.00000E+00
 -1       977 1.60349E-04-1.63062E-05 0.00000E+00
 -1       978 1.60240E-04-1.68469E-05-1.65436E-24
 -1       979 1.60130E-04-1.73706E-05 0.00000E+00
 -1       980 1.60021E-04-1.78871E-05 0.00000E+00
 -1       981 1.59912E-04-1.84066E-05 0.00000E+00
 -1       982 1.59803E-04-1.89388E-05 0.00000E+00
 -1       983 1.59693E-04-1.94940E-05-3.30872E-24
 -1       984 1.59585E-04-2.00819E-05 1.65436E-24
 -1       985 1.59477E-04-2.07127E-05 0.00000E+00
 -3
    1PSTEP                        24          12           1          
  100CL  112 6.04492E-01         409                     0   12           1
 -4  STRESS      6    1
 -5  SXX         1    4    1    1
 -5  SYY         1    4    2    2
 -5  SZZ         1    4    3    3
 -5  SXY         1    4    1    2
 -5  SYZ         1    4    2    3
 -5  SZX         1    4    3    1
 -1         1-3.66269E+06-1.41745E+06-8.00828E+05-1.49599E+06-2.11003E-10 3.80096E-08
 -1         2 1.03248E+03-1.57810E+06 3.53588E+03 1.15559E+04 4.00618E-10 1.69669E-07
 -1         3-8.92389E+02-1.41944E+06 3.57038E+02-1.56433E+03-4.09731E-10-2.15550E-08
 -1         5-5.92570E+01 3.67816E+05 1.01434E+01-1.08161E+00-5.00050E-10 1.02409E-08
 -1         8-8.20156E+05-2.80073E+05-7.87398E+04-3.49721E+05-3.80169E-10 2.32103E-09
 -1         9 3.12554E+06-7.00892E+05 5.93756E+05-8.72310E+05 2.11643E-08 2.78698E-08
 -1        10-1.74020E+03-1.47896E+06-2.88618E+03-1.05848E+04-1.04046E-08-3.07008E-08
 -1        12-5.52209E+01 3.67838E+05 3.32280E+02-7.49243E+00-4.24080E-10-1.21081E-08
 -1        15 1.49702E+03 8.22698E+02 4.83908E+03 2.57184E+00-3.91509E-11-4.81438E-08
 -1        16 8.29130E+06-4.44968E+05 1.19573E+06-1.07279E+06 1.92279E-08 1.50952E-08
 -1        17 2.81894E+06 1.85535E+06 7.84277E+05 1.91554E+06 5.12518E-09 2.10130E-08
 -1        18 1.06383E+05 2.60779E+04-1.72013E+03-1.09148E+05 1.27495E-08 1.51431E-10
 -1        19 1.11179E+05 1.35196E+05-4.73404E+02 1.85698E+04 1.49194E-09-2.43635E-09
 -1        20-6.88415E+04-5.16502E+05-1.15548E+05 2.49951E+04-2.19855E-09 8.66809E-09
 -1        21-4.21851E+01-2.69906E+05-8.48730E+02 2.11950E+02 9.75399E-09 8.56389E-09
 -1        24 4.32373E+06 4.01256E+06 1.41460E+06 3.63319E+06-1.10245E-07-4.08230E-08
 -1        25 2.57757E+05 7.71995E+05 2.22108E+05-5.35810E+05 2.72003E-08-3.65362E-09
 -1        26-3.59268E+04 9.28275E+04-1.88260E+04-4.96719E+03-5.52973E-11 6.33330E-09
 -1        27-7.53067E+04-2.81265E+05-1.03423E+05 6.15178E+04 2.65739E-09 6.95400E-09
 -1        28 2.03730E+04-7.71273E+04 1.53647E+04 1.99143E+04-3.47873E-09-1.02156E-09
 -1        32-1.21183E+06-1.44393E+06 1.60729E+05 1.61913E+05-1.99634E-08-3.38221E-09
 -1        33-1.54744E+05 8.75665E+04 2.98166E+04-4.46907E+04-2.75187E-09 7.34902E-09
 -1        34-2.00962E+05-2.27824E+04 5.84644E+02 6.75182E+04-3.87799E-09-8.56214E-09
 -1        35-2.09927E+04-3.05548E+04-1.21452E+03 4.69426E+04-3.43397E-09-1.97809E-08
 -1        51 3.97493E+04-2.56305E+05 8.79322E+04-7.41713E+05-1.45519E-11 3.39496E-08
 -1        52 1.55176E+04-2.43718E+05 4.89554E+04-8.64815E+05 6.80302E-10-1.05116E-07
 -1        53 5.64615E+03-2.58617E+05 2.99708E+04-7.39026E+05 6.87578E-10-1.97033E-08
 -1        54 1.40788E+04-2.55680E+05 3.36738E+04-8.67615E+05-2.25555E-10-2.99915E-08
 -1        55 2.89612E+04-2.66561E+05 5.15207E+04-7.38619E+05 4.87489E-10-4.90400E-08
 -1        56-6.94557E+06-7.81638E+05-5.91628E+05-2.70504E+06-2.91038E-09-3.52156E-08
 -1        57-7.26773E+06-1.23349E+06-3.99036E+05-2.58430E+06 5.40240E-09 7.84930E-08
 -1        58-7.04719E+06-9.86714E+05-1.39026E+05-2.68697E+06-8.65839E-10 4.36557E-09
 -1        59-7.15387E+06-9.89285E+05-8.29221E+04-2.60241E+06 5.80985E-09-8.29450E-08
 -1        60-7.05788E+06-1.01926E+06-3.23456E+04-2.68912E+06-5.87534E-10 2.32085E-08
 -1        61-7.13615E+06-9.56156E+05-1.83451E+04-2.60557E+06 3.25784E-09 6.94668E-08
 -1        62-7.06451E+06-1.01897E+06-8.81602E+03-2.68402E+06 3.58773E-09-6.38088E-08
 -1        63-7.11629E+06-9.68802E+05-7.01808E+03-2.62433E+06 2.86559E-09 6.01096E-08
 -1        64-7.07721E+06-1.00683E+06-8.21596E+03-2.67003E+06 7.29688E-09 5.15715E-08
 -1        65-7.08959E+06-1.00020E+06-1.59498E+04-2.65565E+06-1.32691E-08-1.21129E-07
 -1        66-7.09094E+06-9.87868E+05-2.84170E+04-2.65246E+06 3.95539E-09 2.67155E-08
 -1        67-7.07817E+06-1.05630E+06-7.19570E+04-2.68465E+06-1.58761E-08-5.04224E-08
 -1        68-7.08929E+06-9.51290E+05-1.20803E+05-2.64108E+06 6.67933E-09 7.67832E-08
 -1        69-7.17688E+06-1.27026E+06-3.46741E+05-2.67236E+06-2.43836E-08 5.95610E-08
 -1        70-6.99453E+06-7.79046E+05-5.13908E+05-2.66352E+06 3.08428E-08 1.03755E-07
 -1        86-5.79556E+02-1.58314E+06 2.93634E+03-5.77784E+03-2.85161E-09-7.19589E-08
 -1        87 3.22143E+03-1.57836E+06 7.01482E+03 1.98211E+04-4.99176E-09-1.07442E-07
 -1        88-2.65816E+03-1.58300E+06 1.02684E+04-1.40433E+04-5.12227E-09 7.74081E-08
 -1        89 1.96570E+04-1.57212E+06 2.78381E+04 2.83700E+04-8.16408E-09 2.88031E-08
 -1        90-1.68517E+04-1.58949E+06 3.92389E+04-1.43276E+04-4.59295E-09-8.88492E-08
 -1       121-1.23607E+03-1.42246E+06-1.97449E+02 7.77630E+02 1.12391E-09-2.75031E-09
 -1       122-7.48091E+02-1.41944E+06 7.12143E+02-3.12808E+03-4.15842E-09 2.35959E-08
 -1       123-1.27862E+03-1.42256E+06 5.86065E+02 2.32343E+03 3.54976E-09 7.87622E-09
 -1       124 6.74025E+02-1.41887E+06 2.82437E+03-6.58737E+03-8.17317E-09-1.86701E-08
 -1       125-2.06546E+03-1.42335E+06 3.72490E+03 4.21604E+03 5.13319E-09-1.91612E-08
 -1       191-6.25221E+01 3.67836E+05 9.49657E+00 5.60991E-01-5.30750E-10-4.77485E-09
 -1       192-6.02234E+01 3.67817E+05 2.16038E+01-3.60818E+00-6.59877E-10-3.06463E-08
 -1       193-6.50729E+01 3.67836E+05 3.76214E+01 3.17136E+00-9.61746E-10-1.82627E-09
 -1       194-6.33248E+01 3.67820E+05 8.20258E+01-8.24253E+00-5.89004E-10 4.60932E-09
 -1       195-6.99702E+01 3.67833E+05 1.57880E+02 5.33497E+00-1.32895E-09-5.92263E-09
 -1       251-1.90597E+06-1.71401E+04-1.54849E+05-1.13056E+05 4.34193E-09-1.45556E-08
 -1       252-1.25092E+06 2.25308E+04 2.49621E+04 3.48638E+05 3.40151E-10 8.51064E-08
 -1       253-1.61272E+06-9.16030E+03-2.76873E+04-2.33432E+05-1.45119E-08-9.07148E-08
 -1       254-1.55598E+06 4.20290E+04 3.88834E+03 4.62119E+05-1.45280E-09-8.40600E-08
 -1       255-1.63136E+06-1.18160E+04-1.57973E+04-2.28860E+05 1.64828E-08 9.71227E-08
 -1       256-1.20394E+06 3.47376E+04 7.71513E+04 3.30543E+05 2.22171E-08-1.94477E-08
 -1       257-1.93037E+06-2.98222E+04-7.65650E+04-9.93648E+04 7.71615E-09-7.07927E-08
 -1       258-8.75567E+05 2.66451E+04 1.39876E+05-2.25421E+03-3.43425E-09-6.40916E-08
 -1       259-1.92751E+06-2.98822E+04-7.45029E+04 1.02333E+05-4.96657E-08 4.21890E-08
 -1       260-1.21007E+06 3.64456E+04 8.00743E+04-3.33246E+05-2.09366E-08 2.35170E-08
 -1       261-1.62874E+06-1.29315E+04-7.62227E+03 2.30120E+05 5.79639E-08-2.57312E-08
 -1       262-1.55216E+06 5.11620E+04 2.24782E+04-4.61486E+05-1.90476E-08-1.15196E-07
 -1       263-1.61917E+06-1.71263E+04 1.61464E+03 2.33061E+05 1.27638E-08 5.66806E-08
 -1       264-1.21800E+06 7.98549E+04 1.07744E+05-3.45876E+05 9.52127E-08 1.47414E-07
 -1       265-1.93174E+06-6.68292E+04-3.97038E+04 1.12138E+05 3.76822E-08 2.72703E-08
 -1       266-2.71007E+04-1.26718E+04 6.35880E+04-5.50311E+01-6.54836E-11 4.45209E-08
 -1       267 3.14174E+04 1.47700E+04 4.49420E+04 6.34928E+01 3.63798E-12-5.22364E-08
 -1       268-4.21300E+03-2.09180E+03 1.67048E+04-8.09021E+00 0.00000E+00-8.35427E-08
 -1       269 4.97434E+03 2.50349E+03 1.08578E+04 9.42376E+00 1.27329E-11 5.03662E-08
 -1       270-7.46647E+02-4.11334E+02 5.24121E+03-1.27888E+00-3.99041E-11 4.55640E-08
 -1       271-2.47461E+06-3.02973E+05-1.85230E+05-9.54538E+05 9.66611E-09-1.07975E-08
 -1       272-2.57763E+06-4.02747E+05-1.19259E+05-9.12660E+05 1.26165E-08-1.54949E-07
 -1       273-2.50867E+06-3.50136E+05-4.37252E+04-9.47167E+05 2.28747E-08 5.71908E-08
 -1       274-2.53720E+06-3.45296E+05-2.45267E+04-9.23997E+05 3.37695E-09 7.63853E-08
 -1       275-2.51388E+06-3.54645E+05-1.01934E+04-9.45250E+05 4.45198E-09 2.67009E-08
 -1       276-2.52977E+06-3.41017E+05-5.37059E+03-9.27636E+05 1.21872E-09-3.35767E-08
 -1       277-2.51579E+06-3.53945E+05-2.67064E+03-9.43596E+05 2.81852E-09-4.33147E-09
 -1       278-2.52605E+06-3.43312E+05-1.77278E+03-9.31021E+05 3.51383E-09-8.82101E-08
 -1       279-2.51740E+06-3.52412E+05-1.92213E+03-9.41755E+05 2.19916E-09 4.34725E-08
 -1       280-2.52288E+06-3.47005E+05-3.20529E+03-9.34717E+05 1.72804E-09 7.16448E-08
 -1       281-2.51884E+06-3.50355E+05-5.96655E+03-9.39807E+05-6.87669E-09 3.75355E-08
 -1       282-2.52205E+06-3.54376E+05-1.39807E+04-9.38196E+05 4.39104E-09-4.68211E-08
 -1       283-2.51827E+06-3.45409E+05-2.50362E+04-9.38132E+05 1.40608E-09-2.74676E-08
 -1       284-2.54035E+06-3.91809E+05-6.79543E+04-9.37106E+05 4.20641E-09-1.64473E-08
 -1       285-2.50113E+06-3.16276E+05-1.05741E+05-9.39720E+05-1.69894E-09 7.50442E-08
 -1       301 1.98459E+04-3.28232E+05 1.73187E+05-5.99591E+05 9.45874E-10 3.54157E-08
 -1       302 2.13665E+04-2.84627E+05 1.08066E+05-8.77052E+05-7.74889E-10-7.22048E-09
 -1       303-1.52997E+03-3.12163E+05 7.21009E+04-5.98186E+05 4.29281E-10-1.74805E-09
 -1       304 1.48213E+04-2.86095E+05 9.17284E+04-8.76455E+05 2.18279E-10 1.11831E-07
 -1       305 1.15867E+04-3.19684E+05 1.36548E+05-6.00179E+05 2.41926E-10 8.92760E-09
 -1       306-1.67907E+07-2.99234E+06-3.95838E+06-1.89320E+06-6.09434E-08-2.92202E-08
 -1       307 9.61528E+06-7.96193E+05 2.32973E+06-7.60857E+06-5.76460E-07-4.98476E-08
 -1       308-8.14962E+06 1.69776E+05-3.81384E+05 2.10063E+06-5.24160E-08 1.93065E-07
 -1       309-3.22256E+06 2.95200E+05 7.28333E+05-1.25158E+07 2.23801E-07 1.24737E-07
 -1       310-8.97848E+06 3.18842E+04-5.29160E+05 1.92289E+06 7.19738E-08 4.42760E-08
 -1       311 1.15025E+07-1.36994E+06 2.78431E+06-6.25158E+06 3.08675E-07 2.06848E-07
 -1       312-1.69788E+07-2.97220E+06-3.41984E+06-2.68724E+06 1.08324E-07 1.77461E-07
 -1       313 1.76718E+07 3.82950E+06 4.56068E+06 7.29700E+06-1.93249E-08 8.60309E-08
 -1       314-1.22440E+07-7.11113E+06-3.26156E+06-6.88969E+06 4.32075E-07-5.63159E-08
 -1       315-2.54095E+06 1.11624E+07 2.54779E+06 6.03086E+06-2.61243E-07-1.02562E-07
 -1       316-2.26100E+06-5.89852E+06-3.28371E+05-4.36639E+06-6.51053E-07-1.70912E-07
 -1       317-1.40918E+07 1.11231E+07 7.09119E+05-1.08528E+06 4.35099E-07-3.15344E-07
 -1       318-2.63186E+06-6.09543E+06-6.04513E+05-4.50136E+06-6.09987E-07 5.66943E-08
 -1       319-1.23483E+06 1.14955E+07 2.49371E+06 6.39519E+06-6.16710E-08 8.05594E-08
 -1       320-1.29526E+07-7.39578E+06-4.23086E+06-6.77383E+06 1.40630E-07-2.24754E-08
 -1       336-4.05484E+01-1.53987E+06-1.08306E+04 6.28917E+03-2.13167E-08 6.64295E-09
 -1       337-4.17213E+03-1.54030E+06-1.33466E+04-1.52962E+04-3.87199E-08-3.37786E-09
 -1       338 3.50847E+02-1.53970E+06-1.99128E+04 8.88382E+03-2.75904E-08 2.74667E-09
 -1       339-2.09977E+04-1.55174E+06-4.45589E+04-2.03656E+04-4.97448E-08 6.68751E-08
 -1       340 1.38098E+04-1.52966E+06-6.99085E+04 1.12854E+04-3.22580E-08 4.01342E-08
 -1       406-3.23997E+01 3.67818E+05 6.53307E+02 2.55201E+00-1.50803E-09-7.51243E-10
 -1       407 1.73812E+02 3.67953E+05 1.39426E+03 2.15328E+01-4.48345E-10 6.17729E-09
 -1       408 6.60711E+02 3.67717E+05 2.78116E+03-2.45066E+01-2.30784E-09-4.49472E-09
 -1       409 2.95993E+03 3.68841E+05 6.26666E+03 2.56867E+02-2.78760E-10-1.91794E-08
 -1       410 8.60316E+03 3.66919E+05 1.27908E+04-2.47547E+02-2.49020E-09 2.43745E-10
 -1       521-1.88824E+07-3.77784E+06-4.84843E+06-1.87687E+06-6.86850E-08-2.80561E-08
 -1       522 1.04344E+07-7.84859E+05 2.47366E+06-9.79782E+06-3.81959E-07-1.76893E-07
 -1       523-9.42030E+06 3.90344E+04-4.36681E+05 2.50664E+06 4.51109E-08-2.47543E-07
 -1       524-5.13941E+06 1.34469E+06 8.45804E+05-1.52752E+07 5.84900E-07-4.08008E-07
 -1       525-1.03951E+07-1.73839E+05-6.20809E+05 2.30241E+06 4.99480E-07-2.34817E-07
 -1       526 1.30207E+07-1.54637E+06 3.09513E+06-8.09189E+06 2.91038E-07 1.64655E-08
 -1       527-1.91527E+07-3.85875E+06-4.12310E+06-2.81286E+06 2.22353E-08 7.78091E-08
 -1       528 2.03358E+07 4.30235E+06 5.01479E+06 8.64607E+06 2.37953E-07-7.05477E-08
 -1       529-1.37137E+07-8.60351E+06-3.92324E+06-7.57879E+06 1.77184E-07 4.94765E-09
 -1       530-4.09879E+06 1.37875E+07 2.83950E+06 6.62545E+06-2.61236E-07 4.03961E-07
 -1       531-2.59145E+06-7.07904E+06-3.64627E+05-4.95186E+06-7.64267E-07 2.03348E-07
 -1       532-1.73340E+07 1.34989E+07 8.47848E+05-2.63363E+06 2.25329E-07-4.51801E-07
 -1       533-2.95864E+06-7.28463E+06-6.63227E+05-5.07024E+06-9.37143E-08-6.86938E-07
 -1       534-2.70621E+06 1.41867E+07 2.77289E+06 7.03895E+06-4.71482E-08 4.77012E-07
 -1       535-1.44716E+07-8.96402E+06-4.99880E+06-7.43981E+06 2.70084E-08 2.96975E-07
 -1       536-6.81449E+05-4.92066E+04-2.53350E+04-4.70243E+04-5.11727E-09 4.06344E-08
 -1       537-8.20110E+04 4.85880E+04 8.91966E+04 1.11047E+05-9.76289E-08 9.42891E-08
 -1       538-4.03426E+05 1.31345E+03 6.73056E+03-6.66500E+04 3.12031E-08 9.52700E-08
 -1       539-2.92533E+05 3.35147E+03 2.35723E+04 1.27926E+05 1.31986E-07 1.21097E-07
 -1       540-4.76158E+05 3.75380E+02-1.51014E+04-6.43715E+04-3.86526E-08 1.01744E-07
 -1       541 5.51751E+04 1.40965E+04 8.94864E+04 9.05350E+04-5.82056E-08 7.27796E-08
 -1       542-7.41761E+05-1.72584E+04-7.15115E+04-2.85719E+04 2.33840E-08 4.26230E-08
 -1       543 2.92165E+05 2.37913E+04 1.36315E+05-9.70660E+03-1.08048E-08-6.08998E-09
 -1       544-7.06802E+05-1.45787E+04-6.53411E+04 3.53743E+04 4.97403E-09-3.20640E-08
 -1       545-2.59894E+04 8.31986E+03 6.98728E+04-1.02485E+05 6.17614E-08-7.86692E-08
 -1       546-4.32134E+05 5.28098E+03-1.13055E+04 6.39061E+04 2.85729E-08-7.71468E-08
 -1       547-3.04504E+05-4.75161E+03 8.22048E+03-1.30319E+05-9.93790E-08-1.07070E-07
 -1       548-4.35757E+05 4.73583E+03-2.16683E+04 6.37616E+04-9.47184E-08-8.63956E-08
 -1       549-1.86146E+04 1.07571E+04 4.77660E+04-1.01466E+05-5.81158E-08-4.21312E-08
 -1       550-7.10356E+05-1.66335E+04-1.16893E+05 3.44900E+04 1.06875E-08-3.13667E-08
 -1       551 3.27556E+04-7.31993E+05 7.81550E+03-1.12567E+06-7.94098E-08-8.46921E-09
 -1       552 7.04879E+04-7.60610E+05 2.30314E+04-1.60527E+06-5.75092E-08 1.37006E-08
 -1       553 5.24216E+04-7.60250E+05 4.09197E+04-1.12062E+06-9.37143E-08 1.33878E-08
 -1       554 1.02267E+05-7.64620E+05 9.13604E+04-1.60696E+06-5.77566E-08 1.41426E-09
 -1       555 8.07891E+04-7.80229E+05 1.63707E+05-1.12114E+06-9.50677E-08-1.47375E-08
 -1       556 1.54546E+05-2.73557E+05 5.36218E+04-3.13127E+05-1.70548E-08-5.20959E-09
 -1       557 2.56199E+05-3.54000E+05 2.94072E+04-3.98552E+05-2.80852E-09-1.48284E-08
 -1       558 1.46042E+05-2.75836E+05 9.78334E+03-3.10127E+05-2.15950E-08-2.07656E-08
 -1       559 2.37918E+05-3.59766E+05 5.56765E+03-4.10842E+05 1.42027E-08-1.13851E-08
 -1       560 1.37488E+05-2.70412E+05 9.86101E+02-3.16138E+05 7.68341E-09 1.33077E-08
 -1       561 2.26624E+05-3.55574E+05 9.76640E+02-4.18412E+05 3.12866E-10 3.92902E-09
 -1       562 1.30556E+05-2.66048E+05-4.00579E+02-3.21152E+05 2.31375E-09 1.27184E-08
 -1       563 2.18275E+05-3.51940E+05 1.52497E+02-4.23850E+05-2.68483E-09-4.33829E-10
 -1       564 1.25519E+05-2.62896E+05-3.28169E+02-3.24728E+05-5.47152E-09-1.21559E-08
 -1       565 2.12614E+05-3.49484E+05-1.07924E+01-4.27470E+05-4.91855E-09 6.27097E-10
 -1       566 1.22460E+05-2.60951E+05-2.65475E+02-3.26876E+05-1.13796E-08 5.05042E-09
 -1       567 2.09634E+05-3.48207E+05-4.35624E+02-4.29277E+05 1.21563E-08 2.56077E-08
 -1       568 1.21436E+05-2.60323E+05-1.10086E+03-3.27659E+05-7.91988E-09 4.16185E-09
 -1       569 2.08213E+05-3.48162E+05-2.71196E+03-4.28602E+05-2.63055E-08 1.65674E-08
 -1       570 1.23300E+05-2.62458E+05-5.60001E+03-3.27168E+05-4.63842E-09 8.99854E-09
 -1       571 2.60747E+05 9.25850E+03 1.32331E+04-9.33074E+04 3.75621E-09-3.64071E-09
 -1       572 2.62660E+05 3.48133E+03 6.48582E+03-1.02328E+05 1.66074E-09 9.08949E-09
 -1       573 2.61494E+05 1.08889E+03 2.88154E+03-9.31115E+04 1.26429E-08 1.28575E-08
 -1       574 2.61676E+05 6.34952E+02 1.44518E+03-1.02567E+05 2.27690E-08 2.28374E-09
 -1       575 2.61564E+05 3.92133E+02 6.81631E+02-9.30850E+04 1.05683E-08 2.59570E-09
 -1       576 2.61544E+05 4.05196E+02 3.48213E+02-1.02599E+05-6.95115E-09 3.89082E-09
 -1       577 2.61590E+05 3.46492E+02 1.72196E+02-9.30814E+04-5.05861E-09-5.65160E-09
 -1       578 2.61563E+05 3.76241E+02 9.59713E+01-1.02603E+05-6.04632E-09-1.23873E-09
 -1       579 2.61648E+05 3.17670E+02 5.98305E+01-9.30812E+04 1.20517E-08-9.51150E-09
 -1       580 2.61647E+05 3.32886E+02 6.04251E+01-1.02599E+05 1.08921E-08-2.85218E-09
 -1       581 2.61748E+05 2.64719E+02 8.20502E+01-9.30869E+04 1.42973E-08 4.60204E-10
 -1       582 2.61795E+05 2.86003E+02 1.62616E+02-1.02540E+05 3.19415E-09-1.96633E-09
 -1       583 2.61880E+05 2.59184E+02 3.05548E+02-9.31402E+04 2.51384E-09 3.71347E-09
 -1       584 2.62077E+05 5.06000E+02 6.92849E+02-1.02093E+05 5.88443E-09 8.96330E-09
 -1       585 2.61956E+05 1.06469E+03 1.39638E+03-9.35338E+04-6.74845E-10-3.31420E-09
 -1       586-2.18484E+03 1.17298E+05-1.56528E+03-2.17972E+05-2.95017E-09-8.80027E-09
 -1       587-8.20279E+02 1.17183E+05 1.03188E+03-2.39785E+05-7.85440E-09 1.34156E-08
 -1       588 4.65424E+02 1.16927E+05 4.06997E+03-2.17799E+05-8.07813E-09 8.40510E-09
 -1       589 4.29479E+03 1.18911E+05 1.01820E+04-2.39683E+05-6.76300E-09-1.54259E-08
 -1       590 1.37210E+04 1.15765E+05 2.12185E+04-2.18113E+05-6.11408E-09-3.10956E-09
 -1       591-8.23993E+04-1.83114E+04-2.21739E+04-3.65244E+04-1.32695E-09 7.68250E-09
 -1       592-8.57954E+04-2.24390E+04-1.20109E+04-4.08139E+04-3.21796E-09 3.66094E-09
 -1       593-8.46285E+04-1.66910E+04-4.99973E+03-3.81389E+04-1.90926E-09-2.86900E-09
 -1       594-8.27232E+04-1.91969E+04-2.49341E+03-4.09450E+04-2.70745E-10 1.61911E-08
 -1       595-8.47990E+04-1.66845E+04-1.14500E+03-3.82126E+04 3.76593E-09 1.00254E-08
 -1       596-8.25138E+04-1.90486E+04-5.82180E+02-4.09217E+04 1.34003E-08 4.72193E-09
 -1       597-8.48206E+04-1.66992E+04-3.17382E+02-3.82154E+04 8.13583E-09 9.74035E-09
 -1       598-8.24934E+04-1.90429E+04-2.55847E+02-4.09151E+04-1.03410E-09-4.81305E-09
 -1       599-8.48192E+04-1.66996E+04-3.27721E+02-3.82150E+04 2.70666E-09-1.73141E-08
 -1       600-8.25142E+04-1.90495E+04-6.09542E+02-4.09198E+04 3.69710E-09-2.53323E-08
 -1       601-8.47939E+04-1.66854E+04-1.20296E+03-3.82112E+04 1.77215E-09-2.63640E-09
 -1       602-8.27340E+04-1.92047E+04-2.62191E+03-4.09409E+04-3.97347E-09 8.64475E-10
 -1       603-8.46121E+04-1.66950E+04-5.25826E+03-3.81343E+04 4.18208E-09 1.71849E-09
 -1       604-8.59774E+04-2.26000E+04-1.26313E+04-4.07841E+04 4.16208E-10 2.05735E-08
 -1       605-8.22521E+04-1.84120E+04-2.33193E+04-3.64503E+04-1.71212E-10 1.59162E-09
 -1       606 2.61932E+04-1.31717E+04-2.36175E+04 2.32367E+04 4.93492E-09-2.13663E-09
 -1       607 2.21573E+04-4.29936E+03-1.17613E+04 2.61092E+04 1.56342E-09-3.11502E-11
 -1       608 2.44573E+04-7.73224E+02-5.26525E+03 2.30701E+04 1.01863E-10 3.47836E-09
 -1       609 2.40157E+04-2.62237E+02-2.65990E+03 2.63163E+04 2.16050E-09 1.37612E-08
 -1       610 2.42605E+04-3.44042E+01-1.26922E+03 2.30505E+04 4.71755E-09 1.26397E-09
 -1       611 2.41905E+04-3.39549E+01-6.40158E+02 2.63387E+04 7.38783E-09-8.34711E-09
 -1       612 2.42168E+04-2.15277E+01-3.04812E+02 2.30485E+04 1.27784E-09 1.94427E-09
 -1       613 2.42007E+04-2.99249E+01-1.37550E+02 2.63413E+04 7.85803E-10-7.91465E-09
 -1       614 2.41962E+04-2.71327E+01-3.44025E+01 2.30479E+04-6.52108E-10 1.69264E-08
 -1       615 2.41953E+04-2.83346E+01 5.21541E+01 2.63417E+04-3.06545E-09 1.53891E-08
 -1       616 2.41802E+04-2.41279E+01 1.61521E+02 2.30481E+04-2.67391E-10 4.65820E-09
 -1       617 2.42142E+04 6.64867E+00 3.70356E+02 2.63413E+04 1.11390E-09-7.40283E-09
 -1       618 2.41474E+04 8.30677E+01 7.47280E+02 2.30484E+04 2.28056E-09 1.23555E-09
 -1       619 2.44776E+04 5.84883E+02 1.67853E+03 2.63407E+04 5.30349E-10-3.97949E-09
 -1       620 2.38988E+04 1.85583E+03 3.37397E+03 2.30495E+04 2.10434E-10-1.02382E-08
 -1       621 6.74535E+02 2.94030E+05 5.14338E+03 3.69066E+04 9.06311E-10-9.35324E-09
 -1       622 8.19180E+02 2.95260E+05 4.15444E+03 5.36045E+04 1.02318E-09-4.01997E-09
 -1       623 1.22976E+02 2.94381E+05 4.48675E+03 3.67459E+04 1.09503E-09 3.17323E-09
 -1       624 2.11612E+03 2.96367E+05 8.27349E+03 5.37568E+04 1.15591E-09 7.41238E-10
 -1       625 2.07169E+03 2.92788E+05 1.42624E+04 3.67494E+04 1.25647E-09 4.26076E-09
 -1       626 2.31769E+05 5.50153E+04 3.64278E+03 1.13940E+05 2.04227E-09 7.54608E-09
 -1       627 2.29500E+05 5.66216E+04 1.75545E+03 1.17681E+05-7.12589E-10 7.64589E-09
 -1       628 2.31881E+05 5.33227E+04 7.42420E+02 1.14526E+05-5.57611E-09-7.27505E-09
 -1       629 2.29015E+05 5.61687E+04 3.64084E+02 1.17882E+05-4.37603E-09 2.20265E-09
 -1       630 2.31891E+05 5.32413E+04 1.69885E+02 1.14548E+05-2.89265E-09 1.13426E-08
 -1       631 2.28962E+05 5.61540E+04 9.36522E+01 1.17885E+05 2.48474E-09-9.04254E-09
 -1       632 2.31886E+05 5.32450E+04 6.58840E+01 1.14543E+05-1.31558E-09 6.90306E-10
 -1       633 2.28954E+05 5.61561E+04 7.97178E+01 1.17881E+05-7.90033E-09 2.81502E-08
 -1       634 2.31881E+05 5.32426E+04 1.34541E+02 1.14542E+05-1.50062E-08 2.58722E-08
 -1       635 2.28966E+05 5.61550E+04 2.75825E+02 1.17885E+05-5.96423E-09 1.63689E-08
 -1       636 2.31871E+05 5.32380E+04 5.58840E+02 1.14541E+05-3.74371E-09 3.02680E-09
 -1       637 2.29085E+05 5.62427E+04 1.22952E+03 1.17884E+05-3.17334E-09 1.61017E-08
 -1       638 2.31826E+05 5.35103E+04 2.52683E+03 1.14417E+05-6.35282E-09 1.75396E-09
 -1       639 2.30408E+05 5.80921E+04 5.97858E+03 1.17495E+05-4.56021E-09 1.23555E-08
 -1       640 2.31644E+05 5.90200E+04 1.24070E+04 1.12089E+05-4.72392E-09-8.08768E-09
 -1       656 6.02366E+04-1.53867E+06-1.45407E+05-2.22814E+03-5.16593E-10-4.22000E-09
 -1       657-7.96527E+04-1.60437E+06-1.20396E+05 5.34171E+03-7.10315E-10-1.45592E-08
 -1       658 1.91668E+04-1.55736E+06-7.40614E+04-3.94665E+03 4.14047E-10 9.92255E-09
 -1       659-8.58980E+04-1.60734E+06-1.28602E+05 6.71687E+03-3.00133E-11-1.82768E-08
 -1       660 6.64675E+04-1.53572E+06-1.59519E+05-3.60328E+03-1.61526E-09 1.27314E-08
 -1       661 1.56494E+05 1.65012E+04 1.61285E+04 6.11196E+04-3.69164E-09 7.38419E-09
 -1       662 1.65405E+05 2.86487E+04 1.08689E+04 5.77354E+04 2.51549E-09-2.44563E-09
 -1       663 1.59659E+05 2.16780E+04 3.80154E+03 6.02032E+04-1.12414E-09-1.55728E-09
 -1       664 1.61737E+05 2.25929E+04 2.27367E+03 5.88529E+04 1.06013E-11-1.02650E-08
 -1       665 1.60137E+05 2.23870E+04 8.96953E+02 6.00657E+04 3.18323E-11-8.55607E-10
 -1       666 1.61173E+05 2.17805E+04 5.24391E+02 5.90313E+04 3.83827E-09-8.27296E-09
 -1       667 1.60219E+05 2.24692E+04 2.78024E+02 6.00326E+04 2.58743E-09-1.05040E-08
 -1       668 1.61084E+05 2.17192E+04 2.82066E+02 5.90791E+04-7.14076E-09-5.00125E-09
 -1       669 1.60226E+05 2.24465E+04 3.80906E+02 6.00183E+04-1.27201E-10 1.12911E-08
 -1       670 1.61178E+05 2.19240E+04 8.28490E+02 5.90803E+04-7.89360E-09 5.90656E-09
 -1       671 1.60125E+05 2.22687E+04 1.47075E+03 6.00296E+04-7.04702E-10-6.46895E-09
 -1       672 1.62036E+05 2.33541E+04 3.76263E+03 5.88721E+04 3.09095E-09 5.00256E-09
 -1       673 1.59372E+05 2.10525E+04 6.30548E+03 6.02126E+04 2.94585E-09-3.32398E-09
 -1       674 1.68037E+05 3.34845E+04 1.80324E+04 5.71090E+04-4.79986E-10-7.52152E-09
 -1       675 1.54162E+05 1.24219E+04 2.67662E+04 6.16863E+04-4.32919E-10 1.01991E-08
 -1       676 2.21153E+01-2.69835E+05-1.02294E+03-1.05978E+02 8.46029E-10-4.20187E-09
 -1       677-2.70895E+02-2.70082E+05-1.87214E+03 2.11809E+02 6.92555E-09-8.11170E-09
 -1       678 1.81444E+02-2.69659E+05-3.30947E+03-1.05760E+02 9.46329E-10 1.13825E-09
 -1       679-3.30972E+03-2.72080E+05-7.86182E+03 2.10969E+02 8.10019E-09-1.21299E-08
 -1       680 1.97583E+03-2.67838E+05-1.26706E+04-1.03960E+02 1.15642E-09 1.84457E-10
 -1       771-2.82532E+06-6.31768E+05-1.12138E+05-1.30819E+06-2.65572E-08-2.20898E-08
 -1       772-2.76640E+06-7.02501E+05-5.81646E+04-1.38952E+06-2.04891E-08 9.66247E-09
 -1       773-2.84662E+06-6.14999E+05-2.88794E+04-1.31666E+06-1.26602E-08 8.17090E-09
 -1       774-2.75786E+06-6.90534E+05-1.30463E+04-1.40623E+06 2.09548E-08 2.06637E-09
 -1       775-2.85690E+06-6.07724E+05-9.24171E+03-1.32042E+06 2.06637E-09 1.04046E-09
 -1       776-2.76454E+06-6.89141E+05-3.54348E+03-1.41830E+06 7.24685E-09 5.96629E-09
 -1       777-2.86561E+06-6.01382E+05-3.90429E+03-1.32373E+06 1.76078E-09-6.47196E-09
 -1       778-2.77161E+06-6.87922E+05-1.15085E+03-1.42860E+06-3.06318E-09 7.49606E-09
 -1       779-2.87299E+06-5.95914E+05-1.93154E+03-1.32655E+06-5.23869E-09-5.52245E-09
 -1       780-2.77782E+06-6.86754E+05-4.16301E+02-1.43695E+06 8.26549E-09 7.37418E-09
 -1       781-2.87879E+06-5.91542E+05-9.15870E+02-1.32876E+06-1.24855E-08 4.04543E-09
 -1       782-2.78260E+06-6.85770E+05-1.75093E+02-1.44310E+06-2.54950E-08-4.66662E-09
 -1       783-2.88282E+06-5.88540E+05-4.64777E+02-1.33030E+06-7.57427E-09-1.13719E-08
 -1       784-2.78571E+06-6.85219E+05-4.25652E+02-1.44685E+06-1.67620E-08-1.67620E-09
 -1       785-2.88480E+06-5.87059E+05-9.25044E+02-1.33102E+06-2.79724E-08 4.73119E-09
 -1       786 2.12290E+05-1.14598E+04 2.65153E+04-3.87683E+02-2.37667E-05-5.76765E-08
 -1       787 2.23778E+05 1.32686E+04 1.87586E+04-4.11434E+02-4.73423E-05-9.10825E-08
 -1       788 2.16722E+05-1.79589E+03 6.86262E+03-3.83642E+02-2.62235E-05-1.85378E-08
 -1       789 2.18615E+05 2.07950E+03 4.31136E+03-4.16180E+02-4.93748E-06-4.51291E-09
 -1       790 2.17454E+05-2.79932E+02 1.75337E+03-3.82956E+02 1.64959E-05 2.69816E-08
 -1       791 2.17761E+05 3.26546E+02 1.02751E+03-4.20549E+02 3.79502E-05 7.52221E-08
 -1       792 2.17577E+05-4.42621E+01 4.65200E+02-3.79276E+02 5.78954E-05 9.08791E-08
 -1       793 2.17622E+05 6.21036E+01 2.97113E+02-4.33178E+02 7.76941E-05 1.61328E-07
 -1       794 2.17593E+05-1.56667E+01 2.08321E+02-3.70327E+02 3.89282E-05 4.78482E-08
 -1       795 2.17629E+05 8.05259E+01 2.84278E+02-4.59704E+02 1.24496E-07 2.07815E-08
 -1       796 2.17570E+05-6.26718E+01 4.15523E+02-3.52750E+02 7.90595E-09 6.80303E-09
 -1       797 2.17815E+05 4.63751E+02 9.71250E+02-5.09678E+02 3.32981E-10 2.49662E-09
 -1       798 2.17407E+05-3.98613E+02 1.53019E+03-3.20351E+02 6.11932E-09 1.78582E-08
 -1       799 2.18963E+05 2.94808E+03 4.16948E+03-6.00105E+02 1.14064E-09 4.61483E-09
 -1       800 2.16421E+05-2.54502E+03 5.88820E+03-2.62318E+02 1.20077E-09 6.79347E-09
 -1       801-1.55931E+05-7.80936E+06-1.16489E+06 1.09638E+06 5.76838E-08-5.91244E-08
 -1       802 7.55147E+05 9.84660E+06 2.64556E+06-1.44028E+06-1.48648E-08-2.79560E-08
 -1       803-5.64773E+05-1.35718E+07-2.07090E+06 6.33751E+05 1.49943E-07 3.87849E-08
 -1       804 4.23661E+05 6.73050E+06 2.09277E+06 3.98299E+05-2.52367E-08-1.20324E-07
 -1       805 1.20680E+05-4.68188E+06-2.03552E+05-7.43600E+05-9.72095E-08-7.48155E-08
 -1       806-2.66521E+05-6.05319E+04-2.31833E+04-1.15311E+05 6.72799E-10 7.59337E-09
 -1       807-2.67338E+05-5.77606E+04-1.13893E+04-1.22109E+05 1.38467E-08 1.90994E-08
 -1       808-2.67213E+05-5.21227E+04-4.83112E+03-1.19207E+05-6.46116E-09 4.65093E-10
 -1       809-2.64888E+05-5.46175E+04-2.36162E+03-1.22461E+05-7.48423E-09-1.28580E-09
 -1       810-2.67319E+05-5.18249E+04-1.08150E+03-1.19377E+05-8.23502E-09 6.07588E-09
 -1       811-2.64699E+05-5.44950E+04-5.36537E+02-1.22435E+05-1.83463E-08 1.32333E-08
 -1       812-2.67334E+05-5.18476E+04-2.68431E+02-1.19376E+05-1.39371E-08-3.27600E-09
 -1       813-2.64671E+05-5.44997E+04-1.70575E+02-1.22418E+05-9.02673E-09-3.84748E-08
 -1       814-2.67327E+05-5.18582E+04-1.62264E+02-1.19370E+05 9.48921E-09-1.49776E-08
 -1       815-2.64669E+05-5.45042E+04-2.55833E+02-1.22410E+05 1.88793E-08-6.02449E-09
 -1       816-2.67304E+05-5.18598E+04-4.81250E+02-1.19363E+05 1.29421E-08 3.70937E-09
 -1       817-2.64746E+05-5.45521E+04-1.03149E+03-1.22394E+05-1.34046E-08-7.32007E-09
 -1       818-2.67234E+05-5.20103E+04-2.10334E+03-1.19292E+05 1.11322E-09 9.76752E-09
 -1       819-2.65906E+05-5.58081E+04-4.94848E+03-1.22094E+05 6.03222E-09 3.98359E-10
 -1       820-2.66811E+05-5.57691E+04-1.00725E+04-1.17709E+05-5.50244E-10 1.41729E-08
 -1       821-3.65459E+05 2.00643E+04-4.64971E+04 1.46966E+03 1.07026E-08 1.02955E-09
 -1       822-3.85227E+05-2.32316E+04-3.28366E+04-2.65778E+03 2.95773E-09-7.11589E-09
 -1       823-3.73030E+05 3.15080E+03-1.20301E+04 2.10364E+03-8.33940E-09 1.95087E-10
 -1       824-3.76268E+05-3.64027E+03-7.55529E+03-2.96040E+03-9.46923E-11-6.43013E-10
 -1       825-3.74418E+05 4.89679E+02-3.12962E+03 1.77233E+03 1.34969E-08-7.21514E-09
 -1       826-3.74455E+05-5.65976E+02-1.79918E+03-1.51236E+03 1.63461E-08-8.84773E-09
 -1       827-3.74833E+05 7.18633E+01-1.03084E+03 6.55549E+02 7.44420E-09 1.98017E-09
 -1       828-3.74114E+05-1.59652E+02-7.50321E+02 9.09421E+02 2.03769E-09 4.98971E-09
 -1       829-3.74755E+05 8.08711E+01-1.02477E+03-6.49490E+02 1.33032E-09-3.10479E-09
 -1       830-3.74627E+05-5.91746E+02-1.86465E+03 3.00592E+03-2.55181E-10-4.45530E-09
 -1       831-3.74328E+05 5.10130E+02-3.16458E+03-1.44098E+03-3.81463E-09-1.63175E-09
 -1       832-3.76313E+05-3.71682E+03-7.69403E+03 3.65007E+03-1.80440E-09-8.66294E-11
 -1       833-3.73075E+05 3.20734E+03-1.22575E+04-1.29366E+03-3.22677E-09-9.04947E-10
 -1       834-3.85240E+05-2.36440E+04-3.33858E+04 2.47374E+03-1.89162E-09 2.86127E-09
 -1       835-3.65396E+05 2.04162E+04-4.73442E+04-2.64619E+02 5.25596E-09-3.22143E-09
 -1       836-1.38234E+03 3.52580E+05 2.18558E+04-2.66472E+04-6.00539E-09-6.50289E-11
 -1       837 4.61847E+03 3.59436E+05 1.83047E+04-5.40645E+04-6.59679E-09-8.13566E-09
 -1       838-5.35198E+02 3.54520E+05 1.83776E+04-2.65541E+04-5.27643E-09 1.27366E-08
 -1       839 1.14194E+04 3.64489E+05 3.44967E+04-5.41038E+04-5.50062E-09 1.42130E-08
 -1       840-3.56277E+03 3.47456E+05 5.48858E+04-2.66130E+04-5.35874E-09-7.49878E-10
 -1       856-5.92440E+04 7.56565E+03-1.99367E+04-3.68297E+02 3.53515E-09 8.70023E-09
 -1       857-6.74604E+04-8.88740E+03-1.37247E+04 5.20911E+03 6.13545E-09 2.17406E-08
 -1       858-6.24970E+04 1.06095E+03-5.17335E+03-3.91864E+02 2.99349E-09 3.60433E-09
 -1       859-6.37266E+04-1.24651E+03-3.12253E+03 5.24458E+03-1.26983E-09 7.76487E-09
 -1       860-6.29831E+04 1.48506E+02-1.30971E+03-4.03562E+02-6.33975E-10 6.19889E-09
 -1       861-6.31673E+04-1.75979E+02-7.22725E+02 5.26058E+03-6.01659E-10 6.51616E-09
 -1       862-6.30590E+04 2.01935E+01-3.04901E+02-4.07846E+02-3.61535E-10-8.28919E-10
 -1       863-6.30750E+04-2.06375E+01-1.21219E+02 5.26305E+03-4.29302E-09-7.49529E-09
 -1       864-6.30757E+04-3.31679E+00 2.16586E+01-4.06032E+02-1.07806E-09-3.36843E-09
 -1       865-6.30289E+04 4.59935E+01 1.89770E+02 5.25279E+03-1.46630E-09 2.61016E-09
 -1       866-6.31032E+04-4.65391E+01 3.94206E+02-3.97587E+02-9.22256E-10-9.34506E-10
 -1       867-6.28405E+04 3.84423E+02 9.77793E+02 5.22979E+03-4.25757E-10 3.65868E-09
 -1       868-6.32599E+04-3.35935E+02 1.62666E+03-3.83028E+02-6.39034E-10 5.97527E-09
 -1       869-6.16459E+04 2.79466E+03 4.33395E+03 5.19172E+03 4.81532E-09-1.36761E-08
 -1       870-6.42912E+04-2.39176E+03 6.28922E+03-3.59451E+02-4.33340E-09-4.27872E-09
 -1       871-4.97816E+03-2.01843E+04-1.74126E+04 1.14966E+05-4.46016E-09 1.58889E-09
 -1       872-1.84499E+03-2.42071E+04-7.29047E+03 1.49072E+05-9.19772E-09-2.41907E-08
 -1       873 3.04012E+02-2.22585E+04 5.32820E+02 1.14715E+05-5.13819E-09-2.23849E-10
 -1       874 2.88159E+03-2.00868E+04 8.75198E+03 1.49097E+05-9.84528E-09 1.47388E-08
 -1       875 6.07446E+03-2.43538E+04 1.97427E+04 1.14927E+05-4.38558E-09-1.57161E-09
 -1       876 2.64079E+05 4.48150E+04 1.38000E+04 1.06333E+05 2.60241E-09-1.49184E-08
 -1       877 2.64935E+05 4.77782E+04 7.36966E+03 1.10355E+05 1.02937E-08 1.61788E-09
 -1       878 2.65371E+05 4.32854E+04 3.08748E+03 1.07462E+05-5.82349E-09-8.67840E-09
 -1       879 2.63058E+05 4.59075E+04 1.53824E+03 1.10450E+05-1.26533E-09 9.15207E-09
 -1       880 2.65463E+05 4.32693E+04 7.16295E+02 1.07508E+05 2.69915E-09-1.62897E-08
 -1       881 2.62933E+05 4.58277E+04 3.82068E+02 1.10429E+05 5.87443E-09-9.59133E-09
 -1       882 2.65472E+05 4.32812E+04 2.43619E+02 1.07510E+05 4.38308E-09 6.84501E-09
 -1       883 2.62924E+05 4.58237E+04 2.60626E+02 1.10423E+05-4.46948E-09-6.05132E-09
 -1       884 2.65466E+05 4.32786E+04 4.13429E+02 1.07510E+05-2.21144E-09-1.37403E-08
 -1       885 2.62957E+05 4.58295E+04 8.30486E+02 1.10433E+05-4.76783E-09-2.55600E-08
 -1       886 2.65434E+05 4.32544E+04 1.67346E+03 1.07507E+05-5.64903E-09-1.04706E-08
 -1       887 2.63251E+05 4.60222E+04 3.65529E+03 1.10475E+05-3.69846E-09-7.11316E-09
 -1       888 2.65203E+05 4.32952E+04 7.36546E+03 1.07390E+05-1.13272E-08-1.84218E-09
 -1       889 2.67637E+05 5.05811E+04 1.75950E+04 1.10339E+05-5.34589E-09 7.34326E-09
 -1       890 2.62196E+05 4.68664E+04 3.29546E+04 1.04587E+05-7.59110E-09-8.48559E-09
 -1       891-8.71792E+01-1.47137E+05-1.78784E+03 2.52336E+04 4.46335E-10 1.30312E-08
 -1       892-1.68305E+02-1.47606E+05-1.92673E+03 3.83007E+04 2.82967E-09 9.37962E-09
 -1       893 3.20405E+01-1.47195E+05-2.73473E+03 2.52401E+04-1.30512E-09-2.33013E-09
 -1       894-1.37274E+03-1.48644E+05-5.66485E+03 3.81601E+04 1.12982E-09 2.22053E-09
 -1       895-1.08786E+03-1.46015E+05-9.97748E+03 2.53755E+04 5.79575E-10 3.73529E-09
 -1       956-3.37653E+05-5.08798E+03-1.25757E+04 2.87113E+04 5.87806E-09 7.81392E-09
 -1       957-3.40122E+05-1.78927E+03-6.45488E+03 3.44929E+04-1.43564E-09-5.09067E-09
 -1       958-3.38783E+05-2.19133E+02-2.90892E+03 2.85458E+04-3.63616E-09-1.41263E-08
 -1       959-3.38969E+05-1.19527E+02-1.48515E+03 3.46842E+04 1.35788E-09 5.86306E-09
 -1       960-3.38893E+05-3.55673E+01-7.24004E+02 2.85290E+04 7.70615E-09-9.02605E-09
 -1       961-3.38895E+05-5.07853E+01-3.83046E+02 3.47040E+04 1.92922E-08-1.27213E-08
 -1       962-3.38920E+05-3.60913E+01-2.17872E+02 2.85262E+04 1.36006E-08-1.21167E-09
 -1       963-3.38896E+05-4.60177E+01-1.72174E+02 3.47077E+04 1.48178E-08 4.52951E-09
 -1       964-3.38927E+05-3.21009E+01-2.06025E+02 2.85253E+04 4.61591E-09 1.24805E-09
 -1       965-3.38910E+05-4.20777E+01-3.53532E+02 3.47076E+04-3.02657E-09-5.78348E-09
 -1       966-3.38915E+05-2.37913E+01-6.62591E+02 2.85264E+04 5.36375E-09 1.36265E-09
 -1       967-3.38992E+05-9.69559E+01-1.35824E+03 3.46956E+04 1.65278E-09-8.86075E-09
 -1       968-3.38825E+05-1.84214E+02-2.65837E+03 2.85372E+04-1.94723E-09-1.32901E-08
 -1       969-3.40060E+05-1.61717E+03-5.90166E+03 3.45674E+04-1.78625E-09-1.75956E-09
 -1       970-3.37801E+05-4.63132E+03-1.14964E+04 2.86483E+04-1.69166E-10 1.36024E-08
 -1       971-3.11488E+05-1.56390E+03-8.46188E+03 1.40289E+04 3.07773E-09 1.00459E-08
 -1       972-3.13527E+05-1.14839E+03-4.60838E+03 1.94254E+04 3.02225E-09 1.44814E-08
 -1       973-3.12430E+05-5.08950E+01-2.06394E+03 1.39183E+04 8.67522E-09-2.06114E-09
 -1       974-3.12554E+05-6.68842E+01-1.06987E+03 1.95496E+04 9.88098E-09-1.22110E-08
 -1       975-3.12503E+05-1.08098E+01-5.34974E+02 1.39074E+04 1.40199E-09-1.21280E-08
 -1       976-3.12497E+05-2.22062E+01-3.09137E+02 1.95633E+04 2.10366E-09-4.58772E-09
 -1       977-3.12518E+05-1.06204E+01-2.25153E+02 1.39046E+04-2.32444E-09-5.35920E-10
 -1       978-3.12501E+05-1.69426E+01-2.64612E+02 1.95672E+04-7.45524E-09 1.59207E-09
 -1       979-3.12517E+05-3.21685E+00-4.26075E+02 1.39035E+04-9.01019E-09-5.66263E-09
 -1       980-3.12533E+05-1.43043E+01-8.23280E+02 1.95680E+04-7.35366E-09-3.42950E-08
 -1       981-3.12491E+05 1.73493E+01-1.59477E+03 1.39039E+04-1.22259E-09 5.09800E-09
 -1       982-3.12752E+05-1.32020E+02-3.29650E+03 1.95620E+04-6.01221E-09 1.24034E-08
 -1       983-3.12290E+05-8.45611E+01-6.40513E+03 1.39094E+04-6.23822E-09-3.84239E-09
 -1       984-3.15833E+05-3.47681E+03-1.43439E+04 1.94838E+04-1.03819E-08-6.98628E-09
 -1       985-3.09391E+05-4.77124E+03-2.63399E+04 1.39761E+04-8.46831E-09 2.93039E-09
 -3
    1PSTEP                        25          13           1          
  100CL  113 6.17676E-01         409                     0   13           1
 -4  DISP        4    1
 -5  D1          1    2    1    0
 -5  D2          1    2    2    0
 -5  D3          1    2    3    0
 -5  ALL         1    2    0    0    1ALL
 -1         1 1.50293E-03 0.00000E+00 0.00000E+00
 -1         2 1.41362E-03-6.94248E-29 0.00000E+00
 -1         3 2.91231E-04 1.50410E-28 0.00000E+00
 -1         5 1.46974E-04 3.12389E-26 1.65436E-24
 -1         8 1.48417E-03-5.85244E-07 0.00000E+00
 -1         9 1.44911E-03-4.18541E-06 0.00000E+00
 -1        10 2.64352E-04-3.17303E-06-6.61744E-24
 -1        12 1.48886E-04 7.98990E-07 8.27181E-25
 -1        15 1.46152E-03-6.43328E-07-2.06795E-25
 -1        16 1.46866E-03-5.08735E-06 0.00000E+00
 -1        17 1.80600E-04-7.08709E-06 0.00000E+00
 -1        18 1.53148E-04 3.46684E-05 0.00000E+00
 -1        19 1.54626E-04 1.59117E-06 0.00000E+00
 -1        20 1.54761E-04-1.09826E-05 0.00000E+00
 -1        21 1.53951E-04-2.69647E-05-3.30872E-24
 -1        24 2.77456E-05-1.05603E-05 0.00000E+00
 -1        25 1.63409E-04 3.49119E-05 0.00000E+00
 -1        26 1.64611E-04 2.21914E-06 0.00000E+00
 -1        27 1.62442E-04-1.42952E-05 0.00000E+00
 -1        28 1.62105E-04-2.75447E-05 0.00000E+00
 -1        32 0.00000E+00 0.00000E+00 0.00000E+00
 -1        33 1.73271E-04 2.96421E-06 0.00000E+00
 -1        34 1.71318E-04-1.43517E-05 0.00000E+00
 -1        35 1.69529E-04-2.78625E-05 0.00000E+00
 -1        51 1.50172E-03-1.07105E-07 0.00000E+00
 -1        52 1.49948E-03-2.01216E-07 0.00000E+00
 -1        53 1.49639E-03-2.93938E-07 0.00000E+00
 -1        54 1.49267E-03-3.87318E-07 0.00000E+00
 -1        55 1.48853E-03-4.82788E-07 6.61744E-24
 -1        56 1.49966E-03-1.68084E-07-5.29396E-23
 -1        57 1.49560E-03 1.42550E-06 0.00000E+00
 -1        58 1.49098E-03 4.53441E-06-1.05879E-22
 -1        59 1.48591E-03 8.75127E-06 0.00000E+00
 -1        60 1.48063E-03 1.35287E-05 0.00000E+00
 -1        61 1.47536E-03 1.82722E-05 0.00000E+00
 -1        62 1.47032E-03 2.23932E-05 1.05879E-22
 -1        63 1.46573E-03 2.53460E-05-5.29396E-23
 -1        64 1.46172E-03 2.67500E-05-1.05879E-22
 -1        65 1.45840E-03 2.63338E-05-5.29396E-23
 -1        66 1.45577E-03 2.40837E-05 0.00000E+00
 -1        67 1.45378E-03 2.01162E-05-5.29396E-23
 -1        68 1.45230E-03 1.47906E-05 0.00000E+00
 -1        69 1.45117E-03 8.56931E-06 0.00000E+00
 -1        70 1.45014E-03 2.02906E-06-5.29396E-23
 -1        86 1.41528E-03-6.79431E-07 0.00000E+00
 -1        87 1.42022E-03-1.36933E-06-1.32349E-23
 -1        88 1.42735E-03-2.07147E-06 2.64698E-23
 -1        89 1.43553E-03-2.78173E-06 1.32349E-23
 -1        90 1.44327E-03-3.48863E-06 2.64698E-23
 -1       121 2.90477E-04-5.16230E-07-1.32349E-23
 -1       122 2.88217E-04-1.03465E-06-6.61744E-24
 -1       123 2.84459E-04-1.55740E-06 1.32349E-23
 -1       124 2.79216E-04-2.08667E-06-6.61744E-24
 -1       125 2.72505E-04-2.62431E-06 1.32349E-23
 -1       191 1.47027E-04 1.33233E-07 2.48154E-24
 -1       192 1.47186E-04 2.66454E-07-1.24077E-24
 -1       193 1.47452E-04 3.99654E-07 0.00000E+00
 -1       194 1.47824E-04 5.32819E-07 0.00000E+00
 -1       195 1.48302E-04 6.65935E-07-1.65436E-24
 -1       251 1.48342E-03 1.79842E-05 0.00000E+00
 -1       252 1.48173E-03 6.57243E-05 0.00000E+00
 -1       253 1.47892E-03 1.34064E-04 0.00000E+00
 -1       254 1.47529E-03 2.13955E-04-6.61744E-24
 -1       255 1.47171E-03 2.93184E-04 1.32349E-23
 -1       256 1.46903E-03 3.59554E-04 0.00000E+00
 -1       257 1.46746E-03 4.04385E-04-1.32349E-23
 -1       258 1.46675E-03 4.19496E-04-6.61744E-24
 -1       259 1.46605E-03 4.04474E-04 0.00000E+00
 -1       260 1.46448E-03 3.59651E-04-6.61744E-24
 -1       261 1.46179E-03 2.93147E-04 0.00000E+00
 -1       262 1.45818E-03 2.13581E-04 0.00000E+00
 -1       263 1.45450E-03 1.33147E-04 1.32349E-23
 -1       264 1.45164E-03 6.40572E-05 0.00000E+00
 -1       265 1.44991E-03 1.54030E-05 0.00000E+00
 -1       266 1.48040E-03-6.03425E-07 0.00000E+00
 -1       267 1.47662E-03-6.12070E-07 8.27181E-25
 -1       268 1.47284E-03-6.21318E-07-8.27181E-25
 -1       269 1.46907E-03-6.28777E-07 0.00000E+00
 -1       270 1.46529E-03-6.36195E-07-2.06795E-25
 -1       271 1.48184E-03 2.85116E-06 1.32349E-23
 -1       272 1.47951E-03 6.19941E-06 1.32349E-23
 -1       273 1.47725E-03 9.36590E-06 0.00000E+00
 -1       274 1.47509E-03 1.22452E-05 1.32349E-23
 -1       275 1.47308E-03 1.47393E-05 0.00000E+00
 -1       276 1.47124E-03 1.67527E-05 0.00000E+00
 -1       277 1.46963E-03 1.81965E-05 0.00000E+00
 -1       278 1.46825E-03 1.89881E-05-1.32349E-23
 -1       279 1.46715E-03 1.90529E-05 0.00000E+00
 -1       280 1.46635E-03 1.83251E-05 0.00000E+00
 -1       281 1.46587E-03 1.67485E-05-2.64698E-23
 -1       282 1.46572E-03 1.42767E-05 0.00000E+00
 -1       283 1.46592E-03 1.08748E-05 0.00000E+00
 -1       284 1.46647E-03 6.51928E-06 0.00000E+00
 -1       285 1.46738E-03 1.19662E-06-2.64698E-23
 -1       301 1.45267E-03-4.35676E-06 0.00000E+00
 -1       302 1.45534E-03-4.49868E-06-3.30872E-24
 -1       303 1.45771E-03-4.63762E-06-1.32349E-23
 -1       304 1.46033E-03-4.77653E-06 0.00000E+00
 -1       305 1.46380E-03-4.91958E-06 0.00000E+00
 -1       306 1.47758E-03-1.10288E-04-1.05879E-22
 -1       307 1.53964E-03-4.08207E-04 0.00000E+00
 -1       308 1.60627E-03-8.50325E-04 2.11758E-22
 -1       309 1.66664E-03-1.37070E-03-5.29396E-23
 -1       310 1.72801E-03-1.88017E-03 0.00000E+00
 -1       311 1.79541E-03-2.29063E-03 0.00000E+00
 -1       312 1.85229E-03-2.54210E-03-1.05879E-22
 -1       313 1.86549E-03-2.59638E-03 0.00000E+00
 -1       314 1.79565E-03-2.45622E-03-1.05879E-22
 -1       315 1.61676E-03-2.15250E-03-5.29396E-23
 -1       316 1.33910E-03-1.73866E-03 0.00000E+00
 -1       317 9.99207E-04-1.26979E-03 0.00000E+00
 -1       318 6.64055E-04-8.04970E-04 1.05879E-22
 -1       319 3.99286E-04-4.03776E-04 0.00000E+00
 -1       320 2.36525E-04-1.20624E-04 0.00000E+00
 -1       336 2.54596E-04-3.77637E-06 1.32349E-23
 -1       337 2.43086E-04-4.39821E-06-6.61744E-24
 -1       338 2.29869E-04-5.03996E-06 0.00000E+00
 -1       339 2.15004E-04-5.70220E-06-6.61744E-24
 -1       340 1.98557E-04-6.38832E-06 0.00000E+00
 -1       406 1.49577E-04 9.31962E-07-2.48154E-24
 -1       407 1.50374E-04 1.06481E-06-4.13590E-25
 -1       408 1.51278E-04 1.19749E-06 2.48154E-24
 -1       409 1.52288E-04 1.32980E-06-6.20385E-25
 -1       410 1.53404E-04 1.46147E-06 4.13590E-25
 -1       521 1.49828E-03-1.19854E-04 1.05879E-22
 -1       522 1.56084E-03-4.37609E-04 0.00000E+00
 -1       523 1.62517E-03-9.08012E-04 1.05879E-22
 -1       524 1.68089E-03-1.45947E-03-5.29396E-23
 -1       525 1.73806E-03-1.99860E-03 0.00000E+00
 -1       526 1.80405E-03-2.43329E-03-5.29396E-23
 -1       527 1.86148E-03-2.69837E-03 0.00000E+00
 -1       528 1.87399E-03-2.75428E-03 0.00000E+00
 -1       529 1.79683E-03-2.60324E-03 0.00000E+00
 -1       530 1.60138E-03-2.28102E-03 0.00000E+00
 -1       531 1.29787E-03-1.84428E-03-1.05879E-22
 -1       532 9.26926E-04-1.35167E-03 5.29396E-23
 -1       533 5.60752E-04-8.62875E-04-1.05879E-22
 -1       534 2.70197E-04-4.38095E-04 0.00000E+00
 -1       535 9.09655E-05-1.35646E-04-1.05879E-22
 -1       536 1.79946E-04 2.45355E-05-6.61744E-24
 -1       537 1.78200E-04 8.18909E-05 3.30872E-24
 -1       538 1.75420E-04 1.56011E-04 0.00000E+00
 -1       539 1.72062E-04 2.37840E-04 0.00000E+00
 -1       540 1.68985E-04 3.15905E-04 3.30872E-24
 -1       541 1.66943E-04 3.78752E-04-1.65436E-24
 -1       542 1.65974E-04 4.19464E-04 3.30872E-24
 -1       543 1.65736E-04 4.31266E-04 1.65436E-24
 -1       544 1.65437E-04 4.14746E-04-3.30872E-24
 -1       545 1.64336E-04 3.70708E-04 0.00000E+00
 -1       546 1.62253E-04 3.07121E-04 3.30872E-24
 -1       547 1.59404E-04 2.32075E-04 0.00000E+00
 -1       548 1.56565E-04 1.57160E-04 0.00000E+00
 -1       549 1.54507E-04 9.39657E-05-1.65436E-24
 -1       550 1.53432E-04 5.05056E-05-1.65436E-24
 -1       551 1.59151E-04-7.57256E-06 0.00000E+00
 -1       552 1.34920E-04-8.11474E-06-3.30872E-24
 -1       553 1.08779E-04-8.70073E-06-8.27181E-24
 -1       554 8.16138E-05-9.31417E-06 6.61744E-24
 -1       555 5.43091E-05-9.93366E-06 2.64698E-23
 -1       556 1.74118E-04 9.56224E-06 0.00000E+00
 -1       557 1.68824E-04 2.32130E-05 0.00000E+00
 -1       558 1.64611E-04 3.40895E-05 0.00000E+00
 -1       559 1.61376E-04 4.24357E-05 0.00000E+00
 -1       560 1.59019E-04 4.84952E-05 0.00000E+00
 -1       561 1.57439E-04 5.25136E-05 0.00000E+00
 -1       562 1.56540E-04 5.47375E-05 0.00000E+00
 -1       563 1.56225E-04 5.54140E-05 0.00000E+00
 -1       564 1.56398E-04 5.47908E-05 0.00000E+00
 -1       565 1.56965E-04 5.31160E-05 0.00000E+00
 -1       566 1.57831E-04 5.06382E-05 0.00000E+00
 -1       567 1.58904E-04 4.76061E-05 0.00000E+00
 -1       568 1.60091E-04 4.42688E-05-1.65436E-24
 -1       569 1.61299E-04 4.08750E-05-2.06795E-25
 -1       570 1.62435E-04 3.76741E-05 0.00000E+00
 -1       571 1.53238E-04 3.25762E-05 1.44757E-24
 -1       572 1.53330E-04 3.04082E-05 4.13590E-25
 -1       573 1.53422E-04 2.81805E-05 2.48154E-24
 -1       574 1.53514E-04 2.59103E-05 8.27181E-25
 -1       575 1.53606E-04 2.36146E-05 3.30872E-24
 -1       576 1.53698E-04 2.13106E-05-1.65436E-24
 -1       577 1.53790E-04 1.90155E-05 3.30872E-24
 -1       578 1.53882E-04 1.67464E-05-3.30872E-24
 -1       579 1.53975E-04 1.45206E-05-6.61744E-24
 -1       580 1.54067E-04 1.23553E-05 0.00000E+00
 -1       581 1.54160E-04 1.02676E-05 0.00000E+00
 -1       582 1.54253E-04 8.27473E-06 0.00000E+00
 -1       583 1.54346E-04 6.39386E-06 0.00000E+00
 -1       584 1.54439E-04 4.64199E-06 0.00000E+00
 -1       585 1.54532E-04 3.03594E-06 0.00000E+00
 -1       586 1.54876E-04 3.47105E-05 0.00000E+00
 -1       587 1.56545E-04 3.47524E-05-8.27181E-25
 -1       588 1.58195E-04 3.47940E-05-4.13590E-25
 -1       589 1.59863E-04 3.48350E-05 0.00000E+00
 -1       590 1.61588E-04 3.48751E-05 0.00000E+00
 -1       591 1.53860E-04 3.26670E-05 0.00000E+00
 -1       592 1.54579E-04 3.06310E-05 0.00000E+00
 -1       593 1.55308E-04 2.85680E-05 8.27181E-25
 -1       594 1.56045E-04 2.64845E-05 0.00000E+00
 -1       595 1.56786E-04 2.43869E-05 8.27181E-25
 -1       596 1.57530E-04 2.22816E-05 0.00000E+00
 -1       597 1.58275E-04 2.01751E-05 8.27181E-25
 -1       598 1.59018E-04 1.80737E-05 4.13590E-25
 -1       599 1.59756E-04 1.59839E-05-8.27181E-25
 -1       600 1.60488E-04 1.39121E-05 0.00000E+00
 -1       601 1.61211E-04 1.18647E-05 8.27181E-25
 -1       602 1.61922E-04 9.84806E-06 4.13590E-25
 -1       603 1.62620E-04 7.86862E-06 8.27181E-25
 -1       604 1.63301E-04 5.93290E-06-2.06795E-25
 -1       605 1.63965E-04 4.04721E-06 0.00000E+00
 -1       606 1.54638E-04 3.79777E-07 0.00000E+00
 -1       607 1.54648E-04-7.49847E-07 0.00000E+00
 -1       608 1.54656E-04-1.80250E-06 3.30872E-24
 -1       609 1.54664E-04-2.78360E-06 0.00000E+00
 -1       610 1.54672E-04-3.69861E-06 0.00000E+00
 -1       611 1.54681E-04-4.55304E-06 0.00000E+00
 -1       612 1.54689E-04-5.35242E-06 0.00000E+00
 -1       613 1.54697E-04-6.10228E-06 0.00000E+00
 -1       614 1.54705E-04-6.80816E-06 0.00000E+00
 -1       615 1.54713E-04-7.47559E-06 0.00000E+00
 -1       616 1.54721E-04-8.11011E-06 0.00000E+00
 -1       617 1.54729E-04-8.71725E-06-4.13590E-25
 -1       618 1.54738E-04-9.30253E-06-8.27181E-25
 -1       619 1.54746E-04-9.87151E-06 0.00000E+00
 -1       620 1.54754E-04-1.04297E-05-2.06795E-25
 -1       621 1.56024E-04 1.69618E-06 0.00000E+00
 -1       622 1.57573E-04 1.80168E-06 0.00000E+00
 -1       623 1.59239E-04 1.90700E-06-1.65436E-24
 -1       624 1.60990E-04 2.01200E-06 1.65436E-24
 -1       625 1.62792E-04 2.11673E-06-1.65436E-24
 -1       626 1.55183E-04 4.11856E-07 0.00000E+00
 -1       627 1.55719E-04-7.07647E-07 0.00000E+00
 -1       628 1.56236E-04-1.77452E-06 3.30872E-24
 -1       629 1.56735E-04-2.79629E-06 1.65436E-24
 -1       630 1.57221E-04-3.78052E-06-3.30872E-24
 -1       631 1.57695E-04-4.73476E-06 0.00000E+00
 -1       632 1.58162E-04-5.66659E-06 0.00000E+00
 -1       633 1.58622E-04-6.58361E-06 0.00000E+00
 -1       634 1.59080E-04-7.49336E-06 0.00000E+00
 -1       635 1.59538E-04-8.40343E-06 0.00000E+00
 -1       636 1.59999E-04-9.32140E-06 0.00000E+00
 -1       637 1.60465E-04-1.02548E-05 0.00000E+00
 -1       638 1.60941E-04-1.12113E-05 0.00000E+00
 -1       639 1.61427E-04-1.21985E-05 8.27181E-25
 -1       640 1.61927E-04-1.32238E-05 0.00000E+00
 -1       656 1.55533E-04-1.15210E-05 0.00000E+00
 -1       657 1.56699E-04-1.20813E-05-6.61744E-24
 -1       658 1.58125E-04-1.26402E-05 0.00000E+00
 -1       659 1.59672E-04-1.31989E-05 0.00000E+00
 -1       660 1.61168E-04-1.37593E-05 6.61744E-24
 -1       661 1.55052E-04-1.15747E-05-8.27181E-25
 -1       662 1.55376E-04-1.22481E-05 0.00000E+00
 -1       663 1.55728E-04-1.29986E-05 1.65436E-24
 -1       664 1.56108E-04-1.38206E-05-8.27181E-25
 -1       665 1.56513E-04-1.47092E-05 0.00000E+00
 -1       666 1.56941E-04-1.56594E-05 8.27181E-25
 -1       667 1.57391E-04-1.66663E-05-1.65436E-24
 -1       668 1.57859E-04-1.77253E-05-8.27181E-25
 -1       669 1.58346E-04-1.88318E-05 0.00000E+00
 -1       670 1.58849E-04-1.99813E-05 0.00000E+00
 -1       671 1.59366E-04-2.11695E-05 0.00000E+00
 -1       672 1.59895E-04-2.23920E-05-8.27181E-25
 -1       673 1.60436E-04-2.36447E-05 0.00000E+00
 -1       674 1.60986E-04-2.49237E-05 0.00000E+00
 -1       675 1.61544E-04-2.62244E-05 0.00000E+00
 -1       676 1.55315E-04-2.70619E-05 3.30872E-24
 -1       677 1.56677E-04-2.71591E-05 1.65436E-24
 -1       678 1.58038E-04-2.72563E-05-3.30872E-24
 -1       679 1.59397E-04-2.73531E-05 0.00000E+00
 -1       680 1.60753E-04-2.74499E-05 0.00000E+00
 -1       771 1.78150E-05 1.14238E-05 5.29396E-23
 -1       772 9.43197E-06 2.94676E-05 0.00000E+00
 -1       773 2.52167E-06 4.37668E-05 5.29396E-23
 -1       774-3.01635E-06 5.45392E-05 0.00000E+00
 -1       775-7.28085E-06 6.20107E-05 0.00000E+00
 -1       776-1.03744E-05 6.64195E-05 0.00000E+00
 -1       777-1.23998E-05 6.80115E-05 0.00000E+00
 -1       778-1.34618E-05 6.70430E-05 0.00000E+00
 -1       779-1.36652E-05 6.37768E-05 0.00000E+00
 -1       780-1.31163E-05 5.84841E-05 0.00000E+00
 -1       781-1.19209E-05 5.14411E-05 0.00000E+00
 -1       782-1.01865E-05 4.29307E-05 0.00000E+00
 -1       783-8.01953E-06 3.32394E-05 5.29396E-23
 -1       784-5.52790E-06 2.26580E-05 2.64698E-23
 -1       785-2.81877E-06 1.14798E-05 0.00000E+00
 -1       786 1.63480E-04 3.28311E-05 8.27181E-25
 -1       787 1.63555E-04 3.07404E-05 8.27181E-25
 -1       788 1.63629E-04 2.86428E-05 1.65436E-24
 -1       789 1.63705E-04 2.65413E-05-8.27181E-25
 -1       790 1.63780E-04 2.44381E-05 1.65436E-24
 -1       791 1.63855E-04 2.23355E-05 0.00000E+00
 -1       792 1.63931E-04 2.02358E-05-1.65436E-24
 -1       793 1.64007E-04 1.81414E-05-8.27181E-25
 -1       794 1.64082E-04 1.60556E-05-1.65436E-24
 -1       795 1.64158E-04 1.39818E-05-8.27181E-25
 -1       796 1.64233E-04 1.19255E-05 1.65436E-24
 -1       797 1.64309E-04 9.89231E-06 8.27181E-25
 -1       798 1.64385E-04 7.89204E-06-1.65436E-24
 -1       799 1.64461E-04 5.93462E-06 8.27181E-25
 -1       800 1.64536E-04 4.03768E-06 0.00000E+00
 -1       801 1.14509E-04 3.18650E-05 0.00000E+00
 -1       802-3.29533E-05 1.95510E-05-1.32349E-23
 -1       803-1.52815E-04 1.01842E-05 5.29396E-23
 -1       804-1.21844E-04 7.24928E-06-2.64698E-23
 -1       805-3.67084E-05 2.25850E-06 0.00000E+00
 -1       806 1.64086E-04 3.27664E-05 0.00000E+00
 -1       807 1.64765E-04 3.06054E-05-1.65436E-24
 -1       808 1.65445E-04 2.84371E-05 3.30872E-24
 -1       809 1.66125E-04 2.62690E-05 0.00000E+00
 -1       810 1.66801E-04 2.41087E-05 3.30872E-24
 -1       811 1.67472E-04 2.19635E-05 0.00000E+00
 -1       812 1.68135E-04 1.98408E-05-3.30872E-24
 -1       813 1.68786E-04 1.77480E-05 0.00000E+00
 -1       814 1.69424E-04 1.56924E-05 3.30872E-24
 -1       815 1.70045E-04 1.36814E-05 8.27181E-25
 -1       816 1.70646E-04 1.17224E-05 1.65436E-24
 -1       817 1.71226E-04 9.82280E-06-8.27181E-25
 -1       818 1.71780E-04 7.98985E-06 1.65436E-24
 -1       819 1.72307E-04 6.23094E-06 8.27181E-25
 -1       820 1.72805E-04 4.55334E-06-1.65436E-24
 -1       821 1.64483E-04-3.97921E-08 0.00000E+00
 -1       822 1.64345E-04-3.25378E-06-1.65436E-24
 -1       823 1.64206E-04-7.06024E-06-3.30872E-24
 -1       824 1.64064E-04-1.10929E-05 0.00000E+00
 -1       825 1.63923E-04-1.49248E-05-3.30872E-24
 -1       826 1.63783E-04-1.81304E-05 1.65436E-24
 -1       827 1.63646E-04-2.04530E-05-3.30872E-24
 -1       828 1.63511E-04-2.16416E-05 0.00000E+00
 -1       829 1.63377E-04-2.17515E-05 0.00000E+00
 -1       830 1.63242E-04-2.08444E-05 0.00000E+00
 -1       831 1.63106E-04-1.92569E-05 0.00000E+00
 -1       832 1.62970E-04-1.73294E-05 0.00000E+00
 -1       833 1.62834E-04-1.54946E-05 0.00000E+00
 -1       834 1.62701E-04-1.41844E-05 1.65436E-24
 -1       835 1.62568E-04-1.36893E-05 0.00000E+00
 -1       836 1.66266E-04 2.34257E-06 0.00000E+00
 -1       837 1.67766E-04 2.46919E-06 1.65436E-24
 -1       838 1.69164E-04 2.59577E-06 3.30872E-24
 -1       839 1.70512E-04 2.72168E-06 0.00000E+00
 -1       840 1.71863E-04 2.84739E-06 8.27181E-25
 -1       856 1.62425E-04-1.53845E-05-4.13590E-25
 -1       857 1.62404E-04-1.63454E-05 0.00000E+00
 -1       858 1.62383E-04-1.71979E-05 4.13590E-25
 -1       859 1.62362E-04-1.79619E-05-2.06795E-25
 -1       860 1.62341E-04-1.86575E-05 0.00000E+00
 -1       861 1.62320E-04-1.93048E-05 0.00000E+00
 -1       862 1.62299E-04-1.99238E-05-8.27181E-25
 -1       863 1.62278E-04-2.05348E-05 0.00000E+00
 -1       864 1.62256E-04-2.11578E-05 0.00000E+00
 -1       865 1.62235E-04-2.18131E-05 4.13590E-25
 -1       866 1.62214E-04-2.25207E-05 0.00000E+00
 -1       867 1.62193E-04-2.33008E-05 4.13590E-25
 -1       868 1.62171E-04-2.41733E-05 8.27181E-25
 -1       869 1.62149E-04-2.51582E-05 0.00000E+00
 -1       870 1.62128E-04-2.62754E-05 8.27181E-25
 -1       871 1.63796E-04-1.43005E-05 4.13590E-25
 -1       872 1.65282E-04-1.43090E-05 0.00000E+00
 -1       873 1.66840E-04-1.43181E-05 0.00000E+00
 -1       874 1.68407E-04-1.43279E-05-2.32645E-25
 -1       875 1.69920E-04-1.43382E-05-8.27181E-25
 -1       876 1.62968E-04-1.53712E-05 3.30872E-24
 -1       877 1.63473E-04-1.63835E-05 0.00000E+00
 -1       878 1.63957E-04-1.73396E-05 3.30872E-24
 -1       879 1.64423E-04-1.82465E-05 0.00000E+00
 -1       880 1.64873E-04-1.91114E-05 0.00000E+00
 -1       881 1.65310E-04-1.99413E-05 0.00000E+00
 -1       882 1.65737E-04-2.07432E-05 0.00000E+00
 -1       883 1.66156E-04-2.15242E-05-1.65436E-24
 -1       884 1.66569E-04-2.22912E-05 0.00000E+00
 -1       885 1.66980E-04-2.30513E-05-1.65436E-24
 -1       886 1.67391E-04-2.38115E-05-3.30872E-24
 -1       887 1.67805E-04-2.45788E-05-1.65436E-24
 -1       888 1.68224E-04-2.53603E-05-3.30872E-24
 -1       889 1.68650E-04-2.61631E-05 0.00000E+00
 -1       890 1.69086E-04-2.69942E-05 0.00000E+00
 -1       891 1.63476E-04-2.75981E-05 0.00000E+00
 -1       892 1.64825E-04-2.76516E-05-4.13590E-25
 -1       893 1.66129E-04-2.77050E-05 0.00000E+00
 -1       894 1.67363E-04-2.77582E-05 4.13590E-25
 -1       895 1.68504E-04-2.78112E-05-4.13590E-25
 -1       956 1.73150E-04 1.55939E-06-1.65436E-24
 -1       957 1.73028E-04 2.49071E-07 0.00000E+00
 -1       958 1.72906E-04-9.77239E-07-1.65436E-24
 -1       959 1.72783E-04-2.13063E-06-8.27181E-25
 -1       960 1.72661E-04-3.22223E-06 0.00000E+00
 -1       961 1.72539E-04-4.26322E-06 0.00000E+00
 -1       962 1.72416E-04-5.26477E-06 0.00000E+00
 -1       963 1.72294E-04-6.23811E-06 0.00000E+00
 -1       964 1.72171E-04-7.19441E-06-3.30872E-24
 -1       965 1.72049E-04-8.14488E-06 0.00000E+00
 -1       966 1.71927E-04-9.10074E-06-3.30872E-24
 -1       967 1.71804E-04-1.00732E-05-1.65436E-24
 -1       968 1.71682E-04-1.10733E-05 3.30872E-24
 -1       969 1.71560E-04-1.21125E-05 0.00000E+00
 -1       970 1.71438E-04-1.32017E-05 0.00000E+00
 -1       971 1.71207E-04-1.55022E-05 0.00000E+00
 -1       972 1.71094E-04-1.65652E-05 0.00000E+00
 -1       973 1.70982E-04-1.75502E-05 0.00000E+00
 -1       974 1.70870E-04-1.84675E-05 0.00000E+00
 -1       975 1.70757E-04-1.93271E-05-3.30872E-24
 -1       976 1.70645E-04-2.01390E-05 0.00000E+00
 -1       977 1.70533E-04-2.09133E-05 0.00000E+00
 -1       978 1.70420E-04-2.16603E-05 0.00000E+00
 -1       979 1.70308E-04-2.23899E-05 0.00000E+00
 -1       980 1.70196E-04-2.31123E-05 1.65436E-24
 -1       981 1.70083E-04-2.38377E-05 3.30872E-24
 -1       982 1.69971E-04-2.45761E-05-1.65436E-24
 -1       983 1.69859E-04-2.53377E-05 0.00000E+00
 -1       984 1.69747E-04-2.61326E-05 4.96308E-24
 -1       985 1.69636E-04-2.69709E-05 0.00000E+00
 -3
    1PSTEP                        26          13           1          
  100CL  113 6.17676E-01         409                     0   13           1
 -4  STRESS      6    1
 -5  SXX         1    4    1    1
 -5  SYY         1    4    2    2
 -5  SZZ         1    4    3    3
 -5  SXY         1    4    1    2
 -5  SYZ         1    4    2    3
 -5  SZX         1    4    3    1
 -1         1-3.93180E+06-1.50326E+06-8.62335E+05-1.54332E+06 2.25555E-10-8.26258E-08
 -1         2 7.70261E+02-1.92514E+06 3.11873E+03 2.73688E+04 8.83333E-10-1.75884E-07
 -1         3-1.04604E+03-1.46818E+06 3.73286E+02-1.74983E+03-3.99673E-10-4.18368E-08
 -1         5-8.07543E+01 3.81550E+05 1.05357E+01-1.35769E+00-5.17781E-10 2.78305E-10
 -1         8-7.48408E+05-2.53850E+05-6.80347E+04-3.16970E+05-3.18323E-10-3.02825E-08
 -1         9 4.74652E+06-6.95451E+05 8.42894E+05-9.38444E+05 2.65951E-08-4.00934E-08
 -1        10-1.89331E+03-1.52979E+06-3.15174E+03-1.18391E+04-1.10849E-08 2.87787E-09
 -1        12-7.66174E+01 3.81573E+05 3.46432E+02-9.26658E+00-7.89953E-10 9.27685E-10
 -1        15 1.40848E+03 7.74037E+02 4.55289E+03 2.29992E+00 4.09841E-11 2.40961E-08
 -1        16 1.13861E+07-3.02821E+05 1.63359E+06-1.12268E+06 1.12535E-08 5.21929E-08
 -1        17 4.01204E+06 2.69892E+06 1.09102E+06 2.71828E+06 8.27131E-09 2.26079E-08
 -1        18 1.28797E+05 3.22126E+04 2.76840E+03-1.14623E+05 1.29803E-08 1.19144E-08
 -1        19 1.14935E+05 1.40056E+05-4.74395E+02 1.89024E+04 1.65765E-09-1.00605E-08
 -1        20-7.32902E+04-5.33116E+05-1.19420E+05 2.45279E+04-2.58660E-09 1.02348E-08
 -1        21-4.26444E+01-2.75792E+05-8.64751E+02 2.57880E+02 1.68569E-08 3.12357E-08
 -1        24 6.37021E+06 5.53339E+06 1.91769E+06 5.09932E+06-1.24176E-07-4.52662E-08
 -1        25 2.93904E+05 8.98575E+05 2.55164E+05-6.13339E+05 2.96017E-08-1.77653E-08
 -1        26-3.74431E+04 9.63999E+04-1.94066E+04-4.47388E+03-2.92130E-10-1.14279E-09
 -1        27-7.64748E+04-2.89986E+05-1.06340E+05 6.33420E+04 3.51793E-09 5.08226E-09
 -1        28 2.07485E+04-7.90870E+04 1.57103E+04 1.99230E+04-4.26789E-09 2.74688E-09
 -1        32-1.24375E+06-1.54963E+06 1.50005E+05 2.90140E+05-2.19152E-08-2.84768E-09
 -1        33-1.59004E+05 9.08526E+04 3.08156E+04-4.58109E+04-3.30620E-09 1.47638E-08
 -1        34-2.06532E+05-2.37074E+04 6.12138E+02 6.99855E+04-4.66395E-09 2.05576E-09
 -1        35-2.14174E+04-3.13240E+04-1.24669E+03 4.79554E+04-4.87515E-09 1.01815E-08
 -1        51 4.32803E+04-2.40080E+05 9.48791E+04-7.01048E+05-5.82077E-10-2.51312E-08
 -1        52 1.63641E+04-2.25831E+05 5.21696E+04-8.17360E+05-2.07365E-10-3.39132E-08
 -1        53 5.40671E+03-2.40907E+05 3.09600E+04-6.98493E+05 8.44011E-10 5.06698E-08
 -1        54 1.30694E+04-2.37749E+05 3.31095E+04-8.20027E+05 2.91038E-11-6.16274E-08
 -1        55 2.70935E+04-2.48123E+05 4.92292E+04-6.98110E+05 4.72937E-10 4.00869E-08
 -1        56-7.44466E+06-8.41607E+05-6.37550E+05-2.90614E+06-2.22644E-09-1.05239E-07
 -1        57-7.80905E+06-1.30924E+06-4.29717E+05-2.75438E+06 1.49375E-08-1.31171E-07
 -1        58-7.54730E+06-1.06886E+06-1.49795E+05-2.89383E+06 8.78208E-09 1.04781E-07
 -1        59-7.69537E+06-1.03807E+06-8.92642E+04-2.76552E+06-8.04448E-09 5.80258E-09
 -1        60-7.55713E+06-1.10532E+06-3.48036E+04-2.89774E+06-8.26731E-10-7.17046E-09
 -1        61-7.67328E+06-1.00518E+06-1.96883E+04-2.77198E+06 2.16442E-08-1.58710E-07
 -1        62-7.56883E+06-1.10087E+06-9.61371E+03-2.88751E+06 9.55970E-09-1.80596E-07
 -1        63-7.63831E+06-1.03128E+06-7.36999E+03-2.80556E+06 1.75314E-08-6.88935E-08
 -1        64-7.59092E+06-1.07986E+06-9.16062E+03-2.86336E+06-1.35860E-08-7.68187E-08
 -1        65-7.59300E+06-1.08141E+06-1.70485E+04-2.85765E+06-2.32067E-08-1.07221E-07
 -1        66-7.61368E+06-1.05119E+06-3.10190E+04-2.83503E+06 2.33122E-08-3.06072E-08
 -1        67-7.56942E+06-1.15449E+06-7.79730E+04-2.90390E+06-1.73095E-08-5.32964E-10
 -1        68-7.61578E+06-1.00700E+06-1.31107E+05-2.81757E+06-7.50151E-09-7.43894E-08
 -1        69-7.67469E+06-1.38953E+06-3.76406E+05-2.89430E+06-3.96230E-08 1.47847E-08
 -1        70-7.51142E+06-8.21449E+05-5.57840E+05-2.84366E+06 8.81846E-09 9.71777E-08
 -1        86-6.28615E+02-1.94098E+06 4.10542E+01-1.36832E+04-5.48437E-09-4.55775E-08
 -1        87 1.67456E+03-1.93015E+06 3.44751E+03 4.53765E+04-9.54000E-09 7.06127E-08
 -1        88-1.08154E+03-1.93651E+06 3.60415E+03-3.16920E+04-9.17362E-09 4.32069E-08
 -1        89 7.80463E+03-1.93134E+06 1.02488E+04 5.98209E+04-1.45947E-08-8.99107E-08
 -1        90-6.40675E+03-1.94018E+06 1.35388E+04-2.81312E+04-7.44876E-09-1.10051E-07
 -1       121-1.44341E+03-1.47168E+06-2.83433E+02 8.69187E+02 1.25226E-09-2.13404E-08
 -1       122-8.90124E+02-1.46820E+06 7.34968E+02-3.49989E+03-4.57383E-09 2.36032E-08
 -1       123-1.48090E+03-1.47180E+06 5.16151E+02 2.59658E+03 3.92458E-09-2.23190E-08
 -1       124 5.99189E+02-1.46765E+06 2.88987E+03-7.35335E+03-8.50741E-09-2.01126E-08
 -1       125-2.28156E+03-1.47262E+06 3.71066E+03 4.69595E+03 5.73527E-09-1.88011E-08
 -1       191-8.50941E+01 3.81566E+05 8.89187E+00 7.10786E-01-5.71697E-10-6.29007E-09
 -1       192-8.17719E+01 3.81551E+05 2.24864E+01-4.38905E+00-8.11553E-10-1.17943E-08
 -1       193-8.77726E+01 3.81566E+05 3.82186E+01 3.87378E+00-1.14301E-09-1.09158E-08
 -1       194-8.50344E+01 3.81554E+05 8.54917E+01-9.97829E+00-5.86347E-10-4.34375E-09
 -1       195-9.29136E+01 3.81563E+05 1.63612E+02 6.51448E+00-1.59275E-09 4.25644E-10
 -1       251-1.97555E+06-2.61766E+04-1.75192E+05-1.24486E+05 2.59752E-09-6.99583E-08
 -1       252-1.17091E+06 3.33499E+04 3.99572E+04 3.84103E+05-3.08864E-09-2.34762E-07
 -1       253-1.61940E+06-1.21499E+04-3.08231E+04-2.56684E+05 1.32604E-09-7.57173E-08
 -1       254-1.54763E+06 5.19799E+04 6.70924E+03 5.09580E+05 8.37281E-09 1.23890E-07
 -1       255-1.63621E+06-1.43307E+04-1.76877E+04-2.53084E+05 2.87764E-09 9.95205E-08
 -1       256-1.12902E+06 4.23893E+04 9.24941E+04 3.69306E+05 1.41417E-08 1.07658E-07
 -1       257-1.99706E+06-3.58808E+04-9.16331E+04-1.13124E+05-1.35424E-08 2.26887E-08
 -1       258-7.26178E+05 3.21838E+04 1.69016E+05 2.01567E+03 1.34460E-08 6.47360E-08
 -1       259-1.99948E+06-3.62764E+04-9.05962E+04 1.12154E+05-3.79969E-08 4.35126E-08
 -1       260-1.12294E+06 4.39998E+04 9.80233E+04-3.66316E+05-9.37052E-09-1.19522E-07
 -1       261-1.63931E+06-1.59880E+04-1.01258E+04 2.53114E+05 6.86714E-08 8.77108E-08
 -1       262-1.54299E+06 6.19918E+04 2.69932E+04-5.08533E+05-3.44107E-08 8.48571E-08
 -1       263-1.62089E+06-2.05000E+04 2.15515E+03 2.57713E+05 2.01635E-08-6.28665E-08
 -1       264-1.14819E+06 9.59542E+04 1.27398E+05-3.86543E+05 1.18942E-07-7.04808E-08
 -1       265-1.99728E+06-7.97692E+04-4.89159E+04 1.28013E+05 4.24698E-08-4.98057E-08
 -1       266-2.54980E+04-1.19227E+04 5.98264E+04-4.92117E+01 1.63709E-10 8.80366E-08
 -1       267 2.95594E+04 1.38964E+04 4.22840E+04 5.67796E+01 1.73259E-10-5.57853E-08
 -1       268-3.96385E+03-1.96811E+03 1.57168E+04-7.23476E+00 1.10049E-10-1.25332E-07
 -1       269 4.68015E+03 2.35542E+03 1.02156E+04 8.42737E+00 4.56225E-10 1.94846E-07
 -1       270-7.02497E+02-3.87014E+02 4.93124E+03-1.14366E+00-6.41194E-11-1.44407E-07
 -1       271-2.32191E+06-2.82540E+05-1.73458E+05-8.93201E+05 2.45673E-08 9.81527E-09
 -1       272-2.42841E+06-3.66017E+05-1.11687E+05-8.42769E+05-6.44650E-09 4.40177E-08
 -1       273-2.35350E+06-3.27007E+05-4.09383E+04-8.86652E+05 7.77641E-09-1.42245E-08
 -1       274-2.39098E+06-3.11777E+05-2.29719E+04-8.52857E+05-2.99633E-08 9.76561E-08
 -1       275-2.35823E+06-3.31385E+05-9.54180E+03-8.85013E+05 2.73508E-08-4.60805E-08
 -1       276-2.38403E+06-3.07674E+05-5.02173E+03-8.56064E+05-7.85667E-09 5.71690E-08
 -1       277-2.36004E+06-3.30741E+05-2.50785E+03-8.83428E+05 1.44928E-08-2.78715E-09
 -1       278-2.38018E+06-3.10065E+05-1.62874E+03-8.59370E+05 1.39003E-08-5.72152E-08
 -1       279-2.36173E+06-3.29163E+05-1.80354E+03-8.81477E+05-1.52704E-08-1.52161E-07
 -1       280-2.37647E+06-3.14080E+05-2.89642E+03-8.63320E+05-1.71713E-09-2.81284E-09
 -1       281-2.36343E+06-3.26953E+05-5.50263E+03-8.79243E+05 7.05768E-10-1.35040E-07
 -1       282-2.37459E+06-3.21752E+05-1.26875E+04-8.67444E+05 3.58614E-09 9.31128E-08
 -1       283-2.36343E+06-3.21957E+05-2.28834E+04-8.77078E+05 1.28439E-08 6.43081E-08
 -1       284-2.38985E+06-3.57069E+05-6.18018E+04-8.67816E+05-1.40635E-08 1.12070E-07
 -1       285-2.34854E+06-2.94793E+05-9.63710E+04-8.77693E+05 3.37604E-09 3.10720E-08
 -1       301 1.78123E+04-3.85354E+05 1.73262E+05-6.91980E+05 1.17871E-09 1.70621E-08
 -1       302 1.92849E+04-3.41549E+05 1.07133E+05-1.01193E+06-1.25874E-09 1.97387E-07
 -1       303-3.07111E+03-3.69941E+05 6.92905E+04-6.90305E+05 4.62023E-10-2.97769E-09
 -1       304 1.05817E+04-3.43947E+05 8.49271E+04-1.01129E+06-1.52795E-10 7.74162E-08
 -1       305 6.96006E+03-3.74237E+05 1.23524E+05-6.92558E+05 1.12777E-10-6.63422E-08
 -1       306-1.97525E+07-3.72815E+06-4.97627E+06-1.74726E+06-8.94652E-08-1.09663E-07
 -1       307 1.34842E+07-1.04183E+05 3.06633E+06-8.97009E+06-5.69125E-07-1.10187E-07
 -1       308-8.16306E+06-3.26063E+04-4.47009E+05 2.87770E+06-9.40927E-08 9.31141E-08
 -1       309-3.26832E+06 1.84389E+06 1.01135E+06-1.43999E+07 2.89030E-07 1.52506E-07
 -1       310-9.51769E+06-2.42090E+05-7.45942E+05 2.67735E+06 1.15833E-08 3.60196E-08
 -1       311 1.65822E+07-1.04181E+06 3.65488E+06-6.98133E+06 7.13393E-07-3.24799E-08
 -1       312-2.00967E+07-3.70555E+06-4.45311E+06-2.96665E+06-1.34809E-07-5.56902E-08
 -1       313 2.42448E+07 5.53455E+06 5.87272E+06 1.03606E+07 5.54428E-08-1.84242E-07
 -1       314-1.37930E+07-9.04632E+06-4.19545E+06-8.13051E+06 4.37896E-07-6.17292E-08
 -1       315-1.69455E+06 1.47215E+07 3.26426E+06 7.64833E+06-1.92435E-07 1.89466E-08
 -1       316-1.49332E+06-6.92389E+06-3.99259E+05-4.28129E+06-6.51751E-07-2.84635E-07
 -1       317-1.52313E+07 1.37470E+07 9.88386E+05-2.16318E+06 6.21887E-07-4.40832E-07
 -1       318-2.14392E+06-7.33746E+06-8.14100E+05-4.57015E+06-6.50529E-07-2.27883E-08
 -1       319 5.90281E+05 1.52332E+07 3.37942E+06 8.48424E+06-8.84465E-08 9.06584E-08
 -1       320-1.50307E+07-9.39935E+06-5.36273E+06-7.98811E+06 1.56811E-07-5.25615E-08
 -1       336-2.13113E+02-1.59316E+06-1.16326E+04 7.04245E+03-2.25909E-08-2.46655E-09
 -1       337-4.49617E+03-1.59336E+06-1.45359E+04-1.71135E+04-4.18236E-08-1.85410E-08
 -1       338 3.22050E+02-1.59291E+06-2.20212E+04 9.91767E+03-2.96541E-08-1.78261E-10
 -1       339-2.32461E+04-1.60621E+06-4.93932E+04-2.27320E+04-5.28416E-08 2.69320E-08
 -1       340 1.52856E+04-1.58177E+06-7.75912E+04 1.25743E+04-3.55103E-08 3.91083E-08
 -1       406-5.37642E+01 3.81548E+05 6.80151E+02 3.36579E+00-2.04329E-09-1.10394E-08
 -1       407 1.62277E+02 3.81693E+05 1.45367E+03 2.45275E+01-5.60135E-10-2.99315E-09
 -1       408 6.69157E+02 3.81442E+05 2.89843E+03-2.82321E+01-2.51180E-09-2.28756E-08
 -1       409 3.06852E+03 3.82618E+05 6.53294E+03 2.99640E+02-1.27784E-10-1.38034E-08
 -1       410 8.95344E+03 3.80608E+05 1.33335E+04-2.89726E+02-3.11047E-09-1.39426E-08
 -1       521-2.17261E+07-4.64879E+06-5.98062E+06-1.63387E+06-7.26432E-08-5.51227E-08
 -1       522 1.43496E+07 7.54907E+04 3.19784E+06-1.14359E+07-4.13274E-07-2.88885E-07
 -1       523-9.28561E+06-2.17272E+05-4.94990E+05 3.31955E+06-8.64384E-09-2.18577E-07
 -1       524-5.53646E+06 3.32673E+06 1.14356E+06-1.72656E+07 5.79603E-07-4.02015E-07
 -1       525-1.08156E+07-5.31456E+05-8.53495E+05 3.09687E+06 4.08851E-07-1.74405E-07
 -1       526 1.84165E+07-1.16083E+06 3.97558E+06-9.01903E+06 1.17696E-07 1.18642E-07
 -1       527-2.21845E+07-4.75085E+06-5.26597E+06-3.02141E+06 2.37254E-07-1.36119E-07
 -1       528 2.72923E+07 6.14352E+06 6.32394E+06 1.20294E+07-1.33936E-07 1.74623E-10
 -1       529-1.51362E+07-1.06984E+07-4.94729E+06-8.70428E+06 4.58676E-08 2.91038E-08
 -1       530-3.44623E+06 1.77985E+07 3.56097E+06 8.14784E+06-2.24027E-07 4.76371E-07
 -1       531-1.72205E+06-8.13046E+06-4.28800E+05-4.74274E+06-5.83765E-07 2.09082E-07
 -1       532-1.84904E+07 1.62146E+07 1.14263E+06-4.23830E+06 3.34621E-07-3.65893E-07
 -1       533-2.37694E+06-8.56083E+06-8.82175E+05-5.00602E+06-9.95642E-08-7.99890E-07
 -1       534-9.92736E+05 1.83722E+07 3.65952E+06 9.13256E+06-4.38449E-08 5.52507E-07
 -1       535-1.64547E+07-1.11319E+07-6.25353E+06-8.53631E+06 3.94648E-08 3.40980E-07
 -1       536-7.19374E+05-5.26289E+04-3.60328E+04-5.18089E+04-7.71433E-09 6.75172E-08
 -1       537-4.39780E+04 5.15110E+04 9.58206E+04 1.20421E+05-1.11978E-07 9.09095E-08
 -1       538-4.05887E+05 1.91834E+03 5.70582E+03-7.15080E+04 1.71389E-08 1.13137E-07
 -1       539-2.80104E+05 3.49041E+03 2.56966E+04 1.37703E+05 1.59021E-07 1.24822E-07
 -1       540-4.89162E+05 3.24866E+02-1.77526E+04-6.96565E+04 6.10271E-09 1.04959E-07
 -1       541 1.13558E+05 1.59996E+04 1.01168E+05 9.87049E+04 5.20160E-08 8.23220E-08
 -1       542-7.88918E+05-1.94913E+04-8.10123E+04-3.16765E+04 5.19717E-08 4.15458E-08
 -1       543 3.81716E+05 2.68938E+04 1.54366E+05-1.02813E+04 1.04064E-08-1.29025E-08
 -1       544-7.50123E+05-1.65450E+04-7.40265E+04 3.87316E+04-9.44374E-09-4.33860E-08
 -1       545 2.27665E+04 9.61925E+03 7.96272E+04-1.11025E+05-2.29176E-08-9.29597E-08
 -1       546-4.39613E+05 5.79429E+03-1.26506E+04 6.86994E+04 1.17143E-08-9.84846E-08
 -1       547-2.93146E+05-4.74487E+03 1.03947E+04-1.40220E+05-9.85178E-08-1.03681E-07
 -1       548-4.42709E+05 4.94444E+03-2.30610E+04 6.85959E+04-1.17741E-07-9.94160E-08
 -1       549 2.98926E+04 1.50026E+04 5.78448E+04-1.10294E+05-6.95841E-08-6.92964E-08
 -1       550-7.53996E+05-2.12068E+04-1.26615E+05 3.80955E+04-1.04956E-09-4.31992E-08
 -1       551 3.52566E+04-7.49997E+05 2.65076E+03-1.15202E+06-8.76171E-08-2.77942E-09
 -1       552 7.61634E+04-7.82351E+05 2.01432E+04-1.64307E+06-6.31990E-08 3.65762E-08
 -1       553 5.70860E+04-7.80689E+05 3.90167E+04-1.14666E+06-1.01834E-07 2.86382E-08
 -1       554 1.09167E+05-7.88259E+05 8.91558E+04-1.64480E+06-6.36501E-08 2.54977E-08
 -1       555 8.54633E+04-8.01061E+05 1.60358E+05-1.14708E+06-1.00466E-07-4.26007E-09
 -1       556 1.65885E+05-2.91611E+05 4.90119E+04-3.27684E+05-1.59052E-08 1.19326E-09
 -1       557 2.72296E+05-3.75696E+05 2.72293E+04-4.18393E+05-1.17871E-09 6.63931E-09
 -1       558 1.55754E+05-2.92306E+05 8.48868E+03-3.25836E+05-1.83063E-08 2.88856E-09
 -1       559 2.52916E+05-3.80587E+05 5.02804E+03-4.32093E+05 1.35624E-08-9.49149E-09
 -1       560 1.46055E+05-2.86173E+05 5.03067E+02-3.32703E+05 7.74162E-09 5.44242E-09
 -1       561 2.40241E+05-3.75793E+05 8.08359E+02-4.40641E+05-6.77392E-09 1.68093E-08
 -1       562 1.38195E+05-2.81245E+05-6.19693E+02-3.38398E+05-1.45519E-09 7.33780E-09
 -1       563 2.30765E+05-3.71669E+05 9.42001E+01-4.46827E+05 1.80444E-09-1.79871E-08
 -1       564 1.32444E+05-2.77652E+05-4.29326E+02-3.42484E+05 2.83762E-09-6.32099E-09
 -1       565 2.24267E+05-3.68849E+05-3.50982E+01-4.50987E+05 8.04721E-09 1.28924E-08
 -1       566 1.28893E+05-2.75396E+05-3.19067E+02-3.44977E+05 4.40195E-09 7.52971E-09
 -1       567 2.20753E+05-3.67343E+05-4.87248E+02-4.53130E+05 2.07947E-08-9.04583E-09
 -1       568 1.27602E+05-2.74603E+05-1.21843E+03-3.45945E+05 2.39743E-09 3.95084E-09
 -1       569 2.19043E+05-3.67271E+05-2.99408E+03-4.52585E+05-5.60760E-10 3.42006E-08
 -1       570 1.29469E+05-2.76821E+05-6.16942E+03-3.45427E+05 5.91899E-09 6.56200E-10
 -1       571 2.69847E+05 9.56929E+03 1.35963E+04-9.91174E+04 5.16775E-09 1.08439E-08
 -1       572 2.71804E+05 3.64116E+03 6.66416E+03-1.08701E+05 5.60158E-09 2.62116E-09
 -1       573 2.70608E+05 1.17816E+03 2.96082E+03-9.89129E+04 1.19408E-08 1.44182E-08
 -1       574 2.70788E+05 7.19030E+02 1.48515E+03-1.08954E+05 2.48856E-08 3.95357E-09
 -1       575 2.70678E+05 4.63420E+02 7.00551E+02-9.88852E+04 9.50240E-09 5.77711E-09
 -1       576 2.70652E+05 4.82879E+02 3.58049E+02-1.08987E+05-1.04910E-08 8.42010E-09
 -1       577 2.70707E+05 4.15104E+02 1.77128E+02-9.88815E+04-6.92762E-09 8.79663E-09
 -1       578 2.70676E+05 4.50325E+02 9.89823E+01-1.08992E+05-8.05994E-09 2.00725E-09
 -1       579 2.70774E+05 3.81382E+02 6.17758E+01-9.88812E+04-5.87170E-09-5.79166E-09
 -1       580 2.70774E+05 4.00265E+02 6.29179E+01-1.08986E+05-3.00688E-08-2.05828E-08
 -1       581 2.70888E+05 3.20288E+02 8.52892E+01-9.88874E+04-2.02272E-09 1.50703E-09
 -1       582 2.70941E+05 3.44361E+02 1.69816E+02-1.08924E+05 2.92312E-09-7.44694E-09
 -1       583 2.71038E+05 3.06796E+02 3.18157E+02-9.89442E+04 1.77897E-09 4.60250E-09
 -1       584 2.71252E+05 5.65679E+02 7.22500E+02-1.08448E+05 6.86850E-09-5.62068E-10
 -1       585 2.71133E+05 1.14073E+03 1.45469E+03-9.93640E+04-8.91305E-11 3.41970E-10
 -1       586-2.21702E+03 1.24359E+05-1.40514E+03-2.24224E+05-4.01906E-09 3.32921E-09
 -1       587-8.99260E+02 1.24279E+05 1.19169E+03-2.46655E+05-2.86491E-09-2.81261E-09
 -1       588 4.13512E+02 1.23979E+05 4.30391E+03-2.24041E+05-5.03314E-09 9.99353E-09
 -1       589 4.40004E+03 1.26063E+05 1.06667E+04-2.46561E+05-8.22365E-09 5.47107E-09
 -1       590 1.42583E+04 1.22762E+05 2.21879E+04-2.24363E+05-8.57426E-09 5.19594E-09
 -1       591-8.75799E+04-1.91202E+04-2.32650E+04-3.84130E+04-2.10457E-09-1.06302E-08
 -1       592-9.12502E+04-2.33440E+04-1.26020E+04-4.27924E+04-1.98202E-09-9.33596E-09
 -1       593-8.99180E+04-1.74209E+04-5.24574E+03-4.01076E+04-3.98097E-09-1.29455E-08
 -1       594-8.80282E+04-1.99408E+04-2.61608E+03-4.29280E+04 2.36241E-09-2.62708E-09
 -1       595-9.00968E+04-1.74142E+04-1.20126E+03-4.01848E+04 2.20030E-09 7.01857E-09
 -1       596-8.78085E+04-1.97852E+04-6.10664E+02-4.29034E+04 7.09855E-09 1.48254E-08
 -1       597-9.01194E+04-1.74296E+04-3.32655E+02-4.01878E+04 3.90665E-09 6.76579E-09
 -1       598-8.77870E+04-1.97792E+04-2.67691E+02-4.28965E+04-5.56111E-09-7.69205E-10
 -1       599-9.01180E+04-1.74301E+04-3.42310E+02-4.01874E+04 2.62025E-09 6.70059E-09
 -1       600-8.78088E+04-1.97860E+04-6.36212E+02-4.29014E+04 5.92371E-09-1.01759E-08
 -1       601-9.00916E+04-1.74153E+04-1.25536E+03-4.01835E+04 1.89243E-09-7.98582E-09
 -1       602-8.80382E+04-1.99480E+04-2.73598E+03-4.29234E+04-6.91148E-09-3.23337E-09
 -1       603-8.99020E+04-1.74252E+04-5.48697E+03-4.01032E+04-7.74889E-10 1.10381E-08
 -1       604-9.14213E+04-2.34925E+04-1.31808E+04-4.27616E+04 1.80444E-09 1.22482E-08
 -1       605-8.74401E+04-1.92162E+04-2.43336E+04-3.83454E+04 4.84812E-09 9.43783E-09
 -1       606 2.60771E+04-1.36898E+04-2.45399E+04 2.28356E+04 6.74663E-09-1.18189E-09
 -1       607 2.18843E+04-4.47198E+03-1.22208E+04 2.56630E+04 2.77942E-09-1.09476E-08
 -1       608 2.42750E+04-8.07528E+02-5.47077E+03 2.26755E+04-2.36287E-09 2.93062E-09
 -1       609 2.38174E+04-2.78124E+02-2.76378E+03 2.58670E+04 7.41693E-10-5.43946E-09
 -1       610 2.40721E+04-4.08412E+01-1.31865E+03 2.26564E+04 4.92673E-09 3.93834E-09
 -1       611 2.40008E+04-4.18934E+01-6.65095E+02 2.58890E+04 1.20781E-08 4.01860E-09
 -1       612 2.40281E+04-2.83324E+01-3.16534E+02 2.26545E+04 4.03634E-09-4.46562E-09
 -1       613 2.40128E+04-3.85131E+01-1.42716E+02 2.58916E+04 1.73713E-10-4.11774E-09
 -1       614 2.40077E+04-3.48667E+01-3.53128E+01 2.26538E+04 5.84805E-09 1.23578E-09
 -1       615 2.40084E+04-3.74902E+01 5.49754E+01 2.58920E+04 1.59853E-08 1.37247E-08
 -1       616 2.39919E+04-3.22632E+01 1.69391E+02 2.26541E+04 1.19553E-08-1.21540E-08
 -1       617 2.40290E+04-1.32322E+00 3.88040E+02 2.58916E+04 3.16413E-09-2.97428E-08
 -1       618 2.39582E+04 7.96516E+01 7.82851E+02 2.26544E+04 3.72415E-09-6.16728E-09
 -1       619 2.43055E+04 6.04109E+02 1.75834E+03 2.58911E+04 4.84420E-10 1.07955E-08
 -1       620 2.36981E+04 1.93651E+03 3.53438E+03 2.26559E+04-2.45677E-10-3.16550E-09
 -1       621 7.30701E+02 3.05423E+05 5.44898E+03 4.07879E+04 1.00636E-09 6.01358E-09
 -1       622 8.96781E+02 3.06717E+05 4.38350E+03 5.92254E+04 1.23964E-09 6.72662E-09
 -1       623 1.50327E+02 3.05790E+05 4.70723E+03 4.06109E+04 1.16415E-09 5.79803E-09
 -1       624 2.24736E+03 3.07854E+05 8.65627E+03 5.93928E+04 1.25908E-09-1.17700E-08
 -1       625 2.18988E+03 3.04122E+05 1.49100E+04 4.06145E+04 1.39516E-09-3.51088E-09
 -1       626 2.39630E+05 5.60060E+04 3.66961E+03 1.16726E+05 6.16319E-09 4.57112E-09
 -1       627 2.37368E+05 5.76000E+04 1.76839E+03 1.20469E+05 3.63798E-10 1.28222E-08
 -1       628 2.39740E+05 5.43043E+04 7.48010E+02 1.17321E+05-8.44011E-09 7.00572E-09
 -1       629 2.36885E+05 5.71392E+04 3.66845E+02 1.20668E+05-9.46784E-10 1.06053E-08
 -1       630 2.39750E+05 5.42222E+04 1.71356E+02 1.17344E+05-2.08729E-09-9.23956E-09
 -1       631 2.36832E+05 5.71237E+04 9.47380E+01 1.20671E+05 8.87485E-09-1.00453E-08
 -1       632 2.39746E+05 5.42255E+04 6.71248E+01 1.17339E+05 1.40026E-08-2.84149E-09
 -1       633 2.36825E+05 5.71254E+04 8.19105E+01 1.20668E+05 6.34691E-09-8.61110E-09
 -1       634 2.39742E+05 5.42225E+04 1.38807E+02 1.17339E+05-5.57259E-09-5.56656E-09
 -1       635 2.36838E+05 5.71240E+04 2.84896E+02 1.20673E+05-1.43728E-08-3.92652E-09
 -1       636 2.39732E+05 5.42175E+04 5.77387E+02 1.17338E+05-5.71617E-10 1.34951E-08
 -1       637 2.36962E+05 5.72145E+04 1.27048E+03 1.20672E+05-2.41903E-09 6.03495E-09
 -1       638 2.39686E+05 5.44987E+04 2.61101E+03 1.17210E+05-5.86897E-09 1.58161E-09
 -1       639 2.38328E+05 5.91257E+04 6.17784E+03 1.20270E+05-4.67594E-09 1.92392E-08
 -1       640 2.39497E+05 6.01930E+04 1.28205E+04 1.14806E+05-1.28466E-09 1.29164E-08
 -1       656 6.20420E+04-1.58620E+06-1.49764E+05-2.55596E+03-8.73115E-11 9.75666E-09
 -1       657-8.20467E+04-1.65387E+06-1.24018E+05 4.96805E+03-5.23869E-10 2.04290E-09
 -1       658 1.97474E+04-1.60544E+06-7.63079E+04-4.35481E+03 1.01818E-09 7.12354E-09
 -1       659-8.85290E+04-1.65695E+06-1.32537E+05 6.43475E+03-9.21318E-10-4.83605E-09
 -1       660 6.85094E+04-1.58313E+06-1.64413E+05-4.02264E+03-1.58616E-09-1.41147E-08
 -1       661 1.55330E+05 1.63054E+04 1.61606E+04 6.06598E+04-5.36602E-11 2.88219E-09
 -1       662 1.64320E+05 2.84163E+04 1.08907E+04 5.71982E+04 4.04270E-10-6.92216E-09
 -1       663 1.58501E+05 2.14922E+04 3.80907E+03 5.97413E+04-4.01428E-10-1.20735E-09
 -1       664 1.60645E+05 2.23491E+04 2.27830E+03 5.83187E+04 2.87173E-10-8.18375E-09
 -1       665 1.58981E+05 2.22022E+04 8.98779E+02 5.96029E+04 7.38396E-10-8.35257E-10
 -1       666 1.60079E+05 2.15359E+04 5.25633E+02 5.84983E+04 7.65075E-09 1.52067E-08
 -1       667 1.59064E+05 2.22842E+04 2.78880E+02 5.95694E+04-4.11319E-10 8.26395E-09
 -1       668 1.59988E+05 2.14752E+04 2.83393E+02 5.85468E+04-3.99145E-09-8.08872E-09
 -1       669 1.59070E+05 2.22612E+04 3.83076E+02 5.95548E+04-5.05236E-09 1.50391E-08
 -1       670 1.60083E+05 2.16814E+04 8.33562E+02 5.85482E+04-1.14490E-08 7.82535E-09
 -1       671 1.58969E+05 2.20822E+04 1.47988E+03 5.95662E+04 3.68316E-09 4.16281E-09
 -1       672 1.60946E+05 2.31205E+04 3.78607E+03 5.83386E+04 4.23915E-09-4.89740E-09
 -1       673 1.58212E+05 2.08585E+04 6.34481E+03 5.97504E+04-2.07388E-09-4.37853E-09
 -1       674 1.66984E+05 3.33144E+04 1.81448E+04 5.65649E+04-5.50057E-09 3.86012E-09
 -1       675 1.52970E+05 1.21738E+04 2.69332E+04 6.12329E+04-5.83623E-09 9.17134E-09
 -1       676 2.25700E+01-2.75720E+05-1.04225E+03-1.28944E+02 2.88694E-09-1.54375E-09
 -1       677-2.75676E+02-2.75972E+05-1.90748E+03 2.57701E+02 1.05060E-08-1.67557E-09
 -1       678 1.84908E+02-2.75540E+05-3.37195E+03-1.28673E+02-1.18462E-10-9.51985E-10
 -1       679-3.37190E+03-2.78007E+05-8.01027E+03 2.56657E+02 7.05779E-09-1.20750E-08
 -1       680 2.01319E+03-2.73685E+05-1.29098E+04-1.26470E+02 1.96906E-09 2.55962E-09
 -1       771-2.87761E+06-6.58825E+05-1.22820E+05-1.34522E+06-2.80852E-08-2.43017E-08
 -1       772-2.81373E+06-7.34089E+05-6.35593E+04-1.43192E+06-2.20898E-08 9.57880E-09
 -1       773-2.90112E+06-6.40347E+05-3.18585E+04-1.35490E+06-1.90921E-08 1.08266E-08
 -1       774-2.80516E+06-7.20857E+05-1.43251E+04-1.45068E+06 9.31323E-09-2.18279E-09
 -1       775-2.91278E+06-6.32105E+05-1.03476E+04-1.35938E+06-1.54250E-08 1.45519E-11
 -1       776-2.81312E+06-7.19103E+05-3.93146E+03-1.46440E+06-2.07656E-08 1.84809E-09
 -1       777-2.92273E+06-6.24878E+05-4.44388E+03-1.36333E+06-2.05182E-09-4.46744E-09
 -1       778-2.82148E+06-7.17532E+05-1.29459E+03-1.47613E+06 4.03816E-09 4.31100E-09
 -1       779-2.93120E+06-6.18627E+05-2.21725E+03-1.36670E+06-9.60426E-09-5.96992E-09
 -1       780-2.82881E+06-7.16036E+05-4.64199E+02-1.48565E+06-3.84171E-09 1.33878E-09
 -1       781-2.93786E+06-6.13622E+05-1.03662E+03-1.36933E+06-2.62517E-08-4.62387E-09
 -1       782-2.83446E+06-7.14781E+05-1.51013E+02-1.49266E+06-3.21415E-08-1.51431E-09
 -1       783-2.94250E+06-6.10177E+05-4.36900E+02-1.37116E+06-5.47152E-09-1.20333E-08
 -1       784-2.83808E+06-7.14007E+05-2.48530E+02-1.49694E+06-1.39553E-08 5.73891E-10
 -1       785-2.94482E+06-6.08443E+05-6.19801E+02-1.37206E+06-2.97405E-08 6.18274E-09
 -1       786 2.16937E+05-1.17200E+04 2.71178E+04-4.44861E+02-3.73458E-05-1.02871E-07
 -1       787 2.28687E+05 1.35703E+04 1.91847E+04-4.76216E+02-7.44021E-05-1.50292E-07
 -1       788 2.21471E+05-1.83651E+03 7.01852E+03-4.41462E+02-4.65260E-05-6.32617E-08
 -1       789 2.23407E+05 2.12695E+03 4.40924E+03-4.79503E+02-1.84122E-05-2.49742E-08
 -1       790 2.22219E+05-2.86101E+02 1.79305E+03-4.41596E+02 9.19627E-06 3.03221E-08
 -1       791 2.22533E+05 3.34134E+02 1.05053E+03-4.82640E+02 3.68227E-05 8.72679E-08
 -1       792 2.22345E+05-4.50448E+01 4.75146E+02-4.38328E+02 6.13528E-05 9.78602E-08
 -1       793 2.22391E+05 6.34458E+01 3.02485E+02-4.94872E+02 8.57107E-05 1.70014E-07
 -1       794 2.22362E+05-1.55947E+01 2.10557E+02-4.29365E+02 4.29474E-05 6.57192E-08
 -1       795 2.22397E+05 8.07455E+01 2.84988E+02-5.21951E+02 1.39322E-07 2.30184E-08
 -1       796 2.22338E+05-6.23329E+01 4.15063E+02-4.11248E+02 6.88695E-09 2.52425E-09
 -1       797 2.22582E+05 4.62759E+02 9.68906E+02-5.73854E+02 1.39796E-09-3.93948E-09
 -1       798 2.22176E+05-3.97331E+02 1.52607E+03-3.77460E+02 6.49060E-09 1.31511E-08
 -1       799 2.23727E+05 2.94018E+03 4.15794E+03-6.68539E+02 1.55380E-09 2.73326E-09
 -1       800 2.21193E+05-2.53778E+03 5.87169E+03-3.16558E+02 6.27828E-10 7.35690E-09
 -1       801-1.94125E+05-8.69240E+06-1.30848E+06 1.29537E+06 6.14382E-08-6.15019E-08
 -1       802 8.69978E+05 1.12472E+07 2.99634E+06-1.71040E+06-1.71494E-08-3.79932E-08
 -1       803-6.31569E+05-1.52209E+07-2.34597E+06 7.52599E+05 1.58358E-07 4.09354E-08
 -1       804 4.68903E+05 7.72750E+06 2.35294E+06 4.56400E+05-2.85800E-08-1.04407E-07
 -1       805 1.38028E+05-5.15692E+06-2.51282E+05-8.73922E+05-1.03442E-07-8.65323E-08
 -1       806-2.74218E+05-6.26778E+04-2.39220E+04-1.19142E+05-2.33626E-09-4.11546E-09
 -1       807-2.74999E+05-5.98792E+04-1.17522E+04-1.26230E+05 1.54409E-08 8.96313E-09
 -1       808-2.74936E+05-5.39963E+04-4.98504E+03-1.23157E+05-1.64135E-09-1.07425E-08
 -1       809-2.72469E+05-5.66383E+04-2.43683E+03-1.26597E+05-1.15340E-08-2.08552E-08
 -1       810-2.75045E+05-5.36886E+04-1.11595E+03-1.23333E+05 4.02224E-09 1.00385E-09
 -1       811-2.72274E+05-5.65122E+04-5.53638E+02-1.26570E+05 2.35548E-09-5.84350E-10
 -1       812-2.75062E+05-5.37121E+04-2.77041E+02-1.23331E+05-7.68478E-09-6.48561E-09
 -1       813-2.72245E+05-5.65171E+04-1.76162E+02-1.26553E+05-6.46492E-09-7.83803E-09
 -1       814-2.75054E+05-5.37232E+04-1.67792E+02-1.23325E+05-3.64071E-09 4.72437E-09
 -1       815-2.72243E+05-5.65220E+04-2.64731E+02-1.26543E+05-4.70209E-09 2.04182E-10
 -1       816-2.75029E+05-5.37252E+04-4.98177E+02-1.23318E+05 7.13408E-09 2.13040E-08
 -1       817-2.72321E+05-5.65718E+04-1.06775E+03-1.26526E+05-1.25165E-08 2.71168E-08
 -1       818-2.74956E+05-5.38817E+04-2.17740E+03-1.23243E+05-3.47518E-09-5.53973E-09
 -1       819-2.73521E+05-5.78716E+04-5.12255E+03-1.26214E+05 1.27875E-09-1.19871E-08
 -1       820-2.74515E+05-5.77748E+04-1.04270E+04-1.21606E+05 4.60477E-09 1.77765E-08
 -1       821-3.75664E+05 2.06141E+04-4.78925E+04 1.90640E+03 1.29864E-08-5.31873E-09
 -1       822-3.95501E+05-2.38745E+04-3.37297E+04-3.71484E+03 4.97545E-09 1.97360E-09
 -1       823-3.83214E+05 3.24341E+03-1.23791E+04 2.96716E+03-1.16869E-08-4.09955E-09
 -1       824-3.86469E+05-3.74310E+03-7.76021E+03-4.41273E+03 6.14312E-10-2.97007E-09
 -1       825-3.84699E+05 5.03594E+02-3.23317E+03 2.60438E+03 1.82289E-08 2.43047E-08
 -1       826-3.84305E+05-5.68960E+02-1.77743E+03-2.46964E+03 2.57230E-08 1.33043E-08
 -1       827-3.85361E+05 5.80439E+01-1.12157E+03 1.02397E+03 1.11698E-08-1.60549E-08
 -1       828-3.83756E+05-1.44291E+02-6.58146E+02 1.04288E+03 1.12010E-09-5.65310E-10
 -1       829-3.85239E+05 7.21909E+01-1.10586E+03-9.08182E+02 4.23341E-09 2.06265E-08
 -1       830-3.84566E+05-6.05347E+02-1.86142E+03 4.19306E+03 5.20686E-10 2.92403E-09
 -1       831-3.84567E+05 5.31599E+02-3.25691E+03-2.12623E+03-2.82368E-09 2.54352E-09
 -1       832-3.86508E+05-3.82649E+03-7.89556E+03 5.24519E+03-2.52268E-09 3.90173E-10
 -1       833-3.83309E+05 3.29933E+03-1.26094E+04-1.96034E+03-3.80680E-09 3.32284E-09
 -1       834-3.95406E+05-2.42760E+04-3.42422E+04 3.58962E+03-1.57956E-09 1.76224E-08
 -1       835-3.75657E+05 2.09536E+04-4.87254E+04-4.70613E+02 4.82626E-09 9.79708E-09
 -1       836-1.44866E+03 3.65617E+05 2.27132E+04-2.72281E+04-6.81757E-09 1.68184E-08
 -1       837 4.77664E+03 3.72753E+05 1.89922E+04-5.53276E+04-7.41443E-09 1.14185E-08
 -1       838-5.64960E+02 3.67638E+05 1.90240E+04-2.71326E+04-6.26187E-09 6.12317E-10
 -1       839 1.17806E+04 3.77954E+05 3.56662E+04-5.53684E+04-6.74800E-09 7.45426E-09
 -1       840-3.69251E+03 3.60338E+05 5.67272E+04-2.71934E+04-6.38829E-09 2.95768E-09
 -1       856-5.62059E+04 7.62224E+03-2.00858E+04-3.66321E+02 4.14769E-09 3.93902E-09
 -1       857-6.44809E+04-8.95605E+03-1.38271E+04 5.32463E+03 3.97992E-09 3.27486E-09
 -1       858-5.94831E+04 1.06901E+03-5.21193E+03-3.90235E+02 3.05482E-09-4.48381E-10
 -1       859-6.07196E+04-1.25802E+03-3.14557E+03 5.36034E+03-2.39767E-09-1.56051E-08
 -1       860-5.99728E+04 1.49761E+02-1.31898E+03-4.01775E+02 7.73355E-10 8.42550E-09
 -1       861-6.01562E+04-1.79380E+02-7.27002E+02 5.37611E+03 1.77411E-09 5.20868E-09
 -1       862-6.00493E+04 2.04369E+01-3.05032E+02-4.05978E+02-8.96964E-10 2.57964E-09
 -1       863-6.00629E+04-2.23354E+01-1.17527E+02 5.37859E+03-5.86249E-09-1.13218E-08
 -1       864-6.00665E+04-3.71267E+00 3.04097E+01-4.04254E+02 3.33031E-10 3.88411E-09
 -1       865-6.00141E+04 4.86334E+01 2.10308E+02 5.36868E+03-7.11609E-10-6.29305E-09
 -1       866-6.00962E+04-5.05878E+01 4.31279E+02-3.96072E+02 1.46497E-09-1.57764E-08
 -1       867-5.98094E+04 4.17271E+02 1.06626E+03 5.34641E+03 6.20275E-10 8.33026E-10
 -1       868-6.02668E+04-3.65863E+02 1.77301E+03-3.81983E+02-1.87413E-10 3.88332E-09
 -1       869-5.85083E+04 3.04367E+03 4.72258E+03 5.30970E+03 2.53203E-09-1.24904E-08
 -1       870-6.13904E+04-2.60591E+03 6.85337E+03-3.59270E+02-2.35082E-09-3.06909E-09
 -1       871-5.09884E+03-2.17622E+04-1.80209E+04 1.19061E+05-5.52427E-09 2.17578E-08
 -1       872-1.84138E+03-2.59427E+04-7.56389E+03 1.54386E+05-1.25674E-08-4.04361E-09
 -1       873 3.65415E+02-2.39090E+04 5.04442E+02 1.18801E+05-5.53428E-09 6.09703E-09
 -1       874 3.02292E+03-2.17008E+04 8.94777E+03 1.54409E+05-1.09158E-08 1.14285E-08
 -1       875 6.27601E+03-2.60522E+04 2.02210E+04 1.19021E+05-4.83669E-09 1.39453E-08
 -1       876 2.71302E+05 4.59529E+04 1.41418E+04 1.09137E+05 8.41885E-09 1.22509E-08
 -1       877 2.72188E+05 4.89810E+04 7.55223E+03 1.13251E+05 7.78618E-09-1.32623E-08
 -1       878 2.72626E+05 4.43851E+04 3.16396E+03 1.10294E+05-1.76306E-09-1.37609E-08
 -1       879 2.70264E+05 4.70639E+04 1.57637E+03 1.13349E+05 2.59274E-09-7.26095E-09
 -1       880 2.72721E+05 4.43687E+04 7.34065E+02 1.10341E+05-7.91215E-09 1.42742E-08
 -1       881 2.70137E+05 4.69820E+04 3.91607E+02 1.13327E+05-2.24043E-08 7.93548E-09
 -1       882 2.72730E+05 4.43810E+04 2.49800E+02 1.10342E+05-9.85960E-09 7.98794E-09
 -1       883 2.70127E+05 4.69779E+04 2.67405E+02 1.13320E+05 4.12456E-10 1.73910E-08
 -1       884 2.72724E+05 4.43784E+04 4.24333E+02 1.10343E+05 1.03410E-09-2.31421E-09
 -1       885 2.70161E+05 4.69838E+04 8.52482E+02 1.13330E+05-1.43277E-09-1.20269E-09
 -1       886 2.72691E+05 4.43535E+04 1.71782E+03 1.10339E+05-1.19653E-09-4.81168E-09
 -1       887 2.70463E+05 4.71816E+04 3.75221E+03 1.13374E+05 1.18526E-08-1.34168E-08
 -1       888 2.72454E+05 4.43954E+04 7.56076E+03 1.10219E+05 1.90387E-08-7.24231E-09
 -1       889 2.74965E+05 5.18616E+04 1.80614E+04 1.13234E+05 2.74524E-08-2.70802E-09
 -1       890 2.69366E+05 4.80623E+04 3.38284E+04 1.07344E+05 5.85851E-09 8.96762E-09
 -1       891-7.98857E+01-1.50847E+05-1.83791E+03 2.55680E+04-3.68550E-09 8.91760E-10
 -1       892-1.58120E+02-1.51334E+05-1.97903E+03 3.88255E+04 8.20592E-10-1.91885E-08
 -1       893 4.27279E+01-1.50906E+05-2.80726E+03 2.55747E+04-3.26213E-09-3.37877E-09
 -1       894-1.39388E+03-1.52399E+05-5.81385E+03 3.86824E+04 3.07955E-09 1.68370E-08
 -1       895-1.10660E+03-1.49696E+05-1.02394E+04 2.57129E+04-3.76190E-10-6.75755E-10
 -1       956-3.47461E+05-5.26467E+03-1.29754E+04 3.02129E+04 7.17955E-09-4.80668E-10
 -1       957-3.50007E+05-1.86319E+03-6.65989E+03 3.62874E+04-6.88487E-10 1.24192E-08
 -1       958-3.48629E+05-2.40048E+02-3.00142E+03 3.00410E+04-3.57250E-09 4.72664E-09
 -1       959-3.48819E+05-1.39352E+02-1.53229E+03 3.64878E+04 2.22281E-09 6.05542E-09
 -1       960-3.48745E+05-4.96413E+01-7.47008E+02 3.00234E+04 1.30603E-09 1.42065E-08
 -1       961-3.48744E+05-6.75966E+01-3.95123E+02 3.65086E+04 6.65023E-09 5.90080E-09
 -1       962-3.48774E+05-4.95730E+01-2.24657E+02 3.00204E+04-8.93669E-09 1.42199E-09
 -1       963-3.48747E+05-6.22624E+01-1.77354E+02 3.65125E+04-1.98752E-08 1.61303E-08
 -1       964-3.48781E+05-4.52693E+01-2.12049E+02 3.00194E+04-1.23708E-08 6.12772E-09
 -1       965-3.48760E+05-5.82137E+01-3.63723E+02 3.65124E+04-6.04740E-09 4.31874E-09
 -1       966-3.48768E+05-3.69382E+01-6.81663E+02 3.00206E+04 2.52089E-09-1.46360E-09
 -1       967-3.48844E+05-1.15105E+02-1.39729E+03 3.64997E+04 1.08935E-09 2.42903E-09
 -1       968-3.48675E+05-2.02610E+02-2.73488E+03 3.00320E+04-5.40695E-10 1.19027E-08
 -1       969-3.49942E+05-1.67980E+03-6.07140E+03 3.63640E+04-1.35287E-09 3.70895E-09
 -1       970-3.47620E+05-4.77852E+03-1.18272E+04 3.01484E+04-2.31785E-09-1.41335E-09
 -1       971-3.19604E+05-1.59700E+03-8.60956E+03 1.42870E+04 6.76209E-09-4.98776E-09
 -1       972-3.21676E+05-1.17637E+03-4.68881E+03 1.97575E+04 5.25688E-09-1.09594E-09
 -1       973-3.20562E+05-5.74802E+01-2.10002E+03 1.41753E+04 4.42014E-09-5.30758E-09
 -1       974-3.20687E+05-7.59485E+01-1.08865E+03 1.98836E+04-3.43562E-10-1.06639E-08
 -1       975-3.20637E+05-1.66088E+01-5.44537E+02 1.41642E+04 3.16413E-09-7.40363E-09
 -1       976-3.20629E+05-3.04221E+01-3.14985E+02 1.98977E+04 1.11436E-08-5.99027E-09
 -1       977-3.20652E+05-1.63463E+01-2.29981E+02 1.41613E+04 4.12069E-09 1.80080E-08
 -1       978-3.20633E+05-2.50117E+01-2.71060E+02 1.99018E+04-5.71811E-09 2.33215E-08
 -1       979-3.20651E+05-8.72318E+00-4.37120E+02 1.41601E+04 4.09841E-10 2.04057E-08
 -1       980-3.20666E+05-2.22994E+01-8.45036E+02 1.99026E+04 8.49327E-09-1.53544E-08
 -1       981-3.20624E+05 1.23930E+01-1.63713E+03 1.41606E+04 1.08959E-08 2.96058E-09
 -1       982-3.20890E+05-1.43149E+02-3.38418E+03 1.98965E+04 1.13941E-08 7.30826E-09
 -1       983-3.20418E+05-9.22341E+01-6.57555E+03 1.41661E+04 4.16981E-09-7.95990E-09
 -1       984-3.24054E+05-3.57695E+03-1.47256E+04 1.98171E+04 1.38298E-08-7.06962E-09
 -1       985-3.17442E+05-4.90361E+03-2.70408E+04 1.42322E+04 1.80989E-09 9.81163E-09
 -3
    1PSTEP                        27          14           1          
  100CL  114 6.37451E-01         409                     0   14           1
 -4  DISP        4    1
 -5  D1          1    2    1    0
 -5  D2          1    2    2    0
 -5  D3          1    2    3    0
 -5  ALL         1    2    0    0    1ALL
 -1         1 1.96566E-03 0.00000E+00 0.00000E+00
 -1         2 1.80360E-03 9.11433E-28-2.64698E-23
 -1         3 3.18161E-04-6.20853E-27-1.32349E-23
 -1         5 1.56383E-04 8.34532E-26 0.00000E+00
 -1         8 1.94836E-03-5.29291E-07 0.00000E+00
 -1         9 1.90691E-03-6.29871E-06 0.00000E+00
 -1        10 2.88406E-04-3.31382E-06 0.00000E+00
 -1        12 1.58692E-04 8.40727E-07 0.00000E+00
 -1        15 1.92737E-03-5.80021E-07 2.06795E-25
 -1        16 1.93531E-03-7.42151E-06 0.00000E+00
 -1        17 1.95870E-04-7.48742E-06 0.00000E+00
 -1        18 1.64079E-04 4.01878E-05 0.00000E+00
 -1        19 1.65619E-04 1.67330E-06 0.00000E+00
 -1        20 1.65750E-04-1.52978E-05 0.00000E+00
 -1        21 1.64884E-04-3.61181E-05 0.00000E+00
 -1        24 2.90553E-05-1.13597E-05 0.00000E+00
 -1        25 1.76271E-04 4.04483E-05 0.00000E+00
 -1        26 1.77503E-04 2.33262E-06 0.00000E+00
 -1        27 1.75217E-04-1.87587E-05 0.00000E+00
 -1        28 1.74898E-04-3.67192E-05 0.00000E+00
 -1        32 0.00000E+00 0.00000E+00 0.00000E+00
 -1        33 1.88050E-04 3.11420E-06 0.00000E+00
 -1        34 1.86010E-04-1.88230E-05 0.00000E+00
 -1        35 1.84149E-04-3.70509E-05 0.00000E+00
 -1        51 1.96456E-03-9.99181E-08-6.61744E-24
 -1        52 1.96249E-03-1.85254E-07 0.00000E+00
 -1        53 1.95964E-03-2.68658E-07 0.00000E+00
 -1        54 1.95621E-03-3.52264E-07 0.00000E+00
 -1        55 1.95238E-03-4.37614E-07-2.48154E-24
 -1        56 1.96185E-03 3.99818E-07 5.29396E-23
 -1        57 1.95675E-03 3.85180E-06-5.29396E-23
 -1        58 1.95069E-03 9.83448E-06-1.05879E-22
 -1        59 1.94393E-03 1.75701E-05 5.29396E-23
 -1        60 1.93689E-03 2.60292E-05 0.00000E+00
 -1        61 1.92999E-03 3.41184E-05-5.29396E-23
 -1        62 1.92363E-03 4.08026E-05 0.00000E+00
 -1        63 1.91816E-03 4.51530E-05 0.00000E+00
 -1        64 1.91380E-03 4.66025E-05 0.00000E+00
 -1        65 1.91065E-03 4.48069E-05 5.29396E-23
 -1        66 1.90865E-03 3.99266E-05 0.00000E+00
 -1        67 1.90765E-03 3.23621E-05 0.00000E+00
 -1        68 1.90734E-03 2.29319E-05 0.00000E+00
 -1        69 1.90737E-03 1.26077E-05-5.29396E-23
 -1        70 1.90732E-03 2.48718E-06 0.00000E+00
 -1        86 1.80929E-03-9.04474E-07 2.64698E-23
 -1        87 1.82614E-03-1.92987E-06-1.32349E-23
 -1        88 1.84948E-03-3.07448E-06 2.64698E-23
 -1        89 1.87440E-03-4.25492E-06 0.00000E+00
 -1        90 1.89534E-03-5.35201E-06 0.00000E+00
 -1       121 3.17326E-04-5.36895E-07 0.00000E+00
 -1       122 3.14823E-04-1.07647E-06 0.00000E+00
 -1       123 3.10661E-04-1.62136E-06 0.00000E+00
 -1       124 3.04857E-04-2.17421E-06 0.00000E+00
 -1       125 2.97429E-04-2.73731E-06 1.32349E-23
 -1       191 1.56447E-04 1.40219E-07 0.00000E+00
 -1       192 1.56639E-04 2.80420E-07-1.65436E-24
 -1       193 1.56960E-04 4.20590E-07 1.65436E-24
 -1       194 1.57409E-04 5.60711E-07 1.65436E-24
 -1       195 1.57986E-04 7.00763E-07 1.65436E-24
 -1       251 1.94757E-03 1.94848E-05 1.32349E-23
 -1       252 1.94563E-03 7.20690E-05 6.61744E-24
 -1       253 1.94232E-03 1.47772E-04-1.32349E-23
 -1       254 1.93796E-03 2.36609E-04 0.00000E+00
 -1       255 1.93363E-03 3.24970E-04-1.32349E-23
 -1       256 1.93041E-03 3.99262E-04 6.61744E-24
 -1       257 1.92858E-03 4.49761E-04 1.32349E-23
 -1       258 1.92782E-03 4.67297E-04 0.00000E+00
 -1       259 1.92709E-03 4.51280E-04-1.32349E-23
 -1       260 1.92531E-03 4.01963E-04 6.61744E-24
 -1       261 1.92213E-03 3.28256E-04-1.32349E-23
 -1       262 1.91779E-03 2.39634E-04 0.00000E+00
 -1       263 1.91333E-03 1.49672E-04 0.00000E+00
 -1       264 1.90986E-03 7.19779E-05 0.00000E+00
 -1       265 1.90779E-03 1.67543E-05 0.00000E+00
 -1       266 1.94486E-03-5.45495E-07-3.30872E-24
 -1       267 1.94136E-03-5.53005E-07 8.27181E-25
 -1       268 1.93787E-03-5.61066E-07 8.27181E-25
 -1       269 1.93437E-03-5.67497E-07-2.06795E-25
 -1       270 1.93087E-03-5.73889E-07 0.00000E+00
 -1       271 1.94617E-03 2.77867E-06 0.00000E+00
 -1       272 1.94391E-03 6.20304E-06 0.00000E+00
 -1       273 1.94166E-03 9.60843E-06-2.64698E-23
 -1       274 1.93946E-03 1.28470E-05 0.00000E+00
 -1       275 1.93739E-03 1.57760E-05 0.00000E+00
 -1       276 1.93548E-03 1.82546E-05-1.32349E-23
 -1       277 1.93379E-03 2.01473E-05 0.00000E+00
 -1       278 1.93238E-03 2.13244E-05-1.32349E-23
 -1       279 1.93128E-03 2.16643E-05-2.64698E-23
 -1       280 1.93053E-03 2.10543E-05 0.00000E+00
 -1       281 1.93018E-03 1.93922E-05 0.00000E+00
 -1       282 1.93025E-03 1.65869E-05 1.32349E-23
 -1       283 1.93078E-03 1.25603E-05 2.64698E-23
 -1       284 1.93179E-03 7.24786E-06 0.00000E+00
 -1       285 1.93329E-03 5.97426E-07 2.64698E-23
 -1       301 1.91208E-03-6.50918E-06 0.00000E+00
 -1       302 1.91617E-03-6.68731E-06 6.61744E-24
 -1       303 1.91985E-03-6.86141E-06 0.00000E+00
 -1       304 1.92382E-03-7.03559E-06 0.00000E+00
 -1       305 1.92874E-03-7.21562E-06 0.00000E+00
 -1       306 1.93930E-03-1.31451E-04 0.00000E+00
 -1       307 2.00365E-03-4.79162E-04 5.29396E-23
 -1       308 2.06435E-03-9.94204E-04-1.05879E-22
 -1       309 2.11151E-03-1.59859E-03 0.00000E+00
 -1       310 2.16125E-03-2.18724E-03 0.00000E+00
 -1       311 2.22573E-03-2.65653E-03-5.29396E-23
 -1       312 2.28493E-03-2.93677E-03-1.05879E-22
 -1       313 2.29586E-03-2.98720E-03 5.29396E-23
 -1       314 2.20535E-03-2.81256E-03 1.05879E-22
 -1       315 1.97963E-03-2.45557E-03-5.29396E-23
 -1       316 1.63018E-03-1.97936E-03-1.05879E-22
 -1       317 1.20357E-03-1.44652E-03-5.29396E-23
 -1       318 7.85498E-04-9.19709E-04 1.05879E-22
 -1       319 4.59177E-04-4.62860E-04 0.00000E+00
 -1       320 2.62166E-04-1.38625E-04 0.00000E+00
 -1       336 2.77612E-04-3.94965E-06 1.32349E-23
 -1       337 2.64882E-04-4.60792E-06 0.00000E+00
 -1       338 2.50272E-04-5.29046E-06-1.32349E-23
 -1       339 2.33849E-04-5.99806E-06 6.61744E-24
 -1       340 2.15687E-04-6.73462E-06 0.00000E+00
 -1       406 1.59526E-04 9.80579E-07 0.00000E+00
 -1       407 1.60488E-04 1.12027E-06-8.27181E-25
 -1       408 1.61579E-04 1.25974E-06 0.00000E+00
 -1       409 1.62798E-04 1.39879E-06-8.27181E-25
 -1       410 1.64145E-04 1.53712E-06-1.24077E-24
 -1       521 1.96864E-03-1.41427E-04 0.00000E+00
 -1       522 2.03251E-03-5.08703E-04 0.00000E+00
 -1       523 2.08917E-03-1.05113E-03 0.00000E+00
 -1       524 2.12966E-03-1.68469E-03 0.00000E+00
 -1       525 2.17343E-03-2.30087E-03 0.00000E+00
 -1       526 2.23534E-03-2.79283E-03 5.29396E-23
 -1       527 2.29449E-03-3.08522E-03 0.00000E+00
 -1       528 2.30421E-03-3.13609E-03 5.29396E-23
 -1       529 2.20514E-03-2.94967E-03 2.11758E-22
 -1       530 1.96092E-03-2.57458E-03 5.29396E-23
 -1       531 1.58316E-03-2.07732E-03-1.05879E-22
 -1       532 1.12329E-03-1.52380E-03-5.29396E-23
 -1       533 6.72147E-04-9.76034E-04 0.00000E+00
 -1       534 3.18033E-04-4.97369E-04 0.00000E+00
 -1       535 1.03275E-04-1.54398E-04 1.05879E-22
 -1       536 1.95118E-04 2.70815E-05 6.61744E-24
 -1       537 1.93082E-04 8.94029E-05 0.00000E+00
 -1       538 1.89834E-04 1.69803E-04-3.30872E-24
 -1       539 1.85910E-04 2.58513E-04 0.00000E+00
 -1       540 1.82319E-04 3.43108E-04-3.30872E-24
 -1       541 1.79946E-04 4.11178E-04-1.65436E-24
 -1       542 1.78831E-04 4.55312E-04 3.30872E-24
 -1       543 1.78574E-04 4.68253E-04-1.65436E-24
 -1       544 1.78251E-04 4.50616E-04 3.30872E-24
 -1       545 1.76998E-04 4.03262E-04 0.00000E+00
 -1       546 1.74601E-04 3.34737E-04 0.00000E+00
 -1       547 1.71302E-04 2.53723E-04 0.00000E+00
 -1       548 1.68009E-04 1.72783E-04 3.30872E-24
 -1       549 1.65627E-04 1.04479E-04-1.65436E-24
 -1       550 1.64391E-04 5.74476E-05 0.00000E+00
 -1       551 1.72369E-04-8.02373E-06 0.00000E+00
 -1       552 1.45936E-04-8.62670E-06 3.30872E-24
 -1       553 1.17471E-04-9.28057E-06 8.68540E-24
 -1       554 8.78919E-05-9.96657E-06 6.61744E-24
 -1       555 5.81161E-05-1.06604E-05 0.00000E+00
 -1       556 1.88694E-04 1.09082E-05 0.00000E+00
 -1       557 1.82815E-04 2.60383E-05 0.00000E+00
 -1       558 1.78119E-04 3.81440E-05 0.00000E+00
 -1       559 1.74495E-04 4.74868E-05 0.00000E+00
 -1       560 1.71833E-04 5.43283E-05 0.00000E+00
 -1       561 1.70026E-04 5.89324E-05 0.00000E+00
 -1       562 1.68967E-04 6.15638E-05 0.00000E+00
 -1       563 1.68554E-04 6.24880E-05 0.00000E+00
 -1       564 1.68682E-04 6.19712E-05 0.00000E+00
 -1       565 1.69250E-04 6.02801E-05 0.00000E+00
 -1       566 1.70156E-04 5.76818E-05 0.00000E+00
 -1       567 1.71301E-04 5.44440E-05-3.30872E-24
 -1       568 1.72584E-04 5.08342E-05 0.00000E+00
 -1       569 1.73906E-04 4.71202E-05 7.75482E-25
 -1       570 1.75168E-04 4.35700E-05-1.65436E-24
 -1       571 1.64173E-04 3.77450E-05 6.20385E-25
 -1       572 1.64268E-04 3.52212E-05 2.06795E-25
 -1       573 1.64364E-04 3.26339E-05 2.48154E-24
 -1       574 1.64460E-04 3.00016E-05 8.27181E-25
 -1       575 1.64556E-04 2.73428E-05 3.30872E-24
 -1       576 1.64652E-04 2.46761E-05 0.00000E+00
 -1       577 1.64748E-04 2.20203E-05 0.00000E+00
 -1       578 1.64844E-04 1.93938E-05 0.00000E+00
 -1       579 1.64940E-04 1.68154E-05 0.00000E+00
 -1       580 1.65036E-04 1.43037E-05 0.00000E+00
 -1       581 1.65133E-04 1.18774E-05 0.00000E+00
 -1       582 1.65230E-04 9.55502E-06 0.00000E+00
 -1       583 1.65327E-04 7.35522E-06 6.61744E-24
 -1       584 1.65424E-04 5.29642E-06 0.00000E+00
 -1       585 1.65522E-04 3.39686E-06 0.00000E+00
 -1       586 1.66136E-04 4.02328E-05 0.00000E+00
 -1       587 1.68129E-04 4.02775E-05 8.27181E-25
 -1       588 1.70099E-04 4.03221E-05 1.65436E-24
 -1       589 1.72086E-04 4.03660E-05-4.13590E-25
 -1       590 1.74130E-04 4.04089E-05 0.00000E+00
 -1       591 1.64914E-04 3.78449E-05-1.03398E-25
 -1       592 1.65758E-04 3.54677E-05 0.00000E+00
 -1       593 1.66610E-04 3.30639E-05 8.27181E-25
 -1       594 1.67470E-04 3.06398E-05 8.27181E-25
 -1       595 1.68335E-04 2.82021E-05 0.00000E+00
 -1       596 1.69202E-04 2.57572E-05 0.00000E+00
 -1       597 1.70070E-04 2.33116E-05 8.27181E-25
 -1       598 1.70935E-04 2.08717E-05-4.13590E-25
 -1       599 1.71796E-04 1.84439E-05 8.27181E-25
 -1       600 1.72650E-04 1.60347E-05 0.00000E+00
 -1       601 1.73495E-04 1.36505E-05 8.27181E-25
 -1       602 1.74328E-04 1.12978E-05 0.00000E+00
 -1       603 1.75147E-04 8.98310E-06 8.27181E-25
 -1       604 1.75950E-04 6.71286E-06-2.06795E-25
 -1       605 1.76735E-04 4.49347E-06 0.00000E+00
 -1       606 1.65632E-04 1.96724E-07 0.00000E+00
 -1       607 1.65641E-04-1.19993E-06 0.00000E+00
 -1       608 1.65649E-04-2.52136E-06 3.30872E-24
 -1       609 1.65657E-04-3.77284E-06 0.00000E+00
 -1       610 1.65665E-04-4.95972E-06 0.00000E+00
 -1       611 1.65672E-04-6.08741E-06 0.00000E+00
 -1       612 1.65680E-04-7.16128E-06 0.00000E+00
 -1       613 1.65688E-04-8.18676E-06 0.00000E+00
 -1       614 1.65696E-04-9.16927E-06 0.00000E+00
 -1       615 1.65704E-04-1.01142E-05 0.00000E+00
 -1       616 1.65711E-04-1.10270E-05 0.00000E+00
 -1       617 1.65719E-04-1.19130E-05 0.00000E+00
 -1       618 1.65727E-04-1.27777E-05 0.00000E+00
 -1       619 1.65735E-04-1.36264E-05 0.00000E+00
 -1       620 1.65743E-04-1.44647E-05 0.00000E+00
 -1       621 1.67298E-04 1.78366E-06 3.30872E-24
 -1       622 1.69148E-04 1.89449E-06-8.27181E-25
 -1       623 1.71131E-04 2.00507E-06 3.30872E-24
 -1       624 1.73210E-04 2.11529E-06 0.00000E+00
 -1       625 1.75346E-04 2.22519E-06 0.00000E+00
 -1       626 1.66281E-04 2.30294E-07 0.00000E+00
 -1       627 1.66921E-04-1.15568E-06-1.65436E-24
 -1       628 1.67543E-04-2.49182E-06 0.00000E+00
 -1       629 1.68150E-04-3.78561E-06 0.00000E+00
 -1       630 1.68744E-04-5.04462E-06-3.30872E-24
 -1       631 1.69327E-04-6.27638E-06 1.65436E-24
 -1       632 1.69903E-04-7.48844E-06 0.00000E+00
 -1       633 1.70474E-04-8.68839E-06 0.00000E+00
 -1       634 1.71044E-04-9.88377E-06 0.00000E+00
 -1       635 1.71615E-04-1.10821E-05-1.65436E-24
 -1       636 1.72190E-04-1.22910E-05 0.00000E+00
 -1       637 1.72771E-04-1.35180E-05 0.00000E+00
 -1       638 1.73362E-04-1.47707E-05-1.65436E-24
 -1       639 1.73966E-04-1.60567E-05-1.65436E-24
 -1       640 1.74584E-04-1.73834E-05 0.00000E+00
 -1       656 1.66805E-04-1.58601E-05 0.00000E+00
 -1       657 1.68260E-04-1.64455E-05 6.61744E-24
 -1       658 1.69983E-04-1.70295E-05 1.32349E-23
 -1       659 1.71833E-04-1.76133E-05 6.61744E-24
 -1       660 1.73636E-04-1.81988E-05 0.00000E+00
 -1       661 1.66145E-04-1.61725E-05-8.27181E-25
 -1       662 1.66576E-04-1.71336E-05 0.00000E+00
 -1       663 1.67038E-04-1.81762E-05-1.65436E-24
 -1       664 1.67528E-04-1.92944E-05 8.27181E-25
 -1       665 1.68044E-04-2.04827E-05-1.65436E-24
 -1       666 1.68585E-04-2.17357E-05 0.00000E+00
 -1       667 1.69148E-04-2.30480E-05 0.00000E+00
 -1       668 1.69731E-04-2.44146E-05 0.00000E+00
 -1       669 1.70332E-04-2.58304E-05 0.00000E+00
 -1       670 1.70950E-04-2.72905E-05 0.00000E+00
 -1       671 1.71583E-04-2.87901E-05-1.65436E-24
 -1       672 1.72228E-04-3.03245E-05 0.00000E+00
 -1       673 1.72885E-04-3.18889E-05 0.00000E+00
 -1       674 1.73550E-04-3.34790E-05 0.00000E+00
 -1       675 1.74223E-04-3.50900E-05 0.00000E+00
 -1       676 1.66559E-04-3.62189E-05 3.30872E-24
 -1       677 1.68233E-04-3.63196E-05 0.00000E+00
 -1       678 1.69904E-04-3.64203E-05 0.00000E+00
 -1       679 1.71573E-04-3.65207E-05 1.65436E-24
 -1       680 1.73238E-04-3.66210E-05 0.00000E+00
 -1       771 1.81922E-05 1.28273E-05 0.00000E+00
 -1       772 9.03900E-06 3.26845E-05-5.29396E-23
 -1       773 1.51286E-06 4.84242E-05-5.29396E-23
 -1       774-4.49784E-06 6.02837E-05 0.00000E+00
 -1       775-9.10260E-06 6.85091E-05 0.00000E+00
 -1       776-1.24152E-05 7.33611E-05 0.00000E+00
 -1       777-1.45495E-05 7.51091E-05-5.29396E-23
 -1       778-1.56214E-05 7.40342E-05 7.94093E-23
 -1       779-1.57468E-05 7.04250E-05 0.00000E+00
 -1       780-1.50431E-05 6.45799E-05 0.00000E+00
 -1       781-1.36271E-05 5.68030E-05 5.29396E-23
 -1       782-1.16173E-05 4.74062E-05 0.00000E+00
 -1       783-9.13117E-06 3.67052E-05 0.00000E+00
 -1       784-6.28744E-06 2.50210E-05 2.64698E-23
 -1       785-3.20411E-06 1.26773E-05 5.29396E-23
 -1       786 1.76343E-04 3.80368E-05 0.00000E+00
 -1       787 1.76420E-04 3.56119E-05-8.27181E-25
 -1       788 1.76496E-04 3.31776E-05-1.65436E-24
 -1       789 1.76573E-04 3.07374E-05 8.27181E-25
 -1       790 1.76651E-04 2.82943E-05 0.00000E+00
 -1       791 1.76728E-04 2.58507E-05-1.65436E-24
 -1       792 1.76805E-04 2.34094E-05-3.30872E-24
 -1       793 1.76883E-04 2.09729E-05 0.00000E+00
 -1       794 1.76960E-04 1.85448E-05-3.30872E-24
 -1       795 1.77038E-04 1.61286E-05-1.65436E-24
 -1       796 1.77115E-04 1.37301E-05 0.00000E+00
 -1       797 1.77193E-04 1.13553E-05 1.65436E-24
 -1       798 1.77270E-04 9.01431E-06-1.65436E-24
 -1       799 1.77348E-04 6.71769E-06 0.00000E+00
 -1       800 1.77426E-04 4.48412E-06 0.00000E+00
 -1       801 1.23344E-04 3.69432E-05 0.00000E+00
 -1       802-3.60604E-05 2.26045E-05 0.00000E+00
 -1       803-1.65541E-04 1.17274E-05 0.00000E+00
 -1       804-1.32296E-04 8.36911E-06-2.64698E-23
 -1       805-4.00900E-05 2.58563E-06 5.29396E-23
 -1       806 1.77067E-04 3.79686E-05 3.30872E-24
 -1       807 1.77865E-04 3.54703E-05-1.65436E-24
 -1       808 1.78667E-04 3.29622E-05 0.00000E+00
 -1       809 1.79468E-04 3.04524E-05 1.65436E-24
 -1       810 1.80267E-04 2.79491E-05 3.30872E-24
 -1       811 1.81060E-04 2.54601E-05 1.65436E-24
 -1       812 1.81845E-04 2.29935E-05-3.30872E-24
 -1       813 1.82619E-04 2.05573E-05 0.00000E+00
 -1       814 1.83378E-04 1.81594E-05 0.00000E+00
 -1       815 1.84120E-04 1.58077E-05 8.27181E-25
 -1       816 1.84842E-04 1.35103E-05 1.65436E-24
 -1       817 1.85541E-04 1.12751E-05 1.65436E-24
 -1       818 1.86214E-04 9.10995E-06 3.30872E-24
 -1       819 1.86858E-04 7.02288E-06 8.27181E-25
 -1       820 1.87470E-04 5.02171E-06 0.00000E+00
 -1       821 1.77370E-04-6.06792E-07 0.00000E+00
 -1       822 1.77223E-04-5.19773E-06 1.65436E-24
 -1       823 1.77072E-04-1.08675E-05 0.00000E+00
 -1       824 1.76916E-04-1.70365E-05 0.00000E+00
 -1       825 1.76761E-04-2.29879E-05 0.00000E+00
 -1       826 1.76611E-04-2.80063E-05 0.00000E+00
 -1       827 1.76467E-04-3.16342E-05 3.30872E-24
 -1       828 1.76328E-04-3.34227E-05-1.65436E-24
 -1       829 1.76190E-04-3.34311E-05 0.00000E+00
 -1       830 1.76050E-04-3.17299E-05 0.00000E+00
 -1       831 1.75909E-04-2.88618E-05 3.30872E-24
 -1       832 1.75765E-04-2.53767E-05 0.00000E+00
 -1       833 1.75622E-04-2.19956E-05-3.30872E-24
 -1       834 1.75483E-04-1.94382E-05 0.00000E+00
 -1       835 1.75346E-04-1.81977E-05 0.00000E+00
 -1       836 1.79483E-04 2.46201E-06 0.00000E+00
 -1       837 1.81302E-04 2.59481E-06-1.65436E-24
 -1       838 1.83013E-04 2.72760E-06 0.00000E+00
 -1       839 1.84671E-04 2.85971E-06 0.00000E+00
 -1       840 1.86332E-04 2.99162E-06-8.27181E-25
 -1       856 1.75201E-04-2.01524E-05 8.27181E-25
 -1       857 1.75181E-04-2.14137E-05 0.00000E+00
 -1       858 1.75162E-04-2.25630E-05-4.13590E-25
 -1       859 1.75142E-04-2.36209E-05 0.00000E+00
 -1       860 1.75122E-04-2.46080E-05 4.13590E-25
 -1       861 1.75102E-04-2.55451E-05-2.06795E-25
 -1       862 1.75082E-04-2.64528E-05-4.13590E-25
 -1       863 1.75062E-04-2.73519E-05 0.00000E+00
 -1       864 1.75042E-04-2.82631E-05 8.27181E-25
 -1       865 1.75022E-04-2.92072E-05-4.13590E-25
 -1       866 1.75002E-04-3.02050E-05 8.27181E-25
 -1       867 1.74982E-04-3.12770E-05 4.13590E-25
 -1       868 1.74962E-04-3.24439E-05 0.00000E+00
 -1       869 1.74941E-04-3.37263E-05 0.00000E+00
 -1       870 1.74921E-04-3.51446E-05 0.00000E+00
 -1       871 1.76887E-04-1.87651E-05 8.27181E-25
 -1       872 1.78695E-04-1.87748E-05 0.00000E+00
 -1       873 1.80577E-04-1.87853E-05 4.13590E-25
 -1       874 1.82467E-04-1.87964E-05-2.58494E-25
 -1       875 1.84300E-04-1.88081E-05-2.06795E-25
 -1       876 1.75861E-04-2.01386E-05 3.30872E-24
 -1       877 1.76484E-04-2.14525E-05 0.00000E+00
 -1       878 1.77085E-04-2.27082E-05-3.30872E-24
 -1       879 1.77667E-04-2.39131E-05 0.00000E+00
 -1       880 1.78233E-04-2.50744E-05-3.30872E-24
 -1       881 1.78785E-04-2.61994E-05-1.65436E-24
 -1       882 1.79327E-04-2.72954E-05 0.00000E+00
 -1       883 1.79860E-04-2.83696E-05 1.65436E-24
 -1       884 1.80388E-04-2.94293E-05-3.30872E-24
 -1       885 1.80914E-04-3.04816E-05-1.65436E-24
 -1       886 1.81439E-04-3.15339E-05-3.30872E-24
 -1       887 1.81967E-04-3.25934E-05 0.00000E+00
 -1       888 1.82500E-04-3.36674E-05-3.30872E-24
 -1       889 1.83040E-04-3.47631E-05-1.65436E-24
 -1       890 1.83591E-04-3.58879E-05 0.00000E+00
 -1       891 1.76578E-04-3.67750E-05 1.65436E-24
 -1       892 1.78234E-04-3.68309E-05 8.27181E-25
 -1       893 1.79844E-04-3.68867E-05 0.00000E+00
 -1       894 1.81382E-04-3.69422E-05 4.13590E-25
 -1       895 1.82825E-04-3.69974E-05-4.13590E-25
 -1       956 1.87924E-04 1.40232E-06 3.30872E-24
 -1       957 1.87796E-04-2.09039E-07 1.65436E-24
 -1       958 1.87668E-04-1.73110E-06 0.00000E+00
 -1       959 1.87541E-04-3.17571E-06-1.65436E-24
 -1       960 1.87413E-04-4.55481E-06 3.30872E-24
 -1       961 1.87285E-04-5.88033E-06 0.00000E+00
 -1       962 1.87157E-04-7.16423E-06 0.00000E+00
 -1       963 1.87029E-04-8.41852E-06 0.00000E+00
 -1       964 1.86901E-04-9.65516E-06-3.30872E-24
 -1       965 1.86773E-04-1.08861E-05 0.00000E+00
 -1       966 1.86646E-04-1.21234E-05 0.00000E+00
 -1       967 1.86518E-04-1.33790E-05-1.65436E-24
 -1       968 1.86390E-04-1.46649E-05 0.00000E+00
 -1       969 1.86263E-04-1.59930E-05 0.00000E+00
 -1       970 1.86135E-04-1.73752E-05-3.30872E-24
 -1       971 1.85894E-04-2.02746E-05-3.30872E-24
 -1       972 1.85777E-04-2.16368E-05-1.65436E-24
 -1       973 1.85660E-04-2.29196E-05 0.00000E+00
 -1       974 1.85543E-04-2.41331E-05 0.00000E+00
 -1       975 1.85426E-04-2.52877E-05 0.00000E+00
 -1       976 1.85310E-04-2.63937E-05-1.65436E-24
 -1       977 1.85193E-04-2.74614E-05 3.30872E-24
 -1       978 1.85076E-04-2.85011E-05-1.65436E-24
 -1       979 1.84959E-04-2.95231E-05 3.30872E-24
 -1       980 1.84842E-04-3.05378E-05 0.00000E+00
 -1       981 1.84725E-04-3.15556E-05 3.30872E-24
 -1       982 1.84609E-04-3.25867E-05 0.00000E+00
 -1       983 1.84492E-04-3.36414E-05-3.30872E-24
 -1       984 1.84376E-04-3.47302E-05 1.65436E-24
 -1       985 1.84260E-04-3.58634E-05 0.00000E+00
 -3
    1PSTEP                        28          14           1          
  100CL  114 6.37451E-01         409                     0   14           1
 -4  STRESS      6    1
 -5  SXX         1    4    1    1
 -5  SYY         1    4    2    2
 -5  SZZ         1    4    3    3
 -5  SXY         1    4    1    2
 -5  SYZ         1    4    2    3
 -5  SZX         1    4    3    1
 -1         1-4.32557E+06-1.62348E+06-9.51490E+05-1.60760E+06 1.89175E-10 5.70726E-08
 -1         2 4.96285E+03-2.40154E+06 2.17589E+04 1.22903E+05 2.13413E-09-1.84345E-08
 -1         3-1.28697E+03-1.52557E+06 3.95586E+02-2.01462E+03-4.74799E-10 4.10982E-08
 -1         5-1.17206E+02 4.01688E+05 1.10994E+01-1.80196E+00-5.68312E-10 6.31553E-09
 -1         8-6.47601E+05-2.17092E+05-5.30328E+04-2.71326E+05-4.02906E-10 9.15315E-08
 -1         9 7.19136E+06-7.30469E+05 1.20765E+06-1.09648E+06 2.68919E-08-1.67917E-07
 -1        10-2.11567E+03-1.58967E+06-3.50456E+03-1.36305E+04-1.28548E-08-3.50162E-08
 -1        12-1.12950E+02 4.01712E+05 3.67136E+02-1.20569E+01-9.06168E-10 2.80361E-08
 -1        15 1.28391E+03 7.05575E+02 4.15021E+03 1.94149E+00-2.79300E-10 8.34311E-08
 -1        16 1.60296E+07-1.70461E+05 2.26893E+06-1.32759E+06 1.13117E-08 2.35935E-08
 -1        17 5.74505E+06 4.04804E+06 1.55049E+06 3.97989E+06 1.49477E-08 2.85218E-08
 -1        18 1.60410E+05 4.08835E+04 9.04511E+03-1.22552E+05 1.45324E-08 3.00497E-09
 -1        19 1.20434E+05 1.47186E+05-4.77820E+02 1.94161E+04 2.14350E-09 6.58474E-10
 -1        20-7.97336E+04-5.57528E+05-1.25103E+05 2.38905E+04-3.36134E-09-2.01374E-08
 -1        21-4.32305E+01-2.84622E+05-8.88930E+02 3.26904E+02 2.24659E-08 5.35094E-09
 -1        24 9.33974E+06 7.95789E+06 2.66964E+06 7.39629E+06-1.45034E-07-4.98258E-08
 -1        25 3.46718E+05 1.08211E+06 3.03226E+05-7.30141E+05 3.04917E-08-1.94988E-08
 -1        26-3.82486E+04 1.01976E+05-1.99410E+04-3.86216E+03-8.70205E-10 1.02576E-08
 -1        27-7.71216E+04-3.02538E+05-1.10373E+05 6.61146E+04 3.28843E-09-3.14049E-09
 -1        28 2.13114E+04-8.20093E+04 1.62274E+04 1.99633E+04-4.85156E-09-8.10346E-10
 -1        32-1.29216E+06-1.71213E+06 1.32842E+05 4.83372E+05-2.39743E-08-5.68298E-09
 -1        33-1.65339E+05 9.56824E+04 3.22890E+04-4.75031E+04-4.07514E-09 4.99252E-09
 -1        34-2.14807E+05-2.50666E+04 6.52386E+02 7.36258E+04-6.51774E-09-2.72955E-09
 -1        35-2.20543E+04-3.24730E+04-1.29462E+03 4.94741E+04-2.94660E-09-1.43094E-10
 -1        51 4.83765E+04-2.17198E+05 1.04940E+05-6.43748E+05-7.27596E-11 8.85775E-08
 -1        52 1.76222E+04-2.00594E+05 5.68407E+04-7.50499E+05 4.18368E-10 1.29163E-07
 -1        53 5.10722E+03-2.15995E+05 3.24170E+04-6.41380E+05 4.94765E-10 9.48858E-08
 -1        54 1.17104E+04-2.12552E+05 3.23498E+04-7.52976E+05-3.41970E-10-8.35171E-08
 -1        55 2.45213E+04-2.22221E+05 4.60186E+04-6.41030E+05 6.03904E-10 4.81268E-08
 -1        56-8.16694E+06-9.34032E+05-7.04892E+05-3.20382E+06-8.65839E-09-2.80299E-07
 -1        57-8.60966E+06-1.40314E+06-4.73939E+05-2.98372E+06 3.60305E-08-4.93310E-08
 -1        58-8.26335E+06-1.19975E+06-1.65549E+05-3.20711E+06 1.01500E-08 7.01402E-08
 -1        59-8.50591E+06-1.08538E+06-9.83836E+04-2.97801E+06 3.00424E-08-1.57777E-07
 -1        60-8.27118E+06-1.24223E+06-3.83371E+04-3.21397E+06-5.25961E-09-6.37738E-08
 -1        61-8.47055E+06-1.05869E+06-2.14060E+04-2.99506E+06-3.94607E-09 4.97171E-08
 -1        62-8.29731E+06-1.22597E+06-1.11544E+04-3.18965E+06-1.67529E-09-5.96810E-08
 -1        63-8.39510E+06-1.12033E+06-7.31980E+03-3.06628E+06 3.84580E-08-4.84038E-08
 -1        64-8.34306E+06-1.18284E+06-1.11665E+04-3.14017E+06-1.17143E-09-1.73532E-08
 -1        65-8.30622E+06-1.21461E+06-1.81228E+04-3.16830E+06 3.71710E-09 3.16902E-10
 -1        66-8.38568E+06-1.13221E+06-3.50381E+04-3.08724E+06 8.42738E-09 5.68471E-08
 -1        67-8.25924E+06-1.32085E+06-8.64795E+04-3.25176E+06-2.74304E-09 3.73020E-08
 -1        68-8.39384E+06-1.07525E+06-1.45825E+05-3.05896E+06-1.05611E-08 9.56206E-08
 -1        69-8.37871E+06-1.58174E+06-4.18987E+05-3.24133E+06-7.31234E-09 1.16634E-08
 -1        70-8.27048E+06-8.76652E+05-6.21266E+05-3.09721E+06 3.27418E-09 7.07223E-08
 -1        86-5.34336E+03-2.57921E+06-1.51718E+04-6.13964E+04-1.85888E-08 2.48438E-07
 -1        87 5.24989E+03-2.47084E+06 6.47359E+03 1.91706E+05-3.31703E-08 1.64299E-07
 -1        88 9.49696E+02-2.51686E+06-6.75202E+03-1.30268E+05-2.99024E-08 4.21945E-08
 -1        89-2.93475E+03-2.49567E+06-1.17270E+04 2.18525E+05-4.24220E-08-1.07525E-07
 -1        90 4.71793E+03-2.55657E+06-3.81658E+04-8.82640E+04-1.51686E-08-5.96938E-08
 -1       121-1.76802E+03-1.52984E+06-4.21820E+02 9.99536E+02 1.30555E-09 1.27329E-09
 -1       122-1.11410E+03-1.52561E+06 7.63669E+02-4.03129E+03-5.14093E-09-3.24690E-09
 -1       123-1.79638E+03-1.52996E+06 3.94830E+02 2.98545E+03 3.77804E-09-1.12777E-09
 -1       124 4.63580E+02-1.52511E+06 2.96163E+03-8.44789E+03-9.78707E-09 1.80153E-08
 -1       125-2.60708E+03-1.53083E+06 3.64402E+03 5.37937E+03 5.95901E-09-1.41845E-08
 -1       191-1.23365E+02 4.01699E+05 7.74130E+00 9.56564E-01-7.17746E-10-8.18545E-10
 -1       192-1.18302E+02 4.01689E+05 2.37678E+01-5.58970E+00-1.03403E-09-1.25856E-08
 -1       193-1.26237E+02 4.01698E+05 3.88274E+01 4.97189E+00-1.30797E-09-4.18368E-10
 -1       194-1.21811E+02 4.01693E+05 9.05548E+01-1.26274E+01-7.52095E-10-3.99268E-09
 -1       195-1.31748E+02 4.01696E+05 1.71735E+02 8.35750E+00-1.87466E-09-1.14960E-09
 -1       251-2.07198E+06-3.87703E+04-2.03555E+05-1.39561E+05 2.45564E-09 1.64760E-07
 -1       252-1.05812E+06 4.84552E+04 6.09841E+04 4.30125E+05-1.12968E-08 1.04043E-07
 -1       253-1.62856E+06-1.63789E+04-3.53056E+04-2.86173E+05-4.07454E-10-5.04315E-08
 -1       254-1.53524E+06 6.59540E+04 1.06843E+04 5.69969E+05-2.08679E-08-1.58158E-07
 -1       255-1.64195E+06-1.78349E+04-2.02409E+04-2.83764E+05-1.15524E-08 1.89370E-07
 -1       256-1.02527E+06 5.31293E+04 1.13650E+05 4.19612E+05 2.58842E-08 1.20970E-07
 -1       257-2.08858E+06-4.42778E+04-1.12462E+05-1.31313E+05 3.04499E-08-4.41730E-08
 -1       258-5.17528E+05 3.98908E+04 2.09598E+05 8.11798E+03 1.58470E-08 1.40449E-08
 -1       259-2.09974E+06-4.52323E+04-1.13137E+05 1.25011E+05-2.87364E-08-3.15652E-09
 -1       260-9.98872E+05 5.46318E+04 1.23477E+05-4.08694E+05 4.08363E-09-1.44721E-07
 -1       261-1.65462E+06-2.04641E+04-1.38268E+04 2.82467E+05 4.56694E-08-1.56037E-08
 -1       262-1.52930E+06 7.74351E+04 3.35645E+04-5.68134E+05-3.08010E-08-5.94232E-08
 -1       263-1.62167E+06-2.53152E+04 3.41026E+03 2.89135E+05 1.39198E-08 1.28557E-08
 -1       264-1.05291E+06 1.19219E+05 1.55102E+05-4.39513E+05 1.35936E-07 1.36783E-07
 -1       265-2.08659E+06-9.82697E+04-6.02549E+04 1.49606E+05 5.11391E-08 5.58503E-08
 -1       266-2.32430E+04-1.08686E+04 5.45337E+04-4.15415E+01 3.63798E-11 1.17706E-07
 -1       267 2.69450E+04 1.26673E+04 3.85441E+04 4.79311E+01 2.53294E-10-2.11031E-07
 -1       268-3.61327E+03-1.79406E+03 1.43266E+04-6.10723E+00 1.59162E-10-5.76179E-08
 -1       269 4.26621E+03 2.14709E+03 9.31211E+03 7.11404E+00 1.36424E-12 3.87373E-08
 -1       270-6.40364E+02-3.52784E+02 4.49509E+03-9.65424E-01-1.94177E-10 7.74567E-08
 -1       271-2.10688E+06-2.53819E+05-1.56903E+05-8.06858E+05 2.08420E-08 1.74041E-08
 -1       272-2.21787E+06-3.14675E+05-1.01019E+05-7.44764E+05-9.54105E-09-3.69117E-07
 -1       273-2.13510E+06-2.94374E+05-3.70204E+04-8.01361E+05 9.40918E-09-1.35056E-07
 -1       274-2.18456E+06-2.65099E+05-2.07794E+04-7.53299E+05 3.85362E-08 3.99850E-08
 -1       275-2.13922E+06-2.98506E+05-8.62476E+03-8.00054E+05-1.65724E-08-3.49155E-08
 -1       276-2.17825E+06-2.61302E+05-4.52765E+03-7.55982E+05 1.49935E-08-8.35362E-08
 -1       277-2.14089E+06-2.97931E+05-2.27802E+03-7.98557E+05-2.16032E-08 1.05380E-07
 -1       278-2.17421E+06-2.63801E+05-1.41921E+03-7.59129E+05-1.03482E-08-4.80045E-08
 -1       279-2.14265E+06-2.96342E+05-1.63720E+03-7.96491E+05-2.78305E-09-2.09575E-07
 -1       280-2.16980E+06-2.68162E+05-2.43991E+03-7.63259E+05 1.93322E-08 8.70525E-08
 -1       281-2.14462E+06-2.94022E+05-4.84184E+03-7.93939E+05 3.41242E-09 1.14283E-08
 -1       282-2.16652E+06-2.76060E+05-1.07891E+04-7.67998E+05 3.68527E-09-1.28331E-07
 -1       283-2.14533E+06-2.89121E+05-1.97768E+04-7.91210E+05-7.62157E-10 1.05667E-07
 -1       284-2.17753E+06-3.07993E+05-5.28113E+04-7.70062E+05-2.00343E-08-4.23984E-09
 -1       285-2.13352E+06-2.65047E+05-8.27715E+04-7.90596E+05-4.91127E-10 1.16193E-07
 -1       301 1.41028E+04-4.70764E+05 1.73814E+05-8.25014E+05 4.58385E-10-4.99131E-09
 -1       302 1.54465E+04-4.26435E+05 1.06128E+05-1.20603E+06-1.44064E-09-2.09093E-08
 -1       303-5.89035E+03-4.56575E+05 6.54633E+04-8.22944E+05 4.07454E-10 1.34965E-07
 -1       304 3.62050E+03-4.30201E+05 7.54083E+04-1.20533E+06-8.94943E-10 2.11021E-07
 -1       305-4.94109E+02-4.55941E+05 1.05078E+05-8.25533E+05 1.23691E-10-9.96515E-08
 -1       306-2.41421E+07-4.80603E+06-6.49981E+06-1.41694E+06-6.00703E-08-1.06171E-07
 -1       307 1.90051E+07 1.11724E+06 4.14980E+06-1.12033E+07-7.41391E-07-3.43425E-08
 -1       308-7.99944E+06-4.52920E+05-5.32773E+05 3.93536E+06-1.82888E-07 1.84453E-07
 -1       309-3.48519E+06 4.55622E+06 1.47748E+06-1.70105E+07 4.91578E-07 5.50062E-09
 -1       310-1.03597E+07-8.07427E+05-1.12555E+06 3.76525E+06 2.04018E-08-1.40630E-07
 -1       311 2.44420E+07-5.05540E+05 4.99622E+06-8.14686E+06 3.88827E-07 1.36904E-07
 -1       312-2.48060E+07-4.79801E+06-6.02641E+06-3.42986E+06 1.05822E-07 5.50062E-08
 -1       313 3.37324E+07 8.42242E+06 7.82111E+06 1.51688E+07-2.81725E-07-3.76895E-08
 -1       314-1.58340E+07-1.21562E+07-5.59016E+06-9.98284E+06 5.13974E-08-7.56700E-10
 -1       315-8.51511E+05 2.04050E+07 4.32009E+06 9.70860E+06-4.34637E-07-3.27593E-07
 -1       316-4.07558E+05-8.33675E+06-4.94272E+05-3.91202E+06-1.12729E-06-2.16620E-07
 -1       317-1.65007E+07 1.74822E+07 1.44873E+06-4.28392E+06 5.40858E-07-5.19576E-07
 -1       318-1.53081E+06-9.25686E+06-1.18074E+06-4.52089E+06-8.88656E-07 6.98492E-10
 -1       319 3.14153E+06 2.13055E+07 4.74236E+06 1.15941E+07-8.44593E-08 2.09082E-07
 -1       320-1.80488E+07-1.25380E+07-7.09158E+06-9.85150E+06 1.65775E-07-1.79862E-08
 -1       336-5.02610E+02-1.65611E+06-1.27059E+04 8.11432E+03-2.50966E-08-1.59744E-08
 -1       337-4.92961E+03-1.65590E+06-1.61141E+04-1.97078E+04-4.59413E-08-3.85626E-10
 -1       338 2.41251E+02-1.65577E+06-2.48754E+04 1.13889E+04-3.29410E-08 3.77986E-09
 -1       339-2.62591E+04-1.67071E+06-5.59017E+04-2.61093E+04-5.90844E-08 2.06492E-08
 -1       340 1.72414E+04-1.64316E+06-8.79632E+04 1.44089E+04-3.81842E-08 2.58515E-08
 -1       406-9.03006E+01 4.01679E+05 7.19161E+02 4.75100E+00-2.68892E-09 1.06447E-08
 -1       407 1.40391E+02 4.01840E+05 1.54059E+03 2.84503E+01-8.55522E-10-2.17569E-08
 -1       408 6.76296E+02 4.01567E+05 3.06965E+03-3.32810E+01-3.29146E-09 1.67529E-08
 -1       409 3.22272E+03 4.02820E+05 6.92232E+03 3.60157E+02-5.19890E-10 4.95693E-08
 -1       410 9.46156E+03 4.00678E+05 1.41267E+04-3.49892E+02-3.58341E-09 1.87574E-08
 -1       521-2.59159E+07-5.93418E+06-7.67293E+06-1.17712E+06-5.58794E-08 1.08266E-07
 -1       522 1.98819E+07 1.58170E+06 4.25895E+06-1.40673E+07-4.87780E-07-1.98517E-07
 -1       523-8.89425E+06-7.07418E+05-5.65127E+05 4.39742E+06 1.37632E-07-2.17755E-07
 -1       524-6.29024E+06 6.67939E+06 1.62760E+06-1.99529E+07 9.23639E-07-3.67054E-07
 -1       525-1.14633E+07-1.22147E+06-1.25717E+06 4.21328E+06 6.52915E-07-1.23095E-07
 -1       526 2.67515E+07-5.47920E+05 5.32462E+06-1.04699E+07-1.59256E-07-1.32248E-07
 -1       527-2.67506E+07-6.08423E+06-7.00614E+06-3.39096E+06-1.02678E-07 5.19503E-09
 -1       528 3.72846E+07 9.28506E+06 8.25993E+06 1.73447E+07 5.82077E-11-1.17114E-07
 -1       529-1.69956E+07-1.40191E+07-6.47404E+06-1.03549E+07 1.17288E-07-5.06407E-08
 -1       530-2.90228E+06 2.41383E+07 4.61921E+06 9.96692E+06-3.75127E-07 4.15370E-07
 -1       531-5.21042E+05-9.52663E+06-5.08743E+05-4.17793E+06-6.37156E-07 2.19501E-07
 -1       532-1.96406E+07 1.99206E+07 1.62175E+06-7.17690E+06 3.04615E-07-6.55327E-07
 -1       533-1.65989E+06-1.04774E+07-1.26282E+06-4.73921E+06-6.86850E-08-8.97970E-07
 -1       534 1.37556E+06 2.51240E+07 5.01730E+06 1.22084E+07-8.21456E-08 6.23724E-07
 -1       535-1.93404E+07-1.44976E+07-8.17029E+06-1.02037E+07 8.09086E-08 3.87488E-07
 -1       536-7.72123E+05-5.71907E+04-5.16385E+04-5.86916E+04-5.82622E-09 6.07051E-08
 -1       537 8.90667E+03 5.53631E+04 1.04593E+05 1.33474E+05-1.09536E-07 1.11741E-07
 -1       538-4.08981E+05 2.80432E+03 4.14449E+03-7.80594E+04 4.10353E-08 1.22833E-07
 -1       539-2.62071E+05 3.76094E+03 2.86947E+04 1.51018E+05 1.99636E-07 1.11422E-07
 -1       540-5.07993E+05 1.60795E+02-2.16705E+04-7.69501E+04 2.05373E-08 1.09169E-07
 -1       541 1.96719E+05 1.87566E+04 1.17772E+05 1.10102E+05-7.90533E-08 8.85375E-08
 -1       542-8.55355E+05-2.26331E+04-9.44332E+04-3.60839E+04 6.08879E-08 4.83038E-08
 -1       543 5.08167E+05 3.12440E+04 1.79819E+05-1.10882E+04-2.70320E-08-1.23150E-08
 -1       544-8.11059E+05-1.93111E+04-8.62719E+04 4.34851E+04-3.53111E-09-3.85184E-08
 -1       545 9.18619E+04 1.14885E+04 9.34292E+04-1.22864E+05-1.91953E-08-7.20797E-08
 -1       546-4.50271E+05 6.47587E+03-1.46029E+04 7.52203E+04 1.96935E-08-9.35388E-08
 -1       547-2.76746E+05-4.65075E+03 1.35247E+04-1.53685E+05-1.08176E-07-1.25990E-07
 -1       548-4.52405E+05 5.21518E+03-2.50378E+04 7.51543E+04-1.04823E-07-9.49135E-08
 -1       549 9.82023E+04 2.10070E+04 7.20093E+04-1.22545E+05-7.66942E-08-7.45670E-08
 -1       550-8.15176E+05-2.76384E+04-1.40293E+05 4.32260E+04 7.85440E-09-3.99559E-08
 -1       551 3.90403E+04-7.72542E+05-5.10269E+03-1.19165E+06-9.70977E-08-1.01863E-10
 -1       552 8.47769E+04-8.10548E+05 1.58368E+04-1.69988E+06-6.75063E-08 4.90109E-08
 -1       553 6.41548E+04-8.06944E+05 3.62149E+04-1.18582E+06-1.09285E-07 3.01516E-08
 -1       554 1.19667E+05-8.19316E+05 8.59758E+04-1.70164E+06-6.45960E-08 2.10493E-08
 -1       555 9.25830E+04-8.27925E+05 1.55560E+05-1.18608E+06-1.09692E-07-7.13771E-09
 -1       556 1.82764E+05-3.17999E+05 4.16729E+04-3.48201E+05-2.38215E-08-2.24682E-08
 -1       557 2.96044E+05-4.07254E+05 2.37518E+04-4.46580E+05-2.47383E-09 1.33550E-08
 -1       558 1.70149E+05-3.16250E+05 6.43860E+03-3.48194E+05-2.31084E-08-7.93807E-09
 -1       559 2.74985E+05-4.10755E+05 4.16979E+03-4.62440E+05 7.69796E-09 9.74615E-09
 -1       560 1.58689E+05-3.09031E+05-2.57146E+02-3.56390E+05 3.81260E-09 8.49104E-09
 -1       561 2.60186E+05-4.05036E+05 5.41826E+02-4.72500E+05-7.50879E-09 2.06310E-08
 -1       562 1.49400E+05-3.03233E+05-9.63874E+02-3.63140E+05-1.02300E-08-4.08545E-09
 -1       563 2.48969E+05-4.00156E+05 1.82223E+00-4.79844E+05 2.47383E-10-1.50430E-09
 -1       564 1.42545E+05-2.98960E+05-5.88570E+02-3.68016E+05 7.79983E-09 1.10695E-08
 -1       565 2.41176E+05-3.96774E+05-7.25398E+01-4.84842E+05 1.04192E-08 1.96587E-08
 -1       566 1.38230E+05-2.96223E+05-4.01283E+02-3.71046E+05 3.41970E-10-1.33132E-08
 -1       567 2.36832E+05-3.94910E+05-5.60450E+02-4.87510E+05 2.50293E-08-1.12486E-08
 -1       568 1.36522E+05-2.95169E+05-1.38660E+03-3.72304E+05 3.72347E-09 3.56522E-10
 -1       569 2.34672E+05-3.94781E+05-3.39386E+03-4.87170E+05-1.02207E-08 2.71648E-08
 -1       570 1.38379E+05-2.97500E+05-6.97911E+03-3.71758E+05 6.57019E-09 1.05233E-08
 -1       571 2.83162E+05 1.00331E+04 1.41300E+04-1.07530E+05 4.55202E-09 2.57842E-09
 -1       572 2.85182E+05 3.88402E+03 6.92630E+03-1.17928E+05-1.41881E-10 4.33465E-09
 -1       573 2.83944E+05 1.31668E+03 3.07735E+03-1.07313E+05 1.00672E-08-4.89308E-09
 -1       574 2.84119E+05 8.50795E+02 1.54391E+03-1.18200E+05 2.08538E-08-5.92991E-10
 -1       575 2.84013E+05 5.75622E+02 7.28377E+02-1.07284E+05 7.87895E-09-4.37467E-09
 -1       576 2.83978E+05 6.05208E+02 3.72528E+02-1.18236E+05-9.05504E-09-6.29461E-09
 -1       577 2.84047E+05 5.23196E+02 1.84382E+02-1.07280E+05-5.78802E-09 8.58563E-09
 -1       578 2.84011E+05 5.67039E+02 1.03417E+02-1.18241E+05-4.74074E-09 1.16970E-08
 -1       579 2.84127E+05 4.81811E+02 6.46025E+01-1.07280E+05 1.05501E-09-8.83119E-09
 -1       580 2.84127E+05 5.06509E+02 6.65394E+01-1.18235E+05-2.70120E-08-1.42654E-08
 -1       581 2.84263E+05 4.07998E+02 8.98911E+01-1.07286E+05-2.45564E-10-5.92263E-09
 -1       582 2.84324E+05 4.36406E+02 1.80133E+02-1.18168E+05 3.27418E-09-3.97085E-09
 -1       583 2.84443E+05 3.81681E+02 3.36021E+02-1.07348E+05 1.05865E-09-2.98132E-09
 -1       584 2.84680E+05 6.58028E+02 7.64703E+02-1.17649E+05 6.06815E-09 3.24735E-09
 -1       585 2.84567E+05 1.25489E+03 1.53740E+03-1.07806E+05-2.58296E-09-5.08226E-09
 -1       586-2.27928E+03 1.34568E+05-1.18361E+03-2.33475E+05-6.36896E-09-2.84081E-09
 -1       587-1.02510E+03 1.34538E+05 1.41853E+03-2.56821E+05-1.00881E-08 1.60310E-09
 -1       588 3.29800E+02 1.34173E+05 4.64149E+03-2.33278E+05-6.11726E-09 1.61299E-08
 -1       589 4.54439E+03 1.36403E+05 1.13699E+04-2.56739E+05-6.42103E-09 1.40662E-08
 -1       590 1.50313E+04 1.32878E+05 2.35960E+04-2.33612E+05-8.51196E-09 1.03209E-08
 -1       591-9.49488E+04-2.02778E+04-2.48381E+04-4.11057E+04-2.64777E-09-3.69437E-09
 -1       592-9.90105E+04-2.46442E+04-1.34542E+04-4.56193E+04 2.14021E-09-1.94450E-09
 -1       593-9.74441E+04-1.84645E+04-5.60041E+03-4.29156E+04 3.20063E-09 2.50179E-09
 -1       594-9.55727E+04-2.10087E+04-2.79294E+03-4.57614E+04-1.04455E-09 7.47860E-09
 -1       595-9.76349E+04-1.84574E+04-1.28238E+03-4.29981E+04-2.60570E-10 1.22594E-08
 -1       596-9.53380E+04-2.08425E+04-6.51749E+02-4.57350E+04 6.54055E-09-2.63336E-09
 -1       597-9.76590E+04-1.84740E+04-3.54715E+02-4.30012E+04 3.43076E-09-6.04001E-09
 -1       598-9.53151E+04-2.08361E+04-2.84858E+02-4.57275E+04-7.08491E-09-7.99071E-09
 -1       599-9.76576E+04-1.84746E+04-3.63534E+02-4.30008E+04 2.99394E-09-9.89291E-09
 -1       600-9.53382E+04-2.08433E+04-6.75077E+02-4.57327E+04 7.00857E-09-1.34223E-08
 -1       601-9.76296E+04-1.84588E+04-1.33175E+03-4.29968E+04-1.28944E-09 4.56362E-09
 -1       602-9.55816E+04-2.10151E+04-2.90231E+03-4.57561E+04-4.75802E-09 5.64728E-09
 -1       603-9.74285E+04-1.84693E+04-5.82047E+03-4.29116E+04-2.17187E-09 1.62108E-08
 -1       604-9.91684E+04-2.47771E+04-1.39820E+04-4.55870E+04-2.67528E-09 3.17596E-09
 -1       605-9.48179E+04-2.03682E+04-2.58126E+04-4.10463E+04-5.08993E-09 6.74754E-09
 -1       606 2.59457E+04-1.44467E+04-2.58882E+04 2.23143E+04 1.14278E-08 4.57544E-09
 -1       607 2.15234E+04-4.72376E+03-1.28925E+04 2.50840E+04 2.72530E-09-1.98338E-09
 -1       608 2.40465E+04-8.57185E+02-5.77119E+03 2.21633E+04-7.79437E-09 1.25033E-09
 -1       609 2.35656E+04-3.00707E+02-2.91563E+03 2.52841E+04 4.11592E-09 4.66707E-09
 -1       610 2.38347E+04-4.96760E+01-1.39091E+03 2.21451E+04 7.04858E-09 4.28736E-09
 -1       611 2.37614E+04-5.27721E+01-7.01547E+02 2.53057E+04 1.09576E-08-6.32849E-09
 -1       612 2.37901E+04-3.76282E+01-3.33677E+02 2.21432E+04 1.01127E-08-1.66542E-08
 -1       613 2.37760E+04-5.02708E+01-1.50273E+02 2.53082E+04 2.34504E-08-1.84823E-08
 -1       614 2.37701E+04-4.54590E+01-3.66597E+01 2.21425E+04-9.91349E-11 9.26070E-09
 -1       615 2.37728E+04-5.00220E+01 5.90736E+01 2.53086E+04-2.00862E-08 3.12759E-08
 -1       616 2.37544E+04-4.33962E+01 1.80841E+02 2.21428E+04-1.61876E-08-3.11638E-09
 -1       617 2.37959E+04-1.20946E+01 4.13780E+02 2.53082E+04-1.78006E-08-6.59770E-09
 -1       618 2.37193E+04 7.54170E+01 8.34625E+02 2.21431E+04-8.51719E-09 1.68327E-08
 -1       619 2.40913E+04 6.32947E+02 1.87450E+03 2.53077E+04-3.41345E-09 5.63068E-09
 -1       620 2.34425E+04 2.05468E+03 3.76787E+03 2.21454E+04 1.28807E-10-4.35193E-09
 -1       621 8.15855E+02 3.22086E+05 5.89167E+03 4.64021E+04 1.34514E-09-4.83760E-09
 -1       622 1.01629E+03 3.23469E+05 4.71469E+03 6.73530E+04 1.22418E-09 3.65799E-09
 -1       623 1.94963E+02 3.22474E+05 5.02451E+03 4.62020E+04 1.64846E-09 3.49792E-09
 -1       624 2.44428E+03 3.24647E+05 9.20583E+03 6.75419E+04 1.70098E-09-4.50996E-09
 -1       625 2.36543E+03 3.20697E+05 1.58388E+04 4.62058E+04 1.75487E-09-6.65591E-09
 -1       626 2.51118E+05 5.75039E+04 3.70973E+03 1.20864E+05-5.15683E-09-2.59115E-09
 -1       627 2.48860E+05 5.90861E+04 1.78775E+03 1.24618E+05-2.20389E-08-1.55605E-08
 -1       628 2.51227E+05 5.57881E+04 7.56355E+02 1.21472E+05-6.98856E-09 2.91900E-08
 -1       629 2.48379E+05 5.86142E+04 3.70971E+02 1.24813E+05-2.39015E-09 1.74366E-09
 -1       630 2.51238E+05 5.57051E+04 1.73537E+02 1.21495E+05-4.62614E-09-1.36561E-08
 -1       631 2.48327E+05 5.85975E+04 9.63377E+01 1.24816E+05 5.20595E-09-2.89447E-09
 -1       632 2.51234E+05 5.57077E+04 6.89308E+01 1.21492E+05 1.55176E-08 1.57570E-09
 -1       633 2.48321E+05 5.85987E+04 8.50941E+01 1.24814E+05 2.03545E-09-1.24066E-08
 -1       634 2.51230E+05 5.57041E+04 1.44987E+02 1.21492E+05-3.73910E-09 7.16113E-09
 -1       635 2.48336E+05 5.85967E+04 2.98039E+02 1.24820E+05-9.04629E-09 1.59648E-08
 -1       636 2.51221E+05 5.56984E+04 6.04255E+02 1.21492E+05 5.80462E-09 2.27828E-09
 -1       637 2.48466E+05 5.86913E+04 1.32982E+03 1.24819E+05 2.08954E-08-1.50499E-08
 -1       638 2.51174E+05 5.59925E+04 2.73295E+03 1.21358E+05 2.05328E-08 5.74755E-09
 -1       639 2.49897E+05 6.06919E+04 6.46653E+03 1.24399E+05 3.31247E-08 1.90294E-08
 -1       640 2.50975E+05 6.19545E+04 1.34195E+04 1.18844E+05 1.63800E-08-4.78394E-09
 -1       656 6.47004E+04-1.65611E+06-1.56181E+05-3.05593E+03-8.73115E-11-2.28581E-08
 -1       657-8.55726E+04-1.72669E+06-1.29353E+05 4.40587E+03-1.08412E-09 2.54646E-09
 -1       658 2.06019E+04-1.67616E+06-7.96154E+04-4.97798E+03-4.13365E-10 5.86854E-09
 -1       659-9.24031E+04-1.72993E+06-1.38330E+05 6.01323E+03-2.95040E-09 2.70816E-10
 -1       660 7.15154E+04-1.65287E+06-1.71618E+05-4.66328E+03-2.40107E-09-8.81261E-09
 -1       661 1.53881E+05 1.60491E+04 1.62284E+04 6.00879E+04-3.07136E-09 1.15388E-08
 -1       662 1.62998E+05 2.81244E+04 1.09366E+04 5.65109E+04 2.97348E-09 2.57387E-10
 -1       663 1.57067E+05 2.12574E+04 3.82503E+03 5.91651E+04-2.95438E-09 5.47925E-09
 -1       664 1.59305E+05 2.20326E+04 2.28802E+03 5.76372E+04-8.74707E-10-4.86364E-09
 -1       665 1.57549E+05 2.19698E+04 9.02615E+02 5.90254E+04-1.96678E-10-9.40855E-09
 -1       666 1.58736E+05 2.12172E+04 5.28134E+02 5.78189E+04 1.24324E-08-1.33338E-09
 -1       667 1.57633E+05 2.20516E+04 2.80491E+02 5.89911E+04 2.17813E-09-9.87664E-09
 -1       668 1.58644E+05 2.11573E+04 2.85695E+02 5.78685E+04 1.22220E-09-1.03128E-08
 -1       669 1.57640E+05 2.20280E+04 3.86731E+02 5.89761E+04-7.36694E-09 1.95291E-09
 -1       670 1.58739E+05 2.13660E+04 8.42024E+02 5.78701E+04-1.24815E-08-1.10090E-08
 -1       671 1.57538E+05 2.18472E+04 1.49507E+03 5.89876E+04-1.33718E-09 3.15782E-09
 -1       672 1.59611E+05 2.28199E+04 3.82508E+03 5.76584E+04 9.13143E-09 2.65027E-09
 -1       673 1.56772E+05 2.06110E+04 6.41023E+03 5.91738E+04 5.19208E-09 2.43585E-09
 -1       674 1.65711E+05 3.31195E+04 1.83320E+04 5.58669E+04-1.16830E-09-8.31346E-09
 -1       675 1.51476E+05 1.18361E+04 2.72110E+04 6.06709E+04-5.03724E-09 1.83536E-09
 -1       676 2.32729E+01-2.84547E+05-1.07139E+03-1.63458E+02 4.03460E-09-1.00893E-08
 -1       677-2.82785E+02-2.84806E+05-1.96083E+03 3.26666E+02 1.28364E-08-3.38278E-08
 -1       678 1.90152E+02-2.84362E+05-3.46625E+03-1.63102E+02 2.52294E-09-6.05669E-09
 -1       679-3.46564E+03-2.86899E+05-8.23433E+03 3.25300E+02 1.07244E-08 3.09625E-09
 -1       680 2.06960E+03-2.82455E+05-1.32709E+04-1.60288E+02-4.01997E-10-9.28324E-09
 -1       771-2.95615E+06-6.98585E+05-1.39069E+05-1.39927E+06-3.26399E-08-2.43890E-08
 -1       772-2.88518E+06-7.80151E+05-7.17555E+04-1.49347E+06-2.04309E-08 3.01698E-08
 -1       773-2.98300E+06-6.77545E+05-3.64143E+04-1.41086E+06-1.55414E-08 6.19912E-09
 -1       774-2.87661E+06-7.64983E+05-1.62760E+04-1.51535E+06 3.44735E-08-4.19823E-09
 -1       775-2.99678E+06-6.67825E+05-1.20549E+04-1.41648E+06-1.39698E-09 4.87489E-10
 -1       776-2.88656E+06-7.62666E+05-4.52826E+03-1.53164E+06-1.05210E-08-3.63798E-09
 -1       777-3.00864E+06-6.59232E+05-5.28435E+03-1.42143E+06 4.86034E-09 2.54659E-09
 -1       778-2.89694E+06-7.60536E+05-1.51826E+03-1.54558E+06-4.00178E-10 1.56979E-09
 -1       779-3.01878E+06-6.51768E+05-2.66508E+03-1.42566E+06-8.52742E-09-4.18368E-09
 -1       780-2.90604E+06-7.58514E+05-5.40382E+02-1.55691E+06-1.33878E-08 3.05954E-09
 -1       781-3.02680E+06-6.45776E+05-1.22867E+03-1.42896E+06-3.11120E-08-4.56566E-10
 -1       782-2.91306E+06-7.56823E+05-1.18547E+02-1.56525E+06-3.65399E-08-4.04498E-09
 -1       783-3.03239E+06-6.41639E+05-4.03839E+02-1.43125E+06-5.23869E-09-1.59898E-08
 -1       784-2.91750E+06-7.55698E+05 4.05965E+00-1.57036E+06-6.35191E-09 2.52658E-09
 -1       785-3.03525E+06-6.39512E+05-1.87529E+02-1.43241E+06-2.64190E-08 1.03482E-08
 -1       786 2.24156E+05-1.21185E+04 2.80406E+04-5.31675E+02-6.09123E-05-1.63791E-07
 -1       787 2.36306E+05 1.40324E+04 1.98375E+04-5.74032E+02-1.21356E-04-2.68458E-07
 -1       788 2.28844E+05-1.89868E+03 7.25732E+03-5.29238E+02-8.21126E-05-1.41639E-07
 -1       789 2.30845E+05 2.19968E+03 4.55919E+03-5.75144E+02-4.24951E-05-1.07352E-07
 -1       790 2.29618E+05-2.95509E+02 1.85387E+03-5.30589E+02-4.70762E-06 5.50506E-09
 -1       791 2.29942E+05 3.45807E+02 1.08583E+03-5.76463E+02 3.30796E-05 9.47223E-08
 -1       792 2.29747E+05-4.62064E+01 4.90477E+02-5.27923E+02 6.49493E-05 1.25116E-07
 -1       793 2.29795E+05 6.55875E+01 3.10925E+02-5.88125E+02 9.66169E-05 2.50670E-07
 -1       794 2.29765E+05-1.54782E+01 2.14362E+02-5.18928E+02 4.84154E-05 1.10279E-07
 -1       795 2.29800E+05 8.14013E+01 2.86943E+02-6.16062E+02 1.59087E-07 3.03564E-08
 -1       796 2.29742E+05-6.20099E+01 4.15851E+02-4.99987E+02 8.74660E-09 2.94123E-08
 -1       797 2.29985E+05 4.63057E+02 9.68996E+02-6.70928E+02 3.79539E-09 1.48798E-08
 -1       798 2.29580E+05-3.96858E+02 1.52562E+03-4.64060E+02 6.75564E-09 1.45722E-08
 -1       799 2.31130E+05 2.93945E+03 4.15627E+03-7.72239E+02 2.05382E-09 7.39050E-09
 -1       800 2.28597E+05-2.53643E+03 5.86905E+03-3.98669E+02 9.76929E-10 1.08596E-08
 -1       801-2.55811E+05-9.94649E+06-1.51449E+06 1.59665E+06 6.51489E-08-6.11653E-08
 -1       802 1.03979E+06 1.32284E+07 3.49414E+06-2.12268E+06-1.81608E-08-3.69964E-08
 -1       803-7.23481E+05-1.75395E+07-2.73317E+06 9.37560E+05 1.74055E-07 4.05180E-08
 -1       804 5.31596E+05 9.11686E+06 2.71684E+06 5.37767E+05-2.78087E-08-1.36721E-07
 -1       805 1.60298E+05-5.81153E+06-3.15608E+05-1.06842E+06-1.11226E-07-9.77584E-08
 -1       806-2.85630E+05-6.58330E+04-2.50150E+04-1.24791E+05-2.05546E-08 2.37287E-09
 -1       807-2.86364E+05-6.29905E+04-1.22891E+04-1.32305E+05-3.48672E-09 5.31873E-09
 -1       808-2.86389E+05-5.67486E+04-5.21274E+03-1.28982E+05-1.51576E-08-2.69279E-09
 -1       809-2.83715E+05-5.96047E+04-2.54810E+03-1.32692E+05-8.11951E-09-1.23343E-08
 -1       810-2.86503E+05-5.64263E+04-1.16691E+03-1.29166E+05 3.38855E-09-1.21704E-08
 -1       811-2.83511E+05-5.94732E+04-5.78931E+02-1.32665E+05 6.69036E-09 2.83501E-09
 -1       812-2.86520E+05-5.64509E+04-2.89767E+02-1.29164E+05-5.26734E-09 3.42379E-09
 -1       813-2.83480E+05-5.94786E+04-1.84408E+02-1.32646E+05-1.58791E-08 6.86032E-09
 -1       814-2.86511E+05-5.64629E+04-1.75934E+02-1.29157E+05-2.16460E-10-1.67429E-08
 -1       815-2.83477E+05-5.94841E+04-2.77817E+02-1.32635E+05 1.17834E-08-5.41695E-09
 -1       816-2.86485E+05-5.64656E+04-5.23070E+02-1.29149E+05 6.36282E-09 1.00772E-09
 -1       817-2.83558E+05-5.95367E+04-1.12106E+03-1.32616E+05-1.51849E-08-3.80305E-09
 -1       818-2.86406E+05-5.66309E+04-2.28630E+03-1.29070E+05-1.19098E-08-6.10726E-09
 -1       819-2.84818E+05-6.09009E+04-5.37843E+03-1.32285E+05-2.13477E-08-2.94526E-08
 -1       820-2.85940E+05-6.07214E+04-1.09481E+04-1.27353E+05-4.61932E-09 1.77329E-09
 -1       821-3.85954E+05 2.11657E+04-4.95964E+04 2.74300E+03 1.75847E-08 9.37871E-09
 -1       822-4.04615E+05-2.45362E+04-3.45989E+04-5.96471E+03 7.60253E-09-1.21013E-08
 -1       823-3.92930E+05 3.35171E+03-1.27834E+04 4.72989E+03-1.76820E-08 4.85579E-09
 -1       824-3.95997E+05-3.85768E+03-7.96229E+03-7.54789E+03 3.30244E-10 1.39789E-08
 -1       825-3.94593E+05 5.23197E+02-3.37347E+03 4.32645E+03 2.83053E-08-3.92151E-09
 -1       826-3.92816E+05-5.46795E+02-1.59832E+03-4.59422E+03 3.47601E-08-1.37695E-08
 -1       827-3.96067E+05 8.69158E+00-1.35729E+03 1.77589E+03 1.88053E-08-4.90977E-09
 -1       828-3.91535E+05-8.09566E+01-2.98260E+02 1.22792E+03-4.30200E-09 8.14371E-09
 -1       829-3.95846E+05 3.50812E+01-1.31968E+03-1.49571E+03 1.55021E-09-6.19369E-09
 -1       830-3.93277E+05-6.09128E+02-1.72486E+03 6.64066E+03-4.57867E-10-1.16379E-08
 -1       831-3.94366E+05 5.69572E+02-3.37257E+03-3.63679E+03-1.05501E-08 4.84511E-09
 -1       832-3.96016E+05-3.95963E+03-8.09142E+03 8.59183E+03-7.80659E-09-2.07151E-08
 -1       833-3.93139E+05 3.40790E+03-1.30235E+04-3.44699E+03-1.58160E-09-5.45151E-09
 -1       834-4.04279E+05-2.49202E+04-3.50364E+04 5.93829E+03-3.24104E-09-1.11145E-08
 -1       835-3.86069E+05 2.14827E+04-5.04083E+04-9.83089E+02 3.48308E-09-1.23910E-08
 -1       836-1.54603E+03 3.84786E+05 2.39602E+04-2.81288E+04-8.12724E-09 4.61750E-09
 -1       837 5.00509E+03 3.92331E+05 1.99958E+04-5.72854E+04-8.72251E-09 1.81724E-08
 -1       838-6.09248E+02 3.86925E+05 1.99731E+04-2.80297E+04-7.44876E-09 8.63793E-10
 -1       839 1.23122E+04 3.97754E+05 3.73892E+04-5.73284E+04-8.43056E-09-8.26736E-09
 -1       840-3.88440E+03 3.79278E+05 5.94429E+04-2.80937E+04-7.87622E-09-1.00335E-08
 -1       856-5.19499E+04 7.71483E+03-2.03296E+04-3.66208E+02 6.82178E-09-1.85210E-08
 -1       857-6.03213E+04-9.06803E+03-1.39947E+04 5.49531E+03 4.44072E-09 1.56547E-09
 -1       858-5.52668E+04 1.08216E+03-5.27506E+03-3.90627E+02 2.28005E-09-3.71529E-10
 -1       859-5.65147E+04-1.27653E+03-3.18331E+03 5.53137E+03 4.19575E-10 2.96137E-09
 -1       860-5.57623E+04 1.51794E+02-1.33425E+03-4.01933E+02 1.19485E-09-3.37292E-09
 -1       861-5.59447E+04-1.84642E+02-7.34227E+02 5.54678E+03 5.28458E-09 2.09123E-09
 -1       862-5.58398E+04 2.08257E+01-3.05685E+02-4.06010E+02-8.31076E-09-7.65965E-09
 -1       863-5.58498E+04-2.49214E+01-1.12428E+02 5.54926E+03-9.04918E-09 6.98294E-09
 -1       864-5.58577E+04-4.27473E+00 4.29659E+01-4.04408E+02-6.99804E-09-1.27968E-08
 -1       865-5.57970E+04 5.23534E+01 2.39988E+02 5.53985E+03 2.30268E-09-3.22444E-10
 -1       866-5.58906E+04-5.64434E+01 4.84929E+02-3.96600E+02 4.53326E-10-8.17039E-09
 -1       867-5.55688E+04 4.64726E+02 1.19434E+03 5.51863E+03-3.23894E-10-2.38825E-09
 -1       868-5.60813E+04-4.09193E+02 1.98490E+03-3.83192E+02-4.02173E-09 1.46924E-08
 -1       869-5.41136E+04 3.40410E+03 5.28530E+03 5.48393E+03 5.26046E-09-4.19413E-09
 -1       870-5.73385E+04-2.91599E+03 7.67022E+03-3.61779E+02-4.09148E-09 3.12593E-09
 -1       871-5.27313E+03-2.40482E+04-1.89173E+04 1.25109E+05-7.76345E-09 5.39512E-09
 -1       872-1.83093E+03-2.84626E+04-7.96572E+03 1.62232E+05-1.52077E-08 4.55657E-09
 -1       873 4.59911E+02-2.63024E+04 4.65057E+02 1.24835E+05-6.22686E-09-1.19237E-08
 -1       874 3.23763E+03-2.40404E+04 9.24188E+03 1.62252E+05-1.63436E-08-9.23956E-09
 -1       875 6.57967E+03-2.85168E+04 2.09363E+04 1.25065E+05-7.19047E-09-2.45791E-08
 -1       876 2.82048E+05 4.76443E+04 1.46520E+04 1.13306E+05 2.11776E-09-9.49512E-10
 -1       877 2.82978E+05 5.07690E+04 7.82473E+03 1.17558E+05 1.29776E-08-3.61524E-11
 -1       878 2.83420E+05 4.60195E+04 3.27812E+03 1.14504E+05-2.11321E-09-7.42443E-09
 -1       879 2.80986E+05 4.87824E+04 1.63328E+03 1.17658E+05 6.44286E-09 1.39673E-08
 -1       880 2.83518E+05 4.60026E+04 7.60588E+02 1.14553E+05-1.19417E-09 9.33818E-09
 -1       881 2.80853E+05 4.86976E+04 4.05844E+02 1.17635E+05-6.97491E-09 2.47265E-09
 -1       882 2.83527E+05 4.60155E+04 2.59019E+02 1.14555E+05-1.51954E-09-8.07772E-09
 -1       883 2.80844E+05 4.86932E+04 2.77506E+02 1.17628E+05 2.96677E-09 5.75028E-09
 -1       884 2.83521E+05 4.60129E+04 4.40568E+02 1.14555E+05 7.43751E-09 2.22026E-08
 -1       885 2.80879E+05 4.86993E+04 8.85227E+02 1.17639E+05 1.00577E-08-1.46019E-08
 -1       886 2.83487E+05 4.59871E+04 1.78386E+03 1.14551E+05-3.37361E-09-1.49364E-08
 -1       887 2.81192E+05 4.89048E+04 3.89648E+03 1.17684E+05-4.92747E-10-8.16385E-10
 -1       888 2.83240E+05 4.60306E+04 7.85145E+03 1.14427E+05-3.75158E-09-6.92808E-09
 -1       889 2.85867E+05 5.37651E+04 1.87557E+04 1.17540E+05-7.71863E-10 2.37196E-09
 -1       890 2.80033E+05 4.98398E+04 3.51289E+04 1.11442E+05-3.03180E-09 9.85347E-09
 -1       891-6.90962E+01-1.56380E+05-1.91210E+03 2.60791E+04-3.27509E-09 3.53452E-09
 -1       892-1.43067E+02-1.56894E+05-2.05671E+03 3.96277E+04 2.86946E-10 2.26191E-09
 -1       893 5.85037E+01-1.56442E+05-2.91518E+03 2.60863E+04-1.01249E-09 1.75260E-09
 -1       894-1.42557E+03-1.57998E+05-6.03569E+03 3.94807E+04 1.85173E-09 3.33421E-09
 -1       895-1.13470E+03-1.55185E+05-1.06295E+04 2.62286E+04-9.29845E-10 1.57061E-08
 -1       956-3.62020E+05-5.52793E+03-1.35675E+04 3.24064E+04 1.02054E-08-2.27324E-08
 -1       957-3.64678E+05-1.97438E+03-6.96363E+03 3.89078E+04 1.71804E-09-4.33465E-09
 -1       958-3.63244E+05-2.72409E+02-3.13847E+03 3.22251E+04-6.77937E-09-1.33159E-08
 -1       959-3.63439E+05-1.70307E+02-1.60214E+03 3.91215E+04-1.03228E-10 2.31012E-09
 -1       960-3.63367E+05-7.17791E+01-7.81091E+02 3.22064E+04 4.27190E-09-8.12088E-09
 -1       961-3.63363E+05-9.40136E+01-4.13014E+02 3.91438E+04 4.38740E-09 2.84308E-09
 -1       962-3.63399E+05-7.07811E+01-2.34712E+02 3.22032E+04-2.36469E-11 9.77366E-09
 -1       963-3.63367E+05-8.78057E+01-1.85036E+02 3.91481E+04 3.94209E-09 1.15501E-08
 -1       964-3.63407E+05-6.59982E+01-2.20995E+02 3.22021E+04 1.03375E-09 2.48133E-09
 -1       965-3.63381E+05-8.36004E+01-3.78868E+02 3.91479E+04-5.86857E-09 9.88553E-09
 -1       966-3.63393E+05-5.76575E+01-7.10021E+02 3.22034E+04 2.36923E-09 8.79163E-09
 -1       967-3.63467E+05-1.43526E+02-1.45535E+03 3.91341E+04-2.00384E-09 2.30787E-08
 -1       968-3.63294E+05-2.31192E+02-2.84865E+03 3.22157E+04 1.33241E-09 6.19139E-09
 -1       969-3.64608E+05-1.77442E+03-6.32381E+03 3.89877E+04-1.39380E-09 1.08844E-09
 -1       970-3.62194E+05-4.99872E+03-1.23193E+04 3.23397E+04-3.16140E-09 1.96351E-08
 -1       971-3.31691E+05-1.64705E+03-8.83358E+03 1.46844E+04 6.70389E-09-3.77766E-09
 -1       972-3.33814E+05-1.21854E+03-4.81082E+03 2.02693E+04 2.08956E-09-1.65674E-08
 -1       973-3.32674E+05-6.72862E+01-2.15475E+03 1.45709E+04 3.42152E-09-2.34290E-08
 -1       974-3.32798E+05-8.94062E+01-1.11712E+03 2.03985E+04-1.27511E-09-1.68257E-09
 -1       975-3.32752E+05-2.52093E+01-5.59025E+02 1.45595E+04-8.24912E-09 7.40783E-09
 -1       976-3.32739E+05-4.25813E+01-3.23815E+02 2.04131E+04 2.49429E-10-1.82063E-08
 -1       977-3.32767E+05-2.48286E+01-2.37228E+02 1.45564E+04-6.97651E-09-5.27211E-09
 -1       978-3.32744E+05-3.69427E+01-2.80688E+02 2.04175E+04-9.70886E-09 6.50220E-09
 -1       979-3.32766E+05-1.68739E+01-4.53571E+02 1.45551E+04-2.54090E-11 9.10518E-10
 -1       980-3.32778E+05-3.41179E+01-8.77418E+02 2.04184E+04-1.18644E-09-1.41116E-08
 -1       981-3.32738E+05 5.05957E+00-1.70017E+03 1.45556E+04 8.10894E-09-5.09877E-09
 -1       982-3.33011E+05-1.59638E+02-3.51466E+03 2.04122E+04 1.33763E-08 5.58312E-09
 -1       983-3.32524E+05-1.03618E+02-6.82917E+03 1.45612E+04 7.22616E-09 1.29453E-08
 -1       984-3.36297E+05-3.72592E+03-1.52937E+04 2.03307E+04 1.44926E-08 1.56971E-08
 -1       985-3.29433E+05-5.10056E+03-2.80840E+04 1.46264E+04 1.28102E-09 6.39557E-09
 -3
    1PSTEP                        29          15           1          
  100CL  115 6.44867E-01         409                     0   15           1
 -4  DISP        4    1
 -5  D1          1    2    1    0
 -5  D2          1    2    2    0
 -5  D3          1    2    3    0
 -5  ALL         1    2    0    0    1ALL
 -1         1 2.14401E-03 0.00000E+00 0.00000E+00
 -1         2 1.86889E-03-9.64007E-28 0.00000E+00
 -1         3 3.28056E-04 2.10452E-27 0.00000E+00
 -1         5 1.59854E-04-2.38077E-26 0.00000E+00
 -1         8 2.12730E-03-5.07767E-07 0.00000E+00
 -1         9 2.08443E-03-1.02963E-05 0.00000E+00
 -1        10 2.97249E-04-3.35472E-06-6.61744E-24
 -1        12 1.62308E-04 8.56229E-07 1.65436E-24
 -1        15 2.10704E-03-5.55545E-07 0.00000E+00
 -1        16 2.11642E-03-1.15109E-05 0.00000E+00
 -1        17 2.01494E-04-7.61472E-06 0.00000E+00
 -1        18 1.68110E-04 4.22209E-05 0.00000E+00
 -1        19 1.69673E-04 1.70376E-06 0.00000E+00
 -1        20 1.69801E-04-1.68827E-05 0.00000E+00
 -1        21 1.68915E-04-3.94815E-05 0.00000E+00
 -1        24 2.95421E-05-1.16384E-05 0.00000E+00
 -1        25 1.81012E-04 4.24875E-05 0.00000E+00
 -1        26 1.82255E-04 2.37459E-06 0.00000E+00
 -1        27 1.79925E-04-2.03989E-05 0.00000E+00
 -1        28 1.79613E-04-4.00906E-05 0.00000E+00
 -1        32 0.00000E+00 0.00000E+00 0.00000E+00
 -1        33 1.93496E-04 3.16964E-06 0.00000E+00
 -1        34 1.91423E-04-2.04662E-05 0.00000E+00
 -1        35 1.89535E-04-4.04276E-05 0.00000E+00
 -1        51 2.14294E-03-9.71640E-08 6.61744E-24
 -1        52 2.14094E-03-1.79132E-07 0.00000E+00
 -1        53 2.13820E-03-2.58956E-07 0.00000E+00
 -1        54 2.13489E-03-3.38801E-07 0.00000E+00
 -1        55 2.13119E-03-4.20252E-07-1.65436E-24
 -1        56 2.13994E-03 7.41516E-07-5.29396E-23
 -1        57 2.13430E-03 5.25679E-06 0.00000E+00
 -1        58 2.12749E-03 1.28409E-05 1.05879E-22
 -1        59 2.11986E-03 2.24806E-05-5.29396E-23
 -1        60 2.11195E-03 3.28552E-05 0.00000E+00
 -1        61 2.10429E-03 4.25770E-05 0.00000E+00
 -1        62 2.09737E-03 5.03637E-05 0.00000E+00
 -1        63 2.09163E-03 5.50844E-05 0.00000E+00
 -1        64 2.08729E-03 5.60986E-05 1.05879E-22
 -1        65 2.08448E-03 5.30609E-05 5.29396E-23
 -1        66 2.08305E-03 4.62769E-05-1.05879E-22
 -1        67 2.08278E-03 3.63548E-05 5.29396E-23
 -1        68 2.08325E-03 2.44085E-05-1.05879E-22
 -1        69 2.08402E-03 1.17241E-05 0.00000E+00
 -1        70 2.08453E-03-3.07062E-07-5.29396E-23
 -1        86 1.88156E-03-1.07529E-06-2.64698E-23
 -1        87 1.91904E-03-2.74896E-06 1.32349E-23
 -1        88 1.97011E-03-4.97095E-06 2.64698E-23
 -1        89 2.02301E-03-7.28371E-06 1.32349E-23
 -1        90 2.06517E-03-9.12990E-06 0.00000E+00
 -1       121 3.27191E-04-5.42617E-07 0.00000E+00
 -1       122 3.24599E-04-1.08811E-06-6.61744E-24
 -1       123 3.20291E-04-1.63929E-06 1.32349E-23
 -1       124 3.14280E-04-2.19901E-06 6.61744E-24
 -1       125 3.06590E-04-2.76971E-06 1.32349E-23
 -1       191 1.59922E-04 1.42815E-07 0.00000E+00
 -1       192 1.60126E-04 2.85610E-07 0.00000E+00
 -1       193 1.60467E-04 4.28369E-07-1.65436E-24
 -1       194 1.60944E-04 5.71073E-07-1.65436E-24
 -1       195 1.61558E-04 7.13700E-07 0.00000E+00
 -1       251 2.12651E-03 1.97256E-05 1.32349E-23
 -1       252 2.12453E-03 7.31949E-05 6.61744E-24
 -1       253 2.12111E-03 1.50264E-04 0.00000E+00
 -1       254 2.11661E-03 2.40752E-04-6.61744E-24
 -1       255 2.11214E-03 3.30774E-04 0.00000E+00
 -1       256 2.10882E-03 4.06459E-04 0.00000E+00
 -1       257 2.10694E-03 4.57885E-04-1.32349E-23
 -1       258 2.10618E-03 4.75687E-04 0.00000E+00
 -1       259 2.10544E-03 4.59245E-04 0.00000E+00
 -1       260 2.10360E-03 4.08792E-04 0.00000E+00
 -1       261 2.10030E-03 3.33391E-04 0.00000E+00
 -1       262 2.09578E-03 2.42677E-04-6.61744E-24
 -1       263 2.09112E-03 1.50501E-04-1.32349E-23
 -1       264 2.08750E-03 7.07429E-05 6.61744E-24
 -1       265 2.08533E-03 1.38361E-05 0.00000E+00
 -1       266 2.12392E-03-5.23185E-07-3.30872E-24
 -1       267 2.12055E-03-5.30239E-07 0.00000E+00
 -1       268 2.11717E-03-5.37823E-07 0.00000E+00
 -1       269 2.11379E-03-5.43838E-07-2.06795E-25
 -1       270 2.11041E-03-5.49816E-07 2.06795E-25
 -1       271 2.12519E-03 2.70626E-06-1.32349E-23
 -1       272 2.12300E-03 6.05518E-06-1.32349E-23
 -1       273 2.12081E-03 9.39479E-06-2.64698E-23
 -1       274 2.11868E-03 1.25688E-05-1.32349E-23
 -1       275 2.11667E-03 1.54259E-05 0.00000E+00
 -1       276 2.11484E-03 1.78166E-05-1.32349E-23
 -1       277 2.11323E-03 1.95966E-05-2.64698E-23
 -1       278 2.11191E-03 2.06276E-05 1.32349E-23
 -1       279 2.11092E-03 2.07793E-05-2.64698E-23
 -1       280 2.11031E-03 1.99303E-05 1.32349E-23
 -1       281 2.11011E-03 1.79700E-05-2.64698E-23
 -1       282 2.11036E-03 1.47989E-05 1.32349E-23
 -1       283 2.11109E-03 1.03305E-05-2.64698E-23
 -1       284 2.11233E-03 4.49236E-06 0.00000E+00
 -1       285 2.11410E-03-2.77537E-06-2.64698E-23
 -1       301 2.09026E-03-1.05232E-05 0.00000E+00
 -1       302 2.09493E-03-1.07163E-05 3.30872E-24
 -1       303 2.09916E-03-1.09049E-05-1.32349E-23
 -1       304 2.10366E-03-1.10937E-05 0.00000E+00
 -1       305 2.10918E-03-1.12890E-05 0.00000E+00
 -1       306 2.11812E-03-1.42235E-04-1.05879E-22
 -1       307 2.18271E-03-5.07246E-04 0.00000E+00
 -1       308 2.24025E-03-1.04738E-03 0.00000E+00
 -1       309 2.28140E-03-1.68035E-03 5.29396E-23
 -1       310 2.32589E-03-2.29556E-03 1.05879E-22
 -1       311 2.38872E-03-2.78405E-03-5.29396E-23
 -1       312 2.44837E-03-3.07273E-03 1.05879E-22
 -1       313 2.45797E-03-3.12032E-03-5.29396E-23
 -1       314 2.35908E-03-2.93246E-03 0.00000E+00
 -1       315 2.11520E-03-2.55657E-03 5.29396E-23
 -1       316 1.73840E-03-2.05926E-03 0.00000E+00
 -1       317 1.27914E-03-1.50551E-03 5.29396E-23
 -1       318 8.30132E-04-9.58508E-04-1.05879E-22
 -1       319 4.81059E-04-4.83115E-04 0.00000E+00
 -1       320 2.71567E-04-1.44916E-04 0.00000E+00
 -1       336 2.86076E-04-4.00071E-06 0.00000E+00
 -1       337 2.72899E-04-4.67067E-06 0.00000E+00
 -1       338 2.57779E-04-5.36664E-06 0.00000E+00
 -1       339 2.40784E-04-6.08945E-06 0.00000E+00
 -1       340 2.21993E-04-6.84321E-06 0.00000E+00
 -1       406 1.63194E-04 9.98633E-07 1.65436E-24
 -1       407 1.64218E-04 1.14086E-06 8.27181E-25
 -1       408 1.65377E-04 1.28285E-06 1.65436E-24
 -1       409 1.66673E-04 1.42440E-06 0.00000E+00
 -1       410 1.68105E-04 1.56518E-06 0.00000E+00
 -1       521 2.15096E-03-1.52382E-04 1.05879E-22
 -1       522 2.21475E-03-5.36929E-04-5.29396E-23
 -1       523 2.26764E-03-1.10421E-03 0.00000E+00
 -1       524 2.30147E-03-1.76578E-03 0.00000E+00
 -1       525 2.33945E-03-2.40786E-03 0.00000E+00
 -1       526 2.39934E-03-2.91855E-03-5.29396E-23
 -1       527 2.45877E-03-3.21889E-03 2.11758E-22
 -1       528 2.46696E-03-3.26649E-03 5.29396E-23
 -1       529 2.35897E-03-3.06645E-03 0.00000E+00
 -1       530 2.09575E-03-2.67253E-03-5.29396E-23
 -1       531 1.68961E-03-2.15479E-03 0.00000E+00
 -1       532 1.19617E-03-1.58141E-03-5.29396E-23
 -1       533 7.13261E-04-1.01446E-03 0.00000E+00
 -1       534 3.35567E-04-5.17812E-04-5.29396E-23
 -1       535 1.07794E-04-1.61001E-04 1.05879E-22
 -1       536 2.00704E-04 2.80126E-05 0.00000E+00
 -1       537 1.98560E-04 9.20871E-05-3.30872E-24
 -1       538 1.95139E-04 1.74689E-04-3.30872E-24
 -1       539 1.91006E-04 2.65804E-04 1.65436E-24
 -1       540 1.87227E-04 3.52672E-04 0.00000E+00
 -1       541 1.84733E-04 4.22555E-04-1.65436E-24
 -1       542 1.83565E-04 4.67873E-04 0.00000E+00
 -1       543 1.83300E-04 4.81208E-04 1.65436E-24
 -1       544 1.82969E-04 4.63184E-04 0.00000E+00
 -1       545 1.81661E-04 4.14682E-04 0.00000E+00
 -1       546 1.79149E-04 3.44446E-04 3.30872E-24
 -1       547 1.75686E-04 2.61362E-04 0.00000E+00
 -1       548 1.72227E-04 1.78330E-04-3.30872E-24
 -1       549 1.69727E-04 1.08253E-04 0.00000E+00
 -1       550 1.68433E-04 5.99799E-05 0.00000E+00
 -1       551 1.77239E-04-8.17019E-06 0.00000E+00
 -1       552 1.49994E-04-8.79613E-06 0.00000E+00
 -1       553 1.20674E-04-9.47574E-06-7.44463E-24
 -1       554 9.02070E-05-1.01893E-05-3.30872E-24
 -1       555 5.95217E-05-1.09114E-05 2.64698E-23
 -1       556 1.94062E-04 1.14218E-05 0.00000E+00
 -1       557 1.87968E-04 2.70948E-05 0.00000E+00
 -1       558 1.83095E-04 3.96512E-05 0.00000E+00
 -1       559 1.79327E-04 4.93593E-05 0.00000E+00
 -1       560 1.76553E-04 5.64872E-05 0.00000E+00
 -1       561 1.74662E-04 6.13054E-05 0.00000E+00
 -1       562 1.73546E-04 6.40854E-05 0.00000E+00
 -1       563 1.73097E-04 6.50995E-05 0.00000E+00
 -1       564 1.73209E-04 6.46206E-05 0.00000E+00
 -1       565 1.73777E-04 6.29224E-05 0.00000E+00
 -1       566 1.74699E-04 6.02788E-05-1.32349E-23
 -1       567 1.75871E-04 5.69643E-05 0.00000E+00
 -1       568 1.77190E-04 5.32535E-05 0.00000E+00
 -1       569 1.78554E-04 4.94210E-05-5.16988E-26
 -1       570 1.79862E-04 4.57418E-05 1.65436E-24
 -1       571 1.68205E-04 3.96490E-05 2.89513E-24
 -1       572 1.68301E-04 3.69941E-05-4.13590E-25
 -1       573 1.68398E-04 3.42743E-05 2.48154E-24
 -1       574 1.68496E-04 3.15086E-05 8.27181E-25
 -1       575 1.68593E-04 2.87161E-05 0.00000E+00
 -1       576 1.68691E-04 2.59159E-05-1.65436E-24
 -1       577 1.68788E-04 2.31271E-05 0.00000E+00
 -1       578 1.68886E-04 2.03690E-05 0.00000E+00
 -1       579 1.68983E-04 1.76607E-05 0.00000E+00
 -1       580 1.69081E-04 1.50214E-05 0.00000E+00
 -1       581 1.69179E-04 1.24703E-05 0.00000E+00
 -1       582 1.69277E-04 1.00266E-05 3.30872E-24
 -1       583 1.69376E-04 7.70935E-06 0.00000E+00
 -1       584 1.69475E-04 5.53753E-06 0.00000E+00
 -1       585 1.69574E-04 3.52993E-06 0.00000E+00
 -1       586 1.70288E-04 4.22669E-05 0.00000E+00
 -1       587 1.72400E-04 4.23127E-05-8.27181E-25
 -1       588 1.74488E-04 4.23583E-05 0.00000E+00
 -1       589 1.76592E-04 4.24033E-05-4.13590E-25
 -1       590 1.78754E-04 4.24472E-05 0.00000E+00
 -1       591 1.68991E-04 3.97523E-05 1.03398E-25
 -1       592 1.69879E-04 3.72494E-05-4.13590E-25
 -1       593 1.70778E-04 3.47200E-05 8.27181E-25
 -1       594 1.71683E-04 3.21705E-05 0.00000E+00
 -1       595 1.72593E-04 2.96076E-05 0.00000E+00
 -1       596 1.73506E-04 2.70376E-05-8.27181E-25
 -1       597 1.74419E-04 2.44670E-05 0.00000E+00
 -1       598 1.75329E-04 2.19024E-05-8.27181E-25
 -1       599 1.76235E-04 1.93501E-05 8.27181E-25
 -1       600 1.77134E-04 1.68166E-05 4.13590E-25
 -1       601 1.78024E-04 1.43084E-05 1.65436E-24
 -1       602 1.78902E-04 1.18320E-05 0.00000E+00
 -1       603 1.79766E-04 9.39372E-06 0.00000E+00
 -1       604 1.80614E-04 7.00027E-06 0.00000E+00
 -1       605 1.81443E-04 4.65798E-06 0.00000E+00
 -1       606 1.69685E-04 1.29633E-07 0.00000E+00
 -1       607 1.69694E-04-1.36523E-06 0.00000E+00
 -1       608 1.69702E-04-2.78547E-06 0.00000E+00
 -1       609 1.69710E-04-4.13633E-06 0.00000E+00
 -1       610 1.69718E-04-5.42314E-06 0.00000E+00
 -1       611 1.69725E-04-6.65122E-06 0.00000E+00
 -1       612 1.69733E-04-7.82593E-06 0.00000E+00
 -1       613 1.69740E-04-8.95266E-06 0.00000E+00
 -1       614 1.69748E-04-1.00368E-05 0.00000E+00
 -1       615 1.69756E-04-1.10836E-05 0.00000E+00
 -1       616 1.69764E-04-1.20985E-05 0.00000E+00
 -1       617 1.69771E-04-1.30869E-05 0.00000E+00
 -1       618 1.69779E-04-1.40542E-05 0.00000E+00
 -1       619 1.69787E-04-1.50057E-05-2.06795E-25
 -1       620 1.69794E-04-1.59467E-05 0.00000E+00
 -1       621 1.71455E-04 1.81609E-06 0.00000E+00
 -1       622 1.73415E-04 1.92887E-06 0.00000E+00
 -1       623 1.75515E-04 2.04139E-06 0.00000E+00
 -1       624 1.77715E-04 2.15352E-06-1.65436E-24
 -1       625 1.79975E-04 2.26531E-06-3.30872E-24
 -1       626 1.70372E-04 1.63755E-07 3.30872E-24
 -1       627 1.71051E-04-1.32022E-06 1.65436E-24
 -1       628 1.71713E-04-2.75535E-06 0.00000E+00
 -1       629 1.72358E-04-4.14914E-06 0.00000E+00
 -1       630 1.72992E-04-5.50913E-06 0.00000E+00
 -1       631 1.73615E-04-6.84287E-06 1.65436E-24
 -1       632 1.74231E-04-8.15791E-06 0.00000E+00
 -1       633 1.74844E-04-9.46181E-06 1.65436E-24
 -1       634 1.75454E-04-1.07621E-05 0.00000E+00
 -1       635 1.76067E-04-1.20664E-05-1.65436E-24
 -1       636 1.76683E-04-1.33822E-05 0.00000E+00
 -1       637 1.77307E-04-1.47171E-05 0.00000E+00
 -1       638 1.77941E-04-1.60786E-05-3.30872E-24
 -1       639 1.78587E-04-1.74743E-05-8.27181E-25
 -1       640 1.79248E-04-1.89119E-05-1.65436E-24
 -1       656 1.70960E-04-1.74540E-05 0.00000E+00
 -1       657 1.72522E-04-1.80486E-05-6.61744E-24
 -1       658 1.74353E-04-1.86420E-05 0.00000E+00
 -1       659 1.76316E-04-1.92351E-05 0.00000E+00
 -1       660 1.78231E-04-1.98300E-05 6.61744E-24
 -1       661 1.70236E-04-1.78612E-05 0.00000E+00
 -1       662 1.70706E-04-1.89279E-05 0.00000E+00
 -1       663 1.71207E-04-2.00779E-05 0.00000E+00
 -1       664 1.71737E-04-2.13049E-05 0.00000E+00
 -1       665 1.72295E-04-2.26033E-05 0.00000E+00
 -1       666 1.72877E-04-2.39676E-05 8.27181E-25
 -1       667 1.73481E-04-2.53922E-05 0.00000E+00
 -1       668 1.74106E-04-2.68719E-05 8.27181E-25
 -1       669 1.74750E-04-2.84015E-05 1.65436E-24
 -1       670 1.75410E-04-2.99758E-05 0.00000E+00
 -1       671 1.76085E-04-3.15899E-05-1.65436E-24
 -1       672 1.76773E-04-3.32389E-05 8.27181E-25
 -1       673 1.77473E-04-3.49180E-05-1.65436E-24
 -1       674 1.78180E-04-3.66227E-05-4.13590E-25
 -1       675 1.78896E-04-3.83478E-05 0.00000E+00
 -1       676 1.70704E-04-3.95836E-05 0.00000E+00
 -1       677 1.72492E-04-3.96857E-05 0.00000E+00
 -1       678 1.74278E-04-3.97877E-05-3.30872E-24
 -1       679 1.76061E-04-3.98894E-05 1.65436E-24
 -1       680 1.77840E-04-3.99911E-05 0.00000E+00
 -1       771 1.83345E-05 1.33583E-05 0.00000E+00
 -1       772 8.89674E-06 3.38823E-05-5.29396E-23
 -1       773 1.14313E-06 5.01519E-05 5.29396E-23
 -1       774-5.04216E-06 6.24113E-05 0.00000E+00
 -1       775-9.77260E-06 7.09141E-05 0.00000E+00
 -1       776-1.31662E-05 7.59290E-05-2.64698E-23
 -1       777-1.53407E-05 7.77339E-05 0.00000E+00
 -1       778-1.64164E-05 7.66193E-05-5.29396E-23
 -1       779-1.65131E-05 7.28830E-05 0.00000E+00
 -1       780-1.57524E-05 6.68336E-05-2.64698E-23
 -1       781-1.42553E-05 5.87854E-05-5.29396E-23
 -1       782-1.21441E-05 4.90609E-05 0.00000E+00
 -1       783-9.54045E-06 3.79866E-05 5.29396E-23
 -1       784-6.56708E-06 2.58947E-05 2.64698E-23
 -1       785-3.34598E-06 1.31201E-05 5.29396E-23
 -1       786 1.81085E-04 3.99542E-05 0.00000E+00
 -1       787 1.81163E-04 3.74062E-05 0.00000E+00
 -1       788 1.81240E-04 3.48478E-05 0.00000E+00
 -1       789 1.81317E-04 3.22829E-05 0.00000E+00
 -1       790 1.81395E-04 2.97146E-05 0.00000E+00
 -1       791 1.81473E-04 2.71455E-05 0.00000E+00
 -1       792 1.81551E-04 2.45783E-05 0.00000E+00
 -1       793 1.81629E-04 2.20159E-05 0.00000E+00
 -1       794 1.81708E-04 1.94617E-05 0.00000E+00
 -1       795 1.81786E-04 1.69194E-05-1.65436E-24
 -1       796 1.81864E-04 1.43949E-05 0.00000E+00
 -1       797 1.81942E-04 1.18942E-05 0.00000E+00
 -1       798 1.82021E-04 9.42779E-06 0.00000E+00
 -1       799 1.82099E-04 7.00624E-06-8.27181E-25
 -1       800 1.82177E-04 4.64870E-06 0.00000E+00
 -1       801 1.26662E-04 3.88134E-05-2.64698E-23
 -1       802-3.69526E-05 2.37237E-05 1.32349E-23
 -1       803-1.69849E-04 1.22848E-05-5.29396E-23
 -1       804-1.35900E-04 8.77489E-06 0.00000E+00
 -1       805-4.12775E-05 2.70545E-06-5.29396E-23
 -1       806 1.81852E-04 3.98847E-05 0.00000E+00
 -1       807 1.82695E-04 3.72621E-05 1.65436E-24
 -1       808 1.83540E-04 3.46288E-05 3.30872E-24
 -1       809 1.84387E-04 3.19931E-05 0.00000E+00
 -1       810 1.85230E-04 2.93634E-05 0.00000E+00
 -1       811 1.86069E-04 2.67478E-05-1.65436E-24
 -1       812 1.86899E-04 2.41545E-05-3.30872E-24
 -1       813 1.87717E-04 2.15918E-05-1.65436E-24
 -1       814 1.88522E-04 1.90678E-05 3.30872E-24
 -1       815 1.89308E-04 1.65907E-05 1.65436E-24
 -1       816 1.90075E-04 1.41686E-05 0.00000E+00
 -1       817 1.90818E-04 1.18098E-05-1.65436E-24
 -1       818 1.91534E-04 9.52241E-06 0.00000E+00
 -1       819 1.92221E-04 7.31454E-06 8.27181E-25
 -1       820 1.92875E-04 5.19430E-06-3.30872E-24
 -1       821 1.82121E-04-8.25591E-07 0.00000E+00
 -1       822 1.81971E-04-5.95409E-06 0.00000E+00
 -1       823 1.81814E-04-1.23551E-05 0.00000E+00
 -1       824 1.81653E-04-1.93648E-05 1.65436E-24
 -1       825 1.81492E-04-2.61512E-05 3.30872E-24
 -1       826 1.81338E-04-3.18834E-05 1.65436E-24
 -1       827 1.81191E-04-3.60237E-05-3.30872E-24
 -1       828 1.81050E-04-3.80442E-05 1.65436E-24
 -1       829 1.80911E-04-3.80055E-05 0.00000E+00
 -1       830 1.80771E-04-3.59809E-05 0.00000E+00
 -1       831 1.80627E-04-3.25952E-05 3.30872E-24
 -1       832 1.80480E-04-2.84815E-05 0.00000E+00
 -1       833 1.80334E-04-2.44756E-05 0.00000E+00
 -1       834 1.80193E-04-2.14121E-05-1.65436E-24
 -1       835 1.80055E-04-1.98651E-05 0.00000E+00
 -1       836 1.84355E-04 2.50617E-06 0.00000E+00
 -1       837 1.86291E-04 2.64125E-06 1.65436E-24
 -1       838 1.88118E-04 2.77633E-06 0.00000E+00
 -1       839 1.89890E-04 2.91074E-06 0.00000E+00
 -1       840 1.91665E-04 3.04494E-06 0.00000E+00
 -1       856 1.79909E-04-2.19046E-05 0.00000E+00
 -1       857 1.79890E-04-2.32762E-05 0.00000E+00
 -1       858 1.79871E-04-2.45345E-05 0.00000E+00
 -1       859 1.79852E-04-2.57004E-05-2.06795E-25
 -1       860 1.79832E-04-2.67946E-05-4.13590E-25
 -1       861 1.79813E-04-2.78381E-05 2.06795E-25
 -1       862 1.79793E-04-2.88519E-05 0.00000E+00
 -1       863 1.79774E-04-2.98568E-05 2.06795E-25
 -1       864 1.79754E-04-3.08739E-05 0.00000E+00
 -1       865 1.79735E-04-3.19242E-05-4.13590E-25
 -1       866 1.79715E-04-3.30285E-05 0.00000E+00
 -1       867 1.79695E-04-3.42078E-05 0.00000E+00
 -1       868 1.79676E-04-3.54829E-05 0.00000E+00
 -1       869 1.79655E-04-3.68746E-05 4.13590E-25
 -1       870 1.79635E-04-3.84037E-05 0.00000E+00
 -1       871 1.81711E-04-2.04057E-05 0.00000E+00
 -1       872 1.83638E-04-2.04160E-05 0.00000E+00
 -1       873 1.85639E-04-2.04269E-05 0.00000E+00
 -1       874 1.87648E-04-2.04386E-05 7.75482E-26
 -1       875 1.89598E-04-2.04508E-05-2.06795E-25
 -1       876 1.80613E-04-2.18905E-05 3.30872E-24
 -1       877 1.81279E-04-2.33152E-05 1.65436E-24
 -1       878 1.81922E-04-2.46811E-05-3.30872E-24
 -1       879 1.82547E-04-2.59955E-05-1.65436E-24
 -1       880 1.83156E-04-2.72657E-05 3.30872E-24
 -1       881 1.83751E-04-2.84992E-05 0.00000E+00
 -1       882 1.84335E-04-2.97033E-05 0.00000E+00
 -1       883 1.84910E-04-3.08853E-05 0.00000E+00
 -1       884 1.85480E-04-3.20525E-05 0.00000E+00
 -1       885 1.86048E-04-3.32122E-05 1.65436E-24
 -1       886 1.86615E-04-3.43719E-05 0.00000E+00
 -1       887 1.87185E-04-3.55387E-05 1.65436E-24
 -1       888 1.87760E-04-3.67201E-05-3.30872E-24
 -1       889 1.88342E-04-3.79236E-05 1.65436E-24
 -1       890 1.88935E-04-3.91563E-05 0.00000E+00
 -1       891 1.81406E-04-4.01473E-05 1.65436E-24
 -1       892 1.83175E-04-4.02041E-05 8.27181E-25
 -1       893 1.84897E-04-4.02608E-05 8.27181E-25
 -1       894 1.86547E-04-4.03172E-05 4.13590E-25
 -1       895 1.88101E-04-4.03733E-05 4.13590E-25
 -1       956 1.93368E-04 1.34483E-06 0.00000E+00
 -1       957 1.93239E-04-3.77222E-07 1.65436E-24
 -1       958 1.93109E-04-2.00801E-06-1.65436E-24
 -1       959 1.92979E-04-3.55967E-06-1.65436E-24
 -1       960 1.92849E-04-5.04443E-06 0.00000E+00
 -1       961 1.92719E-04-6.47452E-06 1.65436E-24
 -1       962 1.92589E-04-7.86218E-06 0.00000E+00
 -1       963 1.92459E-04-9.21971E-06 0.00000E+00
 -1       964 1.92329E-04-1.05594E-05-3.30872E-24
 -1       965 1.92199E-04-1.18934E-05 0.00000E+00
 -1       966 1.92070E-04-1.32341E-05-3.30872E-24
 -1       967 1.91940E-04-1.45938E-05 0.00000E+00
 -1       968 1.91810E-04-1.59846E-05 3.30872E-24
 -1       969 1.91680E-04-1.74189E-05 1.65436E-24
 -1       970 1.91551E-04-1.89089E-05 0.00000E+00
 -1       971 1.91306E-04-2.20286E-05 0.00000E+00
 -1       972 1.91187E-04-2.35008E-05 0.00000E+00
 -1       973 1.91069E-04-2.48930E-05-3.30872E-24
 -1       974 1.90950E-04-2.62154E-05 0.00000E+00
 -1       975 1.90832E-04-2.74785E-05 0.00000E+00
 -1       976 1.90713E-04-2.86925E-05 0.00000E+00
 -1       977 1.90594E-04-2.98680E-05-3.30872E-24
 -1       978 1.90476E-04-3.10152E-05 0.00000E+00
 -1       979 1.90357E-04-3.21447E-05-3.30872E-24
 -1       980 1.90239E-04-3.32668E-05 0.00000E+00
 -1       981 1.90120E-04-3.43919E-05 0.00000E+00
 -1       982 1.90002E-04-3.55305E-05 0.00000E+00
 -1       983 1.89884E-04-3.66931E-05 3.30872E-24
 -1       984 1.89766E-04-3.78899E-05 0.00000E+00
 -1       985 1.89648E-04-3.91313E-05 0.00000E+00
 -3
    1PSTEP                        30          15           1          
  100CL  115 6.44867E-01         409                     0   15           1
 -4  STRESS      6    1
 -5  SXX         1    4    1    1
 -5  SYY         1    4    2    2
 -5  SZZ         1    4    3    3
 -5  SXY         1    4    1    2
 -5  SYZ         1    4    2    3
 -5  SZX         1    4    3    1
 -1         1-4.48052E+06-1.66554E+06-9.85753E+05-1.62686E+06 2.76486E-10 1.79309E-07
 -1         2 2.74074E+04-2.17071E+06 1.14528E+05 3.10523E+05 4.26917E-09 3.03844E-08
 -1         3-1.38127E+03-1.54128E+06 4.03181E+02-2.10808E+03-6.57980E-10-8.46558E-09
 -1         5-1.32334E+02 4.09178E+05 1.13056E+01-1.98013E+00-5.63028E-10 1.02045E-08
 -1         8-6.16502E+05-2.05392E+05-4.92468E+04-2.55079E+05 4.01087E-10-8.49104E-09
 -1         9 8.12407E+06-6.87263E+05 1.35723E+06-1.15086E+06 2.81842E-08-7.42497E-08
 -1        10-2.19756E+03-1.60607E+06-3.62079E+03-1.42636E+04-1.29567E-08-3.45958E-08
 -1        12-1.28043E+02 4.09203E+05 3.74832E+02-1.31574E+01-6.85047E-10 9.84801E-09
 -1        15 1.23531E+03 6.78867E+02 3.99311E+03 1.80420E+00-2.05816E-10 1.14640E-07
 -1        16 1.77820E+07-1.47195E+05 2.50142E+06-1.44988E+06 1.62205E-08 1.17191E-08
 -1        17 6.38349E+06 4.58375E+06 1.72403E+06 4.47321E+06 1.68657E-08 3.87896E-08
 -1        18 1.71904E+05 4.40431E+04 1.13153E+04-1.25485E+05 1.47124E-08 7.71388E-09
 -1        19 1.22475E+05 1.49837E+05-4.79606E+02 1.96124E+04 2.13859E-09-3.92683E-09
 -1        20-8.21229E+04-5.66606E+05-1.27217E+05 2.36567E+04-4.45319E-09-5.49456E-09
 -1        21-4.34144E+01-2.87933E+05-8.98007E+02 3.53333E+02 1.95460E-08-1.31515E-09
 -1        24 1.04349E+07 8.91983E+06 2.95368E+06 8.29413E+06-1.48449E-07-5.05242E-08
 -1        25 3.66469E+05 1.15036E+06 3.21134E+05-7.74796E+05 3.35842E-08-1.26634E-08
 -1        26-3.81477E+04 1.04145E+05-2.00491E+04-3.64280E+03-1.37297E-09 2.26827E-08
 -1        27-7.70468E+04-3.07129E+05-1.11797E+05 6.71565E+04 4.33420E-09-1.13408E-08
 -1        28 2.15215E+04-8.31038E+04 1.64211E+04 1.99806E+04-4.50208E-09 3.68723E-09
 -1        32-1.31051E+06-1.77508E+06 1.25934E+05 5.57393E+05-2.38615E-08-1.43330E-08
 -1        33-1.67712E+05 9.74821E+04 3.28386E+04-4.81409E+04-4.30816E-09-8.15150E-09
 -1        34-2.17904E+05-2.55737E+04 6.67390E+02 7.49864E+04-8.44550E-09 1.59980E-09
 -1        35-2.22927E+04-3.29038E+04-1.31257E+03 5.00435E+04-6.40278E-09 2.89583E-09
 -1        51 5.03509E+04-2.08438E+05 1.08825E+05-6.20808E+05-1.16415E-10 1.37676E-07
 -1        52 1.81151E+04-1.90928E+05 5.86422E+04-7.23739E+05 6.80302E-10-8.57108E-08
 -1        53 4.99740E+03-2.06450E+05 3.29737E+04-6.18518E+05 4.87489E-10-1.10413E-07
 -1        54 1.11859E+04-2.02899E+05 3.20413E+04-7.26133E+05 1.01863E-10-2.32278E-07
 -1        55 2.35151E+04-2.12285E+05 4.47479E+04-6.18184E+05 7.56700E-10 1.22640E-07
 -1        56-8.44413E+06-9.72874E+05-7.31330E+05-3.32194E+06-2.32831E-08-1.12806E-07
 -1        57-8.92924E+06-1.42751E+06-4.90792E+05-3.05928E+06 5.21104E-08 7.43894E-08
 -1        58-8.53430E+06-1.25618E+06-1.71673E+05-3.33448E+06-2.59606E-08 1.76078E-09
 -1        59-8.83332E+06-1.08921E+06-1.01849E+05-3.04524E+06-1.23000E-08-1.94599E-07
 -1        60-8.54196E+06-1.30026E+06-3.96981E+04-3.34167E+06-1.93495E-09 4.73374E-08
 -1        61-8.78664E+06-1.06996E+06-2.18631E+04-3.07117E+06 7.46059E-09-5.97083E-09
 -1        62-8.57861E+06-1.27556E+06-1.20878E+04-3.30743E+06-2.68301E-08-1.03481E-07
 -1        63-8.68402E+06-1.15516E+06-6.87641E+03-3.16678E+06 2.79833E-08-1.17074E-07
 -1        64-8.63912E+06-1.21861E+06-1.23906E+04-3.24208E+06 6.98856E-09-4.32542E-08
 -1        65-8.57033E+06-1.27530E+06-1.82173E+04-3.29896E+06-1.74705E-08 1.59434E-08
 -1        66-8.69223E+06-1.15565E+06-3.66976E+04-3.17521E+06-4.09273E-09-1.29166E-07
 -1        67-8.51337E+06-1.39728E+06-8.96795E+04-3.40193E+06 6.16456E-09 3.10074E-08
 -1        68-8.70200E+06-1.09388E+06-1.51394E+05-3.14287E+06-1.82627E-09 1.40426E-08
 -1        69-8.64221E+06-1.66367E+06-4.35200E+05-3.38587E+06-2.43563E-09-5.33691E-08
 -1        70-8.56792E+06-8.94763E+05-6.45868E+05-3.19085E+06 2.92493E-09-8.37026E-08
 -1        86-2.81817E+04-3.04743E+06-6.72260E+04-1.54639E+05-4.03829E-08-2.13840E-08
 -1        87 3.39890E+04-2.51735E+06 4.66751E+04 4.63054E+05-7.17755E-08-1.04175E-07
 -1        88-1.23053E+03-2.73765E+06-7.50811E+03-3.07987E+05-6.14982E-08-1.23445E-07
 -1        89 3.23734E+04-2.57125E+06 1.69314E+04 4.96356E+05-9.74051E-08-2.59508E-08
 -1        90-2.15166E+04-2.99915E+06-1.04055E+05-1.88197E+05-2.77396E-08-9.77507E-08
 -1       121-1.89487E+03-1.54584E+06-4.77252E+02 1.04541E+03 1.37824E-09-5.70435E-09
 -1       122-1.20231E+03-1.54133E+06 7.72357E+02-4.21913E+03-5.22830E-09 1.27893E-08
 -1       123-1.91934E+03-1.54597E+06 3.43085E+02 3.12233E+03 4.25030E-09 1.26638E-08
 -1       124 4.03568E+02-1.54085E+06 2.97858E+03-8.83533E+03-9.52014E-09-1.06265E-08
 -1       125-2.73004E+03-1.54685E+06 3.60177E+03 5.62061E+03 6.22094E-09-7.68341E-09
 -1       191-1.39247E+02 4.09186E+05 7.22972E+00 1.05667E+00-7.42571E-10 1.34569E-08
 -1       192-1.33460E+02 4.09179E+05 2.42411E+01-6.05618E+00-1.05905E-09 1.48411E-08
 -1       193-1.42193E+02 4.09186E+05 3.89700E+01 5.40495E+00-1.37631E-09 1.22964E-09
 -1       194-1.37065E+02 4.09183E+05 9.24344E+01-1.36515E+01-7.92909E-10-9.19499E-09
 -1       195-1.47846E+02 4.09183E+05 1.74672E+02 9.08407E+00-1.89848E-09-1.30312E-08
 -1       251-2.09028E+06-4.10500E+04-2.10288E+05-1.42655E+05 3.08864E-09-6.33008E-10
 -1       252-1.03340E+06 5.11918E+04 6.47406E+04 4.40172E+05 7.93807E-09-5.60831E-08
 -1       253-1.62855E+06-1.71095E+04-3.63840E+04-2.91789E+05-1.02009E-08-5.34665E-08
 -1       254-1.53085E+06 6.86965E+04 1.13945E+04 5.82359E+05 4.04631E-09 2.41500E-07
 -1       255-1.64191E+06-1.84977E+04-2.09043E+04-2.89464E+05-5.91172E-11 2.06091E-09
 -1       256-1.00075E+06 5.52559E+04 1.18244E+05 4.29886E+05-8.63929E-09 5.96847E-08
 -1       257-2.10671E+06-4.60202E+04-1.16955E+05-1.34548E+05-5.23141E-09-1.68405E-07
 -1       258-4.70789E+05 4.15290E+04 2.18370E+05 9.48346E+03 1.19271E-08 2.49210E-07
 -1       259-2.11971E+06-4.72123E+04-1.17981E+05 1.28044E+05 3.43716E-08-1.27395E-08
 -1       260-9.70092E+05 5.71254E+04 1.29138E+05-4.16927E+05 1.19035E-08-1.49123E-07
 -1       261-1.65654E+06-2.16256E+04-1.45879E+04 2.88626E+05 3.86935E-08-3.90690E-08
 -1       262-1.52494E+06 8.12067E+04 3.52924E+04-5.79651E+05-6.96878E-08 6.35122E-08
 -1       263-1.61962E+06-2.66031E+04 4.29535E+03 2.95789E+05 7.68068E-09-2.93130E-08
 -1       264-1.03195E+06 1.25474E+05 1.62198E+05-4.50457E+05 1.49750E-07-1.31869E-07
 -1       265-2.10362E+06-1.03126E+05-6.05257E+04 1.54921E+05 4.78540E-08 2.78669E-08
 -1       266-2.23632E+04-1.04574E+04 5.24690E+04-3.86035E+01-5.82077E-11 2.56712E-08
 -1       267 2.59251E+04 1.21878E+04 3.70851E+04 4.45417E+01-1.61435E-10-2.89523E-07
 -1       268-3.47651E+03-1.72616E+03 1.37843E+04-5.67534E+00-1.90084E-10-1.24289E-07
 -1       269 4.10473E+03 2.06581E+03 8.95961E+03 6.61098E+00 3.01270E-11 1.45922E-07
 -1       270-6.16125E+02-3.39431E+02 4.32493E+03-8.97154E-01-2.19416E-11 3.27056E-07
 -1       271-2.02137E+06-2.42674E+05-1.50303E+05-7.72876E+05 2.94094E-08-3.05808E-08
 -1       272-2.13184E+06-2.96797E+05-9.67665E+04-7.08680E+05-1.79803E-08 1.29727E-07
 -1       273-2.04838E+06-2.81541E+05-3.54632E+04-7.67641E+05 2.24600E-09 1.42798E-07
 -1       274-2.09993E+06-2.49305E+05-1.99030E+04-7.16837E+05-1.29512E-08 3.35298E-07
 -1       275-2.05234E+06-2.85491E+05-8.26468E+03-7.66368E+05 1.51767E-08 7.87732E-08
 -1       276-2.09376E+06-2.45748E+05-4.32842E+03-7.19452E+05-1.89834E-08 1.00794E-07
 -1       277-2.05399E+06-2.84906E+05-2.18872E+03-7.64868E+05-2.26019E-08 1.89573E-07
 -1       278-2.08966E+06-2.48300E+05-1.33348E+03-7.22574E+05 4.65207E-09 5.58798E-08
 -1       279-2.05575E+06-2.83322E+05-1.56467E+03-7.62779E+05-1.82699E-08-2.55568E-08
 -1       280-2.08511E+06-2.52699E+05-2.25057E+03-7.26707E+05 4.85179E-08-1.22640E-07
 -1       281-2.05777E+06-2.81017E+05-4.55020E+03-7.60181E+05-3.99450E-08 5.89957E-08
 -1       282-2.08150E+06-2.60477E+05-9.99063E+03-7.31513E+05-4.20914E-09-1.50402E-07
 -1       283-2.05865E+06-2.76269E+05-1.84379E+04-7.57363E+05-1.20308E-08-1.46452E-07
 -1       284-2.09106E+06-2.90660E+05-4.90051E+04-7.33973E+05-1.41654E-08 1.13321E-08
 -1       285-2.04797E+06-2.53672E+05-7.69674E+04-7.56440E+05-2.07474E-08-2.35377E-09
 -1       301 1.23434E+04-5.04366E+05 1.74124E+05-8.76903E+05 2.00816E-09 5.74655E-08
 -1       302 1.36198E+04-4.59767E+05 1.05840E+05-1.28169E+06-2.48110E-09 1.23589E-07
 -1       303-7.20671E+03-4.90791E+05 6.40791E+04-8.74672E+05 1.36060E-09-9.59299E-08
 -1       304 6.36568E+02-4.64108E+05 7.18913E+04-1.28097E+06 2.03727E-10-4.31028E-08
 -1       305-3.62041E+03-4.88209E+05 9.81924E+04-8.77376E+05 1.25146E-09-7.18428E-08
 -1       306-2.57746E+07-5.20281E+06-7.07104E+06-1.25528E+06-7.00820E-08-1.59518E-07
 -1       307 2.09820E+07 1.63158E+06 4.54867E+06-1.21091E+07-6.62956E-07 7.99773E-08
 -1       308-7.88033E+06-6.36925E+05-5.58191E+05 4.30358E+06-1.35100E-07 5.23200E-07
 -1       309-3.59090E+06 5.67692E+06 1.66591E+06-1.79435E+07 3.44920E-07 1.30949E-07
 -1       310-1.07037E+07-1.06348E+06-1.28861E+06 4.16729E+06 3.45754E-08-5.68980E-09
 -1       311 2.75064E+07-2.98372E+05 5.51552E+06-8.59381E+06 3.57424E-07-1.03450E-07
 -1       312-2.65928E+07-5.21191E+06-6.62855E+06-3.63220E+06 6.30971E-08-3.13303E-08
 -1       313 3.71645E+07 9.64332E+06 8.54944E+06 1.70632E+07-9.01055E-08 8.57835E-08
 -1       314-1.64986E+07-1.34044E+07-6.11259E+06-1.06732E+07 1.76660E-07 4.47035E-08
 -1       315-6.84232E+05 2.26559E+07 4.70970E+06 1.03449E+07-4.18804E-07-1.17027E-07
 -1       316-1.29885E+04-8.82608E+06-5.23891E+05-3.69935E+06-1.04656E-06-4.42204E-07
 -1       317-1.68419E+07 1.88262E+07 1.63484E+06-5.23225E+06 7.33904E-07-6.94898E-07
 -1       318-1.33411E+06-1.00104E+07-1.33792E+06-4.46009E+06-8.01985E-07 1.15542E-07
 -1       319 4.04664E+06 2.37549E+07 5.26924E+06 1.27605E+07-1.08630E-07 2.47877E-07
 -1       320-1.91581E+07-1.37662E+07-7.75493E+06-1.05684E+07 1.54832E-07-4.66243E-08
 -1       336-6.23321E+02-1.67344E+06-1.30625E+04 8.49100E+03-2.56259E-08-8.36735E-10
 -1       337-5.07548E+03-1.67305E+06-1.66332E+04-2.06242E+04-4.70370E-08 1.38461E-08
 -1       338 1.96278E+02-1.67306E+06-2.58387E+04 1.19073E+04-3.31256E-08 6.74845E-09
 -1       339-2.72662E+04-1.68853E+06-5.80829E+04-2.73044E+04-6.05614E-08 5.29326E-09
 -1       340 1.78828E+04-1.65996E+06-9.14520E+04 1.50567E+04-3.95994E-08 2.19516E-08
 -1       406-1.05549E+02 4.09166E+05 7.33579E+02 5.32825E+00-2.37196E-09-3.68891E-09
 -1       407 1.30672E+02 4.09333E+05 1.57290E+03 2.97955E+01-7.56344E-10-1.35333E-09
 -1       408 6.77303E+02 4.09051E+05 3.13320E+03-3.50596E+01-3.30465E-09-2.96277E-08
 -1       409 3.27857E+03 4.10333E+05 7.06700E+03 3.82292E+02-3.17755E-10-5.68652E-08
 -1       410 9.64907E+03 4.08143E+05 1.44214E+04-3.72036E+02-3.88900E-09-9.72432E-09
 -1       521-2.74698E+07-6.41087E+06-8.30826E+06-9.73476E+05-1.00117E-07 1.76602E-07
 -1       522 2.18499E+07 2.21388E+06 4.64916E+06-1.51194E+07-4.76954E-07-1.61992E-07
 -1       523-8.68911E+06-9.13451E+05-5.83262E+05 4.76417E+06-2.33122E-08-2.39452E-07
 -1       524-6.59777E+06 8.03774E+06 1.82195E+06-2.08943E+07 5.76707E-07-6.18315E-07
 -1       525-1.17302E+07-1.52438E+06-1.42997E+06 4.61720E+06 6.33474E-07-2.18017E-07
 -1       526 3.00056E+07-3.17281E+05 5.84554E+06-1.10200E+07 9.17353E-08 1.07684E-09
 -1       527-2.84830E+07-6.59065E+06-7.67356E+06-3.56179E+06-1.63447E-07-4.11819E-09
 -1       528 4.08877E+07 1.06241E+07 8.98246E+06 1.94442E+07-3.04426E-08-2.66213E-07
 -1       529-1.75955E+07-1.53402E+07-7.04615E+06-1.09615E+07-8.44593E-08 4.98840E-08
 -1       530-2.84753E+06 2.66317E+07 5.00910E+06 1.04785E+07-2.82744E-07 7.55361E-07
 -1       531-9.38328E+04-9.99343E+06-5.31014E+05-3.88992E+06-6.71760E-07 2.27097E-07
 -1       532-1.98903E+07 2.12028E+07 1.81402E+06-8.44049E+06 4.57730E-07-6.62585E-07
 -1       533-1.43552E+06-1.12144E+07-1.42590E+06-4.59151E+06-1.26252E-07-9.03965E-07
 -1       534 2.20964E+06 2.78374E+07 5.54119E+06 1.33514E+07-9.10368E-08 6.78672E-07
 -1       535-2.04049E+07-1.58086E+07-8.90737E+06-1.08424E+07 5.27361E-08 4.36150E-07
 -1       536-7.91108E+05-5.87587E+04-5.75039E+04-6.12380E+04-5.91854E-09 6.06888E-08
 -1       537 2.79123E+04 5.66678E+04 1.07594E+05 1.38192E+05-1.22006E-07 9.56798E-08
 -1       538-4.10008E+05 3.13812E+03 3.53302E+03-8.03701E+04 4.99340E-08 1.18473E-07
 -1       539-2.55380E+05 3.87728E+03 2.97796E+04 1.55755E+05 1.71158E-07 1.40772E-07
 -1       540-5.14998E+05 7.37895E+01-2.31502E+04-7.95729E+04 4.89217E-09 1.27309E-07
 -1       541 2.27199E+05 1.97802E+04 1.23848E+05 1.14233E+05 1.76049E-08 9.96226E-08
 -1       542-8.79516E+05-2.37739E+04-9.93227E+04-3.76999E+04 4.54002E-08 5.72030E-08
 -1       543 5.54203E+05 3.28193E+04 1.89077E+05-1.13801E+04-3.96067E-08-3.02402E-08
 -1       544-8.33192E+05-2.03154E+04-9.07259E+04 4.52240E+04-1.06120E-08-4.20448E-08
 -1       545 1.17083E+05 1.21790E+04 9.84631E+04-1.27130E+05 2.08602E-08-7.91806E-08
 -1       546-4.54191E+05 6.71097E+03-1.53292E+04 7.75383E+04 5.69025E-09-1.03373E-07
 -1       547-2.70681E+05-4.59238E+03 1.46817E+04-1.58469E+05-1.44004E-07-1.29351E-07
 -1       548-4.55914E+05 5.30614E+03-2.57609E+04 7.74800E+04-1.08289E-07-1.15699E-07
 -1       549 1.23017E+05 2.31969E+04 7.71494E+04-1.26962E+05-7.78730E-08-6.71535E-08
 -1       550-8.37342E+05-2.99739E+04-1.45260E+05 4.51099E+04 1.02000E-08-4.00978E-08
 -1       551 4.04887E+04-7.79266E+05-8.03225E+03-1.20654E+06-9.93678E-08 1.01572E-08
 -1       552 8.80741E+04-8.19423E+05 1.42178E+04-1.72120E+06-6.90779E-08 5.40749E-08
 -1       553 6.68564E+04-8.15086E+05 3.51710E+04-1.20053E+06-1.13403E-07 4.08618E-08
 -1       554 1.23694E+05-8.29282E+05 8.48097E+04-1.72296E+06-7.27596E-08 1.55778E-08
 -1       555 9.53185E+04-8.36311E+05 1.53811E+05-1.20073E+06-1.18227E-07-8.11997E-09
 -1       556 1.89153E+05-3.27846E+05 3.87237E+04-3.55622E+05-2.01399E-08-2.09548E-08
 -1       557 3.04963E+05-4.18983E+05 2.23501E+04-4.56851E+05 4.07454E-10-6.61566E-09
 -1       558 1.75578E+05-3.25142E+05 5.61974E+03-3.56353E+05-1.17579E-08-2.10493E-08
 -1       559 2.83261E+05-4.21929E+05 3.82540E+03-4.73546E+05 3.38187E-08 1.09067E-08
 -1       560 1.63436E+05-3.17503E+05-5.58494E+02-3.65069E+05 1.31258E-08 1.43045E-08
 -1       561 2.67638E+05-4.15850E+05 4.35474E+02-4.84195E+05-9.61882E-09-3.61069E-09
 -1       562 1.53591E+05-3.11368E+05-1.09978E+03-3.72229E+05 1.84809E-09 1.93795E-08
 -1       563 2.55744E+05-4.10677E+05-3.49694E+01-4.91991E+05-4.33647E-09 4.81941E-09
 -1       564 1.46308E+05-3.06829E+05-6.51479E+02-3.77413E+05-8.44011E-10-1.23127E-08
 -1       565 2.47447E+05-4.07075E+05-8.71511E+01-4.97315E+05 9.57516E-09-2.98439E-09
 -1       566 1.41694E+05-3.03906E+05-4.33181E+02-3.80653E+05-6.70843E-09 3.98359E-10
 -1       567 2.42778E+05-4.05072E+05-5.87201E+02-5.00188E+05 1.74332E-08-8.55289E-09
 -1       568 1.39821E+05-3.02749E+05-1.44843E+03-3.82026E+05-5.96629E-10-7.70160E-09
 -1       569 2.40443E+05-4.04917E+05-3.53973E+03-4.99930E+05-5.91990E-09 2.97950E-09
 -1       570 1.41671E+05-3.05118E+05-7.27532E+03-3.81472E+05 6.49379E-09 7.18501E-10
 -1       571 2.88104E+05 1.02079E+04 1.43282E+04-1.10645E+05 5.44333E-09 1.65683E-08
 -1       572 2.90147E+05 3.97706E+03 7.02363E+03-1.21345E+05 2.85263E-09-1.36588E-08
 -1       573 2.88893E+05 1.37076E+03 3.12062E+03-1.10424E+05 4.40104E-09-1.08230E-09
 -1       574 2.89066E+05 9.02670E+02 1.56574E+03-1.21624E+05 6.78210E-09 4.45380E-09
 -1       575 2.88962E+05 6.19958E+02 7.38714E+02-1.10394E+05-4.16571E-09 3.85626E-10
 -1       576 2.88923E+05 6.53565E+02 3.77911E+02-1.21660E+05-1.12854E-08 8.89031E-09
 -1       577 2.88998E+05 5.65941E+02 1.87079E+02-1.10390E+05-7.89805E-09 1.26056E-08
 -1       578 2.88960E+05 6.13194E+02 1.05069E+02-1.21666E+05-6.59020E-09 1.31313E-08
 -1       579 2.89083E+05 5.21543E+02 6.56465E+01-1.10390E+05-2.27374E-09 7.65976E-09
 -1       580 2.89084E+05 5.48554E+02 6.78826E+01-1.21660E+05-2.84344E-08 5.20140E-09
 -1       581 2.89228E+05 4.42738E+02 9.15706E+01-1.10397E+05 3.15231E-09 1.27084E-08
 -1       582 2.89293E+05 4.72850E+02 1.83929E+02-1.21591E+05 6.36828E-09-8.09814E-09
 -1       583 2.89420E+05 4.11281E+02 3.42535E+02-1.10460E+05-5.71163E-10-2.65891E-09
 -1       584 2.89666E+05 6.94115E+02 7.80150E+02-1.21056E+05 2.88856E-09-1.01709E-08
 -1       585 2.89555E+05 1.29852E+03 1.56759E+03-1.10932E+05-4.59659E-09 4.32919E-10
 -1       586-2.30644E+03 1.38343E+05-1.10349E+03-2.36931E+05-6.99879E-09-8.69568E-09
 -1       587-1.07514E+03 1.38331E+05 1.50161E+03-2.60620E+05-8.93669E-09 8.07142E-09
 -1       588 2.95991E+02 1.37942E+05 4.76610E+03-2.36729E+05-5.59339E-09-1.44105E-08
 -1       589 4.59486E+03 1.40226E+05 1.16301E+04-2.60542E+05-7.19047E-09-4.28372E-08
 -1       590 1.53148E+04 1.36618E+05 2.41174E+04-2.37068E+05-5.74164E-09-2.00089E-10
 -1       591-9.76389E+04-2.07008E+04-2.54174E+04-4.20885E+04-2.42585E-09 1.40753E-08
 -1       592-1.01844E+05-2.51202E+04-1.37680E+04-4.66520E+04-3.82889E-09 4.69663E-09
 -1       593-1.00192E+05-1.88456E+04-5.73100E+03-4.39408E+04 3.06557E-10-6.69093E-09
 -1       594-9.83270E+04-2.13992E+04-2.85806E+03-4.67966E+04 1.85264E-09 2.21726E-09
 -1       595-1.00387E+05-1.88383E+04-1.31225E+03-4.40252E+04 4.41958E-09 4.66765E-08
 -1       596-9.80868E+04-2.12291E+04-6.66882E+02-4.67695E+04 1.43336E-08 4.99745E-09
 -1       597-1.00412E+05-1.88553E+04-3.62848E+02-4.40284E+04 5.24579E-09 1.35094E-08
 -1       598-9.80633E+04-2.12224E+04-2.91201E+02-4.67618E+04-4.91295E-09-5.13546E-09
 -1       599-1.00411E+05-1.88559E+04-3.71396E+02-4.40281E+04 9.56106E-10 3.23803E-09
 -1       600-9.80869E+04-2.12298E+04-6.89488E+02-4.67671E+04 8.82869E-09 8.01890E-10
 -1       601-1.00382E+05-1.88398E+04-1.36009E+03-4.40239E+04 7.50106E-10-3.56954E-09
 -1       602-9.83355E+04-2.14052E+04-2.96401E+03-4.67911E+04-2.61878E-09-9.48830E-09
 -1       603-1.00177E+05-1.88505E+04-5.94417E+03-4.39370E+04 5.65024E-10 7.50424E-09
 -1       604-1.01998E+05-2.52479E+04-1.42792E+04-4.66192E+04 3.09774E-09 7.26141E-09
 -1       605-9.75108E+04-2.07895E+04-2.63612E+04-4.20319E+04 6.61879E-09 1.77251E-08
 -1       606 2.58996E+04-1.47276E+04-2.63889E+04 2.21300E+04 8.22911E-09-1.86421E-08
 -1       607 2.13920E+04-4.81712E+03-1.31419E+04 2.48794E+04 7.69433E-10-2.81559E-08
 -1       608 2.39643E+04-8.75503E+02-5.88275E+03 2.19824E+04-6.52471E-09-3.40697E-09
 -1       609 2.34747E+04-3.08940E+02-2.97202E+03 2.50782E+04 2.26555E-09-1.02254E-08
 -1       610 2.37491E+04-5.28204E+01-1.41775E+03 2.19644E+04 6.24459E-09 1.12423E-08
 -1       611 2.36750E+04-5.66453E+01-7.15083E+02 2.50996E+04 8.92032E-09-7.37737E-09
 -1       612 2.37043E+04-4.09319E+01-3.40045E+02 2.19625E+04 7.93989E-10 1.02589E-08
 -1       613 2.36906E+04-5.44593E+01-1.53079E+02 2.51021E+04 4.93128E-09 8.72774E-09
 -1       614 2.36844E+04-4.92345E+01-3.71614E+01 2.19619E+04-9.27412E-09 8.29482E-09
 -1       615 2.36878E+04-5.44893E+01 6.05939E+01 2.51025E+04-2.44900E-08 1.69671E-08
 -1       616 2.36688E+04-4.73653E+01 1.85090E+02 2.19621E+04-1.34337E-08-1.10763E-08
 -1       617 2.37119E+04-1.59025E+01 4.23333E+02 2.51020E+04-1.67547E-08-8.78845E-09
 -1       618 2.36332E+04 7.40128E+01 8.53840E+02 2.19625E+04-9.95215E-09-1.26486E-08
 -1       619 2.40143E+04 6.43843E+02 1.91762E+03 2.51016E+04-7.32803E-09-8.94033E-10
 -1       620 2.33501E+04 2.09871E+03 3.85452E+03 2.19651E+04-1.16370E-09 1.61799E-09
 -1       621 8.48545E+02 3.28273E+05 6.05536E+03 4.84878E+04 1.35151E-09 2.32831E-10
 -1       622 1.06273E+03 3.29688E+05 4.83693E+03 7.03715E+04 1.74987E-09-3.30374E-09
 -1       623 2.13061E+02 3.28668E+05 5.14111E+03 4.82791E+04 1.79421E-09 1.06475E-08
 -1       624 2.51923E+03 3.30880E+05 9.40734E+03 7.05682E+04 1.94996E-09-9.82027E-10
 -1       625 2.43169E+03 3.26851E+05 1.61791E+04 4.82830E+04 1.63982E-09 4.29736E-09
 -1       626 2.55377E+05 5.80666E+04 3.72426E+03 1.22408E+05 2.66914E-09 1.69075E-09
 -1       627 2.53119E+05 5.96456E+04 1.79476E+03 1.26167E+05 5.89716E-09-1.25846E-08
 -1       628 2.55485E+05 5.63457E+04 7.59375E+02 1.23020E+05-7.16409E-09 2.65777E-09
 -1       629 2.52638E+05 5.91697E+04 3.72466E+02 1.26361E+05-1.15506E-08-1.28516E-09
 -1       630 2.55496E+05 5.62623E+04 1.74327E+02 1.23044E+05-5.00222E-12-6.79597E-09
 -1       631 2.52587E+05 5.91526E+04 9.69208E+01 1.26364E+05 8.33188E-09-1.39407E-08
 -1       632 2.55493E+05 5.62647E+04 6.95913E+01 1.23041E+05 1.93465E-08 1.84368E-08
 -1       633 2.52582E+05 5.91536E+04 8.62643E+01 1.26362E+05 8.94443E-09 1.84000E-08
 -1       634 2.55489E+05 5.62609E+04 1.47259E+02 1.23041E+05-7.21491E-09-3.06522E-09
 -1       635 2.52597E+05 5.91514E+04 3.02877E+02 1.26369E+05-6.26727E-09 3.84807E-09
 -1       636 2.55480E+05 5.62549E+04 6.14142E+02 1.23041E+05 6.32849E-09 1.23323E-08
 -1       637 2.52729E+05 5.92475E+04 1.35167E+03 1.26368E+05 1.53750E-08 2.08643E-08
 -1       638 2.55432E+05 5.65537E+04 2.77783E+03 1.22906E+05-1.16961E-09-3.61297E-09
 -1       639 2.54184E+05 6.12809E+04 6.57278E+03 1.25941E+05-1.82554E-08-1.60248E-08
 -1       640 2.55229E+05 6.26143E+04 1.36400E+04 1.20351E+05-8.24002E-10 1.25979E-08
 -1       656 6.56895E+04-1.68211E+06-1.58569E+05-3.24945E+03-2.54659E-10-8.49411E-09
 -1       657-8.68847E+04-1.75378E+06-1.31338E+05 4.18871E+03-2.25828E-09 2.96946E-09
 -1       658 2.09198E+04-1.70248E+06-8.08462E+04-5.21859E+03-7.09861E-10-9.65530E-09
 -1       659-9.38451E+04-1.75709E+06-1.40486E+05 5.85026E+03-2.40107E-10-1.88158E-08
 -1       660 7.26342E+04-1.67882E+06-1.74299E+05-4.91099E+03-2.13186E-09 7.50819E-09
 -1       661 1.53363E+05 1.59564E+04 1.62553E+04 5.98835E+04-2.50111E-09-4.13547E-09
 -1       662 1.62527E+05 2.80200E+04 1.09549E+04 5.62635E+04 1.03591E-09-1.10365E-08
 -1       663 1.56554E+05 2.11733E+04 3.83136E+03 5.89591E+04-1.21986E-10 7.84530E-09
 -1       664 1.58828E+05 2.19184E+04 2.29187E+03 5.73921E+04-2.63685E-09 5.49630E-09
 -1       665 1.57037E+05 2.18865E+04 9.04132E+02 5.88188E+04 8.02629E-10 7.09622E-09
 -1       666 1.58257E+05 2.11021E+04 5.29119E+02 5.75745E+04 1.16385E-08-9.64965E-09
 -1       667 1.57121E+05 2.19683E+04 2.81120E+02 5.87843E+04 6.84508E-10 7.23489E-10
 -1       668 1.58165E+05 2.10424E+04 2.86583E+02 5.76245E+04-1.22594E-08-5.49958E-09
 -1       669 1.57128E+05 2.19446E+04 3.88134E+02 5.87691E+04-1.29018E-09-6.28205E-10
 -1       670 1.58260E+05 2.12521E+04 8.45270E+02 5.76262E+04-1.46434E-08 8.04800E-09
 -1       671 1.57026E+05 2.17630E+04 1.50090E+03 5.87806E+04-8.97927E-10-1.90227E-08
 -1       672 1.59135E+05 2.27117E+04 3.84004E+03 5.74136E+04 8.82785E-09 3.82778E-09
 -1       673 1.56258E+05 2.05220E+04 6.43532E+03 5.89676E+04 2.46234E-09 8.12906E-09
 -1       674 1.65259E+05 3.30518E+04 1.84037E+04 5.56154E+04-6.76744E-09 4.12547E-09
 -1       675 1.50941E+05 1.17126E+04 2.73175E+04 6.04703E+04-2.65754E-09 1.98270E-09
 -1       676 2.35406E+01-2.87857E+05-1.08234E+03-1.76673E+02 2.40337E-09-1.49660E-08
 -1       677-2.85417E+02-2.88120E+05-1.98085E+03 3.53071E+02 1.38199E-08-2.05928E-08
 -1       678 1.92124E+02-2.87670E+05-3.50165E+03-1.76284E+02 2.30148E-09-6.31177E-09
 -1       679-3.50080E+03-2.90233E+05-8.31844E+03 3.51579E+02 9.74615E-09 3.92976E-09
 -1       680 2.09078E+03-2.85744E+05-1.34065E+04-1.73234E+02-3.49246E-10-3.63526E-09
 -1       771-2.98553E+06-7.13418E+05-1.45307E+05-1.41922E+06-3.21743E-08-2.51166E-08
 -1       772-2.91195E+06-7.97248E+05-7.48984E+04-1.51613E+06-2.51457E-08 7.05040E-09
 -1       773-3.01364E+06-6.91405E+05-3.81710E+04-1.43157E+06-1.37661E-08 1.07539E-08
 -1       774-2.90339E+06-7.81336E+05-1.70267E+04-1.53922E+06 2.80997E-08 2.74304E-09
 -1       775-3.02825E+06-6.81116E+05-1.27185E+04-1.43763E+06 1.83354E-09 5.09317E-09
 -1       776-2.91412E+06-7.78798E+05-4.75950E+03-1.55650E+06 7.72707E-09 4.29281E-09
 -1       777-3.04086E+06-6.71991E+05-5.61342E+03-1.44298E+06 1.04774E-08 3.65253E-09
 -1       778-2.92529E+06-7.76446E+05-1.60573E+03-1.57130E+06 1.16415E-10 8.67294E-09
 -1       779-3.05165E+06-6.64054E+05-2.84127E+03-1.44755E+06-1.46974E-08-4.26007E-09
 -1       780-2.93509E+06-7.74212E+05-5.70611E+02-1.58334E+06-1.84882E-08-7.46331E-09
 -1       781-3.06020E+06-6.57676E+05-1.30492E+03-1.45111E+06-3.42989E-08 2.01726E-09
 -1       782-2.94266E+06-7.72347E+05-1.07025E+02-1.59221E+06-4.28117E-08-5.25961E-09
 -1       783-3.06616E+06-6.53267E+05-3.93360E+02-1.45359E+06-1.34823E-08-1.31599E-08
 -1       784-2.94742E+06-7.71083E+05 9.75466E+01-1.59764E+06-3.11411E-08-6.37465E-09
 -1       785-3.06923E+06-6.50986E+05-2.83197E+01-1.45486E+06-4.02724E-08 7.99264E-09
 -1       786 2.26915E+05-1.22697E+04 2.83909E+04-5.65109E+02-7.07342E-05-2.16720E-07
 -1       787 2.39217E+05 1.42078E+04 2.00854E+04-6.11534E+02-1.40936E-04-3.37541E-07
 -1       788 2.31662E+05-1.92227E+03 7.34798E+03-5.63036E+02-9.70066E-05-1.85948E-07
 -1       789 2.33688E+05 2.22731E+03 4.61612E+03-6.11824E+02-5.26625E-05-1.10152E-07
 -1       790 2.32445E+05-2.99066E+02 1.87696E+03-5.64845E+02-1.07599E-05-2.69771E-08
 -1       791 2.32774E+05 3.50254E+02 1.09924E+03-6.12459E+02 3.11389E-05 7.91607E-08
 -1       792 2.32577E+05-4.66342E+01 4.96310E+02-5.62406E+02 6.59207E-05 1.41871E-07
 -1       793 2.32625E+05 6.64206E+01 3.14156E+02-6.23908E+02 1.00484E-04 2.54595E-07
 -1       794 2.32595E+05-1.54248E+01 2.15856E+02-5.53397E+02 5.03570E-05 1.02548E-07
 -1       795 2.32630E+05 8.17015E+01 2.87800E+02-6.52170E+02 1.63973E-07 1.52071E-08
 -1       796 2.32572E+05-6.19052E+01 4.16349E+02-5.34144E+02 8.46867E-09-2.37017E-09
 -1       797 2.32815E+05 4.63422E+02 9.69519E+02-7.08164E+02 4.79207E-09-8.47572E-09
 -1       798 2.32410E+05-3.96869E+02 1.52623E+03-4.97401E+02 7.30341E-09 2.69999E-08
 -1       799 2.33960E+05 2.94069E+03 4.15777E+03-8.12025E+02 2.93396E-09-1.39291E-08
 -1       800 2.31426E+05-2.53721E+03 5.87106E+03-4.30276E+02 1.14088E-09 1.15772E-08
 -1       801-2.80579E+05-1.04058E+07-1.59056E+06 1.71231E+06 6.75209E-08-6.68260E-08
 -1       802 1.10403E+06 1.39520E+07 3.67643E+06-2.28189E+06-1.83500E-08-3.87008E-08
 -1       803-7.56358E+05-1.83825E+07-2.87410E+06 1.01000E+06 1.78210E-07 4.94692E-08
 -1       804 5.54132E+05 9.61852E+06 2.84858E+06 5.67095E+05-2.88128E-08-1.41432E-07
 -1       805 1.67783E+05-6.04579E+06-3.38283E+05-1.14228E+06-1.13409E-07-1.14097E-07
 -1       806-2.89899E+05-6.70075E+04-2.54234E+04-1.26897E+05-1.01397E-08-1.37170E-08
 -1       807-2.90615E+05-6.41479E+04-1.24897E+04-1.34569E+05-5.81394E-10-1.56750E-08
 -1       808-2.90672E+05-5.77725E+04-5.29784E+03-1.31154E+05-1.41773E-08 2.67988E-09
 -1       809-2.87922E+05-6.07079E+04-2.58968E+03-1.34964E+05-2.07411E-08 1.58479E-09
 -1       810-2.90789E+05-5.74447E+04-1.18595E+03-1.31341E+05 5.79075E-09-7.00766E-10
 -1       811-2.87715E+05-6.05743E+04-5.88383E+02-1.34937E+05 3.42880E-09-6.38761E-09
 -1       812-2.90806E+05-5.74697E+04-2.94522E+02-1.31339E+05-5.77029E-09-3.03589E-09
 -1       813-2.87684E+05-6.05799E+04-1.87486E+02-1.34918E+05-7.84530E-09-1.49912E-08
 -1       814-2.90797E+05-5.74820E+04-1.78971E+02-1.31332E+05-2.23690E-09-6.28324E-09
 -1       815-2.87680E+05-6.05856E+04-2.82693E+02-1.34907E+05 1.22100E-08-3.54180E-09
 -1       816-2.90769E+05-5.74850E+04-5.32344E+02-1.31323E+05 6.31280E-09 1.58057E-08
 -1       817-2.87762E+05-6.06394E+04-1.14092E+03-1.34886E+05-2.25286E-08-1.26302E-08
 -1       818-2.90688E+05-5.76536E+04-2.32686E+03-1.31243E+05-7.62884E-09-6.23822E-09
 -1       819-2.89043E+05-6.20275E+04-5.47375E+03-1.34549E+05-4.48927E-09 3.46608E-09
 -1       820-2.90213E+05-6.18176E+04-1.11422E+04-1.29496E+05-5.71708E-09-6.50743E-09
 -1       821-3.88435E+05 2.12966E+04-5.01318E+04 3.06856E+03 1.96764E-08-1.20344E-08
 -1       822-4.06276E+05-2.47005E+04-3.47927E+04-6.85896E+03 9.63576E-09 7.07860E-09
 -1       823-3.95040E+05 3.38386E+03-1.29033E+04 5.42558E+03-1.92646E-08 2.99478E-08
 -1       824-3.97971E+05-3.89004E+03-8.00879E+03-8.79913E+03-1.58953E-09-1.17052E-09
 -1       825-3.96772E+05 5.30622E+02-3.42167E+03 5.00913E+03 3.34800E-08 1.74490E-08
 -1       826-3.94272E+05-5.31290E+02-1.49004E+03-5.44855E+03 4.30325E-08-4.32874E-09
 -1       827-3.98681E+05-1.79287E+01-1.47437E+03 2.07453E+03 1.77500E-08-1.86645E-08
 -1       828-3.92588E+05-4.54838E+01-9.89903E+01 1.29262E+03-1.29370E-09-3.78012E-10
 -1       829-3.98418E+05 1.39320E+01-1.42735E+03-1.73202E+03 3.29237E-09-5.59939E-09
 -1       830-3.94818E+05-6.05469E+02-1.63483E+03 7.60975E+03 9.19783E-10 2.71740E-10
 -1       831-3.96505E+05 5.85383E+02-3.41022E+03-4.24249E+03-1.01815E-08 7.60247E-09
 -1       832-3.97980E+05-4.00093E+03-8.13521E+03 9.92252E+03-6.85705E-09 5.30088E-09
 -1       833-3.95298E+05 3.44065E+03-1.31476E+04-4.04496E+03-1.80663E-09-2.21644E-09
 -1       834-4.05835E+05-2.50776E+04-3.51980E+04 6.87370E+03-3.87546E-09 1.61290E-08
 -1       835-3.88603E+05 2.16043E+04-5.09347E+04-1.19344E+03 3.61382E-09-6.66842E-09
 -1       836-1.58239E+03 3.91930E+05 2.44213E+04-2.84724E+04-8.89577E-09 9.17316E-09
 -1       837 5.08895E+03 3.99625E+05 2.03678E+04-5.80334E+04-9.79071E-09-1.54830E-08
 -1       838-6.25983E+02 3.94111E+05 2.03262E+04-2.83719E+04-8.25094E-09-2.26646E-09
 -1       839 1.25100E+04 4.05132E+05 3.80317E+04-5.80772E+04-8.56744E-09-6.21043E-09
 -1       840-3.95622E+03 3.86335E+05 6.04561E+04-2.84372E+04-8.11269E-09-1.18755E-08
 -1       856-5.03828E+04 7.75031E+03-2.04230E+04-3.66871E+02 5.76745E-09 9.38599E-09
 -1       857-5.87910E+04-9.11095E+03-1.40589E+04 5.55858E+03 4.70320E-09 1.76399E-08
 -1       858-5.37148E+04 1.08721E+03-5.29926E+03-3.91468E+02 4.03583E-09 1.63527E-09
 -1       859-5.49672E+04-1.28362E+03-3.19779E+03 5.59475E+03-7.02043E-09-6.05382E-09
 -1       860-5.42126E+04 1.52571E+02-1.34011E+03-4.02678E+02-8.50406E-10 1.15462E-08
 -1       861-5.43946E+04-1.86656E+02-7.37017E+02 5.61002E+03 2.79068E-09 5.95182E-09
 -1       862-5.42905E+04 2.09743E+01-3.05975E+02-4.06704E+02-3.84238E-09 3.49416E-09
 -1       863-5.42992E+04-2.59197E+01-1.10559E+02 5.61250E+03-1.20020E-08-2.41394E-09
 -1       864-5.43086E+04-4.48204E+00 4.76201E+01-4.05147E+02-7.99091E-09-7.61453E-09
 -1       865-5.42449E+04 5.37009E+01 2.51012E+02 5.60327E+03-5.12755E-09 6.09221E-09
 -1       866-5.43427E+04-5.86185E+01 5.04864E+02-3.97481E+02 2.13430E-09-1.81174E-09
 -1       867-5.40078E+04 4.82326E+02 1.24194E+03 5.58246E+03 5.52095E-09-2.12589E-08
 -1       868-5.45409E+04-4.25295E+02 2.06365E+03-3.84337E+02-2.93454E-09 9.21875E-09
 -1       869-5.24953E+04 3.53801E+03 5.49442E+03 5.54855E+03 1.70502E-09-4.99585E-09
 -1       870-5.58478E+04-3.03122E+03 7.97378E+03-3.63438E+02-6.79051E-09 6.96627E-09
 -1       871-5.33673E+03-2.48967E+04-1.92517E+04 1.27370E+05-7.17409E-09-1.71503E-08
 -1       872-1.82504E+03-2.93988E+04-8.11551E+03 1.65165E+05-1.19480E-08-3.44062E-09
 -1       873 4.96715E+02-2.71911E+04 4.50688E+02 1.27090E+05-7.14408E-09 2.73860E-09
 -1       874 3.31991E+03-2.49091E+04 9.35238E+03 1.65184E+05-1.49366E-08-4.17640E-09
 -1       875 6.69482E+03-2.94320E+04 2.12046E+04 1.27325E+05-6.66842E-09-1.83982E-08
 -1       876 2.86071E+05 4.82763E+04 1.48432E+04 1.14865E+05 1.02980E-08 9.90985E-09
 -1       877 2.87018E+05 5.14370E+04 7.92682E+03 1.19168E+05 1.84923E-08 4.10819E-09
 -1       878 2.87462E+05 4.66301E+04 3.32088E+03 1.16079E+05-4.19095E-09 1.45315E-09
 -1       879 2.85000E+05 4.94244E+04 1.65460E+03 1.19270E+05 1.19949E-08 7.48338E-09
 -1       880 2.87561E+05 4.66131E+04 7.70524E+02 1.16128E+05-1.05738E-08 1.30324E-08
 -1       881 2.84866E+05 4.93384E+04 4.11176E+02 1.19247E+05-1.86786E-08 1.67232E-08
 -1       882 2.87570E+05 4.66262E+04 2.62472E+02 1.16130E+05-1.15328E-08 1.91728E-08
 -1       883 2.84856E+05 4.93339E+04 2.81288E+02 1.19239E+05-1.02388E-08 1.00704E-09
 -1       884 2.87563E+05 4.66235E+04 4.46646E+02 1.16130E+05-6.48413E-09 1.42666E-09
 -1       885 2.84891E+05 4.93401E+04 8.97486E+02 1.19250E+05-1.29872E-08 2.73649E-08
 -1       886 2.87528E+05 4.65974E+04 1.80859E+03 1.16127E+05-1.31200E-08 9.93941E-09
 -1       887 2.85209E+05 4.95484E+04 3.95048E+03 1.19296E+05 5.52302E-09-7.79539E-09
 -1       888 2.87279E+05 4.66415E+04 7.96028E+03 1.16000E+05-6.32801E-09-1.17507E-09
 -1       889 2.89949E+05 5.44762E+04 1.90157E+04 1.19150E+05-6.44047E-09-3.33239E-09
 -1       890 2.84026E+05 5.05041E+04 3.56158E+04 1.12975E+05-2.55159E-09-1.01500E-08
 -1       891-6.49864E+01-1.58452E+05-1.93981E+03 2.62708E+04-6.63249E-10 3.40128E-09
 -1       892-1.37323E+02-1.58976E+05-2.08576E+03 3.99287E+04 2.07729E-09 1.13623E-08
 -1       893 6.44675E+01-1.58515E+05-2.95557E+03 2.62781E+04-2.88765E-10 8.00901E-09
 -1       894-1.43735E+03-1.60095E+05-6.11874E+03 3.97803E+04 2.33831E-09 3.29237E-10
 -1       895-1.14517E+03-1.57241E+05-1.07755E+04 2.64221E+04 1.60765E-09 1.07711E-08
 -1       956-3.67467E+05-5.62694E+03-1.37890E+04 3.32231E+04 9.59062E-09 1.84091E-08
 -1       957-3.70167E+05-2.01659E+03-7.07722E+03 3.98832E+04 1.99088E-09-3.77122E-09
 -1       958-3.68712E+05-2.85029E+02-3.18973E+03 3.30384E+04-6.53745E-09-2.75941E-09
 -1       959-3.68910E+05-1.82480E+02-1.62826E+03 4.01018E+04-2.89219E-10 4.10978E-09
 -1       960-3.68838E+05-8.05442E+01-7.93839E+02 3.30192E+04 3.73802E-09 8.18591E-09
 -1       961-3.68833E+05-1.04465E+02-4.19705E+02 4.01247E+04 6.09361E-09 8.41624E-09
 -1       962-3.68871E+05-7.91803E+01-2.38473E+02 3.30160E+04 3.38059E-09-4.31396E-09
 -1       963-3.68837E+05-9.79188E+01-1.87910E+02 4.01291E+04 7.42978E-09-6.18093E-09
 -1       964-3.68880E+05-7.42136E+01-2.24344E+02 3.30149E+04-2.82739E-10 8.15317E-09
 -1       965-3.68852E+05-9.36572E+01-3.84541E+02 4.01289E+04-3.43204E-09-1.00204E-08
 -1       966-3.68865E+05-6.58781E+01-7.20645E+02 3.30162E+04 8.33552E-09-1.66053E-08
 -1       967-3.68939E+05-1.54735E+02-1.47710E+03 4.01147E+04 1.44610E-09-2.96654E-09
 -1       968-3.68765E+05-2.42380E+02-2.89128E+03 3.30288E+04 3.53975E-09 6.75482E-09
 -1       969-3.70095E+05-1.81046E+03-6.41838E+03 3.99642E+04 4.17685E-09-1.07320E-10
 -1       970-3.67646E+05-5.08173E+03-1.25036E+04 3.31556E+04 3.15686E-09 1.54214E-08
 -1       971-3.36216E+05-1.66592E+03-8.91785E+03 1.48357E+04 5.94900E-09 4.83480E-09
 -1       972-3.38358E+05-1.23445E+03-4.85671E+03 2.04641E+04 7.75208E-09 2.46837E-09
 -1       973-3.37209E+05-7.10126E+01-2.17533E+03 1.47215E+04 5.12591E-09 1.78557E-09
 -1       974-3.37333E+05-9.45114E+01-1.12783E+03 2.05944E+04 2.92448E-09-4.43663E-09
 -1       975-3.37287E+05-2.84793E+01-5.64473E+02 1.47099E+04 1.38198E-09 3.51429E-09
 -1       976-3.37273E+05-4.71957E+01-3.27134E+02 2.06092E+04 9.88712E-09 2.78089E-09
 -1       977-3.37302E+05-2.80523E+01-2.39947E+02 1.47068E+04-3.70846E-10-1.98989E-08
 -1       978-3.37278E+05-4.14699E+01-2.84294E+02 2.06137E+04-4.60716E-09 3.64548E-09
 -1       979-3.37302E+05-1.99725E+01-4.59731E+02 1.47055E+04-4.20891E-09-1.10701E-08
 -1       980-3.37312E+05-3.86024E+01-8.89540E+02 2.06146E+04-7.94364E-09-3.90696E-09
 -1       981-3.37273E+05 2.26671E+00-1.72377E+03 1.47060E+04-6.32667E-09-9.89962E-09
 -1       982-3.37549E+05-1.65871E+02-3.56350E+03 2.06083E+04-1.41620E-09 1.00882E-09
 -1       983-3.37056E+05-1.07929E+02-6.92411E+03 1.47116E+04-1.42657E-08 9.34801E-09
 -1       984-3.40880E+05-3.78175E+03-1.55064E+04 2.05261E+04-9.46056E-09 1.05556E-08
 -1       985-3.33922E+05-5.17434E+03-2.84745E+04 1.47764E+04-7.39055E-09-2.36469E-09
 -3
    1PSTEP                        31          16           1          
  100CL  116 6.48575E-01         409                     0   16           1
 -4  DISP        4    1
 -5  D1          1    2    1    0
 -5  D2          1    2    2    0
 -5  D3          1    2    3    0
 -5  ALL         1    2    0    0    1ALL
 -1         1 2.23852E-03 0.00000E+00 0.00000E+00
 -1         2 1.79910E-03 5.50869E-28 2.64698E-23
 -1         3 3.33082E-04-3.43724E-27-1.32349E-23
 -1         5 1.61609E-04 3.19061E-27 0.00000E+00
 -1         8 2.22227E-03-4.95136E-07 0.00000E+00
 -1         9 2.18135E-03-2.04458E-05 0.00000E+00
 -1        10 3.01746E-04-3.36498E-06-6.61744E-24
 -1        12 1.64139E-04 8.64095E-07 8.27181E-25
 -1        15 2.20260E-03-5.40662E-07-2.06795E-25
 -1        16 2.21562E-03-2.17159E-05 0.00000E+00
 -1        17 2.04357E-04-7.65818E-06 0.00000E+00
 -1        18 1.70156E-04 4.32735E-05 0.00000E+00
 -1        19 1.71730E-04 1.71920E-06 0.00000E+00
 -1        20 1.71858E-04-1.77077E-05 0.00000E+00
 -1        21 1.70960E-04-4.12315E-05-3.30872E-24
 -1        24 2.97806E-05-1.17575E-05 0.00000E+00
 -1        25 1.83427E-04 4.35432E-05 0.00000E+00
 -1        26 1.84675E-04 2.39582E-06 0.00000E+00
 -1        27 1.82323E-04-2.12520E-05 0.00000E+00
 -1        28 1.82014E-04-4.18447E-05 0.00000E+00
 -1        32 0.00000E+00 0.00000E+00 0.00000E+00
 -1        33 1.96277E-04 3.19767E-06 0.00000E+00
 -1        34 1.94187E-04-2.13209E-05 0.00000E+00
 -1        35 1.92285E-04-4.21844E-05 0.00000E+00
 -1        51 2.23748E-03-9.55822E-08 6.61744E-24
 -1        52 2.23554E-03-1.75602E-07 0.00000E+00
 -1        53 2.23286E-03-2.53339E-07 0.00000E+00
 -1        54 2.22964E-03-3.30973E-07 0.00000E+00
 -1        55 2.22605E-03-4.10113E-07 8.27181E-25
 -1        56 2.23429E-03 9.67171E-07 5.29396E-23
 -1        57 2.22832E-03 6.15331E-06 5.29396E-23
 -1        58 2.22107E-03 1.46817E-05 1.05879E-22
 -1        59 2.21297E-03 2.53388E-05 0.00000E+00
 -1        60 2.20464E-03 3.65871E-05 1.05879E-22
 -1        61 2.19670E-03 4.68322E-05 5.29396E-23
 -1        62 2.18969E-03 5.46436E-05 0.00000E+00
 -1        63 2.18409E-03 5.87853E-05-5.29396E-23
 -1        64 2.18012E-03 5.86190E-05-1.05879E-22
 -1        65 2.17787E-03 5.38562E-05 0.00000E+00
 -1        66 2.17714E-03 4.49617E-05 1.05879E-22
 -1        67 2.17764E-03 3.27406E-05 5.29396E-23
 -1        68 2.17884E-03 1.85456E-05 1.05879E-22
 -1        69 2.18024E-03 3.90053E-06 5.29396E-23
 -1        70 2.18121E-03-9.61023E-06-5.29396E-23
 -1        86 1.82225E-03-1.37455E-06 0.00000E+00
 -1        87 1.89063E-03-4.74176E-06-1.32349E-23
 -1        88 1.98313E-03-9.87784E-06 0.00000E+00
 -1        89 2.07766E-03-1.51968E-05 0.00000E+00
 -1        90 2.15113E-03-1.88991E-05 2.64698E-23
 -1       121 3.32202E-04-5.43764E-07 0.00000E+00
 -1       122 3.29566E-04-1.09050E-06 0.00000E+00
 -1       123 3.25183E-04-1.64313E-06 1.32349E-23
 -1       124 3.19070E-04-2.20457E-06 0.00000E+00
 -1       125 3.11247E-04-2.77739E-06 1.32349E-23
 -1       191 1.61679E-04 1.44132E-07 0.00000E+00
 -1       192 1.61890E-04 2.88244E-07-8.27181E-25
 -1       193 1.62241E-04 4.32317E-07 3.30872E-24
 -1       194 1.62733E-04 5.76332E-07-8.27181E-25
 -1       195 1.63366E-04 7.20265E-07-1.65436E-24
 -1       251 2.22150E-03 1.90823E-05 0.00000E+00
 -1       252 2.21961E-03 7.07921E-05-6.61744E-24
 -1       253 2.21639E-03 1.45240E-04-1.32349E-23
 -1       254 2.21216E-03 2.32508E-04 0.00000E+00
 -1       255 2.20799E-03 3.19156E-04 0.00000E+00
 -1       256 2.20489E-03 3.91760E-04 6.61744E-24
 -1       257 2.20313E-03 4.40745E-04 1.32349E-23
 -1       258 2.20240E-03 4.57081E-04 0.00000E+00
 -1       259 2.20166E-03 4.40208E-04 0.00000E+00
 -1       260 2.19986E-03 3.90394E-04 0.00000E+00
 -1       261 2.19666E-03 3.16442E-04-1.32349E-23
 -1       262 2.19231E-03 2.27709E-04 0.00000E+00
 -1       263 2.18784E-03 1.37601E-04 0.00000E+00
 -1       264 2.18435E-03 5.95521E-05 0.00000E+00
 -1       265 2.18224E-03 3.66610E-06 2.64698E-23
 -1       266 2.21900E-03-5.10000E-07 0.00000E+00
 -1       267 2.21572E-03-5.16701E-07 8.27181E-25
 -1       268 2.21244E-03-5.23918E-07 8.27181E-25
 -1       269 2.20916E-03-5.29604E-07-2.06795E-25
 -1       270 2.20588E-03-5.35255E-07 2.06795E-25
 -1       271 2.22025E-03 2.55505E-06 1.32349E-23
 -1       272 2.21820E-03 5.60340E-06-1.32349E-23
 -1       273 2.21620E-03 8.51869E-06 2.64698E-23
 -1       274 2.21430E-03 1.11592E-05 1.32349E-23
 -1       275 2.21255E-03 1.33894E-05 0.00000E+00
 -1       276 2.21101E-03 1.50760E-05 0.00000E+00
 -1       277 2.20972E-03 1.60920E-05-2.64698E-23
 -1       278 2.20873E-03 1.63165E-05-1.32349E-23
 -1       279 2.20807E-03 1.56373E-05 0.00000E+00
 -1       280 2.20780E-03 1.39505E-05 0.00000E+00
 -1       281 2.20793E-03 1.11632E-05 0.00000E+00
 -1       282 2.20850E-03 7.19311E-06 1.32349E-23
 -1       283 2.20954E-03 1.97018E-06 0.00000E+00
 -1       284 2.21106E-03-4.56232E-06-1.32349E-23
 -1       285 2.21309E-03-1.24493E-05 2.64698E-23
 -1       301 2.18761E-03-2.06826E-05 0.00000E+00
 -1       302 2.19265E-03-2.08848E-05 6.61744E-24
 -1       303 2.19722E-03-2.10821E-05-1.32349E-23
 -1       304 2.20207E-03-2.12796E-05 6.61744E-24
 -1       305 2.20796E-03-2.14842E-05 0.00000E+00
 -1       306 2.21569E-03-1.55903E-04-1.05879E-22
 -1       307 2.28030E-03-5.29636E-04-5.29396E-23
 -1       308 2.33606E-03-1.08221E-03 0.00000E+00
 -1       309 2.37401E-03-1.72906E-03-5.29396E-23
 -1       310 2.41578E-03-2.35682E-03 0.00000E+00
 -1       311 2.47774E-03-2.85384E-03 0.00000E+00
 -1       312 2.53746E-03-3.14539E-03 0.00000E+00
 -1       313 2.54592E-03-3.19015E-03-5.29396E-23
 -1       314 2.44191E-03-2.99436E-03 1.05879E-22
 -1       315 2.18769E-03-2.60807E-03 5.29396E-23
 -1       316 1.79581E-03-2.09969E-03 0.00000E+00
 -1       317 1.31892E-03-1.53530E-03 0.00000E+00
 -1       318 8.53430E-04-9.78132E-04 1.05879E-22
 -1       319 4.92376E-04-4.93375E-04 0.00000E+00
 -1       320 2.76389E-04-1.48106E-04 0.00000E+00
 -1       336 2.90381E-04-4.01427E-06-1.32349E-23
 -1       337 2.76979E-04-4.68833E-06 0.00000E+00
 -1       338 2.61600E-04-5.38929E-06 0.00000E+00
 -1       339 2.44316E-04-6.11805E-06 6.61744E-24
 -1       340 2.25205E-04-6.87881E-06 0.00000E+00
 -1       406 1.65053E-04 1.00779E-06 0.00000E+00
 -1       407 1.66107E-04 1.15131E-06 0.00000E+00
 -1       408 1.67302E-04 1.29457E-06 1.65436E-24
 -1       409 1.68638E-04 1.43738E-06 0.00000E+00
 -1       410 1.70115E-04 1.57941E-06 8.27181E-25
 -1       521 2.25078E-03-1.66155E-04 0.00000E+00
 -1       522 2.31442E-03-5.59440E-04 5.29396E-23
 -1       523 2.36523E-03-1.13909E-03 0.00000E+00
 -1       524 2.39554E-03-1.81429E-03 0.00000E+00
 -1       525 2.43054E-03-2.46862E-03-1.05879E-22
 -1       526 2.48941E-03-2.98763E-03 0.00000E+00
 -1       527 2.54883E-03-3.29060E-03 0.00000E+00
 -1       528 2.55576E-03-3.33509E-03 0.00000E+00
 -1       529 2.44232E-03-3.12689E-03 2.11758E-22
 -1       530 2.16825E-03-2.72259E-03 0.00000E+00
 -1       531 1.74639E-03-2.19408E-03 1.05879E-22
 -1       532 1.23477E-03-1.61057E-03 0.00000E+00
 -1       533 7.34875E-04-1.03397E-03-1.05879E-22
 -1       534 3.44709E-04-5.28207E-04 0.00000E+00
 -1       535 1.10134E-04-1.64361E-04 1.05879E-22
 -1       536 2.03548E-04 2.85066E-05 0.00000E+00
 -1       537 2.01348E-04 9.34663E-05 0.00000E+00
 -1       538 1.97838E-04 1.77178E-04 3.30872E-24
 -1       539 1.93598E-04 2.69503E-04 0.00000E+00
 -1       540 1.89722E-04 3.57514E-04 0.00000E+00
 -1       541 1.87166E-04 4.28308E-04 0.00000E+00
 -1       542 1.85971E-04 4.74219E-04-3.30872E-24
 -1       543 1.85703E-04 4.87751E-04 0.00000E+00
 -1       544 1.85367E-04 4.69533E-04 3.30872E-24
 -1       545 1.84031E-04 4.20454E-04 0.00000E+00
 -1       546 1.81460E-04 3.49359E-04 0.00000E+00
 -1       547 1.77913E-04 2.65234E-04 0.00000E+00
 -1       548 1.74370E-04 1.81151E-04 0.00000E+00
 -1       549 1.71808E-04 1.10182E-04 0.00000E+00
 -1       550 1.70484E-04 6.12849E-05 1.65436E-24
 -1       551 1.79717E-04-8.22307E-06 0.00000E+00
 -1       552 1.52059E-04-8.86043E-06 0.00000E+00
 -1       553 1.22302E-04-9.55289E-06 6.61744E-24
 -1       554 9.13805E-05-1.02802E-05 6.61744E-24
 -1       555 6.02303E-05-1.10166E-05 0.00000E+00
 -1       556 1.96794E-04 1.17059E-05 0.00000E+00
 -1       557 1.90590E-04 2.76562E-05 0.00000E+00
 -1       558 1.85626E-04 4.04429E-05 0.00000E+00
 -1       559 1.81786E-04 5.03374E-05 0.00000E+00
 -1       560 1.78955E-04 5.76113E-05 0.00000E+00
 -1       561 1.77021E-04 6.25385E-05 0.00000E+00
 -1       562 1.75875E-04 6.53941E-05 0.00000E+00
 -1       563 1.75408E-04 6.64535E-05 0.00000E+00
 -1       564 1.75512E-04 6.59935E-05 0.00000E+00
 -1       565 1.76081E-04 6.42910E-05 0.00000E+00
 -1       566 1.77011E-04 6.16235E-05-1.32349E-23
 -1       567 1.78197E-04 5.82691E-05 0.00000E+00
 -1       568 1.79534E-04 5.45059E-05 0.00000E+00
 -1       569 1.80920E-04 5.06121E-05-1.03398E-25
 -1       570 1.82252E-04 4.68661E-05 0.00000E+00
 -1       571 1.70251E-04 4.06347E-05-1.86116E-24
 -1       572 1.70349E-04 3.79119E-05-2.06795E-25
 -1       573 1.70447E-04 3.51235E-05-3.30872E-24
 -1       574 1.70545E-04 3.22887E-05 0.00000E+00
 -1       575 1.70643E-04 2.94269E-05 3.30872E-24
 -1       576 1.70741E-04 2.65575E-05 0.00000E+00
 -1       577 1.70839E-04 2.37000E-05 0.00000E+00
 -1       578 1.70937E-04 2.08737E-05 0.00000E+00
 -1       579 1.71036E-04 1.80982E-05 0.00000E+00
 -1       580 1.71134E-04 1.53929E-05-6.61744E-24
 -1       581 1.71233E-04 1.27772E-05 0.00000E+00
 -1       582 1.71332E-04 1.02706E-05-3.30872E-24
 -1       583 1.71431E-04 7.89253E-06 0.00000E+00
 -1       584 1.71531E-04 5.66217E-06 0.00000E+00
 -1       585 1.71630E-04 3.59856E-06 0.00000E+00
 -1       586 1.72396E-04 4.33200E-05 0.00000E+00
 -1       587 1.74571E-04 4.33663E-05 0.00000E+00
 -1       588 1.76720E-04 4.34124E-05 4.13590E-25
 -1       589 1.78885E-04 4.34580E-05-4.13590E-25
 -1       590 1.81107E-04 4.35024E-05 0.00000E+00
 -1       591 1.71060E-04 4.07397E-05 0.00000E+00
 -1       592 1.71973E-04 3.81717E-05-4.13590E-25
 -1       593 1.72895E-04 3.55773E-05 0.00000E+00
 -1       594 1.73823E-04 3.29629E-05 0.00000E+00
 -1       595 1.74757E-04 3.03350E-05 0.00000E+00
 -1       596 1.75693E-04 2.77003E-05 0.00000E+00
 -1       597 1.76630E-04 2.50650E-05-1.65436E-24
 -1       598 1.77564E-04 2.24358E-05 4.13590E-25
 -1       599 1.78493E-04 1.98190E-05-8.27181E-25
 -1       600 1.79415E-04 1.72212E-05 4.13590E-25
 -1       601 1.80328E-04 1.46488E-05 0.00000E+00
 -1       602 1.81230E-04 1.21082E-05 0.00000E+00
 -1       603 1.82117E-04 9.60601E-06-8.27181E-25
 -1       604 1.82988E-04 7.14873E-06-4.13590E-25
 -1       605 1.83840E-04 4.74274E-06 0.00000E+00
 -1       606 1.71743E-04 9.44458E-08 0.00000E+00
 -1       607 1.71752E-04-1.45141E-06 0.00000E+00
 -1       608 1.71760E-04-2.92298E-06 0.00000E+00
 -1       609 1.71767E-04-4.32550E-06 0.00000E+00
 -1       610 1.71775E-04-5.66425E-06 0.00000E+00
 -1       611 1.71782E-04-6.94454E-06 0.00000E+00
 -1       612 1.71790E-04-8.17172E-06 0.00000E+00
 -1       613 1.71797E-04-9.35113E-06 0.00000E+00
 -1       614 1.71805E-04-1.04881E-05 0.00000E+00
 -1       615 1.71813E-04-1.15880E-05-8.27181E-25
 -1       616 1.71820E-04-1.26561E-05 0.00000E+00
 -1       617 1.71828E-04-1.36979E-05 0.00000E+00
 -1       618 1.71836E-04-1.47186E-05 0.00000E+00
 -1       619 1.71843E-04-1.57235E-05 0.00000E+00
 -1       620 1.71851E-04-1.67181E-05 0.00000E+00
 -1       621 1.73566E-04 1.83252E-06 3.30872E-24
 -1       622 1.75584E-04 1.94629E-06-8.27181E-25
 -1       623 1.77744E-04 2.05978E-06-3.30872E-24
 -1       624 1.80007E-04 2.17288E-06 1.65436E-24
 -1       625 1.82330E-04 2.28562E-06 3.30872E-24
 -1       626 1.72450E-04 1.28846E-07 0.00000E+00
 -1       627 1.73149E-04-1.40601E-06 1.65436E-24
 -1       628 1.73830E-04-2.89256E-06 0.00000E+00
 -1       629 1.74496E-04-4.33831E-06 1.65436E-24
 -1       630 1.75150E-04-5.75079E-06 0.00000E+00
 -1       631 1.75794E-04-7.13755E-06 1.65436E-24
 -1       632 1.76431E-04-8.50612E-06 0.00000E+00
 -1       633 1.77065E-04-9.86409E-06 0.00000E+00
 -1       634 1.77697E-04-1.12190E-05 0.00000E+00
 -1       635 1.78331E-04-1.25783E-05 0.00000E+00
 -1       636 1.78969E-04-1.39497E-05 3.30872E-24
 -1       637 1.79615E-04-1.53407E-05-1.65436E-24
 -1       638 1.80271E-04-1.67588E-05 1.65436E-24
 -1       639 1.80939E-04-1.82117E-05 0.00000E+00
 -1       640 1.81623E-04-1.97068E-05 1.65436E-24
 -1       656 1.73071E-04-1.82835E-05-6.61744E-24
 -1       657 1.74687E-04-1.88829E-05 6.61744E-24
 -1       658 1.76576E-04-1.94810E-05 0.00000E+00
 -1       659 1.78596E-04-2.00789E-05-6.61744E-24
 -1       660 1.80570E-04-2.06785E-05 6.61744E-24
 -1       661 1.72312E-04-1.87403E-05 0.00000E+00
 -1       662 1.72803E-04-1.98620E-05 0.00000E+00
 -1       663 1.73325E-04-2.10679E-05-1.65436E-24
 -1       664 1.73876E-04-2.23515E-05 0.00000E+00
 -1       665 1.74455E-04-2.37073E-05-1.65436E-24
 -1       666 1.75058E-04-2.51294E-05 0.00000E+00
 -1       667 1.75684E-04-2.66125E-05 1.65436E-24
 -1       668 1.76331E-04-2.81510E-05 0.00000E+00
 -1       669 1.76997E-04-2.97397E-05 0.00000E+00
 -1       670 1.77679E-04-3.13734E-05 0.00000E+00
 -1       671 1.78376E-04-3.30470E-05 1.65436E-24
 -1       672 1.79086E-04-3.47556E-05 8.27181E-25
 -1       673 1.79808E-04-3.64943E-05 0.00000E+00
 -1       674 1.80537E-04-3.82585E-05 4.13590E-25
 -1       675 1.81275E-04-4.00429E-05-2.06795E-25
 -1       676 1.72809E-04-4.13343E-05-3.30872E-24
 -1       677 1.74656E-04-4.14371E-05 0.00000E+00
 -1       678 1.76502E-04-4.15398E-05 0.00000E+00
 -1       679 1.78344E-04-4.16422E-05 0.00000E+00
 -1       680 1.80182E-04-4.17445E-05-1.65436E-24
 -1       771 1.83965E-05 1.36538E-05 0.00000E+00
 -1       772 8.81326E-06 3.45189E-05 0.00000E+00
 -1       773 9.43429E-07 5.10593E-05 0.00000E+00
 -1       774-5.33085E-06 6.35227E-05 2.64698E-23
 -1       775-1.01251E-05 7.21665E-05 0.00000E+00
 -1       776-1.35595E-05 7.72638E-05 0.00000E+00
 -1       777-1.57540E-05 7.90965E-05-5.29396E-23
 -1       778-1.68309E-05 7.79600E-05 2.64698E-23
 -1       779-1.69121E-05 7.41570E-05-5.29396E-23
 -1       780-1.61214E-05 6.80011E-05 2.64698E-23
 -1       781-1.45817E-05 5.98120E-05 0.00000E+00
 -1       782-1.24177E-05 4.99175E-05 2.64698E-23
 -1       783-9.75294E-06 3.86498E-05 0.00000E+00
 -1       784-6.71223E-06 2.63469E-05 0.00000E+00
 -1       785-3.41961E-06 1.33492E-05 0.00000E+00
 -1       786 1.83500E-04 4.09467E-05 0.00000E+00
 -1       787 1.83578E-04 3.83349E-05 8.27181E-25
 -1       788 1.83655E-04 3.57122E-05-1.65436E-24
 -1       789 1.83733E-04 3.30828E-05 8.27181E-25
 -1       790 1.83812E-04 3.04496E-05 3.30872E-24
 -1       791 1.83890E-04 2.78154E-05-1.65436E-24
 -1       792 1.83968E-04 2.51832E-05 3.30872E-24
 -1       793 1.84047E-04 2.25555E-05-1.65436E-24
 -1       794 1.84125E-04 1.99361E-05 0.00000E+00
 -1       795 1.84204E-04 1.73285E-05 0.00000E+00
 -1       796 1.84282E-04 1.47388E-05 3.30872E-24
 -1       797 1.84361E-04 1.21730E-05 0.00000E+00
 -1       798 1.84440E-04 9.64153E-06 0.00000E+00
 -1       799 1.84518E-04 7.15527E-06 0.00000E+00
 -1       800 1.84597E-04 4.73349E-06 0.00000E+00
 -1       801 1.28352E-04 3.97815E-05 0.00000E+00
 -1       802-3.74013E-05 2.43027E-05 0.00000E+00
 -1       803-1.72034E-04 1.25728E-05 0.00000E+00
 -1       804-1.37733E-04 8.98479E-06 0.00000E+00
 -1       805-4.18847E-05 2.76754E-06 0.00000E+00
 -1       806 1.84290E-04 4.08766E-05 0.00000E+00
 -1       807 1.85155E-04 3.81896E-05 0.00000E+00
 -1       808 1.86024E-04 3.54914E-05 0.00000E+00
 -1       809 1.86893E-04 3.27905E-05 0.00000E+00
 -1       810 1.87760E-04 3.00953E-05 0.00000E+00
 -1       811 1.88622E-04 2.74142E-05-1.65436E-24
 -1       812 1.89475E-04 2.47553E-05 0.00000E+00
 -1       813 1.90317E-04 2.21271E-05 0.00000E+00
 -1       814 1.91145E-04 1.95378E-05 0.00000E+00
 -1       815 1.91955E-04 1.69957E-05 0.00000E+00
 -1       816 1.92744E-04 1.45091E-05 0.00000E+00
 -1       817 1.93510E-04 1.20863E-05 1.65436E-24
 -1       818 1.94248E-04 9.73549E-06 0.00000E+00
 -1       819 1.94958E-04 7.46503E-06-8.27181E-25
 -1       820 1.95634E-04 5.28308E-06-1.65436E-24
 -1       821 1.84540E-04-9.36387E-07-1.65436E-24
 -1       822 1.84388E-04-6.33409E-06 0.00000E+00
 -1       823 1.84229E-04-1.31004E-05 3.30872E-24
 -1       824 1.84064E-04-2.05295E-05 0.00000E+00
 -1       825 1.83901E-04-2.77324E-05 0.00000E+00
 -1       826 1.83744E-04-3.38211E-05-1.65436E-24
 -1       827 1.83596E-04-3.82180E-05 0.00000E+00
 -1       828 1.83455E-04-4.03560E-05-1.65436E-24
 -1       829 1.83316E-04-4.02963E-05 0.00000E+00
 -1       830 1.83174E-04-3.81138E-05 0.00000E+00
 -1       831 1.83029E-04-3.44738E-05 3.30872E-24
 -1       832 1.82881E-04-3.00508E-05-1.65436E-24
 -1       833 1.82734E-04-2.57374E-05 0.00000E+00
 -1       834 1.82591E-04-2.24255E-05 0.00000E+00
 -1       835 1.82452E-04-2.07291E-05 1.65436E-24
 -1       836 1.86838E-04 2.52851E-06 3.30872E-24
 -1       837 1.88834E-04 2.66474E-06 0.00000E+00
 -1       838 1.90721E-04 2.80098E-06 0.00000E+00
 -1       839 1.92552E-04 2.93654E-06-1.65436E-24
 -1       840 1.94386E-04 3.07190E-06 0.00000E+00
 -1       856 1.82307E-04-2.28158E-05-8.27181E-25
 -1       857 1.82288E-04-2.42448E-05-2.58494E-26
 -1       858 1.82269E-04-2.55599E-05 0.00000E+00
 -1       859 1.82250E-04-2.67820E-05 2.06795E-25
 -1       860 1.82231E-04-2.79320E-05 4.13590E-25
 -1       861 1.82211E-04-2.90310E-05-2.06795E-25
 -1       862 1.82192E-04-3.01000E-05 0.00000E+00
 -1       863 1.82173E-04-3.11601E-05 0.00000E+00
 -1       864 1.82154E-04-3.22323E-05 0.00000E+00
 -1       865 1.82134E-04-3.33378E-05-2.06795E-25
 -1       866 1.82115E-04-3.44977E-05 8.27181E-25
 -1       867 1.82096E-04-3.57328E-05 0.00000E+00
 -1       868 1.82076E-04-3.70642E-05 8.27181E-25
 -1       869 1.82056E-04-3.85129E-05 0.00000E+00
 -1       870 1.82036E-04-4.00994E-05-8.27181E-25
 -1       871 1.84169E-04-2.12590E-05 8.27181E-25
 -1       872 1.86157E-04-2.12695E-05 0.00000E+00
 -1       873 1.88220E-04-2.12807E-05 0.00000E+00
 -1       874 1.90291E-04-2.12927E-05 7.75482E-26
 -1       875 1.92302E-04-2.13051E-05 6.20385E-25
 -1       876 1.83033E-04-2.28016E-05 3.30872E-24
 -1       877 1.83721E-04-2.42840E-05-1.65436E-24
 -1       878 1.84387E-04-2.57072E-05 3.30872E-24
 -1       879 1.85034E-04-2.70785E-05-1.65436E-24
 -1       880 1.85665E-04-2.84055E-05 0.00000E+00
 -1       881 1.86282E-04-2.96954E-05 0.00000E+00
 -1       882 1.86888E-04-3.09558E-05 3.30872E-24
 -1       883 1.87485E-04-3.21938E-05 0.00000E+00
 -1       884 1.88077E-04-3.34170E-05 3.30872E-24
 -1       885 1.88666E-04-3.46327E-05 0.00000E+00
 -1       886 1.89255E-04-3.58483E-05 0.00000E+00
 -1       887 1.89847E-04-3.70710E-05 1.65436E-24
 -1       888 1.90444E-04-3.83084E-05 0.00000E+00
 -1       889 1.91048E-04-3.95679E-05 0.00000E+00
 -1       890 1.91663E-04-4.08568E-05-1.65436E-24
 -1       891 1.83866E-04-4.19019E-05 1.65436E-24
 -1       892 1.85694E-04-4.19591E-05 0.00000E+00
 -1       893 1.87474E-04-4.20163E-05-8.27181E-25
 -1       894 1.89182E-04-4.20732E-05 4.13590E-25
 -1       895 1.90794E-04-4.21297E-05 4.13590E-25
 -1       956 1.96148E-04 1.31427E-06 0.00000E+00
 -1       957 1.96017E-04-4.65236E-07 8.27181E-25
 -1       958 1.95886E-04-2.15247E-06 0.00000E+00
 -1       959 1.95755E-04-3.75974E-06-1.65436E-24
 -1       960 1.95624E-04-5.29939E-06 3.30872E-24
 -1       961 1.95493E-04-6.78381E-06 0.00000E+00
 -1       962 1.95362E-04-8.22540E-06 3.30872E-24
 -1       963 1.95231E-04-9.63659E-06 0.00000E+00
 -1       964 1.95100E-04-1.10298E-05 0.00000E+00
 -1       965 1.94969E-04-1.24174E-05 1.65436E-24
 -1       966 1.94838E-04-1.38119E-05 3.30872E-24
 -1       967 1.94708E-04-1.52257E-05-1.65436E-24
 -1       968 1.94577E-04-1.66711E-05 0.00000E+00
 -1       969 1.94446E-04-1.81607E-05-1.65436E-24
 -1       970 1.94316E-04-1.97066E-05 0.00000E+00
 -1       971 1.94069E-04-2.29408E-05-3.30872E-24
 -1       972 1.93949E-04-2.44702E-05 0.00000E+00
 -1       973 1.93830E-04-2.59193E-05 0.00000E+00
 -1       974 1.93710E-04-2.72984E-05 0.00000E+00
 -1       975 1.93591E-04-2.86179E-05 0.00000E+00
 -1       976 1.93471E-04-2.98882E-05 0.00000E+00
 -1       977 1.93352E-04-3.11197E-05 0.00000E+00
 -1       978 1.93232E-04-3.23230E-05 1.65436E-24
 -1       979 1.93113E-04-3.35084E-05 3.30872E-24
 -1       980 1.92994E-04-3.46864E-05 0.00000E+00
 -1       981 1.92874E-04-3.58675E-05 3.30872E-24
 -1       982 1.92755E-04-3.70621E-05-1.65436E-24
 -1       983 1.92636E-04-3.82807E-05 0.00000E+00
 -1       984 1.92517E-04-3.95337E-05-1.65436E-24
 -1       985 1.92399E-04-4.08315E-05 3.30872E-24
 -3
    1PSTEP                        32          16           1          
  100CL  116 6.48575E-01         409                     0   16           1
 -4  STRESS      6    1
 -5  SXX         1    4    1    1
 -5  SYY         1    4    2    2
 -5  SZZ         1    4    3    3
 -5  SXY         1    4    1    2
 -5  SYZ         1    4    2    3
 -5  SZX         1    4    3    1
 -1         1-4.57599E+06-1.68461E+06-1.00566E+06-1.63046E+06-1.01863E-10 6.46105E-08
 -1         2 9.50384E+04-9.29146E+05 3.87804E+05 6.52332E+05 7.44694E-09 2.42202E-07
 -1         3-1.42995E+03-1.54422E+06 4.06152E+02-2.14881E+03-8.24777E-10-3.33530E-08
 -1         5-1.40545E+02 4.12982E+05 1.14094E+01-2.07482E+00-6.69308E-10-2.63390E-08
 -1         8-6.19016E+05-2.05035E+05-5.23102E+04-2.48999E+05-6.23913E-10 6.80520E-08
 -1         9 8.63530E+06-4.58953E+05 1.47872E+06-1.13645E+06 2.22586E-08-7.13859E-08
 -1        10-2.23759E+03-1.60916E+06-3.66760E+03-1.45405E+04-1.34842E-08-3.64378E-08
 -1        12-1.36240E+02 4.13007E+05 3.78744E+02-1.37385E+01-8.92502E-10 3.52156E-09
 -1        15 1.20566E+03 6.62588E+02 3.89718E+03 1.70927E+00-2.75165E-10 3.89315E-08
 -1        16 1.86913E+07-1.47683E+05 2.61894E+06-1.53361E+06 1.93637E-08 1.87351E-07
 -1        17 6.72005E+06 4.87116E+06 1.81592E+06 4.73502E+06 1.69588E-08 3.86150E-08
 -1        18 1.77771E+05 4.56595E+04 1.24753E+04-1.26983E+05 1.50428E-08 6.65432E-09
 -1        19 1.23510E+05 1.51181E+05-4.80646E+02 1.97107E+04 2.37087E-09 2.17296E-09
 -1        20-8.33541E+04-5.71206E+05-1.28289E+05 2.35268E+04-3.79941E-09 1.06981E-08
 -1        21-4.34904E+01-2.89588E+05-9.02512E+02 3.67184E+02 2.30959E-08 7.26098E-09
 -1        24 1.10153E+07 9.43573E+06 3.10472E+06 8.77194E+06-1.59547E-07-4.90303E-08
 -1        25 3.76693E+05 1.18567E+06 3.30399E+05-7.98225E+05 2.91913E-08-2.13317E-08
 -1        26-3.80556E+04 1.05258E+05-2.00937E+04-3.52123E+03-1.42900E-09 1.18634E-08
 -1        27-7.69560E+04-3.09441E+05-1.12506E+05 6.76821E+04 1.90554E-09-3.13563E-09
 -1        28 2.16255E+04-8.36548E+04 1.65180E+04 1.99837E+04-9.96101E-09 5.58489E-09
 -1        32-1.31978E+06-1.80796E+06 1.22197E+05 5.96502E+05-2.48547E-08-1.54071E-08
 -1        33-1.68913E+05 9.83968E+04 3.31174E+04-4.84579E+04-4.54823E-09 1.43033E-09
 -1        34-2.19467E+05-2.58324E+04 6.75093E+02 7.56794E+04-9.22666E-09-3.70513E-09
 -1        35-2.24113E+04-3.31207E+04-1.32162E+03 5.03279E+04-7.19887E-09 3.77622E-09
 -1        51 5.15324E+04-2.03560E+05 1.11106E+05-6.05300E+05 2.91038E-10-2.01639E-07
 -1        52 1.84059E+04-1.85501E+05 5.96899E+04-7.05664E+05 4.87489E-10-1.51224E-07
 -1        53 4.92537E+03-2.01055E+05 3.32849E+04-6.03070E+05 4.18368E-10 1.09721E-08
 -1        54 1.08369E+04-1.97424E+05 3.18208E+04-7.07990E+05 1.23691E-10-7.26868E-08
 -1        55 2.28536E+04-2.06611E+05 4.39250E+04-6.02753E+05 4.51109E-10 1.57848E-07
 -1        56-8.60465E+06-9.96936E+05-7.46846E+05-3.39227E+06-2.95113E-08 6.09434E-08
 -1        57-9.12629E+06-1.43082E+06-5.00581E+05-3.09138E+06-5.23869E-10-7.01402E-08
 -1        58-8.69120E+06-1.28991E+06-1.75167E+05-3.40970E+06 1.02809E-08-1.84518E-08
 -1        59-9.03232E+06-1.08337E+06-1.03860E+05-3.07571E+06-2.38651E-08-1.56724E-08
 -1        60-8.70145E+06-1.33260E+06-4.05347E+04-3.41444E+06 2.29484E-08-4.22770E-08
 -1        61-8.97188E+06-1.07433E+06-2.19555E+04-3.11253E+06-2.34122E-08-4.25807E-08
 -1        62-8.74796E+06-1.29990E+06-1.28872E+04-3.37080E+06-4.75848E-09 7.04258E-08
 -1        63-8.84718E+06-1.17897E+06-6.37759E+03-3.22871E+06-3.07800E-08 4.48217E-08
 -1        64-8.81926E+06-1.23244E+06-1.32800E+04-3.29325E+06-1.65492E-08 1.17112E-07
 -1        65-8.71792E+06-1.31654E+06-1.81993E+04-3.38252E+06 3.07773E-09 2.50852E-07
 -1        66-8.87809E+06-1.16190E+06-3.76033E+04-3.21770E+06-1.67165E-08 2.12262E-07
 -1        67-8.65824E+06-1.44552E+06-9.16207E+04-3.49526E+06-1.33296E-08 1.05360E-07
 -1        68-8.88665E+06-1.09956E+06-1.54665E+05-3.18549E+06-1.94377E-08 3.97631E-08
 -1        69-8.79710E+06-1.70959E+06-4.44754E+05-3.46853E+06-2.87400E-08-1.54861E-07
 -1        70-8.74329E+06-9.03911E+05-6.60779E+05-3.24357E+06-1.64291E-08 1.08063E-07
 -1        86-9.64731E+04-3.84044E+06-2.15670E+05-3.22345E+05-7.35786E-08 6.92307E-09
 -1        87 1.25217E+05-2.08659E+06 1.70544E+05 9.07533E+05-1.24892E-07 2.14419E-07
 -1        88-1.02643E+04-2.80820E+06 1.76838E+03-5.82790E+05-1.18302E-07 3.03565E-07
 -1        89 1.59730E+05-2.17406E+06 1.37369E+05 9.46522E+05-1.60531E-07-1.72764E-07
 -1        90-1.20575E+05-3.76398E+06-2.63675E+05-3.62244E+05-4.86580E-08 3.66319E-07
 -1       121-1.96020E+03-1.54894E+06-5.06949E+02 1.06532E+03 1.39093E-09 9.48057E-09
 -1       122-1.24843E+03-1.54428E+06 7.74694E+02-4.30121E+03-5.28014E-09 5.67979E-08
 -1       123-1.98256E+03-1.54908E+06 3.12653E+02 3.18179E+03 4.27121E-09-1.78916E-08
 -1       124 3.66680E+02-1.54382E+06 2.97797E+03-9.00585E+03-1.02841E-08-1.55724E-08
 -1       125-2.79048E+03-1.54996E+06 3.56576E+03 5.72669E+03 6.74481E-09 2.61934E-08
 -1       191-1.47867E+02 4.12988E+05 6.94197E+00 1.11027E+00-7.96885E-10-1.49448E-08
 -1       192-1.41688E+02 4.12982E+05 2.44807E+01-6.30162E+00-9.98585E-10 8.46376E-09
 -1       193-1.50852E+02 4.12988E+05 3.90150E+01 5.63462E+00-1.43377E-09-1.64582E-08
 -1       194-1.45342E+02 4.12986E+05 9.33893E+01-1.41897E+01-7.86790E-10-6.27733E-09
 -1       195-1.56579E+02 4.12985E+05 1.76137E+02 9.46937E+00-2.05058E-09 9.34961E-10
 -1       251-2.05121E+06-3.55152E+04-2.03103E+05-1.37743E+05 4.69299E-09 1.76031E-07
 -1       252-1.06842E+06 4.49693E+04 5.55513E+04 4.27590E+05 6.92262E-09 2.46355E-08
 -1       253-1.61850E+06-1.46243E+04-3.50399E+04-2.81536E+05-7.24231E-09-2.24874E-07
 -1       254-1.52865E+06 6.40234E+04 9.92093E+03 5.64097E+05 1.86100E-08-4.91746E-08
 -1       255-1.63562E+06-1.64792E+04-2.02451E+04-2.78368E+05 1.50412E-08 5.80144E-08
 -1       256-1.02612E+06 5.16346E+04 1.11854E+05 4.13876E+05-8.72933E-09 1.03508E-07
 -1       257-2.07238E+06-4.29537E+04-1.10286E+05-1.27009E+05 4.05817E-09 1.55269E-07
 -1       258-5.32367E+05 3.90114E+04 2.05379E+05 7.58412E+03 1.31222E-08-1.50253E-08
 -1       259-2.08175E+06-4.44352E+04-1.10583E+05 1.25163E+05-1.23655E-08 2.17528E-07
 -1       260-1.00487E+06 5.44034E+04 1.21238E+05-4.02386E+05-2.72912E-08-4.56823E-08
 -1       261-1.64608E+06-2.03446E+04-1.30056E+04 2.80096E+05 4.72819E-08-7.40016E-09
 -1       262-1.52459E+06 7.78340E+04 3.41574E+04-5.59521E+05-3.66299E-08-8.38398E-08
 -1       263-1.61267E+06-2.53948E+04 5.63914E+03 2.86923E+05-7.00311E-10 9.27375E-08
 -1       264-1.05915E+06 1.21573E+05 1.56744E+05-4.33826E+05 1.32703E-07 2.20024E-07
 -1       265-2.06873E+06-9.95274E+04-5.09760E+04 1.50237E+05 4.79922E-08 3.21234E-08
 -1       266-2.18259E+04-1.02062E+04 5.12080E+04-3.65733E+01 5.09317E-11 1.36024E-07
 -1       267 2.53022E+04 1.18950E+04 3.61940E+04 4.21995E+01 1.80080E-10 1.60243E-07
 -1       268-3.39294E+03-1.68465E+03 1.34531E+04-5.37687E+00-1.66438E-10 8.68433E-08
 -1       269 4.00613E+03 2.01621E+03 8.74435E+03 6.26329E+00-2.72394E-10-4.62152E-08
 -1       270-6.01288E+02-3.31242E+02 4.22103E+03-8.49956E-01-7.33280E-11 9.94228E-08
 -1       271-1.96498E+06-2.36002E+05-1.45903E+05-7.51351E+05-2.06892E-08 1.12617E-07
 -1       272-2.06960E+06-2.91139E+05-9.39341E+04-6.91884E+05-2.48242E-08 4.89144E-08
 -1       273-1.99144E+06-2.73497E+05-3.44352E+04-7.45972E+05 1.81126E-09-1.45197E-07
 -1       274-2.03809E+06-2.45486E+05-1.93110E+04-7.00252E+05-8.10178E-09-1.70999E-08
 -1       275-1.99546E+06-2.77154E+05-8.03580E+03-7.44521E+05-1.71067E-08-4.39577E-08
 -1       276-2.03177E+06-2.42334E+05-4.18584E+03-7.03124E+05 3.03044E-09 1.45280E-07
 -1       277-1.99718E+06-2.76465E+05-2.13074E+03-7.42928E+05-2.61025E-09 1.61669E-07
 -1       278-2.02766E+06-2.44965E+05-1.27047E+03-7.06370E+05 4.46325E-08 2.02668E-07
 -1       279-1.99893E+06-2.74867E+05-1.49801E+03-7.40847E+05-2.76195E-08 1.54064E-08
 -1       280-2.02330E+06-2.49233E+05-2.12390E+03-7.10473E+05-7.48423E-09 3.56004E-08
 -1       281-2.00088E+06-2.72639E+05-4.30300E+03-7.38354E+05-2.63499E-08 1.18684E-07
 -1       282-2.01998E+06-2.56580E+05-9.44641E+03-7.15104E+05 2.79560E-08 1.36153E-07
 -1       283-2.00170E+06-2.68152E+05-1.74192E+04-7.35718E+05 6.16819E-09-1.19160E-07
 -1       284-2.02925E+06-2.85007E+05-4.63444E+04-7.17401E+05-2.23854E-08-7.20070E-09
 -1       285-1.99154E+06-2.46833E+05-7.27421E+04-7.34935E+05 1.20963E-08-4.82360E-08
 -1       301 1.11072E+04-5.23668E+05 1.73942E+05-9.08415E+05 1.11322E-09 2.63681E-08
 -1       302 1.23295E+04-4.78978E+05 1.05497E+05-1.32762E+06-4.18368E-09-8.63893E-08
 -1       303-8.08980E+03-5.10553E+05 6.32259E+04-9.06087E+05 1.22964E-09-1.18825E-07
 -1       304-1.25372E+03-4.83604E+05 6.98885E+04-1.32690E+06 2.75031E-09-1.26533E-07
 -1       305-5.56901E+03-5.06812E+05 9.43090E+04-9.08858E+05 1.87538E-09 8.66276E-08
 -1       306-2.66067E+07-5.40288E+06-7.36323E+06-1.15936E+06-8.07922E-08-1.21945E-08
 -1       307 2.19511E+07 1.90667E+06 4.74779E+06-1.26038E+07-8.27291E-07-3.09374E-08
 -1       308-7.79250E+06-7.29217E+05-5.64116E+05 4.48575E+06-1.35973E-07 1.32961E-07
 -1       309-3.62392E+06 6.26025E+06 1.76757E+06-1.84244E+07 5.10525E-07 2.62007E-08
 -1       310-1.09161E+07-1.20533E+06-1.38501E+06 4.36989E+06-1.61817E-08-2.65427E-08
 -1       311 2.91836E+07-2.02315E+05 5.79599E+06-8.78793E+06 1.22614E-07-1.45475E-07
 -1       312-2.75287E+07-5.44003E+06-6.94832E+06-3.77074E+06-1.28057E-07 1.35362E-07
 -1       313 3.88737E+07 1.03554E+07 8.92746E+06 1.81039E+07-2.17406E-08-8.67294E-09
 -1       314-1.67878E+07-1.40895E+07-6.37974E+06-1.10287E+07 3.14089E-07-1.46683E-07
 -1       315-6.78398E+05 2.38611E+07 4.90479E+06 1.06028E+07-8.56118E-07 6.50762E-08
 -1       316 2.03474E+05-9.06357E+06-5.32230E+05-3.56102E+06-1.16757E-06-3.10480E-07
 -1       317-1.69809E+07 1.95074E+07 1.73506E+06-5.77350E+06 8.00537E-07-6.90281E-07
 -1       318-1.24657E+06-1.04263E+07-1.43051E+06-4.42284E+06-8.69448E-07 1.05792E-07
 -1       319 4.53324E+06 2.50822E+07 5.55320E+06 1.33819E+07-1.11198E-07 2.49827E-07
 -1       320-1.97395E+07-1.44212E+07-8.10740E+06-1.09485E+07 1.62050E-07-2.09257E-08
 -1       336-6.92002E+02-1.67680E+06-1.32054E+04 8.65367E+03-2.56132E-08 1.08739E-08
 -1       337-5.13840E+03-1.67629E+06-1.68413E+04-2.10247E+04-4.79702E-08-2.75941E-09
 -1       338 1.63703E+02-1.67640E+06-2.62470E+04 1.21336E+04-3.39987E-08-1.17325E-08
 -1       339-2.76911E+04-1.69207E+06-5.89979E+04-2.78314E+04-6.14964E-08 3.12866E-09
 -1       340 1.81403E+04-1.66310E+06-9.29263E+04 1.53420E+04-4.04834E-08 2.54295E-08
 -1       406-1.13851E+02 4.12968E+05 7.40882E+02 5.63938E+00-2.66749E-09 1.13396E-08
 -1       407 1.25211E+02 4.13138E+05 1.58933E+03 3.04798E+01-8.27868E-10-5.91717E-09
 -1       408 6.77273E+02 4.12852E+05 3.16547E+03-3.59686E+01-3.47609E-09 9.45874E-11
 -1       409 3.30648E+03 4.14149E+05 7.14054E+03 3.93756E+02-3.87786E-10-9.45329E-09
 -1       410 9.74396E+03 4.11933E+05 1.45712E+04-3.83523E+02-3.91810E-09 2.24463E-09
 -1       521-2.82622E+07-6.65273E+06-8.63409E+06-8.56754E+05-1.08150E-07 1.81608E-08
 -1       522 2.28116E+07 2.55387E+06 4.84448E+06-1.56920E+07-4.51808E-07-2.85916E-07
 -1       523-8.55728E+06-1.01528E+06-5.84659E+05 4.94401E+06 7.68341E-09-2.58573E-07
 -1       524-6.73132E+06 8.74234E+06 1.92690E+06-2.13803E+07 7.89805E-07-4.23985E-07
 -1       525-1.19024E+07-1.69151E+06-1.53262E+06 4.81918E+06 5.17466E-07-3.09752E-07
 -1       526 3.17980E+07-2.15515E+05 6.12733E+06-1.12635E+07 5.61122E-07 4.19677E-08
 -1       527-2.93935E+07-6.86870E+06-8.02950E+06-3.68554E+06 5.99539E-08 1.26907E-07
 -1       528 4.26792E+07 1.14127E+07 9.35830E+06 2.06024E+07-8.16653E-08-2.93425E-07
 -1       529-1.78516E+07-1.60638E+07-7.33938E+06-1.12718E+07-5.41913E-08 1.40164E-07
 -1       530-2.90202E+06 2.79650E+07 5.20485E+06 1.06558E+07-2.97077E-07 5.61238E-07
 -1       531 1.38272E+05-1.02162E+07-5.34653E+05-3.71161E+06-8.96922E-07 1.85217E-07
 -1       532-1.99678E+07 2.18393E+07 1.91756E+06-9.15154E+06 4.36063E-07-6.63698E-07
 -1       533-1.33589E+06-1.16200E+07-1.52263E+06-4.50662E+06-1.86090E-07-9.30566E-07
 -1       534 2.66198E+06 2.93095E+07 5.82412E+06 1.39615E+07-2.49420E-08 6.67525E-07
 -1       535-2.09659E+07-1.65089E+07-9.30070E+06-1.11816E+07 8.64966E-08 4.13624E-07
 -1       536-8.00750E+05-5.94793E+04-6.06868E+04-6.25474E+04-5.10772E-09 8.02920E-08
 -1       537 3.75518E+04 5.72429E+04 1.08988E+05 1.40599E+05-1.29857E-07 1.24895E-07
 -1       538-4.10512E+05 3.32106E+03 3.17383E+03-8.15383E+04 3.53559E-08 1.13469E-07
 -1       539-2.51940E+05 3.92905E+03 3.03095E+04 1.58159E+05 1.80418E-07 1.04872E-07
 -1       540-5.18610E+05 2.55415E+01-2.39269E+04-8.09092E+04 2.48228E-08 1.24513E-07
 -1       541 2.42821E+05 2.03058E+04 1.26955E+05 1.16344E+05-1.44178E-08 7.67809E-08
 -1       542-8.91866E+05-2.43564E+04-1.01826E+05-3.85290E+04 6.35896E-08 4.58018E-08
 -1       543 5.77743E+05 3.36229E+04 1.93808E+05-1.15287E+04-1.13687E-08-2.83212E-08
 -1       544-8.44503E+05-2.08286E+04-9.30035E+04 4.61156E+04-1.80594E-08-5.06416E-08
 -1       545 1.29993E+05 1.25345E+04 1.01039E+05-1.29304E+05 5.75183E-08-9.22462E-08
 -1       546-4.56206E+05 6.82845E+03-1.57039E+04 7.87142E+04 3.56499E-08-9.89226E-08
 -1       547-2.67562E+05-4.55715E+03 1.52772E+04-1.60895E+05-1.35501E-07-1.10136E-07
 -1       548-4.57706E+05 5.35103E+03-2.61309E+04 7.86587E+04-1.36101E-07-9.89189E-08
 -1       549 1.35694E+05 2.43185E+04 7.97755E+04-1.29215E+05-7.48624E-08-8.19873E-08
 -1       550-8.48658E+05-3.11676E+04-1.47796E+05 4.60776E+04 1.54832E-08-4.61077E-08
 -1       551 4.12259E+04-7.81095E+05-9.58538E+03-1.21401E+06-9.94187E-08 1.24855E-08
 -1       552 8.97615E+04-8.22367E+05 1.33557E+04-1.73187E+06-6.74045E-08 4.84069E-08
 -1       553 6.82438E+04-8.17647E+05 3.46133E+04-1.20790E+06-1.15877E-07 3.66854E-08
 -1       554 1.25759E+05-8.32790E+05 8.41828E+04-1.73364E+06-7.55244E-08 1.40153E-08
 -1       555 9.67217E+04-8.39000E+05 1.52871E+05-1.20807E+06-1.18001E-07-1.02955E-08
 -1       556 1.92470E+05-3.32937E+05 3.70061E+04-3.59367E+05-2.20462E-08-2.76486E-09
 -1       557 3.09542E+05-4.25023E+05 2.15263E+04-4.62078E+05-3.05590E-09 1.05538E-08
 -1       558 1.78384E+05-3.29704E+05 5.15296E+03-3.60508E+05-2.63099E-08-1.13214E-08
 -1       559 2.87525E+05-4.27656E+05 3.62631E+03-4.79208E+05 1.61235E-08-2.67028E-09
 -1       560 1.65885E+05-3.21846E+05-7.24998E+02-3.69496E+05 7.79983E-09-1.49812E-08
 -1       561 2.71472E+05-4.21389E+05 3.75529E+02-4.90166E+05 4.71482E-09-2.03327E-08
 -1       562 1.55750E+05-3.15535E+05-1.17308E+03-3.76871E+05 4.96220E-09-1.28784E-08
 -1       563 2.59225E+05-4.16063E+05-5.52659E+01-4.98198E+05 9.21864E-09-9.19317E-09
 -1       564 1.48242E+05-3.10858E+05-6.85037E+02-3.82217E+05 5.10772E-09-4.47653E-09
 -1       565 2.50664E+05-4.12346E+05-9.50357E+01-5.03693E+05 3.57250E-09 5.20447E-09
 -1       566 1.43471E+05-3.07836E+05-4.50010E+02-3.85566E+05-1.00554E-08-1.19417E-09
 -1       567 2.45824E+05-4.10269E+05-6.00983E+02-5.06674E+05 1.49230E-08 3.84534E-09
 -1       568 1.41512E+05-3.06625E+05-1.48023E+03-3.87000E+05-5.97720E-09 1.24055E-08
 -1       569 2.43396E+05-4.10100E+05-3.61449E+03-5.06459E+05-1.09846E-08 1.12959E-08
 -1       570 1.43356E+05-3.09014E+05-7.42717E+03-3.86443E+05 2.90675E-09 8.81846E-09
 -1       571 2.90613E+05 1.02972E+04 1.44282E+04-1.12243E+05 5.25324E-09 3.79987E-09
 -1       572 2.92668E+05 4.02522E+03 7.07278E+03-1.23098E+05 1.21036E-08-8.27822E-09
 -1       573 2.91406E+05 1.39916E+03 3.14247E+03-1.12020E+05 5.61613E-09-5.05861E-09
 -1       574 2.91578E+05 9.30081E+02 1.57676E+03-1.23380E+05 4.20641E-09 1.02682E-09
 -1       575 2.91475E+05 6.43446E+02 7.43936E+02-1.11989E+05-1.95996E-10 3.74439E-09
 -1       576 2.91434E+05 6.79189E+02 3.80634E+02-1.23417E+05-9.63439E-09-1.47847E-08
 -1       577 2.91512E+05 5.88595E+02 1.88443E+02-1.11985E+05-7.39419E-09 1.52586E-08
 -1       578 2.91472E+05 6.37656E+02 1.05910E+02-1.23422E+05-6.18184E-09 1.29203E-08
 -1       579 2.91600E+05 5.42607E+02 6.61797E+01-1.11985E+05 1.88447E-08 1.07275E-08
 -1       580 2.91600E+05 5.70850E+02 6.85773E+01-1.23417E+05 5.61340E-09 8.86303E-09
 -1       581 2.91749E+05 4.61175E+02 9.24406E+01-1.11992E+05 1.36861E-08 1.16870E-08
 -1       582 2.91815E+05 4.92199E+02 1.85903E+02-1.23347E+05 4.91855E-09 5.62977E-10
 -1       583 2.91947E+05 4.27010E+02 3.45920E+02-1.12057E+05 4.28554E-09-1.93631E-09
 -1       584 2.92198E+05 7.13242E+02 7.88184E+02-1.22803E+05 1.01791E-08-5.26870E-09
 -1       585 2.92088E+05 1.32152E+03 1.58328E+03-1.12536E+05-1.64800E-09-1.08048E-08
 -1       586-2.32077E+03 1.40277E+05-1.06174E+03-2.38683E+05-5.81781E-09-8.93579E-09
 -1       587-1.10161E+03 1.40274E+05 1.54443E+03-2.62546E+05-6.58474E-09 5.44014E-09
 -1       588 2.77766E+02 1.39872E+05 4.82989E+03-2.38479E+05-3.73075E-09 6.95627E-09
 -1       589 4.61952E+03 1.42185E+05 1.17630E+04-2.62470E+05-9.80071E-09 1.38562E-08
 -1       590 1.54585E+04 1.38534E+05 2.43836E+04-2.38820E+05-7.27732E-09 1.52495E-08
 -1       591-9.90114E+04-2.09144E+04-2.57125E+04-4.25871E+04-5.35806E-09-4.62569E-09
 -1       592-1.03291E+05-2.53599E+04-1.39279E+04-4.71751E+04-4.92537E-09-1.14144E-08
 -1       593-1.01594E+05-1.90378E+04-5.79755E+03-4.44611E+04 4.29498E-09 5.08635E-09
 -1       594-9.97331E+04-2.15953E+04-2.89125E+03-4.73209E+04-5.25927E-09 1.08762E-08
 -1       595-1.01792E+05-1.90305E+04-1.32748E+03-4.45464E+04-5.07634E-09 1.74121E-08
 -1       596-9.94902E+04-2.14233E+04-6.74593E+02-4.72934E+04 7.84797E-09 4.28655E-09
 -1       597-1.01817E+05-1.90476E+04-3.66991E+02-4.45497E+04 3.13469E-09-7.57683E-09
 -1       598-9.94664E+04-2.14165E+04-2.94431E+02-4.72857E+04-7.43950E-09-1.68370E-10
 -1       599-1.01815E+05-1.90483E+04-3.75396E+02-4.45493E+04 1.05779E-08 2.17404E-08
 -1       600-9.94902E+04-2.14240E+04-6.96819E+02-4.72909E+04 5.50415E-09-5.45424E-09
 -1       601-1.01786E+05-1.90321E+04-1.37450E+03-4.45451E+04 3.05477E-09-5.19003E-09
 -1       602-9.97415E+04-2.16013E+04-2.99539E+03-4.73152E+04-5.68912E-09-4.85988E-09
 -1       603-1.01579E+05-1.90428E+04-6.00710E+03-4.44573E+04-3.32807E-09-1.68830E-08
 -1       604-1.03442E+05-2.54850E+04-1.44303E+04-4.71420E+04 3.14105E-09 7.91124E-09
 -1       605-9.88848E+04-2.10022E+04-2.66402E+04-4.25319E+04 7.80182E-09 1.45637E-08
 -1       606 2.58673E+04-1.48706E+04-2.66437E+04 2.20271E+04 1.03364E-08-1.31677E-08
 -1       607 2.13163E+04-4.86460E+03-1.32688E+04 2.47652E+04 3.84853E-09-1.79427E-08
 -1       608 2.39137E+04-8.84798E+02-5.93952E+03 2.18814E+04-4.06908E-09-1.12241E-08
 -1       609 2.34196E+04-3.13109E+02-3.00072E+03 2.49632E+04 2.13731E-09 8.93374E-09
 -1       610 2.36968E+04-5.44037E+01-1.43140E+03 2.18635E+04 5.44242E-09 4.30146E-09
 -1       611 2.36223E+04-5.86045E+01-7.21972E+02 2.49845E+04 1.04992E-08-1.04726E-08
 -1       612 2.36518E+04-4.26044E+01-3.43284E+02 2.18617E+04 8.38372E-09-1.10683E-08
 -1       613 2.36383E+04-5.65866E+01-1.54506E+02 2.49870E+04 1.21995E-08-1.37068E-08
 -1       614 2.36320E+04-5.11539E+01-3.74123E+01 2.18610E+04 5.03223E-09 2.22349E-09
 -1       615 2.36358E+04-5.67645E+01 6.13755E+01 2.49874E+04-5.94264E-09 1.98870E-08
 -1       616 2.36165E+04-4.93881E+01 1.87268E+02 2.18613E+04 1.14019E-08-9.32255E-09
 -1       617 2.36604E+04-1.78437E+01 4.28226E+02 2.49870E+04 1.32295E-08-2.01378E-08
 -1       618 2.35806E+04 7.33008E+01 8.63682E+02 2.18617E+04 2.83694E-09-6.40330E-09
 -1       619 2.39664E+04 6.49431E+02 1.93970E+03 2.49866E+04-3.87763E-09-1.75351E-09
 -1       620 2.32943E+04 2.12127E+03 3.89891E+03 2.18644E+04-1.34821E-09 7.88532E-10
 -1       621 8.65555E+02 3.31413E+05 6.13865E+03 4.95678E+04 1.40926E-09 4.40923E-09
 -1       622 1.08707E+03 3.32844E+05 4.89911E+03 7.19343E+04 1.69621E-09 6.50971E-09
 -1       623 2.22772E+02 3.31812E+05 5.20035E+03 4.93547E+04 1.80239E-09-2.26464E-09
 -1       624 2.55812E+03 3.34043E+05 9.50966E+03 7.21350E+04 1.69837E-09-4.95716E-08
 -1       625 2.46592E+03 3.29974E+05 1.63519E+04 4.93586E+04 2.13868E-09-7.09406E-10
 -1       626 2.57538E+05 5.83457E+04 3.73120E+03 1.23183E+05 4.68299E-09 2.06637E-09
 -1       627 2.55281E+05 5.99226E+04 1.79810E+03 1.26944E+05 1.17871E-09 1.92668E-08
 -1       628 2.57645E+05 5.66226E+04 7.60820E+02 1.23798E+05-5.69980E-09 5.65853E-09
 -1       629 2.54800E+05 5.94447E+04 3.73181E+02 1.27138E+05-3.28055E-09-2.99042E-09
 -1       630 2.57657E+05 5.65389E+04 1.74708E+02 1.23822E+05-4.19641E-09-1.27926E-08
 -1       631 2.54750E+05 5.94274E+04 9.72070E+01 1.27141E+05 8.29823E-09 5.54769E-09
 -1       632 2.57654E+05 5.65413E+04 6.99211E+01 1.23819E+05 1.32882E-08 7.16227E-10
 -1       633 2.54744E+05 5.94282E+04 8.68544E+01 1.27139E+05 1.60162E-09-1.27602E-09
 -1       634 2.57650E+05 5.65373E+04 1.48408E+02 1.23820E+05-7.78672E-09 1.06420E-08
 -1       635 2.54759E+05 5.94260E+04 3.05324E+02 1.27145E+05-9.04811E-09-6.78801E-09
 -1       636 2.57641E+05 5.65311E+04 6.19145E+02 1.23819E+05-8.06085E-09-8.43920E-09
 -1       637 2.54893E+05 5.95228E+04 1.36272E+03 1.27145E+05-2.38861E-08-1.37288E-08
 -1       638 2.57593E+05 5.68323E+04 2.80054E+03 1.23683E+05-8.23138E-09 4.23961E-09
 -1       639 2.56360E+05 6.15729E+04 6.62656E+03 1.26715E+05 2.48656E-09-4.35625E-09
 -1       640 2.57388E+05 6.29429E+04 1.37516E+04 1.21107E+05 1.09535E-08 1.97563E-08
 -1       656 6.61895E+04-1.69527E+06-1.59775E+05-3.35149E+03-6.83940E-10-1.02125E-08
 -1       657-8.75480E+04-1.76749E+06-1.32341E+05 4.07257E+03-9.06766E-10-8.26105E-09
 -1       658 2.10806E+04-1.71579E+06-8.14686E+04-5.34441E+03-7.60110E-10-5.21847E-09
 -1       659-9.45747E+04-1.77082E+06-1.41577E+05 5.76196E+03-2.86764E-09-1.07892E-10
 -1       660 7.32002E+04-1.69195E+06-1.75656E+05-5.04087E+03-2.18279E-09 1.36923E-08
 -1       661 1.53043E+05 1.59029E+04 1.62645E+04 5.97579E+04-3.10547E-09 2.67928E-08
 -1       662 1.62230E+05 2.79566E+04 1.09611E+04 5.61163E+04-2.56750E-09-1.90175E-08
 -1       663 1.56236E+05 2.11226E+04 3.83351E+03 5.88328E+04-2.61252E-09-6.46401E-09
 -1       664 1.58528E+05 2.18518E+04 2.29319E+03 5.72457E+04-2.97928E-09-1.34767E-08
 -1       665 1.56720E+05 2.18362E+04 9.04654E+02 5.86923E+04 1.17558E-09-6.34446E-09
 -1       666 1.57957E+05 2.10352E+04 5.29475E+02 5.74285E+04 1.65863E-08 2.02630E-09
 -1       667 1.56804E+05 2.19179E+04 2.81365E+02 5.86576E+04 7.10543E-11 1.65573E-08
 -1       668 1.57864E+05 2.09757E+04 2.86963E+02 5.74786E+04-8.34922E-09-1.24076E-08
 -1       669 1.56811E+05 2.18941E+04 3.88755E+02 5.86424E+04-6.50999E-09 1.07294E-08
 -1       670 1.57960E+05 2.11858E+04 8.46721E+02 5.74804E+04-1.71732E-08 2.30199E-08
 -1       671 1.56709E+05 2.17122E+04 1.50351E+03 5.86539E+04 3.10178E-09-9.51633E-09
 -1       672 1.58837E+05 2.26479E+04 3.84675E+03 5.72675E+04 1.38303E-08-1.00852E-08
 -1       673 1.55939E+05 2.04690E+04 6.44657E+03 5.88412E+04 5.71265E-09 9.33210E-09
 -1       674 1.64971E+05 3.30062E+04 1.84359E+04 5.54662E+04 4.50484E-09 2.67369E-09
 -1       675 1.50614E+05 1.16441E+04 2.73653E+04 6.03465E+04-3.99541E-09-2.23554E-09
 -1       676 2.36756E+01-2.89512E+05-1.08777E+03-1.83599E+02 2.78499E-09 1.73337E-09
 -1       677-2.86709E+02-2.89776E+05-1.99079E+03 3.66908E+02 6.77502E-09-2.38800E-08
 -1       678 1.93105E+02-2.89325E+05-3.51923E+03-1.83192E+02 4.25644E-10-2.01805E-08
 -1       679-3.51824E+03-2.91900E+05-8.36019E+03 3.65349E+02 1.29662E-08-9.29941E-09
 -1       680 2.10130E+03-2.87389E+05-1.34738E+04-1.80018E+02 1.47702E-09 1.32891E-09
 -1       771-3.00008E+06-7.20994E+05-1.48659E+05-1.42924E+06-3.39205E-08-2.46218E-08
 -1       772-2.92517E+06-8.05988E+05-7.65899E+04-1.52754E+06-3.17814E-08 3.84534E-09
 -1       773-3.02886E+06-6.98468E+05-3.91113E+04-1.44199E+06-4.56930E-09 1.32422E-08
 -1       774-2.91662E+06-7.89672E+05-1.74296E+04-1.55126E+06 3.51138E-08-3.78350E-09
 -1       775-3.04389E+06-6.87881E+05-1.30715E+04-1.44829E+06-3.34694E-09 1.40426E-09
 -1       776-2.92776E+06-7.87015E+05-4.88301E+03-1.56906E+06-7.46513E-09 3.41970E-09
 -1       777-3.05690E+06-6.78479E+05-5.78763E+03-1.45385E+06-2.82307E-09 2.93221E-09
 -1       778-2.93934E+06-7.84545E+05-1.65223E+03-1.58432E+06 2.21189E-09 5.74801E-09
 -1       779-3.06804E+06-6.70293E+05-2.93435E+03-1.45860E+06-1.96451E-08-4.11092E-09
 -1       780-2.94952E+06-7.82199E+05-5.86655E+02-1.59673E+06-2.82307E-08 3.32147E-09
 -1       781-3.07686E+06-6.63711E+05-1.34520E+03-1.46230E+06-4.32774E-08-1.90994E-09
 -1       782-2.95737E+06-7.80240E+05-1.00993E+02-1.60587E+06-3.25381E-08-7.17591E-09
 -1       783-3.08302E+06-6.59160E+05-3.87883E+02-1.46488E+06-3.36877E-09-1.92267E-08
 -1       784-2.96230E+06-7.78902E+05 1.46764E+02-1.61147E+06-1.43809E-08-8.38236E-09
 -1       785-3.08620E+06-6.56798E+05 5.55015E+01-1.46620E+06-3.17123E-08 5.80440E-09
 -1       786 2.28263E+05-1.23443E+04 2.85637E+04-5.82508E+02-7.59636E-05-2.47534E-07
 -1       787 2.40639E+05 1.42943E+04 2.02076E+04-6.30951E+02-1.51358E-04-4.05807E-07
 -1       788 2.33038E+05-1.93390E+03 7.39269E+03-5.80609E+02-1.04944E-04-2.34058E-07
 -1       789 2.35077E+05 2.24094E+03 4.64419E+03-6.30838E+02-5.80839E-05-1.50204E-07
 -1       790 2.33826E+05-3.00813E+02 1.88835E+03-5.82648E+02-1.40094E-05-3.83341E-08
 -1       791 2.34157E+05 3.52453E+02 1.10585E+03-6.31129E+02 3.00681E-05 7.77080E-08
 -1       792 2.33958E+05-4.68366E+01 4.99167E+02-5.80323E+02 6.63814E-05 1.41785E-07
 -1       793 2.34007E+05 6.68304E+01 3.15706E+02-6.42469E+02 1.02467E-04 2.80247E-07
 -1       794 2.33977E+05-1.53833E+01 2.16513E+02-5.71310E+02 5.13510E-05 1.05825E-07
 -1       795 2.34012E+05 8.17989E+01 2.88039E+02-6.70889E+02 1.68600E-07 1.81017E-08
 -1       796 2.33954E+05-6.17955E+01 4.16277E+02-5.51903E+02 8.20270E-09-6.26316E-09
 -1       797 2.34196E+05 4.63233E+02 9.68994E+02-7.27440E+02 3.38355E-09-2.53448E-08
 -1       798 2.33792E+05-3.96541E+02 1.52528E+03-5.14756E+02 8.44508E-09-6.96940E-09
 -1       799 2.35341E+05 2.93891E+03 4.15510E+03-8.32563E+02 3.39086E-09-1.14239E-08
 -1       800 2.32809E+05-2.53551E+03 5.86723E+03-4.46773E+02 7.51998E-10 1.87651E-09
 -1       801-2.93769E+05-1.06429E+07-1.62992E+06 1.77311E+06 6.50616E-08-6.86232E-08
 -1       802 1.13760E+06 1.43255E+07 3.77060E+06-2.36573E+06-1.76951E-08-3.62670E-08
 -1       803-7.73188E+05-1.88173E+07-2.94687E+06 1.04824E+06 1.80742E-07 5.00495E-08
 -1       804 5.65711E+05 9.87695E+06 2.91645E+06 5.82288E+05-3.00060E-08-1.28288E-07
 -1       805 1.71507E+05-6.16610E+06-3.49974E+05-1.18105E+06-1.14824E-07-1.04907E-07
 -1       806-2.92063E+05-6.76018E+04-2.56305E+04-1.27963E+05-1.24489E-08-7.18501E-10
 -1       807-2.92770E+05-6.47334E+04-1.25915E+04-1.35715E+05 8.16391E-09-5.43878E-10
 -1       808-2.92843E+05-5.82904E+04-5.34099E+03-1.32254E+05-7.95886E-09 8.12690E-10
 -1       809-2.90055E+05-6.12659E+04-2.61076E+03-1.36115E+05-7.59128E-09 4.58203E-09
 -1       810-2.92961E+05-5.79599E+04-1.19561E+03-1.32442E+05 6.09248E-09 8.94374E-09
 -1       811-2.89845E+05-6.11313E+04-5.93175E+02-1.36087E+05 2.77032E-09 3.02321E-08
 -1       812-2.92978E+05-5.79851E+04-2.96933E+02-1.32440E+05-5.47288E-09 1.78807E-09
 -1       813-2.89814E+05-6.11370E+04-1.89048E+02-1.36068E+05-6.84258E-09-6.11362E-09
 -1       814-2.92969E+05-5.79975E+04-1.80513E+02-1.32433E+05 1.10140E-09-1.34332E-08
 -1       815-2.89810E+05-6.11428E+04-2.85169E+02-1.36057E+05 3.35785E-09-1.71531E-09
 -1       816-2.92941E+05-5.80007E+04-5.37056E+02-1.32424E+05 9.43692E-09-4.66116E-10
 -1       817-2.89892E+05-6.11971E+04-1.15100E+03-1.36036E+05-1.58707E-08-1.35653E-08
 -1       818-2.92859E+05-5.81709E+04-2.34747E+03-1.32343E+05 1.22327E-09-1.06015E-08
 -1       819-2.91185E+05-6.25975E+04-5.52217E+03-1.35695E+05 1.08398E-08-1.70576E-08
 -1       820-2.92378E+05-6.23724E+04-1.12408E+04-1.30580E+05 6.01449E-09 2.61934E-09
 -1       821-3.89505E+05 2.13523E+04-5.03892E+04 3.23098E+03 1.99173E-08 8.17818E-09
 -1       822-4.06873E+05-2.47720E+04-3.48723E+04-7.30163E+03 9.38159E-09 5.86442E-09
 -1       823-3.95898E+05 3.39896E+03-1.29598E+04 5.77143E+03-1.96376E-08 3.70892E-09
 -1       824-3.98750E+05-3.90495E+03-8.02826E+03-9.41885E+03 6.19567E-09 1.40320E-08
 -1       825-3.97665E+05 5.34418E+02-3.44547E+03 5.34867E+03 3.76223E-08-4.06783E-09
 -1       826-3.94771E+05-5.22413E+02-1.42937E+03-5.87174E+03 4.27049E-08-1.29257E-08
 -1       827-3.99813E+05-3.25814E+01-1.53782E+03 2.22376E+03 2.04522E-08-1.25631E-08
 -1       828-3.92863E+05-2.58176E+01 1.12773E+01 1.32543E+03-3.37045E-09 4.57823E-09
 -1       829-3.99528E+05 2.15626E+00-1.48595E+03-1.84846E+03 1.73287E-09 1.34477E-09
 -1       830-3.95360E+05-6.02897E+02-1.58356E+03 8.09155E+03-5.62153E-09 1.31760E-08
 -1       831-3.97377E+05 5.93637E+02-3.42856E+03-4.54220E+03-1.04651E-08-3.11070E-09
 -1       832-3.98755E+05-4.02072E+03-8.15324E+03 1.05838E+04-7.64405E-09 3.04533E-09
 -1       833-3.96182E+05 3.45618E+03-1.32063E+04-4.34087E+03-2.47755E-09 4.97039E-09
 -1       834-4.06379E+05-2.51457E+04-3.52608E+04 7.33877E+03-3.93223E-09 1.87706E-08
 -1       835-3.89699E+05 2.16551E+04-5.11872E+04-1.29696E+03 5.71396E-09 8.16726E-09
 -1       836-1.60096E+03 3.95557E+05 2.46555E+04-2.86398E+04-9.07858E-09 1.17043E-08
 -1       837 5.13128E+03 4.03330E+05 2.05567E+04-5.84002E+04-9.69521E-09 8.40600E-10
 -1       838-6.34593E+02 3.97760E+05 2.05053E+04-2.85387E+04-8.44193E-09-7.61429E-09
 -1       839 1.26101E+04 4.08878E+05 3.83575E+04-5.84444E+04-9.12678E-09-3.69198E-11
 -1       840-3.99276E+03 3.89919E+05 6.09699E+04-2.86046E+04-8.40737E-09 3.35513E-09
 -1       856-4.95428E+04 7.76667E+03-2.04661E+04-3.67281E+02 7.06302E-09 4.40468E-09
 -1       857-5.79680E+04-9.13082E+03-1.40885E+04 5.59003E+03 6.19625E-09 8.39464E-09
 -1       858-5.28819E+04 1.08954E+03-5.31041E+03-3.91953E+02 5.09766E-09 8.24912E-10
 -1       859-5.41362E+04-1.28697E+03-3.20445E+03 5.62623E+03-4.24512E-09 4.86693E-09
 -1       860-5.33807E+04 1.52935E+02-1.34280E+03-4.03103E+02-3.76701E-10 2.35661E-09
 -1       861-5.35625E+04-1.87664E+02-7.38264E+02 5.64141E+03 3.51039E-09-1.29317E-08
 -1       862-5.34588E+04 2.10467E+01-3.06036E+02-4.07099E+02-3.88084E-09 4.68495E-09
 -1       863-5.34667E+04-2.64404E+01-1.09542E+02 5.64388E+03-1.38590E-08-9.15635E-09
 -1       864-5.34770E+04-4.58928E+00 5.00551E+01-4.05566E+02-3.09851E-09 2.48393E-08
 -1       865-5.34116E+04 5.43909E+01 2.56738E+02 5.63476E+03-5.73601E-09 9.11535E-09
 -1       866-5.35117E+04-5.97448E+01 5.15203E+02-3.97981E+02 4.50029E-10-4.39113E-09
 -1       867-5.31701E+04 4.91440E+02 1.26661E+03 5.61418E+03-3.28214E-10 2.40674E-08
 -1       868-5.37138E+04-4.33640E+02 2.10446E+03-3.84987E+02 9.45136E-10 2.27076E-08
 -1       869-5.16279E+04 3.60741E+03 5.60282E+03 5.58072E+03 3.51037E-09-7.37555E-09
 -1       870-5.50464E+04-3.09094E+03 8.13113E+03-3.64378E+02-5.58418E-09 1.26197E-08
 -1       871-5.36834E+03-2.53340E+04-1.94218E+04 1.28521E+05-6.90125E-09 4.17276E-09
 -1       872-1.82111E+03-2.98810E+04-8.19181E+03 1.66659E+05-1.39225E-08 6.43604E-09
 -1       873 5.16135E+02-2.76490E+04 4.43049E+02 1.28239E+05-7.96445E-09 9.83653E-09
 -1       874 3.36249E+03-2.53572E+04 9.40779E+03 1.66678E+05-1.54732E-08 2.03440E-08
 -1       875 6.75363E+03-2.99031E+04 2.13396E+04 1.28476E+05-6.95945E-09 9.33233E-09
 -1       876 2.88103E+05 4.85941E+04 1.49392E+04 1.15651E+05 4.14991E-09-6.61112E-09
 -1       877 2.89058E+05 5.17727E+04 7.97812E+03 1.19980E+05 9.23410E-09-1.56890E-08
 -1       878 2.89502E+05 4.69372E+04 3.34237E+03 1.16872E+05-1.09762E-08-8.24571E-09
 -1       879 2.87027E+05 4.97470E+04 1.66531E+03 1.20082E+05-3.61251E-09 1.56400E-08
 -1       880 2.89602E+05 4.69201E+04 7.75517E+02 1.16922E+05-1.48793E-09 7.69791E-09
 -1       881 2.86892E+05 4.96605E+04 4.13857E+02 1.20058E+05-9.26684E-09 9.31709E-09
 -1       882 2.89611E+05 4.69333E+04 2.64209E+02 1.16924E+05-2.04182E-10 1.23816E-09
 -1       883 2.86882E+05 4.96560E+04 2.83193E+02 1.20051E+05 5.10681E-10-9.07841E-09
 -1       884 2.89604E+05 4.69306E+04 4.49710E+02 1.16924E+05 1.13062E-09-6.91250E-09
 -1       885 2.86917E+05 4.96622E+04 9.03666E+02 1.20061E+05-1.09862E-08-2.48626E-08
 -1       886 2.89569E+05 4.69043E+04 1.82105E+03 1.16920E+05-1.49569E-09 1.66056E-08
 -1       887 2.87238E+05 4.98719E+04 3.97771E+03 1.20108E+05 1.35128E-08 2.64279E-08
 -1       888 2.89318E+05 4.69487E+04 8.01514E+03 1.16793E+05-2.83404E-09 3.40333E-09
 -1       889 2.92010E+05 5.48338E+04 1.91467E+04 1.19961E+05-7.15399E-09-1.70985E-09
 -1       890 2.86043E+05 5.08382E+04 3.58612E+04 1.13747E+05-8.01901E-09-6.03723E-09
 -1       891-6.28093E+01-1.59495E+05-1.95380E+03 2.63636E+04-2.27487E-09 3.22734E-09
 -1       892-1.34266E+02-1.60024E+05-2.10041E+03 4.00749E+04 3.43334E-11-8.34893E-09
 -1       893 6.75841E+01-1.59558E+05-2.97593E+03 2.63711E+04-4.42083E-09-1.50412E-08
 -1       894-1.44311E+03-1.61150E+05-6.16060E+03 3.99258E+04 3.57886E-09-1.01518E-08
 -1       895-1.15033E+03-1.58276E+05-1.08491E+04 2.65157E+04 1.81217E-10 7.55972E-09
 -1       956-3.70223E+05-5.67732E+03-1.39011E+04 3.36418E+04 7.31870E-09-7.24322E-09
 -1       957-3.72944E+05-2.03826E+03-7.13472E+03 4.03830E+04 6.25550E-09 1.00849E-08
 -1       958-3.71479E+05-2.91657E+02-3.21569E+03 3.34553E+04-5.85260E-09-7.05631E-09
 -1       959-3.71677E+05-1.88924E+02-1.64148E+03 4.06041E+04 2.15368E-09-7.37191E-09
 -1       960-3.71606E+05-8.52099E+01-8.00293E+02 3.34359E+04 8.63565E-09-7.97672E-09
 -1       961-3.71600E+05-1.10028E+02-4.23091E+02 4.06273E+04 1.89591E-08-9.98762E-09
 -1       962-3.71640E+05-8.36546E+01-2.40376E+02 3.34326E+04 9.08858E-09-7.25095E-09
 -1       963-3.71605E+05-1.03307E+02-1.89364E+02 4.06318E+04 1.42045E-08-1.01898E-08
 -1       964-3.71648E+05-7.85939E+01-2.26039E+02 3.34315E+04 5.75380E-09-1.97224E-09
 -1       965-3.71619E+05-9.90183E+01-3.87411E+02 4.06316E+04-1.17045E-08-1.17877E-08
 -1       966-3.71634E+05-7.02654E+01-7.26022E+02 3.34328E+04 6.04746E-09-4.59818E-09
 -1       967-3.71707E+05-1.60686E+02-1.48811E+03 4.06172E+04-3.76531E-10-6.85168E-09
 -1       968-3.71532E+05-2.48279E+02-2.91286E+03 3.34456E+04 1.88720E-09-2.24793E-09
 -1       969-3.72872E+05-1.82899E+03-6.46625E+03 4.04646E+04 2.65436E-09-2.67975E-08
 -1       970-3.70405E+05-5.12400E+03-1.25969E+04 3.35739E+04-4.66753E-09 1.41954E-08
 -1       971-3.38496E+05-1.67535E+03-8.95956E+03 1.49111E+04 1.06311E-08 4.26092E-09
 -1       972-3.40647E+05-1.24245E+03-4.87943E+03 2.05607E+04 1.36292E-08 2.77400E-08
 -1       973-3.39494E+05-7.29530E+01-2.18552E+03 1.47966E+04 7.93079E-09 8.05539E-09
 -1       974-3.39617E+05-9.71721E+01-1.13313E+03 2.06916E+04 2.09184E-10 1.27056E-09
 -1       975-3.39572E+05-3.01942E+01-5.67173E+02 1.47850E+04 3.85216E-09 5.88750E-09
 -1       976-3.39558E+05-4.96139E+01-3.28783E+02 2.07065E+04 1.15679E-08-5.35942E-09
 -1       977-3.39587E+05-2.97444E+01-2.41306E+02 1.47818E+04 1.21395E-09-1.54864E-09
 -1       978-3.39562E+05-4.38450E+01-2.86107E+02 2.07111E+04-1.05078E-08-1.74805E-09
 -1       979-3.39587E+05-2.16018E+01-4.62834E+02 1.47805E+04-1.33144E-09 1.01180E-08
 -1       980-3.39597E+05-4.09563E+01-8.95651E+02 2.07119E+04 8.49312E-10-2.06899E-09
 -1       981-3.39558E+05 7.91773E-01-1.73567E+03 1.47810E+04 5.11193E-09-4.15093E-09
 -1       982-3.39835E+05-1.69107E+02-3.58813E+03 2.07056E+04 1.02459E-08-7.21688E-09
 -1       983-3.39340E+05-1.10168E+02-6.97198E+03 1.47866E+04-3.73211E-09 5.69844E-09
 -1       984-3.43189E+05-3.80999E+03-1.56136E+04 2.06231E+04-1.26863E-08 1.72031E-08
 -1       985-3.36183E+05-5.21161E+03-2.86714E+04 1.48512E+04-1.30508E-08 1.64255E-09
 -3
    1PSTEP                        33          17           1          
  100CL  117 6.52283E-01         409                     0   17           1
 -4  DISP        4    1
 -5  D1          1    2    1    0
 -5  D2          1    2    2    0
 -5  D3          1    2    3    0
 -5  ALL         1    2    0    0    1ALL
 -1         1 2.34630E-03 0.00000E+00 0.00000E+00
 -1         2 1.62125E-03 3.10649E-27 0.00000E+00
 -1         3 3.38391E-04 3.26416E-28 0.00000E+00
 -1         5 1.63437E-04-5.40075E-27-3.30872E-24
 -1         8 2.33090E-03-4.79242E-07 0.00000E+00
 -1         9 2.29903E-03-5.21353E-05 0.00000E+00
 -1        10 3.06509E-04-3.35099E-06 0.00000E+00
 -1        12 1.66051E-04 8.72327E-07 1.65436E-24
 -1        15 2.31240E-03-5.20701E-07 0.00000E+00
 -1        16 2.33672E-03-5.34810E-05 0.00000E+00
 -1        17 2.07396E-04-7.65310E-06 0.00000E+00
 -1        18 1.72309E-04 4.44379E-05 0.00000E+00
 -1        19 1.73895E-04 1.73533E-06 0.00000E+00
 -1        20 1.74021E-04-1.86339E-05 0.00000E+00
 -1        21 1.73111E-04-4.31937E-05 0.00000E+00
 -1        24 3.00064E-05-1.18267E-05 0.00000E+00
 -1        25 1.85991E-04 4.47109E-05 0.00000E+00
 -1        26 1.87243E-04 2.41795E-06 0.00000E+00
 -1        27 1.84867E-04-2.22074E-05 0.00000E+00
 -1        28 1.84562E-04-4.38111E-05 0.00000E+00
 -1        32 0.00000E+00 0.00000E+00 0.00000E+00
 -1        33 1.99246E-04 3.22684E-06 0.00000E+00
 -1        34 1.97139E-04-2.22780E-05 0.00000E+00
 -1        35 1.95223E-04-4.41537E-05 0.00000E+00
 -1        51 2.34530E-03-9.37000E-08 0.00000E+00
 -1        52 2.34345E-03-1.71337E-07 0.00000E+00
 -1        53 2.34092E-03-2.46477E-07 0.00000E+00
 -1        54 2.33786E-03-3.21312E-07 0.00000E+00
 -1        55 2.33447E-03-3.97480E-07 1.24077E-24
 -1        56 2.34185E-03 1.28615E-06 5.29396E-23
 -1        57 2.33543E-03 7.35523E-06 0.00000E+00
 -1        58 2.32766E-03 1.69650E-05 0.00000E+00
 -1        59 2.31912E-03 2.85118E-05 0.00000E+00
 -1        60 2.31056E-03 4.00930E-05-1.05879E-22
 -1        61 2.30272E-03 4.97935E-05 0.00000E+00
 -1        62 2.29622E-03 5.60112E-05 1.05879E-22
 -1        63 2.29155E-03 5.74299E-05 0.00000E+00
 -1        64 2.28888E-03 5.35340E-05 1.05879E-22
 -1        65 2.28819E-03 4.42512E-05-5.29396E-23
 -1        66 2.28916E-03 3.04157E-05 0.00000E+00
 -1        67 2.29133E-03 1.32475E-05 5.29396E-23
 -1        68 2.29406E-03-5.47028E-06 0.00000E+00
 -1        69 2.29668E-03-2.38143E-05 5.29396E-23
 -1        70 2.29850E-03-3.99386E-05 5.29396E-23
 -1        86 1.66311E-03-2.24874E-06 0.00000E+00
 -1        87 1.78626E-03-1.09730E-05 0.00000E+00
 -1        88 1.95217E-03-2.53615E-05 0.00000E+00
 -1        89 2.12041E-03-4.01359E-05-1.32349E-23
 -1        90 2.24937E-03-4.95402E-05 0.00000E+00
 -1       121 3.37496E-04-5.40840E-07-1.32349E-23
 -1       122 3.34814E-04-1.08475E-06 0.00000E+00
 -1       123 3.30355E-04-1.63477E-06 0.00000E+00
 -1       124 3.24135E-04-2.19391E-06 0.00000E+00
 -1       125 3.16176E-04-2.76482E-06 0.00000E+00
 -1       191 1.63510E-04 1.45512E-07 1.65436E-24
 -1       192 1.63728E-04 2.91001E-07 8.27181E-25
 -1       193 1.64091E-04 4.36451E-07 1.65436E-24
 -1       194 1.64599E-04 5.81837E-07 0.00000E+00
 -1       195 1.65253E-04 7.27137E-07 1.65436E-24
 -1       251 2.33020E-03 1.61545E-05 0.00000E+00
 -1       252 2.32871E-03 5.94820E-05 0.00000E+00
 -1       253 2.32632E-03 1.21390E-04 1.32349E-23
 -1       254 2.32328E-03 1.93342E-04 6.61744E-24
 -1       255 2.32032E-03 2.64099E-04 0.00000E+00
 -1       256 2.31813E-03 3.22452E-04 0.00000E+00
 -1       257 2.31685E-03 3.60518E-04 1.32349E-23
 -1       258 2.31621E-03 3.70875E-04-6.61744E-24
 -1       259 2.31548E-03 3.53251E-04-1.32349E-23
 -1       260 2.31391E-03 3.08046E-04 6.61744E-24
 -1       261 2.31131E-03 2.42775E-04 0.00000E+00
 -1       262 2.30788E-03 1.65406E-04 6.61744E-24
 -1       263 2.30438E-03 8.71558E-05 0.00000E+00
 -1       264 2.30160E-03 1.92585E-05 0.00000E+00
 -1       265 2.29986E-03-2.98471E-05 0.00000E+00
 -1       266 2.32781E-03-4.93183E-07 0.00000E+00
 -1       267 2.32473E-03-4.99236E-07 0.00000E+00
 -1       268 2.32165E-03-5.05788E-07 0.00000E+00
 -1       269 2.31856E-03-5.10861E-07 0.00000E+00
 -1       270 2.31548E-03-5.15898E-07 0.00000E+00
 -1       271 2.32909E-03 2.10250E-06 0.00000E+00
 -1       272 2.32745E-03 4.15728E-06-1.32349E-23
 -1       273 2.32604E-03 5.61357E-06 0.00000E+00
 -1       274 2.32488E-03 6.39468E-06 0.00000E+00
 -1       275 2.32400E-03 6.43360E-06-2.64698E-23
 -1       276 2.32342E-03 5.66895E-06 1.32349E-23
 -1       277 2.32315E-03 4.04768E-06 2.64698E-23
 -1       278 2.32323E-03 1.52473E-06-1.32349E-23
 -1       279 2.32365E-03-1.93598E-06 2.64698E-23
 -1       280 2.32443E-03-6.36154E-06-1.32349E-23
 -1       281 2.32558E-03-1.17694E-05 0.00000E+00
 -1       282 2.32709E-03-1.81678E-05 1.32349E-23
 -1       283 2.32897E-03-2.55548E-05 2.64698E-23
 -1       284 2.33120E-03-3.39185E-05 1.32349E-23
 -1       285 2.33378E-03-4.32389E-05 0.00000E+00
 -1       301 2.30590E-03-5.23854E-05-6.61744E-24
 -1       302 2.31149E-03-5.25999E-05-3.30872E-24
 -1       303 2.31658E-03-5.28089E-05 0.00000E+00
 -1       304 2.32196E-03-5.30182E-05 0.00000E+00
 -1       305 2.32841E-03-5.32355E-05 0.00000E+00
 -1       306 2.33409E-03-1.91533E-04-1.05879E-22
 -1       307 2.39865E-03-5.74633E-04 0.00000E+00
 -1       308 2.45242E-03-1.14011E-03 0.00000E+00
 -1       309 2.48701E-03-1.80076E-03-5.29396E-23
 -1       310 2.52610E-03-2.44016E-03 0.00000E+00
 -1       311 2.58732E-03-2.94377E-03 0.00000E+00
 -1       312 2.64680E-03-3.23527E-03 1.05879E-22
 -1       313 2.65293E-03-3.27375E-03 0.00000E+00
 -1       314 2.54145E-03-3.06652E-03 0.00000E+00
 -1       315 2.27355E-03-2.66684E-03 0.00000E+00
 -1       316 1.86277E-03-2.14512E-03 0.00000E+00
 -1       317 1.36464E-03-1.56848E-03 5.29396E-23
 -1       318 8.79796E-04-9.99882E-04 0.00000E+00
 -1       319 5.04942E-04-5.04674E-04 0.00000E+00
 -1       320 2.81621E-04-1.51580E-04 1.05879E-22
 -1       336 2.94945E-04-3.99929E-06 0.00000E+00
 -1       337 2.81308E-04-4.67322E-06 0.00000E+00
 -1       338 2.65658E-04-5.37503E-06 0.00000E+00
 -1       339 2.48067E-04-6.10570E-06 6.61744E-24
 -1       340 2.28616E-04-6.86954E-06 0.00000E+00
 -1       406 1.66996E-04 1.01738E-06 0.00000E+00
 -1       407 1.68085E-04 1.16223E-06 8.27181E-25
 -1       408 1.69320E-04 1.30683E-06 1.65436E-24
 -1       409 1.70701E-04 1.45095E-06 8.27181E-25
 -1       410 1.72226E-04 1.59428E-06-2.48154E-24
 -1       521 2.37257E-03-2.01967E-04 0.00000E+00
 -1       522 2.43598E-03-6.04706E-04-5.29396E-23
 -1       523 2.48447E-03-1.19725E-03 1.05879E-22
 -1       524 2.51110E-03-1.88605E-03 5.29396E-23
 -1       525 2.54318E-03-2.55175E-03 0.00000E+00
 -1       526 2.60118E-03-3.07713E-03 0.00000E+00
 -1       527 2.66032E-03-3.37973E-03 0.00000E+00
 -1       528 2.66475E-03-3.41758E-03 0.00000E+00
 -1       529 2.54335E-03-3.19761E-03-2.11758E-22
 -1       530 2.25486E-03-2.77989E-03-5.29396E-23
 -1       531 1.81324E-03-2.23836E-03-1.05879E-22
 -1       532 1.27959E-03-1.64317E-03-5.29396E-23
 -1       533 7.59632E-04-1.05567E-03 0.00000E+00
 -1       534 3.55023E-04-5.39700E-04-5.29396E-23
 -1       535 1.12723E-04-1.68028E-04 0.00000E+00
 -1       536 2.06566E-04 2.90878E-05 0.00000E+00
 -1       537 2.04305E-04 9.49949E-05 0.00000E+00
 -1       538 2.00699E-04 1.79894E-04-3.30872E-24
 -1       539 1.96343E-04 2.73511E-04 1.65436E-24
 -1       540 1.92362E-04 3.62744E-04-3.30872E-24
 -1       541 1.89739E-04 4.34508E-04 0.00000E+00
 -1       542 1.88515E-04 4.81053E-04 0.00000E+00
 -1       543 1.88242E-04 4.94794E-04 1.65436E-24
 -1       544 1.87902E-04 4.76366E-04 0.00000E+00
 -1       545 1.86536E-04 4.26671E-04-1.65436E-24
 -1       546 1.83901E-04 3.54657E-04 0.00000E+00
 -1       547 1.80263E-04 2.69419E-04 0.00000E+00
 -1       548 1.76628E-04 1.84211E-04 0.00000E+00
 -1       549 1.74000E-04 1.12288E-04 1.65436E-24
 -1       550 1.72643E-04 6.27216E-05-1.65436E-24
 -1       551 1.82342E-04-8.22690E-06 0.00000E+00
 -1       552 1.54241E-04-8.87534E-06-3.30872E-24
 -1       553 1.24017E-04-9.58043E-06 1.24077E-23
 -1       554 9.26100E-05-1.03215E-05 0.00000E+00
 -1       555 6.09613E-05-1.10720E-05 0.00000E+00
 -1       556 1.99693E-04 1.20628E-05 0.00000E+00
 -1       557 1.93370E-04 2.83107E-05 0.00000E+00
 -1       558 1.88309E-04 4.13442E-05 0.00000E+00
 -1       559 1.84390E-04 5.14385E-05 0.00000E+00
 -1       560 1.81498E-04 5.88687E-05 0.00000E+00
 -1       561 1.79519E-04 6.39123E-05 0.00000E+00
 -1       562 1.78342E-04 6.68480E-05 0.00000E+00
 -1       563 1.77855E-04 6.79552E-05-1.32349E-23
 -1       564 1.77951E-04 6.75142E-05 0.00000E+00
 -1       565 1.78522E-04 6.58057E-05 0.00000E+00
 -1       566 1.79460E-04 6.31112E-05 0.00000E+00
 -1       567 1.80661E-04 5.97123E-05 3.30872E-24
 -1       568 1.82020E-04 5.58911E-05 0.00000E+00
 -1       569 1.83430E-04 5.19295E-05-4.13590E-25
 -1       570 1.84788E-04 4.81097E-05 1.65436E-24
 -1       571 1.72405E-04 4.17250E-05-1.65436E-24
 -1       572 1.72503E-04 3.89270E-05 1.03398E-24
 -1       573 1.72602E-04 3.60626E-05 8.27181E-25
 -1       574 1.72701E-04 3.31514E-05-8.27181E-25
 -1       575 1.72800E-04 3.02130E-05 0.00000E+00
 -1       576 1.72898E-04 2.72671E-05 1.65436E-24
 -1       577 1.72997E-04 2.43334E-05 3.30872E-24
 -1       578 1.73096E-04 2.14318E-05 0.00000E+00
 -1       579 1.73195E-04 1.85819E-05-6.61744E-24
 -1       580 1.73294E-04 1.58035E-05-6.61744E-24
 -1       581 1.73394E-04 1.31164E-05-6.61744E-24
 -1       582 1.73494E-04 1.05403E-05-3.30872E-24
 -1       583 1.73594E-04 8.09479E-06 0.00000E+00
 -1       584 1.73694E-04 5.79952E-06 0.00000E+00
 -1       585 1.73795E-04 3.67379E-06-6.61744E-24
 -1       586 1.74620E-04 4.44850E-05 0.00000E+00
 -1       587 1.76863E-04 4.45318E-05-2.48154E-24
 -1       588 1.79080E-04 4.45785E-05-8.27181E-25
 -1       589 1.81313E-04 4.46247E-05 0.00000E+00
 -1       590 1.83603E-04 4.46696E-05 0.00000E+00
 -1       591 1.73240E-04 4.18318E-05-1.03398E-25
 -1       592 1.74178E-04 3.91917E-05 4.13590E-25
 -1       593 1.75126E-04 3.65252E-05-8.27181E-25
 -1       594 1.76081E-04 3.38389E-05-8.27181E-25
 -1       595 1.77041E-04 3.11393E-05-1.65436E-24
 -1       596 1.78003E-04 2.84328E-05 0.00000E+00
 -1       597 1.78965E-04 2.57260E-05 1.65436E-24
 -1       598 1.79925E-04 2.30254E-05 0.00000E+00
 -1       599 1.80881E-04 2.03373E-05 1.65436E-24
 -1       600 1.81829E-04 1.76682E-05 4.13590E-25
 -1       601 1.82768E-04 1.50247E-05 8.27181E-25
 -1       602 1.83695E-04 1.24132E-05 0.00000E+00
 -1       603 1.84607E-04 9.84008E-06 0.00000E+00
 -1       604 1.85504E-04 7.31204E-06-2.06795E-25
 -1       605 1.86382E-04 4.83540E-06-4.13590E-25
 -1       606 1.73908E-04 5.42003E-08 3.30872E-24
 -1       607 1.73917E-04-1.54851E-06 0.00000E+00
 -1       608 1.73924E-04-3.07740E-06 0.00000E+00
 -1       609 1.73932E-04-4.53765E-06 0.00000E+00
 -1       610 1.73939E-04-5.93453E-06 0.00000E+00
 -1       611 1.73947E-04-7.27332E-06 0.00000E+00
 -1       612 1.73954E-04-8.55930E-06 0.00000E+00
 -1       613 1.73962E-04-9.79782E-06 0.00000E+00
 -1       614 1.73969E-04-1.09942E-05 0.00000E+00
 -1       615 1.73977E-04-1.21536E-05 0.00000E+00
 -1       616 1.73984E-04-1.32816E-05 0.00000E+00
 -1       617 1.73992E-04-1.43833E-05 0.00000E+00
 -1       618 1.74000E-04-1.54641E-05 0.00000E+00
 -1       619 1.74007E-04-1.65292E-05 2.06795E-25
 -1       620 1.74015E-04-1.75841E-05 0.00000E+00
 -1       621 1.75791E-04 1.84968E-06 0.00000E+00
 -1       622 1.77873E-04 1.96448E-06-1.65436E-24
 -1       623 1.80100E-04 2.07898E-06 0.00000E+00
 -1       624 1.82432E-04 2.19307E-06 0.00000E+00
 -1       625 1.84826E-04 2.30680E-06-3.30872E-24
 -1       626 1.74637E-04 8.88925E-08 0.00000E+00
 -1       627 1.75358E-04-1.50271E-06 0.00000E+00
 -1       628 1.76062E-04-3.04667E-06 0.00000E+00
 -1       629 1.76751E-04-4.55046E-06 0.00000E+00
 -1       630 1.77427E-04-6.02163E-06 0.00000E+00
 -1       631 1.78095E-04-7.46770E-06-1.65436E-24
 -1       632 1.78755E-04-8.89619E-06-3.30872E-24
 -1       633 1.79412E-04-1.03147E-05-1.65436E-24
 -1       634 1.80068E-04-1.17307E-05-3.30872E-24
 -1       635 1.80726E-04-1.31518E-05 0.00000E+00
 -1       636 1.81389E-04-1.45855E-05 0.00000E+00
 -1       637 1.82059E-04-1.60393E-05 1.65436E-24
 -1       638 1.82740E-04-1.75208E-05-1.65436E-24
 -1       639 1.83433E-04-1.90376E-05 8.27181E-25
 -1       640 1.84142E-04-2.05972E-05 1.65436E-24
 -1       656 1.75295E-04-1.92145E-05 0.00000E+00
 -1       657 1.76973E-04-1.98188E-05 6.61744E-24
 -1       658 1.78925E-04-2.04218E-05 0.00000E+00
 -1       659 1.81009E-04-2.10246E-05 6.61744E-24
 -1       660 1.83049E-04-2.16292E-05-6.61744E-24
 -1       661 1.74498E-04-1.97273E-05 8.27181E-25
 -1       662 1.75012E-04-2.09109E-05 0.00000E+00
 -1       663 1.75557E-04-2.21795E-05 0.00000E+00
 -1       664 1.76132E-04-2.35267E-05 0.00000E+00
 -1       665 1.76734E-04-2.49467E-05-1.65436E-24
 -1       666 1.77361E-04-2.64338E-05-8.27181E-25
 -1       667 1.78012E-04-2.79822E-05 0.00000E+00
 -1       668 1.78683E-04-2.95866E-05 0.00000E+00
 -1       669 1.79373E-04-3.12414E-05 0.00000E+00
 -1       670 1.80080E-04-3.29416E-05 0.00000E+00
 -1       671 1.80802E-04-3.46818E-05 0.00000E+00
 -1       672 1.81537E-04-3.64570E-05 0.00000E+00
 -1       673 1.82282E-04-3.82622E-05 0.00000E+00
 -1       674 1.83037E-04-4.00928E-05-4.13590E-25
 -1       675 1.83799E-04-4.19434E-05-2.06795E-25
 -1       676 1.75026E-04-4.32972E-05 0.00000E+00
 -1       677 1.76940E-04-4.34007E-05 0.00000E+00
 -1       678 1.78852E-04-4.35041E-05 3.30872E-24
 -1       679 1.80760E-04-4.36072E-05 0.00000E+00
 -1       680 1.82664E-04-4.37102E-05 0.00000E+00
 -1       771 1.84328E-05 1.40310E-05-5.29396E-23
 -1       772 8.69356E-06 3.52627E-05 0.00000E+00
 -1       773 6.99658E-07 5.20933E-05 5.29396E-23
 -1       774-5.66912E-06 6.47745E-05 0.00000E+00
 -1       775-1.05306E-05 7.35678E-05 0.00000E+00
 -1       776-1.40072E-05 7.87505E-05 0.00000E+00
 -1       777-1.62211E-05 8.06097E-05-5.29396E-23
 -1       778-1.72971E-05 7.94457E-05 0.00000E+00
 -1       779-1.73594E-05 7.55665E-05-5.29396E-23
 -1       780-1.65340E-05 6.92912E-05 0.00000E+00
 -1       781-1.49462E-05 6.09452E-05 0.00000E+00
 -1       782-1.27228E-05 5.08625E-05-2.64698E-23
 -1       783-9.98965E-06 3.93811E-05-5.29396E-23
 -1       784-6.87381E-06 2.68452E-05-2.64698E-23
 -1       785-3.50155E-06 1.36017E-05 5.29396E-23
 -1       786 1.86064E-04 4.20443E-05 8.27181E-25
 -1       787 1.86142E-04 3.93618E-05-8.27181E-25
 -1       788 1.86219E-04 3.66679E-05 1.65436E-24
 -1       789 1.86298E-04 3.39670E-05 0.00000E+00
 -1       790 1.86376E-04 3.12620E-05-3.30872E-24
 -1       791 1.86455E-04 2.85559E-05-1.65436E-24
 -1       792 1.86534E-04 2.58515E-05-3.30872E-24
 -1       793 1.86612E-04 2.31517E-05 1.65436E-24
 -1       794 1.86691E-04 2.04600E-05 0.00000E+00
 -1       795 1.86770E-04 1.77803E-05 0.00000E+00
 -1       796 1.86849E-04 1.51184E-05 3.30872E-24
 -1       797 1.86927E-04 1.24804E-05 1.65436E-24
 -1       798 1.87006E-04 9.87708E-06 3.30872E-24
 -1       799 1.87085E-04 7.31916E-06-8.27181E-25
 -1       800 1.87164E-04 4.82618E-06 0.00000E+00
 -1       801 1.30127E-04 4.08525E-05-2.64698E-23
 -1       802-3.79539E-05 2.49444E-05 1.32349E-23
 -1       803-1.74468E-04 1.28944E-05 0.00000E+00
 -1       804-1.39764E-04 9.21928E-06-2.64698E-23
 -1       805-4.25572E-05 2.83666E-06 0.00000E+00
 -1       806 1.86878E-04 4.19735E-05-3.30872E-24
 -1       807 1.87769E-04 3.92151E-05 1.65436E-24
 -1       808 1.88664E-04 3.64451E-05 0.00000E+00
 -1       809 1.89559E-04 3.36720E-05 1.65436E-24
 -1       810 1.90452E-04 3.09044E-05 0.00000E+00
 -1       811 1.91339E-04 2.81506E-05 0.00000E+00
 -1       812 1.92219E-04 2.54192E-05 0.00000E+00
 -1       813 1.93087E-04 2.27185E-05-1.65436E-24
 -1       814 1.93940E-04 2.00569E-05 0.00000E+00
 -1       815 1.94775E-04 1.74429E-05-1.65436E-24
 -1       816 1.95590E-04 1.48848E-05 0.00000E+00
 -1       817 1.96381E-04 1.23911E-05 0.00000E+00
 -1       818 1.97145E-04 9.97009E-06-1.65436E-24
 -1       819 1.97879E-04 7.63020E-06 0.00000E+00
 -1       820 1.98580E-04 5.37974E-06 0.00000E+00
 -1       821 1.87107E-04-1.05455E-06 0.00000E+00
 -1       822 1.86953E-04-6.73226E-06 0.00000E+00
 -1       823 1.86792E-04-1.38763E-05 3.30872E-24
 -1       824 1.86623E-04-2.17384E-05 0.00000E+00
 -1       825 1.86457E-04-2.93711E-05-3.30872E-24
 -1       826 1.86297E-04-3.58284E-05 0.00000E+00
 -1       827 1.86148E-04-4.04919E-05 3.30872E-24
 -1       828 1.86006E-04-4.27547E-05 1.65436E-24
 -1       829 1.85866E-04-4.26788E-05 3.30872E-24
 -1       830 1.85724E-04-4.03405E-05-1.65436E-24
 -1       831 1.85578E-04-3.64466E-05-3.30872E-24
 -1       832 1.85428E-04-3.17137E-05 0.00000E+00
 -1       833 1.85279E-04-2.70925E-05 0.00000E+00
 -1       834 1.85136E-04-2.35329E-05 0.00000E+00
 -1       835 1.84997E-04-2.16898E-05-1.65436E-24
 -1       836 1.89475E-04 2.55178E-06-3.30872E-24
 -1       837 1.91539E-04 2.68921E-06-1.65436E-24
 -1       838 1.93492E-04 2.82665E-06 3.30872E-24
 -1       839 1.95390E-04 2.96341E-06 0.00000E+00
 -1       840 1.97289E-04 3.09996E-06 8.27181E-25
 -1       856 1.84851E-04-2.38363E-05-8.27181E-25
 -1       857 1.84832E-04-2.53296E-05 0.00000E+00
 -1       858 1.84814E-04-2.67084E-05 0.00000E+00
 -1       859 1.84795E-04-2.79936E-05 0.00000E+00
 -1       860 1.84776E-04-2.92063E-05-4.13590E-25
 -1       861 1.84757E-04-3.03676E-05 0.00000E+00
 -1       862 1.84738E-04-3.14988E-05 0.00000E+00
 -1       863 1.84719E-04-3.26209E-05 2.06795E-25
 -1       864 1.84700E-04-3.37552E-05-4.13590E-25
 -1       865 1.84681E-04-3.49229E-05-2.06795E-25
 -1       866 1.84662E-04-3.61450E-05 0.00000E+00
 -1       867 1.84643E-04-3.74429E-05 0.00000E+00
 -1       868 1.84623E-04-3.88374E-05 0.00000E+00
 -1       869 1.84604E-04-4.03498E-05 4.13590E-25
 -1       870 1.84584E-04-4.20007E-05 8.27181E-25
 -1       871 1.86780E-04-2.22147E-05 0.00000E+00
 -1       872 1.88837E-04-2.22254E-05 0.00000E+00
 -1       873 1.90969E-04-2.22370E-05-4.13590E-25
 -1       874 1.93109E-04-2.22492E-05 2.58494E-26
 -1       875 1.95188E-04-2.22620E-05 0.00000E+00
 -1       876 1.85602E-04-2.38220E-05 0.00000E+00
 -1       877 1.86315E-04-2.53690E-05-1.65436E-24
 -1       878 1.87006E-04-2.68563E-05 0.00000E+00
 -1       879 1.87678E-04-2.82915E-05 0.00000E+00
 -1       880 1.88334E-04-2.96821E-05 0.00000E+00
 -1       881 1.88975E-04-3.10354E-05 1.65436E-24
 -1       882 1.89605E-04-3.23588E-05 0.00000E+00
 -1       883 1.90227E-04-3.36599E-05 0.00000E+00
 -1       884 1.90844E-04-3.49460E-05 0.00000E+00
 -1       885 1.91457E-04-3.62245E-05-1.65436E-24
 -1       886 1.92071E-04-3.75028E-05 3.30872E-24
 -1       887 1.92687E-04-3.87883E-05 0.00000E+00
 -1       888 1.93308E-04-4.00884E-05 0.00000E+00
 -1       889 1.93937E-04-4.14108E-05 0.00000E+00
 -1       890 1.94576E-04-4.27628E-05 1.65436E-24
 -1       891 1.86479E-04-4.38687E-05 0.00000E+00
 -1       892 1.88373E-04-4.39265E-05 8.27181E-25
 -1       893 1.90219E-04-4.39841E-05 0.00000E+00
 -1       894 1.91992E-04-4.40415E-05-8.27181E-25
 -1       895 1.93668E-04-4.40985E-05 4.13590E-25
 -1       956 1.99116E-04 1.27823E-06 0.00000E+00
 -1       957 1.98984E-04-5.65284E-07 1.65436E-24
 -1       958 1.98852E-04-2.31548E-06-3.30872E-24
 -1       959 1.98720E-04-3.98479E-06 0.00000E+00
 -1       960 1.98588E-04-5.58575E-06 3.30872E-24
 -1       961 1.98456E-04-7.13090E-06 0.00000E+00
 -1       962 1.98324E-04-8.63279E-06 0.00000E+00
 -1       963 1.98192E-04-1.01040E-05-1.65436E-24
 -1       964 1.98060E-04-1.15571E-05 0.00000E+00
 -1       965 1.97928E-04-1.30048E-05 1.65436E-24
 -1       966 1.97796E-04-1.44594E-05 0.00000E+00
 -1       967 1.97664E-04-1.59338E-05-1.65436E-24
 -1       968 1.97532E-04-1.74403E-05 0.00000E+00
 -1       969 1.97400E-04-1.89916E-05-1.65436E-24
 -1       970 1.97269E-04-2.06002E-05 0.00000E+00
 -1       971 1.97020E-04-2.39623E-05 0.00000E+00
 -1       972 1.96900E-04-2.55558E-05 1.65436E-24
 -1       973 1.96779E-04-2.70686E-05 0.00000E+00
 -1       974 1.96659E-04-2.85112E-05 0.00000E+00
 -1       975 1.96538E-04-2.98939E-05-3.30872E-24
 -1       976 1.96418E-04-3.12273E-05 0.00000E+00
 -1       977 1.96298E-04-3.25219E-05 0.00000E+00
 -1       978 1.96177E-04-3.37880E-05-1.65436E-24
 -1       979 1.96057E-04-3.50363E-05 0.00000E+00
 -1       980 1.95937E-04-3.62771E-05 1.65436E-24
 -1       981 1.95817E-04-3.75211E-05 0.00000E+00
 -1       982 1.95697E-04-3.87785E-05 0.00000E+00
 -1       983 1.95577E-04-4.00601E-05 0.00000E+00
 -1       984 1.95457E-04-4.13762E-05 1.65436E-24
 -1       985 1.95338E-04-4.27373E-05 0.00000E+00
 -3
    1PSTEP                        34          17           1          
  100CL  117 6.52283E-01         409                     0   17           1
 -4  STRESS      6    1
 -5  SXX         1    4    1    1
 -5  SYY         1    4    2    2
 -5  SZZ         1    4    3    3
 -5  SXY         1    4    1    2
 -5  SYZ         1    4    2    3
 -5  SZX         1    4    3    1
 -1         1-4.71463E+06-1.69740E+06-1.03184E+06-1.61804E+06-8.00355E-10 7.89878E-08
 -1         2 3.21291E+05 3.29843E+06 1.26310E+06 1.57643E+06 1.31768E-08 6.05214E-08
 -1         3-1.48107E+03-1.53554E+06 4.07051E+02-2.17450E+03-4.80298E-10 4.00905E-09
 -1         5-1.49971E+02 4.16968E+05 1.15169E+01-2.18025E+00-6.58101E-10-4.98403E-10
 -1         8-6.69465E+05-2.19606E+05-6.83034E+04-2.49865E+05 3.04681E-10 8.34916E-09
 -1         9 9.27400E+06 3.41736E+05 1.72977E+06-1.01240E+06 1.43307E-08 1.11060E-07
 -1        10-2.27551E+03-1.60011E+06-3.68870E+03-1.47178E+04-1.34551E-08-4.62471E-08
 -1        12-1.45654E+02 4.16993E+05 3.82858E+02-1.43829E+01-9.33149E-10 1.69075E-08
 -1        15 1.16504E+03 6.40252E+02 3.76598E+03 1.55347E+00-4.61441E-10 1.89871E-07
 -1        16 1.96861E+07-1.72016E+05 2.74197E+06-1.66147E+06 1.06326E-08 2.10634E-07
 -1        17 7.11103E+06 5.20206E+06 1.92198E+06 5.03195E+06 2.01049E-08 2.56579E-08
 -1        18 1.84095E+05 4.74091E+04 1.37330E+04-1.28582E+05 1.66183E-08-3.89264E-10
 -1        19 1.24591E+05 1.52586E+05-4.81909E+02 1.98085E+04 2.28210E-09-1.02780E-08
 -1        20-8.46957E+04-5.75999E+05-1.29410E+05 2.33597E+04-4.18231E-09-1.63467E-09
 -1        21-4.35386E+01-2.91244E+05-9.06922E+02 3.82538E+02 2.14703E-08-1.72879E-08
 -1        24 1.16960E+07 1.00282E+07 3.28041E+06 9.31633E+06-1.54541E-07-5.37063E-08
 -1        25 3.87883E+05 1.22439E+06 3.40552E+05-8.24353E+05 3.47354E-08-2.75086E-08
 -1        26-3.79713E+04 1.06422E+05-2.01405E+04-3.36739E+03-1.38534E-09-1.85726E-09
 -1        27-7.68134E+04-3.11838E+05-1.13230E+05 6.82236E+04 1.36183E-08-1.56573E-08
 -1        28 2.17269E+04-8.42163E+04 1.66154E+04 1.99703E+04-5.89429E-09 1.54549E-08
 -1        32-1.32923E+06-1.84388E+06 1.17874E+05 6.40807E+05-2.51821E-08-7.46536E-09
 -1        33-1.70154E+05 9.93563E+04 3.34080E+04-4.87690E+04-4.45099E-09 1.27099E-08
 -1        34-2.21076E+05-2.61064E+04 6.83387E+02 7.64094E+04-6.21715E-09-5.93748E-10
 -1        35-2.25286E+04-3.33416E+04-1.33087E+03 5.06120E+04-7.52785E-09 1.07830E-08
 -1        51 5.31534E+04-1.98046E+05 1.14145E+05-5.80593E+05 4.36557E-11-1.22680E-07
 -1        52 1.87975E+04-1.79221E+05 6.10682E+04-6.76901E+05 5.60249E-10-3.54896E-07
 -1        53 4.81469E+03-1.94737E+05 3.36718E+04-5.78476E+05 7.63976E-10-1.69151E-07
 -1        54 1.02907E+04-1.90961E+05 3.14565E+04-6.79091E+05 2.69210E-10-1.99958E-07
 -1        55 2.18360E+04-1.99818E+05 4.26909E+04-5.78199E+05 3.85626E-10 6.73681E-08
 -1        56-8.81436E+06-1.03103E+06-7.67326E+05-3.48762E+06 9.66247E-09-1.18365E-07
 -1        57-9.41059E+06-1.41148E+06-5.13512E+05-3.10785E+06 2.49420E-08 1.92311E-07
 -1        58-8.89803E+06-1.33400E+06-1.79544E+05-3.50870E+06 2.61170E-08 7.31961E-09
 -1        59-9.30960E+06-1.06084E+06-1.06458E+05-3.09916E+06 9.31686E-09 7.66522E-09
 -1        60-8.91895E+06-1.36907E+06-4.18881E+04-3.50353E+06-2.20903E-08 7.27596E-12
 -1        61-9.21444E+06-1.07869E+06-2.16313E+04-3.16334E+06 3.56631E-08 8.83483E-08
 -1        62-8.98605E+06-1.31948E+06-1.45918E+04-3.43981E+06-1.53923E-08 6.80302E-08
 -1        63-9.05035E+06-1.21938E+06-5.30463E+03-3.31947E+06 1.55251E-08-1.28466E-09
 -1        64-9.07432E+06-1.23420E+06-1.47118E+04-3.34114E+06-1.01682E-08-2.28665E-08
 -1        65-8.90237E+06-1.38161E+06-1.82236E+04-3.50749E+06-2.69938E-09-2.21180E-07
 -1        66-9.13813E+06-1.15463E+06-3.85853E+04-3.25491E+06 1.12050E-09 2.19879E-08
 -1        67-8.84727E+06-1.51239E+06-9.44197E+04-3.62574E+06-1.75050E-08-7.72998E-08
 -1        68-9.13988E+06-1.09758E+06-1.59251E+05-3.22977E+06 1.28894E-08-7.07369E-08
 -1        69-9.00877E+06-1.76098E+06-4.57665E+05-3.56719E+06-3.64889E-09 6.49306E-08
 -1        70-8.97802E+06-9.14213E+05-6.82123E+05-3.31060E+06-1.48721E-08 3.24799E-08
 -1        86-3.25771E+05-6.10117E+06-6.89970E+05-7.65493E+05-1.32716E-07-6.55928E-08
 -1        87 4.47534E+05-4.75730E+05 5.69218E+05 1.88615E+06-2.31021E-07 1.57222E-07
 -1        88-5.33579E+04-2.75042E+06 3.75778E+04-1.10800E+06-1.93837E-07-4.85566E-08
 -1        89 6.08561E+05-6.02353E+05 5.47963E+05 1.94107E+06-2.96598E-07 1.55469E-08
 -1        90-4.64490E+05-5.99635E+06-7.70228E+05-8.23709E+05-7.42693E-08 7.83184E-08
 -1       121-2.02844E+03-1.54041E+06-5.40669E+02 1.07769E+03 1.47250E-09-2.74813E-08
 -1       122-1.29827E+03-1.53560E+06 7.72123E+02-4.35349E+03-5.37555E-09-4.39140E-08
 -1       123-2.04842E+03-1.54055E+06 2.71928E+02 3.21883E+03 4.13377E-09 1.05574E-08
 -1       124 3.14081E+02-1.53515E+06 2.95549E+03-9.11819E+03-1.05133E-08 9.16225E-09
 -1       125-2.84722E+03-1.54143E+06 3.49447E+03 5.79659E+03 6.37556E-09-1.40171E-08
 -1       191-1.57762E+02 4.16973E+05 6.59729E+00 1.17039E+00-8.21008E-10 6.60657E-09
 -1       192-1.51131E+02 4.16968E+05 2.47310E+01-6.57393E+00-1.16827E-09-1.49339E-09
 -1       193-1.60789E+02 4.16972E+05 3.90203E+01 5.89160E+00-1.51653E-09-1.22527E-08
 -1       194-1.54838E+02 4.16972E+05 9.43922E+01-1.47869E+01-9.09633E-10 1.90812E-08
 -1       195-1.66595E+02 4.16970E+05 1.77637E+02 9.90045E+00-2.19764E-09 7.75617E-09
 -1       251-1.88266E+06-1.29578E+04-1.67899E+05-1.14662E+05-5.04224E-09-1.66405E-07
 -1       252-1.22452E+06 1.75229E+04 1.73050E+04 3.63415E+05 8.99263E-09 2.78701E-07
 -1       253-1.58310E+06-7.44683E+03-3.00137E+04-2.32819E+05-2.41698E-08 1.99966E-07
 -1       254-1.52670E+06 4.05201E+04 2.44710E+03 4.72629E+05-5.12910E-09 8.97553E-08
 -1       255-1.61086E+06-1.12330E+04-1.77472E+04-2.26143E+05-8.89759E-09 1.56647E-07
 -1       256-1.15488E+06 3.39708E+04 8.08524E+04 3.36802E+05 4.47908E-08 2.30438E-07
 -1       257-1.91857E+06-3.03637E+04-7.98438E+04-9.44877E+04 4.27281E-09-1.23105E-07
 -1       258-8.18557E+05 2.75416E+04 1.45859E+05-1.47705E+02 1.04228E-08 1.30997E-07
 -1       259-1.91405E+06-3.16436E+04-7.72133E+04 1.08882E+05 4.38013E-09 7.00536E-08
 -1       260-1.16595E+06 4.00748E+04 8.48785E+04-3.32962E+05 1.09139E-10-9.56054E-08
 -1       261-1.60510E+06-1.54062E+04-7.02993E+03 2.36872E+05 7.27468E-08 1.35550E-07
 -1       262-1.52721E+06 5.79895E+04 2.69747E+04-4.62738E+05-4.42012E-08 1.34267E-07
 -1       263-1.58836E+06-2.06756E+04 8.80480E+03 2.41542E+05 1.50958E-08 1.08345E-07
 -1       264-1.18610E+06 9.74155E+04 1.26485E+05-3.53017E+05 9.65301E-08 7.97936E-08
 -1       265-1.91498E+06-7.99682E+04-1.57236E+04 1.24500E+05 4.79831E-08-5.70799E-08
 -1       266-2.10913E+04-9.86275E+03 4.94839E+04-3.32383E+01-1.30967E-10 1.03022E-07
 -1       267 2.44505E+04 1.14945E+04 3.49756E+04 3.83518E+01-1.54614E-10-2.51744E-07
 -1       268-3.27877E+03-1.62798E+03 1.30002E+04-4.88660E+00 3.45608E-11 1.45368E-07
 -1       269 3.87125E+03 1.94831E+03 8.44999E+03 5.69225E+00-3.26622E-10-4.48033E-08
 -1       270-5.81080E+02-3.20124E+02 4.07893E+03-7.72475E-01 1.39153E-10 1.06950E-07
 -1       271-1.87856E+06-2.27392E+05-1.39163E+05-7.20292E+05 5.74801E-09 6.17729E-09
 -1       272-1.96222E+06-2.95504E+05-8.95213E+04-6.81015E+05-2.06649E-08 4.59622E-08
 -1       273-1.90471E+06-2.62258E+05-3.29147E+04-7.14102E+05 1.34423E-09 1.09061E-07
 -1       274-1.93057E+06-2.53550E+05-1.83773E+04-6.90710E+05 1.70380E-08 9.48753E-08
 -1       275-1.90917E+06-2.65124E+05-7.74185E+03-7.12008E+05 8.99854E-09 1.03464E-08
 -1       276-1.92373E+06-2.51483E+05-3.96451E+03-6.94648E+05-2.14641E-10-1.19322E-07
 -1       277-1.91116E+06-2.64076E+05-2.07489E+03-7.10105E+05 6.11180E-10 1.02486E-07
 -1       278-1.91975E+06-2.54316E+05-1.18992E+03-6.98419E+05 4.38667E-08 1.08294E-07
 -1       279-1.91290E+06-2.62410E+05-1.38719E+03-7.08078E+05-2.39652E-08 2.89497E-08
 -1       280-1.91622E+06-2.58092E+05-1.95577E+03-7.02433E+05-2.78797E-08 3.20795E-08
 -1       281-1.91454E+06-2.60408E+05-3.85150E+03-7.05989E+05 5.43332E-09-9.78662E-09
 -1       282-1.91422E+06-2.64126E+05-8.61195E+03-7.06354E+05-8.65584E-08 1.10061E-07
 -1       283-1.91491E+06-2.56603E+05-1.56637E+04-7.04074E+05-9.77525E-09-6.80411E-08
 -1       284-1.92414E+06-2.88784E+05-4.20751E+04-7.07530E+05-1.26420E-10-1.46681E-07
 -1       285-1.90505E+06-2.37789E+05-6.57093E+04-7.04145E+05-1.97942E-08-5.46788E-08
 -1       301 9.11495E+03-5.48267E+05 1.72635E+05-9.52229E+05 4.85306E-09-3.62343E-09
 -1       302 1.02035E+04-5.03653E+05 1.04494E+05-1.39149E+06 4.38013E-09 3.13739E-08
 -1       303-9.46433E+03-5.35887E+05 6.19091E+04-9.49776E+05 7.40692E-09 1.47724E-07
 -1       304-4.05151E+03-5.08371E+05 6.72727E+04-1.39076E+06-6.25732E-10 8.18654E-08
 -1       305-8.42488E+03-5.30500E+05 8.93790E+04-9.52643E+05-5.99175E-09 2.73722E-07
 -1       306-2.74908E+07-5.61120E+06-7.67475E+06-1.03781E+06-1.04890E-07-2.06957E-07
 -1       307 2.29071E+07 2.20841E+06 4.94937E+06-1.31866E+07-7.47517E-07-2.17115E-08
 -1       308-7.64875E+06-8.12163E+05-5.53892E+05 4.67356E+06-1.69035E-07 6.11442E-07
 -1       309-3.58873E+06 6.86615E+06 1.88504E+06-1.89651E+07 3.26079E-07 3.98642E-07
 -1       310-1.12331E+07-1.36828E+06-1.51543E+06 4.57866E+06 2.73227E-07-7.97299E-08
 -1       311 3.12261E+07-1.30416E+05 6.12915E+06-8.89088E+06 5.60773E-07-2.42435E-08
 -1       312-2.85767E+07-5.72800E+06-7.31641E+06-4.00472E+06 1.97208E-07-3.69619E-08
 -1       313 4.06125E+07 1.13028E+07 9.34602E+06 1.93734E+07 4.83124E-08 1.19297E-07
 -1       314-1.69966E+07-1.49147E+07-6.66427E+06-1.14146E+07 6.98026E-07 8.11997E-08
 -1       315-8.31467E+05 2.52422E+07 5.10325E+06 1.07443E+07-2.68468E-07 1.81841E-07
 -1       316 4.78215E+05-9.29693E+06-5.24800E+05-3.36063E+06-1.17604E-06-2.49158E-07
 -1       317-1.70849E+07 2.02387E+07 1.85028E+06-6.44426E+06 7.99817E-07-1.04544E-06
 -1       318-1.17726E+06-1.09414E+07-1.55538E+06-4.38345E+06-7.52188E-07 4.36557E-08
 -1       319 5.13901E+06 2.66323E+07 5.88950E+06 1.41157E+07-5.54355E-08 2.32685E-07
 -1       320-2.04073E+07-1.51717E+07-8.51305E+06-1.13836E+07 1.71829E-07-2.86673E-08
 -1       336-7.79103E+02-1.66756E+06-1.32660E+04 8.75206E+03-2.71648E-08-9.29140E-09
 -1       337-5.17966E+03-1.66688E+06-1.69319E+04-2.12804E+04-4.91955E-08-1.17943E-08
 -1       338 1.08596E+02-1.66716E+06-2.64901E+04 1.22782E+04-3.41161E-08-8.22911E-09
 -1       339-2.79422E+04-1.68285E+06-5.95178E+04-2.81820E+04-6.24550E-08 3.52084E-08
 -1       340 1.82551E+04-1.65374E+06-9.37936E+04 1.55315E+04-4.13711E-08 2.42035E-08
 -1       406-1.23415E+02 4.16953E+05 7.48521E+02 5.98894E+00-2.78496E-09 2.76486E-10
 -1       407 1.18677E+02 4.17126E+05 1.60661E+03 3.12439E+01-6.89624E-10-1.54705E-08
 -1       408 6.76418E+02 4.16835E+05 3.19936E+03-3.69755E+01-3.46381E-09 6.76664E-10
 -1       409 3.33511E+03 4.18148E+05 7.21784E+03 4.06513E+02-3.54248E-10 1.40190E-08
 -1       410 9.84307E+03 4.15905E+05 1.47286E+04-3.96300E+02-3.88536E-09-4.36557E-09
 -1       521-2.91039E+07-6.90639E+06-8.98189E+06-7.12028E+05-7.60192E-08 6.86850E-08
 -1       522 2.37518E+07 2.93291E+06 5.04324E+06-1.63668E+07-4.32949E-07-5.45988E-08
 -1       523-8.36595E+06-1.10505E+06-5.67571E+05 5.12816E+06 5.11063E-08-1.89772E-07
 -1       524-6.79503E+06 9.47611E+06 2.04878E+06-2.19352E+07 7.13495E-07-8.42214E-07
 -1       525-1.21765E+07-1.88502E+06-1.67303E+06 5.02609E+06 5.27943E-07-2.12895E-07
 -1       526 3.40066E+07-1.53411E+05 6.46335E+06-1.14087E+07 1.22731E-07 9.31323E-09
 -1       527-3.04189E+07-7.21584E+06-8.44190E+06-3.90620E+06 4.13042E-07 1.10987E-07
 -1       528 4.44921E+07 1.24765E+07 9.77620E+06 2.20235E+07 1.31316E-07 3.93193E-08
 -1       529-1.80219E+07-1.69343E+07-7.65245E+06-1.16051E+07 6.60657E-08-1.69035E-07
 -1       530-3.12760E+06 2.94915E+07 5.40507E+06 1.06768E+07-3.40471E-07 5.91099E-07
 -1       531 4.30629E+05-1.04305E+07-5.20168E+05-3.46520E+06-9.66218E-07 3.85393E-07
 -1       532-1.99843E+07 2.25053E+07 2.03691E+06-1.00227E+07 5.95857E-07-5.12766E-07
 -1       533-1.25517E+06-1.21244E+07-1.65466E+06-4.40949E+06-1.63680E-07-8.87609E-07
 -1       534 3.23689E+06 3.10340E+07 6.16052E+06 1.46889E+07-4.43542E-08 6.92206E-07
 -1       535-2.16155E+07-1.73151E+07-9.75626E+06-1.15718E+07 1.12923E-07 4.21307E-07
 -1       536-8.11082E+05-6.00696E+04-6.45669E+04-6.39665E+04-2.01453E-09 7.69796E-08
 -1       537 4.78599E+04 5.76470E+04 1.10183E+05 1.43198E+05-1.27831E-07 1.24929E-07
 -1       538-4.11036E+05 3.54815E+03 2.67282E+03-8.27926E+04 2.40381E-08 1.20010E-07
 -1       539-2.48219E+05 3.95533E+03 3.08153E+04 1.60749E+05 1.62193E-07 1.27518E-07
 -1       540-5.22535E+05-2.59967E+01-2.48009E+04-8.23512E+04-1.72922E-08 1.35957E-07
 -1       541 2.59736E+05 2.08717E+04 1.30303E+05 1.18628E+05-3.65428E-08 9.90676E-08
 -1       542-9.05221E+05-2.49851E+04-1.04540E+05-3.94276E+04 1.32331E-08 3.57839E-08
 -1       543 6.03200E+05 3.44901E+04 1.98920E+05-1.16886E+04 4.93924E-09-9.90531E-09
 -1       544-8.56735E+05-2.13834E+04-9.54685E+04 4.70826E+04-2.92775E-08-2.41531E-08
 -1       545 1.43967E+05 1.29210E+04 1.03827E+05-1.31652E+05-1.39075E-08-8.20437E-08
 -1       546-4.58396E+05 6.95305E+03-1.61121E+04 7.99803E+04 2.99881E-08-8.22948E-08
 -1       547-2.64176E+05-4.51454E+03 1.59246E+04-1.63504E+05-1.33865E-07-1.13127E-07
 -1       548-4.59644E+05 5.39795E+03-2.65307E+04 7.99267E+04-1.13645E-07-1.24867E-07
 -1       549 1.49394E+05 2.55345E+04 8.26159E+04-1.31648E+05-5.89953E-08-6.96093E-08
 -1       550-8.60885E+05-3.24597E+04-1.50534E+05 4.71287E+04 2.11967E-08-3.81042E-08
 -1       551 4.19839E+04-7.79276E+05-1.13845E+04-1.22155E+06-1.02802E-07 1.89175E-09
 -1       552 9.15248E+04-8.21759E+05 1.23433E+04-1.74261E+06-6.93981E-08 6.24204E-08
 -1       553 6.97101E+04-8.16613E+05 3.39497E+04-1.21534E+06-1.15615E-07 2.08529E-08
 -1       554 1.27925E+05-8.32787E+05 8.34188E+04-1.74437E+06-7.52480E-08 7.40147E-09
 -1       555 9.81919E+04-8.38101E+05 1.51720E+05-1.21548E+06-1.19842E-07-1.95032E-08
 -1       556 1.96094E+05-3.38506E+05 3.46771E+04-3.63307E+05-2.33704E-08-2.15368E-09
 -1       557 3.14434E+05-4.31584E+05 2.03916E+04-4.67668E+05-1.39698E-09 2.97696E-08
 -1       558 1.81425E+05-3.34616E+05 4.54370E+03-3.64950E+05-2.38069E-08-6.68661E-09
 -1       559 2.92127E+05-4.33817E+05 3.35986E+03-4.85274E+05 1.30240E-08-1.94559E-08
 -1       560 1.68533E+05-3.26516E+05-9.29557E+02-3.74238E+05 1.17288E-08 1.99361E-09
 -1       561 2.75610E+05-4.27342E+05 2.99004E+02-4.96567E+05-3.84171E-09 4.01633E-09
 -1       562 1.58081E+05-3.20014E+05-1.25855E+03-3.81849E+05-3.88536E-09-9.59699E-09
 -1       563 2.62977E+05-4.21848E+05-8.00415E+01-5.04858E+05-9.02219E-09 3.39342E-08
 -1       564 1.50327E+05-3.15186E+05-7.23132E+02-3.87371E+05 1.04919E-08-6.47378E-09
 -1       565 2.54127E+05-4.18006E+05-1.04304E+02-5.10540E+05 1.37807E-08-3.67686E-09
 -1       566 1.45385E+05-3.12056E+05-4.68829E+02-3.90841E+05-4.30737E-09-6.77574E-09
 -1       567 2.49099E+05-4.15848E+05-6.16134E+02-5.13640E+05 7.07223E-09 1.84300E-08
 -1       568 1.43330E+05-3.10785E+05-1.51491E+03-3.92341E+05 1.71349E-09 1.15288E-08
 -1       569 2.46569E+05-4.15662E+05-3.69566E+03-5.13473E+05-7.11088E-09 1.22200E-08
 -1       570 1.45168E+05-3.13194E+05-7.59194E+03-3.91781E+05 6.83940E-09-5.42150E-09
 -1       571 2.93245E+05 1.03913E+04 1.45316E+04-1.13966E+05 1.04683E-09 1.13469E-08
 -1       572 2.95311E+05 4.07708E+03 7.12355E+03-1.24988E+05-9.15861E-10 9.77525E-09
 -1       573 2.94042E+05 1.43042E+03 3.16504E+03-1.13740E+05 2.99951E-09 5.03860E-09
 -1       574 2.94212E+05 9.60544E+02 1.58816E+03-1.25273E+05 6.22981E-09-5.83805E-09
 -1       575 2.94111E+05 6.69650E+02 7.49335E+02-1.13710E+05 2.05557E-09 4.72119E-09
 -1       576 2.94067E+05 7.07783E+02 3.83454E+02-1.25311E+05-1.39426E-08 8.02174E-10
 -1       577 2.94149E+05 6.13883E+02 1.89860E+02-1.13705E+05-7.09588E-09 1.02518E-08
 -1       578 2.94108E+05 6.64958E+02 1.06794E+02-1.25317E+05-6.30052E-09 3.71265E-08
 -1       579 2.94240E+05 5.66129E+02 6.67484E+01-1.13705E+05 7.60701E-09-9.27685E-10
 -1       580 2.94240E+05 5.95760E+02 6.93397E+01-1.25311E+05-9.18953E-09-1.00254E-08
 -1       581 2.94394E+05 4.81800E+02 9.34099E+01-1.13712E+05 8.04721E-09-9.69430E-09
 -1       582 2.94462E+05 5.13870E+02 1.88112E+02-1.25240E+05-8.29459E-10 3.24872E-09
 -1       583 2.94599E+05 4.44676E+02 3.49721E+02-1.13778E+05-6.43922E-10 8.33597E-09
 -1       584 2.94854E+05 7.34752E+02 7.97201E+02-1.24688E+05 8.41828E-09-7.49469E-09
 -1       585 2.94746E+05 1.34743E+03 1.60092E+03-1.14265E+05-1.84082E-09-9.73159E-09
 -1       586-2.33571E+03 1.42355E+05-1.01439E+03-2.40507E+05-5.76756E-09 3.05226E-09
 -1       587-1.13093E+03 1.42363E+05 1.59144E+03-2.64551E+05-1.04064E-08 2.18811E-08
 -1       588 2.56888E+02 1.41948E+05 4.89841E+03-2.40300E+05-4.44015E-09 8.55971E-09
 -1       589 4.64404E+03 1.44290E+05 1.19048E+04-2.64477E+05-8.66021E-09-6.98128E-09
 -1       590 1.56098E+04 1.40593E+05 2.46670E+04-2.40643E+05-5.61204E-09-2.02454E-09
 -1       591-1.00483E+05-2.11375E+04-2.60265E+04-4.31140E+04 6.23231E-10 3.93629E-09
 -1       592-1.04844E+05-2.56082E+04-1.40980E+04-4.77251E+04 3.83730E-09 4.77507E-09
 -1       593-1.03097E+05-1.92381E+04-5.86834E+03-4.50110E+04 3.91788E-09-5.61340E-09
 -1       594-1.01243E+05-2.17972E+04-2.92655E+03-4.78722E+04 2.60866E-09 6.89687E-09
 -1       595-1.03297E+05-1.92307E+04-1.34366E+03-4.50974E+04 1.85776E-09 1.20563E-08
 -1       596-1.00997E+05-2.16230E+04-6.82792E+02-4.78443E+04 8.83215E-09 1.85491E-09
 -1       597-1.03322E+05-1.92481E+04-3.71392E+02-4.51007E+04 2.53004E-09-1.19229E-08
 -1       598-1.00973E+05-2.16162E+04-2.97852E+02-4.78365E+04 7.38481E-10-5.48152E-09
 -1       599-1.03321E+05-1.92488E+04-3.79621E+02-4.51003E+04 7.36645E-09-3.51986E-09
 -1       600-1.00997E+05-2.16238E+04-7.04551E+02-4.78418E+04 4.32010E-10-1.72392E-08
 -1       601-1.03291E+05-1.92323E+04-1.38969E+03-4.50961E+04 5.47243E-09 4.87512E-09
 -1       602-1.01251E+05-2.18030E+04-3.02848E+03-4.78663E+04-1.32059E-09-1.18505E-08
 -1       603-1.03082E+05-1.92432E+04-6.07343E+03-4.50073E+04 3.44926E-10-2.34877E-09
 -1       604-1.04992E+05-2.57300E+04-1.45897E+04-4.76917E+04 1.74532E-09 1.33809E-09
 -1       605-1.00358E+05-2.12241E+04-2.69344E+04-4.30605E+04 6.76738E-09 1.45737E-08
 -1       606 2.58083E+04-1.50213E+04-2.69125E+04 2.18911E+04 9.00218E-09 6.19792E-09
 -1       607 2.12116E+04-4.91465E+03-1.34027E+04 2.46138E+04-6.95763E-11 2.84674E-08
 -1       608 2.38354E+04-8.94575E+02-5.99940E+03 2.17476E+04-6.53745E-09 1.65428E-08
 -1       609 2.33367E+04-3.17503E+02-3.03099E+03 2.48109E+04 3.21961E-10 5.64671E-09
 -1       610 2.36167E+04-5.60757E+01-1.44580E+03 2.17299E+04 6.46469E-09 2.02635E-09
 -1       611 2.35419E+04-6.06972E+01-7.29236E+02 2.48320E+04 1.29444E-08 1.74123E-09
 -1       612 2.35717E+04-4.43967E+01-3.46694E+02 2.17281E+04-1.19326E-09-1.38418E-08
 -1       613 2.35584E+04-5.88807E+01-1.56005E+02 2.48345E+04-3.00133E-09-4.34306E-09
 -1       614 2.35520E+04-5.32278E+01-3.76650E+01 2.17275E+04-9.01673E-09 1.24837E-08
 -1       615 2.35563E+04-5.92334E+01 6.22215E+01 2.48349E+04-1.12952E-08 4.56339E-09
 -1       616 2.35365E+04-5.15867E+01 1.89608E+02 2.17277E+04 1.06961E-08 5.08589E-09
 -1       617 2.35813E+04-1.99664E+01 4.33477E+02 2.48345E+04 2.08036E-08-8.63179E-09
 -1       618 2.35003E+04 7.24987E+01 8.74240E+02 2.17281E+04 1.36131E-08-1.50999E-09
 -1       619 2.38913E+04 6.55376E+02 1.96338E+03 2.48341E+04-1.44598E-09-4.95129E-09
 -1       620 2.32107E+04 2.14542E+03 3.94651E+03 2.17310E+04-3.33739E-09 8.43693E-09
 -1       621 8.84081E+02 3.34704E+05 6.22672E+03 5.07573E+04 1.46611E-09 3.92174E-09
 -1       622 1.11384E+03 3.36151E+05 4.96487E+03 7.36554E+04 1.66665E-09 6.27097E-09
 -1       623 2.33772E+02 3.35106E+05 5.26293E+03 5.05393E+04 1.97838E-09-1.20399E-08
 -1       624 2.60038E+03 3.37357E+05 9.61773E+03 7.38606E+04 2.18915E-09-3.26306E-08
 -1       625 2.50289E+03 3.33246E+05 1.65343E+04 5.05432E+04 2.06091E-09-1.30210E-08
 -1       626 2.59803E+05 5.86187E+04 3.73741E+03 1.23971E+05 2.90947E-09-7.48514E-10
 -1       627 2.57549E+05 6.01914E+04 1.80110E+03 1.27730E+05 7.33235E-09-8.49872E-09
 -1       628 2.59909E+05 5.68936E+04 7.62120E+02 1.24588E+05-3.17686E-09 1.46763E-08
 -1       629 2.57068E+05 5.97113E+04 3.73825E+02 1.27924E+05-1.35142E-08 1.91572E-08
 -1       630 2.59921E+05 5.68098E+04 1.75061E+02 1.24612E+05 6.62567E-09 1.60846E-08
 -1       631 2.57018E+05 5.96938E+04 9.74836E+01 1.27927E+05 1.77874E-08-5.94355E-09
 -1       632 2.59918E+05 5.68120E+04 7.02544E+01 1.24609E+05 1.69086E-08 4.89558E-09
 -1       633 2.57013E+05 5.96945E+04 8.74655E+01 1.27925E+05 1.24305E-09 1.23562E-08
 -1       634 2.59915E+05 5.68079E+04 1.49605E+02 1.24610E+05-1.16960E-08-1.88834E-09
 -1       635 2.57028E+05 5.96922E+04 3.07879E+02 1.27932E+05-3.82488E-09 1.57142E-08
 -1       636 2.59906E+05 5.68016E+04 6.24372E+02 1.24610E+05-4.25234E-09-1.78261E-09
 -1       637 2.57164E+05 5.97898E+04 1.37427E+03 1.27931E+05 1.42836E-08 3.62934E-09
 -1       638 2.59857E+05 5.71053E+04 2.82428E+03 1.24472E+05 9.45829E-09 6.31644E-09
 -1       639 2.58642E+05 6.18573E+04 6.68275E+03 1.27498E+05 9.31414E-09 6.84190E-09
 -1       640 2.59650E+05 6.32680E+04 1.38682E+04 1.21875E+05 4.54975E-09 1.07957E-09
 -1       656 6.67069E+04-1.70893E+06-1.61024E+05-3.46553E+03-1.81899E-10 2.86395E-07
 -1       657-8.82348E+04-1.78171E+06-1.33380E+05 3.93838E+03-2.28829E-09 3.60238E-06
 -1       658 2.12471E+04-1.72961E+06-8.21138E+04-5.48248E+03-6.06440E-07 3.12891E-04
 -1       659-9.53316E+04-1.78508E+06-1.42709E+05 5.65703E+03-1.27200E-06 6.16748E-04
 -1       660 7.37876E+04-1.70557E+06-1.77064E+05-5.18417E+03-5.46781E-07 3.13921E-04
 -1       661 1.52548E+05 1.58282E+04 1.62613E+04 5.95635E+04-4.07499E-09 4.69845E-09
 -1       662 1.61751E+05 2.78606E+04 1.09590E+04 5.59005E+04-3.48285E-09-1.79888E-08
 -1       663 1.55740E+05 2.10469E+04 3.83274E+03 5.86386E+04 1.10208E-09 5.67957E-09
 -1       664 1.58051E+05 2.17571E+04 2.29277E+03 5.70299E+04-2.98087E-10 7.70828E-09
 -1       665 1.56224E+05 2.17603E+04 9.04488E+02 5.84980E+04 2.36975E-09-1.02754E-08
 -1       666 1.57479E+05 2.09410E+04 5.29436E+02 5.72128E+04 1.36482E-08-1.83265E-08
 -1       667 1.56308E+05 2.18419E+04 2.81408E+02 5.84632E+04 4.77169E-09 1.83876E-08
 -1       668 1.57386E+05 2.08816E+04 2.87156E+02 5.72631E+04-1.11416E-08 4.46016E-09
 -1       669 1.56315E+05 2.18179E+04 3.89140E+02 5.84479E+04 1.03580E-09 1.41978E-08
 -1       670 1.57482E+05 2.10920E+04 8.47673E+02 5.72649E+04-1.60464E-08 1.02273E-08
 -1       671 1.56212E+05 2.16359E+04 1.50524E+03 5.84594E+04-2.98050E-09 3.82141E-09
 -1       672 1.58360E+05 2.25558E+04 3.85120E+03 5.70517E+04 7.12170E-09 8.38691E-09
 -1       673 1.55442E+05 2.03913E+04 6.45404E+03 5.86470E+04-9.82709E-10-1.33628E-09
 -1       674 1.64501E+05 3.29262E+04 1.84573E+04 5.52484E+04-3.96130E-09-6.55746E-09
 -1       675 1.50110E+05 1.15560E+04 2.73970E+04 6.01539E+04-7.46968E-09 1.71913E-08
 -1       676 2.38104E+01-2.91167E+05-1.09308E+03-1.91276E+02 3.79526E-09 6.72881E-09
 -1       677-2.87947E+02-2.91432E+05-2.00052E+03 3.82248E+02 1.31576E-08 1.07555E-08
 -1       678 1.94068E+02-2.90979E+05-3.53643E+03-1.90850E+02 3.85694E-09 1.82725E-09
 -1       679-3.53528E+03-2.93567E+05-8.40106E+03 3.80614E+02 1.56201E-08-2.86428E-08
 -1       680 2.11159E+03-2.89033E+05-1.35396E+04-1.87538E+02 3.77622E-09 1.55719E-08
 -1       771-3.01427E+06-7.29027E+05-1.52611E+05-1.43947E+06-3.12866E-08-2.84635E-08
 -1       772-2.93797E+06-8.15316E+05-7.85938E+04-1.53931E+06-2.21917E-08 1.43700E-08
 -1       773-3.04381E+06-7.05924E+05-4.02062E+04-1.45269E+06-6.43195E-09 7.31961E-09
 -1       774-2.92939E+06-7.98510E+05-1.79026E+04-1.56372E+06 4.20841E-08-3.63798E-12
 -1       775-3.05932E+06-6.95010E+05-1.34742E+04-1.45926E+06 9.08040E-09-5.16593E-10
 -1       776-2.94099E+06-7.95718E+05-5.02564E+03-1.58210E+06-1.21072E-08 3.27782E-09
 -1       777-3.07275E+06-6.85302E+05-5.98292E+03-1.46505E+06-4.65661E-09 8.22183E-10
 -1       778-2.95304E+06-7.93114E+05-1.70498E+03-1.59785E+06-2.32831E-09 1.35915E-08
 -1       779-3.08427E+06-6.76843E+05-3.03776E+03-1.47000E+06-8.01811E-09-6.40284E-09
 -1       780-2.96362E+06-7.90641E+05-6.04599E+02-1.61067E+06-7.66886E-09-1.49157E-10
 -1       781-3.09340E+06-6.70038E+05-1.38964E+03-1.47386E+06-3.12139E-08-1.05138E-09
 -1       782-2.97180E+06-7.88577E+05-9.39755E+01-1.62012E+06-4.00469E-08-8.38918E-09
 -1       783-3.09978E+06-6.65329E+05-3.81011E+02-1.47655E+06-3.56522E-09-1.62167E-08
 -1       784-2.97692E+06-7.87156E+05 2.03177E+02-1.62590E+06-1.13796E-08-2.10866E-09
 -1       785-3.10308E+06-6.62878E+05 1.51902E+02-1.47793E+06-3.22834E-08 5.64796E-09
 -1       786 2.29502E+05-1.24154E+04 2.87284E+04-6.01390E+02-8.16224E-05-2.56408E-07
 -1       787 2.41950E+05 1.43768E+04 2.03241E+04-6.51808E+02-1.62636E-04-4.46018E-07
 -1       788 2.34305E+05-1.94497E+03 7.43530E+03-5.99635E+02-1.13525E-04-2.52924E-07
 -1       789 2.36355E+05 2.25395E+03 4.67094E+03-6.51323E+02-6.39318E-05-1.62660E-07
 -1       790 2.35098E+05-3.02465E+02 1.89918E+03-6.01904E+02-1.74810E-05-3.05162E-08
 -1       791 2.35430E+05 3.54560E+02 1.11211E+03-6.51268E+02 2.89620E-05 6.13495E-08
 -1       792 2.35231E+05-4.70125E+01 5.01828E+02-5.99696E+02 6.69399E-05 1.57536E-07
 -1       793 2.35279E+05 6.72079E+01 3.17048E+02-6.62492E+02 1.04690E-04 2.90543E-07
 -1       794 2.35249E+05-1.53065E+01 2.16894E+02-5.90682E+02 5.24650E-05 1.17877E-07
 -1       795 2.35284E+05 8.17272E+01 2.87703E+02-6.91057E+02 1.71326E-07-1.58792E-10
 -1       796 2.35226E+05-6.15225E+01 4.15239E+02-5.71130E+02 7.17740E-09-4.85610E-09
 -1       797 2.35468E+05 4.61915E+02 9.66103E+02-7.48136E+02 3.94457E-09 1.13955E-09
 -1       798 2.35065E+05-3.95220E+02 1.52057E+03-5.33600E+02 8.63199E-09 1.67157E-08
 -1       799 2.36609E+05 2.92986E+03 4.14214E+03-8.54457E+02 2.03902E-09 2.65520E-08
 -1       800 2.34085E+05-2.52751E+03 5.84886E+03-4.64802E+02 1.29074E-09 2.15439E-08
 -1       801-3.08528E+05-1.09041E+07-1.67332E+06 1.84109E+06 6.76955E-08-6.43304E-08
 -1       802 1.17488E+06 1.47380E+07 3.87467E+06-2.45940E+06-2.01617E-08-5.04315E-08
 -1       803-7.91669E+05-1.92986E+07-3.02750E+06 1.09078E+06 1.80444E-07 3.95648E-08
 -1       804 5.78502E+05 1.01635E+07 2.99154E+06 5.99456E+05-3.11193E-08-1.33010E-07
 -1       805 1.75494E+05-6.29933E+06-3.63185E+05-1.22454E+06-1.17227E-07-1.06031E-07
 -1       806-2.94310E+05-6.82186E+04-2.58460E+04-1.29070E+05-4.80804E-09 6.06633E-09
 -1       807-2.95009E+05-6.53411E+04-1.26973E+04-1.36906E+05 1.68160E-08 1.48336E-08
 -1       808-2.95099E+05-5.88277E+04-5.38589E+03-1.33396E+05-3.27674E-09-1.63712E-08
 -1       809-2.92270E+05-6.18450E+04-2.63270E+03-1.37310E+05-1.75266E-08-1.61774E-08
 -1       810-2.95218E+05-5.84942E+04-1.20566E+03-1.33586E+05 2.84001E-09 3.25736E-09
 -1       811-2.92059E+05-6.17093E+04-5.98163E+02-1.37282E+05 6.57496E-09-1.23778E-08
 -1       812-2.95235E+05-5.85197E+04-2.99444E+02-1.33583E+05-5.49790E-09-1.00054E-08
 -1       813-2.92027E+05-6.17151E+04-1.90676E+02-1.37262E+05-7.19433E-09-1.00108E-08
 -1       814-2.95226E+05-5.85323E+04-1.82126E+02-1.33576E+05-7.64430E-10-1.27793E-08
 -1       815-2.92023E+05-6.17210E+04-2.87763E+02-1.37251E+05 9.63473E-09 1.06520E-08
 -1       816-2.95197E+05-5.85356E+04-5.41994E+02-1.33567E+05 8.02993E-09 2.81289E-08
 -1       817-2.92106E+05-6.17759E+04-1.16158E+03-1.37230E+05-1.47470E-08 1.40776E-08
 -1       818-2.95114E+05-5.87076E+04-2.36907E+03-1.33485E+05-4.59931E-09-1.14724E-08
 -1       819-2.93411E+05-6.31891E+04-5.57292E+03-1.36885E+05 4.30373E-09-1.29494E-08
 -1       820-2.94628E+05-6.29483E+04-1.13442E+04-1.31707E+05 8.55835E-10 1.40076E-08
 -1       821-3.90516E+05 2.14043E+04-5.06492E+04 3.39889E+03 2.04568E-08-5.98084E-09
 -1       822-4.07361E+05-2.48396E+04-3.49444E+04-7.75119E+03 9.35211E-09-6.34236E-09
 -1       823-3.96676E+05 3.41394E+03-1.30162E+04 6.12601E+03-2.22042E-08 7.81256E-10
 -1       824-3.99441E+05-3.91955E+03-8.04617E+03-1.00485E+04 3.97010E-09 1.82548E-08
 -1       825-3.98479E+05 5.38340E+02-3.46988E+03 5.69673E+03 3.77144E-08 2.81600E-08
 -1       826-3.95157E+05-5.12542E+02-1.36287E+03-6.30098E+03 4.78881E-08 3.35908E-09
 -1       827-4.00887E+05-4.85240E+01-1.60625E+03 2.37786E+03 1.67653E-08-2.10172E-08
 -1       828-3.93006E+05-4.38530E+00 1.31397E+02 1.36119E+03-2.67977E-09-8.56363E-09
 -1       829-4.00579E+05-1.06933E+01-1.54927E+03-1.96538E+03 5.43457E-09-1.94146E-09
 -1       830-3.95791E+05-5.99877E+02-1.52694E+03 8.58508E+03 1.96883E-09 5.23289E-09
 -1       831-3.98170E+05 6.02408E+02-3.44723E+03-4.84583E+03-1.05498E-08-7.09770E-09
 -1       832-3.99439E+05-4.04074E+03-8.16962E+03 1.12599E+04-8.44778E-09 1.63209E-08
 -1       833-3.96987E+05 3.47176E+03-1.32648E+04-4.64045E+03-3.10175E-09-2.42644E-08
 -1       834-4.06809E+05-2.52099E+04-3.53153E+04 7.81458E+03-5.77228E-09-4.78076E-09
 -1       835-3.90738E+05 2.17019E+04-5.14419E+04-1.40019E+03 4.66741E-09 8.06176E-09
 -1       836-1.62065E+03 3.99353E+05 2.49015E+04-2.87936E+04-9.27957E-09 5.92809E-09
 -1       837 5.17538E+03 4.07207E+05 2.07547E+04-5.87428E+04-1.01709E-08-5.77415E-09
 -1       838-6.43802E+02 4.01580E+05 2.06926E+04-2.86918E+04-8.72024E-09-3.15003E-09
 -1       839 1.27140E+04 4.12799E+05 3.86974E+04-5.87874E+04-9.40872E-09 1.33993E-08
 -1       840-4.03104E+03 3.93670E+05 6.15057E+04-2.87583E+04-8.68749E-09 5.25961E-09
 -1       856-4.85360E+04 7.77890E+03-2.04983E+04-3.67647E+02 7.11907E-09 2.59188E-08
 -1       857-5.69735E+04-9.14592E+03-1.41107E+04 5.62120E+03 6.46685E-09-2.10662E-09
 -1       858-5.18803E+04 1.09129E+03-5.31874E+03-3.92364E+02 3.62144E-09 3.15117E-09
 -1       859-5.31358E+04-1.28972E+03-3.20940E+03 5.65737E+03-1.07491E-10 4.06994E-08
 -1       860-5.23799E+04 1.53223E+02-1.34475E+03-4.03425E+02 2.01959E-09 1.20625E-08
 -1       861-5.25612E+04-1.88655E+02-7.39075E+02 5.67242E+03 3.21779E-09-1.35253E-08
 -1       862-5.24581E+04 2.11110E+01-3.05848E+02-4.07377E+02-7.35539E-09 9.85332E-09
 -1       863-5.24652E+04-2.70092E+01-1.08282E+02 5.67488E+03-1.07166E-08-1.35208E-09
 -1       864-5.24765E+04-4.70955E+00 5.28083E+01-4.05876E+02-5.31901E-09-1.08285E-08
 -1       865-5.24093E+04 5.51446E+01 2.63095E+02 5.66589E+03-5.00656E-09-7.75057E-09
 -1       866-5.25119E+04-6.09881E+01 5.26639E+02-3.98397E+02-3.66072E-09 3.39523E-09
 -1       867-5.21627E+04 5.01498E+02 1.29387E+03 5.64562E+03 3.13176E-09-1.02804E-09
 -1       868-5.27182E+04-4.42854E+02 2.14955E+03-3.85599E+02-1.34008E-09-1.16601E-08
 -1       869-5.05877E+04 3.68406E+03 5.72254E+03 5.61273E+03 8.53399E-09-1.47088E-08
 -1       870-5.40792E+04-3.15691E+03 8.30493E+03-3.65361E+02-5.46117E-09-7.21866E-09
 -1       871-5.40016E+03-2.58106E+04-1.96003E+04 1.29734E+05-6.78483E-09-1.30876E-09
 -1       872-1.81529E+03-3.04051E+04-8.27232E+03 1.68232E+05-1.36442E-08-1.00649E-08
 -1       873 5.37787E+02-2.81470E+04 4.34020E+02 1.29449E+05-7.56154E-09 6.89147E-09
 -1       874 3.40827E+03-2.58459E+04 9.46359E+03 1.68250E+05-1.31386E-08 7.44603E-09
 -1       875 6.81534E+03-3.04146E+04 2.14767E+04 1.29688E+05-6.02267E-09-2.34195E-09
 -1       876 2.90190E+05 4.89178E+04 1.50367E+04 1.16455E+05 6.83849E-09-1.34933E-08
 -1       877 2.91155E+05 5.21143E+04 8.03017E+03 1.20809E+05 1.96335E-08-3.27009E-09
 -1       878 2.91598E+05 4.72500E+04 3.36418E+03 1.17684E+05-7.06905E-09 3.11957E-10
 -1       879 2.89110E+05 5.00753E+04 1.67618E+03 1.20912E+05 6.15182E-09 4.95174E-09
 -1       880 2.91699E+05 4.72327E+04 7.80585E+02 1.17734E+05 4.64570E-09 2.13453E-09
 -1       881 2.88974E+05 4.99881E+04 4.16580E+02 1.20888E+05-8.94704E-09 9.86701E-09
 -1       882 2.91708E+05 4.72461E+04 2.65978E+02 1.17736E+05-7.82779E-09 3.67855E-09
 -1       883 2.88964E+05 4.99836E+04 2.85139E+02 1.20881E+05-3.39907E-09 7.37109E-09
 -1       884 2.91701E+05 4.72434E+04 4.52845E+02 1.17736E+05-7.61588E-10 6.64454E-09
 -1       885 2.89000E+05 4.99899E+04 9.09995E+02 1.20891E+05 2.39757E-09 7.53039E-09
 -1       886 2.91666E+05 4.72169E+04 1.83382E+03 1.17732E+05-9.79720E-09 1.24478E-08
 -1       887 2.89323E+05 5.02011E+04 4.00560E+03 1.20938E+05 9.78730E-10-3.02225E-09
 -1       888 2.91413E+05 4.72616E+04 8.07134E+03 1.17605E+05-1.61879E-09-2.47837E-09
 -1       889 2.94128E+05 5.51978E+04 1.92809E+04 1.20790E+05 5.02865E-09-1.76933E-08
 -1       890 2.88115E+05 5.11787E+04 3.61127E+04 1.14537E+05-4.78622E-09 3.01770E-09
 -1       891-6.03314E+01-1.60557E+05-1.96822E+03 2.64482E+04-7.34190E-10 1.10781E-08
 -1       892-1.30751E+02-1.61092E+05-2.11546E+03 4.02093E+04 3.62002E-09-9.59881E-09
 -1       893 7.10426E+01-1.60621E+05-2.99679E+03 2.64557E+04-8.08132E-09 2.94349E-08
 -1       894-1.44860E+03-1.62225E+05-6.20343E+03 4.00595E+04 3.05317E-09 2.69756E-08
 -1       895-1.15532E+03-1.59329E+05-1.09244E+04 2.66012E+04-2.33103E-09 5.66524E-09
 -1       956-3.73073E+05-5.72998E+03-1.40173E+04 3.40906E+04 1.12950E-08-1.33609E-08
 -1       957-3.75816E+05-2.06124E+03-7.19431E+03 4.09188E+04 3.20779E-09-4.56205E-08
 -1       958-3.74340E+05-2.98967E+02-3.24258E+03 3.39023E+04-7.28232E-09-1.05797E-08
 -1       959-3.74539E+05-1.96120E+02-1.65518E+03 4.11426E+04 5.57520E-09 1.85137E-08
 -1       960-3.74469E+05-9.04679E+01-8.06981E+02 3.38827E+04 8.58927E-09-1.38743E-08
 -1       961-3.74462E+05-1.16298E+02-4.26600E+02 4.11661E+04 1.57706E-08-1.89521E-08
 -1       962-3.74503E+05-8.87053E+01-2.42348E+02 3.38793E+04 2.16960E-09 1.09769E-08
 -1       963-3.74467E+05-1.09391E+02-1.90869E+02 4.11707E+04-1.93540E-09 2.05569E-09
 -1       964-3.74512E+05-8.35469E+01-2.27792E+02 3.38782E+04-5.91604E-09-3.61797E-09
 -1       965-3.74481E+05-1.05079E+02-3.90380E+02 4.11704E+04-1.09253E-08 1.02832E-08
 -1       966-3.74497E+05-7.52341E+01-7.31586E+02 3.38796E+04 1.70917E-09 2.23224E-08
 -1       967-3.74569E+05-1.67370E+02-1.49950E+03 4.11558E+04 1.54682E-09 3.28646E-09
 -1       968-3.74394E+05-2.54829E+02-2.93518E+03 3.38925E+04 2.10730E-09 8.75423E-09
 -1       969-3.75742E+05-1.84871E+03-6.51577E+03 4.10010E+04 2.34104E-09 2.70444E-09
 -1       970-3.73258E+05-5.16819E+03-1.26935E+04 3.40223E+04-4.21551E-09 2.18697E-08
 -1       971-3.40827E+05-1.68475E+03-9.00000E+03 1.49851E+04 1.19762E-08-2.11893E-08
 -1       972-3.42987E+05-1.25056E+03-4.90145E+03 2.06544E+04 1.44100E-08-3.56954E-08
 -1       973-3.41829E+05-7.50834E+01-2.19540E+03 1.48703E+04 8.23093E-09-9.48148E-09
 -1       974-3.41953E+05-1.00102E+02-1.13828E+03 2.07858E+04 5.31509E-09 7.16216E-09
 -1       975-3.41908E+05-3.21082E+01-5.69801E+02 1.48586E+04-2.87810E-09-6.95968E-09
 -1       976-3.41892E+05-5.23111E+01-3.30402E+02 2.08008E+04 6.80484E-09 5.93332E-09
 -1       977-3.41923E+05-3.16370E+01-2.42665E+02 1.48555E+04-4.12274E-09-4.22460E-10
 -1       978-3.41897E+05-4.65012E+01-2.87947E+02 2.08054E+04-1.32580E-08 1.80564E-08
 -1       979-3.41923E+05-2.34313E+01-4.66005E+02 1.48541E+04-9.65764E-09-3.41015E-09
 -1       980-3.41932E+05-4.35913E+01-9.01909E+02 2.08063E+04-1.31305E-08-1.00919E-08
 -1       981-3.41894E+05-8.79222E-01-1.74786E+03 1.48546E+04 3.75178E-09-2.24581E-08
 -1       982-3.42172E+05-1.72643E+02-3.61337E+03 2.08000E+04 4.64763E-09-3.30971E-10
 -1       983-3.41674E+05-1.12621E+02-7.02103E+03 1.48603E+04-3.54612E-09 7.15522E-09
 -1       984-3.45550E+05-3.83915E+03-1.57235E+04 2.07171E+04-3.37059E-09 8.25821E-10
 -1       985-3.38495E+05-5.24995E+03-2.88731E+04 1.49246E+04-4.60568E-09 4.82396E-09
 -3
    1PSTEP                        35          18           1          
  100CL  118 6.55991E-01         409                     0   18           1
 -4  DISP        4    1
 -5  D1          1    2    1    0
 -5  D2          1    2    2    0
 -5  D3          1    2    3    0
 -5  ALL         1    2    0    0    1ALL
 -1         1 2.46696E-03 0.00000E+00 0.00000E+00
 -1         2 1.46417E-03 9.56957E-27-2.64698E-23
 -1         3 3.43945E-04 1.58741E-27-1.32349E-23
 -1         5 1.65331E-04 1.45538E-27-3.30872E-24
 -1         8 2.45276E-03-4.61326E-07 0.00000E+00
 -1         9 2.43527E-03-1.01409E-04 0.00000E+00
 -1        10 3.11504E-04-3.31521E-06 6.61744E-24
 -1        12 1.68037E-04 8.80882E-07 0.00000E+00
 -1        15 2.43595E-03-4.97392E-07-2.06795E-25
 -1        16 2.47762E-03-1.02851E-04 0.00000E+00
 -1        17 2.10589E-04-7.60449E-06 0.00000E+00
 -1        18 1.74557E-04 4.57011E-05 0.00000E+00
 -1        19 1.76155E-04 1.75208E-06 0.00000E+00
 -1        20 1.76280E-04-1.96495E-05 0.00000E+00
 -1        21 1.75357E-04-4.53433E-05 3.30872E-24
 -1        24 3.02212E-05-1.18514E-05 0.00000E+00
 -1        25 1.88685E-04 4.59775E-05 0.00000E+00
 -1        26 1.89941E-04 2.44087E-06 0.00000E+00
 -1        27 1.87540E-04-2.32531E-05 0.00000E+00
 -1        28 1.87240E-04-4.59649E-05 0.00000E+00
 -1        32 0.00000E+00 0.00000E+00 0.00000E+00
 -1        33 2.02383E-04 3.25701E-06 0.00000E+00
 -1        34 2.00258E-04-2.33258E-05 0.00000E+00
 -1        35 1.98327E-04-4.63105E-05 0.00000E+00
 -1        51 2.46603E-03-9.16873E-08-6.61744E-24
 -1        52 2.46432E-03-1.66691E-07 0.00000E+00
 -1        53 2.46197E-03-2.38924E-07 0.00000E+00
 -1        54 2.45915E-03-3.10586E-07 0.00000E+00
 -1        55 2.45603E-03-3.83352E-07-2.37814E-24
 -1        56 2.46217E-03 1.87008E-06-5.29396E-23
 -1        57 2.45502E-03 9.53534E-06 5.29396E-23
 -1        58 2.44635E-03 2.11268E-05 0.00000E+00
 -1        59 2.43702E-03 3.43710E-05 0.00000E+00
 -1        60 2.42802E-03 4.67374E-05 0.00000E+00
 -1        61 2.42032E-03 5.57585E-05-5.29396E-23
 -1        62 2.41463E-03 5.95383E-05 1.05879E-22
 -1        63 2.41146E-03 5.66231E-05 0.00000E+00
 -1        64 2.41087E-03 4.67095E-05 0.00000E+00
 -1        65 2.41272E-03 3.00980E-05 0.00000E+00
 -1        66 2.41642E-03 8.25237E-06-1.05879E-22
 -1        67 2.42130E-03-1.69043E-05 0.00000E+00
 -1        68 2.42645E-03-4.28699E-05 0.00000E+00
 -1        69 2.43101E-03-6.70636E-05-5.29396E-23
 -1        70 2.43415E-03-8.72277E-05 0.00000E+00
 -1        86 1.52481E-03-3.60571E-06 5.29396E-23
 -1        87 1.70213E-03-2.06758E-05 0.00000E+00
 -1        88 1.94058E-03-4.95138E-05-2.64698E-23
 -1        89 2.18179E-03-7.90145E-05 0.00000E+00
 -1        90 2.36586E-03-9.72263E-05 2.64698E-23
 -1       121 3.43035E-04-5.34261E-07 1.32349E-23
 -1       122 3.40306E-04-1.07170E-06-6.61744E-24
 -1       123 3.35769E-04-1.61546E-06 0.00000E+00
 -1       124 3.29440E-04-2.16866E-06 0.00000E+00
 -1       125 3.21342E-04-2.73405E-06-1.32349E-23
 -1       191 1.65406E-04 1.46946E-07-3.30872E-24
 -1       192 1.65632E-04 2.93868E-07-1.65436E-24
 -1       193 1.66007E-04 4.40748E-07 0.00000E+00
 -1       194 1.66533E-04 5.87560E-07 0.00000E+00
 -1       195 1.67210E-04 7.34280E-07 0.00000E+00
 -1       251 2.45218E-03 1.00689E-05 1.32349E-23
 -1       252 2.45133E-03 3.57715E-05-6.61744E-24
 -1       253 2.45020E-03 7.14327E-05 0.00000E+00
 -1       254 2.44890E-03 1.11621E-04 0.00000E+00
 -1       255 2.44767E-03 1.49752E-04 0.00000E+00
 -1       256 2.44672E-03 1.79286E-04-6.61744E-24
 -1       257 2.44605E-03 1.95869E-04 1.32349E-23
 -1       258 2.44551E-03 1.95431E-04-6.61744E-24
 -1       259 2.44483E-03 1.78168E-04 0.00000E+00
 -1       260 2.44375E-03 1.44648E-04 0.00000E+00
 -1       261 2.44224E-03 9.95227E-05 0.00000E+00
 -1       262 2.44042E-03 4.76914E-05 6.61744E-24
 -1       263 2.43859E-03-4.23797E-06 1.32349E-23
 -1       264 2.43707E-03-4.96547E-05 0.00000E+00
 -1       265 2.43598E-03-8.36129E-05 0.00000E+00
 -1       266 2.44996E-03-4.74060E-07 0.00000E+00
 -1       267 2.44716E-03-4.79252E-07 0.00000E+00
 -1       268 2.44435E-03-4.84921E-07 0.00000E+00
 -1       269 2.44155E-03-4.89175E-07 0.00000E+00
 -1       270 2.43875E-03-4.93396E-07 0.00000E+00
 -1       271 2.45127E-03 1.39810E-06-1.32349E-23
 -1       272 2.45027E-03 1.89490E-06 0.00000E+00
 -1       273 2.44977E-03 1.05520E-06-2.64698E-23
 -1       274 2.44976E-03-1.09230E-06-1.32349E-23
 -1       275 2.45021E-03-4.50386E-06 0.00000E+00
 -1       276 2.45112E-03-9.12566E-06 0.00000E+00
 -1       277 2.45244E-03-1.48919E-05-2.64698E-23
 -1       278 2.45416E-03-2.17267E-05 1.32349E-23
 -1       279 2.45624E-03-2.95438E-05-2.64698E-23
 -1       280 2.45865E-03-3.82481E-05-1.32349E-23
 -1       281 2.46134E-03-4.77359E-05 2.64698E-23
 -1       282 2.46428E-03-5.78967E-05 0.00000E+00
 -1       283 2.46742E-03-6.86133E-05-2.64698E-23
 -1       284 2.47072E-03-7.97627E-05 0.00000E+00
 -1       285 2.47413E-03-9.12195E-05 0.00000E+00
 -1       301 2.44297E-03-1.01676E-04-6.61744E-24
 -1       302 2.44931E-03-1.01905E-04-3.30872E-24
 -1       303 2.45511E-03-1.02129E-04-1.32349E-23
 -1       304 2.46121E-03-1.02354E-04 0.00000E+00
 -1       305 2.46844E-03-1.02587E-04 0.00000E+00
 -1       306 2.47113E-03-2.45139E-04 0.00000E+00
 -1       307 2.53555E-03-6.38160E-04 0.00000E+00
 -1       308 2.58712E-03-1.21692E-03 1.05879E-22
 -1       309 2.61820E-03-1.89123E-03 0.00000E+00
 -1       310 2.65467E-03-2.54138E-03-1.05879E-22
 -1       311 2.71527E-03-3.04983E-03 0.00000E+00
 -1       312 2.77426E-03-3.33870E-03 1.05879E-22
 -1       313 2.77696E-03-3.36794E-03 0.00000E+00
 -1       314 2.65584E-03-3.14633E-03 0.00000E+00
 -1       315 2.37122E-03-2.73087E-03 5.29396E-23
 -1       316 1.93814E-03-2.19413E-03 0.00000E+00
 -1       317 1.41557E-03-1.60413E-03 5.29396E-23
 -1       318 9.08836E-04-1.02325E-03 0.00000E+00
 -1       319 5.18589E-04-5.16791E-04 5.29396E-23
 -1       320 2.87212E-04-1.55284E-04 0.00000E+00
 -1       336 2.99735E-04-3.95869E-06 0.00000E+00
 -1       337 2.85854E-04-4.62871E-06 6.61744E-24
 -1       338 2.69922E-04-5.32764E-06-1.32349E-23
 -1       339 2.52012E-04-6.05662E-06-6.61744E-24
 -1       340 2.32204E-04-6.82004E-06 0.00000E+00
 -1       406 1.69014E-04 1.02733E-06 0.00000E+00
 -1       407 1.70142E-04 1.17358E-06 1.65436E-24
 -1       408 1.71420E-04 1.31956E-06 3.30872E-24
 -1       409 1.72849E-04 1.46505E-06-8.27181E-25
 -1       410 1.74428E-04 1.60972E-06 1.65436E-24
 -1       521 2.51423E-03-2.55836E-04 1.05879E-22
 -1       522 2.57731E-03-6.68666E-04-5.29396E-23
 -1       523 2.62326E-03-1.27456E-03-1.05879E-22
 -1       524 2.64604E-03-1.97689E-03 5.29396E-23
 -1       525 2.67528E-03-2.65311E-03 1.05879E-22
 -1       526 2.73258E-03-3.18310E-03 0.00000E+00
 -1       527 2.79118E-03-3.48269E-03 0.00000E+00
 -1       528 2.79197E-03-3.51082E-03-5.29396E-23
 -1       529 2.66028E-03-3.27603E-03 2.11758E-22
 -1       530 2.35411E-03-2.84244E-03 0.00000E+00
 -1       531 1.88906E-03-2.28624E-03 1.05879E-22
 -1       532 1.32993E-03-1.67831E-03 0.00000E+00
 -1       533 7.87175E-04-1.07907E-03 0.00000E+00
 -1       534 3.66369E-04-5.52077E-04 5.29396E-23
 -1       535 1.15532E-04-1.71950E-04 1.05879E-22
 -1       536 2.09737E-04 2.97456E-05 0.00000E+00
 -1       537 2.07411E-04 9.66518E-05-3.30872E-24
 -1       538 2.03702E-04 1.82801E-04 0.00000E+00
 -1       539 1.99222E-04 2.77780E-04 0.00000E+00
 -1       540 1.95130E-04 3.68298E-04 0.00000E+00
 -1       541 1.92435E-04 4.41083E-04-1.65436E-24
 -1       542 1.91179E-04 4.88293E-04 0.00000E+00
 -1       543 1.90903E-04 5.02253E-04-1.65436E-24
 -1       544 1.90557E-04 4.83604E-04 0.00000E+00
 -1       545 1.89158E-04 4.33259E-04-1.65436E-24
 -1       546 1.86456E-04 3.60278E-04 3.30872E-24
 -1       547 1.82721E-04 2.73868E-04 0.00000E+00
 -1       548 1.78987E-04 1.87474E-04-3.30872E-24
 -1       549 1.76289E-04 1.14546E-04 1.65436E-24
 -1       550 1.74897E-04 6.42734E-05-1.65436E-24
 -1       551 1.85099E-04-8.18678E-06 0.00000E+00
 -1       552 1.56529E-04-8.84604E-06 0.00000E+00
 -1       553 1.25810E-04-9.56361E-06 1.32349E-23
 -1       554 9.38893E-05-1.03183E-05 0.00000E+00
 -1       555 6.17124E-05-1.10829E-05 0.00000E+00
 -1       556 2.02737E-04 1.24844E-05 0.00000E+00
 -1       557 1.96289E-04 2.90477E-05 2.64698E-23
 -1       558 1.91124E-04 4.23428E-05 0.00000E+00
 -1       559 1.87123E-04 5.26485E-05 0.00000E+00
 -1       560 1.84166E-04 6.02439E-05 0.00000E+00
 -1       561 1.82139E-04 6.54103E-05 0.00000E+00
 -1       562 1.80929E-04 6.84303E-05 0.00000E+00
 -1       563 1.80422E-04 6.95873E-05-1.32349E-23
 -1       564 1.80510E-04 6.91654E-05 0.00000E+00
 -1       565 1.81082E-04 6.74496E-05 0.00000E+00
 -1       566 1.82031E-04 6.47251E-05 0.00000E+00
 -1       567 1.83249E-04 6.12777E-05 0.00000E+00
 -1       568 1.84630E-04 5.73935E-05-3.30872E-24
 -1       569 1.86066E-04 5.33583E-05-2.06795E-25
 -1       570 1.87453E-04 4.94586E-05-1.65436E-24
 -1       571 1.74654E-04 4.29076E-05-1.86116E-24
 -1       572 1.74753E-04 4.00279E-05 2.06795E-25
 -1       573 1.74852E-04 3.70811E-05 0.00000E+00
 -1       574 1.74951E-04 3.40869E-05 8.27181E-25
 -1       575 1.75051E-04 3.10654E-05 0.00000E+00
 -1       576 1.75150E-04 2.80365E-05 0.00000E+00
 -1       577 1.75250E-04 2.50204E-05 0.00000E+00
 -1       578 1.75350E-04 2.20370E-05 0.00000E+00
 -1       579 1.75450E-04 1.91065E-05-6.61744E-24
 -1       580 1.75550E-04 1.62488E-05 0.00000E+00
 -1       581 1.75650E-04 1.34842E-05 0.00000E+00
 -1       582 1.75750E-04 1.08325E-05 0.00000E+00
 -1       583 1.75851E-04 8.31387E-06 0.00000E+00
 -1       584 1.75952E-04 5.94811E-06 0.00000E+00
 -1       585 1.76054E-04 3.75483E-06 0.00000E+00
 -1       586 1.76943E-04 4.57487E-05 0.00000E+00
 -1       587 1.79262E-04 4.57962E-05 0.00000E+00
 -1       588 1.81553E-04 4.58435E-05-1.65436E-24
 -1       589 1.83860E-04 4.58902E-05 0.00000E+00
 -1       590 1.86224E-04 4.59357E-05 0.00000E+00
 -1       591 1.75516E-04 4.30165E-05 1.03398E-25
 -1       592 1.76483E-04 4.02980E-05-4.13590E-25
 -1       593 1.77460E-04 3.75533E-05 0.00000E+00
 -1       594 1.78443E-04 3.47889E-05 8.27181E-25
 -1       595 1.79431E-04 3.20113E-05 1.65436E-24
 -1       596 1.80421E-04 2.92271E-05 0.00000E+00
 -1       597 1.81412E-04 2.64427E-05 1.65436E-24
 -1       598 1.82400E-04 2.36645E-05 8.27181E-25
 -1       599 1.83383E-04 2.08990E-05 1.65436E-24
 -1       600 1.84359E-04 1.81527E-05 0.00000E+00
 -1       601 1.85326E-04 1.54320E-05 1.65436E-24
 -1       602 1.86281E-04 1.27434E-05 0.00000E+00
 -1       603 1.87222E-04 1.00934E-05 0.00000E+00
 -1       604 1.88146E-04 7.48845E-06-1.03398E-25
 -1       605 1.89052E-04 4.93501E-06-4.13590E-25
 -1       606 1.76168E-04 9.48464E-09-3.30872E-24
 -1       607 1.76176E-04-1.65527E-06 0.00000E+00
 -1       608 1.76184E-04-3.24676E-06 3.30872E-24
 -1       609 1.76191E-04-4.77012E-06 1.65436E-24
 -1       610 1.76199E-04-6.23058E-06 0.00000E+00
 -1       611 1.76206E-04-7.63339E-06 0.00000E+00
 -1       612 1.76213E-04-8.98379E-06 0.00000E+00
 -1       613 1.76221E-04-1.02871E-05 0.00000E+00
 -1       614 1.76228E-04-1.15485E-05 0.00000E+00
 -1       615 1.76236E-04-1.27734E-05 8.27181E-25
 -1       616 1.76243E-04-1.39669E-05 0.00000E+00
 -1       617 1.76251E-04-1.51344E-05 4.13590E-25
 -1       618 1.76258E-04-1.62812E-05 8.27181E-25
 -1       619 1.76265E-04-1.74124E-05 0.00000E+00
 -1       620 1.76273E-04-1.85335E-05 0.00000E+00
 -1       621 1.78116E-04 1.86748E-06 0.00000E+00
 -1       622 1.80267E-04 1.98334E-06-8.27181E-25
 -1       623 1.82568E-04 2.09887E-06 3.30872E-24
 -1       624 1.84975E-04 2.21399E-06 0.00000E+00
 -1       625 1.87447E-04 2.32873E-06 0.00000E+00
 -1       626 1.76920E-04 4.44792E-08 0.00000E+00
 -1       627 1.77666E-04-1.60905E-06-1.65436E-24
 -1       628 1.78394E-04-3.21569E-06 0.00000E+00
 -1       629 1.79108E-04-4.78291E-06 0.00000E+00
 -1       630 1.79809E-04-6.31823E-06-3.30872E-24
 -1       631 1.80502E-04-7.82917E-06 0.00000E+00
 -1       632 1.81188E-04-9.32323E-06-3.30872E-24
 -1       633 1.81871E-04-1.08080E-05 0.00000E+00
 -1       634 1.82553E-04-1.22909E-05-3.30872E-24
 -1       635 1.83237E-04-1.37795E-05-1.65436E-24
 -1       636 1.83926E-04-1.52814E-05-3.30872E-24
 -1       637 1.84623E-04-1.68040E-05 1.65436E-24
 -1       638 1.85331E-04-1.83549E-05-1.65436E-24
 -1       639 1.86051E-04-1.99417E-05 0.00000E+00
 -1       640 1.86787E-04-2.15719E-05-3.30872E-24
 -1       656 1.77619E-04-2.02349E-05-6.61744E-24
 -1       657 1.79365E-04-2.08443E-05 0.00000E+00
 -1       658 1.81385E-04-2.14525E-05-1.32349E-23
 -1       659 1.83540E-04-2.20604E-05-6.61744E-24
 -1       660 1.85650E-04-2.26701E-05-6.61744E-24
 -1       661 1.76781E-04-2.08097E-05 8.27181E-25
 -1       662 1.77319E-04-2.20611E-05 0.00000E+00
 -1       663 1.77890E-04-2.33985E-05 1.65436E-24
 -1       664 1.78491E-04-2.48154E-05 8.27181E-25
 -1       665 1.79119E-04-2.63058E-05 0.00000E+00
 -1       666 1.79773E-04-2.78639E-05 0.00000E+00
 -1       667 1.80449E-04-2.94840E-05 0.00000E+00
 -1       668 1.81147E-04-3.11604E-05-8.27181E-25
 -1       669 1.81864E-04-3.28876E-05 0.00000E+00
 -1       670 1.82598E-04-3.46604E-05 0.00000E+00
 -1       671 1.83346E-04-3.64733E-05 0.00000E+00
 -1       672 1.84108E-04-3.83214E-05 0.00000E+00
 -1       673 1.84881E-04-4.01993E-05 0.00000E+00
 -1       674 1.85662E-04-4.21024E-05 0.00000E+00
 -1       675 1.86451E-04-4.40253E-05 0.00000E+00
 -1       676 1.77344E-04-4.54475E-05 3.30872E-24
 -1       677 1.79331E-04-4.55516E-05 0.00000E+00
 -1       678 1.81314E-04-4.56558E-05 3.30872E-24
 -1       679 1.83295E-04-4.57596E-05 1.65436E-24
 -1       680 1.85271E-04-4.58633E-05-1.65436E-24
 -1       771 1.84464E-05 1.44808E-05 0.00000E+00
 -1       772 8.54188E-06 3.61018E-05-2.64698E-23
 -1       773 4.16916E-07 5.32399E-05-5.29396E-23
 -1       774-6.05126E-06 6.61510E-05 0.00000E+00
 -1       775-1.09829E-05 7.51009E-05 0.00000E+00
 -1       776-1.45028E-05 8.03721E-05 2.64698E-23
 -1       777-1.67359E-05 8.22566E-05-5.29396E-23
 -1       778-1.78093E-05 8.10599E-05 0.00000E+00
 -1       779-1.78496E-05 7.70961E-05-5.29396E-23
 -1       780-1.69854E-05 7.06900E-05 0.00000E+00
 -1       781-1.53444E-05 6.21732E-05 0.00000E+00
 -1       782-1.30558E-05 5.18859E-05 2.64698E-23
 -1       783-1.02478E-05 4.01728E-05 0.00000E+00
 -1       784-7.04994E-06 2.73846E-05 0.00000E+00
 -1       785-3.59083E-06 1.38750E-05 0.00000E+00
 -1       786 1.88759E-04 4.32347E-05 0.00000E+00
 -1       787 1.88837E-04 4.04754E-05 0.00000E+00
 -1       788 1.88915E-04 3.77042E-05 0.00000E+00
 -1       789 1.88993E-04 3.49256E-05 8.27181E-25
 -1       790 1.89072E-04 3.21427E-05 0.00000E+00
 -1       791 1.89151E-04 2.93585E-05 0.00000E+00
 -1       792 1.89230E-04 2.65759E-05 0.00000E+00
 -1       793 1.89309E-04 2.37978E-05-1.65436E-24
 -1       794 1.89388E-04 2.10278E-05 3.30872E-24
 -1       795 1.89467E-04 1.82697E-05 1.65436E-24
 -1       796 1.89546E-04 1.55295E-05 0.00000E+00
 -1       797 1.89625E-04 1.28133E-05 0.00000E+00
 -1       798 1.89704E-04 1.01319E-05 0.00000E+00
 -1       799 1.89783E-04 7.49616E-06 0.00000E+00
 -1       800 1.89862E-04 4.92582E-06-1.65436E-24
 -1       801 1.31978E-04 4.20142E-05-2.64698E-23
 -1       802-3.85861E-05 2.56412E-05 1.32349E-23
 -1       803-1.77101E-04 1.32451E-05 0.00000E+00
 -1       804-1.41957E-04 9.47522E-06-2.64698E-23
 -1       805-4.32846E-05 2.91198E-06 5.29396E-23
 -1       806 1.89601E-04 4.31632E-05 3.30872E-24
 -1       807 1.90519E-04 4.03273E-05 0.00000E+00
 -1       808 1.91442E-04 3.74792E-05-3.30872E-24
 -1       809 1.92365E-04 3.46278E-05-1.65436E-24
 -1       810 1.93286E-04 3.17815E-05 3.30872E-24
 -1       811 1.94201E-04 2.89490E-05 1.65436E-24
 -1       812 1.95109E-04 2.61388E-05 0.00000E+00
 -1       813 1.96005E-04 2.33594E-05 0.00000E+00
 -1       814 1.96886E-04 2.06194E-05 0.00000E+00
 -1       815 1.97750E-04 1.79273E-05 0.00000E+00
 -1       816 1.98592E-04 1.52917E-05 1.65436E-24
 -1       817 1.99410E-04 1.27209E-05-8.27181E-25
 -1       818 2.00202E-04 1.02236E-05 0.00000E+00
 -1       819 2.00962E-04 7.80831E-06-8.27181E-25
 -1       820 2.01690E-04 5.48334E-06 1.65436E-24
 -1       821 1.89804E-04-1.17869E-06 0.00000E+00
 -1       822 1.89649E-04-7.14429E-06 0.00000E+00
 -1       823 1.89484E-04-1.46747E-05 0.00000E+00
 -1       824 1.89312E-04-2.29787E-05 0.00000E+00
 -1       825 1.89142E-04-3.10502E-05 0.00000E+00
 -1       826 1.88980E-04-3.78842E-05 0.00000E+00
 -1       827 1.88829E-04-4.28216E-05 0.00000E+00
 -1       828 1.88686E-04-4.52153E-05 0.00000E+00
 -1       829 1.88547E-04-4.51279E-05 0.00000E+00
 -1       830 1.88404E-04-4.26374E-05 0.00000E+00
 -1       831 1.88256E-04-3.84923E-05-3.30872E-24
 -1       832 1.88105E-04-3.34518E-05 1.65436E-24
 -1       833 1.87955E-04-2.85252E-05-3.30872E-24
 -1       834 1.87810E-04-2.47210E-05 0.00000E+00
 -1       835 1.87670E-04-2.27355E-05-1.65436E-24
 -1       836 1.92248E-04 2.57588E-06-3.30872E-24
 -1       837 1.94387E-04 2.71453E-06 1.65436E-24
 -1       838 1.96413E-04 2.85321E-06 0.00000E+00
 -1       839 1.98383E-04 2.99120E-06 1.65436E-24
 -1       840 2.00354E-04 3.12898E-06 0.00000E+00
 -1       856 1.87524E-04-2.49532E-05 0.00000E+00
 -1       857 1.87506E-04-2.65170E-05-2.58494E-26
 -1       858 1.87488E-04-2.79656E-05-2.06795E-25
 -1       859 1.87469E-04-2.93200E-05-2.06795E-25
 -1       860 1.87451E-04-3.06015E-05 0.00000E+00
 -1       861 1.87432E-04-3.18312E-05-2.06795E-25
 -1       862 1.87413E-04-3.30306E-05 4.13590E-25
 -1       863 1.87395E-04-3.42209E-05 2.06795E-25
 -1       864 1.87376E-04-3.54233E-05 0.00000E+00
 -1       865 1.87358E-04-3.66591E-05-2.06795E-25
 -1       866 1.87339E-04-3.79498E-05-4.13590E-25
 -1       867 1.87320E-04-3.93163E-05 0.00000E+00
 -1       868 1.87301E-04-4.07801E-05 0.00000E+00
 -1       869 1.87281E-04-4.23621E-05 0.00000E+00
 -1       870 1.87262E-04-4.40834E-05-8.27181E-25
 -1       871 1.89527E-04-2.32607E-05 0.00000E+00
 -1       872 1.91658E-04-2.32718E-05 0.00000E+00
 -1       873 1.93866E-04-2.32837E-05 0.00000E+00
 -1       874 1.96080E-04-2.32962E-05 2.32645E-25
 -1       875 1.98234E-04-2.33094E-05-1.03398E-24
 -1       876 1.88303E-04-2.49388E-05-6.61744E-24
 -1       877 1.89043E-04-2.65565E-05 1.65436E-24
 -1       878 1.89762E-04-2.81141E-05-3.30872E-24
 -1       879 1.90461E-04-2.96193E-05 0.00000E+00
 -1       880 1.91143E-04-3.10795E-05 3.30872E-24
 -1       881 1.91811E-04-3.25022E-05 1.65436E-24
 -1       882 1.92469E-04-3.38949E-05 0.00000E+00
 -1       883 1.93117E-04-3.52651E-05 1.65436E-24
 -1       884 1.93760E-04-3.66201E-05 3.30872E-24
 -1       885 1.94401E-04-3.79674E-05 1.65436E-24
 -1       886 1.95041E-04-3.93145E-05 0.00000E+00
 -1       887 1.95684E-04-4.06689E-05 0.00000E+00
 -1       888 1.96331E-04-4.20379E-05 0.00000E+00
 -1       889 1.96987E-04-4.34293E-05-1.65436E-24
 -1       890 1.97653E-04-4.48503E-05-1.65436E-24
 -1       891 1.89229E-04-4.60231E-05 1.65436E-24
 -1       892 1.91194E-04-4.60813E-05 8.27181E-25
 -1       893 1.93111E-04-4.61395E-05 0.00000E+00
 -1       894 1.94955E-04-4.61973E-05-8.27181E-25
 -1       895 1.96702E-04-4.62548E-05 4.13590E-25
 -1       956 2.02252E-04 1.23733E-06-1.65436E-24
 -1       957 2.02119E-04-6.75983E-07 8.27181E-25
 -1       958 2.01985E-04-2.49486E-06-1.65436E-24
 -1       959 2.01852E-04-4.23193E-06 0.00000E+00
 -1       960 2.01719E-04-5.89987E-06 0.00000E+00
 -1       961 2.01586E-04-7.51138E-06 1.65436E-24
 -1       962 2.01452E-04-9.07920E-06 0.00000E+00
 -1       963 2.01319E-04-1.06161E-05 1.65436E-24
 -1       964 2.01186E-04-1.21348E-05 3.30872E-24
 -1       965 2.01053E-04-1.36480E-05 1.65436E-24
 -1       966 2.00920E-04-1.51685E-05 0.00000E+00
 -1       967 2.00787E-04-1.67091E-05 0.00000E+00
 -1       968 2.00654E-04-1.82825E-05 6.61744E-24
 -1       969 2.00521E-04-1.99013E-05 0.00000E+00
 -1       970 2.00388E-04-2.15784E-05 0.00000E+00
 -1       971 2.00138E-04-2.50803E-05 3.30872E-24
 -1       972 2.00016E-04-2.67438E-05-1.65436E-24
 -1       973 1.99895E-04-2.83264E-05 3.30872E-24
 -1       974 1.99774E-04-2.98385E-05 1.65436E-24
 -1       975 1.99652E-04-3.12906E-05 0.00000E+00
 -1       976 1.99531E-04-3.26932E-05 0.00000E+00
 -1       977 1.99410E-04-3.40569E-05-3.30872E-24
 -1       978 1.99288E-04-3.53920E-05 0.00000E+00
 -1       979 1.99167E-04-3.67092E-05-3.30872E-24
 -1       980 1.99046E-04-3.80189E-05 0.00000E+00
 -1       981 1.98925E-04-3.93318E-05-3.30872E-24
 -1       982 1.98804E-04-4.06583E-05 0.00000E+00
 -1       983 1.98683E-04-4.20089E-05 0.00000E+00
 -1       984 1.98562E-04-4.33942E-05 0.00000E+00
 -1       985 1.98442E-04-4.48246E-05 0.00000E+00
 -3
    1PSTEP                        36          18           1          
  100CL  118 6.55991E-01         409                     0   18           1
 -4  STRESS      6    1
 -5  SXX         1    4    1    1
 -5  SYY         1    4    2    2
 -5  SZZ         1    4    3    3
 -5  SXY         1    4    1    2
 -5  SYZ         1    4    2    3
 -5  SZX         1    4    3    1
 -1         1-4.89504E+06-1.70056E+06-1.06362E+06-1.58612E+06-1.30967E-09-3.09083E-08
 -1         2 6.99929E+05 9.86139E+06 2.61401E+06 3.13567E+06 2.03436E-08-5.04224E-09
 -1         3-1.53434E+03-1.51640E+06 4.06095E+02-2.18574E+03-6.12083E-10 2.66227E-08
 -1         5-1.60588E+02 4.21115E+05 1.16274E+01-2.29589E+00-7.79781E-10 2.56223E-08
 -1         8-7.40554E+05-2.42129E+05-9.06335E+04-2.59304E+05-1.79170E-10 4.18186E-08
 -1         9 1.00339E+07 1.59723E+06 2.08678E+06-7.64780E+05 4.30737E-09-7.71135E-08
 -1        10-2.31203E+03-1.58017E+06-3.68675E+03-1.47994E+04-1.38316E-08-2.79027E-08
 -1        12-1.56262E+02 4.21141E+05 3.87150E+02-1.50861E+01-9.23785E-10-1.27402E-08
 -1        15 1.11408E+03 6.12246E+02 3.60125E+03 1.34973E+00-1.76499E-10-8.32459E-08
 -1        16 2.07549E+07-2.18316E+05 2.86919E+06-1.83152E+06 2.17309E-09 3.35742E-07
 -1        17 7.54866E+06 5.57407E+06 2.04065E+06 5.36179E+06 1.90048E-08 3.73228E-08
 -1        18 1.90815E+05 4.92747E+04 1.50754E+04-1.30269E+05 1.67099E-08 1.10740E-08
 -1        19 1.25713E+05 1.54043E+05-4.83393E+02 1.99057E+04 2.42635E-09 1.69020E-09
 -1        20-8.61346E+04-5.80962E+05-1.30574E+05 2.31595E+04-4.20353E-09 6.77088E-09
 -1        21-4.35590E+01-2.92900E+05-9.11248E+02 3.99258E+02 2.71580E-08-4.32989E-09
 -1        24 1.24638E+07 1.06944E+07 3.47829E+06 9.92398E+06-1.61226E-07-5.77226E-08
 -1        25 3.99936E+05 1.26616E+06 3.51495E+05-8.52957E+05 3.14994E-08-4.82640E-08
 -1        26-3.78924E+04 1.07632E+05-2.01889E+04-3.18465E+03-1.67274E-09 1.16285E-08
 -1        27-7.66239E+04-3.14310E+05-1.13968E+05 6.87786E+04 3.51429E-09 4.65267E-09
 -1        28 2.18259E+04-8.47872E+04 1.67131E+04 1.99424E+04-5.08649E-09-5.88917E-09
 -1        32-1.33885E+06-1.88263E+06 1.12998E+05 6.89874E+05-2.58515E-08-1.35071E-08
 -1        33-1.71432E+05 1.00355E+05 3.37092E+04-4.90747E+04-4.57552E-09 2.03108E-08
 -1        34-2.22725E+05-2.63938E+04 6.92203E+02 7.71722E+04-8.77098E-09 5.17412E-09
 -1        35-2.26448E+04-3.35662E+04-1.34031E+03 5.08958E+04-1.05420E-09 5.42423E-09
 -1        51 5.51629E+04-1.92261E+05 1.17877E+05-5.47193E+05 2.32831E-10 4.02360E-09
 -1        52 1.92777E+04-1.72482E+05 6.27443E+04-6.38035E+05 1.56433E-10 1.32684E-07
 -1        53 4.66847E+03-1.87916E+05 3.41146E+04-5.45235E+05 1.30967E-10 1.53908E-07
 -1        54 9.56949E+03-1.83955E+05 3.09319E+04-6.40028E+05-7.63976E-11 6.83885E-08
 -1        55 2.04819E+04-1.92364E+05 4.10225E+04-5.45019E+05 5.52973E-10-4.49927E-08
 -1        56-9.06834E+06-1.07862E+06-7.93139E+05-3.61030E+06-7.59610E-09 1.31113E-07
 -1        57-9.78647E+06-1.35855E+06-5.28967E+05-3.09708E+06 4.60386E-08 2.01355E-07
 -1        58-9.14419E+06-1.39560E+06-1.84780E+05-3.63851E+06-9.80071E-09 1.02984E-07
 -1        59-9.67512E+06-1.00605E+06-1.09273E+05-3.09900E+06-1.53364E-08-1.23362E-07
 -1        60-9.18423E+06-1.41754E+06-4.41410E+04-3.61647E+06 2.66318E-08 7.18537E-08
 -1        61-9.51714E+06-1.07107E+06-2.01033E+04-3.20898E+06 2.10239E-08 3.60898E-07
 -1        62-9.28729E+06-1.33918E+06-1.81394E+04-3.51805E+06-1.99179E-08 2.10135E-07
 -1        63-9.28688E+06-1.27295E+06-2.74990E+03-3.43451E+06 3.58395E-08-9.88603E-08
 -1        64-9.40290E+06-1.22352E+06-1.72896E+04-3.38289E+06-1.58980E-09-1.21239E-07
 -1        65-9.11249E+06-1.47497E+06-1.78003E+04-3.68203E+06 1.63454E-08-3.00031E-07
 -1        66-9.47327E+06-1.12935E+06-3.96481E+04-3.27910E+06-3.74712E-08-4.97676E-09
 -1        67-9.06647E+06-1.60636E+06-9.76989E+04-3.80702E+06-3.14103E-08 1.75260E-07
 -1        68-9.46393E+06-1.08314E+06-1.65394E+05-3.26775E+06-2.75013E-08-2.15077E-08
 -1        69-9.26091E+06-1.82480E+06-4.72908E+05-3.69045E+06-2.27883E-08-5.76547E-08
 -1        70-9.27336E+06-9.24240E+05-7.10563E+05-3.38796E+06-1.97251E-08 7.50297E-08
 -1        86-7.11355E+05-9.49796E+06-1.42561E+06-1.49819E+06-1.93491E-07 1.11322E-09
 -1        87 1.03568E+06 1.98839E+06 1.18549E+06 3.22631E+06-3.32078E-07 7.00466E-08
 -1        88-1.54059E+05-2.54123E+06 9.78281E+04-1.69449E+06-2.82156E-07-9.66475E-08
 -1        89 1.40350E+06 1.83768E+06 1.19354E+06 3.31297E+06-4.19179E-07-2.16776E-07
 -1        90-1.04010E+06-9.38254E+06-1.56106E+06-1.59314E+06-1.15546E-07-1.16852E-08
 -1       121-2.09926E+03-1.52144E+06-5.77977E+02 1.08280E+03 1.53885E-09-3.15049E-09
 -1       122-1.35147E+03-1.51647E+06 7.65147E+02-4.37717E+03-5.46753E-09-1.80444E-09
 -1       123-2.11665E+03-1.52158E+06 2.21964E+02 3.23435E+03 4.17060E-09-8.15635E-09
 -1       124 2.47202E+02-1.51604E+06 2.91335E+03-9.17463E+03-1.05092E-08 1.47356E-08
 -1       125-2.90074E+03-1.52245E+06 3.39143E+03 5.83170E+03 6.60475E-09-2.88383E-08
 -1       191-1.68907E+02 4.21118E+05 6.19606E+00 1.23682E+00-8.37554E-10-5.62432E-09
 -1       192-1.61766E+02 4.21116E+05 2.49907E+01-6.87102E+00-1.18627E-09-1.19617E-08
 -1       193-1.71978E+02 4.21118E+05 3.89844E+01 6.17437E+00-1.62566E-09 1.52831E-08
 -1       194-1.65531E+02 4.21120E+05 9.54374E+01-1.54383E+01-8.56162E-10 3.31329E-08
 -1       195-1.77868E+02 4.21115E+05 1.79161E+02 1.03748E+01-2.10740E-09 9.77161E-09
 -1       251-1.59486E+06 1.98806E+04-1.11300E+05-7.06970E+04 8.91487E-09 1.99401E-07
 -1       252-1.41523E+06-2.16014E+04-3.60065E+04 2.31181E+05-1.48166E-08-2.06415E-07
 -1       253-1.50173E+06 2.61655E+03-2.29275E+04-1.33391E+05 1.64800E-09 3.46545E-08
 -1       254-1.48795E+06 8.32599E+03-7.40877E+03 2.81023E+05 1.79102E-09 5.30981E-08
 -1       255-1.53025E+06-2.85680E+03-1.18195E+04-1.20885E+05-4.43106E-09 1.08685E-10
 -1       256-1.33733E+06 9.77566E+03 3.04443E+04 1.85970E+05 1.57961E-08 1.44382E-07
 -1       257-1.63801E+06-1.07795E+04-3.08253E+04-3.78772E+04-4.55111E-09 2.05575E-07
 -1       258-1.23348E+06 9.95294E+03 5.27660E+04-8.91771E+03 1.86592E-08 5.24437E-10
 -1       259-1.62411E+06-1.16323E+04-2.61419E+04 7.34003E+04-1.82617E-08 1.44344E-07
 -1       260-1.37107E+06 1.68248E+04 3.04810E+04-1.92669E+05-9.38780E-09 4.71549E-08
 -1       261-1.51348E+06-6.81428E+03 1.42992E+03 1.45742E+05 5.09826E-08-2.98126E-08
 -1       262-1.49235E+06 2.68540E+04 1.70654E+04-2.64816E+05-2.87283E-08 7.11245E-08
 -1       263-1.51455E+06-1.17411E+04 1.50726E+04 1.46248E+05 3.30692E-09-5.46279E-08
 -1       264-1.35441E+06 6.01901E+04 7.97183E+04-1.94928E+05 8.54152E-08-1.27857E-07
 -1       265-1.63991E+06-4.96409E+04 4.16362E+04 7.51667E+04 1.39771E-08 1.77955E-07
 -1       266-2.01687E+04-9.43146E+03 4.73189E+04-2.88789E+01 3.41970E-10 4.16709E-07
 -1       267 2.33809E+04 1.09917E+04 3.34457E+04 3.33221E+01 8.73115E-11-2.00787E-08
 -1       268-3.13535E+03-1.55677E+03 1.24315E+04-4.24572E+00-1.56433E-10-1.29873E-07
 -1       269 3.70192E+03 1.86308E+03 8.08036E+03 4.94573E+00-1.36083E-10-5.77432E-08
 -1       270-5.55661E+02-3.06119E+02 3.90050E+03-6.71165E-01-1.94404E-11 1.55185E-08
 -1       271-1.76906E+06-2.17839E+05-1.30998E+05-6.82088E+05 8.60064E-09 9.27248E-08
 -1       272-1.81858E+06-3.08238E+05-8.38750E+04-6.75441E+05-3.21779E-08-2.55022E-07
 -1       273-1.79495E+06-2.49032E+05-3.11625E+04-6.74758E+05 6.38465E-09-4.68990E-08
 -1       274-1.78723E+06-2.71072E+05-1.71385E+04-6.87515E+05-1.52622E-08 1.50510E-07
 -1       275-1.80006E+06-2.50659E+05-7.43678E+03-6.71792E+05 1.50685E-08-5.90744E-08
 -1       276-1.78016E+06-2.70368E+05-3.64976E+03-6.93288E+05-5.58657E-08 8.77935E-09
 -1       277-1.80243E+06-2.49015E+05-2.00702E+03-6.69484E+05 1.44537E-08 4.09564E-08
 -1       278-1.77665E+06-2.73400E+05-1.06982E+03-6.97958E+05-3.61115E-08-4.16721E-08
 -1       279-1.80415E+06-2.47225E+05-1.22104E+03-6.67547E+05 1.23691E-09-2.93952E-07
 -1       280-1.77431E+06-2.76473E+05-1.72515E+03-7.01822E+05-4.13056E-08 1.06930E-07
 -1       281-1.80536E+06-2.45581E+05-3.25480E+03-6.66030E+05-1.25310E-08-3.58618E-08
 -1       282-1.77394E+06-2.80732E+05-7.50548E+03-7.04537E+05 4.24538E-08-7.58866E-08
 -1       283-1.80507E+06-2.42826E+05-1.34213E+04-6.65127E+05 1.01882E-08-3.00191E-07
 -1       284-1.78447E+06-3.00363E+05-3.64788E+04-7.03739E+05 1.41413E-08-1.00386E-07
 -1       285-1.79548E+06-2.27544E+05-5.66970E+04-6.66432E+05-1.30731E-08 6.78338E-08
 -1       301 6.33252E+03-5.77075E+05 1.70453E+05-1.00548E+06-2.36469E-09-1.88084E-08
 -1       302 7.14518E+03-5.32584E+05 1.02985E+05-1.46909E+06-8.42556E-09-2.20680E-07
 -1       303-1.14211E+04-5.65645E+05 6.02406E+04-1.00288E+06-2.73576E-09 9.89166E-08
 -1       304-7.85605E+03-5.37194E+05 6.41999E+04-1.46832E+06-1.07830E-08 1.44169E-07
 -1       305-1.22282E+04-5.58178E+05 8.36555E+04-1.00586E+06 5.81349E-09 4.58531E-08
 -1       306-2.84174E+07-5.82647E+06-8.00265E+06-8.90768E+05-4.84288E-08-1.75991E-07
 -1       307 2.38396E+07 2.53897E+06 5.15213E+06-1.38476E+07-8.45408E-07-6.08852E-08
 -1       308-7.45163E+06-8.86340E+05-5.28307E+05 4.86385E+06-2.06637E-07 5.01357E-07
 -1       309-3.48573E+06 7.49360E+06 2.01792E+06-1.95587E+07 2.25675E-07 3.24555E-07
 -1       310-1.16512E+07-1.55169E+06-1.67890E+06 4.79462E+06 6.47851E-08-1.45053E-07
 -1       311 3.36055E+07-8.00292E+04 6.51077E+06-8.90236E+06 7.74831E-07-1.16328E-07
 -1       312-2.97213E+07-6.07230E+06-7.72800E+06-4.33054E+06 2.27941E-07 5.36966E-09
 -1       313 4.23469E+07 1.24884E+07 9.80005E+06 2.08521E+07 1.42492E-07 8.56817E-08
 -1       314-1.71227E+07-1.58725E+07-6.96365E+06-1.18183E+07 2.05007E-07 4.44707E-08
 -1       315-1.12776E+06 2.67774E+07 5.30406E+06 1.07570E+07-4.89526E-07 2.08849E-07
 -1       316 7.97901E+05-9.51587E+06-5.02450E+05-3.09889E+06-1.16980E-06-3.08821E-07
 -1       317-1.71402E+07 2.10058E+07 1.98022E+06-7.23721E+06 8.16639E-07-6.25427E-07
 -1       318-1.12630E+06-1.15511E+07-1.71146E+06-4.33861E+06-8.08912E-07 1.36090E-07
 -1       319 5.83998E+06 2.84027E+07 6.27382E+06 1.49506E+07-1.11795E-07 1.68453E-07
 -1       320-2.11486E+07-1.60109E+07-8.96682E+06-1.18690E+07 2.10945E-07-7.89587E-08
 -1       336-8.83024E+02-1.64702E+06-1.32529E+04 8.78873E+03-2.73812E-08-7.21047E-09
 -1       337-5.20248E+03-1.64612E+06-1.69175E+04-2.13970E+04-5.08896E-08 2.71630E-08
 -1       338 3.27931E+01-1.64661E+06-2.65853E+04 1.23439E+04-3.52320E-08-1.38607E-09
 -1       339-2.80390E+04-1.66219E+06-5.96838E+04-2.83627E+04-6.32463E-08-4.26553E-09
 -1       340 1.82414E+04-1.63315E+06-9.41180E+04 1.56284E+04-4.15748E-08 4.21824E-08
 -1       406-1.34218E+02 4.21098E+05 7.56449E+02 6.37638E+00-2.92368E-09-1.43882E-08
 -1       407 1.11077E+02 4.21276E+05 1.62463E+03 3.20744E+01-7.05313E-10 2.11003E-09
 -1       408 6.74712E+02 4.20979E+05 3.23466E+03-3.80643E+01-3.50929E-09-6.14091E-09
 -1       409 3.36424E+03 4.22308E+05 7.29847E+03 4.20406E+02-5.53428E-10 7.29779E-09
 -1       410 9.94580E+03 4.20038E+05 1.48927E+04-4.10214E+02-4.43106E-09 8.76753E-10
 -1       521-2.99865E+07-7.17050E+06-9.34879E+06-5.39527E+05-9.91859E-08 2.02621E-07
 -1       522 2.46608E+07 3.35383E+06 5.24441E+06-1.71332E+07-4.50527E-07-2.72616E-07
 -1       523-8.11781E+06-1.18351E+06-5.32922E+05 5.31361E+06 1.08383E-07-9.21282E-08
 -1       524-6.78867E+06 1.02385E+07 2.18728E+06-2.25519E+07 7.74628E-07-5.95512E-07
 -1       525-1.25497E+07-2.10441E+06-1.85036E+06 5.23929E+06 2.35217E-07-1.68075E-07
 -1       526 3.66032E+07-1.27321E+05 6.84967E+06-1.14545E+07-3.13856E-07 1.49506E-07
 -1       527-3.15451E+07-7.62804E+06-8.90598E+06-4.22012E+06 1.51340E-09 1.14815E-07
 -1       528 4.62909E+07 1.38212E+07 1.02315E+07 2.36865E+07-4.61005E-08 2.92115E-07
 -1       529-1.81057E+07-1.79435E+07-7.98294E+06-1.19487E+07 1.84518E-08-1.38534E-08
 -1       530-3.50398E+06 3.11862E+07 5.60895E+06 1.05286E+07-5.55563E-07 3.57453E-07
 -1       531 7.68659E+05-1.06252E+07-4.88555E+05-3.15185E+06-9.19477E-07 3.45695E-07
 -1       532-1.99235E+07 2.31849E+07 2.17189E+06-1.10432E+07 6.05127E-07-8.53506E-07
 -1       533-1.19492E+06-1.27223E+07-1.82106E+06-4.29727E+06-1.90834E-07-1.00199E-06
 -1       534 3.90954E+06 3.30102E+07 6.54640E+06 1.55219E+07-1.25583E-07 7.39994E-07
 -1       535-2.23420E+07-1.82204E+07-1.02690E+07-1.20088E+07 1.01398E-07 4.53088E-07
 -1       536-8.22005E+05-6.05398E+04-6.90686E+04-6.54834E+04-4.17094E-09 7.63348E-08
 -1       537 5.87380E+04 5.78951E+04 1.11192E+05 1.45963E+05-1.26842E-07 9.86643E-08
 -1       538-4.11572E+05 3.81469E+03 2.04490E+03-8.41192E+04 4.38940E-08 1.21903E-07
 -1       539-2.44250E+05 3.96015E+03 3.12992E+04 1.63496E+05 2.03865E-07 1.42948E-07
 -1       540-5.26742E+05-8.16723E+01-2.57626E+04-8.38848E+04 4.99176E-09 1.30323E-07
 -1       541 2.77787E+05 2.14737E+04 1.33863E+05 1.21063E+05-2.61068E-08 1.17825E-07
 -1       542-9.19451E+05-2.56539E+04-1.07438E+05-4.03877E+04 3.33857E-08 3.67883E-08
 -1       543 6.30327E+05 3.54124E+04 2.04364E+05-1.18582E+04 1.47593E-08-1.94364E-08
 -1       544-8.69768E+05-2.19746E+04-9.80967E+04 4.81161E+04-1.60048E-08-4.75831E-08
 -1       545 1.58872E+05 1.33354E+04 1.06800E+05-1.34149E+05 2.24084E-08-8.07372E-08
 -1       546-4.60743E+05 7.08322E+03-1.65504E+04 8.13230E+04 5.32118E-08-9.22952E-08
 -1       547-2.60554E+05-4.46407E+03 1.66181E+04-1.66269E+05-1.16241E-07-1.14369E-07
 -1       548-4.61708E+05 5.44631E+03-2.69565E+04 8.12705E+04-1.10697E-07-9.32932E-08
 -1       549 1.63982E+05 2.68332E+04 8.56422E+04-1.34237E+05-7.44723E-08-5.31622E-08
 -1       550-8.73902E+05-3.38372E+04-1.53446E+05 4.82538E+04 4.97039E-09-4.82487E-08
 -1       551 4.27605E+04-7.74171E+05-1.34059E+04-1.22916E+06-1.02271E-07-6.98492E-10
 -1       552 9.33569E+04-8.17953E+05 1.11948E+04-1.75340E+06-7.01984E-08 3.32730E-08
 -1       553 7.12479E+04-8.12342E+05 3.31896E+04-1.22284E+06-1.16765E-07 2.53203E-08
 -1       554 1.30184E+05-8.29626E+05 8.25290E+04-1.75516E+06-7.34581E-08 2.16660E-08
 -1       555 9.97229E+04-8.33974E+05 1.50375E+05-1.22294E+06-1.19493E-07-9.22228E-09
 -1       556 1.99999E+05-3.44500E+05 3.17966E+04-3.67410E+05-1.93540E-08-2.55532E-08
 -1       557 3.19610E+05-4.38608E+05 1.89768E+04-4.73571E+05 2.27010E-09 6.19184E-09
 -1       558 1.84679E+05-3.39837E+05 3.80564E+03-3.69642E+05-2.03727E-08 1.79716E-08
 -1       559 2.97035E+05-4.40361E+05 3.03262E+03-4.91689E+05 2.53785E-08 1.00517E-08
 -1       560 1.71362E+05-3.31477E+05-1.16873E+03-3.79255E+05 1.47556E-08-6.40284E-10
 -1       561 2.80019E+05-4.33661E+05 2.07451E+02-5.03344E+05-4.14730E-09 7.89987E-09
 -1       562 1.60567E+05-3.24769E+05-1.35521E+03-3.87120E+05-2.59024E-09 8.69113E-09
 -1       563 2.66970E+05-4.27986E+05-1.08910E+02-5.11913E+05-6.04632E-09 1.67665E-08
 -1       564 1.52548E+05-3.19777E+05-7.65451E+02-3.92833E+05 6.75209E-09-1.21599E-09
 -1       565 2.57807E+05-4.24008E+05-1.14838E+02-5.17798E+05 1.09212E-08 4.46528E-09
 -1       566 1.47420E+05-3.16530E+05-4.89493E+02-3.96433E+05 4.48927E-09-1.34605E-10
 -1       567 2.52577E+05-4.21762E+05-6.32489E+02-5.21026E+05 1.87720E-08 1.82536E-09
 -1       568 1.45261E+05-3.15195E+05-1.55214E+03-3.98005E+05-5.42786E-09 1.43991E-08
 -1       569 2.49936E+05-4.21558E+05-3.78244E+03-5.20913E+05-2.29047E-08 3.00824E-08
 -1       570 1.47090E+05-3.17624E+05-7.76801E+03-3.97444E+05-6.36646E-10 4.27463E-09
 -1       571 2.95986E+05 1.04898E+04 1.46378E+04-1.15799E+05 4.34829E-09 1.14987E-08
 -1       572 2.98064E+05 4.13239E+03 7.17575E+03-1.26999E+05 7.16318E-09 1.49012E-08
 -1       573 2.96786E+05 1.46440E+03 3.18826E+03-1.15571E+05 1.72076E-08 7.06041E-09
 -1       574 2.96955E+05 9.93892E+02 1.59988E+03-1.27288E+05 2.39347E-08-1.04046E-09
 -1       575 2.96855E+05 6.98424E+02 7.54892E+02-1.15540E+05 8.40168E-09 1.12323E-08
 -1       576 2.96809E+05 7.39188E+02 3.86361E+02-1.27326E+05-1.29917E-08-3.17323E-09
 -1       577 2.96894E+05 6.41661E+02 1.91324E+02-1.15536E+05-8.06085E-09 1.50585E-08
 -1       578 2.96852E+05 6.94949E+02 1.07716E+02-1.27332E+05-6.58065E-09 5.98448E-10
 -1       579 2.96989E+05 5.91976E+02 6.73485E+01-1.15535E+05 7.75435E-09 1.54514E-08
 -1       580 2.96989E+05 6.23144E+02 7.01624E+01-1.27326E+05-1.22709E-08 3.59696E-08
 -1       581 2.97148E+05 5.04497E+02 9.44662E+01-1.15543E+05 8.02174E-09-9.60426E-10
 -1       582 2.97218E+05 5.37738E+02 1.90528E+02-1.27254E+05 5.76256E-09-6.05542E-09
 -1       583 2.97360E+05 4.64173E+02 3.53887E+02-1.15610E+05 6.33008E-10-5.84623E-09
 -1       584 2.97621E+05 7.58491E+02 8.07084E+02-1.26692E+05 6.77574E-09-1.22695E-08
 -1       585 2.97514E+05 1.37601E+03 1.62025E+03-1.16105E+05-1.41517E-09 5.42423E-09
 -1       586-2.35133E+03 1.44561E+05-9.62071E+02-2.42394E+05-7.25822E-09-1.04455E-08
 -1       587-1.16291E+03 1.44581E+05 1.64214E+03-2.66625E+05-8.29277E-09-2.61946E-08
 -1       588 2.33522E+02 1.44151E+05 4.97110E+03-2.42184E+05-7.16500E-09-2.65663E-09
 -1       589 4.66826E+03 1.46524E+05 1.20543E+04-2.66553E+05-1.00754E-08-1.45592E-08
 -1       590 1.57678E+04 1.42779E+05 2.49656E+04-2.42530E+05-7.62020E-09-3.67345E-09
 -1       591-1.02042E+05-2.13687E+04-2.63571E+04-4.36659E+04-8.36735E-10 1.16743E-08
 -1       592-1.06490E+05-2.58640E+04-1.42770E+04-4.82989E+04 2.34752E-09-1.18323E-08
 -1       593-1.04689E+05-1.94454E+04-5.94286E+03-4.55871E+04 5.19094E-10-2.08956E-10
 -1       594-1.02844E+05-2.20042E+04-2.96371E+03-4.84472E+04-4.68850E-09 1.03885E-08
 -1       595-1.04891E+05-1.94380E+04-1.36071E+03-4.56745E+04-7.35736E-09 1.83516E-08
 -1       596-1.02595E+05-2.18277E+04-6.91421E+02-4.84190E+04-6.01786E-09 3.45980E-09
 -1       597-1.04917E+05-1.94556E+04-3.76019E+02-4.56779E+04-3.47387E-09 1.28501E-08
 -1       598-1.02571E+05-2.18208E+04-3.01441E+02-4.84110E+04-3.76130E-09 7.72161E-09
 -1       599-1.04915E+05-1.94563E+04-3.84043E+02-4.56775E+04 4.04975E-09-2.32443E-08
 -1       600-1.02595E+05-2.18284E+04-7.12637E+02-4.84164E+04 2.26044E-09-4.99818E-09
 -1       601-1.04886E+05-1.94397E+04-1.40558E+03-4.56733E+04 4.75438E-10 2.80579E-09
 -1       602-1.02852E+05-2.20097E+04-3.06306E+03-4.84413E+04-4.49745E-09-5.82986E-09
 -1       603-1.04674E+05-1.94506E+04-6.14278E+03-4.55835E+04-2.03909E-09 7.36236E-10
 -1       604-1.06636E+05-2.59821E+04-1.47563E+04-4.82653E+04 4.59875E-09 7.22684E-09
 -1       605-1.01919E+05-2.14540E+04-2.72419E+04-4.36144E+04 7.91294E-09 1.26456E-08
 -1       606 2.57256E+04-1.51789E+04-2.71936E+04 2.17258E+04 1.09676E-08-2.42223E-08
 -1       607 2.10811E+04-4.96696E+03-1.35427E+04 2.44298E+04 2.87037E-09-3.96506E-08
 -1       608 2.37326E+04-9.04761E+02-6.06203E+03 2.15849E+04-8.29277E-09-8.96307E-09
 -1       609 2.32290E+04-3.22078E+02-3.06265E+03 2.46256E+04 1.32377E-09 1.96127E-08
 -1       610 2.35122E+04-5.78094E+01-1.46086E+03 2.15674E+04 9.31686E-09-3.29601E-09
 -1       611 2.34369E+04-6.28880E+01-7.36831E+02 2.46466E+04 1.80498E-08-2.05521E-08
 -1       612 2.34671E+04-4.62774E+01-3.50257E+02 2.15656E+04-6.18820E-09-7.00197E-09
 -1       613 2.34541E+04-6.13020E+01-1.57567E+02 2.46490E+04-2.09952E-08 8.28345E-09
 -1       614 2.34476E+04-5.54205E+01-3.79191E+01 2.15650E+04-8.52651E-09 1.53848E-08
 -1       615 2.34523E+04-6.18529E+01 6.31245E+01 2.46494E+04-1.20326E-09 1.62122E-08
 -1       616 2.34322E+04-5.39223E+01 1.92092E+02 2.15652E+04-5.49198E-09-1.07661E-09
 -1       617 2.34779E+04-2.22286E+01 4.39043E+02 2.46490E+04-1.79750E-08-6.73845E-09
 -1       618 2.33957E+04 7.16355E+01 8.85430E+02 2.15656E+04-9.71841E-09 9.27116E-09
 -1       619 2.37920E+04 6.61659E+02 1.98849E+03 2.46486E+04-3.51838E-09-4.75075E-09
 -1       620 2.31025E+04 2.17099E+03 3.99696E+03 2.15687E+04-2.52385E-10 1.44400E-08
 -1       621 9.04025E+02 3.38127E+05 6.31898E+03 5.20436E+04 1.50203E-09-7.49424E-09
 -1       622 1.14290E+03 3.39591E+05 5.03378E+03 7.55165E+04 1.73441E-09-1.09690E-08
 -1       623 2.46014E+02 3.38532E+05 5.32845E+03 5.18204E+04 1.65051E-09-7.12134E-10
 -1       624 2.64580E+03 3.40804E+05 9.73086E+03 7.57265E+04 1.64118E-09-3.03978E-08
 -1       625 2.54241E+03 3.36650E+05 1.67252E+04 5.18243E+04 1.86810E-09-3.88263E-09
 -1       626 2.62159E+05 5.88861E+04 3.74296E+03 1.24769E+05 6.79665E-09 9.16680E-09
 -1       627 2.59909E+05 6.04529E+04 1.80378E+03 1.28525E+05 4.60932E-09 3.41555E-09
 -1       628 2.62264E+05 5.71596E+04 7.63289E+02 1.25388E+05-8.80755E-09-5.97345E-09
 -1       629 2.59430E+05 5.99706E+04 3.74403E+02 1.28717E+05-1.33932E-08 1.43754E-09
 -1       630 2.62276E+05 5.70756E+04 1.75387E+02 1.25413E+05 1.97861E-09 1.68283E-08
 -1       631 2.59380E+05 5.99529E+04 9.77515E+01 1.28720E+05 7.11339E-09-7.64538E-09
 -1       632 2.62274E+05 5.70777E+04 7.05906E+01 1.25410E+05 1.22020E-08-1.49571E-08
 -1       633 2.59375E+05 5.99534E+04 8.80951E+01 1.28719E+05 1.82331E-09 2.87421E-08
 -1       634 2.62271E+05 5.70734E+04 1.50845E+02 1.25411E+05-5.75042E-09 1.47047E-08
 -1       635 2.59391E+05 5.99510E+04 3.10530E+02 1.28726E+05-1.01662E-08-6.36101E-09
 -1       636 2.62262E+05 5.70669E+04 6.29795E+02 1.25411E+05-8.52970E-09-4.02815E-09
 -1       637 2.59527E+05 6.00494E+04 1.38626E+03 1.28726E+05-2.28238E-08-2.30486E-08
 -1       638 2.62213E+05 5.73732E+04 2.84891E+03 1.25272E+05-8.21728E-09-5.49426E-09
 -1       639 2.61019E+05 6.21349E+04 6.74108E+03 1.28288E+05 8.25185E-09 5.21254E-09
 -1       640 2.62004E+05 6.35902E+04 1.39893E+04 1.22653E+05 1.63254E-10-1.30694E-08
 -1       656 6.72397E+04-1.72303E+06-1.62311E+05-3.59067E+03-8.36735E-10 1.82364E-08
 -1       657-8.89422E+04-1.79640E+06-1.34451E+05 3.78773E+03-5.94810E-10 3.55430E-07
 -1       658 2.14188E+04-1.74387E+06-8.27789E+04-5.63187E+03-6.36587E-08 3.14727E-05
 -1       659-9.61126E+04-1.79980E+06-1.43876E+05 5.53696E+03-1.34640E-07 6.20210E-05
 -1       660 7.43939E+04-1.71964E+06-1.78517E+05-5.33988E+03-5.97211E-08 3.15507E-05
 -1       661 1.51896E+05 1.57350E+04 1.62471E+04 5.93086E+04-1.22236E-09 9.32687E-09
 -1       662 1.61114E+05 2.77358E+04 1.09495E+04 5.56241E+04-2.13680E-09-1.33123E-08
 -1       663 1.55086E+05 2.09491E+04 3.82940E+03 5.83843E+04 1.91358E-09-7.09542E-09
 -1       664 1.57416E+05 2.16378E+04 2.29081E+03 5.67526E+04-5.63773E-10 2.62303E-08
 -1       665 1.55569E+05 2.16617E+04 9.03716E+02 5.82438E+04 3.29413E-09-6.06266E-09
 -1       666 1.56844E+05 2.08226E+04 5.29048E+02 5.69356E+04 1.28527E-08-1.50157E-08
 -1       667 1.55654E+05 2.17432E+04 2.81274E+02 5.82089E+04 1.63365E-09 1.90987E-09
 -1       668 1.56751E+05 2.07635E+04 2.87185E+02 5.69860E+04-6.62092E-09 3.08525E-09
 -1       669 1.55661E+05 2.17192E+04 3.89316E+02 5.81936E+04-3.31281E-09-1.71253E-08
 -1       670 1.56847E+05 2.09740E+04 8.48183E+02 5.69878E+04-1.20775E-08-1.85952E-08
 -1       671 1.55558E+05 2.15370E+04 1.50619E+03 5.82051E+04 9.89949E-10-2.02022E-10
 -1       672 1.57726E+05 2.24387E+04 3.85366E+03 5.67744E+04 1.35583E-08 3.55823E-09
 -1       673 1.54787E+05 2.02916E+04 6.45818E+03 5.83929E+04 6.92739E-09-2.94267E-09
 -1       674 1.63871E+05 3.28158E+04 1.84691E+04 5.49701E+04-1.42154E-09 8.28732E-09
 -1       675 1.49452E+05 1.14506E+04 2.74146E+04 5.99006E+04-3.87217E-09 7.60338E-09
 -1       676 2.39460E+01-2.92822E+05-1.09829E+03-1.99637E+02 2.06686E-09-1.05216E-08
 -1       677-2.89135E+02-2.93089E+05-2.01006E+03 3.98953E+02 1.29390E-08-5.98264E-09
 -1       678 1.95016E+02-2.92633E+05-3.55330E+03-1.99190E+02 3.23507E-09-1.77191E-08
 -1       679-3.55197E+03-2.95234E+05-8.44114E+03 3.97238E+02 1.66719E-08-2.82177E-08
 -1       680 2.12170E+03-2.90678E+05-1.36043E+04-1.95727E+02 5.90626E-09-2.54212E-09
 -1       771-3.02813E+06-7.37470E+05-1.57110E+05-1.44988E+06-3.44444E-08-2.98605E-08
 -1       772-2.95040E+06-8.25167E+05-8.08816E+04-1.55139E+06-2.43308E-08 1.23109E-08
 -1       773-3.05852E+06-7.13730E+05-4.14427E+04-1.46364E+06-1.10886E-08 2.15950E-08
 -1       774-2.94176E+06-8.07796E+05-1.84396E+04-1.57655E+06 1.22236E-08-1.86265E-09
 -1       775-3.07454E+06-7.02462E+05-1.39228E+04-1.47050E+06-1.94996E-08 6.78847E-09
 -1       776-2.95386E+06-8.04852E+05-5.18583E+03-1.59555E+06-2.16096E-08 4.65661E-09
 -1       777-3.08844E+06-6.92423E+05-6.19796E+03-1.47655E+06 1.65892E-09 6.34464E-09
 -1       778-2.96642E+06-8.02099E+05-1.76352E+03-1.61185E+06 9.40054E-09 1.61963E-08
 -1       779-3.10037E+06-6.83668E+05-3.15092E+03-1.48172E+06-4.93310E-09-2.66300E-09
 -1       780-2.97745E+06-7.99486E+05-6.24338E+02-1.62511E+06 3.78350E-10-1.95178E-09
 -1       781-3.10984E+06-6.76621E+05-1.43806E+03-1.48575E+06-3.00206E-08-1.80080E-10
 -1       782-2.98598E+06-7.97306E+05-8.61036E+01-1.63488E+06-4.32046E-08-3.08319E-09
 -1       783-3.11645E+06-6.71741E+05-3.72985E+02-1.48855E+06-1.57888E-08-1.36497E-08
 -1       784-2.99131E+06-7.95791E+05 2.66007E+02-1.64086E+06-3.14649E-08-3.75712E-09
 -1       785-3.11989E+06-6.69192E+05 2.59479E+02-1.49000E+06-4.22369E-08 9.82982E-09
 -1       786 2.30647E+05-1.24834E+04 2.88860E+04-6.21607E+02-8.77097E-05-2.89894E-07
 -1       787 2.43163E+05 1.44558E+04 2.04355E+04-6.73962E+02-1.74769E-04-4.73817E-07
 -1       788 2.35476E+05-1.95554E+03 7.47607E+03-6.19971E+02-1.22744E-04-2.78803E-07
 -1       789 2.37538E+05 2.26641E+03 4.69652E+03-6.73131E+02-7.01945E-05-2.04070E-07
 -1       790 2.36273E+05-3.04031E+02 1.90953E+03-6.22469E+02-2.11938E-05-4.97198E-08
 -1       791 2.36608E+05 3.56588E+02 1.11807E+03-6.72729E+02 2.77988E-05 1.06339E-07
 -1       792 2.36407E+05-4.71636E+01 5.04318E+02-6.20379E+02 6.75735E-05 1.61816E-07
 -1       793 2.36455E+05 6.75588E+01 3.18207E+02-6.83831E+02 1.07105E-04 2.95462E-07
 -1       794 2.36425E+05-1.51971E+01 2.17034E+02-6.11368E+02 5.36746E-05 1.30809E-07
 -1       795 2.36460E+05 8.15087E+01 2.86863E+02-7.12530E+02 1.78886E-07 1.99144E-08
 -1       796 2.36402E+05-6.11048E+01 4.13352E+02-5.91679E+02 7.94776E-09-1.54543E-10
 -1       797 2.36643E+05 4.59609E+02 9.61135E+02-7.70113E+02 4.34265E-09 2.75966E-09
 -1       798 2.36242E+05-3.93025E+02 1.51256E+03-5.53782E+02 9.22620E-09 3.33307E-09
 -1       799 2.37778E+05 2.91444E+03 4.12016E+03-8.77576E+02 3.67700E-09 4.33965E-09
 -1       800 2.35267E+05-2.51399E+03 5.81774E+03-4.84209E+02 1.51146E-09 3.26361E-08
 -1       801-3.24796E+05-1.11864E+07-1.72031E+06 1.91567E+06 7.32252E-08-7.30470E-08
 -1       802 1.21554E+06 1.51847E+07 3.98742E+06-2.56215E+06-2.15514E-08-4.17676E-08
 -1       803-8.11544E+05-1.98204E+07-3.11498E+06 1.13736E+06 1.84424E-07 4.71155E-08
 -1       804 5.92337E+05 1.04743E+07 3.07290E+06 6.18344E+05-3.06463E-08-1.38183E-07
 -1       805 1.79662E+05-6.44359E+06-3.77688E+05-1.27233E+06-1.18445E-07-1.07360E-07
 -1       806-2.96633E+05-6.88553E+04-2.60690E+04-1.30213E+05-9.42987E-09 1.51267E-08
 -1       807-2.97322E+05-6.59683E+04-1.28069E+04-1.38136E+05 1.83013E-09 1.20319E-08
 -1       808-2.97430E+05-5.93821E+04-5.43235E+03-1.34575E+05-4.81492E-09 2.71098E-09
 -1       809-2.94559E+05-6.24426E+04-2.65540E+03-1.38544E+05-2.29836E-08 1.09139E-10
 -1       810-2.97550E+05-5.90456E+04-1.21606E+03-1.34766E+05 9.30095E-09 1.09624E-08
 -1       811-2.94346E+05-6.23058E+04-6.03324E+02-1.38516E+05 8.68249E-09 2.24509E-09
 -1       812-2.97567E+05-5.90712E+04-3.02043E+02-1.34764E+05-3.30374E-09-4.64297E-09
 -1       813-2.94314E+05-6.23117E+04-1.92365E+02-1.38496E+05-3.39787E-09-1.66933E-08
 -1       814-2.97557E+05-5.90841E+04-1.83801E+02-1.34756E+05-4.19732E-10-1.98870E-08
 -1       815-2.94310E+05-6.23178E+04-2.90461E+02-1.38484E+05 3.68709E-09 3.47454E-08
 -1       816-2.97528E+05-5.90875E+04-5.47133E+02-1.34747E+05 9.91804E-09 1.09540E-08
 -1       817-2.94393E+05-6.23733E+04-1.17258E+03-1.38463E+05-1.31149E-08 1.43827E-08
 -1       818-2.97444E+05-5.92614E+04-2.39155E+03-1.34664E+05-3.69073E-09 7.25413E-09
 -1       819-2.95710E+05-6.37997E+04-5.62574E+03-1.38114E+05 7.92170E-09-3.71779E-08
 -1       820-2.96953E+05-6.35428E+04-1.14518E+04-1.32870E+05 9.14952E-10-4.01769E-10
 -1       821-3.91471E+05 2.14525E+04-5.09111E+04 3.57064E+03 2.18631E-08-1.11759E-08
 -1       822-4.07745E+05-2.49036E+04-3.50095E+04-8.20326E+03 1.20578E-08-1.79111E-08
 -1       823-3.97378E+05 3.42877E+03-1.30723E+04 6.48576E+03-2.25611E-08 1.80898E-09
 -1       824-4.00047E+05-3.93380E+03-8.06260E+03-1.06817E+04 3.04980E-09-7.56972E-09
 -1       825-3.99218E+05 5.42370E+02-3.49482E+03 6.04978E+03 4.30396E-08 6.98947E-09
 -1       826-3.95439E+05-5.01752E+02-1.29108E+03-6.73201E+03 5.32793E-08-4.64431E-09
 -1       827-4.01905E+05-6.56379E+01-1.67917E+03 2.53525E+03 2.20879E-08 1.39204E-09
 -1       828-3.93026E+05 1.86488E+01 2.60454E+02 1.39952E+03-1.19726E-09 1.69769E-08
 -1       829-4.01574E+05-2.45158E+01-1.61686E+03-2.08167E+03 4.24228E-09-9.78753E-09
 -1       830-3.96121E+05-5.96459E+02-1.46546E+03 9.08540E+03 7.00494E-09-2.40248E-08
 -1       831-3.98887E+05 6.11653E+02-3.46616E+03-5.15037E+03-1.32665E-08-1.81608E-08
 -1       832-4.00039E+05-4.06097E+03-8.18442E+03 1.19442E+04-8.77857E-09 9.59233E-09
 -1       833-3.97718E+05 3.48737E+03-1.33233E+04-4.94072E+03-8.24286E-10 2.40016E-09
 -1       834-4.07134E+05-2.52705E+04-3.53618E+04 8.29631E+03-2.66758E-09-4.21369E-09
 -1       835-3.91723E+05 2.17448E+04-5.16982E+04-1.50215E+03 6.35248E-09-9.64428E-09
 -1       836-1.64133E+03 4.03299E+05 2.51581E+04-2.89352E+04-9.57971E-09 1.30931E-08
 -1       837 5.22100E+03 4.11237E+05 2.09608E+04-5.90641E+04-1.04617E-08 3.46340E-08
 -1       838-6.53547E+02 4.05550E+05 2.08869E+04-2.88327E+04-9.05220E-09-8.81937E-09
 -1       839 1.28212E+04 4.16875E+05 3.90497E+04-5.91092E+04-9.82254E-09-1.77150E-08
 -1       840-4.07087E+03 3.97569E+05 6.20607E+04-2.88998E+04-8.89486E-09 1.94157E-08
 -1       856-4.73820E+04 7.78750E+03-2.05209E+04-3.68035E+02 8.13111E-09-1.08730E-08
 -1       857-5.58278E+04-9.15682E+03-1.41262E+04 5.65207E+03 2.81614E-09-5.97902E-09
 -1       858-5.07299E+04 1.09254E+03-5.32457E+03-3.92768E+02 3.62115E-09-1.13498E-08
 -1       859-5.19860E+04-1.29195E+03-3.21283E+03 5.68816E+03-5.49137E-09 1.47788E-08
 -1       860-5.12301E+04 1.53446E+02-1.34605E+03-4.03713E+02 1.22782E-11-1.17007E-08
 -1       861-5.14108E+04-1.89633E+02-7.39500E+02 5.70304E+03 2.75047E-09-7.02750E-09
 -1       862-5.13084E+04 2.11688E+01-3.05441E+02-4.07610E+02-6.77682E-09-1.27424E-08
 -1       863-5.13146E+04-2.76215E+01-1.06808E+02 5.70548E+03-8.22248E-09-6.74754E-09
 -1       864-5.13269E+04-4.84060E+00 5.58426E+01-4.06146E+02-3.94792E-09 4.94714E-09
 -1       865-5.12578E+04 5.59534E+01 2.70008E+02 5.69666E+03-5.85533E-09-1.56570E-09
 -1       866-5.13630E+04-6.23338E+01 5.39043E+02-3.98797E+02 1.96110E-09 8.15027E-09
 -1       867-5.10058E+04 5.12388E+02 1.32341E+03 5.67676E+03 6.70241E-09 2.13420E-08
 -1       868-5.15740E+04-4.52835E+02 2.19841E+03-3.86237E+02-2.34462E-09-3.60126E-09
 -1       869-4.93953E+04 3.76710E+03 5.85225E+03 5.64456E+03-3.90818E-09-8.30903E-09
 -1       870-5.29658E+04-3.22837E+03 8.49324E+03-3.66443E+02-3.37513E-09-3.43653E-09
 -1       871-5.43207E+03-2.63220E+04-1.97863E+04 1.31000E+05-6.71207E-09 1.68029E-08
 -1       872-1.80766E+03-3.09663E+04-8.35652E+03 1.69875E+05-1.48475E-08 4.01542E-09
 -1       873 5.61513E+02-2.86806E+04 4.23763E+02 1.30712E+05-8.68613E-09 2.15402E-09
 -1       874 3.45704E+03-2.63706E+04 9.51974E+03 1.69892E+05-1.69621E-08 7.18683E-09
 -1       875 6.87970E+03-3.09618E+04 2.16157E+04 1.30953E+05-7.29415E-09-6.88487E-10
 -1       876 2.92328E+05 4.92466E+04 1.51354E+04 1.17275E+05 9.60983E-09 4.41378E-09
 -1       877 2.93302E+05 5.24608E+04 8.08289E+03 1.21655E+05 1.39164E-08-3.29464E-10
 -1       878 2.93745E+05 4.75677E+04 3.38626E+03 1.18512E+05-9.33142E-09 4.73187E-09
 -1       879 2.91244E+05 5.04084E+04 1.68719E+03 1.21758E+05 8.75207E-09-1.10132E-08
 -1       880 2.93847E+05 4.75504E+04 7.85719E+02 1.18563E+05 1.94632E-09-5.48795E-09
 -1       881 2.91107E+05 5.03207E+04 4.19341E+02 1.21734E+05-9.97215E-09 2.00117E-09
 -1       882 2.93856E+05 4.75638E+04 2.67774E+02 1.18564E+05-3.71983E-09 9.67987E-09
 -1       883 2.91097E+05 5.03161E+04 2.87122E+02 1.21727E+05 9.40099E-09 3.09560E-08
 -1       884 2.93849E+05 4.75612E+04 4.56044E+02 1.18564E+05 4.87830E-09-7.59121E-09
 -1       885 2.91133E+05 5.03224E+04 9.16455E+02 1.21738E+05-2.99644E-09-1.23259E-09
 -1       886 2.93813E+05 4.75345E+04 1.84685E+03 1.18561E+05-9.93829E-10 5.56065E-09
 -1       887 2.91458E+05 5.05351E+04 4.03407E+03 1.21784E+05 1.46275E-08-3.35058E-09
 -1       888 2.93558E+05 4.75796E+04 8.12871E+03 1.18432E+05-4.40878E-10-8.44011E-10
 -1       889 2.96297E+05 5.55674E+04 1.94180E+04 1.21636E+05-1.19141E-08 3.86035E-09
 -1       890 2.90236E+05 5.15248E+04 3.63693E+04 1.15343E+05-1.85810E-09-1.26111E-08
 -1       891-5.75839E+01-1.61636E+05-1.98302E+03 2.65254E+04-2.41766E-09 9.69840E-09
 -1       892-1.26826E+02-1.62176E+05-2.13086E+03 4.03331E+04 5.14274E-09 3.42852E-08
 -1       893 7.48065E+01-1.61700E+05-3.01808E+03 2.65330E+04-9.32914E-10 1.25378E-08
 -1       894-1.45383E+03-1.63318E+05-6.24712E+03 4.01826E+04 2.09752E-09 2.44654E-09
 -1       895-1.16016E+03-1.60400E+05-1.10012E+04 2.66792E+04-1.74714E-09 2.55895E-08
 -1       956-3.76005E+05-5.78471E+03-1.41371E+04 3.45662E+04 1.23910E-08-1.27784E-09
 -1       957-3.78771E+05-2.08544E+03-7.25574E+03 4.14864E+04 3.20870E-09-2.58797E-08
 -1       958-3.77284E+05-3.06915E+02-3.27031E+03 3.43760E+04-7.73434E-09 1.22695E-08
 -1       959-3.77484E+05-2.04025E+02-1.66931E+03 4.17130E+04 3.92765E-09 5.50381E-09
 -1       960-3.77415E+05-9.62842E+01-8.13875E+02 3.43562E+04 8.86394E-09 5.48380E-09
 -1       961-3.77407E+05-1.23235E+02-4.30215E+02 4.17369E+04 1.78602E-08 4.25734E-09
 -1       962-3.77449E+05-9.42991E+01-2.44379E+02 3.43527E+04 1.05151E-08-3.43789E-09
 -1       963-3.77412E+05-1.16131E+02-1.92418E+02 4.17415E+04 2.12798E-08 1.76187E-08
 -1       964-3.77458E+05-8.90396E+01-2.29597E+02 3.43516E+04 1.14760E-08 1.51856E-08
 -1       965-3.77427E+05-1.11799E+02-3.93437E+02 4.17412E+04 3.07955E-09 1.69741E-08
 -1       966-3.77443E+05-8.07509E+01-7.37314E+02 3.43530E+04 1.14060E-08 4.02270E-09
 -1       967-3.77515E+05-1.74745E+02-1.51122E+03 4.17263E+04 3.55612E-10 2.75941E-09
 -1       968-3.77339E+05-2.61990E+02-2.95817E+03 3.43662E+04 1.39971E-09-1.24282E-08
 -1       969-3.78697E+05-1.86951E+03-6.56676E+03 4.15692E+04-2.70893E-09-5.60419E-09
 -1       970-3.76194E+05-5.21413E+03-1.27928E+04 3.44976E+04-4.09182E-09 1.23109E-08
 -1       971-3.43203E+05-1.69411E+03-9.03932E+03 1.50579E+04 1.31949E-08 6.81501E-09
 -1       972-3.45371E+05-1.25876E+03-4.92287E+03 2.07455E+04 9.44056E-09 1.01818E-09
 -1       973-3.44209E+05-7.73841E+01-2.20501E+03 1.49430E+04 3.97267E-09-2.28556E-09
 -1       974-3.44333E+05-1.03273E+02-1.14329E+03 2.08775E+04-1.17757E-09-3.10149E-09
 -1       975-3.44288E+05-3.42004E+01-5.72364E+02 1.49312E+04-8.39918E-10-1.07113E-08
 -1       976-3.44272E+05-5.52580E+01-3.31995E+02 2.08926E+04 3.98268E-09 3.78702E-09
 -1       977-3.44304E+05-3.37094E+01-2.44022E+02 1.49280E+04-5.81576E-09-7.30290E-09
 -1       978-3.44277E+05-4.94088E+01-2.89812E+02 2.08972E+04-1.44369E-08 1.48532E-08
 -1       979-3.44303E+05-2.54403E+01-4.69236E+02 1.49266E+04-5.25296E-09 1.22035E-08
 -1       980-3.44312E+05-4.64780E+01-9.08297E+02 2.08981E+04-5.58890E-09-6.91819E-09
 -1       981-3.44274E+05-2.72589E+00-1.76030E+03 1.49271E+04 3.29464E-10 1.64509E-08
 -1       982-3.44554E+05-1.76449E+02-3.63914E+03 2.08918E+04-2.22735E-09-3.69270E-09
 -1       983-3.44053E+05-1.15263E+02-7.07113E+03 1.49328E+04 8.88576E-10 1.39153E-10
 -1       984-3.47956E+05-3.86912E+03-1.58357E+04 2.08086E+04-2.53317E-09 3.27259E-09
 -1       985-3.40852E+05-5.28924E+03-2.90792E+04 1.49967E+04-6.44104E-09-1.31695E-09
 -3
    1PSTEP                        37          19           1          
  100CL  119 6.59698E-01         409                     0   19           1
 -4  DISP        4    1
 -5  D1          1    2    1    0
 -5  D2          1    2    2    0
 -5  D3          1    2    3    0
 -5  ALL         1    2    0    0    1ALL
 -1         1 2.58546E-03 0.00000E+00 0.00000E+00
 -1         2 1.42077E-03 6.80981E-27-2.64698E-23
 -1         3 3.49376E-04-5.81474E-28 0.00000E+00
 -1         5 1.67197E-04-4.83577E-27-3.30872E-24
 -1         8 2.57253E-03-4.42719E-07 0.00000E+00
 -1         9 2.56348E-03-1.38592E-04 0.00000E+00
 -1        10 3.16385E-04-3.28896E-06 0.00000E+00
 -1        12 1.69990E-04 8.89279E-07 0.00000E+00
 -1        15 2.55743E-03-4.73658E-07 2.06795E-25
 -1        16 2.61177E-03-1.40143E-04 0.00000E+00
 -1        17 2.13711E-04-7.57544E-06 0.00000E+00
 -1        18 1.76763E-04 4.69162E-05 0.00000E+00
 -1        19 1.78373E-04 1.76850E-06 0.00000E+00
 -1        20 1.78496E-04-2.06215E-05 0.00000E+00
 -1        21 1.77560E-04-4.74015E-05 0.00000E+00
 -1        24 3.04431E-05-1.18977E-05 0.00000E+00
 -1        25 1.91320E-04 4.71959E-05 0.00000E+00
 -1        26 1.92579E-04 2.46334E-06 0.00000E+00
 -1        27 1.90154E-04-2.42549E-05 0.00000E+00
 -1        28 1.89859E-04-4.80274E-05 0.00000E+00
 -1        32 0.00000E+00 0.00000E+00 0.00000E+00
 -1        33 2.05442E-04 3.28660E-06 0.00000E+00
 -1        34 2.03299E-04-2.43294E-05 0.00000E+00
 -1        35 2.01353E-04-4.83759E-05 0.00000E+00
 -1        51 2.58460E-03-8.96416E-08-3.30872E-24
 -1        52 2.58303E-03-1.61908E-07 0.00000E+00
 -1        53 2.58089E-03-2.31118E-07 0.00000E+00
 -1        54 2.57832E-03-2.99485E-07-1.65436E-24
 -1        55 2.57548E-03-3.68723E-07-1.24077E-24
 -1        56 2.58004E-03 3.14515E-06 0.00000E+00
 -1        57 2.57133E-03 1.44489E-05-5.29396E-23
 -1        58 2.56052E-03 3.11529E-05-1.05879E-22
 -1        59 2.54885E-03 4.99534E-05 0.00000E+00
 -1        60 2.53779E-03 6.72073E-05 0.00000E+00
 -1        61 2.52871E-03 7.93935E-05-5.29396E-23
 -1        62 2.52260E-03 8.38782E-05 0.00000E+00
 -1        63 2.52013E-03 7.86972E-05-5.29396E-23
 -1        64 2.52128E-03 6.35984E-05 0.00000E+00
 -1        65 2.52572E-03 3.92161E-05 0.00000E+00
 -1        66 2.53260E-03 7.85566E-06 1.05879E-22
 -1        67 2.54085E-03-2.75407E-05 0.00000E+00
 -1        68 2.54922E-03-6.32971E-05-1.05879E-22
 -1        69 2.55648E-03-9.56974E-05 0.00000E+00
 -1        70 2.56150E-03-1.21647E-04 0.00000E+00
 -1        86 1.49246E-03-4.63014E-06 5.29396E-23
 -1        87 1.70116E-03-2.79517E-05 1.32349E-23
 -1        88 1.98166E-03-6.76674E-05 2.64698E-23
 -1        89 2.26535E-03-1.08297E-04-1.32349E-23
 -1        90 2.48185E-03-1.33182E-04 5.29396E-23
 -1       121 3.48450E-04-5.29269E-07 1.32349E-23
 -1       122 3.45676E-04-1.06183E-06 0.00000E+00
 -1       123 3.41062E-04-1.60091E-06-1.32349E-23
 -1       124 3.34626E-04-2.14976E-06 0.00000E+00
 -1       125 3.26390E-04-2.71122E-06-1.32349E-23
 -1       191 1.67275E-04 1.48354E-07 3.30872E-24
 -1       192 1.67507E-04 2.96683E-07-1.65436E-24
 -1       193 1.67895E-04 4.44966E-07 0.00000E+00
 -1       194 1.68438E-04 5.93177E-07 0.00000E+00
 -1       195 1.69137E-04 7.41290E-07-3.30872E-24
 -1       251 2.57209E-03 4.01973E-06 6.61744E-24
 -1       252 2.57162E-03 1.22244E-05 0.00000E+00
 -1       253 2.57113E-03 2.20993E-05 1.32349E-23
 -1       254 2.57065E-03 3.15415E-05 0.00000E+00
 -1       255 2.57018E-03 3.85417E-05-1.32349E-23
 -1       256 2.56974E-03 4.11353E-05-6.61744E-24
 -1       257 2.56929E-03 3.83026E-05 1.32349E-23
 -1       258 2.56881E-03 2.91222E-05 6.61744E-24
 -1       259 2.56825E-03 1.40321E-05 1.32349E-23
 -1       260 2.56761E-03-6.42242E-06 0.00000E+00
 -1       261 2.56689E-03-3.05462E-05-1.32349E-23
 -1       262 2.56612E-03-5.65786E-05 6.61744E-24
 -1       263 2.56536E-03-8.23490E-05-1.32349E-23
 -1       264 2.56465E-03-1.05691E-04 6.61744E-24
 -1       265 2.56403E-03-1.24963E-04 0.00000E+00
 -1       266 2.57001E-03-4.54221E-07-3.30872E-24
 -1       267 2.56750E-03-4.58604E-07 0.00000E+00
 -1       268 2.56498E-03-4.63438E-07 8.27181E-25
 -1       269 2.56246E-03-4.66937E-07 2.06795E-25
 -1       270 2.55995E-03-4.70404E-07 2.06795E-25
 -1       271 2.57130E-03 8.31813E-07 1.32349E-23
 -1       272 2.57078E-03 1.67283E-07 0.00000E+00
 -1       273 2.57095E-03-2.34506E-06 2.64698E-23
 -1       274 2.57177E-03-6.60659E-06 1.32349E-23
 -1       275 2.57319E-03-1.25004E-05 0.00000E+00
 -1       276 2.57516E-03-1.98970E-05 0.00000E+00
 -1       277 2.57763E-03-2.86525E-05 0.00000E+00
 -1       278 2.58054E-03-3.86116E-05-1.32349E-23
 -1       279 2.58383E-03-4.96082E-05-2.64698E-23
 -1       280 2.58743E-03-6.14670E-05 0.00000E+00
 -1       281 2.59128E-03-7.40048E-05 0.00000E+00
 -1       282 2.59530E-03-8.70327E-05-1.32349E-23
 -1       283 2.59943E-03-1.00357E-04 0.00000E+00
 -1       284 2.60360E-03-1.13782E-04 0.00000E+00
 -1       285 2.60773E-03-1.27110E-04 1.32349E-23
 -1       301 2.57224E-03-1.38878E-04 0.00000E+00
 -1       302 2.57956E-03-1.39126E-04 0.00000E+00
 -1       303 2.58630E-03-1.39366E-04 0.00000E+00
 -1       304 2.59334E-03-1.39608E-04 6.61744E-24
 -1       305 2.60154E-03-1.39859E-04 0.00000E+00
 -1       306 2.60013E-03-2.86739E-04-1.05879E-22
 -1       307 2.66433E-03-6.89474E-04 0.00000E+00
 -1       308 2.71360E-03-1.28117E-03 1.05879E-22
 -1       309 2.74107E-03-1.96885E-03-5.29396E-23
 -1       310 2.77481E-03-2.62978E-03 0.00000E+00
 -1       311 2.83471E-03-3.14357E-03 0.00000E+00
 -1       312 2.89331E-03-3.43082E-03 0.00000E+00
 -1       313 2.89300E-03-3.45223E-03 0.00000E+00
 -1       314 2.76307E-03-3.21793E-03 0.00000E+00
 -1       315 2.46301E-03-2.78847E-03 0.00000E+00
 -1       316 2.00918E-03-2.23844E-03 1.05879E-22
 -1       317 1.46372E-03-1.63666E-03 5.29396E-23
 -1       318 9.36407E-04-1.04480E-03 1.05879E-22
 -1       319 5.31620E-04-5.28088E-04-5.29396E-23
 -1       320 2.92613E-04-1.58784E-04 1.05879E-22
 -1       336 3.04415E-04-3.92932E-06 0.00000E+00
 -1       337 2.90295E-04-4.59712E-06-6.61744E-24
 -1       338 2.74087E-04-5.29489E-06 1.32349E-23
 -1       339 2.55865E-04-6.02384E-06 0.00000E+00
 -1       340 2.35709E-04-6.78849E-06 0.00000E+00
 -1       406 1.71000E-04 1.03711E-06 3.30872E-24
 -1       407 1.72164E-04 1.18472E-06 0.00000E+00
 -1       408 1.73484E-04 1.33206E-06 0.00000E+00
 -1       409 1.74959E-04 1.47888E-06-8.27181E-25
 -1       410 1.76589E-04 1.62487E-06 1.65436E-24
 -1       521 2.64914E-03-2.97680E-04-1.05879E-22
 -1       522 2.71180E-03-7.20452E-04 5.29396E-23
 -1       523 2.75507E-03-1.33950E-03-1.05879E-22
 -1       524 2.77385E-03-2.05527E-03 5.29396E-23
 -1       525 2.80008E-03-2.74224E-03-1.05879E-22
 -1       526 2.85657E-03-3.27753E-03 0.00000E+00
 -1       527 2.91473E-03-3.57521E-03 0.00000E+00
 -1       528 2.91228E-03-3.59505E-03-5.29396E-23
 -1       529 2.77111E-03-3.34706E-03 2.11758E-22
 -1       530 2.44843E-03-2.89929E-03 0.00000E+00
 -1       531 1.96131E-03-2.33000E-03 1.05879E-22
 -1       532 1.37805E-03-1.71075E-03 0.00000E+00
 -1       533 8.13599E-04-1.10094E-03 0.00000E+00
 -1       534 3.77289E-04-5.63777E-04 0.00000E+00
 -1       535 1.18258E-04-1.75711E-04 0.00000E+00
 -1       536 2.12837E-04 3.03625E-05 0.00000E+00
 -1       537 2.10448E-04 9.82277E-05 1.65436E-24
 -1       538 2.06639E-04 1.85575E-04 0.00000E+00
 -1       539 2.02039E-04 2.81856E-04-1.65436E-24
 -1       540 1.97838E-04 3.73603E-04 0.00000E+00
 -1       541 1.95074E-04 4.47364E-04 0.00000E+00
 -1       542 1.93788E-04 4.95207E-04 0.00000E+00
 -1       543 1.93507E-04 5.09377E-04-1.65436E-24
 -1       544 1.93157E-04 4.90518E-04 3.30872E-24
 -1       545 1.91727E-04 4.39554E-04 0.00000E+00
 -1       546 1.88959E-04 3.65651E-04 0.00000E+00
 -1       547 1.85130E-04 2.78122E-04 0.00000E+00
 -1       548 1.81301E-04 1.90598E-04 3.30872E-24
 -1       549 1.78535E-04 1.16711E-04 0.00000E+00
 -1       550 1.77109E-04 6.57643E-05-1.65436E-24
 -1       551 1.87796E-04-8.16658E-06 0.00000E+00
 -1       552 1.58771E-04-8.83698E-06 0.00000E+00
 -1       553 1.27570E-04-9.56734E-06-9.92617E-24
 -1       554 9.51485E-05-1.03359E-05 3.30872E-24
 -1       555 6.24569E-05-1.11150E-05 0.00000E+00
 -1       556 2.05714E-04 1.28756E-05 0.00000E+00
 -1       557 1.99145E-04 2.97454E-05 0.00000E+00
 -1       558 1.93879E-04 4.32946E-05 0.00000E+00
 -1       559 1.89797E-04 5.38059E-05 0.00000E+00
 -1       560 1.86777E-04 6.15618E-05 0.00000E+00
 -1       561 1.84704E-04 6.68477E-05 0.00000E+00
 -1       562 1.83461E-04 6.99500E-05 0.00000E+00
 -1       563 1.82935E-04 7.11557E-05 0.00000E+00
 -1       564 1.83015E-04 7.07530E-05 0.00000E+00
 -1       565 1.83589E-04 6.90305E-05 0.00000E+00
 -1       566 1.84547E-04 6.62774E-05 0.00000E+00
 -1       567 1.85781E-04 6.27835E-05 0.00000E+00
 -1       568 1.87183E-04 5.88387E-05 0.00000E+00
 -1       569 1.88645E-04 5.47328E-05 0.00000E+00
 -1       570 1.90059E-04 5.07562E-05 0.00000E+00
 -1       571 1.76860E-04 4.40452E-05-2.48154E-24
 -1       572 1.76960E-04 4.10870E-05-4.13590E-25
 -1       573 1.77060E-04 3.80609E-05-2.48154E-24
 -1       574 1.77160E-04 3.49870E-05 8.27181E-25
 -1       575 1.77260E-04 3.18855E-05 3.30872E-24
 -1       576 1.77361E-04 2.87768E-05 1.65436E-24
 -1       577 1.77461E-04 2.56813E-05 0.00000E+00
 -1       578 1.77561E-04 2.26193E-05 0.00000E+00
 -1       579 1.77662E-04 1.96112E-05 0.00000E+00
 -1       580 1.77763E-04 1.66773E-05 0.00000E+00
 -1       581 1.77864E-04 1.38380E-05 0.00000E+00
 -1       582 1.77965E-04 1.11137E-05-3.30872E-24
 -1       583 1.78067E-04 8.52475E-06-1.32349E-23
 -1       584 1.78169E-04 6.09121E-06 0.00000E+00
 -1       585 1.78271E-04 3.83302E-06-6.61744E-24
 -1       586 1.79222E-04 4.69644E-05 0.00000E+00
 -1       587 1.81613E-04 4.70124E-05 8.27181E-25
 -1       588 1.83976E-04 4.70602E-05-8.27181E-25
 -1       589 1.86353E-04 4.71075E-05 0.00000E+00
 -1       590 1.88787E-04 4.71536E-05 0.00000E+00
 -1       591 1.77749E-04 4.41561E-05 0.00000E+00
 -1       592 1.78744E-04 4.13622E-05 0.00000E+00
 -1       593 1.79748E-04 3.85423E-05 8.27181E-25
 -1       594 1.80758E-04 3.57028E-05 0.00000E+00
 -1       595 1.81773E-04 3.28504E-05 1.65436E-24
 -1       596 1.82791E-04 2.99913E-05 0.00000E+00
 -1       597 1.83808E-04 2.71322E-05 1.65436E-24
 -1       598 1.84823E-04 2.42795E-05 0.00000E+00
 -1       599 1.85834E-04 2.14395E-05-1.65436E-24
 -1       600 1.86837E-04 1.86189E-05 4.13590E-25
 -1       601 1.87831E-04 1.58240E-05 8.27181E-25
 -1       602 1.88812E-04 1.30613E-05 4.13590E-25
 -1       603 1.89780E-04 1.03372E-05 0.00000E+00
 -1       604 1.90731E-04 7.65843E-06 1.03398E-25
 -1       605 1.91664E-04 5.03119E-06 0.00000E+00
 -1       606 1.78385E-04-3.30697E-08 0.00000E+00
 -1       607 1.78394E-04-1.75734E-06 0.00000E+00
 -1       608 1.78402E-04-3.40885E-06 3.30872E-24
 -1       609 1.78409E-04-4.99271E-06 0.00000E+00
 -1       610 1.78416E-04-6.51409E-06 0.00000E+00
 -1       611 1.78423E-04-7.97822E-06 0.00000E+00
 -1       612 1.78430E-04-9.39030E-06 0.00000E+00
 -1       613 1.78438E-04-1.07556E-05 0.00000E+00
 -1       614 1.78445E-04-1.20793E-05 0.00000E+00
 -1       615 1.78452E-04-1.33667E-05 0.00000E+00
 -1       616 1.78460E-04-1.46231E-05 0.00000E+00
 -1       617 1.78467E-04-1.58535E-05 0.00000E+00
 -1       618 1.78474E-04-1.70634E-05 0.00000E+00
 -1       619 1.78482E-04-1.82578E-05 0.00000E+00
 -1       620 1.78489E-04-1.94422E-05 0.00000E+00
 -1       621 1.80396E-04 1.88495E-06 1.65436E-24
 -1       622 1.82614E-04 2.00184E-06 1.65436E-24
 -1       623 1.84985E-04 2.11839E-06 0.00000E+00
 -1       624 1.87465E-04 2.23451E-06 1.65436E-24
 -1       625 1.90011E-04 2.35025E-06 0.00000E+00
 -1       626 1.79161E-04 2.22013E-09 3.30872E-24
 -1       627 1.79930E-04-1.71071E-06 0.00000E+00
 -1       628 1.80681E-04-3.37746E-06 0.00000E+00
 -1       629 1.81419E-04-5.00549E-06 0.00000E+00
 -1       630 1.82144E-04-6.60230E-06 0.00000E+00
 -1       631 1.82861E-04-8.17540E-06-1.65436E-24
 -1       632 1.83572E-04-9.73228E-06 0.00000E+00
 -1       633 1.84279E-04-1.12805E-05-1.65436E-24
 -1       634 1.84986E-04-1.28275E-05-3.30872E-24
 -1       635 1.85696E-04-1.43808E-05 1.65436E-24
 -1       636 1.86410E-04-1.59480E-05-3.30872E-24
 -1       637 1.87133E-04-1.75365E-05 0.00000E+00
 -1       638 1.87866E-04-1.91539E-05-1.65436E-24
 -1       639 1.88613E-04-2.08077E-05-8.27181E-25
 -1       640 1.89375E-04-2.25055E-05-3.30872E-24
 -1       656 1.79899E-04-2.12118E-05 6.61744E-24
 -1       657 1.81710E-04-2.18262E-05 0.00000E+00
 -1       658 1.83796E-04-2.24394E-05-1.32349E-23
 -1       659 1.86018E-04-2.30523E-05 6.61744E-24
 -1       660 1.88196E-04-2.36670E-05 0.00000E+00
 -1       661 1.79020E-04-2.18456E-05 0.00000E+00
 -1       662 1.79583E-04-2.31619E-05-8.27181E-25
 -1       663 1.80178E-04-2.45652E-05 0.00000E+00
 -1       664 1.80803E-04-2.60487E-05 0.00000E+00
 -1       665 1.81457E-04-2.76066E-05 1.65436E-24
 -1       666 1.82135E-04-2.92327E-05 8.27181E-25
 -1       667 1.82837E-04-3.09214E-05 0.00000E+00
 -1       668 1.83561E-04-3.26668E-05 0.00000E+00
 -1       669 1.84303E-04-3.44634E-05-1.65436E-24
 -1       670 1.85062E-04-3.63058E-05 0.00000E+00
 -1       671 1.85837E-04-3.81885E-05 1.65436E-24
 -1       672 1.86624E-04-4.01063E-05 0.00000E+00
 -1       673 1.87423E-04-4.20540E-05 0.00000E+00
 -1       674 1.88229E-04-4.40267E-05 0.00000E+00
 -1       675 1.89044E-04-4.60189E-05 2.06795E-25
 -1       676 1.79617E-04-4.75064E-05 0.00000E+00
 -1       677 1.81673E-04-4.76113E-05 1.65436E-24
 -1       678 1.83726E-04-4.77161E-05 3.30872E-24
 -1       679 1.85776E-04-4.78206E-05 0.00000E+00
 -1       680 1.87820E-04-4.79251E-05 0.00000E+00
 -1       771 1.84717E-05 1.48970E-05 5.29396E-23
 -1       772 8.40564E-06 3.68977E-05 0.00000E+00
 -1       773 1.52371E-07 5.43361E-05 0.00000E+00
 -1       774-6.41329E-06 6.74721E-05 0.00000E+00
 -1       775-1.14139E-05 7.65759E-05 5.29396E-23
 -1       776-1.49769E-05 8.19346E-05 2.64698E-23
 -1       777-1.72293E-05 8.38451E-05 5.29396E-23
 -1       778-1.83010E-05 8.26183E-05 0.00000E+00
 -1       779-1.83207E-05 7.85736E-05 5.29396E-23
 -1       780-1.74196E-05 7.20417E-05 0.00000E+00
 -1       781-1.57276E-05 6.33603E-05 0.00000E+00
 -1       782-1.33763E-05 5.28756E-05 0.00000E+00
 -1       783-1.04964E-05 4.09386E-05 5.29396E-23
 -1       784-7.21961E-06 2.79064E-05 0.00000E+00
 -1       785-3.67685E-06 1.41393E-05 5.29396E-23
 -1       786 1.91394E-04 4.43799E-05 8.27181E-25
 -1       787 1.91472E-04 4.15468E-05 8.27181E-25
 -1       788 1.91550E-04 3.87012E-05 1.65436E-24
 -1       789 1.91629E-04 3.58479E-05 0.00000E+00
 -1       790 1.91708E-04 3.29901E-05 0.00000E+00
 -1       791 1.91787E-04 3.01308E-05 1.65436E-24
 -1       792 1.91866E-04 2.72730E-05-3.30872E-24
 -1       793 1.91945E-04 2.44195E-05 0.00000E+00
 -1       794 1.92024E-04 2.15742E-05 0.00000E+00
 -1       795 1.92104E-04 1.87407E-05 0.00000E+00
 -1       796 1.92183E-04 1.59252E-05 0.00000E+00
 -1       797 1.92262E-04 1.31337E-05 0.00000E+00
 -1       798 1.92342E-04 1.03773E-05 3.30872E-24
 -1       799 1.92421E-04 7.66672E-06 8.27181E-25
 -1       800 1.92500E-04 5.02202E-06 1.65436E-24
 -1       801 1.33810E-04 4.31317E-05 0.00000E+00
 -1       802-3.91200E-05 2.63097E-05 2.64698E-23
 -1       803-1.79550E-04 1.35787E-05 0.00000E+00
 -1       804-1.44014E-04 9.71896E-06 0.00000E+00
 -1       805-4.39726E-05 2.98413E-06 0.00000E+00
 -1       806 1.92262E-04 4.43077E-05 0.00000E+00
 -1       807 1.93207E-04 4.13972E-05 0.00000E+00
 -1       808 1.94156E-04 3.84742E-05-3.30872E-24
 -1       809 1.95106E-04 3.55473E-05 0.00000E+00
 -1       810 1.96054E-04 3.26255E-05 0.00000E+00
 -1       811 1.96997E-04 2.97172E-05-1.65436E-24
 -1       812 1.97932E-04 2.68312E-05-3.30872E-24
 -1       813 1.98854E-04 2.39762E-05 0.00000E+00
 -1       814 1.99763E-04 2.11608E-05 0.00000E+00
 -1       815 2.00653E-04 1.83936E-05 0.00000E+00
 -1       816 2.01522E-04 1.56833E-05 0.00000E+00
 -1       817 2.02367E-04 1.30385E-05 8.27181E-25
 -1       818 2.03184E-04 1.04679E-05-1.65436E-24
 -1       819 2.03971E-04 7.98003E-06 8.27181E-25
 -1       820 2.04724E-04 5.58347E-06-1.65436E-24
 -1       821 1.92442E-04-1.29713E-06-1.65436E-24
 -1       822 1.92285E-04-7.53825E-06 0.00000E+00
 -1       823 1.92117E-04-1.54383E-05 0.00000E+00
 -1       824 1.91942E-04-2.41651E-05 0.00000E+00
 -1       825 1.91768E-04-3.26562E-05 0.00000E+00
 -1       826 1.91603E-04-3.98505E-05 0.00000E+00
 -1       827 1.91450E-04-4.50499E-05-3.30872E-24
 -1       828 1.91307E-04-4.75689E-05 1.65436E-24
 -1       829 1.91168E-04-4.74706E-05 0.00000E+00
 -1       830 1.91024E-04-4.48346E-05 0.00000E+00
 -1       831 1.90876E-04-4.04495E-05 3.30872E-24
 -1       832 1.90723E-04-3.51149E-05 0.00000E+00
 -1       833 1.90570E-04-2.98965E-05 0.00000E+00
 -1       834 1.90425E-04-2.58586E-05 0.00000E+00
 -1       835 1.90284E-04-2.37370E-05 0.00000E+00
 -1       836 1.94959E-04 2.59951E-06 3.30872E-24
 -1       837 1.97169E-04 2.73936E-06 1.65436E-24
 -1       838 1.99265E-04 2.87926E-06 3.30872E-24
 -1       839 2.01304E-04 3.01846E-06 0.00000E+00
 -1       840 2.03344E-04 3.15745E-06 0.00000E+00
 -1       856 1.90139E-04-2.60232E-05 8.27181E-25
 -1       857 1.90121E-04-2.76544E-05 0.00000E+00
 -1       858 1.90103E-04-2.91698E-05-2.06795E-25
 -1       859 1.90084E-04-3.05904E-05 2.06795E-25
 -1       860 1.90066E-04-3.19377E-05 0.00000E+00
 -1       861 1.90048E-04-3.32330E-05 0.00000E+00
 -1       862 1.90030E-04-3.44976E-05 0.00000E+00
 -1       863 1.90011E-04-3.57530E-05 2.06795E-25
 -1       864 1.89993E-04-3.70206E-05 0.00000E+00
 -1       865 1.89975E-04-3.83217E-05 2.06795E-25
 -1       866 1.89956E-04-3.96778E-05 0.00000E+00
 -1       867 1.89937E-04-4.11102E-05 0.00000E+00
 -1       868 1.89919E-04-4.26401E-05-8.27181E-25
 -1       869 1.89899E-04-4.42889E-05-4.13590E-25
 -1       870 1.89880E-04-4.60777E-05 0.00000E+00
 -1       871 1.92212E-04-2.42627E-05 0.00000E+00
 -1       872 1.94415E-04-2.42741E-05 0.00000E+00
 -1       873 1.96694E-04-2.42863E-05 4.13590E-25
 -1       874 1.98981E-04-2.42992E-05-2.32645E-25
 -1       875 2.01205E-04-2.43127E-05-1.24077E-24
 -1       876 1.90943E-04-2.60087E-05 0.00000E+00
 -1       877 1.91710E-04-2.76940E-05-1.65436E-24
 -1       878 1.92454E-04-2.93190E-05 0.00000E+00
 -1       879 1.93179E-04-3.08911E-05 0.00000E+00
 -1       880 1.93888E-04-3.24181E-05 0.00000E+00
 -1       881 1.94582E-04-3.39073E-05-1.65436E-24
 -1       882 1.95265E-04-3.53662E-05 0.00000E+00
 -1       883 1.95939E-04-3.68025E-05 0.00000E+00
 -1       884 1.96608E-04-3.82235E-05-3.30872E-24
 -1       885 1.97274E-04-3.96367E-05 0.00000E+00
 -1       886 1.97939E-04-4.10497E-05 0.00000E+00
 -1       887 1.98608E-04-4.24699E-05 0.00000E+00
 -1       888 1.99281E-04-4.39049E-05-3.30872E-24
 -1       889 1.99962E-04-4.53622E-05 1.65436E-24
 -1       890 2.00654E-04-4.68494E-05 0.00000E+00
 -1       891 1.91916E-04-4.80860E-05-1.65436E-24
 -1       892 1.93950E-04-4.81448E-05 0.00000E+00
 -1       893 1.95935E-04-4.82035E-05 0.00000E+00
 -1       894 1.97847E-04-4.82618E-05-4.13590E-25
 -1       895 1.99661E-04-4.83198E-05-4.13590E-25
 -1       956 2.05310E-04 1.19871E-06 0.00000E+00
 -1       957 2.05176E-04-7.81585E-07 0.00000E+00
 -1       958 2.05041E-04-2.66636E-06 1.65436E-24
 -1       959 2.04907E-04-4.46840E-06 0.00000E+00
 -1       960 2.04772E-04-6.20055E-06 3.30872E-24
 -1       961 2.04638E-04-7.87568E-06 1.65436E-24
 -1       962 2.04504E-04-9.50668E-06 0.00000E+00
 -1       963 2.04370E-04-1.11065E-05 1.65436E-24
 -1       964 2.04235E-04-1.26880E-05-3.30872E-24
 -1       965 2.04101E-04-1.42641E-05-1.65436E-24
 -1       966 2.03967E-04-1.58477E-05-3.30872E-24
 -1       967 2.03833E-04-1.74518E-05 0.00000E+00
 -1       968 2.03699E-04-1.90891E-05-6.61744E-24
 -1       969 2.03565E-04-2.07727E-05-3.30872E-24
 -1       970 2.03431E-04-2.25154E-05-3.30872E-24
 -1       971 2.03178E-04-2.61513E-05 0.00000E+00
 -1       972 2.03056E-04-2.78819E-05-1.65436E-24
 -1       973 2.02933E-04-2.95314E-05-3.30872E-24
 -1       974 2.02811E-04-3.11101E-05 0.00000E+00
 -1       975 2.02689E-04-3.26286E-05 3.30872E-24
 -1       976 2.02567E-04-3.40974E-05 0.00000E+00
 -1       977 2.02444E-04-3.55272E-05 0.00000E+00
 -1       978 2.02322E-04-3.69283E-05 0.00000E+00
 -1       979 2.02200E-04-3.83115E-05 0.00000E+00
 -1       980 2.02078E-04-3.96872E-05 0.00000E+00
 -1       981 2.01956E-04-4.10660E-05 0.00000E+00
 -1       982 2.01834E-04-4.24585E-05 1.65436E-24
 -1       983 2.01712E-04-4.38752E-05 0.00000E+00
 -1       984 2.01591E-04-4.53267E-05-1.65436E-24
 -1       985 2.01470E-04-4.68235E-05-3.30872E-24
 -3
    1PSTEP                        38          19           1          
  100CL  119 6.59698E-01         409                     0   19           1
 -4  STRESS      6    1
 -5  SXX         1    4    1    1
 -5  SYY         1    4    2    2
 -5  SZZ         1    4    3    3
 -5  SXY         1    4    1    2
 -5  SYZ         1    4    2    3
 -5  SZX         1    4    3    1
 -1         1-5.09144E+06-1.70048E+06-1.09831E+06-1.54441E+06 7.85803E-10 1.46945E-07
 -1         2 1.00380E+06 1.47082E+07 3.61371E+06 4.44397E+06 2.13040E-08-1.00998E-07
 -1         3-1.58759E+03-1.50180E+06 4.06019E+02-2.20203E+03-5.00723E-10-4.42960E-08
 -1         5-1.71124E+02 4.25187E+05 1.17355E+01-2.41028E+00-5.24139E-10 6.59456E-08
 -1         8-7.03463E+05-2.36131E+05-8.74977E+04-2.65664E+05-5.72982E-11 3.06136E-08
 -1         9 1.07838E+07 2.52052E+06 2.38030E+06-5.83208E+05-7.12462E-09-5.76489E-08
 -1        10-2.35044E+03-1.56495E+06-3.69479E+03-1.49145E+04-1.45938E-08-3.24752E-08
 -1        12-1.66791E+02 4.25213E+05 3.91358E+02-1.57780E+01-9.32131E-10-5.12955E-09
 -1        15 1.05153E+03 5.77870E+02 3.39905E+03 1.14419E+00-5.93928E-10 3.50924E-07
 -1        16 2.17990E+07-2.58893E+05 2.99388E+06-2.00068E+06 5.93718E-09-1.96975E-07
 -1        17 7.95780E+06 5.93564E+06 2.15327E+06 5.68210E+06 2.57540E-08 2.05357E-08
 -1        18 1.97310E+05 5.10772E+04 1.63689E+04-1.31913E+05 1.33014E-08-2.16460E-10
 -1        19 1.26815E+05 1.55475E+05-4.84863E+02 2.00033E+04 2.66118E-09-6.30353E-09
 -1        20-8.75266E+04-5.85841E+05-1.31717E+05 2.29744E+04-4.50655E-09 1.00669E-08
 -1        21-4.35804E+01-2.94555E+05-9.15612E+02 4.15550E+02 2.81453E-08-2.02138E-08
 -1        24 1.31896E+07 1.13529E+07 3.66830E+06 1.05224E+07-1.62050E-07-5.16690E-08
 -1        25 4.11645E+05 1.30660E+06 3.62103E+05-8.80771E+05 3.24890E-08-2.51101E-08
 -1        26-3.77735E+04 1.08829E+05-2.02279E+04-3.01379E+03-1.86119E-09 1.78674E-08
 -1        27-7.64283E+04-3.16737E+05-1.14692E+05 6.93251E+04-6.27294E-09 1.06756E-08
 -1        28 2.19257E+04-8.53537E+04 1.68106E+04 1.99214E+04-6.91170E-09 1.15386E-08
 -1        32-1.34843E+06-1.92086E+06 1.08209E+05 7.37359E+05-2.61934E-08-1.52819E-08
 -1        33-1.72692E+05 1.01336E+05 3.40054E+04-4.93839E+04-4.72524E-09 1.06011E-08
 -1        34-2.24354E+05-2.66751E+04 7.00762E+02 7.79197E+04-6.95286E-09-5.17396E-09
 -1        35-2.27614E+04-3.37892E+04-1.34966E+03 5.11796E+04-1.04412E-08 1.18465E-08
 -1        51 5.73854E+04-1.86098E+05 1.22075E+05-5.07730E+05-1.45519E-10 2.86491E-07
 -1        52 1.97968E+04-1.65260E+05 6.46063E+04-5.92077E+05 1.04592E-10-5.73709E-09
 -1        53 4.48906E+03-1.80661E+05 3.45432E+04-5.05941E+05 6.91216E-10-2.55473E-07
 -1        54 8.73739E+03-1.76562E+05 3.01872E+04-5.93870E+05 1.74623E-10 1.06571E-07
 -1        55 1.88509E+04-1.84450E+05 3.88356E+04-5.05779E+05 1.81899E-10-7.24322E-09
 -1        56-9.35466E+06-1.14713E+06-8.26040E+05-3.76247E+06-2.04600E-08-2.59024E-09
 -1        57-1.02291E+07-1.27164E+06-5.44697E+05-3.06064E+06 9.14588E-09 4.88653E-08
 -1        58-9.39610E+06-1.49589E+06-1.90907E+05-3.81819E+06-8.25457E-09 1.96240E-07
 -1        59-1.01407E+07-8.92052E+05-1.11763E+05-3.05284E+06-1.22047E-08-2.30484E-08
 -1        60-9.45369E+06-1.50853E+06-4.72814E+04-3.78332E+06-2.04691E-08-8.88140E-08
 -1        61-9.89173E+06-1.01778E+06-1.60681E+04-3.21295E+06 3.89027E-08 8.57981E-08
 -1        62-9.61432E+06-1.38967E+06-2.56127E+04-3.63555E+06-2.40325E-08 2.36800E-07
 -1        63-9.54494E+06-1.32039E+06 3.73522E+03-3.54593E+06 3.16140E-09 1.81235E-07
 -1        64-9.77956E+06-1.22041E+06-2.34947E+04-3.43627E+06 5.43514E-09-3.87936E-08
 -1        65-9.31800E+06-1.60125E+06-1.51176E+04-3.91044E+06-5.52827E-08 7.96064E-08
 -1        66-9.86773E+06-1.09063E+06-4.13263E+04-3.29053E+06-1.78516E-08 8.13088E-10
 -1        67-9.27275E+06-1.75374E+06-1.00584E+05-4.07624E+06-1.97488E-08-1.17725E-08
 -1        68-9.85154E+06-1.05070E+06-1.72758E+05-3.28799E+06-2.81179E-08-8.22984E-08
 -1        69-9.49395E+06-1.93797E+06-4.88049E+05-3.88533E+06-1.91330E-08-1.29512E-07
 -1        70-9.62736E+06-9.29784E+05-7.46238E+05-3.46446E+06 9.80799E-09-9.94187E-08
 -1        86-1.02200E+06-1.19792E+07-1.97304E+06-2.10624E+06-2.28441E-07 1.69821E-08
 -1        87 1.53981E+06 3.75642E+06 1.64197E+06 4.22413E+06-4.04361E-07 6.81030E-08
 -1        88-2.56191E+05-2.33499E+06 1.45213E+05-2.06737E+06-3.45515E-07-9.69630E-08
 -1        89 2.07170E+06 3.57797E+06 1.67263E+06 4.34272E+06-5.05301E-07 1.66103E-07
 -1        90-1.49939E+06-1.18478E+07-2.14809E+06-2.23864E+06-1.04763E-07 2.18715E-08
 -1       121-2.17018E+03-1.50700E+06-6.14261E+02 1.09042E+03 1.43987E-09-1.03901E-08
 -1       122-1.40414E+03-1.50187E+06 7.60157E+02-4.41087E+03-5.70742E-09-2.51894E-08
 -1       123-2.18509E+03-1.50714E+06 1.75467E+02 3.25731E+03 4.57055E-09-2.24027E-08
 -1       124 1.85512E+02-1.50146E+06 2.87981E+03-9.25053E+03-1.09721E-08-1.00044E-10
 -1       125-2.95692E+03-1.50801E+06 3.30161E+03 5.87875E+03 6.44832E-09 7.90897E-09
 -1       191-1.79968E+02 4.25188E+05 5.79592E+00 1.30286E+00-8.51489E-10 2.22062E-08
 -1       192-1.72321E+02 4.25188E+05 2.52450E+01-7.16185E+00-1.24470E-09-1.72804E-10
 -1       193-1.83082E+02 4.25187E+05 3.89424E+01 6.45260E+00-1.59913E-09 1.47156E-08
 -1       194-1.76142E+02 4.25192E+05 9.64618E+01-1.60749E+01-9.85117E-10 7.93807E-09
 -1       195-1.89055E+02 4.25185E+05 1.80648E+02 1.08415E+01-2.20059E-09-3.65253E-09
 -1       251-1.25514E+06 2.75219E+04-6.86350E+04-2.91391E+04 2.35923E-09-6.21185E-08
 -1       252-1.27251E+06-3.14520E+04-4.60281E+04 9.67168E+04-1.86677E-09 3.38150E-09
 -1       253-1.25919E+06 4.58105E+03-1.71583E+04-3.81314E+04-5.46660E-09-3.04653E-08
 -1       254-1.25683E+06-4.19662E+03-9.16523E+03 9.26064E+04 6.43183E-09-7.78873E-08
 -1       255-1.27038E+06 2.58973E+02-6.17707E+03-2.50288E+04 5.48016E-09-1.01414E-07
 -1       256-1.23325E+06-3.58758E+01 3.29218E+03 5.01936E+04-3.56977E-09 5.20811E-08
 -1       257-1.28074E+06-1.36190E+03-4.84827E+03 4.27695E+03-2.28283E-09 2.22655E-07
 -1       258-1.22864E+06 1.49244E+03 6.79900E+03-1.10044E+04-4.63137E-09 5.88473E-08
 -1       259-1.27462E+06-1.79597E+03-1.61440E+03 3.61287E+04 1.19508E-09 9.47830E-09
 -1       260-1.24910E+06 4.02022E+03 6.28858E+03-6.23479E+04-1.49453E-08 1.98954E-07
 -1       261-1.26213E+06-2.26003E+03 5.93020E+03 5.56507E+04 2.42343E-08 2.44459E-07
 -1       262-1.25893E+06 1.09860E+04 1.57379E+04-8.03942E+04-1.99333E-08 2.29074E-07
 -1       263-1.26588E+06-7.67143E+03 2.37725E+04 5.42191E+04 1.63914E-08 1.14160E-08
 -1       264-1.22439E+06 5.03088E+04 6.98254E+04-5.72787E+04 3.27198E-08 2.18643E-08
 -1       265-1.29522E+06-4.27280E+04 9.02110E+04 3.24845E+04 1.46179E-08 9.19499E-08
 -1       266-1.90364E+04-8.90208E+03 4.46616E+04-2.44805E+01-5.14774E-10-1.28445E-07
 -1       267 2.20682E+04 1.03745E+04 3.15678E+04 2.82474E+01-5.64341E-10-4.01104E-07
 -1       268-2.95931E+03-1.46938E+03 1.17335E+04-3.59911E+00-5.48425E-10-1.36384E-07
 -1       269 3.49407E+03 1.75847E+03 7.62667E+03 4.19254E+00-5.78893E-10-1.91005E-07
 -1       270-5.24463E+02-2.88932E+02 3.68150E+03-5.68954E-01-2.14754E-10-3.46535E-08
 -1       271-1.66854E+06-2.08248E+05-1.24213E+05-6.45972E+05 1.20717E-08 7.60992E-08
 -1       272-1.69378E+06-3.12112E+05-7.90419E+04-6.61184E+05-2.40425E-08-1.45691E-07
 -1       273-1.69387E+06-2.36555E+05-2.97334E+04-6.38110E+05-2.15532E-08 5.04806E-08
 -1       274-1.66366E+06-2.78365E+05-1.60664E+04-6.74840E+05 3.81087E-08-1.38397E-07
 -1       275-1.69930E+06-2.37294E+05-7.19262E+03-6.34691E+05 1.73040E-08 9.90813E-08
 -1       276-1.65695E+06-2.78431E+05-3.37251E+03-6.81901E+05 1.90921E-08 1.15324E-07
 -1       277-1.70189E+06-2.35230E+05-1.94827E+03-6.32172E+05 1.60635E-08 3.37841E-08
 -1       278-1.65395E+06-2.81530E+05-9.55190E+02-6.87225E+05 2.74958E-08-2.14156E-08
 -1       279-1.70360E+06-2.33338E+05-1.08276E+03-6.30289E+05-1.15451E-08-1.23927E-07
 -1       280-1.65230E+06-2.84195E+05-1.49102E+03-6.91031E+05 9.99717E-09 1.19522E-07
 -1       281-1.70460E+06-2.31916E+05-2.75537E+03-6.29081E+05-1.15006E-08 2.23555E-07
 -1       282-1.65256E+06-2.87390E+05-6.43709E+03-6.92991E+05 3.17959E-09 1.43245E-07
 -1       283-1.70400E+06-2.29900E+05-1.14524E+04-6.28710E+05-2.34518E-08-1.78555E-07
 -1       284-1.66238E+06-3.03232E+05-3.12205E+04-6.91045E+05-2.79533E-09 3.88591E-08
 -1       285-1.69515E+06-2.17549E+05-4.85394E+04-6.30565E+05-5.85228E-08 2.25806E-07
 -1       301 2.98891E+03-6.04903E+05 1.68861E+05-1.05490E+06 5.12227E-09 6.65095E-08
 -1       302 3.32262E+03-5.60169E+05 1.01832E+05-1.54097E+06-5.04951E-09 2.29047E-08
 -1       303-1.38993E+04-5.94520E+05 5.87845E+04-1.05214E+06 3.84898E-09-3.61106E-08
 -1       304-1.23188E+04-5.65014E+05 6.13493E+04-1.54019E+06-1.76515E-08-3.84789E-08
 -1       305-1.63521E+04-5.85220E+05 7.82722E+04-1.05521E+06-1.13432E-08-2.82176E-07
 -1       306-2.93096E+07-6.03505E+06-8.31931E+06-7.37777E+05-8.06758E-08-2.20258E-07
 -1       307 2.47289E+07 2.88079E+06 5.34955E+06-1.44889E+07-7.96688E-07-3.64904E-07
 -1       308-7.25777E+06-9.67650E+05-5.05578E+05 5.04384E+06-1.22207E-07-3.49828E-08
 -1       309-3.41065E+06 8.13364E+06 2.14768E+06-2.01174E+07 5.22705E-07 2.72612E-07
 -1       310-1.20417E+07-1.73705E+06-1.83607E+06 5.01143E+06-3.02098E-08-2.20331E-07
 -1       311 3.58706E+07-1.83661E+04 6.87541E+06-8.94237E+06 6.13858E-07-3.03582E-07
 -1       312-3.08186E+07-6.39491E+06-8.12208E+06-4.62927E+06 3.20841E-07-2.78233E-08
 -1       313 4.40084E+07 1.36343E+07 1.02355E+07 2.22558E+07-4.46918E-07 1.38534E-08
 -1       314-1.72513E+07-1.67938E+07-7.25467E+06-1.21945E+07 2.64496E-07-7.44476E-08
 -1       315-1.38163E+06 2.82521E+07 5.50122E+06 1.07628E+07-2.18934E-07 2.10421E-07
 -1       316 1.08022E+06-9.71371E+06-4.84709E+05-2.84453E+06-1.28552E-06-2.34635E-07
 -1       317-1.71644E+07 2.17268E+07 2.10710E+06-8.00669E+06 6.17845E-07-7.35661E-07
 -1       318-1.07466E+06-1.21300E+07-1.85961E+06-4.28182E+06-8.92993E-07 1.51573E-07
 -1       319 6.46290E+06 3.01354E+07 6.63949E+06 1.57346E+07-3.21888E-08 2.20811E-07
 -1       320-2.18424E+07-1.68224E+07-9.40085E+06-1.23346E+07 1.87894E-07-3.18396E-08
 -1       336-9.81477E+02-1.63139E+06-1.32728E+04 8.84677E+03-2.70720E-08-1.01863E-09
 -1       337-5.23492E+03-1.63027E+06-1.69487E+04-2.15620E+04-4.97455E-08-8.77299E-09
 -1       338-3.58915E+01-1.63096E+06-2.67460E+04 1.24367E+04-3.60251E-08 4.79849E-09
 -1       339-2.82047E+04-1.64649E+06-6.00043E+04-2.86022E+04-6.57528E-08 6.84304E-08
 -1       340 1.82819E+04-1.61743E+06-9.46809E+04 1.57569E+04-4.31173E-08 5.44824E-08
 -1       406-1.44945E+02 4.25168E+05 7.64215E+02 6.76406E+00-2.90470E-09-1.18962E-08
 -1       407 1.03497E+02 4.25349E+05 1.64230E+03 3.28495E+01-6.75328E-10-8.18545E-09
 -1       408 6.72905E+02 4.25047E+05 3.26927E+03-3.90912E+01-3.62797E-09 7.49787E-09
 -1       409 3.39269E+03 4.26393E+05 7.37750E+03 4.33714E+02-5.44333E-10 1.50103E-08
 -1       410 1.00464E+04 4.24095E+05 1.50536E+04-4.23574E+02-4.06362E-09-3.02862E-09
 -1       521-3.08507E+07-7.43161E+06-9.71005E+06-3.62622E+05-8.25385E-08-2.60770E-08
 -1       522 2.55471E+07 3.79113E+06 5.44402E+06-1.78809E+07-5.01866E-07-1.44588E-07
 -1       523-7.87413E+06-1.27135E+06-5.02396E+05 5.49067E+06 1.48895E-07-3.31362E-07
 -1       524-6.81311E+06 1.10243E+07 2.32412E+06-2.31346E+07 9.18779E-07-9.41673E-07
 -1       525-1.28967E+07-2.32701E+06-2.02176E+06 5.45609E+06 6.40808E-07-2.86323E-07
 -1       526 3.90974E+07-8.30505E+04 7.22263E+06-1.15361E+07 3.86324E-07-2.02563E-08
 -1       527-3.26394E+07-8.01925E+06-9.35616E+06-4.50792E+06 2.09315E-07 2.26704E-07
 -1       528 4.80424E+07 1.51345E+07 1.06739E+07 2.52824E+07 7.24103E-07 1.63680E-07
 -1       529-1.82015E+07-1.89239E+07-8.30951E+06-1.22703E+07-6.67642E-08-1.79047E-07
 -1       530-3.82725E+06 3.28313E+07 5.81244E+06 1.03819E+07-6.16405E-07 4.49014E-07
 -1       531 1.06774E+06-1.07992E+07-4.62425E+05-2.84559E+06-7.17337E-07 8.82428E-08
 -1       532-1.98271E+07 2.38229E+07 2.30544E+06-1.20389E+07 5.76299E-07-7.28738E-07
 -1       533-1.13641E+06-1.32919E+07-1.98042E+06-4.17438E+06-2.23838E-07-9.46224E-07
 -1       534 4.50664E+06 3.49692E+07 6.91793E+06 1.63086E+07-8.85921E-08 7.51810E-07
 -1       535-2.30310E+07-1.91058E+07-1.07662E+07-1.24331E+07 9.32487E-08 4.50877E-07
 -1       536-8.32558E+05-6.10525E+04-7.32795E+04-6.69586E+04-3.63434E-09 6.39475E-08
 -1       537 6.92454E+04 5.82041E+04 1.12254E+05 1.48634E+05-1.24619E-07 1.19997E-07
 -1       538-4.12081E+05 4.06258E+03 1.47499E+03-8.53912E+04 2.76864E-08 1.29663E-07
 -1       539-2.40386E+05 3.98167E+03 3.17937E+04 1.66138E+05 1.84355E-07 1.16800E-07
 -1       540-5.30837E+05-1.42244E+02-2.66902E+04-8.53649E+04-3.89537E-09 1.17743E-07
 -1       541 2.95268E+05 2.20614E+04 1.37316E+05 1.23418E+05-1.04046E-09 9.89785E-08
 -1       542-9.33201E+05-2.63000E+04-1.10237E+05-4.13188E+04 6.25587E-08 5.35848E-08
 -1       543 6.56544E+05 3.63026E+04 2.09626E+05-1.20216E+04-2.87846E-08 9.32732E-09
 -1       544-8.82357E+05-2.25455E+04-1.00635E+05 4.91167E+04-5.23869E-10-3.04693E-08
 -1       545 1.73288E+05 1.37375E+04 1.09676E+05-1.36559E+05 4.96404E-08-9.51247E-08
 -1       546-4.63019E+05 7.20683E+03-1.69765E+04 8.26139E+04 6.37706E-08-1.07278E-07
 -1       547-2.57038E+05-4.41123E+03 1.72915E+04-1.68928E+05-1.19567E-07-1.11777E-07
 -1       548-4.63701E+05 5.49185E+03-2.73689E+04 8.25613E+04-1.19453E-07-1.23780E-07
 -1       549 1.78072E+05 2.80886E+04 8.85639E+04-1.36735E+05-7.66724E-08-8.86685E-08
 -1       550-8.86466E+05-3.51672E+04-1.56259E+05 4.93442E+04 1.14096E-08-4.65243E-08
 -1       551 4.35322E+04-7.70395E+05-1.53280E+04-1.23664E+06-1.04206E-07-2.06637E-09
 -1       552 9.51701E+04-8.15439E+05 1.01057E+04-1.76403E+06-7.60483E-08 1.93759E-08
 -1       553 7.27626E+04-8.09386E+05 3.24668E+04-1.23022E+06-1.18889E-07 3.22179E-08
 -1       554 1.32418E+05-8.27757E+05 8.16829E+04-1.76578E+06-7.59901E-08 1.86847E-08
 -1       555 1.01240E+05-8.31165E+05 1.49094E+05-1.23028E+06-1.24521E-07-1.46065E-08
 -1       556 2.03805E+05-3.50305E+05 2.91476E+04-3.71392E+05-2.37487E-08-2.08383E-08
 -1       557 3.24687E+05-4.45419E+05 1.76809E+04-4.79279E+05-1.55705E-09-4.30009E-09
 -1       558 1.87858E+05-3.44918E+05 3.11967E+03-3.74183E+05-1.84227E-08-1.06811E-08
 -1       559 3.01825E+05-4.46722E+05 2.73052E+03-4.97902E+05 2.93367E-08 3.95084E-09
 -1       560 1.74124E+05-3.36302E+05-1.39523E+03-3.84117E+05 1.33296E-08 9.11677E-09
 -1       561 2.84317E+05-4.39801E+05 1.21730E+02-5.09914E+05 1.30967E-10 6.40648E-09
 -1       562 1.62992E+05-3.29390E+05-1.44850E+03-3.92231E+05 1.57161E-09-1.45737E-08
 -1       563 2.70858E+05-4.33948E+05-1.36375E+02-5.18758E+05 5.55883E-09-1.70385E-08
 -1       564 1.54711E+05-3.24237E+05-8.06777E+02-3.98133E+05 3.41970E-09 1.40353E-08
 -1       565 2.61387E+05-4.29837E+05-1.24959E+02-5.24843E+05 9.21864E-09 1.54239E-09
 -1       566 1.49399E+05-3.20876E+05-5.09697E+02-4.01862E+05-8.00355E-09-1.61954E-08
 -1       567 2.55956E+05-4.27504E+05-6.48222E+02-5.28198E+05 1.79825E-08 7.36691E-10
 -1       568 1.47138E+05-3.19476E+05-1.58812E+03-4.03505E+05-1.34969E-09 1.75605E-08
 -1       569 2.53206E+05-4.27282E+05-3.86617E+03-5.28138E+05-1.21327E-08 1.82517E-08
 -1       570 1.48957E+05-3.21924E+05-7.93807E+03-4.02942E+05 3.39787E-09 8.60928E-09
 -1       571 2.98672E+05 1.05869E+04 1.47425E+04-1.17580E+05 1.69275E-08 3.68163E-09
 -1       572 3.00762E+05 4.18687E+03 7.22720E+03-1.28952E+05 3.07082E-08 9.25866E-10
 -1       573 2.99476E+05 1.49785E+03 3.21113E+03-1.17350E+05 1.12022E-08 2.59843E-09
 -1       574 2.99643E+05 1.02672E+03 1.61143E+03-1.29245E+05-2.94858E-09-6.76118E-09
 -1       575 2.99545E+05 7.26755E+02 7.60368E+02-1.17318E+05-3.10411E-09 5.20231E-09
 -1       576 2.99496E+05 7.70109E+02 3.89225E+02-1.29284E+05-1.36191E-08 6.94945E-09
 -1       577 2.99585E+05 6.69013E+02 1.92764E+02-1.17314E+05-1.09330E-08-1.73350E-09
 -1       578 2.99541E+05 7.24482E+02 1.08620E+02-1.29290E+05-7.71297E-09 2.27283E-09
 -1       579 2.99683E+05 6.17430E+02 6.79317E+01-1.17313E+05 9.59881E-09 2.37378E-09
 -1       580 2.99683E+05 6.50109E+02 7.09558E+01-1.29284E+05-7.50515E-09 1.26884E-08
 -1       581 2.99848E+05 5.26846E+02 9.54729E+01-1.17321E+05 1.07102E-08-4.83942E-09
 -1       582 2.99920E+05 5.61227E+02 1.92836E+02-1.29211E+05 4.63842E-09-1.11086E-08
 -1       583 3.00067E+05 4.83332E+02 3.57847E+02-1.17389E+05 2.30903E-08-2.58706E-09
 -1       584 3.00334E+05 7.81706E+02 8.16494E+02-1.28640E+05 5.18467E-08-1.48407E-09
 -1       585 3.00228E+05 1.40370E+03 1.63863E+03-1.17892E+05 2.07001E-08-3.20506E-09
 -1       586-2.36739E+03 1.46707E+05-9.12155E+02-2.44250E+05-8.17181E-09-1.29894E-08
 -1       587-1.19444E+03 1.46738E+05 1.69105E+03-2.68664E+05-8.20728E-09-6.56746E-09
 -1       588 2.10606E+02 1.46293E+05 5.04174E+03-2.44037E+05-4.97676E-09-1.44346E-08
 -1       589 4.69177E+03 1.48698E+05 1.22000E+04-2.68596E+05-1.03410E-08-7.39055E-09
 -1       590 1.59217E+04 1.44905E+05 2.52567E+04-2.44386E+05-9.95897E-09 6.85031E-09
 -1       591-1.03556E+05-2.15956E+04-2.66794E+04-4.42047E+04 7.24413E-10-8.52197E-09
 -1       592-1.08089E+05-2.61158E+04-1.44516E+04-4.88603E+04 3.00560E-10-4.29668E-09
 -1       593-1.06236E+05-1.96490E+04-6.01553E+03-4.61495E+04 2.91550E-10-7.96194E-09
 -1       594-1.04399E+05-2.22083E+04-2.99995E+03-4.90099E+04 3.53555E-09 2.00735E-08
 -1       595-1.06440E+05-1.96415E+04-1.37733E+03-4.62380E+04 3.62007E-09 2.25936E-08
 -1       596-1.04147E+05-2.20297E+04-6.99837E+02-4.89813E+04 1.78309E-08 1.17835E-08
 -1       597-1.06466E+05-1.96593E+04-3.80535E+02-4.62414E+04-1.42560E-09-1.70563E-08
 -1       598-1.04122E+05-2.20227E+04-3.04949E+02-4.89732E+04-3.07176E-09 6.37004E-09
 -1       599-1.06465E+05-1.96600E+04-3.88371E+02-4.62410E+04 7.84007E-09-1.60286E-08
 -1       600-1.04147E+05-2.20304E+04-7.20554E+02-4.89786E+04 6.19571E-09-7.40783E-09
 -1       601-1.06435E+05-1.96432E+04-1.42114E+03-4.62368E+04 8.08382E-09 3.99950E-10
 -1       602-1.04407E+05-2.22136E+04-3.09694E+03-4.90038E+04-5.70299E-09-1.23771E-09
 -1       603-1.06220E+05-1.96542E+04-6.21069E+03-4.61461E+04 1.49998E-09-8.36417E-09
 -1       604-1.08232E+05-2.62304E+04-1.49195E+04-4.88264E+04 1.66881E-09 1.97401E-08
 -1       605-1.03436E+05-2.16795E+04-2.75431E+04-4.41550E+04 3.55149E-09 3.33748E-08
 -1       606 2.56541E+04-1.53331E+04-2.74687E+04 2.15749E+04 1.24573E-08-6.39608E-09
 -1       607 2.09627E+04-5.01812E+03-1.36798E+04 2.42618E+04 1.28784E-09-1.20272E-08
 -1       608 2.36413E+04-9.14702E+02-6.12333E+03 2.14364E+04-6.67478E-09 7.13953E-09
 -1       609 2.31330E+04-3.26510E+02-3.09364E+03 2.44565E+04 4.55611E-09 2.19038E-08
 -1       610 2.34191E+04-5.94645E+01-1.47560E+03 2.14192E+04 2.00798E-08 6.58133E-09
 -1       611 2.33434E+04-6.49742E+01-7.44266E+02 2.44773E+04 3.29378E-08-4.68140E-09
 -1       612 2.33740E+04-4.80651E+01-3.53747E+02 2.14174E+04 2.12567E-08 7.49878E-10
 -1       613 2.33612E+04-6.36031E+01-1.59099E+02 2.44798E+04 2.79415E-08-2.46832E-08
 -1       614 2.33546E+04-5.75040E+01-3.81727E+01 2.14167E+04 1.49730E-08 1.23414E-08
 -1       615 2.33597E+04-6.43396E+01 6.39998E+01 2.44802E+04-4.86853E-09 8.25366E-11
 -1       616 2.33392E+04-5.61390E+01 1.94506E+02 2.14170E+04 1.29044E-08 1.45269E-09
 -1       617 2.33859E+04-2.43627E+01 4.44455E+02 2.44797E+04 1.61544E-08 1.10094E-08
 -1       618 2.33025E+04 7.08550E+01 8.96312E+02 2.14174E+04 9.59403E-09 6.63294E-09
 -1       619 2.37040E+04 6.67838E+02 2.01290E+03 2.44794E+04 3.69710E-10 4.72983E-09
 -1       620 2.30057E+04 2.19593E+03 4.04603E+03 2.14206E+04 1.20508E-09 9.80845E-09
 -1       621 9.23638E+02 3.41486E+05 6.40925E+03 5.32847E+04 1.48111E-09 2.89765E-09
 -1       622 1.17151E+03 3.42967E+05 5.10118E+03 7.73120E+04 1.67893E-09-1.70548E-08
 -1       623 2.58119E+02 3.41895E+05 5.39250E+03 5.30565E+04 2.07683E-09 5.41149E-10
 -1       624 2.69040E+03 3.44186E+05 9.84139E+03 7.75267E+04 1.82001E-09-3.35513E-09
 -1       625 2.58118E+03 3.39990E+05 1.69117E+04 5.30604E+04 1.92767E-09 1.49230E-08
 -1       626 2.64468E+05 5.91557E+04 3.74862E+03 1.25561E+05 6.55677E-09 7.56518E-09
 -1       627 2.62223E+05 6.07177E+04 1.80651E+03 1.29315E+05 2.85127E-10-1.40608E-08
 -1       628 2.64574E+05 5.74277E+04 7.64479E+02 1.26182E+05-1.00308E-08-2.45666E-08
 -1       629 2.61744E+05 6.02332E+04 3.74993E+02 1.29506E+05-2.81398E-09-1.94261E-09
 -1       630 2.64585E+05 5.73436E+04 1.75716E+02 1.26208E+05-1.84127E-09 4.19107E-09
 -1       631 2.61695E+05 6.02152E+04 9.80187E+01 1.29510E+05 7.91897E-09 1.68393E-08
 -1       632 2.64583E+05 5.73455E+04 7.09221E+01 1.26205E+05 7.12521E-09 6.30871E-09
 -1       633 2.61690E+05 6.02157E+04 8.87133E+01 1.29508E+05-4.25388E-09-1.87970E-09
 -1       634 2.64580E+05 5.73411E+04 1.52060E+02 1.26206E+05-6.98392E-09-1.88720E-09
 -1       635 2.61706E+05 6.02131E+04 3.13129E+02 1.29515E+05-6.17962E-09 5.12500E-09
 -1       636 2.64572E+05 5.73344E+04 6.35110E+02 1.26206E+05 2.64345E-09 4.96584E-10
 -1       637 2.61844E+05 6.03123E+04 1.39801E+03 1.29515E+05 2.72780E-09 3.83670E-09
 -1       638 2.64522E+05 5.76433E+04 2.87306E+03 1.26066E+05-3.86535E-10 8.08996E-10
 -1       639 2.63348E+05 6.24155E+04 6.79825E+03 1.29074E+05 2.83444E-09 4.93515E-09
 -1       640 2.64311E+05 6.39134E+04 1.41079E+04 1.23425E+05 5.52882E-09-4.39832E-09
 -1       656 6.77647E+04-1.73692E+06-1.63578E+05-3.71289E+03 5.16593E-10-2.17144E-07
 -1       657-8.96394E+04-1.81085E+06-1.35505E+05 3.64225E+03 8.87667E-10-2.82118E-06
 -1       658 2.15879E+04-1.75791E+06-8.34341E+04-5.77843E+03 5.08934E-07-2.45844E-04
 -1       659-9.68817E+04-1.81429E+06-1.45026E+05 5.42184E+03 1.06253E-06-4.84551E-04
 -1       660 7.49907E+04-1.73348E+06-1.79947E+05-5.49245E+03 4.56232E-07-2.46625E-04
 -1       661 1.51318E+05 1.56507E+04 1.62381E+04 5.90824E+04-1.61208E-09 1.00108E-08
 -1       662 1.60551E+05 2.76248E+04 1.09435E+04 5.53765E+04 3.81328E-09-3.77941E-09
 -1       663 1.54506E+05 2.08619E+04 3.82726E+03 5.81586E+04-2.33933E-09 5.30008E-09
 -1       664 1.56855E+05 2.15303E+04 2.28958E+03 5.65046E+04 6.77574E-10 3.58781E-09
 -1       665 1.54990E+05 2.15740E+04 9.03229E+02 5.80180E+04 1.73003E-09 3.15285E-09
 -1       666 1.56284E+05 2.07157E+04 5.28824E+02 5.66877E+04 1.08484E-08 1.02027E-08
 -1       667 1.55074E+05 2.16553E+04 2.81224E+02 5.79830E+04-3.94323E-10 2.41819E-10
 -1       668 1.56191E+05 2.06568E+04 2.87292E+02 5.67382E+04-1.11578E-08-2.40001E-08
 -1       669 1.55082E+05 2.16313E+04 3.89591E+02 5.79677E+04-7.61929E-09-5.11534E-10
 -1       670 1.56287E+05 2.08676E+04 8.48902E+02 5.67400E+04-1.88613E-08 1.28374E-08
 -1       671 1.54978E+05 2.14489E+04 1.50750E+03 5.79792E+04 5.04642E-10-8.33512E-09
 -1       672 1.57166E+05 2.23336E+04 3.85706E+03 5.65263E+04 6.54143E-09 1.49614E-08
 -1       673 1.54207E+05 2.02025E+04 6.46390E+03 5.81672E+04 7.53903E-09 1.02073E-08
 -1       674 1.63316E+05 3.27200E+04 1.84855E+04 5.47206E+04-3.19778E-09 2.30837E-08
 -1       675 1.48867E+05 1.13535E+04 2.74389E+04 5.96761E+04-1.99134E-09 1.36333E-08
 -1       676 2.40828E+01-2.94477E+05-1.10356E+03-2.07783E+02 5.23238E-09-9.91850E-09
 -1       677-2.90334E+02-2.94746E+05-2.01969E+03 4.15230E+02 1.80926E-08 5.00222E-11
 -1       678 1.95972E+02-2.94287E+05-3.57032E+03-2.07315E+02 2.06796E-09 9.74048E-09
 -1       679-3.56881E+03-2.96901E+05-8.48159E+03 4.13434E+02 9.39508E-09 1.11666E-08
 -1       680 2.13189E+03-2.92323E+05-1.36694E+04-2.03706E+02 1.57979E-09 6.96946E-09
 -1       771-3.04209E+06-7.45762E+05-1.61416E+05-1.46016E+06-3.19269E-08-2.71248E-08
 -1       772-2.96292E+06-8.34804E+05-8.30664E+04-1.56327E+06-2.56114E-08 8.75298E-09
 -1       773-3.07329E+06-7.21405E+05-4.26332E+04-1.47444E+06-1.26893E-08 1.06083E-08
 -1       774-2.95426E+06-8.16896E+05-1.89547E+04-1.58918E+06 2.89147E-08-4.03816E-10
 -1       775-3.08982E+06-7.09788E+05-1.43594E+04-1.48159E+06-4.42378E-09 9.89530E-09
 -1       776-2.96685E+06-8.13802E+05-5.34082E+03-1.60879E+06-1.84955E-08 1.45956E-08
 -1       777-3.10418E+06-6.99423E+05-6.40927E+03-1.48790E+06-4.83124E-09 5.36238E-09
 -1       778-2.97991E+06-8.10903E+05-1.82075E+03-1.62562E+06 1.16415E-10 6.40284E-09
 -1       779-3.11652E+06-6.90375E+05-3.26274E+03-1.49328E+06-1.35042E-08-9.87711E-09
 -1       780-2.99139E+06-8.08151E+05-6.43844E+02-1.63932E+06-2.16096E-09-5.82077E-11
 -1       781-3.12632E+06-6.83087E+05-1.48620E+03-1.49749E+06-2.61789E-08 7.22139E-10
 -1       782-3.00026E+06-8.05855E+05-7.87426E+01-1.64941E+06-3.45244E-08-3.68209E-09
 -1       783-3.13317E+06-6.78038E+05-3.65968E+02-1.50041E+06-6.43195E-09-1.60653E-08
 -1       784-3.00580E+06-8.04249E+05 3.26011E+02-1.65560E+06-2.15405E-08-1.45519E-10
 -1       785-3.13673E+06-6.75393E+05 3.61906E+02-1.50193E+06-3.90246E-08 8.68567E-09
 -1       786 2.31850E+05-1.25533E+04 2.90480E+04-6.41461E+02-9.39190E-05-3.05330E-07
 -1       787 2.44436E+05 1.45370E+04 2.05501E+04-6.95799E+02-1.87132E-04-5.29099E-07
 -1       788 2.36706E+05-1.96642E+03 7.51798E+03-6.39962E+02-1.32154E-04-3.18763E-07
 -1       789 2.38780E+05 2.27922E+03 4.72283E+03-6.94599E+02-7.66279E-05-2.04842E-07
 -1       790 2.37508E+05-3.05643E+02 1.92019E+03-6.42692E+02-2.50530E-05-4.96265E-08
 -1       791 2.37844E+05 3.58671E+02 1.12421E+03-6.93844E+02 2.65140E-05 7.20665E-08
 -1       792 2.37642E+05-4.73234E+01 5.06911E+02-6.40723E+02 6.80730E-05 1.60038E-07
 -1       793 2.37691E+05 6.79314E+01 3.19472E+02-7.04824E+02 1.09385E-04 2.98419E-07
 -1       794 2.37661E+05-1.50999E+01 2.17309E+02-6.31713E+02 5.48173E-05 1.17089E-07
 -1       795 2.37695E+05 8.13772E+01 2.86301E+02-7.33664E+02 1.79030E-07 3.60317E-08
 -1       796 2.37638E+05-6.07608E+01 4.11931E+02-6.11883E+02 6.78466E-09 2.58744E-08
 -1       797 2.37878E+05 4.57853E+02 9.57307E+02-7.91768E+02 3.17886E-09 1.12157E-08
 -1       798 2.37479E+05-3.91304E+02 1.50636E+03-5.73607E+02 8.02244E-09-5.16445E-09
 -1       799 2.39008E+05 2.90253E+03 4.10313E+03-9.00417E+02 3.26137E-09 1.27433E-08
 -1       800 2.36508E+05-2.50350E+03 5.79362E+03-5.03227E+02 1.38838E-09 2.33886E-08
 -1       801-3.40897E+05-1.14576E+07-1.76560E+06 1.98823E+06 7.10716E-08-6.72480E-08
 -1       802 1.25503E+06 1.56129E+07 4.09563E+06-2.66241E+06-1.79425E-08-4.07163E-08
 -1       803-8.30480E+05-2.03194E+07-3.19867E+06 1.18313E+06 1.86290E-07 6.59475E-08
 -1       804 6.05515E+05 1.07704E+07 3.15056E+06 6.36172E+05-3.36368E-08-1.20959E-07
 -1       805 1.83545E+05-6.58059E+06-3.91298E+05-1.31859E+06-1.20155E-07-1.11604E-07
 -1       806-2.98919E+05-6.94824E+04-2.62886E+04-1.31339E+05-1.16938E-09 5.68070E-09
 -1       807-2.99599E+05-6.65862E+04-1.29147E+04-1.39347E+05 1.33382E-08-9.32357E-09
 -1       808-2.99724E+05-5.99282E+04-5.47810E+03-1.35737E+05-1.01177E-08 1.04685E-08
 -1       809-2.96813E+05-6.30313E+04-2.67775E+03-1.39759E+05-1.23135E-08 1.03107E-08
 -1       810-2.99845E+05-5.95888E+04-1.22630E+03-1.35929E+05-1.03466E-09-1.69230E-08
 -1       811-2.96598E+05-6.28935E+04-6.08405E+02-1.39731E+05-6.42740E-09-4.20869E-09
 -1       812-2.99863E+05-5.96146E+04-3.04602E+02-1.35927E+05-8.69477E-09-3.08228E-09
 -1       813-2.96565E+05-6.28994E+04-1.94025E+02-1.39711E+05-4.88853E-09-2.55786E-08
 -1       814-2.99853E+05-5.96276E+04-1.85446E+02-1.35919E+05 3.05545E-09-2.45141E-08
 -1       815-2.96560E+05-6.29056E+04-2.93109E+02-1.39699E+05 4.40696E-09-3.78259E-09
 -1       816-2.99823E+05-5.96313E+04-5.52175E+02-1.35910E+05 6.03723E-09 2.79942E-09
 -1       817-2.96644E+05-6.29617E+04-1.18337E+03-1.39677E+05-2.19479E-08 1.98224E-09
 -1       818-2.99738E+05-5.98069E+04-2.41361E+03-1.35826E+05-1.12777E-09-1.64418E-08
 -1       819-2.97973E+05-6.44013E+04-5.67756E+03-1.39325E+05 1.31640E-08-3.42152E-09
 -1       820-2.99241E+05-6.41284E+04-1.15573E+04-1.34015E+05-1.71894E-09-1.01957E-08
 -1       821-3.92332E+05 2.14958E+04-5.11634E+04 3.73510E+03 2.31882E-08 3.09956E-09
 -1       822-4.08023E+05-2.49618E+04-3.50661E+04-8.63569E+03 1.17658E-08 3.52475E-09
 -1       823-3.97981E+05 3.44289E+03-1.31260E+04 6.82979E+03-2.29873E-08 1.94268E-09
 -1       824-4.00553E+05-3.94724E+03-8.07712E+03-1.12873E+04 5.54567E-09-1.14870E-08
 -1       825-3.99858E+05 5.46365E+02-3.51908E+03 6.38743E+03 4.09896E-08 4.82532E-09
 -1       826-3.95618E+05-4.90741E+02-1.21816E+03-7.14430E+03 4.82190E-08 1.13448E-08
 -1       827-4.02827E+05-8.29411E+01-1.75257E+03 2.68593E+03 2.17801E-08 2.41099E-09
 -1       828-3.92940E+05 4.20044E+01 3.91211E+02 1.43614E+03-4.14357E-09 1.41954E-08
 -1       829-4.02472E+05-3.85583E+01-1.68504E+03-2.19289E+03 6.97042E-09-3.72532E-09
 -1       830-3.96346E+05-5.92788E+02-1.40263E+03 9.56397E+03 3.01452E-09 2.23683E-08
 -1       831-3.99506E+05 6.20840E+02-3.48451E+03-5.44158E+03-1.57975E-08 6.42945E-09
 -1       832-4.00538E+05-4.08041E+03-8.19731E+03 1.25986E+04-1.13951E-08-3.16504E-09
 -1       833-3.98350E+05 3.50231E+03-1.33791E+04-5.22789E+03-2.44273E-09-5.98357E-09
 -1       834-4.07352E+05-2.53253E+04-3.54000E+04 8.75712E+03-2.89893E-09-5.74028E-09
 -1       835-3.92614E+05 2.17828E+04-5.19447E+04-1.59967E+03 3.71392E-09 6.70479E-09
 -1       836-1.66160E+03 4.07175E+05 2.54094E+04-2.90836E+04-1.01190E-08-5.73073E-09
 -1       837 5.26570E+03 4.15196E+05 2.11629E+04-5.93983E+04-1.12084E-08-2.70486E-08
 -1       838-6.63103E+02 4.09449E+05 2.10779E+04-2.89804E+04-9.13406E-09 1.28898E-09
 -1       839 1.29268E+04 4.20878E+05 3.93961E+04-5.94439E+04-9.97170E-09 2.50253E-08
 -1       840-4.11003E+03 4.01398E+05 6.26066E+04-2.90481E+04-9.24047E-09 1.19078E-08
 -1       856-4.62991E+04 7.79786E+03-2.05482E+04-3.68623E+02 6.03745E-09 3.76531E-10
 -1       857-5.47551E+04-9.16976E+03-1.41449E+04 5.68289E+03 6.88871E-09-6.05814E-09
 -1       858-4.96514E+04 1.09404E+03-5.33161E+03-3.93382E+02 7.30302E-09-2.25964E-09
 -1       859-5.09083E+04-1.29444E+03-3.21700E+03 5.71892E+03 4.52030E-09-1.07414E-08
 -1       860-5.01522E+04 1.53700E+02-1.34766E+03-4.04221E+02 2.87150E-09-8.05471E-11
 -1       861-5.03324E+04-1.90629E+02-7.40112E+02 5.73365E+03 6.55605E-09 2.81594E-09
 -1       862-5.02306E+04 2.12305E+01-3.05140E+02-4.08067E+02-3.95961E-09 1.45556E-08
 -1       863-5.02359E+04-2.82233E+01-1.05438E+02 5.73606E+03-1.10495E-08 6.30044E-09
 -1       864-5.02493E+04-4.96566E+00 5.87415E+01-4.06635E+02-4.24944E-09-9.46271E-09
 -1       865-5.01783E+04 5.67252E+01 2.76654E+02 5.72740E+03-6.30172E-09-5.69145E-12
 -1       866-5.02861E+04-6.36295E+01 5.50981E+02-3.99408E+02 6.32667E-10-2.61352E-09
 -1       867-4.99211E+04 5.22867E+02 1.35186E+03 5.70784E+03 9.49569E-11-1.99138E-08
 -1       868-5.05016E+04-4.62446E+02 2.24546E+03-3.87070E+02-5.45396E-09 5.83907E-09
 -1       869-4.82764E+04 3.84706E+03 5.97716E+03 5.67630E+03 4.21926E-09-2.25348E-08
 -1       870-5.19230E+04-3.29719E+03 8.67457E+03-3.67695E+02-7.30370E-09 1.21236E-09
 -1       871-5.46346E+03-2.68172E+04-1.99687E+04 1.32241E+05-7.96354E-09-2.64117E-09
 -1       872-1.80025E+03-3.15104E+04-8.43895E+03 1.71484E+05-1.48902E-08-2.67955E-08
 -1       873 5.84740E+02-2.91977E+04 4.14098E+02 1.31950E+05-6.58019E-09-4.08704E-10
 -1       874 3.50501E+03-2.68787E+04 9.57573E+03 1.71502E+05-1.63654E-08 1.39153E-08
 -1       875 6.94326E+03-3.14923E+04 2.17539E+04 1.32193E+05-7.14499E-09 3.98177E-09
 -1       876 2.94442E+05 4.95727E+04 1.52335E+04 1.18087E+05 3.59341E-09 1.51067E-09
 -1       877 2.95425E+05 5.28047E+04 8.13530E+03 1.22493E+05 1.58450E-08 2.30693E-08
 -1       878 2.95869E+05 4.78828E+04 3.40822E+03 1.19332E+05-4.59204E-09 1.11288E-08
 -1       879 2.93354E+05 5.07389E+04 1.69814E+03 1.22597E+05 1.74277E-08-1.04838E-08
 -1       880 2.95971E+05 4.78654E+04 7.90822E+02 1.19383E+05 2.87537E-09-1.85001E-08
 -1       881 2.93216E+05 5.06506E+04 4.22084E+02 1.22573E+05-1.85968E-08 6.57269E-09
 -1       882 2.95980E+05 4.78789E+04 2.69558E+02 1.19384E+05-6.70593E-09-1.12799E-08
 -1       883 2.93206E+05 5.06459E+04 2.89087E+02 1.22565E+05 6.62840E-09 2.03543E-09
 -1       884 2.95973E+05 4.78762E+04 4.59214E+02 1.19385E+05 1.24282E-09-1.49400E-08
 -1       885 2.93243E+05 5.06523E+04 9.22853E+02 1.22576E+05-8.29010E-09-2.35352E-08
 -1       886 2.95937E+05 4.78494E+04 1.85976E+03 1.19381E+05-1.36561E-08-9.78071E-09
 -1       887 2.93570E+05 5.08665E+04 4.06227E+03 1.22623E+05 6.20128E-09 1.19308E-08
 -1       888 2.95680E+05 4.78948E+04 8.18553E+03 1.19251E+05 1.32775E-09-7.25231E-09
 -1       889 2.98443E+05 5.59340E+04 1.95537E+04 1.22473E+05-4.23869E-09 5.84623E-09
 -1       890 2.92335E+05 5.18680E+04 3.66235E+04 1.16142E+05-5.66024E-09-1.16415E-10
 -1       891-5.49338E+01-1.62707E+05-1.99763E+03 2.66058E+04-1.02341E-09-1.72236E-09
 -1       892-1.23048E+02-1.63253E+05-2.14609E+03 4.04614E+04-1.21645E-10 3.94903E-09
 -1       893 7.84537E+01-1.62771E+05-3.03916E+03 2.66135E+04-7.13271E-10 5.77484E-09
 -1       894-1.45913E+03-1.64402E+05-6.29041E+03 4.03103E+04 1.13023E-08 8.26140E-09
 -1       895-1.16504E+03-1.61462E+05-1.10773E+04 2.67605E+04 2.70711E-09 2.55568E-09
 -1       956-3.78898E+05-5.83866E+03-1.42552E+04 3.50296E+04 1.15679E-08-9.83709E-09
 -1       957-3.81686E+05-2.10928E+03-7.31632E+03 4.20394E+04 8.89486E-10 1.26838E-08
 -1       958-3.80188E+05-3.14731E+02-3.29765E+03 3.48376E+04-4.36467E-09-2.02135E-09
 -1       959-3.80389E+05-2.11792E+02-1.68324E+03 4.22688E+04 8.13088E-09 7.25322E-10
 -1       960-3.80321E+05-1.01997E+02-8.20674E+02 3.48175E+04 9.95169E-09 5.06270E-09
 -1       961-3.80312E+05-1.30047E+02-4.33781E+02 4.22929E+04 1.62818E-08-5.91717E-09
 -1       962-3.80356E+05-9.97916E+01-2.46382E+02 3.48140E+04 1.05329E-08 1.06397E-08
 -1       963-3.80318E+05-1.22748E+02-1.93946E+02 4.22976E+04 2.42054E-08-1.02470E-08
 -1       964-3.80365E+05-9.44312E+01-2.31378E+02 3.48128E+04 1.31024E-10-1.38175E-09
 -1       965-3.80332E+05-1.18394E+02-3.96452E+02 4.22974E+04-2.18268E-08-1.18002E-08
 -1       966-3.80350E+05-8.61653E+01-7.42964E+02 3.48143E+04 4.32669E-09 3.49064E-09
 -1       967-3.80421E+05-1.81985E+02-1.52279E+03 4.22822E+04 9.94396E-09 1.22604E-08
 -1       968-3.80245E+05-2.69025E+02-2.98085E+03 3.48276E+04 1.00654E-08 2.65663E-09
 -1       969-3.81611E+05-1.89001E+03-6.61705E+03 4.21227E+04 1.27548E-08 1.00116E-08
 -1       970-3.79090E+05-5.25942E+03-1.28909E+04 3.49606E+04 3.67527E-09 2.97196E-08
 -1       971-3.45557E+05-1.70351E+03-9.07917E+03 1.51318E+04 8.67021E-09 8.97212E-09
 -1       972-3.47734E+05-1.26694E+03-4.94457E+03 2.08384E+04 5.07453E-09 2.17087E-08
 -1       973-3.46568E+05-7.96257E+01-2.21475E+03 1.50166E+04 2.04818E-09 1.93268E-10
 -1       974-3.46691E+05-1.06358E+02-1.14836E+03 2.09708E+04-2.75486E-09 5.09988E-09
 -1       975-3.46648E+05-3.62295E+01-5.74958E+02 1.50047E+04 7.62611E-10-4.60875E-09
 -1       976-3.46631E+05-5.81144E+01-3.33601E+02 2.09860E+04 4.47176E-09-1.20710E-08
 -1       977-3.46663E+05-3.57177E+01-2.45380E+02 1.50015E+04-7.84667E-09-4.35057E-09
 -1       978-3.46636E+05-5.22248E+01-2.91665E+02 2.09907E+04-2.67680E-08 1.99104E-08
 -1       979-3.46663E+05-2.73852E+01-4.72439E+02 1.50001E+04-1.56661E-08 1.40395E-08
 -1       980-3.46671E+05-4.92730E+01-9.14622E+02 2.09916E+04-2.98657E-09 1.97133E-08
 -1       981-3.46633E+05-4.51032E+00-1.77263E+03 1.50006E+04-4.21210E-09 1.74728E-09
 -1       982-3.46914E+05-1.80156E+02-3.66465E+03 2.09852E+04-1.25464E-08 3.64283E-09
 -1       983-3.46410E+05-1.17836E+02-7.12073E+03 1.50063E+04-1.24155E-08-4.23597E-10
 -1       984-3.50340E+05-3.89873E+03-1.59468E+04 2.09017E+04 3.26190E-09-7.79153E-09
 -1       985-3.43187E+05-5.32810E+03-2.92832E+04 1.50699E+04-4.32647E-09 1.19071E-08
 -3
    1PSTEP                        39          20           1          
  100CL  120 6.60625E-01         409                     0   20           1
 -4  DISP        4    1
 -5  D1          1    2    1    0
 -5  D2          1    2    2    0
 -5  D3          1    2    3    0
 -5  ALL         1    2    0    0    1ALL
 -1         1 2.61506E-03 0.00000E+00 0.00000E+00
 -1         2 1.42113E-03-1.15897E-27 0.00000E+00
 -1         3 3.50721E-04-1.30887E-28 0.00000E+00
 -1         5 1.67662E-04-7.80450E-27-3.30872E-24
 -1         8 2.60247E-03-4.37305E-07 0.00000E+00
 -1         9 2.59426E-03-1.45815E-04 0.00000E+00
 -1        10 3.17593E-04-3.28415E-06 0.00000E+00
 -1        12 1.70476E-04 8.91357E-07-1.65436E-24
 -1        15 2.58781E-03-4.66977E-07-2.06795E-25
 -1        16 2.64454E-03-1.47400E-04 0.00000E+00
 -1        17 2.14484E-04-7.57181E-06 0.00000E+00
 -1        18 1.77310E-04 4.72133E-05 0.00000E+00
 -1        19 1.78924E-04 1.77257E-06 0.00000E+00
 -1        20 1.79046E-04-2.08585E-05 0.00000E+00
 -1        21 1.78107E-04-4.79034E-05 3.30872E-24
 -1        24 3.05000E-05-1.19133E-05 0.00000E+00
 -1        25 1.91972E-04 4.74938E-05 0.00000E+00
 -1        26 1.93232E-04 2.46890E-06 0.00000E+00
 -1        27 1.90801E-04-2.44992E-05 0.00000E+00
 -1        28 1.90507E-04-4.85304E-05 0.00000E+00
 -1        32 0.00000E+00 0.00000E+00 0.00000E+00
 -1        33 2.06198E-04 3.29392E-06 0.00000E+00
 -1        34 2.04050E-04-2.45742E-05 0.00000E+00
 -1        35 2.02101E-04-4.88796E-05 0.00000E+00
 -1        51 2.61422E-03-8.90265E-08-6.61744E-24
 -1        52 2.61269E-03-1.60487E-07 3.30872E-24
 -1        53 2.61060E-03-2.28814E-07 0.00000E+00
 -1        54 2.60810E-03-2.96228E-07 0.00000E+00
 -1        55 2.60534E-03-3.64451E-07 1.65436E-24
 -1        56 2.60939E-03 3.68998E-06 0.00000E+00
 -1        57 2.60003E-03 1.65660E-05 5.29396E-23
 -1        58 2.58827E-03 3.55519E-05 0.00000E+00
 -1        59 2.57552E-03 5.69598E-05 0.00000E+00
 -1        60 2.56343E-03 7.67042E-05 1.05879E-22
 -1        61 2.55355E-03 9.08320E-05 5.29396E-23
 -1        62 2.54699E-03 9.63797E-05-1.05879E-22
 -1        63 2.54450E-03 9.11348E-05-5.29396E-23
 -1        64 2.54605E-03 7.48117E-05 0.00000E+00
 -1        65 2.55126E-03 4.81250E-05 0.00000E+00
 -1        66 2.55914E-03 1.36727E-05 0.00000E+00
 -1        67 2.56853E-03-2.52299E-05 5.29396E-23
 -1        68 2.57803E-03-6.44497E-05 0.00000E+00
 -1        69 2.58626E-03-9.98166E-05 0.00000E+00
 -1        70 2.59197E-03-1.27879E-04-5.29396E-23
 -1        86 1.49477E-03-4.82737E-06 0.00000E+00
 -1        87 1.70894E-03-2.93486E-05-1.32349E-23
 -1        88 1.99681E-03-7.11639E-05 0.00000E+00
 -1        89 2.28801E-03-1.13959E-04-1.32349E-23
 -1        90 2.51031E-03-1.40155E-04-5.29396E-23
 -1       121 3.49791E-04-5.28312E-07 1.32349E-23
 -1       122 3.47005E-04-1.05994E-06 6.61744E-24
 -1       123 3.42372E-04-1.59815E-06-1.32349E-23
 -1       124 3.35910E-04-2.14620E-06 6.61744E-24
 -1       125 3.27640E-04-2.70698E-06 0.00000E+00
 -1       191 1.67740E-04 1.48702E-07 0.00000E+00
 -1       192 1.67974E-04 2.97379E-07 0.00000E+00
 -1       193 1.68365E-04 4.46010E-07-3.30872E-24
 -1       194 1.68912E-04 5.94567E-07 0.00000E+00
 -1       195 1.69616E-04 7.43025E-07 0.00000E+00
 -1       251 2.60206E-03 3.26265E-06 6.61744E-24
 -1       252 2.60164E-03 9.34563E-06-6.61744E-24
 -1       253 2.60121E-03 1.61416E-05-1.32349E-23
 -1       254 2.60078E-03 2.19681E-05 0.00000E+00
 -1       255 2.60036E-03 2.53375E-05 1.32349E-23
 -1       256 2.59995E-03 2.48035E-05 0.00000E+00
 -1       257 2.59953E-03 1.97012E-05 0.00000E+00
 -1       258 2.59907E-03 9.44238E-06 0.00000E+00
 -1       259 2.59855E-03-5.53028E-06 0.00000E+00
 -1       260 2.59796E-03-2.46945E-05 6.61744E-24
 -1       261 2.59732E-03-4.66891E-05 1.32349E-23
 -1       262 2.59665E-03-7.01065E-05 0.00000E+00
 -1       263 2.59598E-03-9.32536E-05-1.32349E-23
 -1       264 2.59535E-03-1.14442E-04 0.00000E+00
 -1       265 2.59478E-03-1.32376E-04 1.32349E-23
 -1       266 2.60003E-03-4.48483E-07 3.30872E-24
 -1       267 2.59758E-03-4.52669E-07 0.00000E+00
 -1       268 2.59514E-03-4.57297E-07 0.00000E+00
 -1       269 2.59269E-03-4.60614E-07 0.00000E+00
 -1       270 2.59025E-03-4.63900E-07 0.00000E+00
 -1       271 2.60130E-03 7.16643E-07-1.32349E-23
 -1       272 2.60087E-03-1.63817E-07 6.61744E-24
 -1       273 2.60117E-03-2.97773E-06 0.00000E+00
 -1       274 2.60214E-03-7.61605E-06 0.00000E+00
 -1       275 2.60373E-03-1.39511E-05 0.00000E+00
 -1       276 2.60590E-03-2.18420E-05 1.32349E-23
 -1       277 2.60857E-03-3.11337E-05-2.64698E-23
 -1       278 2.61170E-03-4.16590E-05 1.32349E-23
 -1       279 2.61521E-03-5.32400E-05 0.00000E+00
 -1       280 2.61904E-03-6.56897E-05 0.00000E+00
 -1       281 2.62311E-03-7.88129E-05-2.64698E-23
 -1       282 2.62735E-03-9.24093E-05 1.32349E-23
 -1       283 2.63169E-03-1.06274E-04 2.64698E-23
 -1       284 2.63605E-03-1.20199E-04-1.32349E-23
 -1       285 2.64036E-03-1.33977E-04 0.00000E+00
 -1       301 2.60339E-03-1.46108E-04 6.61744E-24
 -1       302 2.61104E-03-1.46361E-04 3.30872E-24
 -1       303 2.61810E-03-1.46606E-04 0.00000E+00
 -1       304 2.62545E-03-1.46853E-04-6.61744E-24
 -1       305 2.63398E-03-1.47110E-04 0.00000E+00
 -1       306 2.63113E-03-2.95142E-04 1.05879E-22
 -1       307 2.69526E-03-7.00335E-04 0.00000E+00
 -1       308 2.74393E-03-1.29526E-03 0.00000E+00
 -1       309 2.77047E-03-1.98629E-03 0.00000E+00
 -1       310 2.80350E-03-2.64994E-03 1.05879E-22
 -1       311 2.86322E-03-3.16516E-03 0.00000E+00
 -1       312 2.92173E-03-3.45216E-03-1.05879E-22
 -1       313 2.92074E-03-3.47184E-03 0.00000E+00
 -1       314 2.78875E-03-3.23463E-03-1.05879E-22
 -1       315 2.48504E-03-2.80194E-03 0.00000E+00
 -1       316 2.02626E-03-2.24884E-03 1.05879E-22
 -1       317 1.47533E-03-1.64434E-03-5.29396E-23
 -1       318 9.43077E-04-1.04993E-03 0.00000E+00
 -1       319 5.34786E-04-5.30792E-04 0.00000E+00
 -1       320 2.93938E-04-1.59629E-04 0.00000E+00
 -1       336 3.05573E-04-3.92405E-06 0.00000E+00
 -1       337 2.91394E-04-4.59161E-06 0.00000E+00
 -1       338 2.75118E-04-5.28940E-06 0.00000E+00
 -1       339 2.56818E-04-6.01866E-06 0.00000E+00
 -1       340 2.36576E-04-6.78393E-06-1.32349E-23
 -1       406 1.71493E-04 1.03953E-06 0.00000E+00
 -1       407 1.72667E-04 1.18748E-06-1.65436E-24
 -1       408 1.73997E-04 1.33515E-06 0.00000E+00
 -1       409 1.75483E-04 1.48231E-06 0.00000E+00
 -1       410 1.77126E-04 1.62861E-06-1.65436E-24
 -1       521 2.68212E-03-3.06138E-04-1.05879E-22
 -1       522 2.74465E-03-7.31445E-04 0.00000E+00
 -1       523 2.78721E-03-1.35383E-03-1.05879E-22
 -1       524 2.80494E-03-2.07302E-03-5.29396E-23
 -1       525 2.83038E-03-2.76278E-03 0.00000E+00
 -1       526 2.88664E-03-3.29955E-03 5.29396E-23
 -1       527 2.94471E-03-3.59695E-03 2.11758E-22
 -1       528 2.94152E-03-3.61494E-03-5.29396E-23
 -1       529 2.79810E-03-3.36389E-03 2.11758E-22
 -1       530 2.47145E-03-2.91280E-03-5.29396E-23
 -1       531 1.97899E-03-2.34044E-03 1.05879E-22
 -1       532 1.38986E-03-1.71854E-03 0.00000E+00
 -1       533 8.20100E-04-1.10624E-03 1.05879E-22
 -1       534 3.79982E-04-5.66633E-04 0.00000E+00
 -1       535 1.18933E-04-1.76638E-04 0.00000E+00
 -1       536 2.13604E-04 3.05103E-05 6.61744E-24
 -1       537 2.11200E-04 9.86101E-05 0.00000E+00
 -1       538 2.07366E-04 1.86249E-04 0.00000E+00
 -1       539 2.02736E-04 2.82849E-04 0.00000E+00
 -1       540 1.98509E-04 3.74895E-04 0.00000E+00
 -1       541 1.95728E-04 4.48894E-04 0.00000E+00
 -1       542 1.94434E-04 4.96893E-04 3.30872E-24
 -1       543 1.94153E-04 5.11113E-04-1.65436E-24
 -1       544 1.93801E-04 4.92204E-04 0.00000E+00
 -1       545 1.92363E-04 4.41089E-04 0.00000E+00
 -1       546 1.89580E-04 3.66961E-04 0.00000E+00
 -1       547 1.85727E-04 2.79160E-04 0.00000E+00
 -1       548 1.81875E-04 1.91360E-04 0.00000E+00
 -1       549 1.79093E-04 1.17239E-04 1.65436E-24
 -1       550 1.77658E-04 6.61287E-05 1.65436E-24
 -1       551 1.88464E-04-8.16523E-06 0.00000E+00
 -1       552 1.59326E-04-8.83848E-06 0.00000E+00
 -1       553 1.28008E-04-9.57211E-06 8.27181E-24
 -1       554 9.54619E-05-1.03442E-05-3.30872E-24
 -1       555 6.26432E-05-1.11270E-05 0.00000E+00
 -1       556 2.06451E-04 1.29684E-05 0.00000E+00
 -1       557 1.99852E-04 2.99137E-05 0.00000E+00
 -1       558 1.94562E-04 4.35255E-05-5.29396E-23
 -1       559 1.90459E-04 5.40874E-05-2.64698E-23
 -1       560 1.87424E-04 6.18830E-05 0.00000E+00
 -1       561 1.85339E-04 6.71984E-05 0.00000E+00
 -1       562 1.84089E-04 7.03210E-05 0.00000E+00
 -1       563 1.83558E-04 7.15388E-05 1.32349E-23
 -1       564 1.83635E-04 7.11409E-05 0.00000E+00
 -1       565 1.84210E-04 6.94168E-05 0.00000E+00
 -1       566 1.85170E-04 6.66569E-05 0.00000E+00
 -1       567 1.86409E-04 6.31516E-05 0.00000E+00
 -1       568 1.87816E-04 5.91920E-05 3.30872E-24
 -1       569 1.89284E-04 5.50689E-05 4.13590E-25
 -1       570 1.90705E-04 5.10735E-05 0.00000E+00
 -1       571 1.77408E-04 4.43234E-05 1.65436E-24
 -1       572 1.77508E-04 4.13460E-05 8.27181E-25
 -1       573 1.77608E-04 3.83005E-05 8.27181E-25
 -1       574 1.77708E-04 3.52071E-05 8.27181E-25
 -1       575 1.77809E-04 3.20861E-05 0.00000E+00
 -1       576 1.77909E-04 2.89579E-05 0.00000E+00
 -1       577 1.78010E-04 2.58429E-05 0.00000E+00
 -1       578 1.78110E-04 2.27617E-05 0.00000E+00
 -1       579 1.78211E-04 1.97346E-05 0.00000E+00
 -1       580 1.78312E-04 1.67820E-05 0.00000E+00
 -1       581 1.78413E-04 1.39246E-05 0.00000E+00
 -1       582 1.78515E-04 1.11825E-05-3.30872E-24
 -1       583 1.78616E-04 8.57634E-06-1.32349E-23
 -1       584 1.78719E-04 6.12622E-06 1.32349E-23
 -1       585 1.78821E-04 3.85218E-06 0.00000E+00
 -1       586 1.79788E-04 4.72616E-05-3.30872E-24
 -1       587 1.82196E-04 4.73098E-05 0.00000E+00
 -1       588 1.84576E-04 4.73578E-05 0.00000E+00
 -1       589 1.86971E-04 4.74052E-05 4.13590E-25
 -1       590 1.89422E-04 4.74514E-05 0.00000E+00
 -1       591 1.78304E-04 4.44348E-05 0.00000E+00
 -1       592 1.79305E-04 4.16225E-05 0.00000E+00
 -1       593 1.80315E-04 3.87842E-05-8.27181E-25
 -1       594 1.81332E-04 3.59264E-05 0.00000E+00
 -1       595 1.82354E-04 3.30556E-05 1.65436E-24
 -1       596 1.83378E-04 3.01782E-05 8.27181E-25
 -1       597 1.84402E-04 2.73008E-05 0.00000E+00
 -1       598 1.85424E-04 2.44299E-05 0.00000E+00
 -1       599 1.86441E-04 2.15717E-05 8.27181E-25
 -1       600 1.87451E-04 1.87329E-05-4.13590E-25
 -1       601 1.88451E-04 1.59199E-05 0.00000E+00
 -1       602 1.89439E-04 1.31391E-05 0.00000E+00
 -1       603 1.90413E-04 1.03969E-05 0.00000E+00
 -1       604 1.91371E-04 7.70004E-06 2.06795E-25
 -1       605 1.92310E-04 5.05476E-06 0.00000E+00
 -1       606 1.78936E-04-4.34077E-08 0.00000E+00
 -1       607 1.78944E-04-1.78221E-06 1.65436E-24
 -1       608 1.78952E-04-3.44837E-06 3.30872E-24
 -1       609 1.78959E-04-5.04698E-06-1.65436E-24
 -1       610 1.78966E-04-6.58323E-06 0.00000E+00
 -1       611 1.78973E-04-8.06232E-06 0.00000E+00
 -1       612 1.78981E-04-9.48944E-06 0.00000E+00
 -1       613 1.78988E-04-1.08699E-05 0.00000E+00
 -1       614 1.78995E-04-1.22088E-05 0.00000E+00
 -1       615 1.79002E-04-1.35114E-05 0.00000E+00
 -1       616 1.79010E-04-1.47831E-05 0.00000E+00
 -1       617 1.79017E-04-1.60289E-05 0.00000E+00
 -1       618 1.79025E-04-1.72541E-05 0.00000E+00
 -1       619 1.79032E-04-1.84640E-05 0.00000E+00
 -1       620 1.79039E-04-1.96637E-05 0.00000E+00
 -1       621 1.80961E-04 1.88928E-06 0.00000E+00
 -1       622 1.83196E-04 2.00642E-06-8.27181E-25
 -1       623 1.85584E-04 2.12322E-06 3.30872E-24
 -1       624 1.88082E-04 2.23959E-06-1.65436E-24
 -1       625 1.90646E-04 2.35557E-06 0.00000E+00
 -1       626 1.79717E-04-8.04504E-09 0.00000E+00
 -1       627 1.80492E-04-1.73548E-06-1.65436E-24
 -1       628 1.81249E-04-3.41690E-06 3.30872E-24
 -1       629 1.81992E-04-5.05977E-06 1.65436E-24
 -1       630 1.82723E-04-6.67158E-06 0.00000E+00
 -1       631 1.83446E-04-8.25985E-06-1.65436E-24
 -1       632 1.84163E-04-9.83204E-06 3.30872E-24
 -1       633 1.84876E-04-1.13957E-05 0.00000E+00
 -1       634 1.85590E-04-1.29584E-05-3.30872E-24
 -1       635 1.86305E-04-1.45275E-05-1.65436E-24
 -1       636 1.87026E-04-1.61106E-05 0.00000E+00
 -1       637 1.87755E-04-1.77152E-05 0.00000E+00
 -1       638 1.88494E-04-1.93488E-05-1.65436E-24
 -1       639 1.89247E-04-2.10190E-05 8.27181E-25
 -1       640 1.90016E-04-2.27332E-05-3.30872E-24
 -1       656 1.80465E-04-2.14499E-05 0.00000E+00
 -1       657 1.82291E-04-2.20656E-05 0.00000E+00
 -1       658 1.84393E-04-2.26800E-05 0.00000E+00
 -1       659 1.86631E-04-2.32942E-05-6.61744E-24
 -1       660 1.88827E-04-2.39102E-05 0.00000E+00
 -1       661 1.79576E-04-2.20981E-05 0.00000E+00
 -1       662 1.80145E-04-2.34303E-05 0.00000E+00
 -1       663 1.80746E-04-2.48496E-05 0.00000E+00
 -1       664 1.81377E-04-2.63494E-05-8.27181E-25
 -1       665 1.82036E-04-2.79237E-05 0.00000E+00
 -1       666 1.82721E-04-2.95664E-05-8.27181E-25
 -1       667 1.83429E-04-3.12718E-05 1.65436E-24
 -1       668 1.84159E-04-3.30341E-05 8.27181E-25
 -1       669 1.84907E-04-3.48476E-05 1.65436E-24
 -1       670 1.85673E-04-3.67070E-05 8.27181E-25
 -1       671 1.86454E-04-3.86067E-05-1.65436E-24
 -1       672 1.87247E-04-4.05415E-05 8.27181E-25
 -1       673 1.88052E-04-4.25062E-05 0.00000E+00
 -1       674 1.88865E-04-4.44959E-05 0.00000E+00
 -1       675 1.89686E-04-4.65050E-05 2.06795E-25
 -1       676 1.80181E-04-4.80085E-05-3.30872E-24
 -1       677 1.82254E-04-4.81135E-05 0.00000E+00
 -1       678 1.84324E-04-4.82185E-05 0.00000E+00
 -1       679 1.86390E-04-4.83232E-05-1.65436E-24
 -1       680 1.88452E-04-4.84279E-05-1.65436E-24
 -1       771 1.84800E-05 1.49959E-05 0.00000E+00
 -1       772 8.37381E-06 3.70905E-05 0.00000E+00
 -1       773 8.86997E-08 5.46034E-05 0.00000E+00
 -1       774-6.50118E-06 6.77953E-05 0.00000E+00
 -1       775-1.15190E-05 7.69374E-05 0.00000E+00
 -1       776-1.50927E-05 8.23179E-05 0.00000E+00
 -1       777-1.73501E-05 8.42351E-05-5.29396E-23
 -1       778-1.84214E-05 8.30011E-05 0.00000E+00
 -1       779-1.84362E-05 7.89367E-05 5.29396E-23
 -1       780-1.75261E-05 7.23741E-05 2.64698E-23
 -1       781-1.58216E-05 6.36522E-05 0.00000E+00
 -1       782-1.34550E-05 5.31190E-05 2.64698E-23
 -1       783-1.05574E-05 4.11270E-05-5.29396E-23
 -1       784-7.26127E-06 2.80348E-05-5.29396E-23
 -1       785-3.69797E-06 1.42044E-05-5.29396E-23
 -1       786 1.92046E-04 4.46600E-05-8.27181E-25
 -1       787 1.92125E-04 4.18088E-05 8.27181E-25
 -1       788 1.92203E-04 3.89451E-05 1.65436E-24
 -1       789 1.92282E-04 3.60735E-05-8.27181E-25
 -1       790 1.92361E-04 3.31973E-05 0.00000E+00
 -1       791 1.92440E-04 3.03197E-05 1.65436E-24
 -1       792 1.92519E-04 2.74435E-05 3.30872E-24
 -1       793 1.92598E-04 2.45716E-05 0.00000E+00
 -1       794 1.92677E-04 2.17078E-05-3.30872E-24
 -1       795 1.92757E-04 1.88559E-05 0.00000E+00
 -1       796 1.92836E-04 1.60220E-05 0.00000E+00
 -1       797 1.92915E-04 1.32122E-05 1.65436E-24
 -1       798 1.92995E-04 1.04373E-05-3.30872E-24
 -1       799 1.93074E-04 7.70848E-06 8.27181E-25
 -1       800 1.93154E-04 5.04559E-06 1.65436E-24
 -1       801 1.34267E-04 4.34049E-05-2.64698E-23
 -1       802-3.92383E-05 2.64729E-05 0.00000E+00
 -1       803-1.80135E-04 1.36596E-05 0.00000E+00
 -1       804-1.44510E-04 9.77814E-06 2.64698E-23
 -1       805-4.41391E-05 3.00172E-06 0.00000E+00
 -1       806 1.92921E-04 4.45876E-05 3.30872E-24
 -1       807 1.93872E-04 4.16589E-05-1.65436E-24
 -1       808 1.94828E-04 3.87175E-05-3.30872E-24
 -1       809 1.95785E-04 3.57722E-05 0.00000E+00
 -1       810 1.96739E-04 3.28319E-05 0.00000E+00
 -1       811 1.97689E-04 2.99051E-05 0.00000E+00
 -1       812 1.98630E-04 2.70006E-05-3.30872E-24
 -1       813 1.99559E-04 2.41270E-05-1.65436E-24
 -1       814 2.00474E-04 2.12932E-05 3.30872E-24
 -1       815 2.01371E-04 1.85076E-05 1.65436E-24
 -1       816 2.02247E-04 1.57791E-05-1.65436E-24
 -1       817 2.03098E-04 1.31162E-05 8.27181E-25
 -1       818 2.03921E-04 1.05277E-05 0.00000E+00
 -1       819 2.04714E-04 8.02209E-06 1.65436E-24
 -1       820 2.05474E-04 5.60803E-06 3.30872E-24
 -1       821 1.93095E-04-1.32593E-06 1.65436E-24
 -1       822 1.92938E-04-7.63415E-06 0.00000E+00
 -1       823 1.92769E-04-1.56243E-05 0.00000E+00
 -1       824 1.92593E-04-2.44539E-05-1.65436E-24
 -1       825 1.92418E-04-3.30472E-05-3.30872E-24
 -1       826 1.92253E-04-4.03292E-05-1.65436E-24
 -1       827 1.92099E-04-4.55924E-05 3.30872E-24
 -1       828 1.91956E-04-4.81419E-05 0.00000E+00
 -1       829 1.91816E-04-4.80410E-05-3.30872E-24
 -1       830 1.91673E-04-4.53696E-05 0.00000E+00
 -1       831 1.91524E-04-4.09261E-05-3.30872E-24
 -1       832 1.91371E-04-3.55201E-05 0.00000E+00
 -1       833 1.91218E-04-3.02306E-05 0.00000E+00
 -1       834 1.91072E-04-2.61360E-05 0.00000E+00
 -1       835 1.90932E-04-2.39812E-05 0.00000E+00
 -1       836 1.95630E-04 2.60535E-06 3.30872E-24
 -1       837 1.97857E-04 2.74551E-06 0.00000E+00
 -1       838 1.99970E-04 2.88570E-06 0.00000E+00
 -1       839 2.02027E-04 3.02520E-06 1.65436E-24
 -1       840 2.04084E-04 3.16450E-06 0.00000E+00
 -1       856 1.90786E-04-2.62842E-05 8.27181E-25
 -1       857 1.90768E-04-2.79319E-05 0.00000E+00
 -1       858 1.90750E-04-2.94635E-05 0.00000E+00
 -1       859 1.90732E-04-3.09003E-05 0.00000E+00
 -1       860 1.90714E-04-3.22636E-05-4.13590E-25
 -1       861 1.90695E-04-3.35749E-05 0.00000E+00
 -1       862 1.90677E-04-3.48554E-05 0.00000E+00
 -1       863 1.90659E-04-3.61267E-05 0.00000E+00
 -1       864 1.90641E-04-3.74101E-05 0.00000E+00
 -1       865 1.90622E-04-3.87271E-05-2.06795E-25
 -1       866 1.90604E-04-4.00992E-05-4.13590E-25
 -1       867 1.90586E-04-4.15476E-05-4.13590E-25
 -1       868 1.90567E-04-4.30937E-05 0.00000E+00
 -1       869 1.90548E-04-4.47588E-05-4.13590E-25
 -1       870 1.90528E-04-4.65640E-05 0.00000E+00
 -1       871 1.92876E-04-2.45071E-05 0.00000E+00
 -1       872 1.95097E-04-2.45186E-05 0.00000E+00
 -1       873 1.97394E-04-2.45309E-05 4.13590E-25
 -1       874 1.99698E-04-2.45439E-05 1.55096E-25
 -1       875 2.01940E-04-2.45574E-05-1.65436E-24
 -1       876 1.91597E-04-2.62696E-05 6.61744E-24
 -1       877 1.92370E-04-2.79715E-05 0.00000E+00
 -1       878 1.93121E-04-2.96129E-05 3.30872E-24
 -1       879 1.93852E-04-3.12014E-05 0.00000E+00
 -1       880 1.94567E-04-3.27446E-05 0.00000E+00
 -1       881 1.95267E-04-3.42499E-05-1.65436E-24
 -1       882 1.95956E-04-3.57251E-05-3.30872E-24
 -1       883 1.96637E-04-3.71774E-05 0.00000E+00
 -1       884 1.97312E-04-3.86145E-05 3.30872E-24
 -1       885 1.97984E-04-4.00438E-05 0.00000E+00
 -1       886 1.98656E-04-4.14729E-05 3.30872E-24
 -1       887 1.99331E-04-4.29091E-05 1.65436E-24
 -1       888 2.00010E-04-4.43602E-05 0.00000E+00
 -1       889 2.00698E-04-4.58336E-05 0.00000E+00
 -1       890 2.01396E-04-4.73370E-05 0.00000E+00
 -1       891 1.92581E-04-4.85891E-05 0.00000E+00
 -1       892 1.94632E-04-4.86480E-05-8.27181E-25
 -1       893 1.96633E-04-4.87068E-05 0.00000E+00
 -1       894 1.98562E-04-4.87652E-05-8.27181E-25
 -1       895 2.00393E-04-4.88234E-05 0.00000E+00
 -1       956 2.06065E-04 1.18937E-06 0.00000E+00
 -1       957 2.05931E-04-8.07278E-07-1.65436E-24
 -1       958 2.05796E-04-2.70814E-06-1.65436E-24
 -1       959 2.05662E-04-4.52604E-06 1.65436E-24
 -1       960 2.05527E-04-6.27386E-06-3.30872E-24
 -1       961 2.05392E-04-7.96451E-06 0.00000E+00
 -1       962 2.05258E-04-9.61093E-06-3.30872E-24
 -1       963 2.05123E-04-1.12261E-05 0.00000E+00
 -1       964 2.04989E-04-1.28229E-05-3.30872E-24
 -1       965 2.04854E-04-1.44143E-05 1.65436E-24
 -1       966 2.04720E-04-1.60133E-05-3.30872E-24
 -1       967 2.04585E-04-1.76329E-05 0.00000E+00
 -1       968 2.04451E-04-1.92859E-05 0.00000E+00
 -1       969 2.04317E-04-2.09853E-05 0.00000E+00
 -1       970 2.04183E-04-2.27439E-05 3.30872E-24
 -1       971 2.03929E-04-2.64126E-05-3.30872E-24
 -1       972 2.03807E-04-2.81596E-05 1.65436E-24
 -1       973 2.03684E-04-2.98253E-05-3.30872E-24
 -1       974 2.03562E-04-3.14202E-05 0.00000E+00
 -1       975 2.03439E-04-3.29549E-05 0.00000E+00
 -1       976 2.03317E-04-3.44399E-05-1.65436E-24
 -1       977 2.03194E-04-3.58858E-05 0.00000E+00
 -1       978 2.03072E-04-3.73030E-05 0.00000E+00
 -1       979 2.02950E-04-3.87023E-05 0.00000E+00
 -1       980 2.02827E-04-4.00940E-05 0.00000E+00
 -1       981 2.02705E-04-4.14889E-05-3.30872E-24
 -1       982 2.02583E-04-4.28975E-05 0.00000E+00
 -1       983 2.02461E-04-4.43303E-05 0.00000E+00
 -1       984 2.02339E-04-4.57980E-05 1.65436E-24
 -1       985 2.02218E-04-4.73109E-05 3.30872E-24
 -3
    1PSTEP                        40          20           1          
  100CL  120 6.60625E-01         409                     0   20           1
 -4  STRESS      6    1
 -5  SXX         1    4    1    1
 -5  SYY         1    4    2    2
 -5  SZZ         1    4    3    3
 -5  SXY         1    4    1    2
 -5  SYZ         1    4    2    3
 -5  SZX         1    4    3    1
 -1         1-5.14383E+06-1.69761E+06-1.10743E+06-1.52927E+06 1.46974E-09-6.22822E-08
 -1         2 1.06406E+06 1.56323E+07 3.80446E+06 4.70783E+06 2.43890E-08 1.78319E-07
 -1         3-1.60097E+03-1.49898E+06 4.06163E+02-2.20716E+03-5.60497E-10-3.24217E-08
 -1         5-1.73749E+02 4.26195E+05 1.17622E+01-2.43873E+00-6.45222E-10 4.63115E-09
 -1         8-6.75723E+05-2.29551E+05-8.24365E+04-2.64063E+05 1.74623E-10-2.99005E-08
 -1         9 1.09713E+07 2.69373E+06 2.44310E+06-5.57441E+05-3.76021E-09 6.98492E-11
 -1        10-2.36041E+03-1.56201E+06-3.69875E+03-1.49503E+04-1.41390E-08-2.10231E-08
 -1        12-1.69414E+02 4.26221E+05 3.92399E+02-1.59495E+01-1.14980E-09 2.50657E-08
 -1        15 1.03266E+03 5.67497E+02 3.33804E+03 1.09113E+00-5.91882E-11 2.64634E-07
 -1        16 2.20593E+07-2.67956E+05 3.02509E+06-2.04429E+06 2.95695E-08-6.75209E-09
 -1        17 8.05563E+06 6.02432E+06 2.18047E+06 5.76068E+06 2.22062E-08 2.85800E-08
 -1        18 1.98905E+05 5.15197E+04 1.66861E+04-1.32319E+05 1.65890E-08 8.86303E-09
 -1        19 1.27088E+05 1.55829E+05-4.85221E+02 2.00277E+04 2.38724E-09-1.02867E-08
 -1        20-8.78680E+04-5.87048E+05-1.32000E+05 2.29303E+04-4.12956E-09 2.96113E-08
 -1        21-4.35858E+01-2.94969E+05-9.16709E+02 4.19565E+02 2.01526E-08-1.98207E-08
 -1        24 1.33663E+07 1.15181E+07 3.71504E+06 1.06722E+07-1.64572E-07-5.66167E-08
 -1        25 4.14528E+05 1.31654E+06 3.64712E+05-8.87614E+05 3.16906E-08-4.59375E-08
 -1        26-3.77380E+04 1.09127E+05-2.02363E+04-2.97285E+03-1.66110E-09 2.91120E-09
 -1        27-7.63787E+04-3.17338E+05-1.14871E+05 6.94605E+04-7.52758E-09 3.47324E-08
 -1        28 2.19507E+04-8.54947E+04 1.68349E+04 1.99171E+04-9.05146E-09-3.53942E-09
 -1        32-1.35083E+06-1.93037E+06 1.07019E+05 7.49005E+05-2.57933E-08-2.22190E-08
 -1        33-1.73005E+05 1.01579E+05 3.40787E+04-4.94619E+04-4.67041E-09 1.18162E-08
 -1        34-2.24759E+05-2.67445E+04 7.02865E+02 7.81045E+04-8.54375E-09 8.66294E-10
 -1        35-2.27906E+04-3.38447E+04-1.35199E+03 5.12506E+04-5.29085E-09 1.76163E-08
 -1        51 5.79977E+04-1.84201E+05 1.23244E+05-4.96308E+05-1.45519E-11 2.15296E-07
 -1        52 1.99378E+04-1.63071E+05 6.51208E+04-5.78768E+05 5.83896E-10 3.51065E-09
 -1        53 4.43668E+03-1.78473E+05 3.46502E+04-4.94565E+05 5.02041E-10-1.10347E-07
 -1        54 8.50229E+03-1.74349E+05 2.99520E+04-5.80510E+05-2.87400E-10-2.77378E-08
 -1        55 1.83776E+04-1.82090E+05 3.81706E+04-4.94414E+05 3.71074E-10 1.30040E-07
 -1        56-9.43435E+06-1.17143E+06-8.36724E+05-3.80929E+06 9.95351E-09-2.76748E-07
 -1        57-1.03592E+07-1.23609E+06-5.48357E+05-3.04018E+06-6.55564E-09-5.73200E-08
 -1        58-9.45770E+06-1.53349E+06-1.92677E+05-3.87829E+06 1.37661E-08-1.73946E-07
 -1        59-1.02888E+07-8.41806E+05-1.12222E+05-3.02455E+06-9.85710E-09-6.49597E-08
 -1        60-9.51943E+06-1.54468E+06-4.83152E+04-3.84117E+06 9.36416E-09 1.97117E-07
 -1        61-1.00056E+07-9.88251E+05-1.40598E+04-3.19871E+06 4.21878E-08 1.44271E-07
 -1        62-9.70288E+06-1.41156E+06-2.90760E+04-3.67596E+06-1.28639E-08 5.00077E-08
 -1        63-9.61030E+06-1.33036E+06 7.00208E+03-3.57126E+06-2.05182E-09 2.62517E-08
 -1        64-9.88846E+06-1.22084E+06-2.65943E+04-3.45109E+06-2.17042E-08 2.01908E-10
 -1        65-9.36231E+06-1.64416E+06-1.34780E+04-3.98529E+06-1.09121E-08-6.81722E-08
 -1        66-9.98409E+06-1.07489E+06-4.19572E+04-3.28643E+06-2.95040E-08 1.25865E-07
 -1        67-9.31668E+06-1.80802E+06-1.01113E+05-4.17323E+06-1.35769E-08 8.63092E-08
 -1        68-9.96706E+06-1.03533E+06-1.74883E+05-3.28472E+06-5.67707E-08 4.14875E-08
 -1        69-9.54230E+06-1.98143E+06-4.91460E+05-3.95684E+06-1.79607E-08-3.80023E-08
 -1        70-9.73305E+06-9.29406E+05-7.57555E+05-3.48172E+06-8.14907E-09-2.90602E-07
 -1        86-1.08369E+06-1.24490E+07-2.07776E+06-2.22836E+06-2.31652E-07-9.53441E-08
 -1        87 1.64247E+06 4.08925E+06 1.72919E+06 4.41667E+06-3.89198E-07-1.26820E-08
 -1        88-2.78351E+05-2.29048E+06 1.54543E+05-2.13451E+06-3.37719E-07 2.43181E-08
 -1        89 2.20783E+06 3.90001E+06 1.76369E+06 4.54316E+06-5.38879E-07-3.48882E-09
 -1        90-1.59053E+06-1.23099E+07-2.25925E+06-2.37011E+06-1.30676E-07 1.46145E-07
 -1       121-2.18803E+03-1.50422E+06-6.23193E+02 1.09286E+03 1.54724E-09 6.16274E-09
 -1       122-1.41728E+03-1.49905E+06 7.59272E+02-4.42141E+03-5.33676E-09-1.28384E-08
 -1       123-2.20233E+03-1.50436E+06 1.64425E+02 3.26462E+03 4.39979E-09 1.55778E-08
 -1       124 1.70997E+02-1.49865E+06 2.87298E+03-9.27364E+03-1.13851E-08 2.92166E-08
 -1       125-2.97154E+03-1.50523E+06 3.28150E+03 5.89305E+03 6.97946E-09 2.54731E-08
 -1       191-1.82723E+02 4.26195E+05 5.69598E+00 1.31933E+00-8.12875E-10 1.56797E-08
 -1       192-1.74950E+02 4.26195E+05 2.53079E+01-7.23374E+00-1.28251E-09 3.48518E-08
 -1       193-1.85848E+02 4.26195E+05 3.89310E+01 6.52158E+00-1.69266E-09 1.99470E-08
 -1       194-1.78785E+02 4.26200E+05 9.67152E+01-1.62321E+01-7.11716E-10 1.52650E-08
 -1       195-1.91842E+02 4.26192E+05 1.81015E+02 1.09571E+01-2.39368E-09 1.08121E-08
 -1       251-1.16300E+06 2.51125E+04-6.05746E+04-2.38080E+04-3.12320E-09-1.66387E-07
 -1       252-1.18415E+06-2.88216E+04-4.17308E+04 7.94111E+04 1.51795E-09-9.12382E-08
 -1       253-1.17049E+06 4.07699E+03-1.54732E+04-2.73797E+04-2.11861E-09-2.44981E-08
 -1       254-1.16754E+06-4.23931E+03-8.24729E+03 7.07067E+04-2.22735E-09-1.36297E-07
 -1       255-1.17904E+06 2.60394E+02-5.33907E+03-1.51041E+04 2.49747E-09-2.19804E-07
 -1       256-1.15205E+06-3.25537E+02 1.89878E+03 3.55151E+04 4.78849E-10 2.27108E-07
 -1       257-1.18465E+06-9.18448E+02-3.28970E+03 7.80361E+03 4.04816E-09 7.56284E-08
 -1       258-1.15111E+06 1.10343E+03 4.56461E+03-1.09762E+04-1.39325E-08 2.01143E-07
 -1       259-1.17989E+06-1.31015E+03-3.08383E+02 3.13674E+04-1.13050E-09 8.42999E-09
 -1       260-1.16467E+06 3.29383E+03 5.47050E+03-4.85249E+04 1.16867E-08-1.83246E-07
 -1       261-1.17236E+06-2.06746E+03 6.58287E+03 4.53762E+04 1.80928E-08-1.16655E-07
 -1       262-1.16913E+06 1.05039E+04 1.68686E+04-6.11273E+04 6.55573E-09 1.69449E-07
 -1       263-1.17611E+06-7.89642E+03 2.61325E+04 4.39958E+04-7.53971E-09-2.60607E-08
 -1       264-1.13867E+06 5.33048E+04 7.44984E+04-4.35650E+04 4.39774E-08 1.61358E-07
 -1       265-1.20183E+06-4.55007E+04 1.00058E+05 2.77831E+04 2.79306E-09 2.85763E-07
 -1       266-1.86947E+04-8.74235E+03 4.38598E+04-2.33454E+01-6.91216E-11-2.33202E-07
 -1       267 2.16721E+04 1.01883E+04 3.10012E+04 2.69377E+01-6.18456E-11-2.18755E-07
 -1       268-2.90620E+03-1.44301E+03 1.15229E+04-3.43224E+00-5.77529E-11 4.56534E-08
 -1       269 3.43136E+03 1.72691E+03 7.48979E+03 3.99815E+00-3.73689E-10 9.21838E-08
 -1       270-5.15051E+02-2.83747E+02 3.61542E+03-5.42573E-01-1.83036E-11-3.75168E-09
 -1       271-1.64268E+06-2.05462E+05-1.22534E+05-6.36365E+05-3.78559E-08 2.20629E-07
 -1       272-1.66388E+06-3.10850E+05-7.78681E+04-6.54902E+05-1.18689E-09-4.76636E-07
 -1       273-1.66778E+06-2.33162E+05-2.93712E+04-6.28468E+05 1.01973E-08-4.35393E-08
 -1       274-1.63415E+06-2.77806E+05-1.58090E+04-6.68757E+05 1.31577E-08-6.91198E-08
 -1       275-1.67324E+06-2.33748E+05-7.12657E+03-6.24997E+05 4.48017E-09 1.78969E-07
 -1       276-1.62756E+06-2.77990E+05-3.30635E+03-6.76011E+05-8.10905E-08 2.20049E-07
 -1       277-1.67586E+06-2.31616E+05-1.93335E+03-6.22452E+05 2.85472E-08 1.10543E-07
 -1       278-1.62467E+06-2.81097E+05-9.25488E+02-6.81446E+05 4.47471E-09 6.21159E-07
 -1       279-1.67757E+06-2.29702E+05-1.05182E+03-6.20574E+05 1.29894E-08-1.09462E-08
 -1       280-1.62310E+06-2.83709E+05-1.42709E+03-6.85266E+05-5.03551E-08 3.01188E-08
 -1       281-1.67855E+06-2.28305E+05-2.63319E+03-6.19398E+05 8.08177E-09 2.27919E-07
 -1       282-1.62341E+06-2.86741E+05-6.15384E+03-6.87151E+05-2.25828E-09 1.06986E-07
 -1       283-1.67795E+06-2.26411E+05-1.09459E+04-6.19081E+05 2.27174E-08-8.01615E-08
 -1       284-1.63288E+06-3.01768E+05-2.98418E+04-6.85123E+05 2.10368E-08-1.88649E-07
 -1       285-1.66939E+06-2.14715E+05-4.64112E+04-6.20957E+05-1.73484E-08-1.76115E-08
 -1       301 1.91326E+03-6.12098E+05 1.68577E+05-1.06751E+06 1.24055E-08-1.24797E-07
 -1       302 2.06682E+03-5.67205E+05 1.01609E+05-1.55927E+06-1.31549E-08-5.25324E-08
 -1       303-1.47141E+04-6.02046E+05 5.84442E+04-1.06471E+06-1.15906E-08-1.11926E-07
 -1       304-1.37026E+04-5.72240E+05 6.06333E+04-1.55851E+06-4.90400E-09 5.42459E-08
 -1       305-1.75421E+04-5.92339E+05 7.69037E+04-1.06779E+06 2.15550E-09 9.87056E-08
 -1       306-2.95264E+07-6.08587E+06-8.39633E+06-6.97098E+05-6.90343E-08-1.18598E-07
 -1       307 2.49413E+07 2.96929E+06 5.39780E+06-1.46478E+07-8.31671E-07 2.72121E-08
 -1       308-7.20848E+06-9.89190E+05-5.00045E+05 5.08738E+06-3.06085E-07 3.80038E-07
 -1       309-3.39736E+06 8.29657E+06 2.17957E+06-2.02511E+07 2.72397E-07 8.68749E-08
 -1       310-1.21352E+07-1.78410E+06-1.87456E+06 5.06592E+06-1.41270E-07-7.82456E-08
 -1       311 3.64203E+07-9.14535E+02 6.96416E+06-8.95735E+06 6.27246E-07 1.39698E-09
 -1       312-3.10859E+07-6.47204E+06-8.21800E+06-4.69932E+06 4.29340E-07-5.17612E-08
 -1       313 4.44146E+07 1.39131E+07 1.03416E+07 2.25950E+07-1.97208E-07 2.75701E-07
 -1       314-1.72843E+07-1.70177E+07-7.32612E+06-1.22846E+07 5.45755E-07-1.40863E-07
 -1       315-1.43810E+06 2.86114E+07 5.54998E+06 1.07647E+07-5.77624E-07-1.55414E-07
 -1       316 1.14527E+06-9.76014E+06-4.81038E+05-2.78245E+06-1.29003E-06-2.38302E-07
 -1       317-1.71663E+07 2.19001E+07 2.13821E+06-8.19481E+06 5.09710E-07-7.79641E-07
 -1       318-1.06138E+06-1.22692E+07-1.89518E+06-4.26575E+06-9.33040E-07 2.47848E-07
 -1       319 6.60667E+06 3.05617E+07 6.72787E+06 1.59224E+07-1.11540E-08 3.07540E-07
 -1       320-2.20083E+07-1.70207E+07-9.50619E+06-1.24477E+07 2.08267E-07-3.78059E-08
 -1       336-1.00516E+03-1.62838E+06-1.32841E+04 8.86579E+03-2.74904E-08 2.99697E-08
 -1       337-5.24484E+03-1.62722E+06-1.69654E+04-2.16136E+04-5.10647E-08 4.62387E-08
 -1       338-5.17329E+01-1.62795E+06-2.67992E+04 1.24656E+04-3.50237E-08 3.84898E-09
 -1       339-2.82598E+04-1.64347E+06-6.01150E+04-2.86746E+04-6.46050E-08 1.21581E-08
 -1       340 1.83026E+04-1.61439E+06-9.48689E+04 1.57958E+04-4.28008E-08 3.92829E-08
 -1       406-1.47618E+02 4.26175E+05 7.66136E+02 6.86113E+00-2.85524E-09-2.07365E-10
 -1       407 1.01604E+02 4.26357E+05 1.64667E+03 3.30355E+01-6.02455E-10-6.60475E-09
 -1       408 6.72439E+02 4.26054E+05 3.27783E+03-3.93392E+01-3.47836E-09 3.43680E-08
 -1       409 3.39971E+03 4.27404E+05 7.39706E+03 4.36960E+02-3.42425E-10 3.00279E-08
 -1       410 1.00713E+04 4.25099E+05 1.50934E+04-4.26837E+02-4.45652E-09 1.51049E-08
 -1       521-3.10660E+07-7.49708E+06-9.80046E+06-3.16213E+05-8.71951E-08-3.74275E-08
 -1       522 2.57661E+07 3.90554E+06 5.49418E+06-1.80682E+07-5.63450E-07 2.36323E-08
 -1       523-7.81255E+06-1.29535E+06-4.95273E+05 5.53432E+06 1.10595E-07-2.97019E-07
 -1       524-6.82597E+06 1.12282E+07 2.35838E+06-2.32759E+07 7.19592E-07-6.29771E-07
 -1       525-1.29797E+07-2.38415E+06-2.06410E+06 5.51173E+06 5.31436E-07-2.91038E-09
 -1       526 3.97114E+07-6.83494E+04 7.31483E+06-1.15641E+07 1.34984E-07 1.40775E-07
 -1       527-3.29114E+07-8.11441E+06-9.46782E+06-4.57558E+06 5.21541E-08 1.33194E-07
 -1       528 4.84815E+07 1.54589E+07 1.07838E+07 2.56746E+07 4.39468E-08 1.92755E-07
 -1       529-1.82287E+07-1.91664E+07-8.39162E+06-1.23486E+07 1.19384E-07 9.58098E-08
 -1       530-3.89949E+06 3.32398E+07 5.86400E+06 1.03477E+07 3.93920E-08 4.95289E-07
 -1       531 1.13728E+06-1.08405E+07-4.56857E+05-2.76986E+06-8.77728E-07 3.44240E-07
 -1       532-1.97983E+07 2.39784E+07 2.33887E+06-1.22859E+07 3.82657E-07-7.64434E-07
 -1       533-1.12146E+06-1.34305E+07-2.01924E+06-4.14160E+06-2.89117E-07-1.02835E-06
 -1       534 4.64538E+06 3.54606E+07 7.00938E+06 1.64996E+07 1.03319E-08 7.78469E-07
 -1       535-2.31990E+07-1.93263E+07-1.08893E+07-1.25382E+07 9.37143E-08 4.94241E-07
 -1       536-8.35150E+05-6.11897E+04-7.42869E+04-6.73223E+04-2.57842E-09 8.28413E-08
 -1       537 7.18265E+04 5.82933E+04 1.12532E+05 1.49290E+05-1.35062E-07 1.28769E-07
 -1       538-4.12204E+05 4.12159E+03 1.34202E+03-8.57021E+04 4.29527E-08 1.18757E-07
 -1       539-2.39433E+05 3.98993E+03 3.19200E+04 1.66785E+05 2.30964E-07 1.18190E-07
 -1       540-5.31846E+05-1.58178E+02-2.69173E+04-8.57281E+04 4.24220E-08 1.32263E-07
 -1       541 2.99566E+05 2.22067E+04 1.38166E+05 1.23996E+05-4.24825E-09 9.46766E-08
 -1       542-9.36577E+05-2.64587E+04-1.10924E+05-4.15481E+04 5.99030E-08 4.28507E-08
 -1       543 6.62982E+05 3.65211E+04 2.10918E+05-1.20616E+04 8.44125E-09 5.18412E-11
 -1       544-8.85448E+05-2.26856E+04-1.01259E+05 4.93627E+04-5.56884E-09-3.72060E-08
 -1       545 1.76830E+05 1.38366E+04 1.10382E+05-1.37150E+05-8.63292E-09-1.02159E-07
 -1       546-4.63579E+05 7.23686E+03-1.70816E+04 8.29298E+04 8.05517E-09-1.05235E-07
 -1       547-2.56173E+05-4.39765E+03 1.74573E+04-1.69578E+05-1.12461E-07-1.19084E-07
 -1       548-4.64190E+05 5.50286E+03-2.74702E+04 8.28771E+04-1.15552E-07-1.05678E-07
 -1       549 1.81530E+05 2.83969E+04 8.92810E+04-1.37349E+05-8.47705E-08-6.98676E-08
 -1       550-8.89549E+05-3.54937E+04-1.56950E+05 4.96125E+04 2.42198E-09-3.24108E-08
 -1       551 4.37235E+04-7.69677E+05-1.57930E+04-1.23847E+06-1.07524E-07-2.48547E-08
 -1       552 9.56197E+04-8.15031E+05 9.84214E+03-1.76663E+06-7.78673E-08 6.60657E-09
 -1       553 7.31371E+04-8.08872E+05 3.22903E+04-1.23203E+06-1.21421E-07 1.44792E-08
 -1       554 1.32971E+05-8.27513E+05 8.14747E+04-1.76839E+06-7.39237E-08 1.15888E-08
 -1       555 1.01616E+05-8.30689E+05 1.48778E+05-1.23208E+06-1.26143E-07-1.88666E-08
 -1       556 2.04742E+05-3.51730E+05 2.85236E+04-3.72371E+05-1.79280E-08-2.71248E-08
 -1       557 3.25945E+05-4.47092E+05 1.73765E+04-4.80680E+05 9.66247E-09 3.80533E-09
 -1       558 1.88643E+05-3.46169E+05 2.95670E+03-3.75297E+05-9.42964E-09-8.46921E-09
 -1       559 3.03007E+05-4.48288E+05 2.65913E+03-4.99428E+05 3.44444E-08-1.53486E-08
 -1       560 1.74806E+05-3.37490E+05-1.44983E+03-3.85310E+05 1.45228E-08 1.81171E-08
 -1       561 2.85377E+05-4.41312E+05 1.01246E+02-5.11528E+05 5.00586E-09 1.53668E-08
 -1       562 1.63589E+05-3.30528E+05-1.47131E+03-3.93487E+05 7.79983E-09 1.11031E-08
 -1       563 2.71816E+05-4.35415E+05-1.43020E+02-5.20441E+05 5.26052E-09 6.24550E-09
 -1       564 1.55244E+05-3.25335E+05-8.16972E+02-3.99436E+05-1.84809E-09-1.08248E-08
 -1       565 2.62269E+05-4.31270E+05-1.27429E+02-5.26575E+05-2.50293E-09-1.02001E-08
 -1       566 1.49887E+05-3.21945E+05-5.14690E+02-4.03197E+05-2.29193E-09-1.43082E-08
 -1       567 2.56788E+05-4.28916E+05-6.52072E+02-5.29962E+05 2.20753E-08 2.20753E-08
 -1       568 1.47599E+05-3.20529E+05-1.59695E+03-4.04857E+05-1.05138E-09 1.88265E-08
 -1       569 2.54010E+05-4.28690E+05-3.88669E+03-5.29914E+05-9.99535E-09-4.34738E-09
 -1       570 1.49417E+05-3.22982E+05-7.97979E+03-4.04295E+05 1.35478E-08-1.04046E-09
 -1       571 2.99336E+05 1.06110E+04 1.47685E+04-1.18018E+05 3.89264E-10 1.11777E-09
 -1       572 3.01428E+05 4.20037E+03 7.23996E+03-1.29433E+05 2.90129E-09-1.11968E-08
 -1       573 3.00141E+05 1.50614E+03 3.21681E+03-1.17787E+05 4.13911E-09-2.95404E-09
 -1       574 3.00307E+05 1.03487E+03 1.61430E+03-1.29727E+05 4.30009E-09 1.29430E-08
 -1       575 3.00210E+05 7.33781E+02 7.61726E+02-1.17755E+05-3.75667E-09 8.18636E-09
 -1       576 3.00161E+05 7.77778E+02 3.89935E+02-1.29766E+05-1.31131E-08 1.00772E-09
 -1       577 3.00251E+05 6.75797E+02 1.93121E+02-1.17751E+05-1.08012E-08 7.97536E-09
 -1       578 3.00206E+05 7.31807E+02 1.08844E+02-1.29771E+05-5.12046E-09 2.10293E-08
 -1       579 3.00349E+05 6.23743E+02 6.80749E+01-1.17751E+05 8.68567E-09 1.24965E-09
 -1       580 3.00349E+05 6.56797E+02 7.11497E+01-1.29766E+05-1.16697E-08-2.27928E-08
 -1       581 3.00515E+05 5.32388E+02 9.57168E+01-1.17758E+05 5.74801E-10-4.08636E-09
 -1       582 3.00588E+05 5.67051E+02 1.93396E+02-1.29692E+05-1.25583E-08 7.42966E-09
 -1       583 3.00736E+05 4.88077E+02 3.58804E+02-1.17827E+05-9.45511E-09 7.13862E-09
 -1       584 3.01004E+05 7.87436E+02 8.18772E+02-1.29119E+05 9.35688E-09-6.83940E-10
 -1       585 3.00899E+05 1.41048E+03 1.64308E+03-1.18332E+05-4.25644E-10-1.23837E-08
 -1       586-2.37145E+03 1.47235E+05-8.99982E+02-2.44710E+05-1.07989E-08-1.51886E-09
 -1       587-1.20225E+03 1.47268E+05 1.70304E+03-2.69170E+05-7.81984E-09-1.78966E-09
 -1       588 2.04938E+02 1.46821E+05 5.05912E+03-2.44496E+05-7.42511E-09 1.78570E-08
 -1       589 4.69755E+03 1.49232E+05 1.22359E+04-2.69101E+05-8.56744E-09 9.29595E-09
 -1       590 1.59596E+04 1.45429E+05 2.53284E+04-2.44846E+05-8.44648E-09 5.70617E-09
 -1       591-1.03929E+05-2.16518E+04-2.67588E+04-4.43378E+04-6.41194E-10-1.27802E-08
 -1       592-1.08483E+05-2.61783E+04-1.44947E+04-4.89991E+04 2.74724E-10-2.57382E-08
 -1       593-1.06616E+05-1.96994E+04-6.03345E+03-4.62884E+04 1.77283E-09-1.88811E-08
 -1       594-1.04782E+05-2.22590E+04-3.00888E+03-4.91491E+04 3.45318E-09 1.07052E-08
 -1       595-1.06822E+05-1.96919E+04-1.38142E+03-4.63772E+04-1.36521E-09 1.04745E-08
 -1       596-1.04529E+05-2.20799E+04-7.01912E+02-4.91204E+04 5.14302E-09 2.31743E-08
 -1       597-1.06848E+05-1.97097E+04-3.81648E+02-4.63806E+04-5.84851E-09 1.20680E-08
 -1       598-1.04504E+05-2.20729E+04-3.05815E+02-4.91122E+04-6.45622E-09-2.49079E-08
 -1       599-1.06846E+05-1.97104E+04-3.89440E+02-4.63802E+04 6.39716E-09-1.31148E-08
 -1       600-1.04529E+05-2.20806E+04-7.22511E+02-4.91177E+04 7.96899E-09-4.47977E-09
 -1       601-1.06816E+05-1.96936E+04-1.42498E+03-4.63760E+04-2.30739E-09-6.58770E-09
 -1       602-1.04789E+05-2.22643E+04-3.10531E+03-4.91429E+04-3.74905E-09-6.01312E-09
 -1       603-1.06601E+05-1.97047E+04-6.22748E+03-4.62850E+04-4.98676E-09 9.30231E-09
 -1       604-1.08625E+05-2.62920E+04-1.49598E+04-4.89651E+04 5.21391E-09 1.09949E-08
 -1       605-1.03809E+05-2.17354E+04-2.76176E+04-4.42885E+04 2.35002E-09 9.96351E-09
 -1       606 2.56377E+04-1.53712E+04-2.75367E+04 2.15392E+04 1.45583E-08-4.73511E-09
 -1       607 2.09348E+04-5.03076E+03-1.37136E+04 2.42221E+04 3.35376E-09-1.10504E-09
 -1       608 2.36201E+04-9.17154E+02-6.13847E+03 2.14013E+04-7.99537E-09 9.72386E-09
 -1       609 2.31106E+04-3.27599E+02-3.10129E+03 2.44165E+04-1.43746E-09-2.66846E-09
 -1       610 2.33974E+04-5.98677E+01-1.47924E+03 2.13841E+04 9.19590E-09-1.40728E-08
 -1       611 2.33217E+04-6.54816E+01-7.46103E+02 2.44373E+04 1.72554E-08 2.07820E-10
 -1       612 2.33523E+04-4.84993E+01-3.54609E+02 2.13823E+04 1.21845E-08 1.82615E-08
 -1       613 2.33396E+04-6.41619E+01-1.59478E+02 2.44397E+04 2.11789E-08 6.60339E-09
 -1       614 2.33329E+04-5.80100E+01-3.82361E+01 2.13817E+04 8.67385E-09 1.33816E-08
 -1       615 2.33382E+04-6.49432E+01 6.42146E+01 2.44401E+04-1.94996E-09 5.94832E-09
 -1       616 2.33176E+04-5.66768E+01 1.95100E+02 2.13819E+04-1.61981E-09 1.86949E-08
 -1       617 2.33645E+04-2.48787E+01 4.45786E+02 2.44397E+04-9.77411E-09 1.17550E-08
 -1       618 2.32808E+04 7.06710E+01 8.98989E+02 2.13823E+04-6.33963E-09 6.14773E-09
 -1       619 2.36836E+04 6.69368E+02 2.01890E+03 2.44394E+04-3.53702E-09 2.53376E-08
 -1       620 2.29832E+04 2.20208E+03 4.05810E+03 2.13856E+04-9.57698E-10 1.36506E-08
 -1       621 9.28502E+02 3.42317E+05 6.43158E+03 5.35888E+04 1.59298E-09 2.91038E-10
 -1       622 1.17861E+03 3.43803E+05 5.11784E+03 7.77518E+04 1.67529E-09 8.58563E-10
 -1       623 2.61128E+02 3.42727E+05 5.40832E+03 5.33593E+04 1.72076E-09-1.87993E-09
 -1       624 2.70144E+03 3.45023E+05 9.86869E+03 7.79676E+04 1.92631E-09 3.85808E-09
 -1       625 2.59078E+03 3.40817E+05 1.69578E+04 5.33632E+04 1.89448E-09-4.96129E-09
 -1       626 2.65039E+05 5.92235E+04 3.75003E+03 1.25758E+05 7.89896E-09 1.64091E-08
 -1       627 2.62795E+05 6.07843E+04 1.80719E+03 1.29512E+05 1.11331E-08 6.63056E-09
 -1       628 2.65144E+05 5.74950E+04 7.64775E+02 1.26380E+05-1.11650E-08 2.23918E-09
 -1       629 2.62316E+05 6.02993E+04 3.75140E+02 1.29703E+05-1.36943E-08-5.62832E-09
 -1       630 2.65156E+05 5.74109E+04 1.75797E+02 1.26406E+05-3.55112E-09 4.80259E-09
 -1       631 2.62267E+05 6.02813E+04 9.80849E+01 1.29706E+05 7.68523E-09 1.00295E-09
 -1       632 2.65154E+05 5.74128E+04 7.10041E+01 1.26403E+05 7.55790E-09-1.11343E-08
 -1       633 2.62262E+05 6.02817E+04 8.88661E+01 1.29705E+05 5.09817E-09-1.90789E-09
 -1       634 2.65151E+05 5.74083E+04 1.52361E+02 1.26404E+05-1.59607E-08-2.50570E-08
 -1       635 2.62278E+05 6.02791E+04 3.13771E+02 1.29712E+05-9.23148E-09 1.04365E-08
 -1       636 2.65142E+05 5.74016E+04 6.36424E+02 1.26404E+05 1.05426E-08 1.68802E-08
 -1       637 2.62416E+05 6.03785E+04 1.40092E+03 1.29712E+05-9.00400E-09-1.40867E-08
 -1       638 2.65093E+05 5.77111E+04 2.87902E+03 1.26264E+05 2.77987E-09 3.73257E-09
 -1       639 2.63924E+05 6.24861E+04 6.81238E+03 1.29270E+05 8.40055E-09-3.97699E-09
 -1       640 2.64881E+05 6.39943E+04 1.41372E+04 1.23618E+05 1.16470E-08 9.82095E-09
 -1       656 6.78949E+04-1.74035E+06-1.63893E+05-3.74305E+03-5.82077E-11-2.72609E-07
 -1       657-8.98122E+04-1.81443E+06-1.35767E+05 3.60659E+03 2.46655E-09-3.67021E-06
 -1       658 2.16298E+04-1.76139E+06-8.35965E+04-5.81470E+03 6.54508E-07-3.14245E-04
 -1       659-9.70723E+04-1.81788E+06-1.45311E+05 5.39373E+03 1.36838E-06-6.19406E-04
 -1       660 7.51386E+04-1.73692E+06-1.80302E+05-5.53017E+03 5.86006E-07-3.15249E-04
 -1       661 1.51184E+05 1.56308E+04 1.62366E+04 5.90300E+04-1.42018E-09 1.33869E-08
 -1       662 1.60421E+05 2.75990E+04 1.09424E+04 5.53187E+04 1.59645E-09-1.47176E-08
 -1       663 1.54372E+05 2.08416E+04 3.82691E+03 5.81062E+04 4.23972E-09 4.37581E-09
 -1       664 1.56726E+05 2.15051E+04 2.28937E+03 5.64467E+04-2.57273E-10 2.91352E-08
 -1       665 1.54856E+05 2.15536E+04 9.03148E+02 5.79656E+04 6.63533E-10 9.36495E-11
 -1       666 1.56154E+05 2.06906E+04 5.28792E+02 5.66299E+04 1.51407E-08-2.29209E-08
 -1       667 1.54940E+05 2.16349E+04 2.81223E+02 5.79306E+04 1.32675E-09-5.05599E-09
 -1       668 1.56061E+05 2.06318E+04 2.87330E+02 5.66804E+04-8.18490E-09-1.98986E-09
 -1       669 1.54947E+05 2.16108E+04 3.89674E+02 5.79153E+04 1.67711E-09 5.21561E-09
 -1       670 1.56157E+05 2.08427E+04 8.49111E+02 5.66822E+04-8.66925E-09-7.44063E-09
 -1       671 1.54844E+05 2.14284E+04 1.50789E+03 5.79268E+04 2.46160E-09-7.56768E-09
 -1       672 1.57036E+05 2.23090E+04 3.85805E+03 5.64685E+04 1.32401E-08-1.13967E-08
 -1       673 1.54072E+05 2.01817E+04 6.46555E+03 5.81148E+04 5.12046E-09 1.29187E-08
 -1       674 1.63189E+05 3.26981E+04 1.84902E+04 5.46623E+04-5.85544E-09-1.72577E-09
 -1       675 1.48731E+05 1.13304E+04 2.74459E+04 5.96241E+04-7.72889E-09-2.63408E-08
 -1       676 2.41171E+01-2.94891E+05-1.10488E+03-2.09791E+02 2.67707E-09-1.11487E-08
 -1       677-2.90635E+02-2.95160E+05-2.02211E+03 4.19241E+02 1.55057E-08 6.88512E-09
 -1       678 1.96212E+02-2.94701E+05-3.57460E+03-2.09318E+02-9.04265E-10-4.83045E-09
 -1       679-3.57304E+03-2.97317E+05-8.49175E+03 4.17426E+02 8.34279E-09-1.19500E-08
 -1       680 2.13445E+03-2.92734E+05-1.36858E+04-2.05673E+02-2.65027E-09 1.43514E-08
 -1       771-3.04559E+06-7.47820E+05-1.62467E+05-1.46272E+06-3.48373E-08-2.75322E-08
 -1       772-2.96606E+06-8.37191E+05-8.35992E+04-1.56622E+06-2.32540E-08 1.13469E-08
 -1       773-3.07699E+06-7.23311E+05-4.29252E+04-1.47713E+06-1.21072E-08 2.11876E-08
 -1       774-2.95739E+06-8.19152E+05-1.90807E+04-1.59232E+06 1.94996E-08-4.53292E-09
 -1       775-3.09364E+06-7.11608E+05-1.44672E+04-1.48435E+06-5.84987E-09 9.80071E-09
 -1       776-2.97011E+06-8.16021E+05-5.37896E+03-1.61208E+06-9.92441E-09 3.05590E-09
 -1       777-3.10812E+06-7.01160E+05-6.46180E+03-1.49072E+06 2.59024E-09 2.81580E-09
 -1       778-2.98329E+06-8.13085E+05-1.83493E+03-1.62905E+06 3.02680E-09 3.77258E-09
 -1       779-3.12056E+06-6.92039E+05-3.29064E+03-1.49616E+06-1.47556E-08-6.56655E-09
 -1       780-2.99489E+06-8.10298E+05-6.48709E+02-1.64285E+06-1.10085E-08-7.25777E-10
 -1       781-3.13044E+06-6.84692E+05-1.49826E+03-1.50041E+06-3.49391E-08 9.96806E-10
 -1       782-3.00385E+06-8.07974E+05-7.69769E+01-1.65303E+06-4.87271E-08-4.64752E-09
 -1       783-3.13735E+06-6.79600E+05-3.64371E+02-1.50336E+06-9.32050E-09-1.27434E-08
 -1       784-3.00944E+06-8.06345E+05 3.40627E+02-1.65926E+06-2.06783E-08-1.30422E-09
 -1       785-3.14095E+06-6.76931E+05 3.86801E+02-1.50489E+06-4.35357E-08 2.89765E-09
 -1       786 2.32161E+05-1.25711E+04 2.90892E+04-6.46382E+02-9.54949E-05-3.26680E-07
 -1       787 2.44765E+05 1.45576E+04 2.05793E+04-7.01228E+02-1.90281E-04-5.25984E-07
 -1       788 2.37024E+05-1.96919E+03 7.52867E+03-6.44921E+02-1.34554E-04-3.17000E-07
 -1       789 2.39101E+05 2.28248E+03 4.72954E+03-6.99930E+02-7.82695E-05-2.02877E-07
 -1       790 2.37827E+05-3.06055E+02 1.92290E+03-6.47711E+02-2.60465E-05-4.78203E-08
 -1       791 2.38164E+05 3.59202E+02 1.12578E+03-6.99086E+02 2.61657E-05 1.03987E-07
 -1       792 2.37962E+05-4.73648E+01 5.07577E+02-6.45771E+02 6.81717E-05 1.68046E-07
 -1       793 2.38011E+05 6.80283E+01 3.19806E+02-7.10036E+02 1.09929E-04 3.02629E-07
 -1       794 2.37981E+05-1.50776E+01 2.17400E+02-6.36762E+02 5.50937E-05 1.43991E-07
 -1       795 2.38015E+05 8.13588E+01 2.86207E+02-7.38911E+02 1.81212E-07 1.87866E-08
 -1       796 2.37958E+05-6.06870E+01 4.11654E+02-6.16896E+02 7.78232E-09 1.17970E-08
 -1       797 2.38197E+05 4.57505E+02 9.56539E+02-7.97148E+02 4.77278E-09 1.61201E-08
 -1       798 2.37798E+05-3.90952E+02 1.50511E+03-5.78523E+02 9.01943E-09 8.80652E-09
 -1       799 2.39326E+05 2.90013E+03 4.09969E+03-9.06102E+02 2.04364E-09 6.09788E-09
 -1       800 2.36828E+05-2.50138E+03 5.78875E+03-5.07935E+02 1.63062E-09-1.65614E-08
 -1       801-3.44905E+05-1.15239E+07-1.77669E+06 2.00610E+06 6.99947E-08-7.97445E-08
 -1       802 1.26475E+06 1.57174E+07 4.12205E+06-2.68713E+06-2.17769E-08-4.85015E-08
 -1       803-8.35084E+05-2.04409E+07-3.21906E+06 1.19447E+06 1.88993E-07 5.44032E-08
 -1       804 6.08715E+05 1.08424E+07 3.16945E+06 6.40469E+05-3.08210E-08-1.52718E-07
 -1       805 1.84478E+05-6.61379E+06-3.94570E+05-1.32993E+06-1.21057E-07-1.02040E-07
 -1       806-2.99486E+05-6.96380E+04-2.63430E+04-1.31619E+05-3.95949E-09 6.02085E-09
 -1       807-3.00163E+05-6.67396E+04-1.29415E+04-1.39648E+05 1.51326E-08 9.42066E-09
 -1       808-3.00292E+05-6.00637E+04-5.48943E+03-1.36025E+05-9.96238E-10 1.84659E-08
 -1       809-2.97371E+05-6.31775E+04-2.68329E+03-1.40061E+05-1.16831E-08 1.24694E-08
 -1       810-3.00414E+05-5.97235E+04-1.22883E+03-1.36218E+05 9.36257E-09 1.65176E-08
 -1       811-2.97155E+05-6.30393E+04-6.09665E+02-1.40033E+05 1.17370E-09 1.60046E-08
 -1       812-3.00431E+05-5.97495E+04-3.05236E+02-1.36215E+05-3.17550E-09 4.39268E-08
 -1       813-2.97123E+05-6.30453E+04-1.94436E+02-1.40013E+05-8.39736E-09-2.39893E-08
 -1       814-3.00421E+05-5.97625E+04-1.85854E+02-1.36208E+05 1.01863E-10-1.86992E-08
 -1       815-2.97118E+05-6.30515E+04-2.93764E+02-1.40001E+05 6.66660E-09-1.54614E-11
 -1       816-3.00392E+05-5.97662E+04-5.53422E+02-1.36198E+05 8.19364E-09 1.65865E-08
 -1       817-2.97202E+05-6.31078E+04-1.18604E+03-1.39979E+05-2.26719E-08-2.84854E-08
 -1       818-3.00306E+05-5.99423E+04-2.41906E+03-1.36114E+05-8.16908E-09-1.57033E-08
 -1       819-2.98534E+05-6.45505E+04-5.69037E+03-1.39625E+05-5.33282E-09-2.74877E-08
 -1       820-2.99808E+05-6.42737E+04-1.15834E+04-1.34299E+05-3.48246E-09-2.55477E-09
 -1       821-3.92536E+05 2.15059E+04-5.12252E+04 3.77516E+03 2.33587E-08 4.82032E-09
 -1       822-4.08078E+05-2.49757E+04-3.50791E+04-8.74095E+03 1.21490E-08-9.38098E-09
 -1       823-3.98119E+05 3.44632E+03-1.31390E+04 6.91353E+03-2.30670E-08 1.29485E-08
 -1       824-4.00666E+05-3.95050E+03-8.08051E+03-1.14346E+04 1.76865E-09 1.92703E-08
 -1       825-4.00006E+05 5.47360E+02-3.52505E+03 6.46962E+03 4.12826E-08-3.16436E-09
 -1       826-3.95649E+05-4.87961E+02-1.19978E+03-7.24465E+03 5.33505E-08 2.81989E-09
 -1       827-4.03045E+05-8.72909E+01-1.77098E+03 2.72263E+03 2.38808E-08 9.53250E-09
 -1       828-3.92904E+05 4.78845E+01 4.24118E+02 1.44505E+03-9.96420E-09 6.05952E-09
 -1       829-4.02684E+05-4.20975E+01-1.70216E+03-2.21996E+03 3.60257E-09-5.05341E-09
 -1       830-3.96389E+05-5.91837E+02-1.38675E+03 9.68048E+03 2.81133E-09 1.58768E-08
 -1       831-3.99647E+05 6.23129E+02-3.48903E+03-5.51245E+03-6.92454E-09 2.53469E-08
 -1       832-4.00650E+05-4.08516E+03-8.20029E+03 1.27579E+04-4.66073E-09 2.54663E-08
 -1       833-3.98495E+05 3.50596E+03-1.33927E+04-5.29777E+03-1.31507E-09 3.30965E-09
 -1       834-4.07393E+05-2.53383E+04-3.54084E+04 8.86930E+03-5.78837E-09-3.77349E-09
 -1       835-3.92824E+05 2.17916E+04-5.20050E+04-1.62340E+03 4.85829E-09-1.43336E-09
 -1       836-1.66661E+03 4.08134E+05 2.54715E+04-2.91219E+04-9.87711E-09 1.44300E-08
 -1       837 5.27675E+03 4.16176E+05 2.12129E+04-5.94842E+04-1.07552E-08-1.46317E-08
 -1       838-6.65468E+02 4.10414E+05 2.11251E+04-2.90186E+04-9.25593E-09 2.39309E-08
 -1       839 1.29529E+04 4.21869E+05 3.94819E+04-5.95298E+04-1.04274E-08 1.98953E-08
 -1       840-4.11973E+03 4.02346E+05 6.27418E+04-2.90864E+04-9.55697E-09 1.13735E-08
 -1       856-4.60384E+04 7.80070E+03-2.05557E+04-3.68797E+02 7.77140E-09 1.31977E-08
 -1       857-5.44973E+04-9.17329E+03-1.41500E+04 5.69060E+03 4.89183E-09-3.75758E-09
 -1       858-4.93920E+04 1.09445E+03-5.33354E+03-3.93564E+02 8.45750E-09-1.12286E-08
 -1       859-5.06491E+04-1.29511E+03-3.21814E+03 5.72660E+03-2.91436E-09 9.21375E-10
 -1       860-4.98930E+04 1.53769E+02-1.34811E+03-4.04378E+02 1.36447E-09-7.11111E-10
 -1       861-5.00730E+04-1.90880E+02-7.40291E+02 5.74130E+03 7.16878E-09-6.25339E-09
 -1       862-4.99714E+04 2.12465E+01-3.05080E+02-4.08211E+02-3.62072E-09-3.86913E-09
 -1       863-4.99765E+04-2.83724E+01-1.05110E+02 5.74371E+03-9.63379E-09-6.94753E-09
 -1       864-4.99901E+04-4.99606E+00 5.94471E+01-4.06788E+02-6.69218E-09-1.07970E-08
 -1       865-4.99186E+04 5.69128E+01 2.78277E+02 5.73509E+03-7.07502E-09 1.11422E-08
 -1       866-5.00271E+04-6.39462E+01 5.53900E+02-3.99589E+02-3.80953E-09-4.72735E-09
 -1       867-4.96601E+04 5.25428E+02 1.35881E+03 5.71561E+03-1.70758E-10-5.75176E-09
 -1       868-5.02436E+04-4.64797E+02 2.25696E+03-3.87305E+02-2.47786E-09-5.02644E-09
 -1       869-4.80071E+04 3.86661E+03 6.00770E+03 5.68422E+03 2.25782E-09-2.45395E-08
 -1       870-5.16723E+04-3.31402E+03 8.71891E+03-3.68031E+02-5.54746E-09-3.48155E-09
 -1       871-5.47123E+03-2.69388E+04-2.00138E+04 1.32547E+05-1.07066E-08 2.04363E-08
 -1       872-1.79842E+03-3.16441E+04-8.45931E+03 1.71882E+05-1.59544E-08-8.68386E-09
 -1       873 5.90480E+02-2.93247E+04 4.11763E+02 1.32256E+05-9.87802E-09-6.31871E-10
 -1       874 3.51690E+03-2.70034E+04 9.58971E+03 1.71899E+05-1.99198E-08 3.12466E-08
 -1       875 6.95904E+03-3.16227E+04 2.17882E+04 1.32499E+05-8.89304E-09 1.96305E-08
 -1       876 2.94967E+05 4.96538E+04 1.52579E+04 1.18289E+05 1.05623E-08-8.31551E-09
 -1       877 2.95953E+05 5.28902E+04 8.14836E+03 1.22701E+05 1.81869E-08 3.96358E-09
 -1       878 2.96396E+05 4.79612E+04 3.41369E+03 1.19536E+05-6.72753E-09-7.92761E-09
 -1       879 2.93878E+05 5.08211E+04 1.70087E+03 1.22805E+05-5.06907E-09-2.25464E-09
 -1       880 2.96498E+05 4.79438E+04 7.92094E+02 1.19587E+05 1.05592E-09 6.62340E-10
 -1       881 2.93740E+05 5.07327E+04 4.22767E+02 1.22781E+05-6.59497E-10-1.42217E-09
 -1       882 2.96507E+05 4.79573E+04 2.70002E+02 1.19588E+05 1.29171E-09-1.44108E-08
 -1       883 2.93730E+05 5.07280E+04 2.89576E+02 1.22773E+05-5.14865E-09-4.96198E-09
 -1       884 2.96501E+05 4.79546E+04 4.60001E+02 1.19589E+05 2.05773E-10-4.86921E-09
 -1       885 2.93767E+05 5.07344E+04 9.24444E+02 1.22784E+05-9.73881E-09-4.44936E-09
 -1       886 2.96465E+05 4.79277E+04 1.86297E+03 1.19585E+05-6.54695E-09-4.75325E-09
 -1       887 2.94094E+05 5.09489E+04 4.06928E+03 1.22831E+05 1.64614E-08 3.01006E-08
 -1       888 2.96207E+05 4.79732E+04 8.19965E+03 1.19455E+05 1.22988E-08-9.94805E-09
 -1       889 2.98976E+05 5.60253E+04 1.95874E+04 1.22681E+05 4.30134E-09-1.39362E-08
 -1       890 2.92856E+05 5.19533E+04 3.66867E+04 1.16340E+05-5.80394E-09-1.65001E-08
 -1       891-5.42843E+01-1.62973E+05-2.00125E+03 2.66263E+04-2.46905E-09-8.15339E-09
 -1       892-1.22123E+02-1.63521E+05-2.14987E+03 4.04942E+04-7.62611E-10 6.49447E-09
 -1       893 7.93497E+01-1.63038E+05-3.04440E+03 2.66340E+04-7.11816E-09 2.58387E-09
 -1       894-1.46047E+03-1.64672E+05-6.30117E+03 4.03428E+04-2.19893E-09 1.39917E-08
 -1       895-1.16627E+03-1.61726E+05-1.10962E+04 2.67812E+04-8.65123E-09 8.38554E-09
 -1       956-3.79616E+05-5.85204E+03-1.42845E+04 3.51438E+04 1.05920E-08-5.68934E-09
 -1       957-3.82410E+05-2.11519E+03-7.33136E+03 4.21756E+04 3.85580E-09 5.64341E-10
 -1       958-3.80909E+05-3.16668E+02-3.30444E+03 3.49513E+04-9.29140E-09 8.86303E-09
 -1       959-3.81110E+05-2.13716E+02-1.68669E+03 4.24057E+04 2.80261E-09-7.47787E-09
 -1       960-3.81042E+05-1.03412E+02-8.22362E+02 3.49311E+04 1.37024E-08 6.78165E-09
 -1       961-3.81033E+05-1.31733E+02-4.34666E+02 4.24299E+04 1.65219E-08-1.20526E-08
 -1       962-3.81077E+05-1.01151E+02-2.46879E+02 3.49276E+04 4.77121E-09-9.64519E-10
 -1       963-3.81038E+05-1.24386E+02-1.94326E+02 4.24346E+04 1.28512E-08-1.24994E-08
 -1       964-3.81086E+05-9.57659E+01-2.31819E+02 3.49265E+04-1.00465E-09-8.05221E-09
 -1       965-3.81053E+05-1.20027E+02-3.97200E+02 4.24344E+04-1.78638E-08 4.98858E-09
 -1       966-3.81071E+05-8.75055E+01-7.44365E+02 3.49279E+04 6.81257E-09-6.59861E-09
 -1       967-3.81142E+05-1.83777E+02-1.52566E+03 4.24192E+04 9.63360E-09 1.72608E-08
 -1       968-3.80965E+05-2.70767E+02-2.98647E+03 3.49413E+04 1.71349E-09-1.83157E-08
 -1       969-3.82334E+05-1.89508E+03-6.62953E+03 4.22591E+04-1.46565E-09-1.53219E-08
 -1       970-3.79808E+05-5.27065E+03-1.29152E+04 3.50747E+04-2.77305E-09 9.40145E-09
 -1       971-3.46142E+05-1.70586E+03-9.08920E+03 1.51504E+04 9.34233E-09-1.61645E-08
 -1       972-3.48322E+05-1.26899E+03-4.95003E+03 2.08618E+04 2.90129E-09-3.48336E-09
 -1       973-3.47155E+05-8.01781E+01-2.21720E+03 1.50351E+04 3.79168E-09 6.26187E-10
 -1       974-3.47278E+05-1.07117E+02-1.14964E+03 2.09944E+04-3.85216E-09 1.52595E-08
 -1       975-3.47234E+05-3.67282E+01-5.75610E+02 1.50233E+04-3.35376E-09 2.09448E-08
 -1       976-3.47217E+05-5.88162E+01-3.34004E+02 2.10096E+04 1.13346E-08 8.33495E-09
 -1       977-3.47250E+05-3.62111E+01-2.45719E+02 1.50200E+04-1.68166E-09-8.50036E-09
 -1       978-3.47222E+05-5.29164E+01-2.92126E+02 2.10143E+04-8.21410E-09-1.13351E-08
 -1       979-3.47249E+05-2.78628E+01-4.73235E+02 1.50186E+04-4.04839E-10 5.45845E-09
 -1       980-3.47257E+05-4.99594E+01-9.16195E+02 2.10153E+04-3.28758E-09 1.01605E-08
 -1       981-3.47220E+05-4.94801E+00-1.77569E+03 1.50191E+04 1.16598E-08 1.05421E-08
 -1       982-3.47501E+05-1.81068E+02-3.67100E+03 2.10088E+04 1.30457E-08 9.84542E-10
 -1       983-3.46997E+05-1.18470E+02-7.13306E+03 1.50248E+04 3.42834E-09-5.80894E-09
 -1       984-3.50933E+05-3.90608E+03-1.59744E+04 2.09252E+04-6.62658E-09 9.04856E-09
 -1       985-3.43767E+05-5.33775E+03-2.93339E+04 1.50883E+04-5.28735E-09 1.10576E-08
 -3
    1PSTEP                        41          21           1          
  100CL  121 6.61552E-01         409                     0   21           1
 -4  DISP        4    1
 -5  D1          1    2    1    0
 -5  D2          1    2    2    0
 -5  D3          1    2    3    0
 -5  ALL         1    2    0    0    1ALL
 -1         1 2.64640E-03 0.00000E+00 0.00000E+00
 -1         2 1.41943E-03 2.32659E-27 0.00000E+00
 -1         3 3.52096E-04-1.29142E-27-1.32349E-23
 -1         5 1.68135E-04 3.03343E-27 0.00000E+00
 -1         8 2.63419E-03-4.30893E-07 0.00000E+00
 -1         9 2.62669E-03-1.54149E-04 0.00000E+00
 -1        10 3.18830E-04-3.27782E-06 6.61744E-24
 -1        12 1.70973E-04 8.93469E-07 0.00000E+00
 -1        15 2.62003E-03-4.59164E-07 2.06795E-25
 -1        16 2.67953E-03-1.55774E-04 0.00000E+00
 -1        17 2.15276E-04-7.56521E-06 0.00000E+00
 -1        18 1.77870E-04 4.75205E-05 0.00000E+00
 -1        19 1.79487E-04 1.77670E-06 0.00000E+00
 -1        20 1.79608E-04-2.11046E-05 0.00000E+00
 -1        21 1.78667E-04-4.84244E-05 0.00000E+00
 -1        24 3.05565E-05-1.19261E-05 0.00000E+00
 -1        25 1.92641E-04 4.78019E-05 0.00000E+00
 -1        26 1.93902E-04 2.47455E-06 0.00000E+00
 -1        27 1.91464E-04-2.47528E-05 0.00000E+00
 -1        28 1.91172E-04-4.90525E-05 0.00000E+00
 -1        32 0.00000E+00 0.00000E+00 0.00000E+00
 -1        33 2.06974E-04 3.30135E-06 0.00000E+00
 -1        34 2.04822E-04-2.48283E-05 0.00000E+00
 -1        35 2.02869E-04-4.94025E-05 0.00000E+00
 -1        51 2.64558E-03-8.82757E-08 0.00000E+00
 -1        52 2.64410E-03-1.58774E-07 0.00000E+00
 -1        53 2.64207E-03-2.26055E-07 0.00000E+00
 -1        54 2.63965E-03-2.92344E-07 0.00000E+00
 -1        55 2.63697E-03-3.59376E-07-1.65436E-24
 -1        56 2.64040E-03 4.43943E-06 5.29396E-23
 -1        57 2.63014E-03 1.94771E-05 0.00000E+00
 -1        58 2.61708E-03 4.16124E-05-1.05879E-22
 -1        59 2.60283E-03 6.66412E-05 5.29396E-23
 -1        60 2.58929E-03 8.98769E-05 1.05879E-22
 -1        61 2.57828E-03 1.06777E-04 5.29396E-23
 -1        62 2.57106E-03 1.13923E-04 1.05879E-22
 -1        63 2.56849E-03 1.08755E-04 0.00000E+00
 -1        64 2.57052E-03 9.09291E-05 0.00000E+00
 -1        65 2.57672E-03 6.12595E-05 5.29396E-23
 -1        66 2.58593E-03 2.27343E-05 0.00000E+00
 -1        67 2.59683E-03-2.08285E-05 0.00000E+00
 -1        68 2.60782E-03-6.46736E-05 0.00000E+00
 -1        69 2.61733E-03-1.04011E-04 0.00000E+00
 -1        70 2.62397E-03-1.34901E-04 0.00000E+00
 -1        86 1.49524E-03-5.05421E-06 0.00000E+00
 -1        87 1.71553E-03-3.09534E-05 1.32349E-23
 -1        88 2.01163E-03-7.51854E-05 2.64698E-23
 -1        89 2.31123E-03-1.20480E-04 0.00000E+00
 -1        90 2.54007E-03-1.48196E-04 5.29396E-23
 -1       121 3.51163E-04-5.27100E-07 1.32349E-23
 -1       122 3.48365E-04-1.05754E-06-6.61744E-24
 -1       123 3.43713E-04-1.59462E-06-1.32349E-23
 -1       124 3.37224E-04-2.14163E-06 6.61744E-24
 -1       125 3.28919E-04-2.70146E-06 0.00000E+00
 -1       191 1.68214E-04 1.49057E-07 0.00000E+00
 -1       192 1.68451E-04 2.98087E-07 0.00000E+00
 -1       193 1.68845E-04 4.47071E-07 0.00000E+00
 -1       194 1.69396E-04 5.95981E-07-1.65436E-24
 -1       195 1.70106E-04 7.44789E-07 3.30872E-24
 -1       251 2.63382E-03 2.66214E-06 0.00000E+00
 -1       252 2.63344E-03 7.10567E-06 6.61744E-24
 -1       253 2.63305E-03 1.15401E-05 1.32349E-23
 -1       254 2.63267E-03 1.46058E-05 0.00000E+00
 -1       255 2.63230E-03 1.51959E-05 0.00000E+00
 -1       256 2.63192E-03 1.22421E-05-6.61744E-24
 -1       257 2.63152E-03 5.32987E-06-1.32349E-23
 -1       258 2.63108E-03-5.89427E-06 0.00000E+00
 -1       259 2.63059E-03-2.09887E-05 0.00000E+00
 -1       260 2.63005E-03-3.94520E-05-6.61744E-24
 -1       261 2.62947E-03-6.01608E-05 0.00000E+00
 -1       262 2.62886E-03-8.19581E-05 6.61744E-24
 -1       263 2.62826E-03-1.03485E-04 0.00000E+00
 -1       264 2.62769E-03-1.23388E-04 0.00000E+00
 -1       265 2.62717E-03-1.40614E-04 0.00000E+00
 -1       266 2.63183E-03-4.41705E-07 0.00000E+00
 -1       267 2.62947E-03-4.45674E-07 0.00000E+00
 -1       268 2.62711E-03-4.50075E-07 8.27181E-25
 -1       269 2.62475E-03-4.53193E-07 2.06795E-25
 -1       270 2.62239E-03-4.56281E-07 0.00000E+00
 -1       271 2.63309E-03 5.87791E-07 1.32349E-23
 -1       272 2.63277E-03-5.34567E-07-6.61744E-24
 -1       273 2.63320E-03-3.68656E-06 0.00000E+00
 -1       274 2.63434E-03-8.74791E-06 0.00000E+00
 -1       275 2.63613E-03-1.55793E-05 0.00000E+00
 -1       276 2.63851E-03-2.40278E-05-1.32349E-23
 -1       277 2.64143E-03-3.39260E-05 0.00000E+00
 -1       278 2.64480E-03-4.50943E-05-1.32349E-23
 -1       279 2.64857E-03-5.73419E-05 0.00000E+00
 -1       280 2.65265E-03-7.04691E-05 0.00000E+00
 -1       281 2.65698E-03-8.42681E-05 0.00000E+00
 -1       282 2.66147E-03-9.85259E-05-1.32349E-23
 -1       283 2.66605E-03-1.13025E-04 0.00000E+00
 -1       284 2.67064E-03-1.27546E-04 6.61744E-24
 -1       285 2.67516E-03-1.41869E-04-1.32349E-23
 -1       301 2.63628E-03-1.54449E-04-1.32349E-23
 -1       302 2.64437E-03-1.54709E-04 0.00000E+00
 -1       303 2.65185E-03-1.54960E-04-1.32349E-23
 -1       304 2.65961E-03-1.55213E-04 0.00000E+00
 -1       305 2.66854E-03-1.55477E-04 0.00000E+00
 -1       306 2.66380E-03-3.04785E-04 0.00000E+00
 -1       307 2.72785E-03-7.12578E-04 0.00000E+00
 -1       308 2.77589E-03-1.31085E-03 0.00000E+00
 -1       309 2.80147E-03-2.00527E-03-5.29396E-23
 -1       310 2.83379E-03-2.67161E-03 1.05879E-22
 -1       311 2.89334E-03-3.18814E-03-5.29396E-23
 -1       312 2.95174E-03-3.47469E-03 0.00000E+00
 -1       313 2.94997E-03-3.49238E-03 0.00000E+00
 -1       314 2.81574E-03-3.25201E-03 0.00000E+00
 -1       315 2.50811E-03-2.81588E-03 0.00000E+00
 -1       316 2.04409E-03-2.25957E-03 0.00000E+00
 -1       317 1.48741E-03-1.65225E-03 5.29396E-23
 -1       318 9.49993E-04-1.05521E-03-1.05879E-22
 -1       319 5.38058E-04-5.33578E-04 0.00000E+00
 -1       320 2.95301E-04-1.60499E-04 1.05879E-22
 -1       336 3.06759E-04-3.91699E-06 0.00000E+00
 -1       337 2.92520E-04-4.58407E-06 6.61744E-24
 -1       338 2.76174E-04-5.28163E-06 0.00000E+00
 -1       339 2.57795E-04-6.01096E-06 0.00000E+00
 -1       340 2.37465E-04-6.77662E-06 0.00000E+00
 -1       406 1.71998E-04 1.04199E-06 3.30872E-24
 -1       407 1.73180E-04 1.19028E-06 1.65436E-24
 -1       408 1.74521E-04 1.33829E-06 0.00000E+00
 -1       409 1.76019E-04 1.48578E-06 8.27181E-25
 -1       410 1.77675E-04 1.63242E-06-2.48154E-24
 -1       521 2.71733E-03-3.15843E-04 0.00000E+00
 -1       522 2.77974E-03-7.43853E-04 0.00000E+00
 -1       523 2.82155E-03-1.36973E-03 0.00000E+00
 -1       524 2.83818E-03-2.09246E-03 5.29396E-23
 -1       525 2.86279E-03-2.78504E-03 1.05879E-22
 -1       526 2.91884E-03-3.32321E-03 0.00000E+00
 -1       527 2.97679E-03-3.62014E-03 2.11758E-22
 -1       528 2.97276E-03-3.63603E-03 0.00000E+00
 -1       529 2.82687E-03-3.38163E-03 0.00000E+00
 -1       530 2.49592E-03-2.92697E-03 0.00000E+00
 -1       531 1.99773E-03-2.35137E-03 0.00000E+00
 -1       532 1.40234E-03-1.72669E-03 5.29396E-23
 -1       533 8.26953E-04-1.11178E-03 0.00000E+00
 -1       534 3.82812E-04-5.69618E-04 0.00000E+00
 -1       535 1.19639E-04-1.77605E-04-2.11758E-22
 -1       536 2.14391E-04 3.06649E-05 0.00000E+00
 -1       537 2.11970E-04 9.90054E-05 0.00000E+00
 -1       538 2.08111E-04 1.86945E-04 3.30872E-24
 -1       539 2.03451E-04 2.83871E-04-1.65436E-24
 -1       540 1.99196E-04 3.76225E-04 3.30872E-24
 -1       541 1.96398E-04 4.50468E-04-1.65436E-24
 -1       542 1.95096E-04 4.98625E-04-3.30872E-24
 -1       543 1.94813E-04 5.12898E-04 1.65436E-24
 -1       544 1.94461E-04 4.93936E-04 0.00000E+00
 -1       545 1.93015E-04 4.42667E-04-1.65436E-24
 -1       546 1.90215E-04 3.68309E-04 3.30872E-24
 -1       547 1.86338E-04 2.80228E-04 1.65436E-24
 -1       548 1.82462E-04 1.92145E-04 0.00000E+00
 -1       549 1.79663E-04 1.17784E-04-1.65436E-24
 -1       550 1.78220E-04 6.65051E-05-1.65436E-24
 -1       551 1.89149E-04-8.16089E-06 0.00000E+00
 -1       552 1.59896E-04-8.83700E-06 0.00000E+00
 -1       553 1.28455E-04-9.57392E-06 8.27181E-24
 -1       554 9.57825E-05-1.03496E-05-6.61744E-24
 -1       555 6.28329E-05-1.11361E-05 0.00000E+00
 -1       556 2.07207E-04 1.30666E-05 0.00000E+00
 -1       557 2.00576E-04 3.00893E-05 0.00000E+00
 -1       558 1.95261E-04 4.37654E-05 0.00000E+00
 -1       559 1.91138E-04 5.43793E-05 0.00000E+00
 -1       560 1.88087E-04 6.22155E-05 0.00000E+00
 -1       561 1.85990E-04 6.75612E-05 0.00000E+00
 -1       562 1.84731E-04 7.07047E-05 0.00000E+00
 -1       563 1.84196E-04 7.19349E-05 0.00000E+00
 -1       564 1.84271E-04 7.15419E-05 0.00000E+00
 -1       565 1.84846E-04 6.98162E-05 0.00000E+00
 -1       566 1.85809E-04 6.70491E-05 0.00000E+00
 -1       567 1.87051E-04 6.35322E-05 0.00000E+00
 -1       568 1.88464E-04 5.95573E-05 0.00000E+00
 -1       569 1.89938E-04 5.54164E-05-4.13590E-25
 -1       570 1.91366E-04 5.14016E-05 0.00000E+00
 -1       571 1.77968E-04 4.46111E-05-4.13590E-25
 -1       572 1.78068E-04 4.16139E-05 1.24077E-24
 -1       573 1.78169E-04 3.85483E-05 8.27181E-25
 -1       574 1.78269E-04 3.54347E-05 8.27181E-25
 -1       575 1.78370E-04 3.22935E-05 0.00000E+00
 -1       576 1.78470E-04 2.91451E-05-1.65436E-24
 -1       577 1.78571E-04 2.60100E-05 0.00000E+00
 -1       578 1.78672E-04 2.29089E-05 0.00000E+00
 -1       579 1.78773E-04 1.98622E-05 0.00000E+00
 -1       580 1.78874E-04 1.68904E-05-6.61744E-24
 -1       581 1.78975E-04 1.40140E-05 0.00000E+00
 -1       582 1.79077E-04 1.12536E-05 0.00000E+00
 -1       583 1.79179E-04 8.62965E-06-1.32349E-23
 -1       584 1.79281E-04 6.16240E-06 0.00000E+00
 -1       585 1.79384E-04 3.87193E-06 6.61744E-24
 -1       586 1.80366E-04 4.75690E-05 0.00000E+00
 -1       587 1.82792E-04 4.76173E-05 0.00000E+00
 -1       588 1.85191E-04 4.76655E-05 8.27181E-25
 -1       589 1.87603E-04 4.77130E-05 4.13590E-25
 -1       590 1.90073E-04 4.77594E-05 0.00000E+00
 -1       591 1.78871E-04 4.47229E-05 1.03398E-25
 -1       592 1.79879E-04 4.18916E-05 0.00000E+00
 -1       593 1.80896E-04 3.90343E-05-8.27181E-25
 -1       594 1.81920E-04 3.61575E-05 0.00000E+00
 -1       595 1.82949E-04 3.32677E-05 0.00000E+00
 -1       596 1.83980E-04 3.03715E-05 8.27181E-25
 -1       597 1.85011E-04 2.74752E-05-1.65436E-24
 -1       598 1.86039E-04 2.45854E-05 0.00000E+00
 -1       599 1.87063E-04 2.17084E-05-1.65436E-24
 -1       600 1.88079E-04 1.88508E-05-8.27181E-25
 -1       601 1.89087E-04 1.60190E-05-1.65436E-24
 -1       602 1.90082E-04 1.32194E-05 0.00000E+00
 -1       603 1.91063E-04 1.04586E-05 0.00000E+00
 -1       604 1.92027E-04 7.74299E-06 1.03398E-25
 -1       605 1.92973E-04 5.07904E-06 0.00000E+00
 -1       606 1.79499E-04-5.42012E-08-3.30872E-24
 -1       607 1.79507E-04-1.80807E-06 1.65436E-24
 -1       608 1.79515E-04-3.48941E-06 0.00000E+00
 -1       609 1.79522E-04-5.10334E-06 0.00000E+00
 -1       610 1.79529E-04-6.65501E-06 0.00000E+00
 -1       611 1.79536E-04-8.14962E-06 0.00000E+00
 -1       612 1.79543E-04-9.59236E-06 0.00000E+00
 -1       613 1.79551E-04-1.09885E-05 0.00000E+00
 -1       614 1.79558E-04-1.23432E-05-1.65436E-24
 -1       615 1.79565E-04-1.36617E-05 8.27181E-25
 -1       616 1.79572E-04-1.49492E-05 0.00000E+00
 -1       617 1.79580E-04-1.62109E-05 4.13590E-25
 -1       618 1.79587E-04-1.74521E-05 0.00000E+00
 -1       619 1.79594E-04-1.86780E-05-2.06795E-25
 -1       620 1.79602E-04-1.98938E-05 0.00000E+00
 -1       621 1.81540E-04 1.89367E-06-1.65436E-24
 -1       622 1.83791E-04 2.01107E-06 8.27181E-25
 -1       623 1.86197E-04 2.12813E-06 0.00000E+00
 -1       624 1.88713E-04 2.24474E-06 0.00000E+00
 -1       625 1.91296E-04 2.36097E-06-3.30872E-24
 -1       626 1.80286E-04-1.87647E-08 3.30872E-24
 -1       627 1.81066E-04-1.76123E-06-1.65436E-24
 -1       628 1.81829E-04-3.45787E-06 3.30872E-24
 -1       629 1.82579E-04-5.11612E-06 1.65436E-24
 -1       630 1.83316E-04-6.74350E-06 0.00000E+00
 -1       631 1.84045E-04-8.34750E-06 0.00000E+00
 -1       632 1.84768E-04-9.93560E-06-3.30872E-24
 -1       633 1.85488E-04-1.15153E-05 0.00000E+00
 -1       634 1.86207E-04-1.30942E-05-3.30872E-24
 -1       635 1.86929E-04-1.46797E-05 1.65436E-24
 -1       636 1.87656E-04-1.62793E-05 0.00000E+00
 -1       637 1.88391E-04-1.79006E-05 0.00000E+00
 -1       638 1.89137E-04-1.95511E-05 0.00000E+00
 -1       639 1.89897E-04-2.12382E-05-1.65436E-24
 -1       640 1.90672E-04-2.29696E-05-1.65436E-24
 -1       656 1.81043E-04-2.16973E-05 6.61744E-24
 -1       657 1.82886E-04-2.23142E-05 6.61744E-24
 -1       658 1.85005E-04-2.29298E-05 1.32349E-23
 -1       659 1.87260E-04-2.35453E-05 0.00000E+00
 -1       660 1.89473E-04-2.41625E-05-6.61744E-24
 -1       661 1.80145E-04-2.23604E-05 0.00000E+00
 -1       662 1.80719E-04-2.37090E-05-8.27181E-25
 -1       663 1.81326E-04-2.51450E-05 0.00000E+00
 -1       664 1.81964E-04-2.66616E-05 0.00000E+00
 -1       665 1.82629E-04-2.82530E-05 0.00000E+00
 -1       666 1.83321E-04-2.99130E-05 0.00000E+00
 -1       667 1.84035E-04-3.16358E-05 0.00000E+00
 -1       668 1.84771E-04-3.34155E-05 0.00000E+00
 -1       669 1.85526E-04-3.52466E-05 0.00000E+00
 -1       670 1.86298E-04-3.71235E-05 8.27181E-25
 -1       671 1.87086E-04-3.90409E-05-1.65436E-24
 -1       672 1.87886E-04-4.09934E-05-8.27181E-25
 -1       673 1.88697E-04-4.29757E-05 1.65436E-24
 -1       674 1.89517E-04-4.49830E-05 0.00000E+00
 -1       675 1.90344E-04-4.70097E-05 2.06795E-25
 -1       676 1.80758E-04-4.85297E-05-3.30872E-24
 -1       677 1.82848E-04-4.86350E-05 0.00000E+00
 -1       678 1.84936E-04-4.87401E-05-3.30872E-24
 -1       679 1.87020E-04-4.88450E-05 1.65436E-24
 -1       680 1.89099E-04-4.89499E-05 1.65436E-24
 -1       771 1.84863E-05 1.51012E-05 0.00000E+00
 -1       772 8.33886E-06 3.72929E-05 0.00000E+00
 -1       773 2.09890E-08 5.48825E-05 0.00000E+00
 -1       774-6.59378E-06 6.81318E-05 2.64698E-23
 -1       775-1.16292E-05 7.73133E-05 0.00000E+00
 -1       776-1.52139E-05 8.27162E-05-2.64698E-23
 -1       777-1.74762E-05 8.46401E-05 5.29396E-23
 -1       778-1.85471E-05 8.33985E-05 0.00000E+00
 -1       779-1.85566E-05 7.93136E-05 1.05879E-22
 -1       780-1.76370E-05 7.27189E-05-2.64698E-23
 -1       781-1.59195E-05 6.39550E-05 0.00000E+00
 -1       782-1.35369E-05 5.33715E-05 0.00000E+00
 -1       783-1.06210E-05 4.13223E-05 0.00000E+00
 -1       784-7.30461E-06 2.81679E-05-2.64698E-23
 -1       785-3.71994E-06 1.42718E-05-5.29396E-23
 -1       786 1.92715E-04 4.49495E-05 0.00000E+00
 -1       787 1.92793E-04 4.20797E-05-8.27181E-25
 -1       788 1.92871E-04 3.91972E-05 0.00000E+00
 -1       789 1.92950E-04 3.63067E-05 0.00000E+00
 -1       790 1.93029E-04 3.34116E-05 0.00000E+00
 -1       791 1.93109E-04 3.05149E-05 1.65436E-24
 -1       792 1.93188E-04 2.76197E-05-3.30872E-24
 -1       793 1.93267E-04 2.47288E-05-1.65436E-24
 -1       794 1.93346E-04 2.18460E-05 0.00000E+00
 -1       795 1.93426E-04 1.89750E-05-1.65436E-24
 -1       796 1.93505E-04 1.61220E-05 0.00000E+00
 -1       797 1.93584E-04 1.32932E-05 0.00000E+00
 -1       798 1.93664E-04 1.04993E-05-3.30872E-24
 -1       799 1.93743E-04 7.75158E-06-1.65436E-24
 -1       800 1.93823E-04 5.06989E-06 0.00000E+00
 -1       801 1.34734E-04 4.36874E-05 0.00000E+00
 -1       802-3.93635E-05 2.66417E-05 0.00000E+00
 -1       803-1.80741E-04 1.37435E-05-5.29396E-23
 -1       804-1.45022E-04 9.83946E-06 0.00000E+00
 -1       805-4.43114E-05 3.01993E-06 0.00000E+00
 -1       806 1.93596E-04 4.48769E-05 0.00000E+00
 -1       807 1.94554E-04 4.19295E-05 1.65436E-24
 -1       808 1.95517E-04 3.89691E-05 0.00000E+00
 -1       809 1.96480E-04 3.60048E-05 0.00000E+00
 -1       810 1.97441E-04 3.30453E-05-3.30872E-24
 -1       811 1.98398E-04 3.00993E-05 0.00000E+00
 -1       812 1.99346E-04 2.71757E-05-3.30872E-24
 -1       813 2.00282E-04 2.42830E-05 0.00000E+00
 -1       814 2.01204E-04 2.14301E-05 0.00000E+00
 -1       815 2.02107E-04 1.86255E-05 1.65436E-24
 -1       816 2.02990E-04 1.58781E-05 0.00000E+00
 -1       817 2.03848E-04 1.31965E-05-1.65436E-24
 -1       818 2.04678E-04 1.05894E-05 0.00000E+00
 -1       819 2.05477E-04 8.06547E-06-8.27181E-25
 -1       820 2.06243E-04 5.63330E-06 0.00000E+00
 -1       821 1.93764E-04-1.35540E-06 0.00000E+00
 -1       822 1.93606E-04-7.73173E-06 0.00000E+00
 -1       823 1.93437E-04-1.58130E-05 3.30872E-24
 -1       824 1.93260E-04-2.47468E-05 1.65436E-24
 -1       825 1.93084E-04-3.34435E-05 0.00000E+00
 -1       826 1.92918E-04-4.08144E-05 0.00000E+00
 -1       827 1.92765E-04-4.61424E-05-3.30872E-24
 -1       828 1.92621E-04-4.87230E-05 0.00000E+00
 -1       829 1.92481E-04-4.86199E-05 0.00000E+00
 -1       830 1.92338E-04-4.59133E-05 1.65436E-24
 -1       831 1.92189E-04-4.14114E-05 0.00000E+00
 -1       832 1.92035E-04-3.59338E-05 0.00000E+00
 -1       833 1.91882E-04-3.05732E-05 3.30872E-24
 -1       834 1.91736E-04-2.64218E-05-1.65436E-24
 -1       835 1.91595E-04-2.42342E-05 1.65436E-24
 -1       836 1.96318E-04 2.61129E-06 0.00000E+00
 -1       837 1.98563E-04 2.75175E-06-1.65436E-24
 -1       838 2.00693E-04 2.89224E-06 3.30872E-24
 -1       839 2.02767E-04 3.03205E-06 0.00000E+00
 -1       840 2.04842E-04 3.17165E-06-8.27181E-25
 -1       856 1.91449E-04-2.65550E-05 8.27181E-25
 -1       857 1.91431E-04-2.82198E-05 5.16988E-26
 -1       858 1.91414E-04-2.97683E-05-2.06795E-25
 -1       859 1.91395E-04-3.12219E-05 2.06795E-25
 -1       860 1.91377E-04-3.26019E-05 0.00000E+00
 -1       861 1.91359E-04-3.39297E-05 0.00000E+00
 -1       862 1.91341E-04-3.52268E-05-4.13590E-25
 -1       863 1.91323E-04-3.65145E-05-2.06795E-25
 -1       864 1.91305E-04-3.78145E-05 0.00000E+00
 -1       865 1.91286E-04-3.91480E-05 0.00000E+00
 -1       866 1.91268E-04-4.05367E-05 0.00000E+00
 -1       867 1.91250E-04-4.20017E-05 0.00000E+00
 -1       868 1.91231E-04-4.35646E-05 0.00000E+00
 -1       869 1.91212E-04-4.52466E-05 0.00000E+00
 -1       870 1.91193E-04-4.70688E-05-8.27181E-25
 -1       871 1.93557E-04-2.47608E-05 8.27181E-25
 -1       872 1.95796E-04-2.47723E-05 0.00000E+00
 -1       873 1.98111E-04-2.47847E-05 0.00000E+00
 -1       874 2.00434E-04-2.47978E-05 3.61892E-25
 -1       875 2.02693E-04-2.48114E-05-1.44757E-24
 -1       876 1.92267E-04-2.65404E-05 3.30872E-24
 -1       877 1.93047E-04-2.82594E-05 1.65436E-24
 -1       878 1.93804E-04-2.99178E-05-3.30872E-24
 -1       879 1.94542E-04-3.15233E-05 1.65436E-24
 -1       880 1.95263E-04-3.30834E-05 0.00000E+00
 -1       881 1.95970E-04-3.46056E-05 0.00000E+00
 -1       882 1.96666E-04-3.60975E-05 3.30872E-24
 -1       883 1.97353E-04-3.75666E-05 0.00000E+00
 -1       884 1.98034E-04-3.90204E-05-3.30872E-24
 -1       885 1.98713E-04-4.04664E-05 0.00000E+00
 -1       886 1.99391E-04-4.19121E-05 3.30872E-24
 -1       887 2.00072E-04-4.33651E-05-1.65436E-24
 -1       888 2.00758E-04-4.48328E-05-3.30872E-24
 -1       889 2.01452E-04-4.63230E-05 0.00000E+00
 -1       890 2.02157E-04-4.78430E-05 1.65436E-24
 -1       891 1.93263E-04-4.91114E-05 0.00000E+00
 -1       892 1.95331E-04-4.91704E-05 0.00000E+00
 -1       893 1.97350E-04-4.92293E-05 8.27181E-25
 -1       894 1.99296E-04-4.92879E-05 0.00000E+00
 -1       895 2.01143E-04-4.93461E-05 0.00000E+00
 -1       956 2.06841E-04 1.17954E-06 3.30872E-24
 -1       957 2.06706E-04-8.34059E-07 1.65436E-24
 -1       958 2.06571E-04-2.75160E-06-1.65436E-24
 -1       959 2.06436E-04-4.58593E-06 0.00000E+00
 -1       960 2.06301E-04-6.35001E-06-3.30872E-24
 -1       961 2.06166E-04-8.05676E-06 1.65436E-24
 -1       962 2.06032E-04-9.71917E-06 3.30872E-24
 -1       963 2.05897E-04-1.13502E-05 0.00000E+00
 -1       964 2.05762E-04-1.29630E-05-3.30872E-24
 -1       965 2.05627E-04-1.45703E-05 0.00000E+00
 -1       966 2.05493E-04-1.61853E-05-3.30872E-24
 -1       967 2.05358E-04-1.78209E-05 1.65436E-24
 -1       968 2.05223E-04-1.94901E-05 6.61744E-24
 -1       969 2.05089E-04-2.12059E-05 0.00000E+00
 -1       970 2.04954E-04-2.29811E-05 0.00000E+00
 -1       971 2.04700E-04-2.66837E-05-3.30872E-24
 -1       972 2.04578E-04-2.84477E-05 0.00000E+00
 -1       973 2.04455E-04-3.01303E-05 3.30872E-24
 -1       974 2.04332E-04-3.17421E-05 0.00000E+00
 -1       975 2.04209E-04-3.32936E-05 0.00000E+00
 -1       976 2.04087E-04-3.47954E-05 1.65436E-24
 -1       977 2.03964E-04-3.62580E-05 0.00000E+00
 -1       978 2.03841E-04-3.76920E-05 0.00000E+00
 -1       979 2.03719E-04-3.91079E-05 3.30872E-24
 -1       980 2.03596E-04-4.05163E-05 0.00000E+00
 -1       981 2.03474E-04-4.19279E-05 3.30872E-24
 -1       982 2.03351E-04-4.33532E-05-1.65436E-24
 -1       983 2.03229E-04-4.48028E-05 0.00000E+00
 -1       984 2.03107E-04-4.62872E-05-1.65436E-24
 -1       985 2.02986E-04-4.78170E-05 3.30872E-24
 -3
    1PSTEP                        42          21           1          
  100CL  121 6.61552E-01         409                     0   21           1
 -4  STRESS      6    1
 -5  SXX         1    4    1    1
 -5  SYY         1    4    2    2
 -5  SZZ         1    4    3    3
 -5  SXY         1    4    1    2
 -5  SYZ         1    4    2    3
 -5  SZX         1    4    3    1
 -1         1-5.20067E+06-1.69004E+06-1.11689E+06-1.50733E+06-1.51340E-09 6.49015E-09
 -1         2 1.13405E+06 1.66913E+07 4.02311E+06 5.01583E+06 2.36905E-08 4.90254E-08
 -1         3-1.61463E+03-1.49543E+06 4.06181E+02-2.21134E+03-6.99497E-10-1.88447E-08
 -1         5-1.76488E+02 4.27219E+05 1.17893E+01-2.46816E+00-7.69505E-10 1.30240E-08
 -1         8-6.43833E+05-2.21895E+05-7.66302E+04-2.61204E+05 2.34650E-10 5.76729E-08
 -1         9 1.11729E+07 2.89051E+06 2.51286E+06-5.27779E+05 2.06055E-09-1.87941E-07
 -1        10-2.37042E+03-1.55830E+06-3.70129E+03-1.49798E+04-1.44373E-08-4.00685E-08
 -1        12-1.72153E+02 4.27246E+05 3.93459E+02-1.61267E+01-9.16595E-10 4.87780E-08
 -1        15 1.01083E+03 5.55503E+02 3.26749E+03 1.03215E+00 1.19286E-10-5.32017E-08
 -1        16 2.23307E+07-2.78664E+05 3.05727E+06-2.09387E+06 1.08460E-08 7.25655E-08
 -1        17 8.15754E+06 6.11670E+06 2.20879E+06 5.84227E+06 2.18861E-08 3.46568E-08
 -1        18 2.00545E+05 5.19751E+04 1.70129E+04-1.32734E+05 1.51585E-08-8.64839E-09
 -1        19 1.27365E+05 1.56190E+05-4.85586E+02 2.00520E+04 2.68283E-09-5.03242E-09
 -1        20-8.82192E+04-5.88273E+05-1.32287E+05 2.28828E+04-4.11834E-09 1.44688E-08
 -1        21-4.35886E+01-2.95383E+05-9.17797E+02 4.23715E+02 2.01441E-08-2.32025E-08
 -1        24 1.35533E+07 1.16928E+07 3.76449E+06 1.08305E+07-1.70636E-07-4.78855E-08
 -1        25 4.17502E+05 1.32680E+06 3.67404E+05-8.94704E+05 3.58048E-08-3.07518E-08
 -1        26-3.77039E+04 1.09429E+05-2.02451E+04-2.92922E+03-1.89757E-09-2.60006E-08
 -1        27-7.63256E+04-3.17947E+05-1.15052E+05 6.95972E+04-1.04408E-08 2.58739E-08
 -1        28 2.19755E+04-8.56367E+04 1.68593E+04 1.99113E+04-5.84345E-09 7.95910E-09
 -1        32-1.35325E+06-1.94019E+06 1.05768E+05 7.61116E+05-2.64045E-08-2.17520E-08
 -1        33-1.73320E+05 1.01825E+05 3.41532E+04-4.95396E+04-5.39107E-09-6.75209E-09
 -1        34-2.25167E+05-2.68154E+04 7.05019E+02 7.82925E+04-8.45499E-09-1.02364E-09
 -1        35-2.28196E+04-3.39005E+04-1.35433E+03 5.13216E+04-1.08854E-08 1.88872E-08
 -1        51 5.86736E+04-1.81900E+05 1.24535E+05-4.83299E+05-3.49246E-10 2.70760E-07
 -1        52 2.00927E+04-1.60447E+05 6.56862E+04-5.63609E+05-2.34650E-10-1.26114E-07
 -1        53 4.37763E+03-1.75851E+05 3.47621E+04-4.81607E+05 5.69344E-10 1.69857E-07
 -1        54 8.23785E+03-1.71701E+05 2.96783E+04-5.65294E+05 2.18279E-11 1.22072E-08
 -1        55 1.78414E+04-1.79274E+05 3.74086E+04-4.81469E+05 2.58296E-10 1.70978E-07
 -1        56-9.52200E+06-1.20286E+06-8.49928E+05-3.86463E+06-7.04313E-09-2.87633E-07
 -1        57-1.05105E+07-1.18419E+06-5.51675E+05-3.00567E+06-8.02538E-09 7.44476E-08
 -1        58-9.51859E+06-1.58239E+06-1.94664E+05-3.95201E+06-1.28639E-08 1.36395E-07
 -1        59-1.04682E+07-7.69412E+05-1.12473E+05-2.97926E+06 1.64046E-08-3.44500E-07
 -1        60-9.58543E+06-1.59206E+06-4.96602E+04-3.91249E+06 3.28873E-09-2.47033E-07
 -1        61-1.01370E+07-9.43681E+05-1.09185E+04-3.17027E+06-3.76167E-08 3.42479E-08
 -1        62-9.80083E+06-1.44019E+06-3.43138E+04-3.72425E+06-1.80808E-08-2.10450E-07
 -1        63-9.67358E+06-1.33983E+06 1.20616E+04-3.59535E+06 3.59360E-08-9.10150E-08
 -1        64-1.00142E+07-1.22019E+06-3.13413E+04-3.46442E+06-2.11294E-08 1.20153E-07
 -1        65-9.39880E+06-1.69841E+06-1.08254E+04-4.07844E+06-8.00355E-09-6.41517E-08
 -1        66-1.01190E+07-1.05163E+06-4.27624E+04-3.27330E+06 1.00881E-08 2.48152E-07
 -1        67-9.35441E+06-1.87778E+06-1.01435E+05-4.29844E+06-2.38388E-08 3.57601E-07
 -1        68-1.01012E+07-1.01227E+06-1.77334E+05-3.27223E+06-5.58978E-08-4.99786E-08
 -1        69-9.58268E+06-2.03670E+06-4.94382E+05-4.04731E+06 6.82121E-10-8.61764E-08
 -1        70-9.85575E+06-9.27562E+05-7.71496E+05-3.49712E+06-2.63390E-09-1.19908E-08
 -1        86-1.15536E+06-1.29864E+07-2.19790E+06-2.37072E+06-2.42577E-07-3.58414E-08
 -1        87 1.76269E+06 4.46882E+06 1.82919E+06 4.63844E+06-4.18535E-07-8.65930E-09
 -1        88-3.04801E+05-2.23761E+06 1.65319E+05-2.21013E+06-3.56802E-07 5.80840E-08
 -1        89 2.36735E+06 4.26512E+06 1.86791E+06 4.77468E+06-5.33713E-07-7.92934E-08
 -1        90-1.69646E+06-1.28366E+07-2.38650E+06-2.52409E+06-1.28482E-07 3.09374E-08
 -1       121-2.20623E+03-1.50071E+06-6.32458E+02 1.09481E+03 1.57397E-09 2.15368E-09
 -1       122-1.43078E+03-1.49550E+06 7.58076E+02-4.43006E+03-5.55282E-09 6.17001E-09
 -1       123-2.21990E+03-1.50085E+06 1.52638E+02 3.27051E+03 4.60614E-09 1.81171E-08
 -1       124 1.55366E+02-1.49510E+06 2.86473E+03-9.29309E+03-1.08139E-08 3.33239E-09
 -1       125-2.98608E+03-1.50172E+06 3.25899E+03 5.90508E+03 7.16136E-09-3.40733E-08
 -1       191-1.85599E+02 4.27220E+05 5.59066E+00 1.33641E+00-8.75000E-10-2.42289E-09
 -1       192-1.77694E+02 4.27220E+05 2.53718E+01-7.30805E+00-1.21832E-09-2.56987E-08
 -1       193-1.88735E+02 4.27219E+05 3.89160E+01 6.59310E+00-1.64245E-09-2.93076E-08
 -1       194-1.81544E+02 4.27224E+05 9.69733E+01-1.63947E+01-8.02415E-10-1.59798E-08
 -1       195-1.94750E+02 4.27216E+05 1.81385E+02 1.10771E+01-2.20635E-09 2.24718E-08
 -1       251-1.06563E+06 2.21527E+04-5.24751E+04-1.96025E+04-9.07448E-10 2.65765E-07
 -1       252-1.08624E+06-2.55014E+04-3.65962E+04 6.58932E+04 6.69711E-09-1.24593E-07
 -1       253-1.07427E+06 3.52099E+03-1.36299E+04-1.95653E+04-3.66049E-09 1.59180E-08
 -1       254-1.07047E+06-3.93246E+03-7.11856E+03 5.44984E+04 8.16908E-09-1.37073E-07
 -1       255-1.08082E+06 2.17788E+02-4.58460E+03-8.20715E+03-3.77372E-09 8.15062E-08
 -1       256-1.06007E+06-4.01925E+02 1.20143E+03 2.49268E+04 1.36268E-08 1.90897E-07
 -1       257-1.08379E+06-6.78410E+02-2.30304E+03 9.99552E+03-6.51107E-09 2.05343E-07
 -1       258-1.06095E+06 9.05519E+02 3.36279E+03-1.10163E+04 6.95297E-09-1.54333E-07
 -1       259-1.08001E+06-1.03872E+03 5.06879E+02 2.77248E+04 1.27511E-09-1.04543E-07
 -1       260-1.07036E+06 2.91531E+03 5.20940E+03-3.89317E+04-1.87252E-08-4.46297E-07
 -1       261-1.07528E+06-1.97831E+03 7.24589E+03 3.79286E+04 3.97193E-08-2.19233E-07
 -1       262-1.07172E+06 1.05450E+04 1.82428E+04-4.78472E+04-1.22307E-08 9.81547E-08
 -1       263-1.07909E+06-8.29231E+03 2.86353E+04 3.66548E+04 6.79995E-09-4.46016E-09
 -1       264-1.04277E+06 5.71952E+04 8.03007E+04-3.42791E+04 3.18974E-08-3.83420E-07
 -1       265-1.10351E+06-4.89723E+04 1.10117E+05 2.43422E+04-1.32263E-09-4.95493E-08
 -1       266-1.82996E+04-8.55764E+03 4.29327E+04-2.20833E+01 7.63976E-11 3.68168E-07
 -1       267 2.12141E+04 9.97299E+03 3.03460E+04 2.54815E+01 6.18456E-11-9.87919E-08
 -1       268-2.84478E+03-1.41251E+03 1.12794E+04-3.24669E+00 2.08729E-10 1.17258E-07
 -1       269 3.35884E+03 1.69041E+03 7.33150E+03 3.78201E+00-3.38787E-11 6.14570E-08
 -1       270-5.04166E+02-2.77751E+02 3.53902E+03-5.13241E-01 1.42222E-10 8.06573E-08
 -1       271-1.61225E+06-2.02164E+05-1.20540E+05-6.25028E+05 1.16543E-08 3.21888E-08
 -1       272-1.62898E+06-3.09055E+05-7.64757E+04-6.47161E+05 8.81300E-09 1.94113E-07
 -1       273-1.63708E+06-2.29157E+05-2.89410E+04-6.17104E+05-1.47666E-08 1.32386E-08
 -1       274-1.59974E+06-2.76822E+05-1.55036E+04-6.61224E+05 1.98925E-08 7.21739E-08
 -1       275-1.64256E+06-2.29573E+05-7.04845E+03-6.13583E+05 4.45234E-08-6.99747E-08
 -1       276-1.59330E+06-2.77137E+05-3.22760E+03-6.68691E+05-1.41254E-08 8.33184E-08
 -1       277-1.64521E+06-2.27365E+05-1.91648E+03-6.11009E+05-2.12076E-08-5.12719E-08
 -1       278-1.59052E+06-2.80252E+05-8.89713E+02-6.74254E+05 2.21962E-08-1.99901E-07
 -1       279-1.64693E+06-2.25423E+05-1.01616E+03-6.09134E+05-4.27117E-08-1.05937E-07
 -1       280-1.58905E+06-2.82812E+05-1.35026E+03-6.78102E+05 1.04847E-08-2.35350E-08
 -1       281-1.64789E+06-2.24048E+05-2.48869E+03-6.07988E+05 1.17961E-08-5.28398E-08
 -1       282-1.58939E+06-2.85669E+05-5.81529E+03-6.79923E+05-1.15133E-08 2.49003E-07
 -1       283-1.64729E+06-2.22285E+05-1.03422E+04-6.07721E+05 1.06115E-09-9.51768E-08
 -1       284-1.59841E+06-2.99755E+05-2.81962E+04-6.77836E+05 3.64423E-08-2.58983E-08
 -1       285-1.63911E+06-2.11351E+05-4.38714E+04-6.09598E+05-2.58365E-08-3.37077E-08
 -1       301 5.37275E+02-6.20149E+05 1.68268E+05-1.08196E+06 5.19503E-09 6.84304E-08
 -1       302 4.45653E+02-5.75023E+05 1.01369E+05-1.58021E+06-2.04891E-08 2.24667E-07
 -1       303-1.57628E+04-6.10514E+05 5.80679E+04-1.07910E+06-8.94943E-09-6.41357E-08
 -1       304-1.54395E+04-5.80335E+05 5.98341E+04-1.57946E+06-8.58563E-10-2.85545E-08
 -1       305-1.89908E+04-6.00378E+05 7.53747E+04-1.08220E+06 1.27966E-08 1.52315E-07
 -1       306-2.97456E+07-6.13691E+06-8.47419E+06-6.51869E+05-7.39237E-08-7.73871E-08
 -1       307 2.51464E+07 3.06249E+06 5.44575E+06-1.48159E+07-8.32661E-07 1.16619E-07
 -1       308-7.15240E+06-1.00999E+06-4.92667E+05 5.13127E+06-3.33064E-07 1.72600E-07
 -1       309-3.37866E+06 8.46256E+06 2.21285E+06-2.03889E+07 3.43720E-07 6.66478E-08
 -1       310-1.22386E+07-1.83356E+06-1.91650E+06 5.12141E+06 4.27826E-08-1.03682E-07
 -1       311 3.70029E+07 1.51927E+04 7.05770E+06-8.96362E+06 5.92903E-07 2.79106E-08
 -1       312-3.13622E+07-6.55447E+06-8.31803E+06-4.77753E+06 1.04425E-07 3.30183E-07
 -1       313 4.48215E+07 1.42137E+07 1.04510E+07 2.29529E+07-6.21949E-08 5.14905E-07
 -1       314-1.73101E+07-1.72531E+07-7.39891E+06-1.23757E+07 4.56290E-07 1.17347E-07
 -1       315-1.50609E+06 2.89837E+07 5.59899E+06 1.07555E+07-3.82424E-07-9.49658E-08
 -1       316 1.21407E+06-9.80484E+06-4.76072E+05-2.71510E+06-1.27523E-06-1.71742E-07
 -1       317-1.71640E+07 2.20765E+07 2.17055E+06-8.39300E+06 7.20276E-07-8.58119E-07
 -1       318-1.04944E+06-1.24163E+07-1.93341E+06-4.24900E+06-8.29372E-07 7.96863E-08
 -1       319 6.75849E+06 3.10078E+07 6.82046E+06 1.61190E+07-8.02684E-08 2.62196E-07
 -1       320-2.21804E+07-1.72268E+07-9.61575E+06-1.25651E+07 1.96276E-07-5.68107E-08
 -1       336-1.03023E+03-1.62458E+06-1.32907E+04 8.88069E+03-2.69756E-08-3.47791E-09
 -1       337-5.25376E+03-1.62336E+06-1.69756E+04-2.16559E+04-5.06152E-08 2.53349E-08
 -1       338-6.90914E+01-1.62414E+06-2.68436E+04 1.24894E+04-3.64407E-08-1.03937E-08
 -1       339-2.83059E+04-1.63966E+06-6.02048E+04-2.87359E+04-6.53381E-08 2.72339E-08
 -1       340 1.83155E+04-1.61057E+06-9.50251E+04 1.58286E+04-4.34084E-08 3.12102E-08
 -1       406-1.50411E+02 4.27199E+05 7.68089E+02 6.96182E+00-2.88495E-09 3.36695E-08
 -1       407 9.96086E+01 4.27383E+05 1.65113E+03 3.32287E+01-5.98561E-10 1.64437E-09
 -1       408 6.71895E+02 4.27078E+05 3.28654E+03-3.95959E+01-3.92583E-09-1.02009E-08
 -1       409 3.40680E+03 4.28432E+05 7.41698E+03 4.40324E+02-7.09406E-10-1.06666E-08
 -1       410 1.00965E+04 4.26120E+05 1.51340E+04-4.30217E+02-4.26735E-09-1.02209E-08
 -1       521-3.12881E+07-7.56451E+06-9.89398E+06-2.64978E+05-9.09204E-08 1.56229E-07
 -1       522 2.59832E+07 4.02782E+06 5.54531E+06-1.82681E+07-4.89264E-07-4.19561E-07
 -1       523-7.74377E+06-1.31910E+06-4.86328E+05 5.57906E+06 8.70787E-08-2.53465E-07
 -1       524-6.83433E+06 1.14401E+07 2.39471E+06-2.34244E+07 8.91392E-07-2.88012E-07
 -1       525-1.30726E+07-2.44512E+06-2.11063E+06 5.56943E+06 5.22297E-07-3.30532E-07
 -1       526 4.03708E+07-5.55534E+04 7.41326E+06-1.15849E+07 2.39175E-07-9.93023E-08
 -1       527-3.31974E+07-8.21688E+06-9.58611E+06-4.65187E+06 2.80794E-07-7.48842E-08
 -1       528 4.89292E+07 1.58130E+07 1.08992E+07 2.60939E+07 1.36555E-07-4.33880E-07
 -1       529-1.82499E+07-1.94247E+07-8.47690E+06-1.24288E+07 1.36555E-07-6.26314E-08
 -1       530-3.98367E+06 3.36695E+07 5.91704E+06 1.02996E+07-1.51515E-07 5.43369E-07
 -1       531 1.21139E+06-1.08806E+07-4.49882E+05-2.68741E+06-8.85484E-07 1.89990E-07
 -1       532-1.97624E+07 2.41379E+07 2.37422E+06-1.25493E+07 5.06538E-07-6.93224E-07
 -1       533-1.10763E+06-1.35790E+07-2.06151E+06-4.10669E+06-2.94909E-07-9.56643E-07
 -1       534 4.79388E+06 3.59829E+07 7.10661E+06 1.67027E+07-3.28582E-08 7.58038E-07
 -1       535-2.33762E+07-1.95593E+07-1.10195E+07-1.26491E+07 7.26432E-08 4.62169E-07
 -1       536-8.37814E+05-6.13196E+04-7.53503E+04-6.76968E+04-5.33100E-09 5.65615E-08
 -1       537 7.44768E+04 5.83721E+04 1.12800E+05 1.49964E+05-1.26528E-07 1.23655E-07
 -1       538-4.12331E+05 4.18407E+03 1.19835E+03-8.60216E+04 5.39746E-08 1.27777E-07
 -1       539-2.38452E+05 3.99670E+03 3.20461E+04 1.67450E+05 1.87545E-07 1.38121E-07
 -1       540-5.32887E+05-1.74540E+02-2.71530E+04-8.61019E+04-1.38380E-09 1.32190E-07
 -1       541 3.03990E+05 2.23561E+04 1.39040E+05 1.24592E+05-7.92199E-08 9.73075E-08
 -1       542-9.40052E+05-2.66219E+04-1.11632E+05-4.17843E+04 3.13039E-08 6.87684E-08
 -1       543 6.69609E+05 3.67458E+04 2.12248E+05-1.21026E+04-1.53923E-08-6.04996E-09
 -1       544-8.88629E+05-2.28299E+04-1.01900E+05 4.96160E+04-3.50010E-08-3.43646E-08
 -1       545 1.80476E+05 1.39387E+04 1.11110E+05-1.37759E+05 3.41661E-08-8.11594E-08
 -1       546-4.64157E+05 7.26759E+03-1.71899E+04 8.32548E+04 4.14768E-08-9.81859E-08
 -1       547-2.55281E+05-4.38336E+03 1.76283E+04-1.70247E+05-1.29232E-07-1.21924E-07
 -1       548-4.64694E+05 5.51409E+03-2.75745E+04 8.32018E+04-1.14662E-07-1.05008E-07
 -1       549 1.85089E+05 2.87146E+04 9.00191E+04-1.37980E+05-8.04384E-08-8.67187E-08
 -1       550-8.92722E+05-3.58298E+04-1.57660E+05 4.98890E+04 1.50894E-08-6.35810E-08
 -1       551 4.39152E+04-7.68698E+05-1.62785E+04-1.24028E+06-1.06797E-07 5.15138E-09
 -1       552 9.60739E+04-8.14369E+05 9.56506E+03-1.76920E+06-7.53498E-08 1.42318E-08
 -1       553 7.35172E+04-8.08101E+05 3.21025E+04-1.23381E+06-1.22032E-07 2.58005E-08
 -1       554 1.33531E+05-8.27022E+05 8.12493E+04-1.77095E+06-7.26723E-08 1.42700E-08
 -1       555 1.01997E+05-8.29959E+05 1.48434E+05-1.23385E+06-1.23495E-07-1.41918E-08
 -1       556 2.05708E+05-3.53196E+05 2.78533E+04-3.73369E+05-1.79862E-08-2.64845E-09
 -1       557 3.27233E+05-4.48812E+05 1.70488E+04-4.82113E+05 2.64845E-09-8.41464E-09
 -1       558 1.89450E+05-3.47452E+05 2.78279E+03-3.76438E+05-2.29629E-08-8.38918E-09
 -1       559 3.04221E+05-4.49894E+05 2.58262E+03-5.00990E+05 2.54367E-08 3.03626E-08
 -1       560 1.75506E+05-3.38708E+05-1.50746E+03-3.86533E+05 1.25146E-08 9.45874E-10
 -1       561 2.86465E+05-4.42862E+05 7.94686E+01-5.13182E+05 2.67755E-09 3.76167E-09
 -1       562 1.64203E+05-3.31694E+05-1.49514E+03-3.94774E+05 4.77303E-09 2.13731E-08
 -1       563 2.72799E+05-4.36919E+05-1.50029E+02-5.22165E+05-1.89175E-09-1.10495E-08
 -1       564 1.55791E+05-3.26460E+05-8.27573E+02-4.00771E+05 3.60887E-09-7.94353E-09
 -1       565 2.63173E+05-4.32740E+05-1.30019E+02-5.28350E+05 6.80302E-09-3.23132E-09
 -1       566 1.50387E+05-3.23040E+05-5.19870E+02-4.04565E+05-2.52476E-09-7.64612E-09
 -1       567 2.57640E+05-4.30364E+05-6.56050E+02-5.31769E+05 2.64699E-08 8.44011E-09
 -1       568 1.48073E+05-3.21608E+05-1.60606E+03-4.06244E+05 7.60338E-10-1.18671E-08
 -1       569 2.54834E+05-4.30132E+05-3.90782E+03-5.31736E+05-4.29827E-09 6.76300E-09
 -1       570 1.49888E+05-3.24065E+05-8.02271E+03-4.05681E+05 6.11908E-09-3.23507E-09
 -1       571 3.00011E+05 1.06355E+04 1.47947E+04-1.18468E+05 2.42017E-09 1.74232E-08
 -1       572 3.02106E+05 4.21422E+03 7.25285E+03-1.29926E+05-2.29920E-09 1.04537E-08
 -1       573 3.00817E+05 1.51470E+03 3.22254E+03-1.18236E+05 1.58070E-09-6.09361E-11
 -1       574 3.00983E+05 1.04329E+03 1.61719E+03-1.30221E+05 6.78779E-09-9.58607E-09
 -1       575 3.00886E+05 7.41059E+02 7.63099E+02-1.18204E+05-4.79736E-09 1.81208E-08
 -1       576 3.00836E+05 7.85723E+02 3.90653E+02-1.30260E+05-1.21518E-08 2.46291E-08
 -1       577 3.00927E+05 6.82826E+02 1.93482E+02-1.18200E+05-1.59343E-08 1.00354E-08
 -1       578 3.00882E+05 7.39396E+02 1.09071E+02-1.30266E+05-2.61425E-08 3.31238E-09
 -1       579 3.01026E+05 6.30285E+02 6.82210E+01-1.18200E+05-1.09685E-09 5.24960E-09
 -1       580 3.01026E+05 6.63728E+02 7.13489E+01-1.30260E+05-1.25401E-08-1.09412E-08
 -1       581 3.01194E+05 5.38135E+02 9.59682E+01-1.18207E+05-9.24047E-10 1.12923E-08
 -1       582 3.01266E+05 5.73090E+02 1.93974E+02-1.30186E+05-1.70967E-08-1.49630E-08
 -1       583 3.01416E+05 4.93001E+02 3.59793E+02-1.18276E+05-1.01099E-08 6.04359E-09
 -1       584 3.01686E+05 7.93380E+02 8.21125E+02-1.29611E+05 7.02130E-09 2.83308E-10
 -1       585 3.01581E+05 1.41752E+03 1.64767E+03-1.18783E+05-2.76850E-09-9.80799E-09
 -1       586-2.37554E+03 1.47777E+05-8.87259E+02-2.45175E+05-8.20523E-09 1.77079E-09
 -1       587-1.21031E+03 1.47813E+05 1.71543E+03-2.69681E+05-1.31895E-08-2.37605E-09
 -1       588 1.99037E+02 1.47362E+05 5.07695E+03-2.44961E+05-7.07405E-09 1.28216E-09
 -1       589 4.70332E+03 1.49781E+05 1.22726E+04-2.69614E+05-1.03701E-08-7.75299E-09
 -1       590 1.59982E+04 1.45965E+05 2.54017E+04-2.45311E+05-8.74252E-09-1.28966E-09
 -1       591-1.04311E+05-2.17090E+04-2.68401E+04-4.44737E+04-6.81052E-09-7.24140E-09
 -1       592-1.08887E+05-2.62418E+04-1.45387E+04-4.91407E+04 9.46562E-09-2.33540E-08
 -1       593-1.07007E+05-1.97507E+04-6.05176E+03-4.64303E+04 3.40367E-09-1.40099E-08
 -1       594-1.05174E+05-2.23105E+04-3.01802E+03-4.92910E+04-3.23416E-09 1.00863E-08
 -1       595-1.07213E+05-1.97432E+04-1.38561E+03-4.65194E+04-7.39192E-10 5.86581E-09
 -1       596-1.04920E+05-2.21308E+04-7.04034E+02-4.92622E+04 1.94580E-08-3.14628E-11
 -1       597-1.07239E+05-1.97611E+04-3.82787E+02-4.65228E+04 8.34069E-09 1.13045E-08
 -1       598-1.04896E+05-2.21238E+04-3.06699E+02-4.92540E+04-5.99309E-09-1.90894E-08
 -1       599-1.07237E+05-1.97618E+04-3.90531E+02-4.65224E+04 1.25740E-08-2.76160E-08
 -1       600-1.04920E+05-2.21314E+04-7.24506E+02-4.92595E+04 1.37651E-08-2.14146E-09
 -1       601-1.07207E+05-1.97449E+04-1.42890E+03-4.65181E+04 4.48426E-09 5.53518E-09
 -1       602-1.05182E+05-2.23157E+04-3.11385E+03-4.92848E+04 1.83604E-10-1.27817E-08
 -1       603-1.06992E+05-1.97560E+04-6.24460E+03-4.64269E+04-7.42375E-10 1.22877E-08
 -1       604-1.09028E+05-2.63546E+04-1.50009E+04-4.91067E+04 7.60110E-10-5.49880E-09
 -1       605-1.04192E+05-2.17923E+04-2.76935E+04-4.44249E+04 5.28928E-09-6.68842E-09
 -1       606 2.56190E+04-1.54100E+04-2.76059E+04 2.15006E+04 1.33259E-08-7.02767E-09
 -1       607 2.09043E+04-5.04362E+03-1.37481E+04 2.41791E+04 3.07818E-09-2.78187E-08
 -1       608 2.35965E+04-9.19649E+02-6.15390E+03 2.13632E+04-9.04856E-09-2.88446E-09
 -1       609 2.30857E+04-3.28707E+02-3.10909E+03 2.43732E+04 6.27097E-10 1.61835E-08
 -1       610 2.33734E+04-6.02776E+01-1.48295E+03 2.13461E+04 8.80664E-09-2.53817E-09
 -1       611 2.32975E+04-6.59994E+01-7.47974E+02 2.43939E+04 1.34646E-08-9.44010E-09
 -1       612 2.33282E+04-4.89430E+01-3.55488E+02 2.13443E+04 3.56704E-09-9.14110E-09
 -1       613 2.33156E+04-6.47343E+01-1.59863E+02 2.43964E+04 8.77844E-09 9.98307E-09
 -1       614 2.33088E+04-5.85285E+01-3.82998E+01 2.13437E+04-2.89492E-09 7.73139E-09
 -1       615 2.33142E+04-6.55626E+01 6.44352E+01 2.43968E+04-9.00445E-09 2.00821E-08
 -1       616 2.32936E+04-5.72291E+01 1.95708E+02 2.13439E+04-3.12502E-09 1.18848E-09
 -1       617 2.33407E+04-2.54094E+01 4.47150E+02 2.43963E+04-9.84596E-09-6.20594E-09
 -1       618 2.32567E+04 7.04803E+01 9.01730E+02 2.13443E+04-6.25801E-09-1.97952E-09
 -1       619 2.36607E+04 6.70931E+02 2.02505E+03 2.43960E+04-9.51445E-10-7.91897E-09
 -1       620 2.29582E+04 2.20836E+03 4.07046E+03 2.13477E+04-4.58499E-09-3.43334E-09
 -1       621 9.33514E+02 3.43163E+05 6.45440E+03 5.39027E+04 1.27511E-09-4.05998E-09
 -1       622 1.18594E+03 3.44653E+05 5.13486E+03 7.82059E+04 1.76988E-09-2.23281E-09
 -1       623 2.64258E+02 3.43574E+05 5.42447E+03 5.36719E+04 1.72213E-09 2.99597E-08
 -1       624 2.71280E+03 3.45875E+05 9.89655E+03 7.84229E+04 1.71462E-09 8.88804E-09
 -1       625 2.60063E+03 3.41657E+05 1.70047E+04 5.36758E+04 1.97178E-09-2.01564E-08
 -1       626 2.65619E+05 5.92906E+04 3.75134E+03 1.25956E+05-4.18368E-10 1.95669E-08
 -1       627 2.63376E+05 6.08502E+04 1.80783E+03 1.29710E+05-6.35964E-09 3.60155E-08
 -1       628 2.65724E+05 5.75618E+04 7.65051E+02 1.26579E+05-1.75623E-08 2.15846E-08
 -1       629 2.62898E+05 6.03646E+04 3.75277E+02 1.29900E+05-1.16379E-08 8.75886E-09
 -1       630 2.65736E+05 5.74776E+04 1.75875E+02 1.26604E+05-1.84082E-09 9.99989E-09
 -1       631 2.62848E+05 6.03465E+04 9.81495E+01 1.29904E+05 5.89625E-09 6.69291E-09
 -1       632 2.65734E+05 5.74795E+04 7.10861E+01 1.26602E+05 1.08960E-08 2.26944E-08
 -1       633 2.62844E+05 6.03469E+04 8.90207E+01 1.29902E+05-1.00570E-08-3.25190E-09
 -1       634 2.65731E+05 5.74749E+04 1.52665E+02 1.26603E+05-1.01539E-08 1.08562E-08
 -1       635 2.62860E+05 6.03443E+04 3.14423E+02 1.29909E+05-6.10373E-09-7.05677E-09
 -1       636 2.65723E+05 5.74682E+04 6.37758E+02 1.26603E+05 9.70817E-09 1.25456E-08
 -1       637 2.62998E+05 6.04439E+04 1.40387E+03 1.29910E+05-4.19277E-09 1.15388E-08
 -1       638 2.65673E+05 5.77784E+04 2.88508E+03 1.26462E+05 1.36788E-09 1.60753E-08
 -1       639 2.64509E+05 6.25559E+04 6.82673E+03 1.29467E+05 7.51788E-09-3.81078E-09
 -1       640 2.65461E+05 6.40749E+04 1.41670E+04 1.23811E+05 5.38103E-09-5.71254E-09
 -1       656 6.80267E+04-1.74384E+06-1.64211E+05-3.77431E+03-6.54836E-11-3.53771E-07
 -1       657-8.99872E+04-1.81806E+06-1.36032E+05 3.56930E+03 9.31323E-10-4.43745E-06
 -1       658 2.16722E+04-1.76492E+06-8.37609E+04-5.85207E+03 8.11865E-07-3.85877E-04
 -1       659-9.72653E+04-1.82152E+06-1.45599E+05 5.36413E+03 1.69214E-06-7.60602E-04
 -1       660 7.52884E+04-1.74039E+06-1.80661E+05-5.56911E+03 7.26650E-07-3.87109E-04
 -1       661 1.51035E+05 1.56092E+04 1.62340E+04 5.89715E+04-4.34738E-09 3.09956E-09
 -1       662 1.60275E+05 2.75703E+04 1.09407E+04 5.52548E+04 3.06358E-09-9.34551E-09
 -1       663 1.54222E+05 2.08191E+04 3.82629E+03 5.80479E+04 1.94200E-09-4.11774E-10
 -1       664 1.56580E+05 2.14774E+04 2.28901E+03 5.63827E+04-7.48719E-09 7.02383E-09
 -1       665 1.54706E+05 2.15309E+04 9.03007E+02 5.79072E+04 8.43454E-09-1.16560E-09
 -1       666 1.56009E+05 2.06632E+04 5.28725E+02 5.65659E+04 1.51606E-08 5.89255E-09
 -1       667 1.54790E+05 2.16122E+04 2.81205E+02 5.78722E+04 5.99414E-09 1.02052E-08
 -1       668 1.55916E+05 2.06044E+04 2.87352E+02 5.66165E+04-3.52911E-09-1.89970E-08
 -1       669 1.54797E+05 2.15881E+04 3.89736E+02 5.78569E+04-3.60970E-09 1.24248E-08
 -1       670 1.56012E+05 2.08153E+04 8.49277E+02 5.66183E+04-1.89672E-08-1.48293E-09
 -1       671 1.54694E+05 2.14057E+04 1.50819E+03 5.78684E+04 1.44259E-09-1.53866E-08
 -1       672 1.56891E+05 2.22819E+04 3.85884E+03 5.64045E+04 1.13600E-08-1.91496E-08
 -1       673 1.53922E+05 2.01587E+04 6.46687E+03 5.80565E+04 3.48439E-09-9.98830E-09
 -1       674 1.63045E+05 3.26732E+04 1.84940E+04 5.45980E+04-3.97063E-09 4.29964E-10
 -1       675 1.48580E+05 1.13056E+04 2.74516E+04 5.95660E+04-5.87170E-09 2.56350E-08
 -1       676 2.41515E+01-2.95305E+05-1.10619E+03-2.11866E+02 4.10623E-09-7.93151E-09
 -1       677-2.90932E+02-2.95574E+05-2.02451E+03 4.23387E+02 2.15099E-08 1.18374E-08
 -1       678 1.96451E+02-2.95114E+05-3.57884E+03-2.11387E+02 6.56905E-09 3.88420E-09
 -1       679-3.57724E+03-2.97734E+05-8.50184E+03 4.21552E+02 1.22919E-08-2.04670E-08
 -1       680 2.13699E+03-2.93145E+05-1.37021E+04-2.07705E+02-1.14687E-09-1.81146E-09
 -1       771-3.04905E+06-7.49928E+05-1.63576E+05-1.46530E+06-3.53321E-08-2.86091E-08
 -1       772-2.96916E+06-8.39642E+05-8.41619E+04-1.56921E+06-2.50293E-08 1.82808E-08
 -1       773-3.08066E+06-7.25260E+05-4.32323E+04-1.47985E+06-1.03610E-08 1.41590E-08
 -1       774-2.96048E+06-8.21463E+05-1.92135E+04-1.59550E+06 2.92785E-08-2.28829E-09
 -1       775-3.09744E+06-7.13467E+05-1.45801E+04-1.48714E+06-3.75439E-09 2.24827E-09
 -1       776-2.97332E+06-8.18294E+05-5.41898E+03-1.61542E+06-1.86119E-08 2.93949E-09
 -1       777-3.11204E+06-7.02936E+05-6.51653E+03-1.49358E+06-5.82077E-10 1.09867E-09
 -1       778-2.98664E+06-8.15320E+05-1.84974E+03-1.63253E+06-2.76486E-09 2.87400E-09
 -1       779-3.12459E+06-6.93738E+05-3.31963E+03-1.49908E+06-1.23982E-08-7.33417E-09
 -1       780-2.99835E+06-8.12496E+05-6.53777E+02-1.64644E+06-9.08767E-09-1.28239E-09
 -1       781-3.13455E+06-6.86329E+05-1.51077E+03-1.50337E+06-2.81725E-08 4.61114E-09
 -1       782-3.00740E+06-8.10142E+05-7.51270E+01-1.65670E+06-4.05998E-08-7.29688E-09
 -1       783-3.14152E+06-6.81193E+05-3.62672E+02-1.50635E+06-6.62840E-09-6.57019E-09
 -1       784-3.01304E+06-8.08489E+05 3.55901E+02-1.66298E+06-2.01908E-08 3.31011E-09
 -1       785-3.14516E+06-6.78500E+05 4.12835E+02-1.50790E+06-3.90792E-08 9.95715E-09
 -1       786 2.32466E+05-1.25887E+04 2.91301E+04-6.51438E+02-9.71148E-05-3.31560E-07
 -1       787 2.45088E+05 1.45781E+04 2.06082E+04-7.06799E+02-1.93515E-04-5.59910E-07
 -1       788 2.37336E+05-1.97193E+03 7.53923E+03-6.50015E+02-1.37028E-04-3.12560E-07
 -1       789 2.39415E+05 2.28571E+03 4.73617E+03-7.05404E+02-7.99594E-05-2.43440E-07
 -1       790 2.38140E+05-3.06460E+02 1.92559E+03-6.52865E+02-2.70728E-05-6.24968E-08
 -1       791 2.38477E+05 3.59728E+02 1.12733E+03-7.04468E+02 2.58039E-05 9.12044E-08
 -1       792 2.38275E+05-4.74043E+01 5.08231E+02-6.50956E+02 6.82767E-05 1.70210E-07
 -1       793 2.38324E+05 6.81235E+01 3.20126E+02-7.15386E+02 1.10495E-04 3.13757E-07
 -1       794 2.38294E+05-1.50526E+01 2.17472E+02-6.41948E+02 5.53772E-05 1.32694E-07
 -1       795 2.38328E+05 8.13288E+01 2.86072E+02-7.44296E+02 1.83053E-07 1.55292E-08
 -1       796 2.38271E+05-6.06014E+01 4.11307E+02-6.22046E+02 8.27452E-09-7.16271E-09
 -1       797 2.38510E+05 4.57077E+02 9.55603E+02-8.02665E+02 3.94540E-09 2.30411E-08
 -1       798 2.38111E+05-3.90530E+02 1.50359E+03-5.83577E+02 8.09516E-09 1.44701E-09
 -1       799 2.39638E+05 2.89722E+03 4.09553E+03-9.11919E+02 2.98428E-09 1.02344E-08
 -1       800 2.37142E+05-2.49881E+03 5.78285E+03-5.12784E+02 1.46859E-09 2.46951E-09
 -1       801-3.49063E+05-1.15924E+07-1.78815E+06 2.02462E+06 7.38946E-08-6.97873E-08
 -1       802 1.27482E+06 1.58254E+07 4.14936E+06-2.71277E+06-1.69166E-08-4.07745E-08
 -1       803-8.39834E+05-2.05666E+07-3.24015E+06 1.20622E+06 1.88113E-07 3.98759E-08
 -1       804 6.12019E+05 1.09168E+07 3.18898E+06 6.44930E+05-3.00279E-08-1.49535E-07
 -1       805 1.85435E+05-6.64811E+06-3.97970E+05-1.34170E+06-1.21068E-07-1.07007E-07
 -1       806-3.00059E+05-6.97958E+04-2.63982E+04-1.31902E+05-3.30078E-09-2.82853E-09
 -1       807-3.00734E+05-6.68951E+04-1.29686E+04-1.39952E+05 1.60298E-09-1.90632E-08
 -1       808-3.00867E+05-6.02011E+04-5.50093E+03-1.36317E+05-7.41176E-09 7.18353E-09
 -1       809-2.97936E+05-6.33257E+04-2.68891E+03-1.40366E+05-1.13403E-08-5.97174E-09
 -1       810-3.00989E+05-5.98602E+04-1.23141E+03-1.36510E+05 1.08903E-08 5.01223E-09
 -1       811-2.97720E+05-6.31873E+04-6.10941E+02-1.40338E+05 5.73539E-09 1.68225E-08
 -1       812-3.01007E+05-5.98862E+04-3.05879E+02-1.36508E+05-3.53475E-09-6.54518E-09
 -1       813-2.97687E+05-6.31933E+04-1.94853E+02-1.40318E+05-1.26993E-08-1.47634E-08
 -1       814-3.00997E+05-5.98993E+04-1.86267E+02-1.36500E+05-6.32099E-11-1.38684E-08
 -1       815-2.97682E+05-6.31995E+04-2.94430E+02-1.40306E+05 1.04028E-08 1.83991E-09
 -1       816-3.00967E+05-5.99030E+04-5.54690E+02-1.36490E+05 5.52063E-09 1.07248E-08
 -1       817-2.97766E+05-6.32559E+04-1.18876E+03-1.40284E+05-2.07256E-08 1.72622E-09
 -1       818-3.00881E+05-6.00796E+04-2.42461E+03-1.36406E+05-5.40240E-10-1.05356E-08
 -1       819-2.99101E+05-6.47020E+04-5.70340E+03-1.39930E+05 1.63341E-08-8.09632E-09
 -1       820-3.00382E+05-6.44211E+04-1.16100E+04-1.34587E+05 1.20117E-08 1.04610E-08
 -1       821-3.92738E+05 2.15160E+04-5.12877E+04 3.81575E+03 2.32569E-08-6.83576E-09
 -1       822-4.08129E+05-2.49894E+04-3.50919E+04-8.84689E+03 1.04771E-08-1.85810E-09
 -1       823-3.98256E+05 3.44977E+03-1.31522E+04 6.99810E+03-2.23345E-08 1.26738E-08
 -1       824-4.00777E+05-3.95376E+03-8.08385E+03-1.15829E+04 5.69949E-09-3.29192E-09
 -1       825-4.00151E+05 5.48364E+02-3.53110E+03 6.55261E+03 4.37830E-08 7.06677E-10
 -1       826-3.95676E+05-4.85110E+02-1.18101E+03-7.34558E+03 5.63234E-08 2.32731E-09
 -1       827-4.03262E+05-9.17323E+01-1.78975E+03 2.75979E+03 2.57878E-08 1.19758E-08
 -1       828-3.92863E+05 5.38865E+01 4.57710E+02 1.45425E+03-9.36117E-09 2.73348E-08
 -1       829-4.02896E+05-4.57094E+01-1.71962E+03-2.24709E+03-4.36557E-10 2.10040E-08
 -1       830-3.96427E+05-5.90865E+02-1.37051E+03 9.79809E+03-9.99194E-10 1.42401E-08
 -1       831-3.99787E+05 6.25461E+02-3.49359E+03-5.58370E+03-1.64688E-08-5.90285E-09
 -1       832-4.00759E+05-4.08997E+03-8.20321E+03 1.29186E+04-6.70157E-09-1.60536E-08
 -1       833-3.98638E+05 3.50964E+03-1.34064E+04-5.36801E+03-1.32823E-09 3.52884E-10
 -1       834-4.07430E+05-2.53512E+04-3.54166E+04 8.98250E+03-6.24493E-09 5.56065E-09
 -1       835-3.93034E+05 2.18003E+04-5.20659E+04-1.64710E+03 6.38852E-09 2.39743E-08
 -1       836-1.67173E+03 4.09110E+05 2.55348E+04-2.91593E+04-1.00708E-08 1.74086E-08
 -1       837 5.28797E+03 4.17172E+05 2.12637E+04-5.95686E+04-1.11688E-08 1.87692E-08
 -1       838-6.67887E+02 4.11396E+05 2.11731E+04-2.90558E+04-9.20045E-09 6.17570E-09
 -1       839 1.29794E+04 4.22876E+05 3.95690E+04-5.96144E+04-9.96533E-09 1.54363E-08
 -1       840-4.12959E+03 4.03310E+05 6.28790E+04-2.91239E+04-9.25138E-09-3.31079E-09
 -1       856-4.57631E+04 7.80318E+03-2.05622E+04-3.68971E+02 6.21526E-09 7.74344E-09
 -1       857-5.42245E+04-9.17640E+03-1.41545E+04 5.69827E+03 9.61518E-09-4.42378E-09
 -1       858-4.91178E+04 1.09480E+03-5.33522E+03-3.93743E+02 4.60898E-09-1.55030E-08
 -1       859-5.03751E+04-1.29571E+03-3.21914E+03 5.73426E+03-9.85382E-09-2.50776E-09
 -1       860-4.96189E+04 1.53831E+02-1.34850E+03-4.04529E+02 3.67601E-09 1.19279E-08
 -1       861-4.97988E+04-1.91130E+02-7.40432E+02 5.74892E+03 8.03982E-09-1.36484E-08
 -1       862-4.96973E+04 2.12618E+01-3.04998E+02-4.08350E+02-5.69666E-09 5.86064E-09
 -1       863-4.97022E+04-2.85258E+01-1.04761E+02 5.75133E+03-1.16350E-08-6.79587E-09
 -1       864-4.97161E+04-5.02755E+00 6.01806E+01-4.06935E+02-4.60405E-09-1.84246E-08
 -1       865-4.96441E+04 5.71059E+01 2.79956E+02 5.74274E+03-7.73723E-09-2.14447E-08
 -1       866-4.97532E+04-6.42732E+01 5.56915E+02-3.99767E+02-4.15662E-09-1.73825E-08
 -1       867-4.93843E+04 5.28072E+02 1.36599E+03 5.72335E+03-3.08620E-09-6.99777E-09
 -1       868-4.99709E+04-4.67223E+02 2.26884E+03-3.87540E+02 5.99630E-09-1.36185E-09
 -1       869-4.77227E+04 3.88679E+03 6.03924E+03 5.69213E+03 1.64687E-09 1.08698E-08
 -1       870-5.14071E+04-3.33139E+03 8.76470E+03-3.68375E+02-1.10261E-08-2.85718E-09
 -1       871-5.47901E+03-2.70639E+04-2.00597E+04 1.32859E+05-7.14499E-09 8.85757E-09
 -1       872-1.79642E+03-3.17816E+04-8.48004E+03 1.72287E+05-1.56797E-08 8.42738E-09
 -1       873 5.96422E+02-2.94553E+04 4.09302E+02 1.32567E+05-7.90578E-09 9.54469E-09
 -1       874 3.52908E+03-2.71319E+04 9.60371E+03 1.72304E+05-1.82044E-08-5.43969E-09
 -1       875 6.97507E+03-3.17567E+04 2.18228E+04 1.32811E+05-8.99126E-09-1.08448E-08
 -1       876 2.95497E+05 4.97354E+04 1.52825E+04 1.18493E+05 1.17692E-08-1.88775E-08
 -1       877 2.96486E+05 5.29763E+04 8.16149E+03 1.22911E+05 1.31822E-08 9.20215E-09
 -1       878 2.96929E+05 4.80401E+04 3.41919E+03 1.19741E+05-2.33695E-09-3.55158E-09
 -1       879 2.94407E+05 5.09038E+04 1.70361E+03 1.23015E+05 1.49089E-08 1.45803E-09
 -1       880 2.97031E+05 4.80226E+04 7.93372E+02 1.19792E+05-3.06090E-09 1.19376E-08
 -1       881 2.94269E+05 5.08152E+04 4.23455E+02 1.22991E+05-1.82400E-08 8.88350E-09
 -1       882 2.97040E+05 4.80362E+04 2.70449E+02 1.19794E+05-8.35394E-09-2.42868E-09
 -1       883 2.94259E+05 5.08106E+04 2.90069E+02 1.22983E+05-2.55795E-11-3.30385E-09
 -1       884 2.97033E+05 4.80335E+04 4.60796E+02 1.19794E+05-4.67651E-09-2.08149E-09
 -1       885 2.94296E+05 5.08170E+04 9.26047E+02 1.22994E+05-1.38050E-08 3.68532E-08
 -1       886 2.96997E+05 4.80066E+04 1.86620E+03 1.19790E+05-1.45906E-08 1.20917E-08
 -1       887 2.94624E+05 5.10319E+04 4.07635E+03 1.23041E+05-1.30399E-09-2.02958E-08
 -1       888 2.96739E+05 4.80522E+04 8.21389E+03 1.19660E+05-4.71223E-09-4.34693E-09
 -1       889 2.99514E+05 5.61171E+04 1.96214E+04 1.22891E+05-6.52881E-09-1.84609E-08
 -1       890 2.93382E+05 5.20393E+04 3.67504E+04 1.16540E+05-6.38920E-09 1.64855E-08
 -1       891-5.36080E+01-1.63242E+05-2.00492E+03 2.66461E+04-1.48657E-09 1.25935E-08
 -1       892-1.21158E+02-1.63790E+05-2.15369E+03 4.05259E+04 5.81349E-09 1.33484E-08
 -1       893 8.02761E+01-1.63306E+05-3.04968E+03 2.66539E+04-1.77170E-09 2.45427E-08
 -1       894-1.46178E+03-1.64943E+05-6.31202E+03 4.03744E+04 6.85759E-10 2.38360E-08
 -1       895-1.16748E+03-1.61993E+05-1.11153E+04 2.68012E+04 3.88695E-10 1.24919E-08
 -1       956-3.80342E+05-5.86564E+03-1.43142E+04 3.52607E+04 1.22354E-08-1.20635E-08
 -1       957-3.83141E+05-2.12122E+03-7.34658E+03 4.23151E+04-9.65883E-10-6.94126E-09
 -1       958-3.81638E+05-3.18668E+02-3.31131E+03 3.50677E+04-4.38467E-09-3.17186E-09
 -1       959-3.81839E+05-2.15709E+02-1.69019E+03 4.25459E+04 3.79987E-09 9.44647E-09
 -1       960-3.81771E+05-1.04882E+02-8.24070E+02 3.50475E+04 7.54062E-09 8.56244E-09
 -1       961-3.81762E+05-1.33485E+02-4.35562E+02 4.25702E+04 1.53282E-08 1.45865E-08
 -1       962-3.81806E+05-1.02565E+02-2.47382E+02 3.50440E+04 4.48881E-09 1.96023E-08
 -1       963-3.81767E+05-1.26088E+02-1.94709E+02 4.25749E+04 1.31538E-08-2.52007E-08
 -1       964-3.81816E+05-9.71534E+01-2.32266E+02 3.50429E+04-4.47329E-09-7.29574E-09
 -1       965-3.81782E+05-1.21724E+02-3.97957E+02 4.25747E+04-2.24218E-08 1.78748E-08
 -1       966-3.81800E+05-8.88993E+01-7.45783E+02 3.50443E+04 5.51040E-09 2.90561E-09
 -1       967-3.81871E+05-1.85637E+02-1.52856E+03 4.25594E+04 1.22300E-08-1.58077E-08
 -1       968-3.81695E+05-2.72569E+02-2.99216E+03 3.50578E+04 6.13909E-09-4.68128E-09
 -1       969-3.83066E+05-1.90027E+03-6.64215E+03 4.23988E+04-3.74303E-09-1.51699E-08
 -1       970-3.80535E+05-5.28205E+03-1.29398E+04 3.51915E+04-5.43514E-09 2.85218E-09
 -1       971-3.46732E+05-1.70822E+03-9.09912E+03 1.51689E+04 8.74297E-09 5.94794E-09
 -1       972-3.48914E+05-1.27104E+03-4.95544E+03 2.08850E+04 6.08634E-09-3.48764E-08
 -1       973-3.47746E+05-8.07474E+01-2.21962E+03 1.50535E+04 7.71615E-09-1.18557E-08
 -1       974-3.47869E+05-1.07901E+02-1.15090E+03 2.10177E+04-1.79466E-09 2.61252E-09
 -1       975-3.47826E+05-3.72446E+01-5.76256E+02 1.50417E+04 5.04770E-10-1.51240E-08
 -1       976-3.47808E+05-5.95428E+01-3.34404E+02 2.10330E+04 5.94446E-09 1.49647E-08
 -1       977-3.47841E+05-3.67223E+01-2.46058E+02 1.50384E+04 1.59162E-11 6.71184E-09
 -1       978-3.47813E+05-5.36330E+01-2.92590E+02 2.10377E+04-4.02827E-09 1.08482E-08
 -1       979-3.47841E+05-2.83582E+01-4.74038E+02 1.50370E+04-6.58133E-10 5.65944E-09
 -1       980-3.47849E+05-5.06707E+01-9.17780E+02 2.10386E+04-1.30967E-08 7.21093E-09
 -1       981-3.47811E+05-5.40317E+00-1.77878E+03 1.50375E+04-2.48747E-09-9.48802E-09
 -1       982-3.48093E+05-1.82008E+02-3.67739E+03 2.10322E+04-4.86216E-09-1.98067E-08
 -1       983-3.47587E+05-1.19123E+02-7.14549E+03 1.50432E+04-2.22781E-09-5.81986E-09
 -1       984-3.51530E+05-3.91351E+03-1.60023E+04 2.09485E+04 8.28595E-09 1.49164E-08
 -1       985-3.44353E+05-5.34750E+03-2.93850E+04 1.51066E+04-2.36423E-09 8.66203E-09
 -3
    1PSTEP                        43          22           1          
  100CL  122 6.62943E-01         409                     0   22           1
 -4  DISP        4    1
 -5  D1          1    2    1    0
 -5  D2          1    2    2    0
 -5  D3          1    2    3    0
 -5  ALL         1    2    0    0    1ALL
 -1         1 2.71270E-03 0.00000E+00 0.00000E+00
 -1         2 1.38171E-03-7.04812E-28 0.00000E+00
 -1         3 3.54532E-04-6.72122E-28 1.32349E-23
 -1         5 1.68956E-04 7.26224E-28 0.00000E+00
 -1         8 2.70152E-03-4.11745E-07 0.00000E+00
 -1         9 2.69495E-03-1.81585E-04 0.00000E+00
 -1        10 3.21029E-04-3.24996E-06 0.00000E+00
 -1        12 1.71836E-04 8.97051E-07 1.65436E-24
 -1        15 2.68868E-03-4.36424E-07 0.00000E+00
 -1        16 2.75753E-03-1.83355E-04 0.00000E+00
 -1        17 2.16691E-04-7.51907E-06 0.00000E+00
 -1        18 1.78857E-04 4.81035E-05 0.00000E+00
 -1        19 1.80478E-04 1.78368E-06 0.00000E+00
 -1        20 1.80598E-04-2.15842E-05 0.00000E+00
 -1        21 1.79651E-04-4.94371E-05 0.00000E+00
 -1        24 3.06351E-05-1.19095E-05 0.00000E+00
 -1        25 1.93835E-04 4.83864E-05 0.00000E+00
 -1        26 1.95097E-04 2.48406E-06 0.00000E+00
 -1        27 1.92649E-04-2.52447E-05 0.00000E+00
 -1        28 1.92359E-04-5.00669E-05 0.00000E+00
 -1        32 0.00000E+00 0.00000E+00 0.00000E+00
 -1        33 2.08373E-04 3.31382E-06 0.00000E+00
 -1        34 2.06214E-04-2.53212E-05 0.00000E+00
 -1        35 2.04255E-04-5.04181E-05 0.00000E+00
 -1        51 2.71195E-03-8.58587E-08-3.30872E-24
 -1        52 2.71058E-03-1.53436E-07 0.00000E+00
 -1        53 2.70872E-03-2.17592E-07 0.00000E+00
 -1        54 2.70650E-03-2.80560E-07-1.65436E-24
 -1        55 2.70406E-03-3.44099E-07 0.00000E+00
 -1        56 2.70546E-03 7.38052E-06 5.29396E-23
 -1        57 2.69172E-03 3.08747E-05 5.29396E-23
 -1        58 2.67350E-03 6.53634E-05-1.05879E-22
 -1        59 2.65325E-03 1.04668E-04 0.00000E+00
 -1        60 2.63390E-03 1.41787E-04 0.00000E+00
 -1        61 2.61827E-03 1.69895E-04-5.29396E-23
 -1        62 2.60831E-03 1.83779E-04 0.00000E+00
 -1        63 2.60529E-03 1.79491E-04 0.00000E+00
 -1        64 2.60907E-03 1.56412E-04 1.05879E-22
 -1        65 2.61889E-03 1.15688E-04 0.00000E+00
 -1        66 2.63302E-03 6.17932E-05 0.00000E+00
 -1        67 2.64949E-03 4.82764E-07 0.00000E+00
 -1        68 2.66604E-03-6.10615E-05 0.00000E+00
 -1        69 2.68042E-03-1.15628E-04 0.00000E+00
 -1        70 2.69060E-03-1.57354E-04 5.29396E-23
 -1        86 1.46426E-03-5.79776E-06-5.29396E-23
 -1        87 1.70339E-03-3.61971E-05 7.94093E-23
 -1        88 2.02489E-03-8.83525E-05 0.00000E+00
 -1        89 2.35055E-03-1.41888E-04 0.00000E+00
 -1        90 2.59978E-03-1.74641E-04-5.29396E-23
 -1       121 3.53592E-04-5.22185E-07 0.00000E+00
 -1       122 3.50775E-04-1.04776E-06 6.61744E-24
 -1       123 3.46090E-04-1.58007E-06 0.00000E+00
 -1       124 3.39555E-04-2.12244E-06-6.61744E-24
 -1       125 3.31191E-04-2.67782E-06-1.32349E-23
 -1       191 1.69036E-04 1.49658E-07 0.00000E+00
 -1       192 1.69276E-04 2.99289E-07-1.65436E-24
 -1       193 1.69676E-04 4.48872E-07 0.00000E+00
 -1       194 1.70236E-04 5.98378E-07 0.00000E+00
 -1       195 1.70956E-04 7.47781E-07 0.00000E+00
 -1       251 2.70122E-03 1.75910E-06 0.00000E+00
 -1       252 2.70091E-03 3.90135E-06 3.30872E-24
 -1       253 2.70060E-03 5.03901E-06 6.61744E-24
 -1       254 2.70029E-03 4.20879E-06 3.30872E-24
 -1       255 2.69997E-03 7.50457E-07 0.00000E+00
 -1       256 2.69964E-03-5.96280E-06 0.00000E+00
 -1       257 2.69928E-03-1.60568E-05 0.00000E+00
 -1       258 2.69888E-03-2.96143E-05 0.00000E+00
 -1       259 2.69844E-03-4.61856E-05 0.00000E+00
 -1       260 2.69795E-03-6.52821E-05 0.00000E+00
 -1       261 2.69743E-03-8.60267E-05 0.00000E+00
 -1       262 2.69690E-03-1.07522E-04 6.61744E-24
 -1       263 2.69637E-03-1.28754E-04 0.00000E+00
 -1       264 2.69586E-03-1.48713E-04 0.00000E+00
 -1       265 2.69539E-03-1.66585E-04-1.32349E-23
 -1       266 2.69938E-03-4.21599E-07-3.30872E-24
 -1       267 2.69724E-03-4.25012E-07 0.00000E+00
 -1       268 2.69510E-03-4.28833E-07 8.27181E-25
 -1       269 2.69296E-03-4.31447E-07 0.00000E+00
 -1       270 2.69082E-03-4.34032E-07 0.00000E+00
 -1       271 2.70061E-03 2.13423E-07-1.32349E-23
 -1       272 2.70060E-03-1.64771E-06 0.00000E+00
 -1       273 2.70147E-03-5.85193E-06 0.00000E+00
 -1       274 2.70314E-03-1.22447E-05 0.00000E+00
 -1       275 2.70555E-03-2.06513E-05 2.64698E-23
 -1       276 2.70863E-03-3.08822E-05 1.32349E-23
 -1       277 2.71229E-03-4.27319E-05 0.00000E+00
 -1       278 2.71646E-03-5.59826E-05-1.32349E-23
 -1       279 2.72106E-03-7.04046E-05-2.64698E-23
 -1       280 2.72599E-03-8.57587E-05 0.00000E+00
 -1       281 2.73116E-03-1.01798E-04 0.00000E+00
 -1       282 2.73649E-03-1.18270E-04 6.61744E-24
 -1       283 2.74188E-03-1.34919E-04 0.00000E+00
 -1       284 2.74724E-03-1.51487E-04-6.61744E-24
 -1       285 2.75249E-03-1.67718E-04 1.32349E-23
 -1       301 2.70632E-03-1.81913E-04 0.00000E+00
 -1       302 2.71608E-03-1.82196E-04-3.30872E-24
 -1       303 2.72516E-03-1.82469E-04 1.32349E-23
 -1       304 2.73448E-03-1.82744E-04 0.00000E+00
 -1       305 2.74496E-03-1.83031E-04 0.00000E+00
 -1       306 2.73271E-03-3.35549E-04-1.05879E-22
 -1       307 2.79661E-03-7.48847E-04 0.00000E+00
 -1       308 2.84342E-03-1.35349E-03 1.05879E-22
 -1       309 2.86737E-03-2.05367E-03 0.00000E+00
 -1       310 2.89866E-03-2.72380E-03 1.05879E-22
 -1       311 2.95807E-03-3.24094E-03-5.29396E-23
 -1       312 3.01606E-03-3.52442E-03 0.00000E+00
 -1       313 3.01200E-03-3.53616E-03 0.00000E+00
 -1       314 2.87215E-03-3.28794E-03-1.05879E-22
 -1       315 2.55548E-03-2.84396E-03 0.00000E+00
 -1       316 2.08002E-03-2.28076E-03 0.00000E+00
 -1       317 1.51131E-03-1.66766E-03 0.00000E+00
 -1       318 9.63419E-04-1.06539E-03 0.00000E+00
 -1       319 5.44261E-04-5.38881E-04-5.29396E-23
 -1       320 2.97810E-04-1.62121E-04 1.05879E-22
 -1       336 3.08871E-04-3.88483E-06-1.32349E-23
 -1       337 2.94527E-04-4.54801E-06-6.61744E-24
 -1       338 2.78059E-04-5.24217E-06-1.32349E-23
 -1       339 2.59541E-04-5.96864E-06-6.61744E-24
 -1       340 2.39055E-04-6.73205E-06 0.00000E+00
 -1       406 1.72876E-04 1.04615E-06 0.00000E+00
 -1       407 1.74077E-04 1.19503E-06-1.65436E-24
 -1       408 1.75437E-04 1.34361E-06 0.00000E+00
 -1       409 1.76958E-04 1.49167E-06 8.27181E-25
 -1       410 1.78639E-04 1.63887E-06 1.65436E-24
 -1       521 2.79592E-03-3.46793E-04 1.05879E-22
 -1       522 2.85803E-03-7.80752E-04 0.00000E+00
 -1       523 2.89829E-03-1.41374E-03 1.05879E-22
 -1       524 2.91285E-03-2.14308E-03 0.00000E+00
 -1       525 2.93610E-03-2.84024E-03 0.00000E+00
 -1       526 2.99191E-03-3.37960E-03 0.00000E+00
 -1       527 3.04944E-03-3.67357E-03-2.11758E-22
 -1       528 3.04295E-03-3.68319E-03-5.29396E-23
 -1       529 2.89074E-03-3.42029E-03 0.00000E+00
 -1       530 2.54949E-03-2.95720E-03 0.00000E+00
 -1       531 2.03816E-03-2.37431E-03 1.05879E-22
 -1       532 1.42889E-03-1.74362E-03-5.29396E-23
 -1       533 8.41329E-04-1.12321E-03-1.05879E-22
 -1       534 3.88647E-04-5.75711E-04-5.29396E-23
 -1       535 1.21052E-04-1.79534E-04 0.00000E+00
 -1       536 2.15796E-04 3.09807E-05 6.61744E-24
 -1       537 2.13345E-04 9.97619E-05 0.00000E+00
 -1       538 2.09439E-04 1.88252E-04 0.00000E+00
 -1       539 2.04723E-04 2.85778E-04 0.00000E+00
 -1       540 2.00417E-04 3.78697E-04 0.00000E+00
 -1       541 1.97587E-04 4.53388E-04-1.65436E-24
 -1       542 1.96272E-04 5.01837E-04 0.00000E+00
 -1       543 1.95987E-04 5.16206E-04 1.65436E-24
 -1       544 1.95632E-04 4.97147E-04 0.00000E+00
 -1       545 1.94171E-04 4.45594E-04 1.65436E-24
 -1       546 1.91340E-04 3.70811E-04 0.00000E+00
 -1       547 1.87420E-04 2.82214E-04-1.65436E-24
 -1       548 1.83500E-04 1.93610E-04 0.00000E+00
 -1       549 1.80668E-04 1.18807E-04 0.00000E+00
 -1       550 1.79209E-04 6.72165E-05-1.65436E-24
 -1       551 1.90371E-04-8.11789E-06 0.00000E+00
 -1       552 1.60910E-04-8.79821E-06 0.00000E+00
 -1       553 1.29249E-04-9.54013E-06 4.96308E-24
 -1       554 9.63461E-05-1.03214E-05 3.30872E-24
 -1       555 6.31573E-05-1.11138E-05 0.00000E+00
 -1       556 2.08555E-04 1.32786E-05 0.00000E+00
 -1       557 2.01869E-04 3.04418E-05 0.00000E+00
 -1       558 1.96508E-04 4.42344E-05-5.29396E-23
 -1       559 1.92348E-04 5.49425E-05 0.00000E+00
 -1       560 1.89268E-04 6.28524E-05 0.00000E+00
 -1       561 1.87150E-04 6.82528E-05 0.00000E+00
 -1       562 1.85876E-04 7.14339E-05 0.00000E+00
 -1       563 1.85332E-04 7.26863E-05 0.00000E+00
 -1       564 1.85403E-04 7.23018E-05 0.00000E+00
 -1       565 1.85979E-04 7.05727E-05 0.00000E+00
 -1       566 1.86946E-04 6.77920E-05 0.00000E+00
 -1       567 1.88197E-04 6.42531E-05 0.00000E+00
 -1       568 1.89619E-04 6.02496E-05 3.30872E-24
 -1       569 1.91106E-04 5.60752E-05 4.13590E-25
 -1       570 1.92547E-04 5.20239E-05 0.00000E+00
 -1       571 1.78955E-04 4.51568E-05 1.24077E-24
 -1       572 1.79055E-04 4.21218E-05 4.13590E-25
 -1       573 1.79156E-04 3.90182E-05-8.27181E-25
 -1       574 1.79257E-04 3.58663E-05-8.27181E-25
 -1       575 1.79358E-04 3.26867E-05-3.30872E-24
 -1       576 1.79459E-04 2.95000E-05-1.65436E-24
 -1       577 1.79559E-04 2.63269E-05-6.61744E-24
 -1       578 1.79661E-04 2.31881E-05 0.00000E+00
 -1       579 1.79762E-04 2.01041E-05 0.00000E+00
 -1       580 1.79863E-04 1.70958E-05 0.00000E+00
 -1       581 1.79965E-04 1.41836E-05 0.00000E+00
 -1       582 1.80067E-04 1.13883E-05 0.00000E+00
 -1       583 1.80169E-04 8.73049E-06-1.32349E-23
 -1       584 1.80272E-04 6.23058E-06 0.00000E+00
 -1       585 1.80375E-04 3.90879E-06 0.00000E+00
 -1       586 1.81388E-04 4.81523E-05 3.30872E-24
 -1       587 1.83849E-04 4.82008E-05 0.00000E+00
 -1       588 1.86282E-04 4.82492E-05-8.27181E-25
 -1       589 1.88729E-04 4.82970E-05 4.13590E-25
 -1       590 1.91233E-04 4.83436E-05 0.00000E+00
 -1       591 1.79870E-04 4.52696E-05 0.00000E+00
 -1       592 1.80892E-04 4.24020E-05 0.00000E+00
 -1       593 1.81922E-04 3.95085E-05 0.00000E+00
 -1       594 1.82959E-04 3.65956E-05 0.00000E+00
 -1       595 1.84001E-04 3.36699E-05 1.65436E-24
 -1       596 1.85045E-04 3.07377E-05 0.00000E+00
 -1       597 1.86089E-04 2.78056E-05 0.00000E+00
 -1       598 1.87130E-04 2.48800E-05 8.27181E-25
 -1       599 1.88167E-04 2.19673E-05 1.65436E-24
 -1       600 1.89197E-04 1.90740E-05-4.13590E-25
 -1       601 1.90217E-04 1.62065E-05-1.65436E-24
 -1       602 1.91225E-04 1.33713E-05 0.00000E+00
 -1       603 1.92219E-04 1.05748E-05 8.27181E-25
 -1       604 1.93196E-04 7.82368E-06 3.10193E-25
 -1       605 1.94155E-04 5.12414E-06-4.13590E-25
 -1       606 1.80490E-04-7.58823E-08 0.00000E+00
 -1       607 1.80498E-04-1.85875E-06 0.00000E+00
 -1       608 1.80506E-04-3.56941E-06 3.30872E-24
 -1       609 1.80513E-04-5.21294E-06 0.00000E+00
 -1       610 1.80520E-04-6.79448E-06 0.00000E+00
 -1       611 1.80527E-04-8.31921E-06 0.00000E+00
 -1       612 1.80534E-04-9.79230E-06 0.00000E+00
 -1       613 1.80541E-04-1.12190E-05 8.27181E-25
 -1       614 1.80549E-04-1.26044E-05 0.00000E+00
 -1       615 1.80556E-04-1.39538E-05 0.00000E+00
 -1       616 1.80563E-04-1.52723E-05 0.00000E+00
 -1       617 1.80570E-04-1.65652E-05 4.13590E-25
 -1       618 1.80578E-04-1.78377E-05 0.00000E+00
 -1       619 1.80585E-04-1.90948E-05 0.00000E+00
 -1       620 1.80592E-04-2.03419E-05 0.00000E+00
 -1       621 1.82562E-04 1.90109E-06 1.65436E-24
 -1       622 1.84845E-04 2.01892E-06 1.65436E-24
 -1       623 1.87285E-04 2.13641E-06-3.30872E-24
 -1       624 1.89836E-04 2.25344E-06-1.65436E-24
 -1       625 1.92455E-04 2.37008E-06 0.00000E+00
 -1       626 1.81288E-04-4.03216E-08-6.61744E-24
 -1       627 1.82080E-04-1.81174E-06 3.30872E-24
 -1       628 1.82854E-04-3.53772E-06 0.00000E+00
 -1       629 1.83615E-04-5.22571E-06 0.00000E+00
 -1       630 1.84364E-04-6.88319E-06 3.30872E-24
 -1       631 1.85105E-04-8.51766E-06 0.00000E+00
 -1       632 1.85840E-04-1.01366E-05 3.30872E-24
 -1       633 1.86572E-04-1.17475E-05 1.65436E-24
 -1       634 1.87303E-04-1.33578E-05 0.00000E+00
 -1       635 1.88037E-04-1.49751E-05-1.65436E-24
 -1       636 1.88777E-04-1.66068E-05 3.30872E-24
 -1       637 1.89525E-04-1.82605E-05 0.00000E+00
 -1       638 1.90283E-04-1.99435E-05 0.00000E+00
 -1       639 1.91056E-04-2.16636E-05 8.27181E-25
 -1       640 1.91844E-04-2.34281E-05 0.00000E+00
 -1       656 1.82065E-04-2.21788E-05-6.61744E-24
 -1       657 1.83939E-04-2.27978E-05 0.00000E+00
 -1       658 1.86090E-04-2.34156E-05-1.32349E-23
 -1       659 1.88378E-04-2.40331E-05 0.00000E+00
 -1       660 1.90624E-04-2.46525E-05 6.61744E-24
 -1       661 1.81147E-04-2.28715E-05-8.27181E-25
 -1       662 1.81733E-04-2.42522E-05-8.27181E-25
 -1       663 1.82352E-04-2.57207E-05 0.00000E+00
 -1       664 1.83002E-04-2.72702E-05-8.27181E-25
 -1       665 1.83679E-04-2.88948E-05-1.65436E-24
 -1       666 1.84383E-04-3.05882E-05-8.27181E-25
 -1       667 1.85110E-04-3.23446E-05-1.65436E-24
 -1       668 1.85858E-04-3.41582E-05 0.00000E+00
 -1       669 1.86626E-04-3.60233E-05 0.00000E+00
 -1       670 1.87411E-04-3.79343E-05 0.00000E+00
 -1       671 1.88210E-04-3.98858E-05-1.65436E-24
 -1       672 1.89023E-04-4.18724E-05-8.27181E-25
 -1       673 1.89847E-04-4.38887E-05 0.00000E+00
 -1       674 1.90679E-04-4.59300E-05 4.13590E-25
 -1       675 1.91518E-04-4.79905E-05-2.06795E-25
 -1       676 1.81777E-04-4.95427E-05 0.00000E+00
 -1       677 1.83901E-04-4.96482E-05-1.65436E-24
 -1       678 1.86022E-04-4.97537E-05 3.30872E-24
 -1       679 1.88140E-04-4.98588E-05 1.65436E-24
 -1       680 1.90252E-04-4.99640E-05 0.00000E+00
 -1       771 1.84722E-05 1.53377E-05 0.00000E+00
 -1       772 8.24884E-06 3.77094E-05 0.00000E+00
 -1       773-1.28880E-07 5.54408E-05-5.29396E-23
 -1       774-6.78867E-06 6.87957E-05 0.00000E+00
 -1       775-1.18554E-05 7.80485E-05-5.29396E-23
 -1       776-1.54590E-05 8.34910E-05 2.64698E-23
 -1       777-1.77287E-05 8.54248E-05 0.00000E+00
 -1       778-1.87969E-05 8.41662E-05 0.00000E+00
 -1       779-1.87948E-05 8.00399E-05 0.00000E+00
 -1       780-1.78557E-05 7.33824E-05 2.64698E-23
 -1       781-1.61120E-05 6.45370E-05 5.29396E-23
 -1       782-1.36976E-05 5.38562E-05 2.64698E-23
 -1       783-1.07454E-05 4.16971E-05 5.29396E-23
 -1       784-7.38943E-06 2.84232E-05 0.00000E+00
 -1       785-3.76292E-06 1.44011E-05 0.00000E+00
 -1       786 1.93909E-04 4.54988E-05-8.27181E-25
 -1       787 1.93988E-04 4.25934E-05 8.27181E-25
 -1       788 1.94066E-04 3.96751E-05-1.65436E-24
 -1       789 1.94145E-04 3.67488E-05 0.00000E+00
 -1       790 1.94224E-04 3.38177E-05 0.00000E+00
 -1       791 1.94303E-04 3.08849E-05 0.00000E+00
 -1       792 1.94382E-04 2.79536E-05 0.00000E+00
 -1       793 1.94462E-04 2.50265E-05-1.65436E-24
 -1       794 1.94541E-04 2.21075E-05 0.00000E+00
 -1       795 1.94620E-04 1.92003E-05-1.65436E-24
 -1       796 1.94700E-04 1.63112E-05-3.30872E-24
 -1       797 1.94779E-04 1.34462E-05 0.00000E+00
 -1       798 1.94859E-04 1.06162E-05 3.30872E-24
 -1       799 1.94938E-04 7.83251E-06 0.00000E+00
 -1       800 1.95018E-04 5.11499E-06 0.00000E+00
 -1       801 1.35550E-04 4.42236E-05 0.00000E+00
 -1       802-3.96582E-05 2.69632E-05 0.00000E+00
 -1       803-1.81930E-04 1.39056E-05 0.00000E+00
 -1       804-1.46014E-04 9.95803E-06 2.64698E-23
 -1       805-4.46444E-05 3.05491E-06 0.00000E+00
 -1       806 1.94803E-04 4.54259E-05 3.30872E-24
 -1       807 1.95774E-04 4.24425E-05 0.00000E+00
 -1       808 1.96750E-04 3.94462E-05-3.30872E-24
 -1       809 1.97726E-04 3.64456E-05 0.00000E+00
 -1       810 1.98700E-04 3.34498E-05 0.00000E+00
 -1       811 1.99670E-04 3.04675E-05 0.00000E+00
 -1       812 2.00631E-04 2.75074E-05 0.00000E+00
 -1       813 2.01580E-04 2.45785E-05 1.65436E-24
 -1       814 2.02515E-04 2.16893E-05 0.00000E+00
 -1       815 2.03431E-04 1.88486E-05 1.65436E-24
 -1       816 2.04327E-04 1.60653E-05-3.30872E-24
 -1       817 2.05197E-04 1.33481E-05 8.27181E-25
 -1       818 2.06040E-04 1.07056E-05 1.65436E-24
 -1       819 2.06852E-04 8.14669E-06-8.27181E-25
 -1       820 2.07631E-04 5.67992E-06-3.30872E-24
 -1       821 1.94959E-04-1.40885E-06 1.65436E-24
 -1       822 1.94800E-04-7.90293E-06 0.00000E+00
 -1       823 1.94630E-04-1.61402E-05 0.00000E+00
 -1       824 1.94450E-04-2.52516E-05 1.65436E-24
 -1       825 1.94273E-04-3.41244E-05 3.30872E-24
 -1       826 1.94106E-04-4.16473E-05 0.00000E+00
 -1       827 1.93952E-04-4.70870E-05-3.30872E-24
 -1       828 1.93809E-04-4.97236E-05 0.00000E+00
 -1       829 1.93669E-04-4.96210E-05 0.00000E+00
 -1       830 1.93525E-04-4.68602E-05 0.00000E+00
 -1       831 1.93375E-04-4.22656E-05 3.30872E-24
 -1       832 1.93221E-04-3.66734E-05 1.65436E-24
 -1       833 1.93067E-04-3.11992E-05 3.30872E-24
 -1       834 1.92920E-04-2.69580E-05 1.65436E-24
 -1       835 1.92779E-04-2.47205E-05 0.00000E+00
 -1       836 1.97548E-04 2.62128E-06 0.00000E+00
 -1       837 1.99827E-04 2.76223E-06 1.65436E-24
 -1       838 2.01992E-04 2.90324E-06 0.00000E+00
 -1       839 2.04100E-04 3.04355E-06 0.00000E+00
 -1       840 2.06208E-04 3.18365E-06 0.00000E+00
 -1       856 1.92634E-04-2.70804E-05 0.00000E+00
 -1       857 1.92616E-04-2.87783E-05 0.00000E+00
 -1       858 1.92598E-04-3.03597E-05 2.06795E-25
 -1       859 1.92580E-04-3.18460E-05-2.06795E-25
 -1       860 1.92562E-04-3.32585E-05 0.00000E+00
 -1       861 1.92544E-04-3.46187E-05 0.00000E+00
 -1       862 1.92526E-04-3.59480E-05 4.13590E-25
 -1       863 1.92508E-04-3.72680E-05 0.00000E+00
 -1       864 1.92490E-04-3.86002E-05 4.13590E-25
 -1       865 1.92472E-04-3.99660E-05-2.06795E-25
 -1       866 1.92454E-04-4.13870E-05 0.00000E+00
 -1       867 1.92436E-04-4.28845E-05 0.00000E+00
 -1       868 1.92417E-04-4.44800E-05 0.00000E+00
 -1       869 1.92398E-04-4.61947E-05 0.00000E+00
 -1       870 1.92379E-04-4.80500E-05 0.00000E+00
 -1       871 1.94776E-04-2.52528E-05 8.27181E-25
 -1       872 1.97049E-04-2.52646E-05 0.00000E+00
 -1       873 1.99400E-04-2.52771E-05 0.00000E+00
 -1       874 2.01757E-04-2.52903E-05 2.32645E-25
 -1       875 2.04052E-04-2.53041E-05-1.24077E-24
 -1       876 1.93464E-04-2.70657E-05 0.00000E+00
 -1       877 1.94257E-04-2.88179E-05 0.00000E+00
 -1       878 1.95027E-04-3.05094E-05 3.30872E-24
 -1       879 1.95777E-04-3.21479E-05 0.00000E+00
 -1       880 1.96511E-04-3.37408E-05-3.30872E-24
 -1       881 1.97231E-04-3.52957E-05 0.00000E+00
 -1       882 1.97939E-04-3.68203E-05 3.30872E-24
 -1       883 1.98639E-04-3.83220E-05 1.65436E-24
 -1       884 1.99333E-04-3.98083E-05-3.30872E-24
 -1       885 2.00024E-04-4.12868E-05 0.00000E+00
 -1       886 2.00715E-04-4.27651E-05-3.30872E-24
 -1       887 2.01408E-04-4.42505E-05 0.00000E+00
 -1       888 2.02107E-04-4.57507E-05-3.30872E-24
 -1       889 2.02813E-04-4.72734E-05 1.65436E-24
 -1       890 2.03530E-04-4.88261E-05 1.65436E-24
 -1       891 1.94483E-04-5.01260E-05 0.00000E+00
 -1       892 1.96584E-04-5.01852E-05-8.27181E-25
 -1       893 1.98637E-04-5.02443E-05 0.00000E+00
 -1       894 2.00616E-04-5.03031E-05-4.13590E-25
 -1       895 2.02497E-04-5.03616E-05-4.13590E-25
 -1       956 2.08240E-04 1.15888E-06-1.65436E-24
 -1       957 2.08105E-04-8.87309E-07 1.65436E-24
 -1       958 2.07969E-04-2.83696E-06-3.30872E-24
 -1       959 2.07834E-04-4.70301E-06-1.65436E-24
 -1       960 2.07699E-04-6.49847E-06 3.30872E-24
 -1       961 2.07563E-04-8.23635E-06-1.65436E-24
 -1       962 2.07428E-04-9.92970E-06 0.00000E+00
 -1       963 2.07293E-04-1.15916E-05 0.00000E+00
 -1       964 2.07157E-04-1.32351E-05 0.00000E+00
 -1       965 2.07022E-04-1.48733E-05 0.00000E+00
 -1       966 2.06887E-04-1.65192E-05-3.30872E-24
 -1       967 2.06752E-04-1.81860E-05 1.65436E-24
 -1       968 2.06617E-04-1.98866E-05 0.00000E+00
 -1       969 2.06482E-04-2.16340E-05 0.00000E+00
 -1       970 2.06347E-04-2.34414E-05-3.30872E-24
 -1       971 2.06092E-04-2.72095E-05-3.30872E-24
 -1       972 2.05969E-04-2.90064E-05 1.65436E-24
 -1       973 2.05846E-04-3.07218E-05 3.30872E-24
 -1       974 2.05723E-04-3.23663E-05 1.65436E-24
 -1       975 2.05599E-04-3.39506E-05 0.00000E+00
 -1       976 2.05476E-04-3.54850E-05-1.65436E-24
 -1       977 2.05353E-04-3.69801E-05 3.30872E-24
 -1       978 2.05230E-04-3.84467E-05 1.65436E-24
 -1       979 2.05107E-04-3.98952E-05 3.30872E-24
 -1       980 2.04985E-04-4.13362E-05 1.65436E-24
 -1       981 2.04862E-04-4.27803E-05 0.00000E+00
 -1       982 2.04739E-04-4.42382E-05 0.00000E+00
 -1       983 2.04616E-04-4.57204E-05 0.00000E+00
 -1       984 2.04494E-04-4.72374E-05 1.65436E-24
 -1       985 2.04372E-04-4.87999E-05-3.30872E-24
 -3
    1PSTEP                        44          22           1          
  100CL  122 6.62943E-01         409                     0   22           1
 -4  STRESS      6    1
 -5  SXX         1    4    1    1
 -5  SYY         1    4    2    2
 -5  SZZ         1    4    3    3
 -5  SXY         1    4    1    2
 -5  SYZ         1    4    2    3
 -5  SZX         1    4    3    1
 -1         1-5.32158E+06-1.63160E+06-1.13314E+06-1.40746E+06-1.10595E-09-3.14118E-07
 -1         2 1.36837E+06 2.01280E+07 4.73362E+06 6.05794E+06 2.82016E-08 1.41154E-09
 -1         3-1.63797E+03-1.48124E+06 4.04645E+02-2.20631E+03-6.49852E-10 4.39541E-08
 -1         5-1.81801E+02 4.28962E+05 1.18346E+01-2.52277E+00-7.02874E-10-2.01217E-08
 -1         8-5.71813E+05-2.04628E+05-6.45785E+04-2.49872E+05 2.61025E-10-1.65273E-07
 -1         9 1.16338E+07 3.52041E+06 2.70818E+06-4.06888E+05-1.29687E-08-1.01910E-07
 -1        10-2.38532E+03-1.54352E+06-3.68781E+03-1.49492E+04-1.45210E-08-5.39992E-08
 -1        12-1.77465E+02 4.28988E+05 3.95282E+02-1.64550E+01-9.12337E-10 1.35879E-09
 -1        15 9.51166E+02 5.22714E+02 3.07461E+03 8.80135E-01-1.19755E-10 6.60165E-07
 -1        16 2.28613E+07-3.13207E+05 3.11662E+06-2.23048E+06 1.29609E-08 1.39543E-07
 -1        17 8.36252E+06 6.29686E+06 2.26490E+06 5.99920E+06 2.21946E-08 3.79281E-08
 -1        18 2.03554E+05 5.28164E+04 1.76225E+04-1.33470E+05 1.74277E-08-7.56472E-09
 -1        19 1.27831E+05 1.56798E+05-4.86204E+02 2.00870E+04 2.62062E-09-8.93815E-09
 -1        20-8.88639E+04-5.90321E+05-1.32771E+05 2.27721E+04-3.57674E-09 1.37637E-10
 -1        21-4.35656E+01-2.96004E+05-9.19329E+02 4.31473E+02 2.18048E-08-1.74483E-08
 -1        24 1.39577E+07 1.20576E+07 3.86993E+06 1.11598E+07-1.77291E-07-5.54525E-08
 -1        25 4.23035E+05 1.34599E+06 3.72426E+05-9.08157E+05 3.18747E-08-4.22071E-08
 -1        26-3.76817E+04 1.09937E+05-2.02651E+04-2.83205E+03-1.87865E-09-2.85860E-09
 -1        27-7.62126E+04-3.18957E+05-1.15346E+05 6.98200E+04 2.49641E-09-2.87582E-09
 -1        28 2.20101E+04-8.58608E+04 1.68963E+04 1.98854E+04-8.97992E-09-6.93841E-09
 -1        32-1.35707E+06-1.95832E+06 1.03242E+05 7.84638E+05-2.70229E-08-1.52281E-08
 -1        33-1.73836E+05 1.02245E+05 3.42779E+04-4.96530E+04-5.22812E-09-6.00267E-09
 -1        34-2.25828E+05-2.69381E+04 7.08879E+02 7.86140E+04-8.22640E-09-9.30489E-09
 -1        35-2.28619E+04-3.39886E+04-1.35807E+03 5.14276E+04-7.04319E-09 1.23194E-08
 -1        51 6.02804E+04-1.74701E+05 1.27582E+05-4.49138E+05 2.91038E-11-2.39161E-08
 -1        52 2.04527E+04-1.52475E+05 6.69997E+04-5.23809E+05 3.90173E-10-1.88069E-07
 -1        53 4.22440E+03-1.67858E+05 3.49793E+04-4.47585E+05 2.38288E-10-4.84943E-08
 -1        54 7.55810E+03-1.63659E+05 2.89219E+04-5.25337E+05-5.45697E-10 2.45896E-07
 -1        55 1.64484E+04-1.70790E+05 3.53906E+04-4.47482E+05 4.40195E-10 8.63547E-08
 -1        56-9.72990E+06-1.31730E+06-8.94909E+05-4.02499E+06-9.69158E-09-4.42669E-08
 -1        57-1.09278E+07-9.51134E+05-5.52285E+05-2.82277E+06-2.68119E-08 3.32824E-07
 -1        58-9.60514E+06-1.75711E+06-1.99686E+05-4.18274E+06 2.21771E-08 2.14350E-08
 -1        59-1.10238E+07-4.55844E+05-1.10481E+05-2.76138E+06-2.16291E-08-3.26969E-07
 -1        60-9.69035E+06-1.76266E+06-5.48473E+04-4.13690E+06 1.93540E-09-7.59028E-08
 -1        61-1.04841E+07-7.39103E+05 5.63054E+03-2.99898E+06 1.49303E-08 3.51683E-08
 -1        62-1.00414E+07-1.54338E+06-6.06370E+04-3.86448E+06-1.88302E-08-5.21432E-08
 -1        63-9.73217E+06-1.34915E+06 3.83166E+04-3.61664E+06 6.28788E-08 2.42073E-07
 -1        64-1.03623E+07-1.20940E+06-5.55818E+04-3.46781E+06-2.44327E-08-4.22515E-08
 -1        65-9.37786E+06-1.87810E+06 3.70527E+03-4.38361E+06 5.24851E-08-1.35311E-07
 -1        66-1.04907E+07-9.48515E+05-4.56692E+04-3.16871E+06-1.25874E-08-3.69275E-07
 -1        67-9.36251E+06-2.11311E+06-9.96094E+04-4.74251E+06-5.99530E-08-3.68156E-07
 -1        68-1.04714E+07-9.09223E+05-1.84225E+05-3.16833E+06-1.78261E-09-1.42987E-07
 -1        69-9.56922E+06-2.21811E+06-4.92916E+05-4.34960E+06-1.01927E-08-3.68884E-07
 -1        70-1.01988E+07-9.14471E+05-8.18892E+05-3.50327E+06 2.20043E-08-1.75147E-07
 -1        86-1.39545E+06-1.47250E+07-2.58928E+06-2.85111E+06-2.63448E-07-6.37665E-08
 -1        87 2.17238E+06 5.68626E+06 2.15429E+06 5.36826E+06-4.46897E-07-1.17281E-07
 -1        88-3.98099E+05-2.05341E+06 2.00898E+05-2.44733E+06-3.98417E-07-1.41491E-07
 -1        89 2.91128E+06 5.42452E+06 2.20577E+06 5.54039E+06-5.64272E-07-3.38905E-07
 -1        90-2.05157E+06-1.45313E+07-2.80028E+06-3.04777E+06-1.27733E-07-9.43255E-08
 -1       121-2.23708E+03-1.48660E+06-6.50088E+02 1.09206E+03 1.47988E-09 2.64045E-08
 -1       122-1.45487E+03-1.48131E+06 7.52482E+02-4.42067E+03-5.64049E-09 3.63798E-09
 -1       123-2.24962E+03-1.48673E+06 1.26262E+02 3.26247E+03 4.37922E-09 3.20651E-08
 -1       124 1.18893E+02-1.48093E+06 2.83523E+03-9.27883E+03-1.12914E-08-5.67343E-09
 -1       125-3.00644E+03-1.48759E+06 3.19671E+03 5.89615E+03 6.83394E-09-4.18804E-08
 -1       191-1.91175E+02 4.28961E+05 5.37753E+00 1.36834E+00-8.89183E-10-1.96451E-09
 -1       192-1.83015E+02 4.28962E+05 2.54805E+01-7.44668E+00-1.20996E-09 6.97764E-09
 -1       193-1.94331E+02 4.28960E+05 3.88581E+01 6.72777E+00-1.75034E-09 7.49424E-09
 -1       194-1.86890E+02 4.28967E+05 9.74159E+01-1.66986E+01-8.64457E-10 3.58705E-09
 -1       195-2.00384E+02 4.28958E+05 1.81990E+02 1.13030E+01-2.34070E-09 5.08953E-09
 -1       251-8.80033E+05 1.63434E+04-3.81916E+04-1.41678E+04 1.32215E-09-6.63604E-08
 -1       252-8.94863E+05-1.88954E+04-2.66315E+04 4.91171E+04-4.00325E-09-2.81396E-07
 -1       253-8.88221E+05 2.51608E+03-1.02198E+04-1.03542E+04 4.87512E-09 2.32712E-08
 -1       254-8.81916E+05-3.01279E+03-4.77938E+03 3.53293E+04 2.66141E-09-1.61422E-07
 -1       255-8.92419E+05 9.44024E+01-3.45117E+03-3.82595E+02-8.75866E-09-6.39009E-08
 -1       256-8.76641E+05-2.90145E+02 9.67195E+02 1.25154E+04 1.83326E-08 1.03828E-08
 -1       257-8.93072E+05-5.19860E+02-1.31016E+03 1.24500E+04-5.86942E-09 2.23561E-08
 -1       258-8.79080E+05 8.33469E+02 2.55365E+03-1.17040E+04 3.14265E-09-3.22827E-07
 -1       259-8.90197E+05-8.61097E+02 1.37671E+03 2.38343E+04-8.02856E-10-1.43091E-07
 -1       260-8.84953E+05 2.78542E+03 5.45127E+03-2.92538E+04 9.23023E-10-1.79612E-07
 -1       261-8.87788E+05-2.01664E+03 8.51721E+03 3.00138E+04 1.79717E-08-8.76116E-08
 -1       262-8.83493E+05 1.14725E+04 2.11518E+04-3.43783E+04-9.98764E-09-2.80201E-07
 -1       263-8.91891E+05-9.33421E+03 3.35265E+04 2.89671E+04 7.07132E-09 1.08939E-08
 -1       264-8.53699E+05 6.58367E+04 9.27603E+04-2.52809E+04 4.92125E-08 2.97456E-07
 -1       265-9.17112E+05-5.64968E+04 1.29282E+05 2.09057E+04-2.56114E-09 1.36701E-07
 -1       266-1.72194E+04-8.05262E+03 4.03979E+04-1.88307E+01-6.00267E-11-1.06003E-07
 -1       267 1.99618E+04 9.38426E+03 2.85546E+04 2.17287E+01-2.91038E-11-3.10630E-07
 -1       268-2.67685E+03-1.32914E+03 1.06135E+04-2.76852E+00 6.32099E-11-3.28686E-08
 -1       269 3.16057E+03 1.59062E+03 6.89871E+03 3.22502E+00-2.72848E-12 3.65312E-07
 -1       270-4.74402E+02-2.61352E+02 3.33010E+03-4.37652E-01-2.48747E-10 2.59194E-07
 -1       271-1.52006E+06-1.92397E+05-1.14297E+05-5.90714E+05-1.54560E-08-3.25817E-08
 -1       272-1.52276E+06-3.03622E+05-7.20647E+04-6.23787E+05 4.63933E-08 7.53644E-08
 -1       273-1.54399E+06-2.17152E+05-2.76124E+04-5.82734E+05-1.79280E-08 2.26031E-07
 -1       274-1.49515E+06-2.73920E+05-1.45273E+04-6.38528E+05 2.28174E-08 6.02922E-08
 -1       275-1.54953E+06-2.17018E+05-6.82062E+03-5.79058E+05 1.66692E-08-1.92127E-07
 -1       276-1.48924E+06-2.74636E+05-2.97018E+03-6.46711E+05-2.75140E-08-5.34892E-08
 -1       277-1.55228E+06-2.14549E+05-1.87445E+03-5.76393E+05 3.02389E-08-1.31877E-09
 -1       278-1.48686E+06-2.77793E+05-7.71268E+02-6.52740E+05 1.92304E-08-1.19690E-07
 -1       279-1.55404E+06-2.12489E+05-9.09800E+02-5.74504E+05-1.86774E-08 1.01503E-07
 -1       280-1.48570E+06-2.80230E+05-1.10517E+03-6.56755E+05 2.59097E-08 3.21903E-07
 -1       281-1.55498E+06-2.11146E+05-2.03756E+03-5.73419E+05-6.84149E-08 3.81845E-07
 -1       282-1.48607E+06-2.82607E+05-4.74913E+03-6.58466E+05 2.02813E-08 2.98370E-07
 -1       283-1.55445E+06-2.09754E+05-8.44859E+03-5.73260E+05 4.27860E-09-5.07534E-08
 -1       284-1.49358E+06-2.93824E+05-2.30242E+04-6.56298E+05-2.06657E-08-9.56948E-08
 -1       285-1.54749E+06-2.01169E+05-3.58995E+04-5.75086E+05-1.79352E-08 2.23736E-08
 -1       301-4.53999E+03-6.40871E+05 1.67319E+05-1.12243E+06 8.55653E-09-1.24855E-08
 -1       302-5.68910E+03-5.94710E+05 1.00697E+05-1.63864E+06-2.83035E-09 1.88700E-07
 -1       303-1.97109E+04-6.32689E+05 5.70723E+04-1.11938E+06 2.28902E-08-5.62595E-08
 -1       304-2.16573E+04-6.01156E+05 5.77503E+04-1.63800E+06-2.93367E-08 1.12752E-07
 -1       305-2.38466E+04-6.21617E+05 7.14114E+04-1.12249E+06-9.24229E-09 5.71017E-08
 -1       306-3.01101E+07-6.21799E+06-8.60353E+06-5.38712E+05-1.26543E-07-8.60891E-08
 -1       307 2.53937E+07 3.24727E+06 5.51638E+06-1.51698E+07-8.09916E-07-3.52622E-07
 -1       308-6.99724E+06-1.03103E+06-4.61625E+05 5.20491E+06-2.08063E-07-1.38840E-07
 -1       309-3.28328E+06 8.73804E+06 2.27833E+06-2.06505E+07 7.12243E-07-2.11701E-07
 -1       310-1.25073E+07-1.93181E+06-2.01737E+06 5.21482E+06-2.32598E-07-3.69037E-07
 -1       311 3.82553E+07 2.27023E+04 7.25360E+06-8.87071E+06 1.23633E-07-2.68075E-07
 -1       312-3.18838E+07-6.74137E+06-8.51661E+06-4.98842E+06-7.40401E-08 2.28727E-07
 -1       313 4.54627E+07 1.49037E+07 1.06564E+07 2.37070E+07-2.60916E-07 2.46800E-07
 -1       314-1.72751E+07-1.77353E+07-7.52478E+06-1.25319E+07 4.95405E-07-2.29746E-07
 -1       315-1.73724E+06 2.96953E+07 5.67671E+06 1.06291E+07-4.43746E-07-1.71596E-07
 -1       316 1.36792E+06-9.86095E+06-4.53861E+05-2.55756E+06-1.35026E-06-3.41650E-07
 -1       317-1.71276E+07 2.23905E+07 2.23285E+06-8.80001E+06 5.19096E-07-9.02008E-07
 -1       318-1.04498E+06-1.27297E+07-2.02082E+06-4.22151E+06-9.75619E-07 2.08442E-07
 -1       319 7.09597E+06 3.18946E+07 7.00933E+06 1.65254E+07-6.88888E-08 3.18454E-07
 -1       320-2.25194E+07-1.76258E+07-9.83039E+06-1.27927E+07 1.66707E-07-2.68919E-08
 -1       336-1.08362E+03-1.60930E+06-1.32436E+04 8.85436E+03-2.79306E-08-4.68572E-09
 -1       337-5.25422E+03-1.60796E+06-1.69116E+04-2.16105E+04-5.18758E-08-2.83762E-08
 -1       338-1.12705E+02-1.60885E+06-2.68039E+04 1.24633E+04-3.56467E-08-2.09548E-09
 -1       339-2.82659E+04-1.62424E+06-6.00840E+04-2.86959E+04-6.60148E-08 2.67028E-08
 -1       340 1.82396E+04-1.59531E+06-9.48699E+04 1.58060E+04-4.33611E-08 4.21715E-08
 -1       406-1.55846E+02 4.28940E+05 7.71414E+02 7.14922E+00-2.89549E-09 8.72024E-09
 -1       407 9.55774E+01 4.29126E+05 1.65878E+03 3.36143E+01-8.92129E-10-1.44246E-09
 -1       408 6.70334E+02 4.28818E+05 3.30148E+03-4.00946E+01-3.86672E-09-1.05028E-08
 -1       409 3.41843E+03 4.30180E+05 7.45119E+03 4.46791E+02-3.63343E-10-5.16593E-10
 -1       410 1.01395E+04 4.27855E+05 1.52036E+04-4.36694E+02-4.59477E-09 1.35242E-08
 -1       521-3.16994E+07-7.68750E+06-1.00691E+07-1.38609E+05-1.06869E-07 2.91038E-08
 -1       522 2.62990E+07 4.28906E+06 5.63314E+06-1.87082E+07-5.07367E-07-2.53087E-07
 -1       523-7.56396E+06-1.34909E+06-4.52602E+05 5.66169E+06 1.08790E-07-4.35524E-07
 -1       524-6.78813E+06 1.18337E+07 2.47164E+06-2.37357E+07 9.65912E-07-4.53507E-07
 -1       525-1.33266E+07-2.57564E+06-2.22657E+06 5.67713E+06 5.23520E-07-2.75555E-07
 -1       526 4.18714E+07-6.08152E+04 7.63109E+06-1.15253E+07 5.80272E-07-1.26020E-08
 -1       527-3.37828E+07-8.45534E+06-9.83807E+06-4.86479E+06 1.36439E-07 2.83020E-07
 -1       528 4.97119E+07 1.66668E+07 1.11342E+07 2.70287E+07-1.42900E-07 2.90369E-07
 -1       529-1.82176E+07-1.99865E+07-8.63989E+06-1.25760E+07 8.57981E-08-2.33413E-07
 -1       530-4.24716E+06 3.45516E+07 6.01274E+06 1.00830E+07-2.16620E-07 4.88188E-07
 -1       531 1.38296E+06-1.09352E+07-4.23190E+05-2.49139E+06-8.98843E-07 3.79805E-07
 -1       532-1.96485E+07 2.44381E+07 2.44793E+06-1.31215E+07 2.79717E-07-6.91987E-07
 -1       533-1.09709E+06-1.39152E+07-2.16326E+06-4.03596E+06-2.21102E-07-1.03511E-06
 -1       534 5.14452E+06 3.70977E+07 7.31816E+06 1.71521E+07 1.81899E-08 7.70146E-07
 -1       535-2.37525E+07-2.00463E+07-1.12946E+07-1.28810E+07 1.30734E-07 4.56523E-07
 -1       536-8.42690E+05-6.14289E+04-7.76223E+04-6.83865E+04-7.34508E-09 8.16854E-08
 -1       537 7.93176E+04 5.83663E+04 1.13083E+05 1.51209E+05-1.36875E-07 1.09992E-07
 -1       538-4.12562E+05 4.31986E+03 8.53214E+02-8.66111E+04 2.89165E-08 1.24390E-07
 -1       539-2.36653E+05 3.98575E+03 3.22298E+04 1.68679E+05 1.91893E-07 1.50873E-07
 -1       540-5.34807E+05-2.01483E+02-2.76079E+04-8.67922E+04 2.17228E-08 1.29157E-07
 -1       541 3.12153E+05 2.26282E+04 1.40642E+05 1.25694E+05 5.31077E-09 1.03529E-07
 -1       542-9.46473E+05-2.69228E+04-1.12943E+05-4.22216E+04 5.82222E-08 5.68673E-08
 -1       543 6.81850E+05 3.71606E+04 2.14702E+05-1.21767E+04-2.86693E-08-1.04042E-08
 -1       544-8.94515E+05-2.30967E+04-1.03088E+05 5.00847E+04 4.22915E-10-4.86257E-08
 -1       545 1.87220E+05 1.41282E+04 1.12455E+05-1.38882E+05 4.19464E-08-7.84878E-08
 -1       546-4.65232E+05 7.32363E+03-1.73912E+04 8.38551E+04 3.95999E-08-1.11687E-07
 -1       547-2.53633E+05-4.35559E+03 1.79455E+04-1.71482E+05-1.31827E-07-1.14520E-07
 -1       548-4.65626E+05 5.53437E+03-2.77659E+04 8.38014E+04-1.20754E-07-1.11683E-07
 -1       549 1.91659E+05 2.93039E+04 9.13853E+04-1.39146E+05-9.36893E-08-8.36856E-08
 -1       550-8.98587E+05-3.64527E+04-1.58969E+05 5.04016E+04 9.34506E-09-5.05497E-08
 -1       551 4.42053E+04-7.64140E+05-1.72544E+04-1.24278E+06-1.08746E-07-2.30211E-08
 -1       552 9.68083E+04-8.10372E+05 8.98741E+03-1.77271E+06-7.54226E-08 4.03670E-08
 -1       553 7.41504E+04-8.03912E+05 3.16871E+04-1.23627E+06-1.22222E-07 2.64990E-08
 -1       554 1.34446E+05-8.23358E+05 8.07119E+04-1.77446E+06-7.46368E-08 1.94559E-08
 -1       555 1.02617E+05-8.25847E+05 1.47595E+05-1.23628E+06-1.26209E-07-1.59162E-08
 -1       556 2.07481E+05-3.55900E+05 2.62955E+04-3.75109E+05-3.04717E-08-3.21597E-08
 -1       557 3.29517E+05-4.51951E+05 1.62772E+04-4.84678E+05-3.97267E-09 1.28348E-08
 -1       558 1.90912E+05-3.49762E+05 2.39214E+03-3.78478E+05-2.43599E-08 3.09446E-08
 -1       559 3.06411E+05-4.52782E+05 2.40684E+03-5.03789E+05 2.07801E-08 2.11767E-08
 -1       560 1.76773E+05-3.40898E+05-1.62929E+03-3.88724E+05 1.07975E-08 1.19253E-08
 -1       561 2.88429E+05-4.45646E+05 3.15802E+01-5.16146E+05-5.41331E-09-3.75439E-09
 -1       562 1.65313E+05-3.33790E+05-1.54259E+03-3.97081E+05-1.48430E-09-1.22891E-08
 -1       563 2.74572E+05-4.39621E+05-1.64753E+02-5.25257E+05-5.98084E-09-1.27220E-08
 -1       564 1.56778E+05-3.28481E+05-8.47988E+02-4.03166E+05-9.19681E-09-2.33595E-08
 -1       565 2.64802E+05-4.35379E+05-1.35278E+02-5.31536E+05 1.00044E-08 2.33794E-08
 -1       566 1.51288E+05-3.25007E+05-5.29726E+02-4.07020E+05 4.98403E-09-4.33829E-09
 -1       567 2.59175E+05-4.32962E+05-6.63573E+02-5.35015E+05 1.58034E-08-9.88439E-09
 -1       568 1.48926E+05-3.23545E+05-1.62298E+03-4.08733E+05 4.12547E-09-6.06815E-09
 -1       569 2.56316E+05-4.32721E+05-3.94690E+03-5.35008E+05-6.06133E-09-2.95404E-09
 -1       570 1.50734E+05-3.26010E+05-8.10185E+03-4.08171E+05 1.06375E-08-1.43191E-08
 -1       571 3.01157E+05 1.06772E+04 1.48376E+04-1.19281E+05 6.27460E-09-1.33869E-08
 -1       572 3.03257E+05 4.23873E+03 7.27392E+03-1.30817E+05 2.76304E-09 1.00954E-09
 -1       573 3.01965E+05 1.53043E+03 3.23191E+03-1.19048E+05 3.26872E-09-3.04499E-09
 -1       574 3.02130E+05 1.05900E+03 1.62193E+03-1.31114E+05 2.76555E-09-6.70934E-09
 -1       575 3.02033E+05 7.54704E+02 7.65346E+02-1.19016E+05-1.41324E-09 6.01176E-10
 -1       576 3.01982E+05 8.00624E+02 3.91834E+02-1.31154E+05-1.49294E-08 8.94852E-09
 -1       577 3.02075E+05 6.96014E+02 1.94078E+02-1.19012E+05-1.23782E-09 1.85673E-08
 -1       578 3.02029E+05 7.53635E+02 1.09456E+02-1.31159E+05 1.45901E-08 9.33414E-09
 -1       579 3.02176E+05 6.42568E+02 6.84753E+01-1.19012E+05 9.37507E-09-1.85300E-08
 -1       580 3.02176E+05 6.76752E+02 7.17136E+01-1.31154E+05-3.10465E-08-2.11849E-08
 -1       581 3.02346E+05 5.48954E+02 9.64400E+01-1.19019E+05 7.88350E-09 6.32099E-09
 -1       582 3.02419E+05 5.84481E+02 1.95066E+02-1.31079E+05 2.44600E-08 1.53905E-08
 -1       583 3.02572E+05 5.02329E+02 3.61672E+02-1.19088E+05 1.39262E-08-7.61247E-09
 -1       584 3.02844E+05 8.04668E+02 8.25592E+02-1.30500E+05 8.96216E-09-3.50337E-09
 -1       585 3.02740E+05 1.43093E+03 1.65640E+03-1.19599E+05-3.56886E-09 7.63976E-10
 -1       586-2.38170E+03 1.48751E+05-8.61577E+02-2.45947E+05-8.58699E-09 4.72301E-09
 -1       587-1.22504E+03 1.48793E+05 1.73882E+03-2.70530E+05-8.72751E-09 1.26129E-08
 -1       588 1.87646E+02 1.48335E+05 5.10899E+03-2.45732E+05-3.12684E-09 1.83945E-10
 -1       589 4.71223E+03 1.50768E+05 1.23375E+04-2.70463E+05-9.40781E-09-1.70908E-08
 -1       590 1.60650E+04 1.46931E+05 2.55307E+04-2.46083E+05-9.30049E-09 2.98496E-09
 -1       591-1.05001E+05-2.18068E+04-2.69833E+04-4.47122E+04-3.46222E-09 3.19051E-09
 -1       592-1.09616E+05-2.63484E+04-1.46163E+04-4.93866E+04 4.14735E-09-1.42015E-08
 -1       593-1.07710E+05-1.98381E+04-6.08406E+03-4.66793E+04 8.96364E-10 1.21645E-09
 -1       594-1.05883E+05-2.23959E+04-3.03412E+03-4.95374E+04-5.13342E-09 1.47376E-08
 -1       595-1.07917E+05-1.98306E+04-1.39300E+03-4.67688E+04-2.31927E-09 1.20866E-08
 -1       596-1.05628E+05-2.22152E+04-7.07771E+02-4.95084E+04 6.58984E-09 2.21182E-08
 -1       597-1.07944E+05-1.98486E+04-3.84787E+02-4.67722E+04 5.06594E-09 1.48257E-08
 -1       598-1.05603E+05-2.22082E+04-3.08243E+02-4.95002E+04-3.59825E-09-2.11170E-08
 -1       599-1.07942E+05-1.98493E+04-3.92423E+02-4.67718E+04 7.37202E-09-1.38679E-08
 -1       600-1.05628E+05-2.22159E+04-7.27958E+02-4.95057E+04 4.22006E-10 1.15930E-08
 -1       601-1.07912E+05-1.98324E+04-1.43568E+03-4.67676E+04 2.54772E-09 3.66276E-09
 -1       602-1.05891E+05-2.24010E+04-3.12860E+03-4.95311E+04 4.78212E-09-1.46974E-09
 -1       603-1.07695E+05-1.98435E+04-6.27418E+03-4.66759E+04 3.39628E-09 9.65429E-10
 -1       604-1.09755E+05-2.64593E+04-1.50720E+04-4.93525E+04 3.09626E-09 1.29303E-08
 -1       605-1.04882E+05-2.18893E+04-2.78247E+04-4.46644E+04 4.75092E-09 1.35769E-08
 -1       606 2.55629E+04-1.54768E+04-2.77251E+04 2.14068E+04 1.25947E-08 3.89889E-09
 -1       607 2.08278E+04-5.06575E+03-1.38075E+04 2.40744E+04-1.53386E-09-1.60974E-08
 -1       608 2.35318E+04-9.23921E+02-6.18045E+03 2.12707E+04-9.19044E-09-6.51653E-10
 -1       609 2.30190E+04-3.30617E+02-3.12251E+03 2.42678E+04 4.08545E-09 8.17045E-09
 -1       610 2.33080E+04-6.09899E+01-1.48933E+03 2.12537E+04 1.84082E-08 7.44990E-09
 -1       611 2.32320E+04-6.69219E+01-7.51194E+02 2.42885E+04 3.28810E-08-7.25095E-10
 -1       612 2.32629E+04-4.97391E+01-3.56994E+02 2.12519E+04 1.44382E-08 2.00998E-09
 -1       613 2.32503E+04-6.57743E+01-1.60521E+02 2.42909E+04 9.50240E-09-1.06224E-08
 -1       614 2.32435E+04-5.94743E+01-3.83982E+01 2.12513E+04 2.51202E-09 1.38900E-08
 -1       615 2.32491E+04-6.67021E+01 6.48346E+01 2.42913E+04-7.12885E-09-4.78303E-09
 -1       616 2.32283E+04-5.82483E+01 1.96794E+02 2.12516E+04 1.36929E-08-1.37627E-08
 -1       617 2.32759E+04-2.64028E+01 4.49578E+02 2.42909E+04 2.28592E-08-1.33014E-10
 -1       618 2.31913E+04 7.00955E+01 9.06609E+02 2.12520E+04 6.40853E-09 9.98284E-09
 -1       619 2.35977E+04 6.73657E+02 2.03600E+03 2.42905E+04-2.53681E-09 4.09250E-09
 -1       620 2.28913E+04 2.21950E+03 4.09246E+03 2.12554E+04 1.64027E-09-3.99450E-09
 -1       621 9.42674E+02 3.44603E+05 6.49444E+03 5.44920E+04 1.66028E-09-7.44512E-09
 -1       622 1.19949E+03 3.46100E+05 5.16470E+03 7.90583E+04 1.97497E-09 8.63338E-09
 -1       623 2.70234E+02 3.45015E+05 5.45268E+03 5.42588E+04 1.88379E-09-5.59248E-09
 -1       624 2.73344E+03 3.47325E+05 9.94511E+03 7.92776E+04 1.78079E-09-1.32106E-08
 -1       625 2.61839E+03 3.43089E+05 1.70866E+04 5.42627E+04 2.11094E-09 1.08707E-08
 -1       626 2.66602E+05 5.93842E+04 3.75221E+03 1.26266E+05-3.14958E-09 1.34851E-08
 -1       627 2.64362E+05 6.09398E+04 1.80825E+03 1.30016E+05-7.08360E-09 1.12940E-08
 -1       628 2.66706E+05 5.76556E+04 7.65246E+02 1.26890E+05-4.38195E-09 1.50860E-08
 -1       629 2.63884E+05 6.04534E+04 3.75375E+02 1.30206E+05-1.25203E-08 1.59638E-08
 -1       630 2.66718E+05 5.75713E+04 1.75946E+02 1.26916E+05-3.24144E-09-3.98245E-10
 -1       631 2.63835E+05 6.04352E+04 9.82296E+01 1.30209E+05 6.29007E-09-1.21595E-08
 -1       632 2.66716E+05 5.75731E+04 7.12103E+01 1.26913E+05 4.45607E-09-1.26665E-08
 -1       633 2.63831E+05 6.04355E+04 8.92746E+01 1.30208E+05 4.03497E-09 7.68068E-09
 -1       634 2.66714E+05 5.75685E+04 1.53176E+02 1.26914E+05-9.81154E-09 5.49630E-09
 -1       635 2.63847E+05 6.04329E+04 3.15521E+02 1.30215E+05-8.06403E-09-1.17925E-08
 -1       636 2.66705E+05 5.75617E+04 6.40008E+02 1.26914E+05-1.56956E-08-5.57884E-09
 -1       637 2.63986E+05 6.05328E+04 1.40884E+03 1.30216E+05-2.66664E-08-8.50787E-09
 -1       638 2.66655E+05 5.78730E+04 2.89531E+03 1.26773E+05-1.65705E-08-1.09749E-08
 -1       639 2.65502E+05 6.26523E+04 6.85095E+03 1.29771E+05 8.42829E-09 1.09285E-08
 -1       640 2.66442E+05 6.41921E+04 1.42173E+04 1.24113E+05 4.22096E-09-7.26868E-09
 -1       656 6.82434E+04-1.74961E+06-1.64734E+05-3.83342E+03-7.27596E-10 7.26948E-09
 -1       657-9.02752E+04-1.82407E+06-1.36468E+05 3.49488E+03-1.45974E-09 5.77605E-09
 -1       658 2.17422E+04-1.77076E+06-8.40322E+04-5.92048E+03-9.31095E-10-6.18461E-09
 -1       659-9.75846E+04-1.82755E+06-1.46076E+05 5.30256E+03-1.90630E-09-4.88011E-09
 -1       660 7.55363E+04-1.74615E+06-1.81255E+05-5.64108E+03-2.63390E-09-2.55537E-09
 -1       661 1.50624E+05 1.55543E+04 1.62170E+04 5.88111E+04-4.28372E-10-1.74396E-08
 -1       662 1.59866E+05 2.74928E+04 1.09293E+04 5.50864E+04-6.15273E-09-6.90284E-09
 -1       663 1.53808E+05 2.07588E+04 3.82228E+03 5.78884E+04-2.79874E-09 2.94676E-09
 -1       664 1.56174E+05 2.14063E+04 2.28664E+03 5.62132E+04-3.99538E-09-9.88226E-09
 -1       665 1.54291E+05 2.14698E+04 9.02071E+02 5.77479E+04 7.12816E-09-1.07332E-08
 -1       666 1.55603E+05 2.05930E+04 5.28207E+02 5.63962E+04 1.54547E-08 1.10154E-08
 -1       667 1.54376E+05 2.15510E+04 2.80965E+02 5.77129E+04 1.19877E-09 5.48295E-09
 -1       668 1.55510E+05 2.05343E+04 2.87187E+02 5.64468E+04-1.16649E-08-1.26895E-08
 -1       669 1.54383E+05 2.15269E+04 3.89579E+02 5.76975E+04-2.31606E-09-5.53752E-09
 -1       670 1.55606E+05 2.07452E+04 8.48996E+02 5.64486E+04-1.18946E-08-3.15093E-08
 -1       671 1.54280E+05 2.13446E+04 1.50771E+03 5.77091E+04 1.84959E-09-6.72094E-09
 -1       672 1.56486E+05 2.22113E+04 3.85763E+03 5.62348E+04 1.93148E-08 5.43798E-09
 -1       673 1.53508E+05 2.00980E+04 6.46486E+03 5.78971E+04 3.42538E-10 1.31065E-08
 -1       674 1.62637E+05 3.25994E+04 1.84882E+04 5.44289E+04 2.27726E-09 1.00758E-08
 -1       675 1.48168E+05 1.12476E+04 2.74430E+04 5.94061E+04-3.65981E-09 8.36008E-09
 -1       676 2.42031E+01-2.95925E+05-1.10803E+03-2.15745E+02 1.18348E-10 7.27884E-09
 -1       677-2.91323E+02-2.96195E+05-2.02789E+03 4.31138E+02 1.40919E-08-6.42628E-09
 -1       678 1.96790E+02-2.95734E+05-3.58482E+03-2.15257E+02 1.43154E-09-2.29073E-09
 -1       679-3.58312E+03-2.98359E+05-8.51604E+03 4.29264E+02 1.33919E-08 1.29498E-08
 -1       680 2.14057E+03-2.93763E+05-1.37250E+04-2.11505E+02 3.25417E-09 5.86425E-09
 -1       771-3.05380E+06-7.53668E+05-1.65909E+05-1.46948E+06-3.42552E-08-2.95986E-08
 -1       772-2.97327E+06-8.44062E+05-8.53531E+04-1.57420E+06-2.62517E-08 1.11140E-08
 -1       773-3.08583E+06-7.28685E+05-4.38664E+04-1.48430E+06-8.14907E-09 1.06083E-08
 -1       774-2.96455E+06-8.25581E+05-1.94908E+04-1.60084E+06 3.65544E-08-3.92902E-09
 -1       775-3.10287E+06-7.16723E+05-1.48056E+04-1.49175E+06 7.74162E-09-6.18456E-10
 -1       776-2.97763E+06-8.22333E+05-5.50047E+03-1.62107E+06 7.10133E-09 4.36557E-09
 -1       777-3.11769E+06-7.06033E+05-6.62273E+03-1.49832E+06 3.28873E-09-1.54250E-09
 -1       778-2.99120E+06-8.19283E+05-1.87901E+03-1.63843E+06 4.51109E-09 1.62981E-08
 -1       779-3.13044E+06-6.96693E+05-3.37500E+03-1.50392E+06-9.90985E-09-7.49060E-09
 -1       780-3.00314E+06-8.16389E+05-6.63541E+02-1.65256E+06-8.46194E-09-1.09503E-09
 -1       781-3.14056E+06-6.89167E+05-1.53436E+03-1.50829E+06-3.69619E-08 1.28239E-09
 -1       782-3.01236E+06-8.13976E+05-7.12946E+01-1.66297E+06-4.16112E-08-3.93084E-09
 -1       783-3.14764E+06-6.83949E+05-3.58696E+02-1.51133E+06-4.33647E-09-1.75951E-08
 -1       784-3.01810E+06-8.12277E+05 3.86649E+02-1.66935E+06-8.14907E-09 1.36788E-09
 -1       785-3.15134E+06-6.81208E+05 4.65528E+02-1.51292E+06-3.44335E-08 4.48745E-09
 -1       786 2.32837E+05-1.26125E+04 2.91851E+04-6.60535E+02-1.00037E-04-3.48462E-07
 -1       787 2.45483E+05 1.46057E+04 2.06472E+04-7.16715E+02-1.99325E-04-5.90902E-07
 -1       788 2.37717E+05-1.97562E+03 7.55347E+03-6.59152E+02-1.41449E-04-3.50081E-07
 -1       789 2.39800E+05 2.29008E+03 4.74510E+03-7.15182E+02-8.29779E-05-2.34361E-07
 -1       790 2.38522E+05-3.06994E+02 1.92919E+03-6.62100E+02-2.88728E-05-6.24278E-08
 -1       791 2.38860E+05 3.60448E+02 1.12939E+03-7.14094E+02 2.52191E-05 8.41027E-08
 -1       792 2.38657E+05-4.74408E+01 5.09056E+02-6.60245E+02 6.85348E-05 1.77923E-07
 -1       793 2.38706E+05 6.82405E+01 3.20432E+02-7.24952E+02 1.11589E-04 3.19065E-07
 -1       794 2.38676E+05-1.49831E+01 2.17340E+02-6.51244E+02 5.59245E-05 1.38855E-07
 -1       795 2.38710E+05 8.11350E+01 2.85362E+02-7.53901E+02 1.80346E-07 1.58065E-08
 -1       796 2.38653E+05-6.03273E+01 4.09931E+02-6.31296E+02 6.44423E-09-7.03808E-09
 -1       797 2.38891E+05 4.55435E+02 9.52099E+02-8.12444E+02 3.84926E-09-7.11545E-09
 -1       798 2.38495E+05-3.89013E+02 1.49798E+03-5.92698E+02 7.71325E-09-1.66495E-08
 -1       799 2.40015E+05 2.88640E+03 4.08015E+03-9.22097E+02 3.57659E-09 9.40940E-09
 -1       800 2.37529E+05-2.48937E+03 5.76109E+03-5.21635E+02 1.59722E-09 7.26232E-10
 -1       801-3.56900E+05-1.17218E+07-1.80978E+06 2.05988E+06 7.33125E-08-7.99919E-08
 -1       802 1.29386E+06 1.60305E+07 4.20119E+06-2.76145E+06-1.89757E-08-5.06043E-08
 -1       803-8.48821E+05-2.08061E+07-3.28039E+06 1.22832E+06 1.88338E-07 5.86006E-08
 -1       804 6.18298E+05 1.10592E+07 3.22619E+06 6.53718E+05-3.30037E-08-1.18166E-07
 -1       805 1.87236E+05-6.71378E+06-4.04720E+05-1.36429E+06-1.20912E-07-1.15287E-07
 -1       806-3.01005E+05-7.00591E+04-2.64900E+04-1.32372E+05-8.44489E-09 1.60326E-08
 -1       807-3.01676E+05-6.71551E+04-1.30137E+04-1.40459E+05 1.64838E-08 3.42063E-08
 -1       808-3.01817E+05-6.04304E+04-5.52006E+03-1.36802E+05-8.19932E-09 1.82577E-08
 -1       809-2.98867E+05-6.35734E+04-2.69826E+03-1.40875E+05-2.29315E-08 3.74773E-08
 -1       810-3.01939E+05-6.00882E+04-1.23569E+03-1.36996E+05 5.21266E-09 3.45426E-09
 -1       811-2.98651E+05-6.34345E+04-6.13068E+02-1.40847E+05 5.43605E-09-8.53765E-09
 -1       812-3.01957E+05-6.01143E+04-3.06951E+02-1.36994E+05-5.08635E-09 1.80808E-09
 -1       813-2.98618E+05-6.34406E+04-1.95552E+02-1.40827E+05-9.74069E-09 8.65384E-10
 -1       814-3.01947E+05-6.01275E+04-1.86964E+02-1.36986E+05 4.55884E-09 2.66846E-09
 -1       815-2.98613E+05-6.34469E+04-2.95556E+02-1.40815E+05 1.16215E-08-9.13769E-09
 -1       816-3.01917E+05-6.01313E+04-5.56837E+02-1.36976E+05 2.02544E-09-1.28207E-08
 -1       817-2.98697E+05-6.35036E+04-1.19335E+03-1.40792E+05-3.36167E-08-1.53159E-08
 -1       818-3.01830E+05-6.03086E+04-2.43401E+03-1.36892E+05-1.18498E-08 6.01176E-10
 -1       819-3.00037E+05-6.49552E+04-5.72548E+03-1.40436E+05-4.32738E-09 2.33558E-09
 -1       820-3.01329E+05-6.46672E+04-1.16549E+04-1.35066E+05-4.25644E-09-3.25008E-09
 -1       821-3.93072E+05 2.15322E+04-5.13912E+04 3.88515E+03 2.39262E-08-6.23186E-09
 -1       822-4.08207E+05-2.50116E+04-3.51122E+04-9.02158E+03 1.18157E-08 1.79612E-08
 -1       823-3.98477E+05 3.45542E+03-1.31740E+04 7.14042E+03-2.60816E-08 1.58670E-08
 -1       824-4.00955E+05-3.95902E+03-8.08918E+03-1.18277E+04 3.84730E-10 5.18219E-09
 -1       825-4.00387E+05 5.49984E+02-3.54121E+03 6.69216E+03 4.45110E-08 3.65822E-09
 -1       826-3.95713E+05-4.80206E+02-1.14920E+03-7.51140E+03 5.38631E-08-2.13272E-08
 -1       827-4.03621E+05-9.92654E+01-1.82143E+03 2.82308E+03 2.49517E-08 2.99252E-10
 -1       828-3.92784E+05 6.40206E+01 5.14491E+02 1.47157E+03 1.27116E-09 1.20847E-08
 -1       829-4.03245E+05-5.17922E+01-1.74905E+03-2.29066E+03 5.70134E-09-5.63500E-09
 -1       830-3.96484E+05-5.89284E+02-1.34301E+03 9.99554E+03-1.41564E-09-2.27877E-09
 -1       831-4.00014E+05 6.29430E+02-3.50113E+03-5.70050E+03-1.77825E-08-8.64111E-09
 -1       832-4.00934E+05-4.09803E+03-8.20777E+03 1.31874E+04-9.20595E-09 1.57661E-09
 -1       833-3.98871E+05 3.51574E+03-1.34289E+04-5.48295E+03-5.39046E-10-1.81717E-09
 -1       834-4.07482E+05-2.53720E+04-3.54287E+04 9.17192E+03-2.28161E-09 1.95769E-09
 -1       835-3.93381E+05 2.18141E+04-5.21665E+04-1.68452E+03 5.99789E-09-3.90719E-09
 -1       836-1.68063E+03 4.10762E+05 2.56432E+04-2.92046E+04-1.05329E-08 1.10649E-08
 -1       837 5.30687E+03 4.18861E+05 2.13504E+04-5.96768E+04-1.11652E-08 1.94268E-08
 -1       838-6.72150E+02 4.13058E+05 2.12541E+04-2.91008E+04-9.60063E-09 1.46954E-08
 -1       839 1.30234E+04 4.24583E+05 3.97151E+04-5.97228E+04-1.02082E-08 3.15880E-08
 -1       840-4.14627E+03 4.04944E+05 6.31088E+04-2.91691E+04-9.65156E-09-9.36780E-10
 -1       856-4.51732E+04 7.80250E+03-2.05604E+04-3.69157E+02 8.54004E-09-1.00335E-08
 -1       857-5.36333E+04-9.17598E+03-1.41532E+04 5.70954E+03 1.57183E-08-2.22817E-08
 -1       858-4.85275E+04 1.09473E+03-5.33474E+03-3.93905E+02 5.55781E-09 1.38812E-09
 -1       859-4.97843E+04-1.29599E+03-3.21880E+03 5.74544E+03 2.42289E-09 9.67680E-09
 -1       860-4.90286E+04 1.53843E+02-1.34829E+03-4.04619E+02 2.34459E-09 5.09135E-09
 -1       861-4.92081E+04-1.91485E+02-7.40178E+02 5.75999E+03 6.09873E-09-1.28768E-08
 -1       862-4.91071E+04 2.12765E+01-3.04610E+02-4.08407E+02-4.87260E-09 2.13959E-10
 -1       863-4.91115E+04-2.88036E+01-1.03979E+02 5.76239E+03-9.80343E-09-5.85868E-09
 -1       864-4.91258E+04-5.08827E+00 6.16186E+01-4.07012E+02-4.77176E-09-4.60527E-09
 -1       865-4.90530E+04 5.74662E+01 2.83143E+02 5.75389E+03-2.42215E-09-1.19846E-08
 -1       866-4.91634E+04-6.48874E+01 5.62600E+02-3.99917E+02 4.20641E-11-5.25091E-10
 -1       867-4.87908E+04 5.33043E+02 1.37951E+03 5.73471E+03 5.02433E-09-9.03333E-09
 -1       868-4.93831E+04-4.71785E+02 2.29119E+03-3.87824E+02-2.94528E-09 4.52064E-09
 -1       869-4.71129E+04 3.92476E+03 6.09855E+03 5.70387E+03 7.64820E-09-2.18106E-08
 -1       870-5.08334E+04-3.36407E+03 8.85081E+03-3.68904E+02-9.35665E-09 3.02089E-09
 -1       871-5.49104E+03-2.72946E+04-2.01375E+04 1.33391E+05-7.28323E-09-8.73115E-09
 -1       872-1.79158E+03-3.20334E+04-8.51565E+03 1.72978E+05-1.58370E-08-3.15849E-08
 -1       873 6.07582E+02-2.96952E+04 4.04092E+02 1.33098E+05-7.99082E-09 2.57969E-08
 -1       874 3.55059E+03-2.73689E+04 9.62506E+03 1.72994E+05-1.77779E-08 4.71848E-08
 -1       875 7.00206E+03-3.20018E+04 2.18769E+04 1.33343E+05-9.22410E-09 1.60962E-08
 -1       876 2.96352E+05 4.98643E+04 1.53209E+04 1.18818E+05 9.46079E-09-1.03319E-09
 -1       877 2.97344E+05 5.31118E+04 8.18200E+03 1.23246E+05 1.50262E-08-1.24385E-08
 -1       878 2.97787E+05 4.81646E+04 3.42778E+03 1.20069E+05-1.29021E-08 5.15593E-09
 -1       879 2.95261E+05 5.10340E+04 1.70789E+03 1.23350E+05 2.98337E-09 2.43899E-08
 -1       880 2.97890E+05 4.81471E+04 7.95371E+02 1.20120E+05-7.17637E-09-1.02617E-08
 -1       881 2.95123E+05 5.09452E+04 4.24531E+02 1.23326E+05-8.61030E-09-7.84075E-09
 -1       882 2.97899E+05 4.81608E+04 2.71153E+02 1.20122E+05-6.15159E-09 6.46778E-09
 -1       883 2.95113E+05 5.09406E+04 2.90851E+02 1.23318E+05-7.80489E-09 2.84438E-08
 -1       884 2.97892E+05 4.81581E+04 4.62064E+02 1.20122E+05-4.48495E-09 2.93062E-09
 -1       885 2.95149E+05 5.09469E+04 9.28610E+02 1.23329E+05-8.72382E-09 8.88087E-09
 -1       886 2.97856E+05 4.81310E+04 1.87137E+03 1.20118E+05-1.46482E-08 1.25849E-08
 -1       887 2.95478E+05 5.11625E+04 4.08765E+03 1.23376E+05 6.34563E-09-9.62245E-10
 -1       888 2.97597E+05 4.81767E+04 8.23666E+03 1.19988E+05-4.91352E-09-3.29551E-08
 -1       889 3.00382E+05 5.62618E+04 1.96758E+04 1.23226E+05-8.72078E-09 1.54887E-09
 -1       890 2.94231E+05 5.21751E+04 3.68523E+04 1.16859E+05 1.85082E-10 1.22418E-09
 -1       891-5.22849E+01-1.63664E+05-2.01087E+03 2.66672E+04-4.01155E-09 1.72872E-09
 -1       892-1.19241E+02-1.64215E+05-2.15984E+03 4.05610E+04 3.76394E-09 2.99838E-09
 -1       893 8.20189E+01-1.63729E+05-3.05813E+03 2.66750E+04-6.20798E-09 1.36165E-08
 -1       894-1.46347E+03-1.65372E+05-6.32933E+03 4.04092E+04 2.50930E-09 6.46105E-09
 -1       895-1.16912E+03-1.62412E+05-1.11457E+04 2.68226E+04 4.58647E-09-6.10271E-10
 -1       956-3.81531E+05-5.88850E+03-1.43632E+04 3.54690E+04 1.12650E-08 1.38834E-09
 -1       957-3.84339E+05-2.13166E+03-7.37173E+03 4.25636E+04 1.30967E-10-9.69385E-09
 -1       958-3.82831E+05-3.22358E+02-3.32266E+03 3.52752E+04-7.52880E-09-9.73296E-09
 -1       959-3.83032E+05-2.19458E+02-1.69597E+03 4.27956E+04 3.79578E-09 2.31767E-08
 -1       960-3.82965E+05-1.07681E+02-8.26892E+02 3.52549E+04 1.41918E-08 2.38051E-08
 -1       961-3.82955E+05-1.36825E+02-4.37041E+02 4.28200E+04 2.14013E-08-8.15226E-09
 -1       962-3.83000E+05-1.05264E+02-2.48212E+02 3.52514E+04 6.15455E-09 6.92671E-09
 -1       963-3.82961E+05-1.29342E+02-1.95340E+02 4.28248E+04 4.68299E-09 2.17005E-09
 -1       964-3.83010E+05-9.98102E+01-2.32998E+02 3.52503E+04 8.98979E-09-7.23867E-09
 -1       965-3.82976E+05-1.24973E+02-3.99195E+02 4.28245E+04 1.30956E-08-5.83418E-09
 -1       966-3.82994E+05-9.15737E+01-7.48104E+02 3.52517E+04 1.50151E-08 6.58656E-09
 -1       967-3.83064E+05-1.89164E+02-1.53331E+03 4.28091E+04-3.53270E-09-4.91582E-09
 -1       968-3.82888E+05-2.75927E+02-3.00147E+03 3.52652E+04 3.29237E-09 1.66295E-08
 -1       969-3.84263E+05-1.90926E+03-6.66280E+03 4.26475E+04-3.72893E-11-5.04275E-09
 -1       970-3.81725E+05-5.30114E+03-1.29801E+04 3.53997E+04-4.37649E-09 3.41061E-10
 -1       971-3.47671E+05-1.71168E+03-9.11261E+03 1.51948E+04 8.48013E-09-4.98640E-09
 -1       972-3.49856E+05-1.27421E+03-4.96279E+03 2.09163E+04 5.22186E-09 1.07407E-08
 -1       973-3.48686E+05-8.17949E+01-2.22292E+03 1.50795E+04 8.24639E-09 7.94421E-09
 -1       974-3.48809E+05-1.09351E+02-1.15262E+03 2.10492E+04-7.82165E-11-1.89334E-08
 -1       975-3.48766E+05-3.82230E+01-5.77146E+02 1.50676E+04-1.90448E-09 9.50763E-10
 -1       976-3.48748E+05-6.09191E+01-3.34972E+02 2.10645E+04 1.27839E-08-7.05813E-09
 -1       977-3.48782E+05-3.76949E+01-2.46566E+02 1.50643E+04 3.43402E-09-9.27469E-09
 -1       978-3.48753E+05-5.49967E+01-2.93315E+02 2.10692E+04-7.18865E-09 1.50339E-09
 -1       979-3.48781E+05-2.93067E+01-4.75314E+02 1.50629E+04-8.55363E-09-8.81062E-09
 -1       980-3.48789E+05-5.20267E+01-9.20314E+02 2.10702E+04-1.12584E-08 2.10405E-08
 -1       981-3.48752E+05-6.28683E+00-1.78372E+03 1.50634E+04 9.85119E-09-9.62882E-09
 -1       982-3.49034E+05-1.83728E+02-3.68763E+03 2.10638E+04 1.23855E-08-3.33925E-08
 -1       983-3.48527E+05-1.20320E+02-7.16539E+03 1.50691E+04 3.67618E-09 6.66432E-10
 -1       984-3.52481E+05-3.92562E+03-1.60468E+04 2.09800E+04 4.36580E-09 3.11636E-08
 -1       985-3.45284E+05-5.36325E+03-2.94669E+04 1.51323E+04-5.63932E-09 9.96079E-09
 -3
    1PSTEP                        45          23           1          
  100CL  123 6.62965E-01         409                     0   23           1
 -4  DISP        4    1
 -5  D1          1    2    1    0
 -5  D2          1    2    2    0
 -5  D3          1    2    3    0
 -5  ALL         1    2    0    0    1ALL
 -1         1 2.76912E-03 0.00000E+00 0.00000E+00
 -1         2 1.28708E-03-9.53139E-27 0.00000E+00
 -1         3 3.55633E-04-5.66236E-28 0.00000E+00
 -1         5 1.69283E-04 1.32089E-28-3.30872E-24
 -1         8 2.75898E-03-3.87402E-07 0.00000E+00
 -1         9 2.75159E-03-2.24932E-04 0.00000E+00
 -1        10 3.22046E-04-3.19795E-06 0.00000E+00
 -1        12 1.72190E-04 8.98282E-07 0.00000E+00
 -1        15 2.74752E-03-4.08630E-07 0.00000E+00
 -1        16 2.83153E-03-2.26966E-04 0.00000E+00
 -1        17 2.17361E-04-7.41662E-06 0.00000E+00
 -1        18 1.79290E-04 4.84595E-05 0.00000E+00
 -1        19 1.80913E-04 1.78604E-06 0.00000E+00
 -1        20 1.81033E-04-2.19050E-05 0.00000E+00
 -1        21 1.80083E-04-5.01093E-05-3.30872E-24
 -1        24 3.06189E-05-1.18090E-05 0.00000E+00
 -1        25 1.94400E-04 4.87430E-05 0.00000E+00
 -1        26 1.95659E-04 2.48717E-06 0.00000E+00
 -1        27 1.93208E-04-2.55692E-05 0.00000E+00
 -1        28 1.92920E-04-5.07393E-05 0.00000E+00
 -1        32 0.00000E+00 0.00000E+00 0.00000E+00
 -1        33 2.09067E-04 3.31782E-06 0.00000E+00
 -1        34 2.06906E-04-2.56462E-05 0.00000E+00
 -1        35 2.04945E-04-5.10909E-05 0.00000E+00
 -1        51 2.76843E-03-8.24501E-08 3.30872E-24
 -1        52 2.76718E-03-1.46221E-07 0.00000E+00
 -1        53 2.76548E-03-2.06395E-07 3.30872E-24
 -1        54 2.76347E-03-2.65206E-07 8.27181E-25
 -1        55 2.76126E-03-3.24427E-07 8.27181E-25
 -1        56 2.76003E-03 1.18468E-05-5.29396E-23
 -1        57 2.74094E-03 4.81095E-05 5.29396E-23
 -1        58 2.71470E-03 1.01212E-04-1.05879E-22
 -1        59 2.68505E-03 1.62015E-04 0.00000E+00
 -1        60 2.65660E-03 2.20067E-04 0.00000E+00
 -1        61 2.63379E-03 2.65138E-04 0.00000E+00
 -1        62 2.61963E-03 2.89290E-04-1.05879E-22
 -1        63 2.61595E-03 2.86437E-04 0.00000E+00
 -1        64 2.62234E-03 2.55475E-04 1.05879E-22
 -1        65 2.63747E-03 1.98011E-04 0.00000E+00
 -1        66 2.65869E-03 1.20746E-04 0.00000E+00
 -1        67 2.68313E-03 3.23659E-05 5.29396E-23
 -1        68 2.70765E-03-5.62620E-05 0.00000E+00
 -1        69 2.72911E-03-1.34241E-04-5.29396E-23
 -1        70 2.74460E-03-1.92760E-04-5.29396E-23
 -1        86 1.37929E-03-6.98447E-06-5.29396E-23
 -1        87 1.64506E-03-4.44251E-05 2.64698E-23
 -1        88 2.00247E-03-1.09019E-04 0.00000E+00
 -1        89 2.36514E-03-1.75571E-04-1.32349E-23
 -1        90 2.64363E-03-2.16348E-04-5.29396E-23
 -1       121 3.54691E-04-5.13422E-07-1.32349E-23
 -1       122 3.51867E-04-1.03025E-06 0.00000E+00
 -1       123 3.47171E-04-1.55384E-06-1.32349E-23
 -1       124 3.40620E-04-2.08754E-06 0.00000E+00
 -1       125 3.32235E-04-2.63433E-06 0.00000E+00
 -1       191 1.69364E-04 1.49866E-07 3.30872E-24
 -1       192 1.69606E-04 2.99704E-07 1.65436E-24
 -1       193 1.70010E-04 4.49494E-07 0.00000E+00
 -1       194 1.70575E-04 5.99205E-07 0.00000E+00
 -1       195 1.71302E-04 7.48811E-07-3.30872E-24
 -1       251 2.75867E-03 1.56698E-06 0.00000E+00
 -1       252 2.75835E-03 3.50426E-06-3.30872E-24
 -1       253 2.75804E-03 4.26152E-06 6.61744E-24
 -1       254 2.75773E-03 2.69138E-06-3.30872E-24
 -1       255 2.75740E-03-1.98946E-06 6.61744E-24
 -1       256 2.75705E-03-1.05244E-05 6.61744E-24
 -1       257 2.75666E-03-2.30631E-05 0.00000E+00
 -1       258 2.75621E-03-3.97042E-05 0.00000E+00
 -1       259 2.75570E-03-5.99188E-05-1.32349E-23
 -1       260 2.75513E-03-8.31324E-05-6.61744E-24
 -1       261 2.75451E-03-1.08312E-04-1.32349E-23
 -1       262 2.75387E-03-1.34403E-04 6.61744E-24
 -1       263 2.75324E-03-1.60208E-04-1.32349E-23
 -1       264 2.75264E-03-1.84535E-04-6.61744E-24
 -1       265 2.75209E-03-2.06422E-04-1.32349E-23
 -1       266 2.75707E-03-3.96303E-07 1.65436E-24
 -1       267 2.75516E-03-3.99188E-07 4.13590E-25
 -1       268 2.75325E-03-4.02453E-07-4.13590E-25
 -1       269 2.75134E-03-4.04589E-07-2.06795E-25
 -1       270 2.74943E-03-4.06699E-07 0.00000E+00
 -1       271 2.75830E-03-2.65704E-07 0.00000E+00
 -1       272 2.75874E-03-3.17214E-06-6.61744E-24
 -1       273 2.76023E-03-8.91718E-06 0.00000E+00
 -1       274 2.76269E-03-1.72966E-05 0.00000E+00
 -1       275 2.76602E-03-2.80840E-05-1.32349E-23
 -1       276 2.77014E-03-4.10363E-05 0.00000E+00
 -1       277 2.77495E-03-5.58930E-05 0.00000E+00
 -1       278 2.78034E-03-7.23799E-05 0.00000E+00
 -1       279 2.78620E-03-9.02101E-05 0.00000E+00
 -1       280 2.79245E-03-1.09086E-04 0.00000E+00
 -1       281 2.79895E-03-1.28704E-04 1.32349E-23
 -1       282 2.80560E-03-1.48752E-04 0.00000E+00
 -1       283 2.81230E-03-1.68916E-04 0.00000E+00
 -1       284 2.81893E-03-1.88881E-04 6.61744E-24
 -1       285 2.82537E-03-2.08335E-04 1.32349E-23
 -1       301 2.76608E-03-2.25310E-04 1.32349E-23
 -1       302 2.77883E-03-2.25637E-04 0.00000E+00
 -1       303 2.79078E-03-2.25951E-04 0.00000E+00
 -1       304 2.80291E-03-2.26265E-04 0.00000E+00
 -1       305 2.81617E-03-2.26595E-04 0.00000E+00
 -1       306 2.79018E-03-3.82853E-04 0.00000E+00
 -1       307 2.85397E-03-8.00828E-04 5.29396E-23
 -1       308 2.90003E-03-1.40944E-03 0.00000E+00
 -1       309 2.92341E-03-2.11166E-03 0.00000E+00
 -1       310 2.95482E-03-2.78113E-03-1.05879E-22
 -1       311 3.01460E-03-3.29440E-03-5.29396E-23
 -1       312 3.07182E-03-3.57100E-03 1.05879E-22
 -1       313 3.06450E-03-3.57417E-03 0.00000E+00
 -1       314 2.91820E-03-3.31699E-03 1.05879E-22
 -1       315 2.59241E-03-2.86521E-03 5.29396E-23
 -1       316 2.10662E-03-2.29591E-03 1.05879E-22
 -1       317 1.52808E-03-1.67822E-03 5.29396E-23
 -1       318 9.72291E-04-1.07210E-03 1.05879E-22
 -1       319 5.48044E-04-5.42215E-04 0.00000E+00
 -1       320 2.99168E-04-1.63060E-04 0.00000E+00
 -1       336 3.09854E-04-3.82374E-06 0.00000E+00
 -1       337 2.95469E-04-4.47802E-06 6.61744E-24
 -1       338 2.78949E-04-5.16352E-06 1.32349E-23
 -1       339 2.60370E-04-5.88163E-06 0.00000E+00
 -1       340 2.39810E-04-6.63703E-06 1.32349E-23
 -1       406 1.73240E-04 1.04758E-06-3.30872E-24
 -1       407 1.74452E-04 1.19666E-06 0.00000E+00
 -1       408 1.75825E-04 1.34543E-06 3.30872E-24
 -1       409 1.77360E-04 1.49367E-06 8.27181E-25
 -1       410 1.79057E-04 1.64105E-06-3.30872E-24
 -1       521 2.87071E-03-3.94474E-04 0.00000E+00
 -1       522 2.93255E-03-8.34013E-04 5.29396E-23
 -1       523 2.97160E-03-1.47249E-03 0.00000E+00
 -1       524 2.98495E-03-2.20570E-03 0.00000E+00
 -1       525 3.00782E-03-2.90395E-03-1.05879E-22
 -1       526 3.06389E-03-3.44070E-03-5.29396E-23
 -1       527 3.12070E-03-3.72819E-03 0.00000E+00
 -1       528 3.11070E-03-3.72878E-03-1.05879E-22
 -1       529 2.95091E-03-3.45581E-03 0.00000E+00
 -1       530 2.59849E-03-2.98374E-03 5.29396E-23
 -1       531 2.07397E-03-2.39375E-03 0.00000E+00
 -1       532 1.45168E-03-1.75761E-03 5.29396E-23
 -1       533 8.53262E-04-1.13243E-03-1.05879E-22
 -1       534 3.93286E-04-5.80478E-04 0.00000E+00
 -1       535 1.22085E-04-1.80944E-04-2.11758E-22
 -1       536 2.16460E-04 3.12240E-05 6.61744E-24
 -1       537 2.13994E-04 1.00241E-04-1.65436E-24
 -1       538 2.10062E-04 1.89029E-04 0.00000E+00
 -1       539 2.05315E-04 2.86881E-04 0.00000E+00
 -1       540 2.00982E-04 3.80108E-04 0.00000E+00
 -1       541 1.98134E-04 4.55044E-04 1.65436E-24
 -1       542 1.96811E-04 5.03653E-04 0.00000E+00
 -1       543 1.96525E-04 5.18075E-04-1.65436E-24
 -1       544 1.96168E-04 4.98963E-04 0.00000E+00
 -1       545 1.94700E-04 4.47251E-04 0.00000E+00
 -1       546 1.91852E-04 3.72234E-04 3.30872E-24
 -1       547 1.87907E-04 2.83352E-04-1.65436E-24
 -1       548 1.83962E-04 1.94459E-04-3.30872E-24
 -1       549 1.81113E-04 1.19410E-04 1.65436E-24
 -1       550 1.79645E-04 6.76457E-05 0.00000E+00
 -1       551 1.90945E-04-8.01470E-06 0.00000E+00
 -1       552 1.61382E-04-8.69485E-06 0.00000E+00
 -1       553 1.29612E-04-9.43703E-06-8.27181E-24
 -1       554 9.65913E-05-1.02190E-05-3.30872E-24
 -1       555 6.32764E-05-1.10122E-05 0.00000E+00
 -1       556 2.09191E-04 1.34652E-05 0.00000E+00
 -1       557 2.02477E-04 3.06994E-05 0.00000E+00
 -1       558 1.97092E-04 4.45510E-05 0.00000E+00
 -1       559 1.92914E-04 5.53068E-05 0.00000E+00
 -1       560 1.89820E-04 6.32538E-05 0.00000E+00
 -1       561 1.87691E-04 6.86818E-05 0.00000E+00
 -1       562 1.86410E-04 7.18815E-05 0.00000E+00
 -1       563 1.85861E-04 7.31445E-05 0.00000E+00
 -1       564 1.85931E-04 7.27634E-05 2.64698E-23
 -1       565 1.86507E-04 7.10315E-05 0.00000E+00
 -1       566 1.87478E-04 6.82424E-05 0.00000E+00
 -1       567 1.88732E-04 6.46906E-05-3.30872E-24
 -1       568 1.90161E-04 6.06703E-05 0.00000E+00
 -1       569 1.91655E-04 5.64763E-05-4.13590E-25
 -1       570 1.93103E-04 5.24033E-05 0.00000E+00
 -1       571 1.79389E-04 4.54897E-05-1.24077E-24
 -1       572 1.79489E-04 4.24315E-05 4.13590E-25
 -1       573 1.79590E-04 3.93045E-05 8.27181E-25
 -1       574 1.79691E-04 3.61292E-05-1.65436E-24
 -1       575 1.79792E-04 3.29262E-05-3.30872E-24
 -1       576 1.79893E-04 2.97162E-05-1.65436E-24
 -1       577 1.79994E-04 2.65199E-05 0.00000E+00
 -1       578 1.80095E-04 2.33581E-05 0.00000E+00
 -1       579 1.80196E-04 2.02515E-05 0.00000E+00
 -1       580 1.80298E-04 1.72207E-05 0.00000E+00
 -1       581 1.80400E-04 1.42867E-05 6.61744E-24
 -1       582 1.80502E-04 1.14700E-05 0.00000E+00
 -1       583 1.80604E-04 8.79131E-06 0.00000E+00
 -1       584 1.80707E-04 6.27119E-06 0.00000E+00
 -1       585 1.80810E-04 3.92989E-06 0.00000E+00
 -1       586 1.81844E-04 4.85083E-05 0.00000E+00
 -1       587 1.84327E-04 4.85570E-05-8.27181E-25
 -1       588 1.86782E-04 4.86055E-05-8.27181E-25
 -1       589 1.89251E-04 4.86534E-05 4.13590E-25
 -1       590 1.91776E-04 4.87001E-05 0.00000E+00
 -1       591 1.80313E-04 4.56030E-05 0.00000E+00
 -1       592 1.81342E-04 4.27130E-05 0.00000E+00
 -1       593 1.82380E-04 3.97973E-05 0.00000E+00
 -1       594 1.83426E-04 3.68622E-05 0.00000E+00
 -1       595 1.84475E-04 3.39144E-05-1.65436E-24
 -1       596 1.85527E-04 3.09603E-05-8.27181E-25
 -1       597 1.86579E-04 2.80063E-05 0.00000E+00
 -1       598 1.87629E-04 2.50588E-05 0.00000E+00
 -1       599 1.88674E-04 2.21243E-05 0.00000E+00
 -1       600 1.89711E-04 1.92091E-05-8.27181E-25
 -1       601 1.90739E-04 1.63198E-05 8.27181E-25
 -1       602 1.91755E-04 1.34627E-05 8.27181E-25
 -1       603 1.92757E-04 1.06443E-05 0.00000E+00
 -1       604 1.93743E-04 7.87110E-06 0.00000E+00
 -1       605 1.94709E-04 5.14946E-06 0.00000E+00
 -1       606 1.80925E-04-9.18083E-08-3.30872E-24
 -1       607 1.80934E-04-1.89332E-06 0.00000E+00
 -1       608 1.80941E-04-3.62297E-06-3.30872E-24
 -1       609 1.80948E-04-5.28582E-06 0.00000E+00
 -1       610 1.80955E-04-6.88698E-06 0.00000E+00
 -1       611 1.80962E-04-8.43159E-06 0.00000E+00
 -1       612 1.80969E-04-9.92482E-06 0.00000E+00
 -1       613 1.80976E-04-1.13718E-05 0.00000E+00
 -1       614 1.80983E-04-1.27778E-05 0.00000E+00
 -1       615 1.80990E-04-1.41479E-05 0.00000E+00
 -1       616 1.80998E-04-1.54874E-05 0.00000E+00
 -1       617 1.81005E-04-1.68013E-05 0.00000E+00
 -1       618 1.81012E-04-1.80948E-05 0.00000E+00
 -1       619 1.81019E-04-1.93732E-05 0.00000E+00
 -1       620 1.81026E-04-2.06415E-05 2.06795E-25
 -1       621 1.83016E-04 1.90358E-06 0.00000E+00
 -1       622 1.85320E-04 2.02155E-06-1.65436E-24
 -1       623 1.87781E-04 2.13916E-06 0.00000E+00
 -1       624 1.90354E-04 2.25632E-06 0.00000E+00
 -1       625 1.92995E-04 2.37308E-06 0.00000E+00
 -1       626 1.81730E-04-5.62071E-08-6.61744E-24
 -1       627 1.82529E-04-1.84625E-06-1.65436E-24
 -1       628 1.83311E-04-3.59123E-06 0.00000E+00
 -1       629 1.84079E-04-5.29855E-06 1.65436E-24
 -1       630 1.84835E-04-6.97571E-06 0.00000E+00
 -1       631 1.85584E-04-8.63015E-06 1.65436E-24
 -1       632 1.86326E-04-1.02693E-05 0.00000E+00
 -1       633 1.87066E-04-1.19007E-05-1.65436E-24
 -1       634 1.87805E-04-1.35319E-05 0.00000E+00
 -1       635 1.88548E-04-1.51701E-05 1.65436E-24
 -1       636 1.89295E-04-1.68230E-05 3.30872E-24
 -1       637 1.90051E-04-1.84981E-05 0.00000E+00
 -1       638 1.90818E-04-2.02027E-05 3.30872E-24
 -1       639 1.91598E-04-2.19444E-05 8.27181E-25
 -1       640 1.92395E-04-2.37307E-05 0.00000E+00
 -1       656 1.82520E-04-2.25002E-05 0.00000E+00
 -1       657 1.84415E-04-2.31198E-05 0.00000E+00
 -1       658 1.86586E-04-2.37382E-05 0.00000E+00
 -1       659 1.88895E-04-2.43564E-05 6.61744E-24
 -1       660 1.91161E-04-2.49763E-05-6.61744E-24
 -1       661 1.81589E-04-2.32137E-05 0.00000E+00
 -1       662 1.82183E-04-2.46160E-05 0.00000E+00
 -1       663 1.82810E-04-2.61061E-05 1.65436E-24
 -1       664 1.83467E-04-2.76776E-05-8.27181E-25
 -1       665 1.84153E-04-2.93242E-05 0.00000E+00
 -1       666 1.84864E-04-3.10397E-05 8.27181E-25
 -1       667 1.85600E-04-3.28183E-05 0.00000E+00
 -1       668 1.86356E-04-3.46542E-05 0.00000E+00
 -1       669 1.87132E-04-3.65415E-05-1.65436E-24
 -1       670 1.87924E-04-3.84748E-05 0.00000E+00
 -1       671 1.88732E-04-4.04485E-05-1.65436E-24
 -1       672 1.89553E-04-4.24572E-05 0.00000E+00
 -1       673 1.90385E-04-4.44957E-05 0.00000E+00
 -1       674 1.91225E-04-4.65589E-05 0.00000E+00
 -1       675 1.92072E-04-4.86412E-05 0.00000E+00
 -1       676 1.82230E-04-5.02149E-05 0.00000E+00
 -1       677 1.84376E-04-5.03205E-05 1.65436E-24
 -1       678 1.86519E-04-5.04260E-05 0.00000E+00
 -1       679 1.88658E-04-5.05312E-05 1.65436E-24
 -1       680 1.90792E-04-5.06363E-05-1.65436E-24
 -1       771 1.84048E-05 1.55638E-05 0.00000E+00
 -1       772 8.14046E-06 3.80369E-05 0.00000E+00
 -1       773-2.68741E-07 5.58468E-05 0.00000E+00
 -1       774-6.95116E-06 6.92585E-05 2.64698E-23
 -1       775-1.20324E-05 7.85478E-05 5.29396E-23
 -1       776-1.56430E-05 8.40076E-05 2.64698E-23
 -1       777-1.79132E-05 8.59414E-05 5.29396E-23
 -1       778-1.89758E-05 8.46668E-05 5.29396E-23
 -1       779-1.89628E-05 8.05101E-05 5.29396E-23
 -1       780-1.80082E-05 7.38095E-05 0.00000E+00
 -1       781-1.62451E-05 6.49100E-05 0.00000E+00
 -1       782-1.38080E-05 5.41658E-05 0.00000E+00
 -1       783-1.08304E-05 4.19360E-05 0.00000E+00
 -1       784-7.44724E-06 2.85856E-05 0.00000E+00
 -1       785-3.79215E-06 1.44833E-05 0.00000E+00
 -1       786 1.94474E-04 4.58335E-05-8.27181E-25
 -1       787 1.94552E-04 4.29062E-05-8.27181E-25
 -1       788 1.94630E-04 3.99660E-05-1.65436E-24
 -1       789 1.94709E-04 3.70176E-05-8.27181E-25
 -1       790 1.94788E-04 3.40644E-05 0.00000E+00
 -1       791 1.94867E-04 3.11096E-05 1.65436E-24
 -1       792 1.94946E-04 2.81561E-05 0.00000E+00
 -1       793 1.95025E-04 2.52069E-05 0.00000E+00
 -1       794 1.95105E-04 2.22657E-05 0.00000E+00
 -1       795 1.95184E-04 1.93364E-05 0.00000E+00
 -1       796 1.95263E-04 1.64251E-05 0.00000E+00
 -1       797 1.95342E-04 1.35379E-05-1.65436E-24
 -1       798 1.95422E-04 1.06859E-05-3.30872E-24
 -1       799 1.95501E-04 7.88000E-06 0.00000E+00
 -1       800 1.95581E-04 5.14031E-06 0.00000E+00
 -1       801 1.35891E-04 4.45510E-05 0.00000E+00
 -1       802-3.99740E-05 2.71626E-05-2.64698E-23
 -1       803-1.82756E-04 1.40117E-05-5.29396E-23
 -1       804-1.46675E-04 1.00357E-05 0.00000E+00
 -1       805-4.48637E-05 3.07720E-06 5.29396E-23
 -1       806 1.95376E-04 4.57605E-05 0.00000E+00
 -1       807 1.96355E-04 4.27552E-05 0.00000E+00
 -1       808 1.97339E-04 3.97367E-05 0.00000E+00
 -1       809 1.98323E-04 3.67139E-05-1.65436E-24
 -1       810 1.99306E-04 3.36959E-05-3.30872E-24
 -1       811 2.00283E-04 3.06913E-05 0.00000E+00
 -1       812 2.01252E-04 2.77090E-05-3.30872E-24
 -1       813 2.02210E-04 2.47578E-05 0.00000E+00
 -1       814 2.03153E-04 2.18464E-05 0.00000E+00
 -1       815 2.04077E-04 1.89836E-05-1.65436E-24
 -1       816 2.04981E-04 1.61782E-05-1.65436E-24
 -1       817 2.05860E-04 1.34389E-05-8.27181E-25
 -1       818 2.06711E-04 1.07745E-05 0.00000E+00
 -1       819 2.07531E-04 8.19381E-06-8.27181E-25
 -1       820 2.08317E-04 5.70540E-06 0.00000E+00
 -1       821 1.95521E-04-1.43656E-06 0.00000E+00
 -1       822 1.95362E-04-7.97863E-06-1.65436E-24
 -1       823 1.95191E-04-1.62758E-05 0.00000E+00
 -1       824 1.95012E-04-2.54537E-05 0.00000E+00
 -1       825 1.94834E-04-3.43924E-05 0.00000E+00
 -1       826 1.94666E-04-4.19733E-05 1.65436E-24
 -1       827 1.94512E-04-4.74583E-05 0.00000E+00
 -1       828 1.94368E-04-5.01227E-05 0.00000E+00
 -1       829 1.94228E-04-5.00304E-05-3.30872E-24
 -1       830 1.94085E-04-4.72626E-05 1.65436E-24
 -1       831 1.93935E-04-4.26492E-05-3.30872E-24
 -1       832 1.93780E-04-3.70315E-05-1.65436E-24
 -1       833 1.93626E-04-3.15324E-05-3.30872E-24
 -1       834 1.93480E-04-2.72739E-05-1.65436E-24
 -1       835 1.93338E-04-2.50319E-05 1.65436E-24
 -1       836 1.98133E-04 2.62453E-06 3.30872E-24
 -1       837 2.00434E-04 2.76563E-06-1.65436E-24
 -1       838 2.02621E-04 2.90679E-06-3.30872E-24
 -1       839 2.04751E-04 3.04725E-06 1.65436E-24
 -1       840 2.06881E-04 3.18750E-06 0.00000E+00
 -1       856 1.93193E-04-2.74267E-05 0.00000E+00
 -1       857 1.93175E-04-2.91465E-05-5.16988E-26
 -1       858 1.93158E-04-3.07498E-05 0.00000E+00
 -1       859 1.93140E-04-3.22579E-05-2.06795E-25
 -1       860 1.93122E-04-3.36923E-05 4.13590E-25
 -1       861 1.93104E-04-3.50743E-05-2.06795E-25
 -1       862 1.93087E-04-3.64255E-05 4.13590E-25
 -1       863 1.93069E-04-3.77673E-05 0.00000E+00
 -1       864 1.93051E-04-3.91213E-05 4.13590E-25
 -1       865 1.93033E-04-4.05089E-05 0.00000E+00
 -1       866 1.93015E-04-4.19515E-05 0.00000E+00
 -1       867 1.92997E-04-4.34707E-05-4.13590E-25
 -1       868 1.92978E-04-4.50878E-05 0.00000E+00
 -1       869 1.92960E-04-4.68241E-05 4.13590E-25
 -1       870 1.92941E-04-4.87009E-05 0.00000E+00
 -1       871 1.95357E-04-2.55774E-05 0.00000E+00
 -1       872 1.97653E-04-2.55892E-05 0.00000E+00
 -1       873 2.00026E-04-2.56018E-05 0.00000E+00
 -1       874 2.02405E-04-2.56151E-05-2.84343E-25
 -1       875 2.04722E-04-2.56290E-05 1.65436E-24
 -1       876 1.94031E-04-2.74121E-05 3.30872E-24
 -1       877 1.94832E-04-2.91861E-05-1.65436E-24
 -1       878 1.95610E-04-3.08995E-05-3.30872E-24
 -1       879 1.96369E-04-3.25597E-05-1.65436E-24
 -1       880 1.97111E-04-3.41745E-05 3.30872E-24
 -1       881 1.97839E-04-3.57512E-05-1.65436E-24
 -1       882 1.98556E-04-3.72976E-05 3.30872E-24
 -1       883 1.99264E-04-3.88210E-05 0.00000E+00
 -1       884 1.99966E-04-4.03291E-05 0.00000E+00
 -1       885 2.00665E-04-4.18294E-05-1.65436E-24
 -1       886 2.01364E-04-4.33294E-05 0.00000E+00
 -1       887 2.02066E-04-4.48365E-05 0.00000E+00
 -1       888 2.02773E-04-4.63585E-05-3.30872E-24
 -1       889 2.03487E-04-4.79029E-05 0.00000E+00
 -1       890 2.04213E-04-4.94772E-05 0.00000E+00
 -1       891 1.95066E-04-5.07985E-05 0.00000E+00
 -1       892 1.97189E-04-5.08578E-05 8.27181E-25
 -1       893 1.99262E-04-5.09169E-05 0.00000E+00
 -1       894 2.01263E-04-5.09758E-05-4.13590E-25
 -1       895 2.03165E-04-5.10343E-05 8.27181E-25
 -1       956 2.08934E-04 1.14179E-06-1.65436E-24
 -1       957 2.08799E-04-9.25262E-07 8.27181E-25
 -1       958 2.08663E-04-2.89559E-06 1.65436E-24
 -1       959 2.08528E-04-4.78215E-06 1.65436E-24
 -1       960 2.08392E-04-6.59799E-06 0.00000E+00
 -1       961 2.08256E-04-8.35617E-06 0.00000E+00
 -1       962 2.08121E-04-1.00697E-05 0.00000E+00
 -1       963 2.07986E-04-1.17519E-05 0.00000E+00
 -1       964 2.07850E-04-1.34156E-05 3.30872E-24
 -1       965 2.07715E-04-1.50740E-05 1.65436E-24
 -1       966 2.07580E-04-1.67403E-05 0.00000E+00
 -1       967 2.07444E-04-1.84275E-05 0.00000E+00
 -1       968 2.07309E-04-2.01486E-05 0.00000E+00
 -1       969 2.07174E-04-2.19169E-05 0.00000E+00
 -1       970 2.07039E-04-2.37452E-05 3.30872E-24
 -1       971 2.06784E-04-2.75560E-05-3.30872E-24
 -1       972 2.06660E-04-2.93744E-05-1.65436E-24
 -1       973 2.06537E-04-3.11114E-05-3.30872E-24
 -1       974 2.06414E-04-3.27776E-05 0.00000E+00
 -1       975 2.06291E-04-3.43836E-05-3.30872E-24
 -1       976 2.06168E-04-3.59397E-05 0.00000E+00
 -1       977 2.06045E-04-3.74567E-05 3.30872E-24
 -1       978 2.05922E-04-3.89451E-05-1.65436E-24
 -1       979 2.05799E-04-4.04154E-05 0.00000E+00
 -1       980 2.05676E-04-4.18783E-05 0.00000E+00
 -1       981 2.05553E-04-4.33443E-05 0.00000E+00
 -1       982 2.05430E-04-4.48239E-05 1.65436E-24
 -1       983 2.05307E-04-4.63279E-05 0.00000E+00
 -1       984 2.05185E-04-4.78667E-05 0.00000E+00
 -1       985 2.05063E-04-4.94510E-05 0.00000E+00
 -3
    1PSTEP                        46          23           1          
  100CL  123 6.62965E-01         409                     0   23           1
 -4  FORC        4    1
 -5  F1          1    2    1    0
 -5  F2          1    2    2    0
 -5  F3          1    2    3    0
 -5  ALL         1    2    0    0    1ALL
 -1         1 1.22342E-03 0.00000E+00 0.00000E+00
 -1         2 0.00000E+00 0.00000E+00 0.00000E+00
 -1         3 0.00000E+00 0.00000E+00 0.00000E+00
 -1         5 0.00000E+00 0.00000E+00 0.00000E+00
 -1         8 6.43990E-05-1.02283E-05 0.00000E+00
 -1         9-7.87333E-03 7.59441E-03 0.00000E+00
 -1        10-2.53245E-08 1.54957E-07 0.00000E+00
 -1        12 0.00000E+00 0.00000E+00 0.00000E+00
 -1        15 0.00000E+00 0.00000E+00 0.00000E+00
 -1        16-1.94323E-03-1.72554E-02 0.00000E+00
 -1        17-1.58548E-04 8.70371E-05 0.00000E+00
 -1        18 2.08404E-06 1.70171E-06 0.00000E+00
 -1        19 5.96069E-07-1.38440E-07 0.00000E+00
 -1        20-9.78090E-07 1.09316E-07 0.00000E+00
 -1        21 0.00000E+00 3.87163E-07 0.00000E+00
 -1        24-4.97585E-04 1.47110E-04 0.00000E+00
 -1        25 5.74984E-07-1.14898E-06 0.00000E+00
 -1        26-6.34143E-07-4.60054E-07 0.00000E+00
 -1        27-3.21243E-07 6.15760E-07 0.00000E+00
 -1        28-3.01454E-07 1.84433E-07 0.00000E+00
 -1        32 0.00000E+00 0.00000E+00 0.00000E+00
 -1        33-5.01842E-08-8.14613E-07 0.00000E+00
 -1        34-2.29964E-07-8.12194E-07 0.00000E+00
 -1        35-1.36682E-06-8.77583E-07 0.00000E+00
 -1        51 0.00000E+00 0.00000E+00 0.00000E+00
 -1        52 0.00000E+00 0.00000E+00 0.00000E+00
 -1        53 0.00000E+00 0.00000E+00 0.00000E+00
 -1        54 0.00000E+00 0.00000E+00 0.00000E+00
 -1        55 0.00000E+00 0.00000E+00 0.00000E+00
 -1        56 0.00000E+00 0.00000E+00 0.00000E+00
 -1        57 0.00000E+00 0.00000E+00 0.00000E+00
 -1        58 0.00000E+00 0.00000E+00 0.00000E+00
 -1        59 0.00000E+00 0.00000E+00 0.00000E+00
 -1        60 0.00000E+00 0.00000E+00 0.00000E+00
 -1        61 0.00000E+00 0.00000E+00 0.00000E+00
 -1        62 0.00000E+00 0.00000E+00 0.00000E+00
 -1        63 0.00000E+00 0.00000E+00 0.00000E+00
 -1        64 0.00000E+00 0.00000E+00 0.00000E+00
 -1        65 0.00000E+00 0.00000E+00 0.00000E+00
 -1        66 0.00000E+00 0.00000E+00 0.00000E+00
 -1        67 0.00000E+00 0.00000E+00 0.00000E+00
 -1        68 0.00000E+00 0.00000E+00 0.00000E+00
 -1        69 0.00000E+00 0.00000E+00 0.00000E+00
 -1        70 0.00000E+00 0.00000E+00 0.00000E+00
 -1        86 0.00000E+00 0.00000E+00 0.00000E+00
 -1        87 0.00000E+00 0.00000E+00 0.00000E+00
 -1        88 0.00000E+00 0.00000E+00 0.00000E+00
 -1        89 0.00000E+00 0.00000E+00 0.00000E+00
 -1        90 0.00000E+00 0.00000E+00 0.00000E+00
 -1       121 0.00000E+00 0.00000E+00 0.00000E+00
 -1       122 0.00000E+00 0.00000E+00 0.00000E+00
 -1       123 0.00000E+00 0.00000E+00 0.00000E+00
 -1       124 0.00000E+00 0.00000E+00 0.00000E+00
 -1       125 0.00000E+00 0.00000E+00 0.00000E+00
 -1       191 0.00000E+00 0.00000E+00 0.00000E+00
 -1       192 0.00000E+00 0.00000E+00 0.00000E+00
 -1       193 0.00000E+00 0.00000E+00 0.00000E+00
 -1       194 0.00000E+00 0.00000E+00 0.00000E+00
 -1       195 0.00000E+00 0.00000E+00 0.00000E+00
 -1       251 0.00000E+00 0.00000E+00 0.00000E+00
 -1       252 0.00000E+00 0.00000E+00 0.00000E+00
 -1       253 0.00000E+00 0.00000E+00 0.00000E+00
 -1       254 0.00000E+00 0.00000E+00 0.00000E+00
 -1       255 0.00000E+00 0.00000E+00 0.00000E+00
 -1       256 0.00000E+00 0.00000E+00 0.00000E+00
 -1       257 0.00000E+00 0.00000E+00 0.00000E+00
 -1       258 0.00000E+00 0.00000E+00 0.00000E+00
 -1       259 0.00000E+00 0.00000E+00 0.00000E+00
 -1       260 0.00000E+00 0.00000E+00 0.00000E+00
 -1       261 0.00000E+00 0.00000E+00 0.00000E+00
 -1       262 0.00000E+00 0.00000E+00 0.00000E+00
 -1       263 0.00000E+00 0.00000E+00 0.00000E+00
 -1       264 0.00000E+00 0.00000E+00 0.00000E+00
 -1       265 0.00000E+00 0.00000E+00 0.00000E+00
 -1       266 0.00000E+00 0.00000E+00 0.00000E+00
 -1       267 0.00000E+00 0.00000E+00 0.00000E+00
 -1       268 0.00000E+00 0.00000E+00 0.00000E+00
 -1       269 0.00000E+00 0.00000E+00 0.00000E+00
 -1       270 0.00000E+00 0.00000E+00 0.00000E+00
 -1       271 0.00000E+00 0.00000E+00 0.00000E+00
 -1       272 0.00000E+00 0.00000E+00 0.00000E+00
 -1       273 0.00000E+00 0.00000E+00 0.00000E+00
 -1       274 0.00000E+00 0.00000E+00 0.00000E+00
 -1       275 0.00000E+00 0.00000E+00 0.00000E+00
 -1       276 0.00000E+00 0.00000E+00 0.00000E+00
 -1       277 0.00000E+00 0.00000E+00 0.00000E+00
 -1       278 0.00000E+00 0.00000E+00 0.00000E+00
 -1       279 0.00000E+00 0.00000E+00 0.00000E+00
 -1       280 0.00000E+00 0.00000E+00 0.00000E+00
 -1       281 0.00000E+00 0.00000E+00 0.00000E+00
 -1       282 0.00000E+00 0.00000E+00 0.00000E+00
 -1       283 0.00000E+00 0.00000E+00 0.00000E+00
 -1       284 0.00000E+00 0.00000E+00 0.00000E+00
 -1       285 0.00000E+00 0.00000E+00 0.00000E+00
 -1       301 0.00000E+00 0.00000E+00 0.00000E+00
 -1       302 0.00000E+00 0.00000E+00 0.00000E+00
 -1       303 0.00000E+00 0.00000E+00 0.00000E+00
 -1       304 0.00000E+00 0.00000E+00 0.00000E+00
 -1       305 0.00000E+00 0.00000E+00 0.00000E+00
 -1       306 0.00000E+00 0.00000E+00 0.00000E+00
 -1       307 0.00000E+00 0.00000E+00 0.00000E+00
 -1       308 0.00000E+00 0.00000E+00 0.00000E+00
 -1       309 0.00000E+00 0.00000E+00 0.00000E+00
 -1       310 0.00000E+00 0.00000E+00 0.00000E+00
 -1       311 0.00000E+00 0.00000E+00 0.00000E+00
 -1       312 0.00000E+00 0.00000E+00 0.00000E+00
 -1       313 0.00000E+00 0.00000E+00 0.00000E+00
 -1       314 0.00000E+00 0.00000E+00 0.00000E+00
 -1       315 0.00000E+00 0.00000E+00 0.00000E+00
 -1       316 0.00000E+00 0.00000E+00 0.00000E+00
 -1       317 0.00000E+00 0.00000E+00 0.00000E+00
 -1       318 0.00000E+00 0.00000E+00 0.00000E+00
 -1       319 0.00000E+00 0.00000E+00 0.00000E+00
 -1       320 0.00000E+00 0.00000E+00 0.00000E+00
 -1       336 0.00000E+00 0.00000E+00 0.00000E+00
 -1       337 0.00000E+00 0.00000E+00 0.00000E+00
 -1       338 0.00000E+00 0.00000E+00 0.00000E+00
 -1       339 0.00000E+00 0.00000E+00 0.00000E+00
 -1       340 0.00000E+00 0.00000E+00 0.00000E+00
 -1       406 0.00000E+00 0.00000E+00 0.00000E+00
 -1       407 0.00000E+00 0.00000E+00 0.00000E+00
 -1       408 0.00000E+00 0.00000E+00 0.00000E+00
 -1       409 0.00000E+00 0.00000E+00 0.00000E+00
 -1       410 0.00000E+00 0.00000E+00 0.00000E+00
 -1       521 0.00000E+00 0.00000E+00 0.00000E+00
 -1       522 0.00000E+00 0.00000E+00 0.00000E+00
 -1       523 0.00000E+00 0.00000E+00 0.00000E+00
 -1       524 0.00000E+00 0.00000E+00 0.00000E+00
 -1       525 0.00000E+00 0.00000E+00 0.00000E+00
 -1       526 0.00000E+00 0.00000E+00 0.00000E+00
 -1       527 0.00000E+00 0.00000E+00 0.00000E+00
 -1       528 0.00000E+00 0.00000E+00 0.00000E+00
 -1       529 0.00000E+00 0.00000E+00 0.00000E+00
 -1       530 0.00000E+00 0.00000E+00 0.00000E+00
 -1       531 0.00000E+00 0.00000E+00 0.00000E+00
 -1       532 0.00000E+00 0.00000E+00 0.00000E+00
 -1       533 0.00000E+00 0.00000E+00 0.00000E+00
 -1       534 0.00000E+00 0.00000E+00 0.00000E+00
 -1       535 0.00000E+00 0.00000E+00 0.00000E+00
 -1       536 0.00000E+00 0.00000E+00 0.00000E+00
 -1       537 0.00000E+00 0.00000E+00 0.00000E+00
 -1       538 0.00000E+00 0.00000E+00 0.00000E+00
 -1       539 0.00000E+00 0.00000E+00 0.00000E+00
 -1       540 0.00000E+00 0.00000E+00 0.00000E+00
 -1       541 0.00000E+00 0.00000E+00 0.00000E+00
 -1       542 0.00000E+00 0.00000E+00 0.00000E+00
 -1       543 0.00000E+00 0.00000E+00 0.00000E+00
 -1       544 0.00000E+00 0.00000E+00 0.00000E+00
 -1       545 0.00000E+00 0.00000E+00 0.00000E+00
 -1       546 0.00000E+00 0.00000E+00 0.00000E+00
 -1       547 0.00000E+00 0.00000E+00 0.00000E+00
 -1       548 0.00000E+00 0.00000E+00 0.00000E+00
 -1       549 0.00000E+00 0.00000E+00 0.00000E+00
 -1       550 0.00000E+00 0.00000E+00 0.00000E+00
 -1       551 0.00000E+00 0.00000E+00 0.00000E+00
 -1       552 0.00000E+00 0.00000E+00 0.00000E+00
 -1       553 0.00000E+00 0.00000E+00 0.00000E+00
 -1       554 0.00000E+00 0.00000E+00 0.00000E+00
 -1       555 0.00000E+00 0.00000E+00 0.00000E+00
 -1       556 0.00000E+00 0.00000E+00 0.00000E+00
 -1       557 0.00000E+00 0.00000E+00 0.00000E+00
 -1       558 0.00000E+00 0.00000E+00 0.00000E+00
 -1       559 0.00000E+00 0.00000E+00 0.00000E+00
 -1       560 0.00000E+00 0.00000E+00 0.00000E+00
 -1       561 0.00000E+00 0.00000E+00 0.00000E+00
 -1       562 0.00000E+00 0.00000E+00 0.00000E+00
 -1       563 0.00000E+00 0.00000E+00 0.00000E+00
 -1       564 0.00000E+00 0.00000E+00 0.00000E+00
 -1       565 0.00000E+00 0.00000E+00 0.00000E+00
 -1       566 0.00000E+00 0.00000E+00 0.00000E+00
 -1       567 0.00000E+00 0.00000E+00 0.00000E+00
 -1       568 0.00000E+00 0.00000E+00 0.00000E+00
 -1       569 0.00000E+00 0.00000E+00 0.00000E+00
 -1       570 0.00000E+00 0.00000E+00 0.00000E+00
 -1       571 0.00000E+00 0.00000E+00 0.00000E+00
 -1       572 0.00000E+00 0.00000E+00 0.00000E+00
 -1       573 0.00000E+00 0.00000E+00 0.00000E+00
 -1       574 0.00000E+00 0.00000E+00 0.00000E+00
 -1       575 0.00000E+00 0.00000E+00 0.00000E+00
 -1       576 0.00000E+00 0.00000E+00 0.00000E+00
 -1       577 0.00000E+00 0.00000E+00 0.00000E+00
 -1       578 0.00000E+00 0.00000E+00 0.00000E+00
 -1       579 0.00000E+00 0.00000E+00 0.00000E+00
 -1       580 0.00000E+00 0.00000E+00 0.00000E+00
 -1       581 0.00000E+00 0.00000E+00 0.00000E+00
 -1       582 0.00000E+00 0.00000E+00 0.00000E+00
 -1       583 0.00000E+00 0.00000E+00 0.00000E+00
 -1       584 0.00000E+00 0.00000E+00 0.00000E+00
 -1       585 0.00000E+00 0.00000E+00 0.00000E+00
 -1       586 0.00000E+00 0.00000E+00 0.00000E+00
 -1       587 0.00000E+00 0.00000E+00 0.00000E+00
 -1       588 0.00000E+00 0.00000E+00 0.00000E+00
 -1       589 0.00000E+00 0.00000E+00 0.00000E+00
 -1       590 0.00000E+00 0.00000E+00 0.00000E+00
 -1       591 0.00000E+00 0.00000E+00 0.00000E+00
 -1       592 0.00000E+00 0.00000E+00 0.00000E+00
 -1       593 0.00000E+00 0.00000E+00 0.00000E+00
 -1       594 0.00000E+00 0.00000E+00 0.00000E+00
 -1       595 0.00000E+00 0.00000E+00 0.00000E+00
 -1       596 0.00000E+00 0.00000E+00 0.00000E+00
 -1       597 0.00000E+00 0.00000E+00 0.00000E+00
 -1       598 0.00000E+00 0.00000E+00 0.00000E+00
 -1       599 0.00000E+00 0.00000E+00 0.00000E+00
 -1       600 0.00000E+00 0.00000E+00 0.00000E+00
 -1       601 0.00000E+00 0.00000E+00 0.00000E+00
 -1       602 0.00000E+00 0.00000E+00 0.00000E+00
 -1       603 0.00000E+00 0.00000E+00 0.00000E+00
 -1       604 0.00000E+00 0.00000E+00 0.00000E+00
 -1       605 0.00000E+00 0.00000E+00 0.00000E+00
 -1       606 0.00000E+00 0.00000E+00 0.00000E+00
 -1       607 0.00000E+00 0.00000E+00 0.00000E+00
 -1       608 0.00000E+00 0.00000E+00 0.00000E+00
 -1       609 0.00000E+00 0.00000E+00 0.00000E+00
 -1       610 0.00000E+00 0.00000E+00 0.00000E+00
 -1       611 0.00000E+00 0.00000E+00 0.00000E+00
 -1       612 0.00000E+00 0.00000E+00 0.00000E+00
 -1       613 0.00000E+00 0.00000E+00 0.00000E+00
 -1       614 0.00000E+00 0.00000E+00 0.00000E+00
 -1       615 0.00000E+00 0.00000E+00 0.00000E+00
 -1       616 0.00000E+00 0.00000E+00 0.00000E+00
 -1       617 0.00000E+00 0.00000E+00 0.00000E+00
 -1       618 0.00000E+00 0.00000E+00 0.00000E+00
 -1       619 0.00000E+00 0.00000E+00 0.00000E+00
 -1       620 0.00000E+00 0.00000E+00 0.00000E+00
 -1       621 0.00000E+00 0.00000E+00 0.00000E+00
 -1       622 0.00000E+00 0.00000E+00 0.00000E+00
 -1       623 0.00000E+00 0.00000E+00 0.00000E+00
 -1       624 0.00000E+00 0.00000E+00 0.00000E+00
 -1       625 0.00000E+00 0.00000E+00 0.00000E+00
 -1       626 0.00000E+00 0.00000E+00 0.00000E+00
 -1       627 0.00000E+00 0.00000E+00 0.00000E+00
 -1       628 0.00000E+00 0.00000E+00 0.00000E+00
 -1       629 0.00000E+00 0.00000E+00 0.00000E+00
 -1       630 0.00000E+00 0.00000E+00 0.00000E+00
 -1       631 0.00000E+00 0.00000E+00 0.00000E+00
 -1       632 0.00000E+00 0.00000E+00 0.00000E+00
 -1       633 0.00000E+00 0.00000E+00 0.00000E+00
 -1       634 0.00000E+00 0.00000E+00 0.00000E+00
 -1       635 0.00000E+00 0.00000E+00 0.00000E+00
 -1       636 0.00000E+00 0.00000E+00 0.00000E+00
 -1       637 0.00000E+00 0.00000E+00 0.00000E+00
 -1       638 0.00000E+00 0.00000E+00 0.00000E+00
 -1       639 0.00000E+00 0.00000E+00 0.00000E+00
 -1       640 0.00000E+00 0.00000E+00 0.00000E+00
 -1       656 0.00000E+00 0.00000E+00 0.00000E+00
 -1       657 0.00000E+00 0.00000E+00 0.00000E+00
 -1       658 0.00000E+00 0.00000E+00 0.00000E+00
 -1       659 0.00000E+00 0.00000E+00 0.00000E+00
 -1       660 0.00000E+00 0.00000E+00 0.00000E+00
 -1       661 0.00000E+00 0.00000E+00 0.00000E+00
 -1       662 0.00000E+00 0.00000E+00 0.00000E+00
 -1       663 0.00000E+00 0.00000E+00 0.00000E+00
 -1       664 0.00000E+00 0.00000E+00 0.00000E+00
 -1       665 0.00000E+00 0.00000E+00 0.00000E+00
 -1       666 0.00000E+00 0.00000E+00 0.00000E+00
 -1       667 0.00000E+00 0.00000E+00 0.00000E+00
 -1       668 0.00000E+00 0.00000E+00 0.00000E+00
 -1       669 0.00000E+00 0.00000E+00 0.00000E+00
 -1       670 0.00000E+00 0.00000E+00 0.00000E+00
 -1       671 0.00000E+00 0.00000E+00 0.00000E+00
 -1       672 0.00000E+00 0.00000E+00 0.00000E+00
 -1       673 0.00000E+00 0.00000E+00 0.00000E+00
 -1       674 0.00000E+00 0.00000E+00 0.00000E+00
 -1       675 0.00000E+00 0.00000E+00 0.00000E+00
 -1       676 0.00000E+00 0.00000E+00 0.00000E+00
 -1       677 0.00000E+00 0.00000E+00 0.00000E+00
 -1       678 0.00000E+00 0.00000E+00 0.00000E+00
 -1       679 0.00000E+00 0.00000E+00 0.00000E+00
 -1       680 0.00000E+00 0.00000E+00 0.00000E+00
 -1       771 0.00000E+00 0.00000E+00 0.00000E+00
 -1       772 0.00000E+00 0.00000E+00 0.00000E+00
 -1       773 0.00000E+00 0.00000E+00 0.00000E+00
 -1       774 0.00000E+00 0.00000E+00 0.00000E+00
 -1       775 0.00000E+00 0.00000E+00 0.00000E+00
 -1       776 0.00000E+00 0.00000E+00 0.00000E+00
 -1       777 0.00000E+00 0.00000E+00 0.00000E+00
 -1       778 0.00000E+00 0.00000E+00 0.00000E+00
 -1       779 0.00000E+00 0.00000E+00 0.00000E+00
 -1       780 0.00000E+00 0.00000E+00 0.00000E+00
 -1       781 0.00000E+00 0.00000E+00 0.00000E+00
 -1       782 0.00000E+00 0.00000E+00 0.00000E+00
 -1       783 0.00000E+00 0.00000E+00 0.00000E+00
 -1       784 0.00000E+00 0.00000E+00 0.00000E+00
 -1       785 0.00000E+00 0.00000E+00 0.00000E+00
 -1       786 0.00000E+00 0.00000E+00 0.00000E+00
 -1       787 0.00000E+00 0.00000E+00 0.00000E+00
 -1       788 0.00000E+00 0.00000E+00 0.00000E+00
 -1       789 0.00000E+00 0.00000E+00 0.00000E+00
 -1       790 0.00000E+00 0.00000E+00 0.00000E+00
 -1       791 0.00000E+00 0.00000E+00 0.00000E+00
 -1       792 0.00000E+00 0.00000E+00 0.00000E+00
 -1       793 0.00000E+00 0.00000E+00 0.00000E+00
 -1       794 0.00000E+00 0.00000E+00 0.00000E+00
 -1       795 0.00000E+00 0.00000E+00 0.00000E+00
 -1       796 0.00000E+00 0.00000E+00 0.00000E+00
 -1       797 0.00000E+00 0.00000E+00 0.00000E+00
 -1       798 0.00000E+00 0.00000E+00 0.00000E+00
 -1       799 0.00000E+00 0.00000E+00 0.00000E+00
 -1       800 0.00000E+00 0.00000E+00 0.00000E+00
 -1       801 0.00000E+00 0.00000E+00 0.00000E+00
 -1       802 0.00000E+00 0.00000E+00 0.00000E+00
 -1       803 0.00000E+00 0.00000E+00 0.00000E+00
 -1       804 0.00000E+00 0.00000E+00 0.00000E+00
 -1       805 0.00000E+00 0.00000E+00 0.00000E+00
 -1       806 0.00000E+00 0.00000E+00 0.00000E+00
 -1       807 0.00000E+00 0.00000E+00 0.00000E+00
 -1       808 0.00000E+00 0.00000E+00 0.00000E+00
 -1       809 0.00000E+00 0.00000E+00 0.00000E+00
 -1       810 0.00000E+00 0.00000E+00 0.00000E+00
 -1       811 0.00000E+00 0.00000E+00 0.00000E+00
 -1       812 0.00000E+00 0.00000E+00 0.00000E+00
 -1       813 0.00000E+00 0.00000E+00 0.00000E+00
 -1       814 0.00000E+00 0.00000E+00 0.00000E+00
 -1       815 0.00000E+00 0.00000E+00 0.00000E+00
 -1       816 0.00000E+00 0.00000E+00 0.00000E+00
 -1       817 0.00000E+00 0.00000E+00 0.00000E+00
 -1       818 0.00000E+00 0.00000E+00 0.00000E+00
 -1       819 0.00000E+00 0.00000E+00 0.00000E+00
 -1       820 0.00000E+00 0.00000E+00 0.00000E+00
 -1       821 0.00000E+00 0.00000E+00 0.00000E+00
 -1       822 0.00000E+00 0.00000E+00 0.00000E+00
 -1       823 0.00000E+00 0.00000E+00 0.00000E+00
 -1       824 0.00000E+00 0.00000E+00 0.00000E+00
 -1       825 0.00000E+00 0.00000E+00 0.00000E+00
 -1       826 0.00000E+00 0.00000E+00 0.00000E+00
 -1       827 0.00000E+00 0.00000E+00 0.00000E+00
 -1       828 0.00000E+00 0.00000E+00 0.00000E+00
 -1       829 0.00000E+00 0.00000E+00 0.00000E+00
 -1       830 0.00000E+00 0.00000E+00 0.00000E+00
 -1       831 0.00000E+00 0.00000E+00 0.00000E+00
 -1       832 0.00000E+00 0.00000E+00 0.00000E+00
 -1       833 0.00000E+00 0.00000E+00 0.00000E+00
 -1       834 0.00000E+00 0.00000E+00 0.00000E+00
 -1       835 0.00000E+00 0.00000E+00 0.00000E+00
 -1       836 0.00000E+00 0.00000E+00 0.00000E+00
 -1       837 0.00000E+00 0.00000E+00 0.00000E+00
 -1       838 0.00000E+00 0.00000E+00 0.00000E+00
 -1       839 0.00000E+00 0.00000E+00 0.00000E+00
 -1       840 0.00000E+00 0.00000E+00 0.00000E+00
 -1       856 0.00000E+00 0.00000E+00 0.00000E+00
 -1       857 0.00000E+00 0.00000E+00 0.00000E+00
 -1       858 0.00000E+00 0.00000E+00 0.00000E+00
 -1       859 0.00000E+00 0.00000E+00 0.00000E+00
 -1       860 0.00000E+00 0.00000E+00 0.00000E+00
 -1       861 0.00000E+00 0.00000E+00 0.00000E+00
 -1       862 0.00000E+00 0.00000E+00 0.00000E+00
 -1       863 0.00000E+00 0.00000E+00 0.00000E+00
 -1       864 0.00000E+00 0.00000E+00 0.00000E+00
 -1       865 0.00000E+00 0.00000E+00 0.00000E+00
 -1       866 0.00000E+00 0.00000E+00 0.00000E+00
 -1       867 0.00000E+00 0.00000E+00 0.00000E+00
 -1       868 0.00000E+00 0.00000E+00 0.00000E+00
 -1       869 0.00000E+00 0.00000E+00 0.00000E+00
 -1       870 0.00000E+00 0.00000E+00 0.00000E+00
 -1       871 0.00000E+00 0.00000E+00 0.00000E+00
 -1       872 0.00000E+00 0.00000E+00 0.00000E+00
 -1       873 0.00000E+00 0.00000E+00 0.00000E+00
 -1       874 0.00000E+00 0.00000E+00 0.00000E+00
 -1       875 0.00000E+00 0.00000E+00 0.00000E+00
 -1       876 0.00000E+00 0.00000E+00 0.00000E+00
 -1       877 0.00000E+00 0.00000E+00 0.00000E+00
 -1       878 0.00000E+00 0.00000E+00 0.00000E+00
 -1       879 0.00000E+00 0.00000E+00 0.00000E+00
 -1       880 0.00000E+00 0.00000E+00 0.00000E+00
 -1       881 0.00000E+00 0.00000E+00 0.00000E+00
 -1       882 0.00000E+00 0.00000E+00 0.00000E+00
 -1       883 0.00000E+00 0.00000E+00 0.00000E+00
 -1       884 0.00000E+00 0.00000E+00 0.00000E+00
 -1       885 0.00000E+00 0.00000E+00 0.00000E+00
 -1       886 0.00000E+00 0.00000E+00 0.00000E+00
 -1       887 0.00000E+00 0.00000E+00 0.00000E+00
 -1       888 0.00000E+00 0.00000E+00 0.00000E+00
 -1       889 0.00000E+00 0.00000E+00 0.00000E+00
 -1       890 0.00000E+00 0.00000E+00 0.00000E+00
 -1       891 0.00000E+00 0.00000E+00 0.00000E+00
 -1       892 0.00000E+00 0.00000E+00 0.00000E+00
 -1       893 0.00000E+00 0.00000E+00 0.00000E+00
 -1       894 0.00000E+00 0.00000E+00 0.00000E+00
 -1       895 0.00000E+00 0.00000E+00 0.00000E+00
 -1       956 0.00000E+00 0.00000E+00 0.00000E+00
 -1       957 0.00000E+00 0.00000E+00 0.00000E+00
 -1       958 0.00000E+00 0.00000E+00 0.00000E+00
 -1       959 0.00000E+00 0.00000E+00 0.00000E+00
 -1       960 0.00000E+00 0.00000E+00 0.00000E+00
 -1       961 0.00000E+00 0.00000E+00 0.00000E+00
 -1       962 0.00000E+00 0.00000E+00 0.00000E+00
 -1       963 0.00000E+00 0.00000E+00 0.00000E+00
 -1       964 0.00000E+00 0.00000E+00 0.00000E+00
 -1       965 0.00000E+00 0.00000E+00 0.00000E+00
 -1       966 0.00000E+00 0.00000E+00 0.00000E+00
 -1       967 0.00000E+00 0.00000E+00 0.00000E+00
 -1       968 0.00000E+00 0.00000E+00 0.00000E+00
 -1       969 0.00000E+00 0.00000E+00 0.00000E+00
 -1       970 0.00000E+00 0.00000E+00 0.00000E+00
 -1       971 0.00000E+00 0.00000E+00 0.00000E+00
 -1       972 0.00000E+00 0.00000E+00 0.00000E+00
 -1       973 0.00000E+00 0.00000E+00 0.00000E+00
 -1       974 0.00000E+00 0.00000E+00 0.00000E+00
 -1       975 0.00000E+00 0.00000E+00 0.00000E+00
 -1       976 0.00000E+00 0.00000E+00 0.00000E+00
 -1       977 0.00000E+00 0.00000E+00 0.00000E+00
 -1       978 0.00000E+00 0.00000E+00 0.00000E+00
 -1       979 0.00000E+00 0.00000E+00 0.00000E+00
 -1       980 0.00000E+00 0.00000E+00 0.00000E+00
 -1       981 0.00000E+00 0.00000E+00 0.00000E+00
 -1       982 0.00000E+00 0.00000E+00 0.00000E+00
 -1       983 0.00000E+00 0.00000E+00 0.00000E+00
 -1       984 0.00000E+00 0.00000E+00 0.00000E+00
 -1       985 0.00000E+00 0.00000E+00 0.00000E+00
 -3
