
 stresses (elem, integ.pnt.,sxx,syy,szz,sxy,sxz,syz) for set ELALL and time  0.1000000E+01

         1   1  1.860879E+06  1.108959E+05  1.232956E+05  6.941262E+04  8.470415E+04  9.443418E+00
         1   2  1.850716E+06  2.439343E+04  6.092617E+04  3.157750E+04  5.325286E+04  2.700905E+00
         1   3  1.860971E+06  3.269280E+03  3.533556E+04 -6.256996E+03  2.180111E+04 -2.190912E-01
         1   4  1.860874E+06  1.108868E+05  1.232943E+05  2.487617E-10  8.470415E+04 -1.078236E-10
         1   5  1.850714E+06  2.439156E+04  6.092590E+04  4.046386E-10  5.325286E+04 -4.747051E-10
         1   6  1.860971E+06  3.269206E+03  3.533555E+04  2.742684E-10  2.180111E+04 -9.123195E-10
         1   7  1.860879E+06  1.108959E+05  1.232956E+05 -6.941262E+04  8.470415E+04 -9.443418E+00
         1   8  1.850716E+06  2.439343E+04  6.092617E+04 -3.157750E+04  5.325286E+04 -2.700905E+00
         1   9  1.860971E+06  3.269280E+03  3.533556E+04  6.256996E+03  2.180111E+04  2.190912E-01
         1  10  1.860871E+06  1.108940E+05  1.232822E+05  6.941262E+04  4.023885E-10 -4.989502E-11
         1  11  1.850712E+06  2.439267E+04  6.092085E+04  3.157750E+04  5.496198E-10 -3.051656E-10
         1  12  1.860970E+06  3.269153E+03  3.533467E+04 -6.256996E+03  1.858762E-09 -7.430016E-10
         1  13  1.860866E+06  1.108849E+05  1.232809E+05 -7.407663E-10  1.685301E-11 -7.426132E-11
         1  14  1.850711E+06  2.439080E+04  6.092059E+04 -6.817360E-10  8.187142E-10 -4.396179E-10
         1  15  1.860970E+06  3.269079E+03  3.533466E+04 -1.355334E-09  1.228178E-09 -9.699571E-10
         1  16  1.860871E+06  1.108940E+05  1.232822E+05 -6.941262E+04 -5.637080E-10 -5.609147E-11
         1  17  1.850712E+06  2.439267E+04  6.092085E+04 -3.157750E+04 -2.892169E-10 -5.009801E-10
         1  18  1.860970E+06  3.269153E+03  3.533467E+04  6.256996E+03 -1.088060E-09 -1.126433E-09
         1  19  1.860879E+06  1.108959E+05  1.232956E+05  6.941262E+04 -8.470415E+04 -9.443418E+00
         1  20  1.850716E+06  2.439343E+04  6.092617E+04  3.157750E+04 -5.325286E+04 -2.700905E+00
         1  21  1.860971E+06  3.269280E+03  3.533556E+04 -6.256996E+03 -2.180111E+04  2.190912E-01
         1  22  1.860874E+06  1.108868E+05  1.232943E+05 -3.493146E-10 -8.470415E+04 -3.687114E-11
         1  23  1.850714E+06  2.439156E+04  6.092590E+04  1.243047E-10 -5.325286E+04 -4.011921E-10
         1  24  1.860971E+06  3.269206E+03  3.533555E+04 -2.437574E-09 -2.180111E+04 -1.047809E-09
         1  25  1.860879E+06  1.108959E+05  1.232956E+05 -6.941262E+04 -8.470415E+04  9.443418E+00
         1  26  1.850716E+06  2.439343E+04  6.092617E+04 -3.157750E+04 -5.325286E+04  2.700905E+00
         1  27  1.860971E+06  3.269280E+03  3.533556E+04  6.256996E+03 -2.180111E+04 -2.190912E-01
         2   1  1.856920E+06  4.908396E+03  2.838573E+04  2.319427E+03  1.698620E+04  6.327906E-02
         2   2  1.855813E+06  5.845229E+02  1.977710E+04  1.019952E+03  7.134936E+03  1.168835E-02
         2   3  1.856927E+06  2.521107E+01  1.850932E+04 -2.795247E+02 -2.716290E+03  1.219493E-03
         2   4  1.856920E+06  4.908386E+03  2.838573E+04  2.469624E-08  1.698620E+04 -6.491445E-10
         2   5  1.855813E+06  5.845209E+02  1.977710E+04 -3.526484E-08  7.134936E+03  7.085057E-10
         2   6  1.856927E+06  2.521092E+01  1.850932E+04 -1.041640E-07 -2.716290E+03  2.337079E-09
         2   7  1.856920E+06  4.908396E+03  2.838573E+04 -2.319427E+03  1.698620E+04 -6.327906E-02
         2   8  1.855813E+06  5.845229E+02  1.977710E+04 -1.019952E+03  7.134936E+03 -1.168835E-02
         2   9  1.856927E+06  2.521107E+01  1.850932E+04  2.795247E+02 -2.716290E+03 -1.219489E-03
         2  10  1.856919E+06  4.908319E+03  2.838519E+04  2.319427E+03 -1.009634E-08 -6.321854E-10
         2  11  1.855813E+06  5.845093E+02  1.977701E+04  1.019952E+03  1.848305E-08  5.125520E-10
         2  12  1.856927E+06  2.520909E+01  1.850931E+04 -2.795247E+02  4.446844E-08  1.893434E-09
         2  13  1.856919E+06  4.908309E+03  2.838519E+04 -2.070475E-09  6.654235E-10 -7.593515E-10
         2  14  1.855813E+06  5.845073E+02  1.977701E+04 -1.596987E-10  1.817795E-10  6.498145E-10
         2  15  1.856927E+06  2.520895E+01  1.850931E+04 -5.918589E-11  1.065580E-10  2.125239E-09
         2  16  1.856919E+06  4.908319E+03  2.838519E+04 -2.319427E+03  1.045006E-08 -9.214810E-10
         2  17  1.855813E+06  5.845093E+02  1.977701E+04 -1.019952E+03 -1.841364E-08  7.155747E-10
         2  18  1.856927E+06  2.520909E+01  1.850931E+04  2.795247E+02 -4.451927E-08  2.339794E-09
         2  19  1.856920E+06  4.908396E+03  2.838573E+04  2.319427E+03 -1.698620E+04 -6.327906E-02
         2  20  1.855813E+06  5.845229E+02  1.977710E+04  1.019952E+03 -7.134936E+03 -1.168835E-02
         2  21  1.856927E+06  2.521107E+01  1.850932E+04 -2.795247E+02  2.716290E+03 -1.219490E-03
         2  22  1.856920E+06  4.908386E+03  2.838573E+04 -2.627336E-08 -1.698620E+04 -8.633589E-10
         2  23  1.855813E+06  5.845209E+02  1.977710E+04  3.550539E-08 -7.134936E+03  5.739775E-10
         2  24  1.856927E+06  2.521092E+01  1.850932E+04  1.013007E-07  2.716290E+03  1.926111E-09
         2  25  1.856920E+06  4.908396E+03  2.838573E+04 -2.319427E+03 -1.698620E+04  6.327906E-02
         2  26  1.855813E+06  5.845229E+02  1.977710E+04 -1.019952E+03 -7.134936E+03  1.168835E-02
         2  27  1.856927E+06  2.521107E+01  1.850932E+04  2.795247E+02  2.716290E+03  1.219494E-03
         3   1  1.857192E+06 -7.373189E+01  2.003007E+04  1.206125E+03 -6.088058E+03 -1.179379E-02
         3   2  1.855476E+06  1.260755E+03  2.812806E+04 -1.285112E+03 -2.011970E+04  4.152851E-02
         3   3  1.857175E+06  8.971433E+03  4.693598E+04 -3.776295E+03 -3.415133E+04  2.071367E-01
         3   4  1.857192E+06 -7.373461E+01  2.003007E+04  1.030730E-07 -6.088058E+03  2.315018E-09
         3   5  1.855476E+06  1.260752E+03  2.812806E+04  3.495314E-08 -2.011970E+04  6.575794E-10
         3   6  1.857175E+06  8.971406E+03  4.693598E+04 -2.661960E-08 -3.415133E+04 -6.617103E-10
         3   7  1.857192E+06 -7.373189E+01  2.003007E+04 -1.206125E+03 -6.088058E+03  1.179379E-02
         3   8  1.855476E+06  1.260755E+03  2.812806E+04  1.285112E+03 -2.011970E+04 -4.152851E-02
         3   9  1.857175E+06  8.971433E+03  4.693598E+04  3.776295E+03 -3.415133E+04 -2.071367E-01
         3  10  1.857192E+06 -7.374180E+01  2.003000E+04  1.206125E+03 -4.483940E-08  1.937033E-09
         3  11  1.855476E+06  1.260647E+03  2.812730E+04 -1.285112E+03 -1.888302E-08  4.948943E-10
         3  12  1.857174E+06  8.971121E+03  4.693380E+04 -3.776295E+03  9.520229E-09 -7.288579E-10
         3  13  1.857192E+06 -7.374453E+01  2.003000E+04 -4.971558E-10 -6.312181E-10  2.110829E-09
         3  14  1.855476E+06  1.260644E+03  2.812730E+04  7.238609E-10 -2.525974E-10  6.703670E-10
         3  15  1.857174E+06  8.971094E+03  4.693379E+04 -1.349211E-10  4.041563E-10 -5.608856E-10
         3  16  1.857192E+06 -7.374180E+01  2.003000E+04 -1.206125E+03  4.467151E-08  2.308691E-09
         3  17  1.855476E+06  1.260647E+03  2.812730E+04  1.285112E+03  1.908680E-08  8.286646E-10
         3  18  1.857174E+06  8.971121E+03  4.693380E+04  3.776295E+03 -9.492162E-09 -3.173583E-10
         3  19  1.857192E+06 -7.373189E+01  2.003007E+04  1.206125E+03  6.088058E+03  1.179379E-02
         3  20  1.855476E+06  1.260755E+03  2.812806E+04 -1.285112E+03  2.011970E+04 -4.152851E-02
         3  21  1.857175E+06  8.971433E+03  4.693598E+04 -3.776295E+03  3.415133E+04 -2.071367E-01
         3  22  1.857192E+06 -7.373461E+01  2.003007E+04 -1.040799E-07  6.088058E+03  1.926130E-09
         3  23  1.855476E+06  1.260752E+03  2.812806E+04 -3.488212E-08  2.011970E+04  6.920849E-10
         3  24  1.857175E+06  8.971406E+03  4.693598E+04  2.559197E-08  3.415133E+04 -4.504252E-10
         3  25  1.857192E+06 -7.373189E+01  2.003007E+04 -1.206125E+03  6.088058E+03 -1.179379E-02
         3  26  1.855476E+06  1.260755E+03  2.812806E+04  1.285112E+03  2.011970E+04  4.152851E-02
         3  27  1.857175E+06  8.971433E+03  4.693598E+04  3.776295E+03  3.415133E+04  2.071367E-01
         4   1  1.864574E+06  5.986651E+03  6.056207E+04  1.155146E+04 -4.216823E+04 -7.823499E-01
         4   2  1.846167E+06  4.396490E+04  1.082352E+05 -5.659664E+04 -9.806517E+04  8.914542E+00
         4   3  1.864414E+06  1.995867E+05  2.216400E+05 -1.247495E+05 -1.539630E+05  3.084924E+01
         4   4  1.864574E+06  5.986401E+03  6.056203E+04 -2.084470E-09 -4.216823E+04 -9.542417E-10
         4   5  1.846163E+06  4.395889E+04  1.082344E+05 -1.036070E-09 -9.806517E+04 -6.651574E-10
         4   6  1.864397E+06  1.995576E+05  2.216358E+05 -1.726608E-09 -1.539630E+05 -1.350876E-10
         4   7  1.864574E+06  5.986651E+03  6.056207E+04 -1.155146E+04 -4.216823E+04  7.823499E-01
         4   8  1.846167E+06  4.396490E+04  1.082352E+05  5.659664E+04 -9.806517E+04 -8.914542E+00
         4   9  1.864414E+06  1.995867E+05  2.216400E+05  1.247495E+05 -1.539630E+05 -3.084924E+01
         4  10  1.864572E+06  5.986175E+03  6.055874E+04  1.155146E+04 -9.161471E-10 -1.039941E-09
         4  11  1.846156E+06  4.396232E+04  1.082172E+05 -5.659664E+04 -3.542798E-10 -5.592575E-10
         4  12  1.864388E+06  1.995804E+05  2.215956E+05 -1.247495E+05 -6.871929E-10 -1.744074E-10
         4  13  1.864572E+06  5.985925E+03  6.055870E+04 -5.938703E-11  2.671874E-10 -8.215983E-10
         4  14  1.846153E+06  4.395632E+04  1.082164E+05 -9.601899E-10  3.053421E-10 -5.598217E-10
         4  15  1.864372E+06  1.995512E+05  2.215914E+05  5.219413E-10 -5.806585E-10 -1.468115E-10
         4  16  1.864572E+06  5.986175E+03  6.055874E+04 -1.155146E+04  1.141296E-09 -7.006872E-10
         4  17  1.846156E+06  4.396232E+04  1.082172E+05  5.659664E+04  6.266411E-10 -5.458144E-10
         4  18  1.864388E+06  1.995804E+05  2.215956E+05  1.247495E+05  5.550641E-10 -1.461834E-10
         4  19  1.864574E+06  5.986651E+03  6.056207E+04  1.155146E+04  4.216823E+04  7.823499E-01
         4  20  1.846167E+06  4.396490E+04  1.082352E+05 -5.659664E+04  9.806517E+04 -8.914542E+00
         4  21  1.864414E+06  1.995867E+05  2.216400E+05 -1.247495E+05  1.539630E+05 -3.084924E+01
         4  22  1.864574E+06  5.986401E+03  6.056203E+04  5.805851E-10  4.216823E+04 -7.045830E-10
         4  23  1.846163E+06  4.395889E+04  1.082344E+05  7.365691E-10  9.806517E+04 -4.420693E-10
         4  24  1.864397E+06  1.995576E+05  2.216358E+05 -1.334659E-09  1.539630E+05 -1.606727E-10
         4  25  1.864574E+06  5.986651E+03  6.056207E+04 -1.155146E+04  4.216823E+04 -7.823499E-01
         4  26  1.846167E+06  4.396490E+04  1.082352E+05  5.659664E+04  9.806517E+04  8.914542E+00
         4  27  1.864414E+06  1.995867E+05  2.216400E+05  1.247495E+05  1.539630E+05  3.084924E+01
         5   1 -7.067223E+05 -1.778338E+06 -7.011631E+05  5.663252E+05 -2.643970E+04 -2.590160E+05
         5   2 -4.543820E+05 -1.289381E+06 -4.329984E+05  4.619700E+05 -8.071460E+04 -1.236829E+05
         5   3 -3.096081E+05 -8.445659E+05 -2.799604E+05  4.600986E+05 -7.984353E+04  1.176501E+04
         5   4 -1.557318E+05  4.472658E+05 -1.729683E+05  4.707120E+05 -2.627219E+04 -1.217781E+05
         5   5 -3.413287E+04  4.615999E+05 -8.314165E+04  4.193798E+05 -8.063561E+04 -7.873747E+04
         5   6 -3.874047E+03  4.477603E+05 -4.412506E+04  4.705590E+05 -7.990097E+04 -3.569559E+04
         5   7  3.949476E+05  2.677485E+06  3.549575E+05  3.747509E+05 -2.614751E+04  1.595093E+04
         5   8  3.859363E+05  2.215520E+06  2.665695E+05  3.766651E+05 -8.056296E+04 -3.366738E+04
         5   9  3.017672E+05  1.741715E+06  1.916515E+05  4.810406E+05 -7.995991E+04 -8.325236E+04
         5  10 -7.067411E+05 -1.778410E+06 -7.012908E+05  5.663197E+05 -4.872300E-10 -2.075162E-09
         5  11 -4.543931E+05 -1.289399E+06 -4.330394E+05  4.619619E+05 -9.401266E-10 -1.083294E-09
         5  12 -3.096150E+05 -8.445678E+05 -2.799727E+05  4.600994E+05  5.510563E-10 -4.642902E-10
         5  13 -1.557365E+05  4.472497E+05 -1.729974E+05  4.707094E+05 -3.546129E-10  1.674193E-11
         5  14 -3.414151E+04  4.615915E+05 -8.316549E+04  4.193747E+05 -1.092043E-10  3.013442E-12
         5  15 -3.881243E+03  4.477572E+05 -4.413944E+04  4.705567E+05 -3.147744E-10  6.208566E-11
         5  16  3.949468E+05  2.677485E+06  3.549557E+05  3.747512E+05 -3.479460E-10  2.079170E-09
         5  17  3.859290E+05  2.215517E+06  2.665552E+05  3.766629E+05 -1.388200E-09  1.123831E-09
         5  18  3.017585E+05  1.741706E+06  1.916265E+05  4.810352E+05  4.011561E-10  5.280738E-10
         5  19 -7.067223E+05 -1.778338E+06 -7.011631E+05  5.663252E+05  2.643970E+04  2.590160E+05
         5  20 -4.543820E+05 -1.289381E+06 -4.329984E+05  4.619700E+05  8.071460E+04  1.236829E+05
         5  21 -3.096081E+05 -8.445659E+05 -2.799604E+05  4.600986E+05  7.984353E+04 -1.176501E+04
         5  22 -1.557318E+05  4.472658E+05 -1.729683E+05  4.707120E+05  2.627219E+04  1.217781E+05
         5  23 -3.413287E+04  4.615999E+05 -8.314165E+04  4.193798E+05  8.063561E+04  7.873747E+04
         5  24 -3.874047E+03  4.477603E+05 -4.412506E+04  4.705590E+05  7.990097E+04  3.569559E+04
         5  25  3.949476E+05  2.677485E+06  3.549575E+05  3.747509E+05  2.614751E+04 -1.595093E+04
         5  26  3.859363E+05  2.215520E+06  2.665695E+05  3.766651E+05  8.056296E+04  3.366738E+04
         5  27  3.017672E+05  1.741715E+06  1.916515E+05  4.810406E+05  7.995991E+04  8.325236E+04
         6   1 -2.388727E+05 -5.318025E+05 -2.107063E+05  4.728083E+05 -6.219969E+04  1.130410E+04
         6   2 -1.214752E+05 -6.417455E+04 -1.040377E+05  4.188186E+05 -3.643666E+04  2.197972E+04
         6   3 -8.101307E+03  4.010851E+05 -5.400020E+03  4.706969E+05 -8.527773E+03  3.265051E+04
         6   4 -6.088430E+03  4.537244E+05 -3.235133E+04  4.713171E+05 -6.225909E+04 -3.015015E+04
         6   5  2.539262E+02  4.547740E+05 -1.421950E+04  4.183778E+05 -3.651015E+04 -2.307942E+04
         6   6  3.214358E+03  4.538788E+05 -1.601687E+03  4.713019E+05 -8.616637E+03 -1.602118E+04
         6   7  2.266423E+05  1.440200E+06  1.459719E+05  4.698229E+05 -6.231822E+04 -7.166840E+04
         6   8  1.219696E+05  9.739910E+05  7.559703E+04  4.179364E+05 -3.658353E+04 -6.817506E+04
         6   9  1.453122E+04  5.066806E+05  2.205655E+03  4.719069E+05 -8.705591E+03 -6.469672E+04
         6  10 -2.388769E+05 -5.318037E+05 -2.107138E+05  4.728088E+05  1.649270E-09 -5.590225E-08
         6  11 -1.214767E+05 -6.417542E+04 -1.040411E+05  4.188192E+05  2.967880E-09  2.831163E-10
         6  12 -8.101672E+03  4.010839E+05 -5.402160E+03  4.706971E+05  1.846852E-09  5.626781E-08
         6  13 -6.092835E+03  4.537223E+05 -3.236031E+04  4.713156E+05  2.039367E-09 -3.486547E-11
         6  14  2.523525E+02  4.547730E+05 -1.422300E+04  4.183771E+05  2.646004E-09 -2.030902E-11
         6  15  3.214209E+03  4.538785E+05 -1.602308E+03  4.713018E+05  1.840987E-09 -9.093019E-12
         6  16  2.266368E+05  1.440194E+06  1.459549E+05  4.698193E+05  1.688071E-09  5.593077E-08
         6  17  1.219669E+05  9.739856E+05  7.558580E+04  4.179344E+05  1.713421E-09 -2.806155E-10
         6  18  1.453002E+04  5.066761E+05  2.197655E+03  4.719065E+05  2.126758E-09 -5.627665E-08
         6  19 -2.388727E+05 -5.318025E+05 -2.107063E+05  4.728083E+05  6.219969E+04 -1.130410E+04
         6  20 -1.214752E+05 -6.417455E+04 -1.040377E+05  4.188186E+05  3.643666E+04 -2.197972E+04
         6  21 -8.101307E+03  4.010851E+05 -5.400020E+03  4.706969E+05  8.527773E+03 -3.265051E+04
         6  22 -6.088430E+03  4.537244E+05 -3.235133E+04  4.713171E+05  6.225909E+04  3.015015E+04
         6  23  2.539262E+02  4.547740E+05 -1.421950E+04  4.183778E+05  3.651015E+04  2.307942E+04
         6  24  3.214358E+03  4.538788E+05 -1.601687E+03  4.713019E+05  8.616637E+03  1.602118E+04
         6  25  2.266423E+05  1.440200E+06  1.459719E+05  4.698229E+05  6.231822E+04  7.166840E+04
         6  26  1.219696E+05  9.739910E+05  7.559703E+04  4.179364E+05  3.658353E+04  6.817506E+04
         6  27  1.453122E+04  5.066806E+05  2.205655E+03  4.719069E+05  8.705591E+03  6.469672E+04
         7   1  6.344323E+04  7.090394E+05  5.615517E+04  4.684344E+05  1.023687E+04  3.566143E+04
         7   2  1.829937E+05  1.167993E+06  1.684818E+05  4.303044E+05  2.550865E+04 -2.516962E+04
         7   3  3.348079E+05  1.642966E+06  3.283646E+05  4.963361E+05  1.008901E+04 -8.602501E+04
         7   4  2.419727E+03  4.558315E+05  4.021098E+03  4.709309E+05  1.014348E+04 -1.600487E+04
         7   5  9.779615E+03  4.522728E+05  1.766153E+04  4.188239E+05  2.551126E+04 -2.520143E+04
         7   6  4.048414E+04  4.556054E+05  4.305723E+04  4.708776E+05  1.017404E+04 -3.437668E+04
         7   7 -5.860636E+04  2.026901E+05 -4.810639E+04  4.734263E+05  1.004964E+04 -6.765048E+04
         7   8 -1.634670E+05 -2.629648E+05 -1.331875E+05  4.073566E+05  2.551387E+04 -2.523320E+04
         7   9 -2.539383E+05 -7.304602E+05 -2.423400E+05  4.454669E+05  1.025495E+04  1.717350E+04
         7  10  6.344277E+04  7.090380E+05  5.615259E+04  4.684341E+05 -3.796255E-11  1.760006E-10
         7  11  1.829928E+05  1.167993E+06  1.684794E+05  4.303049E+05 -1.051562E-09  9.221442E-10
         7  12  3.348058E+05  1.642958E+06  3.283505E+05  4.963368E+05 -2.910741E-10  2.171622E-09
         7  13  2.419547E+03  4.558312E+05  4.020423E+03  4.709310E+05  6.886595E-10 -4.820368E-11
         7  14  9.778745E+03  4.522719E+05  1.765911E+04  4.188245E+05 -9.833513E-10  1.719364E-11
         7  15  4.048371E+04  4.556041E+05  4.305482E+04  4.708778E+05 -1.499914E-10 -4.182822E-11
         7  16 -5.860769E+04  2.026852E+05 -4.811518E+04  4.734268E+05  7.412409E-10 -2.057982E-10
         7  17 -1.634679E+05 -2.629656E+05 -1.331899E+05  4.073571E+05 -7.957219E-10 -8.846612E-10
         7  18 -2.539385E+05 -7.304605E+05 -2.423407E+05  4.454667E+05 -3.671354E-10 -2.166190E-09
         7  19  6.344323E+04  7.090394E+05  5.615517E+04  4.684344E+05 -1.023687E+04 -3.566143E+04
         7  20  1.829937E+05  1.167993E+06  1.684818E+05  4.303044E+05 -2.550865E+04  2.516962E+04
         7  21  3.348079E+05  1.642966E+06  3.283646E+05  4.963361E+05 -1.008901E+04  8.602501E+04
         7  22  2.419727E+03  4.558315E+05  4.021098E+03  4.709309E+05 -1.014348E+04  1.600487E+04
         7  23  9.779615E+03  4.522728E+05  1.766153E+04  4.188239E+05 -2.551126E+04  2.520143E+04
         7  24  4.048414E+04  4.556054E+05  4.305723E+04  4.708776E+05 -1.017404E+04  3.437668E+04
         7  25 -5.860636E+04  2.026901E+05 -4.810639E+04  4.734263E+05 -1.004964E+04  6.765048E+04
         7  26 -1.634670E+05 -2.629648E+05 -1.331875E+05  4.073566E+05 -2.551387E+04  2.523320E+04
         7  27 -2.539383E+05 -7.304602E+05 -2.423400E+05  4.454669E+05 -1.025495E+04 -1.717350E+04
         8   1  5.057089E+05  1.229191E+05 -1.252467E+05  4.163917E+05 -1.960726E+04 -2.380300E+03
         8   2  5.685874E+05  1.470477E+05 -1.026371E+05  4.630591E+05 -1.891990E+04  2.585112E+04
         8   3  6.610947E+05  1.668451E+05 -8.588678E+04  4.950142E+05 -7.352779E+03  3.958069E+04
         8   4  1.080412E+06  4.837220E+05  5.131567E+04  6.795275E+05  2.244662E+04  2.914753E+04
         8   5  1.054927E+06  4.689202E+05  2.519780E+04  6.976512E+05 -1.258989E+03  3.908495E+04
         8   6  1.064340E+06  4.550604E+05  1.436081E+04  7.010617E+05 -1.409220E+04  3.452726E+04
         8   7  1.655461E+06  8.446507E+05  2.278468E+05  9.429176E+05  6.455311E+04  6.070870E+04
         8   8  1.541528E+06  7.909073E+05  1.530125E+05  9.324451E+05  1.642044E+04  5.233150E+04
         8   9  1.467772E+06  7.433765E+05  1.145966E+05  9.072642E+05 -2.083747E+04  2.946935E+04
         8  10  5.057085E+05  1.229190E+05 -1.252474E+05  4.163916E+05  1.240479E-09  3.561852E-10
         8  11  5.685869E+05  1.470469E+05 -1.026390E+05  4.630595E+05 -3.750054E-10 -5.877792E-10
         8  12  6.610942E+05  1.668434E+05 -8.588983E+04  4.950144E+05 -9.411471E-10 -8.804579E-10
         8  13  1.080411E+06  4.837209E+05  5.131313E+04  6.795270E+05 -5.131037E-10 -1.893567E-10
         8  14  1.054927E+06  4.689186E+05  2.519493E+04  6.976512E+05  3.232541E-10 -5.085354E-10
         8  15  1.064340E+06  4.550591E+05  1.435819E+04  7.010620E+05 -6.711807E-10 -2.832399E-10
         8  16  1.655455E+06  8.446456E+05  2.278320E+05  9.429145E+05 -1.257021E-09 -7.631605E-10
         8  17  1.541527E+06  7.909043E+05  1.530069E+05  9.324444E+05 -6.539854E-10 -4.203004E-10
         8  18  1.467771E+06  7.433755E+05  1.145941E+05  9.072647E+05  9.035828E-10  3.533931E-10
         8  19  5.057089E+05  1.229191E+05 -1.252467E+05  4.163917E+05  1.960726E+04  2.380300E+03
         8  20  5.685874E+05  1.470477E+05 -1.026371E+05  4.630591E+05  1.891990E+04 -2.585112E+04
         8  21  6.610947E+05  1.668451E+05 -8.588678E+04  4.950142E+05  7.352779E+03 -3.958069E+04
         8  22  1.080412E+06  4.837220E+05  5.131567E+04  6.795275E+05 -2.244662E+04 -2.914753E+04
         8  23  1.054927E+06  4.689202E+05  2.519780E+04  6.976512E+05  1.258989E+03 -3.908495E+04
         8  24  1.064340E+06  4.550604E+05  1.436081E+04  7.010617E+05  1.409220E+04 -3.452726E+04
         8  25  1.655461E+06  8.446507E+05  2.278468E+05  9.429176E+05 -6.455311E+04 -6.070870E+04
         8  26  1.541528E+06  7.909073E+05  1.530125E+05  9.324451E+05 -1.642044E+04 -5.233150E+04
         8  27  1.467772E+06  7.433765E+05  1.145966E+05  9.072642E+05  2.083747E+04 -2.946935E+04
         9   1  7.026717E+05  2.020642E+05 -7.678956E+04  5.177521E+05 -8.602270E+03  3.457378E+04
         9   2  7.609765E+05  2.593580E+05 -6.203637E+04  5.560027E+05 -6.631679E+03  3.032911E+04
         9   3  8.405380E+05  2.967892E+05 -4.640033E+04  5.879329E+05 -3.703060E+03  2.480300E+04
         9   4  1.063735E+06  4.546689E+05  1.133320E+04  6.998365E+05 -1.368399E+04  3.076347E+04
         9   5  1.052505E+06  4.636925E+05  7.354739E+03  7.035171E+05 -1.387033E+04  2.490431E+04
         9   6  1.062991E+06  4.533178E+05  6.125412E+03  7.008726E+05 -1.309886E+04  1.776425E+04
         9   7  1.424954E+06  7.073553E+05  9.944911E+04  8.820458E+05 -1.876975E+04  2.695015E+04
         9   8  1.344133E+06  6.680782E+05  7.674060E+04  8.511114E+05 -2.111352E+04  1.947611E+04
         9   9  1.285497E+06  6.098738E+05  5.864716E+04  8.138571E+05 -2.249899E+04  1.072226E+04
         9  10  7.026713E+05  2.020629E+05 -7.679195E+04  5.177523E+05  2.832076E-10  1.144614E-10
         9  11  7.609762E+05  2.593570E+05 -6.203819E+04  5.560029E+05 -2.860267E-10 -1.844653E-10
         9  12  8.405378E+05  2.967886E+05 -4.640152E+04  5.879330E+05 -9.111170E-10 -2.954238E-10
         9  13  1.063734E+06  4.546678E+05  1.133106E+04  6.998368E+05 -4.038086E-10 -1.750246E-10
         9  14  1.052505E+06  4.636918E+05  7.353211E+03  7.035174E+05 -1.337785E-10 -2.361399E-10
         9  15  1.062990E+06  4.533174E+05  6.124496E+03  7.008727E+05 -2.607517E-10 -7.889718E-11
         9  16  1.424953E+06  7.073544E+05  9.944708E+04  8.820462E+05 -2.970686E-10 -4.238240E-10
         9  17  1.344132E+06  6.680777E+05  7.673905E+04  8.511118E+05  4.666280E-10 -3.244390E-10
         9  18  1.285496E+06  6.098736E+05  5.864600E+04  8.138573E+05  2.802093E-10  1.538665E-10
         9  19  7.026717E+05  2.020642E+05 -7.678956E+04  5.177521E+05  8.602270E+03 -3.457378E+04
         9  20  7.609765E+05  2.593580E+05 -6.203637E+04  5.560027E+05  6.631679E+03 -3.032911E+04
         9  21  8.405380E+05  2.967892E+05 -4.640033E+04  5.879329E+05  3.703060E+03 -2.480300E+04
         9  22  1.063735E+06  4.546689E+05  1.133320E+04  6.998365E+05  1.368399E+04 -3.076347E+04
         9  23  1.052505E+06  4.636925E+05  7.354739E+03  7.035171E+05  1.387033E+04 -2.490431E+04
         9  24  1.062991E+06  4.533178E+05  6.125412E+03  7.008726E+05  1.309886E+04 -1.776425E+04
         9  25  1.424954E+06  7.073553E+05  9.944911E+04  8.820458E+05  1.876975E+04 -2.695015E+04
         9  26  1.344133E+06  6.680782E+05  7.674060E+04  8.511114E+05  2.111352E+04 -1.947611E+04
         9  27  1.285497E+06  6.098738E+05  5.864716E+04  8.138571E+05  2.249899E+04 -1.072226E+04
        10   1  8.850459E+05  3.286181E+05 -3.531931E+04  6.106682E+05 -2.275034E+03  2.075593E+04
        10   2  9.428815E+05  3.871324E+05 -1.750139E+04  6.484514E+05 -1.233662E+03  1.292011E+04
        10   3  1.021945E+06  4.254385E+05  2.930031E+03  6.802782E+05 -1.618395E+02  5.041493E+03
        10   4  1.062981E+06  4.533084E+05  6.252182E+03  7.008309E+05 -1.152665E+04  1.382605E+04
        10   5  1.052401E+06  4.634726E+05  7.986020E+03  7.037645E+05 -1.055776E+04  5.936687E+03
        10   6  1.063058E+06  4.534410E+05  1.239521E+04  7.007372E+05 -9.557996E+03 -1.995159E+03
        10   7  1.240952E+06  5.780182E+05  4.782227E+04  7.910237E+05 -2.078181E+04  6.893520E+03
        10   8  1.161935E+06  5.398209E+05  3.347357E+04  7.590895E+05 -1.988414E+04 -1.048424E+03
        10   9  1.104174E+06  4.814451E+05  2.186105E+04  7.211981E+05 -1.895515E+04 -9.032536E+03
        10  10  8.850458E+05  3.286176E+05 -3.532013E+04  6.106682E+05  3.919366E-11  6.424543E-11
        10  11  9.428814E+05  3.871322E+05 -1.750170E+04  6.484514E+05 -5.269488E-10  3.805441E-11
        10  12  1.021945E+06  4.254385E+05  2.929983E+03  6.802782E+05 -1.230052E-09  6.157035E-11
        10  13  1.062980E+06  4.533082E+05  6.251573E+03  7.008311E+05  2.185321E-10  8.235083E-12
        10  14  1.052400E+06  4.634725E+05  7.985745E+03  7.037645E+05 -6.719339E-10  2.244946E-10
        10  15  1.063058E+06  4.534410E+05  1.239503E+04  7.007371E+05 -6.983068E-10  3.617123E-10
        10  16  1.240952E+06  5.780180E+05  4.782137E+04  7.910238E+05 -3.140524E-10  9.067792E-12
        10  17  1.161934E+06  5.398208E+05  3.347282E+04  7.590894E+05  4.655774E-10  3.322319E-10
        10  18  1.104174E+06  4.814449E+05  2.186023E+04  7.211980E+05  7.499833E-11  6.802787E-10
        10  19  8.850459E+05  3.286181E+05 -3.531931E+04  6.106682E+05  2.275034E+03 -2.075593E+04
        10  20  9.428815E+05  3.871324E+05 -1.750139E+04  6.484514E+05  1.233662E+03 -1.292011E+04
        10  21  1.021945E+06  4.254385E+05  2.930031E+03  6.802782E+05  1.618395E+02 -5.041493E+03
        10  22  1.062981E+06  4.533084E+05  6.252182E+03  7.008309E+05  1.152665E+04 -1.382605E+04
        10  23  1.052401E+06  4.634726E+05  7.986020E+03  7.037645E+05  1.055776E+04 -5.936687E+03
        10  24  1.063058E+06  4.534410E+05  1.239521E+04  7.007372E+05  9.557996E+03  1.995159E+03
        10  25  1.240952E+06  5.780182E+05  4.782227E+04  7.910237E+05  2.078181E+04 -6.893520E+03
        10  26  1.161935E+06  5.398209E+05  3.347357E+04  7.590895E+05  1.988414E+04  1.048424E+03
        10  27  1.104174E+06  4.814451E+05  2.186105E+04  7.211981E+05  1.895515E+04  9.032536E+03
        11   1  1.066007E+06  4.580141E+05  1.731962E+04  7.036513E+05  4.001719E+02  3.161482E+02
        11   2  1.126295E+06  5.142561E+05  4.501621E+04  7.390211E+05 -7.838666E+03 -1.403011E+04
        11   3  1.212111E+06  5.556782E+05  8.433139E+04  7.667865E+05 -1.666278E+04 -2.759812E+04
        11   4  1.063363E+06  4.535293E+05  1.588209E+04  7.011533E+05 -9.072405E+03 -6.777650E+03
        11   5  1.052512E+06  4.642472E+05  2.715239E+04  7.025772E+05 -1.599797E+04 -2.014087E+04
        11   6  1.066904E+06  4.598610E+05  4.890708E+04  6.963937E+05 -2.350713E+04 -3.272467E+04
        11   7  1.060719E+06  4.490448E+05  1.444510E+04  6.986554E+05 -1.854476E+04 -1.387121E+04
        11   8  9.787371E+05  4.142418E+05  9.288831E+03  6.661386E+05 -2.415590E+04 -2.625065E+04
        11   9  9.217200E+05  3.640547E+05  1.348157E+04  6.260194E+05 -3.034932E+04 -3.784974E+04
        11  10  1.066007E+06  4.580141E+05  1.731962E+04  7.036513E+05  3.720287E-09  3.165628E-09
        11  11  1.126295E+06  5.142559E+05  4.501572E+04  7.390210E+05 -5.259819E-09 -5.605473E-09
        11  12  1.212111E+06  5.556774E+05  8.432944E+04  7.667861E+05 -1.977574E-08 -1.603752E-08
        11  13  1.063363E+06  4.535293E+05  1.588185E+04  7.011532E+05  9.254234E-10  8.102313E-10
        11  14  1.052512E+06  4.642467E+05  2.715115E+04  7.025769E+05 -5.525699E-10 -2.585042E-10
        11  15  1.066903E+06  4.598597E+05  4.890403E+04  6.963931E+05 -5.635890E-09 -4.532981E-09
        11  16  1.060719E+06  4.490445E+05  1.444410E+04  6.986552E+05 -2.981938E-09 -1.587473E-09
        11  17  9.787363E+05  4.142409E+05  9.286444E+03  6.661381E+05  5.157720E-09  5.251814E-09
        11  18  9.217186E+05  3.640529E+05  1.347715E+04  6.260185E+05  9.351658E-09  6.902963E-09
        11  19  1.066007E+06  4.580141E+05  1.731962E+04  7.036513E+05 -4.001719E+02 -3.161482E+02
        11  20  1.126295E+06  5.142561E+05  4.501621E+04  7.390211E+05  7.838666E+03  1.403011E+04
        11  21  1.212111E+06  5.556782E+05  8.433139E+04  7.667865E+05  1.666278E+04  2.759812E+04
        11  22  1.063363E+06  4.535293E+05  1.588209E+04  7.011533E+05  9.072405E+03  6.777650E+03
        11  23  1.052512E+06  4.642472E+05  2.715239E+04  7.025772E+05  1.599797E+04  2.014087E+04
        11  24  1.066904E+06  4.598610E+05  4.890708E+04  6.963937E+05  2.350713E+04  3.272467E+04
        11  25  1.060719E+06  4.490448E+05  1.444510E+04  6.986554E+05  1.854476E+04  1.387121E+04
        11  26  9.787371E+05  4.142418E+05  9.288831E+03  6.661386E+05  2.415590E+04  2.625065E+04
        11  27  9.217200E+05  3.640547E+05  1.348157E+04  6.260194E+05  3.034932E+04  3.784974E+04
        12   1  1.245294E+06  6.043155E+05  1.111325E+05  7.997002E+05 -2.019850E+04 -3.475143E+04
        12   2  1.376091E+06  6.111650E+05  1.862910E+05  7.863555E+05 -8.304564E+04 -8.218648E+04
        12   3  1.601168E+06  6.968628E+05  3.451969E+05  7.251564E+05 -1.525551E+05 -1.207579E+05
        12   4  1.070743E+06  4.608109E+05  6.411221E+04  7.018552E+05 -2.805068E+04 -4.063221E+04
        12   5  1.062739E+06  4.899161E+05  1.163114E+05  6.755771E+05 -7.594955E+04 -7.688600E+04
        12   6  1.145783E+06  5.946688E+05  2.393435E+05  6.014439E+05 -1.304889E+05 -1.042796E+05
        12   7  8.962241E+05  3.173300E+05  1.708853E+04  6.040424E+05 -3.590008E+04 -4.651040E+04
        12   8  7.495040E+05  3.686828E+05  4.632804E+04  5.648458E+05 -6.885840E+04 -7.158705E+04
        12   9  6.906614E+05  4.924982E+05  1.334906E+05  4.777876E+05 -1.084459E+05 -8.780377E+04
        12  10  1.245294E+06  6.043141E+05  1.111295E+05  7.996996E+05  9.566095E-09  6.656615E-09
        12  11  1.376082E+06  6.111559E+05  1.862654E+05  7.863500E+05  6.037541E-09  5.302193E-09
        12  12  1.601139E+06  6.968410E+05  3.451260E+05  7.251416E+05 -2.051717E-09 -1.394487E-09
        12  13  1.070742E+06  4.608089E+05  6.410764E+04  7.018542E+05 -4.279892E-09 -4.507071E-09
        12  14  1.062732E+06  4.899082E+05  1.162896E+05  6.755724E+05  1.060310E-09 -2.060249E-10
        12  15  1.145761E+06  5.946525E+05  2.392912E+05  6.014330E+05  4.957007E-10  4.358471E-10
        12  16  8.962222E+05  3.173274E+05  1.708205E+04  6.040411E+05 -1.984685E-08 -1.570846E-08
        12  17  7.494975E+05  3.686760E+05  4.630953E+04  5.648418E+05 -5.761449E-09 -5.688130E-09
        12  18  6.906468E+05  4.924868E+05  1.334541E+05  4.777800E+05  3.985194E-09  2.399376E-09
        12  19  1.245294E+06  6.043155E+05  1.111325E+05  7.997002E+05  2.019850E+04  3.475143E+04
        12  20  1.376091E+06  6.111650E+05  1.862910E+05  7.863555E+05  8.304564E+04  8.218648E+04
        12  21  1.601168E+06  6.968628E+05  3.451969E+05  7.251564E+05  1.525551E+05  1.207579E+05
        12  22  1.070743E+06  4.608109E+05  6.411221E+04  7.018552E+05  2.805068E+04  4.063221E+04
        12  23  1.062739E+06  4.899161E+05  1.163114E+05  6.755771E+05  7.594955E+04  7.688600E+04
        12  24  1.145783E+06  5.946688E+05  2.393435E+05  6.014439E+05  1.304889E+05  1.042796E+05
        12  25  8.962241E+05  3.173300E+05  1.708853E+04  6.040424E+05  3.590008E+04  4.651040E+04
        12  26  7.495040E+05  3.686828E+05  4.632804E+04  5.648458E+05  6.885840E+04  7.158705E+04
        12  27  6.906614E+05  4.924982E+05  1.334906E+05  4.777876E+05  1.084459E+05  8.780377E+04
        13   1  1.152165E+06  6.514148E+04  7.243656E+04  4.075590E+04  4.966404E+04  3.254542E+00
        13   2  1.146180E+06  1.431870E+04  3.584308E+04  1.854527E+04  3.116552E+04  9.293222E-01
        13   3  1.152199E+06  1.911954E+03  2.088147E+04 -3.664947E+03  1.266700E+04 -7.464407E-02
        13   4  1.152164E+06  6.513837E+04  7.243612E+04 -4.290262E-10  4.966404E+04  1.516517E-10
        13   5  1.146179E+06  1.431805E+04  3.584299E+04 -2.013680E-09  3.116552E+04  4.029022E-10
        13   6  1.152199E+06  1.911928E+03  2.088147E+04 -3.884558E-09  1.266700E+04  5.439958E-11
        13   7  1.152165E+06  6.514148E+04  7.243656E+04 -4.075590E+04  4.966404E+04 -3.254542E+00
        13   8  1.146180E+06  1.431870E+04  3.584308E+04 -1.854527E+04  3.116552E+04 -9.293222E-01
        13   9  1.152199E+06  1.911954E+03  2.088147E+04  3.664947E+03  1.266700E+04  7.464407E-02
        13  10  1.152163E+06  6.514082E+04  7.243194E+04  4.075590E+04 -7.512144E-10  1.747743E-10
        13  11  1.146179E+06  1.431844E+04  3.584126E+04  1.854527E+04 -4.184035E-10  4.315956E-10
        13  12  1.152199E+06  1.911911E+03  2.088117E+04 -3.664947E+03 -1.002151E-09 -3.914539E-11
        13  13  1.152161E+06  6.513770E+04  7.243149E+04 -2.016480E-10 -1.194714E-10  1.280648E-10
        13  14  1.146178E+06  1.431779E+04  3.584117E+04 -6.142825E-10  3.695909E-10  2.439712E-10
        13  15  1.152199E+06  1.911885E+03  2.088117E+04 -4.713603E-10  1.142543E-10 -1.307481E-10
        13  16  1.152163E+06  6.514082E+04  7.243194E+04 -4.075590E+04  8.316158E-10  7.014701E-11
        13  17  1.146179E+06  1.431844E+04  3.584126E+04 -1.854527E+04  1.217913E-09  1.119957E-10
        13  18  1.152199E+06  1.911911E+03  2.088117E+04  3.664947E+03  8.548008E-10 -2.124632E-10
        13  19  1.152165E+06  6.514148E+04  7.243656E+04  4.075590E+04 -4.966404E+04 -3.254542E+00
        13  20  1.146180E+06  1.431870E+04  3.584308E+04  1.854527E+04 -3.116552E+04 -9.293222E-01
        13  21  1.152199E+06  1.911954E+03  2.088147E+04 -3.664947E+03 -1.266700E+04  7.464407E-02
        13  22  1.152164E+06  6.513837E+04  7.243612E+04  5.750086E-10 -4.966404E+04  9.948268E-11
        13  23  1.146179E+06  1.431805E+04  3.584299E+04  1.330174E-09 -3.116552E+04  8.739888E-11
        13  24  1.152199E+06  1.911928E+03  2.088147E+04  3.131233E-09 -1.266700E+04 -3.266732E-10
        13  25  1.152165E+06  6.514148E+04  7.243656E+04 -4.075590E+04 -4.966404E+04  3.254542E+00
        13  26  1.146180E+06  1.431870E+04  3.584308E+04 -1.854527E+04 -3.116552E+04  9.293222E-01
        13  27  1.152199E+06  1.911954E+03  2.088147E+04  3.664947E+03 -1.266700E+04 -7.464407E-02
        14   1  1.149824E+06  2.876041E+03  1.684850E+04  1.378161E+03  9.813493E+03  2.174598E-02
        14   2  1.149161E+06  3.337025E+02  1.193664E+04  6.223408E+02  3.870045E+03  3.872575E-03
        14   3  1.149827E+06  1.981254E+01  1.144607E+04 -1.334688E+02 -2.073300E+03  4.449345E-04
        14   4  1.149824E+06  2.876037E+03  1.684850E+04  6.125849E-08  9.813493E+03 -6.480947E-10
        14   5  1.149161E+06  3.337017E+02  1.193664E+04  8.882879E-10  3.870045E+03 -1.490396E-09
        14   6  1.149827E+06  1.981251E+01  1.144607E+04 -6.065835E-08 -2.073300E+03 -9.130614E-10
        14   7  1.149824E+06  2.876041E+03  1.684850E+04 -1.378161E+03  9.813493E+03 -2.174598E-02
        14   8  1.149161E+06  3.337025E+02  1.193664E+04 -6.223408E+02  3.870045E+03 -3.872578E-03
        14   9  1.149827E+06  1.981254E+01  1.144607E+04  1.334688E+02 -2.073300E+03 -4.449364E-04
        14  10  1.149824E+06  2.876015E+03  1.684832E+04  1.378161E+03 -2.713513E-08 -8.044040E-10
        14  11  1.149161E+06  3.336985E+02  1.193662E+04  6.223408E+02  4.115328E-10 -1.417353E-09
        14  12  1.149826E+06  1.981139E+01  1.144606E+04 -1.334688E+02  2.802166E-08 -8.746578E-10
        14  13  1.149824E+06  2.876011E+03  1.684832E+04  2.950047E-10  6.086357E-10 -7.708009E-10
        14  14  1.149161E+06  3.336977E+02  1.193662E+04  4.716099E-10  2.382637E-10 -1.449373E-09
        14  15  1.149826E+06  1.981135E+01  1.144606E+04  8.670519E-10  1.787127E-10 -8.411425E-10
        14  16  1.149824E+06  2.876015E+03  1.684832E+04 -1.378161E+03  2.756150E-08 -7.652130E-10
        14  17  1.149161E+06  3.336985E+02  1.193662E+04 -6.223408E+02 -3.079543E-10 -1.450476E-09
        14  18  1.149826E+06  1.981139E+01  1.144606E+04  1.334688E+02 -2.804495E-08 -8.409116E-10
        14  19  1.149824E+06  2.876041E+03  1.684850E+04  1.378161E+03 -9.813493E+03 -2.174598E-02
        14  20  1.149161E+06  3.337025E+02  1.193664E+04  6.223408E+02 -3.870045E+03 -3.872578E-03
        14  21  1.149827E+06  1.981254E+01  1.144607E+04 -1.334688E+02  2.073300E+03 -4.449364E-04
        14  22  1.149824E+06  2.876037E+03  1.684850E+04 -6.036963E-08 -9.813493E+03 -8.923656E-10
        14  23  1.149161E+06  3.337017E+02  1.193664E+04 -2.354892E-10 -3.870045E+03 -1.401518E-09
        14  24  1.149827E+06  1.981251E+01  1.144607E+04  6.004391E-08  2.073300E+03 -7.700424E-10
        14  25  1.149824E+06  2.876041E+03  1.684850E+04 -1.378161E+03 -9.813493E+03  2.174598E-02
        14  26  1.149161E+06  3.337025E+02  1.193664E+04 -6.223408E+02 -3.870045E+03  3.872575E-03
        14  27  1.149827E+06  1.981254E+01  1.144607E+04  1.334688E+02  2.073300E+03  4.449348E-04
        15   1  1.150015E+06 -5.052329E+01  1.252520E+04  7.907211E+02 -4.169371E+03 -5.300892E-03
        15   2  1.148923E+06  8.132542E+02  1.786312E+04 -8.103275E+02 -1.307876E+04  1.704053E-02
        15   3  1.150008E+06  5.759505E+03  3.001442E+04 -2.411393E+03 -2.198836E+04  8.525435E-02
        15   4  1.150015E+06 -5.052446E+01  1.252520E+04  3.507462E-09 -4.169371E+03 -1.818000E-10
        15   5  1.148923E+06  8.132530E+02  1.786312E+04  1.514760E-09 -1.307876E+04  5.179926E-10
        15   6  1.150008E+06  5.759494E+03  3.001442E+04  3.175636E-10 -2.198836E+04  5.340586E-10
        15   7  1.150015E+06 -5.052329E+01  1.252520E+04 -7.907211E+02 -4.169371E+03  5.300892E-03
        15   8  1.148923E+06  8.132542E+02  1.786312E+04  8.103275E+02 -1.307876E+04 -1.704053E-02
        15   9  1.150008E+06  5.759505E+03  3.001442E+04  2.411393E+03 -2.198836E+04 -8.525435E-02
        15  10  1.150015E+06 -5.052795E+01  1.252517E+04  7.907211E+02  3.424891E-10 -9.979346E-11
        15  11  1.148922E+06  8.132084E+02  1.786280E+04 -8.103275E+02  7.386040E-10  6.592571E-10
        15  12  1.150008E+06  5.759375E+03  3.001351E+04 -2.411393E+03  7.998934E-10  4.335246E-10
        15  13  1.150015E+06 -5.052912E+01  1.252517E+04  8.666776E-10  2.164603E-10 -1.101593E-10
        15  14  1.148922E+06  8.132072E+02  1.786280E+04  1.091072E-10  5.904645E-10  5.541903E-10
        15  15  1.150008E+06  5.759364E+03  3.001351E+04  9.229614E-11  1.205197E-10  5.322880E-10
        15  16  1.150015E+06 -5.052795E+01  1.252517E+04 -7.907211E+02 -8.097081E-10 -1.572308E-10
        15  17  1.148922E+06  8.132084E+02  1.786280E+04  8.103275E+02 -8.636955E-10  4.878070E-10
        15  18  1.150008E+06  5.759375E+03  3.001351E+04  2.411393E+03 -1.055549E-09  6.013498E-10
        15  19  1.150015E+06 -5.052329E+01  1.252520E+04  7.907211E+02  4.169371E+03  5.300892E-03
        15  20  1.148923E+06  8.132542E+02  1.786312E+04 -8.103275E+02  1.307876E+04 -1.704053E-02
        15  21  1.150008E+06  5.759505E+03  3.001442E+04 -2.411393E+03  2.198836E+04 -8.525435E-02
        15  22  1.150015E+06 -5.052446E+01  1.252520E+04 -4.474090E-09  4.169371E+03 -6.729222E-11
        15  23  1.148923E+06  8.132530E+02  1.786312E+04 -2.390853E-09  1.307876E+04  5.683297E-10
        15  24  1.150008E+06  5.759494E+03  3.001442E+04 -1.932244E-09  2.198836E+04  5.290070E-10
        15  25  1.150015E+06 -5.052329E+01  1.252520E+04 -7.907211E+02  4.169371E+03 -5.300892E-03
        15  26  1.148923E+06  8.132542E+02  1.786312E+04  8.103275E+02  1.307876E+04  1.704053E-02
        15  27  1.150008E+06  5.759505E+03  3.001442E+04  2.411393E+03  2.198836E+04  8.525435E-02
        16   1  1.154759E+06  3.836997E+03  3.878560E+04  7.426409E+03 -2.711211E+04 -3.237390E-01
        16   2  1.142959E+06  2.820524E+04  6.942170E+04 -3.629557E+04 -6.296057E+04  3.674385E+00
        16   3  1.154696E+06  1.281055E+05  1.422520E+05 -8.001909E+04 -9.880908E+04  1.271306E+01
        16   4  1.154759E+06  3.836893E+03  3.878559E+04  6.067403E-11 -2.711211E+04  3.671780E-10
        16   5  1.142958E+06  2.820277E+04  6.942135E+04  1.359391E-09 -6.296057E+04  2.042859E-10
        16   6  1.154689E+06  1.280935E+05  1.422503E+05  2.527547E-10 -9.880908E+04  6.999177E-11
        16   7  1.154759E+06  3.836997E+03  3.878560E+04 -7.426409E+03 -2.711211E+04  3.237390E-01
        16   8  1.142959E+06  2.820524E+04  6.942170E+04  3.629557E+04 -6.296057E+04 -3.674385E+00
        16   9  1.154696E+06  1.281055E+05  1.422520E+05  8.001909E+04 -9.880908E+04 -1.271306E+01
        16  10  1.154759E+06  3.836800E+03  3.878423E+04  7.426409E+03  7.633727E-10  2.320100E-10
        16  11  1.142955E+06  2.820417E+04  6.941427E+04 -3.629557E+04  2.113963E-10  1.120276E-10
        16  12  1.154686E+06  1.281029E+05  1.422337E+05 -8.001909E+04  3.523729E-10  2.922611E-11
        16  13  1.154759E+06  3.836696E+03  3.878421E+04  1.847754E-10 -1.684360E-11  3.532773E-10
        16  14  1.142953E+06  2.820170E+04  6.941391E+04  3.113524E-10  2.186386E-10  1.778135E-10
        16  15  1.154679E+06  1.280909E+05  1.422320E+05  1.431260E-09  2.820848E-10  4.282096E-11
        16  16  1.154759E+06  3.836800E+03  3.878423E+04 -7.426409E+03 -1.399840E-10  4.957718E-10
        16  17  1.142955E+06  2.820417E+04  6.941427E+04  3.629557E+04 -3.285480E-10  2.951120E-10
        16  18  1.154686E+06  1.281029E+05  1.422337E+05  8.001909E+04 -3.252620E-10  6.574471E-11
        16  19  1.154759E+06  3.836997E+03  3.878560E+04  7.426409E+03  2.711211E+04  3.237390E-01
        16  20  1.142959E+06  2.820524E+04  6.942170E+04 -3.629557E+04  6.296057E+04 -3.674385E+00
        16  21  1.154696E+06  1.281055E+05  1.422520E+05 -8.001909E+04  9.880908E+04 -1.271306E+01
        16  22  1.154759E+06  3.836893E+03  3.878559E+04 -1.002159E-09  2.711211E+04  3.482517E-10
        16  23  1.142958E+06  2.820277E+04  6.942135E+04 -5.485168E-11  6.296057E+04  1.710727E-10
        16  24  1.154689E+06  1.280935E+05  1.422503E+05 -1.766308E-10  9.880908E+04  1.137592E-11
        16  25  1.154759E+06  3.836997E+03  3.878560E+04 -7.426409E+03  2.711211E+04 -3.237390E-01
        16  26  1.142959E+06  2.820524E+04  6.942170E+04  3.629557E+04  6.296057E+04  3.674385E+00
        16  27  1.154696E+06  1.281055E+05  1.422520E+05  8.001909E+04  9.880908E+04  1.271306E+01
        17   1 -4.026152E+05 -1.132748E+06 -4.240486E+05  2.564527E+05 -7.862247E+03 -2.304082E+05
        17   2 -1.782790E+05 -1.007676E+06 -2.402980E+05  1.603752E+05 -2.474463E+04 -1.336610E+05
        17   3 -1.061723E+05 -9.332616E+05 -1.576490E+05  8.592459E+04 -2.655012E+04 -3.689289E+04
        17   4 -2.501207E+05 -5.162124E+05 -2.782690E+05  1.002408E+05 -7.795635E+03 -1.894280E+05
        17   5 -5.496170E+04 -4.930458E+05 -1.385383E+05  8.938539E+04 -2.472325E+04 -1.179528E+05
        17   6 -7.592100E+03 -5.161201E+05 -8.229288E+04  1.001765E+05 -2.655308E+04 -4.647636E+04
        17   7 -9.756067E+04  1.007293E+05 -1.324964E+05 -5.612734E+04 -7.749729E+03 -1.484072E+05
        17   8  6.835865E+04  2.184965E+04 -3.678800E+04  1.833536E+04 -2.470547E+04 -1.022318E+05
        17   9  9.097912E+04 -9.880845E+04 -6.943130E+03  1.144382E+05 -2.655647E+04 -5.606608E+04
        17  10 -4.026295E+05 -1.132805E+06 -4.241486E+05  2.564512E+05  2.283594E-10  3.779412E-10
        17  11 -1.782845E+05 -1.007695E+06 -2.403328E+05  1.603726E+05 -1.381501E-10  5.602283E-12
        17  12 -1.061734E+05 -9.332632E+05 -1.576529E+05  8.592380E+04 -3.272334E-10 -3.281256E-10
        17  13 -2.501304E+05 -5.162509E+05 -2.783366E+05  1.002396E+05  8.185645E-11  3.680629E-12
        17  14 -5.496609E+04 -4.930609E+05 -1.385656E+05  8.938304E+04  3.480412E-10 -4.130552E-12
        17  15 -7.593437E+03 -5.161227E+05 -8.229827E+04  1.001755E+05  2.912667E-11 -5.527872E-11
        17  16 -9.756665E+04  1.007057E+05 -1.325379E+05 -5.612827E+04 -3.761076E-11 -3.675158E-10
        17  17  6.835519E+04  2.183826E+04 -3.680879E+04  1.833332E+04  2.766100E-10  7.083949E-12
        17  18  9.097752E+04 -9.881201E+04 -6.950362E+03  1.144370E+05  2.229380E-10  2.467661E-10
        17  19 -4.026152E+05 -1.132748E+06 -4.240486E+05  2.564527E+05  7.862247E+03  2.304082E+05
        17  20 -1.782790E+05 -1.007676E+06 -2.402980E+05  1.603752E+05  2.474463E+04  1.336610E+05
        17  21 -1.061723E+05 -9.332616E+05 -1.576490E+05  8.592459E+04  2.655012E+04  3.689289E+04
        17  22 -2.501207E+05 -5.162124E+05 -2.782690E+05  1.002408E+05  7.795635E+03  1.894280E+05
        17  23 -5.496170E+04 -4.930458E+05 -1.385383E+05  8.938539E+04  2.472325E+04  1.179528E+05
        17  24 -7.592100E+03 -5.161201E+05 -8.229288E+04  1.001765E+05  2.655308E+04  4.647636E+04
        17  25 -9.756067E+04  1.007293E+05 -1.324964E+05 -5.612734E+04  7.749729E+03  1.484072E+05
        17  26  6.835865E+04  2.184965E+04 -3.678800E+04  1.833536E+04  2.470547E+04  1.022318E+05
        17  27  9.097912E+04 -9.880845E+04 -6.943130E+03  1.144382E+05  2.655647E+04  5.606608E+04
        18   1 -9.409283E+04 -8.587334E+05 -1.304731E+05  1.061081E+05 -2.292911E+04 -2.726311E+04
        18   2 -6.189360E+04 -7.556223E+05 -9.488650E+04  8.941239E+04 -1.770250E+04  7.640716E+01
        18   3 -4.300918E+04 -6.594034E+05 -8.044510E+04  9.534898E+04 -1.143082E+04  2.741884E+04
        18   4 -1.118538E+04 -5.073066E+05 -6.760939E+04  1.004008E+05 -2.293106E+04 -3.515013E+04
        18   5 -2.815090E+03 -5.039998E+05 -5.129520E+04  8.908329E+04 -1.770630E+04 -9.554091E+03
        18   6 -7.452346E+03 -5.072883E+05 -5.490714E+04  1.003984E+05 -1.143622E+04  1.604070E+04
        18   7  7.171537E+04 -1.557590E+05 -4.750123E+03  9.469007E+04 -2.293286E+04 -4.304149E+04
        18   8  5.626005E+04 -2.523149E+05 -7.705752E+03  8.875405E+04 -1.771008E+04 -1.918838E+04
        18   9  2.810344E+04 -3.551500E+05 -2.936940E+04  1.054492E+05 -1.144180E+04  4.659866E+03
        18  10 -9.409359E+04 -8.587344E+05 -1.304755E+05  1.061076E+05  9.133777E-11  1.616433E-10
        18  11 -6.189393E+04 -7.556224E+05 -9.488709E+04  8.941239E+04 -9.709221E-11  2.261101E-10
        18  12 -4.300952E+04 -6.594042E+05 -8.044676E+04  9.534923E+04  1.163415E-10  2.226120E-10
        18  13 -1.118628E+04 -5.073081E+05 -6.761270E+04  1.004001E+05  6.191488E-11  2.663197E-11
        18  14 -2.815451E+03 -5.040000E+05 -5.129596E+04  8.908316E+04  2.183072E-10  5.165397E-11
        18  15 -7.452555E+03 -5.072886E+05 -5.490787E+04  1.003986E+05  2.188407E-10 -7.055774E-12
        18  16  7.171430E+04 -1.557611E+05 -4.754593E+03  9.468928E+04  9.316439E-11 -1.355908E-10
        18  17  5.625962E+04 -2.523154E+05 -7.707034E+03  8.875378E+04 -8.520215E-11 -1.748029E-10
        18  18  2.810329E+04 -3.551501E+05 -2.936969E+04  1.054492E+05  2.195602E-10 -3.084934E-10
        18  19 -9.409283E+04 -8.587334E+05 -1.304731E+05  1.061081E+05  2.292911E+04  2.726311E+04
        18  20 -6.189360E+04 -7.556223E+05 -9.488650E+04  8.941239E+04  1.770250E+04 -7.640716E+01
        18  21 -4.300918E+04 -6.594034E+05 -8.044510E+04  9.534898E+04  1.143082E+04 -2.741884E+04
        18  22 -1.118538E+04 -5.073066E+05 -6.760939E+04  1.004008E+05  2.293106E+04  3.515013E+04
        18  23 -2.815090E+03 -5.039998E+05 -5.129520E+04  8.908329E+04  1.770630E+04  9.554091E+03
        18  24 -7.452346E+03 -5.072883E+05 -5.490714E+04  1.003984E+05  1.143622E+04 -1.604070E+04
        18  25  7.171537E+04 -1.557590E+05 -4.750123E+03  9.469007E+04  2.293286E+04  4.304149E+04
        18  26  5.626005E+04 -2.523149E+05 -7.705752E+03  8.875405E+04  1.771008E+04  1.918838E+04
        18  27  2.810344E+04 -3.551500E+05 -2.936940E+04  1.054492E+05  1.144180E+04 -4.659866E+03
        19   1 -2.529300E+04 -5.997199E+05 -7.617187E+04  1.094931E+05 -7.256396E+03  3.669881E+04
        19   2 -3.357964E+04 -4.846515E+05 -9.163013E+04  4.060110E+04 -1.955624E+03  8.113716E+04
        19   3 -1.411832E+05 -4.002029E+05 -1.608605E+05 -5.767839E+03  7.088544E+01  1.255827E+05
        19   4 -5.161665E+03 -5.128374E+05 -6.239780E+04  1.003665E+05 -7.262987E+03  2.508551E+04
        19   5 -3.706317E+04 -4.970588E+05 -9.690404E+04  8.913832E+04 -1.952451E+03  7.500560E+04
        19   6 -1.692495E+05 -5.128777E+05 -1.889975E+05  1.004389E+05  9.204710E+01  1.249260E+05
        19   7  1.496968E+04 -4.259469E+05 -4.862336E+04  9.123857E+04 -7.269236E+03  1.347064E+04
        19   8 -4.053783E+04 -5.094609E+05 -1.021766E+05  1.376746E+05 -1.950238E+03  6.887417E+04
        19   9 -1.972743E+05 -6.255168E+05 -2.171294E+05  2.066264E+05  1.129873E+02  1.242693E+05
        19  10 -2.529342E+04 -5.997214E+05 -7.617451E+04  1.094933E+05  1.733829E-10 -3.543913E-11
        19  11 -3.358141E+04 -4.846586E+05 -9.164252E+04  4.060123E+04 -3.381536E-10 -1.192869E-10
        19  12 -1.411874E+05 -4.002199E+05 -1.608902E+05 -5.767847E+03  3.252509E-10 -1.502536E-10
        19  13 -5.161891E+03 -5.128381E+05 -6.239908E+04  1.003667E+05 -8.856104E-11  6.123728E-11
        19  14 -3.706468E+04 -4.970649E+05 -9.691463E+04  8.913843E+04 -4.265293E-10  6.085006E-11
        19  15 -1.692537E+05 -5.128945E+05 -1.890268E+05  1.004389E+05  2.242351E-10  1.354495E-11
        19  16  1.496958E+04 -4.259471E+05 -4.862380E+04  9.123865E+04  5.919591E-10  8.382423E-11
        19  17 -4.053911E+04 -5.094660E+05 -1.021855E+05  1.376747E+05  2.657607E-10  1.354042E-10
        19  18 -1.972785E+05 -6.255334E+05 -2.171584E+05  2.066264E+05 -1.619587E-10  6.792215E-11
        19  19 -2.529300E+04 -5.997199E+05 -7.617187E+04  1.094931E+05  7.256396E+03 -3.669881E+04
        19  20 -3.357964E+04 -4.846515E+05 -9.163013E+04  4.060110E+04  1.955624E+03 -8.113716E+04
        19  21 -1.411832E+05 -4.002029E+05 -1.608605E+05 -5.767839E+03 -7.088544E+01 -1.255827E+05
        19  22 -5.161665E+03 -5.128374E+05 -6.239780E+04  1.003665E+05  7.262987E+03 -2.508551E+04
        19  23 -3.706317E+04 -4.970588E+05 -9.690404E+04  8.913832E+04  1.952451E+03 -7.500560E+04
        19  24 -1.692495E+05 -5.128777E+05 -1.889975E+05  1.004389E+05 -9.204710E+01 -1.249260E+05
        19  25  1.496968E+04 -4.259469E+05 -4.862336E+04  9.123857E+04  7.269236E+03 -1.347064E+04
        19  26 -4.053783E+04 -5.094609E+05 -1.021766E+05  1.376746E+05  1.950238E+03 -6.887417E+04
        19  27 -1.972743E+05 -6.255168E+05 -2.171294E+05  2.066264E+05 -1.129873E+02 -1.242693E+05
        20   1  1.900020E+05 -5.938342E+04 -1.264999E+05  1.669707E+05 -3.938976E+04 -2.208628E+04
        20   2  2.313708E+05 -3.567241E+03 -8.637109E+04  1.864918E+05 -2.875138E+04  2.518643E+03
        20   3  2.768446E+05  2.878087E+04 -6.465580E+04  2.055319E+05 -1.144189E+04  1.823392E+04
        20   4  5.140338E+05  1.879489E+05 -1.853292E+04  3.354747E+05 -1.403282E+04 -3.075057E+03
        20   5  5.132806E+05  2.032529E+05 -8.894998E+03  3.318293E+05 -1.833379E+04  1.032725E+04
        20   6  5.198735E+05  1.983307E+05 -4.706252E+03  3.276998E+05 -1.596759E+04  1.484027E+04
        20   7  8.381831E+05  4.353537E+05  8.942513E+04  5.040838E+05  1.134246E+04  1.595125E+04
        20   8  7.952840E+05  4.101270E+05  6.857570E+04  4.772460E+05 -7.909699E+03  1.814099E+04
        20   9  7.629739E+05  3.679177E+05  5.524039E+04  4.499245E+05 -2.049572E+04  1.144480E+04
        20  10  1.900002E+05 -5.938436E+04 -1.265037E+05  1.669700E+05  2.325852E-10  3.401277E-10
        20  11  2.313699E+05 -3.567469E+03 -8.637265E+04  1.864919E+05 -1.527873E-11 -4.009041E-10
        20  12  2.768444E+05  2.878048E+04 -6.465667E+04  2.055321E+05  2.643037E-10 -1.172368E-09
        20  13  5.140336E+05  1.879489E+05 -1.853331E+04  3.354746E+05  2.940244E-10 -1.543215E-10
        20  14  5.132802E+05  2.032527E+05 -8.895830E+03  3.318295E+05 -5.210625E-10 -1.678229E-10
        20  15  5.198731E+05  1.983304E+05 -4.707145E+03  3.277000E+05 -7.132079E-10  3.368755E-10
        20  16  8.381829E+05  4.353534E+05  8.942442E+04  5.040837E+05 -4.191937E-10 -5.190354E-10
        20  17  7.952838E+05  4.101267E+05  6.857497E+04  4.772461E+05 -8.406200E-10  8.094969E-11
        20  18  7.629734E+05  3.679175E+05  5.523935E+04  4.499247E+05 -7.085522E-10  1.875801E-09
        20  19  1.900020E+05 -5.938342E+04 -1.264999E+05  1.669707E+05  3.938976E+04  2.208628E+04
        20  20  2.313708E+05 -3.567241E+03 -8.637109E+04  1.864918E+05  2.875138E+04 -2.518643E+03
        20  21  2.768446E+05  2.878087E+04 -6.465580E+04  2.055319E+05  1.144189E+04 -1.823392E+04
        20  22  5.140338E+05  1.879489E+05 -1.853292E+04  3.354747E+05  1.403282E+04  3.075057E+03
        20  23  5.132806E+05  2.032529E+05 -8.894998E+03  3.318293E+05  1.833379E+04 -1.032725E+04
        20  24  5.198735E+05  1.983307E+05 -4.706252E+03  3.276998E+05  1.596759E+04 -1.484027E+04
        20  25  8.381831E+05  4.353537E+05  8.942513E+04  5.040838E+05 -1.134246E+04 -1.595125E+04
        20  26  7.952840E+05  4.101270E+05  6.857570E+04  4.772460E+05  7.909699E+03 -1.814099E+04
        20  27  7.629739E+05  3.679177E+05  5.524039E+04  4.499245E+05  2.049572E+04 -1.144480E+04
        21   1  3.082772E+05  4.848417E+04 -5.551044E+04  2.205383E+05 -1.068408E+04  1.609310E+04
        21   2  3.467005E+05  8.777083E+04 -4.140881E+04  2.450162E+05 -6.917880E+03  1.504106E+04
        21   3  3.980159E+05  1.128696E+05 -2.905510E+04  2.656928E+05 -2.563221E+03  1.320322E+04
        21   4  5.203388E+05  1.982529E+05 -3.431229E+03  3.280806E+05 -1.419445E+04  1.346097E+04
        21   5  5.138900E+05  2.054497E+05 -1.460446E+03  3.298002E+05 -1.174879E+04  1.141977E+04
        21   6  5.206180E+05  1.987446E+05 -9.186516E+01  3.277172E+05 -8.714933E+03  8.592803E+03
        21   7  7.324483E+05  3.480460E+05  4.864349E+04  4.356634E+05 -1.770636E+04  1.082767E+04
        21   8  6.811103E+05  3.231443E+05  3.848566E+04  4.146098E+05 -1.658140E+04  7.797210E+03
        21   9  6.432376E+05  2.846287E+05  2.887061E+04  3.897557E+05 -1.486826E+04  3.981181E+03
        21  10  3.082770E+05  4.848386E+04 -5.551114E+04  2.205385E+05  1.001148E-08  6.515668E-09
        21  11  3.467004E+05  8.777057E+04 -4.140932E+04  2.450162E+05 -1.112726E-08 -7.091975E-09
        21  12  3.980158E+05  1.128694E+05 -2.905544E+04  2.656929E+05 -1.923915E-08 -1.153934E-08
        21  13  5.203386E+05  1.982526E+05 -3.431949E+03  3.280808E+05 -4.663669E-09 -2.440159E-09
        21  14  5.138898E+05  2.054495E+05 -1.460950E+03  3.298003E+05 -1.151792E-08 -7.159222E-09
        21  15  5.206179E+05  1.987445E+05 -9.214671E+01  3.277173E+05 -4.882675E-09 -2.634479E-09
        21  16  7.324480E+05  3.480458E+05  4.864268E+04  4.356636E+05 -1.883254E-08 -1.147744E-08
        21  17  6.811099E+05  3.231442E+05  3.848503E+04  4.146099E+05 -1.140991E-08 -7.257699E-09
        21  18  6.432374E+05  2.846287E+05  2.887016E+04  3.897558E+05  1.022931E-08  6.085494E-09
        21  19  3.082772E+05  4.848417E+04 -5.551044E+04  2.205383E+05  1.068408E+04 -1.609310E+04
        21  20  3.467005E+05  8.777083E+04 -4.140881E+04  2.450162E+05  6.917880E+03 -1.504106E+04
        21  21  3.980159E+05  1.128696E+05 -2.905510E+04  2.656928E+05  2.563221E+03 -1.320322E+04
        21  22  5.203388E+05  1.982529E+05 -3.431229E+03  3.280806E+05  1.419445E+04 -1.346097E+04
        21  23  5.138900E+05  2.054497E+05 -1.460446E+03  3.298002E+05  1.174879E+04 -1.141977E+04
        21  24  5.206180E+05  1.987446E+05 -9.186516E+01  3.277172E+05  8.714933E+03 -8.592803E+03
        21  25  7.324483E+05  3.480460E+05  4.864349E+04  4.356634E+05  1.770636E+04 -1.082767E+04
        21  26  6.811103E+05  3.231443E+05  3.848566E+04  4.146098E+05  1.658140E+04 -7.797210E+03
        21  27  6.432376E+05  2.846287E+05  2.887061E+04  3.897557E+05  1.486826E+04 -3.981181E+03
        22   1  4.274261E+05  1.334661E+05 -2.125213E+04  2.805692E+05 -1.077536E+03  1.096344E+04
        22   2  4.654280E+05  1.717995E+05 -9.264450E+03  3.052914E+05  8.718123E+02  6.775037E+03
        22   3  5.171094E+05  1.967070E+05  3.367681E+03  3.260808E+05  2.835226E+03  2.567315E+03
        22   4  5.206727E+05  1.987472E+05  5.437104E+02  3.277675E+05 -7.143635E+03  6.417470E+03
        22   5  5.138520E+05  2.054937E+05  2.004945E+03  3.297089E+05 -5.226858E+03  2.204853E+03
        22   6  5.207146E+05  1.988197E+05  4.138437E+03  3.277152E+05 -3.295959E+03 -2.026979E+03
        22   7  6.139312E+05  2.640347E+05  2.233980E+04  3.749749E+05 -1.321106E+04  1.870511E+03
        22   8  5.622789E+05  2.391893E+05  1.327441E+04  3.541286E+05 -1.132616E+04 -2.365801E+03
        22   9  5.243198E+05  2.009325E+05  4.909392E+03  3.293496E+05 -9.427085E+03 -6.621221E+03
        22  10  4.274261E+05  1.334660E+05 -2.125235E+04  2.805692E+05 -1.486230E-09  1.219987E-09
        22  11  4.654280E+05  1.717995E+05 -9.264537E+03  3.052914E+05 -2.942941E-10 -6.474401E-11
        22  12  5.171094E+05  1.967069E+05  3.367654E+03  3.260808E+05 -2.816880E-10 -4.582387E-10
        22  13  5.206727E+05  1.987471E+05  5.435371E+02  3.277676E+05 -6.458497E-10  2.209172E-10
        22  14  5.138520E+05  2.054937E+05  2.004885E+03  3.297089E+05 -2.675007E-10 -2.091296E-10
        22  15  5.207146E+05  1.988197E+05  4.138409E+03  3.277152E+05  4.011238E-11 -3.583141E-10
        22  16  6.139311E+05  2.640346E+05  2.233946E+04  3.749750E+05  1.576370E-09 -8.922165E-10
        22  17  5.622788E+05  2.391893E+05  1.327416E+04  3.541286E+05  9.758417E-11 -3.528398E-10
        22  18  5.243197E+05  2.009325E+05  4.909143E+03  3.293495E+05  9.148948E-10 -3.964465E-10
        22  19  4.274261E+05  1.334661E+05 -2.125213E+04  2.805692E+05  1.077536E+03 -1.096344E+04
        22  20  4.654280E+05  1.717995E+05 -9.264450E+03  3.052914E+05 -8.718123E+02 -6.775037E+03
        22  21  5.171094E+05  1.967070E+05  3.367681E+03  3.260808E+05 -2.835226E+03 -2.567315E+03
        22  22  5.206727E+05  1.987472E+05  5.437104E+02  3.277675E+05  7.143635E+03 -6.417470E+03
        22  23  5.138520E+05  2.054937E+05  2.004945E+03  3.297089E+05  5.226858E+03 -2.204853E+03
        22  24  5.207146E+05  1.988197E+05  4.138437E+03  3.277152E+05  3.295959E+03  2.026979E+03
        22  25  6.139312E+05  2.640347E+05  2.233980E+04  3.749749E+05  1.321106E+04 -1.870511E+03
        22  26  5.622789E+05  2.391893E+05  1.327441E+04  3.541286E+05  1.132616E+04  2.365801E+03
        22  27  5.243198E+05  2.009325E+05  4.909392E+03  3.293496E+05  9.427085E+03  6.621221E+03
        23   1  5.461546E+05  2.177369E+05  1.199394E+04  3.411908E+05  3.827001E+03 -5.713536E+01
        23   2  5.850383E+05  2.551618E+05  2.730248E+04  3.649737E+05  1.380895E+03 -7.196706E+03
        23   3  6.393894E+05  2.813944E+05  4.736084E+04  3.842047E+05 -1.487830E+03 -1.377302E+04
        23   4  5.208342E+05  1.988587E+05  5.617889E+03  3.278848E+05 -2.361204E+03 -4.694171E+03
        23   5  5.138803E+05  2.057645E+05  1.012537E+04  3.292553E+05 -3.859145E+03 -1.112356E+04
        23   6  5.221865E+05  2.012715E+05  1.856136E+04  3.260722E+05 -5.779283E+03 -1.698933E+04
        23   7  4.955146E+05  1.799809E+05 -7.579952E+02  3.145794E+05 -8.549076E+03 -9.330938E+03
        23   8  4.427276E+05  1.563696E+05 -7.052163E+03  2.935413E+05 -9.098431E+03 -1.504985E+04
        23   9  4.049973E+05  1.211548E+05 -1.023974E+04  2.679511E+05 -1.006973E+04 -2.020491E+04
        23  10  5.461546E+05  2.177369E+05  1.199392E+04  3.411908E+05 -6.346145E-10 -4.813470E-10
        23  11  5.850383E+05  2.551618E+05  2.730237E+04  3.649737E+05 -2.597611E-10 -4.153268E-10
        23  12  6.393894E+05  2.813942E+05  4.736048E+04  3.842047E+05 -2.205866E-10 -2.918470E-10
        23  13  5.208342E+05  1.988586E+05  5.617837E+03  3.278847E+05  4.956842E-10 -3.454481E-10
        23  14  5.138803E+05  2.057643E+05  1.012511E+04  3.292553E+05 -3.858355E-10 -2.104934E-10
        23  15  5.221864E+05  2.012712E+05  1.856075E+04  3.260721E+05  8.174909E-11 -8.797317E-11
        23  16  4.955145E+05  1.799808E+05 -7.582959E+02  3.145793E+05  9.983847E-10 -2.581311E-10
        23  17  4.427274E+05  1.563694E+05 -7.052744E+03  2.935412E+05  5.409902E-10 -6.802501E-11
        23  18  4.049970E+05  1.211543E+05 -1.024070E+04  2.679509E+05  2.733279E-10  9.090832E-11
        23  19  5.461546E+05  2.177369E+05  1.199394E+04  3.411908E+05 -3.827001E+03  5.713536E+01
        23  20  5.850383E+05  2.551618E+05  2.730248E+04  3.649737E+05 -1.380895E+03  7.196706E+03
        23  21  6.393894E+05  2.813944E+05  4.736084E+04  3.842047E+05  1.487830E+03  1.377302E+04
        23  22  5.208342E+05  1.988587E+05  5.617889E+03  3.278848E+05  2.361204E+03  4.694171E+03
        23  23  5.138803E+05  2.057645E+05  1.012537E+04  3.292553E+05  3.859145E+03  1.112356E+04
        23  24  5.221865E+05  2.012715E+05  1.856136E+04  3.260722E+05  5.779283E+03  1.698933E+04
        23  25  4.955146E+05  1.799809E+05 -7.579952E+02  3.145794E+05  8.549076E+03  9.330938E+03
        23  26  4.427276E+05  1.563696E+05 -7.052163E+03  2.935413E+05  9.098431E+03  1.504985E+04
        23  27  4.049973E+05  1.211548E+05 -1.023974E+04  2.679511E+05  1.006973E+04  2.020491E+04
        24   1  6.643477E+05  3.087501E+05  6.086378E+04  4.030230E+05 -1.907996E+03 -1.699180E+04
        24   2  7.301293E+05  3.272258E+05  9.639241E+04  4.077612E+05 -3.120993E+04 -3.861592E+04
        24   3  8.384754E+05  3.715982E+05  1.683506E+05  3.926164E+05 -6.531626E+04 -5.383795E+04
        24   4  5.235998E+05  2.016837E+05  2.441494E+04  3.281801E+05 -6.928913E+03 -2.075493E+04
        24   5  5.178587E+05  2.155014E+05  4.443815E+04  3.189174E+05 -2.545390E+04 -3.430452E+04
        24   6  5.523507E+05  2.528913E+05  9.155615E+04  2.897702E+05 -4.877914E+04 -4.145121E+04
        24   7  3.828772E+05  9.463354E+04 -1.203442E+04  2.533588E+05 -1.194822E+04 -2.451673E+04
        24   8  3.056416E+05  1.037911E+05 -7.518398E+03  2.301044E+05 -1.970060E+04 -2.999451E+04
        24   9  2.663193E+05  1.341973E+05  1.475748E+04  1.869647E+05 -3.225267E+04 -2.906818E+04
        24  10  6.643476E+05  3.087498E+05  6.086323E+04  4.030229E+05 -1.680433E-10  3.302480E-12
        24  11  7.301279E+05  3.272239E+05  9.638778E+04  4.077603E+05 -6.599057E-11 -4.844736E-11
        24  12  8.384701E+05  3.715939E+05  1.683372E+05  3.926135E+05 -1.735476E-10 -1.110013E-10
        24  13  5.235996E+05  2.016832E+05  2.441405E+04  3.281800E+05 -3.272669E-10  4.401330E-12
        24  14  5.178577E+05  2.155000E+05  4.443473E+04  3.189167E+05 -1.508324E-10 -1.925079E-14
        24  15  5.523477E+05  2.528888E+05  9.154846E+04  2.897685E+05 -2.047344E-10  1.128027E-11
        24  16  3.828769E+05  9.463286E+04 -1.203581E+04  2.533586E+05 -1.335756E-10 -7.732494E-11
        24  17  3.056410E+05  1.037901E+05 -7.520816E+03  2.301040E+05 -4.344150E-10 -8.475005E-11
        24  18  2.663179E+05  1.341961E+05  1.475394E+04  1.869640E+05  4.597072E-11  3.798830E-11
        24  19  6.643477E+05  3.087501E+05  6.086378E+04  4.030230E+05  1.907996E+03  1.699180E+04
        24  20  7.301293E+05  3.272258E+05  9.639241E+04  4.077612E+05  3.120993E+04  3.861592E+04
        24  21  8.384754E+05  3.715982E+05  1.683506E+05  3.926164E+05  6.531626E+04  5.383795E+04
        24  22  5.235998E+05  2.016837E+05  2.441494E+04  3.281801E+05  6.928913E+03  2.075493E+04
        24  23  5.178587E+05  2.155014E+05  4.443815E+04  3.189174E+05  2.545390E+04  3.430452E+04
        24  24  5.523507E+05  2.528913E+05  9.155615E+04  2.897702E+05  4.877914E+04  4.145121E+04
        24  25  3.828772E+05  9.463354E+04 -1.203442E+04  2.533588E+05  1.194822E+04  2.451673E+04
        24  26  3.056416E+05  1.037911E+05 -7.518398E+03  2.301044E+05  1.970060E+04  2.999451E+04
        24  27  2.663193E+05  1.341973E+05  1.475748E+04  1.869647E+05  3.225267E+04  2.906818E+04
        25   1  7.847396E+05  5.823353E+04  6.472441E+04  3.640285E+04  4.455857E+04  2.609573E+00
        25   2  7.793879E+05  1.280404E+04  3.187725E+04  1.654593E+04  2.810517E+04  7.481376E-01
        25   3  7.847598E+05  1.719114E+03  1.831866E+04 -3.310375E+03  1.165202E+04 -6.205521E-02
        25   4  7.847382E+05  5.823105E+04  6.472406E+04 -7.533592E-10  4.455857E+04 -6.631718E-11
        25   5  7.793876E+05  1.280353E+04  3.187717E+04 -4.841364E-11  2.810517E+04 -1.745391E-10
        25   6  7.847598E+05  1.719093E+03  1.831866E+04 -6.939486E-11  1.165202E+04 -8.324677E-11
        25   7  7.847396E+05  5.823353E+04  6.472441E+04 -3.640285E+04  4.455857E+04 -2.609573E+00
        25   8  7.793879E+05  1.280404E+04  3.187725E+04 -1.654593E+04  2.810517E+04 -7.481376E-01
        25   9  7.847598E+05  1.719114E+03  1.831866E+04  3.310375E+03  1.165202E+04  6.205521E-02
        25  10  7.847375E+05  5.823300E+04  6.472069E+04  3.640285E+04  2.115836E-10 -1.835865E-11
        25  11  7.793870E+05  1.280383E+04  3.187577E+04  1.654593E+04 -1.966689E-11 -4.584179E-11
        25  12  7.847597E+05  1.719077E+03  1.831841E+04 -3.310375E+03  2.063313E-10 -8.368158E-11
        25  13  7.847361E+05  5.823051E+04  6.472033E+04 -2.652034E-10  1.828969E-10 -1.524643E-11
        25  14  7.793867E+05  1.280332E+04  3.187569E+04 -5.807500E-10  1.346668E-10 -4.622061E-11
        25  15  7.847597E+05  1.719057E+03  1.831840E+04 -5.045106E-11  4.095287E-11 -1.890420E-11
        25  16  7.847375E+05  5.823300E+04  6.472069E+04 -3.640285E+04  2.937567E-10 -4.476290E-11
        25  17  7.793870E+05  1.280383E+04  3.187577E+04 -1.654593E+04 -6.959913E-11 -4.478015E-11
        25  18  7.847597E+05  1.719077E+03  1.831841E+04  3.310375E+03  4.209639E-11  5.677514E-11
        25  19  7.847396E+05  5.823353E+04  6.472441E+04  3.640285E+04 -4.455857E+04 -2.609573E+00
        25  20  7.793879E+05  1.280404E+04  3.187725E+04  1.654593E+04 -2.810517E+04 -7.481376E-01
        25  21  7.847598E+05  1.719114E+03  1.831866E+04 -3.310375E+03 -1.165202E+04  6.205521E-02
        25  22  7.847382E+05  5.823105E+04  6.472406E+04 -5.661103E-10 -4.455857E+04  2.635726E-11
        25  23  7.793876E+05  1.280353E+04  3.187717E+04 -4.209731E-11 -2.810517E+04  8.516744E-11
        25  24  7.847598E+05  1.719093E+03  1.831866E+04  9.895604E-11 -1.165202E+04  4.941603E-11
        25  25  7.847396E+05  5.823353E+04  6.472441E+04 -3.640285E+04 -4.455857E+04  2.609573E+00
        25  26  7.793879E+05  1.280404E+04  3.187725E+04 -1.654593E+04 -2.810517E+04  7.481376E-01
        25  27  7.847598E+05  1.719114E+03  1.831866E+04  3.310375E+03 -1.165202E+04 -6.205521E-02
        26   1  7.826247E+05  2.586216E+03  1.458638E+04  1.185993E+03  9.176247E+03  1.750848E-02
        26   2  7.820643E+05  3.218330E+02  9.818001E+03  4.933519E+02  4.286073E+03  3.401870E-03
        26   3  7.826264E+05  4.066612E+00  8.717135E+03 -1.993005E+02 -6.041600E+02  1.937140E-04
        26   4  7.826247E+05  2.586213E+03  1.458637E+04  2.125836E-10  9.176247E+03  1.018690E-10
        26   5  7.820643E+05  3.218325E+02  9.818000E+03  2.740538E-11  4.286073E+03  2.437631E-10
        26   6  7.826264E+05  4.066537E+00  8.717135E+03 -5.638698E-10 -6.041600E+02 -5.295237E-11
        26   7  7.826247E+05  2.586216E+03  1.458638E+04 -1.185993E+03  9.176247E+03 -1.750848E-02
        26   8  7.820643E+05  3.218330E+02  9.818001E+03 -4.933519E+02  4.286073E+03 -3.401869E-03
        26   9  7.826264E+05  4.066612E+00  8.717135E+03  1.993005E+02 -6.041600E+02 -1.937142E-04
        26  10  7.826246E+05  2.586193E+03  1.458622E+04  1.185993E+03 -2.028839E-10 -4.158707E-11
        26  11  7.820643E+05  3.218281E+02  9.817966E+03  4.933519E+02 -5.736145E-11  9.136562E-11
        26  12  7.826264E+05  4.066514E+00  8.717135E+03 -1.993005E+02  1.254598E-10  3.247665E-12
        26  13  7.826246E+05  2.586190E+03  1.458622E+04  8.585813E-10  1.031459E-10  5.934522E-11
        26  14  7.820643E+05  3.218276E+02  9.817966E+03  4.166620E-10  4.165219E-10  1.448542E-10
        26  15  7.826264E+05  4.066440E+00  8.717135E+03  8.416376E-10 -6.812083E-11  2.363365E-11
        26  16  7.826246E+05  2.586193E+03  1.458622E+04 -1.185993E+03  1.565989E-10  1.535085E-10
        26  17  7.820643E+05  3.218281E+02  9.817966E+03 -4.933519E+02  1.791079E-10  2.312503E-10
        26  18  7.826264E+05  4.066514E+00  8.717135E+03  1.993005E+02 -4.585064E-11  6.471106E-11
        26  19  7.826247E+05  2.586216E+03  1.458638E+04  1.185993E+03 -9.176247E+03 -1.750848E-02
        26  20  7.820643E+05  3.218330E+02  9.818001E+03  4.933519E+02 -4.286073E+03 -3.401870E-03
        26  21  7.826264E+05  4.066612E+00  8.717135E+03 -1.993005E+02  6.041600E+02 -1.937141E-04
        26  22  7.826247E+05  2.586213E+03  1.458637E+04  4.504228E-10 -9.176247E+03  2.616059E-11
        26  23  7.820643E+05  3.218325E+02  9.818000E+03 -4.167387E-12 -4.286073E+03  5.716877E-11
        26  24  7.826264E+05  4.066537E+00  8.717135E+03 -6.081550E-10  6.041600E+02  1.143507E-10
        26  25  7.826247E+05  2.586216E+03  1.458638E+04 -1.185993E+03 -9.176247E+03  1.750848E-02
        26  26  7.820643E+05  3.218330E+02  9.818001E+03 -4.933519E+02 -4.286073E+03  3.401870E-03
        26  27  7.826264E+05  4.066612E+00  8.717135E+03  1.993005E+02  6.041600E+02  1.937143E-04
        27   1  7.827103E+05 -2.723322E+01  9.196870E+03  4.914343E+02 -2.169960E+03 -1.715608E-03
        27   2  7.819587E+05  5.349464E+02  1.245284E+04 -5.768829E+02 -8.378716E+03  7.776185E-03
        27   3  7.827072E+05  3.868185E+03  2.044014E+04 -1.645197E+03 -1.458751E+04  3.861005E-02
        27   4  7.827103E+05 -2.723367E+01  9.196870E+03 -4.213787E-11 -2.169960E+03 -1.240412E-10
        27   5  7.819587E+05  5.349457E+02  1.245284E+04 -2.946740E-11 -8.378716E+03  7.313892E-11
        27   6  7.827072E+05  3.868180E+03  2.044014E+04 -2.230008E-10 -1.458751E+04  2.329929E-12
        27   7  7.827103E+05 -2.723322E+01  9.196870E+03 -4.914343E+02 -2.169960E+03  1.715607E-03
        27   8  7.819587E+05  5.349464E+02  1.245284E+04  5.768829E+02 -8.378716E+03 -7.776185E-03
        27   9  7.827072E+05  3.868185E+03  2.044014E+04  1.645197E+03 -1.458751E+04 -3.861005E-02
        27  10  7.827103E+05 -2.723448E+01  9.196861E+03  4.914343E+02 -2.371981E-10  1.085034E-11
        27  11  7.819587E+05  5.349275E+02  1.245271E+04 -5.768829E+02 -2.386815E-10  1.419420E-10
        27  12  7.827070E+05  3.868128E+03  2.043974E+04 -1.645197E+03 -3.413814E-11  6.932373E-11
        27  13  7.827103E+05 -2.723494E+01  9.196861E+03  4.418347E-10  5.051517E-11 -7.864674E-12
        27  14  7.819587E+05  5.349269E+02  1.245271E+04 -2.861653E-10  2.012055E-10  7.098966E-11
        27  15  7.827070E+05  3.868123E+03  2.043974E+04  8.206307E-10  1.660046E-10  4.745119E-11
        27  16  7.827103E+05 -2.723448E+01  9.196861E+03 -4.914343E+02  7.257960E-12 -1.319585E-11
        27  17  7.819587E+05  5.349275E+02  1.245271E+04  5.768829E+02  3.691373E-10  1.174733E-11
        27  18  7.827070E+05  3.868128E+03  2.043974E+04  1.645197E+03  3.616525E-10  5.322274E-11
        27  19  7.827103E+05 -2.723322E+01  9.196870E+03  4.914343E+02  2.169960E+03  1.715608E-03
        27  20  7.819587E+05  5.349464E+02  1.245284E+04 -5.768829E+02  8.378716E+03 -7.776185E-03
        27  21  7.827072E+05  3.868185E+03  2.044014E+04 -1.645197E+03  1.458751E+04 -3.861005E-02
        27  22  7.827103E+05 -2.723367E+01  9.196870E+03  7.932488E-10  2.169960E+03  1.111723E-10
        27  23  7.819587E+05  5.349457E+02  1.245284E+04  8.164005E-10  8.378716E+03  3.901429E-11
        27  24  7.827072E+05  3.868180E+03  2.044014E+04  9.153046E-10  1.458751E+04  9.411983E-11
        27  25  7.827103E+05 -2.723322E+01  9.196870E+03 -4.914343E+02  2.169960E+03 -1.715607E-03
        27  26  7.819587E+05  5.349464E+02  1.245284E+04  5.768829E+02  8.378716E+03  7.776185E-03
        27  27  7.827072E+05  3.868185E+03  2.044014E+04  1.645197E+03  1.458751E+04  3.861005E-02
        28   1  7.858991E+05  2.574175E+03  2.627904E+04  4.983743E+03 -1.807200E+04 -1.448976E-01
        28   2  7.779577E+05  1.897708E+04  4.680698E+04 -2.443632E+04 -4.223924E+04  1.660571E+00
        28   3  7.858701E+05  8.623199E+04  9.576917E+04 -5.385664E+04 -6.640615E+04  5.753754E+00
        28   4  7.858991E+05  2.574128E+03  2.627903E+04  1.688124E-11 -1.807200E+04 -3.923595E-11
        28   5  7.779571E+05  1.897596E+04  4.680682E+04 -2.861857E-10 -4.223924E+04  5.709319E-12
        28   6  7.858670E+05  8.622654E+04  9.576839E+04 -9.469872E-10 -6.640615E+04  6.000790E-11
        28   7  7.858991E+05  2.574175E+03  2.627904E+04 -4.983743E+03 -1.807200E+04  1.448976E-01
        28   8  7.779577E+05  1.897708E+04  4.680698E+04  2.443632E+04 -4.223924E+04 -1.660571E+00
        28   9  7.858701E+05  8.623199E+04  9.576917E+04  5.385664E+04 -6.640615E+04 -5.753754E+00
        28  10  7.858988E+05  2.574087E+03  2.627842E+04  4.983743E+03  9.049525E-11 -5.660167E-11
        28  11  7.779558E+05  1.897660E+04  4.680363E+04 -2.443632E+04 -4.263174E-10 -1.904758E-10
        28  12  7.858654E+05  8.623080E+04  9.576089E+04 -5.385664E+04 -2.051413E-10 -8.541083E-11
        28  13  7.858988E+05  2.574041E+03  2.627842E+04  5.891675E-10  5.506009E-10 -3.560021E-11
        28  14  7.779552E+05  1.897548E+04  4.680347E+04  4.460444E-10  4.004915E-10 -1.254923E-10
        28  15  7.858623E+05  8.622536E+04  9.576012E+04 -2.946514E-10  2.369800E-10 -5.551010E-11
        28  16  7.858988E+05  2.574087E+03  2.627842E+04 -4.983743E+03  2.802925E-11  7.792915E-12
        28  17  7.779558E+05  1.897660E+04  4.680363E+04  2.443632E+04 -1.486355E-11 -7.143131E-11
        28  18  7.858654E+05  8.623080E+04  9.576089E+04  5.385664E+04  3.384552E-10 -2.179050E-11
        28  19  7.858991E+05  2.574175E+03  2.627904E+04  4.983743E+03  1.807200E+04  1.448976E-01
        28  20  7.779577E+05  1.897708E+04  4.680698E+04 -2.443632E+04  4.223924E+04 -1.660571E+00
        28  21  7.858701E+05  8.623199E+04  9.576917E+04 -5.385664E+04  6.640615E+04 -5.753754E+00
        28  22  7.858991E+05  2.574128E+03  2.627903E+04  1.035210E-09  1.807200E+04 -3.471281E-11
        28  23  7.779571E+05  1.897596E+04  4.680682E+04  1.251911E-09  4.223924E+04 -2.628372E-10
        28  24  7.858670E+05  8.622654E+04  9.576839E+04 -3.535515E-10  6.640615E+04 -1.641058E-10
        28  25  7.858991E+05  2.574175E+03  2.627904E+04 -4.983743E+03  1.807200E+04 -1.448976E-01
        28  26  7.779577E+05  1.897708E+04  4.680698E+04  2.443632E+04  4.223924E+04  1.660571E+00
        28  27  7.858701E+05  8.623199E+04  9.576917E+04  5.385664E+04  6.640615E+04  5.753754E+00
        29   1 -2.147137E+05 -6.121154E+05 -2.328049E+05  1.222511E+05 -2.197874E+03 -1.448065E+05
        29   2 -7.275180E+04 -5.834046E+05 -1.259181E+05  6.085104E+04 -7.246446E+03 -8.792242E+04
        29   3 -3.625381E+04 -5.884719E+05 -8.244762E+04  1.870832E+03 -8.607574E+03 -3.103560E+04
        29   4 -1.765696E+05 -4.576408E+05 -1.965371E+05  1.181415E+04 -2.171738E+03 -1.332144E+05
        29   5 -3.878998E+04 -4.412708E+05 -9.827759E+04  1.059657E+04 -7.238904E+03 -8.252784E+04
        29   6 -5.397621E+03 -4.576026E+05 -5.912153E+04  1.180382E+04 -8.607975E+03 -3.184054E+04
        29   7 -1.383812E+05 -3.031177E+05 -1.602639E+05 -9.865050E+04 -2.149736E+03 -1.216193E+05
        29   8 -4.819851E+03 -2.991121E+05 -7.063654E+04 -3.966966E+04 -7.232237E+03 -7.713205E+04
        29   9  2.545799E+04 -3.267164E+05 -3.579603E+04  2.173897E+04 -8.608402E+03 -3.264564E+04
        29  10 -2.147194E+05 -6.121379E+05 -2.328444E+05  1.222509E+05 -9.669923E-11 -9.365055E-11
        29  11 -7.275394E+04 -5.834129E+05 -1.259328E+05  6.085053E+04  1.276976E-10  3.627411E-10
        29  12 -3.625415E+04 -5.884729E+05 -8.244957E+04  1.870616E+03  1.244243E-10  7.819946E-10
        29  13 -1.765744E+05 -4.576598E+05 -1.965705E+05  1.181392E+04 -2.210931E-11  1.149435E-11
        29  14 -3.879187E+04 -4.412781E+05 -9.829049E+04  1.059609E+04  4.002666E-10 -1.195376E-11
        29  15 -5.397973E+03 -4.576037E+05 -5.912357E+04  1.180360E+04  3.045039E-10  4.212589E-11
        29  16 -1.383852E+05 -3.031336E+05 -1.602917E+05 -9.865071E+04  9.152386E-11  9.593749E-11
        29  17 -4.821506E+03 -2.991185E+05 -7.064783E+04 -3.967011E+04  1.344684E-10 -3.459947E-10
        29  18  2.545762E+04 -3.267175E+05 -3.579817E+04  2.173874E+04  5.403183E-10 -7.503347E-10
        29  19 -2.147137E+05 -6.121154E+05 -2.328049E+05  1.222511E+05  2.197874E+03  1.448065E+05
        29  20 -7.275180E+04 -5.834046E+05 -1.259181E+05  6.085104E+04  7.246446E+03  8.792242E+04
        29  21 -3.625381E+04 -5.884719E+05 -8.244762E+04  1.870832E+03  8.607574E+03  3.103560E+04
        29  22 -1.765696E+05 -4.576408E+05 -1.965371E+05  1.181415E+04  2.171738E+03  1.332144E+05
        29  23 -3.878998E+04 -4.412708E+05 -9.827759E+04  1.059657E+04  7.238904E+03  8.252784E+04
        29  24 -5.397621E+03 -4.576026E+05 -5.912153E+04  1.180382E+04  8.607975E+03  3.184054E+04
        29  25 -1.383812E+05 -3.031177E+05 -1.602639E+05 -9.865050E+04  2.149736E+03  1.216193E+05
        29  26 -4.819851E+03 -2.991121E+05 -7.063654E+04 -3.966966E+04  7.232237E+03  7.713205E+04
        29  27  2.545799E+04 -3.267164E+05 -3.579603E+04  2.173897E+04  8.608402E+03  3.264564E+04
        30   1 -3.687977E+04 -5.744537E+05 -7.086038E+04  1.611430E+04 -8.268503E+03 -2.326240E+04
        30   2 -2.826085E+04 -5.600979E+05 -5.800468E+04  1.069394E+04 -7.818028E+03 -3.152205E+03
        30   3 -2.961531E+04 -5.508555E+05 -6.074179E+04  7.952661E+03 -6.906217E+03  1.695831E+04
        30   4 -7.918716E+03 -4.514452E+05 -4.913056E+04  1.186115E+04 -8.268233E+03 -2.363101E+04
        30   5 -2.169233E+03 -4.489551E+05 -3.875280E+04  1.052138E+04 -7.818029E+03 -4.292408E+03
        30   6 -6.258003E+03 -4.514436E+05 -4.342981E+04  1.186074E+04 -6.906267E+03  1.504615E+04
        30   7  2.104158E+04 -3.284218E+05 -2.740128E+04  7.607126E+03 -8.267957E+03 -2.399968E+04
        30   8  2.392171E+04 -3.378002E+05 -1.950134E+04  1.034879E+04 -7.818030E+03 -5.432809E+03
        30   9  1.709883E+04 -3.520220E+05 -2.611817E+04  1.576947E+04 -6.906342E+03  1.313369E+04
        30  10 -3.687999E+04 -5.744543E+05 -7.086153E+04  1.611414E+04  1.703894E-10 -1.885635E-10
        30  11 -2.826092E+04 -5.600980E+05 -5.800481E+04  1.069392E+04 -2.483190E-10  2.597926E-10
        30  12 -2.961544E+04 -5.508558E+05 -6.074242E+04  7.952755E+03  3.393514E-11  5.617678E-10
        30  13 -7.918939E+03 -4.514458E+05 -4.913174E+04  1.186099E+04  4.849027E-10  2.326701E-11
        30  14 -2.169304E+03 -4.489552E+05 -3.875295E+04  1.052135E+04  4.777093E-10 -2.325291E-11
        30  15 -6.258115E+03 -4.514438E+05 -4.343033E+04  1.186082E+04 -8.172780E-11  6.659532E-11
        30  16  2.104135E+04 -3.284225E+05 -2.740250E+04  7.606967E+03  5.702966E-10  1.959452E-10
        30  17  2.392164E+04 -3.378003E+05 -1.950151E+04  1.034876E+04 -1.658287E-10 -1.686333E-10
        30  18  1.709873E+04 -3.520221E+05 -2.611858E+04  1.576954E+04  1.846439E-10 -5.889394E-10
        30  19 -3.687977E+04 -5.744537E+05 -7.086038E+04  1.611430E+04  8.268503E+03  2.326240E+04
        30  20 -2.826085E+04 -5.600979E+05 -5.800468E+04  1.069394E+04  7.818028E+03  3.152205E+03
        30  21 -2.961531E+04 -5.508555E+05 -6.074179E+04  7.952661E+03  6.906217E+03 -1.695831E+04
        30  22 -7.918716E+03 -4.514452E+05 -4.913056E+04  1.186115E+04  8.268233E+03  2.363101E+04
        30  23 -2.169233E+03 -4.489551E+05 -3.875280E+04  1.052138E+04  7.818029E+03  4.292408E+03
        30  24 -6.258003E+03 -4.514436E+05 -4.342981E+04  1.186074E+04  6.906267E+03 -1.504615E+04
        30  25  2.104158E+04 -3.284218E+05 -2.740128E+04  7.607126E+03  8.267957E+03  2.399968E+04
        30  26  2.392171E+04 -3.378002E+05 -1.950134E+04  1.034879E+04  7.818030E+03  5.432809E+03
        30  27  1.709883E+04 -3.520220E+05 -2.611817E+04  1.576947E+04  6.906342E+03 -1.313369E+04
        31   1 -2.589816E+04 -5.479093E+05 -6.622877E+04  1.956027E+04 -6.322353E+03  2.393587E+04
        31   2 -4.975078E+04 -5.228271E+05 -9.456368E+04 -2.964779E+04 -4.541820E+03  6.750845E+04
        31   3 -1.571006E+05 -5.242968E+05 -1.721515E+05 -7.604373E+04 -1.243191E+03  1.110806E+05
        31   4 -4.328402E+03 -4.561366E+05 -5.019147E+04  1.188721E+04 -6.322811E+03  2.223160E+04
        31   5 -3.078876E+04 -4.430954E+05 -7.959156E+04  1.049144E+04 -4.538074E+03  6.324832E+04
        31   6 -1.403054E+05 -4.561653E+05 -1.564674E+05  1.190603E+04 -1.228614E+03  1.042642E+05
        31   7  1.724112E+04 -3.643555E+05 -3.415442E+04  4.212986E+03 -6.323228E+03  2.052709E+04
        31   8 -1.182104E+04 -3.633541E+05 -6.461878E+04  5.063595E+04 -4.534880E+03  5.898766E+04
        31   9 -1.234814E+05 -3.880127E+05 -1.407792E+05  9.986553E+04 -1.215972E+03  9.744706E+04
        31  10 -2.589836E+04 -5.479100E+05 -6.622992E+04  1.956039E+04  4.120939E-11 -4.263523E-10
        31  11 -4.975203E+04 -5.228320E+05 -9.457229E+04 -2.964754E+04  2.876461E-11 -1.377180E-10
        31  12 -1.571039E+05 -5.243101E+05 -1.721747E+05 -7.604362E+04 -2.415209E-10  2.695260E-10
        31  13 -4.328578E+03 -4.561372E+05 -5.019247E+04  1.188733E+04  1.002644E-10  6.388030E-11
        31  14 -3.078986E+04 -4.430997E+05 -7.959912E+04  1.049167E+04 -3.747299E-10 -2.617450E-11
        31  15 -1.403083E+05 -4.561770E+05 -1.564878E+05  1.190614E+04 -8.959002E-11  6.769090E-11
        31  16  1.724097E+04 -3.643560E+05 -3.415529E+04  4.213090E+03  4.369567E-11  4.170153E-10
        31  17 -1.182200E+04 -3.633578E+05 -6.462536E+04  5.063616E+04  6.554743E-11  1.335924E-10
        31  18 -1.234840E+05 -3.880229E+05 -1.407971E+05  9.986563E+04 -6.638475E-12 -2.910975E-10
        31  19 -2.589816E+04 -5.479093E+05 -6.622877E+04  1.956027E+04  6.322353E+03 -2.393587E+04
        31  20 -4.975078E+04 -5.228271E+05 -9.456368E+04 -2.964779E+04  4.541820E+03 -6.750845E+04
        31  21 -1.571006E+05 -5.242968E+05 -1.721515E+05 -7.604373E+04  1.243191E+03 -1.110806E+05
        31  22 -4.328402E+03 -4.561366E+05 -5.019147E+04  1.188721E+04  6.322811E+03 -2.223160E+04
        31  23 -3.078876E+04 -4.430954E+05 -7.959156E+04  1.049144E+04  4.538074E+03 -6.324832E+04
        31  24 -1.403054E+05 -4.561653E+05 -1.564674E+05  1.190603E+04  1.228614E+03 -1.042642E+05
        31  25  1.724112E+04 -3.643555E+05 -3.415442E+04  4.212986E+03  6.323228E+03 -2.052709E+04
        31  26 -1.182104E+04 -3.633541E+05 -6.461878E+04  5.063595E+04  4.534880E+03 -5.898766E+04
        31  27 -1.234814E+05 -3.880127E+05 -1.407792E+05  9.986553E+04  1.215972E+03 -9.744706E+04
        32   1  9.571558E+04 -5.504674E+04 -8.146005E+04  8.615721E+04 -2.548964E+04 -1.441298E+04
        32   2  1.227984E+05 -1.793556E+04 -5.518932E+04  9.883091E+04 -1.844060E+04  1.326535E+03
        32   3  1.524312E+05  3.537064E+03 -4.096141E+04  1.113121E+05 -7.150339E+03  1.141335E+04
        32   4  3.007803E+05  1.025772E+05 -1.288849E+04  1.932826E+05 -9.498137E+03 -2.421903E+03
        32   5  3.005046E+05  1.129737E+05 -6.212131E+03  1.906760E+05 -1.194707E+04  6.194865E+03
        32   6  3.048396E+05  1.097934E+05 -3.334927E+03  1.878757E+05 -1.015648E+04  9.159062E+03
        32   7  5.058907E+05  2.602296E+05  5.567899E+04  3.004498E+05  6.500585E+03  9.575167E+03
        32   8  4.782453E+05  2.439027E+05  4.276194E+04  2.825514E+05 -5.451085E+03  1.106515E+04
        32   9  4.572725E+05  2.160617E+05  3.428915E+04  2.644597E+05 -1.316357E+04  6.904078E+03
        32  10  9.571482E+04 -5.504714E+04 -8.146166E+04  8.615691E+04 -3.828905E-09 -2.425317E-09
        32  11  1.227980E+05 -1.793565E+04 -5.518996E+04  9.883093E+04  5.718545E-09  5.698188E-09
        32  12  1.524311E+05  3.536911E+03 -4.096175E+04  1.113122E+05  1.898015E-08  1.567887E-08
        32  13  3.007802E+05  1.025771E+05 -1.288867E+04  1.932826E+05 -3.595276E-10 -5.082742E-10
        32  14  3.005044E+05  1.129737E+05 -6.212472E+03  1.906761E+05  9.296959E-11  2.985811E-10
        32  15  3.048395E+05  1.097933E+05 -3.335278E+03  1.878758E+05  4.932539E-09  4.821697E-09
        32  16  5.058906E+05  2.602295E+05  5.567874E+04  3.004498E+05  2.651661E-09  1.458973E-09
        32  17  4.782452E+05  2.439025E+05  4.276165E+04  2.825514E+05 -5.182798E-09 -5.047715E-09
        32  18  4.572723E+05  2.160617E+05  3.428873E+04  2.644598E+05 -9.040117E-09 -6.035125E-09
        32  19  9.571558E+04 -5.504674E+04 -8.146005E+04  8.615721E+04  2.548964E+04  1.441298E+04
        32  20  1.227984E+05 -1.793556E+04 -5.518932E+04  9.883091E+04  1.844060E+04 -1.326535E+03
        32  21  1.524312E+05  3.537064E+03 -4.096141E+04  1.113121E+05  7.150339E+03 -1.141335E+04
        32  22  3.007803E+05  1.025772E+05 -1.288849E+04  1.932826E+05  9.498137E+03  2.421903E+03
        32  23  3.005046E+05  1.129737E+05 -6.212131E+03  1.906760E+05  1.194707E+04 -6.194865E+03
        32  24  3.048396E+05  1.097934E+05 -3.334927E+03  1.878757E+05  1.015648E+04 -9.159062E+03
        32  25  5.058907E+05  2.602296E+05  5.567899E+04  3.004498E+05 -6.500585E+03 -9.575167E+03
        32  26  4.782453E+05  2.439027E+05  4.276194E+04  2.825514E+05  5.451085E+03 -1.106515E+04
        32  27  4.572725E+05  2.160617E+05  3.428915E+04  2.644597E+05  1.316357E+04 -6.904078E+03
        33   1  1.731049E+05  1.641165E+04 -3.494922E+04  1.211568E+05 -6.594981E+03  1.003706E+04
        33   2  1.983294E+05  4.221650E+04 -2.572185E+04  1.372159E+05 -4.045651E+03  9.363439E+03
        33   3  2.320020E+05  5.868865E+04 -1.769366E+04  1.507810E+05 -1.121872E+03  8.190194E+03
        33   4  3.051517E+05  1.097431E+05 -2.472819E+03  1.881404E+05 -8.956133E+03  8.266532E+03
        33   5  3.009337E+05  1.144893E+05 -1.171970E+03  1.892611E+05 -7.246382E+03  6.963721E+03
        33   6  3.053449E+05  1.100843E+05 -3.418595E+02  1.878870E+05 -5.162298E+03  5.161270E+03
        33   7  4.372187E+05  2.030851E+05  3.000239E+04  2.551405E+05 -1.131796E+04  6.495498E+03
        33   8  4.035512E+05  1.867692E+05  2.337761E+04  2.413169E+05 -1.044785E+04  4.563450E+03
        33   9  3.786955E+05  1.614841E+05  1.701016E+04  2.249988E+05 -9.203435E+03  2.131815E+03
        33  10  1.731048E+05  1.641153E+04 -3.494949E+04  1.211568E+05 -9.077420E-09 -6.075579E-09
        33  11  1.983294E+05  4.221640E+04 -2.572205E+04  1.372159E+05 -5.651425E-09 -5.352194E-09
        33  12  2.320019E+05  5.868858E+04 -1.769379E+04  1.507810E+05  2.404507E-09  1.041797E-09
        33  13  3.051516E+05  1.097430E+05 -2.473099E+03  1.881404E+05  4.663075E-09  4.732998E-09
        33  14  3.009336E+05  1.144892E+05 -1.172160E+03  1.892612E+05 -6.461983E-11  6.749680E-11
        33  15  3.053449E+05  1.100842E+05 -3.419597E+02  1.878871E+05 -4.281798E-10 -7.639695E-10
        33  16  4.372186E+05  2.030851E+05  3.000207E+04  2.551406E+05  1.827641E-08  1.553140E-08
        33  17  4.035511E+05  1.867692E+05  2.337737E+04  2.413169E+05  5.162236E-09  5.363421E-09
        33  18  3.786954E+05  1.614841E+05  1.700999E+04  2.249989E+05 -3.375142E-09 -2.536824E-09
        33  19  1.731049E+05  1.641165E+04 -3.494922E+04  1.211568E+05  6.594981E+03 -1.003706E+04
        33  20  1.983294E+05  4.221650E+04 -2.572185E+04  1.372159E+05  4.045651E+03 -9.363439E+03
        33  21  2.320020E+05  5.868865E+04 -1.769366E+04  1.507810E+05  1.121872E+03 -8.190194E+03
        33  22  3.051517E+05  1.097431E+05 -2.472819E+03  1.881404E+05  8.956133E+03 -8.266532E+03
        33  23  3.009337E+05  1.144893E+05 -1.171970E+03  1.892611E+05  7.246382E+03 -6.963721E+03
        33  24  3.053449E+05  1.100843E+05 -3.418595E+02  1.878870E+05  5.162298E+03 -5.161270E+03
        33  25  4.372187E+05  2.030851E+05  3.000239E+04  2.551405E+05  1.131796E+04 -6.495498E+03
        33  26  4.035512E+05  1.867692E+05  2.337761E+04  2.413169E+05  1.044785E+04 -4.563450E+03
        33  27  3.786955E+05  1.614841E+05  1.701016E+04  2.249988E+05  9.203435E+03 -2.131815E+03
        34   1  2.513166E+05  7.220178E+04 -1.263509E+04  1.605416E+05 -9.784779E+01  6.754606E+03
        34   2  2.762890E+05  9.737504E+04 -4.981521E+03  1.767765E+05  1.402251E+03  4.166551E+03
        34   3  3.102051E+05  1.136968E+05  2.910057E+03  1.904233E+05  2.909610E+03  1.568618E+03
        34   4  3.053787E+05  1.100849E+05  1.099882E+01  1.879176E+05 -4.084557E+03  3.766066E+03
        34   5  3.009149E+05  1.145259E+05  7.532706E+02  1.891992E+05 -2.601092E+03  1.165641E+03
        34   6  3.053979E+05  1.101189E+05  1.748167E+03  1.878922E+05 -1.110345E+03 -1.444657E+03
        34   7  3.594433E+05  1.479691E+05  1.265665E+04  2.152959E+05 -8.071657E+03  7.772343E+02
        34   8  3.255413E+05  1.316770E+05  6.488038E+03  2.016224E+05 -6.604609E+03 -1.835397E+03
        34   9  3.005907E+05  1.065411E+05  5.863713E+02  1.853611E+05 -5.130256E+03 -4.457897E+03
        34  10  2.513166E+05  7.220173E+04 -1.263517E+04  1.605416E+05 -1.833693E-10 -3.764122E-10
        34  11  2.762890E+05  9.737502E+04 -4.981557E+03  1.767765E+05 -3.327152E-11 -3.895329E-10
        34  12  3.102051E+05  1.136968E+05  2.910036E+03  1.904233E+05 -1.240631E-10 -3.471535E-10
        34  13  3.053787E+05  1.100849E+05  1.094080E+01  1.879176E+05 -1.514126E-10 -2.259609E-10
        34  14  3.009149E+05  1.145259E+05  7.532553E+02  1.891992E+05 -1.658271E-10 -3.172266E-10
        34  15  3.053979E+05  1.101189E+05  1.748161E+03  1.878922E+05 -3.353192E-10 -7.533392E-11
        34  16  3.594432E+05  1.479691E+05  1.265653E+04  2.152959E+05  8.642606E-10 -1.055721E-10
        34  17  3.255413E+05  1.316770E+05  6.487950E+03  2.016224E+05  5.024735E-11 -7.288766E-12
        34  18  3.005907E+05  1.065411E+05  5.862846E+02  1.853611E+05  2.571138E-10 -1.092340E-10
        34  19  2.513166E+05  7.220178E+04 -1.263509E+04  1.605416E+05  9.784779E+01 -6.754606E+03
        34  20  2.762890E+05  9.737504E+04 -4.981521E+03  1.767765E+05 -1.402251E+03 -4.166551E+03
        34  21  3.102051E+05  1.136968E+05  2.910057E+03  1.904233E+05 -2.909610E+03 -1.568618E+03
        34  22  3.053787E+05  1.100849E+05  1.099882E+01  1.879176E+05  4.084557E+03 -3.766066E+03
        34  23  3.009149E+05  1.145259E+05  7.532706E+02  1.891992E+05  2.601092E+03 -1.165641E+03
        34  24  3.053979E+05  1.101189E+05  1.748167E+03  1.878922E+05  1.110345E+03  1.444657E+03
        34  25  3.594433E+05  1.479691E+05  1.265665E+04  2.152959E+05  8.071657E+03 -7.772343E+02
        34  26  3.255413E+05  1.316770E+05  6.488038E+03  2.016224E+05  6.604609E+03  1.835397E+03
        34  27  3.005907E+05  1.065411E+05  5.863713E+02  1.853611E+05  5.130256E+03  4.457897E+03
        35   1  3.293307E+05  1.274223E+05  8.275629E+03  2.002862E+05  3.719757E+03 -3.495632E+01
        35   2  3.546801E+05  1.521862E+05  1.739211E+04  2.160923E+05  2.967088E+03 -4.069395E+03
        35   3  3.898117E+05  1.691503E+05  2.879249E+04  2.290416E+05  1.924590E+03 -7.717448E+03
        35   4  3.054498E+05  1.101384E+05  2.417949E+03  1.879689E+05 -3.397580E+02 -3.077923E+03
        35   5  3.009271E+05  1.146398E+05  4.427529E+03  1.889988E+05 -4.426010E+02 -6.625419E+03
        35   6  3.060445E+05  1.111995E+05  8.157421E+03  1.871709E+05 -8.351087E+02 -9.786345E+03
        35   7  2.815692E+05  9.285466E+04 -3.439823E+03  1.756520E+05 -4.399135E+03 -6.120781E+03
        35   8  2.471774E+05  7.709511E+04 -8.537184E+03  1.619081E+05 -3.851895E+03 -9.181150E+03
        35   9  2.222869E+05  5.325384E+04 -1.247761E+04  1.453074E+05 -3.594260E+03 -1.185484E+04
        35  10  3.293307E+05  1.274223E+05  8.275603E+03  2.002862E+05  1.573570E-10 -3.559773E-10
        35  11  3.546801E+05  1.521862E+05  1.739207E+04  2.160923E+05 -2.210550E-10 -2.119718E-10
        35  12  3.898117E+05  1.691503E+05  2.879237E+04  2.290416E+05 -2.894487E-10 -1.531214E-10
        35  13  3.054498E+05  1.101384E+05  2.417931E+03  1.879689E+05 -1.855741E-10 -1.723194E-10
        35  14  3.009271E+05  1.146397E+05  4.427447E+03  1.889988E+05 -3.301323E-11 -1.125821E-10
        35  15  3.060445E+05  1.111994E+05  8.157239E+03  1.871709E+05  4.823113E-10 -8.656611E-11
        35  16  2.815692E+05  9.285462E+04 -3.439930E+03  1.756519E+05 -2.015851E-11 -2.293742E-11
        35  17  2.471774E+05  7.709502E+04 -8.537370E+03  1.619080E+05 -1.043865E-10 -6.008785E-11
        35  18  2.222868E+05  5.325368E+04 -1.247790E+04  1.453073E+05  5.750218E-11 -7.763355E-11
        35  19  3.293307E+05  1.274223E+05  8.275629E+03  2.002862E+05 -3.719757E+03  3.495632E+01
        35  20  3.546801E+05  1.521862E+05  1.739211E+04  2.160923E+05 -2.967088E+03  4.069395E+03
        35  21  3.898117E+05  1.691503E+05  2.879249E+04  2.290416E+05 -1.924590E+03  7.717448E+03
        35  22  3.054498E+05  1.101384E+05  2.417949E+03  1.879689E+05  3.397580E+02  3.077923E+03
        35  23  3.009271E+05  1.146398E+05  4.427529E+03  1.889988E+05  4.426010E+02  6.625419E+03
        35  24  3.060445E+05  1.111995E+05  8.157421E+03  1.871709E+05  8.351087E+02  9.786345E+03
        35  25  2.815692E+05  9.285466E+04 -3.439823E+03  1.756520E+05  4.399135E+03  6.120781E+03
        35  26  2.471774E+05  7.709511E+04 -8.537184E+03  1.619081E+05  3.851895E+03  9.181150E+03
        35  27  2.222869E+05  5.325384E+04 -1.247761E+04  1.453074E+05  3.594260E+03  1.185484E+04
        36   1  4.071773E+05  1.857466E+05  3.641375E+04  2.405659E+05  2.215604E+03 -9.391995E+03
        36   2  4.443396E+05  2.021281E+05  5.556731E+04  2.477631E+05 -1.344143E+04 -2.073129E+04
        36   3  5.036248E+05  2.276974E+05  9.305628E+04  2.453862E+05 -3.239078E+04 -2.768273E+04
        36   4  3.066401E+05  1.114090E+05  1.074085E+04  1.881088E+05 -1.044201E+03 -1.183590E+04
        36   5  3.027153E+05  1.188915E+05  1.956750E+04  1.844370E+05 -9.320485E+03 -1.764252E+04
        36   6  3.193140E+05  1.339648E+05  4.032994E+04  1.711901E+05 -2.088796E+04 -1.906042E+04
        36   7  2.061144E+05  3.707823E+04 -1.493281E+04  1.356616E+05 -4.303304E+03 -1.427924E+04
        36   8  1.611123E+05  3.566150E+04 -1.643422E+04  1.211254E+05 -5.200777E+03 -1.455447E+04
        36   9  1.350373E+05  4.023855E+04 -1.239981E+04  9.701367E+04 -9.389664E+03 -1.044019E+04
        36  10  4.071773E+05  1.857465E+05  3.641358E+04  2.405659E+05 -2.089938E-10 -6.523103E-11
        36  11  4.443393E+05  2.021276E+05  5.556616E+04  2.477629E+05 -4.877230E-10 -2.712559E-11
        36  12  5.036235E+05  2.276963E+05  9.305287E+04  2.453854E+05  1.064094E-10  4.918962E-11
        36  13  3.066401E+05  1.114089E+05  1.074058E+04  1.881088E+05 -1.580375E-10  4.702394E-12
        36  14  3.027152E+05  1.188911E+05  1.956675E+04  1.844368E+05 -3.502801E-11  4.871640E-11
        36  15  3.193134E+05  1.339643E+05  4.032843E+04  1.711897E+05 -3.686326E-10  4.437655E-11
        36  16  2.061144E+05  3.707800E+04 -1.493323E+04  1.356616E+05  2.967153E-10 -5.666474E-11
        36  17  1.611123E+05  3.566127E+04 -1.643466E+04  1.211253E+05  1.488105E-10  3.643299E-11
        36  18  1.350372E+05  4.023841E+04 -1.240018E+04  9.701360E+04 -3.122696E-12  2.493293E-11
        36  19  4.071773E+05  1.857466E+05  3.641375E+04  2.405659E+05 -2.215604E+03  9.391995E+03
        36  20  4.443396E+05  2.021281E+05  5.556731E+04  2.477631E+05  1.344143E+04  2.073129E+04
        36  21  5.036248E+05  2.276974E+05  9.305628E+04  2.453862E+05  3.239078E+04  2.768273E+04
        36  22  3.066401E+05  1.114090E+05  1.074085E+04  1.881088E+05  1.044201E+03  1.183590E+04
        36  23  3.027153E+05  1.188915E+05  1.956750E+04  1.844370E+05  9.320485E+03  1.764252E+04
        36  24  3.193140E+05  1.339648E+05  4.032994E+04  1.711901E+05  2.088796E+04  1.906042E+04
        36  25  2.061144E+05  3.707823E+04 -1.493281E+04  1.356616E+05  4.303304E+03  1.427924E+04
        36  26  1.611123E+05  3.566150E+04 -1.643422E+04  1.211254E+05  5.200777E+03  1.455447E+04
        36  27  1.350373E+05  4.023855E+04 -1.239981E+04  9.701367E+04  9.389664E+03  1.044019E+04
        37   1  5.628863E+05  4.410607E+04  4.901521E+04  2.756161E+04  3.378237E+04  1.498460E+00
        37   2  5.588310E+05  9.697580E+03  2.410540E+04  1.252309E+04  2.134039E+04  4.300959E-01
        37   3  5.628972E+05  1.303809E+03  1.379476E+04 -2.515472E+03  8.898225E+03 -3.602227E-02
        37   4  5.628854E+05  4.410464E+04  4.901501E+04 -1.208644E-10  3.378237E+04 -4.295905E-11
        37   5  5.588308E+05  9.697285E+03  2.410536E+04  9.126927E-10  2.134039E+04 -7.633017E-11
        37   6  5.628972E+05  1.303797E+03  1.379476E+04  5.765809E-10  8.898225E+03 -3.694932E-11
        37   7  5.628863E+05  4.410607E+04  4.901521E+04 -2.756161E+04  3.378237E+04 -1.498460E+00
        37   8  5.588310E+05  9.697580E+03  2.410540E+04 -1.252309E+04  2.134039E+04 -4.300959E-01
        37   9  5.628972E+05  1.303809E+03  1.379476E+04  2.515472E+03  8.898225E+03  3.602227E-02
        37  10  5.628850E+05  4.410576E+04  4.901307E+04  2.756161E+04  7.447349E-11  9.184375E-12
        37  11  5.588305E+05  9.697457E+03  2.410455E+04  1.252309E+04  2.656796E-10 -2.126191E-11
        37  12  5.628971E+05  1.303788E+03  1.379461E+04 -2.515472E+03  2.347481E-10 -1.074616E-10
        37  13  5.628842E+05  4.410434E+04  4.901287E+04  2.736301E-10 -8.417691E-12 -8.931609E-12
        37  14  5.588304E+05  9.697163E+03  2.410451E+04  5.155779E-10  1.496226E-10 -1.694706E-11
        37  15  5.628971E+05  1.303776E+03  1.379461E+04  2.147105E-10 -4.129873E-11  5.542096E-13
        37  16  5.628850E+05  4.410576E+04  4.901307E+04 -2.756161E+04 -1.489685E-10 -8.967112E-12
        37  17  5.588305E+05  9.697457E+03  2.410455E+04 -1.252309E+04  3.853436E-11 -1.966103E-11
        37  18  5.628971E+05  1.303788E+03  1.379461E+04  2.515472E+03 -1.785600E-10  1.050784E-10
        37  19  5.628863E+05  4.410607E+04  4.901521E+04  2.756161E+04 -3.378237E+04 -1.498460E+00
        37  20  5.588310E+05  9.697580E+03  2.410540E+04  1.252309E+04 -2.134039E+04 -4.300959E-01
        37  21  5.628972E+05  1.303809E+03  1.379476E+04 -2.515472E+03 -8.898225E+03  3.602227E-02
        37  22  5.628854E+05  4.410464E+04  4.901501E+04 -2.755102E-10 -3.378237E+04  2.426443E-11
        37  23  5.588308E+05  9.697285E+03  2.410536E+04 -1.555773E-10 -2.134039E+04  3.181935E-11
        37  24  5.628972E+05  1.303797E+03  1.379476E+04  9.373721E-11 -8.898225E+03  3.756695E-11
        37  25  5.628863E+05  4.410607E+04  4.901521E+04 -2.756161E+04 -3.378237E+04  1.498460E+00
        37  26  5.588310E+05  9.697580E+03  2.410540E+04 -1.252309E+04 -2.134039E+04  4.300959E-01
        37  27  5.628972E+05  1.303809E+03  1.379476E+04  2.515472E+03 -8.898225E+03 -3.602227E-02
        38   1  5.612772E+05  1.962127E+03  1.093928E+04  8.876854E+02  7.040660E+03  1.005823E-02
        38   2  5.608601E+05  2.490385E+02  7.242148E+03  3.593087E+02  3.433134E+03  1.985217E-03
        38   3  5.612782E+05 -3.277960E-02  6.258152E+03 -1.690685E+02 -1.743826E+02  4.744763E-05
        38   4  5.612772E+05  1.962126E+03  1.093928E+04 -4.198595E-10  7.040660E+03  3.749356E-11
        38   5  5.608601E+05  2.490382E+02  7.242148E+03  1.545224E-10  3.433134E+03  9.147941E-11
        38   6  5.612782E+05 -3.283327E-02  6.258152E+03 -2.588919E-10 -1.743826E+02 -2.807453E-11
        38   7  5.612772E+05  1.962127E+03  1.093928E+04 -8.876854E+02  7.040660E+03 -1.005823E-02
        38   8  5.608601E+05  2.490385E+02  7.242148E+03 -3.593087E+02  3.433134E+03 -1.985216E-03
        38   9  5.612782E+05 -3.277960E-02  6.258152E+03  1.690685E+02 -1.743826E+02 -4.744769E-05
        38  10  5.612771E+05  1.962114E+03  1.093918E+04  8.876854E+02  1.595426E-10 -7.992348E-11
        38  11  5.608600E+05  2.490353E+02  7.242126E+03  3.593087E+02  7.115486E-11  2.018386E-11
        38  12  5.612782E+05 -3.278775E-02  6.258152E+03 -1.690685E+02  1.911274E-10  6.105756E-11
        38  13  5.612771E+05  1.962113E+03  1.093918E+04  4.617571E-11  1.598243E-10  4.066983E-11
        38  14  5.608600E+05  2.490351E+02  7.242125E+03  1.671372E-11  4.376967E-10  6.926469E-11
        38  15  5.612782E+05 -3.284142E-02  6.258152E+03 -5.555644E-10  1.558155E-10  2.184485E-11
        38  16  5.612771E+05  1.962114E+03  1.093918E+04 -8.876854E+02 -4.382934E-11  1.578005E-10
        38  17  5.608600E+05  2.490353E+02  7.242126E+03 -3.593087E+02 -3.974528E-11  9.560150E-11
        38  18  5.612782E+05 -3.278776E-02  6.258152E+03  1.690685E+02 -7.534105E-11  9.402476E-13
        38  19  5.612772E+05  1.962127E+03  1.093928E+04  8.876854E+02 -7.040660E+03 -1.005823E-02
        38  20  5.608601E+05  2.490385E+02  7.242148E+03  3.593087E+02 -3.433134E+03 -1.985217E-03
        38  21  5.612782E+05 -3.277960E-02  6.258152E+03 -1.690685E+02  1.743826E+02 -4.744760E-05
        38  22  5.612772E+05  1.962126E+03  1.093928E+04 -5.765778E-10 -7.040660E+03  4.869606E-11
        38  23  5.608601E+05  2.490382E+02  7.242148E+03  6.191479E-12 -3.433134E+03  7.045188E-11
        38  24  5.612782E+05 -3.283327E-02  6.258152E+03 -9.889931E-10  1.743826E+02  7.846779E-11
        38  25  5.612772E+05  1.962127E+03  1.093928E+04 -8.876854E+02 -7.040660E+03  1.005823E-02
        38  26  5.608601E+05  2.490385E+02  7.242148E+03 -3.593087E+02 -3.433134E+03  1.985217E-03
        38  27  5.612782E+05 -3.277960E-02  6.258152E+03  1.690685E+02  1.743826E+02  4.744777E-05
        39   1  5.613225E+05 -1.657021E+01  6.511505E+03  3.233341E+02 -1.290313E+03 -6.714221E-04
        39   2  5.608044E+05  3.615600E+02  8.633676E+03 -4.034111E+02 -5.594158E+03  3.631884E-03
        39   3  5.613210E+05  2.639170E+03  1.403091E+04 -1.130144E+03 -9.897955E+03  1.800233E-02
        39   4  5.613225E+05 -1.657040E+01  6.511505E+03 -3.061309E-10 -1.290313E+03  2.313220E-11
        39   5  5.608044E+05  3.615597E+02  8.633676E+03  1.872459E-10 -5.594158E+03  1.952777E-10
        39   6  5.613210E+05  2.639167E+03  1.403091E+04 -4.144732E-10 -9.897955E+03 -2.706158E-11
        39   7  5.613225E+05 -1.657021E+01  6.511505E+03 -3.233341E+02 -1.290313E+03  6.714221E-04
        39   8  5.608044E+05  3.615600E+02  8.633676E+03  4.034111E+02 -5.594158E+03 -3.631884E-03
        39   9  5.613210E+05  2.639170E+03  1.403091E+04  1.130144E+03 -9.897955E+03 -1.800233E-02
        39  10  5.613225E+05 -1.657065E+01  6.511502E+03  3.233341E+02 -6.786684E-11  6.883156E-11
        39  11  5.608044E+05  3.615516E+02  8.633617E+03 -4.034111E+02 -3.415991E-11  1.525493E-10
        39  12  5.613209E+05  2.639144E+03  1.403072E+04 -1.130144E+03  2.035936E-10  1.473915E-10
        39  13  5.613225E+05 -1.657085E+01  6.511502E+03  2.104410E-11  1.683537E-11  1.909052E-11
        39  14  5.608044E+05  3.615513E+02  8.633617E+03 -3.108631E-29 -4.039797E-10  8.289244E-11
        39  15  5.613209E+05  2.639141E+03  1.403072E+04 -1.472782E-10  7.153775E-11  8.645793E-11
        39  16  5.613225E+05 -1.657065E+01  6.511502E+03 -3.233341E+02  9.520931E-11 -2.583954E-11
        39  17  5.608044E+05  3.615516E+02  8.633617E+03  4.034111E+02  1.099201E-10  2.843876E-11
        39  18  5.613209E+05  2.639144E+03  1.403072E+04  1.130144E+03 -1.004914E-10  4.878551E-11
        39  19  5.613225E+05 -1.657021E+01  6.511505E+03  3.233341E+02  1.290313E+03  6.714221E-04
        39  20  5.608044E+05  3.615600E+02  8.633676E+03 -4.034111E+02  5.594158E+03 -3.631884E-03
        39  21  5.613210E+05  2.639170E+03  1.403091E+04 -1.130144E+03  9.897955E+03 -1.800233E-02
        39  22  5.613225E+05 -1.657040E+01  6.511505E+03 -5.975004E-10  1.290313E+03  9.878390E-12
        39  23  5.608044E+05  3.615597E+02  8.633676E+03 -3.113766E-10  5.594158E+03 -3.815565E-11
        39  24  5.613210E+05  2.639167E+03  1.403091E+04 -4.376202E-10  9.897955E+03  2.058573E-10
        39  25  5.613225E+05 -1.657021E+01  6.511505E+03 -3.233341E+02  1.290313E+03 -6.714221E-04
        39  26  5.608044E+05  3.615600E+02  8.633676E+03  4.034111E+02  5.594158E+03  3.631884E-03
        39  27  5.613210E+05  2.639170E+03  1.403091E+04  1.130144E+03  9.897955E+03  1.800233E-02
        40   1  5.634990E+05  1.755258E+03  1.799909E+04  3.399155E+03 -1.228849E+04 -6.722294E-02
        40   2  5.580765E+05  1.295800E+04  3.199100E+04 -1.668987E+04 -2.880449E+04  7.736873E-01
        40   3  5.634847E+05  5.889458E+04  6.541257E+04 -3.677952E+04 -4.532075E+04  2.682589E+00
        40   4  5.634990E+05  1.755237E+03  1.799909E+04 -3.039629E-10 -1.228849E+04 -1.918834E-10
        40   5  5.580762E+05  1.295748E+04  3.199093E+04 -2.440456E-10 -2.880449E+04 -2.176598E-10
        40   6  5.634833E+05  5.889204E+04  6.541221E+04 -7.480013E-10 -4.532075E+04 -4.486248E-11
        40   7  5.634990E+05  1.755258E+03  1.799909E+04 -3.399155E+03 -1.228849E+04  6.722294E-02
        40   8  5.580765E+05  1.295800E+04  3.199100E+04  1.668987E+04 -2.880449E+04 -7.736873E-01
        40   9  5.634847E+05  5.889458E+04  6.541257E+04  3.677952E+04 -4.532075E+04 -2.682589E+00
        40  10  5.634988E+05  1.755218E+03  1.799881E+04  3.399155E+03  2.165557E-10  6.515701E-11
        40  11  5.580756E+05  1.295778E+04  3.198944E+04 -1.668987E+04 -7.414124E-11 -1.077779E-10
        40  12  5.634825E+05  5.889403E+04  6.540871E+04 -3.677952E+04 -2.360607E-10 -4.543824E-11
        40  13  5.634988E+05  1.755196E+03  1.799880E+04 -1.135770E-10  3.078186E-10  3.908668E-11
        40  14  5.580753E+05  1.295725E+04  3.198937E+04  4.081638E-10  4.322848E-10 -3.185676E-11
        40  15  5.634811E+05  5.889149E+04  6.540835E+04 -4.631762E-11  3.286662E-10 -1.999659E-11
        40  16  5.634988E+05  1.755218E+03  1.799881E+04 -3.399155E+03 -1.245473E-10  3.868038E-11
        40  17  5.580756E+05  1.295778E+04  3.198944E+04  1.668987E+04 -3.570909E-11  3.700302E-11
        40  18  5.634825E+05  5.889403E+04  6.540871E+04  3.677952E+04  3.187434E-11  1.693229E-13
        40  19  5.634990E+05  1.755258E+03  1.799909E+04  3.399155E+03  1.228849E+04  6.722294E-02
        40  20  5.580765E+05  1.295800E+04  3.199100E+04 -1.668987E+04  2.880449E+04 -7.736873E-01
        40  21  5.634847E+05  5.889458E+04  6.541257E+04 -3.677952E+04  4.532075E+04 -2.682589E+00
        40  22  5.634990E+05  1.755237E+03  1.799909E+04 -5.911830E-10  1.228849E+04  2.784853E-10
        40  23  5.580762E+05  1.295748E+04  3.199093E+04  2.577327E-10  2.880449E+04  1.498474E-10
        40  24  5.634833E+05  5.889204E+04  6.541221E+04 -1.788613E-10  4.532075E+04  5.526416E-12
        40  25  5.634990E+05  1.755258E+03  1.799909E+04 -3.399155E+03  1.228849E+04 -6.722294E-02
        40  26  5.580765E+05  1.295800E+04  3.199100E+04  1.668987E+04  2.880449E+04  7.736873E-01
        40  27  5.634847E+05  5.889458E+04  6.541257E+04  3.677952E+04  4.532075E+04  2.682589E+00
        41   1 -1.224105E+05 -3.168076E+05 -1.358608E+05  6.166436E+04 -3.313607E+02 -9.312316E+04
        41   2 -3.116195E+04 -3.195762E+05 -7.086245E+04  2.196847E+04 -1.405827E+03 -5.822758E+04
        41   3 -1.153534E+04 -3.447944E+05 -4.649222E+04 -2.092308E+04 -2.445135E+03 -2.333216E+04
        41   4 -1.211267E+05 -3.113690E+05 -1.348534E+05 -1.413048E+04 -3.200279E+02 -9.127410E+04
        41   5 -2.660876E+04 -3.001393E+05 -6.753694E+04 -1.253293E+04 -1.402618E+03 -5.644524E+04
        41   6 -3.706835E+03 -3.113519E+05 -4.080338E+04 -1.412995E+04 -2.445405E+03 -2.161587E+04
        41   7 -1.198212E+05 -3.059180E+05 -1.338430E+05 -8.992600E+04 -3.091468E+02 -8.942502E+04
        41   8 -2.205112E+04 -2.806995E+05 -6.421079E+04 -4.703545E+04 -1.399606E+03 -5.466285E+04
        41   9  4.121781E+03 -2.779081E+05 -3.511454E+04 -7.336437E+03 -2.445637E+03 -1.989949E+04
        41  10 -1.224129E+05 -3.168169E+05 -1.358771E+05  6.166433E+04  2.522724E-11 -4.894772E-10
        41  11 -3.116286E+04 -3.195798E+05 -7.086883E+04  2.196840E+04 -3.583362E-10  1.438310E-10
        41  12 -1.153549E+04 -3.447950E+05 -4.649325E+04 -2.092313E+04 -9.574106E-11  7.127174E-10
        41  13 -1.211289E+05 -3.113780E+05 -1.348691E+05 -1.413050E+04 -1.054304E-10  5.258609E-12
        41  14 -2.660962E+04 -3.001427E+05 -6.754293E+04 -1.253299E+04 -2.541074E-10 -1.774135E-12
        41  15 -3.706967E+03 -3.113524E+05 -4.080427E+04 -1.412999E+04  2.311284E-10  4.856086E-12
        41  16 -1.198233E+05 -3.059266E+05 -1.338580E+05 -8.992602E+04  3.039673E-11  4.946143E-10
        41  17 -2.205192E+04 -2.807027E+05 -6.421641E+04 -4.703551E+04 -1.529486E-10 -1.463592E-10
        41  18  4.121668E+03 -2.779086E+05 -3.511530E+04 -7.336476E+03 -1.906900E-11 -7.161194E-10
        41  19 -1.224105E+05 -3.168076E+05 -1.358608E+05  6.166436E+04  3.313607E+02  9.312316E+04
        41  20 -3.116195E+04 -3.195762E+05 -7.086245E+04  2.196847E+04  1.405827E+03  5.822758E+04
        41  21 -1.153534E+04 -3.447944E+05 -4.649222E+04 -2.092308E+04  2.445135E+03  2.333216E+04
        41  22 -1.211267E+05 -3.113690E+05 -1.348534E+05 -1.413048E+04  3.200279E+02  9.127410E+04
        41  23 -2.660876E+04 -3.001393E+05 -6.753694E+04 -1.253293E+04  1.402618E+03  5.644524E+04
        41  24 -3.706835E+03 -3.113519E+05 -4.080338E+04 -1.412995E+04  2.445405E+03  2.161587E+04
        41  25 -1.198212E+05 -3.059180E+05 -1.338430E+05 -8.992600E+04  3.091468E+02  8.942502E+04
        41  26 -2.205112E+04 -2.806995E+05 -6.421079E+04 -4.703545E+04  1.399606E+03  5.466285E+04
        41  27  4.121781E+03 -2.779081E+05 -3.511454E+04 -7.336437E+03  2.445637E+03  1.989949E+04
        42   1 -1.541139E+04 -3.497239E+05 -4.134694E+04 -1.116338E+04 -3.053820E+03 -1.767750E+04
        42   2 -1.479384E+04 -3.619382E+05 -3.697966E+04 -1.243817E+04 -3.976124E+03 -3.716571E+03
        42   3 -2.114712E+04 -3.777132E+05 -4.344707E+04 -1.688993E+04 -4.663903E+03  1.024412E+04
        42   4 -5.430080E+03 -3.071427E+05 -3.403776E+04 -1.412610E+04 -3.053737E+03 -1.593268E+04
        42   5 -1.522819E+03 -3.053966E+05 -2.718751E+04 -1.253762E+04 -3.976090E+03 -2.364846E+03
        42   6 -4.517774E+03 -3.071429E+05 -3.089839E+04 -1.412618E+04 -4.663802E+03  1.120304E+04
        42   7  4.551170E+03 -2.645596E+05 -2.672863E+04 -1.708902E+04 -3.053670E+03 -1.418774E+04
        42   8  1.174803E+04 -2.488518E+05 -1.739547E+04 -1.263709E+04 -3.976058E+03 -1.013001E+03
        42   9  1.211133E+04 -2.365677E+05 -1.834989E+04 -1.136210E+04 -4.663692E+03  1.216207E+04
        42  10 -1.541149E+04 -3.497243E+05 -4.134754E+04 -1.116342E+04 -1.939064E-10 -8.027039E-11
        42  11 -1.479387E+04 -3.619382E+05 -3.697972E+04 -1.243818E+04  1.976516E-11 -2.048254E-11
        42  12 -2.114717E+04 -3.777133E+05 -4.344731E+04 -1.688990E+04 -8.082701E-11  5.201420E-11
        42  13 -5.430158E+03 -3.071429E+05 -3.403825E+04 -1.412613E+04  6.986056E-12 -2.149026E-11
        42  14 -1.522838E+03 -3.053966E+05 -2.718755E+04 -1.253763E+04  6.969347E-11  1.083558E-11
        42  15 -4.517832E+03 -3.071430E+05 -3.089867E+04 -1.412613E+04 -1.888004E-11 -8.036834E-12
        42  16  4.551106E+03 -2.645598E+05 -2.672903E+04 -1.708906E+04  3.279708E-10  9.513578E-11
        42  17  1.174802E+04 -2.488518E+05 -1.739550E+04 -1.263709E+04 -2.949949E-10  2.890496E-11
        42  18  1.211126E+04 -2.365679E+05 -1.835021E+04 -1.136205E+04 -7.681071E-11 -5.045280E-11
        42  19 -1.541139E+04 -3.497239E+05 -4.134694E+04 -1.116338E+04  3.053820E+03  1.767750E+04
        42  20 -1.479384E+04 -3.619382E+05 -3.697966E+04 -1.243817E+04  3.976124E+03  3.716571E+03
        42  21 -2.114712E+04 -3.777132E+05 -4.344707E+04 -1.688993E+04  4.663903E+03 -1.024412E+04
        42  22 -5.430080E+03 -3.071427E+05 -3.403776E+04 -1.412610E+04  3.053737E+03  1.593268E+04
        42  23 -1.522819E+03 -3.053966E+05 -2.718751E+04 -1.253762E+04  3.976090E+03  2.364846E+03
        42  24 -4.517774E+03 -3.071429E+05 -3.089839E+04 -1.412618E+04  4.663802E+03 -1.120304E+04
        42  25  4.551170E+03 -2.645596E+05 -2.672863E+04 -1.708902E+04  3.053670E+03  1.418774E+04
        42  26  1.174803E+04 -2.488518E+05 -1.739547E+04 -1.263709E+04  3.976058E+03  1.013001E+03
        42  27  1.211133E+04 -2.365677E+05 -1.834989E+04 -1.136210E+04  4.663692E+03 -1.216207E+04
        43   1 -2.195844E+04 -3.903696E+05 -5.021846E+04 -8.531995E+03 -5.148194E+03  1.506442E+04
        43   2 -4.457483E+04 -3.945903E+05 -7.559759E+04 -4.150707E+04 -4.589768E+03  4.895829E+04
        43   3 -1.278230E+05 -4.183842E+05 -1.382076E+05 -7.748172E+04 -1.418993E+03  8.285043E+04
        43   4 -3.121096E+03 -3.105458E+05 -3.588541E+04 -1.408797E+04 -5.148250E+03  1.632214E+04
        43   5 -2.220724E+04 -3.011481E+05 -5.724629E+04 -1.258533E+04 -4.587541E+03  4.582671E+04
        43   6 -1.011621E+05 -3.105610E+05 -1.127865E+05 -1.408451E+04 -1.410899E+03  7.533065E+04
        43   7  1.571601E+04 -2.307157E+05 -2.155257E+04 -1.964468E+04 -5.148327E+03  1.758002E+04
        43   8  1.629789E+02 -2.076958E+05 -3.889493E+04  1.634086E+04 -4.585607E+03  4.269466E+04
        43   9 -7.448698E+04 -2.027184E+05 -8.736390E+04  4.932377E+04 -1.404343E+03  6.780956E+04
        43  10 -2.195853E+04 -3.903698E+05 -5.021894E+04 -8.531932E+03  8.897037E-11 -2.578351E-10
        43  11 -4.457550E+04 -3.945929E+05 -7.560214E+04 -4.150689E+04 -1.475371E-10  6.577336E-11
        43  12 -1.278248E+05 -4.183916E+05 -1.382205E+05 -7.748162E+04  8.918499E-11  3.142707E-10
        43  13 -3.121196E+03 -3.105461E+05 -3.588596E+04 -1.408790E+04 -1.152027E-10  2.327548E-11
        43  14 -2.220782E+04 -3.011504E+05 -5.725028E+04 -1.258516E+04  9.620380E-12  1.227002E-11
        43  15 -1.011636E+05 -3.105671E+05 -1.127972E+05 -1.408443E+04 -2.866597E-10 -8.198179E-12
        43  16  1.571590E+04 -2.307161E+05 -2.155320E+04 -1.964461E+04 -1.891680E-10  2.955068E-10
        43  17  1.624668E+02 -2.076978E+05 -3.889840E+04  1.634102E+04 -4.125615E-10 -8.165998E-11
        43  18 -7.448821E+04 -2.027233E+05 -8.737254E+04  4.932385E+04 -2.022597E-11 -3.099869E-10
        43  19 -2.195844E+04 -3.903696E+05 -5.021846E+04 -8.531995E+03  5.148194E+03 -1.506442E+04
        43  20 -4.457483E+04 -3.945903E+05 -7.559759E+04 -4.150707E+04  4.589768E+03 -4.895829E+04
        43  21 -1.278230E+05 -4.183842E+05 -1.382076E+05 -7.748172E+04  1.418993E+03 -8.285043E+04
        43  22 -3.121096E+03 -3.105458E+05 -3.588541E+04 -1.408797E+04  5.148250E+03 -1.632214E+04
        43  23 -2.220724E+04 -3.011481E+05 -5.724629E+04 -1.258533E+04  4.587541E+03 -4.582671E+04
        43  24 -1.011621E+05 -3.105610E+05 -1.127865E+05 -1.408451E+04  1.410899E+03 -7.533065E+04
        43  25  1.571601E+04 -2.307157E+05 -2.155257E+04 -1.964468E+04  5.148327E+03 -1.758002E+04
        43  26  1.629789E+02 -2.076958E+05 -3.889493E+04  1.634086E+04  4.585607E+03 -4.269466E+04
        43  27 -7.448698E+04 -2.027184E+05 -8.736390E+04  4.932377E+04  1.404343E+03 -6.780956E+04
        44   1  6.991452E+04 -3.456934E+04 -5.478270E+04  6.118784E+04 -1.792846E+04 -1.050197E+04
        44   2  8.741772E+04 -8.067665E+03 -3.632670E+04  6.869050E+04 -1.275103E+04 -9.747043E+01
        44   3  1.056246E+05  7.035024E+03 -2.649914E+04  7.664648E+04 -4.902539E+03  6.746196E+03
        44   4  1.970112E+05  6.649564E+04 -1.162974E+04  1.291291E+05 -7.923751E+03 -2.999546E+03
        44   5  1.978397E+05  7.479956E+04 -5.625941E+03  1.264627E+05 -8.728978E+03  2.918315E+03
        44   6  2.006708E+05  7.300335E+04 -3.057656E+03  1.242492E+05 -6.863677E+03  5.275494E+03
        44   7  3.241229E+05  1.675705E+05  3.152069E+04  1.970857E+05  2.083547E+03  4.505156E+03
        44   8  3.082744E+05  1.576742E+05  2.507336E+04  1.842465E+05 -4.706004E+03  5.934852E+03
        44   9  2.957273E+05  1.389768E+05  2.038317E+04  1.718602E+05 -8.825217E+03  3.804498E+03
        44  10  6.991414E+04 -3.456955E+04 -5.478351E+04  6.118769E+04  3.628831E-10  1.518937E-10
        44  11  8.741755E+04 -8.067709E+03 -3.632700E+04  6.869050E+04  2.025273E-10 -2.293533E-10
        44  12  1.056245E+05  7.034969E+03 -2.649927E+04  7.664651E+04 -2.459935E-11 -3.647811E-10
        44  13  1.970111E+05  6.649561E+04 -1.162987E+04  1.291291E+05  5.817861E-11 -6.932778E-11
        44  14  1.978396E+05  7.479953E+04 -5.626100E+03  1.264627E+05  2.271976E-11 -1.922987E-10
        44  15  2.006707E+05  7.300331E+04 -3.057797E+03  1.242492E+05  5.172732E-11 -7.364726E-11
        44  16  3.241228E+05  1.675705E+05  3.152064E+04  1.970857E+05 -3.807607E-10 -2.951552E-10
        44  17  3.082743E+05  1.576742E+05  2.507325E+04  1.842465E+05 -1.062170E-10 -1.713694E-10
        44  18  2.957272E+05  1.389768E+05  2.038300E+04  1.718603E+05  1.832833E-10  1.245679E-10
        44  19  6.991452E+04 -3.456934E+04 -5.478270E+04  6.118784E+04  1.792846E+04  1.050197E+04
        44  20  8.741772E+04 -8.067665E+03 -3.632670E+04  6.869050E+04  1.275103E+04  9.747043E+01
        44  21  1.056246E+05  7.035024E+03 -2.649914E+04  7.664648E+04  4.902539E+03 -6.746196E+03
        44  22  1.970112E+05  6.649564E+04 -1.162974E+04  1.291291E+05  7.923751E+03  2.999546E+03
        44  23  1.978397E+05  7.479956E+04 -5.625941E+03  1.264627E+05  8.728978E+03 -2.918315E+03
        44  24  2.006708E+05  7.300335E+04 -3.057656E+03  1.242492E+05  6.863677E+03 -5.275494E+03
        44  25  3.241229E+05  1.675705E+05  3.152069E+04  1.970857E+05 -2.083547E+03 -4.505156E+03
        44  26  3.082744E+05  1.576742E+05  2.507336E+04  1.842465E+05  4.706004E+03 -5.934852E+03
        44  27  2.957273E+05  1.389768E+05  2.038317E+04  1.718602E+05  8.825217E+03 -3.804498E+03
        45   1  1.192516E+05  1.514290E+04 -2.241937E+04  8.301757E+04 -4.433729E+03  5.931740E+03
        45   2  1.355724E+05  3.193376E+04 -1.619559E+04  9.336376E+04 -2.622151E+03  5.598606E+03
        45   3  1.572914E+05  4.261782E+04 -1.089445E+04  1.021186E+05 -5.746674E+02  4.950827E+03
        45   4  2.009257E+05  7.298245E+04 -2.298010E+03  1.244955E+05 -5.988850E+03  4.765551E+03
        45   5  1.982567E+05  7.613241E+04 -1.178455E+03  1.251768E+05 -4.705947E+03  4.036102E+03
        45   6  2.010996E+05  7.329005E+04 -5.228452E+02  1.242665E+05 -3.187220E+03  2.991997E+03
        45   7  2.826089E+05  1.308271E+05  1.782338E+04  1.659804E+05 -7.544272E+03  3.599135E+03
        45   8  2.609455E+05  1.203335E+05  1.383845E+04  1.569936E+05 -6.790023E+03  2.473386E+03
        45   9  2.449092E+05  1.039629E+05  9.848410E+03  1.464157E+05 -5.799974E+03  1.033017E+03
        45  10  1.192516E+05  1.514285E+04 -2.241947E+04  8.301759E+04 -1.709294E-10 -1.467679E-10
        45  11  1.355724E+05  3.193373E+04 -1.619566E+04  9.336377E+04 -2.702378E-10  1.149326E-10
        45  12  1.572914E+05  4.261780E+04 -1.089450E+04  1.021186E+05  9.735254E-11  1.866354E-10
        45  13  2.009256E+05  7.298241E+04 -2.298120E+03  1.244955E+05  3.070029E-10 -1.316339E-11
        45  14  1.982567E+05  7.613239E+04 -1.178528E+03  1.251769E+05 -2.092186E-11  1.272761E-10
        45  15  2.010996E+05  7.329004E+04 -5.228811E+02  1.242665E+05  9.492045E-11  4.280306E-12
        45  16  2.826089E+05  1.308271E+05  1.782325E+04  1.659804E+05 -2.174321E-10  1.777798E-10
        45  17  2.609455E+05  1.203334E+05  1.383835E+04  1.569937E+05  8.911129E-11  1.247452E-11
        45  18  2.449092E+05  1.039629E+05  9.848345E+03  1.464157E+05 -7.800364E-11 -9.581264E-11
        45  19  1.192516E+05  1.514290E+04 -2.241937E+04  8.301757E+04  4.433729E+03 -5.931740E+03
        45  20  1.355724E+05  3.193376E+04 -1.619559E+04  9.336376E+04  2.622151E+03 -5.598606E+03
        45  21  1.572914E+05  4.261782E+04 -1.089445E+04  1.021186E+05  5.746674E+02 -4.950827E+03
        45  22  2.009257E+05  7.298245E+04 -2.298010E+03  1.244955E+05  5.988850E+03 -4.765551E+03
        45  23  1.982567E+05  7.613241E+04 -1.178455E+03  1.251768E+05  4.705947E+03 -4.036102E+03
        45  24  2.010996E+05  7.329005E+04 -5.228452E+02  1.242665E+05  3.187220E+03 -2.991997E+03
        45  25  2.826089E+05  1.308271E+05  1.782338E+04  1.659804E+05  7.544272E+03 -3.599135E+03
        45  26  2.609455E+05  1.203335E+05  1.383845E+04  1.569936E+05  6.790023E+03 -2.473386E+03
        45  27  2.449092E+05  1.039629E+05  9.848410E+03  1.464157E+05  5.799974E+03 -1.033017E+03
        46   1  1.697924E+05  5.133637E+04 -7.604175E+03  1.084260E+05  1.299606E+02  4.054329E+03
        46   2  1.859466E+05  6.761059E+04 -2.679298E+03  1.189202E+05  1.217682E+03  2.468754E+03
        46   3  2.078619E+05  7.814484E+04  2.300189E+03  1.277385E+05  2.309093E+03  8.782409E+02
        46   4  2.011236E+05  7.329025E+04 -2.738449E+02  1.242897E+05 -2.448905E+03  2.120807E+03
        46   5  1.982478E+05  7.616897E+04  1.845485E+02  1.251209E+05 -1.369543E+03  5.289831E+02
        46   6  2.011344E+05  7.330920E+04  7.047636E+02  1.242758E+05 -2.864850E+02 -1.067784E+03
        46   7  2.324559E+05  9.524475E+04  7.056471E+03  1.401544E+05 -5.027946E+03  1.871548E+02
        46   8  2.105493E+05  8.472754E+04  3.048466E+03  1.313219E+05 -3.956861E+03 -1.410857E+03
        46   9  1.944069E+05  6.847352E+04 -8.906687E+02  1.208132E+05 -2.882072E+03 -3.013816E+03
        46  10  1.697924E+05  5.133635E+04 -7.604206E+03  1.084260E+05  2.790436E-10  1.299803E-10
        46  11  1.859466E+05  6.761058E+04 -2.679313E+03  1.189202E+05 -5.163142E-11 -5.856125E-11
        46  12  2.078619E+05  7.814484E+04  2.300178E+03  1.277385E+05 -2.581200E-10 -1.850296E-10
        46  13  2.011236E+05  7.329024E+04 -2.738647E+02  1.242897E+05 -2.429120E-10 -4.848596E-11
        46  14  1.982478E+05  7.616897E+04  1.845444E+02  1.251209E+05 -3.121762E-10 -2.026469E-10
        46  15  2.011344E+05  7.330920E+04  7.047613E+02  1.242758E+05  7.660838E-12 -1.101121E-11
        46  16  2.324559E+05  9.524474E+04  7.056423E+03  1.401544E+05 -5.883037E-11 -2.455091E-10
        46  17  2.105492E+05  8.472754E+04  3.048433E+03  1.313219E+05 -5.182906E-11 -2.017712E-10
        46  18  1.944069E+05  6.847351E+04 -8.907013E+02  1.208132E+05  4.926912E-10  5.615542E-11
        46  19  1.697924E+05  5.133637E+04 -7.604175E+03  1.084260E+05 -1.299606E+02 -4.054329E+03
        46  20  1.859466E+05  6.761059E+04 -2.679298E+03  1.189202E+05 -1.217682E+03 -2.468754E+03
        46  21  2.078619E+05  7.814484E+04  2.300189E+03  1.277385E+05 -2.309093E+03 -8.782409E+02
        46  22  2.011236E+05  7.329025E+04 -2.738449E+02  1.242897E+05  2.448905E+03 -2.120807E+03
        46  23  1.982478E+05  7.616897E+04  1.845485E+02  1.251209E+05  1.369543E+03 -5.289831E+02
        46  24  2.011344E+05  7.330920E+04  7.047636E+02  1.242758E+05  2.864850E+02  1.067784E+03
        46  25  2.324559E+05  9.524475E+04  7.056471E+03  1.401544E+05  5.027946E+03 -1.871548E+02
        46  26  2.105493E+05  8.472754E+04  3.048466E+03  1.313219E+05  3.956861E+03  1.410857E+03
        46  27  1.944069E+05  6.847352E+04 -8.906687E+02  1.208132E+05  2.882072E+03  3.013816E+03
        47   1  2.202478E+05  8.698386E+04  5.663799E+03  1.340915E+05  2.900808E+03 -1.068368E+02
        47   2  2.365623E+05  1.030632E+05  1.120841E+04  1.443817E+05  2.750714E+03 -2.455043E+03
        47   3  2.590521E+05  1.139245E+05  1.789940E+04  1.528759E+05  2.407054E+03 -4.545079E+03
        47   4  2.011576E+05  7.331948E+04  1.031488E+03  1.243123E+05  2.785949E+02 -2.072847E+03
        47   5  1.982522E+05  7.621638E+04  1.975751E+03  1.250293E+05  5.624615E+02 -4.095743E+03
        47   6  2.014280E+05  7.380134E+04  3.690132E+03  1.239502E+05  6.527942E+02 -5.860442E+03
        47   7  1.820682E+05  5.965559E+04 -3.600686E+03  1.145337E+05 -2.343463E+03 -4.038739E+03
        47   8  1.599442E+05  4.937074E+04 -7.256850E+03  1.056785E+05 -1.625589E+03 -5.736294E+03
        47   9  1.438077E+05  3.368018E+04 -1.051935E+04  9.502753E+04 -1.101246E+03 -7.175643E+03
        47  10  2.202478E+05  8.698386E+04  5.663783E+03  1.340915E+05  1.195586E-10 -2.896780E-12
        47  11  2.365622E+05  1.030632E+05  1.120838E+04  1.443817E+05 -1.161672E-10 -4.880315E-11
        47  12  2.590521E+05  1.139244E+05  1.789935E+04  1.528759E+05 -2.176011E-10 -4.683218E-11
        47  13  2.011576E+05  7.331947E+04  1.031480E+03  1.243123E+05 -1.779213E-10  5.443959E-11
        47  14  1.982522E+05  7.621636E+04  1.975719E+03  1.250293E+05 -1.142515E-10 -1.089689E-10
        47  15  2.014279E+05  7.380131E+04  3.690067E+03  1.239502E+05  1.312227E-10  7.770881E-11
        47  16  1.820682E+05  5.965557E+04 -3.600726E+03  1.145337E+05 -5.073267E-11 -1.001780E-10
        47  17  1.599442E+05  4.937070E+04 -7.256916E+03  1.056785E+05 -1.167991E-10 -6.330192E-11
        47  18  1.438077E+05  3.368013E+04 -1.051945E+04  9.502752E+04  1.051290E-10  3.014789E-11
        47  19  2.202478E+05  8.698386E+04  5.663799E+03  1.340915E+05 -2.900808E+03  1.068368E+02
        47  20  2.365623E+05  1.030632E+05  1.120841E+04  1.443817E+05 -2.750714E+03  2.455043E+03
        47  21  2.590521E+05  1.139245E+05  1.789940E+04  1.528759E+05 -2.407054E+03  4.545079E+03
        47  22  2.011576E+05  7.331948E+04  1.031488E+03  1.243123E+05 -2.785949E+02  2.072847E+03
        47  23  1.982522E+05  7.621638E+04  1.975751E+03  1.250293E+05 -5.624615E+02  4.095743E+03
        47  24  2.014280E+05  7.380134E+04  3.690132E+03  1.239502E+05 -6.527942E+02  5.860442E+03
        47  25  1.820682E+05  5.965559E+04 -3.600686E+03  1.145337E+05  2.343463E+03  4.038739E+03
        47  26  1.599442E+05  4.937074E+04 -7.256850E+03  1.056785E+05  1.625589E+03  5.736294E+03
        47  27  1.438077E+05  3.368018E+04 -1.051935E+04  9.502753E+04  1.101246E+03  7.175643E+03
        48   1  2.706609E+05  1.241208E+05  2.234534E+04  1.600016E+05  2.819026E+03 -5.452315E+03
        48   2  2.923315E+05  1.363676E+05  3.311967E+04  1.662431E+05 -5.948879E+03 -1.167902E+04
        48   3  3.260339E+05  1.515117E+05  5.359586E+04  1.676540E+05 -1.691462E+04 -1.497626E+04
        48   4  2.016834E+05  7.391296E+04  4.871584E+03  1.243822E+05  7.308756E+02 -7.018085E+03
        48   5  1.990855E+05  7.812956E+04  8.896304E+03  1.229481E+05 -3.111655E+03 -9.551811E+03
        48   6  2.074512E+05  8.417572E+04  1.835020E+04  1.166828E+05 -9.151518E+03 -9.155543E+03
        48   7  1.327102E+05  2.370734E+04 -1.260294E+04  8.876693E+04 -1.357001E+03 -8.583639E+03
        48   8  1.058493E+05  1.989526E+04 -1.532774E+04  7.966019E+04 -2.750088E+02 -7.424967E+03
        48   9  8.888591E+04  1.684530E+04 -1.689594E+04  6.572245E+04 -1.390598E+03 -3.336062E+03
        48  10  2.706608E+05  1.241207E+05  2.234527E+04  1.600016E+05  4.887331E-11  1.149908E-10
        48  11  2.923315E+05  1.363674E+05  3.311934E+04  1.662431E+05 -1.075917E-10  1.932297E-11
        48  12  3.260336E+05  1.515114E+05  5.359490E+04  1.676538E+05 -1.742325E-10 -8.451306E-11
        48  13  2.016834E+05  7.391291E+04  4.871490E+03  1.243822E+05 -1.609079E-10 -8.974923E-12
        48  14  1.990855E+05  7.812946E+04  8.896114E+03  1.229481E+05  2.534854E-10 -4.623351E-11
        48  15  2.074511E+05  8.417560E+04  1.834988E+04  1.166828E+05 -3.651119E-11 -1.444937E-11
        48  16  1.327102E+05  2.370726E+04 -1.260309E+04  8.876692E+04 -1.334365E-10 -1.247544E-10
        48  17  1.058493E+05  1.989520E+04 -1.532784E+04  7.966019E+04  3.671759E-11 -1.101299E-10
        48  18  8.888591E+04  1.684529E+04 -1.689596E+04  6.572245E+04  2.990223E-10  3.908989E-11
        48  19  2.706609E+05  1.241208E+05  2.234534E+04  1.600016E+05 -2.819026E+03  5.452315E+03
        48  20  2.923315E+05  1.363676E+05  3.311967E+04  1.662431E+05  5.948879E+03  1.167902E+04
        48  21  3.260339E+05  1.515117E+05  5.359586E+04  1.676540E+05  1.691462E+04  1.497626E+04
        48  22  2.016834E+05  7.391296E+04  4.871584E+03  1.243822E+05 -7.308756E+02  7.018085E+03
        48  23  1.990855E+05  7.812956E+04  8.896304E+03  1.229481E+05  3.111655E+03  9.551811E+03
        48  24  2.074512E+05  8.417572E+04  1.835020E+04  1.166828E+05  9.151518E+03  9.155543E+03
        48  25  1.327102E+05  2.370734E+04 -1.260294E+04  8.876693E+04  1.357001E+03  8.583639E+03
        48  26  1.058493E+05  1.989526E+04 -1.532774E+04  7.966019E+04  2.750088E+02  7.424967E+03
        48  27  8.888591E+04  1.684530E+04 -1.689594E+04  6.572245E+04  1.390598E+03  3.336062E+03
        49   1  4.198480E+05  3.175399E+04  3.528739E+04  1.983999E+04  2.432387E+04  7.768187E-01
        49   2  4.169273E+05  6.981198E+03  1.734938E+04  9.013881E+03  1.536910E+04  2.230008E-01
        49   3  4.198539E+05  9.385899E+02  9.921209E+03 -1.812131E+03  6.414325E+03 -1.871046E-02
        49   4  4.198476E+05  3.175325E+04  3.528728E+04 -3.944693E-10  2.432387E+04  3.821083E-12
        49   5  4.169272E+05  6.981045E+03  1.734936E+04  1.882894E-10  1.536910E+04  1.198089E-11
        49   6  4.198539E+05  9.385838E+02  9.921208E+03 -5.953864E-10  6.414325E+03 -6.241809E-11
        49   7  4.198480E+05  3.175399E+04  3.528739E+04 -1.983999E+04  2.432387E+04 -7.768187E-01
        49   8  4.169273E+05  6.981198E+03  1.734938E+04 -9.013881E+03  1.536910E+04 -2.230008E-01
        49   9  4.198539E+05  9.385899E+02  9.921209E+03  1.812131E+03  6.414325E+03  1.871046E-02
        49  10  4.198474E+05  3.175383E+04  3.528627E+04  1.983999E+04 -2.415692E-10  4.945129E-11
        49  11  4.169271E+05  6.981135E+03  1.734894E+04  9.013881E+03 -1.341807E-10  6.383984E-11
        49  12  4.198538E+05  9.385789E+02  9.921131E+03 -1.812131E+03  3.730115E-11 -7.336680E-11
        49  13  4.198469E+05  3.175309E+04  3.528617E+04  3.597716E-10  2.735016E-10  4.149826E-11
        49  14  4.169270E+05  6.980982E+03  1.734891E+04 -1.672587E-10 -3.580064E-10  8.521733E-11
        49  15  4.198538E+05  9.385727E+02  9.921130E+03  3.386860E-10  2.491447E-10 -3.150352E-11
        49  16  4.198474E+05  3.175383E+04  3.528627E+04 -1.983999E+04  4.380779E-11  3.915501E-11
        49  17  4.169271E+05  6.981135E+03  1.734894E+04 -9.013881E+03  3.187883E-11  9.477258E-11
        49  18  4.198538E+05  9.385789E+02  9.921131E+03  1.812131E+03  2.722714E-11  5.802283E-12
        49  19  4.198480E+05  3.175399E+04  3.528739E+04  1.983999E+04 -2.432387E+04 -7.768187E-01
        49  20  4.169273E+05  6.981198E+03  1.734938E+04  9.013881E+03 -1.536910E+04 -2.230008E-01
        49  21  4.198539E+05  9.385899E+02  9.921209E+03 -1.812131E+03 -6.414325E+03  1.871046E-02
        49  22  4.198476E+05  3.175325E+04  3.528728E+04 -3.691999E-10 -2.432387E+04  8.337664E-11
        49  23  4.169272E+05  6.981045E+03  1.734936E+04  1.456780E-10 -1.536910E+04  1.558877E-10
        49  24  4.198539E+05  9.385838E+02  9.921208E+03 -4.948770E-11 -6.414325E+03 -2.388131E-13
        49  25  4.198480E+05  3.175399E+04  3.528739E+04 -1.983999E+04 -2.432387E+04  7.768187E-01
        49  26  4.169273E+05  6.981198E+03  1.734938E+04 -9.013881E+03 -1.536910E+04  2.230008E-01
        49  27  4.198539E+05  9.385899E+02  9.921209E+03  1.812131E+03 -6.414325E+03 -1.871046E-02
        50   1  4.186873E+05  1.412943E+03  7.861965E+03  6.376826E+02  5.079316E+03  5.213801E-03
        50   2  4.183878E+05  1.799060E+02  5.189838E+03  2.568782E+02  2.494159E+03  1.031326E-03
        50   3  4.186878E+05 -4.149990E-01  4.463087E+03 -1.239209E+02 -9.095498E+01  1.814318E-05
        50   4  4.186873E+05  1.412943E+03  7.861965E+03 -6.679836E-10  5.079316E+03 -1.115309E-10
        50   5  4.183878E+05  1.799059E+02  5.189838E+03 -1.041453E-10  2.494159E+03 -1.385431E-10
        50   6  4.186878E+05 -4.150278E-01  4.463087E+03 -1.261083E-11 -9.095498E+01 -6.535249E-11
        50   7  4.186873E+05  1.412943E+03  7.861965E+03 -6.376826E+02  5.079316E+03 -5.213801E-03
        50   8  4.183878E+05  1.799060E+02  5.189838E+03 -2.568782E+02  2.494159E+03 -1.031326E-03
        50   9  4.186878E+05 -4.149990E-01  4.463087E+03  1.239209E+02 -9.095498E+01 -1.814332E-05
        50  10  4.186872E+05  1.412936E+03  7.861917E+03  6.376826E+02 -4.939799E-10 -1.550661E-10
        50  11  4.183878E+05  1.799044E+02  5.189827E+03  2.568782E+02 -6.337520E-11 -1.131128E-10
        50  12  4.186878E+05 -4.150012E-01  4.463087E+03 -1.239209E+02 -4.050568E-11 -3.696036E-11
        50  13  4.186872E+05  1.412936E+03  7.861917E+03  1.114757E-10  2.608738E-10 -1.080122E-10
        50  14  4.183878E+05  1.799042E+02  5.189827E+03 -1.556859E-10  2.457665E-29 -1.130630E-10
        50  15  4.186878E+05 -4.150300E-01  4.463087E+03  2.861388E-10 -1.994435E-10 -5.011475E-11
        50  16  4.186872E+05  1.412936E+03  7.861917E+03 -6.376826E+02  4.138581E-10 -6.052185E-11
        50  17  4.183878E+05  1.799044E+02  5.189827E+03 -2.568782E+02  5.512722E-11 -1.017784E-10
        50  18  4.186878E+05 -4.150012E-01  4.463087E+03  1.239209E+02  7.482892E-11 -7.223699E-11
        50  19  4.186873E+05  1.412943E+03  7.861965E+03  6.376826E+02 -5.079316E+03 -5.213801E-03
        50  20  4.183878E+05  1.799060E+02  5.189838E+03  2.568782E+02 -2.494159E+03 -1.031326E-03
        50  21  4.186878E+05 -4.149990E-01  4.463087E+03 -1.239209E+02  9.095498E+01 -1.814329E-05
        50  22  4.186873E+05  1.412943E+03  7.861965E+03  9.885112E-11 -5.079316E+03 -1.019196E-10
        50  23  4.183878E+05  1.799059E+02  5.189838E+03 -2.051224E-10 -2.494159E+03 -8.386135E-11
        50  24  4.186878E+05 -4.150278E-01  4.463087E+03 -3.386864E-10  9.095498E+01 -3.977515E-11
        50  25  4.186873E+05  1.412943E+03  7.861965E+03 -6.376826E+02 -5.079316E+03  5.213801E-03
        50  26  4.183878E+05  1.799060E+02  5.189838E+03 -2.568782E+02 -2.494159E+03  1.031326E-03
        50  27  4.186878E+05 -4.149990E-01  4.463087E+03  1.239209E+02  9.095498E+01  1.814326E-05
        51   1  4.187174E+05 -1.144858E+01  4.632057E+03  2.267934E+02 -8.857309E+02 -3.233528E-04
        51   2  4.183507E+05  2.549426E+02  6.117907E+03 -2.862857E+02 -3.935218E+03  1.813482E-03
        51   3  4.187166E+05  1.864492E+03  9.923927E+03 -7.993719E+02 -6.984759E+03  8.987625E-03
        51   4  4.187174E+05 -1.144868E+01  4.632057E+03 -9.994809E-11 -8.857309E+02 -3.963368E-12
        51   5  4.183507E+05  2.549424E+02  6.117907E+03  5.283065E-12 -3.935218E+03  6.496703E-12
        51   6  4.187166E+05  1.864491E+03  9.923927E+03 -5.963676E-10 -6.984759E+03 -7.079316E-12
        51   7  4.187174E+05 -1.144858E+01  4.632057E+03 -2.267934E+02 -8.857309E+02  3.233528E-04
        51   8  4.183507E+05  2.549426E+02  6.117907E+03  2.862857E+02 -3.935218E+03 -1.813482E-03
        51   9  4.187166E+05  1.864492E+03  9.923927E+03  7.993719E+02 -6.984759E+03 -8.987625E-03
        51  10  4.187174E+05 -1.144879E+01  4.632055E+03  2.267934E+02 -2.770714E-11  6.013381E-11
        51  11  4.183507E+05  2.549384E+02  6.117877E+03 -2.862857E+02  3.370597E-11  2.050236E-10
        51  12  4.187165E+05  1.864479E+03  9.923835E+03 -7.993719E+02  1.132432E-12  1.191362E-10
        51  13  4.187174E+05 -1.144889E+01  4.632055E+03  2.272050E-10  9.388750E-28  1.215945E-11
        51  14  4.183507E+05  2.549383E+02  6.117877E+03  1.896018E-11  7.535887E-11  7.963747E-11
        51  15  4.187165E+05  1.864477E+03  9.923835E+03  3.808487E-10  2.943428E-10  6.003511E-11
        51  16  4.187174E+05 -1.144879E+01  4.632055E+03 -2.267934E+02  6.284408E-12 -2.619971E-11
        51  17  4.183507E+05  2.549384E+02  6.117877E+03  2.862857E+02  7.129596E-11 -3.824494E-11
        51  18  4.187165E+05  1.864479E+03  9.923835E+03  7.993719E+02  1.138273E-10 -3.289938E-12
        51  19  4.187174E+05 -1.144858E+01  4.632057E+03  2.267934E+02  8.857309E+02  3.233529E-04
        51  20  4.183507E+05  2.549426E+02  6.117907E+03 -2.862857E+02  3.935218E+03 -1.813482E-03
        51  21  4.187166E+05  1.864492E+03  9.923927E+03 -7.993719E+02  6.984759E+03 -8.987625E-03
        51  22  4.187174E+05 -1.144868E+01  4.632057E+03 -6.574398E-10  8.857309E+02  2.625037E-11
        51  23  4.183507E+05  2.549424E+02  6.117907E+03  3.158567E-11  3.935218E+03  1.510870E-10
        51  24  4.187166E+05  1.864491E+03  9.923927E+03 -1.440613E-10  6.984759E+03  1.303241E-10
        51  25  4.187174E+05 -1.144858E+01  4.632057E+03 -2.267934E+02  8.857309E+02 -3.233528E-04
        51  26  4.183507E+05  2.549426E+02  6.117907E+03  2.862857E+02  3.935218E+03  1.813482E-03
        51  27  4.187166E+05  1.864492E+03  9.923927E+03  7.993719E+02  6.984759E+03  8.987626E-03
        52   1  4.202554E+05  1.239526E+03  1.272523E+04  2.401752E+03 -8.675023E+03 -3.353842E-02
        52   2  4.164243E+05  9.155439E+03  2.260855E+04 -1.179270E+04 -2.034697E+04  3.862425E-01
        52   3  4.202478E+05  4.161766E+04  4.622404E+04 -2.598732E+04 -3.201893E+04  1.339412E+00
        52   4  4.202554E+05  1.239515E+03  1.272523E+04 -8.720640E-10 -8.675023E+03  3.130768E-11
        52   5  4.164241E+05  9.155178E+03  2.260851E+04  1.135900E-10 -2.034697E+04  9.290016E-11
        52   6  4.202471E+05  4.161639E+04  4.622386E+04 -4.996641E-10 -3.201893E+04  9.678693E-11
        52   7  4.202554E+05  1.239526E+03  1.272523E+04 -2.401752E+03 -8.675023E+03  3.353842E-02
        52   8  4.164243E+05  9.155439E+03  2.260855E+04  1.179270E+04 -2.034697E+04 -3.862425E-01
        52   9  4.202478E+05  4.161766E+04  4.622404E+04  2.598732E+04 -3.201893E+04 -1.339412E+00
        52  10  4.202553E+05  1.239505E+03  1.272509E+04  2.401752E+03 -3.838486E-10  6.698952E-11
        52  11  4.164238E+05  9.155328E+03  2.260777E+04 -1.179270E+04 -1.179215E-10  4.633978E-11
        52  12  4.202467E+05  4.161738E+04  4.622212E+04 -2.598732E+04  5.335822E-11  1.464694E-11
        52  13  4.202553E+05  1.239495E+03  1.272509E+04  1.093713E-10 -1.397714E-10  6.499376E-11
        52  14  4.164237E+05  9.155067E+03  2.260773E+04  3.071410E-10  2.802721E-10  9.732609E-11
        52  15  4.202460E+05  4.161612E+04  4.622194E+04  2.566629E-10  6.567816E-11  3.683398E-11
        52  16  4.202553E+05  1.239505E+03  1.272509E+04 -2.401752E+03  6.085993E-10  5.931063E-11
        52  17  4.164238E+05  9.155328E+03  2.260777E+04  1.179270E+04  2.747922E-10  1.526229E-10
        52  18  4.202467E+05  4.161738E+04  4.622212E+04  2.598732E+04  1.170796E-10  8.650997E-11
        52  19  4.202554E+05  1.239526E+03  1.272523E+04  2.401752E+03  8.675023E+03  3.353842E-02
        52  20  4.164243E+05  9.155439E+03  2.260855E+04 -1.179270E+04  2.034697E+04 -3.862425E-01
        52  21  4.202478E+05  4.161766E+04  4.622404E+04 -2.598732E+04  3.201893E+04 -1.339412E+00
        52  22  4.202554E+05  1.239515E+03  1.272523E+04  2.850472E-10  8.675023E+03  9.969008E-11
        52  23  4.164241E+05  9.155178E+03  2.260851E+04  1.038217E-09  2.034697E+04  1.005575E-10
        52  24  4.202471E+05  4.161639E+04  4.622386E+04 -4.723310E-10  3.201893E+04 -2.191340E-11
        52  25  4.202554E+05  1.239526E+03  1.272523E+04 -2.401752E+03  8.675023E+03 -3.353842E-02
        52  26  4.164243E+05  9.155439E+03  2.260855E+04  1.179270E+04  2.034697E+04  3.862425E-01
        52  27  4.202478E+05  4.161766E+04  4.622404E+04  2.598732E+04  3.201893E+04  1.339412E+00
        53   1 -6.729379E+04 -1.203768E+05 -7.674275E+04  2.813382E+04  4.150375E+02 -5.824509E+04
        53   2 -1.043841E+04 -1.349704E+05 -3.838245E+04  3.270051E+03  9.854150E+02 -3.746166E+04
        53   3 -5.321126E+02 -1.640063E+05 -2.529045E+04 -2.647040E+04  2.104446E+02 -1.667869E+04
        53   4 -8.007780E+04 -1.718678E+05 -8.916089E+04 -2.198476E+04  4.198224E+02 -6.032452E+04
        53   5 -1.759183E+04 -1.644458E+05 -4.467498E+04 -1.954535E+04  9.867883E+02 -3.728608E+04
        53   6 -2.450856E+03 -1.718611E+05 -2.702555E+04 -2.198256E+04  2.102051E+02 -1.424730E+04
        53   7 -9.285256E+04 -2.233509E+05 -1.015778E+05 -7.209917E+04  4.249434E+02 -6.240379E+04
        53   8 -2.474336E+04 -1.939193E+05 -5.096729E+04 -4.235965E+04  9.881487E+02 -3.711051E+04
        53   9 -4.369524E+03 -1.797157E+05 -2.876061E+04 -1.749478E+04  2.100007E+02 -1.181594E+04
        53  10 -6.729470E+04 -1.203804E+05 -7.674913E+04  2.813384E+04  2.999470E-11 -2.253654E-10
        53  11 -1.043879E+04 -1.349719E+05 -3.838509E+04  3.270080E+03 -1.280182E-10 -9.285950E-11
        53  12 -5.321874E+02 -1.640066E+05 -2.529097E+04 -2.647040E+04 -3.008598E-11  1.075378E-10
        53  13 -8.007878E+04 -1.718717E+05 -8.916773E+04 -2.198474E+04  2.233393E-10  8.343759E-13
        53  14 -1.759221E+04 -1.644473E+05 -4.467760E+04 -1.954532E+04  1.069473E-10 -1.355871E-11
        53  15 -2.450910E+03 -1.718613E+05 -2.702593E+04 -2.198256E+04 -1.897953E-11 -2.069399E-12
        53  16 -9.285361E+04 -2.233551E+05 -1.015852E+05 -7.209914E+04 -1.728105E-10  2.204738E-10
        53  17 -2.474373E+04 -1.939208E+05 -5.096988E+04 -4.235962E+04  2.368681E-10  8.681371E-11
        53  18 -4.369562E+03 -1.797159E+05 -2.876088E+04 -1.749478E+04 -1.387190E-11 -1.103599E-10
        53  19 -6.729379E+04 -1.203768E+05 -7.674275E+04  2.813382E+04 -4.150375E+02  5.824509E+04
        53  20 -1.043841E+04 -1.349704E+05 -3.838245E+04  3.270051E+03 -9.854150E+02  3.746166E+04
        53  21 -5.321126E+02 -1.640063E+05 -2.529045E+04 -2.647040E+04 -2.104446E+02  1.667869E+04
        53  22 -8.007780E+04 -1.718678E+05 -8.916089E+04 -2.198476E+04 -4.198224E+02  6.032452E+04
        53  23 -1.759183E+04 -1.644458E+05 -4.467498E+04 -1.954535E+04 -9.867883E+02  3.728608E+04
        53  24 -2.450856E+03 -1.718611E+05 -2.702555E+04 -2.198256E+04 -2.102051E+02  1.424730E+04
        53  25 -9.285256E+04 -2.233509E+05 -1.015778E+05 -7.209917E+04 -4.249434E+02  6.240379E+04
        53  26 -2.474336E+04 -1.939193E+05 -5.096729E+04 -4.235965E+04 -9.881487E+02  3.711051E+04
        53  27 -4.369524E+03 -1.797157E+05 -2.876061E+04 -1.749478E+04 -2.100007E+02  1.181594E+04
        54   1 -5.052548E+03 -1.755250E+05 -2.344567E+04 -2.003204E+04 -6.718858E+02 -1.278205E+04
        54   2 -7.637572E+03 -1.961514E+05 -2.298270E+04 -1.946235E+04 -1.984797E+03 -3.555391E+03
        54   3 -1.484992E+04 -2.191359E+05 -2.968444E+04 -2.384226E+04 -3.180673E+03  5.670997E+03
        54   4 -3.588155E+03 -1.690811E+05 -2.256994E+04 -2.199896E+04 -6.719576E+02 -1.047939E+04
        54   5 -1.012219E+03 -1.679191E+05 -1.809411E+04 -1.952414E+04 -1.984876E+03 -1.449225E+03
        54   6 -3.029387E+03 -1.690814E+05 -2.064646E+04 -2.199897E+04 -3.180708E+03  7.580973E+03
        54   7 -2.123747E+03 -1.626371E+05 -2.169418E+04 -2.396591E+04 -6.720440E+02 -8.176702E+03
        54   8  5.613094E+03 -1.396860E+05 -1.320554E+04 -1.958593E+04 -1.984957E+03  6.570335E+02
        54   9  8.791023E+03 -1.190244E+05 -1.160856E+04 -2.015553E+04 -3.180732E+03  9.491099E+03
        54  10 -5.052592E+03 -1.755251E+05 -2.344598E+04 -2.003205E+04 -1.682577E-10 -2.439340E-10
        54  11 -7.637579E+03 -1.961515E+05 -2.298273E+04 -1.946236E+04  5.558969E-11  3.440496E-11
        54  12 -1.484994E+04 -2.191359E+05 -2.968452E+04 -2.384224E+04  1.610684E-10  3.083627E-10
        54  13 -3.588185E+03 -1.690812E+05 -2.257014E+04 -2.199897E+04  2.365812E-10 -2.867317E-12
        54  14 -1.012224E+03 -1.679191E+05 -1.809412E+04 -1.952414E+04  5.210139E-11 -7.877038E-12
        54  15 -3.029414E+03 -1.690814E+05 -2.064659E+04 -2.199895E+04  2.614798E-10 -5.978208E-12
        54  16 -2.123765E+03 -1.626372E+05 -2.169431E+04 -2.396591E+04 -1.050721E-10  2.446249E-10
        54  17  5.613089E+03 -1.396860E+05 -1.320555E+04 -1.958593E+04 -1.097814E-10 -3.333578E-11
        54  18  8.790988E+03 -1.190245E+05 -1.160875E+04 -2.015550E+04 -1.982616E-10 -3.102655E-10
        54  19 -5.052548E+03 -1.755250E+05 -2.344567E+04 -2.003204E+04  6.718858E+02  1.278205E+04
        54  20 -7.637572E+03 -1.961514E+05 -2.298270E+04 -1.946235E+04  1.984797E+03  3.555391E+03
        54  21 -1.484992E+04 -2.191359E+05 -2.968444E+04 -2.384226E+04  3.180673E+03 -5.670997E+03
        54  22 -3.588155E+03 -1.690811E+05 -2.256994E+04 -2.199896E+04  6.719576E+02  1.047939E+04
        54  23 -1.012219E+03 -1.679191E+05 -1.809411E+04 -1.952414E+04  1.984876E+03  1.449225E+03
        54  24 -3.029387E+03 -1.690814E+05 -2.064646E+04 -2.199897E+04  3.180708E+03 -7.580973E+03
        54  25 -2.123747E+03 -1.626371E+05 -2.169418E+04 -2.396591E+04  6.720440E+02  8.176702E+03
        54  26  5.613094E+03 -1.396860E+05 -1.320554E+04 -1.958593E+04  1.984957E+03 -6.570335E+02
        54  27  8.791023E+03 -1.190244E+05 -1.160856E+04 -2.015553E+04  3.180732E+03 -9.491099E+03
        55   1 -1.732367E+04 -2.357783E+05 -3.574323E+04 -1.823037E+04 -4.000984E+03  8.801217E+03
        55   2 -3.548979E+04 -2.509053E+05 -5.548551E+04 -3.896543E+04 -3.978562E+03  3.305844E+04
        55   3 -9.458345E+04 -2.794231E+05 -1.012550E+05 -6.448084E+04 -1.288649E+03  5.731420E+04
        55   4 -2.092126E+03 -1.713673E+05 -2.401227E+04 -2.196180E+04 -4.001073E+03  1.100320E+04
        55   5 -1.489539E+04 -1.650646E+05 -3.836978E+04 -1.957113E+04 -3.977451E+03  3.077964E+04
        55   6 -6.784685E+04 -1.713739E+05 -7.564056E+04 -2.196236E+04 -1.284699E+03  5.055569E+04
        55   7  1.313924E+04 -1.069524E+05 -1.228145E+04 -2.569364E+04 -4.001188E+03  1.320541E+04
        55   8  5.699979E+03 -7.921591E+04 -2.125418E+04 -1.740895E+02 -3.976482E+03  2.850054E+04
        55   9 -4.110427E+04 -6.330997E+04 -5.002576E+04  2.056357E+04 -1.281675E+03  4.379601E+04
        55  10 -1.732371E+04 -2.357783E+05 -3.574341E+04 -1.823034E+04  9.203012E-11 -2.755492E-10
        55  11 -3.549010E+04 -2.509065E+05 -5.548760E+04 -3.896533E+04 -1.862821E-10 -3.479617E-11
        55  12 -9.458433E+04 -2.794266E+05 -1.012612E+05 -6.448078E+04 -2.090870E-11  2.113448E-10
        55  13 -2.092175E+03 -1.713675E+05 -2.401253E+04 -2.196177E+04  1.594858E-10  9.684606E-12
        55  14 -1.489566E+04 -1.650656E+05 -3.837159E+04 -1.957103E+04 -2.019423E-11  2.050315E-11
        55  15 -6.784754E+04 -1.713766E+05 -7.564537E+04 -2.196231E+04 -4.143747E-10 -1.187084E-11
        55  16  1.313917E+04 -1.069526E+05 -1.228181E+04 -2.569359E+04 -1.142761E-10  2.796580E-10
        55  17  5.699743E+03 -7.921678E+04 -2.125574E+04 -1.739982E+02 -2.227866E-10  3.459827E-11
        55  18 -4.110479E+04 -6.331203E+04 -5.002937E+04  2.056361E+04  7.757527E-11 -1.999088E-10
        55  19 -1.732367E+04 -2.357783E+05 -3.574323E+04 -1.823037E+04  4.000984E+03 -8.801217E+03
        55  20 -3.548979E+04 -2.509053E+05 -5.548551E+04 -3.896543E+04  3.978562E+03 -3.305844E+04
        55  21 -9.458345E+04 -2.794231E+05 -1.012550E+05 -6.448084E+04  1.288649E+03 -5.731420E+04
        55  22 -2.092126E+03 -1.713673E+05 -2.401227E+04 -2.196180E+04  4.001073E+03 -1.100320E+04
        55  23 -1.489539E+04 -1.650646E+05 -3.836978E+04 -1.957113E+04  3.977451E+03 -3.077964E+04
        55  24 -6.784685E+04 -1.713739E+05 -7.564056E+04 -2.196236E+04  1.284699E+03 -5.055569E+04
        55  25  1.313924E+04 -1.069524E+05 -1.228145E+04 -2.569364E+04  4.001188E+03 -1.320541E+04
        55  26  5.699979E+03 -7.921591E+04 -2.125418E+04 -1.740895E+02  3.976482E+03 -2.850054E+04
        55  27 -4.110427E+04 -6.330997E+04 -5.002576E+04  2.056357E+04  1.281675E+03 -4.379601E+04
        56   1  5.687485E+04 -2.189677E+04 -4.010401E+04  4.856570E+04 -1.429843E+04 -8.854907E+03
        56   2  6.823078E+04 -8.201348E+02 -2.562614E+04  5.233756E+04 -9.939531E+03 -1.454922E+03
        56   3  7.853495E+04  1.085276E+04 -1.819338E+04  5.729936E+04 -3.879148E+03  3.676987E+03
        56   4  1.349505E+05  4.525474E+04 -1.263100E+04  9.263242E+04 -7.950893E+03 -4.094909E+03
        56   5  1.370498E+05  5.307617E+04 -6.125423E+03  8.938829E+04 -7.402793E+03  4.472929E+02
        56   6  1.389244E+05  5.232081E+04 -3.357080E+03  8.733375E+04 -5.153499E+03  2.721281E+03
        56   7  2.130340E+05  1.124127E+05  1.484177E+04  1.367066E+05 -1.602190E+03  6.661938E+02
        56   8  2.058751E+05  1.069768E+05  1.337524E+04  1.264445E+05 -4.865641E+03  2.349860E+03
        56   9  1.993190E+05  9.379157E+04  1.147929E+04  1.173719E+05 -6.428034E+03  1.765441E+03
        56  10  5.687461E+04 -2.189691E+04 -4.010454E+04  4.856560E+04  1.072647E-11  1.955946E-11
        56  11  6.823067E+04 -8.201636E+02 -2.562633E+04  5.233755E+04 -1.809485E-10  8.526339E-11
        56  12  7.853493E+04  1.085274E+04 -1.819344E+04  5.729937E+04 -1.758210E-10  6.885321E-11
        56  13  1.349505E+05  4.525471E+04 -1.263115E+04  9.263239E+04  7.527082E-13  1.025445E-11
        56  14  1.370497E+05  5.307615E+04 -6.125527E+03  8.938829E+04 -2.302780E-10  1.814878E-11
        56  15  1.389244E+05  5.232080E+04 -3.357144E+03  8.733376E+04 -1.454237E-10  6.269188E-11
        56  16  2.130340E+05  1.124127E+05  1.484176E+04  1.367066E+05  3.090560E-11 -2.116213E-11
        56  17  2.058751E+05  1.069768E+05  1.337518E+04  1.264445E+05 -5.038463E-11 -4.065271E-11
        56  18  1.993189E+05  9.379155E+04  1.147920E+04  1.173719E+05 -6.268636E-11  4.468955E-11
        56  19  5.687485E+04 -2.189677E+04 -4.010401E+04  4.856570E+04  1.429843E+04  8.854907E+03
        56  20  6.823078E+04 -8.201348E+02 -2.562614E+04  5.233756E+04  9.939531E+03  1.454922E+03
        56  21  7.853495E+04  1.085276E+04 -1.819338E+04  5.729936E+04  3.879148E+03 -3.676987E+03
        56  22  1.349505E+05  4.525474E+04 -1.263100E+04  9.263242E+04  7.950893E+03  4.094909E+03
        56  23  1.370498E+05  5.307617E+04 -6.125423E+03  8.938829E+04  7.402793E+03 -4.472929E+02
        56  24  1.389244E+05  5.232081E+04 -3.357080E+03  8.733375E+04  5.153499E+03 -2.721281E+03
        56  25  2.130340E+05  1.124127E+05  1.484177E+04  1.367066E+05  1.602190E+03 -6.661938E+02
        56  26  2.058751E+05  1.069768E+05  1.337524E+04  1.264445E+05  4.865641E+03 -2.349860E+03
        56  27  1.993190E+05  9.379157E+04  1.147929E+04  1.173719E+05  6.428034E+03 -1.765441E+03
        57   1  8.776389E+04  1.577003E+04 -1.523908E+04  6.143385E+04 -3.426166E+03  3.260310E+03
        57   2  9.834488E+04  2.680428E+04 -1.077122E+04  6.807009E+04 -2.013755E+03  3.218579E+03
        57   3  1.123156E+05  3.377327E+04 -7.128981E+03  7.371038E+04 -4.511071E+02  2.976436E+03
        57   4  1.391739E+05  5.232536E+04 -2.545557E+03  8.760952E+04 -4.441869E+03  2.498593E+03
        57   5  1.375363E+05  5.448840E+04 -1.370402E+03  8.798229E+04 -3.366128E+03  2.204447E+03
        57   6  1.393617E+05  5.265934E+04 -7.285643E+02  8.735911E+04 -2.140168E+03  1.709887E+03
        57   7  1.905859E+05  8.888164E+04  1.014745E+04  1.137872E+05 -5.457665E+03  1.736805E+03
        57   8  1.767292E+05  8.217319E+04  8.030191E+03  1.078958E+05 -4.718603E+03  1.190238E+03
        57   9  1.664086E+05  7.154584E+04  5.671816E+03  1.010085E+05 -3.829326E+03  4.432666E+02
        57  10  8.776387E+04  1.577001E+04 -1.523912E+04  6.143386E+04 -2.286156E-11  1.246689E-10
        57  11  9.834487E+04  2.680426E+04 -1.077124E+04  6.807009E+04 -8.387248E-11  1.140606E-10
        57  12  1.123156E+05  3.377326E+04 -7.128999E+03  7.371038E+04 -2.256987E-11  1.024862E-10
        57  13  1.391738E+05  5.232535E+04 -2.545606E+03  8.760953E+04 -3.343610E-10  8.241320E-11
        57  14  1.375363E+05  5.448839E+04 -1.370433E+03  8.798230E+04 -1.025390E-10  1.289435E-10
        57  15  1.393617E+05  5.265934E+04 -7.285784E+02  8.735911E+04 -1.183688E-10  1.226816E-10
        57  16  1.905859E+05  8.888163E+04  1.014739E+04  1.137872E+05 -4.121208E-10  1.833149E-11
        57  17  1.767292E+05  8.217318E+04  8.030147E+03  1.078958E+05 -2.580544E-10  4.878619E-11
        57  18  1.664086E+05  7.154584E+04  5.671788E+03  1.010085E+05 -5.788542E-11  1.417083E-10
        57  19  8.776389E+04  1.577003E+04 -1.523908E+04  6.143385E+04  3.426166E+03 -3.260310E+03
        57  20  9.834488E+04  2.680428E+04 -1.077122E+04  6.807009E+04  2.013755E+03 -3.218579E+03
        57  21  1.123156E+05  3.377327E+04 -7.128981E+03  7.371038E+04  4.511071E+02 -2.976436E+03
        57  22  1.391739E+05  5.232536E+04 -2.545557E+03  8.760952E+04  4.441869E+03 -2.498593E+03
        57  23  1.375363E+05  5.448840E+04 -1.370402E+03  8.798229E+04  3.366128E+03 -2.204447E+03
        57  24  1.393617E+05  5.265934E+04 -7.285643E+02  8.735911E+04  2.140168E+03 -1.709887E+03
        57  25  1.905859E+05  8.888164E+04  1.014745E+04  1.137872E+05  5.457665E+03 -1.736805E+03
        57  26  1.767292E+05  8.217319E+04  8.030191E+03  1.078958E+05  4.718603E+03 -1.190238E+03
        57  27  1.664086E+05  7.154584E+04  5.671816E+03  1.010085E+05  3.829326E+03 -4.432666E+02
        58   1  1.204249E+05  3.938721E+04 -4.944478E+03  7.778846E+04  5.588219E+01  2.435344E+03
        58   2  1.308819E+05  4.991057E+04 -1.718106E+03  8.457192E+04  8.731244E+02  1.495525E+03
        58   3  1.450436E+05  5.670581E+04  1.447299E+03  9.026890E+04  1.692374E+03  5.530209E+02
        58   4  1.393833E+05  5.266076E+04 -5.097936E+02  8.738207E+04 -1.611852E+03  1.184801E+03
        58   5  1.375340E+05  5.453037E+04 -1.704458E+02  8.792105E+04 -7.991333E+02  2.415908E+02
        58   6  1.393901E+05  5.267262E+04  1.117754E+02  8.737330E+04  1.558317E+01 -7.042972E+02
        58   7  1.583425E+05  6.593478E+04  3.925001E+03  9.697619E+04 -3.279683E+03 -6.581555E+01
        58   8  1.441862E+05  5.915021E+04  1.377228E+03  9.127023E+04 -2.471415E+03 -1.012361E+03
        58   9  1.337367E+05  4.863953E+04 -1.223699E+03  8.447779E+04 -1.661158E+03 -1.961578E+03
        58  10  1.204249E+05  3.938720E+04 -4.944489E+03  7.778846E+04  2.221280E-10  1.722387E-10
        58  11  1.308819E+05  4.991056E+04 -1.718112E+03  8.457192E+04  3.612348E-10  1.860415E-10
        58  12  1.450436E+05  5.670581E+04  1.447293E+03  9.026890E+04  8.494142E-11  3.898978E-11
        58  13  1.393833E+05  5.266076E+04 -5.098011E+02  8.738207E+04  1.065953E-10  6.598198E-11
        58  14  1.375340E+05  5.453037E+04 -1.704471E+02  8.792105E+04 -3.638120E-11  4.022476E-11
        58  15  1.393901E+05  5.267262E+04  1.117744E+02  8.737330E+04 -1.280918E-10 -5.889504E-11
        58  16  1.583425E+05  6.593478E+04  3.924981E+03  9.697619E+04 -1.441582E-10  9.389855E-12
        58  17  1.441862E+05  5.915021E+04  1.377215E+03  9.127022E+04 -9.614665E-11 -4.626484E-11
        58  18  1.337367E+05  4.863952E+04 -1.223711E+03  8.447779E+04 -9.599277E-11 -1.653066E-10
        58  19  1.204249E+05  3.938721E+04 -4.944478E+03  7.778846E+04 -5.588219E+01 -2.435344E+03
        58  20  1.308819E+05  4.991057E+04 -1.718106E+03  8.457192E+04 -8.731244E+02 -1.495525E+03
        58  21  1.450436E+05  5.670581E+04  1.447299E+03  9.026890E+04 -1.692374E+03 -5.530209E+02
        58  22  1.393833E+05  5.266076E+04 -5.097936E+02  8.738207E+04  1.611852E+03 -1.184801E+03
        58  23  1.375340E+05  5.453037E+04 -1.704458E+02  8.792105E+04  7.991333E+02 -2.415908E+02
        58  24  1.393901E+05  5.267262E+04  1.117754E+02  8.737330E+04 -1.558317E+01  7.042972E+02
        58  25  1.583425E+05  6.593478E+04  3.925001E+03  9.697619E+04  3.279683E+03  6.581555E+01
        58  26  1.441862E+05  5.915021E+04  1.377228E+03  9.127023E+04  2.471415E+03  1.012361E+03
        58  27  1.337367E+05  4.863953E+04 -1.223699E+03  8.447779E+04  1.661158E+03  1.961578E+03
        59   1  1.530664E+05  6.239380E+04  3.557459E+03  9.435960E+04  2.128036E+03 -4.371187E+01
        59   2  1.635645E+05  7.283702E+04  6.907786E+03  1.010641E+05  2.281848E+03 -1.370841E+03
        59   3  1.779493E+05  7.978275E+04  1.075650E+04  1.066431E+05  2.308290E+03 -2.528092E+03
        59   4  1.393985E+05  5.267797E+04  2.587749E+02  8.738851E+04  4.337323E+02 -1.314164E+03
        59   5  1.375331E+05  5.454123E+04  6.330546E+02  8.788868E+04  8.730166E+02 -2.427268E+03
        59   6  1.394924E+05  5.284496E+04  1.258008E+03  8.726322E+04  1.184941E+03 -3.370482E+03
        59   7  1.257309E+05  4.296226E+04 -3.039908E+03  8.041760E+04 -1.260523E+03 -2.584580E+03
        59   8  1.115023E+05  3.624568E+04 -5.641797E+03  7.471381E+04 -5.357492E+02 -3.483647E+03
        59   9  1.010365E+05  2.590753E+04 -8.240830E+03  6.788439E+04  6.166518E+01 -4.212818E+03
        59  10  1.530664E+05  6.239380E+04  3.557450E+03  9.435960E+04 -1.640166E-10 -1.173544E-10
        59  11  1.635645E+05  7.283701E+04  6.907773E+03  1.010641E+05  1.313853E-10 -9.674903E-11
        59  12  1.779493E+05  7.978274E+04  1.075648E+04  1.066431E+05 -6.188296E-11 -5.283592E-11
        59  13  1.393985E+05  5.267797E+04  2.587713E+02  8.738851E+04 -1.278796E-10 -3.700147E-11
        59  14  1.375331E+05  5.454123E+04  6.330421E+02  8.788869E+04 -2.571104E-11 -6.284375E-11
        59  15  1.394924E+05  5.284494E+04  1.257984E+03  8.726322E+04 -2.678491E-10 -6.647557E-12
        59  16  1.257309E+05  4.296225E+04 -3.039924E+03  8.041760E+04 -7.981708E-11 -3.563926E-11
        59  17  1.115023E+05  3.624567E+04 -5.641820E+03  7.471381E+04 -2.594174E-10  5.098249E-11
        59  18  1.010365E+05  2.590751E+04 -8.240864E+03  6.788439E+04  1.418436E-10 -9.599023E-11
        59  19  1.530664E+05  6.239380E+04  3.557459E+03  9.435960E+04 -2.128036E+03  4.371187E+01
        59  20  1.635645E+05  7.283702E+04  6.907786E+03  1.010641E+05 -2.281848E+03  1.370841E+03
        59  21  1.779493E+05  7.978275E+04  1.075650E+04  1.066431E+05 -2.308290E+03  2.528092E+03
        59  22  1.393985E+05  5.267797E+04  2.587749E+02  8.738851E+04 -4.337323E+02  1.314164E+03
        59  23  1.375331E+05  5.454123E+04  6.330546E+02  8.788868E+04 -8.730166E+02  2.427268E+03
        59  24  1.394924E+05  5.284496E+04  1.258008E+03  8.726322E+04 -1.184941E+03  3.370482E+03
        59  25  1.257309E+05  4.296226E+04 -3.039908E+03  8.041760E+04  1.260523E+03  2.584580E+03
        59  26  1.115023E+05  3.624568E+04 -5.641797E+03  7.471381E+04  5.357492E+02  3.483647E+03
        59  27  1.010365E+05  2.590753E+04 -8.240830E+03  6.788439E+04 -6.166518E+01  4.212818E+03
        60   1  1.857257E+05  8.599695E+04  1.329169E+04  1.110209E+05  2.731381E+03 -2.994353E+03
        60   2  1.980759E+05  9.508410E+04  1.910043E+04  1.161824E+05 -1.912040E+03 -6.219298E+03
        60   3  2.165924E+05  1.038811E+05  2.961438E+04  1.191786E+05 -8.001015E+03 -7.516829E+03
        60   4  1.395659E+05  5.289906E+04  1.679453E+03  8.741880E+04  1.388331E+03 -4.001517E+03
        60   5  1.378423E+05  5.518886E+04  3.098987E+03  8.715602E+04 -1.562999E+01 -4.797261E+03
        60   6  1.415826E+05  5.648621E+04  6.412956E+03  8.472791E+04 -2.865138E+03 -3.665473E+03
        60   7  9.340942E+04  1.980311E+04 -9.932641E+03  6.381920E+04  4.543930E+01 -5.008559E+03
        60   8  7.761342E+04  1.529581E+04 -1.290256E+04  5.813301E+04  1.880513E+03 -3.375409E+03
        60   9  6.657889E+04  9.093651E+03 -1.678896E+04  5.028164E+04  2.269884E+03  1.853352E+02
        60  10  1.857257E+05  8.599694E+04  1.329166E+04  1.110209E+05 -1.311581E-10 -5.380383E-11
        60  11  1.980759E+05  9.508405E+04  1.910035E+04  1.161824E+05  2.347354E-10 -1.510601E-11
        60  12  2.165923E+05  1.038810E+05  2.961416E+04  1.191786E+05  3.192874E-10 -1.924542E-12
        60  13  1.395659E+05  5.289904E+04  1.679419E+03  8.741880E+04 -9.128464E-11 -6.025747E-11
        60  14  1.378423E+05  5.518884E+04  3.098944E+03  8.715602E+04 -6.212614E-11 -4.097942E-11
        60  15  1.415826E+05  5.648620E+04  6.412915E+03  8.472790E+04  9.531509E-11 -6.073574E-12
        60  16  9.340942E+04  1.980309E+04 -9.932688E+03  6.381920E+04  1.944920E-10 -1.127697E-10
        60  17  7.761341E+04  1.529580E+04 -1.290259E+04  5.813302E+04 -2.705901E-10 -6.156435E-11
        60  18  6.657889E+04  9.093649E+03 -1.678897E+04  5.028164E+04  1.862397E-10  7.197678E-12
        60  19  1.857257E+05  8.599695E+04  1.329169E+04  1.110209E+05 -2.731381E+03  2.994353E+03
        60  20  1.980759E+05  9.508410E+04  1.910043E+04  1.161824E+05  1.912040E+03  6.219298E+03
        60  21  2.165924E+05  1.038811E+05  2.961438E+04  1.191786E+05  8.001015E+03  7.516829E+03
        60  22  1.395659E+05  5.289906E+04  1.679453E+03  8.741880E+04 -1.388331E+03  4.001517E+03
        60  23  1.378423E+05  5.518886E+04  3.098987E+03  8.715602E+04  1.562999E+01  4.797261E+03
        60  24  1.415826E+05  5.648621E+04  6.412956E+03  8.472791E+04  2.865138E+03  3.665473E+03
        60  25  9.340942E+04  1.980311E+04 -9.932641E+03  6.381920E+04 -4.543930E+01  5.008559E+03
        60  26  7.761342E+04  1.529581E+04 -1.290256E+04  5.813301E+04 -1.880513E+03  3.375409E+03
        60  27  6.657889E+04  9.093651E+03 -1.678896E+04  5.028164E+04 -2.269884E+03 -1.853352E+02
        61   1  3.118429E+05  2.113173E+04  2.348649E+04  1.320415E+04  1.616674E+04  3.436769E-01
        61   2  3.098980E+05  4.644802E+03  1.156330E+04  6.000844E+03  1.019895E+04  9.853382E-02
        61   3  3.118458E+05  6.231631E+02  6.640281E+03 -1.202317E+03  4.231240E+03 -8.190357E-03
        61   4  3.118427E+05  2.113141E+04  2.348645E+04 -3.792132E-10  1.616674E+04 -2.074130E-11
        61   5  3.098980E+05  4.644734E+03  1.156329E+04  3.134195E-10  1.019895E+04  3.470335E-11
        61   6  3.118458E+05  6.231604E+02  6.640281E+03 -7.174302E-10  4.231240E+03  9.079050E-11
        61   7  3.118429E+05  2.113173E+04  2.348649E+04 -1.320415E+04  1.616674E+04 -3.436769E-01
        61   8  3.098980E+05  4.644802E+03  1.156330E+04 -6.000844E+03  1.019895E+04 -9.853382E-02
        61   9  3.118458E+05  6.231631E+02  6.640281E+03  1.202317E+03  4.231240E+03  8.190357E-03
        61  10  3.118426E+05  2.113166E+04  2.348600E+04  1.320415E+04 -1.230901E-10  2.479154E-12
        61  11  3.098979E+05  4.644774E+03  1.156310E+04  6.000844E+03 -7.153753E-11  3.430917E-11
        61  12  3.118458E+05  6.231583E+02  6.640248E+03 -1.202317E+03  1.644182E-11  1.306716E-10
        61  13  3.118424E+05  2.113134E+04  2.348595E+04 -5.680777E-11 -1.108202E-10  2.949172E-11
        61  14  3.098979E+05  4.644706E+03  1.156309E+04 -2.745699E-10  1.626682E-10  9.122722E-11
        61  15  3.118458E+05  6.231556E+02  6.640247E+03 -5.686251E-11  1.451911E-10  9.012895E-11
        61  16  3.118426E+05  2.113166E+04  2.348600E+04 -1.320415E+04  1.546456E-10  5.314117E-11
        61  17  3.098979E+05  4.644774E+03  1.156310E+04 -6.000844E+03 -8.590413E-11  1.403766E-10
        61  18  3.118458E+05  6.231583E+02  6.640248E+03  1.202317E+03  1.716792E-10  5.425092E-11
        61  19  3.118429E+05  2.113173E+04  2.348649E+04  1.320415E+04 -1.616674E+04 -3.436769E-01
        61  20  3.098980E+05  4.644802E+03  1.156330E+04  6.000844E+03 -1.019895E+04 -9.853382E-02
        61  21  3.118458E+05  6.231631E+02  6.640281E+03 -1.202317E+03 -4.231240E+03  8.190357E-03
        61  22  3.118427E+05  2.113141E+04  2.348645E+04 -2.692804E-10 -1.616674E+04  7.899056E-11
        61  23  3.098980E+05  4.644734E+03  1.156329E+04 -1.883160E-10 -1.019895E+04  1.446001E-10
        61  24  3.118458E+05  6.231604E+02  6.640281E+03  1.471966E-10 -4.231240E+03  8.966288E-11
        61  25  3.118429E+05  2.113173E+04  2.348649E+04 -1.320415E+04 -1.616674E+04  3.436769E-01
        61  26  3.098980E+05  4.644802E+03  1.156330E+04 -6.000844E+03 -1.019895E+04  9.853382E-02
        61  27  3.118458E+05  6.231631E+02  6.640281E+03  1.202317E+03 -4.231240E+03 -8.190357E-03
        62   1  3.110708E+05  9.384969E+02  5.283978E+03  4.292880E+02  3.334717E+03  2.304753E-03
        62   2  3.108678E+05  1.170599E+02  3.547493E+03  1.778386E+02  1.568020E+03  4.489463E-04
        62   3  3.110711E+05  1.213195E+00  3.137197E+03 -7.361461E+01 -1.987025E+02  2.354971E-05
        62   4  3.110708E+05  9.384965E+02  5.283978E+03 -6.963696E-10  3.334717E+03  5.302998E-11
        62   5  3.108678E+05  1.170599E+02  3.547493E+03 -1.067606E-10  1.568020E+03 -4.845515E-11
        62   6  3.110711E+05  1.213184E+00  3.137197E+03 -3.439158E-10 -1.987025E+02 -1.054526E-11
        62   7  3.110708E+05  9.384969E+02  5.283978E+03 -4.292880E+02  3.334717E+03 -2.304753E-03
        62   8  3.108678E+05  1.170599E+02  3.547493E+03 -1.778386E+02  1.568020E+03 -4.489463E-04
        62   9  3.110711E+05  1.213195E+00  3.137197E+03  7.361461E+01 -1.987025E+02 -2.354973E-05
        62  10  3.110708E+05  9.384939E+02  5.283958E+03  4.292880E+02  4.505165E-11  1.201526E-10
        62  11  3.108678E+05  1.170593E+02  3.547489E+03  1.778386E+02  1.576731E-11  3.357975E-11
        62  12  3.110711E+05  1.213184E+00  3.137197E+03 -7.361461E+01 -3.544011E-10  9.594061E-11
        62  13  3.110708E+05  9.384935E+02  5.283957E+03 -1.220649E-10  1.204905E-10  2.389004E-11
        62  14  3.108678E+05  1.170592E+02  3.547489E+03 -1.072866E-10  1.639048E-10 -5.985524E-11
        62  15  3.110711E+05  1.213174E+00  3.137197E+03  3.071993E-10  1.266910E-11  9.392528E-12
        62  16  3.110708E+05  9.384939E+02  5.283958E+03 -4.292880E+02 -9.363331E-11 -6.163586E-11
        62  17  3.108678E+05  1.170593E+02  3.547489E+03 -1.778386E+02  1.803643E-10 -1.459437E-10
        62  18  3.110711E+05  1.213184E+00  3.137197E+03  7.361461E+01  3.473501E-10 -8.381514E-11
        62  19  3.110708E+05  9.384969E+02  5.283978E+03  4.292880E+02 -3.334717E+03 -2.304753E-03
        62  20  3.108678E+05  1.170599E+02  3.547493E+03  1.778386E+02 -1.568020E+03 -4.489463E-04
        62  21  3.110711E+05  1.213195E+00  3.137197E+03 -7.361461E+01  1.987025E+02 -2.354950E-05
        62  22  3.110708E+05  9.384965E+02  5.283978E+03 -8.683995E-11 -3.334717E+03 -3.262336E-12
        62  23  3.108678E+05  1.170599E+02  3.547493E+03 -1.109685E-10 -1.568020E+03 -7.630837E-11
        62  24  3.110711E+05  1.213184E+00  3.137197E+03 -4.233077E-10  1.987025E+02  3.698281E-11
        62  25  3.110708E+05  9.384969E+02  5.283978E+03 -4.292880E+02 -3.334717E+03  2.304753E-03
        62  26  3.108678E+05  1.170599E+02  3.547493E+03 -1.778386E+02 -1.568020E+03  4.489461E-04
        62  27  3.110711E+05  1.213195E+00  3.137197E+03  7.361461E+01  1.987025E+02  2.354961E-05
        63   1  3.111001E+05 -9.638301E+00  3.303318E+03  1.747486E+02 -7.614107E+02 -2.142146E-04
        63   2  3.108314E+05  1.908238E+02  4.459938E+03 -2.067467E+02 -2.984677E+03  9.934653E-04
        63   3  3.110997E+05  1.382451E+03  7.311277E+03 -5.882417E+02 -5.207947E+03  4.932181E-03
        63   4  3.111001E+05 -9.638358E+00  3.303318E+03 -4.286119E-10 -7.614107E+02 -7.644464E-12
        63   5  3.108314E+05  1.908237E+02  4.459938E+03  1.925067E-10 -2.984677E+03 -7.571620E-11
        63   6  3.110997E+05  1.382450E+03  7.311277E+03 -4.670177E-10 -5.207947E+03 -6.833920E-11
        63   7  3.111001E+05 -9.638301E+00  3.303318E+03 -1.747486E+02 -7.614107E+02  2.142146E-04
        63   8  3.108314E+05  1.908238E+02  4.459938E+03  2.067467E+02 -2.984677E+03 -9.934653E-04
        63   9  3.110997E+05  1.382451E+03  7.311277E+03  5.882417E+02 -5.207947E+03 -4.932182E-03
        63  10  3.111001E+05 -9.638456E+00  3.303317E+03  1.747486E+02  3.858496E-10  1.273287E-10
        63  11  3.108313E+05  1.908214E+02  4.459922E+03 -2.067467E+02 -1.311166E-10 -4.535225E-12
        63  12  3.110997E+05  1.382444E+03  7.311226E+03 -5.882417E+02  1.672815E-10 -1.097971E-10
        63  13  3.111001E+05 -9.638514E+00  3.303317E+03 -1.788054E-10 -8.415980E-12  2.541775E-11
        63  14  3.108313E+05  1.908213E+02  4.459922E+03 -1.956372E-10 -7.864367E-11 -7.448104E-11
        63  15  3.110997E+05  1.382443E+03  7.311226E+03 -7.194671E-10 -5.461857E-11 -1.301374E-10
        63  16  3.111001E+05 -9.638456E+00  3.303317E+03 -1.747486E+02  2.697491E-11 -7.152304E-11
        63  17  3.108313E+05  1.908214E+02  4.459922E+03  2.067467E+02  6.379698E-11 -1.413306E-10
        63  18  3.110997E+05  1.382444E+03  7.311226E+03  5.882417E+02 -1.360913E-10 -1.525619E-10
        63  19  3.111001E+05 -9.638301E+00  3.303318E+03  1.747486E+02  7.614107E+02  2.142148E-04
        63  20  3.108314E+05  1.908238E+02  4.459938E+03 -2.067467E+02  2.984677E+03 -9.934652E-04
        63  21  3.110997E+05  1.382451E+03  7.311277E+03 -5.882417E+02  5.207947E+03 -4.932182E-03
        63  22  3.111001E+05 -9.638358E+00  3.303318E+03 -3.239722E-10  7.614107E+02  6.111244E-11
        63  23  3.108314E+05  1.908237E+02  4.459938E+03  9.309287E-11  2.984677E+03 -7.624096E-11
        63  24  3.110997E+05  1.382450E+03  7.311277E+03 -8.583153E-10  5.207947E+03 -1.933470E-10
        63  25  3.111001E+05 -9.638301E+00  3.303318E+03 -1.747486E+02  7.614107E+02 -2.142147E-04
        63  26  3.108314E+05  1.908238E+02  4.459938E+03  2.067467E+02  2.984677E+03  9.934651E-04
        63  27  3.110997E+05  1.382451E+03  7.311277E+03  5.882417E+02  5.207947E+03  4.932181E-03
        64   1  3.122407E+05  9.189372E+02  9.397137E+03  1.782189E+03 -6.453617E+03 -1.851710E-02
        64   2  3.094035E+05  6.782289E+03  1.673395E+04 -8.732794E+03 -1.509289E+04  2.121993E-01
        64   3  3.122365E+05  3.082987E+04  3.423955E+04 -1.924771E+04 -2.373204E+04  7.354137E-01
        64   4  3.122407E+05  9.189313E+02  9.397136E+03  1.451925E-10 -6.453617E+03 -1.098439E-10
        64   5  3.094035E+05  6.782145E+03  1.673393E+04  8.120567E-10 -1.509289E+04 -1.712370E-10
        64   6  3.122361E+05  3.082917E+04  3.423945E+04  1.046621E-10 -2.373204E+04 -5.038381E-11
        64   7  3.122407E+05  9.189372E+02  9.397137E+03 -1.782189E+03 -6.453617E+03  1.851710E-02
        64   8  3.094035E+05  6.782289E+03  1.673395E+04  8.732794E+03 -1.509289E+04 -2.121993E-01
        64   9  3.122365E+05  3.082987E+04  3.423955E+04  1.924771E+04 -2.373204E+04 -7.354137E-01
        64  10  3.122406E+05  9.189261E+02  9.397059E+03  1.782189E+03  1.115395E-10 -1.471663E-10
        64  11  3.094033E+05  6.782227E+03  1.673353E+04 -8.732794E+03 -2.941644E-12 -1.623651E-10
        64  12  3.122359E+05  3.082972E+04  3.423849E+04 -1.924771E+04 -9.822308E-11 -7.020728E-11
        64  13  3.122406E+05  9.189201E+02  9.397058E+03 -2.650348E-10 -7.296257E-11 -1.431532E-10
        64  14  3.094032E+05  6.782084E+03  1.673351E+04  3.999204E-11  7.068115E-30 -1.212906E-10
        64  15  3.122355E+05  3.082902E+04  3.423840E+04  4.439002E-10  1.564610E-10 -3.550323E-11
        64  16  3.122406E+05  9.189261E+02  9.397059E+03 -1.782189E+03 -8.034436E-11 -1.334013E-10
        64  17  3.094033E+05  6.782227E+03  1.673353E+04  8.732794E+03 -1.232216E-11 -7.313731E-11
        64  18  3.122359E+05  3.082972E+04  3.423849E+04  1.924771E+04  3.157171E-10  3.775326E-13
        64  19  3.122407E+05  9.189372E+02  9.397137E+03  1.782189E+03  6.453617E+03  1.851710E-02
        64  20  3.094035E+05  6.782289E+03  1.673395E+04 -8.732794E+03  1.509289E+04 -2.121993E-01
        64  21  3.122365E+05  3.082987E+04  3.423955E+04 -1.924771E+04  2.373204E+04 -7.354137E-01
        64  22  3.122407E+05  9.189313E+02  9.397136E+03 -2.697697E-10  6.453617E+03 -1.766925E-10
        64  23  3.094035E+05  6.782145E+03  1.673393E+04  3.403017E-10  1.509289E+04 -6.816059E-11
        64  24  3.122361E+05  3.082917E+04  3.423945E+04  5.418789E-11  2.373204E+04 -1.953263E-11
        64  25  3.122407E+05  9.189372E+02  9.397137E+03 -1.782189E+03  6.453617E+03 -1.851710E-02
        64  26  3.094035E+05  6.782289E+03  1.673395E+04  8.732794E+03  1.509289E+04  2.121993E-01
        64  27  3.122365E+05  3.082987E+04  3.423955E+04  1.924771E+04  2.373204E+04  7.354137E-01
        65   1 -3.583864E+04 -1.299846E+04 -4.266023E+04  9.181842E+03  7.296425E+02 -3.725821E+04
        65   2  1.256654E+02 -3.295758E+04 -2.006923E+04 -6.637231E+03  2.003575E+03 -2.479348E+04
        65   3  4.452847E+03 -6.244745E+04 -1.350196E+04 -2.795442E+04  1.361775E+03 -1.232912E+04
        65   4 -5.445844E+04 -8.811578E+04 -6.064196E+04 -2.490701E+04  7.318601E+02 -4.100255E+04
        65   5 -1.196345E+04 -8.306855E+04 -3.040708E+04 -2.215686E+04  2.004235E+03 -2.532240E+04
        65   6 -1.666755E+03 -8.811280E+04 -1.843051E+04 -2.490500E+04  1.361551E+03 -9.642012E+03
        65   7 -7.307428E+04 -1.632254E+05 -7.862342E+04 -5.899173E+04  7.344891E+02 -4.474643E+04
        65   8 -2.405183E+04 -1.331766E+05 -4.074493E+04 -3.767521E+04  2.004921E+03 -2.585127E+04
        65   9 -7.786357E+03 -1.137775E+05 -2.335904E+04 -2.185572E+04  1.361354E+03 -6.955011E+03
        65  10 -3.583902E+04 -1.299995E+04 -4.266283E+04  9.181864E+03  1.521254E-10 -6.383261E-11
        65  11  1.254960E+02 -3.295824E+04 -2.007040E+04 -6.637190E+03  2.863054E-10  4.504914E-11
        65  12  4.452804E+03 -6.244761E+04 -1.350225E+04 -2.795440E+04  9.947623E-11  1.967184E-10
        65  13 -5.445890E+04 -8.811759E+04 -6.064512E+04 -2.490699E+04 -2.789680E-12 -6.536921E-12
        65  14 -1.196363E+04 -8.306924E+04 -3.040829E+04 -2.215681E+04 -1.558725E-10 -4.187662E-13
        65  15 -1.666782E+03 -8.811290E+04 -1.843068E+04 -2.490499E+04 -4.100490E-11  1.618865E-11
        65  16 -7.307481E+04 -1.632276E+05 -7.862719E+04 -5.899170E+04  4.780748E-11  6.750148E-11
        65  17 -2.405201E+04 -1.331773E+05 -4.074619E+04 -3.767516E+04 -8.841012E-11 -6.362207E-11
        65  18 -7.786372E+03 -1.137775E+05 -2.335914E+04 -2.185571E+04 -9.283864E-11 -2.035448E-10
        65  19 -3.583864E+04 -1.299846E+04 -4.266023E+04  9.181842E+03 -7.296425E+02  3.725821E+04
        65  20  1.256654E+02 -3.295758E+04 -2.006923E+04 -6.637231E+03 -2.003575E+03  2.479348E+04
        65  21  4.452847E+03 -6.244745E+04 -1.350196E+04 -2.795442E+04 -1.361775E+03  1.232912E+04
        65  22 -5.445844E+04 -8.811578E+04 -6.064196E+04 -2.490701E+04 -7.318601E+02  4.100255E+04
        65  23 -1.196345E+04 -8.306855E+04 -3.040708E+04 -2.215686E+04 -2.004235E+03  2.532240E+04
        65  24 -1.666755E+03 -8.811280E+04 -1.843051E+04 -2.490500E+04 -1.361551E+03  9.642012E+03
        65  25 -7.307428E+04 -1.632254E+05 -7.862342E+04 -5.899173E+04 -7.344891E+02  4.474643E+04
        65  26 -2.405183E+04 -1.331766E+05 -4.074493E+04 -3.767521E+04 -2.004921E+03  2.585127E+04
        65  27 -7.786357E+03 -1.137775E+05 -2.335904E+04 -2.185572E+04 -1.361354E+03  6.955011E+03
        66   1 -1.604222E+02 -7.678025E+04 -1.347270E+04 -2.358425E+04  3.805174E+02 -9.561809E+03
        66   2 -4.274118E+03 -1.006830E+05 -1.507205E+04 -2.208834E+04 -1.072293E+03 -3.251686E+03
        66   3 -1.156142E+04 -1.262004E+05 -2.157329E+04 -2.620097E+04 -2.461881E+03  3.058222E+03
        66   4 -2.438590E+03 -8.622523E+04 -1.541869E+04 -2.492967E+04  3.803780E+02 -7.068868E+03
        66   5 -6.942952E+02 -8.542695E+04 -1.243064E+04 -2.212537E+04 -1.072432E+03 -8.650245E+02
        66   6 -2.105116E+03 -8.622545E+04 -1.427070E+04 -2.492966E+04 -2.461995E+03  5.338841E+03
        66   7 -4.716752E+03 -9.567011E+04 -1.736466E+04 -2.627506E+04  3.802279E+02 -4.575965E+03
        66   8  2.885518E+03 -7.017064E+04 -9.789221E+03 -2.216240E+04 -1.072571E+03  1.521693E+03
        66   9  7.351111E+03 -4.624890E+04 -6.968159E+03 -2.365826E+04 -2.462100E+03  7.619602E+03
        66  10 -1.604469E+02 -7.678035E+04 -1.347287E+04 -2.358425E+04  5.082335E-11 -9.693679E-11
        66  11 -4.274122E+03 -1.006830E+05 -1.507207E+04 -2.208835E+04  1.005209E-10 -1.106780E-10
        66  12 -1.156143E+04 -1.262004E+05 -2.157331E+04 -2.620097E+04  4.286213E-11 -1.066352E-12
        66  13 -2.438603E+03 -8.622528E+04 -1.541878E+04 -2.492967E+04 -2.290323E-10 -2.823609E-11
        66  14 -6.942967E+02 -8.542695E+04 -1.243065E+04 -2.212537E+04 -1.272005E-10  3.232037E-12
        66  15 -2.105131E+03 -8.622548E+04 -1.427076E+04 -2.492965E+04 -9.240966E-11  9.306969E-12
        66  16 -4.716758E+03 -9.567013E+04 -1.736470E+04 -2.627506E+04 -1.830931E-10  1.156510E-10
        66  17  2.885517E+03 -7.017064E+04 -9.789227E+03 -2.216240E+04  6.452363E-11  8.401505E-11
        66  18  7.351088E+03 -4.624897E+04 -6.968279E+03 -2.365825E+04 -1.461081E-10 -1.277345E-11
        66  19 -1.604222E+02 -7.678025E+04 -1.347270E+04 -2.358425E+04 -3.805174E+02  9.561809E+03
        66  20 -4.274118E+03 -1.006830E+05 -1.507205E+04 -2.208834E+04  1.072293E+03  3.251686E+03
        66  21 -1.156142E+04 -1.262004E+05 -2.157329E+04 -2.620097E+04  2.461881E+03 -3.058222E+03
        66  22 -2.438590E+03 -8.622523E+04 -1.541869E+04 -2.492967E+04 -3.803780E+02  7.068868E+03
        66  23 -6.942952E+02 -8.542695E+04 -1.243064E+04 -2.212537E+04  1.072432E+03  8.650245E+02
        66  24 -2.105116E+03 -8.622545E+04 -1.427070E+04 -2.492966E+04  2.461995E+03 -5.338841E+03
        66  25 -4.716752E+03 -9.567011E+04 -1.736466E+04 -2.627506E+04 -3.802279E+02  4.575965E+03
        66  26  2.885518E+03 -7.017064E+04 -9.789221E+03 -2.216240E+04  1.072571E+03 -1.521693E+03
        66  27  7.351111E+03 -4.624890E+04 -6.968159E+03 -2.365826E+04  2.462100E+03 -7.619602E+03
        67   1 -1.476556E+04 -1.440445E+05 -2.696169E+04 -2.229559E+04 -3.409662E+03  5.142704E+03
        67   2 -2.970624E+04 -1.640068E+05 -4.283027E+04 -3.564776E+04 -3.620830E+03  2.329440E+04
        67   3 -7.331860E+04 -1.935000E+05 -7.768560E+04 -5.444650E+04 -1.201567E+03  4.144496E+04
        67   4 -1.452626E+03 -8.781817E+04 -1.663207E+04 -2.489385E+04 -3.409795E+03  7.705642E+03
        67   5 -1.035414E+04 -8.343796E+04 -2.664387E+04 -2.217067E+04 -3.620218E+03  2.143900E+04
        67   6 -4.715898E+04 -8.782134E+04 -5.257261E+04 -2.489510E+04 -1.199428E+03  3.517211E+04
        67   7  1.186016E+04 -3.158878E+04 -6.302556E+03 -2.749235E+04 -3.409948E+03  1.026881E+04
        67   8  8.998242E+03 -2.862536E+03 -1.045769E+04 -8.691788E+03 -3.619687E+03  1.958337E+04
        67   9 -2.099685E+04  1.786958E+04 -2.745978E+04  4.661358E+03 -1.197886E+03  2.889819E+04
        67  10 -1.476558E+04 -1.440445E+05 -2.696177E+04 -2.229558E+04 -1.343866E-10 -1.394849E-10
        67  11 -2.970640E+04 -1.640074E+05 -4.283131E+04 -3.564769E+04 -4.115654E-11  1.885517E-11
        67  12 -7.331907E+04 -1.935019E+05 -7.768883E+04 -5.444646E+04 -1.977083E-10  1.529834E-10
        67  13 -1.452654E+03 -8.781824E+04 -1.663221E+04 -2.489383E+04  9.782240E-11 -1.663508E-11
        67  14 -1.035428E+04 -8.343846E+04 -2.664476E+04 -2.217060E+04 -7.586189E-11 -3.285168E-12
        67  15 -4.715931E+04 -8.782267E+04 -5.257494E+04 -2.489506E+04 -5.155206E-11 -7.613603E-12
        67  16  1.186011E+04 -3.158889E+04 -6.302776E+03 -2.749232E+04 -1.996400E-10  1.512454E-10
        67  17  8.998125E+03 -2.862951E+03 -1.045843E+04 -8.691731E+03 -1.755203E-10 -1.523192E-11
        67  18 -2.099708E+04  1.786869E+04 -2.746135E+04  4.661386E+03 -7.890766E-11 -1.474587E-10
        67  19 -1.476556E+04 -1.440445E+05 -2.696169E+04 -2.229559E+04  3.409662E+03 -5.142704E+03
        67  20 -2.970624E+04 -1.640068E+05 -4.283027E+04 -3.564776E+04  3.620830E+03 -2.329440E+04
        67  21 -7.331860E+04 -1.935000E+05 -7.768560E+04 -5.444650E+04  1.201567E+03 -4.144496E+04
        67  22 -1.452626E+03 -8.781817E+04 -1.663207E+04 -2.489385E+04  3.409795E+03 -7.705642E+03
        67  23 -1.035414E+04 -8.343796E+04 -2.664387E+04 -2.217067E+04  3.620218E+03 -2.143900E+04
        67  24 -4.715898E+04 -8.782134E+04 -5.257261E+04 -2.489510E+04  1.199428E+03 -3.517211E+04
        67  25  1.186016E+04 -3.158878E+04 -6.302556E+03 -2.749235E+04  3.409948E+03 -1.026881E+04
        67  26  8.998242E+03 -2.862536E+03 -1.045769E+04 -8.691788E+03  3.619687E+03 -1.958337E+04
        67  27 -2.099685E+04  1.786958E+04 -2.745978E+04  4.661358E+03  1.197886E+03 -2.889819E+04
        68   1  4.334768E+04 -2.016834E+04 -3.275143E+04  3.704746E+04 -1.149422E+04 -7.067235E+03
        68   2  5.301378E+04 -2.949739E+03 -2.099014E+04  4.047730E+04 -7.986777E+03 -1.012444E+03
        68   3  6.208897E+04  6.644243E+03 -1.489593E+04  4.475092E+04 -3.057299E+03  3.146715E+03
        68   4  1.089318E+05  3.550073E+04 -9.807425E+03  7.372208E+04 -6.219653E+03 -3.111690E+03
        68   5  1.104246E+05  4.171056E+04 -4.758843E+03  7.124324E+04 -5.897098E+03  5.545942E+02
        68   6  1.120176E+05  4.098712E+04 -2.612720E+03  6.960794E+04 -4.152752E+03  2.325176E+03
        68   7  1.745208E+05  9.117364E+04  1.313618E+04  1.104016E+05 -9.443140E+02  8.445776E+02
        68   8  1.678387E+05  8.637304E+04  1.147204E+04  1.020124E+05 -3.807172E+03  2.121844E+03
        68   9  1.619483E+05  7.533089E+04  9.670066E+03  9.446689E+04 -5.248308E+03  1.503563E+03
        68  10  4.334752E+04 -2.016843E+04 -3.275177E+04  3.704739E+04  3.852380E-11 -2.968667E-11
        68  11  5.301371E+04 -2.949757E+03 -2.099027E+04  4.047730E+04  2.473567E-11 -2.481085E-11
        68  12  6.208896E+04  6.644230E+03 -1.489597E+04  4.475092E+04  4.228743E-11 -2.471904E-11
        68  13  1.089318E+05  3.550071E+04 -9.807516E+03  7.372206E+04  3.608991E-11  2.057942E-11
        68  14  1.104245E+05  4.171055E+04 -4.758909E+03  7.124324E+04 -9.924807E-11  1.672657E-12
        68  15  1.120176E+05  4.098711E+04 -2.612763E+03  6.960795E+04 -2.158966E-10 -2.253639E-11
        68  16  1.745208E+05  9.117364E+04  1.313618E+04  1.104016E+05 -9.135267E-12  3.624386E-11
        68  17  1.678387E+05  8.637303E+04  1.147200E+04  1.020124E+05 -1.911739E-10  8.922312E-13
        68  18  1.619483E+05  7.533088E+04  9.670010E+03  9.446690E+04 -2.456964E-10 -3.117272E-11
        68  19  4.334768E+04 -2.016834E+04 -3.275143E+04  3.704746E+04  1.149422E+04  7.067235E+03
        68  20  5.301378E+04 -2.949739E+03 -2.099014E+04  4.047730E+04  7.986777E+03  1.012444E+03
        68  21  6.208897E+04  6.644243E+03 -1.489593E+04  4.475092E+04  3.057299E+03 -3.146715E+03
        68  22  1.089318E+05  3.550073E+04 -9.807425E+03  7.372208E+04  6.219653E+03  3.111690E+03
        68  23  1.104246E+05  4.171056E+04 -4.758843E+03  7.124324E+04  5.897098E+03 -5.545942E+02
        68  24  1.120176E+05  4.098712E+04 -2.612720E+03  6.960794E+04  4.152752E+03 -2.325176E+03
        68  25  1.745208E+05  9.117364E+04  1.313618E+04  1.104016E+05  9.443140E+02 -8.445776E+02
        68  26  1.678387E+05  8.637304E+04  1.147204E+04  1.020124E+05  3.807172E+03 -2.121844E+03
        68  27  1.619483E+05  7.533089E+04  9.670066E+03  9.446689E+04  5.248308E+03 -1.503563E+03
        69   1  6.988097E+04  1.090017E+04 -1.244308E+04  4.827486E+04 -2.690323E+03  2.773271E+03
        69   2  7.890466E+04  2.028031E+04 -8.735634E+03  5.394804E+04 -1.522643E+03  2.700499E+03
        69   3  9.084040E+04  2.621345E+04 -5.691738E+03  5.876428E+04 -2.293904E+02  2.460284E+03
        69   4  1.122129E+05  4.098770E+04 -1.985211E+03  6.982070E+04 -3.569643E+03  2.113834E+03
        69   5  1.107995E+05  4.281061E+04 -1.079620E+03  7.015196E+04 -2.683302E+03  1.830113E+03
        69   6  1.123591E+05  4.124743E+04 -5.933974E+02  6.962616E+04 -1.671402E+03  1.378941E+03
        69   7  1.545469E+05  7.107635E+04  8.472542E+03  9.136826E+04 -4.449045E+03  1.454336E+03
        69   8  1.426958E+05  6.534175E+04  6.576439E+03  8.635701E+04 -3.844052E+03  9.596594E+02
        69   9  1.338787E+05  5.628196E+04  4.505062E+03  8.048866E+04 -3.113507E+03  2.975286E+02
        69  10  6.988096E+04  1.090016E+04 -1.244311E+04  4.827487E+04 -1.855803E-10 -1.224853E-10
        69  11  7.890465E+04  2.028030E+04 -8.735652E+03  5.394804E+04  3.510205E-11 -5.141215E-11
        69  12  9.084040E+04  2.621345E+04 -5.691750E+03  5.876428E+04  7.205491E-11  8.871740E-12
        69  13  1.122129E+05  4.098769E+04 -1.985243E+03  6.982071E+04 -2.479467E-10 -2.333806E-11
        69  14  1.107995E+05  4.281060E+04 -1.079640E+03  7.015197E+04 -3.165678E-11  3.657990E-11
        69  15  1.123591E+05  4.124742E+04 -5.934062E+02  6.962616E+04  2.498944E-11  5.684058E-11
        69  16  1.545469E+05  7.107634E+04  8.472501E+03  9.136827E+04 -3.772724E-11  8.633254E-11
        69  17  1.426958E+05  6.534174E+04  6.576409E+03  8.635701E+04 -2.511856E-10  1.053577E-10
        69  18  1.338787E+05  5.628196E+04  4.505044E+03  8.048867E+04 -5.392744E-12  2.405951E-11
        69  19  6.988097E+04  1.090017E+04 -1.244308E+04  4.827486E+04  2.690323E+03 -2.773271E+03
        69  20  7.890466E+04  2.028031E+04 -8.735634E+03  5.394804E+04  1.522643E+03 -2.700499E+03
        69  21  9.084040E+04  2.621345E+04 -5.691738E+03  5.876428E+04  2.293904E+02 -2.460284E+03
        69  22  1.122129E+05  4.098770E+04 -1.985211E+03  6.982070E+04  3.569643E+03 -2.113834E+03
        69  23  1.107995E+05  4.281061E+04 -1.079620E+03  7.015196E+04  2.683302E+03 -1.830113E+03
        69  24  1.123591E+05  4.124743E+04 -5.933974E+02  6.962616E+04  1.671402E+03 -1.378941E+03
        69  25  1.545469E+05  7.107635E+04  8.472542E+03  9.136826E+04  4.449045E+03 -1.454336E+03
        69  26  1.426958E+05  6.534175E+04  6.576439E+03  8.635701E+04  3.844052E+03 -9.596594E+02
        69  27  1.338787E+05  5.628196E+04  4.505062E+03  8.048866E+04  3.113507E+03 -2.975286E+02
        70   1  9.775612E+04  3.100711E+04 -3.853342E+03  6.224316E+04  2.018823E+02  1.997195E+03
        70   2  1.066818E+05  3.998718E+04 -1.153766E+03  6.803288E+04  9.186168E+02  1.209088E+03
        70   3  1.187653E+05  4.578246E+04  1.477520E+03  7.289470E+04  1.636577E+03  4.193231E+02
        70   4  1.123758E+05  4.124843E+04 -4.323745E+02  6.964358E+04 -1.222401E+03  9.291578E+02
        70   5  1.107986E+05  4.284429E+04 -1.962030E+02  7.010461E+04 -5.084491E+02  1.389778E+02
        70   6  1.123800E+05  4.125609E+04 -2.582708E+01  6.963773E+04  2.067308E+02 -6.528643E+02
        70   7  1.269955E+05  5.148969E+04  2.988499E+03  7.704408E+04 -2.646704E+03 -1.388936E+02
        70   8  1.149155E+05  4.570139E+04  7.613571E+02  7.217634E+04 -1.935514E+03 -9.311317E+02
        70   9  1.059948E+05  3.672974E+04 -1.529164E+03  6.638082E+04 -1.223095E+03 -1.725036E+03
        70  10  9.775612E+04  3.100711E+04 -3.853350E+03  6.224316E+04 -4.892052E-11  3.387775E-11
        70  11  1.066818E+05  3.998718E+04 -1.153770E+03  6.803288E+04 -2.499486E-10  2.403282E-12
        70  12  1.187653E+05  4.578246E+04  1.477515E+03  7.289469E+04 -3.252430E-10 -5.307179E-11
        70  13  1.123758E+05  4.124843E+04 -4.323790E+02  6.964358E+04  4.693810E-11 -3.731422E-11
        70  14  1.107986E+05  4.284429E+04 -1.962035E+02  7.010461E+04 -5.145677E-11  4.192820E-11
        70  15  1.123800E+05  4.125608E+04 -2.582796E+01  6.963773E+04 -7.119587E-11  1.790969E-11
        70  16  1.269954E+05  5.148969E+04  2.988485E+03  7.704408E+04 -2.924380E-10  3.638704E-12
        70  17  1.149155E+05  4.570139E+04  7.613485E+02  7.217633E+04 -3.173553E-11  2.134359E-11
        70  18  1.059948E+05  3.672974E+04 -1.529172E+03  6.638082E+04  2.262432E-10  5.861527E-11
        70  19  9.775612E+04  3.100711E+04 -3.853342E+03  6.224316E+04 -2.018823E+02 -1.997195E+03
        70  20  1.066818E+05  3.998718E+04 -1.153766E+03  6.803288E+04 -9.186168E+02 -1.209088E+03
        70  21  1.187653E+05  4.578246E+04  1.477520E+03  7.289470E+04 -1.636577E+03 -4.193231E+02
        70  22  1.123758E+05  4.124843E+04 -4.323745E+02  6.964358E+04  1.222401E+03 -9.291578E+02
        70  23  1.107986E+05  4.284429E+04 -1.962030E+02  7.010461E+04  5.084491E+02 -1.389778E+02
        70  24  1.123800E+05  4.125609E+04 -2.582708E+01  6.963773E+04 -2.067308E+02  6.528643E+02
        70  25  1.269955E+05  5.148969E+04  2.988499E+03  7.704408E+04  2.646704E+03  1.388936E+02
        70  26  1.149155E+05  4.570139E+04  7.613571E+02  7.217634E+04  1.935514E+03  9.311317E+02
        70  27  1.059948E+05  3.672974E+04 -1.529164E+03  6.638082E+04  1.223095E+03  1.725036E+03
        71   1  1.256195E+05  5.062472E+04  3.231593E+03  7.637728E+04  2.028923E+03 -7.427667E+01
        71   2  1.345530E+05  5.956412E+04  5.952762E+03  8.212608E+04  2.276130E+03 -1.116586E+03
        71   3  1.467508E+05  6.545534E+04  8.984275E+03  8.693330E+04  2.411941E+03 -2.010346E+03
        71   4  1.123834E+05  4.125977E+04  5.253428E+01  6.964557E+04  5.836565E+02 -1.158037E+03
        71   5  1.107974E+05  4.284500E+04  2.308843E+02  7.009077E+04  1.080490E+03 -2.013188E+03
        71   6  1.124212E+05  4.132762E+04  5.028905E+02  6.959419E+04  1.465934E+03 -2.719768E+03
        71   7  9.914727E+04  3.189476E+04 -3.126606E+03  6.291390E+04 -8.615935E+02 -2.241785E+03
        71   8  8.704238E+04  2.612622E+04 -5.491023E+03  5.805600E+04 -1.150885E+02 -2.909743E+03
        71   9  7.809362E+04  1.720104E+04 -7.978364E+03  5.225649E+04  5.200126E+02 -3.429125E+03
        71  10  1.256195E+05  5.062472E+04  3.231586E+03  7.637728E+04 -4.603740E-11  1.417704E-10
        71  11  1.345530E+05  5.956412E+04  5.952750E+03  8.212608E+04  4.438406E-11  6.214803E-11
        71  12  1.467508E+05  6.545534E+04  8.984256E+03  8.693330E+04  4.417107E-12 -4.694218E-12
        71  13  1.123834E+05  4.125977E+04  5.253112E+01  6.964557E+04 -3.241593E-11  4.834476E-11
        71  14  1.107974E+05  4.284499E+04  2.308745E+02  7.009078E+04  2.023090E-10 -1.583793E-12
        71  15  1.124212E+05  4.132761E+04  5.028726E+02  6.959419E+04  2.263110E-10 -1.207679E-10
        71  16  9.914727E+04  3.189475E+04 -3.126617E+03  6.291390E+04  3.088838E-11 -1.945691E-11
        71  17  8.704238E+04  2.612621E+04 -5.491039E+03  5.805600E+04 -7.355068E-11 -3.709846E-11
        71  18  7.809361E+04  1.720102E+04 -7.978387E+03  5.225649E+04 -1.444485E-10 -1.300309E-10
        71  19  1.256195E+05  5.062472E+04  3.231593E+03  7.637728E+04 -2.028923E+03  7.427667E+01
        71  20  1.345530E+05  5.956412E+04  5.952762E+03  8.212608E+04 -2.276130E+03  1.116586E+03
        71  21  1.467508E+05  6.545534E+04  8.984275E+03  8.693330E+04 -2.411941E+03  2.010346E+03
        71  22  1.123834E+05  4.125977E+04  5.253428E+01  6.964557E+04 -5.836565E+02  1.158037E+03
        71  23  1.107974E+05  4.284500E+04  2.308843E+02  7.009077E+04 -1.080490E+03  2.013188E+03
        71  24  1.124212E+05  4.132762E+04  5.028905E+02  6.959419E+04 -1.465934E+03  2.719768E+03
        71  25  9.914727E+04  3.189476E+04 -3.126606E+03  6.291390E+04  8.615935E+02  2.241785E+03
        71  26  8.704238E+04  2.612622E+04 -5.491023E+03  5.805600E+04  1.150885E+02  2.909743E+03
        71  27  7.809362E+04  1.720104E+04 -7.978364E+03  5.225649E+04 -5.200126E+02  3.429125E+03
        72   1  1.535270E+05  7.056385E+04  1.097003E+04  9.055098E+04  2.854111E+03 -2.344235E+03
        72   2  1.632072E+05  7.892490E+04  1.534124E+04  9.553636E+04 -6.282968E+02 -4.697549E+03
        72   3  1.773222E+05  8.592953E+04  2.295119E+04  9.917122E+04 -5.374386E+03 -5.366132E+03
        72   4  1.124368E+05  4.136554E+04  6.818815E+02  6.966353E+04  1.716110E+03 -3.197646E+03
        72   5  1.109433E+05  4.309209E+04  1.275287E+03  6.978284E+04  1.065165E+03 -3.427640E+03
        72   6  1.132704E+05  4.284801E+04  2.650315E+03  6.855153E+04 -8.494457E+02 -1.972733E+03
        72   7  7.134843E+04  1.216824E+04 -9.606401E+03  4.877767E+04  5.782105E+02 -4.050982E+03
        72   8  5.868203E+04  7.260404E+03 -1.279107E+04  4.403153E+04  2.758450E+03 -2.157857E+03
        72   9  4.922181E+04 -2.323517E+02 -1.765134E+04  3.793476E+04  3.674938E+03  1.420282E+03
        72  10  1.535270E+05  7.056384E+04  1.097001E+04  9.055099E+04 -6.358864E-11 -1.327331E-10
        72  11  1.632072E+05  7.892487E+04  1.534120E+04  9.553636E+04  1.679881E-10 -4.328032E-11
        72  12  1.773221E+05  8.592949E+04  2.295108E+04  9.917119E+04  6.924582E-11  1.862999E-11
        72  13  1.124368E+05  4.136553E+04  6.818568E+02  6.966354E+04  2.533962E-10 -7.156957E-11
        72  14  1.109433E+05  4.309207E+04  1.275263E+03  6.978285E+04 -7.040770E-11  1.513040E-11
        72  15  1.132704E+05  4.284800E+04  2.650307E+03  6.855153E+04 -6.223894E-11  3.070215E-12
        72  16  7.134842E+04  1.216823E+04 -9.606432E+03  4.877767E+04  1.634660E-12  4.760884E-11
        72  17  5.868202E+04  7.260397E+03 -1.279109E+04  4.403154E+04 -2.491145E-10  4.538218E-11
        72  18  4.922179E+04 -2.323575E+02 -1.765137E+04  3.793476E+04 -8.586045E-11 -1.999427E-11
        72  19  1.535270E+05  7.056385E+04  1.097003E+04  9.055098E+04 -2.854111E+03  2.344235E+03
        72  20  1.632072E+05  7.892490E+04  1.534124E+04  9.553636E+04  6.282968E+02  4.697549E+03
        72  21  1.773222E+05  8.592953E+04  2.295119E+04  9.917122E+04  5.374386E+03  5.366132E+03
        72  22  1.124368E+05  4.136554E+04  6.818815E+02  6.966353E+04 -1.716110E+03  3.197646E+03
        72  23  1.109433E+05  4.309209E+04  1.275287E+03  6.978284E+04 -1.065165E+03  3.427640E+03
        72  24  1.132704E+05  4.284801E+04  2.650315E+03  6.855153E+04  8.494457E+02  1.972733E+03
        72  25  7.134843E+04  1.216824E+04 -9.606401E+03  4.877767E+04 -5.782105E+02  4.050982E+03
        72  26  5.868203E+04  7.260404E+03 -1.279107E+04  4.403153E+04 -2.758450E+03  2.157857E+03
        72  27  4.922181E+04 -2.323517E+02 -1.765134E+04  3.793476E+04 -3.674938E+03 -1.420282E+03
        73   1  1.639832E+05  2.810306E+03  3.132780E+03  1.761541E+03  2.097127E+03  5.948844E-03
        73   2  1.637228E+05  6.154801E+02  1.586762E+03  8.058556E+02  1.279302E+03  1.660143E-03
        73   3  1.639834E+05  7.929775E+01  9.877510E+02 -1.498430E+02  4.614651E+02 -1.113502E-04
        73   4  1.639832E+05  2.810300E+03  3.132779E+03 -3.179063E-10  2.097127E+03 -1.305899E-11
        73   5  1.637228E+05  6.154789E+02  1.586762E+03  6.271359E-10  1.279302E+03 -5.158726E-11
        73   6  1.639834E+05  7.929771E+01  9.877510E+02  1.243726E-10  4.614651E+02 -1.027904E-10
        73   7  1.639832E+05  2.810306E+03  3.132780E+03 -1.761541E+03  2.097127E+03 -5.948844E-03
        73   8  1.637228E+05  6.154801E+02  1.586762E+03 -8.058556E+02  1.279302E+03 -1.660143E-03
        73   9  1.639834E+05  7.929775E+01  9.877510E+02  1.498430E+02  4.614651E+02  1.113500E-04
        73  10  1.639832E+05  2.810305E+03  3.132772E+03  1.761541E+03 -1.200860E-10  9.038725E-12
        73  11  1.637228E+05  6.154797E+02  1.586759E+03  8.058556E+02  1.241494E-10  2.237823E-11
        73  12  1.639834E+05  7.929770E+01  9.877506E+02 -1.498430E+02  1.539474E-10 -2.834511E-11
        73  13  1.639832E+05  2.810299E+03  3.132771E+03  2.629678E-11  1.263232E-10  5.105463E-12
        73  14  1.637228E+05  6.154784E+02  1.586759E+03  2.471720E-10  5.900816E-11  6.037681E-12
        73  15  1.639834E+05  7.929765E+01  9.877506E+02  9.886478E-11 -1.547364E-10 -2.471342E-11
        73  16  1.639832E+05  2.810305E+03  3.132772E+03 -1.761541E+03  1.138284E-10 -3.968077E-12
        73  17  1.637228E+05  6.154797E+02  1.586759E+03 -8.058556E+02  5.490271E-12 -9.121534E-12
        73  18  1.639834E+05  7.929770E+01  9.877506E+02  1.498430E+02  7.386828E-11 -2.045043E-11
        73  19  1.639832E+05  2.810306E+03  3.132780E+03  1.761541E+03 -2.097127E+03 -5.948844E-03
        73  20  1.637228E+05  6.154801E+02  1.586762E+03  8.058556E+02 -1.279302E+03 -1.660143E-03
        73  21  1.639834E+05  7.929775E+01  9.877510E+02 -1.498430E+02 -4.614651E+02  1.113501E-04
        73  22  1.639832E+05  2.810300E+03  3.132779E+03 -4.378109E-10 -2.097127E+03  2.162911E-11
        73  23  1.637228E+05  6.154789E+02  1.586762E+03  6.941678E-11 -1.279302E+03  6.146599E-11
        73  24  1.639834E+05  7.929771E+01  9.877510E+02 -6.337747E-11 -4.614651E+02  5.353392E-11
        73  25  1.639832E+05  2.810306E+03  3.132780E+03 -1.761541E+03 -2.097127E+03  5.948844E-03
        73  26  1.637228E+05  6.154801E+02  1.586762E+03 -8.058556E+02 -1.279302E+03  1.660143E-03
        73  27  1.639834E+05  7.929775E+01  9.877510E+02  1.498430E+02 -4.614651E+02 -1.113500E-04
        74   1  1.638841E+05  1.200251E+02  8.459996E+02  7.079335E+01  3.198691E+02  3.646523E-05
        74   2  1.638470E+05  8.338900E+00  7.296605E+02  4.263930E+01 -4.272504E+01 -2.933647E-06
        74   3  1.638841E+05  4.271095E+00  8.762446E+02  1.448524E+01 -4.053192E+02 -9.454491E-06
        74   4  1.638841E+05  1.200251E+02  8.459996E+02  2.237722E-10  3.198691E+02 -9.095390E-11
        74   5  1.638470E+05  8.338896E+00  7.296605E+02  3.723357E-10 -4.272504E+01 -2.542773E-11
        74   6  1.638841E+05  4.271095E+00  8.762446E+02  2.523769E-11 -4.053192E+02 -7.022394E-12
        74   7  1.638841E+05  1.200251E+02  8.459996E+02 -7.079335E+01  3.198691E+02 -3.646540E-05
        74   8  1.638470E+05  8.338900E+00  7.296605E+02 -4.263930E+01 -4.272504E+01  2.933603E-06
        74   9  1.638841E+05  4.271095E+00  8.762446E+02 -1.448524E+01 -4.053192E+02  9.454474E-06
        74  10  1.638841E+05  1.200251E+02  8.459994E+02  7.079335E+01 -3.489294E-11 -1.780655E-11
        74  11  1.638470E+05  8.338899E+00  7.296605E+02  4.263930E+01  7.909137E-11  4.191301E-11
        74  12  1.638841E+05  4.271051E+00  8.762443E+02  1.448524E+01  1.577916E-12  3.564889E-11
        74  13  1.638841E+05  1.200251E+02  8.459994E+02  5.921679E-10  1.159555E-10 -1.900191E-11
        74  14  1.638470E+05  8.338896E+00  7.296605E+02  2.503275E-10  2.906844E-10  2.316932E-11
        74  15  1.638841E+05  4.271051E+00  8.762443E+02  4.416970E-11  6.285053E-11  2.472004E-11
        74  16  1.638841E+05  1.200251E+02  8.459994E+02 -7.079335E+01  4.212681E-11 -2.270872E-11
        74  17  1.638470E+05  8.338899E+00  7.296605E+02 -4.263930E+01  4.225273E-11 -6.754836E-12
        74  18  1.638841E+05  4.271051E+00  8.762443E+02 -1.448524E+01 -5.002477E-11  1.580194E-11
        74  19  1.638841E+05  1.200251E+02  8.459996E+02  7.079335E+01 -3.198691E+02 -3.646526E-05
        74  20  1.638470E+05  8.338900E+00  7.296605E+02  4.263930E+01  4.272504E+01  2.933712E-06
        74  21  1.638841E+05  4.271095E+00  8.762446E+02  1.448524E+01  4.053192E+02  9.454555E-06
        74  22  1.638841E+05  1.200251E+02  8.459996E+02  1.575132E-10 -3.198691E+02  5.583173E-11
        74  23  1.638470E+05  8.338896E+00  7.296605E+02  1.298972E-10  4.272504E+01  6.685576E-11
        74  24  1.638841E+05  4.271095E+00  8.762446E+02  5.889425E-11  4.053192E+02  5.448012E-11
        74  25  1.638841E+05  1.200251E+02  8.459996E+02 -7.079335E+01 -3.198691E+02  3.646538E-05
        74  26  1.638470E+05  8.338900E+00  7.296605E+02 -4.263930E+01  4.272504E+01 -2.933602E-06
        74  27  1.638841E+05  4.271095E+00  8.762446E+02 -1.448524E+01  4.053192E+02 -9.454439E-06
        75   1  1.639137E+05 -6.793822E+00  1.045577E+03  8.859832E+01 -5.732063E+02 -8.178084E-05
        75   2  1.638099E+05  8.351795E+01  1.659767E+03 -7.210168E+01 -1.401173E+03  1.626868E-04
        75   3  1.639136E+05  5.725747E+02  2.912584E+03 -2.327992E+02 -2.229127E+03  8.356637E-04
        75   4  1.639137E+05 -6.793837E+00  1.045577E+03 -5.810255E-11 -5.732063E+02  9.873621E-12
        75   5  1.638099E+05  8.351794E+01  1.659767E+03  2.761005E-10 -1.401173E+03  3.766616E-11
        75   6  1.639136E+05  5.725746E+02  2.912584E+03 -2.261800E-11 -2.229127E+03  1.103922E-11
        75   7  1.639137E+05 -6.793822E+00  1.045577E+03 -8.859832E+01 -5.732063E+02  8.178085E-05
        75   8  1.638099E+05  8.351795E+01  1.659767E+03  7.210168E+01 -1.401173E+03 -1.626867E-04
        75   9  1.639136E+05  5.725747E+02  2.912584E+03  2.327992E+02 -2.229127E+03 -8.356637E-04
        75  10  1.639137E+05 -6.793910E+00  1.045577E+03  8.859832E+01 -7.882211E-11  6.814270E-12
        75  11  1.638099E+05  8.351742E+01  1.659763E+03 -7.210168E+01 -9.615184E-12 -2.790311E-11
        75  12  1.639136E+05  5.725734E+02  2.912574E+03 -2.327992E+02  2.368312E-10 -7.070805E-11
        75  13  1.639137E+05 -6.793925E+00  1.045577E+03  4.123156E-10  1.876084E-11  1.960292E-11
        75  14  1.638099E+05  8.351741E+01  1.659763E+03 -1.062301E-10 -9.362844E-28  1.106198E-11
        75  15  1.639136E+05  5.725733E+02  2.912574E+03 -8.309776E-11 -2.653972E-10 -1.838911E-11
        75  16  1.639137E+05 -6.793910E+00  1.045577E+03 -8.859832E+01  8.171845E-11  3.489562E-11
        75  17  1.638099E+05  8.351742E+01  1.659763E+03  7.210168E+01 -1.665946E-10  4.967804E-11
        75  18  1.639136E+05  5.725734E+02  2.912574E+03  2.327992E+02 -1.085528E-10  3.811526E-11
        75  19  1.639137E+05 -6.793822E+00  1.045577E+03  8.859832E+01  5.732063E+02  8.178082E-05
        75  20  1.638099E+05  8.351795E+01  1.659767E+03 -7.210168E+01  1.401173E+03 -1.626868E-04
        75  21  1.639136E+05  5.725747E+02  2.912584E+03 -2.327992E+02  2.229127E+03 -8.356639E-04
        75  22  1.639137E+05 -6.793837E+00  1.045577E+03  2.103698E-10  5.732063E+02  2.997179E-11
        75  23  1.638099E+05  8.351794E+01  1.659767E+03 -2.179847E-10  1.401173E+03 -1.697706E-11
        75  24  1.639136E+05  5.725746E+02  2.912584E+03 -2.692684E-10  2.229127E+03 -4.570314E-11
        75  25  1.639137E+05 -6.793822E+00  1.045577E+03 -8.859832E+01  5.732063E+02 -8.178077E-05
        75  26  1.638099E+05  8.351795E+01  1.659767E+03  7.210168E+01  1.401173E+03  1.626868E-04
        75  27  1.639136E+05  5.725747E+02  2.912584E+03  2.327992E+02  2.229127E+03  8.356638E-04
        76   1  1.643860E+05  3.807303E+02  3.798066E+03  7.409348E+02 -2.726712E+03 -3.253375E-03
        76   2  1.632190E+05  2.794431E+03  6.857805E+03 -3.590549E+03 -6.267783E+03  3.624020E-02
        76   3  1.643851E+05  1.269690E+04  1.409469E+04 -7.922111E+03 -9.808907E+03  1.251345E-01
        76   4  1.643860E+05  3.807293E+02  3.798066E+03  1.761442E-11 -2.726712E+03 -1.575953E-11
        76   5  1.632190E+05  2.794407E+03  6.857802E+03  4.417569E-10 -6.267783E+03 -3.671677E-11
        76   6  1.643850E+05  1.269678E+04  1.409467E+04 -1.175358E-10 -9.808907E+03 -4.832397E-12
        76   7  1.643860E+05  3.807303E+02  3.798066E+03 -7.409348E+02 -2.726712E+03  3.253375E-03
        76   8  1.632190E+05  2.794431E+03  6.857805E+03  3.590549E+03 -6.267783E+03 -3.624020E-02
        76   9  1.643851E+05  1.269690E+04  1.409469E+04  7.922111E+03 -9.808907E+03 -1.251345E-01
        76  10  1.643860E+05  3.807283E+02  3.798052E+03  7.409348E+02  9.048199E-11 -6.710116E-11
        76  11  1.632190E+05  2.794420E+03  6.857731E+03 -3.590549E+03  5.728159E-11 -1.363401E-11
        76  12  1.643850E+05  1.269687E+04  1.409451E+04 -7.922111E+03 -3.783365E-11  8.590149E-12
        76  13  1.643860E+05  3.807273E+02  3.798052E+03  7.467391E-11 -2.103747E-12 -3.716109E-11
        76  14  1.632190E+05  2.794396E+03  6.857728E+03  1.451492E-10  3.817163E-11 -4.122322E-11
        76  15  1.643849E+05  1.269676E+04  1.409449E+04 -1.693358E-10  1.917916E-10 -1.322685E-11
        76  16  1.643860E+05  3.807283E+02  3.798052E+03 -7.409348E+02 -3.556958E-11 -1.218154E-11
        76  17  1.632190E+05  2.794420E+03  6.857731E+03  3.590549E+03 -1.155697E-10 -6.367085E-11
        76  18  1.643850E+05  1.269687E+04  1.409451E+04  7.922111E+03 -3.980895E-11 -2.481481E-11
        76  19  1.643860E+05  3.807303E+02  3.798066E+03  7.409348E+02  2.726712E+03  3.253375E-03
        76  20  1.632190E+05  2.794431E+03  6.857805E+03 -3.590549E+03  6.267783E+03 -3.624020E-02
        76  21  1.643851E+05  1.269690E+04  1.409469E+04 -7.922111E+03  9.808907E+03 -1.251345E-01
        76  22  1.643860E+05  3.807293E+02  3.798066E+03 -4.081036E-10  2.726712E+03 -5.854278E-11
        76  23  1.632190E+05  2.794407E+03  6.857802E+03 -8.230247E-11  6.267783E+03 -4.565402E-11
        76  24  1.643850E+05  1.269678E+04  1.409467E+04 -2.040442E-10  9.808907E+03 -2.345868E-11
        76  25  1.643860E+05  3.807303E+02  3.798066E+03 -7.409348E+02  2.726712E+03 -3.253375E-03
        76  26  1.632190E+05  2.794431E+03  6.857805E+03  3.590549E+03  6.267783E+03  3.624020E-02
        76  27  1.643851E+05  1.269690E+04  1.409469E+04  7.922111E+03  9.808907E+03  1.251345E-01
        77   1 -3.398423E+04 -4.119949E+04 -3.908446E+04  1.462876E+04  3.142978E+02 -3.016275E+04
        77   2 -4.046777E+03 -4.919070E+04 -1.921473E+04  1.509585E+03  8.407062E+02 -1.937597E+04
        77   3  1.109193E+03 -6.478147E+04 -1.256296E+04 -1.423557E+04  5.041075E+02 -8.589260E+03
        77   4 -4.233031E+04 -7.485677E+04 -4.715480E+04 -1.187973E+04  3.156206E+02 -3.176939E+04
        77   5 -9.297705E+03 -7.092998E+04 -2.373050E+04 -1.056644E+04  8.410892E+02 -1.953428E+04
        77   6 -1.299372E+03 -7.485516E+04 -1.453059E+04 -1.187902E+04  5.040383E+02 -7.298987E+03
        77   7 -5.067384E+04 -1.085115E+05 -5.522484E+04 -3.838679E+04  3.170807E+02 -3.337594E+04
        77   8 -1.454812E+04 -9.266850E+04 -2.824620E+04 -2.264204E+04  8.414784E+02 -1.969257E+04
        77   9 -3.707921E+03 -8.492874E+04 -1.649821E+04 -9.522504E+03  5.039788E+02 -6.008734E+03
        77  10 -3.398447E+04 -4.120046E+04 -3.908617E+04  1.462877E+04 -6.305822E-11 -2.055363E-10
        77  11 -4.046878E+03 -4.919110E+04 -1.921544E+04  1.509598E+03 -1.380019E-10 -5.193527E-11
        77  12  1.109173E+03 -6.478155E+04 -1.256310E+04 -1.423557E+04 -8.349931E-11  1.303740E-10
        77  13 -4.233058E+04 -7.485785E+04 -4.715670E+04 -1.187972E+04 -9.720403E-11 -1.895031E-12
        77  14 -9.297808E+03 -7.093039E+04 -2.373121E+04 -1.056643E+04 -2.373699E-10 -5.856968E-12
        77  15 -1.299386E+03 -7.485522E+04 -1.453069E+04 -1.187902E+04 -1.797776E-10 -4.071795E-12
        77  16 -5.067413E+04 -1.085127E+05 -5.522693E+04 -3.838678E+04 -9.691510E-11  2.020981E-10
        77  17 -1.454822E+04 -9.266891E+04 -2.824693E+04 -2.264203E+04 -9.215539E-11  4.996518E-11
        77  18 -3.707931E+03 -8.492878E+04 -1.649828E+04 -9.522501E+03 -6.499225E-11 -1.394614E-10
        77  19 -3.398423E+04 -4.119949E+04 -3.908446E+04  1.462876E+04 -3.142978E+02  3.016275E+04
        77  20 -4.046777E+03 -4.919070E+04 -1.921473E+04  1.509585E+03 -8.407062E+02  1.937597E+04
        77  21  1.109193E+03 -6.478147E+04 -1.256296E+04 -1.423557E+04 -5.041075E+02  8.589260E+03
        77  22 -4.233031E+04 -7.485677E+04 -4.715480E+04 -1.187973E+04 -3.156206E+02  3.176939E+04
        77  23 -9.297705E+03 -7.092998E+04 -2.373050E+04 -1.056644E+04 -8.410892E+02  1.953428E+04
        77  24 -1.299372E+03 -7.485516E+04 -1.453059E+04 -1.187902E+04 -5.040383E+02  7.298987E+03
        77  25 -5.067384E+04 -1.085115E+05 -5.522484E+04 -3.838679E+04 -3.170807E+02  3.337594E+04
        77  26 -1.454812E+04 -9.266850E+04 -2.824620E+04 -2.264204E+04 -8.414784E+02  1.969257E+04
        77  27 -3.707921E+03 -8.492874E+04 -1.649821E+04 -9.522504E+03 -5.039788E+02  6.008734E+03
        78   1 -1.316969E+03 -7.106061E+04 -1.171624E+04 -1.081132E+04  3.378309E+01 -6.460582E+03
        78   2 -2.783915E+03 -8.218684E+04 -1.180368E+04 -1.054475E+04 -6.635173E+02 -1.319504E+03
        78   3 -6.843609E+03 -9.463060E+04 -1.588657E+04 -1.295301E+04 -1.321712E+03  3.821489E+03
        78   4 -1.894621E+03 -7.340070E+04 -1.226457E+04 -1.188996E+04  3.375872E+01 -5.256614E+03
        78   5 -5.690508E+02 -7.274761E+04 -1.016941E+04 -1.055253E+04 -6.635468E+02 -1.812419E+02
        78   6 -1.824803E+03 -7.340077E+04 -1.202406E+04 -1.188997E+04 -1.321730E+03  4.894136E+03
        78   7 -2.472267E+03 -7.574078E+04 -1.281290E+04 -1.296860E+04  3.373016E+01 -4.052649E+03
        78   8  1.645810E+03 -6.330829E+04 -8.535137E+03 -1.056032E+04 -6.635764E+02  9.570365E+02
        78   9  3.193984E+03 -5.217050E+04 -8.161562E+03 -1.082688E+04 -1.321744E+03  5.966818E+03
        78  10 -1.316981E+03 -7.106066E+04 -1.171631E+04 -1.081132E+04 -1.799079E-10 -1.980501E-10
        78  11 -2.783916E+03 -8.218684E+04 -1.180368E+04 -1.054475E+04 -3.543709E-10 -1.023856E-11
        78  12 -6.843615E+03 -9.463061E+04 -1.588660E+04 -1.295301E+04  1.224448E-10  1.965133E-10
        78  13 -1.894628E+03 -7.340073E+04 -1.226462E+04 -1.188996E+04 -8.044769E-11 -8.458335E-12
        78  14 -5.690513E+02 -7.274761E+04 -1.016941E+04 -1.055253E+04 -2.683921E-10 -1.308081E-12
        78  15 -1.824811E+03 -7.340079E+04 -1.202411E+04 -1.188996E+04 -7.615277E-11 -1.516036E-12
        78  16 -2.472271E+03 -7.574079E+04 -1.281293E+04 -1.296860E+04  2.188588E-11  1.897379E-10
        78  17  1.645809E+03 -6.330829E+04 -8.535140E+03 -1.056032E+04 -7.398988E-11  1.677048E-11
        78  18  3.193972E+03 -5.217054E+04 -8.161632E+03 -1.082688E+04 -1.843386E-10 -2.011885E-10
        78  19 -1.316969E+03 -7.106061E+04 -1.171624E+04 -1.081132E+04 -3.378309E+01  6.460582E+03
        78  20 -2.783915E+03 -8.218684E+04 -1.180368E+04 -1.054475E+04  6.635173E+02  1.319504E+03
        78  21 -6.843609E+03 -9.463060E+04 -1.588657E+04 -1.295301E+04  1.321712E+03 -3.821489E+03
        78  22 -1.894621E+03 -7.340070E+04 -1.226457E+04 -1.188996E+04 -3.375872E+01  5.256614E+03
        78  23 -5.690508E+02 -7.274761E+04 -1.016941E+04 -1.055253E+04  6.635468E+02  1.812419E+02
        78  24 -1.824803E+03 -7.340077E+04 -1.202406E+04 -1.188997E+04  1.321730E+03 -4.894136E+03
        78  25 -2.472267E+03 -7.574078E+04 -1.281290E+04 -1.296860E+04 -3.373016E+01  4.052649E+03
        78  26  1.645810E+03 -6.330829E+04 -8.535137E+03 -1.056032E+04  6.635764E+02 -9.570365E+02
        78  27  3.193984E+03 -5.217050E+04 -8.161562E+03 -1.082688E+04  1.321744E+03 -5.966818E+03
        79   1 -8.113720E+03 -1.037765E+05 -1.946311E+04 -9.610084E+03 -1.771332E+03  5.679739E+03
        79   2 -1.870500E+04 -1.115934E+05 -3.107633E+04 -2.222288E+04 -1.841440E+03  1.969969E+04
        79   3 -5.381156E+04 -1.273647E+05 -5.794658E+04 -3.742961E+04 -6.065211E+02  3.371912E+04
        79   4 -1.254578E+03 -7.479346E+04 -1.415380E+04 -1.187212E+04 -1.771374E+03  6.893277E+03
        79   5 -8.960642E+03 -7.100745E+04 -2.294206E+04 -1.057505E+04 -1.841046E+03  1.872066E+04
        79   6 -4.080111E+04 -7.479515E+04 -4.546418E+04 -1.187254E+04 -6.051020E+02  3.054785E+04
        79   7  5.604536E+03 -4.580962E+04 -8.844511E+03 -1.413426E+04 -1.771424E+03  8.106870E+03
        79   8  7.841225E+02 -3.041962E+04 -1.480780E+04  1.073549E+03 -1.840689E+03  1.774156E+04
        79   9 -2.778840E+04 -2.222160E+04 -3.298158E+04  1.368669E+04 -6.039441E+02  2.737632E+04
        79  10 -8.113732E+03 -1.037765E+05 -1.946317E+04 -9.610076E+03 -4.394883E-11 -2.057603E-10
        79  11 -1.870510E+04 -1.115938E+05 -3.107706E+04 -2.222285E+04 -3.184559E-10  3.512428E-11
        79  12 -5.381187E+04 -1.273660E+05 -5.794871E+04 -3.742959E+04  9.874320E-12  2.695324E-10
        79  13 -1.254594E+03 -7.479351E+04 -1.415389E+04 -1.187211E+04 -1.485598E-10  2.993083E-12
        79  14 -8.960739E+03 -7.100783E+04 -2.294273E+04 -1.057502E+04 -2.001719E-10 -1.283405E-12
        79  15 -4.080136E+04 -7.479616E+04 -4.546593E+04 -1.187253E+04 -4.784440E-11  3.211336E-12
        79  16  5.604515E+03 -4.580970E+04 -8.844641E+03 -1.413425E+04 -2.820355E-10  2.021870E-10
        79  17  7.840343E+02 -3.041996E+04 -1.480840E+04  1.073576E+03 -2.037866E-10 -2.896298E-11
        79  18 -2.778861E+04 -2.222240E+04 -3.298299E+04  1.368671E+04  4.288904E-13 -2.562328E-10
        79  19 -8.113720E+03 -1.037765E+05 -1.946311E+04 -9.610084E+03  1.771332E+03 -5.679739E+03
        79  20 -1.870500E+04 -1.115934E+05 -3.107633E+04 -2.222288E+04  1.841440E+03 -1.969969E+04
        79  21 -5.381156E+04 -1.273647E+05 -5.794658E+04 -3.742961E+04  6.065211E+02 -3.371912E+04
        79  22 -1.254578E+03 -7.479346E+04 -1.415380E+04 -1.187212E+04  1.771374E+03 -6.893277E+03
        79  23 -8.960642E+03 -7.100745E+04 -2.294206E+04 -1.057505E+04  1.841046E+03 -1.872066E+04
        79  24 -4.080111E+04 -7.479515E+04 -4.546418E+04 -1.187254E+04  6.051020E+02 -3.054785E+04
        79  25  5.604536E+03 -4.580962E+04 -8.844511E+03 -1.413426E+04  1.771424E+03 -8.106870E+03
        79  26  7.841225E+02 -3.041962E+04 -1.480780E+04  1.073549E+03  1.840689E+03 -1.774156E+04
        79  27 -2.778840E+04 -2.222160E+04 -3.298158E+04  1.368669E+04  6.039441E+02 -2.737632E+04
        80   1  8.413182E+04  3.886122E+04 -5.582790E+03  6.493833E+04  1.129811E+03  1.852079E+03
        80   2  8.971061E+04  3.757607E+04 -6.065031E+03  7.008719E+04  2.642375E+02  3.440616E+03
        80   3  9.930925E+04  3.768998E+04 -5.626372E+03  7.313248E+04  3.021351E+02  3.824528E+03
        80   4  1.342023E+05  6.611037E+04  9.034960E+03  8.592136E+04  4.548635E+03  4.416094E+03
        80   5  1.305520E+05  6.266506E+04  4.395371E+03  8.886801E+04  1.658830E+03  4.486469E+03
        80   6  1.313607E+05  6.105777E+04  2.433386E+03  8.971117E+04 -3.275213E+02  3.352304E+03
        80   7  1.842746E+05  9.335973E+04  2.365225E+04  1.069057E+05  7.967778E+03  6.980261E+03
        80   8  1.713949E+05  8.775450E+04  1.485552E+04  1.076500E+05  3.053535E+03  5.532389E+03
        80   9  1.634134E+05  8.442622E+04  1.049306E+04  1.062908E+05 -9.572207E+02  2.880046E+03
        80  10  8.413182E+04  3.886122E+04 -5.582799E+03  6.493833E+04  1.433110E-10  4.678911E-11
        80  11  8.971061E+04  3.757606E+04 -6.065054E+03  7.008719E+04 -6.747263E-11  5.989360E-11
        80  12  9.930925E+04  3.768997E+04 -5.626399E+03  7.313248E+04 -2.310719E-10  4.955680E-12
        80  13  1.342023E+05  6.611034E+04  9.034884E+03  8.592134E+04 -2.110755E-11  1.901440E-11
        80  14  1.305520E+05  6.266504E+04  4.395328E+03  8.886800E+04  1.796963E-10  3.995037E-11
        80  15  1.313607E+05  6.105776E+04  2.433364E+03  8.971117E+04  7.227612E-11 -1.111256E-11
        80  16  1.842745E+05  9.335966E+04  2.365204E+04  1.069056E+05 -8.190579E-11 -7.441719E-11
        80  17  1.713949E+05  8.775447E+04  1.485545E+04  1.076500E+05 -1.925510E-10 -3.861571E-11
        80  18  1.634134E+05  8.442621E+04  1.049304E+04  1.062908E+05  1.313081E-10 -2.279627E-11
        80  19  8.413182E+04  3.886122E+04 -5.582790E+03  6.493833E+04 -1.129811E+03 -1.852079E+03
        80  20  8.971061E+04  3.757607E+04 -6.065031E+03  7.008719E+04 -2.642375E+02 -3.440616E+03
        80  21  9.930925E+04  3.768998E+04 -5.626372E+03  7.313248E+04 -3.021351E+02 -3.824528E+03
        80  22  1.342023E+05  6.611037E+04  9.034960E+03  8.592136E+04 -4.548635E+03 -4.416094E+03
        80  23  1.305520E+05  6.266506E+04  4.395371E+03  8.886801E+04 -1.658830E+03 -4.486469E+03
        80  24  1.313607E+05  6.105777E+04  2.433386E+03  8.971117E+04  3.275213E+02 -3.352304E+03
        80  25  1.842746E+05  9.335973E+04  2.365225E+04  1.069057E+05 -7.967778E+03 -6.980261E+03
        80  26  1.713949E+05  8.775450E+04  1.485552E+04  1.076500E+05 -3.053535E+03 -5.532389E+03
        80  27  1.634134E+05  8.442622E+04  1.049306E+04  1.062908E+05  9.572207E+02 -2.880046E+03
        81   1  1.026889E+05  4.113850E+04 -5.109152E+03  7.516565E+04  9.044766E+01  3.289506E+03
        81   2  1.079297E+05  4.615136E+04 -4.241851E+03  7.866397E+04  1.058969E+02  2.760029E+03
        81   3  1.151738E+05  4.946907E+04 -3.122117E+03  8.155988E+04  2.012041E+02  2.124034E+03
        81   4  1.312317E+05  6.100679E+04  1.865231E+03  8.950049E+04 -4.019067E+02  2.920254E+03
        81   5  1.301434E+05  6.171510E+04  1.060618E+03  8.989184E+04 -5.654568E+02  2.256548E+03
        81   6  1.310971E+05  6.076703E+04  6.637084E+02  8.968070E+04 -6.491460E+02  1.486336E+03
        81   7  1.597759E+05  8.087591E+04  8.839731E+03  1.038363E+05 -8.942999E+02  2.550973E+03
        81   8  1.523577E+05  7.727913E+04  6.363058E+03  1.011202E+05 -1.236843E+03  1.753043E+03
        81   9  1.470204E+05  7.206496E+04  4.449423E+03  9.780163E+04 -1.499510E+03  8.486263E+02
        81  10  1.026889E+05  4.113849E+04 -5.109172E+03  7.516565E+04 -9.722605E-11  3.257046E-11
        81  11  1.079297E+05  4.615135E+04 -4.241866E+03  7.866397E+04  1.492487E-10  2.252393E-11
        81  12  1.151738E+05  4.946906E+04 -3.122125E+03  8.155988E+04  5.932637E-10 -2.547895E-11
        81  13  1.312317E+05  6.100678E+04  1.865214E+03  8.950049E+04  1.205672E-10 -2.157666E-12
        81  14  1.301434E+05  6.171509E+04  1.060608E+03  8.989184E+04  1.598359E-10 -4.389548E-11
        81  15  1.310971E+05  6.076703E+04  6.637035E+02  8.968070E+04  1.981251E-10 -1.111902E-10
        81  16  1.597759E+05  8.087590E+04  8.839717E+03  1.038363E+05  2.325178E-10 -3.397663E-11
        81  17  1.523577E+05  7.727912E+04  6.363049E+03  1.011202E+05 -7.450140E-11 -9.456491E-11
        81  18  1.470204E+05  7.206495E+04  4.449418E+03  9.780163E+04 -1.407378E-10 -1.868063E-10
        81  19  1.026889E+05  4.113850E+04 -5.109152E+03  7.516565E+04 -9.044766E+01 -3.289506E+03
        81  20  1.079297E+05  4.615136E+04 -4.241851E+03  7.866397E+04 -1.058969E+02 -2.760029E+03
        81  21  1.151738E+05  4.946907E+04 -3.122117E+03  8.155988E+04 -2.012041E+02 -2.124034E+03
        81  22  1.312317E+05  6.100679E+04  1.865231E+03  8.950049E+04  4.019067E+02 -2.920254E+03
        81  23  1.301434E+05  6.171510E+04  1.060618E+03  8.989184E+04  5.654568E+02 -2.256548E+03
        81  24  1.310971E+05  6.076703E+04  6.637084E+02  8.968070E+04  6.491460E+02 -1.486336E+03
        81  25  1.597759E+05  8.087591E+04  8.839731E+03  1.038363E+05  8.942999E+02 -2.550973E+03
        81  26  1.523577E+05  7.727913E+04  6.363058E+03  1.011202E+05  1.236843E+03 -1.753043E+03
        81  27  1.470204E+05  7.206496E+04  4.449423E+03  9.780163E+04  1.499510E+03 -8.486263E+02
        82   1  1.191756E+05  5.235934E+04 -2.241562E+03  8.360805E+04  3.268756E+02  1.754333E+03
        82   2  1.244146E+05  5.765445E+04 -8.879704E+02  8.702946E+04  5.274714E+02  1.122960E+03
        82   3  1.315572E+05  6.110313E+04  6.134340E+02  8.990976E+04  7.298069E+02  4.892650E+02
        82   4  1.310877E+05  6.076284E+04  5.530935E+02  8.966584E+04 -5.120090E+02  1.125240E+03
        82   5  1.301354E+05  6.168522E+04  4.509430E+02  8.993679E+04 -3.153270E+02  4.909342E+02
        82   6  1.310873E+05  6.076195E+04  4.999880E+02  8.966658E+04 -1.169030E+02 -1.456959E+02
        82   7  1.430001E+05  6.916643E+04  3.347747E+03  9.572376E+04 -1.350916E+03  4.961312E+02
        82   8  1.358562E+05  6.571605E+04  1.789877E+03  9.284417E+04 -1.158144E+03 -1.411054E+02
        82   9  1.306174E+05  6.042077E+04  3.865432E+02  8.942339E+04 -9.636275E+02 -7.806676E+02
        82  10  1.191756E+05  5.235933E+04 -2.241568E+03  8.360805E+04  1.673082E-10 -1.898431E-10
        82  11  1.244146E+05  5.765444E+04 -8.879733E+02  8.702946E+04 -1.033211E-10  1.933456E-11
        82  12  1.315572E+05  6.110313E+04  6.134325E+02  8.990976E+04  8.005387E-11  8.884045E-11
        82  13  1.310877E+05  6.076284E+04  5.530906E+02  8.966584E+04  2.560665E-10 -8.303061E-11
        82  14  1.301354E+05  6.168522E+04  4.509424E+02  8.993679E+04 -3.032794E-11 -1.277643E-11
        82  15  1.310873E+05  6.076195E+04  4.999879E+02  8.966658E+04 -8.180906E-11  5.905957E-11
        82  16  1.430001E+05  6.916643E+04  3.347743E+03  9.572376E+04 -1.644949E-10  3.006835E-11
        82  17  1.358562E+05  6.571605E+04  1.789875E+03  9.284417E+04 -1.405194E-10 -2.340585E-11
        82  18  1.306173E+05  6.042077E+04  3.865403E+02  8.942339E+04 -1.012257E-10 -3.273017E-11
        82  19  1.191756E+05  5.235934E+04 -2.241562E+03  8.360805E+04 -3.268756E+02 -1.754333E+03
        82  20  1.244146E+05  5.765445E+04 -8.879704E+02  8.702946E+04 -5.274714E+02 -1.122960E+03
        82  21  1.315572E+05  6.110313E+04  6.134340E+02  8.990976E+04 -7.298069E+02 -4.892650E+02
        82  22  1.310877E+05  6.076284E+04  5.530935E+02  8.966584E+04  5.120090E+02 -1.125240E+03
        82  23  1.301354E+05  6.168522E+04  4.509430E+02  8.993679E+04  3.153270E+02 -4.909342E+02
        82  24  1.310873E+05  6.076195E+04  4.999880E+02  8.966658E+04  1.169030E+02  1.456959E+02
        82  25  1.430001E+05  6.916643E+04  3.347747E+03  9.572376E+04  1.350916E+03 -4.961312E+02
        82  26  1.358562E+05  6.571605E+04  1.789877E+03  9.284417E+04  1.158144E+03  1.411054E+02
        82  27  1.306174E+05  6.042077E+04  3.865432E+02  8.942339E+04  9.636275E+02  7.806676E+02
        83   1  1.355809E+05  6.399381E+04  1.682014E+03  9.198222E+04  8.855131E+02  1.402040E+02
        83   2  1.409026E+05  6.922312E+04  3.487767E+03  9.531989E+04  7.474712E+02 -6.955543E+02
        83   3  1.482662E+05  7.278603E+04  5.750935E+03  9.806546E+04  5.493489E+02 -1.451190E+03
        83   4  1.310944E+05  6.076506E+04  5.792871E+02  8.967792E+04  3.063404E+01 -5.008840E+02
        83   5  1.301434E+05  6.171143E+04  8.894215E+02  8.989994E+04  2.723585E+01 -1.235672E+03
        83   6  1.312052E+05  6.096228E+04  1.540185E+03  8.952990E+04 -3.624087E+01 -1.890340E+03
        83   7  1.266079E+05  5.753639E+04 -5.234082E+02  8.737369E+04 -8.242213E+02 -1.141954E+03
        83   8  1.193844E+05  5.419988E+04 -1.708894E+03  8.448015E+04 -6.929761E+02 -1.775773E+03
        83   9  1.141445E+05  4.913871E+04 -2.670579E+03  8.099462E+04 -6.218087E+02 -2.329473E+03
        83  10  1.355809E+05  6.399381E+04  1.682012E+03  9.198222E+04  1.514309E-10  1.380448E-10
        83  11  1.409026E+05  6.922312E+04  3.487765E+03  9.531989E+04 -3.053728E-11  2.164406E-11
        83  12  1.482662E+05  7.278602E+04  5.750930E+03  9.806546E+04 -7.876546E-11 -4.567403E-11
        83  13  1.310944E+05  6.076506E+04  5.792866E+02  8.967792E+04  8.099058E-11 -2.789492E-11
        83  14  1.301434E+05  6.171143E+04  8.894186E+02  8.989994E+04 -2.446426E-11 -4.647365E-11
        83  15  1.312052E+05  6.096227E+04  1.540179E+03  8.952990E+04  1.489643E-10 -1.367816E-11
        83  16  1.266079E+05  5.753639E+04 -5.234120E+02  8.737369E+04 -1.597593E-10 -1.397460E-10
        83  17  1.193844E+05  5.419987E+04 -1.708901E+03  8.448015E+04 -1.153606E-10 -1.198427E-10
        83  18  1.141445E+05  4.913870E+04 -2.670590E+03  8.099461E+04 -5.932092E-11  1.614727E-11
        83  19  1.355809E+05  6.399381E+04  1.682014E+03  9.198222E+04 -8.855131E+02 -1.402040E+02
        83  20  1.409026E+05  6.922312E+04  3.487767E+03  9.531989E+04 -7.474712E+02  6.955543E+02
        83  21  1.482662E+05  7.278603E+04  5.750935E+03  9.806546E+04 -5.493489E+02  1.451190E+03
        83  22  1.310944E+05  6.076506E+04  5.792871E+02  8.967792E+04 -3.063404E+01  5.008840E+02
        83  23  1.301434E+05  6.171143E+04  8.894215E+02  8.989994E+04 -2.723585E+01  1.235672E+03
        83  24  1.312052E+05  6.096228E+04  1.540185E+03  8.952990E+04  3.624087E+01  1.890340E+03
        83  25  1.266079E+05  5.753639E+04 -5.234082E+02  8.737369E+04  8.242213E+02  1.141954E+03
        83  26  1.193844E+05  5.419988E+04 -1.708894E+03  8.448015E+04  6.929761E+02  1.775773E+03
        83  27  1.141445E+05  4.913871E+04 -2.670579E+03  8.099462E+04  6.218087E+02  2.329473E+03
        84   1  1.519738E+05  7.620500E+04  7.273358E+03  1.004449E+05  6.345235E+02 -1.787147E+03
        84   2  1.594659E+05  7.988951E+04  1.104022E+04  1.021874E+05 -2.418361E+03 -4.006601E+03
        84   3  1.712894E+05  8.506812E+04  1.833029E+04  1.021053E+05 -6.153820E+03 -5.316135E+03
        84   4  1.313123E+05  6.100269E+04  2.002966E+03  8.970207E+04 -5.475513E+01 -2.304061E+03
        84   5  1.304771E+05  6.249261E+04  3.607040E+03  8.906085E+04 -1.578358E+03 -3.376677E+03
        84   6  1.336414E+05  6.514486E+04  7.407263E+03  8.659482E+04 -3.784433E+03 -3.539299E+03
        84   7  1.106510E+05  4.580039E+04 -3.267586E+03  7.895951E+04 -7.440151E+02 -2.820960E+03
        84   8  1.014892E+05  4.509603E+04 -3.826206E+03  7.593491E+04 -7.384084E+02 -2.746785E+03
        84   9  9.599552E+04  4.522233E+04 -3.515670E+03  7.108555E+04 -1.415287E+03 -1.762593E+03
        84  10  1.519738E+05  7.620500E+04  7.273352E+03  1.004449E+05  1.191573E-10  4.841536E-11
        84  11  1.594659E+05  7.988949E+04  1.104018E+04  1.021874E+05 -1.847389E-11  4.588365E-11
        84  12  1.712894E+05  8.506808E+04  1.833017E+04  1.021053E+05  5.411089E-11  1.937446E-11
        84  13  1.313123E+05  6.100269E+04  2.002956E+03  8.970207E+04 -1.479765E-10  1.709052E-11
        84  14  1.304771E+05  6.249259E+04  3.607014E+03  8.906085E+04 -5.525031E-11  1.420085E-11
        84  15  1.336413E+05  6.514485E+04  7.407213E+03  8.659481E+04  3.598390E-12  2.994775E-11
        84  16  1.106510E+05  4.580038E+04 -3.267602E+03  7.895951E+04 -2.741666E-10 -1.850737E-11
        84  17  1.014892E+05  4.509602E+04 -3.826221E+03  7.593491E+04 -2.101163E-10 -1.592918E-11
        84  18  9.599552E+04  4.522233E+04 -3.515680E+03  7.108555E+04  9.499953E-12 -1.870342E-11
        84  19  1.519738E+05  7.620500E+04  7.273358E+03  1.004449E+05 -6.345235E+02  1.787147E+03
        84  20  1.594659E+05  7.988951E+04  1.104022E+04  1.021874E+05  2.418361E+03  4.006601E+03
        84  21  1.712894E+05  8.506812E+04  1.833029E+04  1.021053E+05  6.153820E+03  5.316135E+03
        84  22  1.313123E+05  6.100269E+04  2.002966E+03  8.970207E+04  5.475513E+01  2.304061E+03
        84  23  1.304771E+05  6.249261E+04  3.607040E+03  8.906085E+04  1.578358E+03  3.376677E+03
        84  24  1.336414E+05  6.514486E+04  7.407263E+03  8.659482E+04  3.784433E+03  3.539299E+03
        84  25  1.106510E+05  4.580039E+04 -3.267586E+03  7.895951E+04  7.440151E+02  2.820960E+03
        84  26  1.014892E+05  4.509603E+04 -3.826206E+03  7.593491E+04  7.384084E+02  2.746785E+03
        84  27  9.599552E+04  4.522233E+04 -3.515670E+03  7.108555E+04  1.415287E+03  1.762593E+03
        85   1  8.344479E+03 -1.679823E+04 -1.866533E+04 -1.049088E+04 -1.287475E+04  2.175550E-01
        85   2  9.891115E+03 -3.692455E+03 -9.166871E+03 -4.764920E+03 -8.143455E+03  6.250032E-02
        85   3  8.344287E+03 -4.966520E+02 -5.226070E+03  9.610636E+02 -3.412156E+03 -5.282023E-03
        85   4  8.344361E+03 -1.679843E+04 -1.866536E+04 -8.282337E-11 -1.287475E+04  1.641832E-11
        85   5  9.891090E+03 -3.692497E+03 -9.166877E+03 -5.916000E-11 -8.143455E+03 -6.667723E-13
        85   6  8.344286E+03 -4.966538E+02 -5.226070E+03 -2.374299E-10 -3.412156E+03  5.698749E-11
        85   7  8.344479E+03 -1.679823E+04 -1.866533E+04  1.049088E+04 -1.287475E+04 -2.175550E-01
        85   8  9.891115E+03 -3.692455E+03 -9.166871E+03  4.764920E+03 -8.143455E+03 -6.250032E-02
        85   9  8.344287E+03 -4.966520E+02 -5.226070E+03 -9.610636E+02 -3.412156E+03  5.282023E-03
        85  10  8.344301E+03 -1.679827E+04 -1.866564E+04 -1.049088E+04  8.382259E-11  1.639539E-11
        85  11  9.891044E+03 -3.692473E+03 -9.166996E+03 -4.764920E+03 -6.883288E-11  2.733699E-11
        85  12  8.344274E+03 -4.966552E+02 -5.226092E+03  9.610636E+02  7.692602E-14  2.720380E-11
        85  13  8.344183E+03 -1.679848E+04 -1.866567E+04  1.787945E-10 -1.939753E-10 -5.073203E-12
        85  14  9.891019E+03 -3.692515E+03 -9.167002E+03  5.048368E-11  1.099743E-10 -4.640372E-12
        85  15  8.344273E+03 -4.966569E+02 -5.226092E+03 -1.051718E-11  1.583971E-10  2.256233E-11
        85  16  8.344301E+03 -1.679827E+04 -1.866564E+04  1.049088E+04  5.462799E-11 -3.031286E-12
        85  17  9.891044E+03 -3.692473E+03 -9.166996E+03  4.764920E+03  8.738649E-11 -3.369425E-11
        85  18  8.344274E+03 -4.966552E+02 -5.226092E+03 -9.610636E+02  1.732731E-10  1.481855E-11
        85  19  8.344479E+03 -1.679823E+04 -1.866533E+04 -1.049088E+04  1.287475E+04 -2.175550E-01
        85  20  9.891115E+03 -3.692455E+03 -9.166871E+03 -4.764920E+03  8.143455E+03 -6.250032E-02
        85  21  8.344287E+03 -4.966520E+02 -5.226070E+03  9.610636E+02  3.412156E+03  5.282023E-03
        85  22  8.344361E+03 -1.679843E+04 -1.866536E+04  1.035955E-10  1.287475E+04 -2.657456E-11
        85  23  9.891090E+03 -3.692497E+03 -9.166877E+03  2.524196E-11  8.143455E+03 -9.529684E-12
        85  24  8.344286E+03 -4.966538E+02 -5.226070E+03 -9.518201E-11  3.412156E+03 -8.871936E-12
        85  25  8.344479E+03 -1.679823E+04 -1.866533E+04  1.049088E+04  1.287475E+04  2.175550E-01
        85  26  9.891115E+03 -3.692455E+03 -9.166871E+03  4.764920E+03  8.143455E+03  6.250032E-02
        85  27  8.344287E+03 -4.966520E+02 -5.226070E+03 -9.610636E+02  3.412156E+03 -5.282023E-03
        86   1  8.962157E+03 -7.482800E+02 -4.128944E+03 -3.343177E+02 -2.710951E+03  1.459822E-03
        86   2  9.118703E+03 -9.656702E+01 -2.692019E+03 -1.319122E+02 -1.370031E+03  2.910944E-04
        86   3  8.962147E+03  1.084963E+00 -2.266571E+03  7.049022E+01 -2.912924E+01 -3.307410E-06
        86   4  8.962157E+03 -7.482802E+02 -4.128944E+03 -4.082547E-10 -2.710951E+03  3.036825E-11
        86   5  9.118703E+03 -9.656705E+01 -2.692019E+03 -2.563585E-11 -1.370031E+03 -8.372990E-11
        86   6  8.962147E+03  1.084953E+00 -2.266571E+03 -1.226424E-10 -2.912924E+01 -8.530825E-11
        86   7  8.962157E+03 -7.482800E+02 -4.128944E+03  3.343177E+02 -2.710951E+03 -1.459822E-03
        86   8  9.118703E+03 -9.656702E+01 -2.692019E+03  1.319122E+02 -1.370031E+03 -2.910946E-04
        86   9  8.962147E+03  1.084963E+00 -2.266571E+03 -7.049022E+01 -2.912924E+01  3.307240E-06
        86  10  8.962149E+03 -7.482819E+02 -4.128957E+03 -3.343177E+02  1.557968E-10  5.133119E-12
        86  11  9.118701E+03 -9.656753E+01 -2.692022E+03 -1.319122E+02  1.037616E-10 -4.574787E-11
        86  12  8.962147E+03  1.084962E+00 -2.266571E+03  7.049022E+01  1.233281E-10 -5.403256E-11
        86  13  8.962149E+03 -7.482822E+02 -4.128957E+03 -1.250910E-10  2.019328E-10  8.070755E-12
        86  14  9.118701E+03 -9.656756E+01 -2.692022E+03 -3.821750E-10  9.746943E-11 -5.087588E-11
        86  15  8.962147E+03  1.084953E+00 -2.266571E+03 -1.513186E-10 -6.967723E-13 -5.558037E-11
        86  16  8.962149E+03 -7.482819E+02 -4.128957E+03  3.343177E+02 -5.802510E-11  1.082439E-11
        86  17  9.118701E+03 -9.656753E+01 -2.692022E+03  1.319122E+02 -6.363799E-11 -5.680099E-11
        86  18  8.962147E+03  1.084962E+00 -2.266571E+03 -7.049022E+01 -1.419570E-10 -5.703319E-11
        86  19  8.962157E+03 -7.482800E+02 -4.128944E+03 -3.343177E+02  2.710951E+03 -1.459822E-03
        86  20  9.118703E+03 -9.656702E+01 -2.692019E+03 -1.319122E+02  1.370031E+03 -2.910945E-04
        86  21  8.962147E+03  1.084963E+00 -2.266571E+03  7.049022E+01  2.912924E+01  3.307302E-06
        86  22  8.962157E+03 -7.482802E+02 -4.128944E+03 -3.800554E-10  2.710951E+03 -1.371918E-11
        86  23  9.118703E+03 -9.656705E+01 -2.692019E+03 -3.345676E-10  1.370031E+03 -1.796852E-11
        86  24  8.962147E+03  1.084953E+00 -2.266571E+03 -2.553091E-10  2.912924E+01 -2.616433E-11
        86  25  8.962157E+03 -7.482800E+02 -4.128944E+03  3.343177E+02  2.710951E+03  1.459822E-03
        86  26  9.118703E+03 -9.656702E+01 -2.692019E+03  1.319122E+02  1.370031E+03  2.910945E-04
        86  27  8.962147E+03  1.084963E+00 -2.266571E+03 -7.049022E+01  2.912924E+01 -3.307352E-06
        87   1  8.951759E+03  4.964683E+00 -2.325921E+03 -1.066168E+02  3.720384E+02 -6.388999E-05
        87   2  9.131690E+03 -1.229139E+02 -3.018022E+03  1.422369E+02  1.876043E+03  4.298073E-04
        87   3  8.951773E+03 -9.069004E+02 -4.853293E+03  3.910944E+02  3.380069E+03  2.129247E-03
        87   4  8.951759E+03  4.964662E+00 -2.325921E+03 -2.923012E-10  3.720384E+02 -6.056006E-11
        87   5  9.131690E+03 -1.229140E+02 -3.018022E+03  5.464075E-11  1.876043E+03 -5.754019E-12
        87   6  8.951773E+03 -9.069007E+02 -4.853293E+03 -3.561118E-11  3.380069E+03  1.016589E-10
        87   7  8.951759E+03  4.964683E+00 -2.325921E+03  1.066168E+02  3.720384E+02  6.388987E-05
        87   8  9.131690E+03 -1.229139E+02 -3.018022E+03 -1.422369E+02  1.876043E+03 -4.298073E-04
        87   9  8.951773E+03 -9.069004E+02 -4.853293E+03 -3.910944E+02  3.380069E+03 -2.129246E-03
        87  10  8.951759E+03  4.964646E+00 -2.325922E+03 -1.066168E+02  1.604886E-10 -5.743637E-11
        87  11  9.131686E+03 -1.229149E+02 -3.018029E+03  1.422369E+02  1.352078E-10 -6.134477E-11
        87  12  8.951761E+03 -9.069035E+02 -4.853315E+03  3.910944E+02 -1.027981E-10 -2.055341E-11
        87  13  8.951759E+03  4.964625E+00 -2.325922E+03 -2.069625E-10  1.348849E-10 -3.906966E-11
        87  14  9.131686E+03 -1.229149E+02 -3.018029E+03 -4.535620E-10 -6.678510E-11  3.930543E-13
        87  15  8.951761E+03 -9.069038E+02 -4.853315E+03  7.381873E-11 -1.081424E-10  5.954569E-11
        87  16  8.951759E+03  4.964646E+00 -2.325922E+03  1.066168E+02 -1.583306E-10 -1.976445E-11
        87  17  9.131686E+03 -1.229149E+02 -3.018029E+03 -1.422369E+02 -8.332689E-12  6.218191E-11
        87  18  8.951761E+03 -9.069035E+02 -4.853315E+03 -3.910944E+02  3.271201E-11  1.401243E-10
        87  19  8.951759E+03  4.964683E+00 -2.325921E+03 -1.066168E+02 -3.720384E+02  6.388987E-05
        87  20  9.131690E+03 -1.229139E+02 -3.018022E+03  1.422369E+02 -1.876043E+03 -4.298074E-04
        87  21  8.951773E+03 -9.069004E+02 -4.853293E+03  3.910944E+02 -3.380069E+03 -2.129247E-03
        87  22  8.951759E+03  4.964662E+00 -2.325921E+03 -6.596203E-10 -3.720384E+02 -1.722787E-11
        87  23  9.131690E+03 -1.229140E+02 -3.018022E+03 -5.577661E-10 -1.876043E+03  6.949784E-12
        87  24  8.951773E+03 -9.069007E+02 -4.853293E+03 -2.710032E-10 -3.380069E+03  1.789983E-11
        87  25  8.951759E+03  4.964683E+00 -2.325921E+03  1.066168E+02 -3.720384E+02 -6.388991E-05
        87  26  9.131690E+03 -1.229139E+02 -3.018022E+03 -1.422369E+02 -1.876043E+03  4.298074E-04
        87  27  8.951773E+03 -9.069004E+02 -4.853293E+03 -3.910944E+02 -3.380069E+03  2.129247E-03
        88   1  8.203133E+03 -6.022568E+02 -6.211092E+03 -1.168304E+03  4.206011E+03 -7.914903E-03
        88   2  1.006759E+04 -4.456124E+03 -1.101438E+04  5.740906E+03  9.891848E+03  9.146936E-02
        88   3  8.203395E+03 -2.026370E+04 -2.250767E+04  1.265008E+04  1.557768E+04  3.174054E-01
        88   4  8.203131E+03 -6.022594E+02 -6.211093E+03 -1.752616E-10  4.206011E+03  1.053044E-10
        88   5  1.006756E+04 -4.456186E+03 -1.101439E+04 -1.044341E-10  9.891848E+03  1.970949E-11
        88   6  8.203223E+03 -2.026400E+04 -2.250771E+04 -4.635016E-10  1.557768E+04 -3.800090E-11
        88   7  8.203133E+03 -6.022568E+02 -6.211092E+03  1.168304E+03  4.206011E+03  7.914903E-03
        88   8  1.006759E+04 -4.456124E+03 -1.101438E+04 -5.740906E+03  9.891848E+03 -9.146936E-02
        88   9  8.203395E+03 -2.026370E+04 -2.250767E+04 -1.265008E+04  1.557768E+04 -3.174054E-01
        88  10  8.203114E+03 -6.022616E+02 -6.211125E+03 -1.168304E+03 -3.543280E-12  4.605036E-12
        88  11  1.006749E+04 -4.456150E+03 -1.101456E+04  5.740906E+03 -1.468713E-10  2.598740E-12
        88  12  8.203135E+03 -2.026376E+04 -2.250812E+04  1.265008E+04 -4.759095E-11 -1.568636E-12
        88  13  8.203112E+03 -6.022641E+02 -6.211126E+03  5.409897E-11 -1.479557E-11  5.908947E-11
        88  14  1.006745E+04 -4.456212E+03 -1.101457E+04 -2.195515E-11  1.426968E-11  1.002428E-11
        88  15  8.202963E+03 -2.026406E+04 -2.250817E+04  6.967588E-11  1.279908E-10 -2.703550E-12
        88  16  8.203114E+03 -6.022616E+02 -6.211125E+03  1.168304E+03 -8.755088E-11  1.163867E-10
        88  17  1.006749E+04 -4.456150E+03 -1.101456E+04 -5.740906E+03  3.436004E-11  1.410169E-12
        88  18  8.203135E+03 -2.026376E+04 -2.250812E+04 -1.265008E+04  6.945916E-11 -3.908839E-12
        88  19  8.203133E+03 -6.022568E+02 -6.211092E+03 -1.168304E+03 -4.206011E+03  7.914903E-03
        88  20  1.006759E+04 -4.456124E+03 -1.101438E+04  5.740906E+03 -9.891848E+03 -9.146936E-02
        88  21  8.203395E+03 -2.026370E+04 -2.250767E+04  1.265008E+04 -1.557768E+04 -3.174054E-01
        88  22  8.203131E+03 -6.022594E+02 -6.211093E+03 -1.221495E-10 -4.206011E+03  1.331021E-11
        88  23  1.006756E+04 -4.456186E+03 -1.101439E+04  1.267835E-10 -9.891848E+03 -4.537690E-13
        88  24  8.203223E+03 -2.026400E+04 -2.250771E+04 -9.570861E-11 -1.557768E+04  1.787926E-11
        88  25  8.203133E+03 -6.022568E+02 -6.211092E+03  1.168304E+03 -4.206011E+03 -7.914903E-03
        88  26  1.006759E+04 -4.456124E+03 -1.101438E+04 -5.740906E+03 -9.891848E+03  9.146936E-02
        88  27  8.203395E+03 -2.026370E+04 -2.250767E+04 -1.265008E+04 -1.557768E+04  3.174054E-01
        89   1 -3.685372E+04 -6.609720E+04 -3.721026E+04  3.179345E+04 -1.154215E+03 -1.438909E+04
        89   2 -2.116601E+04 -4.026170E+04 -2.233279E+04  2.518257E+04 -3.471143E+03 -6.642236E+03
        89   3 -1.305016E+04 -1.732675E+04 -1.439205E+04  2.394716E+04 -3.237445E+03  1.105060E+03
        89   4 -1.151447E+04  3.626939E+04 -1.287971E+04  2.455383E+04 -1.153763E+03 -8.354527E+03
        89   5 -2.523003E+03  3.734852E+04 -6.726253E+03  2.186573E+04 -3.470973E+03 -4.891907E+03
        89   6 -3.590944E+02  3.627043E+04 -4.533875E+03  2.455330E+04 -3.237606E+03 -1.429237E+03
        89   7  1.382424E+04  1.386458E+05  1.145028E+04  1.731300E+04 -1.153451E+03 -2.318974E+03
        89   8  1.611968E+04  1.149645E+05  8.879989E+03  1.854847E+04 -3.470822E+03 -3.141363E+03
        89   9  1.233181E+04  8.987040E+04  5.324211E+03  2.515949E+04 -3.237772E+03 -3.963747E+03
        89  10 -3.685378E+04 -6.609743E+04 -3.721066E+04  3.179343E+04 -1.038498E-10  2.674969E-10
        89  11 -2.116604E+04 -4.026175E+04 -2.233289E+04  2.518255E+04  2.880443E-10  4.595090E-10
        89  12 -1.305017E+04 -1.732675E+04 -1.439208E+04  2.394716E+04  5.359802E-10  7.101251E-10
        89  13 -1.151449E+04  3.626932E+04 -1.287984E+04  2.455382E+04 -2.120875E-11  6.269407E-12
        89  14 -2.523023E+03  3.734849E+04 -6.726321E+03  2.186572E+04  1.255140E-10 -2.363920E-11
        89  15 -3.591062E+02  3.627042E+04 -4.533899E+03  2.455329E+04  4.528918E-10  6.657371E-11
        89  16  1.382423E+04  1.386458E+05  1.145027E+04  1.731300E+04  7.320738E-11 -2.859841E-10
        89  17  1.611966E+04  1.149645E+05  8.879947E+03  1.854846E+04  3.454720E-11 -4.680358E-10
        89  18  1.233180E+04  8.987038E+04  5.324161E+03  2.515948E+04  3.058822E-10 -6.949523E-10
        89  19 -3.685372E+04 -6.609720E+04 -3.721026E+04  3.179345E+04  1.154215E+03  1.438909E+04
        89  20 -2.116601E+04 -4.026170E+04 -2.233279E+04  2.518257E+04  3.471143E+03  6.642236E+03
        89  21 -1.305016E+04 -1.732675E+04 -1.439205E+04  2.394716E+04  3.237445E+03 -1.105060E+03
        89  22 -1.151447E+04  3.626939E+04 -1.287971E+04  2.455383E+04  1.153763E+03  8.354527E+03
        89  23 -2.523003E+03  3.734852E+04 -6.726253E+03  2.186573E+04  3.470973E+03  4.891907E+03
        89  24 -3.590944E+02  3.627043E+04 -4.533875E+03  2.455330E+04  3.237606E+03  1.429237E+03
        89  25  1.382424E+04  1.386458E+05  1.145028E+04  1.731300E+04  1.153451E+03  2.318974E+03
        89  26  1.611968E+04  1.149645E+05  8.879989E+03  1.854847E+04  3.470822E+03  3.141363E+03
        89  27  1.233181E+04  8.987040E+04  5.324211E+03  2.515949E+04  3.237772E+03  3.963747E+03
        90   1 -9.396869E+03 -9.436436E+02 -1.100693E+04  2.497213E+04 -2.301064E+03  1.507622E+03
        90   2 -3.329790E+03  2.370110E+04 -6.491537E+03  2.176515E+04 -9.274457E+02  3.698915E+03
        90   3  1.654081E+03  4.778992E+04 -3.673665E+03  2.408830E+04  5.008632E+02  5.890270E+03
        90   4 -5.070912E+02  3.662998E+04 -4.130608E+03  2.458766E+04 -2.301230E+03 -7.538726E+02
        90   5 -2.330149E+02  3.690037E+04 -4.206550E+03  2.182261E+04 -9.276283E+02  1.345552E+03
        90   6 -1.026161E+03  3.663022E+04 -5.916203E+03  2.458770E+04  5.006654E+02  3.444959E+03
        90   7  8.382610E+03  7.420498E+04  2.745675E+03  2.420318E+04 -2.301393E+03 -3.015501E+03
        90   8  2.863754E+03  5.009983E+04 -1.921548E+03  2.188008E+04 -9.278113E+02 -1.007859E+03
        90   9 -3.706407E+03  2.547064E+04 -8.158726E+03  2.508709E+04  5.004637E+02  9.996908E+02
        90  10 -9.396875E+03 -9.436475E+02 -1.100694E+04  2.497213E+04  3.949956E-10 -5.030639E-09
        90  11 -3.329795E+03  2.370108E+04 -6.491564E+03  2.176515E+04 -3.785729E-10  9.540189E-09
        90  12  1.654072E+03  4.778989E+04 -3.673730E+03  2.408830E+04 -8.935216E-10  2.265421E-08
        90  13 -5.070971E+02  3.662998E+04 -4.130619E+03  2.458766E+04  2.385103E-10  4.516231E-11
        90  14 -2.330163E+02  3.690037E+04 -4.206555E+03  2.182261E+04 -3.296058E-10 -4.900527E-11
        90  15 -1.026164E+03  3.663020E+04 -5.916226E+03  2.458770E+04 -9.818712E-10  8.884671E-11
        90  16  8.382602E+03  7.420497E+04  2.745648E+03  2.420317E+04  2.985700E-10  4.954334E-09
        90  17  2.863753E+03  5.009983E+04 -1.921551E+03  2.188007E+04 -4.153613E-10 -9.563932E-09
        90  18 -3.706407E+03  2.547064E+04 -8.158728E+03  2.508709E+04 -9.819559E-10 -2.264336E-08
        90  19 -9.396869E+03 -9.436436E+02 -1.100693E+04  2.497213E+04  2.301064E+03 -1.507622E+03
        90  20 -3.329790E+03  2.370110E+04 -6.491537E+03  2.176515E+04  9.274457E+02 -3.698915E+03
        90  21  1.654081E+03  4.778992E+04 -3.673665E+03  2.408830E+04 -5.008632E+02 -5.890270E+03
        90  22 -5.070912E+02  3.662998E+04 -4.130608E+03  2.458766E+04  2.301230E+03  7.538726E+02
        90  23 -2.330149E+02  3.690037E+04 -4.206550E+03  2.182261E+04  9.276283E+02 -1.345552E+03
        90  24 -1.026161E+03  3.663022E+04 -5.916203E+03  2.458770E+04 -5.006654E+02 -3.444959E+03
        90  25  8.382610E+03  7.420498E+04  2.745675E+03  2.420318E+04  2.301393E+03  3.015501E+03
        90  26  2.863754E+03  5.009983E+04 -1.921548E+03  2.188008E+04  9.278113E+02  1.007859E+03
        90  27 -3.706407E+03  2.547064E+04 -8.158726E+03  2.508709E+04 -5.004637E+02 -9.996908E+02
        91   1  5.775456E+03  6.296813E+04 -2.145361E+03  2.587043E+04  1.466127E+03  7.083252E+03
        91   2  7.331955E+03  8.917950E+04 -2.033202E+03  1.536170E+04  2.072965E+03  1.033013E+04
        91   3 -4.054537E+03  1.117331E+05 -7.270424E+03  1.027172E+04  7.486046E+02  1.357715E+04
        91   4 -6.928433E+02  3.581201E+04 -7.331177E+03  2.456286E+04  1.465903E+03  4.441327E+03
        91   5 -5.027034E+03  3.792275E+04 -1.257975E+04  2.185403E+04  2.073128E+03  1.093241E+04
        91   6 -2.286818E+04  3.581160E+04 -2.543079E+04  2.456412E+04  7.491633E+02  1.742343E+04
        91   7 -7.161176E+03  8.656622E+03 -1.251700E+04  2.325535E+04  1.465691E+03  1.799515E+03
        91   8 -1.738603E+04 -1.333142E+04 -2.312642E+04  2.834582E+04  2.073304E+03  1.153464E+04
        91   9 -4.168147E+04 -4.010410E+04 -4.359140E+04  3.885476E+04  7.498991E+02  2.126925E+04
        91  10  5.775440E+03  6.296808E+04 -2.145459E+03  2.587042E+04 -9.348333E-10 -2.250680E-08
        91  11  7.331922E+03  8.917938E+04 -2.033411E+03  1.536168E+04 -4.533405E-10 -9.576528E-09
        91  12 -4.054587E+03  1.117329E+05 -7.270771E+03  1.027171E+04 -8.907791E-11  4.840758E-09
        91  13 -6.928509E+02  3.581199E+04 -7.331218E+03  2.456285E+04 -7.932712E-10  4.285375E-11
        91  14 -5.027071E+03  3.792262E+04 -1.257998E+04  2.185401E+04 -1.666982E-10 -3.411663E-11
        91  15 -2.286827E+04  3.581128E+04 -2.543137E+04  2.456411E+04 -6.983377E-11  4.624038E-11
        91  16 -7.161179E+03  8.656618E+03 -1.251701E+04  2.325534E+04 -1.031014E-09  2.241071E-08
        91  17 -1.738607E+04 -1.333156E+04 -2.312667E+04  2.834580E+04 -4.690626E-10  9.556752E-09
        91  18 -4.168159E+04 -4.010458E+04 -4.359226E+04  3.885475E+04 -8.860484E-12 -4.841084E-09
        91  19  5.775456E+03  6.296813E+04 -2.145361E+03  2.587043E+04 -1.466127E+03 -7.083252E+03
        91  20  7.331955E+03  8.917950E+04 -2.033202E+03  1.536170E+04 -2.072965E+03 -1.033013E+04
        91  21 -4.054537E+03  1.117331E+05 -7.270424E+03  1.027172E+04 -7.486046E+02 -1.357715E+04
        91  22 -6.928433E+02  3.581201E+04 -7.331177E+03  2.456286E+04 -1.465903E+03 -4.441327E+03
        91  23 -5.027034E+03  3.792275E+04 -1.257975E+04  2.185403E+04 -2.073128E+03 -1.093241E+04
        91  24 -2.286818E+04  3.581160E+04 -2.543079E+04  2.456412E+04 -7.491633E+02 -1.742343E+04
        91  25 -7.161176E+03  8.656622E+03 -1.251700E+04  2.325535E+04 -1.465691E+03 -1.799515E+03
        91  26 -1.738603E+04 -1.333142E+04 -2.312642E+04  2.834582E+04 -2.073304E+03 -1.153464E+04
        91  27 -4.168147E+04 -4.010410E+04 -4.359140E+04  3.885476E+04 -7.498991E+02 -2.126925E+04
        92   1  1.433432E+05  1.348162E+05  3.314298E+04  1.101455E+05  1.300564E+04  8.805733E+03
        92   2  1.321409E+05  1.107058E+05  1.850020E+04  1.070484E+05  8.213999E+03  3.342614E+03
        92   3  1.227943E+05  9.745661E+04  1.084416E+04  1.020623E+05  2.386505E+03 -7.391383E+02
        92   4  1.023158E+05  9.013073E+04  1.680115E+04  8.268529E+04  9.834663E+03  6.427063E+03
        92   5  9.899708E+04  8.025374E+04  8.150878E+03  8.715415E+04  7.364355E+03  2.705238E+03
        92   6  9.703083E+04  8.073486E+04  4.473121E+03  8.973370E+04  3.858069E+03  3.646485E+02
        92   7  6.128979E+04  4.544719E+04  4.588512E+02  5.522719E+04  6.663911E+03  4.048715E+03
        92   8  6.585403E+04  4.980245E+04 -2.198755E+03  6.726093E+04  6.514759E+03  2.067916E+03
        92   9  7.126772E+04  6.401318E+04 -1.898087E+03  7.740553E+04  5.329571E+03  1.468397E+03
        92  10  1.433430E+05  1.348161E+05  3.314251E+04  1.101454E+05  6.853110E-11  2.481472E-11
        92  11  1.321408E+05  1.107057E+05  1.850005E+04  1.070484E+05  2.634475E-10  1.871273E-10
        92  12  1.227943E+05  9.745661E+04  1.084415E+04  1.020623E+05  2.266643E-10  2.675943E-11
        92  13  1.023157E+05  9.013066E+04  1.680090E+04  8.268524E+04 -2.393966E-11 -3.680652E-11
        92  14  9.899702E+04  8.025372E+04  8.150763E+03  8.715414E+04 -8.991602E-12 -8.360390E-11
        92  15  9.703081E+04  8.073486E+04  4.473093E+03  8.973370E+04 -9.395877E-11 -1.687306E-10
        92  16  6.128973E+04  4.544716E+04  4.587370E+02  5.522717E+04 -1.999449E-10 -1.920613E-11
        92  17  6.585398E+04  4.980243E+04 -2.198843E+03  6.726092E+04 -4.107257E-11  4.395304E-12
        92  18  7.126769E+04  6.401317E+04 -1.898144E+03  7.740553E+04 -1.655782E-10 -1.922175E-10
        92  19  1.433432E+05  1.348162E+05  3.314298E+04  1.101455E+05 -1.300564E+04 -8.805733E+03
        92  20  1.321409E+05  1.107058E+05  1.850020E+04  1.070484E+05 -8.213999E+03 -3.342614E+03
        92  21  1.227943E+05  9.745661E+04  1.084416E+04  1.020623E+05 -2.386505E+03  7.391383E+02
        92  22  1.023158E+05  9.013073E+04  1.680115E+04  8.268529E+04 -9.834663E+03 -6.427063E+03
        92  23  9.899708E+04  8.025374E+04  8.150878E+03  8.715415E+04 -7.364355E+03 -2.705238E+03
        92  24  9.703083E+04  8.073486E+04  4.473121E+03  8.973370E+04 -3.858069E+03 -3.646485E+02
        92  25  6.128979E+04  4.544719E+04  4.588512E+02  5.522719E+04 -6.663911E+03 -4.048715E+03
        92  26  6.585403E+04  4.980245E+04 -2.198755E+03  6.726093E+04 -6.514759E+03 -2.067916E+03
        92  27  7.126772E+04  6.401318E+04 -1.898087E+03  7.740553E+04 -5.329571E+03 -1.468397E+03
        93   1  1.131990E+05  9.276631E+04  7.681604E+03  9.788142E+04  1.676827E+03 -4.341920E+02
        93   2  1.025126E+05  8.149990E+04  2.983001E+03  9.120362E+04  1.060839E+02 -2.956881E+02
        93   3  8.844316E+04  7.441221E+04 -8.233136E+02  8.550753E+04 -1.555308E+03 -3.621906E+01
        93   4  9.672793E+04  8.070182E+04  3.396698E+03  8.935896E+04  2.991123E+03  5.516396E+02
        93   5  9.831709E+04  7.841306E+04  1.841992E+03  8.903461E+04  1.623582E+03  8.425584E+02
        93   6  9.647877E+04  8.025864E+04  1.003161E+03  8.969170E+04  1.653552E+02  1.254419E+03
        93   7  8.025752E+04  6.863773E+04 -8.881139E+02  8.083691E+04  4.305348E+03  1.537417E+03
        93   8  9.412169E+04  7.532627E+04  7.010084E+02  8.686564E+04  3.141052E+03  1.980783E+03
        93   9  1.045145E+05  8.610511E+04  2.829647E+03  9.387593E+04  1.886047E+03  2.545079E+03
        93  10  1.131990E+05  9.276631E+04  7.681598E+03  9.788143E+04  1.508213E-11 -1.297238E-10
        93  11  1.025126E+05  8.149990E+04  2.983001E+03  9.120362E+04  1.872773E-11 -3.047561E-11
        93  12  8.844315E+04  7.441221E+04 -8.233182E+02  8.550753E+04 -5.100431E-11 -9.168209E-11
        93  13  9.672792E+04  8.070182E+04  3.396681E+03  8.935896E+04  1.983197E-10 -1.045507E-10
        93  14  9.831709E+04  7.841306E+04  1.841986E+03  8.903461E+04 -2.710487E-10 -1.648348E-10
        93  15  9.647877E+04  8.025864E+04  1.003158E+03  8.969170E+04 -2.051517E-11 -3.280430E-11
        93  16  8.025750E+04  6.863772E+04 -8.881531E+02  8.083691E+04  9.725610E-11 -1.031925E-10
        93  17  9.412168E+04  7.532626E+04  7.009825E+02  8.686564E+04 -1.910525E-10 -1.640556E-11
        93  18  1.045145E+05  8.610511E+04  2.829628E+03  9.387593E+04  9.808795E-11 -1.188006E-11
        93  19  1.131990E+05  9.276631E+04  7.681604E+03  9.788142E+04 -1.676827E+03  4.341920E+02
        93  20  1.025126E+05  8.149990E+04  2.983001E+03  9.120362E+04 -1.060839E+02  2.956881E+02
        93  21  8.844316E+04  7.441221E+04 -8.233136E+02  8.550753E+04  1.555308E+03  3.621906E+01
        93  22  9.672793E+04  8.070182E+04  3.396698E+03  8.935896E+04 -2.991123E+03 -5.516396E+02
        93  23  9.831709E+04  7.841306E+04  1.841992E+03  8.903461E+04 -1.623582E+03 -8.425584E+02
        93  24  9.647877E+04  8.025864E+04  1.003161E+03  8.969170E+04 -1.653552E+02 -1.254419E+03
        93  25  8.025752E+04  6.863773E+04 -8.881139E+02  8.083691E+04 -4.305348E+03 -1.537417E+03
        93  26  9.412169E+04  7.532627E+04  7.010084E+02  8.686564E+04 -3.141052E+03 -1.980783E+03
        93  27  1.045145E+05  8.610511E+04  2.829647E+03  9.387593E+04 -1.886047E+03 -2.545079E+03
        94   1  8.023242E+04  6.875544E+04 -3.083557E+03  8.138479E+04 -2.113926E+03  4.817093E+02
        94   2  6.966110E+04  5.811955E+04 -6.408717E+03  7.453074E+04 -2.973759E+03  1.417221E+03
        94   3  5.535027E+04  5.125448E+04 -9.648631E+03  6.877593E+04 -3.824855E+03  2.341147E+03
        94   4  9.645279E+04  8.025446E+04  7.229841E+02  8.966092E+04 -4.046801E+02  1.763779E+03
        94   5  9.831636E+04  7.835964E+04  3.049320E+02  8.911673E+04 -1.284027E+03  2.684622E+03
        94   6  9.644463E+04  8.023999E+04 -1.084524E+01  8.967176E+04 -2.154632E+03  3.593872E+03
        94   7  1.126738E+05  9.175386E+04  4.529626E+03  9.793745E+04  1.304655E+03  3.045915E+03
        94   8  1.269726E+05  9.860023E+04  7.018547E+03  1.037035E+05  4.058096E+02  3.952102E+03
        94   9  1.375402E+05  1.092260E+05  9.626599E+03  1.105688E+05 -4.842896E+02  4.846686E+03
        94  10  8.023242E+04  6.875544E+04 -3.083566E+03  8.138479E+04 -3.484124E-11 -9.864929E-11
        94  11  6.966109E+04  5.811955E+04 -6.408737E+03  7.453075E+04  1.313096E-10  1.654916E-11
        94  12  5.535025E+04  5.125447E+04 -9.648668E+03  6.877593E+04  2.647639E-11  3.785349E-11
        94  13  9.645279E+04  8.025446E+04  7.229780E+02  8.966092E+04 -4.800896E-11 -2.924643E-11
        94  14  9.831636E+04  7.835963E+04  3.049154E+02  8.911673E+04 -9.620584E-11  3.978493E-13
        94  15  9.644463E+04  8.023998E+04 -1.087824E+01  8.967177E+04  1.088915E-10  1.102771E-10
        94  16  1.126738E+05  9.175385E+04  4.529606E+03  9.793744E+04  1.066648E-10  5.397308E-11
        94  17  1.269726E+05  9.860022E+04  7.018517E+03  1.037035E+05  6.035113E-11  1.056402E-11
        94  18  1.375402E+05  1.092260E+05  9.626555E+03  1.105688E+05  8.878204E-11 -3.336147E-12
        94  19  8.023242E+04  6.875544E+04 -3.083557E+03  8.138479E+04  2.113926E+03 -4.817093E+02
        94  20  6.966110E+04  5.811955E+04 -6.408717E+03  7.453074E+04  2.973759E+03 -1.417221E+03
        94  21  5.535027E+04  5.125448E+04 -9.648631E+03  6.877593E+04  3.824855E+03 -2.341147E+03
        94  22  9.645279E+04  8.025446E+04  7.229841E+02  8.966092E+04  4.046801E+02 -1.763779E+03
        94  23  9.831636E+04  7.835964E+04  3.049320E+02  8.911673E+04  1.284027E+03 -2.684622E+03
        94  24  9.644463E+04  8.023999E+04 -1.084524E+01  8.967176E+04  2.154632E+03 -3.593872E+03
        94  25  1.126738E+05  9.175386E+04  4.529626E+03  9.793745E+04 -1.304655E+03 -3.045915E+03
        94  26  1.269726E+05  9.860023E+04  7.018547E+03  1.037035E+05 -4.058096E+02 -3.952102E+03
        94  27  1.375402E+05  1.092260E+05  9.626599E+03  1.105688E+05  4.842896E+02 -4.846686E+03
        95   1  4.723510E+04  4.550489E+04 -1.179111E+04  6.464184E+04 -4.286949E+03  2.922067E+03
        95   2  3.663041E+04  3.494337E+04 -1.522434E+04  5.787042E+04 -4.314964E+03  4.282388E+03
        95   3  2.209130E+04  2.790047E+04 -1.923684E+04  5.223035E+04 -4.152986E+03  5.389438E+03
        95   4  9.643724E+04  8.023287E+04 -1.626339E+02  8.965648E+04 -2.588810E+03  4.195690E+03
        95   5  9.831591E+04  7.835269E+04 -5.235666E+02  8.914639E+04 -3.042334E+03  5.236797E+03
        95   6  9.635245E+04  8.008334E+04 -1.094379E+03  8.976750E+04 -3.305862E+03  6.024664E+03
        95   7  1.456422E+05  1.149624E+05  1.146571E+04  1.146734E+05 -8.904897E+02  5.469450E+03
        95   8  1.600064E+05  1.217647E+05  1.417717E+04  1.204263E+05 -1.769523E+03  6.191341E+03
        95   9  1.706213E+05  1.322705E+05  1.704817E+04  1.273105E+05 -2.458586E+03  6.660003E+03
        95  10  4.723508E+04  4.550488E+04 -1.179116E+04  6.464185E+04  1.708184E-11  6.347351E-12
        95  11  3.663039E+04  3.494335E+04 -1.522441E+04  5.787044E+04  1.603751E-10 -6.610515E-12
        95  12  2.209128E+04  2.790044E+04 -1.923693E+04  5.223037E+04  2.876731E-11  2.818626E-11
        95  13  9.643722E+04  8.023285E+04 -1.626796E+02  8.965649E+04  4.325543E-11 -7.884118E-11
        95  14  9.831589E+04  7.835266E+04 -5.236355E+02  8.914640E+04  9.664235E-11 -2.579301E-11
        95  15  9.635243E+04  8.008329E+04 -1.094468E+03  8.976752E+04 -7.758813E-11 -9.999267E-12
        95  16  1.456422E+05  1.149623E+05  1.146566E+04  1.146734E+05 -1.100526E-10 -1.678988E-11
        95  17  1.600064E+05  1.217647E+05  1.417709E+04  1.204263E+05 -1.517355E-11 -5.807645E-11
        95  18  1.706213E+05  1.322704E+05  1.704808E+04  1.273105E+05  8.914060E-11 -8.367761E-11
        95  19  4.723510E+04  4.550489E+04 -1.179111E+04  6.464184E+04  4.286949E+03 -2.922067E+03
        95  20  3.663041E+04  3.494337E+04 -1.522434E+04  5.787042E+04  4.314964E+03 -4.282388E+03
        95  21  2.209130E+04  2.790047E+04 -1.923684E+04  5.223035E+04  4.152986E+03 -5.389438E+03
        95  22  9.643724E+04  8.023287E+04 -1.626339E+02  8.965648E+04  2.588810E+03 -4.195690E+03
        95  23  9.831591E+04  7.835269E+04 -5.235666E+02  8.914639E+04  3.042334E+03 -5.236797E+03
        95  24  9.635245E+04  8.008334E+04 -1.094379E+03  8.976750E+04  3.305862E+03 -6.024664E+03
        95  25  1.456422E+05  1.149624E+05  1.146571E+04  1.146734E+05  8.904897E+02 -5.469450E+03
        95  26  1.600064E+05  1.217647E+05  1.417717E+04  1.204263E+05  1.769523E+03 -6.191341E+03
        95  27  1.706213E+05  1.322705E+05  1.704817E+04  1.273105E+05  2.458586E+03 -6.660003E+03
        96   1  1.416013E+04  2.162217E+04 -2.183093E+04  4.782153E+04 -4.673736E+03  5.717894E+03
        96   2  1.932911E+03  1.228366E+04 -2.826953E+04  4.257981E+04  1.810885E+03  9.438504E+03
        96   3 -1.654212E+04  3.151447E+03 -4.055350E+04  3.936516E+04  1.043921E+04  1.029964E+04
        96   4  9.630657E+04  8.001527E+04 -1.473479E+03  8.962428E+04 -3.500560E+03  6.597616E+03
        96   5  9.801466E+04  7.780032E+04 -2.740768E+03  8.980348E+04 -1.819127E+03  6.716043E+03
        96   6  9.451715E+04  7.683407E+04 -5.684389E+03  9.200944E+04  2.006045E+03  3.975475E+03
        96   7  1.784595E+05  1.384116E+05  1.888305E+04  1.314328E+05 -2.327193E+03  7.477483E+03
        96   8  1.941053E+05  1.433209E+05  2.278676E+04  1.370347E+05 -5.449844E+03  3.993081E+03
        96   9  2.055880E+05  1.505213E+05  2.918308E+04  1.446632E+05 -6.429055E+03 -2.350013E+03
        96  10  1.416010E+04  2.162213E+04 -2.183103E+04  4.782155E+04  1.919502E-11  9.586737E-11
        96  11  1.932884E+03  1.228357E+04 -2.826971E+04  4.257980E+04  1.337177E-10  4.866926E-11
        96  12 -1.654226E+04  3.151303E+03 -4.055390E+04  3.936508E+04 -5.169421E-11 -2.634960E-12
        96  13  9.630655E+04  8.001522E+04 -1.473584E+03  8.962430E+04  1.393351E-10  3.716548E-11
        96  14  9.801464E+04  7.780027E+04 -2.740859E+03  8.980349E+04  2.245645E-10 -3.271193E-11
        96  15  9.451714E+04  7.683405E+04 -5.684426E+03  9.200943E+04  3.106977E-11 -3.991016E-11
        96  16  1.784595E+05  1.384115E+05  1.888293E+04  1.314328E+05  6.409512E-11 -5.688811E-11
        96  17  1.941053E+05  1.433209E+05  2.278668E+04  1.370347E+05  3.374125E-11 -2.011455E-11
        96  18  2.055880E+05  1.505213E+05  2.918299E+04  1.446632E+05 -1.153331E-10  8.701601E-12
        96  19  1.416013E+04  2.162217E+04 -2.183093E+04  4.782153E+04  4.673736E+03 -5.717894E+03
        96  20  1.932911E+03  1.228366E+04 -2.826953E+04  4.257981E+04 -1.810885E+03 -9.438504E+03
        96  21 -1.654212E+04  3.151447E+03 -4.055350E+04  3.936516E+04 -1.043921E+04 -1.029964E+04
        96  22  9.630657E+04  8.001527E+04 -1.473479E+03  8.962428E+04  3.500560E+03 -6.597616E+03
        96  23  9.801466E+04  7.780032E+04 -2.740768E+03  8.980348E+04  1.819127E+03 -6.716043E+03
        96  24  9.451715E+04  7.683407E+04 -5.684389E+03  9.200944E+04 -2.006045E+03 -3.975475E+03
        96  25  1.784595E+05  1.384116E+05  1.888305E+04  1.314328E+05  2.327193E+03 -7.477483E+03
        96  26  1.941053E+05  1.433209E+05  2.278676E+04  1.370347E+05  5.449844E+03 -3.993081E+03
        96  27  2.055880E+05  1.505213E+05  2.918308E+04  1.446632E+05  6.429055E+03  2.350013E+03
        97   1 -4.639729E+03  1.217484E+05 -1.191588E+03 -3.166901E+03 -1.383102E+03  8.192894E+03
        97   2 -1.728379E+04  1.296733E+05 -6.753915E+03  2.750627E+03 -4.575172E+03  6.587191E+03
        97   3 -1.868644E+04  1.406187E+05 -8.460320E+03  1.064554E+04 -5.349511E+03  4.981414E+03
        97   4  2.024257E+04  2.225062E+05  2.248049E+04  9.470575E+03 -1.382767E+03  1.558930E+04
        97   5  4.454295E+03  2.206451E+05  1.098037E+04  8.482355E+03 -4.574935E+03  9.920538E+03
        97   6  6.115374E+02  2.225089E+05  6.156633E+03  9.471364E+03 -5.349498E+03  4.251709E+03
        97   7  4.512477E+04  3.232738E+05  4.615216E+04  2.211011E+04 -1.382132E+03  2.298690E+04
        97   8  2.619201E+04  3.116250E+05  2.871432E+04  1.421494E+04 -4.574637E+03  1.325436E+04
        97   9  1.990915E+04  3.044057E+05  2.077334E+04  8.297025E+03 -5.349482E+03  3.521912E+03
        97  10 -4.639749E+03  1.217483E+05 -1.191718E+03 -3.166891E+03 -2.106361E-11 -1.378530E-10
        97  11 -1.728382E+04  1.296733E+05 -6.754036E+03  2.750652E+03  2.816546E-11  4.581878E-11
        97  12 -1.868648E+04  1.406186E+05 -8.460420E+03  1.064556E+04  8.428260E-11  1.717962E-10
        97  13  2.024250E+04  2.225060E+05  2.248003E+04  9.470593E+03 -2.693387E-11  4.207627E-12
        97  14  4.454246E+03  2.206450E+05  1.098015E+04  8.482391E+03 -1.596787E-10  1.228727E-12
        97  15  6.115018E+02  2.225089E+05  6.156546E+03  9.471382E+03  2.733673E-11  5.887458E-11
        97  16  4.512463E+04  3.232733E+05  4.615116E+04  2.211014E+04  5.706300E-12  1.378144E-10
        97  17  2.619194E+04  3.116248E+05  2.871395E+04  1.421499E+04 -2.390171E-10 -1.697570E-11
        97  18  1.990912E+04  3.044056E+05  2.077326E+04  8.297040E+03 -1.304670E-10 -1.141218E-10
        97  19 -4.639729E+03  1.217484E+05 -1.191588E+03 -3.166901E+03  1.383102E+03 -8.192894E+03
        97  20 -1.728379E+04  1.296733E+05 -6.753915E+03  2.750627E+03  4.575172E+03 -6.587191E+03
        97  21 -1.868644E+04  1.406187E+05 -8.460320E+03  1.064554E+04  5.349511E+03 -4.981414E+03
        97  22  2.024257E+04  2.225062E+05  2.248049E+04  9.470575E+03  1.382767E+03 -1.558930E+04
        97  23  4.454295E+03  2.206451E+05  1.098037E+04  8.482355E+03  4.574935E+03 -9.920538E+03
        97  24  6.115374E+02  2.225089E+05  6.156633E+03  9.471364E+03  5.349498E+03 -4.251709E+03
        97  25  4.512477E+04  3.232738E+05  4.615216E+04  2.211011E+04  1.382132E+03 -2.298690E+04
        97  26  2.619201E+04  3.116250E+05  2.871432E+04  1.421494E+04  4.574637E+03 -1.325436E+04
        97  27  1.990915E+04  3.044057E+05  2.077334E+04  8.297025E+03  5.349482E+03 -3.521912E+03
        98   1 -1.688514E+04  1.461270E+05 -8.594531E+03  9.113674E+03 -5.054782E+03  3.885891E+03
        98   2 -1.536386E+04  1.553883E+05 -8.558414E+03  8.351412E+03 -4.651152E+03  2.900010E+03
        98   3 -1.318656E+04  1.649423E+05 -7.716490E+03  9.724030E+03 -3.973494E+03  1.914074E+03
        98   4  9.144636E+02  2.217639E+05  4.781824E+03  9.506325E+03 -5.054753E+03  3.438088E+03
        98   5  1.625859E+02  2.215780E+05  2.898031E+03  8.438927E+03 -4.651174E+03  1.991601E+03
        98   6  1.466247E+02  2.217645E+05  2.139751E+03  9.506391E+03 -3.973580E+03  5.450732E+02
        98   7  1.871376E+04  2.974065E+05  1.815797E+04  9.899026E+03 -5.054725E+03  2.990232E+03
        98   8  1.568879E+04  2.877720E+05  1.435433E+04  8.526453E+03 -4.651196E+03  1.083098E+03
        98   9  1.347963E+04  2.785899E+05  1.199589E+04  9.288731E+03 -3.973666E+03 -8.240489E+02
        98  10 -1.688517E+04  1.461270E+05 -8.594608E+03  9.113690E+03 -3.015154E-11 -2.797200E-11
        98  11 -1.536388E+04  1.553883E+05 -8.558471E+03  8.351422E+03  2.458162E-10  9.466397E-11
        98  12 -1.318657E+04  1.649423E+05 -7.716526E+03  9.724036E+03  9.754470E-11  1.145456E-11
        98  13  9.144330E+02  2.217639E+05  4.781753E+03  9.506339E+03  2.356379E-11 -1.971803E-11
        98  14  1.625616E+02  2.215780E+05  2.897983E+03  8.438935E+03  1.398133E-10 -2.089144E-11
        98  15  1.466076E+02  2.217645E+05  2.139721E+03  9.506392E+03 -8.092925E-11  9.563395E-11
        98  16  1.871373E+04  2.974064E+05  1.815790E+04  9.899038E+03 -7.978970E-11  4.164738E-11
        98  17  1.568877E+04  2.877720E+05  1.435429E+04  8.526457E+03  8.575300E-12 -2.696237E-11
        98  18  1.347962E+04  2.785899E+05  1.199586E+04  9.288728E+03  2.719206E-11  8.575400E-11
        98  19 -1.688514E+04  1.461270E+05 -8.594531E+03  9.113674E+03  5.054782E+03 -3.885891E+03
        98  20 -1.536386E+04  1.553883E+05 -8.558414E+03  8.351412E+03  4.651152E+03 -2.900010E+03
        98  21 -1.318656E+04  1.649423E+05 -7.716490E+03  9.724030E+03  3.973494E+03 -1.914074E+03
        98  22  9.144636E+02  2.217639E+05  4.781824E+03  9.506325E+03  5.054753E+03 -3.438088E+03
        98  23  1.625859E+02  2.215780E+05  2.898031E+03  8.438927E+03  4.651174E+03 -1.991601E+03
        98  24  1.466247E+02  2.217645E+05  2.139751E+03  9.506391E+03  3.973580E+03 -5.450732E+02
        98  25  1.871376E+04  2.974065E+05  1.815797E+04  9.899026E+03  5.054725E+03 -2.990232E+03
        98  26  1.568879E+04  2.877720E+05  1.435433E+04  8.526453E+03  4.651196E+03 -1.083098E+03
        98  27  1.347963E+04  2.785899E+05  1.199589E+04  9.288731E+03  3.973666E+03  8.240489E+02
        99   1 -1.178465E+04  1.711174E+05 -6.792183E+03  9.377262E+03 -3.534365E+03  1.474656E+03
        99   2 -9.019723E+03  1.802774E+05 -5.318951E+03  9.452539E+03 -2.435685E+03  1.442881E+03
        99   3 -4.391837E+03  1.899069E+05 -3.359422E+03  1.171824E+04 -6.489922E+02  1.411026E+03
        99   4  1.177821E+02  2.218309E+05  2.017510E+03  9.518768E+03 -3.534456E+03  2.065408E+02
        99   5  7.494481E+02  2.214957E+05  2.319062E+03  8.423420E+03 -2.435913E+03 -9.814002E+02
        99   6  3.444720E+03  2.218308E+05  3.909613E+03  9.518482E+03 -6.493792E+02 -2.169406E+03
        99   7  1.202007E+04  2.725469E+05  1.082712E+04  9.660285E+03 -3.534547E+03 -1.061674E+03
        99   8  1.051853E+04  2.627158E+05  9.957025E+03  7.394230E+03 -2.436134E+03 -3.405838E+03
        99   9  1.128123E+04  2.537557E+05  1.117863E+04  7.318606E+03 -6.497408E+02 -5.750021E+03
        99  10 -1.178466E+04  1.711174E+05 -6.792210E+03  9.377266E+03 -3.507244E-11 -1.888185E-12
        99  11 -9.019730E+03  1.802774E+05 -5.318966E+03  9.452542E+03 -9.374929E-12  1.869721E-10
        99  12 -4.391838E+03  1.899069E+05 -3.359427E+03  1.171824E+04 -1.463626E-11  5.621613E-11
        99  13  1.177687E+02  2.218309E+05  2.017486E+03  9.518768E+03 -6.085682E-12 -2.813030E-11
        99  14  7.494414E+02  2.214957E+05  2.319049E+03  8.423418E+03 -1.030677E-10  1.262142E-11
        99  15  3.444718E+03  2.218308E+05  3.909603E+03  9.518481E+03 -1.308228E-11  1.438456E-10
        99  16  1.202006E+04  2.725469E+05  1.082709E+04  9.660282E+03 -4.469346E-11 -9.263052E-13
        99  17  1.051852E+04  2.627157E+05  9.956992E+03  7.394223E+03 -1.171399E-10 -8.691482E-11
        99  18  1.128122E+04  2.537557E+05  1.117857E+04  7.318603E+03  4.642702E-11  6.522113E-11
        99  19 -1.178465E+04  1.711174E+05 -6.792183E+03  9.377262E+03  3.534365E+03 -1.474656E+03
        99  20 -9.019723E+03  1.802774E+05 -5.318951E+03  9.452539E+03  2.435685E+03 -1.442881E+03
        99  21 -4.391837E+03  1.899069E+05 -3.359422E+03  1.171824E+04  6.489922E+02 -1.411026E+03
        99  22  1.177821E+02  2.218309E+05  2.017510E+03  9.518768E+03  3.534456E+03 -2.065408E+02
        99  23  7.494481E+02  2.214957E+05  2.319062E+03  8.423420E+03  2.435913E+03  9.814002E+02
        99  24  3.444720E+03  2.218308E+05  3.909613E+03  9.518482E+03  6.493792E+02  2.169406E+03
        99  25  1.202007E+04  2.725469E+05  1.082712E+04  9.660285E+03  3.534547E+03  1.061674E+03
        99  26  1.051853E+04  2.627158E+05  9.957025E+03  7.394230E+03  2.436134E+03  3.405838E+03
        99  27  1.128123E+04  2.537557E+05  1.117863E+04  7.318606E+03  6.497408E+02  5.750021E+03
       100   1  8.473107E+05  1.617544E+05  1.475624E+05  1.000542E+05  2.210472E+04 -1.066110E+04
       100   2  7.205713E+05  1.590404E+05  1.146277E+05  1.016607E+05  5.030530E+02 -3.406668E+04
       100   3  5.916148E+05  1.357784E+05  9.061594E+04  1.309196E+05 -2.107931E+04 -3.705899E+04
       100   4  9.937675E+03 -4.519306E+04 -5.003759E+04  1.284848E+05 -3.441001E+04 -1.063380E+04
       100   5  1.406339E+04 -1.007003E+04 -2.466574E+04  1.146649E+05 -2.168720E+04 -3.406171E+04
       100   6  9.995450E+03 -1.464215E+03 -1.419913E+04  1.285013E+05 -8.948756E+03 -3.706465E+04
       100   7 -8.267825E+05 -2.521859E+05 -2.476736E+05  1.568768E+05 -9.084900E+04 -1.061166E+04
       100   8 -6.919656E+05 -1.792098E+05 -1.639817E+05  1.276541E+05 -4.385275E+04 -3.405767E+04
       100   9 -5.712943E+05 -1.387257E+05 -1.190268E+05  1.260852E+05  3.170766E+03 -3.707041E+04
       100  10  8.473101E+05  1.617541E+05  1.475613E+05  1.000544E+05  3.153161E-10  6.038600E-11
       100  11  7.205710E+05  1.590391E+05  1.146256E+05  1.016607E+05  3.895668E-10  8.649129E-11
       100  12  5.916140E+05  1.357768E+05  9.061253E+04  1.309190E+05 -9.961795E-11 -2.297538E-10
       100  13  9.936373E+03 -4.519349E+04 -5.004003E+04  1.284845E+05 -4.341217E-12 -3.090807E-11
       100  14  1.406258E+04 -1.007140E+04 -2.466880E+04  1.146643E+05 -4.614525E-12 -7.280656E-11
       100  15  9.994995E+03 -1.465712E+03 -1.420186E+04  1.285010E+05  2.426809E-10 -1.884115E-10
       100  16 -8.267914E+05 -2.521883E+05 -2.476894E+05  1.568760E+05 -2.828674E-10 -1.068999E-10
       100  17 -6.919680E+05 -1.792115E+05 -1.639875E+05  1.276529E+05 -1.318395E-10 -2.911997E-10
       100  18 -5.712947E+05 -1.387271E+05 -1.190294E+05  1.260853E+05 -1.790039E-10 -1.751129E-10
       100  19  8.473107E+05  1.617544E+05  1.475624E+05  1.000542E+05 -2.210472E+04  1.066110E+04
       100  20  7.205713E+05  1.590404E+05  1.146277E+05  1.016607E+05 -5.030530E+02  3.406668E+04
       100  21  5.916148E+05  1.357784E+05  9.061594E+04  1.309196E+05  2.107931E+04  3.705899E+04
       100  22  9.937675E+03 -4.519306E+04 -5.003759E+04  1.284848E+05  3.441001E+04  1.063380E+04
       100  23  1.406339E+04 -1.007003E+04 -2.466574E+04  1.146649E+05  2.168720E+04  3.406171E+04
       100  24  9.995450E+03 -1.464215E+03 -1.419913E+04  1.285013E+05  8.948756E+03  3.706465E+04
       100  25 -8.267825E+05 -2.521859E+05 -2.476736E+05  1.568768E+05  9.084900E+04  1.061166E+04
       100  26 -6.919656E+05 -1.792098E+05 -1.639817E+05  1.276541E+05  4.385275E+04  3.405767E+04
       100  27 -5.712943E+05 -1.387257E+05 -1.190268E+05  1.260852E+05 -3.170766E+03  3.707041E+04
       101   1  5.089661E+05  1.150755E+05  7.743632E+04  1.277750E+05 -1.683506E+04 -3.247316E+04
       101   2  3.814501E+05  8.636121E+04  5.642076E+04  1.138541E+05 -1.589890E+04 -2.577707E+04
       101   3  2.536152E+05  5.662794E+04  3.455149E+04  1.289160E+05 -1.496443E+04 -1.735171E+04
       101   4  1.164697E+04 -2.111581E+03 -1.133523E+04  1.287931E+05 -7.028141E+03 -3.247710E+04
       101   5  1.208229E+04 -3.198118E+02 -7.704636E+03  1.143012E+05 -3.188683E+03 -2.577985E+04
       101   6  1.167803E+04 -5.085594E+01 -6.944853E+03  1.287934E+05  6.492651E+02 -1.735280E+04
       101   7 -4.854307E+05 -1.193123E+05 -1.001158E+05  1.298104E+05  2.771150E+03 -3.248101E+04
       101   8 -3.571515E+05 -8.700811E+04 -7.183420E+04  1.147480E+05  9.514203E+03 -2.578262E+04
       101   9 -2.302012E+05 -5.673264E+04 -4.844225E+04  1.286707E+05  1.625707E+04 -1.735390E+04
       101  10  5.089655E+05  1.150743E+05  7.743381E+04  1.277746E+05  9.394625E-12 -3.586519E-10
       101  11  3.814497E+05  8.636043E+04  5.641904E+04  1.138537E+05 -2.003525E-10 -2.446143E-10
       101  12  2.536149E+05  5.662755E+04  3.455050E+04  1.289158E+05 -5.030235E-11 -1.691805E-10
       101  13  1.164664E+04 -2.112727E+03 -1.133730E+04  1.287930E+05  2.688530E-10 -1.809334E-10
       101  14  1.208210E+04 -3.205282E+02 -7.705904E+03  1.143011E+05  4.020022E-10 -1.063693E-10
       101  15  1.167794E+04 -5.117941E+01 -6.945420E+03  1.287934E+05  7.065477E-11 -1.381599E-10
       101  16 -4.854310E+05 -1.193134E+05 -1.001178E+05  1.298105E+05  1.475501E-10 -4.800896E-11
       101  17 -3.571518E+05 -8.700885E+04 -7.183562E+04  1.147482E+05  5.306710E-10  8.942469E-12
       101  18 -2.302015E+05 -5.673304E+04 -4.844331E+04  1.286710E+05  1.617750E-10 -1.197126E-10
       101  19  5.089661E+05  1.150755E+05  7.743632E+04  1.277750E+05  1.683506E+04  3.247316E+04
       101  20  3.814501E+05  8.636121E+04  5.642076E+04  1.138541E+05  1.589890E+04  2.577707E+04
       101  21  2.536152E+05  5.662794E+04  3.455149E+04  1.289160E+05  1.496443E+04  1.735171E+04
       101  22  1.164697E+04 -2.111581E+03 -1.133523E+04  1.287931E+05  7.028141E+03  3.247710E+04
       101  23  1.208229E+04 -3.198118E+02 -7.704636E+03  1.143012E+05  3.188683E+03  2.577985E+04
       101  24  1.167803E+04 -5.085594E+01 -6.944853E+03  1.287934E+05 -6.492651E+02  1.735280E+04
       101  25 -4.854307E+05 -1.193123E+05 -1.001158E+05  1.298104E+05 -2.771150E+03  3.248101E+04
       101  26 -3.571515E+05 -8.700811E+04 -7.183420E+04  1.147480E+05 -9.514203E+03  2.578262E+04
       101  27 -2.302012E+05 -5.673264E+04 -4.844225E+04  1.286707E+05 -1.625707E+04  1.735390E+04
       102   1  1.701561E+05  3.702791E+04  1.928428E+04  1.283805E+05 -1.361688E+04 -1.185271E+04
       102   2  4.323230E+04  6.624949E+03 -5.680512E+03  1.147496E+05 -7.180724E+03 -3.030373E+03
       102   3 -8.512260E+04 -2.629956E+04 -3.546115E+04  1.301558E+05 -7.464403E+02  4.966181E+03
       102   4  1.160274E+04 -1.333145E+01 -7.386223E+03  1.288052E+05  1.901003E+03 -1.185315E+04
       102   5  1.220784E+04 -4.679298E+02 -1.012180E+04  1.142864E+05  6.947863E+03 -3.030608E+03
       102   6  1.160550E+04 -3.202638E+03 -1.670921E+04  1.288050E+05  1.199413E+04  4.966137E+03
       102   7 -1.469254E+05 -3.705576E+04 -3.405661E+04  1.292298E+05  1.741505E+04 -1.185357E+04
       102   8 -1.881522E+04 -7.560745E+03 -1.456235E+04  1.138233E+05  2.107577E+04 -3.030865E+03
       102   9  1.083429E+05  1.989382E+04  2.042903E+03  1.274540E+05  2.473663E+04  4.966039E+03
       102  10  1.701559E+05  3.702771E+04  1.928366E+04  1.283803E+05  5.759839E-10 -1.212571E-10
       102  11  4.323224E+04  6.624926E+03 -5.680627E+03  1.147496E+05 -1.820350E-11 -9.564537E-11
       102  12 -8.512261E+04 -2.629959E+04 -3.546120E+04  1.301558E+05 -1.796253E-10  1.637089E-10
       102  13  1.160270E+04 -1.348329E+01 -7.386494E+03  1.288052E+05  2.688731E-10 -1.559980E-10
       102  14  1.220778E+04 -4.679526E+02 -1.012191E+04  1.142865E+05  2.702530E-10 -1.621899E-10
       102  15  1.160533E+04 -3.202703E+03 -1.670953E+04  1.288050E+05  3.433171E-10  4.786117E-11
       102  16 -1.469257E+05 -3.705600E+04 -3.405745E+04  1.292300E+05 -1.598625E-10 -2.042892E-10
       102  17 -1.881570E+04 -7.560874E+03 -1.456320E+04  1.138234E+05  1.868188E-11 -2.279850E-10
       102  18  1.083423E+05  1.989363E+04  2.041707E+03  1.274539E+05  8.200103E-11 -8.517337E-11
       102  19  1.701561E+05  3.702791E+04  1.928428E+04  1.283805E+05  1.361688E+04  1.185271E+04
       102  20  4.323230E+04  6.624949E+03 -5.680512E+03  1.147496E+05  7.180724E+03  3.030373E+03
       102  21 -8.512260E+04 -2.629956E+04 -3.546115E+04  1.301558E+05  7.464403E+02 -4.966181E+03
       102  22  1.160274E+04 -1.333145E+01 -7.386223E+03  1.288052E+05 -1.901003E+03  1.185315E+04
       102  23  1.220784E+04 -4.679298E+02 -1.012180E+04  1.142864E+05 -6.947863E+03  3.030608E+03
       102  24  1.160550E+04 -3.202638E+03 -1.670921E+04  1.288050E+05 -1.199413E+04 -4.966137E+03
       102  25 -1.469254E+05 -3.705576E+04 -3.405661E+04  1.292298E+05 -1.741505E+04  1.185357E+04
       102  26 -1.881522E+04 -7.560745E+03 -1.456235E+04  1.138233E+05 -2.107577E+04  3.030865E+03
       102  27  1.083429E+05  1.989382E+04  2.042903E+03  1.274540E+05 -2.473663E+04 -4.966039E+03
       103   1 -1.715255E+05 -4.508116E+04 -5.567126E+04  1.245660E+05  8.508665E+02  1.003081E+04
       103   2 -2.911156E+05 -8.947212E+04 -1.010165E+05  1.345374E+05  3.928796E+04  1.281005E+04
       103   3 -4.269125E+05 -1.788311E+05 -1.826289E+05  1.728209E+05  7.771321E+04  4.497221E+03
       103   4  8.985894E+03 -2.143668E+03 -2.150972E+04  1.286470E+05  1.484011E+04  1.003038E+04
       103   5  1.546150E+04 -1.561197E+04 -3.836901E+04  1.144841E+05  3.465281E+04  1.280865E+04
       103   6  8.960936E+03 -7.080159E+04 -7.855065E+04  1.286373E+05  5.446184E+04  4.494389E+03
       103   7  1.895292E+05  4.079209E+04  1.265113E+04  1.327293E+05  2.883332E+04  1.003013E+04
       103   8  3.221288E+05  5.824382E+04  2.427384E+04  9.442063E+04  3.001541E+04  1.280756E+04
       103   9  4.450140E+05  3.722180E+04  2.551735E+04  8.442255E+04  3.119420E+04  4.494871E+03
       103  10 -1.715255E+05 -4.508127E+04 -5.567145E+04  1.245660E+05  5.234573E-10  2.072374E-10
       103  11 -2.911173E+05 -8.947271E+04 -1.010197E+05  1.345370E+05  1.270870E-10  4.689404E-11
       103  12 -4.269190E+05 -1.788327E+05 -1.826403E+05  1.728206E+05 -2.704272E-10  9.328432E-13
       103  13  8.985630E+03 -2.143835E+03 -2.151032E+04  1.286469E+05 -2.554119E-10  8.832807E-11
       103  14  1.546016E+04 -1.561247E+04 -3.837157E+04  1.144837E+05  3.974210E-10  2.506593E-11
       103  15  8.957745E+03 -7.080241E+04 -7.855626E+04  1.286371E+05 -1.281287E-10 -2.650173E-11
       103  16  1.895282E+05  4.079176E+04  1.264937E+04  1.327291E+05 -2.992287E-10 -2.871312E-11
       103  17  3.221278E+05  5.824340E+04  2.427184E+04  9.442032E+04 -1.978129E-10 -7.310564E-11
       103  18  4.450130E+05  3.722152E+04  2.551549E+04  8.442244E+04  4.877430E-10 -2.183544E-11
       103  19 -1.715255E+05 -4.508116E+04 -5.567126E+04  1.245660E+05 -8.508665E+02 -1.003081E+04
       103  20 -2.911156E+05 -8.947212E+04 -1.010165E+05  1.345374E+05 -3.928796E+04 -1.281005E+04
       103  21 -4.269125E+05 -1.788311E+05 -1.826289E+05  1.728209E+05 -7.771321E+04 -4.497221E+03
       103  22  8.985894E+03 -2.143668E+03 -2.150972E+04  1.286470E+05 -1.484011E+04 -1.003038E+04
       103  23  1.546150E+04 -1.561197E+04 -3.836901E+04  1.144841E+05 -3.465281E+04 -1.280865E+04
       103  24  8.960936E+03 -7.080159E+04 -7.855065E+04  1.286373E+05 -5.446184E+04 -4.494389E+03
       103  25  1.895292E+05  4.079209E+04  1.265113E+04  1.327293E+05 -2.883332E+04 -1.003013E+04
       103  26  3.221288E+05  5.824382E+04  2.427384E+04  9.442063E+04 -3.001541E+04 -1.280756E+04
       103  27  4.450140E+05  3.722180E+04  2.551735E+04  8.442255E+04 -3.119420E+04 -4.494871E+03
       104   1 -4.081753E+04  2.207540E+04 -4.743919E+04  7.809034E+04  1.282185E+03 -3.051122E+04
       104   2  8.123853E+03  7.362447E+04 -1.226117E+04  5.601974E+04  5.482854E+03 -1.775280E+04
       104   3  2.837995E+04  1.163247E+05  7.433446E+03  4.473181E+04  9.205900E+03 -4.992837E+03
       104   4 -4.883530E+04 -1.089200E+04 -5.426045E+04  4.757667E+04  1.277669E+03 -3.794802E+04
       104   5 -1.070557E+04 -6.397776E+03 -2.625807E+04  4.216674E+04  5.478066E+03 -2.438895E+04
       104   6 -1.402683E+03 -1.089430E+04 -1.429521E+04  4.754134E+04  9.201494E+03 -1.082912E+04
       104   7 -5.684962E+04 -4.385625E+04 -6.108106E+04  1.706464E+04  1.273884E+03 -4.538443E+04
       104   8 -2.953460E+04 -8.641324E+04 -4.025492E+04  2.831556E+04  5.473574E+03 -3.102426E+04
       104   9 -3.118613E+04 -1.380973E+05 -3.602427E+04  5.035027E+04  9.197035E+03 -1.666425E+04
       104  10 -4.081779E+04  2.207440E+04 -4.744094E+04  7.809037E+04 -2.722755E-10 -2.530680E-10
       104  11  8.123736E+03  7.362412E+04 -1.226182E+04  5.601982E+04 -6.941657E-11  9.847762E-11
       104  12  2.837985E+04  1.163247E+05  7.433240E+03  4.473185E+04  5.443679E-11  4.988057E-10
       104  13 -4.883569E+04 -1.089355E+04 -5.426316E+04  4.757671E+04  4.944867E-11  5.003033E-14
       104  14 -1.070576E+04 -6.398423E+03 -2.625924E+04  4.216684E+04 -7.302956E-10 -4.624490E-11
       104  15 -1.402805E+03 -1.089445E+04 -1.429559E+04  4.754142E+04 -2.234731E-10 -3.794675E-11
       104  16 -5.685017E+04 -4.385847E+04 -6.108494E+04  1.706469E+04 -2.780823E-10  2.615405E-10
       104  17 -2.953489E+04 -8.641428E+04 -4.025679E+04  2.831570E+04 -1.937592E-10 -3.595142E-11
       104  18 -3.118629E+04 -1.380977E+05 -3.602495E+04  5.035040E+04  2.050809E-10 -5.676204E-10
       104  19 -4.081753E+04  2.207540E+04 -4.743919E+04  7.809034E+04 -1.282185E+03  3.051122E+04
       104  20  8.123853E+03  7.362447E+04 -1.226117E+04  5.601974E+04 -5.482854E+03  1.775280E+04
       104  21  2.837995E+04  1.163247E+05  7.433446E+03  4.473181E+04 -9.205900E+03  4.992837E+03
       104  22 -4.883530E+04 -1.089200E+04 -5.426045E+04  4.757667E+04 -1.277669E+03  3.794802E+04
       104  23 -1.070557E+04 -6.397776E+03 -2.625807E+04  4.216674E+04 -5.478066E+03  2.438895E+04
       104  24 -1.402683E+03 -1.089430E+04 -1.429521E+04  4.754134E+04 -9.201494E+03  1.082912E+04
       104  25 -5.684962E+04 -4.385625E+04 -6.108106E+04  1.706464E+04 -1.273884E+03  4.538443E+04
       104  26 -2.953460E+04 -8.641324E+04 -4.025492E+04  2.831556E+04 -5.473574E+03  3.102426E+04
       104  27 -3.118613E+04 -1.380973E+05 -3.602427E+04  5.035027E+04 -9.197035E+03  1.666425E+04
       105   1  3.487061E+04  1.488942E+05  1.639533E+04  4.846319E+04  1.126919E+04 -3.009700E+03
       105   2  4.781808E+04  1.962453E+05  2.990676E+04  4.254891E+04  1.440266E+04 -1.657905E+03
       105   3  5.961491E+04  2.431221E+05  4.224656E+04  4.732631E+04  1.668710E+04 -3.050363E+02
       105   4 -2.150366E+03 -9.059018E+03 -1.076186E+04  4.752581E+04  1.126489E+04 -8.984895E+03
       105   5 -2.621434E+02 -8.700235E+03 -5.569798E+03  4.217901E+04  1.439980E+04 -6.207093E+03
       105   6  2.278406E+02 -9.065391E+03 -2.539617E+03  4.752415E+04  1.668555E+04 -3.428307E+03
       105   7 -3.917266E+04 -1.669877E+05 -3.791976E+04  4.658866E+04  1.126059E+04 -1.495862E+04
       105   8 -4.834462E+04 -2.136045E+05 -4.104773E+04  4.180922E+04  1.439694E+04 -1.075483E+04
       105   9 -5.916273E+04 -2.611907E+05 -4.732813E+04  4.772190E+04  1.668398E+04 -6.550347E+03
       105  10  3.487047E+04  1.488942E+05  1.639507E+04  4.846322E+04 -3.404960E-11 -4.378435E-10
       105  11  4.781786E+04  1.962452E+05  2.990636E+04  4.254893E+04  5.004938E-10 -1.429675E-10
       105  12  5.961461E+04  2.431220E+05  4.224603E+04  4.732631E+04  2.348221E-11  2.282684E-10
       105  13 -2.150524E+03 -9.059139E+03 -1.076225E+04  4.752589E+04 -8.406075E-11 -3.088612E-11
       105  14 -2.623764E+02 -8.700332E+03 -5.570260E+03  4.217908E+04 -1.637619E-10  7.772290E-12
       105  15  2.275385E+02 -9.065478E+03 -2.540162E+03  4.752420E+04 -1.246136E-10 -4.397908E-11
       105  16 -3.917285E+04 -1.669880E+05 -3.792042E+04  4.658880E+04  8.136935E-11  4.360528E-10
       105  17 -4.834487E+04 -2.136047E+05 -4.104834E+04  4.180935E+04 -3.281166E-10  1.627841E-10
       105  18 -5.916304E+04 -2.611909E+05 -4.732873E+04  4.772199E+04 -2.101066E-10 -2.457239E-10
       105  19  3.487061E+04  1.488942E+05  1.639533E+04  4.846319E+04 -1.126919E+04  3.009700E+03
       105  20  4.781808E+04  1.962453E+05  2.990676E+04  4.254891E+04 -1.440266E+04  1.657905E+03
       105  21  5.961491E+04  2.431221E+05  4.224656E+04  4.732631E+04 -1.668710E+04  3.050363E+02
       105  22 -2.150366E+03 -9.059018E+03 -1.076186E+04  4.752581E+04 -1.126489E+04  8.984895E+03
       105  23 -2.621434E+02 -8.700235E+03 -5.569798E+03  4.217901E+04 -1.439980E+04  6.207093E+03
       105  24  2.278406E+02 -9.065391E+03 -2.539617E+03  4.752415E+04 -1.668555E+04  3.428307E+03
       105  25 -3.917266E+04 -1.669877E+05 -3.791976E+04  4.658866E+04 -1.126059E+04  1.495862E+04
       105  26 -4.834462E+04 -2.136045E+05 -4.104773E+04  4.180922E+04 -1.439694E+04  1.075483E+04
       105  27 -5.916273E+04 -2.611907E+05 -4.732813E+04  4.772190E+04 -1.668398E+04  6.550347E+03
       106   1  6.694154E+04  2.745746E+05  4.939889E+04  4.717584E+04  1.830211E+04  1.107426E+03
       106   2  7.954302E+04  3.201581E+05  6.525251E+04  4.330254E+04  1.620408E+04 -1.463189E+04
       106   3  9.674974E+04  3.689413E+05  9.250195E+04  4.952724E+04  4.967783E+03 -3.036844E+04
       106   4  1.159568E+02 -8.789180E+03 -1.413473E+03  4.739268E+04  1.830008E+04 -3.061921E+03
       106   5  7.991367E+02 -9.060785E+03  6.955444E+02  4.234265E+04  1.621148E+04 -3.441408E+03
       106   6  3.422988E+03 -8.799096E+03  3.537234E+03  4.739068E+04  4.982444E+03 -3.816979E+03
       106   7 -6.671408E+04 -2.920747E+05 -5.222886E+04  4.760941E+04  1.829805E+04 -7.229419E+03
       106   8 -7.795121E+04 -3.381756E+05 -6.386618E+04  4.138327E+04  1.621884E+04  7.743272E+03
       106   9 -8.991356E+04 -3.864067E+05 -8.543465E+04  4.525541E+04  4.996928E+03  2.271843E+04
       106  10  6.694118E+04  2.745745E+05  4.939826E+04  4.717582E+04  1.349643E-10  2.279436E-10
       106  11  7.954268E+04  3.201578E+05  6.525162E+04  4.330273E+04 -4.507278E-12  2.939782E-11
       106  12  9.674947E+04  3.689403E+05  9.250017E+04  4.952736E+04 -7.186049E-11 -1.963548E-10
       106  13  1.155947E+02 -8.789280E+03 -1.414120E+03  4.739273E+04  5.856866E-10 -8.419529E-11
       106  14  7.988513E+02 -9.060868E+03  6.950282E+02  4.234270E+04  3.781885E-10 -5.095843E-11
       106  15  3.422957E+03 -8.799118E+03  3.537160E+03  4.739070E+04  1.343922E-10  5.421897E-12
       106  16 -6.671446E+04 -2.920748E+05 -5.222959E+04  4.760952E+04 -3.373071E-10 -2.643969E-10
       106  17 -7.795151E+04 -3.381757E+05 -6.386679E+04  4.138317E+04  1.044643E-10 -9.892911E-11
       106  18 -8.991373E+04 -3.864073E+05 -8.543567E+04  4.525532E+04  9.789199E-11  1.988620E-10
       106  19  6.694154E+04  2.745746E+05  4.939889E+04  4.717584E+04 -1.830211E+04 -1.107426E+03
       106  20  7.954302E+04  3.201581E+05  6.525251E+04  4.330254E+04 -1.620408E+04  1.463189E+04
       106  21  9.674974E+04  3.689413E+05  9.250195E+04  4.952724E+04 -4.967783E+03  3.036844E+04
       106  22  1.159568E+02 -8.789180E+03 -1.413473E+03  4.739268E+04 -1.830008E+04  3.061921E+03
       106  23  7.991367E+02 -9.060785E+03  6.955444E+02  4.234265E+04 -1.621148E+04  3.441408E+03
       106  24  3.422988E+03 -8.799096E+03  3.537234E+03  4.739068E+04 -4.982444E+03  3.816979E+03
       106  25 -6.671408E+04 -2.920747E+05 -5.222886E+04  4.760941E+04 -1.829805E+04  7.229419E+03
       106  26 -7.795121E+04 -3.381756E+05 -6.386618E+04  4.138327E+04 -1.621884E+04 -7.743272E+03
       106  27 -8.991356E+04 -3.864067E+05 -8.543465E+04  4.525541E+04 -4.996928E+03 -2.271843E+04
       107   1  5.944627E+05  5.116180E+05  1.577881E+05  4.002821E+05  6.042517E+04  3.791169E+04
       107   2  5.660925E+05  4.396163E+05  1.032003E+05  3.973570E+05  4.325967E+04  8.082455E+03
       107   3  5.494663E+05  4.015686E+05  7.749566E+04  3.868380E+05  1.993802E+04 -1.351981E+04
       107   4  3.120443E+05  2.586561E+05  5.695929E+04  2.360801E+05  3.521491E+04  1.902438E+04
       107   5  2.987306E+05  2.272401E+05  2.775713E+04  2.518252E+05  3.188774E+04 -4.385834E+02
       107   6  2.941699E+05  2.267861E+05  1.544972E+04  2.599736E+05  2.240118E+04 -1.167575E+04
       107   7  2.971794E+04  5.777104E+03 -4.387590E+04  7.197488E+04  1.002047E+04  1.529684E+02
       107   8  3.145202E+04  1.492162E+04 -4.769136E+04  1.063706E+05  2.052246E+04 -8.953822E+03
       107   9  3.894856E+04  5.204019E+04 -4.660070E+04  1.331686E+05  2.486297E+04 -9.832661E+03
       107  10  5.944584E+05  5.116155E+05  1.577785E+05  4.002802E+05 -2.019152E-10 -3.225861E-11
       107  11  5.660905E+05  4.396158E+05  1.031966E+05  3.973567E+05  4.108838E-10  1.930122E-10
       107  12  5.494659E+05  4.015683E+05  7.749457E+04  3.868383E+05  4.328430E-10  1.893884E-10
       107  13  3.120429E+05  2.586554E+05  5.695628E+04  2.360795E+05 -3.145404E-10  5.064179E-11
       107  14  2.987295E+05  2.272398E+05  2.775522E+04  2.518252E+05  5.383286E-10  2.056741E-11
       107  15  2.941693E+05  2.267858E+05  1.544852E+04  2.599738E+05  4.616308E-10 -1.459638E-10
       107  16  2.971784E+04  5.777077E+03 -4.387608E+04  7.197488E+04 -5.530970E-11  6.839373E-11
       107  17  3.145154E+04  1.492142E+04 -4.769230E+04  1.063708E+05 -1.175079E-10 -1.759288E-10
       107  18  3.894787E+04  5.203992E+04 -4.660205E+04  1.331688E+05 -2.475787E-10 -4.545490E-10
       107  19  5.944627E+05  5.116180E+05  1.577881E+05  4.002821E+05 -6.042517E+04 -3.791169E+04
       107  20  5.660925E+05  4.396163E+05  1.032003E+05  3.973570E+05 -4.325967E+04 -8.082455E+03
       107  21  5.494663E+05  4.015686E+05  7.749566E+04  3.868380E+05 -1.993802E+04  1.351981E+04
       107  22  3.120443E+05  2.586561E+05  5.695929E+04  2.360801E+05 -3.521491E+04 -1.902438E+04
       107  23  2.987306E+05  2.272401E+05  2.775713E+04  2.518252E+05 -3.188774E+04  4.385834E+02
       107  24  2.941699E+05  2.267861E+05  1.544972E+04  2.599736E+05 -2.240118E+04  1.167575E+04
       107  25  2.971794E+04  5.777104E+03 -4.387590E+04  7.197488E+04 -1.002047E+04 -1.529684E+02
       107  26  3.145202E+04  1.492162E+04 -4.769136E+04  1.063706E+05 -2.052246E+04  8.953822E+03
       107  27  3.894856E+04  5.204019E+04 -4.660070E+04  1.331686E+05 -2.486297E+04  9.832661E+03
       108   1  5.250298E+05  3.914909E+05  6.860485E+04  3.768700E+05  1.849366E+04 -1.302795E+04
       108   2  4.994999E+05  3.641994E+05  5.524494E+04  3.613645E+05  1.353786E+04 -1.475472E+04
       108   3  4.665665E+05  3.473043E+05  4.560684E+04  3.480786E+05  8.035472E+03 -1.575236E+04
       108   4  2.930923E+05  2.267377E+05  1.190855E+04  2.587265E+05  2.001825E+04 -1.188686E+04
       108   5  2.965045E+05  2.209181E+05  6.954407E+03  2.581845E+05  1.628993E+04 -1.269348E+04
       108   6  2.922477E+05  2.252290E+05  4.658943E+03  2.598615E+05  1.201473E+04 -1.277096E+04
       108   7  6.121254E+04  6.201461E+04 -4.479294E+04  1.406321E+05  2.154211E+04 -1.074633E+04
       108   8  9.355686E+04  7.766211E+04 -4.133876E+04  1.550437E+05  1.904080E+04 -1.063314E+04
       108   9  1.179673E+05  1.031743E+05 -3.628970E+04  1.716746E+05  1.599242E+04 -9.790725E+03
       108  10  5.250294E+05  3.914907E+05  6.860389E+04  3.768701E+05 -1.197486E-11 -1.858701E-10
       108  11  4.994996E+05  3.641991E+05  5.524418E+04  3.613647E+05 -6.141275E-10 -2.310702E-10
       108  12  4.665664E+05  3.473040E+05  4.560626E+04  3.480787E+05 -7.922768E-10 -1.383618E-10
       108  13  2.930918E+05  2.267375E+05  1.190754E+04  2.587267E+05  1.242372E-10 -1.737575E-10
       108  14  2.965042E+05  2.209179E+05  6.953606E+03  2.581847E+05  1.550549E-11 -1.692272E-10
       108  15  2.922475E+05  2.252288E+05  4.658365E+03  2.598617E+05 -1.173651E-10  3.950374E-11
       108  16  6.121201E+04  6.201436E+04 -4.479403E+04  1.406323E+05  3.166109E-10 -2.212409E-10
       108  17  9.355644E+04  7.766189E+04 -4.133965E+04  1.550438E+05  4.356002E-10 -5.887424E-11
       108  18  1.179670E+05  1.031742E+05 -3.629036E+04  1.716748E+05  4.982932E-10  1.570518E-10
       108  19  5.250298E+05  3.914909E+05  6.860485E+04  3.768700E+05 -1.849366E+04  1.302795E+04
       108  20  4.994999E+05  3.641994E+05  5.524494E+04  3.613645E+05 -1.353786E+04  1.475472E+04
       108  21  4.665665E+05  3.473043E+05  4.560684E+04  3.480786E+05 -8.035472E+03  1.575236E+04
       108  22  2.930923E+05  2.267377E+05  1.190855E+04  2.587265E+05 -2.001825E+04  1.188686E+04
       108  23  2.965045E+05  2.209181E+05  6.954407E+03  2.581845E+05 -1.628993E+04  1.269348E+04
       108  24  2.922477E+05  2.252290E+05  4.658943E+03  2.598615E+05 -1.201473E+04  1.277096E+04
       108  25  6.121254E+04  6.201461E+04 -4.479294E+04  1.406321E+05 -2.154211E+04  1.074633E+04
       108  26  9.355686E+04  7.766211E+04 -4.133876E+04  1.550437E+05 -1.904080E+04  1.063314E+04
       108  27  1.179673E+05  1.031743E+05 -3.628970E+04  1.716746E+05 -1.599242E+04  9.790725E+03
       109   1  4.470711E+05  3.340898E+05  4.036472E+04  3.383850E+05  6.456724E+03 -1.476248E+04
       109   2  4.219886E+05  3.090457E+05  3.328917E+04  3.222208E+05  3.057621E+03 -1.365274E+04
       109   3  3.883591E+05  2.931055E+05  2.760807E+04  3.086917E+05 -3.793052E+02 -1.249300E+04
       109   4  2.921796E+05  2.252280E+05  4.114453E+03  2.597835E+05  1.035241E+04 -1.184342E+04
       109   5  2.964716E+05  2.206987E+05  3.936977E+03  2.584581E+05  7.037809E+03 -1.066995E+04
       109   6  2.921969E+05  2.252549E+05  5.080754E+03  2.597670E+05  3.685261E+03 -9.446554E+03
       109   7  1.373160E+05  1.163807E+05 -3.213725E+04  1.812047E+05  1.424679E+04 -8.925339E+03
       109   8  1.709717E+05  1.323605E+05 -2.541651E+04  1.947097E+05  1.101696E+04 -7.687950E+03
       109   9  1.960438E+05  1.574087E+05 -1.744765E+04  2.108503E+05  7.749061E+03 -6.400688E+03
       109  10  4.470710E+05  3.340895E+05  4.036424E+04  3.383851E+05  1.997785E-10  2.305238E-10
       109  11  4.219885E+05  3.090455E+05  3.328880E+04  3.222209E+05  6.338887E-10  2.447944E-11
       109  12  3.883590E+05  2.931054E+05  2.760778E+04  3.086917E+05 -1.849434E-10 -8.980572E-11
       109  13  2.921795E+05  2.252278E+05  4.113988E+03  2.597836E+05  3.301057E-10  9.986599E-12
       109  14  2.964715E+05  2.206986E+05  3.936670E+03  2.584581E+05 -2.907085E-10 -6.845370E-11
       109  15  2.921969E+05  2.252548E+05  5.080561E+03  2.597670E+05  8.245608E-11  1.039417E-10
       109  16  1.373158E+05  1.163806E+05 -3.213778E+04  1.812048E+05  1.358971E-10 -2.089459E-10
       109  17  1.709716E+05  1.323604E+05 -2.541685E+04  1.947098E+05 -2.349192E-10 -3.946122E-11
       109  18  1.960437E+05  1.574087E+05 -1.744784E+04  2.108503E+05  8.809770E-11  1.947771E-10
       109  19  4.470711E+05  3.340898E+05  4.036472E+04  3.383850E+05 -6.456724E+03  1.476248E+04
       109  20  4.219886E+05  3.090457E+05  3.328917E+04  3.222208E+05 -3.057621E+03  1.365274E+04
       109  21  3.883591E+05  2.931055E+05  2.760807E+04  3.086917E+05  3.793052E+02  1.249300E+04
       109  22  2.921796E+05  2.252280E+05  4.114453E+03  2.597835E+05 -1.035241E+04  1.184342E+04
       109  23  2.964716E+05  2.206987E+05  3.936977E+03  2.584581E+05 -7.037809E+03  1.066995E+04
       109  24  2.921969E+05  2.252549E+05  5.080754E+03  2.597670E+05 -3.685261E+03  9.446554E+03
       109  25  1.373160E+05  1.163807E+05 -3.213725E+04  1.812047E+05 -1.424679E+04  8.925339E+03
       109  26  1.709717E+05  1.323605E+05 -2.541651E+04  1.947097E+05 -1.101696E+04  7.687950E+03
       109  27  1.960438E+05  1.574087E+05 -1.744765E+04  2.108503E+05 -7.749061E+03  6.400688E+03
       110   1  3.689899E+05  2.800637E+05  2.407522E+04  2.992686E+05 -2.243102E+03 -1.167698E+04
       110   2  3.449116E+05  2.542963E+05  2.107655E+04  2.822820E+05 -7.768097E+03 -1.215205E+04
       110   3  3.136332E+05  2.393065E+05  2.173263E+04  2.673181E+05 -1.317957E+04 -1.277821E+04
       110   4  2.923070E+05  2.252773E+05  6.193238E+03  2.599049E+05  1.830932E+03 -8.623270E+03
       110   5  2.965273E+05  2.210127E+05  1.006873E+04  2.580314E+05 -3.948139E+03 -9.288699E+03
       110   6  2.936009E+05  2.275798E+05  1.781903E+04  2.581794E+05 -9.613946E+03 -1.010541E+04
       110   7  2.156325E+05  1.704956E+05 -1.168851E+04  2.205475E+05  5.904222E+03 -5.570130E+03
       110   8  2.481463E+05  1.877308E+05 -9.389801E+02  2.337832E+05 -1.286152E+02 -6.425660E+03
       110   9  2.735691E+05  2.158533E+05  1.390551E+04  2.490409E+05 -6.048477E+03 -7.432699E+03
       110  10  3.689899E+05  2.800636E+05  2.407495E+04  2.992686E+05  4.225257E-10  3.188615E-10
       110  11  3.449115E+05  2.542961E+05  2.107616E+04  2.822820E+05  4.485634E-10 -1.664966E-10
       110  12  3.136330E+05  2.393063E+05  2.173199E+04  2.673180E+05 -3.082192E-11 -2.311412E-10
       110  13  2.923070E+05  2.252772E+05  6.193092E+03  2.599049E+05 -4.166981E-10 -1.666461E-11
       110  14  2.965273E+05  2.210126E+05  1.006854E+04  2.580314E+05  2.096367E-10 -1.630839E-10
       110  15  2.936008E+05  2.275797E+05  1.781867E+04  2.581793E+05  4.113258E-10 -2.859294E-11
       110  16  2.156324E+05  1.704955E+05 -1.168863E+04  2.205476E+05 -7.555784E-10 -3.167547E-10
       110  17  2.481463E+05  1.877308E+05 -9.390577E+02  2.337832E+05 -5.572455E-10 -1.924842E-10
       110  18  2.735691E+05  2.158532E+05  1.390533E+04  2.490409E+05  2.513794E-10  3.713938E-11
       110  19  3.689899E+05  2.800637E+05  2.407522E+04  2.992686E+05  2.243102E+03  1.167698E+04
       110  20  3.449116E+05  2.542963E+05  2.107655E+04  2.822820E+05  7.768097E+03  1.215205E+04
       110  21  3.136332E+05  2.393065E+05  2.173263E+04  2.673181E+05  1.317957E+04  1.277821E+04
       110  22  2.923070E+05  2.252773E+05  6.193238E+03  2.599049E+05 -1.830932E+03  8.623270E+03
       110  23  2.965273E+05  2.210127E+05  1.006873E+04  2.580314E+05  3.948139E+03  9.288699E+03
       110  24  2.936009E+05  2.275798E+05  1.781903E+04  2.581794E+05  9.613946E+03  1.010541E+04
       110  25  2.156325E+05  1.704956E+05 -1.168851E+04  2.205475E+05 -5.904222E+03  5.570130E+03
       110  26  2.481463E+05  1.877308E+05 -9.389801E+02  2.337832E+05  1.286152E+02  6.425660E+03
       110  27  2.735691E+05  2.158533E+05  1.390551E+04  2.490409E+05  6.048477E+03  7.432699E+03
       111   1  2.901938E+05  2.317963E+05  2.241163E+04  2.612506E+05 -1.681831E+04 -1.341812E+04
       111   2  2.916897E+05  1.882376E+05  3.307643E+04  2.273568E+05 -3.227663E+04 -2.287807E+04
       111   3  3.095672E+05  1.873234E+05  6.681846E+04  1.808112E+05 -4.641810E+04 -3.409358E+04
       111   4  2.950670E+05  2.278403E+05  2.327582E+04  2.601290E+05 -1.305379E+04 -1.059595E+04
       111   5  3.001534E+05  2.304062E+05  4.209288E+04  2.483038E+05 -3.146621E+04 -2.227233E+04
       111   6  3.222581E+05  2.762520E+05  8.654855E+04  2.238266E+05 -4.856160E+04 -3.570600E+04
       111   7  2.999404E+05  2.238843E+05  2.414010E+04  2.590075E+05 -9.289154E+03 -7.773773E+03
       111   8  3.086180E+05  2.725782E+05  5.110950E+04  2.692517E+05 -3.065577E+04 -2.166649E+04
       111   9  3.349528E+05  3.651945E+05  1.062791E+05  2.668444E+05 -5.070509E+04 -3.731893E+04
       111  10  2.901935E+05  2.317961E+05  2.241076E+04  2.612504E+05 -1.418730E-10  2.507649E-11
       111  11  2.916884E+05  1.882367E+05  3.307349E+04  2.273562E+05  1.495891E-11  7.636811E-11
       111  12  3.095646E+05  1.873216E+05  6.681223E+04  1.808099E+05 -2.130144E-10  4.791924E-11
       111  13  2.950668E+05  2.278402E+05  2.327528E+04  2.601289E+05 -9.414434E-11 -6.950428E-11
       111  14  3.001522E+05  2.304054E+05  4.209009E+04  2.483033E+05 -2.975545E-10  2.434044E-11
       111  15  3.222552E+05  2.762500E+05  8.654173E+04  2.238252E+05 -5.550801E-12 -1.388412E-10
       111  16  2.999403E+05  2.238842E+05  2.413982E+04  2.590074E+05  1.369813E-10 -3.489324E-11
       111  17  3.086169E+05  2.725774E+05  5.110685E+04  2.692512E+05  1.975732E-11 -1.273666E-10
       111  18  3.349496E+05  3.651923E+05  1.062717E+05  2.668429E+05 -9.146631E-11 -7.525843E-11
       111  19  2.901938E+05  2.317963E+05  2.241163E+04  2.612506E+05  1.681831E+04  1.341812E+04
       111  20  2.916897E+05  1.882376E+05  3.307643E+04  2.273568E+05  3.227663E+04  2.287807E+04
       111  21  3.095672E+05  1.873234E+05  6.681846E+04  1.808112E+05  4.641810E+04  3.409358E+04
       111  22  2.950670E+05  2.278403E+05  2.327582E+04  2.601290E+05  1.305379E+04  1.059595E+04
       111  23  3.001534E+05  2.304062E+05  4.209288E+04  2.483038E+05  3.146621E+04  2.227233E+04
       111  24  3.222581E+05  2.762520E+05  8.654855E+04  2.238266E+05  4.856160E+04  3.570600E+04
       111  25  2.999404E+05  2.238843E+05  2.414010E+04  2.590075E+05  9.289154E+03  7.773773E+03
       111  26  3.086180E+05  2.725782E+05  5.110950E+04  2.692517E+05  3.065577E+04  2.166649E+04
       111  27  3.349528E+05  3.651945E+05  1.062791E+05  2.668444E+05  5.070509E+04  3.731893E+04
       112   1  1.246282E+06  2.011980E+05  1.984401E+05  1.356561E+05  7.301885E+04 -8.188321E+03
       112   2  1.129377E+06  1.387936E+05  1.288962E+05  1.103950E+05  3.496996E+04 -2.589865E+04
       112   3  1.024364E+06  1.039716E+05  9.099033E+04  1.092642E+05 -3.065327E+03 -2.750949E+04
       112   4  5.883730E+05  3.869517E+04  4.308280E+04  1.114781E+05  2.965505E+04 -8.185626E+03
       112   5  5.848011E+05  8.451739E+03  2.121318E+04  9.941240E+04  1.870663E+04 -2.590026E+04
       112   6  5.884226E+05  1.105409E+03  1.219530E+04  1.114755E+05  7.764138E+03 -2.751056E+04
       112   7 -6.913397E+04 -1.238354E+05 -1.122970E+05  8.732589E+04 -1.366312E+04 -8.179561E+03
       112   8  4.050926E+04 -1.219076E+05 -8.648343E+04  8.843965E+04  2.457249E+03 -2.590129E+04
       112   9  1.526657E+05 -1.017713E+05 -6.660675E+04  1.136851E+05  1.858622E+04 -2.751154E+04
       112  10  1.246277E+06  2.011965E+05  1.984299E+05  1.356566E+05 -2.299001E-10 -2.521574E-11
       112  11  1.129375E+06  1.387926E+05  1.288927E+05  1.103957E+05 -3.162042E-10 -6.340811E-11
       112  12  1.024364E+06  1.039708E+05  9.098889E+04  1.092641E+05 -3.029746E-10 -1.113606E-11
       112  13  5.883720E+05  3.869487E+04  4.308102E+04  1.114783E+05 -3.468541E-10  4.183912E-11
       112  14  5.848005E+05  8.450924E+03  2.121126E+04  9.941279E+04 -3.456841E-11 -5.825978E-11
       112  15  5.884223E+05  1.104580E+03  1.219377E+04  1.114756E+05 -2.993164E-10  9.536274E-11
       112  16 -6.913419E+04 -1.238355E+05 -1.122975E+05  8.732580E+04  1.863379E-10  5.592968E-12
       112  17  4.050907E+04 -1.219083E+05 -8.648470E+04  8.843970E+04  5.191300E-10  6.335436E-11
       112  18  1.526652E+05 -1.017722E+05 -6.660882E+04  1.136856E+05  2.962492E-10  2.903018E-11
       112  19  1.246282E+06  2.011980E+05  1.984401E+05  1.356561E+05 -7.301885E+04  8.188321E+03
       112  20  1.129377E+06  1.387936E+05  1.288962E+05  1.103950E+05 -3.496996E+04  2.589865E+04
       112  21  1.024364E+06  1.039716E+05  9.099033E+04  1.092642E+05  3.065327E+03  2.750949E+04
       112  22  5.883730E+05  3.869517E+04  4.308280E+04  1.114781E+05 -2.965505E+04  8.185626E+03
       112  23  5.848011E+05  8.451739E+03  2.121318E+04  9.941240E+04 -1.870663E+04  2.590026E+04
       112  24  5.884226E+05  1.105409E+03  1.219530E+04  1.114755E+05 -7.764138E+03  2.751056E+04
       112  25 -6.913397E+04 -1.238354E+05 -1.122970E+05  8.732589E+04  1.366312E+04  8.179561E+03
       112  26  4.050926E+04 -1.219076E+05 -8.648343E+04  8.843965E+04 -2.457249E+03  2.590129E+04
       112  27  1.526657E+05 -1.017713E+05 -6.660675E+04  1.136851E+05 -1.858622E+04  2.751154E+04
       113   1  9.499161E+05  8.721671E+04  7.470479E+04  1.124959E+05 -2.885117E+03 -2.345311E+04
       113   2  8.386224E+05  5.934492E+04  5.041582E+04  9.947228E+04 -8.398472E+03 -1.742939E+04
       113   3  7.284930E+05  3.316159E+04  3.013716E+04  1.115809E+05 -1.391196E+04 -1.006209E+04
       113   4  5.870030E+05  1.699027E+03  9.708920E+03  1.116996E+05  6.115230E+03 -2.345341E+04
       113   5  5.866330E+05  2.115457E+02  6.532372E+03  9.913327E+04  2.862409E+03 -1.742849E+04
       113   6  5.870223E+05  2.111164E+01  5.798432E+03  1.116998E+05 -3.915168E+02 -1.005970E+04
       113   7  2.242184E+05 -8.382591E+04 -5.529169E+04  1.109037E+05  1.511047E+04 -2.345372E+04
       113   8  3.347061E+05 -5.892519E+04 -3.735284E+04  9.879441E+04  1.411886E+04 -1.742759E+04
       113   9  4.455716E+05 -3.312034E+04 -1.854029E+04  1.118187E+05  1.312595E+04 -1.005731E+04
       113  10  9.499159E+05  8.721611E+04  7.470374E+04  1.124959E+05  3.155013E-10  9.464101E-11
       113  11  8.386222E+05  5.934457E+04  5.041511E+04  9.947216E+04  2.060426E-10  8.714339E-11
       113  12  7.284928E+05  3.316143E+04  3.013660E+04  1.115808E+05 -1.734804E-11 -7.026764E-11
       113  13  5.870028E+05  1.698426E+03  9.707816E+03  1.116997E+05  3.053583E-10  7.442066E-11
       113  14  5.866329E+05  2.112172E+02  6.531786E+03  9.913331E+04 -2.164309E-10  5.216615E-11
       113  15  5.870222E+05  2.100290E+01  5.798242E+03  1.116998E+05  1.068952E-10  1.292119E-11
       113  16  2.242180E+05 -8.382656E+04 -5.529315E+04  1.109040E+05  2.407154E-10  4.148152E-11
       113  17  3.347058E+05 -5.892557E+04 -3.735378E+04  9.879461E+04 -2.350870E-10 -2.317260E-11
       113  18  4.455714E+05 -3.312050E+04 -1.854080E+04  1.118188E+05 -2.107720E-11  1.018756E-11
       113  19  9.499161E+05  8.721671E+04  7.470479E+04  1.124959E+05  2.885117E+03  2.345311E+04
       113  20  8.386224E+05  5.934492E+04  5.041582E+04  9.947228E+04  8.398472E+03  1.742939E+04
       113  21  7.284930E+05  3.316159E+04  3.013716E+04  1.115809E+05  1.391196E+04  1.006209E+04
       113  22  5.870030E+05  1.699027E+03  9.708920E+03  1.116996E+05 -6.115230E+03  2.345341E+04
       113  23  5.866330E+05  2.115457E+02  6.532372E+03  9.913327E+04 -2.862409E+03  1.742849E+04
       113  24  5.870223E+05  2.111164E+01  5.798432E+03  1.116998E+05  3.915168E+02  1.005970E+04
       113  25  2.242184E+05 -8.382591E+04 -5.529169E+04  1.109037E+05 -1.511047E+04  2.345372E+04
       113  26  3.347061E+05 -5.892519E+04 -3.735284E+04  9.879441E+04 -1.411886E+04  1.742759E+04
       113  27  4.455716E+05 -3.312034E+04 -1.854029E+04  1.118187E+05 -1.312595E+04  1.005731E+04
       114   1  6.562715E+05  1.613229E+04  1.760993E+04  1.120359E+05 -1.490268E+04 -5.297711E+03
       114   2  5.452355E+05 -9.456003E+03  4.399371E+02  9.874018E+04 -1.756386E+04  2.278083E+03
       114   3  4.349555E+05 -3.345753E+04 -1.460238E+04  1.105998E+05 -2.022451E+04  8.983776E+03
       114   4  5.870785E+05  4.416431E+00  6.114741E+03  1.117048E+05 -1.433817E+03 -5.295018E+03
       114   5  5.865767E+05  3.738167E+02  8.272949E+03  9.912701E+04 -5.558983E+03  2.280289E+03
       114   6  5.870740E+05  2.584673E+03  1.357452E+04  1.117043E+05 -9.684090E+03  8.985538E+03
       114   7  5.178906E+05 -1.612361E+04 -5.379908E+03  1.113737E+05  1.203360E+04 -5.292339E+03
       114   8  6.279199E+05  1.020361E+04  1.610643E+04  9.951386E+04  6.446674E+03  2.282511E+03
       114   9  7.392151E+05  3.862562E+04  4.175087E+04  1.128091E+05  8.588441E+02  8.987338E+03
       114  10  6.562712E+05  1.613220E+04  1.760946E+04  1.120358E+05 -9.518971E-11 -9.347231E-12
       114  11  5.452351E+05 -9.456091E+03  4.393481E+02  9.874021E+04 -2.317146E-10  1.284182E-10
       114  12  4.349550E+05 -3.345773E+04 -1.460330E+04  1.106000E+05 -1.551110E-10 -1.986425E-11
       114  13  5.870785E+05  4.385767E+00  6.114685E+03  1.117048E+05 -5.830382E-10 -6.737121E-11
       114  14  5.865767E+05  3.738029E+02  8.272881E+03  9.912702E+04  1.526545E-10  2.299356E-11
       114  15  5.870738E+05  2.584561E+03  1.357419E+04  1.117044E+05 -3.612685E-10  3.727542E-11
       114  16  5.178905E+05 -1.612367E+04 -5.380233E+03  1.113737E+05  2.918110E-10  1.325776E-11
       114  17  6.279199E+05  1.020360E+04  1.610634E+04  9.951385E+04  6.859830E-10 -1.417708E-10
       114  18  7.392150E+05  3.862553E+04  4.175072E+04  1.128091E+05  1.370886E-10  1.389108E-10
       114  19  6.562715E+05  1.613229E+04  1.760993E+04  1.120359E+05  1.490268E+04  5.297711E+03
       114  20  5.452355E+05 -9.456003E+03  4.399371E+02  9.874018E+04  1.756386E+04 -2.278083E+03
       114  21  4.349555E+05 -3.345753E+04 -1.460238E+04  1.105998E+05  2.022451E+04 -8.983776E+03
       114  22  5.870785E+05  4.416431E+00  6.114741E+03  1.117048E+05  1.433817E+03  5.295018E+03
       114  23  5.865767E+05  3.738167E+02  8.272949E+03  9.912701E+04  5.558983E+03 -2.280289E+03
       114  24  5.870740E+05  2.584673E+03  1.357452E+04  1.117043E+05  9.684090E+03 -8.985538E+03
       114  25  5.178906E+05 -1.612361E+04 -5.379908E+03  1.113737E+05 -1.203360E+04  5.292339E+03
       114  26  6.279199E+05  1.020361E+04  1.610643E+04  9.951386E+04 -6.446674E+03 -2.282511E+03
       114  27  7.392151E+05  3.862562E+04  4.175087E+04  1.128091E+05 -8.588441E+02 -8.987338E+03
       115   1  3.643681E+05 -5.154984E+04 -2.418452E+04  1.148404E+05 -2.380117E+04  1.328915E+04
       115   2  2.499375E+05 -6.764984E+04 -3.627880E+04  8.308906E+04 -2.101857E+04  1.471684E+04
       115   3  1.428095E+05 -5.322558E+04 -4.254861E+04  7.579627E+04 -1.823786E+04  4.947069E+03
       115   4  5.891922E+05  1.717287E+03  1.745085E+04  1.115484E+05 -1.199931E+04  1.329086E+04
       115   5  5.838978E+05  1.258449E+04  3.107388E+04  9.931962E+04 -2.803995E+04  1.471498E+04
       115   6  5.891522E+05  5.723143E+04  6.358089E+04  1.115455E+05 -4.408235E+04  4.944579E+03
       115   7  8.140655E+05  5.498164E+04  5.908463E+04  1.082553E+05 -1.932769E+02  1.329243E+04
       115   8  9.179651E+05  9.281295E+04  9.842116E+04  1.155591E+05 -3.506504E+04  1.471275E+04
       115   9  1.035682E+06  1.676792E+05  1.696997E+05  1.473205E+05 -6.994532E+04  4.939117E+03
       115  10  3.643675E+05 -5.155018E+04 -2.418591E+04  1.148406E+05  1.265414E-10 -1.177210E-10
       115  11  2.499370E+05 -6.765019E+04 -3.628004E+04  8.308931E+04  1.948306E-10 -5.215462E-11
       115  12  1.428091E+05 -5.322570E+04 -4.254928E+04  7.579635E+04 -1.956249E-10  7.980976E-13
       115  13  5.891920E+05  1.717058E+03  1.745025E+04  1.115486E+05  1.684188E-11  6.179746E-11
       115  14  5.838969E+05  1.258405E+04  3.107200E+04  9.931995E+04 -1.606364E-10 -6.963687E-13
       115  15  5.891501E+05  5.723088E+04  6.357719E+04  1.115457E+05  8.458489E-11  1.387992E-11
       115  16  8.140654E+05  5.498145E+04  5.908430E+04  1.082553E+05  1.077883E-11  2.113393E-10
       115  17  9.179637E+05  9.281238E+04  9.841845E+04  1.155595E+05  3.401357E-10  7.244139E-11
       115  18  1.035677E+06  1.676779E+05  1.696904E+05  1.473208E+05  2.882084E-11 -2.853443E-12
       115  19  3.643681E+05 -5.154984E+04 -2.418452E+04  1.148404E+05  2.380117E+04 -1.328915E+04
       115  20  2.499375E+05 -6.764984E+04 -3.627880E+04  8.308906E+04  2.101857E+04 -1.471684E+04
       115  21  1.428095E+05 -5.322558E+04 -4.254861E+04  7.579627E+04  1.823786E+04 -4.947069E+03
       115  22  5.891922E+05  1.717287E+03  1.745085E+04  1.115484E+05  1.199931E+04 -1.329086E+04
       115  23  5.838978E+05  1.258449E+04  3.107388E+04  9.931962E+04  2.803995E+04 -1.471498E+04
       115  24  5.891522E+05  5.723143E+04  6.358089E+04  1.115455E+05  4.408235E+04 -4.944579E+03
       115  25  8.140655E+05  5.498164E+04  5.908463E+04  1.082553E+05  1.932769E+02 -1.329243E+04
       115  26  9.179651E+05  9.281295E+04  9.842116E+04  1.155591E+05  3.506504E+04 -1.471275E+04
       115  27  1.035682E+06  1.676792E+05  1.696997E+05  1.473205E+05  6.994532E+04 -4.939117E+03
       116   1 -2.374213E+05 -6.984837E+05 -2.433638E+05  2.225753E+05 -6.007909E+03 -1.050910E+05
       116   2 -1.182008E+05 -5.266271E+05 -1.355311E+05  1.715451E+05 -1.714346E+04 -5.352537E+04
       116   3 -6.069935E+04 -3.769225E+05 -7.672910E+04  1.561469E+05 -1.401834E+04 -1.949731E+03
       116   4 -9.738305E+04 -1.330542E+05 -1.084373E+05  1.619190E+05 -5.977330E+03 -7.439436E+04
       116   5 -2.130002E+04 -1.240285E+05 -5.355471E+04  1.440689E+05 -1.713541E+04 -4.675032E+04
       116   6 -2.757821E+03 -1.330062E+05 -3.105957E+04  1.618593E+05 -1.403153E+04 -1.911095E+04
       116   7  4.264653E+04  4.326788E+05  2.647235E+04  1.012071E+05 -5.952773E+03 -4.366988E+04
       116   8  7.559353E+04  2.787261E+05  2.841376E+04  1.165745E+05 -1.712796E+04 -3.997095E+04
       116   9  5.518054E+04  1.109683E+05  1.460852E+04  1.675739E+05 -1.404503E+04 -3.627875E+04
       116  10 -2.374244E+05 -6.984956E+05 -2.433847E+05  2.225748E+05 -2.985682E-10  4.653953E-11
       116  11 -1.182019E+05 -5.266303E+05 -1.355370E+05  1.715443E+05 -2.495831E-10  1.726627E-10
       116  12 -6.069956E+04 -3.769226E+05 -7.672948E+04  1.561468E+05  6.325154E-11  2.554845E-10
       116  13 -9.738458E+04 -1.330601E+05 -1.084477E+05  1.619187E+05 -4.618787E-10  2.898842E-11
       116  14 -2.130092E+04 -1.240309E+05 -5.355937E+04  1.440683E+05 -1.849683E-10  2.490960E-12
       116  15 -2.758130E+03 -1.330067E+05 -3.106062E+04  1.618591E+05  2.239335E-10 -1.463402E-11
       116  16  4.264598E+04  4.326768E+05  2.646871E+04  1.012069E+05  2.299570E-10  2.437176E-11
       116  17  7.559279E+04  2.787243E+05  2.841021E+04  1.165740E+05  3.112878E-11 -1.967770E-10
       116  18  5.517998E+04  1.109668E+05  1.460568E+04  1.675735E+05 -1.296000E-10 -3.785995E-10
       116  19 -2.374213E+05 -6.984837E+05 -2.433638E+05  2.225753E+05  6.007909E+03  1.050910E+05
       116  20 -1.182008E+05 -5.266271E+05 -1.355311E+05  1.715451E+05  1.714346E+04  5.352537E+04
       116  21 -6.069935E+04 -3.769225E+05 -7.672910E+04  1.561469E+05  1.401834E+04  1.949731E+03
       116  22 -9.738305E+04 -1.330542E+05 -1.084373E+05  1.619190E+05  5.977330E+03  7.439436E+04
       116  23 -2.130002E+04 -1.240285E+05 -5.355471E+04  1.440689E+05  1.713541E+04  4.675032E+04
       116  24 -2.757821E+03 -1.330062E+05 -3.105957E+04  1.618593E+05  1.403153E+04  1.911095E+04
       116  25  4.264653E+04  4.326788E+05  2.647235E+04  1.012071E+05  5.952773E+03  4.366988E+04
       116  26  7.559353E+04  2.787261E+05  2.841376E+04  1.165745E+05  1.712796E+04  3.997095E+04
       116  27  5.518054E+04  1.109683E+05  1.460852E+04  1.675739E+05  1.404503E+04  3.627875E+04
       117   1 -3.708627E+04 -2.678902E+05 -5.111466E+04  1.640782E+05 -7.719666E+03  7.650815E+02
       117   2  4.443490E+03 -1.060902E+05 -1.358763E+04  1.440876E+05  1.573361E+03  9.310066E+03
       117   3  4.161159E+04  5.348675E+04  1.726974E+04  1.605696E+05  1.077361E+04  1.785738E+04
       117   4 -4.174468E+03 -1.295039E+05 -2.495394E+04  1.620511E+05 -7.732304E+03 -1.491078E+04
       117   5 -7.845861E+02 -1.283678E+05 -1.744522E+04  1.438136E+05  1.561001E+03 -6.210606E+03
       117   6 -1.781765E+03 -1.295060E+05 -1.671270E+04  1.620493E+05  1.076153E+04  2.489810E+03
       117   7  2.873637E+04  8.901423E+03  1.206861E+03  1.600236E+05 -7.744837E+03 -3.059005E+04
       117   8 -6.012559E+03 -1.506443E+05 -2.130192E+04  1.435397E+05  1.548654E+03 -2.173074E+04
       117   9 -4.517690E+04 -3.124658E+05 -5.069566E+04  1.635286E+05  1.074936E+04 -1.287335E+04
       117  10 -3.708634E+04 -2.678902E+05 -5.111478E+04  1.640782E+05 -1.079648E-10 -1.157928E-10
       117  11  4.443464E+03 -1.060903E+05 -1.358779E+04  1.440876E+05 -3.739585E-10  3.938079E-11
       117  12  4.161138E+04  5.348638E+04  1.726892E+04  1.605694E+05 -1.019017E-10  5.770731E-12
       117  13 -4.174592E+03 -1.295041E+05 -2.495447E+04  1.620510E+05 -2.332243E-11  6.417120E-11
       117  14 -7.845991E+02 -1.283678E+05 -1.744529E+04  1.438136E+05 -3.979196E-10 -5.473355E-12
       117  15 -1.781891E+03 -1.295060E+05 -1.671293E+04  1.620493E+05 -3.916472E-10 -9.997901E-11
       117  16  2.873605E+04  8.900402E+03  1.204990E+03  1.600234E+05  4.092443E-10  1.648662E-10
       117  17 -6.012689E+03 -1.506448E+05 -2.130281E+04  1.435397E+05  2.105901E-10 -4.533996E-12
       117  18 -4.517707E+04 -3.124660E+05 -5.069619E+04  1.635287E+05  2.189988E-10 -1.923214E-10
       117  19 -3.708627E+04 -2.678902E+05 -5.111466E+04  1.640782E+05  7.719666E+03 -7.650815E+02
       117  20  4.443490E+03 -1.060902E+05 -1.358763E+04  1.440876E+05 -1.573361E+03 -9.310066E+03
       117  21  4.161159E+04  5.348675E+04  1.726974E+04  1.605696E+05 -1.077361E+04 -1.785738E+04
       117  22 -4.174468E+03 -1.295039E+05 -2.495394E+04  1.620511E+05  7.732304E+03  1.491078E+04
       117  23 -7.845861E+02 -1.283678E+05 -1.744522E+04  1.438136E+05 -1.561001E+03  6.210606E+03
       117  24 -1.781765E+03 -1.295060E+05 -1.671270E+04  1.620493E+05 -1.076153E+04 -2.489810E+03
       117  25  2.873637E+04  8.901423E+03  1.206861E+03  1.600236E+05  7.744837E+03  3.059005E+04
       117  26 -6.012559E+03 -1.506443E+05 -2.130192E+04  1.435397E+05 -1.548654E+03  2.173074E+04
       117  27 -4.517690E+04 -3.124658E+05 -5.069566E+04  1.635286E+05 -1.074936E+04  1.287335E+04
       118   1  6.721372E+04  1.577242E+05  3.540526E+04  1.643356E+05  1.702323E+04  2.219137E+04
       118   2  9.776746E+04  3.205521E+05  6.396776E+04  1.312535E+05  1.946718E+04  1.014552E+04
       118   3  1.060870E+05  4.794034E+05  9.480672E+04  1.337261E+05  6.611552E+03 -1.898011E+03
       118   4 -1.222731E+03 -1.308917E+05 -1.814890E+04  1.618436E+05  1.701055E+04  5.208822E+03
       118   5 -9.749742E+03 -1.266821E+05 -2.653976E+04  1.440772E+05  1.947448E+04  1.887101E+04
       118   6 -4.498244E+04 -1.309410E+05 -5.050903E+04  1.618705E+05  6.633204E+03  3.253800E+04
       118   7 -6.966378E+04 -4.194264E+05 -7.170549E+04  1.593528E+05  1.699800E+04 -1.176603E+04
       118   8 -1.172787E+05 -5.737254E+05 -1.170573E+05  1.568914E+05  1.948215E+04  2.759032E+04
       118   9 -1.960751E+05 -7.409395E+05 -1.958460E+05  1.899870E+05  6.657993E+03  6.694033E+04
       118  10  6.721327E+04  1.577236E+05  3.540379E+04  1.643353E+05  3.193977E-10 -8.506235E-12
       118  11  9.776703E+04  3.205519E+05  6.396686E+04  1.312533E+05  6.735488E-10 -1.502094E-10
       118  12  1.060869E+05  4.794034E+05  9.480663E+04  1.337261E+05  8.304390E-11 -2.567942E-10
       118  13 -1.223049E+03 -1.308918E+05 -1.814950E+04  1.618436E+05  5.677857E-10  5.536108E-11
       118  14 -9.750245E+03 -1.266826E+05 -2.654114E+04  1.440769E+05  2.865918E-10  4.490233E-11
       118  15 -4.498277E+04 -1.309422E+05 -5.051110E+04  1.618703E+05 -1.980317E-10 -1.785168E-11
       118  16 -6.966413E+04 -4.194266E+05 -7.170630E+04  1.593530E+05 -8.463833E-11 -1.125032E-11
       118  17 -1.172793E+05 -5.737263E+05 -1.170594E+05  1.568910E+05 -1.213216E-10  1.066436E-10
       118  18 -1.960764E+05 -7.409443E+05 -1.958545E+05  1.899866E+05 -1.881292E-10  2.065406E-10
       118  19  6.721372E+04  1.577242E+05  3.540526E+04  1.643356E+05 -1.702323E+04 -2.219137E+04
       118  20  9.776746E+04  3.205521E+05  6.396776E+04  1.312535E+05 -1.946718E+04 -1.014552E+04
       118  21  1.060870E+05  4.794034E+05  9.480672E+04  1.337261E+05 -6.611552E+03  1.898011E+03
       118  22 -1.222731E+03 -1.308917E+05 -1.814890E+04  1.618436E+05 -1.701055E+04 -5.208822E+03
       118  23 -9.749742E+03 -1.266821E+05 -2.653976E+04  1.440772E+05 -1.947448E+04 -1.887101E+04
       118  24 -4.498244E+04 -1.309410E+05 -5.050903E+04  1.618705E+05 -6.633204E+03 -3.253800E+04
       118  25 -6.966378E+04 -4.194264E+05 -7.170549E+04  1.593528E+05 -1.699800E+04  1.176603E+04
       118  26 -1.172787E+05 -5.737254E+05 -1.170573E+05  1.568914E+05 -1.948215E+04 -2.759032E+04
       118  27 -1.960751E+05 -7.409395E+05 -1.958460E+05  1.899870E+05 -6.657993E+03 -6.694033E+04
       119   1  5.413149E+05  4.191177E+05  1.027705E+05  3.833846E+05  5.338420E+04  3.869274E+04
       119   2  5.397916E+05  3.514410E+05  5.541240E+04  4.017611E+05  3.533067E+04  2.191622E+04
       119   3  5.645013E+05  3.187875E+05  3.561007E+04  4.049312E+05  1.630898E+04  6.431814E+03
       119   4  5.374605E+05  3.364597E+05  8.659199E+04  3.446177E+05  4.880762E+04  3.525637E+04
       119   5  5.109830E+05  2.949674E+05  4.220434E+04  3.703816E+05  3.292378E+04  2.011045E+04
       119   6  5.102684E+05  2.880275E+05  2.349082E+04  3.809388E+05  1.607269E+04  6.254813E+03
       119   7  5.336100E+05  2.538157E+05  7.041454E+04  3.058528E+05  4.423101E+04  3.182110E+04
       119   8  4.821759E+05  2.384987E+05  2.899619E+04  3.390045E+05  3.051699E+04  1.830503E+04
       119   9  4.560379E+05  2.572681E+05  1.137108E+04  3.569482E+05  1.583642E+04  6.077824E+03
       119  10  5.413114E+05  4.191153E+05  1.027623E+05  3.833829E+05  4.578994E-10  2.089474E-10
       119  11  5.397902E+05  3.514401E+05  5.540916E+04  4.017605E+05 -4.391454E-11 -1.959456E-10
       119  12  5.645010E+05  3.187873E+05  3.560950E+04  4.049311E+05 -8.367785E-10 -3.181689E-10
       119  13  5.374576E+05  3.364577E+05  8.658519E+04  3.446163E+05 -5.551621E-10 -1.929557E-12
       119  14  5.109818E+05  2.949667E+05  4.220154E+04  3.703811E+05 -2.497562E-10 -2.075791E-10
       119  15  5.102681E+05  2.880274E+05  2.349026E+04  3.809388E+05  2.272909E-10  9.378367E-11
       119  16  5.336076E+05  2.538141E+05  7.040896E+04  3.058517E+05 -3.178523E-10 -2.753511E-10
       119  17  4.821748E+05  2.384981E+05  2.899381E+04  3.390040E+05 -4.748608E-10 -1.253667E-10
       119  18  4.560377E+05  2.572680E+05  1.137054E+04  3.569481E+05  3.243965E-10  4.231608E-10
       119  19  5.413149E+05  4.191177E+05  1.027705E+05  3.833846E+05 -5.338420E+04 -3.869274E+04
       119  20  5.397916E+05  3.514410E+05  5.541240E+04  4.017611E+05 -3.533067E+04 -2.191622E+04
       119  21  5.645013E+05  3.187875E+05  3.561007E+04  4.049312E+05 -1.630898E+04 -6.431814E+03
       119  22  5.374605E+05  3.364597E+05  8.659199E+04  3.446177E+05 -4.880762E+04 -3.525637E+04
       119  23  5.109830E+05  2.949674E+05  4.220434E+04  3.703816E+05 -3.292378E+04 -2.011045E+04
       119  24  5.102684E+05  2.880275E+05  2.349082E+04  3.809388E+05 -1.607269E+04 -6.254813E+03
       119  25  5.336100E+05  2.538157E+05  7.041454E+04  3.058528E+05 -4.423101E+04 -3.182110E+04
       119  26  4.821759E+05  2.384987E+05  2.899619E+04  3.390045E+05 -3.051699E+04 -1.830503E+04
       119  27  4.560379E+05  2.572681E+05  1.137108E+04  3.569482E+05 -1.583642E+04 -6.077824E+03
       120   1  5.571175E+05  3.241196E+05  3.008658E+04  4.045786E+05  1.402466E+04  4.630525E+03
       120   2  5.563386E+05  3.208400E+05  2.225642E+04  4.053675E+05  9.736091E+03  1.150424E+03
       120   3  5.572588E+05  3.196694E+05  1.863376E+04  4.056240E+05  5.361276E+03 -2.214354E+03
       120   4  5.088134E+05  2.877574E+05  1.810766E+04  3.789896E+05  1.364077E+04  4.342699E+03
       120   5  5.073361E+05  2.855677E+05  1.057909E+04  3.801235E+05  9.546387E+03  1.008168E+03
       120   6  5.075158E+05  2.854453E+05  7.090000E+03  3.807252E+05  5.365720E+03 -2.211082E+03
       120   7  4.605128E+05  2.513975E+05  6.128899E+03  3.534035E+05  1.325692E+04  4.054911E+03
       120   8  4.583368E+05  2.502974E+05 -1.098230E+03  3.548822E+05  9.356705E+03  8.659290E+02
       120   9  4.577758E+05  2.512226E+05 -4.453899E+03  3.558287E+05  5.370164E+03 -2.207810E+03
       120  10  5.571173E+05  3.241195E+05  3.008617E+04  4.045786E+05  2.015765E-10  4.651405E-10
       120  11  5.563385E+05  3.208400E+05  2.225624E+04  4.053674E+05  2.326253E-10  3.944401E-11
       120  12  5.572588E+05  3.196694E+05  1.863370E+04  4.056240E+05  1.123565E-10 -1.704715E-10
       120  13  5.088132E+05  2.877573E+05  1.810728E+04  3.789896E+05 -2.288575E-10  5.046459E-11
       120  14  5.073360E+05  2.855677E+05  1.057892E+04  3.801235E+05  1.743901E-11 -9.175747E-11
       120  15  5.075158E+05  2.854452E+05  7.089936E+03  3.807252E+05  1.021908E-10 -1.128655E-10
       120  16  4.605126E+05  2.513975E+05  6.128539E+03  3.534035E+05 -5.887091E-10 -2.192479E-10
       120  17  4.583367E+05  2.502974E+05 -1.098396E+03  3.548822E+05 -2.726031E-10 -2.428291E-10
       120  18  4.577758E+05  2.512226E+05 -4.453962E+03  3.558287E+05  2.731312E-10  5.979723E-11
       120  19  5.571175E+05  3.241196E+05  3.008658E+04  4.045786E+05 -1.402466E+04 -4.630525E+03
       120  20  5.563386E+05  3.208400E+05  2.225642E+04  4.053675E+05 -9.736091E+03 -1.150424E+03
       120  21  5.572588E+05  3.196694E+05  1.863376E+04  4.056240E+05 -5.361276E+03  2.214354E+03
       120  22  5.088134E+05  2.877574E+05  1.810766E+04  3.789896E+05 -1.364077E+04 -4.342699E+03
       120  23  5.073361E+05  2.855677E+05  1.057909E+04  3.801235E+05 -9.546387E+03 -1.008168E+03
       120  24  5.075158E+05  2.854453E+05  7.090000E+03  3.807252E+05 -5.365720E+03  2.211082E+03
       120  25  4.605128E+05  2.513975E+05  6.128899E+03  3.534035E+05 -1.325692E+04 -4.054911E+03
       120  26  4.583368E+05  2.502974E+05 -1.098230E+03  3.548822E+05 -9.356705E+03 -8.659290E+02
       120  27  4.577758E+05  2.512226E+05 -4.453899E+03  3.558287E+05 -5.370164E+03  2.207810E+03
       121   1  5.566373E+05  3.199723E+05  1.777075E+04  4.055617E+05  4.430987E+03 -2.906881E+03
       121   2  5.561762E+05  3.197803E+05  1.745534E+04  4.054608E+05  2.018264E+03 -4.709871E+03
       121   3  5.560847E+05  3.200144E+05  1.917974E+04  4.054464E+05 -4.090624E+02 -6.493470E+03
       121   4  5.074228E+05  2.854252E+05  6.264091E+03  3.806034E+05  4.420482E+03 -2.914817E+03
       121   5  5.072490E+05  2.852295E+05  6.000746E+03  3.805496E+05  2.040636E+03 -4.693162E+03
       121   6  5.074379E+05  2.854528E+05  7.748840E+03  3.805820E+05 -3.537734E+02 -6.452085E+03
       121   7  4.582104E+05  2.508790E+05 -5.243015E+03  3.556470E+05  4.409978E+03 -2.922752E+03
       121   8  4.583247E+05  2.506803E+05 -5.453997E+03  3.556405E+05  2.063006E+03 -4.676456E+03
       121   9  4.587948E+05  2.508932E+05 -3.681909E+03  3.557204E+05 -2.984911E+02 -6.410705E+03
       121  10  5.566372E+05  3.199722E+05  1.777069E+04  4.055617E+05 -1.661228E-10 -1.132117E-10
       121  11  5.561762E+05  3.197802E+05  1.745529E+04  4.054608E+05 -1.286439E-10  8.722197E-11
       121  12  5.560847E+05  3.200144E+05  1.917966E+04  4.054464E+05  4.326850E-10  1.936468E-10
       121  13  5.074228E+05  2.854252E+05  6.264038E+03  3.806034E+05 -8.202913E-11  5.367275E-11
       121  14  5.072490E+05  2.852295E+05  6.000696E+03  3.805496E+05  1.236519E-10  4.556368E-11
       121  15  5.074379E+05  2.854527E+05  7.748762E+03  3.805820E+05 -8.074930E-11 -6.777489E-11
       121  16  4.582103E+05  2.508790E+05 -5.243068E+03  3.556470E+05  1.119169E-11  5.108693E-11
       121  17  4.583247E+05  2.506802E+05 -5.454047E+03  3.556406E+05 -1.290640E-10 -1.541962E-10
       121  18  4.587947E+05  2.508932E+05 -3.681986E+03  3.557204E+05 -3.705640E-10 -3.175180E-10
       121  19  5.566373E+05  3.199723E+05  1.777075E+04  4.055617E+05 -4.430987E+03  2.906881E+03
       121  20  5.561762E+05  3.197803E+05  1.745534E+04  4.054608E+05 -2.018264E+03  4.709871E+03
       121  21  5.560847E+05  3.200144E+05  1.917974E+04  4.054464E+05  4.090624E+02  6.493470E+03
       121  22  5.074228E+05  2.854252E+05  6.264091E+03  3.806034E+05 -4.420482E+03  2.914817E+03
       121  23  5.072490E+05  2.852295E+05  6.000746E+03  3.805496E+05 -2.040636E+03  4.693162E+03
       121  24  5.074379E+05  2.854528E+05  7.748840E+03  3.805820E+05  3.537734E+02  6.452085E+03
       121  25  4.582104E+05  2.508790E+05 -5.243015E+03  3.556470E+05 -4.409978E+03  2.922752E+03
       121  26  4.583247E+05  2.506803E+05 -5.453997E+03  3.556405E+05 -2.063006E+03  4.676456E+03
       121  27  4.587948E+05  2.508932E+05 -3.681909E+03  3.557204E+05  2.984911E+02  6.410705E+03
       122   1  5.555706E+05  3.205650E+05  2.086333E+04  4.057797E+05 -1.613029E+03 -7.376140E+03
       122   2  5.565820E+05  3.192270E+05  2.683293E+04  4.043733E+05 -7.992579E+03 -1.203447E+04
       122   3  5.601425E+05  3.210434E+05  3.887535E+04  4.021293E+05 -1.445482E+04 -1.658266E+04
       122   4  5.076006E+05  2.854922E+05  9.448859E+03  3.807964E+05 -1.572094E+03 -7.345506E+03
       122   5  5.073307E+05  2.856889E+05  1.536496E+04  3.798989E+05 -7.765701E+03 -1.186447E+04
       122   6  5.095697E+05  2.890000E+05  2.719305E+04  3.781637E+05 -1.404203E+04 -1.627336E+04
       122   7  4.596332E+05  2.504209E+05 -1.965769E+03  3.558154E+05 -1.531163E+03 -7.314876E+03
       122   8  4.580817E+05  2.521518E+05  3.896683E+03  3.554264E+05 -7.538844E+03 -1.169449E+04
       122   9  4.589989E+05  2.569572E+05  1.551029E+04  3.541997E+05 -1.362928E+04 -1.596409E+04
       122  10  5.555706E+05  3.205650E+05  2.086322E+04  4.057797E+05  2.139623E-10  1.226815E-12
       122  11  5.565819E+05  3.192268E+05  2.683253E+04  4.043732E+05  1.095465E-11 -8.274454E-11
       122  12  5.601422E+05  3.210430E+05  3.887445E+04  4.021291E+05 -2.539539E-10  3.803987E-11
       122  13  5.076005E+05  2.854922E+05  9.448753E+03  3.807964E+05 -5.579487E-11 -9.258488E-11
       122  14  5.073306E+05  2.856887E+05  1.536458E+04  3.798988E+05 -2.586357E-10 -6.268754E-11
       122  15  5.095694E+05  2.889996E+05  2.719219E+04  3.781635E+05 -5.648436E-11  7.112418E-11
       122  16  4.596332E+05  2.504208E+05 -1.965874E+03  3.558154E+05 -4.238511E-10 -1.894227E-10
       122  17  4.580816E+05  2.521517E+05  3.896320E+03  3.554263E+05 -4.514139E-10 -6.972011E-11
       122  18  4.589986E+05  2.569568E+05  1.550946E+04  3.541995E+05  4.141739E-10  1.319415E-10
       122  19  5.555706E+05  3.205650E+05  2.086333E+04  4.057797E+05  1.613029E+03  7.376140E+03
       122  20  5.565820E+05  3.192270E+05  2.683293E+04  4.043733E+05  7.992579E+03  1.203447E+04
       122  21  5.601425E+05  3.210434E+05  3.887535E+04  4.021293E+05  1.445482E+04  1.658266E+04
       122  22  5.076006E+05  2.854922E+05  9.448859E+03  3.807964E+05  1.572094E+03  7.345506E+03
       122  23  5.073307E+05  2.856889E+05  1.536496E+04  3.798989E+05  7.765701E+03  1.186447E+04
       122  24  5.095697E+05  2.890000E+05  2.719305E+04  3.781637E+05  1.404203E+04  1.627336E+04
       122  25  4.596332E+05  2.504209E+05 -1.965769E+03  3.558154E+05  1.531163E+03  7.314876E+03
       122  26  4.580817E+05  2.521518E+05  3.896683E+03  3.554264E+05  7.538844E+03  1.169449E+04
       122  27  4.589989E+05  2.569572E+05  1.551029E+04  3.541997E+05  1.362928E+04  1.596409E+04
       123   1  5.535390E+05  3.302521E+05  4.728935E+04  4.076562E+05 -1.808723E+04 -1.919627E+04
       123   2  5.935145E+05  3.016834E+05  7.697336E+04  3.798954E+05 -4.729307E+04 -3.987133E+04
       123   3  6.730275E+05  3.264812E+05  1.475770E+05  3.289930E+05 -7.742655E+04 -5.930828E+04
       123   4  5.117409E+05  2.894650E+05  3.552093E+04  3.811573E+05 -1.781565E+04 -1.899237E+04
       123   5  5.129432E+05  2.999388E+05  6.423737E+04  3.650258E+05 -4.494160E+04 -3.811272E+04
       123   6  5.532301E+05  3.633268E+05  1.320729E+05  3.257532E+05 -7.299251E+04 -5.599872E+04
       123   7  4.699456E+05  2.486809E+05  2.375267E+04  3.546612E+05 -1.754410E+04 -1.878850E+04
       123   8  4.323819E+05  2.981956E+05  5.150197E+04  3.501566E+05 -4.259059E+04 -3.635407E+04
       123   9  4.334580E+05  4.001836E+05  1.165716E+05  3.225090E+05 -6.855973E+04 -5.268846E+04
       123  10  5.535385E+05  3.302516E+05  4.728805E+04  4.076559E+05 -1.551394E-10  2.275400E-10
       123  11  5.935116E+05  3.016811E+05  7.696617E+04  3.798939E+05 -5.268140E-11  1.340019E-10
       123  12  6.730201E+05  3.264758E+05  1.475592E+05  3.289893E+05  6.041967E-11  7.582721E-11
       123  13  5.117404E+05  2.894645E+05  3.551965E+04  3.811570E+05 -1.783962E-10  7.542571E-11
       123  14  5.129406E+05  2.999367E+05  6.423085E+04  3.650244E+05 -4.829466E-10  6.971613E-11
       123  15  5.532235E+05  3.633221E+05  1.320570E+05  3.257499E+05 -4.134491E-10 -1.148741E-11
       123  16  4.699452E+05  2.486805E+05  2.375143E+04  3.546610E+05  3.188941E-10 -4.572543E-11
       123  17  4.323796E+05  2.981937E+05  5.149609E+04  3.501553E+05 -3.491354E-10 -3.155336E-11
       123  18  4.334522E+05  4.001793E+05  1.165576E+05  3.225061E+05 -4.004928E-10 -2.297576E-12
       123  19  5.535390E+05  3.302521E+05  4.728935E+04  4.076562E+05  1.808723E+04  1.919627E+04
       123  20  5.935145E+05  3.016834E+05  7.697336E+04  3.798954E+05  4.729307E+04  3.987133E+04
       123  21  6.730275E+05  3.264812E+05  1.475770E+05  3.289930E+05  7.742655E+04  5.930828E+04
       123  22  5.117409E+05  2.894650E+05  3.552093E+04  3.811573E+05  1.781565E+04  1.899237E+04
       123  23  5.129432E+05  2.999388E+05  6.423737E+04  3.650258E+05  4.494160E+04  3.811272E+04
       123  24  5.532301E+05  3.633268E+05  1.320729E+05  3.257532E+05  7.299251E+04  5.599872E+04
       123  25  4.699456E+05  2.486809E+05  2.375267E+04  3.546612E+05  1.754410E+04  1.878850E+04
       123  26  4.323819E+05  2.981956E+05  5.150197E+04  3.501566E+05  4.259059E+04  3.635407E+04
       123  27  4.334580E+05  4.001836E+05  1.165716E+05  3.225090E+05  6.855973E+04  5.268846E+04
       124   1  9.548636E+05  1.470004E+05  1.497798E+05  1.004858E+05  6.848770E+04 -4.364856E+03
       124   2  8.849741E+05  8.269716E+04  8.997479E+04  7.342032E+04  3.713339E+04 -1.373589E+04
       124   3  8.285358E+05  5.584376E+04  5.992488E+04  6.012746E+04  5.784698E+03 -1.438033E+04
       124   4  5.993470E+05  5.915967E+04  6.575535E+04  6.350765E+04  4.537663E+04 -4.368268E+03
       124   5  5.939078E+05  1.299726E+04  3.229579E+04  5.662246E+04  2.870656E+04 -1.373750E+04
       124   6  5.993756E+05  1.746802E+03  1.841134E+04  6.350755E+04  1.203817E+04 -1.438032E+04
       124   7  2.439505E+05 -2.868465E+04 -1.827512E+04  2.655079E+04  2.227870E+04 -4.368934E+03
       124   8  3.029233E+05 -5.670669E+04 -2.538699E+04  3.983263E+04  2.028359E+04 -1.373867E+04
       124   9  3.702666E+05 -5.235304E+04 -2.310411E+04  6.688634E+04  1.828939E+04 -1.438024E+04
       124  10  9.548586E+05  1.469991E+05  1.497710E+05  1.004860E+05  1.612767E-09 -3.031398E-10
       124  11  8.849725E+05  8.269659E+04  8.997185E+04  7.342073E+04  4.854120E-10 -3.418539E-10
       124  12  8.285357E+05  5.584353E+04  5.992443E+04  6.012753E+04  4.116692E-10  8.772227E-10
       124  13  5.993448E+05  5.915910E+04  6.575145E+04  6.350781E+04 -3.264147E-10 -3.154824E-10
       124  14  5.939069E+05  1.299684E+04  3.229389E+04  5.662278E+04  4.039129E-10 -5.010439E-10
       124  15  5.993754E+05  1.746541E+03  1.841068E+04  6.350769E+04 -2.996057E-11  7.997734E-10
       124  16  2.439500E+05 -2.868481E+04 -1.827609E+04  2.655087E+04 -1.435600E-09 -4.219453E-10
       124  17  3.029228E+05 -5.670701E+04 -2.538812E+04  3.983286E+04 -7.071616E-10 -6.641735E-10
       124  18  3.702662E+05 -5.235335E+04 -2.310513E+04  6.688656E+04 -5.546462E-10  6.232167E-10
       124  19  9.548636E+05  1.470004E+05  1.497798E+05  1.004858E+05 -6.848770E+04  4.364856E+03
       124  20  8.849741E+05  8.269716E+04  8.997479E+04  7.342032E+04 -3.713339E+04  1.373589E+04
       124  21  8.285358E+05  5.584376E+04  5.992488E+04  6.012746E+04 -5.784698E+03  1.438033E+04
       124  22  5.993470E+05  5.915967E+04  6.575535E+04  6.350765E+04 -4.537663E+04  4.368268E+03
       124  23  5.939078E+05  1.299726E+04  3.229579E+04  5.662246E+04 -2.870656E+04  1.373750E+04
       124  24  5.993756E+05  1.746802E+03  1.841134E+04  6.350755E+04 -1.203817E+04  1.438032E+04
       124  25  2.439505E+05 -2.868465E+04 -1.827512E+04  2.655079E+04 -2.227870E+04  4.368934E+03
       124  26  3.029233E+05 -5.670669E+04 -2.538699E+04  3.983263E+04 -2.028359E+04  1.373867E+04
       124  27  3.702666E+05 -5.235304E+04 -2.310411E+04  6.688634E+04 -1.828939E+04  1.438024E+04
       125   1  7.848017E+05  4.686394E+04  4.822846E+04  6.481481E+04  4.302082E+03 -1.204772E+04
       125   2  7.211024E+05  2.956284E+04  3.120580E+04  5.694181E+04 -1.633601E+03 -8.555750E+03
       125   3  6.587205E+05  1.442428E+04  1.858472E+04  6.338481E+04 -7.569130E+03 -4.341440E+03
       125   4  5.971992E+05  2.635749E+03  1.454305E+04  6.362937E+04  9.565941E+03 -1.204756E+04
       125   5  5.966504E+05  3.446980E+02  9.474098E+03  5.647146E+04  4.845920E+03 -8.555192E+03
       125   6  5.972058E+05  6.143504E+00  7.964358E+03  6.362965E+04  1.254984E+02 -4.340419E+03
       125   7  4.096309E+05 -4.159438E+04 -1.914361E+04  6.244431E+04  1.482826E+04 -1.204742E+04
       125   8  4.722136E+05 -2.887426E+04 -1.225800E+04  5.600120E+04  1.132418E+04 -8.554644E+03
       125   9  5.356949E+05 -1.441216E+04 -2.655913E+03  6.387447E+04  7.819389E+03 -4.339393E+03
       125  10  7.848017E+05  4.686378E+04  4.822815E+04  6.481485E+04  5.514989E-08  2.196709E-09
       125  11  7.211024E+05  2.956276E+04  3.120566E+04  5.694180E+04 -1.175171E-09  3.464330E-09
       125  12  6.587204E+05  1.442424E+04  1.858458E+04  6.338478E+04 -5.792844E-08  2.616125E-09
       125  13  5.971990E+05  2.635569E+03  1.454261E+04  6.362947E+04 -1.326792E-10  2.179325E-09
       125  14  5.966503E+05  3.446131E+02  9.473916E+03  5.647149E+04  2.070930E-10  3.528928E-09
       125  15  5.972058E+05  6.123265E+00  7.964323E+03  6.362965E+04  2.726213E-10  2.622894E-09
       125  16  4.096306E+05 -4.159460E+04 -1.914429E+04  6.244445E+04 -5.521725E-08  2.142199E-09
       125  17  4.722134E+05 -2.887437E+04 -1.225837E+04  5.600127E+04  1.243874E-09  3.502398E-09
       125  18  5.356948E+05 -1.441220E+04 -2.656064E+03  6.387449E+04  5.815627E-08  2.608699E-09
       125  19  7.848017E+05  4.686394E+04  4.822846E+04  6.481481E+04 -4.302082E+03  1.204772E+04
       125  20  7.211024E+05  2.956284E+04  3.120580E+04  5.694181E+04  1.633601E+03  8.555750E+03
       125  21  6.587205E+05  1.442428E+04  1.858472E+04  6.338481E+04  7.569130E+03  4.341440E+03
       125  22  5.971992E+05  2.635749E+03  1.454305E+04  6.362937E+04 -9.565941E+03  1.204756E+04
       125  23  5.966504E+05  3.446980E+02  9.474098E+03  5.647146E+04 -4.845920E+03  8.555192E+03
       125  24  5.972058E+05  6.143504E+00  7.964358E+03  6.362965E+04 -1.254984E+02  4.340419E+03
       125  25  4.096309E+05 -4.159438E+04 -1.914361E+04  6.244431E+04 -1.482826E+04  1.204742E+04
       125  26  4.722136E+05 -2.887426E+04 -1.225800E+04  5.600120E+04 -1.132418E+04  8.554644E+03
       125  27  5.356949E+05 -1.441216E+04 -2.655913E+03  6.387447E+04 -7.819389E+03  4.339393E+03
       126   1  6.175981E+05  4.723865E+03  1.147136E+04  6.400444E+04 -8.959151E+03 -1.628216E+03
       126   2  5.540219E+05 -9.617615E+03  2.856131E+03  5.596738E+04 -1.332573E+04  2.667064E+03
       126   3  4.915530E+05 -2.181869E+04 -2.383109E+03  6.225429E+04 -1.769180E+04  6.424012E+03
       126   4  5.972411E+05 -6.078838E+00  8.164990E+03  6.363138E+04 -1.284524E+03 -1.627123E+03
       126   5  5.966092E+05  4.386308E+02  1.057679E+04  5.646928E+04 -6.556772E+03  2.667909E+03
       126   6  5.972374E+05  3.180840E+03  1.699262E+04  6.363100E+04 -1.182893E+04  6.424623E+03
       126   7  5.768846E+05 -4.736011E+03  4.858832E+03  6.325832E+04  6.389861E+03 -1.626039E+03
       126   8  6.391984E+05  1.049480E+04  1.829754E+04  5.697122E+04  2.126362E+02  2.668766E+03
       126   9  7.029328E+05  2.817976E+04  3.636801E+04  6.500795E+04 -5.965091E+03  6.425260E+03
       126  10  6.175980E+05  4.723840E+03  1.147120E+04  6.400443E+04 -4.011573E-09  1.650095E-09
       126  11  5.540217E+05 -9.617670E+03  2.855784E+03  5.596740E+04 -3.258177E-09  3.697344E-10
       126  12  4.915526E+05 -2.181881E+04 -2.383774E+03  6.225438E+04 -4.568458E-09 -6.602663E-10
       126  13  5.972411E+05 -6.082124E+00  8.164982E+03  6.363137E+04  1.431029E-10  1.653706E-09
       126  14  5.966091E+05  4.386117E+02  1.057669E+04  5.646929E+04 -1.526705E-10  4.106825E-10
       126  15  5.972373E+05  3.180758E+03  1.699227E+04  6.363106E+04 -2.135570E-10 -6.990803E-10
       126  16  5.768845E+05 -4.736025E+03  4.858751E+03  6.325833E+04  4.221482E-09  1.611083E-09
       126  17  6.391984E+05  1.049479E+04  1.829753E+04  5.697122E+04  3.763238E-09  5.590511E-10
       126  18  7.029327E+05  2.817970E+04  3.636787E+04  6.500799E+04  4.602191E-09 -5.360578E-10
       126  19  6.175981E+05  4.723865E+03  1.147136E+04  6.400444E+04  8.959151E+03  1.628216E+03
       126  20  5.540219E+05 -9.617615E+03  2.856131E+03  5.596738E+04  1.332573E+04 -2.667064E+03
       126  21  4.915530E+05 -2.181869E+04 -2.383109E+03  6.225429E+04  1.769180E+04 -6.424012E+03
       126  22  5.972411E+05 -6.078838E+00  8.164990E+03  6.363138E+04  1.284524E+03  1.627123E+03
       126  23  5.966092E+05  4.386308E+02  1.057679E+04  5.646928E+04  6.556772E+03 -2.667909E+03
       126  24  5.972374E+05  3.180840E+03  1.699262E+04  6.363100E+04  1.182893E+04 -6.424623E+03
       126  25  5.768846E+05 -4.736011E+03  4.858832E+03  6.325832E+04 -6.389861E+03  1.626039E+03
       126  26  6.391984E+05  1.049480E+04  1.829754E+04  5.697122E+04 -2.126362E+02 -2.668766E+03
       126  27  7.029328E+05  2.817976E+04  3.636801E+04  6.500795E+04  5.965091E+03 -6.425260E+03
       127   1  4.527385E+05 -3.270468E+04 -5.328859E+03  6.761250E+04 -2.135536E+04  8.853096E+03
       127   2  3.840958E+05 -3.463202E+04 -3.460061E+03  3.648502E+04 -2.978544E+04  9.391438E+03
       127   3  3.265224E+05  3.277362E+03  1.385638E+04  1.925851E+04 -3.821478E+04  3.110871E+03
       127   4  5.998564E+05  2.114907E+03  2.174213E+04  6.353643E+04 -1.472308E+04  8.853808E+03
       127   5  5.933186E+05  1.559241E+04  3.854354E+04  5.658560E+04 -3.462052E+04  9.389887E+03
       127   6  5.998277E+05  7.088603E+04  7.874624E+04  6.353323E+04 -5.451823E+04  3.107452E+03
       127   7  7.469953E+05  3.693335E+04  4.881240E+04  5.945936E+04 -8.089271E+03  8.854433E+03
       127   8  8.025840E+05  6.581567E+04  8.054522E+04  7.669309E+04 -3.945720E+04  9.388023E+03
       127   9  8.732064E+05  1.384968E+05  1.436329E+05  1.078275E+05 -7.082882E+04  3.101710E+03
       127  10  4.527380E+05 -3.270489E+04 -5.329863E+03  6.761266E+04 -5.917063E-08 -1.428026E-09
       127  11  3.840948E+05 -3.463236E+04 -3.461893E+03  3.648524E+04 -3.183711E-09 -1.997889E-09
       127  12  3.265208E+05  3.276960E+03  1.385362E+04  1.925861E+04  5.229036E-08 -6.975324E-10
       127  13  5.998561E+05  2.114764E+03  2.174158E+04  6.353653E+04  9.664855E-11 -1.385158E-09
       127  14  5.933173E+05  1.559199E+04  3.854113E+04  5.658586E+04  1.645360E-10 -2.009518E-09
       127  15  5.998245E+05  7.088522E+04  7.874064E+04  6.353337E+04  1.170246E-10 -7.334370E-10
       127  16  7.469953E+05  3.693325E+04  4.881213E+04  5.945942E+04  5.897451E-08 -1.472684E-09
       127  17  8.025823E+05  6.581516E+04  8.054213E+04  7.669339E+04  2.658832E-09 -2.071376E-09
       127  18  8.732010E+05  1.384955E+05  1.436235E+05  1.078277E+05 -5.184920E-08 -7.219967E-10
       127  19  4.527385E+05 -3.270468E+04 -5.328859E+03  6.761250E+04  2.135536E+04 -8.853096E+03
       127  20  3.840958E+05 -3.463202E+04 -3.460061E+03  3.648502E+04  2.978544E+04 -9.391438E+03
       127  21  3.265224E+05  3.277362E+03  1.385638E+04  1.925851E+04  3.821478E+04 -3.110871E+03
       127  22  5.998564E+05  2.114907E+03  2.174213E+04  6.353643E+04  1.472308E+04 -8.853808E+03
       127  23  5.933186E+05  1.559241E+04  3.854354E+04  5.658560E+04  3.462052E+04 -9.389887E+03
       127  24  5.998277E+05  7.088603E+04  7.874624E+04  6.353323E+04  5.451823E+04 -3.107452E+03
       127  25  7.469953E+05  3.693335E+04  4.881240E+04  5.945936E+04  8.089271E+03 -8.854433E+03
       127  26  8.025840E+05  6.581567E+04  8.054522E+04  7.669309E+04  3.945720E+04 -9.388023E+03
       127  27  8.732064E+05  1.384968E+05  1.436329E+05  1.078275E+05  7.082882E+04 -3.101710E+03
       128   1 -2.339454E+05 -8.171959E+05 -2.442129E+05  1.909399E+05 -4.823436E+03 -1.201215E+05
       128   2 -1.050247E+05 -6.926272E+05 -1.354452E+05  1.355555E+05 -1.414778E+04 -6.553085E+04
       128   3 -5.402775E+04 -5.946538E+05 -8.172990E+04  1.047538E+05 -1.259372E+04 -1.093033E+04
       128   4 -1.264021E+05 -3.828761E+05 -1.407794E+05  1.119609E+05 -4.798924E+03 -9.532341E+04
       128   5 -2.772774E+04 -3.711426E+05 -7.046852E+04  9.964284E+04 -1.414071E+04 -5.897863E+04
       128   6 -3.788108E+03 -3.828306E+05 -4.251013E+04  1.119164E+05 -1.259908E+04 -2.263504E+04
       128   7 -1.884860E+04  5.163163E+04 -3.735347E+04  3.292631E+04 -4.780741E+03 -7.050803E+04
       128   8  4.956765E+04 -4.955651E+04 -5.496328E+03  6.371117E+04 -1.413439E+04 -5.242306E+04
       128   9  4.644923E+04 -1.709635E+05 -3.291692E+03  1.190816E+05 -1.260471E+04 -3.434365E+04
       128  10 -2.339493E+05 -8.172114E+05 -2.442401E+05  1.909394E+05 -1.997160E-10 -5.487337E-10
       128  11 -1.050260E+05 -6.926319E+05 -1.354536E+05  1.355548E+05 -1.158400E-10 -5.705959E-11
       128  12 -5.402795E+04 -5.946539E+05 -8.173043E+04  1.047536E+05 -1.100828E-10  3.908132E-10
       128  13 -1.264046E+05 -3.828859E+05 -1.407966E+05  1.119605E+05  2.251866E-10  5.211519E-11
       128  14 -2.772889E+04 -3.711464E+05 -7.047543E+04  9.964216E+04 -1.338528E-10 -1.304991E-10
       128  15 -3.788416E+03 -3.828312E+05 -4.251139E+04  1.119162E+05 -1.984501E-10  1.684935E-10
       128  16 -1.884995E+04  5.162628E+04 -3.736285E+04  3.292604E+04 -3.626171E-12  4.712073E-10
       128  17  4.956670E+04 -4.955951E+04 -5.501868E+03  6.371057E+04 -1.515809E-10  4.217948E-11
       128  18  4.644874E+04 -1.709649E+05 -3.294207E+03  1.190812E+05 -4.048715E-10 -4.133787E-10
       128  19 -2.339454E+05 -8.171959E+05 -2.442129E+05  1.909399E+05  4.823436E+03  1.201215E+05
       128  20 -1.050247E+05 -6.926272E+05 -1.354452E+05  1.355555E+05  1.414778E+04  6.553085E+04
       128  21 -5.402775E+04 -5.946538E+05 -8.172990E+04  1.047538E+05  1.259372E+04  1.093033E+04
       128  22 -1.264021E+05 -3.828761E+05 -1.407794E+05  1.119609E+05  4.798924E+03  9.532341E+04
       128  23 -2.772774E+04 -3.711426E+05 -7.046852E+04  9.964284E+04  1.414071E+04  5.897863E+04
       128  24 -3.788108E+03 -3.828306E+05 -4.251013E+04  1.119164E+05  1.259908E+04  2.263504E+04
       128  25 -1.884860E+04  5.163163E+04 -3.735347E+04  3.292631E+04  4.780741E+03  7.050803E+04
       128  26  4.956765E+04 -4.955651E+04 -5.496328E+03  6.371117E+04  1.413439E+04  5.242306E+04
       128  27  4.644923E+04 -1.709635E+05 -3.291692E+03  1.190816E+05  1.260471E+04  3.434365E+04
       129   1 -3.847186E+04 -5.171732E+05 -6.106905E+04  1.151017E+05 -8.279382E+03 -6.171895E+03
       129   2 -7.958722E+03 -4.041428E+05 -3.294173E+04  9.954704E+04 -1.932193E+03  8.075944E+03
       129   3  1.538427E+04 -2.947668E+05 -1.589324E+04  1.092385E+05  4.529028E+03  2.232605E+04
       129   4 -5.582283E+03 -3.784304E+05 -3.541712E+04  1.120666E+05 -8.284443E+03 -1.672313E+04
       129   5 -1.496800E+03 -3.766127E+05 -2.817382E+04  9.944304E+04 -1.937477E+03 -2.665961E+03
       129   6 -4.547323E+03 -3.784279E+05 -3.187558E+04  1.120661E+05  4.523630E+03  1.139106E+04
       129   7  2.730629E+04 -2.396686E+05 -9.765567E+03  1.090308E+05 -8.289400E+03 -2.727666E+04
       129   8  4.965144E+03 -3.490816E+05 -2.340550E+04  9.933904E+04 -1.942757E+03 -1.340833E+04
       129   9 -2.447923E+04 -4.620821E+05 -4.785779E+04  1.148933E+05  4.518132E+03  4.575131E+02
       129  10 -3.847195E+04 -5.171733E+05 -6.106925E+04  1.151017E+05 -2.108083E-10 -6.918930E-10
       129  11 -7.958743E+03 -4.041429E+05 -3.294186E+04  9.954705E+04 -1.932281E-10  2.166853E-11
       129  12  1.538411E+04 -2.947673E+05 -1.589422E+04  1.092384E+05 -8.726295E-11  6.495323E-10
       129  13 -5.582432E+03 -3.784307E+05 -3.541777E+04  1.120665E+05 -2.015527E-10  1.169659E-10
       129  14 -1.496805E+03 -3.766127E+05 -2.817384E+04  9.944304E+04  8.147246E-12 -2.390193E-10
       129  15 -4.547380E+03 -3.784281E+05 -3.187587E+04  1.120660E+05 -3.467023E-10  2.647039E-10
       129  16  2.730602E+04 -2.396694E+05 -9.767095E+03  1.090306E+05  2.180031E-10  6.263967E-10
       129  17  4.965091E+03 -3.490818E+05 -2.340585E+04  9.933902E+04 -5.361348E-10  6.678888E-11
       129  18 -2.447926E+04 -4.620821E+05 -4.785783E+04  1.148933E+05 -1.804089E-10 -5.990507E-10
       129  19 -3.847186E+04 -5.171732E+05 -6.106905E+04  1.151017E+05  8.279382E+03  6.171895E+03
       129  20 -7.958722E+03 -4.041428E+05 -3.294173E+04  9.954704E+04  1.932193E+03 -8.075944E+03
       129  21  1.538427E+04 -2.947668E+05 -1.589324E+04  1.092385E+05 -4.529028E+03 -2.232605E+04
       129  22 -5.582283E+03 -3.784304E+05 -3.541712E+04  1.120666E+05  8.284443E+03  1.672313E+04
       129  23 -1.496800E+03 -3.766127E+05 -2.817382E+04  9.944304E+04  1.937477E+03  2.665961E+03
       129  24 -4.547323E+03 -3.784279E+05 -3.187558E+04  1.120661E+05 -4.523630E+03 -1.139106E+04
       129  25  2.730629E+04 -2.396686E+05 -9.765567E+03  1.090308E+05  8.289400E+03  2.727666E+04
       129  26  4.965144E+03 -3.490816E+05 -2.340550E+04  9.933904E+04  1.942757E+03  1.340833E+04
       129  27 -2.447923E+04 -4.620821E+05 -4.785779E+04  1.148933E+05 -4.518132E+03 -4.575131E+02
       130   1  3.413331E+04 -2.252106E+05 -7.493023E+03  1.176932E+05  8.904184E+03  2.859654E+04
       130   2  4.144076E+04 -1.056664E+05 -4.441347E+03  6.996957E+04  1.121427E+04  4.283731E+04
       130   3 -9.924338E+03 -2.633589E+03 -2.533033E+04  4.692553E+04  3.935210E+03  5.708286E+04
       130   4 -3.118818E+03 -3.819182E+05 -3.696258E+04  1.119372E+05  8.898210E+03  1.666670E+04
       130   5 -2.275001E+04 -3.722711E+05 -5.885944E+04  9.961394E+04  1.121852E+04  4.700219E+04
       130   6 -1.038680E+05 -3.819557E+05 -1.158864E+05  1.119756E+05  3.949416E+03  7.733915E+04
       130   7 -4.037217E+04 -5.386018E+05 -6.643266E+04  1.061826E+05  8.892455E+03  4.739789E+03
       130   8 -8.694191E+04 -6.388062E+05 -1.132807E+05  1.292453E+05  1.122316E+04  5.116531E+04
       130   9 -1.978060E+05 -7.611359E+05 -2.064487E+05  1.769858E+05  3.967874E+03  9.758311E+04
       130  10  3.413300E+04 -2.252115E+05 -7.494709E+03  1.176930E+05  2.661252E-10 -7.978998E-10
       130  11  4.144014E+04 -1.056684E+05 -4.445032E+03  6.996918E+04  2.988722E-11 -6.720004E-11
       130  12 -9.925229E+03 -2.637092E+03 -2.533648E+04  4.692535E+04 -2.417011E-10  4.690327E-10
       130  13 -3.118977E+03 -3.819186E+05 -3.696325E+04  1.119370E+05  1.249359E-10  1.830861E-10
       130  14 -2.275074E+04 -3.722735E+05 -5.886383E+04  9.961351E+04 -1.611295E-10 -2.451376E-10
       130  15 -1.038697E+05 -3.819622E+05 -1.158977E+05  1.119754E+05 -2.186769E-10  7.652375E-11
       130  16 -4.037226E+04 -5.386018E+05 -6.643285E+04  1.061826E+05 -2.082881E-10  7.489573E-10
       130  17 -8.694275E+04 -6.388091E+05 -1.132859E+05  1.292449E+05 -1.187873E-10  8.840670E-11
       130  18 -1.978086E+05 -7.611461E+05 -2.064667E+05  1.769855E+05 -2.785391E-10 -3.765580E-10
       130  19  3.413331E+04 -2.252106E+05 -7.493023E+03  1.176932E+05 -8.904184E+03 -2.859654E+04
       130  20  4.144076E+04 -1.056664E+05 -4.441347E+03  6.996957E+04 -1.121427E+04 -4.283731E+04
       130  21 -9.924338E+03 -2.633589E+03 -2.533033E+04  4.692553E+04 -3.935210E+03 -5.708286E+04
       130  22 -3.118818E+03 -3.819182E+05 -3.696258E+04  1.119372E+05 -8.898210E+03 -1.666670E+04
       130  23 -2.275001E+04 -3.722711E+05 -5.885944E+04  9.961394E+04 -1.121852E+04 -4.700219E+04
       130  24 -1.038680E+05 -3.819557E+05 -1.158864E+05  1.119756E+05 -3.949416E+03 -7.733915E+04
       130  25 -4.037217E+04 -5.386018E+05 -6.643266E+04  1.061826E+05 -8.892455E+03 -4.739789E+03
       130  26 -8.694191E+04 -6.388062E+05 -1.132807E+05  1.292453E+05 -1.122316E+04 -5.116531E+04
       130  27 -1.978060E+05 -7.611359E+05 -2.064487E+05  1.769858E+05 -3.967874E+03 -9.758311E+04
       131   1  3.269552E+05  2.315184E+05  4.638068E+04  2.370465E+05  3.319899E+04  2.643164E+04
       131   2  3.384200E+05  1.893260E+05  1.795042E+04  2.591076E+05  2.082700E+04  2.042950E+04
       131   3  3.739986E+05  1.705802E+05  7.465452E+03  2.676716E+05  9.950438E+03  1.243155E+04
       131   4  4.388023E+05  2.460445E+05  7.034994E+04  2.625704E+05  3.840752E+04  3.033307E+04
       131   5  4.153326E+05  2.142876E+05  3.426941E+04  2.840734E+05  2.267672E+04  2.181511E+04
       131   6  4.167000E+05  2.067019E+05  1.904389E+04  2.920801E+05  8.442439E+03  1.130115E+04
       131   7  5.506676E+05  2.605725E+05  9.431993E+04  2.880966E+05  4.361749E+04  3.423454E+04
       131   8  4.922525E+05  2.392500E+05  5.058825E+04  3.090417E+05  2.452676E+04  2.320078E+04
       131   9  4.594027E+05  2.428246E+05  3.062191E+04  3.164902E+05  6.934330E+03  1.017063E+04
       131  10  3.269538E+05  2.315174E+05  4.637730E+04  2.370458E+05 -2.715813E-10 -1.024608E-10
       131  11  3.384194E+05  1.893254E+05  1.794883E+04  2.591072E+05 -5.480751E-10  1.951484E-10
       131  12  3.739985E+05  1.705800E+05  7.464976E+03  2.676715E+05  1.888121E-10  1.592746E-10
       131  13  4.388004E+05  2.460431E+05  7.034544E+04  2.625694E+05 -1.195864E-10  8.623590E-11
       131  14  4.153320E+05  2.142869E+05  3.426755E+04  2.840730E+05 -1.860721E-10  1.971094E-10
       131  15  4.166999E+05  2.067017E+05  1.904352E+04  2.920800E+05 -5.336762E-11  6.507677E-11
       131  16  5.506653E+05  2.605707E+05  9.431415E+04  2.880954E+05  4.548273E-10  2.380251E-10
       131  17  4.922517E+05  2.392492E+05  5.058611E+04  3.090412E+05  4.337252E-10  8.162190E-11
       131  18  4.594026E+05  2.428244E+05  3.062162E+04  3.164901E+05 -3.115997E-10 -1.116919E-11
       131  19  3.269552E+05  2.315184E+05  4.638068E+04  2.370465E+05 -3.319899E+04 -2.643164E+04
       131  20  3.384200E+05  1.893260E+05  1.795042E+04  2.591076E+05 -2.082700E+04 -2.042950E+04
       131  21  3.739986E+05  1.705802E+05  7.465452E+03  2.676716E+05 -9.950438E+03 -1.243155E+04
       131  22  4.388023E+05  2.460445E+05  7.034994E+04  2.625704E+05 -3.840752E+04 -3.033307E+04
       131  23  4.153326E+05  2.142876E+05  3.426941E+04  2.840734E+05 -2.267672E+04 -2.181511E+04
       131  24  4.167000E+05  2.067019E+05  1.904389E+04  2.920801E+05 -8.442439E+03 -1.130115E+04
       131  25  5.506676E+05  2.605725E+05  9.431993E+04  2.880966E+05 -4.361749E+04 -3.423454E+04
       131  26  4.922525E+05  2.392500E+05  5.058825E+04  3.090417E+05 -2.452676E+04 -2.320078E+04
       131  27  4.594027E+05  2.428246E+05  3.062191E+04  3.164902E+05 -6.934330E+03 -1.017063E+04
       132   1  3.771653E+05  1.812958E+05  5.397260E+03  2.719548E+05  8.139610E+03  1.019952E+04
       132   2  3.882826E+05  1.904454E+05  2.766640E+03  2.801328E+05  5.682519E+03  7.030073E+03
       132   3  4.048038E+05  1.970818E+05  3.129566E+03  2.866707E+05  3.357075E+03  3.684821E+03
       132   4  4.155684E+05  2.064323E+05  1.465543E+04  2.904806E+05  6.858996E+03  9.239464E+03
       132   5  4.123082E+05  2.067194E+05  8.494571E+03  2.920045E+05  4.106163E+03  5.848364E+03
       132   6  4.145156E+05  2.045571E+05  5.583479E+03  2.918881E+05  1.485043E+03  2.281495E+03
       132   7  4.539732E+05  2.315697E+05  2.391351E+04  3.090076E+05  5.578273E+03  8.279334E+03
       132   8  4.363347E+05  2.229939E+05  1.422256E+04  3.038768E+05  2.529710E+03  4.666586E+03
       132   9  4.242277E+05  2.120325E+05  8.037470E+03  2.971057E+05 -3.870614E+02  8.781108E+02
       132  10  3.771652E+05  1.812956E+05  5.396941E+03  2.719547E+05  1.882337E-11 -2.668788E-11
       132  11  3.882826E+05  1.904454E+05  2.766486E+03  2.801328E+05  4.238901E-11 -5.117738E-12
       132  12  4.048038E+05  1.970818E+05  3.129520E+03  2.866707E+05 -1.574903E-10 -9.054828E-11
       132  13  4.155683E+05  2.064322E+05  1.465518E+04  2.904805E+05  2.908019E-11  5.123329E-11
       132  14  4.123082E+05  2.067194E+05  8.494475E+03  2.920045E+05  8.395810E-11  7.498955E-11
       132  15  4.145156E+05  2.045571E+05  5.583465E+03  2.918881E+05 -1.658882E-11  1.723059E-11
       132  16  4.539732E+05  2.315696E+05  2.391332E+04  3.090076E+05  4.300378E-11  9.094351E-12
       132  17  4.363347E+05  2.229939E+05  1.422250E+04  3.038768E+05  5.039331E-10  7.406825E-13
       132  18  4.242277E+05  2.120325E+05  8.037468E+03  2.971057E+05  8.810125E-11  9.073375E-11
       132  19  3.771653E+05  1.812958E+05  5.397260E+03  2.719548E+05 -8.139610E+03 -1.019952E+04
       132  20  3.882826E+05  1.904454E+05  2.766640E+03  2.801328E+05 -5.682519E+03 -7.030073E+03
       132  21  4.048038E+05  1.970818E+05  3.129566E+03  2.866707E+05 -3.357075E+03 -3.684821E+03
       132  22  4.155684E+05  2.064323E+05  1.465543E+04  2.904806E+05 -6.858996E+03 -9.239464E+03
       132  23  4.123082E+05  2.067194E+05  8.494571E+03  2.920045E+05 -4.106163E+03 -5.848364E+03
       132  24  4.145156E+05  2.045571E+05  5.583479E+03  2.918881E+05 -1.485043E+03 -2.281495E+03
       132  25  4.539732E+05  2.315697E+05  2.391351E+04  3.090076E+05 -5.578273E+03 -8.279334E+03
       132  26  4.363347E+05  2.229939E+05  1.422256E+04  3.038768E+05 -2.529710E+03 -4.666586E+03
       132  27  4.242277E+05  2.120325E+05  8.037470E+03  2.971057E+05  3.870614E+02 -8.781108E+02
       133   1  4.132726E+05  2.036323E+05  4.566767E+03  2.911534E+05  3.092155E+03  2.466908E+03
       133   2  4.245600E+05  2.151911E+05  7.358114E+03  2.986400E+05  2.138640E+03  3.344486E+01
       133   3  4.402560E+05  2.229263E+05  1.165444E+04  3.049824E+05  1.181395E+03 -2.395065E+03
       133   4  4.144403E+05  2.045367E+05  4.855787E+03  2.917845E+05  1.237973E+03  1.076964E+03
       133   5  4.122405E+05  2.064558E+05  4.468411E+03  2.923516E+05  2.928108E+02 -1.350244E+03
       133   6  4.144474E+05  2.045497E+05  5.578907E+03  2.917744E+05 -6.560441E+02 -3.772477E+03
       133   7  4.156080E+05  2.054410E+05  5.144819E+03  2.924156E+05 -6.161796E+02 -3.129583E+02
       133   8  3.999212E+05  1.977207E+05  1.578759E+03  2.860633E+05 -1.552952E+03 -2.733883E+03
       133   9  3.886396E+05  1.861736E+05 -4.966458E+02  2.785670E+05 -2.493380E+03 -5.149811E+03
       133  10  4.132726E+05  2.036323E+05  4.566737E+03  2.911534E+05  1.484687E-10  6.468385E-11
       133  11  4.245600E+05  2.151911E+05  7.358106E+03  2.986400E+05  3.112383E-10 -2.740440E-10
       133  12  4.402560E+05  2.229263E+05  1.165443E+04  3.049824E+05 -4.727405E-11 -2.860037E-10
       133  13  4.144403E+05  2.045367E+05  4.855782E+03  2.917845E+05  1.332034E-10 -3.431187E-11
       133  14  4.122405E+05  2.064558E+05  4.468407E+03  2.923516E+05 -4.989522E-10 -2.200416E-10
       133  15  4.144474E+05  2.045497E+05  5.578879E+03  2.917744E+05 -4.103265E-10  5.538023E-12
       133  16  4.156080E+05  2.054410E+05  5.144818E+03  2.924156E+05 -1.779499E-10 -1.680333E-10
       133  17  3.999212E+05  1.977207E+05  1.578740E+03  2.860633E+05 -2.548264E-10  3.991114E-11
       133  18  3.886396E+05  1.861735E+05 -4.967072E+02  2.785670E+05 -1.333394E-10  1.128149E-10
       133  19  4.132726E+05  2.036323E+05  4.566767E+03  2.911534E+05 -3.092155E+03 -2.466908E+03
       133  20  4.245600E+05  2.151911E+05  7.358114E+03  2.986400E+05 -2.138640E+03 -3.344486E+01
       133  21  4.402560E+05  2.229263E+05  1.165444E+04  3.049824E+05 -1.181395E+03  2.395065E+03
       133  22  4.144403E+05  2.045367E+05  4.855787E+03  2.917845E+05 -1.237973E+03 -1.076964E+03
       133  23  4.122405E+05  2.064558E+05  4.468411E+03  2.923516E+05 -2.928108E+02  1.350244E+03
       133  24  4.144474E+05  2.045497E+05  5.578907E+03  2.917744E+05  6.560441E+02  3.772477E+03
       133  25  4.156080E+05  2.054410E+05  5.144819E+03  2.924156E+05  6.161796E+02  3.129583E+02
       133  26  3.999212E+05  1.977207E+05  1.578759E+03  2.860633E+05  1.552952E+03  2.733883E+03
       133  27  3.886396E+05  1.861736E+05 -4.966458E+02  2.785670E+05  2.493380E+03  5.149811E+03
       134   1  4.488282E+05  2.296121E+05  1.497676E+04  3.097426E+05  8.282201E+02 -3.675196E+03
       134   2  4.611471E+05  2.403659E+05  2.239090E+04  3.162931E+05 -3.141136E+03 -8.199730E+03
       134   3  4.794352E+05  2.492639E+05  3.430604E+04  3.210545E+05 -7.285074E+03 -1.249182E+04
       134   4  4.145570E+05  2.045791E+05  6.732349E+03  2.919231E+05 -1.034441E+03 -5.071545E+03
       134   5  4.123042E+05  2.067778E+05  1.082535E+04  2.918954E+05 -4.612317E+03 -9.302684E+03
       134   6  4.159358E+05  2.070357E+05  1.908021E+04  2.900784E+05 -8.364559E+03 -1.330121E+04
       134   7  3.802865E+05  1.795464E+05 -1.512332E+03  2.741044E+05 -2.896998E+03 -6.467811E+03
       134   8  3.634641E+05  1.731911E+05 -7.403340E+02  2.674999E+05 -6.083344E+03 -1.040553E+04
       134   9  3.524421E+05  1.648104E+05  3.854489E+03  2.591064E+05 -9.443878E+03 -1.411048E+04
       134  10  4.488282E+05  2.296121E+05  1.497673E+04  3.097426E+05 -6.260510E-11 -6.836230E-12
       134  11  4.611470E+05  2.403659E+05  2.239075E+04  3.162931E+05  1.619313E-10  5.034288E-12
       134  12  4.794351E+05  2.492638E+05  3.430565E+04  3.210544E+05  3.348548E-11 -8.538637E-11
       134  13  4.145570E+05  2.045791E+05  6.732299E+03  2.919231E+05 -9.616100E-11 -4.854178E-11
       134  14  4.123042E+05  2.067777E+05  1.082515E+04  2.918954E+05 -8.116088E-11 -2.970471E-11
       134  15  4.159356E+05  2.070355E+05  1.907974E+04  2.900783E+05  6.271610E-10 -5.800945E-11
       134  16  3.802865E+05  1.795464E+05 -1.512426E+03  2.741044E+05 -5.706712E-11 -1.717810E-11
       134  17  3.634641E+05  1.731910E+05 -7.406068E+02  2.674999E+05  4.194994E-10 -1.318276E-10
       134  18  3.524420E+05  1.648101E+05  3.853948E+03  2.591063E+05  3.255832E-10 -1.966060E-11
       134  19  4.488282E+05  2.296121E+05  1.497676E+04  3.097426E+05 -8.282201E+02  3.675196E+03
       134  20  4.611471E+05  2.403659E+05  2.239090E+04  3.162931E+05  3.141136E+03  8.199730E+03
       134  21  4.794352E+05  2.492639E+05  3.430604E+04  3.210545E+05  7.285074E+03  1.249182E+04
       134  22  4.145570E+05  2.045791E+05  6.732349E+03  2.919231E+05  1.034441E+03  5.071545E+03
       134  23  4.123042E+05  2.067778E+05  1.082535E+04  2.918954E+05  4.612317E+03  9.302684E+03
       134  24  4.159358E+05  2.070357E+05  1.908021E+04  2.900784E+05  8.364559E+03  1.330121E+04
       134  25  3.802865E+05  1.795464E+05 -1.512332E+03  2.741044E+05  2.896998E+03  6.467811E+03
       134  26  3.634641E+05  1.731911E+05 -7.403340E+02  2.674999E+05  6.083344E+03  1.040553E+04
       134  27  3.524421E+05  1.648104E+05  3.854489E+03  2.591064E+05  9.443878E+03  1.411048E+04
       135   1  4.837949E+05  2.621031E+05  4.250517E+04  3.294856E+05 -9.199402E+03 -1.475138E+04
       135   2  5.233749E+05  2.537514E+05  6.785991E+04  3.173350E+05 -3.259288E+04 -3.151477E+04
       135   3  5.952851E+05  2.794309E+05  1.244576E+05  2.878114E+05 -5.796234E+04 -4.564504E+04
       135   4  4.174256E+05  2.073911E+05  2.490309E+04  2.921845E+05 -1.057906E+04 -1.578564E+04
       135   5  4.162740E+05  2.167191E+05  4.500049E+04  2.814694E+05 -2.954274E+04 -2.923024E+04
       135   6  4.464929E+05  2.591220E+05  9.250257E+04  2.533810E+05 -5.048025E+04 -4.004299E+04
       135   7  3.510613E+05  1.526828E+05  7.300640E+03  2.548884E+05 -1.195852E+04 -1.681973E+04
       135   8  3.091860E+05  1.796880E+05  2.214048E+04  2.456084E+05 -2.649331E+04 -2.694588E+04
       135   9  2.977268E+05  2.388157E+05  6.054745E+04  2.189535E+05 -4.300058E+04 -3.444080E+04
       135  10  4.837947E+05  2.621028E+05  4.250460E+04  3.294855E+05  1.607494E-10 -3.213301E-11
       135  11  5.233735E+05  2.537500E+05  6.785605E+04  3.173342E+05  6.482382E-11  8.109314E-11
       135  12  5.952809E+05  2.794277E+05  1.244474E+05  2.878092E+05 -1.640436E-10  2.232197E-11
       135  13  4.174254E+05  2.073908E+05  2.490241E+04  2.921844E+05  2.591368E-11 -3.311210E-11
       135  14  4.162729E+05  2.167179E+05  4.499724E+04  2.814687E+05 -1.792215E-10 -3.131137E-11
       135  15  4.464897E+05  2.591196E+05  9.249478E+04  2.533793E+05 -9.943981E-11 -2.348021E-11
       135  16  3.510610E+05  1.526825E+05  7.299840E+03  2.548882E+05  2.230016E-10 -4.641691E-11
       135  17  3.091851E+05  1.796871E+05  2.213780E+04  2.456078E+05 -9.191452E-11 -9.047495E-11
       135  18  2.977245E+05  2.388139E+05  6.054175E+04  2.189523E+05 -2.077035E-10 -3.525274E-11
       135  19  4.837949E+05  2.621031E+05  4.250517E+04  3.294856E+05  9.199402E+03  1.475138E+04
       135  20  5.233749E+05  2.537514E+05  6.785991E+04  3.173350E+05  3.259288E+04  3.151477E+04
       135  21  5.952851E+05  2.794309E+05  1.244576E+05  2.878114E+05  5.796234E+04  4.564504E+04
       135  22  4.174256E+05  2.073911E+05  2.490309E+04  2.921845E+05  1.057906E+04  1.578564E+04
       135  23  4.162740E+05  2.167191E+05  4.500049E+04  2.814694E+05  2.954274E+04  2.923024E+04
       135  24  4.464929E+05  2.591220E+05  9.250257E+04  2.533810E+05  5.048025E+04  4.004299E+04
       135  25  3.510613E+05  1.526828E+05  7.300640E+03  2.548884E+05  1.195852E+04  1.681973E+04
       135  26  3.091860E+05  1.796880E+05  2.214048E+04  2.456084E+05  2.649331E+04  2.694588E+04
       135  27  2.977268E+05  2.388157E+05  6.054745E+04  2.189535E+05  4.300058E+04  3.444080E+04
       136   1  7.015925E+05  1.024991E+05  1.057754E+05  6.987052E+04  5.205997E+04 -2.600046E+03
       136   2  6.577842E+05  5.253871E+04  6.164595E+04  4.864927E+04  2.920991E+04 -8.168254E+03
       136   3  6.246937E+05  3.355095E+04  4.012514E+04  3.581983E+04  6.361612E+03 -8.507632E+03
       136   4  4.888561E+05  4.992086E+04  5.547355E+04  3.867528E+04  3.829775E+04 -2.602633E+03
       136   5  4.842667E+05  1.097409E+04  2.723061E+04  3.448015E+04  2.424216E+04 -8.169213E+03
       136   6  4.888719E+05  1.478541E+03  1.549729E+04  3.867592E+04  1.018679E+04 -8.507546E+03
       136   7  2.761637E+05 -2.656841E+03  5.169780E+03  7.490771E+03  2.454022E+04 -2.603838E+03
       136   8  3.107784E+05 -3.059160E+04 -7.186026E+03  2.031506E+04  1.927576E+04 -8.169945E+03
       136   9  3.530681E+05 -3.059486E+04 -9.131232E+03  4.153138E+04  1.401115E+04 -8.507425E+03
       136  10  7.015896E+05  1.024983E+05  1.057703E+05  6.987063E+04 -3.862401E-10  3.716171E-12
       136  11  6.577833E+05  5.253841E+04  6.164422E+04  4.864946E+04 -2.805377E-10  2.826952E-11
       136  12  6.246937E+05  3.355086E+04  4.012493E+04  3.581987E+04  1.641321E-10  1.130531E-11
       136  13  4.888545E+05  4.992046E+04  5.547078E+04  3.867536E+04  2.503678E-10  3.363966E-11
       136  14  4.842660E+05  1.097386E+04  2.722938E+04  3.448030E+04 -1.259900E-12  6.372575E-11
       136  15  4.888718E+05  1.478436E+03  1.549696E+04  3.867599E+04  9.989087E-11  4.387757E-11
       136  16  2.761630E+05 -2.657010E+03  5.168636E+03  7.490823E+03  1.659677E-10  5.498882E-11
       136  17  3.107780E+05 -3.059177E+04 -7.186849E+03  2.031518E+04 -2.279871E-10  1.133421E-10
       136  18  3.530679E+05 -3.059499E+04 -9.131737E+03  4.153147E+04 -8.347254E-11 -7.274536E-12
       136  19  7.015925E+05  1.024991E+05  1.057754E+05  6.987052E+04 -5.205997E+04  2.600046E+03
       136  20  6.577842E+05  5.253871E+04  6.164595E+04  4.864927E+04 -2.920991E+04  8.168254E+03
       136  21  6.246937E+05  3.355095E+04  4.012514E+04  3.581983E+04 -6.361612E+03  8.507632E+03
       136  22  4.888561E+05  4.992086E+04  5.547355E+04  3.867528E+04 -3.829775E+04  2.602633E+03
       136  23  4.842667E+05  1.097409E+04  2.723061E+04  3.448015E+04 -2.424216E+04  8.169213E+03
       136  24  4.888719E+05  1.478541E+03  1.549729E+04  3.867592E+04 -1.018679E+04  8.507546E+03
       136  25  2.761637E+05 -2.656841E+03  5.169780E+03  7.490771E+03 -2.454022E+04  2.603838E+03
       136  26  3.107784E+05 -3.059160E+04 -7.186026E+03  2.031506E+04 -1.927576E+04  8.169945E+03
       136  27  3.530681E+05 -3.059486E+04 -9.131232E+03  4.153138E+04 -1.401115E+04  8.507425E+03
       137   1  5.975590E+05  2.829188E+04  3.208816E+04  3.974188E+04  4.876846E+03 -7.082637E+03
       137   2  5.586486E+05  1.721891E+04  2.050752E+04  3.477800E+04  2.110742E+02 -4.943933E+03
       137   3  5.207888E+05  7.914010E+03  1.240440E+04  3.853226E+04 -4.454539E+03 -2.373573E+03
       137   4  4.870341E+05  2.227056E+03  1.222133E+04  3.874882E+04  8.109277E+03 -7.082527E+03
       137   5  4.865738E+05  2.923838E+02  7.907132E+03  3.438982E+04  4.169704E+03 -4.943668E+03
       137   6  4.870370E+05  5.492296E-02  6.566911E+03  3.874899E+04  2.300152E+02 -2.373134E+03
       137   7  3.765212E+05 -2.383844E+04 -7.645933E+03  3.775593E+04  1.134115E+04 -7.082428E+03
       137   8  4.145041E+05 -1.663441E+04 -4.693385E+03  3.400168E+04  8.127889E+03 -4.943408E+03
       137   9  4.532862E+05 -7.913950E+03  7.294632E+02  3.896571E+04  4.914323E+03 -2.372691E+03
       137  10  5.975589E+05  2.829182E+04  3.208802E+04  3.974191E+04 -1.076216E-10 -3.885816E-11
       137  11  5.586486E+05  1.721888E+04  2.050748E+04  3.477800E+04 -1.822921E-10 -8.663899E-11
       137  12  5.207888E+05  7.913999E+03  1.240435E+04  3.853225E+04 -1.348909E-13 -1.313444E-11
       137  13  4.870340E+05  2.226985E+03  1.222111E+04  3.874886E+04 -9.182867E-11 -6.364648E-11
       137  14  4.865737E+05  2.923529E+02  7.907053E+03  3.438984E+04  8.761872E-11 -2.372014E-11
       137  15  4.870370E+05  4.885985E-02  6.566901E+03  3.874899E+04  4.448049E-10 -2.888865E-11
       137  16  3.765210E+05 -2.383852E+04 -7.646269E+03  3.775600E+04  1.563847E-10 -3.412527E-11
       137  17  4.145040E+05 -1.663446E+04 -4.693555E+03  3.400172E+04 -3.039591E-11 -1.102472E-10
       137  18  4.532862E+05 -7.913962E+03  7.294073E+02  3.896572E+04 -5.273520E-11 -1.539739E-10
       137  19  5.975590E+05  2.829188E+04  3.208816E+04  3.974188E+04 -4.876846E+03  7.082637E+03
       137  20  5.586486E+05  1.721891E+04  2.050752E+04  3.477800E+04 -2.110742E+02  4.943933E+03
       137  21  5.207888E+05  7.914010E+03  1.240440E+04  3.853226E+04  4.454539E+03  2.373573E+03
       137  22  4.870341E+05  2.227056E+03  1.222133E+04  3.874882E+04 -8.109277E+03  7.082527E+03
       137  23  4.865738E+05  2.923838E+02  7.907132E+03  3.438982E+04 -4.169704E+03  4.943668E+03
       137  24  4.870370E+05  5.492296E-02  6.566911E+03  3.874899E+04 -2.300152E+02  2.373134E+03
       137  25  3.765212E+05 -2.383844E+04 -7.645933E+03  3.775593E+04 -1.134115E+04  7.082428E+03
       137  26  4.145041E+05 -1.663441E+04 -4.693385E+03  3.400168E+04 -8.127889E+03  4.943408E+03
       137  27  4.532862E+05 -7.913950E+03  7.294632E+02  3.896571E+04 -4.914323E+03  2.372691E+03
       138   1  4.957470E+05  2.005877E+03  8.070699E+03  3.904265E+04 -5.602696E+03 -7.211279E+02
       138   2  4.569082E+05 -6.644655E+03  3.234685E+03  3.398079E+04 -9.309311E+03  1.891141E+03
       138   3  4.189916E+05 -1.354294E+04  1.248667E+03  3.764176E+04 -1.301561E+04  4.167244E+03
       138   4  4.870582E+05 -7.559493E+00  6.687782E+03  3.875001E+04 -9.284128E+02 -7.206645E+02
       138   5  4.865481E+05  3.475827E+02  8.571240E+03  3.438853E+04 -5.200444E+03  1.891496E+03
       138   6  4.870562E+05  2.552882E+03  1.369673E+04  3.874980E+04 -9.472374E+03  4.167493E+03
       138   7  4.783694E+05 -2.020988E+03  5.304945E+03  3.845738E+04  3.745808E+03 -7.202054E+02
       138   8  5.161890E+05  7.339781E+03  1.390782E+04  3.479629E+04 -1.091387E+03  1.891857E+03
       138   9  5.551253E+05  1.864846E+04  2.614465E+04  3.985796E+04 -5.928755E+03  4.167755E+03
       138  10  4.957470E+05  2.005868E+03  8.070639E+03  3.904264E+04 -1.737207E-10  7.330975E-11
       138  11  4.569081E+05 -6.644682E+03  3.234516E+03  3.398081E+04  5.555116E-10  1.688528E-10
       138  12  4.189914E+05 -1.354301E+04  1.248316E+03  3.764181E+04  1.492123E-10 -1.000471E-11
       138  13  4.870582E+05 -7.560282E+00  6.687779E+03  3.875001E+04 -1.683445E-11 -4.250692E-11
       138  14  4.865481E+05  3.475716E+02  8.571182E+03  3.438854E+04 -4.444749E-10 -3.646796E-11
       138  15  4.870561E+05  2.552839E+03  1.369653E+04  3.874983E+04  9.471561E-11 -3.913026E-11
       138  16  4.783694E+05 -2.020992E+03  5.304918E+03  3.845738E+04  1.742264E-10 -1.687794E-10
       138  17  5.161890E+05  7.339777E+03  1.390781E+04  3.479630E+04 -7.175359E-11 -3.465941E-11
       138  18  5.551253E+05  1.864843E+04  2.614455E+04  3.985798E+04 -3.546276E-10 -5.640077E-11
       138  19  4.957470E+05  2.005877E+03  8.070699E+03  3.904265E+04  5.602696E+03  7.211279E+02
       138  20  4.569082E+05 -6.644655E+03  3.234685E+03  3.398079E+04  9.309311E+03 -1.891141E+03
       138  21  4.189916E+05 -1.354294E+04  1.248667E+03  3.764176E+04  1.301561E+04 -4.167244E+03
       138  22  4.870582E+05 -7.559493E+00  6.687782E+03  3.875001E+04  9.284128E+02  7.206645E+02
       138  23  4.865481E+05  3.475827E+02  8.571240E+03  3.438853E+04  5.200444E+03 -1.891496E+03
       138  24  4.870562E+05  2.552882E+03  1.369673E+04  3.874980E+04  9.472374E+03 -4.167493E+03
       138  25  4.783694E+05 -2.020988E+03  5.304945E+03  3.845738E+04 -3.745808E+03  7.202054E+02
       138  26  5.161890E+05  7.339781E+03  1.390782E+04  3.479629E+04  1.091387E+03 -1.891857E+03
       138  27  5.551253E+05  1.864846E+04  2.614465E+04  3.985796E+04  5.928755E+03 -4.167755E+03
       139   1  3.958584E+05 -2.038147E+04  3.629045E+02  4.196694E+04 -1.582617E+04  5.642246E+03
       139   2  3.528023E+05 -1.893429E+04  4.704617E+03  1.830555E+04 -2.469764E+04  5.916450E+03
       139   3  3.189992E+05  1.489190E+04  2.291526E+04  3.100255E+03 -3.356871E+04  1.951579E+03
       139   4  4.891603E+05  1.697293E+03  1.750365E+04  3.869045E+04 -1.180434E+04  5.642576E+03
       139   5  4.839095E+05  1.253399E+04  3.099409E+04  3.446167E+04 -2.780403E+04  5.915547E+03
       139   6  4.891438E+05  5.698132E+04  6.329875E+04  3.868833E+04 -4.380413E+04  1.949297E+03
       139   7  5.824707E+05  2.377561E+04  3.464410E+04  3.541345E+04 -7.781925E+03  5.642863E+03
       139   8  6.150337E+05  4.400219E+04  5.728286E+04  5.062127E+04 -3.091105E+04  5.914482E+03
       139   9  6.593180E+05  9.907346E+04  1.036813E+05  7.428619E+04 -5.404233E+04  1.945843E+03
       139  10  3.958581E+05 -2.038157E+04  3.623743E+02  4.196701E+04  4.612536E-11 -6.369992E-11
       139  11  3.528017E+05 -1.893449E+04  4.703406E+03  1.830566E+04  9.339001E-11 -1.432053E-13
       139  12  3.189980E+05  1.489159E+04  2.291314E+04  3.100308E+03 -5.186109E-13  1.731922E-11
       139  13  4.891601E+05  1.697222E+03  1.750333E+04  3.869050E+04  4.128173E-11  1.935804E-11
       139  14  4.839087E+05  1.253374E+04  3.099257E+04  3.446180E+04  1.902632E-10  8.318202E-11
       139  15  4.891418E+05  5.698080E+04  6.329514E+04  3.868839E+04  5.483410E-11  2.167589E-11
       139  16  5.824706E+05  2.377556E+04  3.464393E+04  3.541349E+04  8.196319E-11  1.791366E-12
       139  17  6.150327E+05  4.400190E+04  5.728100E+04  5.062142E+04 -1.101535E-10  9.996478E-11
       139  18  6.593149E+05  9.907268E+04  1.036758E+05  7.428628E+04 -1.701325E-11  2.842067E-11
       139  19  3.958584E+05 -2.038147E+04  3.629045E+02  4.196694E+04  1.582617E+04 -5.642246E+03
       139  20  3.528023E+05 -1.893429E+04  4.704617E+03  1.830555E+04  2.469764E+04 -5.916450E+03
       139  21  3.189992E+05  1.489190E+04  2.291526E+04  3.100255E+03  3.356871E+04 -1.951579E+03
       139  22  4.891603E+05  1.697293E+03  1.750365E+04  3.869045E+04  1.180434E+04 -5.642576E+03
       139  23  4.839095E+05  1.253399E+04  3.099409E+04  3.446167E+04  2.780403E+04 -5.915547E+03
       139  24  4.891438E+05  5.698132E+04  6.329875E+04  3.868833E+04  4.380413E+04 -1.949297E+03
       139  25  5.824707E+05  2.377561E+04  3.464410E+04  3.541345E+04  7.781925E+03 -5.642863E+03
       139  26  6.150337E+05  4.400219E+04  5.728286E+04  5.062127E+04  3.091105E+04 -5.914482E+03
       139  27  6.593180E+05  9.907346E+04  1.036813E+05  7.428619E+04  5.404233E+04 -1.945843E+03
       140   1 -1.730741E+05 -6.084020E+05 -1.826920E+05  1.331997E+05 -3.000347E+03 -9.589997E+04
       140   2 -7.157510E+04 -5.316462E+05 -1.002210E+05  8.945922E+04 -8.890300E+03 -5.383364E+04
       140   3 -3.530313E+04 -4.766789E+05 -6.146045E+04  6.025079E+04 -8.112881E+03 -1.176223E+04
       140   4 -1.069947E+05 -3.414907E+05 -1.191817E+05  6.626762E+04 -2.986786E+03 -8.040483E+04
       140   5 -2.348683E+04 -3.315568E+05 -5.988252E+04  5.898834E+04 -8.886426E+03 -4.952717E+04
       140   6 -3.254149E+03 -3.414654E+05 -3.650970E+04  6.624634E+04 -8.114732E+03 -1.864961E+04
       140   7 -4.090332E+04 -7.450383E+04 -5.567307E+04 -6.934494E+02 -2.976574E+03 -6.490304E+04
       140   8  2.460247E+04 -1.314273E+05 -1.954555E+04  2.850743E+04 -8.882976E+03 -4.521935E+04
       140   9  2.879395E+04 -2.062339E+05 -1.155950E+04  7.224322E+04 -8.116716E+03 -2.553846E+04
       140  10 -1.730766E+05 -6.084119E+05 -1.827093E+05  1.331995E+05 -3.953965E-11 -2.450901E-10
       140  11 -7.157596E+04 -5.316493E+05 -1.002266E+05  8.945884E+04 -5.129012E-10  2.236488E-10
       140  12 -3.530324E+04 -4.766791E+05 -6.146083E+04  6.025072E+04  1.555264E-10  6.699474E-10
       140  13 -1.069964E+05 -3.414977E+05 -1.191939E+05  6.626742E+04 -2.341232E-11 -1.212004E-11
       140  14 -2.348757E+04 -3.315595E+05 -5.988728E+04  5.898798E+04 -3.623447E-11  7.367147E-12
       140  15 -3.254313E+03 -3.414658E+05 -3.651047E+04  6.624622E+04  8.526135E-11  1.971036E-11
       140  16 -4.090446E+04 -7.450836E+04 -5.568100E+04 -6.936050E+02  6.179063E-11  2.967829E-10
       140  17  2.460184E+04 -1.314295E+05 -1.954954E+04  2.850711E+04 -1.887475E-10 -2.423841E-10
       140  18  2.879370E+04 -2.062346E+05 -1.156085E+04  7.224305E+04  2.957081E-10 -5.664600E-10
       140  19 -1.730741E+05 -6.084020E+05 -1.826920E+05  1.331997E+05  3.000347E+03  9.589997E+04
       140  20 -7.157510E+04 -5.316462E+05 -1.002210E+05  8.945922E+04  8.890300E+03  5.383364E+04
       140  21 -3.530313E+04 -4.766789E+05 -6.146045E+04  6.025079E+04  8.112881E+03  1.176223E+04
       140  22 -1.069947E+05 -3.414907E+05 -1.191817E+05  6.626762E+04  2.986786E+03  8.040483E+04
       140  23 -2.348683E+04 -3.315568E+05 -5.988252E+04  5.898834E+04  8.886426E+03  4.952717E+04
       140  24 -3.254149E+03 -3.414654E+05 -3.650970E+04  6.624634E+04  8.114732E+03  1.864961E+04
       140  25 -4.090332E+04 -7.450383E+04 -5.567307E+04 -6.934494E+02  2.976574E+03  6.490304E+04
       140  26  2.460247E+04 -1.314273E+05 -1.954555E+04  2.850743E+04  8.882976E+03  4.521935E+04
       140  27  2.879395E+04 -2.062339E+05 -1.155950E+04  7.224322E+04  8.116716E+03  2.553846E+04
       141   1 -2.654014E+04 -4.297224E+05 -4.760933E+04  6.901267E+04 -5.570618E+03 -7.358227E+03
       141   2 -7.511563E+03 -3.622732E+05 -2.968868E+04  5.890392E+04 -1.835137E+03  5.380662E+03
       141   3  5.101872E+03 -2.980891E+05 -2.167065E+04  6.373684E+04  2.008596E+03  1.812074E+04
       141   4 -4.763091E+03 -3.377751E+05 -3.070257E+04  6.633840E+04 -5.572285E+03 -1.353467E+04
       141   5 -1.381377E+03 -3.361557E+05 -2.516550E+04  5.886738E+04 -1.836945E+03 -9.769090E+02
       141   6 -4.382876E+03 -3.377739E+05 -2.940450E+04  6.633826E+04  2.006746E+03  1.158077E+04
       141   7  1.701352E+04 -2.458195E+05 -1.379601E+04  6.366372E+04 -5.573899E+03 -1.971200E+04
       141   8  4.748794E+03 -3.100374E+05 -2.064219E+04  5.883083E+04 -1.838751E+03 -7.334739E+03
       141   9 -1.386767E+04 -3.774570E+05 -3.713826E+04  6.893952E+04  2.004841E+03  5.041200E+03
       141  10 -2.654018E+04 -4.297225E+05 -4.760949E+04  6.901264E+04  1.458306E-10 -2.113240E-10
       141  11 -7.511574E+03 -3.622733E+05 -2.968874E+04  5.890393E+04  1.830109E-10  2.912777E-10
       141  12  5.101779E+03 -2.980894E+05 -2.167128E+04  6.373681E+04  4.427732E-10  7.056460E-10
       141  13 -4.763173E+03 -3.377753E+05 -3.070297E+04  6.633834E+04  3.703877E-11  3.198530E-11
       141  14 -1.381381E+03 -3.361557E+05 -2.516551E+04  5.886738E+04 -1.062749E-10  2.739378E-11
       141  15 -4.382917E+03 -3.377740E+05 -2.940476E+04  6.633824E+04  1.401907E-10  6.977596E-11
       141  16  1.701338E+04 -2.458199E+05 -1.379680E+04  6.366363E+04  2.346602E-10  2.992566E-10
       141  17  4.748776E+03 -3.100375E+05 -2.064230E+04  5.883082E+04  2.270005E-11 -3.004239E-10
       141  18 -1.386768E+04 -3.774570E+05 -3.713832E+04  6.893951E+04  1.128784E-10 -6.275818E-10
       141  19 -2.654014E+04 -4.297224E+05 -4.760933E+04  6.901267E+04  5.570618E+03  7.358227E+03
       141  20 -7.511563E+03 -3.622732E+05 -2.968868E+04  5.890392E+04  1.835137E+03 -5.380662E+03
       141  21  5.101872E+03 -2.980891E+05 -2.167065E+04  6.373684E+04 -2.008596E+03 -1.812074E+04
       141  22 -4.763091E+03 -3.377751E+05 -3.070257E+04  6.633840E+04  5.572285E+03  1.353467E+04
       141  23 -1.381377E+03 -3.361557E+05 -2.516550E+04  5.886738E+04  1.836945E+03  9.769090E+02
       141  24 -4.382876E+03 -3.377739E+05 -2.940450E+04  6.633826E+04 -2.006746E+03 -1.158077E+04
       141  25  1.701352E+04 -2.458195E+05 -1.379601E+04  6.366372E+04  5.573899E+03  1.971200E+04
       141  26  4.748794E+03 -3.100374E+05 -2.064219E+04  5.883083E+04  1.838751E+03  7.334739E+03
       141  27 -1.386767E+04 -3.774570E+05 -3.713826E+04  6.893952E+04 -2.004841E+03 -5.041200E+03
       142   1  1.672301E+04 -2.582249E+05 -1.877459E+04  7.174349E+04  4.608545E+03  2.356258E+04
       142   2  1.399345E+04 -1.839914E+05 -2.530310E+04  3.078559E+04  6.115633E+03  4.309970E+04
       142   3 -4.555724E+04 -1.265030E+05 -5.875776E+04  4.451668E+03  2.176747E+03  6.263953E+04
       142   4 -3.007504E+03 -3.411305E+05 -3.447642E+04  6.626582E+04  4.606334E+03  1.646248E+04
       142   5 -2.166046E+04 -3.319691E+05 -5.562741E+04  5.896338E+04  6.118229E+03  4.513774E+04
       142   6 -9.873375E+04 -3.411523E+05 -1.100579E+05  6.628720E+04  2.185674E+03  7.381322E+04
       142   7 -2.273828E+04 -4.240294E+05 -5.017836E+04  6.078889E+04  4.604248E+03  9.363310E+03
       142   8 -5.731276E+04 -4.799243E+05 -8.595245E+04  8.713433E+04  6.121011E+03  4.717530E+04
       142   9 -1.518992E+05 -5.557510E+05 -1.613587E+05  1.281012E+05  2.196830E+03  8.498306E+04
       142  10  1.672284E+04 -2.582255E+05 -1.877567E+04  7.174340E+04  1.477689E-10 -5.258063E-10
       142  11  1.399291E+04 -1.839934E+05 -2.530666E+04  3.078538E+04 -2.349560E-10 -5.215304E-11
       142  12 -4.555830E+04 -1.265072E+05 -5.876514E+04  4.451558E+03  3.786308E-11  3.096740E-10
       142  13 -3.007600E+03 -3.411308E+05 -3.447697E+04  6.626575E+04  1.837039E-10  2.396250E-11
       142  14 -2.166105E+04 -3.319713E+05 -5.563132E+04  5.896316E+04 -1.890179E-10 -2.142520E-12
       142  15 -9.873522E+04 -3.411582E+05 -1.100681E+05  6.628707E+04 -1.265218E-10 -8.242556E-11
       142  16 -2.273833E+04 -4.240295E+05 -5.017857E+04  6.078885E+04 -7.015386E-11  5.952385E-10
       142  17 -5.731340E+04 -4.799267E+05 -8.595670E+04  8.713410E+04 -1.297308E-10  4.269808E-11
       142  18 -1.519011E+05 -5.557587E+05 -1.613723E+05  1.281011E+05 -1.140566E-10 -2.246566E-10
       142  19  1.672301E+04 -2.582249E+05 -1.877459E+04  7.174349E+04 -4.608545E+03 -2.356258E+04
       142  20  1.399345E+04 -1.839914E+05 -2.530310E+04  3.078559E+04 -6.115633E+03 -4.309970E+04
       142  21 -4.555724E+04 -1.265030E+05 -5.875776E+04  4.451668E+03 -2.176747E+03 -6.263953E+04
       142  22 -3.007504E+03 -3.411305E+05 -3.447642E+04  6.626582E+04 -4.606334E+03 -1.646248E+04
       142  23 -2.166046E+04 -3.319691E+05 -5.562741E+04  5.896338E+04 -6.118229E+03 -4.513774E+04
       142  24 -9.873375E+04 -3.411523E+05 -1.100579E+05  6.628720E+04 -2.185674E+03 -7.381322E+04
       142  25 -2.273828E+04 -4.240294E+05 -5.017836E+04  6.078889E+04 -4.604248E+03 -9.363310E+03
       142  26 -5.731276E+04 -4.799243E+05 -8.595245E+04  8.713433E+04 -6.121011E+03 -4.717530E+04
       142  27 -1.518992E+05 -5.557510E+05 -1.613587E+05  1.281012E+05 -2.196830E+03 -8.498306E+04
       143   1  2.357150E+05  1.622003E+05  2.893957E+04  1.730188E+05  2.328290E+04  1.905423E+04
       143   2  2.459327E+05  1.320608E+05  9.026216E+03  1.904755E+05  1.431048E+04  1.579853E+04
       143   3  2.745867E+05  1.189192E+05  1.904756E+03  1.976394E+05  6.827972E+03  1.055571E+04
       143   4  3.383459E+05  1.862695E+05  5.293109E+04  2.013933E+05  2.869385E+04  2.310970E+04
       143   5  3.204480E+05  1.626097E+05  2.577329E+04  2.176408E+05  1.637896E+04  1.734886E+04
       143   6  3.217089E+05  1.566695E+05  1.430519E+04  2.235962E+05  5.554428E+03  9.600860E+03
       143   7  4.409880E+05  2.103394E+05  7.692208E+04  2.297701E+05  3.410596E+04  2.716524E+04
       143   8  3.949692E+05  1.931593E+05  4.251994E+04  2.448087E+05  1.844777E+04  1.889929E+04
       143   9  3.688337E+05  1.944216E+05  2.670545E+04  2.495553E+05  4.280757E+03  8.645892E+03
       143  10  2.357143E+05  1.621997E+05  2.893787E+04  1.730184E+05  1.919788E-10  6.537131E-11
       143  11  2.459324E+05  1.320605E+05  9.025362E+03  1.904753E+05 -1.320771E-10 -1.210799E-10
       143  12  2.745866E+05  1.189191E+05  1.904459E+03  1.976393E+05 -7.087342E-10 -8.823268E-11
       143  13  3.383449E+05  1.862687E+05  5.292854E+04  2.013927E+05  8.053077E-12 -1.635106E-11
       143  14  3.204477E+05  1.626093E+05  2.577222E+04  2.176406E+05  9.364151E-11 -6.639690E-11
       143  15  3.217089E+05  1.566694E+05  1.430496E+04  2.235961E+05 -4.884606E-11  7.201402E-11
       143  16  4.409866E+05  2.103383E+05  7.691851E+04  2.297694E+05 -1.442553E-10 -1.143480E-10
       143  17  3.949688E+05  1.931588E+05  4.251863E+04  2.448084E+05  1.685770E-11 -1.655819E-11
       143  18  3.688337E+05  1.944215E+05  2.670528E+04  2.495553E+05  4.391091E-10  1.548191E-10
       143  19  2.357150E+05  1.622003E+05  2.893957E+04  1.730188E+05 -2.328290E+04 -1.905423E+04
       143  20  2.459327E+05  1.320608E+05  9.026216E+03  1.904755E+05 -1.431048E+04 -1.579853E+04
       143  21  2.745867E+05  1.189192E+05  1.904756E+03  1.976394E+05 -6.827972E+03 -1.055571E+04
       143  22  3.383459E+05  1.862695E+05  5.293109E+04  2.013933E+05 -2.869385E+04 -2.310970E+04
       143  23  3.204480E+05  1.626097E+05  2.577329E+04  2.176408E+05 -1.637896E+04 -1.734886E+04
       143  24  3.217089E+05  1.566695E+05  1.430519E+04  2.235962E+05 -5.554428E+03 -9.600860E+03
       143  25  4.409880E+05  2.103394E+05  7.692208E+04  2.297701E+05 -3.410596E+04 -2.716524E+04
       143  26  3.949692E+05  1.931593E+05  4.251994E+04  2.448087E+05 -1.844777E+04 -1.889929E+04
       143  27  3.688337E+05  1.944216E+05  2.670545E+04  2.495553E+05 -4.280757E+03 -8.645892E+03
       144   1  2.781016E+05  1.277682E+05  6.488528E+02  2.014228E+05  5.457413E+03  8.780443E+03
       144   2  2.879138E+05  1.361068E+05 -8.691142E+02  2.084989E+05  3.757458E+03  6.395457E+03
       144   3  3.022803E+05  1.420313E+05 -2.155614E+02  2.141923E+05  2.188837E+03  3.835084E+03
       144   4  3.208662E+05  1.564583E+05  1.099491E+04  2.223895E+05  4.410399E+03  7.995373E+03
       144   5  3.181617E+05  1.569290E+05  6.334481E+03  2.236099E+05  2.415498E+03  5.389284E+03
       144   6  3.200750E+05  1.550492E+05  4.101079E+03  2.234474E+05  5.520186E+02  2.607888E+03
       144   7  3.636336E+05  1.851499E+05  2.134110E+04  2.433582E+05  3.363270E+03  7.210222E+03
       144   8  3.484107E+05  1.777517E+05  1.353803E+04  2.387218E+05  1.073449E+03  4.383047E+03
       144   9  3.378697E+05  1.680671E+05  8.417603E+03  2.327027E+05 -1.084834E+03  1.380664E+03
       144  10  2.781016E+05  1.277681E+05  6.486521E+02  2.014227E+05 -6.973790E-10  8.149907E-11
       144  11  2.879138E+05  1.361068E+05 -8.692175E+02  2.084989E+05 -1.191873E-10  2.742197E-10
       144  12  3.022803E+05  1.420313E+05 -2.155980E+02  2.141923E+05  3.146572E-10  3.307179E-10
       144  13  3.208661E+05  1.564582E+05  1.099475E+04  2.223895E+05 -1.384656E-10  1.628185E-10
       144  14  3.181617E+05  1.569290E+05  6.334415E+03  2.236099E+05 -1.864606E-10  2.088623E-10
       144  15  3.200750E+05  1.550492E+05  4.101066E+03  2.234474E+05  4.685264E-11 -6.259591E-11
       144  16  3.636336E+05  1.851498E+05  2.134098E+04  2.433582E+05  2.198440E-10  2.110769E-10
       144  17  3.484107E+05  1.777516E+05  1.353799E+04  2.387218E+05  2.178790E-10  7.588303E-11
       144  18  3.378697E+05  1.680671E+05  8.417597E+03  2.327027E+05 -2.723634E-10 -3.554261E-10
       144  19  2.781016E+05  1.277682E+05  6.488528E+02  2.014228E+05 -5.457413E+03 -8.780443E+03
       144  20  2.879138E+05  1.361068E+05 -8.691142E+02  2.084989E+05 -3.757458E+03 -6.395457E+03
       144  21  3.022803E+05  1.420313E+05 -2.155614E+02  2.141923E+05 -2.188837E+03 -3.835084E+03
       144  22  3.208662E+05  1.564583E+05  1.099491E+04  2.223895E+05 -4.410399E+03 -7.995373E+03
       144  23  3.181617E+05  1.569290E+05  6.334481E+03  2.236099E+05 -2.415498E+03 -5.389284E+03
       144  24  3.200750E+05  1.550492E+05  4.101079E+03  2.234474E+05 -5.520186E+02 -2.607888E+03
       144  25  3.636336E+05  1.851499E+05  2.134110E+04  2.433582E+05 -3.363270E+03 -7.210222E+03
       144  26  3.484107E+05  1.777517E+05  1.353803E+04  2.387218E+05 -1.073449E+03 -4.383047E+03
       144  27  3.378697E+05  1.680671E+05  8.417603E+03  2.327027E+05  1.084834E+03 -1.380664E+03
       145   1  3.097523E+05  1.477304E+05  1.103496E+03  2.181179E+05  2.061401E+03  2.847590E+03
       145   2  3.196840E+05  1.578665E+05  3.502652E+03  2.246807E+05  1.541500E+03  9.542994E+02
       145   3  3.334247E+05  1.646022E+05  6.952750E+03  2.302319E+05  1.021106E+03 -9.383865E+02
       145   4  3.200170E+05  1.550328E+05  3.521479E+03  2.233671E+05  4.430063E+02  1.634220E+03
       145   5  3.181143E+05  1.567357E+05  3.131986E+03  2.238711E+05 -7.587249E+01 -2.583100E+02
       145   6  3.200200E+05  1.550379E+05  3.792518E+03  2.233634E+05 -5.952206E+02 -2.150224E+03
       145   7  3.302819E+05  1.623352E+05  5.939473E+03  2.286164E+05 -1.175425E+03  4.208227E+02
       145   8  3.165445E+05  1.556049E+05  2.761331E+03  2.230616E+05 -1.693254E+03 -1.470927E+03
       145   9  3.066152E+05  1.454735E+05  6.322044E+02  2.164950E+05 -2.211530E+03 -3.362049E+03
       145  10  3.097523E+05  1.477304E+05  1.103472E+03  2.181179E+05 -2.327051E-10  1.034125E-11
       145  11  3.196840E+05  1.578665E+05  3.502646E+03  2.246807E+05 -6.991804E-11 -8.692774E-12
       145  12  3.334247E+05  1.646022E+05  6.952747E+03  2.302319E+05  2.095841E-10 -7.135075E-11
       145  13  3.200170E+05  1.550328E+05  3.521474E+03  2.233671E+05 -9.613748E-11 -1.034164E-10
       145  14  3.181143E+05  1.567357E+05  3.131986E+03  2.238711E+05 -2.158842E-10 -1.528627E-10
       145  15  3.200200E+05  1.550379E+05  3.792509E+03  2.233634E+05 -6.723216E-11  1.238479E-10
       145  16  3.302819E+05  1.623352E+05  5.939470E+03  2.286164E+05  6.591377E-11 -2.013899E-10
       145  17  3.165445E+05  1.556049E+05  2.761321E+03  2.230616E+05 -8.924190E-11 -1.199639E-10
       145  18  3.066152E+05  1.454735E+05  6.321740E+02  2.164950E+05  1.961386E-10  1.765142E-10
       145  19  3.097523E+05  1.477304E+05  1.103496E+03  2.181179E+05 -2.061401E+03 -2.847590E+03
       145  20  3.196840E+05  1.578665E+05  3.502652E+03  2.246807E+05 -1.541500E+03 -9.542994E+02
       145  21  3.334247E+05  1.646022E+05  6.952750E+03  2.302319E+05 -1.021106E+03  9.383865E+02
       145  22  3.200170E+05  1.550328E+05  3.521479E+03  2.233671E+05 -4.430063E+02 -1.634220E+03
       145  23  3.181143E+05  1.567357E+05  3.131986E+03  2.238711E+05  7.587249E+01  2.583100E+02
       145  24  3.200200E+05  1.550379E+05  3.792518E+03  2.233634E+05  5.952206E+02  2.150224E+03
       145  25  3.302819E+05  1.623352E+05  5.939473E+03  2.286164E+05  1.175425E+03 -4.208227E+02
       145  26  3.165445E+05  1.556049E+05  2.761331E+03  2.230616E+05  1.693254E+03  1.470927E+03
       145  27  3.066152E+05  1.454735E+05  6.322044E+02  2.164950E+05  2.211530E+03  3.362049E+03
       146   1  3.409971E+05  1.703706E+05  9.591799E+03  2.343454E+05  8.827237E+02 -1.933585E+03
       146   2  3.516149E+05  1.799750E+05  1.516082E+04  2.402820E+05 -1.640284E+03 -5.202605E+03
       146   3  3.670730E+05  1.874851E+05  2.376478E+04  2.447796E+05 -4.300231E+03 -8.289007E+03
       146   4  3.200903E+05  1.550573E+05  4.531501E+03  2.234602E+05 -7.529546E+02 -3.159944E+03
       146   5  3.181605E+05  1.569513E+05  7.208004E+03  2.235690E+05 -2.968759E+03 -6.198669E+03
       146   6  3.210043E+05  1.566847E+05  1.265326E+04  2.222388E+05 -5.321449E+03 -9.054744E+03
       146   7  2.991845E+05  1.397446E+05 -5.286756E+02  2.125757E+05 -2.388530E+03 -4.386223E+03
       146   8  2.847076E+05  1.339285E+05 -7.447692E+02  2.068572E+05 -4.297126E+03 -7.194654E+03
       146   9  2.749382E+05  1.258854E+05  1.541614E+03  1.996999E+05 -6.342565E+03 -9.820409E+03
       146  10  3.409971E+05  1.703706E+05  9.591790E+03  2.343454E+05  3.119041E-10  1.643434E-10
       146  11  3.516149E+05  1.799750E+05  1.516077E+04  2.402820E+05  1.592738E-10 -1.949488E-11
       146  12  3.670729E+05  1.874850E+05  2.376462E+04  2.447796E+05 -2.192623E-10 -9.285124E-11
       146  13  3.200903E+05  1.550573E+05  4.531481E+03  2.234602E+05  2.228241E-11  7.953410E-11
       146  14  3.181604E+05  1.569513E+05  7.207915E+03  2.235690E+05  5.322468E-10 -1.025527E-10
       146  15  3.210043E+05  1.566846E+05  1.265306E+04  2.222388E+05  8.843144E-12  4.247441E-11
       146  16  2.991845E+05  1.397446E+05 -5.287224E+02  2.125757E+05 -4.161748E-10 -1.423141E-10
       146  17  2.847076E+05  1.339285E+05 -7.449011E+02  2.068572E+05  2.005265E-10 -1.308123E-10
       146  18  2.749381E+05  1.258853E+05  1.541358E+03  1.996998E+05  4.802730E-12  1.712325E-11
       146  19  3.409971E+05  1.703706E+05  9.591799E+03  2.343454E+05 -8.827237E+02  1.933585E+03
       146  20  3.516149E+05  1.799750E+05  1.516082E+04  2.402820E+05  1.640284E+03  5.202605E+03
       146  21  3.670730E+05  1.874851E+05  2.376478E+04  2.447796E+05  4.300231E+03  8.289007E+03
       146  22  3.200903E+05  1.550573E+05  4.531501E+03  2.234602E+05  7.529546E+02  3.159944E+03
       146  23  3.181605E+05  1.569513E+05  7.208004E+03  2.235690E+05  2.968759E+03  6.198669E+03
       146  24  3.210043E+05  1.566847E+05  1.265326E+04  2.222388E+05  5.321449E+03  9.054744E+03
       146  25  2.991845E+05  1.397446E+05 -5.286756E+02  2.125757E+05  2.388530E+03  4.386223E+03
       146  26  2.847076E+05  1.339285E+05 -7.447692E+02  2.068572E+05  4.297126E+03  7.194654E+03
       146  27  2.749382E+05  1.258854E+05  1.541614E+03  1.996999E+05  6.342565E+03  9.820409E+03
       147   1  3.718655E+05  1.973399E+05  2.967403E+04  2.513281E+05 -5.439012E+03 -9.884083E+03
       147   2  4.005250E+05  1.942893E+05  4.738113E+04  2.448423E+05 -2.144324E+04 -2.143586E+04
       147   3  4.515588E+05  2.130349E+05  8.624949E+04  2.266072E+05 -3.900038E+04 -3.091849E+04
       147   4  3.219845E+05  1.569253E+05  1.650119E+04  2.236346E+05 -6.695988E+03 -1.082653E+04
       147   5  3.207976E+05  1.635253E+05  2.979501E+04  2.166658E+05 -1.922024E+04 -1.977003E+04
       147   6  3.412303E+05  1.911689E+05  6.123322E+04  1.979478E+05 -3.329597E+04 -2.664460E+04
       147   7  2.721055E+05  1.165120E+05  3.327820E+03  1.959434E+05 -7.952852E+03 -1.176888E+04
       147   8  2.410776E+05  1.327624E+05  1.220867E+04  1.884924E+05 -1.699764E+04 -1.810432E+04
       147   9  2.309191E+05  1.693047E+05  3.621747E+04  1.692917E+05 -2.759310E+04 -2.237089E+04
       147  10  3.718654E+05  1.973398E+05  2.967380E+04  2.513280E+05  2.357475E-10  1.010492E-10
       147  11  4.005244E+05  1.942887E+05  4.737940E+04  2.448419E+05 -1.968317E-10 -4.216602E-11
       147  12  4.515569E+05  2.130335E+05  8.624484E+04  2.266062E+05 -4.275003E-11 -1.119645E-10
       147  13  3.219844E+05  1.569252E+05  1.650088E+04  2.236346E+05 -2.688048E-10 -1.056600E-10
       147  14  3.207971E+05  1.635248E+05  2.979358E+04  2.166655E+05  1.344239E-10 -9.059742E-11
       147  15  3.412290E+05  1.911679E+05  6.122981E+04  1.979471E+05  8.308163E-11 -4.505020E-11
       147  16  2.721054E+05  1.165119E+05  3.327442E+03  1.959434E+05 -2.974251E-10 -1.087288E-10
       147  17  2.410772E+05  1.327619E+05  1.220751E+04  1.884922E+05  1.079248E-10 -1.029105E-10
       147  18  2.309181E+05  1.693039E+05  3.621510E+04  1.692912E+05  4.029020E-11  3.324368E-11
       147  19  3.718655E+05  1.973399E+05  2.967403E+04  2.513281E+05  5.439012E+03  9.884083E+03
       147  20  4.005250E+05  1.942893E+05  4.738113E+04  2.448423E+05  2.144324E+04  2.143586E+04
       147  21  4.515588E+05  2.130349E+05  8.624949E+04  2.266072E+05  3.900038E+04  3.091849E+04
       147  22  3.219845E+05  1.569253E+05  1.650119E+04  2.236346E+05  6.695988E+03  1.082653E+04
       147  23  3.207976E+05  1.635253E+05  2.979501E+04  2.166658E+05  1.922024E+04  1.977003E+04
       147  24  3.412303E+05  1.911689E+05  6.123322E+04  1.979478E+05  3.329597E+04  2.664460E+04
       147  25  2.721055E+05  1.165120E+05  3.327820E+03  1.959434E+05  7.952852E+03  1.176888E+04
       147  26  2.410776E+05  1.327624E+05  1.220867E+04  1.884924E+05  1.699764E+04  1.810432E+04
       147  27  2.309191E+05  1.693047E+05  3.621747E+04  1.692917E+05  2.759310E+04  2.237089E+04
       148   1  5.028077E+05  6.619383E+04  6.920988E+04  4.479910E+04  3.652529E+04 -1.385559E+03
       148   2  4.780012E+05  3.053256E+04  3.911759E+04  2.953943E+04  2.110308E+04 -4.344645E+03
       148   3  4.610180E+05  1.813724E+04  2.487691E+04  1.884307E+04  5.681614E+03 -4.503042E+03
       148   4  3.889953E+05  3.805829E+04  4.228812E+04  2.102190E+04  2.919604E+04 -1.386974E+03
       148   5  3.854959E+05  8.367755E+03  2.075545E+04  1.874070E+04  1.848264E+04 -4.345104E+03
       148   6  3.890036E+05  1.127592E+03  1.180760E+04  2.102228E+04  7.769359E+03 -4.502997E+03
       148   7  2.751962E+05  9.923980E+03  1.536597E+04 -2.750917E+03  2.186813E+04 -1.387828E+03
       148   8  2.929991E+05 -1.379713E+04  2.392983E+03  7.943607E+03  1.586258E+04 -4.345471E+03
       148   9  3.169942E+05 -1.588233E+04 -1.261902E+03  2.320122E+04  9.856869E+03 -4.502937E+03
       148  10  5.028063E+05  6.619347E+04  6.920737E+04  4.479914E+04  3.537187E-11 -1.052788E-11
       148  11  4.780007E+05  3.053242E+04  3.911672E+04  2.953950E+04 -2.310667E-10 -3.996313E-11
       148  12  4.610179E+05  1.813721E+04  2.487681E+04  1.884309E+04 -7.493509E-11 -2.410620E-11
       148  13  3.889944E+05  3.805806E+04  4.228652E+04  2.102193E+04  1.683283E-11  1.938958E-12
       148  14  3.854955E+05  8.367643E+03  2.075478E+04  1.874076E+04 -2.731279E-10 -1.758223E-11
       148  15  3.890035E+05  1.127554E+03  1.180745E+04  2.102230E+04  1.032680E-10 -3.211609E-11
       148  16  2.751956E+05  9.923849E+03  1.536507E+04 -2.750892E+03  3.957166E-11  1.165873E-11
       148  17  2.929988E+05 -1.379722E+04  2.392475E+03  7.943662E+03  2.367330E-10  4.158666E-12
       148  18  3.169941E+05 -1.588238E+04 -1.262123E+03  2.320126E+04 -2.063704E-10 -3.147984E-11
       148  19  5.028077E+05  6.619383E+04  6.920988E+04  4.479910E+04 -3.652529E+04  1.385559E+03
       148  20  4.780012E+05  3.053256E+04  3.911759E+04  2.953943E+04 -2.110308E+04  4.344645E+03
       148  21  4.610180E+05  1.813724E+04  2.487691E+04  1.884307E+04 -5.681614E+03  4.503042E+03
       148  22  3.889953E+05  3.805829E+04  4.228812E+04  2.102190E+04 -2.919604E+04  1.386974E+03
       148  23  3.854959E+05  8.367755E+03  2.075545E+04  1.874070E+04 -1.848264E+04  4.345104E+03
       148  24  3.890036E+05  1.127592E+03  1.180760E+04  2.102228E+04 -7.769359E+03  4.502997E+03
       148  25  2.751962E+05  9.923980E+03  1.536597E+04 -2.750917E+03 -2.186813E+04  1.387828E+03
       148  26  2.929991E+05 -1.379713E+04  2.392983E+03  7.943607E+03 -1.586258E+04  4.345471E+03
       148  27  3.169942E+05 -1.588233E+04 -1.261902E+03  2.320122E+04 -9.856869E+03  4.502937E+03
       149   1  4.458696E+05  1.544251E+04  1.979246E+04  2.181605E+04  4.416783E+03 -3.726191E+03
       149   2  4.246201E+05  9.000570E+03  1.255404E+04  1.898549E+04  1.032776E+03 -2.557587E+03
       149   3  4.041411E+05  3.876861E+03  7.847187E+03  2.089419E+04 -2.351103E+03 -1.158355E+03
       149   4  3.876024E+05  1.697703E+03  9.308394E+03  2.106155E+04  6.187169E+03 -3.726155E+03
       149   5  3.872516E+05  2.222273E+02  6.013707E+03  1.869196E+04  3.191018E+03 -2.557502E+03
       149   6  3.876035E+05 -2.306909E+00  4.981455E+03  2.106162E+04  1.948819E+02 -1.158220E+03
       149   7  3.293384E+05 -1.204729E+04 -1.175787E+03  2.030712E+04  7.957394E+03 -3.726123E+03
       149   8  3.498845E+05 -8.556189E+03 -5.266619E+02  1.839844E+04  5.349135E+03 -2.557420E+03
       149   9  3.710661E+05 -3.881486E+03  2.115738E+03  2.122905E+04  2.740801E+03 -1.158083E+03
       149  10  4.458696E+05  1.544249E+04  1.979239E+04  2.181606E+04 -2.253034E-11 -3.961055E-11
       149  11  4.246201E+05  9.000563E+03  1.255403E+04  1.898549E+04  9.566840E-11 -3.846195E-12
       149  12  4.041411E+05  3.876858E+03  7.847174E+03  2.089419E+04 -3.269851E-10  1.212407E-10
       149  13  3.876023E+05  1.697677E+03  9.308296E+03  2.106156E+04 -1.346441E-10 -3.761649E-11
       149  14  3.872516E+05  2.222176E+02  6.013675E+03  1.869196E+04 -6.732174E-11 -4.074114E-11
       149  15  3.876035E+05 -2.308360E+00  4.981452E+03  2.106162E+04 -8.329945E-11  4.521210E-11
       149  16  3.293384E+05 -1.204732E+04 -1.175932E+03  2.030714E+04  3.558920E-12 -5.665397E-11
       149  17  3.498845E+05 -8.556203E+03 -5.267279E+02  1.839845E+04  2.277515E-10 -9.934231E-11
       149  18  3.710661E+05 -3.881489E+03  2.115721E+03  2.122905E+04  3.473976E-10  4.077521E-11
       149  19  4.458696E+05  1.544251E+04  1.979246E+04  2.181605E+04 -4.416783E+03  3.726191E+03
       149  20  4.246201E+05  9.000570E+03  1.255404E+04  1.898549E+04 -1.032776E+03  2.557587E+03
       149  21  4.041411E+05  3.876861E+03  7.847187E+03  2.089419E+04  2.351103E+03  1.158355E+03
       149  22  3.876024E+05  1.697703E+03  9.308394E+03  2.106155E+04 -6.187169E+03  3.726155E+03
       149  23  3.872516E+05  2.222273E+02  6.013707E+03  1.869196E+04 -3.191018E+03  2.557502E+03
       149  24  3.876035E+05 -2.306909E+00  4.981455E+03  2.106162E+04 -1.948819E+02  1.158220E+03
       149  25  3.293384E+05 -1.204729E+04 -1.175787E+03  2.030712E+04 -7.957394E+03  3.726123E+03
       149  26  3.498845E+05 -8.556189E+03 -5.266619E+02  1.839844E+04 -5.349135E+03  2.557420E+03
       149  27  3.710661E+05 -3.881486E+03  2.115738E+03  2.122905E+04 -2.740801E+03  1.158083E+03
       150   1  3.905313E+05  6.633825E+02  5.509750E+03  2.128160E+04 -3.224442E+03 -2.599726E+02
       150   2  3.693120E+05 -3.964828E+03  3.266864E+03  1.838348E+04 -6.138668E+03  1.158456E+03
       150   3  3.488074E+05 -7.251425E+03  3.255758E+03  2.022691E+04 -9.052836E+03  2.390044E+03
       150   4  3.876183E+05 -7.755463E+00  5.065942E+03  2.106213E+04 -6.831392E+02 -2.598307E+02
       150   5  3.872333E+05  2.601248E+02  6.477816E+03  1.869132E+04 -3.911501E+03  1.158562E+03
       150   6  3.876173E+05  1.924187E+03  1.033952E+04  2.106204E+04 -7.139902E+03  2.390113E+03
       150   7  3.847052E+05 -6.788902E+02  4.622158E+03  2.084266E+04  1.858152E+03 -2.596905E+02
       150   8  4.051549E+05  4.485063E+03  9.688774E+03  1.899916E+04 -1.684272E+03  1.158670E+03
       150   9  4.264287E+05  1.109972E+04  1.742324E+04  2.189722E+04 -5.226852E+03  2.390186E+03
       150  10  3.905313E+05  6.633796E+02  5.509731E+03  2.128160E+04  7.928975E-11  1.892717E-10
       150  11  3.693120E+05 -3.964840E+03  3.266791E+03  1.838349E+04 -3.585520E-11  8.626849E-11
       150  12  3.488073E+05 -7.251453E+03  3.255593E+03  2.022693E+04 -1.173230E-10 -5.117685E-11
       150  13  3.876183E+05 -7.755661E+00  5.065941E+03  2.106213E+04  1.220184E-10  1.136490E-10
       150  14  3.872333E+05  2.601193E+02  6.477785E+03  1.869132E+04  6.972380E-11  7.718600E-11
       150  15  3.876173E+05  1.924167E+03  1.033941E+04  2.106205E+04 -1.631236E-10  1.850085E-11
       150  16  3.847052E+05 -6.788912E+02  4.622151E+03  2.084266E+04 -1.001591E-10  5.929538E-11
       150  17  4.051549E+05  4.485061E+03  9.688767E+03  1.899917E+04  2.720641E-10  6.637483E-11
       150  18  4.264287E+05  1.109970E+04  1.742318E+04  2.189723E+04 -7.662090E-11  4.263390E-11
       150  19  3.905313E+05  6.633825E+02  5.509750E+03  2.128160E+04  3.224442E+03  2.599726E+02
       150  20  3.693120E+05 -3.964828E+03  3.266864E+03  1.838348E+04  6.138668E+03 -1.158456E+03
       150  21  3.488074E+05 -7.251425E+03  3.255758E+03  2.022691E+04  9.052836E+03 -2.390044E+03
       150  22  3.876183E+05 -7.755463E+00  5.065942E+03  2.106213E+04  6.831392E+02  2.598307E+02
       150  23  3.872333E+05  2.601248E+02  6.477816E+03  1.869132E+04  3.911501E+03 -1.158562E+03
       150  24  3.876173E+05  1.924187E+03  1.033952E+04  2.106204E+04  7.139902E+03 -2.390113E+03
       150  25  3.847052E+05 -6.788902E+02  4.622158E+03  2.084266E+04 -1.858152E+03  2.596905E+02
       150  26  4.051549E+05  4.485063E+03  9.688774E+03  1.899916E+04  1.684272E+03 -1.158670E+03
       150  27  4.264287E+05  1.109972E+04  1.742324E+04  2.189722E+04  5.226852E+03 -2.390186E+03
       151   1  3.366738E+05 -1.115031E+04  3.572084E+03  2.350284E+04 -1.107782E+04  3.189823E+03
       151   2  3.121699E+05 -8.081405E+03  8.747437E+03  6.544664E+03 -1.920423E+04  3.312778E+03
       151   3  2.948939E+05  1.966372E+04  2.538106E+04 -5.819738E+03 -2.733034E+04  1.089014E+03
       151   4  3.892047E+05  1.278895E+03  1.320979E+04  2.102915E+04 -8.899744E+03  3.189940E+03
       151   5  3.852450E+05  9.455947E+03  2.338546E+04  1.873198E+04 -2.097187E+04  3.312319E+03
       151   6  3.891958E+05  4.299144E+04  4.775723E+04  2.102825E+04 -3.304405E+04  1.087722E+03
       151   7  4.417383E+05  1.370797E+04  2.284740E+04  1.855525E+04 -6.721487E+03  3.190039E+03
       151   8  4.583256E+05  2.699353E+04  3.802330E+04  3.092076E+04 -2.273972E+04  3.311791E+03
       151   9  4.835075E+05  6.632124E+04  7.013330E+04  4.788034E+04 -3.875863E+04  1.085937E+03
       151  10  3.366737E+05 -1.115036E+04  3.571835E+03  2.350287E+04 -1.945851E-10 -5.372499E-11
       151  11  3.121695E+05 -8.081516E+03  8.746724E+03  6.544716E+03 -1.512500E-10  1.939718E-11
       151  12  2.948931E+05  1.966352E+04  2.537965E+04 -5.819714E+03 -1.270766E-10  2.501884E-11
       151  13  3.892046E+05  1.278863E+03  1.320962E+04  2.102918E+04 -2.546557E-10 -2.961830E-11
       151  14  3.852446E+05  9.455817E+03  2.338461E+04  1.873204E+04  1.357444E-10 -1.313613E-11
       151  15  3.891946E+05  4.299115E+04  4.775518E+04  2.102828E+04  4.347360E-11 -1.765084E-12
       151  16  4.417382E+05  1.370795E+04  2.284730E+04  1.855527E+04  2.530910E-10  7.414169E-11
       151  17  4.583250E+05  2.699338E+04  3.802230E+04  3.092082E+04  4.596735E-11 -6.477811E-11
       151  18  4.835059E+05  6.632084E+04  7.013048E+04  4.788037E+04  2.759795E-10 -1.039898E-11
       151  19  3.366738E+05 -1.115031E+04  3.572084E+03  2.350284E+04  1.107782E+04 -3.189823E+03
       151  20  3.121699E+05 -8.081405E+03  8.747437E+03  6.544664E+03  1.920423E+04 -3.312778E+03
       151  21  2.948939E+05  1.966372E+04  2.538106E+04 -5.819738E+03  2.733034E+04 -1.089014E+03
       151  22  3.892047E+05  1.278895E+03  1.320979E+04  2.102915E+04  8.899744E+03 -3.189940E+03
       151  23  3.852450E+05  9.455947E+03  2.338546E+04  1.873198E+04  2.097187E+04 -3.312319E+03
       151  24  3.891958E+05  4.299144E+04  4.775723E+04  2.102825E+04  3.304405E+04 -1.087722E+03
       151  25  4.417383E+05  1.370797E+04  2.284740E+04  1.855525E+04  6.721487E+03 -3.190039E+03
       151  26  4.583256E+05  2.699353E+04  3.802330E+04  3.092076E+04  2.273972E+04 -3.311791E+03
       151  27  4.835075E+05  6.632124E+04  7.013330E+04  4.788034E+04  3.875863E+04 -1.085937E+03
       152   1 -1.178338E+05 -3.811181E+05 -1.245498E+05  8.824541E+04 -2.014510E+03 -6.600007E+04
       152   2 -4.858669E+04 -3.319886E+05 -6.862132E+04  5.841170E+04 -6.044931E+03 -3.717343E+04
       152   3 -2.443416E+04 -2.978877E+05 -4.274079E+04  3.774647E+04 -5.671896E+03 -8.344370E+03
       152   4 -7.406525E+04 -2.042944E+05 -8.252039E+04  4.188150E+04 -2.008313E+03 -5.553054E+04
       152   5 -1.626177E+04 -1.974173E+05 -4.157345E+04  3.729165E+04 -6.043136E+03 -3.409646E+04
       152   6 -2.265325E+03 -2.042838E+05 -2.553455E+04  4.187275E+04 -5.672595E+03 -1.266225E+04
       152   7 -3.029078E+04 -2.743710E+04 -4.049161E+04 -4.495690E+03 -2.003682E+03 -4.505804E+04
       152   8  1.606371E+04 -6.282778E+04 -1.452622E+04  1.616693E+04 -6.041551E+03 -3.101883E+04
       152   9  1.990309E+04 -1.106713E+05 -8.328596E+03  4.599966E+04 -5.673351E+03 -1.698076E+04
       152  10 -1.178350E+05 -3.811228E+05 -1.245580E+05  8.824530E+04 -5.335982E-11 -3.098095E-10
       152  11 -4.858710E+04 -3.319901E+05 -6.862398E+04  5.841152E+04 -1.007015E-10  5.043569E-11
       152  12 -2.443421E+04 -2.978878E+05 -4.274098E+04  3.774644E+04  1.027288E-10  4.396298E-10
       152  13 -7.406608E+04 -2.042977E+05 -8.252619E+04  4.188141E+04  8.638843E-11 -2.532861E-11
       152  14 -1.626212E+04 -1.974186E+05 -4.157570E+04  3.729149E+04  5.919671E-11  9.182008E-11
       152  15 -2.265403E+03 -2.042840E+05 -2.553491E+04  4.187269E+04  5.202861E-11  1.212525E-11
       152  16 -3.029133E+04 -2.743928E+04 -4.049544E+04 -4.495763E+03  1.287071E-10  2.903205E-10
       152  17  1.606342E+04 -6.282882E+04 -1.452810E+04  1.616678E+04 -4.598884E-11 -5.983153E-11
       152  18  1.990297E+04 -1.106717E+05 -8.329199E+03  4.599958E+04  6.881624E-11 -4.036239E-10
       152  19 -1.178338E+05 -3.811181E+05 -1.245498E+05  8.824541E+04  2.014510E+03  6.600007E+04
       152  20 -4.858669E+04 -3.319886E+05 -6.862132E+04  5.841170E+04  6.044931E+03  3.717343E+04
       152  21 -2.443416E+04 -2.978877E+05 -4.274079E+04  3.774647E+04  5.671896E+03  8.344370E+03
       152  22 -7.406525E+04 -2.042944E+05 -8.252039E+04  4.188150E+04  2.008313E+03  5.553054E+04
       152  23 -1.626177E+04 -1.974173E+05 -4.157345E+04  3.729165E+04  6.043136E+03  3.409646E+04
       152  24 -2.265325E+03 -2.042838E+05 -2.553455E+04  4.187275E+04  5.672595E+03  1.266225E+04
       152  25 -3.029078E+04 -2.743710E+04 -4.049161E+04 -4.495690E+03  2.003682E+03  4.505804E+04
       152  26  1.606371E+04 -6.282778E+04 -1.452622E+04  1.616693E+04  6.041551E+03  3.101883E+04
       152  27  1.990309E+04 -1.106713E+05 -8.328596E+03  4.599966E+04  5.673351E+03  1.698076E+04
       153   1 -1.898057E+04 -2.680030E+05 -3.372325E+04  4.383071E+04 -4.075140E+03 -5.221387E+03
       153   2 -6.787970E+03 -2.252428E+05 -2.233770E+04  3.721285E+04 -1.733069E+03  3.966521E+03
       153   3  7.902369E+02 -1.848334E+05 -1.808962E+04  4.003457E+04  7.112134E+02  1.315495E+04
       153   4 -3.303776E+03 -2.017457E+05 -2.161044E+04  4.193332E+04 -4.075758E+03 -9.066801E+03
       153   5 -1.001036E+03 -2.005840E+05 -1.806776E+04  3.721346E+04 -1.733767E+03 -5.016281E+01
       153   6 -3.282714E+03 -2.017450E+05 -2.154322E+04  4.193329E+04  7.104855E+02  8.966420E+03
       153   7  1.237279E+04 -1.354841E+05 -9.497759E+03  4.003571E+04 -4.076353E+03 -1.291261E+04
       153   8  4.785875E+03 -1.759246E+05 -1.379779E+04  3.721406E+04 -1.734466E+03 -4.067001E+03
       153   9 -7.355659E+03 -2.186563E+05 -2.499677E+04  4.383196E+04  7.097321E+02  4.777998E+03
       153  10 -1.898059E+04 -2.680030E+05 -3.372333E+04  4.383069E+04  1.233098E-10 -3.448667E-11
       153  11 -6.787978E+03 -2.252428E+05 -2.233774E+04  3.721285E+04 -2.361208E-10 -1.058353E-10
       153  12  7.901899E+02 -1.848336E+05 -1.808995E+04  4.003456E+04  2.269631E-10 -1.874506E-10
       153  13 -3.303816E+03 -2.017458E+05 -2.161063E+04  4.193329E+04  3.755340E-11 -3.957877E-11
       153  14 -1.001039E+03 -2.005840E+05 -1.806777E+04  3.721346E+04  2.100481E-10  1.726398E-10
       153  15 -3.282736E+03 -2.017451E+05 -2.154338E+04  4.193328E+04  1.983449E-10  2.327912E-11
       153  16  1.237272E+04 -1.354842E+05 -9.498104E+03  4.003567E+04  8.171285E-11  1.230997E-11
       153  17  4.785867E+03 -1.759246E+05 -1.379783E+04  3.721406E+04  1.738650E-10  1.497063E-10
       153  18 -7.355666E+03 -2.186563E+05 -2.499682E+04  4.383195E+04  1.326951E-10  2.205311E-10
       153  19 -1.898057E+04 -2.680030E+05 -3.372325E+04  4.383071E+04  4.075140E+03  5.221387E+03
       153  20 -6.787970E+03 -2.252428E+05 -2.233770E+04  3.721285E+04  1.733069E+03 -3.966521E+03
       153  21  7.902369E+02 -1.848334E+05 -1.808962E+04  4.003457E+04 -7.112134E+02 -1.315495E+04
       153  22 -3.303776E+03 -2.017457E+05 -2.161044E+04  4.193332E+04  4.075758E+03  9.066801E+03
       153  23 -1.001036E+03 -2.005840E+05 -1.806776E+04  3.721346E+04  1.733767E+03  5.016281E+01
       153  24 -3.282714E+03 -2.017450E+05 -2.154322E+04  4.193329E+04 -7.104855E+02 -8.966420E+03
       153  25  1.237279E+04 -1.354841E+05 -9.497759E+03  4.003571E+04  4.076353E+03  1.291261E+04
       153  26  4.785875E+03 -1.759246E+05 -1.379779E+04  3.721406E+04  1.734466E+03  4.067001E+03
       153  27 -7.355659E+03 -2.186563E+05 -2.499677E+04  4.383196E+04 -7.097321E+02 -4.777998E+03
       154   1  8.290007E+03 -1.600556E+05 -1.695411E+04  4.598658E+04  2.362200E+03  1.706828E+04
       154   2  4.420665E+03 -1.120863E+05 -2.375896E+04  1.626126E+04  3.429411E+03  3.293585E+04
       154   3 -4.205291E+04 -7.683250E+04 -5.154579E+04 -4.210942E+03  1.248071E+03  4.880462E+04
       154   4 -2.250502E+03 -2.042658E+05 -2.542936E+04  4.189093E+04  2.361286E+03  1.254979E+04
       154   5 -1.616423E+04 -1.974365E+05 -4.135305E+04  3.726892E+04  3.430713E+03  3.386964E+04
       154   6 -7.363477E+04 -2.042750E+05 -8.204819E+04  4.190087E+04  1.252668E+03  5.518943E+04
       154   7 -1.279105E+04 -2.484740E+05 -3.390461E+04  3.779558E+04  2.360432E+03  8.031608E+03
       154   8 -3.674793E+04 -2.827788E+05 -5.894730E+04  5.827364E+04  3.432079E+03  3.480331E+04
       154   9 -1.052098E+05 -3.316979E+05 -1.125504E+05  8.800317E+04  1.258215E+03  6.157293E+04
       154  10  8.289923E+03 -1.600559E+05 -1.695467E+04  4.598655E+04 -8.597227E-11 -1.100673E-10
       154  11  4.420361E+03 -1.120875E+05 -2.376102E+04  1.626117E+04 -2.507858E-10 -3.908981E-11
       154  12 -4.205356E+04 -7.683506E+04 -5.155027E+04 -4.210991E+03 -1.936870E-10 -2.795516E-11
       154  13 -2.250550E+03 -2.042660E+05 -2.542966E+04  4.189091E+04  1.467371E-10 -5.731398E-11
       154  14 -1.616455E+04 -1.974377E+05 -4.135523E+04  3.726883E+04 -1.913182E-10  6.855109E-11
       154  15 -7.363559E+04 -2.042783E+05 -8.205392E+04  4.190081E+04  1.018045E-10 -4.965244E-11
       154  16 -1.279108E+04 -2.484741E+05 -3.390474E+04  3.779556E+04 -8.444778E-11  1.050640E-10
       154  17 -3.674827E+04 -2.827801E+05 -5.894960E+04  5.827354E+04  4.323426E-11  6.934240E-11
       154  18 -1.052108E+05 -3.317020E+05 -1.125576E+05  8.800311E+04 -2.286320E-10  3.483610E-11
       154  19  8.290007E+03 -1.600556E+05 -1.695411E+04  4.598658E+04 -2.362200E+03 -1.706828E+04
       154  20  4.420665E+03 -1.120863E+05 -2.375896E+04  1.626126E+04 -3.429411E+03 -3.293585E+04
       154  21 -4.205291E+04 -7.683250E+04 -5.154579E+04 -4.210942E+03 -1.248071E+03 -4.880462E+04
       154  22 -2.250502E+03 -2.042658E+05 -2.542936E+04  4.189093E+04 -2.361286E+03 -1.254979E+04
       154  23 -1.616423E+04 -1.974365E+05 -4.135305E+04  3.726892E+04 -3.430713E+03 -3.386964E+04
       154  24 -7.363477E+04 -2.042750E+05 -8.204819E+04  4.190087E+04 -1.252668E+03 -5.518943E+04
       154  25 -1.279105E+04 -2.484740E+05 -3.390461E+04  3.779558E+04 -2.360432E+03 -8.031608E+03
       154  26 -3.674793E+04 -2.827788E+05 -5.894730E+04  5.827364E+04 -3.432079E+03 -3.480331E+04
       154  27 -1.052098E+05 -3.316979E+05 -1.125504E+05  8.800317E+04 -1.258215E+03 -6.157293E+04
       155   1  1.681778E+05  1.119633E+05  1.527619E+04  1.258181E+05  1.309017E+04  1.091202E+04
       155   2  1.739425E+05  9.396400E+04  3.783420E+03  1.358840E+05  7.848414E+03  9.423304E+03
       155   3  1.903967E+05  8.604058E+04 -3.778684E+02  1.399228E+05  3.588218E+03  6.625504E+03
       155   4  2.341550E+05  1.300784E+05  3.117040E+04  1.452799E+05  1.681894E+04  1.370763E+04
       155   5  2.236721E+05  1.160867E+05  1.517808E+04  1.548309E+05  9.376433E+03  1.056893E+04
       155   6  2.243549E+05  1.126472E+05  8.426168E+03  1.583549E+05  2.915577E+03  6.121099E+03
       155   7  3.001376E+05  1.481940E+05  4.706456E+04  1.647431E+05  2.054827E+04  1.650334E+04
       155   8  2.734050E+05  1.382100E+05  2.657276E+04  1.737793E+05  1.090463E+04  1.171464E+04
       155   9  2.583151E+05  1.392552E+05  1.723034E+04  1.767885E+05  2.242874E+03  5.616642E+03
       155  10  1.681776E+05  1.119632E+05  1.527564E+04  1.258180E+05  3.843780E-11  3.125667E-11
       155  11  1.739424E+05  9.396389E+04  3.783138E+03  1.358839E+05 -6.244385E-11 -6.991617E-12
       155  12  1.903966E+05  8.604053E+04 -3.779750E+02  1.399228E+05 -4.017147E-11  3.955488E-11
       155  13  2.341547E+05  1.300781E+05  3.116952E+04  1.452797E+05 -1.100632E-10 -1.804446E-11
       155  14  2.236719E+05  1.160865E+05  1.517770E+04  1.548308E+05 -1.517797E-10  1.004708E-11
       155  15  2.243549E+05  1.126471E+05  8.426081E+03  1.583549E+05 -2.762294E-10  7.471321E-11
       155  16  3.001371E+05  1.481936E+05  4.706326E+04  1.647428E+05 -2.065829E-10 -3.378093E-11
       155  17  2.734048E+05  1.382099E+05  2.657228E+04  1.737792E+05 -1.937477E-10 -1.121257E-11
       155  18  2.583151E+05  1.392551E+05  1.723027E+04  1.767885E+05  2.063918E-11  9.931919E-11
       155  19  1.681778E+05  1.119633E+05  1.527619E+04  1.258181E+05 -1.309017E+04 -1.091202E+04
       155  20  1.739425E+05  9.396400E+04  3.783420E+03  1.358840E+05 -7.848414E+03 -9.423304E+03
       155  21  1.903967E+05  8.604058E+04 -3.778684E+02  1.399228E+05 -3.588218E+03 -6.625504E+03
       155  22  2.341550E+05  1.300784E+05  3.117040E+04  1.452799E+05 -1.681894E+04 -1.370763E+04
       155  23  2.236721E+05  1.160867E+05  1.517808E+04  1.548309E+05 -9.376433E+03 -1.056893E+04
       155  24  2.243549E+05  1.126472E+05  8.426168E+03  1.583549E+05 -2.915577E+03 -6.121099E+03
       155  25  3.001376E+05  1.481940E+05  4.706456E+04  1.647431E+05 -2.054827E+04 -1.650334E+04
       155  26  2.734050E+05  1.382100E+05  2.657276E+04  1.737793E+05 -1.090463E+04 -1.171464E+04
       155  27  2.583151E+05  1.392552E+05  1.723034E+04  1.767885E+05 -2.242874E+03 -5.616642E+03
       156   1  1.922486E+05  9.109589E+04 -1.159212E+03  1.420371E+05  2.747066E+03  5.592143E+03
       156   2  1.977328E+05  9.571223E+04 -2.102835E+03  1.460087E+05  1.727743E+03  4.250622E+03
       156   3  2.057876E+05  9.900933E+04 -1.783836E+03  1.491975E+05  7.951920E+02  2.793378E+03
       156   4  2.238616E+05  1.125208E+05  6.478055E+03  1.576439E+05  2.223636E+03  5.199610E+03
       156   5  2.223218E+05  1.127442E+05  3.736502E+03  1.583467E+05  1.009725E+03  3.712195E+03
       156   6  2.233950E+05  1.116907E+05  2.426392E+03  1.582667E+05 -1.174041E+02  2.109066E+03
       156   7  2.554751E+05  1.339459E+05  1.411506E+04  1.732513E+05  1.700180E+03  4.807059E+03
       156   8  2.469114E+05  1.297765E+05  9.575722E+03  1.706851E+05  2.916765E+02  3.173745E+03
       156   9  2.410028E+05  1.243722E+05  6.636601E+03  1.673362E+05 -1.030034E+03  1.424727E+03
       156  10  1.922486E+05  9.109585E+04 -1.159285E+03  1.420370E+05  6.164186E-12  3.092269E-10
       156  11  1.977328E+05  9.571221E+04 -2.102875E+03  1.460087E+05 -9.657426E-11 -2.961395E-11
       156  12  2.057876E+05  9.900932E+04 -1.783852E+03  1.491975E+05 -4.205532E-10 -1.942085E-10
       156  13  2.238616E+05  1.125208E+05  6.477994E+03  1.576439E+05  7.866402E-11  3.803703E-11
       156  14  2.223218E+05  1.127442E+05  3.736474E+03  1.583467E+05 -3.379203E-11 -1.948125E-11
       156  15  2.233950E+05  1.116907E+05  2.426384E+03  1.582667E+05 -1.182034E-10  9.433397E-11
       156  16  2.554751E+05  1.339459E+05  1.411501E+04  1.732513E+05 -1.948416E-10 -2.351608E-10
       156  17  2.469114E+05  1.297764E+05  9.575703E+03  1.706851E+05  1.819674E-10 -5.399313E-11
       156  18  2.410027E+05  1.243722E+05  6.636595E+03  1.673362E+05  4.488845E-10  3.486175E-10
       156  19  1.922486E+05  9.109589E+04 -1.159212E+03  1.420371E+05 -2.747066E+03 -5.592143E+03
       156  20  1.977328E+05  9.571223E+04 -2.102835E+03  1.460087E+05 -1.727743E+03 -4.250622E+03
       156  21  2.057876E+05  9.900933E+04 -1.783836E+03  1.491975E+05 -7.951920E+02 -2.793378E+03
       156  22  2.238616E+05  1.125208E+05  6.478055E+03  1.576439E+05 -2.223636E+03 -5.199610E+03
       156  23  2.223218E+05  1.127442E+05  3.736502E+03  1.583467E+05 -1.009725E+03 -3.712195E+03
       156  24  2.233950E+05  1.116907E+05  2.426392E+03  1.582667E+05  1.174041E+02 -2.109066E+03
       156  25  2.554751E+05  1.339459E+05  1.411506E+04  1.732513E+05 -1.700180E+03 -4.807059E+03
       156  26  2.469114E+05  1.297765E+05  9.575722E+03  1.706851E+05 -2.916765E+02 -3.173745E+03
       156  27  2.410028E+05  1.243722E+05  6.636601E+03  1.673362E+05  1.030034E+03 -1.424727E+03
       157   1  2.099599E+05  1.022057E+05 -1.057561E+03  1.513940E+05  7.034924E+02  2.226793E+03
       157   2  2.155102E+05  1.078769E+05  2.873193E+02  1.550651E+05  3.697322E+02  1.137664E+03
       157   3  2.231989E+05  1.116517E+05  2.255635E+03  1.581719E+05  3.799287E+01  4.578455E+01
       157   4  2.233614E+05  1.116808E+05  2.088877E+03  1.582196E+05 -1.966202E+02  1.551844E+03
       157   5  2.222929E+05  1.126304E+05  1.871050E+03  1.585004E+05 -5.349979E+02  4.592542E+02
       157   6  2.233636E+05  1.116845E+05  2.280601E+03  1.582169E+05 -8.713352E+02 -6.360647E+02
       157   7  2.367634E+05  1.211561E+05  5.235390E+03  1.650455E+05 -1.096774E+03  8.768643E+02
       157   8  2.290757E+05  1.173839E+05  3.454783E+03  1.619358E+05 -1.439741E+03 -2.191657E+02
       157   9  2.235283E+05  1.117173E+05  2.305571E+03  1.582619E+05 -1.780648E+03 -1.317902E+03
       157  10  2.099599E+05  1.022057E+05 -1.057571E+03  1.513940E+05  2.085932E-10  3.627201E-10
       157  11  2.155102E+05  1.078769E+05  2.873166E+02  1.550651E+05 -5.734040E-11  6.951413E-11
       157  12  2.231989E+05  1.116517E+05  2.255635E+03  1.581719E+05 -1.128022E-10 -1.319617E-10
       157  13  2.233614E+05  1.116808E+05  2.088872E+03  1.582196E+05  1.511906E-12  5.505100E-11
       157  14  2.222929E+05  1.126304E+05  1.871049E+03  1.585004E+05 -1.835558E-10 -8.164862E-11
       157  15  2.233636E+05  1.116845E+05  2.280599E+03  1.582169E+05 -5.107502E-11 -4.038073E-11
       157  16  2.367634E+05  1.211561E+05  5.235387E+03  1.650455E+05 -2.967631E-10 -2.097711E-10
       157  17  2.290757E+05  1.173839E+05  3.454779E+03  1.619358E+05 -2.777771E-12 -1.942462E-10
       157  18  2.235283E+05  1.117173E+05  2.305562E+03  1.582619E+05  2.826324E-10  8.872872E-11
       157  19  2.099599E+05  1.022057E+05 -1.057561E+03  1.513940E+05 -7.034924E+02 -2.226793E+03
       157  20  2.155102E+05  1.078769E+05  2.873193E+02  1.550651E+05 -3.697322E+02 -1.137664E+03
       157  21  2.231989E+05  1.116517E+05  2.255635E+03  1.581719E+05 -3.799287E+01 -4.578455E+01
       157  22  2.233614E+05  1.116808E+05  2.088877E+03  1.582196E+05  1.966202E+02 -1.551844E+03
       157  23  2.222929E+05  1.126304E+05  1.871050E+03  1.585004E+05  5.349979E+02 -4.592542E+02
       157  24  2.233636E+05  1.116845E+05  2.280601E+03  1.582169E+05  8.713352E+02  6.360647E+02
       157  25  2.367634E+05  1.211561E+05  5.235390E+03  1.650455E+05  1.096774E+03 -8.768643E+02
       157  26  2.290757E+05  1.173839E+05  3.454783E+03  1.619358E+05  1.439741E+03  2.191657E+02
       157  27  2.235283E+05  1.117173E+05  2.305571E+03  1.582619E+05  1.780648E+03  1.317902E+03
       158   1  2.274236E+05  1.148899E+05  3.767079E+03  1.604798E+05 -6.593222E+01 -5.321559E+02
       158   2  2.333860E+05  1.202364E+05  6.994612E+03  1.637747E+05 -1.568025E+03 -2.445661E+03
       158   3  2.421050E+05  1.244687E+05  1.201859E+04  1.662464E+05 -3.133524E+03 -4.274669E+03
       158   4  2.234067E+05  1.116962E+05  2.730912E+03  1.582756E+05 -9.838043E+02 -1.220410E+03
       158   5  2.223206E+05  1.127610E+05  4.354433E+03  1.583178E+05 -2.343798E+03 -3.027374E+03
       158   6  2.239602E+05  1.126809E+05  7.651139E+03  1.575369E+05 -3.767183E+03 -4.749834E+03
       158   7  2.193898E+05  1.085024E+05  1.694748E+03  1.560714E+05 -1.901669E+03 -1.908658E+03
       158   8  2.112552E+05  1.052857E+05  1.714213E+03  1.528611E+05 -3.119560E+03 -3.609078E+03
       158   9  2.058154E+05  1.008930E+05  3.283553E+03  1.488275E+05 -4.400830E+03 -5.224990E+03
       158  10  2.274236E+05  1.148899E+05  3.767078E+03  1.604798E+05 -1.704738E-10  6.301660E-11
       158  11  2.333860E+05  1.202364E+05  6.994596E+03  1.637747E+05 -1.063580E-10  7.421767E-11
       158  12  2.421049E+05  1.244686E+05  1.201854E+04  1.662464E+05 -8.133201E-11  3.112910E-11
       158  13  2.234067E+05  1.116962E+05  2.730907E+03  1.582756E+05 -2.151764E-10  3.579768E-11
       158  14  2.223206E+05  1.127610E+05  4.354406E+03  1.583178E+05  1.390391E-12  3.756161E-12
       158  15  2.239601E+05  1.126809E+05  7.651070E+03  1.575369E+05 -1.932543E-10  1.577567E-11
       158  16  2.193898E+05  1.085024E+05  1.694734E+03  1.560714E+05 -2.181299E-10 -4.550135E-11
       158  17  2.112552E+05  1.052857E+05  1.714171E+03  1.528611E+05 -4.036464E-10 -2.519462E-11
       158  18  2.058154E+05  1.008930E+05  3.283465E+03  1.488275E+05 -7.835276E-11 -1.996420E-11
       158  19  2.274236E+05  1.148899E+05  3.767079E+03  1.604798E+05  6.593222E+01  5.321559E+02
       158  20  2.333860E+05  1.202364E+05  6.994612E+03  1.637747E+05  1.568025E+03  2.445661E+03
       158  21  2.421050E+05  1.244687E+05  1.201859E+04  1.662464E+05  3.133524E+03  4.274669E+03
       158  22  2.234067E+05  1.116962E+05  2.730912E+03  1.582756E+05  9.838043E+02  1.220410E+03
       158  23  2.223206E+05  1.127610E+05  4.354433E+03  1.583178E+05  2.343798E+03  3.027374E+03
       158  24  2.239602E+05  1.126809E+05  7.651139E+03  1.575369E+05  3.767183E+03  4.749834E+03
       158  25  2.193898E+05  1.085024E+05  1.694748E+03  1.560714E+05  1.901669E+03  1.908658E+03
       158  26  2.112552E+05  1.052857E+05  1.714213E+03  1.528611E+05  3.119560E+03  3.609078E+03
       158  27  2.058154E+05  1.008930E+05  3.283553E+03  1.488275E+05  4.400830E+03  5.224990E+03
       159   1  2.446400E+05  1.301646E+05  1.548361E+04  1.700222E+05 -3.863539E+03 -5.252519E+03
       159   2  2.615188E+05  1.278583E+05  2.583556E+04  1.658423E+05 -1.295285E+04 -1.200851E+04
       159   3  2.916868E+05  1.387738E+05  4.856521E+04  1.545951E+05 -2.276262E+04 -1.780372E+04
       159   4  2.245573E+05  1.128214E+05  9.979570E+03  1.583798E+05 -4.606607E+03 -5.809700E+03
       159   5  2.239111E+05  1.167440E+05  1.802311E+04  1.541439E+05 -1.208106E+04 -1.135513E+04
       159   6  2.362040E+05  1.335383E+05  3.704380E+04  1.428408E+05 -2.027567E+04 -1.594004E+04
       159   7  2.044755E+05  9.547896E+04  4.475643E+03  1.467380E+05 -5.349630E+03 -6.366840E+03
       159   8  1.863055E+05  1.056299E+05  1.021074E+04  1.424461E+05 -1.120936E+04 -1.070177E+04
       159   9  1.807254E+05  1.283033E+05  2.552249E+04  1.310869E+05 -1.778905E+04 -1.407635E+04
       159  10  2.446400E+05  1.301645E+05  1.548353E+04  1.700222E+05  7.399655E-11  5.937568E-11
       159  11  2.615186E+05  1.278581E+05  2.583497E+04  1.658421E+05  1.640434E-11 -1.127041E-10
       159  12  2.916861E+05  1.387734E+05  4.856365E+04  1.545947E+05  1.526136E-11 -1.641087E-10
       159  13  2.245573E+05  1.128214E+05  9.979467E+03  1.583798E+05 -1.423803E-11 -4.304581E-11
       159  14  2.239109E+05  1.167438E+05  1.802260E+04  1.541438E+05 -8.297586E-11 -8.629003E-11
       159  15  2.362035E+05  1.335379E+05  3.704255E+04  1.428405E+05  5.734750E-11 -5.323462E-11
       159  16  2.044754E+05  9.547890E+04  4.475513E+03  1.467380E+05 -5.252717E-11 -1.456911E-10
       159  17  1.863053E+05  1.056297E+05  1.021029E+04  1.424460E+05 -2.206135E-10 -1.044584E-10
       159  18  1.807250E+05  1.283030E+05  2.552152E+04  1.310867E+05  1.575636E-10  8.611400E-11
       159  19  2.446400E+05  1.301646E+05  1.548361E+04  1.700222E+05  3.863539E+03  5.252519E+03
       159  20  2.615188E+05  1.278583E+05  2.583556E+04  1.658423E+05  1.295285E+04  1.200851E+04
       159  21  2.916868E+05  1.387738E+05  4.856521E+04  1.545951E+05  2.276262E+04  1.780372E+04
       159  22  2.245573E+05  1.128214E+05  9.979570E+03  1.583798E+05  4.606607E+03  5.809700E+03
       159  23  2.239111E+05  1.167440E+05  1.802311E+04  1.541439E+05  1.208106E+04  1.135513E+04
       159  24  2.362040E+05  1.335383E+05  3.704380E+04  1.428408E+05  2.027567E+04  1.594004E+04
       159  25  2.044755E+05  9.547896E+04  4.475643E+03  1.467380E+05  5.349630E+03  6.366840E+03
       159  26  1.863055E+05  1.056299E+05  1.021074E+04  1.424461E+05  1.120936E+04  1.070177E+04
       159  27  1.807254E+05  1.283033E+05  2.552249E+04  1.310869E+05  1.778905E+04  1.407635E+04
       160   1  3.999846E+05  4.771587E+04  5.125745E+04  3.111529E+04  3.084241E+04 -5.622949E+02
       160   2  3.880994E+05  1.698399E+04  2.725361E+04  1.781620E+04  1.871491E+04 -1.766627E+03
       160   3  3.832303E+05  8.005757E+03  1.658017E+04  6.346356E+03  6.587821E+03 -1.836858E+03
       160   4  3.538867E+05  3.631926E+04  4.035400E+04  8.427744E+03  2.786542E+04 -5.634076E+02
       160   5  3.505471E+05  7.986258E+03  1.980214E+04  7.513332E+03  1.764404E+04 -1.766946E+03
       160   6  3.538929E+05  1.076322E+03  1.125805E+04  8.427697E+03  7.422835E+03 -1.836837E+03
       160   7  3.077918E+05  2.492444E+04  2.945072E+04 -1.425811E+04  2.488865E+04 -5.643030E+02
       160   8  3.129964E+05 -1.011161E+03  1.235066E+04 -2.788901E+03  1.657323E+04 -1.767231E+03
       160   9  3.245564E+05 -5.853144E+03  5.935904E+03  1.050894E+04  8.257811E+03 -1.836810E+03
       160  10  3.999835E+05  4.771561E+04  5.125566E+04  3.111530E+04  1.521377E-10 -5.017404E-11
       160  11  3.880990E+05  1.698389E+04  2.725295E+04  1.781623E+04 -7.403807E-11 -8.965702E-11
       160  12  3.832303E+05  8.005742E+03  1.658008E+04  6.346366E+03  1.023973E-10  3.368592E-11
       160  13  3.538858E+05  3.631905E+04  4.035254E+04  8.427756E+03  3.657659E-12 -1.197237E-11
       160  14  3.505468E+05  7.986171E+03  1.980155E+04  7.513357E+03 -1.288803E-10 -5.250369E-11
       160  15  3.538929E+05  1.076304E+03  1.125794E+04  8.427708E+03  3.133304E-10 -6.145213E-12
       160  16  3.077912E+05  2.492427E+04  2.944955E+04 -1.425810E+04 -2.632405E-10 -5.574184E-12
       160  17  3.129961E+05 -1.011238E+03  1.235014E+04 -2.788878E+03 -4.932019E-10 -8.422087E-12
       160  18  3.245563E+05 -5.853166E+03  5.935770E+03  1.050895E+04 -6.450307E-11 -5.965147E-11
       160  19  3.999846E+05  4.771587E+04  5.125745E+04  3.111529E+04 -3.084241E+04  5.622949E+02
       160  20  3.880994E+05  1.698399E+04  2.725361E+04  1.781620E+04 -1.871491E+04  1.766627E+03
       160  21  3.832303E+05  8.005757E+03  1.658017E+04  6.346356E+03 -6.587821E+03  1.836858E+03
       160  22  3.538867E+05  3.631926E+04  4.035400E+04  8.427744E+03 -2.786542E+04  5.634076E+02
       160  23  3.505471E+05  7.986258E+03  1.980214E+04  7.513332E+03 -1.764404E+04  1.766946E+03
       160  24  3.538929E+05  1.076322E+03  1.125805E+04  8.427697E+03 -7.422835E+03  1.836837E+03
       160  25  3.077918E+05  2.492444E+04  2.945072E+04 -1.425811E+04 -2.488865E+04  5.643030E+02
       160  26  3.129964E+05 -1.011161E+03  1.235066E+04 -2.788901E+03 -1.657323E+04  1.767231E+03
       160  27  3.245564E+05 -5.853144E+03  5.935904E+03  1.050894E+04 -8.257811E+03  1.836810E+03
       161   1  3.763797E+05  7.239934E+03  1.315420E+04  9.161371E+03  5.208485E+03 -1.525841E+03
       161   2  3.676653E+05  3.839787E+03  8.416570E+03  7.771021E+03  2.203813E+03 -1.058663E+03
       161   3  3.596468E+05  1.659190E+03  5.939140E+03  8.281283E+03 -8.008644E+02 -4.979621E+02
       161   4  3.525554E+05  1.620117E+03  8.869609E+03  8.443709E+03  5.915031E+03 -1.525844E+03
       161   5  3.522214E+05  2.119709E+02  5.715138E+03  7.493411E+03  3.067638E+03 -1.058655E+03
       161   6  3.525561E+05 -3.852238E+00  4.711803E+03  8.443729E+03  2.202030E+02 -4.979458E+02
       161   7  3.287317E+05 -3.999729E+03  4.584995E+03  7.726074E+03  6.621551E+03 -1.525849E+03
       161   8  3.367777E+05 -3.415857E+03  3.013702E+03  7.215808E+03  3.931442E+03 -1.058647E+03
       161   9  3.454653E+05 -1.666896E+03  3.484467E+03  8.606173E+03  1.241259E+03 -4.979290E+02
       161  10  3.763797E+05  7.239924E+03  1.315415E+04  9.161378E+03 -1.306947E-10  5.034839E-11
       161  11  3.676653E+05  3.839784E+03  8.416558E+03  7.771023E+03  7.425074E-11  4.073448E-11
       161  12  3.596468E+05  1.659189E+03  5.939138E+03  8.281282E+03  4.514858E-11  1.419042E-10
       161  13  3.525554E+05  1.620106E+03  8.869539E+03  8.443716E+03  4.837066E-12  2.278200E-11
       161  14  3.522214E+05  2.119671E+02  5.715119E+03  7.493414E+03  2.576033E-10  4.495924E-11
       161  15  3.525561E+05 -3.852517E+00  4.711802E+03  8.443729E+03 -2.453701E-10  5.075067E-11
       161  16  3.287317E+05 -3.999743E+03  4.584909E+03  7.726083E+03 -2.684241E-11 -4.579232E-11
       161  17  3.367777E+05 -3.415863E+03  3.013670E+03  7.215812E+03  1.460073E-10  5.020528E-11
       161  18  3.454653E+05 -1.666897E+03  3.484464E+03  8.606174E+03  6.809588E-11 -3.375470E-11
       161  19  3.763797E+05  7.239934E+03  1.315420E+04  9.161371E+03 -5.208485E+03  1.525841E+03
       161  20  3.676653E+05  3.839787E+03  8.416570E+03  7.771021E+03 -2.203813E+03  1.058663E+03
       161  21  3.596468E+05  1.659190E+03  5.939140E+03  8.281283E+03  8.008644E+02  4.979621E+02
       161  22  3.525554E+05  1.620117E+03  8.869609E+03  8.443709E+03 -5.915031E+03  1.525844E+03
       161  23  3.522214E+05  2.119709E+02  5.715138E+03  7.493411E+03 -3.067638E+03  1.058655E+03
       161  24  3.525561E+05 -3.852238E+00  4.711803E+03  8.443729E+03 -2.202030E+02  4.979458E+02
       161  25  3.287317E+05 -3.999729E+03  4.584995E+03  7.726074E+03 -6.621551E+03  1.525849E+03
       161  26  3.367777E+05 -3.415857E+03  3.013702E+03  7.215808E+03 -3.931442E+03  1.058647E+03
       161  27  3.454653E+05 -1.666896E+03  3.484467E+03  8.606173E+03 -1.241259E+03  4.979290E+02
       162   1  3.541952E+05  3.683260E+02  5.035189E+03  8.647417E+03 -1.628031E+03 -1.376836E+02
       162   2  3.454790E+05 -1.344916E+03  4.875601E+03  7.203873E+03 -4.536143E+03  4.316074E+02
       162   3  3.374631E+05 -1.771722E+03  6.930196E+03  7.661888E+03 -7.444223E+03  9.270105E+02
       162   4  3.525678E+05 -8.234784E+00  4.779081E+03  8.443938E+03 -6.090535E+02 -1.376656E+02
       162   5  3.522067E+05  2.419154E+02  6.084691E+03  7.493150E+03 -3.641389E+03  4.316184E+02
       162   6  3.525672E+05  1.800046E+03  9.690684E+03  8.443913E+03 -6.673731E+03  9.270105E+02
       162   7  3.509405E+05 -3.847950E+02  4.522978E+03  8.240459E+03  4.099210E+02 -1.376483E+02
       162   8  3.589344E+05  1.828745E+03  7.293783E+03  7.782431E+03 -2.746627E+03  4.316302E+02
       162   9  3.676715E+05  5.371804E+03  1.245116E+04  9.225958E+03 -5.903220E+03  9.270124E+02
       162  10  3.541952E+05  3.683253E+02  5.035184E+03  8.647416E+03  1.556671E-10  1.845993E-10
       162  11  3.454790E+05 -1.344922E+03  4.875562E+03  7.203874E+03  2.477333E-11  4.802993E-11
       162  12  3.374630E+05 -1.771738E+03  6.930090E+03  7.661893E+03  2.343029E-10 -1.034498E-10
       162  13  3.525678E+05 -8.234904E+00  4.779081E+03  8.443938E+03  1.304335E-10  6.730301E-11
       162  14  3.522067E+05  2.419117E+02  6.084666E+03  7.493151E+03 -7.123097E-11  3.562227E-11
       162  15  3.525671E+05  1.800033E+03  9.690598E+03  8.443918E+03  1.133675E-11 -8.837272E-11
       162  16  3.509405E+05 -3.847951E+02  4.522977E+03  8.240459E+03  2.775566E-11 -4.179961E-11
       162  17  3.589344E+05  1.828743E+03  7.293768E+03  7.782432E+03 -1.088005E-10 -2.209092E-11
       162  18  3.676715E+05  5.371794E+03  1.245110E+04  9.225962E+03 -5.731552E-11 -6.048359E-11
       162  19  3.541952E+05  3.683260E+02  5.035189E+03  8.647417E+03  1.628031E+03  1.376836E+02
       162  20  3.454790E+05 -1.344916E+03  4.875601E+03  7.203873E+03  4.536143E+03 -4.316074E+02
       162  21  3.374631E+05 -1.771722E+03  6.930196E+03  7.661888E+03  7.444223E+03 -9.270105E+02
       162  22  3.525678E+05 -8.234784E+00  4.779081E+03  8.443938E+03  6.090535E+02  1.376656E+02
       162  23  3.522067E+05  2.419154E+02  6.084691E+03  7.493150E+03  3.641389E+03 -4.316184E+02
       162  24  3.525672E+05  1.800046E+03  9.690684E+03  8.443913E+03  6.673731E+03 -9.270105E+02
       162  25  3.509405E+05 -3.847950E+02  4.522978E+03  8.240459E+03 -4.099210E+02  1.376483E+02
       162  26  3.589344E+05  1.828745E+03  7.293783E+03  7.782431E+03  2.746627E+03 -4.316302E+02
       162  27  3.676715E+05  5.371804E+03  1.245116E+04  9.225958E+03  5.903220E+03 -9.270124E+02
       163   1  3.334471E+05 -3.680063E+03  8.590628E+03  1.074700E+04 -9.198447E+03  1.248273E+03
       163   2  3.215012E+05  1.928670E+03  1.611402E+04 -3.899553E+03 -1.893743E+04  1.304426E+03
       163   3  3.166902E+05  3.100656E+04  3.584323E+04 -1.670296E+04 -2.867612E+04  4.304824E+02
       163   4  3.540530E+05  1.196241E+03  1.237457E+04  8.430863E+03 -8.322840E+03  1.248315E+03
       163   5  3.503469E+05  8.851973E+03  2.189618E+04  7.509336E+03 -1.962615E+04  1.304069E+03
       163   6  3.540461E+05  4.024695E+04  4.470901E+04  8.430714E+03 -3.092930E+04  4.293153E+02
       163   7  3.746593E+05  6.072541E+03  1.615849E+04  6.114650E+03 -7.447204E+03  1.248351E+03
       163   8  3.791936E+05  1.577571E+04  2.767838E+04  1.891877E+04 -2.031490E+04  1.303686E+03
       163   9  3.914046E+05  4.948962E+04  5.357505E+04  3.356591E+04 -3.318261E+04  4.279659E+02
       163  10  3.334470E+05 -3.680087E+03  8.590466E+03  1.074701E+04  1.226365E-10 -1.490783E-10
       163  11  3.215008E+05  1.928572E+03  1.611334E+04 -3.899533E+03  5.457096E-11 -1.258440E-10
       163  12  3.166893E+05  3.100634E+04  3.584168E+04 -1.670295E+04 -9.433777E-11 -4.508806E-11
       163  13  3.540529E+05  1.196221E+03  1.237443E+04  8.430871E+03 -2.487729E-10 -1.457054E-10
       163  14  3.503465E+05  8.851868E+03  2.189546E+04  7.509357E+03  2.019626E-10 -1.324095E-10
       163  15  3.540451E+05  4.024669E+04  4.470721E+04  8.430725E+03 -1.305984E-10 -4.689363E-11
       163  16  3.746592E+05  6.072525E+03  1.615838E+04  6.114657E+03 -2.221002E-11 -1.404021E-10
       163  17  3.791932E+05  1.577560E+04  2.767760E+04  1.891879E+04 -9.764481E-11 -1.508050E-10
       163  18  3.914034E+05  4.948932E+04  5.357298E+04  3.356592E+04  2.684939E-10 -3.717390E-11
       163  19  3.334471E+05 -3.680063E+03  8.590628E+03  1.074700E+04  9.198447E+03 -1.248273E+03
       163  20  3.215012E+05  1.928670E+03  1.611402E+04 -3.899553E+03  1.893743E+04 -1.304426E+03
       163  21  3.166902E+05  3.100656E+04  3.584323E+04 -1.670296E+04  2.867612E+04 -4.304824E+02
       163  22  3.540530E+05  1.196241E+03  1.237457E+04  8.430863E+03  8.322840E+03 -1.248315E+03
       163  23  3.503469E+05  8.851973E+03  2.189618E+04  7.509336E+03  1.962615E+04 -1.304069E+03
       163  24  3.540461E+05  4.024695E+04  4.470901E+04  8.430714E+03  3.092930E+04 -4.293153E+02
       163  25  3.746593E+05  6.072541E+03  1.615849E+04  6.114650E+03  7.447204E+03 -1.248351E+03
       163  26  3.791936E+05  1.577571E+04  2.767838E+04  1.891877E+04  2.031490E+04 -1.303686E+03
       163  27  3.914046E+05  4.948962E+04  5.357505E+04  3.356591E+04  3.318261E+04 -4.279659E+02
       164   1 -6.243136E+04 -1.481882E+05 -6.694994E+04  3.919889E+04 -8.448309E+02 -3.897058E+04
       164   2 -2.347260E+04 -1.333599E+05 -3.684594E+04  2.238868E+04 -2.689364E+03 -2.293327E+04
       164   3 -1.220817E+04 -1.275438E+05 -2.410769E+04  7.814607E+03 -2.915126E+03 -6.895412E+03
       164   4 -4.602582E+04 -8.182317E+04 -5.127735E+04  1.037667E+04 -8.428284E+02 -3.451108E+04
       164   5 -1.010873E+04 -7.755223E+04 -2.583219E+04  9.257149E+03 -2.688770E+03 -2.119285E+04
       164   6 -1.413325E+03 -8.182109E+04 -1.586341E+04  1.037444E+04 -2.915197E+03 -7.874459E+03
       164   7 -2.961746E+04 -1.545231E+04 -3.560454E+04 -1.844865E+04 -8.412402E+02 -3.005111E+04
       164   8  3.255596E+03 -2.174116E+04 -1.481849E+04 -3.875589E+03 -2.688250E+03 -1.945228E+04
       164   9  9.381424E+03 -3.609627E+04 -7.619211E+03  1.293447E+04 -2.915276E+03 -8.853575E+03
       164  10 -6.243177E+04 -1.481898E+05 -6.695280E+04  3.919886E+04  1.601787E-10  7.458179E-10
       164  11 -2.347275E+04 -1.333605E+05 -3.684694E+04  2.238863E+04  7.999272E-10  1.028331E-09
       164  12 -1.220819E+04 -1.275439E+05 -2.410780E+04  7.814590E+03  1.263203E-09  1.395156E-09
       164  13 -4.602614E+04 -8.182445E+04 -5.127959E+04  1.037665E+04  4.073147E-10  3.377396E-11
       164  14 -1.010886E+04 -7.755272E+04 -2.583305E+04  9.257104E+03  8.463328E-10 -1.040313E-12
       164  15 -1.413351E+03 -8.182116E+04 -1.586355E+04  1.037442E+04  9.467080E-10 -2.588910E-11
       164  16 -2.961770E+04 -1.545328E+04 -3.560624E+04 -1.844867E+04  1.562653E-10 -7.699566E-10
       164  17  3.255487E+03 -2.174157E+04 -1.481921E+04 -3.875631E+03  5.534537E-10 -9.834246E-10
       164  18  9.381393E+03 -3.609636E+04 -7.619374E+03  1.293445E+04  9.872024E-10 -1.370052E-09
       164  19 -6.243136E+04 -1.481882E+05 -6.694994E+04  3.919889E+04  8.448309E+02  3.897058E+04
       164  20 -2.347260E+04 -1.333599E+05 -3.684594E+04  2.238868E+04  2.689364E+03  2.293327E+04
       164  21 -1.220817E+04 -1.275438E+05 -2.410769E+04  7.814607E+03  2.915126E+03  6.895412E+03
       164  22 -4.602582E+04 -8.182317E+04 -5.127735E+04  1.037667E+04  8.428284E+02  3.451108E+04
       164  23 -1.010873E+04 -7.755223E+04 -2.583219E+04  9.257149E+03  2.688770E+03  2.119285E+04
       164  24 -1.413325E+03 -8.182109E+04 -1.586341E+04  1.037444E+04  2.915197E+03  7.874459E+03
       164  25 -2.961746E+04 -1.545231E+04 -3.560454E+04 -1.844865E+04  8.412402E+02  3.005111E+04
       164  26  3.255596E+03 -2.174116E+04 -1.481849E+04 -3.875589E+03  2.688250E+03  1.945228E+04
       164  27  9.381424E+03 -3.609627E+04 -7.619211E+03  1.293447E+04  2.915276E+03  8.853575E+03
       165   1 -1.123331E+04 -1.191630E+05 -2.037212E+04  1.157888E+04 -2.543927E+03 -4.843612E+03
       165   2 -7.336262E+03 -1.081158E+05 -1.616700E+04  9.227990E+03 -2.009968E+03  9.531276E+02
       165   3 -6.320707E+03 -9.854387E+04 -1.645661E+04  9.217150E+03 -1.357517E+03  6.749939E+03
       165   4 -2.058949E+03 -8.024363E+04 -1.342315E+04  1.039762E+04 -2.543957E+03 -5.640560E+03
       165   5 -6.270217E+02 -7.952309E+04 -1.121649E+04  9.227574E+03 -2.010031E+03 -4.262449E+01
       165   6 -2.041981E+03 -8.024344E+04 -1.336632E+04  1.039760E+04 -1.357592E+03  5.555292E+03
       165   7  7.115335E+03 -4.132278E+04 -6.474245E+03  9.216274E+03 -2.543984E+03 -6.437556E+03
       165   8  6.082175E+03 -5.092963E+04 -6.266008E+03  9.227158E+03 -2.010093E+03 -1.038421E+03
       165   9  2.236733E+03 -6.194267E+04 -1.027604E+04  1.157808E+04 -1.357673E+03  4.360610E+03
       165  10 -1.123333E+04 -1.191630E+05 -2.037217E+04  1.157887E+04  1.066168E-09 -4.211482E-09
       165  11 -7.336266E+03 -1.081158E+05 -1.616701E+04  9.227991E+03  4.829587E-10  1.064387E-08
       165  12 -6.320721E+03 -9.854392E+04 -1.645670E+04  9.217158E+03 -5.936014E-10  2.422797E-08
       165  13 -2.058965E+03 -8.024367E+04 -1.342323E+04  1.039760E+04  1.075562E-09  6.491523E-11
       165  14 -6.270260E+02 -7.952309E+04 -1.121650E+04  9.227574E+03  3.789367E-10  9.788223E-12
       165  15 -2.041992E+03 -8.024347E+04 -1.336638E+04  1.039760E+04 -7.144119E-10 -3.255730E-11
       165  16  7.115317E+03 -4.132282E+04 -6.474335E+03  9.216261E+03  9.711460E-10  4.170271E-09
       165  17  6.082170E+03 -5.092963E+04 -6.266018E+03  9.227157E+03  2.823676E-10 -1.056500E-08
       165  18  2.236726E+03 -6.194269E+04 -1.027608E+04  1.157809E+04 -9.183249E-10 -2.418909E-08
       165  19 -1.123331E+04 -1.191630E+05 -2.037212E+04  1.157888E+04  2.543927E+03  4.843612E+03
       165  20 -7.336262E+03 -1.081158E+05 -1.616700E+04  9.227990E+03  2.009968E+03 -9.531276E+02
       165  21 -6.320707E+03 -9.854387E+04 -1.645661E+04  9.217150E+03  1.357517E+03 -6.749939E+03
       165  22 -2.058949E+03 -8.024363E+04 -1.342315E+04  1.039762E+04  2.543957E+03  5.640560E+03
       165  23 -6.270217E+02 -7.952309E+04 -1.121649E+04  9.227574E+03  2.010031E+03  4.262449E+01
       165  24 -2.041981E+03 -8.024344E+04 -1.336632E+04  1.039760E+04  1.357592E+03 -5.555292E+03
       165  25  7.115335E+03 -4.132278E+04 -6.474245E+03  9.216274E+03  2.543984E+03  6.437556E+03
       165  26  6.082175E+03 -5.092963E+04 -6.266008E+03  9.227158E+03  2.010093E+03  1.038421E+03
       165  27  2.236733E+03 -6.194267E+04 -1.027604E+04  1.157808E+04  1.357673E+03 -4.360610E+03
       166   1 -4.088826E+03 -9.336312E+04 -1.765271E+04  1.293037E+04 -9.237133E+02  8.990297E+03
       166   2 -1.027642E+04 -7.885356E+04 -2.559321E+04 -3.802224E+03 -3.407103E+02  2.174646E+04
       166   3 -4.339168E+04 -7.273708E+04 -4.857069E+04 -1.820286E+04 -3.558528E+01  3.450264E+04
       166   4 -1.402039E+03 -8.180627E+04 -1.577442E+04  1.039536E+04 -9.238439E+02  7.778975E+03
       166   5 -1.002807E+04 -7.756978E+04 -2.564588E+04  9.231014E+03 -3.403118E+02  2.100085E+04
       166   6 -4.566355E+04 -8.180796E+04 -5.087797E+04  1.039845E+04 -3.401783E+01  3.422256E+04
       166   7  1.284767E+03 -7.024927E+04 -1.389612E+04  7.860297E+03 -9.239647E+02  6.567630E+03
       166   8 -9.779088E+03 -7.628564E+04 -2.569845E+04  2.226428E+04 -3.399447E+02  2.025525E+04
       166   9 -4.793236E+04 -9.087700E+04 -5.318481E+04  3.899935E+04 -3.247617E+01  3.394247E+04
       166  10 -4.088849E+03 -9.336320E+04 -1.765286E+04  1.293037E+04 -1.154463E-09  6.645861E-09
       166  11 -1.027655E+04 -7.885407E+04 -2.559410E+04 -3.802218E+03 -1.076772E-09 -8.333825E-09
       166  12 -4.339200E+04 -7.273836E+04 -4.857293E+04 -1.820286E+04 -4.133591E-10 -2.166401E-08
       166  13 -1.402056E+03 -8.180633E+04 -1.577453E+04  1.039536E+04 -1.110616E-09  5.147068E-11
       166  14 -1.002819E+04 -7.757026E+04 -2.564671E+04  9.231020E+03 -1.100060E-09  1.739798E-13
       166  15 -4.566387E+04 -8.180922E+04 -5.088017E+04  1.039845E+04 -3.475145E-10 -4.852043E-11
       166  16  1.284755E+03 -7.024932E+04 -1.389620E+04  7.860302E+03 -1.353734E-09 -6.701541E-09
       166  17 -9.779198E+03 -7.628608E+04 -2.569923E+04  2.226429E+04 -1.236699E-09  8.414362E-09
       166  18 -4.793267E+04 -9.087824E+04 -5.318697E+04  3.899935E+04 -3.385794E-10  2.171905E-08
       166  19 -4.088826E+03 -9.336312E+04 -1.765271E+04  1.293037E+04  9.237133E+02 -8.990297E+03
       166  20 -1.027642E+04 -7.885356E+04 -2.559321E+04 -3.802224E+03  3.407103E+02 -2.174646E+04
       166  21 -4.339168E+04 -7.273708E+04 -4.857069E+04 -1.820286E+04  3.558528E+01 -3.450264E+04
       166  22 -1.402039E+03 -8.180627E+04 -1.577442E+04  1.039536E+04  9.238439E+02 -7.778975E+03
       166  23 -1.002807E+04 -7.756978E+04 -2.564588E+04  9.231014E+03  3.403118E+02 -2.100085E+04
       166  24 -4.566355E+04 -8.180796E+04 -5.087797E+04  1.039845E+04  3.401783E+01 -3.422256E+04
       166  25  1.284767E+03 -7.024927E+04 -1.389612E+04  7.860297E+03  9.239647E+02 -6.567630E+03
       166  26 -9.779088E+03 -7.628564E+04 -2.569845E+04  2.226428E+04  3.399447E+02 -2.025525E+04
       166  27 -4.793236E+04 -9.087700E+04 -5.318481E+04  3.899935E+04  3.247617E+01 -3.394247E+04
       167   1  7.426902E+04  2.221345E+04 -1.287616E+04  5.784428E+04 -1.199134E+03  4.744898E+02
       167   2  8.267470E+04  2.499749E+04 -1.073292E+04  6.430448E+04 -1.331677E+03  3.403316E+03
       167   3  9.535652E+04  2.746455E+04 -8.829703E+03  6.867908E+04 -2.054454E+02  4.653810E+03
       167   4  1.410275E+05  6.279857E+04  7.435638E+03  8.777524E+04  3.467894E+03  3.974405E+03
       167   5  1.374153E+05  6.057252E+04  3.629798E+03  9.037761E+04  5.151972E+02  4.788261E+03
       167   6  1.386904E+05  5.864123E+04  2.031298E+03  9.089431E+04 -1.178838E+03  3.923840E+03
       167   7  2.077920E+05  1.033860E+05  2.774744E+04  1.177101E+05  8.135694E+03  7.474802E+03
       167   8  1.921593E+05  9.614898E+04  1.799227E+04  1.164533E+05  2.362292E+03  6.173353E+03
       167   9  1.820258E+05  8.981852E+04  1.289190E+04  1.131110E+05 -2.152305E+03  3.193812E+03
       167  10  7.426902E+04  2.221345E+04 -1.287617E+04  5.784428E+04 -1.333420E-10  5.154212E-11
       167  11  8.267469E+04  2.499748E+04 -1.073294E+04  6.430448E+04 -1.315613E-10  1.548724E-11
       167  12  9.535651E+04  2.746453E+04 -8.829744E+03  6.867908E+04 -1.943343E-10  2.189055E-11
       167  13  1.410275E+05  6.279855E+04  7.435585E+03  8.777523E+04  1.899221E-10 -1.402248E-11
       167  14  1.374153E+05  6.057250E+04  3.629754E+03  9.037761E+04 -1.165541E-10 -1.477351E-11
       167  15  1.386904E+05  5.864121E+04  2.031266E+03  9.089431E+04 -4.034826E-11  8.959341E-11
       167  16  2.077919E+05  1.033860E+05  2.774721E+04  1.177100E+05 -5.039109E-11 -4.851014E-11
       167  17  1.921593E+05  9.614893E+04  1.799219E+04  1.164533E+05  3.698385E-11 -2.313085E-11
       167  18  1.820258E+05  8.981851E+04  1.289187E+04  1.131110E+05  9.551570E-12  1.368933E-10
       167  19  7.426902E+04  2.221345E+04 -1.287616E+04  5.784428E+04  1.199134E+03 -4.744898E+02
       167  20  8.267470E+04  2.499749E+04 -1.073292E+04  6.430448E+04  1.331677E+03 -3.403316E+03
       167  21  9.535652E+04  2.746455E+04 -8.829703E+03  6.867908E+04  2.054454E+02 -4.653810E+03
       167  22  1.410275E+05  6.279857E+04  7.435638E+03  8.777524E+04 -3.467894E+03 -3.974405E+03
       167  23  1.374153E+05  6.057252E+04  3.629798E+03  9.037761E+04 -5.151972E+02 -4.788261E+03
       167  24  1.386904E+05  5.864123E+04  2.031298E+03  9.089431E+04  1.178838E+03 -3.923840E+03
       167  25  2.077920E+05  1.033860E+05  2.774744E+04  1.177101E+05 -8.135694E+03 -7.474802E+03
       167  26  1.921593E+05  9.614898E+04  1.799227E+04  1.164533E+05 -2.362292E+03 -6.173353E+03
       167  27  1.820258E+05  8.981852E+04  1.289190E+04  1.131110E+05  2.152305E+03 -3.193812E+03
       168   1  1.009370E+05  3.225900E+04 -7.666234E+03  7.175484E+04 -3.350084E+02  3.980419E+03
       168   2  1.088449E+05  4.001061E+04 -5.809747E+03  7.695400E+04 -5.788470E+01  3.345188E+03
       168   3  1.196529E+05  4.507684E+04 -3.810773E+03  8.128864E+04  3.303840E+02  2.561713E+03
       168   4  1.385963E+05  5.858772E+04  1.574576E+03  9.071793E+04 -1.117103E+03  3.393917E+03
       168   5  1.370635E+05  5.980405E+04  9.444852E+02  9.122491E+04 -1.089108E+03  2.571891E+03
       168   6  1.384847E+05  5.838892E+04  6.730423E+02  9.086726E+04 -9.499694E+02  1.601621E+03
       168   7  1.762573E+05  8.491731E+04  1.081530E+04  1.096824E+05 -1.899262E+03  2.807367E+03
       168   8  1.652833E+05  7.959817E+04  7.698764E+03  1.054967E+05 -2.120403E+03  1.798540E+03
       168   9  1.573172E+05  7.170147E+04  5.156964E+03  1.004464E+05 -2.230398E+03  6.414721E+02
       168  10  1.009370E+05  3.225898E+04 -7.666264E+03  7.175484E+04 -7.352688E-11  1.477961E-10
       168  11  1.088449E+05  4.001059E+04 -5.809768E+03  7.695400E+04 -8.324148E-11  8.112333E-12
       168  12  1.196528E+05  4.507683E+04 -3.810785E+03  8.128864E+04 -2.267986E-10 -1.213838E-11
       168  13  1.385963E+05  5.858771E+04  1.574552E+03  9.071793E+04  5.285722E-11  9.536734E-11
       168  14  1.370635E+05  5.980405E+04  9.444705E+02  9.122491E+04  1.905269E-10  1.140639E-10
       168  15  1.384847E+05  5.838891E+04  6.730358E+02  9.086726E+04 -1.831135E-10  1.072798E-10
       168  16  1.762573E+05  8.491730E+04  1.081527E+04  1.096824E+05 -1.708746E-10  7.634722E-11
       168  17  1.652833E+05  7.959817E+04  7.698749E+03  1.054967E+05 -2.481978E-10  1.961391E-10
       168  18  1.573172E+05  7.170146E+04  5.156954E+03  1.004464E+05 -8.085436E-11  1.467269E-10
       168  19  1.009370E+05  3.225900E+04 -7.666234E+03  7.175484E+04  3.350084E+02 -3.980419E+03
       168  20  1.088449E+05  4.001061E+04 -5.809747E+03  7.695400E+04  5.788470E+01 -3.345188E+03
       168  21  1.196529E+05  4.507684E+04 -3.810773E+03  8.128864E+04 -3.303840E+02 -2.561713E+03
       168  22  1.385963E+05  5.858772E+04  1.574576E+03  9.071793E+04  1.117103E+03 -3.393917E+03
       168  23  1.370635E+05  5.980405E+04  9.444852E+02  9.122491E+04  1.089108E+03 -2.571891E+03
       168  24  1.384847E+05  5.838892E+04  6.730423E+02  9.086726E+04  9.499694E+02 -1.601621E+03
       168  25  1.762573E+05  8.491731E+04  1.081530E+04  1.096824E+05  1.899262E+03 -2.807367E+03
       168  26  1.652833E+05  7.959817E+04  7.698764E+03  1.054967E+05  2.120403E+03 -1.798540E+03
       168  27  1.573172E+05  7.170147E+04  5.156964E+03  1.004464E+05  2.230398E+03 -6.414721E+02
       169   1  1.257016E+05  4.940050E+04 -2.371639E+03  8.437325E+04  5.581088E+02  2.034209E+03
       169   2  1.335803E+05  5.736350E+04 -1.436506E+02  8.951391E+04  8.623385E+02  1.085471E+03
       169   3  1.443200E+05  6.255073E+04  2.304925E+03  9.384071E+04  1.167599E+03  1.353388E+02
       169   4  1.384802E+05  5.838535E+04  6.229995E+02  9.085750E+04 -7.065532E+02  1.085893E+03
       169   5  1.370510E+05  5.977579E+04  6.640789E+02  9.126222E+04 -4.046673E+02  1.354080E+02
       169   6  1.384834E+05  5.839108E+04  9.278491E+02  9.085310E+04 -1.017454E+02 -8.164712E+02
       169   7  1.512588E+05  6.737013E+04  3.617556E+03  9.734178E+04 -1.971227E+03  1.375671E+02
       169   8  1.405217E+05  6.218807E+04  1.471806E+03  9.301052E+04 -1.671671E+03 -8.146530E+02
       169   9  1.326469E+05  5.423146E+04 -4.492184E+02  8.786553E+04 -1.371073E+03 -1.768268E+03
       169  10  1.257016E+05  4.940050E+04 -2.371647E+03  8.437325E+04  3.095254E-11  6.967487E-11
       169  11  1.335803E+05  5.736350E+04 -1.436543E+02  8.951391E+04 -1.331443E-10  1.686428E-11
       169  12  1.443200E+05  6.255073E+04  2.304923E+03  9.384071E+04 -3.129584E-10 -1.076390E-11
       169  13  1.384802E+05  5.838535E+04  6.229964E+02  9.085750E+04  3.307210E-11 -8.737073E-12
       169  14  1.370510E+05  5.977579E+04  6.640786E+02  9.126222E+04  1.808042E-11 -1.665583E-10
       169  15  1.384834E+05  5.839108E+04  9.278478E+02  9.085310E+04 -1.845294E-10 -7.562183E-11
       169  16  1.512588E+05  6.737013E+04  3.617549E+03  9.734179E+04 -2.197075E-10  6.584468E-11
       169  17  1.405217E+05  6.218807E+04  1.471799E+03  9.301052E+04  1.459323E-10 -3.712961E-12
       169  18  1.326469E+05  5.423145E+04 -4.492278E+02  8.786552E+04 -1.112783E-10 -9.560545E-11
       169  19  1.257016E+05  4.940050E+04 -2.371639E+03  8.437325E+04 -5.581088E+02 -2.034209E+03
       169  20  1.335803E+05  5.736350E+04 -1.436506E+02  8.951391E+04 -8.623385E+02 -1.085471E+03
       169  21  1.443200E+05  6.255073E+04  2.304925E+03  9.384071E+04 -1.167599E+03 -1.353388E+02
       169  22  1.384802E+05  5.838535E+04  6.229995E+02  9.085750E+04  7.065532E+02 -1.085893E+03
       169  23  1.370510E+05  5.977579E+04  6.640789E+02  9.126222E+04  4.046673E+02 -1.354080E+02
       169  24  1.384834E+05  5.839108E+04  9.278491E+02  9.085310E+04  1.017454E+02  8.164712E+02
       169  25  1.512588E+05  6.737013E+04  3.617556E+03  9.734178E+04  1.971227E+03 -1.375671E+02
       169  26  1.405217E+05  6.218807E+04  1.471806E+03  9.301052E+04  1.671671E+03  8.146530E+02
       169  27  1.326469E+05  5.423146E+04 -4.492184E+02  8.786553E+04  1.371073E+03  1.768268E+03
       170   1  1.503560E+05  6.691912E+04  4.022142E+03  9.697356E+04  1.370760E+03 -4.116883E+02
       170   2  1.584095E+05  7.472555E+04  7.049812E+03  1.019345E+05  9.021155E+02 -1.852636E+03
       170   3  1.696429E+05  8.016143E+04  1.101378E+04  1.059674E+05  3.342397E+02 -3.161308E+03
       170   4  1.385029E+05  5.839816E+04  1.157413E+03  9.088182E+04  8.767186E+01 -1.373813E+03
       170   5  1.370619E+05  5.982986E+04  1.927178E+03  9.117904E+04 -1.586253E+02 -2.648056E+03
       170   6  1.387525E+05  5.884258E+04  3.440277E+03  9.054805E+04 -5.041234E+02 -3.789988E+03
       170   7  1.266498E+05  4.987714E+04 -1.707390E+03  8.479012E+04 -1.195406E+03 -2.335928E+03
       170   8  1.157149E+05  4.493445E+04 -3.195481E+03  8.042403E+04 -1.219317E+03 -3.443440E+03
       170   9  1.078637E+05  3.752466E+04 -4.133103E+03  7.512990E+04 -1.342416E+03 -4.418616E+03
       170  10  1.503560E+05  6.691912E+04  4.022139E+03  9.697356E+04 -2.017140E-10  3.177269E-11
       170  11  1.584095E+05  7.472555E+04  7.049804E+03  1.019345E+05  2.616658E-10  8.870569E-11
       170  12  1.696429E+05  8.016142E+04  1.101376E+04  1.059674E+05  1.195184E-10  1.123621E-10
       170  13  1.385029E+05  5.839816E+04  1.157409E+03  9.088182E+04  9.966142E-11 -1.275969E-11
       170  14  1.370619E+05  5.982986E+04  1.927164E+03  9.117904E+04 -1.972319E-11  5.606651E-11
       170  15  1.387525E+05  5.884257E+04  3.440250E+03  9.054805E+04  1.471532E-10 -3.315467E-11
       170  16  1.266498E+05  4.987713E+04 -1.707403E+03  8.479012E+04  1.782722E-10  8.229556E-11
       170  17  1.157149E+05  4.493444E+04 -3.195506E+03  8.042403E+04 -2.167392E-10  6.981406E-11
       170  18  1.078637E+05  3.752464E+04 -4.133143E+03  7.512990E+04 -2.603490E-10  1.181653E-11
       170  19  1.503560E+05  6.691912E+04  4.022142E+03  9.697356E+04 -1.370760E+03  4.116883E+02
       170  20  1.584095E+05  7.472555E+04  7.049812E+03  1.019345E+05 -9.021155E+02  1.852636E+03
       170  21  1.696429E+05  8.016143E+04  1.101378E+04  1.059674E+05 -3.342397E+02  3.161308E+03
       170  22  1.385029E+05  5.839816E+04  1.157413E+03  9.088182E+04 -8.767186E+01  1.373813E+03
       170  23  1.370619E+05  5.982986E+04  1.927178E+03  9.117904E+04  1.586253E+02  2.648056E+03
       170  24  1.387525E+05  5.884258E+04  3.440277E+03  9.054805E+04  5.041234E+02  3.789988E+03
       170  25  1.266498E+05  4.987714E+04 -1.707390E+03  8.479012E+04  1.195406E+03  2.335928E+03
       170  26  1.157149E+05  4.493445E+04 -3.195481E+03  8.042403E+04  1.219317E+03  3.443440E+03
       170  27  1.078637E+05  3.752466E+04 -4.133103E+03  7.512990E+04  1.342416E+03  4.418616E+03
       171   1  1.749418E+05  8.570169E+04  1.367968E+04  1.097847E+05  3.180313E+02 -3.763894E+03
       171   2  1.879166E+05  9.002178E+04  2.069048E+04  1.112099E+05 -5.684847E+03 -8.031649E+03
       171   3  2.091167E+05  9.890295E+04  3.485919E+04  1.089040E+05 -1.281317E+04 -1.079907E+04
       171   4  1.390050E+05  5.892463E+04  4.501735E+03  9.093583E+04 -6.913017E+02 -4.520787E+03
       171   5  1.378039E+05  6.160887E+04  8.154558E+03  8.928274E+04 -4.172296E+03 -6.897510E+03
       171   6  1.442810E+05  6.830766E+04  1.677719E+04  8.389831E+04 -8.778600E+03 -7.773821E+03
       171   7  1.030697E+05  3.214843E+04 -4.676311E+03  7.208827E+04 -1.700557E+03 -5.277618E+03
       171   8  8.769350E+04  3.319654E+04 -4.381689E+03  6.735718E+04 -2.659897E+03 -5.763454E+03
       171   9  7.944885E+04  3.771266E+04 -1.305407E+03  5.889462E+04 -4.744545E+03 -4.748761E+03
       171  10  1.749418E+05  8.570168E+04  1.367965E+04  1.097847E+05  7.961078E-11  1.237074E-11
       171  11  1.879166E+05  9.002170E+04  2.069030E+04  1.112099E+05 -1.365384E-10 -5.018692E-11
       171  12  2.091165E+05  9.890278E+04  3.485866E+04  1.089038E+05  2.141216E-11 -1.817107E-11
       171  13  1.390050E+05  5.892461E+04  4.501696E+03  9.093583E+04  2.062600E-10 -4.166931E-12
       171  14  1.378038E+05  6.160881E+04  8.154436E+03  8.928272E+04 -3.804487E-10  2.269774E-11
       171  15  1.442809E+05  6.830757E+04  1.677694E+04  8.389825E+04 -1.084610E-11 -4.047686E-12
       171  16  1.030697E+05  3.214840E+04 -4.676369E+03  7.208827E+04 -3.473860E-10  6.478312E-11
       171  17  8.769348E+04  3.319650E+04 -4.381764E+03  6.735717E+04 -8.408046E-11  4.297165E-11
       171  18  7.944882E+04  3.771263E+04 -1.305491E+03  5.889460E+04 -2.131373E-11  8.629912E-12
       171  19  1.749418E+05  8.570169E+04  1.367968E+04  1.097847E+05 -3.180313E+02  3.763894E+03
       171  20  1.879166E+05  9.002178E+04  2.069048E+04  1.112099E+05  5.684847E+03  8.031649E+03
       171  21  2.091167E+05  9.890295E+04  3.485919E+04  1.089040E+05  1.281317E+04  1.079907E+04
       171  22  1.390050E+05  5.892463E+04  4.501735E+03  9.093583E+04  6.913017E+02  4.520787E+03
       171  23  1.378039E+05  6.160887E+04  8.154558E+03  8.928274E+04  4.172296E+03  6.897510E+03
       171  24  1.442810E+05  6.830766E+04  1.677719E+04  8.389831E+04  8.778600E+03  7.773821E+03
       171  25  1.030697E+05  3.214843E+04 -4.676311E+03  7.208827E+04  1.700557E+03  5.277618E+03
       171  26  8.769350E+04  3.319654E+04 -4.381689E+03  6.735718E+04  2.659897E+03  5.763454E+03
       171  27  7.944885E+04  3.771266E+04 -1.305407E+03  5.889462E+04  4.744545E+03  4.748761E+03
       172   1  3.961865E+05  5.316342E+04  5.585449E+04  3.781421E+04  2.998517E+04 -9.981920E+02
       172   2  3.753191E+05  2.313512E+04  3.087004E+04  2.491082E+04  1.741291E+04 -3.076710E+03
       172   3  3.609853E+05  1.269804E+04  1.896506E+04  1.586984E+04  4.840907E+03 -3.051556E+03
       172   4  3.113246E+05  3.217399E+04  3.574085E+04  1.771947E+04  2.472364E+04 -9.992750E+02
       172   5  3.083670E+05  7.076129E+03  1.750455E+04  1.578877E+04  1.568764E+04 -3.077045E+03
       172   6  3.113301E+05  9.567460E+02  9.893991E+03  1.772025E+04  6.651539E+03 -3.051483E+03
       172   7  2.264703E+05  1.118557E+04  1.562704E+04 -2.372504E+03  1.946284E+04 -1.000018E+03
       172   8  2.414194E+05 -8.982825E+03  4.138893E+03  6.667721E+03  1.396256E+04 -3.077329E+03
       172   9  2.616773E+05 -1.078468E+04  8.228382E+02  1.957052E+04  8.462029E+03 -3.051399E+03
       172  10  3.961855E+05  5.316318E+04  5.585280E+04  3.781423E+04  9.900379E-11 -4.496181E-11
       172  11  3.753188E+05  2.313503E+04  3.086945E+04  2.491086E+04  2.940611E-10 -7.222574E-12
       172  12  3.609853E+05  1.269803E+04  1.896500E+04  1.586985E+04  1.018679E-12  2.634392E-11
       172  13  3.113240E+05  3.217382E+04  3.573970E+04  1.771949E+04  1.790846E-10 -2.979158E-11
       172  14  3.083668E+05  7.076052E+03  1.750407E+04  1.578881E+04  4.234082E-11 -4.175773E-11
       172  15  3.113301E+05  9.567241E+02  9.893890E+03  1.772027E+04 -1.046823E-10  2.912616E-12
       172  16  2.264699E+05  1.118546E+04  1.562633E+04 -2.372488E+03 -4.241127E-11 -5.682802E-11
       172  17  2.414192E+05 -8.982888E+03  4.138509E+03  6.667755E+03  2.772317E-10 -5.334542E-11
       172  18  2.616773E+05 -1.078471E+04  8.226862E+02  1.957054E+04  2.685698E-10  8.982911E-11
       172  19  3.961865E+05  5.316342E+04  5.585449E+04  3.781421E+04 -2.998517E+04  9.981920E+02
       172  20  3.753191E+05  2.313512E+04  3.087004E+04  2.491082E+04 -1.741291E+04  3.076710E+03
       172  21  3.609853E+05  1.269804E+04  1.896506E+04  1.586984E+04 -4.840907E+03  3.051556E+03
       172  22  3.113246E+05  3.217399E+04  3.574085E+04  1.771947E+04 -2.472364E+04  9.992750E+02
       172  23  3.083670E+05  7.076129E+03  1.750455E+04  1.578877E+04 -1.568764E+04  3.077045E+03
       172  24  3.113301E+05  9.567460E+02  9.893991E+03  1.772025E+04 -6.651539E+03  3.051483E+03
       172  25  2.264703E+05  1.118557E+04  1.562704E+04 -2.372504E+03 -1.946284E+04  1.000018E+03
       172  26  2.414194E+05 -8.982825E+03  4.138893E+03  6.667721E+03 -1.396256E+04  3.077329E+03
       172  27  2.616773E+05 -1.078468E+04  8.228382E+02  1.957052E+04 -8.462029E+03  3.051399E+03
       173   1  3.482276E+05  1.043600E+04  1.465924E+04  1.837615E+04  3.760206E+03 -2.383840E+03
       173   2  3.303337E+05  5.014030E+03  8.495133E+03  1.598430E+04  1.048945E+03 -1.363351E+03
       173   3  3.130667E+05  6.875388E+02  4.369262E+03  1.758775E+04 -1.662257E+03 -1.732913E+02
       173   4  3.101425E+05  1.439738E+03  7.749122E+03  1.774979E+04  5.332881E+03 -2.383780E+03
       173   5  3.098542E+05  1.942426E+02  4.868375E+03  1.575218E+04  2.906720E+03 -1.363261E+03
       173   6  3.101431E+05 -5.195323E+00  3.828055E+03  1.774986E+04  4.805452E+02 -1.731711E+02
       173   7  2.720588E+05 -7.556601E+03  8.389605E+02  1.712347E+04  6.905462E+03 -2.383722E+03
       173   8  2.893752E+05 -4.625566E+03  1.241616E+03  1.552006E+04  4.764436E+03 -1.363172E+03
       173   9  3.072196E+05 -6.979274E+02  3.286866E+03  1.791197E+04  2.623338E+03 -1.730497E+02
       173  10  3.482275E+05  1.043599E+04  1.465920E+04  1.837616E+04  2.304905E-10  6.214096E-11
       173  11  3.303337E+05  5.014028E+03  8.495127E+03  1.598430E+04  6.936780E-11  1.034298E-10
       173  12  3.130667E+05  6.875380E+02  4.369256E+03  1.758775E+04  7.999644E-11 -2.286572E-12
       173  13  3.101424E+05  1.439724E+03  7.749058E+03  1.774980E+04  1.747199E-10  1.031165E-10
       173  14  3.098542E+05  1.942383E+02  4.868356E+03  1.575218E+04  2.347318E-10  5.288374E-11
       173  15  3.101431E+05 -5.195417E+00  3.828055E+03  1.774986E+04  6.044987E-11 -5.396549E-11
       173  16  2.720588E+05 -7.556620E+03  8.388602E+02  1.712348E+04 -1.584373E-10  4.991614E-11
       173  17  2.893752E+05 -4.625574E+03  1.241570E+03  1.552007E+04  1.729071E-11 -4.896446E-11
       173  18  3.072196E+05 -6.979293E+02  3.286853E+03  1.791197E+04 -1.294968E-10 -3.247038E-11
       173  19  3.482276E+05  1.043600E+04  1.465924E+04  1.837615E+04 -3.760206E+03  2.383840E+03
       173  20  3.303337E+05  5.014030E+03  8.495133E+03  1.598430E+04 -1.048945E+03  1.363351E+03
       173  21  3.130667E+05  6.875388E+02  4.369262E+03  1.758775E+04  1.662257E+03  1.732913E+02
       173  22  3.101425E+05  1.439738E+03  7.749122E+03  1.774979E+04 -5.332881E+03  2.383780E+03
       173  23  3.098542E+05  1.942426E+02  4.868375E+03  1.575218E+04 -2.906720E+03  1.363261E+03
       173  24  3.101431E+05 -5.195323E+00  3.828055E+03  1.774986E+04 -4.805452E+02  1.731711E+02
       173  25  2.720588E+05 -7.556601E+03  8.389605E+02  1.712347E+04 -6.905462E+03  2.383722E+03
       173  26  2.893752E+05 -4.625566E+03  1.241616E+03  1.552006E+04 -4.764436E+03  1.363172E+03
       173  27  3.072196E+05 -6.979274E+02  3.286866E+03  1.791197E+04 -2.623338E+03  1.730497E+02
       174   1  3.015768E+05 -2.012703E+03  2.276856E+03  1.788041E+04 -2.328067E+03  5.838351E+02
       174   2  2.837540E+05 -5.967454E+03 -4.754290E+00  1.552902E+04 -4.306768E+03  1.768416E+03
       174   3  2.664153E+05 -9.017470E+03 -7.723633E+02  1.717238E+04 -6.285367E+03  2.770744E+03
       174   4  3.101342E+05 -1.858974E+00  3.776730E+03  1.774973E+04 -1.839324E+02  5.839550E+02
       174   5  3.098654E+05  1.713590E+02  4.586447E+03  1.575234E+04 -2.469050E+03  1.768499E+03
       174   6  3.101335E+05  1.302399E+03  7.122732E+03  1.774967E+04 -4.754113E+03  2.770792E+03
       174   7  3.186916E+05  2.008983E+03  5.276619E+03  1.761906E+04  1.960231E+03  5.840741E+02
       174   8  3.359776E+05  6.310137E+03  9.177637E+03  1.597567E+04 -6.312561E+02  1.768584E+03
       174   9  3.538535E+05  1.162216E+04  1.501776E+04  1.832700E+04 -3.222754E+03  2.770844E+03
       174  10  3.015768E+05 -2.012705E+03  2.276845E+03  1.788041E+04 -9.772045E-12 -4.271253E-11
       174  11  2.837539E+05 -5.967463E+03 -4.795008E+00  1.552902E+04 -3.688405E-10 -9.268991E-11
       174  12  2.664153E+05 -9.017489E+03 -7.724519E+02  1.717240E+04  3.011945E-11 -2.765983E-11
       174  13  3.101342E+05 -1.859350E+00  3.776730E+03  1.774973E+04 -1.621229E-10 -2.671003E-11
       174  14  3.098654E+05  1.713540E+02  4.586430E+03  1.575234E+04  1.682984E-10  4.615949E-11
       174  15  3.101335E+05  1.302385E+03  7.122675E+03  1.774968E+04 -1.562301E-10 -2.044856E-11
       174  16  3.186916E+05  2.008982E+03  5.276611E+03  1.761906E+04 -7.648190E-11  2.663292E-11
       174  17  3.359776E+05  6.310133E+03  9.177630E+03  1.597567E+04 -1.927108E-10  5.519499E-11
       174  18  3.538535E+05  1.162215E+04  1.501773E+04  1.832701E+04 -2.176380E-10  1.175818E-10
       174  19  3.015768E+05 -2.012703E+03  2.276856E+03  1.788041E+04  2.328067E+03 -5.838351E+02
       174  20  2.837540E+05 -5.967454E+03 -4.754290E+00  1.552902E+04  4.306768E+03 -1.768416E+03
       174  21  2.664153E+05 -9.017470E+03 -7.723633E+02  1.717238E+04  6.285367E+03 -2.770744E+03
       174  22  3.101342E+05 -1.858974E+00  3.776730E+03  1.774973E+04  1.839324E+02 -5.839550E+02
       174  23  3.098654E+05  1.713590E+02  4.586447E+03  1.575234E+04  2.469050E+03 -1.768499E+03
       174  24  3.101335E+05  1.302399E+03  7.122732E+03  1.774967E+04  4.754113E+03 -2.770792E+03
       174  25  3.186916E+05  2.008983E+03  5.276619E+03  1.761906E+04 -1.960231E+03 -5.840741E+02
       174  26  3.359776E+05  6.310137E+03  9.177637E+03  1.597567E+04  6.312561E+02 -1.768584E+03
       174  27  3.538535E+05  1.162216E+04  1.501776E+04  1.832700E+04  3.222754E+03 -2.770844E+03
       175   1  2.559135E+05 -1.220311E+04 -1.023015E+03  1.938910E+04 -7.749205E+03  3.431762E+03
       175   2  2.359473E+05 -1.098367E+04  1.462641E+03  7.514667E+03 -1.220362E+04  3.376440E+03
       175   3  2.207017E+05  6.796738E+03  1.098792E+04 -5.071796E+02 -1.665797E+04  1.086525E+03
       175   4  3.112080E+05  8.651841E+02  9.042216E+03  1.771809E+04 -5.964981E+03  3.431830E+03
       175   5  3.085197E+05  6.415589E+03  1.590703E+04  1.579153E+04 -1.417554E+04  3.376194E+03
       175   6  3.112029E+05  2.917744E+04  3.241844E+04  1.771748E+04 -2.238627E+04  1.085941E+03
       175   7  3.665055E+05  1.393332E+04  1.910734E+04  1.604693E+04 -4.180602E+03  3.431888E+03
       175   8  3.810973E+05  2.381479E+04  3.035121E+04  2.406937E+04 -1.614769E+04  3.375895E+03
       175   9  4.017123E+05  5.155881E+04  5.384870E+04  3.594481E+04 -2.811539E+04  1.085021E+03
       175  10  2.559134E+05 -1.220314E+04 -1.023150E+03  1.938912E+04  1.927467E-10 -1.031174E-11
       175  11  2.359471E+05 -1.098372E+04  1.462340E+03  7.514700E+03 -2.251452E-10 -1.450278E-11
       175  12  2.207014E+05  6.796662E+03  1.098739E+04 -5.071650E+02 -1.388772E-10  8.457984E-12
       175  13  3.112080E+05  8.651619E+02  9.042127E+03  1.771811E+04  1.201642E-16  2.491174E-11
       175  14  3.085195E+05  6.415523E+03  1.590663E+04  1.579156E+04 -8.859997E-11 -2.756136E-11
       175  15  3.112023E+05  2.917730E+04  3.241750E+04  1.771750E+04  4.392076E-11 -1.508886E-11
       175  16  3.665055E+05  1.393330E+04  1.910728E+04  1.604694E+04 -1.539882E-10  7.503352E-11
       175  17  3.810970E+05  2.381471E+04  3.035070E+04  2.406941E+04 -5.789963E-11 -3.665401E-11
       175  18  4.017115E+05  5.155860E+04  5.384721E+04  3.594483E+04  1.162434E-10 -1.234958E-11
       175  19  2.559135E+05 -1.220311E+04 -1.023015E+03  1.938910E+04  7.749205E+03 -3.431762E+03
       175  20  2.359473E+05 -1.098367E+04  1.462641E+03  7.514667E+03  1.220362E+04 -3.376440E+03
       175  21  2.207017E+05  6.796738E+03  1.098792E+04 -5.071796E+02  1.665797E+04 -1.086525E+03
       175  22  3.112080E+05  8.651841E+02  9.042216E+03  1.771809E+04  5.964981E+03 -3.431830E+03
       175  23  3.085197E+05  6.415589E+03  1.590703E+04  1.579153E+04  1.417554E+04 -3.376194E+03
       175  24  3.112029E+05  2.917744E+04  3.241844E+04  1.771748E+04  2.238627E+04 -1.085941E+03
       175  25  3.665055E+05  1.393332E+04  1.910734E+04  1.604693E+04  4.180602E+03 -3.431888E+03
       175  26  3.810973E+05  2.381479E+04  3.035121E+04  2.406937E+04  1.614769E+04 -3.375895E+03
       175  27  4.017123E+05  5.155881E+04  5.384870E+04  3.594481E+04  2.811539E+04 -1.085021E+03
       176   1 -3.892953E+04 -7.439507E+04 -4.444108E+04  1.691560E+04  2.584065E+02 -3.363713E+04
       176   2 -5.803922E+03 -8.228485E+04 -2.214467E+04  2.420714E+03  6.436995E+02 -2.156055E+04
       176   3  7.533874E+01 -9.855835E+04 -1.452238E+04 -1.477178E+04  2.408339E+02 -9.484033E+03
       176   4 -4.646865E+04 -1.047710E+05 -5.175191E+04 -1.217621E+04  2.599941E+02 -3.494315E+04
       176   5 -1.020804E+04 -1.004626E+05 -2.598536E+04 -1.082740E+04  6.441609E+02 -2.154423E+04
       176   6 -1.424841E+03 -1.047686E+05 -1.581195E+04 -1.217607E+04  2.407750E+02 -8.145095E+03
       176   7 -5.400466E+04 -1.351442E+05 -5.906236E+04 -4.126659E+04  2.617042E+02 -3.624911E+04
       176   8 -1.461152E+04 -1.186397E+05 -2.982598E+04 -2.407513E+04  6.446216E+02 -2.152791E+04
       176   9 -2.924997E+03 -1.109788E+05 -1.710151E+04 -9.580391E+03  2.407272E+02 -6.806171E+03
       176  10 -3.892984E+04 -7.439629E+04 -4.444320E+04  1.691561E+04  1.734859E-11  9.906645E-11
       176  11 -5.804047E+03 -8.228535E+04 -2.214554E+04  2.420726E+03 -5.742872E-11  4.858500E-11
       176  12  7.531452E+01 -9.855845E+04 -1.452255E+04 -1.477178E+04  1.922493E-10 -3.808108E-11
       176  13 -4.646898E+04 -1.047723E+05 -5.175421E+04 -1.217620E+04  9.189425E-11  1.754937E-11
       176  14 -1.020816E+04 -1.004631E+05 -2.598624E+04 -1.082739E+04 -2.269803E-10  2.662588E-11
       176  15 -1.424859E+03 -1.047687E+05 -1.581208E+04 -1.217607E+04  3.971665E-11  8.653790E-12
       176  16 -5.400501E+04 -1.351456E+05 -5.906483E+04 -4.126658E+04  5.167210E-11 -9.255579E-11
       176  17 -1.461164E+04 -1.186402E+05 -2.982685E+04 -2.407512E+04 -1.144807E-10 -4.840204E-11
       176  18 -2.925009E+03 -1.109789E+05 -1.710160E+04 -9.580390E+03 -1.566706E-11  4.575486E-11
       176  19 -3.892953E+04 -7.439507E+04 -4.444108E+04  1.691560E+04 -2.584065E+02  3.363713E+04
       176  20 -5.803922E+03 -8.228485E+04 -2.214467E+04  2.420714E+03 -6.436995E+02  2.156055E+04
       176  21  7.533874E+01 -9.855835E+04 -1.452238E+04 -1.477178E+04 -2.408339E+02  9.484033E+03
       176  22 -4.646865E+04 -1.047710E+05 -5.175191E+04 -1.217621E+04 -2.599941E+02  3.494315E+04
       176  23 -1.020804E+04 -1.004626E+05 -2.598536E+04 -1.082740E+04 -6.441609E+02  2.154423E+04
       176  24 -1.424841E+03 -1.047686E+05 -1.581195E+04 -1.217607E+04 -2.407750E+02  8.145095E+03
       176  25 -5.400466E+04 -1.351442E+05 -5.906236E+04 -4.126659E+04 -2.617042E+02  3.624911E+04
       176  26 -1.461152E+04 -1.186397E+05 -2.982598E+04 -2.407513E+04 -6.446216E+02  2.152791E+04
       176  27 -2.924997E+03 -1.109788E+05 -1.710151E+04 -9.580391E+03 -2.407272E+02  6.806171E+03
       177   1 -2.455625E+03 -1.048741E+05 -1.343247E+04 -1.102384E+04 -2.456308E+02 -7.194149E+03
       177   2 -3.839134E+03 -1.162479E+05 -1.320499E+04 -1.079267E+04 -9.686688E+02 -1.698615E+03
       177   3 -7.985719E+03 -1.290279E+05 -1.724643E+04 -1.330265E+04 -1.634609E+03  3.796826E+03
       177   4 -2.081597E+03 -1.031633E+05 -1.327351E+04 -1.218576E+04 -2.456359E+02 -5.931791E+03
       177   5 -6.057669E+02 -1.024686E+05 -1.081921E+04 -1.081518E+04 -9.686798E+02 -5.321579E+02
       177   6 -1.876332E+03 -1.031634E+05 -1.256720E+04 -1.218576E+04 -1.634606E+03  4.867484E+03
       177   7 -1.707563E+03 -1.014525E+05 -1.311454E+04 -1.334768E+04 -2.456458E+02 -4.669429E+03
       177   8  2.627591E+03 -8.868902E+04 -8.433428E+03 -1.083769E+04 -9.686910E+02  6.343247E+02
       177   9  4.233023E+03 -7.729836E+04 -7.887997E+03 -1.106883E+04 -1.634600E+03  5.938185E+03
       177  10 -2.455639E+03 -1.048742E+05 -1.343257E+04 -1.102384E+04 -5.982681E-11 -1.016332E-10
       177  11 -3.839136E+03 -1.162479E+05 -1.320500E+04 -1.079267E+04 -1.242954E-10 -2.090786E-11
       177  12 -7.985726E+03 -1.290279E+05 -1.724646E+04 -1.330264E+04  5.240602E-11  1.144966E-10
       177  13 -2.081606E+03 -1.031634E+05 -1.327358E+04 -1.218576E+04 -3.035318E-11  7.365848E-13
       177  14 -6.057680E+02 -1.024686E+05 -1.081921E+04 -1.081518E+04  1.981680E-10  1.166422E-11
       177  15 -1.876341E+03 -1.031635E+05 -1.256725E+04 -1.218576E+04  4.952027E-13  2.055153E-11
       177  16 -1.707569E+03 -1.014526E+05 -1.311458E+04 -1.334768E+04 -2.705880E-11  1.053993E-10
       177  17  2.627590E+03 -8.868902E+04 -8.433430E+03 -1.083769E+04 -9.002864E-11  2.933726E-11
       177  18  4.233010E+03 -7.729840E+04 -7.888069E+03 -1.106882E+04 -1.274323E-10 -9.777379E-11
       177  19 -2.455625E+03 -1.048741E+05 -1.343247E+04 -1.102384E+04  2.456308E+02  7.194149E+03
       177  20 -3.839134E+03 -1.162479E+05 -1.320499E+04 -1.079267E+04  9.686688E+02  1.698615E+03
       177  21 -7.985719E+03 -1.290279E+05 -1.724643E+04 -1.330265E+04  1.634609E+03 -3.796826E+03
       177  22 -2.081597E+03 -1.031633E+05 -1.327351E+04 -1.218576E+04  2.456359E+02  5.931791E+03
       177  23 -6.057669E+02 -1.024686E+05 -1.081921E+04 -1.081518E+04  9.686798E+02  5.321579E+02
       177  24 -1.876332E+03 -1.031634E+05 -1.256720E+04 -1.218576E+04  1.634606E+03 -4.867484E+03
       177  25 -1.707563E+03 -1.014525E+05 -1.311454E+04 -1.334768E+04  2.456458E+02  4.669429E+03
       177  26  2.627591E+03 -8.868902E+04 -8.433428E+03 -1.083769E+04  9.686910E+02 -6.343247E+02
       177  27  4.233023E+03 -7.729836E+04 -7.887997E+03 -1.106883E+04  1.634600E+03 -5.938185E+03
       178   1 -9.290274E+03 -1.384013E+05 -2.087336E+04 -9.848302E+03 -2.090866E+03  5.726920E+03
       178   2 -2.018157E+04 -1.463797E+05 -3.279305E+04 -2.283216E+04 -2.104335E+03  2.033683E+04
       178   3 -5.632635E+04 -1.625739E+05 -6.053876E+04 -3.846707E+04 -6.840314E+02  3.494615E+04
       178   4 -1.292959E+03 -1.045873E+05 -1.470546E+04 -1.216598E+04 -2.090885E+03  6.953836E+03
       178   5 -9.217706E+03 -1.006897E+05 -2.367000E+04 -1.084000E+04 -2.103933E+03  1.915504E+04
       178   6 -4.197742E+04 -1.045897E+05 -4.678715E+04 -1.216571E+04 -6.825827E+02  3.135603E+04
       178   7  6.704312E+03 -7.077214E+04 -8.537604E+03 -1.448379E+04 -2.090914E+03  8.180818E+03
       178   8  1.746566E+03 -5.499739E+04 -1.454699E+04  1.153071E+03 -2.103577E+03  1.797317E+04
       178   9 -2.762613E+04 -4.660076E+04 -3.303535E+04  1.413812E+04 -6.814383E+02  2.776557E+04
       178  10 -9.290287E+03 -1.384013E+05 -2.087343E+04 -9.848293E+03  1.132534E-10 -5.331537E-11
       178  11 -2.018168E+04 -1.463802E+05 -3.279383E+04 -2.283213E+04 -7.422425E-11  5.639493E-11
       178  12 -5.632668E+04 -1.625753E+05 -6.054106E+04 -3.846705E+04 -5.184394E-11  1.593544E-10
       178  13 -1.292976E+03 -1.045873E+05 -1.470556E+04 -1.216597E+04  1.480417E-10  1.264699E-11
       178  14 -9.217810E+03 -1.006901E+05 -2.367070E+04 -1.083996E+04 -1.382737E-10  1.951262E-11
       178  15 -4.197769E+04 -1.045907E+05 -4.678900E+04 -1.216569E+04  6.187329E-11  4.860576E-12
       178  16  6.704290E+03 -7.077222E+04 -8.537738E+03 -1.448377E+04 -1.205206E-10  7.907164E-11
       178  17  1.746474E+03 -5.499774E+04 -1.454760E+04  1.153102E+03 -1.395484E-10 -6.100631E-11
       178  18 -2.762634E+04 -4.660159E+04 -3.303680E+04  1.413814E+04 -7.160566E-11 -1.302385E-10
       178  19 -9.290274E+03 -1.384013E+05 -2.087336E+04 -9.848302E+03  2.090866E+03 -5.726920E+03
       178  20 -2.018157E+04 -1.463797E+05 -3.279305E+04 -2.283216E+04  2.104335E+03 -2.033683E+04
       178  21 -5.632635E+04 -1.625739E+05 -6.053876E+04 -3.846707E+04  6.840314E+02 -3.494615E+04
       178  22 -1.292959E+03 -1.045873E+05 -1.470546E+04 -1.216598E+04  2.090885E+03 -6.953836E+03
       178  23 -9.217706E+03 -1.006897E+05 -2.367000E+04 -1.084000E+04  2.103933E+03 -1.915504E+04
       178  24 -4.197742E+04 -1.045897E+05 -4.678715E+04 -1.216571E+04  6.825827E+02 -3.135603E+04
       178  25  6.704312E+03 -7.077214E+04 -8.537604E+03 -1.448379E+04  2.090914E+03 -8.180818E+03
       178  26  1.746566E+03 -5.499739E+04 -1.454699E+04  1.153071E+03  2.103577E+03 -1.797317E+04
       178  27 -2.762613E+04 -4.660076E+04 -3.303535E+04  1.413812E+04  6.814383E+02 -2.776557E+04
       179   1  5.908150E+04 -4.887133E+02 -1.661086E+04  4.177489E+04 -1.574322E+02  1.731199E+03
       179   2  7.437676E+04  5.342643E+03 -1.356874E+04  5.354435E+04 -4.629622E+02  5.404720E+03
       179   3  9.750493E+04  1.029951E+04 -1.035967E+04  6.165793E+04  1.055087E+03  6.646785E+03
       179   4  1.555368E+05  5.651441E+04  1.252364E+04  8.425021E+04  6.083060E+03  6.410991E+03
       179   5  1.492088E+05  5.300731E+04  6.095423E+03  8.870450E+04  1.691895E+03  7.020517E+03
       179   6  1.515996E+05  4.951170E+04  3.379812E+03  8.950296E+04 -8.758426E+02  5.198825E+03
       179   7  2.520005E+05  1.135197E+05  4.165679E+04  1.267316E+05  1.232478E+04  1.109148E+04
       179   8  2.240465E+05  1.006740E+05  2.575890E+04  1.238689E+05  3.847084E+03  8.636528E+03
       179   9  2.056977E+05  8.872574E+04  1.711908E+04  1.173508E+05 -2.806997E+03  3.750690E+03
       179  10  5.908150E+04 -4.887165E+02 -1.661086E+04  4.177489E+04 -2.118605E-10 -1.305412E-10
       179  11  7.437675E+04  5.342612E+03 -1.356879E+04  5.354435E+04  2.766709E-11  1.402296E-10
       179  12  9.750492E+04  1.029946E+04 -1.035976E+04  6.165792E+04  1.856026E-10  2.713354E-10
       179  13  1.555368E+05  5.651436E+04  1.252350E+04  8.425018E+04  9.410416E-11  6.422511E-11
       179  14  1.492088E+05  5.300726E+04  6.095325E+03  8.870450E+04 -7.203551E-11  1.815760E-10
       179  15  1.515996E+05  4.951167E+04  3.379760E+03  8.950296E+04 -6.445785E-12  1.385561E-10
       179  16  2.520003E+05  1.135195E+05  4.165627E+04  1.267315E+05  1.860486E-10  2.311700E-10
       179  17  2.240464E+05  1.006740E+05  2.575873E+04  1.238689E+05 -3.421607E-10  1.838195E-10
       179  18  2.056977E+05  8.872572E+04  1.711904E+04  1.173508E+05 -5.252383E-10 -4.898053E-11
       179  19  5.908150E+04 -4.887133E+02 -1.661086E+04  4.177489E+04  1.574322E+02 -1.731199E+03
       179  20  7.437676E+04  5.342643E+03 -1.356874E+04  5.354435E+04  4.629622E+02 -5.404720E+03
       179  21  9.750493E+04  1.029951E+04 -1.035967E+04  6.165793E+04 -1.055087E+03 -6.646785E+03
       179  22  1.555368E+05  5.651441E+04  1.252364E+04  8.425021E+04 -6.083060E+03 -6.410991E+03
       179  23  1.492088E+05  5.300731E+04  6.095423E+03  8.870450E+04 -1.691895E+03 -7.020517E+03
       179  24  1.515996E+05  4.951170E+04  3.379812E+03  8.950296E+04  8.758426E+02 -5.198825E+03
       179  25  2.520005E+05  1.135197E+05  4.165679E+04  1.267316E+05 -1.232478E+04 -1.109148E+04
       179  26  2.240465E+05  1.006740E+05  2.575890E+04  1.238689E+05 -3.847084E+03 -8.636528E+03
       179  27  2.056977E+05  8.872574E+04  1.711908E+04  1.173508E+05  2.806997E+03 -3.750690E+03
       180   1  1.078561E+05  1.905285E+04 -8.212550E+03  6.732854E+04  9.594606E+02  5.458374E+03
       180   2  1.224445E+05  3.337588E+04 -4.865776E+03  7.691828E+04  1.544021E+03  4.191688E+03
       180   3  1.423830E+05  4.272997E+04 -1.260234E+03  8.491606E+04  2.288955E+03  2.711055E+03
       180   4  1.514341E+05  4.942830E+04  2.594799E+03  8.920712E+04 -6.945375E+02  4.218099E+03
       180   5  1.486273E+05  5.170784E+04  1.486967E+03  9.012824E+04 -4.695333E+02  2.681834E+03
       180   6  1.512478E+05  4.909609E+04  9.497249E+02  8.945700E+04 -8.415617E+01  9.316493E+02
       180   7  1.950151E+05  7.980542E+04  1.340229E+04  1.110878E+05 -2.348720E+03  2.977688E+03
       180   8  1.748109E+05  7.004021E+04  7.839686E+03  1.033388E+05 -2.483202E+03  1.171896E+03
       180   9  1.601125E+05  5.546215E+04  3.159656E+03  9.399793E+04 -2.457271E+03 -8.477602E+02
       180  10  1.078561E+05  1.905281E+04 -8.212608E+03  6.732854E+04  8.298816E-11  1.419705E-10
       180  11  1.224445E+05  3.337586E+04 -4.865814E+03  7.691827E+04  2.836294E-10  1.167091E-10
       180  12  1.423830E+05  4.272996E+04 -1.260257E+03  8.491606E+04  2.874550E-10  1.266702E-11
       180  13  1.514341E+05  4.942828E+04  2.594765E+03  8.920712E+04  1.517043E-10  3.792712E-11
       180  14  1.486273E+05  5.170783E+04  1.486953E+03  9.012824E+04  9.249298E-11  4.365507E-11
       180  15  1.512478E+05  4.909609E+04  9.497233E+02  8.945700E+04  1.216701E-10 -7.866208E-11
       180  16  1.950151E+05  7.980541E+04  1.340226E+04  1.110878E+05 -2.708134E-10 -1.136561E-11
       180  17  1.748109E+05  7.004021E+04  7.839672E+03  1.033388E+05 -1.511019E-10 -5.959726E-11
       180  18  1.601125E+05  5.546215E+04  3.159643E+03  9.399793E+04 -1.636191E-10 -1.243205E-10
       180  19  1.078561E+05  1.905285E+04 -8.212550E+03  6.732854E+04 -9.594606E+02 -5.458374E+03
       180  20  1.224445E+05  3.337588E+04 -4.865776E+03  7.691828E+04 -1.544021E+03 -4.191688E+03
       180  21  1.423830E+05  4.272997E+04 -1.260234E+03  8.491606E+04 -2.288955E+03 -2.711055E+03
       180  22  1.514341E+05  4.942830E+04  2.594799E+03  8.920712E+04  6.945375E+02 -4.218099E+03
       180  23  1.486273E+05  5.170784E+04  1.486967E+03  9.012824E+04  4.695333E+02 -2.681834E+03
       180  24  1.512478E+05  4.909609E+04  9.497249E+02  8.945700E+04  8.415617E+01 -9.316493E+02
       180  25  1.950151E+05  7.980542E+04  1.340229E+04  1.110878E+05  2.348720E+03 -2.977688E+03
       180  26  1.748109E+05  7.004021E+04  7.839686E+03  1.033388E+05  2.483202E+03 -1.171896E+03
       180  27  1.601125E+05  5.546215E+04  3.159656E+03  9.399793E+04  2.457271E+03  8.477602E+02
       181   1  1.535504E+05  5.069409E+04  1.339161E+03  9.060152E+04  2.764315E+03  1.774650E+03
       181   2  1.681142E+05  6.538777E+04  5.254806E+03  1.000929E+05  3.522815E+03  1.634275E+02
       181   3  1.879261E+05  7.493048E+04  9.414559E+03  1.080765E+05  4.275425E+03 -1.439882E+03
       181   4  1.512363E+05  4.908945E+04  8.059486E+02  8.943675E+04  4.127801E+02  1.143176E+01
       181   5  1.486137E+05  5.166624E+04  6.934614E+02  9.019102E+04  1.184513E+03 -1.589909E+03
       181   6  1.512359E+05  4.908892E+04  8.135756E+02  8.943712E+04  1.950370E+03 -3.183336E+03
       181   7  1.489222E+05  4.748481E+04  2.727682E+02  8.827199E+04 -1.938745E+03 -1.751779E+03
       181   8  1.291134E+05  3.794481E+04 -3.867939E+03  8.028938E+04 -1.153712E+03 -3.343188E+03
       181   9  1.145467E+05  2.324771E+04 -7.787694E+03  7.079870E+04 -3.745448E+02 -4.926684E+03
       181  10  1.535503E+05  5.069409E+04  1.339140E+03  9.060151E+04  8.905110E-11 -7.430250E-11
       181  11  1.681142E+05  6.538777E+04  5.254783E+03  1.000929E+05  1.218488E-11  3.941256E-11
       181  12  1.879261E+05  7.493047E+04  9.414521E+03  1.080765E+05  1.491097E-10  4.718828E-11
       181  13  1.512363E+05  4.908945E+04  8.059483E+02  8.943675E+04  1.520893E-10 -6.887389E-13
       181  14  1.486137E+05  5.166623E+04  6.934541E+02  9.019102E+04  1.126177E-10 -9.008745E-11
       181  15  1.512359E+05  4.908891E+04  8.135494E+02  8.943713E+04 -1.600199E-10  5.680738E-11
       181  16  1.489222E+05  4.748480E+04  2.727554E+02  8.827199E+04 -1.578898E-10  8.103043E-11
       181  17  1.291134E+05  3.794480E+04 -3.867963E+03  8.028938E+04 -2.558422E-12 -1.154964E-10
       181  18  1.145467E+05  2.324768E+04 -7.787740E+03  7.079869E+04 -2.090338E-10 -1.343069E-10
       181  19  1.535504E+05  5.069409E+04  1.339161E+03  9.060152E+04 -2.764315E+03 -1.774650E+03
       181  20  1.681142E+05  6.538777E+04  5.254806E+03  1.000929E+05 -3.522815E+03 -1.634275E+02
       181  21  1.879261E+05  7.493048E+04  9.414559E+03  1.080765E+05 -4.275425E+03  1.439882E+03
       181  22  1.512363E+05  4.908945E+04  8.059486E+02  8.943675E+04 -4.127801E+02 -1.143176E+01
       181  23  1.486137E+05  5.166624E+04  6.934614E+02  9.019102E+04 -1.184513E+03  1.589909E+03
       181  24  1.512359E+05  4.908892E+04  8.135756E+02  8.943712E+04 -1.950370E+03  3.183336E+03
       181  25  1.489222E+05  4.748481E+04  2.727682E+02  8.827199E+04  1.938745E+03  1.751779E+03
       181  26  1.291134E+05  3.794481E+04 -3.867939E+03  8.028938E+04  1.153712E+03  3.343188E+03
       181  27  1.145467E+05  2.324771E+04 -7.787694E+03  7.079870E+04  3.745448E+02  4.926684E+03
       182   1  1.991210E+05  8.291534E+04  1.231359E+04  1.138065E+05  4.800785E+03 -2.332347E+03
       182   2  2.138209E+05  9.749317E+04  1.707721E+04  1.231345E+05  4.625262E+03 -4.418614E+03
       182   3  2.340571E+05  1.073015E+05  2.286384E+04  1.308708E+05  4.221960E+03 -6.201051E+03
       182   4  1.512456E+05  4.909632E+04  9.616671E+02  8.945797E+04  2.442876E+03 -4.100481E+03
       182   5  1.486273E+05  5.170481E+04  1.511368E+03  9.012698E+04  2.778038E+03 -5.803898E+03
       182   6  1.514345E+05  4.943326E+04  2.641188E+03  8.920431E+04  2.885435E+03 -7.203451E+03
       182   7  1.033738E+05  1.527936E+04 -1.039006E+04  6.511209E+04  8.525339E+01 -5.868400E+03
       182   8  8.343917E+04  5.919463E+03 -1.405452E+04  5.712383E+04  9.310913E+02 -7.188975E+03
       182   9  6.881976E+04 -8.430911E+03 -1.758192E+04  4.754423E+04  1.549149E+03 -8.205674E+03
       182  10  1.991210E+05  8.291533E+04  1.231353E+04  1.138065E+05  1.644598E-10 -3.171361E-11
       182  11  2.138209E+05  9.749315E+04  1.707714E+04  1.231345E+05 -1.625498E-10 -1.983695E-11
       182  12  2.340571E+05  1.073015E+05  2.286373E+04  1.308708E+05 -1.222711E-10 -5.787561E-11
       182  13  1.512456E+05  4.909630E+04  9.616243E+02  8.945798E+04  3.733790E-11 -1.314537E-10
       182  14  1.486272E+05  5.170477E+04  1.511291E+03  9.012700E+04  2.672093E-10 -1.709756E-11
       182  15  1.514345E+05  4.943320E+04  2.641075E+03  8.920432E+04  1.640394E-10  1.206702E-11
       182  16  1.033737E+05  1.527932E+04 -1.039013E+04  6.511209E+04 -1.524211E-10 -7.850888E-11
       182  17  8.343916E+04  5.919407E+03 -1.405462E+04  5.712384E+04  2.291064E-10 -2.115501E-11
       182  18  6.881974E+04 -8.430984E+03 -1.758205E+04  4.754424E+04  1.051554E-10  9.542830E-11
       182  19  1.991210E+05  8.291534E+04  1.231359E+04  1.138065E+05 -4.800785E+03  2.332347E+03
       182  20  2.138209E+05  9.749317E+04  1.707721E+04  1.231345E+05 -4.625262E+03  4.418614E+03
       182  21  2.340571E+05  1.073015E+05  2.286384E+04  1.308708E+05 -4.221960E+03  6.201051E+03
       182  22  1.512456E+05  4.909632E+04  9.616671E+02  8.945797E+04 -2.442876E+03  4.100481E+03
       182  23  1.486273E+05  5.170481E+04  1.511368E+03  9.012698E+04 -2.778038E+03  5.803898E+03
       182  24  1.514345E+05  4.943326E+04  2.641188E+03  8.920431E+04 -2.885435E+03  7.203451E+03
       182  25  1.033738E+05  1.527936E+04 -1.039006E+04  6.511209E+04 -8.525339E+01  5.868400E+03
       182  26  8.343917E+04  5.919463E+03 -1.405452E+04  5.712383E+04 -9.310913E+02  7.188975E+03
       182  27  6.881976E+04 -8.430911E+03 -1.758192E+04  4.754423E+04 -1.549149E+03  8.205674E+03
       183   1  2.447645E+05  1.163008E+05  2.668295E+04  1.371673E+05  4.749961E+03 -6.841405E+03
       183   2  2.631680E+05  1.281840E+05  3.618488E+04  1.434859E+05 -4.104300E+03 -1.240505E+04
       183   3  2.915305E+05  1.415076E+05  5.447778E+04  1.461329E+05 -1.553532E+04 -1.453454E+04
       183   4  1.515871E+05  4.953445E+04  3.441472E+03  8.951092E+04  3.021856E+03 -8.137526E+03
       183   5  1.492382E+05  5.300621E+04  6.207894E+03  8.867091E+04 -5.895468E+01 -9.371437E+03
       183   6  1.555961E+05  5.666624E+04  1.275603E+04  8.415869E+04 -5.716192E+03 -7.170535E+03
       183   7  5.841808E+04 -1.722765E+04 -1.980121E+04  4.186207E+04  1.294068E+03 -9.433404E+03
       183   8  3.532295E+04 -2.216520E+04 -2.377012E+04  3.386704E+04  3.985387E+03 -6.338507E+03
       183   9  1.968412E+04 -2.816630E+04 -2.896651E+04  2.219994E+04  4.099812E+03  1.914865E+02
       183  10  2.447644E+05  1.163007E+05  2.668282E+04  1.371673E+05 -7.390721E-12  1.871505E-11
       183  11  2.631680E+05  1.281839E+05  3.618456E+04  1.434859E+05 -7.429889E-11  5.628198E-11
       183  12  2.915302E+05  1.415073E+05  5.447693E+04  1.461327E+05 -1.743500E-11  5.438049E-11
       183  13  1.515871E+05  4.953437E+04  3.441330E+03  8.951094E+04  1.129886E-10  4.849677E-11
       183  14  1.492382E+05  5.300612E+04  6.207729E+03  8.867091E+04  1.385860E-11  6.501964E-11
       183  15  1.555961E+05  5.666618E+04  1.275587E+04  8.415866E+04  1.640942E-10  1.554881E-10
       183  16  5.841806E+04 -1.722775E+04 -1.980138E+04  4.186208E+04 -4.025254E-11  7.723981E-11
       183  17  3.532292E+04 -2.216525E+04 -2.377022E+04  3.386706E+04  7.001018E-11  4.524373E-11
       183  18  1.968410E+04 -2.816631E+04 -2.896654E+04  2.219993E+04 -3.717575E-11 -5.364992E-12
       183  19  2.447645E+05  1.163008E+05  2.668295E+04  1.371673E+05 -4.749961E+03  6.841405E+03
       183  20  2.631680E+05  1.281840E+05  3.618488E+04  1.434859E+05  4.104300E+03  1.240505E+04
       183  21  2.915305E+05  1.415076E+05  5.447778E+04  1.461329E+05  1.553532E+04  1.453454E+04
       183  22  1.515871E+05  4.953445E+04  3.441472E+03  8.951092E+04 -3.021856E+03  8.137526E+03
       183  23  1.492382E+05  5.300621E+04  6.207894E+03  8.867091E+04  5.895468E+01  9.371437E+03
       183  24  1.555961E+05  5.666624E+04  1.275603E+04  8.415869E+04  5.716192E+03  7.170535E+03
       183  25  5.841808E+04 -1.722765E+04 -1.980121E+04  4.186207E+04 -1.294068E+03  9.433404E+03
       183  26  3.532295E+04 -2.216520E+04 -2.377012E+04  3.386704E+04 -3.985387E+03  6.338507E+03
       183  27  1.968412E+04 -2.816630E+04 -2.896651E+04  2.219994E+04 -4.099812E+03 -1.914865E+02
       184   1  2.026456E+05  1.853763E+04  1.431371E+04  2.762500E+04 -8.010034E+03 -1.871864E+03
       184   2  1.623207E+05  2.524027E+04  1.277145E+04  3.092456E+04 -8.570479E+03 -5.570129E+03
       184   3  1.189568E+05  1.947792E+04  8.478146E+03  4.345936E+04 -9.130864E+03 -5.033195E+03
       184   4  3.391072E+04 -2.322988E+04 -2.581717E+04  4.213138E+04 -1.777978E+04 -1.872656E+03
       184   5  3.605080E+04 -5.104217E+03 -1.270069E+04  3.751279E+04 -1.122468E+04 -5.570516E+03
       184   6  3.391375E+04 -6.804213E+02 -7.276917E+03  4.213001E+04 -4.669495E+03 -5.032768E+03
       184   7 -1.347974E+05 -6.499860E+04 -6.594956E+04  5.663380E+04 -2.754689E+04 -1.873904E+03
       184   8 -9.020383E+04 -3.544952E+04 -3.817360E+04  4.409965E+04 -1.387834E+04 -5.570960E+03
       184   9 -5.112221E+04 -2.083916E+04 -2.303221E+04  4.080085E+04 -2.087206E+02 -5.032361E+03
       184  10  2.026455E+05  1.853761E+04  1.431358E+04  2.762499E+04 -1.525971E-10  3.385516E-11
       184  11  1.623206E+05  2.524022E+04  1.277125E+04  3.092452E+04 -3.536085E-11  1.072100E-10
       184  12  1.189567E+05  1.947788E+04  8.477942E+03  4.345932E+04 -1.825268E-11 -5.767934E-11
       184  13  3.391038E+04 -2.322997E+04 -2.581777E+04  4.213135E+04  2.863287E-11  8.470227E-11
       184  14  3.605065E+04 -5.104284E+03 -1.270099E+04  3.751274E+04  2.863435E-11  1.871436E-10
       184  15  3.391372E+04 -6.804543E+02 -7.277006E+03  4.212999E+04 -8.775599E-11  6.063980E-11
       184  16 -1.347982E+05 -6.499881E+04 -6.595100E+04  5.663376E+04  9.020085E-11  8.222908E-11
       184  17 -9.020404E+04 -3.544961E+04 -3.817402E+04  4.409959E+04 -1.930584E-10  8.640258E-11
       184  18 -5.112221E+04 -2.083919E+04 -2.303226E+04  4.080085E+04 -1.053644E-10  6.979778E-11
       184  19  2.026456E+05  1.853763E+04  1.431371E+04  2.762500E+04  8.010034E+03  1.871864E+03
       184  20  1.623207E+05  2.524027E+04  1.277145E+04  3.092456E+04  8.570479E+03  5.570129E+03
       184  21  1.189568E+05  1.947792E+04  8.478146E+03  4.345936E+04  9.130864E+03  5.033195E+03
       184  22  3.391072E+04 -2.322988E+04 -2.581717E+04  4.213138E+04  1.777978E+04  1.872656E+03
       184  23  3.605080E+04 -5.104217E+03 -1.270069E+04  3.751279E+04  1.122468E+04  5.570516E+03
       184  24  3.391375E+04 -6.804213E+02 -7.276917E+03  4.213001E+04  4.669495E+03  5.032768E+03
       184  25 -1.347974E+05 -6.499860E+04 -6.594956E+04  5.663380E+04  2.754689E+04  1.873904E+03
       184  26 -9.020383E+04 -3.544952E+04 -3.817360E+04  4.409965E+04  1.387834E+04  5.570960E+03
       184  27 -5.112221E+04 -2.083916E+04 -2.303221E+04  4.080085E+04  2.087206E+02  5.032361E+03
       185   1  9.233407E+04  1.261929E+04  4.889093E+03  4.172504E+04 -7.672517E+03 -3.405268E+03
       185   2  5.069986E+04  3.613151E+03 -8.691495E+02  3.724626E+04 -6.309749E+03 -8.700717E+02
       185   3  8.721008E+03 -6.068778E+03 -7.683558E+03  4.227460E+04 -4.947119E+03  1.994107E+03
       185   4  3.476655E+04 -1.026694E+03 -5.778252E+03  4.219040E+04 -3.689397E+03 -3.404854E+03
       185   5  3.498823E+04 -1.243390E+02 -3.846049E+03  3.743678E+04 -1.774204E+03 -8.695717E+02
       185   6  3.476694E+04  6.187571E+00 -3.353951E+03  4.219030E+04  1.409289E+02  1.994699E+03
       185   7 -2.279773E+04 -1.467286E+04 -1.644568E+04  4.265572E+04  2.933629E+02 -3.404435E+03
       185   8  1.927689E+04 -3.861833E+03 -6.822883E+03  3.762728E+04  2.761228E+03 -8.690690E+02
       185   9  6.081360E+04  6.081132E+03  9.757335E+02  4.210600E+04  5.229183E+03  1.995290E+03
       185  10  9.233401E+04  1.261926E+04  4.888961E+03  4.172502E+04 -4.742344E-11  9.044242E-12
       185  11  5.069981E+04  3.613140E+03 -8.692257E+02  3.724626E+04 -2.633429E-11 -1.925683E-10
       185  12  8.720981E+03 -6.068789E+03 -7.683612E+03  4.227461E+04  1.753349E-10  2.010104E-11
       185  13  3.476653E+04 -1.026710E+03 -5.778299E+03  4.219039E+04 -1.325195E-10 -2.196496E-11
       185  14  3.498823E+04 -1.243407E+02 -3.846057E+03  3.743677E+04 -4.553583E-11 -1.435076E-10
       185  15  3.476694E+04  6.183293E+00 -3.353958E+03  4.219030E+04  1.587708E-11 -9.151627E-11
       185  16 -2.279774E+04 -1.467287E+04 -1.644570E+04  4.265572E+04 -5.948207E-11 -8.301396E-11
       185  17  1.927688E+04 -3.861835E+03 -6.822898E+03  3.762728E+04 -5.493010E-12 -1.765373E-10
       185  18  6.081356E+04  6.081121E+03  9.756747E+02  4.210599E+04 -4.646986E-11 -6.287603E-11
       185  19  9.233407E+04  1.261929E+04  4.889093E+03  4.172504E+04  7.672517E+03  3.405268E+03
       185  20  5.069986E+04  3.613151E+03 -8.691495E+02  3.724626E+04  6.309749E+03  8.700717E+02
       185  21  8.721008E+03 -6.068778E+03 -7.683558E+03  4.227460E+04  4.947119E+03 -1.994107E+03
       185  22  3.476655E+04 -1.026694E+03 -5.778252E+03  4.219040E+04  3.689397E+03  3.404854E+03
       185  23  3.498823E+04 -1.243390E+02 -3.846049E+03  3.743678E+04  1.774204E+03  8.695717E+02
       185  24  3.476694E+04  6.187571E+00 -3.353951E+03  4.219030E+04 -1.409289E+02 -1.994699E+03
       185  25 -2.279773E+04 -1.467286E+04 -1.644568E+04  4.265572E+04 -2.933629E+02  3.404435E+03
       185  26  1.927689E+04 -3.861833E+03 -6.822883E+03  3.762728E+04 -2.761228E+03  8.690690E+02
       185  27  6.081360E+04  6.081132E+03  9.757335E+02  4.210600E+04 -5.229183E+03 -1.995290E+03
       186   1 -1.861112E+04 -1.249178E+04 -1.269239E+04  4.200542E+04 -4.366764E+03  3.795492E+03
       186   2 -6.006215E+04 -2.252628E+04 -2.125683E+04  3.765336E+04 -1.178624E+03  6.581654E+03
       186   3 -1.022223E+05 -3.374360E+04 -3.219287E+04  4.279761E+04  2.009541E+03  8.859678E+03
       186   4  3.474010E+04  1.559801E+01 -3.506539E+03  4.218788E+04  7.399926E+02  3.796042E+03
       186   5  3.501975E+04 -1.951826E+02 -4.684656E+03  3.743982E+04  3.074740E+03  6.581957E+03
       186   6  3.473755E+04 -1.440258E+03 -7.641338E+03  4.218801E+04  5.409704E+03  8.859772E+03
       186   7  8.809418E+04  1.252284E+04  5.679315E+03  4.237035E+04  5.847175E+03  3.796594E+03
       186   8  1.301105E+05  2.213543E+04  1.188726E+04  3.722626E+04  7.328736E+03  6.582257E+03
       186   9  1.717157E+05  3.086205E+04  1.690951E+04  4.157828E+04  8.810596E+03  8.859861E+03
       186  10 -1.861115E+04 -1.249181E+04 -1.269246E+04  4.200543E+04  1.816051E-10  1.907056E-11
       186  11 -6.006217E+04 -2.252632E+04 -2.125691E+04  3.765336E+04 -4.717007E-12 -2.009458E-11
       186  12 -1.022223E+05 -3.374369E+04 -3.219302E+04  4.279759E+04  1.021626E-10 -5.297847E-11
       186  13  3.474010E+04  1.558239E+01 -3.506567E+03  4.218787E+04  1.577680E-12 -3.647358E-11
       186  14  3.501973E+04 -1.952317E+02 -4.684756E+03  3.743981E+04  6.836288E-11 -3.937145E-11
       186  15  3.473750E+04 -1.440350E+03 -7.641541E+03  4.218798E+04  1.341539E-10  5.763175E-12
       186  16  8.809414E+04  1.252282E+04  5.679224E+03  4.237033E+04 -5.731222E-11 -4.511721E-11
       186  17  1.301105E+05  2.213537E+04  1.188708E+04  3.722622E+04 -1.163178E-10  1.598989E-10
       186  18  1.717156E+05  3.086194E+04  1.690922E+04  4.157822E+04 -6.985813E-11  8.244929E-11
       186  19 -1.861112E+04 -1.249178E+04 -1.269239E+04  4.200542E+04  4.366764E+03 -3.795492E+03
       186  20 -6.006215E+04 -2.252628E+04 -2.125683E+04  3.765336E+04  1.178624E+03 -6.581654E+03
       186  21 -1.022223E+05 -3.374360E+04 -3.219287E+04  4.279761E+04 -2.009541E+03 -8.859678E+03
       186  22  3.474010E+04  1.559801E+01 -3.506539E+03  4.218788E+04 -7.399926E+02 -3.796042E+03
       186  23  3.501975E+04 -1.951826E+02 -4.684656E+03  3.743982E+04 -3.074740E+03 -6.581957E+03
       186  24  3.473755E+04 -1.440258E+03 -7.641338E+03  4.218801E+04 -5.409704E+03 -8.859772E+03
       186  25  8.809418E+04  1.252284E+04  5.679315E+03  4.237035E+04 -5.847175E+03 -3.796594E+03
       186  26  1.301105E+05  2.213543E+04  1.188726E+04  3.722626E+04 -7.328736E+03 -6.582257E+03
       186  27  1.717157E+05  3.086205E+04  1.690951E+04  4.157828E+04 -8.810596E+03 -8.859861E+03
       187   1 -1.309737E+05 -3.981860E+04 -3.957614E+04  4.023970E+04  2.619752E+03  1.039328E+04
       187   2 -1.689859E+05 -5.631137E+04 -5.812616E+04  4.664994E+04  2.185206E+04  9.785746E+03
       187   3 -2.146798E+05 -9.353828E+04 -9.438119E+04  6.216325E+04  4.108224E+04  3.091767E+03
       187   4  3.354829E+04 -9.588312E+02 -9.810297E+03  4.210092E+04  6.710668E+03  1.039330E+04
       187   5  3.649895E+04 -7.076588E+03 -1.745277E+04  3.754927E+04  1.572168E+04  9.785033E+03
       187   6  3.354330E+04 -3.215025E+04 -3.569923E+04  4.210136E+04  2.473209E+04  3.090560E+03
       187   7  1.980967E+05  3.789944E+04  1.995454E+04  4.396265E+04  1.080264E+04  1.039335E+04
       187   8  2.420244E+05  4.215596E+04  2.321872E+04  2.844552E+04  9.589318E+03  9.784501E+03
       187   9  2.818245E+05  2.923503E+04  2.297969E+04  2.203140E+04  8.375443E+03  3.090411E+03
       187  10 -1.309737E+05 -3.981871E+04 -3.957635E+04  4.023967E+04 -5.059893E-11 -3.349883E-11
       187  11 -1.689864E+05 -5.631160E+04 -5.812724E+04  4.664977E+04 -1.144753E-10  2.536496E-11
       187  12 -2.146816E+05 -9.353874E+04 -9.438438E+04  6.216315E+04  1.737809E-10  3.307905E-11
       187  13  3.354822E+04 -9.589593E+02 -9.810584E+03  4.210087E+04 -5.014774E-11 -7.141054E-11
       187  14  3.649865E+04 -7.076757E+03 -1.745342E+04  3.754914E+04  1.122020E-10  4.858756E-11
       187  15  3.354264E+04 -3.215042E+04 -3.570040E+04  4.210130E+04  5.748824E-11 -1.481411E-11
       187  16  1.980965E+05  3.789929E+04  1.995412E+04  4.396256E+04  1.203967E-10  7.950819E-11
       187  17  2.420243E+05  4.215583E+04  2.321837E+04  2.844544E+04  2.657053E-10  7.739980E-11
       187  18  2.818244E+05  2.923500E+04  2.297954E+04  2.203138E+04 -2.287128E-10  8.877234E-11
       187  19 -1.309737E+05 -3.981860E+04 -3.957614E+04  4.023970E+04 -2.619752E+03 -1.039328E+04
       187  20 -1.689859E+05 -5.631137E+04 -5.812616E+04  4.664994E+04 -2.185206E+04 -9.785746E+03
       187  21 -2.146798E+05 -9.353828E+04 -9.438119E+04  6.216325E+04 -4.108224E+04 -3.091767E+03
       187  22  3.354829E+04 -9.588312E+02 -9.810297E+03  4.210092E+04 -6.710668E+03 -1.039330E+04
       187  23  3.649895E+04 -7.076588E+03 -1.745277E+04  3.754927E+04 -1.572168E+04 -9.785033E+03
       187  24  3.354330E+04 -3.215025E+04 -3.569923E+04  4.210136E+04 -2.473209E+04 -3.090560E+03
       187  25  1.980967E+05  3.789944E+04  1.995454E+04  4.396265E+04 -1.080264E+04 -1.039335E+04
       187  26  2.420244E+05  4.215596E+04  2.321872E+04  2.844552E+04 -9.589318E+03 -9.784501E+03
       187  27  2.818245E+05  2.923503E+04  2.297969E+04  2.203140E+04 -8.375443E+03 -3.090411E+03
       188   1 -6.406322E+04 -1.774244E+05 -7.101858E+04  5.528398E+04  6.876743E+01 -4.485599E+04
       188   2 -1.267414E+04 -1.544637E+05 -3.380128E+04  3.272060E+04  6.129772E+02 -2.664668E+04
       188   3  2.836363E+03 -1.428444E+05 -1.741061E+04  1.406535E+04  1.602386E+03 -8.436634E+03
       188   4 -6.044920E+04 -1.630107E+05 -6.733412E+04  1.743530E+04  7.147723E+01 -4.539073E+04
       188   5 -1.327667E+04 -1.574025E+05 -3.386360E+04  1.547968E+04  6.136594E+02 -2.793083E+04
       188   6 -1.854057E+03 -1.630062E+05 -2.069894E+04  1.743344E+04  1.602250E+03 -1.047068E+04
       188   7 -5.682981E+04 -1.485937E+05 -6.364890E+04 -2.041426E+04  7.425218E+01 -4.592547E+04
       188   8 -1.387808E+04 -1.603406E+05 -3.392576E+04 -1.761159E+03  6.144128E+02 -2.921497E+04
       188   9 -6.544454E+03 -1.831677E+05 -2.398726E+04  2.080142E+04  1.602092E+03 -1.250466E+04
       188  10 -6.406377E+04 -1.774266E+05 -7.102236E+04  5.528399E+04  2.569372E-11 -1.734286E-10
       188  11 -1.267433E+04 -1.544645E+05 -3.380261E+04  3.272061E+04 -4.477629E-11 -4.543419E-11
       188  12  2.836341E+03 -1.428444E+05 -1.741075E+04  1.406536E+04  2.042600E-11  1.087252E-10
       188  13 -6.044976E+04 -1.630129E+05 -6.733799E+04  1.743530E+04 -1.338533E-11  1.745708E-11
       188  14 -1.327688E+04 -1.574033E+05 -3.386507E+04  1.547969E+04 -5.839075E-11 -1.054322E-11
       188  15 -1.854090E+03 -1.630064E+05 -2.069915E+04  1.743345E+04 -1.320474E-10  4.552573E-11
       188  16 -5.683038E+04 -1.485960E+05 -6.365287E+04 -2.041426E+04 -6.838314E-11  1.274065E-10
       188  17 -1.387831E+04 -1.603415E+05 -3.392736E+04 -1.761144E+03 -7.092528E-11  2.280155E-11
       188  18 -6.544498E+03 -1.831678E+05 -2.398756E+04  2.080143E+04 -6.153413E-11 -1.060576E-10
       188  19 -6.406322E+04 -1.774244E+05 -7.101858E+04  5.528398E+04 -6.876743E+01  4.485599E+04
       188  20 -1.267414E+04 -1.544637E+05 -3.380128E+04  3.272060E+04 -6.129772E+02  2.664668E+04
       188  21  2.836363E+03 -1.428444E+05 -1.741061E+04  1.406535E+04 -1.602386E+03  8.436634E+03
       188  22 -6.044920E+04 -1.630107E+05 -6.733412E+04  1.743530E+04 -7.147723E+01  4.539073E+04
       188  23 -1.327667E+04 -1.574025E+05 -3.386360E+04  1.547968E+04 -6.136594E+02  2.793083E+04
       188  24 -1.854057E+03 -1.630062E+05 -2.069894E+04  1.743344E+04 -1.602250E+03  1.047068E+04
       188  25 -5.682981E+04 -1.485937E+05 -6.364890E+04 -2.041426E+04 -7.425218E+01  4.592547E+04
       188  26 -1.387808E+04 -1.603406E+05 -3.392576E+04 -1.761159E+03 -6.144128E+02  2.921497E+04
       188  27 -6.544454E+03 -1.831677E+05 -2.398726E+04  2.080142E+04 -1.602092E+03  1.250466E+04
       189   1  4.652867E+03 -1.294581E+05 -1.212517E+04  1.896969E+04  2.330283E+03 -5.556585E+03
       189   2  1.062742E+04 -1.112790E+05 -5.960249E+03  1.549199E+04  3.425392E+03  1.289345E+03
       189   3  1.300657E+04 -9.488979E+04 -5.151626E+03  1.593734E+04  4.318469E+03  8.135493E+03
       189   4 -2.705796E+03 -1.609261E+05 -1.744451E+04  1.743670E+04  2.330220E+03 -7.564912E+03
       189   5 -8.058596E+02 -1.600019E+05 -1.439646E+04  1.547516E+04  3.425360E+03 -3.801053E+02
       189   6 -2.560320E+03 -1.609267E+05 -1.694029E+04  1.743673E+04  4.318494E+03  6.804741E+03
       189   7 -1.006450E+04 -1.923932E+05 -2.276386E+04  1.590380E+04  2.330166E+03 -9.573141E+03
       189   8 -1.223926E+04 -2.087224E+05 -2.283275E+04  1.545833E+04  3.425329E+03 -2.049428E+03
       189   9 -1.812744E+04 -2.269593E+05 -2.872910E+04  1.893596E+04  4.318513E+03  5.474126E+03
       189  10  4.652853E+03 -1.294581E+05 -1.212524E+04  1.896970E+04 -1.768187E-11 -3.840977E-10
       189  11  1.062741E+04 -1.112790E+05 -5.960274E+03  1.549198E+04  3.457503E-11 -6.670432E-11
       189  12  1.300653E+04 -9.488987E+04 -5.151786E+03  1.593731E+04 -5.574755E-11  2.431188E-10
       189  13 -2.705817E+03 -1.609262E+05 -1.744463E+04  1.743672E+04  5.057595E-11  3.098536E-11
       189  14 -8.058723E+02 -1.600019E+05 -1.439648E+04  1.547516E+04 -3.845221E-11 -1.924827E-12
       189  15 -2.560353E+03 -1.609267E+05 -1.694041E+04  1.743671E+04 -2.042009E-11  1.689368E-13
       189  16 -1.006453E+04 -1.923933E+05 -2.276405E+04  1.590382E+04 -1.278316E-10  3.544619E-10
       189  17 -1.223928E+04 -2.087224E+05 -2.283278E+04  1.545834E+04 -1.072489E-10  6.710117E-11
       189  18 -1.812747E+04 -2.269593E+05 -2.872920E+04  1.893594E+04 -2.119077E-11 -2.408636E-10
       189  19  4.652867E+03 -1.294581E+05 -1.212517E+04  1.896969E+04 -2.330283E+03  5.556585E+03
       189  20  1.062742E+04 -1.112790E+05 -5.960249E+03  1.549199E+04 -3.425392E+03 -1.289345E+03
       189  21  1.300657E+04 -9.488979E+04 -5.151626E+03  1.593734E+04 -4.318469E+03 -8.135493E+03
       189  22 -2.705796E+03 -1.609261E+05 -1.744451E+04  1.743670E+04 -2.330220E+03  7.564912E+03
       189  23 -8.058596E+02 -1.600019E+05 -1.439646E+04  1.547516E+04 -3.425360E+03  3.801053E+02
       189  24 -2.560320E+03 -1.609267E+05 -1.694029E+04  1.743673E+04 -4.318494E+03 -6.804741E+03
       189  25 -1.006450E+04 -1.923932E+05 -2.276386E+04  1.590380E+04 -2.330166E+03  9.573141E+03
       189  26 -1.223926E+04 -2.087224E+05 -2.283275E+04  1.545833E+04 -3.425329E+03  2.049428E+03
       189  27 -1.812744E+04 -2.269593E+05 -2.872910E+04  1.893596E+04 -4.318513E+03 -5.474126E+03
       190   1  1.652192E+04 -8.543261E+04 -5.947579E+03  2.056832E+04  4.939908E+03  1.125829E+04
       190   2  1.002331E+04 -6.322010E+04 -1.359525E+04 -8.216404E+02  4.547236E+03  2.327311E+04
       190   3 -2.953656E+04 -5.083534E+04 -3.733020E+04 -1.846523E+04  1.420122E+03  3.528808E+04
       190   4 -1.761502E+03 -1.628773E+05 -1.990896E+04  1.739761E+04  4.939874E+03  9.619881E+03
       190   5 -1.257198E+04 -1.575663E+05 -3.221075E+04  1.552440E+04  4.547903E+03  2.622504E+04
       190   6 -5.724499E+04 -1.628826E+05 -6.378963E+04  1.739748E+04  1.422056E+03  4.282982E+04
       190   7 -2.004522E+04 -2.403162E+05 -3.387057E+04  1.422732E+04  4.939857E+03  7.981673E+03
       190   8 -3.516679E+04 -2.519033E+05 -5.082651E+04  3.186790E+04  4.548725E+03  2.917653E+04
       190   9 -8.494945E+04 -2.749155E+05 -9.024903E+04  5.325367E+04  1.424861E+03  5.037020E+04
       190  10  1.652186E+04 -8.543275E+04 -5.947863E+03  2.056828E+04  1.377797E-10 -2.043011E-10
       190  11  1.002314E+04 -6.322068E+04 -1.359631E+04 -8.217257E+02 -5.886360E-11 -3.579055E-11
       190  12 -2.953690E+04 -5.083667E+04 -3.733255E+04 -1.846527E+04 -8.351494E-12  1.050920E-10
       190  13 -1.761553E+03 -1.628774E+05 -1.990918E+04  1.739758E+04  7.730519E-11 -2.932752E-11
       190  14 -1.257218E+04 -1.575670E+05 -3.221208E+04  1.552430E+04  2.491187E-11  2.310064E-11
       190  15 -5.724548E+04 -1.628846E+05 -6.379308E+04  1.739743E+04 -1.017567E-10 -9.515312E-11
       190  16 -2.004526E+04 -2.403162E+05 -3.387073E+04  1.422728E+04 -7.440152E-12  2.178018E-10
       190  17 -3.516704E+04 -2.519042E+05 -5.082815E+04  3.186780E+04 -5.968298E-11  3.120783E-11
       190  18 -8.495013E+04 -2.749182E+05 -9.025380E+04  5.325361E+04 -2.432944E-11 -1.156857E-10
       190  19  1.652192E+04 -8.543261E+04 -5.947579E+03  2.056832E+04 -4.939908E+03 -1.125829E+04
       190  20  1.002331E+04 -6.322010E+04 -1.359525E+04 -8.216404E+02 -4.547236E+03 -2.327311E+04
       190  21 -2.953656E+04 -5.083534E+04 -3.733020E+04 -1.846523E+04 -1.420122E+03 -3.528808E+04
       190  22 -1.761502E+03 -1.628773E+05 -1.990896E+04  1.739761E+04 -4.939874E+03 -9.619881E+03
       190  23 -1.257198E+04 -1.575663E+05 -3.221075E+04  1.552440E+04 -4.547903E+03 -2.622504E+04
       190  24 -5.724499E+04 -1.628826E+05 -6.378963E+04  1.739748E+04 -1.422056E+03 -4.282982E+04
       190  25 -2.004522E+04 -2.403162E+05 -3.387057E+04  1.422732E+04 -4.939857E+03 -7.981673E+03
       190  26 -3.516679E+04 -2.519033E+05 -5.082651E+04  3.186790E+04 -4.548725E+03 -2.917653E+04
       190  27 -8.494945E+04 -2.749155E+05 -9.024903E+04  5.325367E+04 -1.424861E+03 -5.037020E+04
       191   1  2.754283E+05  1.780408E+05  5.012790E+04  1.786804E+05  3.813071E+04  2.990680E+04
       191   2  2.998305E+05  1.436626E+05  2.237138E+04  2.105265E+05  2.554505E+04  2.261173E+04
       191   3  3.548185E+05  1.307660E+05  1.405367E+04  2.263422E+05  1.470973E+04  1.298105E+04
       191   4  3.993040E+05  1.948776E+05  7.715798E+04  2.072424E+05  4.240847E+04  3.311026E+04
       191   5  3.714613E+05  1.621391E+05  3.748154E+04  2.314425E+05  2.589258E+04  2.287095E+04
       191   6  3.750500E+05  1.517300E+05  2.064933E+04  2.396121E+05  1.112828E+04  1.029575E+04
       191   7  5.231996E+05  2.117164E+05  1.041883E+05  2.358068E+05  4.668744E+04  3.631370E+04
       191   8  4.430992E+05  1.806163E+05  5.259180E+04  2.523602E+05  2.624016E+04  2.313017E+04
       191   9  3.952824E+05  1.726950E+05  2.724517E+04  2.528827E+05  7.546610E+03  7.610205E+03
       191  10  2.754265E+05  1.780394E+05  5.012349E+04  1.786794E+05  2.069667E-10  1.006564E-10
       191  11  2.998297E+05  1.436619E+05  2.236920E+04  2.105261E+05  7.150000E-11 -4.512882E-11
       191  12  3.548182E+05  1.307658E+05  1.405295E+04  2.263421E+05 -2.764962E-10 -1.479230E-10
       191  13  3.993017E+05  1.948759E+05  7.715254E+04  2.072412E+05 -9.888420E-11 -7.594656E-11
       191  14  3.714605E+05  1.621384E+05  3.747930E+04  2.314420E+05 -2.439172E-10 -1.500487E-10
       191  15  3.750498E+05  1.517299E+05  2.064890E+04  2.396120E+05 -2.855061E-10 -5.455341E-11
       191  16  5.231969E+05  2.117144E+05  1.041817E+05  2.358054E+05 -3.182157E-10 -1.905072E-10
       191  17  4.430983E+05  1.806156E+05  5.258950E+04  2.523597E+05  2.257624E-10 -3.263875E-12
       191  18  3.952823E+05  1.726949E+05  2.724496E+04  2.528827E+05  2.063752E-10  1.267536E-10
       191  19  2.754283E+05  1.780408E+05  5.012790E+04  1.786804E+05 -3.813071E+04 -2.990680E+04
       191  20  2.998305E+05  1.436626E+05  2.237138E+04  2.105265E+05 -2.554505E+04 -2.261173E+04
       191  21  3.548185E+05  1.307660E+05  1.405367E+04  2.263422E+05 -1.470973E+04 -1.298105E+04
       191  22  3.993040E+05  1.948776E+05  7.715798E+04  2.072424E+05 -4.240847E+04 -3.311026E+04
       191  23  3.714613E+05  1.621391E+05  3.748154E+04  2.314425E+05 -2.589258E+04 -2.287095E+04
       191  24  3.750500E+05  1.517300E+05  2.064933E+04  2.396121E+05 -1.112828E+04 -1.029575E+04
       191  25  5.231996E+05  2.117164E+05  1.041883E+05  2.358068E+05 -4.668744E+04 -3.631370E+04
       191  26  4.430992E+05  1.806163E+05  5.259180E+04  2.523602E+05 -2.624016E+04 -2.313017E+04
       191  27  3.952824E+05  1.726950E+05  2.724517E+04  2.528827E+05 -7.546610E+03 -7.610205E+03
       192   1  3.673629E+05  1.488991E+05  1.390523E+04  2.356249E+05  1.325233E+04  9.881875E+03
       192   2  3.913905E+05  1.707966E+05  1.398598E+04  2.522593E+05  1.166636E+04  5.452363E+03
       192   3  4.255133E+05  1.857170E+05  1.714261E+04  2.658554E+05  1.023258E+04  8.197825E+02
       192   4  3.738090E+05  1.514300E+05  1.574581E+04  2.378518E+05  9.936050E+03  7.395222E+03
       192   5  3.681501E+05  1.538592E+05  8.722712E+03  2.401381E+05  8.008590E+03  2.709635E+03
       192   6  3.726597E+05  1.493854E+05  5.071708E+03  2.393855E+05  6.233500E+03 -2.178917E+03
       192   7  3.802551E+05  1.539608E+05  1.758642E+04  2.400787E+05  6.619787E+03  4.908599E+03
       192   8  3.449105E+05  1.369224E+05  3.459570E+03  2.280175E+05  4.351036E+03 -3.292443E+01
       192   9  3.198095E+05  1.130556E+05 -6.999251E+03  2.129182E+05  2.234874E+03 -5.177283E+03
       192  10  3.673627E+05  1.488990E+05  1.390472E+04  2.356248E+05 -2.703129E-10 -1.263564E-12
       192  11  3.913904E+05  1.707965E+05  1.398567E+04  2.522593E+05 -1.100718E-10  6.993882E-11
       192  12  4.255132E+05  1.857170E+05  1.714241E+04  2.658554E+05 -4.286969E-11  2.769999E-11
       192  13  3.738089E+05  1.514299E+05  1.574553E+04  2.378517E+05  1.324184E-10  5.805355E-11
       192  14  3.681500E+05  1.538592E+05  8.722578E+03  2.401381E+05 -2.260705E-10  1.112778E-11
       192  15  3.726597E+05  1.493854E+05  5.071626E+03  2.393855E+05 -2.856392E-11  6.331347E-12
       192  16  3.802551E+05  1.539608E+05  1.758630E+04  2.400787E+05  2.148276E-12  1.003046E-10
       192  17  3.449105E+05  1.369224E+05  3.459534E+03  2.280175E+05  2.208992E-10  1.143366E-10
       192  18  3.198094E+05  1.130555E+05 -6.999311E+03  2.129182E+05 -1.446274E-10 -9.961760E-11
       192  19  3.673629E+05  1.488991E+05  1.390523E+04  2.356249E+05 -1.325233E+04 -9.881875E+03
       192  20  3.913905E+05  1.707966E+05  1.398598E+04  2.522593E+05 -1.166636E+04 -5.452363E+03
       192  21  4.255133E+05  1.857170E+05  1.714261E+04  2.658554E+05 -1.023258E+04 -8.197825E+02
       192  22  3.738090E+05  1.514300E+05  1.574581E+04  2.378518E+05 -9.936050E+03 -7.395222E+03
       192  23  3.681501E+05  1.538592E+05  8.722712E+03  2.401381E+05 -8.008590E+03 -2.709635E+03
       192  24  3.726597E+05  1.493854E+05  5.071708E+03  2.393855E+05 -6.233500E+03  2.178917E+03
       192  25  3.802551E+05  1.539608E+05  1.758642E+04  2.400787E+05 -6.619787E+03 -4.908599E+03
       192  26  3.449105E+05  1.369224E+05  3.459570E+03  2.280175E+05 -4.351036E+03  3.292443E+01
       192  27  3.198095E+05  1.130556E+05 -6.999251E+03  2.129182E+05 -2.234874E+03  5.177283E+03
       193   1  4.438850E+05  1.992509E+05  2.058203E+04  2.753366E+05  1.062934E+04 -1.056964E+03
       193   2  4.681786E+05  2.238138E+05  2.584132E+04  2.912478E+05  1.134465E+04 -4.189947E+03
       193   3  5.013593E+05  2.398461E+05  3.198828E+04  3.046531E+05  1.203017E+04 -7.282878E+03
       193   4  3.725607E+05  1.493568E+05  3.934691E+03  2.392512E+05  6.646526E+03 -4.043592E+03
       193   5  3.681109E+05  1.536068E+05  2.471301E+03  2.405204E+05  7.429157E+03 -7.126419E+03
       193   6  3.725325E+05  1.493103E+05  1.837079E+03  2.392825E+05  8.182054E+03 -1.016911E+04
       193   7  3.012410E+05  9.946490E+04 -1.271330E+04  2.031699E+05  2.664257E+03 -7.029817E+03
       193   8  2.680549E+05  8.340587E+04 -2.089925E+04  1.898025E+05  3.514505E+03 -1.006226E+04
       193   9  2.437274E+05  5.878624E+04 -2.831427E+04  1.739288E+05  4.335069E+03 -1.305449E+04
       193  10  4.438849E+05  1.992509E+05  2.058181E+04  2.753367E+05 -2.200299E-11 -3.694896E-11
       193  11  4.681785E+05  2.238138E+05  2.584105E+04  2.912479E+05  3.255128E-11 -2.847329E-11
       193  12  5.013592E+05  2.398460E+05  3.198791E+04  3.046532E+05  1.190112E-11  1.781727E-10
       193  13  3.725607E+05  1.493568E+05  3.934578E+03  2.392512E+05  6.035854E-11 -4.875755E-11
       193  14  3.681109E+05  1.536067E+05  2.471102E+03  2.405204E+05 -1.685508E-11 -1.694838E-11
       193  15  3.725324E+05  1.493102E+05  1.836759E+03  2.392826E+05  1.089012E-10  2.881730E-10
       193  16  3.012410E+05  9.946484E+04 -1.271341E+04  2.031699E+05  1.260117E-10  5.386375E-11
       193  17  2.680549E+05  8.340576E+04 -2.089946E+04  1.898025E+05  1.580914E-10  5.613972E-11
       193  18  2.437273E+05  5.878605E+04 -2.831463E+04  1.739289E+05  1.301734E-10  2.293339E-10
       193  19  4.438850E+05  1.992509E+05  2.058203E+04  2.753366E+05 -1.062934E+04  1.056964E+03
       193  20  4.681786E+05  2.238138E+05  2.584132E+04  2.912478E+05 -1.134465E+04  4.189947E+03
       193  21  5.013593E+05  2.398461E+05  3.198828E+04  3.046531E+05 -1.203017E+04  7.282878E+03
       193  22  3.725607E+05  1.493568E+05  3.934691E+03  2.392512E+05 -6.646526E+03  4.043592E+03
       193  23  3.681109E+05  1.536068E+05  2.471301E+03  2.405204E+05 -7.429157E+03  7.126419E+03
       193  24  3.725325E+05  1.493103E+05  1.837079E+03  2.392825E+05 -8.182054E+03  1.016911E+04
       193  25  3.012410E+05  9.946490E+04 -1.271330E+04  2.031699E+05 -2.664257E+03  7.029817E+03
       193  26  2.680549E+05  8.340587E+04 -2.089925E+04  1.898025E+05 -3.514505E+03  1.006226E+04
       193  27  2.437274E+05  5.878624E+04 -2.831427E+04  1.739288E+05 -4.335069E+03  1.305449E+04
       194   1  5.201004E+05  2.532074E+05  3.650797E+04  3.142237E+05  1.287854E+04 -8.789235E+03
       194   2  5.446224E+05  2.777320E+05  4.391118E+04  3.299186E+05  1.248311E+04 -1.221322E+04
       194   3  5.783250E+05  2.941573E+05  5.301115E+04  3.430220E+05  1.159048E+04 -1.497394E+04
       194   4  3.725255E+05  1.493179E+05  1.740609E+03  2.392911E+05  8.955342E+03 -1.173201E+04
       194   5  3.681519E+05  1.536604E+05  1.962400E+03  2.404567E+05  9.675490E+03 -1.431978E+04
       194   6  3.727164E+05  1.496611E+05  2.913724E+03  2.390299E+05  9.898463E+03 -1.624407E+04
       194   7  2.249758E+05  4.544165E+04 -3.302807E+04  1.643791E+05  5.033388E+03 -1.467384E+04
       194   8  1.917159E+05  2.960638E+04 -3.998894E+04  1.510233E+05  6.868916E+03 -1.642556E+04
       194   9  1.671526E+05  5.187580E+03 -4.718795E+04  1.350757E+05  8.207166E+03 -1.751367E+04
       194  10  5.201002E+05  2.532072E+05  3.650751E+04  3.142238E+05  7.084933E-11  2.008629E-10
       194  11  5.446221E+05  2.777318E+05  4.391061E+04  3.299188E+05  1.842255E-10  4.247618E-11
       194  12  5.783248E+05  2.941570E+05  5.301047E+04  3.430222E+05 -2.250737E-10 -1.633600E-10
       194  13  3.725253E+05  1.493177E+05  1.740200E+03  2.392912E+05 -1.653310E-10 -9.471914E-11
       194  14  3.681517E+05  1.536601E+05  1.961838E+03  2.404568E+05  6.136336E-11 -6.157300E-11
       194  15  3.727162E+05  1.496608E+05  2.913044E+03  2.390301E+05 -2.145576E-10 -2.211326E-10
       194  16  2.249757E+05  4.544142E+04 -3.302852E+04  1.643791E+05 -2.276847E-10 -1.030906E-10
       194  17  1.917157E+05  2.960608E+04 -3.998954E+04  1.510234E+05  8.785114E-11  2.818140E-11
       194  18  1.671524E+05  5.187233E+03 -4.718866E+04  1.350758E+05  9.701014E-11  1.567576E-10
       194  19  5.201004E+05  2.532074E+05  3.650797E+04  3.142237E+05 -1.287854E+04  8.789235E+03
       194  20  5.446224E+05  2.777320E+05  4.391118E+04  3.299186E+05 -1.248311E+04  1.221322E+04
       194  21  5.783250E+05  2.941573E+05  5.301115E+04  3.430220E+05 -1.159048E+04  1.497394E+04
       194  22  3.725255E+05  1.493179E+05  1.740609E+03  2.392911E+05 -8.955342E+03  1.173201E+04
       194  23  3.681519E+05  1.536604E+05  1.962400E+03  2.404567E+05 -9.675490E+03  1.431978E+04
       194  24  3.727164E+05  1.496611E+05  2.913724E+03  2.390299E+05 -9.898463E+03  1.624407E+04
       194  25  2.249758E+05  4.544165E+04 -3.302807E+04  1.643791E+05 -5.033388E+03  1.467384E+04
       194  26  1.917159E+05  2.960638E+04 -3.998894E+04  1.510233E+05 -6.868916E+03  1.642556E+04
       194  27  1.671526E+05  5.187580E+03 -4.718795E+04  1.350757E+05 -8.207166E+03  1.751367E+04
       195   1  5.967531E+05  3.087672E+05  5.896621E+04  3.532643E+05  1.281651E+04 -1.565214E+04
       195   2  6.250003E+05  3.305104E+05  7.435805E+04  3.653730E+05 -4.062450E+03 -2.483557E+04
       195   3  6.679252E+05  3.520518E+05  1.045174E+05  3.728613E+05 -2.655654E+04 -2.653903E+04
       195   4  3.727979E+05  1.498244E+05  3.657384E+03  2.393550E+05  1.026984E+04 -1.756364E+04
       195   5  3.688507E+05  1.548957E+05  6.360266E+03  2.389551E+05  5.975351E+03 -1.730581E+04
       195   6  3.768542E+05  1.570393E+05  1.291686E+04  2.339344E+05 -3.934618E+03 -9.565650E+03
       195   7  1.489045E+05 -9.084692E+03 -5.165362E+04  1.254954E+05  7.724439E+03 -1.947417E+04
       195   8  1.127776E+05 -2.068162E+04 -6.164189E+04  1.125973E+05  1.600747E+04 -9.780146E+03
       195   9  8.587465E+04 -3.793303E+04 -7.869097E+04  9.507916E+04  1.867279E+04  7.397669E+03
       195  10  5.967529E+05  3.087669E+05  5.896544E+04  3.532645E+05  4.670020E-10  3.151188E-10
       195  11  6.250001E+05  3.305098E+05  7.435686E+04  3.653729E+05  3.434657E-10 -1.769788E-11
       195  12  6.679242E+05  3.520508E+05  1.045147E+05  3.728607E+05 -1.939939E-10 -1.516036E-10
       195  13  3.727977E+05  1.498241E+05  3.656606E+03  2.393552E+05  2.487090E-10  5.569889E-10
       195  14  3.688506E+05  1.548954E+05  6.359636E+03  2.389552E+05  5.446332E-10  1.462954E-09
       195  15  3.768541E+05  1.570392E+05  1.291666E+04  2.339344E+05  1.569893E-10  2.811382E-10
       195  16  1.489043E+05 -9.085116E+03 -5.165444E+04  1.254955E+05 -4.158018E-10  4.333385E-11
       195  17  1.127773E+05 -2.068179E+04 -6.164255E+04  1.125974E+05  6.249741E-11  4.688237E-10
       195  18  8.587426E+04 -3.793318E+04 -7.869173E+04  9.507905E+04  2.042547E-10 -1.906145E-10
       195  19  5.967531E+05  3.087672E+05  5.896621E+04  3.532643E+05 -1.281651E+04  1.565214E+04
       195  20  6.250003E+05  3.305104E+05  7.435805E+04  3.653730E+05  4.062450E+03  2.483557E+04
       195  21  6.679252E+05  3.520518E+05  1.045174E+05  3.728613E+05  2.655654E+04  2.653903E+04
       195  22  3.727979E+05  1.498244E+05  3.657384E+03  2.393550E+05 -1.026984E+04  1.756364E+04
       195  23  3.688507E+05  1.548957E+05  6.360266E+03  2.389551E+05 -5.975351E+03  1.730581E+04
       195  24  3.768542E+05  1.570393E+05  1.291686E+04  2.339344E+05  3.934618E+03  9.565650E+03
       195  25  1.489045E+05 -9.084692E+03 -5.165362E+04  1.254954E+05 -7.724439E+03  1.947417E+04
       195  26  1.127776E+05 -2.068162E+04 -6.164189E+04  1.125973E+05 -1.600747E+04  9.780146E+03
       195  27  8.587465E+04 -3.793303E+04 -7.869097E+04  9.507916E+04 -1.867279E+04 -7.397669E+03
       196   1 -6.171991E+04 -2.535270E+03 -5.572263E+04  1.633488E+05 -2.775185E+03  1.295587E+04
       196   2 -4.130355E+04  1.787491E+05 -2.593388E+04  1.544454E+05 -5.767594E+03  2.080711E+04
       196   3 -3.922107E+03  3.632870E+05  2.982660E+03  1.865057E+05  1.399462E+03  2.866009E+04
       196   4  3.387024E+04  3.822654E+05  3.741901E+04  1.844738E+05 -2.769040E+03  2.653209E+04
       196   5  7.537130E+03  3.791918E+05  1.784401E+04  1.639994E+05 -5.768649E+03  1.730988E+04
       196   6  1.129001E+03  3.822954E+05  9.246807E+03  1.844841E+05  1.389395E+03  8.086990E+03
       196   7  1.294513E+05  7.672027E+05  1.305509E+05  2.056119E+05 -2.761974E+03  4.011669E+04
       196   8  5.637549E+04  5.796725E+05  6.161957E+04  1.735565E+05 -5.769813E+03  1.381154E+04
       196   9  6.180316E+03  4.013050E+05  1.551251E+04  1.824625E+05  1.379461E+03 -1.248676E+04
       196  10 -6.171996E+04 -2.535453E+03 -5.572296E+04  1.633488E+05  2.673335E-11 -7.320951E-11
       196  11 -4.130371E+04  1.787486E+05 -2.593475E+04  1.544455E+05  3.295518E-10  4.628984E-10
       196  12 -3.922330E+03  3.632862E+05  2.981113E+03  1.865057E+05  2.331249E-10  3.581142E-10
       196  13  3.387005E+04  3.822647E+05  3.741768E+04  1.844738E+05  1.522359E-10 -2.515797E-11
       196  14  7.537014E+03  3.791915E+05  1.784338E+04  1.639995E+05 -2.475282E-10 -5.058391E-11
       196  15  1.128981E+03  3.822954E+05  9.246681E+03  1.844841E+05  3.809294E-11  2.324067E-10
       196  16  1.294509E+05  7.672010E+05  1.305479E+05  2.056119E+05 -8.504119E-11  9.542161E-11
       196  17  5.637540E+04  5.796722E+05  6.161915E+04  1.735566E+05  3.594162E-12 -1.850685E-10
       196  18  6.180272E+03  4.013049E+05  1.551221E+04  1.824625E+05 -2.064070E-11 -6.216664E-11
       196  19 -6.171991E+04 -2.535270E+03 -5.572263E+04  1.633488E+05  2.775185E+03 -1.295587E+04
       196  20 -4.130355E+04  1.787491E+05 -2.593388E+04  1.544454E+05  5.767594E+03 -2.080711E+04
       196  21 -3.922107E+03  3.632870E+05  2.982660E+03  1.865057E+05 -1.399462E+03 -2.866009E+04
       196  22  3.387024E+04  3.822654E+05  3.741901E+04  1.844738E+05  2.769040E+03 -2.653209E+04
       196  23  7.537130E+03  3.791918E+05  1.784401E+04  1.639994E+05  5.768649E+03 -1.730988E+04
       196  24  1.129001E+03  3.822954E+05  9.246807E+03  1.844841E+05 -1.389395E+03 -8.086990E+03
       196  25  1.294513E+05  7.672027E+05  1.305509E+05  2.056119E+05  2.761974E+03 -4.011669E+04
       196  26  5.637549E+04  5.796725E+05  6.161957E+04  1.735565E+05  5.769813E+03 -1.381154E+04
       196  27  6.180316E+03  4.013050E+05  1.551251E+04  1.824625E+05 -1.379461E+03  1.248676E+04
       197   1  2.492122E+04  4.818247E+05  2.211736E+04  1.841485E+05  8.839052E+03  2.657260E+04
       197   2  6.669468E+04  6.644064E+05  5.133964E+04  1.636701E+05  1.993042E+04  2.346538E+04
       197   3  1.094009E+05  8.476619E+05  8.281455E+04  1.846860E+05  2.984921E+04  2.035970E+04
       197   4  1.655523E+03  3.809867E+05  6.573247E+03  1.846023E+05  8.829775E+03  6.936191E+03
       197   5  1.990481E+02  3.808207E+05  2.273691E+03  1.638550E+05  1.992397E+04  5.797734E+03
       197   6 -6.649868E+02  3.809536E+05 -1.140753E+03  1.846031E+05  2.984525E+04  4.661685E+03
       197   7 -2.161046E+04  2.801597E+05 -8.969644E+03  1.850560E+05  8.820469E+03 -1.269715E+04
       197   8 -6.630074E+04  9.731454E+04 -4.679386E+04  1.640398E+05  1.991750E+04 -1.186209E+04
       197   9 -1.107428E+05 -8.554230E+04 -8.510358E+04  1.845202E+05  2.984129E+04 -1.102487E+04
       197  10  2.492094E+04  4.818239E+05  2.211588E+04  1.841483E+05  7.806760E-11 -5.720180E-11
       197  11  6.669411E+04  6.644057E+05  5.133786E+04  1.636698E+05  1.905028E-10  3.486644E-10
       197  12  1.093998E+05  8.476612E+05  8.281210E+04  1.846855E+05  1.046352E-10  1.053188E-10
       197  13  1.655426E+03  3.809867E+05  6.573010E+03  1.846022E+05  1.566166E-10 -5.048679E-11
       197  14  1.986128E+02  3.808206E+05  2.272882E+03  1.638549E+05  7.124494E-11 -7.187849E-11
       197  15 -6.659492E+02  3.809533E+05 -1.142468E+03  1.846030E+05  1.293227E-10  6.966092E-11
       197  16 -2.161058E+04  2.801595E+05 -8.970093E+03  1.850560E+05  5.707071E-11 -2.337206E-11
       197  17 -6.630121E+04  9.731428E+04 -4.679487E+04  1.640400E+05 -1.908669E-11 -2.258306E-10
       197  18 -1.107438E+05 -8.554267E+04 -8.510548E+04  1.845205E+05  1.420624E-10 -2.207757E-11
       197  19  2.492122E+04  4.818247E+05  2.211736E+04  1.841485E+05 -8.839052E+03 -2.657260E+04
       197  20  6.669468E+04  6.644064E+05  5.133964E+04  1.636701E+05 -1.993042E+04 -2.346538E+04
       197  21  1.094009E+05  8.476619E+05  8.281455E+04  1.846860E+05 -2.984921E+04 -2.035970E+04
       197  22  1.655523E+03  3.809867E+05  6.573247E+03  1.846023E+05 -8.829775E+03 -6.936191E+03
       197  23  1.990481E+02  3.808207E+05  2.273691E+03  1.638550E+05 -1.992397E+04 -5.797734E+03
       197  24 -6.649868E+02  3.809536E+05 -1.140753E+03  1.846031E+05 -2.984525E+04 -4.661685E+03
       197  25 -2.161046E+04  2.801597E+05 -8.969644E+03  1.850560E+05 -8.820469E+03  1.269715E+04
       197  26 -6.630074E+04  9.731454E+04 -4.679386E+04  1.640398E+05 -1.991750E+04  1.186209E+04
       197  27 -1.107428E+05 -8.554230E+04 -8.510358E+04  1.845202E+05 -2.984129E+04  1.102487E+04
       198   1  1.382462E+05  9.675225E+05  1.037632E+05  1.853732E+05  3.667175E+04  2.318131E+04
       198   2  1.803190E+05  1.148645E+06  1.449972E+05  1.601047E+05  3.580179E+04 -1.239727E+04
       198   3  2.203783E+05  1.334001E+06  2.088783E+05  1.748860E+05  1.148228E+04 -4.799353E+04
       198   4 -4.301780E+02  3.802766E+05 -2.832471E+03  1.842828E+05  3.666886E+04  4.897876E+03
       198   5 -3.450021E+03  3.815516E+05 -7.445729E+03  1.642569E+05  3.580873E+04  8.773344E+03
       198   6 -1.532663E+04  3.801889E+05 -1.678292E+04  1.842845E+05  1.148520E+04  1.264133E+04
       198   7 -1.391257E+05 -2.066337E+05 -1.094406E+05  1.831933E+05  3.666603E+04 -1.336876E+04
       198   8 -1.872547E+05 -3.849796E+05 -1.599162E+05  1.684038E+05  3.581597E+04  2.991837E+04
       198   9 -2.510945E+05 -5.727803E+05 -2.424933E+05  1.936685E+05  1.148997E+04  7.318368E+04
       198  10  1.382446E+05  9.675216E+05  1.037597E+05  1.853725E+05  1.922642E-10 -1.901297E-10
       198  11  1.803176E+05  1.148645E+06  1.449945E+05  1.601051E+05  1.859828E-10 -2.162879E-10
       198  12  2.203776E+05  1.333998E+06  2.088737E+05  1.748864E+05  3.699727E-11 -2.377866E-10
       198  13 -4.316284E+02  3.802762E+05 -2.835043E+03  1.842826E+05  1.524729E-10 -3.187036E-12
       198  14 -3.451418E+03  3.815512E+05 -7.448284E+03  1.642567E+05 -8.742088E-12 -5.369159E-11
       198  15 -1.532682E+04  3.801887E+05 -1.678347E+04  1.842844E+05 -4.350009E-11 -3.312840E-10
       198  16 -1.391272E+05 -2.066343E+05 -1.094435E+05  1.831937E+05  2.074586E-11  7.585684E-11
       198  17 -1.872563E+05 -3.849809E+05 -1.599203E+05  1.684030E+05  4.314405E-11  1.069714E-10
       198  18 -2.510961E+05 -5.727861E+05 -2.425037E+05  1.936678E+05  5.847116E-11 -1.077449E-10
       198  19  1.382462E+05  9.675225E+05  1.037632E+05  1.853732E+05 -3.667175E+04 -2.318131E+04
       198  20  1.803190E+05  1.148645E+06  1.449972E+05  1.601047E+05 -3.580179E+04  1.239727E+04
       198  21  2.203783E+05  1.334001E+06  2.088783E+05  1.748860E+05 -1.148228E+04  4.799353E+04
       198  22 -4.301780E+02  3.802766E+05 -2.832471E+03  1.842828E+05 -3.666886E+04 -4.897876E+03
       198  23 -3.450021E+03  3.815516E+05 -7.445729E+03  1.642569E+05 -3.580873E+04 -8.773344E+03
       198  24 -1.532663E+04  3.801889E+05 -1.678292E+04  1.842845E+05 -1.148520E+04 -1.264133E+04
       198  25 -1.391257E+05 -2.066337E+05 -1.094406E+05  1.831933E+05 -3.666603E+04  1.336876E+04
       198  26 -1.872547E+05 -3.849796E+05 -1.599162E+05  1.684038E+05 -3.581597E+04 -2.991837E+04
       198  27 -2.510945E+05 -5.727803E+05 -2.424933E+05  1.936685E+05 -1.148997E+04 -7.318368E+04
       199   1  2.020062E+05  6.132172E+04  5.614175E+04  4.024739E+04  8.882812E+03 -3.933525E+03
       199   2  1.524657E+05  5.899848E+04  4.281576E+04  4.022442E+04  5.692752E+02 -1.251404E+04
       199   3  1.022587E+05  4.960181E+04  3.313395E+04  5.102109E+04 -7.740305E+03 -1.346869E+04
       199   4 -1.099210E+05 -1.580477E+04 -1.753866E+04  5.018688E+04 -1.194424E+04 -3.926294E+03
       199   5 -1.084696E+05 -3.499307E+03 -8.729755E+03  4.477920E+04 -7.443883E+03 -1.251203E+04
       199   6 -1.099118E+05 -4.933497E+02 -5.175114E+03  5.019163E+04 -2.940015E+03 -1.347028E+04
       199   7 -4.217575E+05 -9.293762E+04 -9.122412E+04  6.012135E+04 -3.276089E+04 -3.919729E+03
       199   8 -3.693395E+05 -6.600112E+04 -6.027836E+04  4.933203E+04 -1.545374E+04 -1.251013E+04
       199   9 -3.220384E+05 -5.059101E+04 -4.348585E+04  4.936247E+04  1.858681E+03 -1.347189E+04
       199  10  2.020061E+05  6.132168E+04  5.614157E+04  4.024742E+04 -3.896487E-11  1.623517E-11
       199  11  1.524657E+05  5.899831E+04  4.281547E+04  4.022443E+04 -3.263121E-10 -5.355722E-12
       199  12  1.022586E+05  4.960160E+04  3.313350E+04  5.102100E+04 -2.701955E-10 -4.394375E-11
       199  13 -1.099211E+05 -1.580482E+04 -1.753896E+04  5.018684E+04 -1.536685E-11  3.759673E-11
       199  14 -1.084697E+05 -3.499490E+03 -8.730153E+03  4.477913E+04  8.089422E-11  1.733112E-11
       199  15 -1.099118E+05 -4.935469E+02 -5.175471E+03  5.019160E+04 -3.227038E-10 -6.080231E-11
       199  16 -4.217587E+05 -9.293793E+04 -9.122617E+04  6.012125E+04 -8.974384E-11  2.256256E-11
       199  17 -3.693398E+05 -6.600135E+04 -6.027911E+04  4.933187E+04  5.953290E-10 -7.912704E-12
       199  18 -3.220385E+05 -5.059121E+04 -4.348620E+04  4.936249E+04 -3.716778E-11 -6.536594E-11
       199  19  2.020062E+05  6.132172E+04  5.614175E+04  4.024739E+04 -8.882812E+03  3.933525E+03
       199  20  1.524657E+05  5.899848E+04  4.281576E+04  4.022442E+04 -5.692752E+02  1.251404E+04
       199  21  1.022587E+05  4.960181E+04  3.313395E+04  5.102109E+04  7.740305E+03  1.346869E+04
       199  22 -1.099210E+05 -1.580477E+04 -1.753866E+04  5.018688E+04  1.194424E+04  3.926294E+03
       199  23 -1.084696E+05 -3.499307E+03 -8.729755E+03  4.477920E+04  7.443883E+03  1.251203E+04
       199  24 -1.099118E+05 -4.933497E+02 -5.175114E+03  5.019163E+04  2.940015E+03  1.347028E+04
       199  25 -4.217575E+05 -9.293762E+04 -9.122412E+04  6.012135E+04  3.276089E+04  3.919729E+03
       199  26 -3.693395E+05 -6.600112E+04 -6.027836E+04  4.933203E+04  1.545374E+04  1.251013E+04
       199  27 -3.220384E+05 -5.059101E+04 -4.348585E+04  4.936247E+04 -1.858681E+03  1.347189E+04
       200   1  6.995629E+04  4.155130E+04  2.782325E+04  4.991552E+04 -6.158043E+03 -1.166081E+04
       200   2  2.020428E+04  3.027919E+04  1.930522E+04  4.444547E+04 -5.644965E+03 -8.998613E+03
       200   3 -2.969498E+04  1.863270E+04  1.036225E+04  5.029123E+04 -5.132021E+03 -5.694533E+03
       200   4 -1.093412E+05 -7.228908E+02 -4.246500E+03  5.030103E+04 -2.223778E+03 -1.166202E+04
       200   5 -1.091706E+05 -9.741659E+01 -3.196598E+03  4.464312E+04 -6.327911E+02 -8.999841E+03
       200   6 -1.093369E+05 -3.342137E+01 -3.320430E+03  5.030119E+04  9.581015E+02 -5.695714E+03
       200   7 -2.886074E+05 -4.299886E+04 -3.631742E+04  5.068643E+04  1.709383E+03 -1.166322E+04
       200   8 -2.385291E+05 -3.047491E+04 -2.569891E+04  4.484073E+04  4.378370E+03 -9.001067E+03
       200   9 -1.889726E+05 -1.869987E+04 -1.700318E+04  5.031114E+04  7.047467E+03 -5.696894E+03
       200  10  6.995621E+04  4.155115E+04  2.782292E+04  4.991546E+04 -3.022325E-10 -9.542330E-11
       200  11  2.020422E+04  3.027909E+04  1.930501E+04  4.444543E+04 -2.368822E-10 -1.146246E-10
       200  12 -2.969502E+04  1.863266E+04  1.036213E+04  5.029121E+04  5.929724E-11 -1.024920E-10
       200  13 -1.093413E+05 -7.230381E+02 -4.246765E+03  5.030101E+04  2.231504E-10 -9.078749E-11
       200  14 -1.091707E+05 -9.750367E+01 -3.196751E+03  4.464312E+04 -1.676552E-10 -2.645882E-11
       200  15 -1.093370E+05 -3.345645E+01 -3.320493E+03  5.030119E+04 -8.334229E-11 -1.101620E-10
       200  16 -2.886074E+05 -4.299901E+04 -3.631768E+04  5.068645E+04  3.244583E-10 -6.695433E-11
       200  17 -2.385291E+05 -3.047500E+04 -2.569910E+04  4.484076E+04  4.462102E-10 -3.026576E-12
       200  18 -1.889727E+05 -1.869991E+04 -1.700333E+04  5.031117E+04  9.789577E-11 -9.977644E-11
       200  19  6.995629E+04  4.155130E+04  2.782325E+04  4.991552E+04  6.158043E+03  1.166081E+04
       200  20  2.020428E+04  3.027919E+04  1.930522E+04  4.444547E+04  5.644965E+03  8.998613E+03
       200  21 -2.969498E+04  1.863270E+04  1.036225E+04  5.029123E+04  5.132021E+03  5.694533E+03
       200  22 -1.093412E+05 -7.228908E+02 -4.246500E+03  5.030103E+04  2.223778E+03  1.166202E+04
       200  23 -1.091706E+05 -9.741659E+01 -3.196598E+03  4.464312E+04  6.327911E+02  8.999841E+03
       200  24 -1.093369E+05 -3.342137E+01 -3.320430E+03  5.030119E+04 -9.581015E+02  5.695714E+03
       200  25 -2.886074E+05 -4.299886E+04 -3.631742E+04  5.068643E+04 -1.709383E+03  1.166322E+04
       200  26 -2.385291E+05 -3.047491E+04 -2.569891E+04  4.484073E+04 -4.378370E+03  9.001067E+03
       200  27 -1.889726E+05 -1.869987E+04 -1.700318E+04  5.031114E+04 -7.047467E+03  5.696894E+03
       201   1 -6.231642E+04  1.099567E+04  4.134828E+03  5.002706E+04 -4.483375E+03 -3.547726E+03
       201   2 -1.117460E+05 -9.813216E+02 -6.406353E+03  4.488803E+04 -1.088430E+03 -1.186610E+02
       201   3 -1.619616E+05 -1.437838E+04 -1.951097E+04  5.108254E+04  2.306094E+03  2.954614E+03
       201   4 -1.094136E+05 -3.640657E+00 -3.759495E+03  5.030514E+04  1.576799E+03 -3.548821E+03
       201   5 -1.090711E+05 -2.863906E+02 -5.607482E+03  4.463817E+04  4.373837E+03 -1.196513E+02
       201   6 -1.094139E+05 -1.885433E+03 -9.603802E+03  5.030478E+04  7.170720E+03  2.953728E+03
       201   7 -1.565084E+05 -1.100305E+04 -1.165375E+04  5.058321E+04  7.636528E+03 -3.549911E+03
       201   8 -1.063961E+05  4.085559E+02 -4.808500E+03  4.438832E+04  9.836128E+03 -1.206460E+02
       201   9 -5.686341E+04  1.060737E+04  3.033321E+02  4.952696E+04  1.203575E+04  2.952829E+03
       201  10 -6.231645E+04  1.099565E+04  4.134766E+03  5.002704E+04 -1.083526E-10 -2.397545E-12
       201  11 -1.117460E+05 -9.813219E+02 -6.406356E+03  4.488803E+04 -2.456845E-10  6.879167E-11
       201  12 -1.619616E+05 -1.437839E+04 -1.951099E+04  5.108254E+04 -1.555599E-10  1.017483E-10
       201  13 -1.094136E+05 -3.654849E+00 -3.759523E+03  5.030515E+04  6.727148E-11 -3.236241E-11
       201  14 -1.090711E+05 -2.863958E+02 -5.607518E+03  4.463817E+04 -1.707628E-10  7.981488E-11
       201  15 -1.094139E+05 -1.885456E+03 -9.603915E+03  5.030477E+04  4.841718E-11  1.163144E-10
       201  16 -1.565085E+05 -1.100308E+04 -1.165388E+04  5.058323E+04  1.418243E-10 -5.386286E-11
       201  17 -1.063962E+05  4.085299E+02 -4.808682E+03  4.438832E+04  4.801084E-10  1.015014E-10
       201  18 -5.686357E+04  1.060732E+04  3.030435E+02  4.952693E+04  6.747985E-11  8.194192E-11
       201  19 -6.231642E+04  1.099567E+04  4.134828E+03  5.002706E+04  4.483375E+03  3.547726E+03
       201  20 -1.117460E+05 -9.813216E+02 -6.406353E+03  4.488803E+04  1.088430E+03  1.186610E+02
       201  21 -1.619616E+05 -1.437838E+04 -1.951097E+04  5.108254E+04 -2.306094E+03 -2.954614E+03
       201  22 -1.094136E+05 -3.640657E+00 -3.759495E+03  5.030514E+04 -1.576799E+03  3.548821E+03
       201  23 -1.090711E+05 -2.863906E+02 -5.607482E+03  4.463817E+04 -4.373837E+03  1.196513E+02
       201  24 -1.094139E+05 -1.885433E+03 -9.603802E+03  5.030478E+04 -7.170720E+03 -2.953728E+03
       201  25 -1.565084E+05 -1.100305E+04 -1.165375E+04  5.058321E+04 -7.636528E+03  3.549911E+03
       201  26 -1.063961E+05  4.085559E+02 -4.808500E+03  4.438832E+04 -9.836128E+03  1.206460E+02
       201  27 -5.686341E+04  1.060737E+04  3.033321E+02  4.952696E+04 -1.203575E+04 -2.952829E+03
       202   1 -1.962239E+05 -2.150706E+04 -2.840730E+04  4.784398E+04  3.418005E+03  4.913925E+03
       202   2 -2.415873E+05 -4.148794E+04 -4.968147E+04  5.645162E+04  2.283091E+04  5.782361E+03
       202   3 -2.959154E+05 -8.725682E+04 -9.004225E+04  7.608570E+04  4.224087E+04  1.976328E+03
       202   4 -1.109513E+05 -1.261389E+03 -1.246073E+04  5.023830E+04  8.809524E+03  4.912885E+03
       202   5 -1.071541E+05 -9.132169E+03 -2.239386E+04  4.471989E+04  2.037238E+04  5.782357E+03
       202   6 -1.109578E+05 -4.142484E+04 -4.595879E+04  5.022884E+04  3.193388E+04  1.976939E+03
       202   7 -2.567154E+04  1.898389E+04  3.485638E+03  5.263296E+04  1.420177E+04  4.911887E+03
       202   8  2.729655E+04  2.322300E+04  4.892902E+03  3.298557E+04  1.791333E+04  5.782445E+03
       202   9  7.403286E+04  4.407238E+03 -1.876987E+03  2.436424E+04  2.162383E+04  1.978410E+03
       202  10 -1.962239E+05 -2.150709E+04 -2.840736E+04  4.784397E+04  7.668283E-12  2.258062E-11
       202  11 -2.415879E+05 -4.148812E+04 -4.968251E+04  5.645151E+04 -1.452251E-10 -1.542254E-10
       202  12 -2.959173E+05 -8.725730E+04 -9.004561E+04  7.608563E+04 -1.030486E-10 -6.258658E-11
       202  13 -1.109514E+05 -1.261436E+03 -1.246092E+04  5.023827E+04  2.002757E-10  3.278246E-11
       202  14 -1.071546E+05 -9.132317E+03 -2.239470E+04  4.471980E+04  9.867301E-11  6.595333E-11
       202  15 -1.109589E+05 -4.142512E+04 -4.596072E+04  5.022879E+04 -4.717495E-10 -6.743038E-11
       202  16 -2.567177E+04  1.898381E+04  3.485214E+03  5.263290E+04  2.078390E-11  7.321250E-11
       202  17  2.729620E+04  2.322288E+04  4.892236E+03  3.298549E+04  2.110145E-10  6.607442E-11
       202  18  7.403236E+04  4.407108E+03 -1.877873E+03  2.436421E+04  1.575432E-10  1.906325E-11
       202  19 -1.962239E+05 -2.150706E+04 -2.840730E+04  4.784398E+04 -3.418005E+03 -4.913925E+03
       202  20 -2.415873E+05 -4.148794E+04 -4.968147E+04  5.645162E+04 -2.283091E+04 -5.782361E+03
       202  21 -2.959154E+05 -8.725682E+04 -9.004225E+04  7.608570E+04 -4.224087E+04 -1.976328E+03
       202  22 -1.109513E+05 -1.261389E+03 -1.246073E+04  5.023830E+04 -8.809524E+03 -4.912885E+03
       202  23 -1.071541E+05 -9.132169E+03 -2.239386E+04  4.471989E+04 -2.037238E+04 -5.782357E+03
       202  24 -1.109578E+05 -4.142484E+04 -4.595879E+04  5.022884E+04 -3.193388E+04 -1.976939E+03
       202  25 -2.567154E+04  1.898389E+04  3.485638E+03  5.263296E+04 -1.420177E+04 -4.911887E+03
       202  26  2.729655E+04  2.322300E+04  4.892902E+03  3.298557E+04 -1.791333E+04 -5.782445E+03
       202  27  7.403286E+04  4.407238E+03 -1.876987E+03  2.436424E+04 -2.162383E+04 -1.978410E+03
       203   1 -4.384776E+04 -2.379369E+05 -4.632815E+04  3.779491E+04 -6.852359E+02 -2.440205E+04
       203   2 -1.705801E+04 -2.144780E+05 -2.431601E+04  2.618385E+04 -1.896591E+03 -1.386552E+04
       203   3 -6.879652E+03 -1.965491E+05 -1.331900E+04  1.917103E+04 -1.411225E+03 -3.329202E+03
       203   4 -2.728736E+04 -1.710400E+05 -3.033981E+04  2.077022E+04 -6.828909E+02 -2.093441E+04
       203   5 -5.988980E+03 -1.685208E+05 -1.489276E+04  1.846453E+04 -1.896105E+03 -1.324727E+04
       203   6 -8.067365E+02 -1.710371E+05 -8.480971E+03  2.075757E+04 -1.412340E+03 -5.560778E+03
       203   7 -1.072619E+04 -1.041382E+05 -1.435160E+04  3.743680E+03 -6.807362E+02 -1.746640E+04
       203   8  5.080140E+03 -1.225616E+05 -5.469587E+03  1.074463E+04 -1.895635E+03 -1.262899E+04
       203   9  5.266153E+03 -1.455245E+05 -3.642953E+03  2.234418E+04 -1.413467E+03 -7.792443E+03
       203  10 -4.384792E+04 -2.379375E+05 -4.632927E+04  3.779490E+04 -1.557787E-10 -4.528120E-11
       203  11 -1.705806E+04 -2.144782E+05 -2.431638E+04  2.618383E+04  4.127333E-10  2.283180E-10
       203  12 -6.879657E+03 -1.965491E+05 -1.331902E+04  1.917102E+04  3.290003E-10  6.029060E-10
       203  13 -2.728748E+04 -1.710404E+05 -3.034064E+04  2.077021E+04 -1.487115E-10  2.527016E-12
       203  14 -5.989031E+03 -1.685210E+05 -1.489310E+04  1.846451E+04 -1.194597E-10 -4.898925E-11
       203  15 -8.067470E+02 -1.710372E+05 -8.481033E+03  2.075756E+04  1.045887E-10 -3.655576E-11
       203  16 -1.072628E+04 -1.041386E+05 -1.435217E+04  3.743671E+03 -8.881912E-11  6.962135E-11
       203  17  5.080093E+03 -1.225618E+05 -5.469893E+03  1.074461E+04 -4.928103E-10 -2.537296E-10
       203  18  5.266134E+03 -1.455246E+05 -3.643070E+03  2.234417E+04  2.215816E-10 -6.459253E-10
       203  19 -4.384776E+04 -2.379369E+05 -4.632815E+04  3.779491E+04  6.852359E+02  2.440205E+04
       203  20 -1.705801E+04 -2.144780E+05 -2.431601E+04  2.618385E+04  1.896591E+03  1.386552E+04
       203  21 -6.879652E+03 -1.965491E+05 -1.331900E+04  1.917103E+04  1.411225E+03  3.329202E+03
       203  22 -2.728736E+04 -1.710400E+05 -3.033981E+04  2.077022E+04  6.828909E+02  2.093441E+04
       203  23 -5.988980E+03 -1.685208E+05 -1.489276E+04  1.846453E+04  1.896105E+03  1.324727E+04
       203  24 -8.067365E+02 -1.710371E+05 -8.480971E+03  2.075757E+04  1.412340E+03  5.560778E+03
       203  25 -1.072619E+04 -1.041382E+05 -1.435160E+04  3.743680E+03  6.807362E+02  1.746640E+04
       203  26  5.080140E+03 -1.225616E+05 -5.469587E+03  1.074463E+04  1.895635E+03  1.262899E+04
       203  27  5.266153E+03 -1.455245E+05 -3.642953E+03  2.234418E+04  1.413467E+03  7.792443E+03
       204   1 -4.066208E+03 -1.819820E+05 -9.028419E+03  2.132923E+04 -5.943113E+02 -2.370159E+03
       204   2  1.823224E+03 -1.610311E+05 -2.837060E+03  1.853213E+04  6.136646E+02 -2.611888E+02
       204   3  6.623618E+03 -1.406321E+05  1.707228E+03  2.042805E+04  1.785434E+03  1.847876E+03
       204   4 -1.211373E+03 -1.700433E+05 -6.691983E+03  2.078026E+04 -5.953378E+02 -4.427775E+03
       204   5 -2.257355E+02 -1.697619E+05 -4.348852E+03  1.843353E+04  6.126734E+02 -2.257994E+03
       204   6 -3.396656E+02 -1.700433E+05 -3.694981E+03  2.077983E+04  1.784480E+03 -8.818623E+01
       204   7  1.643457E+03 -1.581045E+05 -4.355537E+03  2.023129E+04 -5.963605E+02 -6.485429E+03
       204   8 -2.274697E+03 -1.784926E+05 -5.860630E+03  1.833493E+04  6.116828E+02 -4.254773E+03
       204   9 -7.302996E+03 -1.994536E+05 -9.097211E+03  2.113160E+04  1.783524E+03 -2.024159E+03
       204  10 -4.066210E+03 -1.819820E+05 -9.028431E+03  2.132922E+04  3.729842E-10 -3.971174E-10
       204  11  1.823224E+03 -1.610311E+05 -2.837061E+03  1.853213E+04  1.498383E-11 -3.048365E-11
       204  12  6.623614E+03 -1.406321E+05  1.707215E+03  2.042805E+04  2.072799E-11  3.144868E-10
       204  13 -1.211379E+03 -1.700434E+05 -6.692020E+03  2.078026E+04  3.711439E-10 -5.689313E-11
       204  14 -2.257373E+02 -1.697619E+05 -4.348862E+03  1.843353E+04  2.542627E-10 -2.602991E-11
       204  15 -3.396690E+02 -1.700433E+05 -3.694987E+03  2.077983E+04  3.032458E-10 -2.086677E-11
       204  16  1.643445E+03 -1.581046E+05 -4.355617E+03  2.023129E+04  4.348333E-10  3.264191E-10
       204  17 -2.274702E+03 -1.784926E+05 -5.860665E+03  1.833493E+04  3.055693E-10  9.245071E-12
       204  18 -7.303001E+03 -1.994536E+05 -9.097225E+03  2.113160E+04  4.991279E-11 -3.145946E-10
       204  19 -4.066208E+03 -1.819820E+05 -9.028419E+03  2.132923E+04  5.943113E+02  2.370159E+03
       204  20  1.823224E+03 -1.610311E+05 -2.837060E+03  1.853213E+04 -6.136646E+02  2.611888E+02
       204  21  6.623618E+03 -1.406321E+05  1.707228E+03  2.042805E+04 -1.785434E+03 -1.847876E+03
       204  22 -1.211373E+03 -1.700433E+05 -6.691983E+03  2.078026E+04  5.953378E+02  4.427775E+03
       204  23 -2.257355E+02 -1.697619E+05 -4.348852E+03  1.843353E+04 -6.126734E+02  2.257994E+03
       204  24 -3.396656E+02 -1.700433E+05 -3.694981E+03  2.077983E+04 -1.784480E+03  8.818623E+01
       204  25  1.643457E+03 -1.581045E+05 -4.355537E+03  2.023129E+04  5.963605E+02  6.485429E+03
       204  26 -2.274697E+03 -1.784926E+05 -5.860630E+03  1.833493E+04 -6.116828E+02  4.254773E+03
       204  27 -7.302996E+03 -1.994536E+05 -9.097211E+03  2.113160E+04 -1.783524E+03  2.024159E+03
       205   1  9.942537E+03 -1.272627E+05  4.143185E+03  2.116510E+04  2.583159E+03  2.666573E+03
       205   2  1.344537E+04 -1.060956E+05  7.702349E+03  1.608352E+04  2.815504E+03  1.731910E+03
       205   3  1.265887E+04 -8.588352E+04  1.079669E+04  1.556824E+04  9.413023E+02  7.981476E+02
       205   4 -2.460816E+02 -1.702672E+05 -3.785958E+03  2.075126E+04  2.582107E+03  5.061654E+02
       205   5 -1.785365E+03 -1.694830E+05 -5.067857E+03  1.846996E+04  2.816195E+03  3.109910E+03
       205   6 -8.228584E+03 -1.702686E+05 -9.272256E+03  2.075502E+04  9.436288E+02  5.714528E+03
       205   7 -1.043480E+04 -2.132698E+05 -1.171516E+04  2.033745E+04  2.581058E+03 -1.654097E+03
       205   8 -1.701633E+04 -2.328666E+05 -1.783826E+04  2.085614E+04  2.816896E+03  4.487772E+03
       205   9 -2.911644E+04 -2.546471E+05 -2.934159E+04  2.594109E+04  9.460376E+02  1.063024E+04
       205  10  9.942528E+03 -1.272628E+05  4.143159E+03  2.116509E+04  1.577925E-10 -2.020726E-10
       205  11  1.344536E+04 -1.060956E+05  7.702329E+03  1.608352E+04 -1.837206E-10 -6.966228E-11
       205  12  1.265887E+04 -8.588352E+04  1.079669E+04  1.556824E+04 -8.793429E-11  1.111234E-10
       205  13 -2.460888E+02 -1.702672E+05 -3.785971E+03  2.075126E+04 -6.408877E-11  2.567591E-12
       205  14 -1.785376E+03 -1.694830E+05 -5.067890E+03  1.846995E+04  2.719126E-11  3.367149E-11
       205  15 -8.228594E+03 -1.702687E+05 -9.272319E+03  2.075501E+04 -1.217847E-10 -9.208646E-12
       205  16 -1.043481E+04 -2.132698E+05 -1.171518E+04  2.033745E+04  2.467665E-10  1.348047E-10
       205  17 -1.701634E+04 -2.328666E+05 -1.783831E+04  2.085613E+04 -3.354187E-11  1.274149E-10
       205  18 -2.911647E+04 -2.546472E+05 -2.934181E+04  2.594108E+04 -1.681462E-10 -7.257695E-11
       205  19  9.942537E+03 -1.272627E+05  4.143185E+03  2.116510E+04 -2.583159E+03 -2.666573E+03
       205  20  1.344537E+04 -1.060956E+05  7.702349E+03  1.608352E+04 -2.815504E+03 -1.731910E+03
       205  21  1.265887E+04 -8.588352E+04  1.079669E+04  1.556824E+04 -9.413023E+02 -7.981476E+02
       205  22 -2.460816E+02 -1.702672E+05 -3.785958E+03  2.075126E+04 -2.582107E+03 -5.061654E+02
       205  23 -1.785365E+03 -1.694830E+05 -5.067857E+03  1.846996E+04 -2.816195E+03 -3.109910E+03
       205  24 -8.228584E+03 -1.702686E+05 -9.272256E+03  2.075502E+04 -9.436288E+02 -5.714528E+03
       205  25 -1.043480E+04 -2.132698E+05 -1.171516E+04  2.033745E+04 -2.581058E+03  1.654097E+03
       205  26 -1.701633E+04 -2.328666E+05 -1.783826E+04  2.085614E+04 -2.816896E+03 -4.487772E+03
       205  27 -2.911644E+04 -2.546471E+05 -2.934159E+04  2.594109E+04 -9.460376E+02 -1.063024E+04
       206   1  1.929451E+05  1.914147E+05  7.449223E+04  1.250927E+05  3.308753E+04  2.242712E+04
       206   2  1.852732E+05  1.510296E+05  4.498243E+04  1.304084E+05  2.281480E+04  9.184783E+03
       206   3  1.892125E+05  1.307205E+05  3.190801E+04  1.288113E+05  1.061220E+04 -1.480709E+03
       206   4  1.174549E+05  9.835181E+04  4.277930E+04  6.948308E+04  2.495466E+04  1.633081E+04
       206   5  1.053978E+05  7.681484E+04  2.081979E+04  8.191037E+04  1.901215E+04  6.334515E+03
       206   6  1.040144E+05  7.441555E+04  1.154024E+04  8.742443E+04  1.113951E+04 -1.085651E+03
       206   7  4.197300E+04  5.302855E+03  1.106644E+04  1.388425E+04  1.682322E+04  1.023655E+04
       206   8  2.553055E+04  2.608084E+03 -3.343142E+03  3.342095E+04  1.521017E+04  3.484966E+03
       206   9  1.882468E+04  1.811442E+04 -8.828003E+03  4.604394E+04  1.166673E+04 -6.906595E+02
       206  10  1.929438E+05  1.914138E+05  7.448923E+04  1.250921E+05 -1.230413E-10 -1.377303E-11
       206  11  1.852726E+05  1.510294E+05  4.498129E+04  1.304082E+05 -4.481500E-10 -3.226572E-11
       206  12  1.892124E+05  1.307204E+05  3.190779E+04  1.288113E+05 -1.557365E-10 -5.514786E-12
       206  13  1.174541E+05  9.835136E+04  4.277763E+04  6.948275E+04 -2.601686E-10  1.032646E-11
       206  14  1.053974E+05  7.681470E+04  2.081903E+04  8.191027E+04 -3.415878E-10 -1.888177E-11
       206  15  1.040142E+05  7.441552E+04  1.154000E+04  8.742444E+04 -4.422332E-10  7.611353E-11
       206  16  4.197267E+04  5.302666E+03  1.106571E+04  1.388411E+04 -2.098239E-10  2.975827E-11
       206  17  2.553030E+04  2.608009E+03 -3.343600E+03  3.342090E+04 -1.916488E-10  1.300374E-10
       206  18  1.882453E+04  1.811438E+04 -8.828260E+03  4.604395E+04 -1.046249E-10  2.433872E-10
       206  19  1.929451E+05  1.914147E+05  7.449223E+04  1.250927E+05 -3.308753E+04 -2.242712E+04
       206  20  1.852732E+05  1.510296E+05  4.498243E+04  1.304084E+05 -2.281480E+04 -9.184783E+03
       206  21  1.892125E+05  1.307205E+05  3.190801E+04  1.288113E+05 -1.061220E+04  1.480709E+03
       206  22  1.174549E+05  9.835181E+04  4.277930E+04  6.948308E+04 -2.495466E+04 -1.633081E+04
       206  23  1.053978E+05  7.681484E+04  2.081979E+04  8.191037E+04 -1.901215E+04 -6.334515E+03
       206  24  1.040144E+05  7.441555E+04  1.154024E+04  8.742443E+04 -1.113951E+04  1.085651E+03
       206  25  4.197300E+04  5.302855E+03  1.106644E+04  1.388425E+04 -1.682322E+04 -1.023655E+04
       206  26  2.553055E+04  2.608084E+03 -3.343142E+03  3.342095E+04 -1.521017E+04 -3.484966E+03
       206  27  1.882468E+04  1.811442E+04 -8.828003E+03  4.604394E+04 -1.166673E+04  6.906595E+02
       207   1  1.806264E+05  1.299271E+05  2.782373E+04  1.261815E+05  9.521487E+03 -1.936740E+03
       207   2  1.739450E+05  1.219604E+05  2.179995E+04  1.225314E+05  6.922854E+03 -3.487684E+03
       207   3  1.659485E+05  1.173051E+05  1.805592E+04  1.192610E+05  4.152533E+03 -4.809601E+03
       207   4  1.032621E+05  7.431723E+04  8.857692E+03  8.646973E+04  9.755249E+03 -1.761699E+03
       207   5  1.036417E+05  7.213437E+04  5.069018E+03  8.670626E+04  7.541835E+03 -3.023905E+03
       207   6  1.026230E+05  7.317940E+04  3.226142E+03  8.732253E+04  5.156728E+03 -4.057069E+03
       207   7  2.590333E+04  1.871017E+04 -1.010925E+04  4.676301E+04  9.988976E+03 -1.586685E+03
       207   8  3.334413E+04  2.231143E+04 -1.166223E+04  5.088585E+04  8.160723E+03 -2.560196E+03
       207   9  3.930330E+04  2.905690E+04 -1.160349E+04  5.538836E+04  6.160769E+03 -3.304652E+03
       207  10  1.806263E+05  1.299270E+05  2.782356E+04  1.261816E+05  1.908392E-10  2.195173E-10
       207  11  1.739449E+05  1.219604E+05  2.179984E+04  1.225314E+05  1.906765E-10 -3.955745E-11
       207  12  1.659484E+05  1.173051E+05  1.805584E+04  1.192610E+05  3.756536E-10 -1.234044E-10
       207  13  1.032620E+05  7.431720E+04  8.857507E+03  8.646975E+04  1.902612E-10  9.860873E-11
       207  14  1.036416E+05  7.213435E+04  5.068894E+03  8.670628E+04  1.570174E-10 -7.855251E-11
       207  15  1.026230E+05  7.317937E+04  3.226061E+03  8.732255E+04  1.707931E-10 -1.622805E-10
       207  16  2.590323E+04  1.871014E+04 -1.010944E+04  4.676303E+04 -1.754732E-10 -2.050912E-11
       207  17  3.334406E+04  2.231140E+04 -1.166237E+04  5.088586E+04 -3.196065E-10 -6.163422E-11
       207  18  3.930326E+04  2.905688E+04 -1.160358E+04  5.538837E+04  1.332115E-10 -2.338773E-10
       207  19  1.806264E+05  1.299271E+05  2.782373E+04  1.261815E+05 -9.521487E+03  1.936740E+03
       207  20  1.739450E+05  1.219604E+05  2.179995E+04  1.225314E+05 -6.922854E+03  3.487684E+03
       207  21  1.659485E+05  1.173051E+05  1.805592E+04  1.192610E+05 -4.152533E+03  4.809601E+03
       207  22  1.032621E+05  7.431723E+04  8.857692E+03  8.646973E+04 -9.755249E+03  1.761699E+03
       207  23  1.036417E+05  7.213437E+04  5.069018E+03  8.670626E+04 -7.541835E+03  3.023905E+03
       207  24  1.026230E+05  7.317940E+04  3.226142E+03  8.732253E+04 -5.156728E+03  4.057069E+03
       207  25  2.590333E+04  1.871017E+04 -1.010925E+04  4.676301E+04 -9.988976E+03  1.586685E+03
       207  26  3.334413E+04  2.231143E+04 -1.166223E+04  5.088585E+04 -8.160723E+03  2.560196E+03
       207  27  3.930330E+04  2.905690E+04 -1.160349E+04  5.538836E+04 -6.160769E+03  3.304652E+03
       208   1  1.608278E+05  1.140586E+05  1.636070E+04  1.167867E+05  3.495772E+03 -4.752025E+03
       208   2  1.543723E+05  1.076672E+05  1.419840E+04  1.126773E+05  2.094958E+03 -4.877130E+03
       208   3  1.458353E+05  1.036771E+05  1.284737E+04  1.092539E+05  6.787361E+02 -4.981728E+03
       208   4  1.025697E+05  7.317193E+04  2.729809E+03  8.725783E+04  4.473617E+03 -4.019218E+03
       208   5  1.036146E+05  7.197526E+04  2.328898E+03  8.691490E+04  3.107383E+03 -4.118363E+03
       208   6  1.025703E+05  7.317251E+04  2.709295E+03  8.725793E+04  1.725715E+03 -4.197015E+03
       208   7  4.431540E+04  3.228726E+04 -1.090129E+04  5.773210E+04  5.451340E+03 -3.286502E+03
       208   8  5.285934E+04  3.628453E+04 -9.540929E+03  6.115467E+04  4.119707E+03 -3.359673E+03
       208   9  5.930670E+04  4.266846E+04 -7.429165E+03  6.526336E+04  2.772616E+03 -3.412362E+03
       208  10  1.608278E+05  1.140586E+05  1.636063E+04  1.167868E+05 -2.349874E-11 -3.273587E-10
       208  11  1.543723E+05  1.076672E+05  1.419835E+04  1.126773E+05  2.328042E-10 -1.290080E-10
       208  12  1.458353E+05  1.036771E+05  1.284732E+04  1.092539E+05  9.554003E-12 -3.164631E-11
       208  13  1.025696E+05  7.317191E+04  2.729741E+03  8.725784E+04 -9.326335E-11 -1.830778E-10
       208  14  1.036146E+05  7.197524E+04  2.328848E+03  8.691491E+04  9.245445E-11 -7.314870E-11
       208  15  1.025703E+05  7.317249E+04  2.709256E+03  8.725793E+04 -7.740159E-11  3.938683E-13
       208  16  4.431536E+04  3.228724E+04 -1.090137E+04  5.773212E+04  2.349340E-10 -1.381018E-11
       208  17  5.285932E+04  3.628451E+04 -9.540982E+03  6.115469E+04  5.759440E-11  1.078449E-10
       208  18  5.930669E+04  4.266845E+04 -7.429202E+03  6.526337E+04 -7.521436E-11  1.031448E-10
       208  19  1.608278E+05  1.140586E+05  1.636070E+04  1.167867E+05 -3.495772E+03  4.752025E+03
       208  20  1.543723E+05  1.076672E+05  1.419840E+04  1.126773E+05 -2.094958E+03  4.877130E+03
       208  21  1.458353E+05  1.036771E+05  1.284737E+04  1.092539E+05 -6.787361E+02  4.981728E+03
       208  22  1.025697E+05  7.317193E+04  2.729809E+03  8.725783E+04 -4.473617E+03  4.019218E+03
       208  23  1.036146E+05  7.197526E+04  2.328898E+03  8.691490E+04 -3.107383E+03  4.118363E+03
       208  24  1.025703E+05  7.317251E+04  2.709295E+03  8.725793E+04 -1.725715E+03  4.197015E+03
       208  25  4.431540E+04  3.228726E+04 -1.090129E+04  5.773210E+04 -5.451340E+03  3.286502E+03
       208  26  5.285934E+04  3.628453E+04 -9.540929E+03  6.115467E+04 -4.119707E+03  3.359673E+03
       208  27  5.930670E+04  4.266846E+04 -7.429165E+03  6.526336E+04 -2.772616E+03  3.412362E+03
       209   1  1.408355E+05  1.004593E+05  1.215233E+04  1.069138E+05 -5.857638E+00 -4.928341E+03
       209   2  1.348738E+05  9.372028E+04  1.224543E+04  1.023851E+05 -2.478323E+03 -5.807371E+03
       209   3  1.274863E+05  9.021300E+04  1.426536E+04  9.824475E+04 -4.954416E+03 -6.681453E+03
       209   4  1.026190E+05  7.318382E+04  3.193429E+03  8.732222E+04  1.038318E+03 -4.145708E+03
       209   5  1.036485E+05  7.213026E+04  5.002763E+03  8.670741E+04 -1.425803E+03 -5.018470E+03
       209   6  1.032499E+05  7.430653E+04  8.731676E+03  8.648092E+04 -3.893600E+03 -5.886320E+03
       209   7  6.440504E+04  4.590976E+04 -5.765307E+03  6.773237E+04  2.082390E+03 -3.363156E+03
       209   8  7.242456E+04  5.054103E+04 -2.239854E+03  7.103081E+04 -3.733640E+02 -4.229629E+03
       209   9  7.901429E+04  5.840037E+04  3.197966E+03  7.471761E+04 -2.832841E+03 -5.091225E+03
       209  10  1.408354E+05  1.004593E+05  1.215228E+04  1.069138E+05  1.183988E-10  1.012104E-10
       209  11  1.348738E+05  9.372025E+04  1.224536E+04  1.023851E+05 -1.659094E-11 -6.098478E-11
       209  12  1.274862E+05  9.021294E+04  1.426523E+04  9.824472E+04 -2.285718E-10 -9.908582E-11
       209  13  1.026190E+05  7.318380E+04  3.193395E+03  8.732222E+04  7.402808E-11 -1.165105E-11
       209  14  1.036485E+05  7.213024E+04  5.002712E+03  8.670740E+04  1.565277E-10 -7.118430E-11
       209  15  1.032499E+05  7.430649E+04  8.731583E+03  8.648090E+04 -1.253731E-10  7.451184E-12
       209  16  6.440503E+04  4.590975E+04 -5.765336E+03  6.773237E+04  1.285834E-10 -1.094652E-11
       209  17  7.242456E+04  5.054101E+04 -2.239888E+03  7.103081E+04 -1.547726E-10 -4.289763E-11
       209  18  7.901427E+04  5.840034E+04  3.197902E+03  7.471760E+04  1.272663E-10 -3.938278E-13
       209  19  1.408355E+05  1.004593E+05  1.215233E+04  1.069138E+05  5.857638E+00  4.928341E+03
       209  20  1.348738E+05  9.372028E+04  1.224543E+04  1.023851E+05  2.478323E+03  5.807371E+03
       209  21  1.274863E+05  9.021300E+04  1.426536E+04  9.824475E+04  4.954416E+03  6.681453E+03
       209  22  1.026190E+05  7.318382E+04  3.193429E+03  8.732222E+04 -1.038318E+03  4.145708E+03
       209  23  1.036485E+05  7.213026E+04  5.002763E+03  8.670741E+04  1.425803E+03  5.018470E+03
       209  24  1.032499E+05  7.430653E+04  8.731676E+03  8.648092E+04  3.893600E+03  5.886320E+03
       209  25  6.440504E+04  4.590976E+04 -5.765307E+03  6.773237E+04 -2.082390E+03  3.363156E+03
       209  26  7.242456E+04  5.054103E+04 -2.239854E+03  7.103081E+04  3.733640E+02  4.229629E+03
       209  27  7.901429E+04  5.840037E+04  3.197966E+03  7.471761E+04  2.832841E+03  5.091225E+03
       210   1  1.205349E+05  8.973063E+04  1.573218E+04  9.755559E+04 -6.417311E+03 -7.207579E+03
       210   2  1.270126E+05  7.430956E+04  2.318786E+04  8.466875E+04 -1.543848E+04 -1.295930E+04
       210   3  1.437735E+05  7.800132E+04  4.318929E+04  6.504187E+04 -2.448701E+04 -1.867462E+04
       210   4  1.039477E+05  7.444805E+04  1.137347E+04  8.743446E+04 -5.360883E+03 -6.415668E+03
       210   5  1.054363E+05  7.668817E+04  2.051440E+04  8.196600E+04 -1.432114E+04 -1.212220E+04
       210   6  1.171944E+05  9.802766E+04  4.214847E+04  6.975763E+04 -2.330845E+04 -1.779266E+04
       210   7  8.736060E+04  5.916553E+04  7.014636E+03  7.731351E+04 -4.304474E+03 -5.623783E+03
       210   8  8.386072E+04  7.906696E+04  1.784101E+04  7.926321E+04 -1.320386E+04 -1.128507E+04
       210   9  9.061760E+04  1.180553E+05  4.110798E+04  7.447282E+04 -2.213000E+04 -1.691063E+04
       210  10  1.205348E+05  8.973056E+04  1.573200E+04  9.755555E+04 -2.195999E-10 -7.324015E-12
       210  11  1.270123E+05  7.430932E+04  2.318709E+04  8.466859E+04 -1.872365E-10  1.310831E-10
       210  12  1.437727E+05  7.800079E+04  4.318751E+04  6.504151E+04 -6.215168E-11  9.319963E-11
       210  13  1.039477E+05  7.444800E+04  1.137334E+04  8.743443E+04 -2.349756E-10  1.785444E-11
       210  14  1.054360E+05  7.668796E+04  2.051374E+04  8.196586E+04 -2.016945E-10  9.485711E-11
       210  15  1.171938E+05  9.802718E+04  4.214686E+04  6.975729E+04 -3.632085E-11  1.454863E-11
       210  16  8.736057E+04  5.916549E+04  7.014542E+03  7.731349E+04  2.971224E-10  2.788424E-11
       210  17  8.386050E+04  7.906677E+04  1.784045E+04  7.926309E+04  7.079570E-11  3.005146E-11
       210  18  9.061700E+04  1.180548E+05  4.110652E+04  7.447252E+04 -7.728062E-11 -4.981391E-11
       210  19  1.205349E+05  8.973063E+04  1.573218E+04  9.755559E+04  6.417311E+03  7.207579E+03
       210  20  1.270126E+05  7.430956E+04  2.318786E+04  8.466875E+04  1.543848E+04  1.295930E+04
       210  21  1.437735E+05  7.800132E+04  4.318929E+04  6.504187E+04  2.448701E+04  1.867462E+04
       210  22  1.039477E+05  7.444805E+04  1.137347E+04  8.743446E+04  5.360883E+03  6.415668E+03
       210  23  1.054363E+05  7.668817E+04  2.051440E+04  8.196600E+04  1.432114E+04  1.212220E+04
       210  24  1.171944E+05  9.802766E+04  4.214847E+04  6.975763E+04  2.330845E+04  1.779266E+04
       210  25  8.736060E+04  5.916553E+04  7.014636E+03  7.731351E+04  4.304474E+03  5.623783E+03
       210  26  8.386072E+04  7.906696E+04  1.784101E+04  7.926321E+04  1.320386E+04  1.128507E+04
       210  27  9.061760E+04  1.180553E+05  4.110798E+04  7.447282E+04  2.213000E+04  1.691063E+04
       211   1  5.266217E+05  1.083376E+05  1.011655E+05  7.775355E+04  2.072594E+04 -6.219742E+03
       211   2  4.389965E+05  9.557016E+04  7.321772E+04  7.370140E+04  4.492791E+03 -1.961258E+04
       211   3  3.520770E+05  7.702699E+04  5.439178E+04  8.865079E+04 -1.173395E+04 -2.066703E+04
       211   4  2.379416E+04 -1.597355E+04 -1.770375E+04  8.776366E+04 -1.215698E+04 -6.214610E+03
       211   5  2.525663E+04 -3.547238E+03 -8.738525E+03  7.826309E+04 -7.648253E+03 -1.961252E+04
       211   6  2.381723E+04 -4.984057E+02 -5.050452E+03  8.776529E+04 -3.135419E+03 -2.066800E+04
       211   7 -4.787986E+05 -1.403019E+05 -1.365864E+05  9.776561E+04 -4.501343E+04 -6.210537E+03
       211   8 -3.883192E+05 -1.026749E+05 -9.070266E+04  8.282168E+04 -1.978138E+04 -1.961265E+04
       211   9 -3.043376E+05 -7.802981E+04 -6.449666E+04  8.688027E+04  5.458696E+03 -2.066900E+04
       211  10  5.266213E+05  1.083374E+05  1.011646E+05  7.775365E+04 -1.146365E-10  6.204622E-11
       211  11  4.389963E+05  9.556974E+04  7.321696E+04  7.370147E+04 -2.501126E-10 -1.078877E-10
       211  12  3.520767E+05  7.702650E+04  5.439072E+04  8.865059E+04  2.314932E-10 -1.747789E-10
       211  13  2.379399E+04 -1.597363E+04 -1.770410E+04  8.776360E+04 -5.245214E-11  4.778145E-11
       211  14  2.525646E+04 -3.547667E+03 -8.739358E+03  7.826297E+04  1.690207E-10 -7.911357E-11
       211  15  2.381711E+04 -4.988671E+02 -5.051273E+03  8.776524E+04  4.905257E-11 -1.083210E-10
       211  16 -4.788008E+05 -1.403024E+05 -1.365903E+05  9.776539E+04  1.091575E-10  1.948348E-11
       211  17 -3.883197E+05 -1.026754E+05 -9.070412E+04  8.282136E+04  4.829022E-10  5.866689E-11
       211  18 -3.043377E+05 -7.803027E+04 -6.449752E+04  8.688036E+04 -4.791801E-10 -1.368481E-10
       211  19  5.266217E+05  1.083376E+05  1.011655E+05  7.775355E+04 -2.072594E+04  6.219742E+03
       211  20  4.389965E+05  9.557016E+04  7.321772E+04  7.370140E+04 -4.492791E+03  1.961258E+04
       211  21  3.520770E+05  7.702699E+04  5.439178E+04  8.865079E+04  1.173395E+04  2.066703E+04
       211  22  2.379416E+04 -1.597355E+04 -1.770375E+04  8.776366E+04  1.215698E+04  6.214610E+03
       211  23  2.525663E+04 -3.547238E+03 -8.738525E+03  7.826309E+04  7.648253E+03  1.961252E+04
       211  24  2.381723E+04 -4.984057E+02 -5.050452E+03  8.776529E+04  3.135419E+03  2.066800E+04
       211  25 -4.787986E+05 -1.403019E+05 -1.365864E+05  9.776561E+04  4.501343E+04  6.210537E+03
       211  26 -3.883192E+05 -1.026749E+05 -9.070266E+04  8.282168E+04  1.978138E+04  1.961265E+04
       211  27 -3.043376E+05 -7.802981E+04 -6.449666E+04  8.688027E+04 -5.458696E+03  2.066900E+04
       212   1  2.951961E+05  6.314163E+04  4.454917E+04  8.760506E+04 -9.648300E+03 -1.745337E+04
       212   2  2.080316E+05  4.299903E+04  2.922371E+04  7.789814E+04 -9.979454E+03 -1.265807E+04
       212   3  1.208686E+05  2.261594E+04  1.405607E+04  8.798900E+04 -1.031116E+04 -6.837021E+03
       212   4  2.440054E+04 -7.263990E+02 -4.047726E+03  8.794162E+04 -2.450544E+03 -1.745385E+04
       212   5  2.455909E+04 -9.385761E+01 -2.794105E+03  7.804252E+04 -1.058916E+03 -1.265794E+04
       212   6  2.441107E+04 -9.719283E-01 -2.579511E+03  8.794160E+04  3.320881E+02 -6.836115E+03
       212   7 -2.463234E+05 -6.459848E+04 -5.264726E+04  8.827803E+04  4.744162E+03 -1.745432E+04
       212   8 -1.588803E+05 -4.318853E+04 -3.481281E+04  7.818685E+04  7.859067E+03 -1.265780E+04
       212   9 -7.203705E+04 -2.261832E+04 -1.921498E+04  8.789420E+04  1.097374E+04 -6.835210E+03
       212  10  2.951959E+05  6.314128E+04  4.454843E+04  8.760492E+04 -2.063723E-10 -2.401949E-10
       212  11  2.080315E+05  4.299883E+04  2.922322E+04  7.789804E+04 -4.197698E-10 -1.002511E-10
       212  12  1.208684E+05  2.261586E+04  1.405578E+04  8.798894E+04 -4.018269E-10  1.883826E-10
       212  13  2.440045E+04 -7.267277E+02 -4.048310E+03  8.794159E+04  3.012219E-10 -1.920976E-10
       212  14  2.455905E+04 -9.402996E+01 -2.794408E+03  7.804251E+04  2.593326E-10 -1.559016E-12
       212  15  2.441106E+04 -1.022142E+00 -2.579599E+03  8.794160E+04 -3.732866E-11  1.938692E-10
       212  16 -2.463235E+05 -6.459881E+04 -5.264787E+04  8.827810E+04  2.566507E-10 -1.232104E-10
       212  17 -1.588804E+05 -4.318872E+04 -3.481323E+04  7.818693E+04  4.031854E-10  9.686165E-12
       212  18 -7.203719E+04 -2.261840E+04 -1.921530E+04  8.789426E+04  6.027473E-10  1.994359E-10
       212  19  2.951961E+05  6.314163E+04  4.454917E+04  8.760506E+04  9.648300E+03  1.745337E+04
       212  20  2.080316E+05  4.299903E+04  2.922371E+04  7.789814E+04  9.979454E+03  1.265807E+04
       212  21  1.208686E+05  2.261594E+04  1.405607E+04  8.798900E+04  1.031116E+04  6.837021E+03
       212  22  2.440054E+04 -7.263990E+02 -4.047726E+03  8.794162E+04  2.450544E+03  1.745385E+04
       212  23  2.455909E+04 -9.385761E+01 -2.794105E+03  7.804252E+04  1.058916E+03  1.265794E+04
       212  24  2.441107E+04 -9.719283E-01 -2.579511E+03  8.794160E+04 -3.320881E+02  6.836115E+03
       212  25 -2.463234E+05 -6.459848E+04 -5.264726E+04  8.827803E+04 -4.744162E+03  1.745432E+04
       212  26 -1.588803E+05 -4.318853E+04 -3.481281E+04  7.818685E+04 -7.859067E+03  1.265780E+04
       212  27 -7.203705E+04 -2.261832E+04 -1.921498E+04  8.789420E+04 -1.097374E+04  6.835210E+03
       213   1  6.390720E+04  9.221768E+03  3.737029E+03  8.778319E+04 -9.811271E+03 -3.082110E+03
       213   2 -2.290597E+04 -1.141937E+04 -1.260125E+04  7.821330E+04 -6.675026E+03  2.874288E+03
       213   3 -1.103883E+05 -3.314672E+04 -3.125270E+04  8.846040E+04 -3.539053E+03  8.111551E+03
       213   4  2.437729E+04  1.382722E+01 -2.775141E+03  8.794576E+04  7.993556E+02 -3.081056E+03
       213   5  2.460862E+04 -1.696183E+02 -3.866998E+03  7.803734E+04  2.727014E+03  2.875067E+03
       213   6  2.437460E+04 -1.228699E+03 -6.432341E+03  8.794585E+04  4.654801E+03  8.112091E+03
       213   7 -1.515084E+04 -9.194133E+03 -9.286934E+03  8.810832E+04  1.140933E+04 -3.079996E+03
       213   8  7.212558E+04  1.108006E+04  4.867497E+03  7.786137E+04  1.212976E+04  2.875840E+03
       213   9  1.591553E+05  3.068833E+04  1.838752E+04  8.743117E+04  1.285039E+04  8.112617E+03
       213  10  6.390710E+04  9.221732E+03  3.736831E+03  8.778317E+04  1.692947E-10  2.065384E-10
       213  11 -2.290602E+04 -1.141940E+04 -1.260135E+04  7.821332E+04 -1.584884E-10  9.176107E-11
       213  12 -1.103884E+05 -3.314680E+04 -3.125285E+04  8.846043E+04  2.792841E-11  2.953953E-10
       213  13  2.437728E+04  1.381685E+01 -2.775160E+03  8.794576E+04  1.264639E-11  1.328355E-10
       213  14  2.460861E+04 -1.696291E+02 -3.867027E+03  7.803733E+04 -4.089787E-10  8.593076E-11
       213  15  2.437456E+04 -1.228775E+03 -6.432505E+03  8.794582E+04 -2.529030E-11  1.142328E-10
       213  16 -1.515098E+04 -9.194179E+03 -9.287196E+03  8.810835E+04  2.733278E-11  1.909387E-10
       213  17  7.212542E+04  1.108001E+04  4.867205E+03  7.786134E+04  4.550353E-10  1.063462E-10
       213  18  1.591551E+05  3.068821E+04  1.838708E+04  8.743109E+04  1.443306E-10 -5.842260E-11
       213  19  6.390720E+04  9.221768E+03  3.737029E+03  8.778319E+04  9.811271E+03  3.082110E+03
       213  20 -2.290597E+04 -1.141937E+04 -1.260125E+04  7.821330E+04  6.675026E+03 -2.874288E+03
       213  21 -1.103883E+05 -3.314672E+04 -3.125270E+04  8.846040E+04  3.539053E+03 -8.111551E+03
       213  22  2.437729E+04  1.382722E+01 -2.775141E+03  8.794576E+04 -7.993556E+02  3.081056E+03
       213  23  2.460862E+04 -1.696183E+02 -3.866998E+03  7.803734E+04 -2.727014E+03 -2.875067E+03
       213  24  2.437460E+04 -1.228699E+03 -6.432341E+03  8.794585E+04 -4.654801E+03 -8.112091E+03
       213  25 -1.515084E+04 -9.194133E+03 -9.286934E+03  8.810832E+04 -1.140933E+04  3.079996E+03
       213  26  7.212558E+04  1.108006E+04  4.867497E+03  7.786137E+04 -1.212976E+04 -2.875840E+03
       213  27  1.591553E+05  3.068833E+04  1.838752E+04  8.743117E+04 -1.285039E+04 -8.112617E+03
       214   1 -1.686826E+05 -4.632436E+04 -4.374433E+04  8.623004E+04 -3.479476E+03  1.148774E+04
       214   2 -2.520505E+05 -7.280830E+04 -7.075003E+04  8.594264E+04  1.958109E+04  1.239566E+04
       214   3 -3.430997E+05 -1.180878E+05 -1.174688E+05  1.048813E+05  4.263636E+04  4.128307E+03
       214   4  2.336123E+04 -8.219290E+02 -8.293833E+03  8.781511E+04  5.750241E+03  1.148804E+04
       214   5  2.585824E+04 -6.032549E+03 -1.481991E+04  7.820129E+04  1.340351E+04  1.239492E+04
       214   6  2.334586E+04 -2.735848E+04 -3.035481E+04  8.781443E+04  2.105499E+04  4.127725E+03
       214   7  2.154410E+05  4.467845E+04  2.715545E+04  8.940067E+04  1.498274E+04  1.148839E+04
       214   8  3.038408E+05  6.073867E+04  4.110643E+04  7.045640E+04  7.223225E+03  1.239434E+04
       214   9  3.899163E+05  6.336253E+04  5.675169E+04  7.073741E+04 -5.390618E+02  4.128331E+03
       214  10 -1.686826E+05 -4.632451E+04 -4.374460E+04  8.623007E+04 -4.484036E-11  2.698821E-10
       214  11 -2.520509E+05 -7.280857E+04 -7.075104E+04  8.594244E+04 -3.338155E-10  1.509685E-11
       214  12 -3.431016E+05 -1.180883E+05 -1.174722E+05  1.048812E+05 -3.184248E-10 -5.204871E-11
       214  13  2.336116E+04 -8.220796E+02 -8.294143E+03  8.781505E+04  1.533134E-11  1.416072E-10
       214  14  2.585801E+04 -6.032763E+03 -1.482054E+04  7.820115E+04  1.829601E-10  7.307448E-11
       214  15  2.334538E+04 -2.735861E+04 -3.035567E+04  8.781436E+04 -3.005863E-11  2.083898E-12
       214  16  2.154407E+05  4.467825E+04  2.715478E+04  8.940054E+04 -2.306669E-10 -1.734064E-12
       214  17  3.038407E+05  6.073849E+04  4.110604E+04  7.045633E+04  5.768139E-10  4.129079E-11
       214  18  3.899163E+05  6.336251E+04  5.675166E+04  7.073741E+04  1.054215E-10  3.057199E-12
       214  19 -1.686826E+05 -4.632436E+04 -4.374433E+04  8.623004E+04  3.479476E+03 -1.148774E+04
       214  20 -2.520505E+05 -7.280830E+04 -7.075003E+04  8.594264E+04 -1.958109E+04 -1.239566E+04
       214  21 -3.430997E+05 -1.180878E+05 -1.174688E+05  1.048813E+05 -4.263636E+04 -4.128307E+03
       214  22  2.336123E+04 -8.219290E+02 -8.293833E+03  8.781511E+04 -5.750241E+03 -1.148804E+04
       214  23  2.585824E+04 -6.032549E+03 -1.481991E+04  7.820129E+04 -1.340351E+04 -1.239492E+04
       214  24  2.334586E+04 -2.735848E+04 -3.035481E+04  8.781443E+04 -2.105499E+04 -4.127725E+03
       214  25  2.154410E+05  4.467845E+04  2.715545E+04  8.940067E+04 -1.498274E+04 -1.148839E+04
       214  26  3.038408E+05  6.073867E+04  4.110643E+04  7.045640E+04 -7.223225E+03 -1.239434E+04
       214  27  3.899163E+05  6.336253E+04  5.675169E+04  7.073741E+04  5.390618E+02 -4.128331E+03
       215   1 -1.081340E+05 -3.746438E+05 -1.097211E+05  1.113328E+05 -2.956152E+03 -4.315032E+04
       215   2 -5.619538E+04 -2.822190E+05 -6.092826E+04  8.911987E+04 -8.296733E+03 -2.054992E+04
       215   3 -2.795573E+04 -1.986693E+05 -3.278253E+04  8.644133E+04 -6.309416E+03  2.051831E+03
       215   4 -3.648639E+04 -8.546152E+04 -4.061924E+04  8.861101E+04 -2.947159E+03 -2.801556E+04
       215   5 -7.975970E+03 -8.208354E+04 -1.994810E+04  7.883467E+04 -8.294730E+03 -1.771694E+04
       215   6 -1.023503E+03 -8.544864E+04 -1.137414E+04  8.859441E+04 -6.314580E+03 -7.420547E+03
       215   7  3.515723E+04  2.037990E+05  2.847786E+04  6.587854E+04 -2.939277E+03 -1.287377E+04
       215   8  4.024133E+04  1.180902E+05  2.103003E+04  6.854609E+04 -8.292822E+03 -1.488307E+04
       215   9  2.590804E+04  2.778463E+04  1.003402E+04  9.074788E+04 -6.319810E+03 -1.689461E+04
       215  10 -1.081345E+05 -3.746458E+05 -1.097246E+05  1.113327E+05  3.526260E-11  1.010707E-09
       215  11 -5.619557E+04 -2.822195E+05 -6.092919E+04  8.911973E+04  3.974081E-10  6.689787E-10
       215  12 -2.795577E+04 -1.986693E+05 -3.278261E+04  8.644134E+04 -2.486293E-10  6.142015E-10
       215  13 -3.648661E+04 -8.546237E+04 -4.062073E+04  8.861094E+04  1.854552E-10  1.836390E-11
       215  14 -7.976128E+03 -8.208390E+04 -1.994882E+04  7.883455E+04  1.754305E-10  4.643089E-11
       215  15 -1.023560E+03 -8.544871E+04 -1.137432E+04  8.859437E+04 -2.578041E-10 -1.313993E-11
       215  16  3.515718E+04  2.037989E+05  2.847753E+04  6.587851E+04  2.388456E-10 -9.792114E-10
       215  17  4.024120E+04  1.180900E+05  2.102948E+04  6.854599E+04 -5.881650E-12 -7.223392E-10
       215  18  2.590792E+04  2.778431E+04  1.003341E+04  9.074780E+04 -2.596748E-10 -7.198578E-10
       215  19 -1.081340E+05 -3.746438E+05 -1.097211E+05  1.113328E+05  2.956152E+03  4.315032E+04
       215  20 -5.619538E+04 -2.822190E+05 -6.092826E+04  8.911987E+04  8.296733E+03  2.054992E+04
       215  21 -2.795573E+04 -1.986693E+05 -3.278253E+04  8.644133E+04  6.309416E+03 -2.051831E+03
       215  22 -3.648639E+04 -8.546152E+04 -4.061924E+04  8.861101E+04  2.947159E+03  2.801556E+04
       215  23 -7.975970E+03 -8.208354E+04 -1.994810E+04  7.883467E+04  8.294730E+03  1.771694E+04
       215  24 -1.023503E+03 -8.544864E+04 -1.137414E+04  8.859441E+04  6.314580E+03  7.420547E+03
       215  25  3.515723E+04  2.037990E+05  2.847786E+04  6.587854E+04  2.939277E+03  1.287377E+04
       215  26  4.024133E+04  1.180902E+05  2.103003E+04  6.854609E+04  8.292822E+03  1.488307E+04
       215  27  2.590804E+04  2.778463E+04  1.003402E+04  9.074788E+04  6.319810E+03  1.689461E+04
       216   1 -1.481106E+04 -1.396005E+05 -1.974955E+04  8.941415E+04 -2.841640E+03  2.817867E+03
       216   2  7.357743E+03 -5.129913E+04 -2.593758E+02  7.884803E+04  2.283127E+03  5.522060E+03
       216   3  2.809093E+04  3.627955E+04  1.710513E+04  8.824143E+04  7.273386E+03  8.226799E+03
       216   4 -1.561953E+03 -8.411940E+04 -8.987331E+03  8.869058E+04 -2.846551E+03 -5.901193E+03
       216   5 -2.534145E+02 -8.373569E+04 -5.875384E+03  7.871044E+04  2.278454E+03 -2.971426E+03
       216   6 -4.192437E+02 -8.412118E+04 -5.045539E+03  8.868997E+04  7.268938E+03 -4.147375E+01
       216   7  1.168702E+04 -2.863521E+04  1.775027E+03  8.796694E+04 -2.851441E+03 -1.462101E+04
       216   8 -7.864590E+03 -1.161711E+05 -1.149116E+04  7.857286E+04  2.273785E+03 -1.146448E+04
       216   9 -2.893021E+04 -2.045077E+05 -2.719655E+04  8.913842E+04  7.264477E+03 -8.308185E+03
       216  10 -1.481107E+04 -1.396005E+05 -1.974958E+04  8.941416E+04 -8.857707E-10  2.759845E-08
       216  11  7.357729E+03 -5.129916E+04 -2.594429E+02  7.884802E+04 -1.423743E-09  1.163419E-11
       216  12  2.809086E+04  3.627947E+04  1.710491E+04  8.824138E+04 -9.317210E-10 -2.755746E-08
       216  13 -1.561971E+03 -8.411944E+04 -8.987411E+03  8.869057E+04 -8.323109E-10  1.927147E-11
       216  14 -2.534224E+02 -8.373570E+04 -5.875410E+03  7.871045E+04 -1.524667E-09  5.411799E-11
       216  15 -4.193004E+02 -8.412120E+04 -5.045638E+03  8.868997E+04 -6.601404E-10 -5.973552E-11
       216  16  1.168695E+04 -2.863544E+04  1.774610E+03  8.796691E+04 -7.811021E-10 -2.758715E-08
       216  17 -7.864631E+03 -1.161712E+05 -1.149141E+04  7.857288E+04 -1.062370E-09 -1.146164E-10
       216  18 -2.893028E+04 -2.045078E+05 -2.719678E+04  8.913847E+04 -7.733970E-10  2.742772E-08
       216  19 -1.481106E+04 -1.396005E+05 -1.974955E+04  8.941415E+04  2.841640E+03 -2.817867E+03
       216  20  7.357743E+03 -5.129913E+04 -2.593758E+02  7.884803E+04 -2.283127E+03 -5.522060E+03
       216  21  2.809093E+04  3.627955E+04  1.710513E+04  8.824143E+04 -7.273386E+03 -8.226799E+03
       216  22 -1.561953E+03 -8.411940E+04 -8.987331E+03  8.869058E+04  2.846551E+03  5.901193E+03
       216  23 -2.534145E+02 -8.373569E+04 -5.875384E+03  7.871044E+04 -2.278454E+03  2.971426E+03
       216  24 -4.192437E+02 -8.412118E+04 -5.045539E+03  8.868997E+04 -7.268938E+03  4.147375E+01
       216  25  1.168702E+04 -2.863521E+04  1.775027E+03  8.796694E+04  2.851441E+03  1.462101E+04
       216  26 -7.864590E+03 -1.161711E+05 -1.149116E+04  7.857286E+04 -2.273785E+03  1.146448E+04
       216  27 -2.893021E+04 -2.045077E+05 -2.719655E+04  8.913842E+04 -7.264477E+03  8.308185E+03
       217   1  4.193122E+04  9.378447E+04  2.769199E+04  8.919549E+04  1.067029E+04  9.978791E+03
       217   2  6.120971E+04  1.815929E+05  4.638558E+04  7.559805E+04  1.172102E+04 -1.276136E+03
       217   3  7.626072E+04  2.698084E+05  7.134593E+04  8.142567E+04  3.924154E+03 -1.253002E+04
       217   4 -2.916575E+02 -8.443806E+04 -5.198760E+03  8.857090E+04  1.066560E+04  7.693586E+02
       217   5 -2.455198E+03 -8.335559E+04 -7.026237E+03  7.886037E+04  1.172414E+04  4.381386E+03
       217   6 -1.142760E+04 -8.445360E+04 -1.291052E+04  8.857583E+04  3.933204E+03  7.995837E+03
       217   7 -4.251630E+04 -2.626296E+05 -3.809051E+04  8.794648E+04  1.066092E+04 -8.437499E+03
       217   8 -6.612439E+04 -3.482371E+05 -6.044153E+04  8.212125E+04  1.172731E+04  1.003654E+04
       217   9 -9.912454E+04 -4.385994E+05 -9.717415E+04  9.572187E+04  3.942729E+03  2.851004E+04
       217  10  4.193107E+04  9.378433E+04  2.769159E+04  8.919541E+04 -5.949881E-11 -7.381975E-10
       217  11  6.120956E+04  1.815929E+05  4.638532E+04  7.559806E+04 -9.726621E-11 -7.035199E-10
       217  12  7.626066E+04  2.698082E+05  7.134561E+04  8.142571E+04  1.520282E-10 -8.893887E-10
       217  13 -2.917798E+02 -8.443809E+04 -5.198975E+03  8.857089E+04 -5.670319E-10  9.341576E-11
       217  14 -2.455350E+03 -8.335565E+04 -7.026531E+03  7.886032E+04  2.784152E-10  6.265678E-11
       217  15 -1.142763E+04 -8.445367E+04 -1.291067E+04  8.857580E+04  7.612050E-11  1.043307E-11
       217  16 -4.251644E+04 -2.626297E+05 -3.809086E+04  8.794656E+04 -2.170622E-10  6.978649E-10
       217  17 -6.612457E+04 -3.482372E+05 -6.044198E+04  8.212116E+04  2.673343E-10  7.038933E-10
       217  18 -9.912477E+04 -4.386002E+05 -9.717570E+04  9.572178E+04  9.386460E-11  8.247828E-10
       217  19  4.193122E+04  9.378447E+04  2.769199E+04  8.919549E+04 -1.067029E+04 -9.978791E+03
       217  20  6.120971E+04  1.815929E+05  4.638558E+04  7.559805E+04 -1.172102E+04  1.276136E+03
       217  21  7.626072E+04  2.698084E+05  7.134593E+04  8.142567E+04 -3.924154E+03  1.253002E+04
       217  22 -2.916575E+02 -8.443806E+04 -5.198760E+03  8.857090E+04 -1.066560E+04 -7.693586E+02
       217  23 -2.455198E+03 -8.335559E+04 -7.026237E+03  7.886037E+04 -1.172414E+04 -4.381386E+03
       217  24 -1.142760E+04 -8.445360E+04 -1.291052E+04  8.857583E+04 -3.933204E+03 -7.995837E+03
       217  25 -4.251630E+04 -2.626296E+05 -3.809051E+04  8.794648E+04 -1.066092E+04  8.437499E+03
       217  26 -6.612439E+04 -3.482371E+05 -6.044153E+04  8.212125E+04 -1.172731E+04 -1.003654E+04
       217  27 -9.912454E+04 -4.385994E+05 -9.717415E+04  9.572187E+04 -3.942729E+03 -2.851004E+04
       218   1  3.510587E+05  3.140672E+05  1.005145E+05  2.412463E+05  4.652077E+04  3.229436E+04
       218   2  3.413628E+05  2.543072E+05  5.828602E+04  2.503039E+05  3.142089E+04  1.498919E+04
       218   3  3.495438E+05  2.243727E+05  3.962896E+04  2.486348E+05  1.418319E+04  5.376092E+02
       218   4  2.775902E+05  2.014578E+05  6.548190E+04  1.769734E+05  3.767835E+04  2.566243E+04
       218   5  2.588835E+05  1.687504E+05  3.188930E+04  1.960697E+05  2.737474E+04  1.195501E+04
       218   6  2.570162E+05  1.648304E+05  1.770966E+04  2.044386E+05  1.493327E+04  1.099795E+03
       218   7  2.041295E+05  8.886763E+04  3.044893E+04  1.127126E+05  2.883725E+04  1.903312E+04
       218   8  1.764115E+05  8.320285E+04  5.491641E+03  1.418449E+05  2.332925E+04  8.921655E+03
       218   9  1.644967E+05  1.052911E+05 -4.210780E+03  1.602489E+05  1.568322E+04  1.661891E+03
       218  10  3.510561E+05  3.140655E+05  1.005085E+05  2.412451E+05  5.186392E-11  3.078545E-11
       218  11  3.413617E+05  2.543067E+05  5.828374E+04  2.503036E+05 -9.573189E-11  4.629447E-11
       218  12  3.495436E+05  2.243726E+05  3.962858E+04  2.486348E+05 -2.804738E-11  1.650409E-10
       218  13  2.775885E+05  2.014567E+05  6.547800E+04  1.769726E+05 -1.369939E-10  8.129616E-11
       218  14  2.588827E+05  1.687500E+05  3.188763E+04  1.960695E+05  2.591273E-10  2.474032E-10
       218  15  2.570159E+05  1.648303E+05  1.770923E+04  2.044386E+05 -4.256655E-10  3.395133E-11
       218  16  2.041285E+05  8.886702E+04  3.044668E+04  1.127121E+05 -3.976513E-11  4.638066E-11
       218  17  1.764109E+05  8.320262E+04  5.490469E+03  1.418447E+05 -1.090103E-10 -5.567715E-12
       218  18  1.644965E+05  1.052910E+05 -4.211247E+03  1.602489E+05 -1.317703E-10 -5.373015E-11
       218  19  3.510587E+05  3.140672E+05  1.005145E+05  2.412463E+05 -4.652077E+04 -3.229436E+04
       218  20  3.413628E+05  2.543072E+05  5.828602E+04  2.503039E+05 -3.142089E+04 -1.498919E+04
       218  21  3.495438E+05  2.243727E+05  3.962896E+04  2.486348E+05 -1.418319E+04 -5.376092E+02
       218  22  2.775902E+05  2.014578E+05  6.548190E+04  1.769734E+05 -3.767835E+04 -2.566243E+04
       218  23  2.588835E+05  1.687504E+05  3.188930E+04  1.960697E+05 -2.737474E+04 -1.195501E+04
       218  24  2.570162E+05  1.648304E+05  1.770966E+04  2.044386E+05 -1.493327E+04 -1.099795E+03
       218  25  2.041295E+05  8.886763E+04  3.044893E+04  1.127126E+05 -2.883725E+04 -1.903312E+04
       218  26  1.764115E+05  8.320285E+04  5.491641E+03  1.418449E+05 -2.332925E+04 -8.921655E+03
       218  27  1.644967E+05  1.052911E+05 -4.210780E+03  1.602489E+05 -1.568322E+04 -1.661891E+03
       219   1  3.377670E+05  2.240910E+05  3.380074E+04  2.452731E+05  1.241191E+04 -2.999533E+02
       219   2  3.292411E+05  2.136154E+05  2.530275E+04  2.407615E+05  8.560962E+03 -2.593510E+03
       219   3  3.192606E+05  2.075865E+05  2.018707E+04  2.366608E+05  4.520328E+03 -4.633776E+03
       219   4  2.558834E+05  1.646585E+05  1.361932E+04  2.029716E+05  1.283669E+04  1.830211E+01
       219   5  2.561676E+05  1.616096E+05  7.868651E+03  2.034207E+05  9.411879E+03 -1.955746E+03
       219   6  2.549047E+05  1.629150E+05  5.131037E+03  2.042807E+05  5.797263E+03 -3.676573E+03
       219   7  1.740090E+05  1.052314E+05 -6.562046E+03  1.606773E+05  1.326139E+04  3.364933E+02
       219   8  1.831010E+05  1.096076E+05 -9.565551E+03  1.660854E+05  1.026265E+04 -1.318090E+03
       219   9  1.905536E+05  1.182461E+05 -9.925229E+03  1.719044E+05  7.074020E+03 -2.719502E+03
       219  10  3.377668E+05  2.240910E+05  3.380045E+04  2.452731E+05 -1.146320E-10  1.561602E-10
       219  11  3.292410E+05  2.136154E+05  2.530260E+04  2.407615E+05 -1.731796E-11  1.660100E-11
       219  12  3.192605E+05  2.075865E+05  2.018699E+04  2.366608E+05 -5.873398E-10 -9.238949E-11
       219  13  2.558832E+05  1.646585E+05  1.361901E+04  2.029716E+05 -4.051928E-11  8.234899E-11
       219  14  2.561675E+05  1.616096E+05  7.868478E+03  2.034207E+05 -3.950595E-11  6.711876E-11
       219  15  2.549046E+05  1.629150E+05  5.130949E+03  2.042807E+05  2.302016E-11 -8.363759E-12
       219  16  1.740088E+05  1.052314E+05 -6.562377E+03  1.606773E+05 -2.741958E-10 -1.331104E-10
       219  17  1.831009E+05  1.096076E+05 -9.565752E+03  1.660854E+05 -1.041091E-10 -1.294973E-11
       219  18  1.905536E+05  1.182460E+05 -9.925337E+03  1.719045E+05  4.607603E-10  1.749821E-10
       219  19  3.377670E+05  2.240910E+05  3.380074E+04  2.452731E+05 -1.241191E+04  2.999533E+02
       219  20  3.292411E+05  2.136154E+05  2.530275E+04  2.407615E+05 -8.560962E+03  2.593510E+03
       219  21  3.192606E+05  2.075865E+05  2.018707E+04  2.366608E+05 -4.520328E+03  4.633776E+03
       219  22  2.558834E+05  1.646585E+05  1.361932E+04  2.029716E+05 -1.283669E+04 -1.830211E+01
       219  23  2.561676E+05  1.616096E+05  7.868651E+03  2.034207E+05 -9.411879E+03  1.955746E+03
       219  24  2.549047E+05  1.629150E+05  5.131037E+03  2.042807E+05 -5.797263E+03  3.676573E+03
       219  25  1.740090E+05  1.052314E+05 -6.562046E+03  1.606773E+05 -1.326139E+04 -3.364933E+02
       219  26  1.831010E+05  1.096076E+05 -9.565551E+03  1.660854E+05 -1.026265E+04  1.318090E+03
       219  27  1.905536E+05  1.182461E+05 -9.925229E+03  1.719044E+05 -7.074020E+03  2.719502E+03
       220   1  3.127178E+05  2.035335E+05  1.797528E+04  2.335327E+05  3.540169E+03 -4.670382E+03
       220   2  3.045006E+05  1.954436E+05  1.532841E+04  2.283307E+05  1.355987E+03 -5.133101E+03
       220   3  2.937205E+05  1.904532E+05  1.405386E+04  2.240080E+05 -8.427985E+02 -5.576411E+03
       220   4  2.548280E+05  1.629020E+05  4.432896E+03  2.041847E+05  4.788024E+03 -3.734943E+03
       220   5  2.561157E+05  1.613610E+05  4.008293E+03  2.037412E+05  2.636627E+03 -4.173030E+03
       220   6  2.548336E+05  1.629122E+05  4.927698E+03  2.041770E+05  4.706259E+02 -4.591716E+03
       220   7  1.969411E+05  1.222719E+05 -9.110040E+03  1.748393E+05  6.035745E+03 -2.799603E+03
       220   8  2.077336E+05  1.272798E+05 -7.311962E+03  1.791539E+05  3.917134E+03 -3.213059E+03
       220   9  2.159492E+05  1.353726E+05 -4.198306E+03  1.843477E+05  1.783918E+03 -3.607122E+03
       220  10  3.127177E+05  2.035334E+05  1.797521E+04  2.335327E+05 -2.364346E-10  1.450592E-10
       220  11  3.045006E+05  1.954436E+05  1.532836E+04  2.283307E+05 -1.398236E-10 -8.344122E-11
       220  12  2.937205E+05  1.904532E+05  1.405380E+04  2.240080E+05 -1.268569E-10 -8.996660E-11
       220  13  2.548280E+05  1.629020E+05  4.432827E+03  2.041847E+05  1.384794E-10  1.449377E-11
       220  14  2.561157E+05  1.613610E+05  4.008247E+03  2.037412E+05 -5.476743E-11  7.801652E-12
       220  15  2.548336E+05  1.629122E+05  4.927658E+03  2.041770E+05  2.604233E-10  4.426457E-11
       220  16  1.969411E+05  1.222719E+05 -9.110123E+03  1.748393E+05  1.230218E-10  6.063896E-12
       220  17  2.077336E+05  1.272798E+05 -7.312010E+03  1.791539E+05 -6.399264E-11  2.319439E-12
       220  18  2.159492E+05  1.353726E+05 -4.198336E+03  1.843478E+05 -3.513077E-11  6.633589E-12
       220  19  3.127178E+05  2.035335E+05  1.797528E+04  2.335327E+05 -3.540169E+03  4.670382E+03
       220  20  3.045006E+05  1.954436E+05  1.532841E+04  2.283307E+05 -1.355987E+03  5.133101E+03
       220  21  2.937205E+05  1.904532E+05  1.405386E+04  2.240080E+05  8.427985E+02  5.576411E+03
       220  22  2.548280E+05  1.629020E+05  4.432896E+03  2.041847E+05 -4.788024E+03  3.734943E+03
       220  23  2.561157E+05  1.613610E+05  4.008293E+03  2.037412E+05 -2.636627E+03  4.173030E+03
       220  24  2.548336E+05  1.629122E+05  4.927698E+03  2.041770E+05 -4.706259E+02  4.591716E+03
       220  25  1.969411E+05  1.222719E+05 -9.110040E+03  1.748393E+05 -6.035745E+03  2.799603E+03
       220  26  2.077336E+05  1.272798E+05 -7.311962E+03  1.791539E+05 -3.917134E+03  3.213059E+03
       220  27  2.159492E+05  1.353726E+05 -4.198306E+03  1.843477E+05 -1.783918E+03  3.607122E+03
       221   1  2.873132E+05  1.865052E+05  1.354874E+04  2.211266E+05 -1.948855E+03 -5.691904E+03
       221   2  2.800151E+05  1.777299E+05  1.489735E+04  2.151342E+05 -6.250231E+03 -7.719262E+03
       221   3  2.714320E+05  1.736576E+05  1.983924E+04  2.094534E+05 -1.052892E+04 -9.776855E+03
       221   4  2.549319E+05  1.629347E+05  5.917211E+03  2.043046E+05 -6.346637E+02 -4.706612E+03
       221   5  2.561713E+05  1.616498E+05  9.463860E+03  2.033445E+05 -4.986706E+03 -6.771945E+03
       221   6  2.561366E+05  1.650788E+05  1.664778E+04  2.026960E+05 -9.316158E+03 -8.867600E+03
       221   7  2.225517E+05  1.393648E+05 -1.714378E+03  1.874836E+05  6.794367E+02 -3.721392E+03
       221   8  2.323280E+05  1.455698E+05  4.030271E+03  1.915553E+05 -3.723235E+03 -5.824665E+03
       221   9  2.408413E+05  1.564999E+05  1.345623E+04  1.959388E+05 -8.103419E+03 -7.958351E+03
       221  10  2.873132E+05  1.865051E+05  1.354867E+04  2.211266E+05  2.679940E-11 -5.795669E-11
       221  11  2.800151E+05  1.777299E+05  1.489716E+04  2.151341E+05 -2.781731E-11 -4.304527E-11
       221  12  2.714318E+05  1.736575E+05  1.983885E+04  2.094533E+05 -2.416115E-10 -3.659338E-11
       221  13  2.549318E+05  1.629346E+05  5.917169E+03  2.043045E+05  1.549814E-10 -4.796771E-11
       221  14  2.561713E+05  1.616497E+05  9.463728E+03  2.033445E+05 -2.694684E-10 -5.752892E-11
       221  15  2.561365E+05  1.650787E+05  1.664747E+04  2.026960E+05 -4.020219E-10  1.846945E-11
       221  16  2.225517E+05  1.393648E+05 -1.714405E+03  1.874836E+05  9.644144E-11 -5.876262E-12
       221  17  2.323279E+05  1.455697E+05  4.030181E+03  1.915553E+05  2.265299E-10 -4.648820E-11
       221  18  2.408412E+05  1.564998E+05  1.345598E+04  1.959387E+05  8.213716E-11  1.604860E-10
       221  19  2.873132E+05  1.865052E+05  1.354874E+04  2.211266E+05  1.948855E+03  5.691904E+03
       221  20  2.800151E+05  1.777299E+05  1.489735E+04  2.151342E+05  6.250231E+03  7.719262E+03
       221  21  2.714320E+05  1.736576E+05  1.983924E+04  2.094534E+05  1.052892E+04  9.776855E+03
       221  22  2.549319E+05  1.629347E+05  5.917211E+03  2.043046E+05  6.346637E+02  4.706612E+03
       221  23  2.561713E+05  1.616498E+05  9.463860E+03  2.033445E+05  4.986706E+03  6.771945E+03
       221  24  2.561366E+05  1.650788E+05  1.664778E+04  2.026960E+05  9.316158E+03  8.867600E+03
       221  25  2.225517E+05  1.393648E+05 -1.714378E+03  1.874836E+05 -6.794367E+02  3.721392E+03
       221  26  2.323280E+05  1.455698E+05  4.030271E+03  1.915553E+05  3.723235E+03  5.824665E+03
       221  27  2.408413E+05  1.564999E+05  1.345623E+04  1.959388E+05  8.103419E+03  7.958351E+03
       222   1  2.612735E+05  1.749303E+05  2.339147E+04  2.097216E+05 -1.317639E+04 -1.107343E+04
       222   2  2.777824E+05  1.495457E+05  3.844824E+04  1.877982E+05 -2.920600E+04 -2.220642E+04
       222   3  3.153070E+05  1.590744E+05  7.687624E+04  1.525403E+05 -4.496625E+04 -3.369738E+04
       222   4  2.574795E+05  1.653435E+05  2.171933E+04  2.045188E+05 -1.192305E+04 -1.013355E+04
       222   5  2.595807E+05  1.703741E+05  3.923381E+04  1.942729E+05 -2.855653E+04 -2.172098E+04
       222   6  2.828266E+05  2.104459E+05  8.064330E+04  1.706924E+05 -4.492016E+04 -3.366795E+04
       222   7  2.536856E+05  1.557570E+05  2.004726E+04  1.993162E+05 -1.066974E+04 -9.193727E+03
       222   8  2.413803E+05  1.912037E+05  4.001961E+04  2.007472E+05 -2.790709E+04 -2.123550E+04
       222   9  2.503509E+05  2.618250E+05  8.441145E+04  1.888434E+05 -4.487407E+04 -3.363851E+04
       222  10  2.612733E+05  1.749301E+05  2.339091E+04  2.097215E+05  4.865700E-10  3.203764E-10
       222  11  2.777814E+05  1.495449E+05  3.844571E+04  1.877977E+05  3.776179E-10 -4.017986E-11
       222  12  3.153045E+05  1.590726E+05  7.687031E+04  1.525390E+05 -1.488715E-10 -2.558317E-10
       222  13  2.574793E+05  1.653433E+05  2.171887E+04  2.045187E+05 -2.914041E-10  2.024833E-11
       222  14  2.595797E+05  1.703734E+05  3.923139E+04  1.942724E+05  4.008946E-11 -1.351437E-10
       222  15  2.828241E+05  2.104441E+05  8.063739E+04  1.706912E+05 -3.940927E-10  1.531003E-11
       222  16  2.536855E+05  1.557569E+05  2.004688E+04  1.993161E+05 -4.519562E-10 -2.721636E-10
       222  17  2.413794E+05  1.912030E+05  4.001730E+04  2.007468E+05 -2.571415E-10 -2.880416E-10
       222  18  2.503485E+05  2.618232E+05  8.440554E+04  1.888422E+05  8.739373E-11  6.772737E-11
       222  19  2.612735E+05  1.749303E+05  2.339147E+04  2.097216E+05  1.317639E+04  1.107343E+04
       222  20  2.777824E+05  1.495457E+05  3.844824E+04  1.877982E+05  2.920600E+04  2.220642E+04
       222  21  3.153070E+05  1.590744E+05  7.687624E+04  1.525403E+05  4.496625E+04  3.369738E+04
       222  22  2.574795E+05  1.653435E+05  2.171933E+04  2.045188E+05  1.192305E+04  1.013355E+04
       222  23  2.595807E+05  1.703741E+05  3.923381E+04  1.942729E+05  2.855653E+04  2.172098E+04
       222  24  2.828266E+05  2.104459E+05  8.064330E+04  1.706924E+05  4.492016E+04  3.366795E+04
       222  25  2.536856E+05  1.557570E+05  2.004726E+04  1.993162E+05  1.066974E+04  9.193727E+03
       222  26  2.413803E+05  1.912037E+05  4.001961E+04  2.007472E+05  2.790709E+04  2.123550E+04
       222  27  2.503509E+05  2.618250E+05  8.441145E+04  1.888434E+05  4.487407E+04  3.363851E+04
       223   1  6.980520E+05  1.266068E+05  1.233616E+05  9.219050E+04  4.032112E+04 -5.550294E+03
       223   2  6.122908E+05  9.176903E+04  8.119071E+04  7.828998E+04  1.751528E+04 -1.740312E+04
       223   3  5.324490E+05  6.863766E+04  5.678488E+04  8.245710E+04 -5.284635E+03 -1.807990E+04
       223   4  2.435933E+05  1.426995E+04  1.587750E+04  8.327226E+04  1.099104E+04 -5.550040E+03
       223   5  2.422769E+05  3.118642E+03  7.768493E+03  7.423859E+04  6.981443E+03 -1.740430E+04
       223   6  2.436147E+05  4.166939E+02  4.383323E+03  8.327231E+04  2.974162E+03 -1.807983E+04
       223   7 -2.106737E+05 -9.808096E+04 -9.161762E+04  7.436058E+04 -1.831771E+04 -5.548946E+03
       223   8 -1.276059E+05 -8.553997E+04 -6.566009E+04  7.018965E+04 -3.546254E+03 -1.740535E+04
       223   9 -4.513833E+04 -6.780892E+04 -4.802129E+04  8.408713E+04  1.122923E+04 -1.807974E+04
       223  10  6.980502E+05  1.266064E+05  1.233585E+05  9.219068E+04 -6.444088E-11 -8.754113E-11
       223  11  6.122904E+05  9.176862E+04  8.118957E+04  7.829023E+04 -4.503129E-10 -1.401729E-10
       223  12  5.324489E+05  6.863730E+04  5.678421E+04  8.245702E+04  2.107720E-10 -2.932036E-10
       223  13  2.435932E+05  1.426988E+04  1.587721E+04  8.327231E+04  2.166672E-11 -1.061052E-11
       223  14  2.422768E+05  3.118303E+03  7.767833E+03  7.423869E+04  5.470345E-11 -1.027192E-11
       223  15  2.436146E+05  4.163405E+02  4.382692E+03  8.327236E+04 -1.116471E-12 -1.970679E-10
       223  16 -2.106740E+05 -9.808109E+04 -9.161831E+04  7.436049E+04 -1.399590E-10 -4.726098E-11
       223  17 -1.276060E+05 -8.554030E+04 -6.566068E+04  7.018961E+04  1.213374E-10  6.903273E-11
       223  18 -4.513855E+04 -6.780930E+04 -4.802214E+04  8.408729E+04 -2.030997E-10 -1.170578E-10
       223  19  6.980520E+05  1.266068E+05  1.233616E+05  9.219050E+04 -4.032112E+04  5.550294E+03
       223  20  6.122908E+05  9.176903E+04  8.119071E+04  7.828998E+04 -1.751528E+04  1.740312E+04
       223  21  5.324490E+05  6.863766E+04  5.678488E+04  8.245710E+04  5.284635E+03  1.807990E+04
       223  22  2.435933E+05  1.426995E+04  1.587750E+04  8.327226E+04 -1.099104E+04  5.550040E+03
       223  23  2.422769E+05  3.118642E+03  7.768493E+03  7.423859E+04 -6.981443E+03  1.740430E+04
       223  24  2.436147E+05  4.166939E+02  4.383323E+03  8.327231E+04 -2.974162E+03  1.807983E+04
       223  25 -2.106737E+05 -9.808096E+04 -9.161762E+04  7.436058E+04  1.831771E+04  5.548946E+03
       223  26 -1.276059E+05 -8.553997E+04 -6.566009E+04  7.018965E+04  3.546254E+03  1.740535E+04
       223  27 -4.513833E+04 -6.780892E+04 -4.802129E+04  8.408713E+04 -1.122923E+04  1.807974E+04
       224   1  4.774375E+05  5.591992E+04  4.557553E+04  8.371939E+04 -4.600961E+03 -1.500557E+04
       224   2  3.944949E+05  3.569164E+04  2.863897E+04  7.415076E+04 -7.210818E+03 -1.038560E+04
       224   3  3.120838E+05  1.619625E+04  1.358398E+04  8.336310E+04 -9.820935E+03 -4.843889E+03
       224   4  2.430874E+05  6.391602E+02  3.424247E+03  8.343110E+04  2.390258E+03 -1.500518E+04
       224   5  2.429629E+05  9.418606E+01  2.127979E+03  7.404053E+04  1.329728E+03 -1.038458E+04
       224   6  2.430958E+05  1.399674E+01  1.638417E+03  8.343119E+04  2.686314E+02 -4.842114E+03
       224   7  8.790900E+03 -5.464463E+04 -3.872898E+04  8.314291E+04  9.378912E+03 -1.500480E+04
       224   8  9.145356E+04 -3.550448E+04 -2.438356E+04  7.393031E+04  9.868253E+03 -1.038356E+04
       224   9  1.741128E+05 -1.616846E+04 -1.030693E+04  8.349927E+04  1.035711E+04 -4.840338E+03
       224  10  4.774375E+05  5.591967E+04  4.557506E+04  8.371933E+04 -1.097235E-10 -2.099026E-10
       224  11  3.944948E+05  3.569151E+04  2.863867E+04  7.415070E+04 -2.106021E-10 -1.307061E-10
       224  12  3.120837E+05  1.619620E+04  1.358376E+04  8.336306E+04  5.399515E-11 -4.921540E-11
       224  13  2.430874E+05  6.389169E+02  3.423813E+03  8.343113E+04 -1.662429E-10 -2.294845E-10
       224  14  2.429629E+05  9.406977E+01  2.127773E+03  7.404054E+04  2.215434E-11 -5.044416E-11
       224  15  2.430958E+05  1.397154E+01  1.638372E+03  8.343119E+04  3.590564E-10 -6.696713E-11
       224  16  8.790746E+03 -5.464490E+04 -3.872957E+04  8.314303E+04  3.538435E-10 -1.445717E-10
       224  17  9.145343E+04 -3.550462E+04 -2.438395E+04  7.393040E+04  3.720370E-10 -2.148785E-10
       224  18  1.741127E+05 -1.616851E+04 -1.030718E+04  8.349931E+04 -1.500621E-10 -2.069843E-10
       224  19  4.774375E+05  5.591992E+04  4.557553E+04  8.371939E+04  4.600961E+03  1.500557E+04
       224  20  3.944949E+05  3.569164E+04  2.863897E+04  7.415076E+04  7.210818E+03  1.038560E+04
       224  21  3.120838E+05  1.619625E+04  1.358398E+04  8.336310E+04  9.820935E+03  4.843889E+03
       224  22  2.430874E+05  6.391602E+02  3.424247E+03  8.343110E+04 -2.390258E+03  1.500518E+04
       224  23  2.429629E+05  9.418606E+01  2.127979E+03  7.404053E+04 -1.329728E+03  1.038458E+04
       224  24  2.430958E+05  1.399674E+01  1.638417E+03  8.343119E+04 -2.686314E+02  4.842114E+03
       224  25  8.790900E+03 -5.464463E+04 -3.872898E+04  8.314291E+04 -9.378912E+03  1.500480E+04
       224  26  9.145356E+04 -3.550448E+04 -2.438356E+04  7.393031E+04 -9.868253E+03  1.038356E+04
       224  27  1.741128E+05 -1.616846E+04 -1.030693E+04  8.349927E+04 -1.035711E+04  4.840338E+03
       225   1  2.580876E+05  3.486417E+03  3.941840E+03  8.348287E+04 -1.008371E+04 -1.283418E+03
       225   2  1.754214E+05 -1.585335E+04 -1.024483E+04  7.393967E+04 -9.793300E+03  4.342259E+03
       225   3  9.276852E+04 -3.501735E+04 -2.457708E+04  8.318741E+04 -9.502688E+03  9.235250E+03
       225   4  2.430885E+05  1.803242E+01  1.594669E+03  8.343331E+04 -1.459070E+01 -1.281555E+03
       225   5  2.429764E+05  8.125294E+01  1.888669E+03  7.403789E+04 -9.560281E+02  4.343678E+03
       225   6  2.430847E+05  5.342769E+02  2.892094E+03  8.343323E+04 -1.897225E+03  9.236275E+03
       225   7  2.280898E+05 -3.450309E+03 -7.521258E+02  8.338375E+04  1.005429E+04 -1.279693E+03
       225   8  3.105361E+05  1.601564E+04  1.402229E+04  7.413611E+04  7.882178E+03  4.345099E+03
       225   9  3.934229E+05  3.608466E+04  3.036057E+04  8.367912E+04  5.710029E+03  9.237305E+03
       225  10  2.580875E+05  3.486388E+03  3.941646E+03  8.348286E+04  7.131856E-12  4.761686E-12
       225  11  1.754213E+05 -1.585339E+04 -1.024505E+04  7.393971E+04  9.064217E-12 -2.498966E-11
       225  12  9.276840E+04 -3.501747E+04 -2.457741E+04  8.318748E+04  1.514561E-10  2.458318E-12
       225  13  2.430885E+05  1.803065E+01  1.594666E+03  8.343331E+04 -2.076611E-11  1.770297E-11
       225  14  2.429764E+05  8.123243E+01  1.888632E+03  7.403789E+04  7.129460E-11  4.847417E-11
       225  15  2.430846E+05  5.341843E+02  2.891927E+03  8.343325E+04 -1.208197E-11 -2.017166E-12
       225  16  2.280897E+05 -3.450338E+03 -7.523188E+02  8.338376E+04  7.031294E-11  9.641380E-12
       225  17  3.105360E+05  1.601560E+04  1.402214E+04  7.413608E+04  1.165614E-10  2.709916E-10
       225  18  3.934228E+05  3.608456E+04  3.036034E+04  8.367907E+04  5.062990E-11  1.115618E-10
       225  19  2.580876E+05  3.486417E+03  3.941840E+03  8.348287E+04  1.008371E+04  1.283418E+03
       225  20  1.754214E+05 -1.585335E+04 -1.024483E+04  7.393967E+04  9.793300E+03 -4.342259E+03
       225  21  9.276852E+04 -3.501735E+04 -2.457708E+04  8.318741E+04  9.502688E+03 -9.235250E+03
       225  22  2.430885E+05  1.803242E+01  1.594669E+03  8.343331E+04  1.459070E+01  1.281555E+03
       225  23  2.429764E+05  8.125294E+01  1.888669E+03  7.403789E+04  9.560281E+02 -4.343678E+03
       225  24  2.430847E+05  5.342769E+02  2.892094E+03  8.343323E+04  1.897225E+03 -9.236275E+03
       225  25  2.280898E+05 -3.450309E+03 -7.521258E+02  8.338375E+04 -1.005429E+04  1.279693E+03
       225  26  3.105361E+05  1.601564E+04  1.402229E+04  7.413611E+04 -7.882178E+03 -4.345099E+03
       225  27  3.934229E+05  3.608466E+04  3.036057E+04  8.367912E+04 -5.710029E+03 -9.237305E+03
       226   1  3.884361E+04 -4.809202E+04 -3.392601E+04  8.396127E+04 -1.103678E+04  1.240962E+04
       226   2 -4.364413E+04 -6.610244E+04 -5.093597E+04  7.085598E+04  1.151630E+03  1.294709E+04
       226   3 -1.266352E+05 -7.985881E+04 -7.481498E+04  7.595715E+04  1.333716E+04  4.260541E+03
       226   4  2.435162E+05  3.531951E+02  3.659282E+03  8.330314E+04 -2.389466E+03  1.241050E+04
       226   5  2.424188E+05  2.574374E+03  6.411563E+03  7.420010E+04 -5.696819E+03  1.294606E+04
       226   6  2.434995E+05  1.173825E+04  1.305373E+04  8.330253E+04 -9.005200E+03  4.259696E+03
       226   7  4.482295E+05  4.879607E+04  4.124314E+04  8.264478E+04  6.260627E+03  1.241137E+04
       226   8  5.285598E+05  7.124622E+04  6.375512E+04  7.754580E+04 -1.254836E+04  1.294495E+04
       226   9  6.137611E+05  1.033259E+05  1.009148E+05  9.065231E+04 -3.136082E+04  4.258324E+03
       226  10  3.884344E+04 -4.809222E+04 -3.392653E+04  8.396138E+04 -1.629953E-10 -6.824724E-11
       226  11 -4.364418E+04 -6.610263E+04 -5.093629E+04  7.085596E+04 -3.245332E-10 -7.737558E-11
       226  12 -1.266353E+05 -7.985888E+04 -7.481535E+04  7.595711E+04 -2.291172E-10 -3.612392E-12
       226  13  2.435161E+05  3.530282E+02  3.658982E+03  8.330316E+04  3.863078E-11  7.839900E-12
       226  14  2.424187E+05  2.574185E+03  6.411187E+03  7.420016E+04  1.713885E-11 -8.651031E-11
       226  15  2.434994E+05  1.173820E+04  1.305354E+04  8.330257E+04 -1.371001E-10 -1.706209E-11
       226  16  4.482294E+05  4.879590E+04  4.124278E+04  8.264472E+04 -2.006600E-11 -5.073688E-11
       226  17  5.285596E+05  7.124600E+04  6.375451E+04  7.754593E+04  1.015758E-10 -7.524321E-11
       226  18  6.137600E+05  1.033256E+05  1.009129E+05  9.065242E+04  1.233599E-10 -6.520336E-11
       226  19  3.884361E+04 -4.809202E+04 -3.392601E+04  8.396127E+04  1.103678E+04 -1.240962E+04
       226  20 -4.364413E+04 -6.610244E+04 -5.093597E+04  7.085598E+04 -1.151630E+03 -1.294709E+04
       226  21 -1.266352E+05 -7.985881E+04 -7.481498E+04  7.595715E+04 -1.333716E+04 -4.260541E+03
       226  22  2.435162E+05  3.531951E+02  3.659282E+03  8.330314E+04  2.389466E+03 -1.241050E+04
       226  23  2.424188E+05  2.574374E+03  6.411563E+03  7.420010E+04  5.696819E+03 -1.294606E+04
       226  24  2.434995E+05  1.173825E+04  1.305373E+04  8.330253E+04  9.005200E+03 -4.259696E+03
       226  25  4.482295E+05  4.879607E+04  4.124314E+04  8.264478E+04 -6.260627E+03 -1.241137E+04
       226  26  5.285598E+05  7.124622E+04  6.375512E+04  7.754580E+04  1.254836E+04 -1.294495E+04
       226  27  6.137611E+05  1.033259E+05  1.009148E+05  9.065231E+04  3.136082E+04 -4.258324E+03
       227   1 -1.685337E+05 -6.020866E+05 -1.730793E+05  1.583826E+05 -4.128813E+03 -7.524357E+04
       227   2 -8.257897E+04 -4.809064E+05 -9.615397E+04  1.215478E+05 -1.177927E+04 -3.825077E+04
       227   3 -4.163509E+04 -3.757976E+05 -5.458290E+04  1.097960E+05 -9.515796E+03 -1.252131E+03
       227   4 -7.124624E+04 -2.093753E+05 -7.933852E+04  1.139183E+05 -4.114730E+03 -5.406350E+04
       227   5 -1.561079E+04 -2.027689E+05 -3.945783E+04  1.013611E+05 -1.177560E+04 -3.370596E+04
       227   6 -2.085337E+03 -2.093480E+05 -2.336216E+04  1.138914E+05 -9.521669E+03 -1.335006E+04
       227   7  2.603782E+04  1.834828E+05  1.439422E+04  6.942562E+04 -4.103690E+03 -3.287008E+04
       227   8  5.135411E+04  7.544310E+04  1.723454E+04  8.116518E+04 -1.177222E+04 -2.915914E+04
       227   9  3.746295E+04 -4.287117E+04  7.857936E+03  1.179880E+05 -9.527701E+03 -2.545115E+04
       227  10 -1.685353E+05 -6.020927E+05 -1.730900E+05  1.583824E+05 -1.282613E-10 -3.738507E-10
       227  11 -8.257951E+04 -4.809080E+05 -9.615698E+04  1.215474E+05 -9.564458E-11 -3.686687E-11
       227  12 -4.163518E+04 -3.757976E+05 -5.458307E+04  1.097960E+05  6.496257E-11  5.086555E-10
       227  13 -7.124704E+04 -2.093784E+05 -7.934404E+04  1.139181E+05 -1.493977E-10  3.838464E-11
       227  14 -1.561124E+04 -2.027702E+05 -3.946023E+04  1.013608E+05  7.932926E-11 -2.504632E-10
       227  15 -2.085482E+03 -2.093482E+05 -2.336266E+04  1.138913E+05 -2.557451E-10  9.690490E-11
       227  16  2.603751E+04  1.834816E+05  1.439216E+04  6.942552E+04 -5.536721E-11  3.046187E-10
       227  17  5.135374E+04  7.544215E+04  1.723268E+04  8.116490E+04 -3.150611E-10 -8.232578E-11
       227  18  3.746268E+04 -4.287189E+04  7.856548E+03  1.179879E+05 -7.543186E-11 -4.474280E-10
       227  19 -1.685337E+05 -6.020866E+05 -1.730793E+05  1.583826E+05  4.128813E+03  7.524357E+04
       227  20 -8.257897E+04 -4.809064E+05 -9.615397E+04  1.215478E+05  1.177927E+04  3.825077E+04
       227  21 -4.163509E+04 -3.757976E+05 -5.458290E+04  1.097960E+05  9.515796E+03  1.252131E+03
       227  22 -7.124624E+04 -2.093753E+05 -7.933852E+04  1.139183E+05  4.114730E+03  5.406350E+04
       227  23 -1.561079E+04 -2.027689E+05 -3.945783E+04  1.013611E+05  1.177560E+04  3.370596E+04
       227  24 -2.085337E+03 -2.093480E+05 -2.336216E+04  1.138914E+05  9.521669E+03  1.335006E+04
       227  25  2.603782E+04  1.834828E+05  1.439422E+04  6.942562E+04  4.103690E+03  3.287008E+04
       227  26  5.135411E+04  7.544310E+04  1.723454E+04  8.116518E+04  1.177222E+04  2.915914E+04
       227  27  3.746295E+04 -4.287117E+04  7.857936E+03  1.179880E+05  9.527701E+03  2.545115E+04
       228   1 -2.504787E+04 -2.990077E+05 -3.663534E+04  1.156330E+05 -5.077567E+03  9.252974E+02
       228   2  4.180856E+03 -1.850103E+05 -1.075682E+04  1.013209E+05  1.472541E+03  7.950752E+03
       228   3  2.980268E+04 -7.283555E+04  9.638573E+03  1.126781E+05  7.935890E+03  1.497756E+04
       228   4 -3.109080E+03 -2.068282E+05 -1.913777E+04  1.140238E+05 -5.083224E+03 -1.014282E+04
       228   5 -7.213399E+02 -2.058988E+05 -1.437404E+04  1.011886E+05  1.467056E+03 -2.972058E+03
       228   6 -1.965033E+03 -2.068295E+05 -1.519389E+04  1.140232E+05  7.930584E+03  4.198847E+03
       228   7  1.882928E+04 -1.146403E+05 -1.640115E+03  1.124142E+05 -5.088823E+03 -2.121254E+04
       228   8 -5.623495E+03 -2.267867E+05 -1.799084E+04  1.010564E+05  1.461575E+03 -1.389451E+04
       228   9 -3.373370E+04 -3.408059E+05 -4.002666E+04  1.153680E+05  7.925230E+03 -6.577598E+03
       228  10 -2.504790E+04 -2.990077E+05 -3.663539E+04  1.156331E+05  4.303252E-11 -2.055209E-10
       228  11  4.180836E+03 -1.850104E+05 -1.075694E+04  1.013209E+05  1.175295E-10  1.256330E-10
       228  12  2.980255E+04 -7.283580E+04  9.638033E+03  1.126780E+05  2.906911E-10  3.310883E-10
       228  13 -3.109136E+03 -2.068283E+05 -1.913801E+04  1.140237E+05  2.482262E-10  1.255790E-10
       228  14 -7.213446E+02 -2.058988E+05 -1.437407E+04  1.011887E+05 -1.182548E-10 -1.979212E-10
       228  15 -1.965105E+03 -2.068296E+05 -1.519404E+04  1.140232E+05  4.361621E-11  3.046784E-10
       228  16  1.882914E+04 -1.146408E+05 -1.641010E+03  1.124141E+05 -2.388564E-11  7.602094E-11
       228  17 -5.623549E+03 -2.267869E+05 -1.799120E+04  1.010564E+05 -8.241120E-11 -1.239814E-10
       228  18 -3.373378E+04 -3.408059E+05 -4.002686E+04  1.153681E+05  5.714263E-11 -1.867036E-10
       228  19 -2.504787E+04 -2.990077E+05 -3.663534E+04  1.156330E+05  5.077567E+03 -9.252974E+02
       228  20  4.180856E+03 -1.850103E+05 -1.075682E+04  1.013209E+05 -1.472541E+03 -7.950752E+03
       228  21  2.980268E+04 -7.283555E+04  9.638573E+03  1.126781E+05 -7.935890E+03 -1.497756E+04
       228  22 -3.109080E+03 -2.068282E+05 -1.913777E+04  1.140238E+05  5.083224E+03  1.014282E+04
       228  23 -7.213399E+02 -2.058988E+05 -1.437404E+04  1.011886E+05 -1.467056E+03  2.972058E+03
       228  24 -1.965033E+03 -2.068295E+05 -1.519389E+04  1.140232E+05 -7.930584E+03 -4.198847E+03
       228  25  1.882928E+04 -1.146403E+05 -1.640115E+03  1.124142E+05  5.088823E+03  2.121254E+04
       228  26 -5.623495E+03 -2.267867E+05 -1.799084E+04  1.010564E+05 -1.461575E+03  1.389451E+04
       228  27 -3.373370E+04 -3.408059E+05 -4.002666E+04  1.153680E+05 -7.925230E+03  6.577598E+03
       229   1  4.804390E+04 -6.702512E+00  2.143177E+04  1.164325E+05  1.232844E+04  1.862740E+04
       229   2  6.682914E+04  1.158836E+05  3.817010E+04  8.820092E+04  1.397880E+04  1.399852E+04
       229   3  6.144634E+04  2.263462E+05  5.187850E+04  8.498212E+04  4.737359E+03  9.370932E+03
       229   4 -1.352273E+03 -2.083364E+05 -1.718364E+04  1.138763E+05  1.232286E+04  6.697313E+03
       229   5 -1.008565E+04 -2.040399E+05 -2.652946E+04  1.013767E+05  1.398236E+04  2.036482E+04
       229   6 -4.617115E+04 -2.083642E+05 -5.161533E+04  1.138930E+05  4.747241E+03  3.403397E+04
       229   7 -5.075084E+04 -4.166237E+05 -5.580033E+04  1.113209E+05  1.231739E+04 -5.228872E+03
       229   8 -8.700612E+04 -5.238655E+05 -9.123407E+04  1.145455E+05  1.398618E+04  2.672790E+04
       229   9 -1.537988E+05 -6.428982E+05 -1.551197E+05  1.427834E+05  4.759424E+03  5.867981E+04
       229  10  4.804365E+04 -7.115836E+00  2.143083E+04  1.164323E+05  1.997333E-10 -2.956372E-10
       229  11  6.682887E+04  1.158833E+05  3.816936E+04  8.820076E+04 -2.434884E-10 -1.052305E-10
       229  12  6.144629E+04  2.263461E+05  5.187829E+04  8.498208E+04 -2.168355E-11 -4.666381E-11
       229  13 -1.352448E+03 -2.083365E+05 -1.718401E+04  1.138762E+05 -1.057240E-10  1.973988E-10
       229  14 -1.008598E+04 -2.040404E+05 -2.653061E+04  1.013764E+05  1.765705E-10 -1.470766E-10
       229  15 -4.617148E+04 -2.083655E+05 -5.161755E+04  1.138928E+05  2.438856E-11  1.183005E-10
       229  16 -5.075101E+04 -4.166237E+05 -5.580067E+04  1.113209E+05  1.673660E-10  3.932446E-11
       229  17 -8.700652E+04 -5.238663E+05 -9.123578E+04  1.145452E+05  1.114563E-10  2.063560E-10
       229  18 -1.537997E+05 -6.429019E+05 -1.551262E+05  1.427832E+05 -6.632312E-11  1.074578E-10
       229  19  4.804390E+04 -6.702512E+00  2.143177E+04  1.164325E+05 -1.232844E+04 -1.862740E+04
       229  20  6.682914E+04  1.158836E+05  3.817010E+04  8.820092E+04 -1.397880E+04 -1.399852E+04
       229  21  6.144634E+04  2.263462E+05  5.187850E+04  8.498212E+04 -4.737359E+03 -9.370932E+03
       229  22 -1.352273E+03 -2.083364E+05 -1.718364E+04  1.138763E+05 -1.232286E+04 -6.697313E+03
       229  23 -1.008565E+04 -2.040399E+05 -2.652946E+04  1.013767E+05 -1.398236E+04 -2.036482E+04
       229  24 -4.617115E+04 -2.083642E+05 -5.161533E+04  1.138930E+05 -4.747241E+03 -3.403397E+04
       229  25 -5.075084E+04 -4.166237E+05 -5.580033E+04  1.113209E+05 -1.231739E+04  5.228872E+03
       229  26 -8.700612E+04 -5.238655E+05 -9.123407E+04  1.145455E+05 -1.398618E+04 -2.672790E+04
       229  27 -1.537988E+05 -6.428982E+05 -1.551197E+05  1.427834E+05 -4.759424E+03 -5.867981E+04
       230   1  3.436096E+05  2.862052E+05  8.195082E+04  2.414037E+05  4.379512E+04  3.212614E+04
       230   2  3.433683E+05  2.297226E+05  4.289165E+04  2.575680E+05  2.873131E+04  1.904836E+04
       230   3  3.655728E+05  2.025769E+05  2.661871E+04  2.607116E+05  1.317428E+04  6.628004E+03
       230   4  3.572978E+05  2.279604E+05  7.364153E+04  2.168665E+05  4.132689E+04  3.027120E+04
       230   5  3.346240E+05  1.928192E+05  3.586105E+04  2.388215E+05  2.736571E+04  1.802324E+04
       230   6  3.341560E+05  1.867748E+05  1.990911E+04  2.477556E+05  1.291239E+04  6.431754E+03
       230   7  3.709894E+05  1.697228E+05  6.533295E+04  1.923288E+05  3.885852E+04  2.841667E+04
       230   8  3.258805E+05  1.559185E+05  2.883059E+04  2.200756E+05  2.600012E+04  1.699827E+04
       230   9  3.027409E+05  1.709733E+05  1.319962E+04  2.348004E+05  1.265051E+04  6.235516E+03
       230  10  3.436072E+05  2.862036E+05  8.194528E+04  2.414026E+05  4.907148E-09  3.859468E-09
       230  11  3.433673E+05  2.297220E+05  4.288942E+04  2.575676E+05 -1.089875E-08 -8.151149E-09
       230  12  3.655726E+05  2.025768E+05  2.661831E+04  2.607115E+05 -2.237605E-08 -1.829544E-08
       230  13  3.572957E+05  2.279590E+05  7.363660E+04  2.168655E+05 -5.244188E-11 -2.390318E-10
       230  14  3.346231E+05  1.928187E+05  3.585903E+04  2.388211E+05 -1.951895E-11 -3.388586E-10
       230  15  3.341558E+05  1.867747E+05  1.990872E+04  2.477555E+05  2.627743E-09  4.673118E-10
       230  16  3.709876E+05  1.697215E+05  6.532860E+04  1.923279E+05 -5.410394E-09 -4.227960E-09
       230  17  3.258797E+05  1.559180E+05  2.882877E+04  2.200753E+05  1.136281E-08  7.563380E-09
       230  18  3.027407E+05  1.709732E+05  1.319925E+04  2.348004E+05  2.745629E-08  1.933229E-08
       230  19  3.436096E+05  2.862052E+05  8.195082E+04  2.414037E+05 -4.379512E+04 -3.212614E+04
       230  20  3.433683E+05  2.297226E+05  4.289165E+04  2.575680E+05 -2.873131E+04 -1.904836E+04
       230  21  3.655728E+05  2.025769E+05  2.661871E+04  2.607116E+05 -1.317428E+04 -6.628004E+03
       230  22  3.572978E+05  2.279604E+05  7.364153E+04  2.168665E+05 -4.132689E+04 -3.027120E+04
       230  23  3.346240E+05  1.928192E+05  3.586105E+04  2.388215E+05 -2.736571E+04 -1.802324E+04
       230  24  3.341560E+05  1.867748E+05  1.990911E+04  2.477556E+05 -1.291239E+04 -6.431754E+03
       230  25  3.709894E+05  1.697228E+05  6.533295E+04  1.923288E+05 -3.885852E+04 -2.841667E+04
       230  26  3.258805E+05  1.559185E+05  2.883059E+04  2.200756E+05 -2.600012E+04 -1.699827E+04
       230  27  3.027409E+05  1.709733E+05  1.319962E+04  2.348004E+05 -1.265051E+04 -6.235516E+03
       231   1  3.600189E+05  2.076121E+05  2.210275E+04  2.607657E+05  1.121568E+04  5.037625E+03
       231   2  3.602883E+05  2.057451E+05  1.570434E+04  2.620187E+05  7.720869E+03  2.150779E+03
       231   3  3.623005E+05  2.053337E+05  1.277388E+04  2.627213E+05  4.181920E+03 -6.771898E+02
       231   4  3.329256E+05  1.865386E+05  1.530626E+04  2.460944E+05  1.087877E+04  4.784985E+03
       231   5  3.315140E+05  1.848405E+05  8.829672E+03  2.471058E+05  7.483133E+03  1.972515E+03
       231   6  3.318236E+05  1.845765E+05  5.735144E+03  2.475669E+05  4.043346E+03 -7.811062E+02
       231   7  3.058332E+05  1.654657E+05  8.509716E+03  2.314239E+05  1.054187E+04  4.532362E+03
       231   8  3.027403E+05  1.639362E+05  1.954850E+03  2.321936E+05  7.245410E+03  1.794259E+03
       231   9  3.013471E+05  1.638195E+05 -1.303836E+03  2.324131E+05  3.904778E+03 -8.850180E+02
       231  10  3.600187E+05  2.076120E+05  2.210247E+04  2.607657E+05  2.862559E-08  1.947577E-08
       231  11  3.602883E+05  2.057450E+05  1.570422E+04  2.620187E+05  1.161634E-08  7.495713E-09
       231  12  3.623005E+05  2.053337E+05  1.277384E+04  2.627213E+05 -6.068502E-09 -4.124354E-09
       231  13  3.329255E+05  1.865386E+05  1.530600E+04  2.460944E+05  2.427734E-09  5.356486E-10
       231  14  3.315139E+05  1.848404E+05  8.829560E+03  2.471058E+05  2.366216E-11 -3.606425E-10
       231  15  3.318235E+05  1.845765E+05  5.735112E+03  2.475669E+05 -6.888336E-10  6.176774E-11
       231  16  3.058331E+05  1.654657E+05  8.509469E+03  2.314239E+05 -2.314361E-08 -1.862510E-08
       231  17  3.027402E+05  1.639362E+05  1.954745E+03  2.321936E+05 -1.101806E-08 -8.299719E-09
       231  18  3.013471E+05  1.638195E+05 -1.303866E+03  2.324131E+05  4.892454E-09  4.331801E-09
       231  19  3.600189E+05  2.076121E+05  2.210275E+04  2.607657E+05 -1.121568E+04 -5.037625E+03
       231  20  3.602883E+05  2.057451E+05  1.570434E+04  2.620187E+05 -7.720869E+03 -2.150779E+03
       231  21  3.623005E+05  2.053337E+05  1.277388E+04  2.627213E+05 -4.181920E+03  6.771898E+02
       231  22  3.329256E+05  1.865386E+05  1.530626E+04  2.460944E+05 -1.087877E+04 -4.784985E+03
       231  23  3.315140E+05  1.848405E+05  8.829672E+03  2.471058E+05 -7.483133E+03 -1.972515E+03
       231  24  3.318236E+05  1.845765E+05  5.735144E+03  2.475669E+05 -4.043346E+03  7.811062E+02
       231  25  3.058332E+05  1.654657E+05  8.509716E+03  2.314239E+05 -1.054187E+04 -4.532362E+03
       231  26  3.027403E+05  1.639362E+05  1.954850E+03  2.321936E+05 -7.245410E+03 -1.794259E+03
       231  27  3.013471E+05  1.638195E+05 -1.303836E+03  2.324131E+05 -3.904778E+03  8.850180E+02
       232   1  3.624758E+05  2.060727E+05  1.211822E+04  2.630130E+05  3.473055E+03 -1.282618E+03
       232   2  3.630151E+05  2.068135E+05  1.181161E+04  2.635167E+05  1.759344E+03 -2.693564E+03
       232   3  3.641404E+05  2.075534E+05  1.300706E+04  2.639923E+05  3.617383E+01 -4.091824E+03
       232   4  3.317392E+05  1.845576E+05  4.938226E+03  2.474569E+05  3.326657E+03 -1.392404E+03
       232   5  3.314510E+05  1.845646E+05  4.425411E+03  2.474678E+05  1.634341E+03 -2.787312E+03
       232   6  3.317441E+05  1.845662E+05  5.396190E+03  2.474506E+05 -6.744605E+01 -4.169542E+03
       232   7  3.010043E+05  1.630435E+05 -2.241632E+03  2.319020E+05  3.180271E+03 -1.502182E+03
       232   8  2.998883E+05  1.623166E+05 -2.960743E+03  2.314200E+05  1.509348E+03 -2.881053E+03
       232   9  2.993489E+05  1.615796E+05 -2.214732E+03  2.309099E+05 -1.710586E+02 -4.247254E+03
       232  10  3.624757E+05  2.060727E+05  1.211820E+04  2.630130E+05  7.337958E-11  7.885134E-10
       232  11  3.630151E+05  2.068135E+05  1.181159E+04  2.635167E+05  2.022936E-10  6.307708E-10
       232  12  3.641404E+05  2.075534E+05  1.300702E+04  2.639923E+05 -1.340802E-10  5.137095E-10
       232  13  3.317392E+05  1.845576E+05  4.938202E+03  2.474569E+05 -3.208668E-10  3.669468E-10
       232  14  3.314510E+05  1.845646E+05  4.425391E+03  2.474678E+05 -2.340103E-10  3.655487E-10
       232  15  3.317441E+05  1.845662E+05  5.396158E+03  2.474506E+05 -3.138359E-10  2.218487E-10
       232  16  3.010043E+05  1.630435E+05 -2.241655E+03  2.319020E+05 -7.890438E-10  1.147355E-10
       232  17  2.998883E+05  1.623166E+05 -2.960762E+03  2.314200E+05 -6.835877E-10  1.233954E-10
       232  18  2.993489E+05  1.615796E+05 -2.214766E+03  2.309099E+05 -3.107271E-10 -2.711543E-11
       232  19  3.624758E+05  2.060727E+05  1.211822E+04  2.630130E+05 -3.473055E+03  1.282618E+03
       232  20  3.630151E+05  2.068135E+05  1.181161E+04  2.635167E+05 -1.759344E+03  2.693564E+03
       232  21  3.641404E+05  2.075534E+05  1.300706E+04  2.639923E+05 -3.617383E+01  4.091824E+03
       232  22  3.317392E+05  1.845576E+05  4.938226E+03  2.474569E+05 -3.326657E+03  1.392404E+03
       232  23  3.314510E+05  1.845646E+05  4.425411E+03  2.474678E+05 -1.634341E+03  2.787312E+03
       232  24  3.317441E+05  1.845662E+05  5.396190E+03  2.474506E+05  6.744605E+01  4.169542E+03
       232  25  3.010043E+05  1.630435E+05 -2.241632E+03  2.319020E+05 -3.180271E+03  1.502182E+03
       232  26  2.998883E+05  1.623166E+05 -2.960743E+03  2.314200E+05 -1.509348E+03  2.881053E+03
       232  27  2.993489E+05  1.615796E+05 -2.214732E+03  2.309099E+05  1.710586E+02  4.247254E+03
       233   1  3.644601E+05  2.083965E+05  1.422619E+04  2.645510E+05 -7.565728E+02 -4.750116E+03
       233   2  3.659951E+05  2.083890E+05  1.835217E+04  2.641813E+05 -4.996928E+03 -7.968311E+03
       233   3  3.695408E+05  2.101744E+05  2.656381E+04  2.631684E+05 -9.302287E+03 -1.110004E+04
       233   4  3.318485E+05  1.845918E+05  6.462586E+03  2.475892E+05 -8.709409E+02 -4.835891E+03
       233   5  3.315134E+05  1.848765E+05  1.030569E+04  2.470362E+05 -4.965558E+03 -7.944827E+03
       233   6  3.331576E+05  1.869224E+05  1.810826E+04  2.458399E+05 -9.125087E+03 -1.096724E+04
       233   7  2.992376E+05  1.607874E+05 -1.301290E+03  2.306281E+05 -9.853030E+02 -4.921662E+03
       233   8  2.970331E+05  1.613646E+05  2.259128E+03  2.298921E+05 -4.934190E+03 -7.921344E+03
       233   9  2.967765E+05  1.636714E+05  9.652836E+03  2.285128E+05 -8.947904E+03 -1.083445E+04
       233  10  3.644601E+05  2.083965E+05  1.422615E+04  2.645510E+05 -1.436045E-10  3.112386E-10
       233  11  3.659951E+05  2.083890E+05  1.835201E+04  2.641813E+05 -5.779825E-11  2.511299E-10
       233  12  3.695407E+05  2.101742E+05  2.656341E+04  2.631683E+05  2.068630E-10  1.805933E-10
       233  13  3.318485E+05  1.845918E+05  6.462540E+03  2.475892E+05 -3.029715E-10  2.131579E-10
       233  14  3.315134E+05  1.848764E+05  1.030552E+04  2.470361E+05 -1.919336E-10  6.257006E-11
       233  15  3.331575E+05  1.869222E+05  1.810787E+04  2.458398E+05 -1.146310E-10 -2.387919E-11
       233  16  2.992376E+05  1.607874E+05 -1.301338E+03  2.306281E+05 -2.140415E-10  1.731812E-11
       233  17  2.970331E+05  1.613645E+05  2.258964E+03  2.298921E+05 -3.900500E-10  3.129586E-11
       233  18  2.967764E+05  1.636713E+05  9.652465E+03  2.285127E+05 -3.337205E-10 -3.391899E-10
       233  19  3.644601E+05  2.083965E+05  1.422619E+04  2.645510E+05  7.565728E+02  4.750116E+03
       233  20  3.659951E+05  2.083890E+05  1.835217E+04  2.641813E+05  4.996928E+03  7.968311E+03
       233  21  3.695408E+05  2.101744E+05  2.656381E+04  2.631684E+05  9.302287E+03  1.110004E+04
       233  22  3.318485E+05  1.845918E+05  6.462586E+03  2.475892E+05  8.709409E+02  4.835891E+03
       233  23  3.315134E+05  1.848765E+05  1.030569E+04  2.470362E+05  4.965558E+03  7.944827E+03
       233  24  3.331576E+05  1.869224E+05  1.810826E+04  2.458399E+05  9.125087E+03  1.096724E+04
       233  25  2.992376E+05  1.607874E+05 -1.301290E+03  2.306281E+05  9.853030E+02  4.921662E+03
       233  26  2.970331E+05  1.613646E+05  2.259128E+03  2.298921E+05  4.934190E+03  7.921344E+03
       233  27  2.967765E+05  1.636714E+05  9.652836E+03  2.285128E+05  8.947904E+03  1.083445E+04
       234   1  3.658228E+05  2.167642E+05  3.230560E+04  2.671757E+05 -1.167114E+04 -1.286938E+04
       234   2  3.932203E+05  1.986721E+05  5.234138E+04  2.492972E+05 -3.131975E+04 -2.678178E+04
       234   3  4.472206E+05  2.157638E+05  9.976834E+04  2.159702E+05 -5.169703E+04 -3.972290E+04
       234   4  3.345945E+05  1.872338E+05  2.361958E+04  2.478281E+05 -1.160488E+04 -1.281958E+04
       234   5  3.352491E+05  1.943319E+05  4.265685E+04  2.371642E+05 -2.962086E+04 -2.550977E+04
       234   6  3.621515E+05  2.362605E+05  8.767056E+04  2.110518E+05 -4.836430E+04 -3.723032E+04
       234   7  3.033674E+05  1.577045E+05  1.493347E+04  2.284818E+05 -1.153863E+04 -1.276977E+04
       234   8  2.772820E+05  1.899923E+05  3.297237E+04  2.250314E+05 -2.792218E+04 -2.423773E+04
       234   9  2.770930E+05  2.567621E+05  7.557372E+04  2.061315E+05 -4.503219E+04 -3.473737E+04
       234  10  3.658226E+05  2.167640E+05  3.230503E+04  2.671756E+05  2.453370E-10 -3.175043E-11
       234  11  3.932191E+05  1.986710E+05  5.233819E+04  2.492966E+05  1.625776E-10 -1.586183E-10
       234  12  4.472173E+05  2.157613E+05  9.976036E+04  2.159685E+05 -1.251557E-10 -7.336546E-11
       234  13  3.345943E+05  1.872336E+05  2.361902E+04  2.478280E+05  1.693752E-11 -3.376073E-11
       234  14  3.352480E+05  1.943310E+05  4.265398E+04  2.371636E+05 -3.014257E-12 -5.585398E-11
       234  15  3.621486E+05  2.362584E+05  8.766356E+04  2.110503E+05  2.193690E-10  3.700073E-11
       234  16  3.033672E+05  1.577042E+05  1.493291E+04  2.284817E+05  4.349054E-11 -1.685922E-10
       234  17  2.772810E+05  1.899915E+05  3.296980E+04  2.250309E+05 -1.675446E-11 -1.186379E-10
       234  18  2.770905E+05  2.567603E+05  7.556765E+04  2.061303E+05 -3.301612E-11 -2.067446E-11
       234  19  3.658228E+05  2.167642E+05  3.230560E+04  2.671757E+05  1.167114E+04  1.286938E+04
       234  20  3.932203E+05  1.986721E+05  5.234138E+04  2.492972E+05  3.131975E+04  2.678178E+04
       234  21  4.472206E+05  2.157638E+05  9.976834E+04  2.159702E+05  5.169703E+04  3.972290E+04
       234  22  3.345945E+05  1.872338E+05  2.361958E+04  2.478281E+05  1.160488E+04  1.281958E+04
       234  23  3.352491E+05  1.943319E+05  4.265685E+04  2.371642E+05  2.962086E+04  2.550977E+04
       234  24  3.621515E+05  2.362605E+05  8.767056E+04  2.110518E+05  4.836430E+04  3.723032E+04
       234  25  3.033674E+05  1.577045E+05  1.493347E+04  2.284818E+05  1.153863E+04  1.276977E+04
       234  26  2.772820E+05  1.899923E+05  3.297237E+04  2.250314E+05  2.792218E+04  2.423773E+04
       234  27  2.770930E+05  2.567621E+05  7.557372E+04  2.061315E+05  4.503219E+04  3.473737E+04
       235   1  6.553867E+05  1.102776E+05  1.090079E+05  8.128840E+04  3.994007E+04 -4.303208E+03
       235   2  5.851540E+05  7.376917E+04  6.928691E+04  6.634060E+04  1.891580E+04 -1.344114E+04
       235   3  5.216138E+05  5.304039E+04  4.718982E+04  6.601136E+04 -2.105198E+03 -1.382104E+04
       235   4  2.998993E+05  2.239688E+04  2.489226E+04  6.728683E+04  1.721022E+04 -4.304513E+03
       235   5  2.978384E+05  4.916832E+03  1.219736E+04  5.997820E+04  1.091472E+04 -1.344229E+04
       235   6  2.999148E+05  6.655469E+02  6.908116E+03  6.728771E+04  4.620172E+03 -1.382070E+04
       235   7 -5.547067E+04 -6.549188E+04 -5.923010E+04  5.329331E+04 -5.506695E+03 -4.304794E+03
       235   8  1.060180E+04 -6.394036E+04 -4.489603E+04  5.361880E+04  2.917250E+03 -1.344327E+04
       235   9  7.826373E+04 -5.171202E+04 -3.337538E+04  6.856359E+04  1.134321E+04 -1.382033E+04
       235  10  6.553850E+05  1.102771E+05  1.090049E+05  8.128854E+04 -2.084677E-10  3.912943E-11
       235  11  5.851536E+05  7.376888E+04  6.928590E+04  6.634080E+04 -1.701952E-11  1.107715E-10
       235  12  5.216137E+05  5.304018E+04  4.718946E+04  6.601134E+04  1.739263E-10  1.224443E-10
       235  13  2.998989E+05  2.239678E+04  2.489167E+04  6.728689E+04  1.683507E-10 -2.713670E-12
       235  14  2.978382E+05  4.916606E+03  1.219680E+04  5.997831E+04  2.077800E-10 -1.900743E-11
       235  15  2.999148E+05  6.653361E+02  6.907717E+03  6.728776E+04 -7.845090E-11  1.904192E-11
       235  16 -5.547071E+04 -6.549191E+04 -5.923019E+04  5.329329E+04 -2.781513E-11 -1.103068E-11
       235  17  1.060174E+04 -6.394055E+04 -4.489638E+04  5.361883E+04 -6.287432E-11 -7.053585E-11
       235  18  7.826354E+04 -5.171226E+04 -3.337598E+04  6.856371E+04 -2.361849E-11 -1.518651E-10
       235  19  6.553867E+05  1.102776E+05  1.090079E+05  8.128840E+04 -3.994007E+04  4.303208E+03
       235  20  5.851540E+05  7.376917E+04  6.928691E+04  6.634060E+04 -1.891580E+04  1.344114E+04
       235  21  5.216138E+05  5.304039E+04  4.718982E+04  6.601136E+04  2.105198E+03  1.382104E+04
       235  22  2.998993E+05  2.239688E+04  2.489226E+04  6.728683E+04 -1.721022E+04  4.304513E+03
       235  23  2.978384E+05  4.916832E+03  1.219736E+04  5.997820E+04 -1.091472E+04  1.344229E+04
       235  24  2.999148E+05  6.655469E+02  6.908116E+03  6.728771E+04 -4.620172E+03  1.382070E+04
       235  25 -5.547067E+04 -6.549188E+04 -5.923010E+04  5.329331E+04  5.506695E+03  4.304794E+03
       235  26  1.060180E+04 -6.394036E+04 -4.489603E+04  5.361880E+04 -2.917250E+03  1.344327E+04
       235  27  7.826373E+04 -5.171202E+04 -3.337538E+04  6.856359E+04 -1.134321E+04  1.382033E+04
       236   1  4.767905E+05  4.293501E+04  3.744019E+04  6.786101E+04 -2.034983E+03 -1.132382E+04
       236   2  4.096928E+05  2.618029E+04  2.285924E+04  5.999771E+04 -4.952635E+03 -7.554334E+03
       236   3  3.432151E+05  1.036755E+04  1.041207E+04  6.730688E+04 -7.870335E+03 -3.066410E+03
       236   4  2.990888E+05  1.006363E+03  5.419890E+03  6.741099E+04  3.697540E+03 -1.132332E+04
       236   5  2.988883E+05  1.427218E+02  3.431125E+03  5.982476E+04  1.987644E+03 -7.553405E+03
       236   6  2.990940E+05  1.182172E+01  2.738113E+03  6.741114E+04  2.774031E+02 -3.064987E+03
       236   7  1.214179E+05 -4.092403E+04 -2.660152E+04  6.696111E+04  9.428469E+03 -1.132283E+04
       236   8  1.880958E+05 -2.589549E+04 -1.599725E+04  5.965184E+04  8.926723E+03 -7.552480E+03
       236   9  2.549749E+05 -1.034398E+04 -4.935664E+03  6.751540E+04  8.424580E+03 -3.063561E+03
       236  10  4.767904E+05  4.293487E+04  3.743994E+04  6.786099E+04 -1.078280E-10  1.567790E-10
       236  11  4.096928E+05  2.618023E+04  2.285909E+04  5.999768E+04 -4.800949E-11  1.396758E-10
       236  12  3.432151E+05  1.036752E+04  1.041194E+04  6.730686E+04  1.559231E-10  1.190773E-10
       236  13  2.990887E+05  1.006221E+03  5.419623E+03  6.741103E+04  7.849679E-11  5.020804E-11
       236  14  2.988882E+05  1.426594E+02  3.431010E+03  5.982477E+04  1.902815E-10  1.954233E-10
       236  15  2.990940E+05  1.181161E+01  2.738095E+03  6.741114E+04  2.545509E-10  2.046421E-10
       236  16  1.214178E+05 -4.092419E+04 -2.660193E+04  6.696120E+04  7.519716E-11 -1.445723E-10
       236  17  1.880957E+05 -2.589558E+04 -1.599751E+04  5.965190E+04  1.425346E-10  4.421827E-11
       236  18  2.549748E+05 -1.034401E+04 -4.935815E+03  6.751542E+04 -1.471283E-10  3.833136E-11
       236  19  4.767905E+05  4.293501E+04  3.744019E+04  6.786101E+04  2.034983E+03  1.132382E+04
       236  20  4.096928E+05  2.618029E+04  2.285924E+04  5.999771E+04  4.952635E+03  7.554334E+03
       236  21  3.432151E+05  1.036755E+04  1.041207E+04  6.730688E+04  7.870335E+03  3.066410E+03
       236  22  2.990888E+05  1.006363E+03  5.419890E+03  6.741099E+04 -3.697540E+03  1.132332E+04
       236  23  2.988883E+05  1.427218E+02  3.431125E+03  5.982476E+04 -1.987644E+03  7.553405E+03
       236  24  2.990940E+05  1.182172E+01  2.738113E+03  6.741114E+04 -2.774031E+02  3.064987E+03
       236  25  1.214179E+05 -4.092403E+04 -2.660152E+04  6.696111E+04 -9.428469E+03  1.132283E+04
       236  26  1.880958E+05 -2.589549E+04 -1.599725E+04  5.965184E+04 -8.926723E+03  7.552480E+03
       236  27  2.549749E+05 -1.034398E+04 -4.935664E+03  6.751540E+04 -8.424580E+03  3.063561E+03
       237   1  2.996006E+05  9.907235E+01  2.645619E+03  6.751310E+04 -8.337318E+03 -1.903556E+02
       237   2  2.327146E+05 -1.544983E+04 -8.429436E+03  5.965556E+04 -8.972446E+03  4.342315E+03
       237   3  1.660485E+05 -3.046877E+04 -1.895894E+04  6.697621E+04 -9.607289E+03  8.257010E+03
       237   4  2.990918E+05  1.319014E+01  2.724912E+03  6.741235E+04 -2.004854E+02 -1.888927E+02
       237   5  2.988928E+05  1.396451E+02  3.359033E+03  5.982326E+04 -1.874698E+03  4.343418E+03
       237   6  2.990886E+05  9.762447E+02  5.259525E+03  6.741220E+04 -3.548677E+03  8.257792E+03
       237   7  2.985831E+05 -7.265650E+01  2.804453E+03  6.731159E+04  7.936342E+03 -1.874325E+02
       237   8  3.650755E+05  1.572890E+04  1.514753E+04  5.999097E+04  5.223784E+03  4.344524E+03
       237   9  4.321460E+05  3.242028E+04  2.947742E+04  6.784829E+04  2.511199E+03  8.258583E+03
       237  10  2.996005E+05  9.905366E+01  2.645489E+03  6.751309E+04  7.402449E-11  7.184380E-12
       237  11  2.327145E+05 -1.544987E+04 -8.429622E+03  5.965560E+04  3.208343E-10  6.033101E-11
       237  12  1.660484E+05 -3.046887E+04 -1.895924E+04  6.697627E+04  2.055674E-10 -5.452092E-11
       237  13  2.990918E+05  1.319009E+01  2.724911E+03  6.741235E+04 -2.226243E-11  1.686546E-12
       237  14  2.988928E+05  1.396239E+02  3.358991E+03  5.982327E+04  2.993408E-10 -1.347061E-10
       237  15  2.990885E+05  9.761681E+02  5.259373E+03  6.741222E+04  4.782794E-11 -5.761804E-11
       237  16  2.985830E+05 -7.267343E+01  2.804334E+03  6.731160E+04  1.959862E-11 -3.008659E-11
       237  17  3.650754E+05  1.572888E+04  1.514744E+04  5.999095E+04 -8.570563E-11 -6.572448E-11
       237  18  4.321459E+05  3.242021E+04  2.947728E+04  6.784827E+04 -1.587806E-10 -2.733735E-11
       237  19  2.996006E+05  9.907235E+01  2.645619E+03  6.751310E+04  8.337318E+03  1.903556E+02
       237  20  2.327146E+05 -1.544983E+04 -8.429436E+03  5.965556E+04  8.972446E+03 -4.342315E+03
       237  21  1.660485E+05 -3.046877E+04 -1.895894E+04  6.697621E+04  9.607289E+03 -8.257010E+03
       237  22  2.990918E+05  1.319014E+01  2.724912E+03  6.741235E+04  2.004854E+02  1.888927E+02
       237  23  2.988928E+05  1.396451E+02  3.359033E+03  5.982326E+04  1.874698E+03 -4.343418E+03
       237  24  2.990886E+05  9.762447E+02  5.259525E+03  6.741220E+04  3.548677E+03 -8.257792E+03
       237  25  2.985831E+05 -7.265650E+01  2.804453E+03  6.731159E+04 -7.936342E+03  1.874325E+02
       237  26  3.650755E+05  1.572890E+04  1.514753E+04  5.999097E+04 -5.223784E+03 -4.344524E+03
       237  27  4.321460E+05  3.242028E+04  2.947742E+04  6.784829E+04 -2.511199E+03 -8.258583E+03
       238   1  1.229179E+05 -4.121860E+04 -2.571914E+04  6.853209E+04 -1.137486E+04  1.080729E+04
       238   2  5.519464E+04 -5.348388E+04 -3.675922E+04  5.381138E+04 -4.485478E+03  1.107391E+04
       238   3 -1.078281E+04 -5.522488E+04 -4.965169E+04  5.377825E+04  2.402749E+03  3.619565E+03
       238   4  2.998857E+05  6.482490E+02  6.689911E+03  6.730304E+04 -4.443797E+03  1.080801E+04
       238   5  2.978827E+05  4.755099E+03  1.178863E+04  5.995900E+04 -1.052751E+04  1.107298E+04
       238   6  2.998722E+05  2.163580E+04  2.404122E+04  6.730164E+04 -1.661190E+04  3.618539E+03
       238   7  4.768841E+05  4.251336E+04  3.909787E+04  6.607363E+04  2.489183E+03  1.080871E+04
       238   8  5.406272E+05  6.299062E+04  6.033367E+04  6.610907E+04 -1.657186E+04  1.107194E+04
       238   9  6.106169E+05  9.849043E+04  9.772886E+04  8.083182E+04 -3.563602E+04  3.616685E+03
       238  10  1.229177E+05 -4.121876E+04 -2.571960E+04  6.853219E+04 -7.462853E-11 -2.776883E-12
       238  11  5.519458E+04 -5.348402E+04 -3.675949E+04  5.381142E+04 -3.584368E-11  6.018933E-11
       238  12 -1.078282E+04 -5.522489E+04 -4.965172E+04  5.377825E+04  1.755891E-11  2.838381E-11
       238  13  2.998857E+05  6.481183E+02  6.689654E+03  6.730308E+04  5.032596E-10  9.437725E-11
       238  14  2.978826E+05  4.754938E+03  1.178819E+04  5.995910E+04  5.612093E-10  1.731016E-10
       238  15  2.998719E+05  2.163572E+04  2.404068E+04  6.730169E+04  1.572915E-10  2.786720E-11
       238  16  4.768841E+05  4.251323E+04  3.909764E+04  6.607361E+04  2.296016E-10  4.414317E-11
       238  17  5.406268E+05  6.299042E+04  6.033292E+04  6.610922E+04  5.752419E-10  4.968810E-11
       238  18  6.106156E+05  9.849008E+04  9.772645E+04  8.083193E+04  9.618031E-11  2.020381E-11
       238  19  1.229179E+05 -4.121860E+04 -2.571914E+04  6.853209E+04  1.137486E+04 -1.080729E+04
       238  20  5.519464E+04 -5.348388E+04 -3.675922E+04  5.381138E+04  4.485478E+03 -1.107391E+04
       238  21 -1.078281E+04 -5.522488E+04 -4.965169E+04  5.377825E+04 -2.402749E+03 -3.619565E+03
       238  22  2.998857E+05  6.482490E+02  6.689911E+03  6.730304E+04  4.443797E+03 -1.080801E+04
       238  23  2.978827E+05  4.755099E+03  1.178863E+04  5.995900E+04  1.052751E+04 -1.107298E+04
       238  24  2.998722E+05  2.163580E+04  2.404122E+04  6.730164E+04  1.661190E+04 -3.618539E+03
       238  25  4.768841E+05  4.251336E+04  3.909787E+04  6.607363E+04 -2.489183E+03 -1.080871E+04
       238  26  5.406272E+05  6.299062E+04  6.033367E+04  6.610907E+04  1.657186E+04 -1.107194E+04
       238  27  6.106169E+05  9.849043E+04  9.772886E+04  8.083182E+04  3.563602E+04 -3.616685E+03
       239   1 -1.691437E+05 -6.096003E+05 -1.759113E+05  1.507669E+05 -3.530717E+03 -8.303424E+04
       239   2 -7.612043E+04 -5.040852E+05 -9.644984E+04  1.107427E+05 -1.007950E+04 -4.407991E+04
       239   3 -3.647661E+04 -4.169889E+05 -5.571170E+04  9.206449E+04 -8.167247E+03 -5.119471E+03
       239   4 -8.609332E+04 -2.743593E+05 -9.589066E+04  9.695558E+04 -3.518097E+03 -6.492711E+04
       239   5 -1.888547E+04 -2.663698E+05 -4.800295E+04  8.626831E+04 -1.007618E+04 -4.017008E+04
       239   6 -2.580595E+03 -2.743335E+05 -2.896307E+04  9.693216E+04 -8.171021E+03 -1.541368E+04
       239   7 -3.039979E+03  6.099183E+04 -1.587513E+04  4.311508E+04 -3.508623E+03 -4.681022E+04
       239   8  3.834822E+04 -2.859934E+04  4.413570E+02  6.178438E+04 -1.007317E+04 -3.625877E+04
       239   9  3.131439E+04 -1.316582E+05 -2.214918E+03  1.018010E+05 -8.174956E+03 -2.571019E+04
       239  10 -1.691456E+05 -6.096077E+05 -1.759243E+05  1.507666E+05  6.368411E-11 -4.044698E-10
       239  11 -7.612106E+04 -5.040873E+05 -9.645369E+04  1.107423E+05  1.428199E-10  1.233269E-10
       239  12 -3.647669E+04 -4.169889E+05 -5.571187E+04  9.206446E+04  2.009752E-10  7.427193E-10
       239  13 -8.609447E+04 -2.743638E+05 -9.589860E+04  9.695540E+04 -1.381786E-10  5.861483E-11
       239  14 -1.888601E+04 -2.663716E+05 -4.800617E+04  8.626799E+04 -1.319529E-11 -9.159484E-11
       239  15 -2.580730E+03 -2.743338E+05 -2.896365E+04  9.693206E+04  1.677675E-10  2.286376E-11
       239  16 -3.040580E+03  6.098947E+04 -1.587927E+04  4.311494E+04  7.851431E-12  4.101357E-10
       239  17  3.834776E+04 -2.860078E+04  4.386958E+02  6.178409E+04 -4.428658E-10 -2.287647E-10
       239  18  3.131414E+04 -1.316589E+05 -2.216286E+03  1.018008E+05  1.670563E-10 -6.429701E-10
       239  19 -1.691437E+05 -6.096003E+05 -1.759113E+05  1.507669E+05  3.530717E+03  8.303424E+04
       239  20 -7.612043E+04 -5.040852E+05 -9.644984E+04  1.107427E+05  1.007950E+04  4.407991E+04
       239  21 -3.647661E+04 -4.169889E+05 -5.571170E+04  9.206449E+04  8.167247E+03  5.119471E+03
       239  22 -8.609332E+04 -2.743593E+05 -9.589066E+04  9.695558E+04  3.518097E+03  6.492711E+04
       239  23 -1.888547E+04 -2.663698E+05 -4.800295E+04  8.626831E+04  1.007618E+04  4.017008E+04
       239  24 -2.580595E+03 -2.743335E+05 -2.896307E+04  9.693216E+04  8.171021E+03  1.541368E+04
       239  25 -3.039979E+03  6.099183E+04 -1.587513E+04  4.311508E+04  3.508623E+03  4.681022E+04
       239  26  3.834822E+04 -2.859934E+04  4.413570E+02  6.178438E+04  1.007317E+04  3.625877E+04
       239  27  3.131439E+04 -1.316582E+05 -2.214918E+03  1.018010E+05  8.174956E+03  2.571019E+04
       240   1 -2.270695E+04 -3.507735E+05 -3.919981E+04  9.912520E+04 -4.390073E+03 -1.970421E+03
       240   2  2.920309E+03 -2.532962E+05 -1.629864E+04  8.620031E+04  1.184308E+03  7.496914E+03
       240   3  2.370149E+04 -1.582651E+05 -7.783883E+02  9.512515E+04  6.688877E+03  1.696573E+04
       240   4 -3.802762E+03 -2.713368E+05 -2.413417E+04  9.704546E+04 -4.393692E+03 -1.138480E+04
       240   5 -1.023402E+03 -2.700995E+05 -1.920864E+04  8.612030E+04  1.180793E+03 -1.800444E+03
       240   6 -3.109948E+03 -2.713377E+05 -2.174490E+04  9.704522E+04  6.685508E+03  7.784013E+03
       240   7  1.510112E+04 -1.918939E+05 -9.068469E+03  9.496545E+04 -4.397248E+03 -2.080036E+04
       240   8 -4.967082E+03 -2.869024E+05 -2.211833E+04  8.604029E+04  1.177280E+03 -1.109756E+04
       240   9 -2.992206E+04 -3.843977E+05 -4.271164E+04  9.896493E+04  6.682082E+03 -1.396077E+03
       240  10 -2.270697E+04 -3.507735E+05 -3.919985E+04  9.912519E+04  2.315586E-10 -5.288491E-10
       240  11  2.920292E+03 -2.532962E+05 -1.629875E+04  8.620031E+04 -9.054591E-11  2.189342E-11
       240  12  2.370137E+04 -1.582654E+05 -7.790133E+02  9.512506E+04 -1.474554E-10  3.522720E-10
       240  13 -3.802818E+03 -2.713370E+05 -2.413445E+04  9.704542E+04  1.277096E-10  2.521935E-11
       240  14 -1.023405E+03 -2.700995E+05 -1.920865E+04  8.612030E+04  2.127037E-10 -1.972141E-10
       240  15 -3.110012E+03 -2.713378E+05 -2.174510E+04  9.704518E+04  3.776947E-10  3.257492E-11
       240  16  1.510098E+04 -1.918944E+05 -9.069319E+03  9.496537E+04  2.703464E-11  6.787353E-10
       240  17 -4.967117E+03 -2.869026E+05 -2.211857E+04  8.604030E+04 -2.211408E-10 -9.578090E-11
       240  18 -2.992211E+04 -3.843977E+05 -4.271172E+04  9.896494E+04  2.790671E-10 -2.810159E-10
       240  19 -2.270695E+04 -3.507735E+05 -3.919981E+04  9.912520E+04  4.390073E+03  1.970421E+03
       240  20  2.920309E+03 -2.532962E+05 -1.629864E+04  8.620031E+04 -1.184308E+03 -7.496914E+03
       240  21  2.370149E+04 -1.582651E+05 -7.783883E+02  9.512515E+04 -6.688877E+03 -1.696573E+04
       240  22 -3.802762E+03 -2.713368E+05 -2.413417E+04  9.704546E+04  4.393692E+03  1.138480E+04
       240  23 -1.023402E+03 -2.700995E+05 -1.920864E+04  8.612030E+04 -1.180793E+03  1.800444E+03
       240  24 -3.109948E+03 -2.713377E+05 -2.174490E+04  9.704522E+04 -6.685508E+03 -7.784013E+03
       240  25  1.510112E+04 -1.918939E+05 -9.068469E+03  9.496545E+04  4.397248E+03  2.080036E+04
       240  26 -4.967082E+03 -2.869024E+05 -2.211833E+04  8.604029E+04 -1.177280E+03  1.109756E+04
       240  27 -2.992206E+04 -3.843977E+05 -4.271164E+04  9.896493E+04 -6.682082E+03  1.396077E+03
       241   1  3.968106E+04 -9.737908E+04  7.477584E+03  1.008551E+05  1.042945E+04  2.154302E+04
       241   2  4.969727E+04  4.183515E+03  1.471485E+04  6.605006E+04  1.185062E+04  2.671415E+04
       241   3  2.046076E+04  9.527251E+04  8.772758E+03  5.253545E+04  4.021402E+03  3.188724E+04
       241   4 -2.136979E+03 -2.737208E+05 -2.522004E+04  9.691983E+04  1.042583E+04  1.138354E+04
       241   5 -1.553888E+04 -2.671401E+05 -4.017088E+04  8.628216E+04  1.185357E+04  3.208798E+04
       241   6 -7.090246E+04 -2.737466E+05 -7.909552E+04  9.693827E+04  4.029481E+03  5.279301E+04
       241   7 -4.395669E+04 -4.500321E+05 -5.791857E+04  9.298570E+04  1.042233E+04  1.226871E+03
       241   8 -8.077803E+04 -5.383926E+05 -9.506008E+04  1.065052E+05  1.185687E+04  3.745952E+04
       241   9 -1.622679E+05 -6.426356E+05 -1.669706E+05  1.413146E+05  4.040554E+03  7.368640E+04
       241  10  3.968082E+04 -9.737961E+04  7.476507E+03  1.008549E+05  9.526348E-11 -5.265457E-10
       241  11  4.969692E+04  4.182711E+03  1.471325E+04  6.604980E+04 -1.089968E-10 -6.378757E-11
       241  12  2.046047E+04  9.527141E+04  8.770817E+03  5.253534E+04 -3.081413E-11  1.770502E-10
       241  13 -2.137131E+03 -2.737209E+05 -2.522048E+04  9.691973E+04  1.153115E-10 -1.472295E-11
       241  14 -1.553930E+04 -2.671412E+05 -4.017307E+04  8.628185E+04 -2.981356E-10 -4.226507E-11
       241  15 -7.090323E+04 -2.737496E+05 -7.910079E+04  9.693810E+04  1.358236E-10 -6.172115E-12
       241  16 -4.395680E+04 -4.500321E+05 -5.791877E+04  9.298569E+04  2.022798E-10  6.069491E-10
       241  17 -8.077856E+04 -5.383941E+05 -9.506298E+04  1.065049E+05 -1.974416E-10  1.417724E-10
       241  18 -1.622693E+05 -6.426415E+05 -1.669809E+05  1.413143E+05 -1.309668E-10 -2.089576E-10
       241  19  3.968106E+04 -9.737908E+04  7.477584E+03  1.008551E+05 -1.042945E+04 -2.154302E+04
       241  20  4.969727E+04  4.183515E+03  1.471485E+04  6.605006E+04 -1.185062E+04 -2.671415E+04
       241  21  2.046076E+04  9.527251E+04  8.772758E+03  5.253545E+04 -4.021402E+03 -3.188724E+04
       241  22 -2.136979E+03 -2.737208E+05 -2.522004E+04  9.691983E+04 -1.042583E+04 -1.138354E+04
       241  23 -1.553888E+04 -2.671401E+05 -4.017088E+04  8.628216E+04 -1.185357E+04 -3.208798E+04
       241  24 -7.090246E+04 -2.737466E+05 -7.909552E+04  9.693827E+04 -4.029481E+03 -5.279301E+04
       241  25 -4.395669E+04 -4.500321E+05 -5.791857E+04  9.298570E+04 -1.042233E+04 -1.226871E+03
       241  26 -8.077803E+04 -5.383926E+05 -9.506008E+04  1.065052E+05 -1.185687E+04 -3.745952E+04
       241  27 -1.622679E+05 -6.426356E+05 -1.669706E+05  1.413146E+05 -4.040554E+03 -7.368640E+04
       242   1  3.072045E+05  2.460872E+05  6.512862E+04  2.190836E+05  3.855980E+04  2.926397E+04
       242   2  3.116359E+05  1.958378E+05  3.098306E+04  2.373972E+05  2.478409E+04  1.956695E+04
       242   3  3.388842E+05  1.722757E+05  1.725741E+04  2.426295E+05  1.142447E+04  9.315199E+03
       242   4  3.657421E+05  2.215560E+05  7.163490E+04  2.176421E+05  3.971280E+04  3.012457E+04
       242   5  3.429755E+05  1.880826E+05  3.487198E+04  2.392070E+05  2.500096E+04  1.972839E+04
       242   6  3.432271E+05  1.814962E+05  1.933914E+04  2.476912E+05  1.070600E+04  8.776615E+03
       242   7  4.242852E+05  1.970289E+05  7.814187E+04  2.161993E+05  4.086593E+04  3.098503E+04
       242   8  3.743165E+05  1.803281E+05  3.876101E+04  2.410166E+05  2.521784E+04  1.988982E+04
       242   9  3.475700E+05  1.907168E+05  2.142087E+04  2.527529E+05  9.987525E+03  8.238013E+03
       242  10  3.072027E+05  2.460859E+05  6.512422E+04  2.190827E+05 -3.061691E-11  2.449930E-11
       242  11  3.116351E+05  1.958373E+05  3.098119E+04  2.373968E+05 -2.953251E-10 -5.761649E-11
       242  12  3.388840E+05  1.722755E+05  1.725701E+04  2.426294E+05 -3.161242E-10 -1.913212E-11
       242  13  3.657402E+05  2.215546E+05  7.163023E+04  2.176412E+05  1.414635E-10  1.370904E-11
       242  14  3.429747E+05  1.880820E+05  3.487007E+04  2.392066E+05  9.220207E-11 -4.959816E-11
       242  15  3.432269E+05  1.814961E+05  1.933878E+04  2.476911E+05  2.957392E-11  7.681455E-12
       242  16  4.242831E+05  1.970274E+05  7.813693E+04  2.161982E+05  6.706159E-14 -1.065102E-10
       242  17  3.743157E+05  1.803275E+05  3.875908E+04  2.410162E+05  1.164424E-10 -1.279958E-10
       242  18  3.475699E+05  1.907167E+05  2.142056E+04  2.527528E+05  1.768025E-10  6.032916E-12
       242  19  3.072045E+05  2.460872E+05  6.512862E+04  2.190836E+05 -3.855980E+04 -2.926397E+04
       242  20  3.116359E+05  1.958378E+05  3.098306E+04  2.373972E+05 -2.478409E+04 -1.956695E+04
       242  21  3.388842E+05  1.722757E+05  1.725741E+04  2.426295E+05 -1.142447E+04 -9.315199E+03
       242  22  3.657421E+05  2.215560E+05  7.163490E+04  2.176421E+05 -3.971280E+04 -3.012457E+04
       242  23  3.429755E+05  1.880826E+05  3.487198E+04  2.392070E+05 -2.500096E+04 -1.972839E+04
       242  24  3.432271E+05  1.814962E+05  1.933914E+04  2.476912E+05 -1.070600E+04 -8.776615E+03
       242  25  4.242852E+05  1.970289E+05  7.814187E+04  2.161993E+05 -4.086593E+04 -3.098503E+04
       242  26  3.743165E+05  1.803281E+05  3.876101E+04  2.410166E+05 -2.521784E+04 -1.988982E+04
       242  27  3.475700E+05  1.907168E+05  2.142087E+04  2.527529E+05 -9.987525E+03 -8.238013E+03
       243   1  3.368347E+05  1.795061E+05  1.375012E+04  2.443515E+05  9.525148E+03  7.486216E+03
       243   2  3.413925E+05  1.820068E+05  8.890655E+03  2.483214E+05  6.516921E+03  4.583924E+03
       243   3  3.491101E+05  1.843763E+05  7.227947E+03  2.513143E+05  3.544979E+03  1.633069E+03
       243   4  3.420501E+05  1.812458E+05  1.485111E+04  2.460686E+05  8.870009E+03  6.994976E+03
       243   5  3.399258E+05  1.803492E+05  8.520111E+03  2.472727E+05  5.780156E+03  4.031501E+03
       243   6  3.409788E+05  1.793389E+05  5.456497E+03  2.474996E+05  2.726692E+03  1.019533E+03
       243   7  3.472656E+05  1.829856E+05  1.595211E+04  2.477859E+05  8.214851E+03  6.503726E+03
       243   8  3.384591E+05  1.786916E+05  8.149570E+03  2.462240E+05  5.043394E+03  3.479082E+03
       243   9  3.328477E+05  1.743017E+05  3.685094E+03  2.436850E+05  1.908433E+03  4.060165E+02
       243  10  3.368346E+05  1.795060E+05  1.374985E+04  2.443514E+05 -9.278299E-11  4.582748E-11
       243  11  3.413924E+05  1.820067E+05  8.890536E+03  2.483214E+05  3.337491E-10  2.571138E-10
       243  12  3.491101E+05  1.843763E+05  7.227919E+03  2.513143E+05  2.719666E-10  2.425311E-10
       243  13  3.420500E+05  1.812458E+05  1.485087E+04  2.460686E+05  3.410672E-10  2.933220E-11
       243  14  3.399258E+05  1.803491E+05  8.520018E+03  2.472727E+05 -7.551554E-11  3.335030E-11
       243  15  3.409788E+05  1.793389E+05  5.456481E+03  2.474996E+05  2.000670E-10 -9.407283E-12
       243  16  3.472655E+05  1.829855E+05  1.595191E+04  2.477858E+05  2.915967E-10  1.610580E-10
       243  17  3.384591E+05  1.786916E+05  8.149499E+03  2.462240E+05 -1.487548E-10  3.501580E-12
       243  18  3.328477E+05  1.743017E+05  3.685087E+03  2.436850E+05 -6.128632E-11 -2.112528E-10
       243  19  3.368347E+05  1.795061E+05  1.375012E+04  2.443515E+05 -9.525148E+03 -7.486216E+03
       243  20  3.413925E+05  1.820068E+05  8.890655E+03  2.483214E+05 -6.516921E+03 -4.583924E+03
       243  21  3.491101E+05  1.843763E+05  7.227947E+03  2.513143E+05 -3.544979E+03 -1.633069E+03
       243  22  3.420501E+05  1.812458E+05  1.485111E+04  2.460686E+05 -8.870009E+03 -6.994976E+03
       243  23  3.399258E+05  1.803492E+05  8.520111E+03  2.472727E+05 -5.780156E+03 -4.031501E+03
       243  24  3.409788E+05  1.793389E+05  5.456497E+03  2.474996E+05 -2.726692E+03 -1.019533E+03
       243  25  3.472656E+05  1.829856E+05  1.595211E+04  2.477859E+05 -8.214851E+03 -6.503726E+03
       243  26  3.384591E+05  1.786916E+05  8.149570E+03  2.462240E+05 -5.043394E+03 -3.479082E+03
       243  27  3.328477E+05  1.743017E+05  3.685094E+03  2.436850E+05 -1.908433E+03 -4.060165E+02
       244   1  3.525544E+05  1.873930E+05  7.351543E+03  2.532501E+05  3.043160E+03  8.117643E+02
       244   2  3.573447E+05  1.923928E+05  8.110063E+03  2.565054E+05  1.798718E+03 -8.722608E+02
       244   3  3.641959E+05  1.958607E+05  1.022730E+04  2.592886E+05  5.490341E+02 -2.549321E+03
       244   4  3.408964E+05  1.793189E+05  4.641929E+03  2.473901E+05  2.229129E+03  2.014159E+02
       244   5  3.398677E+05  1.800871E+05  4.022241E+03  2.476255E+05  9.964693E+02 -1.473788E+03
       244   6  3.408975E+05  1.793208E+05  4.751076E+03  2.473887E+05 -2.414252E+02 -3.142024E+03
       244   7  3.292385E+05  1.712449E+05  1.932307E+03  2.415302E+05  1.415118E+03 -4.089178E+02
       244   8  3.223910E+05  1.677814E+05 -6.565458E+01  2.387457E+05  1.942435E+02 -2.075299E+03
       244   9  3.175993E+05  1.627808E+05 -7.253322E+02  2.354892E+05 -1.031859E+03 -3.734709E+03
       244  10  3.525544E+05  1.873930E+05  7.351525E+03  2.532501E+05  8.252497E-11  7.639325E-11
       244  11  3.573446E+05  1.923928E+05  8.110056E+03  2.565054E+05  2.202234E-10  6.091826E-11
       244  12  3.641959E+05  1.958607E+05  1.022729E+04  2.592886E+05  7.893731E-11 -3.384383E-11
       244  13  3.408964E+05  1.793189E+05  4.641919E+03  2.473901E+05  2.705228E-10 -5.638582E-11
       244  14  3.398677E+05  1.800871E+05  4.022235E+03  2.476255E+05  4.788820E-10 -1.025111E-10
       244  15  3.408975E+05  1.793208E+05  4.751057E+03  2.473887E+05 -3.156585E-11  2.574421E-11
       244  16  3.292385E+05  1.712449E+05  1.932303E+03  2.415302E+05  7.456772E-11 -2.222423E-10
       244  17  3.223910E+05  1.677814E+05 -6.566275E+01  2.387457E+05  1.650806E-10 -2.347203E-10
       244  18  3.175993E+05  1.627808E+05 -7.253604E+02  2.354892E+05  1.109144E-10  4.071440E-11
       244  19  3.525544E+05  1.873930E+05  7.351543E+03  2.532501E+05 -3.043160E+03 -8.117643E+02
       244  20  3.573447E+05  1.923928E+05  8.110063E+03  2.565054E+05 -1.798718E+03  8.722608E+02
       244  21  3.641959E+05  1.958607E+05  1.022730E+04  2.592886E+05 -5.490341E+02  2.549321E+03
       244  22  3.408964E+05  1.793189E+05  4.641929E+03  2.473901E+05 -2.229129E+03 -2.014159E+02
       244  23  3.398677E+05  1.800871E+05  4.022241E+03  2.476255E+05 -9.964693E+02  1.473788E+03
       244  24  3.408975E+05  1.793208E+05  4.751076E+03  2.473887E+05  2.414252E+02  3.142024E+03
       244  25  3.292385E+05  1.712449E+05  1.932307E+03  2.415302E+05 -1.415118E+03  4.089178E+02
       244  26  3.223910E+05  1.677814E+05 -6.565458E+01  2.387457E+05 -1.942435E+02  2.075299E+03
       244  27  3.175993E+05  1.627808E+05 -7.253322E+02  2.354892E+05  1.031859E+03  3.734709E+03
       245   1  3.678061E+05  1.989394E+05  1.205221E+04  2.614582E+05  4.383759E+01 -3.367658E+03
       245   2  3.734529E+05  2.033022E+05  1.676013E+04  2.639568E+05 -3.403379E+03 -6.599736E+03
       245   3  3.823830E+05  2.076785E+05  2.506117E+04  2.654568E+05 -6.947327E+03 -9.702768E+03
       245   4  3.409838E+05  1.793427E+05  5.629785E+03  2.475052E+05 -7.611162E+02 -3.971237E+03
       245   5  3.399259E+05  1.803565E+05  8.871806E+03  2.472560E+05 -3.991177E+03 -7.040510E+03
       245   6  3.421042E+05  1.813370E+05  1.551883E+04  2.460084E+05 -7.317950E+03 -9.980735E+03
       245   7  3.141629E+05  1.597469E+05 -7.925112E+02  2.335530E+05 -1.566009E+03 -4.574769E+03
       245   8  3.064005E+05  1.574117E+05  9.835162E+02  2.305564E+05 -4.578927E+03 -7.481249E+03
       245   9  3.018273E+05  1.549963E+05  5.976398E+03  2.265614E+05 -7.688541E+03 -1.025868E+04
       245  10  3.678061E+05  1.989394E+05  1.205219E+04  2.614582E+05  1.103527E-10  1.720787E-10
       245  11  3.734529E+05  2.033021E+05  1.676003E+04  2.639567E+05 -4.498363E-11  7.370147E-11
       245  12  3.823829E+05  2.076784E+05  2.506090E+04  2.654568E+05 -2.002529E-10 -1.906911E-11
       245  13  3.409838E+05  1.793427E+05  5.629755E+03  2.475052E+05  1.319774E-11  7.153548E-11
       245  14  3.399259E+05  1.803564E+05  8.871683E+03  2.472560E+05 -2.354816E-11  3.727881E-12
       245  15  3.421041E+05  1.813369E+05  1.551855E+04  2.460084E+05 -2.986566E-10  6.929526E-11
       245  16  3.141629E+05  1.597469E+05 -7.925551E+02  2.335530E+05  2.825480E-11 -8.546534E-11
       245  17  3.064004E+05  1.574116E+05  9.833717E+02  2.305564E+05  9.504410E-12 -6.495884E-11
       245  18  3.018272E+05  1.549962E+05  5.976089E+03  2.265614E+05  1.357104E-10  1.656614E-10
       245  19  3.678061E+05  1.989394E+05  1.205221E+04  2.614582E+05 -4.383759E+01  3.367658E+03
       245  20  3.734529E+05  2.033022E+05  1.676013E+04  2.639568E+05  3.403379E+03  6.599736E+03
       245  21  3.823830E+05  2.076785E+05  2.506117E+04  2.654568E+05  6.947327E+03  9.702768E+03
       245  22  3.409838E+05  1.793427E+05  5.629785E+03  2.475052E+05  7.611162E+02  3.971237E+03
       245  23  3.399259E+05  1.803565E+05  8.871806E+03  2.472560E+05  3.991177E+03  7.040510E+03
       245  24  3.421042E+05  1.813370E+05  1.551883E+04  2.460084E+05  7.317950E+03  9.980735E+03
       245  25  3.141629E+05  1.597469E+05 -7.925112E+02  2.335530E+05  1.566009E+03  4.574769E+03
       245  26  3.064005E+05  1.574117E+05  9.835162E+02  2.305564E+05  4.578927E+03  7.481249E+03
       245  27  3.018273E+05  1.549963E+05  5.976398E+03  2.265614E+05  7.688541E+03  1.025868E+04
       246   1  3.825605E+05  2.157014E+05  3.082608E+04  2.705873E+05 -8.743116E+03 -1.138293E+04
       246   2  4.103207E+05  2.045862E+05  4.963227E+04  2.580270E+05 -2.657468E+04 -2.411465E+04
       246   3  4.625550E+05  2.222939E+05  9.278039E+04  2.318188E+05 -4.549973E+04 -3.538959E+04
       246   4  3.433223E+05  1.816136E+05  2.022344E+04  2.477115E+05 -9.279781E+03 -1.178527E+04
       246   5  3.431346E+05  1.884308E+05  3.649125E+04  2.388089E+05 -2.466161E+04 -2.268151E+04
       246   6  3.668894E+05  2.235410E+05  7.497772E+04  2.162588E+05 -4.113535E+04 -3.212174E+04
       246   7  3.040852E+05  1.475268E+05  9.620414E+03  2.248371E+05 -9.816411E+03 -1.218758E+04
       246   8  2.759543E+05  1.722759E+05  2.335022E+04  2.195922E+05 -2.274883E+04 -2.124841E+04
       246   9  2.712386E+05  2.247904E+05  5.717604E+04  2.006990E+05 -3.677202E+04 -2.885375E+04
       246  10  3.825604E+05  2.157012E+05  3.082569E+04  2.705872E+05  1.152417E-10  2.036732E-10
       246  11  4.103197E+05  2.045854E+05  4.962985E+04  2.580265E+05  1.693363E-10  9.994302E-11
       246  12  4.625525E+05  2.222920E+05  9.277415E+04  2.318175E+05 -1.176702E-10 -2.152057E-12
       246  13  3.433222E+05  1.816134E+05  2.022302E+04  2.477114E+05  4.548579E-11  1.425294E-10
       246  14  3.431338E+05  1.884301E+05  3.648914E+04  2.388085E+05 -2.061958E-11  3.727324E-11
       246  15  3.668873E+05  2.235394E+05  7.497260E+04  2.162578E+05 -1.057280E-10 -3.746795E-11
       246  16  3.040851E+05  1.475266E+05  9.619954E+03  2.248370E+05 -1.528108E-10 -4.687153E-11
       246  17  2.759536E+05  1.722752E+05  2.334840E+04  2.195918E+05 -8.587099E-11 -9.638569E-11
       246  18  2.712369E+05  2.247891E+05  5.717194E+04  2.006982E+05  6.283895E-12 -5.220505E-11
       246  19  3.825605E+05  2.157014E+05  3.082608E+04  2.705873E+05  8.743116E+03  1.138293E+04
       246  20  4.103207E+05  2.045862E+05  4.963227E+04  2.580270E+05  2.657468E+04  2.411465E+04
       246  21  4.625550E+05  2.222939E+05  9.278039E+04  2.318188E+05  4.549973E+04  3.538959E+04
       246  22  3.433223E+05  1.816136E+05  2.022344E+04  2.477115E+05  9.279781E+03  1.178527E+04
       246  23  3.431346E+05  1.884308E+05  3.649125E+04  2.388089E+05  2.466161E+04  2.268151E+04
       246  24  3.668894E+05  2.235410E+05  7.497772E+04  2.162588E+05  4.113535E+04  3.212174E+04
       246  25  3.040852E+05  1.475268E+05  9.620414E+03  2.248371E+05  9.816411E+03  1.218758E+04
       246  26  2.759543E+05  1.722759E+05  2.335022E+04  2.195922E+05  2.274883E+04  2.124841E+04
       246  27  2.712386E+05  2.247904E+05  5.717604E+04  2.006990E+05  3.677202E+04  2.885375E+04
       247   1  4.791399E+05  7.000929E+04  6.835650E+04  5.419055E+04  2.223568E+04 -2.980650E+03
       247   2  4.288961E+05  4.962522E+04  4.432216E+04  4.597203E+04  9.502011E+03 -9.261173E+03
       247   3  3.820225E+05  3.606667E+04  3.028052E+04  4.838121E+04 -3.230110E+03 -9.400808E+03
       247   4  2.304780E+05  8.521351E+03  9.476664E+03  4.885838E+04  6.516415E+03 -2.981191E+03
       247   5  2.296927E+05  1.869072E+03  4.670186E+03  4.354470E+04  4.106725E+03 -9.261715E+03
       247   6  2.304851E+05  2.521804E+02  2.691437E+03  4.885868E+04  1.697507E+03 -9.400566E+03
       247   7 -1.812659E+04 -5.297078E+04 -4.940652E+04  4.352835E+04 -9.196597E+03 -2.981464E+03
       247   8  3.052735E+04 -4.588946E+04 -3.498366E+04  4.111818E+04 -1.286866E+03 -9.262214E+03
       247   9  7.897021E+04 -3.556359E+04 -2.489848E+04  4.933602E+04  6.623954E+03 -9.400316E+03
       247  10  4.791394E+05  7.000915E+04  6.835556E+04  5.419061E+04 -2.050182E-11  5.768102E-12
       247  11  4.288960E+05  4.962510E+04  4.432183E+04  4.597210E+04 -4.181355E-11  1.831498E-12
       247  12  3.820224E+05  3.606657E+04  3.028034E+04  4.838118E+04  3.140114E-11  3.497261E-12
       247  13  2.304779E+05  8.521330E+03  9.476567E+03  4.885839E+04 -1.068043E-10 -1.857765E-12
       247  14  2.296927E+05  1.868975E+03  4.669993E+03  4.354474E+04  7.064828E-12 -2.151203E-13
       247  15  2.304851E+05  2.520847E+02  2.691265E+03  4.885869E+04 -1.137887E-10 -1.191178E-11
       247  16 -1.812668E+04 -5.297081E+04 -4.940670E+04  4.352833E+04  3.094659E-10  4.115035E-11
       247  17  3.052732E+04 -4.588955E+04 -3.498383E+04  4.111817E+04 -2.673284E-10  6.232249E-11
       247  18  7.897014E+04 -3.556370E+04 -2.489873E+04  4.933607E+04 -2.332188E-10 -5.830230E-11
       247  19  4.791399E+05  7.000929E+04  6.835650E+04  5.419055E+04 -2.223568E+04  2.980650E+03
       247  20  4.288961E+05  4.962522E+04  4.432216E+04  4.597203E+04 -9.502011E+03  9.261173E+03
       247  21  3.820225E+05  3.606667E+04  3.028052E+04  4.838121E+04  3.230110E+03  9.400808E+03
       247  22  2.304780E+05  8.521351E+03  9.476664E+03  4.885838E+04 -6.516415E+03  2.981191E+03
       247  23  2.296927E+05  1.869072E+03  4.670186E+03  4.354470E+04 -4.106725E+03  9.261715E+03
       247  24  2.304851E+05  2.521804E+02  2.691437E+03  4.885868E+04 -1.697507E+03  9.400566E+03
       247  25 -1.812659E+04 -5.297078E+04 -4.940652E+04  4.352835E+04  9.196597E+03  2.981464E+03
       247  26  3.052735E+04 -4.588946E+04 -3.498366E+04  4.111818E+04  1.286866E+03  9.262214E+03
       247  27  7.897021E+04 -3.556359E+04 -2.489848E+04  4.933602E+04 -6.623954E+03  9.400316E+03
       248   1  3.497772E+05  2.861555E+04  2.375333E+04  4.912675E+04 -2.898940E+03 -7.576091E+03
       248   2  3.011253E+05  1.675343E+04  1.395540E+04  4.351447E+04 -4.467418E+03 -4.808007E+03
       248   3  2.527890E+05  5.324762E+03  5.286564E+03  4.892055E+04 -6.035919E+03 -1.539391E+03
       248   4  2.301732E+05  3.816948E+02  2.148336E+03  4.894553E+04  1.332903E+03 -7.575775E+03
       248   5  2.300910E+05  5.189927E+01  1.460427E+03  4.343633E+04  6.055803E+02 -4.807482E+03
       248   6  2.301755E+05  9.522977E+00  1.317544E+03  4.894557E+04 -1.218952E+02 -1.538625E+03
       248   7  1.105831E+05 -2.785295E+04 -1.945715E+04  4.876434E+04  5.563955E+03 -7.575461E+03
       248   8  1.590618E+05 -1.664990E+04 -1.103463E+04  4.335820E+04  5.678015E+03 -4.806958E+03
       248   9  2.075626E+05 -5.305725E+03 -2.651364E+03  4.897059E+04  5.791919E+03 -1.537859E+03
       248  10  3.497771E+05  2.861549E+04  2.375320E+04  4.912674E+04 -1.348290E-11 -3.892747E-11
       248  11  3.011253E+05  1.675340E+04  1.395532E+04  4.351445E+04  1.584455E-10 -1.783253E-11
       248  12  2.527889E+05  5.324749E+03  5.286491E+03  4.892054E+04 -8.002222E-11  2.368307E-11
       248  13  2.301731E+05  3.816326E+02  2.148225E+03  4.894554E+04 -3.990862E-12 -7.255608E-11
       248  14  2.300910E+05  5.187435E+01  1.460382E+03  4.343633E+04  2.067507E-10 -1.034478E-10
       248  15  2.301755E+05  9.520431E+00  1.317539E+03  4.894557E+04  3.258427E-10 -8.154001E-11
       248  16  1.105831E+05 -2.785302E+04 -1.945731E+04  4.876437E+04 -1.192333E-11 -9.166045E-11
       248  17  1.590617E+05 -1.664993E+04 -1.103474E+04  4.335822E+04  1.890022E-10 -2.151959E-10
       248  18  2.075625E+05 -5.305736E+03 -2.651431E+03  4.897059E+04  1.509962E-10 -7.440804E-11
       248  19  3.497772E+05  2.861555E+04  2.375333E+04  4.912675E+04  2.898940E+03  7.576091E+03
       248  20  3.011253E+05  1.675343E+04  1.395540E+04  4.351447E+04  4.467418E+03  4.808007E+03
       248  21  2.527890E+05  5.324762E+03  5.286564E+03  4.892055E+04  6.035919E+03  1.539391E+03
       248  22  2.301732E+05  3.816948E+02  2.148336E+03  4.894553E+04 -1.332903E+03  7.575775E+03
       248  23  2.300910E+05  5.189927E+01  1.460427E+03  4.343633E+04 -6.055803E+02  4.807482E+03
       248  24  2.301755E+05  9.522977E+00  1.317544E+03  4.894557E+04  1.218952E+02  1.538625E+03
       248  25  1.105831E+05 -2.785295E+04 -1.945715E+04  4.876434E+04 -5.563955E+03  7.575461E+03
       248  26  1.590618E+05 -1.664990E+04 -1.103463E+04  4.335820E+04 -5.678015E+03  4.806958E+03
       248  27  2.075626E+05 -5.305725E+03 -2.651364E+03  4.897059E+04 -5.791919E+03  1.537859E+03
       249   1  2.211340E+05 -2.138908E+03 -2.608264E+02  4.902273E+04 -6.270361E+03  5.492565E+02
       249   2  1.725966E+05 -1.343804E+04 -8.255716E+03  4.334387E+04 -6.436904E+03  3.831654E+03
       249   3  1.241556E+05 -2.444381E+04 -1.606929E+04  4.868523E+04 -6.603304E+03  6.644002E+03
       249   4  2.301901E+05  4.188369E+00  1.400905E+03  4.894595E+04 -3.597203E+02  5.500317E+02
       249   5  2.300732E+05  8.952717E+01  1.918398E+03  4.343584E+04 -1.316346E+03  3.832216E+03
       249   6  2.301881E+05  6.056162E+02  3.165832E+03  4.894588E+04 -2.272853E+03  6.644378E+03
       249   7  2.392464E+05  2.147299E+03  3.062765E+03  4.886917E+04  5.551004E+03  5.508055E+02
       249   8  2.875530E+05  1.361693E+04  1.209249E+04  4.352783E+04  3.804672E+03  3.832781E+03
       249   9  3.362316E+05  2.565442E+04  2.240058E+04  4.920658E+04  2.058317E+03  6.644758E+03
       249  10  2.211340E+05 -2.138919E+03 -2.609008E+02  4.902273E+04  2.285445E-10  1.234726E-10
       249  11  1.725965E+05 -1.343807E+04 -8.255821E+03  4.334389E+04 -1.838340E-13  1.564634E-11
       249  12  1.241556E+05 -2.444387E+04 -1.606945E+04  4.868526E+04 -2.265181E-10  4.784218E-11
       249  13  2.301901E+05  4.188009E+00  1.400905E+03  4.894595E+04  2.517622E-10  2.143800E-11
       249  14  2.300731E+05  8.951094E+01  1.918367E+03  4.343585E+04  1.813650E-10  2.874657E-11
       249  15  2.301881E+05  6.055674E+02  3.165739E+03  4.894589E+04  2.072091E-11  9.238516E-11
       249  16  2.392463E+05  2.147290E+03  3.062707E+03  4.886917E+04  5.830631E-11 -5.275715E-11
       249  17  2.875530E+05  1.361691E+04  1.209243E+04  4.352782E+04  3.854901E-10  2.505404E-11
       249  18  3.362316E+05  2.565437E+04  2.240049E+04  4.920657E+04  3.107972E-10  2.920760E-11
       249  19  2.211340E+05 -2.138908E+03 -2.608264E+02  4.902273E+04  6.270361E+03 -5.492565E+02
       249  20  1.725966E+05 -1.343804E+04 -8.255716E+03  4.334387E+04  6.436904E+03 -3.831654E+03
       249  21  1.241556E+05 -2.444381E+04 -1.606929E+04  4.868523E+04  6.603304E+03 -6.644002E+03
       249  22  2.301901E+05  4.188369E+00  1.400905E+03  4.894595E+04  3.597203E+02 -5.500317E+02
       249  23  2.300732E+05  8.952717E+01  1.918398E+03  4.343584E+04  1.316346E+03 -3.832216E+03
       249  24  2.301881E+05  6.056162E+02  3.165832E+03  4.894588E+04  2.272853E+03 -6.644378E+03
       249  25  2.392464E+05  2.147299E+03  3.062765E+03  4.886917E+04 -5.551004E+03 -5.508055E+02
       249  26  2.875530E+05  1.361693E+04  1.209249E+04  4.352783E+04 -3.804672E+03 -3.832781E+03
       249  27  3.362316E+05  2.565442E+04  2.240058E+04  4.920658E+04 -2.058317E+03 -6.644758E+03
       250   1  9.274266E+04 -3.222081E+04 -2.112272E+04  4.963171E+04 -7.802179E+03  8.484880E+03
       250   2  4.381262E+04 -4.158973E+04 -2.979269E+04  3.974009E+04 -1.762930E+03  8.542327E+03
       250   3 -4.344858E+03 -4.475163E+04 -4.084144E+04  4.049863E+04  4.275507E+03  2.773254E+03
       250   4  2.306838E+05  4.019475E+02  4.075072E+03  4.886356E+04 -2.812727E+03  8.485212E+03
       250   5  2.294458E+05  2.943476E+03  7.265420E+03  4.353844E+04 -6.562902E+03  8.541829E+03
       250   6  2.306765E+05  1.339022E+04  1.487360E+04  4.886298E+04 -1.031344E+04  2.772813E+03
       250   7  3.686435E+05  3.302365E+04  2.927219E+04  4.809523E+04  2.177804E+03  8.485531E+03
       250   8  4.151120E+05  4.747464E+04  4.432189E+04  4.733794E+04 -1.136428E+04  8.541272E+03
       250   9  4.657493E+05  7.152848E+04  7.058563E+04  5.723051E+04 -2.490789E+04  2.771980E+03
       250  10  9.274257E+04 -3.222091E+04 -2.112297E+04  4.963176E+04 -2.323209E-10  6.931419E-11
       250  11  4.381259E+04 -4.158981E+04 -2.979283E+04  3.974011E+04 -2.572489E-10 -3.433285E-11
       250  12 -4.344880E+03 -4.475165E+04 -4.084149E+04  4.049862E+04 -2.602367E-12 -1.215457E-11
       250  13  2.306838E+05  4.018681E+02  4.074922E+03  4.886357E+04 -2.209678E-10  7.379040E-12
       250  14  2.294457E+05  2.943386E+03  7.265202E+03  4.353848E+04  1.080351E-10  4.745862E-12
       250  15  2.306764E+05  1.339018E+04  1.487338E+04  4.886301E+04  2.047800E-10 -3.948241E-12
       250  16  3.686435E+05  3.302357E+04  2.927204E+04  4.809521E+04  1.653160E-10  1.310721E-10
       250  17  4.151118E+05  4.747453E+04  4.432151E+04  4.733801E+04  2.473744E-10  6.519912E-12
       250  18  4.657486E+05  7.152830E+04  7.058445E+04  5.723057E+04  1.589758E-10 -2.855121E-12
       250  19  9.274266E+04 -3.222081E+04 -2.112272E+04  4.963171E+04  7.802179E+03 -8.484880E+03
       250  20  4.381262E+04 -4.158973E+04 -2.979269E+04  3.974009E+04  1.762930E+03 -8.542327E+03
       250  21 -4.344858E+03 -4.475163E+04 -4.084144E+04  4.049863E+04 -4.275507E+03 -2.773254E+03
       250  22  2.306838E+05  4.019475E+02  4.075072E+03  4.886356E+04  2.812727E+03 -8.485212E+03
       250  23  2.294458E+05  2.943476E+03  7.265420E+03  4.353844E+04  6.562902E+03 -8.541829E+03
       250  24  2.306765E+05  1.339022E+04  1.487360E+04  4.886298E+04  1.031344E+04 -2.772813E+03
       250  25  3.686435E+05  3.302365E+04  2.927219E+04  4.809523E+04 -2.177804E+03 -8.485531E+03
       250  26  4.151120E+05  4.747464E+04  4.432189E+04  4.733794E+04  1.136428E+04 -8.541272E+03
       250  27  4.657493E+05  7.152848E+04  7.058563E+04  5.723051E+04  2.490789E+04 -2.771980E+03
       251   1 -1.526516E+05 -5.283057E+05 -1.587542E+05  1.348873E+05 -3.206682E+03 -7.477003E+04
       251   2 -6.904313E+04 -4.342418E+05 -8.747870E+04  9.893260E+04 -9.206227E+03 -3.952647E+04
       251   3 -3.356638E+04 -3.567994E+05 -5.119456E+04  8.197668E+04 -7.568484E+03 -4.277712E+03
       251   4 -7.760559E+04 -2.253627E+05 -8.647087E+04  8.634364E+04 -3.196919E+03 -5.827873E+04
       251   5 -1.702596E+04 -2.181548E+05 -4.349394E+04  7.683383E+04 -9.203600E+03 -3.585206E+04
       251   6 -2.343473E+03 -2.253426E+05 -2.659484E+04  8.632695E+04 -7.571207E+03 -1.342564E+04
       251   7 -2.557180E+03  7.767016E+04 -1.419168E+04  3.777619E+04 -3.189740E+03 -4.177941E+04
       251   8  3.499013E+04 -2.022261E+03  4.886918E+02  5.472722E+04 -9.201236E+03 -3.217638E+04
       251   9  2.887855E+04 -9.386893E+04 -1.995547E+03  9.067816E+04 -7.574058E+03 -2.257545E+04
       251  10 -1.526531E+05 -5.283117E+05 -1.587647E+05  1.348871E+05  2.141190E-11 -2.719089E-10
       251  11 -6.904364E+04 -4.342435E+05 -8.748180E+04  9.893231E+04  5.776107E-11 -6.027382E-12
       251  12 -3.356645E+04 -3.567994E+05 -5.119470E+04  8.197665E+04 -8.990689E-11  2.650003E-10
       251  13 -7.760651E+04 -2.253664E+05 -8.647727E+04  8.634349E+04 -9.854223E-11 -6.813356E-12
       251  14 -1.702640E+04 -2.181562E+05 -4.349651E+04  7.683357E+04 -5.038428E-11  1.743607E-10
       251  15 -2.343583E+03 -2.253428E+05 -2.659529E+04  8.632687E+04 -1.107827E-10 -2.589324E-11
       251  16 -2.557660E+03  7.766828E+04 -1.419498E+04  3.777608E+04 -9.626136E-12  2.530088E-10
       251  17  3.498976E+04 -2.023395E+03  4.865873E+02  5.472698E+04 -2.902760E-10  2.505466E-11
       251  18  2.887835E+04 -9.386949E+04 -1.996613E+03  9.067802E+04  1.246765E-10 -2.513792E-10
       251  19 -1.526516E+05 -5.283057E+05 -1.587542E+05  1.348873E+05  3.206682E+03  7.477003E+04
       251  20 -6.904313E+04 -4.342418E+05 -8.747870E+04  9.893260E+04  9.206227E+03  3.952647E+04
       251  21 -3.356638E+04 -3.567994E+05 -5.119456E+04  8.197668E+04  7.568484E+03  4.277712E+03
       251  22 -7.760559E+04 -2.253627E+05 -8.647087E+04  8.634364E+04  3.196919E+03  5.827873E+04
       251  23 -1.702596E+04 -2.181548E+05 -4.349394E+04  7.683383E+04  9.203600E+03  3.585206E+04
       251  24 -2.343473E+03 -2.253426E+05 -2.659484E+04  8.632695E+04  7.571207E+03  1.342564E+04
       251  25 -2.557180E+03  7.767016E+04 -1.419168E+04  3.777619E+04  3.189740E+03  4.177941E+04
       251  26  3.499013E+04 -2.022261E+03  4.886918E+02  5.472722E+04  9.201236E+03  3.217638E+04
       251  27  2.887855E+04 -9.386893E+04 -1.995547E+03  9.067816E+04  7.574058E+03  2.257545E+04
       252   1 -2.130700E+04 -2.978323E+05 -3.661307E+04  8.838440E+04 -4.210434E+03 -1.341009E+03
       252   2  1.472854E+03 -2.109428E+05 -1.670162E+04  7.672242E+04  7.432828E+02  7.830165E+03
       252   3  1.956930E+04 -1.264187E+05 -3.935983E+03  8.451527E+04  5.653241E+03  1.700258E+04
       252   4 -3.433749E+03 -2.226722E+05 -2.242193E+04  8.642907E+04 -4.213063E+03 -9.692880E+03
       252   5 -1.000007E+03 -2.214799E+05 -1.852635E+04  7.670148E+04  7.407120E+02 -4.483639E+02
       252   6 -3.262038E+03 -2.226727E+05 -2.182723E+04  8.642903E+04  5.650771E+03  8.796203E+03
       252   7  1.443923E+04 -1.475064E+05 -8.230777E+03  8.447349E+04 -4.215639E+03 -1.804574E+04
       252   8 -3.472838E+03 -2.320167E+05 -2.035083E+04  7.668054E+04  7.381418E+02 -8.726757E+03
       252   9 -2.609385E+04 -3.189176E+05 -3.971862E+04  8.834248E+04  5.648250E+03  5.910606E+02
       252  10 -2.130702E+04 -2.978323E+05 -3.661310E+04  8.838440E+04  9.955580E-11 -2.694299E-10
       252  11  1.472837E+03 -2.109429E+05 -1.670173E+04  7.672241E+04  7.360887E-11 -2.831498E-11
       252  12  1.956918E+04 -1.264190E+05 -3.936587E+03  8.451519E+04  2.652526E-10  1.397267E-10
       252  13 -3.433794E+03 -2.226723E+05 -2.242214E+04  8.642903E+04  6.852657E-11 -7.576620E-11
       252  14 -1.000008E+03 -2.214799E+05 -1.852635E+04  7.670148E+04  5.553241E-10  1.763474E-10
       252  15 -3.262093E+03 -2.226728E+05 -2.182744E+04  8.642899E+04  3.124417E-10  1.119936E-11
       252  16  1.443912E+04 -1.475068E+05 -8.231423E+03  8.447343E+04  9.323650E-11  2.412107E-10
       252  17 -3.472859E+03 -2.320168E+05 -2.035098E+04  7.668055E+04  2.561590E-10  7.303788E-11
       252  18 -2.609389E+04 -3.189177E+05 -3.971868E+04  8.834248E+04 -9.506467E-11 -1.290481E-10
       252  19 -2.130700E+04 -2.978323E+05 -3.661307E+04  8.838440E+04  4.210434E+03  1.341009E+03
       252  20  1.472854E+03 -2.109428E+05 -1.670162E+04  7.672242E+04 -7.432828E+02 -7.830165E+03
       252  21  1.956930E+04 -1.264187E+05 -3.935983E+03  8.451527E+04 -5.653241E+03 -1.700258E+04
       252  22 -3.433749E+03 -2.226722E+05 -2.242193E+04  8.642907E+04  4.213063E+03  9.692880E+03
       252  23 -1.000007E+03 -2.214799E+05 -1.852635E+04  7.670148E+04 -7.407120E+02  4.483639E+02
       252  24 -3.262038E+03 -2.226727E+05 -2.182723E+04  8.642903E+04 -5.650771E+03 -8.796203E+03
       252  25  1.443923E+04 -1.475064E+05 -8.230777E+03  8.447349E+04  4.215639E+03  1.804574E+04
       252  26 -3.472838E+03 -2.320167E+05 -2.035083E+04  7.668054E+04 -7.381418E+02  8.726757E+03
       252  27 -2.609385E+04 -3.189176E+05 -3.971862E+04  8.834248E+04 -5.648250E+03 -5.910606E+02
       253   1  3.395638E+04 -7.260558E+04  2.666821E+03  9.043972E+04  8.988508E+03  2.148632E+04
       253   2  4.083868E+04  1.882650E+04  6.477359E+03  5.579564E+04  1.031686E+04  2.924792E+04
       253   3  6.432384E+03  9.893768E+04 -5.086409E+03  4.011597E+04  3.512255E+03  3.701132E+04
       253   4 -2.234135E+03 -2.251905E+05 -2.566313E+04  8.631919E+04  8.985807E+03  1.242209E+04
       253   5 -1.619455E+04 -2.183477E+05 -4.154453E+04  7.684320E+04  1.031932E+04  3.384011E+04
       253   6 -7.382605E+04 -2.252113E+05 -8.229041E+04  8.633454E+04  3.519090E+03  5.525832E+04
       253   7 -3.842588E+04 -3.777527E+05 -5.399375E+04  8.219970E+04  8.983226E+03  3.360024E+03
       253   8 -7.322960E+04 -4.554673E+05 -8.956902E+04  9.788256E+04  1.032210E+04  3.843057E+04
       253   9 -1.540838E+05 -5.492586E+05 -1.594994E+05  1.325288E+05  3.528645E+03  7.349582E+04
       253  10  3.395617E+04 -7.260609E+04  2.665802E+03  9.043956E+04  1.824526E-10 -6.227665E-10
       253  11  4.083834E+04  1.882555E+04  6.475552E+03  5.579540E+04 -4.410914E-10 -1.280754E-10
       253  12  6.432003E+03  9.893621E+04 -5.089006E+03  4.011587E+04 -1.460027E-11  3.161818E-10
       253  13 -2.234263E+03 -2.251907E+05 -2.566357E+04  8.631910E+04  1.051427E-10 -5.107107E-11
       253  14 -1.619497E+04 -2.183490E+05 -4.154688E+04  7.684292E+04  1.871375E-10  1.445839E-10
       253  15 -7.382688E+04 -2.252146E+05 -8.229617E+04  8.633438E+04 -4.471052E-11 -5.051118E-11
       253  16 -3.842597E+04 -3.777527E+05 -5.399392E+04  8.219967E+04 -7.708467E-11  5.866709E-10
       253  17 -7.323011E+04 -4.554690E+05 -8.957200E+04  9.788224E+04 -1.182801E-10  1.938359E-10
       253  18 -1.540853E+05 -5.492644E+05 -1.595096E+05  1.325286E+05  6.195747E-11 -3.322133E-10
       253  19  3.395638E+04 -7.260558E+04  2.666821E+03  9.043972E+04 -8.988508E+03 -2.148632E+04
       253  20  4.083868E+04  1.882650E+04  6.477359E+03  5.579564E+04 -1.031686E+04 -2.924792E+04
       253  21  6.432384E+03  9.893768E+04 -5.086409E+03  4.011597E+04 -3.512255E+03 -3.701132E+04
       253  22 -2.234135E+03 -2.251905E+05 -2.566313E+04  8.631919E+04 -8.985807E+03 -1.242209E+04
       253  23 -1.619455E+04 -2.183477E+05 -4.154453E+04  7.684320E+04 -1.031932E+04 -3.384011E+04
       253  24 -7.382605E+04 -2.252113E+05 -8.229041E+04  8.633454E+04 -3.519090E+03 -5.525832E+04
       253  25 -3.842588E+04 -3.777527E+05 -5.399375E+04  8.219970E+04 -8.983226E+03 -3.360024E+03
       253  26 -7.322960E+04 -4.554673E+05 -8.956902E+04  9.788256E+04 -1.032210E+04 -3.843057E+04
       253  27 -1.540838E+05 -5.492586E+05 -1.594994E+05  1.325288E+05 -3.528645E+03 -7.349582E+04
       254   1  3.101239E+05  2.587882E+05  6.748092E+04  2.260011E+05  3.840361E+04  2.903536E+04
       254   2  3.100812E+05  2.048201E+05  3.197690E+04  2.412959E+05  2.437454E+04  1.905913E+04
       254   3  3.311263E+05  1.787730E+05  1.702517E+04  2.441369E+05  1.053507E+04  8.829918E+03
       254   4  3.579470E+05  2.275843E+05  7.060759E+04  2.197011E+05  3.920743E+04  2.963428E+04
       254   5  3.362599E+05  1.938367E+05  3.435924E+04  2.407376E+05  2.475011E+04  1.933964E+04
       254   6  3.357520E+05  1.881006E+05  1.903321E+04  2.493206E+05  1.048302E+04  8.790994E+03
       254   7  4.057754E+05  1.963847E+05  7.373510E+04  2.133998E+05  4.001134E+04  3.023311E+04
       254   8  3.624401E+05  1.828538E+05  3.674178E+04  2.401790E+05  2.512571E+04  1.962014E+04
       254   9  3.403778E+05  1.974285E+05  2.104132E+04  2.545045E+05  1.043098E+04  8.752069E+03
       254  10  3.101221E+05  2.587869E+05  6.747656E+04  2.260002E+05  2.806302E-10  8.261359E-11
       254  11  3.100805E+05  2.048196E+05  3.197510E+04  2.412955E+05  1.796768E-10 -3.247194E-11
       254  12  3.311261E+05  1.787729E+05  1.702481E+04  2.441368E+05 -2.213070E-10 -8.613650E-11
       254  13  3.579451E+05  2.275830E+05  7.060305E+04  2.197002E+05  1.208336E-10 -8.848560E-12
       254  14  3.362591E+05  1.938361E+05  3.435739E+04  2.407372E+05 -2.496846E-10 -1.100339E-10
       254  15  3.357518E+05  1.881005E+05  1.903286E+04  2.493205E+05 -4.148915E-10 -6.006511E-11
       254  16  4.057735E+05  1.963833E+05  7.373038E+04  2.133988E+05 -2.196874E-10 -1.324805E-10
       254  17  3.624393E+05  1.828533E+05  3.673988E+04  2.401786E+05 -9.343488E-11 -8.306041E-11
       254  18  3.403777E+05  1.974284E+05  2.104097E+04  2.545044E+05  2.936381E-10  1.297117E-11
       254  19  3.101239E+05  2.587882E+05  6.748092E+04  2.260011E+05 -3.840361E+04 -2.903536E+04
       254  20  3.100812E+05  2.048201E+05  3.197690E+04  2.412959E+05 -2.437454E+04 -1.905913E+04
       254  21  3.311263E+05  1.787730E+05  1.702517E+04  2.441369E+05 -1.053507E+04 -8.829918E+03
       254  22  3.579470E+05  2.275843E+05  7.060759E+04  2.197011E+05 -3.920743E+04 -2.963428E+04
       254  23  3.362599E+05  1.938367E+05  3.435924E+04  2.407376E+05 -2.475011E+04 -1.933964E+04
       254  24  3.357520E+05  1.881006E+05  1.903321E+04  2.493206E+05 -1.048302E+04 -8.790994E+03
       254  25  4.057754E+05  1.963847E+05  7.373510E+04  2.133998E+05 -4.001134E+04 -3.023311E+04
       254  26  3.624401E+05  1.828538E+05  3.674178E+04  2.401790E+05 -2.512571E+04 -1.962014E+04
       254  27  3.403778E+05  1.974285E+05  2.104132E+04  2.545045E+05 -1.043098E+04 -8.752069E+03
       255   1  3.257752E+05  1.835612E+05  1.272948E+04  2.441524E+05  8.527152E+03  7.288684E+03
       255   2  3.259529E+05  1.816763E+05  6.677513E+03  2.452635E+05  5.260772E+03  4.800157E+03
       255   3  3.277175E+05  1.812026E+05  3.789992E+03  2.458572E+05  2.011355E+03  2.289170E+03
       255   4  3.345864E+05  1.878588E+05  1.459868E+04  2.477222E+05  8.504088E+03  7.271361E+03
       255   5  3.332613E+05  1.862103E+05  8.326368E+03  2.486855E+05  5.199776E+03  4.754412E+03
       255   6  3.335313E+05  1.859812E+05  5.251409E+03  2.491314E+05  1.912411E+03  2.214977E+03
       255   7  3.433975E+05  1.921563E+05  1.646783E+04  2.512920E+05  8.481023E+03  7.254038E+03
       255   8  3.405696E+05  1.907443E+05  9.975197E+03  2.521075E+05  5.138780E+03  4.708666E+03
       255   9  3.393451E+05  1.907597E+05  6.712823E+03  2.524056E+05  1.813466E+03  2.140783E+03
       255  10  3.257751E+05  1.835611E+05  1.272924E+04  2.441523E+05 -1.752812E-10 -9.033245E-12
       255  11  3.259529E+05  1.816763E+05  6.677418E+03  2.452635E+05 -3.310476E-10 -9.239776E-11
       255  12  3.277175E+05  1.812026E+05  3.789975E+03  2.458572E+05 -3.037025E-10  1.696260E-11
       255  13  3.345863E+05  1.878587E+05  1.459844E+04  2.477222E+05 -8.681091E-11 -2.506817E-11
       255  14  3.332612E+05  1.862103E+05  8.326275E+03  2.486855E+05 -1.401820E-10 -3.244253E-11
       255  15  3.335313E+05  1.859812E+05  5.251393E+03  2.491314E+05 -1.973461E-11  1.211595E-11
       255  16  3.433974E+05  1.921563E+05  1.646759E+04  2.512919E+05  2.443722E-10 -5.089015E-11
       255  17  3.405696E+05  1.907443E+05  9.975106E+03  2.521075E+05  1.977681E-10 -5.397249E-12
       255  18  3.393451E+05  1.907597E+05  6.712808E+03  2.524056E+05  1.878117E-10 -1.837001E-11
       255  19  3.257752E+05  1.835612E+05  1.272948E+04  2.441524E+05 -8.527152E+03 -7.288684E+03
       255  20  3.259529E+05  1.816763E+05  6.677513E+03  2.452635E+05 -5.260772E+03 -4.800157E+03
       255  21  3.277175E+05  1.812026E+05  3.789992E+03  2.458572E+05 -2.011355E+03 -2.289170E+03
       255  22  3.345864E+05  1.878588E+05  1.459868E+04  2.477222E+05 -8.504088E+03 -7.271361E+03
       255  23  3.332613E+05  1.862103E+05  8.326368E+03  2.486855E+05 -5.199776E+03 -4.754412E+03
       255  24  3.335313E+05  1.859812E+05  5.251409E+03  2.491314E+05 -1.912411E+03 -2.214977E+03
       255  25  3.433975E+05  1.921563E+05  1.646783E+04  2.512920E+05 -8.481023E+03 -7.254038E+03
       255  26  3.405696E+05  1.907443E+05  9.975197E+03  2.521075E+05 -5.138780E+03 -4.708666E+03
       255  27  3.393451E+05  1.907597E+05  6.712823E+03  2.524056E+05 -1.813466E+03 -2.140783E+03
       256   1  3.277973E+05  1.818361E+05  3.063988E+03  2.460816E+05  1.355103E+03  1.742896E+03
       256   2  3.282200E+05  1.824227E+05  2.501727E+03  2.464881E+05 -5.197653E+01  5.966666E+02
       256   3  3.291155E+05  1.830128E+05  3.167475E+03  2.468738E+05 -1.457582E+03 -5.515868E+02
       256   4  3.334476E+05  1.859612E+05  4.407601E+03  2.490209E+05  1.258775E+03  1.670662E+03
       256   5  3.332096E+05  1.859568E+05  3.671682E+03  2.490330E+05 -1.517002E+02  5.218868E+02
       256   6  3.334451E+05  1.859567E+05  4.166689E+03  2.490244E+05 -1.560674E+03 -6.288913E+02
       256   7  3.390980E+05  1.900863E+05  5.751246E+03  2.519603E+05  1.162443E+03  1.598427E+03
       256   8  3.381992E+05  1.894909E+05  4.841635E+03  2.515780E+05 -2.514248E+02  4.471061E+02
       256   9  3.377748E+05  1.889006E+05  5.165876E+03  2.511749E+05 -1.663764E+03 -7.061951E+02
       256  10  3.277973E+05  1.818361E+05  3.063979E+03  2.460816E+05 -9.873979E-11  5.700114E-11
       256  11  3.282200E+05  1.824227E+05  2.501727E+03  2.464881E+05  1.034403E-10  1.760882E-10
       256  12  3.291155E+05  1.830128E+05  3.167471E+03  2.468738E+05  3.315332E-10  1.295157E-10
       256  13  3.334476E+05  1.859612E+05  4.407592E+03  2.490209E+05  1.623263E-10  5.588448E-11
       256  14  3.332096E+05  1.859568E+05  3.671681E+03  2.490330E+05  1.193910E-10  4.192488E-11
       256  15  3.334451E+05  1.859567E+05  4.166684E+03  2.490244E+05  1.349873E-10 -8.855297E-11
       256  16  3.390980E+05  1.900863E+05  5.751239E+03  2.519603E+05  1.754692E-10  4.109112E-11
       256  17  3.381992E+05  1.894909E+05  4.841634E+03  2.515780E+05 -9.403110E-11 -2.536659E-11
       256  18  3.377748E+05  1.889006E+05  5.165870E+03  2.511749E+05 -2.998159E-10 -3.175672E-10
       256  19  3.277973E+05  1.818361E+05  3.063988E+03  2.460816E+05 -1.355103E+03 -1.742896E+03
       256  20  3.282200E+05  1.824227E+05  2.501727E+03  2.464881E+05  5.197653E+01 -5.966666E+02
       256  21  3.291155E+05  1.830128E+05  3.167475E+03  2.468738E+05  1.457582E+03  5.515868E+02
       256  22  3.334476E+05  1.859612E+05  4.407601E+03  2.490209E+05 -1.258775E+03 -1.670662E+03
       256  23  3.332096E+05  1.859568E+05  3.671682E+03  2.490330E+05  1.517002E+02 -5.218868E+02
       256  24  3.334451E+05  1.859567E+05  4.166689E+03  2.490244E+05  1.560674E+03  6.288913E+02
       256  25  3.390980E+05  1.900863E+05  5.751246E+03  2.519603E+05 -1.162443E+03 -1.598427E+03
       256  26  3.381992E+05  1.894909E+05  4.841635E+03  2.515780E+05  2.514248E+02 -4.471061E+02
       256  27  3.377748E+05  1.889006E+05  5.165876E+03  2.511749E+05  1.663764E+03  7.061951E+02
       257   1  3.293772E+05  1.836540E+05  3.985269E+03  2.472952E+05 -2.067666E+03 -1.064828E+03
       257   2  3.305314E+05  1.837082E+05  6.835105E+03  2.470716E+05 -5.033602E+03 -3.384726E+03
       257   3  3.331423E+05  1.850118E+05  1.257771E+04  2.463801E+05 -7.999188E+03 -5.705147E+03
       257   4  3.335175E+05  1.859736E+05  4.868683E+03  2.491198E+05 -2.170429E+03 -1.141884E+03
       257   5  3.332622E+05  1.861907E+05  7.549826E+03  2.487219E+05 -5.137213E+03 -3.462423E+03
       257   6  3.344636E+05  1.876572E+05  1.312445E+04  2.478562E+05 -8.103662E+03 -5.783509E+03
       257   7  3.376579E+05  1.882932E+05  5.752098E+03  2.509444E+05 -2.273192E+03 -1.218940E+03
       257   8  3.359929E+05  1.886732E+05  8.264556E+03  2.503723E+05 -5.240825E+03 -3.540122E+03
       257   9  3.357849E+05  1.903028E+05  1.367120E+04  2.493323E+05 -8.208138E+03 -5.861874E+03
       257  10  3.293772E+05  1.836540E+05  3.985259E+03  2.472952E+05  7.709299E-12 -1.258914E-10
       257  11  3.305314E+05  1.837082E+05  6.835036E+03  2.470716E+05 -1.024620E-10 -6.359949E-11
       257  12  3.331422E+05  1.850117E+05  1.257753E+04  2.463801E+05 -1.726097E-10 -4.137209E-11
       257  13  3.335175E+05  1.859736E+05  4.868672E+03  2.491198E+05 -4.976540E-11 -1.675216E-10
       257  14  3.332621E+05  1.861907E+05  7.549754E+03  2.487219E+05 -1.954711E-11 -4.688216E-11
       257  15  3.344635E+05  1.876572E+05  1.312426E+04  2.478562E+05 -2.644823E-10  3.107888E-11
       257  16  3.376579E+05  1.882932E+05  5.752085E+03  2.509444E+05  9.964053E-11 -1.048353E-10
       257  17  3.359929E+05  1.886731E+05  8.264481E+03  2.503723E+05 -2.271498E-10 -7.173138E-11
       257  18  3.357848E+05  1.903027E+05  1.367101E+04  2.493322E+05  4.571880E-11  1.083631E-10
       257  19  3.293772E+05  1.836540E+05  3.985269E+03  2.472952E+05  2.067666E+03  1.064828E+03
       257  20  3.305314E+05  1.837082E+05  6.835105E+03  2.470716E+05  5.033602E+03  3.384726E+03
       257  21  3.331423E+05  1.850118E+05  1.257771E+04  2.463801E+05  7.999188E+03  5.705147E+03
       257  22  3.335175E+05  1.859736E+05  4.868683E+03  2.491198E+05  2.170429E+03  1.141884E+03
       257  23  3.332622E+05  1.861907E+05  7.549826E+03  2.487219E+05  5.137213E+03  3.462423E+03
       257  24  3.344636E+05  1.876572E+05  1.312445E+04  2.478562E+05  8.103662E+03  5.783509E+03
       257  25  3.376579E+05  1.882932E+05  5.752098E+03  2.509444E+05  2.273192E+03  1.218940E+03
       257  26  3.359929E+05  1.886732E+05  8.264556E+03  2.503723E+05  5.240825E+03  3.540122E+03
       257  27  3.357849E+05  1.903028E+05  1.367120E+04  2.493323E+05  8.208138E+03  5.861874E+03
       258   1  3.304770E+05  1.897534E+05  1.665051E+04  2.492758E+05 -9.766646E+03 -7.086742E+03
       258   2  3.502970E+05  1.767712E+05  3.051876E+04  2.365234E+05 -2.243099E+04 -1.668173E+04
       258   3  3.891229E+05  1.888309E+05  6.312191E+04  2.126080E+05 -3.509289E+04 -2.627950E+04
       258   4  3.355106E+05  1.878698E+05  1.708113E+04  2.492857E+05 -9.870653E+03 -7.164653E+03
       258   5  3.359445E+05  1.930271E+05  3.078400E+04  2.416056E+05 -2.254085E+04 -1.676502E+04
       258   6  3.553846E+05  2.232263E+05  6.322699E+04  2.227629E+05 -3.520810E+04 -2.636902E+04
       258   7  3.405442E+05  1.859862E+05  1.751175E+04  2.492955E+05 -9.974659E+03 -7.242561E+03
       258   8  3.215928E+05  2.092838E+05  3.104937E+04  2.466876E+05 -2.265071E+04 -1.684831E+04
       258   9  3.216498E+05  2.576257E+05  6.333275E+04  2.329169E+05 -3.532330E+04 -2.645856E+04
       258  10  3.304769E+05  1.897534E+05  1.665023E+04  2.492758E+05  1.377049E-10  1.583795E-10
       258  11  3.502963E+05  1.767708E+05  3.051729E+04  2.365231E+05  2.326817E-10  5.563424E-11
       258  12  3.891214E+05  1.888298E+05  6.311830E+04  2.126073E+05  6.307335E-11 -7.619061E-11
       258  13  3.355105E+05  1.878697E+05  1.708085E+04  2.492856E+05  4.715068E-11  7.213493E-11
       258  14  3.359439E+05  1.930267E+05  3.078251E+04  2.416053E+05 -2.344354E-10 -2.165500E-11
       258  15  3.553831E+05  2.232252E+05  6.322336E+04  2.227622E+05  9.993390E-11 -1.590549E-11
       258  16  3.405440E+05  1.859861E+05  1.751146E+04  2.492955E+05 -2.213749E-10 -3.914907E-11
       258  17  3.215922E+05  2.092833E+05  3.104787E+04  2.466873E+05 -1.100713E-10 -3.776012E-11
       258  18  3.216483E+05  2.576246E+05  6.332909E+04  2.329162E+05 -1.635337E-11  3.657979E-11
       258  19  3.304770E+05  1.897534E+05  1.665051E+04  2.492758E+05  9.766646E+03  7.086742E+03
       258  20  3.502970E+05  1.767712E+05  3.051876E+04  2.365234E+05  2.243099E+04  1.668173E+04
       258  21  3.891229E+05  1.888309E+05  6.312191E+04  2.126080E+05  3.509289E+04  2.627950E+04
       258  22  3.355106E+05  1.878698E+05  1.708113E+04  2.492857E+05  9.870653E+03  7.164653E+03
       258  23  3.359445E+05  1.930271E+05  3.078400E+04  2.416056E+05  2.254085E+04  1.676502E+04
       258  24  3.553846E+05  2.232263E+05  6.322699E+04  2.227629E+05  3.520810E+04  2.636902E+04
       258  25  3.405442E+05  1.859862E+05  1.751175E+04  2.492955E+05  9.974659E+03  7.242561E+03
       258  26  3.215928E+05  2.092838E+05  3.104937E+04  2.466876E+05  2.265071E+04  1.684831E+04
       258  27  3.216498E+05  2.576257E+05  6.333275E+04  2.329169E+05  3.532330E+04  2.645856E+04
       259   1  3.300682E+05  3.839291E+04  3.857644E+04  2.593040E+04  1.616366E+04 -1.323884E+03
       259   2  3.102442E+05  2.373253E+04  2.401733E+04  1.984788E+04  8.367140E+03 -4.181559E+03
       259   3  2.933960E+05  1.691135E+04  1.649207E+04  1.775683E+04  5.711731E+02 -4.419988E+03
       259   4  2.232656E+05  1.199079E+04  1.333194E+04  1.843683E+04  9.158794E+03 -1.323908E+03
       259   5  2.221608E+05  2.633245E+03  6.576784E+03  1.644109E+04  5.764903E+03 -4.181621E+03
       259   6  2.232679E+05  3.513727E+02  3.799622E+03  1.843665E+04  2.371228E+03 -4.420021E+03
       259   7  1.164736E+05 -1.441190E+04 -1.191314E+04  1.094456E+04  2.155130E+03 -1.323763E+03
       259   8  1.340850E+05 -1.846647E+04 -1.086412E+04  1.303480E+04  3.163026E+03 -4.181655E+03
       259   9  1.531445E+05 -1.620888E+04 -8.893012E+03  1.911639E+04  4.171086E+03 -4.420050E+03
       259  10  3.300679E+05  3.839284E+04  3.857595E+04  2.593041E+04 -3.838855E-11 -2.645430E-11
       259  11  3.102441E+05  2.373250E+04  2.401717E+04  1.984791E+04 -1.375492E-11 -3.329720E-11
       259  12  2.933960E+05  1.691133E+04  1.649204E+04  1.775683E+04 -4.191465E-11  6.226973E-11
       259  13  2.232655E+05  1.199077E+04  1.333178E+04  1.843684E+04 -1.988044E-10  3.542770E-11
       259  14  2.221608E+05  2.633217E+03  6.576689E+03  1.644111E+04  4.945303E-11  3.671017E-11
       259  15  2.232679E+05  3.513502E+02  3.799574E+03  1.843666E+04  1.815959E-10  4.735585E-11
       259  16  1.164736E+05 -1.441191E+04 -1.191315E+04  1.094456E+04 -1.132288E-10  2.236915E-11
       259  17  1.340850E+05 -1.846649E+04 -1.086417E+04  1.303481E+04  6.921545E-11  7.770073E-11
       259  18  1.531445E+05 -1.620891E+04 -8.893082E+03  1.911640E+04  3.239176E-11  5.045962E-11
       259  19  3.300682E+05  3.839291E+04  3.857644E+04  2.593040E+04 -1.616366E+04  1.323884E+03
       259  20  3.102442E+05  2.373253E+04  2.401733E+04  1.984788E+04 -8.367140E+03  4.181559E+03
       259  21  2.933960E+05  1.691135E+04  1.649207E+04  1.775683E+04 -5.711731E+02  4.419988E+03
       259  22  2.232656E+05  1.199079E+04  1.333194E+04  1.843683E+04 -9.158794E+03  1.323908E+03
       259  23  2.221608E+05  2.633245E+03  6.576784E+03  1.644109E+04 -5.764903E+03  4.181621E+03
       259  24  2.232679E+05  3.513727E+02  3.799622E+03  1.843665E+04 -2.371228E+03  4.420021E+03
       259  25  1.164736E+05 -1.441190E+04 -1.191314E+04  1.094456E+04 -2.155130E+03  1.323763E+03
       259  26  1.340850E+05 -1.846647E+04 -1.086412E+04  1.303480E+04 -3.163026E+03  4.181655E+03
       259  27  1.531445E+05 -1.620888E+04 -8.893012E+03  1.911639E+04 -4.171086E+03  4.420050E+03
       260   1  2.808859E+05  1.422092E+04  1.345370E+04  1.872160E+04  3.528649E+02 -3.746359E+03
       260   2  2.624264E+05  9.390151E+03  9.015821E+03  1.650126E+04 -1.054136E+03 -2.742993E+03
       260   3  2.442675E+05  5.027411E+03  5.610685E+03  1.843964E+04 -2.461148E+03 -1.521587E+03
       260   4  2.228292E+05  5.304536E+02  3.041334E+03  1.847392E+04  1.855790E+03 -3.746371E+03
       260   5  2.227110E+05  6.408414E+01  2.089872E+03  1.639455E+04  8.152887E+02 -2.742974E+03
       260   6  2.228298E+05  2.247022E+00  1.916848E+03  1.847392E+04 -2.252563E+02 -1.521532E+03
       260   7  1.647758E+05 -1.316020E+04 -7.371153E+03  1.822625E+04  3.358578E+03 -3.746384E+03
       260   8  1.829972E+05 -9.262066E+03 -4.836121E+03  1.628785E+04  2.684598E+03 -2.742957E+03
       260   9  2.013925E+05 -5.022938E+03 -1.776987E+03  1.850821E+04  2.010561E+03 -1.521476E+03
       260  10  2.808859E+05  1.422091E+04  1.345367E+04  1.872160E+04  1.035398E-10  7.644922E-11
       260  11  2.624264E+05  9.390143E+03  9.015805E+03  1.650125E+04  2.394852E-10  1.282754E-11
       260  12  2.442675E+05  5.027406E+03  5.610670E+03  1.843964E+04 -5.112429E-12  1.244552E-11
       260  13  2.228292E+05  5.304376E+02  3.041301E+03  1.847392E+04  2.304600E-10  3.524491E-11
       260  14  2.227110E+05  6.407589E+01  2.089856E+03  1.639455E+04  3.209341E-10 -3.607972E-11
       260  15  2.228298E+05  2.244522E+00  1.916843E+03  1.847392E+04  6.289582E-12 -4.222289E-11
       260  16  1.647758E+05 -1.316022E+04 -7.371201E+03  1.822626E+04 -2.538932E-10  1.676436E-11
       260  17  1.829972E+05 -9.262076E+03 -4.836149E+03  1.628785E+04  1.634945E-10 -5.868861E-11
       260  18  2.013925E+05 -5.022942E+03 -1.776999E+03  1.850821E+04 -2.270825E-11 -6.958330E-11
       260  19  2.808859E+05  1.422092E+04  1.345370E+04  1.872160E+04 -3.528649E+02  3.746359E+03
       260  20  2.624264E+05  9.390151E+03  9.015821E+03  1.650126E+04  1.054136E+03  2.742993E+03
       260  21  2.442675E+05  5.027411E+03  5.610685E+03  1.843964E+04  2.461148E+03  1.521587E+03
       260  22  2.228292E+05  5.304536E+02  3.041334E+03  1.847392E+04 -1.855790E+03  3.746371E+03
       260  23  2.227110E+05  6.408414E+01  2.089872E+03  1.639455E+04 -8.152887E+02  2.742974E+03
       260  24  2.228298E+05  2.247022E+00  1.916848E+03  1.847392E+04  2.252563E+02  1.521532E+03
       260  25  1.647758E+05 -1.316020E+04 -7.371153E+03  1.822625E+04 -3.358578E+03  3.746384E+03
       260  26  1.829972E+05 -9.262066E+03 -4.836121E+03  1.628785E+04 -2.684598E+03  2.742957E+03
       260  27  2.013925E+05 -5.022938E+03 -1.776987E+03  1.850821E+04 -2.010561E+03  1.521476E+03
       261   1  2.323352E+05  2.202684E+03  3.622892E+03  1.859339E+04 -2.800767E+03 -7.330295E+02
       261   2  2.138773E+05 -1.961009E+03  1.215264E+03  1.626288E+04 -3.971254E+03  5.188832E+02
       261   3  1.957218E+05 -5.526167E+03 -2.808563E+02  1.809473E+04 -5.141706E+03  1.622411E+03
       261   4  2.228540E+05 -6.674422E+00  2.054861E+03  1.847472E+04 -5.722647E+02 -7.329663E+02
       261   5  2.226811E+05  1.258917E+02  2.848025E+03  1.639354E+04 -1.992153E+03  5.189318E+02
       261   6  2.228536E+05  9.002798E+02  4.725810E+03  1.847470E+04 -3.412038E+03  1.622445E+03
       261   7  2.133729E+05 -2.216035E+03  4.868472E+02  1.835606E+04  1.656205E+03 -7.329039E+02
       261   8  2.314851E+05  2.212790E+03  4.480798E+03  1.652421E+04 -1.302365E+01  5.189813E+02
       261   9  2.499862E+05  7.326687E+03  9.732457E+03  1.885470E+04 -1.682296E+03  1.622482E+03
       261  10  2.323352E+05  2.202681E+03  3.622876E+03  1.859339E+04  2.258850E-10 -3.576529E-12
       261  11  2.138772E+05 -1.961014E+03  1.215234E+03  1.626288E+04  6.123225E-11 -6.874628E-11
       261  12  1.957218E+05 -5.526177E+03 -2.809109E+02  1.809473E+04 -1.652173E-10 -5.681009E-11
       261  13  2.228540E+05 -6.675087E+00  2.054860E+03  1.847472E+04 -1.361267E-10 -5.353807E-11
       261  14  2.226811E+05  1.258903E+02  2.848018E+03  1.639354E+04  1.069223E-10 -7.460435E-11
       261  15  2.228536E+05  9.002738E+02  4.725783E+03  1.847471E+04 -1.331075E-10 -8.413947E-11
       261  16  2.133729E+05 -2.216036E+03  4.868411E+02  1.835606E+04 -1.070141E-10 -8.557617E-11
       261  17  2.314851E+05  2.212790E+03  4.480798E+03  1.652421E+04 -1.593058E-10 -1.309147E-10
       261  18  2.499862E+05  7.326683E+03  9.732446E+03  1.885470E+04  5.034662E-11 -1.009958E-10
       261  19  2.323352E+05  2.202684E+03  3.622892E+03  1.859339E+04  2.800767E+03  7.330295E+02
       261  20  2.138773E+05 -1.961009E+03  1.215264E+03  1.626288E+04  3.971254E+03 -5.188832E+02
       261  21  1.957218E+05 -5.526167E+03 -2.808563E+02  1.809473E+04  5.141706E+03 -1.622411E+03
       261  22  2.228540E+05 -6.674422E+00  2.054861E+03  1.847472E+04  5.722647E+02  7.329663E+02
       261  23  2.226811E+05  1.258917E+02  2.848025E+03  1.639354E+04  1.992153E+03 -5.189318E+02
       261  24  2.228536E+05  9.002798E+02  4.725810E+03  1.847470E+04  3.412038E+03 -1.622445E+03
       261  25  2.133729E+05 -2.216035E+03  4.868472E+02  1.835606E+04 -1.656205E+03  7.329039E+02
       261  26  2.314851E+05  2.212790E+03  4.480798E+03  1.652421E+04  1.302365E+01 -5.189813E+02
       261  27  2.499862E+05  7.326687E+03  9.732457E+03  1.885470E+04  1.682296E+03 -1.622482E+03
       262   1  1.844324E+05 -8.680178E+03 -1.146897E+03  1.960883E+04 -6.161520E+03  2.332701E+03
       262   2  1.645400E+05 -9.333400E+03 -6.479825E+02  1.074950E+04 -8.583891E+03  2.540322E+03
       262   3  1.477829E+05  1.287553E+03  4.246527E+03  5.932421E+03 -1.100619E+04  8.491093E+02
       262   4  2.235964E+05  5.982335E+02  6.090259E+03  1.844792E+04 -4.217578E+03  2.332742E+03
       262   5  2.217511E+05  4.410581E+03  1.087314E+04  1.642691E+04 -9.831131E+03  2.540212E+03
       262   6  2.235936E+05  2.005014E+04  2.226673E+04  1.844787E+04 -1.544466E+04  8.488763E+02
       262   7  2.627620E+05  9.876564E+03  1.332737E+04  1.728693E+04 -2.273518E+03  2.332776E+03
       262   8  2.789653E+05  1.815448E+04  2.239411E+04  2.210485E+04 -1.107848E+04  2.540080E+03
       262   9  2.994100E+05  3.881292E+04  4.028669E+04  3.096486E+04 -1.988367E+04  8.484643E+02
       262  10  1.844323E+05 -8.680194E+03 -1.146979E+03  1.960885E+04  1.996680E-11 -2.885492E-11
       262  11  1.645400E+05 -9.333427E+03 -6.481331E+02  1.074952E+04  4.661549E-11 -1.965869E-11
       262  12  1.477828E+05  1.287519E+03  4.246298E+03  5.932428E+03 -1.098365E-10 -2.127844E-11
       262  13  2.235964E+05  5.982229E+02  6.090215E+03  1.844793E+04 -2.229642E-10 -8.105313E-11
       262  14  2.217510E+05  4.410548E+03  1.087294E+04  1.642693E+04 -4.065183E-10 -4.422746E-11
       262  15  2.235934E+05  2.005008E+04  2.226628E+04  1.844788E+04 -5.119867E-11 -1.448266E-11
       262  16  2.627620E+05  9.876557E+03  1.332735E+04  1.728694E+04 -1.196440E-10 -9.017497E-11
       262  17  2.789652E+05  1.815444E+04  2.239387E+04  2.210488E+04 -7.066993E-11 -6.527882E-11
       262  18  2.994096E+05  3.881281E+04  4.028594E+04  3.096487E+04  9.081494E-11 -2.324354E-11
       262  19  1.844324E+05 -8.680178E+03 -1.146897E+03  1.960883E+04  6.161520E+03 -2.332701E+03
       262  20  1.645400E+05 -9.333400E+03 -6.479825E+02  1.074950E+04  8.583891E+03 -2.540322E+03
       262  21  1.477829E+05  1.287553E+03  4.246527E+03  5.932421E+03  1.100619E+04 -8.491093E+02
       262  22  2.235964E+05  5.982335E+02  6.090259E+03  1.844792E+04  4.217578E+03 -2.332742E+03
       262  23  2.217511E+05  4.410581E+03  1.087314E+04  1.642691E+04  9.831131E+03 -2.540212E+03
       262  24  2.235936E+05  2.005014E+04  2.226673E+04  1.844787E+04  1.544466E+04 -8.488763E+02
       262  25  2.627620E+05  9.876564E+03  1.332737E+04  1.728693E+04  2.273518E+03 -2.332776E+03
       262  26  2.789653E+05  1.815448E+04  2.239411E+04  2.210485E+04  1.107848E+04 -2.540080E+03
       262  27  2.994100E+05  3.881292E+04  4.028669E+04  3.096486E+04  1.988367E+04 -8.484643E+02
       263   1 -1.148074E+05 -3.498690E+05 -1.160414E+05  1.042147E+05 -3.474527E+03 -4.525595E+04
       263   2 -6.423636E+04 -2.646080E+05 -6.808224E+04  8.280970E+04 -1.027095E+04 -2.124416E+04
       263   3 -3.766489E+04 -1.884680E+05 -4.176154E+04  7.923419E+04 -9.165480E+03  2.770843E+03
       263   4 -3.664746E+04 -3.422959E+04 -4.090327E+04  8.127065E+04 -3.468938E+03 -2.720433E+04
       263   5 -8.028722E+03 -3.081303E+04 -2.085136E+04  7.235140E+04 -1.026911E+04 -1.645787E+04
       263   6 -1.100756E+03 -3.421680E+04 -1.321876E+04  8.126315E+04 -9.167782E+03 -5.711758E+03
       263   7  4.150750E+04  2.815031E+05  3.422937E+04  5.831488E+04 -3.464687E+03 -9.143568E+03
       263   8  4.817595E+04  2.030343E+05  2.637685E+04  6.188908E+04 -1.026743E+04 -1.166981E+04
       263   9  3.546207E+04  1.200577E+05  1.532328E+04  8.329263E+04 -9.170139E+03 -1.419641E+04
       263  10 -1.148080E+05 -3.498712E+05 -1.160453E+05  1.042146E+05 -2.100036E-11 -2.445008E-10
       263  11 -6.423659E+04 -2.646085E+05 -6.808328E+04  8.280952E+04 -1.638458E-10  2.981383E-10
       263  12 -3.766498E+04 -1.884681E+05 -4.176171E+04  7.923421E+04  5.784454E-11  4.550330E-10
       263  13 -3.664767E+04 -3.423038E+04 -4.090468E+04  8.127057E+04 -9.502670E-11  9.925009E-11
       263  14 -8.028908E+03 -3.081335E+04 -2.085206E+04  7.235126E+04 -8.190003E-11 -1.795055E-11
       263  15 -1.100855E+03 -3.421686E+04 -1.321898E+04  8.126311E+04 -3.011657E-10 -8.559417E-11
       263  16  4.150746E+04  2.815030E+05  3.422919E+04  5.831486E+04 -1.285536E-10  1.792403E-10
       263  17  4.817580E+04  2.030341E+05  2.637639E+04  6.188899E+04 -2.335651E-10 -1.977758E-10
       263  18  3.546192E+04  1.200574E+05  1.532275E+04  8.329253E+04  1.567768E-10 -3.511351E-10
       263  19 -1.148074E+05 -3.498690E+05 -1.160414E+05  1.042147E+05  3.474527E+03  4.525595E+04
       263  20 -6.423636E+04 -2.646080E+05 -6.808224E+04  8.280970E+04  1.027095E+04  2.124416E+04
       263  21 -3.766489E+04 -1.884680E+05 -4.176154E+04  7.923419E+04  9.165480E+03 -2.770843E+03
       263  22 -3.664746E+04 -3.422959E+04 -4.090327E+04  8.127065E+04  3.468938E+03  2.720433E+04
       263  23 -8.028722E+03 -3.081303E+04 -2.085136E+04  7.235140E+04  1.026911E+04  1.645787E+04
       263  24 -1.100756E+03 -3.421680E+04 -1.321876E+04  8.126315E+04  9.167782E+03  5.711758E+03
       263  25  4.150750E+04  2.815031E+05  3.422937E+04  5.831488E+04  3.464687E+03  9.143568E+03
       263  26  4.817595E+04  2.030343E+05  2.637685E+04  6.188908E+04  1.026743E+04  1.166981E+04
       263  27  3.546207E+04  1.200577E+05  1.532328E+04  8.329263E+04  9.170139E+03  1.419641E+04
       264   1 -2.558920E+04 -1.342404E+05 -3.019465E+04  8.238541E+04 -6.040194E+03  3.832689E+03
       264   2 -5.376401E+03 -5.291136E+04 -1.394257E+04  7.215514E+04 -1.444196E+03  9.155047E+03
       264   3  1.218363E+04  2.706119E+04 -1.821345E+03  8.022993E+04  3.237152E+03  1.447797E+04
       264   4 -1.597864E+03 -3.299600E+04 -1.148873E+04  8.136921E+04 -6.042479E+03 -3.813487E+03
       264   5 -5.464088E+02 -3.232645E+04 -1.037883E+04  7.221670E+04 -1.446570E+03  1.365413E+03
       264   6 -2.122451E+03 -3.299491E+04 -1.330001E+04  8.136936E+04  3.234693E+03  6.544221E+03
       264   7  2.239292E+04  6.825851E+04  7.216978E+03  8.035285E+04 -6.044739E+03 -1.146088E+04
       264   8  4.283593E+03 -1.174100E+04 -6.814876E+03  7.227827E+04 -1.448946E+03 -6.424471E+03
       264   9 -1.642871E+04 -9.304740E+04 -2.477859E+04  8.250867E+04  3.232204E+03 -1.388774E+03
       264  10 -2.558924E+04 -1.342405E+05 -3.019474E+04  8.238543E+04 -6.802534E-11 -3.918378E-10
       264  11 -5.376426E+03 -5.291145E+04 -1.394273E+04  7.215515E+04 -1.618488E-10  2.226525E-10
       264  12  1.218357E+04  2.706096E+04 -1.821758E+03  8.022990E+04 -1.491809E-10  2.329270E-10
       264  13 -1.597907E+03 -3.299602E+04 -1.148883E+04  8.136919E+04 -2.058383E-10  2.031881E-10
       264  14 -5.464116E+02 -3.232645E+04 -1.037884E+04  7.221670E+04 -1.588623E-10 -2.840867E-12
       264  15 -2.122474E+03 -3.299496E+04 -1.330011E+04  8.136934E+04  1.197613E-10 -8.891527E-11
       264  16  2.239285E+04  6.825836E+04  7.216663E+03  8.035279E+04  6.742971E-11  2.481662E-10
       264  17  4.283580E+03 -1.174104E+04 -6.814958E+03  7.227826E+04  1.404331E-10  4.617735E-11
       264  18 -1.642872E+04 -9.304740E+04 -2.477862E+04  8.250867E+04  3.331691E-11 -1.120638E-10
       264  19 -2.558920E+04 -1.342404E+05 -3.019465E+04  8.238541E+04  6.040194E+03 -3.832689E+03
       264  20 -5.376401E+03 -5.291136E+04 -1.394257E+04  7.215514E+04  1.444196E+03 -9.155047E+03
       264  21  1.218363E+04  2.706119E+04 -1.821345E+03  8.022993E+04 -3.237152E+03 -1.447797E+04
       264  22 -1.597864E+03 -3.299600E+04 -1.148873E+04  8.136921E+04  6.042479E+03  3.813487E+03
       264  23 -5.464088E+02 -3.232645E+04 -1.037883E+04  7.221670E+04  1.446570E+03 -1.365413E+03
       264  24 -2.122451E+03 -3.299491E+04 -1.330001E+04  8.136936E+04 -3.234693E+03 -6.544221E+03
       264  25  2.239292E+04  6.825851E+04  7.216978E+03  8.035285E+04  6.044739E+03  1.146088E+04
       264  26  4.283593E+03 -1.174100E+04 -6.814876E+03  7.227827E+04  1.448946E+03  6.424471E+03
       264  27 -1.642871E+04 -9.304740E+04 -2.477859E+04  8.250867E+04 -3.232204E+03  1.388774E+03
       265   1  2.542183E+04  7.834941E+04  5.198654E+03  8.401367E+04  6.407751E+03  1.742022E+04
       265   2  3.583919E+04  1.625080E+05  1.254860E+04  5.864690E+04  8.088735E+03  1.958901E+04
       265   3  1.981596E+04  2.397811E+05  1.187636E+04  5.117748E+04  2.835105E+03  2.175885E+04
       265   4 -1.436326E+03 -3.468084E+04 -1.605641E+04  8.127809E+04  6.405115E+03  8.768079E+03
       265   5 -1.056454E+04 -3.022757E+04 -2.678886E+04  7.233369E+04  8.090159E+03  2.258580E+04
       265   6 -4.816105E+04 -3.469166E+04 -5.363515E+04  8.128864E+04  2.839717E+03  3.640395E+04
       265   7 -2.829516E+04 -1.476986E+05 -3.731176E+04  7.854302E+04  6.402555E+03  1.174698E+02
       265   8 -5.696988E+04 -2.229274E+05 -6.612814E+04  8.601616E+04  8.091716E+03  2.558168E+04
       265   9 -1.161400E+05 -3.090929E+05 -1.191507E+05  1.113864E+05  2.845752E+03  5.104262E+04
       265  10  2.542171E+04  7.834907E+04  5.198006E+03  8.401358E+04 -6.955175E-11 -3.897480E-10
       265  11  3.583901E+04  1.625076E+05  1.254775E+04  5.864677E+04 -8.937173E-11  1.368538E-10
       265  12  1.981582E+04  2.397805E+05  1.187545E+04  5.117743E+04 -1.015181E-10  2.957130E-10
       265  13 -1.436390E+03 -3.468093E+04 -1.605664E+04  8.127804E+04  5.405767E-11  1.994003E-10
       265  14 -1.056475E+04 -3.022814E+04 -2.678994E+04  7.233355E+04 -1.642104E-10 -3.145291E-12
       265  15 -4.816142E+04 -3.469309E+04 -5.363765E+04  8.128856E+04 -6.539503E-11 -4.566820E-11
       265  16 -2.829520E+04 -1.476986E+05 -3.731183E+04  7.854302E+04  8.035087E-11  2.567735E-10
       265  17 -5.697013E+04 -2.229282E+05 -6.612949E+04  8.601600E+04 -4.258939E-10  6.853614E-11
       265  18 -1.161407E+05 -3.090957E+05 -1.191556E+05  1.113863E+05 -5.560226E-11 -2.418546E-10
       265  19  2.542183E+04  7.834941E+04  5.198654E+03  8.401367E+04 -6.407751E+03 -1.742022E+04
       265  20  3.583919E+04  1.625080E+05  1.254860E+04  5.864690E+04 -8.088735E+03 -1.958901E+04
       265  21  1.981596E+04  2.397811E+05  1.187636E+04  5.117748E+04 -2.835105E+03 -2.175885E+04
       265  22 -1.436326E+03 -3.468084E+04 -1.605641E+04  8.127809E+04 -6.405115E+03 -8.768079E+03
       265  23 -1.056454E+04 -3.022757E+04 -2.678886E+04  7.233369E+04 -8.090159E+03 -2.258580E+04
       265  24 -4.816105E+04 -3.469166E+04 -5.363515E+04  8.128864E+04 -2.839717E+03 -3.640395E+04
       265  25 -2.829516E+04 -1.476986E+05 -3.731176E+04  7.854302E+04 -6.402555E+03 -1.174698E+02
       265  26 -5.696988E+04 -2.229274E+05 -6.612814E+04  8.601616E+04 -8.091716E+03 -2.558168E+04
       265  27 -1.161400E+05 -3.090929E+05 -1.191507E+05  1.113864E+05 -2.845752E+03 -5.104262E+04
       266   1  1.870727E+05  1.595827E+05  3.371672E+04  1.436368E+05  1.534067E+04  1.105418E+04
       266   2  1.784736E+05  1.321728E+05  1.715441E+04  1.437078E+05  9.426312E+03  5.864845E+03
       266   3  1.746576E+05  1.176729E+05  9.032263E+03  1.402858E+05  2.920135E+03  1.464775E+03
       266   4  1.724896E+05  1.265245E+05  2.456990E+04  1.259851E+05  1.386687E+04  9.948386E+03
       266   5  1.663791E+05  1.133439E+05  1.198325E+04  1.328843E+05  9.278702E+03  5.754002E+03
       266   6  1.647643E+05  1.127856E+05  6.686087E+03  1.362904E+05  4.098791E+03  2.348719E+03
       266   7  1.579068E+05  9.346751E+04  1.542293E+04  1.083340E+05  1.239307E+04  8.842709E+03
       266   8  1.542848E+05  9.451548E+04  6.812078E+03  1.220612E+05  9.131096E+03  5.643167E+03
       266   9  1.548712E+05  1.078985E+05  4.339966E+03  1.322952E+05  5.277401E+03  3.232635E+03
       266  10  1.870724E+05  1.595825E+05  3.371604E+04  1.436367E+05  5.263195E-11  1.036198E-11
       266  11  1.784735E+05  1.321727E+05  1.715418E+04  1.437078E+05 -5.048893E-12 -8.798415E-11
       266  12  1.746576E+05  1.176729E+05  9.032243E+03  1.402858E+05 -3.121687E-10 -7.090332E-11
       266  13  1.724894E+05  1.265243E+05  2.456936E+04  1.259850E+05  5.567037E-11 -1.934788E-11
       266  14  1.663790E+05  1.133438E+05  1.198303E+04  1.328843E+05 -4.813275E-12 -2.349857E-11
       266  15  1.647642E+05  1.127856E+05  6.686046E+03  1.362904E+05 -8.402557E-11  4.588556E-11
       266  16  1.579066E+05  9.346739E+04  1.542250E+04  1.083339E+05 -1.319386E-10 -4.433674E-11
       266  17  1.542847E+05  9.451542E+04  6.811862E+03  1.220612E+05 -2.098729E-10  1.857042E-11
       266  18  1.548712E+05  1.078985E+05  4.339894E+03  1.322952E+05  5.931095E-11  2.014327E-10
       266  19  1.870727E+05  1.595827E+05  3.371672E+04  1.436368E+05 -1.534067E+04 -1.105418E+04
       266  20  1.784736E+05  1.321728E+05  1.715441E+04  1.437078E+05 -9.426312E+03 -5.864845E+03
       266  21  1.746576E+05  1.176729E+05  9.032263E+03  1.402858E+05 -2.920135E+03 -1.464775E+03
       266  22  1.724896E+05  1.265245E+05  2.456990E+04  1.259851E+05 -1.386687E+04 -9.948386E+03
       266  23  1.663791E+05  1.133439E+05  1.198325E+04  1.328843E+05 -9.278702E+03 -5.754002E+03
       266  24  1.647643E+05  1.127856E+05  6.686087E+03  1.362904E+05 -4.098791E+03 -2.348719E+03
       266  25  1.579068E+05  9.346751E+04  1.542293E+04  1.083340E+05 -1.239307E+04 -8.842709E+03
       266  26  1.542848E+05  9.451548E+04  6.812078E+03  1.220612E+05 -9.131096E+03 -5.643167E+03
       266  27  1.548712E+05  1.078985E+05  4.339966E+03  1.322952E+05 -5.277401E+03 -3.232635E+03
       267   1  1.663700E+05  1.148351E+05  5.942043E+03  1.370577E+05  1.987103E+03  1.426206E+03
       267   2  1.581149E+05  1.058207E+05  1.482034E+03  1.320707E+05  1.412382E+02  1.107817E+03
       267   3  1.475042E+05  1.002728E+05 -1.713790E+03  1.277668E+05 -1.756002E+03  8.579881E+02
       267   4  1.643450E+05  1.127171E+05  5.167449E+03  1.357399E+05  3.076018E+03  2.242837E+03
       267   5  1.653504E+05  1.106676E+05  3.056308E+03  1.356449E+05  1.345351E+03  2.010839E+03
       267   6  1.639752E+05  1.120596E+05  2.109431E+03  1.362329E+05 -4.367307E+02  1.847374E+03
       267   7  1.623200E+05  1.105991E+05  4.392860E+03  1.344220E+05  4.164930E+03  3.059463E+03
       267   8  1.725860E+05  1.155146E+05  4.630612E+03  1.392191E+05  2.549493E+03  2.913881E+03
       267   9  1.804469E+05  1.238469E+05  5.932753E+03  1.446995E+05  8.826112E+02  2.836813E+03
       267  10  1.663700E+05  1.148351E+05  5.942032E+03  1.370577E+05 -3.689729E-10  8.867934E-11
       267  11  1.581149E+05  1.058207E+05  1.482032E+03  1.320707E+05 -4.890767E-12  6.946389E-11
       267  12  1.475042E+05  1.002728E+05 -1.713797E+03  1.277668E+05  7.131481E-11  2.853609E-11
       267  13  1.643450E+05  1.127171E+05  5.167422E+03  1.357398E+05  1.720786E-10  8.751330E-11
       267  14  1.653504E+05  1.106676E+05  3.056297E+03  1.356448E+05  1.332489E-10  5.221175E-11
       267  15  1.639752E+05  1.120596E+05  2.109425E+03  1.362329E+05  6.366522E-11 -2.401152E-12
       267  16  1.623199E+05  1.105991E+05  4.392810E+03  1.344220E+05  5.649419E-11  9.374808E-11
       267  17  1.725860E+05  1.155146E+05  4.630584E+03  1.392191E+05 -3.445398E-10  4.449471E-11
       267  18  1.804469E+05  1.238469E+05  5.932736E+03  1.446994E+05 -2.005082E-11  3.522151E-11
       267  19  1.663700E+05  1.148351E+05  5.942043E+03  1.370577E+05 -1.987103E+03 -1.426206E+03
       267  20  1.581149E+05  1.058207E+05  1.482034E+03  1.320707E+05 -1.412382E+02 -1.107817E+03
       267  21  1.475042E+05  1.002728E+05 -1.713790E+03  1.277668E+05  1.756002E+03 -8.579881E+02
       267  22  1.643450E+05  1.127171E+05  5.167449E+03  1.357399E+05 -3.076018E+03 -2.242837E+03
       267  23  1.653504E+05  1.106676E+05  3.056308E+03  1.356449E+05 -1.345351E+03 -2.010839E+03
       267  24  1.639752E+05  1.120596E+05  2.109431E+03  1.362329E+05  4.367307E+02 -1.847374E+03
       267  25  1.623200E+05  1.105991E+05  4.392860E+03  1.344220E+05 -4.164930E+03 -3.059463E+03
       267  26  1.725860E+05  1.155146E+05  4.630612E+03  1.392191E+05 -2.549493E+03 -2.913881E+03
       267  27  1.804469E+05  1.238469E+05  5.932753E+03  1.446995E+05 -8.826112E+02 -2.836813E+03
       268   1  1.411573E+05  9.601794E+04 -3.427188E+03  1.246278E+05 -2.378622E+03  1.108758E+03
       268   2  1.329904E+05  8.788304E+04 -5.623576E+03  1.193792E+05 -3.702158E+03  1.327306E+03
       268   3  1.220805E+05  8.273416E+04 -7.191683E+03  1.149920E+05 -5.015868E+03  1.532880E+03
       268   4  1.639497E+05  1.120553E+05  1.907030E+03  1.362007E+05 -1.065020E+03  2.093880E+03
       268   5  1.653222E+05  1.105661E+05  1.929626E+03  1.357654E+05 -2.410481E+03  2.295945E+03
       268   6  1.639563E+05  1.120675E+05  2.599435E+03  1.361912E+05 -3.746141E+03  2.485024E+03
       268   7  1.867422E+05  1.280926E+05  7.241080E+03  1.477740E+05  2.486230E+02  3.079033E+03
       268   8  1.976550E+05  1.332496E+05  9.482668E+03  1.521524E+05 -1.118727E+03  3.264642E+03
       268   9  2.058341E+05  1.414018E+05  1.239045E+04  1.573920E+05 -2.476301E+03  3.437252E+03
       268  10  1.411573E+05  9.601794E+04 -3.427200E+03  1.246278E+05 -1.199037E-10 -5.432674E-11
       268  11  1.329904E+05  8.788303E+04 -5.623606E+03  1.193792E+05  6.977642E-12  4.111814E-11
       268  12  1.220805E+05  8.273415E+04 -7.191735E+03  1.149920E+05  3.062597E-11  2.412697E-12
       268  13  1.639497E+05  1.120553E+05  1.907019E+03  1.362007E+05  1.172930E-10  2.698102E-13
       268  14  1.653222E+05  1.105661E+05  1.929606E+03  1.357654E+05  1.638393E-10  5.158300E-11
       268  15  1.639563E+05  1.120675E+05  2.599397E+03  1.361912E+05 -1.224324E-10  4.294400E-11
       268  16  1.867422E+05  1.280926E+05  7.241062E+03  1.477740E+05  1.408334E-10  8.509092E-11
       268  17  1.976549E+05  1.332496E+05  9.482646E+03  1.521524E+05  9.751789E-11  6.277773E-11
       268  18  2.058341E+05  1.414018E+05  1.239041E+04  1.573921E+05 -5.788311E-11  1.453490E-10
       268  19  1.411573E+05  9.601794E+04 -3.427188E+03  1.246278E+05  2.378622E+03 -1.108758E+03
       268  20  1.329904E+05  8.788304E+04 -5.623576E+03  1.193792E+05  3.702158E+03 -1.327306E+03
       268  21  1.220805E+05  8.273416E+04 -7.191683E+03  1.149920E+05  5.015868E+03 -1.532880E+03
       268  22  1.639497E+05  1.120553E+05  1.907030E+03  1.362007E+05  1.065020E+03 -2.093880E+03
       268  23  1.653222E+05  1.105661E+05  1.929626E+03  1.357654E+05  2.410481E+03 -2.295945E+03
       268  24  1.639563E+05  1.120675E+05  2.599435E+03  1.361912E+05  3.746141E+03 -2.485024E+03
       268  25  1.867422E+05  1.280926E+05  7.241080E+03  1.477740E+05 -2.486230E+02 -3.079033E+03
       268  26  1.976550E+05  1.332496E+05  9.482668E+03  1.521524E+05  1.118727E+03 -3.264642E+03
       268  27  2.058341E+05  1.414018E+05  1.239045E+04  1.573920E+05  2.476301E+03 -3.437252E+03
       269   1  1.157294E+05  7.856553E+04 -8.105277E+03  1.119791E+05 -5.787380E+03  1.661516E+03
       269   2  1.080613E+05  7.002615E+04 -8.394248E+03  1.063103E+05 -8.028507E+03  1.014307E+03
       269   3  9.834482E+04  6.532381E+04 -6.962469E+03  1.011785E+05 -1.010658E+04  1.497244E+02
       269   4  1.640168E+05  1.120773E+05  3.209386E+03  1.362656E+05 -4.493319E+03  2.631886E+03
       269   5  1.653426E+05  1.107261E+05  5.288168E+03  1.355417E+05 -7.100006E+03  1.710495E+03
       269   6  1.646993E+05  1.132913E+05  9.404826E+03  1.353549E+05 -9.543649E+03  5.717318E+02
       269   7  2.123079E+05  1.455911E+05  1.452421E+04  1.605547E+05 -3.199101E+03  3.602373E+03
       269   8  2.226278E+05  1.514281E+05  1.897037E+04  1.647763E+05 -6.171390E+03  2.406770E+03
       269   9  2.310576E+05  1.612607E+05  2.577140E+04  1.695350E+05 -8.980647E+03  9.937944E+02
       269  10  1.157294E+05  7.856552E+04 -8.105346E+03  1.119791E+05 -2.880000E-11 -2.392282E-11
       269  11  1.080612E+05  7.002614E+04 -8.394371E+03  1.063103E+05  1.747144E-10  1.108680E-10
       269  12  9.834471E+04  6.532378E+04 -6.962661E+03  1.011786E+05  4.333605E-10  1.371628E-10
       269  13  1.640168E+05  1.120773E+05  3.209335E+03  1.362656E+05  9.453869E-11  1.105987E-10
       269  14  1.653426E+05  1.107261E+05  5.288067E+03  1.355417E+05  1.434784E-10  1.368949E-10
       269  15  1.646992E+05  1.132912E+05  9.404655E+03  1.353549E+05  3.922966E-10 -7.302654E-11
       269  16  2.123078E+05  1.455911E+05  1.452416E+04  1.605547E+05 -1.195850E-11  2.824584E-10
       269  17  2.226278E+05  1.514281E+05  1.897029E+04  1.647763E+05 -3.003701E-10  1.585774E-10
       269  18  2.310575E+05  1.612607E+05  2.577124E+04  1.695350E+05 -4.324313E-10 -1.137263E-10
       269  19  1.157294E+05  7.856553E+04 -8.105277E+03  1.119791E+05  5.787380E+03 -1.661516E+03
       269  20  1.080613E+05  7.002615E+04 -8.394248E+03  1.063103E+05  8.028507E+03 -1.014307E+03
       269  21  9.834482E+04  6.532381E+04 -6.962469E+03  1.011785E+05  1.010658E+04 -1.497244E+02
       269  22  1.640168E+05  1.120773E+05  3.209386E+03  1.362656E+05  4.493319E+03 -2.631886E+03
       269  23  1.653426E+05  1.107261E+05  5.288168E+03  1.355417E+05  7.100006E+03 -1.710495E+03
       269  24  1.646993E+05  1.132913E+05  9.404826E+03  1.353549E+05  9.543649E+03 -5.717318E+02
       269  25  2.123079E+05  1.455911E+05  1.452421E+04  1.605547E+05  3.199101E+03 -3.602373E+03
       269  26  2.226278E+05  1.514281E+05  1.897037E+04  1.647763E+05  6.171390E+03 -2.406770E+03
       269  27  2.310576E+05  1.612607E+05  2.577140E+04  1.695350E+05  8.980647E+03 -9.937944E+02
       270   1  8.977999E+04  6.399793E+04 -5.786649E+03  9.990674E+04 -1.192580E+04 -6.861735E+02
       270   2  9.565879E+04  4.607095E+04  6.519584E+00  8.550630E+04 -1.645864E+04 -5.215673E+03
       270   3  1.115827E+05  4.822171E+04  1.578860E+04  6.384553E+04 -1.915336E+04 -1.219650E+04
       270   4  1.654995E+05  1.134030E+05  1.229707E+04  1.363796E+05 -1.108356E+04 -5.469654E+01
       270   5  1.672285E+05  1.157224E+05  2.225978E+04  1.304062E+05 -1.973684E+04 -7.674191E+03
       270   6  1.798942E+05  1.390107E+05  4.578580E+04  1.171729E+05 -2.655224E+04 -1.774529E+04
       270   7  2.412258E+05  1.628109E+05  3.038042E+04  1.728575E+05 -1.024118E+04  5.768744E+02
       270   8  2.388048E+05  1.853810E+05  4.451282E+04  1.753135E+05 -2.301556E+04 -1.013330E+04
       270   9  2.482130E+05  2.298133E+05  7.578313E+04  1.705101E+05 -3.395230E+04 -2.329592E+04
       270  10  8.977984E+04  6.399789E+04 -5.786917E+03  9.990674E+04  2.534376E-10 -9.090510E-11
       270  11  9.565849E+04  4.607085E+04  5.959540E+00  8.550623E+04  4.314353E-11 -1.229593E-10
       270  12  1.115823E+05  4.822145E+04  1.578763E+04  6.384535E+04 -8.364697E-11 -2.116665E-10
       270  13  1.654994E+05  1.134030E+05  1.229684E+04  1.363796E+05  1.933897E-10 -1.251597E-10
       270  14  1.672280E+05  1.157222E+05  2.225893E+04  1.304061E+05 -1.734110E-10  8.301022E-11
       270  15  1.798934E+05  1.390102E+05  4.578388E+04  1.171725E+05  2.471912E-11 -3.787670E-11
       270  16  2.412256E+05  1.628109E+05  3.038022E+04  1.728575E+05 -3.221222E-10  8.160823E-12
       270  17  2.388042E+05  1.853807E+05  4.451163E+04  1.753133E+05 -2.891754E-11  5.941051E-12
       270  18  2.482116E+05  2.298124E+05  7.577994E+04  1.705094E+05  1.565047E-10  2.059277E-11
       270  19  8.977999E+04  6.399793E+04 -5.786649E+03  9.990674E+04  1.192580E+04  6.861735E+02
       270  20  9.565879E+04  4.607095E+04  6.519584E+00  8.550630E+04  1.645864E+04  5.215673E+03
       270  21  1.115827E+05  4.822171E+04  1.578860E+04  6.384553E+04  1.915336E+04  1.219650E+04
       270  22  1.654995E+05  1.134030E+05  1.229707E+04  1.363796E+05  1.108356E+04  5.469654E+01
       270  23  1.672285E+05  1.157224E+05  2.225978E+04  1.304062E+05  1.973684E+04  7.674191E+03
       270  24  1.798942E+05  1.390107E+05  4.578580E+04  1.171729E+05  2.655224E+04  1.774529E+04
       270  25  2.412258E+05  1.628109E+05  3.038042E+04  1.728575E+05  1.024118E+04 -5.768744E+02
       270  26  2.388048E+05  1.853810E+05  4.451282E+04  1.753135E+05  2.301556E+04  1.013330E+04
       270  27  2.482130E+05  2.298133E+05  7.578313E+04  1.705101E+05  3.395230E+04  2.329592E+04
       271   1  3.898383E+05  5.449026E+04  5.842093E+04  2.761918E+04  3.611432E+04 -7.740782E+02
       271   2  3.841536E+05  2.119584E+04  3.235374E+04  1.329744E+04  2.237334E+04 -2.641778E+03
       271   3  3.864751E+05  1.277501E+04  2.144759E+04 -7.289825E+02  8.632311E+03 -3.278125E+03
       271   4  3.374195E+05  4.156127E+04  4.616895E+04  1.664267E+03  3.194024E+04 -7.754772E+02
       271   5  3.335992E+05  9.140646E+03  2.260987E+04  1.516330E+03  2.026871E+04 -2.642182E+03
       271   6  3.374262E+05  1.234851E+03  1.277583E+04  1.663723E+03  8.597049E+03 -3.278114E+03
       271   7  2.850047E+05  2.863462E+04  3.391721E+04 -2.428844E+04  2.776652E+04 -7.765276E+02
       271   8  2.830475E+05 -2.914177E+03  1.286596E+04 -1.026380E+04  1.816424E+04 -2.642506E+03
       271   9  2.883796E+05 -1.030542E+04  4.103986E+03  4.056235E+03  8.561790E+03 -3.278104E+03
       271  10  3.898369E+05  5.448991E+04  5.841848E+04  2.761920E+04 -4.884298E-12 -4.237500E-11
       271  11  3.841530E+05  2.119570E+04  3.235279E+04  1.329749E+04  2.840897E-10 -7.851038E-11
       271  12  3.864750E+05  1.277498E+04  2.144742E+04 -7.289597E+02 -2.973247E-11  8.959227E-11
       271  13  3.374184E+05  4.156099E+04  4.616703E+04  1.664287E+03  2.010704E-10 -3.509074E-11
       271  14  3.335987E+05  9.140529E+03  2.260908E+04  1.516373E+03 -1.920119E-11  2.969317E-12
       271  15  3.374261E+05  1.234820E+03  1.277567E+04  1.663746E+03 -2.541433E-10  1.048668E-10
       271  16  2.850039E+05  2.863442E+04  3.391576E+04 -2.428842E+04 -8.394653E-11 -4.408265E-11
       271  17  2.830472E+05 -2.914273E+03  1.286533E+04 -1.026376E+04  2.611687E-10  1.829215E-11
       271  18  2.883796E+05 -1.030545E+04  4.103828E+03  4.056257E+03  9.785089E-11  6.573707E-11
       271  19  3.898383E+05  5.449026E+04  5.842093E+04  2.761918E+04 -3.611432E+04  7.740782E+02
       271  20  3.841536E+05  2.119584E+04  3.235374E+04  1.329744E+04 -2.237334E+04  2.641778E+03
       271  21  3.864751E+05  1.277501E+04  2.144759E+04 -7.289825E+02 -8.632311E+03  3.278125E+03
       271  22  3.374195E+05  4.156127E+04  4.616895E+04  1.664267E+03 -3.194024E+04  7.754772E+02
       271  23  3.335992E+05  9.140646E+03  2.260987E+04  1.516330E+03 -2.026871E+04  2.642182E+03
       271  24  3.374262E+05  1.234851E+03  1.277583E+04  1.663723E+03 -8.597049E+03  3.278114E+03
       271  25  2.850047E+05  2.863462E+04  3.391721E+04 -2.428844E+04 -2.776652E+04  7.765276E+02
       271  26  2.830475E+05 -2.914177E+03  1.286596E+04 -1.026380E+04 -1.816424E+04  2.642506E+03
       271  27  2.883796E+05 -1.030542E+04  4.103986E+03  4.056235E+03 -8.561790E+03  3.278104E+03
       272   1  3.837908E+05  1.311351E+04  1.839941E+04  2.487996E+03  7.071096E+03 -3.267357E+03
       272   2  3.817348E+05  1.107352E+04  1.420061E+04  1.792986E+03  3.748366E+03 -3.314180E+03
       272   3  3.804573E+05  1.041765E+04  1.251020E+04  1.470727E+03  4.256517E+02 -3.245230E+03
       272   4  3.358918E+05  1.858422E+03  1.000330E+04  1.681048E+03  6.894729E+03 -3.267388E+03
       272   5  3.355197E+05  2.494683E+02  6.276528E+03  1.494682E+03  3.766798E+03 -3.314204E+03
       272   6  3.358924E+05 -9.106491E+00  4.923057E+03  1.681068E+03  6.388735E+02 -3.245248E+03
       272   7  2.879950E+05 -9.396792E+03  1.607099E+03  8.741644E+02  6.718375E+03 -3.267418E+03
       272   8  2.893067E+05 -1.057470E+04 -1.647626E+03  1.196401E+03  3.785229E+03 -3.314228E+03
       272   9  2.913295E+05 -1.043597E+04 -2.664151E+03  1.891394E+03  8.520805E+02 -3.245266E+03
       272  10  3.837907E+05  1.311349E+04  1.839930E+04  2.488015E+03 -8.920224E-11  1.985803E-10
       272  11  3.817347E+05  1.107351E+04  1.420056E+04  1.792996E+03  1.849314E-10  2.504117E-10
       272  12  3.804573E+05  1.041764E+04  1.251018E+04  1.470728E+03  1.150336E-10  6.642075E-11
       272  13  3.358917E+05  1.858398E+03  1.000319E+04  1.681066E+03  3.245091E-10  1.349828E-10
       272  14  3.355197E+05  2.494527E+02  6.276480E+03  1.494692E+03 -1.633135E-11  1.395485E-10
       272  15  3.358924E+05 -9.117912E+00  4.923037E+03  1.681070E+03 -3.278025E-11  2.753865E-11
       272  16  2.879950E+05 -9.396816E+03  1.606994E+03  8.741821E+02 -3.549082E-11  6.053186E-11
       272  17  2.893067E+05 -1.057472E+04 -1.647674E+03  1.196411E+03 -1.764055E-11 -1.404636E-11
       272  18  2.913295E+05 -1.043598E+04 -2.664172E+03  1.891396E+03 -1.617502E-10 -1.430879E-11
       272  19  3.837908E+05  1.311351E+04  1.839941E+04  2.487996E+03 -7.071096E+03  3.267357E+03
       272  20  3.817348E+05  1.107352E+04  1.420061E+04  1.792986E+03 -3.748366E+03  3.314180E+03
       272  21  3.804573E+05  1.041765E+04  1.251020E+04  1.470727E+03 -4.256517E+02  3.245230E+03
       272  22  3.358918E+05  1.858422E+03  1.000330E+04  1.681048E+03 -6.894729E+03  3.267388E+03
       272  23  3.355197E+05  2.494683E+02  6.276528E+03  1.494682E+03 -3.766798E+03  3.314204E+03
       272  24  3.358924E+05 -9.106491E+00  4.923057E+03  1.681068E+03 -6.388735E+02  3.245248E+03
       272  25  2.879950E+05 -9.396792E+03  1.607099E+03  8.741644E+02 -6.718375E+03  3.267418E+03
       272  26  2.893067E+05 -1.057470E+04 -1.647626E+03  1.196401E+03 -3.785229E+03  3.314228E+03
       272  27  2.913295E+05 -1.043597E+04 -2.664151E+03  1.891394E+03 -8.520805E+02  3.245266E+03
       273   1  3.793587E+05  1.016680E+04  1.224386E+04  1.849948E+03 -4.071956E+02 -3.173639E+03
       273   2  3.773444E+05  1.000472E+04  1.302071E+04  1.207278E+03 -3.472473E+03 -3.018093E+03
       273   3  3.760413E+05  1.109103E+04  1.610448E+04  9.472770E+02 -6.537711E+03 -2.780042E+03
       273   4  3.358796E+05 -4.291796E+00  4.849735E+03  1.683276E+03 -2.149891E+02 -3.173655E+03
       273   5  3.355358E+05  2.170458E+02  5.873812E+03  1.491929E+03 -3.141425E+03 -3.018104E+03
       273   6  3.358791E+05  1.662724E+03  9.108522E+03  1.683245E+03 -6.067830E+03 -2.780051E+03
       273   7  2.924024E+05 -1.017548E+04 -2.544451E+03  1.516616E+03 -2.279553E+01 -3.173672E+03
       273   8  2.937290E+05 -9.570721E+03 -1.273144E+03  1.776561E+03 -2.810398E+03 -3.018115E+03
       273   9  2.957186E+05 -7.765666E+03  2.112507E+03  2.419164E+03 -5.597978E+03 -2.780058E+03
       273  10  3.793587E+05  1.016679E+04  1.224384E+04  1.849947E+03 -7.079593E-11 -4.863689E-11
       273  11  3.773444E+05  1.000471E+04  1.302067E+04  1.207270E+03 -2.877457E-10 -1.097162E-10
       273  12  3.760412E+05  1.109101E+04  1.610439E+04  9.472624E+02 -1.102387E-10 -6.511414E-11
       273  13  3.358796E+05 -4.302625E+00  4.849716E+03  1.683276E+03 -1.290841E-10 -5.636606E-11
       273  14  3.355358E+05  2.170333E+02  5.873776E+03  1.491922E+03 -6.425567E-11 -3.547999E-11
       273  15  3.358791E+05  1.662705E+03  9.108439E+03  1.683231E+03  9.471362E-12 -1.048878E-10
       273  16  2.924024E+05 -1.017549E+04 -2.544470E+03  1.516616E+03 -6.779166E-11 -2.532630E-11
       273  17  2.937290E+05 -9.570733E+03 -1.273176E+03  1.776554E+03  1.042894E-10 -7.603158E-11
       273  18  2.957185E+05 -7.765683E+03  2.112434E+03  2.419151E+03  9.476322E-11 -3.753103E-12
       273  19  3.793587E+05  1.016680E+04  1.224386E+04  1.849948E+03  4.071956E+02  3.173639E+03
       273  20  3.773444E+05  1.000472E+04  1.302071E+04  1.207278E+03  3.472473E+03  3.018093E+03
       273  21  3.760413E+05  1.109103E+04  1.610448E+04  9.472770E+02  6.537711E+03  2.780042E+03
       273  22  3.358796E+05 -4.291796E+00  4.849735E+03  1.683276E+03  2.149891E+02  3.173655E+03
       273  23  3.355358E+05  2.170458E+02  5.873812E+03  1.491929E+03  3.141425E+03  3.018104E+03
       273  24  3.358791E+05  1.662724E+03  9.108522E+03  1.683245E+03  6.067830E+03  2.780051E+03
       273  25  2.924024E+05 -1.017548E+04 -2.544451E+03  1.516616E+03  2.279553E+01  3.173672E+03
       273  26  2.937290E+05 -9.570721E+03 -1.273144E+03  1.776561E+03  2.810398E+03  3.018115E+03
       273  27  2.957186E+05 -7.765666E+03  2.112507E+03  2.419164E+03  5.597978E+03  2.780058E+03
       274   1  3.763747E+05  1.029860E+04  1.842108E+04  3.832341E+03 -7.991360E+03 -2.665172E+03
       274   2  3.711763E+05  1.708830E+04  2.744168E+04 -9.097587E+03 -1.986348E+04 -2.031969E+03
       274   3  3.730799E+05  4.610787E+04  4.974601E+04 -2.159329E+04 -3.173584E+04 -5.777496E+02
       274   4  3.372520E+05  1.104632E+03  1.155908E+04  1.694987E+03 -7.616157E+03 -2.665145E+03
       274   5  3.338178E+05  8.197768E+03  2.032786E+04  1.477040E+03 -1.810865E+04 -2.032240E+03
       274   6  3.372461E+05  3.728146E+04  4.142296E+04  1.693600E+03 -2.860135E+04 -5.787815E+02
       274   7  2.981307E+05 -8.089401E+03  4.697024E+03 -4.422290E+02 -7.240978E+03 -2.665121E+03
       274   8  2.964608E+05 -6.924269E+02  1.321404E+04  1.205102E+04 -1.635392E+04 -2.032452E+03
       274   9  3.014146E+05  2.845700E+04  3.310015E+04  2.497914E+04 -2.546704E+04 -5.795784E+02
       274  10  3.763746E+05  1.029857E+04  1.842095E+04  3.832324E+03  1.013999E-10 -8.395973E-11
       274  11  3.711759E+05  1.708819E+04  2.744093E+04 -9.097619E+03 -6.558084E-11 -8.127425E-11
       274  12  3.730788E+05  4.610760E+04  4.974412E+04 -2.159331E+04 -2.511548E-10 -5.224787E-11
       274  13  3.372519E+05  1.104609E+03  1.155896E+04  1.694970E+03  1.337299E-10 -5.123562E-11
       274  14  3.338174E+05  8.197675E+03  2.032723E+04  1.477010E+03 -2.004068E-11 -9.601732E-11
       274  15  3.372452E+05  3.728124E+04  4.142142E+04  1.693586E+03  1.975581E-10  4.690710E-11
       274  16  2.981307E+05 -8.089423E+03  4.696912E+03 -4.422445E+02  9.839069E-11 -5.063411E-12
       274  17  2.964605E+05 -6.925031E+02  1.321353E+04  1.205099E+04  6.431659E-11 -1.138474E-10
       274  18  3.014139E+05  2.845682E+04  3.309893E+04  2.497913E+04  2.672548E-10  4.922211E-12
       274  19  3.763747E+05  1.029860E+04  1.842108E+04  3.832341E+03  7.991360E+03  2.665172E+03
       274  20  3.711763E+05  1.708830E+04  2.744168E+04 -9.097587E+03  1.986348E+04  2.031969E+03
       274  21  3.730799E+05  4.610787E+04  4.974601E+04 -2.159329E+04  3.173584E+04  5.777496E+02
       274  22  3.372520E+05  1.104632E+03  1.155908E+04  1.694987E+03  7.616157E+03  2.665145E+03
       274  23  3.338178E+05  8.197768E+03  2.032786E+04  1.477040E+03  1.810865E+04  2.032240E+03
       274  24  3.372461E+05  3.728146E+04  4.142296E+04  1.693600E+03  2.860135E+04  5.787815E+02
       274  25  2.981307E+05 -8.089401E+03  4.697024E+03 -4.422290E+02  7.240978E+03  2.665121E+03
       274  26  2.964608E+05 -6.924269E+02  1.321404E+04  1.205102E+04  1.635392E+04  2.032452E+03
       274  27  3.014146E+05  2.845700E+04  3.310015E+04  2.497914E+04  2.546704E+04  5.795784E+02
       275   1 -4.220244E+04 -8.090428E+04 -4.351889E+04  1.001866E+04 -1.317322E+03 -2.393179E+04
       275   2 -2.513419E+04 -8.227064E+04 -2.836866E+04  2.985671E+03 -4.618419E+03 -1.449857E+04
       275   3 -2.163852E+04 -8.825773E+04 -2.275303E+04 -5.021132E+03 -6.027639E+03 -5.065236E+03
       275   4 -2.204568E+04  8.753091E+02 -2.451296E+04 -3.756080E+03 -1.316558E+03 -1.679772E+04
       275   5 -4.849003E+03  2.909523E+03 -1.212329E+04 -3.269879E+03 -4.618034E+03 -1.054210E+04
       275   6 -6.724191E+02  8.750644E+02 -7.060921E+03 -3.757367E+03 -6.027524E+03 -4.286425E+03
       275   7 -1.888662E+03  8.266159E+04 -5.507187E+03 -1.753265E+04 -1.316110E+03 -9.662712E+03
       275   8  1.543591E+04  8.809680E+04  4.121842E+03 -9.526308E+03 -4.617729E+03 -6.585104E+03
       275   9  2.029325E+04  9.001563E+04  8.630898E+03 -2.493416E+03 -6.027406E+03 -3.507506E+03
       275  10 -4.220259E+04 -8.090490E+04 -4.351997E+04  1.001863E+04 -5.171237E-11 -1.038179E-10
       275  11 -2.513427E+04 -8.227087E+04 -2.836910E+04  2.985617E+03 -9.855834E-11  7.850082E-11
       275  12 -2.163856E+04 -8.825776E+04 -2.275314E+04 -5.021156E+03 -5.881468E-11  1.638810E-10
       275  13 -2.204576E+04  8.750056E+02 -2.451349E+04 -3.756098E+03 -2.963882E-11  4.074065E-11
       275  14 -4.849055E+03  2.909398E+03 -1.212354E+04 -3.269918E+03 -3.193000E-10  4.572963E-11
       275  15 -6.724631E+02  8.750349E+02 -7.061024E+03 -3.757388E+03  5.547767E-11  2.941058E-11
       275  16 -1.888688E+03  8.266149E+04 -5.507366E+03 -1.753266E+04 -5.591111E-11  1.388344E-10
       275  17  1.543588E+04  8.809675E+04  4.121721E+03 -9.526333E+03 -3.025939E-10 -8.312905E-11
       275  18  2.029321E+04  9.001561E+04  8.630806E+03 -2.493433E+03 -1.192820E-11 -1.120719E-10
       275  19 -4.220244E+04 -8.090428E+04 -4.351889E+04  1.001866E+04  1.317322E+03  2.393179E+04
       275  20 -2.513419E+04 -8.227064E+04 -2.836866E+04  2.985671E+03  4.618419E+03  1.449857E+04
       275  21 -2.163852E+04 -8.825773E+04 -2.275303E+04 -5.021132E+03  6.027639E+03  5.065236E+03
       275  22 -2.204568E+04  8.753091E+02 -2.451296E+04 -3.756080E+03  1.316558E+03  1.679772E+04
       275  23 -4.849003E+03  2.909523E+03 -1.212329E+04 -3.269879E+03  4.618034E+03  1.054210E+04
       275  24 -6.724191E+02  8.750644E+02 -7.060921E+03 -3.757367E+03  6.027524E+03  4.286425E+03
       275  25 -1.888662E+03  8.266159E+04 -5.507187E+03 -1.753265E+04  1.316110E+03  9.662712E+03
       275  26  1.543591E+04  8.809680E+04  4.121842E+03 -9.526308E+03  4.617729E+03  6.585104E+03
       275  27  2.029325E+04  9.001563E+04  8.630898E+03 -2.493416E+03  6.027406E+03  3.507506E+03
       276   1 -2.248743E+04 -8.979535E+04 -2.169732E+04 -3.251496E+03 -6.275615E+03 -4.345309E+03
       276   2 -2.254157E+04 -9.317291E+04 -2.050434E+04 -3.259320E+03 -6.684781E+03 -1.667117E+03
       276   3 -2.373605E+04 -9.718315E+04 -2.133990E+04 -4.105542E+03 -6.699934E+03  1.011040E+03
       276   4 -9.941610E+02  1.664061E+03 -5.694812E+03 -3.727154E+03 -6.275457E+03 -3.327088E+03
       276   5 -2.285952E+02  1.922817E+03 -4.040356E+03 -3.307991E+03 -6.684657E+03 -1.310475E+03
       276   6 -4.884061E+02  1.663823E+03 -3.954813E+03 -3.727220E+03 -6.699871E+03  7.061184E+02
       276   7  2.049866E+04  9.313167E+04  1.030740E+04 -4.202885E+03 -6.275300E+03 -2.308721E+03
       276   8  2.208390E+04  9.702742E+04  1.242332E+04 -3.356669E+03 -6.684533E+03 -9.537789E+02
       276   9  2.275871E+04  1.005204E+05  1.342991E+04 -3.348835E+03 -6.699809E+03  4.011501E+02
       276  10 -2.248748E+04 -8.979538E+04 -2.169743E+04 -3.251518E+03 -2.384208E-11 -8.119818E-11
       276  11 -2.254162E+04 -9.317293E+04 -2.050443E+04 -3.259329E+03  5.674654E-12  2.027732E-10
       276  12 -2.373610E+04 -9.718317E+04 -2.133998E+04 -4.105537E+03 -1.539359E-11  2.944407E-10
       276  13 -9.942062E+02  1.664039E+03 -5.694907E+03 -3.727171E+03  9.720002E-11  7.464258E-11
       276  14 -2.286437E+02  1.922803E+03 -4.040444E+03 -3.307998E+03  1.135916E-10  9.015646E-11
       276  15 -4.884545E+02  1.663811E+03 -3.954898E+03 -3.727216E+03  1.600725E-10  5.250000E-11
       276  16  2.049862E+04  9.313165E+04  1.030732E+04 -4.202897E+03 -1.712285E-11  1.506005E-10
       276  17  2.208385E+04  9.702741E+04  1.242323E+04 -3.356674E+03  4.682424E-11 -1.573409E-10
       276  18  2.275866E+04  1.005203E+05  1.342983E+04 -3.348833E+03 -4.311804E-11 -2.131079E-10
       276  19 -2.248743E+04 -8.979535E+04 -2.169732E+04 -3.251496E+03  6.275615E+03  4.345309E+03
       276  20 -2.254157E+04 -9.317291E+04 -2.050434E+04 -3.259320E+03  6.684781E+03  1.667117E+03
       276  21 -2.373605E+04 -9.718315E+04 -2.133990E+04 -4.105542E+03  6.699934E+03 -1.011040E+03
       276  22 -9.941610E+02  1.664061E+03 -5.694812E+03 -3.727154E+03  6.275457E+03  3.327088E+03
       276  23 -2.285952E+02  1.922817E+03 -4.040356E+03 -3.307991E+03  6.684657E+03  1.310475E+03
       276  24 -4.884061E+02  1.663823E+03 -3.954813E+03 -3.727220E+03  6.699871E+03 -7.061184E+02
       276  25  2.049866E+04  9.313167E+04  1.030740E+04 -4.202885E+03  6.275300E+03  2.308721E+03
       276  26  2.208390E+04  9.702742E+04  1.242332E+04 -3.356669E+03  6.684533E+03  9.537789E+02
       276  27  2.275871E+04  1.005204E+05  1.342991E+04 -3.348835E+03  6.699809E+03 -4.011501E+02
       277   1 -2.421792E+04 -1.000532E+05 -2.230807E+04 -3.122543E+03 -6.740190E+03  1.347051E+03
       277   2 -2.739634E+04 -1.023640E+05 -2.662988E+04 -6.533079E+03 -5.456781E+03  8.970465E+03
       277   3 -3.783621E+04 -1.074816E+05 -3.773034E+04 -1.060535E+04 -1.601936E+03  1.659321E+04
       277   4 -3.472906E+02  1.321756E+03 -4.335048E+03 -3.688187E+03 -6.740093E+03  1.352639E+03
       277   5 -2.409089E+03  2.349969E+03 -6.419239E+03 -3.356591E+03 -5.457250E+03  4.657001E+03
       277   6 -1.098187E+04  1.321533E+03 -1.228220E+04 -3.686837E+03 -1.603076E+03  7.960848E+03
       277   7  2.352278E+04  1.027067E+05  1.363759E+04 -4.253927E+03 -6.739997E+03  1.358228E+03
       277   8  2.257756E+04  1.070745E+05  1.379097E+04 -1.795566E+02 -5.457763E+03  3.428252E+02
       277   9  1.587185E+04  1.101359E+05  1.316544E+04  3.232900E+03 -1.604409E+03 -6.730155E+02
       277  10 -2.421797E+04 -1.000532E+05 -2.230816E+04 -3.122536E+03 -8.146009E-11 -2.067362E-10
       277  11 -2.739639E+04 -1.023641E+05 -2.663009E+04 -6.533039E+03 -2.775640E-10  2.125515E-10
       277  12 -3.783628E+04 -1.074819E+05 -3.773086E+04 -1.060533E+04 -4.260538E-11  3.380674E-10
       277  13 -3.473399E+02  1.321742E+03 -4.335137E+03 -3.688180E+03 -7.156719E-11  1.343546E-10
       277  14 -2.409127E+03  2.349938E+03 -6.419336E+03 -3.356571E+03 -2.647749E-10  1.540064E-10
       277  15 -1.098189E+04  1.321464E+03 -1.228232E+04 -3.686827E+03 -1.820004E-10  5.519825E-11
       277  16  2.352273E+04  1.027067E+05  1.363750E+04 -4.253920E+03  2.330645E-11  3.460287E-10
       277  17  2.257752E+04  1.070745E+05  1.379091E+04 -1.795551E+02 -7.245293E-11 -1.788158E-10
       277  18  1.587185E+04  1.101359E+05  1.316544E+04  3.232899E+03 -7.840921E-13 -2.011995E-10
       277  19 -2.421792E+04 -1.000532E+05 -2.230807E+04 -3.122543E+03  6.740190E+03 -1.347051E+03
       277  20 -2.739634E+04 -1.023640E+05 -2.662988E+04 -6.533079E+03  5.456781E+03 -8.970465E+03
       277  21 -3.783621E+04 -1.074816E+05 -3.773034E+04 -1.060535E+04  1.601936E+03 -1.659321E+04
       277  22 -3.472906E+02  1.321756E+03 -4.335048E+03 -3.688187E+03  6.740093E+03 -1.352639E+03
       277  23 -2.409089E+03  2.349969E+03 -6.419239E+03 -3.356591E+03  5.457250E+03 -4.657001E+03
       277  24 -1.098187E+04  1.321533E+03 -1.228220E+04 -3.686837E+03  1.603076E+03 -7.960848E+03
       277  25  2.352278E+04  1.027067E+05  1.363759E+04 -4.253927E+03  6.739997E+03 -1.358228E+03
       277  26  2.257756E+04  1.070745E+05  1.379097E+04 -1.795566E+02  5.457763E+03 -3.428252E+02
       277  27  1.587185E+04  1.101359E+05  1.316544E+04  3.232900E+03  1.604409E+03  6.730155E+02
       278   1  2.052154E+04 -2.727463E+04 -2.254157E+04  1.172707E+04 -9.739018E+03 -6.934114E+03
       278   2  2.777301E+04 -8.564272E+03 -1.147697E+04  1.293552E+04 -5.940423E+03 -3.480316E+03
       278   3  3.273765E+04  1.545386E+03 -5.784208E+03  1.607087E+04 -1.648449E+03 -6.844130E+02
       278   4  3.561297E+04 -2.758955E+03 -1.493042E+04  2.553358E+04 -8.535566E+03 -6.031822E+03
       278   5  3.898514E+04  5.597851E+03 -7.220801E+03  2.143790E+04 -5.842292E+03 -3.406782E+03
       278   6  4.031053E+04  5.594035E+03 -3.923485E+03  1.926911E+04 -2.655636E+03 -1.439703E+03
       278   7  5.070448E+04  2.175720E+04 -7.319431E+03  3.934039E+04 -7.332099E+03 -5.129468E+03
       278   8  5.019732E+04  1.976013E+04 -2.964692E+03  2.994043E+04 -5.744161E+03 -3.333245E+03
       278   9  4.788347E+04  9.642701E+03 -2.062762E+03  2.246739E+04 -3.662840E+03 -2.195001E+03
       278  10  2.052142E+04 -2.727471E+04 -2.254184E+04  1.172702E+04 -7.959519E-11 -5.942942E-12
       278  11  2.777297E+04 -8.564295E+03 -1.147706E+04  1.293550E+04 -2.040286E-11 -6.537379E-11
       278  12  3.273765E+04  1.545385E+03 -5.784214E+03  1.607087E+04 -2.320625E-10  2.582439E-11
       278  13  3.561289E+04 -2.759014E+03 -1.493062E+04  2.553354E+04  1.434150E-11 -2.371472E-11
       278  14  3.898510E+04  5.597829E+03 -7.220887E+03  2.143788E+04 -2.180017E-10  7.597015E-11
       278  15  4.031052E+04  5.594031E+03 -3.923502E+03  1.926911E+04  3.037982E-11  5.758980E-11
       278  16  5.070442E+04  2.175716E+04 -7.319582E+03  3.934036E+04 -1.299134E-10  3.113188E-11
       278  17  5.019728E+04  1.976011E+04 -2.964775E+03  2.994041E+04 -1.962962E-10  7.493831E-11
       278  18  4.788345E+04  9.642692E+03 -2.062796E+03  2.246739E+04  1.086551E-10  4.462283E-11
       278  19  2.052154E+04 -2.727463E+04 -2.254157E+04  1.172707E+04  9.739018E+03  6.934114E+03
       278  20  2.777301E+04 -8.564272E+03 -1.147697E+04  1.293552E+04  5.940423E+03  3.480316E+03
       278  21  3.273765E+04  1.545386E+03 -5.784208E+03  1.607087E+04  1.648449E+03  6.844130E+02
       278  22  3.561297E+04 -2.758955E+03 -1.493042E+04  2.553358E+04  8.535566E+03  6.031822E+03
       278  23  3.898514E+04  5.597851E+03 -7.220801E+03  2.143790E+04  5.842292E+03  3.406782E+03
       278  24  4.031053E+04  5.594035E+03 -3.923485E+03  1.926911E+04  2.655636E+03  1.439703E+03
       278  25  5.070448E+04  2.175720E+04 -7.319431E+03  3.934039E+04  7.332099E+03  5.129468E+03
       278  26  5.019732E+04  1.976013E+04 -2.964692E+03  2.994043E+04  5.744161E+03  3.333245E+03
       278  27  4.788347E+04  9.642701E+03 -2.062762E+03  2.246739E+04  3.662840E+03  2.195001E+03
       279   1  3.930048E+04  4.343356E+03 -3.470120E+03  1.880477E+04 -1.047991E+03 -7.987091E+02
       279   2  4.626458E+04  1.181607E+04 -3.225309E+01  2.311682E+04  8.813842E+01 -8.583070E+02
       279   3  5.537127E+04  1.648666E+04  2.727956E+03  2.681920E+04  1.267093E+03 -9.749473E+02
       279   4  4.057087E+04  5.633229E+03 -2.947311E+03  1.960587E+04 -1.980341E+03 -1.497882E+03
       279   5  3.959911E+04  7.219376E+03 -1.508045E+03  1.976416E+04 -9.400815E+02 -1.629383E+03
       279   6  4.079056E+04  6.024037E+03 -6.632489E+02  1.931265E+04  1.429753E+02 -1.817939E+03
       279   7  4.184129E+04  6.923128E+03 -2.424488E+03  2.040699E+04 -2.912710E+03 -2.197071E+03
       279   8  3.293369E+04  2.622706E+03 -2.983832E+03  1.641155E+04 -1.968287E+03 -2.400448E+03
       279   9  2.621037E+04 -4.438259E+03 -4.054368E+03  1.180645E+04 -9.810873E+02 -2.660889E+03
       279  10  3.930048E+04  4.343355E+03 -3.470123E+03  1.880477E+04 -2.028455E-10  1.094353E-10
       279  11  4.626458E+04  1.181607E+04 -3.225449E+01  2.311682E+04 -2.724287E-10  2.587613E-11
       279  12  5.537127E+04  1.648666E+04  2.727951E+03  2.681920E+04 -7.863489E-11 -3.661561E-11
       279  13  4.057087E+04  5.633225E+03 -2.947322E+03  1.960587E+04 -1.594210E-12  4.291660E-12
       279  14  3.959911E+04  7.219373E+03 -1.508051E+03  1.976416E+04 -1.788874E-10  4.986092E-11
       279  15  4.079056E+04  6.024034E+03 -6.632551E+02  1.931265E+04  4.426215E-11 -1.406326E-11
       279  16  4.184128E+04  6.923120E+03 -2.424513E+03  2.040699E+04  5.676005E-11 -2.656019E-11
       279  17  3.293369E+04  2.622699E+03 -2.983851E+03  1.641155E+04  6.544722E-11  2.889752E-11
       279  18  2.621036E+04 -4.438267E+03 -4.054383E+03  1.180645E+04  5.754737E-11  1.775553E-11
       279  19  3.930048E+04  4.343356E+03 -3.470120E+03  1.880477E+04  1.047991E+03  7.987091E+02
       279  20  4.626458E+04  1.181607E+04 -3.225309E+01  2.311682E+04 -8.813842E+01  8.583070E+02
       279  21  5.537127E+04  1.648666E+04  2.727956E+03  2.681920E+04 -1.267093E+03  9.749473E+02
       279  22  4.057087E+04  5.633229E+03 -2.947311E+03  1.960587E+04  1.980341E+03  1.497882E+03
       279  23  3.959911E+04  7.219376E+03 -1.508045E+03  1.976416E+04  9.400815E+02  1.629383E+03
       279  24  4.079056E+04  6.024037E+03 -6.632489E+02  1.931265E+04 -1.429753E+02  1.817939E+03
       279  25  4.184129E+04  6.923128E+03 -2.424488E+03  2.040699E+04  2.912710E+03  2.197071E+03
       279  26  3.293369E+04  2.622706E+03 -2.983832E+03  1.641155E+04  1.968287E+03  2.400448E+03
       279  27  2.621037E+04 -4.438259E+03 -4.054368E+03  1.180645E+04  9.810873E+02  2.660889E+03
       280   1  6.073439E+04  2.016232E+04  4.338066E+03  2.951247E+04  1.624446E+03 -1.318577E+03
       280   2  6.759565E+04  2.708834E+04  6.824614E+03  3.396950E+04  1.999334E+03 -2.069414E+03
       280   3  7.692465E+04  3.158899E+04  9.413711E+03  3.771634E+04  2.365675E+03 -2.808810E+03
       280   4  4.081635E+04  6.029476E+03 -3.407518E+02  1.934487E+04  5.051060E+02 -2.157992E+03
       280   5  3.959122E+04  7.256018E+03  2.557331E+02  1.969119E+04  8.991974E+02 -2.894455E+03
       280   6  4.082957E+04  6.052986E+03  9.381044E+02  1.932725E+04  1.284745E+03 -3.619477E+03
       280   7  2.089876E+04 -8.103131E+03 -5.019591E+03  9.177639E+03 -6.141868E+02 -2.997371E+03
       280   8  1.158744E+04 -1.257601E+04 -6.313282E+03  5.413501E+03 -2.008828E+02 -3.719453E+03
       280   9  4.735338E+03 -1.948269E+04 -7.537807E+03  9.390690E+02  2.038803E+02 -4.430096E+03
       280  10  6.073439E+04  2.016232E+04  4.338057E+03  2.951247E+04 -1.032253E-10 -1.718453E-11
       280  11  6.759564E+04  2.708833E+04  6.824598E+03  3.396951E+04  1.743629E-10  3.335290E-12
       280  12  7.692464E+04  3.158898E+04  9.413685E+03  3.771634E+04  1.882703E-10  1.858861E-11
       280  13  4.081635E+04  6.029471E+03 -3.407611E+02  1.934487E+04  8.573989E-11  4.908501E-11
       280  14  3.959122E+04  7.256009E+03  2.557158E+02  1.969119E+04  6.763980E-11 -3.932797E-12
       280  15  4.082957E+04  6.052972E+03  9.380767E+02  1.932725E+04  4.848078E-11  7.883791E-11
       280  16  2.089875E+04 -8.103141E+03 -5.019609E+03  9.177638E+03  1.510746E-10  4.775028E-11
       280  17  1.158743E+04 -1.257602E+04 -6.313308E+03  5.413500E+03  2.712790E-12  3.557801E-11
       280  18  4.735333E+03 -1.948272E+04 -7.537844E+03  9.390697E+02 -1.534628E-10  6.189344E-12
       280  19  6.073439E+04  2.016232E+04  4.338066E+03  2.951247E+04 -1.624446E+03  1.318577E+03
       280  20  6.759565E+04  2.708834E+04  6.824614E+03  3.396950E+04 -1.999334E+03  2.069414E+03
       280  21  7.692465E+04  3.158899E+04  9.413711E+03  3.771634E+04 -2.365675E+03  2.808810E+03
       280  22  4.081635E+04  6.029476E+03 -3.407518E+02  1.934487E+04 -5.051060E+02  2.157992E+03
       280  23  3.959122E+04  7.256018E+03  2.557331E+02  1.969119E+04 -8.991974E+02  2.894455E+03
       280  24  4.082957E+04  6.052986E+03  9.381044E+02  1.932725E+04 -1.284745E+03  3.619477E+03
       280  25  2.089876E+04 -8.103131E+03 -5.019591E+03  9.177639E+03  6.141868E+02  2.997371E+03
       280  26  1.158744E+04 -1.257601E+04 -6.313282E+03  5.413501E+03  2.008828E+02  3.719453E+03
       280  27  4.735338E+03 -1.948269E+04 -7.537807E+03  9.390690E+02 -2.038803E+02  4.430096E+03
       281   1  8.215424E+04  3.542404E+04  1.114187E+04  4.047043E+04  2.515313E+03 -3.298819E+03
       281   2  8.923954E+04  4.210563E+04  1.440462E+04  4.467348E+04  1.579555E+03 -4.879365E+03
       281   3  9.928617E+04  4.697872E+04  1.895835E+04  4.800478E+04  5.038949E+02 -6.273322E+03
       281   4  4.086200E+04  6.064279E+03  1.368141E+03  1.937458E+04  1.413620E+03 -4.125077E+03
       281   5  3.959473E+04  7.321587E+03  2.614000E+03  1.957096E+04  7.914763E+02 -5.470457E+03
       281   6  4.122083E+04  6.702554E+03  4.878822E+03  1.889565E+04  2.943359E+01 -6.629236E+03
       281   7 -4.274921E+02 -2.329386E+04 -8.405420E+03 -1.719250E+03  3.120454E+02 -4.951246E+03
       281   8 -1.004674E+04 -2.746064E+04 -9.176608E+03 -5.528991E+03  3.488959E+00 -6.061481E+03
       281   9 -1.684058E+04 -3.357163E+04 -9.200931E+03 -1.021033E+04 -4.449678E+02 -6.985107E+03
       281  10  8.215423E+04  3.542403E+04  1.114183E+04  4.047044E+04  2.592690E-11 -1.090178E-11
       281  11  8.923953E+04  4.210561E+04  1.440457E+04  4.467348E+04 -2.350852E-10 -1.108841E-10
       281  12  9.928615E+04  4.697868E+04  1.895828E+04  4.800478E+04 -3.006442E-10 -1.243327E-10
       281  13  4.086199E+04  6.064260E+03  1.368106E+03  1.937459E+04  1.400973E-11 -6.940411E-11
       281  14  3.959472E+04  7.321555E+03  2.613943E+03  1.957097E+04 -4.961305E-11 -4.203926E-11
       281  15  4.122082E+04  6.702507E+03  4.878739E+03  1.889565E+04 -8.545437E-11  2.406539E-11
       281  16 -4.274988E+02 -2.329389E+04 -8.405466E+03 -1.719249E+03 -2.381386E-11 -1.741991E-11
       281  17 -1.004675E+04 -2.746068E+04 -9.176678E+03 -5.528991E+03  4.782797E-11  1.679865E-11
       281  18 -1.684059E+04 -3.357168E+04 -9.201023E+03 -1.021033E+04  1.221278E-10  1.056912E-10
       281  19  8.215424E+04  3.542404E+04  1.114187E+04  4.047043E+04 -2.515313E+03  3.298819E+03
       281  20  8.923954E+04  4.210563E+04  1.440462E+04  4.467348E+04 -1.579555E+03  4.879365E+03
       281  21  9.928617E+04  4.697872E+04  1.895835E+04  4.800478E+04 -5.038949E+02  6.273322E+03
       281  22  4.086200E+04  6.064279E+03  1.368141E+03  1.937458E+04 -1.413620E+03  4.125077E+03
       281  23  3.959473E+04  7.321587E+03  2.614000E+03  1.957096E+04 -7.914763E+02  5.470457E+03
       281  24  4.122083E+04  6.702554E+03  4.878822E+03  1.889565E+04 -2.943359E+01  6.629236E+03
       281  25 -4.274921E+02 -2.329386E+04 -8.405420E+03 -1.719250E+03 -3.120454E+02  4.951246E+03
       281  26 -1.004674E+04 -2.746064E+04 -9.176608E+03 -5.528991E+03 -3.488959E+00  6.061481E+03
       281  27 -1.684058E+04 -3.357163E+04 -9.200931E+03 -1.021033E+04  4.449678E+02  6.985107E+03
       282   1  1.034339E+05  5.251188E+04  2.198151E+04  5.174453E+04  2.905078E+02 -6.881901E+03
       282   2  1.176283E+05  5.415631E+04  3.086198E+04  5.084247E+04 -8.570518E+03 -1.254949E+04
       282   3  1.420703E+05  6.399483E+04  4.998588E+04  4.501689E+04 -1.900895E+04 -1.611491E+04
       282   4  4.158818E+04  6.820600E+03  6.439865E+03  1.945775E+04 -4.234893E+02 -7.417475E+03
       282   5  4.066300E+04  9.890106E+03  1.175987E+04  1.683099E+04 -5.751267E+03 -1.043522E+04
       282   6  4.921917E+04  2.038782E+04  2.425726E+04  9.280491E+03 -1.265605E+04 -1.135060E+04
       282   7 -2.025427E+04 -3.886893E+04 -9.102450E+03 -1.282579E+04 -1.137404E+03 -7.952981E+03
       282   8 -3.629559E+04 -3.437398E+04 -7.342634E+03 -1.717611E+04 -2.932493E+03 -8.321224E+03
       282   9 -4.362068E+04 -2.321666E+04 -1.471366E+03 -2.645036E+04 -6.304577E+03 -6.586926E+03
       282  10  1.034339E+05  5.251183E+04  2.198142E+04  5.174453E+04  3.960730E-11 -1.711820E-11
       282  11  1.176282E+05  5.415613E+04  3.086154E+04  5.084238E+04 -1.578769E-10 -9.449092E-11
       282  12  1.420699E+05  6.399446E+04  4.998471E+04  4.501664E+04 -5.731154E-11 -7.497779E-11
       282  13  4.158817E+04  6.820541E+03  6.439761E+03  1.945775E+04  4.397489E-12  5.176756E-12
       282  14  4.066294E+04  9.889980E+03  1.175960E+04  1.683094E+04 -1.631462E-10 -1.562052E-11
       282  15  4.921896E+04  2.038764E+04  2.425672E+04  9.280375E+03  3.813732E-11  8.158263E-11
       282  16 -2.025429E+04 -3.886899E+04 -9.102571E+03 -1.282580E+04 -5.254694E-11  1.656753E-11
       282  17 -3.629562E+04 -3.437406E+04 -7.342780E+03 -1.717613E+04  8.238127E-11  6.764209E-11
       282  18 -4.362074E+04 -2.321671E+04 -1.471523E+03 -2.645039E+04  2.710850E-10  8.913119E-11
       282  19  1.034339E+05  5.251188E+04  2.198151E+04  5.174453E+04 -2.905078E+02  6.881901E+03
       282  20  1.176283E+05  5.415631E+04  3.086198E+04  5.084247E+04  8.570518E+03  1.254949E+04
       282  21  1.420703E+05  6.399483E+04  4.998588E+04  4.501689E+04  1.900895E+04  1.611491E+04
       282  22  4.158818E+04  6.820600E+03  6.439865E+03  1.945775E+04  4.234893E+02  7.417475E+03
       282  23  4.066300E+04  9.890106E+03  1.175987E+04  1.683099E+04  5.751267E+03  1.043522E+04
       282  24  4.921917E+04  2.038782E+04  2.425726E+04  9.280491E+03  1.265605E+04  1.135060E+04
       282  25 -2.025427E+04 -3.886893E+04 -9.102450E+03 -1.282579E+04  1.137404E+03  7.952981E+03
       282  26 -3.629559E+04 -3.437398E+04 -7.342634E+03 -1.717611E+04  2.932493E+03  8.321224E+03
       282  27 -4.362068E+04 -2.321666E+04 -1.471366E+03 -2.645036E+04  6.304577E+03  6.586926E+03
       283   1  6.069311E+05  9.610558E+04  1.011356E+05  3.899953E+04  5.963571E+04 -2.084063E+03
       283   2  6.006771E+05  4.615212E+04  5.973660E+04  1.780020E+04  3.691696E+04 -7.224577E+03
       283   3  6.068162E+05  3.394699E+04  4.255743E+04 -3.615343E+03  1.419842E+04 -9.191006E+03
       283   4  4.703860E+05  6.244021E+04  6.930513E+04  2.570403E+01  4.832605E+04 -2.088484E+03
       283   5  4.646587E+05  1.374546E+04  3.365818E+04  1.369748E+02  3.094451E+04 -7.226248E+03
       283   6  4.703999E+05  1.875787E+03  1.852919E+04  3.168332E+01  1.356291E+04 -9.191169E+03
       283   7  3.338616E+05  2.877929E+04  3.747468E+04 -3.893950E+04  3.701885E+04 -2.091487E+03
       283   8  3.286590E+05 -1.866111E+04  7.579211E+03 -1.752229E+04  2.497334E+04 -7.227581E+03
       283   9  3.340019E+05 -3.019638E+04 -5.499725E+03  3.677885E+03  1.292752E+04 -9.191339E+03
       283  10  6.069273E+05  9.610462E+04  1.011289E+05  3.899963E+04 -3.257716E-10 -2.775564E-11
       283  11  6.006756E+05  4.615170E+04  5.973394E+04  1.780041E+04  2.075388E-10  1.541996E-10
       283  12  6.068159E+05  3.394685E+04  4.255689E+04 -3.615238E+03  1.065125E-10 -1.120173E-10
       283  13  4.703835E+05  6.243958E+04  6.930073E+04  2.578529E+01  2.945518E-10  1.586255E-10
       283  14  4.646577E+05  1.374514E+04  3.365628E+04  1.371548E+02  3.673983E-10  2.379061E-10
       283  15  4.703997E+05  1.875647E+03  1.852868E+04  3.178370E+01  1.791992E-10 -1.978827E-11
       283  16  3.338602E+05  2.877892E+04  3.747210E+04 -3.893944E+04  2.555537E-10  5.725065E-11
       283  17  3.286583E+05 -1.866133E+04  7.577942E+03 -1.752215E+04 -9.905108E-11 -7.631680E-12
       283  18  3.340017E+05 -3.019652E+04 -5.500197E+03  3.677980E+03 -2.301334E-10 -1.170667E-10
       283  19  6.069311E+05  9.610558E+04  1.011356E+05  3.899953E+04 -5.963571E+04  2.084063E+03
       283  20  6.006771E+05  4.615212E+04  5.973660E+04  1.780020E+04 -3.691696E+04  7.224577E+03
       283  21  6.068162E+05  3.394699E+04  4.255743E+04 -3.615343E+03 -1.419842E+04  9.191006E+03
       283  22  4.703860E+05  6.244021E+04  6.930513E+04  2.570403E+01 -4.832605E+04  2.088484E+03
       283  23  4.646587E+05  1.374546E+04  3.365818E+04  1.369748E+02 -3.094451E+04  7.226248E+03
       283  24  4.703999E+05  1.875787E+03  1.852919E+04  3.168332E+01 -1.356291E+04  9.191169E+03
       283  25  3.338616E+05  2.877929E+04  3.747468E+04 -3.893950E+04 -3.701885E+04  2.091487E+03
       283  26  3.286590E+05 -1.866111E+04  7.579211E+03 -1.752229E+04 -2.497334E+04  7.227581E+03
       283  27  3.340019E+05 -3.019638E+04 -5.499725E+03  3.677885E+03 -1.292752E+04  9.191339E+03
       284   1  6.043121E+05  3.481355E+04  3.792650E+04  1.213858E+03  1.214779E+04 -9.352261E+03
       284   2  6.037585E+05  3.230031E+04  3.110167E+04  4.265122E+02  7.744187E+03 -9.793565E+03
       284   3  6.042873E+05  3.181787E+04  2.765004E+04 -3.772681E+02  3.340649E+03 -9.928395E+03
       284   4  4.680709E+05  2.819995E+03  1.411797E+04  7.545088E+01  1.114742E+04 -9.352587E+03
       284   5  4.675751E+05  4.178600E+02  7.789834E+03  8.390960E+01  7.259861E+03 -9.793834E+03
       284   6  4.680724E+05 -4.273316E+01  4.477206E+03  7.592375E+01  3.372350E+03 -9.928584E+03
       284   7  3.318479E+05 -2.917456E+04 -9.691211E+03 -1.062700E+03  1.014726E+04 -9.352909E+03
       284   8  3.314100E+05 -3.146558E+04 -1.552263E+04 -2.586162E+02  6.775637E+03 -9.794101E+03
       284   9  3.318758E+05 -3.190432E+04 -1.869623E+04  5.290123E+02  3.404044E+03 -9.928773E+03
       284  10  6.043119E+05  3.481341E+04  3.792606E+04  1.213950E+03 -1.848559E-10  1.283636E-11
       284  11  6.037584E+05  3.230019E+04  3.110138E+04  4.265733E+02 -4.347187E-10 -2.974513E-10
       284  12  6.042873E+05  3.181776E+04  2.764983E+04 -3.772414E+02  2.134452E-10  4.867206E-11
       284  13  4.680708E+05  2.819868E+03  1.411757E+04  7.553483E+01 -3.694845E-11 -1.051404E-10
       284  14  4.675751E+05  4.177429E+02  7.789554E+03  8.396685E+01 -1.107507E-10 -1.520674E-10
       284  15  4.680724E+05 -4.284208E+01  4.477000E+03  7.595072E+01 -2.485132E-11 -9.532102E-11
       284  16  3.318478E+05 -2.917468E+04 -9.691569E+03 -1.062623E+03  2.163944E-10 -2.716342E-10
       284  17  3.314099E+05 -3.146569E+04 -1.552289E+04 -2.585628E+02 -1.476787E-10 -1.812921E-10
       284  18  3.318757E+05 -3.190443E+04 -1.869644E+04  5.290395E+02 -6.152795E-11  2.246063E-11
       284  19  6.043121E+05  3.481355E+04  3.792650E+04  1.213858E+03 -1.214779E+04  9.352261E+03
       284  20  6.037585E+05  3.230031E+04  3.110167E+04  4.265122E+02 -7.744187E+03  9.793565E+03
       284  21  6.042873E+05  3.181787E+04  2.765004E+04 -3.772681E+02 -3.340649E+03  9.928395E+03
       284  22  4.680709E+05  2.819995E+03  1.411797E+04  7.545088E+01 -1.114742E+04  9.352587E+03
       284  23  4.675751E+05  4.178600E+02  7.789834E+03  8.390960E+01 -7.259861E+03  9.793834E+03
       284  24  4.680724E+05 -4.273316E+01  4.477206E+03  7.592375E+01 -3.372350E+03  9.928584E+03
       284  25  3.318479E+05 -2.917456E+04 -9.691211E+03 -1.062700E+03 -1.014726E+04  9.352909E+03
       284  26  3.314100E+05 -3.146558E+04 -1.552263E+04 -2.586162E+02 -6.775637E+03  9.794101E+03
       284  27  3.318758E+05 -3.190432E+04 -1.869623E+04  5.290123E+02 -3.404044E+03  9.928773E+03
       285   1  6.041070E+05  3.188699E+04  2.660390E+04 -6.407995E+01  2.715057E+03 -9.928693E+03
       285   2  6.040002E+05  3.183804E+04  2.535502E+04 -4.758647E+01  1.188126E+03 -9.795428E+03
       285   3  6.041519E+05  3.202109E+04  2.515808E+04 -1.669773E+01 -3.389051E+02 -9.355473E+03
       285   4  4.678893E+05  2.560646E+01  3.430572E+03  8.270847E+01  2.681367E+03 -9.928896E+03
       285   5  4.678049E+05 -4.696185E+01  2.041219E+03  7.551273E+01  1.670274E+03 -9.795519E+03
       285   6  4.678896E+05  2.301003E+01  1.345930E+03  8.271236E+01  6.590888E+02 -9.355420E+03
       285   7  3.316899E+05 -3.183676E+04 -1.974336E+04  2.294629E+02  2.647683E+03 -9.929098E+03
       285   8  3.316278E+05 -3.193295E+04 -2.127320E+04  1.985832E+02  2.152320E+03 -9.795610E+03
       285   9  3.316455E+05 -3.197608E+04 -2.246688E+04  1.820990E+02  1.656870E+03 -9.355366E+03
       285  10  6.041070E+05  3.188688E+04  2.660370E+04 -6.405825E+01  1.728823E-10  2.637710E-11
       285  11  6.040001E+05  3.183794E+04  2.535484E+04 -4.757710E+01  4.053566E-10 -8.057566E-11
       285  12  6.041519E+05  3.202100E+04  2.515791E+04 -1.670029E+01  5.002910E-10 -3.654401E-10
       285  13  4.678893E+05  2.549865E+01  3.430373E+03  8.272990E+01  3.404467E-11 -5.098035E-11
       285  14  4.678049E+05 -4.706566E+01  2.041033E+03  7.552591E+01 -6.412229E-11 -1.490849E-10
       285  15  4.678896E+05  2.291591E+01  1.345765E+03  8.271733E+01  9.198383E-11 -2.580676E-10
       285  16  3.316899E+05 -3.183686E+04 -1.974356E+04  2.294840E+02  3.498355E-11 -9.569322E-13
       285  17  3.316278E+05 -3.193306E+04 -2.127339E+04  1.986002E+02 -6.618672E-11  3.843440E-10
       285  18  3.316455E+05 -3.197617E+04 -2.246705E+04  1.821114E+02 -2.058261E-10 -5.491099E-11
       285  19  6.041070E+05  3.188699E+04  2.660390E+04 -6.407995E+01 -2.715057E+03  9.928693E+03
       285  20  6.040002E+05  3.183804E+04  2.535502E+04 -4.758647E+01 -1.188126E+03  9.795428E+03
       285  21  6.041519E+05  3.202109E+04  2.515808E+04 -1.669773E+01  3.389051E+02  9.355473E+03
       285  22  4.678893E+05  2.560646E+01  3.430572E+03  8.270847E+01 -2.681367E+03  9.928896E+03
       285  23  4.678049E+05 -4.696185E+01  2.041219E+03  7.551273E+01 -1.670274E+03  9.795519E+03
       285  24  4.678896E+05  2.301003E+01  1.345930E+03  8.271236E+01 -6.590888E+02  9.355420E+03
       285  25  3.316899E+05 -3.183676E+04 -1.974336E+04  2.294629E+02 -2.647683E+03  9.929098E+03
       285  26  3.316278E+05 -3.193295E+04 -2.127320E+04  1.985832E+02 -2.152320E+03  9.795610E+03
       285  27  3.316455E+05 -3.197608E+04 -2.246688E+04  1.820990E+02 -1.656870E+03  9.355366E+03
       286   1  6.043555E+05  3.208995E+04  2.519382E+04  1.589353E+02 -1.882892E+02 -9.194654E+03
       286   2  6.038332E+05  3.268983E+04  2.716766E+04 -3.911197E+02 -6.077852E+03 -7.232484E+03
       286   3  6.045109E+05  3.501859E+04  3.340564E+04 -7.276502E+02 -1.196850E+04 -2.095415E+03
       286   4  4.679130E+05  1.159872E+01  1.160766E+03  1.270193E+02  4.441405E+02 -9.194673E+03
       286   5  4.677758E+05  2.783034E+02  1.082811E+03  2.006031E+01 -1.074019E+02 -7.230975E+03
       286   6  4.679128E+05  1.347933E+03  1.564589E+03  1.266735E+02 -6.599976E+02 -2.092068E+03
       286   7  3.314887E+05 -3.206777E+04 -2.287296E+04  9.510939E+01  1.076435E+03 -9.194693E+03
       286   8  3.317363E+05 -3.213429E+04 -2.500275E+04  4.311470E+02  5.861771E+03 -7.229459E+03
       286   9  3.313322E+05 -3.232397E+04 -3.027724E+04  9.808069E+02  1.064603E+04 -2.088689E+03
       286  10  6.043554E+05  3.208986E+04  2.519366E+04  1.589340E+02 -6.278093E-11 -5.768964E-10
       286  11  6.038331E+05  3.268976E+04  2.716749E+04 -3.911551E+02 -4.874293E-10 -9.213844E-10
       286  12  6.045107E+05  3.501855E+04  3.340536E+04 -7.276703E+02 -6.963477E-10 -2.496312E-10
       286  13  4.679130E+05  1.150787E+01  1.160607E+03  1.270226E+02 -5.908929E-10 -1.319738E-09
       286  14  4.677758E+05  2.782472E+02  1.082713E+03  2.005968E+01  4.849751E-10  3.953628E-10
       286  15  4.679128E+05  1.347929E+03  1.564580E+03  1.266724E+02  2.671100E-10  7.851988E-13
       286  16  3.314887E+05 -3.206787E+04 -2.287313E+04  9.511736E+01  1.987323E-11 -3.443132E-10
       286  17  3.317363E+05 -3.213436E+04 -2.500291E+04  4.311811E+02  4.944945E-10  2.309932E-10
       286  18  3.313321E+05 -3.232401E+04 -3.027746E+04  9.808248E+02  5.796756E-10 -3.382295E-10
       286  19  6.043555E+05  3.208995E+04  2.519382E+04  1.589353E+02  1.882892E+02  9.194654E+03
       286  20  6.038332E+05  3.268983E+04  2.716766E+04 -3.911197E+02  6.077852E+03  7.232484E+03
       286  21  6.045109E+05  3.501859E+04  3.340564E+04 -7.276502E+02  1.196850E+04  2.095415E+03
       286  22  4.679130E+05  1.159872E+01  1.160766E+03  1.270193E+02 -4.441405E+02  9.194673E+03
       286  23  4.677758E+05  2.783034E+02  1.082811E+03  2.006031E+01  1.074019E+02  7.230975E+03
       286  24  4.679128E+05  1.347933E+03  1.564589E+03  1.266735E+02  6.599976E+02  2.092068E+03
       286  25  3.314887E+05 -3.206777E+04 -2.287296E+04  9.510939E+01 -1.076435E+03  9.194693E+03
       286  26  3.317363E+05 -3.213429E+04 -2.500275E+04  4.311470E+02 -5.861771E+03  7.229459E+03
       286  27  3.313322E+05 -3.232397E+04 -3.027724E+04  9.808069E+02 -1.064603E+04  2.088689E+03
       287   1 -1.985316E+04  1.029873E+03 -2.608505E+04  8.083793E+02  1.197339E+03 -2.994227E+04
       287   2  9.088317E+03 -2.335299E+04 -9.128151E+03 -1.208095E+04  3.536961E+03 -2.140461E+04
       287   3  1.112214E+04 -5.557331E+04 -4.456069E+03 -3.122491E+04  3.134038E+03 -1.286742E+04
       287   4 -4.695697E+04 -1.084454E+05 -5.214663E+04 -2.849113E+04  1.199403E+03 -3.617215E+04
       287   5 -1.032928E+04 -1.041237E+05 -2.545546E+04 -2.536133E+04  3.537641E+03 -2.302977E+04
       287   6 -1.411777E+03 -1.084415E+05 -1.424872E+04 -2.848647E+04  3.133612E+03 -9.887326E+03
       287   7 -7.405840E+04 -2.179077E+05 -7.820845E+04 -5.778545E+04  1.202056E+03 -4.240093E+04
       287   8 -2.974662E+04 -1.848877E+05 -4.178300E+04 -3.863995E+04  3.538391E+03 -2.465472E+04
       287   9 -1.394582E+04 -1.613070E+05 -2.404146E+04 -2.574827E+04  3.133212E+03 -6.907475E+03
       287  10 -1.985340E+04  1.028910E+03 -2.608674E+04  8.084082E+02 -2.583607E-11 -1.744921E-10
       287  11  9.088181E+03 -2.335348E+04 -9.129035E+03 -1.208089E+04 -1.370468E-10  1.518313E-11
       287  12  1.112209E+04 -5.557349E+04 -4.456398E+03 -3.122488E+04  7.643612E-11  2.156400E-10
       287  13 -4.695733E+04 -1.084468E+05 -5.214910E+04 -2.849110E+04  5.425366E-11 -6.891394E-11
       287  14 -1.032944E+04 -1.041242E+05 -2.545648E+04 -2.536127E+04 -2.974033E-10  7.440347E-11
       287  15 -1.411813E+03 -1.084416E+05 -1.424892E+04 -2.848645E+04  1.593687E-10 -1.577550E-10
       287  16 -7.405888E+04 -2.179096E+05 -7.821183E+04 -5.778541E+04 -1.187309E-10  2.971930E-10
       287  17 -2.974680E+04 -1.848884E+05 -4.178417E+04 -3.863988E+04 -7.606172E-11  4.886660E-11
       287  18 -1.394585E+04 -1.613071E+05 -2.404156E+04 -2.574825E+04  9.991443E-12 -2.520436E-10
       287  19 -1.985316E+04  1.029873E+03 -2.608505E+04  8.083793E+02 -1.197339E+03  2.994227E+04
       287  20  9.088317E+03 -2.335299E+04 -9.128151E+03 -1.208095E+04 -3.536961E+03  2.140461E+04
       287  21  1.112214E+04 -5.557331E+04 -4.456069E+03 -3.122491E+04 -3.134038E+03  1.286742E+04
       287  22 -4.695697E+04 -1.084454E+05 -5.214663E+04 -2.849113E+04 -1.199403E+03  3.617215E+04
       287  23 -1.032928E+04 -1.041237E+05 -2.545546E+04 -2.536133E+04 -3.537641E+03  2.302977E+04
       287  24 -1.411777E+03 -1.084415E+05 -1.424872E+04 -2.848647E+04 -3.133612E+03  9.887326E+03
       287  25 -7.405840E+04 -2.179077E+05 -7.820845E+04 -5.778545E+04 -1.202056E+03  4.240093E+04
       287  26 -2.974662E+04 -1.848877E+05 -4.178300E+04 -3.863995E+04 -3.538391E+03  2.465472E+04
       287  27 -1.394582E+04 -1.613070E+05 -2.404146E+04 -2.574827E+04 -3.133212E+03  6.907475E+03
       288   1  6.010219E+03 -7.243151E+04 -4.703470E+03 -2.762846E+04  2.036589E+03 -1.069763E+04
       288   2  1.040466E+03 -1.002885E+05 -5.606075E+03 -2.511614E+04  4.225006E+02 -7.423256E+03
       288   3 -5.607429E+03 -1.289919E+05 -9.060433E+03 -2.902273E+04 -1.216386E+03 -4.149025E+03
       288   4 -2.115150E+03 -1.067114E+05 -1.104846E+04 -2.852344E+04  2.036248E+03 -8.007583E+03
       288   5 -3.663257E+02 -1.062840E+05 -6.644165E+03 -2.531385E+04  4.221353E+02 -4.691798E+03
       288   6 -3.028654E+02 -1.067111E+05 -4.820583E+03 -2.852320E+04 -1.216770E+03 -1.376011E+03
       288   7 -1.024058E+04 -1.409902E+05 -1.739347E+04 -2.941837E+04  2.035899E+03 -5.317683E+03
       288   8 -1.773115E+03 -1.122795E+05 -7.682228E+03 -2.551155E+04  4.217682E+02 -1.960365E+03
       288   9  5.001674E+03 -8.442987E+04 -5.807267E+02 -2.802366E+04 -1.217149E+03  1.397100E+03
       288  10  6.010184E+03 -7.243164E+04 -4.703693E+03 -2.762845E+04  6.123695E-11 -1.107557E-10
       288  11  1.040451E+03 -1.002886E+05 -5.606179E+03 -2.511614E+04 -7.896400E-11  7.003118E-11
       288  12 -5.607435E+03 -1.289919E+05 -9.060468E+03 -2.902274E+04  3.464073E-11  2.600559E-10
       288  13 -2.115172E+03 -1.067115E+05 -1.104859E+04 -2.852343E+04  9.204694E-11 -9.905790E-11
       288  14 -3.663318E+02 -1.062841E+05 -6.644207E+03 -2.531385E+04 -3.754810E-11  9.708077E-11
       288  15 -3.028675E+02 -1.067111E+05 -4.820589E+03 -2.852320E+04  1.068530E-11 -1.723574E-10
       288  16 -1.024059E+04 -1.409902E+05 -1.739353E+04 -2.941836E+04 -1.463219E-10  2.901661E-10
       288  17 -1.773116E+03 -1.122795E+05 -7.682236E+03 -2.551155E+04 -1.179525E-10 -5.745688E-11
       288  18  5.001672E+03 -8.442987E+04 -5.807331E+02 -2.802365E+04 -8.088994E-11 -3.203129E-10
       288  19  6.010219E+03 -7.243151E+04 -4.703470E+03 -2.762846E+04 -2.036589E+03  1.069763E+04
       288  20  1.040466E+03 -1.002885E+05 -5.606075E+03 -2.511614E+04 -4.225006E+02  7.423256E+03
       288  21 -5.607429E+03 -1.289919E+05 -9.060433E+03 -2.902273E+04  1.216386E+03  4.149025E+03
       288  22 -2.115150E+03 -1.067114E+05 -1.104846E+04 -2.852344E+04 -2.036248E+03  8.007583E+03
       288  23 -3.663257E+02 -1.062840E+05 -6.644165E+03 -2.531385E+04 -4.221353E+02  4.691798E+03
       288  24 -3.028654E+02 -1.067111E+05 -4.820583E+03 -2.852320E+04  1.216770E+03  1.376011E+03
       288  25 -1.024058E+04 -1.409902E+05 -1.739347E+04 -2.941837E+04 -2.035899E+03  5.317683E+03
       288  26 -1.773115E+03 -1.122795E+05 -7.682228E+03 -2.551155E+04 -4.217682E+02  1.960365E+03
       288  27  5.001674E+03 -8.442987E+04 -5.807267E+02 -2.802366E+04  1.217149E+03 -1.397100E+03
       289   1 -9.951735E+03 -1.476969E+05 -1.216246E+04 -2.820356E+04 -2.326656E+03 -3.643640E+03
       289   2 -1.815773E+04 -1.749138E+05 -1.906845E+04 -2.756336E+04 -2.899960E+03  3.068701E+03
       289   3 -3.149406E+04 -2.042870E+05 -3.162793E+04 -3.319714E+04 -1.012710E+03  9.780773E+03
       289   4 -2.453318E+02 -1.068414E+05 -4.492379E+03 -2.849096E+04 -2.327051E+03 -6.156807E+02
       289   5 -1.591996E+03 -1.061223E+05 -5.039285E+03 -2.535429E+04 -2.899791E+03  1.963917E+03
       289   6 -7.351145E+03 -1.068429E+05 -8.369170E+03 -2.849170E+04 -1.012049E+03  4.543623E+03
       289   7  9.460979E+03 -6.598417E+04  3.177661E+03 -2.877837E+04 -2.327448E+03  2.412473E+03
       289   8  1.497346E+04 -3.732635E+04  8.989635E+03 -2.314496E+04 -2.899630E+03  8.590130E+02
       289   9  1.679118E+04 -9.390048E+03  1.488904E+04 -2.378552E+04 -1.011467E+03 -6.943446E+02
       289  10 -9.951744E+03 -1.476969E+05 -1.216249E+04 -2.820357E+04  1.381628E-10 -9.606101E-11
       289  11 -1.815774E+04 -1.749138E+05 -1.906848E+04 -2.756336E+04  8.820937E-11  9.321043E-11
       289  12 -3.149409E+04 -2.042871E+05 -3.162811E+04 -3.319714E+04 -4.516168E-11  2.458995E-10
       289  13 -2.453377E+02 -1.068414E+05 -4.492390E+03 -2.849096E+04  3.408607E-12 -8.469471E-11
       289  14 -1.592006E+03 -1.061223E+05 -5.039308E+03 -2.535428E+04  7.232430E-11  9.749644E-11
       289  15 -7.351151E+03 -1.068430E+05 -8.369211E+03 -2.849170E+04 -4.973472E-11 -1.086382E-10
       289  16  9.460972E+03 -6.598418E+04  3.177640E+03 -2.877837E+04  1.834978E-12  3.063685E-10
       289  17  1.497345E+04 -3.732636E+04  8.989618E+03 -2.314496E+04 -1.963271E-10 -4.489044E-11
       289  18  1.679118E+04 -9.390048E+03  1.488904E+04 -2.378552E+04 -1.076434E-10 -2.729737E-10
       289  19 -9.951735E+03 -1.476969E+05 -1.216246E+04 -2.820356E+04  2.326656E+03  3.643640E+03
       289  20 -1.815773E+04 -1.749138E+05 -1.906845E+04 -2.756336E+04  2.899960E+03 -3.068701E+03
       289  21 -3.149406E+04 -2.042870E+05 -3.162793E+04 -3.319714E+04  1.012710E+03 -9.780773E+03
       289  22 -2.453318E+02 -1.068414E+05 -4.492379E+03 -2.849096E+04  2.327051E+03  6.156807E+02
       289  23 -1.591996E+03 -1.061223E+05 -5.039285E+03 -2.535429E+04  2.899791E+03 -1.963917E+03
       289  24 -7.351145E+03 -1.068429E+05 -8.369170E+03 -2.849170E+04  1.012049E+03 -4.543623E+03
       289  25  9.460979E+03 -6.598417E+04  3.177661E+03 -2.877837E+04  2.327448E+03 -2.412473E+03
       289  26  1.497346E+04 -3.732635E+04  8.989635E+03 -2.314496E+04  2.899630E+03 -8.590130E+02
       289  27  1.679118E+04 -9.390048E+03  1.488904E+04 -2.378552E+04  1.011467E+03  6.943446E+02
       290   1  1.393097E+05  5.819765E+04  1.107957E+04  7.719190E+04  2.672218E+03  8.607605E+01
       290   2  1.463758E+05  7.209329E+04  1.421920E+04  8.043963E+04  4.285253E+03 -3.748391E+03
       290   3  1.541738E+05  8.020428E+04  1.697973E+04  8.442759E+04  4.747555E+03 -6.048595E+03
       290   4  7.152483E+04  1.822159E+04 -8.858534E+03  4.728913E+04 -4.040997E+03 -4.949171E+03
       290   5  7.283208E+04  2.387040E+04 -4.282343E+03  4.506109E+04  1.500864E+02 -6.850196E+03
       290   6  7.431157E+04  2.317474E+04 -2.322913E+03  4.357329E+04  3.190395E+03 -7.216798E+03
       290   7  3.745015E+03 -2.175285E+04 -2.879687E+04  1.738976E+04 -1.075321E+04 -9.983834E+03
       290   8 -7.061250E+02 -2.435025E+04 -2.278444E+04  9.686886E+03 -3.984458E+03 -9.951581E+03
       290   9 -5.544731E+03 -3.385187E+04 -2.162649E+04  2.724376E+03  1.633475E+03 -8.384817E+03
       290  10  1.393097E+05  5.819765E+04  1.107956E+04  7.719190E+04 -6.319298E-13 -1.610073E-11
       290  11  1.463757E+05  7.209327E+04  1.421914E+04  8.043965E+04 -1.130919E-10  1.536980E-10
       290  12  1.541737E+05  8.020423E+04  1.697962E+04  8.442761E+04 -2.402556E-10 -3.995142E-12
       290  13  7.152481E+04  1.822156E+04 -8.858611E+03  4.728912E+04 -1.658288E-10 -6.128829E-11
       290  14  7.283207E+04  2.387035E+04 -4.282431E+03  4.506109E+04 -8.041707E-11 -9.213019E-11
       290  15  7.431154E+04  2.317468E+04 -2.323030E+03  4.357331E+04  3.541959E-11 -1.188175E-10
       290  16  3.744864E+03 -2.175299E+04 -2.879728E+04  1.738968E+04 -1.176823E-10 -2.262390E-11
       290  17 -7.061686E+02 -2.435036E+04 -2.278465E+04  9.686854E+03  7.317054E-11  2.285098E-10
       290  18 -5.544753E+03 -3.385194E+04 -2.162663E+04  2.724387E+03  1.875264E-10  5.565431E-11
       290  19  1.393097E+05  5.819765E+04  1.107957E+04  7.719190E+04 -2.672218E+03 -8.607605E+01
       290  20  1.463758E+05  7.209329E+04  1.421920E+04  8.043963E+04 -4.285253E+03  3.748391E+03
       290  21  1.541738E+05  8.020428E+04  1.697973E+04  8.442759E+04 -4.747555E+03  6.048595E+03
       290  22  7.152483E+04  1.822159E+04 -8.858534E+03  4.728913E+04  4.040997E+03  4.949171E+03
       290  23  7.283208E+04  2.387040E+04 -4.282343E+03  4.506109E+04 -1.500864E+02  6.850196E+03
       290  24  7.431157E+04  2.317474E+04 -2.322913E+03  4.357329E+04 -3.190395E+03  7.216798E+03
       290  25  3.745015E+03 -2.175285E+04 -2.879687E+04  1.738976E+04  1.075321E+04  9.983834E+03
       290  26 -7.061250E+02 -2.435025E+04 -2.278444E+04  9.686886E+03  3.984458E+03  9.951581E+03
       290  27 -5.544731E+03 -3.385187E+04 -2.162649E+04  2.724376E+03 -1.633475E+03  8.384817E+03
       291   1  1.605737E+05  8.367713E+04  1.882924E+04  8.736646E+04  5.545134E+03 -6.248377E+03
       291   2  1.680719E+05  9.151046E+04  2.142009E+04  9.218541E+04  6.384646E+03 -7.120984E+03
       291   3  1.781434E+05  9.650709E+04  2.386590E+04  9.628330E+04  7.119527E+03 -7.853978E+03
       291   4  7.443200E+04  2.322998E+04 -1.742083E+03  4.378226E+04  3.812526E+03 -7.548244E+03
       291   5  7.323530E+04  2.478852E+04 -8.825965E+02  4.405638E+04  4.886569E+03 -8.245020E+03
       291   6  7.456101E+04  2.345967E+04 -3.716326E+02  4.360950E+04  5.855970E+03 -8.802176E+03
       291   7 -1.169952E+04 -3.721157E+04 -2.231332E+04  2.058535E+02  2.080271E+03 -8.847847E+03
       291   8 -2.158993E+04 -4.192728E+04 -2.318552E+04 -4.063666E+03  3.388812E+03 -9.368816E+03
       291   9 -2.900882E+04 -4.958111E+04 -2.460979E+04 -9.054048E+03  4.592695E+03 -9.750162E+03
       291  10  1.605737E+05  8.367708E+04  1.882910E+04  8.736649E+04 -3.976659E-10 -4.878373E-11
       291  11  1.680718E+05  9.151040E+04  2.141992E+04  9.218544E+04 -5.698334E-10 -3.496121E-11
       291  12  1.781433E+05  9.650701E+04  2.386569E+04  9.628335E+04 -8.911626E-10 -1.483521E-10
       291  13  7.443197E+04  2.322991E+04 -1.742217E+03  4.378229E+04  1.897993E-11  4.364185E-11
       291  14  7.323525E+04  2.478844E+04 -8.827692E+02  4.405641E+04 -2.019159E-10 -1.049974E-10
       291  15  7.456095E+04  2.345957E+04 -3.718427E+02  4.360955E+04 -1.620885E-10  2.578720E-10
       291  16 -1.169954E+04 -3.721165E+04 -2.231348E+04  2.058683E+02  3.060424E-10  9.594945E-11
       291  17 -2.158996E+04 -4.192738E+04 -2.318571E+04 -4.063641E+03  3.640238E-10  6.936264E-10
       291  18 -2.900887E+04 -4.958122E+04 -2.461001E+04 -9.054012E+03  4.040409E-10  4.141194E-10
       291  19  1.605737E+05  8.367713E+04  1.882924E+04  8.736646E+04 -5.545134E+03  6.248377E+03
       291  20  1.680719E+05  9.151046E+04  2.142009E+04  9.218541E+04 -6.384646E+03  7.120984E+03
       291  21  1.781434E+05  9.650709E+04  2.386590E+04  9.628330E+04 -7.119527E+03  7.853978E+03
       291  22  7.443200E+04  2.322998E+04 -1.742083E+03  4.378226E+04 -3.812526E+03  7.548244E+03
       291  23  7.323530E+04  2.478852E+04 -8.825965E+02  4.405638E+04 -4.886569E+03  8.245020E+03
       291  24  7.456101E+04  2.345967E+04 -3.716326E+02  4.360950E+04 -5.855970E+03  8.802176E+03
       291  25 -1.169952E+04 -3.721157E+04 -2.231332E+04  2.058535E+02 -2.080271E+03  8.847847E+03
       291  26 -2.158993E+04 -4.192728E+04 -2.318552E+04 -4.063666E+03 -3.388812E+03  9.368816E+03
       291  27 -2.900882E+04 -4.958111E+04 -2.460979E+04 -9.054048E+03 -4.592695E+03  9.750162E+03
       292   1  1.839514E+05  1.005476E+05  2.545608E+04  9.921935E+04  7.504511E+03 -8.248457E+03
       292   2  1.914432E+05  1.081149E+05  2.787241E+04  1.040988E+05  7.898842E+03 -9.108840E+03
       292   3  2.016431E+05  1.130395E+05  3.042756E+04  1.082031E+05  8.257238E+03 -9.921164E+03
       292   4  7.457388E+04  2.346615E+04 -1.728878E+02  4.363065E+04  6.221091E+03 -9.211622E+03
       292   5  7.323134E+04  2.480266E+04  2.023354E+02  4.401261E+04  6.696156E+03 -1.001155E+04
       292   6  7.457954E+04  2.347852E+04  6.463018E+02  4.361915E+04  7.135284E+03 -1.076340E+04
       292   7 -3.479170E+04 -5.360934E+04 -2.580326E+04 -1.194766E+04  4.937949E+03 -1.017458E+04
       292   8 -4.496421E+04 -5.850098E+04 -2.746860E+04 -1.606033E+04  5.493777E+03 -1.091403E+04
       292   9 -5.246289E+04 -6.607095E+04 -2.913517E+04 -2.094836E+04  6.013657E+03 -1.160540E+04
       292  10  1.839514E+05  1.005475E+05  2.545584E+04  9.921940E+04  3.677573E-09  2.807819E-09
       292  11  1.914431E+05  1.081148E+05  2.787214E+04  1.040989E+05 -5.326402E-09 -5.552332E-09
       292  12  2.016430E+05  1.130394E+05  3.042725E+04  1.082032E+05 -1.899176E-08 -1.560750E-08
       292  13  7.457381E+04  2.346605E+04 -1.731200E+02  4.363069E+04  6.322390E-10  7.135738E-10
       292  14  7.323127E+04  2.480254E+04  2.020628E+02  4.401266E+04  3.968474E-10 -2.149412E-10
       292  15  7.457946E+04  2.347838E+04  6.459884E+02  4.361922E+04 -4.707525E-09 -4.265049E-09
       292  16 -3.479176E+04 -5.360946E+04 -2.580350E+04 -1.194762E+04 -2.662739E-09 -1.195248E-09
       292  17 -4.496428E+04 -5.850111E+04 -2.746888E+04 -1.606028E+04  5.485053E-09  5.248645E-09
       292  18 -5.246296E+04 -6.607110E+04 -2.913549E+04 -2.094831E+04  9.287796E-09  6.307177E-09
       292  19  1.839514E+05  1.005476E+05  2.545608E+04  9.921935E+04 -7.504511E+03  8.248457E+03
       292  20  1.914432E+05  1.081149E+05  2.787241E+04  1.040988E+05 -7.898842E+03  9.108840E+03
       292  21  2.016431E+05  1.130395E+05  3.042756E+04  1.082031E+05 -8.257238E+03  9.921164E+03
       292  22  7.457388E+04  2.346615E+04 -1.728878E+02  4.363065E+04 -6.221091E+03  9.211622E+03
       292  23  7.323134E+04  2.480266E+04  2.023354E+02  4.401261E+04 -6.696156E+03  1.001155E+04
       292  24  7.457954E+04  2.347852E+04  6.463018E+02  4.361915E+04 -7.135284E+03  1.076340E+04
       292  25 -3.479170E+04 -5.360934E+04 -2.580326E+04 -1.194766E+04 -4.937949E+03  1.017458E+04
       292  26 -4.496421E+04 -5.850098E+04 -2.746860E+04 -1.606033E+04 -5.493777E+03  1.091403E+04
       292  27 -5.246289E+04 -6.607095E+04 -2.913517E+04 -2.094836E+04 -6.013657E+03  1.160540E+04
       293   1  2.073885E+05  1.172046E+05  3.214641E+04  1.111893E+05  8.504651E+03 -1.037958E+04
       293   2  2.150324E+05  1.246126E+05  3.533910E+04  1.158594E+05  7.490516E+03 -1.191159E+04
       293   3  2.257817E+05  1.299009E+05  3.981052E+04  1.196532E+05  6.171904E+03 -1.303778E+04
       293   4  7.459679E+04  2.349116E+04  9.304853E+02  4.365298E+04  7.334955E+03 -1.125771E+04
       293   5  7.323800E+04  2.483790E+04  1.758752E+03  4.393116E+04  7.003084E+03 -1.227786E+04
       293   6  7.483637E+04  2.391706E+04  3.273754E+03  4.333298E+04  6.366711E+03 -1.289211E+04
       293   7 -5.817447E+04 -7.021154E+04 -3.028657E+04 -2.386661E+04  6.165593E+03 -1.213558E+04
       293   8 -6.853446E+04 -7.492558E+04 -3.182336E+04 -2.797871E+04  6.515797E+03 -1.264402E+04
       293   9 -7.608549E+04 -8.205514E+04 -3.326553E+04 -3.296716E+04  6.561458E+03 -1.274649E+04
       293  10  2.073884E+05  1.172045E+05  3.214607E+04  1.111894E+05  9.144058E-09  6.411577E-09
       293  11  2.150323E+05  1.246125E+05  3.533873E+04  1.158595E+05  5.696770E-09  5.150807E-09
       293  12  2.257816E+05  1.299007E+05  3.981013E+04  1.196532E+05 -3.010716E-09 -1.585325E-09
       293  13  7.459670E+04  2.349101E+04  9.301461E+02  4.365305E+04 -4.695911E-09 -5.110550E-09
       293  14  7.323791E+04  2.483772E+04  1.758377E+03  4.393123E+04  1.542232E-10 -3.763558E-10
       293  15  7.483628E+04  2.391687E+04  3.273365E+03  4.333305E+04  5.979158E-10  1.790057E-10
       293  16 -5.817455E+04 -7.021170E+04 -3.028691E+04 -2.386655E+04 -1.904425E-08 -1.591420E-08
       293  17 -6.853455E+04 -7.492576E+04 -3.182374E+04 -2.797865E+04 -5.189445E-09 -5.512023E-09
       293  18 -7.608558E+04 -8.205533E+04 -3.326592E+04 -3.296710E+04  4.182209E-09  2.690304E-09
       293  19  2.073885E+05  1.172046E+05  3.214641E+04  1.111893E+05 -8.504651E+03  1.037958E+04
       293  20  2.150324E+05  1.246126E+05  3.533910E+04  1.158594E+05 -7.490516E+03  1.191159E+04
       293  21  2.257817E+05  1.299009E+05  3.981052E+04  1.196532E+05 -6.171904E+03  1.303778E+04
       293  22  7.459679E+04  2.349116E+04  9.304853E+02  4.365298E+04 -7.334955E+03  1.125771E+04
       293  23  7.323800E+04  2.483790E+04  1.758752E+03  4.393116E+04 -7.003084E+03  1.227786E+04
       293  24  7.483637E+04  2.391706E+04  3.273754E+03  4.333298E+04 -6.366711E+03  1.289211E+04
       293  25 -5.817447E+04 -7.021154E+04 -3.028657E+04 -2.386661E+04 -6.165593E+03  1.213558E+04
       293  26 -6.853446E+04 -7.492558E+04 -3.182336E+04 -2.797871E+04 -6.515797E+03  1.264402E+04
       293  27 -7.608549E+04 -8.205514E+04 -3.326553E+04 -3.296716E+04 -6.561458E+03  1.274649E+04
       294   1  2.309039E+05  1.353783E+05  4.264968E+04  1.233618E+05  6.391676E+03 -1.318271E+04
       294   2  2.432592E+05  1.393482E+05  5.192374E+04  1.241696E+05 -6.074910E+03 -1.928449E+04
       294   3  2.644063E+05  1.491829E+05  7.264779E+04  1.214542E+05 -2.195764E+04 -2.083597E+04
       294   4  7.502644E+04  2.404817E+04  4.318074E+03  4.372413E+04  6.067336E+03 -1.342668E+04
       294   5  7.401965E+04  2.648952E+04  7.880898E+03  4.207442E+04  1.250141E+03 -1.378713E+04
       294   6  8.014588E+04  3.313754E+04  1.625480E+04  3.690119E+04 -6.983456E+03 -9.596615E+03
       294   7 -8.082014E+04 -8.726475E+04 -3.401428E+04 -3.588882E+04  5.743111E+03 -1.367056E+04
       294   8 -9.518581E+04 -8.635346E+04 -3.616351E+04 -3.999501E+04  8.572424E+03 -8.291706E+03
       294   9 -1.040775E+05 -8.289391E+04 -4.014075E+04 -4.762494E+04  7.984614E+03  1.638845E+03
       294  10  2.309038E+05  1.353781E+05  4.264928E+04  1.233618E+05  3.180346E-10  7.911851E-10
       294  11  2.432590E+05  1.393478E+05  5.192298E+04  1.241695E+05  2.194971E-10  3.605663E-10
       294  12  2.644056E+05  1.491823E+05  7.264607E+04  1.214539E+05  3.154286E-11  6.025797E-11
       294  13  7.502635E+04  2.404797E+04  4.317666E+03  4.372420E+04  6.590987E-11  9.182442E-10
       294  14  7.401960E+04  2.648932E+04  7.880538E+03  4.207443E+04  6.009212E-11  2.129043E-09
       294  15  8.014580E+04  3.313742E+04  1.625454E+04  3.690114E+04 -8.623878E-12  4.078598E-10
       294  16 -8.082022E+04 -8.726496E+04 -3.401469E+04 -3.588876E+04 -8.197091E-10  1.791553E-10
       294  17 -9.518591E+04 -8.635356E+04 -3.616377E+04 -3.999495E+04 -4.685337E-10  7.006708E-10
       294  18 -1.040776E+05 -8.289393E+04 -4.014087E+04 -4.762495E+04  8.558436E-11 -3.754073E-10
       294  19  2.309039E+05  1.353783E+05  4.264968E+04  1.233618E+05 -6.391676E+03  1.318271E+04
       294  20  2.432592E+05  1.393482E+05  5.192374E+04  1.241696E+05  6.074910E+03  1.928449E+04
       294  21  2.644063E+05  1.491829E+05  7.264779E+04  1.214542E+05  2.195764E+04  2.083597E+04
       294  22  7.502644E+04  2.404817E+04  4.318074E+03  4.372413E+04 -6.067336E+03  1.342668E+04
       294  23  7.401965E+04  2.648952E+04  7.880898E+03  4.207442E+04 -1.250141E+03  1.378713E+04
       294  24  8.014588E+04  3.313754E+04  1.625480E+04  3.690119E+04  6.983456E+03  9.596615E+03
       294  25 -8.082014E+04 -8.726475E+04 -3.401428E+04 -3.588882E+04 -5.743111E+03  1.367056E+04
       294  26 -9.518581E+04 -8.635346E+04 -3.616351E+04 -3.999501E+04 -8.572424E+03  8.291706E+03
       294  27 -1.040775E+05 -8.289391E+04 -4.014075E+04 -4.762494E+04 -7.984614E+03 -1.638845E+03
       295   1  1.597210E+06  2.687924E+05  2.622540E+05  1.414962E+05  9.494750E+04 -1.224434E+04
       295   2  1.474209E+06  2.028301E+05  1.804853E+05  1.159647E+05  4.613011E+04 -3.999523E+04
       295   3  1.364939E+06  1.662320E+05  1.378004E+05  1.152616E+05 -2.681756E+03 -4.523524E+04
       295   4  6.643982E+05  3.855497E+04  4.279358E+04  1.169935E+05  2.931539E+04 -1.228504E+04
       295   5  6.608536E+05  8.480829E+03  2.117400E+04  1.045931E+05  1.841180E+04 -4.001923E+04
       295   6  6.644706E+05  1.219759E+03  1.236471E+04  1.170193E+05  7.502390E+03 -4.523113E+04
       295   7 -2.676046E+05 -1.917400E+05 -1.767101E+05  9.252749E+04 -3.621892E+04 -1.232061E+04
       295   8 -1.518674E+05 -1.859073E+05 -1.381662E+05  9.323659E+04 -9.271063E+03 -4.004224E+04
       295   9 -3.552067E+04 -1.638196E+05 -1.130894E+05  1.187749E+05  1.767539E+04 -4.522695E+04
       295  10  1.597201E+06  2.687899E+05  2.622368E+05  1.414971E+05  1.259456E-09 -3.434204E-10
       295  11  1.474207E+06  2.028278E+05  1.804783E+05  1.159662E+05  2.699277E-10 -1.771718E-09
       295  12  1.364939E+06  1.662298E+05  1.377965E+05  1.152615E+05  8.517777E-11 -1.541527E-09
       295  13  6.643972E+05  3.855458E+04  4.279168E+04  1.169937E+05  1.716711E-10  1.536483E-10
       295  14  6.608528E+05  8.479017E+03  2.117035E+04  1.045937E+05  3.387077E-11 -1.056498E-09
       295  15  6.644699E+05  1.217547E+03  1.236076E+04  1.170196E+05  5.783981E-10 -2.127018E-10
       295  16 -2.676060E+05 -1.917405E+05 -1.767129E+05  9.252713E+04 -1.221778E-09  3.621488E-11
       295  17 -1.518679E+05 -1.859091E+05 -1.381694E+05  9.323629E+04 -6.165718E-10 -2.198008E-09
       295  18 -3.552156E+04 -1.638219E+05 -1.130938E+05  1.187756E+05  1.227987E-10 -2.171976E-09
       295  19  1.597210E+06  2.687924E+05  2.622540E+05  1.414962E+05 -9.494750E+04  1.224434E+04
       295  20  1.474209E+06  2.028301E+05  1.804853E+05  1.159647E+05 -4.613011E+04  3.999523E+04
       295  21  1.364939E+06  1.662320E+05  1.378004E+05  1.152616E+05  2.681756E+03  4.523524E+04
       295  22  6.643982E+05  3.855497E+04  4.279358E+04  1.169935E+05 -2.931539E+04  1.228504E+04
       295  23  6.608536E+05  8.480829E+03  2.117400E+04  1.045931E+05 -1.841180E+04  4.001923E+04
       295  24  6.644706E+05  1.219759E+03  1.236471E+04  1.170193E+05 -7.502390E+03  4.523113E+04
       295  25 -2.676046E+05 -1.917400E+05 -1.767101E+05  9.252749E+04  3.621892E+04  1.232061E+04
       295  26 -1.518674E+05 -1.859073E+05 -1.381662E+05  9.323659E+04  9.271063E+03  4.004224E+04
       295  27 -3.552067E+04 -1.638196E+05 -1.130894E+05  1.187749E+05 -1.767539E+04  4.522695E+04
       296   1  1.286858E+06  1.485603E+05  1.206070E+05  1.185481E+05 -1.809442E+03 -4.128413E+04
       296   2  1.170415E+06  1.193021E+05  9.477819E+04  1.049371E+05 -8.641892E+03 -3.578551E+04
       296   3  1.055334E+06  9.198457E+04  7.386998E+04  1.175685E+05 -1.547735E+04 -2.833414E+04
       296   4  6.630708E+05  1.818229E+03  9.989596E+03  1.173313E+05  5.806891E+03 -4.128082E+04
       296   5  6.627003E+05  3.329428E+02  7.115163E+03  1.042104E+05  2.262778E+03 -3.577727E+04
       296   6  6.631103E+05  2.201991E+02  6.883204E+03  1.173330E+05 -1.285515E+03 -2.832017E+04
       296   7  3.966341E+04 -1.449451E+05 -1.006421E+05  1.161158E+05  1.341580E+04 -4.127754E+04
       296   8  1.552380E+05 -1.186500E+05 -8.055628E+04  1.034842E+05  1.315882E+04 -3.576906E+04
       296   9  2.710384E+05 -9.155224E+04 -6.010792E+04  1.170976E+05  1.289766E+04 -2.830621E+04
       296  10  1.286857E+06  1.485584E+05  1.206038E+05  1.185480E+05 -2.528663E-09 -1.726568E-09
       296  11  1.170415E+06  1.193007E+05  9.477564E+04  1.049369E+05 -4.588951E-10  6.787512E-10
       296  12  1.055333E+06  9.198364E+04  7.386802E+04  1.175681E+05 -1.837915E-10  1.001720E-09
       296  13  6.630703E+05  1.816390E+03  9.986329E+03  1.173315E+05 -1.757244E-10 -1.289981E-09
       296  14  6.627000E+05  3.315664E+02  7.112748E+03  1.042104E+05  7.535129E-11 -4.760969E-11
       296  15  6.631101E+05  2.193372E+02  6.881694E+03  1.173330E+05 -3.660454E-11 -7.501030E-10
       296  16  3.966276E+04 -1.449470E+05 -1.006456E+05  1.161162E+05  2.444502E-09 -9.367377E-11
       296  17  1.552375E+05 -1.186514E+05 -8.055901E+04  1.034846E+05  6.602441E-10  4.831241E-10
       296  18  2.710380E+05 -9.155314E+04 -6.010974E+04  1.170979E+05  2.407647E-10  3.062528E-10
       296  19  1.286858E+06  1.485603E+05  1.206070E+05  1.185481E+05  1.809442E+03  4.128413E+04
       296  20  1.170415E+06  1.193021E+05  9.477819E+04  1.049371E+05  8.641892E+03  3.578551E+04
       296  21  1.055334E+06  9.198457E+04  7.386998E+04  1.175685E+05  1.547735E+04  2.833414E+04
       296  22  6.630708E+05  1.818229E+03  9.989596E+03  1.173313E+05 -5.806891E+03  4.128082E+04
       296  23  6.627003E+05  3.329428E+02  7.115163E+03  1.042104E+05 -2.262778E+03  3.577727E+04
       296  24  6.631103E+05  2.201991E+02  6.883204E+03  1.173330E+05  1.285515E+03  2.832017E+04
       296  25  3.966341E+04 -1.449451E+05 -1.006421E+05  1.161158E+05 -1.341580E+04  4.127754E+04
       296  26  1.552380E+05 -1.186500E+05 -8.055628E+04  1.034842E+05 -1.315882E+04  3.576906E+04
       296  27  2.710384E+05 -9.155224E+04 -6.010792E+04  1.170976E+05 -1.289766E+04  2.830621E+04
       297   1  9.799067E+05  7.418030E+04  6.112487E+04  1.180864E+05 -1.657256E+04 -2.335748E+04
       297   2  8.636990E+05  4.761746E+04  4.445355E+04  1.038668E+05 -2.137590E+04 -1.520786E+04
       297   3  7.486786E+05  2.348275E+04  3.149735E+04  1.159560E+05 -2.617934E+04 -7.418063E+03
       297   4  6.632314E+05  1.901239E+02  7.557254E+03  1.173479E+05 -2.552929E+03 -2.334263E+04
       297   5  6.625985E+05  7.088844E+02  1.082885E+04  1.041914E+05 -7.961163E+03 -1.519274E+04
       297   6  6.632443E+05  3.761470E+03  1.823517E+04  1.173440E+05 -1.337034E+04 -7.402727E+03
       297   7  3.466550E+05 -7.380523E+04 -4.601285E+04  1.166098E+05  1.145979E+04 -2.332780E+04
       297   8  4.615383E+05 -4.620170E+04 -2.279643E+04  1.045159E+05  5.449378E+03 -1.517759E+04
       297   9  5.778176E+05 -1.596007E+04  4.973436E+03  1.187317E+05 -5.630251E+02 -7.387333E+03
       297  10  9.799063E+05  7.417964E+04  6.112332E+04  1.180861E+05 -3.997779E-10  1.472616E-09
       297  11  8.636985E+05  4.761709E+04  4.445226E+04  1.038665E+05  7.302707E-10  1.002768E-09
       297  12  7.486779E+05  2.348251E+04  3.149596E+04  1.159558E+05  1.514236E-09 -3.205678E-10
       297  13  6.632312E+05  1.895368E+02  7.556217E+03  1.173479E+05 -7.471981E-10 -1.321555E-09
       297  14  6.625984E+05  7.086195E+02  1.082830E+04  1.041913E+05  8.887772E-11  1.022900E-09
       297  15  6.632441E+05  3.761363E+03  1.823473E+04  1.173439E+05  5.862942E-10  1.573969E-09
       297  16  3.466548E+05 -7.380585E+04 -4.601412E+04  1.166100E+05  6.437676E-10  8.993219E-10
       297  17  4.615382E+05 -4.620196E+04 -2.279692E+04  1.045160E+05 -9.523263E-10  1.390171E-09
       297  18  5.778176E+05 -1.596013E+04  4.973333E+03  1.187317E+05 -1.668660E-09 -2.269525E-10
       297  19  9.799067E+05  7.418030E+04  6.112487E+04  1.180864E+05  1.657256E+04  2.335748E+04
       297  20  8.636990E+05  4.761746E+04  4.445355E+04  1.038668E+05  2.137590E+04  1.520786E+04
       297  21  7.486786E+05  2.348275E+04  3.149735E+04  1.159560E+05  2.617934E+04  7.418063E+03
       297  22  6.632314E+05  1.901239E+02  7.557254E+03  1.173479E+05  2.552929E+03  2.334263E+04
       297  23  6.625985E+05  7.088844E+02  1.082885E+04  1.041914E+05  7.961163E+03  1.519274E+04
       297  24  6.632443E+05  3.761470E+03  1.823517E+04  1.173440E+05  1.337034E+04  7.402727E+03
       297  25  3.466550E+05 -7.380523E+04 -4.601285E+04  1.166098E+05 -1.145979E+04  2.332780E+04
       297  26  4.615383E+05 -4.620170E+04 -2.279643E+04  1.045159E+05 -5.449378E+03  1.517759E+04
       297  27  5.778176E+05 -1.596007E+04  4.973436E+03  1.187317E+05  5.630251E+02  7.387333E+03
       298   1  6.758937E+05  4.473610E+03  2.317120E+04  1.217912E+05 -2.995977E+04 -2.636037E+03
       298   2  5.540515E+05 -8.376584E+03  1.862048E+04  8.212182E+04 -4.166033E+04  2.362978E+03
       298   3  4.447526E+05  2.303043E+04  3.273354E+04  6.835587E+04 -5.335280E+04  1.358524E+03
       298   4  6.661350E+05  2.591233E+03  2.357341E+04  1.172641E+05 -1.648806E+04 -2.619463E+03
       298   5  6.589830E+05  1.737398E+04  4.220915E+04  1.042730E+05 -3.828729E+04  2.365468E+03
       298   6  6.661027E+05  7.815771E+04  8.651100E+04  1.171802E+05 -6.008055E+04  1.346400E+03
       298   7  6.563769E+05  7.090312E+02  2.397633E+04  1.127370E+05 -3.016546E+03 -2.603085E+03
       298   8  7.639258E+05  4.312563E+04  6.579743E+04  1.264280E+05 -3.491369E+04  2.368199E+03
       298   9  8.875026E+05  1.332903E+05  1.402863E+05  1.660220E+05 -6.681068E+04  1.333221E+03
       298  10  6.758927E+05  4.473362E+03  2.316951E+04  1.217912E+05  8.024972E-10  3.805438E-11
       298  11  5.540496E+05 -8.377056E+03  1.861721E+04  8.212190E+04  1.151083E-09  2.652520E-09
       298  12  4.447495E+05  2.302966E+04  3.272819E+04  6.835593E+04  1.653349E-10  1.264490E-09
       298  13  6.661347E+05  2.591153E+03  2.357289E+04  1.172640E+05 -2.999930E-10  4.596809E-10
       298  14  6.589814E+05  1.737358E+04  4.220639E+04  1.042731E+05  5.847265E-10  2.123684E-09
       298  15  6.660988E+05  7.815674E+04  8.650422E+04  1.171803E+05  2.948478E-10 -3.877858E-10
       298  16  6.563769E+05  7.090214E+02  2.397630E+04  1.127370E+05 -8.068243E-10 -2.819629E-10
       298  17  7.639245E+05  4.312530E+04  6.579513E+04  1.264280E+05 -8.621732E-10 -8.291759E-11
       298  18  8.874978E+05  1.332891E+05  1.402780E+05  1.660220E+05  4.131385E-11 -6.138315E-10
       298  19  6.758937E+05  4.473610E+03  2.317120E+04  1.217912E+05  2.995977E+04  2.636037E+03
       298  20  5.540515E+05 -8.376584E+03  1.862048E+04  8.212182E+04  4.166033E+04 -2.362978E+03
       298  21  4.447526E+05  2.303043E+04  3.273354E+04  6.835587E+04  5.335280E+04 -1.358524E+03
       298  22  6.661350E+05  2.591233E+03  2.357341E+04  1.172641E+05  1.648806E+04  2.619463E+03
       298  23  6.589830E+05  1.737398E+04  4.220915E+04  1.042730E+05  3.828729E+04 -2.365468E+03
       298  24  6.661027E+05  7.815771E+04  8.651100E+04  1.171802E+05  6.008055E+04 -1.346400E+03
       298  25  6.563769E+05  7.090312E+02  2.397633E+04  1.127370E+05  3.016546E+03  2.603085E+03
       298  26  7.639258E+05  4.312563E+04  6.579743E+04  1.264280E+05  3.491369E+04 -2.368199E+03
       298  27  8.875026E+05  1.332903E+05  1.402863E+05  1.660220E+05  6.681068E+04 -1.333221E+03
       299   1 -3.253962E+04  2.648946E+05 -3.917340E+04  3.569681E+04  1.269755E+03 -3.409622E+04
       299   2  7.997360E+03  2.727997E+05 -1.162118E+04  1.754450E+04  4.430324E+03 -2.308500E+04
       299   3  1.853402E+04  2.717744E+05  1.265700E+03  3.026775E+02  5.774876E+03 -1.207418E+04
       299   4 -5.185877E+04  1.864037E+05 -5.740637E+04  3.452503E+03  1.273629E+03 -4.093315E+04
       299   5 -1.143525E+04  1.911318E+05 -2.719217E+04  3.005322E+03  4.432129E+03 -2.687255E+04
       299   6 -1.544604E+03  1.863987E+05 -1.376153E+04  3.469290E+03  5.775133E+03 -1.281224E+04
       299   7 -7.117443E+04  1.079208E+05 -7.563903E+04 -2.878770E+04  1.278212E+03 -4.776923E+04
       299   8 -3.086745E+04  1.094708E+05 -4.276329E+04 -1.153190E+04  4.434113E+03 -3.065962E+04
       299   9 -2.162359E+04  1.010301E+05 -2.878901E+04  6.635454E+03  5.775382E+03 -1.355020E+04
       299  10 -3.253993E+04  2.648933E+05 -3.917559E+04  3.569684E+04 -8.537625E-11 -3.220102E-10
       299  11  7.997196E+03  2.727991E+05 -1.162221E+04  1.754458E+04 -2.389553E-10 -9.190496E-10
       299  12  1.853395E+04  2.717742E+05  1.265363E+03  3.027337E+02  1.902405E-11 -3.884607E-10
       299  13 -5.185922E+04  1.864019E+05 -5.740952E+04  3.452545E+03  8.198271E-11  1.990194E-11
       299  14 -1.143547E+04  1.911310E+05 -2.719356E+04  3.005418E+03 -1.891081E-10 -2.051126E-11
       299  15 -1.544684E+03  1.863985E+05 -1.376190E+04  3.469349E+03 -1.159809E-10 -5.129348E-10
       299  16 -7.117504E+04  1.079184E+05 -7.564332E+04 -2.878765E+04 -1.334810E-10  3.619201E-10
       299  17 -3.086773E+04  1.094698E+05 -4.276509E+04 -1.153179E+04  5.226663E-11  4.213835E-10
       299  18 -2.162368E+04  1.010299E+05 -2.878942E+04  6.635517E+03 -9.834118E-11 -1.907044E-10
       299  19 -3.253962E+04  2.648946E+05 -3.917340E+04  3.569681E+04 -1.269755E+03  3.409622E+04
       299  20  7.997360E+03  2.727997E+05 -1.162118E+04  1.754450E+04 -4.430324E+03  2.308500E+04
       299  21  1.853402E+04  2.717744E+05  1.265700E+03  3.026775E+02 -5.774876E+03  1.207418E+04
       299  22 -5.185877E+04  1.864037E+05 -5.740637E+04  3.452503E+03 -1.273629E+03  4.093315E+04
       299  23 -1.143525E+04  1.911318E+05 -2.719217E+04  3.005322E+03 -4.432129E+03  2.687255E+04
       299  24 -1.544604E+03  1.863987E+05 -1.376153E+04  3.469290E+03 -5.775133E+03  1.281224E+04
       299  25 -7.117443E+04  1.079208E+05 -7.563903E+04 -2.878770E+04 -1.278212E+03  4.776923E+04
       299  26 -3.086745E+04  1.094708E+05 -4.276329E+04 -1.153190E+04 -4.434113E+03  3.065962E+04
       299  27 -2.162359E+04  1.010301E+05 -2.878901E+04  6.635454E+03 -5.775382E+03  1.355020E+04
       300   1  1.820432E+04  2.759966E+05  5.813997E+03  4.093344E+03  6.009064E+03 -1.017450E+04
       300   2  2.120117E+04  2.795756E+05  1.330414E+04  3.439876E+03  6.397188E+03 -9.587586E+03
       300   3  2.368741E+04  2.829521E+05  2.028512E+04  3.575674E+03  6.408582E+03 -9.000784E+03
       300   4 -2.366716E+03  1.884320E+05 -9.502700E+03  3.439774E+03  6.009484E+03 -1.114254E+04
       300   5 -1.407020E+02  1.885876E+05 -2.443547E+03  3.045838E+03  6.397399E+03 -9.922624E+03
       300   6  1.464797E+03  1.884309E+05  3.666946E+03  3.441175E+03  6.408558E+03 -8.702828E+03
       300   7 -2.293816E+04  1.008748E+05 -2.481967E+04  2.786299E+03  6.009906E+03 -1.211044E+04
       300   8 -2.148302E+04  9.760766E+04 -1.819152E+04  2.651859E+03  6.397611E+03 -1.025762E+04
       300   9 -2.075831E+04  9.391835E+04 -1.295155E+04  3.306697E+03  6.408534E+03 -8.404916E+03
       300  10  1.820425E+04  2.759965E+05  5.813735E+03  4.093394E+03 -6.922959E-11 -3.768400E-10
       300  11  2.120110E+04  2.795755E+05  1.330389E+04  3.439926E+03  5.164285E-11 -9.936343E-10
       300  12  2.368735E+04  2.829520E+05  2.028489E+04  3.575720E+03  1.472217E-10 -2.707009E-10
       300  13 -2.366788E+03  1.884318E+05 -9.503001E+03  3.439828E+03 -1.423929E-10 -6.734226E-11
       300  14 -1.407723E+02  1.885874E+05 -2.443809E+03  3.045889E+03 -9.197427E-11  4.193862E-11
       300  15  1.464733E+03  1.884308E+05  3.666727E+03  3.441219E+03  2.266299E-10 -6.088619E-10
       300  16 -2.293824E+04  1.008746E+05 -2.482001E+04  2.786358E+03 -1.027738E-10  3.716843E-10
       300  17 -2.148309E+04  9.760753E+04 -1.819180E+04  2.651912E+03 -3.845510E-10  4.849215E-10
       300  18 -2.075837E+04  9.391827E+04 -1.295176E+04  3.306740E+03 -6.241906E-11 -2.152715E-10
       300  19  1.820432E+04  2.759966E+05  5.813997E+03  4.093344E+03 -6.009064E+03  1.017450E+04
       300  20  2.120117E+04  2.795756E+05  1.330414E+04  3.439876E+03 -6.397188E+03  9.587586E+03
       300  21  2.368741E+04  2.829521E+05  2.028512E+04  3.575674E+03 -6.408582E+03  9.000784E+03
       300  22 -2.366716E+03  1.884320E+05 -9.502700E+03  3.439774E+03 -6.009484E+03  1.114254E+04
       300  23 -1.407020E+02  1.885876E+05 -2.443547E+03  3.045838E+03 -6.397399E+03  9.922624E+03
       300  24  1.464797E+03  1.884309E+05  3.666946E+03  3.441175E+03 -6.408558E+03  8.702828E+03
       300  25 -2.293816E+04  1.008748E+05 -2.481967E+04  2.786299E+03 -6.009906E+03  1.211044E+04
       300  26 -2.148302E+04  9.760766E+04 -1.819152E+04  2.651859E+03 -6.397611E+03  1.025762E+04
       300  27 -2.075831E+04  9.391835E+04 -1.295155E+04  3.306697E+03 -6.408534E+03  8.404916E+03
       301   1  2.373472E+04  2.866843E+05  2.404410E+04  1.339461E+03  6.445215E+03 -9.402616E+03
       301   2  3.089991E+04  2.869610E+05  3.528416E+04  1.192231E+04  5.222634E+03 -2.180545E+04
       301   3  5.750264E+04  2.937126E+05  5.945630E+04  2.313438E+04  1.545844E+03 -3.420939E+04
       301   4  9.224678E+02  1.897804E+05  6.869878E+03  3.403635E+03  6.445272E+03 -9.401169E+03
       301   5  7.040722E+03  1.868989E+05  1.598007E+04  3.095171E+03  5.221334E+03 -1.767904E+04
       301   6  3.188183E+04  1.897772E+05  3.515942E+04  3.415950E+03  1.543442E+03 -2.595790E+04
       301   7 -2.189028E+04  9.288561E+04 -1.030469E+04  5.467478E+03  6.445329E+03 -9.399722E+03
       301   8 -1.681876E+04  8.684671E+04 -3.324373E+03 -5.730515E+03  5.219917E+03 -1.355328E+04
       301   9  6.261759E+03  8.585273E+04  1.086228E+04 -1.629916E+04  1.540516E+03 -1.770779E+04
       301  10  2.373465E+04  2.866842E+05  2.404386E+04  1.339510E+03  6.888291E-11 -3.979438E-10
       301  11  3.089976E+04  2.869605E+05  3.528321E+04  1.192240E+04  3.082574E-10 -1.232569E-09
       301  12  5.750232E+04  2.937113E+05  5.945409E+04  2.313443E+04  2.612505E-13 -3.656555E-10
       301  13  9.223995E+02  1.897803E+05  6.869634E+03  3.403684E+03  1.927262E-10  1.724415E-11
       301  14  7.040609E+03  1.868986E+05  1.597943E+04  3.095245E+03  1.857097E-10  2.152690E-14
       301  15  3.188165E+04  1.897765E+05  3.515815E+04  3.415982E+03  8.143819E-11 -6.526165E-10
       301  16 -2.189035E+04  9.288550E+04 -1.030494E+04  5.467527E+03 -1.288743E-10  4.678296E-10
       301  17 -1.681884E+04  8.684651E+04 -3.324769E+03 -5.730458E+03  2.117822E-11  5.979915E-10
       301  18  6.261672E+03  8.585239E+04  1.086168E+04 -1.629914E+04 -1.890465E-10 -1.721787E-10
       301  19  2.373472E+04  2.866843E+05  2.404410E+04  1.339461E+03 -6.445215E+03  9.402616E+03
       301  20  3.089991E+04  2.869610E+05  3.528416E+04  1.192231E+04 -5.222634E+03  2.180545E+04
       301  21  5.750264E+04  2.937126E+05  5.945630E+04  2.313438E+04 -1.545844E+03  3.420939E+04
       301  22  9.224678E+02  1.897804E+05  6.869878E+03  3.403635E+03 -6.445272E+03  9.401169E+03
       301  23  7.040722E+03  1.868989E+05  1.598007E+04  3.095171E+03 -5.221334E+03  1.767904E+04
       301  24  3.188183E+04  1.897772E+05  3.515942E+04  3.415950E+03 -1.543442E+03  2.595790E+04
       301  25 -2.189028E+04  9.288561E+04 -1.030469E+04  5.467478E+03 -6.445329E+03  9.399722E+03
       301  26 -1.681876E+04  8.684671E+04 -3.324373E+03 -5.730515E+03 -5.219917E+03  1.355328E+04
       301  27  6.261759E+03  8.585273E+04  1.086228E+04 -1.629916E+04 -1.540516E+03  1.770779E+04
       302   1  6.666493E+05  5.158819E+05  1.345666E+05  4.495257E+05  4.387421E+04  2.442443E+04
       302   2  6.373658E+05  4.717315E+05  9.651272E+04  4.382568E+05  3.367653E+04 -3.007911E+03
       302   3  6.088519E+05  4.471322E+05  7.789609E+04  4.260539E+05  1.644454E+04 -2.106363E+04
       302   4  3.191663E+05  2.508572E+05  1.929808E+04  2.688167E+05  1.470738E+04  2.529493E+03
       302   5  3.174546E+05  2.374017E+05  9.499784E+03  2.733345E+05  2.028452E+04 -1.306391E+04
       302   6  3.130969E+05  2.400802E+05  5.459846E+03  2.769169E+05  1.882389E+04 -1.927894E+04
       302   7 -2.819282E+04 -1.409294E+04 -9.598406E+04  8.822262E+04 -1.443781E+04 -1.934762E+04
       302   8 -2.341254E+03  3.137353E+03 -7.752157E+04  1.085113E+05  6.901774E+03 -2.311263E+04
       302   9  1.744779E+04  3.308364E+04 -6.698079E+04  1.278643E+05  2.120168E+04 -1.749541E+04
       302  10  6.666471E+05  5.158808E+05  1.345619E+05  4.495249E+05 -3.032096E-10 -2.649113E-10
       302  11  6.373646E+05  4.717312E+05  9.651058E+04  4.382569E+05 -2.143905E-10 -2.935613E-10
       302  12  6.088515E+05  4.471317E+05  7.789474E+04  4.260541E+05  2.338642E-10 -1.431626E-10
       302  13  3.191661E+05  2.508572E+05  1.929766E+04  2.688167E+05  2.709382E-10  1.526545E-09
       302  14  3.174541E+05  2.374014E+05  9.498690E+03  2.733348E+05 -3.525749E-10 -1.117764E-09
       302  15  3.130964E+05  2.400797E+05  5.458482E+03  2.769172E+05  4.052180E-10  6.152103E-10
       302  16 -2.819315E+04 -1.409340E+04 -9.598515E+04  8.822239E+04  1.086167E-10 -2.698187E-12
       302  17 -2.341449E+03  3.136766E+03 -7.752266E+04  1.085115E+05  1.220701E-11  3.137197E-10
       302  18  1.744723E+04  3.308319E+04 -6.698221E+04  1.278646E+05 -1.944377E-10 -6.251106E-10
       302  19  6.666493E+05  5.158819E+05  1.345666E+05  4.495257E+05 -4.387421E+04 -2.442443E+04
       302  20  6.373658E+05  4.717315E+05  9.651272E+04  4.382568E+05 -3.367653E+04  3.007911E+03
       302  21  6.088519E+05  4.471322E+05  7.789609E+04  4.260539E+05 -1.644454E+04  2.106363E+04
       302  22  3.191663E+05  2.508572E+05  1.929808E+04  2.688167E+05 -1.470738E+04 -2.529493E+03
       302  23  3.174546E+05  2.374017E+05  9.499784E+03  2.733345E+05 -2.028452E+04  1.306391E+04
       302  24  3.130969E+05  2.400802E+05  5.459846E+03  2.769169E+05 -1.882389E+04  1.927894E+04
       302  25 -2.819282E+04 -1.409294E+04 -9.598406E+04  8.822262E+04  1.443781E+04  1.934762E+04
       302  26 -2.341254E+03  3.137353E+03 -7.752157E+04  1.085113E+05 -6.901774E+03  2.311263E+04
       302  27  1.744779E+04  3.308364E+04 -6.698079E+04  1.278643E+05 -2.120168E+04  1.749541E+04
       303   1  5.867786E+05  4.341490E+05  7.116433E+04  4.158344E+05  1.617473E+04 -1.970285E+04
       303   2  5.605480E+05  4.072336E+05  6.085440E+04  3.993826E+05  1.271676E+04 -2.043289E+04
       303   3  5.259247E+05  3.902121E+05  5.284543E+04  3.854768E+05  8.633816E+03 -2.033135E+04
       303   4  3.126294E+05  2.401783E+05  4.346638E+03  2.765299E+05  1.748275E+04 -1.872231E+04
       303   5  3.168363E+05  2.351271E+05  2.920660E+03  2.754534E+05  1.542430E+04 -1.840089E+04
       303   6  3.123456E+05  2.396669E+05  2.581794E+03  2.769222E+05  1.274052E+04 -1.724776E+04
       303   7  3.856665E+04  4.625326E+04 -6.247637E+04  1.372966E+05  1.879000E+04 -1.774235E+04
       303   8  7.319120E+04  6.305541E+04 -5.501770E+04  1.515794E+05  1.813045E+04 -1.636993E+04
       303   9  9.881566E+04  8.914675E+04 -4.768597E+04  1.684090E+05  1.684542E+04 -1.416554E+04
       303  10  5.867782E+05  4.341485E+05  7.116311E+04  4.158346E+05 -1.693177E-09 -9.891381E-10
       303  11  5.605477E+05  4.072331E+05  6.085332E+04  3.993828E+05 -6.576932E-10  5.376538E-10
       303  12  5.259245E+05  3.902117E+05  5.284451E+04  3.854769E+05  1.010309E-09  1.362276E-10
       303  13  3.126289E+05  2.401778E+05  4.345405E+03  2.765302E+05 -1.967906E-10 -6.323261E-10
       303  14  3.168360E+05  2.351267E+05  2.919576E+03  2.754536E+05 -4.018649E-10  7.964407E-10
       303  15  3.123454E+05  2.396665E+05  2.580930E+03  2.769224E+05 -2.160532E-11 -1.197579E-09
       303  16  3.856618E+04  4.625283E+04 -6.247763E+04  1.372969E+05  1.394527E-09  1.158410E-09
       303  17  7.319078E+04  6.305504E+04 -5.501882E+04  1.515796E+05 -6.021429E-10 -9.311767E-10
       303  18  9.881530E+04  8.914646E+04 -4.768688E+04  1.684092E+05 -1.663361E-09 -1.023100E-09
       303  19  5.867786E+05  4.341490E+05  7.116433E+04  4.158344E+05 -1.617473E+04  1.970285E+04
       303  20  5.605480E+05  4.072336E+05  6.085440E+04  3.993826E+05 -1.271676E+04  2.043289E+04
       303  21  5.259247E+05  3.902121E+05  5.284543E+04  3.854768E+05 -8.633816E+03  2.033135E+04
       303  22  3.126294E+05  2.401783E+05  4.346638E+03  2.765299E+05 -1.748275E+04  1.872231E+04
       303  23  3.168363E+05  2.351271E+05  2.920660E+03  2.754534E+05 -1.542430E+04  1.840089E+04
       303  24  3.123456E+05  2.396669E+05  2.581794E+03  2.769222E+05 -1.274052E+04  1.724776E+04
       303  25  3.856665E+04  4.625326E+04 -6.247637E+04  1.372966E+05 -1.879000E+04  1.774235E+04
       303  26  7.319120E+04  6.305541E+04 -5.501770E+04  1.515794E+05 -1.813045E+04  1.636993E+04
       303  27  9.881566E+04  8.914675E+04 -4.768597E+04  1.684090E+05 -1.684542E+04  1.416554E+04
       304   1  5.059625E+05  3.763627E+05  4.811359E+04  3.754587E+05  7.273236E+03 -1.910605E+04
       304   2  4.800470E+05  3.504106E+05  4.188799E+04  3.586998E+05  3.903770E+03 -1.785650E+04
       304   3  4.452497E+05  3.338708E+05  3.698236E+04  3.446452E+05  4.850085E+02 -1.654185E+04
       304   4  3.123309E+05  2.396783E+05  2.719442E+03  2.769148E+05  1.128337E+04 -1.609462E+04
       304   5  3.168060E+05  2.350194E+05  3.648626E+03  2.755398E+05  8.023777E+03 -1.476204E+04
       304   6  3.123735E+05  2.397482E+05  5.802170E+03  2.768679E+05  4.714759E+03 -1.336443E+04
       304   7  1.187465E+05  1.030196E+05 -4.267570E+04  1.784085E+05  1.529176E+04 -1.308450E+04
       304   8  1.535977E+05  1.196458E+05 -3.459174E+04  1.924059E+05  1.214230E+04 -1.166870E+04
       304   9  1.795180E+05  1.456366E+05 -2.537898E+04  2.091075E+05  8.943298E+03 -1.018792E+04
       304  10  5.059623E+05  3.763623E+05  4.811280E+04  3.754588E+05  6.278573E-10  6.164748E-10
       304  11  4.800469E+05  3.504103E+05  4.188736E+04  3.586998E+05  6.733215E-11 -2.967353E-10
       304  12  4.452496E+05  3.338705E+05  3.698185E+04  3.446452E+05  1.242326E-10 -9.789976E-10
       304  13  3.123307E+05  2.396780E+05  2.718716E+03  2.769150E+05  3.478983E-10 -1.900222E-10
       304  14  3.168059E+05  2.350191E+05  3.648096E+03  2.755399E+05  1.255068E-09  4.098010E-09
       304  15  3.123735E+05  2.397480E+05  5.801792E+03  2.768679E+05  8.492382E-10 -1.259483E-09
       304  16  1.187462E+05  1.030193E+05 -4.267646E+04  1.784087E+05 -5.675536E-10 -6.215933E-10
       304  17  1.535975E+05  1.196456E+05 -3.459228E+04  1.924061E+05  6.423612E-10  5.450269E-10
       304  18  1.795179E+05  1.456364E+05 -2.537933E+04  2.091076E+05  7.136768E-10 -1.588199E-09
       304  19  5.059625E+05  3.763627E+05  4.811359E+04  3.754587E+05 -7.273236E+03  1.910605E+04
       304  20  4.800470E+05  3.504106E+05  4.188799E+04  3.586998E+05 -3.903770E+03  1.785650E+04
       304  21  4.452497E+05  3.338708E+05  3.698236E+04  3.446452E+05 -4.850085E+02  1.654185E+04
       304  22  3.123309E+05  2.396783E+05  2.719442E+03  2.769148E+05 -1.128337E+04  1.609462E+04
       304  23  3.168060E+05  2.350194E+05  3.648626E+03  2.755398E+05 -8.023777E+03  1.476204E+04
       304  24  3.123735E+05  2.397482E+05  5.802170E+03  2.768679E+05 -4.714759E+03  1.336443E+04
       304  25  1.187465E+05  1.030196E+05 -4.267570E+04  1.784085E+05 -1.529176E+04  1.308450E+04
       304  26  1.535977E+05  1.196458E+05 -3.459174E+04  1.924059E+05 -1.214230E+04  1.166870E+04
       304  27  1.795180E+05  1.456366E+05 -2.537898E+04  2.091075E+05 -8.943298E+03  1.018792E+04
       305   1  4.251654E+05  3.204393E+05  3.385092E+04  3.349549E+05 -1.548171E+03 -1.577009E+04
       305   2  4.005037E+05  2.934830E+05  3.217430E+04  3.171212E+05 -8.403889E+03 -1.704869E+04
       305   3  3.688541E+05  2.782718E+05  3.535200E+04  3.011964E+05 -1.519992E+04 -1.840678E+04
       305   4  3.125286E+05  2.397842E+05  7.477145E+03  2.770642E+05  2.681253E+03 -1.259265E+04
       305   5  3.168582E+05  2.354033E+05  1.285605E+04  2.749784E+05 -4.307636E+03 -1.397106E+04
       305   6  3.142284E+05  2.427960E+05  2.320525E+04  2.748007E+05 -1.123703E+04 -1.542918E+04
       305   7  1.999045E+05  1.591358E+05 -1.889800E+04  2.191848E+05  6.909727E+03 -9.415942E+03
       305   8  2.332208E+05  1.773277E+05 -6.462525E+03  2.328421E+05 -2.121199E+02 -1.089397E+04
       305   9  2.596072E+05  2.073224E+05  1.105875E+04  2.484081E+05 -7.274672E+03 -1.245195E+04
       305  10  4.251654E+05  3.204390E+05  3.385045E+04  3.349549E+05 -6.274293E-10 -1.033018E-09
       305  11  4.005036E+05  2.934827E+05  3.217362E+04  3.171210E+05  2.808030E-10 -3.752111E-11
       305  12  3.688537E+05  2.782714E+05  3.535093E+04  3.011962E+05  2.013063E-09  1.103413E-09
       305  13  3.125285E+05  2.397841E+05  7.476834E+03  2.770642E+05  1.890487E-10 -2.458948E-09
       305  14  3.168581E+05  2.354031E+05  1.285564E+04  2.749783E+05  6.191016E-12  2.827942E-10
       305  15  3.142282E+05  2.427957E+05  2.320457E+04  2.748006E+05  1.102427E-10  5.749396E-10
       305  16  1.999045E+05  1.591357E+05 -1.889826E+04  2.191848E+05  1.076176E-09  3.847679E-10
       305  17  2.332208E+05  1.773276E+05 -6.462748E+03  2.328421E+05 -5.298444E-10 -3.950092E-10
       305  18  2.596071E+05  2.073222E+05  1.105836E+04  2.484080E+05 -1.394723E-09 -2.896824E-09
       305  19  4.251654E+05  3.204393E+05  3.385092E+04  3.349549E+05  1.548171E+03  1.577009E+04
       305  20  4.005037E+05  2.934830E+05  3.217430E+04  3.171212E+05  8.403889E+03  1.704869E+04
       305  21  3.688541E+05  2.782718E+05  3.535200E+04  3.011964E+05  1.519992E+04  1.840678E+04
       305  22  3.125286E+05  2.397842E+05  7.477145E+03  2.770642E+05 -2.681253E+03  1.259265E+04
       305  23  3.168582E+05  2.354033E+05  1.285605E+04  2.749784E+05  4.307636E+03  1.397106E+04
       305  24  3.142284E+05  2.427960E+05  2.320525E+04  2.748007E+05  1.123703E+04  1.542918E+04
       305  25  1.999045E+05  1.591358E+05 -1.889800E+04  2.191848E+05 -6.909727E+03  9.415942E+03
       305  26  2.332208E+05  1.773277E+05 -6.462525E+03  2.328421E+05  2.121199E+02  1.089397E+04
       305  27  2.596072E+05  2.073224E+05  1.105875E+04  2.484081E+05  7.274672E+03  1.245195E+04
       306   1  3.434360E+05  2.722124E+05  3.770615E+04  2.959243E+05 -1.955342E+04 -1.944565E+04
       306   2  3.523893E+05  2.218115E+05  5.476969E+04  2.557485E+05 -4.221200E+04 -3.342865E+04
       306   3  3.857453E+05  2.255429E+05  1.041043E+05  1.982270E+05 -6.415279E+04 -4.836455E+04
       306   4  3.161293E+05  2.431689E+05  3.043158E+04  2.773739E+05 -1.548366E+04 -1.638726E+04
       306   5  3.216740E+05  2.476796E+05  5.523787E+04  2.621825E+05 -3.974796E+04 -3.158028E+04
       306   6  3.519653E+05  3.066651E+05  1.137087E+05  2.296439E+05 -6.329424E+04 -4.772975E+04
       306   7  2.888236E+05  2.141267E+05  2.315707E+04  2.588247E+05 -1.141412E+04 -1.332917E+04
       306   8  2.909608E+05  2.735505E+05  5.570653E+04  2.686159E+05 -3.728409E+04 -2.973167E+04
       306   9  3.181929E+05  3.878058E+05  1.233154E+05  2.610600E+05 -6.243575E+04 -4.709473E+04
       306  10  3.434355E+05  2.722119E+05  3.770472E+04  2.959240E+05 -1.349500E-09  6.253154E-11
       306  11  3.523871E+05  2.218098E+05  5.476425E+04  2.557474E+05 -6.944451E-10  1.171692E-09
       306  12  3.857403E+05  2.255393E+05  1.040922E+05  1.982245E+05  8.673496E-10  8.862275E-10
       306  13  3.161290E+05  2.431686E+05  3.043063E+04  2.773737E+05  3.852802E-10 -2.420646E-09
       306  14  3.216720E+05  2.476781E+05  5.523303E+04  2.621815E+05 -2.983406E-10  2.189941E-10
       306  15  3.519604E+05  3.066616E+05  1.136969E+05  2.296414E+05 -3.179633E-10 -1.210382E-09
       306  16  2.888234E+05  2.141265E+05  2.315649E+04  2.588245E+05  1.641228E-09 -6.707030E-10
       306  17  2.909591E+05  2.735492E+05  5.570226E+04  2.686150E+05 -3.472480E-10 -2.937728E-09
       306  18  3.181881E+05  3.878024E+05  1.233039E+05  2.610576E+05 -1.026178E-09 -4.763243E-10
       306  19  3.434360E+05  2.722124E+05  3.770615E+04  2.959243E+05  1.955342E+04  1.944565E+04
       306  20  3.523893E+05  2.218115E+05  5.476969E+04  2.557485E+05  4.221200E+04  3.342865E+04
       306  21  3.857453E+05  2.255429E+05  1.041043E+05  1.982270E+05  6.415279E+04  4.836455E+04
       306  22  3.161293E+05  2.431689E+05  3.043158E+04  2.773739E+05  1.548366E+04  1.638726E+04
       306  23  3.216740E+05  2.476796E+05  5.523787E+04  2.621825E+05  3.974796E+04  3.158028E+04
       306  24  3.519653E+05  3.066651E+05  1.137087E+05  2.296439E+05  6.329424E+04  4.772975E+04
       306  25  2.888236E+05  2.141267E+05  2.315707E+04  2.588247E+05  1.141412E+04  1.332917E+04
       306  26  2.909608E+05  2.735505E+05  5.570653E+04  2.686159E+05  3.728409E+04  2.973167E+04
       306  27  3.181929E+05  3.878058E+05  1.233154E+05  2.610600E+05  6.243575E+04  4.709473E+04
       307   1  5.319107E+05  6.552708E+04  6.419001E+04  4.193104E+04  2.282469E+04 -2.788163E+03
       307   2  4.955151E+05  4.706888E+04  4.276850E+04  3.457040E+04  1.065931E+04 -8.965750E+03
       307   3  4.626449E+05  3.643844E+04  3.122023E+04  3.471180E+04 -1.510740E+03 -9.723150E+03
       307   4  3.097925E+05  1.062214E+04  1.175916E+04  3.514125E+04  7.904086E+03 -2.804059E+03
       307   5  3.088230E+05  2.372927E+03  5.934266E+03  3.139576E+04  4.851706E+03 -8.972267E+03
       307   6  3.097982E+05  3.716787E+02  3.658701E+03  3.515224E+04  1.794016E+03 -9.719682E+03
       307   7  8.772023E+04 -4.428604E+04 -4.067425E+04  2.835389E+04 -7.011210E+03 -2.819633E+03
       307   8  1.221644E+05 -4.232509E+04 -3.090154E+04  2.822208E+04 -9.541905E+02 -8.978725E+03
       307   9  1.569741E+05 -3.569638E+04 -2.390370E+04  3.559255E+04  5.097981E+03 -9.716209E+03
       307  10  5.319101E+05  6.552693E+04  6.418902E+04  4.193109E+04  3.030044E-09 -9.604446E-10
       307  11  4.955150E+05  4.706877E+04  4.276813E+04  3.457048E+04  6.324695E-10 -8.818847E-10
       307  12  4.626449E+05  3.643834E+04  3.122005E+04  3.471179E+04 -2.822749E-09 -1.094868E-09
       307  13  3.097924E+05  1.062211E+04  1.175902E+04  3.514127E+04 -4.413094E-11  1.663688E-09
       307  14  3.088230E+05  2.372835E+03  5.934070E+03  3.139579E+04  2.662079E-10 -9.349441E-10
       307  15  3.097981E+05  3.715764E+02  3.658517E+03  3.515225E+04  3.869924E-10 -1.022937E-09
       307  16  8.772018E+04 -4.428606E+04 -4.067436E+04  2.835388E+04 -2.977357E-09  6.260869E-11
       307  17  1.221643E+05 -4.232517E+04 -3.090169E+04  2.822207E+04 -8.328077E-10 -2.157091E-09
       307  18  1.569741E+05 -3.569649E+04 -2.390393E+04  3.559259E+04  2.972499E-09 -1.693385E-09
       307  19  5.319107E+05  6.552708E+04  6.419001E+04  4.193104E+04 -2.282469E+04  2.788163E+03
       307  20  4.955151E+05  4.706888E+04  4.276850E+04  3.457040E+04 -1.065931E+04  8.965750E+03
       307  21  4.626449E+05  3.643844E+04  3.122023E+04  3.471180E+04  1.510740E+03  9.723150E+03
       307  22  3.097925E+05  1.062214E+04  1.175916E+04  3.514125E+04 -7.904086E+03  2.804059E+03
       307  23  3.088230E+05  2.372927E+03  5.934266E+03  3.139576E+04 -4.851706E+03  8.972267E+03
       307  24  3.097982E+05  3.716787E+02  3.658701E+03  3.515224E+04 -1.794016E+03  9.719682E+03
       307  25  8.772023E+04 -4.428604E+04 -4.067425E+04  2.835389E+04  7.011210E+03  2.819633E+03
       307  26  1.221644E+05 -4.232509E+04 -3.090154E+04  2.822208E+04  9.541905E+02  8.978725E+03
       307  27  1.569741E+05 -3.569638E+04 -2.390370E+04  3.559255E+04 -5.097981E+03  9.716209E+03
       308   1  4.394456E+05  3.116589E+04  2.633102E+04  3.559708E+04 -1.417214E+03 -8.475281E+03
       308   2  4.046745E+05  2.248377E+04  1.918091E+04  3.153583E+04 -3.487931E+03 -6.649126E+03
       308   3  3.702908E+05  1.434995E+04  1.351003E+04  3.532435E+04 -5.559181E+03 -4.365428E+03
       308   4  3.094233E+05  5.270489E+02  3.107403E+03  3.522804E+04  1.271566E+03 -8.472403E+03
       308   5  3.092980E+05  1.025042E+02  2.614581E+03  3.130337E+04 -2.993514E+01 -6.645267E+03
       308   6  3.094255E+05  9.287727E+01  3.067184E+03  3.522853E+04 -1.332078E+03 -4.360550E+03
       308   7  1.794175E+05 -3.011272E+04 -2.011683E+04  3.485908E+04  3.959798E+03 -8.469528E+03
       308   8  2.139305E+05 -2.227925E+04 -1.395202E+04  3.107094E+04  3.427546E+03 -6.641410E+03
       308   9  2.485639E+05 -1.416439E+04 -7.375719E+03  3.513273E+04  2.894625E+03 -4.355674E+03
       308  10  4.394455E+05  3.116581E+04  2.633088E+04  3.559707E+04 -6.402226E-10  7.986983E-10
       308  11  4.046745E+05  2.248372E+04  1.918080E+04  3.153581E+04 -4.115100E-10  3.816514E-10
       308  12  3.702908E+05  1.434993E+04  1.350994E+04  3.532433E+04 -9.484187E-10  7.866317E-10
       308  13  3.094233E+05  5.269714E+02  3.107265E+03  3.522805E+04 -2.100695E-10  1.931487E-10
       308  14  3.092980E+05  1.024567E+02  2.614498E+03  3.130337E+04  1.596745E-10  6.047445E-10
       308  15  3.094255E+05  9.285637E+01  3.067145E+03  3.522853E+04  4.891856E-10  2.492485E-10
       308  16  1.794175E+05 -3.011280E+04 -2.011700E+04  3.485910E+04  1.015806E-09  6.137680E-10
       308  17  2.139305E+05 -2.227930E+04 -1.395212E+04  3.107096E+04 -1.058332E-10 -2.994950E-09
       308  18  2.485639E+05 -1.416441E+04 -7.375770E+03  3.513274E+04  9.866234E-10 -4.693699E-10
       308  19  4.394456E+05  3.116589E+04  2.633102E+04  3.559708E+04  1.417214E+03  8.475281E+03
       308  20  4.046745E+05  2.248377E+04  1.918091E+04  3.153583E+04  3.487931E+03  6.649126E+03
       308  21  3.702908E+05  1.434995E+04  1.351003E+04  3.532435E+04  5.559181E+03  4.365428E+03
       308  22  3.094233E+05  5.270489E+02  3.107403E+03  3.522804E+04 -1.271566E+03  8.472403E+03
       308  23  3.092980E+05  1.025042E+02  2.614581E+03  3.130337E+04  2.993514E+01  6.645267E+03
       308  24  3.094255E+05  9.287727E+01  3.067184E+03  3.522853E+04  1.332078E+03  4.360550E+03
       308  25  1.794175E+05 -3.011272E+04 -2.011683E+04  3.485908E+04 -3.959798E+03  8.469528E+03
       308  26  2.139305E+05 -2.227925E+04 -1.395202E+04  3.107094E+04 -3.427546E+03  6.641410E+03
       308  27  2.485639E+05 -1.416439E+04 -7.375719E+03  3.513273E+04 -2.894625E+03  4.355674E+03
       309   1  3.478116E+05  8.997926E+03  1.006045E+04  3.556550E+04 -6.122396E+03 -2.877227E+03
       309   2  3.129317E+05  1.187550E+03  6.119402E+03  3.105397E+04 -8.581053E+03 -4.962889E+02
       309   3  2.786808E+05 -5.306469E+03  4.101692E+03  3.440320E+04 -1.103931E+04  1.650377E+03
       309   4  3.095243E+05  5.662539E+01  3.631167E+03  3.523124E+04 -1.919057E+03 -2.872331E+03
       309   5  3.091763E+05  3.561263E+02  5.712828E+03  3.129972E+04 -4.771590E+03 -4.918524E+02
       309   6  3.095237E+05  2.040213E+03  9.990973E+03  3.522894E+04 -7.623845E+03  1.654350E+03
       309   7  2.712386E+05 -8.884742E+03 -2.798091E+03  3.489699E+04  2.284032E+03 -2.867438E+03
       309   8  3.054209E+05 -4.752897E+02  5.306309E+03  3.154548E+04 -9.621482E+02 -4.874129E+02
       309   9  3.403676E+05  9.386848E+03  1.588025E+04  3.605472E+04 -4.208216E+03  1.658332E+03
       309  10  3.478115E+05  8.997907E+03  1.006036E+04  3.556549E+04 -2.081934E-09  2.372857E-09
       309  11  3.129316E+05  1.187530E+03  6.119263E+03  3.105396E+04  5.780094E-10  4.749593E-10
       309  12  2.786807E+05 -5.306504E+03  4.101458E+03  3.440322E+04  3.396306E-09  2.268482E-09
       309  13  3.095243E+05  5.661554E+01  3.631145E+03  3.523123E+04 -2.747823E-10  1.096462E-09
       309  14  3.091763E+05  3.561200E+02  5.712785E+03  3.129972E+04  1.397099E-10  1.961986E-09
       309  15  3.095237E+05  2.040195E+03  9.990858E+03  3.522895E+04  3.518920E-10 -6.179483E-10
       309  16  2.712386E+05 -8.884752E+03 -2.798117E+03  3.489700E+04  2.329012E-09  5.622702E-10
       309  17  3.054209E+05 -4.752902E+02  5.306307E+03  3.154548E+04 -1.147417E-09 -2.264006E-10
       309  18  3.403676E+05  9.386841E+03  1.588022E+04  3.605472E+04 -3.407677E-09 -2.668318E-09
       309  19  3.478116E+05  8.997926E+03  1.006045E+04  3.556550E+04  6.122396E+03  2.877227E+03
       309  20  3.129317E+05  1.187550E+03  6.119402E+03  3.105397E+04  8.581053E+03  4.962889E+02
       309  21  2.786808E+05 -5.306469E+03  4.101692E+03  3.440320E+04  1.103931E+04 -1.650377E+03
       309  22  3.095243E+05  5.662539E+01  3.631167E+03  3.523124E+04  1.919057E+03  2.872331E+03
       309  23  3.091763E+05  3.561263E+02  5.712828E+03  3.129972E+04  4.771590E+03  4.918524E+02
       309  24  3.095237E+05  2.040213E+03  9.990973E+03  3.522894E+04  7.623845E+03 -1.654350E+03
       309  25  2.712386E+05 -8.884742E+03 -2.798091E+03  3.489699E+04 -2.284032E+03  2.867438E+03
       309  26  3.054209E+05 -4.752897E+02  5.306309E+03  3.154548E+04  9.621482E+02  4.874129E+02
       309  27  3.403676E+05  9.386848E+03  1.588025E+04  3.605472E+04  4.208216E+03 -1.658332E+03
       310   1  2.575958E+05 -1.132919E+04  2.951368E+03  3.767682E+04 -1.309756E+04  3.013182E+03
       310   2  2.194982E+05 -1.148968E+04  5.640863E+03  1.896824E+04 -2.000056E+04  3.691669E+03
       310   3  1.884699E+05  1.310762E+04  1.900858E+04  7.905026E+03 -2.689987E+04  1.260453E+03
       310   4  3.111413E+05  1.383146E+03  1.301940E+04  3.518766E+04 -9.332423E+03  3.017600E+03
       310   5  3.071503E+05  9.639159E+03  2.349169E+04  3.134139E+04 -2.146304E+04  3.689556E+03
       310   6  3.111329E+05  4.355746E+04  4.827006E+04  3.514000E+04 -3.359051E+04  1.251680E+03
       310   7  3.646895E+05  1.409535E+04  2.308737E+04  3.269829E+04 -5.566968E+03  3.021987E+03
       310   8  3.948100E+05  3.076809E+04  4.134220E+04  4.371631E+04 -2.292572E+04  3.687385E+03
       310   9  4.338115E+05  7.400901E+04  7.753104E+04  6.238037E+04 -4.028247E+04  1.242322E+03
       310  10  2.575957E+05 -1.132924E+04  2.951029E+03  3.767685E+04  1.571679E-10  1.504900E-09
       310  11  2.194978E+05 -1.148980E+04  5.640086E+03  1.896830E+04  1.857291E-10 -1.107160E-09
       310  12  1.884691E+05  1.310743E+04  1.900722E+04  7.905053E+03 -5.398996E-10 -3.132220E-10
       310  13  3.111412E+05  1.383113E+03  1.301922E+04  3.518769E+04 -8.134375E-11  2.043821E-09
       310  14  3.071498E+05  9.639020E+03  2.349080E+04  3.134145E+04 -9.809096E-11 -2.855216E-09
       310  15  3.111317E+05  4.355715E+04  4.826793E+04  3.514003E+04  5.551650E-10  9.552247E-10
       310  16  3.646895E+05  1.409533E+04  2.308729E+04  3.269830E+04  2.933792E-10  4.483310E-10
       310  17  3.948094E+05  3.076794E+04  4.134118E+04  4.371638E+04 -3.339133E-10  4.937840E-10
       310  18  4.338098E+05  7.400857E+04  7.752799E+04  6.238041E+04  5.702493E-10 -1.348869E-10
       310  19  2.575958E+05 -1.132919E+04  2.951368E+03  3.767682E+04  1.309756E+04 -3.013182E+03
       310  20  2.194982E+05 -1.148968E+04  5.640863E+03  1.896824E+04  2.000056E+04 -3.691669E+03
       310  21  1.884699E+05  1.310762E+04  1.900858E+04  7.905026E+03  2.689987E+04 -1.260453E+03
       310  22  3.111413E+05  1.383146E+03  1.301940E+04  3.518766E+04  9.332423E+03 -3.017600E+03
       310  23  3.071503E+05  9.639159E+03  2.349169E+04  3.134139E+04  2.146304E+04 -3.689556E+03
       310  24  3.111329E+05  4.355746E+04  4.827006E+04  3.514000E+04  3.359051E+04 -1.251680E+03
       310  25  3.646895E+05  1.409535E+04  2.308737E+04  3.269829E+04  5.566968E+03 -3.021987E+03
       310  26  3.948100E+05  3.076809E+04  4.134220E+04  4.371631E+04  2.292572E+04 -3.687385E+03
       310  27  4.338115E+05  7.400901E+04  7.753104E+04  6.238037E+04  4.028247E+04 -1.242322E+03
       311   1 -2.049891E+05 -7.027616E+05 -2.122003E+05  1.510118E+05 -4.714402E+03 -1.042342E+05
       311   2 -9.993362E+04 -6.067278E+05 -1.213262E+05  1.062265E+05 -1.470552E+04 -5.776489E+04
       311   3 -5.930197E+04 -5.328029E+05 -7.682930E+04  8.006000E+04 -1.462857E+04 -1.127772E+04
       311   4 -1.041817E+05 -2.961147E+05 -1.156893E+05  8.576632E+04 -4.723801E+03 -7.908994E+04
       311   5 -2.300687E+04 -2.865137E+05 -5.734690E+04  7.649394E+04 -1.470848E+04 -4.951040E+04
       311   6 -3.305965E+03 -2.960828E+05 -3.363049E+04  8.584625E+04 -1.462215E+04 -1.992056E+04
       311   7 -3.369907E+03  1.106946E+05 -1.918528E+04  2.047786E+04 -4.738490E+03 -5.392927E+04
       311   8  5.391693E+04  3.380043E+04  6.627943E+03  4.674578E+04 -1.471223E+04 -4.125174E+04
       311   9  5.268704E+04 -5.930792E+04  9.566365E+03  9.163477E+04 -1.461589E+04 -2.856661E+04
       311  10 -2.049921E+05 -7.027732E+05 -2.122207E+05  1.510114E+05 -1.154241E-10 -9.419301E-10
       311  11 -9.993475E+04 -6.067315E+05 -1.213329E+05  1.062258E+05 -7.463805E-10  2.543225E-09
       311  12 -5.930223E+04 -5.328031E+05 -7.682994E+04  8.005987E+04 -4.662482E-10 -4.389979E-10
       311  13 -1.041834E+05 -2.961215E+05 -1.157011E+05  8.576602E+04  1.216049E-10 -1.772914E-09
       311  14 -2.300776E+04 -2.865164E+05 -5.735192E+04  7.649336E+04 -5.505694E-10 -1.472215E-10
       311  15 -3.306301E+03 -2.960833E+05 -3.363163E+04  8.584602E+04 -1.676883E-10 -7.242358E-10
       311  16 -3.370712E+03  1.106914E+05 -1.919079E+04  2.047765E+04 -1.717241E-10  7.062865E-10
       311  17  5.391624E+04  3.379854E+04  6.624339E+03  4.674529E+04  2.746780E-10 -4.278864E-10
       311  18  5.268659E+04 -5.930885E+04  9.564430E+03  9.163444E+04 -1.032555E-10 -9.674079E-10
       311  19 -2.049891E+05 -7.027616E+05 -2.122003E+05  1.510118E+05  4.714402E+03  1.042342E+05
       311  20 -9.993362E+04 -6.067278E+05 -1.213262E+05  1.062265E+05  1.470552E+04  5.776489E+04
       311  21 -5.930197E+04 -5.328029E+05 -7.682930E+04  8.006000E+04  1.462857E+04  1.127772E+04
       311  22 -1.041817E+05 -2.961147E+05 -1.156893E+05  8.576632E+04  4.723801E+03  7.908994E+04
       311  23 -2.300687E+04 -2.865137E+05 -5.734690E+04  7.649394E+04  1.470848E+04  4.951040E+04
       311  24 -3.305965E+03 -2.960828E+05 -3.363049E+04  8.584625E+04  1.462215E+04  1.992056E+04
       311  25 -3.369907E+03  1.106946E+05 -1.918528E+04  2.047786E+04  4.738490E+03  5.392927E+04
       311  26  5.391693E+04  3.380043E+04  6.627943E+03  4.674578E+04  1.471223E+04  4.125174E+04
       311  27  5.268704E+04 -5.930792E+04  9.566365E+03  9.163477E+04  1.461589E+04  2.856661E+04
       312   1 -4.752986E+04 -4.731480E+05 -6.002427E+04  8.840334E+04 -1.141723E+04 -7.783478E+03
       312   2 -2.369422E+04 -3.868446E+05 -3.643207E+04  7.661877E+04 -6.733620E+03  2.792756E+03
       312   3 -5.045418E+03 -3.031674E+05 -2.101536E+04  8.412725E+04 -1.653108E+03  1.337036E+04
       312   4 -4.812098E+03 -2.923790E+05 -2.730346E+04  8.598259E+04 -1.141180E+04 -1.532890E+04
       312   5 -1.225253E+03 -2.911175E+05 -1.985340E+04  7.633667E+04 -6.728047E+03 -5.417450E+03
       312   6 -2.708720E+03 -2.923730E+05 -2.011540E+04  8.598391E+04 -1.647363E+03  4.493998E+03
       312   7  3.790388E+04 -1.115781E+05  5.416288E+03  8.356111E+04 -1.140631E+04 -2.287646E+04
       312   8  2.124326E+04 -1.953813E+05 -3.274798E+03  7.605452E+04 -6.722467E+03 -1.362888E+04
       312   9 -3.719694E+02 -2.815783E+05 -1.921513E+04  8.784061E+04 -1.641672E+03 -4.382507E+03
       312  10 -4.753002E+04 -4.731481E+05 -6.002463E+04  8.840327E+04 -6.252483E-10 -1.549428E-09
       312  11 -2.369427E+04 -3.868446E+05 -3.643217E+04  7.661878E+04 -5.740373E-10  1.947841E-09
       312  12 -5.045469E+03 -3.031676E+05 -2.101570E+04  8.412726E+04 -3.662448E-10 -5.526344E-10
       312  13 -4.812301E+03 -2.923793E+05 -2.730414E+04  8.598244E+04 -3.572474E-10 -1.885648E-09
       312  14 -1.225310E+03 -2.911176E+05 -1.985354E+04  7.633664E+04 -3.471801E-10  4.165219E-10
       312  15 -2.708728E+03 -2.923731E+05 -2.011544E+04  8.598392E+04 -1.237637E-10 -1.230004E-09
       312  16  3.790360E+04 -1.115787E+05  5.415060E+03  8.356090E+04 -2.665357E-10  1.009270E-09
       312  17  2.124316E+04 -1.953815E+05 -3.275232E+03  7.605445E+04 -7.019423E-10 -4.705424E-10
       312  18 -3.719775E+02 -2.815783E+05 -1.921518E+04  8.784060E+04  1.569128E-10 -1.106694E-09
       312  19 -4.752986E+04 -4.731480E+05 -6.002427E+04  8.840334E+04  1.141723E+04  7.783478E+03
       312  20 -2.369422E+04 -3.868446E+05 -3.643207E+04  7.661877E+04  6.733620E+03 -2.792756E+03
       312  21 -5.045418E+03 -3.031674E+05 -2.101536E+04  8.412725E+04  1.653108E+03 -1.337036E+04
       312  22 -4.812098E+03 -2.923790E+05 -2.730346E+04  8.598259E+04  1.141180E+04  1.532890E+04
       312  23 -1.225253E+03 -2.911175E+05 -1.985340E+04  7.633667E+04  6.728047E+03  5.417450E+03
       312  24 -2.708720E+03 -2.923730E+05 -2.011540E+04  8.598391E+04  1.647363E+03 -4.493998E+03
       312  25  3.790388E+04 -1.115781E+05  5.416288E+03  8.356111E+04  1.140631E+04  2.287646E+04
       312  26  2.124326E+04 -1.953813E+05 -3.274798E+03  7.605452E+04  6.722467E+03  1.362888E+04
       312  27 -3.719694E+02 -2.815783E+05 -1.921513E+04  8.784061E+04  1.641672E+03  4.382507E+03
       313   1  8.908143E+03 -2.492613E+05 -1.307132E+04  8.898974E+04  1.767368E+03  1.721387E+04
       313   2  1.842550E+04 -1.596353E+05 -6.508374E+03  5.957122E+04  4.582093E+03  2.525323E+04
       313   3 -5.017105E+03 -7.924617E+04 -1.341033E+04  4.911718E+04  1.822685E+03  3.328897E+04
       313   4 -1.943164E+03 -2.942296E+05 -2.237102E+04  8.591707E+04  1.773360E+03  7.794275E+03
       313   5 -1.289755E+04 -2.888006E+05 -3.378380E+04  7.641313E+04  4.582890E+03  2.519240E+04
       313   6 -5.844245E+04 -2.942445E+05 -6.516510E+04  8.587604E+04  1.818268E+03  4.258556E+04
       313   7 -1.279452E+04 -3.391957E+05 -3.167049E+04  8.284462E+04  1.779445E+03 -1.624651E+03
       313   8 -4.422062E+04 -4.179495E+05 -6.106002E+04  9.325149E+04  4.583683E+03  2.513159E+04
       313   9 -1.118660E+05 -5.091975E+05 -1.169221E+05  1.226221E+05  1.814951E+03  5.187895E+04
       313  10  8.908060E+03 -2.492616E+05 -1.307188E+04  8.898972E+04  4.004310E-11 -9.954932E-10
       313  11  1.842531E+04 -1.596360E+05 -6.509612E+03  5.957113E+04  3.360892E-10  2.184882E-09
       313  12 -5.017407E+03 -7.924736E+04 -1.341242E+04  4.911713E+04  6.244085E-11 -7.443280E-10
       313  13 -1.943184E+03 -2.942296E+05 -2.237114E+04  8.591706E+04  2.218631E-10 -1.533562E-09
       313  14 -1.289774E+04 -2.888013E+05 -3.378503E+04  7.641304E+04  1.359758E-10  2.713992E-10
       313  15 -5.844294E+04 -2.942465E+05 -6.516852E+04  8.587598E+04  1.201999E-10 -9.045802E-10
       313  16 -1.279452E+04 -3.391957E+05 -3.167050E+04  8.284462E+04  6.029552E-10  2.794467E-10
       313  17 -4.422081E+04 -4.179502E+05 -6.106124E+04  9.325140E+04  2.872666E-10 -5.175108E-10
       313  18 -1.118668E+05 -5.092004E+05 -1.169272E+05  1.226221E+05 -2.989134E-10 -1.071069E-09
       313  19  8.908143E+03 -2.492613E+05 -1.307132E+04  8.898974E+04 -1.767368E+03 -1.721387E+04
       313  20  1.842550E+04 -1.596353E+05 -6.508374E+03  5.957122E+04 -4.582093E+03 -2.525323E+04
       313  21 -5.017105E+03 -7.924617E+04 -1.341033E+04  4.911718E+04 -1.822685E+03 -3.328897E+04
       313  22 -1.943164E+03 -2.942296E+05 -2.237102E+04  8.591707E+04 -1.773360E+03 -7.794275E+03
       313  23 -1.289755E+04 -2.888006E+05 -3.378380E+04  7.641313E+04 -4.582890E+03 -2.519240E+04
       313  24 -5.844245E+04 -2.942445E+05 -6.516510E+04  8.587604E+04 -1.818268E+03 -4.258556E+04
       313  25 -1.279452E+04 -3.391957E+05 -3.167049E+04  8.284462E+04 -1.779445E+03  1.624651E+03
       313  26 -4.422062E+04 -4.179495E+05 -6.106002E+04  9.325149E+04 -4.583683E+03 -2.513159E+04
       313  27 -1.118660E+05 -5.091975E+05 -1.169221E+05  1.226221E+05 -1.814951E+03 -5.187895E+04
       314   1  1.800723E+05  9.988441E+04  3.676786E+03  1.326066E+05  6.027778E+03  5.341284E+03
       314   2  1.869167E+05  9.416538E+04 -5.105722E+02  1.402990E+05  3.665520E+03  5.265906E+03
       314   3  2.005869E+05  9.237933E+04 -1.338017E+03  1.444220E+05  2.112587E+03  4.113615E+03
       314   4  2.286744E+05  1.191888E+05  1.657343E+04  1.496957E+05  8.759082E+03  7.393703E+03
       314   5  2.224535E+05  1.124007E+05  8.132826E+03  1.549571E+05  4.586654E+03  5.958056E+03
       314   6  2.234510E+05  1.099381E+05  4.623794E+03  1.566493E+05  1.223581E+03  3.445553E+03
       314   7  2.772782E+05  1.384932E+05  2.946971E+04  1.667856E+05  1.149064E+04  9.446181E+03
       314   8  2.579914E+05  1.306362E+05  1.677604E+04  1.696160E+05  5.507852E+03  6.650234E+03
       314   9  2.463158E+05  1.274973E+05  1.058556E+04  1.688772E+05  3.345328E+02  2.777455E+03
       314  10  1.800722E+05  9.988437E+04  3.676665E+03  1.326066E+05  1.123255E-10 -1.028556E-09
       314  11  1.869167E+05  9.416535E+04 -5.106496E+02  1.402989E+05  3.913181E-10 -1.677374E-09
       314  12  2.005868E+05  9.237931E+04 -1.338057E+03  1.444220E+05  3.140384E-10 -1.507768E-09
       314  13  2.286743E+05  1.191887E+05  1.657318E+04  1.496957E+05  3.960550E-10 -2.291173E-09
       314  14  2.224535E+05  1.124007E+05  8.132720E+03  1.549571E+05  7.844769E-10  1.141977E-09
       314  15  2.234510E+05  1.099381E+05  4.623769E+03  1.566493E+05  6.371093E-10 -9.002308E-10
       314  16  2.772781E+05  1.384930E+05  2.946930E+04  1.667855E+05 -1.110316E-10  9.011252E-10
       314  17  2.579913E+05  1.306362E+05  1.677590E+04  1.696159E+05  3.648492E-10  1.987869E-09
       314  18  2.463158E+05  1.274973E+05  1.058555E+04  1.688772E+05  5.150008E-10  1.312326E-10
       314  19  1.800723E+05  9.988441E+04  3.676786E+03  1.326066E+05 -6.027778E+03 -5.341284E+03
       314  20  1.869167E+05  9.416538E+04 -5.105722E+02  1.402990E+05 -3.665520E+03 -5.265906E+03
       314  21  2.005869E+05  9.237933E+04 -1.338017E+03  1.444220E+05 -2.112587E+03 -4.113615E+03
       314  22  2.286744E+05  1.191888E+05  1.657343E+04  1.496957E+05 -8.759082E+03 -7.393703E+03
       314  23  2.224535E+05  1.124007E+05  8.132826E+03  1.549571E+05 -4.586654E+03 -5.958056E+03
       314  24  2.234510E+05  1.099381E+05  4.623794E+03  1.566493E+05 -1.223581E+03 -3.445553E+03
       314  25  2.772782E+05  1.384932E+05  2.946971E+04  1.667856E+05 -1.149064E+04 -9.446181E+03
       314  26  2.579914E+05  1.306362E+05  1.677604E+04  1.696160E+05 -5.507852E+03 -6.650234E+03
       314  27  2.463158E+05  1.274973E+05  1.058556E+04  1.688772E+05 -3.345328E+02 -2.777455E+03
       315   1  2.044132E+05  9.707109E+04 -9.815004E+02  1.469819E+05  1.741234E+03  3.320982E+03
       315   2  2.109740E+05  1.032481E+05 -2.479961E+02  1.514801E+05  1.344321E+03  2.235128E+03
       315   3  2.202126E+05  1.074161E+05  1.225049E+03  1.551962E+05  1.018535E+03  1.054561E+03
       315   4  2.231985E+05  1.098641E+05  3.642955E+03  1.562720E+05  9.749202E+02  2.745116E+03
       315   5  2.217157E+05  1.106268E+05  2.346754E+03  1.568321E+05  4.188181E+02  1.539641E+03
       315   6  2.229449E+05  1.094148E+05  1.928218E+03  1.566100E+05 -6.613516E+01  2.394799E+02
       315   7  2.419844E+05  1.226575E+05  8.267501E+03  1.655626E+05  2.085614E+02  2.169216E+03
       315   8  2.324574E+05  1.180054E+05  4.941502E+03  1.621843E+05 -5.067065E+02  8.441383E+02
       315   9  2.256772E+05  1.114134E+05  2.631377E+03  1.580238E+05 -1.150793E+03 -5.755924E+02
       315  10  2.044132E+05  9.707108E+04 -9.815268E+02  1.469819E+05 -6.342505E-10 -1.688600E-09
       315  11  2.109740E+05  1.032481E+05 -2.480089E+02  1.514801E+05 -3.828769E-10 -1.339105E-12
       315  12  2.202126E+05  1.074161E+05  1.225045E+03  1.551962E+05 -3.260728E-11  9.800074E-10
       315  13  2.231985E+05  1.098641E+05  3.642939E+03  1.562720E+05  4.131975E-10 -4.855962E-10
       315  14  2.217157E+05  1.106268E+05  2.346749E+03  1.568321E+05  1.853675E-10 -1.069034E-09
       315  15  2.229449E+05  1.094148E+05  1.928218E+03  1.566100E+05  3.537126E-10  2.115917E-09
       315  16  2.419844E+05  1.226575E+05  8.267492E+03  1.655626E+05  1.015158E-09  1.213572E-09
       315  17  2.324574E+05  1.180054E+05  4.941500E+03  1.621843E+05  1.209334E-10  1.882406E-09
       315  18  2.256772E+05  1.114134E+05  2.631374E+03  1.580238E+05 -2.678694E-10 -6.713687E-10
       315  19  2.044132E+05  9.707109E+04 -9.815004E+02  1.469819E+05 -1.741234E+03 -3.320982E+03
       315  20  2.109740E+05  1.032481E+05 -2.479961E+02  1.514801E+05 -1.344321E+03 -2.235128E+03
       315  21  2.202126E+05  1.074161E+05  1.225049E+03  1.551962E+05 -1.018535E+03 -1.054561E+03
       315  22  2.231985E+05  1.098641E+05  3.642955E+03  1.562720E+05 -9.749202E+02 -2.745116E+03
       315  23  2.217157E+05  1.106268E+05  2.346754E+03  1.568321E+05 -4.188181E+02 -1.539641E+03
       315  24  2.229449E+05  1.094148E+05  1.928218E+03  1.566100E+05  6.613516E+01 -2.394799E+02
       315  25  2.419844E+05  1.226575E+05  8.267501E+03  1.655626E+05 -2.085614E+02 -2.169216E+03
       315  26  2.324574E+05  1.180054E+05  4.941502E+03  1.621843E+05  5.067065E+02 -8.441383E+02
       315  27  2.256772E+05  1.114134E+05  2.631377E+03  1.580238E+05  1.150793E+03  5.755924E+02
       316   1  2.252400E+05  1.111324E+05  2.504920E+03  1.578142E+05  1.017049E+03  4.617728E+02
       316   2  2.317822E+05  1.178533E+05  4.859851E+03  1.621403E+05  5.124572E+02 -9.151467E+02
       316   3  2.408726E+05  1.223507E+05  8.048501E+03  1.658077E+05  4.767186E+00 -2.287961E+03
       316   4  2.229379E+05  1.094119E+05  1.954557E+03  1.565977E+05 -5.811748E+01 -3.461643E+02
       316   5  2.216743E+05  1.105417E+05  2.468487E+03  1.569141E+05 -5.557807E+02 -1.717888E+03
       316   6  2.229574E+05  1.094464E+05  3.810124E+03  1.565717E+05 -1.056533E+03 -3.085503E+03
       316   7  2.206358E+05  1.076914E+05  1.404199E+03  1.553812E+05 -1.133279E+03 -1.154098E+03
       316   8  2.115665E+05  1.032301E+05  7.708820E+01  1.516880E+05 -1.624005E+03 -2.520620E+03
       316   9  2.050422E+05  9.654211E+04 -4.283824E+02  1.473358E+05 -2.117811E+03 -3.883029E+03
       316  10  2.252400E+05  1.111324E+05  2.504918E+03  1.578142E+05  1.717953E-09  3.075484E-09
       316  11  2.317822E+05  1.178533E+05  4.859849E+03  1.621403E+05  7.781025E-11  3.672129E-10
       316  12  2.408726E+05  1.223507E+05  8.048491E+03  1.658077E+05 -1.229367E-09  1.826472E-09
       316  13  2.229379E+05  1.094119E+05  1.954556E+03  1.565977E+05  2.492060E-10 -5.459765E-11
       316  14  2.216743E+05  1.105417E+05  2.468480E+03  1.569141E+05  7.236908E-10  1.709658E-10
       316  15  2.229574E+05  1.094464E+05  3.810104E+03  1.565717E+05 -1.701260E-11 -1.055548E-09
       316  16  2.206358E+05  1.076914E+05  1.404194E+03  1.553812E+05 -1.951119E-09 -9.881848E-10
       316  17  2.115665E+05  1.032301E+05  7.707132E+01  1.516880E+05 -9.658962E-11 -3.954638E-09
       316  18  2.050422E+05  9.654209E+04 -4.284192E+02  1.473358E+05  1.246527E-09  5.479935E-10
       316  19  2.252400E+05  1.111324E+05  2.504920E+03  1.578142E+05 -1.017049E+03 -4.617728E+02
       316  20  2.317822E+05  1.178533E+05  4.859851E+03  1.621403E+05 -5.124572E+02  9.151467E+02
       316  21  2.408726E+05  1.223507E+05  8.048501E+03  1.658077E+05 -4.767186E+00  2.287961E+03
       316  22  2.229379E+05  1.094119E+05  1.954557E+03  1.565977E+05  5.811748E+01  3.461643E+02
       316  23  2.216743E+05  1.105417E+05  2.468487E+03  1.569141E+05  5.557807E+02  1.717888E+03
       316  24  2.229574E+05  1.094464E+05  3.810124E+03  1.565717E+05  1.056533E+03  3.085503E+03
       316  25  2.206358E+05  1.076914E+05  1.404199E+03  1.553812E+05  1.133279E+03  1.154098E+03
       316  26  2.115665E+05  1.032301E+05  7.708820E+01  1.516880E+05  1.624005E+03  2.520620E+03
       316  27  2.050422E+05  9.654211E+04 -4.283824E+02  1.473358E+05  2.117811E+03  3.883029E+03
       317   1  2.457926E+05  1.263131E+05  1.037226E+04  1.686293E+05 -3.051567E+02 -3.109222E+03
       317   2  2.531042E+05  1.323568E+05  1.575320E+04  1.722285E+05 -3.437532E+03 -6.354655E+03
       317   3  2.642512E+05  1.377779E+05  2.455915E+04  1.746614E+05 -6.676450E+03 -9.458301E+03
       317   4  2.230517E+05  1.094716E+05  4.875763E+03  1.566988E+05 -1.381849E+03 -3.918340E+03
       317   5  2.217076E+05  1.107792E+05  8.327621E+03  1.565521E+05 -4.275709E+03 -6.984558E+03
       317   6  2.241472E+05  1.114126E+05  1.499766E+04  1.552391E+05 -7.276079E+03 -9.908977E+03
       317   7  2.003118E+05  9.263073E+04 -6.206111E+02  1.447690E+05 -2.458470E+03 -4.727402E+03
       317   8  1.903124E+05  8.920231E+04  9.020897E+02  1.408767E+05 -5.113822E+03 -7.614414E+03
       317   9  1.840452E+05  8.504810E+04  5.436072E+03  1.358183E+05 -7.875656E+03 -1.035962E+04
       317  10  2.457926E+05  1.263131E+05  1.037224E+04  1.686293E+05  2.654650E-09  5.222980E-10
       317  11  2.531042E+05  1.323568E+05  1.575310E+04  1.722285E+05  1.291322E-09 -5.104440E-10
       317  12  2.642511E+05  1.377778E+05  2.455890E+04  1.746613E+05  7.595922E-10 -1.510183E-09
       317  13  2.230517E+05  1.094715E+05  4.875730E+03  1.566988E+05  3.283186E-10  5.875055E-10
       317  14  2.217076E+05  1.107791E+05  8.327495E+03  1.565520E+05  1.038564E-09  1.095604E-09
       317  15  2.241471E+05  1.114125E+05  1.499738E+04  1.552391E+05  1.088426E-09  4.925444E-10
       317  16  2.003118E+05  9.263070E+04 -6.206644E+02  1.447690E+05 -2.618203E-09 -1.934673E-09
       317  17  1.903124E+05  8.920224E+04  9.019316E+02  1.408767E+05 -4.966364E-10 -5.070127E-10
       317  18  1.840451E+05  8.504797E+04  5.435753E+03  1.358182E+05  5.810900E-10  1.880328E-09
       317  19  2.457926E+05  1.263131E+05  1.037226E+04  1.686293E+05  3.051567E+02  3.109222E+03
       317  20  2.531042E+05  1.323568E+05  1.575320E+04  1.722285E+05  3.437532E+03  6.354655E+03
       317  21  2.642512E+05  1.377779E+05  2.455915E+04  1.746614E+05  6.676450E+03  9.458301E+03
       317  22  2.230517E+05  1.094716E+05  4.875763E+03  1.566988E+05  1.381849E+03  3.918340E+03
       317  23  2.217076E+05  1.107792E+05  8.327621E+03  1.565521E+05  4.275709E+03  6.984558E+03
       317  24  2.241472E+05  1.114126E+05  1.499766E+04  1.552391E+05  7.276079E+03  9.908977E+03
       317  25  2.003118E+05  9.263073E+04 -6.206111E+02  1.447690E+05  2.458470E+03  4.727402E+03
       317  26  1.903124E+05  8.920231E+04  9.020897E+02  1.408767E+05  5.113822E+03  7.614414E+03
       317  27  1.840452E+05  8.504810E+04  5.436072E+03  1.358183E+05  7.875656E+03  1.035962E+04
       318   1  2.657811E+05  1.466122E+05  3.060417E+04  1.803723E+05 -8.318215E+03 -1.116369E+04
       318   2  2.947552E+05  1.374717E+05  4.972351E+04  1.692344E+05 -2.599100E+04 -2.391885E+04
       318   3  3.484071E+05  1.559850E+05  9.292361E+04  1.445444E+05 -4.486987E+04 -3.507081E+04
       318   4  2.253354E+05  1.116906E+05  1.965945E+04  1.569123E+05 -9.100388E+03 -1.175143E+04
       318   5  2.248644E+05  1.186547E+05  3.567065E+04  1.482782E+05 -2.407766E+04 -2.248228E+04
       318   6  2.484856E+05  1.526891E+05  7.342386E+04  1.260923E+05 -4.025940E+04 -3.161059E+04
       318   7  1.848910E+05  7.676986E+04  8.714323E+03  1.334538E+05 -9.882507E+03 -1.233912E+04
       318   8  1.549796E+05  9.983824E+04  2.161776E+04  1.273236E+05 -2.216462E+04 -2.104576E+04
       318   9  1.485797E+05  1.493954E+05  5.392504E+04  1.076410E+05 -3.565008E+04 -2.815027E+04
       318  10  2.657810E+05  1.466121E+05  3.060380E+04  1.803723E+05  1.537237E-09 -2.607268E-09
       318  11  2.947543E+05  1.374709E+05  4.972116E+04  1.692339E+05  5.164103E-10  5.495026E-10
       318  12  3.484046E+05  1.559831E+05  9.291752E+04  1.445431E+05 -7.984615E-10 -1.017178E-09
       318  13  2.253353E+05  1.116904E+05  1.965903E+04  1.569122E+05  9.118952E-10 -1.259353E-09
       318  14  2.248636E+05  1.186540E+05  3.566861E+04  1.482778E+05  5.086727E-10  5.555930E-09
       318  15  2.484836E+05  1.526876E+05  7.341894E+04  1.260913E+05 -1.402131E-10 -3.100329E-09
       318  16  1.848908E+05  7.676967E+04  8.713853E+03  1.334537E+05 -2.389930E-10 -6.226251E-10
       318  17  1.549790E+05  9.983764E+04  2.161601E+04  1.273233E+05  9.681015E-10 -2.531790E-10
       318  18  1.485781E+05  1.493942E+05  5.392116E+04  1.076402E+05  1.141125E-09  2.266838E-10
       318  19  2.657811E+05  1.466122E+05  3.060417E+04  1.803723E+05  8.318215E+03  1.116369E+04
       318  20  2.947552E+05  1.374717E+05  4.972351E+04  1.692344E+05  2.599100E+04  2.391885E+04
       318  21  3.484071E+05  1.559850E+05  9.292361E+04  1.445444E+05  4.486987E+04  3.507081E+04
       318  22  2.253354E+05  1.116906E+05  1.965945E+04  1.569123E+05  9.100388E+03  1.175143E+04
       318  23  2.248644E+05  1.186547E+05  3.567065E+04  1.482782E+05  2.407766E+04  2.248228E+04
       318  24  2.484856E+05  1.526891E+05  7.342386E+04  1.260923E+05  4.025940E+04  3.161059E+04
       318  25  1.848910E+05  7.676986E+04  8.714323E+03  1.334538E+05  9.882507E+03  1.233912E+04
       318  26  1.549796E+05  9.983824E+04  2.161776E+04  1.273236E+05  2.216462E+04  2.104576E+04
       318  27  1.485797E+05  1.493954E+05  5.392504E+04  1.076410E+05  3.565008E+04  2.815027E+04
       319   1  2.557442E+05  4.181446E+04  4.068460E+04  3.088802E+04  1.314243E+04 -1.812567E+03
       319   2  2.272293E+05  3.028038E+04  2.682797E+04  2.627224E+04  5.584837E+03 -5.718137E+03
       319   3  2.006469E+05  2.259662E+04  1.885257E+04  2.767014E+04 -1.976330E+03 -5.932839E+03
       319   4  1.058262E+05  4.734230E+03  5.209812E+03  2.783144E+04  3.491748E+03 -1.823496E+03
       319   5  1.053996E+05  1.077121E+03  2.636838E+03  2.482719E+04  2.137193E+03 -5.722179E+03
       319   6  1.058286E+05  1.941499E+02  1.638833E+03  2.783660E+04  7.786945E+02 -5.929702E+03
       319   7 -4.407095E+04 -3.234753E+04 -3.026618E+04  2.477559E+04 -6.156615E+03 -1.834331E+03
       319   8 -1.641588E+04 -2.812703E+04 -2.155499E+04  2.338242E+04 -1.309789E+03 -5.726205E+03
       319   9  1.101897E+04 -2.220883E+04 -1.557523E+04  2.800302E+04  3.533310E+03 -5.926563E+03
       319  10  2.557440E+05  4.181441E+04  4.068427E+04  3.088804E+04 -3.711293E-09  1.828737E-10
       319  11  2.272293E+05  3.028034E+04  2.682785E+04  2.627227E+04 -4.026279E-10  2.857512E-09
       319  12  2.006469E+05  2.259658E+04  1.885250E+04  2.767013E+04  1.138564E-09  1.508329E-09
       319  13  1.058262E+05  4.734223E+03  5.209783E+03  2.783144E+04 -3.503220E-10 -1.695490E-09
       319  14  1.053996E+05  1.077085E+03  2.636768E+03  2.482720E+04 -1.076755E-10 -2.787306E-09
       319  15  1.058286E+05  1.941120E+02  1.638766E+03  2.783660E+04  4.155792E-10  9.606512E-10
       319  16 -4.407099E+04 -3.234755E+04 -3.026626E+04  2.477558E+04  3.721237E-09  3.278144E-10
       319  17 -1.641589E+04 -2.812707E+04 -2.155505E+04  2.338241E+04  1.700702E-10  2.571805E-09
       319  18  1.101895E+04 -2.220887E+04 -1.557532E+04  2.800304E+04 -1.041799E-09  7.472052E-10
       319  19  2.557442E+05  4.181446E+04  4.068460E+04  3.088802E+04 -1.314243E+04  1.812567E+03
       319  20  2.272293E+05  3.028038E+04  2.682797E+04  2.627224E+04 -5.584837E+03  5.718137E+03
       319  21  2.006469E+05  2.259662E+04  1.885257E+04  2.767014E+04  1.976330E+03  5.932839E+03
       319  22  1.058262E+05  4.734230E+03  5.209812E+03  2.783144E+04 -3.491748E+03  1.823496E+03
       319  23  1.053996E+05  1.077121E+03  2.636838E+03  2.482719E+04 -2.137193E+03  5.722179E+03
       319  24  1.058286E+05  1.941499E+02  1.638833E+03  2.783660E+04 -7.786945E+02  5.929702E+03
       319  25 -4.407095E+04 -3.234753E+04 -3.026618E+04  2.477559E+04  6.156615E+03  1.834331E+03
       319  26 -1.641588E+04 -2.812703E+04 -2.155499E+04  2.338242E+04  1.309789E+03  5.726205E+03
       319  27  1.101897E+04 -2.220883E+04 -1.557523E+04  2.800302E+04 -3.533310E+03  5.926563E+03
       320   1  1.823506E+05  1.835898E+04  1.520499E+04  2.807386E+04 -1.793849E+03 -4.907481E+03
       320   2  1.547329E+05  1.161477E+04  9.804513E+03  2.487688E+04 -2.904411E+03 -3.366220E+03
       320   3  1.273136E+05  5.152122E+03  5.192757E+03  2.793175E+04 -4.015314E+03 -1.520985E+03
       320   4  1.056632E+05  2.629180E+02  1.401481E+03  2.788882E+04  5.428079E+02 -4.904784E+03
       320   5  1.056093E+05  7.105151E+01  1.203442E+03  2.476299E+04 -5.698219E+01 -3.362875E+03
       320   6  1.056641E+05  7.203113E+01  1.439388E+03  2.788905E+04 -6.571678E+02 -1.516978E+03
       320   7  2.898146E+04 -1.783347E+04 -1.240223E+04  2.770381E+04  2.879184E+03 -4.902089E+03
       320   8  5.648808E+04 -1.147279E+04 -7.397686E+03  2.464912E+04  2.790228E+03 -3.359531E+03
       320   9  8.401503E+04 -5.008079E+03 -2.313956E+03  2.784634E+04  2.700865E+03 -1.512971E+03
       320  10  1.823506E+05  1.835895E+04  1.520494E+04  2.807385E+04  5.282154E-09  4.101505E-10
       320  11  1.547329E+05  1.161475E+04  9.804476E+03  2.487687E+04 -8.564835E-09  2.034966E-09
       320  12  1.273136E+05  5.152115E+03  5.192723E+03  2.793175E+04 -2.161070E-08  2.025404E-09
       320  13  1.056632E+05  2.628921E+02  1.401435E+03  2.788882E+04 -2.139316E-10  3.795049E-09
       320  14  1.056093E+05  7.103937E+01  1.203420E+03  2.476299E+04 -1.126425E-10 -5.876034E-09
       320  15  1.056641E+05  7.202855E+01  1.439383E+03  2.788905E+04  4.911579E-10  2.558842E-09
       320  16  2.898144E+04 -1.783350E+04 -1.240229E+04  2.770382E+04 -5.223058E-09 -1.443610E-09
       320  17  5.648806E+04 -1.147281E+04 -7.397722E+03  2.464913E+04  8.167294E-09 -2.298895E-09
       320  18  8.401502E+04 -5.008084E+03 -2.313974E+03  2.784634E+04  2.178676E-08  7.874506E-10
       320  19  1.823506E+05  1.835898E+04  1.520499E+04  2.807386E+04  1.793849E+03  4.907481E+03
       320  20  1.547329E+05  1.161477E+04  9.804513E+03  2.487688E+04  2.904411E+03  3.366220E+03
       320  21  1.273136E+05  5.152122E+03  5.192757E+03  2.793175E+04  4.015314E+03  1.520985E+03
       320  22  1.056632E+05  2.629180E+02  1.401481E+03  2.788882E+04 -5.428079E+02  4.904784E+03
       320  23  1.056093E+05  7.105151E+01  1.203442E+03  2.476299E+04  5.698219E+01  3.362875E+03
       320  24  1.056641E+05  7.203113E+01  1.439388E+03  2.788905E+04  6.571678E+02  1.516978E+03
       320  25  2.898146E+04 -1.783347E+04 -1.240223E+04  2.770381E+04 -2.879184E+03  4.902089E+03
       320  26  5.648808E+04 -1.147279E+04 -7.397686E+03  2.464912E+04 -2.790228E+03  3.359531E+03
       320  27  8.401503E+04 -5.008079E+03 -2.313956E+03  2.784634E+04 -2.700865E+03  1.512971E+03
       321   1  1.093890E+05  9.012706E+02  2.272600E+03  2.803786E+04 -4.286264E+03 -3.358631E+02
       321   2  8.174639E+04 -5.419280E+03 -1.546441E+03  2.462241E+04 -5.229485E+03  1.534636E+03
       321   3  5.435769E+04 -1.114495E+04 -4.607790E+03  2.746194E+04 -6.172375E+03  3.158221E+03
       321   4  1.057124E+05  5.412826E+01  1.715174E+03  2.788987E+04 -9.341812E+02 -3.318536E+02
       321   5  1.055493E+05  1.941374E+02  2.718379E+03  2.476183E+04 -2.292354E+03  1.538122E+03
       321   6  1.057118E+05  1.001170E+03  4.767447E+03  2.788875E+04 -3.650241E+03  3.161189E+03
       321   7  1.020357E+05 -7.930086E+02  1.157791E+03  2.774188E+04  2.417883E+03 -3.278456E+02
       321   8  1.293528E+05  5.807528E+03  6.983211E+03  2.490126E+04  6.448862E+02  1.541609E+03
       321   9  1.570685E+05  1.314714E+04  1.414260E+04  2.831559E+04 -1.127905E+03  3.164160E+03
       321  10  1.093890E+05  9.012655E+02  2.272565E+03  2.803786E+04  2.952397E-08 -2.412209E-09
       321  11  8.174636E+04 -5.419290E+03 -1.546497E+03  2.462242E+04  1.725165E-09 -1.632688E-09
       321  12  5.435764E+04 -1.114497E+04 -4.607880E+03  2.746195E+04 -2.705537E-08 -2.296496E-09
       321  13  1.057124E+05  5.412791E+01  1.715173E+03  2.788987E+04 -3.004952E-10 -3.818137E-10
       321  14  1.055493E+05  1.941334E+02  2.718365E+03  2.476183E+04  1.168930E-10 -2.715165E-09
       321  15  1.057118E+05  1.001156E+03  4.767403E+03  2.788876E+04  3.639663E-10 -3.385869E-09
       321  16  1.020357E+05 -7.930103E+02  1.157780E+03  2.774188E+04 -2.951127E-08 -1.132082E-09
       321  17  1.293528E+05  5.807525E+03  6.983206E+03  2.490126E+04 -1.892746E-09 -2.930634E-10
       321  18  1.570685E+05  1.314713E+04  1.414258E+04  2.831560E+04  2.718828E-08  7.685674E-10
       321  19  1.093890E+05  9.012706E+02  2.272600E+03  2.803786E+04  4.286264E+03  3.358631E+02
       321  20  8.174639E+04 -5.419280E+03 -1.546441E+03  2.462241E+04  5.229485E+03 -1.534636E+03
       321  21  5.435769E+04 -1.114495E+04 -4.607790E+03  2.746194E+04  6.172375E+03 -3.158221E+03
       321  22  1.057124E+05  5.412826E+01  1.715174E+03  2.788987E+04  9.341812E+02  3.318536E+02
       321  23  1.055493E+05  1.941374E+02  2.718379E+03  2.476183E+04  2.292354E+03 -1.538122E+03
       321  24  1.057118E+05  1.001170E+03  4.767447E+03  2.788875E+04  3.650241E+03 -3.161189E+03
       321  25  1.020357E+05 -7.930086E+02  1.157791E+03  2.774188E+04 -2.417883E+03  3.278456E+02
       321  26  1.293528E+05  5.807528E+03  6.983211E+03  2.490126E+04 -6.448862E+02 -1.541609E+03
       321  27  1.570685E+05  1.314714E+04  1.414260E+04  2.831559E+04  1.127905E+03 -3.164160E+03
       322   1  3.702973E+04 -1.574921E+04 -6.529045E+03  2.899678E+04 -7.338317E+03  4.212112E+03
       322   2  8.052397E+03 -1.856183E+04 -8.120835E+03  1.885126E+04 -7.922431E+03  4.371044E+03
       322   3 -1.802189E+04 -1.000771E+04 -6.493837E+03  1.475402E+04 -8.503086E+03  1.428955E+03
       322   4  1.064849E+05  6.864544E+02  6.216108E+03  2.784601E+04 -4.465885E+03  4.215477E+03
       322   5  1.045806E+05  4.627571E+03  1.122222E+04  2.481043E+04 -1.026042E+04  4.368201E+03
       322   6  1.064822E+05  2.083875E+04  2.306464E+04  2.782281E+04 -1.605156E+04  1.420111E+03
       322   7  1.759448E+05  1.712186E+04  1.896109E+04  2.669511E+04 -1.593139E+03  4.218831E+03
       322   8  2.011177E+05  2.781654E+04  3.056484E+04  3.077054E+04 -1.259876E+04  4.365314E+03
       322   9  2.310010E+05  5.168477E+04  5.262234E+04  4.089423E+04 -2.360154E+04  1.410951E+03
       322  10  3.702966E+04 -1.574925E+04 -6.529179E+03  2.899681E+04  2.964206E-08 -4.913571E-09
       322  11  8.052325E+03 -1.856187E+04 -8.120989E+03  1.885129E+04  1.024003E-08 -2.027579E-09
       322  12 -1.802197E+04 -1.000773E+04 -6.493977E+03  1.475403E+04 -1.047171E-08 -6.885739E-10
       322  13  1.064849E+05  6.864299E+02  6.216037E+03  2.784603E+04 -3.480594E-10 -1.841875E-09
       322  14  1.045804E+05  4.627522E+03  1.122199E+04  2.481046E+04  1.338214E-11 -4.986749E-09
       322  15  1.064819E+05  2.083868E+04  2.306415E+04  2.782283E+04  3.224887E-10 -2.637027E-09
       322  16  1.759448E+05  1.712184E+04  1.896106E+04  2.669511E+04 -2.966814E-08 -6.815138E-10
       322  17  2.011175E+05  2.781647E+04  3.056451E+04  3.077058E+04 -1.052422E-08 -5.578069E-10
       322  18  2.310004E+05  5.168461E+04  5.262129E+04  4.089426E+04  1.064447E-08 -5.252722E-10
       322  19  3.702973E+04 -1.574921E+04 -6.529045E+03  2.899678E+04  7.338317E+03 -4.212112E+03
       322  20  8.052397E+03 -1.856183E+04 -8.120835E+03  1.885126E+04  7.922431E+03 -4.371044E+03
       322  21 -1.802189E+04 -1.000771E+04 -6.493837E+03  1.475402E+04  8.503086E+03 -1.428955E+03
       322  22  1.064849E+05  6.864544E+02  6.216108E+03  2.784601E+04  4.465885E+03 -4.215477E+03
       322  23  1.045806E+05  4.627571E+03  1.122222E+04  2.481043E+04  1.026042E+04 -4.368201E+03
       322  24  1.064822E+05  2.083875E+04  2.306464E+04  2.782281E+04  1.605156E+04 -1.420111E+03
       322  25  1.759448E+05  1.712186E+04  1.896109E+04  2.669511E+04  1.593139E+03 -4.218831E+03
       322  26  2.011177E+05  2.781654E+04  3.056484E+04  3.077054E+04  1.259876E+04 -4.365314E+03
       322  27  2.310010E+05  5.168477E+04  5.262234E+04  4.089423E+04  2.360154E+04 -1.410951E+03
       323   1 -1.291874E+05 -5.255955E+05 -1.343065E+05  9.864622E+04 -2.735996E+03 -6.661547E+04
       323   2 -6.029519E+04 -4.635131E+05 -7.578341E+04  6.918119E+04 -8.467105E+03 -3.678599E+04
       323   3 -3.381922E+04 -4.158871E+05 -4.729263E+04  5.176628E+04 -8.150693E+03 -6.946607E+03
       323   4 -6.885069E+04 -2.823337E+05 -7.649914E+04  5.548350E+04 -2.745483E+03 -5.196956E+04
       323   5 -1.520500E+04 -2.759798E+05 -3.816724E+04  4.948905E+04 -8.469961E+03 -3.228970E+04
       323   6 -2.206678E+03 -2.823180E+05 -2.280993E+04  5.554735E+04 -8.145497E+03 -1.260308E+04
       323   7 -8.511157E+03 -3.901311E+04 -1.869416E+04  1.230377E+04 -2.757007E+03 -3.731793E+04
       323   8  2.988449E+04 -8.841214E+04 -5.525796E+02  2.979084E+04 -8.473102E+03 -2.779208E+04
       323   9  2.940492E+04 -1.487314E+05  1.672173E+03  5.932927E+04 -8.140371E+03 -1.826074E+04
       323  10 -1.291886E+05 -5.256003E+05 -1.343148E+05  9.864607E+04 -2.690985E-10  2.924268E-11
       323  11 -6.029563E+04 -4.635146E+05 -7.578609E+04  6.918094E+04  2.382377E-10  1.206179E-09
       323  12 -3.381931E+04 -4.158871E+05 -4.729285E+04  5.176623E+04  9.623231E-10 -1.043289E-09
       323  13 -6.885142E+04 -2.823366E+05 -7.650424E+04  5.548338E+04  2.208831E-10 -5.111778E-10
       323  14 -1.520535E+04 -2.759810E+05 -3.816934E+04  4.948883E+04 -2.464003E-10  2.612481E-10
       323  15 -2.206792E+03 -2.823182E+05 -2.281035E+04  5.554727E+04  7.006327E-10 -4.815663E-10
       323  16 -8.511539E+03 -3.901460E+04 -1.869679E+04  1.230369E+04  1.953423E-10 -1.031277E-09
       323  17  2.988420E+04 -8.841299E+04 -5.541662E+02  2.979065E+04  9.291214E-10 -1.413003E-09
       323  18  2.940476E+04 -1.487318E+05  1.671422E+03  5.932915E+04 -9.371655E-10  3.370903E-11
       323  19 -1.291874E+05 -5.255955E+05 -1.343065E+05  9.864622E+04  2.735996E+03  6.661547E+04
       323  20 -6.029519E+04 -4.635131E+05 -7.578341E+04  6.918119E+04  8.467105E+03  3.678599E+04
       323  21 -3.381922E+04 -4.158871E+05 -4.729263E+04  5.176628E+04  8.150693E+03  6.946607E+03
       323  22 -6.885069E+04 -2.823337E+05 -7.649914E+04  5.548350E+04  2.745483E+03  5.196956E+04
       323  23 -1.520500E+04 -2.759798E+05 -3.816724E+04  4.948905E+04  8.469961E+03  3.228970E+04
       323  24 -2.206678E+03 -2.823180E+05 -2.280993E+04  5.554735E+04  8.145497E+03  1.260308E+04
       323  25 -8.511157E+03 -3.901311E+04 -1.869416E+04  1.230377E+04  2.757007E+03  3.731793E+04
       323  26  2.988449E+04 -8.841214E+04 -5.525796E+02  2.979084E+04  8.473102E+03  2.779208E+04
       323  27  2.940492E+04 -1.487314E+05  1.672173E+03  5.932927E+04  8.140371E+03  1.826074E+04
       324   1 -2.624305E+04 -3.773708E+05 -3.659082E+04  5.732242E+04 -6.057413E+03 -4.443100E+03
       324   2 -1.089980E+04 -3.215553E+05 -2.194628E+04  4.952226E+04 -2.996352E+03  3.128551E+03
       324   3  6.680195E+02 -2.676357E+05 -1.316907E+04  5.417640E+04  2.411967E+02  1.070091E+04
       324   4 -3.190120E+03 -2.799073E+05 -1.884415E+04  5.562736E+04 -6.052880E+03 -9.447297E+03
       324   5 -9.076165E+02 -2.789827E+05 -1.457359E+04  4.940053E+04 -2.991648E+03 -2.171477E+03
       324   6 -2.348783E+03 -2.799055E+05 -1.596428E+04  5.562807E+04  2.460992E+02  5.104424E+03
       324   7  1.986229E+04 -1.824344E+05 -1.097777E+03  5.393203E+04 -6.048319E+03 -1.445226E+04
       324   8  9.084484E+03 -2.364084E+05 -7.200850E+03  4.927879E+04 -2.986941E+03 -7.471856E+03
       324   9 -5.365571E+03 -2.921751E+05 -1.875938E+04  5.707972E+04  2.509756E+02 -4.919570E+02
       324  10 -2.624309E+04 -3.773709E+05 -3.659092E+04  5.732240E+04  8.724942E-10 -2.972742E-10
       324  11 -1.089981E+04 -3.215553E+05 -2.194632E+04  4.952227E+04  2.967679E-10  1.638780E-09
       324  12  6.679886E+02 -2.676358E+05 -1.316929E+04  5.417639E+04  9.068297E-10 -4.104823E-10
       324  13 -3.190183E+03 -2.799074E+05 -1.884439E+04  5.562731E+04  4.071847E-11 -1.083138E-09
       324  14 -9.076274E+02 -2.789827E+05 -1.457361E+04  4.940052E+04 -3.180099E-11 -1.602773E-09
       324  15 -2.348790E+03 -2.799055E+05 -1.596433E+04  5.562807E+04  2.069600E-11 -4.262665E-10
       324  16  1.986220E+04 -1.824346E+05 -1.098238E+03  5.393195E+04 -9.532966E-10 -1.164003E-09
       324  17  9.084460E+03 -2.364084E+05 -7.200971E+03  4.927877E+04 -7.751030E-10 -2.356188E-09
       324  18 -5.365571E+03 -2.921751E+05 -1.875938E+04  5.707972E+04 -8.585307E-10  1.097495E-10
       324  19 -2.624305E+04 -3.773708E+05 -3.659082E+04  5.732242E+04  6.057413E+03  4.443100E+03
       324  20 -1.089980E+04 -3.215553E+05 -2.194628E+04  4.952226E+04  2.996352E+03 -3.128551E+03
       324  21  6.680195E+02 -2.676357E+05 -1.316907E+04  5.417640E+04 -2.411967E+02 -1.070091E+04
       324  22 -3.190120E+03 -2.799073E+05 -1.884415E+04  5.562736E+04  6.052880E+03  9.447297E+03
       324  23 -9.076165E+02 -2.789827E+05 -1.457359E+04  4.940053E+04  2.991648E+03  2.171477E+03
       324  24 -2.348783E+03 -2.799055E+05 -1.596428E+04  5.562807E+04 -2.460992E+02 -5.104424E+03
       324  25  1.986229E+04 -1.824344E+05 -1.097777E+03  5.393203E+04  6.048319E+03  1.445226E+04
       324  26  9.084484E+03 -2.364084E+05 -7.200850E+03  4.927879E+04  2.986941E+03  7.471856E+03
       324  27 -5.365571E+03 -2.921751E+05 -1.875938E+04  5.707972E+04 -2.509756E+02  4.919570E+02
       325   1  9.873948E+03 -2.332851E+05 -8.891235E+03  5.828940E+04  2.427143E+03  1.374545E+04
       325   2  1.365163E+04 -1.743309E+05 -7.433076E+03  3.494119E+04  3.968163E+03  2.174872E+04
       325   3 -1.126183E+04 -1.235565E+05 -1.835159E+04  2.379617E+04  1.459393E+03  2.974858E+04
       325   4 -1.662683E+03 -2.815761E+05 -1.829874E+04  5.557877E+04  2.432349E+03  7.742808E+03
       325   5 -1.115770E+04 -2.768983E+05 -2.872658E+04  4.945392E+04  3.968004E+03  2.254555E+04
       325   6 -5.052843E+04 -2.815864E+05 -5.625603E+04  5.553339E+04  1.454006E+03  3.734399E+04
       325   7 -1.319941E+04 -3.298649E+05 -2.770621E+04  5.286835E+04  2.437608E+03  1.740620E+03
       325   8 -3.596691E+04 -3.794552E+05 -5.002054E+04  6.396421E+04  3.967882E+03  2.334225E+04
       325   9 -8.979303E+04 -4.395911E+05 -9.416147E+04  8.726251E+04  1.449395E+03  4.493747E+04
       325  10  9.873891E+03 -2.332853E+05 -8.891602E+03  5.828938E+04  6.603854E-10 -1.334329E-10
       325  11  1.365149E+04 -1.743314E+05 -7.433995E+03  3.494112E+04 -5.090704E-12  1.583278E-09
       325  12 -1.126207E+04 -1.235574E+05 -1.835326E+04  2.379614E+04 -2.365832E-10 -4.438732E-10
       325  13 -1.662706E+03 -2.815762E+05 -1.829886E+04  5.557875E+04  1.721238E-10 -5.160992E-10
       325  14 -1.115785E+04 -2.768988E+05 -2.872756E+04  4.945384E+04  8.510525E-11 -8.077692E-10
       325  15 -5.052880E+04 -2.815879E+05 -5.625865E+04  5.553335E+04  6.248762E-11  3.531946E-10
       325  16 -1.319942E+04 -3.298649E+05 -2.770623E+04  5.286835E+04 -1.109741E-09 -8.329331E-10
       325  17 -3.596708E+04 -3.794558E+05 -5.002159E+04  6.396413E+04  3.864100E-10 -1.740051E-09
       325  18 -8.979358E+04 -4.395932E+05 -9.416527E+04  8.726245E+04 -3.835065E-12 -1.600273E-10
       325  19  9.873948E+03 -2.332851E+05 -8.891235E+03  5.828940E+04 -2.427143E+03 -1.374545E+04
       325  20  1.365163E+04 -1.743309E+05 -7.433076E+03  3.494119E+04 -3.968163E+03 -2.174872E+04
       325  21 -1.126183E+04 -1.235565E+05 -1.835159E+04  2.379617E+04 -1.459393E+03 -2.974858E+04
       325  22 -1.662683E+03 -2.815761E+05 -1.829874E+04  5.557877E+04 -2.432349E+03 -7.742808E+03
       325  23 -1.115770E+04 -2.768983E+05 -2.872658E+04  4.945392E+04 -3.968004E+03 -2.254555E+04
       325  24 -5.052843E+04 -2.815864E+05 -5.625603E+04  5.553339E+04 -1.454006E+03 -3.734399E+04
       325  25 -1.319941E+04 -3.298649E+05 -2.770621E+04  5.286835E+04 -2.437608E+03 -1.740620E+03
       325  26 -3.596691E+04 -3.794552E+05 -5.002054E+04  6.396421E+04 -3.967882E+03 -2.334225E+04
       325  27 -8.979303E+04 -4.395911E+05 -9.416147E+04  8.726251E+04 -1.449395E+03 -4.493747E+04
       326   1  9.671731E+04  7.183804E+04  1.494994E+04  7.120619E+04  1.038049E+04  8.283963E+03
       326   2  9.944488E+04  5.777162E+04  5.736625E+03  7.760859E+04  6.416333E+03  6.364042E+03
       326   3  1.094658E+05  5.135633E+04  2.213370E+03  7.986410E+04  2.893578E+03  3.856732E+03
       326   4  1.305811E+05  7.556845E+04  2.206386E+04  7.865876E+04  1.201262E+04  9.510422E+03
       326   5  1.233483E+05  6.547700E+04  1.076390E+04  8.536213E+04  7.061174E+03  6.848631E+03
       326   6  1.236229E+05  6.325080E+04  6.011241E+03  8.791863E+04  2.551210E+03  3.599397E+03
       326   7  1.644468E+05  7.929909E+04  2.917793E+04  8.611159E+04  1.364490E+04  1.073689E+04
       326   8  1.472528E+05  7.318258E+04  1.579126E+04  9.311602E+04  7.706060E+03  7.333236E+03
       326   9  1.377804E+05  7.514563E+04  9.809177E+03  9.597351E+04  2.208827E+03  3.342048E+03
       326  10  9.671717E+04  7.183793E+04  1.494960E+04  7.120612E+04 -3.018699E-09 -7.930427E-10
       326  11  9.944482E+04  5.777156E+04  5.736472E+03  7.760855E+04 -1.336457E-09  1.716775E-10
       326  12  1.094658E+05  5.135631E+04  2.213326E+03  7.986410E+04  2.635738E-09  3.876914E-09
       326  13  1.305809E+05  7.556831E+04  2.206342E+04  7.865867E+04 -4.126360E-10 -7.738167E-11
       326  14  1.233482E+05  6.547694E+04  1.076372E+04  8.536209E+04 -4.630569E-10 -1.786420E-12
       326  15  1.236229E+05  6.325078E+04  6.011205E+03  8.791863E+04  3.983168E-10 -2.067119E-09
       326  16  1.644466E+05  7.929892E+04  2.917736E+04  8.611148E+04  1.994826E-09  2.334016E-09
       326  17  1.472527E+05  7.318250E+04  1.579105E+04  9.311597E+04 -8.163529E-10 -1.089389E-09
       326  18  1.377804E+05  7.514562E+04  9.809147E+03  9.597351E+04 -2.278180E-09 -4.881057E-09
       326  19  9.671731E+04  7.183804E+04  1.494994E+04  7.120619E+04 -1.038049E+04 -8.283963E+03
       326  20  9.944488E+04  5.777162E+04  5.736625E+03  7.760859E+04 -6.416333E+03 -6.364042E+03
       326  21  1.094658E+05  5.135633E+04  2.213370E+03  7.986410E+04 -2.893578E+03 -3.856732E+03
       326  22  1.305811E+05  7.556845E+04  2.206386E+04  7.865876E+04 -1.201262E+04 -9.510422E+03
       326  23  1.233483E+05  6.547700E+04  1.076390E+04  8.536213E+04 -7.061174E+03 -6.848631E+03
       326  24  1.236229E+05  6.325080E+04  6.011241E+03  8.791863E+04 -2.551210E+03 -3.599397E+03
       326  25  1.644468E+05  7.929909E+04  2.917793E+04  8.611159E+04 -1.364490E+04 -1.073689E+04
       326  26  1.472528E+05  7.318258E+04  1.579126E+04  9.311602E+04 -7.706060E+03 -7.333236E+03
       326  27  1.377804E+05  7.514563E+04  9.809177E+03  9.597351E+04 -2.208827E+03 -3.342048E+03
       327   1  1.098150E+05  5.426993E+04  1.422183E+03  8.088062E+04  2.290051E+03  3.200140E+03
       327   2  1.124555E+05  5.630851E+04  4.086974E+02  8.290595E+04  1.418913E+03  2.248160E+03
       327   3  1.165017E+05  5.785777E+04  3.710417E+02  8.450840E+04  5.867727E+02  1.244319E+03
       327   4  1.232699E+05  6.316611E+04  4.650426E+03  8.741757E+04  2.014580E+03  2.993076E+03
       327   5  1.223910E+05  6.310646E+04  2.763026E+03  8.785064E+04  1.056250E+03  1.975566E+03
       327   6  1.229368E+05  6.257646E+04  1.927198E+03  8.786085E+04  1.369192E+02  9.061949E+02
       327   7  1.367248E+05  7.206221E+04  7.878573E+03  9.395456E+04  1.739106E+03  2.786011E+03
       327   8  1.323265E+05  6.990441E+04  5.117316E+03  9.279537E+04  6.935838E+02  1.702970E+03
       327   9  1.293720E+05  6.729518E+04  3.483351E+03  9.121334E+04 -3.129402E+02  5.680660E+02
       327  10  1.098150E+05  5.426992E+04  1.422154E+03  8.088062E+04  7.635065E-11  5.267934E-10
       327  11  1.124555E+05  5.630850E+04  4.086841E+02  8.290595E+04 -2.616875E-10  8.062463E-10
       327  12  1.165017E+05  5.785777E+04  3.710381E+02  8.450840E+04 -7.567406E-10  7.461512E-10
       327  13  1.232699E+05  6.316610E+04  4.650401E+03  8.741756E+04  1.143185E-09  1.761757E-09
       327  14  1.223910E+05  6.310646E+04  2.763016E+03  8.785064E+04  1.028998E-09  2.367040E-09
       327  15  1.229368E+05  6.257646E+04  1.927196E+03  8.786085E+04  4.570522E-10  1.334127E-09
       327  16  1.367248E+05  7.206220E+04  7.878553E+03  9.395455E+04  1.136173E-09 -3.141159E-09
       327  17  1.323265E+05  6.990440E+04  5.117310E+03  9.279537E+04  1.851348E-09  2.614279E-09
       327  18  1.293720E+05  6.729518E+04  3.483350E+03  9.121334E+04  2.982663E-10 -2.395618E-09
       327  19  1.098150E+05  5.426993E+04  1.422183E+03  8.088062E+04 -2.290051E+03 -3.200140E+03
       327  20  1.124555E+05  5.630851E+04  4.086974E+02  8.290595E+04 -1.418913E+03 -2.248160E+03
       327  21  1.165017E+05  5.785777E+04  3.710417E+02  8.450840E+04 -5.867727E+02 -1.244319E+03
       327  22  1.232699E+05  6.316611E+04  4.650426E+03  8.741757E+04 -2.014580E+03 -2.993076E+03
       327  23  1.223910E+05  6.310646E+04  2.763026E+03  8.785064E+04 -1.056250E+03 -1.975566E+03
       327  24  1.229368E+05  6.257646E+04  1.927198E+03  8.786085E+04 -1.369192E+02 -9.061949E+02
       327  25  1.367248E+05  7.206221E+04  7.878573E+03  9.395456E+04 -1.739106E+03 -2.786011E+03
       327  26  1.323265E+05  6.990441E+04  5.117316E+03  9.279537E+04 -6.935838E+02 -1.702970E+03
       327  27  1.293720E+05  6.729518E+04  3.483351E+03  9.121334E+04  3.129402E+02 -5.680660E+02
       328   1  1.185119E+05  5.947067E+04  7.234048E+02  8.559544E+04  4.391292E+02  8.875967E+02
       328   2  1.211958E+05  6.226388E+04  1.545530E+03  8.739867E+04 -7.698498E+01  8.546500E+01
       328   3  1.249947E+05  6.417750E+04  2.973686E+03  8.893684E+04 -5.927742E+02 -7.171365E+02
       328   4  1.229161E+05  6.257076E+04  1.756047E+03  8.783186E+04 -5.232367E+00  5.536000E+02
       328   5  1.223624E+05  6.301716E+04  1.809125E+03  8.795939E+04 -5.221232E+02 -2.491168E+02
       328   6  1.229237E+05  6.258410E+04  2.468882E+03  8.782183E+04 -1.038673E+03 -1.052288E+03
       328   7  1.273204E+05  6.567092E+04  2.788716E+03  9.006834E+04 -4.496059E+02  2.195944E+02
       328   8  1.235289E+05  6.377044E+04  2.072721E+03  8.852011E+04 -9.672625E+02 -5.836994E+02
       328   9  1.208527E+05  6.099073E+04  1.964092E+03  8.670684E+04 -1.484563E+03 -1.387432E+03
       328  10  1.185119E+05  5.947067E+04  7.234029E+02  8.559544E+04 -1.263515E-09  7.037878E-10
       328  11  1.211958E+05  6.226388E+04  1.545530E+03  8.739867E+04  1.228937E-10  3.620539E-09
       328  12  1.249947E+05  6.417750E+04  2.973684E+03  8.893684E+04  3.289014E-09  2.049006E-09
       328  13  1.229161E+05  6.257076E+04  1.756046E+03  8.783186E+04 -4.130619E-10 -6.234446E-10
       328  14  1.223624E+05  6.301716E+04  1.809124E+03  8.795939E+04 -3.107972E-10  2.099263E-09
       328  15  1.229237E+05  6.258410E+04  2.468878E+03  8.782183E+04  2.900141E-10  3.527613E-10
       328  16  1.273204E+05  6.567092E+04  2.788715E+03  9.006834E+04  3.629621E-10  2.545698E-11
       328  17  1.235289E+05  6.377044E+04  2.072718E+03  8.852011E+04 -1.329268E-09  2.263108E-10
       328  18  1.208527E+05  6.099072E+04  1.964084E+03  8.670684E+04 -2.759095E-09 -2.272322E-10
       328  19  1.185119E+05  5.947067E+04  7.234048E+02  8.559544E+04 -4.391292E+02 -8.875967E+02
       328  20  1.211958E+05  6.226388E+04  1.545530E+03  8.739867E+04  7.698498E+01 -8.546500E+01
       328  21  1.249947E+05  6.417750E+04  2.973686E+03  8.893684E+04  5.927742E+02  7.171365E+02
       328  22  1.229161E+05  6.257076E+04  1.756047E+03  8.783186E+04  5.232367E+00 -5.536000E+02
       328  23  1.223624E+05  6.301716E+04  1.809125E+03  8.795939E+04  5.221232E+02  2.491168E+02
       328  24  1.229237E+05  6.258410E+04  2.468882E+03  8.782183E+04  1.038673E+03  1.052288E+03
       328  25  1.273204E+05  6.567092E+04  2.788716E+03  9.006834E+04  4.496059E+02 -2.195944E+02
       328  26  1.235289E+05  6.377044E+04  2.072721E+03  8.852011E+04  9.672625E+02  5.836994E+02
       328  27  1.208527E+05  6.099073E+04  1.964092E+03  8.670684E+04  1.484563E+03  1.387432E+03
       329   1  1.269977E+05  6.589206E+04  4.087433E+03  9.014958E+04 -8.573350E+02 -1.162110E+03
       329   2  1.301562E+05  6.829005E+04  6.882616E+03  9.151884E+04 -2.769976E+03 -2.982965E+03
       329   3  1.351697E+05  7.073286E+04  1.169678E+04  9.231723E+04 -4.717729E+03 -4.757155E+03
       329   4  1.229783E+05  6.259811E+04  3.059561E+03  8.789486E+04 -1.308078E+03 -1.500902E+03
       329   5  1.223877E+05  6.316564E+04  5.060722E+03  8.774318E+04 -3.142231E+03 -3.262767E+03
       329   6  1.236352E+05  6.376094E+04  9.012706E+03  8.702061E+04 -5.011495E+03 -4.977975E+03
       329   7  1.189589E+05  5.930418E+04  2.031689E+03  8.564016E+04 -1.758818E+03 -1.839689E+03
       329   8  1.146193E+05  5.804120E+04  3.238801E+03  8.396753E+04 -3.514482E+03 -3.542568E+03
       329   9  1.121006E+05  5.678894E+04  6.328560E+03  8.172400E+04 -5.305259E+03 -5.198794E+03
       329  10  1.269977E+05  6.589206E+04  4.087429E+03  9.014958E+04 -2.287936E-09 -1.705307E-09
       329  11  1.301562E+05  6.829004E+04  6.882585E+03  9.151883E+04 -1.443076E-09  4.899953E-09
       329  12  1.351697E+05  7.073283E+04  1.169669E+04  9.231721E+04  4.347684E-10  5.415061E-09
       329  13  1.229783E+05  6.259811E+04  3.059554E+03  8.789486E+04  6.664636E-10 -8.868925E-10
       329  14  1.223877E+05  6.316562E+04  5.060684E+03  8.774317E+04 -6.649964E-10 -4.671283E-09
       329  15  1.236351E+05  6.376090E+04  9.012612E+03  8.702059E+04 -1.392641E-09  1.875673E-09
       329  16  1.189589E+05  5.930418E+04  2.031677E+03  8.564016E+04  2.666079E-09 -9.529250E-10
       329  17  1.146193E+05  5.804118E+04  3.238754E+03  8.396752E+04 -7.693979E-10 -5.359146E-09
       329  18  1.121005E+05  5.678890E+04  6.328456E+03  8.172398E+04 -2.670912E-09 -5.496052E-09
       329  19  1.269977E+05  6.589206E+04  4.087433E+03  9.014958E+04  8.573350E+02  1.162110E+03
       329  20  1.301562E+05  6.829005E+04  6.882616E+03  9.151884E+04  2.769976E+03  2.982965E+03
       329  21  1.351697E+05  7.073286E+04  1.169678E+04  9.231723E+04  4.717729E+03  4.757155E+03
       329  22  1.229783E+05  6.259811E+04  3.059561E+03  8.789486E+04  1.308078E+03  1.500902E+03
       329  23  1.223877E+05  6.316564E+04  5.060722E+03  8.774318E+04  3.142231E+03  3.262767E+03
       329  24  1.236352E+05  6.376094E+04  9.012706E+03  8.702061E+04  5.011495E+03  4.977975E+03
       329  25  1.189589E+05  5.930418E+04  2.031689E+03  8.564016E+04  1.758818E+03  1.839689E+03
       329  26  1.146193E+05  5.804120E+04  3.238801E+03  8.396753E+04  3.514482E+03  3.542568E+03
       329  27  1.121006E+05  5.678894E+04  6.328560E+03  8.172400E+04  5.305259E+03  5.198794E+03
       330   1  1.351386E+05  7.533486E+04  1.503645E+04  9.525062E+04 -5.789241E+03 -5.770205E+03
       330   2  1.512601E+05  6.865704E+04  2.577503E+04  8.787000E+04 -1.552997E+04 -1.300689E+04
       330   3  1.815875E+05  7.875597E+04  5.029287E+04  7.250055E+04 -2.566882E+04 -1.971369E+04
       330   4  1.243517E+05  6.391961E+04  1.178764E+04  8.801836E+04 -6.143290E+03 -6.036291E+03
       330   5  1.242698E+05  6.788546E+04  2.134365E+04  8.279813E+04 -1.499392E+04 -1.260443E+04
       330   6  1.382004E+05  8.843460E+04  4.390620E+04  6.958917E+04 -2.424237E+04 -1.864310E+04
       330   7  1.135652E+05  5.250476E+04  8.538905E+03  8.078640E+04 -6.497326E+03 -6.302362E+03
       330   8  9.728084E+04  6.711404E+04  1.691236E+04  7.772633E+04 -1.445791E+04 -1.220197E+04
       330   9  9.481644E+04  9.811434E+04  3.751983E+04  6.667738E+04 -2.281606E+04 -1.757245E+04
       330  10  1.351385E+05  7.533481E+04  1.503632E+04  9.525060E+04  1.515836E-09  5.762152E-09
       330  11  1.512598E+05  6.865679E+04  2.577426E+04  8.786984E+04  7.517118E-10  3.838638E-09
       330  12  1.815867E+05  7.875538E+04  5.029090E+04  7.250014E+04  5.066045E-11  1.400125E-09
       330  13  1.243516E+05  6.391956E+04  1.178750E+04  8.801833E+04 -1.969458E-10 -4.802271E-09
       330  14  1.242696E+05  6.788523E+04  2.134293E+04  8.279797E+04  6.917395E-10  4.388889E-10
       330  15  1.381997E+05  8.843407E+04  4.390445E+04  6.958881E+04 -2.878671E-10  5.410595E-10
       330  16  1.135651E+05  5.250471E+04  8.538751E+03  8.078637E+04 -2.686217E-09 -3.261006E-09
       330  17  9.728058E+04  6.711383E+04  1.691169E+04  7.772619E+04 -7.176437E-10 -5.034759E-09
       330  18  9.481580E+04  9.811387E+04  3.751827E+04  6.667705E+04  1.459913E-10 -3.280250E-09
       330  19  1.351386E+05  7.533486E+04  1.503645E+04  9.525062E+04  5.789241E+03  5.770205E+03
       330  20  1.512601E+05  6.865704E+04  2.577503E+04  8.787000E+04  1.552997E+04  1.300689E+04
       330  21  1.815875E+05  7.875597E+04  5.029287E+04  7.250055E+04  2.566882E+04  1.971369E+04
       330  22  1.243517E+05  6.391961E+04  1.178764E+04  8.801836E+04  6.143290E+03  6.036291E+03
       330  23  1.242698E+05  6.788546E+04  2.134365E+04  8.279813E+04  1.499392E+04  1.260443E+04
       330  24  1.382004E+05  8.843460E+04  4.390620E+04  6.958917E+04  2.424237E+04  1.864310E+04
       330  25  1.135652E+05  5.250476E+04  8.538905E+03  8.078640E+04  6.497326E+03  6.302362E+03
       330  26  9.728084E+04  6.711404E+04  1.691236E+04  7.772633E+04  1.445791E+04  1.220197E+04
       330  27  9.481644E+04  9.811434E+04  3.751983E+04  6.667738E+04  2.281606E+04  1.757245E+04
       331   1  7.781557E+04  1.906363E+04  1.879217E+04  1.632556E+04  6.380699E+03 -7.178525E+02
       331   2  6.327629E+04  1.247230E+04  1.171786E+04  1.360004E+04  2.738102E+03 -2.202091E+03
       331   3  4.983079E+04  8.389883E+03  7.641459E+03  1.395118E+04 -9.060668E+02 -2.119578E+03
       331   4  1.492876E+04  3.495265E+03  3.863084E+03  1.410050E+04  2.577476E+03 -7.221401E+02
       331   5  1.461075E+04  7.860080E+02  1.963394E+03  1.256407E+04  1.567410E+03 -2.203430E+03
       331   6  1.492922E+04  1.287310E+02  1.233656E+03  1.410428E+04  5.556449E+02 -2.117925E+03
       331   7 -4.795438E+04 -1.207336E+04 -1.106622E+04  1.187566E+04 -1.225364E+03 -7.264007E+02
       331   8 -3.405253E+04 -1.090043E+04 -7.791189E+03  1.152819E+04  3.968081E+02 -2.204764E+03
       331   9 -1.997117E+04 -8.132489E+03 -5.174188E+03  1.425737E+04  2.017277E+03 -2.116271E+03
       331  10  7.781553E+04  1.906362E+04  1.879209E+04  1.632557E+04 -4.504511E-09  6.865512E-10
       331  11  6.327628E+04  1.247230E+04  1.171784E+04  1.360004E+04  9.921160E-09 -1.067430E-09
       331  12  4.983079E+04  8.389878E+03  7.641449E+03  1.395118E+04  2.205712E-08  8.635707E-10
       331  13  1.492875E+04  3.495263E+03  3.863070E+03  1.410050E+04 -2.536742E-10  2.560939E-09
       331  14  1.461074E+04  7.860022E+02  1.963380E+03  1.256407E+04  1.819822E-10  1.911707E-10
       331  15  1.492922E+04  1.287261E+02  1.233647E+03  1.410428E+04  4.687624E-10  6.871974E-10
       331  16 -4.795438E+04 -1.207336E+04 -1.106623E+04  1.187566E+04  4.680633E-09  5.544745E-10
       331  17 -3.405253E+04 -1.090043E+04 -7.791199E+03  1.152819E+04 -1.032434E-08 -2.565924E-09
       331  18 -1.997117E+04 -8.132495E+03 -5.174205E+03  1.425737E+04 -2.187965E-08 -2.468485E-10
       331  19  7.781557E+04  1.906363E+04  1.879217E+04  1.632556E+04 -6.380699E+03  7.178525E+02
       331  20  6.327629E+04  1.247230E+04  1.171786E+04  1.360004E+04 -2.738102E+03  2.202091E+03
       331  21  4.983079E+04  8.389883E+03  7.641459E+03  1.395118E+04  9.060668E+02  2.119578E+03
       331  22  1.492876E+04  3.495265E+03  3.863084E+03  1.410050E+04 -2.577476E+03  7.221401E+02
       331  23  1.461075E+04  7.860080E+02  1.963394E+03  1.256407E+04 -1.567410E+03  2.203430E+03
       331  24  1.492922E+04  1.287310E+02  1.233656E+03  1.410428E+04 -5.556449E+02  2.117925E+03
       331  25 -4.795438E+04 -1.207336E+04 -1.106622E+04  1.187566E+04  1.225364E+03  7.264007E+02
       331  26 -3.405253E+04 -1.090043E+04 -7.791189E+03  1.152819E+04 -3.968081E+02  2.204764E+03
       331  27 -1.997117E+04 -8.132489E+03 -5.174188E+03  1.425737E+04 -2.017277E+03  2.116271E+03
       332   1  4.051152E+04  6.259084E+03  5.760665E+03  1.423804E+04 -9.076183E+02 -1.582835E+03
       332   2  2.646721E+04  2.798338E+03  3.039320E+03  1.260269E+04 -1.584409E+03 -7.566625E+02
       332   3  1.254659E+04 -4.842205E+02  8.006991E+02  1.414628E+04 -2.261340E+03  1.940845E+02
       332   4  1.480730E+04  1.789712E+02  1.064857E+03  1.412649E+04  3.770454E+02 -1.581375E+03
       332   5  1.476366E+04  3.747345E+01  9.390877E+02  1.253710E+04 -9.044408E+01 -7.549574E+02
       332   6  1.480741E+04  3.789358E+01  1.150762E+03  1.412665E+04 -5.580864E+02  1.960355E+02
       332   7 -1.089627E+04 -5.901178E+03 -3.630971E+03  1.401493E+04  1.661657E+03 -1.579915E+03
       332   8  3.060259E+03 -2.723397E+03 -1.161142E+03  1.247150E+04  1.403493E+03 -7.532526E+02
       332   9  1.706824E+04  5.600089E+02  1.500835E+03  1.410701E+04  1.145174E+03  1.979865E+02
       332  10  4.051152E+04  6.259081E+03  5.760659E+03  1.423804E+04 -2.582980E-08  1.133703E-09
       332  11  2.646720E+04  2.798336E+03  3.039314E+03  1.260269E+04 -8.839581E-09 -1.175128E-09
       332  12  1.254659E+04 -4.842219E+02  8.006895E+02  1.414628E+04  8.773818E-09 -1.771389E-09
       332  13  1.480730E+04  1.789685E+02  1.064852E+03  1.412649E+04 -2.404802E-10  1.161528E-09
       332  14  1.476366E+04  3.747283E+01  9.390866E+02  1.253710E+04  1.831942E-10  1.746951E-09
       332  15  1.480741E+04  3.789345E+01  1.150761E+03  1.412665E+04  4.015305E-10  6.641528E-10
       332  16 -1.089627E+04 -5.901181E+03 -3.630981E+03  1.401494E+04  2.610116E-08  4.705865E-09
       332  17  3.060257E+03 -2.723398E+03 -1.161146E+03  1.247150E+04  8.554747E-09 -2.029356E-09
       332  18  1.706824E+04  5.600085E+02  1.500833E+03  1.410701E+04 -8.637360E-09  8.419789E-10
       332  19  4.051152E+04  6.259084E+03  5.760665E+03  1.423804E+04  9.076183E+02  1.582835E+03
       332  20  2.646721E+04  2.798338E+03  3.039320E+03  1.260269E+04  1.584409E+03  7.566625E+02
       332  21  1.254659E+04 -4.842205E+02  8.006991E+02  1.414628E+04  2.261340E+03 -1.940845E+02
       332  22  1.480730E+04  1.789712E+02  1.064857E+03  1.412649E+04 -3.770454E+02  1.581375E+03
       332  23  1.476366E+04  3.747345E+01  9.390877E+02  1.253710E+04  9.044408E+01  7.549574E+02
       332  24  1.480741E+04  3.789358E+01  1.150762E+03  1.412665E+04  5.580864E+02 -1.960355E+02
       332  25 -1.089627E+04 -5.901178E+03 -3.630971E+03  1.401493E+04 -1.661657E+03  1.579915E+03
       332  26  3.060259E+03 -2.723397E+03 -1.161142E+03  1.247150E+04 -1.403493E+03  7.532526E+02
       332  27  1.706824E+04  5.600089E+02  1.500835E+03  1.410701E+04 -1.145174E+03 -1.979865E+02
       333   1  3.454357E+03 -2.650492E+03 -5.920825E+02  1.423564E+04 -2.486479E+03  7.962751E+02
       333   2 -1.064001E+04 -5.818501E+03 -2.228098E+03  1.241981E+04 -3.328911E+03  1.733387E+03
       333   3 -2.450974E+04 -8.492051E+03 -3.194460E+03  1.378086E+04 -4.171137E+03  2.515112E+03
       333   4  1.484791E+04  2.273387E+01  1.382162E+03  1.412630E+04 -7.800239E+02  7.982277E+02
       333   5  1.471292E+04  1.400165E+02  2.210126E+03  1.253743E+04 -1.883563E+03  1.735027E+03
       333   6  1.484767E+04  7.970782E+02  3.889027E+03  1.412542E+04 -2.986914E+03  2.516440E+03
       333   7  2.624159E+04  2.695954E+03  3.356413E+03  1.401696E+04  9.264621E+02  8.001797E+02
       333   8  4.006648E+04  6.098501E+03  6.648334E+03  1.265505E+04 -4.381574E+02  1.736666E+03
       333   9  5.420659E+04  1.008612E+04  1.097246E+04  1.446999E+04 -1.802619E+03  2.517770E+03
       333  10  3.454350E+03 -2.650494E+03 -5.920953E+02  1.423564E+04  2.162357E-09 -1.405144E-09
       333  11 -1.064002E+04 -5.818507E+03 -2.228125E+03  1.241982E+04  1.657413E-11  8.464201E-10
       333  12 -2.450976E+04 -8.492063E+03 -3.194505E+03  1.378087E+04 -2.340883E-09 -9.732531E-10
       333  13  1.484791E+04  2.273302E+01  1.382160E+03  1.412630E+04 -3.436566E-10 -5.723249E-09
       333  14  1.471291E+04  1.400123E+02  2.210113E+03  1.253743E+04  6.415234E-11 -8.332351E-10
       333  15  1.484766E+04  7.970690E+02  3.888998E+03  1.412542E+04  4.165060E-10 -1.617029E-10
       333  16  2.624159E+04  2.695953E+03  3.356410E+03  1.401696E+04 -2.089134E-09 -1.816171E-09
       333  17  4.006648E+04  6.098497E+03  6.648328E+03  1.265505E+04 -4.658676E-10 -5.230797E-09
       333  18  5.420658E+04  1.008611E+04  1.097244E+04  1.447000E+04  2.446140E-09  2.009706E-09
       333  19  3.454357E+03 -2.650492E+03 -5.920825E+02  1.423564E+04  2.486479E+03 -7.962751E+02
       333  20 -1.064001E+04 -5.818501E+03 -2.228098E+03  1.241981E+04  3.328911E+03 -1.733387E+03
       333  21 -2.450974E+04 -8.492051E+03 -3.194460E+03  1.378086E+04  4.171137E+03 -2.515112E+03
       333  22  1.484791E+04  2.273387E+01  1.382162E+03  1.412630E+04  7.800239E+02 -7.982277E+02
       333  23  1.471292E+04  1.400165E+02  2.210126E+03  1.253743E+04  1.883563E+03 -1.735027E+03
       333  24  1.484767E+04  7.970782E+02  3.889027E+03  1.412542E+04  2.986914E+03 -2.516440E+03
       333  25  2.624159E+04  2.695954E+03  3.356413E+03  1.401696E+04 -9.264621E+02 -8.001797E+02
       333  26  4.006648E+04  6.098501E+03  6.648334E+03  1.265505E+04  4.381574E+02 -1.736666E+03
       333  27  5.420659E+04  1.008612E+04  1.097246E+04  1.446999E+04  1.802619E+03 -2.517770E+03
       334   1 -3.309239E+04 -1.093521E+04 -3.742944E+03  1.504907E+04 -5.049551E+03  3.034629E+03
       334   2 -4.835854E+04 -1.118003E+04 -3.201686E+03  7.713951E+03 -6.615754E+03  2.922639E+03
       334   3 -6.106013E+04 -1.953381E+03  7.257843E+02  3.427784E+03 -8.179840E+03  9.257693E+02
       334   4  1.547949E+04  5.400914E+02  5.074197E+03  1.409955E+04 -3.651827E+03  3.036197E+03
       334   5  1.392238E+04  3.762999E+03  9.166840E+03  1.256600E+04 -8.384851E+03  2.920587E+03
       334   6  1.547883E+04  1.700645E+04  1.884455E+04  1.408119E+04 -1.311577E+04  9.201530E+02
       334   7  6.405366E+04  1.201527E+04  1.389125E+04  1.314996E+04 -2.253996E+03  3.037760E+03
       334   8  7.620706E+04  1.870588E+04  2.153520E+04  1.741854E+04 -1.015412E+04  2.918506E+03
       334   9  9.202346E+04  3.596629E+04  3.696306E+04  2.473592E+04 -1.805231E+04  9.143675E+02
       334  10 -3.309242E+04 -1.093523E+04 -3.743009E+03  1.504908E+04  1.344220E-09 -1.072417E-09
       334  11 -4.835859E+04 -1.118005E+04 -3.201785E+03  7.713967E+03  2.137844E-09  2.345452E-11
       334  12 -6.106020E+04 -1.953400E+03  7.256570E+02  3.427790E+03  1.535564E-09  2.401736E-09
       334  13  1.547947E+04  5.400779E+02  5.074154E+03  1.409956E+04 -2.675131E-10  1.350409E-09
       334  14  1.392230E+04  3.762971E+03  9.166692E+03  1.256602E+04  1.467573E-10 -9.205246E-10
       334  15  1.547864E+04  1.700640E+04  1.884423E+04  1.408120E+04  3.914121E-10  1.969616E-09
       334  16  6.405365E+04  1.201525E+04  1.389122E+04  1.314996E+04 -1.162578E-09  2.576505E-09
       334  17  7.620695E+04  1.870584E+04  2.153499E+04  1.741856E+04 -2.430579E-09  2.370941E-09
       334  18  9.202311E+04  3.596620E+04  3.696245E+04  2.473593E+04 -1.477347E-09 -1.701844E-10
       334  19 -3.309239E+04 -1.093521E+04 -3.742944E+03  1.504907E+04  5.049551E+03 -3.034629E+03
       334  20 -4.835854E+04 -1.118003E+04 -3.201686E+03  7.713951E+03  6.615754E+03 -2.922639E+03
       334  21 -6.106013E+04 -1.953381E+03  7.257843E+02  3.427784E+03  8.179840E+03 -9.257693E+02
       334  22  1.547949E+04  5.400914E+02  5.074197E+03  1.409955E+04  3.651827E+03 -3.036197E+03
       334  23  1.392238E+04  3.762999E+03  9.166840E+03  1.256600E+04  8.384851E+03 -2.920587E+03
       334  24  1.547883E+04  1.700645E+04  1.884455E+04  1.408119E+04  1.311577E+04 -9.201530E+02
       334  25  6.405366E+04  1.201527E+04  1.389125E+04  1.314996E+04  2.253996E+03 -3.037760E+03
       334  26  7.620706E+04  1.870588E+04  2.153520E+04  1.741854E+04  1.015412E+04 -2.918506E+03
       334  27  9.202346E+04  3.596629E+04  3.696306E+04  2.473592E+04  1.805231E+04 -9.143675E+02
       335   1 -7.637224E+04 -3.590040E+05 -7.907951E+04  6.112224E+04 -1.691554E+03 -3.778800E+04
       335   2 -3.643638E+04 -3.182935E+05 -4.477909E+04  4.404807E+04 -5.180045E+03 -2.034138E+04
       335   3 -2.024342E+04 -2.857685E+05 -2.777531E+04  3.503563E+04 -4.841853E+03 -2.889171E+03
       335   4 -3.831440E+04 -2.055569E+05 -4.258365E+04  3.707147E+04 -1.699345E+03 -2.874869E+04
       335   5 -8.468823E+03 -2.020188E+05 -2.138353E+04  3.305904E+04 -5.182247E+03 -1.772663E+04
       335   6 -1.248262E+03 -2.055504E+05 -1.301491E+04  3.710937E+04 -4.838059E+03 -6.700227E+03
       335   7 -2.560474E+02 -5.208671E+04 -6.088836E+03  1.301472E+04 -1.707836E+03 -1.970714E+04
       335   8  1.949836E+04 -8.573097E+04  2.011430E+03  2.206792E+04 -5.184541E+03 -1.511140E+04
       335   9  1.774655E+04 -1.253260E+05  1.745272E+03  3.918338E+04 -4.834291E+03 -1.051176E+04
       335  10 -7.637262E+04 -3.590055E+05 -7.908220E+04  6.112219E+04 -3.931365E-10 -1.597565E-09
       335  11 -3.643652E+04 -3.182940E+05 -4.477992E+04  4.404798E+04 -1.350385E-09  4.372041E-09
       335  12 -2.024344E+04 -2.857685E+05 -2.777537E+04  3.503562E+04 -3.324388E-11  8.554267E-10
       335  13 -3.831462E+04 -2.055578E+05 -4.258521E+04  3.707143E+04 -9.550341E-11  2.357122E-09
       335  14 -8.468936E+03 -2.020192E+05 -2.138417E+04  3.305897E+04 -1.166640E-09 -6.903480E-09
       335  15 -1.248299E+03 -2.055505E+05 -1.301504E+04  3.710934E+04  2.709348E-10  3.167125E-09
       335  16 -2.561548E+02 -5.208712E+04 -6.089571E+03  1.301469E+04 -4.439810E-10  1.327457E-09
       335  17  1.949827E+04 -8.573122E+04  2.010951E+03  2.206786E+04 -1.781502E-10 -6.902010E-09
       335  18  1.774650E+04 -1.253262E+05  1.745020E+03  3.918334E+04  2.717574E-10 -9.196726E-10
       335  19 -7.637224E+04 -3.590040E+05 -7.907951E+04  6.112224E+04  1.691554E+03  3.778800E+04
       335  20 -3.643638E+04 -3.182935E+05 -4.477909E+04  4.404807E+04  5.180045E+03  2.034138E+04
       335  21 -2.024342E+04 -2.857685E+05 -2.777531E+04  3.503563E+04  4.841853E+03  2.889171E+03
       335  22 -3.831440E+04 -2.055569E+05 -4.258365E+04  3.707147E+04  1.699345E+03  2.874869E+04
       335  23 -8.468823E+03 -2.020188E+05 -2.138353E+04  3.305904E+04  5.182247E+03  1.772663E+04
       335  24 -1.248262E+03 -2.055504E+05 -1.301491E+04  3.710937E+04  4.838059E+03  6.700227E+03
       335  25 -2.560474E+02 -5.208671E+04 -6.088836E+03  1.301472E+04  1.707836E+03  1.970714E+04
       335  26  1.949836E+04 -8.573097E+04  2.011430E+03  2.206792E+04  5.184541E+03  1.511140E+04
       335  27  1.774655E+04 -1.253260E+05  1.745272E+03  3.918338E+04  4.834291E+03  1.051176E+04
       336   1 -1.507449E+04 -2.603582E+05 -2.120618E+04  3.815915E+04 -3.435035E+03 -1.475188E+03
       336   2 -5.140708E+03 -2.231615E+05 -1.229103E+04  3.303634E+04 -1.373760E+03  3.111638E+03
       336   3  2.489177E+03 -1.871148E+05 -6.933224E+03  3.622569E+04  7.683211E+02  7.698773E+03
       336   4 -1.787950E+03 -2.042297E+05 -1.092835E+04  3.715947E+04 -3.431683E+03 -4.876972E+03
       336   5 -5.653327E+02 -2.036656E+05 -8.915076E+03  3.300345E+04 -1.370303E+03 -4.257216E+02
       336   6 -1.622942E+03 -2.042292E+05 -1.036481E+04  3.715962E+04  7.718952E+02  4.025582E+03
       336   7  1.149842E+04 -1.480981E+05 -6.505964E+02  3.615969E+04 -3.428322E+03 -8.279055E+03
       336   8  4.010029E+03 -1.841693E+05 -5.539086E+03  3.297055E+04 -1.366845E+03 -3.963189E+03
       336   9 -5.735068E+03 -2.213433E+05 -1.379637E+04  3.809353E+04  7.754583E+02  3.524909E+02
       336  10 -1.507450E+04 -2.603582E+05 -2.120621E+04  3.815915E+04  3.226774E-11 -1.817209E-09
       336  11 -5.140713E+03 -2.231615E+05 -1.229105E+04  3.303634E+04 -1.937553E-10  5.642908E-09
       336  12  2.489161E+03 -1.871148E+05 -6.933336E+03  3.622568E+04  2.543840E-10  7.093565E-10
       336  13 -1.787969E+03 -2.042297E+05 -1.092841E+04  3.715946E+04  4.533222E-10  2.779371E-09
       336  14 -5.653347E+02 -2.036656E+05 -8.915080E+03  3.300345E+04  1.231644E-11 -5.600156E-09
       336  15 -1.622947E+03 -2.042292E+05 -1.036484E+04  3.715962E+04  4.029278E-10  1.699439E-09
       336  16  1.149839E+04 -1.480982E+05 -6.507473E+02  3.615967E+04  5.252885E-10  1.527739E-09
       336  17  4.010023E+03 -1.841693E+05 -5.539119E+03  3.297055E+04 -4.425637E-10 -7.259067E-09
       336  18 -5.735069E+03 -2.213433E+05 -1.379637E+04  3.809353E+04  4.847714E-10 -1.295655E-09
       336  19 -1.507449E+04 -2.603582E+05 -2.120618E+04  3.815915E+04  3.435035E+03  1.475188E+03
       336  20 -5.140708E+03 -2.231615E+05 -1.229103E+04  3.303634E+04  1.373760E+03 -3.111638E+03
       336  21  2.489177E+03 -1.871148E+05 -6.933224E+03  3.622569E+04 -7.683211E+02 -7.698773E+03
       336  22 -1.787950E+03 -2.042297E+05 -1.092835E+04  3.715947E+04  3.431683E+03  4.876972E+03
       336  23 -5.653327E+02 -2.036656E+05 -8.915076E+03  3.300345E+04  1.370303E+03  4.257216E+02
       336  24 -1.622942E+03 -2.042292E+05 -1.036481E+04  3.715962E+04 -7.718952E+02 -4.025582E+03
       336  25  1.149842E+04 -1.480981E+05 -6.505964E+02  3.615969E+04  3.428322E+03  8.279055E+03
       336  26  4.010029E+03 -1.841693E+05 -5.539086E+03  3.297055E+04  1.366845E+03  3.963189E+03
       336  27 -5.735068E+03 -2.213433E+05 -1.379637E+04  3.809353E+04 -7.754583E+02 -3.524909E+02
       337   1  8.660577E+03 -1.642394E+05 -4.274774E+03  3.900648E+04  2.217176E+03  9.717495E+03
       337   2  1.100704E+04 -1.248376E+05 -3.615177E+03  2.308424E+04  3.119135E+03  1.489867E+04
       337   3 -6.313300E+03 -9.100369E+04 -1.124079E+04  1.529105E+04  1.109243E+03  2.007701E+04
       337   4 -1.141248E+03 -2.054051E+05 -1.213218E+04  3.712371E+04  2.221019E+03  5.747609E+03
       337   5 -7.676005E+03 -2.021980E+05 -1.953613E+04  3.304201E+04  3.118492E+03  1.581863E+04
       337   6 -3.472851E+04 -2.054102E+05 -3.862254E+04  3.708983E+04  1.104145E+03  2.588639E+04
       337   7 -1.094315E+04 -2.465691E+05 -1.998961E+04  3.524107E+04  2.224887E+03  1.777980E+03
       337   8 -2.635905E+04 -2.795525E+05 -3.545735E+04  4.299853E+04  3.117879E+03  1.673848E+04
       337   9 -6.314288E+04 -3.198037E+05 -6.600483E+04  5.888457E+04  1.099455E+03  3.169471E+04
       337  10  8.660546E+03 -1.642395E+05 -4.274960E+03  3.900646E+04  1.947380E-10 -2.226081E-09
       337  11  1.100697E+04 -1.248379E+05 -3.615613E+03  2.308420E+04  5.140536E-10  3.103672E-09
       337  12 -6.313409E+03 -9.100412E+04 -1.124155E+04  1.529103E+04  4.918933E-11 -6.605578E-10
       337  13 -1.141262E+03 -2.054051E+05 -1.213225E+04  3.712370E+04  8.463297E-10  2.784389E-09
       337  14 -7.676083E+03 -2.021983E+05 -1.953662E+04  3.304197E+04 -8.334560E-11 -6.775506E-09
       337  15 -3.472870E+04 -2.054109E+05 -3.862380E+04  3.708980E+04  5.212593E-11  2.869239E-09
       337  16 -1.094316E+04 -2.465691E+05 -1.998962E+04  3.524107E+04  2.196377E-10  2.193052E-09
       337  17 -2.635914E+04 -2.795528E+05 -3.545790E+04  4.299848E+04  4.915286E-10 -5.912497E-09
       337  18 -6.314315E+04 -3.198048E+05 -6.600672E+04  5.888454E+04  3.919721E-10 -6.853891E-10
       337  19  8.660577E+03 -1.642394E+05 -4.274774E+03  3.900648E+04 -2.217176E+03 -9.717495E+03
       337  20  1.100704E+04 -1.248376E+05 -3.615177E+03  2.308424E+04 -3.119135E+03 -1.489867E+04
       337  21 -6.313300E+03 -9.100369E+04 -1.124079E+04  1.529105E+04 -1.109243E+03 -2.007701E+04
       337  22 -1.141248E+03 -2.054051E+05 -1.213218E+04  3.712371E+04 -2.221019E+03 -5.747609E+03
       337  23 -7.676005E+03 -2.021980E+05 -1.953613E+04  3.304201E+04 -3.118492E+03 -1.581863E+04
       337  24 -3.472851E+04 -2.054102E+05 -3.862254E+04  3.708983E+04 -1.104145E+03 -2.588639E+04
       337  25 -1.094315E+04 -2.465691E+05 -1.998961E+04  3.524107E+04 -2.224887E+03 -1.777980E+03
       337  26 -2.635905E+04 -2.795525E+05 -3.545735E+04  4.299853E+04 -3.117879E+03 -1.673848E+04
       337  27 -6.314288E+04 -3.198037E+05 -6.600483E+04  5.888457E+04 -1.099455E+03 -3.169471E+04
       338   1  1.767939E+04  2.075507E+04  6.874980E+03  1.528679E+04  5.960300E+03  5.087087E+03
       338   2  1.938637E+04  1.104057E+04  1.132156E+03  1.944601E+04  3.369281E+03  4.557128E+03
       338   3  2.585156E+04  6.540596E+03 -1.122665E+03  2.081599E+04  1.274196E+03  3.367367E+03
       338   4  5.099461E+04  3.062359E+04  1.500229E+04  2.547045E+04  8.036944E+03  6.647975E+03
       338   5  4.612916E+04  2.370829E+04  7.314772E+03  3.001318E+04  4.337213E+03  5.284668E+03
       338   6  4.626236E+04  2.224806E+04  4.078206E+03  3.176674E+04  1.133458E+03  3.261572E+03
       338   7  8.431126E+04  4.049226E+04  2.312961E+04  3.565452E+04  1.011375E+04  8.208899E+03
       338   8  7.287263E+04  3.637610E+04  1.349731E+04  4.058071E+04  5.305197E+03  6.012229E+03
       338   9  6.667334E+04  3.795561E+04  9.278939E+03  4.271776E+04  9.927170E+02  3.155774E+03
       338  10  1.767935E+04  2.075503E+04  6.874865E+03  1.528677E+04 -1.142517E-09 -9.480053E-10
       338  11  1.938635E+04  1.104054E+04  1.132096E+03  1.944600E+04 -1.374274E-11 -1.776138E-09
       338  12  2.585155E+04  6.540583E+03 -1.122690E+03  2.081598E+04  7.199085E-10 -1.518973E-09
       338  13  5.099453E+04  3.062352E+04  1.500208E+04  2.547040E+04 -2.637043E-10 -2.127961E-09
       338  14  4.612913E+04  2.370825E+04  7.314684E+03  3.001316E+04 -1.049196E-09  2.416737E-11
       338  15  4.626235E+04  2.224805E+04  4.078183E+03  3.176673E+04 -2.374549E-10  5.847060E-10
       338  16  8.431113E+04  4.049216E+04  2.312929E+04  3.565445E+04  8.736594E-10  3.142602E-09
       338  17  7.287259E+04  3.637605E+04  1.349719E+04  4.058069E+04 -6.876448E-10  4.597223E-09
       338  18  6.667334E+04  3.795560E+04  9.278918E+03  4.271776E+04 -1.197819E-09  7.762501E-10
       338  19  1.767939E+04  2.075507E+04  6.874980E+03  1.528679E+04 -5.960300E+03 -5.087087E+03
       338  20  1.938637E+04  1.104057E+04  1.132156E+03  1.944601E+04 -3.369281E+03 -4.557128E+03
       338  21  2.585156E+04  6.540596E+03 -1.122665E+03  2.081599E+04 -1.274196E+03 -3.367367E+03
       338  22  5.099461E+04  3.062359E+04  1.500229E+04  2.547045E+04 -8.036944E+03 -6.647975E+03
       338  23  4.612916E+04  2.370829E+04  7.314772E+03  3.001318E+04 -4.337213E+03 -5.284668E+03
       338  24  4.626236E+04  2.224806E+04  4.078206E+03  3.176674E+04 -1.133458E+03 -3.261572E+03
       338  25  8.431126E+04  4.049226E+04  2.312961E+04  3.565452E+04 -1.011375E+04 -8.208899E+03
       338  26  7.287263E+04  3.637610E+04  1.349731E+04  4.058071E+04 -5.305197E+03 -6.012229E+03
       338  27  6.667334E+04  3.795561E+04  9.278939E+03  4.271776E+04 -9.927170E+02 -3.155774E+03
       339   1  2.592452E+04  8.399349E+03 -1.685888E+03  2.141716E+04  8.154378E+02  2.926755E+03
       339   2  2.749327E+04  9.554791E+03 -2.396909E+03  2.263655E+04  2.257810E+02  2.376513E+03
       339   3  2.992205E+04  1.045434E+04 -2.485892E+03  2.359276E+04 -3.197680E+02  1.767580E+03
       339   4  4.602660E+04  2.218580E+04  3.149435E+03  3.142434E+04  7.499171E+02  2.877495E+03
       339   5  4.547277E+04  2.210288E+04  1.856068E+03  3.170640E+04  6.163643E+01  2.253122E+03
       339   6  4.580040E+04  2.178545E+04  1.270394E+03  3.172526E+04 -5.825403E+02  1.570056E+03
       339   7  6.612916E+04  3.597249E+04  7.984734E+03  4.143189E+04  6.843934E+02  2.828232E+03
       339   8  6.345282E+04  3.465128E+04  6.109083E+03  4.077664E+04 -1.025161E+02  2.129726E+03
       339   9  6.167934E+04  3.311692E+04  5.026765E+03  3.985816E+04 -8.453263E+02  1.372522E+03
       339  10  2.592452E+04  8.399339E+03 -1.685905E+03  2.141716E+04 -3.238250E-09 -3.913749E-09
       339  11  2.749327E+04  9.554785E+03 -2.396919E+03  2.263655E+04 -1.614388E-09 -2.513953E-09
       339  12  2.992205E+04  1.045434E+04 -2.485898E+03  2.359276E+04  1.434446E-09  1.032789E-09
       339  13  4.602660E+04  2.218579E+04  3.149418E+03  3.142434E+04 -7.041096E-10  5.302920E-09
       339  14  4.547277E+04  2.210287E+04  1.856058E+03  3.170640E+04 -5.506269E-10  3.175285E-09
       339  15  4.580040E+04  2.178544E+04  1.270388E+03  3.172526E+04  5.392992E-11  3.480117E-09
       339  16  6.612915E+04  3.597248E+04  7.984718E+03  4.143189E+04  1.765869E-09  3.189508E-09
       339  17  6.345282E+04  3.465128E+04  6.109075E+03  4.077664E+04 -4.028839E-11  4.282207E-09
       339  18  6.167933E+04  3.311692E+04  5.026760E+03  3.985816E+04 -2.656574E-09 -5.892428E-10
       339  19  2.592452E+04  8.399349E+03 -1.685888E+03  2.141716E+04 -8.154378E+02 -2.926755E+03
       339  20  2.749327E+04  9.554791E+03 -2.396909E+03  2.263655E+04 -2.257810E+02 -2.376513E+03
       339  21  2.992205E+04  1.045434E+04 -2.485892E+03  2.359276E+04  3.197680E+02 -1.767580E+03
       339  22  4.602660E+04  2.218580E+04  3.149435E+03  3.142434E+04 -7.499171E+02 -2.877495E+03
       339  23  4.547277E+04  2.210288E+04  1.856068E+03  3.170640E+04 -6.163643E+01 -2.253122E+03
       339  24  4.580040E+04  2.178545E+04  1.270394E+03  3.172526E+04  5.825403E+02 -1.570056E+03
       339  25  6.612916E+04  3.597249E+04  7.984734E+03  4.143189E+04 -6.843934E+02 -2.828232E+03
       339  26  6.345282E+04  3.465128E+04  6.109083E+03  4.077664E+04  1.025161E+02 -2.129726E+03
       339  27  6.167934E+04  3.311692E+04  5.026765E+03  3.985816E+04  8.453263E+02 -1.372522E+03
       340   1  3.110954E+04  1.142200E+04 -2.301363E+03  2.423888E+04 -4.273895E+02  1.542494E+03
       340   2  3.270309E+04  1.308326E+04 -1.843529E+03  2.531167E+04 -7.524384E+02  1.055582E+03
       340   3  3.496228E+04  1.422346E+04 -1.011554E+03  2.622759E+04 -1.073598E+03  5.635035E+02
       340   4  4.578627E+04  2.178113E+04  1.141246E+03  3.170476E+04 -6.834657E+02  1.350005E+03
       340   5  4.545446E+04  2.204423E+04  1.138012E+03  3.178052E+04 -1.017213E+03  8.565586E+02
       340   6  4.579021E+04  2.178817E+04  1.516485E+03  3.169940E+04 -1.347073E+03  3.579437E+02
       340   7  6.046298E+04  3.214020E+04  4.583749E+03  3.917072E+04 -9.395453E+02  1.157513E+03
       340   8  5.820589E+04  3.100521E+04  4.119501E+03  3.824946E+04 -1.281993E+03  6.575316E+02
       340   9  5.661827E+04  2.935295E+04  4.044514E+03  3.717133E+04 -1.620555E+03  1.523793E+02
       340  10  3.110953E+04  1.142200E+04 -2.301367E+03  2.423888E+04 -1.124751E-09 -3.032862E-09
       340  11  3.270309E+04  1.308325E+04 -1.843532E+03  2.531167E+04 -1.049921E-09 -1.010338E-09
       340  12  3.496227E+04  1.422346E+04 -1.011556E+03  2.622759E+04  7.333299E-11  1.433741E-09
       340  13  4.578627E+04  2.178113E+04  1.141242E+03  3.170477E+04  1.886783E-11  2.551356E-10
       340  14  4.545445E+04  2.204422E+04  1.138008E+03  3.178052E+04 -2.626583E-10  3.226388E-09
       340  15  4.579020E+04  2.178817E+04  1.516481E+03  3.169941E+04 -3.257816E-10 -1.009032E-09
       340  16  6.046298E+04  3.214020E+04  4.583745E+03  3.917072E+04  2.437514E-10  6.143654E-10
       340  17  5.820589E+04  3.100521E+04  4.119497E+03  3.824946E+04 -7.197384E-10 -8.345290E-10
       340  18  5.661826E+04  2.935295E+04  4.044509E+03  3.717133E+04 -6.233981E-10 -1.433964E-09
       340  19  3.110954E+04  1.142200E+04 -2.301363E+03  2.423888E+04  4.273895E+02 -1.542494E+03
       340  20  3.270309E+04  1.308326E+04 -1.843529E+03  2.531167E+04  7.524384E+02 -1.055582E+03
       340  21  3.496228E+04  1.422346E+04 -1.011554E+03  2.622759E+04  1.073598E+03 -5.635035E+02
       340  22  4.578627E+04  2.178113E+04  1.141246E+03  3.170476E+04  6.834657E+02 -1.350005E+03
       340  23  4.545446E+04  2.204423E+04  1.138012E+03  3.178052E+04  1.017213E+03 -8.565586E+02
       340  24  4.579021E+04  2.178817E+04  1.516485E+03  3.169940E+04  1.347073E+03 -3.579437E+02
       340  25  6.046298E+04  3.214020E+04  4.583749E+03  3.917072E+04  9.395453E+02 -1.157513E+03
       340  26  5.820589E+04  3.100521E+04  4.119501E+03  3.824946E+04  1.281993E+03 -6.575316E+02
       340  27  5.661827E+04  2.935295E+04  4.044514E+03  3.717133E+04  1.620555E+03 -1.523793E+02
       341   1  3.615089E+04  1.524415E+04 -3.524545E+02  2.694928E+04 -1.240135E+03  2.898926E+02
       341   2  3.803259E+04  1.666809E+04  1.297173E+03  2.776393E+04 -2.340419E+03 -7.913749E+02
       341   3  4.101790E+04  1.811545E+04  4.127896E+03  2.823616E+04 -3.440700E+03 -1.872707E+03
       341   4  4.582337E+04  2.179599E+04  1.866524E+03  3.174290E+04 -1.513047E+03  8.475702E+01
       341   5  4.546997E+04  2.213539E+04  3.065652E+03  3.165021E+04 -2.613433E+03 -9.965877E+02
       341   6  4.622014E+04  2.249822E+04  5.445949E+03  3.121510E+04 -3.713791E+03 -2.077977E+03
       341   7  5.549614E+04  2.834799E+04  4.085556E+03  3.653668E+04 -1.785969E+03 -1.203862E+02
       341   8  5.290741E+04  2.760272E+04  4.834127E+03  3.553654E+04 -2.886451E+03 -1.201804E+03
       341   9  5.142231E+04  2.688095E+04  6.763967E+03  3.419401E+04 -3.986879E+03 -2.283247E+03
       341  10  3.615089E+04  1.524415E+04 -3.524576E+02  2.694928E+04 -1.117382E-09 -1.553795E-09
       341  11  3.803258E+04  1.666809E+04  1.297161E+03  2.776392E+04 -3.591158E-10 -1.739179E-09
       341  12  4.101789E+04  1.811544E+04  4.127867E+03  2.823615E+04  6.283475E-10  1.423611E-10
       341  13  4.582337E+04  2.179599E+04  1.866519E+03  3.174290E+04  4.960189E-11  1.473153E-09
       341  14  4.546996E+04  2.213538E+04  3.065637E+03  3.165020E+04 -3.470679E-10  1.018180E-08
       341  15  4.622012E+04  2.249822E+04  5.445915E+03  3.121509E+04 -8.313946E-10 -3.112028E-09
       341  16  5.549613E+04  2.834799E+04  4.085550E+03  3.653668E+04  7.104200E-12  5.839058E-10
       341  17  5.290740E+04  2.760271E+04  4.834109E+03  3.553654E+04 -1.112424E-09  2.208696E-09
       341  18  5.142229E+04  2.688094E+04  6.763927E+03  3.419400E+04 -1.341326E-09 -2.103548E-09
       341  19  3.615089E+04  1.524415E+04 -3.524545E+02  2.694928E+04  1.240135E+03 -2.898926E+02
       341  20  3.803259E+04  1.666809E+04  1.297173E+03  2.776393E+04  2.340419E+03  7.913749E+02
       341  21  4.101790E+04  1.811545E+04  4.127896E+03  2.823616E+04  3.440700E+03  1.872707E+03
       341  22  4.582337E+04  2.179599E+04  1.866524E+03  3.174290E+04  1.513047E+03 -8.475702E+01
       341  23  4.546997E+04  2.213539E+04  3.065652E+03  3.165021E+04  2.613433E+03  9.965877E+02
       341  24  4.622014E+04  2.249822E+04  5.445949E+03  3.121510E+04  3.713791E+03  2.077977E+03
       341  25  5.549614E+04  2.834799E+04  4.085556E+03  3.653668E+04  1.785969E+03  1.203862E+02
       341  26  5.290741E+04  2.760272E+04  4.834127E+03  3.553654E+04  2.886451E+03  1.201804E+03
       341  27  5.142231E+04  2.688095E+04  6.763967E+03  3.419401E+04  3.986879E+03  2.283247E+03
       342   1  4.096859E+04  2.086073E+04  6.110015E+03  2.999016E+04 -4.112911E+03 -2.526455E+03
       342   2  5.068013E+04  1.681306E+04  1.232829E+04  2.556826E+04 -9.318172E+03 -6.690006E+03
       342   3  6.886961E+04  2.275935E+04  2.640487E+04  1.631918E+04 -1.452699E+04 -1.084890E+04
       342   4  4.665788E+04  2.258855E+04  7.119137E+03  3.181576E+04 -4.386517E+03 -2.732094E+03
       342   5  4.659995E+04  2.499129E+04  1.288455E+04  2.866766E+04 -9.584040E+03 -6.889999E+03
       342   6  5.501805E+04  3.738628E+04  2.650157E+04  2.069241E+04 -1.478504E+04 -1.104341E+04
       342   7  5.234722E+04  2.431637E+04  8.128261E+03  3.364137E+04 -4.660126E+03 -2.937734E+03
       342   8  4.251983E+04  3.316977E+04  1.344084E+04  3.176707E+04 -9.849907E+03 -7.090000E+03
       342   9  4.116682E+04  5.201420E+04  2.659839E+04  2.506555E+04 -1.504309E+04 -1.123793E+04
       342  10  4.096857E+04  2.086072E+04  6.109971E+03  2.999015E+04  2.749272E-09  1.135001E-09
       342  11  5.068003E+04  1.681299E+04  1.232804E+04  2.556821E+04  2.583022E-10 -1.018911E-09
       342  12  6.886936E+04  2.275917E+04  2.640425E+04  1.631905E+04 -1.666229E-09 -2.916738E-09
       342  13  4.665786E+04  2.258853E+04  7.119087E+03  3.181575E+04  8.043873E-10 -3.198297E-09
       342  14  4.659984E+04  2.499121E+04  1.288428E+04  2.866760E+04  1.780273E-10  2.516258E-09
       342  15  5.501778E+04  3.738609E+04  2.650093E+04  2.069228E+04 -9.090792E-11  8.421301E-10
       342  16  5.234719E+04  2.431635E+04  8.128203E+03  3.364135E+04 -2.583578E-09 -3.628599E-09
       342  17  4.251971E+04  3.316969E+04  1.344056E+04  3.176701E+04  1.247699E-09  4.099843E-09
       342  18  4.116655E+04  5.201401E+04  2.659773E+04  2.506542E+04  2.415663E-09 -1.363015E-09
       342  19  4.096859E+04  2.086073E+04  6.110015E+03  2.999016E+04  4.112911E+03  2.526455E+03
       342  20  5.068013E+04  1.681306E+04  1.232829E+04  2.556826E+04  9.318172E+03  6.690006E+03
       342  21  6.886961E+04  2.275935E+04  2.640487E+04  1.631918E+04  1.452699E+04  1.084890E+04
       342  22  4.665788E+04  2.258855E+04  7.119137E+03  3.181576E+04  4.386517E+03  2.732094E+03
       342  23  4.659995E+04  2.499129E+04  1.288455E+04  2.866766E+04  9.584040E+03  6.889999E+03
       342  24  5.501805E+04  3.738628E+04  2.650157E+04  2.069241E+04  1.478504E+04  1.104341E+04
       342  25  5.234722E+04  2.431637E+04  8.128261E+03  3.364137E+04  4.660126E+03  2.937734E+03
       342  26  4.251983E+04  3.316977E+04  1.344084E+04  3.176707E+04  9.849907E+03  7.090000E+03
       342  27  4.116682E+04  5.201420E+04  2.659839E+04  2.506555E+04  1.504309E+04  1.123793E+04
       343   1 -3.621205E+04 -2.419705E+05 -3.735257E+04  2.644006E+04 -8.887360E+02 -1.767665E+04
       343   2 -1.837877E+04 -2.248288E+05 -2.187132E+04  1.886582E+04 -2.800876E+03 -9.474970E+03
       343   3 -1.134656E+04 -2.114466E+05 -1.443094E+04  1.463102E+04 -2.833221E+03 -1.270899E+03
       343   4 -1.734682E+04 -1.658483E+05 -1.930392E+04  1.552913E+04 -8.934445E+02 -1.290158E+04
       343   5 -3.830449E+03 -1.642416E+05 -9.792677E+03  1.386807E+04 -2.802466E+03 -7.856652E+03
       343   6 -5.664980E+02 -1.658463E+05 -6.129117E+03  1.554670E+04 -2.831620E+03 -2.809614E+03
       343   7  1.518443E+03 -8.972042E+04 -1.255528E+03  4.616852E+03 -8.983206E+02 -8.125926E+03
       343   8  1.071774E+04 -1.036509E+05  2.285810E+03  8.869823E+03 -2.804081E+03 -6.238179E+03
       343   9  1.021345E+04 -1.202440E+05  2.172635E+03  1.646244E+04 -2.830023E+03 -4.348440E+03
       343  10 -3.621214E+04 -2.419708E+05 -3.735316E+04  2.644004E+04 -4.401703E-10 -1.755040E-09
       343  11 -1.837880E+04 -2.248289E+05 -2.187151E+04  1.886580E+04 -1.810095E-09 -3.187846E-09
       343  12 -1.134657E+04 -2.114466E+05 -1.443096E+04  1.463102E+04 -1.182142E-09 -3.962986E-09
       343  13 -1.734687E+04 -1.658484E+05 -1.930424E+04  1.552912E+04  1.111637E-10  1.088318E-09
       343  14 -3.830474E+03 -1.642417E+05 -9.792807E+03  1.386805E+04 -8.809044E-10  5.304396E-10
       343  15 -5.665087E+02 -1.658463E+05 -6.129147E+03  1.554669E+04 -8.777340E-10  9.397278E-10
       343  16  1.518425E+03 -8.972050E+04 -1.255654E+03  4.616847E+03  7.001822E-11 -1.192644E-09
       343  17  1.071772E+04 -1.036510E+05  2.285722E+03  8.869809E+03  7.906767E-10  6.018564E-09
       343  18  1.021344E+04 -1.202440E+05  2.172584E+03  1.646243E+04 -1.064568E-09  4.039549E-09
       343  19 -3.621205E+04 -2.419705E+05 -3.735257E+04  2.644006E+04  8.887360E+02  1.767665E+04
       343  20 -1.837877E+04 -2.248288E+05 -2.187132E+04  1.886582E+04  2.800876E+03  9.474970E+03
       343  21 -1.134656E+04 -2.114466E+05 -1.443094E+04  1.463102E+04  2.833221E+03  1.270899E+03
       343  22 -1.734682E+04 -1.658483E+05 -1.930392E+04  1.552913E+04  8.934445E+02  1.290158E+04
       343  23 -3.830449E+03 -1.642416E+05 -9.792677E+03  1.386807E+04  2.802466E+03  7.856652E+03
       343  24 -5.664980E+02 -1.658463E+05 -6.129117E+03  1.554670E+04  2.831620E+03  2.809614E+03
       343  25  1.518443E+03 -8.972042E+04 -1.255528E+03  4.616852E+03  8.983206E+02  8.125926E+03
       343  26  1.071774E+04 -1.036509E+05  2.285810E+03  8.869823E+03  2.804081E+03  6.238179E+03
       343  27  1.021345E+04 -1.202440E+05  2.172635E+03  1.646244E+04  2.830023E+03  4.348440E+03
       344   1 -9.200987E+03 -2.008105E+05 -1.168674E+04  1.607090E+04 -2.260356E+03 -6.022749E+02
       344   2 -5.044790E+03 -1.852430E+05 -8.131171E+03  1.384015E+04 -1.427174E+03  1.845712E+03
       344   3 -2.093321E+03 -1.702860E+05 -6.468479E+03  1.507338E+04 -5.099680E+02  4.293829E+03
       344   4 -8.055659E+02 -1.652629E+05 -5.270632E+03  1.557192E+04 -2.258976E+03 -1.935400E+03
       344   5 -2.872597E+02 -1.649697E+05 -4.620739E+03  1.383986E+04 -1.425661E+03  3.715286E+02
       344   6 -9.491500E+02 -1.652628E+05 -5.765695E+03  1.557177E+04 -5.083191E+02  2.678531E+03
       344   7  7.589786E+03 -1.297141E+05  1.145431E+03  1.507292E+04 -2.257595E+03 -3.268599E+03
       344   8  4.470249E+03 -1.446960E+05 -1.110314E+03  1.383956E+04 -1.424148E+03 -1.102701E+03
       344   9  1.950217E+02 -1.602395E+05 -5.062901E+03  1.607016E+04 -5.066727E+02  1.063221E+03
       344  10 -9.200992E+03 -2.008105E+05 -1.168675E+04  1.607089E+04 -2.853774E-10 -2.929124E-08
       344  11 -5.044793E+03 -1.852430E+05 -8.131181E+03  1.384015E+04  1.782489E-09 -2.308200E-09
       344  12 -2.093326E+03 -1.702860E+05 -6.468514E+03  1.507338E+04  2.393196E-09  2.650097E-08
       344  13 -8.055723E+02 -1.652629E+05 -5.270649E+03  1.557192E+04 -3.045918E-10  2.325423E-12
       344  14 -2.872619E+02 -1.649697E+05 -4.620743E+03  1.383986E+04  2.067424E-09 -5.142030E-10
       344  15 -9.491522E+02 -1.652628E+05 -5.765709E+03  1.557177E+04  1.789838E-09 -4.281158E-10
       344  16  7.589778E+03 -1.297141E+05  1.145402E+03  1.507291E+04 -6.811661E-10  2.533486E-08
       344  17  4.470247E+03 -1.446961E+05 -1.110320E+03  1.383956E+04  5.561257E-10  3.310485E-09
       344  18  1.950212E+02 -1.602395E+05 -5.062903E+03  1.607016E+04  1.238527E-09 -2.665762E-08
       344  19 -9.200987E+03 -2.008105E+05 -1.168674E+04  1.607090E+04  2.260356E+03  6.022749E+02
       344  20 -5.044790E+03 -1.852430E+05 -8.131171E+03  1.384015E+04  1.427174E+03 -1.845712E+03
       344  21 -2.093321E+03 -1.702860E+05 -6.468479E+03  1.507338E+04  5.099680E+02 -4.293829E+03
       344  22 -8.055659E+02 -1.652629E+05 -5.270632E+03  1.557192E+04  2.258976E+03  1.935400E+03
       344  23 -2.872597E+02 -1.649697E+05 -4.620739E+03  1.383986E+04  1.425661E+03 -3.715286E+02
       344  24 -9.491500E+02 -1.652628E+05 -5.765695E+03  1.557177E+04  5.083191E+02 -2.678531E+03
       344  25  7.589786E+03 -1.297141E+05  1.145431E+03  1.507292E+04  2.257595E+03  3.268599E+03
       344  26  4.470249E+03 -1.446960E+05 -1.110314E+03  1.383956E+04  1.424148E+03  1.102701E+03
       344  27  1.950217E+02 -1.602395E+05 -5.062901E+03  1.607016E+04  5.066727E+02 -1.063221E+03
       345   1  5.613284E+02 -1.609848E+05 -5.780721E+03  1.670450E+04  1.068461E+02  5.345549E+03
       345   2  3.742048E+02 -1.439737E+05 -7.109131E+03  8.003015E+03  6.524769E+02  9.673652E+03
       345   3 -1.164683E+04 -1.304757E+05 -1.421206E+04  2.707170E+03  2.697284E+02  1.400082E+04
       345   4 -6.585338E+02 -1.659733E+05 -6.904696E+03  1.556164E+04  1.085715E+02  3.641774E+03
       345   5 -4.523904E+03 -1.640821E+05 -1.141560E+04  1.384856E+04  6.527174E+02  9.528961E+03
       345   6 -2.049428E+04 -1.659751E+05 -2.278406E+04  1.554116E+04  2.685677E+02  1.541508E+04
       345   7 -1.878391E+03 -1.709617E+05 -8.028662E+03  1.441879E+04  1.103032E+02  1.938012E+03
       345   8 -9.421911E+03 -1.841900E+05 -1.572207E+04  1.969392E+04  6.529553E+02  9.384274E+03
       345   9 -2.934121E+04 -2.014729E+05 -3.135605E+04  2.837441E+04  2.674654E+02  1.682926E+04
       345  10  5.613207E+02 -1.609848E+05 -5.780775E+03  1.670450E+04  1.356182E-09 -2.852902E-09
       345  11  3.741792E+02 -1.439738E+05 -7.109308E+03  8.003010E+03  4.419517E-10 -7.146895E-10
       345  12 -1.164688E+04 -1.304759E+05 -1.421242E+04  2.707167E+03 -1.686548E-10 -1.634987E-09
       345  13 -6.585374E+02 -1.659733E+05 -6.904721E+03  1.556164E+04  1.546054E-09  2.002176E-11
       345  14 -4.523929E+03 -1.640822E+05 -1.141577E+04  1.384856E+04  4.763551E-10  1.079396E-09
       345  15 -2.049435E+04 -1.659753E+05 -2.278450E+04  1.554115E+04  2.477594E-10 -1.623916E-09
       345  16 -1.878392E+03 -1.709617E+05 -8.028669E+03  1.441879E+04  1.145841E-09 -1.590328E-09
       345  17 -9.421935E+03 -1.841901E+05 -1.572224E+04  1.969391E+04  1.154694E-09  3.274081E-09
       345  18 -2.934129E+04 -2.014732E+05 -3.135658E+04  2.837441E+04  3.323780E-11  8.520072E-10
       345  19  5.613284E+02 -1.609848E+05 -5.780721E+03  1.670450E+04 -1.068461E+02 -5.345549E+03
       345  20  3.742048E+02 -1.439737E+05 -7.109131E+03  8.003015E+03 -6.524769E+02 -9.673652E+03
       345  21 -1.164683E+04 -1.304757E+05 -1.421206E+04  2.707170E+03 -2.697284E+02 -1.400082E+04
       345  22 -6.585338E+02 -1.659733E+05 -6.904696E+03  1.556164E+04 -1.085715E+02 -3.641774E+03
       345  23 -4.523904E+03 -1.640821E+05 -1.141560E+04  1.384856E+04 -6.527174E+02 -9.528961E+03
       345  24 -2.049428E+04 -1.659751E+05 -2.278406E+04  1.554116E+04 -2.685677E+02 -1.541508E+04
       345  25 -1.878391E+03 -1.709617E+05 -8.028662E+03  1.441879E+04 -1.103032E+02 -1.938012E+03
       345  26 -9.421911E+03 -1.841900E+05 -1.572207E+04  1.969392E+04 -6.529553E+02 -9.384274E+03
       345  27 -2.934121E+04 -2.014729E+05 -3.135605E+04  2.837441E+04 -2.674654E+02 -1.682926E+04
       346   1  1.576576E+05  7.200516E+04  6.785484E+04  4.348663E+04  1.704248E+04 -4.032473E+03
       346   2  1.101710E+05  6.258367E+04  4.932505E+04  4.040450E+04  5.831952E+03 -1.291248E+04
       346   3  6.386731E+04  5.198295E+04  3.779898E+04  4.746119E+04 -5.374471E+03 -1.412009E+04
       346   4 -1.572126E+05 -5.833805E+03 -6.458818E+03  4.719581E+04 -4.329589E+03 -4.025262E+03
       346   5 -1.566799E+05 -1.307193E+03 -3.268051E+03  4.212711E+04 -2.647559E+03 -1.291042E+04
       346   6 -1.572041E+05 -1.981207E+02 -2.026158E+03  4.719750E+04 -9.621208E+02 -1.412159E+04
       346   7 -4.719905E+05 -8.367958E+04 -8.077760E+04  5.090311E+04 -2.569088E+04 -4.018306E+03
       346   8 -4.234625E+05 -6.520232E+04 -5.586436E+04  4.384898E+04 -1.112350E+04 -1.290840E+04
       346   9 -3.782278E+05 -5.238191E+04 -4.185312E+04  4.693390E+04  3.448703E+03 -1.412310E+04
       346  10  1.576573E+05  7.200507E+04  6.785426E+04  4.348668E+04  1.212348E-10 -2.976270E-11
       346  11  1.101709E+05  6.258348E+04  4.932467E+04  4.040456E+04  9.960627E-11 -7.781609E-11
       346  12  6.386722E+04  5.198273E+04  3.779855E+04  4.746113E+04 -1.187621E-10 -6.217334E-11
       346  13 -1.572126E+05 -5.833828E+03 -6.458884E+03  4.719580E+04 -1.546872E-10 -2.404117E-11
       346  14 -1.566800E+05 -1.307374E+03 -3.268378E+03  4.212709E+04 -2.012391E-10 -4.019012E-11
       346  15 -1.572041E+05 -1.983351E+02 -2.026535E+03  4.719749E+04 -3.618556E-10 -2.099395E-11
       346  16 -4.719913E+05 -8.367977E+04 -8.077887E+04  5.090303E+04  5.856326E-11 -1.059254E-12
       346  17 -4.234627E+05 -6.520253E+04 -5.586491E+04  4.384886E+04 -2.104383E-10  1.308068E-11
       346  18 -3.782279E+05 -5.238213E+04 -4.185352E+04  4.693394E+04  5.188181E-11  3.233999E-12
       346  19  1.576576E+05  7.200516E+04  6.785484E+04  4.348663E+04 -1.704248E+04  4.032473E+03
       346  20  1.101710E+05  6.258367E+04  4.932505E+04  4.040450E+04 -5.831952E+03  1.291248E+04
       346  21  6.386731E+04  5.198295E+04  3.779898E+04  4.746119E+04  5.374471E+03  1.412009E+04
       346  22 -1.572126E+05 -5.833805E+03 -6.458818E+03  4.719581E+04  4.329589E+03  4.025262E+03
       346  23 -1.566799E+05 -1.307193E+03 -3.268051E+03  4.212711E+04  2.647559E+03  1.291042E+04
       346  24 -1.572041E+05 -1.981207E+02 -2.026158E+03  4.719750E+04  9.621208E+02  1.412159E+04
       346  25 -4.719905E+05 -8.367958E+04 -8.077760E+04  5.090311E+04  2.569088E+04  4.018306E+03
       346  26 -4.234625E+05 -6.520232E+04 -5.586436E+04  4.384898E+04  1.112350E+04  1.290840E+04
       346  27 -3.782278E+05 -5.238191E+04 -4.185312E+04  4.693390E+04 -3.448703E+03  1.412310E+04
       347   1  3.314013E+04  4.453613E+04  3.219346E+04  4.712689E+04 -4.212952E+03 -1.244573E+04
       347   2 -1.373532E+04  3.356893E+04  2.336822E+04  4.187769E+04 -4.571740E+03 -1.001214E+04
       347   3 -6.056073E+04  2.256635E+04  1.477020E+04  4.726594E+04 -4.930619E+03 -6.926327E+03
       347   4 -1.569985E+05 -2.789074E+02 -1.730779E+03  4.730800E+04 -6.722151E+02 -1.244684E+04
       347   5 -1.569251E+05 -4.149559E+01 -1.480832E+03  4.198922E+04  6.446113E+01 -1.001326E+04
       347   6 -1.569940E+05 -2.957775E+01 -1.764536E+03  4.730805E+04  8.010214E+02 -6.927383E+03
       347   7 -3.471018E+05 -4.509594E+04 -3.565634E+04  4.748906E+04  2.867468E+03 -1.244795E+04
       347   8 -3.000947E+05 -3.365302E+04 -2.633052E+04  4.210073E+04  4.699626E+03 -1.001438E+04
       347   9 -2.534182E+05 -2.262599E+04 -1.829946E+04  4.735016E+04  6.531799E+03 -6.928437E+03
       347  10  3.314007E+04  4.453596E+04  3.219314E+04  4.712684E+04  3.189427E-11 -1.016828E-11
       347  11 -1.373537E+04  3.356882E+04  2.336800E+04  4.187765E+04  6.277190E-11  7.154427E-11
       347  12 -6.056077E+04  2.256630E+04  1.477006E+04  4.726592E+04 -2.344704E-10  8.801783E-11
       347  13 -1.569985E+05 -2.790739E+02 -1.731071E+03  4.730799E+04 -2.919190E-10 -9.806356E-12
       347  14 -1.569251E+05 -4.160325E+01 -1.481021E+03  4.198922E+04  3.646251E-11  4.210647E-11
       347  15 -1.569941E+05 -2.962945E+01 -1.764628E+03  4.730806E+04 -2.541126E-12  8.424599E-12
       347  16 -3.471018E+05 -4.509611E+04 -3.565665E+04  4.748909E+04 -1.210651E-10 -1.527751E-11
       347  17 -3.000948E+05 -3.365313E+04 -2.633075E+04  4.210077E+04 -1.400664E-10 -3.487321E-11
       347  18 -2.534182E+05 -2.262605E+04 -1.829963E+04  4.735020E+04  1.299613E-10 -6.028094E-11
       347  19  3.314013E+04  4.453613E+04  3.219346E+04  4.712689E+04  4.212952E+03  1.244573E+04
       347  20 -1.373532E+04  3.356893E+04  2.336822E+04  4.187769E+04  4.571740E+03  1.001214E+04
       347  21 -6.056073E+04  2.256635E+04  1.477020E+04  4.726594E+04  4.930619E+03  6.926327E+03
       347  22 -1.569985E+05 -2.789074E+02 -1.730779E+03  4.730800E+04  6.722151E+02  1.244684E+04
       347  23 -1.569251E+05 -4.149559E+01 -1.480832E+03  4.198922E+04 -6.446113E+01  1.001326E+04
       347  24 -1.569940E+05 -2.957775E+01 -1.764536E+03  4.730805E+04 -8.010214E+02  6.927383E+03
       347  25 -3.471018E+05 -4.509594E+04 -3.565634E+04  4.748906E+04 -2.867468E+03  1.244795E+04
       347  26 -3.000947E+05 -3.365302E+04 -2.633052E+04  4.210073E+04 -4.699626E+03  1.001438E+04
       347  27 -2.534182E+05 -2.262599E+04 -1.829946E+04  4.735016E+04 -6.531799E+03  6.928437E+03
       348   1 -9.122240E+04  1.537993E+04  8.990834E+03  4.712644E+04 -4.554533E+03 -4.907541E+03
       348   2 -1.378272E+05  4.208661E+03 -3.880266E+02  4.212449E+04 -2.414206E+03 -1.661493E+03
       348   3 -1.849228E+05 -7.849258E+03 -1.138038E+04  4.778306E+04 -2.741942E+02  1.298604E+03
       348   4 -1.570526E+05 -6.307011E+00 -2.100672E+03  4.731318E+04  1.138897E+03 -4.908492E+03
       348   5 -1.568473E+05 -1.835698E+02 -3.326169E+03  4.198281E+04  2.798620E+03 -1.662327E+03
       348   6 -1.570522E+05 -1.164116E+03 -5.831571E+03  4.731299E+04  4.458187E+03  1.297883E+03
       348   7 -2.228785E+05 -1.539275E+04 -1.319219E+04  4.749991E+04  6.831744E+03 -4.909439E+03
       348   8 -1.758670E+05 -4.575803E+03 -6.264218E+03  4.184113E+04  8.011292E+03 -1.663164E+03
       348   9 -1.291808E+05  5.520992E+03 -2.827164E+02  4.684290E+04  9.190776E+03  1.297154E+03
       348  10 -9.122243E+04  1.537990E+04  8.990750E+03  4.712643E+04  2.674598E-10  8.020200E-11
       348  11 -1.378272E+05  4.208656E+03 -3.880427E+02  4.212449E+04  2.284541E-10 -5.188251E-11
       348  12 -1.849228E+05 -7.849259E+03 -1.138038E+04  4.778306E+04 -1.229332E-11  1.290648E-11
       348  13 -1.570526E+05 -6.333230E+00 -2.100719E+03  4.731319E+04  8.176723E-11  2.052827E-11
       348  14 -1.568473E+05 -1.835749E+02 -3.326189E+03  4.198281E+04  3.408261E-10 -3.068576E-11
       348  15 -1.570522E+05 -1.164123E+03 -5.831611E+03  4.731298E+04  1.301384E-10  2.429572E-11
       348  16 -2.228785E+05 -1.539279E+04 -1.319233E+04  4.749993E+04  8.016743E-11 -2.249999E-11
       348  17 -1.758671E+05 -4.575824E+03 -6.264344E+03  4.184114E+04 -9.494662E-11 -6.555863E-11
       348  18 -1.291809E+05  5.520967E+03 -2.828783E+02  4.684289E+04  8.391536E-11 -1.321631E-11
       348  19 -9.122240E+04  1.537993E+04  8.990834E+03  4.712644E+04  4.554533E+03  4.907541E+03
       348  20 -1.378272E+05  4.208661E+03 -3.880266E+02  4.212449E+04  2.414206E+03  1.661493E+03
       348  21 -1.849228E+05 -7.849258E+03 -1.138038E+04  4.778306E+04  2.741942E+02 -1.298604E+03
       348  22 -1.570526E+05 -6.307011E+00 -2.100672E+03  4.731318E+04 -1.138897E+03  4.908492E+03
       348  23 -1.568473E+05 -1.835698E+02 -3.326169E+03  4.198281E+04 -2.798620E+03  1.662327E+03
       348  24 -1.570522E+05 -1.164116E+03 -5.831571E+03  4.731299E+04 -4.458187E+03 -1.297883E+03
       348  25 -2.228785E+05 -1.539275E+04 -1.319219E+04  4.749991E+04 -6.831744E+03  4.909439E+03
       348  26 -1.758670E+05 -4.575803E+03 -6.264218E+03  4.184113E+04 -8.011292E+03  1.663164E+03
       348  27 -1.291808E+05  5.520992E+03 -2.827164E+02  4.684290E+04 -9.190776E+03 -1.297154E+03
       349   1 -2.166167E+05 -1.474479E+04 -1.879718E+04  4.578255E+04  2.842038E+02  3.166825E+03
       349   2 -2.605878E+05 -3.091140E+04 -3.526361E+04  4.925176E+04  1.391173E+04  4.295644E+03
       349   3 -3.103585E+05 -6.321113E+04 -6.463640E+04  6.312841E+04  2.753727E+04  1.530638E+03
       349   4 -1.579979E+05 -7.803179E+02 -7.603153E+03  4.725767E+04  5.454226E+03  3.165993E+03
       349   5 -1.556684E+05 -5.612025E+03 -1.372741E+04  4.205122E+04  1.254262E+04  4.295671E+03
       349   6 -1.580030E+05 -2.543960E+04 -2.821456E+04  4.725268E+04  1.963003E+04  1.531446E+03
       349   7 -9.937562E+04  1.318397E+04  3.590822E+03  4.873294E+04  1.062473E+04  3.165186E+03
       349   8 -5.073838E+04  1.968685E+04  7.808236E+03  3.484945E+04  1.117328E+04  4.295731E+03
       349   9 -5.625430E+03  1.233123E+04  8.206005E+03  3.137303E+04  1.172085E+04  1.532658E+03
       349  10 -2.166167E+05 -1.474480E+04 -1.879720E+04  4.578255E+04  4.073634E-10  5.621495E-11
       349  11 -2.605880E+05 -3.091147E+04 -3.526401E+04  4.925171E+04  2.058190E-10 -9.799864E-11
       349  12 -3.103593E+05 -6.321133E+04 -6.463783E+04  6.312837E+04 -7.142971E-11  5.230038E-11
       349  13 -1.579979E+05 -7.803366E+02 -7.603228E+03  4.725766E+04  6.220058E-11  4.896821E-11
       349  14 -1.556686E+05 -5.612087E+03 -1.372774E+04  4.205118E+04  7.855992E-12  1.065172E-10
       349  15 -1.580034E+05 -2.543970E+04 -2.821529E+04  4.725265E+04  3.032585E-12  4.549797E-11
       349  16 -9.937575E+04  1.318393E+04  3.590591E+03  4.873291E+04  2.366375E-11  1.993206E-11
       349  17 -5.073852E+04  1.968680E+04  7.807967E+03  3.484941E+04  9.058990E-12 -3.242737E-11
       349  18 -5.625578E+03  1.233119E+04  8.205742E+03  3.137302E+04  9.184638E-11  9.040959E-12
       349  19 -2.166167E+05 -1.474479E+04 -1.879718E+04  4.578255E+04 -2.842038E+02 -3.166825E+03
       349  20 -2.605878E+05 -3.091140E+04 -3.526361E+04  4.925176E+04 -1.391173E+04 -4.295644E+03
       349  21 -3.103585E+05 -6.321113E+04 -6.463640E+04  6.312841E+04 -2.753727E+04 -1.530638E+03
       349  22 -1.579979E+05 -7.803179E+02 -7.603153E+03  4.725767E+04 -5.454226E+03 -3.165993E+03
       349  23 -1.556684E+05 -5.612025E+03 -1.372741E+04  4.205122E+04 -1.254262E+04 -4.295671E+03
       349  24 -1.580030E+05 -2.543960E+04 -2.821456E+04  4.725268E+04 -1.963003E+04 -1.531446E+03
       349  25 -9.937562E+04  1.318397E+04  3.590822E+03  4.873294E+04 -1.062473E+04 -3.165186E+03
       349  26 -5.073838E+04  1.968685E+04  7.808236E+03  3.484945E+04 -1.117328E+04 -4.295731E+03
       349  27 -5.625430E+03  1.233123E+04  8.206005E+03  3.137303E+04 -1.172085E+04 -1.532658E+03
       350   1 -1.213155E+05 -6.552919E+05 -1.212789E+05  1.199859E+05 -3.927912E+03 -4.475698E+04
       350   2 -7.025894E+04 -5.506745E+05 -6.954353E+04  9.839539E+04 -1.136898E+04 -2.107460E+04
       350   3 -3.995719E+04 -4.543423E+05 -3.842957E+04  9.905603E+04 -9.601439E+03  2.608238E+03
       350   4 -3.066045E+04 -2.893499E+05 -3.401359E+04  1.010533E+05 -3.913933E+03 -2.451771E+04
       350   5 -6.689620E+03 -2.865359E+05 -1.589841E+04  8.991791E+04 -1.136517E+04 -1.628916E+04
       350   6 -7.834808E+02 -2.893283E+05 -7.661218E+03  1.010350E+05 -9.608805E+03 -8.064461E+03
       350   7  5.998654E+04  7.671672E+04  5.324405E+04  8.210938E+04 -3.901194E+03 -4.266556E+03
       350   8  5.687564E+04 -2.233058E+04  3.774319E+04  8.143675E+04 -1.136150E+04 -1.150171E+04
       350   9  3.838874E+04 -1.242877E+05  2.310640E+04  1.030146E+05 -9.616238E+03 -1.873993E+04
       350  10 -1.213161E+05 -6.552941E+05 -1.212827E+05  1.199857E+05  3.109688E-11  1.813181E-10
       350  11 -7.025920E+04 -5.506750E+05 -6.954460E+04  9.839519E+04  1.550278E-10 -9.398766E-11
       350  12 -3.995729E+04 -4.543423E+05 -3.842975E+04  9.905605E+04 -4.087364E-10 -2.724084E-10
       350  13 -3.066063E+04 -2.893505E+05 -3.401475E+04  1.010532E+05 -3.482482E-10  5.729952E-11
       350  14 -6.689830E+03 -2.865362E+05 -1.589915E+04  8.991776E+04  5.932863E-10 -8.101131E-11
       350  15 -7.835974E+02 -2.893284E+05 -7.661514E+03  1.010350E+05 -3.582212E-10 -6.204874E-12
       350  16  5.998651E+04  7.671670E+04  5.324399E+04  8.210936E+04  6.699584E-11 -1.556701E-10
       350  17  5.687547E+04 -2.233075E+04  3.774270E+04  8.143664E+04  2.968556E-11  1.218269E-10
       350  18  3.838854E+04 -1.242881E+05  2.310557E+04  1.030144E+05  6.598731E-11  2.934661E-10
       350  19 -1.213155E+05 -6.552919E+05 -1.212789E+05  1.199859E+05  3.927912E+03  4.475698E+04
       350  20 -7.025894E+04 -5.506745E+05 -6.954353E+04  9.839539E+04  1.136898E+04  2.107460E+04
       350  21 -3.995719E+04 -4.543423E+05 -3.842957E+04  9.905603E+04  9.601439E+03 -2.608238E+03
       350  22 -3.066045E+04 -2.893499E+05 -3.401359E+04  1.010533E+05  3.913933E+03  2.451771E+04
       350  23 -6.689620E+03 -2.865359E+05 -1.589841E+04  8.991791E+04  1.136517E+04  1.628916E+04
       350  24 -7.834808E+02 -2.893283E+05 -7.661218E+03  1.010350E+05  9.608805E+03  8.064461E+03
       350  25  5.998654E+04  7.671672E+04  5.324405E+04  8.210938E+04  3.901194E+03  4.266556E+03
       350  26  5.687564E+04 -2.233058E+04  3.774319E+04  8.143675E+04  1.136150E+04  1.150171E+04
       350  27  3.838874E+04 -1.242877E+05  2.310640E+04  1.030146E+05  9.616238E+03  1.873993E+04
       351   1 -2.480401E+04 -3.871273E+05 -2.350749E+04  1.014312E+05 -5.679525E+03  2.528133E+03
       351   2  4.282036E+02 -2.866792E+05  2.807338E+01  9.005854E+04  9.917919E+01  2.620562E+03
       351   3  2.563366E+04 -1.862704E+05  2.348733E+04  1.014836E+05  5.871865E+03  2.713015E+03
       351   4 -1.278587E+03 -2.880906E+05 -4.952701E+03  1.011586E+05 -5.686493E+03 -7.181284E+03
       351   5  1.023918E+02 -2.880651E+05 -2.121011E+02  8.975882E+04  9.223261E+01 -7.079089E+03
       351   6  1.455603E+03 -2.880898E+05  4.445979E+03  1.011567E+05  5.864920E+03 -6.976884E+03
       351   7  2.224632E+04 -1.890443E+05  1.360202E+04  1.008860E+05 -5.693453E+03 -1.689221E+04
       351   8 -2.233691E+02 -2.894507E+05 -4.519218E+02  8.945909E+04  8.529539E+01 -1.677872E+04
       351   9 -2.272300E+04 -3.898989E+05 -1.459547E+04  1.008299E+05  5.857985E+03 -1.666523E+04
       351  10 -2.480405E+04 -3.871273E+05 -2.350756E+04  1.014312E+05 -1.214920E-10  3.203963E-10
       351  11  4.282017E+02 -2.866792E+05  2.806045E+01  9.005854E+04 -1.386403E-10  2.224278E-10
       351  12  2.563362E+04 -1.862704E+05  2.348726E+04  1.014836E+05  1.818528E-10  1.770735E-10
       351  13 -1.278636E+03 -2.880907E+05 -4.952859E+03  1.011586E+05 -2.680236E-10 -8.359720E-12
       351  14  1.023784E+02 -2.880651E+05 -2.121953E+02  8.975882E+04 -5.845784E-10  4.870462E-11
       351  15  1.455553E+03 -2.880898E+05  4.445823E+03  1.011567E+05 -4.306394E-10  5.011729E-11
       351  16  2.224621E+04 -1.890446E+05  1.360142E+04  1.008859E+05 -1.154153E-10 -3.438147E-10
       351  17 -2.234447E+02 -2.894510E+05 -4.524511E+02  8.945910E+04  2.104001E-10 -2.367163E-10
       351  18 -2.272311E+04 -3.898993E+05 -1.459605E+04  1.008300E+05  2.328271E-10 -2.038268E-10
       351  19 -2.480401E+04 -3.871273E+05 -2.350749E+04  1.014312E+05  5.679525E+03 -2.528133E+03
       351  20  4.282036E+02 -2.866792E+05  2.807338E+01  9.005854E+04 -9.917919E+01 -2.620562E+03
       351  21  2.563366E+04 -1.862704E+05  2.348733E+04  1.014836E+05 -5.871865E+03 -2.713015E+03
       351  22 -1.278587E+03 -2.880906E+05 -4.952701E+03  1.011586E+05  5.686493E+03  7.181284E+03
       351  23  1.023918E+02 -2.880651E+05 -2.121011E+02  8.975882E+04 -9.223261E+01  7.079089E+03
       351  24  1.455603E+03 -2.880898E+05  4.445979E+03  1.011567E+05 -5.864920E+03  6.976884E+03
       351  25  2.224632E+04 -1.890443E+05  1.360202E+04  1.008860E+05  5.693453E+03  1.689221E+04
       351  26 -2.233691E+02 -2.894507E+05 -4.519218E+02  8.945909E+04 -8.529539E+01  1.677872E+04
       351  27 -2.272300E+04 -3.898989E+05 -1.459547E+04  1.008299E+05 -5.857985E+03  1.666523E+04
       352   1  4.079558E+04 -1.190922E+05  3.832052E+04  9.931718E+04  9.790116E+03  2.877819E+03
       352   2  7.073971E+04 -2.259796E+04  6.908669E+04  9.813511E+04  1.148639E+04 -2.041148E+04
       352   3  1.204822E+05  8.186726E+04  1.199607E+05  1.191922E+05  3.913035E+03 -4.370046E+04
       352   4  9.751818E+02 -2.869129E+05  7.062427E+03  1.010347E+05  9.782776E+03 -7.782783E+03
       352   5  6.493462E+03 -2.895507E+05  1.491371E+04  8.990701E+04  1.149026E+04 -1.549732E+04
       352   6  2.911131E+04 -2.869261E+05  3.205891E+04  1.010175E+05  3.927022E+03 -2.320776E+04
       352   7 -3.884676E+04 -4.547059E+05 -2.419644E+04  1.027517E+05  9.775375E+03 -1.844057E+04
       352   8 -5.775696E+04 -5.564354E+05 -3.926286E+04  8.168250E+04  1.149399E+04 -1.058524E+04
       352   9 -6.226791E+04 -6.555931E+05 -5.585066E+04  8.285373E+04  3.939814E+03 -2.727164E+03
       352  10  4.079547E+04 -1.190923E+05  3.832032E+04  9.931716E+04 -3.804368E-11 -2.529172E-10
       352  11  7.073945E+04 -2.259845E+04  6.908566E+04  9.813530E+04 -1.102131E-10 -1.370919E-10
       352  12  1.204816E+05  8.186521E+04  1.199571E+05  1.191923E+05  1.174219E-10  7.369745E-11
       352  13  9.750627E+02 -2.869130E+05  7.062133E+03  1.010347E+05  4.981805E-10 -4.898928E-11
       352  14  6.493256E+03 -2.895510E+05  1.491301E+04  8.990715E+04 -2.844885E-10  5.315256E-11
       352  15  2.911115E+04 -2.869267E+05  3.205787E+04  1.010176E+05  9.687122E-11 -2.412966E-11
       352  16 -3.884696E+04 -4.547063E+05 -2.419726E+04  1.027518E+05 -7.548189E-11  2.827425E-10
       352  17 -5.775713E+04 -5.564355E+05 -3.926331E+04  8.168260E+04 -2.036541E-10  1.889666E-10
       352  18 -6.226793E+04 -6.555931E+05 -5.585071E+04  8.285373E+04  1.001029E-10 -1.195916E-10
       352  19  4.079558E+04 -1.190922E+05  3.832052E+04  9.931718E+04 -9.790116E+03 -2.877819E+03
       352  20  7.073971E+04 -2.259796E+04  6.908669E+04  9.813511E+04 -1.148639E+04  2.041148E+04
       352  21  1.204822E+05  8.186726E+04  1.199607E+05  1.191922E+05 -3.913035E+03  4.370046E+04
       352  22  9.751818E+02 -2.869129E+05  7.062427E+03  1.010347E+05 -9.782776E+03  7.782783E+03
       352  23  6.493462E+03 -2.895507E+05  1.491371E+04  8.990701E+04 -1.149026E+04  1.549732E+04
       352  24  2.911131E+04 -2.869261E+05  3.205891E+04  1.010175E+05 -3.927022E+03  2.320776E+04
       352  25 -3.884676E+04 -4.547059E+05 -2.419644E+04  1.027517E+05 -9.775375E+03  1.844057E+04
       352  26 -5.775696E+04 -5.564354E+05 -3.926286E+04  8.168250E+04 -1.149399E+04  1.058524E+04
       352  27 -6.226791E+04 -6.555931E+05 -5.585066E+04  8.285373E+04 -3.939814E+03  2.727164E+03
       353   1  1.635577E+05  1.862965E+05  8.635075E+04  9.874368E+04  3.847031E+04  2.606532E+04
       353   2  1.554524E+05  1.401958E+05  5.236245E+04  1.054411E+05  2.659246E+04  1.065397E+04
       353   3  1.611158E+05  1.171278E+05  3.744847E+04  1.040251E+05  1.248887E+04 -1.785447E+03
       353   4  7.641524E+04  7.856879E+04  4.970698E+04  3.441105E+04  2.896643E+04  1.894074E+04
       353   5  6.226237E+04  5.368805E+04  2.422239E+04  4.889075E+04  2.208241E+04  7.273243E+03
       353   6  6.079727E+04  5.075804E+04  1.348104E+04  5.525631E+04  1.297237E+04 -1.423251E+03
       353   7 -1.071631E+04 -2.914054E+04  1.306320E+04 -2.990730E+04  1.946446E+04  1.181893E+04
       353   8 -3.091668E+04 -3.280899E+04 -3.918101E+03 -7.648054E+03  1.757330E+04  3.893502E+03
       353   9 -3.950964E+04 -1.560644E+04 -1.048704E+04  6.496343E+03  1.345577E+04 -1.061129E+03
       353  10  1.635560E+05  1.862954E+05  8.634669E+04  9.874287E+04  1.520230E-10 -3.705326E-12
       353  11  1.554516E+05  1.401955E+05  5.236091E+04  1.054409E+05  2.115120E-10 -8.398309E-11
       353  12  1.611157E+05  1.171277E+05  3.744817E+04  1.040252E+05 -2.151893E-10 -2.832571E-12
       353  13  7.641425E+04  7.856818E+04  4.970473E+04  3.441061E+04 -1.568388E-10 -2.586518E-11
       353  14  6.226183E+04  5.368786E+04  2.422138E+04  4.889062E+04 -2.043147E-10 -1.119821E-11
       353  15  6.079708E+04  5.075800E+04  1.348072E+04  5.525632E+04  1.485171E-10  5.713779E-11
       353  16 -1.071675E+04 -2.914079E+04  1.306222E+04 -2.990749E+04  8.231194E-11 -2.332306E-12
       353  17 -3.091702E+04 -3.280909E+04 -3.918710E+03 -7.648109E+03  3.021960E-11  5.652423E-11
       353  18 -3.950983E+04 -1.560649E+04 -1.048738E+04  6.496355E+03  6.557833E-11  1.336479E-10
       353  19  1.635577E+05  1.862965E+05  8.635075E+04  9.874368E+04 -3.847031E+04 -2.606532E+04
       353  20  1.554524E+05  1.401958E+05  5.236245E+04  1.054411E+05 -2.659246E+04 -1.065397E+04
       353  21  1.611158E+05  1.171278E+05  3.744847E+04  1.040251E+05 -1.248887E+04  1.785447E+03
       353  22  7.641524E+04  7.856879E+04  4.970698E+04  3.441105E+04 -2.896643E+04 -1.894074E+04
       353  23  6.226237E+04  5.368805E+04  2.422239E+04  4.889075E+04 -2.208241E+04 -7.273243E+03
       353  24  6.079727E+04  5.075804E+04  1.348104E+04  5.525631E+04 -1.297237E+04  1.423251E+03
       353  25 -1.071631E+04 -2.914054E+04  1.306320E+04 -2.990730E+04 -1.946446E+04 -1.181893E+04
       353  26 -3.091668E+04 -3.280899E+04 -3.918101E+03 -7.648054E+03 -1.757330E+04 -3.893502E+03
       353  27 -3.950964E+04 -1.560644E+04 -1.048704E+04  6.496343E+03 -1.345577E+04  1.061129E+03
       354   1  1.517595E+05  1.166439E+05  3.288264E+04  1.012849E+05  1.124019E+04 -2.371790E+03
       354   2  1.447860E+05  1.081996E+05  2.618755E+04  9.756759E+04  8.208958E+03 -4.301640E+03
       354   3  1.365781E+05  1.033221E+05  2.219788E+04  9.421303E+04  4.979522E+03 -5.967106E+03
       354   4  5.992477E+04  5.064407E+04  1.039199E+04  5.414840E+04  1.138528E+04 -2.263259E+03
       354   5  6.021735E+04  4.824572E+04  6.071406E+03  5.446409E+04  8.798792E+03 -3.859736E+03
       354   6  5.917960E+04  4.931772E+04  4.070710E+03  5.514244E+04  6.014089E+03 -5.191811E+03
       354   7 -3.190188E+04 -1.535161E+04 -1.209983E+04  7.019257E+03  1.153035E+04 -2.154748E+03
       354   8 -2.434298E+04 -1.170374E+04 -1.404520E+04  1.136742E+04  9.388518E+03 -3.417913E+03
       354   9 -1.821059E+04 -4.682108E+03 -1.405635E+04  1.607816E+04  7.048465E+03 -4.416658E+03
       354  10  1.517594E+05  1.166438E+05  3.288240E+04  1.012849E+05 -4.250423E-11  1.390141E-10
       354  11  1.447859E+05  1.081996E+05  2.618739E+04  9.756762E+04  5.290097E-11  1.673711E-10
       354  12  1.365781E+05  1.033221E+05  2.219777E+04  9.421305E+04  3.189373E-10  4.881774E-11
       354  13  5.992463E+04  5.064403E+04  1.039173E+04  5.414842E+04  1.807563E-11  9.511055E-11
       354  14  6.021726E+04  4.824568E+04  6.071232E+03  5.446412E+04 -1.165425E-10  3.851190E-11
       354  15  5.917955E+04  4.931768E+04  4.070592E+03  5.514246E+04  2.991140E-11 -3.136110E-11
       354  16 -3.190202E+04 -1.535165E+04 -1.210009E+04  7.019277E+03 -2.842340E-10  1.265749E-11
       354  17 -2.434307E+04 -1.170378E+04 -1.404539E+04  1.136744E+04 -9.728572E-12 -3.563272E-11
       354  18 -1.821065E+04 -4.682142E+03 -1.405648E+04  1.607819E+04 -7.924799E-11 -1.195759E-10
       354  19  1.517595E+05  1.166439E+05  3.288264E+04  1.012849E+05 -1.124019E+04  2.371790E+03
       354  20  1.447860E+05  1.081996E+05  2.618755E+04  9.756759E+04 -8.208958E+03  4.301640E+03
       354  21  1.365781E+05  1.033221E+05  2.219788E+04  9.421303E+04 -4.979522E+03  5.967106E+03
       354  22  5.992477E+04  5.064407E+04  1.039199E+04  5.414840E+04 -1.138528E+04  2.263259E+03
       354  23  6.021735E+04  4.824572E+04  6.071406E+03  5.446409E+04 -8.798792E+03  3.859736E+03
       354  24  5.917960E+04  4.931772E+04  4.070710E+03  5.514244E+04 -6.014089E+03  5.191811E+03
       354  25 -3.190188E+04 -1.535161E+04 -1.209983E+04  7.019257E+03 -1.153035E+04  2.154748E+03
       354  26 -2.434298E+04 -1.170374E+04 -1.404520E+04  1.136742E+04 -9.388518E+03  3.417913E+03
       354  27 -1.821059E+04 -4.682108E+03 -1.405635E+04  1.607816E+04 -7.048465E+03  4.416658E+03
       355   1  1.312405E+05  9.999618E+04  2.048210E+04  9.166015E+04  4.196700E+03 -5.986740E+03
       355   2  1.245053E+05  9.337661E+04  1.850769E+04  8.740018E+04  2.328506E+03 -6.433512E+03
       355   3  1.156888E+05  8.930891E+04  1.772899E+04  8.386272E+04  4.407321E+02 -6.854221E+03
       355   4  5.912281E+04  4.931069E+04  3.598041E+03  5.507380E+04  5.200695E+03 -5.234329E+03
       355   5  6.017344E+04  4.804818E+04  3.450494E+03  5.470636E+04  3.376502E+03 -5.648065E+03
       355   6  5.913301E+04  4.932812E+04  4.460582E+03  5.506143E+04  1.532690E+03 -6.035760E+03
       355   7 -1.298885E+04 -1.371670E+03 -1.328635E+04  1.849236E+04  6.204534E+03 -4.482033E+03
       355   8 -4.154232E+03  2.721841E+03 -1.160716E+04  2.201617E+04  4.424362E+03 -4.862720E+03
       355   9  2.579905E+03  9.348553E+03 -8.808376E+03  2.626267E+04  2.624534E+03 -5.217384E+03
       355  10  1.312405E+05  9.999613E+04  2.048200E+04  9.166017E+04 -5.796152E-11 -1.388362E-10
       355  11  1.245053E+05  9.337657E+04  1.850760E+04  8.740019E+04 -1.197431E-10 -6.858453E-11
       355  12  1.156888E+05  8.930886E+04  1.772890E+04  8.386272E+04 -1.076815E-10 -2.636337E-11
       355  13  5.912278E+04  4.931065E+04  3.597939E+03  5.507382E+04 -1.413267E-10 -9.500005E-11
       355  14  6.017342E+04  4.804814E+04  3.450413E+03  5.470638E+04  3.589770E-11  1.102221E-10
       355  15  5.913300E+04  4.932808E+04  4.460509E+03  5.506143E+04 -8.077507E-11  6.810509E-11
       355  16 -1.298889E+04 -1.371702E+03 -1.328646E+04  1.849238E+04 -1.476277E-10  4.436685E-11
       355  17 -4.154259E+03  2.721811E+03 -1.160724E+04  2.201619E+04 -3.588337E-10  1.414803E-10
       355  18  2.579890E+03  9.348522E+03 -8.808440E+03  2.626268E+04  6.654649E-11  1.952309E-10
       355  19  1.312405E+05  9.999618E+04  2.048210E+04  9.166015E+04 -4.196700E+03  5.986740E+03
       355  20  1.245053E+05  9.337661E+04  1.850769E+04  8.740018E+04 -2.328506E+03  6.433512E+03
       355  21  1.156888E+05  8.930891E+04  1.772899E+04  8.386272E+04 -4.407321E+02  6.854221E+03
       355  22  5.912281E+04  4.931069E+04  3.598041E+03  5.507380E+04 -5.200695E+03  5.234329E+03
       355  23  6.017344E+04  4.804818E+04  3.450494E+03  5.470636E+04 -3.376502E+03  5.648065E+03
       355  24  5.913301E+04  4.932812E+04  4.460582E+03  5.506143E+04 -1.532690E+03  6.035760E+03
       355  25 -1.298885E+04 -1.371670E+03 -1.328635E+04  1.849236E+04 -6.204534E+03  4.482033E+03
       355  26 -4.154232E+03  2.721841E+03 -1.160716E+04  2.201617E+04 -4.424362E+03  4.862720E+03
       355  27  2.579905E+03  9.348553E+03 -8.808376E+03  2.626267E+04 -2.624534E+03  5.217384E+03
       356   1  1.104204E+05  8.612596E+04  1.749047E+04  8.153708E+04 -5.309505E+02 -6.994129E+03
       356   2  1.045350E+05  7.884644E+04  1.914583E+04  7.652406E+04 -4.615007E+03 -9.021327E+03
       356   3  9.780676E+04  7.567471E+04  2.425616E+04  7.170084E+04 -8.723221E+03 -1.101611E+04
       356   4  5.922611E+04  4.935060E+04  5.440708E+03  5.518450E+04  5.548038E+02 -6.180287E+03
       356   5  6.022213E+04  4.831424E+04  8.851514E+03  5.433159E+04 -3.474636E+03 -8.166526E+03
       356   6  6.036318E+04  5.137375E+04  1.566998E+04  5.366831E+04 -7.528319E+03 -1.012042E+04
       356   7  8.035842E+03  1.257762E+04 -6.608878E+03  2.883495E+04  1.640419E+03 -5.366553E+03
       356   8  1.591195E+04  1.778348E+04 -1.442771E+03  3.214115E+04 -2.334385E+03 -7.311811E+03
       356   9  2.292127E+04  2.707351E+04  7.083733E+03  3.563702E+04 -6.333514E+03 -9.224798E+03
       356  10  1.104204E+05  8.612591E+04  1.749037E+04  8.153708E+04  7.521845E-11  1.201859E-10
       356  11  1.045350E+05  7.884635E+04  1.914564E+04  7.652402E+04 -8.044752E-12  2.362557E-11
       356  12  9.780664E+04  7.567456E+04  2.425579E+04  7.170076E+04  6.114878E-11 -4.485383E-11
       356  13  5.922610E+04  4.935056E+04  5.440635E+03  5.518451E+04 -1.940156E-10  1.081690E-10
       356  14  6.022210E+04  4.831417E+04  8.851366E+03  5.433156E+04  1.782747E-10 -5.227707E-11
       356  15  6.036310E+04  5.137362E+04  1.566968E+04  5.366825E+04 -3.083749E-11  8.072721E-12
       356  16  8.035831E+03  1.257759E+04 -6.608937E+03  2.883496E+04 -1.783536E-10  1.129685E-11
       356  17  1.591193E+04  1.778342E+04 -1.442882E+03  3.214113E+04  1.485147E-11 -1.413451E-11
       356  18  2.292120E+04  2.707341E+04  7.083498E+03  3.563697E+04  1.275687E-11 -1.246297E-11
       356  19  1.104204E+05  8.612596E+04  1.749047E+04  8.153708E+04  5.309505E+02  6.994129E+03
       356  20  1.045350E+05  7.884644E+04  1.914583E+04  7.652406E+04  4.615007E+03  9.021327E+03
       356  21  9.780676E+04  7.567471E+04  2.425616E+04  7.170084E+04  8.723221E+03  1.101611E+04
       356  22  5.922611E+04  4.935060E+04  5.440708E+03  5.518450E+04 -5.548038E+02  6.180287E+03
       356  23  6.022213E+04  4.831424E+04  8.851514E+03  5.433159E+04  3.474636E+03  8.166526E+03
       356  24  6.036318E+04  5.137375E+04  1.566998E+04  5.366831E+04  7.528319E+03  1.012042E+04
       356  25  8.035842E+03  1.257762E+04 -6.608878E+03  2.883495E+04 -1.640419E+03  5.366553E+03
       356  26  1.591195E+04  1.778348E+04 -1.442771E+03  3.214115E+04  2.334385E+03  7.311811E+03
       356  27  2.292127E+04  2.707351E+04  7.083733E+03  3.563702E+04  6.333514E+03  9.224798E+03
       357   1  8.900673E+04  7.745553E+04  2.786604E+04  7.235938E+04 -1.112191E+04 -1.219940E+04
       357   2  1.055764E+05  5.448941E+04  4.292058E+04  5.220896E+04 -2.763628E+04 -2.323744E+04
       357   3  1.425363E+05  6.443915E+04  8.103235E+04  1.938074E+04 -4.440758E+04 -3.393266E+04
       357   4  6.161986E+04  5.163474E+04  2.047022E+04  5.539393E+04 -9.966285E+03 -1.133296E+04
       357   5  6.345474E+04  5.653544E+04  3.702400E+04  4.576696E+04 -2.590537E+04 -2.194125E+04
       357   6  8.555404E+04  9.422660E+04  7.613654E+04  2.346223E+04 -4.210057E+04 -3.220795E+04
       357   7  3.423349E+04  2.581450E+04  1.307420E+04  3.842923E+04 -8.810705E+03 -1.046659E+04
       357   8  2.133547E+04  5.858201E+04  3.112755E+04  3.932486E+04 -2.417462E+04 -2.064501E+04
       357   9  2.857864E+04  1.240185E+05  7.124173E+04  2.754210E+04 -3.979388E+04 -3.048299E+04
       357  10  8.900655E+04  7.745533E+04  2.786552E+04  7.235927E+04  2.496889E-10  3.970565E-12
       357  11  1.055755E+05  5.448863E+04  4.291813E+04  5.220845E+04  1.803861E-10 -1.573369E-10
       357  12  1.425339E+05  6.443738E+04  8.102648E+04  1.937953E+04 -1.959663E-10 -4.983121E-11
       357  13  6.161972E+04  5.163458E+04  2.046979E+04  5.539384E+04 -2.081991E-10 -1.401326E-10
       357  14  6.345389E+04  5.653474E+04  3.702183E+04  4.576650E+04 -6.464761E-11 -1.409793E-10
       357  15  8.555185E+04  9.422501E+04  7.613126E+04  2.346114E+04 -7.307354E-11 -1.189947E-10
       357  16  3.423338E+04  2.581436E+04  1.307385E+04  3.842915E+04 -2.494849E-10 -7.932440E-11
       357  17  2.133473E+04  5.858140E+04  3.112565E+04  3.932446E+04 -8.880890E-11 -1.509419E-10
       357  18  2.857669E+04  1.240171E+05  7.123701E+04  2.754112E+04  9.887200E-11  6.857138E-11
       357  19  8.900673E+04  7.745553E+04  2.786604E+04  7.235938E+04  1.112191E+04  1.219940E+04
       357  20  1.055764E+05  5.448941E+04  4.292058E+04  5.220896E+04  2.763628E+04  2.323744E+04
       357  21  1.425363E+05  6.443915E+04  8.103235E+04  1.938074E+04  4.440758E+04  3.393266E+04
       357  22  6.161986E+04  5.163474E+04  2.047022E+04  5.539393E+04  9.966285E+03  1.133296E+04
       357  23  6.345474E+04  5.653544E+04  3.702400E+04  4.576696E+04  2.590537E+04  2.194125E+04
       357  24  8.555404E+04  9.422660E+04  7.613654E+04  2.346223E+04  4.210057E+04  3.220795E+04
       357  25  3.423349E+04  2.581450E+04  1.307420E+04  3.842923E+04  8.810705E+03  1.046659E+04
       357  26  2.133547E+04  5.858201E+04  3.112755E+04  3.932486E+04  2.417462E+04  2.064501E+04
       357  27  2.857864E+04  1.240185E+05  7.124173E+04  2.754210E+04  3.979388E+04  3.048299E+04
       358   1  2.055351E+05  6.401882E+04  5.747911E+04  4.486995E+04  5.147642E+03 -4.443838E+03
       358   2  1.469081E+05  6.544123E+04  4.528490E+04  4.659710E+04 -2.732819E+03 -1.407708E+04
       358   3  8.642382E+04  5.524921E+04  3.531841E+04  6.127033E+04 -1.061012E+04 -1.498373E+04
       358   4 -1.506068E+05 -2.404856E+04 -2.669511E+04  5.991782E+04 -1.836786E+04 -4.440049E+03
       358   5 -1.483962E+05 -5.307012E+03 -1.314412E+04  5.344576E+04 -1.158561E+04 -1.407663E+04
       358   6 -1.505938E+05 -7.287461E+02 -7.548871E+03  5.992072E+04 -4.800876E+03 -1.498453E+04
       358   7 -5.066304E+05 -1.121239E+05 -1.108759E+05  7.495700E+04 -4.186994E+04 -4.437399E+03
       358   8 -4.436168E+05 -7.606034E+04 -7.157713E+04  6.029109E+04 -2.043428E+04 -1.407639E+04
       358   9 -3.875566E+05 -5.670982E+04 -5.041823E+04  5.857164E+04  1.006213E+03 -1.498535E+04
       358  10  2.055350E+05  6.401879E+04  5.747902E+04  4.486997E+04  1.397118E-10 -1.652809E-13
       358  11  1.469080E+05  6.544102E+04  4.528452E+04  4.659707E+04  2.053822E-10 -5.357296E-12
       358  12  8.642364E+04  5.524893E+04  3.531778E+04  6.127020E+04 -1.270228E-10  7.570502E-11
       358  13 -1.506072E+05 -2.404868E+04 -2.669578E+04  5.991775E+04 -5.918068E-11  5.614422E-11
       358  14 -1.483964E+05 -5.307261E+03 -1.314475E+04  5.344562E+04  1.515762E-10 -5.523088E-11
       358  15 -1.505939E+05 -7.289934E+02 -7.549336E+03  5.992066E+04  3.124671E-10 -1.704948E-11
       358  16 -5.066323E+05 -1.121244E+05 -1.108792E+05  7.495685E+04 -7.165990E-13 -2.910648E-11
       358  17 -4.436173E+05 -7.606067E+04 -7.157829E+04  6.029086E+04 -1.259426E-10 -1.320672E-10
       358  18 -3.875567E+05 -5.671006E+04 -5.041866E+04  5.857165E+04  5.057367E-11 -1.741137E-10
       358  19  2.055351E+05  6.401882E+04  5.747911E+04  4.486995E+04 -5.147642E+03  4.443838E+03
       358  20  1.469081E+05  6.544123E+04  4.528490E+04  4.659710E+04  2.732819E+03  1.407708E+04
       358  21  8.642382E+04  5.524921E+04  3.531841E+04  6.127033E+04  1.061012E+04  1.498373E+04
       358  22 -1.506068E+05 -2.404856E+04 -2.669511E+04  5.991782E+04  1.836786E+04  4.440049E+03
       358  23 -1.483962E+05 -5.307012E+03 -1.314412E+04  5.344576E+04  1.158561E+04  1.407663E+04
       358  24 -1.505938E+05 -7.287461E+02 -7.548871E+03  5.992072E+04  4.800876E+03  1.498453E+04
       358  25 -5.066304E+05 -1.121239E+05 -1.108759E+05  7.495700E+04  4.186994E+04  4.437399E+03
       358  26 -4.436168E+05 -7.606034E+04 -7.157713E+04  6.029109E+04  2.043428E+04  1.407639E+04
       358  27 -3.875566E+05 -5.670982E+04 -5.041823E+04  5.857164E+04 -1.006213E+03  1.498535E+04
       359   1  4.806743E+04  4.556323E+04  2.943253E+04  5.954726E+04 -8.600740E+03 -1.280489E+04
       359   2 -1.131394E+04  3.230823E+04  2.003389E+04  5.308019E+04 -7.813212E+03 -9.572487E+03
       359   3 -7.093478E+04  1.846183E+04  9.976493E+03  6.012810E+04 -7.026044E+03 -5.610363E+03
       359   4 -1.497126E+05 -1.083195E+03 -6.009614E+03  6.004637E+04 -3.782130E+03 -1.280541E+04
       359   5 -1.494814E+05 -1.426372E+02 -4.041150E+03  5.328877E+04 -1.769433E+03 -9.572753E+03
       359   6 -1.497070E+05 -6.411013E+00 -3.582925E+03  6.004638E+04  2.429556E+02 -5.610290E+03
       359   7 -3.474544E+05 -4.773178E+04 -4.145317E+04  6.054530E+04  1.034989E+03 -1.280592E+04
       359   8 -2.876301E+05 -3.259452E+04 -2.811673E+04  5.349730E+04  4.273041E+03 -9.573015E+03
       359   9 -2.284731E+05 -1.847496E+04 -1.714235E+04  5.996468E+04  7.511062E+03 -5.610220E+03
       359  10  4.806730E+04  4.556303E+04  2.943208E+04  5.954718E+04  2.039382E-10  6.069750E-11
       359  11 -1.131403E+04  3.230811E+04  2.003361E+04  5.308013E+04 -1.587440E-10  1.686293E-11
       359  12 -7.093484E+04  1.846178E+04  9.976342E+03  6.012807E+04 -1.607506E-10 -6.322022E-12
       359  13 -1.497127E+05 -1.083375E+03 -6.009949E+03  6.004633E+04  2.589115E-10 -1.255519E-10
       359  14 -1.494815E+05 -1.427365E+02 -4.041328E+03  5.328875E+04  2.269560E-10 -1.914921E-10
       359  15 -1.497070E+05 -6.444826E+00 -3.582984E+03  6.004638E+04  3.126956E-11  2.374336E-11
       359  16 -3.474545E+05 -4.773196E+04 -4.145348E+04  6.054531E+04  1.078371E-10 -8.998456E-11
       359  17 -2.876302E+05 -3.259462E+04 -2.811694E+04  5.349733E+04  6.850323E-11 -2.083972E-11
       359  18 -2.284732E+05 -1.847500E+04 -1.714252E+04  5.996471E+04  1.726116E-10  4.504531E-11
       359  19  4.806743E+04  4.556323E+04  2.943253E+04  5.954726E+04  8.600740E+03  1.280489E+04
       359  20 -1.131394E+04  3.230823E+04  2.003389E+04  5.308019E+04  7.813212E+03  9.572487E+03
       359  21 -7.093478E+04  1.846183E+04  9.976493E+03  6.012810E+04  7.026044E+03  5.610363E+03
       359  22 -1.497126E+05 -1.083195E+03 -6.009614E+03  6.004637E+04  3.782130E+03  1.280541E+04
       359  23 -1.494814E+05 -1.426372E+02 -4.041150E+03  5.328877E+04  1.769433E+03  9.572753E+03
       359  24 -1.497070E+05 -6.411013E+00 -3.582925E+03  6.004638E+04 -2.429556E+02  5.610290E+03
       359  25 -3.474544E+05 -4.773178E+04 -4.145317E+04  6.054530E+04 -1.034989E+03  1.280592E+04
       359  26 -2.876301E+05 -3.259452E+04 -2.811673E+04  5.349730E+04 -4.273041E+03  9.573015E+03
       359  27 -2.284731E+05 -1.847496E+04 -1.714235E+04  5.996468E+04 -7.511062E+03  5.610220E+03
       360   1 -1.098351E+05  9.319136E+03  2.867985E+03  5.984792E+04 -6.355110E+03 -3.046351E+03
       360   2 -1.689599E+05 -4.878800E+03 -8.864875E+03  5.352092E+04 -3.030498E+03  1.033556E+03
       360   3 -2.288304E+05 -2.035194E+04 -2.308099E+04  6.072666E+04  2.938483E+02  4.651606E+03
       360   4 -1.497410E+05  7.562333E+00 -3.778271E+03  6.005028E+04  8.857822E+02 -3.046190E+03
       360   5 -1.494347E+05 -2.227352E+02 -5.113188E+03  5.328391E+04  3.434427E+03  1.033657E+03
       360   6 -1.497420E+05 -1.593050E+03 -8.392088E+03  6.005028E+04  5.983096E+03  4.651657E+03
       360   7 -1.896452E+05 -9.304066E+03 -1.042438E+04  6.025262E+04  8.126225E+03 -3.046024E+03
       360   8 -1.299091E+05  4.433330E+03 -1.361362E+03  5.304690E+04  9.899550E+03  1.033754E+03
       360   9 -7.064737E+04  1.716550E+04  6.296673E+03  5.937382E+04  1.167305E+04  4.651695E+03
       360  10 -1.098351E+05  9.319115E+03  2.867891E+03  5.984790E+04  3.147560E-10  5.866590E-11
       360  11 -1.689599E+05 -4.878804E+03 -8.864894E+03  5.352092E+04  7.534257E-11 -9.074549E-11
       360  12 -2.288304E+05 -2.035196E+04 -2.308103E+04  6.072665E+04  5.437461E-12 -6.729602E-11
       360  13 -1.497410E+05  7.552159E+00 -3.778290E+03  6.005028E+04  2.378367E-10  2.383958E-11
       360  14 -1.494348E+05 -2.227395E+02 -5.113212E+03  5.328391E+04  1.066485E-10 -6.388656E-11
       360  15 -1.497420E+05 -1.593083E+03 -8.392195E+03  6.005026E+04  1.094881E-10 -1.253646E-10
       360  16 -1.896452E+05 -9.304093E+03 -1.042452E+04  6.025264E+04 -1.523018E-10  3.623605E-11
       360  17 -1.299093E+05  4.433303E+03 -1.361548E+03  5.304689E+04 -3.276956E-11 -4.550108E-11
       360  18 -7.064752E+04  1.716544E+04  6.296377E+03  5.937378E+04  5.776895E-11 -6.087533E-11
       360  19 -1.098351E+05  9.319136E+03  2.867985E+03  5.984792E+04  6.355110E+03  3.046351E+03
       360  20 -1.689599E+05 -4.878800E+03 -8.864875E+03  5.352092E+04  3.030498E+03 -1.033556E+03
       360  21 -2.288304E+05 -2.035194E+04 -2.308099E+04  6.072666E+04 -2.938483E+02 -4.651606E+03
       360  22 -1.497410E+05  7.562333E+00 -3.778271E+03  6.005028E+04 -8.857822E+02  3.046190E+03
       360  23 -1.494347E+05 -2.227352E+02 -5.113188E+03  5.328391E+04 -3.434427E+03 -1.033657E+03
       360  24 -1.497420E+05 -1.593050E+03 -8.392088E+03  6.005028E+04 -5.983096E+03 -4.651657E+03
       360  25 -1.896452E+05 -9.304066E+03 -1.042438E+04  6.025262E+04 -8.126225E+03  3.046024E+03
       360  26 -1.299091E+05  4.433330E+03 -1.361362E+03  5.304690E+04 -9.899550E+03 -1.033754E+03
       360  27 -7.064737E+04  1.716550E+04  6.296673E+03  5.937382E+04 -1.167305E+04 -4.651695E+03
       361   1 -2.692361E+05 -2.908925E+04 -3.271619E+04  5.791936E+04  1.049891E+03  6.972368E+03
       361   2 -3.246444E+05 -5.032344E+04 -5.493592E+04  6.342414E+04  2.098681E+04  7.778009E+03
       361   3 -3.882988E+05 -9.419237E+04 -9.579705E+04  8.207448E+04  4.092065E+04  2.619957E+03
       361   4 -1.510530E+05 -1.061571E+03 -1.078910E+04  5.996497E+04  7.412000E+03  6.972305E+03
       361   5 -1.478039E+05 -7.801589E+03 -1.922048E+04  5.339073E+04  1.733519E+04  7.777605E+03
       361   6 -1.510624E+05 -3.543385E+04 -3.933491E+04  5.996309E+04  2.725739E+04  2.619214E+03
       361   7 -3.285630E+04  2.696534E+04  1.113757E+04  6.201098E+04  1.377529E+04  6.972283E+03
       361   8  2.906665E+04  3.471871E+04  1.649345E+04  4.335441E+04  1.368255E+04  7.777319E+03
       361   9  8.622716E+04  2.332253E+04  1.712424E+04  3.784320E+04  1.358894E+04  2.619445E+03
       361  10 -2.692361E+05 -2.908930E+04 -3.271629E+04  5.791935E+04 -1.065438E-10 -1.031373E-10
       361  11 -3.246449E+05 -5.032362E+04 -5.493686E+04  6.342401E+04  1.003106E-11  6.226104E-11
       361  12 -3.883006E+05 -9.419282E+04 -9.580021E+04  8.207440E+04 -4.332864E-11  3.464735E-11
       361  13 -1.510531E+05 -1.061638E+03 -1.078929E+04  5.996493E+04  8.455703E-11 -1.499044E-10
       361  14 -1.478042E+05 -7.801735E+03 -1.922116E+04  5.339062E+04 -1.143534E-11 -1.729106E-10
       361  15 -1.510632E+05 -3.543406E+04 -3.933632E+04  5.996303E+04  5.285077E-11 -9.138364E-11
       361  16 -3.285652E+04  2.696524E+04  1.113712E+04  6.201090E+04  1.285628E-10 -1.885006E-10
       361  17  2.906643E+04  3.471859E+04  1.649299E+04  4.335432E+04 -2.128413E-10 -1.529259E-10
       361  18  8.622696E+04  2.332248E+04  1.712388E+04  3.784317E+04 -1.221001E-11 -5.638572E-11
       361  19 -2.692361E+05 -2.908925E+04 -3.271619E+04  5.791936E+04 -1.049891E+03 -6.972368E+03
       361  20 -3.246444E+05 -5.032344E+04 -5.493592E+04  6.342414E+04 -2.098681E+04 -7.778009E+03
       361  21 -3.882988E+05 -9.419237E+04 -9.579705E+04  8.207448E+04 -4.092065E+04 -2.619957E+03
       361  22 -1.510530E+05 -1.061571E+03 -1.078910E+04  5.996497E+04 -7.412000E+03 -6.972305E+03
       361  23 -1.478039E+05 -7.801589E+03 -1.922048E+04  5.339073E+04 -1.733519E+04 -7.777605E+03
       361  24 -1.510624E+05 -3.543385E+04 -3.933491E+04  5.996309E+04 -2.725739E+04 -2.619214E+03
       361  25 -3.285630E+04  2.696534E+04  1.113757E+04  6.201098E+04 -1.377529E+04 -6.972283E+03
       361  26  2.906665E+04  3.471871E+04  1.649345E+04  4.335441E+04 -1.368255E+04 -7.777319E+03
       361  27  8.622716E+04  2.332253E+04  1.712424E+04  3.784320E+04 -1.358894E+04 -2.619445E+03
       362   1 -8.641704E+04 -3.890570E+05 -8.520339E+04  1.005966E+05 -2.980886E+03 -2.622414E+04
       362   2 -5.174611E+04 -2.948703E+05 -4.800578E+04  8.591719E+04 -8.329942E+03 -1.029937E+04
       362   3 -2.695800E+04 -2.052315E+05 -2.365342E+04  9.165456E+04 -6.169953E+03  5.625995E+03
       362   4 -1.309470E+04 -9.322095E+04 -1.447242E+04  9.256759E+04 -2.973654E+03 -1.092732E+04
       362   5 -2.850107E+03 -9.203187E+04 -6.390726E+03  8.235631E+04 -8.328397E+03 -7.610007E+03
       362   6 -2.965653E+02 -9.320823E+04 -2.394150E+03  9.256211E+04 -6.174991E+03 -4.294725E+03
       362   7  6.022168E+04  2.026960E+05  5.625330E+04  8.453474E+04 -2.966820E+03  4.376753E+03
       362   8  4.604336E+04  1.108457E+05  3.522217E+04  7.879424E+04 -8.326883E+03 -4.919776E+03
       362   9  2.636419E+04  1.882733E+04  1.886493E+04  9.346982E+04 -6.180057E+03 -1.421719E+04
       362  10 -8.641724E+04 -3.890577E+05 -8.520470E+04  1.005965E+05  3.986883E-11  1.950464E-10
       362  11 -5.174621E+04 -2.948705E+05 -4.800611E+04  8.591712E+04  2.305506E-10 -6.876842E-11
       362  12 -2.695805E+04 -2.052315E+05 -2.365355E+04  9.165459E+04 -9.856492E-11 -3.260370E-10
       362  13 -1.309474E+04 -9.322108E+04 -1.447266E+04  9.256756E+04 -1.787166E-10  1.951798E-11
       362  14 -2.850197E+03 -9.203196E+04 -6.390965E+03  8.235626E+04  4.535548E-10  2.942719E-11
       362  15 -2.966111E+02 -9.320826E+04 -2.394256E+03  9.256209E+04  3.453563E-11 -2.470257E-11
       362  16  6.022167E+04  2.026960E+05  5.625325E+04  8.453475E+04  7.478824E-11 -1.919691E-10
       362  17  4.604328E+04  1.108457E+05  3.522199E+04  7.879421E+04  6.841992E-11  5.123441E-11
       362  18  2.636409E+04  1.882710E+04  1.886448E+04  9.346975E+04  1.243566E-11  2.703624E-10
       362  19 -8.641704E+04 -3.890570E+05 -8.520339E+04  1.005966E+05  2.980886E+03  2.622414E+04
       362  20 -5.174611E+04 -2.948703E+05 -4.800578E+04  8.591719E+04  8.329942E+03  1.029937E+04
       362  21 -2.695800E+04 -2.052315E+05 -2.365342E+04  9.165456E+04  6.169953E+03 -5.625995E+03
       362  22 -1.309470E+04 -9.322095E+04 -1.447242E+04  9.256759E+04  2.973654E+03  1.092732E+04
       362  23 -2.850107E+03 -9.203187E+04 -6.390726E+03  8.235631E+04  8.328397E+03  7.610007E+03
       362  24 -2.965653E+02 -9.320823E+04 -2.394150E+03  9.256211E+04  6.174991E+03  4.294725E+03
       362  25  6.022168E+04  2.026960E+05  5.625330E+04  8.453474E+04  2.966820E+03 -4.376753E+03
       362  26  4.604336E+04  1.108457E+05  3.522217E+04  7.879424E+04  8.326883E+03  4.919776E+03
       362  27  2.636419E+04  1.882733E+04  1.886493E+04  9.346982E+04  6.180057E+03  1.421719E+04
       363   1 -1.289956E+04 -1.443290E+05 -1.105754E+04  9.263871E+04 -2.541065E+03  5.052442E+03
       363   2  9.608284E+03 -5.261179E+04  9.046956E+03  8.246408E+04  2.823479E+03  3.724256E+03
       363   3  3.271224E+04  3.941810E+04  3.015951E+04  9.314162E+04  8.021558E+03  2.396101E+03
       363   4 -5.279252E+02 -9.262378E+04 -9.116912E+02  9.265957E+04 -2.545870E+03 -4.099811E+03
       363   5  1.891071E+02 -9.275303E+04  2.096917E+03  8.223296E+04  2.818960E+03 -5.148739E+03
       363   6  1.454301E+03 -9.262599E+04  5.919964E+03  9.265857E+04  8.017301E+03 -6.197448E+03
       363   7  1.184360E+04 -4.091582E+04  9.234348E+03  9.268042E+04 -2.550674E+03 -1.325281E+04
       363   8 -9.230115E+03 -1.328925E+05 -4.852882E+03  8.200185E+04  2.814446E+03 -1.402118E+04
       363   9 -2.980459E+04 -2.246530E+05 -1.832002E+04  9.217563E+04  8.013058E+03 -1.478922E+04
       363  10 -1.289958E+04 -1.443290E+05 -1.105760E+04  9.263872E+04 -7.758365E-11  2.734478E-11
       363  11  9.608272E+03 -5.261180E+04  9.046915E+03  8.246407E+04 -1.265298E-10  1.183949E-10
       363  12  3.271217E+04  3.941808E+04  3.015938E+04  9.314160E+04  2.066800E-10  1.024956E-10
       363  13 -5.279367E+02 -9.262380E+04 -9.117350E+02  9.265956E+04 -2.132076E-12  4.904077E-11
       363  14  1.890914E+02 -9.275306E+04  2.096852E+03  8.223297E+04 -3.352609E-10  5.755371E-11
       363  15  1.454222E+03 -9.262605E+04  5.919771E+03  9.265861E+04 -2.317230E-10 -7.371951E-11
       363  16  1.184354E+04 -4.091601E+04  9.234005E+03  9.268040E+04  8.647814E-13 -1.691920E-11
       363  17 -9.230176E+03 -1.328927E+05 -4.853267E+03  8.200188E+04  1.562766E-10 -5.966104E-11
       363  18 -2.980472E+04 -2.246532E+05 -1.832055E+04  9.217572E+04  1.163357E-10 -2.528380E-10
       363  19 -1.289956E+04 -1.443290E+05 -1.105754E+04  9.263871E+04  2.541065E+03 -5.052442E+03
       363  20  9.608284E+03 -5.261179E+04  9.046956E+03  8.246408E+04 -2.823479E+03 -3.724256E+03
       363  21  3.271224E+04  3.941810E+04  3.015951E+04  9.314162E+04 -8.021558E+03 -2.396101E+03
       363  22 -5.279252E+02 -9.262378E+04 -9.116912E+02  9.265957E+04  2.545870E+03  4.099811E+03
       363  23  1.891071E+02 -9.275303E+04  2.096917E+03  8.223296E+04 -2.818960E+03  5.148739E+03
       363  24  1.454301E+03 -9.262599E+04  5.919964E+03  9.265857E+04 -8.017301E+03  6.197448E+03
       363  25  1.184360E+04 -4.091582E+04  9.234348E+03  9.268042E+04  2.550674E+03  1.325281E+04
       363  26 -9.230115E+03 -1.328925E+05 -4.852882E+03  8.200185E+04 -2.814446E+03  1.402118E+04
       363  27 -2.980459E+04 -2.246530E+05 -1.832002E+04  9.217563E+04 -8.013058E+03  1.478922E+04
       364   1  4.655829E+04  1.010061E+05  4.377771E+04  9.077741E+04  1.156237E+04  2.363152E+03
       364   2  7.473391E+04  1.888034E+05  7.300562E+04  9.099034E+04  1.256684E+04 -2.168682E+04
       364   3  1.235125E+05  2.848824E+05  1.230373E+05  1.114854E+05  4.181927E+03 -4.573820E+04
       364   4  9.745699E+02 -9.145567E+04  8.308556E+03  9.253309E+04  1.155794E+04 -7.230559E+03
       364   5  6.721748E+03 -9.423337E+04  1.600549E+04  8.238664E+04  1.257028E+04 -1.550013E+04
       364   6  3.033839E+04 -9.147114E+04  3.355232E+04  9.252137E+04  4.192087E+03 -2.376749E+04
       364   7 -4.461120E+04 -2.838813E+05 -2.716179E+04  9.428822E+04  1.155345E+04 -1.682137E+04
       364   8 -6.129507E+04 -3.771935E+05 -4.099856E+04  7.378692E+04  1.257355E+04 -9.316206E+03
       364   9 -6.284435E+04 -4.676929E+05 -5.594059E+04  7.356890E+04  4.200908E+03 -1.810035E+03
       364  10  4.655815E+04  1.010061E+05  4.377745E+04  9.077739E+04 -1.587528E-11 -2.761015E-10
       364  11  7.473362E+04  1.888028E+05  7.300444E+04  9.099056E+04 -1.389521E-10 -1.603192E-10
       364  12  1.235119E+05  2.848802E+05  1.230334E+05  1.114855E+05  6.646341E-11  7.008303E-11
       364  13  9.744124E+02 -9.145576E+04  8.308207E+03  9.253316E+04  2.638023E-10 -4.151417E-11
       364  14  6.721514E+03 -9.423367E+04  1.600474E+04  8.238679E+04 -2.511688E-10  1.240118E-10
       364  15  3.033822E+04 -9.147175E+04  3.355123E+04  9.252145E+04  7.414579E-11 -3.127673E-11
       364  16 -4.461142E+04 -2.838817E+05 -2.716257E+04  9.428837E+04 -1.134274E-10  2.657266E-10
       364  17 -6.129526E+04 -3.771937E+05 -4.099902E+04  7.378701E+04 -1.954845E-10  2.040268E-10
       364  18 -6.284437E+04 -4.676929E+05 -5.594063E+04  7.356891E+04  8.754542E-11 -8.381588E-11
       364  19  4.655829E+04  1.010061E+05  4.377771E+04  9.077741E+04 -1.156237E+04 -2.363152E+03
       364  20  7.473391E+04  1.888034E+05  7.300562E+04  9.099034E+04 -1.256684E+04  2.168682E+04
       364  21  1.235125E+05  2.848824E+05  1.230373E+05  1.114854E+05 -4.181927E+03  4.573820E+04
       364  22  9.745699E+02 -9.145567E+04  8.308556E+03  9.253309E+04 -1.155794E+04  7.230559E+03
       364  23  6.721748E+03 -9.423337E+04  1.600549E+04  8.238664E+04 -1.257028E+04  1.550013E+04
       364  24  3.033839E+04 -9.147114E+04  3.355232E+04  9.252137E+04 -4.192087E+03  2.376749E+04
       364  25 -4.461120E+04 -2.838813E+05 -2.716179E+04  9.428822E+04 -1.155345E+04  1.682137E+04
       364  26 -6.129507E+04 -3.771935E+05 -4.099856E+04  7.378692E+04 -1.257355E+04  9.316206E+03
       364  27 -6.284435E+04 -4.676929E+05 -5.594059E+04  7.356890E+04 -4.200908E+03  1.810035E+03
       365   1  2.026263E+05  2.025073E+05  7.807505E+04  1.317572E+05  3.312621E+04  2.202325E+04
       365   2  1.922585E+05  1.616662E+05  4.819513E+04  1.348900E+05  2.299511E+04  7.911516E+03
       365   3  1.919710E+05  1.407799E+05  3.467585E+04  1.318778E+05  1.052986E+04 -3.085196E+03
       365   4  1.054243E+05  9.669727E+04  3.984253E+04  6.662941E+04  2.349507E+04  1.480181E+04
       365   5  9.468989E+04  7.614390E+04  1.942136E+04  7.805732E+04  1.859938E+04  4.615587E+03
       365   6  9.290207E+04  7.441174E+04  1.081991E+04  8.333954E+04  1.136915E+04 -2.456154E+03
       365   7  8.233020E+03 -9.097814E+03  1.608990E+03  1.515621E+03  1.386591E+04  7.582935E+03
       365   8 -2.868779E+03 -9.369739E+03 -9.353632E+03  2.123537E+04  1.420453E+04  1.320538E+03
       365   9 -6.157384E+03  8.047557E+03 -1.303731E+04  3.480909E+04  1.220828E+04 -1.827227E+03
       365  10  2.026250E+05  2.025065E+05  7.807207E+04  1.317566E+05 -7.875846E-11  8.015324E-12
       365  11  1.922579E+05  1.616659E+05  4.819402E+04  1.348899E+05 -6.336671E-11  1.717649E-10
       365  12  1.919709E+05  1.407799E+05  3.467562E+04  1.318779E+05  1.840990E-10  2.119886E-10
       365  13  1.054236E+05  9.669689E+04  3.984108E+04  6.662913E+04 -1.119705E-10  6.749556E-11
       365  14  9.468952E+04  7.614379E+04  1.942067E+04  7.805725E+04 -2.719945E-10  2.569260E-10
       365  15  9.290193E+04  7.441170E+04  1.081966E+04  8.333956E+04  3.381836E-10  1.732489E-10
       365  16  8.232798E+03 -9.097927E+03  1.608521E+03  1.515536E+03  1.550566E-10  1.031339E-10
       365  17 -2.868996E+03 -9.369795E+03 -9.354015E+03  2.123536E+04 -2.289431E-10  1.129098E-10
       365  18 -6.157545E+03  8.047513E+03 -1.303760E+04  3.480911E+04 -2.646294E-10 -3.509360E-11
       365  19  2.026263E+05  2.025073E+05  7.807505E+04  1.317572E+05 -3.312621E+04 -2.202325E+04
       365  20  1.922585E+05  1.616662E+05  4.819513E+04  1.348900E+05 -2.299511E+04 -7.911516E+03
       365  21  1.919710E+05  1.407799E+05  3.467585E+04  1.318778E+05 -1.052986E+04  3.085196E+03
       365  22  1.054243E+05  9.669727E+04  3.984253E+04  6.662941E+04 -2.349507E+04 -1.480181E+04
       365  23  9.468989E+04  7.614390E+04  1.942136E+04  7.805732E+04 -1.859938E+04 -4.615587E+03
       365  24  9.290207E+04  7.441174E+04  1.081991E+04  8.333954E+04 -1.136915E+04  2.456154E+03
       365  25  8.233020E+03 -9.097814E+03  1.608990E+03  1.515621E+03 -1.386591E+04 -7.582935E+03
       365  26 -2.868779E+03 -9.369739E+03 -9.353632E+03  2.123537E+04 -1.420453E+04 -1.320538E+03
       365  27 -6.157384E+03  8.047557E+03 -1.303731E+04  3.480909E+04 -1.220828E+04  1.827227E+03
       366   1  1.816442E+05  1.384178E+05  3.028470E+04  1.282649E+05  9.482821E+03 -3.324107E+03
       366   2  1.724153E+05  1.279888E+05  2.380421E+04  1.229438E+05  6.742510E+03 -4.711901E+03
       366   3  1.609407E+05  1.217246E+05  1.959756E+04  1.182881E+05  3.794878E+03 -5.823031E+03
       366   4  9.218966E+04  7.433153E+04  8.348627E+03  8.245409E+04  9.967083E+03 -2.961235E+03
       366   5  9.306490E+04  7.176829E+04  4.901044E+03  8.252053E+04  7.691975E+03 -4.000198E+03
       366   6  9.159324E+04  7.326901E+04  3.323871E+03  8.325225E+04  5.209449E+03 -4.762536E+03
       366   7  2.746046E+03  1.025148E+04 -1.358743E+04  3.665181E+04  1.045124E+04 -2.598441E+03
       366   8  1.372259E+04  1.555222E+04 -1.400226E+04  4.210369E+04  8.641270E+03 -3.288623E+03
       366   9  2.225143E+04  2.481630E+04 -1.295009E+04  4.822097E+04  6.623808E+03 -3.702198E+03
       366  10  1.816441E+05  1.384178E+05  3.028451E+04  1.282649E+05  3.858921E-10  2.083329E-10
       366  11  1.724152E+05  1.279888E+05  2.380408E+04  1.229438E+05  1.981373E-10  5.348088E-11
       366  12  1.609407E+05  1.217246E+05  1.959747E+04  1.182881E+05  4.133059E-11  7.085851E-12
       366  13  9.218955E+04  7.433149E+04  8.348424E+03  8.245411E+04  2.979068E-11  1.222814E-10
       366  14  9.306484E+04  7.176826E+04  4.900902E+03  8.252055E+04 -1.040804E-10 -1.101223E-11
       366  15  9.159320E+04  7.326898E+04  3.323777E+03  8.325227E+04 -7.333582E-11  5.442960E-12
       366  16  2.745926E+03  1.025144E+04 -1.358765E+04  3.665184E+04 -2.995743E-10 -4.146794E-11
       366  17  1.372251E+04  1.555218E+04 -1.400242E+04  4.210371E+04 -3.117142E-10 -7.774355E-11
       366  18  2.225138E+04  2.481627E+04 -1.295020E+04  4.822099E+04  2.206555E-10  4.040891E-11
       366  19  1.816442E+05  1.384178E+05  3.028470E+04  1.282649E+05 -9.482821E+03  3.324107E+03
       366  20  1.724153E+05  1.279888E+05  2.380421E+04  1.229438E+05 -6.742510E+03  4.711901E+03
       366  21  1.609407E+05  1.217246E+05  1.959756E+04  1.182881E+05 -3.794878E+03  5.823031E+03
       366  22  9.218966E+04  7.433153E+04  8.348627E+03  8.245409E+04 -9.967083E+03  2.961235E+03
       366  23  9.306490E+04  7.176829E+04  4.901044E+03  8.252053E+04 -7.691975E+03  4.000198E+03
       366  24  9.159324E+04  7.326901E+04  3.323871E+03  8.325225E+04 -5.209449E+03  4.762536E+03
       366  25  2.746046E+03  1.025148E+04 -1.358743E+04  3.665181E+04 -1.045124E+04  2.598441E+03
       366  26  1.372259E+04  1.555222E+04 -1.400226E+04  4.210369E+04 -8.641270E+03  3.288623E+03
       366  27  2.225143E+04  2.481630E+04 -1.295009E+04  4.822097E+04 -6.623808E+03  3.702198E+03
       367   1  1.538792E+05  1.171020E+05  1.756193E+04  1.148350E+05  3.010907E+03 -5.637125E+03
       367   2  1.448621E+05  1.081579E+05  1.504143E+04  1.090706E+05  1.199630E+03 -5.693019E+03
       367   3  1.328997E+05  1.025534E+05  1.352622E+04  1.042617E+05 -6.274340E+02 -5.727941E+03
       367   4  9.154786E+04  7.326457E+04  2.964535E+03  8.319860E+04  4.394092E+03 -4.600116E+03
       367   5  9.302904E+04  7.160724E+04  2.906216E+03  8.271439E+04  2.618180E+03 -4.629430E+03
       367   6  9.155748E+04  7.328173E+04  3.822627E+03  8.318569E+04  8.264811E+02 -4.637782E+03
       367   7  2.921991E+04  2.942874E+04 -1.163348E+04  5.156531E+04  5.777115E+03 -3.563228E+03
       367   8  4.119914E+04  3.505821E+04 -9.229147E+03  5.636076E+04  4.036572E+03 -3.565961E+03
       367   9  5.021803E+04  4.401166E+04 -5.880803E+03  6.211170E+04  2.280242E+03 -3.547740E+03
       367  10  1.538792E+05  1.171020E+05  1.756186E+04  1.148350E+05 -2.387310E-10  1.693563E-11
       367  11  1.448621E+05  1.081579E+05  1.504136E+04  1.090706E+05 -2.195690E-10  1.801426E-11
       367  12  1.328997E+05  1.025533E+05  1.352616E+04  1.042617E+05  9.496670E-11  6.419911E-11
       367  13  9.154783E+04  7.326455E+04  2.964459E+03  8.319862E+04 -1.695905E-10  9.934372E-11
       367  14  9.302902E+04  7.160721E+04  2.906163E+03  8.271440E+04 -2.722085E-10  8.365597E-11
       367  15  9.155747E+04  7.328170E+04  3.822586E+03  8.318570E+04 -1.648135E-10  5.863867E-11
       367  16  2.921987E+04  2.942871E+04 -1.163356E+04  5.156533E+04 -2.264319E-11  8.197465E-11
       367  17  4.119912E+04  3.505819E+04 -9.229201E+03  5.636077E+04 -1.846187E-10  7.233291E-11
       367  18  5.021802E+04  4.401165E+04 -5.880837E+03  6.211171E+04 -7.612196E-11 -9.314927E-11
       367  19  1.538792E+05  1.171020E+05  1.756193E+04  1.148350E+05 -3.010907E+03  5.637125E+03
       367  20  1.448621E+05  1.081579E+05  1.504143E+04  1.090706E+05 -1.199630E+03  5.693019E+03
       367  21  1.328997E+05  1.025534E+05  1.352622E+04  1.042617E+05  6.274340E+02  5.727941E+03
       367  22  9.154786E+04  7.326457E+04  2.964535E+03  8.319860E+04 -4.394092E+03  4.600116E+03
       367  23  9.302904E+04  7.160724E+04  2.906216E+03  8.271439E+04 -2.618180E+03  4.629430E+03
       367  24  9.155748E+04  7.328173E+04  3.822627E+03  8.318569E+04 -8.264811E+02  4.637782E+03
       367  25  2.921991E+04  2.942874E+04 -1.163348E+04  5.156531E+04 -5.777115E+03  3.563228E+03
       367  26  4.119914E+04  3.505821E+04 -9.229147E+03  5.636076E+04 -4.036572E+03  3.565961E+03
       367  27  5.021803E+04  4.401166E+04 -5.880803E+03  6.211170E+04 -2.280242E+03  3.547740E+03
       368   1  1.258828E+05  9.806377E+04  1.273377E+04  1.010040E+05 -1.606121E+03 -5.670944E+03
       368   2  1.176022E+05  8.854505E+04  1.327395E+04  9.459532E+04 -5.238801E+03 -7.071133E+03
       368   3  1.074397E+05  8.369539E+04  1.671262E+04  8.867870E+04 -8.843363E+03 -8.508796E+03
       368   4  9.164076E+04  7.330106E+04  4.687146E+03  8.329371E+04 -1.506708E+02 -4.579610E+03
       368   5  9.306874E+04  7.183786E+04  7.667340E+03  8.238921E+04 -3.846198E+03 -6.026905E+03
       368   6  9.262824E+04  7.505738E+04  1.360058E+04  8.197662E+04 -7.513696E+03 -7.511747E+03
       368   7  5.740011E+04  4.853910E+04 -3.359546E+03  6.558460E+04  1.304674E+03 -3.488358E+03
       368   8  6.853573E+04  5.513085E+04  2.060625E+03  7.018354E+04 -2.453657E+03 -4.982720E+03
       368   9  7.781674E+04  6.641930E+04  1.048846E+04  7.527460E+04 -6.184049E+03 -6.514706E+03
       368  10  1.258828E+05  9.806373E+04  1.273371E+04  1.010040E+05  2.649455E-11  5.248394E-11
       368  11  1.176022E+05  8.854499E+04  1.327380E+04  9.459529E+04 -1.164660E-10 -1.992250E-11
       368  12  1.074396E+05  8.369529E+04  1.671233E+04  8.867864E+04 -2.388297E-10 -3.582592E-11
       368  13  9.164075E+04  7.330104E+04  4.687106E+03  8.329371E+04 -7.594962E-11  4.882041E-11
       368  14  9.306871E+04  7.183781E+04  7.667244E+03  8.238919E+04 -7.290804E-12  1.412878E-10
       368  15  9.262817E+04  7.505730E+04  1.360037E+04  8.197658E+04  2.510310E-12 -5.447696E-11
       368  16  5.740010E+04  4.853909E+04 -3.359572E+03  6.558460E+04 -7.380650E-11 -1.356867E-10
       368  17  6.853571E+04  5.513082E+04  2.060568E+03  7.018353E+04 -1.009704E-10 -2.336482E-10
       368  18  7.781669E+04  6.641924E+04  1.048831E+04  7.527457E+04  2.183015E-10  4.083614E-11
       368  19  1.258828E+05  9.806377E+04  1.273377E+04  1.010040E+05  1.606121E+03  5.670944E+03
       368  20  1.176022E+05  8.854505E+04  1.327395E+04  9.459532E+04  5.238801E+03  7.071133E+03
       368  21  1.074397E+05  8.369539E+04  1.671262E+04  8.867870E+04  8.843363E+03  8.508796E+03
       368  22  9.164076E+04  7.330106E+04  4.687146E+03  8.329371E+04  1.506708E+02  4.579610E+03
       368  23  9.306874E+04  7.183786E+04  7.667340E+03  8.238921E+04  3.846198E+03  6.026905E+03
       368  24  9.262824E+04  7.505738E+04  1.360058E+04  8.197662E+04  7.513696E+03  7.511747E+03
       368  25  5.740011E+04  4.853910E+04 -3.359546E+03  6.558460E+04 -1.304674E+03  3.488358E+03
       368  26  6.853573E+04  5.513085E+04  2.060625E+03  7.018354E+04  2.453657E+03  4.982720E+03
       368  27  7.781674E+04  6.641930E+04  1.048846E+04  7.527460E+04  6.184049E+03  6.514706E+03
       369   1  9.733268E+04  8.348203E+04  1.919694E+04  8.799919E+04 -1.111817E+04 -9.454793E+03
       369   2  1.085747E+05  6.034767E+04  3.082022E+04  6.854882E+04 -2.410631E+04 -1.825704E+04
       369   3  1.361944E+05  6.660385E+04  6.139120E+04  3.839549E+04 -3.676151E+04 -2.750243E+04
       369   4  9.373222E+04  7.527164E+04  1.777386E+04  8.347205E+04 -9.738143E+03 -8.419845E+03
       369   5  9.586170E+04  7.899266E+04  3.215886E+04  7.495287E+04 -2.347249E+04 -1.778278E+04
       369   6  1.145292E+05  1.122636E+05  6.613900E+04  5.573079E+04 -3.687356E+04 -2.758988E+04
       369   7  9.013185E+04  6.706150E+04  1.635082E+04  7.894504E+04 -8.358147E+03 -7.384944E+03
       369   8  8.314957E+04  9.763840E+04  3.349764E+04  8.135664E+04 -2.283870E+04 -1.730850E+04
       369   9  9.286722E+04  1.579283E+05  7.088744E+04  7.306526E+04 -3.698560E+04 -2.767736E+04
       369  10  9.733252E+04  8.348190E+04  1.919654E+04  8.799911E+04  5.399289E-11  1.431413E-10
       369  11  1.085740E+05  6.034716E+04  3.081850E+04  6.854847E+04  7.611710E-11 -1.304207E-10
       369  12  1.361927E+05  6.660268E+04  6.138724E+04  3.839468E+04 -1.906366E-10 -1.413447E-10
       369  13  9.373210E+04  7.527154E+04  1.777354E+04  8.347199E+04  1.127889E-10  2.269484E-11
       369  14  9.586103E+04  7.899217E+04  3.215723E+04  7.495253E+04  4.312533E-11  1.020288E-11
       369  15  1.145275E+05  1.122624E+05  6.613501E+04  5.572997E+04 -4.807959E-11 -4.225225E-12
       369  16  9.013176E+04  6.706142E+04  1.635059E+04  7.894499E+04 -3.350986E-11 -5.770448E-11
       369  17  8.314893E+04  9.763794E+04  3.349610E+04  8.135632E+04 -3.521284E-11  1.538699E-11
       369  18  9.286554E+04  1.579271E+05  7.088343E+04  7.306443E+04  2.123314E-10  9.681498E-11
       369  19  9.733268E+04  8.348203E+04  1.919694E+04  8.799919E+04  1.111817E+04  9.454793E+03
       369  20  1.085747E+05  6.034767E+04  3.082022E+04  6.854882E+04  2.410631E+04  1.825704E+04
       369  21  1.361944E+05  6.660385E+04  6.139120E+04  3.839549E+04  3.676151E+04  2.750243E+04
       369  22  9.373222E+04  7.527164E+04  1.777386E+04  8.347205E+04  9.738143E+03  8.419845E+03
       369  23  9.586170E+04  7.899266E+04  3.215886E+04  7.495287E+04  2.347249E+04  1.778278E+04
       369  24  1.145292E+05  1.122636E+05  6.613900E+04  5.573079E+04  3.687356E+04  2.758988E+04
       369  25  9.013185E+04  6.706150E+04  1.635082E+04  7.894504E+04  8.358147E+03  7.384944E+03
       369  26  8.314957E+04  9.763840E+04  3.349764E+04  8.135664E+04  2.283870E+04  1.730850E+04
       369  27  9.286722E+04  1.579283E+05  7.088744E+04  7.306526E+04  3.698560E+04  2.767736E+04
       370   1  3.698505E+05  8.428319E+04  7.971458E+04  6.208643E+04  1.918453E+04 -4.476206E+03
       370   2  3.036617E+05  7.012707E+04  5.584290E+04  5.697576E+04  5.806680E+03 -1.406374E+04
       370   3  2.390164E+05  5.510742E+04  4.046312E+04  6.612973E+04 -7.567968E+03 -1.468147E+04
       370   4  4.984715E+03 -5.934483E+03 -6.587463E+03  6.580012E+04 -4.466938E+03 -4.475297E+03
       370   5  5.530035E+03 -1.315566E+03 -3.294123E+03  5.866755E+04 -2.767753E+03 -1.406433E+04
       370   6  4.997276E+03 -1.773203E+02 -1.975934E+03  6.580016E+04 -1.067054E+03 -1.468151E+04
       370   7 -3.597575E+05 -9.616134E+04 -9.289663E+04  6.951161E+04 -2.810459E+04 -4.474670E+03
       370   8 -2.925165E+05 -7.276357E+04 -6.243527E+04  6.035851E+04 -1.133815E+04 -1.406497E+04
       370   9 -2.289685E+05 -5.546511E+04 -4.441700E+04  6.547071E+04  5.431478E+03 -1.468155E+04
       370  10  3.698501E+05  8.428307E+04  7.971385E+04  6.208650E+04  1.654412E-10 -6.369858E-11
       370  11  3.036616E+05  7.012685E+04  5.584246E+04  5.697583E+04  1.088106E-10 -3.161270E-11
       370  12  2.390163E+05  5.510717E+04  4.046260E+04  6.612964E+04 -2.484875E-10 -9.179674E-11
       370  13  4.984689E+03 -5.934510E+03 -6.587538E+03  6.580010E+04 -2.222478E-10  8.920057E-11
       370  14  5.529974E+03 -1.315780E+03 -3.294509E+03  5.866752E+04 -9.331932E-11  1.160172E-11
       370  15  4.997217E+03 -1.775520E+02 -1.976341E+03  6.580015E+04 -7.350715E-11 -2.304411E-11
       370  16 -3.597584E+05 -9.616158E+04 -9.289815E+04  6.951150E+04 -1.329683E-10 -1.059745E-10
       370  17 -2.925167E+05 -7.276382E+04 -6.243589E+04  6.035839E+04 -1.810098E-11 -4.269253E-11
       370  18 -2.289686E+05 -5.546535E+04 -4.441746E+04  6.547078E+04  1.895496E-10  7.739783E-11
       370  19  3.698505E+05  8.428319E+04  7.971458E+04  6.208643E+04 -1.918453E+04  4.476206E+03
       370  20  3.036617E+05  7.012707E+04  5.584290E+04  5.697576E+04 -5.806680E+03  1.406374E+04
       370  21  2.390164E+05  5.510742E+04  4.046312E+04  6.612973E+04  7.567968E+03  1.468147E+04
       370  22  4.984715E+03 -5.934483E+03 -6.587463E+03  6.580012E+04  4.466938E+03  4.475297E+03
       370  23  5.530035E+03 -1.315566E+03 -3.294123E+03  5.866755E+04  2.767753E+03  1.406433E+04
       370  24  4.997276E+03 -1.773203E+02 -1.975934E+03  6.580016E+04  1.067054E+03  1.468151E+04
       370  25 -3.597575E+05 -9.616134E+04 -9.289663E+04  6.951161E+04  2.810459E+04  4.474670E+03
       370  26 -2.925165E+05 -7.276357E+04 -6.243527E+04  6.035851E+04  1.133815E+04  1.406497E+04
       370  27 -2.289685E+05 -5.546511E+04 -4.441700E+04  6.547071E+04 -5.431478E+03  1.468155E+04
       371   1  1.961673E+05  4.479274E+04  3.268691E+04  6.580010E+04 -6.275172E+03 -1.225778E+04
       371   2  1.307831E+05  2.946572E+04  2.065824E+04  5.844099E+04 -6.882936E+03 -8.623698E+03
       371   3  6.548471E+04  1.414257E+04  9.026326E+03  6.592694E+04 -7.491004E+03 -4.247773E+03
       371   4  5.210636E+03 -2.593372E+02 -1.640255E+03  6.592901E+04 -7.915671E+02 -1.225762E+04
       371   5  5.280179E+03 -2.114556E+01 -1.283660E+03  5.850637E+04 -1.531674E+02 -8.623130E+03
       371   6  5.216044E+03  5.027186E+00 -1.395422E+03  6.592899E+04  4.848853E+02 -4.246722E+03
       371   7 -1.857105E+05 -4.531343E+04 -3.596872E+04  6.605788E+04  4.690399E+03 -1.225745E+04
       371   8 -1.202072E+05 -2.950884E+04 -2.322595E+04  5.857173E+04  6.575282E+03 -8.622561E+03
       371   9 -5.504892E+04 -1.413268E+04 -1.181706E+04  6.593103E+04  8.460024E+03 -4.245670E+03
       371  10  1.961673E+05  4.479257E+04  3.268655E+04  6.580004E+04 -6.304871E-11 -9.074633E-11
       371  11  1.307830E+05  2.946562E+04  2.065801E+04  5.844094E+04  1.482002E-11 -1.447708E-10
       371  12  6.548465E+04  1.414254E+04  9.026187E+03  6.592692E+04 -5.815458E-11 -1.051700E-10
       371  13  5.210595E+03 -2.594987E+02 -1.640538E+03  6.592900E+04 -1.448126E-10  1.164658E-11
       371  14  5.280159E+03 -2.122541E+01 -1.283800E+03  5.850637E+04 -2.663690E-10 -1.010383E-10
       371  15  5.216039E+03  5.007757E+00 -1.395456E+03  6.592899E+04  2.187485E-11 -7.027031E-11
       371  16 -1.857105E+05 -4.531360E+04 -3.596904E+04  6.605793E+04 -6.220740E-11  7.625585E-11
       371  17 -1.202073E+05 -2.950893E+04 -2.322618E+04  5.857178E+04  9.003043E-11  4.461943E-11
       371  18 -5.504900E+04 -1.413272E+04 -1.181722E+04  6.593106E+04 -8.213393E-11 -3.924582E-11
       371  19  1.961673E+05  4.479274E+04  3.268691E+04  6.580010E+04  6.275172E+03  1.225778E+04
       371  20  1.307831E+05  2.946572E+04  2.065824E+04  5.844099E+04  6.882936E+03  8.623698E+03
       371  21  6.548471E+04  1.414257E+04  9.026326E+03  6.592694E+04  7.491004E+03  4.247773E+03
       371  22  5.210636E+03 -2.593372E+02 -1.640255E+03  6.592901E+04  7.915671E+02  1.225762E+04
       371  23  5.280179E+03 -2.114556E+01 -1.283660E+03  5.850637E+04  1.531674E+02  8.623130E+03
       371  24  5.216044E+03  5.027186E+00 -1.395422E+03  6.592899E+04 -4.848853E+02  4.246722E+03
       371  25 -1.857105E+05 -4.531343E+04 -3.596872E+04  6.605788E+04 -4.690399E+03  1.225745E+04
       371  26 -1.202072E+05 -2.950884E+04 -2.322595E+04  5.857173E+04 -6.575282E+03  8.622561E+03
       371  27 -5.504892E+04 -1.413268E+04 -1.181706E+04  6.593103E+04 -8.460024E+03  4.245670E+03
       372   1  2.277258E+04  4.104929E+03  1.224034E+03  6.580914E+04 -7.210424E+03 -1.432724E+03
       372   2 -4.232826E+04 -1.136472E+04 -1.106302E+04  5.860892E+04 -5.035745E+03  3.020915E+03
       372   3 -1.078937E+05 -2.757796E+04 -2.495218E+04  6.626397E+04 -2.861155E+03  6.908267E+03
       372   4  5.178951E+03  1.981735E+01 -1.608453E+03  6.593120E+04  7.468043E+02 -1.431610E+03
       372   5  5.329676E+03 -1.109546E+02 -2.453105E+03  5.850364E+04  1.969888E+03  3.021777E+03
       372   6  5.176910E+03 -8.198756E+02 -4.239000E+03  6.593130E+04  3.193100E+03  6.908906E+03
       372   7 -1.241424E+04 -4.065276E+03 -4.440710E+03  6.605325E+04  8.703815E+03 -1.430493E+03
       372   8  5.298993E+04  1.114271E+04  6.156909E+03  5.839835E+04  8.976045E+03  3.022638E+03
       372   9  1.182600E+05  2.593750E+04  1.647380E+04  6.559856E+04  9.248429E+03  6.909538E+03
       372  10  2.277253E+04  4.104913E+03  1.223932E+03  6.580913E+04 -1.390931E-10 -9.398570E-11
       372  11 -4.232829E+04 -1.136474E+04 -1.106309E+04  5.860893E+04 -1.736642E-10 -7.852546E-11
       372  12 -1.078937E+05 -2.757801E+04 -2.495229E+04  6.626398E+04  8.695683E-11  6.130777E-11
       372  13  5.178950E+03  1.981500E+01 -1.608458E+03  6.593120E+04  1.532873E-11 -1.373611E-10
       372  14  5.329670E+03 -1.109655E+02 -2.453129E+03  5.850363E+04  2.055314E-10 -9.831677E-11
       372  15  5.176886E+03 -8.199296E+02 -4.239109E+03  6.593128E+04  2.190031E-10 -8.183375E-11
       372  16 -1.241432E+04 -4.065298E+03 -4.440857E+03  6.605326E+04 -4.029780E-11 -8.744894E-11
       372  17  5.298984E+04  1.114268E+04  6.156740E+03  5.839833E+04  1.277034E-10  4.909347E-11
       372  18  1.182599E+05  2.593743E+04  1.647355E+04  6.559851E+04  1.530943E-10  9.436925E-12
       372  19  2.277258E+04  4.104929E+03  1.224034E+03  6.580914E+04  7.210424E+03  1.432724E+03
       372  20 -4.232826E+04 -1.136472E+04 -1.106302E+04  5.860892E+04  5.035745E+03 -3.020915E+03
       372  21 -1.078937E+05 -2.757796E+04 -2.495218E+04  6.626397E+04  2.861155E+03 -6.908267E+03
       372  22  5.178951E+03  1.981735E+01 -1.608453E+03  6.593120E+04 -7.468043E+02  1.431610E+03
       372  23  5.329676E+03 -1.109546E+02 -2.453105E+03  5.850364E+04 -1.969888E+03 -3.021777E+03
       372  24  5.176910E+03 -8.198756E+02 -4.239000E+03  6.593130E+04 -3.193100E+03 -6.908906E+03
       372  25 -1.241424E+04 -4.065276E+03 -4.440710E+03  6.605325E+04 -8.703815E+03  1.430493E+03
       372  26  5.298993E+04  1.114271E+04  6.156909E+03  5.839835E+04 -8.976045E+03 -3.022638E+03
       372  27  1.182600E+05  2.593750E+04  1.647380E+04  6.559856E+04 -9.248429E+03 -6.909538E+03
       373   1 -1.515332E+05 -3.749470E+04 -3.421179E+04  6.475263E+04 -2.946968E+03  9.424972E+03
       373   2 -2.141909E+05 -5.696760E+04 -5.415715E+04  6.381452E+04  1.419984E+04  9.932691E+03
       373   3 -2.822974E+05 -8.934781E+04 -8.849344E+04  7.727193E+04  3.134378E+04  3.281525E+03
       373   4  4.494548E+03 -5.458250E+02 -5.510155E+03  6.582929E+04  3.916031E+03  9.425510E+03
       373   5  6.172008E+03 -4.043012E+03 -9.922111E+03  5.863163E+04  9.040377E+03  9.931967E+03
       373   6  4.485269E+03 -1.835751E+04 -2.037352E+04  6.582999E+04  1.416398E+04  3.280358E+03
       373   7  1.605460E+05  3.640169E+04  2.319066E+04  6.690623E+04  1.078071E+04  9.426072E+03
       373   8  2.265814E+05  4.887870E+04  3.431058E+04  5.344687E+04  3.879113E+03  9.931330E+03
       373   9  2.913444E+05  5.262753E+04  4.774184E+04  5.438273E+04 -3.023722E+03  3.279824E+03
       373  10 -1.515332E+05 -3.749480E+04 -3.421198E+04  6.475265E+04  1.330681E-10  1.395237E-10
       373  11 -2.141911E+05 -5.696776E+04 -5.415772E+04  6.381440E+04  1.259730E-10  1.955517E-10
       373  12 -2.822984E+05 -8.934809E+04 -8.849530E+04  7.727185E+04 -1.004864E-10  1.415305E-11
       373  13  4.494507E+03 -5.459245E+02 -5.510351E+03  6.582926E+04 -2.199972E-12  1.038405E-10
       373  14  6.171894E+03 -4.043140E+03 -9.922450E+03  5.863156E+04 -1.380735E-11  8.741999E-11
       373  15  4.485051E+03 -1.835757E+04 -2.037391E+04  6.582995E+04  1.179787E-10  4.349303E-12
       373  16  1.605458E+05  3.640157E+04  2.319027E+04  6.690615E+04 -1.146973E-12 -2.530977E-11
       373  17  2.265813E+05  4.887859E+04  3.431036E+04  5.344684E+04  1.155379E-10 -7.701260E-12
       373  18  2.913444E+05  5.262751E+04  4.774181E+04  5.438274E+04  1.803259E-12  4.743877E-11
       373  19 -1.515332E+05 -3.749470E+04 -3.421179E+04  6.475263E+04  2.946968E+03 -9.424972E+03
       373  20 -2.141909E+05 -5.696760E+04 -5.415715E+04  6.381452E+04 -1.419984E+04 -9.932691E+03
       373  21 -2.822974E+05 -8.934781E+04 -8.849344E+04  7.727193E+04 -3.134378E+04 -3.281525E+03
       373  22  4.494548E+03 -5.458250E+02 -5.510155E+03  6.582929E+04 -3.916031E+03 -9.425510E+03
       373  23  6.172008E+03 -4.043012E+03 -9.922111E+03  5.863163E+04 -9.040377E+03 -9.931967E+03
       373  24  4.485269E+03 -1.835751E+04 -2.037352E+04  6.582999E+04 -1.416398E+04 -3.280358E+03
       373  25  1.605460E+05  3.640169E+04  2.319066E+04  6.690623E+04 -1.078071E+04 -9.426072E+03
       373  26  2.265814E+05  4.887870E+04  3.431058E+04  5.344687E+04 -3.879113E+03 -9.931330E+03
       373  27  2.913444E+05  5.262753E+04  4.774184E+04  5.438273E+04  3.023722E+03 -3.279824E+03
       374   1 -9.470186E+04 -3.808055E+05 -9.540461E+04  1.028512E+05 -2.708480E+03 -3.551921E+04
       374   2 -5.051754E+04 -2.922319E+05 -5.262866E+04  8.395950E+04 -7.533452E+03 -1.635880E+04
       374   3 -2.466647E+04 -2.107365E+05 -2.691711E+04  8.396112E+04 -5.488765E+03  2.803522E+03
       374   4 -2.768580E+04 -1.104102E+05 -3.073736E+04  8.564582E+04 -2.702979E+03 -2.164213E+04
       374   5 -6.067824E+03 -1.078643E+05 -1.476000E+04  7.619452E+04 -7.532261E+03 -1.401480E+04
       374   6 -7.767367E+02 -1.103986E+05 -7.832107E+03  8.563768E+04 -5.492238E+03 -6.388485E+03
       374   7  3.932619E+04  1.600533E+05  3.392561E+04  6.843288E+04 -2.698249E+03 -7.759036E+03
       374   8  3.837999E+04  7.653573E+04  2.310689E+04  6.842718E+04 -7.531130E+03 -1.167011E+04
       374   9  2.311246E+04 -1.005070E+04  1.125276E+04  8.731451E+04 -5.495760E+03 -1.558194E+04
       374  10 -9.470221E+04 -3.808069E+05 -9.540700E+04  1.028511E+05  4.601606E-11 -2.896330E-11
       374  11 -5.051768E+04 -2.922322E+05 -5.262927E+04  8.395940E+04 -2.490031E-11 -1.115184E-11
       374  12 -2.466651E+04 -2.107365E+05 -2.691718E+04  8.396113E+04 -3.661944E-10 -2.059633E-10
       374  13 -2.768593E+04 -1.104107E+05 -3.073826E+04  8.564577E+04 -4.871980E-12  6.678782E-11
       374  14 -6.067937E+03 -1.078645E+05 -1.476048E+04  7.619443E+04  5.090836E-10  8.396201E-11
       374  15 -7.767800E+02 -1.103986E+05 -7.832241E+03  8.563765E+04 -1.916874E-10  1.881947E-10
       374  16  3.932616E+04  1.600532E+05  3.392548E+04  6.843287E+04  1.145316E-10 -2.863686E-11
       374  17  3.837989E+04  7.653557E+04  2.310653E+04  6.842711E+04  1.377750E-10  9.098072E-11
       374  18  2.311237E+04 -1.005097E+04  1.125225E+04  8.731444E+04 -1.199926E-10  3.063639E-10
       374  19 -9.470186E+04 -3.808055E+05 -9.540461E+04  1.028512E+05  2.708480E+03  3.551921E+04
       374  20 -5.051754E+04 -2.922319E+05 -5.262866E+04  8.395950E+04  7.533452E+03  1.635880E+04
       374  21 -2.466647E+04 -2.107365E+05 -2.691711E+04  8.396112E+04  5.488765E+03 -2.803522E+03
       374  22 -2.768580E+04 -1.104102E+05 -3.073736E+04  8.564582E+04  2.702979E+03  2.164213E+04
       374  23 -6.067824E+03 -1.078643E+05 -1.476000E+04  7.619452E+04  7.532261E+03  1.401480E+04
       374  24 -7.767367E+02 -1.103986E+05 -7.832107E+03  8.563768E+04  5.492238E+03  6.388485E+03
       374  25  3.932619E+04  1.600533E+05  3.392561E+04  6.843288E+04  2.698249E+03  7.759036E+03
       374  26  3.837999E+04  7.653573E+04  2.310689E+04  6.842718E+04  7.531130E+03  1.167011E+04
       374  27  2.311246E+04 -1.005070E+04  1.125276E+04  8.731451E+04  5.495760E+03  1.558194E+04
       375   1 -1.187365E+04 -1.538795E+05 -1.453860E+04  8.615381E+04 -2.127420E+03  3.090409E+03
       375   2  9.394945E+03 -6.874780E+04  4.512771E+03  7.626635E+04  2.843572E+03  4.048935E+03
       375   3  3.009055E+04  1.611248E+04  2.279304E+04  8.567036E+04  7.646911E+03  5.007778E+03
       375   4 -1.203363E+03 -1.093409E+05 -5.730469E+03  8.572689E+04 -2.130759E+03 -5.399867E+03
       375   5 -9.217697E+01 -1.091784E+05 -2.487450E+03  7.608080E+04  2.840474E+03 -4.160048E+03
       375   6  3.975956E+02 -1.093430E+05 -2.106337E+02  8.572631E+04  7.644035E+03 -2.920035E+03
       375   7  9.466848E+03 -6.480024E+04  3.077838E+03  8.529994E+04 -2.134087E+03 -1.389074E+04
       375   8 -9.579351E+03 -1.496073E+05 -9.487474E+03  7.589527E+04  2.837380E+03 -1.236851E+04
       375   9 -2.929622E+04 -2.347830E+05 -2.321471E+04  8.578224E+04  7.641156E+03 -1.084629E+04
       375  10 -1.187366E+04 -1.538795E+05 -1.453863E+04  8.615381E+04 -2.452654E-10 -6.116282E-11
       375  11  9.394932E+03 -6.874782E+04  4.512725E+03  7.626634E+04 -4.657827E-10  1.765770E-10
       375  12  3.009048E+04  1.611244E+04  2.279288E+04  8.567033E+04 -2.474667E-11  3.412689E-10
       375  13 -1.203375E+03 -1.093409E+05 -5.730532E+03  8.572688E+04 -2.259621E-10  1.381098E-10
       375  14 -9.219028E+01 -1.091784E+05 -2.487498E+03  7.608081E+04 -3.137878E-10 -6.810240E-11
       375  15  3.975305E+02 -1.093430E+05 -2.107595E+02  8.572632E+04 -3.282850E-10  2.468201E-10
       375  16  9.466791E+03 -6.480045E+04  3.077467E+03  8.529992E+04 -2.574893E-10  5.224463E-11
       375  17 -9.579401E+03 -1.496074E+05 -9.487777E+03  7.589530E+04 -1.609384E-10 -2.183963E-10
       375  18 -2.929631E+04 -2.347832E+05 -2.321504E+04  8.578231E+04  9.998799E-11 -4.028907E-10
       375  19 -1.187365E+04 -1.538795E+05 -1.453860E+04  8.615381E+04  2.127420E+03 -3.090409E+03
       375  20  9.394945E+03 -6.874780E+04  4.512771E+03  7.626635E+04 -2.843572E+03 -4.048935E+03
       375  21  3.009055E+04  1.611248E+04  2.279304E+04  8.567036E+04 -7.646911E+03 -5.007778E+03
       375  22 -1.203363E+03 -1.093409E+05 -5.730469E+03  8.572689E+04  2.130759E+03  5.399867E+03
       375  23 -9.217697E+01 -1.091784E+05 -2.487450E+03  7.608080E+04 -2.840474E+03  4.160048E+03
       375  24  3.975956E+02 -1.093430E+05 -2.106337E+02  8.572631E+04 -7.644035E+03  2.920035E+03
       375  25  9.466848E+03 -6.480024E+04  3.077838E+03  8.529994E+04  2.134087E+03  1.389074E+04
       375  26 -9.579351E+03 -1.496073E+05 -9.487474E+03  7.589527E+04 -2.837380E+03  1.236851E+04
       375  27 -2.929622E+04 -2.347830E+05 -2.321471E+04  8.578224E+04 -7.641156E+03  1.084629E+04
       376   1  4.319928E+04  7.236916E+04  3.421312E+04  8.513034E+04  1.091960E+04  5.939584E+03
       376   2  6.536485E+04  1.554947E+05  5.670037E+04  7.828634E+04  1.180697E+04 -1.052252E+04
       376   3  9.441135E+04  2.424894E+05  9.162319E+04  9.020149E+04  3.930064E+03 -2.698580E+04
       376   4  2.492641E+02 -1.089829E+05  8.154619E+02  8.560829E+04  1.091666E+04 -2.923596E+03
       376   5  1.664676E+03 -1.096441E+05  3.335305E+03  7.622765E+04  1.180920E+04 -4.657780E+03
       376   6  7.406546E+03 -1.089971E+05  8.065043E+03  8.560630E+04  3.935898E+03 -6.390974E+03
       376   7 -4.270258E+04 -2.903029E+05 -3.258326E+04  8.608609E+04  1.091370E+04 -1.178426E+04
       376   8 -6.203981E+04 -3.747158E+05 -5.003323E+04  7.416985E+04  1.181140E+04  1.204508E+03
       376   9 -7.960685E+04 -4.603692E+05 -7.550014E+04  8.101372E+04  3.941430E+03  1.419226E+04
       376  10  4.319914E+04  7.236909E+04  3.421283E+04  8.513029E+04 -5.646920E-11 -1.019672E-10
       376  11  6.536467E+04  1.554946E+05  5.669990E+04  7.828644E+04 -2.751982E-11  3.720502E-12
       376  12  9.441114E+04  2.424886E+05  9.162180E+04  9.020157E+04  1.404809E-10  7.521719E-11
       376  13  2.491338E+02 -1.089829E+05  8.152219E+02  8.560832E+04  1.405427E-10 -2.909141E-11
       376  14  1.664520E+03 -1.096441E+05  3.335002E+03  7.622769E+04 -2.585299E-10  2.842453E-11
       376  15  7.406519E+03 -1.089971E+05  8.064937E+03  8.560632E+04  5.382179E-11  1.063626E-10
       376  16 -4.270275E+04 -2.903030E+05 -3.258375E+04  8.608619E+04 -1.658429E-11  1.148002E-11
       376  17 -6.203996E+04 -3.747158E+05 -5.003349E+04  7.416984E+04 -1.631852E-10  1.024277E-11
       376  18 -7.960692E+04 -4.603694E+05 -7.550055E+04  8.101367E+04 -8.875514E-12 -7.257790E-11
       376  19  4.319928E+04  7.236916E+04  3.421312E+04  8.513034E+04 -1.091960E+04 -5.939584E+03
       376  20  6.536485E+04  1.554947E+05  5.670037E+04  7.828634E+04 -1.180697E+04  1.052252E+04
       376  21  9.441135E+04  2.424894E+05  9.162319E+04  9.020149E+04 -3.930064E+03  2.698580E+04
       376  22  2.492641E+02 -1.089829E+05  8.154619E+02  8.560829E+04 -1.091666E+04  2.923596E+03
       376  23  1.664676E+03 -1.096441E+05  3.335305E+03  7.622765E+04 -1.180920E+04  4.657780E+03
       376  24  7.406546E+03 -1.089971E+05  8.065043E+03  8.560630E+04 -3.935898E+03  6.390974E+03
       376  25 -4.270258E+04 -2.903029E+05 -3.258326E+04  8.608609E+04 -1.091370E+04  1.178426E+04
       376  26 -6.203981E+04 -3.747158E+05 -5.003323E+04  7.416985E+04 -1.181140E+04 -1.204508E+03
       376  27 -7.960685E+04 -4.603692E+05 -7.550014E+04  8.101372E+04 -3.941430E+03 -1.419226E+04
       377   1  2.230807E+05  2.046955E+05  7.061120E+04  1.499772E+05  3.284103E+04  2.276892E+04
       377   2  2.173895E+05  1.638731E+05  4.128008E+04  1.570694E+05  2.232799E+04  1.052207E+04
       377   3  2.246487E+05  1.435873E+05  2.849204E+04  1.565129E+05  1.031675E+04  2.736536E+02
       377   4  1.712760E+05  1.254639E+05  4.597046E+04  1.047426E+05  2.646622E+04  1.798722E+04
       377   5  1.579382E+05  1.027040E+05  2.238801E+04  1.182078E+05  1.931165E+04  8.259781E+03
       377   6  1.568235E+05  9.975309E+04  1.243520E+04  1.240238E+05  1.065914E+04  5.303313E+02
       377   7  1.194744E+05  4.624042E+04  2.132910E+04  5.951322E+04  2.009199E+04  1.320676E+04
       377   8  9.849114E+04  4.154000E+04  3.495621E+03  7.935122E+04  1.629568E+04  5.997948E+03
       377   9  8.900479E+04  5.592196E+04 -3.621552E+03  9.153926E+04  1.100147E+04  7.869708E+02
       377  10  2.230794E+05  2.046947E+05  7.060820E+04  1.499766E+05 -7.575503E-11 -8.469040E-12
       377  11  2.173889E+05  1.638728E+05  4.127893E+04  1.570692E+05  2.886499E-10  1.381896E-10
       377  12  2.246486E+05  1.435872E+05  2.849184E+04  1.565129E+05  2.474196E-10  5.930895E-11
       377  13  1.712752E+05  1.254633E+05  4.596854E+04  1.047422E+05 -1.371075E-10  5.827728E-11
       377  14  1.579378E+05  1.027038E+05  2.238718E+04  1.182076E+05 -6.159404E-11 -7.697069E-11
       377  15  1.568234E+05  9.975306E+04  1.243498E+04  1.240238E+05  3.131009E-12  2.767101E-11
       377  16  1.194739E+05  4.624013E+04  2.132802E+04  5.951300E+04  1.121362E-10 -3.404187E-12
       377  17  9.849085E+04  4.153989E+04  3.495055E+03  7.935114E+04  8.705771E-12  5.770723E-11
       377  18  8.900466E+04  5.592192E+04 -3.621781E+03  9.153925E+04 -1.378866E-10 -4.526232E-12
       377  19  2.230807E+05  2.046955E+05  7.061120E+04  1.499772E+05 -3.284103E+04 -2.276892E+04
       377  20  2.173895E+05  1.638731E+05  4.128008E+04  1.570694E+05 -2.232799E+04 -1.052207E+04
       377  21  2.246487E+05  1.435873E+05  2.849204E+04  1.565129E+05 -1.031675E+04 -2.736536E+02
       377  22  1.712760E+05  1.254639E+05  4.597046E+04  1.047426E+05 -2.646622E+04 -1.798722E+04
       377  23  1.579382E+05  1.027040E+05  2.238801E+04  1.182078E+05 -1.931165E+04 -8.259781E+03
       377  24  1.568235E+05  9.975309E+04  1.243520E+04  1.240238E+05 -1.065914E+04 -5.303313E+02
       377  25  1.194744E+05  4.624042E+04  2.132910E+04  5.951322E+04 -2.009199E+04 -1.320676E+04
       377  26  9.849114E+04  4.154000E+04  3.495621E+03  7.935122E+04 -1.629568E+04 -5.997948E+03
       377  27  8.900479E+04  5.592196E+04 -3.621552E+03  9.153926E+04 -1.100147E+04 -7.869708E+02
       378   1  2.172381E+05  1.439923E+05  2.460958E+04  1.545862E+05  9.120372E+03 -3.790553E+02
       378   2  2.123679E+05  1.377592E+05  1.895110E+04  1.521449E+05  6.496201E+03 -2.101010E+03
       378   3  2.068739E+05  1.342522E+05  1.567024E+04  1.498761E+05  3.738785E+03 -3.645251E+03
       378   4  1.560292E+05  9.963354E+04  9.565454E+03  1.229947E+05  9.234915E+03 -2.932656E+02
       378   5  1.560296E+05  9.769056E+04  5.532108E+03  1.233680E+05  6.909701E+03 -1.791024E+03
       378   6  1.553412E+05  9.840906E+04  3.617214E+03  1.239138E+05  4.451188E+03 -3.111096E+03
       378   7  9.482467E+04  5.527718E+04 -5.478956E+03  9.140687E+04  9.349444E+03 -2.074875E+02
       378   8  9.969438E+04  5.762353E+04 -7.887280E+03  9.459392E+04  7.323155E+03 -1.481074E+03
       378   9  1.038107E+05  6.256683E+04 -8.436302E+03  9.795361E+04  5.163524E+03 -2.576990E+03
       378  10  2.172380E+05  1.439923E+05  2.460943E+04  1.545862E+05  2.699396E-10  9.018643E-11
       378  11  2.123679E+05  1.377592E+05  1.895102E+04  1.521449E+05 -9.693605E-11 -1.398716E-10
       378  12  2.068739E+05  1.342522E+05  1.567019E+04  1.498761E+05 -3.220947E-10 -3.176444E-11
       378  13  1.560292E+05  9.963352E+04  9.565293E+03  1.229947E+05 -7.162841E-11  1.556908E-11
       378  14  1.560295E+05  9.769055E+04  5.532012E+03  1.233680E+05 -1.668373E-10 -1.338210E-10
       378  15  1.553412E+05  9.840904E+04  3.617159E+03  1.239138E+05 -3.722348E-11  7.725884E-11
       378  16  9.482458E+04  5.527716E+04 -5.479120E+03  9.140688E+04 -4.107559E-10 -1.335965E-10
       378  17  9.969432E+04  5.762351E+04 -7.887384E+03  9.459392E+04 -1.872375E-10 -3.839439E-11
       378  18  1.038107E+05  6.256682E+04 -8.436364E+03  9.795362E+04  2.184200E-10  2.179201E-10
       378  19  2.172381E+05  1.439923E+05  2.460958E+04  1.545862E+05 -9.120372E+03  3.790553E+02
       378  20  2.123679E+05  1.377592E+05  1.895110E+04  1.521449E+05 -6.496201E+03  2.101010E+03
       378  21  2.068739E+05  1.342522E+05  1.567024E+04  1.498761E+05 -3.738785E+03  3.645251E+03
       378  22  1.560292E+05  9.963354E+04  9.565454E+03  1.229947E+05 -9.234915E+03  2.932656E+02
       378  23  1.560296E+05  9.769056E+04  5.532108E+03  1.233680E+05 -6.909701E+03  1.791024E+03
       378  24  1.553412E+05  9.840906E+04  3.617214E+03  1.239138E+05 -4.451188E+03  3.111096E+03
       378  25  9.482467E+04  5.527718E+04 -5.478956E+03  9.140687E+04 -9.349444E+03  2.074875E+02
       378  26  9.969438E+04  5.762353E+04 -7.887280E+03  9.459392E+04 -7.323155E+03  1.481074E+03
       378  27  1.038107E+05  6.256683E+04 -8.436302E+03  9.795361E+04 -5.163524E+03  2.576990E+03
       379   1  2.031391E+05  1.320114E+05  1.433101E+04  1.481152E+05  3.096363E+03 -3.736516E+03
       379   2  1.984813E+05  1.274505E+05  1.279253E+04  1.451865E+05  1.623938E+03 -4.184181E+03
       379   3  1.924239E+05  1.246729E+05  1.223458E+04  1.427594E+05  1.386595E+02 -4.614662E+03
       379   4  1.552867E+05  9.839956E+04  3.131914E+03  1.238463E+05  3.788118E+03 -3.217828E+03
       379   5  1.559921E+05  9.751506E+04  2.849305E+03  1.235927E+05  2.344630E+03 -3.643775E+03
       379   6  1.552915E+05  9.840751E+04  3.522127E+03  1.238408E+05  8.882637E+02 -4.052552E+03
       379   7  1.074379E+05  6.478976E+04 -8.067013E+03  9.957997E+04  4.479790E+03 -2.699204E+03
       379   8  1.135055E+05  6.758098E+04 -7.093888E+03  1.020009E+05  3.065250E+03 -3.103423E+03
       379   9  1.181607E+05  7.214296E+04 -5.190397E+03  1.049234E+05  1.637808E+03 -3.490487E+03
       379  10  2.031391E+05  1.320114E+05  1.433096E+04  1.481152E+05 -1.485581E-10  2.915260E-10
       379  11  1.984813E+05  1.274505E+05  1.279249E+04  1.451865E+05 -1.753349E-10  7.152228E-11
       379  12  1.924239E+05  1.246729E+05  1.223454E+04  1.427594E+05 -2.611587E-10 -1.514244E-11
       379  13  1.552867E+05  9.839954E+04  3.131867E+03  1.238463E+05 -7.680787E-11  2.469067E-11
       379  14  1.559921E+05  9.751504E+04  2.849270E+03  1.235927E+05  3.878355E-11 -5.895333E-11
       379  15  1.552915E+05  9.840750E+04  3.522095E+03  1.238408E+05 -1.987187E-10  4.118083E-11
       379  16  1.074379E+05  6.478974E+04 -8.067064E+03  9.957998E+04 -1.577680E-10 -5.064129E-11
       379  17  1.135055E+05  6.758097E+04 -7.093924E+03  1.020009E+05 -1.335262E-10  4.397807E-11
       379  18  1.181607E+05  7.214295E+04 -5.190425E+03  1.049234E+05 -4.421830E-11 -3.391553E-11
       379  19  2.031391E+05  1.320114E+05  1.433101E+04  1.481152E+05 -3.096363E+03  3.736516E+03
       379  20  1.984813E+05  1.274505E+05  1.279253E+04  1.451865E+05 -1.623938E+03  4.184181E+03
       379  21  1.924239E+05  1.246729E+05  1.223458E+04  1.427594E+05 -1.386595E+02  4.614662E+03
       379  22  1.552867E+05  9.839956E+04  3.131914E+03  1.238463E+05 -3.788118E+03  3.217828E+03
       379  23  1.559921E+05  9.751506E+04  2.849305E+03  1.235927E+05 -2.344630E+03  3.643775E+03
       379  24  1.552915E+05  9.840751E+04  3.522127E+03  1.238408E+05 -8.882637E+02  4.052552E+03
       379  25  1.074379E+05  6.478976E+04 -8.067013E+03  9.957997E+04 -4.479790E+03  2.699204E+03
       379  26  1.135055E+05  6.758098E+04 -7.093888E+03  1.020009E+05 -3.065250E+03  3.103423E+03
       379  27  1.181607E+05  7.214296E+04 -5.190397E+03  1.049234E+05 -1.637808E+03  3.490487E+03
       380   1  1.887788E+05  1.225111E+05  1.211063E+04  1.411745E+05 -5.970036E+02 -4.761970E+03
       380   2  1.847799E+05  1.174569E+05  1.345406E+04  1.376733E+05 -3.676772E+03 -6.364259E+03
       380   3  1.803109E+05  1.153558E+05  1.743421E+04  1.342670E+05 -6.770222E+03 -7.948391E+03
       380   4  1.553615E+05  9.842437E+04  4.236880E+03  1.239329E+05  1.486898E+02 -4.202777E+03
       380   5  1.560325E+05  9.772090E+04  6.789703E+03  1.233078E+05 -2.900405E+03 -5.782048E+03
       380   6  1.562270E+05  9.996395E+04  1.195276E+04  1.227777E+05 -5.963156E+03 -7.343159E+03
       380   7  1.219448E+05  7.433790E+04 -3.637143E+03  1.066921E+05  8.943428E+02 -3.643615E+03
       380   8  1.272860E+05  7.798536E+04  1.253009E+02  1.089431E+05 -2.124085E+03 -5.199873E+03
       380   9  1.321442E+05  8.457263E+04  6.471428E+03  1.112891E+05 -5.156145E+03 -6.737966E+03
       380  10  1.887788E+05  1.225111E+05  1.211059E+04  1.411745E+05 -1.777849E-10 -8.551982E-11
       380  11  1.847799E+05  1.174569E+05  1.345396E+04  1.376732E+05 -7.004704E-11 -8.146653E-11
       380  12  1.803108E+05  1.153558E+05  1.743401E+04  1.342669E+05  5.868516E-11  5.785812E-11
       380  13  1.553615E+05  9.842435E+04  4.236847E+03  1.239329E+05 -1.912653E-10  6.137027E-11
       380  14  1.560325E+05  9.772086E+04  6.789625E+03  1.233078E+05 -1.140920E-10  8.804218E-11
       380  15  1.562269E+05  9.996388E+04  1.195260E+04  1.227776E+05 -7.195532E-13 -8.220105E-11
       380  16  1.219448E+05  7.433788E+04 -3.637169E+03  1.066921E+05  4.194529E-11  5.669141E-11
       380  17  1.272860E+05  7.798533E+04  1.252416E+02  1.089431E+05 -9.553488E-11  1.093507E-10
       380  18  1.321441E+05  8.457257E+04  6.471293E+03  1.112890E+05 -2.098445E-10 -6.749709E-11
       380  19  1.887788E+05  1.225111E+05  1.211063E+04  1.411745E+05  5.970036E+02  4.761970E+03
       380  20  1.847799E+05  1.174569E+05  1.345406E+04  1.376733E+05  3.676772E+03  6.364259E+03
       380  21  1.803109E+05  1.153558E+05  1.743421E+04  1.342670E+05  6.770222E+03  7.948391E+03
       380  22  1.553615E+05  9.842437E+04  4.236880E+03  1.239329E+05 -1.486898E+02  4.202777E+03
       380  23  1.560325E+05  9.772090E+04  6.789703E+03  1.233078E+05  2.900405E+03  5.782048E+03
       380  24  1.562270E+05  9.996395E+04  1.195276E+04  1.227777E+05  5.963156E+03  7.343159E+03
       380  25  1.219448E+05  7.433790E+04 -3.637143E+03  1.066921E+05 -8.943428E+02  3.643615E+03
       380  26  1.272860E+05  7.798536E+04  1.253009E+02  1.089431E+05  2.124085E+03  5.199873E+03
       380  27  1.321442E+05  8.457263E+04  6.471428E+03  1.112891E+05  5.156145E+03  6.737966E+03
       381   1  1.739818E+05  1.169670E+05  2.025598E+04  1.349512E+05 -8.583537E+03 -8.889189E+03
       381   2  1.870761E+05  9.997264E+04  3.177131E+04  1.199485E+05 -2.096539E+04 -1.729604E+04
       381   3  2.158370E+05  1.078121E+05  6.072820E+04  9.524788E+04 -3.349023E+04 -2.551215E+04
       381   4  1.571835E+05  1.001619E+05  1.559658E+04  1.240897E+05 -7.798524E+03 -8.300396E+03
       381   5  1.584933E+05  1.039760E+05  2.817834E+04  1.167899E+05 -1.986023E+04 -1.646802E+04
       381   6  1.753997E+05  1.325541E+05  5.792417E+04  9.979208E+04 -3.206461E+04 -2.444572E+04
       381   7  1.403855E+05  8.335724E+04  1.093717E+04  1.132286E+05 -7.013537E+03 -7.711636E+03
       381   8  1.299116E+05  1.079797E+05  2.458544E+04  1.136311E+05 -1.875512E+04 -1.563996E+04
       381   9  1.349653E+05  1.572993E+05  5.512066E+04  1.043354E+05 -3.063910E+04 -2.337915E+04
       381  10  1.739817E+05  1.169669E+05  2.025569E+04  1.349512E+05  8.020987E-11 -5.316431E-11
       381  11  1.870756E+05  9.997220E+04  3.176992E+04  1.199482E+05  9.316424E-11  1.189090E-11
       381  12  2.158356E+05  1.078111E+05  6.072487E+04  9.524720E+04  2.120023E-11 -1.229545E-10
       381  13  1.571834E+05  1.001618E+05  1.559634E+04  1.240896E+05 -1.852039E-10  2.012956E-11
       381  14  1.584928E+05  1.039756E+05  2.817709E+04  1.167896E+05  9.569032E-11  2.816762E-11
       381  15  1.753984E+05  1.325532E+05  5.792112E+04  9.979145E+04 -4.386128E-11  1.368817E-11
       381  16  1.403855E+05  8.335716E+04  1.093697E+04  1.132285E+05 -7.173650E-11 -2.288585E-11
       381  17  1.299112E+05  1.079794E+05  2.458432E+04  1.136309E+05  4.691644E-11 -1.079429E-10
       381  18  1.349641E+05  1.572985E+05  5.511787E+04  1.043349E+05  1.027553E-10  9.446770E-11
       381  19  1.739818E+05  1.169670E+05  2.025598E+04  1.349512E+05  8.583537E+03  8.889189E+03
       381  20  1.870761E+05  9.997264E+04  3.177131E+04  1.199485E+05  2.096539E+04  1.729604E+04
       381  21  2.158370E+05  1.078121E+05  6.072820E+04  9.524788E+04  3.349023E+04  2.551215E+04
       381  22  1.571835E+05  1.001619E+05  1.559658E+04  1.240897E+05  7.798524E+03  8.300396E+03
       381  23  1.584933E+05  1.039760E+05  2.817834E+04  1.167899E+05  1.986023E+04  1.646802E+04
       381  24  1.753997E+05  1.325541E+05  5.792417E+04  9.979208E+04  3.206461E+04  2.444572E+04
       381  25  1.403855E+05  8.335724E+04  1.093717E+04  1.132286E+05  7.013537E+03  7.711636E+03
       381  26  1.299116E+05  1.079797E+05  2.458544E+04  1.136311E+05  1.875512E+04  1.563996E+04
       381  27  1.349653E+05  1.572993E+05  5.512066E+04  1.043354E+05  3.063910E+04  2.337915E+04
       382   1  5.093465E+05  9.663623E+04  9.458743E+04  7.277060E+04  3.191017E+04 -4.055480E+03
       382   2  4.429852E+05  6.789647E+04  6.117049E+04  6.115333E+04  1.420124E+04 -1.264885E+04
       382   3  3.815479E+05  4.959078E+04  4.188594E+04  6.350811E+04 -3.505161E+03 -1.295866E+04
       382   4  1.734081E+05  1.357244E+04  1.507255E+04  6.428853E+04  1.050070E+04 -4.056672E+03
       382   5  1.721610E+05  2.981362E+03  7.324567E+03  5.730293E+04  6.719262E+03 -1.264992E+04
       382   6  1.734204E+05  4.105385E+02  4.044027E+03  6.428926E+04  2.938562E+03 -1.295822E+04
       382   7 -1.624255E+05 -6.949893E+04 -6.444840E+04  5.581106E+04 -1.089724E+04 -4.057279E+03
       382   8 -9.859300E+04 -6.193814E+04 -4.652479E+04  5.345424E+04 -7.595184E+02 -1.265090E+04
       382   9 -3.466485E+04 -4.877211E+04 -3.379946E+04  6.507014E+04  9.380184E+03 -1.295776E+04
       382  10  5.093454E+05  9.663594E+04  9.458548E+04  7.277070E+04  5.526427E-11  4.447777E-11
       382  11  4.429849E+05  6.789625E+04  6.116981E+04  6.115347E+04  7.525015E-11  4.392208E-11
       382  12  3.815478E+05  4.959059E+04  4.188560E+04  6.350807E+04  1.790634E-10  7.109757E-11
       382  13  1.734080E+05  1.357239E+04  1.507231E+04  6.428856E+04 -4.771762E-11  4.155309E-11
       382  14  1.721609E+05  2.981178E+03  7.324182E+03  5.730300E+04  3.605718E-11  8.464263E-11
       382  15  1.734204E+05  4.103559E+02  4.043695E+03  6.428929E+04  1.204725E-10 -7.725694E-11
       382  16 -1.624257E+05 -6.949898E+04 -6.444866E+04  5.581102E+04 -3.415562E-11  3.240610E-11
       382  17 -9.859305E+04 -6.193831E+04 -4.652509E+04  5.345424E+04 -4.598410E-11 -9.898343E-12
       382  18 -3.466499E+04 -4.877232E+04 -3.379994E+04  6.507024E+04 -6.778964E-11 -3.146662E-11
       382  19  5.093465E+05  9.663623E+04  9.458743E+04  7.277060E+04 -3.191017E+04  4.055480E+03
       382  20  4.429852E+05  6.789647E+04  6.117049E+04  6.115333E+04 -1.420124E+04  1.264885E+04
       382  21  3.815479E+05  4.959078E+04  4.188594E+04  6.350811E+04  3.505161E+03  1.295866E+04
       382  22  1.734081E+05  1.357244E+04  1.507255E+04  6.428853E+04 -1.050070E+04  4.056672E+03
       382  23  1.721610E+05  2.981362E+03  7.324567E+03  5.730293E+04 -6.719262E+03  1.264992E+04
       382  24  1.734204E+05  4.105385E+02  4.044027E+03  6.428926E+04 -2.938562E+03  1.295822E+04
       382  25 -1.624255E+05 -6.949893E+04 -6.444840E+04  5.581106E+04  1.089724E+04  4.057279E+03
       382  26 -9.859300E+04 -6.193814E+04 -4.652479E+04  5.345424E+04  7.595184E+02  1.265090E+04
       382  27 -3.466485E+04 -4.877211E+04 -3.379946E+04  6.507014E+04 -9.380184E+03  1.295776E+04
       383   1  3.390083E+05  3.981977E+04  3.304245E+04  6.466614E+04 -3.095142E+03 -1.056771E+04
       383   2  2.749816E+05  2.411721E+04  1.966072E+04  5.723937E+04 -5.097494E+03 -6.953194E+03
       383   3  2.113754E+05  9.038618E+03  7.737747E+03  6.431199E+04 -7.099968E+03 -2.660350E+03
       383   4  1.729149E+05  6.202692E+02  3.089415E+03  6.440652E+04  2.409753E+03 -1.056715E+04
       383   5  1.728078E+05  1.011474E+02  1.727998E+03  5.715680E+04  1.547364E+03 -6.952231E+03
       383   6  1.729193E+05  8.424921E+00  1.034103E+03  6.440662E+04  6.846576E+02 -2.658928E+03
       383   7  6.848432E+03 -3.858076E+04 -2.686459E+04  6.414696E+04  7.913216E+03 -1.056658E+04
       383   8  7.064422E+04 -2.391546E+04 -1.620494E+04  5.707425E+04  8.191161E+03 -6.951269E+03
       383   9  1.344648E+05 -9.021815E+03 -5.669365E+03  6.450124E+04  8.468815E+03 -2.657504E+03
       383  10  3.390083E+05  3.981965E+04  3.304222E+04  6.466612E+04 -6.153283E-11  6.146725E-11
       383  11  2.749816E+05  2.411715E+04  1.966058E+04  5.723934E+04 -7.557326E-11  2.951854E-11
       383  12  2.113753E+05  9.038597E+03  7.737639E+03  6.431197E+04  7.937077E-11 -1.000356E-10
       383  13  1.729149E+05  6.201477E+02  3.089194E+03  6.440654E+04  2.573442E-10  5.046505E-11
       383  14  1.728078E+05  1.010948E+02  1.727902E+03  5.715681E+04  1.836076E-10  4.412790E-11
       383  15  1.729193E+05  8.417202E+00  1.034089E+03  6.440662E+04  7.462015E-11  4.586327E-11
       383  16  6.848334E+03 -3.858090E+04 -2.686491E+04  6.414703E+04  4.469429E-11 -3.881014E-11
       383  17  7.064413E+04 -2.391553E+04 -1.620515E+04  5.707429E+04  1.683660E-10 -8.543437E-11
       383  18  1.344648E+05 -9.021842E+03 -5.669513E+03  6.450126E+04 -2.216388E-11  1.753241E-11
       383  19  3.390083E+05  3.981977E+04  3.304245E+04  6.466614E+04  3.095142E+03  1.056771E+04
       383  20  2.749816E+05  2.411721E+04  1.966072E+04  5.723937E+04  5.097494E+03  6.953194E+03
       383  21  2.113754E+05  9.038618E+03  7.737747E+03  6.431199E+04  7.099968E+03  2.660350E+03
       383  22  1.729149E+05  6.202692E+02  3.089415E+03  6.440652E+04 -2.409753E+03  1.056715E+04
       383  23  1.728078E+05  1.011474E+02  1.727998E+03  5.715680E+04 -1.547364E+03  6.952231E+03
       383  24  1.729193E+05  8.424921E+00  1.034103E+03  6.440662E+04 -6.846576E+02  2.658928E+03
       383  25  6.848432E+03 -3.858076E+04 -2.686459E+04  6.414696E+04 -7.913216E+03  1.056658E+04
       383  26  7.064422E+04 -2.391546E+04 -1.620494E+04  5.707425E+04 -8.191161E+03  6.951269E+03
       383  27  1.344648E+05 -9.021815E+03 -5.669365E+03  6.450124E+04 -8.468815E+03  2.657504E+03
       384   1  1.696638E+05 -7.625752E+02  1.190131E+02  6.437906E+04 -7.254416E+03  8.834695E+01
       384   2  1.059146E+05 -1.575542E+04 -1.131808E+04  5.711193E+04 -6.537105E+03  4.416786E+03
       384   3  4.204918E+04 -3.085520E+04 -2.324932E+04  6.434904E+04 -5.819662E+03  8.146285E+03
       384   4  1.728829E+05  2.244114E+01  8.254467E+02  6.440763E+04  5.216278E+02  8.979722E+01
       384   5  1.728548E+05  1.061042E+01  5.822115E+02  5.715557E+04  2.321760E+02  4.417884E+03
       384   6  1.728801E+05  6.652079E+01  5.434787E+02  6.440763E+04 -5.705824E+01  8.147071E+03
       384   7  1.761022E+05  8.074893E+02  1.532107E+03  6.443620E+04  8.297711E+03  9.124820E+01
       384   8  2.397994E+05  1.577642E+04  1.248250E+04  5.719921E+04  7.002166E+03  4.418983E+03
       384   9  3.037277E+05  3.098729E+04  2.433572E+04  6.446623E+04  5.706727E+03  8.147857E+03
       384  10  1.696637E+05 -7.625893E+02  1.189142E+02  6.437906E+04 -2.018689E-10 -5.105188E-11
       384  11  1.059146E+05 -1.575545E+04 -1.131819E+04  5.711196E+04  2.602471E-11  2.223808E-10
       384  12  4.204913E+04 -3.085528E+04 -2.324951E+04  6.434908E+04  1.254519E-10  9.861624E-11
       384  13  1.728829E+05  2.244106E+01  8.254462E+02  6.440763E+04  4.042436E-11 -2.757556E-11
       384  14  1.728548E+05  1.058944E+01  5.821747E+02  5.715557E+04 -1.117861E-10 -2.132123E-10
       384  15  1.728801E+05  6.644951E+01  5.433539E+02  6.440763E+04 -6.504233E-11  4.876709E-11
       384  16  1.761021E+05  8.074708E+02  1.531978E+03  6.443620E+04  1.852842E-10 -6.762227E-11
       384  17  2.397993E+05  1.577638E+04  1.248237E+04  5.719918E+04  1.123481E-10 -1.579136E-10
       384  18  3.037277E+05  3.098721E+04  2.433553E+04  6.446619E+04 -7.504576E-11 -1.142876E-11
       384  19  1.696638E+05 -7.625752E+02  1.190131E+02  6.437906E+04  7.254416E+03 -8.834695E+01
       384  20  1.059146E+05 -1.575542E+04 -1.131808E+04  5.711193E+04  6.537105E+03 -4.416786E+03
       384  21  4.204918E+04 -3.085520E+04 -2.324932E+04  6.434904E+04  5.819662E+03 -8.146285E+03
       384  22  1.728829E+05  2.244114E+01  8.254467E+02  6.440763E+04 -5.216278E+02 -8.979722E+01
       384  23  1.728548E+05  1.061042E+01  5.822115E+02  5.715557E+04 -2.321760E+02 -4.417884E+03
       384  24  1.728801E+05  6.652079E+01  5.434787E+02  6.440763E+04  5.705824E+01 -8.147071E+03
       384  25  1.761022E+05  8.074893E+02  1.532107E+03  6.443620E+04 -8.297711E+03 -9.124820E+01
       384  26  2.397994E+05  1.577642E+04  1.248250E+04  5.719921E+04 -7.002166E+03 -4.418983E+03
       384  27  3.037277E+05  3.098729E+04  2.433572E+04  6.446623E+04 -5.706727E+03 -8.147857E+03
       385   1  1.162074E+02 -4.084027E+04 -3.104444E+04  6.435385E+04 -6.753966E+03  1.057933E+04
       385   2 -6.280307E+04 -5.623336E+04 -4.627173E+04  5.686683E+04  5.360562E+03  1.078099E+04
       385   3 -1.276256E+05 -7.296818E+04 -6.972069E+04  6.340619E+04  1.747352E+04  3.517055E+03
       385   4  1.729260E+05  4.378460E+01  5.817537E+02  6.430140E+04 -1.473900E+02  1.058004E+04
       385   5  1.727855E+05  3.025643E+02  8.311239E+02  5.728831E+04 -5.735657E+02  1.078009E+04
       385   6  1.729162E+05  1.397366E+03  1.567733E+03  6.430129E+04 -1.000200E+03  3.515860E+03
       385   7  3.457650E+05  4.092617E+04  3.220689E+04  6.424893E+04  6.460975E+03  1.058074E+04
       385   8  4.084272E+05  5.683510E+04  4.793131E+04  5.770995E+04 -6.509901E+03  1.077918E+04
       385   9  4.735417E+05  7.575661E+04  7.285115E+04  6.519683E+04 -1.948282E+04  3.514612E+03
       385  10  1.161284E+02 -4.084040E+04 -3.104473E+04  6.435391E+04 -1.129672E-10  1.152748E-10
       385  11 -6.280313E+04 -5.623349E+04 -4.627200E+04  5.686679E+04 -6.566946E-11  1.589782E-10
       385  12 -1.276259E+05 -7.296828E+04 -6.972128E+04  6.340614E+04  9.416828E-12  7.836154E-11
       385  13  1.729260E+05  4.366438E+01  5.815433E+02  6.430140E+04  1.571810E-11  1.680198E-10
       385  14  1.727855E+05  3.024394E+02  8.309049E+02  5.728832E+04 -1.096182E-10  2.212766E-10
       385  15  1.729162E+05  1.397353E+03  1.567708E+03  6.430130E+04  4.363189E-11  3.748931E-11
       385  16  3.457649E+05  4.092604E+04  3.220661E+04  6.424887E+04  2.604628E-10  1.182491E-10
       385  17  4.084271E+05  5.683496E+04  4.793101E+04  5.771001E+04  1.547693E-10  1.203117E-10
       385  18  4.735413E+05  7.575650E+04  7.285041E+04  6.519688E+04 -1.678406E-10  3.833096E-11
       385  19  1.162074E+02 -4.084027E+04 -3.104444E+04  6.435385E+04  6.753966E+03 -1.057933E+04
       385  20 -6.280307E+04 -5.623336E+04 -4.627173E+04  5.686683E+04 -5.360562E+03 -1.078099E+04
       385  21 -1.276256E+05 -7.296818E+04 -6.972069E+04  6.340619E+04 -1.747352E+04 -3.517055E+03
       385  22  1.729260E+05  4.378460E+01  5.817537E+02  6.430140E+04  1.473900E+02 -1.058004E+04
       385  23  1.727855E+05  3.025643E+02  8.311239E+02  5.728831E+04  5.735657E+02 -1.078009E+04
       385  24  1.729162E+05  1.397366E+03  1.567733E+03  6.430129E+04  1.000200E+03 -3.515860E+03
       385  25  3.457650E+05  4.092617E+04  3.220689E+04  6.424893E+04 -6.460975E+03 -1.058074E+04
       385  26  4.084272E+05  5.683510E+04  4.793131E+04  5.770995E+04  6.509901E+03 -1.077918E+04
       385  27  4.735417E+05  7.575661E+04  7.285115E+04  6.519683E+04  1.948282E+04 -3.514612E+03
       386   1 -1.026620E+05 -3.752820E+05 -1.064804E+05  1.025578E+05 -2.072894E+03 -4.847203E+04
       386   2 -4.507544E+04 -2.989497E+05 -5.666851E+04  7.768187E+04 -5.632886E+03 -2.517846E+04
       386   3 -1.850708E+04 -2.334053E+05 -2.978345E+04  6.858644E+04 -3.751991E+03 -1.882217E+03
       386   4 -4.980984E+04 -1.620735E+05 -5.541666E+04  7.145022E+04 -2.068092E+03 -3.792017E+04
       386   5 -1.093404E+04 -1.574666E+05 -2.744280E+04  6.355402E+04 -5.631873E+03 -2.376054E+04
       386   6 -1.486381E+03 -1.620632E+05 -1.604654E+04  7.144047E+04 -3.754060E+03 -9.601201E+03
       386   7  3.042717E+03  5.117907E+04 -4.355173E+03  4.033194E+04 -2.064349E+03 -2.736470E+04
       386   8  2.320684E+04 -1.596397E+04  1.781932E+03  4.942289E+04 -5.630924E+03 -2.234231E+04
       386   9  1.553408E+04 -9.071598E+04 -2.309629E+03  7.429483E+04 -3.756200E+03 -1.732105E+04
       386  10 -1.026626E+05 -3.752845E+05 -1.064848E+05  1.025577E+05  1.422913E-10 -1.590439E-10
       386  11 -4.507564E+04 -2.989504E+05 -5.666976E+04  7.768175E+04  1.432829E-10  9.704308E-11
       386  12 -1.850710E+04 -2.334054E+05 -2.978348E+04  6.858644E+04 -1.271818E-11  2.220747E-10
       386  13 -4.981023E+04 -1.620750E+05 -5.541937E+04  7.145016E+04 -1.288575E-10  2.601664E-11
       386  14 -1.093423E+04 -1.574672E+05 -2.744392E+04  6.355391E+04  1.548477E-10 -8.922016E-11
       386  15 -1.486420E+03 -1.620633E+05 -1.604674E+04  7.144044E+04  1.040795E-10 -1.214890E-10
       386  16  3.042512E+03  5.117826E+04 -4.356588E+03  4.033189E+04  7.436059E-12  2.025252E-10
       386  17  2.320667E+04 -1.596451E+04  1.780934E+03  4.942279E+04 -4.028763E-10 -1.793532E-10
       386  18  1.553399E+04 -9.071630E+04 -2.310219E+03  7.429478E+04  1.075935E-10 -2.440729E-10
       386  19 -1.026620E+05 -3.752820E+05 -1.064804E+05  1.025578E+05  2.072894E+03  4.847203E+04
       386  20 -4.507544E+04 -2.989497E+05 -5.666851E+04  7.768187E+04  5.632886E+03  2.517846E+04
       386  21 -1.850708E+04 -2.334053E+05 -2.978345E+04  6.858644E+04  3.751991E+03  1.882217E+03
       386  22 -4.980984E+04 -1.620735E+05 -5.541666E+04  7.145022E+04  2.068092E+03  3.792017E+04
       386  23 -1.093404E+04 -1.574666E+05 -2.744280E+04  6.355402E+04  5.631873E+03  2.376054E+04
       386  24 -1.486381E+03 -1.620632E+05 -1.604654E+04  7.144047E+04  3.754060E+03  9.601201E+03
       386  25  3.042717E+03  5.117907E+04 -4.355173E+03  4.033194E+04  2.064349E+03  2.736470E+04
       386  26  2.320684E+04 -1.596397E+04  1.781932E+03  4.942289E+04  5.630924E+03  2.234231E+04
       386  27  1.553408E+04 -9.071598E+04 -2.309629E+03  7.429483E+04  3.756200E+03  1.732105E+04
       387   1 -8.208196E+03 -1.850906E+05 -1.817269E+04  7.260772E+04 -9.338594E+02 -2.474943E+02
       387   2  1.031298E+04 -1.136140E+05 -1.373677E+03  6.358722E+04  3.239813E+03  4.097644E+03
       387   3  2.652119E+04 -4.328146E+04  1.201580E+04  7.066040E+04  7.222441E+03  8.443430E+03
       387   4 -2.210587E+03 -1.602851E+05 -1.299141E+04  7.151068E+04 -9.358402E+02 -7.416356E+03
       387   5 -4.978536E+02 -1.596838E+05 -9.350639E+03  6.346362E+04  3.238040E+03 -2.750666E+03
       387   6 -1.153530E+03 -1.602871E+05 -9.341914E+03  7.151043E+04  7.220874E+03  1.915205E+03
       387   7  3.787016E+03 -1.354790E+05 -7.809975E+03  7.041360E+04 -9.377955E+02 -1.458550E+04
       387   8 -1.130878E+04 -2.057515E+05 -1.732750E+04  6.334004E+04  3.236271E+03 -9.598483E+03
       387   9 -2.882900E+04 -2.772794E+05 -3.070002E+04  7.236030E+04  7.219288E+03 -4.611823E+03
       387  10 -8.208197E+03 -1.850906E+05 -1.817269E+04  7.260772E+04 -5.354157E-11 -3.497999E-10
       387  11  1.031297E+04 -1.136140E+05 -1.373729E+03  6.358721E+04 -8.477662E-11 -2.920418E-11
       387  12  2.652112E+04 -4.328155E+04  1.201557E+04  7.066035E+04  4.059333E-11  1.441682E-10
       387  13 -2.210602E+03 -1.602852E+05 -1.299152E+04  7.151067E+04  1.835875E-10 -6.309686E-11
       387  14 -4.978668E+02 -1.596839E+05 -9.350673E+03  6.346363E+04 -7.543576E-11 -6.458636E-11
       387  15 -1.153587E+03 -1.602871E+05 -9.342018E+03  7.151042E+04 -1.502220E-10  1.414704E-11
       387  16  3.786958E+03 -1.354792E+05 -7.810377E+03  7.041359E+04  2.124996E-10  3.353782E-10
       387  17 -1.130881E+04 -2.057516E+05 -1.732769E+04  6.334006E+04  1.518661E-11 -3.020572E-11
       387  18 -2.882906E+04 -2.772794E+05 -3.070016E+04  7.236033E+04 -2.750059E-11 -8.789370E-11
       387  19 -8.208196E+03 -1.850906E+05 -1.817269E+04  7.260772E+04  9.338594E+02  2.474943E+02
       387  20  1.031298E+04 -1.136140E+05 -1.373677E+03  6.358722E+04 -3.239813E+03 -4.097644E+03
       387  21  2.652119E+04 -4.328146E+04  1.201580E+04  7.066040E+04 -7.222441E+03 -8.443430E+03
       387  22 -2.210587E+03 -1.602851E+05 -1.299141E+04  7.151068E+04  9.358402E+02  7.416356E+03
       387  23 -4.978536E+02 -1.596838E+05 -9.350639E+03  6.346362E+04 -3.238040E+03  2.750666E+03
       387  24 -1.153530E+03 -1.602871E+05 -9.341914E+03  7.151043E+04 -7.220874E+03 -1.915205E+03
       387  25  3.787016E+03 -1.354790E+05 -7.809975E+03  7.041360E+04  9.377955E+02  1.458550E+04
       387  26 -1.130878E+04 -2.057515E+05 -1.732750E+04  6.334004E+04 -3.236271E+03  9.598483E+03
       387  27 -2.882900E+04 -2.772794E+05 -3.070002E+04  7.236030E+04 -7.219288E+03  4.611823E+03
       388   1  3.793183E+04  2.518661E+03  1.971792E+04  7.283746E+04  9.939699E+03  1.078899E+04
       388   2  5.025083E+04  7.485452E+04  3.140562E+04  5.595887E+04  1.050829E+04  5.988243E+03
       388   3  4.901901E+04  1.444360E+05  4.283124E+04  5.470785E+04  3.474633E+03  1.187325E+03
       388   4 -8.103005E+02 -1.611279E+05 -1.032904E+04  7.140671E+04  9.938101E+03  3.444118E+03
       388   5 -5.824730E+03 -1.586454E+05 -1.547925E+04  6.359454E+04  1.050974E+04  1.141473E+04
       388   6 -2.661020E+04 -1.611406E+05 -2.976220E+04  7.141106E+04  3.477684E+03  1.938545E+04
       388   7 -3.955391E+04 -3.247484E+05 -4.037689E+04  6.997635E+04  9.936538E+03 -3.898868E+03
       388   8 -6.190342E+04 -3.920931E+05 -6.236675E+04  7.122728E+04  1.051133E+04  1.683922E+04
       388   9 -1.022449E+05 -4.666301E+05 -1.023608E+05  8.810600E+04  3.481716E+03  3.757465E+04
       388  10  3.793169E+04  2.518510E+03  1.971751E+04  7.283737E+04 -7.695235E-11 -2.195125E-10
       388  11  5.025070E+04  7.485445E+04  3.140534E+04  5.595882E+04  1.492490E-11 -1.152986E-10
       388  12  4.901899E+04  1.444360E+05  4.283121E+04  5.470785E+04 -1.208256E-11  5.793122E-11
       388  13 -8.104097E+02 -1.611280E+05 -1.032925E+04  7.140669E+04  2.017924E-10  7.868119E-12
       388  14 -5.824884E+03 -1.586456E+05 -1.547970E+04  6.359444E+04 -7.224328E-11  4.527534E-12
       388  15 -2.661032E+04 -1.611410E+05 -2.976293E+04  7.141101E+04 -8.196090E-11  2.993297E-11
       388  16 -3.955402E+04 -3.247484E+05 -4.037711E+04  6.997638E+04  1.079627E-11  3.310812E-10
       388  17 -6.190361E+04 -3.920935E+05 -6.236749E+04  7.122714E+04 -2.395362E-10  8.616543E-11
       388  18 -1.022453E+05 -4.666317E+05 -1.023634E+05  8.810590E+04  6.979522E-11 -1.003918E-10
       388  19  3.793183E+04  2.518661E+03  1.971792E+04  7.283746E+04 -9.939699E+03 -1.078899E+04
       388  20  5.025083E+04  7.485452E+04  3.140562E+04  5.595887E+04 -1.050829E+04 -5.988243E+03
       388  21  4.901901E+04  1.444360E+05  4.283124E+04  5.470785E+04 -3.474633E+03 -1.187325E+03
       388  22 -8.103005E+02 -1.611279E+05 -1.032904E+04  7.140671E+04 -9.938101E+03 -3.444118E+03
       388  23 -5.824730E+03 -1.586454E+05 -1.547925E+04  6.359454E+04 -1.050974E+04 -1.141473E+04
       388  24 -2.661020E+04 -1.611406E+05 -2.976220E+04  7.141106E+04 -3.477684E+03 -1.938545E+04
       388  25 -3.955391E+04 -3.247484E+05 -4.037689E+04  6.997635E+04 -9.936538E+03  3.898868E+03
       388  26 -6.190342E+04 -3.920931E+05 -6.236675E+04  7.122728E+04 -1.051133E+04 -1.683922E+04
       388  27 -1.022449E+05 -4.666301E+05 -1.023608E+05  8.810600E+04 -3.481716E+03 -3.757465E+04
       389   1  2.264496E+05  1.870675E+05  5.532750E+04  1.567292E+05  2.973685E+04  2.176181E+04
       389   2  2.274935E+05  1.502752E+05  2.933873E+04  1.684011E+05  1.969647E+04  1.283186E+04
       389   3  2.440798E+05  1.327956E+05  1.868677E+04  1.711820E+05  9.320584E+03  4.349775E+03
       389   4  2.349904E+05  1.473992E+05  4.955642E+04  1.398864E+05  2.785542E+04  2.034894E+04
       389   5  2.195103E+05  1.239676E+05  2.411100E+04  1.547258E+05  1.856629E+04  1.198377E+04
       389   6  2.194094E+05  1.196849E+05  1.335023E+04  1.606741E+05  8.941945E+03  4.065889E+03
       389   7  2.435325E+05  1.077354E+05  4.378585E+04  1.230439E+05  2.597397E+04  1.893632E+04
       389   8  2.115274E+05  9.766153E+04  1.888339E+04  1.410510E+05  1.743612E+04  1.113578E+04
       389   9  1.947398E+05  1.065743E+05  8.013664E+03  1.501667E+05  8.563326E+03  3.782014E+03
       389  10  2.264485E+05  1.870667E+05  5.532495E+04  1.567287E+05  3.162710E-12  1.504646E-11
       389  11  2.274931E+05  1.502749E+05  2.933770E+04  1.684009E+05  8.278888E-11 -4.098711E-11
       389  12  2.440797E+05  1.327956E+05  1.868658E+04  1.711820E+05 -7.567964E-11 -1.106072E-10
       389  13  2.349895E+05  1.473985E+05  4.955418E+04  1.398860E+05 -1.328602E-10  5.827985E-11
       389  14  2.195099E+05  1.239673E+05  2.411008E+04  1.547256E+05  1.050463E-10  6.238252E-11
       389  15  2.194093E+05  1.196848E+05  1.335005E+04  1.606741E+05  7.260315E-11  2.834994E-11
       389  16  2.435317E+05  1.077348E+05  4.378391E+04  1.230435E+05  3.793891E-11  7.461227E-12
       389  17  2.115271E+05  9.766131E+04  1.888259E+04  1.410508E+05 -1.068783E-10  1.014758E-10
       389  18  1.947397E+05  1.065742E+05  8.013499E+03  1.501667E+05  1.631682E-10  2.425199E-10
       389  19  2.264496E+05  1.870675E+05  5.532750E+04  1.567292E+05 -2.973685E+04 -2.176181E+04
       389  20  2.274935E+05  1.502752E+05  2.933873E+04  1.684011E+05 -1.969647E+04 -1.283186E+04
       389  21  2.440798E+05  1.327956E+05  1.868677E+04  1.711820E+05 -9.320584E+03 -4.349775E+03
       389  22  2.349904E+05  1.473992E+05  4.955642E+04  1.398864E+05 -2.785542E+04 -2.034894E+04
       389  23  2.195103E+05  1.239676E+05  2.411100E+04  1.547258E+05 -1.856629E+04 -1.198377E+04
       389  24  2.194094E+05  1.196849E+05  1.335023E+04  1.606741E+05 -8.941945E+03 -4.065889E+03
       389  25  2.435325E+05  1.077354E+05  4.378585E+04  1.230439E+05 -2.597397E+04 -1.893632E+04
       389  26  2.115274E+05  9.766153E+04  1.888339E+04  1.410510E+05 -1.743612E+04 -1.113578E+04
       389  27  1.947398E+05  1.065743E+05  8.013664E+03  1.501667E+05 -8.563326E+03 -3.782014E+03
       390   1  2.412742E+05  1.368399E+05  1.585578E+04  1.716886E+05  8.064214E+03  3.216129E+03
       390   2  2.426766E+05  1.368024E+05  1.182651E+04  1.733200E+05  5.847994E+03  1.186636E+03
       390   3  2.456788E+05  1.373091E+05  1.009450E+04  1.744518E+05  3.601396E+03 -8.024269E+02
       390   4  2.185811E+05  1.195259E+05  1.023516E+04  1.595551E+05  7.634530E+03  2.893895E+03
       390   5  2.174182E+05  1.186024E+05  5.824722E+03  1.602990E+05  5.486391E+03  9.154568E+02
       390   6  2.178403E+05  1.182082E+05  3.652470E+03  1.605434E+05  3.307926E+03 -1.022515E+03
       390   7  1.958882E+05  1.022119E+05  4.614361E+03  1.474218E+05  7.204860E+03  2.571673E+03
       390   8  1.921604E+05  1.004027E+05 -1.771067E+02  1.472787E+05  5.124808E+03  6.442927E+02
       390   9  1.900032E+05  9.910815E+04 -2.789438E+03  1.466360E+05  3.014480E+03 -1.242586E+03
       390  10  2.412742E+05  1.368399E+05  1.585563E+04  1.716886E+05 -1.652854E-10 -1.872848E-11
       390  11  2.426766E+05  1.368024E+05  1.182644E+04  1.733200E+05  1.624456E-10  2.001005E-10
       390  12  2.456788E+05  1.373091E+05  1.009448E+04  1.744518E+05  9.207975E-11  5.613868E-11
       390  13  2.185810E+05  1.195258E+05  1.023503E+04  1.595550E+05  9.038990E-11  1.219920E-10
       390  14  2.174181E+05  1.186024E+05  5.824664E+03  1.602990E+05 -1.434577E-10  1.045788E-10
       390  15  2.178403E+05  1.182082E+05  3.652448E+03  1.605434E+05  1.205776E-10  2.912715E-11
       390  16  1.958881E+05  1.022118E+05  4.614251E+03  1.474218E+05 -8.809470E-11  6.148676E-11
       390  17  1.921604E+05  1.004027E+05 -1.771568E+02  1.472787E+05  2.112886E-10 -1.476765E-11
       390  18  1.900032E+05  9.910815E+04 -2.789458E+03  1.466360E+05 -1.909529E-11 -1.511488E-10
       390  19  2.412742E+05  1.368399E+05  1.585578E+04  1.716886E+05 -8.064214E+03 -3.216129E+03
       390  20  2.426766E+05  1.368024E+05  1.182651E+04  1.733200E+05 -5.847994E+03 -1.186636E+03
       390  21  2.456788E+05  1.373091E+05  1.009450E+04  1.744518E+05 -3.601396E+03  8.024269E+02
       390  22  2.185811E+05  1.195259E+05  1.023516E+04  1.595551E+05 -7.634530E+03 -2.893895E+03
       390  23  2.174182E+05  1.186024E+05  5.824722E+03  1.602990E+05 -5.486391E+03 -9.154568E+02
       390  24  2.178403E+05  1.182082E+05  3.652470E+03  1.605434E+05 -3.307926E+03  1.022515E+03
       390  25  1.958882E+05  1.022119E+05  4.614361E+03  1.474218E+05 -7.204860E+03 -2.571673E+03
       390  26  1.921604E+05  1.004027E+05 -1.771067E+02  1.472787E+05 -5.124808E+03 -6.442927E+02
       390  27  1.900032E+05  9.910815E+04 -2.789438E+03  1.466360E+05 -3.014480E+03  1.242586E+03
       391   1  2.467296E+05  1.384541E+05  9.812417E+03  1.751132E+05  3.211793E+03 -1.253011E+03
       391   2  2.483267E+05  1.401719E+05  9.734442E+03  1.762441E+05  2.329104E+03 -2.183281E+03
       391   3  2.507184E+05  1.414305E+05  1.051342E+04  1.772247E+05  1.437087E+03 -3.101115E+03
       391   4  2.177804E+05  1.181950E+05  3.049849E+03  1.604656E+05  2.912605E+03 -1.477391E+03
       391   5  2.173840E+05  1.184244E+05  2.501171E+03  1.605426E+05  2.050889E+03 -2.391941E+03
       391   6  2.177777E+05  1.181901E+05  2.791289E+03  1.604694E+05  1.179841E+03 -3.294058E+03
       391   7  1.888321E+05  9.793641E+04 -3.712776E+03  1.458187E+05  2.613435E+03 -1.701757E+03
       391   8  1.864421E+05  9.667727E+04 -4.732260E+03  1.448419E+05  1.772690E+03 -2.600589E+03
       391   9  1.848376E+05  9.494989E+04 -4.931121E+03  1.437148E+05  9.226082E+02 -3.486991E+03
       391  10  2.467295E+05  1.384541E+05  9.812395E+03  1.751132E+05  1.948475E-11  2.974108E-11
       391  11  2.483267E+05  1.401719E+05  9.734423E+03  1.762441E+05  1.877417E-10  1.566190E-10
       391  12  2.507184E+05  1.414305E+05  1.051340E+04  1.772247E+05  1.168983E-10 -2.725136E-11
       391  13  2.177803E+05  1.181950E+05  3.049829E+03  1.604656E+05  2.425811E-11  5.386820E-11
       391  14  2.173840E+05  1.184244E+05  2.501152E+03  1.605426E+05  2.484650E-10  8.100424E-11
       391  15  2.177777E+05  1.181901E+05  2.791266E+03  1.604694E+05 -9.728292E-11  1.913396E-11
       391  16  1.888321E+05  9.793640E+04 -3.712795E+03  1.458187E+05 -6.755951E-11 -9.252587E-11
       391  17  1.864421E+05  9.667727E+04 -4.732279E+03  1.448419E+05 -3.392741E-10 -1.117728E-10
       391  18  1.848376E+05  9.494988E+04 -4.931146E+03  1.437148E+05 -1.219872E-10 -3.249685E-11
       391  19  2.467296E+05  1.384541E+05  9.812417E+03  1.751132E+05 -3.211793E+03  1.253011E+03
       391  20  2.483267E+05  1.401719E+05  9.734442E+03  1.762441E+05 -2.329104E+03  2.183281E+03
       391  21  2.507184E+05  1.414305E+05  1.051342E+04  1.772247E+05 -1.437087E+03  3.101115E+03
       391  22  2.177804E+05  1.181950E+05  3.049849E+03  1.604656E+05 -2.912605E+03  1.477391E+03
       391  23  2.173840E+05  1.184244E+05  2.501171E+03  1.605426E+05 -2.050889E+03  2.391941E+03
       391  24  2.177777E+05  1.181901E+05  2.791289E+03  1.604694E+05 -1.179841E+03  3.294058E+03
       391  25  1.888321E+05  9.793641E+04 -3.712776E+03  1.458187E+05 -2.613435E+03  1.701757E+03
       391  26  1.864421E+05  9.667727E+04 -4.732260E+03  1.448419E+05 -1.772690E+03  2.600589E+03
       391  27  1.848376E+05  9.494989E+04 -4.931121E+03  1.437148E+05 -9.226082E+02  3.486991E+03
       392   1  2.519166E+05  1.425806E+05  1.129710E+04  1.780226E+05  1.095501E+03 -3.505721E+03
       392   2  2.540046E+05  1.439565E+05  1.360080E+04  1.787266E+05 -9.857047E+02 -5.237312E+03
       392   3  2.575562E+05  1.457265E+05  1.796528E+04  1.789871E+05 -3.143415E+03 -6.866822E+03
       392   4  2.178230E+05  1.182021E+05  3.241645E+03  1.605317E+05  8.260375E+02 -3.707830E+03
       392   5  2.174215E+05  1.185781E+05  4.991195E+03  1.603373E+05 -1.083486E+03 -5.310676E+03
       392   6  2.184465E+05  1.193111E+05  8.652704E+03  1.596996E+05 -3.069524E+03 -6.811451E+03
       392   7  1.837315E+05  9.382478E+04 -4.813669E+03  1.430422E+05  5.565990E+02 -3.909920E+03
       392   8  1.808404E+05  9.320069E+04 -3.618370E+03  1.419495E+05 -1.181258E+03 -5.384035E+03
       392   9  1.793386E+05  9.289651E+04 -6.599613E+02  1.404135E+05 -2.995640E+03 -6.756084E+03
       392  10  2.519166E+05  1.425805E+05  1.129708E+04  1.780226E+05  2.953417E-10  4.293419E-11
       392  11  2.540046E+05  1.439564E+05  1.360074E+04  1.787266E+05  4.662486E-11  4.173359E-11
       392  12  2.575562E+05  1.457265E+05  1.796517E+04  1.789871E+05 -2.079185E-10 -7.521117E-11
       392  13  2.178230E+05  1.182021E+05  3.241618E+03  1.605317E+05 -1.344435E-10 -4.267687E-11
       392  14  2.174215E+05  1.185780E+05  4.991140E+03  1.603373E+05 -1.146549E-11 -3.459147E-11
       392  15  2.184465E+05  1.193110E+05  8.652599E+03  1.596996E+05 -2.130386E-10  7.037386E-11
       392  16  1.837314E+05  9.382477E+04 -4.813698E+03  1.430422E+05 -2.515982E-10 -1.770889E-10
       392  17  1.808404E+05  9.320066E+04 -3.618427E+03  1.419495E+05 -2.912556E-10 -9.904124E-11
       392  18  1.793386E+05  9.289646E+04 -6.600639E+02  1.404135E+05  3.415876E-11  1.616326E-10
       392  19  2.519166E+05  1.425806E+05  1.129710E+04  1.780226E+05 -1.095501E+03  3.505721E+03
       392  20  2.540046E+05  1.439565E+05  1.360080E+04  1.787266E+05  9.857047E+02  5.237312E+03
       392  21  2.575562E+05  1.457265E+05  1.796528E+04  1.789871E+05  3.143415E+03  6.866822E+03
       392  22  2.178230E+05  1.182021E+05  3.241645E+03  1.605317E+05 -8.260375E+02  3.707830E+03
       392  23  2.174215E+05  1.185781E+05  4.991195E+03  1.603373E+05  1.083486E+03  5.310676E+03
       392  24  2.184465E+05  1.193111E+05  8.652704E+03  1.596996E+05  3.069524E+03  6.811451E+03
       392  25  1.837315E+05  9.382478E+04 -4.813669E+03  1.430422E+05 -5.565990E+02  3.909920E+03
       392  26  1.808404E+05  9.320069E+04 -3.618370E+03  1.419495E+05  1.181258E+03  5.384035E+03
       392  27  1.793386E+05  9.289651E+04 -6.599613E+02  1.404135E+05  2.995640E+03  6.756084E+03
       393   1  2.568632E+05  1.496377E+05  2.099095E+04  1.814365E+05 -4.164084E+03 -7.696901E+03
       393   2  2.712277E+05  1.424110E+05  3.140714E+04  1.737346E+05 -1.486776E+04 -1.488264E+04
       393   3  2.989073E+05  1.517117E+05  5.583528E+04  1.585712E+05 -2.643067E+04 -2.092319E+04
       393   4  2.191164E+05  1.194703E+05  1.125493E+04  1.606467E+05 -4.220904E+03 -7.739515E+03
       393   5  2.192134E+05  1.230552E+05  2.027319E+04  1.556451E+05 -1.299930E+04 -1.348180E+04
       393   6  2.322081E+05  1.427507E+05  4.163361E+04  1.431821E+05 -2.263646E+04 -1.807911E+04
       393   7  1.813706E+05  8.930350E+04  1.518602E+03  1.398582E+05 -4.277721E+03 -7.782126E+03
       393   8  1.672021E+05  1.036997E+05  9.139083E+03  1.375569E+05 -1.113105E+04 -1.208101E+04
       393   9  1.655150E+05  1.337903E+05  2.743211E+04  1.277937E+05 -1.884285E+04 -1.523504E+04
       393  10  2.568632E+05  1.496377E+05  2.099080E+04  1.814365E+05  3.317818E-10  1.994466E-10
       393  11  2.712274E+05  1.424107E+05  3.140631E+04  1.737344E+05  1.249637E-10 -9.571528E-11
       393  12  2.989064E+05  1.517111E+05  5.583314E+04  1.585708E+05 -4.045049E-11 -8.726736E-11
       393  13  2.191163E+05  1.194702E+05  1.125478E+04  1.606467E+05 -3.106836E-10  7.293428E-11
       393  14  2.192132E+05  1.230550E+05  2.027253E+04  1.556450E+05 -8.694280E-11 -1.612165E-11
       393  15  2.322075E+05  1.427502E+05  4.163203E+04  1.431818E+05 -5.703515E-11 -4.658766E-11
       393  16  1.813706E+05  8.930343E+04  1.518454E+03  1.398581E+05 -5.310564E-10 -1.768736E-10
       393  17  1.672019E+05  1.036995E+05  9.138576E+03  1.375567E+05 -6.583681E-11  7.236177E-11
       393  18  1.655145E+05  1.337900E+05  2.743100E+04  1.277935E+05  1.044638E-10  4.433703E-11
       393  19  2.568632E+05  1.496377E+05  2.099095E+04  1.814365E+05  4.164084E+03  7.696901E+03
       393  20  2.712277E+05  1.424110E+05  3.140714E+04  1.737346E+05  1.486776E+04  1.488264E+04
       393  21  2.989073E+05  1.517117E+05  5.583528E+04  1.585712E+05  2.643067E+04  2.092319E+04
       393  22  2.191164E+05  1.194703E+05  1.125493E+04  1.606467E+05  4.220904E+03  7.739515E+03
       393  23  2.192134E+05  1.230552E+05  2.027319E+04  1.556451E+05  1.299930E+04  1.348180E+04
       393  24  2.322081E+05  1.427507E+05  4.163361E+04  1.431821E+05  2.263646E+04  1.807911E+04
       393  25  1.813706E+05  8.930350E+04  1.518602E+03  1.398582E+05  4.277721E+03  7.782126E+03
       393  26  1.672021E+05  1.036997E+05  9.139083E+03  1.375569E+05  1.113105E+04  1.208101E+04
       393  27  1.655150E+05  1.337903E+05  2.743211E+04  1.277937E+05  1.884285E+04  1.523504E+04
       394   1  5.666938E+05  9.536668E+04  9.330419E+04  7.886673E+04  3.031984E+04 -3.926724E+03
       394   2  4.937302E+05  6.590407E+04  5.934007E+04  6.685773E+04  1.286182E+04 -1.206354E+04
       394   3  4.254996E+05  4.624161E+04  3.918559E+04  7.034416E+04 -4.593554E+03 -1.188701E+04
       394   4  2.315829E+05  1.248633E+04  1.386193E+04  7.105475E+04  9.652915E+03 -3.928747E+03
       394   5  2.304370E+05  2.746797E+03  6.740494E+03  6.330767E+04  6.173319E+03 -1.206479E+04
       394   6  2.315963E+05  3.845877E+02  3.728846E+03  7.105586E+04  2.694228E+03 -1.188611E+04
       394   7 -1.034240E+05 -7.040163E+04 -6.558650E+04  6.324699E+04 -1.100292E+04 -3.930250E+03
       394   8 -3.278992E+04 -6.041466E+04 -4.586240E+04  5.975913E+04 -5.124041E+02 -1.206596E+04
       394   9  3.772954E+04 -4.547453E+04 -3.172922E+04  7.176733E+04  9.979796E+03 -1.188519E+04
       394  10  5.666928E+05  9.536641E+04  9.330244E+04  7.886682E+04 -2.432337E-11  2.285334E-11
       394  11  4.937300E+05  6.590387E+04  5.933949E+04  6.685786E+04 -6.575963E-11 -1.173966E-10
       394  12  4.254995E+05  4.624145E+04  3.918528E+04  7.034411E+04  1.250493E-11 -1.692535E-10
       394  13  2.315828E+05  1.248628E+04  1.386173E+04  7.105478E+04  1.203935E-10  2.279266E-11
       394  14  2.304369E+05  2.746630E+03  6.740149E+03  6.330773E+04 -5.393843E-11 -8.705037E-11
       394  15  2.315962E+05  3.844340E+02  3.728566E+03  7.105589E+04 -2.498224E-10 -6.330678E-11
       394  16 -1.034241E+05 -7.040168E+04 -6.558676E+04  6.324696E+04  1.237415E-11 -9.233000E-12
       394  17 -3.278996E+04 -6.041482E+04 -4.586267E+04  5.975913E+04 -2.785515E-10  6.359220E-11
       394  18  3.772940E+04 -4.547471E+04 -3.172968E+04  7.176743E+04 -2.286819E-10 -9.728884E-12
       394  19  5.666938E+05  9.536668E+04  9.330419E+04  7.886673E+04 -3.031984E+04  3.926724E+03
       394  20  4.937302E+05  6.590407E+04  5.934007E+04  6.685773E+04 -1.286182E+04  1.206354E+04
       394  21  4.254996E+05  4.624161E+04  3.918559E+04  7.034416E+04  4.593554E+03  1.188701E+04
       394  22  2.315829E+05  1.248633E+04  1.386193E+04  7.105475E+04 -9.652915E+03  3.928747E+03
       394  23  2.304370E+05  2.746797E+03  6.740494E+03  6.330767E+04 -6.173319E+03  1.206479E+04
       394  24  2.315963E+05  3.845877E+02  3.728846E+03  7.105586E+04 -2.694228E+03  1.188611E+04
       394  25 -1.034240E+05 -7.040163E+04 -6.558650E+04  6.324699E+04  1.100292E+04  3.930250E+03
       394  26 -3.278992E+04 -6.041466E+04 -4.586240E+04  5.975913E+04  5.124041E+02  1.206596E+04
       394  27  3.772954E+04 -4.547453E+04 -3.172922E+04  7.176733E+04 -9.979796E+03  1.188519E+04
       395   1  3.786346E+05  3.542765E+04  2.965261E+04  7.141677E+04 -4.141285E+03 -9.202603E+03
       395   2  3.079245E+05  1.820237E+04  1.526105E+04  6.323924E+04 -6.069252E+03 -5.092444E+03
       395   3  2.376168E+05  1.566380E+03  2.270845E+03  7.108575E+04 -7.997258E+03 -3.139794E+02
       395   4  2.311317E+05  5.777029E+02  2.854373E+03  7.117334E+04  2.205555E+03 -9.201604E+03
       395   5  2.310328E+05  9.905759E+01  1.612579E+03  6.316131E+04  1.400596E+03 -5.091046E+03
       395   6  2.311355E+05  1.481503E+01  9.923689E+02  7.117345E+04  5.953725E+02 -3.121333E+02
       395   7  8.365011E+04 -3.427344E+04 -2.394458E+04  7.092996E+04  8.550929E+03 -9.200610E+03
       395   8  1.541469E+05 -1.800455E+04 -1.203590E+04  6.308340E+04  8.869545E+03 -5.089650E+03
       395   9  2.246543E+05 -1.536713E+03 -2.858319E+02  7.126115E+04  9.187916E+03 -3.102849E+02
       395  10  3.786346E+05  3.542755E+04  2.965242E+04  7.141674E+04 -9.708310E-11 -1.967811E-10
       395  11  3.079245E+05  1.820233E+04  1.526093E+04  6.323921E+04  2.086253E-11  6.532134E-11
       395  12  2.376168E+05  1.566363E+03  2.270725E+03  7.108575E+04 -1.162891E-10  9.874967E-11
       395  13  2.311317E+05  5.776107E+02  2.854204E+03  7.117336E+04 -1.043486E-10 -1.550556E-10
       395  14  2.310327E+05  9.902923E+01  1.612527E+03  6.316132E+04  1.567287E-10 -9.097699E-11
       395  15  2.311355E+05  1.481483E+01  9.923681E+02  7.117345E+04 -5.162546E-11 -2.868461E-11
       395  16  8.365001E+04 -3.427355E+04 -2.394488E+04  7.093003E+04  9.554269E-11  2.226238E-11
       395  17  1.541468E+05 -1.800460E+04 -1.203610E+04  6.308343E+04  2.382398E-10 -2.443102E-10
       395  18  2.246542E+05 -1.536736E+03 -2.859906E+02  7.126115E+04  2.852868E-10  4.801519E-12
       395  19  3.786346E+05  3.542765E+04  2.965261E+04  7.141677E+04  4.141285E+03  9.202603E+03
       395  20  3.079245E+05  1.820237E+04  1.526105E+04  6.323924E+04  6.069252E+03  5.092444E+03
       395  21  2.376168E+05  1.566380E+03  2.270845E+03  7.108575E+04  7.997258E+03  3.139794E+02
       395  22  2.311317E+05  5.777029E+02  2.854373E+03  7.117334E+04 -2.205555E+03  9.201604E+03
       395  23  2.310328E+05  9.905759E+01  1.612579E+03  6.316131E+04 -1.400596E+03  5.091046E+03
       395  24  2.311355E+05  1.481503E+01  9.923689E+02  7.117345E+04 -5.953725E+02  3.121333E+02
       395  25  8.365011E+04 -3.427344E+04 -2.394458E+04  7.092996E+04 -8.550929E+03  9.200610E+03
       395  26  1.541469E+05 -1.800455E+04 -1.203590E+04  6.308340E+04 -8.869545E+03  5.089650E+03
       395  27  2.246543E+05 -1.536713E+03 -2.858319E+02  7.126115E+04 -9.187916E+03  3.102849E+02
       396   1  1.915388E+05 -9.266846E+03 -6.095026E+03  7.114723E+04 -8.163383E+03  2.722979E+03
       396   2  1.211113E+05 -2.583258E+04 -1.868193E+04  6.311274E+04 -7.228561E+03  7.469957E+03
       396   3  5.053275E+04 -4.252845E+04 -3.191083E+04  7.109845E+04 -6.293442E+03  1.147398E+04
       396   4  2.311041E+05  2.609441E+01  8.136619E+02  7.117252E+04  4.368434E+02  2.724798E+03
       396   5  2.310706E+05  1.752914E+01  6.306718E+02  6.316251E+04  1.229407E+02  7.471212E+03
       396   6  2.310990E+05  9.606884E+01  6.728830E+02  7.117251E+04 -1.905817E+02  1.147474E+04
       396   7  2.706711E+05  9.318990E+03  7.722572E+03  7.119781E+04  9.037601E+03  2.726616E+03
       396   8  3.410419E+05  2.586701E+04  1.994304E+04  6.321228E+04  7.475706E+03  7.472467E+03
       396   9  4.116971E+05  4.271878E+04  3.325546E+04  7.124658E+04  5.914004E+03  1.147551E+04
       396  10  1.915387E+05 -9.266872E+03 -6.095165E+03  7.114725E+04  3.249704E-10  2.495134E-10
       396  11  1.211112E+05 -2.583266E+04 -1.868213E+04  6.311279E+04  9.205277E-11  7.384861E-11
       396  12  5.053267E+04 -4.252860E+04 -3.191115E+04  7.109851E+04 -3.124243E-10 -5.761601E-11
       396  13  2.311041E+05  2.608638E+01  8.136476E+02  7.117252E+04  1.854533E-10  6.483634E-11
       396  14  2.310706E+05  1.746919E+01  6.305669E+02  6.316251E+04  2.994283E-10  3.976636E-11
       396  15  2.310990E+05  9.592743E+01  6.726355E+02  7.117251E+04  7.175026E-11  1.712814E-11
       396  16  2.706710E+05  9.318960E+03  7.722404E+03  7.119779E+04 -2.575690E-10 -4.034999E-11
       396  17  3.410418E+05  2.586693E+04  1.994283E+04  6.321224E+04  2.053615E-10 -9.890674E-11
       396  18  4.116970E+05  4.271863E+04  3.325514E+04  7.124653E+04  3.060671E-10 -7.878482E-11
       396  19  1.915388E+05 -9.266846E+03 -6.095026E+03  7.114723E+04  8.163383E+03 -2.722979E+03
       396  20  1.211113E+05 -2.583258E+04 -1.868193E+04  6.311274E+04  7.228561E+03 -7.469957E+03
       396  21  5.053275E+04 -4.252845E+04 -3.191083E+04  7.109845E+04  6.293442E+03 -1.147398E+04
       396  22  2.311041E+05  2.609441E+01  8.136619E+02  7.117252E+04 -4.368434E+02 -2.724798E+03
       396  23  2.310706E+05  1.752914E+01  6.306718E+02  6.316251E+04 -1.229407E+02 -7.471212E+03
       396  24  2.310990E+05  9.606884E+01  6.728830E+02  7.117251E+04  1.905817E+02 -1.147474E+04
       396  25  2.706711E+05  9.318990E+03  7.722572E+03  7.119781E+04 -9.037601E+03 -2.726616E+03
       396  26  3.410419E+05  2.586701E+04  1.994304E+04  6.321228E+04 -7.475706E+03 -7.472467E+03
       396  27  4.116971E+05  4.271878E+04  3.325546E+04  7.124658E+04 -5.914004E+03 -1.147551E+04
       397   1  4.179193E+03 -5.359000E+04 -4.053355E+04  7.113164E+04 -7.435406E+03  1.411949E+04
       397   2 -6.528391E+04 -7.059157E+04 -5.776138E+04  6.271617E+04  7.226603E+03  1.382310E+04
       397   3 -1.369970E+05 -8.901856E+04 -8.488914E+04  6.974258E+04  2.188601E+04  4.438598E+03
       397   4  2.311696E+05  6.160786E+01  7.624126E+02  7.104395E+04 -3.034710E+02  1.412012E+04
       397   5  2.309648E+05  4.410468E+02  1.176339E+03  6.332314E+04 -9.073756E+02  1.382184E+04
       397   6  2.311559E+05  2.045697E+03  2.291236E+03  7.104380E+04 -1.512136E+03  4.437458E+03
       397   7  4.582102E+05  5.371035E+04  4.205650E+04  7.095622E+04  6.831000E+03  1.412075E+04
       397   8  5.272976E+05  7.146833E+04  6.010993E+04  6.393040E+04 -9.045156E+03  1.382056E+04
       397   9  5.994344E+05  9.310052E+04  8.946426E+04  7.234579E+04 -2.492408E+04  4.436222E+03
       397  10  4.179080E+03 -5.359023E+04 -4.053403E+04  7.113172E+04  3.074070E-11 -1.091309E-11
       397  11 -6.528402E+04 -7.059179E+04 -5.776184E+04  6.271609E+04 -1.149086E-11 -1.786345E-11
       397  12 -1.369975E+05 -8.901870E+04 -8.489008E+04  6.974250E+04 -7.787381E-11  5.402940E-12
       397  13  2.311696E+05  6.139372E+01  7.620377E+02  7.104395E+04  2.055147E-10 -6.546943E-11
       397  14  2.309648E+05  4.408414E+02  1.175978E+03  6.332315E+04  3.588874E-11  1.302001E-11
       397  15  2.311559E+05  2.045676E+03  2.291195E+03  7.104381E+04  7.500676E-12 -2.761638E-12
       397  16  4.582101E+05  5.371012E+04  4.205604E+04  7.095614E+04  2.659179E-10  1.251312E-10
       397  17  5.272975E+05  7.146811E+04  6.010942E+04  6.393050E+04  7.943226E-12 -4.705586E-11
       397  18  5.994338E+05  9.310033E+04  8.946305E+04  7.234588E+04  1.326612E-10 -4.051877E-11
       397  19  4.179193E+03 -5.359000E+04 -4.053355E+04  7.113164E+04  7.435406E+03 -1.411949E+04
       397  20 -6.528391E+04 -7.059157E+04 -5.776138E+04  6.271617E+04 -7.226603E+03 -1.382310E+04
       397  21 -1.369970E+05 -8.901856E+04 -8.488914E+04  6.974258E+04 -2.188601E+04 -4.438598E+03
       397  22  2.311696E+05  6.160786E+01  7.624126E+02  7.104395E+04  3.034710E+02 -1.412012E+04
       397  23  2.309648E+05  4.410468E+02  1.176339E+03  6.332314E+04  9.073756E+02 -1.382184E+04
       397  24  2.311559E+05  2.045697E+03  2.291236E+03  7.104380E+04  1.512136E+03 -4.437458E+03
       397  25  4.582102E+05  5.371035E+04  4.205650E+04  7.095622E+04 -6.831000E+03 -1.412075E+04
       397  26  5.272976E+05  7.146833E+04  6.010993E+04  6.393040E+04  9.045156E+03 -1.382056E+04
       397  27  5.994344E+05  9.310052E+04  8.946426E+04  7.234579E+04  2.492408E+04 -4.436222E+03
       398   1 -1.094439E+05 -3.629912E+05 -1.160269E+05  1.012192E+05 -1.522637E+03 -5.968416E+04
       398   2 -4.036812E+04 -2.984716E+05 -6.042006E+04  7.122467E+04 -4.012563E+03 -3.271957E+04
       398   3 -1.343346E+04 -2.479997E+05 -3.291076E+04  5.403634E+04 -2.339098E+03 -5.752187E+03
       398   4 -6.919845E+04 -2.006714E+05 -7.708585E+04  5.791311E+04 -1.517196E+03 -5.200054E+04
       398   5 -1.518978E+04 -1.942491E+05 -3.873893E+04  5.150375E+04 -4.011348E+03 -3.202593E+04
       398   6 -2.105489E+03 -2.006611E+05 -2.362971E+04  5.790345E+04 -2.340380E+03 -1.205127E+04
       398   7 -2.894783E+04 -3.832332E+04 -3.814540E+04  1.459564E+04 -1.512830E+03 -4.431491E+04
       398   8  9.989325E+03 -9.001551E+04 -1.705819E+04  3.177947E+04 -4.010178E+03 -3.133218E+04
       398   9  9.222428E+03 -1.533202E+05 -1.434861E+04  6.177085E+04 -2.341740E+03 -1.835082E+04
       398  10 -1.094449E+05 -3.629950E+05 -1.160336E+05  1.012191E+05 -3.437270E-11 -4.527631E-11
       398  11 -4.036842E+04 -2.984728E+05 -6.042210E+04  7.122456E+04 -1.578888E-10 -4.546646E-11
       398  12 -1.343348E+04 -2.479998E+05 -3.291083E+04  5.403633E+04  1.206730E-10  1.524337E-10
       398  13 -6.919918E+04 -2.006743E+05 -7.709094E+04  5.791305E+04 -7.579057E-11 -3.574003E-11
       398  14 -1.519007E+04 -1.942502E+05 -3.874089E+04  5.150365E+04  1.070039E-10  5.823084E-11
       398  15 -2.105534E+03 -2.006613E+05 -2.362999E+04  5.790342E+04  2.260469E-10 -2.000531E-12
       398  16 -2.894836E+04 -3.832543E+04 -3.814910E+04  1.459559E+04  3.518802E-11  2.871028E-11
       398  17  9.989045E+03 -9.001657E+04 -1.706006E+04  3.177937E+04  1.517710E-10  3.251546E-11
       398  18  9.222332E+03 -1.533206E+05 -1.434925E+04  6.177082E+04  6.419564E-11 -8.517202E-11
       398  19 -1.094439E+05 -3.629912E+05 -1.160269E+05  1.012192E+05  1.522637E+03  5.968416E+04
       398  20 -4.036812E+04 -2.984716E+05 -6.042006E+04  7.122467E+04  4.012563E+03  3.271957E+04
       398  21 -1.343346E+04 -2.479997E+05 -3.291076E+04  5.403634E+04  2.339098E+03  5.752187E+03
       398  22 -6.919845E+04 -2.006714E+05 -7.708585E+04  5.791311E+04  1.517196E+03  5.200054E+04
       398  23 -1.518978E+04 -1.942491E+05 -3.873893E+04  5.150375E+04  4.011348E+03  3.202593E+04
       398  24 -2.105489E+03 -2.006611E+05 -2.362971E+04  5.790345E+04  2.340380E+03  1.205127E+04
       398  25 -2.894783E+04 -3.832332E+04 -3.814540E+04  1.459564E+04  1.512830E+03  4.431491E+04
       398  26  9.989325E+03 -9.001551E+04 -1.705819E+04  3.177947E+04  4.010178E+03  3.133218E+04
       398  27  9.222428E+03 -1.533202E+05 -1.434861E+04  6.177085E+04  2.341740E+03  1.835082E+04
       399   1 -5.479882E+03 -2.079069E+05 -2.224073E+04  5.969903E+04 -4.327674E+01 -2.856049E+03
       399   2  1.031943E+04 -1.494222E+05 -8.036550E+03  5.146525E+04  3.361940E+03  4.952747E+03
       399   3  2.203787E+04 -9.297383E+04  6.166228E+01  5.627535E+04  6.568881E+03  1.276237E+04
       399   4 -3.081588E+03 -1.982754E+05 -1.987894E+04  5.795667E+04 -4.446432E+01 -8.739277E+03
       399   5 -8.990325E+02 -1.972276E+05 -1.631429E+04  5.143462E+04  3.360912E+03 -5.979536E+02
       399   6 -2.855082E+03 -1.982771E+05 -1.908663E+04  5.795667E+04  6.568043E+03  7.543512E+03
       399   7 -6.832709E+02 -1.886436E+05 -1.751704E+04  5.621428E+04 -4.561885E+01 -1.462260E+04
       399   8 -1.211760E+04 -2.450306E+05 -2.459199E+04  5.140399E+04  3.359886E+03 -6.148240E+03
       399   9 -2.774863E+04 -3.035696E+05 -3.823527E+04  5.963770E+04  6.567177E+03  2.325517E+03
       399  10 -5.479884E+03 -2.079069E+05 -2.224074E+04  5.969903E+04  1.136023E-10 -2.199811E-10
       399  11  1.031941E+04 -1.494223E+05 -8.036617E+03  5.146524E+04 -3.473337E-11 -4.743675E-11
       399  12  2.203778E+04 -9.297401E+04  6.127510E+01  5.627528E+04  8.958132E-11  1.323255E-10
       399  13 -3.081609E+03 -1.982754E+05 -1.987909E+04  5.795667E+04  1.657198E-10 -6.039997E-11
       399  14 -8.990447E+02 -1.972276E+05 -1.631431E+04  5.143462E+04 -2.220176E-10  1.060316E-10
       399  15 -2.855143E+03 -1.982772E+05 -1.908682E+04  5.795663E+04 -2.225677E-10  4.335222E-11
       399  16 -6.833283E+02 -1.886438E+05 -1.751744E+04  5.621428E+04 -1.077203E-11  2.087639E-10
       399  17 -1.211762E+04 -2.450306E+05 -2.459208E+04  5.140401E+04  3.286137E-11  9.153605E-11
       399  18 -2.774868E+04 -3.035696E+05 -3.823536E+04  5.963769E+04  9.383737E-12 -9.514796E-11
       399  19 -5.479882E+03 -2.079069E+05 -2.224073E+04  5.969903E+04  4.327674E+01  2.856049E+03
       399  20  1.031943E+04 -1.494222E+05 -8.036550E+03  5.146525E+04 -3.361940E+03 -4.952747E+03
       399  21  2.203787E+04 -9.297383E+04  6.166228E+01  5.627535E+04 -6.568881E+03 -1.276237E+04
       399  22 -3.081588E+03 -1.982754E+05 -1.987894E+04  5.795667E+04  4.446432E+01  8.739277E+03
       399  23 -8.990325E+02 -1.972276E+05 -1.631429E+04  5.143462E+04 -3.360912E+03  5.979536E+02
       399  24 -2.855082E+03 -1.982771E+05 -1.908663E+04  5.795667E+04 -6.568043E+03 -7.543512E+03
       399  25 -6.832709E+02 -1.886436E+05 -1.751704E+04  5.621428E+04  4.561885E+01  1.462260E+04
       399  26 -1.211760E+04 -2.450306E+05 -2.459199E+04  5.140399E+04 -3.359886E+03  6.148240E+03
       399  27 -2.774863E+04 -3.035696E+05 -3.823527E+04  5.963770E+04 -6.567177E+03 -2.325517E+03
       400   1  3.190626E+04 -5.734492E+04  3.818073E+03  6.143269E+04  8.760250E+03  1.662476E+04
       400   2  3.385233E+04  5.183013E+03  3.864630E+03  3.323530E+04  9.073758E+03  2.449421E+04
       400   3 -2.813989E+02  5.767482E+04 -1.023088E+04  1.768479E+04  2.978060E+03  3.236450E+04
       400   4 -1.963178E+03 -2.004596E+05 -2.238823E+04  5.786822E+04  8.759310E+03  1.071310E+04
       400   5 -1.408697E+04 -1.945098E+05 -3.614178E+04  5.154749E+04  9.075349E+03  2.934475E+04
       400   6 -6.416752E+04 -2.004729E+05 -7.151578E+04  5.787509E+04  2.981792E+03  4.797608E+04
       400   7 -3.583371E+04 -3.435543E+05 -4.859522E+04  5.430460E+04  8.758438E+03  4.802771E+03
       400   8 -6.202744E+04 -3.941638E+05 -7.614994E+04  6.985367E+04  9.077226E+03  3.419376E+04
       400   9 -1.280522E+05 -4.585555E+05 -1.328035E+05  9.804859E+04  2.987548E+03  6.358120E+04
       400  10  3.190610E+04 -5.734523E+04  3.817410E+03  6.143258E+04 -1.728404E-11  7.852991E-11
       400  11  3.385208E+04  5.182346E+03  3.863348E+03  3.323512E+04  7.676391E-11 -7.671676E-11
       400  12 -2.816895E+02  5.767369E+04 -1.023287E+04  1.768471E+04  1.184575E-11 -1.514842E-10
       400  13 -1.963292E+03 -2.004597E+05 -2.238859E+04  5.786815E+04  1.543158E-10 -7.194923E-11
       400  14 -1.408729E+04 -1.945107E+05 -3.614355E+04  5.154727E+04 -1.636907E-10  1.071434E-10
       400  15 -6.416815E+04 -2.004754E+05 -7.152012E+04  5.787497E+04 -3.049410E-11 -8.875471E-12
       400  16 -3.583380E+04 -3.435543E+05 -4.859541E+04  5.430456E+04  3.386586E-12 -1.133917E-10
       400  17 -6.202784E+04 -3.941651E+05 -7.615229E+04  6.985342E+04 -5.455664E-11  9.030222E-11
       400  18 -1.280533E+05 -4.585598E+05 -1.328112E+05  9.804843E+04  5.139907E-11  1.397465E-10
       400  19  3.190626E+04 -5.734492E+04  3.818073E+03  6.143269E+04 -8.760250E+03 -1.662476E+04
       400  20  3.385233E+04  5.183013E+03  3.864630E+03  3.323530E+04 -9.073758E+03 -2.449421E+04
       400  21 -2.813989E+02  5.767482E+04 -1.023088E+04  1.768479E+04 -2.978060E+03 -3.236450E+04
       400  22 -1.963178E+03 -2.004596E+05 -2.238823E+04  5.786822E+04 -8.759310E+03 -1.071310E+04
       400  23 -1.408697E+04 -1.945098E+05 -3.614178E+04  5.154749E+04 -9.075349E+03 -2.934475E+04
       400  24 -6.416752E+04 -2.004729E+05 -7.151578E+04  5.787509E+04 -2.981792E+03 -4.797608E+04
       400  25 -3.583371E+04 -3.435543E+05 -4.859522E+04  5.430460E+04 -8.758438E+03 -4.802771E+03
       400  26 -6.202744E+04 -3.941638E+05 -7.614994E+04  6.985367E+04 -9.077226E+03 -3.419376E+04
       400  27 -1.280522E+05 -4.585555E+05 -1.328035E+05  9.804859E+04 -2.987548E+03 -6.358120E+04
       401   1  2.602437E+05  1.992513E+05  5.077360E+04  1.849912E+05  3.320491E+04  2.580810E+04
       401   2  2.687800E+05  1.575832E+05  2.220376E+04  2.044364E+05  2.123572E+04  1.866970E+04
       401   3  2.994385E+05  1.387202E+05  1.127778E+04  2.114437E+05  1.021266E+04  1.026891E+04
       401   4  3.418983E+05  1.965454E+05  6.579636E+04  1.974943E+05  3.624855E+04  2.808726E+04
       401   5  3.202662E+05  1.665157E+05  3.197641E+04  2.175142E+05  2.215455E+04  1.935772E+04
       401   6  3.212144E+05  1.597492E+05  1.764149E+04  2.250966E+05  9.007397E+03  9.365236E+03
       401   7  4.235625E+05  1.938413E+05  8.081964E+04  2.099973E+05  3.929277E+04  3.036630E+04
       401   8  3.717564E+05  1.754486E+05  4.174922E+04  2.305927E+05  2.307350E+04  2.004575E+04
       401   9  3.429912E+05  1.807791E+05  2.400533E+04  2.387503E+05  7.802057E+03  8.461489E+03
       401  10  2.602423E+05  1.992503E+05  5.077027E+04  1.849905E+05  1.366379E-11  3.746096E-11
       401  11  2.687794E+05  1.575827E+05  2.220225E+04  2.044360E+05 -1.368420E-10  1.121374E-12
       401  12  2.994384E+05  1.387201E+05  1.127739E+04  2.114436E+05 -1.806854E-11 -9.452580E-11
       401  13  3.418966E+05  1.965442E+05  6.579241E+04  1.974935E+05 -2.146361E-10 -2.327073E-11
       401  14  3.202656E+05  1.665152E+05  3.197479E+04  2.175138E+05 -5.165559E-12  2.100755E-11
       401  15  3.212143E+05  1.597490E+05  1.764118E+04  2.250965E+05  1.410470E-10 -3.839283E-11
       401  16  4.235606E+05  1.938399E+05  8.081501E+04  2.099963E+05 -6.840319E-11 -6.146226E-11
       401  17  3.717557E+05  1.754480E+05  4.174746E+04  2.305923E+05  2.960371E-12 -1.954165E-11
       401  18  3.429911E+05  1.807790E+05  2.400508E+04  2.387503E+05  1.586323E-12  4.277794E-11
       401  19  2.602437E+05  1.992513E+05  5.077360E+04  1.849912E+05 -3.320491E+04 -2.580810E+04
       401  20  2.687800E+05  1.575832E+05  2.220376E+04  2.044364E+05 -2.123572E+04 -1.866970E+04
       401  21  2.994385E+05  1.387202E+05  1.127778E+04  2.114437E+05 -1.021266E+04 -1.026891E+04
       401  22  3.418983E+05  1.965454E+05  6.579636E+04  1.974943E+05 -3.624855E+04 -2.808726E+04
       401  23  3.202662E+05  1.665157E+05  3.197641E+04  2.175142E+05 -2.215455E+04 -1.935772E+04
       401  24  3.212144E+05  1.597492E+05  1.764149E+04  2.250966E+05 -9.007397E+03 -9.365236E+03
       401  25  4.235625E+05  1.938413E+05  8.081964E+04  2.099973E+05 -3.929277E+04 -3.036630E+04
       401  26  3.717564E+05  1.754486E+05  4.174922E+04  2.305927E+05 -2.307350E+04 -2.004575E+04
       401  27  3.429912E+05  1.807791E+05  2.400533E+04  2.387503E+05 -7.802057E+03 -8.461489E+03
       402   1  3.008422E+05  1.476569E+05  8.859771E+03  2.146692E+05  8.556347E+03  8.337613E+03
       402   2  3.092781E+05  1.542032E+05  5.553328E+03  2.210382E+05  6.255060E+03  5.538673E+03
       402   3  3.220702E+05  1.591037E+05  4.987955E+03  2.260661E+05  4.036850E+03  2.628944E+03
       402   4  3.201442E+05  1.595063E+05  1.347294E+04  2.236000E+05  7.494786E+03  7.541583E+03
       402   5  3.174560E+05  1.594370E+05  7.521699E+03  2.249249E+05  5.007112E+03  4.602918E+03
       402   6  3.191643E+05  1.577624E+05  4.473183E+03  2.249086E+05  2.602559E+03  1.553485E+03
       402   7  3.394464E+05  1.713556E+05  1.808597E+04  2.325309E+05  6.433200E+03  6.745540E+03
       402   8  3.256339E+05  1.646708E+05  9.490049E+03  2.288116E+05  3.759153E+03  3.667157E+03
       402   9  3.162584E+05  1.564210E+05  3.958424E+03  2.237512E+05  1.168278E+03  4.780303E+02
       402  10  3.008421E+05  1.476568E+05  8.859503E+03  2.146691E+05  3.201781E-10  4.491367E-11
       402  11  3.092781E+05  1.542032E+05  5.553197E+03  2.210382E+05 -8.874403E-11 -3.871199E-11
       402  12  3.220702E+05  1.591037E+05  4.987912E+03  2.260661E+05 -2.609048E-11 -7.096108E-11
       402  13  3.201441E+05  1.595062E+05  1.347273E+04  2.235999E+05 -1.606396E-10 -3.267440E-11
       402  14  3.174560E+05  1.594370E+05  7.521612E+03  2.249248E+05 -3.809457E-11 -5.455867E-11
       402  15  3.191643E+05  1.577624E+05  4.473166E+03  2.249086E+05  5.998827E-11  2.424976E-12
       402  16  3.394463E+05  1.713556E+05  1.808581E+04  2.325309E+05 -6.247114E-11 -5.367792E-11
       402  17  3.256339E+05  1.646708E+05  9.489997E+03  2.288115E+05 -1.730216E-11 -8.116564E-11
       402  18  3.162584E+05  1.564210E+05  3.958421E+03  2.237512E+05  2.465115E-11  5.075147E-11
       402  19  3.008422E+05  1.476569E+05  8.859771E+03  2.146692E+05 -8.556347E+03 -8.337613E+03
       402  20  3.092781E+05  1.542032E+05  5.553328E+03  2.210382E+05 -6.255060E+03 -5.538673E+03
       402  21  3.220702E+05  1.591037E+05  4.987955E+03  2.260661E+05 -4.036850E+03 -2.628944E+03
       402  22  3.201442E+05  1.595063E+05  1.347294E+04  2.236000E+05 -7.494786E+03 -7.541583E+03
       402  23  3.174560E+05  1.594370E+05  7.521699E+03  2.249249E+05 -5.007112E+03 -4.602918E+03
       402  24  3.191643E+05  1.577624E+05  4.473183E+03  2.249086E+05 -2.602559E+03 -1.553485E+03
       402  25  3.394464E+05  1.713556E+05  1.808597E+04  2.325309E+05 -6.433200E+03 -6.745540E+03
       402  26  3.256339E+05  1.646708E+05  9.490049E+03  2.288116E+05 -3.759153E+03 -3.667157E+03
       402  27  3.162584E+05  1.564210E+05  3.958424E+03  2.237512E+05 -1.168278E+03 -4.780303E+02
       403   1  3.284793E+05  1.641336E+05  5.718079E+03  2.294668E+05  3.838223E+03  1.699284E+03
       403   2  3.371457E+05  1.729605E+05  7.044282E+03  2.352019E+05  3.486405E+03  1.186150E+02
       403   3  3.491175E+05  1.788074E+05  9.203735E+03  2.400519E+05  3.128675E+03 -1.454213E+03
       403   4  3.190810E+05  1.577404E+05  3.551389E+03  2.247969E+05  2.414601E+03  6.318134E+02
       403   5  3.174224E+05  1.592188E+05  2.450806E+03  2.252493E+05  2.076000E+03 -9.389721E+02
       403   6  3.190660E+05  1.577141E+05  2.171924E+03  2.248164E+05  1.731520E+03 -2.501880E+03
       403   7  3.096827E+05  1.513472E+05  1.384649E+03  2.201270E+05  9.909826E+02 -4.356546E+02
       403   8  2.976995E+05  1.454773E+05 -2.142681E+03  2.152970E+05  6.656556E+02 -1.996515E+03
       403   9  2.890162E+05  1.366217E+05 -4.859747E+03  2.095820E+05  3.344805E+02 -3.549462E+03
       403  10  3.284793E+05  1.641336E+05  5.718046E+03  2.294668E+05  6.580870E-11  6.432747E-11
       403  11  3.371456E+05  1.729605E+05  7.044259E+03  2.352019E+05 -1.267356E-10  1.299285E-11
       403  12  3.491175E+05  1.788074E+05  9.203712E+03  2.400519E+05  6.649873E-11 -3.432888E-12
       403  13  3.190810E+05  1.577404E+05  3.551377E+03  2.247969E+05  2.304436E-10 -1.281766E-12
       403  14  3.174224E+05  1.592188E+05  2.450796E+03  2.252493E+05 -2.018282E-11 -7.139794E-11
       403  15  3.190660E+05  1.577141E+05  2.171906E+03  2.248164E+05  5.138147E-11 -4.059729E-11
       403  16  3.096827E+05  1.513472E+05  1.384647E+03  2.201270E+05 -8.923771E-11 -2.761143E-11
       403  17  2.976995E+05  1.454773E+05 -2.142690E+03  2.152970E+05 -1.746197E-10 -4.719016E-11
       403  18  2.890162E+05  1.366216E+05 -4.859771E+03  2.095820E+05  1.178304E-11 -8.052167E-11
       403  19  3.284793E+05  1.641336E+05  5.718079E+03  2.294668E+05 -3.838223E+03 -1.699284E+03
       403  20  3.371457E+05  1.729605E+05  7.044282E+03  2.352019E+05 -3.486405E+03 -1.186150E+02
       403  21  3.491175E+05  1.788074E+05  9.203735E+03  2.400519E+05 -3.128675E+03  1.454213E+03
       403  22  3.190810E+05  1.577404E+05  3.551389E+03  2.247969E+05 -2.414601E+03 -6.318134E+02
       403  23  3.174224E+05  1.592188E+05  2.450806E+03  2.252493E+05 -2.076000E+03  9.389721E+02
       403  24  3.190660E+05  1.577141E+05  2.171924E+03  2.248164E+05 -1.731520E+03  2.501880E+03
       403  25  3.096827E+05  1.513472E+05  1.384649E+03  2.201270E+05 -9.909826E+02  4.356546E+02
       403  26  2.976995E+05  1.454773E+05 -2.142681E+03  2.152970E+05 -6.656556E+02  1.996515E+03
       403  27  2.890162E+05  1.366217E+05 -4.859747E+03  2.095820E+05 -3.344805E+02  3.549462E+03
       404   1  3.557922E+05  1.837129E+05  1.097342E+04  2.435480E+05  3.206771E+03 -2.170123E+03
       404   2  3.647788E+05  1.923763E+05  1.432333E+04  2.490143E+05  2.199677E+03 -4.087131E+03
       404   3  3.774328E+05  1.985482E+05  1.913002E+04  2.534273E+05  1.041655E+03 -5.802884E+03
       404   4  3.190825E+05  1.577210E+05  2.281972E+03  2.248435E+05  1.787435E+03 -3.234440E+03
       404   5  3.174631E+05  1.593197E+05  3.075526E+03  2.251329E+05  1.118820E+03 -4.897687E+03
       404   6  3.194378E+05  1.583533E+05  5.032339E+03  2.243689E+05  2.992946E+02 -6.359651E+03
       404   7  2.823743E+05  1.317299E+05 -6.409557E+03  2.061403E+05  3.682114E+02 -4.298674E+03
       404   8  2.701497E+05  1.262640E+05 -8.172569E+03  2.012533E+05  3.806237E+01 -5.708169E+03
       404   9  2.614456E+05  1.181596E+05 -9.065936E+03  1.953131E+05 -4.429868E+02 -6.916360E+03
       404  10  3.557922E+05  1.837129E+05  1.097339E+04  2.435480E+05 -1.438971E-10 -7.393736E-11
       404  11  3.647788E+05  1.923763E+05  1.432329E+04  2.490143E+05  3.811053E-11  3.984637E-14
       404  12  3.774328E+05  1.985481E+05  1.912995E+04  2.534273E+05 -1.632391E-10  9.771075E-13
       404  13  3.190825E+05  1.577210E+05  2.281946E+03  2.248435E+05 -1.456103E-10 -4.640307E-11
       404  14  3.174631E+05  1.593196E+05  3.075479E+03  2.251329E+05  1.485739E-10  3.052545E-11
       404  15  3.194378E+05  1.583533E+05  5.032263E+03  2.243689E+05 -2.109698E-10 -2.026740E-11
       404  16  2.823743E+05  1.317299E+05 -6.409592E+03  2.061403E+05  4.440182E-11 -5.821724E-11
       404  17  2.701497E+05  1.262640E+05 -8.172630E+03  2.012533E+05 -1.580595E-10 -2.137805E-12
       404  18  2.614455E+05  1.181596E+05 -9.066026E+03  1.953131E+05  1.466047E-10  2.216660E-10
       404  19  3.557922E+05  1.837129E+05  1.097342E+04  2.435480E+05 -3.206771E+03  2.170123E+03
       404  20  3.647788E+05  1.923763E+05  1.432333E+04  2.490143E+05 -2.199677E+03  4.087131E+03
       404  21  3.774328E+05  1.985482E+05  1.913002E+04  2.534273E+05 -1.041655E+03  5.802884E+03
       404  22  3.190825E+05  1.577210E+05  2.281972E+03  2.248435E+05 -1.787435E+03  3.234440E+03
       404  23  3.174631E+05  1.593197E+05  3.075526E+03  2.251329E+05 -1.118820E+03  4.897687E+03
       404  24  3.194378E+05  1.583533E+05  5.032339E+03  2.243689E+05 -2.992946E+02  6.359651E+03
       404  25  2.823743E+05  1.317299E+05 -6.409557E+03  2.061403E+05 -3.682114E+02  4.298674E+03
       404  26  2.701497E+05  1.262640E+05 -8.172569E+03  2.012533E+05 -3.806237E+01  5.708169E+03
       404  27  2.614456E+05  1.181596E+05 -9.065936E+03  1.953131E+05  4.429868E+02  6.916360E+03
       405   1  3.831144E+05  2.050969E+05  2.240262E+04  2.578955E+05  9.072993E+02 -6.512681E+03
       405   2  3.990286E+05  2.088649E+05  3.167341E+04  2.583861E+05 -8.075844E+03 -1.240373E+04
       405   3  4.257156E+05  2.199154E+05  5.125185E+04  2.538874E+05 -1.876515E+04 -1.602023E+04
       405   4  3.197867E+05  1.584694E+05  6.464700E+03  2.249097E+05 -9.459941E+01 -7.264094E+03
       405   5  3.185137E+05  1.618224E+05  1.150644E+04  2.224677E+05 -5.253054E+03 -1.028709E+04
       405   6  3.271849E+05  1.716293E+05  2.353882E+04  2.150364E+05 -1.211741E+04 -1.103543E+04
       405   7  2.564645E+05  1.118452E+05 -9.473173E+03  1.919284E+05 -1.096347E+03 -8.015387E+03
       405   8  2.380074E+05  1.147829E+05 -8.660586E+03  1.865548E+05 -2.430804E+03 -8.170760E+03
       405   9  2.286664E+05  1.233461E+05 -4.174370E+03  1.761917E+05 -5.471242E+03 -6.051358E+03
       405  10  3.831144E+05  2.050968E+05  2.240253E+04  2.578955E+05  1.419024E-10  2.080043E-10
       405  11  3.990285E+05  2.088648E+05  3.167300E+04  2.583860E+05  2.355779E-10  2.160114E-10
       405  12  4.257152E+05  2.199150E+05  5.125071E+04  2.538871E+05  7.866101E-11  1.584532E-10
       405  13  3.197867E+05  1.584693E+05  6.464601E+03  2.249097E+05 -5.543905E-11  9.112868E-11
       405  14  3.185136E+05  1.618222E+05  1.150619E+04  2.224677E+05  1.338925E-11  1.378497E-11
       405  15  3.271847E+05  1.716291E+05  2.353832E+04  2.150363E+05  1.555679E-11  5.621646E-11
       405  16  2.564645E+05  1.118452E+05 -9.473296E+03  1.919284E+05 -2.083363E-10  5.921504E-11
       405  17  2.380074E+05  1.147828E+05 -8.660722E+03  1.865547E+05 -2.234525E-10 -2.342748E-11
       405  18  2.286664E+05  1.233461E+05 -4.174495E+03  1.761917E+05 -2.447580E-11 -1.467659E-11
       405  19  3.831144E+05  2.050969E+05  2.240262E+04  2.578955E+05 -9.072993E+02  6.512681E+03
       405  20  3.990286E+05  2.088649E+05  3.167341E+04  2.583861E+05  8.075844E+03  1.240373E+04
       405  21  4.257156E+05  2.199154E+05  5.125185E+04  2.538874E+05  1.876515E+04  1.602023E+04
       405  22  3.197867E+05  1.584694E+05  6.464700E+03  2.249097E+05  9.459941E+01  7.264094E+03
       405  23  3.185137E+05  1.618224E+05  1.150644E+04  2.224677E+05  5.253054E+03  1.028709E+04
       405  24  3.271849E+05  1.716293E+05  2.353882E+04  2.150364E+05  1.211741E+04  1.103543E+04
       405  25  2.564645E+05  1.118452E+05 -9.473173E+03  1.919284E+05  1.096347E+03  8.015387E+03
       405  26  2.380074E+05  1.147829E+05 -8.660586E+03  1.865548E+05  2.430804E+03  8.170760E+03
       405  27  2.286664E+05  1.233461E+05 -4.174370E+03  1.761917E+05  5.471242E+03  6.051358E+03
       406   1  1.809477E+05  6.280775E+03 -1.746634E+03  2.325342E+04 -2.606071E+04 -2.652547E+03
       406   2  1.296435E+05  3.149124E+04  7.879457E+03  3.483983E+04 -2.144714E+04 -7.985936E+03
       406   3  7.054396E+04  2.787586E+04  7.297956E+03  5.858571E+04 -1.683371E+04 -7.451197E+03
       406   4 -5.367318E+04 -5.179256E+04 -5.749576E+04  5.557118E+04 -3.994222E+04 -2.654124E+03
       406   5 -4.891217E+04 -1.139813E+04 -2.802343E+04  4.949013E+04 -2.547273E+04 -7.986781E+03
       406   6 -5.366555E+04 -1.546876E+03 -1.560625E+04  5.557027E+04 -1.100291E+04 -7.450799E+03
       406   7 -2.882409E+05 -1.098658E+05 -1.132474E+05  8.787666E+04 -5.381851E+04 -2.657147E+03
       406   8 -2.274370E+05 -5.428865E+04 -6.392776E+04  6.413612E+04 -2.949717E+04 -7.987816E+03
       406   9 -1.778600E+05 -3.097044E+04 -3.851096E+04  5.255546E+04 -5.173237E+03 -7.450457E+03
       406  10  1.809470E+05  6.280585E+03 -1.747923E+03  2.325336E+04  2.536218E-10 -5.202411E-11
       406  11  1.296430E+05  3.149105E+04  7.878473E+03  3.483969E+04  3.326985E-11 -1.943078E-10
       406  12  7.054364E+04  2.787572E+04  7.297319E+03  5.858561E+04 -1.855106E-10 -6.656698E-11
       406  13 -5.367489E+04 -5.179299E+04 -5.749877E+04  5.557109E+04  4.023807E-11 -2.107851E-11
       406  14 -4.891288E+04 -1.139837E+04 -2.802476E+04  4.948996E+04 -1.309397E-10 -1.452151E-10
       406  15 -5.366570E+04 -1.546968E+03 -1.560658E+04  5.557021E+04 -4.243736E-11  1.532562E-11
       406  16 -2.882440E+05 -1.098666E+05 -1.132529E+05  8.787654E+04 -2.762435E-10 -5.094683E-11
       406  17 -2.274379E+05 -5.428896E+04 -6.392951E+04  6.413593E+04  6.304423E-11 -1.130655E-10
       406  18 -1.778601E+05 -3.097051E+04 -3.851112E+04  5.255543E+04  1.700221E-10  1.309833E-11
       406  19  1.809477E+05  6.280775E+03 -1.746634E+03  2.325342E+04  2.606071E+04  2.652547E+03
       406  20  1.296435E+05  3.149124E+04  7.879457E+03  3.483983E+04  2.144714E+04  7.985936E+03
       406  21  7.054396E+04  2.787586E+04  7.297956E+03  5.858571E+04  1.683371E+04  7.451197E+03
       406  22 -5.367318E+04 -5.179256E+04 -5.749576E+04  5.557118E+04  3.994222E+04  2.654124E+03
       406  23 -4.891217E+04 -1.139813E+04 -2.802343E+04  4.949013E+04  2.547273E+04  7.986781E+03
       406  24 -5.366555E+04 -1.546876E+03 -1.560625E+04  5.557027E+04  1.100291E+04  7.450799E+03
       406  25 -2.882409E+05 -1.098658E+05 -1.132474E+05  8.787666E+04  5.381851E+04  2.657147E+03
       406  26 -2.274370E+05 -5.428865E+04 -6.392776E+04  6.413612E+04  2.949717E+04  7.987816E+03
       406  27 -1.778600E+05 -3.097044E+04 -3.851096E+04  5.255546E+04  5.173237E+03  7.450457E+03
       407   1  3.620336E+04  1.849696E+04  4.133633E+03  5.469313E+04 -1.411676E+04 -5.317522E+03
       407   2 -1.858434E+04  7.413214E+03 -1.075713E+03  4.906968E+04 -1.137114E+04 -2.011482E+03
       407   3 -7.410319E+04 -5.177877E+03 -8.449338E+03  5.598770E+04 -8.625761E+03  1.755566E+03
       407   4 -5.174282E+04 -2.326603E+03 -1.203866E+04  5.565461E+04 -8.949488E+03 -5.317156E+03
       407   5 -5.130820E+04 -3.282142E+02 -7.058222E+03  4.938373E+04 -5.430045E+03 -2.010971E+03
       407   6 -5.174154E+04  2.865385E+01 -4.779712E+03  5.565442E+04 -1.910600E+03  1.756233E+03
       407   7 -1.396814E+05 -2.315059E+04 -2.821118E+04  5.661595E+04 -3.782924E+03 -5.316774E+03
       407   8 -8.403094E+04 -8.069684E+03 -1.304064E+04  4.969776E+04  5.107476E+02 -2.010454E+03
       407   9 -2.937930E+04  5.235183E+03 -1.109931E+03  5.532113E+04  4.804794E+03  1.756893E+03
       407  10  3.620314E+04  1.849688E+04  4.133205E+03  5.469307E+04  5.761511E-11 -2.135270E-11
       407  11 -1.858448E+04  7.413175E+03 -1.075964E+03  4.906966E+04  6.541088E-11  7.287906E-11
       407  12 -7.410327E+04 -5.177900E+03 -8.449483E+03  5.598771E+04  6.246473E-11  4.218999E-11
       407  13 -5.174292E+04 -2.326654E+03 -1.203887E+04  5.565457E+04 -2.239634E-11  1.092413E-10
       407  14 -5.130823E+04 -3.282264E+02 -7.058285E+03  4.938372E+04  4.017655E-11  1.469261E-10
       407  15 -5.174154E+04  2.864956E+01 -4.779724E+03  5.565442E+04 -2.141923E-13  1.958383E-11
       407  16 -1.396815E+05 -2.315062E+04 -2.821126E+04  5.661593E+04 -3.428600E-11  4.486509E-11
       407  17 -8.403094E+04 -8.069688E+03 -1.304065E+04  4.969776E+04 -1.383956E-10  1.455175E-10
       407  18 -2.937932E+04  5.235174E+03 -1.109980E+03  5.532112E+04 -1.505695E-10  6.147581E-11
       407  19  3.620336E+04  1.849696E+04  4.133633E+03  5.469313E+04  1.411676E+04  5.317522E+03
       407  20 -1.858434E+04  7.413214E+03 -1.075713E+03  4.906968E+04  1.137114E+04  2.011482E+03
       407  21 -7.410319E+04 -5.177877E+03 -8.449338E+03  5.598770E+04  8.625761E+03 -1.755566E+03
       407  22 -5.174282E+04 -2.326603E+03 -1.203866E+04  5.565461E+04  8.949488E+03  5.317156E+03
       407  23 -5.130820E+04 -3.282142E+02 -7.058222E+03  4.938373E+04  5.430045E+03  2.010971E+03
       407  24 -5.174154E+04  2.865385E+01 -4.779712E+03  5.565442E+04  1.910600E+03 -1.756233E+03
       407  25 -1.396814E+05 -2.315059E+04 -2.821118E+04  5.661595E+04  3.782924E+03  5.316774E+03
       407  26 -8.403094E+04 -8.069684E+03 -1.304064E+04  4.969776E+04 -5.107476E+02  2.010454E+03
       407  27 -2.937930E+04  5.235183E+03 -1.109931E+03  5.532113E+04 -4.804794E+03 -1.756893E+03
       408   1 -1.100333E+05 -1.369956E+04 -1.433168E+04  5.563442E+04 -7.855744E+03  4.132229E+03
       408   2 -1.648631E+05 -2.675174E+04 -2.398606E+04  4.960820E+04 -4.697401E+03  7.819892E+03
       408   3 -2.203305E+05 -4.073113E+04 -3.592842E+04  5.611255E+04 -1.539065E+03  1.086413E+04
       408   4 -5.164984E+04 -6.412081E+00 -4.254952E+03  5.565195E+04 -1.121777E+03  4.132835E+03
       408   5 -5.142552E+04 -9.944476E+01 -4.176387E+03  4.938676E+04  9.558750E+02  7.820159E+03
       408   6 -5.165400E+04 -9.318001E+02 -5.635106E+03  5.565200E+04  3.033785E+03  1.086412E+04
       408   7  6.737025E+03  1.368657E+04  5.821831E+03  5.566948E+04  5.612804E+03  4.133441E+03
       408   8  6.202472E+04  2.655217E+04  1.563295E+04  4.916527E+04  6.610153E+03  7.820422E+03
       408   9  1.170503E+05  3.886595E+04  2.465719E+04  5.519132E+04  7.607843E+03  1.086410E+04
       408  10 -1.100333E+05 -1.369959E+04 -1.433183E+04  5.563445E+04  1.705884E-11  6.550522E-11
       408  11 -1.648631E+05 -2.675181E+04 -2.398621E+04  4.960823E+04  1.309548E-10 -3.652103E-11
       408  12 -2.203305E+05 -4.073125E+04 -3.592865E+04  5.611257E+04 -1.538149E-10 -4.418096E-11
       408  13 -5.164985E+04 -6.430761E+00 -4.254987E+03  5.565195E+04  1.444982E-12  9.538412E-12
       408  14 -5.142553E+04 -9.951067E+01 -4.176504E+03  4.938675E+04  1.950598E-11  1.200276E-11
       408  15 -5.165404E+04 -9.319294E+02 -5.635345E+03  5.565197E+04  4.043791E-11  6.016300E-12
       408  16  6.736986E+03  1.368655E+04  5.821740E+03  5.566947E+04 -7.053411E-11  2.483409E-11
       408  17  6.202465E+04  2.655209E+04  1.563275E+04  4.916523E+04 -1.307313E-11  3.547690E-11
       408  18  1.170502E+05  3.886581E+04  2.465686E+04  5.519125E+04  2.995231E-10  7.548300E-11
       408  19 -1.100333E+05 -1.369956E+04 -1.433168E+04  5.563442E+04  7.855744E+03 -4.132229E+03
       408  20 -1.648631E+05 -2.675174E+04 -2.398606E+04  4.960820E+04  4.697401E+03 -7.819892E+03
       408  21 -2.203305E+05 -4.073113E+04 -3.592842E+04  5.611255E+04  1.539065E+03 -1.086413E+04
       408  22 -5.164984E+04 -6.412081E+00 -4.254952E+03  5.565195E+04  1.121777E+03 -4.132835E+03
       408  23 -5.142552E+04 -9.944476E+01 -4.176387E+03  4.938676E+04 -9.558750E+02 -7.820159E+03
       408  24 -5.165400E+04 -9.318001E+02 -5.635106E+03  5.565200E+04 -3.033785E+03 -1.086412E+04
       408  25  6.737025E+03  1.368657E+04  5.821831E+03  5.566948E+04 -5.612804E+03 -4.133441E+03
       408  26  6.202472E+04  2.655217E+04  1.563295E+04  4.916527E+04 -6.610153E+03 -7.820422E+03
       408  27  1.170503E+05  3.886595E+04  2.465719E+04  5.519132E+04 -7.607843E+03 -1.086410E+04
       409   1 -2.574409E+05 -4.906466E+04 -4.405135E+04  5.436265E+04 -1.467139E+03  1.290165E+04
       409   2 -3.095644E+05 -6.675849E+04 -6.305336E+04  5.555378E+04  1.757902E+04  1.227223E+04
       409   3 -3.678391E+05 -9.918642E+04 -9.814009E+04  6.877415E+04  3.662166E+04  3.892226E+03
       409   4 -5.242093E+04 -6.224351E+02 -6.897973E+03  5.554099E+04  3.984423E+03  1.290146E+04
       409   5 -5.047952E+04 -4.657452E+03 -1.169092E+04  4.952579E+04  1.001655E+04  1.227178E+04
       409   6 -5.243066E+04 -2.116345E+04 -2.352709E+04  5.554038E+04  1.604726E+04  3.892567E+03
       409   7  1.526401E+05  4.781745E+04  3.025385E+04  5.671973E+04  9.437736E+03  1.290129E+04
       409   8  2.086698E+05  5.743967E+04  3.966845E+04  4.349523E+04  2.450988E+03  1.227149E+04
       409   9  2.630706E+05  5.685327E+04  5.108070E+04  4.229985E+04 -4.537546E+03  3.893786E+03
       409  10 -2.574410E+05 -4.906484E+04 -4.405167E+04  5.436267E+04  1.617713E-12 -3.425554E-11
       409  11 -3.095648E+05 -6.675874E+04 -6.305423E+04  5.555361E+04  7.934062E-11 -3.829656E-11
       409  12 -3.678406E+05 -9.918679E+04 -9.814264E+04  6.877403E+04 -1.691166E-10 -6.192979E-11
       409  13 -5.242099E+04 -6.226181E+02 -6.898316E+03  5.554095E+04  1.360826E-10  3.784921E-11
       409  14 -5.047967E+04 -4.657640E+03 -1.169139E+04  4.952569E+04 -6.362846E-11 -1.068587E-11
       409  15 -5.243095E+04 -2.116353E+04 -2.352760E+04  5.554033E+04 -7.642563E-11  2.063094E-11
       409  16  1.526399E+05  4.781725E+04  3.025337E+04  5.671963E+04  1.135219E-10  6.641235E-11
       409  17  2.086697E+05  5.743950E+04  3.966815E+04  4.349521E+04 -8.709727E-12  7.066724E-11
       409  18  2.630705E+05  5.685325E+04  5.108064E+04  4.229986E+04  8.996410E-11 -8.911692E-11
       409  19 -2.574409E+05 -4.906466E+04 -4.405135E+04  5.436265E+04  1.467139E+03 -1.290165E+04
       409  20 -3.095644E+05 -6.675849E+04 -6.305336E+04  5.555378E+04 -1.757902E+04 -1.227223E+04
       409  21 -3.678391E+05 -9.918642E+04 -9.814009E+04  6.877415E+04 -3.662166E+04 -3.892226E+03
       409  22 -5.242093E+04 -6.224351E+02 -6.897973E+03  5.554099E+04 -3.984423E+03 -1.290146E+04
       409  23 -5.047952E+04 -4.657452E+03 -1.169092E+04  4.952579E+04 -1.001655E+04 -1.227178E+04
       409  24 -5.243066E+04 -2.116345E+04 -2.352709E+04  5.554038E+04 -1.604726E+04 -3.892567E+03
       409  25  1.526401E+05  4.781745E+04  3.025385E+04  5.671973E+04 -9.437736E+03 -1.290129E+04
       409  26  2.086698E+05  5.743967E+04  3.966845E+04  4.349523E+04 -2.450988E+03 -1.227149E+04
       409  27  2.630706E+05  5.685327E+04  5.108070E+04  4.229985E+04  4.537546E+03 -3.893786E+03
       410   1 -1.434197E+05 -4.651014E+05 -1.513528E+05  1.368396E+05 -2.229217E+03 -7.419694E+04
       410   2 -5.537063E+04 -3.732723E+05 -7.993739E+04  9.866389E+04 -5.886718E+03 -3.914737E+04
       410   3 -1.934693E+04 -2.990150E+05 -4.435931E+04  7.898213E+04 -3.490924E+03 -4.092912E+03
       410   4 -8.487891E+04 -2.289791E+05 -9.471367E+04  8.364290E+04 -2.220109E+03 -6.296239E+04
       410   5 -1.860635E+04 -2.210663E+05 -4.829974E+04  7.438481E+04 -5.884794E+03 -3.807332E+04
       410   6 -2.588725E+03 -2.289620E+05 -3.065678E+04  8.362538E+04 -3.493598E+03 -1.318444E+04
       410   7 -2.633141E+04  7.200749E+03 -3.807650E+04  3.042583E+04 -2.212930E+03 -5.172358E+04
       410   8  1.815867E+04 -6.883713E+04 -1.666303E+04  5.009966E+04 -5.882955E+03 -3.699902E+04
       410   9  1.416931E+04 -1.589041E+05 -1.695418E+04  8.826916E+04 -3.496409E+03 -2.227698E+04
       410  10 -1.434212E+05 -4.651074E+05 -1.513632E+05  1.368395E+05 -6.763972E-11  5.133550E-11
       410  11 -5.537108E+04 -3.732740E+05 -7.994034E+04  9.866370E+04  2.424694E-10  3.153288E-10
       410  12 -1.934695E+04 -2.990150E+05 -4.435936E+04  7.898212E+04  1.644054E-10  1.957794E-10
       410  13 -8.487998E+04 -2.289833E+05 -9.472113E+04  8.364279E+04 -8.769980E-11  1.485821E-10
       410  14 -1.860678E+04 -2.210679E+05 -4.830253E+04  7.438462E+04  3.300069E-10 -4.771533E-11
       410  15 -2.588784E+03 -2.289622E+05 -3.065713E+04  8.362534E+04  2.319340E-10 -8.485222E-11
       410  16 -2.633213E+04  7.197875E+03 -3.808153E+04  3.042574E+04 -1.296230E-10 -1.315114E-10
       410  17  1.815826E+04 -6.883861E+04 -1.666567E+04  5.009949E+04  2.066153E-11 -1.606179E-10
       410  18  1.416916E+04 -1.589046E+05 -1.695513E+04  8.826910E+04  2.759211E-10 -1.222821E-10
       410  19 -1.434197E+05 -4.651014E+05 -1.513528E+05  1.368396E+05  2.229217E+03  7.419694E+04
       410  20 -5.537063E+04 -3.732723E+05 -7.993739E+04  9.866389E+04  5.886718E+03  3.914737E+04
       410  21 -1.934693E+04 -2.990150E+05 -4.435931E+04  7.898213E+04  3.490924E+03  4.092912E+03
       410  22 -8.487891E+04 -2.289791E+05 -9.471367E+04  8.364290E+04  2.220109E+03  6.296239E+04
       410  23 -1.860635E+04 -2.210663E+05 -4.829974E+04  7.438481E+04  5.884794E+03  3.807332E+04
       410  24 -2.588725E+03 -2.289620E+05 -3.065678E+04  8.362538E+04  3.493598E+03  1.318444E+04
       410  25 -2.633141E+04  7.200749E+03 -3.807650E+04  3.042583E+04  2.212930E+03  5.172358E+04
       410  26  1.815867E+04 -6.883713E+04 -1.666303E+04  5.009966E+04  5.882955E+03  3.699902E+04
       410  27  1.416931E+04 -1.589041E+05 -1.695418E+04  8.826916E+04  3.496409E+03  2.227698E+04
       411   1 -7.605423E+03 -2.417294E+05 -3.037417E+04  8.610594E+04 -1.762350E+02 -2.921092E+02
       411   2  1.448857E+04 -1.572178E+05 -1.248655E+04  7.415588E+04  4.739977E+03  1.129213E+04
       411   3  3.053878E+04 -7.572394E+04 -3.654907E+03  8.104607E+04  9.376774E+03  2.287809E+04
       411   4 -3.747052E+03 -2.261393E+05 -2.666831E+04  8.370316E+04 -1.787711E+02 -8.778064E+03
       411   5 -1.321373E+03 -2.245882E+05 -2.415229E+04  7.428301E+04  4.737788E+03  3.274256E+03
       411   6 -5.020833E+03 -2.261432E+05 -3.101781E+04  8.370358E+04  9.374998E+03  1.532683E+04
       411   7  1.113617E+02 -2.105488E+05 -2.296220E+04  8.130032E+04 -1.812415E+02 -1.726423E+04
       411   8 -1.713152E+04 -2.919539E+05 -3.581795E+04  7.441012E+04  4.735595E+03 -4.742776E+03
       411   9 -4.058167E+04 -3.765404E+05 -5.838141E+04  8.636043E+04  9.373157E+03  7.777356E+03
       411  10 -7.605424E+03 -2.417294E+05 -3.037417E+04  8.610594E+04  6.553495E-11 -3.299660E-10
       411  11  1.448851E+04 -1.572180E+05 -1.248683E+04  7.415584E+04 -6.264571E-11  3.117015E-10
       411  12  3.053855E+04 -7.572453E+04 -3.656056E+03  8.104590E+04  1.208912E-10  4.605087E-10
       411  13 -3.747073E+03 -2.261394E+05 -2.666846E+04  8.370316E+04  1.157873E-10  1.628477E-10
       411  14 -1.321400E+03 -2.245882E+05 -2.415235E+04  7.428300E+04  2.484963E-10 -9.810403E-11
       411  15 -5.020990E+03 -2.261435E+05 -3.101842E+04  8.370347E+04 -7.398646E-11  2.349977E-12
       411  16  1.112816E+02 -2.105491E+05 -2.296276E+04  8.130031E+04 -2.905766E-11  1.970137E-10
       411  17 -1.713155E+04 -2.919540E+05 -3.581803E+04  7.441014E+04  1.168602E-10 -6.585835E-11
       411  18 -4.058178E+04 -3.765405E+05 -5.838169E+04  8.636037E+04 -7.843246E-12 -3.160868E-10
       411  19 -7.605423E+03 -2.417294E+05 -3.037417E+04  8.610594E+04  1.762350E+02  2.921092E+02
       411  20  1.448857E+04 -1.572178E+05 -1.248655E+04  7.415588E+04 -4.739977E+03 -1.129213E+04
       411  21  3.053878E+04 -7.572394E+04 -3.654907E+03  8.104607E+04 -9.376774E+03 -2.287809E+04
       411  22 -3.747052E+03 -2.261393E+05 -2.666831E+04  8.370316E+04  1.787711E+02  8.778064E+03
       411  23 -1.321373E+03 -2.245882E+05 -2.415229E+04  7.428301E+04 -4.737788E+03 -3.274256E+03
       411  24 -5.020833E+03 -2.261432E+05 -3.101781E+04  8.370358E+04 -9.374998E+03 -1.532683E+04
       411  25  1.113617E+02 -2.105488E+05 -2.296220E+04  8.130032E+04  1.812415E+02  1.726423E+04
       411  26 -1.713152E+04 -2.919539E+05 -3.581795E+04  7.441012E+04 -4.735595E+03  4.742776E+03
       411  27 -4.058167E+04 -3.765404E+05 -5.838141E+04  8.636043E+04 -9.373157E+03 -7.777356E+03
       412   1  4.511134E+04 -2.505111E+04  8.515145E+01  8.994950E+04  1.254475E+04  2.906335E+04
       412   2  4.411231E+04  6.708114E+04 -5.095545E+03  4.243831E+04  1.302096E+04  4.585436E+04
       412   3 -2.069799E+04  1.410946E+05 -3.715629E+04  1.319404E+04  4.276537E+03  6.264803E+04
       412   4 -3.415025E+03 -2.300836E+05 -3.746982E+04  8.357547E+04  1.254263E+04  2.051479E+04
       412   5 -2.472580E+04 -2.196838E+05 -6.255744E+04  7.444926E+04  1.302516E+04  5.278297E+04
       412   6 -1.125575E+05 -2.301109E+05 -1.252843E+05  8.359358E+04  4.287190E+03  8.505064E+04
       412   7 -5.194358E+04 -4.350751E+05 -7.502620E+04  7.720359E+04  1.254069E+04  1.196897E+04
       412   8 -9.356508E+04 -5.063679E+05 -1.200228E+05  1.064451E+05  1.303008E+04  5.970844E+04
       412   9 -2.044081E+05 -6.011781E+05 -2.134174E+05  1.539508E+05  4.302929E+03  1.074399E+05
       412  10  4.511094E+04 -2.505206E+04  8.326859E+01  8.994920E+04 -2.619639E-12 -3.079869E-10
       412  11  4.411156E+04  6.707883E+04 -5.099814E+03  4.243783E+04 -8.914934E-12 -3.278705E-11
       412  12 -2.069906E+04  1.410903E+05 -3.716370E+04  1.319383E+04  7.782890E-12  1.679540E-10
       412  13 -3.415307E+03 -2.300841E+05 -3.747090E+04  8.357526E+04  5.336115E-11  8.679283E-11
       412  14 -2.472673E+04 -2.196868E+05 -6.256300E+04  7.444870E+04 -9.647217E-11 -2.182279E-11
       412  15 -1.125595E+05 -2.301187E+05 -1.252979E+05  8.359329E+04 -7.153049E-11 -2.280634E-11
       412  16 -5.194379E+04 -4.350753E+05 -7.502676E+04  7.720347E+04  5.454280E-12  2.587480E-10
       412  17 -9.356622E+04 -5.063718E+05 -1.200298E+05  1.064445E+05 -2.855107E-10  1.909562E-10
       412  18 -2.044112E+05 -6.011905E+05 -2.134391E+05  1.539504E+05 -6.771456E-11 -1.614045E-10
       412  19  4.511134E+04 -2.505111E+04  8.515145E+01  8.994950E+04 -1.254475E+04 -2.906335E+04
       412  20  4.411231E+04  6.708114E+04 -5.095545E+03  4.243831E+04 -1.302096E+04 -4.585436E+04
       412  21 -2.069799E+04  1.410946E+05 -3.715629E+04  1.319404E+04 -4.276537E+03 -6.264803E+04
       412  22 -3.415025E+03 -2.300836E+05 -3.746982E+04  8.357547E+04 -1.254263E+04 -2.051479E+04
       412  23 -2.472580E+04 -2.196838E+05 -6.255744E+04  7.444926E+04 -1.302516E+04 -5.278297E+04
       412  24 -1.125575E+05 -2.301109E+05 -1.252843E+05  8.359358E+04 -4.287190E+03 -8.505064E+04
       412  25 -5.194358E+04 -4.350751E+05 -7.502620E+04  7.720359E+04 -1.254069E+04 -1.196897E+04
       412  26 -9.356508E+04 -5.063679E+05 -1.200228E+05  1.064451E+05 -1.303008E+04 -5.970844E+04
       412  27 -2.044081E+05 -6.011781E+05 -2.134174E+05  1.539508E+05 -4.302929E+03 -1.074399E+05
       413   1  4.750465E+05  4.231086E+05  1.184967E+05  3.520037E+05  7.059107E+04  5.438696E+04
       413   2  4.761381E+05  3.195927E+05  5.213364E+04  3.820484E+05  4.389196E+04  3.780880E+04
       413   3  5.179759E+05  2.696598E+05  2.418912E+04  3.878791E+05  1.830391E+04  1.974745E+04
       413   4  6.065354E+05  3.900579E+05  1.369619E+05  3.589882E+05  7.556915E+04  5.810592E+04
       413   5  5.643800E+05  3.247110E+05  6.668117E+04  3.998232E+05  4.636329E+04  3.965776E+04
       413   6  5.635050E+05  3.134795E+05  3.698448E+04  4.164461E+05  1.827175E+04  1.972365E+04
       413   7  7.380557E+05  3.570179E+05  1.554303E+05  3.659686E+05  8.054888E+04  6.182419E+04
       413   8  6.526327E+05  3.298308E+05  8.122913E+04  4.175987E+05  4.883511E+04  4.150665E+04
       413   9  6.090357E+05  3.573010E+05  4.977935E+04  4.450154E+05  1.823958E+04  1.969986E+04
       413  10  4.750403E+05  4.231041E+05  1.184818E+05  3.520006E+05  1.006060E-09  1.400560E-09
       413  11  4.761357E+05  3.195906E+05  5.212734E+04  3.820471E+05 -5.324512E-09 -2.399104E-09
       413  12  5.179754E+05  2.696593E+05  2.418776E+04  3.878789E+05 -3.613864E-09 -2.519949E-09
       413  13  6.065283E+05  3.900528E+05  1.369448E+05  3.589847E+05 -5.557523E-10 -6.332678E-10
       413  14  5.643772E+05  3.247087E+05  6.667419E+04  3.998218E+05  3.001415E-10 -1.017687E-10
       413  15  5.635045E+05  3.134789E+05  3.698312E+04  4.164458E+05  7.561920E-09  5.021842E-09
       413  16  7.380477E+05  3.570120E+05  1.554110E+05  3.659646E+05 -2.698556E-09 -2.864110E-09
       413  17  6.526296E+05  3.298283E+05  8.122143E+04  4.175970E+05  5.219255E-09  2.028148E-09
       413  18  6.090353E+05  3.573004E+05  4.977800E+04  4.450151E+05  1.867037E-08  1.267384E-08
       413  19  4.750465E+05  4.231086E+05  1.184967E+05  3.520037E+05 -7.059107E+04 -5.438696E+04
       413  20  4.761381E+05  3.195927E+05  5.213364E+04  3.820484E+05 -4.389196E+04 -3.780880E+04
       413  21  5.179759E+05  2.696598E+05  2.418912E+04  3.878791E+05 -1.830391E+04 -1.974745E+04
       413  22  6.065354E+05  3.900579E+05  1.369619E+05  3.589882E+05 -7.556915E+04 -5.810592E+04
       413  23  5.643800E+05  3.247110E+05  6.668117E+04  3.998232E+05 -4.636329E+04 -3.965776E+04
       413  24  5.635050E+05  3.134795E+05  3.698448E+04  4.164461E+05 -1.827175E+04 -1.972365E+04
       413  25  7.380557E+05  3.570179E+05  1.554303E+05  3.659686E+05 -8.054888E+04 -6.182419E+04
       413  26  6.526327E+05  3.298308E+05  8.122913E+04  4.175987E+05 -4.883511E+04 -4.150665E+04
       413  27  6.090357E+05  3.573010E+05  4.977935E+04  4.450154E+05 -1.823958E+04 -1.969986E+04
       414   1  5.082820E+05  2.794074E+05  1.611370E+04  3.882377E+05  1.427902E+04  1.666828E+04
       414   2  5.094519E+05  2.765947E+05  4.858589E+03  3.909052E+05  7.983686E+03  1.197137E+04
       414   3  5.139537E+05  2.762119E+05 -3.393906E+02  3.924914E+05  1.787477E+03  7.142252E+03
       414   4  5.612589E+05  3.129932E+05  2.840412E+04  4.133434E+05  1.441671E+04  1.677136E+04
       414   5  5.585453E+05  3.099314E+05  1.630344E+04  4.152526E+05  7.898350E+03  1.190731E+04
       414   6  5.592118E+05  3.093474E+05  1.045280E+04  4.160807E+05  1.479113E+03  6.911010E+03
       414   7  6.142390E+05  3.465803E+05  4.069438E+04  4.384514E+05  1.455442E+04  1.687444E+04
       414   8  6.076419E+05  3.432697E+05  2.774830E+04  4.396025E+05  7.813004E+03  1.184324E+04
       414   9  6.044730E+05  3.424850E+05  2.124515E+04  4.396723E+05  1.170714E+03  6.679741E+03
       414  10  5.082817E+05  2.794070E+05  1.611279E+04  3.882375E+05  1.872995E-08  1.283472E-08
       414  11  5.094518E+05  2.765945E+05  4.858200E+03  3.909051E+05  5.393774E-09  2.276279E-09
       414  12  5.139537E+05  2.762118E+05 -3.394924E+02  3.924914E+05 -3.169989E-09 -2.659700E-09
       414  13  5.612586E+05  3.129928E+05  2.840320E+04  4.133432E+05  7.437633E-09  5.076417E-09
       414  14  5.585452E+05  3.099312E+05  1.630306E+04  4.152525E+05 -7.519143E-11 -7.310962E-11
       414  15  5.592118E+05  3.093474E+05  1.045271E+04  4.160806E+05 -1.173715E-09 -6.140497E-10
       414  16  6.142387E+05  3.465799E+05  4.069345E+04  4.384512E+05 -3.742442E-09 -2.620706E-09
       414  17  6.076418E+05  3.432695E+05  2.774792E+04  4.396024E+05 -5.615743E-09 -2.504624E-09
       414  18  6.044730E+05  3.424849E+05  2.124507E+04  4.396723E+05  1.331040E-09  1.551707E-09
       414  19  5.082820E+05  2.794074E+05  1.611370E+04  3.882377E+05 -1.427902E+04 -1.666828E+04
       414  20  5.094519E+05  2.765947E+05  4.858589E+03  3.909052E+05 -7.983686E+03 -1.197137E+04
       414  21  5.139537E+05  2.762119E+05 -3.393906E+02  3.924914E+05 -1.787477E+03 -7.142252E+03
       414  22  5.612589E+05  3.129932E+05  2.840412E+04  4.133434E+05 -1.441671E+04 -1.677136E+04
       414  23  5.585453E+05  3.099314E+05  1.630344E+04  4.152526E+05 -7.898350E+03 -1.190731E+04
       414  24  5.592118E+05  3.093474E+05  1.045280E+04  4.160807E+05 -1.479113E+03 -6.911010E+03
       414  25  6.142390E+05  3.465803E+05  4.069438E+04  4.384514E+05 -1.455442E+04 -1.687444E+04
       414  26  6.076419E+05  3.432697E+05  2.774830E+04  4.396025E+05 -7.813004E+03 -1.184324E+04
       414  27  6.044730E+05  3.424850E+05  2.124515E+04  4.396723E+05 -1.170714E+03 -6.679741E+03
       415   1  5.147264E+05  2.778886E+05 -1.505876E+03  3.932489E+05  4.893735E+02  5.998912E+03
       415   2  5.163089E+05  2.798241E+05 -2.110060E+03  3.945458E+05 -2.409070E+03  3.541399E+03
       415   3  5.191269E+05  2.815192E+05 -1.466819E+02  3.957279E+05 -5.295028E+03  1.067311E+03
       415   4  5.590546E+05  3.093100E+05  8.900798E+03  4.158720E+05  1.973575E+02  5.779925E+03
       415   5  5.584351E+05  3.094296E+05  7.732602E+03  4.159276E+05 -2.729273E+03  3.301291E+03
       415   6  5.590573E+05  3.093149E+05  9.156278E+03  4.158682E+05 -5.643429E+03  8.060746E+02
       415   7  6.033843E+05  3.407320E+05  1.930707E+04  4.384967E+05 -9.468108E+01  5.560922E+03
       415   8  6.005630E+05  3.390359E+05  1.757502E+04  4.373108E+05 -3.049501E+03  3.061164E+03
       415   9  5.989895E+05  3.371116E+05  1.845913E+04  4.360099E+05 -5.991860E+03  5.448167E+02
       415  10  5.147264E+05  2.778886E+05 -1.505944E+03  3.932489E+05 -2.436916E-10  3.056023E-10
       415  11  5.163089E+05  2.798241E+05 -2.110094E+03  3.945458E+05 -3.369502E-10  1.581790E-10
       415  12  5.191269E+05  2.815192E+05 -1.467367E+02  3.957279E+05 -2.358534E-10  4.261091E-12
       415  13  5.590546E+05  3.093100E+05  8.900735E+03  4.158720E+05 -1.083471E-10  9.671476E-11
       415  14  5.584351E+05  3.094296E+05  7.732568E+03  4.159276E+05  6.887418E-10  1.660155E-10
       415  15  5.590572E+05  3.093149E+05  9.156217E+03  4.158682E+05 -1.256832E-10  2.064566E-10
       415  16  6.033843E+05  3.407320E+05  1.930701E+04  4.384967E+05 -1.529959E-10 -8.095873E-11
       415  17  6.005630E+05  3.390359E+05  1.757498E+04  4.373108E+05 -5.045686E-10  1.478453E-11
       415  18  5.989894E+05  3.371116E+05  1.845906E+04  4.360099E+05 -5.095146E-11  4.312405E-10
       415  19  5.147264E+05  2.778886E+05 -1.505876E+03  3.932489E+05 -4.893735E+02 -5.998912E+03
       415  20  5.163089E+05  2.798241E+05 -2.110060E+03  3.945458E+05  2.409070E+03 -3.541399E+03
       415  21  5.191269E+05  2.815192E+05 -1.466819E+02  3.957279E+05  5.295028E+03 -1.067311E+03
       415  22  5.590546E+05  3.093100E+05  8.900798E+03  4.158720E+05 -1.973575E+02 -5.779925E+03
       415  23  5.584351E+05  3.094296E+05  7.732602E+03  4.159276E+05  2.729273E+03 -3.301291E+03
       415  24  5.590573E+05  3.093149E+05  9.156278E+03  4.158682E+05  5.643429E+03 -8.060746E+02
       415  25  6.033843E+05  3.407320E+05  1.930707E+04  4.384967E+05  9.468108E+01 -5.560922E+03
       415  26  6.005630E+05  3.390359E+05  1.757502E+04  4.373108E+05  3.049501E+03 -3.061164E+03
       415  27  5.989895E+05  3.371116E+05  1.845913E+04  4.360099E+05  5.991860E+03 -5.448167E+02
       416   1  5.201745E+05  2.832842E+05  1.922236E+03  3.969164E+05 -6.625353E+03 -1.129119E+02
       416   2  5.233921E+05  2.839687E+05  8.682096E+03  3.967805E+05 -1.318379E+04 -5.392903E+03
       416   3  5.301211E+05  2.872820E+05  2.192444E+04  3.955086E+05 -1.969644E+04 -1.073442E+04
       416   4  5.592283E+05  3.093543E+05  1.085877E+04  4.160923E+05 -6.964922E+03 -3.675132E+02
       416   5  5.585429E+05  3.099548E+05  1.712705E+04  4.152144E+05 -1.362713E+04 -5.725327E+03
       416   6  5.613911E+05  3.132065E+05  2.996751E+04  4.132006E+05 -2.024339E+04 -1.114459E+04
       416   7  5.982845E+05  3.354257E+05  1.979545E+04  4.352700E+05 -7.304525E+03 -6.221389E+02
       416   8  5.936951E+05  3.359417E+05  2.557192E+04  4.336496E+05 -1.407051E+04 -6.057777E+03
       416   9  5.926618E+05  3.391313E+05  3.801031E+04  4.308935E+05 -2.079037E+04 -1.155478E+04
       416  10  5.201745E+05  2.832842E+05  1.922153E+03  3.969164E+05  5.136195E-10  4.893155E-10
       416  11  5.233919E+05  2.839686E+05  8.681715E+03  3.967804E+05  2.393950E-10  3.348457E-11
       416  12  5.301206E+05  2.872818E+05  2.192350E+04  3.955084E+05  3.794722E-10 -1.864622E-10
       416  13  5.592282E+05  3.093543E+05  1.085868E+04  4.160923E+05 -2.271751E-10  8.961020E-11
       416  14  5.585427E+05  3.099547E+05  1.712664E+04  4.152144E+05  3.303542E-11 -1.480676E-10
       416  15  5.613906E+05  3.132062E+05  2.996651E+04  4.132005E+05  2.956199E-10 -2.560484E-10
       416  16  5.982844E+05  3.354257E+05  1.979535E+04  4.352700E+05 -9.506871E-10 -1.592471E-10
       416  17  5.936949E+05  3.359416E+05  2.557148E+04  4.336495E+05 -4.104201E-10 -2.515948E-10
       416  18  5.926613E+05  3.391311E+05  3.800925E+04  4.308933E+05 -3.136799E-11 -8.229113E-11
       416  19  5.201745E+05  2.832842E+05  1.922236E+03  3.969164E+05  6.625353E+03  1.129119E+02
       416  20  5.233921E+05  2.839687E+05  8.682096E+03  3.967805E+05  1.318379E+04  5.392903E+03
       416  21  5.301211E+05  2.872820E+05  2.192444E+04  3.955086E+05  1.969644E+04  1.073442E+04
       416  22  5.592283E+05  3.093543E+05  1.085877E+04  4.160923E+05  6.964922E+03  3.675132E+02
       416  23  5.585429E+05  3.099548E+05  1.712705E+04  4.152144E+05  1.362713E+04  5.725327E+03
       416  24  5.613911E+05  3.132065E+05  2.996751E+04  4.132006E+05  2.024339E+04  1.114459E+04
       416  25  5.982845E+05  3.354257E+05  1.979545E+04  4.352700E+05  7.304525E+03  6.221389E+02
       416  26  5.936951E+05  3.359417E+05  2.557192E+04  4.336496E+05  1.407051E+04  6.057777E+03
       416  27  5.926618E+05  3.391313E+05  3.801031E+04  4.308935E+05  2.079037E+04  1.155478E+04
       417   1  5.244226E+05  2.983962E+05  3.132070E+04  4.023408E+05 -2.376197E+04 -1.401563E+04
       417   2  5.703758E+05  2.692358E+05  6.272243E+04  3.735856E+05 -5.126752E+04 -3.559842E+04
       417   3  6.598482E+05  2.969179E+05  1.360260E+05  3.191954E+05 -7.826386E+04 -5.786077E+04
       417   4  5.638023E+05  3.136841E+05  3.905449E+04  4.164705E+05 -2.423109E+04 -1.436691E+04
       417   5  5.646621E+05  3.256238E+05  7.047289E+04  3.989178E+05 -5.288478E+04 -3.681544E+04
       417   6  6.092819E+05  3.946496E+05  1.447885E+05  3.557324E+05 -8.102652E+04 -5.994771E+04
       417   7  6.031838E+05  3.289722E+05  4.678825E+04  4.306010E+05 -2.470025E+04 -1.471820E+04
       417   8  5.589507E+05  3.820197E+05  7.822412E+04  4.242507E+05 -5.450202E+04 -3.803275E+04
       417   9  5.587287E+05  4.924093E+05  1.535546E+05  3.922671E+05 -8.378886E+04 -6.203555E+04
       417  10  5.244220E+05  2.983958E+05  3.131927E+04  4.023405E+05  7.336614E-10  7.113891E-13
       417  11  5.703726E+05  2.692337E+05  6.271512E+04  3.735841E+05  6.687435E-10 -1.440765E-10
       417  12  6.598407E+05  2.969127E+05  1.360083E+05  3.191917E+05 -2.927643E-10 -3.340873E-10
       417  13  5.638016E+05  3.136837E+05  3.905300E+04  4.164702E+05 -2.949859E-10 -1.064256E-10
       417  14  5.646587E+05  3.256216E+05  7.046510E+04  3.989162E+05  4.659171E-10 -2.793845E-10
       417  15  6.092739E+05  3.946440E+05  1.447694E+05  3.557285E+05 -4.310244E-11 -8.458165E-11
       417  16  6.031831E+05  3.289718E+05  4.678670E+04  4.306007E+05 -5.992587E-10 -2.386172E-10
       417  17  5.589471E+05  3.820173E+05  7.821583E+04  4.242490E+05 -1.973935E-10 -1.021635E-10
       417  18  5.587202E+05  4.924033E+05  1.535342E+05  3.922629E+05  4.362379E-10  1.229148E-10
       417  19  5.244226E+05  2.983962E+05  3.132070E+04  4.023408E+05  2.376197E+04  1.401563E+04
       417  20  5.703758E+05  2.692358E+05  6.272243E+04  3.735856E+05  5.126752E+04  3.559842E+04
       417  21  6.598482E+05  2.969179E+05  1.360260E+05  3.191954E+05  7.826386E+04  5.786077E+04
       417  22  5.638023E+05  3.136841E+05  3.905449E+04  4.164705E+05  2.423109E+04  1.436691E+04
       417  23  5.646621E+05  3.256238E+05  7.047289E+04  3.989178E+05  5.288478E+04  3.681544E+04
       417  24  6.092819E+05  3.946496E+05  1.447885E+05  3.557324E+05  8.102652E+04  5.994771E+04
       417  25  6.031838E+05  3.289722E+05  4.678825E+04  4.306010E+05  2.470025E+04  1.471820E+04
       417  26  5.589507E+05  3.820197E+05  7.822412E+04  4.242507E+05  5.450202E+04  3.803275E+04
       417  27  5.587287E+05  4.924093E+05  1.535546E+05  3.922671E+05  8.378886E+04  6.203555E+04
       418   1  9.064543E+04  1.763060E+04  1.159442E+04 -3.584177E+03 -9.905089E+03 -2.820909E+03
       418   2  7.631823E+04  3.712463E+04  1.853267E+04  5.755438E+03 -8.992502E+03 -9.399775E+03
       418   3  5.745451E+04  3.892702E+04  2.045443E+04  1.852733E+04 -8.079165E+03 -1.114265E+04
       418   4 -1.119148E+05 -3.240027E+04 -3.596007E+04  1.664412E+04 -2.501553E+04 -2.819332E+03
       418   5 -1.089386E+05 -7.136247E+03 -1.750062E+04  1.492937E+04 -1.597975E+04 -9.399456E+03
       418   6 -1.119112E+05 -9.775719E+02 -9.700439E+03  1.664688E+04 -6.942939E+03 -1.114297E+04
       418   7 -3.144360E+05 -8.243240E+04 -8.351629E+04  3.686577E+04 -4.012108E+04 -2.818739E+03
       418   8 -2.941623E+05 -5.139883E+04 -5.353531E+04  2.410050E+04 -2.296496E+04 -9.399345E+03
       418   9 -2.812489E+05 -4.088373E+04 -3.985638E+04  1.476695E+04 -5.807013E+03 -1.114329E+04
       418  10  9.064532E+04  1.763056E+04  1.159422E+04 -3.584200E+03 -2.026298E-10  1.231011E-10
       418  11  7.631812E+04  3.712451E+04  1.853235E+04  5.755370E+03  5.712383E-11 -1.378604E-10
       418  12  5.745441E+04  3.892687E+04  2.045407E+04  1.852726E+04  3.412503E-10 -7.247663E-11
       418  13 -1.119155E+05 -3.240044E+04 -3.596126E+04  1.664406E+04 -1.234923E-10 -1.067904E-10
       418  14 -1.089389E+05 -7.136410E+03 -1.750127E+04  1.492925E+04 -1.056219E-10 -4.726422E-11
       418  15 -1.119113E+05 -9.777182E+02 -9.700763E+03  1.664681E+04 -2.640379E-10 -3.177680E-11
       418  16 -3.144377E+05 -8.243284E+04 -8.351933E+04  3.686568E+04  8.182790E-11 -8.202259E-11
       418  17 -2.941629E+05 -5.139907E+04 -5.353646E+04  2.410032E+04 -1.954483E-10 -3.900597E-11
       418  18 -2.812490E+05 -4.088388E+04 -3.985668E+04  1.476690E+04 -5.516335E-10 -1.937543E-10
       418  19  9.064543E+04  1.763060E+04  1.159442E+04 -3.584177E+03  9.905089E+03  2.820909E+03
       418  20  7.631823E+04  3.712463E+04  1.853267E+04  5.755438E+03  8.992502E+03  9.399775E+03
       418  21  5.745451E+04  3.892702E+04  2.045443E+04  1.852733E+04  8.079165E+03  1.114265E+04
       418  22 -1.119148E+05 -3.240027E+04 -3.596007E+04  1.664412E+04  2.501553E+04  2.819332E+03
       418  23 -1.089386E+05 -7.136247E+03 -1.750062E+04  1.492937E+04  1.597975E+04  9.399456E+03
       418  24 -1.119112E+05 -9.775719E+02 -9.700439E+03  1.664688E+04  6.942939E+03  1.114297E+04
       418  25 -3.144360E+05 -8.243240E+04 -8.351629E+04  3.686577E+04  4.012108E+04  2.818739E+03
       418  26 -2.941623E+05 -5.139883E+04 -5.353531E+04  2.410050E+04  2.296496E+04  9.399345E+03
       418  27 -2.812489E+05 -4.088373E+04 -3.985638E+04  1.476695E+04  5.807013E+03  1.114329E+04
       419   1  4.761714E+04  3.578391E+04  2.047775E+04  1.611483E+04 -6.255606E+03 -1.065890E+04
       419   2  3.124902E+04  3.299881E+04  2.012081E+04  1.465267E+04 -4.861560E+03 -1.009387E+04
       419   3  1.447955E+04  2.932247E+04  1.863426E+04  1.693976E+04 -3.467622E+03 -9.092625E+03
       419   4 -1.107063E+05 -1.466507E+03 -7.446016E+03  1.671680E+04 -5.671605E+03 -1.065918E+04
       419   5 -1.104409E+05 -2.170462E+02 -4.262951E+03  1.484214E+04 -3.545178E+03 -1.009410E+04
       419   6 -1.107046E+05  1.388374E+01 -2.718387E+03  1.671680E+04 -1.418822E+03 -9.092775E+03
       419   7 -2.690052E+05 -3.871830E+04 -3.537069E+04  1.731860E+04 -5.087748E+03 -1.065945E+04
       419   8 -2.521112E+05 -3.343398E+04 -2.864738E+04  1.503157E+04 -2.229087E+03 -1.009434E+04
       419   9 -2.358732E+05 -2.929553E+04 -2.407154E+04  1.649389E+04  6.295787E+02 -9.092925E+03
       419  10  4.761707E+04  3.578378E+04  2.047746E+04  1.611478E+04 -1.490560E-10 -4.659986E-11
       419  11  3.124897E+04  3.299869E+04  2.012057E+04  1.465263E+04  9.048397E-11  4.658835E-11
       419  12  1.447951E+04  2.932238E+04  1.863408E+04  1.693973E+04  9.570697E-11  1.007340E-10
       419  13 -1.107063E+05 -1.466638E+03 -7.446290E+03  1.671675E+04 -2.827076E-10 -1.834099E-10
       419  14 -1.104410E+05 -2.171590E+02 -4.263166E+03  1.484212E+04 -1.392338E-10 -2.770042E-11
       419  15 -1.107046E+05  1.379442E+01 -2.718546E+03  1.671679E+04  8.697215E-11  1.087972E-10
       419  16 -2.690052E+05 -3.871843E+04 -3.537096E+04  1.731856E+04  1.114736E-10 -1.428315E-10
       419  17 -2.521112E+05 -3.343409E+04 -2.864758E+04  1.503155E+04 -5.214514E-11 -1.192555E-11
       419  18 -2.358733E+05 -2.929562E+04 -2.407169E+04  1.649389E+04 -6.916851E-11  4.821825E-11
       419  19  4.761714E+04  3.578391E+04  2.047775E+04  1.611483E+04  6.255606E+03  1.065890E+04
       419  20  3.124902E+04  3.299881E+04  2.012081E+04  1.465267E+04  4.861560E+03  1.009387E+04
       419  21  1.447955E+04  2.932247E+04  1.863426E+04  1.693976E+04  3.467622E+03  9.092625E+03
       419  22 -1.107063E+05 -1.466507E+03 -7.446016E+03  1.671680E+04  5.671605E+03  1.065918E+04
       419  23 -1.104409E+05 -2.170462E+02 -4.262951E+03  1.484214E+04  3.545178E+03  1.009410E+04
       419  24 -1.107046E+05  1.388374E+01 -2.718387E+03  1.671680E+04  1.418822E+03  9.092775E+03
       419  25 -2.690052E+05 -3.871830E+04 -3.537069E+04  1.731860E+04  5.087748E+03  1.065945E+04
       419  26 -2.521112E+05 -3.343398E+04 -2.864738E+04  1.503157E+04  2.229087E+03  1.009434E+04
       419  27 -2.358732E+05 -2.929553E+04 -2.407154E+04  1.649389E+04 -6.295787E+02  9.092925E+03
       420   1  3.728950E+03  2.674635E+04  1.712468E+04  1.675446E+04 -2.972607E+03 -8.378674E+03
       420   2 -1.275592E+04  2.285405E+04  1.465411E+04  1.494846E+04 -2.163137E+03 -7.140623E+03
       420   3 -2.941313E+04  1.868804E+04  1.158846E+04  1.692488E+04 -1.353788E+03 -5.798189E+03
       420   4 -1.106317E+05 -1.260170E+01 -2.303058E+03  1.672416E+04 -9.802246E+02 -8.378774E+03
       420   5 -1.105295E+05 -2.898373E+01 -1.980987E+03  1.483293E+04  4.423299E+00 -7.140645E+03
       420   6 -1.106306E+05 -3.495791E+02 -2.375820E+03  1.672416E+04  9.889671E+02 -5.798125E+03
       420   7 -2.249794E+05 -2.677225E+04 -2.173121E+04  1.669387E+04  1.011803E+03 -8.378873E+03
       420   8 -2.082937E+05 -2.291252E+04 -1.861638E+04  1.471742E+04  2.171653E+03 -7.140668E+03
       420   9 -1.918416E+05 -1.938755E+04 -1.634031E+04  1.652347E+04  3.331425E+03 -5.798063E+03
       420  10  3.728922E+03  2.674628E+04  1.712453E+04  1.675444E+04  2.396423E-10  1.194728E-11
       420  11 -1.275594E+04  2.285400E+04  1.465401E+04  1.494844E+04  1.468314E-10 -8.330480E-11
       420  12 -2.941314E+04  1.868801E+04  1.158840E+04  1.692487E+04  1.146495E-10  6.925542E-12
       420  13 -1.106317E+05 -1.267734E+01 -2.303192E+03  1.672415E+04  1.050212E-10  1.022869E-12
       420  14 -1.105295E+05 -2.903848E+01 -1.981082E+03  1.483293E+04  1.373530E-10 -6.818266E-11
       420  15 -1.106306E+05 -3.496155E+02 -2.375885E+03  1.672416E+04  6.950399E-11 -1.613643E-10
       420  16 -2.249795E+05 -2.677232E+04 -2.173134E+04  1.669387E+04 -1.273959E-10  2.934723E-11
       420  17 -2.082937E+05 -2.291258E+04 -1.861649E+04  1.471743E+04  1.447282E-10 -6.196643E-11
       420  18 -1.918417E+05 -1.938759E+04 -1.634039E+04  1.652348E+04  1.006299E-10 -1.268480E-10
       420  19  3.728950E+03  2.674635E+04  1.712468E+04  1.675446E+04  2.972607E+03  8.378674E+03
       420  20 -1.275592E+04  2.285405E+04  1.465411E+04  1.494846E+04  2.163137E+03  7.140623E+03
       420  21 -2.941313E+04  1.868804E+04  1.158846E+04  1.692488E+04  1.353788E+03  5.798189E+03
       420  22 -1.106317E+05 -1.260170E+01 -2.303058E+03  1.672416E+04  9.802246E+02  8.378774E+03
       420  23 -1.105295E+05 -2.898373E+01 -1.980987E+03  1.483293E+04 -4.423299E+00  7.140645E+03
       420  24 -1.106306E+05 -3.495791E+02 -2.375820E+03  1.672416E+04 -9.889671E+02  5.798125E+03
       420  25 -2.249794E+05 -2.677225E+04 -2.173121E+04  1.669387E+04 -1.011803E+03  8.378873E+03
       420  26 -2.082937E+05 -2.291252E+04 -1.861638E+04  1.471742E+04 -2.171653E+03  7.140668E+03
       420  27 -1.918416E+05 -1.938755E+04 -1.634031E+04  1.652347E+04 -3.331425E+03  5.798063E+03
       421   1 -4.047609E+04  1.628180E+04  9.306215E+03  1.629952E+04 -8.666345E+02 -5.029017E+03
       421   2 -5.640022E+04  1.093679E+04  5.249087E+03  1.714918E+04  2.368677E+02 -3.314694E+03
       421   3 -7.361410E+04  1.007964E+03 -6.725824E+02  2.183361E+04  1.340283E+03 -8.554059E+02
       421   4 -1.109200E+05 -2.304986E+02 -2.805832E+03  1.673574E+04  1.387322E+03 -5.028924E+03
       421   5 -1.101664E+05 -1.781309E+03 -4.568292E+03  1.481853E+04  3.742120E+03 -3.314466E+03
       421   6 -1.109198E+05 -8.133335E+03 -9.064344E+03  1.673616E+04  6.096866E+03 -8.550215E+02
       421   7 -1.813590E+05 -1.674306E+04 -1.491803E+04  1.717191E+04  3.641031E+03 -5.028828E+03
       421   8 -1.639297E+05 -1.449954E+04 -1.438574E+04  1.248808E+04  7.247077E+03 -3.314264E+03
       421   9 -1.482242E+05 -1.727462E+04 -1.745610E+04  1.163902E+04  1.085317E+04 -8.547152E+02
       421  10 -4.047610E+04  1.628177E+04  9.306166E+03  1.629951E+04  1.487106E-10 -4.104927E-12
       421  11 -5.640023E+04  1.093677E+04  5.249066E+03  1.714918E+04 -9.917869E-11 -1.676799E-10
       421  12 -7.361410E+04  1.007963E+03 -6.725871E+02  2.183361E+04 -1.572439E-10 -1.141540E-10
       421  13 -1.109200E+05 -2.305263E+02 -2.805883E+03  1.673574E+04  8.575391E-11 -4.850632E-11
       421  14 -1.101664E+05 -1.781325E+03 -4.568339E+03  1.481854E+04  6.573189E-11 -8.999079E-11
       421  15 -1.109199E+05 -8.133346E+03 -9.064416E+03  1.673616E+04 -4.455854E-11  6.295074E-11
       421  16 -1.813590E+05 -1.674309E+04 -1.491810E+04  1.717192E+04  4.051754E-11 -4.498939E-11
       421  17 -1.639297E+05 -1.449957E+04 -1.438586E+04  1.248810E+04  1.215764E-10 -5.043095E-11
       421  18 -1.482243E+05 -1.727465E+04 -1.745632E+04  1.163903E+04  1.312827E-10  3.862697E-11
       421  19 -4.047609E+04  1.628180E+04  9.306215E+03  1.629952E+04  8.666345E+02  5.029017E+03
       421  20 -5.640022E+04  1.093679E+04  5.249087E+03  1.714918E+04 -2.368677E+02  3.314694E+03
       421  21 -7.361410E+04  1.007964E+03 -6.725824E+02  2.183361E+04 -1.340283E+03  8.554059E+02
       421  22 -1.109200E+05 -2.304986E+02 -2.805832E+03  1.673574E+04 -1.387322E+03  5.028924E+03
       421  23 -1.101664E+05 -1.781309E+03 -4.568292E+03  1.481853E+04 -3.742120E+03  3.314466E+03
       421  24 -1.109198E+05 -8.133335E+03 -9.064344E+03  1.673616E+04 -6.096866E+03  8.550215E+02
       421  25 -1.813590E+05 -1.674306E+04 -1.491803E+04  1.717191E+04 -3.641031E+03  5.028828E+03
       421  26 -1.639297E+05 -1.449954E+04 -1.438574E+04  1.248808E+04 -7.247077E+03  3.314264E+03
       421  27 -1.482242E+05 -1.727462E+04 -1.745610E+04  1.163902E+04 -1.085317E+04  8.547152E+02
       422   1 -1.922262E+05 -6.933675E+05 -1.821468E+05  2.111259E+05 -9.326300E+03 -3.361063E+04
       422   2 -1.468991E+05 -4.703960E+05 -1.170245E+05  1.931989E+05 -2.748938E+04 -2.936459E+03
       422   3 -9.646281E+04 -2.500808E+05 -7.060914E+04  2.242809E+05 -2.425812E+04  2.774555E+04
       422   4  1.921315E+04  1.601928E+05  2.113309E+04  2.233446E+05 -9.298277E+03  1.487808E+04
       422   5  4.345253E+03  1.584736E+05  1.016049E+04  1.988481E+05 -2.747879E+04  9.641258E+03
       422   6  8.221488E+02  1.602846E+05  5.430517E+03  2.233553E+05 -2.427554E+04  4.400726E+03
       422   7  2.306017E+05  1.014427E+06  2.243709E+05  2.355801E+05 -9.268374E+03  6.343319E+04
       422   8  1.555652E+05  7.877204E+05  1.373257E+05  2.045030E+05 -2.746799E+04  2.223148E+04
       422   9  9.809775E+04  5.708144E+05  8.146515E+04  2.224289E+05 -2.429289E+04 -1.895913E+04
       422  10 -1.922266E+05 -6.933687E+05 -1.821491E+05  2.111256E+05 -1.943550E-11  1.179365E-10
       422  11 -1.468999E+05 -4.703962E+05 -1.170260E+05  1.931989E+05  3.644576E-10  4.114304E-10
       422  12 -9.646364E+04 -2.500818E+05 -7.061169E+04  2.242815E+05 -2.181853E-11  2.048255E-10
       422  13  1.921299E+04  1.601925E+05  2.113251E+04  2.233447E+05 -5.701596E-11  1.986298E-10
       422  14  4.344417E+03  1.584733E+05  1.015890E+04  1.988483E+05  5.608558E-10  4.041648E-10
       422  15  8.215107E+02  1.602844E+05  5.429373E+03  2.233553E+05  1.220359E-10  1.679534E-10
       422  16  2.306006E+05  1.014423E+06  2.243632E+05  2.355806E+05  1.130198E-10  8.008546E-11
       422  17  1.555643E+05  7.877196E+05  1.373233E+05  2.045035E+05  3.179313E-11 -3.179404E-10
       422  18  9.809702E+04  5.708139E+05  8.146337E+04  2.224285E+05  3.451723E-10  2.252569E-10
       422  19 -1.922262E+05 -6.933675E+05 -1.821468E+05  2.111259E+05  9.326300E+03  3.361063E+04
       422  20 -1.468991E+05 -4.703960E+05 -1.170245E+05  1.931989E+05  2.748938E+04  2.936459E+03
       422  21 -9.646281E+04 -2.500808E+05 -7.060914E+04  2.242809E+05  2.425812E+04 -2.774555E+04
       422  22  1.921315E+04  1.601928E+05  2.113309E+04  2.233446E+05  9.298277E+03 -1.487808E+04
       422  23  4.345253E+03  1.584736E+05  1.016049E+04  1.988481E+05  2.747879E+04 -9.641258E+03
       422  24  8.221488E+02  1.602846E+05  5.430517E+03  2.233553E+05  2.427554E+04 -4.400726E+03
       422  25  2.306017E+05  1.014427E+06  2.243709E+05  2.355801E+05  9.268374E+03 -6.343319E+04
       422  26  1.555652E+05  7.877204E+05  1.373257E+05  2.045030E+05  2.746799E+04 -2.223148E+04
       422  27  9.809775E+04  5.708144E+05  8.146515E+04  2.224289E+05  2.429289E+04  1.895913E+04
       423   1 -6.162358E+04 -1.052323E+05 -4.504825E+04  2.231953E+05 -1.566332E+04  2.479187E+04
       423   2 -9.786992E+03  1.162237E+05 -5.692867E+03  1.983586E+05 -3.019023E+03  2.419498E+04
       423   3  4.250076E+04  3.378694E+05  3.414689E+04  2.238002E+05  9.804691E+03  2.359739E+04
       423   4  1.143396E+03  1.595619E+05  3.993409E+03  2.236374E+05 -1.568044E+04  3.700787E+03
       423   5  3.578986E+02  1.594682E+05  1.791731E+03  1.984987E+05 -3.036686E+03  2.798399E+03
       423   6  7.854178E+01  1.595685E+05  2.854083E+02  2.236382E+05  9.786375E+03  1.895509E+03
       423   7  6.390660E+04  4.244251E+05  5.303379E+04  2.240796E+05 -1.569758E+04 -1.739906E+04
       423   8  1.050293E+04  2.027154E+05  9.277985E+03  1.986389E+05 -3.054357E+03 -1.859963E+04
       423   9 -4.234528E+04 -1.870085E+04 -3.357573E+04  2.234762E+05  9.768066E+03 -1.980029E+04
       423  10 -6.162401E+04 -1.052330E+05 -4.504986E+04  2.231956E+05  6.707996E-11 -3.865135E-10
       423  11 -9.787159E+03  1.162231E+05 -5.693984E+03  1.983586E+05 -3.520769E-10  8.313622E-10
       423  12  4.250051E+04  3.378688E+05  3.414566E+04  2.238001E+05  1.012481E-10  1.153364E-09
       423  13  1.143128E+03  1.595619E+05  3.992921E+03  2.236374E+05 -1.186902E-10  5.096511E-10
       423  14  3.578865E+02  1.594681E+05  1.791699E+03  1.984987E+05 -6.737637E-10  5.025373E-10
       423  15  7.843797E+01  1.595684E+05  2.852216E+02  2.236382E+05 -5.118135E-10  1.651077E-10
       423  16  6.390625E+04  4.244247E+05  5.303276E+04  2.240793E+05 -9.101517E-11  8.971154E-10
       423  17  1.050283E+04  2.027151E+05  9.277318E+03  1.986389E+05 -1.221590E-10 -6.964497E-10
       423  18 -4.234549E+04 -1.870129E+04 -3.357664E+04  2.234764E+05 -1.566281E-12 -7.089069E-10
       423  19 -6.162358E+04 -1.052323E+05 -4.504825E+04  2.231953E+05  1.566332E+04 -2.479187E+04
       423  20 -9.786992E+03  1.162237E+05 -5.692867E+03  1.983586E+05  3.019023E+03 -2.419498E+04
       423  21  4.250076E+04  3.378694E+05  3.414689E+04  2.238002E+05 -9.804691E+03 -2.359739E+04
       423  22  1.143396E+03  1.595619E+05  3.993409E+03  2.236374E+05  1.568044E+04 -3.700787E+03
       423  23  3.578986E+02  1.594682E+05  1.791731E+03  1.984987E+05  3.036686E+03 -2.798399E+03
       423  24  7.854178E+01  1.595685E+05  2.854083E+02  2.236382E+05 -9.786375E+03 -1.895509E+03
       423  25  6.390660E+04  4.244251E+05  5.303379E+04  2.240796E+05  1.569758E+04  1.739906E+04
       423  26  1.050293E+04  2.027154E+05  9.277985E+03  1.986389E+05  3.054357E+03  1.859963E+04
       423  27 -4.234528E+04 -1.870085E+04 -3.357573E+04  2.234762E+05 -9.768066E+03  1.980029E+04
       424   1  7.704251E+04  4.832002E+05  6.035034E+04  2.238822E+05  1.849539E+04  2.557556E+04
       424   2  1.298026E+05  7.025281E+05  1.085956E+05  1.978503E+05  2.289943E+04 -5.913011E+03
       424   3  1.856681E+05  9.267682E+05  1.780965E+05  2.209599E+05  7.955088E+03 -3.740806E+04
       424   4  1.483026E+02  1.593394E+05 -3.794141E+02  2.233860E+05  1.847656E+04  1.862320E+03
       424   5 -8.266896E+02  1.596874E+05 -1.994862E+03  1.988150E+05  2.290724E+04  2.907753E+03
       424   6 -4.337065E+03  1.592618E+05 -4.933076E+03  2.233887E+05  7.981639E+03  3.957613E+03
       424   7 -7.675168E+04 -1.644188E+05 -6.111160E+04  2.228900E+05  1.845777E+04 -2.183886E+04
       424   8 -1.314744E+05 -3.828731E+05 -1.126005E+05  1.997788E+05  2.291509E+04  1.172095E+04
       424   9 -1.943838E+05 -6.077013E+05 -1.879976E+05  2.258143E+05  8.008538E+03  4.527244E+04
       424  10  7.704197E+04  4.831994E+05  6.034847E+04  2.238818E+05 -7.056773E-11 -1.669722E-10
       424  11  1.298021E+05  7.025279E+05  1.085945E+05  1.978504E+05  3.423316E-11  3.397196E-10
       424  12  1.856677E+05  9.267667E+05  1.780937E+05  2.209601E+05  1.229961E-10  2.410391E-10
       424  13  1.479350E+02  1.593393E+05 -3.800621E+02  2.233860E+05  5.595455E-10  5.292943E-10
       424  14 -8.272554E+02  1.596873E+05 -1.995864E+03  1.988149E+05 -2.868977E-10  3.850390E-10
       424  15 -4.337137E+03  1.592617E+05 -4.933225E+03  2.233887E+05  7.679421E-11  1.111085E-10
       424  16 -7.675217E+04 -1.644194E+05 -6.111314E+04  2.228904E+05  1.399522E-10  6.643547E-10
       424  17 -1.314750E+05 -3.828734E+05 -1.126017E+05  1.997786E+05 -2.999295E-10 -2.107055E-10
       424  18 -1.943844E+05 -6.077036E+05 -1.880016E+05  2.258140E+05  2.122301E-11  2.247383E-11
       424  19  7.704251E+04  4.832002E+05  6.035034E+04  2.238822E+05 -1.849539E+04 -2.557556E+04
       424  20  1.298026E+05  7.025281E+05  1.085956E+05  1.978503E+05 -2.289943E+04  5.913011E+03
       424  21  1.856681E+05  9.267682E+05  1.780965E+05  2.209599E+05 -7.955088E+03  3.740806E+04
       424  22  1.483026E+02  1.593394E+05 -3.794141E+02  2.233860E+05 -1.847656E+04 -1.862320E+03
       424  23 -8.266896E+02  1.596874E+05 -1.994862E+03  1.988150E+05 -2.290724E+04 -2.907753E+03
       424  24 -4.337065E+03  1.592618E+05 -4.933076E+03  2.233887E+05 -7.981639E+03 -3.957613E+03
       424  25 -7.675168E+04 -1.644188E+05 -6.111160E+04  2.228900E+05 -1.845777E+04  2.183886E+04
       424  26 -1.314744E+05 -3.828731E+05 -1.126005E+05  1.997788E+05 -2.291509E+04 -1.172095E+04
       424  27 -1.943838E+05 -6.077013E+05 -1.879976E+05  2.258143E+05 -8.008538E+03 -4.527244E+04
       425   1  1.406340E+05  1.147923E+05  3.664762E+04  8.974539E+04  1.160877E+04  6.256537E+03
       425   2  1.332159E+05  1.043737E+05  2.700572E+04  8.679144E+04  9.048571E+03 -1.394613E+03
       425   3  1.258633E+05  9.855894E+04  2.244552E+04  8.376194E+04  4.496624E+03 -6.388669E+03
       425   4  4.109449E+04  4.044232E+04  3.930465E+03  3.871578E+04  3.210690E+03 -4.028002E+01
       425   5  4.093047E+04  3.752908E+04  2.055194E+03  3.957578E+04  5.115654E+03 -4.343706E+03
       425   6  3.986324E+04  3.825112E+04  1.387142E+03  4.036009E+04  5.028503E+03 -5.990004E+03
       425   7 -5.843254E+04 -3.390010E+04 -2.878697E+04 -1.230343E+04 -5.185405E+03 -6.335518E+03
       425   8 -5.134448E+04 -2.930962E+04 -2.289572E+04 -7.631293E+03  1.183560E+03 -7.292163E+03
       425   9 -4.612824E+04 -2.205225E+04 -1.967174E+04 -3.034796E+03  5.560284E+03 -5.591413E+03
       425  10  1.406338E+05  1.147922E+05  3.664730E+04  8.974533E+04  2.057074E-10  6.824868E-11
       425  11  1.332158E+05  1.043737E+05  2.700557E+04  8.679145E+04  1.346100E-10 -3.231302E-10
       425  12  1.258633E+05  9.855889E+04  2.244541E+04  8.376196E+04 -3.215394E-10 -2.118273E-10
       425  13  4.109448E+04  4.044232E+04  3.930445E+03  3.871578E+04  9.324389E-12 -1.624434E-10
       425  14  4.093044E+04  3.752905E+04  2.055109E+03  3.957579E+04 -2.360623E-11  1.315213E-10
       425  15  3.986320E+04  3.825108E+04  1.387027E+03  4.036012E+04 -1.391811E-11  9.699540E-11
       425  16 -5.843258E+04 -3.390015E+04 -2.878710E+04 -1.230346E+04  7.207607E-12  1.335333E-10
       425  17 -5.134450E+04 -2.930968E+04 -2.289582E+04 -7.631286E+03  8.565476E-11  2.841528E-10
       425  18 -4.612828E+04 -2.205229E+04 -1.967186E+04 -3.034771E+03  1.300313E-10  2.766419E-10
       425  19  1.406340E+05  1.147923E+05  3.664762E+04  8.974539E+04 -1.160877E+04 -6.256537E+03
       425  20  1.332159E+05  1.043737E+05  2.700572E+04  8.679144E+04 -9.048571E+03  1.394613E+03
       425  21  1.258633E+05  9.855894E+04  2.244552E+04  8.376194E+04 -4.496624E+03  6.388669E+03
       425  22  4.109449E+04  4.044232E+04  3.930465E+03  3.871578E+04 -3.210690E+03  4.028002E+01
       425  23  4.093047E+04  3.752908E+04  2.055194E+03  3.957578E+04 -5.115654E+03  4.343706E+03
       425  24  3.986324E+04  3.825112E+04  1.387142E+03  4.036009E+04 -5.028503E+03  5.990004E+03
       425  25 -5.843254E+04 -3.390010E+04 -2.878697E+04 -1.230343E+04  5.185405E+03  6.335518E+03
       425  26 -5.134448E+04 -2.930962E+04 -2.289572E+04 -7.631293E+03 -1.183560E+03  7.292163E+03
       425  27 -4.612824E+04 -2.205225E+04 -1.967174E+04 -3.034796E+03 -5.560284E+03  5.591413E+03
       426   1  1.203993E+05  9.525834E+04  2.089334E+04  8.121780E+04  4.455845E+03 -6.053349E+03
       426   2  1.137841E+05  8.856576E+04  1.862812E+04  7.710678E+04  3.357959E+03 -6.479260E+03
       426   3  1.050934E+05  8.435236E+04  1.715223E+04  7.365811E+04  2.082813E+03 -6.668859E+03
       426   4  3.975877E+04  3.828594E+04  1.266243E+03  4.029158E+04  4.684734E+03 -5.881862E+03
       426   5  4.080471E+04  3.702773E+04  1.285844E+03  4.000660E+04  3.984048E+03 -6.009887E+03
       426   6  3.968919E+04  3.816245E+04  1.750146E+03  4.038395E+04  3.106092E+03 -5.901584E+03
       426   7 -4.087574E+04 -1.868354E+04 -1.836180E+04 -6.292078E+02  4.913587E+03 -5.710401E+03
       426   8 -3.216853E+04 -1.450702E+04 -1.605678E+04  2.911487E+03  4.610039E+03 -5.540589E+03
       426   9 -2.570886E+04 -8.023985E+03 -1.365179E+04  7.114442E+03  4.129209E+03 -5.134431E+03
       426  10  1.203993E+05  9.525830E+04  2.089323E+04  8.121782E+04  2.337849E-10  1.915993E-10
       426  11  1.137841E+05  8.856571E+04  1.862802E+04  7.710680E+04 -1.212340E-11 -4.553656E-11
       426  12  1.050934E+05  8.435231E+04  1.715213E+04  7.365812E+04 -1.305232E-10 -2.233934E-10
       426  13  3.975873E+04  3.828590E+04  1.266136E+03  4.029160E+04 -1.982750E-11 -5.217412E-11
       426  14  4.080468E+04  3.702769E+04  1.285746E+03  4.000662E+04 -5.237066E-11 -4.535281E-11
       426  15  3.968917E+04  3.816241E+04  1.750063E+03  4.038396E+04 -7.766894E-11 -1.042948E-10
       426  16 -4.087577E+04 -1.868358E+04 -1.836191E+04 -6.291852E+02 -2.312217E-10 -1.540647E-10
       426  17 -3.216856E+04 -1.450706E+04 -1.605688E+04  2.911508E+03  8.341600E-11 -1.398741E-10
       426  18 -2.570888E+04 -8.024018E+03 -1.365188E+04  7.114459E+03  1.558103E-10  4.950335E-12
       426  19  1.203993E+05  9.525834E+04  2.089334E+04  8.121780E+04 -4.455845E+03  6.053349E+03
       426  20  1.137841E+05  8.856576E+04  1.862812E+04  7.710678E+04 -3.357959E+03  6.479260E+03
       426  21  1.050934E+05  8.435236E+04  1.715223E+04  7.365811E+04 -2.082813E+03  6.668859E+03
       426  22  3.975877E+04  3.828594E+04  1.266243E+03  4.029158E+04 -4.684734E+03  5.881862E+03
       426  23  4.080471E+04  3.702773E+04  1.285844E+03  4.000660E+04 -3.984048E+03  6.009887E+03
       426  24  3.968919E+04  3.816245E+04  1.750146E+03  4.038395E+04 -3.106092E+03  5.901584E+03
       426  25 -4.087574E+04 -1.868354E+04 -1.836180E+04 -6.292078E+02 -4.913587E+03  5.710401E+03
       426  26 -3.216853E+04 -1.450702E+04 -1.605678E+04  2.911487E+03 -4.610039E+03  5.540589E+03
       426  27 -2.570886E+04 -8.023985E+03 -1.365179E+04  7.114442E+03 -4.129209E+03  5.134431E+03
       427   1  1.000770E+05  8.092570E+04  1.635303E+04  7.118682E+04  1.558207E+03 -6.501750E+03
       427   2  9.345247E+04  7.443057E+04  1.595457E+04  6.696816E+04 -3.448777E+02 -6.986063E+03
       427   3  8.478720E+04  7.045859E+04  1.678567E+04  6.346210E+04 -2.264073E+03 -7.448942E+03
       427   4  3.970493E+04  3.817253E+04  2.173589E+03  4.040854E+04  2.554366E+03 -5.754786E+03
       427   5  4.075078E+04  3.695274E+04  3.571778E+03  4.002407E+04  6.874614E+02 -6.211920E+03
       427   6  3.974788E+04  3.824835E+04  6.168173E+03  4.035218E+04 -1.195592E+03 -6.647643E+03
       427   7 -2.066292E+04 -4.578404E+03 -1.200609E+04  9.633732E+03  3.550396E+03 -5.007919E+03
       427   8 -1.194818E+04 -5.237060E+02 -8.811356E+03  1.308239E+04  1.719693E+03 -5.437859E+03
       427   9 -5.289911E+03  6.038800E+03 -4.449729E+03  1.724381E+04 -1.271955E+02 -5.846408E+03
       427  10  1.000770E+05  8.092565E+04  1.635295E+04  7.118682E+04 -5.559441E-11 -9.542813E-11
       427  11  9.345246E+04  7.443051E+04  1.595448E+04  6.696815E+04  2.483987E-11 -4.175038E-11
       427  12  8.478718E+04  7.045853E+04  1.678555E+04  6.346208E+04  4.351599E-11 -3.381964E-11
       427  13  3.970491E+04  3.817249E+04  2.173514E+03  4.040855E+04  1.166850E-10 -2.101656E-13
       427  14  4.075077E+04  3.695270E+04  3.571704E+03  4.002407E+04  1.200426E-10 -4.780514E-11
       427  15  3.974787E+04  3.824831E+04  6.168087E+03  4.035217E+04  7.770581E-11 -3.230030E-11
       427  16 -2.066294E+04 -4.578435E+03 -1.200616E+04  9.633746E+03 -6.593089E-11 -4.266590E-11
       427  17 -1.194819E+04 -5.237385E+02 -8.811417E+03  1.308240E+04 -6.535247E-11 -6.389191E-11
       427  18 -5.289920E+03  6.038764E+03 -4.449794E+03  1.724381E+04 -2.536355E-11 -8.073390E-11
       427  19  1.000770E+05  8.092570E+04  1.635303E+04  7.118682E+04 -1.558207E+03  6.501750E+03
       427  20  9.345247E+04  7.443057E+04  1.595457E+04  6.696816E+04  3.448777E+02  6.986063E+03
       427  21  8.478720E+04  7.045859E+04  1.678567E+04  6.346210E+04  2.264073E+03  7.448942E+03
       427  22  3.970493E+04  3.817253E+04  2.173589E+03  4.040854E+04 -2.554366E+03  5.754786E+03
       427  23  4.075078E+04  3.695274E+04  3.571778E+03  4.002407E+04 -6.874614E+02  6.211920E+03
       427  24  3.974788E+04  3.824835E+04  6.168173E+03  4.035218E+04  1.195592E+03  6.647643E+03
       427  25 -2.066292E+04 -4.578404E+03 -1.200609E+04  9.633732E+03 -3.550396E+03  5.007919E+03
       427  26 -1.194818E+04 -5.237060E+02 -8.811356E+03  1.308239E+04 -1.719693E+03  5.437859E+03
       427  27 -5.289911E+03  6.038800E+03 -4.449729E+03  1.724381E+04  1.271955E+02  5.846408E+03
       428   1  7.948032E+04  6.753462E+04  1.751039E+04  6.132893E+04 -3.535678E+03 -7.824496E+03
       428   2  7.416018E+04  5.986693E+04  2.182801E+04  5.589103E+04 -9.680661E+03 -1.143673E+04
       428   3  6.897403E+04  5.740936E+04  3.164131E+04  5.029233E+04 -1.583126E+04 -1.504118E+04
       428   4  3.991873E+04  3.828944E+04  8.095559E+03  4.057550E+04 -2.470272E+03 -7.025473E+03
       428   5  4.079335E+04  3.735706E+04  1.416178E+04  3.940276E+04 -8.602052E+03 -1.062781E+04
       428   6  4.179891E+04  4.163183E+04  2.571231E+04  3.806901E+04 -1.473957E+04 -1.422250E+04
       428   7  3.597056E+02  9.045894E+03 -1.319107E+03  1.982402E+04 -1.404975E+03 -6.226536E+03
       428   8  7.428131E+03  1.484804E+04  6.495592E+03  2.291564E+04 -7.523531E+03 -9.818960E+03
       428   9  1.462468E+04  2.585460E+04  1.978329E+04  2.584627E+04 -1.364795E+04 -1.340385E+04
       428  10  7.948029E+04  6.753455E+04  1.751025E+04  6.132891E+04 -1.218700E-10 -1.424954E-10
       428  11  7.416005E+04  5.986676E+04  2.182759E+04  5.589094E+04 -1.513981E-10 -3.441445E-11
       428  12  6.897370E+04  5.740905E+04  3.164041E+04  5.029214E+04  6.841409E-11  6.138018E-11
       428  13  3.991871E+04  3.828939E+04  8.095455E+03  4.057549E+04 -5.735239E-11 -7.046896E-12
       428  14  4.079324E+04  3.735692E+04  1.416143E+04  3.940268E+04 -1.278415E-10  2.389850E-11
       428  15  4.179862E+04  4.163155E+04  2.571153E+04  3.806885E+04 -9.304828E-11  4.950745E-11
       428  16  3.596931E+02  9.045852E+03 -1.319184E+03  1.982401E+04  1.681912E-10  1.018686E-10
       428  17  7.428045E+03  1.484792E+04  6.495305E+03  2.291558E+04 -1.786615E-10  8.921382E-11
       428  18  1.462443E+04  2.585436E+04  1.978261E+04  2.584613E+04 -8.984169E-11 -3.675739E-11
       428  19  7.948032E+04  6.753462E+04  1.751039E+04  6.132893E+04  3.535678E+03  7.824496E+03
       428  20  7.416018E+04  5.986693E+04  2.182801E+04  5.589103E+04  9.680661E+03  1.143673E+04
       428  21  6.897403E+04  5.740936E+04  3.164131E+04  5.029233E+04  1.583126E+04  1.504118E+04
       428  22  3.991873E+04  3.828944E+04  8.095559E+03  4.057550E+04  2.470272E+03  7.025473E+03
       428  23  4.079335E+04  3.735706E+04  1.416178E+04  3.940276E+04  8.602052E+03  1.062781E+04
       428  24  4.179891E+04  4.163183E+04  2.571231E+04  3.806901E+04  1.473957E+04  1.422250E+04
       428  25  3.597056E+02  9.045894E+03 -1.319107E+03  1.982402E+04  1.404975E+03  6.226536E+03
       428  26  7.428131E+03  1.484804E+04  6.495592E+03  2.291564E+04  7.523531E+03  9.818960E+03
       428  27  1.462468E+04  2.585460E+04  1.978329E+04  2.584627E+04  1.364795E+04  1.340385E+04
       429   1  5.774992E+04  6.272008E+04  3.849133E+04  5.309103E+04 -1.962229E+04 -1.730050E+04
       429   2  8.968660E+04  2.903372E+04  6.438594E+04  2.261290E+04 -4.558562E+04 -3.570999E+04
       429   3  1.569032E+05  4.817143E+04  1.277878E+05 -2.938502E+04 -7.160132E+04 -5.404946E+04
       429   4  4.389500E+04  4.205867E+04  3.375847E+04  4.093495E+04 -1.853863E+04 -1.648740E+04
       429   5  4.614170E+04  5.098892E+04  6.134771E+04  2.519600E+04 -4.438738E+04 -3.481502E+04
       429   6  8.363927E+04  1.127155E+05  1.263458E+05 -1.206181E+04 -7.028624E+04 -5.307592E+04
       429   7  3.004017E+04  2.139764E+04  2.902551E+04  2.877913E+04 -1.745500E+04 -1.567434E+04
       429   8  2.600451E+03  7.294673E+04  5.831001E+04  2.777821E+04 -4.318926E+04 -3.391996E+04
       429   9  1.039013E+04  1.772745E+05  1.249066E+05  5.257247E+03 -6.897141E+04 -5.210210E+04
       429  10  5.774942E+04  6.271966E+04  3.849005E+04  5.309076E+04 -6.841910E-11 -4.414154E-11
       429  11  8.968403E+04  2.903180E+04  6.437964E+04  2.261159E+04  1.347809E-10  4.928177E-11
       429  12  1.568969E+05  4.816692E+04  1.277726E+05 -2.938814E+04 -2.698301E-11  4.400700E-11
       429  13  4.389455E+04  4.205828E+04  3.375731E+04  4.093470E+04 -2.356039E-11  2.684987E-12
       429  14  4.613925E+04  5.098709E+04  6.134173E+04  2.519476E+04  9.228251E-11  7.396686E-12
       429  15  8.363321E+04  1.127111E+05  1.263313E+05 -1.206481E+04  1.703228E-12 -6.945256E-12
       429  16  3.003978E+04  2.139729E+04  2.902448E+04  2.877891E+04  8.423574E-11  4.815958E-11
       429  17  2.598140E+03  7.294499E+04  5.830434E+04  2.777703E+04  2.506888E-11 -2.813697E-11
       429  18  1.038430E+04  1.772704E+05  1.248926E+05  5.254354E+03 -3.234366E-11 -1.587328E-11
       429  19  5.774992E+04  6.272008E+04  3.849133E+04  5.309103E+04  1.962229E+04  1.730050E+04
       429  20  8.968660E+04  2.903372E+04  6.438594E+04  2.261290E+04  4.558562E+04  3.570999E+04
       429  21  1.569032E+05  4.817143E+04  1.277878E+05 -2.938502E+04  7.160132E+04  5.404946E+04
       429  22  4.389500E+04  4.205867E+04  3.375847E+04  4.093495E+04  1.853863E+04  1.648740E+04
       429  23  4.614170E+04  5.098892E+04  6.134771E+04  2.519600E+04  4.438738E+04  3.481502E+04
       429  24  8.363927E+04  1.127155E+05  1.263458E+05 -1.206181E+04  7.028624E+04  5.307592E+04
       429  25  3.004017E+04  2.139764E+04  2.902551E+04  2.877913E+04  1.745500E+04  1.567434E+04
       429  26  2.600451E+03  7.294673E+04  5.831001E+04  2.777821E+04  4.318926E+04  3.391996E+04
       429  27  1.039013E+04  1.772745E+05  1.249066E+05  5.257247E+03  6.897141E+04  5.210210E+04
       430   1  8.285007E+04  4.061305E+04  3.655742E+04 -5.081971E+03  8.675091E+03 -3.189076E+03
       430   2  8.111397E+04  4.699795E+04  3.363810E+04 -1.300540E+03  3.644370E+03 -1.098260E+04
       430   3  7.873588E+04  4.817616E+04  3.269369E+04  2.592510E+03 -1.386467E+03 -1.386911E+04
       430   4 -1.274347E+05 -1.126023E+04 -1.252594E+04  1.943688E+03 -8.539360E+03 -3.190308E+03
       430   5 -1.263974E+05 -2.477417E+03 -6.227965E+03  1.887205E+03 -5.325705E+03 -1.098388E+04
       430   6 -1.274339E+05 -3.337108E+02 -3.680839E+03  1.942220E+03 -2.112169E+03 -1.386962E+04
       430   7 -3.376780E+05 -6.313631E+04 -6.161115E+04  8.966952E+03 -2.574802E+04 -3.191929E+03
       430   8 -3.338671E+05 -5.195526E+04 -4.609570E+04  5.073858E+03 -1.429285E+04 -1.098525E+04
       430   9 -3.335620E+05 -4.884591E+04 -4.005692E+04  1.292152E+03 -2.837638E+03 -1.387014E+04
       430  10  8.284999E+04  4.061302E+04  3.655726E+04 -5.081949E+03 -5.319987E-08 -5.539351E-10
       430  11  8.111392E+04  4.699782E+04  3.363784E+04 -1.300508E+03  2.033670E-09 -1.217872E-09
       430  12  7.873583E+04  4.817595E+04  3.269333E+04  2.592494E+03  5.818658E-08 -7.446820E-10
       430  13 -1.274348E+05 -1.126027E+04 -1.252609E+04  1.943666E+03 -1.942095E-10 -3.727469E-10
       430  14 -1.263974E+05 -2.477554E+03 -6.228245E+03  1.887158E+03 -2.322533E-10 -1.089031E-09
       430  15 -1.274339E+05 -3.339185E+02 -3.681208E+03  1.942197E+03  1.340097E-10 -6.054443E-10
       430  16 -3.376787E+05 -6.313650E+04 -6.161242E+04  8.966885E+03  5.294845E-08 -4.301005E-10
       430  17 -3.338673E+05 -5.195544E+04 -4.609631E+04  5.073732E+03 -2.141767E-09 -1.392199E-09
       430  18 -3.335621E+05 -4.884612E+04 -4.005730E+04  1.292120E+03 -5.821953E-08 -6.731223E-10
       430  19  8.285007E+04  4.061305E+04  3.655742E+04 -5.081971E+03 -8.675091E+03  3.189076E+03
       430  20  8.111397E+04  4.699795E+04  3.363810E+04 -1.300540E+03 -3.644370E+03  1.098260E+04
       430  21  7.873588E+04  4.817616E+04  3.269369E+04  2.592510E+03  1.386467E+03  1.386911E+04
       430  22 -1.274347E+05 -1.126023E+04 -1.252594E+04  1.943688E+03  8.539360E+03  3.190308E+03
       430  23 -1.263974E+05 -2.477417E+03 -6.227965E+03  1.887205E+03  5.325705E+03  1.098388E+04
       430  24 -1.274339E+05 -3.337108E+02 -3.680839E+03  1.942220E+03  2.112169E+03  1.386962E+04
       430  25 -3.376780E+05 -6.313631E+04 -6.161115E+04  8.966952E+03  2.574802E+04  3.191929E+03
       430  26 -3.338671E+05 -5.195526E+04 -4.609570E+04  5.073858E+03  1.429285E+04  1.098525E+04
       430  27 -3.335620E+05 -4.884591E+04 -4.005692E+04  1.292152E+03  2.837638E+03  1.387014E+04
       431   1  7.758291E+04  4.758405E+04  3.279671E+04  1.793089E+03 -3.153795E+02 -1.403014E+04
       431   2  7.560277E+04  4.738329E+04  3.245784E+04  1.708597E+03  9.454196E+00 -1.456158E+04
       431   3  7.352055E+04  4.692659E+04  3.184473E+04  2.057184E+03  3.341980E+02 -1.462163E+04
       431   4 -1.270262E+05 -5.000943E+02 -3.011305E+03  2.013849E+03 -1.604044E+03 -1.403077E+04
       431   5 -1.269062E+05 -5.965969E+01 -2.243874E+03  1.797246E+03 -4.874421E+02 -1.456211E+04
       431   6 -1.270259E+05 -1.268832E+01 -2.300654E+03  2.013732E+03  6.290592E+02 -1.462198E+04
       431   7 -3.315943E+05 -4.858652E+04 -3.882081E+04  2.234532E+03 -2.892296E+03 -1.403140E+04
       431   8 -3.293750E+05 -4.750479E+04 -3.694696E+04  1.885863E+03 -9.841814E+02 -1.456264E+04
       431   9 -3.275328E+05 -4.695410E+04 -3.644736E+04  1.970293E+03  9.238281E+02 -1.462234E+04
       431  10  7.758286E+04  4.758384E+04  3.279634E+04  1.793086E+03  2.336954E-09  4.261173E-10
       431  11  7.560271E+04  4.738306E+04  3.245744E+04  1.708597E+03  1.964647E-09  8.858479E-10
       431  12  7.352049E+04  4.692636E+04  3.184433E+04  2.057188E+03  2.887106E-09  1.098103E-09
       431  13 -1.270263E+05 -5.003063E+02 -3.011680E+03  2.013831E+03  1.751238E-11  3.448722E-10
       431  14 -1.269063E+05 -5.988745E+01 -2.244273E+03  1.797240E+03 -3.300680E-11  1.159635E-09
       431  15 -1.270260E+05 -1.291800E+01 -2.301057E+03  2.013740E+03  4.619620E-11  1.024177E-09
       431  16 -3.315944E+05 -4.858673E+04 -3.882120E+04  2.234499E+03 -2.310776E-09  1.892057E-10
       431  17 -3.293750E+05 -4.750502E+04 -3.694736E+04  1.885851E+03 -2.056004E-09  1.210401E-09
       431  18 -3.275329E+05 -4.695433E+04 -3.644777E+04  1.970304E+03 -2.681709E-09  1.340571E-09
       431  19  7.758291E+04  4.758405E+04  3.279671E+04  1.793089E+03  3.153795E+02  1.403014E+04
       431  20  7.560277E+04  4.738329E+04  3.245784E+04  1.708597E+03 -9.454196E+00  1.456158E+04
       431  21  7.352055E+04  4.692659E+04  3.184473E+04  2.057184E+03 -3.341980E+02  1.462163E+04
       431  22 -1.270262E+05 -5.000943E+02 -3.011305E+03  2.013849E+03  1.604044E+03  1.403077E+04
       431  23 -1.269062E+05 -5.965969E+01 -2.243874E+03  1.797246E+03  4.874421E+02  1.456211E+04
       431  24 -1.270259E+05 -1.268832E+01 -2.300654E+03  2.013732E+03 -6.290592E+02  1.462198E+04
       431  25 -3.315943E+05 -4.858652E+04 -3.882081E+04  2.234532E+03  2.892296E+03  1.403140E+04
       431  26 -3.293750E+05 -4.750479E+04 -3.694696E+04  1.885863E+03  9.841814E+02  1.456264E+04
       431  27 -3.275328E+05 -4.695410E+04 -3.644736E+04  1.970293E+03 -9.238281E+02  1.462234E+04
       432   1  7.214107E+04  4.663265E+04  3.131795E+04  1.884329E+03  8.556213E+02 -1.453386E+04
       432   2  7.027540E+04  4.598689E+04  2.991117E+04  1.997639E+03  2.047008E+03 -1.419851E+04
       432   3  6.806658E+04  4.457395E+04  2.753802E+04  2.602625E+03  3.238228E+03 -1.343244E+04
       432   4 -1.270767E+05  6.450812E+00 -2.591131E+03  2.026706E+03  1.056437E+03 -1.453422E+04
       432   5 -1.268423E+05 -1.878384E+02 -3.839340E+03  1.781042E+03  2.971023E+03 -1.419864E+04
       432   6 -1.270766E+05 -1.275020E+03 -6.556407E+03  2.027058E+03  4.885454E+03 -1.343226E+04
       432   7 -3.262555E+05 -4.662185E+04 -3.650151E+04  2.169034E+03  1.257190E+03 -1.453459E+04
       432   8 -3.239218E+05 -4.636464E+04 -3.759115E+04  1.564512E+03  3.894754E+03 -1.419877E+04
       432   9 -3.221825E+05 -4.712605E+04 -4.065218E+04  1.451674E+03  6.532178E+03 -1.343208E+04
       432  10  7.214101E+04  4.663242E+04  3.131755E+04  1.884339E+03  1.480431E-09  8.161638E-10
       432  11  7.027535E+04  4.598667E+04  2.991079E+04  1.997663E+03  9.978610E-10  4.605426E-10
       432  12  6.806652E+04  4.457375E+04  2.753766E+04  2.602660E+03  1.026789E-09 -1.808776E-10
       432  13 -1.270768E+05  6.223686E+00 -2.591530E+03  2.026719E+03  7.921809E-12  7.464956E-10
       432  14 -1.268423E+05 -1.880573E+02 -3.839735E+03  1.781076E+03  1.316769E-11  3.487577E-10
       432  15 -1.270767E+05 -1.275220E+03 -6.556791E+03  2.027111E+03  1.743106E-10  6.601203E-11
       432  16 -3.262556E+05 -4.662208E+04 -3.650191E+04  2.169049E+03 -1.764957E-09  8.419120E-10
       432  17 -3.239218E+05 -4.636486E+04 -3.759156E+04  1.564557E+03 -1.268769E-09  1.059689E-09
       432  18 -3.221826E+05 -4.712626E+04 -4.065260E+04  1.451745E+03 -1.113686E-09  5.189589E-10
       432  19  7.214107E+04  4.663265E+04  3.131795E+04  1.884329E+03 -8.556213E+02  1.453386E+04
       432  20  7.027540E+04  4.598689E+04  2.991117E+04  1.997639E+03 -2.047008E+03  1.419851E+04
       432  21  6.806658E+04  4.457395E+04  2.753802E+04  2.602625E+03 -3.238228E+03  1.343244E+04
       432  22 -1.270767E+05  6.450812E+00 -2.591131E+03  2.026706E+03 -1.056437E+03  1.453422E+04
       432  23 -1.268423E+05 -1.878384E+02 -3.839340E+03  1.781042E+03 -2.971023E+03  1.419864E+04
       432  24 -1.270766E+05 -1.275020E+03 -6.556407E+03  2.027058E+03 -4.885454E+03  1.343226E+04
       432  25 -3.262555E+05 -4.662185E+04 -3.650151E+04  2.169034E+03 -1.257190E+03  1.453459E+04
       432  26 -3.239218E+05 -4.636464E+04 -3.759115E+04  1.564512E+03 -3.894754E+03  1.419877E+04
       432  27 -3.221825E+05 -4.712605E+04 -4.065218E+04  1.451674E+03 -6.532178E+03  1.343208E+04
       433   1  6.590344E+04  4.478850E+04  2.565800E+04  5.024369E+02  4.862969E+03 -1.311690E+04
       433   2  6.583034E+04  3.939791E+04  2.137766E+04  9.742601E+03  5.346123E+03 -1.023399E+04
       433   3  6.185870E+04  1.865176E+04  1.294408E+04  1.976860E+04  5.827308E+03 -2.945533E+03
       433   4 -1.281244E+05 -8.486610E+02 -8.501775E+03  2.090933E+03  6.003851E+03 -1.311683E+04
       433   5 -1.255327E+05 -6.213008E+03 -1.527020E+04  1.702951E+03  1.388739E+04 -1.023095E+04
       433   6 -1.281257E+05 -2.822068E+04 -3.133238E+04  2.101053E+03  2.176885E+04 -2.938910E+03
       433   7 -3.221153E+05 -4.648787E+04 -4.266291E+04  3.678915E+03  7.144387E+03 -1.311677E+04
       433   8 -3.168601E+05 -5.182580E+04 -5.191943E+04 -6.334166E+03  2.242609E+04 -1.022813E+04
       433   9 -3.180757E+05 -7.509436E+04 -7.561017E+04 -1.556105E+04  3.770554E+04 -2.933194E+03
       433  10  6.590337E+04  4.478831E+04  2.565763E+04  5.024883E+02  4.221015E-10 -6.104843E-10
       433  11  6.583028E+04  3.939779E+04  2.137741E+04  9.742645E+03 -9.364211E-11 -1.139221E-09
       433  12  6.185867E+04  1.865174E+04  1.294400E+04  1.976861E+04 -3.306086E-10 -3.383764E-10
       433  13 -1.281245E+05 -8.488554E+02 -8.502167E+03  2.090997E+03  4.592044E-10 -1.458679E-09
       433  14 -1.255329E+05 -6.213172E+03 -1.527076E+04  1.703066E+03 -2.271602E-10  9.456750E-10
       433  15 -1.281262E+05 -2.822081E+04 -3.133329E+04  2.101104E+03  1.800243E-10  6.905434E-12
       433  16 -3.221154E+05 -4.648807E+04 -4.266333E+04  3.678991E+03 -5.823633E-10  1.602234E-10
       433  17 -3.168607E+05 -5.182605E+04 -5.192057E+04 -6.333982E+03 -1.433306E-10  7.633628E-10
       433  18 -3.180772E+05 -7.509475E+04 -7.561286E+04 -1.556096E+04  5.436689E-10 -3.150369E-10
       433  19  6.590344E+04  4.478850E+04  2.565800E+04  5.024369E+02 -4.862969E+03  1.311690E+04
       433  20  6.583034E+04  3.939791E+04  2.137766E+04  9.742601E+03 -5.346123E+03  1.023399E+04
       433  21  6.185870E+04  1.865176E+04  1.294408E+04  1.976860E+04 -5.827308E+03  2.945533E+03
       433  22 -1.281244E+05 -8.486610E+02 -8.501775E+03  2.090933E+03 -6.003851E+03  1.311683E+04
       433  23 -1.255327E+05 -6.213008E+03 -1.527020E+04  1.702951E+03 -1.388739E+04  1.023095E+04
       433  24 -1.281257E+05 -2.822068E+04 -3.133238E+04  2.101053E+03 -2.176885E+04  2.938910E+03
       433  25 -3.221153E+05 -4.648787E+04 -4.266291E+04  3.678915E+03 -7.144387E+03  1.311677E+04
       433  26 -3.168601E+05 -5.182580E+04 -5.191943E+04 -6.334166E+03 -2.242609E+04  1.022813E+04
       433  27 -3.180757E+05 -7.509436E+04 -7.561017E+04 -1.556105E+04 -3.770554E+04  2.933194E+03
       434   1 -8.967785E+04 -4.247629E+05 -8.514195E+04  9.106988E+04 -4.219490E+03 -2.104991E+04
       434   2 -6.742918E+04 -3.306067E+05 -5.297935E+04  8.216404E+04 -1.260510E+04 -7.334109E+03
       434   3 -4.535181E+04 -2.382613E+05 -2.979264E+04  9.384152E+04 -1.153068E+04  6.384580E+03
       434   4  4.116277E+03 -4.600412E+04  4.960748E+03  9.390697E+04 -4.216922E+03  9.765137E+02
       434   5  8.655180E+02 -4.646497E+04  4.286179E+03  8.361589E+04 -1.260370E+04 -1.191728E+03
       434   6  2.022648E+02 -4.598698E+04  5.670621E+03  9.390737E+04 -1.153249E+04 -3.359459E+03
       434   7  9.790036E+04  3.328875E+05  9.505524E+04  9.674579E+04 -4.214154E+03  2.301631E+04
       434   8  6.915524E+04  2.377538E+05  6.154770E+04  8.506841E+04 -1.260227E+04  4.953411E+03
       434   9  4.575428E+04  1.463234E+05  4.113270E+04  9.397324E+04 -1.153429E+04 -1.310644E+04
       434  10 -8.967799E+04 -4.247634E+05 -8.514282E+04  9.106981E+04  6.943008E-11 -1.150288E-10
       434  11 -6.742936E+04 -3.306068E+05 -5.297975E+04  8.216397E+04 -5.751315E-12 -4.243134E-11
       434  12 -4.535196E+04 -2.382614E+05 -2.979297E+04  9.384157E+04 -4.026047E-11  1.288281E-10
       434  13  4.116258E+03 -4.600413E+04  4.960713E+03  9.390697E+04  4.228522E-11 -2.690168E-11
       434  14  8.653470E+02 -4.646502E+04  4.285878E+03  8.361588E+04  1.064019E-10 -2.899041E-11
       434  15  2.021190E+02 -4.598703E+04  5.670350E+03  9.390734E+04 -4.093265E-11  1.418245E-10
       434  16  9.790019E+04  3.328869E+05  9.505421E+04  9.674587E+04 -1.371551E-10  2.089747E-10
       434  17  6.915507E+04  2.377537E+05  6.154736E+04  8.506846E+04 -1.034064E-10  1.005069E-11
       434  18  4.575409E+04  1.463232E+05  4.113213E+04  9.397312E+04 -3.880988E-12 -1.078664E-10
       434  19 -8.967785E+04 -4.247629E+05 -8.514195E+04  9.106988E+04  4.219490E+03  2.104991E+04
       434  20 -6.742918E+04 -3.306067E+05 -5.297935E+04  8.216404E+04  1.260510E+04  7.334109E+03
       434  21 -4.535181E+04 -2.382613E+05 -2.979264E+04  9.384152E+04  1.153068E+04 -6.384580E+03
       434  22  4.116277E+03 -4.600412E+04  4.960748E+03  9.390697E+04  4.216922E+03 -9.765137E+02
       434  23  8.655180E+02 -4.646497E+04  4.286179E+03  8.361589E+04  1.260370E+04  1.191728E+03
       434  24  2.022648E+02 -4.598698E+04  5.670621E+03  9.390737E+04  1.153249E+04  3.359459E+03
       434  25  9.790036E+04  3.328875E+05  9.505524E+04  9.674579E+04  4.214154E+03 -2.301631E+04
       434  26  6.915524E+04  2.377538E+05  6.154770E+04  8.506841E+04  1.260227E+04 -4.953411E+03
       434  27  4.575428E+04  1.463234E+05  4.113270E+04  9.397324E+04  1.153429E+04  1.310644E+04
       435   1 -3.085276E+04 -1.768673E+05 -1.706360E+04  9.323361E+04 -7.935358E+03  4.300843E+03
       435   2 -8.193984E+03 -8.438865E+04  4.996424E+03  8.388314E+04 -2.656567E+03 -1.195509E+03
       435   3  1.735162E+04  9.533004E+03  3.135507E+04  9.568648E+04  2.778303E+03 -6.692844E+03
       435   4  1.670113E+02 -4.586276E+04  7.011337E+03  9.403431E+04 -7.937254E+03 -4.437232E+03
       435   5  6.721583E+02 -4.660182E+04  1.153861E+04  8.345711E+04 -2.658644E+03 -1.019662E+04
       435   6  4.110320E+03 -4.586011E+04  2.054755E+04  9.403346E+04  2.776045E+03 -1.595622E+04
       435   7  3.118585E+04  8.515862E+04  3.108585E+04  9.483518E+04 -7.939173E+03 -1.317710E+04
       435   8  9.538268E+03 -8.813413E+03  1.808105E+04  8.303105E+04 -2.660709E+03 -1.919827E+04
       435   9 -9.131105E+03 -1.012501E+05  9.740212E+03  9.238060E+04  2.773835E+03 -2.521880E+04
       435  10 -3.085283E+04 -1.768673E+05 -1.706375E+04  9.323364E+04 -6.292506E-11 -1.708553E-10
       435  11 -8.193992E+03 -8.438866E+04  4.996408E+03  8.388313E+04 -7.228141E-11  1.676206E-11
       435  12  1.735160E+04  9.532954E+03  3.135498E+04  9.568650E+04  6.384173E-11  1.755981E-10
       435  13  1.669383E+02 -4.586279E+04  7.011181E+03  9.403428E+04  7.661344E-11  7.334086E-11
       435  14  6.721228E+02 -4.660193E+04  1.153840E+04  8.345709E+04  2.687772E-10 -1.187292E-10
       435  15  4.110243E+03 -4.586038E+04  2.054706E+04  9.403350E+04 -1.192054E-10  2.334552E-10
       435  16  3.118573E+04  8.515842E+04  3.108541E+04  9.483510E+04  1.059770E-11 -1.220120E-11
       435  17  9.538162E+03 -8.813811E+03  1.808034E+04  8.303101E+04  1.872098E-10 -6.189987E-11
       435  18 -9.131284E+03 -1.012508E+05  9.739002E+03  9.238065E+04  2.355456E-10 -1.202825E-10
       435  19 -3.085276E+04 -1.768673E+05 -1.706360E+04  9.323361E+04  7.935358E+03 -4.300843E+03
       435  20 -8.193984E+03 -8.438865E+04  4.996424E+03  8.388314E+04  2.656567E+03  1.195509E+03
       435  21  1.735162E+04  9.533004E+03  3.135507E+04  9.568648E+04 -2.778303E+03  6.692844E+03
       435  22  1.670113E+02 -4.586276E+04  7.011337E+03  9.403431E+04  7.937254E+03  4.437232E+03
       435  23  6.721583E+02 -4.660182E+04  1.153861E+04  8.345711E+04  2.658644E+03  1.019662E+04
       435  24  4.110320E+03 -4.586011E+04  2.054755E+04  9.403346E+04 -2.776045E+03  1.595622E+04
       435  25  3.118585E+04  8.515862E+04  3.108585E+04  9.483518E+04  7.939173E+03  1.317710E+04
       435  26  9.538268E+03 -8.813413E+03  1.808105E+04  8.303105E+04  2.660709E+03  1.919827E+04
       435  27 -9.131105E+03 -1.012501E+05  9.740212E+03  9.238060E+04 -2.773835E+03  2.521880E+04
       436   1  3.047861E+04  7.409218E+04  4.896097E+04  8.867013E+04  6.455328E+03 -9.417537E+03
       436   2  7.017668E+04  1.579377E+05  9.144067E+04  1.090907E+05  8.587600E+03 -4.745667E+04
       436   3  1.653250E+05  2.606052E+05  1.725455E+05  1.502234E+05  3.034675E+03 -8.550145E+04
       436   4  2.744914E+03 -4.250640E+04  2.687600E+04  9.393542E+04  6.452951E+03 -1.946746E+04
       436   5  1.986500E+04 -5.080224E+04  4.866409E+04  8.357519E+04  8.590324E+03 -4.459193E+04
       436   6  9.020226E+04 -4.251693E+04  1.001168E+05  9.392265E+04  3.045086E+03 -6.971611E+04
       436   7 -2.498942E+04 -1.590916E+05  4.790830E+03  9.919969E+04  6.450404E+03 -2.951553E+04
       436   8 -3.044697E+04 -2.594994E+05  5.885577E+03  5.806839E+04  8.592814E+03 -4.172814E+04
       436   9  1.508488E+04 -3.455475E+05  2.768428E+04  3.764948E+04  3.052638E+03 -5.393843E+04
       436  10  3.047854E+04  7.409207E+04  4.896072E+04  8.867018E+04  1.688605E-11 -1.317584E-10
       436  11  7.017599E+04  1.579352E+05  9.143630E+04  1.090910E+05 -6.392609E-11 -1.360578E-10
       436  12  1.653231E+05  2.605974E+05  1.725318E+05  1.502236E+05  2.173201E-11 -1.516046E-10
       436  13  2.744767E+03 -4.250681E+04  2.687521E+04  9.393552E+04  7.531628E-11  9.947893E-11
       436  14  1.986439E+04 -5.080440E+04  4.866022E+04  8.357550E+04  1.314235E-10 -6.718110E-11
       436  15  9.020095E+04 -4.252215E+04  1.001077E+05  9.392282E+04  6.046798E-11  3.147164E-11
       436  16 -2.498970E+04 -1.590925E+05  4.789115E+03  9.919985E+04  3.234704E-10 -2.629203E-11
       436  17 -3.044752E+04 -2.595013E+05  5.882164E+03  5.806868E+04  9.748598E-11  1.507486E-10
       436  18  1.508409E+04 -3.455507E+05  2.767879E+04  3.764962E+04 -3.552194E-12  1.528409E-10
       436  19  3.047861E+04  7.409218E+04  4.896097E+04  8.867013E+04 -6.455328E+03  9.417537E+03
       436  20  7.017668E+04  1.579377E+05  9.144067E+04  1.090907E+05 -8.587600E+03  4.745667E+04
       436  21  1.653250E+05  2.606052E+05  1.725455E+05  1.502234E+05 -3.034675E+03  8.550145E+04
       436  22  2.744914E+03 -4.250640E+04  2.687600E+04  9.393542E+04 -6.452951E+03  1.946746E+04
       436  23  1.986500E+04 -5.080224E+04  4.866409E+04  8.357519E+04 -8.590324E+03  4.459193E+04
       436  24  9.020226E+04 -4.251693E+04  1.001168E+05  9.392265E+04 -3.045086E+03  6.971611E+04
       436  25 -2.498942E+04 -1.590916E+05  4.790830E+03  9.919969E+04 -6.450404E+03  2.951553E+04
       436  26 -3.044697E+04 -2.594994E+05  5.885577E+03  5.806839E+04 -8.592814E+03  4.172814E+04
       436  27  1.508488E+04 -3.455475E+05  2.768428E+04  3.764948E+04 -3.052638E+03  5.393843E+04
       437   1  1.178052E+05  1.123799E+05  5.592465E+04  5.796528E+04  1.709546E+04  8.641589E+03
       437   2  1.084263E+05  1.018606E+05  4.317782E+04  5.386083E+04  1.413460E+04 -3.512905E+03
       437   3  9.867627E+04  9.595392E+04  3.731740E+04  5.021051E+04  7.873690E+03 -1.126716E+04
       437   4 -5.081245E+04 -8.843468E+03  1.472294E+03 -2.631164E+04  2.717563E+03 -2.143978E+03
       437   5 -5.005457E+04 -1.075724E+04  8.176239E+02 -2.623045E+04  7.151037E+03 -8.752410E+03
       437   6 -5.127229E+04 -9.662522E+03  6.314714E+02 -2.569519E+04  8.283724E+03 -1.096002E+04
       437   7 -2.193995E+05 -1.300508E+05 -5.298258E+04 -1.105625E+05 -1.165503E+04 -1.292550E+04
       437   8 -2.085085E+05 -1.233612E+05 -4.154505E+04 -1.062989E+05  1.698057E+02 -1.399015E+04
       437   9 -2.011977E+05 -1.152674E+05 -3.605701E+04 -1.015811E+05  8.693633E+03 -1.065298E+04
       437  10  1.178048E+05  1.123797E+05  5.592396E+04  5.796516E+04 -1.831629E-10  4.091162E-12
       437  11  1.084261E+05  1.018606E+05  4.317742E+04  5.386087E+04 -2.919209E-10  4.122388E-10
       437  12  9.867617E+04  9.595377E+04  3.731705E+04  5.021058E+04  1.729074E-10  1.995807E-10
       437  13 -5.081246E+04 -8.843475E+03  1.472271E+03 -2.631164E+04  1.854281E-11 -1.697723E-11
       437  14 -5.005464E+04 -1.075734E+04  8.173838E+02 -2.623040E+04 -1.519067E-10 -9.251602E-11
       437  15 -5.127240E+04 -9.662670E+03  6.311167E+02 -2.569512E+04  1.648852E-10 -2.302332E-10
       437  16 -2.193997E+05 -1.300510E+05 -5.298315E+04 -1.105627E+05  7.930664E-11  1.156179E-10
       437  17 -2.085086E+05 -1.233614E+05 -4.154542E+04 -1.062989E+05 -1.736568E-10  1.131986E-10
       437  18 -2.011978E+05 -1.152676E+05 -3.605736E+04 -1.015810E+05 -2.602401E-10 -3.079790E-10
       437  19  1.178052E+05  1.123799E+05  5.592465E+04  5.796528E+04 -1.709546E+04 -8.641589E+03
       437  20  1.084263E+05  1.018606E+05  4.317782E+04  5.386083E+04 -1.413460E+04  3.512905E+03
       437  21  9.867627E+04  9.595392E+04  3.731740E+04  5.021051E+04 -7.873690E+03  1.126716E+04
       437  22 -5.081245E+04 -8.843468E+03  1.472294E+03 -2.631164E+04 -2.717563E+03  2.143978E+03
       437  23 -5.005457E+04 -1.075724E+04  8.176239E+02 -2.623045E+04 -7.151037E+03  8.752410E+03
       437  24 -5.127229E+04 -9.662522E+03  6.314714E+02 -2.569519E+04 -8.283724E+03  1.096002E+04
       437  25 -2.193995E+05 -1.300508E+05 -5.298258E+04 -1.105625E+05  1.165503E+04  1.292550E+04
       437  26 -2.085085E+05 -1.233612E+05 -4.154505E+04 -1.062989E+05 -1.698057E+02  1.399015E+04
       437  27 -2.011977E+05 -1.152674E+05 -3.605701E+04 -1.015811E+05 -8.693633E+03  1.065298E+04
       438   1  9.222643E+04  9.170205E+04  3.547443E+04  4.711066E+04  8.124360E+03 -1.072784E+04
       438   2  8.419340E+04  8.363379E+04  3.259220E+04  4.208835E+04  7.057423E+03 -1.130723E+04
       438   3  7.360057E+04  7.852237E+04  3.054018E+04  3.787819E+04  5.696065E+03 -1.149428E+04
       438   4 -5.136987E+04 -9.590696E+03  6.283871E+02 -2.570305E+04  8.032718E+03 -1.079708E+04
       438   5 -5.003177E+04 -1.102274E+04  7.614317E+02 -2.608921E+04  7.625145E+03 -1.088169E+04
       438   6 -5.139705E+04 -9.641017E+03  1.152289E+03 -2.566333E+04  6.923075E+03 -1.057393E+04
       438   7 -1.949397E+05 -1.108690E+05 -3.421817E+04 -9.849595E+04  7.941106E+03 -1.086629E+04
       438   8 -1.842347E+05 -1.056673E+05 -3.107005E+04 -9.424903E+04  8.192698E+03 -1.045627E+04
       438   9 -1.763764E+05 -9.779476E+04 -2.823654E+04 -8.918995E+04  8.149753E+03 -9.653818E+03
       438  10  9.222632E+04  9.170190E+04  3.547409E+04  4.711073E+04 -5.446111E-11  4.578948E-11
       438  11  8.419332E+04  8.363364E+04  3.259186E+04  4.208842E+04  4.648982E-11  6.305389E-11
       438  12  7.360050E+04  7.852222E+04  3.053987E+04  3.787824E+04  9.145566E-11 -1.232092E-10
       438  13 -5.136997E+04 -9.590839E+03  6.280468E+02 -2.570298E+04  1.147464E-10 -7.216782E-11
       438  14 -5.003186E+04 -1.102288E+04  7.611000E+02 -2.608914E+04 -1.970447E-10 -3.959807E-10
       438  15 -5.139714E+04 -9.641150E+03  1.151989E+03 -2.566327E+04  2.289234E-11 -7.117890E-11
       438  16 -1.949398E+05 -1.108692E+05 -3.421851E+04 -9.849588E+04  7.552288E-11 -2.430108E-10
       438  17 -1.842348E+05 -1.056675E+05 -3.107038E+04 -9.424896E+04 -8.871139E-13  3.745979E-10
       438  18 -1.763765E+05 -9.779487E+04 -2.823684E+04 -8.918989E+04 -2.155722E-10 -4.512701E-10
       438  19  9.222643E+04  9.170205E+04  3.547443E+04  4.711066E+04 -8.124360E+03  1.072784E+04
       438  20  8.419340E+04  8.363379E+04  3.259220E+04  4.208835E+04 -7.057423E+03  1.130723E+04
       438  21  7.360057E+04  7.852237E+04  3.054018E+04  3.787819E+04 -5.696065E+03  1.149428E+04
       438  22 -5.136987E+04 -9.590696E+03  6.283871E+02 -2.570305E+04 -8.032718E+03  1.079708E+04
       438  23 -5.003177E+04 -1.102274E+04  7.614317E+02 -2.608921E+04 -7.625145E+03  1.088169E+04
       438  24 -5.139705E+04 -9.641017E+03  1.152289E+03 -2.566333E+04 -6.923075E+03  1.057393E+04
       438  25 -1.949397E+05 -1.108690E+05 -3.421817E+04 -9.849595E+04 -7.941106E+03  1.086629E+04
       438  26 -1.842347E+05 -1.056673E+05 -3.107005E+04 -9.424903E+04 -8.192698E+03  1.045627E+04
       438  27 -1.763764E+05 -9.779476E+04 -2.823654E+04 -8.918995E+04 -8.149753E+03  9.653818E+03
       439   1  6.751787E+04  7.430972E+04  2.936277E+04  3.484871E+04  5.228547E+03 -1.117031E+04
       439   2  5.954175E+04  6.639925E+04  2.817597E+04  2.972698E+04  3.625186E+03 -1.123980E+04
       439   3  4.895994E+04  6.145378E+04  2.788872E+04  2.544932E+04  1.988161E+03 -1.126460E+04
       439   4 -5.138807E+04 -9.628363E+03  1.471285E+03 -2.564228E+04  6.409945E+03 -1.028411E+04
       439   5 -5.006159E+04 -1.107481E+04  2.485254E+03 -2.608520E+04  4.881910E+03 -1.029696E+04
       439   6 -5.135682E+04 -9.572770E+03  4.333522E+03 -2.568413E+04  3.320211E+03 -1.026512E+04
       439   7 -1.702797E+05 -9.355927E+04 -2.642180E+04 -8.612085E+04  7.591062E+03 -9.398121E+03
       439   8 -1.596509E+05 -8.854145E+04 -2.320620E+04 -8.188592E+04  6.138338E+03 -9.354340E+03
       439   9 -1.516600E+05 -8.059180E+04 -1.922168E+04 -7.680707E+04  4.651949E+03 -9.265877E+03
       439  10  6.751780E+04  7.430958E+04  2.936248E+04  3.484875E+04 -9.192015E-11 -2.581470E-11
       439  11  5.954170E+04  6.639912E+04  2.817571E+04  2.972702E+04 -6.052042E-11  2.487034E-10
       439  12  4.895990E+04  6.145365E+04  2.788848E+04  2.544934E+04  1.082350E-10  8.458734E-10
       439  13 -5.138814E+04 -9.628488E+03  1.471009E+03 -2.564222E+04  1.702434E-10 -4.747694E-11
       439  14 -5.006164E+04 -1.107493E+04  2.485010E+03 -2.608516E+04 -2.299354E-10  7.664619E-11
       439  15 -5.135686E+04 -9.572886E+03  4.333304E+03 -2.568410E+04  1.399624E-10  7.031084E-10
       439  16 -1.702797E+05 -9.355938E+04 -2.642207E+04 -8.612079E+04  2.501466E-10  1.881507E-10
       439  17 -1.596510E+05 -8.854156E+04 -2.320643E+04 -8.188588E+04  2.562748E-11  7.835458E-11
       439  18 -1.516601E+05 -8.059189E+04 -1.922188E+04 -7.680704E+04 -2.519689E-10 -7.991765E-11
       439  19  6.751787E+04  7.430972E+04  2.936277E+04  3.484871E+04 -5.228547E+03  1.117031E+04
       439  20  5.954175E+04  6.639925E+04  2.817597E+04  2.972698E+04 -3.625186E+03  1.123980E+04
       439  21  4.895994E+04  6.145378E+04  2.788872E+04  2.544932E+04 -1.988161E+03  1.126460E+04
       439  22 -5.138807E+04 -9.628363E+03  1.471285E+03 -2.564228E+04 -6.409945E+03  1.028411E+04
       439  23 -5.006159E+04 -1.107481E+04  2.485254E+03 -2.608520E+04 -4.881910E+03  1.029696E+04
       439  24 -5.135682E+04 -9.572770E+03  4.333522E+03 -2.568413E+04 -3.320211E+03  1.026512E+04
       439  25 -1.702797E+05 -9.355927E+04 -2.642180E+04 -8.612085E+04 -7.591062E+03  9.398121E+03
       439  26 -1.596509E+05 -8.854145E+04 -2.320620E+04 -8.188592E+04 -6.138338E+03  9.354340E+03
       439  27 -1.516600E+05 -8.059180E+04 -1.922168E+04 -7.680707E+04 -4.651949E+03  9.265877E+03
       440   1  4.268017E+04  5.760737E+04  2.779705E+04  2.265994E+04  9.617704E+02 -1.132301E+04
       440   2  3.562522E+04  4.886538E+04  3.003758E+04  1.665816E+04 -3.846666E+03 -1.361935E+04
       440   3  2.752042E+04  4.502767E+04  3.631430E+04  1.088683E+04 -8.740659E+03 -1.580177E+04
       440   4 -5.123749E+04 -9.540050E+03  5.699426E+03 -2.552481E+04  2.277313E+03 -1.033586E+04
       440   5 -5.002660E+04 -1.079158E+04  9.988476E+03 -2.652493E+04 -2.339047E+03 -1.248796E+04
       440   6 -4.990730E+04 -7.180184E+03  1.814729E+04 -2.729469E+04 -7.041075E+03 -1.452622E+04
       440   7 -1.451449E+05 -7.668192E+04 -1.639876E+04 -7.370107E+04  3.592592E+03 -9.348918E+03
       440   8 -1.356707E+05 -7.044475E+04 -1.006135E+04 -6.970154E+04 -8.316910E+02 -1.135676E+04
       440   9 -1.273295E+05 -5.938573E+04 -2.057476E+01 -6.547148E+04 -5.341745E+03 -1.325085E+04
       440  10  4.268014E+04  5.760724E+04  2.779681E+04  2.265995E+04  1.548557E-10  2.848933E-10
       440  11  3.562515E+04  4.886517E+04  3.003720E+04  1.665812E+04  4.464547E-11  7.671881E-11
       440  12  2.752027E+04  4.502738E+04  3.631369E+04  1.088672E+04 -3.175123E-10 -2.180023E-10
       440  13 -5.123752E+04 -9.540167E+03  5.699215E+03 -2.552479E+04  2.277166E-10 -3.598777E-10
       440  14 -5.002664E+04 -1.079175E+04  9.988172E+03 -2.652495E+04  1.218102E-10 -4.667366E-11
       440  15 -4.990741E+04 -7.180424E+03  1.814680E+04 -2.729477E+04 -2.981677E-10 -5.341816E-10
       440  16 -1.451450E+05 -7.668202E+04 -1.639895E+04 -7.370104E+04 -2.373276E-10 -1.294090E-10
       440  17 -1.356707E+05 -7.044488E+04 -1.006160E+04 -6.970155E+04 -1.015914E-10  1.031710E-10
       440  18 -1.273296E+05 -5.938593E+04 -2.095840E+01 -6.547154E+04  5.762779E-11 -2.164717E-12
       440  19  4.268017E+04  5.760737E+04  2.779705E+04  2.265994E+04 -9.617704E+02  1.132301E+04
       440  20  3.562522E+04  4.886538E+04  3.003758E+04  1.665816E+04  3.846666E+03  1.361935E+04
       440  21  2.752042E+04  4.502767E+04  3.631430E+04  1.088683E+04  8.740659E+03  1.580177E+04
       440  22 -5.123749E+04 -9.540050E+03  5.699426E+03 -2.552481E+04 -2.277313E+03  1.033586E+04
       440  23 -5.002660E+04 -1.079158E+04  9.988476E+03 -2.652493E+04  2.339047E+03  1.248796E+04
       440  24 -4.990730E+04 -7.180184E+03  1.814729E+04 -2.729469E+04  7.041075E+03  1.452622E+04
       440  25 -1.451449E+05 -7.668192E+04 -1.639876E+04 -7.370107E+04 -3.592592E+03  9.348918E+03
       440  26 -1.356707E+05 -7.044475E+04 -1.006135E+04 -6.970154E+04  8.316910E+02  1.135676E+04
       440  27 -1.273295E+05 -5.938573E+04 -2.057476E+01 -6.547148E+04  5.341745E+03  1.325085E+04
       441   1  1.709604E+04  4.706163E+04  4.063873E+04  1.159775E+04 -1.146763E+04 -1.704275E+04
       441   2  3.633378E+04  1.990847E+04  5.899187E+04 -1.223626E+04 -3.261139E+04 -3.048936E+04
       441   3  7.965075E+04  3.175593E+04  1.055768E+05 -5.089614E+04 -5.469180E+04 -4.268734E+04
       441   4 -4.845059E+04 -6.857427E+03  2.382859E+04 -2.526512E+04 -9.910163E+03 -1.587359E+04
       441   5 -4.621553E+04 -1.199204E+03  4.330805E+04 -3.656377E+04 -2.895688E+04 -2.774820E+04
       441   6 -2.035670E+04  4.300375E+04  8.920016E+04 -6.268879E+04 -4.893921E+04 -3.837605E+04
       441   7 -1.139912E+05 -6.077187E+04  7.018514E+03 -6.212259E+04 -8.352931E+03 -1.470464E+04
       441   8 -1.287549E+05 -2.230571E+04  2.762461E+04 -6.088871E+04 -2.530310E+04 -2.500716E+04
       441   9 -1.203473E+05  5.425535E+04  7.282496E+04 -7.448236E+04 -4.318806E+04 -3.406440E+04
       441  10  1.709582E+04  4.706129E+04  4.063794E+04  1.159759E+04  2.607758E-10  5.921579E-10
       441  11  3.633238E+04  1.990718E+04  5.898812E+04 -1.223707E+04 -3.572052E-10  2.705998E-10
       441  12  7.964705E+04  3.175317E+04  1.055678E+05 -5.089802E+04 -4.770263E-10 -7.777073E-11
       441  13 -4.845076E+04 -6.857724E+03  2.382793E+04 -2.526525E+04  5.416815E-10  8.256729E-10
       441  14 -4.621663E+04 -1.200255E+03  4.330503E+04 -3.656441E+04 -4.979153E-10  1.874000E-09
       441  15 -2.035966E+04  4.300153E+04  8.919289E+04 -6.269030E+04  1.887766E-10  3.101959E-10
       441  16 -1.139913E+05 -6.077212E+04  7.017976E+03 -6.212269E+04 -1.964987E-10  3.472561E-12
       441  17 -1.287558E+05 -2.230655E+04  2.762223E+04 -6.088922E+04  3.983007E-10  4.802877E-10
       441  18 -1.203496E+05  5.425361E+04  7.281927E+04 -7.448354E+04  2.309211E-10 -3.172093E-10
       441  19  1.709604E+04  4.706163E+04  4.063873E+04  1.159775E+04  1.146763E+04  1.704275E+04
       441  20  3.633378E+04  1.990847E+04  5.899187E+04 -1.223626E+04  3.261139E+04  3.048936E+04
       441  21  7.965075E+04  3.175593E+04  1.055768E+05 -5.089614E+04  5.469180E+04  4.268734E+04
       441  22 -4.845059E+04 -6.857427E+03  2.382859E+04 -2.526512E+04  9.910163E+03  1.587359E+04
       441  23 -4.621553E+04 -1.199204E+03  4.330805E+04 -3.656377E+04  2.895688E+04  2.774820E+04
       441  24 -2.035670E+04  4.300375E+04  8.920016E+04 -6.268879E+04  4.893921E+04  3.837605E+04
       441  25 -1.139912E+05 -6.077187E+04  7.018514E+03 -6.212259E+04  8.352931E+03  1.470464E+04
       441  26 -1.287549E+05 -2.230571E+04  2.762461E+04 -6.088871E+04  2.530310E+04  2.500716E+04
       441  27 -1.203473E+05  5.425535E+04  7.282496E+04 -7.448236E+04  4.318806E+04  3.406440E+04
       442   1  3.132080E+05  8.751157E+04  7.551815E+04  3.777024E+04  8.682675E+02 -7.353726E+03
       442   2  2.473174E+05  1.051826E+05  6.801374E+04  4.742996E+04 -7.684766E+03 -2.395528E+04
       442   3  1.761919E+05  9.740231E+04  5.972069E+04  7.173511E+04 -1.624263E+04 -2.711586E+04
       442   4 -2.427774E+05 -4.982814E+04 -5.541885E+04  6.867212E+04 -3.829795E+04 -7.376714E+03
       442   5 -2.381801E+05 -1.092781E+04 -2.715870E+04  6.133230E+04 -2.426741E+04 -2.396792E+04
       442   6 -2.427505E+05 -1.412108E+03 -1.537496E+04  6.863992E+04 -1.024260E+04 -2.711286E+04
       442   7 -7.984732E+05 -1.871855E+05 -1.863709E+05  9.954612E+04 -7.742929E+04 -7.403611E+03
       442   8 -7.234506E+05 -1.270516E+05 -1.223414E+05  7.522349E+04 -4.083736E+04 -2.398130E+04
       442   9 -6.615216E+05 -1.002362E+05 -9.047720E+04  6.554684E+04 -4.246506E+03 -2.710992E+04
       442  10  3.132080E+05  8.751151E+04  7.551805E+04  3.777025E+04  1.034130E-09 -2.971516E-10
       442  11  2.473172E+05  1.051820E+05  6.801255E+04  4.742982E+04  3.397129E-10 -1.622673E-09
       442  12  1.761914E+05  9.740145E+04  5.971881E+04  7.173476E+04  4.024397E-10 -1.336457E-09
       442  13 -2.427790E+05 -4.982859E+04 -5.542171E+04  6.867189E+04  2.386868E-10  2.586334E-10
       442  14 -2.381809E+05 -1.092859E+04 -2.716089E+04  6.133183E+04  1.507147E-10 -9.495959E-10
       442  15 -2.427508E+05 -1.412925E+03 -1.537654E+04  6.863970E+04  1.161180E-12 -1.005228E-10
       442  16 -7.984796E+05 -1.871872E+05 -1.863822E+05  9.954566E+04 -1.261447E-09  1.894839E-11
       442  17 -7.234525E+05 -1.270527E+05 -1.223456E+05  7.522270E+04  2.256145E-10 -2.121032E-09
       442  18 -6.615218E+05 -1.002370E+05 -9.047862E+04  6.554674E+04  1.522832E-10 -2.067058E-09
       442  19  3.132080E+05  8.751157E+04  7.551815E+04  3.777024E+04 -8.682675E+02  7.353726E+03
       442  20  2.473174E+05  1.051826E+05  6.801374E+04  4.742996E+04  7.684766E+03  2.395528E+04
       442  21  1.761919E+05  9.740231E+04  5.972069E+04  7.173511E+04  1.624263E+04  2.711586E+04
       442  22 -2.427774E+05 -4.982814E+04 -5.541885E+04  6.867212E+04  3.829795E+04  7.376714E+03
       442  23 -2.381801E+05 -1.092781E+04 -2.715870E+04  6.133230E+04  2.426741E+04  2.396792E+04
       442  24 -2.427505E+05 -1.412108E+03 -1.537496E+04  6.863992E+04  1.024260E+04  2.711286E+04
       442  25 -7.984732E+05 -1.871855E+05 -1.863709E+05  9.954612E+04  7.742929E+04  7.403611E+03
       442  26 -7.234506E+05 -1.270516E+05 -1.223414E+05  7.522349E+04  4.083736E+04  2.398130E+04
       442  27 -6.615216E+05 -1.002362E+05 -9.047720E+04  6.554684E+04  4.246506E+03  2.710992E+04
       443   1  1.327530E+05  8.584798E+04  5.426099E+04  6.807925E+04 -1.266264E+04 -2.478185E+04
       443   2  6.461482E+04  7.134436E+04  4.508129E+04  6.089602E+04 -1.081856E+04 -2.153802E+04
       443   3 -4.092375E+03  5.558137E+04  3.438177E+04  6.923578E+04 -8.976400E+03 -1.712488E+04
       443   4 -2.409100E+05 -2.151675E+03 -1.206560E+04  6.883859E+04 -8.193568E+03 -2.477962E+04
       443   5 -2.404459E+05 -2.175322E+02 -7.643923E+03  6.107584E+04 -4.386899E+03 -2.153353E+04
       443   6 -2.408957E+05  1.163945E+02 -6.105930E+03  6.883663E+04 -5.819304E+02 -1.711784E+04
       443   7 -6.144365E+05 -9.015902E+04 -7.839733E+04  6.959742E+04 -3.727109E+03 -2.477738E+04
       443   8 -5.454151E+05 -7.178441E+04 -6.037219E+04  6.125555E+04  2.041695E+03 -2.152904E+04
       443   9 -4.776437E+05 -5.535153E+04 -4.659523E+04  6.843762E+04  7.809438E+03 -1.711081E+04
       443  10  1.327527E+05  8.584728E+04  5.425954E+04  6.807900E+04 -2.176577E-09 -1.540807E-09
       443  11  6.461457E+04  7.134383E+04  4.508020E+04  6.089583E+04 -9.651481E-10  6.854794E-10
       443  12 -4.092541E+03  5.558103E+04  3.438106E+04  6.923566E+04  5.675247E-10  8.262121E-10
       443  13 -2.409102E+05 -2.152353E+03 -1.206688E+04  6.883842E+04  4.954692E-10 -8.259883E-10
       443  14 -2.404460E+05 -2.180352E+02 -7.644830E+03  6.107577E+04  3.328666E-10  2.647452E-10
       443  15 -2.408958E+05  1.160798E+02 -6.106481E+03  6.883662E+04  4.642094E-10 -6.689342E-10
       443  16 -6.144367E+05 -9.015968E+04 -7.839851E+04  6.959734E+04  1.915290E-09 -5.441308E-11
       443  17 -5.454152E+05 -7.178491E+04 -6.037307E+04  6.125559E+04  9.282357E-10  1.031377E-09
       443  18 -4.776439E+05 -5.535186E+04 -4.659589E+04  6.843773E+04 -9.741269E-11  3.896096E-10
       443  19  1.327530E+05  8.584798E+04  5.426099E+04  6.807925E+04  1.266264E+04  2.478185E+04
       443  20  6.461482E+04  7.134436E+04  4.508129E+04  6.089602E+04  1.081856E+04  2.153802E+04
       443  21 -4.092375E+03  5.558137E+04  3.438177E+04  6.923578E+04  8.976400E+03  1.712488E+04
       443  22 -2.409100E+05 -2.151675E+03 -1.206560E+04  6.883859E+04  8.193568E+03  2.477962E+04
       443  23 -2.404459E+05 -2.175322E+02 -7.643923E+03  6.107584E+04  4.386899E+03  2.153353E+04
       443  24 -2.408957E+05  1.163945E+02 -6.105930E+03  6.883663E+04  5.819304E+02  1.711784E+04
       443  25 -6.144365E+05 -9.015902E+04 -7.839733E+04  6.959742E+04  3.727109E+03  2.477738E+04
       443  26 -5.454151E+05 -7.178441E+04 -6.037219E+04  6.125555E+04 -2.041695E+03  2.152904E+04
       443  27 -4.776437E+05 -5.535153E+04 -4.659523E+04  6.843762E+04 -7.809438E+03  1.711081E+04
       444   1 -4.878781E+04  4.505356E+04  2.645407E+04  6.875179E+04 -7.813643E+03 -1.417528E+04
       444   2 -1.167409E+05  2.870915E+04  1.320861E+04  6.150519E+04 -3.735299E+03 -9.334943E+03
       444   3 -1.856558E+05  1.074583E+04 -3.105833E+03  6.984402E+04  3.423222E+02 -4.695474E+03
       444   4 -2.408906E+05  1.199161E+02 -6.083211E+03  6.885041E+04  4.798796E+02 -1.416796E+04
       444   5 -2.404342E+05 -1.800191E+02 -7.514990E+03  6.105856E+04  4.219648E+03 -9.327571E+03
       444   6 -2.408855E+05 -2.040048E+03 -1.178098E+04  6.885237E+04  7.959115E+03 -4.688074E+03
       444   7 -4.329569E+05 -4.481564E+04 -3.862143E+04  6.894899E+04  8.770919E+03 -1.416063E+04
       444   8 -3.641122E+05 -2.906995E+04 -2.823883E+04  6.061201E+04  1.217306E+04 -9.320210E+03
       444   9 -2.961120E+05 -1.482604E+04 -2.045598E+04  6.786081E+04  1.557526E+04 -4.680698E+03
       444  10 -4.878793E+04  4.505333E+04  2.645358E+04  6.875170E+04 -1.385332E-09  1.285735E-09
       444  11 -1.167409E+05  2.870905E+04  1.320842E+04  6.150516E+04 -2.060046E-10  1.039330E-09
       444  12 -1.856558E+05  1.074580E+04 -3.105875E+03  6.984402E+04  1.743320E-09 -2.952532E-10
       444  13 -2.408907E+05  1.197005E+02 -6.083588E+03  6.885041E+04  8.771733E-10 -1.140060E-09
       444  14 -2.404342E+05 -1.801173E+02 -7.515187E+03  6.105859E+04  4.941787E-10  1.227162E-09
       444  15 -2.408855E+05 -2.040089E+03 -1.178114E+04  6.885240E+04  2.988691E-11  1.597557E-09
       444  16 -4.329570E+05 -4.481588E+04 -3.862195E+04  6.894909E+04  1.093742E-09  6.714057E-10
       444  17 -3.641124E+05 -2.907009E+04 -2.823927E+04  6.061210E+04  3.959329E-10  1.524078E-09
       444  18 -2.961122E+05 -1.482613E+04 -2.045647E+04  6.786087E+04 -1.217617E-09  6.632919E-10
       444  19 -4.878781E+04  4.505356E+04  2.645407E+04  6.875179E+04  7.813643E+03  1.417528E+04
       444  20 -1.167409E+05  2.870915E+04  1.320861E+04  6.150519E+04  3.735299E+03  9.334943E+03
       444  21 -1.856558E+05  1.074583E+04 -3.105833E+03  6.984402E+04 -3.423222E+02  4.695474E+03
       444  22 -2.408906E+05  1.199161E+02 -6.083211E+03  6.885041E+04 -4.798796E+02  1.416796E+04
       444  23 -2.404342E+05 -1.800191E+02 -7.514990E+03  6.105856E+04 -4.219648E+03  9.327571E+03
       444  24 -2.408855E+05 -2.040048E+03 -1.178098E+04  6.885237E+04 -7.959115E+03  4.688074E+03
       444  25 -4.329569E+05 -4.481564E+04 -3.862143E+04  6.894899E+04 -8.770919E+03  1.416063E+04
       444  26 -3.641122E+05 -2.906995E+04 -2.823883E+04  6.061201E+04 -1.217306E+04  9.320210E+03
       444  27 -2.961120E+05 -1.482604E+04 -2.045598E+04  6.786081E+04 -1.557526E+04  4.680698E+03
       445   1 -2.322433E+05  8.860033E+02 -1.440843E+04  6.602163E+04  1.958504E+03 -1.850532E+03
       445   2 -2.957492E+05 -2.465685E+04 -3.952166E+04  7.484376E+04  2.139544E+04  1.205650E+03
       445   3 -3.692187E+05 -7.981174E+04 -8.470471E+04  9.904890E+04  4.083277E+04  8.104421E+02
       445   4 -2.426739E+05 -1.310487E+03 -1.498937E+04  6.880186E+04  9.958314E+03 -1.842685E+03
       445   5 -2.381978E+05 -1.055646E+04 -2.643071E+04  6.113089E+04  2.359805E+04  1.207291E+03
       445   6 -2.426820E+05 -4.840665E+04 -5.391358E+04  6.884508E+04  3.724040E+04  8.049913E+02
       445   7 -2.531041E+05 -3.506915E+03 -1.557005E+04  7.158204E+04  1.795800E+04 -1.834767E+03
       445   8 -1.806429E+05  3.544413E+03 -1.333986E+04  4.741673E+04  2.580086E+04  1.208834E+03
       445   9 -1.161286E+05 -1.699929E+04 -2.312308E+04  3.863509E+04  3.364731E+04  7.998910E+02
       445  10 -2.322433E+05  8.859986E+02 -1.440845E+04  6.602163E+04  1.318309E-10 -1.480887E-11
       445  11 -2.957497E+05 -2.465697E+04 -3.952252E+04  7.484374E+04  3.261022E-10  2.620536E-09
       445  12 -3.692205E+05 -7.981219E+04 -8.470784E+04  9.904887E+04  7.851049E-10  1.057472E-09
       445  13 -2.426740E+05 -1.310517E+03 -1.498956E+04  6.880187E+04  3.307267E-10  4.652081E-10
       445  14 -2.381984E+05 -1.055661E+04 -2.643176E+04  6.113087E+04  6.222517E-11  2.467400E-09
       445  15 -2.426835E+05 -4.840702E+04 -5.391619E+04  6.884506E+04  2.564890E-10 -2.425070E-10
       445  16 -2.531045E+05 -3.507005E+03 -1.557067E+04  7.158206E+04 -6.040934E-10  6.035015E-10
       445  17 -1.806436E+05  3.544233E+03 -1.334112E+04  4.741671E+04 -1.790806E-10  4.935188E-10
       445  18 -1.161298E+05 -1.699959E+04 -2.312521E+04  3.863507E+04 -4.993764E-10 -3.214248E-10
       445  19 -2.322433E+05  8.860033E+02 -1.440843E+04  6.602163E+04 -1.958504E+03  1.850532E+03
       445  20 -2.957492E+05 -2.465685E+04 -3.952166E+04  7.484376E+04 -2.139544E+04 -1.205650E+03
       445  21 -3.692187E+05 -7.981174E+04 -8.470471E+04  9.904890E+04 -4.083277E+04 -8.104421E+02
       445  22 -2.426739E+05 -1.310487E+03 -1.498937E+04  6.880186E+04 -9.958314E+03  1.842685E+03
       445  23 -2.381978E+05 -1.055646E+04 -2.643071E+04  6.113089E+04 -2.359805E+04 -1.207291E+03
       445  24 -2.426820E+05 -4.840665E+04 -5.391358E+04  6.884508E+04 -3.724040E+04 -8.049913E+02
       445  25 -2.531041E+05 -3.506915E+03 -1.557005E+04  7.158204E+04 -1.795800E+04  1.834767E+03
       445  26 -1.806429E+05  3.544413E+03 -1.333986E+04  4.741673E+04 -2.580086E+04 -1.208834E+03
       445  27 -1.161286E+05 -1.699929E+04 -2.312308E+04  3.863509E+04 -3.364731E+04 -7.998910E+02
       446   1 -8.855837E+04 -3.274764E+05 -8.365194E+04  9.777074E+04 -4.160019E+03 -1.897836E+04
       446   2 -6.636910E+04 -2.253442E+05 -5.102868E+04  8.880281E+04 -1.225134E+04 -5.828284E+03
       446   3 -4.284852E+04 -1.245506E+05 -2.663413E+04  1.022765E+05 -1.069775E+04  7.328396E+03
       446   4  6.673125E+03  5.704268E+04  7.936905E+03  1.021770E+05 -4.165418E+03  2.704145E+03
       446   5  1.373031E+03  5.632044E+04  5.993102E+03  9.095582E+04 -1.225206E+04 -3.426076E+02
       446   6  2.166665E+02  5.706134E+04  7.071164E+03  1.021753E+05 -1.069590E+04 -3.385217E+03
       446   7  1.018943E+05  4.416985E+05  9.951716E+04  1.065860E+05 -4.170508E+03  2.440002E+04
       446   8  6.911026E+04  3.380607E+05  6.301089E+04  9.310981E+04 -1.225275E+04  5.145511E+03
       446   9  4.328002E+04  2.387055E+05  4.077550E+04  1.020740E+05 -1.069405E+04 -1.410188E+04
       446  10 -8.855849E+04 -3.274768E+05 -8.365265E+04  9.777067E+04 -9.054347E-11 -4.035265E-10
       446  11 -6.636927E+04 -2.253443E+05 -5.102902E+04  8.880276E+04 -2.831556E-10 -8.332891E-10
       446  12 -4.284866E+04 -1.245507E+05 -2.663445E+04  1.022765E+05  5.793384E-11  1.570135E-10
       446  13  6.673105E+03  5.704267E+04  7.936859E+03  1.021770E+05  2.944088E-10 -1.013919E-11
       446  14  1.372870E+03  5.632040E+04  5.992820E+03  9.095581E+04 -5.718391E-10 -6.474129E-11
       446  15  2.165406E+02  5.706130E+04  7.070927E+03  1.021752E+05 -1.275149E-10 -4.986881E-10
       446  16  1.018941E+05  4.416978E+05  9.951601E+04  1.065860E+05 -1.273221E-10  4.481275E-10
       446  17  6.911010E+04  3.380607E+05  6.301056E+04  9.310986E+04 -3.918502E-11  3.186619E-10
       446  18  4.327985E+04  2.387052E+05  4.077491E+04  1.020739E+05 -1.348913E-10 -6.410842E-10
       446  19 -8.855837E+04 -3.274764E+05 -8.365194E+04  9.777074E+04  4.160019E+03  1.897836E+04
       446  20 -6.636910E+04 -2.253442E+05 -5.102868E+04  8.880281E+04  1.225134E+04  5.828284E+03
       446  21 -4.284852E+04 -1.245506E+05 -2.663413E+04  1.022765E+05  1.069775E+04 -7.328396E+03
       446  22  6.673125E+03  5.704268E+04  7.936905E+03  1.021770E+05  4.165418E+03 -2.704145E+03
       446  23  1.373031E+03  5.632044E+04  5.993102E+03  9.095582E+04  1.225206E+04  3.426076E+02
       446  24  2.166665E+02  5.706134E+04  7.071164E+03  1.021753E+05  1.069590E+04  3.385217E+03
       446  25  1.018943E+05  4.416985E+05  9.951716E+04  1.065860E+05  4.170508E+03 -2.440002E+04
       446  26  6.911026E+04  3.380607E+05  6.301089E+04  9.310981E+04  1.225275E+04 -5.145511E+03
       446  27  4.328002E+04  2.387055E+05  4.077550E+04  1.020740E+05  1.069405E+04  1.410188E+04
       447   1 -2.705998E+04 -5.785264E+04 -1.290317E+04  1.013907E+05 -6.755624E+03  5.007446E+03
       447   2 -2.473200E+03  4.268821E+04  1.105269E+04  9.127894E+04 -9.537459E+02 -1.585573E+03
       447   3  2.548491E+04  1.449595E+05  4.014732E+04  1.041819E+05  4.903822E+03 -8.179703E+03
       447   4  2.068164E+02  5.712607E+04  8.453126E+03  1.023029E+05 -6.754229E+03 -4.691288E+03
       447   5  7.105030E+02  5.625769E+04  1.340171E+04  9.079600E+04 -9.523831E+02 -1.137868E+04
       447   6  4.602598E+03  5.712682E+04  2.355516E+04  1.023035E+05  4.905161E+03 -1.806617E+04
       447   7  2.747291E+04  1.721178E+05  2.980921E+04  1.032152E+05 -6.752863E+03 -1.439177E+04
       447   8  3.894248E+03  6.982755E+04  1.575109E+04  9.031305E+04 -9.510050E+02 -2.117200E+04
       447   9 -1.628010E+04 -3.069815E+04  6.963031E+03  1.004255E+05  4.906560E+03 -2.795127E+04
       447  10 -2.706004E+04 -5.785267E+04 -1.290330E+04  1.013907E+05 -8.664427E-11 -9.926003E-11
       447  11 -2.473201E+03  4.268821E+04  1.105268E+04  9.127894E+04  1.813720E-10 -7.975002E-10
       447  12  2.548487E+04  1.449594E+05  4.014715E+04  1.041819E+05  2.140493E-10 -5.149479E-10
       447  13  2.067615E+02  5.712604E+04  8.452999E+03  1.023028E+05  7.435831E-11 -3.441708E-11
       447  14  7.104673E+02  5.625755E+04  1.340147E+04  9.079599E+04  4.096507E-10 -6.515679E-11
       447  15  4.602484E+03  5.712647E+04  2.355450E+04  1.023036E+05  1.433958E-10 -4.756294E-10
       447  16  2.747280E+04  1.721176E+05  2.980874E+04  1.032152E+05  1.393424E-10  6.770125E-11
       447  17  3.894127E+03  6.982707E+04  1.575025E+04  9.031303E+04 -1.038642E-10  4.854735E-10
       447  18 -1.628033E+04 -3.069899E+04  6.961518E+03  1.004256E+05 -1.686870E-10  1.421566E-10
       447  19 -2.705998E+04 -5.785264E+04 -1.290317E+04  1.013907E+05  6.755624E+03 -5.007446E+03
       447  20 -2.473200E+03  4.268821E+04  1.105269E+04  9.127894E+04  9.537459E+02  1.585573E+03
       447  21  2.548491E+04  1.449595E+05  4.014732E+04  1.041819E+05 -4.903822E+03  8.179703E+03
       447  22  2.068164E+02  5.712607E+04  8.453126E+03  1.023029E+05  6.754229E+03  4.691288E+03
       447  23  7.105030E+02  5.625769E+04  1.340171E+04  9.079600E+04  9.523831E+02  1.137868E+04
       447  24  4.602598E+03  5.712682E+04  2.355516E+04  1.023035E+05 -4.905161E+03  1.806617E+04
       447  25  2.747291E+04  1.721178E+05  2.980921E+04  1.032152E+05  6.752863E+03  1.439177E+04
       447  26  3.894248E+03  6.982755E+04  1.575109E+04  9.031305E+04  9.510050E+02  2.117200E+04
       447  27 -1.628010E+04 -3.069815E+04  6.963031E+03  1.004255E+05 -4.906560E+03  2.795127E+04
       448   1  3.971624E+04  2.153911E+05  5.963049E+04  9.614955E+04  8.874885E+03 -1.126622E+04
       448   2  8.383098E+04  3.061220E+05  1.073208E+05  1.199592E+05  1.082084E+04 -5.505885E+04
       448   3  1.911897E+05  4.183958E+05  1.993311E+05  1.662767E+05  3.760457E+03 -9.886242E+04
       448   4  3.048622E+03  6.094206E+04  3.072990E+04  1.021853E+05  8.876479E+03 -2.208754E+04
       448   5  2.256303E+04  5.147351E+04  5.550433E+04  9.094618E+04  1.082292E+04 -5.074188E+04
       448   6  1.027061E+05  6.092266E+04  1.140982E+05  1.022094E+05  3.766273E+03 -7.939958E+04
       448   7 -3.362018E+04 -9.348359E+04  1.828738E+03  1.082194E+05  8.877863E+03 -3.290623E+04
       448   8 -3.870579E+04 -2.031114E+05  3.685003E+03  6.194528E+04  1.082459E+04 -4.642664E+04
       448   9  1.422881E+04 -2.964237E+05  2.886005E+04  3.817921E+04  3.768078E+03 -5.994788E+04
       448  10  3.971613E+04  2.153909E+05  5.963010E+04  9.614963E+04  2.187621E-10  1.175930E-10
       448  11  8.383004E+04  3.061187E+05  1.073149E+05  1.199597E+05  3.122219E-10 -7.335556E-10
       448  12  1.911871E+05  4.183853E+05  1.993127E+05  1.662770E+05 -6.555573E-11 -3.338429E-10
       448  13  3.048407E+03  6.094151E+04  3.072883E+04  1.021854E+05 -5.312477E-10 -1.361569E-11
       448  14  2.256221E+04  5.147072E+04  5.549927E+04  9.094662E+04  2.207907E-10 -7.163943E-11
       448  15  1.027044E+05  6.091589E+04  1.140864E+05  1.022097E+05 -1.438008E-10 -6.014546E-10
       448  16 -3.362055E+04 -9.348477E+04  1.826554E+03  1.082197E+05 -2.392321E-10 -1.837504E-10
       448  17 -3.870650E+04 -2.031138E+05  3.680731E+03  6.194568E+04  1.808213E-10  2.492987E-10
       448  18  1.422783E+04 -2.964276E+05  2.885327E+04  3.817939E+04 -9.245083E-12 -2.442321E-10
       448  19  3.971624E+04  2.153911E+05  5.963049E+04  9.614955E+04 -8.874885E+03  1.126622E+04
       448  20  8.383098E+04  3.061220E+05  1.073208E+05  1.199592E+05 -1.082084E+04  5.505885E+04
       448  21  1.911897E+05  4.183958E+05  1.993311E+05  1.662767E+05 -3.760457E+03  9.886242E+04
       448  22  3.048622E+03  6.094206E+04  3.072990E+04  1.021853E+05 -8.876479E+03  2.208754E+04
       448  23  2.256303E+04  5.147351E+04  5.550433E+04  9.094618E+04 -1.082292E+04  5.074188E+04
       448  24  1.027061E+05  6.092266E+04  1.140982E+05  1.022094E+05 -3.766273E+03  7.939958E+04
       448  25 -3.362018E+04 -9.348359E+04  1.828738E+03  1.082194E+05 -8.877863E+03  3.290623E+04
       448  26 -3.870579E+04 -2.031114E+05  3.685003E+03  6.194528E+04 -1.082459E+04  4.642664E+04
       448  27  1.422881E+04 -2.964237E+05  2.886005E+04  3.817921E+04 -3.768078E+03  5.994788E+04
       449   1  3.306196E+05  3.098794E+05  1.147520E+05  2.092985E+05  4.047901E+04  2.402779E+04
       449   2  3.079960E+05  2.655530E+05  7.898772E+04  2.034438E+05  3.001185E+04  1.401878E+03
       449   3  2.898721E+05  2.415894E+05  6.191118E+04  1.945156E+05  1.426272E+04 -1.418550E+04
       449   4  7.762425E+04  1.037056E+05  2.829026E+04  7.169417E+04  1.868494E+04  7.663191E+03
       449   5  7.220234E+04  8.690579E+04  1.386959E+04  7.916644E+04  2.005165E+04 -6.078415E+03
       449   6  6.871684E+04  8.790414E+04  7.868509E+03  8.356367E+04  1.613449E+04 -1.278089E+04
       449   7 -1.753065E+05 -1.024222E+05 -5.817942E+04 -6.584494E+04 -3.097512E+03 -8.690934E+03
       449   8 -1.635285E+05 -9.170288E+04 -5.125324E+04 -4.505501E+04  1.009652E+04 -1.355454E+04
       449   9 -1.523782E+05 -6.574996E+04 -4.617627E+04 -2.734100E+04  1.800534E+04 -1.137695E+04
       449  10  3.306177E+05  3.098783E+05  1.147478E+05  2.092977E+05 -2.457169E-10 -4.408217E-10
       449  11  3.079950E+05  2.655528E+05  7.898602E+04  2.034438E+05  2.640432E-11  5.412485E-10
       449  12  2.898718E+05  2.415892E+05  6.191042E+04  1.945158E+05  2.634743E-10  2.831626E-10
       449  13  7.762386E+04  1.037055E+05  2.828949E+04  7.169406E+04 -1.505894E-10  6.091925E-10
       449  14  7.220190E+04  8.690564E+04  1.386876E+04  7.916654E+04  2.530453E-10  5.897774E-10
       449  15  6.871652E+04  8.790389E+04  7.867713E+03  8.356384E+04 -1.476220E-10 -1.816548E-10
       449  16 -1.753065E+05 -1.024222E+05 -5.817958E+04 -6.584496E+04  1.451063E-10 -5.925844E-11
       449  17 -1.635287E+05 -9.170311E+04 -5.125378E+04 -4.505490E+04  3.513265E-12 -3.661810E-10
       449  18 -1.523786E+05 -6.575019E+04 -4.617712E+04 -2.734084E+04 -4.394881E-10 -8.005067E-10
       449  19  3.306196E+05  3.098794E+05  1.147520E+05  2.092985E+05 -4.047901E+04 -2.402779E+04
       449  20  3.079960E+05  2.655530E+05  7.898772E+04  2.034438E+05 -3.001185E+04 -1.401878E+03
       449  21  2.898721E+05  2.415894E+05  6.191118E+04  1.945156E+05 -1.426272E+04  1.418550E+04
       449  22  7.762425E+04  1.037056E+05  2.829026E+04  7.169417E+04 -1.868494E+04 -7.663191E+03
       449  23  7.220234E+04  8.690579E+04  1.386959E+04  7.916644E+04 -2.005165E+04  6.078415E+03
       449  24  6.871684E+04  8.790414E+04  7.868509E+03  8.356367E+04 -1.613449E+04  1.278089E+04
       449  25 -1.753065E+05 -1.024222E+05 -5.817942E+04 -6.584494E+04  3.097512E+03  8.690934E+03
       449  26 -1.635285E+05 -9.170288E+04 -5.125324E+04 -4.505501E+04 -1.009652E+04  1.355454E+04
       449  27 -1.523782E+05 -6.574996E+04 -4.617627E+04 -2.734100E+04 -1.800534E+04  1.137695E+04
       450   1  2.717655E+05  2.324329E+05  5.591368E+04  1.866008E+05  1.363739E+04 -1.343386E+04
       450   2  2.514542E+05  2.111991E+05  4.685919E+04  1.740499E+05  1.030234E+04 -1.445447E+04
       450   3  2.249251E+05  1.979056E+05  4.019833E+04  1.633786E+05  6.497724E+03 -1.485015E+04
       450   4  6.813561E+04  8.793347E+04  6.185557E+03  8.296286E+04  1.470656E+04 -1.263183E+04
       450   5  7.114693E+04  8.369883E+04  3.946042E+03  8.230975E+04  1.242268E+04 -1.286268E+04
       450   6  6.771155E+04  8.717694E+04  3.188066E+03  8.353588E+04  9.668994E+03 -1.246857E+04
       450   7 -1.354466E+05 -5.654066E+04 -4.354552E+04 -2.063568E+04  1.577526E+04 -1.183016E+04
       450   8 -1.091243E+05 -4.378268E+04 -3.896978E+04 -9.400315E+03  1.454222E+04 -1.127150E+04
       450   9 -8.947614E+04 -2.353875E+04 -3.382470E+04  3.715195E+03  1.283925E+04 -1.008776E+04
       450  10  2.717653E+05  2.324327E+05  5.591299E+04  1.866009E+05 -1.078616E-09 -1.035780E-09
       450  11  2.514540E+05  2.111988E+05  4.685859E+04  1.740500E+05 -3.039944E-10  5.400871E-10
       450  12  2.249250E+05  1.979054E+05  4.019784E+04  1.633787E+05  1.400835E-09  8.559284E-11
       450  13  6.813534E+04  8.793324E+04  6.184850E+03  8.296301E+04 -1.720635E-10 -5.413813E-10
       450  14  7.114672E+04  8.369861E+04  3.945441E+03  8.230988E+04 -5.687648E-10  4.873995E-10
       450  15  6.771140E+04  8.717675E+04  3.187599E+03  8.353598E+04 -3.434129E-11 -1.396620E-09
       450  16 -1.354469E+05 -5.654088E+04 -4.354625E+04 -2.063553E+04  1.274293E-09  9.234453E-10
       450  17 -1.091246E+05 -4.378287E+04 -3.897042E+04 -9.400183E+03 -2.962295E-10 -1.434078E-09
       450  18 -8.947634E+04 -2.353890E+04 -3.382520E+04  3.715300E+03 -2.174084E-09 -1.414982E-09
       450  19  2.717655E+05  2.324329E+05  5.591368E+04  1.866008E+05 -1.363739E+04  1.343386E+04
       450  20  2.514542E+05  2.111991E+05  4.685919E+04  1.740499E+05 -1.030234E+04  1.445447E+04
       450  21  2.249251E+05  1.979056E+05  4.019833E+04  1.633786E+05 -6.497724E+03  1.485015E+04
       450  22  6.813561E+04  8.793347E+04  6.185557E+03  8.296286E+04 -1.470656E+04  1.263183E+04
       450  23  7.114693E+04  8.369883E+04  3.946042E+03  8.230975E+04 -1.242268E+04  1.286268E+04
       450  24  6.771155E+04  8.717694E+04  3.188066E+03  8.353588E+04 -9.668994E+03  1.246857E+04
       450  25 -1.354466E+05 -5.654066E+04 -4.354552E+04 -2.063568E+04 -1.577526E+04  1.183016E+04
       450  26 -1.091243E+05 -4.378268E+04 -3.896978E+04 -9.400315E+03 -1.454222E+04  1.127150E+04
       450  27 -8.947614E+04 -2.353875E+04 -3.382470E+04  3.715195E+03 -1.283925E+04  1.008776E+04
       451   1  2.094385E+05  1.872783E+05  3.644998E+04  1.556507E+05  5.280897E+03 -1.402767E+04
       451   2  1.893697E+05  1.672257E+05  3.169971E+04  1.427087E+05  2.223874E+03 -1.340140E+04
       451   3  1.625176E+05  1.545130E+05  2.835296E+04  1.318685E+05 -8.692335E+02 -1.272731E+04
       451   4  6.768544E+04  8.718418E+04  3.198965E+03  8.351419E+04  8.381178E+03 -1.169920E+04
       451   5  7.110470E+04  8.355368E+04  3.974323E+03  8.244247E+04  5.404825E+03 -1.101206E+04
       451   6  6.772182E+04  8.724509E+04  6.083019E+03  8.347184E+04  2.392280E+03 -1.027716E+04
       451   7 -7.404150E+04 -1.289563E+04 -3.005233E+04  1.139815E+04  1.148046E+04 -9.371483E+03
       451   8 -4.714280E+04 -1.088387E+02 -2.375148E+04  2.219018E+04  8.584936E+03 -8.623358E+03
       451   9 -2.706339E+04  1.998281E+04 -1.618739E+04  3.508383E+04  5.653126E+03 -7.827507E+03
       451  10  2.094384E+05  1.872780E+05  3.644955E+04  1.556507E+05 -3.119168E-09 -2.154959E-09
       451  11  1.893696E+05  1.672255E+05  3.169936E+04  1.427087E+05  5.448635E-09  5.350291E-09
       451  12  1.625175E+05  1.545129E+05  2.835265E+04  1.318685E+05  1.875538E-08  1.491602E-08
       451  13  6.768533E+04  8.718401E+04  3.198576E+03  8.351427E+04 -8.886026E-10 -7.658863E-10
       451  14  7.110463E+04  8.355354E+04  3.974040E+03  8.244252E+04 -5.082509E-11  4.047609E-09
       451  15  6.772179E+04  8.724497E+04  6.082810E+03  8.347186E+04  5.748350E-09  3.830638E-09
       451  16 -7.404167E+04 -1.289576E+04 -3.005274E+04  1.139824E+04  2.346638E-09  1.011670E-09
       451  17 -4.714290E+04 -1.089384E+02 -2.375175E+04  2.219024E+04 -4.849537E-09 -4.558833E-09
       451  18 -2.706344E+04  1.998274E+04 -1.618757E+04  3.508386E+04 -7.925540E-09 -8.062410E-09
       451  19  2.094385E+05  1.872783E+05  3.644998E+04  1.556507E+05 -5.280897E+03  1.402767E+04
       451  20  1.893697E+05  1.672257E+05  3.169971E+04  1.427087E+05 -2.223874E+03  1.340140E+04
       451  21  1.625176E+05  1.545130E+05  2.835296E+04  1.318685E+05  8.692335E+02  1.272731E+04
       451  22  6.768544E+04  8.718418E+04  3.198965E+03  8.351419E+04 -8.381178E+03  1.169920E+04
       451  23  7.110470E+04  8.355368E+04  3.974323E+03  8.244247E+04 -5.404825E+03  1.101206E+04
       451  24  6.772182E+04  8.724509E+04  6.083019E+03  8.347184E+04 -2.392280E+03  1.027716E+04
       451  25 -7.404150E+04 -1.289563E+04 -3.005233E+04  1.139815E+04 -1.148046E+04  9.371483E+03
       451  26 -4.714280E+04 -1.088387E+02 -2.375148E+04  2.219018E+04 -8.584936E+03  8.623358E+03
       451  27 -2.706339E+04  1.998281E+04 -1.618739E+04  3.508383E+04 -5.653126E+03  7.827507E+03
       452   1  1.469104E+05  1.442665E+05  2.632144E+04  1.244672E+05 -2.694432E+03 -1.232275E+04
       452   2  1.281022E+05  1.231651E+05  2.632479E+04  1.104063E+05 -9.273362E+03 -1.428914E+04
       452   3  1.044426E+05  1.117996E+05  3.132988E+04  9.763374E+04 -1.579280E+04 -1.633471E+04
       452   4  6.787690E+04  8.728226E+04  7.768410E+03  8.367204E+04  5.699394E+02 -9.870295E+03
       452   5  7.115988E+04  8.394411E+04  1.324180E+04  8.186795E+04 -6.141722E+03 -1.193629E+04
       452   6  6.962030E+04  9.037065E+04  2.383250E+04  8.135182E+04 -1.279402E+04 -1.408163E+04
       452   7 -1.115073E+04  3.030103E+04 -1.078543E+04  4.288232E+04  3.833813E+03 -7.418230E+03
       452   8  1.422140E+04  4.472504E+04  1.586846E+02  5.333268E+04 -3.010466E+03 -9.583726E+03
       452   9  3.480010E+04  6.894261E+04  1.633531E+04  6.507119E+04 -9.795516E+03 -1.182874E+04
       452  10  1.469104E+05  1.442664E+05  2.632114E+04  1.244671E+05 -1.041891E-08 -7.759744E-09
       452  11  1.281020E+05  1.231648E+05  2.632425E+04  1.104061E+05 -5.347902E-09 -5.161596E-09
       452  12  1.044422E+05  1.117993E+05  3.132891E+04  9.763353E+04  3.940553E-09  2.971995E-09
       452  13  6.787687E+04  8.728215E+04  7.768226E+03  8.367205E+04  5.679802E-09  2.481259E-09
       452  14  7.115980E+04  8.394395E+04  1.324147E+04  8.186790E+04 -2.507818E-11  4.010706E-10
       452  15  6.962007E+04  9.037039E+04  2.383182E+04  8.135167E+04  4.849769E-10 -2.486183E-10
       452  16 -1.115076E+04  3.030097E+04 -1.078556E+04  4.288234E+04  2.111919E-08  1.654187E-08
       452  17  1.422137E+04  4.472494E+04  1.584949E+02  5.333266E+04  5.075119E-09  5.273660E-09
       452  18  3.479996E+04  6.894243E+04  1.633487E+04  6.507110E+04 -5.005972E-09 -5.590711E-09
       452  19  1.469104E+05  1.442665E+05  2.632144E+04  1.244672E+05  2.694432E+03  1.232275E+04
       452  20  1.281022E+05  1.231651E+05  2.632479E+04  1.104063E+05  9.273362E+03  1.428914E+04
       452  21  1.044426E+05  1.117996E+05  3.132988E+04  9.763374E+04  1.579280E+04  1.633471E+04
       452  22  6.787690E+04  8.728226E+04  7.768410E+03  8.367204E+04 -5.699394E+02  9.870295E+03
       452  23  7.115988E+04  8.394411E+04  1.324180E+04  8.186795E+04  6.141722E+03  1.193629E+04
       452  24  6.962030E+04  9.037065E+04  2.383250E+04  8.135182E+04  1.279402E+04  1.408163E+04
       452  25 -1.115073E+04  3.030103E+04 -1.078543E+04  4.288232E+04 -3.833813E+03  7.418230E+03
       452  26  1.422140E+04  4.472504E+04  1.586846E+02  5.333268E+04  3.010466E+03  9.583726E+03
       452  27  3.480010E+04  6.894261E+04  1.633531E+04  6.507119E+04  9.795516E+03  1.182874E+04
       453   1  8.335323E+04  1.091055E+05  3.494800E+04  9.476061E+04 -1.997861E+04 -1.776977E+04
       453   2  9.901321E+04  6.395614E+04  5.423249E+04  5.777385E+04 -4.282666E+04 -3.277911E+04
       453   3  1.420387E+05  7.205456E+04  1.066913E+05  2.320914E+03 -6.496825E+04 -4.872677E+04
       453   4  7.156765E+04  9.075228E+04  3.123641E+04  8.399269E+04 -1.687395E+04 -1.543669E+04
       453   5  7.610328E+04  9.653530E+04  5.667229E+04  6.874753E+04 -4.130257E+04 -3.163719E+04
       453   6  1.083430E+05  1.559035E+05  1.166547E+05  3.503563E+04 -6.502414E+04 -4.877949E+04
       453   7  5.978231E+04  7.239965E+04  2.752489E+04  7.322511E+04 -1.376935E+04 -1.310376E+04
       453   8  5.319525E+04  1.291179E+05  5.911259E+04  7.972075E+04 -3.977855E+04 -3.049509E+04
       453   9  7.465524E+04  2.397722E+05  1.266205E+05  6.774955E+04 -6.508004E+04 -4.883224E+04
       453  10  8.335272E+04  1.091050E+05  3.494666E+04  9.476033E+04 -1.615339E-09 -2.569562E-10
       453  11  9.901095E+04  6.395449E+04  5.422703E+04  5.777272E+04 -1.085942E-09  7.065422E-10
       453  12  1.420335E+05  7.205088E+04  1.066789E+05  2.318365E+03  4.736018E-10  1.325578E-09
       453  13  7.156728E+04  9.075195E+04  3.123543E+04  8.399248E+04  1.350188E-09 -2.377043E-09
       453  14  7.610118E+04  9.653376E+04  5.666721E+04  6.874647E+04 -6.511297E-12  4.141762E-10
       453  15  1.083378E+05  1.558998E+05  1.166423E+05  3.503307E+04 -4.591630E-10 -7.244377E-10
       453  16  5.978206E+04  7.239941E+04  2.752421E+04  7.322496E+04  2.489612E-09 -4.610301E-10
       453  17  5.319330E+04  1.291165E+05  5.910787E+04  7.971978E+04  1.166387E-09 -2.187902E-09
       453  18  7.465005E+04  2.397685E+05  1.266081E+05  6.774699E+04 -7.153498E-10 -6.908308E-12
       453  19  8.335323E+04  1.091055E+05  3.494800E+04  9.476061E+04  1.997861E+04  1.776977E+04
       453  20  9.901321E+04  6.395614E+04  5.423249E+04  5.777385E+04  4.282666E+04  3.277911E+04
       453  21  1.420387E+05  7.205456E+04  1.066913E+05  2.320914E+03  6.496825E+04  4.872677E+04
       453  22  7.156765E+04  9.075228E+04  3.123641E+04  8.399269E+04  1.687395E+04  1.543669E+04
       453  23  7.610328E+04  9.653530E+04  5.667229E+04  6.874753E+04  4.130257E+04  3.163719E+04
       453  24  1.083430E+05  1.559035E+05  1.166547E+05  3.503563E+04  6.502414E+04  4.877949E+04
       453  25  5.978231E+04  7.239965E+04  2.752489E+04  7.322511E+04  1.376935E+04  1.310376E+04
       453  26  5.319525E+04  1.291179E+05  5.911259E+04  7.972075E+04  3.977855E+04  3.049509E+04
       453  27  7.465524E+04  2.397722E+05  1.266205E+05  6.774955E+04  6.508004E+04  4.883224E+04
       454   1  3.624980E+05  9.318246E+04  8.544625E+04  6.251584E+04  1.379212E+04 -5.858477E+03
       454   2  2.870013E+05  8.855864E+04  6.484571E+04  6.189715E+04  8.980885E+02 -1.866531E+04
       454   3  2.106954E+05  7.404383E+04  5.016674E+04  7.776191E+04 -1.200412E+04 -2.003448E+04
       454   4 -1.051171E+05 -2.238536E+04 -2.501084E+04  7.622356E+04 -1.731484E+04 -5.889231E+03
       454   5 -1.030309E+05 -4.838620E+03 -1.223194E+04  6.796990E+04 -1.098639E+04 -1.867877E+04
       454   6 -1.050969E+05 -5.229236E+02 -6.879112E+03  7.620079E+04 -4.667356E+03 -2.002704E+04
       454   7 -5.725287E+05 -1.379676E+05 -1.354793E+05  8.992085E+04 -4.839849E+04 -5.921371E+03
       454   8 -4.929172E+05 -9.824491E+04 -8.931651E+04  7.403870E+04 -2.286355E+04 -1.869246E+04
       454   9 -4.207920E+05 -7.509522E+04 -6.392867E+04  7.464047E+04  2.665783E+03 -2.001963E+04
       454  10  3.624978E+05  9.318237E+04  8.544583E+04  6.251590E+04  2.188137E-09 -1.066415E-09
       454  11  2.870012E+05  8.855827E+04  6.484505E+04  6.189716E+04 -2.838842E-10 -1.527780E-09
       454  12  2.106951E+05  7.404336E+04  5.016571E+04  7.776171E+04 -2.537572E-09 -1.163325E-09
       454  13 -1.051174E+05 -2.238548E+04 -2.501147E+04  7.622348E+04  3.908471E-10  1.616842E-09
       454  14 -1.030311E+05 -4.839027E+03 -1.223282E+04  6.796973E+04  5.521906E-10 -8.238048E-10
       454  15 -1.050970E+05 -5.233601E+02 -6.879906E+03  7.620072E+04  3.818365E-10 -1.411694E-09
       454  16 -5.725313E+05 -1.379683E+05 -1.354838E+05  8.992062E+04 -2.618635E-09  6.152391E-12
       454  17 -4.929178E+05 -9.824542E+04 -8.931815E+04  7.403836E+04  4.251263E-10 -1.425810E-09
       454  18 -4.207921E+05 -7.509565E+04 -6.392943E+04  7.464051E+04  3.088505E-09 -1.475806E-09
       454  19  3.624980E+05  9.318246E+04  8.544625E+04  6.251584E+04 -1.379212E+04  5.858477E+03
       454  20  2.870013E+05  8.855864E+04  6.484571E+04  6.189715E+04 -8.980885E+02  1.866531E+04
       454  21  2.106954E+05  7.404383E+04  5.016674E+04  7.776191E+04  1.200412E+04  2.003448E+04
       454  22 -1.051171E+05 -2.238536E+04 -2.501084E+04  7.622356E+04  1.731484E+04  5.889231E+03
       454  23 -1.030309E+05 -4.838620E+03 -1.223194E+04  6.796990E+04  1.098639E+04  1.867877E+04
       454  24 -1.050969E+05 -5.229236E+02 -6.879112E+03  7.620079E+04  4.667356E+03  2.002704E+04
       454  25 -5.725287E+05 -1.379676E+05 -1.354793E+05  8.992085E+04  4.839849E+04  5.921371E+03
       454  26 -4.929172E+05 -9.824491E+04 -8.931651E+04  7.403870E+04  2.286355E+04  1.869246E+04
       454  27 -4.207920E+05 -7.509522E+04 -6.392867E+04  7.464047E+04 -2.665783E+03  2.001963E+04
       455   1  1.615257E+05  6.181409E+04  4.220167E+04  7.616044E+04 -9.795560E+03 -1.727280E+04
       455   2  8.579144E+04  4.458251E+04  2.973324E+04  6.776831E+04 -9.767347E+03 -1.320000E+04
       455   3  9.915885E+03  2.694325E+04  1.713363E+04  7.659244E+04 -9.740792E+03 -8.166575E+03
       455   4 -1.042637E+05 -8.535677E+02 -5.363377E+03  7.636648E+04 -3.758030E+03 -1.726643E+04
       455   5 -1.040453E+05  8.361011E+00 -3.301553E+03  6.775755E+04 -2.116686E+03 -1.319125E+04
       455   6 -1.042541E+05  1.826401E+02 -2.491522E+03  7.636525E+04 -4.769962E+02 -8.155293E+03
       455   7 -3.699841E+05 -6.352513E+04 -5.293099E+04  7.657240E+04  2.276990E+03 -1.726006E+04
       455   8 -2.938466E+05 -4.456771E+04 -3.633739E+04  6.774678E+04  5.531707E+03 -1.318250E+04
       455   9 -2.184111E+05 -2.657862E+04 -2.211680E+04  7.613810E+04  8.785150E+03 -8.144016E+03
       455  10  1.615255E+05  6.181374E+04  4.220093E+04  7.616031E+04 -1.088546E-09  1.219710E-09
       455  11  8.579129E+04  4.458230E+04  2.973273E+04  6.776821E+04 -1.055958E-09  6.097231E-12
       455  12  9.915766E+03  2.694316E+04  1.713333E+04  7.659238E+04 -7.576646E-10  5.681469E-10
       455  13 -1.042638E+05 -8.538916E+02 -5.363964E+03  7.636643E+04  5.519364E-10 -2.588442E-12
       455  14 -1.040453E+05  8.172966E+00 -3.301888E+03  6.775753E+04  5.558533E-10  8.568844E-10
       455  15 -1.042541E+05  1.825687E+02 -2.491648E+03  7.636525E+04  1.866964E-10  6.371124E-10
       455  16 -3.699842E+05 -6.352545E+04 -5.293156E+04  7.657243E+04  8.448449E-10  5.531764E-10
       455  17 -2.938466E+05 -4.456790E+04 -3.633778E+04  6.774684E+04  1.210622E-09 -2.771087E-09
       455  18 -2.184112E+05 -2.657872E+04 -2.211707E+04  7.613815E+04  1.133678E-09 -7.160568E-10
       455  19  1.615257E+05  6.181409E+04  4.220167E+04  7.616044E+04  9.795560E+03  1.727280E+04
       455  20  8.579144E+04  4.458251E+04  2.973324E+04  6.776831E+04  9.767347E+03  1.320000E+04
       455  21  9.915885E+03  2.694325E+04  1.713363E+04  7.659244E+04  9.740792E+03  8.166575E+03
       455  22 -1.042637E+05 -8.535677E+02 -5.363377E+03  7.636648E+04  3.758030E+03  1.726643E+04
       455  23 -1.040453E+05  8.361011E+00 -3.301553E+03  6.775755E+04  2.116686E+03  1.319125E+04
       455  24 -1.042541E+05  1.826401E+02 -2.491522E+03  7.636525E+04  4.769962E+02  8.155293E+03
       455  25 -3.699841E+05 -6.352513E+04 -5.293099E+04  7.657240E+04 -2.276990E+03  1.726006E+04
       455  26 -2.938466E+05 -4.456771E+04 -3.633739E+04  6.774678E+04 -5.531707E+03  1.318250E+04
       455  27 -2.184111E+05 -2.657862E+04 -2.211680E+04  7.613810E+04 -8.785150E+03  8.144016E+03
       456   1 -3.957874E+04  1.527515E+04  8.422560E+03  7.636360E+04 -9.275516E+03 -4.899918E+03
       456   2 -1.151182E+05 -2.631324E+03 -5.191775E+03  6.787820E+04 -6.961075E+03  3.136536E+02
       456   3 -1.911714E+05 -2.122455E+04 -2.049800E+04  7.663431E+04 -4.646322E+03  4.970062E+03
       456   4 -1.042370E+05  1.787566E+02 -2.396751E+03  7.637082E+04 -5.417750E+01 -4.888515E+03
       456   5 -1.040583E+05  6.309291E+01 -2.779060E+03  6.775053E+04  1.323760E+03  3.238688E+02
       456   6 -1.042376E+05 -5.767584E+02 -4.203278E+03  7.637173E+04  2.702292E+03  4.979102E+03
       456   7 -1.688909E+05 -1.491781E+04 -1.321587E+04  7.637803E+04  9.166232E+03 -4.877110E+03
       456   8 -9.299818E+04  2.757539E+03 -3.660930E+02  6.762285E+04  9.608741E+03  3.340806E+02
       456   9 -1.729636E+04  2.007062E+04  1.209132E+04  7.610910E+04  1.005191E+04  4.988135E+03
       456  10 -3.957884E+04  1.527510E+04  8.422354E+03  7.636356E+04 -3.549763E-09  1.951035E-09
       456  11 -1.151182E+05 -2.631337E+03 -5.191867E+03  6.787821E+04 -5.166087E-10 -4.465574E-10
       456  12 -1.911715E+05 -2.122458E+04 -2.049809E+04  7.663433E+04  3.391456E-09  1.677996E-09
       456  13 -1.042370E+05  1.787310E+02 -2.396796E+03  7.637081E+04  7.407218E-10  1.314230E-09
       456  14 -1.040583E+05  6.309232E+01 -2.779063E+03  6.775053E+04  2.856784E-11  1.899648E-09
       456  15 -1.042376E+05 -5.767870E+02 -4.203338E+03  7.637171E+04  6.359220E-12 -1.043468E-10
       456  16 -1.688910E+05 -1.491786E+04 -1.321607E+04  7.637807E+04  3.113402E-09  1.321411E-09
       456  17 -9.299827E+04  2.757514E+03 -3.662667E+02  6.762285E+04  7.124922E-10  6.976796E-10
       456  18 -1.729647E+04  2.007057E+04  1.209109E+04  7.610906E+04 -3.031775E-09 -2.886839E-09
       456  19 -3.957874E+04  1.527515E+04  8.422560E+03  7.636360E+04  9.275516E+03  4.899918E+03
       456  20 -1.151182E+05 -2.631324E+03 -5.191775E+03  6.787820E+04  6.961075E+03 -3.136536E+02
       456  21 -1.911714E+05 -2.122455E+04 -2.049800E+04  7.663431E+04  4.646322E+03 -4.970062E+03
       456  22 -1.042370E+05  1.787566E+02 -2.396751E+03  7.637082E+04  5.417750E+01  4.888515E+03
       456  23 -1.040583E+05  6.309291E+01 -2.779060E+03  6.775053E+04 -1.323760E+03 -3.238688E+02
       456  24 -1.042376E+05 -5.767584E+02 -4.203278E+03  7.637173E+04 -2.702292E+03 -4.979102E+03
       456  25 -1.688909E+05 -1.491781E+04 -1.321587E+04  7.637803E+04 -9.166232E+03  4.877110E+03
       456  26 -9.299818E+04  2.757539E+03 -3.660930E+02  6.762285E+04 -9.608741E+03 -3.340806E+02
       456  27 -1.729636E+04  2.007062E+04  1.209132E+04  7.610910E+04 -1.005191E+04 -4.988135E+03
       457   1 -2.415800E+05 -3.277707E+04 -3.079589E+04  7.517535E+04 -4.756617E+03  7.942651E+03
       457   2 -3.147945E+05 -5.445141E+04 -5.212430E+04  7.251520E+04  1.224459E+04  9.189053E+03
       457   3 -3.932821E+05 -8.821768E+04 -8.755705E+04  8.663468E+04  2.925121E+04  3.160405E+03
       457   4 -1.048610E+05 -3.260748E+02 -5.302248E+03  7.626659E+04  3.411599E+03  7.952507E+03
       457   5 -1.032897E+05 -3.582867E+03 -9.272230E+03  6.788608E+04  8.196577E+03  9.183932E+03
       457   6 -1.048722E+05 -1.680727E+04 -1.885896E+04  7.628549E+04  1.298898E+04  3.141128E+03
       457   7  3.187623E+04  3.212388E+04  2.019085E+04  7.735808E+04  1.158157E+04  7.962391E+03
       457   8  1.082578E+05  4.728298E+04  3.357759E+04  6.325534E+04  4.147212E+03  9.178873E+03
       457   9  1.836148E+05  5.459769E+04  4.983436E+04  6.593144E+04 -3.280765E+03  3.122398E+03
       457  10 -2.415800E+05 -3.277714E+04 -3.079605E+04  7.517538E+04 -2.852755E-09  1.306661E-09
       457  11 -3.147946E+05 -5.445154E+04 -5.212474E+04  7.251511E+04 -5.613235E-10 -2.093781E-11
       457  12 -3.932830E+05 -8.821792E+04 -8.755868E+04  8.663461E+04  1.501413E-09  2.319693E-10
       457  13 -1.048610E+05 -3.261458E+02 -5.302389E+03  7.626657E+04  3.819411E-10  1.972742E-09
       457  14 -1.032897E+05 -3.582976E+03 -9.272514E+03  6.788602E+04  3.575908E-10 -2.444691E-09
       457  15 -1.048724E+05 -1.680733E+04 -1.885929E+04  7.628546E+04  1.885292E-11  1.973772E-09
       457  16  3.187607E+04  3.212378E+04  2.019047E+04  7.735800E+04  2.303581E-09 -1.782997E-10
       457  17  1.082578E+05  4.728289E+04  3.357740E+04  6.325531E+04  7.772990E-10  7.852703E-10
       457  18  1.836148E+05  5.459768E+04  4.983432E+04  6.593145E+04 -1.239601E-09  2.904555E-10
       457  19 -2.415800E+05 -3.277707E+04 -3.079589E+04  7.517535E+04  4.756617E+03 -7.942651E+03
       457  20 -3.147945E+05 -5.445141E+04 -5.212430E+04  7.251520E+04 -1.224459E+04 -9.189053E+03
       457  21 -3.932821E+05 -8.821768E+04 -8.755705E+04  8.663468E+04 -2.925121E+04 -3.160405E+03
       457  22 -1.048610E+05 -3.260748E+02 -5.302248E+03  7.626659E+04 -3.411599E+03 -7.952507E+03
       457  23 -1.032897E+05 -3.582867E+03 -9.272230E+03  6.788608E+04 -8.196577E+03 -9.183932E+03
       457  24 -1.048722E+05 -1.680727E+04 -1.885896E+04  7.628549E+04 -1.298898E+04 -3.141128E+03
       457  25  3.187623E+04  3.212388E+04  2.019085E+04  7.735808E+04 -1.158157E+04 -7.962391E+03
       457  26  1.082578E+05  4.728298E+04  3.357759E+04  6.325534E+04 -4.147212E+03 -9.178873E+03
       457  27  1.836148E+05  5.459769E+04  4.983436E+04  6.593144E+04  3.280765E+03 -3.122398E+03
       458   1 -1.690028E+05 -6.970919E+05 -1.656892E+05  1.724131E+05 -6.254507E+03 -5.278557E+04
       458   2 -1.078439E+05 -5.368734E+05 -9.798981E+04  1.467989E+05 -1.840990E+04 -2.207329E+04
       458   3 -6.521617E+04 -3.851831E+05 -5.492602E+04  1.556879E+05 -1.591809E+04  8.659916E+03
       458   4 -2.451166E+04 -1.140052E+05 -2.671541E+04  1.571670E+05 -6.271001E+03 -2.012406E+04
       458   5 -5.566298E+03 -1.118450E+05 -1.183692E+04  1.399216E+05 -1.841264E+04 -1.399112E+04
       458   6 -8.737289E+02 -1.139608E+05 -4.507499E+03  1.571802E+05 -1.591085E+04 -7.845790E+03
       458   7  1.199564E+05  4.693964E+05  1.122386E+05  1.419065E+05 -6.289097E+03  1.256801E+04
       458   8  9.670028E+04  3.133557E+05  7.430685E+04  1.330394E+05 -1.841557E+04 -5.903526E+03
       458   9  6.346464E+04  1.573333E+05  4.590893E+04  1.586731E+05 -1.590369E+04 -2.435853E+04
       458  10 -1.690036E+05 -6.970949E+05 -1.656945E+05  1.724129E+05 -1.486655E-10 -7.248724E-10
       458  11 -1.078444E+05 -5.368741E+05 -9.799136E+04  1.467986E+05 -5.125906E-11  2.762033E-09
       458  12 -6.521646E+04 -3.851833E+05 -5.492663E+04  1.556880E+05  7.111537E-11  3.529350E-10
       458  13 -2.451181E+04 -1.140057E+05 -2.671624E+04  1.571669E+05  2.106512E-10 -1.744215E-09
       458  14 -5.566714E+03 -1.118453E+05 -1.183792E+04  1.399213E+05 -7.894991E-10 -5.777946E-10
       458  15 -8.740172E+02 -1.139610E+05 -4.508090E+03  1.571801E+05 -1.884025E-10 -5.074939E-10
       458  16  1.199563E+05  4.693962E+05  1.122383E+05  1.419065E+05 -3.525547E-10  5.462945E-10
       458  17  9.669991E+04  3.133556E+05  7.430615E+04  1.330393E+05 -7.873019E-10 -1.087613E-09
       458  18  6.346421E+04  1.573326E+05  4.590734E+04  1.586728E+05 -4.293006E-10 -1.741237E-09
       458  19 -1.690028E+05 -6.970919E+05 -1.656892E+05  1.724131E+05  6.254507E+03  5.278557E+04
       458  20 -1.078439E+05 -5.368734E+05 -9.798981E+04  1.467989E+05  1.840990E+04  2.207329E+04
       458  21 -6.521617E+04 -3.851831E+05 -5.492602E+04  1.556879E+05  1.591809E+04 -8.659916E+03
       458  22 -2.451166E+04 -1.140052E+05 -2.671541E+04  1.571670E+05  6.271001E+03  2.012406E+04
       458  23 -5.566298E+03 -1.118450E+05 -1.183692E+04  1.399216E+05  1.841264E+04  1.399112E+04
       458  24 -8.737289E+02 -1.139608E+05 -4.507499E+03  1.571802E+05  1.591085E+04  7.845790E+03
       458  25  1.199564E+05  4.693964E+05  1.122386E+05  1.419065E+05  6.289097E+03 -1.256801E+04
       458  26  9.670028E+04  3.133557E+05  7.430685E+04  1.330394E+05  1.841557E+04  5.903526E+03
       458  27  6.346464E+04  1.573333E+05  4.590893E+04  1.586731E+05  1.590369E+04  2.435853E+04
       459   1 -4.134451E+04 -2.816726E+05 -3.324599E+04  1.574465E+05 -9.846593E+03  7.505335E+03
       459   2 -2.962737E+03 -1.260268E+05  1.412412E+03  1.400776E+05 -9.081587E+02  5.782027E+03
       459   3  3.628317E+04  3.014474E+04  3.742200E+04  1.580968E+05  8.083095E+03  4.058244E+03
       459   4 -1.291614E+03 -1.128868E+05 -1.806418E+03  1.573741E+05 -9.840714E+03 -7.462309E+03
       459   5  6.035031E+01 -1.131453E+05  3.642599E+03  1.396808E+05 -9.022951E+02 -9.275562E+03
       459   6  2.293578E+03 -1.128850E+05  1.050622E+04  1.573755E+05  8.088896E+03 -1.108888E+04
       459   7  3.875976E+04  5.592698E+04  2.963279E+04  1.573016E+05 -9.834831E+03 -2.243392E+04
       459   8  3.083552E+03 -1.002631E+05  5.873632E+03  1.392840E+05 -8.964123E+02 -2.433345E+04
       459   9 -3.169708E+04 -2.558944E+05 -1.640958E+04  1.566545E+05  8.094732E+03 -2.623261E+04
       459  10 -4.134463E+04 -2.816726E+05 -3.324628E+04  1.574466E+05 -2.675648E-11 -9.471590E-10
       459  11 -2.962747E+03 -1.260268E+05  1.412348E+03  1.400776E+05 -5.127770E-10  2.131525E-09
       459  12  3.628309E+04  3.014470E+04  3.742185E+04  1.580968E+05 -3.094701E-10 -1.398855E-10
       459  13 -1.291733E+03 -1.128869E+05 -1.806705E+03  1.573740E+05  9.772149E-11 -9.811183E-10
       459  14  6.032634E+01 -1.131454E+05  3.642436E+03  1.396808E+05 -1.232084E-09 -4.987975E-11
       459  15  2.293474E+03 -1.128851E+05  1.050587E+04  1.573756E+05  8.765313E-11 -1.201871E-09
       459  16  3.875952E+04  5.592641E+04  2.963166E+04  1.573014E+05  4.783585E-11  4.652094E-10
       459  17  3.083392E+03 -1.002637E+05  5.872518E+03  1.392840E+05 -3.518712E-10 -9.266122E-10
       459  18 -3.169733E+04 -2.558952E+05 -1.641100E+04  1.566546E+05  3.137277E-11 -1.324732E-09
       459  19 -4.134451E+04 -2.816726E+05 -3.324599E+04  1.574465E+05  9.846593E+03 -7.505335E+03
       459  20 -2.962737E+03 -1.260268E+05  1.412412E+03  1.400776E+05  9.081587E+02 -5.782027E+03
       459  21  3.628317E+04  3.014474E+04  3.742200E+04  1.580968E+05 -8.083095E+03 -4.058244E+03
       459  22 -1.291614E+03 -1.128868E+05 -1.806418E+03  1.573741E+05  9.840714E+03  7.462309E+03
       459  23  6.035031E+01 -1.131453E+05  3.642599E+03  1.396808E+05  9.022951E+02  9.275562E+03
       459  24  2.293578E+03 -1.128850E+05  1.050622E+04  1.573755E+05 -8.088896E+03  1.108888E+04
       459  25  3.875976E+04  5.592698E+04  2.963279E+04  1.573016E+05  9.834831E+03  2.243392E+04
       459  26  3.083552E+03 -1.002631E+05  5.873632E+03  1.392840E+05  8.964123E+02  2.433345E+04
       459  27 -3.169708E+04 -2.558944E+05 -1.640958E+04  1.566545E+05 -8.094732E+03  2.623261E+04
       460   1  5.970392E+04  1.346763E+05  6.063628E+04  1.538498E+05  1.418058E+04  3.691493E+03
       460   2  1.078241E+05  2.836998E+05  1.097340E+05  1.549421E+05  1.706747E+04 -3.463397E+04
       460   3  1.918291E+05  4.467835E+05  1.927639E+05  1.906121E+05  5.921279E+03 -7.298067E+04
       460   4  1.436015E+03 -1.107956E+05  1.478101E+04  1.571897E+05  1.418761E+04 -1.291860E+04
       460   5  1.171205E+04 -1.157922E+05  2.852829E+04  1.399168E+05  1.706583E+04 -2.765499E+04
       460   6  5.379269E+04 -1.108330E+05  5.983799E+04  1.572185E+05  5.909085E+03 -4.240272E+04
       460   7 -5.683518E+04 -3.562086E+05 -3.107581E+04  1.605282E+05  1.419447E+04 -2.952229E+04
       460   8 -8.440903E+04 -5.151317E+05 -5.268548E+04  1.249014E+05  1.706385E+04 -2.068042E+04
       460   9 -8.426141E+04 -6.681600E+05 -7.310560E+04  1.238551E+05  5.893601E+03 -1.185207E+04
       460  10  5.970370E+04  1.346762E+05  6.063588E+04  1.538497E+05 -1.600572E-10 -2.540887E-10
       460  11  1.078234E+05  2.836985E+05  1.097312E+05  1.549426E+05 -7.814029E-11  2.571508E-09
       460  12  1.918276E+05  4.467778E+05  1.927538E+05  1.906125E+05 -2.047908E-10 -5.194826E-10
       460  13  1.435754E+03 -1.107959E+05  1.478032E+04  1.571898E+05 -7.118432E-10 -1.442613E-09
       460  14  1.171153E+04 -1.157931E+05  2.852631E+04  1.399172E+05 -2.658048E-10 -4.306156E-10
       460  15  5.379217E+04 -1.108350E+05  5.983455E+04  1.572187E+05 -3.249456E-10 -6.636736E-10
       460  16 -5.683563E+04 -3.562096E+05 -3.107783E+04  1.605285E+05  3.378075E-10 -4.197124E-10
       460  17 -8.440945E+04 -5.151323E+05 -5.268683E+04  1.249017E+05  3.703740E-10 -1.081871E-09
       460  18 -8.426148E+04 -6.681601E+05 -7.310593E+04  1.238551E+05 -9.992521E-12 -1.022351E-09
       460  19  5.970392E+04  1.346763E+05  6.063628E+04  1.538498E+05 -1.418058E+04 -3.691493E+03
       460  20  1.078241E+05  2.836998E+05  1.097340E+05  1.549421E+05 -1.706747E+04  3.463397E+04
       460  21  1.918291E+05  4.467835E+05  1.927639E+05  1.906121E+05 -5.921279E+03  7.298067E+04
       460  22  1.436015E+03 -1.107956E+05  1.478101E+04  1.571897E+05 -1.418761E+04  1.291860E+04
       460  23  1.171205E+04 -1.157922E+05  2.852829E+04  1.399168E+05 -1.706583E+04  2.765499E+04
       460  24  5.379269E+04 -1.108330E+05  5.983799E+04  1.572185E+05 -5.909085E+03  4.240272E+04
       460  25 -5.683518E+04 -3.562086E+05 -3.107581E+04  1.605282E+05 -1.419447E+04  2.952229E+04
       460  26 -8.440903E+04 -5.151317E+05 -5.268548E+04  1.249014E+05 -1.706385E+04  2.068042E+04
       460  27 -8.426141E+04 -6.681600E+05 -7.310560E+04  1.238551E+05 -5.893601E+03  1.185207E+04
       461   1  2.828530E+05  2.700474E+05  9.772295E+04  1.877041E+05  4.305666E+04  2.922891E+04
       461   2  2.719829E+05  2.167166E+05  5.903146E+04  1.941207E+05  2.960462E+04  1.183693E+04
       461   3  2.759522E+05  1.897695E+05  4.182973E+04  1.916328E+05  1.358042E+04 -2.129404E+03
       461   4  1.820994E+05  1.469034E+05  5.558197E+04  1.140572E+05  3.235102E+04  2.118166E+04
       461   5  1.665434E+05  1.188186E+05  2.711527E+04  1.301733E+05  2.465648E+04  8.117740E+03
       461   6  1.645798E+05  1.158693E+05  1.514148E+04  1.373841E+05  1.438935E+04 -1.521735E+03
       461   7  8.135994E+04  2.378290E+04  1.344080E+04  4.042879E+04  2.164785E+04  1.313795E+04
       461   8  6.111767E+04  2.093411E+04 -4.801543E+03  6.624064E+04  1.970949E+04  4.399768E+03
       461   9  5.322177E+04  4.197565E+04 -1.154759E+04  8.314632E+04  1.519808E+04 -9.142017E+02
       461  10  2.828508E+05  2.700460E+05  9.771786E+04  1.877031E+05  5.568550E-10 -4.544452E-10
       461  11  2.719820E+05  2.167162E+05  5.902955E+04  1.941204E+05 -5.427527E-10 -9.687674E-10
       461  12  2.759520E+05  1.897694E+05  4.182937E+04  1.916328E+05 -4.464500E-10 -7.977858E-10
       461  13  1.820982E+05  1.469026E+05  5.557916E+04  1.140566E+05 -4.505982E-10 -2.172728E-09
       461  14  1.665427E+05  1.188183E+05  2.711401E+04  1.301731E+05  4.626081E-10  1.672661E-09
       461  15  1.645796E+05  1.158693E+05  1.514108E+04  1.373841E+05 -3.143008E-11  2.866724E-09
       461  16  8.135939E+04  2.378259E+04  1.343960E+04  4.042856E+04 -3.100403E-10  3.707135E-10
       461  17  6.111724E+04  2.093398E+04 -4.802309E+03  6.624057E+04  5.332243E-10  8.319524E-10
       461  18  5.322152E+04  4.197559E+04 -1.154802E+04  8.314633E+04  3.782611E-10  1.674493E-10
       461  19  2.828530E+05  2.700474E+05  9.772295E+04  1.877041E+05 -4.305666E+04 -2.922891E+04
       461  20  2.719829E+05  2.167166E+05  5.903146E+04  1.941207E+05 -2.960462E+04 -1.183693E+04
       461  21  2.759522E+05  1.897695E+05  4.182973E+04  1.916328E+05 -1.358042E+04  2.129404E+03
       461  22  1.820994E+05  1.469034E+05  5.558197E+04  1.140572E+05 -3.235102E+04 -2.118166E+04
       461  23  1.665434E+05  1.188186E+05  2.711527E+04  1.301733E+05 -2.465648E+04 -8.117740E+03
       461  24  1.645798E+05  1.158693E+05  1.514148E+04  1.373841E+05 -1.438935E+04  1.521735E+03
       461  25  8.135994E+04  2.378290E+04  1.344080E+04  4.042879E+04 -2.164785E+04 -1.313795E+04
       461  26  6.111767E+04  2.093411E+04 -4.801543E+03  6.624064E+04 -1.970949E+04 -4.399768E+03
       461  27  5.322177E+04  4.197565E+04 -1.154759E+04  8.314632E+04 -1.519808E+04  9.142017E+02
       462   1  2.641460E+05  1.882689E+05  3.641376E+04  1.878735E+05  1.211391E+04 -2.691547E+03
       462   2  2.545980E+05  1.770544E+05  2.850564E+04  1.825842E+05  8.528413E+03 -4.757466E+03
       462   3  2.430577E+05  1.704595E+05  2.368905E+04  1.778783E+05  4.714282E+03 -6.519212E+03
       462   4  1.636072E+05  1.157400E+05  1.171238E+04  1.361460E+05  1.253257E+04 -2.377185E+03
       462   5  1.642398E+05  1.127440E+05  6.955071E+03  1.364121E+05  9.458879E+03 -4.058405E+03
       462   6  1.627695E+05  1.142564E+05  4.845325E+03  1.372615E+05  6.156526E+03 -5.435446E+03
       462   7  6.307820E+04  4.321628E+04 -1.299033E+04  8.442742E+04  1.295114E+04 -2.062887E+03
       462   8  7.389106E+04  4.843857E+04 -1.459603E+04  9.024788E+04  1.038916E+04 -3.359481E+03
       462   9  8.249021E+04  5.805815E+04 -1.399830E+04  9.665157E+04  7.598496E+03 -4.351885E+03
       462  10  2.641459E+05  1.882689E+05  3.641347E+04  1.878735E+05 -3.212267E-10 -1.045681E-09
       462  11  2.545979E+05  1.770544E+05  2.850546E+04  1.825842E+05 -4.636224E-10 -1.171433E-09
       462  12  2.430576E+05  1.704594E+05  2.368893E+04  1.778783E+05  3.052349E-10 -2.929040E-10
       462  13  1.636070E+05  1.157400E+05  1.171208E+04  1.361460E+05 -2.596534E-10 -2.611088E-11
       462  14  1.642397E+05  1.127439E+05  6.954872E+03  1.364122E+05  5.196542E-10  9.179885E-10
       462  15  1.627694E+05  1.142563E+05  4.845198E+03  1.372616E+05 -7.260207E-10  2.171812E-09
       462  16  6.307802E+04  4.321623E+04 -1.299065E+04  8.442745E+04  6.621713E-10  1.830189E-10
       462  17  7.389094E+04  4.843853E+04 -1.459625E+04  9.024790E+04  1.235347E-10  2.964194E-09
       462  18  8.249014E+04  5.805812E+04 -1.399845E+04  9.665160E+04 -3.741236E-10 -1.518764E-09
       462  19  2.641460E+05  1.882689E+05  3.641376E+04  1.878735E+05 -1.211391E+04  2.691547E+03
       462  20  2.545980E+05  1.770544E+05  2.850564E+04  1.825842E+05 -8.528413E+03  4.757466E+03
       462  21  2.430577E+05  1.704595E+05  2.368905E+04  1.778783E+05 -4.714282E+03  6.519212E+03
       462  22  1.636072E+05  1.157400E+05  1.171238E+04  1.361460E+05 -1.253257E+04  2.377185E+03
       462  23  1.642398E+05  1.127440E+05  6.955071E+03  1.364121E+05 -9.458879E+03  4.058405E+03
       462  24  1.627695E+05  1.142564E+05  4.845325E+03  1.372615E+05 -6.156526E+03  5.435446E+03
       462  25  6.307820E+04  4.321628E+04 -1.299033E+04  8.442742E+04 -1.295114E+04  2.062887E+03
       462  26  7.389106E+04  4.843857E+04 -1.459603E+04  9.024788E+04 -1.038916E+04  3.359481E+03
       462  27  8.249021E+04  5.805815E+04 -1.399830E+04  9.665157E+04 -7.598496E+03  4.351885E+03
       463   1  2.357514E+05  1.657965E+05  2.153844E+04  1.743485E+05  3.715600E+03 -6.479263E+03
       463   2  2.264596E+05  1.566257E+05  1.914119E+04  1.684453E+05  1.239964E+03 -7.009933E+03
       463   3  2.142625E+05  1.509711E+05  1.830176E+04  1.635311E+05 -1.254581E+03 -7.515504E+03
       463   4  1.627113E+05  1.142494E+05  4.411108E+03  1.371905E+05  5.122924E+03 -5.421695E+03
       463   5  1.641786E+05  1.125132E+05  4.534963E+03  1.366833E+05  2.689721E+03 -5.920401E+03
       463   6  1.627313E+05  1.142841E+05  6.179915E+03  1.371651E+05  2.375464E+02 -6.394044E+03
       463   7  8.967731E+04  6.270553E+04 -1.271657E+04  1.000375E+05  6.530028E+03 -4.364293E+03
       463   8  1.019016E+05  6.840268E+04 -1.007170E+04  1.049247E+05  4.139297E+03 -4.831006E+03
       463   9  1.112023E+05  7.759813E+04 -5.942415E+03  1.108012E+05  1.729535E+03 -5.272689E+03
       463  10  2.357514E+05  1.657965E+05  2.153834E+04  1.743485E+05  2.233051E-09  2.052181E-09
       463  11  2.264596E+05  1.566256E+05  1.914109E+04  1.684453E+05  5.613965E-10 -2.211735E-10
       463  12  2.142625E+05  1.509710E+05  1.830165E+04  1.635311E+05 -2.454608E-09  2.359006E-09
       463  13  1.627112E+05  1.142494E+05  4.411003E+03  1.371905E+05  9.869108E-10 -7.580302E-10
       463  14  1.641786E+05  1.125132E+05  4.534884E+03  1.366833E+05 -2.217274E-11  9.579020E-10
       463  15  1.627313E+05  1.142841E+05  6.179838E+03  1.371651E+05  2.332745E-10 -1.503920E-09
       463  16  8.967725E+04  6.270549E+04 -1.271668E+04  1.000375E+05 -1.071348E-09 -8.630959E-10
       463  17  1.019016E+05  6.840265E+04 -1.007177E+04  1.049248E+05  1.877956E-10 -4.092228E-09
       463  18  1.112023E+05  7.759810E+04 -5.942473E+03  1.108012E+05  1.579261E-09  1.927639E-10
       463  19  2.357514E+05  1.657965E+05  2.153844E+04  1.743485E+05 -3.715600E+03  6.479263E+03
       463  20  2.264596E+05  1.566257E+05  1.914119E+04  1.684453E+05 -1.239964E+03  7.009933E+03
       463  21  2.142625E+05  1.509711E+05  1.830176E+04  1.635311E+05  1.254581E+03  7.515504E+03
       463  22  1.627113E+05  1.142494E+05  4.411108E+03  1.371905E+05 -5.122924E+03  5.421695E+03
       463  23  1.641786E+05  1.125132E+05  4.534963E+03  1.366833E+05 -2.689721E+03  5.920401E+03
       463  24  1.627313E+05  1.142841E+05  6.179915E+03  1.371651E+05 -2.375464E+02  6.394044E+03
       463  25  8.967731E+04  6.270553E+04 -1.271657E+04  1.000375E+05 -6.530028E+03  4.364293E+03
       463  26  1.019016E+05  6.840268E+04 -1.007170E+04  1.049247E+05 -4.139297E+03  4.831006E+03
       463  27  1.112023E+05  7.759813E+04 -5.942415E+03  1.108012E+05 -1.729535E+03  5.272689E+03
       464   1  2.069717E+05  1.465683E+05  1.808530E+04  1.603213E+05 -2.612938E+03 -7.725606E+03
       464   2  1.988889E+05  1.364296E+05  2.060901E+04  1.533507E+05 -8.293016E+03 -1.061995E+04
       464   3  1.897016E+05  1.320486E+05  2.798689E+04  1.466011E+05 -1.396037E+04 -1.353090E+04
       464   4  1.628698E+05  1.143168E+05  7.654972E+03  1.373464E+05 -1.121954E+03 -6.604965E+03
       464   5  1.642407E+05  1.128892E+05  1.265633E+04  1.361429E+05 -6.829870E+03 -9.520226E+03
       464   6  1.645127E+05  1.172251E+05  2.253606E+04  1.351601E+05 -1.252521E+04 -1.245223E+04
       464   7  1.187710E+05  8.206712E+04 -2.775179E+03  1.143739E+05  3.688614E+02 -5.484456E+03
       464   8  1.295941E+05  8.934967E+04  4.703701E+03  1.189363E+05 -5.366848E+03 -8.420593E+03
       464   9  1.393245E+05  1.024019E+05  1.708522E+04  1.237195E+05 -1.109012E+04 -1.137360E+04
       464  10  2.069717E+05  1.465682E+05  1.808518E+04  1.603212E+05  9.622155E-11  3.378592E-10
       464  11  1.988888E+05  1.364295E+05  2.060867E+04  1.533506E+05  8.065228E-10  4.687128E-09
       464  12  1.897013E+05  1.320484E+05  2.798618E+04  1.466010E+05 -4.675600E-10 -1.389209E-09
       464  13  1.628698E+05  1.143167E+05  7.654888E+03  1.373464E+05  3.641303E-10  4.694546E-10
       464  14  1.642406E+05  1.128891E+05  1.265607E+04  1.361428E+05 -3.954501E-10 -1.373619E-09
       464  15  1.645125E+05  1.172249E+05  2.253548E+04  1.351599E+05  8.511975E-10  2.749884E-09
       464  16  1.187710E+05  8.206709E+04 -2.775236E+03  1.143739E+05 -9.525634E-10 -1.093404E-09
       464  17  1.295941E+05  8.934958E+04  4.703514E+03  1.189363E+05  3.800586E-10  2.795361E-09
       464  18  1.393244E+05  1.024017E+05  1.708475E+04  1.237194E+05  5.812374E-10  3.887376E-09
       464  19  2.069717E+05  1.465683E+05  1.808530E+04  1.603213E+05  2.612938E+03  7.725606E+03
       464  20  1.988889E+05  1.364296E+05  2.060901E+04  1.533507E+05  8.293016E+03  1.061995E+04
       464  21  1.897016E+05  1.320486E+05  2.798689E+04  1.466011E+05  1.396037E+04  1.353090E+04
       464  22  1.628698E+05  1.143168E+05  7.654972E+03  1.373464E+05  1.121954E+03  6.604965E+03
       464  23  1.642407E+05  1.128892E+05  1.265633E+04  1.361429E+05  6.829870E+03  9.520226E+03
       464  24  1.645127E+05  1.172251E+05  2.253606E+04  1.351601E+05  1.252521E+04  1.245223E+04
       464  25  1.187710E+05  8.206712E+04 -2.775179E+03  1.143739E+05 -3.688614E+02  5.484456E+03
       464  26  1.295941E+05  8.934967E+04  4.703701E+03  1.189363E+05  5.366848E+03  8.420593E+03
       464  27  1.393245E+05  1.024019E+05  1.708522E+04  1.237195E+05  1.109012E+04  1.137360E+04
       465   1  1.772798E+05  1.347815E+05  3.321869E+04  1.476633E+05 -1.744662E+04 -1.535482E+04
       465   2  2.016400E+05  1.019849E+05  5.448430E+04  1.190342E+05 -3.969096E+04 -3.087994E+04
       465   3  2.553823E+05  1.161486E+05  1.079589E+05  7.204573E+04 -6.177727E+04 -4.661483E+04
       465   4  1.663314E+05  1.175964E+05  2.947410E+04  1.376468E+05 -1.598788E+04 -1.425807E+04
       465   5  1.689142E+05  1.247234E+05  5.336702E+04  1.237875E+05 -3.858742E+04 -3.005327E+04
       465   6  2.009526E+05  1.788850E+05  1.097780E+05  9.156936E+04 -6.102741E+04 -4.606079E+04
       465   7  1.553832E+05  1.004115E+05  2.572944E+04  1.276305E+05 -1.452916E+04 -1.316138E+04
       465   8  1.361907E+05  1.474642E+05  5.225016E+04  1.285401E+05 -3.748395E+04 -2.922650E+04
       465   9  1.465329E+05  2.416339E+05  1.115991E+05  1.110902E+05 -6.027766E+04 -4.550661E+04
       465  10  1.772794E+05  1.347812E+05  3.321767E+04  1.476631E+05  3.189211E-09  2.022686E-09
       465  11  2.016381E+05  1.019835E+05  5.447955E+04  1.190332E+05  1.248709E-09 -1.328374E-09
       465  12  2.553776E+05  1.161452E+05  1.079477E+05  7.204341E+04 -2.422310E-09 -2.315030E-09
       465  13  1.663311E+05  1.175961E+05  2.947324E+04  1.376466E+05  1.366556E-09 -1.419246E-10
       465  14  1.689123E+05  1.247221E+05  5.336253E+04  1.237865E+05  1.585600E-09  2.836140E-09
       465  15  2.009480E+05  1.788817E+05  1.097670E+05  9.156710E+04  1.156864E-09 -1.745511E-09
       465  16  1.553829E+05  1.004112E+05  2.572872E+04  1.276303E+05 -1.666515E-09 -1.429788E-09
       465  17  1.361889E+05  1.474629E+05  5.224592E+04  1.285392E+05  8.681902E-10 -4.690086E-09
       465  18  1.465284E+05  2.416307E+05  1.115883E+05  1.110880E+05  3.313969E-09  1.071223E-09
       465  19  1.772798E+05  1.347815E+05  3.321869E+04  1.476633E+05  1.744662E+04  1.535482E+04
       465  20  2.016400E+05  1.019849E+05  5.448430E+04  1.190342E+05  3.969096E+04  3.087994E+04
       465  21  2.553823E+05  1.161486E+05  1.079589E+05  7.204573E+04  6.177727E+04  4.661483E+04
       465  22  1.663314E+05  1.175964E+05  2.947410E+04  1.376468E+05  1.598788E+04  1.425807E+04
       465  23  1.689142E+05  1.247234E+05  5.336702E+04  1.237875E+05  3.858742E+04  3.005327E+04
       465  24  2.009526E+05  1.788850E+05  1.097780E+05  9.156936E+04  6.102741E+04  4.606079E+04
       465  25  1.553832E+05  1.004115E+05  2.572944E+04  1.276305E+05  1.452916E+04  1.316138E+04
       465  26  1.361907E+05  1.474642E+05  5.225016E+04  1.285401E+05  3.748395E+04  2.922650E+04
       465  27  1.465329E+05  2.416339E+05  1.115991E+05  1.110902E+05  6.027766E+04  4.550661E+04
       466   1  2.381680E+05  6.512886E+04  6.100452E+04  4.873615E+04  1.305670E+04 -3.594423E+03
       466   2  1.847204E+05  5.599334E+04  4.345242E+04  4.556446E+04  3.084163E+03 -1.132937E+04
       466   3  1.319339E+05  4.439122E+04  3.177483E+04  5.398244E+04 -6.894799E+03 -1.181851E+04
       466   4 -5.643542E+04 -7.711306E+03 -8.688712E+03  5.337258E+04 -6.009362E+03 -3.615635E+03
       466   5 -5.570341E+04 -1.622615E+03 -4.252205E+03  4.757323E+04 -3.805255E+03 -1.133764E+04
       466   6 -5.642696E+04 -1.147149E+02 -2.396033E+03  5.336394E+04 -1.608439E+03 -1.181247E+04
       466   7 -3.509582E+05 -8.055742E+04 -7.838658E+04  5.800678E+04 -2.506643E+04 -3.637136E+03
       466   8 -2.960719E+05 -5.924205E+04 -5.195951E+04  4.958118E+04 -1.069206E+04 -1.134596E+04
       466   9 -2.447532E+05 -4.462262E+04 -3.656820E+04  5.274562E+04  3.676361E+03 -1.180645E+04
       466  10  2.381678E+05  6.512880E+04  6.100417E+04  4.873619E+04  4.724694E-08  1.960457E-09
       466  11  1.847204E+05  5.599320E+04  4.345216E+04  4.556449E+04 -3.531789E-09  6.041670E-09
       466  12  1.319338E+05  4.439105E+04  3.177448E+04  5.398237E+04 -5.525762E-08  2.518246E-09
       466  13 -5.643546E+04 -7.711330E+03 -8.688804E+03  5.337257E+04  6.008576E-10 -6.394052E-10
       466  14 -5.570346E+04 -1.622757E+03 -4.252474E+03  4.757319E+04  1.447298E-10 -2.319843E-09
       466  15 -5.642700E+04 -1.148655E+02 -2.396300E+03  5.336392E+04  3.016689E-10  1.283291E-09
       466  16 -3.509589E+05 -8.055760E+04 -7.838779E+04  5.800671E+04 -4.797628E-08  2.231035E-10
       466  17 -2.960720E+05 -5.924222E+04 -5.195997E+04  4.958109E+04  3.572667E-09  3.584196E-09
       466  18 -2.447533E+05 -4.462278E+04 -3.656849E+04  5.274566E+04  5.566398E-08  1.125647E-09
       466  19  2.381680E+05  6.512886E+04  6.100452E+04  4.873615E+04 -1.305670E+04  3.594423E+03
       466  20  1.847204E+05  5.599334E+04  4.345242E+04  4.556446E+04 -3.084163E+03  1.132937E+04
       466  21  1.319339E+05  4.439122E+04  3.177483E+04  5.398244E+04  6.894799E+03  1.181851E+04
       466  22 -5.643542E+04 -7.711306E+03 -8.688712E+03  5.337258E+04  6.009362E+03  3.615635E+03
       466  23 -5.570341E+04 -1.622615E+03 -4.252205E+03  4.757323E+04  3.805255E+03  1.133764E+04
       466  24 -5.642696E+04 -1.147149E+02 -2.396033E+03  5.336394E+04  1.608439E+03  1.181247E+04
       466  25 -3.509582E+05 -8.055742E+04 -7.838658E+04  5.800678E+04  2.506643E+04  3.637136E+03
       466  26 -2.960719E+05 -5.924205E+04 -5.195951E+04  4.958118E+04  1.069206E+04  1.134596E+04
       466  27 -2.447532E+05 -4.462262E+04 -3.656820E+04  5.274562E+04 -3.676361E+03  1.180645E+04
       467   1  9.726317E+04  3.596752E+04  2.571464E+04  5.345586E+04 -5.757219E+03 -9.847054E+03
       467   2  4.420041E+04  2.362132E+04  1.637183E+04  4.747772E+04 -6.186590E+03 -6.891069E+03
       467   3 -8.848741E+03  1.122494E+04  7.287346E+03  5.355352E+04 -6.616837E+03 -3.336340E+03
       467   4 -5.613782E+04 -2.288454E+02 -1.872004E+03  5.346823E+04 -1.292496E+03 -9.841829E+03
       467   5 -5.605376E+04  6.349802E+01 -1.163097E+03  4.744097E+04 -7.162259E+02 -6.884432E+03
       467   6 -5.613429E+04  1.309548E+02 -8.945344E+02  5.346779E+04 -1.408802E+02 -3.328237E+03
       467   7 -2.095158E+05 -3.642651E+04 -2.945948E+04  5.348059E+04  3.171154E+03 -9.836604E+03
       467   8 -1.562980E+05 -2.349486E+04 -1.869827E+04  4.740423E+04  4.753282E+03 -6.877795E+03
       467   9 -1.034176E+05 -1.096313E+04 -9.076334E+03  5.338208E+04  6.334599E+03 -3.320136E+03
       467  10  9.726311E+04  3.596741E+04  2.571439E+04  5.345582E+04 -5.709432E-09  7.483905E-11
       467  11  4.420035E+04  2.362126E+04  1.637167E+04  4.747768E+04 -2.971132E-09  1.638540E-09
       467  12 -8.848791E+03  1.122492E+04  7.287243E+03  5.355350E+04 -6.483771E-10  8.403793E-10
       467  13 -5.613785E+04 -2.289499E+02 -1.872189E+03  5.346822E+04  4.280370E-10  4.137506E-09
       467  14 -5.605377E+04  6.344699E+01 -1.163187E+03  4.744097E+04  3.657618E-10 -7.289815E-09
       467  15 -5.613429E+04  1.309429E+02 -8.945553E+02  5.346779E+04  9.090225E-11  1.670524E-09
       467  16 -2.095159E+05 -3.642662E+04 -2.945968E+04  5.348062E+04  5.334001E-09 -2.315061E-09
       467  17 -1.562981E+05 -2.349492E+04 -1.869840E+04  4.740426E+04  3.288757E-09 -2.618103E-09
       467  18 -1.034176E+05 -1.096316E+04 -9.076430E+03  5.338209E+04  1.100793E-09 -7.735428E-10
       467  19  9.726317E+04  3.596752E+04  2.571464E+04  5.345586E+04  5.757219E+03  9.847054E+03
       467  20  4.420041E+04  2.362132E+04  1.637183E+04  4.747772E+04  6.186590E+03  6.891069E+03
       467  21 -8.848741E+03  1.122494E+04  7.287346E+03  5.355352E+04  6.616837E+03  3.336340E+03
       467  22 -5.613782E+04 -2.288454E+02 -1.872004E+03  5.346823E+04  1.292496E+03  9.841829E+03
       467  23 -5.605376E+04  6.349802E+01 -1.163097E+03  4.744097E+04  7.162259E+02  6.884432E+03
       467  24 -5.613429E+04  1.309548E+02 -8.945344E+02  5.346779E+04  1.408802E+02  3.328237E+03
       467  25 -2.095158E+05 -3.642651E+04 -2.945948E+04  5.348059E+04 -3.171154E+03  9.836604E+03
       467  26 -1.562980E+05 -2.349486E+04 -1.869827E+04  4.740423E+04 -4.753282E+03  6.877795E+03
       467  27 -1.034176E+05 -1.096313E+04 -9.076334E+03  5.338208E+04 -6.334599E+03  3.320136E+03
       468   1 -4.349806E+04  3.060127E+03  1.147523E+03  5.345428E+04 -6.451238E+03 -1.050142E+03
       468   2 -9.640870E+04 -9.449005E+03 -8.308236E+03  4.745199E+04 -5.161933E+03  2.566228E+03
       468   3 -1.496000E+05 -2.227801E+04 -1.869340E+04  5.351233E+04 -3.872095E+03  5.718970E+03
       468   4 -5.613005E+04  1.299600E+02 -8.709944E+02  5.346969E+04  1.041732E+01 -1.042016E+03
       468   5 -5.605710E+04  7.691543E+01 -1.033345E+03  4.743858E+04  5.207426E+02  2.573292E+03
       468   6 -5.613148E+04 -1.604166E+02 -1.583906E+03  5.347005E+04  1.031695E+03  5.724992E+03
       468   7 -6.876180E+04 -2.800192E+03 -2.889359E+03  5.348511E+04  6.471946E+03 -1.033890E+03
       468   8 -1.570384E+04  9.602762E+03  6.241603E+03  4.742518E+04  6.203777E+03  2.580356E+03
       468   9  3.734557E+04  2.195670E+04  1.552533E+04  5.342776E+04  5.936203E+03  5.731013E+03
       468  10 -4.349810E+04  3.060114E+03  1.147442E+03  5.345427E+04 -5.682490E-08 -5.102380E-09
       468  11 -9.640873E+04 -9.449019E+03 -8.308298E+03  4.745200E+04 -1.752565E-09 -5.871856E-09
       468  12 -1.496000E+05 -2.227805E+04 -1.869349E+04  5.351235E+04  5.381223E-08 -3.384837E-09
       468  13 -5.613005E+04  1.299588E+02 -8.709964E+02  5.346969E+04  3.509946E-10 -3.468754E-09
       468  14 -5.605710E+04  7.690825E+01 -1.033358E+03  4.743858E+04 -9.936709E-11 -6.207215E-09
       468  15 -5.613149E+04 -1.604521E+02 -1.583970E+03  5.347005E+04  2.644557E-10 -3.602585E-09
       468  16 -6.876184E+04 -2.800205E+03 -2.889439E+03  5.348512E+04  5.627490E-08 -4.971981E-09
       468  17 -1.570388E+04  9.602744E+03  6.241518E+03  4.742516E+04  1.606498E-09 -7.574594E-10
       468  18  3.734552E+04  2.195665E+04  1.552520E+04  5.342773E+04 -5.346005E-08 -9.654064E-12
       468  19 -4.349806E+04  3.060127E+03  1.147523E+03  5.345428E+04  6.451238E+03  1.050142E+03
       468  20 -9.640870E+04 -9.449005E+03 -8.308236E+03  4.745199E+04  5.161933E+03 -2.566228E+03
       468  21 -1.496000E+05 -2.227801E+04 -1.869340E+04  5.351233E+04  3.872095E+03 -5.718970E+03
       468  22 -5.613005E+04  1.299600E+02 -8.709944E+02  5.346969E+04 -1.041732E+01  1.042016E+03
       468  23 -5.605710E+04  7.691543E+01 -1.033345E+03  4.743858E+04 -5.207426E+02 -2.573292E+03
       468  24 -5.613148E+04 -1.604166E+02 -1.583906E+03  5.347005E+04 -1.031695E+03 -5.724992E+03
       468  25 -6.876180E+04 -2.800192E+03 -2.889359E+03  5.348511E+04 -6.471946E+03  1.033890E+03
       468  26 -1.570384E+04  9.602762E+03  6.241603E+03  4.742518E+04 -6.203777E+03 -2.580356E+03
       468  27  3.734557E+04  2.195670E+04  1.552533E+04  5.342776E+04 -5.936203E+03 -5.731013E+03
       469   1 -1.847196E+05 -3.046111E+04 -2.560354E+04  5.290029E+04 -4.266758E+03  7.760190E+03
       469   2 -2.363574E+05 -4.467780E+04 -3.975423E+04  4.921148E+04  7.376330E+03  8.161610E+03
       469   3 -2.909074E+05 -6.437219E+04 -6.286246E+04  5.721200E+04  1.902460E+04  2.711270E+03
       469   4 -5.636854E+04 -6.618631E+01 -2.004420E+03  5.338610E+04  1.297921E+03  7.766901E+03
       469   5 -5.576797E+04 -1.311213E+03 -3.517175E+03  4.754510E+04  3.113524E+03  8.156311E+03
       469   6 -5.637493E+04 -6.326435E+03 -7.160919E+03  5.339344E+04  4.935368E+03  2.694660E+03
       469   7  7.199862E+04  3.032782E+04  2.159414E+04  5.387200E+04  6.863721E+03  7.773619E+03
       469   8  1.248527E+05  4.205338E+04  3.271829E+04  4.587822E+04 -1.150498E+03  8.151036E+03
       469   9  1.782085E+05  5.171553E+04  4.853754E+04  4.957341E+04 -9.159165E+03  2.678227E+03
       469  10 -1.847197E+05 -3.046118E+04 -2.560369E+04  5.290032E+04  4.657217E-09 -4.759860E-09
       469  11 -2.363575E+05 -4.467788E+04 -3.975446E+04  4.921143E+04  1.849157E-10 -2.554670E-09
       469  12 -2.909078E+05 -6.437230E+04 -6.286316E+04  5.721196E+04 -2.357456E-09 -6.953573E-10
       469  13 -5.636856E+04 -6.625154E+01 -2.004536E+03  5.338609E+04  7.548830E-10 -1.633646E-09
       469  14 -5.576800E+04 -1.311287E+03 -3.517318E+03  4.754508E+04  3.404606E-10 -4.757839E-09
       469  15 -5.637495E+04 -6.326450E+03 -7.160979E+03  5.339343E+04  1.424379E-10 -1.132396E-09
       469  16  7.199856E+04  3.032774E+04  2.159394E+04  5.387196E+04 -4.969372E-09 -7.207541E-10
       469  17  1.248526E+05  4.205331E+04  3.271816E+04  4.587823E+04  8.127433E-11  1.074507E-09
       469  18  1.782085E+05  5.171549E+04  4.853737E+04  4.957343E+04  2.772200E-09  4.878897E-10
       469  19 -1.847196E+05 -3.046111E+04 -2.560354E+04  5.290029E+04  4.266758E+03 -7.760190E+03
       469  20 -2.363574E+05 -4.467780E+04 -3.975423E+04  4.921148E+04 -7.376330E+03 -8.161610E+03
       469  21 -2.909074E+05 -6.437219E+04 -6.286246E+04  5.721200E+04 -1.902460E+04 -2.711270E+03
       469  22 -5.636854E+04 -6.618631E+01 -2.004420E+03  5.338610E+04 -1.297921E+03 -7.766901E+03
       469  23 -5.576797E+04 -1.311213E+03 -3.517175E+03  4.754510E+04 -3.113524E+03 -8.156311E+03
       469  24 -5.637493E+04 -6.326435E+03 -7.160919E+03  5.339344E+04 -4.935368E+03 -2.694660E+03
       469  25  7.199862E+04  3.032782E+04  2.159414E+04  5.387200E+04 -6.863721E+03 -7.773619E+03
       469  26  1.248527E+05  4.205338E+04  3.271829E+04  4.587822E+04  1.150498E+03 -8.151036E+03
       469  27  1.782085E+05  5.171553E+04  4.853754E+04  4.957341E+04  9.159165E+03 -2.678227E+03
       470   1 -1.360047E+05 -6.059785E+05 -1.358234E+05  1.411271E+05 -4.196152E+03 -4.901772E+04
       470   2 -7.717997E+04 -4.831364E+05 -7.721849E+04  1.161109E+05 -1.212214E+04 -2.218209E+04
       470   3 -4.188231E+04 -3.695899E+05 -4.197091E+04  1.172945E+05 -9.754571E+03  4.669747E+03
       470   4 -3.497353E+04 -1.985242E+05 -3.853296E+04  1.192347E+05 -4.211687E+03 -2.711382E+04
       470   5 -7.843254E+03 -1.953598E+05 -1.851760E+04  1.061476E+05 -1.212484E+04 -1.755329E+04
       470   6 -1.232256E+03 -1.984988E+05 -9.850187E+03  1.192620E+05 -9.745586E+03 -7.982211E+03
       470   7  6.604762E+04  2.090845E+05  5.874786E+04  9.732795E+04 -4.228763E+03 -5.195597E+03
       470   8  6.148866E+04  9.249592E+04  4.017907E+04  9.617966E+04 -1.212769E+04 -1.292237E+04
       470   9  3.941620E+04 -2.737905E+04  2.226987E+04  1.212301E+05 -9.736683E+03 -2.063757E+04
       470  10 -1.360053E+05 -6.059811E+05 -1.358280E+05  1.411269E+05 -3.117015E-10  7.796864E-11
       470  11 -7.718026E+04 -4.831370E+05 -7.721969E+04  1.161107E+05 -4.071134E-10  2.200081E-09
       470  12 -4.188242E+04 -3.695899E+05 -4.197113E+04  1.172945E+05  1.551968E-09  3.878506E-10
       470  13 -3.497375E+04 -1.985250E+05 -3.853437E+04  1.192346E+05  3.759695E-10 -2.315207E-10
       470  14 -7.843494E+03 -1.953601E+05 -1.851845E+04  1.061475E+05 -1.280124E-09  2.001731E-10
       470  15 -1.232375E+03 -1.984989E+05 -9.850485E+03  1.192619E+05  6.690850E-10  5.512660E-10
       470  16  6.604759E+04  2.090845E+05  5.874777E+04  9.732794E+04  2.921335E-10 -1.020413E-09
       470  17  6.148846E+04  9.249570E+04  4.017848E+04  9.617953E+04  3.832501E-10 -1.383512E-09
       470  18  3.941599E+04 -2.737953E+04  2.226889E+04  1.212300E+05 -3.914448E-10 -2.870780E-10
       470  19 -1.360047E+05 -6.059785E+05 -1.358234E+05  1.411271E+05  4.196152E+03  4.901772E+04
       470  20 -7.717997E+04 -4.831364E+05 -7.721849E+04  1.161109E+05  1.212214E+04  2.218209E+04
       470  21 -4.188231E+04 -3.695899E+05 -4.197091E+04  1.172945E+05  9.754571E+03 -4.669747E+03
       470  22 -3.497353E+04 -1.985242E+05 -3.853296E+04  1.192347E+05  4.211687E+03  2.711382E+04
       470  23 -7.843254E+03 -1.953598E+05 -1.851760E+04  1.061476E+05  1.212484E+04  1.755329E+04
       470  24 -1.232256E+03 -1.984988E+05 -9.850187E+03  1.192620E+05  9.745586E+03  7.982211E+03
       470  25  6.604762E+04  2.090845E+05  5.874786E+04  9.732795E+04  4.228763E+03  5.195597E+03
       470  26  6.148866E+04  9.249592E+04  4.017907E+04  9.617966E+04  1.212769E+04  1.292237E+04
       470  27  3.941620E+04 -2.737905E+04  2.226987E+04  1.212301E+05  9.736683E+03  2.063757E+04
       471   1 -2.402175E+04 -2.906486E+05 -2.501311E+04  1.200049E+05 -5.115080E+03  4.853341E+03
       471   2  5.445102E+03 -1.723164E+05  1.071183E+03  1.061868E+05  1.730478E+03  6.285212E+03
       471   3  3.408186E+04 -5.430205E+04  2.603012E+04  1.191922E+05  8.473534E+03  7.717381E+03
       471   4 -1.763857E+03 -1.971746E+05 -7.228727E+03  1.193959E+05 -5.107180E+03 -6.731784E+03
       471   5 -3.459434E+02 -1.969949E+05 -3.202213E+03  1.059848E+05  1.738381E+03 -5.128364E+03
       471   6  2.129093E+02 -1.971760E+05 -4.197244E+02  1.193973E+05  8.481412E+03 -3.524900E+03
       471   7  2.049359E+04 -1.036918E+05  1.055577E+04  1.187868E+05 -5.099259E+03 -1.831861E+04
       471   8 -6.136951E+03 -2.216725E+05 -7.475141E+03  1.057828E+05  1.746291E+03 -1.654150E+04
       471   9 -3.365714E+04 -3.400300E+05 -2.686995E+04  1.196023E+05  8.489283E+03 -1.476466E+04
       471  10 -2.402178E+04 -2.906486E+05 -2.501321E+04  1.200049E+05  9.013441E-10 -9.609270E-10
       471  11  5.445088E+03 -1.723164E+05  1.071103E+03  1.061868E+05  4.586423E-10  1.771729E-09
       471  12  3.408176E+04 -5.430213E+04  2.602988E+04  1.191921E+05  1.094693E-09 -8.942494E-10
       471  13 -1.763898E+03 -1.971746E+05 -7.228861E+03  1.193958E+05  9.452129E-10 -2.770722E-10
       471  14 -3.459538E+02 -1.969949E+05 -3.202269E+03  1.059848E+05  7.795177E-10  3.229848E-10
       471  15  2.128288E+02 -1.971761E+05 -4.198830E+02  1.193973E+05  1.036840E-09 -1.990351E-10
       471  16  2.049348E+04 -1.036922E+05  1.055509E+04  1.187867E+05  2.685554E-10 -3.667303E-10
       471  17 -6.137028E+03 -2.216728E+05 -7.475661E+03  1.057828E+05  8.283154E-11 -1.230913E-09
       471  18 -3.365727E+04 -3.400302E+05 -2.687050E+04  1.196024E+05 -5.177055E-10  8.531684E-10
       471  19 -2.402175E+04 -2.906486E+05 -2.501311E+04  1.200049E+05  5.115080E+03 -4.853341E+03
       471  20  5.445102E+03 -1.723164E+05  1.071183E+03  1.061868E+05 -1.730478E+03 -6.285212E+03
       471  21  3.408186E+04 -5.430205E+04  2.603012E+04  1.191922E+05 -8.473534E+03 -7.717381E+03
       471  22 -1.763857E+03 -1.971746E+05 -7.228727E+03  1.193959E+05  5.107180E+03  6.731784E+03
       471  23 -3.459434E+02 -1.969949E+05 -3.202213E+03  1.059848E+05 -1.738381E+03  5.128364E+03
       471  24  2.129093E+02 -1.971760E+05 -4.197244E+02  1.193973E+05 -8.481412E+03  3.524900E+03
       471  25  2.049359E+04 -1.036918E+05  1.055577E+04  1.187868E+05  5.099259E+03  1.831861E+04
       471  26 -6.136951E+03 -2.216725E+05 -7.475141E+03  1.057828E+05 -1.746291E+03  1.654150E+04
       471  27 -3.365714E+04 -3.400300E+05 -2.686995E+04  1.196023E+05 -8.489283E+03  1.476466E+04
       472   1  5.232435E+04  2.380794E+04  4.167367E+04  1.185008E+05  1.305732E+04  8.953538E+03
       472   2  8.275954E+04  1.396104E+05  7.196065E+04  1.082806E+05  1.476097E+04 -1.225801E+04
       472   3  1.214884E+05  2.603363E+05  1.181444E+05  1.241982E+05  5.018241E+03 -3.348542E+04
       472   4  3.601022E+01 -1.967513E+05  8.168582E+02  1.192436E+05  1.306651E+04 -3.498317E+03
       472   5  1.698960E+03 -1.975513E+05  3.804060E+03  1.061780E+05  1.475638E+04 -5.475011E+03
       472   6  8.319879E+03 -1.967763E+05  9.332721E+03  1.192505E+05  4.997217E+03 -7.463624E+03
       472   7 -5.225503E+04 -4.172631E+05 -4.004141E+04  1.199862E+05  1.307567E+04 -1.594586E+04
       472   8 -7.936863E+04 -5.346045E+05 -6.435822E+04  1.040766E+05  1.475174E+04  1.304377E+03
       472   9 -1.048633E+05 -6.536956E+05 -9.949100E+04  1.143065E+05  4.975771E+03  1.853911E+04
       472  10  5.232415E+04  2.380781E+04  4.167320E+04  1.185007E+05  1.233112E-09 -4.869805E-10
       472  11  8.275927E+04  1.396101E+05  7.195995E+04  1.082807E+05 -2.191490E-10  2.944683E-09
       472  12  1.214881E+05  2.603351E+05  1.181422E+05  1.241983E+05 -8.059423E-10  6.348524E-10
       472  13  3.582360E+01 -1.967514E+05  8.165144E+02  1.192437E+05 -8.008995E-10  2.414768E-10
       472  14  1.698718E+03 -1.975513E+05  3.803595E+03  1.061781E+05 -1.058582E-10 -7.716935E-10
       472  15  8.319837E+03 -1.967763E+05  9.332569E+03  1.192505E+05 -4.526218E-10  3.542183E-10
       472  16 -5.225529E+04 -4.172634E+05 -4.004221E+04  1.199864E+05 -5.172627E-10 -1.120391E-09
       472  17 -7.936886E+04 -5.346045E+05 -6.435863E+04  1.040766E+05  3.423060E-10 -1.889284E-09
       472  18 -1.048634E+05 -6.536960E+05 -9.949170E+04  1.143064E+05  1.843513E-10 -4.397825E-10
       472  19  5.232435E+04  2.380794E+04  4.167367E+04  1.185008E+05 -1.305732E+04 -8.953538E+03
       472  20  8.275954E+04  1.396104E+05  7.196065E+04  1.082806E+05 -1.476097E+04  1.225801E+04
       472  21  1.214884E+05  2.603363E+05  1.181444E+05  1.241982E+05 -5.018241E+03  3.348542E+04
       472  22  3.601022E+01 -1.967513E+05  8.168582E+02  1.192436E+05 -1.306651E+04  3.498317E+03
       472  23  1.698960E+03 -1.975513E+05  3.804060E+03  1.061780E+05 -1.475638E+04  5.475011E+03
       472  24  8.319879E+03 -1.967763E+05  9.332721E+03  1.192505E+05 -4.997217E+03  7.463624E+03
       472  25 -5.225503E+04 -4.172631E+05 -4.004141E+04  1.199862E+05 -1.307567E+04  1.594586E+04
       472  26 -7.936863E+04 -5.346045E+05 -6.435822E+04  1.040766E+05 -1.475174E+04 -1.304377E+03
       472  27 -1.048633E+05 -6.536956E+05 -9.949100E+04  1.143065E+05 -4.975771E+03 -1.853911E+04
       473   1  1.772760E+05  1.775163E+05  6.644822E+04  1.194057E+05  3.185202E+04  2.252681E+04
       473   2  1.721280E+05  1.361990E+05  3.752949E+04  1.270454E+05  2.130480E+04  1.130010E+04
       473   3  1.803191E+05  1.156884E+05  2.492287E+04  1.267471E+05  9.593256E+03  1.622974E+03
       473   4  1.437122E+05  1.097926E+05  4.738315E+04  8.261798E+04  2.700759E+04  1.888363E+04
       473   5  1.298535E+05  8.644465E+04  2.308430E+04  9.653062E+04  1.906388E+04  9.615154E+03
       473   6  1.287695E+05  8.333877E+04  1.283696E+04  1.025050E+05  9.955923E+03  1.895562E+03
       473   7  1.101507E+05  4.207641E+04  2.831814E+04  4.583389E+04  2.216347E+04  1.524134E+04
       473   8  8.758082E+04  3.669340E+04  8.638776E+03  6.601858E+04  1.682313E+04  7.930473E+03
       473   9  7.722200E+04  5.098974E+04  7.505784E+02  7.826465E+04  1.031856E+04  2.168129E+03
       473  10  1.772748E+05  1.775155E+05  6.644536E+04  1.194051E+05 -2.378620E-09 -4.045790E-11
       473  11  1.721274E+05  1.361988E+05  3.752839E+04  1.270452E+05 -2.253149E-09  5.881063E-10
       473  12  1.803190E+05  1.156884E+05  2.492269E+04  1.267471E+05 -1.303825E-09  1.538256E-09
       473  13  1.437113E+05  1.097920E+05  4.738111E+04  8.261757E+04  4.292926E-10 -2.472070E-10
       473  14  1.298531E+05  8.644446E+04  2.308344E+04  9.653047E+04 -1.342832E-09 -1.693587E-09
       473  15  1.287694E+05  8.333874E+04  1.283677E+04  1.025050E+05 -7.103336E-10 -3.595181E-10
       473  16  1.101501E+05  4.207603E+04  2.831678E+04  4.583361E+04  8.410341E-10  5.399966E-10
       473  17  8.758050E+04  3.669326E+04  8.638126E+03  6.601847E+04 -1.196056E-10 -2.113048E-09
       473  18  7.722189E+04  5.098971E+04  7.503695E+02  7.826463E+04  2.008189E-10 -2.023169E-09
       473  19  1.772760E+05  1.775163E+05  6.644822E+04  1.194057E+05 -3.185202E+04 -2.252681E+04
       473  20  1.721280E+05  1.361990E+05  3.752949E+04  1.270454E+05 -2.130480E+04 -1.130010E+04
       473  21  1.803191E+05  1.156884E+05  2.492287E+04  1.267471E+05 -9.593256E+03 -1.622974E+03
       473  22  1.437122E+05  1.097926E+05  4.738315E+04  8.261798E+04 -2.700759E+04 -1.888363E+04
       473  23  1.298535E+05  8.644465E+04  2.308430E+04  9.653062E+04 -1.906388E+04 -9.615154E+03
       473  24  1.287695E+05  8.333877E+04  1.283696E+04  1.025050E+05 -9.955923E+03 -1.895562E+03
       473  25  1.101507E+05  4.207641E+04  2.831814E+04  4.583389E+04 -2.216347E+04 -1.524134E+04
       473  26  8.758082E+04  3.669340E+04  8.638776E+03  6.601858E+04 -1.682313E+04 -7.930473E+03
       473  27  7.722200E+04  5.098974E+04  7.505784E+02  7.826465E+04 -1.031856E+04 -2.168129E+03
       474   1  1.731540E+05  1.164203E+05  2.107808E+04  1.249777E+05  8.304189E+03  8.965577E+02
       474   2  1.687129E+05  1.105723E+05  1.552296E+04  1.228219E+05  5.644832E+03 -8.210239E+02
       474   3  1.638098E+05  1.073220E+05  1.236798E+04  1.207841E+05  2.882077E+03 -2.400887E+03
       474   4  1.279615E+05  8.320380E+04  9.886411E+03  1.014406E+05  8.490271E+03  1.036369E+03
       474   5  1.278615E+05  8.129940E+04  5.751658E+03  1.018560E+05  6.062459E+03 -5.071505E+02
       474   6  1.272492E+05  8.194247E+04  3.816117E+03  1.023895E+05  3.531195E+03 -1.912988E+03
       474   7  8.277213E+04  4.998923E+04 -1.305112E+03  7.790593E+04  8.676332E+03  1.176163E+03
       474   8  8.701240E+04  5.202781E+04 -4.019613E+03  8.089203E+04  6.480044E+03 -1.933082E+02
       474   9  9.069024E+04  5.656374E+04 -4.735818E+03  8.399617E+04  4.180261E+03 -1.425127E+03
       474  10  1.731540E+05  1.164203E+05  2.107795E+04  1.249777E+05  8.013871E-09  5.932972E-09
       474  11  1.687128E+05  1.105723E+05  1.552290E+04  1.228219E+05 -9.377340E-09 -1.052170E-08
       474  12  1.638098E+05  1.073220E+05  1.236795E+04  1.207841E+05 -3.687805E-08 -3.275347E-08
       474  13  1.279614E+05  8.320377E+04  9.886274E+03  1.014406E+05  1.391905E-09  3.472247E-09
       474  14  1.278614E+05  8.129939E+04  5.751589E+03  1.018560E+05  1.348691E-09  2.724015E-09
       474  15  1.272492E+05  8.194246E+04  3.816087E+03  1.023895E+05 -8.425534E-09 -9.699121E-09
       474  16  8.277205E+04  4.998921E+04 -1.305256E+03  7.790592E+04 -5.645001E-09 -5.411106E-09
       474  17  8.701236E+04  5.202780E+04 -4.019692E+03  8.089203E+04  1.269223E-08  1.110768E-08
       474  18  9.069022E+04  5.656373E+04 -4.735855E+03  8.399618E+04  1.877112E-08  1.013435E-08
       474  19  1.731540E+05  1.164203E+05  2.107808E+04  1.249777E+05 -8.304189E+03 -8.965577E+02
       474  20  1.687129E+05  1.105723E+05  1.552296E+04  1.228219E+05 -5.644832E+03  8.210239E+02
       474  21  1.638098E+05  1.073220E+05  1.236798E+04  1.207841E+05 -2.882077E+03  2.400887E+03
       474  22  1.279615E+05  8.320380E+04  9.886411E+03  1.014406E+05 -8.490271E+03 -1.036369E+03
       474  23  1.278615E+05  8.129940E+04  5.751658E+03  1.018560E+05 -6.062459E+03  5.071505E+02
       474  24  1.272492E+05  8.194247E+04  3.816117E+03  1.023895E+05 -3.531195E+03  1.912988E+03
       474  25  8.277213E+04  4.998923E+04 -1.305112E+03  7.790593E+04 -8.676332E+03 -1.176163E+03
       474  26  8.701240E+04  5.202781E+04 -4.019613E+03  8.089203E+04 -6.480044E+03  1.933082E+02
       474  27  9.069024E+04  5.656374E+04 -4.735818E+03  8.399617E+04 -4.180261E+03  1.425127E+03
       475   1  1.603943E+05  1.053148E+05  1.112347E+04  1.191880E+05  2.222266E+03 -2.540926E+03
       475   2  1.561512E+05  1.011720E+05  9.783840E+03  1.165313E+05  6.728879E+02 -3.106751E+03
       475   3  1.506748E+05  9.867989E+04  9.513949E+03  1.143327E+05 -8.851341E+02 -3.661119E+03
       475   4  1.271959E+05  8.193285E+04  3.344563E+03  1.023220E+05  2.855632E+03 -2.064856E+03
       475   5  1.278180E+05  8.111576E+04  3.140088E+03  1.020883E+05  1.325586E+03 -2.616132E+03
       475   6  1.272027E+05  8.194509E+04  3.988628E+03  1.023126E+05 -2.130930E+02 -3.155947E+03
       475   7  9.399819E+04  5.855118E+04 -4.434613E+03  8.545674E+04  3.488964E+03 -1.588811E+03
       475   8  9.948574E+04  6.106000E+04 -3.503712E+03  8.764597E+04  1.978244E+03 -2.125543E+03
       475   9  1.037317E+05  6.521095E+04 -1.536579E+03  9.029321E+04  4.589025E+02 -2.650810E+03
       475  10  1.603943E+05  1.053148E+05  1.112345E+04  1.191880E+05  7.325176E-09  5.515129E-09
       475  11  1.561512E+05  1.011720E+05  9.783821E+03  1.165313E+05  2.737482E-08  2.351998E-08
       475  12  1.506748E+05  9.867988E+04  9.513922E+03  1.143327E+05  3.902577E-08  3.334537E-08
       475  13  1.271959E+05  8.193284E+04  3.344540E+03  1.023220E+05 -1.003311E-08 -1.213689E-08
       475  14  1.278180E+05  8.111575E+04  3.140072E+03  1.020883E+05 -1.173899E-09  8.909279E-12
       475  15  1.272027E+05  8.194508E+04  3.988610E+03  1.023126E+05  3.873755E-09  6.355414E-09
       475  16  9.399817E+04  5.855117E+04 -4.434641E+03  8.545674E+04 -2.716651E-08 -2.555529E-08
       475  17  9.948573E+04  6.106000E+04 -3.503728E+03  8.764597E+04 -2.879524E-08 -1.889464E-08
       475  18  1.037317E+05  6.521094E+04 -1.536593E+03  9.029321E+04 -3.218419E-08 -2.003202E-08
       475  19  1.603943E+05  1.053148E+05  1.112347E+04  1.191880E+05 -2.222266E+03  2.540926E+03
       475  20  1.561512E+05  1.011720E+05  9.783840E+03  1.165313E+05 -6.728879E+02  3.106751E+03
       475  21  1.506748E+05  9.867989E+04  9.513949E+03  1.143327E+05  8.851341E+02  3.661119E+03
       475  22  1.271959E+05  8.193285E+04  3.344563E+03  1.023220E+05 -2.855632E+03  2.064856E+03
       475  23  1.278180E+05  8.111576E+04  3.140088E+03  1.020883E+05 -1.325586E+03  2.616132E+03
       475  24  1.272027E+05  8.194509E+04  3.988628E+03  1.023126E+05  2.130930E+02  3.155947E+03
       475  25  9.399819E+04  5.855118E+04 -4.434613E+03  8.545674E+04 -3.488964E+03  1.588811E+03
       475  26  9.948574E+04  6.106000E+04 -3.503712E+03  8.764597E+04 -1.978244E+03  2.125543E+03
       475  27  1.037317E+05  6.521095E+04 -1.536579E+03  9.029321E+04 -4.589025E+02  2.650810E+03
       476   1  1.473288E+05  9.678234E+04  9.602404E+03  1.129366E+05 -1.679732E+03 -3.893165E+03
       476   2  1.438375E+05  9.205641E+04  1.147557E+04  1.096222E+05 -5.087366E+03 -5.834834E+03
       476   3  1.401954E+05  9.033562E+04  1.635067E+04  1.062949E+05 -8.489844E+03 -7.783368E+03
       476   4  1.272850E+05  8.196477E+04  4.839361E+03  1.024207E+05 -1.008296E+03 -3.388441E+03
       476   5  1.278620E+05  8.135087E+04  7.827895E+03  1.017581E+05 -4.427353E+03 -5.338696E+03
       476   6  1.282906E+05  8.374463E+04  1.382830E+04  1.010824E+05 -7.841308E+03 -7.295866E+03
       476   7  1.072416E+05  6.714746E+04  7.629013E+01  9.190526E+04 -3.368885E+02 -2.883739E+03
       476   8  1.118866E+05  7.064536E+04  4.180152E+03  9.389406E+04 -3.767357E+03 -4.842568E+03
       476   9  1.163858E+05  7.715357E+04  1.130586E+04  9.586990E+04 -7.192778E+03 -6.808364E+03
       476  10  1.473288E+05  9.678233E+04  9.602370E+03  1.129366E+05 -3.817342E-08 -2.566058E-08
       476  11  1.438375E+05  9.205637E+04  1.147546E+04  1.096222E+05 -1.670607E-08 -5.965016E-09
       476  12  1.401953E+05  9.033553E+04  1.635042E+04  1.062948E+05  9.645601E-09  1.098400E-08
       476  13  1.272850E+05  8.196476E+04  4.839337E+03  1.024207E+05  3.275468E-09  4.137271E-09
       476  14  1.278620E+05  8.135083E+04  7.827805E+03  1.017580E+05 -1.738726E-09 -1.113238E-09
       476  15  1.282905E+05  8.374456E+04  1.382809E+04  1.010823E+05  1.620428E-10  2.358956E-09
       476  16  1.072416E+05  6.714745E+04  7.627429E+01  9.190526E+04  4.164791E-08  3.463682E-08
       476  17  1.118866E+05  7.064533E+04  4.180081E+03  9.389404E+04  1.538844E-08  8.409129E-09
       476  18  1.163857E+05  7.715351E+04  1.130568E+04  9.586986E+04 -1.211396E-08 -9.671719E-09
       476  19  1.473288E+05  9.678234E+04  9.602404E+03  1.129366E+05  1.679732E+03  3.893165E+03
       476  20  1.438375E+05  9.205641E+04  1.147557E+04  1.096222E+05  5.087366E+03  5.834834E+03
       476  21  1.401954E+05  9.033562E+04  1.635067E+04  1.062949E+05  8.489844E+03  7.783368E+03
       476  22  1.272850E+05  8.196477E+04  4.839361E+03  1.024207E+05  1.008296E+03  3.388441E+03
       476  23  1.278620E+05  8.135087E+04  7.827895E+03  1.017581E+05  4.427353E+03  5.338696E+03
       476  24  1.282906E+05  8.374463E+04  1.382830E+04  1.010824E+05  7.841308E+03  7.295866E+03
       476  25  1.072416E+05  6.714746E+04  7.629013E+01  9.190526E+04  3.368885E+02  2.883739E+03
       476  26  1.118866E+05  7.064536E+04  4.180152E+03  9.389406E+04  3.767357E+03  4.842568E+03
       476  27  1.163858E+05  7.715357E+04  1.130586E+04  9.586990E+04  7.192778E+03  6.808364E+03
       477   1  1.337204E+05  9.280106E+04  1.981141E+04  1.075132E+05 -1.056145E+04 -8.981235E+03
       477   2  1.500681E+05  7.421635E+04  3.322153E+04  9.095262E+04 -2.414842E+04 -1.864987E+04
       477   3  1.849129E+05  8.384323E+04  6.639074E+04  6.301755E+04 -3.766937E+04 -2.840576E+04
       477   4  1.294008E+05  8.397193E+04  1.805645E+04  1.026024E+05 -9.902955E+03 -8.486117E+03
       477   5  1.307229E+05  8.858702E+04  3.264447E+04  9.420314E+04 -2.363789E+04 -1.826713E+04
       477   6  1.505729E+05  1.214440E+05  6.712024E+04  7.442962E+04 -3.730626E+04 -2.813638E+04
       477   7  1.250814E+05  7.514308E+04  1.630153E+04  9.769185E+04 -9.244473E+03 -7.991022E+03
       477   8  1.113789E+05  1.029583E+05  3.206759E+04  9.745337E+04 -2.312739E+04 -1.788438E+04
       477   9  1.162372E+05  1.590489E+05  6.785050E+04  8.584047E+04 -3.694319E+04 -2.786697E+04
       477  10  1.337202E+05  9.280094E+04  1.981105E+04  1.075131E+05  2.185899E-09  4.890756E-09
       477  11  1.500674E+05  7.421582E+04  3.321978E+04  9.095226E+04  4.892567E-10  4.146093E-09
       477  12  1.849112E+05  8.384198E+04  6.638656E+04  6.301668E+04 -2.332415E-10  1.645356E-09
       477  13  1.294007E+05  8.397183E+04  1.805613E+04  1.026024E+05  7.896395E-10 -1.162735E-10
       477  14  1.307222E+05  8.858651E+04  3.264279E+04  9.420280E+04  1.472249E-10 -7.385988E-10
       477  15  1.505712E+05  1.214428E+05  6.711614E+04  7.442878E+04  1.698969E-10  7.380516E-10
       477  16  1.250812E+05  7.514299E+04  1.630125E+04  9.769179E+04 -2.437911E-09 -7.442376E-10
       477  17  1.113783E+05  1.029578E+05  3.206598E+04  9.745304E+04 -1.256616E-09 -8.476728E-09
       477  18  1.162355E+05  1.590477E+05  6.784648E+04  8.583964E+04 -3.626185E-10 -3.160412E-09
       477  19  1.337204E+05  9.280106E+04  1.981141E+04  1.075132E+05  1.056145E+04  8.981235E+03
       477  20  1.500681E+05  7.421635E+04  3.322153E+04  9.095262E+04  2.414842E+04  1.864987E+04
       477  21  1.849129E+05  8.384323E+04  6.639074E+04  6.301755E+04  3.766937E+04  2.840576E+04
       477  22  1.294008E+05  8.397193E+04  1.805645E+04  1.026024E+05  9.902955E+03  8.486117E+03
       477  23  1.307229E+05  8.858702E+04  3.264447E+04  9.420314E+04  2.363789E+04  1.826713E+04
       477  24  1.505729E+05  1.214440E+05  6.712024E+04  7.442962E+04  3.730626E+04  2.813638E+04
       477  25  1.250814E+05  7.514308E+04  1.630153E+04  9.769185E+04  9.244473E+03  7.991022E+03
       477  26  1.113789E+05  1.029583E+05  3.206759E+04  9.745337E+04  2.312739E+04  1.788438E+04
       477  27  1.162372E+05  1.590489E+05  6.785050E+04  8.584047E+04  3.694319E+04  2.786697E+04
       478   1  1.010690E+05  3.146964E+04  2.967008E+04  2.778627E+04  6.262802E+03 -1.618907E+03
       478   2  7.149938E+04  2.554676E+04  2.021755E+04  2.553775E+04  1.279900E+03 -4.987884E+03
       478   3  4.238861E+04  1.892215E+04  1.383243E+04  2.973137E+04 -3.706361E+03 -4.911627E+03
       478   4 -3.768728E+04 -2.857450E+03 -3.238340E+03  2.948896E+04 -2.282437E+03 -1.628497E+03
       478   5 -3.741254E+04 -5.869737E+02 -1.552293E+03  2.626623E+04 -1.476493E+03 -4.991091E+03
       478   6 -3.768516E+04 -2.330820E+01 -8.186709E+02  2.948576E+04 -6.742339E+02 -4.908159E+03
       478   7 -1.764257E+05 -3.718587E+04 -3.614783E+04  3.119127E+04 -1.082578E+04 -1.638135E+03
       478   8 -1.463131E+05 -2.672143E+04 -2.332270E+04  2.699458E+04 -4.232412E+03 -4.994306E+03
       478   9 -1.177527E+05 -1.896912E+04 -1.547000E+04  2.924018E+04  2.357513E+03 -4.904693E+03
       478  10  1.010689E+05  3.146963E+04  2.967001E+04  2.778628E+04 -2.917510E-10 -3.005131E-10
       478  11  7.149937E+04  2.554673E+04  2.021750E+04  2.553775E+04 -2.759939E-10 -2.257509E-09
       478  12  4.238859E+04  1.892212E+04  1.383236E+04  2.973136E+04 -1.832396E-11 -8.215244E-10
       478  13 -3.768729E+04 -2.857454E+03 -3.238355E+03  2.948896E+04  5.492179E-10  2.913813E-09
       478  14 -3.741254E+04 -5.870010E+02 -1.552344E+03  2.626623E+04  4.967042E-10  8.445485E-11
       478  15 -3.768516E+04 -2.333419E+01 -8.187170E+02  2.948576E+04  4.349476E-10 -1.343932E-09
       478  16 -1.764258E+05 -3.718591E+04 -3.614805E+04  3.119125E+04 -2.258452E-10  9.552000E-11
       478  17 -1.463131E+05 -2.672146E+04 -2.332279E+04  2.699456E+04  6.058984E-10 -2.394967E-09
       478  18 -1.177527E+05 -1.896915E+04 -1.547005E+04  2.924019E+04  4.054060E-10 -9.067386E-10
       478  19  1.010690E+05  3.146964E+04  2.967008E+04  2.778627E+04 -6.262802E+03  1.618907E+03
       478  20  7.149938E+04  2.554676E+04  2.021755E+04  2.553775E+04 -1.279900E+03  4.987884E+03
       478  21  4.238861E+04  1.892215E+04  1.383243E+04  2.973137E+04  3.706361E+03  4.911627E+03
       478  22 -3.768728E+04 -2.857450E+03 -3.238340E+03  2.948896E+04  2.282437E+03  1.628497E+03
       478  23 -3.741254E+04 -5.869737E+02 -1.552293E+03  2.626623E+04  1.476493E+03  4.991091E+03
       478  24 -3.768516E+04 -2.330820E+01 -8.186709E+02  2.948576E+04  6.742339E+02  4.908159E+03
       478  25 -1.764257E+05 -3.718587E+04 -3.614783E+04  3.119127E+04  1.082578E+04  1.638135E+03
       478  26 -1.463131E+05 -2.672143E+04 -2.332270E+04  2.699458E+04  4.232412E+03  4.994306E+03
       478  27 -1.177527E+05 -1.896912E+04 -1.547000E+04  2.924018E+04 -2.357513E+03  4.904693E+03
       479   1  2.321236E+04  1.430034E+04  1.045643E+04  2.954230E+04 -3.215367E+03 -3.794058E+03
       479   2 -6.113801E+03  7.441082E+03  5.338381E+03  2.622462E+04 -3.558707E+03 -2.083253E+03
       479   3 -3.541073E+04  5.929720E+02  4.415745E+02  2.957031E+04 -3.902387E+03 -9.572101E+01
       479   4 -3.757454E+04 -6.728213E+01 -5.947592E+02  2.953535E+04 -5.729272E+02 -3.791002E+03
       479   5 -3.754829E+04  3.705436E+01 -2.464563E+02  2.620358E+04 -4.514165E+02 -2.079621E+03
       479   6 -3.757392E+04  7.198450E+01  3.683538E-01  2.953519E+04 -3.302529E+02 -9.150437E+01
       479   7 -9.835783E+04 -1.443511E+04 -1.164607E+04  2.952841E+04  2.069261E+03 -3.787945E+03
       479   8 -6.898178E+04 -7.367023E+03 -5.831294E+03  2.618253E+04  2.655722E+03 -2.075989E+03
       479   9 -3.973708E+04 -4.489965E+02 -4.407901E+02  2.950007E+04  3.241869E+03 -8.728812E+01
       479  10  2.321235E+04  1.430033E+04  1.045638E+04  2.954229E+04 -3.122460E-09 -3.260432E-10
       479  11 -6.113816E+03  7.441074E+03  5.338349E+03  2.622461E+04 -6.093569E-10 -2.035054E-09
       479  12 -3.541075E+04  5.929679E+02  4.415459E+02  2.957031E+04  2.837260E-09  4.136619E-11
       479  13 -3.757454E+04 -6.729765E+01 -5.947868E+02  2.953535E+04  7.364011E-10 -5.947489E-10
       479  14 -3.754829E+04  3.704966E+01 -2.464648E+02  2.620358E+04  5.036379E-10  1.736953E-09
       479  15 -3.757392E+04  7.198446E+01  3.681331E-01  2.953519E+04  1.450860E-10  1.623202E-09
       479  16 -9.835784E+04 -1.443513E+04 -1.164610E+04  2.952841E+04  2.822645E-09  2.964802E-09
       479  17 -6.898179E+04 -7.367029E+03 -5.831315E+03  2.618254E+04  3.219950E-10 -1.280812E-09
       479  18 -3.973709E+04 -4.489993E+02 -4.408098E+02  2.950007E+04 -2.338254E-09  1.176808E-09
       479  19  2.321236E+04  1.430034E+04  1.045643E+04  2.954230E+04  3.215367E+03  3.794058E+03
       479  20 -6.113801E+03  7.441082E+03  5.338381E+03  2.622462E+04  3.558707E+03  2.083253E+03
       479  21 -3.541073E+04  5.929720E+02  4.415745E+02  2.957031E+04  3.902387E+03  9.572101E+01
       479  22 -3.757454E+04 -6.728213E+01 -5.947592E+02  2.953535E+04  5.729272E+02  3.791002E+03
       479  23 -3.754829E+04  3.705436E+01 -2.464563E+02  2.620358E+04  4.514165E+02  2.079621E+03
       479  24 -3.757392E+04  7.198450E+01  3.683538E-01  2.953519E+04  3.302529E+02  9.150437E+01
       479  25 -9.835783E+04 -1.443511E+04 -1.164607E+04  2.952841E+04 -2.069261E+03  3.787945E+03
       479  26 -6.898178E+04 -7.367023E+03 -5.831294E+03  2.618253E+04 -2.655722E+03  2.075989E+03
       479  27 -3.973708E+04 -4.489965E+02 -4.407901E+02  2.950007E+04 -3.241869E+03  8.728812E+01
       480   1 -5.453491E+04 -3.924802E+03 -2.847289E+03  2.955716E+04 -3.917525E+03  1.167238E+03
       480   2 -8.382010E+04 -1.078624E+04 -7.730875E+03  2.614990E+04 -3.594287E+03  3.141029E+03
       480   3 -1.131551E+05 -1.760793E+04 -1.282013E+04  2.940384E+04 -3.270658E+03  4.804619E+03
       480   4 -3.755361E+04  6.431735E+01  1.164997E+02  2.953475E+04 -3.419659E+02  1.171453E+03
       480   5 -3.757394E+04  8.819852E+01  3.913872E+02  2.620407E+04 -5.398982E+02  3.144577E+03
       480   6 -3.755449E+04  2.423392E+02  8.225222E+02  2.953454E+04 -7.374248E+02  4.807513E+03
       480   7 -2.057199E+04  4.053428E+03  3.080326E+03  2.951234E+04  3.233688E+03  1.175668E+03
       480   8  8.674340E+03  1.096252E+04  8.513607E+03  2.625824E+04  2.514711E+03  3.148125E+03
       480   9  3.805174E+04  1.809230E+04  1.446498E+04  2.966526E+04  1.796108E+03  4.810408E+03
       480  10 -5.453493E+04 -3.924807E+03 -2.847321E+03  2.955716E+04  2.660406E-09 -1.342663E-09
       480  11 -8.382012E+04 -1.078625E+04 -7.730918E+03  2.614991E+04 -3.856727E-10  7.728400E-10
       480  12 -1.131552E+05 -1.760796E+04 -1.282019E+04  2.940385E+04 -1.979115E-09 -1.561197E-09
       480  13 -3.755361E+04  6.431584E+01  1.164969E+02  2.953475E+04  6.355654E-10 -4.087039E-09
       480  14 -3.757394E+04  8.818782E+01  3.913681E+02  2.620407E+04  2.595361E-10  7.180466E-10
       480  15 -3.755450E+04  2.423142E+02  8.224777E+02  2.953455E+04  1.058595E-10 -9.552882E-10
       480  16 -2.057201E+04  4.053423E+03  3.080304E+03  2.951234E+04 -3.018701E-09 -9.685988E-10
       480  17  8.674331E+03  1.096251E+04  8.513577E+03  2.625823E+04  6.043850E-10 -3.384829E-09
       480  18  3.805173E+04  1.809227E+04  1.446493E+04  2.966525E+04  2.438480E-09  2.382029E-09
       480  19 -5.453491E+04 -3.924802E+03 -2.847289E+03  2.955716E+04  3.917525E+03 -1.167238E+03
       480  20 -8.382010E+04 -1.078624E+04 -7.730875E+03  2.614990E+04  3.594287E+03 -3.141029E+03
       480  21 -1.131551E+05 -1.760793E+04 -1.282013E+04  2.940384E+04  3.270658E+03 -4.804619E+03
       480  22 -3.755361E+04  6.431735E+01  1.164997E+02  2.953475E+04  3.419659E+02 -1.171453E+03
       480  23 -3.757394E+04  8.819852E+01  3.913872E+02  2.620407E+04  5.398982E+02 -3.144577E+03
       480  24 -3.755449E+04  2.423392E+02  8.225222E+02  2.953454E+04  7.374248E+02 -4.807513E+03
       480  25 -2.057199E+04  4.053428E+03  3.080326E+03  2.951234E+04 -3.233688E+03 -1.175668E+03
       480  26  8.674340E+03  1.096252E+04  8.513607E+03  2.625824E+04 -2.514711E+03 -3.148125E+03
       480  27  3.805174E+04  1.809230E+04  1.446498E+04  2.966526E+04 -1.796108E+03 -4.810408E+03
       481   1 -1.323113E+05 -2.225260E+04 -1.615736E+04  2.962816E+04 -3.842576E+03  5.903408E+03
       481   2 -1.614405E+05 -2.875761E+04 -2.254446E+04  2.507777E+04  1.460127E+03  5.777724E+03
       481   3 -1.909779E+05 -3.407550E+04 -3.209057E+04  2.694345E+04  6.766482E+03  1.860978E+03
       481   4 -3.740924E+04  1.824104E+02  1.108686E+03  2.948064E+04 -8.801585E+02  5.906749E+03
       481   5 -3.775851E+04  9.061936E+02  2.062679E+03  2.627058E+04 -1.945181E+03  5.773791E+03
       481   6 -3.741151E+04  3.922511E+03  4.280098E+03  2.947644E+04 -3.006204E+03  1.850142E+03
       481   7  5.750162E+04  2.261692E+04  1.837440E+04  2.933309E+04  2.082700E+03  5.910088E+03
       481   8  8.593817E+04  3.056907E+04  2.666910E+04  2.746362E+04 -5.351155E+03  5.769846E+03
       481   9  1.161767E+05  4.191890E+04  4.064949E+04  3.201006E+04 -1.278129E+04  1.839227E+03
       481  10 -1.323113E+05 -2.225264E+04 -1.615745E+04  2.962817E+04 -4.711236E-10 -8.184517E-10
       481  11 -1.614405E+05 -2.875765E+04 -2.254453E+04  2.507776E+04  2.028554E-09  1.499888E-09
       481  12 -1.909779E+05 -3.407551E+04 -3.209066E+04  2.694344E+04  4.019351E-09  3.591666E-09
       481  13 -3.740925E+04  1.823727E+02  1.108619E+03  2.948064E+04  5.901757E-10  5.306370E-10
       481  14 -3.775852E+04  9.061567E+02  2.062610E+03  2.627059E+04  1.545830E-10  2.440445E-09
       481  15 -3.741152E+04  3.922505E+03  4.280075E+03  2.947645E+04  2.797805E-10  2.883959E-09
       481  16  5.750160E+04  2.261688E+04  1.837433E+04  2.933308E+04 -3.421127E-11  1.496404E-09
       481  17  8.593813E+04  3.056903E+04  2.666899E+04  2.746365E+04 -1.498694E-09  1.960019E-09
       481  18  1.161766E+05  4.191885E+04  4.064917E+04  3.201008E+04 -3.745348E-09  3.793421E-11
       481  19 -1.323113E+05 -2.225260E+04 -1.615736E+04  2.962816E+04  3.842576E+03 -5.903408E+03
       481  20 -1.614405E+05 -2.875761E+04 -2.254446E+04  2.507777E+04 -1.460127E+03 -5.777724E+03
       481  21 -1.909779E+05 -3.407550E+04 -3.209057E+04  2.694345E+04 -6.766482E+03 -1.860978E+03
       481  22 -3.740924E+04  1.824104E+02  1.108686E+03  2.948064E+04  8.801585E+02 -5.906749E+03
       481  23 -3.775851E+04  9.061936E+02  2.062679E+03  2.627058E+04  1.945181E+03 -5.773791E+03
       481  24 -3.741151E+04  3.922511E+03  4.280098E+03  2.947644E+04  3.006204E+03 -1.850142E+03
       481  25  5.750162E+04  2.261692E+04  1.837440E+04  2.933309E+04 -2.082700E+03 -5.910088E+03
       481  26  8.593817E+04  3.056907E+04  2.666910E+04  2.746362E+04  5.351155E+03 -5.769846E+03
       481  27  1.161767E+05  4.191890E+04  4.064949E+04  3.201006E+04  1.278129E+04 -1.839227E+03
       482   1 -8.318993E+04 -3.874722E+05 -8.361613E+04  8.775839E+04 -2.378258E+03 -3.107200E+04
       482   2 -4.504560E+04 -3.126589E+05 -4.688576E+04  7.145971E+04 -6.793336E+03 -1.414799E+04
       482   3 -2.305204E+04 -2.440396E+05 -2.521096E+04  7.107358E+04 -5.211091E+03  2.784720E+03
       482   4 -2.449031E+04 -1.507891E+05 -2.705150E+04  7.238983E+04 -2.389075E+03 -1.865187E+04
       482   5 -5.482512E+03 -1.485599E+05 -1.329058E+04  6.444433E+04 -6.795186E+03 -1.179657E+04
       482   6 -8.742345E+02 -1.507797E+05 -7.588182E+03  7.241223E+04 -5.204246E+03 -4.934771E+03
       482   7  3.420621E+04  8.594631E+04  2.950988E+04  5.701539E+04 -2.400506E+03 -6.227025E+03
       482   8  3.407907E+04  1.556471E+04  2.030322E+04  5.742706E+04 -6.797089E+03 -9.444536E+03
       482   9  2.130310E+04 -5.751121E+04  1.003443E+04  7.375109E+04 -5.197434E+03 -1.265539E+04
       482  10 -8.319019E+04 -3.874732E+05 -8.361796E+04  8.775833E+04 -8.584112E-10  2.150598E-08
       482  11 -4.504570E+04 -3.126591E+05 -4.688622E+04  7.145964E+04 -1.942350E-09  1.349291E-08
       482  12 -2.305207E+04 -2.440396E+05 -2.521102E+04  7.107359E+04 -6.955264E-10 -3.869731E-09
       482  13 -2.449041E+04 -1.507894E+05 -2.705217E+04  7.238979E+04 -1.790415E-10  1.768955E-09
       482  14 -5.482599E+03 -1.485601E+05 -1.329093E+04  6.444427E+04 -3.119640E-09 -6.142622E-09
       482  15 -8.742701E+02 -1.507797E+05 -7.588278E+03  7.241221E+04 -9.868318E-10  2.098473E-09
       482  16  3.420620E+04  8.594626E+04  2.950980E+04  5.701538E+04 -4.804734E-10 -2.070519E-08
       482  17  3.407899E+04  1.556460E+04  2.030297E+04  5.742701E+04 -1.818615E-09 -1.587022E-08
       482  18  2.130303E+04 -5.751138E+04  1.003408E+04  7.375104E+04 -1.513001E-09  3.596564E-09
       482  19 -8.318993E+04 -3.874722E+05 -8.361613E+04  8.775839E+04  2.378258E+03  3.107200E+04
       482  20 -4.504560E+04 -3.126589E+05 -4.688576E+04  7.145971E+04  6.793336E+03  1.414799E+04
       482  21 -2.305204E+04 -2.440396E+05 -2.521096E+04  7.107358E+04  5.211091E+03 -2.784720E+03
       482  22 -2.449031E+04 -1.507891E+05 -2.705150E+04  7.238983E+04  2.389075E+03  1.865187E+04
       482  23 -5.482512E+03 -1.485599E+05 -1.329058E+04  6.444433E+04  6.795186E+03  1.179657E+04
       482  24 -8.742345E+02 -1.507797E+05 -7.588182E+03  7.241223E+04  5.204246E+03  4.934771E+03
       482  25  3.420621E+04  8.594631E+04  2.950988E+04  5.701539E+04  2.400506E+03  6.227025E+03
       482  26  3.407907E+04  1.556471E+04  2.030322E+04  5.742706E+04  6.797089E+03  9.444536E+03
       482  27  2.130310E+04 -5.751121E+04  1.003443E+04  7.375109E+04  5.197434E+03  1.265539E+04
       483   1 -1.225828E+04 -1.960680E+05 -1.494396E+04  7.301967E+04 -2.385109E+03  3.186238E+03
       483   2  5.644680E+03 -1.241474E+05  4.703847E+02  6.441617E+04  1.789039E+03  4.982521E+03
       483   3  2.254427E+04 -5.266437E+04  1.447468E+04  7.208705E+04  5.857414E+03  6.778977E+03
       483   4 -1.232755E+03 -1.498951E+05 -6.003835E+03  7.248915E+04 -2.378918E+03 -3.916436E+03
       483   5 -3.417288E+02 -1.496590E+05 -3.946953E+03  6.435224E+04  1.795147E+03 -1.942758E+03
       483   6 -4.846110E+02 -1.498962E+05 -3.423225E+03  7.248982E+04  5.863429E+03  3.089816E+01
       483   7  9.792670E+03 -1.037200E+05  2.936379E+03  7.195858E+04 -2.372716E+03 -1.101963E+04
       483   8 -6.328147E+03 -1.751698E+05 -8.364133E+03  6.428832E+04  1.801256E+03 -8.867761E+03
       483   9 -2.351400E+04 -2.471187E+05 -2.132135E+04  7.289252E+04  5.869436E+03 -6.716151E+03
       483  10 -1.225829E+04 -1.960680E+05 -1.494399E+04  7.301967E+04 -3.877500E-10 -2.621215E-08
       483  11  5.644670E+03 -1.241474E+05  4.703320E+02  6.441616E+04 -4.827981E-10 -6.369339E-09
       483  12  2.254422E+04 -5.266443E+04  1.447453E+04  7.208702E+04  6.543723E-10  5.845208E-09
       483  13 -1.232765E+03 -1.498951E+05 -6.003874E+03  7.248914E+04 -9.210492E-10  5.263733E-10
       483  14 -3.417333E+02 -1.496590E+05 -3.946966E+03  6.435225E+04  1.966987E-10 -7.199367E-09
       483  15 -4.846480E+02 -1.498962E+05 -3.423290E+03  7.248982E+04  1.466673E-09  3.278205E-09
       483  16  9.792632E+03 -1.037202E+05  2.936140E+03  7.195856E+04 -8.859688E-10  2.567593E-08
       483  17 -6.328172E+03 -1.751699E+05 -8.364287E+03  6.428834E+04 -6.352253E-10  3.556131E-09
       483  18 -2.351405E+04 -2.471188E+05 -2.132149E+04  7.289255E+04  9.285709E-10 -6.426744E-09
       483  19 -1.225828E+04 -1.960680E+05 -1.494396E+04  7.301967E+04  2.385109E+03 -3.186238E+03
       483  20  5.644680E+03 -1.241474E+05  4.703847E+02  6.441617E+04 -1.789039E+03 -4.982521E+03
       483  21  2.254427E+04 -5.266437E+04  1.447468E+04  7.208705E+04 -5.857414E+03 -6.778977E+03
       483  22 -1.232755E+03 -1.498951E+05 -6.003835E+03  7.248915E+04  2.378918E+03  3.916436E+03
       483  23 -3.417288E+02 -1.496590E+05 -3.946953E+03  6.435224E+04 -1.795147E+03  1.942758E+03
       483  24 -4.846110E+02 -1.498962E+05 -3.423225E+03  7.248982E+04 -5.863429E+03 -3.089816E+01
       483  25  9.792670E+03 -1.037200E+05  2.936379E+03  7.195858E+04  2.372716E+03  1.101963E+04
       483  26 -6.328147E+03 -1.751698E+05 -8.364133E+03  6.428832E+04 -1.801256E+03  8.867761E+03
       483  27 -2.351400E+04 -2.471187E+05 -2.132135E+04  7.289252E+04 -5.869436E+03  6.716151E+03
       484   1  3.381301E+04 -5.740148E+03  2.310908E+04  7.267897E+04  8.626471E+03  8.097936E+03
       484   2  4.982950E+04  6.568743E+04  3.854253E+04  6.200197E+04  9.510048E+03 -1.502105E+03
       484   3  6.320128E+04  1.377554E+05  5.957414E+04  6.716055E+04  3.200786E+03 -1.111105E+04
       484   4 -3.950571E+02 -1.501180E+05 -3.545295E+03  7.239336E+04  8.633341E+03  5.853318E+02
       484   5 -1.868251E+03 -1.493923E+05 -4.830769E+03  6.447156E+04  9.506016E+03  3.070161E+03
       484   6 -8.084412E+03 -1.501285E+05 -8.910582E+03  7.238592E+04  3.184627E+03  5.547028E+03
       484   7 -3.460428E+04 -2.944755E+05 -3.020032E+04  7.210782E+04  8.640218E+03 -6.925570E+03
       484   8 -5.356884E+04 -3.644279E+05 -4.820637E+04  6.694030E+04  9.502020E+03  7.640874E+03
       484   9 -7.937583E+04 -4.379358E+05 -7.740004E+04  7.760888E+04  3.168745E+03  2.219742E+04
       484  10  3.381291E+04 -5.740238E+03  2.310882E+04  7.267891E+04  1.127240E-09 -2.700869E-09
       484  11  4.982940E+04  6.568741E+04  3.854236E+04  6.200198E+04  7.396957E-11  3.001225E-09
       484  12  6.320123E+04  1.377553E+05  5.957389E+04  6.716058E+04 -1.435642E-10  3.748790E-10
       484  13 -3.951373E+02 -1.501180E+05 -3.545435E+03  7.239336E+04  8.623541E-11  3.760263E-09
       484  14 -1.868351E+03 -1.493924E+05 -4.830957E+03  6.447154E+04  8.232613E-10 -5.155299E-09
       484  15 -8.084431E+03 -1.501286E+05 -8.910659E+03  7.238591E+04 -3.931884E-10  3.739503E-09
       484  16 -3.460437E+04 -2.944756E+05 -3.020055E+04  7.210787E+04  1.210362E-09  3.267160E-09
       484  17 -5.356895E+04 -3.644280E+05 -4.820665E+04  6.694024E+04  1.381996E-10 -5.546784E-09
       484  18 -7.937597E+04 -4.379363E+05 -7.740099E+04  7.760882E+04 -1.690943E-10 -1.102923E-09
       484  19  3.381301E+04 -5.740148E+03  2.310908E+04  7.267897E+04 -8.626471E+03 -8.097936E+03
       484  20  4.982950E+04  6.568743E+04  3.854253E+04  6.200197E+04 -9.510048E+03  1.502105E+03
       484  21  6.320128E+04  1.377554E+05  5.957414E+04  6.716055E+04 -3.200786E+03  1.111105E+04
       484  22 -3.950571E+02 -1.501180E+05 -3.545295E+03  7.239336E+04 -8.633341E+03 -5.853318E+02
       484  23 -1.868251E+03 -1.493923E+05 -4.830769E+03  6.447156E+04 -9.506016E+03 -3.070161E+03
       484  24 -8.084412E+03 -1.501285E+05 -8.910582E+03  7.238592E+04 -3.184627E+03 -5.547028E+03
       484  25 -3.460428E+04 -2.944755E+05 -3.020032E+04  7.210782E+04 -8.640218E+03  6.925570E+03
       484  26 -5.356884E+04 -3.644279E+05 -4.820637E+04  6.694030E+04 -9.502020E+03 -7.640874E+03
       484  27 -7.937583E+04 -4.379358E+05 -7.740004E+04  7.760888E+04 -3.168745E+03 -2.219742E+04
       485   1  8.243074E+04  8.946909E+04  3.447456E+04  5.765021E+04  1.820278E+04  1.345091E+04
       485   2  8.081522E+04  6.411287E+04  1.756155E+04  6.353843E+04  1.173665E+04  8.070272E+03
       485   3  8.816729E+04  5.167411E+04  1.027613E+04  6.407417E+04  5.062753E+03  2.965856E+03
       485   4  8.885948E+04  6.527795E+04  3.111768E+04  4.763909E+04  1.741311E+04  1.285653E+04
       485   5  7.951836E+04  5.018284E+04  1.514787E+04  5.684554E+04  1.141066E+04  7.825003E+03
       485   6  7.904391E+04  4.790437E+04  8.402603E+03  6.069949E+04  5.200686E+03  3.069556E+03
       485   7  9.528889E+04  4.108781E+04  2.776088E+04  3.762778E+04  1.662340E+04  1.226220E+04
       485   8  7.822160E+04  3.625321E+04  1.273422E+04  5.015272E+04  1.108466E+04  7.579746E+03
       485   9  6.992079E+04  4.413472E+04  6.529123E+03  5.732491E+04  5.338613E+03  3.173252E+03
       485  10  8.243033E+04  8.946881E+04  3.447360E+04  5.765001E+04  1.927678E-08  1.456088E-08
       485  11  8.081505E+04  6.411276E+04  1.756117E+04  6.353836E+04  6.580136E-09  6.919163E-09
       485  12  8.816726E+04  5.167409E+04  1.027606E+04  6.407416E+04 -1.510976E-08 -1.540500E-08
       485  13  8.885911E+04  6.527769E+04  3.111680E+04  4.763891E+04  2.921052E-09 -1.975015E-10
       485  14  7.951820E+04  5.018274E+04  1.514751E+04  5.684547E+04  7.332433E-09  9.731825E-09
       485  15  7.904388E+04  4.790435E+04  8.402534E+03  6.069948E+04  2.550871E-09  4.564637E-09
       485  16  9.528856E+04  4.108757E+04  2.776008E+04  3.762761E+04 -1.353610E-08 -9.826261E-09
       485  17  7.822146E+04  3.625312E+04  1.273388E+04  5.015265E+04  8.288777E-09  8.015317E-09
       485  18  6.992076E+04  4.413470E+04  6.529051E+03  5.732490E+04  2.037489E-08  1.939694E-08
       485  19  8.243074E+04  8.946909E+04  3.447456E+04  5.765021E+04 -1.820278E+04 -1.345091E+04
       485  20  8.081522E+04  6.411287E+04  1.756155E+04  6.353843E+04 -1.173665E+04 -8.070272E+03
       485  21  8.816729E+04  5.167411E+04  1.027613E+04  6.407417E+04 -5.062753E+03 -2.965856E+03
       485  22  8.885948E+04  6.527795E+04  3.111768E+04  4.763909E+04 -1.741311E+04 -1.285653E+04
       485  23  7.951836E+04  5.018284E+04  1.514787E+04  5.684554E+04 -1.141066E+04 -7.825003E+03
       485  24  7.904391E+04  4.790437E+04  8.402603E+03  6.069949E+04 -5.200686E+03 -3.069556E+03
       485  25  9.528889E+04  4.108781E+04  2.776088E+04  3.762778E+04 -1.662340E+04 -1.226220E+04
       485  26  7.822160E+04  3.625321E+04  1.273422E+04  5.015272E+04 -1.108466E+04 -7.579746E+03
       485  27  6.992079E+04  4.413472E+04  6.529123E+03  5.732491E+04 -5.338613E+03 -3.173252E+03
       486   1  8.467264E+04  5.299169E+04  8.086136E+03  6.350843E+04  4.173174E+03  2.380149E+03
       486   2  8.329315E+04  5.069562E+04  4.966636E+03  6.306528E+04  2.596969E+03  1.313652E+03
       486   3  8.211614E+04  4.954647E+04  3.304831E+03  6.254343E+04  1.002409E+03  2.715774E+02
       486   4  7.852576E+04  4.780335E+04  6.454525E+03  5.999657E+04  4.279637E+03  2.460169E+03
       486   5  7.819536E+04  4.682082E+04  3.708198E+03  6.034682E+04  2.744494E+03  1.424543E+03
       486   6  7.805854E+04  4.697631E+04  2.383927E+03  6.061839E+04  1.190979E+03  4.133240E+02
       486   7  7.237891E+04  4.261505E+04  4.822910E+03  5.648476E+04  4.386099E+03  2.540188E+03
       486   8  7.309755E+04  4.294600E+04  2.449741E+03  5.762837E+04  2.892019E+03  1.535433E+03
       486   9  7.400088E+04  4.440611E+04  1.462997E+03  5.869333E+04  1.379552E+03  5.550722E+02
       486  10  8.467262E+04  5.299168E+04  8.086092E+03  6.350842E+04 -3.793212E-09 -5.803485E-09
       486  11  8.329314E+04  5.069562E+04  4.966620E+03  6.306527E+04 -1.510976E-09 -3.426687E-09
       486  12  8.211614E+04  4.954647E+04  3.304829E+03  6.254343E+04  9.837876E-10  2.849638E-10
       486  13  7.852573E+04  4.780334E+04  6.454480E+03  5.999656E+04 -6.660895E-10  4.571858E-09
       486  14  7.819535E+04  4.682082E+04  3.708180E+03  6.034682E+04 -8.944939E-10  3.108717E-09
       486  15  7.805854E+04  4.697631E+04  2.383924E+03  6.061839E+04 -5.039609E-10  1.953345E-09
       486  16  7.237889E+04  4.261504E+04  4.822862E+03  5.648475E+04  1.945560E-09  5.435720E-09
       486  17  7.309755E+04  4.294599E+04  2.449721E+03  5.762837E+04 -4.288168E-10  5.280050E-09
       486  18  7.400088E+04  4.440611E+04  1.462993E+03  5.869333E+04 -2.463086E-09 -4.201614E-10
       486  19  8.467264E+04  5.299169E+04  8.086136E+03  6.350843E+04 -4.173174E+03 -2.380149E+03
       486  20  8.329315E+04  5.069562E+04  4.966636E+03  6.306528E+04 -2.596969E+03 -1.313652E+03
       486  21  8.211614E+04  4.954647E+04  3.304831E+03  6.254343E+04 -1.002409E+03 -2.715774E+02
       486  22  7.852576E+04  4.780335E+04  6.454525E+03  5.999657E+04 -4.279637E+03 -2.460169E+03
       486  23  7.819536E+04  4.682082E+04  3.708198E+03  6.034682E+04 -2.744494E+03 -1.424543E+03
       486  24  7.805854E+04  4.697631E+04  2.383927E+03  6.061839E+04 -1.190979E+03 -4.133240E+02
       486  25  7.237891E+04  4.261505E+04  4.822910E+03  5.648476E+04 -4.386099E+03 -2.540188E+03
       486  26  7.309755E+04  4.294600E+04  2.449741E+03  5.762837E+04 -2.892019E+03 -1.535433E+03
       486  27  7.400088E+04  4.440611E+04  1.462997E+03  5.869333E+04 -1.379552E+03 -5.550722E+02
       487   1  8.104004E+04  4.904515E+04  2.735678E+03  6.208146E+04  6.446898E+02  1.057654E+02
       487   2  7.977591E+04  4.784777E+04  2.157431E+03  6.132059E+04 -1.441818E+02 -3.135162E+02
       487   3  7.821769E+04  4.717680E+04  2.177133E+03  6.070156E+04 -9.335312E+02 -7.321262E+02
       487   4  7.802236E+04  4.696825E+04  2.034854E+03  6.057121E+04  8.306273E+02  2.455330E+02
       487   5  7.817002E+04  4.670600E+04  1.780138E+03  6.049968E+04  4.286450E+01 -1.729161E+02
       487   6  7.802331E+04  4.696990E+04  2.122405E+03  6.056999E+04 -7.453846E+02 -5.906991E+02
       487   7  7.500475E+04  4.489140E+04  1.334049E+03  5.906099E+04  1.016560E+03  3.852971E+02
       487   8  7.656414E+04  4.556425E+04  1.402851E+03  5.967879E+04  2.299084E+02 -3.231783E+01
       487   9  7.782893E+04  4.676300E+04  2.067678E+03  6.043842E+04 -5.572382E+02 -4.492723E+02
       487  10  8.104004E+04  4.904515E+04  2.735677E+03  6.208146E+04 -3.289788E-09 -3.961245E-09
       487  11  7.977591E+04  4.784777E+04  2.157430E+03  6.132059E+04  5.139482E-09  5.142852E-09
       487  12  7.821769E+04  4.717680E+04  2.177130E+03  6.070156E+04  1.790221E-08  1.645458E-08
       487  13  7.802236E+04  4.696825E+04  2.034853E+03  6.057121E+04 -1.992789E-10  1.020011E-09
       487  14  7.817002E+04  4.670600E+04  1.780138E+03  6.049968E+04 -1.250940E-09  4.095966E-09
       487  15  7.802331E+04  4.696990E+04  2.122403E+03  6.056999E+04  5.242455E-09  3.792351E-09
       487  16  7.500475E+04  4.489140E+04  1.334047E+03  5.906099E+04  1.967717E-09  2.889635E-10
       487  17  7.656414E+04  4.556425E+04  1.402851E+03  5.967879E+04 -4.451976E-09 -5.144227E-09
       487  18  7.782893E+04  4.676300E+04  2.067677E+03  6.043842E+04 -8.064942E-09 -8.346081E-09
       487  19  8.104004E+04  4.904515E+04  2.735678E+03  6.208146E+04 -6.446898E+02 -1.057654E+02
       487  20  7.977591E+04  4.784777E+04  2.157431E+03  6.132059E+04  1.441818E+02  3.135162E+02
       487  21  7.821769E+04  4.717680E+04  2.177133E+03  6.070156E+04  9.335312E+02  7.321262E+02
       487  22  7.802236E+04  4.696825E+04  2.034854E+03  6.057121E+04 -8.306273E+02 -2.455330E+02
       487  23  7.817002E+04  4.670600E+04  1.780138E+03  6.049968E+04 -4.286450E+01  1.729161E+02
       487  24  7.802331E+04  4.696990E+04  2.122405E+03  6.056999E+04  7.453846E+02  5.906991E+02
       487  25  7.500475E+04  4.489140E+04  1.334049E+03  5.906099E+04 -1.016560E+03 -3.852971E+02
       487  26  7.656414E+04  4.556425E+04  1.402851E+03  5.967879E+04 -2.299084E+02  3.231783E+01
       487  27  7.782893E+04  4.676300E+04  2.067678E+03  6.043842E+04  5.572382E+02  4.492723E+02
       488   1  7.720757E+04  4.670259E+04  2.357992E+03  6.034206E+04 -1.311520E+03 -9.126317E+02
       488   2  7.632953E+04  4.521682E+04  3.493843E+03  5.925003E+04 -2.952435E+03 -1.982558E+03
       488   3  7.568905E+04  4.492446E+04  6.137315E+03  5.806125E+04 -4.580604E+03 -3.069497E+03
       488   4  7.806350E+04  4.697906E+04  2.522988E+03  6.062258E+04 -1.121667E+03 -7.699205E+02
       488   5  7.819512E+04  4.682797E+04  3.990392E+03  6.033358E+04 -2.791157E+03 -1.861328E+03
       488   6  7.857052E+04  4.787652E+04  6.990251E+03  5.994786E+04 -4.447875E+03 -2.969733E+03
       488   7  7.891945E+04  4.725554E+04  2.687989E+03  6.090310E+04 -9.318094E+02 -6.272068E+02
       488   8  8.006072E+04  4.843912E+04  4.486942E+03  6.141714E+04 -2.629877E+03 -1.740097E+03
       488   9  8.145195E+04  5.082854E+04  7.843165E+03  6.183444E+04 -4.315148E+03 -2.869970E+03
       488  10  7.720757E+04  4.670259E+04  2.357987E+03  6.034206E+04 -1.798835E-08 -1.239272E-08
       488  11  7.632952E+04  4.521681E+04  3.493819E+03  5.925003E+04 -2.528627E-09  4.130414E-10
       488  12  7.568902E+04  4.492444E+04  6.137258E+03  5.806124E+04  2.159288E-08  1.638816E-08
       488  13  7.806350E+04  4.697906E+04  2.522985E+03  6.062258E+04  4.378656E-09  3.541499E-09
       488  14  7.819511E+04  4.682796E+04  3.990371E+03  6.033358E+04 -1.077094E-09  9.691002E-09
       488  15  7.857049E+04  4.787650E+04  6.990197E+03  5.994785E+04  4.118015E-09  9.968419E-10
       488  16  7.891945E+04  4.725554E+04  2.687987E+03  6.090310E+04  2.573267E-08  2.006768E-08
       488  17  8.006071E+04  4.843912E+04  4.486923E+03  6.141713E+04 -3.299937E-10  2.532362E-09
       488  18  8.145193E+04  5.082852E+04  7.843115E+03  6.183443E+04 -1.502234E-08 -7.637022E-09
       488  19  7.720757E+04  4.670259E+04  2.357992E+03  6.034206E+04  1.311520E+03  9.126317E+02
       488  20  7.632953E+04  4.521682E+04  3.493843E+03  5.925003E+04  2.952435E+03  1.982558E+03
       488  21  7.568905E+04  4.492446E+04  6.137315E+03  5.806125E+04  4.580604E+03  3.069497E+03
       488  22  7.806350E+04  4.697906E+04  2.522988E+03  6.062258E+04  1.121667E+03  7.699205E+02
       488  23  7.819512E+04  4.682797E+04  3.990392E+03  6.033358E+04  2.791157E+03  1.861328E+03
       488  24  7.857052E+04  4.787652E+04  6.990251E+03  5.994786E+04  4.447875E+03  2.969733E+03
       488  25  7.891945E+04  4.725554E+04  2.687989E+03  6.090310E+04  9.318094E+02  6.272068E+02
       488  26  8.006072E+04  4.843912E+04  4.486942E+03  6.141714E+04  2.629877E+03  1.740097E+03
       488  27  8.145195E+04  5.082854E+04  7.843165E+03  6.183444E+04  4.315148E+03  2.869970E+03
       489   1  7.310053E+04  4.663611E+04  8.024328E+03  5.901568E+04 -5.600135E+03 -3.746308E+03
       489   2  8.221649E+04  3.817363E+04  1.488631E+04  5.127415E+04 -1.206061E+04 -8.609312E+03
       489   3  1.009204E+05  4.353569E+04  3.148422E+04  3.771035E+04 -1.837601E+04 -1.366531E+04
       489   4  7.913172E+04  4.798826E+04  9.112016E+03  6.071227E+04 -5.445485E+03 -3.630036E+03
       489   5  7.963380E+04  5.047647E+04  1.644726E+04  5.653000E+04 -1.223048E+04 -8.737256E+03
       489   6  8.979394E+04  6.685947E+04  3.380031E+04  4.652550E+04 -1.887032E+04 -1.403775E+04
       489   7  8.516296E+04  4.934042E+04  1.019970E+04  6.240887E+04 -5.290832E+03 -3.513764E+03
       489   8  7.705122E+04  6.277979E+04  1.800827E+04  6.178591E+04 -1.240035E+04 -8.865208E+03
       489   9  7.866800E+04  9.018513E+04  3.611662E+04  5.534067E+04 -1.936462E+04 -1.441024E+04
       489  10  7.310049E+04  4.663608E+04  8.024243E+03  5.901567E+04 -5.318164E-08 -4.467173E-08
       489  11  8.221631E+04  3.817351E+04  1.488589E+04  5.127406E+04 -2.395668E-08 -2.178959E-08
       489  12  1.009200E+05  4.353540E+04  3.148323E+04  3.771014E+04  3.068536E-08  2.095683E-08
       489  13  7.913168E+04  4.798824E+04  9.111935E+03  6.071225E+04 -4.692118E-10 -1.857560E-09
       489  14  7.963362E+04  5.047635E+04  1.644683E+04  5.652992E+04 -1.596060E-08 -1.080071E-08
       489  15  8.979350E+04  6.685916E+04  3.379927E+04  4.652529E+04 -6.461452E-09 -4.903134E-09
       489  16  8.516293E+04  4.934040E+04  1.019963E+04  6.240885E+04  5.025313E-08  4.237573E-08
       489  17  7.705103E+04  6.277967E+04  1.800783E+04  6.178582E+04 -9.350987E-09 -1.159814E-09
       489  18  7.866754E+04  9.018481E+04  3.611553E+04  5.534045E+04 -4.525703E-08 -3.536796E-08
       489  19  7.310053E+04  4.663611E+04  8.024328E+03  5.901568E+04  5.600135E+03  3.746308E+03
       489  20  8.221649E+04  3.817363E+04  1.488631E+04  5.127415E+04  1.206061E+04  8.609312E+03
       489  21  1.009204E+05  4.353569E+04  3.148422E+04  3.771035E+04  1.837601E+04  1.366531E+04
       489  22  7.913172E+04  4.798826E+04  9.112016E+03  6.071227E+04  5.445485E+03  3.630036E+03
       489  23  7.963380E+04  5.047647E+04  1.644726E+04  5.653000E+04  1.223048E+04  8.737256E+03
       489  24  8.979394E+04  6.685947E+04  3.380031E+04  4.652550E+04  1.887032E+04  1.403775E+04
       489  25  8.516296E+04  4.934042E+04  1.019970E+04  6.240887E+04  5.290832E+03  3.513764E+03
       489  26  7.705122E+04  6.277979E+04  1.800827E+04  6.178591E+04  1.240035E+04  8.865208E+03
       489  27  7.866800E+04  9.018513E+04  3.611662E+04  5.534067E+04  1.936462E+04  1.441024E+04
       490   1 -3.543284E+04 -2.100975E+05 -3.527681E+04  3.946867E+04 -1.112017E+03 -1.152033E+04
       490   2 -2.025614E+04 -1.748185E+05 -2.018340E+04  3.300512E+04 -3.158552E+03 -4.483337E+03
       490   3 -1.052557E+04 -1.417961E+05 -1.103142E+04  3.412240E+04 -2.384214E+03  2.557133E+03
       490   4 -7.850820E+03 -9.885571E+04 -8.687583E+03  3.450112E+04 -1.117655E+03 -5.726188E+03
       490   5 -1.769082E+03 -9.813711E+04 -4.468311E+03  3.071440E+04 -3.159541E+03 -3.426674E+03
       490   6 -3.104679E+02 -9.885365E+04 -2.899563E+03  3.450864E+04 -2.380653E+03 -1.124158E+03
       490   7  1.973042E+04  1.239752E+04  1.790091E+04  2.953268E+04 -1.123385E+03  6.898893E+01
       490   8  1.671763E+04 -2.145014E+04  1.124647E+04  2.842339E+04 -3.160538E+03 -2.369883E+03
       490   9  9.904537E+03 -5.590940E+04  5.232264E+03  3.489491E+04 -2.377097E+03 -4.805697E+03
       490  10 -3.543288E+04 -2.100976E+05 -3.527706E+04  3.946866E+04  3.073710E-10 -1.443881E-09
       490  11 -2.025616E+04 -1.748185E+05 -2.018346E+04  3.300511E+04  3.385914E-10 -3.872867E-09
       490  12 -1.052558E+04 -1.417961E+05 -1.103144E+04  3.412241E+04 -8.207156E-10 -4.740384E-09
       490  13 -7.850830E+03 -9.885574E+04 -8.687647E+03  3.450112E+04  4.150091E-10  8.349275E-12
       490  14 -1.769096E+03 -9.813712E+04 -4.468352E+03  3.071439E+04 -1.383599E-09 -3.586278E-11
       490  15 -3.104743E+02 -9.885365E+04 -2.899576E+03  3.450864E+04 -1.088640E-09 -2.295365E-09
       490  16  1.973042E+04  1.239752E+04  1.790091E+04  2.953268E+04  1.049520E-10 -1.123480E-09
       490  17  1.671762E+04 -2.145015E+04  1.124644E+04  2.842338E+04 -1.640161E-09  4.742047E-09
       490  18  9.904525E+03 -5.590942E+04  5.232210E+03  3.489490E+04 -1.316602E-09  3.633276E-09
       490  19 -3.543284E+04 -2.100975E+05 -3.527681E+04  3.946867E+04  1.112017E+03  1.152033E+04
       490  20 -2.025614E+04 -1.748185E+05 -2.018340E+04  3.300512E+04  3.158552E+03  4.483337E+03
       490  21 -1.052557E+04 -1.417961E+05 -1.103142E+04  3.412240E+04  2.384214E+03 -2.557133E+03
       490  22 -7.850820E+03 -9.885571E+04 -8.687583E+03  3.450112E+04  1.117655E+03  5.726188E+03
       490  23 -1.769082E+03 -9.813711E+04 -4.468311E+03  3.071440E+04  3.159541E+03  3.426674E+03
       490  24 -3.104679E+02 -9.885365E+04 -2.899563E+03  3.450864E+04  2.380653E+03  1.124158E+03
       490  25  1.973042E+04  1.239752E+04  1.790091E+04  2.953268E+04  1.123385E+03 -6.898893E+01
       490  26  1.671763E+04 -2.145014E+04  1.124647E+04  2.842339E+04  3.160538E+03  2.369883E+03
       490  27  9.904537E+03 -5.590940E+04  5.232264E+03  3.489491E+04  2.377097E+03  4.805697E+03
       491   1 -5.320216E+03 -1.191247E+05 -6.567425E+03  3.479511E+04 -1.037186E+03  2.691563E+03
       491   2  2.995491E+03 -8.484588E+04 -8.125608E+01  3.063838E+04  9.527970E+02  3.815217E+03
       491   3  1.069325E+04 -5.084641E+04  5.524028E+03  3.423006E+04  2.886411E+03  4.938891E+03
       491   4 -4.142473E+02 -9.860048E+04 -2.567204E+03  3.454484E+04 -1.033929E+03 -7.003441E+02
       491   5 -1.972674E+02 -9.845216E+04 -2.437071E+03  3.067053E+04  9.559818E+02  5.179094E+02
       491   6 -6.146189E+02 -9.860081E+04 -3.253545E+03  3.454465E+04  2.889522E+03  1.736125E+03
       491   7  4.491703E+03 -7.807579E+04  1.433040E+03  3.429457E+04 -1.030670E+03 -4.092361E+03
       491   8 -3.390030E+03 -1.120582E+05 -4.792852E+03  3.070268E+04  9.591663E+02 -2.779328E+03
       491   9 -1.192261E+04 -1.463530E+05 -1.203117E+04  3.485922E+04  2.892630E+03 -1.466401E+03
       491  10 -5.320220E+03 -1.191247E+05 -6.567440E+03  3.479511E+04 -1.758900E-09 -3.018197E-09
       491  11  2.995486E+03 -8.484590E+04 -8.128514E+01  3.063837E+04 -4.177786E-10 -1.789229E-09
       491  12  1.069323E+04 -5.084644E+04  5.523967E+03  3.423004E+04 -2.997681E-11 -4.983478E-09
       491  13 -4.142486E+02 -9.860048E+04 -2.567207E+03  3.454484E+04 -1.012190E-09 -1.075745E-09
       491  14 -1.972685E+02 -9.845216E+04 -2.437074E+03  3.067053E+04 -8.760296E-10 -1.123154E-09
       491  15 -6.146286E+02 -9.860081E+04 -3.253566E+03  3.454465E+04  8.595047E-10 -6.487640E-10
       491  16  4.491697E+03 -7.807581E+04  1.433006E+03  3.429457E+04 -6.888039E-10 -2.693994E-09
       491  17 -3.390033E+03 -1.120582E+05 -4.792868E+03  3.070268E+04 -2.370563E-10  3.580722E-09
       491  18 -1.192262E+04 -1.463530E+05 -1.203119E+04  3.485923E+04 -5.910292E-10  4.426014E-09
       491  19 -5.320216E+03 -1.191247E+05 -6.567425E+03  3.479511E+04  1.037186E+03 -2.691563E+03
       491  20  2.995491E+03 -8.484588E+04 -8.125608E+01  3.063838E+04 -9.527970E+02 -3.815217E+03
       491  21  1.069325E+04 -5.084641E+04  5.524028E+03  3.423006E+04 -2.886411E+03 -4.938891E+03
       491  22 -4.142473E+02 -9.860048E+04 -2.567204E+03  3.454484E+04  1.033929E+03  7.003441E+02
       491  23 -1.972674E+02 -9.845216E+04 -2.437071E+03  3.067053E+04 -9.559818E+02 -5.179094E+02
       491  24 -6.146189E+02 -9.860081E+04 -3.253545E+03  3.454465E+04 -2.889522E+03 -1.736125E+03
       491  25  4.491703E+03 -7.807579E+04  1.433040E+03  3.429457E+04  1.030670E+03  4.092361E+03
       491  26 -3.390030E+03 -1.120582E+05 -4.792852E+03  3.070268E+04 -9.591663E+02  2.779328E+03
       491  27 -1.192261E+04 -1.463530E+05 -1.203117E+04  3.485922E+04 -2.892630E+03  1.466401E+03
       492   1  1.618990E+04 -2.882677E+04  8.974037E+03  3.513398E+04  4.202891E+03  5.854248E+03
       492   2  2.223315E+04  5.937098E+03  1.421236E+04  2.719306E+04  4.600990E+03  3.509475E+03
       492   3  2.209586E+04  3.948312E+04  1.943645E+04  2.678605E+04  1.539979E+03  1.160922E+03
       492   4 -4.399713E+02 -9.903035E+04 -3.974714E+03  3.449872E+04  4.206392E+03  2.283273E+03
       492   5 -2.733391E+03 -9.791786E+04 -6.718326E+03  3.072572E+04  4.598846E+03  5.749554E+03
       492   6 -1.221677E+04 -9.903323E+04 -1.351202E+04  3.448686E+04  1.531894E+03  9.212077E+03
       492   7 -1.707012E+04 -1.692291E+05 -1.692362E+04  3.386353E+04  4.209902E+03 -1.287308E+03
       492   8 -2.770055E+04 -2.017625E+05 -2.764954E+04  3.425779E+04  4.596728E+03  7.989265E+03
       492   9 -4.653052E+04 -2.375317E+05 -4.646156E+04  4.218596E+04  1.524007E+03  1.726144E+04
       492  10  1.618988E+04 -2.882681E+04  8.973940E+03  3.513396E+04  1.035836E-09 -2.827688E-08
       492  11  2.223312E+04  5.937079E+03  1.421229E+04  2.719304E+04  1.934182E-09 -9.591665E-10
       492  12  2.209586E+04  3.948312E+04  1.943644E+04  2.678605E+04  3.107398E-10  2.515718E-08
       492  13 -4.399917E+02 -9.903036E+04 -3.974757E+03  3.449871E+04 -7.248091E-12 -1.100873E-09
       492  14 -2.733423E+03 -9.791790E+04 -6.718428E+03  3.072570E+04  1.975888E-09  4.730237E-12
       492  15 -1.221679E+04 -9.903332E+04 -1.351219E+04  3.448685E+04  1.872648E-10  9.083707E-10
       492  16 -1.707014E+04 -1.692291E+05 -1.692366E+04  3.386353E+04  1.053300E-10  2.575934E-08
       492  17 -2.770059E+04 -2.017626E+05 -2.764970E+04  3.425776E+04  1.846442E-09  4.022865E-09
       492  18 -4.653061E+04 -2.375320E+05 -4.646213E+04  4.218594E+04  9.215138E-10 -2.564067E-08
       492  19  1.618990E+04 -2.882677E+04  8.974037E+03  3.513398E+04 -4.202891E+03 -5.854248E+03
       492  20  2.223315E+04  5.937098E+03  1.421236E+04  2.719306E+04 -4.600990E+03 -3.509475E+03
       492  21  2.209586E+04  3.948312E+04  1.943645E+04  2.678605E+04 -1.539979E+03 -1.160922E+03
       492  22 -4.399713E+02 -9.903035E+04 -3.974714E+03  3.449872E+04 -4.206392E+03 -2.283273E+03
       492  23 -2.733391E+03 -9.791786E+04 -6.718326E+03  3.072572E+04 -4.598846E+03 -5.749554E+03
       492  24 -1.221677E+04 -9.903323E+04 -1.351202E+04  3.448686E+04 -1.531894E+03 -9.212077E+03
       492  25 -1.707012E+04 -1.692291E+05 -1.692362E+04  3.386353E+04 -4.209902E+03  1.287308E+03
       492  26 -2.770055E+04 -2.017625E+05 -2.764954E+04  3.425779E+04 -4.596728E+03 -7.989265E+03
       492  27 -4.653052E+04 -2.375317E+05 -4.646156E+04  4.218596E+04 -1.524007E+03 -1.726144E+04
       493   1 -2.143789E+05  6.498378E+04  5.733390E+04  3.655274E+04  3.571468E+03 -4.950336E+03
       493   2 -2.678345E+05  7.182920E+04  4.802158E+04  4.083314E+04 -3.620793E+03 -1.592654E+04
       493   3 -3.240520E+05  6.378214E+04  3.967179E+04  5.694281E+04 -1.080853E+04 -1.756307E+04
       493   4 -5.980685E+05 -2.991515E+04 -3.322135E+04  5.530989E+04 -2.270198E+04 -4.942011E+03
       493   5 -5.953127E+05 -6.601304E+03 -1.646788E+04  4.939874E+04 -1.421016E+04 -1.592445E+04
       493   6 -5.980485E+05 -9.088708E+02 -9.650887E+03  5.531767E+04 -5.714087E+03 -1.756474E+04
       493   7 -9.816204E+05 -1.248229E+05 -1.237840E+05  7.405538E+04 -4.895926E+04 -4.935271E+03
       493   8 -9.226878E+05 -8.503797E+04 -8.096212E+04  5.795973E+04 -2.479406E+04 -1.592267E+04
       493   9 -8.719718E+05 -6.560405E+04 -5.897638E+04  5.369325E+04 -6.218307E+02 -1.756643E+04
       493  10 -2.143789E+05  6.498375E+04  5.733383E+04  3.655275E+04  7.839117E-11  2.620334E-11
       493  11 -2.678345E+05  7.182892E+04  4.802108E+04  4.083310E+04  2.116360E-10  6.547969E-12
       493  12 -3.240522E+05  6.378177E+04  3.967099E+04  5.694266E+04 -7.513769E-12 -4.464582E-12
       493  13 -5.980691E+05 -2.991531E+04 -3.322237E+04  5.530980E+04 -2.102178E-11  7.134005E-12
       493  14 -5.953130E+05 -6.601631E+03 -1.646874E+04  4.939856E+04 -7.729358E-11  6.526418E-12
       493  15 -5.980487E+05 -9.092108E+02 -9.651528E+03  5.531758E+04 -9.683390E-12 -1.220079E-11
       493  16 -9.816230E+05 -1.248236E+05 -1.237886E+05  7.405518E+04  1.804081E-10  3.727032E-11
       493  17 -9.226885E+05 -8.503841E+04 -8.096375E+04  5.795941E+04 -1.987739E-10  1.736392E-11
       493  18 -8.719719E+05 -6.560438E+04 -5.897696E+04  5.369325E+04 -1.361429E-10 -1.251646E-11
       493  19 -2.143789E+05  6.498378E+04  5.733390E+04  3.655274E+04 -3.571468E+03  4.950336E+03
       493  20 -2.678345E+05  7.182920E+04  4.802158E+04  4.083314E+04  3.620793E+03  1.592654E+04
       493  21 -3.240520E+05  6.378214E+04  3.967179E+04  5.694281E+04  1.080853E+04  1.756307E+04
       493  22 -5.980685E+05 -2.991515E+04 -3.322135E+04  5.530989E+04  2.270198E+04  4.942011E+03
       493  23 -5.953127E+05 -6.601304E+03 -1.646788E+04  4.939874E+04  1.421016E+04  1.592445E+04
       493  24 -5.980485E+05 -9.088708E+02 -9.650887E+03  5.531767E+04  5.714087E+03  1.756474E+04
       493  25 -9.816204E+05 -1.248229E+05 -1.237840E+05  7.405538E+04  4.895926E+04  4.935271E+03
       493  26 -9.226878E+05 -8.503797E+04 -8.096212E+04  5.795973E+04  2.479406E+04  1.592267E+04
       493  27 -8.719718E+05 -6.560405E+04 -5.897638E+04  5.369325E+04  6.218307E+02  1.756643E+04
       494   1 -3.591841E+05  5.471123E+04  3.455561E+04  5.477547E+04 -8.424818E+03 -1.562063E+04
       494   2 -4.138370E+05  4.275344E+04  2.603010E+04  4.890228E+04 -6.940022E+03 -1.282009E+04
       494   3 -4.688697E+05  2.999149E+04  1.633935E+04  5.548273E+04 -5.455602E+03 -9.220768E+03
       494   4 -5.969622E+05 -1.348059E+03 -7.834483E+03  5.545492E+04 -4.391041E+03 -1.562187E+04
       494   5 -5.966506E+05 -1.714698E+02 -5.676531E+03  4.922807E+04 -1.565971E+03 -1.282121E+04
       494   6 -5.969550E+05 -3.195970E+01 -5.615610E+03  5.545512E+04  1.258849E+03 -9.221653E+03
       494   7 -8.346850E+05 -5.741046E+04 -5.022665E+04  5.613411E+04 -3.587651E+02 -1.562309E+04
       494   8 -7.794314E+05 -4.309817E+04 -3.738422E+04  4.955375E+04  3.806546E+03 -1.282232E+04
       494   9 -7.250241E+05 -3.005626E+04 -2.757095E+04  5.542751E+04  7.971958E+03 -9.222539E+03
       494  10 -3.591843E+05  5.471095E+04  3.455501E+04  5.477537E+04  1.565221E-10  4.364329E-13
       494  11 -4.138370E+05  4.275325E+04  2.602970E+04  4.890221E+04  1.440668E-10  1.553905E-11
       494  12 -4.688698E+05  2.999139E+04  1.633913E+04  5.548269E+04 -5.939748E-11 -2.803024E-11
       494  13 -5.969623E+05 -1.348326E+03 -7.834978E+03  5.545487E+04  6.390693E-11 -2.123530E-11
       494  14 -5.966507E+05 -1.716469E+02 -5.676845E+03  4.922805E+04  3.413621E-11 -9.234038E-12
       494  15 -5.969551E+05 -3.205142E+01 -5.615773E+03  5.545513E+04  9.747174E-12 -3.351981E-11
       494  16 -8.346851E+05 -5.741073E+04 -5.022711E+04  5.613410E+04 -4.883286E-12 -1.215933E-11
       494  17 -7.794315E+05 -4.309835E+04 -3.738455E+04  4.955379E+04 -1.190146E-10 -1.989815E-11
       494  18 -7.250242E+05 -3.005637E+04 -2.757123E+04  5.542757E+04 -4.823199E-13 -2.229826E-11
       494  19 -3.591841E+05  5.471123E+04  3.455561E+04  5.477547E+04  8.424818E+03  1.562063E+04
       494  20 -4.138370E+05  4.275344E+04  2.603010E+04  4.890228E+04  6.940022E+03  1.282009E+04
       494  21 -4.688697E+05  2.999149E+04  1.633935E+04  5.548273E+04  5.455602E+03  9.220768E+03
       494  22 -5.969622E+05 -1.348059E+03 -7.834483E+03  5.545492E+04  4.391041E+03  1.562187E+04
       494  23 -5.966506E+05 -1.714698E+02 -5.676531E+03  4.922807E+04  1.565971E+03  1.282121E+04
       494  24 -5.969550E+05 -3.195970E+01 -5.615610E+03  5.545512E+04 -1.258849E+03  9.221653E+03
       494  25 -8.346850E+05 -5.741046E+04 -5.022665E+04  5.613411E+04  3.587651E+02  1.562309E+04
       494  26 -7.794314E+05 -4.309817E+04 -3.738422E+04  4.955375E+04 -3.806546E+03  1.282232E+04
       494  27 -7.250241E+05 -3.005626E+04 -2.757095E+04  5.542751E+04 -7.971958E+03  9.222539E+03
       495   1 -5.048168E+05  2.158654E+04  9.345973E+03  5.503780E+04 -4.370098E+03 -6.855762E+03
       495   2 -5.590891E+05  8.263522E+03 -3.016928E+03  4.962081E+04  6.500176E+02 -3.037649E+03
       495   3 -6.145516E+05 -7.242495E+03 -1.919437E+04  5.669424E+04  5.669440E+03  4.800310E+02
       495   4 -5.970624E+05  1.038569E+01 -6.231073E+03  5.546329E+04  2.293289E+03 -6.856487E+03
       495   5 -5.965097E+05 -4.331999E+02 -9.055820E+03  4.921786E+04  6.808430E+03 -3.038237E+03
       495   6 -5.970629E+05 -2.972154E+03 -1.534446E+04  5.546296E+04  1.132331E+04  4.795623E+02
       495   7 -6.892995E+05 -2.156619E+04 -2.180822E+04  5.588871E+04  8.955717E+03 -6.857204E+03
       495   8 -6.339287E+05 -9.129971E+03 -1.509461E+04  4.881493E+04  1.296648E+04 -3.038833E+03
       495   9 -5.795739E+05  1.298189E+03 -1.149445E+04  5.423165E+04  1.697733E+04  4.790711E+02
       495  10 -5.048168E+05  2.158648E+04  9.345849E+03  5.503777E+04  1.095333E-10  1.879963E-11
       495  11 -5.590892E+05  8.263512E+03 -3.016946E+03  4.962081E+04  1.256131E-10  1.742132E-11
       495  12 -6.145516E+05 -7.242504E+03 -1.919443E+04  5.669424E+04  1.565394E-11  5.135588E-12
       495  13 -5.970624E+05  1.033380E+01 -6.231171E+03  5.546330E+04 -3.378105E-12  6.814160E-11
       495  14 -5.965097E+05 -4.332222E+02 -9.055924E+03  4.921787E+04  1.957998E-12 -6.955517E-12
       495  15 -5.970630E+05 -2.972189E+03 -1.534471E+04  5.546296E+04  3.880789E-11  2.842729E-12
       495  16 -6.892996E+05 -2.156626E+04 -2.180846E+04  5.588876E+04  8.250546E-11  6.042262E-11
       495  17 -6.339289E+05 -9.130027E+03 -1.509494E+04  4.881496E+04 -1.400861E-10  1.420988E-11
       495  18 -5.795742E+05  1.298112E+03 -1.149499E+04  5.423164E+04 -7.100871E-11 -1.270194E-11
       495  19 -5.048168E+05  2.158654E+04  9.345973E+03  5.503780E+04  4.370098E+03  6.855762E+03
       495  20 -5.590891E+05  8.263522E+03 -3.016928E+03  4.962081E+04 -6.500176E+02  3.037649E+03
       495  21 -6.145516E+05 -7.242495E+03 -1.919437E+04  5.669424E+04 -5.669440E+03 -4.800310E+02
       495  22 -5.970624E+05  1.038569E+01 -6.231073E+03  5.546329E+04 -2.293289E+03  6.856487E+03
       495  23 -5.965097E+05 -4.331999E+02 -9.055820E+03  4.921786E+04 -6.808430E+03  3.038237E+03
       495  24 -5.970629E+05 -2.972154E+03 -1.534446E+04  5.546296E+04 -1.132331E+04 -4.795623E+02
       495  25 -6.892995E+05 -2.156619E+04 -2.180822E+04  5.588871E+04 -8.955717E+03  6.857204E+03
       495  26 -6.339287E+05 -9.129971E+03 -1.509461E+04  4.881493E+04 -1.296648E+04  3.038833E+03
       495  27 -5.795739E+05  1.298189E+03 -1.149445E+04  5.423165E+04 -1.697733E+04 -4.790711E+02
       496   1 -6.529918E+05 -1.476989E+04 -3.030559E+04  5.158297E+04  7.812267E+03  2.687236E+03
       496   2 -7.012156E+05 -4.052521E+04 -5.795377E+04  6.791095E+04  3.326791E+04  4.229556E+03
       496   3 -7.627668E+05 -1.063429E+05 -1.122017E+05  9.645056E+04  5.872058E+04  1.563024E+03
       496   4 -5.995047E+05 -1.977613E+03 -1.986424E+04  5.540299E+04  1.393894E+04  2.686747E+03
       496   5 -5.934666E+05 -1.448862E+04 -3.562364E+04  4.929182E+04  3.232936E+04  4.228603E+03
       496   6 -5.995273E+05 -6.583155E+04 -7.306969E+04  5.539416E+04  5.071910E+04  1.560102E+03
       496   7 -5.460148E+05  1.081457E+04 -9.422875E+03  5.922334E+04  2.006613E+04  2.686333E+03
       496   8 -4.857059E+05  1.154853E+04 -1.329396E+04  3.066939E+04  3.139065E+04  4.227706E+03
       496   9 -4.362595E+05 -2.531577E+04 -3.393843E+04  1.432691E+04  4.271553E+04  1.558239E+03
       496  10 -6.529919E+05 -1.476991E+04 -3.030572E+04  5.158295E+04  5.480581E-11  8.496079E-11
       496  11 -7.012168E+05 -4.052552E+04 -5.795589E+04  6.791084E+04  4.436474E-11  3.181283E-11
       496  12 -7.627705E+05 -1.063438E+05 -1.122082E+05  9.645048E+04  4.537991E-11  2.400672E-11
       496  13 -5.995049E+05 -1.977673E+03 -1.986462E+04  5.540296E+04  5.775772E-11  1.617087E-11
       496  14 -5.934678E+05 -1.448892E+04 -3.562564E+04  4.929171E+04 -3.497670E-11  4.418095E-11
       496  15 -5.995300E+05 -6.583225E+04 -7.307454E+04  5.539410E+04  4.034342E-11  2.425513E-11
       496  16 -5.460152E+05  1.081445E+04 -9.423645E+03  5.922330E+04  5.622852E-11  3.244193E-11
       496  17 -4.857070E+05  1.154824E+04 -1.329585E+04  3.066929E+04 -1.314018E-10  6.198921E-12
       496  18 -4.362615E+05 -2.531626E+04 -3.394187E+04  1.432686E+04 -8.154168E-11  4.278208E-11
       496  19 -6.529918E+05 -1.476989E+04 -3.030559E+04  5.158297E+04 -7.812267E+03 -2.687236E+03
       496  20 -7.012156E+05 -4.052521E+04 -5.795377E+04  6.791095E+04 -3.326791E+04 -4.229556E+03
       496  21 -7.627668E+05 -1.063429E+05 -1.122017E+05  9.645056E+04 -5.872058E+04 -1.563024E+03
       496  22 -5.995047E+05 -1.977613E+03 -1.986424E+04  5.540299E+04 -1.393894E+04 -2.686747E+03
       496  23 -5.934666E+05 -1.448862E+04 -3.562364E+04  4.929182E+04 -3.232936E+04 -4.228603E+03
       496  24 -5.995273E+05 -6.583155E+04 -7.306969E+04  5.539416E+04 -5.071910E+04 -1.560102E+03
       496  25 -5.460148E+05  1.081457E+04 -9.422875E+03  5.922334E+04 -2.006613E+04 -2.686333E+03
       496  26 -4.857059E+05  1.154853E+04 -1.329396E+04  3.066939E+04 -3.139065E+04 -4.227706E+03
       496  27 -4.362595E+05 -2.531577E+04 -3.393843E+04  1.432691E+04 -4.271553E+04 -1.558239E+03
       497   1 -1.973827E+05  2.375278E+04  1.740547E+04  1.382408E+04 -9.961356E+03 -2.968290E+03
       497   2 -2.297364E+05  3.971739E+04  2.035019E+04  2.155990E+04 -9.954637E+03 -9.520780E+03
       497   3 -2.666340E+05  3.747463E+04  1.873965E+04  3.678106E+04 -9.946755E+03 -1.041062E+04
       497   4 -4.295953E+05 -3.368040E+04 -3.742086E+04  3.487817E+04 -2.571584E+04 -2.966285E+03
       497   5 -4.264903E+05 -7.409308E+03 -1.844227E+04  3.113723E+04 -1.620061E+04 -9.520425E+03
       497   6 -4.295841E+05 -1.000833E+03 -1.062650E+04  3.488221E+04 -6.684091E+03 -1.041109E+04
       497   7 -6.617569E+05 -9.111565E+04 -9.224974E+04  5.592434E+04 -4.146445E+04 -2.965349E+03
       497   8 -6.232068E+05 -5.453799E+04 -5.723641E+04  4.071146E+04 -2.244465E+04 -9.520263E+03
       497   9 -5.925083E+05 -3.947776E+04 -3.999364E+04  3.298386E+04 -3.422260E+03 -1.041159E+04
       497  10 -1.973828E+05  2.375275E+04  1.740526E+04  1.382406E+04  4.599366E-11  6.867314E-11
       497  11 -2.297366E+05  3.971727E+04  2.034983E+04  2.155983E+04  6.323047E-11 -6.171787E-12
       497  12 -2.666341E+05  3.747448E+04  1.873926E+04  3.678098E+04 -2.246354E-11  2.778977E-12
       497  13 -4.295960E+05 -3.368059E+04 -3.742212E+04  3.487811E+04 -1.682044E-11  6.020147E-12
       497  14 -4.264906E+05 -7.409476E+03 -1.844293E+04  3.113711E+04 -7.871755E-11  1.395006E-11
       497  15 -4.295842E+05 -1.000962E+03 -1.062679E+04  3.488215E+04 -7.907997E-11  6.401301E-11
       497  16 -6.617588E+05 -9.111612E+04 -9.225299E+04  5.592424E+04  2.950115E-11  2.613467E-11
       497  17 -6.232074E+05 -5.453823E+04 -5.723753E+04  4.071129E+04 -5.642719E-11  4.334667E-11
       497  18 -5.925084E+05 -3.947788E+04 -3.999386E+04  3.298383E+04 -7.415412E-11  4.933770E-11
       497  19 -1.973827E+05  2.375278E+04  1.740547E+04  1.382408E+04  9.961356E+03  2.968290E+03
       497  20 -2.297364E+05  3.971739E+04  2.035019E+04  2.155990E+04  9.954637E+03  9.520780E+03
       497  21 -2.666340E+05  3.747463E+04  1.873965E+04  3.678106E+04  9.946755E+03  1.041062E+04
       497  22 -4.295953E+05 -3.368040E+04 -3.742086E+04  3.487817E+04  2.571584E+04  2.966285E+03
       497  23 -4.264903E+05 -7.409308E+03 -1.844227E+04  3.113723E+04  1.620061E+04  9.520425E+03
       497  24 -4.295841E+05 -1.000833E+03 -1.062650E+04  3.488221E+04  6.684091E+03  1.041109E+04
       497  25 -6.617569E+05 -9.111565E+04 -9.224974E+04  5.592434E+04  4.146445E+04  2.965349E+03
       497  26 -6.232068E+05 -5.453799E+04 -5.723641E+04  4.071146E+04  2.244465E+04  9.520263E+03
       497  27 -5.925083E+05 -3.947776E+04 -3.999364E+04  3.298386E+04  3.422260E+03  1.041159E+04
       498   1 -2.882526E+05  3.153001E+04  1.652038E+04  3.426542E+04 -7.866177E+03 -9.172522E+03
       498   2 -3.226131E+05  2.456125E+04  1.252302E+04  3.073594E+04 -5.798040E+03 -7.372580E+03
       498   3 -3.574857E+05  1.660114E+04  6.931951E+03  3.506746E+04 -3.730150E+03 -5.091198E+03
       498   4 -4.283512E+05 -1.502272E+03 -8.485620E+03  3.496482E+04 -5.246555E+03 -9.172884E+03
       498   5 -4.280226E+05 -1.895015E+02 -5.776600E+03  3.103430E+04 -2.370537E+03 -7.372863E+03
       498   6 -4.283483E+05 -8.648238E+00 -5.223042E+03  3.496490E+04  5.053326E+02 -5.091363E+03
       498   7 -5.684307E+05 -3.453564E+04 -3.349234E+04  3.566406E+04 -2.627507E+03 -9.173239E+03
       498   8 -5.334212E+05 -2.494085E+04 -2.407656E+04  3.133261E+04  1.056402E+03 -7.373142E+03
       498   9 -4.992058E+05 -1.661869E+04 -1.737814E+04  3.486235E+04  4.740346E+03 -5.091528E+03
       498  10 -2.882526E+05  3.152990E+04  1.652011E+04  3.426537E+04 -1.616151E-11  9.540169E-12
       498  11 -3.226132E+05  2.456119E+04  1.252285E+04  3.073591E+04 -5.426505E-11  7.523106E-11
       498  12 -3.574858E+05  1.660110E+04  6.931876E+03  3.506744E+04 -8.607760E-11  1.086087E-10
       498  13 -4.283513E+05 -1.502370E+03 -8.485830E+03  3.496479E+04 -9.745490E-11 -2.747306E-13
       498  14 -4.280226E+05 -1.895614E+02 -5.776713E+03  3.103429E+04 -1.003010E-10  1.673762E-10
       498  15 -4.283483E+05 -8.676137E+00 -5.223091E+03  3.496490E+04 -1.360835E-11  1.149389E-10
       498  16 -5.684307E+05 -3.453573E+04 -3.349251E+04  3.566404E+04  6.346491E-11  1.021339E-10
       498  17 -5.334212E+05 -2.494091E+04 -2.407667E+04  3.133262E+04 -8.330504E-11  5.523205E-11
       498  18 -4.992058E+05 -1.661872E+04 -1.737823E+04  3.486237E+04  6.868381E-11  3.913000E-11
       498  19 -2.882526E+05  3.153001E+04  1.652038E+04  3.426542E+04  7.866177E+03  9.172522E+03
       498  20 -3.226131E+05  2.456125E+04  1.252302E+04  3.073594E+04  5.798040E+03  7.372580E+03
       498  21 -3.574857E+05  1.660114E+04  6.931951E+03  3.506746E+04  3.730150E+03  5.091198E+03
       498  22 -4.283512E+05 -1.502272E+03 -8.485620E+03  3.496482E+04  5.246555E+03  9.172884E+03
       498  23 -4.280226E+05 -1.895015E+02 -5.776600E+03  3.103430E+04  2.370537E+03  7.372863E+03
       498  24 -4.283483E+05 -8.648238E+00 -5.223042E+03  3.496490E+04 -5.053326E+02  5.091363E+03
       498  25 -5.684307E+05 -3.453564E+04 -3.349234E+04  3.566406E+04  2.627507E+03  9.173239E+03
       498  26 -5.334212E+05 -2.494085E+04 -2.407656E+04  3.133261E+04 -1.056402E+03  7.373142E+03
       498  27 -4.992058E+05 -1.661869E+04 -1.737814E+04  3.486235E+04 -4.740346E+03  5.091528E+03
       499   1 -3.801632E+05  1.129354E+04  2.569319E+03  3.465659E+04 -2.760678E+03 -3.598733E+03
       499   2 -4.142972E+05  2.815967E+03 -5.530896E+03  3.137951E+04  1.400492E+03 -1.199145E+03
       499   3 -4.494150E+05 -7.437017E+03 -1.678511E+04  3.598296E+04  5.561442E+03  9.882161E+02
       499   4 -4.284073E+05  1.417759E+01 -5.561145E+03  3.496922E+04  1.447026E+03 -3.598845E+03
       499   5 -4.279465E+05 -3.356688E+02 -7.633297E+03  3.102890E+04  5.251660E+03 -1.199228E+03
       499   6 -4.284081E+05 -2.398799E+03 -1.261156E+04  3.496915E+04  9.056287E+03  9.881512E+02
       499   7 -4.766491E+05 -1.126530E+04 -1.369162E+04  3.528183E+04  5.654414E+03 -3.598953E+03
       499   8 -4.415956E+05 -3.487305E+03 -9.735647E+03  3.067830E+04  9.102746E+03 -1.199316E+03
       499   9 -4.074007E+05  2.639403E+03 -8.437987E+03  3.395529E+04  1.255125E+04  9.880750E+02
       499  10 -3.801632E+05  1.129352E+04  2.569280E+03  3.465658E+04  1.481206E-11  1.387782E-10
       499  11 -4.142972E+05  2.815965E+03 -5.530903E+03  3.137951E+04 -6.865840E-11  5.032373E-11
       499  12 -4.494150E+05 -7.437026E+03 -1.678517E+04  3.598296E+04 -5.884146E-11  1.195814E-10
       499  13 -4.284073E+05  1.416312E+01 -5.561174E+03  3.496923E+04 -2.035588E-11  1.007549E-10
       499  14 -4.279466E+05 -3.356777E+02 -7.633352E+03  3.102891E+04 -7.340265E-11  1.661122E-11
       499  15 -4.284081E+05 -2.398822E+03 -1.261172E+04  3.496914E+04  6.508073E-12  5.483343E-11
       499  16 -4.766492E+05 -1.126532E+04 -1.369170E+04  3.528185E+04  8.432053E-11  2.097072E-11
       499  17 -4.415957E+05 -3.487329E+03 -9.735805E+03  3.067831E+04  1.874246E-10  2.329205E-11
       499  18 -4.074008E+05  2.639359E+03 -8.438285E+03  3.395528E+04 -4.170184E-11 -3.095480E-11
       499  19 -3.801632E+05  1.129354E+04  2.569319E+03  3.465659E+04  2.760678E+03  3.598733E+03
       499  20 -4.142972E+05  2.815967E+03 -5.530896E+03  3.137951E+04 -1.400492E+03  1.199145E+03
       499  21 -4.494150E+05 -7.437017E+03 -1.678511E+04  3.598296E+04 -5.561442E+03 -9.882161E+02
       499  22 -4.284073E+05  1.417759E+01 -5.561145E+03  3.496922E+04 -1.447026E+03  3.598845E+03
       499  23 -4.279465E+05 -3.356688E+02 -7.633297E+03  3.102890E+04 -5.251660E+03  1.199228E+03
       499  24 -4.284081E+05 -2.398799E+03 -1.261156E+04  3.496915E+04 -9.056287E+03 -9.881512E+02
       499  25 -4.766491E+05 -1.126530E+04 -1.369162E+04  3.528183E+04 -5.654414E+03  3.598953E+03
       499  26 -4.415956E+05 -3.487305E+03 -9.735647E+03  3.067830E+04 -9.102746E+03  1.199316E+03
       499  27 -4.074007E+05  2.639403E+03 -8.437987E+03  3.395529E+04 -1.255125E+04 -9.880750E+02
       500   1 -4.741194E+05 -1.201383E+04 -2.458529E+04  3.183642E+04  7.384186E+03  2.369002E+03
       500   2 -5.034283E+05 -3.054770E+04 -4.496478E+04  4.619697E+04  2.718594E+04  3.199263E+03
       500   3 -5.434048E+05 -8.143727E+04 -8.633155E+04  6.824844E+04  4.698617E+04  1.141734E+03
       500   4 -4.303858E+05 -1.593318E+03 -1.623747E+04  3.492784E+04  1.120397E+04  2.368953E+03
       500   5 -4.254797E+05 -1.174876E+04 -2.896609E+04  3.108040E+04  2.615685E+04  3.198606E+03
       500   6 -4.303984E+05 -5.341625E+04 -5.931139E+04  3.492508E+04  4.110942E+04  1.139473E+03
       500   7 -3.866503E+05  8.827123E+03 -7.889671E+03  3.801949E+04  1.502401E+04  2.368943E+03
       500   8 -3.475248E+05  7.050659E+03 -1.296759E+04  1.596190E+04  2.512764E+04  3.197999E+03
       500   9 -3.173779E+05 -2.539196E+04 -3.229140E+04  1.595633E+03  3.523160E+04  1.137844E+03
       500  10 -4.741194E+05 -1.201385E+04 -2.458540E+04  3.183640E+04 -5.743145E-12  7.622525E-11
       500  11 -5.034291E+05 -3.054791E+04 -4.496619E+04  4.619690E+04  8.829693E-11  2.494542E-11
       500  12 -5.434072E+05 -8.143786E+04 -8.633570E+04  6.824839E+04 -1.096963E-10 -1.804369E-11
       500  13 -4.303859E+05 -1.593358E+03 -1.623771E+04  3.492782E+04 -6.729700E-11  3.786492E-11
       500  14 -4.254804E+05 -1.174896E+04 -2.896739E+04  3.108033E+04 -2.238351E-10 -7.191475E-11
       500  15 -4.304002E+05 -5.341670E+04 -5.931457E+04  3.492505E+04 -4.125032E-11  5.207779E-11
       500  16 -3.866505E+05  8.827056E+03 -7.890106E+03  3.801946E+04 -8.514648E-11 -6.169695E-11
       500  17 -3.475255E+05  7.050478E+03 -1.296880E+04  1.596183E+04 -1.403449E-10 -6.265308E-11
       500  18 -3.173792E+05 -2.539230E+04 -3.229374E+04  1.595601E+03  1.526567E-11 -4.100874E-11
       500  19 -4.741194E+05 -1.201383E+04 -2.458529E+04  3.183642E+04 -7.384186E+03 -2.369002E+03
       500  20 -5.034283E+05 -3.054770E+04 -4.496478E+04  4.619697E+04 -2.718594E+04 -3.199263E+03
       500  21 -5.434048E+05 -8.143727E+04 -8.633155E+04  6.824844E+04 -4.698617E+04 -1.141734E+03
       500  22 -4.303858E+05 -1.593318E+03 -1.623747E+04  3.492784E+04 -1.120397E+04 -2.368953E+03
       500  23 -4.254797E+05 -1.174876E+04 -2.896609E+04  3.108040E+04 -2.615685E+04 -3.198606E+03
       500  24 -4.303984E+05 -5.341625E+04 -5.931139E+04  3.492508E+04 -4.110942E+04 -1.139473E+03
       500  25 -3.866503E+05  8.827123E+03 -7.889671E+03  3.801949E+04 -1.502401E+04 -2.368943E+03
       500  26 -3.475248E+05  7.050659E+03 -1.296759E+04  1.596190E+04 -2.512764E+04 -3.197999E+03
       500  27 -3.173779E+05 -2.539196E+04 -3.229140E+04  1.595633E+03 -3.523160E+04 -1.137844E+03
       501   1 -4.392218E+03  3.991161E+04  3.588420E+04  2.659856E+04  3.761407E+03 -2.760810E+03
       501   2 -3.922208E+04  4.075116E+04  2.827161E+04  2.764785E+04 -1.156488E+03 -8.782095E+03
       501   3 -7.512816E+04  3.469676E+04  2.213816E+04  3.637290E+04 -6.073445E+03 -9.435218E+03
       501   4 -2.238274E+05 -1.435129E+04 -1.596219E+04  3.557661E+04 -1.086160E+04 -2.760230E+03
       501   5 -2.225023E+05 -3.154503E+03 -7.949660E+03  3.173865E+04 -6.761458E+03 -8.782255E+03
       501   6 -2.238217E+05 -4.188367E+02 -4.721892E+03  3.557683E+04 -2.660764E+03 -9.435316E+03
       501   7 -4.432177E+05 -6.861723E+04 -6.781107E+04  4.455148E+04 -2.547946E+04 -2.760073E+03
       501   8 -4.057502E+05 -4.706213E+04 -4.417246E+04  3.582820E+04 -1.236481E+04 -8.782490E+03
       501   9 -3.724937E+05 -3.553567E+04 -3.158277E+04  3.478095E+04  7.511217E+02 -9.435423E+03
       501  10 -4.392236E+03  3.991159E+04  3.588416E+04  2.659856E+04  6.949543E-11 -4.975181E-11
       501  11 -3.922210E+04  4.075108E+04  2.827147E+04  2.764784E+04  1.418360E-11 -5.639799E-11
       501  12 -7.512822E+04  3.469666E+04  2.213792E+04  3.637285E+04  2.526128E-10 -6.606021E-11
       501  13 -2.238275E+05 -1.435133E+04 -1.596243E+04  3.557659E+04 -4.740134E-11 -5.274058E-11
       501  14 -2.225024E+05 -3.154598E+03 -7.949891E+03  3.173860E+04 -1.167214E-10  7.115698E-12
       501  15 -2.238217E+05 -4.189342E+02 -4.722073E+03  3.557681E+04  1.633753E-10 -4.111828E-11
       501  16 -4.432184E+05 -6.861741E+04 -6.781230E+04  4.455143E+04  1.334216E-10  9.448255E-11
       501  17 -4.057504E+05 -4.706225E+04 -4.417289E+04  3.582812E+04 -2.087259E-10 -5.739177E-11
       501  18 -3.724937E+05 -3.553576E+04 -3.158294E+04  3.478096E+04 -1.929729E-10  4.260142E-11
       501  19 -4.392218E+03  3.991161E+04  3.588420E+04  2.659856E+04 -3.761407E+03  2.760810E+03
       501  20 -3.922208E+04  4.075116E+04  2.827161E+04  2.764785E+04  1.156488E+03  8.782095E+03
       501  21 -7.512816E+04  3.469676E+04  2.213816E+04  3.637290E+04  6.073445E+03  9.435218E+03
       501  22 -2.238274E+05 -1.435129E+04 -1.596219E+04  3.557661E+04  1.086160E+04  2.760230E+03
       501  23 -2.225023E+05 -3.154503E+03 -7.949660E+03  3.173865E+04  6.761458E+03  8.782255E+03
       501  24 -2.238217E+05 -4.188367E+02 -4.721892E+03  3.557683E+04  2.660764E+03  9.435316E+03
       501  25 -4.432177E+05 -6.861723E+04 -6.781107E+04  4.455148E+04  2.547946E+04  2.760073E+03
       501  26 -4.057502E+05 -4.706213E+04 -4.417246E+04  3.582820E+04  1.236481E+04  8.782490E+03
       501  27 -3.724937E+05 -3.553567E+04 -3.158277E+04  3.478095E+04 -7.511217E+02  9.435423E+03
       502   1 -9.792179E+04  2.893900E+04  1.855570E+04  3.533708E+04 -4.810229E+03 -8.150294E+03
       502   2 -1.331701E+05  2.106520E+04  1.271710E+04  3.148320E+04 -4.106298E+03 -6.255776E+03
       502   3 -1.686020E+05  1.281590E+04  6.326413E+03  3.565696E+04 -3.402533E+03 -3.909895E+03
       502   4 -2.233032E+05 -6.290570E+02 -3.881154E+03  3.565485E+04 -2.006712E+03 -8.150325E+03
       502   5 -2.231441E+05 -6.436022E+01 -2.938941E+03  3.164097E+04 -5.448819E+02 -6.255664E+03
       502   6 -2.233010E+05 -6.629857E+00 -3.075230E+03  3.565482E+04  9.168324E+02 -3.909606E+03
       502   7 -3.486692E+05 -3.019798E+04 -2.631858E+04  3.597255E+04  7.962545E+02 -8.150353E+03
       502   8 -3.131101E+05 -2.119435E+04 -1.859522E+04  3.179872E+04  3.016034E+03 -6.255551E+03
       502   9 -2.779970E+05 -1.282931E+04 -1.247690E+04  3.565268E+04  5.235829E+03 -3.909316E+03
       502  10 -9.792183E+04  2.893892E+04  1.855554E+04  3.533705E+04  2.328277E-10 -2.688104E-11
       502  11 -1.331701E+05  2.106515E+04  1.271700E+04  3.148318E+04 -1.476149E-10  4.202094E-11
       502  12 -1.686020E+05  1.281588E+04  6.326362E+03  3.565695E+04 -1.419730E-10  4.758021E-11
       502  13 -2.233032E+05 -6.291294E+02 -3.881286E+03  3.565484E+04 -3.129450E-11  3.762398E-11
       502  14 -2.231441E+05 -6.440231E+01 -2.939015E+03  3.164097E+04 -4.729900E-11 -5.419291E-11
       502  15 -2.233010E+05 -6.646495E+00 -3.075260E+03  3.565482E+04  3.965905E-11 -7.499337E-11
       502  16 -3.486692E+05 -3.019806E+04 -2.631871E+04  3.597256E+04 -1.376997E-10  5.725452E-11
       502  17 -3.131101E+05 -2.119440E+04 -1.859531E+04  3.179874E+04 -1.112191E-10  9.749630E-11
       502  18 -2.779970E+05 -1.282934E+04 -1.247698E+04  3.565269E+04 -5.747090E-11 -7.184637E-11
       502  19 -9.792179E+04  2.893900E+04  1.855570E+04  3.533708E+04  4.810229E+03  8.150294E+03
       502  20 -1.331701E+05  2.106520E+04  1.271710E+04  3.148320E+04  4.106298E+03  6.255776E+03
       502  21 -1.686020E+05  1.281590E+04  6.326413E+03  3.565696E+04  3.402533E+03  3.909895E+03
       502  22 -2.233032E+05 -6.290570E+02 -3.881154E+03  3.565485E+04  2.006712E+03  8.150325E+03
       502  23 -2.231441E+05 -6.436022E+01 -2.938941E+03  3.164097E+04  5.448819E+02  6.255664E+03
       502  24 -2.233010E+05 -6.629857E+00 -3.075230E+03  3.565482E+04 -9.168324E+02  3.909606E+03
       502  25 -3.486692E+05 -3.019798E+04 -2.631858E+04  3.597255E+04 -7.962545E+02  8.150353E+03
       502  26 -3.131101E+05 -2.119435E+04 -1.859522E+04  3.179872E+04 -3.016034E+03  6.255551E+03
       502  27 -2.779970E+05 -1.282931E+04 -1.247690E+04  3.565268E+04 -5.235829E+03  3.909316E+03
       503   1 -1.917603E+05  7.404284E+03  1.803153E+03  3.540528E+04 -2.808874E+03 -2.386745E+03
       503   2 -2.267426E+05 -1.159609E+03 -6.101073E+03  3.186962E+04  2.283412E+02  4.487036E+01
       503   3 -2.624441E+05 -1.102174E+04 -1.630791E+04  3.637397E+04  3.265386E+03  2.220024E+03
       503   4 -2.233738E+05  2.113978E+01 -3.491851E+03  3.565755E+04  1.490197E+03 -2.386418E+03
       503   5 -2.230513E+05 -2.464091E+02 -5.227056E+03  3.163759E+04  4.096575E+03  4.516001E+01
       503   6 -2.233743E+05 -1.737289E+03 -8.965549E+03  3.565767E+04  6.702948E+03  2.220275E+03
       503   7 -2.549863E+05 -7.362046E+03 -8.786816E+03  3.590981E+04  5.789055E+03 -2.386088E+03
       503   8 -2.193600E+05  6.667977E+02 -4.352984E+03  3.140556E+04  7.964832E+03  4.544677E+01
       503   9 -1.843031E+05  7.547079E+03 -1.623207E+03  3.494132E+04  1.014072E+04  2.220517E+03
       503  10 -1.917603E+05  7.404275E+03  1.803127E+03  3.540527E+04 -4.259182E-11  7.834878E-11
       503  11 -2.267426E+05 -1.159609E+03 -6.101073E+03  3.186962E+04 -1.160972E-10 -1.247661E-10
       503  12 -2.624441E+05 -1.102175E+04 -1.630794E+04  3.637397E+04  1.385905E-10 -7.462316E-11
       503  13 -2.233738E+05  2.113307E+01 -3.491866E+03  3.565755E+04  8.412416E-12  1.100692E-11
       503  14 -2.230514E+05 -2.464136E+02 -5.227088E+03  3.163759E+04 -1.962455E-10 -6.598966E-11
       503  15 -2.233744E+05 -1.737307E+03 -8.965643E+03  3.565766E+04  1.996946E-10 -1.791028E-13
       503  16 -2.549863E+05 -7.362061E+03 -8.786890E+03  3.590982E+04 -2.839347E-11 -3.351822E-11
       503  17 -2.193601E+05  6.667807E+02 -4.353103E+03  3.140556E+04 -3.428852E-11 -6.340040E-12
       503  18 -1.843032E+05  7.547046E+03 -1.623410E+03  3.494130E+04 -3.316277E-11 -1.034295E-10
       503  19 -1.917603E+05  7.404284E+03  1.803153E+03  3.540528E+04  2.808874E+03  2.386745E+03
       503  20 -2.267426E+05 -1.159609E+03 -6.101073E+03  3.186962E+04 -2.283412E+02 -4.487036E+01
       503  21 -2.624441E+05 -1.102174E+04 -1.630791E+04  3.637397E+04 -3.265386E+03 -2.220024E+03
       503  22 -2.233738E+05  2.113978E+01 -3.491851E+03  3.565755E+04 -1.490197E+03  2.386418E+03
       503  23 -2.230513E+05 -2.464091E+02 -5.227056E+03  3.163759E+04 -4.096575E+03 -4.516001E+01
       503  24 -2.233743E+05 -1.737289E+03 -8.965549E+03  3.565767E+04 -6.702948E+03 -2.220275E+03
       503  25 -2.549863E+05 -7.362046E+03 -8.786816E+03  3.590981E+04 -5.789055E+03  2.386088E+03
       503  26 -2.193600E+05  6.667977E+02 -4.352984E+03  3.140556E+04 -7.964832E+03 -4.544677E+01
       503  27 -1.843031E+05  7.547079E+03 -1.623207E+03  3.494132E+04 -1.014072E+04 -2.220517E+03
       504   1 -2.870946E+05 -1.594009E+04 -2.326582E+04  3.335640E+04  4.416038E+03  3.608120E+03
       504   2 -3.184134E+05 -3.188296E+04 -4.061948E+04  4.263208E+04  2.085512E+04  4.202149E+03
       504   3 -3.578204E+05 -7.161913E+04 -7.462733E+04  5.973037E+04  3.729283E+04  1.438233E+03
       504   4 -2.248108E+05 -1.153458E+03 -1.163617E+04  3.560952E+04  8.232238E+03  3.608380E+03
       504   5 -2.212594E+05 -8.507139E+03 -2.091792E+04  3.169839E+04  1.903241E+04  4.201636E+03
       504   6 -2.248171E+05 -3.867329E+04 -4.293551E+04  3.561087E+04  2.983233E+04  1.436489E+03
       504   7 -1.625232E+05  1.363298E+04 -6.623047E+00  3.786288E+04  1.204881E+04  3.608668E+03
       504   8 -1.240962E+05  1.486855E+04 -1.216772E+03  2.076296E+04  1.720943E+04  4.201188E+03
       504   9 -9.179624E+04 -5.726500E+03 -1.124441E+04  1.148616E+04  2.237025E+04  1.435326E+03
       504  10 -2.870946E+05 -1.594011E+04 -2.326589E+04  3.335638E+04  4.032992E-11  2.860050E-11
       504  11 -3.184139E+05 -3.188310E+04 -4.062034E+04  4.263201E+04  2.220327E-10  8.023338E-11
       504  12 -3.578219E+05 -7.161951E+04 -7.462994E+04  5.973033E+04  9.483690E-11 -9.321851E-13
       504  13 -2.248108E+05 -1.153490E+03 -1.163632E+04  3.560950E+04  2.628269E-11  3.149710E-11
       504  14 -2.212598E+05 -8.507256E+03 -2.091864E+04  3.169833E+04  2.057876E-10  4.925531E-11
       504  15 -2.248181E+05 -3.867353E+04 -4.293719E+04  3.561083E+04 -1.403120E-11 -4.880280E-11
       504  16 -1.625233E+05  1.363293E+04 -6.920387E+00  3.786285E+04  1.496033E-10 -1.012738E-10
       504  17 -1.240965E+05  1.486845E+04 -1.217362E+03  2.076290E+04 -4.178934E-11  2.514205E-11
       504  18 -9.179678E+04 -5.726636E+03 -1.124536E+04  1.148614E+04 -7.150533E-11 -3.300006E-11
       504  19 -2.870946E+05 -1.594009E+04 -2.326582E+04  3.335640E+04 -4.416038E+03 -3.608120E+03
       504  20 -3.184134E+05 -3.188296E+04 -4.061948E+04  4.263208E+04 -2.085512E+04 -4.202149E+03
       504  21 -3.578204E+05 -7.161913E+04 -7.462733E+04  5.973037E+04 -3.729283E+04 -1.438233E+03
       504  22 -2.248108E+05 -1.153458E+03 -1.163617E+04  3.560952E+04 -8.232238E+03 -3.608380E+03
       504  23 -2.212594E+05 -8.507139E+03 -2.091792E+04  3.169839E+04 -1.903241E+04 -4.201636E+03
       504  24 -2.248171E+05 -3.867329E+04 -4.293551E+04  3.561087E+04 -2.983233E+04 -1.436489E+03
       504  25 -1.625232E+05  1.363298E+04 -6.623047E+00  3.786288E+04 -1.204881E+04 -3.608668E+03
       504  26 -1.240962E+05  1.486855E+04 -1.216772E+03  2.076296E+04 -1.720943E+04 -4.201188E+03
       504  27 -9.179624E+04 -5.726500E+03 -1.124441E+04  1.148616E+04 -2.237025E+04 -1.435326E+03
       505   1  2.274914E+05  5.753025E+04  5.687537E+04  4.081165E+04  2.138772E+04 -2.248635E+03
       505   2  1.926692E+05  3.859341E+04  3.616953E+04  3.306231E+04  1.047580E+04 -7.065193E+03
       505   3  1.613884E+05  2.813026E+04  2.468486E+04  3.252434E+04 -4.354883E+02 -7.366886E+03
       505   4  4.390004E+04  1.213149E+04  1.344512E+04  3.325033E+04  9.499728E+03 -2.249361E+03
       505   5  4.278943E+04  2.673913E+03  6.433066E+03  2.964500E+04  6.175817E+03 -7.065645E+03
       505   6  4.390348E+04  3.742238E+02  3.374751E+03  3.325095E+04  2.851994E+03 -7.366711E+03
       505   7 -1.396600E+05 -3.326939E+04 -2.998690E+04  2.569125E+04 -2.384764E+03 -2.249798E+03
       505   8 -1.070688E+05 -3.324690E+04 -2.330444E+04  2.622853E+04  1.876852E+03 -7.066050E+03
       505   9 -7.356800E+04 -2.738258E+04 -1.793587E+04  3.397742E+04  6.138872E+03 -7.366529E+03
       505  10  2.274910E+05  5.753012E+04  5.687450E+04  4.081169E+04  9.685918E-11  1.903143E-11
       505  11  1.926691E+05  3.859333E+04  3.616923E+04  3.306237E+04 -1.106446E-10 -1.469366E-10
       505  12  1.613884E+05  2.813020E+04  2.468476E+04  3.252434E+04 -2.190356E-11 -1.438170E-11
       505  13  4.389994E+04  1.213146E+04  1.344494E+04  3.325035E+04  6.652274E-11 -2.018899E-11
       505  14  4.278937E+04  2.673849E+03  6.432901E+03  2.964504E+04 -8.439302E-11  3.311612E-11
       505  15  4.390346E+04  3.741633E+02  3.374633E+03  3.325097E+04 -2.476211E-10  4.908250E-12
       505  16 -1.396600E+05 -3.326940E+04 -2.998692E+04  2.569125E+04 -2.234395E-10 -2.945570E-11
       505  17 -1.070688E+05 -3.324695E+04 -2.330454E+04  2.622854E+04  4.823547E-11 -1.374161E-11
       505  18 -7.356805E+04 -2.738265E+04 -1.793604E+04  3.397745E+04 -2.873700E-12 -9.367211E-11
       505  19  2.274914E+05  5.753025E+04  5.687537E+04  4.081165E+04 -2.138772E+04  2.248635E+03
       505  20  1.926692E+05  3.859341E+04  3.616953E+04  3.306231E+04 -1.047580E+04  7.065193E+03
       505  21  1.613884E+05  2.813026E+04  2.468486E+04  3.252434E+04  4.354883E+02  7.366886E+03
       505  22  4.390004E+04  1.213149E+04  1.344512E+04  3.325033E+04 -9.499728E+03  2.249361E+03
       505  23  4.278943E+04  2.673913E+03  6.433066E+03  2.964500E+04 -6.175817E+03  7.065645E+03
       505  24  4.390348E+04  3.742238E+02  3.374751E+03  3.325095E+04 -2.851994E+03  7.366711E+03
       505  25 -1.396600E+05 -3.326939E+04 -2.998690E+04  2.569125E+04  2.384764E+03  2.249798E+03
       505  26 -1.070688E+05 -3.324690E+04 -2.330444E+04  2.622853E+04 -1.876852E+03  7.066050E+03
       505  27 -7.356800E+04 -2.738258E+04 -1.793587E+04  3.397742E+04 -6.138872E+03  7.366529E+03
       506   1  1.391732E+05  2.314847E+04  1.964749E+04  3.351007E+04 -3.448196E+02 -6.141406E+03
       506   2  1.060295E+05  1.482403E+04  1.191661E+04  2.959180E+04 -1.452696E+03 -4.302879E+03
       506   3  7.314498E+04  6.956955E+03  5.021011E+03  3.317407E+04 -2.560626E+03 -2.091203E+03
       506   4  4.344316E+04  5.619218E+02  2.434710E+03  3.331520E+04  2.430878E+03 -6.141206E+03
       506   5  4.336920E+04  1.015409E+02  9.590100E+02  2.956495E+04  1.950006E+03 -4.302543E+03
       506   6  4.344456E+04 -1.022819E+01 -1.166918E+02  3.331527E+04  1.469024E+03 -2.090711E+03
       506   7 -5.227793E+04 -2.202514E+04 -1.477840E+04  3.312036E+04  5.206159E+03 -6.141008E+03
       506   8 -1.928724E+04 -1.462116E+04 -9.998687E+03  2.953810E+04  5.352375E+03 -4.302208E+03
       506   9  1.374503E+04 -6.977451E+03 -5.254364E+03  3.345647E+04  5.498488E+03 -2.090217E+03
       506  10  1.391732E+05  2.314843E+04  1.964742E+04  3.351007E+04 -6.509811E-11  2.721312E-11
       506  11  1.060295E+05  1.482401E+04  1.191657E+04  2.959180E+04 -1.481857E-10  1.370475E-12
       506  12  7.314497E+04  6.956949E+03  5.020991E+03  3.317407E+04  1.095216E-10 -2.254615E-11
       506  13  4.344314E+04  5.618797E+02  2.434628E+03  3.331522E+04 -7.826401E-11  1.086175E-11
       506  14  4.336919E+04  1.015200E+02  9.589681E+02  2.956496E+04  1.236790E-10  2.924362E-11
       506  15  4.344455E+04 -1.023346E+01 -1.167041E+02  3.331528E+04  8.368002E-12  5.170946E-11
       506  16 -5.227797E+04 -2.202519E+04 -1.477852E+04  3.312039E+04 -7.399338E-12 -1.420925E-10
       506  17 -1.928727E+04 -1.462119E+04 -9.998776E+03  2.953812E+04  1.197207E-10 -7.867961E-11
       506  18  1.374500E+04 -6.977463E+03 -5.254429E+03  3.345648E+04  5.044744E-11 -1.060274E-11
       506  19  1.391732E+05  2.314847E+04  1.964749E+04  3.351007E+04  3.448196E+02  6.141406E+03
       506  20  1.060295E+05  1.482403E+04  1.191661E+04  2.959180E+04  1.452696E+03  4.302879E+03
       506  21  7.314498E+04  6.956955E+03  5.021011E+03  3.317407E+04  2.560626E+03  2.091203E+03
       506  22  4.344316E+04  5.619218E+02  2.434710E+03  3.331520E+04 -2.430878E+03  6.141206E+03
       506  23  4.336920E+04  1.015409E+02  9.590100E+02  2.956495E+04 -1.950006E+03  4.302543E+03
       506  24  4.344456E+04 -1.022819E+01 -1.166918E+02  3.331527E+04 -1.469024E+03  2.090711E+03
       506  25 -5.227793E+04 -2.202514E+04 -1.477840E+04  3.312036E+04 -5.206159E+03  6.141008E+03
       506  26 -1.928724E+04 -1.462116E+04 -9.998687E+03  2.953810E+04 -5.352375E+03  4.302208E+03
       506  27  1.374503E+04 -6.977451E+03 -5.254364E+03  3.345647E+04 -5.498488E+03  2.090217E+03
       507   1  5.149237E+04  1.912229E+03  6.668255E+02  3.314416E+04 -2.486059E+03 -6.689087E+02
       507   2  1.865267E+04 -5.989792E+03 -6.374658E+03  2.962949E+04 -1.055125E+03  1.580501E+03
       507   3 -1.453004E+04 -1.452077E+04 -1.450525E+04  3.362048E+04  3.757628E+02  3.542136E+03
       507   4  4.335362E+04  2.395960E+01 -6.364746E+02  3.331638E+04  1.534615E+03 -6.684016E+02
       507   5  4.348368E+04 -1.280350E+02 -1.895917E+03  2.956361E+04  2.482003E+03  1.580916E+03
       507   6  4.335314E+04 -8.250883E+02 -3.908783E+03  3.331649E+04  3.429425E+03  3.542466E+03
       507   7  3.521498E+04 -1.864305E+03 -1.939716E+03  3.348861E+04  5.555238E+03 -6.678922E+02
       507   8  6.831531E+04  5.733695E+03  2.582846E+03  2.949773E+04  6.019269E+03  1.581331E+03
       507   9  1.012396E+05  1.287041E+04  6.687583E+03  3.301247E+04  6.483365E+03  3.542793E+03
       507  10  5.149236E+04  1.912227E+03  6.668131E+02  3.314415E+04 -4.500866E-11 -2.622386E-12
       507  11  1.865267E+04 -5.989795E+03 -6.374664E+03  2.962949E+04  1.948513E-11  1.306163E-10
       507  12 -1.453005E+04 -1.452078E+04 -1.450527E+04  3.362047E+04  9.874211E-11  1.405192E-10
       507  13  4.335362E+04  2.395849E+01 -6.364799E+02  3.331638E+04  1.356780E-10  6.556558E-12
       507  14  4.348367E+04 -1.280393E+02 -1.895934E+03  2.956361E+04 -6.532358E-11 -3.878523E-11
       507  15  4.335312E+04 -8.251050E+02 -3.908828E+03  3.331648E+04  3.196572E-11  1.143806E-10
       507  16  3.521495E+04 -1.864314E+03 -1.939775E+03  3.348861E+04  1.160212E-10 -1.563047E-12
       507  17  6.831527E+04  5.733682E+03  2.582773E+03  2.949772E+04  6.337493E-12 -2.495350E-11
       507  18  1.012395E+05  1.287038E+04  6.687480E+03  3.301245E+04 -1.577316E-11  3.044023E-11
       507  19  5.149237E+04  1.912229E+03  6.668255E+02  3.314416E+04  2.486059E+03  6.689087E+02
       507  20  1.865267E+04 -5.989792E+03 -6.374658E+03  2.962949E+04  1.055125E+03 -1.580501E+03
       507  21 -1.453004E+04 -1.452077E+04 -1.450525E+04  3.362048E+04 -3.757628E+02 -3.542136E+03
       507  22  4.335362E+04  2.395960E+01 -6.364746E+02  3.331638E+04 -1.534615E+03  6.684016E+02
       507  23  4.348368E+04 -1.280350E+02 -1.895917E+03  2.956361E+04 -2.482003E+03 -1.580916E+03
       507  24  4.335314E+04 -8.250883E+02 -3.908783E+03  3.331649E+04 -3.429425E+03 -3.542466E+03
       507  25  3.521498E+04 -1.864305E+03 -1.939716E+03  3.348861E+04 -5.555238E+03  6.678922E+02
       507  26  6.831531E+04  5.733695E+03  2.582846E+03  2.949773E+04 -6.019269E+03 -1.581331E+03
       507  27  1.012396E+05  1.287041E+04  6.687583E+03  3.301247E+04 -6.483365E+03 -3.542793E+03
       508   1 -3.692254E+04 -1.939338E+04 -1.988562E+04  3.217701E+04  6.364774E+02  4.812779E+03
       508   2 -6.776231E+04 -3.092908E+04 -3.224008E+04  3.475832E+04  1.177589E+04  5.058826E+03
       508   3 -1.030019E+05 -5.426673E+04 -5.479754E+04  4.461146E+04  2.291483E+04  1.670737E+03
       508   4  4.266829E+04 -5.481874E+02 -5.251698E+03  3.326445E+04  4.100788E+03  4.813108E+03
       508   5  4.433716E+04 -4.011088E+03 -9.746647E+03  2.962910E+04  9.135873E+03  5.058427E+03
       508   6  4.266628E+04 -1.821484E+04 -2.020451E+04  3.326577E+04  1.417106E+04  1.669687E+03
       508   7  1.222653E+05  1.829666E+04  9.382005E+03  3.435203E+04  7.565532E+03  4.813449E+03
       508   8  1.564487E+05  2.290624E+04  1.274619E+04  2.449893E+04  6.495392E+03  5.058071E+03
       508   9  1.883544E+05  1.783604E+04  1.438740E+04  2.191741E+04  5.425245E+03  1.668956E+03
       508  10 -3.692255E+04 -1.939341E+04 -1.988566E+04  3.217701E+04  1.091817E-10  1.226218E-10
       508  11 -6.776247E+04 -3.092915E+04 -3.224039E+04  3.475827E+04 -1.166952E-10 -1.801879E-11
       508  12 -1.030025E+05 -5.426687E+04 -5.479853E+04  4.461143E+04  3.018190E-11 -2.124616E-11
       508  13  4.266827E+04 -5.482168E+02 -5.251773E+03  3.326443E+04  8.538103E-11  1.569251E-10
       508  14  4.433706E+04 -4.011138E+03 -9.746852E+03  2.962906E+04  3.470003E-11  9.811012E-11
       508  15  4.266606E+04 -1.821490E+04 -2.020489E+04  3.326575E+04 -3.696710E-11  7.030168E-12
       508  16  1.222652E+05  1.829662E+04  9.381854E+03  3.435200E+04 -1.877969E-10  1.214424E-10
       508  17  1.564486E+05  2.290620E+04  1.274606E+04  2.449890E+04  1.250916E-10  5.136292E-11
       508  18  1.883544E+05  1.783603E+04  1.438734E+04  2.191740E+04  7.619556E-11 -3.425241E-11
       508  19 -3.692254E+04 -1.939338E+04 -1.988562E+04  3.217701E+04 -6.364774E+02 -4.812779E+03
       508  20 -6.776231E+04 -3.092908E+04 -3.224008E+04  3.475832E+04 -1.177589E+04 -5.058826E+03
       508  21 -1.030019E+05 -5.426673E+04 -5.479754E+04  4.461146E+04 -2.291483E+04 -1.670737E+03
       508  22  4.266829E+04 -5.481874E+02 -5.251698E+03  3.326445E+04 -4.100788E+03 -4.813108E+03
       508  23  4.433716E+04 -4.011088E+03 -9.746647E+03  2.962910E+04 -9.135873E+03 -5.058427E+03
       508  24  4.266628E+04 -1.821484E+04 -2.020451E+04  3.326577E+04 -1.417106E+04 -1.669687E+03
       508  25  1.222653E+05  1.829666E+04  9.382005E+03  3.435203E+04 -7.565532E+03 -4.813449E+03
       508  26  1.564487E+05  2.290624E+04  1.274619E+04  2.449893E+04 -6.495392E+03 -5.058071E+03
       508  27  1.883544E+05  1.783604E+04  1.438740E+04  2.191741E+04 -5.425245E+03 -1.668956E+03
       509   1  5.413746E+05  8.599771E+04  8.903094E+04  6.221872E+04  4.453950E+04 -2.019010E+03
       509   2  5.020854E+05  4.212361E+04  5.060300E+04  4.348210E+04  2.525065E+04 -6.249424E+03
       509   3  4.720683E+05  2.529690E+04  3.148753E+04  3.234287E+04  5.963019E+03 -6.253803E+03
       509   4  3.706331E+05  4.377241E+04  4.858077E+04  3.489640E+04  3.387562E+04 -2.021784E+03
       509   5  3.666184E+05  9.638533E+03  2.359130E+04  3.109995E+04  2.169288E+04 -6.250373E+03
       509   6  3.706439E+05  1.321890E+03  1.298487E+04  3.489999E+04  9.510115E+03 -6.253432E+03
       509   7  1.999202E+05  1.547882E+03  8.129409E+03  7.581634E+03  2.321466E+04 -2.023622E+03
       509   8  2.311692E+05 -2.284708E+04 -3.421196E+03  1.872056E+04  1.813587E+04 -6.251180E+03
       509   9  2.692295E+05 -2.265367E+04 -5.518148E+03  3.745668E+04  1.305665E+04 -6.253032E+03
       509  10  5.413725E+05  8.599718E+04  8.902721E+04  6.221879E+04 -5.474269E-12  4.688791E-11
       509  11  5.020847E+05  4.212339E+04  5.060173E+04  4.348223E+04 -1.464930E-10 -2.571843E-11
       509  12  4.720682E+05  2.529685E+04  3.148739E+04  3.234290E+04  1.858342E-10 -1.095685E-10
       509  13  3.706319E+05  4.377210E+04  4.857861E+04  3.489646E+04 -7.153041E-11  1.465650E-11
       509  14  3.666178E+05  9.638365E+03  2.359034E+04  3.110006E+04 -1.802683E-10 -7.994299E-11
       509  15  3.706438E+05  1.321824E+03  1.298463E+04  3.490004E+04  6.926019E-11 -8.941665E-11
       509  16  1.999196E+05  1.547732E+03  8.128389E+03  7.581672E+03  1.901012E-11 -3.302984E-11
       509  17  2.311688E+05 -2.284721E+04 -3.421887E+03  1.872065E+04 -1.448578E-10 -9.198284E-11
       509  18  2.692293E+05 -2.265375E+04 -5.518542E+03  3.745674E+04 -1.877128E-10 -7.839446E-11
       509  19  5.413746E+05  8.599771E+04  8.903094E+04  6.221872E+04 -4.453950E+04  2.019010E+03
       509  20  5.020854E+05  4.212361E+04  5.060300E+04  4.348210E+04 -2.525065E+04  6.249424E+03
       509  21  4.720683E+05  2.529690E+04  3.148753E+04  3.234287E+04 -5.963019E+03  6.253803E+03
       509  22  3.706331E+05  4.377241E+04  4.858077E+04  3.489640E+04 -3.387562E+04  2.021784E+03
       509  23  3.666184E+05  9.638533E+03  2.359130E+04  3.109995E+04 -2.169288E+04  6.250373E+03
       509  24  3.706439E+05  1.321890E+03  1.298487E+04  3.489999E+04 -9.510115E+03  6.253432E+03
       509  25  1.999202E+05  1.547882E+03  8.129409E+03  7.581634E+03 -2.321466E+04  2.023622E+03
       509  26  2.311692E+05 -2.284708E+04 -3.421196E+03  1.872056E+04 -1.813587E+04  6.251180E+03
       509  27  2.692295E+05 -2.265367E+04 -5.518148E+03  3.745668E+04 -1.305665E+04  6.253032E+03
       510   1  4.476530E+05  2.055505E+04  2.413443E+04  3.575406E+04  4.748637E+03 -4.943879E+03
       510   2  4.126464E+05  1.064767E+04  1.321825E+04  3.125973E+04  1.452474E+03 -2.947187E+03
       510   3  3.784344E+05  2.201673E+03  4.811836E+03  3.462941E+04 -1.843546E+03 -6.084244E+02
       510   4  3.690114E+05  1.985186E+03  9.891382E+03  3.495912E+04  7.817584E+03 -4.943533E+03
       510   5  3.686656E+05  3.020453E+02  5.451733E+03  3.102725E+04  5.096625E+03 -2.946706E+03
       510   6  3.690132E+05 -1.947569E+01  3.122731E+03  3.495939E+04  2.375625E+03 -6.078009E+02
       510   7  2.903757E+05 -1.658502E+04 -4.351873E+03  3.416427E+04  1.088615E+04 -4.943196E+03
       510   8  3.246868E+05 -1.004368E+04 -2.314811E+03  3.079478E+04  8.740526E+03 -2.946229E+03
       510   9  3.595921E+05 -2.240619E+03  1.433690E+03  3.528937E+04  6.594735E+03 -6.071729E+02
       510  10  4.476530E+05  2.055502E+04  2.413434E+04  3.575408E+04 -1.676644E-10 -2.356020E-10
       510  11  4.126464E+05  1.064766E+04  1.321823E+04  3.125973E+04 -9.707986E-11 -8.362349E-11
       510  12  3.784344E+05  2.201672E+03  4.811829E+03  3.462941E+04 -1.636235E-10 -4.476978E-11
       510  13  3.690113E+05  1.985143E+03  9.891221E+03  3.495915E+04  1.346453E-10 -2.134585E-10
       510  14  3.686656E+05  3.020290E+02  5.451667E+03  3.102726E+04 -4.528698E-11 -8.028830E-11
       510  15  3.690132E+05 -1.947760E+01  3.122720E+03  3.495940E+04 -9.378375E-11 -9.876707E-11
       510  16  2.903756E+05 -1.658507E+04 -4.352141E+03  3.416432E+04  7.447448E-11 -6.101850E-11
       510  17  3.246867E+05 -1.004371E+04 -2.314971E+03  3.079480E+04  7.256457E-11 -1.460323E-10
       510  18  3.595921E+05 -2.240631E+03  1.433607E+03  3.528938E+04  1.255308E-10  3.240813E-11
       510  19  4.476530E+05  2.055505E+04  2.413443E+04  3.575406E+04 -4.748637E+03  4.943879E+03
       510  20  4.126464E+05  1.064767E+04  1.321825E+04  3.125973E+04 -1.452474E+03  2.947187E+03
       510  21  3.784344E+05  2.201673E+03  4.811836E+03  3.462941E+04  1.843546E+03  6.084244E+02
       510  22  3.690114E+05  1.985186E+03  9.891382E+03  3.495912E+04 -7.817584E+03  4.943533E+03
       510  23  3.686656E+05  3.020453E+02  5.451733E+03  3.102725E+04 -5.096625E+03  2.946706E+03
       510  24  3.690132E+05 -1.947569E+01  3.122731E+03  3.495939E+04 -2.375625E+03  6.078009E+02
       510  25  2.903757E+05 -1.658502E+04 -4.351873E+03  3.416427E+04 -1.088615E+04  4.943196E+03
       510  26  3.246868E+05 -1.004368E+04 -2.314811E+03  3.079478E+04 -8.740526E+03  2.946229E+03
       510  27  3.595921E+05 -2.240619E+03  1.433690E+03  3.528937E+04 -6.594735E+03  6.071729E+02
       511   1  3.557037E+05 -3.072008E+03  5.529172E+01  3.483915E+04 -2.325845E+03  8.819535E+02
       511   2  3.210904E+05 -1.125190E+04 -7.015895E+03  3.092328E+04 -2.427455E+03  3.217581E+03
       511   3  2.864872E+05 -1.944248E+04 -1.402421E+04  3.487108E+04 -2.528963E+03  5.202714E+03
       511   4  3.688840E+05  2.874836E+01  2.383995E+03  3.495928E+04  1.894202E+03  8.825759E+02
       511   5  3.688276E+05 -2.612439E+01  1.394161E+03  3.102747E+04  1.203457E+03  3.218052E+03
       511   6  3.688830E+05  1.075256E+01  8.763100E+02  3.495929E+04  5.127994E+02  5.203051E+03
       511   7  3.820644E+05  3.129505E+03  4.712758E+03  3.507941E+04  6.114337E+03  8.832001E+02
       511   8  4.165672E+05  1.119953E+04  9.804183E+03  3.113167E+04  4.834639E+03  3.218526E+03
       511   9  4.512855E+05  1.946361E+04  1.577660E+04  3.504752E+04  3.554954E+03  5.203388E+03
       511  10  3.557037E+05 -3.072010E+03  5.528010E+01  3.483915E+04  2.984326E-10  1.535942E-10
       511  11  3.210904E+05 -1.125191E+04 -7.015926E+03  3.092328E+04 -1.752038E-10  1.898577E-11
       511  12  2.864871E+05 -1.944251E+04 -1.402427E+04  3.487109E+04 -2.666284E-10 -6.517105E-11
       511  13  3.688839E+05  2.874656E+01  2.383986E+03  3.495928E+04 -1.262586E-11  2.053948E-11
       511  14  3.688276E+05 -2.613590E+01  1.394139E+03  3.102747E+04 -4.625717E-11  2.191771E-11
       511  15  3.688830E+05  1.072341E+01  8.762586E+02  3.495929E+04  1.290926E-11  3.329354E-12
       511  16  3.820644E+05  3.129494E+03  4.712686E+03  3.507940E+04 -3.364386E-10 -5.770362E-11
       511  17  4.165671E+05  1.119952E+04  9.804120E+03  3.113166E+04  1.451462E-10 -1.724622E-10
       511  18  4.512855E+05  1.946357E+04  1.577652E+04  3.504750E+04  1.219149E-10 -5.352694E-11
       511  19  3.557037E+05 -3.072008E+03  5.529172E+01  3.483915E+04  2.325845E+03 -8.819535E+02
       511  20  3.210904E+05 -1.125190E+04 -7.015895E+03  3.092328E+04  2.427455E+03 -3.217581E+03
       511  21  2.864872E+05 -1.944248E+04 -1.402421E+04  3.487108E+04  2.528963E+03 -5.202714E+03
       511  22  3.688840E+05  2.874836E+01  2.383995E+03  3.495928E+04 -1.894202E+03 -8.825759E+02
       511  23  3.688276E+05 -2.612439E+01  1.394161E+03  3.102747E+04 -1.203457E+03 -3.218052E+03
       511  24  3.688830E+05  1.075256E+01  8.763100E+02  3.495929E+04 -5.127994E+02 -5.203051E+03
       511  25  3.820644E+05  3.129505E+03  4.712758E+03  3.507941E+04 -6.114337E+03 -8.832001E+02
       511  26  4.165672E+05  1.119953E+04  9.804183E+03  3.113167E+04 -4.834639E+03 -3.218526E+03
       511  27  4.512855E+05  1.946361E+04  1.577660E+04  3.504752E+04 -3.554954E+03 -5.203388E+03
       512   1  2.637089E+05 -2.485557E+04 -1.844093E+04  3.487727E+04 -3.157005E+03  6.508437E+03
       512   2  2.296122E+05 -3.324556E+04 -2.713431E+04  3.087173E+04  3.790145E+03  6.452840E+03
       512   3  1.943966E+05 -4.250498E+04 -4.056627E+04  3.445663E+04  1.073690E+04  2.082840E+03
       512   4  3.688881E+05  6.100588E+00  7.254888E+02  3.489857E+04  3.733697E+02  6.508767E+03
       512   5  3.688174E+05  1.327635E+02  5.980084E+02  3.110336E+04  7.052024E+01  6.452383E+03
       512   6  3.688849E+05  6.483905E+02  7.650177E+02  3.489852E+04 -2.323157E+02  2.082043E+03
       512   7  4.740781E+05  2.486716E+04  1.989151E+04  3.491986E+04  3.904326E+03  6.509097E+03
       512   8  5.080412E+05  3.350991E+04  2.832941E+04  3.133505E+04 -3.649922E+03  6.451923E+03
       512   9  5.434014E+05  4.379964E+04  4.209464E+04  3.534052E+04 -1.120460E+04  2.081230E+03
       512  10  2.637089E+05 -2.485562E+04 -1.844103E+04  3.487729E+04 -7.856116E-11 -6.672338E-11
       512  11  2.296122E+05 -3.324561E+04 -2.713441E+04  3.087171E+04 -1.645155E-10 -1.376062E-10
       512  12  1.943965E+05 -4.250502E+04 -4.056649E+04  3.445662E+04 -1.473776E-10 -6.965476E-11
       512  13  3.688881E+05  6.055051E+00  7.254089E+02  3.489856E+04 -1.290196E-10 -1.226512E-10
       512  14  3.688174E+05  1.327188E+02  5.979301E+02  3.110336E+04  2.111919E-10  3.431819E-11
       512  15  3.688849E+05  6.483858E+02  7.650095E+02  3.489852E+04  1.262941E-10 -8.786114E-12
       512  16  4.740780E+05  2.486711E+04  1.989140E+04  3.491984E+04  1.707610E-10  1.245852E-10
       512  17  5.080411E+05  3.350986E+04  2.832930E+04  3.133507E+04 -2.361598E-12 -3.131748E-11
       512  18  5.434013E+05  4.379960E+04  4.209440E+04  3.534054E+04  2.965930E-10  3.085292E-11
       512  19  2.637089E+05 -2.485557E+04 -1.844093E+04  3.487727E+04  3.157005E+03 -6.508437E+03
       512  20  2.296122E+05 -3.324556E+04 -2.713431E+04  3.087173E+04 -3.790145E+03 -6.452840E+03
       512  21  1.943966E+05 -4.250498E+04 -4.056627E+04  3.445663E+04 -1.073690E+04 -2.082840E+03
       512  22  3.688881E+05  6.100588E+00  7.254888E+02  3.489857E+04 -3.733697E+02 -6.508767E+03
       512  23  3.688174E+05  1.327635E+02  5.980084E+02  3.110336E+04 -7.052024E+01 -6.452383E+03
       512  24  3.688849E+05  6.483905E+02  7.650177E+02  3.489852E+04  2.323157E+02 -2.082043E+03
       512  25  4.740781E+05  2.486716E+04  1.989151E+04  3.491986E+04 -3.904326E+03 -6.509097E+03
       512  26  5.080412E+05  3.350991E+04  2.832941E+04  3.133505E+04  3.649922E+03 -6.451923E+03
       512  27  5.434014E+05  4.379964E+04  4.209464E+04  3.534052E+04  1.120460E+04 -2.081230E+03
       513   1  1.148447E+06  1.658955E+05  1.730699E+05  1.433238E+05  8.564289E+04 -3.200390E+03
       513   2  1.052699E+06  7.253014E+04  9.380454E+04  1.030698E+05  4.717700E+04 -9.270714E+03
       513   3  9.757870E+05  3.449514E+04  5.338181E+04  8.194136E+04  8.717481E+03 -7.576276E+03
       513   4  8.417257E+05  8.998466E+04  9.999762E+04  8.703395E+04  6.890283E+04 -3.210934E+03
       513   5  8.334644E+05  1.979899E+04  4.920621E+04  7.748038E+04  4.350567E+04 -9.273618E+03
       513   6  8.417737E+05  2.686856E+03  2.820305E+04  8.704733E+04  1.810887E+04 -7.574083E+03
       513   7  5.350979E+05  1.407909E+04  2.692150E+04  3.077199E+04  5.217098E+04 -3.218452E+03
       513   8  6.142767E+05 -3.293270E+04  4.605764E+03  5.190013E+04  3.983561E+04 -9.276222E+03
       513   9  7.077779E+05 -2.912233E+04  3.023844E+03  9.215216E+04  2.749829E+04 -7.571735E+03
       513  10  1.148439E+06  1.658935E+05  1.730561E+05  1.433240E+05  2.940642E-10 -5.978030E-11
       513  11  1.052697E+06  7.252945E+04  9.380020E+04  1.030702E+05  2.682606E-10 -6.840400E-11
       513  12  9.757869E+05  3.449506E+04  5.338156E+04  8.194141E+04  2.127086E-10  1.603685E-10
       513  13  8.417206E+05  8.998338E+04  9.998869E+04  8.703413E+04 -4.056298E-10 -1.481775E-10
       513  14  8.334624E+05  1.979839E+04  4.920249E+04  7.748071E+04 -1.802031E-10 -1.990177E-10
       513  15  8.417733E+05  2.686706E+03  2.820232E+04  8.704744E+04  5.138355E-10  2.648376E-10
       513  16  5.350950E+05  1.407835E+04  2.691637E+04  3.077213E+04 -2.669648E-10 -2.308904E-11
       513  17  6.142749E+05 -3.293321E+04  4.602623E+03  5.190043E+04 -6.014421E-10 -1.989992E-10
       513  18  7.077771E+05 -2.912259E+04  3.022316E+03  9.215233E+04  2.930945E-11 -1.919400E-11
       513  19  1.148447E+06  1.658955E+05  1.730699E+05  1.433238E+05 -8.564289E+04  3.200390E+03
       513  20  1.052699E+06  7.253014E+04  9.380454E+04  1.030698E+05 -4.717700E+04  9.270714E+03
       513  21  9.757870E+05  3.449514E+04  5.338181E+04  8.194136E+04 -8.717481E+03  7.576276E+03
       513  22  8.417257E+05  8.998466E+04  9.999762E+04  8.703395E+04 -6.890283E+04  3.210934E+03
       513  23  8.334644E+05  1.979899E+04  4.920621E+04  7.748038E+04 -4.350567E+04  9.273618E+03
       513  24  8.417737E+05  2.686856E+03  2.820305E+04  8.704733E+04 -1.810887E+04  7.574083E+03
       513  25  5.350979E+05  1.407909E+04  2.692150E+04  3.077199E+04 -5.217098E+04  3.218452E+03
       513  26  6.142767E+05 -3.293270E+04  4.605764E+03  5.190013E+04 -3.983561E+04  9.276222E+03
       513  27  7.077779E+05 -2.912233E+04  3.023844E+03  9.215216E+04 -2.749829E+04  7.571735E+03
       514   1  9.158533E+05  2.244483E+04  3.715670E+04  8.898435E+04  5.785387E+03 -4.173720E+03
       514   2  8.286651E+05 -1.445219E+03  1.397353E+04  7.809355E+04 -2.630202E+03  1.182412E+03
       514   3  7.433653E+05 -2.216675E+04 -2.946454E+03  8.681023E+04 -1.104475E+04  7.123984E+03
       514   4  8.384712E+05  4.030829E+03  2.239741E+04  8.715437E+04  1.430383E+04 -4.171634E+03
       514   5  8.376163E+05  5.312054E+02  1.491518E+04  7.735111E+04  6.872947E+03  1.184716E+03
       514   6  8.384736E+05  3.021147E+01  1.301404E+04  8.715520E+04 -5.579815E+02  7.126486E+03
       514   7  7.610949E+05 -1.438347E+04  7.638120E+03  8.532462E+04  2.282124E+04 -4.169598E+03
       514   8  8.465677E+05  2.507678E+03  1.585717E+04  7.660866E+04  1.637623E+04  1.186998E+03
       514   9  9.335910E+05  2.222676E+04  2.897466E+04  8.750023E+04  9.930338E+03  7.128999E+03
       514  10  9.158533E+05  2.244480E+04  3.715660E+04  8.898437E+04  5.487429E-10 -1.682987E-10
       514  11  8.286651E+05 -1.445223E+03  1.397351E+04  7.809355E+04  1.045532E-09 -3.742566E-10
       514  12  7.433651E+05 -2.216684E+04 -2.946778E+03  8.681029E+04  1.164900E-09 -6.661140E-10
       514  13  8.384709E+05  4.030755E+03  2.239699E+04  8.715442E+04  3.688951E-10  1.132792E-10
       514  14  8.376162E+05  5.311912E+02  1.491509E+04  7.735110E+04  5.226784E-10 -1.664399E-10
       514  15  8.384735E+05  3.015683E+01  1.301394E+04  8.715520E+04 -6.823026E-11 -8.943972E-10
       514  16  7.610943E+05 -1.438363E+04  7.637110E+03  8.532470E+04 -1.024341E-09 -2.791301E-10
       514  17  8.465675E+05  2.507604E+03  1.585666E+04  7.660864E+04 -6.165337E-10 -2.448588E-10
       514  18  9.335909E+05  2.222668E+04  2.897438E+04  8.750017E+04 -1.086503E-09 -8.976770E-10
       514  19  9.158533E+05  2.244483E+04  3.715670E+04  8.898435E+04 -5.785387E+03  4.173720E+03
       514  20  8.286651E+05 -1.445219E+03  1.397353E+04  7.809355E+04  2.630202E+03 -1.182412E+03
       514  21  7.433653E+05 -2.216675E+04 -2.946454E+03  8.681023E+04  1.104475E+04 -7.123984E+03
       514  22  8.384712E+05  4.030829E+03  2.239741E+04  8.715437E+04 -1.430383E+04  4.171634E+03
       514  23  8.376163E+05  5.312054E+02  1.491518E+04  7.735111E+04 -6.872947E+03 -1.184716E+03
       514  24  8.384736E+05  3.021147E+01  1.301404E+04  8.715520E+04  5.579815E+02 -7.126486E+03
       514  25  7.610949E+05 -1.438347E+04  7.638120E+03  8.532462E+04 -2.282124E+04  4.169598E+03
       514  26  8.465677E+05  2.507678E+03  1.585717E+04  7.660866E+04 -1.637623E+04 -1.186998E+03
       514  27  9.335910E+05  2.222676E+04  2.897466E+04  8.750023E+04 -9.930338E+03 -7.128999E+03
       515   1  6.871482E+05 -3.546514E+04 -1.235907E+04  8.782311E+04 -1.343201E+04  1.083655E+04
       515   2  5.999263E+05 -5.494501E+04 -2.306608E+04  7.648786E+04 -2.057623E+04  1.653823E+04
       515   3  5.145689E+05 -7.073701E+04 -2.820213E+04  8.473960E+04 -2.771863E+04  2.110030E+04
       515   4  8.385767E+05 -1.218912E+01  1.360880E+04  8.715050E+04 -2.886083E+03  1.083881E+04
       515   5  8.374734E+05  7.755636E+02  1.817875E+04  7.735681E+04 -1.194988E+04  1.653922E+04
       515   6  8.385586E+05  5.583294E+03  2.964934E+04  8.714941E+04 -2.101281E+04  2.110022E+04
       515   7  9.900280E+05  3.543960E+04  3.957631E+04  8.647773E+04  7.662336E+03  1.084105E+04
       515   8  1.075076E+06  5.649313E+04  5.942189E+04  7.822610E+04 -3.320337E+03  1.654024E+04
       515   9  1.162651E+06  8.189783E+04  8.749698E+04  8.956050E+04 -1.430359E+04  2.110020E+04
       515  10  6.871480E+05 -3.546531E+04 -1.235963E+04  8.782323E+04 -9.248287E-09 -3.216189E-10
       515  11  5.999258E+05 -5.494541E+04 -2.306738E+04  7.648813E+04  1.908732E-08  3.925742E-10
       515  12  5.145679E+05 -7.073769E+04 -2.820441E+04  8.474007E+04  4.493901E-08  1.538663E-09
       515  13  8.385767E+05 -1.231756E+01  1.360856E+04  8.715053E+04  9.238101E-11 -6.455356E-10
       515  14  8.374731E+05  7.752314E+02  1.817797E+04  7.735697E+04  1.800010E-10  4.419092E-10
       515  15  8.385580E+05  5.582697E+03  2.964767E+04  8.714977E+04 -9.987715E-11  1.479923E-09
       515  16  9.900279E+05  3.543946E+04  3.957597E+04  8.647766E+04  9.486095E-09 -8.110365E-10
       515  17  1.075076E+06  5.649283E+04  5.942136E+04  7.822614E+04 -1.905724E-08  3.322976E-10
       515  18  1.162650E+06  8.189730E+04  8.749576E+04  8.956075E+04 -4.477655E-08  1.466356E-09
       515  19  6.871482E+05 -3.546514E+04 -1.235907E+04  8.782311E+04  1.343201E+04 -1.083655E+04
       515  20  5.999263E+05 -5.494501E+04 -2.306608E+04  7.648786E+04  2.057623E+04 -1.653823E+04
       515  21  5.145689E+05 -7.073701E+04 -2.820213E+04  8.473960E+04  2.771863E+04 -2.110030E+04
       515  22  8.385767E+05 -1.218912E+01  1.360880E+04  8.715050E+04  2.886083E+03 -1.083881E+04
       515  23  8.374734E+05  7.755636E+02  1.817875E+04  7.735681E+04  1.194988E+04 -1.653922E+04
       515  24  8.385586E+05  5.583294E+03  2.964934E+04  8.714941E+04  2.101281E+04 -2.110022E+04
       515  25  9.900280E+05  3.543960E+04  3.957631E+04  8.647773E+04 -7.662336E+03 -1.084105E+04
       515  26  1.075076E+06  5.649313E+04  5.942189E+04  7.822610E+04  3.320337E+03 -1.654024E+04
       515  27  1.162651E+06  8.189783E+04  8.749698E+04  8.956050E+04  1.430359E+04 -2.110020E+04
       516   1  4.622289E+05 -8.616406E+04 -3.060983E+04  9.414559E+04 -3.430507E+04  2.421288E+04
       516   2  3.661704E+05 -8.400442E+04 -2.412567E+04  4.226320E+04 -4.652980E+04  2.236977E+04
       516   3  2.891554E+05 -1.221262E+04  7.731123E+03  9.149881E+03 -5.875465E+04  7.019057E+03
       516   4  8.431696E+05  3.702944E+03  3.806590E+04  8.696514E+04 -2.606737E+04  2.421290E+04
       516   5  8.316548E+05  2.739382E+04  6.770097E+04  7.758274E+04 -6.101631E+04  2.236550E+04
       516   6  8.430941E+05  1.246223E+05  1.384611E+05  8.696413E+04 -9.596805E+04  7.013461E+03
       516   7  1.224252E+06  9.356208E+04  1.067362E+05  7.978015E+04 -1.782475E+04  2.421273E+04
       516   8  1.297350E+06  1.387837E+05  1.595185E+05  1.129293E+05 -7.551344E+04  2.235959E+04
       516   9  1.397331E+06  2.614588E+05  2.691784E+05  1.648482E+05 -1.332144E+05  6.998550E+03
       516  10  4.622274E+05 -8.616501E+04 -3.061314E+04  9.414626E+04 -4.466181E-08  1.393783E-09
       516  11  3.661679E+05 -8.400554E+04 -2.413067E+04  4.226404E+04 -1.904458E-08  3.076444E-10
       516  12  2.891517E+05 -1.221360E+04  7.724546E+03  9.150213E+03  8.979103E-09 -1.296162E-10
       516  13  8.431687E+05  3.702132E+03  3.806352E+04  8.696565E+04 -5.540350E-10  1.313970E-09
       516  14  8.316507E+05  2.739228E+04  6.769304E+04  7.758384E+04 -4.044992E-11  3.241516E-10
       516  15  8.430842E+05  1.246198E+05  1.384437E+05  8.696468E+04 -1.507395E-10  1.454321E-11
       516  16  1.224251E+06  9.356137E+04  1.067345E+05  7.978050E+04  4.462311E-08  1.345166E-09
       516  17  1.297343E+06  1.387817E+05  1.595068E+05  1.129307E+05  1.878463E-08  3.520343E-10
       516  18  1.397312E+06  2.614540E+05  2.691450E+05  1.648489E+05 -8.671343E-09 -7.797787E-11
       516  19  4.622289E+05 -8.616406E+04 -3.060983E+04  9.414559E+04  3.430507E+04 -2.421288E+04
       516  20  3.661704E+05 -8.400442E+04 -2.412567E+04  4.226320E+04  4.652980E+04 -2.236977E+04
       516  21  2.891554E+05 -1.221262E+04  7.731123E+03  9.149881E+03  5.875465E+04 -7.019057E+03
       516  22  8.431696E+05  3.702944E+03  3.806590E+04  8.696514E+04  2.606737E+04 -2.421290E+04
       516  23  8.316548E+05  2.739382E+04  6.770097E+04  7.758274E+04  6.101631E+04 -2.236550E+04
       516  24  8.430941E+05  1.246223E+05  1.384611E+05  8.696413E+04  9.596805E+04 -7.013461E+03
       516  25  1.224252E+06  9.356208E+04  1.067362E+05  7.978015E+04  1.782475E+04 -2.421273E+04
       516  26  1.297350E+06  1.387837E+05  1.595185E+05  1.129293E+05  7.551344E+04 -2.235959E+04
       516  27  1.397331E+06  2.614588E+05  2.691784E+05  1.648482E+05  1.332144E+05 -6.998550E+03
       517   1 -9.272307E+05 -1.974811E+05 -2.277837E+05 -1.379585E+05 -1.771306E+05 -2.906238E+03
       517   2 -9.229929E+05 -8.277324E+03 -9.752845E+04 -5.438955E+04 -1.157141E+05 -9.895093E+03
       517   3 -9.633440E+05  3.457475E+04 -4.387570E+04  3.292444E+04 -5.429834E+04 -1.172635E+04
       517   4 -1.141732E+06 -2.506351E+05 -2.782196E+05  1.833414E+04 -1.930567E+05 -2.947962E+03
       517   5 -1.118606E+06 -5.510229E+04 -1.356378E+05  1.648159E+04 -1.230340E+05 -9.907449E+03
       517   6 -1.141595E+06 -7.470783E+03 -7.566155E+04  1.836912E+04 -5.300875E+04 -1.172552E+04
       517   7 -1.356138E+06 -3.037003E+05 -3.286446E+05  1.745724E+05 -2.089774E+05 -2.997729E+03
       517   8 -1.314171E+06 -1.019106E+05 -1.737460E+05  8.732988E+04 -1.303517E+05 -9.921482E+03
       517   9 -1.319815E+06 -4.951728E+04 -1.074485E+05  3.818098E+03 -5.171951E+04 -1.172475E+04
       517  10 -9.272645E+05 -1.974895E+05 -2.278428E+05 -1.379589E+05 -2.300015E-10  2.598733E-10
       517  11 -9.230074E+05 -8.281030E+03 -9.755383E+04 -5.439047E+04 -2.607670E-10 -2.129747E-10
       517  12 -9.633472E+05  3.457381E+04 -4.388150E+04  3.292393E+04  9.903583E-10 -2.439625E-10
       517  13 -1.141772E+06 -2.506451E+05 -2.782898E+05  1.833368E+04 -3.529443E-10 -1.278690E-10
       517  14 -1.118622E+06 -5.510647E+04 -1.356664E+05  1.648061E+04 -4.422622E-10 -7.473795E-11
       517  15 -1.141598E+06 -7.471687E+03 -7.566710E+04  1.836861E+04  4.560046E-10 -2.001933E-10
       517  16 -1.356185E+06 -3.037121E+05 -3.287268E+05  1.745719E+05  6.282328E-11  3.133027E-11
       517  17 -1.314189E+06 -1.019153E+05 -1.737782E+05  8.732884E+04 -6.692633E-10 -1.646302E-11
       517  18 -1.319818E+06 -4.951815E+04 -1.074538E+05  3.817609E+03 -1.525002E-09 -6.259176E-10
       517  19 -9.272307E+05 -1.974811E+05 -2.277837E+05 -1.379585E+05  1.771306E+05  2.906238E+03
       517  20 -9.229929E+05 -8.277324E+03 -9.752845E+04 -5.438955E+04  1.157141E+05  9.895093E+03
       517  21 -9.633440E+05  3.457475E+04 -4.387570E+04  3.292444E+04  5.429834E+04  1.172635E+04
       517  22 -1.141732E+06 -2.506351E+05 -2.782196E+05  1.833414E+04  1.930567E+05  2.947962E+03
       517  23 -1.118606E+06 -5.510229E+04 -1.356378E+05  1.648159E+04  1.230340E+05  9.907449E+03
       517  24 -1.141595E+06 -7.470783E+03 -7.566155E+04  1.836912E+04  5.300875E+04  1.172552E+04
       517  25 -1.356138E+06 -3.037003E+05 -3.286446E+05  1.745724E+05  2.089774E+05  2.997729E+03
       517  26 -1.314171E+06 -1.019106E+05 -1.737460E+05  8.732988E+04  1.303517E+05  9.921482E+03
       517  27 -1.319815E+06 -4.951728E+04 -1.074485E+05  3.818098E+03  5.171951E+04  1.172475E+04
       518   1 -9.661435E+05  2.787297E+04 -2.911738E+04  1.374958E+04 -4.375278E+04 -1.118573E+04
       518   2 -9.822715E+05  3.311352E+04 -9.073609E+03  1.482385E+04 -2.729964E+04 -1.054182E+04
       518   3 -1.002499E+06  3.052251E+04 -1.709522E+03  2.001634E+04 -1.084673E+04 -9.433966E+03
       518   4 -1.132300E+06 -1.126886E+04 -5.846813E+04  1.844703E+04 -4.305043E+04 -1.118639E+04
       518   5 -1.130174E+06 -1.600303E+03 -3.456230E+04  1.638814E+04 -2.582326E+04 -1.054222E+04
       518   6 -1.132285E+06  1.007309E+02 -2.387694E+04  1.844766E+04 -8.595838E+03 -9.434215E+03
       518   7 -1.298429E+06 -5.041212E+04 -8.781988E+04  2.314318E+04 -4.234827E+04 -1.118705E+04
       518   8 -1.278055E+06 -3.631529E+04 -6.005172E+04  1.795205E+04 -2.434721E+04 -1.054261E+04
       518   9 -1.262054E+06 -3.032193E+04 -4.604490E+04  1.687932E+04 -6.345399E+03 -9.434475E+03
       518  10 -9.661456E+05  2.787232E+04 -2.912122E+04  1.374919E+04 -1.547289E-10 -3.579434E-10
       518  11 -9.822723E+05  3.311320E+04 -9.075220E+03  1.482362E+04 -4.008564E-10 -3.236374E-10
       518  12 -1.002499E+06  3.052238E+04 -1.709910E+03  2.001626E+04 -4.691618E-11  2.645136E-10
       518  13 -1.132302E+06 -1.126949E+04 -5.847185E+04  1.844664E+04 -4.143731E-10 -5.674952E-10
       518  14 -1.130175E+06 -1.600601E+03 -3.456376E+04  1.638792E+04 -6.109350E-10 -2.848538E-10
       518  15 -1.132285E+06  1.006155E+02 -2.387725E+04  1.844759E+04  4.535216E-10  2.359866E-10
       518  16 -1.298430E+06 -5.041273E+04 -8.782349E+04  2.314280E+04  3.768125E-10 -4.594356E-10
       518  17 -1.278056E+06 -3.631557E+04 -6.005305E+04  1.795184E+04 -1.751439E-10 -6.132826E-11
       518  18 -1.262054E+06 -3.032204E+04 -4.604514E+04  1.687927E+04  3.614777E-10  6.908666E-11
       518  19 -9.661435E+05  2.787297E+04 -2.911738E+04  1.374958E+04  4.375278E+04  1.118573E+04
       518  20 -9.822715E+05  3.311352E+04 -9.073609E+03  1.482385E+04  2.729964E+04  1.054182E+04
       518  21 -1.002499E+06  3.052251E+04 -1.709522E+03  2.001634E+04  1.084673E+04  9.433966E+03
       518  22 -1.132300E+06 -1.126886E+04 -5.846813E+04  1.844703E+04  4.305043E+04  1.118639E+04
       518  23 -1.130174E+06 -1.600303E+03 -3.456230E+04  1.638814E+04  2.582326E+04  1.054222E+04
       518  24 -1.132285E+06  1.007309E+02 -2.387694E+04  1.844766E+04  8.595838E+03  9.434215E+03
       518  25 -1.298429E+06 -5.041212E+04 -8.781988E+04  2.314318E+04  4.234827E+04  1.118705E+04
       518  26 -1.278055E+06 -3.631529E+04 -6.005172E+04  1.795205E+04  2.434721E+04  1.054261E+04
       518  27 -1.262054E+06 -3.032193E+04 -4.604490E+04  1.687932E+04  6.345399E+03  9.434475E+03
       519   1 -1.014002E+06  2.756555E+04 -1.537783E+03  1.827467E+04 -6.823069E+03 -8.648073E+03
       519   2 -1.031052E+06  2.275990E+04 -5.012404E+03  1.752888E+04  3.944045E+03 -7.292013E+03
       519   3 -1.050503E+06  1.395919E+04 -1.650336E+04  2.095042E+04  1.471057E+04 -5.837799E+03
       519   4 -1.131883E+06 -4.876081E+01 -2.158533E+04  1.845841E+04 -4.628801E+03 -8.648290E+03
       519   5 -1.130669E+06 -5.798218E+02 -2.197202E+04  1.637459E+04  6.301226E+03 -7.292158E+03
       519   6 -1.131886E+06 -5.134745E+03 -3.048927E+04  1.845821E+04  1.723095E+04 -5.837910E+03
       519   7 -1.249750E+06 -2.766381E+04 -4.163331E+04  1.864211E+04 -2.434936E+03 -8.648506E+03
       519   8 -1.230276E+06 -2.392006E+04 -3.893194E+04  1.522050E+04  8.658039E+03 -7.292312E+03
       519   9 -1.213262E+06 -2.422901E+04 -4.447538E+04  1.596634E+04  1.975102E+04 -5.838042E+03
       519  10 -1.014002E+06  2.756546E+04 -1.538011E+03  1.827463E+04  8.052060E-10  4.935409E-10
       519  11 -1.031052E+06  2.275984E+04 -5.012533E+03  1.752890E+04  1.060619E-09  3.968175E-10
       519  12 -1.050503E+06  1.395910E+04 -1.650383E+04  2.095049E+04  3.676936E-12  2.070562E-10
       519  13 -1.131883E+06 -4.884685E+01 -2.158551E+04  1.845838E+04  4.071265E-10  2.434672E-10
       519  14 -1.130669E+06 -5.798896E+02 -2.197219E+04  1.637463E+04  7.265037E-11  3.275804E-11
       519  15 -1.131886E+06 -5.134861E+03 -3.048990E+04  1.845829E+04  8.798288E-10  7.539584E-11
       519  16 -1.249750E+06 -2.766389E+04 -4.163346E+04  1.864210E+04 -1.483195E-11  2.958110E-11
       519  17 -1.230276E+06 -2.392014E+04 -3.893218E+04  1.522055E+04  3.887633E-10 -1.400224E-10
       519  18 -1.213262E+06 -2.422915E+04 -4.447618E+04  1.596643E+04  1.742692E-10 -1.482199E-10
       519  19 -1.014002E+06  2.756555E+04 -1.537783E+03  1.827467E+04  6.823069E+03  8.648073E+03
       519  20 -1.031052E+06  2.275990E+04 -5.012404E+03  1.752888E+04 -3.944045E+03  7.292013E+03
       519  21 -1.050503E+06  1.395919E+04 -1.650336E+04  2.095042E+04 -1.471057E+04  5.837799E+03
       519  22 -1.131883E+06 -4.876081E+01 -2.158533E+04  1.845841E+04  4.628801E+03  8.648290E+03
       519  23 -1.130669E+06 -5.798218E+02 -2.197202E+04  1.637459E+04 -6.301226E+03  7.292158E+03
       519  24 -1.131886E+06 -5.134745E+03 -3.048927E+04  1.845821E+04 -1.723095E+04  5.837910E+03
       519  25 -1.249750E+06 -2.766381E+04 -4.163331E+04  1.864211E+04  2.434936E+03  8.648506E+03
       519  26 -1.230276E+06 -2.392006E+04 -3.893194E+04  1.522050E+04 -8.658039E+03  7.292312E+03
       519  27 -1.213262E+06 -2.422901E+04 -4.447538E+04  1.596634E+04 -1.975102E+04  5.838042E+03
       520   1 -1.066638E+06  1.290669E+04 -2.568785E+04  1.191659E+04  1.993312E+04 -4.998863E+03
       520   2 -1.074269E+06 -1.350773E+04 -5.500779E+04  4.951991E+04  5.202561E+04 -3.220770E+03
       520   3 -1.103263E+06 -1.086088E+05 -1.224171E+05  9.134270E+04  8.411780E+04 -8.060115E+02
       520   4 -1.136129E+06 -3.394310E+03 -3.761514E+04  1.847018E+04  2.237844E+04 -4.998667E+03
       520   5 -1.125385E+06 -2.560049E+04 -6.427537E+04  1.635957E+04  5.553018E+04 -3.223498E+03
       520   6 -1.136191E+06 -1.166860E+05 -1.297633E+05  1.847042E+04  8.868235E+04 -8.157519E+02
       520   7 -1.205615E+06 -1.969541E+04 -4.954255E+04  2.502302E+04  2.482349E+04 -4.998419E+03
       520   8 -1.176496E+06 -3.768925E+04 -7.354242E+04 -1.679796E+04  5.903446E+04 -3.226601E+03
       520   9 -1.169106E+06 -1.247432E+05 -1.371065E+05 -5.439796E+04  9.324666E+04 -8.265661E+02
       520  10 -1.066638E+06  1.290656E+04 -2.568864E+04  1.191667E+04 -5.153602E-11  1.533973E-10
       520  11 -1.074272E+06 -1.350847E+04 -5.501290E+04  4.952005E+04  4.187850E-11 -1.351355E-10
       520  12 -1.103270E+06 -1.086107E+05 -1.224305E+05  9.134276E+04  1.938813E-10 -1.475299E-10
       520  13 -1.136130E+06 -3.394471E+03 -3.761613E+04  1.847027E+04  1.009037E-10  5.632933E-11
       520  14 -1.125388E+06 -2.560133E+04 -6.428119E+04  1.635972E+04  2.992332E-10 -1.158782E-12
       520  15 -1.136199E+06 -1.166881E+05 -1.297781E+05  1.847048E+04 -4.165293E-10  1.983559E-11
       520  16 -1.205616E+06 -1.969560E+04 -4.954376E+04  2.502312E+04 -1.441668E-10 -5.385387E-11
       520  17 -1.176499E+06 -3.769020E+04 -7.354900E+04 -1.679781E+04  2.616372E-10  5.144821E-11
       520  18 -1.169116E+06 -1.247456E+05 -1.371229E+05 -5.439790E+04 -6.691856E-11  2.983734E-11
       520  19 -1.066638E+06  1.290669E+04 -2.568785E+04  1.191659E+04 -1.993312E+04  4.998863E+03
       520  20 -1.074269E+06 -1.350773E+04 -5.500779E+04  4.951991E+04 -5.202561E+04  3.220770E+03
       520  21 -1.103263E+06 -1.086088E+05 -1.224171E+05  9.134270E+04 -8.411780E+04  8.060115E+02
       520  22 -1.136129E+06 -3.394310E+03 -3.761514E+04  1.847018E+04 -2.237844E+04  4.998667E+03
       520  23 -1.125385E+06 -2.560049E+04 -6.427537E+04  1.635957E+04 -5.553018E+04  3.223498E+03
       520  24 -1.136191E+06 -1.166860E+05 -1.297633E+05  1.847042E+04 -8.868235E+04  8.157519E+02
       520  25 -1.205615E+06 -1.969541E+04 -4.954255E+04  2.502302E+04 -2.482349E+04  4.998419E+03
       520  26 -1.176496E+06 -3.768925E+04 -7.354242E+04 -1.679796E+04 -5.903446E+04  3.226601E+03
       520  27 -1.169106E+06 -1.247432E+05 -1.371065E+05 -5.439796E+04 -9.324666E+04  8.265661E+02
       521   1 -6.342979E+05 -1.143548E+03 -1.536827E+04 -2.808188E+04 -4.151423E+04 -4.982409E+03
       521   2 -6.547682E+05  5.850820E+04  1.505668E+04 -6.022938E+02 -3.073792E+04 -1.663879E+04
       521   3 -6.891265E+05  6.818352E+04  2.597024E+04  3.251675E+04 -1.996256E+04 -1.981339E+04
       521   4 -9.894783E+05 -8.892711E+04 -9.878977E+04  2.738447E+04 -6.817196E+04 -4.988139E+03
       521   5 -9.812688E+05 -1.954629E+04 -4.844645E+04  2.455834E+04 -4.316965E+04 -1.664232E+04
       521   6 -9.894311E+05 -2.632453E+03 -2.751187E+04  2.737203E+04 -1.816712E+04 -1.981374E+04
       521   7 -1.344534E+06 -1.767077E+05 -1.822156E+05  8.281885E+04 -9.481451E+04 -4.998641E+03
       521   8 -1.307665E+06 -9.760469E+04 -1.119537E+05  4.970543E+04 -5.559499E+04 -1.664686E+04
       521   9 -1.289647E+06 -7.345332E+04 -8.099736E+04  2.222987E+04 -1.637252E+04 -1.981411E+04
       521  10 -6.342998E+05 -1.144038E+03 -1.537156E+04 -2.808205E+04 -3.916016E-11  7.595878E-11
       521  11 -6.547693E+05  5.850765E+04  1.505438E+04 -6.027057E+02 -6.553362E-10  2.216389E-10
       521  12 -6.891271E+05  6.818299E+04  2.596875E+04  3.251643E+04  2.976140E-10 -3.622995E-11
       521  13 -9.894833E+05 -8.892839E+04 -9.879856E+04  2.738419E+04 -8.509356E-10  9.764244E-11
       521  14 -9.812709E+05 -1.954708E+04 -4.845048E+04  2.455776E+04 -7.447160E-10  2.819553E-10
       521  15 -9.894315E+05 -2.632963E+03 -2.751323E+04  2.737174E+04  6.340271E-11  1.148015E-10
       521  16 -1.344544E+06 -1.767102E+05 -1.822326E+05  8.281847E+04 -3.859217E-10  1.405603E-10
       521  17 -1.307669E+06 -9.760582E+04 -1.119600E+05  4.970468E+04  3.625314E-10 -7.848633E-11
       521  18 -1.289648E+06 -7.345381E+04 -8.099860E+04  2.222961E+04 -4.194760E-11 -2.288275E-11
       521  19 -6.342979E+05 -1.143548E+03 -1.536827E+04 -2.808188E+04  4.151423E+04  4.982409E+03
       521  20 -6.547682E+05  5.850820E+04  1.505668E+04 -6.022938E+02  3.073792E+04  1.663879E+04
       521  21 -6.891265E+05  6.818352E+04  2.597024E+04  3.251675E+04  1.996256E+04  1.981339E+04
       521  22 -9.894783E+05 -8.892711E+04 -9.878977E+04  2.738447E+04  6.817196E+04  4.988139E+03
       521  23 -9.812688E+05 -1.954629E+04 -4.844645E+04  2.455834E+04  4.316965E+04  1.664232E+04
       521  24 -9.894311E+05 -2.632453E+03 -2.751187E+04  2.737203E+04  1.816712E+04  1.981374E+04
       521  25 -1.344534E+06 -1.767077E+05 -1.822156E+05  8.281885E+04  9.481451E+04  4.998641E+03
       521  26 -1.307665E+06 -9.760469E+04 -1.119537E+05  4.970543E+04  5.559499E+04  1.664686E+04
       521  27 -1.289647E+06 -7.345332E+04 -8.099736E+04  2.222987E+04  1.637252E+04  1.981411E+04
       522   1 -7.041615E+05  6.243367E+04  2.809786E+04  2.579694E+04 -1.531992E+04 -1.903269E+04
       522   2 -7.309546E+05  5.916577E+04  2.990436E+04  2.376660E+04 -9.687377E+03 -1.815537E+04
       522   3 -7.591482E+05  5.321355E+04  2.737108E+04  2.795746E+04 -4.055577E+03 -1.650803E+04
       522   4 -9.861557E+05 -3.968429E+03 -2.165521E+04  2.750239E+04 -1.449095E+04 -1.903332E+04
       522   5 -9.853382E+05 -5.203981E+02 -1.389912E+04  2.439110E+04 -7.568677E+03 -1.815549E+04
       522   6 -9.861474E+05  1.828106E+01 -1.138103E+04  2.750124E+04 -6.469229E+02 -1.650750E+04
       522   7 -1.268072E+06 -7.037488E+04 -7.141118E+04  2.920704E+04 -1.366234E+04 -1.903394E+04
       522   8 -1.239658E+06 -6.021003E+04 -5.770477E+04  2.501534E+04 -5.450818E+03 -1.815561E+04
       522   9 -1.213096E+06 -5.317973E+04 -5.013479E+04  2.704517E+04  2.760523E+03 -1.650699E+04
       522  10 -7.041618E+05  6.243322E+04  2.809673E+04  2.579671E+04 -3.318011E-10  1.883667E-10
       522  11 -7.309548E+05  5.916539E+04  2.990356E+04  2.376646E+04  4.925646E-10 -5.097859E-10
       522  12 -7.591483E+05  5.321326E+04  2.737053E+04  2.795741E+04  5.471820E-10 -3.233032E-10
       522  13 -9.861560E+05 -3.968874E+03 -2.165628E+04  2.750217E+04  9.249330E-11  9.235246E-11
       522  14 -9.853384E+05 -5.207673E+02 -1.389984E+04  2.439099E+04  7.085892E-10 -1.194187E-10
       522  15 -9.861475E+05  1.798847E+01 -1.138154E+04  2.750123E+04  2.880241E-10 -1.902219E-10
       522  16 -1.268072E+06 -7.037532E+04 -7.141222E+04  2.920684E+04  3.621632E-10 -8.744795E-11
       522  17 -1.239658E+06 -6.021040E+04 -5.770545E+04  2.501526E+04  3.870390E-10  4.460278E-11
       522  18 -1.213096E+06 -5.318002E+04 -5.013532E+04  2.704521E+04 -5.395352E-10  3.456921E-10
       522  19 -7.041615E+05  6.243367E+04  2.809786E+04  2.579694E+04  1.531992E+04  1.903269E+04
       522  20 -7.309546E+05  5.916577E+04  2.990436E+04  2.376660E+04  9.687377E+03  1.815537E+04
       522  21 -7.591482E+05  5.321355E+04  2.737108E+04  2.795746E+04  4.055577E+03  1.650803E+04
       522  22 -9.861557E+05 -3.968429E+03 -2.165521E+04  2.750239E+04  1.449095E+04  1.903332E+04
       522  23 -9.853382E+05 -5.203981E+02 -1.389912E+04  2.439110E+04  7.568677E+03  1.815549E+04
       522  24 -9.861474E+05  1.828106E+01 -1.138103E+04  2.750124E+04  6.469229E+02  1.650750E+04
       522  25 -1.268072E+06 -7.037488E+04 -7.141118E+04  2.920704E+04  1.366234E+04  1.903394E+04
       522  26 -1.239658E+06 -6.021003E+04 -5.770477E+04  2.501534E+04  5.450818E+03  1.815561E+04
       522  27 -1.213096E+06 -5.317973E+04 -5.013479E+04  2.704517E+04 -2.760523E+03  1.650699E+04
       523   1 -7.771682E+05  4.897897E+04  2.404670E+04  2.709282E+04 -1.959168E+03 -1.531931E+04
       523   2 -8.039314E+05  4.193185E+04  1.635399E+04  2.510824E+04  4.927643E+03 -1.323646E+04
       523   3 -8.323569E+05  3.183294E+04  3.409962E+03  2.943016E+04  1.181389E+04 -1.093582E+04
       523   4 -9.861680E+05  2.819896E+01 -1.150101E+04  2.752009E+04  1.349902E+03 -1.531867E+04
       523   5 -9.853053E+05 -5.623734E+02 -1.455660E+04  2.436748E+04  8.600243E+03 -1.323547E+04
       523   6 -9.861688E+05 -4.268305E+03 -2.311705E+04  2.752151E+04  1.585030E+04 -1.093447E+04
       523   7 -1.195125E+06 -4.892489E+04 -4.705011E+04  2.794720E+04  4.657893E+03 -1.531802E+04
       523   8 -1.166647E+06 -4.305833E+04 -4.546822E+04  2.362694E+04  1.227180E+04 -1.323448E+04
       523   9 -1.139957E+06 -4.037080E+04 -4.964481E+04  2.561335E+04  1.988575E+04 -1.093315E+04
       523  10 -7.771682E+05  4.897872E+04  2.404625E+04  2.709279E+04  2.365601E-10 -2.169216E-10
       523  11 -8.039315E+05  4.193165E+04  1.635362E+04  2.510830E+04 -1.978566E-10 -2.055477E-10
       523  12 -8.323571E+05  3.183277E+04  3.409475E+03  2.943027E+04  4.555161E-10 -6.081852E-10
       523  13 -9.861681E+05  2.794660E+01 -1.150146E+04  2.752010E+04  1.430218E-10 -2.182500E-10
       523  14 -9.853055E+05 -5.625813E+02 -1.455706E+04  2.436758E+04 -4.755753E-11 -4.432561E-10
       523  15 -9.861691E+05 -4.268501E+03 -2.311775E+04  2.752165E+04 -2.712181E-10 -2.525554E-10
       523  16 -1.195125E+06 -4.892515E+04 -4.705059E+04  2.794726E+04 -5.564500E-10  1.649015E-11
       523  17 -1.166647E+06 -4.305856E+04 -4.546883E+04  2.362707E+04 -8.845240E-10  2.927998E-10
       523  18 -1.139958E+06 -4.037103E+04 -4.964578E+04  2.561352E+04 -6.910725E-10  2.829466E-10
       523  19 -7.771682E+05  4.897897E+04  2.404670E+04  2.709282E+04  1.959168E+03  1.531931E+04
       523  20 -8.039314E+05  4.193185E+04  1.635399E+04  2.510824E+04 -4.927643E+03  1.323646E+04
       523  21 -8.323569E+05  3.183294E+04  3.409962E+03  2.943016E+04 -1.181389E+04  1.093582E+04
       523  22 -9.861680E+05  2.819896E+01 -1.150101E+04  2.752009E+04 -1.349902E+03  1.531867E+04
       523  23 -9.853053E+05 -5.623734E+02 -1.455660E+04  2.436748E+04 -8.600243E+03  1.323547E+04
       523  24 -9.861688E+05 -4.268305E+03 -2.311705E+04  2.752151E+04 -1.585030E+04  1.093447E+04
       523  25 -1.195125E+06 -4.892489E+04 -4.705011E+04  2.794720E+04 -4.657893E+03  1.531802E+04
       523  26 -1.166647E+06 -4.305833E+04 -4.546822E+04  2.362694E+04 -1.227180E+04  1.323448E+04
       523  27 -1.139957E+06 -4.037080E+04 -4.964481E+04  2.561335E+04 -1.988575E+04  1.093315E+04
       524   1 -8.538357E+05  2.906968E+04 -6.036598E+03  2.206496E+04  1.593707E+04 -9.629216E+03
       524   2 -8.729383E+05  4.565398E+03 -3.227220E+04  5.153308E+04  4.005664E+04 -6.490217E+03
       524   3 -9.092215E+05 -7.604708E+04 -8.825506E+04  8.744870E+04  6.417463E+04 -1.674906E+03
       524   4 -9.897077E+05 -2.820448E+03 -2.950041E+04  2.754798E+04  1.977768E+04 -9.627656E+03
       524   5 -9.808930E+05 -2.105803E+04 -5.217462E+04  2.434163E+04  4.670267E+04 -6.489173E+03
       524   6 -9.897507E+05 -9.590017E+04 -1.065489E+05  2.758531E+04  7.362679E+04 -1.676786E+03
       524   7 -1.125562E+06 -3.471144E+04 -5.296479E+04  3.302976E+04  2.361748E+04 -9.626028E+03
       524   8 -1.088835E+06 -4.667931E+04 -7.207697E+04 -2.844953E+03  5.334757E+04 -6.488712E+03
       524   9 -1.070266E+06 -1.157402E+05 -1.248408E+05 -3.227023E+04  8.307772E+04 -1.680492E+03
       524  10 -8.538360E+05  2.906951E+04 -6.037250E+03  2.206508E+04  6.768132E-10 -9.733939E-10
       524  11 -8.729401E+05  4.564921E+03 -3.227530E+04  5.153329E+04  1.634489E-10 -1.358851E-09
       524  12 -9.092260E+05 -7.604819E+04 -8.826281E+04  8.744878E+04 -2.642663E-10 -4.539178E-10
       524  13 -9.897082E+05 -2.820653E+03 -2.950132E+04  2.754813E+04  1.157510E-09 -1.714743E-09
       524  14 -9.808954E+05 -2.105866E+04 -5.217881E+04  2.434188E+04 -1.211653E-09  9.106894E-10
       524  15 -9.897565E+05 -9.590163E+04 -1.065591E+05  2.758541E+04 -2.462439E-10  2.864825E-11
       524  16 -1.125562E+06 -3.471169E+04 -5.296602E+04  3.302994E+04 -1.048000E-09  2.653068E-10
       524  17 -1.088838E+06 -4.668012E+04 -7.208241E+04 -2.844675E+03 -6.376488E-10  8.850323E-10
       524  18 -1.070273E+06 -1.157420E+05 -1.248538E+05 -3.227011E+04  8.881090E-10 -2.933640E-10
       524  19 -8.538357E+05  2.906968E+04 -6.036598E+03  2.206496E+04 -1.593707E+04  9.629216E+03
       524  20 -8.729383E+05  4.565398E+03 -3.227220E+04  5.153308E+04 -4.005664E+04  6.490217E+03
       524  21 -9.092215E+05 -7.604708E+04 -8.825506E+04  8.744870E+04 -6.417463E+04  1.674906E+03
       524  22 -9.897077E+05 -2.820448E+03 -2.950041E+04  2.754798E+04 -1.977768E+04  9.627656E+03
       524  23 -9.808930E+05 -2.105803E+04 -5.217462E+04  2.434163E+04 -4.670267E+04  6.489173E+03
       524  24 -9.897507E+05 -9.590017E+04 -1.065489E+05  2.758531E+04 -7.362679E+04  1.676786E+03
       524  25 -1.125562E+06 -3.471144E+04 -5.296479E+04  3.302976E+04 -2.361748E+04  9.626028E+03
       524  26 -1.088835E+06 -4.667931E+04 -7.207697E+04 -2.844953E+03 -5.334757E+04  6.488712E+03
       524  27 -1.070266E+06 -1.157402E+05 -1.248408E+05 -3.227023E+04 -8.307772E+04  1.680492E+03
       525   1 -4.384613E+05  3.798520E+04  2.223719E+04  4.070931E+03 -3.119061E+04 -6.830491E+03
       525   2 -4.912579E+05  8.811891E+04  3.991174E+04  2.775925E+04 -2.705351E+04 -2.230678E+04
       525   3 -5.566661E+05  8.991196E+04  4.281436E+04  6.404140E+04 -2.292252E+04 -2.546352E+04
       525   4 -9.484586E+05 -8.805615E+04 -9.788896E+04  5.884871E+04 -6.748501E+04 -6.853224E+03
       525   5 -9.403194E+05 -1.932338E+04 -4.805568E+04  5.252381E+04 -4.267675E+04 -2.231882E+04
       525   6 -9.484021E+05 -2.546654E+03 -2.737270E+04  5.879525E+04 -1.787365E+04 -2.546119E+04
       525   7 -1.458207E+06 -2.141041E+05 -2.180265E+05  1.135812E+05 -1.037497E+05 -6.882381E+03
       525   8 -1.389185E+06 -1.267754E+05 -1.360315E+05  7.727002E+04 -5.828891E+04 -2.233211E+04
       525   9 -1.339988E+06 -9.501369E+04 -9.756553E+04  5.355248E+04 -1.282788E+04 -2.545894E+04
       525  10 -4.384624E+05  3.798489E+04  2.223527E+04  4.070759E+03  9.529884E-10 -2.116174E-10
       525  11 -4.912588E+05  8.811818E+04  3.990943E+04  2.775876E+04  5.479809E-10 -1.385274E-09
       525  12 -5.566668E+05  8.991112E+04  4.281216E+04  6.404093E+04  5.671894E-10 -1.272287E-09
       525  13 -9.484635E+05 -8.805743E+04 -9.789762E+04  5.884833E+04 -1.836834E-10  2.679907E-10
       525  14 -9.403215E+05 -1.932440E+04 -4.806004E+04  5.252304E+04  4.102155E-10 -1.085492E-09
       525  15 -9.484026E+05 -2.547435E+03 -2.737451E+04  5.879489E+04 -3.434833E-10 -2.668783E-10
       525  16 -1.458219E+06 -2.141070E+05 -2.180468E+05  1.135806E+05 -1.437103E-09 -1.931331E-11
       525  17 -1.389189E+06 -1.267768E+05 -1.360389E+05  7.726897E+04  5.694881E-10 -2.130961E-09
       525  18 -1.339989E+06 -9.501443E+04 -9.756705E+04  5.355221E+04  3.029313E-10 -2.032430E-09
       525  19 -4.384613E+05  3.798520E+04  2.223719E+04  4.070931E+03  3.119061E+04  6.830491E+03
       525  20 -4.912579E+05  8.811891E+04  3.991174E+04  2.775925E+04  2.705351E+04  2.230678E+04
       525  21 -5.566661E+05  8.991196E+04  4.281436E+04  6.404140E+04  2.292252E+04  2.546352E+04
       525  22 -9.484586E+05 -8.805615E+04 -9.788896E+04  5.884871E+04  6.748501E+04  6.853224E+03
       525  23 -9.403194E+05 -1.932338E+04 -4.805568E+04  5.252381E+04  4.267675E+04  2.231882E+04
       525  24 -9.484021E+05 -2.546654E+03 -2.737270E+04  5.879525E+04  1.787365E+04  2.546119E+04
       525  25 -1.458207E+06 -2.141041E+05 -2.180265E+05  1.135812E+05  1.037497E+05  6.882381E+03
       525  26 -1.389185E+06 -1.267754E+05 -1.360315E+05  7.727002E+04  5.828891E+04  2.233211E+04
       525  27 -1.339988E+06 -9.501369E+04 -9.756553E+04  5.355248E+04  1.282788E+04  2.545894E+04
       526   1 -5.925671E+05  7.922499E+04  4.094698E+04  5.742773E+04 -1.785551E+04 -2.347880E+04
       526   2 -6.510519E+05  6.839880E+04  3.663090E+04  5.175408E+04 -1.266831E+04 -2.076543E+04
       526   3 -7.108651E+05  5.500722E+04  2.829064E+04  5.950311E+04 -7.482992E+03 -1.697182E+04
       526   4 -9.451608E+05 -3.863337E+03 -2.161274E+04  5.898564E+04 -1.420795E+04 -2.347731E+04
       526   5 -9.443301E+05 -4.451589E+02 -1.405396E+04  5.227245E+04 -7.210904E+03 -2.076200E+04
       526   6 -9.451459E+05  9.249418E+01 -1.177918E+04  5.898243E+04 -2.152249E+02 -1.696621E+04
       526   7 -1.297633E+06 -8.695850E+04 -8.417705E+04  6.054260E+04 -1.056241E+04 -2.347581E+04
       526   8 -1.237524E+06 -6.929373E+04 -6.474168E+04  5.279055E+04 -1.755995E+03 -2.075855E+04
       526   9 -1.179373E+06 -5.482513E+04 -5.185062E+04  5.846193E+04  7.049883E+03 -1.696060E+04
       526  10 -5.925676E+05  7.922431E+04  4.094535E+04  5.742739E+04 -2.139919E-09 -1.408349E-09
       526  11 -6.510522E+05  6.839829E+04  3.662979E+04  5.175387E+04 -1.048972E-09  7.649235E-10
       526  12 -7.108652E+05  5.500690E+04  2.828999E+04  5.950301E+04  7.967498E-10  8.391348E-10
       526  13 -9.451612E+05 -3.863983E+03 -2.161416E+04  5.898537E+04  1.266145E-10 -9.014923E-10
       526  14 -9.443302E+05 -4.456356E+02 -1.405487E+04  5.227233E+04  5.241374E-10  4.191538E-11
       526  15 -9.451460E+05  9.218520E+01 -1.177972E+04  5.898242E+04  7.881376E-10 -6.565290E-10
       526  16 -1.297633E+06 -8.695912E+04 -8.417829E+04  6.054240E+04  1.648911E-09 -1.428172E-10
       526  17 -1.237524E+06 -6.929420E+04 -6.474249E+04  5.279052E+04  9.159807E-10  9.010611E-10
       526  18 -1.179373E+06 -5.482545E+04 -5.185126E+04  5.846203E+04 -2.511044E-10  1.886269E-10
       526  19 -5.925671E+05  7.922499E+04  4.094698E+04  5.742773E+04  1.785551E+04  2.347880E+04
       526  20 -6.510519E+05  6.839880E+04  3.663090E+04  5.175408E+04  1.266831E+04  2.076543E+04
       526  21 -7.108651E+05  5.500722E+04  2.829064E+04  5.950311E+04  7.482992E+03  1.697182E+04
       526  22 -9.451608E+05 -3.863337E+03 -2.161274E+04  5.898564E+04  1.420795E+04  2.347731E+04
       526  23 -9.443301E+05 -4.451589E+02 -1.405396E+04  5.227245E+04  7.210904E+03  2.076200E+04
       526  24 -9.451459E+05  9.249418E+01 -1.177918E+04  5.898243E+04  2.152249E+02  1.696621E+04
       526  25 -1.297633E+06 -8.695850E+04 -8.417705E+04  6.054260E+04  1.056241E+04  2.347581E+04
       526  26 -1.237524E+06 -6.929373E+04 -6.474168E+04  5.279055E+04  1.755995E+03  2.075855E+04
       526  27 -1.179373E+06 -5.482513E+04 -5.185062E+04  5.846193E+04 -7.049883E+03  1.696060E+04
       527   1 -7.495935E+05  4.590862E+04  2.112404E+04  5.857922E+04 -5.306045E+03 -1.441689E+04
       527   2 -8.078810E+05  3.135318E+04  7.385201E+03  5.307453E+04  2.639302E+03 -1.019174E+04
       527   3 -8.680746E+05  1.340391E+04 -1.238686E+04  6.107245E+04  1.058354E+04 -6.073031E+03
       527   4 -9.451942E+05  1.152527E+02 -1.205995E+04  5.899998E+04  1.863183E+03 -1.441103E+04
       527   5 -9.442546E+05 -5.458803E+02 -1.559286E+04  5.225053E+04  9.627938E+03 -1.018570E+04
       527   6 -9.451932E+05 -4.569678E+03 -2.503415E+04  5.900400E+04  1.739229E+04 -6.066837E+03
       527   7 -1.140757E+06 -4.568012E+04 -4.524498E+04  5.942059E+04  9.030222E+03 -1.440516E+04
       527   8 -1.080610E+06 -3.244589E+04 -3.857132E+04  5.142672E+04  1.661509E+04 -1.017967E+04
       527   9 -1.022306E+06 -2.254353E+04 -3.768143E+04  5.693581E+04  2.420023E+04 -6.060687E+03
       527  10 -7.495936E+05  4.590839E+04  2.112359E+04  5.857915E+04 -1.289258E-09  1.571515E-09
       527  11 -8.078811E+05  3.135306E+04  7.384992E+03  5.307455E+04 -5.632884E-10  1.064968E-09
       527  12 -8.680747E+05  1.340384E+04 -1.238714E+04  6.107250E+04  1.645553E-09 -2.604998E-10
       527  13 -9.451942E+05  1.150288E+02 -1.206035E+04  5.900000E+04  9.580551E-10 -1.250005E-09
       527  14 -9.442547E+05 -5.460166E+02 -1.559323E+04  5.225061E+04  4.165418E-10  7.396263E-10
       527  15 -9.451935E+05 -4.569799E+03 -2.503479E+04  5.900408E+04  1.940544E-10  1.782220E-09
       527  16 -1.140757E+06 -4.568036E+04 -4.524553E+04  5.942070E+04  7.528214E-10  4.238884E-10
       527  17 -1.080610E+06 -3.244607E+04 -3.857204E+04  5.142686E+04  1.181575E-10  1.255336E-09
       527  18 -1.022306E+06 -2.254373E+04 -3.768260E+04  5.693593E+04 -7.306479E-10  5.081713E-10
       527  19 -7.495935E+05  4.590862E+04  2.112404E+04  5.857922E+04  5.306045E+03  1.441689E+04
       527  20 -8.078810E+05  3.135318E+04  7.385201E+03  5.307453E+04 -2.639302E+03  1.019174E+04
       527  21 -8.680746E+05  1.340391E+04 -1.238686E+04  6.107245E+04 -1.058354E+04  6.073031E+03
       527  22 -9.451942E+05  1.152527E+02 -1.205995E+04  5.899998E+04 -1.863183E+03  1.441103E+04
       527  23 -9.442546E+05 -5.458803E+02 -1.559286E+04  5.225053E+04 -9.627938E+03  1.018570E+04
       527  24 -9.451932E+05 -4.569678E+03 -2.503415E+04  5.900400E+04 -1.739229E+04  6.066837E+03
       527  25 -1.140757E+06 -4.568012E+04 -4.524498E+04  5.942059E+04 -9.030222E+03  1.440516E+04
       527  26 -1.080610E+06 -3.244589E+04 -3.857132E+04  5.142672E+04 -1.661509E+04  1.017967E+04
       527  27 -1.022306E+06 -2.254353E+04 -3.768143E+04  5.693581E+04 -2.420023E+04  6.060687E+03
       528   1 -9.106921E+05  5.810523E+03 -2.634898E+04  5.296711E+04  1.458182E+04 -3.570428E+03
       528   2 -9.600845E+05 -2.808060E+04 -6.251313E+04  8.187138E+04  4.775853E+04 -4.825520E+02
       528   3 -1.029411E+06 -1.242804E+05 -1.358844E+05  1.241693E+05  8.093342E+04  3.000489E+02
       528   4 -9.490518E+05 -2.991997E+03 -3.202657E+04  5.896842E+04  2.164557E+04 -3.563730E+03
       528   5 -9.394441E+05 -2.286769E+04 -5.678095E+04  5.231365E+04  5.094828E+04 -4.818876E+02
       528   6 -9.490995E+05 -1.043813E+05 -1.160478E+05  5.905751E+04  8.025233E+04  2.909089E+02
       528   7 -9.874097E+05 -1.179442E+04 -3.770397E+04  6.496935E+04  2.870891E+04 -3.556895E+03
       528   8 -9.188014E+05 -1.765152E+04 -5.104830E+04  2.275496E+04  5.413815E+04 -4.815275E+02
       528   9 -8.687733E+05 -8.446662E+04 -9.620941E+04 -6.062753E+03  7.957116E+04  2.819129E+02
       528  10 -9.106924E+05  5.810452E+03 -2.634941E+04  5.296715E+04  4.667642E-10 -6.115632E-11
       528  11 -9.600869E+05 -2.808121E+04 -6.251742E+04  8.187140E+04 -7.387195E-11  2.087290E-09
       528  12 -1.029418E+06 -1.242822E+05 -1.358968E+05  1.241693E+05  3.646500E-10  9.343451E-10
       528  13 -9.490523E+05 -2.992137E+03 -3.202747E+04  5.896848E+04  2.520564E-10  6.198237E-10
       528  14 -9.394469E+05 -2.286839E+04 -5.678584E+04  5.231367E+04 -2.439299E-10  2.161148E-09
       528  15 -9.491064E+05 -1.043830E+05 -1.160599E+05  5.905749E+04  6.320649E-11 -4.436991E-10
       528  16 -9.874106E+05 -1.179466E+04 -3.770555E+04  6.496943E+04 -4.037143E-10  7.619161E-10
       528  17 -9.188045E+05 -1.765230E+04 -5.105382E+04  2.275498E+04 -2.763494E-10  5.323162E-10
       528  18 -8.687801E+05 -8.446832E+04 -9.622132E+04 -6.062771E+03 -5.785151E-10 -2.515858E-10
       528  19 -9.106921E+05  5.810523E+03 -2.634898E+04  5.296711E+04 -1.458182E+04  3.570428E+03
       528  20 -9.600845E+05 -2.808060E+04 -6.251313E+04  8.187138E+04 -4.775853E+04  4.825520E+02
       528  21 -1.029411E+06 -1.242804E+05 -1.358844E+05  1.241693E+05 -8.093342E+04 -3.000489E+02
       528  22 -9.490518E+05 -2.991997E+03 -3.202657E+04  5.896842E+04 -2.164557E+04  3.563730E+03
       528  23 -9.394441E+05 -2.286769E+04 -5.678095E+04  5.231365E+04 -5.094828E+04  4.818876E+02
       528  24 -9.490995E+05 -1.043813E+05 -1.160478E+05  5.905751E+04 -8.025233E+04 -2.909089E+02
       528  25 -9.874097E+05 -1.179442E+04 -3.770397E+04  6.496935E+04 -2.870891E+04  3.556895E+03
       528  26 -9.188014E+05 -1.765152E+04 -5.104830E+04  2.275496E+04 -5.413815E+04  4.815275E+02
       528  27 -8.687733E+05 -8.446662E+04 -9.620941E+04 -6.062753E+03 -7.957116E+04 -2.819129E+02
       529   1 -2.551391E+05  5.226702E+04  4.107596E+04  2.922172E+04 -1.294859E+04 -5.624755E+03
       529   2 -3.156687E+05  7.678355E+04  4.262183E+04  4.127829E+04 -1.503174E+04 -1.803879E+04
       529   3 -3.833972E+05  7.146176E+04  3.806915E+04  6.720271E+04 -1.712374E+04 -1.979515E+04
       529   4 -6.924653E+05 -5.581557E+04 -6.215684E+04  6.383040E+04 -4.272394E+04 -5.654041E+03
       529   5 -6.872897E+05 -1.219181E+04 -3.061427E+04  5.686836E+04 -2.691504E+04 -1.805208E+04
       529   6 -6.924316E+05 -1.525852E+03 -1.760802E+04  6.377571E+04 -1.111454E+04 -1.978940E+04
       529   7 -1.129611E+06 -1.639068E+05 -1.653989E+05  9.841450E+04 -7.247842E+04 -5.686660E+03
       529   8 -1.058778E+06 -1.011745E+05 -1.038564E+05  7.244886E+04 -3.879138E+04 -1.806598E+04
       529   9 -1.001373E+06 -7.451875E+04 -7.328877E+04  6.035045E+04 -5.108257E+03 -1.978371E+04
       529  10 -2.551392E+05  5.226694E+04  4.107558E+04  2.922167E+04  2.712958E-09 -1.116055E-09
       529  11 -3.156691E+05  7.678314E+04  4.262080E+04  4.127807E+04 -9.108048E-10 -1.062591E-09
       529  12 -3.833976E+05  7.146126E+04  3.806786E+04  6.720243E+04 -2.652011E-09 -7.823850E-10
       529  13 -6.924672E+05 -5.581610E+04 -6.216033E+04  6.383020E+04 -5.077913E-10  1.339179E-09
       529  14 -6.872906E+05 -1.219235E+04 -3.061624E+04  5.686797E+04  2.781451E-10 -8.336713E-10
       529  15 -6.924318E+05 -1.526306E+03 -1.760899E+04  6.377554E+04  8.468217E-10 -7.035846E-10
       529  16 -1.129617E+06 -1.639083E+05 -1.654088E+05  9.841417E+04 -3.476527E-09  4.994293E-11
       529  17 -1.058779E+06 -1.011753E+05 -1.038599E+05  7.244830E+04  3.293691E-10 -1.495702E-09
       529  18 -1.001373E+06 -7.451917E+04 -7.328955E+04  6.035037E+04  3.464808E-09 -1.044051E-09
       529  19 -2.551391E+05  5.226702E+04  4.107596E+04  2.922172E+04  1.294859E+04  5.624755E+03
       529  20 -3.156687E+05  7.678355E+04  4.262183E+04  4.127829E+04  1.503174E+04  1.803879E+04
       529  21 -3.833972E+05  7.146176E+04  3.806915E+04  6.720271E+04  1.712374E+04  1.979515E+04
       529  22 -6.924653E+05 -5.581557E+04 -6.215684E+04  6.383040E+04  4.272394E+04  5.654041E+03
       529  23 -6.872897E+05 -1.219181E+04 -3.061427E+04  5.686836E+04  2.691504E+04  1.805208E+04
       529  24 -6.924316E+05 -1.525852E+03 -1.760802E+04  6.377571E+04  1.111454E+04  1.978940E+04
       529  25 -1.129611E+06 -1.639068E+05 -1.653989E+05  9.841450E+04  7.247842E+04  5.686660E+03
       529  26 -1.058778E+06 -1.011745E+05 -1.038564E+05  7.244886E+04  3.879138E+04  1.806598E+04
       529  27 -1.001373E+06 -7.451875E+04 -7.328877E+04  6.035045E+04  5.108257E+03  1.978371E+04
       530   1 -4.236600E+05  6.053674E+04  3.355382E+04  6.301519E+04 -1.353799E+04 -1.750655E+04
       530   2 -4.873464E+05  4.736076E+04  2.565030E+04  5.634753E+04 -1.033915E+04 -1.419238E+04
       530   3 -5.518726E+05  3.260915E+04  1.526072E+04  6.423997E+04 -7.142139E+03 -9.969643E+03
       530   4 -6.903822E+05 -2.356299E+03 -1.403724E+04  6.393653E+04 -8.739332E+03 -1.750187E+04
       530   5 -6.898226E+05 -1.887335E+02 -9.492646E+03  5.665486E+04 -4.016907E+03 -1.418554E+04
       530   6 -6.903721E+05  1.382115E+02 -8.493956E+03  6.393367E+04  7.040114E+02 -9.960495E+03
       530   7 -9.570348E+05 -6.525326E+04 -6.163091E+04  6.485744E+04 -3.942676E+03 -1.749718E+04
       530   8 -8.922585E+05 -4.774042E+04 -4.463688E+04  5.696208E+04  2.303340E+03 -1.417869E+04
       530   9 -8.288527E+05 -3.233372E+04 -3.224904E+04  6.362742E+04  8.548465E+03 -9.951353E+03
       530  10 -4.236602E+05  6.053636E+04  3.355290E+04  6.301500E+04 -1.818606E-10  1.221462E-09
       530  11 -4.873465E+05  4.736051E+04  2.564972E+04  5.634741E+04 -8.137603E-10  7.029020E-10
       530  12 -5.518726E+05  3.260903E+04  1.526043E+04  6.423992E+04 -3.266046E-10  4.088712E-10
       530  13 -6.903823E+05 -2.356648E+03 -1.403796E+04  6.393640E+04  2.941836E-10  2.183117E-10
       530  14 -6.898227E+05 -1.889538E+02 -9.493054E+03  5.665482E+04  8.195481E-10 -1.273263E-10
       530  15 -6.903722E+05  1.381048E+02 -8.494143E+03  6.393367E+04  2.189986E-11  1.124948E-09
       530  16 -9.570349E+05 -6.525359E+04 -6.163151E+04  6.485738E+04 -5.039590E-10  7.212258E-10
       530  17 -8.922585E+05 -4.774063E+04 -4.463726E+04  5.696210E+04  1.938900E-09 -2.869370E-09
       530  18 -8.288528E+05 -3.233384E+04 -3.224936E+04  6.362749E+04  8.651930E-10 -3.261392E-10
       530  19 -4.236600E+05  6.053674E+04  3.355382E+04  6.301519E+04  1.353799E+04  1.750655E+04
       530  20 -4.873464E+05  4.736076E+04  2.565030E+04  5.634753E+04  1.033915E+04  1.419238E+04
       530  21 -5.518726E+05  3.260915E+04  1.526072E+04  6.423997E+04  7.142139E+03  9.969643E+03
       530  22 -6.903822E+05 -2.356299E+03 -1.403724E+04  6.393653E+04  8.739332E+03  1.750187E+04
       530  23 -6.898226E+05 -1.887335E+02 -9.492646E+03  5.665486E+04  4.016907E+03  1.418554E+04
       530  24 -6.903721E+05  1.382115E+02 -8.493956E+03  6.393367E+04 -7.040114E+02  9.960495E+03
       530  25 -9.570348E+05 -6.525326E+04 -6.163091E+04  6.485744E+04  3.942676E+03  1.749718E+04
       530  26 -8.922585E+05 -4.774042E+04 -4.463688E+04  5.696208E+04 -2.303340E+03  1.417869E+04
       530  27 -8.288527E+05 -3.233372E+04 -3.224904E+04  6.362742E+04 -8.548465E+03  9.951353E+03
       531   1 -5.938536E+05  2.276751E+04  7.300228E+03  6.353702E+04 -5.564121E+03 -7.202814E+03
       531   2 -6.571828E+05  7.139986E+03 -7.123593E+03  5.723837E+04  1.173641E+03 -2.741615E+03
       531   3 -7.221299E+05 -1.130480E+04 -2.665283E+04  6.554104E+04  7.910891E+03  1.343066E+03
       531   4 -6.904599E+05  1.738119E+02 -8.998151E+03  6.394250E+04  2.227606E+03 -7.193541E+03
       531   5 -6.897042E+05 -3.983073E+02 -1.226030E+04  5.664404E+04  8.332544E+03 -2.733011E+03
       531   6 -6.904612E+05 -3.677809E+03 -2.018836E+04  6.394706E+04  1.443764E+04  1.350975E+03
       531   7 -7.870569E+05 -2.242034E+04 -2.529660E+04  6.434792E+04  1.001816E+04 -7.184256E+03
       531   8 -7.222245E+05 -7.936624E+03 -1.739685E+04  5.604974E+04  1.549108E+04 -2.724420E+03
       531   9 -6.587915E+05  3.949154E+03 -1.372379E+04  6.235299E+04  2.096471E+04  1.358851E+03
       531  10 -5.938537E+05  2.276744E+04  7.300072E+03  6.353698E+04 -1.794422E-09  2.076441E-09
       531  11 -6.571828E+05  7.139978E+03 -7.123610E+03  5.723837E+04 -2.009701E-10  9.862810E-11
       531  12 -7.221300E+05 -1.130482E+04 -2.665295E+04  6.554103E+04  2.129377E-09  2.326367E-09
       531  13 -6.904599E+05  1.737550E+02 -8.998258E+03  6.394251E+04  2.682160E-10  9.076389E-10
       531  14 -6.897043E+05 -3.983340E+02 -1.226045E+04  5.664406E+04  5.728667E-10  1.705533E-09
       531  15 -6.904614E+05 -3.677867E+03 -2.018876E+04  6.394704E+04  5.519535E-10  5.105933E-10
       531  16 -7.870570E+05 -2.242042E+04 -2.529688E+04  6.434797E+04  1.196991E-09  9.343294E-10
       531  17 -7.222247E+05 -7.936697E+03 -1.739731E+04  5.604978E+04  4.945899E-10 -1.865069E-10
       531  18 -6.587920E+05  3.949034E+03 -1.372462E+04  6.235297E+04 -1.281123E-09 -2.573687E-09
       531  19 -5.938536E+05  2.276751E+04  7.300228E+03  6.353702E+04  5.564121E+03  7.202814E+03
       531  20 -6.571828E+05  7.139986E+03 -7.123593E+03  5.723837E+04 -1.173641E+03  2.741615E+03
       531  21 -7.221299E+05 -1.130480E+04 -2.665283E+04  6.554104E+04 -7.910891E+03 -1.343066E+03
       531  22 -6.904599E+05  1.738119E+02 -8.998151E+03  6.394250E+04 -2.227606E+03  7.193541E+03
       531  23 -6.897042E+05 -3.983073E+02 -1.226030E+04  5.664404E+04 -8.332544E+03  2.733011E+03
       531  24 -6.904612E+05 -3.677809E+03 -2.018836E+04  6.394706E+04 -1.443764E+04 -1.350975E+03
       531  25 -7.870569E+05 -2.242034E+04 -2.529660E+04  6.434792E+04 -1.001816E+04  7.184256E+03
       531  26 -7.222245E+05 -7.936624E+03 -1.739685E+04  5.604974E+04 -1.549108E+04  2.724420E+03
       531  27 -6.587915E+05  3.949154E+03 -1.372379E+04  6.235299E+04 -2.096471E+04 -1.358851E+03
       532   1 -7.673642E+05 -2.000285E+04 -4.016163E+04  5.885997E+04  1.076143E+04  3.913743E+03
       532   2 -8.229702E+05 -5.168598E+04 -7.455688E+04  8.079418E+04  4.335812E+04  5.596910E+03
       532   3 -8.958270E+05 -1.352198E+05 -1.431644E+05  1.170259E+05  7.595705E+04  2.098364E+03
       532   4 -6.936208E+05 -2.390247E+03 -2.597364E+04  6.386708E+04  1.787116E+04  3.922394E+03
       532   5 -6.857690E+05 -1.863976E+04 -4.630366E+04  5.676428E+04  4.177065E+04  5.593252E+03
       532   6 -6.936547E+05 -8.522417E+04 -9.479625E+04  6.396202E+04  6.567588E+04  2.079869E+03
       532   7 -6.198720E+05  1.522215E+04 -1.178570E+04  6.887478E+04  2.498171E+04  3.931159E+03
       532   8 -5.485486E+05  1.440746E+04 -1.805113E+04  3.272896E+04  4.018283E+04  5.589719E+03
       532   9 -4.914386E+05 -3.522082E+04 -4.642908E+04  1.088075E+04  5.539138E+04  2.063139E+03
       532  10 -7.673644E+05 -2.000290E+04 -4.016188E+04  5.885994E+04 -1.241998E-09  1.404101E-09
       532  11 -8.229722E+05 -5.168652E+04 -7.456048E+04  8.079398E+04 -9.554447E-10 -1.230891E-09
       532  12 -8.958332E+05 -1.352214E+05 -1.431752E+05  1.170258E+05  7.157481E-10 -7.389377E-10
       532  13 -6.936212E+05 -2.390349E+03 -2.597427E+04  6.386702E+04 -4.959079E-10  2.729604E-09
       532  14 -6.857708E+05 -1.864026E+04 -4.630700E+04  5.676409E+04  7.688213E-10 -2.540947E-09
       532  15 -6.936593E+05 -8.522533E+04 -9.480437E+04  6.396191E+04 -1.077879E-10  1.634459E-09
       532  16 -6.198727E+05  1.522197E+04 -1.178690E+04  6.887470E+04  2.431980E-10  7.237703E-10
       532  17 -5.485503E+05  1.440699E+04 -1.805422E+04  3.272878E+04  6.638586E-10  1.496618E-09
       532  18 -4.914419E+05 -3.522165E+04 -4.643486E+04  1.088065E+04 -2.384342E-11  2.562846E-11
       532  19 -7.673642E+05 -2.000285E+04 -4.016163E+04  5.885997E+04 -1.076143E+04 -3.913743E+03
       532  20 -8.229702E+05 -5.168598E+04 -7.455688E+04  8.079418E+04 -4.335812E+04 -5.596910E+03
       532  21 -8.958270E+05 -1.352198E+05 -1.431644E+05  1.170259E+05 -7.595705E+04 -2.098364E+03
       532  22 -6.936208E+05 -2.390247E+03 -2.597364E+04  6.386708E+04 -1.787116E+04 -3.922394E+03
       532  23 -6.857690E+05 -1.863976E+04 -4.630366E+04  5.676428E+04 -4.177065E+04 -5.593252E+03
       532  24 -6.936547E+05 -8.522417E+04 -9.479625E+04  6.396202E+04 -6.567588E+04 -2.079869E+03
       532  25 -6.198720E+05  1.522215E+04 -1.178570E+04  6.887478E+04 -2.498171E+04 -3.931159E+03
       532  26 -5.485486E+05  1.440746E+04 -1.805113E+04  3.272896E+04 -4.018283E+04 -5.589719E+03
       532  27 -4.914386E+05 -3.522082E+04 -4.642908E+04  1.088075E+04 -5.539138E+04 -2.063139E+03
       533   1 -1.177634E+05  3.799441E+04  3.267025E+04  2.902645E+04 -1.524718E+03 -3.048003E+03
       533   2 -1.599434E+05  4.356942E+04  2.743223E+04  3.213423E+04 -5.130725E+03 -9.602037E+03
       533   3 -2.046398E+05  3.727268E+04  2.157475E+04  4.471575E+04 -8.742875E+03 -1.008509E+04
       533   4 -3.648018E+05 -2.307550E+04 -2.576582E+04  4.329645E+04 -1.762145E+04 -3.066286E+03
       533   5 -3.626517E+05 -5.004485E+03 -1.276019E+04  3.854632E+04 -1.103111E+04 -9.609199E+03
       533   6 -3.647921E+05 -5.783736E+02 -7.458061E+03  4.327053E+04 -4.447106E+03 -1.008013E+04
       533   7 -6.117831E+05 -8.414887E+04 -8.420503E+04  5.756072E+04 -3.371180E+04 -3.085312E+03
       533   8 -5.653205E+05 -5.358072E+04 -5.295448E+04  4.495626E+04 -1.692962E+04 -9.616484E+03
       533   9 -5.249195E+05 -3.843086E+04 -3.649181E+04  4.182569E+04 -1.524143E+02 -1.007519E+04
       533  10 -1.177634E+05  3.799440E+04  3.267022E+04  2.902645E+04 -4.387442E-09  7.989911E-10
       533  11 -1.599434E+05  4.356931E+04  2.743201E+04  3.213419E+04 -1.464676E-09  3.733548E-09
       533  12 -2.046399E+05  3.727256E+04  2.157441E+04  4.471567E+04  2.182073E-09  1.770736E-09
       533  13 -3.648022E+05 -2.307560E+04 -2.576642E+04  4.329641E+04  5.207426E-10 -2.171964E-09
       533  14 -3.626518E+05 -5.004617E+03 -1.276059E+04  3.854623E+04  6.744294E-10 -2.363955E-09
       533  15 -3.647922E+05 -5.784880E+02 -7.458289E+03  4.327049E+04  1.115108E-10  9.722620E-10
       533  16 -6.117843E+05 -8.414919E+04 -8.420719E+04  5.756064E+04  3.406189E-09 -5.423029E-10
       533  17 -5.653208E+05 -5.358089E+04 -5.295520E+04  4.495613E+04  1.060928E-09  2.125943E-09
       533  18 -5.249195E+05 -3.843097E+04 -3.649201E+04  4.182569E+04 -1.279188E-09  3.022637E-10
       533  19 -1.177634E+05  3.799441E+04  3.267025E+04  2.902645E+04  1.524718E+03  3.048003E+03
       533  20 -1.599434E+05  4.356942E+04  2.743223E+04  3.213423E+04  5.130725E+03  9.602037E+03
       533  21 -2.046398E+05  3.727268E+04  2.157475E+04  4.471575E+04  8.742875E+03  1.008509E+04
       533  22 -3.648018E+05 -2.307550E+04 -2.576582E+04  4.329645E+04  1.762145E+04  3.066286E+03
       533  23 -3.626517E+05 -5.004485E+03 -1.276019E+04  3.854632E+04  1.103111E+04  9.609199E+03
       533  24 -3.647921E+05 -5.783736E+02 -7.458061E+03  4.327053E+04  4.447106E+03  1.008013E+04
       533  25 -6.117831E+05 -8.414887E+04 -8.420503E+04  5.756072E+04  3.371180E+04  3.085312E+03
       533  26 -5.653205E+05 -5.358072E+04 -5.295448E+04  4.495626E+04  1.692962E+04  9.616484E+03
       533  27 -5.249195E+05 -3.843086E+04 -3.649181E+04  4.182569E+04  1.524143E+02  1.007519E+04
       534   1 -2.323927E+05  3.012553E+04  1.759796E+04  4.298573E+04 -7.036311E+03 -8.478240E+03
       534   2 -2.756144E+05  2.067536E+04  1.105656E+04  3.828202E+04 -5.728742E+03 -6.077082E+03
       534   3 -3.191884E+05  1.059831E+04  3.499778E+03  4.343963E+04 -4.422029E+03 -3.172081E+03
       534   4 -3.639489E+05 -9.204514E+02 -6.038303E+03  4.336010E+04 -3.428805E+03 -8.474008E+03
       534   5 -3.636966E+05 -2.473232E+01 -4.332836E+03  3.842877E+04 -1.275556E+03 -6.071682E+03
       534   6 -3.639461E+05  9.705023E+01 -4.230664E+03  4.335886E+04  8.769112E+02 -3.165475E+03
       534   7 -4.954882E+05 -3.196739E+04 -2.967518E+04  4.373439E+04  1.779576E+02 -8.469770E+03
       534   8 -4.517711E+05 -2.072523E+04 -1.972243E+04  3.857549E+04  3.177017E+03 -6.066279E+03
       534   9 -4.087018E+05 -1.040430E+04 -1.196107E+04  4.327810E+04  6.175482E+03 -3.158870E+03
       534  10 -2.323928E+05  3.012544E+04  1.759773E+04  4.298568E+04 -9.814794E-10  1.887156E-10
       534  11 -2.756145E+05  2.067531E+04  1.105643E+04  3.828200E+04 -1.337506E-09  4.095899E-09
       534  12 -3.191884E+05  1.059829E+04  3.499722E+03  4.343962E+04  7.409126E-10  4.170170E-09
       534  13 -3.639489E+05 -9.205316E+02 -6.038460E+03  4.336008E+04 -5.306643E-10  4.949290E-09
       534  14 -3.636966E+05 -2.477234E+01 -4.332908E+03  3.842876E+04  1.101523E-09 -5.399173E-09
       534  15 -3.639461E+05  9.703926E+01 -4.230685E+03  4.335886E+04 -5.092180E-10  3.756382E-09
       534  16 -4.954882E+05 -3.196746E+04 -2.967532E+04  4.373439E+04  1.086385E-09 -2.737408E-09
       534  17 -4.517712E+05 -2.072527E+04 -1.972252E+04  3.857551E+04  1.359809E-09 -6.975391E-10
       534  18 -4.087018E+05 -1.040432E+04 -1.196116E+04  4.327811E+04 -4.839238E-10  1.841092E-09
       534  19 -2.323927E+05  3.012553E+04  1.759796E+04  4.298573E+04  7.036311E+03  8.478240E+03
       534  20 -2.756144E+05  2.067536E+04  1.105656E+04  3.828202E+04  5.728742E+03  6.077082E+03
       534  21 -3.191884E+05  1.059831E+04  3.499778E+03  4.343963E+04  4.422029E+03  3.172081E+03
       534  22 -3.639489E+05 -9.204514E+02 -6.038303E+03  4.336010E+04  3.428805E+03  8.474008E+03
       534  23 -3.636966E+05 -2.473232E+01 -4.332836E+03  3.842877E+04  1.275556E+03  6.071682E+03
       534  24 -3.639461E+05  9.705023E+01 -4.230664E+03  4.335886E+04 -8.769112E+02  3.165475E+03
       534  25 -4.954882E+05 -3.196739E+04 -2.967518E+04  4.373439E+04 -1.779576E+02  8.469770E+03
       534  26 -4.517711E+05 -2.072523E+04 -1.972243E+04  3.857549E+04 -3.177017E+03  6.066279E+03
       534  27 -4.087018E+05 -1.040430E+04 -1.196107E+04  4.327810E+04 -6.175482E+03  3.158870E+03
       535   1 -3.476152E+05  3.945213E+03 -1.981413E+03  4.307154E+04 -3.633029E+03 -1.300341E+03
       535   2 -3.905393E+05 -6.588035E+03 -1.164498E+04  3.870491E+04  3.335377E+02  1.668789E+03
       535   3 -4.344163E+05 -1.875336E+04 -2.430844E+04  4.420996E+04  4.300360E+03  4.272288E+03
       535   4 -3.640225E+05  1.260883E+02 -4.667500E+03  4.336091E+04  1.651564E+03 -1.293720E+03
       535   5 -3.635998E+05 -2.161045E+02 -6.732080E+03  3.842643E+04  5.004157E+03  1.674597E+03
       535   6 -3.640241E+05 -2.083396E+03 -1.136967E+04  4.336364E+04  8.357260E+03  4.277286E+03
       535   7 -3.804295E+05 -3.693034E+03 -7.353490E+03  4.365027E+04  6.936022E+03 -1.287094E+03
       535   8 -3.366594E+05  6.155797E+03 -1.819129E+03  3.814795E+04  9.674974E+03  1.680401E+03
       535   9 -2.936271E+05  1.458630E+04  1.568970E+03  4.251722E+04  1.241461E+04  4.282274E+03
       535  10 -3.476152E+05  3.945207E+03 -1.981441E+03  4.307153E+04  1.079697E-09 -2.751304E-10
       535  11 -3.905393E+05 -6.588038E+03 -1.164498E+04  3.870491E+04 -2.793372E-09 -8.520461E-10
       535  12 -4.344163E+05 -1.875339E+04 -2.430851E+04  4.420994E+04 -5.425654E-09 -1.969542E-09
       535  13 -3.640225E+05  1.260858E+02 -4.667509E+03  4.336091E+04 -1.347427E-11  1.301674E-09
       535  14 -3.635998E+05 -2.161142E+02 -6.732132E+03  3.842643E+04  5.827675E-10 -5.282450E-10
       535  15 -3.640242E+05 -2.083434E+03 -1.136983E+04  4.336361E+04  2.346960E-10 -4.842471E-10
       535  16 -3.804296E+05 -3.693049E+03 -7.353583E+03  4.365027E+04 -1.571539E-09 -2.364116E-12
       535  17 -3.366595E+05  6.155769E+03 -1.819311E+03  3.814793E+04  2.056184E-09  2.907828E-09
       535  18 -2.936273E+05  1.458624E+04  1.568646E+03  4.251718E+04  5.943330E-09  2.031838E-09
       535  19 -3.476152E+05  3.945213E+03 -1.981413E+03  4.307154E+04  3.633029E+03  1.300341E+03
       535  20 -3.905393E+05 -6.588035E+03 -1.164498E+04  3.870491E+04 -3.335377E+02 -1.668789E+03
       535  21 -4.344163E+05 -1.875336E+04 -2.430844E+04  4.420996E+04 -4.300360E+03 -4.272288E+03
       535  22 -3.640225E+05  1.260883E+02 -4.667500E+03  4.336091E+04 -1.651564E+03  1.293720E+03
       535  23 -3.635998E+05 -2.161045E+02 -6.732080E+03  3.842643E+04 -5.004157E+03 -1.674597E+03
       535  24 -3.640241E+05 -2.083396E+03 -1.136967E+04  4.336364E+04 -8.357260E+03 -4.277286E+03
       535  25 -3.804295E+05 -3.693034E+03 -7.353490E+03  4.365027E+04 -6.936022E+03  1.287094E+03
       535  26 -3.366594E+05  6.155797E+03 -1.819129E+03  3.814795E+04 -9.674974E+03 -1.680401E+03
       535  27 -2.936271E+05  1.458630E+04  1.568970E+03  4.251722E+04 -1.241461E+04 -4.282274E+03
       536   1 -4.647441E+05 -2.479804E+04 -3.294803E+04  4.037504E+04  5.711295E+03  5.952134E+03
       536   2 -5.030410E+05 -4.462854E+04 -5.484623E+04  5.216644E+04  2.712028E+04  6.383051E+03
       536   3 -5.516660E+05 -9.451172E+04 -9.820862E+04  7.354767E+04  4.853269E+04  2.167112E+03
       536   4 -3.658299E+05 -1.349472E+03 -1.470819E+04  4.329347E+04  1.029317E+04  5.957737E+03
       536   5 -3.613501E+05 -1.061840E+04 -2.635875E+04  3.852601E+04  2.390105E+04  6.378454E+03
       536   6 -3.658424E+05 -4.858179E+04 -5.405087E+04  4.334961E+04  3.751406E+04  2.151658E+03
       536   7 -2.669061E+05  2.209858E+04  3.531332E+03  4.621238E+04  1.487575E+04  5.963382E+03
       536   8 -2.196396E+05  2.339121E+04  2.127853E+03  2.488240E+04  2.068111E+04  6.373999E+03
       536   9 -1.799848E+05 -2.650829E+03 -9.894577E+03  1.314245E+04  2.649214E+04  2.137279E+03
       536  10 -4.647442E+05 -2.479808E+04 -3.294815E+04  4.037501E+04 -5.284454E-08 -4.716772E-09
       536  11 -5.030418E+05 -4.462878E+04 -5.484769E+04  5.216630E+04 -3.019787E-09 -2.900182E-09
       536  12 -5.516685E+05 -9.451236E+04 -9.821306E+04  7.354759E+04  4.854377E-08 -2.065898E-09
       536  13 -3.658300E+05 -1.349539E+03 -1.470845E+04  4.329342E+04  2.574054E-10 -1.767498E-09
       536  14 -3.613507E+05 -1.061859E+04 -2.635990E+04  3.852589E+04  6.695581E-10 -7.757018E-09
       536  15 -3.658439E+05 -4.858217E+04 -5.405352E+04  4.334954E+04  4.895882E-10 -2.634029E-09
       536  16 -2.669064E+05  2.209848E+04  3.530850E+03  4.621230E+04  5.272346E-08 -8.031297E-10
       536  17 -2.196400E+05  2.339106E+04  2.126973E+03  2.488229E+04  2.645670E-09 -1.467295E-09
       536  18 -1.799856E+05 -2.651023E+03 -9.895905E+03  1.314240E+04 -4.783911E-08 -1.250295E-09
       536  19 -4.647441E+05 -2.479804E+04 -3.294803E+04  4.037504E+04 -5.711295E+03 -5.952134E+03
       536  20 -5.030410E+05 -4.462854E+04 -5.484623E+04  5.216644E+04 -2.712028E+04 -6.383051E+03
       536  21 -5.516660E+05 -9.451172E+04 -9.820862E+04  7.354767E+04 -4.853269E+04 -2.167112E+03
       536  22 -3.658299E+05 -1.349472E+03 -1.470819E+04  4.329347E+04 -1.029317E+04 -5.957737E+03
       536  23 -3.613501E+05 -1.061840E+04 -2.635875E+04  3.852601E+04 -2.390105E+04 -6.378454E+03
       536  24 -3.658424E+05 -4.858179E+04 -5.405087E+04  4.334961E+04 -3.751406E+04 -2.151658E+03
       536  25 -2.669061E+05  2.209858E+04  3.531332E+03  4.621238E+04 -1.487575E+04 -5.963382E+03
       536  26 -2.196396E+05  2.339121E+04  2.127853E+03  2.488240E+04 -2.068111E+04 -6.373999E+03
       536  27 -1.799848E+05 -2.650829E+03 -9.894577E+03  1.314245E+04 -2.649214E+04 -2.137279E+03
       537   1 -3.280539E+04  2.011927E+04  1.858386E+04  2.047005E+04  2.556095E+03 -1.119637E+03
       537   2 -5.590653E+04  1.720893E+04  1.268208E+04  1.940579E+04 -3.135246E+02 -3.382560E+03
       537   3 -7.911744E+04  1.241435E+04  8.176500E+03  2.344470E+04 -3.185727E+03 -3.169936E+03
       537   4 -1.318277E+05 -4.385159E+03 -4.944596E+03  2.316452E+04 -3.319028E+03 -1.126368E+03
       537   5 -1.314106E+05 -9.256119E+02 -2.495915E+03  2.061041E+04 -2.029902E+03 -3.384580E+03
       537   6 -1.318263E+05 -7.256442E+01 -1.539409E+03  2.315957E+04 -7.435267E+02 -3.167093E+03
       537   7 -2.308409E+05 -2.889025E+04 -2.847360E+04  2.585856E+04 -9.193218E+03 -1.133150E+03
       537   8 -2.069092E+05 -1.906049E+04 -1.767419E+04  2.181487E+04 -3.746076E+03 -3.386606E+03
       537   9 -1.845324E+05 -1.255963E+04 -1.125541E+04  2.287447E+04  1.698472E+03 -3.164252E+03
       537  10 -3.280540E+04  2.011927E+04  1.858384E+04  2.047005E+04  2.721397E-09 -9.937812E-11
       537  11 -5.590653E+04  1.720891E+04  1.268205E+04  1.940578E+04 -8.829385E-10 -1.495211E-09
       537  12 -7.911745E+04  1.241434E+04  8.176462E+03  2.344469E+04 -3.021769E-09 -8.975226E-12
       537  13 -1.318277E+05 -4.385163E+03 -4.944619E+03  2.316452E+04 -3.695953E-10  1.815399E-09
       537  14 -1.314106E+05 -9.256253E+02 -2.495944E+03  2.061040E+04  1.685798E-10 -1.407756E-09
       537  15 -1.318263E+05 -7.257534E+01 -1.539429E+03  2.315957E+04 -6.065149E-10 -1.299878E-09
       537  16 -2.308410E+05 -2.889027E+04 -2.847376E+04  2.585855E+04 -3.391851E-09 -2.192916E-10
       537  17 -2.069092E+05 -1.906051E+04 -1.767423E+04  2.181486E+04  8.950815E-10 -3.927387E-09
       537  18 -1.845324E+05 -1.255965E+04 -1.125544E+04  2.287448E+04  3.328221E-09 -5.543992E-10
       537  19 -3.280539E+04  2.011927E+04  1.858386E+04  2.047005E+04 -2.556095E+03  1.119637E+03
       537  20 -5.590653E+04  1.720893E+04  1.268208E+04  1.940579E+04  3.135246E+02  3.382560E+03
       537  21 -7.911744E+04  1.241435E+04  8.176500E+03  2.344470E+04  3.185727E+03  3.169936E+03
       537  22 -1.318277E+05 -4.385159E+03 -4.944596E+03  2.316452E+04  3.319028E+03  1.126368E+03
       537  23 -1.314106E+05 -9.256119E+02 -2.495915E+03  2.061041E+04  2.029902E+03  3.384580E+03
       537  24 -1.318263E+05 -7.256442E+01 -1.539409E+03  2.315957E+04  7.435267E+02  3.167093E+03
       537  25 -2.308409E+05 -2.889025E+04 -2.847360E+04  2.585856E+04  9.193218E+03  1.133150E+03
       537  26 -2.069092E+05 -1.906049E+04 -1.767419E+04  2.181487E+04  3.746076E+03  3.386606E+03
       537  27 -1.845324E+05 -1.255963E+04 -1.125541E+04  2.287447E+04 -1.698472E+03  3.164252E+03
       538   1 -9.417065E+04  8.741744E+03  5.582396E+03  2.311947E+04 -2.688042E+03 -2.275097E+03
       538   2 -1.172724E+05  3.423054E+03  1.510574E+03  2.051364E+04 -2.468638E+03 -8.899788E+02
       538   3 -1.404422E+05 -1.994175E+03 -2.732856E+03  2.316908E+04 -2.249473E+03  6.899518E+02
       538   4 -1.316688E+05 -1.367157E+02 -1.308363E+03  2.319537E+04 -5.253812E+02 -2.272562E+03
       538   5 -1.316061E+05  3.333398E+01 -1.103108E+03  2.056462E+04  2.122087E+01 -8.870467E+02
       538   6 -1.316685E+05  4.814024E+01 -1.296635E+03  2.319516E+04  5.675967E+02  6.932839E+02
       538   7 -1.691655E+05 -9.015253E+03 -8.199162E+03  2.327127E+04  1.637153E+03 -2.270026E+03
       538   8 -1.459396E+05 -3.356395E+03 -3.716775E+03  2.061561E+04  2.511024E+03 -8.841142E+02
       538   9 -1.228948E+05  2.090456E+03  1.396142E+02  2.322124E+04  3.384705E+03  6.966161E+02
       538  10 -9.417066E+04  8.741737E+03  5.582373E+03  2.311947E+04  2.551871E-08  1.603065E-09
       538  11 -1.172724E+05  3.423052E+03  1.510561E+03  2.051364E+04 -1.363538E-09  3.048683E-10
       538  12 -1.404422E+05 -1.994177E+03 -2.732866E+03  2.316908E+04 -2.599565E-08 -1.087040E-10
       538  13 -1.316688E+05 -1.367214E+02 -1.308373E+03  2.319537E+04 -2.666216E-10  2.916999E-09
       538  14 -1.316061E+05  3.333313E+01 -1.103110E+03  2.056462E+04 -8.521336E-11  3.965266E-09
       538  15 -1.316685E+05  4.813964E+01 -1.296636E+03  2.319516E+04  5.175035E-10  2.726294E-09
       538  16 -1.691655E+05 -9.015260E+03 -8.199177E+03  2.327127E+04 -2.663389E-08  5.121157E-09
       538  17 -1.459396E+05 -3.356397E+03 -3.716789E+03  2.061561E+04  1.134086E-09  5.158378E-10
       538  18 -1.228948E+05  2.090452E+03  1.395918E+02  2.322124E+04  2.676523E-08  1.403728E-09
       538  19 -9.417065E+04  8.741744E+03  5.582396E+03  2.311947E+04  2.688042E+03  2.275097E+03
       538  20 -1.172724E+05  3.423054E+03  1.510574E+03  2.051364E+04  2.468638E+03  8.899788E+02
       538  21 -1.404422E+05 -1.994175E+03 -2.732856E+03  2.316908E+04  2.249473E+03 -6.899518E+02
       538  22 -1.316688E+05 -1.367157E+02 -1.308363E+03  2.319537E+04  5.253812E+02  2.272562E+03
       538  23 -1.316061E+05  3.333398E+01 -1.103108E+03  2.056462E+04 -2.122087E+01  8.870467E+02
       538  24 -1.316685E+05  4.814024E+01 -1.296635E+03  2.319516E+04 -5.675967E+02 -6.932839E+02
       538  25 -1.691655E+05 -9.015253E+03 -8.199162E+03  2.327127E+04 -1.637153E+03  2.270026E+03
       538  26 -1.459396E+05 -3.356395E+03 -3.716775E+03  2.061561E+04 -2.511024E+03  8.841142E+02
       538  27 -1.228948E+05  2.090456E+03  1.396142E+02  2.322124E+04 -3.384705E+03 -6.966161E+02
       539   1 -1.555953E+05 -5.539294E+03 -5.660489E+03  2.304512E+04 -2.010895E+03  1.687242E+03
       539   2 -1.785346E+05 -1.111256E+04 -1.062610E+04  2.063001E+04 -3.549118E+02  3.236638E+03
       539   3 -2.018652E+05 -1.733154E+04 -1.683559E+04  2.347181E+04  1.301362E+03  4.517499E+03
       539   4 -1.317105E+05  6.367935E+01 -1.536256E+03  2.319406E+04  8.138232E+02  1.690573E+03
       539   5 -1.315542E+05 -7.372608E+01 -2.419464E+03  2.056611E+04  2.018807E+03  3.239396E+03
       539   6 -1.317114E+05 -7.784598E+02 -4.233225E+03  2.319505E+04  3.224142E+03  4.519692E+03
       539   7 -1.078252E+05  5.666626E+03  2.587988E+03  2.334300E+04  3.638647E+03  1.693905E+03
       539   8 -8.457160E+04  1.096500E+04  5.787118E+03  2.050220E+04  4.392701E+03  3.242152E+03
       539   9 -6.155268E+04  1.577435E+04  8.368962E+03  2.291825E+04  5.147132E+03  4.521883E+03
       539  10 -1.555953E+05 -5.539298E+03 -5.660502E+03  2.304512E+04  4.199409E-09 -1.172380E-09
       539  11 -1.785346E+05 -1.111258E+04 -1.062612E+04  2.063001E+04 -1.330550E-09  2.029346E-09
       539  12 -2.018652E+05 -1.733156E+04 -1.683563E+04  2.347181E+04 -4.752781E-09 -1.973793E-09
       539  13 -1.317105E+05  6.367611E+01 -1.536263E+03  2.319406E+04  1.169529E-09 -2.050988E-09
       539  14 -1.315542E+05 -7.373845E+01 -2.419491E+03  2.056610E+04  8.366235E-10  2.106242E-09
       539  15 -1.317114E+05 -7.784845E+02 -4.233283E+03  2.319503E+04  4.480972E-10  7.546990E-10
       539  16 -1.078252E+05  5.666620E+03  2.587957E+03  2.334300E+04 -4.526852E-09 -1.349150E-09
       539  17 -8.457162E+04  1.096498E+04  5.787062E+03  2.050219E+04  1.458959E-09 -3.247908E-09
       539  18 -6.155272E+04  1.577432E+04  8.368874E+03  2.291823E+04  5.272228E-09  1.536650E-09
       539  19 -1.555953E+05 -5.539294E+03 -5.660489E+03  2.304512E+04  2.010895E+03 -1.687242E+03
       539  20 -1.785346E+05 -1.111256E+04 -1.062610E+04  2.063001E+04  3.549118E+02 -3.236638E+03
       539  21 -2.018652E+05 -1.733154E+04 -1.683559E+04  2.347181E+04 -1.301362E+03 -4.517499E+03
       539  22 -1.317105E+05  6.367935E+01 -1.536256E+03  2.319406E+04 -8.138232E+02 -1.690573E+03
       539  23 -1.315542E+05 -7.372608E+01 -2.419464E+03  2.056611E+04 -2.018807E+03 -3.239396E+03
       539  24 -1.317114E+05 -7.784598E+02 -4.233225E+03  2.319505E+04 -3.224142E+03 -4.519692E+03
       539  25 -1.078252E+05  5.666626E+03  2.587988E+03  2.334300E+04 -3.638647E+03 -1.693905E+03
       539  26 -8.457160E+04  1.096500E+04  5.787118E+03  2.050220E+04 -4.392701E+03 -3.242152E+03
       539  27 -6.155268E+04  1.577435E+04  8.368962E+03  2.291825E+04 -5.147132E+03 -4.521883E+03
       540   1 -2.177933E+05 -2.068200E+04 -2.099594E+04  2.199768E+04  1.656171E+03  5.373321E+03
       540   2 -2.387911E+05 -2.990578E+04 -3.138624E+04  2.574766E+04  1.223336E+04  5.130098E+03
       540   3 -2.641299E+05 -5.093414E+04 -5.161785E+04  3.455276E+04  2.281339E+04  1.649993E+03
       540   4 -1.323970E+05 -5.004148E+02 -5.516818E+03  2.314744E+04  3.945916E+03  5.375906E+03
       540   5 -1.306998E+05 -4.010920E+03 -9.956252E+03  2.062982E+04  9.087202E+03  5.126356E+03
       540   6 -1.323998E+05 -1.838110E+04 -2.046062E+04  2.316763E+04  1.423187E+04  1.639967E+03
       540   7 -4.699356E+04  1.968077E+04  9.962034E+03  2.429736E+04  6.235967E+03  5.378500E+03
       540   8 -2.259723E+04  2.188333E+04  1.147321E+04  1.551107E+04  5.940509E+03  5.122665E+03
       540   9 -6.531867E+02  1.417124E+04  1.069575E+04  1.178007E+04  5.648544E+03  1.630256E+03
       540  10 -2.177933E+05 -2.068203E+04 -2.099600E+04  2.199767E+04  6.848247E-10 -1.577728E-09
       540  11 -2.387912E+05 -2.990585E+04 -3.138657E+04  2.574761E+04  1.090375E-09  3.894451E-10
       540  12 -2.641305E+05 -5.093428E+04 -5.161884E+04  3.455273E+04  2.256880E-09  2.287488E-09
       540  13 -1.323970E+05 -5.004500E+02 -5.516901E+03  2.314742E+04 -2.675965E-10  1.385447E-09
       540  14 -1.306999E+05 -4.010971E+03 -9.956457E+03  2.062978E+04  4.296344E-10  1.867332E-09
       540  15 -1.324000E+05 -1.838115E+04 -2.046101E+04  2.316761E+04  3.163755E-10  1.457208E-09
       540  16 -4.699361E+04  1.968073E+04  9.961906E+03  2.429733E+04 -1.546826E-09  3.152626E-09
       540  17 -2.259728E+04  2.188329E+04  1.147310E+04  1.551104E+04 -1.300424E-09  4.485084E-09
       540  18 -6.532217E+02  1.417122E+04  1.069569E+04  1.178006E+04 -2.487817E-09  4.258733E-11
       540  19 -2.177933E+05 -2.068200E+04 -2.099594E+04  2.199768E+04 -1.656171E+03 -5.373321E+03
       540  20 -2.387911E+05 -2.990578E+04 -3.138624E+04  2.574766E+04 -1.223336E+04 -5.130098E+03
       540  21 -2.641299E+05 -5.093414E+04 -5.161785E+04  3.455276E+04 -2.281339E+04 -1.649993E+03
       540  22 -1.323970E+05 -5.004148E+02 -5.516818E+03  2.314744E+04 -3.945916E+03 -5.375906E+03
       540  23 -1.306998E+05 -4.010920E+03 -9.956252E+03  2.062982E+04 -9.087202E+03 -5.126356E+03
       540  24 -1.323998E+05 -1.838110E+04 -2.046062E+04  2.316763E+04 -1.423187E+04 -1.639967E+03
       540  25 -4.699356E+04  1.968077E+04  9.962034E+03  2.429736E+04 -6.235967E+03 -5.378500E+03
       540  26 -2.259723E+04  2.188333E+04  1.147321E+04  1.551107E+04 -5.940509E+03 -5.122665E+03
       540  27 -6.531867E+02  1.417124E+04  1.069575E+04  1.178007E+04 -5.648544E+03 -1.630256E+03
