
 stresses (elem, integ.pnt.,sxx,syy,szz,sxy,sxz,syz) for set ELALL and time  0.1000000E+01

         1   1  2.651500E+06  1.922139E+05  2.135785E+05  1.203096E+05  1.476397E+05  2.849486E+01
         1   2  2.633951E+06  4.233560E+04  1.049373E+05  5.466387E+04  9.344576E+04  8.194589E+00
         1   3  2.651726E+06  5.729405E+03  5.979559E+04 -1.097937E+04  3.925104E+04 -6.913237E-01
         1   4  2.651484E+06  1.921868E+05  2.135747E+05  2.714000E-09  1.476397E+05  3.898379E-10
         1   5  2.633948E+06  4.233001E+04  1.049365E+05  5.619366E-09  9.344576E+04  8.245715E-10
         1   6  2.651726E+06  5.729180E+03  5.979556E+04  9.612033E-10  3.925104E+04 -8.060067E-11
         1   7  2.651500E+06  1.922139E+05  2.135785E+05 -1.203096E+05  1.476397E+05 -2.849486E+01
         1   8  2.633951E+06  4.233560E+04  1.049373E+05 -5.466387E+04  9.344576E+04 -8.194589E+00
         1   9  2.651726E+06  5.729405E+03  5.979559E+04  1.097937E+04  3.925104E+04  6.913237E-01
         1  10  2.651477E+06  1.922081E+05  2.135377E+05  1.203096E+05  5.255758E-10  1.445281E-10
         1  11  2.633942E+06  4.233327E+04  1.049210E+05  5.466387E+04  2.177837E-10  7.420441E-10
         1  12  2.651724E+06  5.728994E+03  5.979271E+04 -1.097937E+04  4.195488E-10  1.325708E-09
         1  13  2.651461E+06  1.921810E+05  2.135339E+05  4.247465E-09  1.686377E-11  2.076265E-10
         1  14  2.633939E+06  4.232767E+04  1.049202E+05  2.646361E-09 -3.253591E-09  7.467504E-10
         1  15  2.651724E+06  5.728768E+03  5.979268E+04  1.062385E-09  1.596393E-10  1.008465E-09
         1  16  2.651477E+06  1.922081E+05  2.135377E+05 -1.203096E+05  8.910531E-10  3.172942E-10
         1  17  2.633942E+06  4.233327E+04  1.049210E+05 -5.466387E+04 -5.001931E-10  7.502128E-10
         1  18  2.651724E+06  5.728994E+03  5.979271E+04  1.097937E+04 -1.267865E-10  7.101407E-10
         1  19  2.651500E+06  1.922139E+05  2.135785E+05  1.203096E+05 -1.476397E+05 -2.849486E+01
         1  20  2.633951E+06  4.233560E+04  1.049373E+05  5.466387E+04 -9.344576E+04 -8.194589E+00
         1  21  2.651726E+06  5.729405E+03  5.979559E+04 -1.097937E+04 -3.925104E+04  6.913238E-01
         1  22  2.651484E+06  1.921868E+05  2.135747E+05  1.430243E-09 -1.476397E+05  2.536753E-11
         1  23  2.633948E+06  4.233001E+04  1.049365E+05  1.787423E-09 -9.344576E+04  6.808885E-10
         1  24  2.651726E+06  5.729180E+03  5.979556E+04  1.091830E-09 -3.925104E+04  2.102450E-09
         1  25  2.651500E+06  1.922139E+05  2.135785E+05 -1.203096E+05 -1.476397E+05  2.849486E+01
         1  26  2.633951E+06  4.233560E+04  1.049373E+05 -5.466387E+04 -9.344576E+04  8.194589E+00
         1  27  2.651726E+06  5.729405E+03  5.979559E+04  1.097937E+04 -3.925104E+04 -6.913237E-01
         2   1  2.644651E+06  8.578401E+03  4.720406E+04  3.832001E+03  3.121106E+04  1.918631E-01
         2   2  2.642879E+06  1.116384E+03  3.067135E+04  1.502732E+03  1.591890E+04  3.837535E-02
         2   3  2.644672E+06 -1.358507E+01  2.564696E+04 -8.265478E+02  6.268921E+02 -8.312233E-04
         2   4  2.644651E+06  8.578373E+03  4.720406E+04 -1.504056E-08  3.121106E+04 -7.641337E-10
         2   5  2.642879E+06  1.116380E+03  3.067135E+04  1.759549E-08  1.591890E+04 -1.041141E-09
         2   6  2.644672E+06 -1.358635E+01  2.564696E+04  4.941471E-08  6.268921E+02 -8.351125E-10
         2   7  2.644651E+06  8.578401E+03  4.720406E+04 -3.832001E+03  3.121106E+04 -1.918631E-01
         2   8  2.642879E+06  1.116384E+03  3.067135E+04 -1.502732E+03  1.591890E+04 -3.837536E-02
         2   9  2.644672E+06 -1.358507E+01  2.564696E+04  8.265478E+02  6.268921E+02  8.312216E-04
         2  10  2.644650E+06  8.578141E+03  4.720224E+04  3.832001E+03  5.173342E-09  8.059242E-10
         2  11  2.642879E+06  1.116316E+03  3.067088E+04  1.502732E+03 -1.223732E-08 -7.982268E-10
         2  12  2.644672E+06 -1.358518E+01  2.564696E+04 -8.265478E+02 -2.172241E-08 -1.317861E-09
         2  13  2.644650E+06  8.578113E+03  4.720223E+04 -1.228733E-09  9.849110E-10  6.235105E-10
         2  14  2.642879E+06  1.116312E+03  3.067088E+04  3.435533E-09  1.468424E-09 -5.787117E-10
         2  15  2.644672E+06 -1.358646E+01  2.564696E+04  1.361632E-09 -9.211620E-10 -1.420742E-09
         2  16  2.644650E+06  8.578141E+03  4.720224E+04 -3.832001E+03 -5.881057E-09  4.121102E-10
         2  17  2.642879E+06  1.116316E+03  3.067088E+04 -1.502732E+03  1.014970E-08 -3.058042E-10
         2  18  2.644672E+06 -1.358518E+01  2.564696E+04  8.265478E+02  2.270858E-08 -1.570653E-09
         2  19  2.644651E+06  8.578401E+03  4.720406E+04  3.832001E+03 -3.121106E+04 -1.918631E-01
         2  20  2.642879E+06  1.116384E+03  3.067135E+04  1.502732E+03 -1.591890E+04 -3.837536E-02
         2  21  2.644672E+06 -1.358507E+01  2.564696E+04 -8.265478E+02 -6.268921E+02  8.312206E-04
         2  22  2.644651E+06  8.578373E+03  4.720406E+04  1.465492E-08 -3.121106E+04  2.009999E-09
         2  23  2.642879E+06  1.116380E+03  3.067135E+04 -1.289330E-08 -1.591890E+04 -9.561260E-11
         2  24  2.644672E+06 -1.358635E+01  2.564696E+04 -5.636491E-08 -6.268921E+02 -2.022586E-09
         2  25  2.644651E+06  8.578401E+03  4.720406E+04 -3.832001E+03 -3.121106E+04  1.918631E-01
         2  26  2.642879E+06  1.116384E+03  3.067135E+04 -1.502732E+03 -1.591890E+04  3.837536E-02
         2  27  2.644672E+06 -1.358507E+01  2.564696E+04  8.265478E+02 -6.268921E+02 -8.312244E-04
         3   1  2.644771E+06 -5.041184E+01  2.621415E+04  1.172294E+03 -3.913521E+03 -7.359708E-03
         3   2  2.642753E+06  1.368781E+03  3.378562E+04 -1.601732E+03 -2.076492E+04  5.335536E-02
         3   3  2.644745E+06  1.009359E+04  5.412108E+04 -4.375698E+03 -3.761629E+04  2.640468E-01
         3   4  2.644771E+06 -5.041441E+01  2.621415E+04 -5.122051E-08 -3.913521E+03 -9.544389E-10
         3   5  2.642753E+06  1.368776E+03  3.378562E+04 -2.056533E-08 -2.076492E+04 -1.181015E-09
         3   6  2.644745E+06  1.009355E+04  5.412107E+04  1.116347E-08 -3.761629E+04 -3.838209E-10
         3   7  2.644771E+06 -5.041184E+01  2.621415E+04 -1.172294E+03 -3.913521E+03  7.359706E-03
         3   8  2.642753E+06  1.368781E+03  3.378562E+04  1.601732E+03 -2.076492E+04 -5.335537E-02
         3   9  2.644745E+06  1.009359E+04  5.412108E+04  4.375698E+03 -3.761629E+04 -2.640468E-01
         3  10  2.644771E+06 -5.041593E+01  2.621412E+04  1.172294E+03  2.182739E-08 -1.088921E-09
         3  11  2.642752E+06  1.368666E+03  3.378481E+04 -1.601732E+03  8.200711E-09 -4.099571E-10
         3  12  2.644743E+06  1.009321E+04  5.411843E+04 -4.375698E+03 -5.659025E-09  9.660678E-11
         3  13  2.644771E+06 -5.041850E+01  2.621412E+04 -3.204037E-10 -2.577236E-11 -1.252035E-09
         3  14  2.642752E+06  1.368661E+03  3.378481E+04  9.769255E-10  5.390737E-10 -2.549920E-10
         3  15  2.644743E+06  1.009317E+04  5.411842E+04  3.638746E-09  9.771195E-10  3.019155E-10
         3  16  2.644771E+06 -5.041593E+01  2.621412E+04 -1.172294E+03 -2.295708E-08 -1.395652E-09
         3  17  2.642752E+06  1.368666E+03  3.378481E+04  1.601732E+03 -7.300862E-09 -1.005137E-10
         3  18  2.644743E+06  1.009321E+04  5.411843E+04  4.375698E+03  5.576108E-09  5.407635E-10
         3  19  2.644771E+06 -5.041184E+01  2.621415E+04  1.172294E+03  3.913521E+03  7.359705E-03
         3  20  2.642753E+06  1.368781E+03  3.378562E+04 -1.601732E+03  2.076492E+04 -5.335537E-02
         3  21  2.644745E+06  1.009359E+04  5.412108E+04 -4.375698E+03  3.761629E+04 -2.640468E-01
         3  22  2.644771E+06 -5.041441E+01  2.621415E+04  5.069775E-08  3.913521E+03 -1.574034E-09
         3  23  2.642753E+06  1.368776E+03  3.378562E+04  2.149591E-08  2.076492E+04  5.697048E-10
         3  24  2.644745E+06  1.009355E+04  5.412107E+04 -1.091891E-08  3.761629E+04  9.569548E-10
         3  25  2.644771E+06 -5.041184E+01  2.621415E+04 -1.172294E+03  3.913521E+03 -7.359709E-03
         3  26  2.642753E+06  1.368781E+03  3.378562E+04  1.601732E+03  2.076492E+04  5.335537E-02
         3  27  2.644745E+06  1.009359E+04  5.412108E+04  4.375698E+03  3.761629E+04  2.640468E-01
         4   1  2.653067E+06  6.744815E+03  6.920224E+04  1.295114E+04 -4.685189E+04 -9.733912E-01
         4   2  2.632250E+06  4.963619E+04  1.225773E+05 -6.399718E+04 -1.101616E+05  1.130993E+01
         4   3  2.652805E+06  2.252753E+05  2.502394E+05 -1.409514E+05 -1.734723E+05  3.922507E+01
         4   4  2.653067E+06  6.744501E+03  6.920219E+04  2.401854E-09 -4.685189E+04  2.089329E-10
         4   5  2.632246E+06  4.962853E+04  1.225762E+05  2.732607E-09 -1.101616E+05  3.883497E-10
         4   6  2.652784E+06  2.252382E+05  2.502341E+05 -4.525766E-09 -1.734723E+05  2.007631E-10
         4   7  2.653067E+06  6.744815E+03  6.920224E+04 -1.295114E+04 -4.685189E+04  9.733912E-01
         4   8  2.632250E+06  4.963619E+04  1.225773E+05  6.399718E+04 -1.101616E+05 -1.130993E+01
         4   9  2.652805E+06  2.252753E+05  2.502394E+05  1.409514E+05 -1.734723E+05 -3.922507E+01
         4  10  2.653065E+06  6.744228E+03  6.919813E+04  1.295114E+04  3.305126E-10 -1.020482E-10
         4  11  2.632237E+06  4.963295E+04  1.225546E+05 -6.399718E+04 -1.426910E-10 -5.832676E-10
         4  12  2.652773E+06  2.252673E+05  2.501831E+05 -1.409514E+05 -4.651638E-10 -2.168114E-10
         4  13  2.653065E+06  6.743915E+03  6.919809E+04  5.054377E-09  1.172939E-10  1.462225E-10
         4  14  2.632233E+06  4.962529E+04  1.225535E+05  1.549145E-09 -6.563963E-10 -3.397980E-10
         4  15  2.652751E+06  2.252301E+05  2.501778E+05  2.171204E-10  2.723757E-10 -1.683997E-10
         4  16  2.653065E+06  6.744228E+03  6.919813E+04 -1.295114E+04 -1.897950E-09  3.946293E-10
         4  17  2.632237E+06  4.963295E+04  1.225546E+05  6.399718E+04  4.359584E-10 -8.986898E-11
         4  18  2.652773E+06  2.252673E+05  2.501831E+05  1.409514E+05  8.480080E-10 -1.189206E-10
         4  19  2.653067E+06  6.744815E+03  6.920224E+04  1.295114E+04  4.685189E+04  9.733912E-01
         4  20  2.632250E+06  4.963619E+04  1.225773E+05 -6.399718E+04  1.101616E+05 -1.130993E+01
         4  21  2.652805E+06  2.252753E+05  2.502394E+05 -1.409514E+05  1.734723E+05 -3.922507E+01
         4  22  2.653067E+06  6.744501E+03  6.920219E+04  2.362776E-09  4.685189E+04  1.009294E-10
         4  23  2.632246E+06  4.962853E+04  1.225762E+05  2.547055E-09  1.101616E+05 -1.075057E-09
         4  24  2.652784E+06  2.252382E+05  2.502341E+05 -2.524459E-09  1.734723E+05 -5.381003E-10
         4  25  2.653067E+06  6.744815E+03  6.920224E+04 -1.295114E+04  4.685189E+04 -9.733912E-01
         4  26  2.632250E+06  4.963619E+04  1.225773E+05  6.399718E+04  1.101616E+05  1.130993E+01
         4  27  2.652805E+06  2.252753E+05  2.502394E+05  1.409514E+05  1.734723E+05  3.922507E+01
         5   1 -1.405756E+06 -4.287865E+06 -1.376947E+06  1.089549E+06 -5.958692E+04 -4.580465E+05
         5   2 -9.812262E+05 -3.286894E+06 -8.840359E+05  9.179451E+05 -1.827163E+05 -2.019914E+05
         5   3 -7.037346E+05 -2.354199E+06 -5.951359E+05  9.583146E+05 -1.846197E+05  5.450911E+04
         5   4 -1.925144E+05  6.067291E+05 -2.148677E+05  9.760640E+05 -5.890141E+04 -1.506283E+05
         5   5 -4.182971E+04  6.246964E+05 -1.038257E+05  8.698500E+05 -1.823460E+05 -9.662023E+04
         5   6 -2.408617E+03  6.091211E+05 -5.557781E+04  9.756516E+05 -1.848592E+05 -4.260669E+04
         5   7  1.019104E+06  5.523643E+06  9.459073E+05  8.616486E+05 -5.833315E+04  1.592174E+05
         5   8  8.966450E+05  4.550975E+06  6.756617E+05  8.214264E+05 -1.819939E+05  9.405328E+03
         5   9  6.984279E+05  3.581016E+06  4.836644E+05  9.930610E+05 -1.851034E+05 -1.401744E+05
         5  10 -1.405816E+06 -4.288093E+06 -1.377350E+06  1.089527E+06 -1.659227E-09 -4.445282E-10
         5  11 -9.812730E+05 -3.286947E+06 -8.841755E+05  9.179153E+05 -2.118975E-09  6.237409E-10
         5  12 -7.037720E+05 -2.354212E+06 -5.952057E+05  9.583228E+05  2.969049E-11  2.051862E-09
         5  13 -1.925242E+05  6.067039E+05 -2.149168E+05  9.760569E+05  2.060668E-09 -6.776255E-12
         5  14 -4.186789E+04  6.246775E+05 -1.039056E+05  8.698358E+05  2.021243E-09  5.266712E-12
         5  15 -2.445792E+03  6.091099E+05 -5.564539E+04  9.756453E+05 -4.680633E-10 -4.090744E-11
         5  16  1.019094E+06  5.523615E+06  9.458537E+05  8.616561E+05 -7.015483E-11  5.335364E-10
         5  17  8.966094E+05  4.550966E+06  6.755992E+05  8.214278E+05 -1.209398E-09 -4.986731E-10
         5  18  6.983860E+05  3.580986E+06  4.835634E+05  9.930402E+05  3.076346E-11 -2.163734E-09
         5  19 -1.405756E+06 -4.287865E+06 -1.376947E+06  1.089549E+06  5.958692E+04  4.580465E+05
         5  20 -9.812262E+05 -3.286894E+06 -8.840359E+05  9.179451E+05  1.827163E+05  2.019914E+05
         5  21 -7.037346E+05 -2.354199E+06 -5.951359E+05  9.583146E+05  1.846197E+05 -5.450911E+04
         5  22 -1.925144E+05  6.067291E+05 -2.148677E+05  9.760640E+05  5.890141E+04  1.506283E+05
         5  23 -4.182971E+04  6.246964E+05 -1.038257E+05  8.698500E+05  1.823460E+05  9.662023E+04
         5  24 -2.408617E+03  6.091211E+05 -5.557781E+04  9.756516E+05  1.848592E+05  4.260669E+04
         5  25  1.019104E+06  5.523643E+06  9.459073E+05  8.616486E+05  5.833315E+04 -1.592174E+05
         5  26  8.966450E+05  4.550975E+06  6.756617E+05  8.214264E+05  1.819939E+05 -9.405328E+03
         5  27  6.984279E+05  3.581016E+06  4.836644E+05  9.930610E+05  1.851034E+05  1.401744E+05
         6   1 -5.543756E+05 -1.711537E+06 -4.613828E+05  9.754351E+05 -1.483587E+05  4.817179E+04
         6   2 -3.159715E+05 -7.434265E+05 -2.558346E+05  8.655861E+05 -9.550791E+04  6.754183E+04
         6   3 -8.327353E+04  2.208281E+05 -6.464004E+04  9.751407E+05 -3.701851E+04  8.687115E+04
         6   4 -4.444515E+03  6.165340E+05 -4.139772E+04  9.773215E+05 -1.486079E+05 -3.568361E+04
         6   5  3.607450E+03  6.185112E+05 -2.004736E+04  8.676134E+05 -9.583528E+04 -2.579343E+04
         6   6  7.660805E+03  6.173940E+05 -6.427445E+03  9.772805E+05 -3.743194E+04 -1.597278E+04
         6   7  5.451873E+05  2.949905E+06  3.784022E+05  9.792070E+05 -1.488570E+05 -1.198451E+05
         6   8  3.230913E+05  1.982288E+06  2.157084E+05  8.696425E+05 -9.616275E+04 -1.193273E+05
         6   9  9.859352E+04  1.014141E+06  5.182213E+04  9.794215E+05 -3.784589E+04 -1.188797E+05
         6  10 -5.543998E+05 -1.711545E+06 -4.614286E+05  9.754409E+05 -4.565280E-10 -5.752068E-10
         6  11 -3.159826E+05 -7.434339E+05 -2.558603E+05  8.655913E+05 -8.739476E-10  2.264954E-09
         6  12 -8.327703E+04  2.208196E+05 -6.465682E+04  9.751433E+05  1.014784E-10  4.698573E-09
         6  13 -4.468566E+03  6.165267E+05 -4.144159E+04  9.773173E+05  2.016396E-09 -7.972666E-11
         6  14  3.597411E+03  6.185081E+05 -2.006585E+04  8.676114E+05 -6.979460E-10  2.003333E-11
         6  15  7.659233E+03  6.173934E+05 -6.430554E+03  9.772800E+05 -1.082975E-09 -4.120907E-11
         6  16  5.451597E+05  2.949883E+06  3.783338E+05  9.791927E+05  7.457880E-11  5.280670E-10
         6  17  3.230775E+05  1.982270E+06  2.156644E+05  8.696333E+05 -2.925755E-09 -2.126056E-09
         6  18  9.858821E+04  1.014125E+06  5.179296E+04  9.794179E+05  4.434366E-10 -4.914052E-09
         6  19 -5.543756E+05 -1.711537E+06 -4.613828E+05  9.754351E+05  1.483587E+05 -4.817179E+04
         6  20 -3.159715E+05 -7.434265E+05 -2.558346E+05  8.655861E+05  9.550791E+04 -6.754183E+04
         6  21 -8.327353E+04  2.208281E+05 -6.464004E+04  9.751407E+05  3.701851E+04 -8.687115E+04
         6  22 -4.444515E+03  6.165340E+05 -4.139772E+04  9.773215E+05  1.486079E+05  3.568361E+04
         6  23  3.607450E+03  6.185112E+05 -2.004736E+04  8.676134E+05  9.583528E+04  2.579343E+04
         6  24  7.660805E+03  6.173940E+05 -6.427445E+03  9.772805E+05  3.743194E+04  1.597278E+04
         6  25  5.451873E+05  2.949905E+06  3.784022E+05  9.792070E+05  1.488570E+05  1.198451E+05
         6  26  3.230913E+05  1.982288E+06  2.157084E+05  8.696425E+05  9.616275E+04  1.193273E+05
         6  27  9.859352E+04  1.014141E+06  5.182213E+04  9.794215E+05  3.784589E+04  1.188797E+05
         7   1  6.583997E+04  8.561892E+05  5.632195E+04  9.750464E+05  2.192545E+03  9.290801E+04
         7   2  3.019821E+05  1.813257E+06  2.683405E+05  8.788930E+05  3.770737E+04 -8.495220E+03
         7   3  5.724780E+05  2.792069E+06  5.545141E+05  9.990218E+05  1.638075E+04 -1.099543E+05
         7   4  7.024309E+03  6.190674E+05 -9.335644E+02  9.766111E+05  1.754383E+03 -1.533485E+04
         7   5  1.140042E+04  6.165170E+05  1.084709E+04  8.684177E+05  3.766575E+04 -2.107005E+04
         7   6  3.363824E+04  6.183072E+05  3.048107E+04  9.765230E+05  1.668862E+04 -2.670456E+04
         7   7 -5.178916E+04  3.820222E+05 -5.814913E+04  9.781752E+05  1.315566E+03 -1.235366E+05
         7   8 -2.792748E+05 -5.788799E+05 -2.467297E+05  8.579607E+05  3.762449E+04 -3.362099E+04
         7   9 -5.055407E+05 -1.551132E+06 -4.938633E+05  9.540959E+05  1.699119E+04  5.625586E+04
         7  10  6.583765E+04  8.561799E+05  5.630575E+04  9.750462E+05 -3.200870E-10 -3.835038E-10
         7  11  3.019806E+05  1.813256E+06  2.683377E+05  8.788933E+05 -1.506941E-09 -6.645482E-10
         7  12  5.724745E+05  2.792056E+06  5.544909E+05  9.990233E+05 -1.820202E-10 -9.783062E-10
         7  13  7.024243E+03  6.190672E+05 -9.340119E+02  9.766111E+05 -7.347412E-10 -1.865648E-10
         7  14  1.139877E+04  6.165161E+05  1.084359E+04  8.684183E+05 -7.345385E-10  3.107765E-11
         7  15  3.363775E+04  6.183064E+05  3.047920E+04  9.765234E+05 -4.823505E-10  2.447820E-11
         7  16 -5.179326E+04  3.820058E+05 -5.817779E+04  9.781753E+05  4.656804E-10  3.613754E-10
         7  17 -2.792767E+05 -5.788815E+05 -2.467345E+05  8.579617E+05  3.875680E-11  7.666780E-10
         7  18 -5.055418E+05 -1.551136E+06 -4.938698E+05  9.540952E+05  3.832326E-10  9.144243E-10
         7  19  6.583997E+04  8.561892E+05  5.632195E+04  9.750464E+05 -2.192545E+03 -9.290801E+04
         7  20  3.019821E+05  1.813257E+06  2.683405E+05  8.788930E+05 -3.770737E+04  8.495220E+03
         7  21  5.724780E+05  2.792069E+06  5.545141E+05  9.990218E+05 -1.638075E+04  1.099543E+05
         7  22  7.024309E+03  6.190674E+05 -9.335644E+02  9.766111E+05 -1.754383E+03  1.533485E+04
         7  23  1.140042E+04  6.165170E+05  1.084709E+04  8.684177E+05 -3.766575E+04  2.107005E+04
         7  24  3.363824E+04  6.183072E+05  3.048107E+04  9.765230E+05 -1.668862E+04  2.670456E+04
         7  25 -5.178916E+04  3.820222E+05 -5.814913E+04  9.781752E+05 -1.315566E+03  1.235366E+05
         7  26 -2.792748E+05 -5.788799E+05 -2.467297E+05  8.579607E+05 -3.762449E+04  3.362099E+04
         7  27 -5.055407E+05 -1.551132E+06 -4.938633E+05  9.540959E+05 -1.699119E+04 -5.625586E+04
         8   1  1.953767E+06  9.343486E+04  1.038765E+05  5.848658E+04  7.140211E+04  6.706413E+00
         8   2  1.945208E+06  2.055530E+04  5.130819E+04  2.660444E+04  4.491358E+04  1.918920E+00
         8   3  1.953849E+06  2.757115E+03  2.971734E+04 -5.276876E+03  1.842506E+04 -1.561363E-01
         8   4  1.953763E+06  9.342845E+04  1.038756E+05 -2.053788E-09  7.140211E+04 -1.055196E-10
         8   5  1.945207E+06  2.055397E+04  5.130800E+04 -4.773911E-09  4.491358E+04 -4.068926E-10
         8   6  1.953849E+06  2.757062E+03  2.971734E+04 -3.325616E-10  1.842506E+04 -8.316412E-10
         8   7  1.953767E+06  9.343486E+04  1.038765E+05 -5.848658E+04  7.140211E+04 -6.706413E+00
         8   8  1.945208E+06  2.055530E+04  5.130819E+04 -2.660444E+04  4.491358E+04 -1.918920E+00
         8   9  1.953849E+06  2.757115E+03  2.971734E+04  5.276876E+03  1.842506E+04  1.561363E-01
         8  10  1.953761E+06  9.343350E+04  1.038670E+05  5.848658E+04  5.248831E-10 -2.945884E-11
         8  11  1.945206E+06  2.055476E+04  5.130441E+04  2.660444E+04  1.711471E-10 -1.648177E-10
         8  12  1.953849E+06  2.757024E+03  2.971671E+04 -5.276876E+03  1.773912E-10 -1.901643E-10
         8  13  1.953758E+06  9.342709E+04  1.038661E+05  9.354032E-10 -1.252253E-09 -1.171385E-10
         8  14  1.945205E+06  2.055343E+04  5.130422E+04 -6.480391E-10  9.906625E-10 -4.660219E-10
         8  15  1.953849E+06  2.756972E+03  2.971670E+04 -5.810401E-10 -2.874948E-11 -7.426982E-10
         8  16  1.953761E+06  9.343350E+04  1.038670E+05 -5.848658E+04 -8.771540E-10 -1.956257E-10
         8  17  1.945206E+06  2.055476E+04  5.130441E+04 -2.660444E+04  1.693311E-09 -7.869235E-10
         8  18  1.953849E+06  2.757024E+03  2.971671E+04  5.276876E+03 -1.036447E-09 -1.267571E-09
         8  19  1.953767E+06  9.343486E+04  1.038765E+05  5.848658E+04 -7.140211E+04 -6.706413E+00
         8  20  1.945208E+06  2.055530E+04  5.130819E+04  2.660444E+04 -4.491358E+04 -1.918920E+00
         8  21  1.953849E+06  2.757115E+03  2.971734E+04 -5.276876E+03 -1.842506E+04  1.561363E-01
         8  22  1.953763E+06  9.342845E+04  1.038756E+05 -2.555185E-09 -7.140211E+04 -1.245099E-10
         8  23  1.945207E+06  2.055397E+04  5.130800E+04 -8.544795E-10 -4.491358E+04 -5.342609E-10
         8  24  1.953849E+06  2.757062E+03  2.971734E+04 -1.747430E-09 -1.842506E+04 -6.461352E-10
         8  25  1.953767E+06  9.343486E+04  1.038765E+05 -5.848658E+04 -7.140211E+04  6.706413E+00
         8  26  1.945208E+06  2.055530E+04  5.130819E+04 -2.660444E+04 -4.491358E+04  1.918920E+00
         8  27  1.953849E+06  2.757115E+03  2.971734E+04  5.276876E+03 -1.842506E+04 -1.561363E-01
         9   1  1.950434E+06  4.138397E+03  2.384105E+04  1.947247E+03  1.437966E+04  4.496658E-02
         9   2  1.949508E+06  4.964828E+02  1.652665E+04  8.493589E+02  6.146809E+03  8.384199E-03
         9   3  1.950441E+06  1.908654E+01  1.535094E+04 -2.485142E+02 -2.085890E+03  8.324597E-04
         9   4  1.950434E+06  4.138390E+03  2.384105E+04  8.144692E-09  1.437966E+04 -4.197899E-10
         9   5  1.949508E+06  4.964814E+02  1.652665E+04 -2.036428E-08  6.146809E+03  8.244568E-10
         9   6  1.950441E+06  1.908642E+01  1.535094E+04 -5.127734E-08 -2.085890E+03  9.141734E-10
         9   7  1.950434E+06  4.138397E+03  2.384105E+04 -1.947247E+03  1.437966E+04 -4.496659E-02
         9   8  1.949508E+06  4.964828E+02  1.652665E+04 -8.493589E+02  6.146809E+03 -8.384197E-03
         9   9  1.950441E+06  1.908654E+01  1.535094E+04  2.485142E+02 -2.085890E+03 -8.324580E-04
         9  10  1.950434E+06  4.138342E+03  2.384067E+04  1.947247E+03 -4.060747E-09 -4.176459E-11
         9  11  1.949508E+06  4.964727E+02  1.652658E+04  8.493589E+02  8.783380E-09  5.618585E-10
         9  12  1.950441E+06  1.908538E+01  1.535094E+04 -2.485142E+02  2.315706E-08  1.207290E-09
         9  13  1.950434E+06  4.138335E+03  2.384067E+04 -2.485966E-09  3.105896E-10 -4.693342E-10
         9  14  1.949508E+06  4.964713E+02  1.652658E+04 -2.029219E-09 -3.631631E-10  4.476238E-10
         9  15  1.950441E+06  1.908526E+01  1.535094E+04  2.662937E-09  1.394833E-09  1.030435E-09
         9  16  1.950434E+06  4.138342E+03  2.384067E+04 -1.947247E+03  5.799091E-09 -9.483526E-10
         9  17  1.949508E+06  4.964727E+02  1.652658E+04 -8.493589E+02 -8.338169E-09  4.324639E-10
         9  18  1.950441E+06  1.908538E+01  1.535094E+04  2.485142E+02 -2.362241E-08  7.880931E-10
         9  19  1.950434E+06  4.138397E+03  2.384105E+04  1.947247E+03 -1.437966E+04 -4.496658E-02
         9  20  1.949508E+06  4.964828E+02  1.652665E+04  8.493589E+02 -6.146809E+03 -8.384198E-03
         9  21  1.950441E+06  1.908654E+01  1.535094E+04 -2.485142E+02  2.085890E+03 -8.324571E-04
         9  22  1.950434E+06  4.138390E+03  2.384105E+04 -1.736467E-08 -1.437966E+04 -5.264447E-10
         9  23  1.949508E+06  4.964814E+02  1.652665E+04  1.412494E-08 -6.146809E+03  5.672181E-11
         9  24  1.950441E+06  1.908642E+01  1.535094E+04  4.752608E-08  2.085890E+03  1.130154E-09
         9  25  1.950434E+06  4.138397E+03  2.384105E+04 -1.947247E+03 -1.437966E+04  4.496658E-02
         9  26  1.949508E+06  4.964828E+02  1.652665E+04 -8.493589E+02 -6.146809E+03  8.384198E-03
         9  27  1.950441E+06  1.908654E+01  1.535094E+04  2.485142E+02  2.085890E+03  8.324597E-04
        10   1  1.950651E+06 -5.914604E+01  1.655360E+04  9.813230E+02 -4.877614E+03 -7.686685E-03
        10   2  1.949241E+06  1.031342E+03  2.313069E+04 -1.059097E+03 -1.641631E+04  2.792110E-02
        10   3  1.950636E+06  7.351571E+03  3.851044E+04 -3.099537E+03 -2.795531E+04  1.391496E-01
        10   4  1.950651E+06 -5.914784E+01  1.655360E+04  5.116630E-08 -4.877614E+03  4.994514E-10
        10   5  1.949241E+06  1.031340E+03  2.313069E+04  1.916929E-08 -1.641631E+04 -7.263383E-11
        10   6  1.950636E+06  7.351553E+03  3.851044E+04 -1.198966E-08 -2.795531E+04 -6.607869E-10
        10   7  1.950651E+06 -5.914604E+01  1.655360E+04 -9.813230E+02 -4.877614E+03  7.686687E-03
        10   8  1.949241E+06  1.031342E+03  2.313069E+04  1.059097E+03 -1.641631E+04 -2.792110E-02
        10   9  1.950636E+06  7.351571E+03  3.851044E+04  3.099537E+03 -2.795531E+04 -1.391496E-01
        10  10  1.950651E+06 -5.915240E+01  1.655356E+04  9.813230E+02 -2.180609E-08  1.529865E-09
        10  11  1.949241E+06  1.031270E+03  2.313019E+04 -1.059097E+03 -8.579034E-09  1.138237E-09
        10  12  1.950635E+06  7.351362E+03  3.850898E+04 -3.099537E+03  6.582450E-09 -1.817518E-10
        10  13  1.950651E+06 -5.915421E+01  1.655356E+04  6.825881E-10  1.996922E-09  1.019791E-09
        10  14  1.949241E+06  1.031268E+03  2.313019E+04 -1.339871E-10  8.780070E-11  5.001398E-10
        10  15  1.950635E+06  7.351344E+03  3.850897E+04  3.714183E-10  1.507021E-09 -2.672030E-10
        10  16  1.950651E+06 -5.915240E+01  1.655356E+04 -9.813230E+02  2.214297E-08  4.807405E-10
        10  17  1.949241E+06  1.031270E+03  2.313019E+04  1.059097E+03  8.359531E-09 -1.288924E-10
        10  18  1.950635E+06  7.351362E+03  3.850898E+04  3.099537E+03 -5.455046E-09 -3.040962E-10
        10  19  1.950651E+06 -5.914604E+01  1.655360E+04  9.813230E+02  4.877614E+03  7.686689E-03
        10  20  1.949241E+06  1.031342E+03  2.313069E+04 -1.059097E+03  1.641631E+04 -2.792109E-02
        10  21  1.950636E+06  7.351571E+03  3.851044E+04 -3.099537E+03  2.795531E+04 -1.391496E-01
        10  22  1.950651E+06 -5.914784E+01  1.655360E+04 -5.520704E-08  4.877614E+03  1.524672E-09
        10  23  1.949241E+06  1.031340E+03  2.313069E+04 -2.054455E-08  1.641631E+04  1.086841E-09
        10  24  1.950636E+06  7.351553E+03  3.851044E+04  1.029059E-08  2.795531E+04  1.390888E-10
        10  25  1.950651E+06 -5.914604E+01  1.655360E+04 -9.813230E+02  4.877614E+03 -7.686685E-03
        10  26  1.949241E+06  1.031342E+03  2.313069E+04  1.059097E+03  1.641631E+04  2.792110E-02
        10  27  1.950636E+06  7.351571E+03  3.851044E+04  3.099537E+03  2.795531E+04  1.391496E-01
        11   1  1.956698E+06  4.906201E+03  4.966590E+04  9.464044E+03 -3.453240E+04 -5.248321E-01
        11   2  1.941609E+06  3.603183E+04  8.871732E+04 -4.639130E+04 -8.035351E+04  5.986464E+00
        11   3  1.956557E+06  1.635663E+05  1.816400E+05 -1.022492E+05 -1.261747E+05  2.071845E+01
        11   4  1.956698E+06  4.906034E+03  4.966588E+04 -1.495771E-09 -3.453240E+04 -5.088521E-10
        11   5  1.941607E+06  3.602780E+04  8.871675E+04  3.278520E-09 -8.035351E+04  1.890398E-10
        11   6  1.956546E+06  1.635467E+05  1.816372E+05 -1.946471E-09 -1.261747E+05  1.722355E-10
        11   7  1.956698E+06  4.906201E+03  4.966590E+04 -9.464044E+03 -3.453240E+04  5.248321E-01
        11   8  1.941609E+06  3.603183E+04  8.871732E+04  4.639130E+04 -8.035351E+04 -5.986464E+00
        11   9  1.956557E+06  1.635663E+05  1.816400E+05  1.022492E+05 -1.261747E+05 -2.071845E+01
        11  10  1.956697E+06  4.905882E+03  4.966367E+04  9.464044E+03  1.805261E-09 -8.225093E-10
        11  11  1.941602E+06  3.603010E+04  8.870523E+04 -4.639130E+04  1.058536E-09 -7.751228E-10
        11  12  1.956540E+06  1.635621E+05  1.816102E+05 -1.022492E+05  6.435575E-10 -2.570706E-10
        11  13  1.956697E+06  4.905715E+03  4.966364E+04 -1.348313E-09  8.427263E-11 -4.485889E-10
        11  14  1.941600E+06  3.602607E+04  8.870465E+04 -1.466268E-09 -1.164429E-09 -2.121843E-10
        11  15  1.956529E+06  1.635425E+05  1.816074E+05  1.118854E-09  6.953316E-10 -4.404602E-11
        11  16  1.956697E+06  4.905882E+03  4.966367E+04 -9.464044E+03  7.424648E-10 -8.106550E-11
        11  17  1.941602E+06  3.603010E+04  8.870523E+04  4.639130E+04 -1.472506E-09  4.073858E-10
        11  18  1.956540E+06  1.635621E+05  1.816102E+05  1.022492E+05  3.622231E-10  1.996417E-10
        11  19  1.956698E+06  4.906201E+03  4.966590E+04  9.464044E+03  3.453240E+04  5.248321E-01
        11  20  1.941609E+06  3.603183E+04  8.871732E+04 -4.639130E+04  8.035351E+04 -5.986464E+00
        11  21  1.956557E+06  1.635663E+05  1.816400E+05 -1.022492E+05  1.261747E+05 -2.071845E+01
        11  22  1.956698E+06  4.906034E+03  4.966588E+04 -2.240735E-09  3.453240E+04 -3.767736E-10
        11  23  1.941607E+06  3.602780E+04  8.871675E+04 -8.052146E-10  8.035351E+04 -6.062034E-10
        11  24  1.956546E+06  1.635467E+05  1.816372E+05 -3.958989E-09  1.261747E+05 -2.495552E-10
        11  25  1.956698E+06  4.906201E+03  4.966590E+04 -9.464044E+03  3.453240E+04 -5.248321E-01
        11  26  1.941609E+06  3.603183E+04  8.871732E+04  4.639130E+04  8.035351E+04  5.986464E+00
        11  27  1.956557E+06  1.635663E+05  1.816400E+05  1.022492E+05  1.261747E+05  2.071845E+01
        12   1 -1.148991E+06 -3.583422E+06 -1.151519E+06  9.255745E+05 -3.978161E+04 -4.494479E+05
        12   2 -6.970350E+05 -2.818731E+06 -6.978385E+05  7.370926E+05 -1.199660E+05 -2.201843E+05
        12   3 -4.576953E+05 -2.136298E+06 -4.470704E+05  7.076315E+05 -1.169406E+05  9.379787E+03
        12   4 -3.199327E+05 -2.386393E+05 -3.562225E+05  7.292429E+05 -3.934525E+04 -2.457021E+05
        12   5 -6.989159E+04 -2.089114E+05 -1.749685E+05  6.494444E+05 -1.197782E+05 -1.552070E+05
        12   6 -7.775341E+03 -2.373810E+05 -9.954913E+04  7.287681E+05 -1.170805E+05 -6.470961E+04
        12   7  5.084892E+05  3.116628E+06  4.384709E+05  5.318344E+05 -3.904016E+04 -4.085650E+04
        12   8  5.568647E+05  2.407455E+06  3.475773E+05  5.614131E+05 -1.196093E+05 -8.995999E+04
        12   9  4.419445E+05  1.665060E+06  2.478466E+05  7.499675E+05 -1.172252E+05 -1.390199E+05
        12  10 -1.149047E+06 -3.583641E+06 -1.151904E+06  9.255601E+05  2.459641E-10  1.153325E-09
        12  11 -6.970634E+05 -2.818787E+06 -6.979569E+05  7.370713E+05 -2.402022E-10 -7.566801E-11
        12  12 -4.577100E+05 -2.136302E+06 -4.470962E+05  7.076324E+05 -6.261770E-10 -1.552434E-09
        12  13 -3.199505E+05 -2.387046E+05 -3.563388E+05  7.292352E+05  2.512664E-10  4.819284E-11
        12  14 -6.991344E+04 -2.089411E+05 -1.750406E+05  6.494294E+05  1.156000E-09  8.200075E-11
        12  15 -7.791171E+03 -2.373891E+05 -9.958272E+04  7.287620E+05  6.361114E-10 -9.125230E-11
        12  16  5.084871E+05  3.116626E+06  4.384649E+05  5.318331E+05 -8.558055E-10 -1.122718E-09
        12  17  5.568472E+05  2.407443E+06  3.475353E+05  5.614044E+05 -7.337089E-10  1.764780E-10
        12  18  4.419246E+05  1.665035E+06  2.477846E+05  7.499544E+05 -6.511906E-10  1.036148E-09
        12  19 -1.148991E+06 -3.583422E+06 -1.151519E+06  9.255745E+05  3.978161E+04  4.494479E+05
        12  20 -6.970350E+05 -2.818731E+06 -6.978385E+05  7.370926E+05  1.199660E+05  2.201843E+05
        12  21 -4.576953E+05 -2.136298E+06 -4.470704E+05  7.076315E+05  1.169406E+05 -9.379787E+03
        12  22 -3.199327E+05 -2.386393E+05 -3.562225E+05  7.292429E+05  3.934525E+04  2.457021E+05
        12  23 -6.989159E+04 -2.089114E+05 -1.749685E+05  6.494444E+05  1.197782E+05  1.552070E+05
        12  24 -7.775341E+03 -2.373810E+05 -9.954913E+04  7.287681E+05  1.170805E+05  6.470961E+04
        12  25  5.084892E+05  3.116628E+06  4.384709E+05  5.318344E+05  3.904016E+04  4.085650E+04
        12  26  5.568647E+05  2.407455E+06  3.475773E+05  5.614131E+05  1.196093E+05  8.995999E+04
        12  27  4.419445E+05  1.665060E+06  2.478466E+05  7.499675E+05  1.172252E+05  1.390199E+05
        13   1 -3.487434E+05 -1.649074E+06 -3.370732E+05  7.343187E+05 -8.940817E+04  1.354902E+04
        13   2 -1.647227E+05 -9.219491E+05 -1.725392E+05  6.478088E+05 -4.912889E+04  4.394157E+04
        13   3  5.903514E+03 -2.020519E+05 -3.133498E+04  7.256159E+05 -5.947996E+03  7.434201E+04
        13   4 -1.209277E+04 -2.256779E+05 -7.863778E+04  7.299600E+05 -8.955237E+04 -5.150479E+04
        13   5 -4.111096E+02 -2.220740E+05 -5.130639E+04  6.477907E+05 -4.930228E+04 -2.596605E+04
        13   6 -1.238720E+03 -2.253420E+05 -4.389231E+04  7.299325E+05 -6.152735E+03 -4.530350E+02
        13   7  3.244463E+05  1.199702E+06  1.797330E+05  7.255889E+05 -8.969542E+04 -1.167039E+05
        13   8  1.638767E+05  4.782926E+05  6.992781E+04  6.477721E+05 -4.947552E+04 -9.595013E+04
        13   9 -8.377963E+03 -2.486197E+05 -5.642867E+04  7.342491E+05 -6.358518E+03 -7.524495E+04
        13  10 -3.487521E+05 -1.649076E+06 -3.370885E+05  7.343197E+05  4.183331E-10  3.719896E-10
        13  11 -1.647258E+05 -9.219518E+05 -1.725474E+05  6.478105E+05 -9.761954E-10 -1.209861E-10
        13  12  5.901990E+03 -2.020578E+05 -3.134543E+04  7.256162E+05  1.467293E-10 -6.353159E-10
        13  13 -1.210208E+04 -2.256829E+05 -7.865781E+04  7.299563E+05 -2.140396E-09  1.276403E-10
        13  14 -4.138986E+02 -2.220754E+05 -5.131222E+04  6.477897E+05  1.088133E-09  8.747468E-11
        13  15 -1.238760E+03 -2.253420E+05 -4.389238E+04  7.299325E+05  6.702821E-10 -1.417065E-10
        13  16  3.244340E+05  1.199685E+06  1.796924E+05  7.255805E+05 -6.495288E-10 -3.124530E-10
        13  17  1.638716E+05  4.782821E+05  6.990595E+04  6.477683E+05 -2.539591E-10  1.235974E-10
        13  18 -8.379526E+03 -2.486258E+05 -5.643938E+04  7.342487E+05 -3.397021E-10  1.735073E-10
        13  19 -3.487434E+05 -1.649074E+06 -3.370732E+05  7.343187E+05  8.940817E+04 -1.354902E+04
        13  20 -1.647227E+05 -9.219491E+05 -1.725392E+05  6.478088E+05  4.912889E+04 -4.394157E+04
        13  21  5.903514E+03 -2.020519E+05 -3.133498E+04  7.256159E+05  5.947996E+03 -7.434201E+04
        13  22 -1.209277E+04 -2.256779E+05 -7.863778E+04  7.299600E+05  8.955237E+04  5.150479E+04
        13  23 -4.111096E+02 -2.220740E+05 -5.130639E+04  6.477907E+05  4.930228E+04  2.596605E+04
        13  24 -1.238720E+03 -2.253420E+05 -4.389231E+04  7.299325E+05  6.152735E+03  4.530350E+02
        13  25  3.244463E+05  1.199702E+06  1.797330E+05  7.255889E+05  8.969542E+04  1.167039E+05
        13  26  1.638767E+05  4.782926E+05  6.992781E+04  6.477721E+05  4.947552E+04  9.595013E+04
        13  27 -8.377963E+03 -2.486197E+05 -5.642867E+04  7.342491E+05  6.358518E+03  7.524495E+04
        14   1  1.194238E+05  2.701806E+05  5.439166E+04  7.350381E+05  2.310383E+04  8.629226E+04
        14   2  2.741914E+05  9.968767E+05  1.932044E+05  6.214442E+05  4.534057E+04  3.342898E+04
        14   3  3.850604E+05  1.719740E+06  3.553100E+05  6.693122E+05  1.745492E+04 -1.944654E+04
        14   4 -1.657491E+02 -2.280807E+05 -4.517443E+04  7.292949E+05  2.288799E+04  6.511316E+03
        14   5 -1.954349E+04 -2.188769E+05 -6.107001E+04  6.486307E+05  4.535984E+04  3.790550E+04
        14   6 -9.747349E+04 -2.286630E+05 -1.121846E+05  7.294882E+05  1.765846E+04  6.934668E+04
        14   7 -1.197670E+05 -7.260913E+05 -1.447291E+05  7.235561E+05  2.267351E+04 -7.320691E+04
        14   8 -3.133700E+05 -1.433232E+06 -3.154259E+05  6.757617E+05  4.537953E+04  4.237336E+04
        14   9 -5.802645E+05 -2.173570E+06 -5.799168E+05  7.894713E+05  1.787964E+04  1.578626E+05
        14  10  1.194212E+05  2.701725E+05  5.437668E+04  7.350365E+05 -6.566156E-10 -5.051834E-10
        14  11  2.741889E+05  9.968750E+05  1.931984E+05  6.214430E+05 -9.927582E-10  2.063135E-10
        14  12  3.850599E+05  1.719739E+06  3.553087E+05  6.693124E+05  2.472762E-10  4.201544E-10
        14  13 -1.663227E+02 -2.280809E+05 -4.517550E+04  7.292947E+05 -1.132166E-09  1.604524E-10
        14  14 -1.954608E+04 -2.188790E+05 -6.107657E+04  6.486293E+05  1.468605E-09  1.689030E-10
        14  15 -9.747511E+04 -2.286682E+05 -1.121942E+05  7.294873E+05 -8.846215E-10 -2.976797E-11
        14  16 -1.197690E+05 -7.260972E+05 -1.447402E+05  7.235574E+05  9.745242E-12  5.470683E-10
        14  17 -3.133726E+05 -1.433235E+06 -3.154331E+05  6.757601E+05 -3.536319E-10 -2.263520E-10
        14  18 -5.802716E+05 -2.173597E+06 -5.799644E+05  7.894690E+05 -2.339045E-10 -6.058684E-10
        14  19  1.194238E+05  2.701806E+05  5.439166E+04  7.350381E+05 -2.310383E+04 -8.629226E+04
        14  20  2.741914E+05  9.968767E+05  1.932044E+05  6.214442E+05 -4.534057E+04 -3.342898E+04
        14  21  3.850604E+05  1.719740E+06  3.553100E+05  6.693122E+05 -1.745492E+04  1.944654E+04
        14  22 -1.657491E+02 -2.280807E+05 -4.517443E+04  7.292949E+05 -2.288799E+04 -6.511316E+03
        14  23 -1.954349E+04 -2.188769E+05 -6.107001E+04  6.486307E+05 -4.535984E+04 -3.790550E+04
        14  24 -9.747349E+04 -2.286630E+05 -1.121846E+05  7.294882E+05 -1.765846E+04 -6.934668E+04
        14  25 -1.197670E+05 -7.260913E+05 -1.447291E+05  7.235561E+05 -2.267351E+04  7.320691E+04
        14  26 -3.133700E+05 -1.433232E+06 -3.154259E+05  6.757617E+05 -4.537953E+04 -4.237336E+04
        14  27 -5.802645E+05 -2.173570E+06 -5.799168E+05  7.894713E+05 -1.787964E+04 -1.578626E+05
        15   1  1.478382E+06  7.332583E+04  8.151279E+04  4.587528E+04  5.605694E+04  4.132831E+00
        15   2  1.471656E+06  1.612765E+04  4.022140E+04  2.086187E+04  3.529400E+04  1.183301E+00
        15   3  1.478431E+06  2.163658E+03  2.323324E+04 -4.150651E+03  1.453138E+04 -9.693016E-02
        15   4  1.478379E+06  7.332189E+04  8.151223E+04  3.234300E-10  5.605694E+04 -1.311141E-11
        15   5  1.471656E+06  1.612684E+04  4.022128E+04 -1.203021E-09  3.529400E+04 -9.489569E-11
        15   6  1.478431E+06  2.163626E+03  2.323323E+04 -6.900338E-10  1.453138E+04 -1.779903E-10
        15   7  1.478382E+06  7.332583E+04  8.151279E+04 -4.587528E+04  5.605694E+04 -4.132831E+00
        15   8  1.471656E+06  1.612765E+04  4.022140E+04 -2.086187E+04  3.529400E+04 -1.183301E+00
        15   9  1.478431E+06  2.163658E+03  2.323324E+04  4.150651E+03  1.453138E+04  9.693016E-02
        15  10  1.478378E+06  7.332499E+04  8.150690E+04  4.587528E+04  7.047067E-10 -2.908546E-10
        15  11  1.471655E+06  1.612732E+04  4.021906E+04  2.086187E+04 -1.159534E-10 -6.004906E-10
        15  12  1.478430E+06  2.163602E+03  2.323284E+04 -4.150651E+03 -6.336601E-10  2.140120E-11
        15  13  1.478376E+06  7.332105E+04  8.150634E+04  2.089114E-09  9.457455E-10 -2.071400E-10
        15  14  1.471654E+06  1.612650E+04  4.021894E+04 -1.767093E-09  1.077640E-09 -5.285006E-10
        15  15  1.478430E+06  2.163569E+03  2.323284E+04 -7.487583E-10  1.264243E-09 -2.795082E-10
        15  16  1.478378E+06  7.332499E+04  8.150690E+04 -4.587528E+04 -6.597654E-10 -1.558144E-10
        15  17  1.471655E+06  1.612732E+04  4.021906E+04 -2.086187E+04 -4.613139E-11 -4.576844E-10
        15  18  1.478430E+06  2.163602E+03  2.323284E+04  4.150651E+03 -1.780174E-09 -5.936939E-10
        15  19  1.478382E+06  7.332583E+04  8.151279E+04  4.587528E+04 -5.605694E+04 -4.132831E+00
        15  20  1.471656E+06  1.612765E+04  4.022140E+04  2.086187E+04 -3.529400E+04 -1.183301E+00
        15  21  1.478431E+06  2.163658E+03  2.323324E+04 -4.150651E+03 -1.453138E+04  9.693016E-02
        15  22  1.478379E+06  7.332189E+04  8.151223E+04  6.239919E-10 -5.605694E+04 -4.004532E-10
        15  23  1.471656E+06  1.612684E+04  4.022128E+04 -1.243003E-09 -3.529400E+04 -9.799703E-10
        15  24  1.478431E+06  2.163626E+03  2.323323E+04 -5.000054E-09 -1.453138E+04 -3.645695E-10
        15  25  1.478382E+06  7.332583E+04  8.151279E+04 -4.587528E+04 -5.605694E+04  4.132831E+00
        15  26  1.471656E+06  1.612765E+04  4.022140E+04 -2.086187E+04 -3.529400E+04  1.183301E+00
        15  27  1.478431E+06  2.163658E+03  2.323324E+04  4.150651E+03 -1.453138E+04 -9.693016E-02
        16   1  1.475748E+06  3.250616E+03  1.859146E+04  1.516015E+03  1.137651E+04  2.771724E-02
        16   2  1.475028E+06  3.949132E+02  1.276065E+04  6.508986E+02  5.020270E+03  5.251436E-03
        16   3  1.475752E+06  1.156927E+01  1.167899E+04 -2.142316E+02 -1.336047E+03  4.599833E-04
        16   4  1.475748E+06  3.250612E+03  1.859146E+04  1.506582E-09  1.137651E+04 -2.339482E-10
        16   5  1.475028E+06  3.949124E+02  1.276065E+04  3.645910E-09  5.020270E+03 -2.731413E-10
        16   6  1.475752E+06  1.156918E+01  1.167899E+04 -3.225971E-10 -1.336047E+03 -1.690381E-10
        16   7  1.475748E+06  3.250616E+03  1.859146E+04 -1.516015E+03  1.137651E+04 -2.771724E-02
        16   8  1.475028E+06  3.949132E+02  1.276065E+04 -6.508986E+02  5.020270E+03 -5.251436E-03
        16   9  1.475752E+06  1.156927E+01  1.167899E+04  2.142316E+02 -1.336047E+03 -4.599838E-04
        16  10  1.475747E+06  3.250582E+03  1.859122E+04  1.516015E+03  3.327170E-10  5.368550E-10
        16  11  1.475028E+06  3.949065E+02  1.276061E+04  6.508986E+02  6.264403E-10  6.553769E-10
        16  12  1.475752E+06  1.156879E+01  1.167899E+04 -2.142316E+02  6.472985E-10  2.526903E-11
        16  13  1.475747E+06  3.250577E+03  1.859122E+04 -3.369521E-10 -2.421230E-09  8.289304E-11
        16  14  1.475028E+06  3.949057E+02  1.276061E+04 -1.135935E-09  2.148384E-09  3.830530E-10
        16  15  1.475752E+06  1.156871E+01  1.167899E+04  4.728535E-10  6.776041E-11  2.836285E-10
        16  16  1.475747E+06  3.250582E+03  1.859122E+04 -1.516015E+03 -8.799539E-10 -4.087180E-10
        16  17  1.475028E+06  3.949065E+02  1.276061E+04 -6.508986E+02 -1.268424E-09  8.317580E-11
        16  18  1.475752E+06  1.156879E+01  1.167899E+04  2.142316E+02 -7.254864E-12  5.468388E-10
        16  19  1.475748E+06  3.250616E+03  1.859146E+04  1.516015E+03 -1.137651E+04 -2.771724E-02
        16  20  1.475028E+06  3.949132E+02  1.276065E+04  6.508986E+02 -5.020270E+03 -5.251435E-03
        16  21  1.475752E+06  1.156927E+01  1.167899E+04 -2.142316E+02  1.336047E+03 -4.599833E-04
        16  22  1.475748E+06  3.250612E+03  1.859146E+04 -5.371198E-09 -1.137651E+04  4.122607E-10
        16  23  1.475028E+06  3.949124E+02  1.276065E+04 -5.423807E-10 -5.020270E+03  1.030347E-09
        16  24  1.475752E+06  1.156918E+01  1.167899E+04 -1.817184E-09  1.336047E+03  7.635118E-10
        16  25  1.475748E+06  3.250616E+03  1.859146E+04 -1.516015E+03 -1.137651E+04  2.771724E-02
        16  26  1.475028E+06  3.949132E+02  1.276065E+04 -6.508986E+02 -5.020270E+03  5.251437E-03
        16  27  1.475752E+06  1.156927E+01  1.167899E+04  2.142316E+02  1.336047E+03  4.599850E-04
        17   1  1.475896E+06 -4.231077E+01  1.250623E+04  7.181712E+02 -3.451279E+03 -3.983320E-03
        17   2  1.474845E+06  7.626451E+02  1.730358E+04 -7.950765E+02 -1.208149E+04  1.543715E-02
        17   3  1.475888E+06  5.460991E+03  2.868335E+04 -2.308318E+03 -2.071176E+04  7.683347E-02
        17   4  1.475896E+06 -4.231174E+01  1.250623E+04 -4.289741E-10 -3.451279E+03 -1.493509E-10
        17   5  1.474845E+06  7.626440E+02  1.730358E+04  1.544332E-09 -1.208149E+04 -4.015238E-10
        17   6  1.475888E+06  5.460981E+03  2.868334E+04 -1.028521E-09 -2.071176E+04 -1.029674E-09
        17   7  1.475896E+06 -4.231077E+01  1.250623E+04 -7.181712E+02 -3.451279E+03  3.983319E-03
        17   8  1.474845E+06  7.626451E+02  1.730358E+04  7.950765E+02 -1.208149E+04 -1.543715E-02
        17   9  1.475888E+06  5.460991E+03  2.868335E+04  2.308318E+03 -2.071176E+04 -7.683348E-02
        17  10  1.475896E+06 -4.231396E+01  1.250621E+04  7.181712E+02  1.957728E-09 -5.964305E-10
        17  11  1.474845E+06  7.626061E+02  1.730331E+04 -7.950765E+02  6.448689E-10 -9.816455E-10
        17  12  1.475887E+06  5.460877E+03  2.868254E+04 -2.308318E+03  3.736263E-10 -6.952506E-10
        17  13  1.475896E+06 -4.231492E+01  1.250621E+04 -1.961469E-09  1.582741E-09 -5.068926E-11
        17  14  1.474845E+06  7.626049E+02  1.730331E+04  1.085391E-09  2.295423E-09 -5.558779E-10
        17  15  1.475887E+06  5.460867E+03  2.868254E+04 -2.577517E-09  1.454507E-09 -5.779333E-10
        17  16  1.475896E+06 -4.231396E+01  1.250621E+04 -7.181712E+02 -5.779521E-10  4.378897E-10
        17  17  1.474845E+06  7.626061E+02  1.730331E+04  7.950765E+02 -1.175258E-09 -1.089043E-10
        17  18  1.475887E+06  5.460877E+03  2.868254E+04  2.308318E+03 -8.976547E-10 -4.652131E-10
        17  19  1.475896E+06 -4.231077E+01  1.250623E+04  7.181712E+02  3.451279E+03  3.983319E-03
        17  20  1.474845E+06  7.626451E+02  1.730358E+04 -7.950765E+02  1.208149E+04 -1.543715E-02
        17  21  1.475888E+06  5.460991E+03  2.868335E+04 -2.308318E+03  2.071176E+04 -7.683348E-02
        17  22  1.475896E+06 -4.231174E+01  1.250623E+04 -8.125779E-10  3.451279E+03  5.893566E-11
        17  23  1.474845E+06  7.626440E+02  1.730358E+04  6.601425E-10  1.208149E+04 -6.965689E-10
        17  24  1.475888E+06  5.460981E+03  2.868334E+04 -6.673176E-09  2.071176E+04 -1.175110E-10
        17  25  1.475896E+06 -4.231077E+01  1.250623E+04 -7.181712E+02  3.451279E+03 -3.983318E-03
        17  26  1.474845E+06  7.626451E+02  1.730358E+04  7.950765E+02  1.208149E+04  1.543715E-02
        17  27  1.475888E+06  5.460991E+03  2.868335E+04  2.308318E+03  2.071176E+04  7.683348E-02
        18   1  1.480392E+06  3.640322E+03  3.695686E+04  7.033161E+03 -2.560707E+04 -2.894312E-01
        18   2  1.469184E+06  2.677259E+04  6.595791E+04 -3.447064E+04 -5.966955E+04  3.305568E+00
        18   3  1.480313E+06  1.215815E+05  1.350191E+05 -7.597522E+04 -9.373155E+04  1.144456E+01
        18   4  1.480392E+06  3.640230E+03  3.695684E+04  5.372158E-10 -2.560707E+04 -7.352102E-10
        18   5  1.469183E+06  2.677036E+04  6.595759E+04  5.968145E-10 -5.966955E+04  3.290856E-10
        18   6  1.480307E+06  1.215707E+05  1.350176E+05 -2.441833E-09 -9.373155E+04  3.176314E-10
        18   7  1.480392E+06  3.640322E+03  3.695686E+04 -7.033161E+03 -2.560707E+04  2.894312E-01
        18   8  1.469184E+06  2.677259E+04  6.595791E+04  3.447064E+04 -5.966955E+04 -3.305568E+00
        18   9  1.480313E+06  1.215815E+05  1.350191E+05  7.597522E+04 -9.373155E+04 -1.144456E+01
        18  10  1.480391E+06  3.640147E+03  3.695563E+04  7.033161E+03 -3.859018E-11 -2.652889E-10
        18  11  1.469180E+06  2.677164E+04  6.595123E+04 -3.447064E+04 -1.915549E-10  3.120970E-10
        18  12  1.480303E+06  1.215791E+05  1.350026E+05 -7.597522E+04  4.941601E-10  1.548356E-10
        18  13  1.480391E+06  3.640054E+03  3.695561E+04 -6.867082E-11  1.339702E-09 -2.759922E-10
        18  14  1.469179E+06  2.676941E+04  6.595092E+04 -3.375726E-10  2.767721E-10  1.774345E-10
        18  15  1.480297E+06  1.215683E+05  1.350011E+05 -6.402119E-10 -3.058575E-10  1.145105E-10
        18  16  1.480391E+06  3.640147E+03  3.695563E+04 -7.033161E+03  4.594647E-11 -3.222525E-10
        18  17  1.469180E+06  2.677164E+04  6.595123E+04  3.447064E+04 -6.009141E-10 -2.067441E-13
        18  18  1.480303E+06  1.215791E+05  1.350026E+05  7.597522E+04 -5.843379E-10  9.055475E-11
        18  19  1.480392E+06  3.640322E+03  3.695686E+04  7.033161E+03  2.560707E+04  2.894312E-01
        18  20  1.469184E+06  2.677259E+04  6.595791E+04 -3.447064E+04  5.966955E+04 -3.305568E+00
        18  21  1.480313E+06  1.215815E+05  1.350191E+05 -7.597522E+04  9.373155E+04 -1.144456E+01
        18  22  1.480392E+06  3.640230E+03  3.695684E+04 -5.544810E-09  2.560707E+04  2.009556E-10
        18  23  1.469183E+06  2.677036E+04  6.595759E+04  5.843529E-10  5.966955E+04  3.516274E-11
        18  24  1.480307E+06  1.215707E+05  1.350176E+05 -2.395742E-09  9.373155E+04 -8.169863E-11
        18  25  1.480392E+06  3.640322E+03  3.695686E+04 -7.033161E+03  2.560707E+04 -2.894312E-01
        18  26  1.469184E+06  2.677259E+04  6.595791E+04  3.447064E+04  5.966955E+04  3.305568E+00
        18  27  1.480313E+06  1.215815E+05  1.350191E+05  7.597522E+04  9.373155E+04  1.144456E+01
        19   1 -8.200968E+05 -2.521450E+06 -8.230374E+05  6.458760E+05 -2.799487E+04 -3.267567E+05
        19   2 -4.954590E+05 -1.996098E+06 -4.998238E+05  5.103551E+05 -8.515037E+04 -1.618103E+05
        19   3 -3.282124E+05 -1.531213E+06 -3.235918E+05  4.835321E+05 -8.401802E+04  3.285715E+03
        19   4 -2.381890E+05 -1.723816E+05 -2.650908E+05  4.987827E+05 -2.777456E+04 -1.822149E+05
        19   5 -5.217522E+04 -1.503002E+05 -1.306878E+05  4.442837E+05 -8.505466E+04 -1.146787E+05
        19   6 -6.334317E+03 -1.717716E+05 -7.526166E+04  4.985362E+05 -8.408296E+04 -4.714098E+04
        19   7  3.434151E+05  2.181860E+06  2.925616E+05  3.511251E+05 -2.762361E+04 -3.712620E+04
        19   8  3.909172E+05  1.698772E+06  2.382873E+05  3.780094E+05 -8.496922E+04 -6.740916E+04
        19   9  3.154413E+05  1.189475E+06  1.730035E+05  5.135728E+05 -8.415022E+04 -9.767524E+04
        19  10 -8.201264E+05 -2.521565E+06 -8.232402E+05  6.458686E+05 -5.675221E-11  6.142778E-11
        19  11 -4.954738E+05 -1.996128E+06 -4.998868E+05  5.103439E+05  1.512406E-09  1.062610E-09
        19  12 -3.282200E+05 -1.531215E+06 -3.236051E+05  4.835323E+05  1.074024E-09  2.104167E-09
        19  13 -2.381987E+05 -1.724174E+05 -2.651546E+05  4.987786E+05  1.248417E-11  2.637389E-11
        19  14 -5.218651E+04 -1.503163E+05 -1.307261E+05  4.442758E+05  2.307340E-09 -2.927621E-10
        19  15 -6.342500E+03 -1.717759E+05 -7.527910E+04  4.985330E+05 -8.826175E-10  3.986691E-10
        19  16  3.434139E+05  2.181858E+06  2.925576E+05  3.511242E+05 -1.066439E-11 -7.763548E-11
        19  17  3.909082E+05  1.698765E+06  2.382653E+05  3.780048E+05  1.666120E-09 -9.608046E-10
        19  18  3.154312E+05  1.189463E+06  1.729723E+05  5.135662E+05  7.851250E-10 -2.053840E-09
        19  19 -8.200968E+05 -2.521450E+06 -8.230374E+05  6.458760E+05  2.799487E+04  3.267567E+05
        19  20 -4.954590E+05 -1.996098E+06 -4.998238E+05  5.103551E+05  8.515037E+04  1.618103E+05
        19  21 -3.282124E+05 -1.531213E+06 -3.235918E+05  4.835321E+05  8.401802E+04 -3.285715E+03
        19  22 -2.381890E+05 -1.723816E+05 -2.650908E+05  4.987827E+05  2.777456E+04  1.822149E+05
        19  23 -5.217522E+04 -1.503002E+05 -1.306878E+05  4.442837E+05  8.505466E+04  1.146787E+05
        19  24 -6.334317E+03 -1.717716E+05 -7.526166E+04  4.985362E+05  8.408296E+04  4.714098E+04
        19  25  3.434151E+05  2.181860E+06  2.925616E+05  3.511251E+05  2.762361E+04  3.712620E+04
        19  26  3.909172E+05  1.698772E+06  2.382873E+05  3.780094E+05  8.496922E+04  6.740916E+04
        19  27  3.154413E+05  1.189475E+06  1.730035E+05  5.135728E+05  8.415022E+04  9.767524E+04
        20   1 -2.540323E+05 -1.197113E+06 -2.474392E+05  5.032987E+05 -6.526018E+04  7.035412E+03
        20   2 -1.276221E+05 -6.992571E+05 -1.344104E+05  4.432795E+05 -3.785013E+04  3.124273E+04
        20   3 -1.205646E+04 -2.072332E+05 -3.994700E+04  4.956482E+05 -8.205154E+03  5.545471E+04
        20   4 -9.627280E+03 -1.631492E+05 -6.012160E+04  4.993638E+05 -6.532719E+04 -3.704242E+04
        20   5 -1.122160E+03 -1.603558E+05 -4.107418E+04  4.431649E+05 -3.793266E+04 -1.657450E+04
        20   6 -2.790893E+03 -1.629725E+05 -3.797299E+04  4.993512E+05 -8.304326E+03  3.879772E+03
        20   7  2.347188E+05  8.718607E+05  1.271611E+05  4.954213E+05 -6.539356E+04 -8.119170E+04
        20   8  1.253634E+05  3.788354E+05  5.226057E+04  4.430501E+05 -3.801512E+04 -6.443199E+04
        20   9  6.476122E+03 -1.187040E+05 -3.598885E+04  5.030545E+05 -8.404108E+03 -4.769855E+04
        20  10 -2.540369E+05 -1.197114E+06 -2.474473E+05  5.032990E+05  1.089175E-09  2.370652E-09
        20  11 -1.276239E+05 -6.992585E+05 -1.344149E+05  4.432804E+05  8.424659E-10  1.568496E-09
        20  12 -1.205736E+04 -2.072365E+05 -3.995291E+04  4.956486E+05  1.184590E-09  9.098230E-10
        20  13 -9.632228E+03 -1.631519E+05 -6.013219E+04  4.993618E+05 -8.202026E-11  2.525697E-10
        20  14 -1.123779E+03 -1.603565E+05 -4.107740E+04  4.431644E+05  1.170673E-10 -5.831666E-10
        20  15 -2.790971E+03 -1.629726E+05 -3.797315E+04  4.993512E+05  2.930970E-10  6.369312E-10
        20  16  2.347124E+05  8.718525E+05  1.271407E+05  4.954170E+05  8.252776E-10 -2.726244E-09
        20  17  1.253607E+05  3.788306E+05  5.225007E+04  4.430481E+05 -2.015802E-10 -1.393465E-09
        20  18  6.475436E+03 -1.187064E+05 -3.599325E+04  5.030542E+05  1.578597E-09 -8.061891E-10
        20  19 -2.540323E+05 -1.197113E+06 -2.474392E+05  5.032987E+05  6.526018E+04 -7.035412E+03
        20  20 -1.276221E+05 -6.992571E+05 -1.344104E+05  4.432795E+05  3.785013E+04 -3.124273E+04
        20  21 -1.205646E+04 -2.072332E+05 -3.994700E+04  4.956482E+05  8.205154E+03 -5.545471E+04
        20  22 -9.627280E+03 -1.631492E+05 -6.012160E+04  4.993638E+05  6.532719E+04  3.704242E+04
        20  23 -1.122160E+03 -1.603558E+05 -4.107418E+04  4.431649E+05  3.793266E+04  1.657450E+04
        20  24 -2.790893E+03 -1.629725E+05 -3.797299E+04  4.993512E+05  8.304326E+03 -3.879772E+03
        20  25  2.347188E+05  8.718607E+05  1.271611E+05  4.954213E+05  6.539356E+04  8.119170E+04
        20  26  1.253634E+05  3.788354E+05  5.226057E+04  4.430501E+05  3.801512E+04  6.443199E+04
        20  27  6.476122E+03 -1.187040E+05 -3.598885E+04  5.030545E+05  8.404108E+03  4.769855E+04
        21   1  6.600849E+04  1.146281E+05  1.685610E+04  5.042848E+05  1.172739E+04  6.480458E+04
        21   2  1.663386E+05  6.145592E+05  1.043153E+05  4.162908E+05  2.783700E+04  3.943690E+04
        21   3  2.186480E+05  1.105889E+06  1.962165E+05  4.388442E+05  1.106584E+04  1.407406E+04
        21   4 -1.605471E+03 -1.658848E+05 -4.059396E+04  4.989370E+05  1.162220E+04  9.999495E+03
        21   5 -2.025832E+04 -1.567855E+05 -5.808187E+04  4.437138E+05  2.784221E+04  3.988052E+04
        21   6 -9.655066E+04 -1.661404E+05 -1.095063E+05  4.990729E+05  1.115996E+04  6.978488E+04
        21   7 -6.922266E+04 -4.463166E+05 -9.803691E+04  4.935917E+05  1.151792E+04 -4.478128E+04
        21   8 -2.068906E+05 -9.275668E+05 -2.205121E+05  4.711019E+05  2.784746E+04  4.032358E+04
        21   9 -4.118514E+05 -1.436675E+06 -4.153306E+05  5.591768E+05  1.126500E+04  1.253820E+05
        21  10  6.600722E+04  1.146236E+05  1.684796E+04  5.042842E+05 -1.528902E-10  2.818171E-08
        21  11  1.663373E+05  6.145573E+05  1.043110E+05  4.162899E+05 -2.095468E-09  7.867816E-10
        21  12  2.186478E+05  1.105888E+06  1.962159E+05  4.388440E+05 -6.519457E-10 -2.631026E-08
        21  13 -1.605643E+03 -1.658850E+05 -4.059440E+04  4.989369E+05 -1.508308E-09  3.307538E-10
        21  14 -2.025958E+04 -1.567874E+05 -5.808632E+04  4.437129E+05 -1.363025E-09 -6.113799E-10
        21  15 -9.655210E+04 -1.661457E+05 -1.095157E+05  4.990723E+05  3.970460E-10  4.573705E-10
        21  16 -6.922334E+04 -4.463187E+05 -9.804093E+04  4.935921E+05 -9.726288E-10 -2.854445E-08
        21  17 -2.068918E+05 -9.275688E+05 -2.205166E+05  4.711010E+05 -9.741634E-11 -7.188079E-10
        21  18 -4.118558E+05 -1.436692E+06 -4.153605E+05  5.591757E+05 -7.576110E-12  2.632199E-08
        21  19  6.600849E+04  1.146281E+05  1.685610E+04  5.042848E+05 -1.172739E+04 -6.480458E+04
        21  20  1.663386E+05  6.145592E+05  1.043153E+05  4.162908E+05 -2.783700E+04 -3.943690E+04
        21  21  2.186480E+05  1.105889E+06  1.962165E+05  4.388442E+05 -1.106584E+04 -1.407406E+04
        21  22 -1.605471E+03 -1.658848E+05 -4.059396E+04  4.989370E+05 -1.162220E+04 -9.999495E+03
        21  23 -2.025832E+04 -1.567855E+05 -5.808187E+04  4.437138E+05 -2.784221E+04 -3.988052E+04
        21  24 -9.655066E+04 -1.661404E+05 -1.095063E+05  4.990729E+05 -1.115996E+04 -6.978488E+04
        21  25 -6.922266E+04 -4.463166E+05 -9.803691E+04  4.935917E+05 -1.151792E+04  4.478128E+04
        21  26 -2.068906E+05 -9.275668E+05 -2.205121E+05  4.711019E+05 -2.784746E+04 -4.032358E+04
        21  27 -4.118514E+05 -1.436675E+06 -4.153306E+05  5.591768E+05 -1.126500E+04 -1.253820E+05
        22   1  1.130290E+06  5.549814E+04  6.169432E+04  3.471047E+04  4.241777E+04  2.367443E+00
        22   2  1.125194E+06  1.220315E+04  3.043794E+04  1.578379E+04  2.670676E+04  6.778055E-01
        22   3  1.130318E+06  1.635963E+03  1.757922E+04 -3.142880E+03  1.099553E+04 -5.556642E-02
        22   4  1.130289E+06  5.549588E+04  6.169400E+04 -3.164851E-09  4.241777E+04 -2.306683E-12
        22   5  1.125193E+06  1.220268E+04  3.043788E+04 -3.223235E-09  2.670676E+04 -1.453918E-10
        22   6  1.130318E+06  1.635945E+03  1.757921E+04  1.337645E-10  1.099553E+04 -6.031944E-10
        22   7  1.130290E+06  5.549814E+04  6.169432E+04 -3.471047E+04  4.241777E+04 -2.367443E+00
        22   8  1.125194E+06  1.220315E+04  3.043794E+04 -1.578379E+04  2.670676E+04 -6.778055E-01
        22   9  1.130318E+06  1.635963E+03  1.757922E+04  3.142880E+03  1.099553E+04  5.556642E-02
        22  10  1.130288E+06  5.549766E+04  6.169095E+04  3.471047E+04 -1.369373E-10 -2.098848E-10
        22  11  1.125193E+06  1.220296E+04  3.043661E+04  1.578379E+04 -2.081142E-09 -6.886862E-10
        22  12  1.130318E+06  1.635931E+03  1.757899E+04 -3.142880E+03 -4.658853E-10 -5.555597E-10
        22  13  1.130287E+06  5.549540E+04  6.169062E+04 -1.733896E-09  4.882175E-10 -1.184983E-10
        22  14  1.125193E+06  1.220249E+04  3.043654E+04 -1.691258E-09 -7.748817E-10 -3.766367E-10
        22  15  1.130318E+06  1.635912E+03  1.757899E+04 -4.930524E-11  2.190493E-10 -4.099700E-10
        22  16  1.130288E+06  5.549766E+04  6.169095E+04 -3.471047E+04 -3.720737E-10  5.252179E-12
        22  17  1.125193E+06  1.220296E+04  3.043661E+04 -1.578379E+04  9.366023E-10 -7.810527E-11
        22  18  1.130318E+06  1.635931E+03  1.757899E+04  3.142880E+03  1.795271E-10 -2.289059E-10
        22  19  1.130290E+06  5.549814E+04  6.169432E+04  3.471047E+04 -4.241777E+04 -2.367443E+00
        22  20  1.125194E+06  1.220315E+04  3.043794E+04  1.578379E+04 -2.670676E+04 -6.778055E-01
        22  21  1.130318E+06  1.635963E+03  1.757922E+04 -3.142880E+03 -1.099553E+04  5.556642E-02
        22  22  1.130289E+06  5.549588E+04  6.169400E+04 -1.980217E-09 -4.241777E+04 -2.268162E-10
        22  23  1.125193E+06  1.220268E+04  3.043788E+04  1.711546E-09 -2.670676E+04 -6.042207E-10
        22  24  1.130318E+06  1.635945E+03  1.757921E+04  1.876250E-09 -1.099553E+04 -2.176158E-10
        22  25  1.130290E+06  5.549814E+04  6.169432E+04 -3.471047E+04 -4.241777E+04  2.367443E+00
        22  26  1.125194E+06  1.220315E+04  3.043794E+04 -1.578379E+04 -2.670676E+04  6.778055E-01
        22  27  1.130318E+06  1.635963E+03  1.757922E+04  3.142880E+03 -1.099553E+04 -5.556642E-02
        23   1  1.128288E+06  2.459908E+03  1.406551E+04  1.146453E+03  8.609724E+03  1.587140E-02
        23   2  1.127743E+06  2.988245E+02  9.649973E+03  4.919094E+02  3.803460E+03  3.008388E-03
        23   3  1.128290E+06  8.586452E+00  8.827086E+03 -1.626346E+02 -1.002792E+03  2.622370E-04
        23   4  1.128288E+06  2.459905E+03  1.406551E+04 -4.735857E-09  8.609724E+03 -5.331192E-10
        23   5  1.127743E+06  2.988240E+02  9.649973E+03 -5.149878E-09  3.803460E+03 -8.278300E-12
        23   6  1.128290E+06  8.586403E+00  8.827086E+03 -2.990200E-09 -1.002792E+03 -7.369246E-13
        23   7  1.128288E+06  2.459908E+03  1.406551E+04 -1.146453E+03  8.609724E+03 -1.587140E-02
        23   8  1.127743E+06  2.988245E+02  9.649973E+03 -4.919094E+02  3.803460E+03 -3.008388E-03
        23   9  1.128290E+06  8.586452E+00  8.827086E+03  1.626346E+02 -1.002792E+03 -2.622370E-04
        23  10  1.128287E+06  2.459888E+03  1.406537E+04  1.146453E+03 -5.315852E-10 -4.636712E-10
        23  11  1.127743E+06  2.988206E+02  9.649946E+03  4.919094E+02 -9.407274E-10 -2.778258E-10
        23  12  1.128290E+06  8.586183E+00  8.827084E+03 -1.626346E+02 -3.720812E-10  5.651757E-10
        23  13  1.128287E+06  2.459886E+03  1.406537E+04 -1.861144E-09 -2.202157E-10 -2.824491E-10
        23  14  1.127743E+06  2.988201E+02  9.649946E+03 -2.921272E-09 -3.353635E-10 -5.803023E-11
        23  15  1.128290E+06  8.586133E+00  8.827084E+03  5.893808E-10  8.019033E-10 -2.145628E-11
        23  16  1.128287E+06  2.459888E+03  1.406537E+04 -1.146453E+03 -3.241696E-11 -3.772574E-11
        23  17  1.127743E+06  2.988206E+02  9.649946E+03 -4.919094E+02  1.341422E-10  1.332319E-10
        23  18  1.128290E+06  8.586183E+00  8.827084E+03  1.626346E+02  7.984391E-10 -6.065906E-10
        23  19  1.128288E+06  2.459908E+03  1.406551E+04  1.146453E+03 -8.609724E+03 -1.587140E-02
        23  20  1.127743E+06  2.988245E+02  9.649973E+03  4.919094E+02 -3.803460E+03 -3.008389E-03
        23  21  1.128290E+06  8.586452E+00  8.827086E+03 -1.626346E+02  1.002792E+03 -2.622360E-04
        23  22  1.128288E+06  2.459905E+03  1.406551E+04 -2.199863E-09 -8.609724E+03 -3.509024E-11
        23  23  1.127743E+06  2.988240E+02  9.649973E+03 -6.821385E-10 -3.803460E+03 -1.344070E-10
        23  24  1.128290E+06  8.586403E+00  8.827086E+03 -2.114794E-09  1.002792E+03 -3.911179E-11
        23  25  1.128288E+06  2.459908E+03  1.406551E+04 -1.146453E+03 -8.609724E+03  1.587140E-02
        23  26  1.127743E+06  2.988245E+02  9.649973E+03 -4.919094E+02 -3.803460E+03  3.008389E-03
        23  27  1.128290E+06  8.586452E+00  8.827086E+03  1.626346E+02  1.002792E+03  2.622360E-04
        24   1  1.128399E+06 -3.201917E+01  9.450020E+03  5.420502E+02 -2.600808E+03 -2.266821E-03
        24   2  1.127605E+06  5.756399E+02  1.307108E+04 -6.004309E+02 -9.119302E+03  8.804298E-03
        24   3  1.128394E+06  4.124456E+03  2.166572E+04 -1.742891E+03 -1.563774E+04  4.382423E-02
        24   4  1.128399E+06 -3.201972E+01  9.450020E+03 -2.294362E-09 -2.600808E+03 -1.109974E-10
        24   5  1.127605E+06  5.756392E+02  1.307108E+04 -8.188636E-10 -9.119302E+03 -1.115736E-10
        24   6  1.128394E+06  4.124450E+03  2.166572E+04 -1.405679E-09 -1.563774E+04 -1.155609E-10
        24   7  1.128399E+06 -3.201917E+01  9.450020E+03 -5.420502E+02 -2.600808E+03  2.266821E-03
        24   8  1.127605E+06  5.756399E+02  1.307108E+04  6.004309E+02 -9.119302E+03 -8.804298E-03
        24   9  1.128394E+06  4.124456E+03  2.166572E+04  1.742891E+03 -1.563774E+04 -4.382423E-02
        24  10  1.128399E+06 -3.202098E+01  9.450007E+03  5.420502E+02 -8.980441E-10  7.260024E-10
        24  11  1.127605E+06  5.756176E+02  1.307093E+04 -6.004309E+02 -3.439965E-10  4.695622E-10
        24  12  1.128394E+06  4.124390E+03  2.166526E+04 -1.742891E+03  8.456463E-10  6.185460E-10
        24  13  1.128399E+06 -3.202153E+01  9.450007E+03 -8.674116E-10  5.218926E-10  1.422007E-10
        24  14  1.127605E+06  5.756169E+02  1.307093E+04 -1.574324E-09 -6.926402E-10  4.713785E-10
        24  15  1.128394E+06  4.124385E+03  2.166526E+04 -4.125289E-10 -6.311803E-10  3.002570E-10
        24  16  1.128399E+06 -3.202098E+01  9.450007E+03 -5.420502E+02  6.413091E-10 -4.853818E-10
        24  17  1.127605E+06  5.756176E+02  1.307093E+04  6.004309E+02  1.777096E-09  4.564639E-10
        24  18  1.128394E+06  4.124390E+03  2.166526E+04  1.742891E+03  4.845120E-10 -2.567377E-11
        24  19  1.128399E+06 -3.201917E+01  9.450020E+03  5.420502E+02  2.600808E+03  2.266822E-03
        24  20  1.127605E+06  5.756399E+02  1.307108E+04 -6.004309E+02  9.119302E+03 -8.804297E-03
        24  21  1.128394E+06  4.124456E+03  2.166572E+04 -1.742891E+03  1.563774E+04 -4.382423E-02
        24  22  1.128399E+06 -3.201972E+01  9.450020E+03 -5.495002E-10  2.600808E+03  3.899340E-10
        24  23  1.127605E+06  5.756392E+02  1.307108E+04 -7.220102E-10  9.119302E+03  1.021668E-09
        24  24  1.128394E+06  4.124450E+03  2.166572E+04 -1.172311E-09  1.563774E+04  7.270927E-10
        24  25  1.128399E+06 -3.201917E+01  9.450020E+03 -5.420502E+02  2.600808E+03 -2.266822E-03
        24  26  1.127605E+06  5.756399E+02  1.307108E+04  6.004309E+02  9.119302E+03  8.804299E-03
        24  27  1.128394E+06  4.124456E+03  2.166572E+04  1.742891E+03  1.563774E+04  4.382423E-02
        25   1  1.131796E+06  2.747254E+03  2.791468E+04  5.314049E+03 -1.933435E+04 -1.652049E-01
        25   2  1.123335E+06  2.021959E+04  4.982152E+04 -2.603058E+04 -4.506106E+04  1.886079E+00
        25   3  1.131750E+06  9.184455E+04  1.019951E+05 -5.737646E+04 -7.078818E+04  6.530810E+00
        25   4  1.131796E+06  2.747201E+03  2.791467E+04 -2.110697E-09 -1.933435E+04 -5.505603E-11
        25   5  1.123334E+06  2.021832E+04  4.982134E+04 -1.309045E-09 -4.506106E+04  2.213284E-11
        25   6  1.131747E+06  9.183837E+04  1.019942E+05 -3.180095E-09 -7.078818E+04  6.719642E-11
        25   7  1.131796E+06  2.747254E+03  2.791468E+04 -5.314049E+03 -1.933435E+04  1.652049E-01
        25   8  1.123335E+06  2.021959E+04  4.982152E+04  2.603058E+04 -4.506106E+04 -1.886079E+00
        25   9  1.131750E+06  9.184455E+04  1.019951E+05  5.737646E+04 -7.078818E+04 -6.530810E+00
        25  10  1.131796E+06  2.747154E+03  2.791398E+04  5.314049E+03  7.878500E-10  3.256416E-10
        25  11  1.123332E+06  2.021905E+04  4.981771E+04 -2.603058E+04 -1.092074E-09 -4.175975E-10
        25  12  1.131745E+06  9.184321E+04  1.019857E+05 -5.737646E+04 -1.534982E-10 -2.183902E-10
        25  13  1.131796E+06  2.747101E+03  2.791397E+04 -1.515860E-10  1.495149E-09  6.226929E-11
        25  14  1.123332E+06  2.021778E+04  4.981753E+04 -2.424398E-09  3.487050E-10 -1.139535E-10
        25  15  1.131742E+06  9.183703E+04  1.019848E+05 -5.304977E-10 -6.393623E-10 -5.846433E-11
        25  16  1.131796E+06  2.747154E+03  2.791398E+04 -5.314049E+03  8.343605E-10 -1.928967E-10
        25  17  1.123332E+06  2.021905E+04  4.981771E+04  2.603058E+04  1.993812E-10  1.957236E-10
        25  18  1.131745E+06  9.184321E+04  1.019857E+05  5.737646E+04  5.341578E-10  6.661816E-11
        25  19  1.131796E+06  2.747254E+03  2.791468E+04  5.314049E+03  1.933435E+04  1.652049E-01
        25  20  1.123335E+06  2.021959E+04  4.982152E+04 -2.603058E+04  4.506106E+04 -1.886079E+00
        25  21  1.131750E+06  9.184455E+04  1.019951E+05 -5.737646E+04  7.078818E+04 -6.530810E+00
        25  22  1.131796E+06  2.747201E+03  2.791467E+04 -1.953037E-09  1.933435E+04  1.924388E-10
        25  23  1.123334E+06  2.021832E+04  4.982134E+04  7.721738E-10  4.506106E+04 -2.344222E-10
        25  24  1.131747E+06  9.183837E+04  1.019942E+05 -2.020436E-09  7.078818E+04 -1.862183E-10
        25  25  1.131796E+06  2.747254E+03  2.791468E+04 -5.314049E+03  1.933435E+04 -1.652049E-01
        25  26  1.123335E+06  2.021959E+04  4.982152E+04  2.603058E+04  4.506106E+04  1.886079E+00
        25  27  1.131750E+06  9.184455E+04  1.019951E+05  5.737646E+04  7.078818E+04  6.530810E+00
        26   1 -6.151931E+05 -1.872256E+06 -6.171203E+05  4.754501E+05 -2.111056E+04 -2.455441E+05
        26   2 -3.742495E+05 -1.487092E+06 -3.768129E+05  3.749687E+05 -6.466123E+04 -1.217845E+05
        26   3 -2.511215E+05 -1.147296E+06 -2.466662E+05  3.539878E+05 -6.451073E+04  2.058197E+03
        26   4 -1.781596E+05 -1.073443E+05 -1.982650E+05  3.650694E+05 -2.098743E+04 -1.359215E+05
        26   5 -3.907512E+04 -9.084349E+04 -9.801754E+04  3.252356E+05 -6.460652E+04 -8.529195E+04
        26   6 -4.938155E+03 -1.070085E+05 -5.694664E+04  3.649319E+05 -6.454516E+04 -3.466121E+04
        26   7  2.587025E+05  1.660486E+06  2.204252E+05  2.543714E+05 -2.090364E+04 -2.598770E+04
        26   8  2.959898E+05  1.307279E+06  1.806863E+05  2.753873E+05 -6.455776E+04 -4.871872E+04
        26   9  2.411852E+05  9.343348E+05  1.327345E+05  3.758942E+05 -6.458084E+04 -7.144053E+04
        26  10 -6.152098E+05 -1.872321E+06 -6.172347E+05  4.754459E+05  1.559906E-09 -1.729171E-09
        26  11 -3.742580E+05 -1.487109E+06 -3.768487E+05  3.749623E+05  1.846082E-10 -2.867163E-11
        26  12 -2.511260E+05 -1.147297E+06 -2.466740E+05  3.539879E+05  6.157260E-10  1.213739E-09
        26  13 -1.781650E+05 -1.073643E+05 -1.983005E+05  3.650671E+05 -3.252188E-10  1.676121E-11
        26  14 -3.908155E+04 -9.085242E+04 -9.803904E+04  3.252311E+05  2.441338E-09 -9.631010E-11
        26  15 -4.942949E+03 -1.070109E+05 -5.695672E+04  3.649301E+05 -1.432336E-09 -5.991567E-11
        26  16  2.587019E+05  1.660486E+06  2.204232E+05  2.543709E+05 -3.134962E-10  1.778094E-09
        26  17  2.959847E+05  1.307275E+06  1.806740E+05  2.753847E+05 -1.459331E-09  6.894663E-11
        26  18  2.411794E+05  9.343282E+05  1.327171E+05  3.758905E+05 -1.456166E-09 -1.009433E-09
        26  19 -6.151931E+05 -1.872256E+06 -6.171203E+05  4.754501E+05  2.111056E+04  2.455441E+05
        26  20 -3.742495E+05 -1.487092E+06 -3.768129E+05  3.749687E+05  6.466123E+04  1.217845E+05
        26  21 -2.511215E+05 -1.147296E+06 -2.466662E+05  3.539878E+05  6.451073E+04 -2.058197E+03
        26  22 -1.781596E+05 -1.073443E+05 -1.982650E+05  3.650694E+05  2.098743E+04  1.359215E+05
        26  23 -3.907512E+04 -9.084349E+04 -9.801754E+04  3.252356E+05  6.460652E+04  8.529195E+04
        26  24 -4.938155E+03 -1.070085E+05 -5.694664E+04  3.649319E+05  6.454516E+04  3.466121E+04
        26  25  2.587025E+05  1.660486E+06  2.204252E+05  2.543714E+05  2.090364E+04  2.598770E+04
        26  26  2.959898E+05  1.307279E+06  1.806863E+05  2.753873E+05  6.455776E+04  4.871872E+04
        26  27  2.411852E+05  9.343348E+05  1.327345E+05  3.758942E+05  6.458084E+04  7.144053E+04
        27   1 -1.968985E+05 -9.025523E+05 -1.908665E+05  3.687781E+05 -5.083573E+04  4.984296E+03
        27   2 -1.043242E+05 -5.379520E+05 -1.084634E+05  3.245157E+05 -3.087690E+04  2.416450E+04
        27   3 -2.036143E+04 -1.779881E+05 -4.075164E+04  3.625086E+05 -9.095359E+03  4.334709E+04
        27   4 -7.423698E+03 -1.006065E+05 -4.586355E+04  3.655482E+05 -5.087133E+04 -2.696175E+04
        27   5 -1.167019E+03 -9.843989E+04 -3.234953E+04  3.244183E+05 -3.092184E+04 -1.083331E+04
        27   6 -2.979932E+03 -1.005012E+05 -3.139472E+04  3.655419E+05 -9.150340E+03  5.286910E+03
        27   7  1.820156E+05  7.019683E+05  9.911800E+04  3.623137E+05 -5.090656E+04 -5.894796E+04
        27   8  1.019804E+05  3.412645E+05  4.376224E+04  3.243207E+05 -3.096675E+04 -4.585515E+04
        27   9  1.440214E+04 -2.300503E+04 -2.203234E+04  3.685756E+05 -9.205687E+03 -3.277778E+04
        27  10 -1.969013E+05 -9.025530E+05 -1.908714E+05  3.687783E+05 -3.513405E-10 -2.642454E-09
        27  11 -1.043254E+05 -5.379529E+05 -1.084663E+05  3.245163E+05  1.013943E-10  6.116479E-10
        27  12 -2.036202E+04 -1.779901E+05 -4.075533E+04  3.625089E+05  1.809405E-10  2.946249E-09
        27  13 -7.426671E+03 -1.006080E+05 -4.586978E+04  3.655471E+05 -8.201168E-10 -8.398535E-12
        27  14 -1.168077E+03 -9.844027E+04 -3.235155E+04  3.244180E+05 -2.107699E-10 -2.112241E-10
        27  15 -2.980029E+03 -1.005013E+05 -3.139493E+04  3.655419E+05 -3.668805E-10 -9.531279E-11
        27  16  1.820119E+05  7.019638E+05  9.910661E+04  3.623112E+05 -6.240368E-10  2.826920E-09
        27  17  1.019789E+05  3.412620E+05  4.375649E+04  3.243195E+05 -1.068861E-09 -6.160701E-10
        27  18  1.440176E+04 -2.300621E+04 -2.203452E+04  3.685753E+05  2.952768E-11 -2.752940E-09
        27  19 -1.968985E+05 -9.025523E+05 -1.908665E+05  3.687781E+05  5.083573E+04 -4.984296E+03
        27  20 -1.043242E+05 -5.379520E+05 -1.084634E+05  3.245157E+05  3.087690E+04 -2.416450E+04
        27  21 -2.036143E+04 -1.779881E+05 -4.075164E+04  3.625086E+05  9.095359E+03 -4.334709E+04
        27  22 -7.423698E+03 -1.006065E+05 -4.586355E+04  3.655482E+05  5.087133E+04  2.696175E+04
        27  23 -1.167019E+03 -9.843989E+04 -3.234953E+04  3.244183E+05  3.092184E+04  1.083331E+04
        27  24 -2.979932E+03 -1.005012E+05 -3.139472E+04  3.655419E+05  9.150340E+03 -5.286910E+03
        27  25  1.820156E+05  7.019683E+05  9.911800E+04  3.623137E+05  5.090656E+04  5.894796E+04
        27  26  1.019804E+05  3.412645E+05  4.376224E+04  3.243207E+05  3.096675E+04  4.585515E+04
        27  27  1.440214E+04 -2.300503E+04 -2.203234E+04  3.685756E+05  9.205687E+03  3.277778E+04
        28   1  3.697786E+04  5.698094E+04 -2.295471E+02  3.699235E+05  5.539357E+03  5.067730E+04
        28   2  1.075766E+05  4.243771E+05  5.963593E+04  3.003340E+05  1.798525E+04  3.805665E+04
        28   3  1.338895E+05  7.823859E+05  1.166091E+05  3.117335E+05  7.420796E+03  2.544285E+04
        28   4 -1.881357E+03 -1.031742E+05 -3.429773E+04  3.652559E+05  5.480740E+03  1.038672E+04
        28   5 -1.827269E+04 -9.511617E+04 -5.058580E+04  3.247970E+05  1.798576E+04  3.642312E+04
        28   6 -8.568020E+04 -1.033006E+05 -9.662068E+04  3.653479E+05  7.470373E+03  6.247257E+04
        28   7 -4.074129E+04 -2.633016E+05 -6.836128E+04  3.605896E+05  5.422719E+03 -2.989361E+04
        28   8 -1.441372E+05 -6.143538E+05 -1.608226E+05  3.492390E+05  1.798614E+04  3.479093E+04
        28   9 -3.052954E+05 -9.882607E+05 -3.098997E+05  4.188852E+05  7.526389E+03  9.944966E+04
        28  10  3.697714E+04  5.697818E+04 -2.344298E+02  3.699232E+05  2.864033E-10 -1.831424E-09
        28  11  1.075759E+05  4.243755E+05  5.963260E+04  3.003335E+05 -1.582131E-09 -9.470209E-11
        28  12  1.338893E+05  7.823852E+05  1.166078E+05  3.117334E+05  1.597004E-10  6.916864E-10
        28  13 -1.881418E+03 -1.031743E+05 -3.429799E+04  3.652559E+05  8.610241E-10 -2.556786E-11
        28  14 -1.827339E+04 -9.511768E+04 -5.058890E+04  3.247964E+05 -3.140959E-10 -2.010681E-10
        28  15 -8.568131E+04 -1.033048E+05 -9.662812E+04  3.653475E+05 -1.160804E-10 -4.415145E-11
        28  16 -4.074156E+04 -2.633026E+05 -6.836301E+04  3.605898E+05  1.237217E-09  2.039779E-09
        28  17 -1.441379E+05 -6.143552E+05 -1.608255E+05  3.492385E+05 -7.968767E-10  5.001126E-11
        28  18 -3.052981E+05 -9.882713E+05 -3.099184E+05  4.188846E+05  5.269191E-10 -5.016144E-10
        28  19  3.697786E+04  5.698094E+04 -2.295471E+02  3.699235E+05 -5.539357E+03 -5.067730E+04
        28  20  1.075766E+05  4.243771E+05  5.963593E+04  3.003340E+05 -1.798525E+04 -3.805665E+04
        28  21  1.338895E+05  7.823859E+05  1.166091E+05  3.117335E+05 -7.420796E+03 -2.544285E+04
        28  22 -1.881357E+03 -1.031742E+05 -3.429773E+04  3.652559E+05 -5.480740E+03 -1.038672E+04
        28  23 -1.827269E+04 -9.511617E+04 -5.058580E+04  3.247970E+05 -1.798576E+04 -3.642312E+04
        28  24 -8.568020E+04 -1.033006E+05 -9.662068E+04  3.653479E+05 -7.470373E+03 -6.247257E+04
        28  25 -4.074129E+04 -2.633016E+05 -6.836128E+04  3.605896E+05 -5.422719E+03  2.989361E+04
        28  26 -1.441372E+05 -6.143538E+05 -1.608226E+05  3.492390E+05 -1.798614E+04 -3.479093E+04
        28  27 -3.052954E+05 -9.882607E+05 -3.098997E+05  4.188852E+05 -7.526389E+03 -9.944966E+04
        29   1  8.547757E+05  3.953583E+04  4.395450E+04  2.472406E+04  3.018495E+04  1.200508E+00
        29   2  8.511411E+05  8.690426E+03  2.170639E+04  1.124478E+04  1.898208E+04  3.433607E-01
        29   3  8.547910E+05  1.162691E+03  1.257420E+04 -2.234343E+03  7.779215E+03 -2.796007E-02
        29   4  8.547751E+05  3.953468E+04  4.395434E+04  2.388580E-08  3.018495E+04  6.099753E-11
        29   5  8.511410E+05  8.690188E+03  2.170636E+04 -3.490652E-08  1.898208E+04  8.201539E-10
        29   6  8.547910E+05  1.162681E+03  1.257419E+04 -1.044220E-07  7.779215E+03  2.352415E-09
        29   7  8.547757E+05  3.953583E+04  4.395450E+04 -2.472406E+04  3.018495E+04 -1.200508E+00
        29   8  8.511411E+05  8.690426E+03  2.170639E+04 -1.124478E+04  1.898208E+04 -3.433607E-01
        29   9  8.547910E+05  1.162691E+03  1.257420E+04  2.234343E+03  7.779215E+03  2.796007E-02
        29  10  8.547747E+05  3.953558E+04  4.395279E+04  2.472405E+04 -9.868618E-09  4.826433E-11
        29  11  8.511407E+05  8.690329E+03  2.170572E+04  1.124478E+04  1.847706E-08  5.939170E-10
        29  12  8.547910E+05  1.162674E+03  1.257408E+04 -2.234343E+03  4.448932E-08  1.684068E-09
        29  13  8.547741E+05  3.953444E+04  4.395263E+04  4.290479E-10  1.094205E-09  6.595128E-11
        29  14  8.511406E+05  8.690092E+03  2.170568E+04 -5.847957E-10 -7.273661E-10  6.741785E-10
        29  15  8.547910E+05  1.162665E+03  1.257408E+04  1.229402E-09 -2.502544E-10  1.846846E-09
        29  16  8.547747E+05  3.953558E+04  4.395279E+04 -2.472405E+04  9.249948E-09  7.173656E-11
        29  17  8.511407E+05  8.690329E+03  2.170572E+04 -1.124478E+04 -1.935927E-08  7.577614E-10
        29  18  8.547910E+05  1.162674E+03  1.257408E+04  2.234343E+03 -4.461953E-08  2.028360E-09
        29  19  8.547757E+05  3.953583E+04  4.395450E+04  2.472406E+04 -3.018495E+04 -1.200508E+00
        29  20  8.511411E+05  8.690426E+03  2.170639E+04  1.124478E+04 -1.898208E+04 -3.433607E-01
        29  21  8.547910E+05  1.162691E+03  1.257420E+04 -2.234343E+03 -7.779215E+03  2.796007E-02
        29  22  8.547751E+05  3.953468E+04  4.395434E+04 -2.517822E-08 -3.018495E+04  7.958947E-11
        29  23  8.511410E+05  8.690188E+03  2.170636E+04  3.698474E-08 -1.898208E+04  5.371191E-10
        29  24  8.547910E+05  1.162681E+03  1.257419E+04  1.018097E-07 -7.779215E+03  1.341919E-09
        29  25  8.547757E+05  3.953583E+04  4.395450E+04 -2.472406E+04 -3.018495E+04  1.200508E+00
        29  26  8.511411E+05  8.690426E+03  2.170639E+04 -1.124478E+04 -1.898208E+04  3.433607E-01
        29  27  8.547910E+05  1.162691E+03  1.257420E+04  2.234343E+03 -7.779215E+03 -2.796007E-02
        30   1  8.533462E+05  1.749695E+03  1.009075E+04  8.232547E+02  6.069028E+03  8.037244E-03
        30   2  8.529527E+05  2.091110E+02  7.003107E+03  3.598317E+02  2.581769E+03  1.494414E-03
        30   3  8.533474E+05  8.149021E+00  6.518408E+03 -1.035847E+02 -9.054327E+02  1.508707E-04
        30   4  8.533462E+05  1.749693E+03  1.009075E+04  1.018669E-07  6.069028E+03  2.316010E-09
        30   5  8.529527E+05  2.091107E+02  7.003107E+03  3.405216E-08  2.581769E+03  6.665075E-10
        30   6  8.533474E+05  8.149001E+00  6.518408E+03 -2.689879E-08 -9.054327E+02 -1.088949E-10
        30   7  8.533462E+05  1.749695E+03  1.009075E+04 -8.232547E+02  6.069028E+03 -8.037239E-03
        30   8  8.529527E+05  2.091110E+02  7.003107E+03 -3.598317E+02  2.581769E+03 -1.494412E-03
        30   9  8.533474E+05  8.149021E+00  6.518408E+03  1.035847E+02 -9.054327E+02 -1.508710E-04
        30  10  8.533462E+05  1.749685E+03  1.009068E+04  8.232547E+02 -4.497687E-08  1.700399E-09
        30  11  8.529527E+05  2.091092E+02  7.003094E+03  3.598317E+02 -1.956507E-08  4.499713E-10
        30  12  8.533474E+05  8.148802E+00  6.518407E+03 -1.035847E+02  8.986432E-09 -4.824650E-10
        30  13  8.533462E+05  1.749684E+03  1.009068E+04  5.269644E-10  5.049974E-10  1.816748E-09
        30  14  8.529527E+05  2.091089E+02  7.003094E+03 -4.707589E-10 -1.616025E-09  4.238980E-10
        30  15  8.533474E+05  8.148781E+00  6.518407E+03 -1.872486E-09 -2.427917E-10 -5.459802E-10
        30  16  8.533462E+05  1.749685E+03  1.009068E+04 -8.232547E+02  4.558404E-08  1.956025E-09
        30  17  8.529527E+05  2.091092E+02  7.003094E+03 -3.598317E+02  1.975749E-08  4.452753E-10
        30  18  8.533474E+05  8.148802E+00  6.518407E+03  1.035847E+02 -8.544541E-09 -5.891446E-10
        30  19  8.533462E+05  1.749695E+03  1.009075E+04  8.232547E+02 -6.069028E+03 -8.037240E-03
        30  20  8.529527E+05  2.091110E+02  7.003107E+03  3.598317E+02 -2.581769E+03 -1.494413E-03
        30  21  8.533474E+05  8.149021E+00  6.518408E+03 -1.035847E+02  9.054327E+02 -1.508718E-04
        30  22  8.533462E+05  1.749693E+03  1.009075E+04 -1.029929E-07 -6.069028E+03  1.331351E-09
        30  23  8.529527E+05  2.091107E+02  7.003107E+03 -3.444869E-08 -2.581769E+03  1.975882E-10
        30  24  8.533474E+05  8.149001E+00  6.518408E+03  2.193549E-08  9.054327E+02 -9.921993E-10
        30  25  8.533462E+05  1.749695E+03  1.009075E+04 -8.232547E+02 -6.069028E+03  8.037243E-03
        30  26  8.529527E+05  2.091110E+02  7.003107E+03 -3.598317E+02 -2.581769E+03  1.494413E-03
        30  27  8.533474E+05  8.149021E+00  6.518408E+03  1.035847E+02  9.054327E+02  1.508699E-04
        31   1  8.534380E+05 -2.564175E+01  7.036439E+03  4.190486E+02 -2.090371E+03 -1.409098E-03
        31   2  8.528387E+05  4.392563E+02  9.848202E+03 -4.500442E+02 -7.001359E+03  5.068640E-03
        31   3  8.534352E+05  3.133976E+03  1.641151E+04 -1.319148E+03 -1.191244E+04  2.527832E-02
        31   4  8.534380E+05 -2.564207E+01  7.036439E+03 -4.318154E-09 -2.090371E+03 -1.758694E-10
        31   5  8.528387E+05  4.392559E+02  9.848202E+03 -3.539610E-09 -7.001359E+03 -4.351687E-10
        31   6  8.534352E+05  3.133973E+03  1.641150E+04 -5.647996E-09 -1.191244E+04 -1.000228E-09
        31   7  8.534380E+05 -2.564175E+01  7.036439E+03 -4.190486E+02 -2.090371E+03  1.409098E-03
        31   8  8.528387E+05  4.392563E+02  9.848202E+03  4.500442E+02 -7.001359E+03 -5.068640E-03
        31   9  8.534352E+05  3.133976E+03  1.641151E+04  1.319148E+03 -1.191244E+04 -2.527832E-02
        31  10  8.534380E+05 -2.564292E+01  7.036430E+03  4.190486E+02 -7.654495E-10 -5.718431E-10
        31  11  8.528386E+05  4.392431E+02  9.848110E+03 -4.500442E+02 -9.652356E-10 -3.027295E-10
        31  12  8.534351E+05  3.133938E+03  1.641124E+04 -1.319148E+03  1.342742E-11 -3.198148E-10
        31  13  8.534380E+05 -2.564325E+01  7.036430E+03 -1.860366E-09  1.326918E-27 -5.975766E-10
        31  14  8.528386E+05  4.392428E+02  9.848110E+03 -2.562845E-11 -9.236450E-10 -3.457159E-10
        31  15  8.534351E+05  3.133935E+03  1.641124E+04 -1.549160E-09  1.791671E-11 -5.656157E-10
        31  16  8.534380E+05 -2.564292E+01  7.036430E+03 -4.190486E+02  7.087554E-10 -6.231990E-10
        31  17  8.528386E+05  4.392431E+02  9.848110E+03  4.500442E+02  4.992033E-10 -3.854715E-10
        31  18  8.534351E+05  3.133938E+03  1.641124E+04  1.319148E+03  4.171289E-11 -8.053729E-10
        31  19  8.534380E+05 -2.564175E+01  7.036439E+03  4.190486E+02  2.090371E+03  1.409097E-03
        31  20  8.528387E+05  4.392563E+02  9.848202E+03 -4.500442E+02  7.001359E+03 -5.068640E-03
        31  21  8.534352E+05  3.133976E+03  1.641151E+04 -1.319148E+03  1.191244E+04 -2.527832E-02
        31  22  8.534380E+05 -2.564207E+01  7.036439E+03 -2.621973E-09  2.090371E+03 -1.019735E-09
        31  23  8.528387E+05  4.392559E+02  9.848202E+03  8.034240E-10  7.001359E+03 -2.669762E-10
        31  24  8.534352E+05  3.133973E+03  1.641150E+04 -1.898551E-09  1.191244E+04 -1.199590E-10
        31  25  8.534380E+05 -2.564175E+01  7.036439E+03 -4.190486E+02  2.090371E+03 -1.409099E-03
        31  26  8.528387E+05  4.392563E+02  9.848202E+03  4.500442E+02  7.001359E+03  5.068640E-03
        31  27  8.534352E+05  3.133976E+03  1.641151E+04  1.319148E+03  1.191244E+04  2.527832E-02
        32   1  8.560209E+05  2.086171E+03  2.116965E+04  4.040875E+03 -1.471215E+04 -9.563212E-02
        32   2  8.495965E+05  1.535636E+04  3.782699E+04 -1.976525E+04 -3.424460E+04  1.088809E+00
        32   3  8.559946E+05  6.976671E+04  7.747414E+04 -4.357184E+04 -5.377706E+04  3.769283E+00
        32   4  8.560209E+05  2.086140E+03  2.116965E+04 -3.853501E-09 -1.471215E+04 -1.088020E-09
        32   5  8.495961E+05  1.535563E+04  3.782689E+04  2.518299E-09 -3.424460E+04 -6.369796E-10
        32   6  8.559925E+05  6.976314E+04  7.747363E+04 -1.012224E-09 -5.377706E+04 -5.085122E-11
        32   7  8.560209E+05  2.086171E+03  2.116965E+04 -4.040875E+03 -1.471215E+04  9.563211E-02
        32   8  8.495965E+05  1.535636E+04  3.782699E+04  1.976525E+04 -3.424460E+04 -1.088809E+00
        32   9  8.559946E+05  6.976671E+04  7.747414E+04  4.357184E+04 -5.377706E+04 -3.769283E+00
        32  10  8.560207E+05  2.086113E+03  2.116925E+04  4.040875E+03 -5.806768E-10 -4.972204E-10
        32  11  8.495952E+05  1.535605E+04  3.782479E+04 -1.976525E+04 -1.485575E-09 -5.326700E-10
        32  12  8.559915E+05  6.976593E+04  7.746871E+04 -4.357184E+04 -5.871143E-10 -1.560494E-10
        32  13  8.560206E+05  2.086082E+03  2.116924E+04 -2.146997E-09  2.439521E-10 -6.726362E-10
        32  14  8.495948E+05  1.535531E+04  3.782469E+04 -5.432412E-10  1.515753E-10 -4.434617E-10
        32  15  8.559894E+05  6.976237E+04  7.746820E+04  1.195204E-09  9.511942E-10 -1.178098E-10
        32  16  8.560207E+05  2.086113E+03  2.116925E+04 -4.040875E+03  1.607642E-09 -8.557937E-10
        32  17  8.495952E+05  1.535605E+04  3.782479E+04  1.976525E+04 -2.961236E-11 -3.502009E-10
        32  18  8.559915E+05  6.976593E+04  7.746871E+04  4.357184E+04  1.191098E-09 -2.514713E-11
        32  19  8.560209E+05  2.086171E+03  2.116965E+04  4.040875E+03  1.471215E+04  9.563212E-02
        32  20  8.495965E+05  1.535636E+04  3.782699E+04 -1.976525E+04  3.424460E+04 -1.088809E+00
        32  21  8.559946E+05  6.976671E+04  7.747414E+04 -4.357184E+04  5.377706E+04 -3.769283E+00
        32  22  8.560209E+05  2.086140E+03  2.116965E+04 -2.597263E-09  1.471215E+04 -2.547326E-10
        32  23  8.495961E+05  1.535563E+04  3.782689E+04 -1.452197E-09  3.424460E+04 -2.747539E-10
        32  24  8.559925E+05  6.976314E+04  7.747363E+04 -3.067920E-09  5.377706E+04 -1.821625E-10
        32  25  8.560209E+05  2.086171E+03  2.116965E+04 -4.040875E+03  1.471215E+04 -9.563212E-02
        32  26  8.495965E+05  1.535636E+04  3.782699E+04  1.976525E+04  3.424460E+04  1.088809E+00
        32  27  8.559946E+05  6.976671E+04  7.747414E+04  4.357184E+04  5.377706E+04  3.769283E+00
        33   1 -4.846656E+05 -1.478484E+06 -4.848447E+05  3.709315E+05 -1.707207E+04 -1.897025E+05
        33   2 -3.005860E+05 -1.174375E+06 -2.986535E+05  2.944018E+05 -5.254787E+04 -9.308319E+04
        33   3 -2.047968E+05 -9.047847E+05 -1.975188E+05  2.807424E+05 -5.282842E+04  3.587740E+03
        33   4 -1.322721E+05 -5.505453E+04 -1.472161E+05  2.888574E+05 -1.699586E+04 -1.006985E+05
        33   5 -2.902451E+04 -4.280534E+04 -7.295203E+04  2.573727E+05 -5.251278E+04 -6.302566E+04
        33   6 -3.728594E+03 -5.484158E+04 -4.268712E+04  2.887754E+05 -5.284976E+04 -2.535194E+04
        33   7  2.200055E+05  1.370270E+06  1.903050E+05  2.065932E+05 -1.694335E+04 -1.149089E+04
        33   8  2.424642E+05  1.089994E+06  1.526894E+05  2.202743E+05 -5.248133E+04 -3.291430E+04
        33   9  1.972996E+05  7.958065E+05  1.121188E+05  2.968195E+05 -5.287183E+04 -5.433020E+04
        33  10 -4.846756E+05 -1.478523E+06 -4.849131E+05  3.709289E+05 -6.065555E-10 -1.664817E-09
        33  11 -3.005913E+05 -1.174385E+06 -2.986750E+05  2.943978E+05 -8.095949E-10  6.456111E-10
        33  12 -2.047998E+05 -9.047855E+05 -1.975241E+05  2.807425E+05  1.187267E-09  2.682536E-09
        33  13 -1.322752E+05 -5.506550E+04 -1.472357E+05  2.888560E+05 -1.428335E-09 -5.576554E-11
        33  14 -2.902854E+04 -4.281035E+04 -7.296467E+04  2.573701E+05 -1.167185E-10  3.121011E-10
        33  15 -3.731765E+03 -5.484302E+04 -4.269357E+04  2.887743E+05  4.457333E-10 -1.204376E-10
        33  16  2.200051E+05  1.370270E+06  1.903042E+05  2.065931E+05  1.986859E-10  1.659840E-09
        33  17  2.424609E+05  1.089992E+06  1.526822E+05  2.202729E+05 -1.490704E-09 -4.957590E-10
        33  18  1.972958E+05  7.958025E+05  1.121080E+05  2.968171E+05  3.853504E-10 -2.698759E-09
        33  19 -4.846656E+05 -1.478484E+06 -4.848447E+05  3.709315E+05  1.707207E+04  1.897025E+05
        33  20 -3.005860E+05 -1.174375E+06 -2.986535E+05  2.944018E+05  5.254787E+04  9.308319E+04
        33  21 -2.047968E+05 -9.047847E+05 -1.975188E+05  2.807424E+05  5.282842E+04 -3.587740E+03
        33  22 -1.322721E+05 -5.505453E+04 -1.472161E+05  2.888574E+05  1.699586E+04  1.006985E+05
        33  23 -2.902451E+04 -4.280534E+04 -7.295203E+04  2.573727E+05  5.251278E+04  6.302566E+04
        33  24 -3.728594E+03 -5.484158E+04 -4.268712E+04  2.887754E+05  5.284976E+04  2.535194E+04
        33  25  2.200055E+05  1.370270E+06  1.903050E+05  2.065932E+05  1.694335E+04  1.149089E+04
        33  26  2.424642E+05  1.089994E+06  1.526894E+05  2.202743E+05  5.248133E+04  3.291430E+04
        33  27  1.972996E+05  7.958065E+05  1.121188E+05  2.968195E+05  5.287183E+04  5.433020E+04
        34   1 -1.617711E+05 -7.114133E+05 -1.540231E+05  2.917822E+05 -4.204065E+04  5.540559E+03
        34   2 -8.887881E+04 -4.229338E+05 -8.987670E+04  2.567781E+05 -2.631026E+04  2.062425E+04
        34   3 -2.270710E+04 -1.380903E+05 -3.726244E+04  2.868544E+05 -9.027053E+03  3.570895E+04
        34   4 -5.574931E+03 -5.011560E+04 -3.460839E+04  2.892691E+05 -4.206278E+04 -1.954800E+04
        34   5 -9.921598E+02 -4.844986E+04 -2.502976E+04  2.567278E+05 -2.633872E+04 -7.066297E+03
        34   6 -2.670674E+03 -5.004476E+04 -2.516842E+04  2.892657E+05 -9.062347E+03  5.409810E+03
        34   7  1.505971E+05  6.116096E+05  8.479153E+04  2.867530E+05 -4.208469E+04 -4.466255E+04
        34   8  8.688734E+04  3.261733E+05  3.981521E+04  2.566774E+05 -2.636716E+04 -3.477304E+04
        34   9  1.736593E+04  3.801068E+04 -1.307102E+04  2.916773E+05 -9.097871E+03 -2.489343E+04
        34  10 -1.617730E+05 -7.114138E+05 -1.540264E+05  2.917824E+05  1.869851E-09 -2.028677E-09
        34  11 -8.887966E+04 -4.229344E+05 -8.987880E+04  2.567785E+05 -5.766984E-10  6.363592E-10
        34  12 -2.270753E+04 -1.380917E+05 -3.726499E+04  2.868546E+05  1.317744E-09  2.537006E-09
        34  13 -5.576933E+03 -5.011648E+04 -3.461243E+04  2.892684E+05  1.392834E-09 -3.073272E-10
        34  14 -9.929180E+02 -4.845010E+04 -2.503115E+04  2.567277E+05 -2.368974E-09  7.265835E-10
        34  15 -2.670770E+03 -5.004481E+04 -2.516863E+04  2.892657E+05  3.914717E-10 -1.499650E-10
        34  16  1.505946E+05  6.116070E+05  8.478447E+04  2.867515E+05 -5.258026E-12  1.877257E-09
        34  17  8.688627E+04  3.261718E+05  3.981163E+04  2.566767E+05 -3.546569E-11 -2.888655E-10
        34  18  1.736568E+04  3.800999E+04 -1.307234E+04  2.916771E+05 -4.214380E-10 -2.443787E-09
        34  19 -1.617711E+05 -7.114133E+05 -1.540231E+05  2.917822E+05  4.204065E+04 -5.540559E+03
        34  20 -8.887881E+04 -4.229338E+05 -8.987670E+04  2.567781E+05  2.631026E+04 -2.062425E+04
        34  21 -2.270710E+04 -1.380903E+05 -3.726244E+04  2.868544E+05  9.027053E+03 -3.570895E+04
        34  22 -5.574931E+03 -5.011560E+04 -3.460839E+04  2.892691E+05  4.206278E+04  1.954800E+04
        34  23 -9.921598E+02 -4.844986E+04 -2.502976E+04  2.567278E+05  2.633872E+04  7.066297E+03
        34  24 -2.670674E+03 -5.004476E+04 -2.516842E+04  2.892657E+05  9.062347E+03 -5.409810E+03
        34  25  1.505971E+05  6.116096E+05  8.479153E+04  2.867530E+05  4.208469E+04  4.466255E+04
        34  26  8.688734E+04  3.261733E+05  3.981521E+04  2.566774E+05  2.636716E+04  3.477304E+04
        34  27  1.736593E+04  3.801068E+04 -1.307102E+04  2.916773E+05  9.097871E+03  2.489343E+04
        35   1  2.271762E+04  4.761089E+04 -5.686337E+03  2.929640E+05  2.579007E+03  4.150216E+04
        35   2  7.777777E+04  3.387407E+05  4.008178E+04  2.364542E+05  1.281008E+04  3.359685E+04
        35   3  9.520615E+04  6.215102E+05  8.156413E+04  2.440694E+05  5.461931E+03  2.569705E+04
        35   4 -1.726432E+03 -5.233741E+04 -2.791042E+04  2.890499E+05  2.541274E+03  9.517480E+03
        35   5 -1.544148E+04 -4.558539E+04 -4.200488E+04  2.570121E+05  1.280916E+04  3.114426E+04
        35   6 -7.192752E+04 -5.241074E+04 -8.089943E+04  2.891129E+05  5.492186E+03  5.277939E+04
        35   7 -2.617055E+04 -1.522742E+05 -5.013127E+04  2.851364E+05  2.503940E+03 -2.246211E+04
        35   8 -1.086688E+05 -4.297715E+05 -1.240998E+05  2.775571E+05  1.280808E+04  2.869316E+04
        35   9 -2.390862E+05 -7.259106E+05 -2.433916E+05  3.341072E+05  5.526392E+03  7.983243E+04
        35  10  2.271715E+04  4.760904E+04 -5.689586E+03  2.929639E+05  1.045329E-09 -2.798915E-09
        35  11  7.777729E+04  3.387394E+05  4.007935E+04  2.364538E+05 -1.284855E-09 -2.650495E-10
        35  12  9.520594E+04  6.215095E+05  8.156283E+04  2.440693E+05 -1.731221E-10  1.523719E-09
        35  13 -1.726464E+03 -5.233751E+04 -2.791060E+04  2.890499E+05  1.346802E-09 -3.663420E-10
        35  14 -1.544192E+04 -4.558647E+04 -4.200701E+04  2.570118E+05 -1.425481E-09  6.694218E-10
        35  15 -7.192830E+04 -5.241374E+04 -8.090472E+04  2.891127E+05 -7.480233E-10 -1.250256E-10
        35  16 -2.617069E+04 -1.522747E+05 -5.013223E+04  2.851365E+05 -7.170078E-10  2.631582E-09
        35  17 -1.086692E+05 -4.297724E+05 -1.241017E+05  2.775568E+05 -1.163796E-09  6.570098E-10
        35  18 -2.390880E+05 -7.259174E+05 -2.434036E+05  3.341069E+05 -1.825680E-10 -1.485515E-09
        35  19  2.271762E+04  4.761089E+04 -5.686337E+03  2.929640E+05 -2.579007E+03 -4.150216E+04
        35  20  7.777777E+04  3.387407E+05  4.008178E+04  2.364542E+05 -1.281008E+04 -3.359685E+04
        35  21  9.520615E+04  6.215102E+05  8.156413E+04  2.440694E+05 -5.461931E+03 -2.569705E+04
        35  22 -1.726432E+03 -5.233741E+04 -2.791042E+04  2.890499E+05 -2.541274E+03 -9.517480E+03
        35  23 -1.544148E+04 -4.558539E+04 -4.200488E+04  2.570121E+05 -1.280916E+04 -3.114426E+04
        35  24 -7.192752E+04 -5.241074E+04 -8.089943E+04  2.891129E+05 -5.492186E+03 -5.277939E+04
        35  25 -2.617055E+04 -1.522742E+05 -5.013127E+04  2.851364E+05 -2.503940E+03  2.246211E+04
        35  26 -1.086688E+05 -4.297715E+05 -1.240998E+05  2.775571E+05 -1.280808E+04 -2.869316E+04
        35  27 -2.390862E+05 -7.259106E+05 -2.433916E+05  3.341072E+05 -5.526392E+03 -7.983243E+04
        36   1  6.186770E+05  2.493591E+04  2.773461E+04  1.559804E+04  1.896811E+04  4.761086E-01
        36   2  6.163808E+05  5.477608E+03  1.375190E+04  7.100598E+03  1.187241E+04  1.356582E-01
        36   3  6.186840E+05  7.283771E+02  8.062681E+03 -1.396658E+03  4.776806E+03 -1.073590E-02
        36   4  6.186768E+05  2.493546E+04  2.773455E+04 -6.237289E-10  1.896811E+04  6.541989E-11
        36   5  6.163808E+05  5.477514E+03  1.375189E+04  1.772846E-09  1.187241E+04  1.698405E-10
        36   6  6.186840E+05  7.283735E+02  8.062681E+03  7.314998E-10  4.776806E+03 -1.465478E-10
        36   7  6.186770E+05  2.493591E+04  2.773461E+04 -1.559804E+04  1.896811E+04 -4.761086E-01
        36   8  6.163808E+05  5.477608E+03  1.375190E+04 -7.100598E+03  1.187241E+04 -1.356582E-01
        36   9  6.186840E+05  7.283771E+02  8.062681E+03  1.396658E+03  4.776806E+03  1.073590E-02
        36  10  6.186766E+05  2.493582E+04  2.773394E+04  1.559804E+04 -2.096159E-11  4.957026E-11
        36  11  6.163807E+05  5.477570E+03  1.375164E+04  7.100598E+03  3.893213E-10  9.068301E-11
        36  12  6.186840E+05  7.283710E+02  8.062638E+03 -1.396658E+03 -3.773933E-10 -1.163013E-10
        36  13  6.186764E+05  2.493536E+04  2.773387E+04  4.419472E-10  3.088658E-10 -3.089901E-13
        36  14  6.163806E+05  5.477476E+03  1.375162E+04  1.485646E-09 -2.213413E-10 -2.444697E-11
        36  15  6.186840E+05  7.283673E+02  8.062638E+03  6.399711E-10  1.038945E-09 -6.093946E-11
        36  16  6.186766E+05  2.493582E+04  2.773394E+04 -1.559804E+04  6.416669E-10 -6.359184E-11
        36  17  6.163807E+05  5.477570E+03  1.375164E+04 -7.100598E+03  9.770203E-10 -1.259593E-10
        36  18  6.186840E+05  7.283710E+02  8.062638E+03  1.396658E+03 -3.974075E-10 -2.816330E-11
        36  19  6.186770E+05  2.493591E+04  2.773461E+04  1.559804E+04 -1.896811E+04 -4.761086E-01
        36  20  6.163808E+05  5.477608E+03  1.375190E+04  7.100598E+03 -1.187241E+04 -1.356582E-01
        36  21  6.186840E+05  7.283771E+02  8.062681E+03 -1.396658E+03 -4.776806E+03  1.073590E-02
        36  22  6.186768E+05  2.493546E+04  2.773455E+04 -1.093047E-10 -1.896811E+04 -7.089733E-11
        36  23  6.163808E+05  5.477514E+03  1.375189E+04  1.467760E-09 -1.187241E+04 -2.108451E-10
        36  24  6.186840E+05  7.283735E+02  8.062681E+03 -3.194497E-10 -4.776806E+03  2.282671E-11
        36  25  6.186770E+05  2.493591E+04  2.773461E+04 -1.559804E+04 -1.896811E+04  4.761086E-01
        36  26  6.163808E+05  5.477608E+03  1.375190E+04 -7.100598E+03 -1.187241E+04  1.356582E-01
        36  27  6.186840E+05  7.283771E+02  8.062681E+03  1.396658E+03 -4.776806E+03 -1.073590E-02
        37   1  6.177775E+05  1.097360E+03  6.545343E+03  5.364265E+02  3.670046E+03  3.168057E-03
        37   2  6.175165E+05  1.226577E+02  4.743202E+03  2.509432E+02  1.309279E+03  5.287113E-04
        37   3  6.177780E+05  1.032844E+01  4.692508E+03 -3.454439E+01 -1.051522E+03  5.845267E-05
        37   4  6.177775E+05  1.097360E+03  6.545343E+03 -3.262077E-11  3.670046E+03 -3.104585E-10
        37   5  6.175165E+05  1.226576E+02  4.743202E+03  1.369766E-09  1.309279E+03 -4.400609E-10
        37   6  6.177780E+05  1.032844E+01  4.692508E+03  6.713218E-10 -1.051522E+03 -7.181147E-10
        37   7  6.177775E+05  1.097360E+03  6.545343E+03 -5.364265E+02  3.670046E+03 -3.168057E-03
        37   8  6.175165E+05  1.226577E+02  4.743202E+03 -2.509432E+02  1.309279E+03 -5.287121E-04
        37   9  6.177780E+05  1.032844E+01  4.692508E+03  3.454439E+01 -1.051522E+03 -5.845409E-05
        37  10  6.177775E+05  1.097357E+03  6.545318E+03  5.364265E+02  6.966298E-10 -2.478212E-10
        37  11  6.175165E+05  1.226572E+02  4.743199E+03  2.509432E+02 -1.002699E-09 -2.591408E-10
        37  12  6.177780E+05  1.032814E+01  4.692506E+03 -3.454439E+01 -1.238602E-10  7.285375E-11
        37  13  6.177775E+05  1.097356E+03  6.545318E+03 -1.978236E-10  7.529921E-10 -1.593918E-10
        37  14  6.175165E+05  1.226571E+02  4.743199E+03  1.864192E-09  1.411428E-09 -3.120381E-10
        37  15  6.177780E+05  1.032814E+01  4.692506E+03  2.844758E-09 -9.196417E-11 -2.996488E-10
        37  16  6.177775E+05  1.097357E+03  6.545318E+03 -5.364265E+02 -1.269679E-09 -7.226554E-11
        37  17  6.175165E+05  1.226572E+02  4.743199E+03 -2.509432E+02  7.192988E-10 -3.832455E-10
        37  18  6.177780E+05  1.032814E+01  4.692506E+03  3.454439E+01  1.159214E-09 -6.471224E-10
        37  19  6.177775E+05  1.097360E+03  6.545343E+03  5.364265E+02 -3.670046E+03 -3.168057E-03
        37  20  6.175165E+05  1.226577E+02  4.743202E+03  2.509432E+02 -1.309279E+03 -5.287119E-04
        37  21  6.177780E+05  1.032844E+01  4.692508E+03 -3.454439E+01  1.051522E+03 -5.845258E-05
        37  22  6.177775E+05  1.097360E+03  6.545343E+03 -1.435006E-09 -3.670046E+03  7.142071E-12
        37  23  6.175165E+05  1.226576E+02  4.743202E+03  2.895133E-09 -1.309279E+03 -1.929814E-10
        37  24  6.177780E+05  1.032844E+01  4.692508E+03  2.905394E-10  1.051522E+03  1.315176E-10
        37  25  6.177775E+05  1.097360E+03  6.545343E+03 -5.364265E+02 -3.670046E+03  3.168057E-03
        37  26  6.175165E+05  1.226577E+02  4.743202E+03 -2.509432E+02 -1.309279E+03  5.287114E-04
        37  27  6.177780E+05  1.032844E+01  4.692508E+03  3.454439E+01  1.051522E+03  5.845284E-05
        38   1  6.178678E+05 -2.318020E+01  5.205877E+03  3.471373E+02 -1.916579E+03 -1.070630E-03
        38   2  6.174036E+05  3.506792E+02  7.562830E+03 -3.403169E+02 -5.688336E+03  3.115160E-03
        38   3  6.178662E+05  2.469265E+03  1.280979E+04 -1.027770E+03 -9.460108E+03  1.564600E-02
        38   4  6.178678E+05 -2.318043E+01  5.205877E+03 -3.024042E-09 -1.916579E+03 -5.080998E-10
        38   5  6.174036E+05  3.506790E+02  7.562830E+03 -2.079117E-09 -5.688336E+03 -6.104409E-11
        38   6  6.178662E+05  2.469264E+03  1.280979E+04 -1.067913E-09 -9.460108E+03 -7.229465E-10
        38   7  6.178678E+05 -2.318020E+01  5.205877E+03 -3.471373E+02 -1.916579E+03  1.070629E-03
        38   8  6.174036E+05  3.506792E+02  7.562830E+03  3.403169E+02 -5.688336E+03 -3.115160E-03
        38   9  6.178662E+05  2.469265E+03  1.280979E+04  1.027770E+03 -9.460108E+03 -1.564600E-02
        38  10  6.178678E+05 -2.318119E+01  5.205871E+03  3.471373E+02 -4.151681E-12  2.762278E-11
        38  11  6.174036E+05  3.506705E+02  7.562769E+03 -3.403169E+02 -1.202811E-09 -2.253234E-10
        38  12  6.178661E+05  2.469241E+03  1.280963E+04 -1.027770E+03  4.821531E-10 -2.858878E-10
        38  13  6.178678E+05 -2.318141E+01  5.205871E+03 -2.306540E-09  5.807136E-10 -1.612672E-10
        38  14  6.174036E+05  3.506703E+02  7.562769E+03 -1.586797E-09 -4.273603E-10 -5.623633E-11
        38  15  6.178661E+05  2.469240E+03  1.280963E+04 -5.893275E-10  4.279030E-11 -3.284527E-10
        38  16  6.178678E+05 -2.318119E+01  5.205871E+03 -3.471373E+02  1.021987E-09 -3.679400E-10
        38  17  6.174036E+05  3.506705E+02  7.562769E+03  3.403169E+02  6.726050E-10  1.083444E-10
        38  18  6.178661E+05  2.469241E+03  1.280963E+04  1.027770E+03 -9.372247E-11 -3.754958E-10
        38  19  6.178678E+05 -2.318020E+01  5.205877E+03  3.471373E+02  1.916579E+03  1.070630E-03
        38  20  6.174036E+05  3.506792E+02  7.562830E+03 -3.403169E+02  5.688336E+03 -3.115160E-03
        38  21  6.178662E+05  2.469265E+03  1.280979E+04 -1.027770E+03  9.460108E+03 -1.564600E-02
        38  22  6.178678E+05 -2.318043E+01  5.205877E+03 -3.204896E-09  1.916579E+03  1.775196E-10
        38  23  6.174036E+05  3.506790E+02  7.562830E+03 -2.144677E-11  5.688336E+03 -7.684039E-11
        38  24  6.178662E+05  2.469264E+03  1.280979E+04 -6.640869E-10  9.460108E+03  6.515597E-11
        38  25  6.178678E+05 -2.318020E+01  5.205877E+03 -3.471373E+02  1.916579E+03 -1.070629E-03
        38  26  6.174036E+05  3.506792E+02  7.562830E+03  3.403169E+02  5.688336E+03  3.115160E-03
        38  27  6.178662E+05  2.469265E+03  1.280979E+04  1.027770E+03  9.460108E+03  1.564600E-02
        39   1  6.199035E+05  1.643074E+03  1.658153E+04  3.187704E+03 -1.164628E+04 -5.974138E-02
        39   2  6.148512E+05  1.208344E+04  2.972907E+04 -1.554401E+04 -2.699722E+04  6.752993E-01
        39   3  6.198886E+05  5.489999E+04  6.095822E+04 -3.427573E+04 -4.234794E+04  2.335780E+00
        39   4  6.199035E+05  1.643055E+03  1.658153E+04  5.186360E-10 -1.164628E+04 -1.084380E-09
        39   5  6.148509E+05  1.208299E+04  2.972900E+04  1.897876E-09 -2.699722E+04 -7.739479E-10
        39   6  6.198874E+05  5.489779E+04  6.095791E+04 -8.961781E-10 -4.234794E+04 -1.839619E-10
        39   7  6.199035E+05  1.643074E+03  1.658153E+04 -3.187704E+03 -1.164628E+04  5.974138E-02
        39   8  6.148512E+05  1.208344E+04  2.972907E+04  1.554401E+04 -2.699722E+04 -6.752993E-01
        39   9  6.198886E+05  5.489999E+04  6.095822E+04  3.427573E+04 -4.234794E+04 -2.335780E+00
        39  10  6.199034E+05  1.643037E+03  1.658128E+04  3.187704E+03 -5.830999E-10 -2.967866E-10
        39  11  6.148504E+05  1.208325E+04  2.972770E+04 -1.554401E+04 -4.461933E-10 -3.352186E-10
        39  12  6.198867E+05  5.489951E+04  6.095485E+04 -3.427573E+04 -9.445863E-10 -1.293004E-10
        39  13  6.199034E+05  1.643018E+03  1.658127E+04  1.279269E-09 -4.299027E-10 -3.571852E-10
        39  14  6.148502E+05  1.208279E+04  2.972763E+04  3.914354E-10 -1.615892E-09 -9.110146E-11
        39  15  6.198854E+05  5.489731E+04  6.095454E+04  1.788558E-09 -1.075291E-09  5.880610E-12
        39  16  6.199034E+05  1.643037E+03  1.658128E+04 -3.187704E+03 -6.181571E-12 -4.033435E-10
        39  17  6.148504E+05  1.208325E+04  2.972770E+04  1.554401E+04  1.251461E-11  1.801639E-10
        39  18  6.198867E+05  5.489951E+04  6.095485E+04  3.427573E+04  1.195351E-09  1.679679E-10
        39  19  6.199035E+05  1.643074E+03  1.658153E+04  3.187704E+03  1.164628E+04  5.974138E-02
        39  20  6.148512E+05  1.208344E+04  2.972907E+04 -1.554401E+04  2.699722E+04 -6.752993E-01
        39  21  6.198886E+05  5.489999E+04  6.095822E+04 -3.427573E+04  4.234794E+04 -2.335780E+00
        39  22  6.199035E+05  1.643055E+03  1.658153E+04  9.658360E-10  1.164628E+04  3.639258E-10
        39  23  6.148509E+05  1.208299E+04  2.972900E+04  1.043710E-09  2.699722E+04  5.951798E-10
        39  24  6.198874E+05  5.489779E+04  6.095791E+04 -3.470231E-10  4.234794E+04  1.962783E-10
        39  25  6.199035E+05  1.643074E+03  1.658153E+04 -3.187704E+03  1.164628E+04 -5.974138E-02
        39  26  6.148512E+05  1.208344E+04  2.972907E+04  1.554401E+04  2.699722E+04  6.752993E-01
        39  27  6.198886E+05  5.489999E+04  6.095822E+04  3.427573E+04  4.234794E+04  2.335780E+00
        40   1 -4.015476E+05 -1.255358E+06 -3.994684E+05  3.067119E+05 -1.486061E+04 -1.501865E+05
        40   2 -2.576468E+05 -9.963715E+05 -2.494103E+05  2.472523E+05 -4.590060E+04 -7.173814E+04
        40   3 -1.789478E+05 -7.637943E+05 -1.667800E+05  2.416380E+05 -4.639345E+04  6.746143E+03
        40   4 -9.543506E+04 -1.872231E+04 -1.062505E+05  2.474828E+05 -1.480799E+04 -7.249265E+04
        40   5 -2.094081E+04 -9.879378E+03 -5.279136E+04  2.205297E+05 -4.587507E+04 -4.523395E+04
        40   6 -2.691677E+03 -1.856491E+04 -3.112861E+04  2.474316E+05 -4.640897E+04 -1.797457E+04
        40   7  2.105841E+05  1.219341E+06  1.868857E+05  1.881345E+05 -1.477030E+04  5.355487E+03
        40   8  2.157087E+05  9.775465E+05  1.437819E+05  1.937634E+05 -4.585185E+04 -1.868840E+04
        40   9  1.735335E+05  7.272063E+05  1.045029E+05  2.532321E+05 -4.642495E+04 -4.272417E+04
        40  10 -4.015539E+05 -1.255383E+06 -3.995113E+05  3.067101E+05 -7.838511E-10  5.657838E-08
        40  11 -2.576505E+05 -9.963776E+05 -2.494239E+05  2.472496E+05 -1.842018E-09 -1.072629E-08
        40  12 -1.789501E+05 -7.637949E+05 -1.667841E+05  2.416382E+05  5.659793E-10 -7.823144E-08
        40  13 -9.543670E+04 -1.872801E+04 -1.062608E+05  2.474820E+05 -1.301269E-09  7.214787E-11
        40  14 -2.094362E+04 -9.882140E+03 -5.279916E+04  2.205280E+05 -1.170171E-09 -1.564695E-11
        40  15 -2.694076E+03 -1.856583E+04 -3.113326E+04  2.474309E+05  2.037871E-10 -2.332348E-10
        40  16  2.105838E+05  1.219341E+06  1.868853E+05  1.881346E+05 -2.787295E-10 -5.674003E-08
        40  17  2.157064E+05  9.775456E+05  1.437773E+05  1.937627E+05 -1.429424E-09  1.109488E-08
        40  18  1.735307E+05  7.272037E+05  1.044954E+05  2.532306E+05  4.857896E-10  7.861590E-08
        40  19 -4.015476E+05 -1.255358E+06 -3.994684E+05  3.067119E+05  1.486061E+04  1.501865E+05
        40  20 -2.576468E+05 -9.963715E+05 -2.494103E+05  2.472523E+05  4.590060E+04  7.173814E+04
        40  21 -1.789478E+05 -7.637943E+05 -1.667800E+05  2.416380E+05  4.639345E+04 -6.746143E+03
        40  22 -9.543506E+04 -1.872231E+04 -1.062505E+05  2.474828E+05  1.480799E+04  7.249265E+04
        40  23 -2.094081E+04 -9.879378E+03 -5.279136E+04  2.205297E+05  4.587507E+04  4.523395E+04
        40  24 -2.691677E+03 -1.856491E+04 -3.112861E+04  2.474316E+05  4.640897E+04  1.797457E+04
        40  25  2.105841E+05  1.219341E+06  1.868857E+05  1.881345E+05  1.477030E+04 -5.355487E+03
        40  26  2.157087E+05  9.775465E+05  1.437819E+05  1.937634E+05  4.585185E+04  1.868840E+04
        40  27  1.735335E+05  7.272063E+05  1.045029E+05  2.532321E+05  4.642495E+04  4.272417E+04
        41   1 -1.418231E+05 -5.987445E+05 -1.307048E+05  2.497053E+05 -3.717148E+04  7.655510E+03
        41   2 -8.002930E+04 -3.517320E+05 -7.736894E+04  2.199661E+05 -2.373359E+04  1.941714E+04
        41   3 -2.337020E+04 -1.075288E+05 -3.299675E+04  2.459842E+05 -8.895120E+03  3.117883E+04
        41   4 -4.013413E+03 -1.517514E+04 -2.542049E+04  2.478581E+05 -3.718763E+04 -1.371914E+04
        41   5 -7.532980E+02 -1.391881E+04 -1.887517E+04  2.199792E+05 -2.375465E+04 -4.306259E+03
        41   6 -2.214853E+03 -1.512044E+04 -1.965736E+04  2.478562E+05 -8.921510E+03  5.102264E+03
        41   7  1.337775E+05  5.687271E+05  7.985221E+04  2.460090E+05 -3.720365E+04 -3.511333E+04
        41   8  7.851686E+04  3.240076E+05  3.961676E+04  2.199921E+05 -2.377570E+04 -2.804218E+04
        41   9  1.894048E+04  7.729797E+04 -6.315555E+03  2.497286E+05 -8.948055E+03 -2.097802E+04
        41  10 -1.418246E+05 -5.987450E+05 -1.307075E+05  2.497055E+05  1.806577E-09  1.783589E-08
        41  11 -8.003001E+04 -3.517326E+05 -7.737071E+04  2.199665E+05  1.406287E-09  7.379558E-09
        41  12 -2.337054E+04 -1.075298E+05 -3.299872E+04  2.459844E+05  5.102214E-10 -6.839456E-09
        41  13 -4.014948E+03 -1.517571E+04 -2.542344E+04  2.478577E+05  2.108039E-09  5.488282E-10
        41  14 -7.539089E+02 -1.391898E+04 -1.887627E+04  2.199791E+05  5.623758E-10 -2.331646E-13
        41  15 -2.214945E+03 -1.512049E+04 -1.965756E+04  2.478563E+05 -3.698685E-10 -3.055190E-10
        41  16  1.337756E+05  5.687254E+05  7.984729E+04  2.460080E+05  4.181456E-10 -1.823939E-08
        41  17  7.851604E+04  3.240066E+05  3.961422E+04  2.199916E+05  8.418228E-10 -6.566497E-09
        41  18  1.894027E+04  7.729748E+04 -6.316532E+03  2.497284E+05 -2.632367E-10  7.242318E-09
        41  19 -1.418231E+05 -5.987445E+05 -1.307048E+05  2.497053E+05  3.717148E+04 -7.655510E+03
        41  20 -8.002930E+04 -3.517320E+05 -7.736894E+04  2.199661E+05  2.373359E+04 -1.941714E+04
        41  21 -2.337020E+04 -1.075288E+05 -3.299675E+04  2.459842E+05  8.895120E+03 -3.117883E+04
        41  22 -4.013413E+03 -1.517514E+04 -2.542049E+04  2.478581E+05  3.718763E+04  1.371914E+04
        41  23 -7.532980E+02 -1.391881E+04 -1.887517E+04  2.199792E+05  2.375465E+04  4.306259E+03
        41  24 -2.214853E+03 -1.512044E+04 -1.965736E+04  2.478562E+05  8.921510E+03 -5.102264E+03
        41  25  1.337775E+05  5.687271E+05  7.985221E+04  2.460090E+05  3.720365E+04  3.511333E+04
        41  26  7.851686E+04  3.240076E+05  3.961676E+04  2.199921E+05  2.377570E+04  2.804218E+04
        41  27  1.894048E+04  7.729797E+04 -6.315555E+03  2.497286E+05  8.948055E+03  2.097802E+04
        42   1  1.551029E+04  5.161416E+04 -6.072095E+03  2.508846E+05  1.065298E+03  3.579262E+04
        42   2  6.323991E+04  3.007857E+05  3.317879E+04  2.034939E+05  1.007189E+04  2.861688E+04
        42   3  8.046406E+04  5.432739E+05  6.945576E+04  2.110707E+05  4.415924E+03  2.144515E+04
        42   4 -1.431175E+03 -1.702320E+04 -2.210918E+04  2.476782E+05  1.037060E+03  8.322086E+03
        42   5 -1.259340E+04 -1.153603E+04 -3.389694E+04  2.202122E+05  1.007038E+04  2.577941E+04
        42   6 -5.854513E+04 -1.707350E+04 -6.576830E+04  2.477232E+05  4.437262E+03  4.324295E+04
        42   7 -1.837253E+04 -8.565458E+04 -3.814375E+04  2.444721E+05  1.009104E+03 -1.914543E+04
        42   8 -8.843203E+04 -3.237654E+05 -1.009782E+05  2.369219E+05  1.006871E+04  2.294334E+04
        42   9 -1.975719E+05 -5.771300E+05 -2.010123E+05  2.843423E+05  4.461186E+03  6.502114E+04
        42  10  1.550995E+04  5.161278E+04 -6.074505E+03  2.508845E+05 -4.041129E-10 -1.164876E-09
        42  11  6.323958E+04  3.007848E+05  3.317706E+04  2.034937E+05 -4.626802E-10  8.053114E-10
        42  12  8.046392E+04  5.432734E+05  6.945486E+04  2.110707E+05 -1.172199E-10  9.484603E-10
        42  13 -1.431194E+03 -1.702328E+04 -2.210931E+04  2.476782E+05 -4.783734E-10  6.970808E-10
        42  14 -1.259368E+04 -1.153677E+04 -3.389838E+04  2.202120E+05 -2.129383E-09  2.746612E-11
        42  15 -5.854565E+04 -1.707551E+04 -6.577185E+04  2.477230E+05 -2.532573E-10 -2.639613E-10
        42  16 -1.837263E+04 -8.565497E+04 -3.814444E+04  2.444722E+05 -9.933007E-10  7.184961E-10
        42  17 -8.843228E+04 -3.237660E+05 -1.009794E+05  2.369217E+05 -7.973235E-11  6.416537E-11
        42  18 -1.975731E+05 -5.771345E+05 -2.010203E+05  2.843420E+05  1.998288E-10 -5.738236E-10
        42  19  1.551029E+04  5.161416E+04 -6.072095E+03  2.508846E+05 -1.065298E+03 -3.579262E+04
        42  20  6.323991E+04  3.007857E+05  3.317879E+04  2.034939E+05 -1.007189E+04 -2.861688E+04
        42  21  8.046406E+04  5.432739E+05  6.945576E+04  2.110707E+05 -4.415924E+03 -2.144515E+04
        42  22 -1.431175E+03 -1.702320E+04 -2.210918E+04  2.476782E+05 -1.037060E+03 -8.322086E+03
        42  23 -1.259340E+04 -1.153603E+04 -3.389694E+04  2.202122E+05 -1.007038E+04 -2.577941E+04
        42  24 -5.854513E+04 -1.707350E+04 -6.576830E+04  2.477232E+05 -4.437262E+03 -4.324295E+04
        42  25 -1.837253E+04 -8.565458E+04 -3.814375E+04  2.444721E+05 -1.009104E+03  1.914543E+04
        42  26 -8.843203E+04 -3.237654E+05 -1.009782E+05  2.369219E+05 -1.006871E+04 -2.294334E+04
        42  27 -1.975719E+05 -5.771300E+05 -2.010123E+05  2.843423E+05 -4.461186E+03 -6.502114E+04
        43   1  3.980786E+05  1.298872E+04  1.446059E+04  8.131792E+03  9.798995E+03  1.282705E-01
        43   2  3.968791E+05  2.849419E+03  7.236666E+03  3.709692E+03  6.066875E+03  3.622948E-02
        43   3  3.980809E+05  3.737982E+02  4.357366E+03 -7.124586E+02  2.334699E+03 -2.677618E-03
        43   4  3.980785E+05  1.298860E+04  1.446057E+04 -1.945993E-09  9.798995E+03  1.230255E-10
        43   5  3.968791E+05  2.849393E+03  7.236662E+03 -1.171176E-09  6.066875E+03  3.675216E-10
        43   6  3.980809E+05  3.737972E+02  4.357366E+03 -3.349051E-09  2.334699E+03  2.755264E-10
        43   7  3.980786E+05  1.298872E+04  1.446059E+04 -8.131792E+03  9.798995E+03 -1.282705E-01
        43   8  3.968791E+05  2.849419E+03  7.236666E+03 -3.709692E+03  6.066875E+03 -3.622948E-02
        43   9  3.980809E+05  3.737982E+02  4.357366E+03  7.124586E+02  2.334699E+03  2.677619E-03
        43  10  3.980785E+05  1.298869E+04  1.446041E+04  8.131792E+03 -1.307051E-09  6.810774E-11
        43  11  3.968791E+05  2.849409E+03  7.236597E+03  3.709692E+03 -2.326781E-10  3.373088E-10
        43  12  3.980809E+05  3.737967E+02  4.357356E+03 -7.124586E+02  5.658691E-10  5.256796E-10
        43  13  3.980784E+05  1.298857E+04  1.446039E+04 -6.878862E-10  1.300654E-10  1.023124E-10
        43  14  3.968790E+05  2.849383E+03  7.236593E+03 -3.428029E-10 -3.958846E-10  2.705165E-10
        43  15  3.980809E+05  3.737958E+02  4.357356E+03 -1.211616E-09  1.971225E-10  1.602728E-10
        43  16  3.980785E+05  1.298869E+04  1.446041E+04 -8.131792E+03  8.461317E-10  1.118245E-10
        43  17  3.968791E+05  2.849409E+03  7.236597E+03 -3.709692E+03  1.397269E-09  2.147174E-10
        43  18  3.980809E+05  3.737967E+02  4.357356E+03  7.124586E+02  4.578125E-10 -2.040735E-10
        43  19  3.980786E+05  1.298872E+04  1.446059E+04  8.131792E+03 -9.798995E+03 -1.282705E-01
        43  20  3.968791E+05  2.849419E+03  7.236666E+03  3.709692E+03 -6.066875E+03 -3.622948E-02
        43  21  3.980809E+05  3.737982E+02  4.357366E+03 -7.124586E+02 -2.334699E+03  2.677619E-03
        43  22  3.980785E+05  1.298860E+04  1.446057E+04 -5.069309E-10 -9.798995E+03  7.726342E-11
        43  23  3.968791E+05  2.849393E+03  7.236662E+03 -5.878839E-11 -6.066875E+03  1.645674E-10
        43  24  3.980809E+05  3.737972E+02  4.357366E+03 -2.577006E-09 -2.334699E+03  4.585413E-11
        43  25  3.980786E+05  1.298872E+04  1.446059E+04 -8.131792E+03 -9.798995E+03  1.282705E-01
        43  26  3.968791E+05  2.849419E+03  7.236666E+03 -3.709692E+03 -6.066875E+03  3.622948E-02
        43  27  3.980809E+05  3.737982E+02  4.357366E+03  7.124586E+02 -2.334699E+03 -2.677619E-03
        44   1  3.976144E+05  5.643150E+02  3.625359E+03  3.000253E+02  1.724623E+03  8.329343E-04
        44   2  3.974631E+05  5.295108E+01  2.859661E+03  1.593428E+02  3.024455E+02  7.757739E-05
        44   3  3.976145E+05  1.157519E+01  3.136925E+03  1.866023E+01 -1.119732E+03 -3.363526E-05
        44   4  3.976144E+05  5.643148E+02  3.625359E+03 -3.006294E-09  1.724623E+03 -3.576772E-11
        44   5  3.974631E+05  5.295103E+01  2.859661E+03 -2.015504E-09  3.024455E+02 -4.089845E-10
        44   6  3.976145E+05  1.157519E+01  3.136925E+03 -2.116588E-09 -1.119732E+03 -2.179408E-10
        44   7  3.976144E+05  5.643150E+02  3.625359E+03 -3.000253E+02  1.724623E+03 -8.329343E-04
        44   8  3.974631E+05  5.295108E+01  2.859661E+03 -1.593428E+02  3.024455E+02 -7.757818E-05
        44   9  3.976145E+05  1.157519E+01  3.136925E+03 -1.866023E+01 -1.119732E+03  3.363479E-05
        44  10  3.976144E+05  5.643142E+02  3.625353E+03  3.000253E+02 -3.727755E-10  2.684863E-10
        44  11  3.974631E+05  5.295106E+01  2.859661E+03  1.593428E+02 -1.871674E-10 -3.580316E-10
        44  12  3.976145E+05  1.157485E+01  3.136923E+03  1.866023E+01  4.336413E-11 -3.027873E-10
        44  13  3.976144E+05  5.643140E+02  3.625353E+03 -2.152187E-09  1.350035E-10 -4.213968E-11
        44  14  3.974631E+05  5.295101E+01  2.859661E+03 -9.720247E-10  1.561566E-09 -2.474436E-10
        44  15  3.976145E+05  1.157485E+01  3.136923E+03 -4.692870E-10  7.065141E-10 -1.430615E-10
        44  16  3.976144E+05  5.643142E+02  3.625353E+03 -3.000253E+02 -5.131089E-10 -3.611574E-10
        44  17  3.974631E+05  5.295106E+01  2.859661E+03 -1.593428E+02  1.330101E-10 -1.575586E-10
        44  18  3.976145E+05  1.157485E+01  3.136923E+03 -1.866023E+01  2.195208E-10  1.033521E-11
        44  19  3.976144E+05  5.643150E+02  3.625359E+03  3.000253E+02 -1.724623E+03 -8.329337E-04
        44  20  3.974631E+05  5.295108E+01  2.859661E+03  1.593428E+02 -3.024455E+02 -7.757813E-05
        44  21  3.976145E+05  1.157519E+01  3.136925E+03  1.866023E+01  1.119732E+03  3.363466E-05
        44  22  3.976144E+05  5.643148E+02  3.625359E+03 -2.365757E-09 -1.724623E+03 -4.860378E-11
        44  23  3.974631E+05  5.295103E+01  2.859661E+03  7.355861E-11 -3.024455E+02 -8.352430E-11
        44  24  3.976145E+05  1.157519E+01  3.136925E+03 -2.441553E-10  1.119732E+03 -6.725383E-11
        44  25  3.976144E+05  5.643150E+02  3.625359E+03 -3.000253E+02 -1.724623E+03  8.329336E-04
        44  26  3.974631E+05  5.295108E+01  2.859661E+03 -1.593428E+02 -3.024455E+02  7.757797E-05
        44  27  3.976145E+05  1.157519E+01  3.136925E+03 -1.866023E+01  1.119732E+03 -3.363473E-05
        45   1  3.977001E+05 -2.040333E+01  3.626603E+03  2.794743E+02 -1.710704E+03 -7.696184E-04
        45   2  3.973557E+05  2.704017E+02  5.549252E+03 -2.445674E+02 -4.478692E+03  1.763229E-03
        45   3  3.976993E+05  1.872946E+03  9.601101E+03 -7.686006E+02 -7.246648E+03  8.965956E-03
        45   4  3.977001E+05 -2.040348E+01  3.626603E+03 -2.743620E-09 -1.710704E+03 -1.500206E-10
        45   5  3.973557E+05  2.704015E+02  5.549252E+03  2.440377E-10 -4.478692E+03 -3.392973E-10
        45   6  3.976993E+05  1.872945E+03  9.601100E+03  5.430396E-10 -7.246648E+03 -3.088089E-10
        45   7  3.977001E+05 -2.040333E+01  3.626603E+03 -2.794743E+02 -1.710704E+03  7.696181E-04
        45   8  3.973557E+05  2.704017E+02  5.549252E+03  2.445674E+02 -4.478692E+03 -1.763229E-03
        45   9  3.976993E+05  1.872946E+03  9.601101E+03  7.686006E+02 -7.246648E+03 -8.965957E-03
        45  10  3.977001E+05 -2.040412E+01  3.626597E+03  2.794743E+02 -6.933163E-11 -8.493797E-11
        45  11  3.973557E+05  2.703963E+02  5.549215E+03 -2.445674E+02 -1.439029E-09  4.287712E-11
        45  12  3.976993E+05  1.872932E+03  9.601002E+03 -7.686006E+02 -1.523124E-10 -9.495604E-11
        45  13  3.977001E+05 -2.040427E+01  3.626597E+03 -1.662267E-09 -1.515889E-10 -4.630145E-11
        45  14  3.973557E+05  2.703962E+02  5.549215E+03 -6.269458E-10  1.885015E-09 -9.939065E-11
        45  15  3.976993E+05  1.872931E+03  9.601002E+03  7.996775E-10  1.891217E-10 -2.667819E-10
        45  16  3.977001E+05 -2.040412E+01  3.626597E+03 -2.794743E+02  9.780140E-10 -3.644838E-12
        45  17  3.973557E+05  2.703963E+02  5.549215E+03  2.445674E+02  1.700667E-10 -2.428254E-10
        45  18  3.976993E+05  1.872932E+03  9.601002E+03  7.686006E+02  3.752873E-10 -4.365974E-10
        45  19  3.977001E+05 -2.040333E+01  3.626603E+03  2.794743E+02  1.710704E+03  7.696182E-04
        45  20  3.973557E+05  2.704017E+02  5.549252E+03 -2.445674E+02  4.478692E+03 -1.763228E-03
        45  21  3.976993E+05  1.872946E+03  9.601101E+03 -7.686006E+02  7.246648E+03 -8.965957E-03
        45  22  3.977001E+05 -2.040348E+01  3.626603E+03 -2.726787E-09  1.710704E+03  5.653900E-11
        45  23  3.973557E+05  2.704015E+02  5.549252E+03  1.999635E-09  4.478692E+03  1.504594E-10
        45  24  3.976993E+05  1.872945E+03  9.601100E+03  8.007068E-10  7.246648E+03 -2.258918E-10
        45  25  3.977001E+05 -2.040333E+01  3.626603E+03 -2.794743E+02  1.710704E+03 -7.696181E-04
        45  26  3.973557E+05  2.704017E+02  5.549252E+03  2.445674E+02  4.478692E+03  1.763229E-03
        45  27  3.976993E+05  1.872946E+03  9.601101E+03  7.686006E+02  7.246648E+03  8.965956E-03
        46   1  3.992446E+05  1.245940E+03  1.248370E+04  2.421155E+03 -8.886396E+03 -3.463428E-02
        46   2  3.954213E+05  9.150643E+03  2.247818E+04 -1.176295E+04 -2.049312E+04  3.880478E-01
        46   3  3.992374E+05  4.157440E+04  4.615568E+04 -2.594743E+04 -3.210002E+04  1.340786E+00
        46   4  3.992446E+05  1.245929E+03  1.248369E+04 -9.564134E-10 -8.886396E+03 -1.180299E-10
        46   5  3.954212E+05  9.150384E+03  2.247815E+04  1.868125E-09 -2.049312E+04  1.162113E-10
        46   6  3.992367E+05  4.157314E+04  4.615550E+04  1.251911E-09 -3.210002E+04  1.006412E-10
        46   7  3.992446E+05  1.245940E+03  1.248370E+04 -2.421155E+03 -8.886396E+03  3.463428E-02
        46   8  3.954213E+05  9.150643E+03  2.247818E+04  1.176295E+04 -2.049312E+04 -3.880478E-01
        46   9  3.992374E+05  4.157440E+04  4.615568E+04  2.594743E+04 -3.210002E+04 -1.340786E+00
        46  10  3.992445E+05  1.245919E+03  1.248355E+04  2.421155E+03 -5.146630E-10 -1.661180E-10
        46  11  3.954209E+05  9.150531E+03  2.247739E+04 -1.176295E+04 -2.258188E-11 -8.595605E-11
        46  12  3.992363E+05  4.157412E+04  4.615374E+04 -2.594743E+04  7.298950E-10 -1.275028E-12
        46  13  3.992445E+05  1.245908E+03  1.248355E+04 -1.277208E-09  1.072949E-09 -2.260015E-10
        46  14  3.954207E+05  9.150271E+03  2.247736E+04  3.302637E-10  7.375662E-10  2.025070E-11
        46  15  3.992356E+05  4.157286E+04  4.615356E+04  8.584881E-10  1.327930E-09  3.758635E-11
        46  16  3.992445E+05  1.245919E+03  1.248355E+04 -2.421155E+03  1.104608E-09 -2.704646E-10
        46  17  3.954209E+05  9.150531E+03  2.247739E+04  1.176295E+04 -1.062645E-09  1.478350E-10
        46  18  3.992363E+05  4.157412E+04  4.615374E+04  2.594743E+04  1.721481E-11  1.095232E-10
        46  19  3.992446E+05  1.245940E+03  1.248370E+04  2.421155E+03  8.886396E+03  3.463428E-02
        46  20  3.954213E+05  9.150643E+03  2.247818E+04 -1.176295E+04  2.049312E+04 -3.880478E-01
        46  21  3.992374E+05  4.157440E+04  4.615568E+04 -2.594743E+04  3.210002E+04 -1.340786E+00
        46  22  3.992446E+05  1.245929E+03  1.248369E+04 -2.128159E-09  8.886396E+03 -3.323221E-10
        46  23  3.954212E+05  9.150384E+03  2.247815E+04 -1.283528E-10  2.049312E+04 -7.515481E-11
        46  24  3.992367E+05  4.157314E+04  4.615550E+04  5.586574E-11  3.210002E+04 -2.076875E-11
        46  25  3.992446E+05  1.245940E+03  1.248370E+04 -2.421155E+03  8.886396E+03 -3.463428E-02
        46  26  3.954213E+05  9.150643E+03  2.247818E+04  1.176295E+04  2.049312E+04  3.880478E-01
        46  27  3.992374E+05  4.157440E+04  4.615568E+04  2.594743E+04  3.210002E+04  1.340786E+00
        47   1 -3.569662E+05 -1.198887E+06 -3.525959E+05  2.738084E+05 -1.401561E+04 -1.253029E+05
        47   2 -2.384828E+05 -9.586815E+05 -2.236494E+05  2.252761E+05 -4.337968E+04 -5.740866E+04
        47   3 -1.688170E+05 -7.394236E+05 -1.511536E+05  2.270634E+05 -4.397679E+04  1.051452E+04
        47   4 -6.856065E+04 -3.378526E+04 -7.637851E+04  2.313019E+05 -1.397320E+04 -5.190217E+04
        47   5 -1.503556E+04 -2.742179E+04 -3.810596E+04  2.061220E+05 -4.335791E+04 -3.222675E+04
        47   6 -1.904948E+03 -3.364595E+04 -2.273240E+04  2.312673E+05 -4.399028E+04 -1.255079E+04
        47   7  2.197571E+05  1.132580E+06  1.997657E+05  1.887148E+05 -1.394092E+04  2.163585E+04
        47   8  2.083603E+05  9.046696E+05  1.473967E+05  1.869383E+05 -4.333771E+04 -7.007765E+03
        47   9  1.649793E+05  6.726176E+05  1.056709E+05  2.354760E+05 -4.400407E+04 -3.564162E+04
        47  10 -3.569706E+05 -1.198904E+06 -3.526259E+05  2.738070E+05 -7.535301E-10 -1.057007E-09
        47  11 -2.384857E+05 -9.586856E+05 -2.236592E+05  2.252741E+05 -1.240799E-09  6.741424E-10
        47  12 -1.688191E+05 -7.394243E+05 -1.511575E+05  2.270637E+05  5.687737E-10  1.895451E-09
        47  13 -6.856158E+04 -3.378820E+04 -7.638394E+04  2.313014E+05 -7.400066E-10  7.411007E-11
        47  14 -1.503786E+04 -2.742341E+04 -3.811144E+04  2.061209E+05 -4.191188E-10  2.696248E-10
        47  15 -1.907068E+03 -3.364664E+04 -2.273633E+04  2.312669E+05 -9.678363E-10  1.590837E-10
        47  16  2.197567E+05  1.132580E+06  1.997645E+05  1.887150E+05 -7.419600E-10  1.125513E-09
        47  17  2.083583E+05  9.046690E+05  1.473931E+05  1.869381E+05  9.688236E-11 -5.935905E-10
        47  18  1.649769E+05  6.726157E+05  1.056649E+05  2.354748E+05  5.063587E-10 -1.578510E-09
        47  19 -3.569662E+05 -1.198887E+06 -3.525959E+05  2.738084E+05  1.401561E+04  1.253029E+05
        47  20 -2.384828E+05 -9.586815E+05 -2.236494E+05  2.252761E+05  4.337968E+04  5.740866E+04
        47  21 -1.688170E+05 -7.394236E+05 -1.511536E+05  2.270634E+05  4.397679E+04 -1.051452E+04
        47  22 -6.856065E+04 -3.378526E+04 -7.637851E+04  2.313019E+05  1.397320E+04  5.190217E+04
        47  23 -1.503556E+04 -2.742179E+04 -3.810596E+04  2.061220E+05  4.335791E+04  3.222675E+04
        47  24 -1.904948E+03 -3.364595E+04 -2.273240E+04  2.312673E+05  4.399028E+04  1.255079E+04
        47  25  2.197571E+05  1.132580E+06  1.997657E+05  1.887148E+05  1.394092E+04 -2.163585E+04
        47  26  2.083603E+05  9.046696E+05  1.473967E+05  1.869383E+05  4.333771E+04  7.007765E+03
        47  27  1.649793E+05  6.726176E+05  1.056709E+05  2.354760E+05  4.400407E+04  3.564162E+04
        48   1 -1.338101E+05 -5.858875E+05 -1.187903E+05  2.329970E+05 -3.536787E+04  1.049377E+04
        48   2 -7.679788E+04 -3.551951E+05 -7.073909E+04  2.055254E+05 -2.282823E+04  1.997201E+04
        48   3 -2.379497E+04 -1.267339E+05 -2.988023E+04  2.301718E+05 -8.941395E+03  2.944962E+04
        48   4 -2.836150E+03 -3.123218E+04 -1.876723E+04  2.316682E+05 -3.538193E+04 -9.419552E+03
        48   5 -5.436902E+02 -3.026327E+04 -1.447492E+04  2.056093E+05 -2.284671E+04 -2.201900E+03
        48   6 -1.863863E+03 -3.118296E+04 -1.580150E+04  2.316672E+05 -8.964704E+03  5.011809E+03
        48   7  1.281208E+05  5.237238E+05  8.124528E+04  2.303380E+05 -3.539590E+04 -2.935018E+04
        48   8  7.570508E+04  2.947733E+05  4.178744E+04  2.056931E+05 -2.286519E+04 -2.438706E+04
        48   9  2.006715E+04  6.437850E+04 -1.720675E+03  2.331628E+05 -8.988128E+03 -1.942961E+04
        48  10 -1.338114E+05 -5.858880E+05 -1.187928E+05  2.329973E+05  4.322157E-10 -1.628875E-09
        48  11 -7.679855E+04 -3.551957E+05 -7.074082E+04  2.055258E+05 -1.180458E-09  7.142655E-10
        48  12 -2.379529E+04 -1.267349E+05 -2.988201E+04  2.301720E+05  3.218694E-10  2.088214E-09
        48  13 -2.837518E+03 -3.123261E+04 -1.876975E+04  2.316679E+05  1.730662E-09  5.031797E-10
        48  14 -5.442520E+02 -3.026341E+04 -1.447591E+04  2.056092E+05 -5.357785E-10  5.492936E-10
        48  15 -1.863956E+03 -3.118301E+04 -1.580169E+04  2.316672E+05 -3.779829E-10  2.500018E-10
        48  16  1.281192E+05  5.237226E+05  8.124131E+04  2.303372E+05  7.034337E-10  2.112480E-09
        48  17  7.570435E+04  2.947725E+05  4.178534E+04  2.056927E+05  8.595224E-10 -5.743285E-10
        48  18  2.006696E+04  6.437807E+04 -1.721536E+03  2.331626E+05  8.858935E-10 -1.552193E-09
        48  19 -1.338101E+05 -5.858875E+05 -1.187903E+05  2.329970E+05  3.536787E+04 -1.049377E+04
        48  20 -7.679788E+04 -3.551951E+05 -7.073909E+04  2.055254E+05  2.282823E+04 -1.997201E+04
        48  21 -2.379497E+04 -1.267339E+05 -2.988023E+04  2.301718E+05  8.941395E+03 -2.944962E+04
        48  22 -2.836150E+03 -3.123218E+04 -1.876723E+04  2.316682E+05  3.538193E+04  9.419552E+03
        48  23 -5.436902E+02 -3.026327E+04 -1.447492E+04  2.056093E+05  2.284671E+04  2.201900E+03
        48  24 -1.863863E+03 -3.118296E+04 -1.580150E+04  2.316672E+05  8.964704E+03 -5.011809E+03
        48  25  1.281208E+05  5.237238E+05  8.124528E+04  2.303380E+05  3.539590E+04  2.935018E+04
        48  26  7.570508E+04  2.947733E+05  4.178744E+04  2.056931E+05  2.286519E+04  2.438706E+04
        48  27  2.006715E+04  6.437850E+04 -1.720675E+03  2.331628E+05  8.988128E+03  1.942961E+04
        49   1  1.248721E+04  2.214466E+04 -4.726707E+03  2.342500E+05  3.782676E+02  3.332417E+04
        49   2  5.806747E+04  2.545733E+05  3.255991E+04  1.917243E+05  8.926399E+03  2.528188E+04
        49   3  7.819496E+04  4.816904E+05  6.870161E+04  2.005937E+05  3.983975E+03  1.724265E+04
        49   4 -1.186617E+03 -3.282890E+04 -1.809431E+04  2.315045E+05  3.533342E+02  7.610213E+03
        49   5 -1.063933E+04 -2.819961E+04 -2.838141E+04  2.058211E+05  8.924563E+03  2.223189E+04
        49   6 -4.948473E+04 -3.287182E+04 -5.555500E+04  2.315405E+05  4.001959E+03  3.685906E+04
        49   7 -1.486028E+04 -8.779826E+04 -3.145965E+04  2.287592E+05  3.286267E+02 -1.810147E+04
        49   8 -7.935063E+04 -3.108969E+05 -8.932729E+04  2.199114E+05  8.922588E+03  1.918327E+04
        49   9 -1.771799E+05 -5.471892E+05 -1.798286E+05  2.624615E+05  4.021908E+03  5.645926E+04
        49  10  1.248691E+04  2.214347E+04 -4.728794E+03  2.342500E+05  5.013522E-10 -1.219994E-09
        49  11  5.806721E+04  2.545726E+05  3.255856E+04  1.917241E+05 -1.055082E-09  7.143113E-10
        49  12  7.819486E+04  4.816901E+05  6.870102E+04  2.005937E+05 -3.948782E-10  1.540929E-09
        49  13 -1.186633E+03 -3.282896E+04 -1.809442E+04  2.315045E+05  5.273082E-10  6.449267E-10
        49  14 -1.063955E+04 -2.820017E+04 -2.838249E+04  2.058210E+05 -2.849086E-10  6.125381E-10
        49  15 -4.948511E+04 -3.287328E+04 -5.555759E+04  2.315404E+05 -1.168395E-10  1.889391E-10
        49  16 -1.486037E+04 -8.779862E+04 -3.146027E+04  2.287592E+05  1.459343E-11  1.874149E-09
        49  17 -7.935081E+04 -3.108973E+05 -8.932813E+04  2.199113E+05  1.299072E-10 -5.850031E-10
        49  18 -1.771808E+05 -5.471926E+05 -1.798346E+05  2.624613E+05 -9.611233E-11 -1.145820E-09
        49  19  1.248721E+04  2.214466E+04 -4.726707E+03  2.342500E+05 -3.782676E+02 -3.332417E+04
        49  20  5.806747E+04  2.545733E+05  3.255991E+04  1.917243E+05 -8.926399E+03 -2.528188E+04
        49  21  7.819496E+04  4.816904E+05  6.870161E+04  2.005937E+05 -3.983975E+03 -1.724265E+04
        49  22 -1.186617E+03 -3.282890E+04 -1.809431E+04  2.315045E+05 -3.533342E+02 -7.610213E+03
        49  23 -1.063933E+04 -2.819961E+04 -2.838141E+04  2.058211E+05 -8.924563E+03 -2.223189E+04
        49  24 -4.948473E+04 -3.287182E+04 -5.555500E+04  2.315405E+05 -4.001959E+03 -3.685906E+04
        49  25 -1.486028E+04 -8.779826E+04 -3.145965E+04  2.287592E+05 -3.286267E+02  1.810147E+04
        49  26 -7.935063E+04 -3.108969E+05 -8.932729E+04  2.199114E+05 -8.922588E+03 -1.918327E+04
        49  27 -1.771799E+05 -5.471892E+05 -1.798286E+05  2.624615E+05 -4.021908E+03 -5.645926E+04
        50   1  1.654877E+05 -2.602221E+03 -2.879444E+03 -1.617955E+03 -2.062511E+03  5.373740E-03
        50   2  1.657250E+05 -5.748389E+02 -1.356920E+03 -7.280509E+02 -1.360754E+03  1.595347E-03
        50   3  1.654875E+05 -8.153013E+01 -6.746949E+02  1.618543E+02 -6.589980E+02 -1.717600E-04
        50   4  1.654877E+05 -2.602226E+03 -2.879445E+03 -8.735436E-10 -2.062511E+03 -2.184629E-10
        50   5  1.657250E+05 -5.748399E+02 -1.356920E+03 -1.279459E-09 -1.360754E+03 -4.572900E-10
        50   6  1.654875E+05 -8.153017E+01 -6.746949E+02 -2.728040E-10 -6.589980E+02  1.365620E-10
        50   7  1.654877E+05 -2.602221E+03 -2.879444E+03  1.617955E+03 -2.062511E+03 -5.373740E-03
        50   8  1.657250E+05 -5.748389E+02 -1.356920E+03  7.280509E+02 -1.360754E+03 -1.595348E-03
        50   9  1.654875E+05 -8.153013E+01 -6.746949E+02 -1.618543E+02 -6.589980E+02  1.717603E-04
        50  10  1.654877E+05 -2.602222E+03 -2.879452E+03 -1.617955E+03 -3.171272E-10 -5.088878E-11
        50  11  1.657250E+05 -5.748394E+02 -1.356924E+03 -7.280509E+02 -9.994016E-10 -1.545297E-10
        50  12  1.654875E+05 -8.153024E+01 -6.746958E+02  1.618543E+02 -4.056392E-11 -1.224516E-10
        50  13  1.654877E+05 -2.602227E+03 -2.879453E+03 -4.554609E-10 -9.422577E-10 -6.093230E-11
        50  14  1.657250E+05 -5.748404E+02 -1.356924E+03  3.092868E-10 -9.569844E-10 -1.753895E-10
        50  15  1.654875E+05 -8.153029E+01 -6.746958E+02  2.958865E-09 -1.311173E-09 -1.492756E-10
        50  16  1.654877E+05 -2.602222E+03 -2.879452E+03  1.617955E+03  9.365935E-11 -6.293976E-11
        50  17  1.657250E+05 -5.748394E+02 -1.356924E+03  7.280509E+02  2.216330E-10 -2.036108E-10
        50  18  1.654875E+05 -8.153024E+01 -6.746958E+02 -1.618543E+02  1.818520E-10 -1.766125E-10
        50  19  1.654877E+05 -2.602221E+03 -2.879444E+03 -1.617955E+03  2.062511E+03 -5.373740E-03
        50  20  1.657250E+05 -5.748389E+02 -1.356920E+03 -7.280509E+02  1.360754E+03 -1.595347E-03
        50  21  1.654875E+05 -8.153013E+01 -6.746949E+02  1.618543E+02  6.589980E+02  1.717597E-04
        50  22  1.654877E+05 -2.602226E+03 -2.879445E+03 -1.649264E-09  2.062511E+03  9.758827E-11
        50  23  1.657250E+05 -5.748399E+02 -1.356920E+03  8.194094E-10  1.360754E+03  1.027541E-10
        50  24  1.654875E+05 -8.153017E+01 -6.746949E+02  5.302559E-10  6.589980E+02 -4.380077E-10
        50  25  1.654877E+05 -2.602221E+03 -2.879444E+03  1.617955E+03  2.062511E+03  5.373740E-03
        50  26  1.657250E+05 -5.748389E+02 -1.356920E+03  7.280509E+02  1.360754E+03  1.595348E-03
        50  27  1.654875E+05 -8.153013E+01 -6.746949E+02 -1.618543E+02  6.589980E+02 -1.717606E-04
        51   1  1.655880E+05 -1.220807E+02 -4.549784E+02 -3.412999E+01 -5.792180E+02  3.183447E-05
        51   2  1.655993E+05 -2.427248E+01 -8.472639E+01  4.034498E+00 -5.359711E+02 -3.481997E-06
        51   3  1.655880E+05  5.464257E+00  2.403610E+02  4.219840E+01 -4.927248E+02 -3.348244E-05
        51   4  1.655880E+05 -1.220807E+02 -4.549784E+02 -2.282421E-09 -5.792180E+02  4.381589E-10
        51   5  1.655993E+05 -2.427248E+01 -8.472639E+01  1.069753E-12 -5.359711E+02  1.765491E-10
        51   6  1.655880E+05  5.464254E+00  2.403610E+02  6.078617E-11 -4.927248E+02 -3.335910E-10
        51   7  1.655880E+05 -1.220807E+02 -4.549784E+02  3.412999E+01 -5.792180E+02 -3.183360E-05
        51   8  1.655993E+05 -2.427248E+01 -8.472639E+01 -4.034498E+00 -5.359711E+02  3.482383E-06
        51   9  1.655880E+05  5.464257E+00  2.403610E+02 -4.219840E+01 -4.927248E+02  3.348177E-05
        51  10  1.655880E+05 -1.220808E+02 -4.549790E+02 -3.412999E+01 -2.195924E-10 -8.304326E-11
        51  11  1.655993E+05 -2.427255E+01 -8.472693E+01  4.034498E+00 -3.255120E-10 -9.578800E-12
        51  12  1.655880E+05  5.464192E+00  2.403606E+02  4.219840E+01  3.496265E-11  1.339817E-10
        51  13  1.655880E+05 -1.220808E+02 -4.549790E+02 -1.577809E-11 -5.301078E-10 -5.778118E-11
        51  14  1.655993E+05 -2.427255E+01 -8.472693E+01 -2.513617E-10  2.115120E-10  4.616046E-11
        51  15  1.655880E+05  5.464189E+00  2.403606E+02  1.670302E-09 -5.747607E-10  7.331295E-13
        51  16  1.655880E+05 -1.220808E+02 -4.549790E+02  3.412999E+01  4.442008E-10 -3.376469E-11
        51  17  1.655993E+05 -2.427255E+01 -8.472693E+01 -4.034498E+00 -7.964629E-10  1.012785E-10
        51  18  1.655880E+05  5.464192E+00  2.403606E+02 -4.219840E+01 -2.658828E-10 -1.241573E-10
        51  19  1.655880E+05 -1.220807E+02 -4.549784E+02 -3.412999E+01  5.792180E+02 -3.183464E-05
        51  20  1.655993E+05 -2.427248E+01 -8.472639E+01  4.034498E+00  5.359711E+02  3.481972E-06
        51  21  1.655880E+05  5.464257E+00  2.403610E+02  4.219840E+01  4.927248E+02  3.348269E-05
        51  22  1.655880E+05 -1.220807E+02 -4.549784E+02 -3.677886E-09  5.792180E+02 -5.526905E-10
        51  23  1.655993E+05 -2.427248E+01 -8.472639E+01 -2.116470E-09  5.359711E+02 -8.444542E-11
        51  24  1.655880E+05  5.464254E+00  2.403610E+02 -6.907365E-10  4.927248E+02  3.363903E-10
        51  25  1.655880E+05 -1.220807E+02 -4.549784E+02  3.412999E+01  5.792180E+02  3.183355E-05
        51  26  1.655993E+05 -2.427248E+01 -8.472639E+01 -4.034498E+00  5.359711E+02 -3.482147E-06
        51  27  1.655880E+05  5.464257E+00  2.403610E+02 -4.219840E+01  4.927248E+02 -3.348201E-05
        52   1  1.656196E+05 -6.332020E+00  4.208903E+02  6.769815E+01 -5.504950E+02 -6.001301E-05
        52   2  1.655598E+05  5.587946E+01  9.068717E+02 -3.544507E+01 -1.003378E+03  5.727103E-05
        52   3  1.656195E+05  3.603864E+02  1.748211E+03 -1.385898E+02 -1.456267E+03  3.250024E-04
        52   4  1.656196E+05 -6.332029E+00  4.208903E+02 -1.768697E-10 -5.504950E+02 -3.391637E-10
        52   5  1.655598E+05  5.587946E+01  9.068717E+02 -9.155833E-10 -1.003378E+03  1.351017E-10
        52   6  1.656195E+05  3.603864E+02  1.748211E+03 -2.798132E-09 -1.456267E+03  3.288281E-10
        52   7  1.656196E+05 -6.332020E+00  4.208903E+02 -6.769815E+01 -5.504950E+02  6.001234E-05
        52   8  1.655598E+05  5.587946E+01  9.068717E+02  3.544507E+01 -1.003378E+03 -5.727075E-05
        52   9  1.656195E+05  3.603864E+02  1.748211E+03  1.385898E+02 -1.456267E+03 -3.250017E-04
        52  10  1.656196E+05 -6.332102E+00  4.208898E+02  6.769815E+01 -1.803244E-10  1.020817E-10
        52  11  1.655598E+05  5.587919E+01  9.068699E+02 -3.544507E+01 -5.600770E-11 -7.746659E-11
        52  12  1.656195E+05  3.603858E+02  1.748207E+03 -1.385898E+02 -4.806913E-10 -8.988805E-11
        52  13  1.656196E+05 -6.332110E+00  4.208898E+02  2.479192E-09 -5.385232E-10 -5.768008E-11
        52  14  1.655598E+05  5.587919E+01  9.068699E+02 -8.719305E-10 -8.077850E-10 -4.803905E-11
        52  15  1.656195E+05  3.603858E+02  1.748207E+03 -2.070013E-09  9.930023E-11  8.379919E-11
        52  16  1.656196E+05 -6.332102E+00  4.208898E+02 -6.769815E+01 -6.080985E-10 -2.159193E-10
        52  17  1.655598E+05  5.587919E+01  9.068699E+02  3.544507E+01  2.054116E-10 -2.142664E-11
        52  18  1.656195E+05  3.603858E+02  1.748207E+03  1.385898E+02 -5.793949E-10  2.523676E-10
        52  19  1.656196E+05 -6.332020E+00  4.208903E+02  6.769815E+01  5.504950E+02  6.001322E-05
        52  20  1.655598E+05  5.587946E+01  9.068717E+02 -3.544507E+01  1.003378E+03 -5.727123E-05
        52  21  1.656195E+05  3.603864E+02  1.748211E+03 -1.385898E+02  1.456267E+03 -3.250026E-04
        52  22  1.656196E+05 -6.332029E+00  4.208903E+02 -2.462933E-10  5.504950E+02  2.219672E-10
        52  23  1.655598E+05  5.587946E+01  9.068717E+02 -8.274891E-10  1.003378E+03 -2.345589E-10
        52  24  1.656195E+05  3.603864E+02  1.748211E+03 -1.878840E-09  1.456267E+03 -1.601537E-10
        52  25  1.656196E+05 -6.332020E+00  4.208903E+02 -6.769815E+01  5.504950E+02 -6.001277E-05
        52  26  1.655598E+05  5.587946E+01  9.068717E+02  3.544507E+01  1.003378E+03  5.727075E-05
        52  27  1.656195E+05  3.603864E+02  1.748211E+03  1.385898E+02  1.456267E+03  3.250022E-04
        53   1  1.659167E+05  2.398081E+02  2.321368E+03  4.683608E+02 -1.755959E+03 -1.324369E-03
        53   2  1.651880E+05  1.748089E+03  4.262477E+03 -2.240741E+03 -3.957518E+03  1.428002E-02
        53   3  1.659161E+05  7.937875E+03  8.807004E+03 -4.949848E+03 -6.159076E+03  4.909324E-02
        53   4  1.659167E+05  2.398077E+02  2.321368E+03 -1.950434E-09 -1.755959E+03  6.108925E-11
        53   5  1.651880E+05  1.748080E+03  4.262476E+03  1.116666E-09 -3.957518E+03 -4.141304E-10
        53   6  1.659161E+05  7.937829E+03  8.806998E+03 -1.468625E-09 -6.159076E+03 -1.780718E-10
        53   7  1.659167E+05  2.398081E+02  2.321368E+03 -4.683608E+02 -1.755959E+03  1.324369E-03
        53   8  1.651880E+05  1.748089E+03  4.262477E+03  2.240741E+03 -3.957518E+03 -1.428002E-02
        53   9  1.659161E+05  7.937875E+03  8.807004E+03  4.949848E+03 -6.159076E+03 -4.909324E-02
        53  10  1.659167E+05  2.398073E+02  2.321363E+03  4.683608E+02  1.141701E-10 -1.378754E-10
        53  11  1.651880E+05  1.748085E+03  4.262448E+03 -2.240741E+03 -3.985304E-10 -2.518919E-10
        53  12  1.659161E+05  7.937865E+03  8.806933E+03 -4.949848E+03  4.926910E-10 -9.954344E-11
        53  13  1.659167E+05  2.398069E+02  2.321363E+03 -2.121626E-09  3.586328E-10  5.541272E-11
        53  14  1.651880E+05  1.748076E+03  4.262447E+03  8.129549E-10 -8.992611E-10 -1.102484E-10
        53  15  1.659161E+05  7.937819E+03  8.806926E+03 -5.617000E-10  4.934330E-10 -5.762646E-11
        53  16  1.659167E+05  2.398073E+02  2.321363E+03 -4.683608E+02 -8.979840E-11  2.504714E-10
        53  17  1.651880E+05  1.748085E+03  4.262448E+03  2.240741E+03  7.270557E-10  4.032781E-11
        53  18  1.659161E+05  7.937865E+03  8.806933E+03  4.949848E+03 -1.795688E-10 -1.888872E-11
        53  19  1.659167E+05  2.398081E+02  2.321368E+03  4.683608E+02  1.755959E+03  1.324368E-03
        53  20  1.651880E+05  1.748089E+03  4.262477E+03 -2.240741E+03  3.957518E+03 -1.428002E-02
        53  21  1.659161E+05  7.937875E+03  8.807004E+03 -4.949848E+03  6.159076E+03 -4.909324E-02
        53  22  1.659167E+05  2.398077E+02  2.321368E+03 -1.751929E-09  1.755959E+03  4.908885E-11
        53  23  1.651880E+05  1.748080E+03  4.262476E+03  7.774548E-10  3.957518E+03  1.924154E-10
        53  24  1.659161E+05  7.937829E+03  8.806998E+03 -1.137557E-09  6.159076E+03  7.133217E-11
        53  25  1.659167E+05  2.398081E+02  2.321368E+03 -4.683608E+02  1.755959E+03 -1.324368E-03
        53  26  1.651880E+05  1.748089E+03  4.262477E+03  2.240741E+03  3.957518E+03  1.428002E-02
        53  27  1.659161E+05  7.937875E+03  8.807004E+03  4.949848E+03  6.159076E+03  4.909324E-02
        54   1 -3.368663E+05 -1.231360E+06 -3.289494E+05  2.681264E+05 -1.434286E+04 -1.049876E+05
        54   2 -2.377439E+05 -9.813604E+05 -2.125222E+05  2.281044E+05 -4.427998E+04 -4.378705E+04
        54   3 -1.705612E+05 -7.472024E+05 -1.439645E+05  2.411613E+05 -4.453327E+04  1.744046E+04
        54   4 -3.956494E+04 -3.048410E+04 -4.414460E+04  2.437523E+05 -1.430242E+04 -2.984502E+04
        54   5 -8.652171E+03 -2.679498E+04 -2.213852E+04  2.172017E+05 -4.425822E+04 -1.840758E+04
        54   6 -1.000428E+03 -3.033409E+04 -1.338568E+04  2.437316E+05 -4.454844E+04 -6.969741E+03
        54   7  2.576380E+05  1.171732E+06  2.405814E+05  2.193304E+05 -1.426794E+04  4.544245E+04
        54   8  2.203845E+05  9.286434E+05  1.682019E+05  2.062817E+05 -4.423739E+04  7.010197E+03
        54   9  1.685317E+05  6.870355E+05  1.171748E+05  2.463048E+05 -4.456379E+04 -3.140738E+04
        54  10 -3.368695E+05 -1.231372E+06 -3.289706E+05  2.681251E+05 -3.792461E-10 -4.224460E-10
        54  11 -2.377465E+05 -9.813630E+05 -2.125294E+05  2.281028E+05 -2.470576E-10  2.801512E-10
        54  12 -1.705634E+05 -7.472033E+05 -1.439688E+05  2.411619E+05  1.111584E-09  1.202716E-09
        54  13 -3.956540E+04 -3.048511E+04 -4.414666E+04  2.437520E+05 -7.932538E-11  6.714092E-11
        54  14 -8.654364E+03 -2.679587E+04 -2.214283E+04  2.172011E+05  1.728661E-10 -2.819509E-10
        54  15 -1.002572E+03 -3.033468E+04 -1.338950E+04  2.437314E+05  2.794416E-10  8.282235E-10
        54  16  2.576373E+05  1.171729E+06  2.405772E+05  2.193309E+05  7.156632E-10  2.877530E-10
        54  17  2.203824E+05  9.286428E+05  1.681982E+05  2.062820E+05 -8.966637E-10 -3.949088E-10
        54  18  1.685293E+05  6.870339E+05  1.171692E+05  2.463037E+05  2.211120E-10 -1.049116E-09
        54  19 -3.368663E+05 -1.231360E+06 -3.289494E+05  2.681264E+05  1.434286E+04  1.049876E+05
        54  20 -2.377439E+05 -9.813604E+05 -2.125222E+05  2.281044E+05  4.427998E+04  4.378705E+04
        54  21 -1.705612E+05 -7.472024E+05 -1.439645E+05  2.411613E+05  4.453327E+04 -1.744046E+04
        54  22 -3.956494E+04 -3.048410E+04 -4.414460E+04  2.437523E+05  1.430242E+04  2.984502E+04
        54  23 -8.652171E+03 -2.679498E+04 -2.213852E+04  2.172017E+05  4.425822E+04  1.840758E+04
        54  24 -1.000428E+03 -3.033409E+04 -1.338568E+04  2.437316E+05  4.454844E+04  6.969741E+03
        54  25  2.576380E+05  1.171732E+06  2.405814E+05  2.193304E+05  1.426794E+04 -4.544245E+04
        54  26  2.203845E+05  9.286434E+05  1.682019E+05  2.062817E+05  4.423739E+04 -7.010197E+03
        54  27  1.685317E+05  6.870355E+05  1.171748E+05  2.463048E+05  4.456379E+04  3.140738E+04
        55   1 -1.332120E+05 -5.865913E+05 -1.118856E+05  2.448186E+05 -3.543300E+04  1.605545E+04
        55   2 -7.426807E+04 -3.438958E+05 -6.365136E+04  2.165311E+05 -2.216570E+04  2.274233E+04
        55   3 -1.793075E+04 -1.027154E+05 -2.044199E+04  2.431674E+05 -7.590178E+03  2.942765E+04
        55   4 -1.506550E+03 -2.895351E+04 -1.119446E+04  2.441425E+05 -3.544876E+04 -5.113680E+03
        55   5 -2.130015E+02 -2.833338E+04 -9.009911E+03  2.166811E+05 -2.218596E+04 -6.243472E+02
        55   6 -1.140793E+03 -2.890313E+04 -1.032202E+04  2.441421E+05 -7.615353E+03  3.860966E+03
        55   7  1.301818E+05  5.289882E+05  8.948616E+04  2.434657E+05 -3.546447E+04 -2.630131E+04
        55   8  7.383699E+04  2.873280E+05  4.563014E+04  2.168312E+05 -2.220622E+04 -2.400254E+04
        55   9  1.564928E+04  4.491609E+04 -1.996403E+02  2.451170E+05 -7.640605E+03 -2.170862E+04
        55  10 -1.332134E+05 -5.865919E+05 -1.118884E+05  2.448190E+05  1.839375E-10 -1.311244E-09
        55  11 -7.426873E+04 -3.438965E+05 -6.365326E+04  2.165315E+05  2.824329E-10 -7.603831E-10
        55  12 -1.793104E+04 -1.027164E+05 -2.044373E+04  2.431675E+05 -2.066243E-10 -4.880939E-11
        55  13 -1.507906E+03 -2.895388E+04 -1.119687E+04  2.441424E+05  1.037668E-09  5.132067E-10
        55  14 -2.135302E+02 -2.833352E+04 -9.010837E+03  2.166811E+05  2.565935E-10 -6.192474E-10
        55  15 -1.140859E+03 -2.890316E+04 -1.032215E+04  2.441421E+05 -4.861999E-10  1.224611E-09
        55  16  1.301802E+05  5.289872E+05  8.948250E+04  2.434650E+05  1.837884E-10  2.769211E-10
        55  17  7.383631E+04  2.873272E+05  4.562813E+04  2.168308E+05 -1.075657E-09  5.017665E-10
        55  18  1.564909E+04  4.491557E+04 -2.006352E+02  2.451169E+05  4.254304E-10  3.057643E-10
        55  19 -1.332120E+05 -5.865913E+05 -1.118856E+05  2.448186E+05  3.543300E+04 -1.605545E+04
        55  20 -7.426807E+04 -3.438958E+05 -6.365136E+04  2.165311E+05  2.216570E+04 -2.274233E+04
        55  21 -1.793075E+04 -1.027154E+05 -2.044199E+04  2.431674E+05  7.590178E+03 -2.942765E+04
        55  22 -1.506550E+03 -2.895351E+04 -1.119446E+04  2.441425E+05  3.544876E+04  5.113680E+03
        55  23 -2.130015E+02 -2.833338E+04 -9.009911E+03  2.166811E+05  2.218596E+04  6.243472E+02
        55  24 -1.140793E+03 -2.890313E+04 -1.032202E+04  2.441421E+05  7.615353E+03 -3.860966E+03
        55  25  1.301818E+05  5.289882E+05  8.948616E+04  2.434657E+05  3.546447E+04  2.630131E+04
        55  26  7.383699E+04  2.873280E+05  4.563014E+04  2.168312E+05  2.220622E+04  2.400254E+04
        55  27  1.564928E+04  4.491609E+04 -1.996403E+02  2.451170E+05  7.640605E+03  2.170862E+04
        56   1  2.007205E+04  5.479731E+04  6.816061E+03  2.458984E+05  2.200587E+03  3.254948E+04
        56   2  7.162242E+04  2.979315E+05  5.009591E+04  2.073571E+05  1.082252E+04  1.753840E+04
        56   3  1.074133E+05  5.390886E+05  9.918842E+04  2.229323E+05  4.598301E+03  2.528027E+03
        56   4 -6.702852E+02 -3.005341E+04 -1.202702E+04  2.439617E+05  2.173814E+03  5.560475E+03
        56   5 -7.187176E+03 -2.689656E+04 -1.927573E+04  2.169128E+05  1.082137E+04  1.549424E+04
        56   6 -3.379599E+04 -3.010496E+04 -3.803475E+04  2.439868E+05  4.618622E+03  2.543401E+04
        56   7 -2.141270E+04 -1.148958E+05 -3.086781E+04  2.420252E+05  2.147207E+03 -2.142489E+04
        56   8 -8.600330E+04 -3.516251E+05 -8.865341E+04  2.264633E+05  1.082015E+04  1.345114E+04
        56   9 -1.750270E+05 -5.990002E+05 -1.752789E+05  2.650218E+05  4.640508E+03  4.831908E+04
        56  10  2.007176E+04  5.479617E+04  6.814062E+03  2.458984E+05 -6.504512E-10 -1.106429E-09
        56  11  7.162221E+04  2.979312E+05  5.009511E+04  2.073570E+05 -4.911751E-11 -3.245022E-10
        56  12  1.074133E+05  5.390886E+05  9.918837E+04  2.229323E+05  4.989992E-10  4.478621E-10
        56  13 -6.702986E+02 -3.005345E+04 -1.202709E+04  2.439617E+05  8.906850E-10  6.539579E-10
        56  14 -7.187366E+03 -2.689685E+04 -1.927640E+04  2.169126E+05 -7.577644E-10 -6.194331E-10
        56  15 -3.379619E+04 -3.010566E+04 -3.803601E+04  2.439867E+05 -5.326905E-10  9.641739E-10
        56  16 -2.141283E+04 -1.148963E+05 -3.086868E+04  2.420252E+05  9.142808E-10 -1.709332E-10
        56  17 -8.600348E+04 -3.516254E+05 -8.865397E+04  2.264632E+05 -1.876712E-10  5.634296E-11
        56  18 -1.750276E+05 -5.990027E+05 -1.752833E+05  2.650216E+05  7.444728E-11 -2.457022E-10
        56  19  2.007205E+04  5.479731E+04  6.816061E+03  2.458984E+05 -2.200587E+03 -3.254948E+04
        56  20  7.162242E+04  2.979315E+05  5.009591E+04  2.073571E+05 -1.082252E+04 -1.753840E+04
        56  21  1.074133E+05  5.390886E+05  9.918842E+04  2.229323E+05 -4.598301E+03 -2.528027E+03
        56  22 -6.702852E+02 -3.005341E+04 -1.202702E+04  2.439617E+05 -2.173814E+03 -5.560475E+03
        56  23 -7.187176E+03 -2.689656E+04 -1.927573E+04  2.169128E+05 -1.082137E+04 -1.549424E+04
        56  24 -3.379599E+04 -3.010496E+04 -3.803475E+04  2.439868E+05 -4.618622E+03 -2.543401E+04
        56  25 -2.141270E+04 -1.148958E+05 -3.086781E+04  2.420252E+05 -2.147207E+03  2.142489E+04
        56  26 -8.600330E+04 -3.516251E+05 -8.865341E+04  2.264633E+05 -1.082015E+04 -1.345114E+04
        56  27 -1.750270E+05 -5.990002E+05 -1.752789E+05  2.650218E+05 -4.640508E+03 -4.831908E+04
        57   1 -3.038676E+05 -1.115454E+06 -2.915184E+05  1.789911E+05 -1.539037E+04 -8.741899E+04
        57   2 -2.454329E+05 -9.376222E+05 -2.056520E+05  1.573726E+05 -4.940527E+04 -3.589052E+04
        57   3 -2.004466E+05 -7.697536E+05 -1.567127E+05  1.730925E+05 -5.434453E+04  1.565559E+04
        57   4 -8.596147E+03  7.832568E+04 -9.694925E+03  1.738924E+05 -1.535957E+04 -5.932449E+03
        57   5 -1.915136E+03  7.913710E+04 -5.347030E+03  1.552216E+05 -4.938172E+04 -3.163105E+03
        57   6 -1.977007E+02  7.843836E+04 -4.026210E+03  1.738883E+05 -5.434953E+04 -3.926380E+02
        57   7  2.865770E+05  1.273431E+06  2.720550E+05  1.687836E+05 -1.533015E+04  7.571013E+04
        57   8  2.415406E+05  1.096890E+06  1.949116E+05  1.530669E+05 -4.935842E+04  2.961684E+04
        57   9  2.000112E+05  9.273323E+05  1.486333E+05  1.746849E+05 -5.435457E+04 -1.646220E+04
        57  10 -3.038700E+05 -1.115462E+06 -2.915332E+05  1.789901E+05 -4.133732E-10 -7.448905E-10
        57  11 -2.454359E+05 -9.376243E+05 -2.056590E+05  1.573711E+05  4.280371E-10  7.589635E-10
        57  12 -2.004498E+05 -7.697547E+05 -1.567187E+05  1.730932E+05  2.471704E-10  1.360803E-09
        57  13 -8.596410E+03  7.832558E+04 -9.695435E+03  1.738924E+05 -1.539856E-10  1.471347E-11
        57  14 -1.917758E+03  7.913644E+04 -5.351631E+03  1.552215E+05 -1.449893E-09  1.509813E-11
        57  15 -2.008728E+02  7.843756E+04 -4.031761E+03  1.738882E+05 -3.350586E-11  6.515656E-10
        57  16  2.865752E+05  1.273425E+06  2.720438E+05  1.687845E+05 -4.193178E-10  7.344995E-10
        57  17  2.415377E+05  1.096888E+06  1.949053E+05  1.530680E+05 -1.183324E-10 -3.891454E-10
        57  18  2.000079E+05  9.273312E+05  1.486273E+05  1.746842E+05 -8.844409E-10 -7.754286E-10
        57  19 -3.038676E+05 -1.115454E+06 -2.915184E+05  1.789911E+05  1.539037E+04  8.741899E+04
        57  20 -2.454329E+05 -9.376222E+05 -2.056520E+05  1.573726E+05  4.940527E+04  3.589052E+04
        57  21 -2.004466E+05 -7.697536E+05 -1.567127E+05  1.730925E+05  5.434453E+04 -1.565559E+04
        57  22 -8.596147E+03  7.832568E+04 -9.694925E+03  1.738924E+05  1.535957E+04  5.932449E+03
        57  23 -1.915136E+03  7.913710E+04 -5.347030E+03  1.552216E+05  4.938172E+04  3.163105E+03
        57  24 -1.977007E+02  7.843836E+04 -4.026210E+03  1.738883E+05  5.434953E+04  3.926380E+02
        57  25  2.865770E+05  1.273431E+06  2.720550E+05  1.687836E+05  1.533015E+04 -7.571013E+04
        57  26  2.415406E+05  1.096890E+06  1.949116E+05  1.530669E+05  4.935842E+04 -2.961684E+04
        57  27  2.000112E+05  9.273323E+05  1.486333E+05  1.746849E+05  5.435457E+04  1.646220E+04
        58   1 -1.733115E+05 -6.555386E+05 -1.348329E+05  1.743073E+05 -4.821887E+04  1.300191E+04
        58   2 -1.318186E+05 -4.822733E+05 -1.019355E+05  1.542691E+05 -3.944597E+04  1.927185E+04
        58   3 -9.214825E+04 -3.102717E+05 -7.358415E+04  1.734258E+05 -2.834620E+04  2.553777E+04
        58   4 -2.440226E+02  7.867191E+04 -3.965876E+03  1.743008E+05 -4.822409E+04  2.371730E+02
        58   5 -9.440082E+01  7.901095E+04 -4.742238E+03  1.547047E+05 -3.945757E+04  2.601422E+03
        58   6 -1.086704E+03  7.873595E+04 -7.350173E+03  1.743014E+05 -2.836527E+04  4.960009E+03
        58   7  1.727937E+05  8.134092E+05  1.268814E+05  1.742940E+05 -4.822930E+04 -1.254224E+04
        58   8  1.316130E+05  6.406050E+05  9.244111E+04  1.551406E+05 -3.946918E+04 -1.408362E+04
        58   9  8.996704E+04  4.678934E+05  5.888043E+04  1.751775E+05 -2.838439E+04 -1.563024E+04
        58  10 -1.733140E+05 -6.555394E+05 -1.348376E+05  1.743078E+05 -6.401229E-10  2.046696E-11
        58  11 -1.318204E+05 -4.822741E+05 -1.019391E+05  1.542697E+05  4.158714E-10  1.487482E-09
        58  12 -9.214929E+04 -3.102726E+05 -7.358689E+04  1.734264E+05  2.086121E-10  6.920814E-10
        58  13 -2.465200E+02  7.867129E+04 -3.970247E+03  1.743008E+05 -1.611457E-10  1.397371E-12
        58  14 -9.607459E+01  7.901052E+04 -4.745177E+03  1.547048E+05 -1.514727E-09  2.760635E-11
        58  15 -1.087574E+03  7.873571E+04 -7.351732E+03  1.743015E+05 -8.852559E-10  1.091831E-09
        58  16  1.727911E+05  8.134084E+05  1.268767E+05  1.742936E+05 -6.535743E-10 -2.452637E-11
        58  17  1.316113E+05  6.406043E+05  9.243781E+04  1.551401E+05 -2.602356E-10 -6.011775E-10
        58  18  8.996611E+04  4.678929E+05  5.887846E+04  1.751772E+05  2.018406E-10  3.687607E-10
        58  19 -1.733115E+05 -6.555386E+05 -1.348329E+05  1.743073E+05  4.821887E+04 -1.300191E+04
        58  20 -1.318186E+05 -4.822733E+05 -1.019355E+05  1.542691E+05  3.944597E+04 -1.927185E+04
        58  21 -9.214825E+04 -3.102717E+05 -7.358415E+04  1.734258E+05  2.834620E+04 -2.553777E+04
        58  22 -2.440226E+02  7.867191E+04 -3.965876E+03  1.743008E+05  4.822409E+04 -2.371730E+02
        58  23 -9.440082E+01  7.901095E+04 -4.742238E+03  1.547047E+05  3.945757E+04 -2.601422E+03
        58  24 -1.086704E+03  7.873595E+04 -7.350173E+03  1.743014E+05  2.836527E+04 -4.960009E+03
        58  25  1.727937E+05  8.134092E+05  1.268814E+05  1.742940E+05  4.822930E+04  1.254224E+04
        58  26  1.316130E+05  6.406050E+05  9.244111E+04  1.551406E+05  3.946918E+04  1.408362E+04
        58  27  8.996704E+04  4.678934E+05  5.888043E+04  1.751775E+05  2.838439E+04  1.563024E+04
        59   1 -6.506814E+04 -1.985402E+05 -5.539619E+04  1.758458E+05 -2.099267E+04  2.681749E+04
        59   2 -3.014542E+04 -2.345451E+04 -3.137145E+04  1.461027E+05 -1.006604E+04  3.074901E+04
        59   3 -1.217699E+04  1.468417E+05 -1.416427E+04  1.555325E+05 -1.845757E+03  3.468214E+04
        59   4 -6.198209E+02  7.764073E+04 -9.338238E+03  1.742940E+05 -2.101336E+04  6.198311E+03
        59   5 -6.357414E+03  8.045110E+04 -1.643776E+04  1.547195E+05 -1.008225E+04  1.467426E+04
        59   6 -2.983614E+04  7.765379E+04 -3.351147E+04  1.743203E+05 -1.857167E+03  2.315081E+04
        59   7  6.382476E+04  3.538979E+05  3.671898E+04  1.727415E+05 -2.103395E+04 -1.442973E+04
        59   8  1.743052E+04  1.843683E+05 -1.503236E+03  1.633378E+05 -1.009890E+04 -1.403060E+03
        59   9 -4.749429E+04  8.471141E+03 -5.285839E+04  1.931061E+05 -1.869277E+03  1.162078E+04
        59  10 -6.506881E+04 -1.985411E+05 -5.539837E+04  1.758463E+05 -2.423097E-11  8.916606E-10
        59  11 -3.014578E+04 -2.345556E+04 -3.137342E+04  1.461029E+05 -4.417556E-10  2.030269E-09
        59  12 -1.217731E+04  1.468404E+05 -1.416654E+04  1.555325E+05 -1.422300E-10  3.945821E-10
        59  13 -6.203054E+02  7.764057E+04 -9.339140E+03  1.742941E+05 -2.681132E-10  1.504883E-11
        59  14 -6.357581E+03  8.045084E+04 -1.643836E+04  1.547196E+05 -1.865886E-09  1.763261E-11
        59  15 -2.983628E+04  7.765321E+04 -3.351248E+04  1.743204E+05 -1.098195E-11  1.191119E-09
        59  16  6.382423E+04  3.538975E+05  3.671775E+04  1.727413E+05 -3.777382E-10 -8.197145E-10
        59  17  1.743041E+04  1.843683E+05 -1.503432E+03  1.633378E+05 -5.005479E-10 -9.359655E-10
        59  18 -4.749433E+04  8.470995E+03 -5.285865E+04  1.931061E+05  2.394779E-10  7.292946E-10
        59  19 -6.506814E+04 -1.985402E+05 -5.539619E+04  1.758458E+05  2.099267E+04 -2.681749E+04
        59  20 -3.014542E+04 -2.345451E+04 -3.137145E+04  1.461027E+05  1.006604E+04 -3.074901E+04
        59  21 -1.217699E+04  1.468417E+05 -1.416427E+04  1.555325E+05  1.845757E+03 -3.468214E+04
        59  22 -6.198209E+02  7.764073E+04 -9.338238E+03  1.742940E+05  2.101336E+04 -6.198311E+03
        59  23 -6.357414E+03  8.045110E+04 -1.643776E+04  1.547195E+05  1.008225E+04 -1.467426E+04
        59  24 -2.983614E+04  7.765379E+04 -3.351147E+04  1.743203E+05  1.857167E+03 -2.315081E+04
        59  25  6.382476E+04  3.538979E+05  3.671898E+04  1.727415E+05  2.103395E+04  1.442973E+04
        59  26  1.743052E+04  1.843683E+05 -1.503236E+03  1.633378E+05  1.009890E+04  1.403060E+03
        59  27 -4.749429E+04  8.471141E+03 -5.285839E+04  1.931061E+05  1.869277E+03 -1.162078E+04
        60   1  3.729332E+06  7.906743E+05  7.627886E+05  5.388992E+05  2.284132E+05 -3.843607E+04
        60   2  3.196163E+06  6.146691E+05  5.214574E+05  4.719389E+05  9.208355E+04 -1.210962E+05
        60   3  2.692490E+06  4.808337E+05  3.791844E+05  5.175678E+05 -4.397622E+04 -1.286414E+05
        60   4  6.511743E+05  3.154271E+04  3.699254E+04  5.200114E+05  2.529829E+04 -3.826860E+04
        60   5  6.479120E+05  5.545344E+03  1.823320E+04  4.637020E+05  1.587528E+04 -1.210989E+05
        60   6  6.520322E+05 -1.354545E+02  1.077425E+04  5.199919E+05  6.601419E+03 -1.286780E+05
        60   7 -2.418219E+06 -7.282413E+05 -6.893025E+05  5.012160E+05 -1.768201E+05 -3.808874E+04
        60   8 -1.894137E+06 -6.039685E+05 -4.852882E+05  4.554981E+05 -6.002808E+04 -1.210997E+05
        60   9 -1.384380E+06 -4.813357E+05 -3.577898E+05  5.224063E+05  5.701796E+04 -1.287142E+05
        60  10  3.729276E+06  7.906588E+05  7.626884E+05  5.389062E+05 -1.200065E-09  3.991787E-11
        60  11  3.196150E+06  6.146511E+05  5.214140E+05  4.719479E+05 -7.065532E-10  2.092388E-10
        60  12  2.692484E+06  4.808154E+05  3.791497E+05  5.175632E+05 -1.046530E-09  3.379554E-10
        60  13  6.511732E+05  3.154097E+04  3.698858E+04  5.200122E+05 -6.225556E-11  1.447809E-10
        60  14  6.479077E+05  5.529523E+03  1.820515E+04  4.637035E+05 -1.626205E-09  4.100500E-10
        60  15  6.520277E+05 -1.532530E+02  1.074304E+04  5.199926E+05 -2.167156E-09  1.645328E-10
        60  16 -2.418253E+06 -7.282513E+05 -6.893641E+05  5.012106E+05 -6.766798E-11  2.504458E-10
        60  17 -1.894144E+06 -6.039852E+05 -4.853225E+05  4.554922E+05  9.341703E-10  5.672062E-10
        60  18 -1.384388E+06 -4.813544E+05 -3.578271E+05  5.224122E+05  8.550692E-10 -3.762172E-11
        60  19  3.729332E+06  7.906743E+05  7.627886E+05  5.388992E+05 -2.284132E+05  3.843607E+04
        60  20  3.196163E+06  6.146691E+05  5.214574E+05  4.719389E+05 -9.208355E+04  1.210962E+05
        60  21  2.692490E+06  4.808337E+05  3.791844E+05  5.175678E+05  4.397622E+04  1.286414E+05
        60  22  6.511743E+05  3.154271E+04  3.699254E+04  5.200114E+05 -2.529829E+04  3.826860E+04
        60  23  6.479120E+05  5.545344E+03  1.823320E+04  4.637020E+05 -1.587528E+04  1.210989E+05
        60  24  6.520322E+05 -1.354545E+02  1.077425E+04  5.199919E+05 -6.601419E+03  1.286780E+05
        60  25 -2.418219E+06 -7.282413E+05 -6.893025E+05  5.012160E+05  1.768201E+05  3.808874E+04
        60  26 -1.894137E+06 -6.039685E+05 -4.852882E+05  4.554981E+05  6.002808E+04  1.210997E+05
        60  27 -1.384380E+06 -4.813357E+05 -3.577898E+05  5.224063E+05 -5.701796E+04  1.287142E+05
        61   1  2.350053E+06  4.007494E+05  3.127217E+05  5.215553E+05 -3.690304E+04 -1.097353E+05
        61   2  1.831598E+06  2.768379E+05  2.117157E+05  4.627222E+05 -5.051439E+04 -8.166195E+04
        61   3  1.316244E+06  1.558541E+05  1.203543E+05  5.211482E+05 -6.413862E+04 -4.731499E+04
        61   4  6.508585E+05  7.037369E+02  8.686040E+03  5.210359E+05  5.104894E+03 -1.097529E+05
        61   5  6.505529E+05 -1.347294E+02  6.176964E+03  4.623994E+05  2.052052E+03 -8.165621E+04
        61   6  6.512608E+05  1.397456E+02  5.998554E+03  5.210364E+05 -1.024460E+03 -4.727948E+04
        61   7 -1.045525E+06 -3.995009E+05 -2.954535E+05  5.205168E+05  4.700144E+04 -1.097706E+05
        61   8 -5.291231E+05 -2.771813E+05 -1.994006E+05  4.620768E+05  5.452176E+04 -8.165049E+04
        61   9 -1.328060E+04 -1.555962E+05 -1.083573E+05  5.209244E+05  6.202432E+04 -4.724395E+04
        61  10  2.350049E+06  4.007361E+05  3.126965E+05  5.215521E+05 -2.731387E-08  1.150743E-11
        61  11  1.831594E+06  2.768301E+05  2.116984E+05  4.627189E+05 -4.501815E-10 -5.556066E-10
        61  12  1.316239E+06  1.558506E+05  1.203424E+05  5.211458E+05  2.797134E-08 -2.905775E-10
        61  13  6.508553E+05  6.907904E+02  8.663346E+03  5.210364E+05  2.211203E-11 -4.351617E-10
        61  14  6.505511E+05 -1.418928E+02  6.164422E+03  4.623996E+05  5.063172E-10 -1.190435E-09
        61  15  6.512602E+05  1.373443E+02  5.994351E+03  5.210363E+05  2.624845E-10 -6.774468E-10
        61  16 -1.045531E+06 -3.995144E+05 -2.954803E+05  5.205210E+05  2.729824E-08 -9.141389E-10
        61  17 -5.291281E+05 -2.771892E+05 -1.994187E+05  4.620804E+05  6.690646E-10 -1.792915E-09
        61  18 -1.328534E+04 -1.555996E+05 -1.083687E+05  5.209267E+05 -2.763726E-08 -1.073454E-09
        61  19  2.350053E+06  4.007494E+05  3.127217E+05  5.215553E+05  3.690304E+04  1.097353E+05
        61  20  1.831598E+06  2.768379E+05  2.117157E+05  4.627222E+05  5.051439E+04  8.166195E+04
        61  21  1.316244E+06  1.558541E+05  1.203543E+05  5.211482E+05  6.413862E+04  4.731499E+04
        61  22  6.508585E+05  7.037369E+02  8.686040E+03  5.210359E+05 -5.104894E+03  1.097529E+05
        61  23  6.505529E+05 -1.347294E+02  6.176964E+03  4.623994E+05 -2.052052E+03  8.165621E+04
        61  24  6.512608E+05  1.397456E+02  5.998554E+03  5.210364E+05  1.024460E+03  4.727948E+04
        61  25 -1.045525E+06 -3.995009E+05 -2.954535E+05  5.205168E+05 -4.700144E+04  1.097706E+05
        61  26 -5.291231E+05 -2.771813E+05 -1.994006E+05  4.620768E+05 -5.452176E+04  8.165049E+04
        61  27 -1.328060E+04 -1.555962E+05 -1.083573E+05  5.209244E+05 -6.202432E+04  4.724395E+04
        62   1  9.790025E+05  7.654084E+04  6.099639E+04  5.215175E+05 -6.499757E+04 -2.509118E+04
        62   2  4.625577E+05 -4.416660E+04 -2.642755E+04  4.619112E+05 -6.281306E+04  1.026581E+04
        62   3 -5.354827E+04 -1.639802E+05 -1.150327E+05  5.196783E+05 -6.062850E+04  4.157304E+04
        62   4  6.513779E+05  1.902185E+02  6.555372E+03  5.210578E+05 -2.140125E+03 -2.504912E+04
        62   5  6.507203E+05  5.913007E+02  9.307429E+03  4.623721E+05 -6.788900E+03  1.029949E+04
        62   6  6.513122E+05  3.079084E+03  1.560861E+04  5.210563E+05 -1.143584E+04  4.159940E+04
        62   7  3.238677E+05 -7.616385E+04 -4.787407E+04  5.205983E+05  6.068531E+04 -2.500714E+04
        62   8  8.389238E+05  4.534882E+04  4.505261E+04  4.628332E+05  4.925182E+04  1.033324E+04
        62   9  1.356659E+06  1.701112E+05  1.462381E+05  5.224356E+05  3.781124E+04  4.162595E+04
        62  10  9.789978E+05  7.653903E+04  6.098728E+04  5.215162E+05  1.300046E-09  1.070834E-10
        62  11  4.625534E+05 -4.416777E+04 -2.643516E+04  4.619118E+05  1.623207E-09  3.493800E-10
        62  12 -5.355268E+04 -1.639830E+05 -1.150428E+05  5.196804E+05  7.786807E-10 -1.849299E-10
        62  13  6.513778E+05  1.895434E+02  6.554184E+03  5.210578E+05 -5.869809E-10 -5.958936E-11
        62  14  6.507202E+05  5.911743E+02  9.307143E+03  4.623722E+05  5.388506E-10  4.467345E-10
        62  15  6.513116E+05  3.077189E+03  1.560511E+04  5.210567E+05  3.242404E-10  3.462614E-10
        62  16  3.238636E+05 -7.616551E+04 -4.788217E+04  5.205995E+05 -1.018602E-09 -2.464310E-10
        62  17  8.389211E+05  4.534805E+04  4.504786E+04  4.628327E+05  8.141732E-10  5.639683E-10
        62  18  1.356657E+06  1.701090E+05  1.462322E+05  5.224343E+05 -1.646375E-09  8.845261E-10
        62  19  9.790025E+05  7.654084E+04  6.099639E+04  5.215175E+05  6.499757E+04  2.509118E+04
        62  20  4.625577E+05 -4.416660E+04 -2.642755E+04  4.619112E+05  6.281306E+04 -1.026581E+04
        62  21 -5.354827E+04 -1.639802E+05 -1.150327E+05  5.196783E+05  6.062850E+04 -4.157304E+04
        62  22  6.513779E+05  1.902185E+02  6.555372E+03  5.210578E+05  2.140125E+03  2.504912E+04
        62  23  6.507203E+05  5.913007E+02  9.307429E+03  4.623721E+05  6.788900E+03 -1.029949E+04
        62  24  6.513122E+05  3.079084E+03  1.560861E+04  5.210563E+05  1.143584E+04 -4.159940E+04
        62  25  3.238677E+05 -7.616385E+04 -4.787407E+04  5.205983E+05 -6.068531E+04  2.500714E+04
        62  26  8.389238E+05  4.534882E+04  4.505261E+04  4.628332E+05 -4.925182E+04 -1.033324E+04
        62  27  1.356659E+06  1.701112E+05  1.462381E+05  5.224356E+05 -3.781124E+04 -4.162595E+04
        63   1 -3.901220E+05 -2.455196E+05 -1.732754E+05  5.240175E+05 -6.917884E+04  6.167143E+04
        63   2 -9.055495E+05 -3.591876E+05 -2.774726E+05  4.445070E+05 -8.461017E+01  6.842850E+04
        63   3 -1.423177E+06 -4.486132E+05 -4.205420E+05  4.791450E+05  6.890211E+04  2.300401E+04
        63   4  6.537538E+05  1.918898E+03  2.016158E+04  5.203291E+05 -1.412918E+04  6.169199E+04
        63   5  6.471139E+05  1.409135E+04  3.592090E+04  4.632721E+05 -3.261303E+04  6.840851E+04
        63   6  6.532135E+05  6.568779E+04  7.362512E+04  5.203299E+05 -5.114842E+04  2.300820E+04
        63   7  1.698692E+06  2.492967E+05  2.135642E+05  5.166339E+05  4.101071E+04  6.171185E+04
        63   8  2.202078E+06  3.872229E+05  3.491945E+05  4.820842E+05 -6.522124E+04  6.838662E+04
        63   9  2.733598E+06  5.796920E+05  5.675457E+05  5.616519E+05 -1.715990E+05  2.299656E+04
        63  10 -3.901281E+05 -2.455249E+05 -1.732916E+05  5.240209E+05  1.526450E-09 -4.148425E-10
        63  11 -9.055508E+05 -3.591926E+05 -2.774814E+05  4.445070E+05 -4.791434E-10 -2.453326E-10
        63  12 -1.423182E+06 -4.486150E+05 -4.205519E+05  4.791437E+05 -1.889566E-10 -9.522010E-11
        63  13  6.537526E+05  1.914755E+03  2.015405E+04  5.203298E+05  1.644735E-09  1.108405E-10
        63  14  6.471115E+05  1.408604E+04  3.591010E+04  4.632739E+05  1.595500E-09 -9.064186E-11
        63  15  6.532105E+05  6.568652E+04  7.361921E+04  5.203308E+05  5.215459E-10  1.014302E-12
        63  16  1.698689E+06  2.492921E+05  2.135539E+05  5.166318E+05 -1.183604E-09  6.146357E-10
        63  17  2.202072E+06  3.872167E+05  3.491777E+05  4.820878E+05 -1.324085E-11 -2.157910E-11
        63  18  2.733567E+06  5.796836E+05  5.674896E+05  5.616550E+05  6.036978E-10 -8.270762E-11
        63  19 -3.901220E+05 -2.455196E+05 -1.732754E+05  5.240175E+05  6.917884E+04 -6.167143E+04
        63  20 -9.055495E+05 -3.591876E+05 -2.774726E+05  4.445070E+05  8.461017E+01 -6.842850E+04
        63  21 -1.423177E+06 -4.486132E+05 -4.205420E+05  4.791450E+05 -6.890211E+04 -2.300401E+04
        63  22  6.537538E+05  1.918898E+03  2.016158E+04  5.203291E+05  1.412918E+04 -6.169199E+04
        63  23  6.471139E+05  1.409135E+04  3.592090E+04  4.632721E+05  3.261303E+04 -6.840851E+04
        63  24  6.532135E+05  6.568779E+04  7.362512E+04  5.203299E+05  5.114842E+04 -2.300820E+04
        63  25  1.698692E+06  2.492967E+05  2.135642E+05  5.166339E+05 -4.101071E+04 -6.171185E+04
        63  26  2.202078E+06  3.872229E+05  3.491945E+05  4.820842E+05  6.522124E+04 -6.838662E+04
        63  27  2.733598E+06  5.796920E+05  5.675457E+05  5.616519E+05  1.715990E+05 -2.299656E+04
        64   1 -2.287673E+05 -5.390276E+05 -2.328315E+05  3.320076E+05 -5.394983E+03 -7.752646E+04
        64   2 -1.030040E+05 -2.410181E+05 -1.143047E+05  2.775100E+05 -1.198475E+04 -3.036921E+04
        64   3 -2.094632E+04  3.969954E+04 -3.748794E+04  2.877579E+05 -1.273694E+03  1.677849E+04
        64   4 -6.484131E+04  1.219973E+05 -7.326095E+04  2.920179E+05 -5.326754E+03 -5.176448E+04
        64   5 -1.341002E+04  1.281865E+05 -3.503835E+04  2.595674E+05 -1.199141E+04 -3.364138E+04
        64   6 -6.203453E+02  1.220630E+05 -1.833465E+04  2.918704E+05 -1.356600E+03 -1.555057E+04
        64   7  9.905927E+04  7.834270E+05  8.628170E+04  2.519851E+05 -5.261889E+03 -2.597513E+04
        64   8  7.617626E+04  4.975201E+05  4.422023E+04  2.416139E+05 -1.199787E+04 -3.691548E+04
        64   9  1.970577E+04  2.044349E+05  8.221271E+02  2.959835E+05 -1.439927E+03 -4.788389E+04
        64  10 -2.287689E+05 -5.390340E+05 -2.328428E+05  3.320073E+05 -2.498105E-10 -5.949200E-10
        64  11 -1.030044E+05 -2.410191E+05 -1.143067E+05  2.775097E+05 -6.873149E-12  3.853871E-10
        64  12 -2.094640E+04  3.969923E+04 -3.748847E+04  2.877579E+05 -1.225830E-10  1.454958E-09
        64  13 -6.484206E+04  1.219945E+05 -7.326604E+04  2.920177E+05  1.813892E-10 -1.059985E-11
        64  14 -1.341048E+04  1.281853E+05 -3.504074E+04  2.595671E+05  4.033350E-11 -3.919204E-11
        64  15 -6.204122E+02  1.220627E+05 -1.833510E+04  2.918704E+05 -9.968474E-10 -7.063131E-11
        64  16  9.905906E+04  7.834263E+05  8.628038E+04  2.519850E+05 -2.331762E-10  6.334231E-10
        64  17  7.617574E+04  4.975186E+05  4.421740E+04  2.416135E+05 -8.351108E-10 -3.859764E-10
        64  18  1.970515E+04  2.044324E+05  8.178160E+02  2.959834E+05  6.259884E-10 -1.360481E-09
        64  19 -2.287673E+05 -5.390276E+05 -2.328315E+05  3.320076E+05  5.394983E+03  7.752646E+04
        64  20 -1.030040E+05 -2.410181E+05 -1.143047E+05  2.775100E+05  1.198475E+04  3.036921E+04
        64  21 -2.094632E+04  3.969954E+04 -3.748794E+04  2.877579E+05  1.273694E+03 -1.677849E+04
        64  22 -6.484131E+04  1.219973E+05 -7.326095E+04  2.920179E+05  5.326754E+03  5.176448E+04
        64  23 -1.341002E+04  1.281865E+05 -3.503835E+04  2.595674E+05  1.199141E+04  3.364138E+04
        64  24 -6.203453E+02  1.220630E+05 -1.833465E+04  2.918704E+05  1.356600E+03  1.555057E+04
        64  25  9.905927E+04  7.834270E+05  8.628170E+04  2.519851E+05  5.261889E+03  2.597513E+04
        64  26  7.617626E+04  4.975201E+05  4.422023E+04  2.416139E+05  1.199787E+04  3.691548E+04
        64  27  1.970577E+04  2.044349E+05  8.221271E+02  2.959835E+05  1.439927E+03  4.788389E+04
        65   1  2.288169E+04  2.318196E+05  2.223698E+03  2.932828E+05  1.044385E+04  1.739890E+04
        65   2  9.378553E+04  5.212726E+05  6.346007E+04  2.604015E+05  2.788456E+04  1.715897E+04
        65   3  1.641394E+05  8.103999E+05  1.246234E+05  2.931524E+05  4.368375E+04  1.692722E+04
        65   4 -1.649073E+03  1.246019E+05 -1.320266E+04  2.920864E+05  1.036522E+04 -1.329224E+04
        65   5  8.426367E+02  1.250055E+05 -5.117939E+03  2.592640E+05  2.781719E+04 -1.077819E+04
        65   6  2.310812E+03  1.245257E+05  9.835441E+02  2.920766E+05  4.362696E+04 -8.255830E+03
        65   7 -2.617985E+04  1.739783E+04 -2.862566E+04  2.908901E+05  1.028670E+04 -4.397830E+04
        65   8 -9.210828E+04 -2.711060E+05 -7.369845E+04  2.581271E+05  2.774990E+04 -3.869808E+04
        65   9 -1.595437E+05 -5.608893E+05 -1.226723E+05  2.910017E+05  4.357021E+04 -3.341186E+04
        65  10  2.288149E+04  2.318193E+05  2.222925E+03  2.932827E+05  3.512765E-10 -7.863439E-10
        65  11  9.378461E+04  5.212721E+05  6.345806E+04  2.604011E+05  7.175072E-10  2.606073E-10
        65  12  1.641373E+05  8.103990E+05  1.246193E+05  2.931518E+05 -1.316379E-10  1.467959E-09
        65  13 -1.649236E+03  1.246017E+05 -1.320320E+04  2.920865E+05 -2.583904E-10 -1.083587E-10
        65  14  8.417744E+02  1.250052E+05 -5.119613E+03  2.592642E+05  9.470506E-10 -5.604577E-11
        65  15  2.308749E+03  1.245251E+05  9.798383E+02  2.920769E+05  2.185161E-10  4.110666E-11
        65  16 -2.618048E+04  1.739573E+04 -2.862949E+04  2.908905E+05  5.075177E-10  9.182364E-10
        65  17 -9.210951E+04 -2.711078E+05 -7.370272E+04  2.581280E+05 -9.712737E-10 -1.311659E-10
        65  18 -1.595461E+05 -5.608911E+05 -1.226779E+05  2.910029E+05  9.370635E-10 -1.452151E-09
        65  19  2.288169E+04  2.318196E+05  2.223698E+03  2.932828E+05 -1.044385E+04 -1.739890E+04
        65  20  9.378553E+04  5.212726E+05  6.346007E+04  2.604015E+05 -2.788456E+04 -1.715897E+04
        65  21  1.641394E+05  8.103999E+05  1.246234E+05  2.931524E+05 -4.368375E+04 -1.692722E+04
        65  22 -1.649073E+03  1.246019E+05 -1.320266E+04  2.920864E+05 -1.036522E+04  1.329224E+04
        65  23  8.426367E+02  1.250055E+05 -5.117939E+03  2.592640E+05 -2.781719E+04  1.077819E+04
        65  24  2.310812E+03  1.245257E+05  9.835441E+02  2.920766E+05 -4.362696E+04  8.255830E+03
        65  25 -2.617985E+04  1.739783E+04 -2.862566E+04  2.908901E+05 -1.028670E+04  4.397830E+04
        65  26 -9.210828E+04 -2.711060E+05 -7.369845E+04  2.581271E+05 -2.774990E+04  3.869808E+04
        65  27 -1.595437E+05 -5.608893E+05 -1.226723E+05  2.910017E+05 -4.357021E+04  3.341186E+04
        66   1  2.088326E+05  1.002098E+06  1.632738E+05  2.913970E+05  5.453818E+04  2.056976E+04
        66   2  2.843942E+05  1.284369E+06  2.425619E+05  2.682645E+05  5.376984E+04 -4.570299E+04
        66   3  3.849502E+05  1.581465E+06  3.711662E+05  3.085357E+05  1.714546E+04 -1.119593E+05
        66   4  1.786503E+03  1.256222E+05  3.901285E+03  2.915883E+05  5.447681E+04 -8.547240E+03
        66   5  6.132172E+03  1.233600E+05  1.146186E+04  2.598617E+05  5.384401E+04 -1.446602E+04
        66   6  2.503414E+04  1.254038E+05  2.648450E+04  2.915408E+05  1.732629E+04 -2.033603E+04
        66   7 -2.053024E+05 -7.501057E+05 -1.554987E+05  2.917787E+05  5.441537E+04 -3.762430E+04
        66   8 -2.722115E+05 -1.036360E+06 -2.197018E+05  2.514740E+05  5.391742E+04  1.671383E+04
        66   9 -3.350285E+05 -1.328694E+06 -3.183128E+05  2.745845E+05  1.750238E+04  7.107392E+04
        66  10  2.088293E+05  1.002097E+06  1.632674E+05  2.913961E+05  5.526499E-10 -1.664367E-09
        66  11  2.843905E+05  1.284366E+06  2.425525E+05  2.682665E+05  8.088151E-10 -7.116609E-10
        66  12  3.849466E+05  1.581451E+06  3.711421E+05  3.085372E+05 -5.770196E-10  2.393603E-10
        66  13  1.783296E+03  1.256213E+05  3.895569E+03  2.915887E+05  6.708892E-10 -2.331342E-11
        66  14  6.129002E+03  1.233590E+05  1.145602E+04  2.598624E+05  1.864997E-09  2.974915E-11
        66  15  2.503370E+04  1.254032E+05  2.648316E+04  2.915410E+05  9.743118E-11  3.952788E-11
        66  16 -2.053059E+05 -7.501080E+05 -1.555069E+05  2.917803E+05  5.594473E-10  1.712797E-09
        66  17 -2.722147E+05 -1.036361E+06 -2.197078E+05  2.514733E+05 -4.129429E-10  7.278922E-10
        66  18 -3.350302E+05 -1.328699E+06 -3.183229E+05  2.745835E+05 -4.396436E-10 -3.566174E-10
        66  19  2.088326E+05  1.002098E+06  1.632738E+05  2.913970E+05 -5.453818E+04 -2.056976E+04
        66  20  2.843942E+05  1.284369E+06  2.425619E+05  2.682645E+05 -5.376984E+04  4.570299E+04
        66  21  3.849502E+05  1.581465E+06  3.711662E+05  3.085357E+05 -1.714546E+04  1.119593E+05
        66  22  1.786503E+03  1.256222E+05  3.901285E+03  2.915883E+05 -5.447681E+04  8.547240E+03
        66  23  6.132172E+03  1.233600E+05  1.146186E+04  2.598617E+05 -5.384401E+04  1.446602E+04
        66  24  2.503414E+04  1.254038E+05  2.648450E+04  2.915408E+05 -1.732629E+04  2.033603E+04
        66  25 -2.053024E+05 -7.501057E+05 -1.554987E+05  2.917787E+05 -5.441537E+04  3.762430E+04
        66  26 -2.722115E+05 -1.036360E+06 -2.197018E+05  2.514740E+05 -5.391742E+04 -1.671383E+04
        66  27 -3.350285E+05 -1.328694E+06 -3.183128E+05  2.745845E+05 -1.750238E+04 -7.107392E+04
        67   1  2.778076E+06  5.803279E+05  5.712411E+05  4.311523E+05  2.007959E+05 -2.365427E+04
        67   2  2.393480E+06  3.989741E+05  3.669373E+05  3.574643E+05  9.208025E+04 -7.373441E+04
        67   3  2.041562E+06  2.899664E+05  2.513268E+05  3.642214E+05 -1.651591E+04 -7.579181E+04
        67   4  8.236644E+05  9.798771E+04  1.094821E+05  3.698755E+05  7.575756E+04 -2.364284E+04
        67   5  8.145696E+05  2.112533E+04  5.360277E+04  3.296522E+05  4.809170E+04 -7.375199E+04
        67   6  8.240768E+05  2.684309E+03  3.036003E+04  3.698633E+05  2.047441E+04 -7.579425E+04
        67   7 -1.127207E+06 -3.846030E+05 -3.524805E+05  3.087912E+05 -4.889096E+04 -2.360689E+04
        67   8 -7.619591E+05 -3.568713E+05 -2.598478E+05  3.019115E+05  4.212283E+03 -7.376570E+04
        67   9 -3.919673E+05 -2.846801E+05 -1.906606E+05  3.754935E+05  5.739434E+04 -7.579601E+04
        67  10  2.778032E+06  5.803165E+05  5.711646E+05  4.311561E+05 -3.383897E-10 -1.606421E-10
        67  11  2.393469E+06  3.989660E+05  3.669112E+05  3.574698E+05 -9.895041E-10 -2.762330E-10
        67  12  2.041560E+06  2.899602E+05  2.513155E+05  3.642204E+05 -1.546106E-09  1.031720E-10
        67  13  8.236580E+05  9.798557E+04  1.094703E+05  3.698769E+05 -6.025268E-10  6.709099E-11
        67  14  8.145657E+05  2.111887E+04  5.358820E+04  3.296551E+05 -2.199433E-09 -2.540302E-10
        67  15  8.240749E+05  2.678024E+03  3.034844E+04  3.698646E+05  5.235605E-12 -4.300670E-11
        67  16 -1.127210E+06 -3.846043E+05 -3.524861E+05  3.087903E+05  3.657083E-10 -1.580786E-10
        67  17 -7.619606E+05 -3.568771E+05 -2.598581E+05  3.019117E+05  9.948123E-10 -2.523648E-10
        67  18 -3.919724E+05 -2.846872E+05 -1.906776E+05  3.754970E+05 -1.700325E-10 -2.419092E-10
        67  19  2.778076E+06  5.803279E+05  5.712411E+05  4.311523E+05 -2.007959E+05  2.365427E+04
        67  20  2.393480E+06  3.989741E+05  3.669373E+05  3.574643E+05 -9.208025E+04  7.373441E+04
        67  21  2.041562E+06  2.899664E+05  2.513268E+05  3.642214E+05  1.651591E+04  7.579181E+04
        67  22  8.236644E+05  9.798771E+04  1.094821E+05  3.698755E+05 -7.575756E+04  2.364284E+04
        67  23  8.145696E+05  2.112533E+04  5.360277E+04  3.296522E+05 -4.809170E+04  7.375199E+04
        67  24  8.240768E+05  2.684309E+03  3.036003E+04  3.698633E+05 -2.047441E+04  7.579425E+04
        67  25 -1.127207E+06 -3.846030E+05 -3.524805E+05  3.087912E+05  4.889096E+04  2.360689E+04
        67  26 -7.619591E+05 -3.568713E+05 -2.598478E+05  3.019115E+05 -4.212283E+03  7.376570E+04
        67  27 -3.919673E+05 -2.846801E+05 -1.906606E+05  3.754935E+05 -5.739434E+04  7.579601E+04
        68   1  1.795828E+06  2.342002E+05  1.993549E+05  3.725556E+05 -1.512577E+04 -6.207600E+04
        68   2  1.426965E+06  1.432428E+05  1.213503E+05  3.296473E+05 -2.920255E+04 -4.137101E+04
        68   3  1.061245E+06  5.664027E+04  5.359536E+04  3.701136E+05 -4.328025E+04 -1.672645E+04
        68   4  8.204545E+05  4.304295E+03  2.377412E+04  3.705242E+05  1.641036E+04 -6.207173E+04
        68   5  8.195992E+05  6.446794E+02  1.494015E+04  3.288357E+05  8.966477E+03 -4.135626E+04
        68   6  8.206047E+05  1.985634E+02  1.176252E+04  3.705262E+05  1.513648E+03 -1.669911E+04
        68   7 -1.539921E+05 -2.256441E+05 -1.518399E+05  3.684958E+05  4.789844E+04 -6.206766E+04
        68   8  2.125968E+05 -1.419727E+05 -9.147776E+04  3.280247E+05  4.709934E+04 -4.134160E+04
        68   9  5.800250E+05 -5.624520E+04 -3.006483E+04  3.709387E+05  4.629074E+04 -1.667170E+04
        68  10  1.795826E+06  2.341960E+05  1.993472E+05  3.725548E+05 -3.877152E-10  4.436229E-10
        68  11  1.426964E+06  1.432407E+05  1.213455E+05  3.296464E+05 -6.191880E-10  4.734337E-10
        68  12  1.061243E+06  5.663947E+04  5.359132E+04  3.701130E+05  4.486007E-10  8.952606E-11
        68  13  8.204532E+05  4.300083E+03  2.376637E+04  3.705251E+05 -1.028824E-09  8.102424E-11
        68  14  8.195986E+05  6.428202E+02  1.493678E+04  3.288360E+05 -2.039968E-10  4.170523E-11
        68  15  8.206047E+05  1.982632E+02  1.176199E+04  3.705262E+05 -5.760707E-10 -9.751124E-11
        68  16 -1.539956E+05 -2.256488E+05 -1.518515E+05  3.684982E+05 -4.149619E-10 -2.919468E-10
        68  17  2.125940E+05 -1.419751E+05 -9.148515E+04  3.280263E+05 -1.487423E-10 -5.617318E-10
        68  18  5.800226E+05 -5.624607E+04 -3.006938E+04  3.709393E+05  6.182281E-10 -4.735030E-10
        68  19  1.795828E+06  2.342002E+05  1.993549E+05  3.725556E+05  1.512577E+04  6.207600E+04
        68  20  1.426965E+06  1.432428E+05  1.213503E+05  3.296473E+05  2.920255E+04  4.137101E+04
        68  21  1.061245E+06  5.664027E+04  5.359536E+04  3.701136E+05  4.328025E+04  1.672645E+04
        68  22  8.204545E+05  4.304295E+03  2.377412E+04  3.705242E+05 -1.641036E+04  6.207173E+04
        68  23  8.195992E+05  6.446794E+02  1.494015E+04  3.288357E+05 -8.966477E+03  4.135626E+04
        68  24  8.206047E+05  1.985634E+02  1.176252E+04  3.705262E+05 -1.513648E+03  1.669911E+04
        68  25 -1.539921E+05 -2.256441E+05 -1.518399E+05  3.684958E+05 -4.789844E+04  6.206766E+04
        68  26  2.125968E+05 -1.419727E+05 -9.147776E+04  3.280247E+05 -4.709934E+04  4.134160E+04
        68  27  5.800250E+05 -5.624520E+04 -3.006483E+04  3.709387E+05 -4.629074E+04  1.667170E+04
        69   1  8.214920E+05  2.560024E+02  1.084340E+04  3.709125E+05 -4.526764E+04 -9.286911E+02
        69   2  4.540629E+05 -8.543829E+04 -5.104795E+04  3.280699E+05 -4.654116E+04  2.397377E+04
        69   3  8.746548E+04 -1.692010E+05 -1.116259E+05  3.686328E+05 -4.780879E+04  4.547611E+04
        69   4  8.205791E+05  2.244168E+02  1.159637E+04  3.705312E+05 -5.405499E+02 -9.001743E+02
        69   5  8.196859E+05  6.536667E+02  1.404013E+04  3.288296E+05 -7.544022E+03  2.399342E+04
        69   6  8.204878E+05  4.013820E+03  2.176897E+04  3.705294E+05 -1.454240E+04  4.548810E+04
        69   7  8.196705E+05  1.939043E+02  1.235685E+04  3.701499E+05  4.418650E+04 -8.717124E+02
        69   8  1.185442E+06  8.673906E+04  7.912888E+04  3.295897E+05  3.147541E+04  2.401315E+04
        69   9  1.554034E+06  1.771990E+05  1.551465E+05  3.724281E+05  1.876219E+04  4.550028E+04
        69  10  8.214898E+05  2.554523E+02  1.083956E+04  3.709124E+05 -2.450628E-10 -4.005335E-11
        69  11  4.540604E+05 -8.543949E+04 -5.105310E+04  3.280708E+05 -6.023069E-10  2.894543E-10
        69  12  8.746246E+04 -1.692039E+05 -1.116340E+05  3.686345E+05 -1.162696E-09  4.736547E-10
        69  13  8.205791E+05  2.244159E+02  1.159637E+04  3.705312E+05 -7.384848E-11 -2.730040E-10
        69  14  8.196856E+05  6.530329E+02  1.403894E+04  3.288297E+05  3.062687E-10  1.792148E-10
        69  15  8.204870E+05  4.011540E+03  2.176468E+04  3.705299E+05 -8.687308E-10  7.555726E-10
        69  16  8.196684E+05  1.933801E+02  1.235318E+04  3.701500E+05  1.051709E-09 -3.712828E-10
        69  17  1.185441E+06  8.673818E+04  7.912594E+04  3.295891E+05 -1.721725E-10 -1.234856E-10
        69  18  1.554034E+06  1.771967E+05  1.551419E+05  3.724274E+05  1.210270E-09  1.056767E-09
        69  19  8.214920E+05  2.560024E+02  1.084340E+04  3.709125E+05  4.526764E+04  9.286911E+02
        69  20  4.540629E+05 -8.543829E+04 -5.104795E+04  3.280699E+05  4.654116E+04 -2.397377E+04
        69  21  8.746548E+04 -1.692010E+05 -1.116259E+05  3.686328E+05  4.780879E+04 -4.547611E+04
        69  22  8.205791E+05  2.244168E+02  1.159637E+04  3.705312E+05  5.405499E+02  9.001743E+02
        69  23  8.196859E+05  6.536667E+02  1.404013E+04  3.288296E+05  7.544022E+03 -2.399342E+04
        69  24  8.204878E+05  4.013820E+03  2.176897E+04  3.705294E+05  1.454240E+04 -4.548810E+04
        69  25  8.196705E+05  1.939043E+02  1.235685E+04  3.701499E+05 -4.418650E+04  8.717124E+02
        69  26  1.185442E+06  8.673906E+04  7.912888E+04  3.295897E+05 -3.147541E+04 -2.401315E+04
        69  27  1.554034E+06  1.771990E+05  1.551465E+05  3.724281E+05 -1.876219E+04 -4.550028E+04
        70   1 -1.505877E+05 -2.279075E+05 -1.507748E+05  3.749111E+05 -5.631447E+04  5.948640E+04
        70   2 -5.203080E+05 -3.012848E+05 -2.186829E+05  3.043196E+05 -9.953275E+03  6.094217E+04
        70   3 -8.855282E+05 -3.343013E+05 -3.066351E+05  3.145409E+05  3.634908E+04  1.991008E+04
        70   4  8.237513E+05  2.571886E+03  2.762864E+04  3.699447E+05 -1.826148E+04  5.949453E+04
        70   5  8.152141E+05  1.922649E+04  4.849400E+04  3.295505E+05 -4.325227E+04  6.092677E+04
        70   6  8.233994E+05  8.857755E+04  9.883394E+04  3.699434E+05 -6.827556E+04  1.991744E+04
        70   7  1.799015E+06  2.329984E+05  2.059989E+05  3.649701E+05  1.984965E+04  5.950203E+04
        70   8  2.152442E+06  3.396312E+05  3.155853E+05  3.548362E+05 -7.662142E+04  6.090869E+04
        70   9  2.535040E+06  5.112639E+05  5.041425E+05  4.254988E+05 -1.731868E+05  1.990617E+04
        70  10 -1.505920E+05 -2.279122E+05 -1.507874E+05  3.749138E+05  2.609801E-11  4.559493E-10
        70  11 -5.203091E+05 -3.012888E+05 -2.186900E+05  3.043201E+05 -2.172898E-10  1.319371E-10
        70  12 -8.855298E+05 -3.343021E+05 -3.066383E+05  3.145403E+05 -2.747415E-10  8.933389E-11
        70  13  8.237500E+05  2.567994E+03  2.762136E+04  3.699456E+05  5.390308E-10  7.826953E-10
        70  14  8.152111E+05  1.922200E+04  4.848351E+04  3.295526E+05 -3.054199E-10  2.070957E-10
        70  15  8.233943E+05  8.857587E+04  9.882444E+04  3.699445E+05  6.014613E-10 -3.277725E-11
        70  16  1.799014E+06  2.329945E+05  2.059915E+05  3.649691E+05 -1.278719E-09  1.131808E-09
        70  17  2.152435E+06  3.396256E+05  3.155674E+05  3.548400E+05  5.215643E-10  2.023464E-10
        70  18  2.535008E+06  5.112555E+05  5.040856E+05  4.255015E+05 -4.011371E-12 -3.788528E-11
        70  19 -1.505877E+05 -2.279075E+05 -1.507748E+05  3.749111E+05  5.631447E+04 -5.948640E+04
        70  20 -5.203080E+05 -3.012848E+05 -2.186829E+05  3.043196E+05  9.953275E+03 -6.094217E+04
        70  21 -8.855282E+05 -3.343013E+05 -3.066351E+05  3.145409E+05 -3.634908E+04 -1.991008E+04
        70  22  8.237513E+05  2.571886E+03  2.762864E+04  3.699447E+05  1.826148E+04 -5.949453E+04
        70  23  8.152141E+05  1.922649E+04  4.849400E+04  3.295505E+05  4.325227E+04 -6.092677E+04
        70  24  8.233994E+05  8.857755E+04  9.883394E+04  3.699434E+05  6.827556E+04 -1.991744E+04
        70  25  1.799015E+06  2.329984E+05  2.059989E+05  3.649701E+05 -1.984965E+04 -5.950203E+04
        70  26  2.152442E+06  3.396312E+05  3.155853E+05  3.548362E+05  7.662142E+04 -6.090869E+04
        70  27  2.535040E+06  5.112639E+05  5.041425E+05  4.254988E+05  1.731868E+05 -1.990617E+04
        71   1 -5.561299E+05 -2.040827E+06 -5.478265E+05  5.938806E+05 -2.102611E+04 -1.627217E+05
        71   2 -3.522626E+05 -1.479984E+06 -3.250555E+05  5.091128E+05 -6.009474E+04 -5.951843E+04
        71   3 -2.050190E+05 -9.466462E+05 -1.838193E+05  5.456217E+05 -4.980281E+04  4.373227E+04
        71   4 -7.108267E+04 -8.427819E+04 -8.074158E+04  5.513648E+05 -2.079699E+04 -5.560168E+04
        71   5 -1.449202E+04 -7.735282E+04 -3.966451E+04  4.906553E+05 -6.002836E+04 -3.504316E+04
        71   6 -5.891321E+01 -8.377677E+04 -2.255596E+04  5.512279E+05 -4.994215E+04 -1.453341E+04
        71   7  4.137009E+05  1.875818E+06  3.861184E+05  5.087109E+05 -2.058308E+04  5.185548E+04
        71   8  3.231575E+05  1.327155E+06  2.456260E+05  4.721537E+05 -5.996354E+04 -1.051346E+04
        71   9  2.048601E+05  7.798211E+05  1.386882E+05  5.568414E+05 -5.008240E+04 -7.287811E+04
        71  10 -5.561375E+05 -2.040856E+06 -5.478772E+05  5.938778E+05  6.352597E-10 -4.476658E-11
        71  11 -3.522674E+05 -1.479989E+06 -3.250690E+05  5.091099E+05 -7.104076E-11  1.738132E-10
        71  12 -2.050222E+05 -9.466490E+05 -1.838276E+05  5.456235E+05  9.765289E-10  8.061407E-11
        71  13 -7.108396E+04 -8.428163E+04 -8.074819E+04  5.513639E+05  7.681471E-10  1.447991E-10
        71  14 -1.449621E+04 -7.735510E+04 -3.967358E+04  4.906536E+05 -1.351360E-09  1.720175E-10
        71  15 -6.164720E+01 -8.377766E+04 -2.256104E+04  5.512273E+05  1.838829E-10 -7.802255E-11
        71  16  4.136998E+05  1.875815E+06  3.861125E+05  5.087118E+05  9.118980E-10  1.121639E-10
        71  17  3.231536E+05  1.327154E+06  2.456190E+05  4.721531E+05  1.413507E-09 -4.970265E-11
        71  18  2.048560E+05  7.798148E+05  1.386735E+05  5.568385E+05  3.525020E-10 -6.021951E-10
        71  19 -5.561299E+05 -2.040827E+06 -5.478265E+05  5.938806E+05  2.102611E+04  1.627217E+05
        71  20 -3.522626E+05 -1.479984E+06 -3.250555E+05  5.091128E+05  6.009474E+04  5.951843E+04
        71  21 -2.050190E+05 -9.466462E+05 -1.838193E+05  5.456217E+05  4.980281E+04 -4.373227E+04
        71  22 -7.108267E+04 -8.427819E+04 -8.074158E+04  5.513648E+05  2.079699E+04  5.560168E+04
        71  23 -1.449202E+04 -7.735282E+04 -3.966451E+04  4.906553E+05  6.002836E+04  3.504316E+04
        71  24 -5.891321E+01 -8.377677E+04 -2.255596E+04  5.512279E+05  4.994215E+04  1.453341E+04
        71  25  4.137009E+05  1.875818E+06  3.861184E+05  5.087109E+05  2.058308E+04 -5.185548E+04
        71  26  3.231575E+05  1.327155E+06  2.456260E+05  4.721537E+05  5.996354E+04  1.051346E+04
        71  27  2.048601E+05  7.798211E+05  1.386882E+05  5.568414E+05  5.008240E+04  7.287811E+04
        72   1 -1.207226E+05 -5.848055E+05 -1.126243E+05  5.525465E+05 -2.840061E+04  4.154248E+04
        72   2  1.153846E+04 -3.691748E+04 -4.213002E+03  4.901089E+05  3.160843E+03  4.703738E+04
        72   3  1.412911E+05  5.094681E+05  9.984185E+04  5.518524E+05  3.454215E+04  5.253822E+04
        72   4 -9.956625E+02 -8.112611E+04 -1.783693E+04  5.518875E+05 -2.853537E+04 -1.158809E+04
        72   5  1.377949E+03 -8.021262E+04 -1.171344E+04  4.897937E+05  3.028054E+03 -5.808618E+03
        72   6  1.208417E+03 -8.114158E+04 -1.014252E+04  5.518821E+05  3.441073E+04 -2.779638E+01
        72   7  1.187180E+05  4.228046E+05  7.694993E+04  5.512277E+05 -2.866993E+04 -6.476072E+04
        72   8 -8.781163E+03 -1.234999E+05 -1.920345E+04  4.894786E+05  2.895313E+03 -5.865104E+04
        72   9 -1.388928E+05 -6.714078E+05 -1.201313E+05  5.519115E+05  3.427923E+04 -5.254512E+04
        72  10 -1.207239E+05 -5.848076E+05 -1.126290E+05  5.525474E+05  7.376930E-10  1.318095E-09
        72  11  1.153786E+04 -3.691986E+04 -4.217178E+03  4.901088E+05  8.322060E-10  6.277847E-10
        72  12  1.412891E+05  5.094649E+05  9.983443E+04  5.518509E+05  1.113757E-09 -8.799956E-10
        72  13 -9.965724E+02 -8.112648E+04 -1.783871E+04  5.518872E+05 -9.141510E-10  1.828565E-10
        72  14  1.377930E+03 -8.021266E+04 -1.171352E+04  4.897938E+05 -7.994740E-10  1.099282E-10
        72  15  1.207146E+03 -8.114190E+04 -1.014474E+04  5.518821E+05 -1.016806E-09 -9.922003E-11
        72  16  1.187160E+05  4.227999E+05  7.694052E+04  5.512263E+05  3.338312E-10 -1.326871E-09
        72  17 -8.782096E+03 -1.235036E+05 -1.920993E+04  4.894787E+05 -3.158867E-10 -5.114017E-10
        72  18 -1.388948E+05 -6.714111E+05 -1.201388E+05  5.519129E+05  6.155581E-10  3.702389E-10
        72  19 -1.207226E+05 -5.848055E+05 -1.126243E+05  5.525465E+05  2.840061E+04 -4.154248E+04
        72  20  1.153846E+04 -3.691748E+04 -4.213002E+03  4.901089E+05 -3.160843E+03 -4.703738E+04
        72  21  1.412911E+05  5.094681E+05  9.984185E+04  5.518524E+05 -3.454215E+04 -5.253822E+04
        72  22 -9.956625E+02 -8.112611E+04 -1.783693E+04  5.518875E+05  2.853537E+04  1.158809E+04
        72  23  1.377949E+03 -8.021262E+04 -1.171344E+04  4.897937E+05 -3.028054E+03  5.808618E+03
        72  24  1.208417E+03 -8.114158E+04 -1.014252E+04  5.518821E+05 -3.441073E+04  2.779638E+01
        72  25  1.187180E+05  4.228046E+05  7.694993E+04  5.512277E+05  2.866993E+04  6.476072E+04
        72  26 -8.781163E+03 -1.234999E+05 -1.920345E+04  4.894786E+05 -2.895313E+03  5.865104E+04
        72  27 -1.388928E+05 -6.714078E+05 -1.201313E+05  5.519115E+05 -3.427923E+04  5.254512E+04
        73   1  2.266410E+05  8.685885E+05  1.660661E+05  5.539038E+05  5.585459E+04  5.951525E+04
        73   2  3.545361E+05  1.411139E+06  2.874384E+05  4.859410E+05  6.448048E+04 -1.932548E+04
        73   3  4.840420E+05  1.964518E+06  4.604204E+05  5.390772E+05  2.182352E+04 -9.818776E+04
        73   4  1.330079E+03 -8.181766E+04 -1.049971E+04  5.511985E+05  5.571845E+04  1.534487E+03
        73   5 -3.772418E+03 -7.987829E+04 -1.444226E+04  4.906589E+05  6.455344E+04  9.001730E+03
        73   6 -2.221953E+04 -8.234756E+04 -2.665029E+04  5.512422E+05  2.204719E+04  1.651690E+04
        73   7 -2.240309E+05 -1.031342E+06 -1.870912E+05  5.484966E+05  5.558267E+04 -5.635989E+04
        73   8 -3.622184E+05 -1.568780E+06 -3.164352E+05  4.953635E+05  6.462695E+04  3.726230E+04
        73   9 -5.287753E+05 -2.125347E+06 -5.139649E+05  5.633636E+05  2.227584E+04  1.308460E+05
        73  10  2.266367E+05  8.685839E+05  1.660536E+05  5.539011E+05  1.360820E-09 -1.064511E-09
        73  11  3.545315E+05  1.411137E+06  2.874298E+05  4.859420E+05  8.549684E-11 -2.415068E-10
        73  12  4.840389E+05  1.964507E+06  4.604015E+05  5.390789E+05  4.358010E-10  2.962087E-10
        73  13  1.326745E+03 -8.181849E+04 -1.050555E+04  5.511984E+05  1.178427E-09  1.869105E-10
        73  14 -3.776913E+03 -7.987950E+04 -1.445024E+04  4.906585E+05  8.419689E-10  8.418074E-11
        73  15 -2.222012E+04 -8.234798E+04 -2.665171E+04  5.512419E+05  5.256398E-10 -7.013511E-11
        73  16 -2.240350E+05 -1.031347E+06 -1.871030E+05  5.484991E+05 -1.328669E-09  1.115450E-09
        73  17 -3.622232E+05 -1.568782E+06 -3.164456E+05  4.953615E+05 -7.563256E-10  2.335496E-10
        73  18 -5.287804E+05 -2.125366E+06 -5.139981E+05  5.633612E+05 -6.099639E-10 -5.171839E-10
        73  19  2.266410E+05  8.685885E+05  1.660661E+05  5.539038E+05 -5.585459E+04 -5.951525E+04
        73  20  3.545361E+05  1.411139E+06  2.874384E+05  4.859410E+05 -6.448048E+04  1.932548E+04
        73  21  4.840420E+05  1.964518E+06  4.604204E+05  5.390772E+05 -2.182352E+04  9.818776E+04
        73  22  1.330079E+03 -8.181766E+04 -1.049971E+04  5.511985E+05 -5.571845E+04 -1.534487E+03
        73  23 -3.772418E+03 -7.987829E+04 -1.444226E+04  4.906589E+05 -6.455344E+04 -9.001730E+03
        73  24 -2.221953E+04 -8.234756E+04 -2.665029E+04  5.512422E+05 -2.204719E+04 -1.651690E+04
        73  25 -2.240309E+05 -1.031342E+06 -1.870912E+05  5.484966E+05 -5.558267E+04  5.635989E+04
        73  26 -3.622184E+05 -1.568780E+06 -3.164352E+05  4.953635E+05 -6.462695E+04 -3.726230E+04
        73  27 -5.287753E+05 -2.125347E+06 -5.139649E+05  5.633636E+05 -2.227584E+04 -1.308460E+05
        74   1  2.343508E+06  4.644013E+05  4.583882E+05  3.478196E+05  1.644937E+05 -1.842578E+04
        74   2  2.037817E+06  3.135460E+05  2.920492E+05  2.861841E+05  7.651079E+04 -5.735774E+04
        74   3  1.759504E+06  2.253245E+05  1.985273E+05  2.883738E+05 -1.139595E+04 -5.868401E+04
        74   4  8.149999E+05  8.704734E+04  9.708694E+04  2.933714E+05  6.712768E+04 -1.842298E+04
        74   5  8.069497E+05  1.889146E+04  4.758320E+04  2.614595E+05  4.256798E+04 -5.736955E+04
        74   6  8.152650E+05  2.456057E+03  2.700613E+04  2.933642E+05  1.803787E+04 -5.868473E+04
        74   7 -7.113410E+05 -2.904576E+05 -2.643389E+05  2.390571E+05 -3.000079E+04 -1.840321E+04
        74   8 -4.224699E+05 -2.758525E+05 -1.969534E+05  2.367846E+05  8.690839E+03 -5.737869E+04
        74   9 -1.281073E+05 -2.204619E+05 -1.445474E+05  2.983466E+05  4.742822E+04 -5.868498E+04
        74  10  2.343479E+06  4.643937E+05  4.583369E+05  3.478220E+05 -4.707322E-10 -5.767578E-11
        74  11  2.037810E+06  3.135409E+05  2.920320E+05  2.861876E+05 -9.085114E-10  1.297421E-11
        74  12  1.759503E+06  2.253208E+05  1.985206E+05  2.883732E+05  1.021672E-09 -1.876800E-10
        74  13  8.149950E+05  8.704577E+04  9.707784E+04  2.933724E+05 -8.852213E-11  5.982975E-11
        74  14  8.069469E+05  1.888744E+04  4.757361E+04  2.614615E+05  1.085715E-09 -1.037321E-10
        74  15  8.152637E+05  2.452269E+03  2.699904E+04  2.933650E+05 -2.169629E-12 -1.260190E-11
        74  16 -7.113420E+05 -2.904582E+05 -2.643413E+05  2.390567E+05  8.171747E-11 -3.016574E-10
        74  17 -4.224708E+05 -2.758561E+05 -1.969598E+05  2.367850E+05  1.124661E-09 -9.352712E-11
        74  18 -1.281106E+05 -2.204663E+05 -1.445581E+05  2.983488E+05 -9.403199E-10  1.081596E-10
        74  19  2.343508E+06  4.644013E+05  4.583882E+05  3.478196E+05 -1.644937E+05  1.842578E+04
        74  20  2.037817E+06  3.135460E+05  2.920492E+05  2.861841E+05 -7.651079E+04  5.735774E+04
        74  21  1.759504E+06  2.253245E+05  1.985273E+05  2.883738E+05  1.139595E+04  5.868401E+04
        74  22  8.149999E+05  8.704734E+04  9.708694E+04  2.933714E+05 -6.712768E+04  1.842298E+04
        74  23  8.069497E+05  1.889146E+04  4.758320E+04  2.614595E+05 -4.256798E+04  5.736955E+04
        74  24  8.152650E+05  2.456057E+03  2.700613E+04  2.933642E+05 -1.803787E+04  5.868473E+04
        74  25 -7.113410E+05 -2.904576E+05 -2.643389E+05  2.390571E+05  3.000079E+04  1.840321E+04
        74  26 -4.224699E+05 -2.758525E+05 -1.969534E+05  2.367846E+05 -8.690839E+03  5.737869E+04
        74  27 -1.281073E+05 -2.204619E+05 -1.445474E+05  2.983466E+05 -4.742822E+04  5.868498E+04
        75   1  1.564330E+06  1.812125E+05  1.567606E+05  2.956738E+05 -1.074740E+04 -4.777884E+04
        75   2  1.271738E+06  1.086952E+05  9.425018E+04  2.615272E+05 -2.264559E+04 -3.128571E+04
        75   3  9.817616E+05  3.992870E+04  4.041674E+04  2.935167E+05 -3.454409E+04 -1.171537E+04
        75   4  8.120522E+05  3.851878E+03  2.120632E+04  2.938846E+05  1.441857E+04 -4.777550E+04
        75   5  8.112771E+05  5.593995E+02  1.348227E+04  2.608158E+05  7.700794E+03 -3.127596E+04
        75   6  8.121435E+05  1.270319E+02  1.084892E+04  2.938860E+05  9.774832E+02 -1.169795E+04
        75   7  6.032605E+04 -1.735400E+05 -1.143676E+05  2.920975E+05  3.955494E+04 -4.777231E+04
        75   8  3.510250E+05 -1.075874E+05 -6.728984E+04  2.601050E+05  3.802538E+04 -3.126627E+04
        75   9  6.425562E+05 -3.967552E+04 -1.871519E+04  2.942553E+05  3.648966E+04 -1.168048E+04
        75  10  1.564329E+06  1.812100E+05  1.567561E+05  2.956734E+05 -1.929563E-10 -8.657707E-11
        75  11  1.271738E+06  1.086940E+05  9.424738E+04  2.615266E+05 -8.288014E-10  3.098208E-10
        75  12  9.817603E+05  3.992824E+04  4.041424E+04  2.935163E+05 -3.242027E-10 -7.110327E-11
        75  13  8.120514E+05  3.849370E+03  2.120164E+04  2.938852E+05 -1.965089E-10  1.642826E-10
        75  14  8.112768E+05  5.583327E+02  1.348032E+04  2.608160E+05  2.838457E-10  6.638838E-10
        75  15  8.121435E+05  1.268846E+02  1.084866E+04  2.938860E+05  4.697834E-10  1.625645E-10
        75  16  6.032375E+04 -1.735428E+05 -1.143749E+05  2.920990E+05  7.713116E-10  4.737219E-10
        75  17  3.510232E+05 -1.075889E+05 -6.729440E+04  2.601060E+05 -6.861677E-10  6.804312E-10
        75  18  6.425547E+05 -3.967602E+04 -1.871795E+04  2.942556E+05 -4.338792E-10  3.684921E-10
        75  19  1.564330E+06  1.812125E+05  1.567606E+05  2.956738E+05  1.074740E+04  4.777884E+04
        75  20  1.271738E+06  1.086952E+05  9.425018E+04  2.615272E+05  2.264559E+04  3.128571E+04
        75  21  9.817616E+05  3.992870E+04  4.041674E+04  2.935167E+05  3.454409E+04  1.171537E+04
        75  22  8.120522E+05  3.851878E+03  2.120632E+04  2.938846E+05 -1.441857E+04  4.777550E+04
        75  23  8.112771E+05  5.593995E+02  1.348227E+04  2.608158E+05 -7.700794E+03  3.127596E+04
        75  24  8.121435E+05  1.270319E+02  1.084892E+04  2.938860E+05 -9.774832E+02  1.169795E+04
        75  25  6.032605E+04 -1.735400E+05 -1.143676E+05  2.920975E+05 -3.955494E+04  4.777231E+04
        75  26  3.510250E+05 -1.075874E+05 -6.728984E+04  2.601050E+05 -3.802538E+04  3.126627E+04
        75  27  6.425562E+05 -3.967552E+04 -1.871519E+04  2.942553E+05 -3.648966E+04  1.168048E+04
        76   1  7.916353E+05 -4.804840E+03  6.632525E+03  2.942877E+05 -3.640625E+04  8.151275E+02
        76   2  5.000715E+05 -7.265728E+04 -4.181363E+04  2.601145E+05 -3.848820E+04  2.054503E+04
        76   3  2.094100E+05 -1.384658E+05 -8.839161E+04  2.920945E+05 -4.056568E+04  3.753054E+04
        76   4  8.121438E+05  1.348918E+02  1.084109E+04  2.938886E+05 -9.261773E+02  8.331411E+02
        76   5  8.113034E+05  5.964664E+02  1.344542E+04  2.608127E+05 -7.631530E+03  2.055716E+04
        76   6  8.120812E+05  3.906132E+03  2.112171E+04  2.938871E+05 -1.433334E+04  3.753761E+04
        76   7  8.326554E+05  5.075272E+03  1.505436E+04  2.934895E+05  3.455505E+04  8.511086E+02
        76   8  1.122632E+06  7.384539E+04  6.870443E+04  2.615112E+05  2.324015E+04  2.056936E+04
        76   9  1.415107E+06  1.462580E+05  1.306231E+05  2.956815E+05  1.192376E+04  3.754482E+04
        76  10  7.916339E+05 -4.805196E+03  6.630036E+03  2.942877E+05  5.508003E-10 -1.328776E-10
        76  11  5.000698E+05 -7.265813E+04 -4.181720E+04  2.601151E+05 -4.109249E-11 -1.779810E-10
        76  12  2.094079E+05 -1.384678E+05 -8.839735E+04  2.920957E+05 -1.483676E-10 -8.595334E-12
        76  13  8.121438E+05  1.348908E+02  1.084109E+04  2.938886E+05  1.102564E-09 -1.447800E-10
        76  14  8.113032E+05  5.959967E+02  1.344452E+04  2.608128E+05  5.012787E-11 -5.489552E-10
        76  15  8.120806E+05  3.904562E+03  2.111868E+04  2.938876E+05  1.667515E-10 -4.311895E-10
        76  16  8.326541E+05  5.074952E+03  1.505212E+04  2.934895E+05  3.006923E-10 -1.277901E-10
        76  17  1.122631E+06  7.384479E+04  6.870262E+04  2.615108E+05  8.490468E-10 -5.668185E-10
        76  18  1.415106E+06  1.462565E+05  1.306202E+05  2.956811E+05  6.653320E-10 -5.042272E-10
        76  19  7.916353E+05 -4.804840E+03  6.632525E+03  2.942877E+05  3.640625E+04 -8.151275E+02
        76  20  5.000715E+05 -7.265728E+04 -4.181363E+04  2.601145E+05  3.848820E+04 -2.054503E+04
        76  21  2.094100E+05 -1.384658E+05 -8.839161E+04  2.920945E+05  4.056568E+04 -3.753054E+04
        76  22  8.121438E+05  1.348918E+02  1.084109E+04  2.938886E+05  9.261773E+02 -8.331411E+02
        76  23  8.113034E+05  5.964664E+02  1.344542E+04  2.608127E+05  7.631530E+03 -2.055716E+04
        76  24  8.120812E+05  3.906132E+03  2.112171E+04  2.938871E+05  1.433334E+04 -3.753761E+04
        76  25  8.326554E+05  5.075272E+03  1.505436E+04  2.934895E+05 -3.455505E+04 -8.511086E+02
        76  26  1.122632E+06  7.384539E+04  6.870443E+04  2.615112E+05 -2.324015E+04 -2.056936E+04
        76  27  1.415107E+06  1.462580E+05  1.306231E+05  2.956815E+05 -1.192376E+04 -3.754482E+04
        77   1  2.114941E+04 -1.852714E+05 -1.183573E+05  2.983313E+05 -4.802581E+04  4.861739E+04
        77   2 -2.735581E+05 -2.403527E+05 -1.686041E+05  2.367386E+05 -1.501806E+04  4.946239E+04
        77   3 -5.618868E+05 -2.539106E+05 -2.299209E+05  2.392133E+05  1.795346E+04  1.611920E+04
        77   4  8.152803E+05  2.531979E+03  2.688871E+04  2.934171E+05 -1.793803E+04  4.862203E+04
        77   5  8.070458E+05  1.890736E+04  4.736966E+04  2.613926E+05 -4.236466E+04  4.945229E+04
        77   6  8.150432E+05  8.673035E+04  9.663124E+04  2.934168E+05 -6.681231E+04  1.612472E+04
        77   7  1.610025E+06  1.903003E+05  1.721126E+05  2.884961E+05  1.218721E+04  4.862618E+04
        77   8  1.888767E+06  2.780985E+05  2.632877E+05  2.860901E+05 -6.975788E+04  4.944004E+04
        77   9  2.193736E+06  4.272500E+05  4.230801E+05  3.477409E+05 -1.517651E+05  1.611547E+04
        77  10  2.114629E+04 -1.852746E+05 -1.183661E+05  2.983332E+05  5.873135E-11 -1.863470E-10
        77  11 -2.735590E+05 -2.403554E+05 -1.686091E+05  2.367392E+05  1.513853E-09 -3.560968E-10
        77  12 -5.618872E+05 -2.539110E+05 -2.299220E+05  2.392131E+05  4.731300E-10 -2.349654E-10
        77  13  8.152794E+05  2.529353E+03  2.688366E+04  2.934178E+05  6.820097E-10 -1.105025E-10
        77  14  8.070432E+05  1.890425E+04  4.736169E+04  2.613943E+05  6.646252E-10  1.096432E-11
        77  15  8.150384E+05  8.672887E+04  9.662237E+04  2.934177E+05 -8.289445E-10 -6.535781E-11
        77  16  1.610025E+06  1.902977E+05  1.721079E+05  2.884956E+05 -5.148832E-10 -1.931215E-10
        77  17  1.888761E+06  2.780946E+05  2.632740E+05  2.860929E+05 -1.069962E-09  3.183163E-10
        77  18  2.193711E+06  4.272436E+05  4.230364E+05  3.477428E+05  8.216429E-10  9.344881E-11
        77  19  2.114941E+04 -1.852714E+05 -1.183573E+05  2.983313E+05  4.802581E+04 -4.861739E+04
        77  20 -2.735581E+05 -2.403527E+05 -1.686041E+05  2.367386E+05  1.501806E+04 -4.946239E+04
        77  21 -5.618868E+05 -2.539106E+05 -2.299209E+05  2.392133E+05 -1.795346E+04 -1.611920E+04
        77  22  8.152803E+05  2.531979E+03  2.688871E+04  2.934171E+05  1.793803E+04 -4.862203E+04
        77  23  8.070458E+05  1.890736E+04  4.736966E+04  2.613926E+05  4.236466E+04 -4.945229E+04
        77  24  8.150432E+05  8.673035E+04  9.663124E+04  2.934168E+05  6.681231E+04 -1.612472E+04
        77  25  1.610025E+06  1.903003E+05  1.721126E+05  2.884961E+05 -1.218721E+04 -4.862618E+04
        77  26  1.888767E+06  2.780985E+05  2.632877E+05  2.860901E+05  6.975788E+04 -4.944004E+04
        77  27  2.193736E+06  4.272500E+05  4.230801E+05  3.477409E+05  1.517651E+05 -1.611547E+04
        78   1 -5.423494E+05 -1.947180E+06 -5.356769E+05  5.578733E+05 -2.015005E+04 -1.670196E+05
        78   2 -3.408006E+05 -1.428935E+06 -3.188642E+05  4.739302E+05 -5.810729E+04 -6.502048E+04
        78   3 -2.019180E+05 -9.395188E+05 -1.842898E+05  5.015753E+05 -4.938536E+04  3.703136E+04
        78   4 -8.279994E+04 -9.314322E+04 -9.335967E+04  5.077194E+05 -1.995869E+04 -6.406206E+04
        78   5 -1.734817E+04 -8.521663E+04 -4.605806E+04  4.518532E+05 -5.804815E+04 -4.022131E+04
        78   6 -8.763391E+02 -9.269992E+04 -2.655223E+04  5.075845E+05 -4.949542E+04 -1.641600E+04
        78   7  3.765165E+05  1.764082E+06  3.487574E+05  4.574121E+05 -1.978440E+04  3.920252E+04
        78   8  3.059940E+05  1.260225E+06  2.266566E+05  4.297261E+05 -5.799088E+04 -1.536931E+04
        78   9  2.001256E+05  7.548201E+05  1.311655E+05  5.136014E+05 -4.960641E+04 -6.993447E+04
        78  10 -5.423573E+05 -1.947211E+06 -5.357302E+05  5.578706E+05 -9.272824E-10 -1.539969E-09
        78  11 -3.408053E+05 -1.428940E+06 -3.188785E+05  4.739272E+05 -6.520506E-10 -4.202850E-10
        78  12 -2.019210E+05 -9.395209E+05 -1.842969E+05  5.015768E+05  2.300123E-10  7.052604E-10
        78  13 -8.280147E+04 -9.314774E+04 -9.336813E+04  5.077184E+05 -9.882202E-13  2.297573E-10
        78  14 -1.735222E+04 -8.521927E+04 -4.606743E+04  4.518514E+05 -1.038254E-09 -6.571642E-10
        78  15 -8.790410E+02 -9.270086E+04 -2.655733E+04  5.075838E+05  5.452829E-10  7.086945E-10
        78  16  3.765157E+05  1.764080E+06  3.487538E+05  4.574128E+05  7.006402E-10  1.180579E-09
        78  17  3.059904E+05  1.260224E+06  2.266498E+05  4.297254E+05 -2.183344E-10  6.257320E-10
        78  18  2.001217E+05  7.548142E+05  1.311517E+05  5.135986E+05 -2.450184E-10 -5.598518E-10
        78  19 -5.423494E+05 -1.947180E+06 -5.356769E+05  5.578733E+05  2.015005E+04  1.670196E+05
        78  20 -3.408006E+05 -1.428935E+06 -3.188642E+05  4.739302E+05  5.810729E+04  6.502048E+04
        78  21 -2.019180E+05 -9.395188E+05 -1.842898E+05  5.015753E+05  4.938536E+04 -3.703136E+04
        78  22 -8.279994E+04 -9.314322E+04 -9.335967E+04  5.077194E+05  1.995869E+04  6.406206E+04
        78  23 -1.734817E+04 -8.521663E+04 -4.605806E+04  4.518532E+05  5.804815E+04  4.022131E+04
        78  24 -8.763391E+02 -9.269992E+04 -2.655223E+04  5.075845E+05  4.949542E+04  1.641600E+04
        78  25  3.765165E+05  1.764082E+06  3.487574E+05  4.574121E+05  1.978440E+04 -3.920252E+04
        78  26  3.059940E+05  1.260225E+06  2.266566E+05  4.297261E+05  5.799088E+04  1.536931E+04
        78  27  2.001256E+05  7.548201E+05  1.311655E+05  5.136014E+05  4.960641E+04  6.993447E+04
        79   1 -1.245055E+05 -6.056632E+05 -1.177070E+05  5.092670E+05 -2.973106E+04  3.567594E+04
        79   2 -2.080873E+03 -1.008795E+05 -1.680539E+04  4.512514E+05 -7.698477E+02  4.304931E+04
        79   3  1.169260E+05  4.019864E+05  7.832063E+04  5.075919E+05  2.824162E+04  5.042803E+04
        79   4 -1.981900E+03 -8.966674E+04 -2.126198E+04  5.082121E+05 -2.983811E+04 -1.288899E+04
        79   5  8.012070E+02 -8.859123E+04 -1.468175E+04  4.510314E+05 -8.769834E+02 -5.614009E+03
        79   6  1.964577E+02 -8.966249E+04 -1.380656E+04  5.082075E+05  2.813392E+04  1.660659E+03
        79   7  1.205276E+05  4.265926E+05  7.518049E+04  5.071562E+05 -2.994493E+04 -6.149329E+04
        79   8  3.684550E+03 -7.629771E+04 -1.254921E+04  4.508114E+05 -9.840831E+02 -5.427826E+04
        79   9 -1.165458E+05 -5.810726E+05 -1.059353E+05  5.088224E+05  2.802607E+04 -4.706908E+04
        79  10 -1.245068E+05 -6.056648E+05 -1.177111E+05  5.092679E+05 -1.475618E-10 -2.014137E-09
        79  11 -2.081371E+03 -1.008815E+05 -1.680887E+04  4.512515E+05 -8.682434E-10  1.227451E-10
        79  12  1.169244E+05  4.019835E+05  7.831436E+04  5.075908E+05 -6.651326E-10  1.996420E-09
        79  13 -1.982900E+03 -8.966715E+04 -2.126397E+04  5.082118E+05 -1.448539E-09  3.414231E-10
        79  14  8.011977E+02 -8.859126E+04 -1.468181E+04  4.510314E+05 -9.765941E-10 -8.614419E-10
        79  15  1.956071E+02 -8.966271E+04 -1.380805E+04  5.082075E+05 -2.133427E-11  7.458019E-10
        79  16  1.205256E+05  4.265883E+05  7.517171E+04  5.071547E+05 -1.777676E-11  1.460458E-09
        79  17  3.683758E+03 -7.630087E+04 -1.255475E+04  4.508114E+05 -5.217101E-10  7.424529E-11
        79  18 -1.165472E+05 -5.810752E+05 -1.059409E+05  5.088234E+05  4.779642E-10 -1.915591E-09
        79  19 -1.245055E+05 -6.056632E+05 -1.177070E+05  5.092670E+05  2.973106E+04 -3.567594E+04
        79  20 -2.080873E+03 -1.008795E+05 -1.680539E+04  4.512514E+05  7.698477E+02 -4.304931E+04
        79  21  1.169260E+05  4.019864E+05  7.832063E+04  5.075919E+05 -2.824162E+04 -5.042803E+04
        79  22 -1.981900E+03 -8.966674E+04 -2.126198E+04  5.082121E+05  2.983811E+04  1.288899E+04
        79  23  8.012070E+02 -8.859123E+04 -1.468175E+04  4.510314E+05  8.769834E+02  5.614009E+03
        79  24  1.964577E+02 -8.966249E+04 -1.380656E+04  5.082075E+05 -2.813392E+04 -1.660659E+03
        79  25  1.205276E+05  4.265926E+05  7.518049E+04  5.071562E+05  2.994493E+04  6.149329E+04
        79  26  3.684550E+03 -7.629771E+04 -1.254921E+04  4.508114E+05  9.840831E+02  5.427826E+04
        79  27 -1.165458E+05 -5.810726E+05 -1.059353E+05  5.088224E+05 -2.802607E+04  4.706908E+04
        80   1  1.957277E+05  7.321020E+05  1.384927E+05  5.106477E+05  4.792587E+04  5.745066E+04
        80   2  3.106696E+05  1.233229E+06  2.463861E+05  4.429316E+05  5.664008E+04 -8.800831E+03
        80   3  4.179418E+05  1.741217E+06  3.954013E+05  4.868184E+05  1.934433E+04 -7.506947E+04
        80   4  5.331412E+02 -9.078012E+04 -1.487357E+04  5.075953E+05  4.781431E+04  3.847680E+03
        80   5 -6.869473E+03 -8.759546E+04 -2.161847E+04  4.518114E+05  5.669450E+04  1.500544E+04
        80   6 -3.536962E+04 -9.121335E+04 -4.095774E+04  5.076541E+05  1.951727E+04  2.619919E+04
        80   7 -1.946988E+05 -9.130011E+05 -1.682580E+05  5.045466E+05  4.770318E+04 -4.968613E+04
        80   8 -3.245165E+05 -1.406760E+06 -2.897118E+05  4.606706E+05  5.674968E+04  3.876206E+04
        80   9 -4.889159E+05 -1.920545E+06 -4.775134E+05  5.284257E+05  1.969735E+04  1.271709E+05
        80  10  1.957243E+05  7.320978E+05  1.384822E+05  5.106455E+05  4.032001E-10 -1.374774E-09
        80  11  3.106662E+05  1.233228E+06  2.463799E+05  4.429320E+05  1.893979E-10 -4.614419E-10
        80  12  4.179399E+05  1.741211E+06  3.953900E+05  4.868196E+05 -1.210262E-10  1.126031E-10
        80  13  5.306826E+02 -9.078075E+04 -1.487789E+04  5.075952E+05  1.252428E-09  3.339432E-10
        80  14 -6.872984E+03 -8.759657E+04 -2.162493E+04  4.518107E+05 -1.746600E-10 -6.349710E-10
        80  15 -3.537021E+04 -9.121419E+04 -4.095975E+04  5.076537E+05 -1.094727E-09  4.945184E-10
        80  16 -1.947019E+05 -9.130044E+05 -1.682669E+05  5.045485E+05  4.099743E-10  7.617411E-10
        80  17 -3.245203E+05 -1.406762E+06 -2.897207E+05  4.606689E+05 -5.562116E-10  5.308759E-10
        80  18 -4.889207E+05 -1.920563E+06 -4.775446E+05  5.284237E+05 -6.095375E-10  7.519903E-11
        80  19  1.957277E+05  7.321020E+05  1.384927E+05  5.106477E+05 -4.792587E+04 -5.745066E+04
        80  20  3.106696E+05  1.233229E+06  2.463861E+05  4.429316E+05 -5.664008E+04  8.800831E+03
        80  21  4.179418E+05  1.741217E+06  3.954013E+05  4.868184E+05 -1.934433E+04  7.506947E+04
        80  22  5.331412E+02 -9.078012E+04 -1.487357E+04  5.075953E+05 -4.781431E+04 -3.847680E+03
        80  23 -6.869473E+03 -8.759546E+04 -2.161847E+04  4.518114E+05 -5.669450E+04 -1.500544E+04
        80  24 -3.536962E+04 -9.121335E+04 -4.095774E+04  5.076541E+05 -1.951727E+04 -2.619919E+04
        80  25 -1.946988E+05 -9.130011E+05 -1.682580E+05  5.045466E+05 -4.770318E+04  4.968613E+04
        80  26 -3.245165E+05 -1.406760E+06 -2.897118E+05  4.606706E+05 -5.674968E+04 -3.876206E+04
        80  27 -4.889159E+05 -1.920545E+06 -4.775134E+05  5.284257E+05 -1.969735E+04 -1.271709E+05
        81   1  1.997291E+06  3.830608E+05  3.782049E+05  2.892796E+05  1.357453E+05 -1.511023E+04
        81   2  1.743319E+06  2.576006E+05  2.403897E+05  2.379473E+05  6.307171E+04 -4.698118E+04
        81   3  1.512003E+06  1.842299E+05  1.628235E+05  2.396863E+05 -9.552075E+03 -4.789321E+04
        81   4  7.402708E+05  7.263763E+04  8.095787E+04  2.438471E+05  5.594081E+04 -1.510931E+04
        81   5  7.335609E+05  1.580537E+04  3.970433E+04  2.173119E+05  3.544804E+04 -4.698940E+04
        81   6  7.404541E+05  2.072154E+03  2.257124E+04  2.438426E+05  1.497456E+04 -4.789336E+04
        81   7 -5.152827E+05 -2.378874E+05 -2.163736E+05  1.985066E+05 -2.370347E+04 -1.509677E+04
        81   8 -2.752221E+05 -2.260501E+05 -1.610287E+05  1.967105E+05  7.868244E+03 -4.699582E+04
        81   9 -3.051598E+04 -1.801187E+05 -1.177025E+05  2.479934E+05  3.947159E+04 -4.789317E+04
        81  10  1.997271E+06  3.830556E+05  3.781699E+05  2.892813E+05  2.878346E-10 -3.277271E-11
        81  11  1.743314E+06  2.575972E+05  2.403781E+05  2.379497E+05 -6.378872E-10 -2.067031E-11
        81  12  1.512002E+06  1.842275E+05  1.628190E+05  2.396860E+05 -2.546104E-10  2.138878E-10
        81  13  7.402674E+05  7.263655E+04  8.095157E+04  2.438478E+05  1.064644E-09 -8.807105E-11
        81  14  7.335589E+05  1.580266E+04  3.969782E+04  2.173132E+05 -3.430431E-10 -3.464307E-10
        81  15  7.404533E+05  2.069630E+03  2.256651E+04  2.438432E+05 -6.968058E-10 -4.236724E-11
        81  16 -5.152834E+05 -2.378878E+05 -2.163751E+05  1.985063E+05 -6.001885E-10  3.755907E-11
        81  17 -2.752228E+05 -2.260525E+05 -1.610330E+05  1.967108E+05 -1.342215E-09 -3.742276E-10
        81  18 -3.051827E+04 -1.801216E+05 -1.177097E+05  2.479950E+05 -6.682873E-10 -2.756127E-10
        81  19  1.997291E+06  3.830608E+05  3.782049E+05  2.892796E+05 -1.357453E+05  1.511023E+04
        81  20  1.743319E+06  2.576006E+05  2.403897E+05  2.379473E+05 -6.307171E+04  4.698118E+04
        81  21  1.512003E+06  1.842299E+05  1.628235E+05  2.396863E+05  9.552075E+03  4.789321E+04
        81  22  7.402708E+05  7.263763E+04  8.095787E+04  2.438471E+05 -5.594081E+04  1.510931E+04
        81  23  7.335609E+05  1.580537E+04  3.970433E+04  2.173119E+05 -3.544804E+04  4.698940E+04
        81  24  7.404541E+05  2.072154E+03  2.257124E+04  2.438426E+05 -1.497456E+04  4.789336E+04
        81  25 -5.152827E+05 -2.378874E+05 -2.163736E+05  1.985066E+05  2.370347E+04  1.509677E+04
        81  26 -2.752221E+05 -2.260501E+05 -1.610287E+05  1.967105E+05 -7.868244E+03  4.699582E+04
        81  27 -3.051598E+04 -1.801187E+05 -1.177025E+05  2.479934E+05 -3.947159E+04  4.789317E+04
        82   1  1.349817E+06  1.475587E+05  1.281349E+05  2.457597E+05 -9.067029E+03 -3.881174E+04
        82   2  1.106639E+06  8.726133E+04  7.626357E+04  2.173759E+05 -1.899384E+04 -2.505751E+04
        82   3  8.656237E+05  3.008899E+04  3.163132E+04  2.439671E+05 -2.892059E+04 -8.774540E+03
        82   4  7.377757E+05  3.221964E+03  1.775825E+04  2.442701E+05  1.194688E+04 -3.880915E+04
        82   5  7.371210E+05  4.595770E+02  1.138214E+04  2.167823E+05  6.275688E+03 -2.505059E+04
        82   6  7.378369E+05  8.861692E+01  9.296753E+03  2.442711E+05  6.008818E+02 -8.762459E+03
        82   7  1.260995E+05 -1.411354E+05 -9.263134E+04  2.427820E+05  3.294068E+04 -3.880665E+04
        82   8  3.677382E+05 -8.634927E+04 -5.350185E+04  2.161889E+05  3.153064E+04 -2.504371E+04
        82   9  6.100679E+05 -2.991217E+04 -1.303513E+04  2.445750E+05  3.011647E+04 -8.750347E+03
        82  10  1.349816E+06  1.475571E+05  1.281319E+05  2.457594E+05 -2.318664E-10  5.794903E-10
        82  11  1.106638E+06  8.726055E+04  7.626172E+04  2.173756E+05  4.394529E-10  6.901195E-10
        82  12  8.656228E+05  3.008868E+04  3.162961E+04  2.439669E+05  3.911084E-10  3.557646E-10
        82  13  7.377752E+05  3.220308E+03  1.775515E+04  2.442705E+05 -1.242663E-10  1.895389E-10
        82  14  7.371208E+05  4.588923E+02  1.138088E+04  2.167824E+05 -6.667037E-10  5.849797E-10
        82  15  7.378368E+05  8.853434E+01  9.296608E+03  2.442711E+05  7.261345E-11  6.162940E-10
        82  16  1.260979E+05 -1.411373E+05 -9.263622E+04  2.427831E+05  2.995377E-10 -1.162553E-10
        82  17  3.677370E+05 -8.635021E+04 -5.350489E+04  2.161896E+05 -4.211063E-10  1.695532E-10
        82  18  6.100669E+05 -2.991250E+04 -1.303698E+04  2.445752E+05  7.507831E-10  5.820178E-10
        82  19  1.349817E+06  1.475587E+05  1.281349E+05  2.457597E+05  9.067029E+03  3.881174E+04
        82  20  1.106639E+06  8.726133E+04  7.626357E+04  2.173759E+05  1.899384E+04  2.505751E+04
        82  21  8.656237E+05  3.008899E+04  3.163132E+04  2.439671E+05  2.892059E+04  8.774540E+03
        82  22  7.377757E+05  3.221964E+03  1.775825E+04  2.442701E+05 -1.194688E+04  3.880915E+04
        82  23  7.371210E+05  4.595770E+02  1.138214E+04  2.167823E+05 -6.275688E+03  2.505059E+04
        82  24  7.378369E+05  8.861692E+01  9.296753E+03  2.442711E+05 -6.008818E+02  8.762459E+03
        82  25  1.260995E+05 -1.411354E+05 -9.263134E+04  2.427820E+05 -3.294068E+04  3.880665E+04
        82  26  3.677382E+05 -8.634927E+04 -5.350185E+04  2.161889E+05 -3.153064E+04  2.504371E+04
        82  27  6.100679E+05 -2.991217E+04 -1.303513E+04  2.445750E+05 -3.011647E+04  8.750347E+03
        83   1  7.076047E+05 -7.105410E+03  3.628824E+03  2.446422E+05 -3.053051E+04  1.642074E+03
        83   2  4.652212E+05 -6.346704E+04 -3.639178E+04  2.161791E+05 -3.252390E+04  1.802973E+04
        83   3  2.236468E+05 -1.179817E+05 -7.465061E+04  2.427045E+05 -3.451394E+04  3.210649E+04
        83   4  7.378510E+05  8.766702E+01  9.372613E+03  2.442733E+05 -1.036241E+03  1.654485E+03
        83   5  7.371177E+05  5.153178E+02  1.180210E+04  2.167795E+05 -6.921501E+03  1.803793E+04
        83   6  7.378053E+05  3.465541E+03  1.868980E+04  2.442722E+05 -1.280409E+04  3.211108E+04
        83   7  7.681001E+05  7.281158E+03  1.511963E+04  2.439044E+05  2.845943E+04  1.666861E+03
        83   8  1.009088E+06  6.449396E+04  5.999569E+04  2.173802E+05  1.869178E+04  1.804618E+04
        83   9  1.252222E+06  1.248982E+05  1.120215E+05  2.458413E+05  8.923240E+03  3.211578E+04
        83  10  7.076037E+05 -7.105663E+03  3.627069E+03  2.446423E+05 -3.699004E-10  5.854535E-11
        83  11  4.652200E+05 -6.346767E+04 -3.639437E+04  2.161795E+05 -3.457638E-11  9.535311E-11
        83  12  2.236452E+05 -1.179831E+05 -7.465479E+04  2.427054E+05  1.476053E-09 -7.209405E-10
        83  13  7.378510E+05  8.766379E+01  9.372606E+03  2.442733E+05  1.077356E-09  3.095403E-10
        83  14  7.371176E+05  5.149554E+02  1.180140E+04  2.167796E+05 -8.041345E-10 -1.823716E-10
        83  15  7.378048E+05  3.464390E+03  1.868755E+04  2.442726E+05 -5.039167E-10 -5.984563E-10
        83  16  7.680992E+05  7.280938E+03  1.511810E+04  2.439043E+05  4.226340E-10  5.338650E-10
        83  17  1.009087E+06  6.449352E+04  5.999442E+04  2.173799E+05  3.451525E-10  1.013722E-10
        83  18  1.252221E+06  1.248971E+05  1.120194E+05  2.458410E+05 -1.770530E-09 -4.625756E-10
        83  19  7.076047E+05 -7.105410E+03  3.628824E+03  2.446422E+05  3.053051E+04 -1.642074E+03
        83  20  4.652212E+05 -6.346704E+04 -3.639178E+04  2.161791E+05  3.252390E+04 -1.802973E+04
        83  21  2.236468E+05 -1.179817E+05 -7.465061E+04  2.427045E+05  3.451394E+04 -3.210649E+04
        83  22  7.378510E+05  8.766702E+01  9.372613E+03  2.442733E+05  1.036241E+03 -1.654485E+03
        83  23  7.371177E+05  5.153178E+02  1.180210E+04  2.167795E+05  6.921501E+03 -1.803793E+04
        83  24  7.378053E+05  3.465541E+03  1.868980E+04  2.442722E+05  1.280409E+04 -3.211108E+04
        83  25  7.681001E+05  7.281158E+03  1.511963E+04  2.439044E+05 -2.845943E+04 -1.666861E+03
        83  26  1.009088E+06  6.449396E+04  5.999569E+04  2.173802E+05 -1.869178E+04 -1.804618E+04
        83  27  1.252222E+06  1.248982E+05  1.120215E+05  2.458413E+05 -8.923240E+03 -3.211578E+04
        84   1  6.731564E+04 -1.569649E+05 -9.922869E+04  2.482663E+05 -4.094358E+04  4.130699E+04
        84   2 -1.780511E+05 -2.017989E+05 -1.399681E+05  1.953653E+05 -1.438886E+04  4.181686E+04
        84   3 -4.173322E+05 -2.092705E+05 -1.886280E+05  1.956811E+05  1.214146E+04  1.360237E+04
        84   4  7.406525E+05  2.256369E+03  2.383691E+04  2.438738E+05 -1.599281E+04  4.130985E+04
        84   5  7.333746E+05  1.684542E+04  4.208208E+04  2.172720E+05 -3.769777E+04  4.180982E+04
        84   6  7.404827E+05  7.714065E+04  8.589466E+04  2.438742E+05 -5.941838E+04  1.360695E+04
        84   7  1.414431E+06  1.614524E+05  1.468865E+05  2.394762E+05  8.984286E+03  4.131236E+04
        84   8  1.645595E+06  2.354409E+05  2.240928E+05  2.392114E+05 -6.104020E+04  4.180114E+04
        84   9  1.899545E+06  3.634670E+05  3.603446E+05  2.921575E+05 -1.311110E+05  1.360043E+04
        84  10  6.731339E+04 -1.569671E+05 -9.923505E+04  2.482677E+05  5.580437E-10 -6.987710E-10
        84  11 -1.780518E+05 -2.018008E+05 -1.399718E+05  1.953658E+05  9.435388E-11  4.273790E-11
        84  12 -4.173324E+05 -2.092707E+05 -1.886287E+05  1.956810E+05  1.281384E-09  1.916379E-10
        84  13  7.406518E+05  2.254467E+03  2.383322E+04  2.438743E+05  8.075909E-10 -5.484055E-10
        84  14  7.333726E+05  1.684316E+04  4.207613E+04  2.172733E+05 -9.472527E-10 -2.507044E-10
        84  15  7.404789E+05  7.713950E+04  8.588769E+04  2.438749E+05  1.102186E-10  7.685508E-11
        84  16  1.414430E+06  1.614505E+05  1.468831E+05  2.394759E+05 -2.985683E-10 -4.866714E-10
        84  17  1.645591E+06  2.354380E+05  2.240825E+05  2.392134E+05 -5.389851E-10 -1.945345E-10
        84  18  1.899526E+06  3.634622E+05  3.603121E+05  2.921589E+05 -4.882436E-10  5.162666E-11
        84  19  6.731564E+04 -1.569649E+05 -9.922869E+04  2.482663E+05  4.094358E+04 -4.130699E+04
        84  20 -1.780511E+05 -2.017989E+05 -1.399681E+05  1.953653E+05  1.438886E+04 -4.181686E+04
        84  21 -4.173322E+05 -2.092705E+05 -1.886280E+05  1.956811E+05 -1.214146E+04 -1.360237E+04
        84  22  7.406525E+05  2.256369E+03  2.383691E+04  2.438738E+05  1.599281E+04 -4.130985E+04
        84  23  7.333746E+05  1.684542E+04  4.208208E+04  2.172720E+05  3.769777E+04 -4.180982E+04
        84  24  7.404827E+05  7.714065E+04  8.589466E+04  2.438742E+05  5.941838E+04 -1.360695E+04
        84  25  1.414431E+06  1.614524E+05  1.468865E+05  2.394762E+05 -8.984286E+03 -4.131236E+04
        84  26  1.645595E+06  2.354409E+05  2.240928E+05  2.392114E+05  6.104020E+04 -4.180114E+04
        84  27  1.899545E+06  3.634670E+05  3.603446E+05  2.921575E+05  1.311110E+05 -1.360043E+04
        85   1 -4.880018E+05 -1.716290E+06 -4.819253E+05  4.898903E+05 -1.819518E+04 -1.523107E+05
        85   2 -3.084176E+05 -1.263320E+06 -2.886786E+05  4.151525E+05 -5.290196E+04 -6.039394E+04
        85   3 -1.863513E+05 -8.365904E+05 -1.697796E+05  4.377522E+05 -4.589563E+04  3.156671E+04
        85   4 -7.663161E+04 -5.628351E+04 -8.616593E+04  4.432288E+05 -1.804689E+04 -5.899350E+04
        85   5 -1.622625E+04 -4.899834E+04 -4.261960E+04  3.945029E+05 -5.285389E+04 -3.694489E+04
        85   6 -1.114412E+03 -5.593481E+04 -2.476957E+04  4.431224E+05 -4.597739E+04 -1.492207E+04
        85   7  3.345526E+05  1.606280E+06  3.094340E+05  3.964400E+05 -1.791293E+04  3.457275E+04
        85   8  2.758754E+05  1.166731E+06  2.033652E+05  3.738111E+05 -5.280744E+04 -1.345072E+04
        85   9  1.840887E+05  7.253164E+05  1.202229E+05  4.484990E+05 -4.605987E+04 -6.146785E+04
        85  10 -4.880084E+05 -1.716316E+06 -4.819696E+05  4.898880E+05  1.183711E-10 -1.407506E-09
        85  11 -3.084215E+05 -1.263324E+06 -2.886908E+05  4.151499E+05  7.644288E-10  8.455902E-10
        85  12 -1.863538E+05 -8.365921E+05 -1.697855E+05  4.377534E+05 -3.870174E-10  2.289829E-09
        85  13 -7.663289E+04 -5.628734E+04 -8.617308E+04  4.432280E+05  4.779123E-10  1.541442E-11
        85  14 -1.622961E+04 -4.900055E+04 -4.262741E+04  3.945013E+05 -6.289439E-10 -2.886412E-10
        85  15 -1.116741E+03 -5.593561E+04 -2.477396E+04  4.431218E+05 -2.102457E-10 -1.495745E-10
        85  16  3.345519E+05  1.606278E+06  3.094312E+05  3.964405E+05  3.319819E-10  1.481197E-09
        85  17  2.758723E+05  1.166730E+06  2.033596E+05  3.738105E+05 -4.226127E-10 -9.373595E-10
        85  18  1.840854E+05  7.253117E+05  1.202118E+05  4.484968E+05  1.551938E-09 -2.004858E-09
        85  19 -4.880018E+05 -1.716290E+06 -4.819253E+05  4.898903E+05  1.819518E+04  1.523107E+05
        85  20 -3.084176E+05 -1.263320E+06 -2.886786E+05  4.151525E+05  5.290196E+04  6.039394E+04
        85  21 -1.863513E+05 -8.365904E+05 -1.697796E+05  4.377522E+05  4.589563E+04 -3.156671E+04
        85  22 -7.663161E+04 -5.628351E+04 -8.616593E+04  4.432288E+05  1.804689E+04  5.899350E+04
        85  23 -1.622625E+04 -4.899834E+04 -4.261960E+04  3.945029E+05  5.285389E+04  3.694489E+04
        85  24 -1.114412E+03 -5.593481E+04 -2.476957E+04  4.431224E+05  4.597739E+04  1.492207E+04
        85  25  3.345526E+05  1.606280E+06  3.094340E+05  3.964400E+05  1.791293E+04 -3.457275E+04
        85  26  2.758754E+05  1.166731E+06  2.033652E+05  3.738111E+05  5.280744E+04  1.345072E+04
        85  27  1.840887E+05  7.253164E+05  1.202229E+05  4.484990E+05  4.605987E+04  6.146785E+04
        86   1 -1.188241E+05 -5.449685E+05 -1.114302E+05  4.447717E+05 -2.878485E+04  3.050360E+04
        86   2 -1.179215E+04 -1.042293E+05 -2.320813E+04  3.939008E+05 -3.590311E+03  3.791949E+04
        86   3  9.181833E+04  3.346143E+05  5.923967E+04  4.428521E+05  2.181970E+04  4.533911E+04
        86   4 -2.142246E+03 -5.315297E+04 -1.998136E+04  4.436841E+05 -2.886459E+04 -1.160264E+04
        86   5  4.303582E+02 -5.213615E+04 -1.419195E+04  3.937712E+05 -3.671299E+03 -4.558664E+03
        86   6 -3.439814E+02 -5.313780E+04 -1.391648E+04  4.436808E+05  2.173709E+04  2.484077E+03
        86   7  1.145266E+05  4.389008E+05  7.146391E+04  4.425955E+05 -2.894413E+04 -5.374141E+04
        86   8  1.265369E+04 -3.648799E+01 -5.169076E+03  3.936415E+05 -3.752266E+03 -4.704027E+04
        86   9 -9.251406E+04 -4.407409E+05 -8.707235E+04  4.445088E+05  2.165434E+04 -4.034486E+04
        86  10 -1.188252E+05 -5.449697E+05 -1.114335E+05  4.447724E+05 -3.178614E-11 -8.048471E-10
        86  11 -1.179255E+04 -1.042308E+05 -2.321086E+04  3.939009E+05  5.988414E-10  5.678829E-10
        86  12  9.181727E+04  3.346120E+05  5.923491E+04  4.428513E+05  9.816219E-10  7.339189E-10
        86  13 -2.143177E+03 -5.315334E+04 -1.998318E+04  4.436838E+05  5.607695E-10 -7.506431E-11
        86  14  4.303382E+02 -5.213617E+04 -1.419201E+04  3.937711E+05  5.233935E-10 -3.412425E-10
        86  15 -3.444904E+02 -5.313794E+04 -1.391738E+04  4.436807E+05  4.260149E-10 -7.207242E-11
        86  16  1.145249E+05  4.388974E+05  7.145692E+04  4.425942E+05  5.556549E-10  1.103197E-09
        86  17  1.265308E+04 -3.886776E+01 -5.173260E+03  3.936414E+05 -3.935786E-10 -5.988014E-10
        86  18 -9.251500E+04 -4.407427E+05 -8.707629E+04  4.445095E+05  1.026586E-09 -4.059631E-10
        86  19 -1.188241E+05 -5.449685E+05 -1.114302E+05  4.447717E+05  2.878485E+04 -3.050360E+04
        86  20 -1.179215E+04 -1.042293E+05 -2.320813E+04  3.939008E+05  3.590311E+03 -3.791949E+04
        86  21  9.181833E+04  3.346143E+05  5.923967E+04  4.428521E+05 -2.181970E+04 -4.533911E+04
        86  22 -2.142246E+03 -5.315297E+04 -1.998136E+04  4.436841E+05  2.886459E+04  1.160264E+04
        86  23  4.303582E+02 -5.213615E+04 -1.419195E+04  3.937712E+05  3.671299E+03  4.558664E+03
        86  24 -3.439814E+02 -5.313780E+04 -1.391648E+04  4.436808E+05 -2.173709E+04 -2.484077E+03
        86  25  1.145266E+05  4.389008E+05  7.146391E+04  4.425955E+05  2.894413E+04  5.374141E+04
        86  26  1.265369E+04 -3.648799E+01 -5.169076E+03  3.936415E+05  3.752266E+03  4.704027E+04
        86  27 -9.251406E+04 -4.407409E+05 -8.707235E+04  4.445088E+05 -2.165434E+04  4.034486E+04
        87   1  1.607064E+05  6.224546E+05  1.112811E+05  4.460429E+05  3.904683E+04  5.166835E+04
        87   2  2.596936E+05  1.060665E+06  2.032819E+05  3.844578E+05  4.726082E+04 -2.534670E+03
        87   3  3.474888E+05  1.503242E+06  3.277021E+05  4.203637E+05  1.627705E+04 -5.674800E+04
        87   4  7.133025E+01 -5.435995E+04 -1.527104E+04  4.431617E+05  3.896109E+04  4.713437E+03
        87   5 -7.645467E+03 -5.089197E+04 -2.273774E+04  3.944337E+05  4.729890E+04  1.644164E+04
        87   6 -3.799656E+04 -5.467814E+04 -4.354350E+04  4.432163E+05  1.640448E+04  2.819709E+04
        87   7 -1.605890E+05 -7.307269E+05 -1.418346E+05  4.402834E+05  3.887573E+04 -4.219162E+04
        87   8 -2.750609E+05 -1.161273E+06 -2.488206E+05  4.043907E+05  4.733762E+04  3.538463E+04
        87   9 -4.236511E+05 -1.610359E+06 -4.149320E+05  4.660098E+05  1.653839E+04  1.129303E+05
        87  10  1.607041E+05  6.224514E+05  1.112732E+05  4.460412E+05  1.279787E-09 -2.256484E-09
        87  11  2.596912E+05  1.060664E+06  2.032777E+05  3.844579E+05  5.060440E-11 -2.629643E-10
        87  12  3.474877E+05  1.503239E+06  3.276955E+05  4.203645E+05 -3.101072E-10  5.357743E-10
        87  13  6.969447E+01 -5.436038E+04 -1.527393E+04  4.431615E+05  7.464672E-10  1.920790E-12
        87  14 -7.647941E+03 -5.089286E+04 -2.274245E+04  3.944331E+05  3.204222E-10 -2.606002E-10
        87  15 -3.799706E+04 -5.467907E+04 -4.354550E+04  4.432159E+05 -5.249605E-10 -6.213047E-11
        87  16 -1.605911E+05 -7.307292E+05 -1.418408E+05  4.402847E+05  4.839254E-10  2.615350E-09
        87  17 -2.750637E+05 -1.161275E+06 -2.488272E+05  4.043894E+05 -1.118546E-09  2.930104E-10
        87  18 -4.236549E+05 -1.610372E+06 -4.149565E+05  4.660083E+05 -4.475700E-10 -2.891854E-10
        87  19  1.607064E+05  6.224546E+05  1.112811E+05  4.460429E+05 -3.904683E+04 -5.166835E+04
        87  20  2.596936E+05  1.060665E+06  2.032819E+05  3.844578E+05 -4.726082E+04  2.534670E+03
        87  21  3.474888E+05  1.503242E+06  3.277021E+05  4.203637E+05 -1.627705E+04  5.674800E+04
        87  22  7.133025E+01 -5.435995E+04 -1.527104E+04  4.431617E+05 -3.896109E+04 -4.713437E+03
        87  23 -7.645467E+03 -5.089197E+04 -2.273774E+04  3.944337E+05 -4.729890E+04 -1.644164E+04
        87  24 -3.799656E+04 -5.467814E+04 -4.354350E+04  4.432163E+05 -1.640448E+04 -2.819709E+04
        87  25 -1.605890E+05 -7.307269E+05 -1.418346E+05  4.402834E+05 -3.887573E+04  4.219162E+04
        87  26 -2.750609E+05 -1.161273E+06 -2.488206E+05  4.043907E+05 -4.733762E+04 -3.538463E+04
        87  27 -4.236511E+05 -1.610359E+06 -4.149320E+05  4.660098E+05 -1.653839E+04 -1.129303E+05
        88   1  1.721864E+06  3.252935E+05  3.207046E+05  2.490314E+05  1.133294E+05 -1.293070E+04
        88   2  1.501198E+06  2.198232E+05  2.039774E+05  2.059181E+05  5.194517E+04 -4.013265E+04
        88   3  1.299275E+06  1.568341E+05  1.377709E+05  2.090419E+05 -9.401780E+03 -4.071123E+04
        88   4  6.421545E+05  5.858311E+04  6.527763E+04  2.123905E+05  4.508101E+04 -1.293004E+04
        88   5  6.367441E+05  1.275949E+04  3.203133E+04  1.892725E+05  2.854892E+04 -4.013873E+04
        88   6  6.422901E+05  1.678838E+03  1.823685E+04  2.123877E+05  1.203115E+04 -4.071103E+04
        88   7 -4.364738E+05 -2.082032E+05 -1.902120E+05  1.758133E+05 -2.304962E+04 -1.292136E+04
        88   8 -2.269954E+05 -1.943484E+05 -1.399498E+05  1.726504E+05  5.184490E+03 -4.014356E+04
        88   9 -1.427527E+04 -1.535004E+05 -1.013127E+05  2.157298E+05  3.344205E+04 -4.071059E+04
        88  10  1.721851E+06  3.252899E+05  3.206802E+05  2.490326E+05 -1.004423E-10 -1.108958E-10
        88  11  1.501195E+06  2.198207E+05  2.039693E+05  2.059198E+05 -2.390981E-10 -2.576304E-10
        88  12  1.299275E+06  1.568323E+05  1.377676E+05  2.090416E+05  6.408197E-10 -7.027201E-10
        88  13  6.421523E+05  5.858239E+04  6.527349E+04  2.123909E+05  4.194630E-12 -2.561743E-11
        88  14  6.367428E+05  1.275754E+04  3.202677E+04  1.892734E+05  7.370199E-10  3.065848E-12
        88  15  6.422895E+05  1.677019E+03  1.823347E+04  2.123881E+05  6.606791E-10 -5.811875E-10
        88  16 -4.364744E+05 -2.082035E+05 -1.902133E+05  1.758131E+05  4.232054E-10  7.373737E-11
        88  17 -2.269959E+05 -1.943502E+05 -1.399529E+05  1.726505E+05  2.676835E-10 -4.246227E-11
        88  18 -1.427692E+04 -1.535025E+05 -1.013180E+05  2.157309E+05 -1.264415E-09 -4.904209E-10
        88  19  1.721864E+06  3.252935E+05  3.207046E+05  2.490314E+05 -1.133294E+05  1.293070E+04
        88  20  1.501198E+06  2.198232E+05  2.039774E+05  2.059181E+05 -5.194517E+04  4.013265E+04
        88  21  1.299275E+06  1.568341E+05  1.377709E+05  2.090419E+05  9.401780E+03  4.071123E+04
        88  22  6.421545E+05  5.858311E+04  6.527763E+04  2.123905E+05 -4.508101E+04  1.293004E+04
        88  23  6.367441E+05  1.275949E+04  3.203133E+04  1.892725E+05 -2.854892E+04  4.013873E+04
        88  24  6.422901E+05  1.678838E+03  1.823685E+04  2.123877E+05 -1.203115E+04  4.071103E+04
        88  25 -4.364738E+05 -2.082032E+05 -1.902120E+05  1.758133E+05  2.304962E+04  1.292136E+04
        88  26 -2.269954E+05 -1.943484E+05 -1.399498E+05  1.726504E+05 -5.184490E+03  4.014356E+04
        88  27 -1.427527E+04 -1.535004E+05 -1.013127E+05  2.157298E+05 -3.344205E+04  4.071059E+04
        89   1  1.158221E+06  1.248193E+05  1.079053E+05  2.139612E+05 -8.831184E+03 -3.278204E+04
        89   2  9.464688E+05  7.247801E+04  6.323124E+04  1.892962E+05 -1.710179E+04 -2.075117E+04
        89   3  7.365049E+05  2.270030E+04  2.457956E+04  2.125183E+05 -2.537221E+04 -6.550823E+03
        89   4  6.401316E+05  2.601818E+03  1.437160E+04  2.127575E+05  9.582214E+03 -3.277982E+04
        89   5  6.395988E+05  3.685060E+02  9.274943E+03  1.888136E+05  4.961214E+03 -2.074578E+04
        89   6  6.401758E+05  6.811860E+01  7.670263E+03  2.127582E+05  3.376759E+02 -6.541663E+03
        89   7  1.223043E+05 -1.196305E+05 -7.917135E+04  2.115547E+05  2.798069E+04 -3.277768E+04
        89   8  3.328218E+05 -7.174588E+04 -4.468295E+04  1.883313E+05  2.701365E+04 -2.074042E+04
        89   9  5.438571E+05 -2.256421E+04 -9.236892E+03  2.129980E+05  2.604369E+04 -6.532481E+03
        89  10  1.158220E+06  1.248181E+05  1.079031E+05  2.139610E+05 -1.341860E-09 -4.323400E-10
        89  11  9.464684E+05  7.247747E+04  6.322988E+04  1.892960E+05  7.671411E-10  5.510270E-10
        89  12  7.365042E+05  2.270008E+04  2.457828E+04  2.125182E+05  3.791657E-10  5.002602E-10
        89  13  6.401312E+05  2.600639E+03  1.436940E+04  2.127577E+05  8.320156E-12 -3.898288E-10
        89  14  6.395987E+05  3.680370E+02  9.274088E+03  1.888137E+05  2.693710E-10  3.337121E-10
        89  15  6.401758E+05  6.807260E+01  7.670182E+03  2.127582E+05 -3.123815E-10  2.728418E-10
        89  16  1.223031E+05 -1.196318E+05 -7.917484E+04  2.115555E+05  1.042983E-09 -3.147545E-10
        89  17  3.328209E+05 -7.174653E+04 -4.468513E+04  1.883317E+05  6.956318E-10  6.103316E-11
        89  18  5.438564E+05 -2.256444E+04 -9.238246E+03  2.129981E+05  7.139555E-11  2.279016E-10
        89  19  1.158221E+06  1.248193E+05  1.079053E+05  2.139612E+05  8.831184E+03  3.278204E+04
        89  20  9.464688E+05  7.247801E+04  6.323124E+04  1.892962E+05  1.710179E+04  2.075117E+04
        89  21  7.365049E+05  2.270030E+04  2.457956E+04  2.125183E+05  2.537221E+04  6.550823E+03
        89  22  6.401316E+05  2.601818E+03  1.437160E+04  2.127575E+05 -9.582214E+03  3.277982E+04
        89  23  6.395988E+05  3.685060E+02  9.274943E+03  1.888136E+05 -4.961214E+03  2.074578E+04
        89  24  6.401758E+05  6.811860E+01  7.670263E+03  2.127582E+05 -3.376759E+02  6.541663E+03
        89  25  1.223043E+05 -1.196305E+05 -7.917135E+04  2.115547E+05 -2.798069E+04  3.277768E+04
        89  26  3.328218E+05 -7.174588E+04 -4.468295E+04  1.883313E+05 -2.701365E+04  2.074042E+04
        89  27  5.438571E+05 -2.256421E+04 -9.236892E+03  2.129980E+05 -2.604369E+04  6.532481E+03
        90   1  5.988687E+05 -9.707956E+03  2.355098E+02  2.130801E+05 -2.671127E+04  2.523745E+03
        90   2  3.877733E+05 -5.881047E+04 -3.462211E+04  1.883121E+05 -2.821391E+04  1.678501E+04
        90   3  1.773200E+05 -1.063768E+05 -6.811665E+04  2.114395E+05 -2.971399E+04  2.899933E+04
        90   4  6.401968E+05  6.239139E+01  7.788118E+03  2.127594E+05 -1.017469E+03  2.533076E+03
        90   5  6.395795E+05  4.316842E+02  9.923882E+03  1.888120E+05 -5.965867E+03  1.679101E+04
        90   6  6.401600E+05  2.936833E+03  1.581261E+04  2.127586E+05 -1.091224E+04  2.900250E+04
        90   7  6.815280E+05  9.832997E+03  1.534314E+04  2.124387E+05  2.467800E+04  2.542380E+03
        90   8  8.914486E+05  5.967062E+04  5.446939E+04  1.893122E+05  1.629093E+04  1.679705E+04
        90   9  1.103209E+06  1.122387E+05  9.973472E+04  2.140787E+05  7.903132E+03  2.900575E+04
        90  10  5.988680E+05 -9.708154E+03  2.341582E+02  2.130802E+05  7.510909E-10  4.485844E-10
        90  11  3.877724E+05 -5.881098E+04 -3.462414E+04  1.883124E+05 -4.165231E-10 -1.029238E-10
        90  12  1.773188E+05 -1.063780E+05 -6.811989E+04  2.114402E+05 -3.220056E-12 -3.528548E-10
        90  13  6.401968E+05  6.238422E+01  7.788104E+03  2.127594E+05  5.386612E-10  2.081559E-10
        90  14  6.395794E+05  4.313718E+02  9.923285E+03  1.888121E+05 -4.234436E-10  5.747425E-11
        90  15  6.401597E+05  2.935898E+03  1.581081E+04  2.127589E+05 -9.251765E-11 -1.279346E-10
        90  16  6.815273E+05  9.832827E+03  1.534198E+04  2.124386E+05  4.580697E-10  8.844387E-11
        90  17  8.914483E+05  5.967025E+04  5.446836E+04  1.893120E+05  4.908324E-10  1.205374E-10
        90  18  1.103209E+06  1.122378E+05  9.973302E+04  2.140785E+05 -2.622083E-10 -7.954217E-11
        90  19  5.988687E+05 -9.707956E+03  2.355098E+02  2.130801E+05  2.671127E+04 -2.523745E+03
        90  20  3.877733E+05 -5.881047E+04 -3.462211E+04  1.883121E+05  2.821391E+04 -1.678501E+04
        90  21  1.773200E+05 -1.063768E+05 -6.811665E+04  2.114395E+05  2.971399E+04 -2.899933E+04
        90  22  6.401968E+05  6.239139E+01  7.788118E+03  2.127594E+05  1.017469E+03 -2.533076E+03
        90  23  6.395795E+05  4.316842E+02  9.923882E+03  1.888120E+05  5.965867E+03 -1.679101E+04
        90  24  6.401600E+05  2.936833E+03  1.581261E+04  2.127586E+05  1.091224E+04 -2.900250E+04
        90  25  6.815280E+05  9.832997E+03  1.534314E+04  2.124387E+05 -2.467800E+04 -2.542380E+03
        90  26  8.914486E+05  5.967062E+04  5.446939E+04  1.893122E+05 -1.629093E+04 -1.679705E+04
        90  27  1.103209E+06  1.122387E+05  9.973472E+04  2.140787E+05 -7.903132E+03 -2.900575E+04
        91   1  4.106819E+04 -1.403140E+05 -8.965014E+04  2.161485E+05 -3.527590E+04  3.699658E+04
        91   2 -1.724324E+05 -1.797133E+05 -1.257400E+05  1.706600E+05 -1.107088E+04  3.722333E+04
        91   3 -3.810687E+05 -1.876890E+05 -1.697107E+05  1.714998E+05  1.311433E+04  1.207907E+04
        91   4  6.425791E+05  1.912871E+03  2.019587E+04  2.124067E+05 -1.360961E+04  3.699835E+04
        91   5  6.364124E+05  1.430717E+04  3.570741E+04  1.892479E+05 -3.202834E+04  3.721812E+04
        91   6  6.424488E+05  6.549870E+04  7.291841E+04  2.124077E+05 -5.045931E+04  1.208372E+04
        91   7  1.244442E+06  1.441196E+05  1.300290E+05  2.086610E+05  8.077114E+03  3.699986E+04
        91   8  1.445883E+06  2.082891E+05  1.971238E+05  2.078605E+05 -5.301254E+04  3.721165E+04
        91   9  1.666941E+06  3.186196E+05  3.154907E+05  2.533833E+05 -1.141372E+05  1.208000E+04
        91  10  4.106648E+04 -1.403158E+05 -8.965506E+04  2.161496E+05 -1.760948E-10 -2.315889E-10
        91  11 -1.724329E+05 -1.797148E+05 -1.257428E+05  1.706603E+05 -2.122621E-10 -2.139347E-11
        91  12 -3.810689E+05 -1.876892E+05 -1.697113E+05  1.714996E+05 -7.478470E-10  1.169731E-10
        91  13  6.425785E+05  1.911351E+03  2.019295E+04  2.124071E+05 -7.734304E-10 -2.481262E-10
        91  14  6.364109E+05  1.430540E+04  3.570288E+04  1.892489E+05  1.728989E-09 -2.551238E-10
        91  15  6.424460E+05  6.549787E+04  7.291335E+04  2.124082E+05  8.863175E-10 -2.012855E-10
        91  16  1.244442E+06  1.441181E+05  1.300263E+05  2.086607E+05  9.538234E-10 -1.522347E-10
        91  17  1.445880E+06  2.082868E+05  1.971159E+05  2.078621E+05  3.900742E-10 -2.550331E-10
        91  18  1.666927E+06  3.186160E+05  3.154660E+05  2.533844E+05  8.728291E-10 -2.857178E-10
        91  19  4.106819E+04 -1.403140E+05 -8.965014E+04  2.161485E+05  3.527590E+04 -3.699658E+04
        91  20 -1.724324E+05 -1.797133E+05 -1.257400E+05  1.706600E+05  1.107088E+04 -3.722333E+04
        91  21 -3.810687E+05 -1.876890E+05 -1.697107E+05  1.714998E+05 -1.311433E+04 -1.207907E+04
        91  22  6.425791E+05  1.912871E+03  2.019587E+04  2.124067E+05  1.360961E+04 -3.699835E+04
        91  23  6.364124E+05  1.430717E+04  3.570741E+04  1.892479E+05  3.202834E+04 -3.721812E+04
        91  24  6.424488E+05  6.549870E+04  7.291841E+04  2.124077E+05  5.045931E+04 -1.208372E+04
        91  25  1.244442E+06  1.441196E+05  1.300290E+05  2.086610E+05 -8.077114E+03 -3.699986E+04
        91  26  1.445883E+06  2.082891E+05  1.971238E+05  2.078605E+05  5.301254E+04 -3.721165E+04
        91  27  1.666941E+06  3.186196E+05  3.154907E+05  2.533833E+05  1.141372E+05 -1.208000E+04
        92   1 -4.354199E+05 -1.513195E+06 -4.294464E+05  4.319239E+05 -1.641409E+04 -1.351271E+05
        92   2 -2.778704E+05 -1.113076E+06 -2.587932E+05  3.664552E+05 -4.798583E+04 -5.339403E+04
        92   3 -1.703418E+05 -7.360123E+05 -1.539536E+05  3.869339E+05 -4.215203E+04  2.837422E+04
        92   4 -6.611000E+04 -2.269753E+04 -7.426317E+04  3.915662E+05 -1.629748E+04 -5.069283E+04
        92   5 -1.406076E+04 -1.642857E+04 -3.685114E+04  3.485495E+05 -4.794685E+04 -3.163487E+04
        92   6 -1.077512E+03 -2.242034E+04 -2.162542E+04  3.914860E+05 -4.221499E+04 -1.259660E+04
        92   7  3.030496E+05  1.469860E+06  2.807920E+05  3.511098E+05 -1.619207E+04  3.394367E+04
        92   8  2.496757E+05  1.081367E+06  1.850307E+05  3.306109E+05 -4.790918E+04 -9.837925E+03
        92   9  1.681586E+05  6.916690E+05  1.106877E+05  3.960431E+05 -4.227849E+04 -5.361334E+04
        92  10 -4.354251E+05 -1.513215E+06 -4.294813E+05  4.319221E+05 -8.845844E-10 -3.677173E-08
        92  11 -2.778737E+05 -1.113080E+06 -2.588029E+05  3.664532E+05 -1.116663E-09  2.099843E-08
        92  12 -1.703439E+05 -7.360136E+05 -1.539585E+05  3.869348E+05 -1.213135E-09  7.524657E-08
        92  13 -6.611098E+04 -2.270036E+04 -7.426850E+04  3.915656E+05  1.380380E-09 -2.949027E-10
        92  14 -1.406350E+04 -1.643026E+04 -3.685733E+04  3.485483E+05 -1.779818E-09  9.432548E-10
        92  15 -1.079468E+03 -2.242099E+04 -2.162907E+04  3.914855E+05 -9.202685E-10 -1.888495E-10
        92  16  3.030490E+05  1.469859E+06  2.807893E+05  3.511103E+05  5.278748E-10  3.662050E-08
        92  17  2.496733E+05  1.081367E+06  1.850262E+05  3.306105E+05 -9.832681E-10 -2.048486E-08
        92  18  1.681559E+05  6.916654E+05  1.106789E+05  3.960413E+05 -1.491886E-09 -7.516952E-08
        92  19 -4.354199E+05 -1.513195E+06 -4.294464E+05  4.319239E+05  1.641409E+04  1.351271E+05
        92  20 -2.778704E+05 -1.113076E+06 -2.587932E+05  3.664552E+05  4.798583E+04  5.339403E+04
        92  21 -1.703418E+05 -7.360123E+05 -1.539536E+05  3.869339E+05  4.215203E+04 -2.837422E+04
        92  22 -6.611000E+04 -2.269753E+04 -7.426317E+04  3.915662E+05  1.629748E+04  5.069283E+04
        92  23 -1.406076E+04 -1.642857E+04 -3.685114E+04  3.485495E+05  4.794685E+04  3.163487E+04
        92  24 -1.077512E+03 -2.242034E+04 -2.162542E+04  3.914860E+05  4.221499E+04  1.259660E+04
        92  25  3.030496E+05  1.469860E+06  2.807920E+05  3.511098E+05  1.619207E+04 -3.394367E+04
        92  26  2.496757E+05  1.081367E+06  1.850307E+05  3.306109E+05  4.790918E+04  9.837925E+03
        92  27  1.681586E+05  6.916690E+05  1.106877E+05  3.960431E+05  4.227849E+04  5.361334E+04
        93   1 -1.106587E+05 -4.784345E+05 -1.025822E+05  3.929958E+05 -2.706374E+04  2.735577E+04
        93   2 -1.617700E+04 -8.905316E+04 -2.502783E+04  3.479609E+05 -4.858333E+03  3.426979E+04
        93   3  7.512976E+04  2.985771E+05  4.716115E+04  3.911066E+05  1.763666E+04  4.118643E+04
        93   4 -1.961482E+03 -2.004129E+04 -1.760218E+04  3.919894E+05 -2.712523E+04 -9.674373E+03
        93   5  2.299952E+02 -1.912645E+04 -1.292367E+04  3.478980E+05 -4.921405E+03 -3.254395E+03
        93   6 -6.599463E+02 -2.002338E+04 -1.326590E+04  3.919872E+05  1.757172E+04  3.164103E+03
        93   7  1.067244E+05  4.385586E+05  6.737412E+04  3.909820E+05 -2.718657E+04 -4.673117E+04
        93   8  1.663748E+04  5.080809E+04 -8.143981E+02  3.478350E+05 -4.984464E+03 -4.078268E+04
        93   9 -7.645481E+04 -3.385228E+05 -7.369203E+04  3.928673E+05  1.750664E+04 -3.483919E+04
        93  10 -1.106597E+05 -4.784355E+05 -1.025849E+05  3.929964E+05 -1.737326E-09 -4.394508E-08
        93  11 -1.617734E+04 -8.905443E+04 -2.503008E+04  3.479610E+05 -8.438369E-10 -1.829577E-08
        93  12  7.512897E+04  2.985752E+05  4.715738E+04  3.911060E+05  6.187414E-10  9.687923E-09
        93  13 -1.962297E+03 -2.004159E+04 -1.760373E+04  3.919891E+05 -7.785683E-10 -5.660822E-10
        93  14  2.299664E+02 -1.912646E+04 -1.292374E+04  3.478979E+05 -3.318008E-10  1.132650E-09
        93  15 -6.602805E+02 -2.002347E+04 -1.326649E+04  3.919872E+05  4.449730E-10 -2.424007E-10
        93  16  1.067230E+05  4.385561E+05  6.736864E+04  3.909810E+05 -6.393058E-10  4.371409E-08
        93  17  1.663701E+04  5.080630E+04 -8.175695E+02  3.478348E+05 -1.598536E-10  1.885541E-08
        93  18 -7.645546E+04 -3.385242E+05 -7.369489E+04  3.928678E+05  2.933175E-10 -9.667846E-09
        93  19 -1.106587E+05 -4.784345E+05 -1.025822E+05  3.929958E+05  2.706374E+04 -2.735577E+04
        93  20 -1.617700E+04 -8.905316E+04 -2.502783E+04  3.479609E+05  4.858333E+03 -3.426979E+04
        93  21  7.512976E+04  2.985771E+05  4.716115E+04  3.911066E+05 -1.763666E+04 -4.118643E+04
        93  22 -1.961482E+03 -2.004129E+04 -1.760218E+04  3.919894E+05  2.712523E+04  9.674373E+03
        93  23  2.299952E+02 -1.912645E+04 -1.292367E+04  3.478980E+05  4.921405E+03  3.254395E+03
        93  24 -6.599463E+02 -2.002338E+04 -1.326590E+04  3.919872E+05 -1.757172E+04 -3.164103E+03
        93  25  1.067244E+05  4.385586E+05  6.737412E+04  3.909820E+05  2.718657E+04  4.673117E+04
        93  26  1.663748E+04  5.080809E+04 -8.143981E+02  3.478350E+05  4.984464E+03  4.078268E+04
        93  27 -7.645481E+04 -3.385228E+05 -7.369203E+04  3.928673E+05 -1.750664E+04  3.483919E+04
        94   1  1.360587E+05  5.526231E+05  9.272558E+04  3.942601E+05  3.288012E+04  4.688069E+04
        94   2  2.225817E+05  9.402414E+05  1.724457E+05  3.381588E+05  4.048810E+04  1.260305E+03
        94   3  2.961722E+05  1.330645E+06  2.785775E+05  3.682212E+05  1.402725E+04 -4.436640E+04
        94   4 -2.060960E+02 -2.128641E+04 -1.483527E+04  3.915377E+05  3.281261E+04  5.306943E+03
        94   5 -7.891556E+03 -1.775743E+04 -2.263552E+04  3.484723E+05  4.051620E+04  1.698114E+04
        94   6 -3.845580E+04 -2.152835E+04 -4.379221E+04  3.915865E+05  1.412492E+04  2.867668E+04
        94   7 -1.364890E+05 -5.948739E+05 -1.224039E+05  3.888176E+05  3.274541E+04 -3.622936E+04
        94   8 -2.384215E+05 -9.748835E+05 -2.177640E+05  3.587690E+05  4.054484E+04  3.267818E+04
        94   9 -3.732108E+05 -1.372014E+06 -3.662700E+05  4.148998E+05  1.422822E+04  1.015616E+05
        94  10  1.360570E+05  5.526204E+05  9.271943E+04  3.942589E+05  3.056860E-10 -2.023457E-09
        94  11  2.225799E+05  9.402409E+05  1.724427E+05  3.381588E+05 -2.021433E-09 -3.702012E-10
        94  12  2.961715E+05  1.330643E+06  2.785735E+05  3.682217E+05 -8.445322E-10  7.044201E-11
        94  13 -2.072595E+02 -2.128673E+04 -1.483734E+04  3.915375E+05  1.224048E-09 -6.095014E-10
        94  14 -7.893395E+03 -1.775818E+04 -2.263915E+04  3.484717E+05 -8.337293E-10  9.387858E-10
        94  15 -3.845623E+04 -2.152928E+04 -4.379413E+04  3.915862E+05 -3.177525E-10 -1.486719E-10
        94  16 -1.364905E+05 -5.948756E+05 -1.224084E+05  3.888186E+05  7.226518E-10  1.645085E-09
        94  17 -2.384236E+05 -9.748851E+05 -2.177691E+05  3.587679E+05  9.563341E-10  7.896083E-10
        94  18 -3.732138E+05 -1.372026E+06 -3.662898E+05  4.148986E+05 -3.792862E-10 -8.052732E-12
        94  19  1.360587E+05  5.526231E+05  9.272558E+04  3.942601E+05 -3.288012E+04 -4.688069E+04
        94  20  2.225817E+05  9.402414E+05  1.724457E+05  3.381588E+05 -4.048810E+04 -1.260305E+03
        94  21  2.961722E+05  1.330645E+06  2.785775E+05  3.682212E+05 -1.402725E+04  4.436640E+04
        94  22 -2.060960E+02 -2.128641E+04 -1.483527E+04  3.915377E+05 -3.281261E+04 -5.306943E+03
        94  23 -7.891556E+03 -1.775743E+04 -2.263552E+04  3.484723E+05 -4.051620E+04 -1.698114E+04
        94  24 -3.845580E+04 -2.152835E+04 -4.379221E+04  3.915865E+05 -1.412492E+04 -2.867668E+04
        94  25 -1.364890E+05 -5.948739E+05 -1.224039E+05  3.888176E+05 -3.274541E+04  3.622936E+04
        94  26 -2.384215E+05 -9.748835E+05 -2.177640E+05  3.587690E+05 -4.054484E+04 -3.267818E+04
        94  27 -3.732108E+05 -1.372014E+06 -3.662700E+05  4.148998E+05 -1.422822E+04 -1.015616E+05
        95   1  1.503401E+06  2.842120E+05  2.794576E+05  2.214325E+05  9.603923E+04 -1.149290E+04
        95   2  1.304031E+06  1.941979E+05  1.782624E+05  1.847325E+05  4.294335E+04 -3.559009E+04
        95   3  1.120250E+06  1.384437E+05  1.201524E+05  1.899768E+05 -1.012235E+04 -3.589429E+04
        95   4  5.396688E+05  4.609168E+04  5.137016E+04  1.926048E+05  3.542785E+04 -1.149153E+04
        95   5  5.354091E+05  1.003492E+04  2.524169E+04  1.716329E+05  2.240107E+04 -3.559467E+04
        95   6  5.397756E+05  1.317079E+03  1.443193E+04  1.926026E+05  9.385998E+03 -3.589403E+04
        95   7 -4.232023E+05 -1.920901E+05 -1.767675E+05  1.638219E+05 -2.509015E+04 -1.148455E+04
        95   8 -2.326483E+05 -1.741632E+05 -1.278069E+05  1.585497E+05  1.883648E+03 -3.559838E+04
        95   9 -4.037118E+04 -1.358283E+05 -9.130060E+04  1.952259E+05  2.887662E+04 -3.589360E+04
        95  10  1.503391E+06  2.842094E+05  2.794401E+05  2.214334E+05 -5.586432E-10  1.528547E-10
        95  11  1.304029E+06  1.941960E+05  1.782566E+05  1.847337E+05 -1.016321E-10  2.857923E-10
        95  12  1.120250E+06  1.384423E+05  1.201498E+05  1.899765E+05  7.205190E-10  9.926896E-11
        95  13  5.396675E+05  4.609120E+04  5.136756E+04  1.926051E+05 -1.865772E-10  3.958456E-10
        95  14  5.354083E+05  1.003342E+04  2.523837E+04  1.716335E+05 -7.293650E-10  4.382299E-10
        95  15  5.397751E+05  1.315672E+03  1.442934E+04  1.926029E+05  1.459809E-10  2.890093E-10
        95  16 -4.232030E+05 -1.920904E+05 -1.767689E+05  1.638216E+05  7.173953E-10  1.238314E-11
        95  17 -2.326487E+05 -1.741646E+05 -1.278093E+05  1.585498E+05 -3.974999E-10  3.671294E-10
        95  18 -4.037242E+04 -1.358299E+05 -9.130459E+04  1.952267E+05 -7.933806E-10  4.420929E-10
        95  19  1.503401E+06  2.842120E+05  2.794576E+05  2.214325E+05 -9.603923E+04  1.149290E+04
        95  20  1.304031E+06  1.941979E+05  1.782624E+05  1.847325E+05 -4.294335E+04  3.559009E+04
        95  21  1.120250E+06  1.384437E+05  1.201524E+05  1.899768E+05  1.012235E+04  3.589429E+04
        95  22  5.396688E+05  4.609168E+04  5.137016E+04  1.926048E+05 -3.542785E+04  1.149153E+04
        95  23  5.354091E+05  1.003492E+04  2.524169E+04  1.716329E+05 -2.240107E+04  3.559467E+04
        95  24  5.397756E+05  1.317079E+03  1.443193E+04  1.926026E+05 -9.385998E+03  3.589403E+04
        95  25 -4.232023E+05 -1.920901E+05 -1.767675E+05  1.638219E+05  2.509015E+04  1.148455E+04
        95  26 -2.326483E+05 -1.741632E+05 -1.278069E+05  1.585497E+05 -1.883648E+03  3.559838E+04
        95  27 -4.037118E+04 -1.358283E+05 -9.130060E+04  1.952259E+05 -2.887662E+04  3.589360E+04
        96   1  9.926197E+05  1.093034E+05  9.358350E+04  1.938923E+05 -9.369680E+03 -2.868427E+04
        96   2  8.006623E+05  6.211005E+04  5.382382E+04  1.716110E+05 -1.635765E+04 -1.772218E+04
        96   3  6.101904E+05  1.700835E+04  1.913368E+04  1.927650E+05 -2.334568E+04 -4.826732E+03
        96   4  5.380803E+05  2.043110E+03  1.142102E+04  1.929362E+05  7.441341E+03 -2.868238E+04
        96   5  5.376525E+05  2.838856E+02  7.501013E+03  1.712183E+05  3.704947E+03 -1.771782E+04
        96   6  5.381144E+05  5.550517E+01  6.396861E+03  1.929367E+05 -3.349913E+01 -4.819428E+03
        96   7  8.374229E+04 -1.052286E+05 -7.074854E+04  1.919808E+05  2.424041E+04 -2.868055E+04
        96   8  2.747111E+05 -6.154584E+04 -3.882280E+04  1.708257E+05  2.375931E+04 -1.771348E+04
        96   9  4.660447E+05 -1.689734E+04 -6.338111E+03  1.931084E+05  2.327606E+04 -4.812110E+03
        96  10  9.926194E+05  1.093025E+05  9.358179E+04  1.938921E+05 -1.729745E-10 -6.101846E-11
        96  11  8.006619E+05  6.210964E+04  5.382272E+04  1.716108E+05 -2.216851E-10  3.751149E-11
        96  12  6.101898E+05  1.700818E+04  1.913262E+04  1.927649E+05 -2.177780E-10 -1.691010E-11
        96  13  5.380800E+05  2.042212E+03  1.141937E+04  1.929364E+05  7.576222E-10  2.236325E-10
        96  14  5.376524E+05  2.835447E+02  7.500397E+03  1.712183E+05 -2.480001E-10  2.381120E-10
        96  15  5.381144E+05  5.548022E+01  6.396817E+03  1.929367E+05 -1.061853E-10  3.977947E-11
        96  16  8.374144E+04 -1.052297E+05 -7.075119E+04  1.919814E+05 -8.811598E-11  2.952490E-10
        96  17  2.747104E+05 -6.154633E+04 -3.882445E+04  1.708260E+05  3.627356E-10  2.813219E-10
        96  18  4.660441E+05 -1.689751E+04 -6.339172E+03  1.931085E+05  1.178992E-09  2.861868E-10
        96  19  9.926197E+05  1.093034E+05  9.358350E+04  1.938923E+05  9.369680E+03  2.868427E+04
        96  20  8.006623E+05  6.211005E+04  5.382382E+04  1.716110E+05  1.635765E+04  1.772218E+04
        96  21  6.101904E+05  1.700835E+04  1.913368E+04  1.927650E+05  2.334568E+04  4.826732E+03
        96  22  5.380803E+05  2.043110E+03  1.142102E+04  1.929362E+05 -7.441341E+03  2.868238E+04
        96  23  5.376525E+05  2.838856E+02  7.501013E+03  1.712183E+05 -3.704947E+03  1.771782E+04
        96  24  5.381144E+05  5.550517E+01  6.396861E+03  1.929367E+05  3.349913E+01  4.819428E+03
        96  25  8.374229E+04 -1.052286E+05 -7.074854E+04  1.919808E+05 -2.424041E+04  2.868055E+04
        96  26  2.747111E+05 -6.154584E+04 -3.882280E+04  1.708257E+05 -2.375931E+04  1.771348E+04
        96  27  4.660447E+05 -1.689734E+04 -6.338111E+03  1.931084E+05 -2.327606E+04  4.812110E+03
        97   1  4.853883E+05 -1.239402E+04 -2.844674E+03  1.932385E+05 -2.447813E+04  3.404097E+03
        97   2  2.939677E+05 -5.692984E+04 -3.437064E+04  1.707897E+05 -2.560815E+04  1.632423E+04
        97   3  1.030848E+05 -1.001289E+05 -6.482474E+04  1.917798E+05 -2.673600E+04  2.735336E+04
        97   4  5.381511E+05  4.249972E+01  6.605645E+03  1.929369E+05 -1.172997E+03  3.411467E+03
        97   5  5.376087E+05  3.800625E+02  8.648281E+03  1.712179E+05 -5.485553E+03  1.632877E+04
        97   6  5.381190E+05  2.607451E+03  1.396973E+04  1.929363E+05 -9.796280E+03  2.735552E+04
        97   7  5.909177E+05  1.247916E+04  1.605790E+04  1.926354E+05  2.213406E+04  3.418813E+03
        97   8  7.813086E+05  5.768693E+04  5.166654E+04  1.716462E+05  1.464470E+04  1.633334E+04
        97   9  9.733379E+05  1.053334E+05  9.275781E+04  1.940936E+05  7.154980E+03  2.735773E+04
        97  10  4.853876E+05 -1.239420E+04 -2.845821E+03  1.932385E+05  7.091464E-10  3.708943E-11
        97  11  2.939669E+05 -5.693030E+04 -3.437237E+04  1.707901E+05 -3.715664E-10 -4.979213E-10
        97  12  1.030838E+05 -1.001299E+05 -6.482749E+04  1.917804E+05  7.685618E-10 -6.601251E-10
        97  13  5.381511E+05  4.248685E+01  6.605620E+03  1.929369E+05  3.367252E-11  1.615627E-11
        97  14  5.376086E+05  3.797680E+02  8.647723E+03  1.712179E+05  9.674449E-11 -3.816279E-10
        97  15  5.381187E+05  2.606621E+03  1.396815E+04  1.929365E+05 -4.667516E-10 -9.073345E-10
        97  16  5.909172E+05  1.247902E+04  1.605696E+04  1.926353E+05  1.812320E-10  1.792710E-10
        97  17  7.813083E+05  5.768658E+04  5.166564E+04  1.716460E+05 -6.272433E-10 -3.826685E-10
        97  18  9.733376E+05  1.053325E+05  9.275630E+04  1.940934E+05  2.631491E-10 -1.074996E-09
        97  19  4.853883E+05 -1.239402E+04 -2.844674E+03  1.932385E+05  2.447813E+04 -3.404097E+03
        97  20  2.939677E+05 -5.692984E+04 -3.437064E+04  1.707897E+05  2.560815E+04 -1.632423E+04
        97  21  1.030848E+05 -1.001289E+05 -6.482474E+04  1.917798E+05  2.673600E+04 -2.735336E+04
        97  22  5.381511E+05  4.249972E+01  6.605645E+03  1.929369E+05  1.172997E+03 -3.411467E+03
        97  23  5.376087E+05  3.800625E+02  8.648281E+03  1.712179E+05  5.485553E+03 -1.632877E+04
        97  24  5.381190E+05  2.607451E+03  1.396973E+04  1.929363E+05  9.796280E+03 -2.735552E+04
        97  25  5.909177E+05  1.247916E+04  1.605790E+04  1.926354E+05 -2.213406E+04 -3.418813E+03
        97  26  7.813086E+05  5.768693E+04  5.166654E+04  1.716462E+05 -1.464470E+04 -1.633334E+04
        97  27  9.733379E+05  1.053334E+05  9.275781E+04  1.940936E+05 -7.154980E+03 -2.735773E+04
        98   1 -2.054117E+04 -1.309005E+05 -8.442741E+04  1.959589E+05 -3.175913E+04  3.458889E+04
        98   2 -2.139929E+05 -1.668721E+05 -1.176083E+05  1.550972E+05 -8.879404E+03  3.457291E+04
        98   3 -4.033521E+05 -1.751125E+05 -1.587335E+05  1.562254E+05  1.398258E+04  1.118983E+04
        98   4  5.402746E+05  1.696629E+03  1.789764E+04  1.926111E+05 -1.217995E+04  3.458978E+04
        98   5  5.347933E+05  1.273109E+04  3.174229E+04  1.716213E+05 -2.855442E+04  3.456892E+04
        98   6  5.401671E+05  5.828973E+04  6.488732E+04  1.926131E+05 -4.493949E+04  1.119531E+04
        98   7  1.101397E+06  1.342763E+05  1.202115E+05  1.892601E+05  7.416434E+03  3.459046E+04
        98   8  1.284116E+06  1.923011E+05  1.810664E+05  1.881657E+05 -4.825267E+04  3.456389E+04
        98   9  1.484514E+06  2.916349E+05  2.884600E+05  2.290563E+05 -1.039506E+05  1.119390E+04
        98  10 -2.054258E+04 -1.309021E+05 -8.443156E+04  1.959598E+05 -5.429187E-10 -5.618506E-10
        98  11 -2.139933E+05 -1.668734E+05 -1.176107E+05  1.550974E+05  2.780135E-10 -2.963218E-10
        98  12 -4.033523E+05 -1.751127E+05 -1.587341E+05  1.562253E+05 -7.177426E-10 -1.929823E-10
        98  13  5.402741E+05  1.695304E+03  1.789511E+04  1.926114E+05 -3.928626E-10 -8.945982E-10
        98  14  5.347921E+05  1.272958E+04  3.173851E+04  1.716221E+05  1.342187E-09 -3.952919E-10
        98  15  5.401649E+05  5.828906E+04  6.488329E+04  1.926135E+05 -2.156898E-10  2.763457E-11
        98  16  1.101396E+06  1.342750E+05  1.202091E+05  1.892599E+05  5.624052E-10 -1.117828E-09
        98  17  1.284114E+06  1.922992E+05  1.810597E+05  1.881670E+05  9.971075E-10 -4.078917E-10
        98  18  1.484503E+06  2.916319E+05  2.884395E+05  2.290573E+05  1.099002E-09 -2.445385E-10
        98  19 -2.054117E+04 -1.309005E+05 -8.442741E+04  1.959589E+05  3.175913E+04 -3.458889E+04
        98  20 -2.139929E+05 -1.668721E+05 -1.176083E+05  1.550972E+05  8.879404E+03 -3.457291E+04
        98  21 -4.033521E+05 -1.751125E+05 -1.587335E+05  1.562254E+05 -1.398258E+04 -1.118983E+04
        98  22  5.402746E+05  1.696629E+03  1.789764E+04  1.926111E+05  1.217995E+04 -3.458978E+04
        98  23  5.347933E+05  1.273109E+04  3.174229E+04  1.716213E+05  2.855442E+04 -3.456892E+04
        98  24  5.401671E+05  5.828973E+04  6.488732E+04  1.926131E+05  4.493949E+04 -1.119531E+04
        98  25  1.101397E+06  1.342763E+05  1.202115E+05  1.892601E+05 -7.416434E+03 -3.459046E+04
        98  26  1.284116E+06  1.923011E+05  1.810664E+05  1.881657E+05  4.825267E+04 -3.456389E+04
        98  27  1.484514E+06  2.916349E+05  2.884600E+05  2.290563E+05  1.039506E+05 -1.119390E+04
        99   1 -3.924146E+05 -1.361045E+06 -3.862300E+05  3.883236E+05 -1.503510E+04 -1.193650E+05
        99   2 -2.535353E+05 -9.988839E+05 -2.341152E+05  3.307346E+05 -4.409752E+04 -4.620246E+04
        99   3 -1.570696E+05 -6.567725E+05 -1.403125E+05  3.510066E+05 -3.899081E+04  2.698841E+04
        99   4 -5.483934E+04  1.491819E+03 -6.162785E+04  3.548249E+05 -1.493912E+04 -4.185936E+04
        99   5 -1.166668E+04  6.697009E+03 -3.073964E+04  3.158624E+05 -4.406486E+04 -2.596562E+04
        99   6 -9.070776E+02  1.721482E+03 -1.831158E+04  3.547645E+05 -3.904240E+04 -1.008809E+04
        99   7  2.826095E+05  1.365749E+06  2.628674E+05  3.212513E+05 -1.485166E+04  3.581592E+04
        99   8  2.301403E+05  1.013243E+06  1.725853E+05  3.009650E+05 -4.403321E+04 -5.696562E+03
        99   9  1.552314E+05  6.606390E+05  1.036763E+05  3.585262E+05 -3.909440E+04 -4.720294E+04
        99  10 -3.924187E+05 -1.361060E+06 -3.862573E+05  3.883222E+05  2.184936E-10 -4.142081E-10
        99  11 -2.535380E+05 -9.988867E+05 -2.341229E+05  3.307330E+05  9.587108E-10  2.209337E-09
        99  12 -1.570714E+05 -6.567737E+05 -1.403168E+05  3.510075E+05  1.650419E-09  2.553829E-09
        99  13 -5.484005E+04  1.489878E+03 -6.163156E+04  3.548244E+05  5.785800E-10  6.022924E-10
        99  14 -1.166894E+04  6.695765E+03 -3.074456E+04  3.158615E+05 -2.148213E-10  2.703478E-11
        99  15 -9.087414E+02  1.720964E+03 -1.831464E+04  3.547642E+05  9.665338E-10 -4.956549E-10
        99  16  2.826089E+05  1.365748E+06  2.628646E+05  3.212517E+05  4.821153E-10 -1.581992E-11
        99  17  2.301382E+05  1.013243E+06  1.725816E+05  3.009648E+05  6.316828E-11 -1.232201E-09
        99  18  1.552291E+05  6.606362E+05  1.036693E+05  3.585248E+05  1.040362E-09 -1.935191E-09
        99  19 -3.924146E+05 -1.361045E+06 -3.862300E+05  3.883236E+05  1.503510E+04  1.193650E+05
        99  20 -2.535353E+05 -9.988839E+05 -2.341152E+05  3.307346E+05  4.409752E+04  4.620246E+04
        99  21 -1.570696E+05 -6.567725E+05 -1.403125E+05  3.510066E+05  3.899081E+04 -2.698841E+04
        99  22 -5.483934E+04  1.491819E+03 -6.162785E+04  3.548249E+05  1.493912E+04  4.185936E+04
        99  23 -1.166668E+04  6.697009E+03 -3.073964E+04  3.158624E+05  4.406486E+04  2.596562E+04
        99  24 -9.070776E+02  1.721482E+03 -1.831158E+04  3.547645E+05  3.904240E+04  1.008809E+04
        99  25  2.826095E+05  1.365749E+06  2.628674E+05  3.212513E+05  1.485166E+04 -3.581592E+04
        99  26  2.301403E+05  1.013243E+06  1.725853E+05  3.009650E+05  4.403321E+04  5.696562E+03
        99  27  1.552314E+05  6.606390E+05  1.036763E+05  3.585262E+05  3.909440E+04  4.720294E+04
       100   1 -1.029097E+05 -4.235535E+05 -9.419347E+04  3.561091E+05 -2.533270E+04  2.588511E+04
       100   2 -1.751171E+04 -7.071711E+04 -2.466711E+04  3.152747E+05 -5.237661E+03  3.220396E+04
       100   3  6.499584E+04  2.805262E+05  3.996525E+04  3.543429E+05  1.516904E+04  3.852475E+04
       100   4 -1.630672E+03  3.671473E+03 -1.511229E+04  3.552236E+05 -2.538311E+04 -7.586711E+03
       100   5  1.343831E+02  4.490989E+03 -1.164847E+04  3.152718E+05 -5.289640E+03 -1.797740E+03
       100   6 -8.928076E+02  3.688915E+03 -1.270974E+04  3.552225E+05  1.511524E+04  3.989781E+03
       100   7  9.963856E+04  4.310758E+05  6.396546E+04  3.543374E+05 -2.543339E+04 -4.108098E+04
       100   8  1.778079E+04  7.970712E+04  1.374311E+03  3.152688E+05 -5.341613E+03 -3.580343E+04
       100   9 -6.678530E+04 -2.730720E+05 -6.538369E+04  3.561017E+05  1.506133E+04 -3.053016E+04
       100  10 -1.029106E+05 -4.235544E+05 -9.419593E+04  3.561097E+05  4.839450E-10 -6.500142E-09
       100  11 -1.751201E+04 -7.071823E+04 -2.466911E+04  3.152748E+05 -6.656501E-10  1.184250E-08
       100  12  6.499519E+04  2.805246E+05  3.996203E+04  3.543425E+05 -1.205520E-09  2.612756E-08
       100  13 -1.631379E+03  3.671239E+03 -1.511360E+04  3.552235E+05  1.636121E-09  1.019864E-09
       100  14  1.343521E+02  4.490978E+03 -1.164853E+04  3.152717E+05 -5.808992E-10 -2.460036E-11
       100  15 -8.930571E+02  3.688836E+03 -1.271020E+04  3.552225E+05 -2.138191E-10 -5.740598E-10
       100  16  9.963742E+04  4.310739E+05  6.396108E+04  3.543366E+05  1.402082E-09  5.691935E-09
       100  17  1.778041E+04  7.970573E+04  1.371850E+03  3.152687E+05  4.758633E-10 -1.044425E-08
       100  18 -6.678580E+04 -2.730730E+05 -6.538587E+04  3.561020E+05 -7.942288E-10 -2.547378E-08
       100  19 -1.029097E+05 -4.235535E+05 -9.419347E+04  3.561091E+05  2.533270E+04 -2.588511E+04
       100  20 -1.751171E+04 -7.071711E+04 -2.466711E+04  3.152747E+05  5.237661E+03 -3.220396E+04
       100  21  6.499584E+04  2.805262E+05  3.996525E+04  3.543429E+05 -1.516904E+04 -3.852475E+04
       100  22 -1.630672E+03  3.671473E+03 -1.511229E+04  3.552236E+05  2.538311E+04  7.586711E+03
       100  23  1.343831E+02  4.490989E+03 -1.164847E+04  3.152718E+05  5.289640E+03  1.797740E+03
       100  24 -8.928076E+02  3.688915E+03 -1.270974E+04  3.552225E+05 -1.511524E+04 -3.989781E+03
       100  25  9.963856E+04  4.310758E+05  6.396546E+04  3.543374E+05  2.543339E+04  4.108098E+04
       100  26  1.778079E+04  7.970712E+04  1.374311E+03  3.152688E+05  5.341613E+03  3.580343E+04
       100  27 -6.678530E+04 -2.730720E+05 -6.538369E+04  3.561017E+05 -1.506133E+04  3.053016E+04
       101   1  1.202815E+05  5.105161E+05  8.081613E+04  3.575104E+05  2.899402E+04  4.377745E+04
       101   2  1.978070E+05  8.622013E+05  1.516369E+05  3.050756E+05  3.606368E+04  4.124716E+03
       101   3  2.608071E+05  1.215479E+06  2.445956E+05  3.307374E+05  1.253863E+04 -3.553183E+04
       101   4 -3.992814E+02  2.358179E+03 -1.455065E+04  3.548196E+05  2.893802E+04  6.059349E+03
       101   5 -8.212524E+03  5.987396E+03 -2.286293E+04  3.157872E+05  3.608616E+04  1.785293E+04
       101   6 -3.948444E+04  2.162590E+03 -4.474859E+04  3.548653E+05  1.261850E+04  2.966428E+04
       101   7 -1.210942E+05 -5.055472E+05 -1.099233E+05  3.521309E+05  2.888232E+04 -3.162867E+04
       101   8 -2.142773E+05 -8.495293E+05 -1.974006E+05  3.264833E+05  3.610912E+04  3.156257E+04
       101   9 -3.398777E+05 -1.209795E+06 -3.341799E+05  3.789451E+05  1.270354E+04  9.473371E+04
       101  10  1.202801E+05  5.105138E+05  8.081096E+04  3.575093E+05 -6.375468E-10  5.250584E-09
       101  11  1.978056E+05  8.622009E+05  1.516344E+05  3.050755E+05 -2.798646E-10 -7.282517E-09
       101  12  2.608066E+05  1.215478E+06  2.445929E+05  3.307378E+05 -5.425926E-10 -2.069574E-08
       101  13 -4.001904E+02  2.357915E+03 -1.455229E+04  3.548194E+05  1.168951E-10  1.033416E-09
       101  14 -8.214007E+03  5.986705E+03 -2.286598E+04  3.157867E+05 -5.263527E-10  7.722682E-12
       101  15 -3.948485E+04  2.161602E+03 -4.475054E+04  3.548650E+05 -6.093512E-10 -3.312434E-10
       101  16 -1.210954E+05 -5.055485E+05 -1.099267E+05  3.521316E+05 -1.593875E-09 -5.982297E-09
       101  17 -2.142789E+05 -8.495308E+05 -1.974049E+05  3.264824E+05 -1.324199E-09  8.414447E-09
       101  18 -3.398803E+05 -1.209805E+06 -3.341971E+05  3.789442E+05 -9.493002E-10  2.097485E-08
       101  19  1.202815E+05  5.105161E+05  8.081613E+04  3.575104E+05 -2.899402E+04 -4.377745E+04
       101  20  1.978070E+05  8.622013E+05  1.516369E+05  3.050756E+05 -3.606368E+04 -4.124716E+03
       101  21  2.608071E+05  1.215479E+06  2.445956E+05  3.307374E+05 -1.253863E+04  3.553183E+04
       101  22 -3.992814E+02  2.358179E+03 -1.455065E+04  3.548196E+05 -2.893802E+04 -6.059349E+03
       101  23 -8.212524E+03  5.987396E+03 -2.286293E+04  3.157872E+05 -3.608616E+04 -1.785293E+04
       101  24 -3.948444E+04  2.162590E+03 -4.474859E+04  3.548653E+05 -1.261850E+04 -2.966428E+04
       101  25 -1.210942E+05 -5.055472E+05 -1.099233E+05  3.521309E+05 -2.888232E+04  3.162867E+04
       101  26 -2.142773E+05 -8.495293E+05 -1.974006E+05  3.264833E+05 -3.610912E+04 -3.156257E+04
       101  27 -3.398777E+05 -1.209795E+06 -3.341799E+05  3.789451E+05 -1.270354E+04 -9.473371E+04
       102   1  1.371222E+06  2.698642E+05  2.644949E+05  2.117525E+05  8.821947E+04 -1.117596E+04
       102   2  1.177396E+06  1.873947E+05  1.697546E+05  1.782777E+05  3.843040E+04 -3.459713E+04
       102   3  9.975014E+05  1.343077E+05  1.147351E+05  1.857262E+05 -1.133235E+04 -3.485968E+04
       102   4  4.335365E+05  3.814432E+04  4.253382E+04  1.878915E+05  2.929587E+04 -1.117420E+04
       102   5  4.300066E+05  8.292043E+03  2.092526E+04  1.674298E+05  1.849810E+04 -3.460139E+04
       102   6  4.336344E+05  1.084093E+03  1.201209E+04  1.878900E+05  7.710961E+03 -3.485930E+04
       102   7 -5.033336E+05 -1.936346E+05 -1.794749E+05  1.640666E+05 -2.953939E+04 -1.116792E+04
       102   8 -3.168490E+05 -1.708441E+05 -1.279305E+05  1.565951E+05 -1.410731E+03 -3.460497E+04
       102   9 -1.299232E+05 -1.321572E+05 -9.072232E+04  1.900517E+05  2.673747E+04 -3.485878E+04
       102  10  1.371213E+06  2.698620E+05  2.644801E+05  2.117532E+05 -7.116050E-10  1.958248E-10
       102  11  1.177394E+06  1.873931E+05  1.697496E+05  1.782788E+05  4.519171E-10  1.126143E-10
       102  12  9.975009E+05  1.343063E+05  1.147326E+05  1.857259E+05  6.798460E-10  4.193645E-10
       102  13  4.335355E+05  3.814396E+04  4.253197E+04  1.878918E+05  6.960491E-10 -1.749963E-10
       102  14  4.300059E+05  8.290665E+03  2.092236E+04  1.674303E+05  1.533535E-10  2.342973E-10
       102  15  4.336340E+05  1.082772E+03  1.200969E+04  1.878902E+05 -4.411678E-10  4.733436E-10
       102  16 -5.033345E+05 -1.936350E+05 -1.794768E+05  1.640663E+05  3.128990E-10 -1.678664E-10
       102  17 -3.168494E+05 -1.708454E+05 -1.279327E+05  1.565951E+05 -7.797207E-11  3.571263E-10
       102  18 -1.299242E+05 -1.321587E+05 -9.072595E+04  1.900525E+05 -1.299121E-09  6.073337E-10
       102  19  1.371222E+06  2.698642E+05  2.644949E+05  2.117525E+05 -8.821947E+04  1.117596E+04
       102  20  1.177396E+06  1.873947E+05  1.697546E+05  1.782777E+05 -3.843040E+04  3.459713E+04
       102  21  9.975014E+05  1.343077E+05  1.147351E+05  1.857262E+05  1.133235E+04  3.485968E+04
       102  22  4.335365E+05  3.814432E+04  4.253382E+04  1.878915E+05 -2.929587E+04  1.117420E+04
       102  23  4.300066E+05  8.292043E+03  2.092526E+04  1.674298E+05 -1.849810E+04  3.460139E+04
       102  24  4.336344E+05  1.084093E+03  1.201209E+04  1.878900E+05 -7.710961E+03  3.485930E+04
       102  25 -5.033336E+05 -1.936346E+05 -1.794749E+05  1.640666E+05  2.953939E+04  1.116792E+04
       102  26 -3.168490E+05 -1.708441E+05 -1.279305E+05  1.565951E+05  1.410731E+03  3.460497E+04
       102  27 -1.299232E+05 -1.321572E+05 -9.072232E+04  1.900517E+05 -2.673747E+04  3.485878E+04
       103   1  8.732571E+05  1.057760E+05  8.928634E+04  1.890194E+05 -1.033059E+04 -2.782222E+04
       103   2  6.860550E+05  5.999552E+04  5.115132E+04  1.673665E+05 -1.666394E+04 -1.711899E+04
       103   3  5.001858E+05  1.603778E+04  1.759384E+04  1.880889E+05 -2.299738E+04 -4.534649E+03
       103   4  4.322336E+05  1.688956E+03  9.542446E+03  1.882143E+05  6.087125E+03 -2.782032E+04
       103   5  4.318741E+05  2.349701E+02  6.366178E+03  1.670264E+05  2.916536E+03 -1.711472E+04
       103   6  4.322655E+05  5.720105E+01  5.573921E+03  1.882146E+05 -2.559451E+02 -4.527592E+03
       103   7 -8.600215E+03 -1.024088E+05 -7.020810E+04  1.874097E+05  2.249351E+04 -2.781846E+04
       103   8  1.777571E+05 -5.952891E+04 -3.841988E+04  1.666863E+05  2.248924E+04 -1.711048E+04
       103   9  3.643507E+05 -1.592335E+04 -6.444226E+03  1.883404E+05  2.248308E+04 -4.520524E+03
       103  10  8.732567E+05  1.057751E+05  8.928469E+04  1.890192E+05  8.830979E-10  3.069962E-10
       103  11  6.860546E+05  5.999513E+04  5.115024E+04  1.673663E+05  1.442524E-09  2.769339E-10
       103  12  5.001852E+05  1.603761E+04  1.759281E+04  1.880888E+05 -1.705834E-10  2.505345E-10
       103  13  4.322333E+05  1.688115E+03  9.540921E+03  1.882144E+05 -3.871166E-10  4.508540E-10
       103  14  4.318740E+05  2.346532E+02  6.365611E+03  1.670264E+05  1.041289E-09  3.004047E-10
       103  15  4.322655E+05  5.717901E+01  5.573883E+03  1.882146E+05 -3.322654E-10  2.944628E-11
       103  16 -8.600966E+03 -1.024098E+05 -7.021050E+04  1.874102E+05 -1.406084E-09  4.042989E-10
       103  17  1.777564E+05 -5.952936E+04 -3.842138E+04  1.666866E+05 -8.973815E-10  1.367427E-10
       103  18  3.643502E+05 -1.592351E+04 -6.445214E+03  1.883405E+05 -7.242706E-10  9.852024E-11
       103  19  8.732571E+05  1.057760E+05  8.928634E+04  1.890194E+05  1.033059E+04  2.782222E+04
       103  20  6.860550E+05  5.999552E+04  5.115132E+04  1.673665E+05  1.666394E+04  1.711899E+04
       103  21  5.001858E+05  1.603778E+04  1.759384E+04  1.880889E+05  2.299738E+04  4.534649E+03
       103  22  4.322336E+05  1.688956E+03  9.542446E+03  1.882143E+05 -6.087125E+03  2.782032E+04
       103  23  4.318741E+05  2.349701E+02  6.366178E+03  1.670264E+05 -2.916536E+03  1.711472E+04
       103  24  4.322655E+05  5.720105E+01  5.573921E+03  1.882146E+05  2.559451E+02  4.527592E+03
       103  25 -8.600215E+03 -1.024088E+05 -7.020810E+04  1.874097E+05 -2.249351E+04  2.781846E+04
       103  26  1.777571E+05 -5.952891E+04 -3.841988E+04  1.666863E+05 -2.248924E+04  1.711048E+04
       103  27  3.643507E+05 -1.592335E+04 -6.444226E+03  1.883404E+05 -2.248308E+04  4.520524E+03
       104   1  3.784416E+05 -1.265411E+04 -3.792750E+03  1.885022E+05 -2.399188E+04  3.495995E+03
       104   2  1.917403E+05 -5.612221E+04 -3.457837E+04  1.666406E+05 -2.476984E+04  1.609939E+04
       104   3  5.492766E+03 -9.840477E+04 -6.455854E+04  1.871589E+05 -2.554579E+04  2.685240E+04
       104   4  4.323113E+05  4.056201E+01  5.835550E+03  1.882152E+05 -1.256016E+03  3.503102E+03
       104   5  4.318181E+05  3.536007E+02  7.803556E+03  1.670256E+05 -5.147767E+03  1.610378E+04
       104   6  4.322808E+05  2.392664E+03  1.273584E+04  1.882146E+05 -9.037689E+03  2.685448E+04
       104   7  4.861850E+05  1.273535E+04  1.546568E+04  1.879281E+05  2.148177E+04  3.510188E+03
       104   8  6.719530E+05  5.682646E+04  5.018481E+04  1.674108E+05  1.448167E+04  1.610819E+04
       104   9  8.592466E+05  1.031800E+05  9.002405E+04  1.892710E+05  7.481447E+03  2.685662E+04
       104  10  3.784410E+05 -1.265428E+04 -3.793854E+03  1.885023E+05  3.451300E-10  1.759798E-10
       104  11  1.917396E+05 -5.612265E+04 -3.458001E+04  1.666410E+05  5.671779E-11 -5.007694E-11
       104  12  5.491871E+03 -9.840572E+04 -6.456112E+04  1.871595E+05  1.338346E-09 -2.685826E-11
       104  13  4.323113E+05  4.054840E+01  5.835524E+03  1.882152E+05 -6.813991E-10  7.065386E-11
       104  14  4.318180E+05  3.533151E+02  7.803019E+03  1.670257E+05  2.650963E-10  8.554087E-11
       104  15  4.322805E+05  2.391867E+03  1.273433E+04  1.882148E+05  3.638065E-10 -1.790526E-10
       104  16  4.861845E+05  1.273522E+04  1.546479E+04  1.879281E+05 -1.413304E-09  4.141017E-11
       104  17  6.719528E+05  5.682613E+04  5.018393E+04  1.674106E+05 -2.749314E-10 -1.745356E-10
       104  18  8.592463E+05  1.031792E+05  9.002259E+04  1.892708E+05 -2.028558E-10 -5.037769E-11
       104  19  3.784416E+05 -1.265411E+04 -3.792750E+03  1.885022E+05  2.399188E+04 -3.495995E+03
       104  20  1.917403E+05 -5.612221E+04 -3.457837E+04  1.666406E+05  2.476984E+04 -1.609939E+04
       104  21  5.492766E+03 -9.840477E+04 -6.455854E+04  1.871589E+05  2.554579E+04 -2.685240E+04
       104  22  4.323113E+05  4.056201E+01  5.835550E+03  1.882152E+05  1.256016E+03 -3.503102E+03
       104  23  4.318181E+05  3.536007E+02  7.803556E+03  1.670256E+05  5.147767E+03 -1.610378E+04
       104  24  4.322808E+05  2.392664E+03  1.273584E+04  1.882146E+05  9.037689E+03 -2.685448E+04
       104  25  4.861850E+05  1.273535E+04  1.546568E+04  1.879281E+05 -2.148177E+04 -3.510188E+03
       104  26  6.719530E+05  5.682646E+04  5.018481E+04  1.674108E+05 -1.448167E+04 -1.610819E+04
       104  27  8.592466E+05  1.031800E+05  9.002405E+04  1.892710E+05 -7.481447E+03 -2.685662E+04
       105   1 -1.152397E+05 -1.283773E+05 -8.390154E+04  1.909649E+05 -3.030099E+04  3.390891E+04
       105   2 -3.036054E+05 -1.641275E+05 -1.170952E+05  1.522830E+05 -6.909807E+03  3.385840E+04
       105   3 -4.886403E+05 -1.748762E+05 -1.592527E+05  1.545480E+05  1.646481E+04  1.095386E+04
       105   4  4.342581E+05  1.555571E+03  1.635466E+04  1.878934E+05 -1.121195E+04  3.390978E+04
       105   5  4.292320E+05  1.166576E+04  2.907065E+04  1.674243E+05 -2.620747E+04  3.385458E+04
       105   6  4.341587E+05  5.342466E+04  5.947119E+04  1.878951E+05 -4.121352E+04  1.095908E+04
       105   7  9.840501E+05  1.314716E+05  1.166001E+05  1.848191E+05  7.893531E+03  3.391046E+04
       105   8  1.162584E+06  1.874272E+05  1.752111E+05  1.825838E+05 -4.552744E+04  3.384983E+04
       105   9  1.357750E+06  2.816703E+05  2.781489E+05  2.212919E+05 -9.897714E+04  1.095811E+04
       105  10 -1.152410E+05 -1.283788E+05 -8.390543E+04  1.909657E+05 -1.861800E-10  1.509119E-11
       105  11 -3.036058E+05 -1.641288E+05 -1.170975E+05  1.522831E+05  5.750193E-10  3.071388E-10
       105  12 -4.886406E+05 -1.748764E+05 -1.592534E+05  1.545479E+05  5.613904E-10  3.488234E-10
       105  13  4.342577E+05  1.554302E+03  1.635227E+04  1.878937E+05  1.081398E-09  5.525318E-11
       105  14  4.292310E+05  1.166434E+04  2.906720E+04  1.674250E+05  1.975213E-10  2.800413E-10
       105  15  4.341568E+05  5.342408E+04  5.946777E+04  1.878954E+05  7.208141E-10 -2.061467E-10
       105  16  9.840497E+05  1.314704E+05  1.165978E+05  1.848189E+05  8.158415E-10  1.132757E-10
       105  17  1.162581E+06  1.874254E+05  1.752051E+05  1.825850E+05  6.689101E-11  2.578403E-10
       105  18  1.357739E+06  2.816676E+05  2.781303E+05  2.212927E+05 -2.461964E-10 -3.699112E-11
       105  19 -1.152397E+05 -1.283773E+05 -8.390154E+04  1.909649E+05  3.030099E+04 -3.390891E+04
       105  20 -3.036054E+05 -1.641275E+05 -1.170952E+05  1.522830E+05  6.909807E+03 -3.385840E+04
       105  21 -4.886403E+05 -1.748762E+05 -1.592527E+05  1.545480E+05 -1.646481E+04 -1.095386E+04
       105  22  4.342581E+05  1.555571E+03  1.635466E+04  1.878934E+05  1.121195E+04 -3.390978E+04
       105  23  4.292320E+05  1.166576E+04  2.907065E+04  1.674243E+05  2.620747E+04 -3.385458E+04
       105  24  4.341587E+05  5.342466E+04  5.947119E+04  1.878951E+05  4.121352E+04 -1.095908E+04
       105  25  9.840501E+05  1.314716E+05  1.166001E+05  1.848191E+05 -7.893531E+03 -3.391046E+04
       105  26  1.162584E+06  1.874272E+05  1.752111E+05  1.825838E+05  4.552744E+04 -3.384983E+04
       105  27  1.357750E+06  2.816703E+05  2.781489E+05  2.212919E+05  9.897714E+04 -1.095811E+04
       106   1 -3.714666E+05 -1.332239E+06 -3.651894E+05  3.722924E+05 -1.431944E+04 -1.105354E+05
       106   2 -2.409365E+05 -9.829143E+05 -2.215547E+05  3.181886E+05 -4.192517E+04 -4.148928E+04
       106   3 -1.486692E+05 -6.520706E+05 -1.325092E+05  3.393026E+05 -3.682265E+04  2.758237E+04
       106   4 -4.850105E+04 -2.875130E+04 -5.459366E+04  3.426518E+05 -1.423200E+04 -3.670213E+04
       106   5 -1.029207E+04 -2.412810E+04 -2.751553E+04  3.050159E+05 -4.189577E+04 -2.248152E+04
       106   6 -7.761623E+02 -2.853909E+04 -1.687864E+04  3.426005E+05 -3.687073E+04 -8.275854E+03
       106   7  2.743481E+05  1.276311E+06  2.559039E+05  3.129478E+05 -1.415176E+04  3.728570E+04
       106   8  2.202962E+05  9.355357E+05  1.664775E+05  2.918221E+05 -4.186721E+04 -3.444905E+03
       106   9  1.470953E+05  5.953721E+05  9.874036E+04  3.459016E+05 -3.691916E+04 -4.416919E+04
       106  10 -3.714701E+05 -1.332253E+06 -3.652128E+05  3.722911E+05  2.953560E-11 -1.995530E-11
       106  11 -2.409389E+05 -9.829166E+05 -2.215612E+05  3.181872E+05  9.862869E-10  1.010786E-09
       106  12 -1.486708E+05 -6.520717E+05 -1.325131E+05  3.393035E+05  1.469828E-09  9.369805E-10
       106  13 -4.850163E+04 -2.875280E+04 -5.459657E+04  3.426514E+05 -4.336233E-10  5.616636E-10
       106  14 -1.029408E+04 -2.412911E+04 -2.751977E+04  3.050152E+05  1.185892E-09  7.732957E-10
       106  15 -7.776403E+02 -2.853953E+04 -1.688132E+04  3.426003E+05  5.530145E-11  3.439304E-10
       106  16  2.743475E+05  1.276310E+06  2.559009E+05  3.129482E+05  3.270493E-11  5.770563E-10
       106  17  2.202943E+05  9.355352E+05  1.664742E+05  2.918219E+05 -4.407067E-11 -8.491990E-10
       106  18  1.470933E+05  5.953697E+05  9.873414E+04  3.459003E+05  2.875701E-10 -2.254707E-10
       106  19 -3.714666E+05 -1.332239E+06 -3.651894E+05  3.722924E+05  1.431944E+04  1.105354E+05
       106  20 -2.409365E+05 -9.829143E+05 -2.215547E+05  3.181886E+05  4.192517E+04  4.148928E+04
       106  21 -1.486692E+05 -6.520706E+05 -1.325092E+05  3.393026E+05  3.682265E+04 -2.758237E+04
       106  22 -4.850105E+04 -2.875130E+04 -5.459366E+04  3.426518E+05  1.423200E+04  3.670213E+04
       106  23 -1.029207E+04 -2.412810E+04 -2.751553E+04  3.050159E+05  4.189577E+04  2.248152E+04
       106  24 -7.761623E+02 -2.853909E+04 -1.687864E+04  3.426005E+05  3.687073E+04  8.275854E+03
       106  25  2.743481E+05  1.276311E+06  2.559039E+05  3.129478E+05  1.415176E+04 -3.728570E+04
       106  26  2.202962E+05  9.355357E+05  1.664775E+05  2.918221E+05  4.186721E+04  3.444905E+03
       106  27  1.470953E+05  5.953721E+05  9.874036E+04  3.459016E+05  3.691916E+04  4.416919E+04
       107   1 -9.629212E+04 -4.270343E+05 -8.849212E+04  3.439254E+05 -2.361793E+04  2.648878E+04
       107   2 -1.406982E+04 -8.622556E+04 -2.240594E+04  3.043962E+05 -4.183987E+03  3.287291E+04
       107   3  6.518257E+04  2.529673E+05  3.872855E+04  3.420381E+05  1.549970E+04  3.925922E+04
       107   4 -1.399004E+03 -2.685561E+04 -1.429625E+04  3.430392E+05 -2.366490E+04 -5.924465E+03
       107   5  5.648514E+01 -2.602141E+04 -1.198451E+04  3.044536E+05 -4.232134E+03  3.390317E+01
       107   6 -1.378378E+03 -2.684211E+04 -1.432845E+04  3.430392E+05  1.545015E+04  5.991147E+03
       107   7  9.348550E+04  3.734806E+05  5.989683E+04  3.421524E+05 -2.371175E+04 -3.835808E+04
       107   8  1.418318E+04  3.418861E+04 -1.559157E+03  3.045110E+05 -4.280283E+03 -3.280819E+04
       107   9 -6.794331E+04 -3.065736E+05 -6.738478E+04  3.440397E+05  1.540048E+04 -2.726230E+04
       107  10 -9.629291E+04 -4.270352E+05 -8.849449E+04  3.439259E+05  7.579371E-10  9.284160E-11
       107  11 -1.407013E+04 -8.622672E+04 -2.240800E+04  3.043963E+05  4.398517E-10  1.448734E-09
       107  12  6.518190E+04  2.529656E+05  3.872521E+04  3.420376E+05  7.201251E-10  1.068211E-09
       107  13 -1.399614E+03 -2.685580E+04 -1.429737E+04  3.430391E+05  2.205382E-10  9.946551E-10
       107  14  5.646590E+01 -2.602141E+04 -1.198454E+04  3.044536E+05 -1.136433E-09  1.059511E-09
       107  15 -1.378644E+03 -2.684221E+04 -1.432897E+04  3.430391E+05  7.297135E-10  3.684616E-10
       107  16  9.348450E+04  3.734789E+05  5.989301E+04  3.421516E+05  6.769312E-10  8.831228E-10
       107  17  1.418287E+04  3.418745E+04 -1.561214E+03  3.045109E+05 -2.036047E-10 -1.201041E-09
       107  18 -6.794376E+04 -3.065745E+05 -6.738663E+04  3.440401E+05 -4.251970E-10 -3.037328E-10
       107  19 -9.629212E+04 -4.270343E+05 -8.849212E+04  3.439254E+05  2.361793E+04 -2.648878E+04
       107  20 -1.406982E+04 -8.622556E+04 -2.240594E+04  3.043962E+05  4.183987E+03 -3.287291E+04
       107  21  6.518257E+04  2.529673E+05  3.872855E+04  3.420381E+05 -1.549970E+04 -3.925922E+04
       107  22 -1.399004E+03 -2.685561E+04 -1.429625E+04  3.430392E+05  2.366490E+04  5.924465E+03
       107  23  5.648514E+01 -2.602141E+04 -1.198451E+04  3.044536E+05  4.232134E+03 -3.390317E+01
       107  24 -1.378378E+03 -2.684211E+04 -1.432845E+04  3.430392E+05 -1.545015E+04 -5.991147E+03
       107  25  9.348550E+04  3.734806E+05  5.989683E+04  3.421524E+05  2.371175E+04  3.835808E+04
       107  26  1.418318E+04  3.418861E+04 -1.559157E+03  3.045110E+05  4.280283E+03  3.280819E+04
       107  27 -6.794331E+04 -3.065736E+05 -6.738478E+04  3.440397E+05 -1.540048E+04  2.726230E+04
       108   1  1.187517E+05  4.746984E+05  7.737706E+04  3.458621E+05  2.883917E+04  4.472739E+04
       108   2  1.916587E+05  8.152673E+05  1.432978E+05  2.916424E+05  3.549641E+04  8.805341E+03
       108   3  2.444453E+05  1.155549E+06  2.275357E+05  3.128277E+05  1.231161E+04 -2.711920E+04
       108   4 -7.374786E+02 -2.853221E+04 -1.693125E+04  3.426444E+05  2.878758E+04  8.348372E+03
       108   5 -1.027265E+04 -2.406988E+04 -2.762034E+04  3.049612E+05  3.551810E+04  2.260182E+04
       108   6 -4.864660E+04 -2.871806E+04 -5.482605E+04  3.426979E+05  1.238616E+04  3.687138E+04
       108   7 -1.202405E+05 -5.315153E+05 -1.112455E+05  3.394291E+05  2.873633E+04 -2.800192E+04
       108   8 -2.122472E+05 -8.627368E+05 -1.985747E+05  3.182613E+05  3.554040E+04  3.637999E+04
       108   9 -3.418341E+05 -1.211689E+06 -3.372704E+05  3.725102E+05  1.246695E+04  1.007406E+05
       108  10  1.187502E+05  4.746961E+05  7.737174E+04  3.458611E+05  8.979989E-10 -6.153752E-10
       108  11  1.916573E+05  8.152669E+05  1.432953E+05  2.916421E+05  1.039709E-10  1.061070E-09
       108  12  2.444450E+05  1.155548E+06  2.275340E+05  3.128280E+05 -5.130945E-10  1.090453E-09
       108  13 -7.383870E+02 -2.853251E+04 -1.693294E+04  3.426442E+05  1.253746E-09  9.649260E-10
       108  14 -1.027415E+04 -2.407076E+04 -2.762366E+04  3.049605E+05  7.802021E-10  8.580463E-10
       108  15 -4.864713E+04 -2.871956E+04 -5.482889E+04  3.426975E+05 -1.474554E-11  2.479997E-10
       108  16 -1.202416E+05 -5.315163E+05 -1.112486E+05  3.394298E+05 -1.620884E-10  1.628569E-09
       108  17 -2.122489E+05 -8.627385E+05 -1.985795E+05  3.182602E+05  2.289176E-10 -9.014297E-10
       108  18 -3.418370E+05 -1.211700E+06 -3.372898E+05  3.725092E+05 -5.100558E-10 -5.940155E-10
       108  19  1.187517E+05  4.746984E+05  7.737706E+04  3.458621E+05 -2.883917E+04 -4.472739E+04
       108  20  1.916587E+05  8.152673E+05  1.432978E+05  2.916424E+05 -3.549641E+04 -8.805341E+03
       108  21  2.444453E+05  1.155549E+06  2.275357E+05  3.128277E+05 -1.231161E+04  2.711920E+04
       108  22 -7.374786E+02 -2.853221E+04 -1.693125E+04  3.426444E+05 -2.878758E+04 -8.348372E+03
       108  23 -1.027265E+04 -2.406988E+04 -2.762034E+04  3.049612E+05 -3.551810E+04 -2.260182E+04
       108  24 -4.864660E+04 -2.871806E+04 -5.482605E+04  3.426979E+05 -1.238616E+04 -3.687138E+04
       108  25 -1.202405E+05 -5.315153E+05 -1.112455E+05  3.394291E+05 -2.873633E+04  2.800192E+04
       108  26 -2.122472E+05 -8.627368E+05 -1.985747E+05  3.182613E+05 -3.554040E+04 -3.637999E+04
       108  27 -3.418341E+05 -1.211689E+06 -3.372704E+05  3.725102E+05 -1.246695E+04 -1.007406E+05
       109   1  1.438493E+06  3.099004E+05  3.016754E+05  2.853255E+05  8.890823E+04 -1.296620E+04
       109   2  1.164978E+06  2.154524E+05  1.900228E+05  2.467513E+05  3.327971E+04 -3.910535E+04
       109   3  9.049747E+05  1.453876E+05  1.206364E+05  2.669142E+05 -2.231095E+04 -3.669043E+04
       109   4  2.940599E+05  2.692508E+04  3.004173E+04  2.683972E+05  2.088417E+04 -1.297345E+04
       109   5  2.915736E+05  5.842169E+03  1.463761E+04  2.390294E+05  1.333251E+04 -3.911378E+04
       109   6  2.942143E+05  8.303004E+02  8.174718E+03  2.683994E+05  5.793540E+03 -3.668330E+04
       109   7 -8.491619E+05 -2.561408E+05 -2.416657E+05  2.514999E+05 -4.701537E+04 -1.297702E+04
       109   8 -5.811037E+05 -2.038147E+05 -1.607849E+05  2.313184E+05 -6.587233E+03 -3.912172E+04
       109   9 -3.161829E+05 -1.437478E+05 -1.042994E+05  2.698829E+05  3.387114E+04 -3.667603E+04
       109  10  1.438484E+06  3.098981E+05  3.016603E+05  2.853264E+05  3.488328E-10  8.268941E-11
       109  11  1.164977E+06  2.154505E+05  1.900178E+05  2.467523E+05 -4.330723E-10 -3.289403E-10
       109  12  9.049738E+05  1.453861E+05  1.206329E+05  2.669135E+05  7.603822E-11 -5.868607E-10
       109  13  2.940594E+05  2.692478E+04  3.004060E+04  2.683974E+05 -8.842686E-10 -4.662392E-10
       109  14  2.915730E+05  5.840478E+03  1.463440E+04  2.390298E+05  2.075699E-10 -3.907760E-10
       109  15  2.942139E+05  8.288461E+02  8.172125E+03  2.683995E+05  4.357114E-10 -4.304549E-10
       109  16 -8.491643E+05 -2.561416E+05 -2.416702E+05  2.514994E+05 -8.492956E-10 -4.239061E-10
       109  17 -5.811042E+05 -2.038163E+05 -1.607878E+05  2.313182E+05  8.286349E-11 -4.179269E-10
       109  18 -3.161845E+05 -1.437496E+05 -1.043041E+05  2.698839E+05 -6.733921E-11 -5.049675E-10
       109  19  1.438493E+06  3.099004E+05  3.016754E+05  2.853255E+05 -8.890823E+04  1.296620E+04
       109  20  1.164978E+06  2.154524E+05  1.900228E+05  2.467513E+05 -3.327971E+04  3.910535E+04
       109  21  9.049747E+05  1.453876E+05  1.206364E+05  2.669142E+05  2.231095E+04  3.669043E+04
       109  22  2.940599E+05  2.692508E+04  3.004173E+04  2.683972E+05 -2.088417E+04  1.297345E+04
       109  23  2.915736E+05  5.842169E+03  1.463761E+04  2.390294E+05 -1.333251E+04  3.911378E+04
       109  24  2.942143E+05  8.303004E+02  8.174718E+03  2.683994E+05 -5.793540E+03  3.668330E+04
       109  25 -8.491619E+05 -2.561408E+05 -2.416657E+05  2.514999E+05  4.701537E+04  1.297702E+04
       109  26 -5.811037E+05 -2.038147E+05 -1.607849E+05  2.313184E+05  6.587233E+03  3.912172E+04
       109  27 -3.161829E+05 -1.437478E+05 -1.042994E+05  2.698829E+05 -3.387114E+04  3.667603E+04
       110   1  7.287805E+05  1.043406E+05  8.625632E+04  2.693827E+05 -2.016510E+04 -2.640785E+04
       110   2  4.618141E+05  4.016598E+04  3.441810E+04  2.387250E+05 -2.578755E+04 -1.049022E+04
       110   3  1.960501E+05 -2.249030E+04 -1.338314E+04  2.686127E+05 -3.140926E+04  7.677528E+03
       110   4  2.932149E+05  1.288618E+03  6.303765E+03  2.688018E+05  4.708410E+03 -2.639893E+04
       110   5  2.929932E+05  2.712483E+02  3.691796E+03  2.385288E+05  2.864554E+03 -1.047818E+04
       110   6  2.932449E+05  1.190909E+02  2.493323E+03  2.688023E+05  1.019096E+03  7.693091E+03
       110   7 -1.421654E+05 -1.017738E+05 -7.365425E+04  2.682212E+05  2.956495E+04 -2.639005E+04
       110   8  1.242016E+05 -3.962465E+04 -2.703256E+04  2.383326E+05  3.150908E+04 -1.046617E+04
       110   9  3.904513E+05  2.272856E+04  1.837347E+04  2.689918E+05  3.345235E+04  7.708672E+03
       110  10  7.287799E+05  1.043398E+05  8.625425E+04  2.693823E+05  7.500586E-11 -2.710278E-10
       110  11  4.618134E+05  4.016569E+04  3.441664E+04  2.387248E+05 -6.051590E-10 -5.912554E-10
       110  12  1.960490E+05 -2.249063E+04 -1.338511E+04  2.686129E+05  4.822860E-10  3.144569E-10
       110  13  2.932147E+05  1.287864E+03  6.302414E+03  2.688019E+05  5.510743E-10 -4.544937E-10
       110  14  2.929931E+05  2.711282E+02  3.691574E+03  2.385288E+05 -3.749344E-10 -4.444622E-10
       110  15  2.932449E+05  1.190271E+02  2.493210E+03  2.688023E+05  1.401790E-10  8.748767E-11
       110  16 -1.421665E+05 -1.017748E+05 -7.365720E+04  2.682218E+05  5.854160E-11 -7.513635E-10
       110  17  1.242005E+05 -3.962503E+04 -2.703464E+04  2.383329E+05  7.137787E-10 -5.731623E-10
       110  18  3.904501E+05  2.272820E+04  1.837126E+04  2.689916E+05  5.125656E-10  2.512168E-10
       110  19  7.287805E+05  1.043406E+05  8.625632E+04  2.693827E+05  2.016510E+04  2.640785E+04
       110  20  4.618141E+05  4.016598E+04  3.441810E+04  2.387250E+05  2.578755E+04  1.049022E+04
       110  21  1.960501E+05 -2.249030E+04 -1.338314E+04  2.686127E+05  3.140926E+04 -7.677528E+03
       110  22  2.932149E+05  1.288618E+03  6.303765E+03  2.688018E+05 -4.708410E+03  2.639893E+04
       110  23  2.929932E+05  2.712483E+02  3.691796E+03  2.385288E+05 -2.864554E+03  1.047818E+04
       110  24  2.932449E+05  1.190909E+02  2.493323E+03  2.688023E+05 -1.019096E+03 -7.693091E+03
       110  25 -1.421654E+05 -1.017738E+05 -7.365425E+04  2.682212E+05 -2.956495E+04  2.639005E+04
       110  26  1.242016E+05 -3.962465E+04 -2.703256E+04  2.383326E+05 -3.150908E+04  1.046617E+04
       110  27  3.904513E+05  2.272856E+04  1.837347E+04  2.689918E+05 -3.345235E+04 -7.708672E+03
       111   1  2.208002E+04 -6.345315E+04 -4.459235E+04  2.687277E+05 -3.191041E+04  1.915028E+04
       111   2 -2.439258E+05 -1.260879E+05 -9.166115E+04  2.383651E+05 -2.778894E+04  3.696715E+04
       111   3 -5.104758E+05 -1.892504E+05 -1.415388E+05  2.685073E+05 -2.366316E+04  5.170241E+04
       111   4  2.931916E+05  1.209254E+02  2.210475E+03  2.687922E+05  6.015478E+02  1.916462E+04
       111   5  2.929996E+05  5.394007E+01  2.124388E+03  2.385415E+05 -4.585124E+02  3.697363E+04
       111   6  2.930972E+05  3.627319E+02  2.827496E+03  2.687921E+05 -1.512655E+03  5.170250E+04
       111   7  5.643776E+05  6.369162E+04  4.901475E+04  2.688568E+05  3.312726E+04  1.917896E+04
       111   8  8.302091E+05  1.261805E+05  9.590248E+04  2.387180E+05  2.689485E+04  3.698013E+04
       111   9  1.097301E+06  1.899402E+05  1.471707E+05  2.690772E+05  2.066573E+04  5.170259E+04
       111  10  2.207883E+04 -6.345382E+04 -4.459495E+04  2.687282E+05  1.560133E-09  3.103996E-10
       111  11 -2.439270E+05 -1.260895E+05 -9.166517E+04  2.383660E+05  1.115795E-09 -2.049979E-10
       111  12 -5.104772E+05 -1.892534E+05 -1.415448E+05  2.685083E+05  8.226851E-10 -3.991879E-10
       111  13  2.931915E+05  1.205308E+02  2.209784E+03  2.687922E+05  1.615700E-09  2.346311E-10
       111  14  2.929993E+05  5.247183E+01  2.121819E+03  2.385415E+05  1.346346E-09 -1.445255E-10
       111  15  2.930965E+05  3.598604E+02  2.822468E+03  2.687922E+05  1.263354E-09 -2.617991E-10
       111  16  5.643763E+05  6.369093E+04  4.901200E+04  2.688563E+05 -6.772641E-10  2.700189E-10
       111  17  8.302079E+05  1.261788E+05  9.589855E+04  2.387172E+05  3.371787E-10  3.509197E-10
       111  18  1.097300E+06  1.899372E+05  1.471648E+05  2.690763E+05 -4.001358E-10 -1.015933E-10
       111  19  2.208002E+04 -6.345315E+04 -4.459235E+04  2.687277E+05  3.191041E+04 -1.915028E+04
       111  20 -2.439258E+05 -1.260879E+05 -9.166115E+04  2.383651E+05  2.778894E+04 -3.696715E+04
       111  21 -5.104758E+05 -1.892504E+05 -1.415388E+05  2.685073E+05  2.366316E+04 -5.170241E+04
       111  22  2.931916E+05  1.209254E+02  2.210475E+03  2.687922E+05 -6.015478E+02 -1.916462E+04
       111  23  2.929996E+05  5.394007E+01  2.124388E+03  2.385415E+05  4.585124E+02 -3.697363E+04
       111  24  2.930972E+05  3.627319E+02  2.827496E+03  2.687921E+05  1.512655E+03 -5.170250E+04
       111  25  5.643776E+05  6.369162E+04  4.901475E+04  2.688568E+05 -3.312726E+04 -1.917896E+04
       111  26  8.302091E+05  1.261805E+05  9.590248E+04  2.387180E+05 -2.689485E+04 -3.698013E+04
       111  27  1.097301E+06  1.899402E+05  1.471707E+05  2.690772E+05 -2.066573E+04 -5.170259E+04
       112   1 -6.855206E+05 -2.312208E+05 -1.740246E+05  2.688553E+05 -2.835694E+04  6.155489E+04
       112   2 -9.478292E+05 -2.953748E+05 -2.402012E+05  2.363671E+05  3.109672E+04  5.867686E+04
       112   3 -1.218700E+06 -3.640287E+05 -3.461931E+05  2.620296E+05  9.049307E+04  1.860762E+04
       112   4  2.934656E+05  1.232193E+02  3.452511E+03  2.682678E+05 -1.998199E+03  6.155104E+04
       112   5  2.922505E+05  1.938312E+03  5.765160E+03  2.391963E+05 -4.938750E+03  5.867037E+04
       112   6  2.932508E+05  1.009752E+04  1.161875E+04  2.682692E+05 -7.909633E+03  1.863313E+04
       112   7  1.273386E+06  2.314138E+05  1.808943E+05  2.676791E+05  2.440100E+04  6.154713E+04
       112   8  1.533805E+06  2.991584E+05  2.516603E+05  2.420310E+05 -4.104478E+04  5.866357E+04
       112   9  1.807325E+06  3.840651E+05  3.693085E+05  2.745238E+05 -1.065510E+05  1.865667E+04
       112  10 -6.855225E+05 -2.312251E+05 -1.740332E+05  2.688567E+05 -3.821577E-10  9.475457E-11
       112  11 -9.478311E+05 -2.953788E+05 -2.402095E+05  2.363656E+05  6.193300E-10  1.254946E-09
       112  12 -1.218709E+06 -3.640313E+05 -3.462092E+05  2.620282E+05  1.917072E-09  5.176852E-10
       112  13  2.934645E+05  1.191494E+02  3.445383E+03  2.682679E+05 -3.189164E-10  2.376168E-10
       112  14  2.922496E+05  1.934609E+03  5.758645E+03  2.391965E+05  5.885501E-10 -9.094569E-11
       112  15  2.932506E+05  1.009713E+04  1.161798E+04  2.682693E+05  6.450864E-10  1.424723E-10
       112  16  1.273385E+06  2.314096E+05  1.808860E+05  2.676779E+05  1.086682E-09  9.201467E-11
       112  17  1.533802E+06  2.991543E+05  2.516507E+05  2.420329E+05  1.102013E-10  3.019913E-11
       112  18  1.807313E+06  3.840617E+05  3.692866E+05  2.745254E+05 -1.449210E-09  6.221730E-10
       112  19 -6.855206E+05 -2.312208E+05 -1.740246E+05  2.688553E+05  2.835694E+04 -6.155489E+04
       112  20 -9.478292E+05 -2.953748E+05 -2.402012E+05  2.363671E+05 -3.109672E+04 -5.867686E+04
       112  21 -1.218700E+06 -3.640287E+05 -3.461931E+05  2.620296E+05 -9.049307E+04 -1.860762E+04
       112  22  2.934656E+05  1.232193E+02  3.452511E+03  2.682678E+05  1.998199E+03 -6.155104E+04
       112  23  2.922505E+05  1.938312E+03  5.765160E+03  2.391963E+05  4.938750E+03 -5.867037E+04
       112  24  2.932508E+05  1.009752E+04  1.161875E+04  2.682692E+05  7.909633E+03 -1.863313E+04
       112  25  1.273386E+06  2.314138E+05  1.808943E+05  2.676791E+05 -2.440100E+04 -6.154713E+04
       112  26  1.533805E+06  2.991584E+05  2.516603E+05  2.420310E+05  4.104478E+04 -5.866357E+04
       112  27  1.807325E+06  3.840651E+05  3.693085E+05  2.745238E+05  1.065510E+05 -1.865667E+04
       113   1 -4.049904E+05 -1.547404E+06 -3.977394E+05  4.193382E+05 -1.562481E+04 -1.164268E+05
       113   2 -2.622507E+05 -1.150617E+06 -2.403239E+05  3.601281E+05 -4.539801E+04 -4.136561E+04
       113   3 -1.586396E+05 -7.732794E+05 -1.416502E+05  3.866093E+05 -3.896458E+04  3.372927E+04
       113   4 -4.818254E+04 -1.077617E+05 -5.442876E+04  3.899615E+05 -1.552389E+04 -3.602595E+04
       113   5 -1.013948E+04 -1.031233E+05 -2.785157E+04  3.470880E+05 -4.536517E+04 -2.163708E+04
       113   6 -6.309024E+02 -1.074961E+05 -1.778984E+04  3.899078E+05 -3.902381E+04 -7.264306E+03
       113   7  3.084824E+05  1.333801E+06  2.887612E+05  3.605150E+05 -1.543076E+04  4.456092E+04
       113   8  2.419043E+05  9.454177E+05  1.845652E+05  3.340248E+05 -4.533320E+04 -1.875815E+03
       113   9  1.573532E+05  5.587204E+05  1.060581E+05  3.932097E+05 -3.908344E+04 -4.830075E+04
       113  10 -4.049943E+05 -1.547419E+06 -3.977654E+05  4.193368E+05 -5.023411E-11 -5.976825E-10
       113  11 -2.622533E+05 -1.150620E+06 -2.403310E+05  3.601266E+05  1.371715E-10 -4.740607E-10
       113  12 -1.586416E+05 -7.732810E+05 -1.416552E+05  3.866104E+05  3.183324E-10  2.435016E-10
       113  13 -4.818315E+04 -1.077632E+05 -5.443166E+04  3.899610E+05  7.064001E-10  5.723063E-10
       113  14 -1.014182E+04 -1.031243E+05 -2.785631E+04  3.470872E+05 -7.538555E-10 -7.674152E-10
       113  15 -6.325516E+02 -1.074966E+05 -1.779280E+04  3.899076E+05  4.344838E-10  1.825976E-09
       113  16  3.084816E+05  1.333798E+06  2.887570E+05  3.605156E+05 -3.163795E-10 -5.329921E-10
       113  17  2.419021E+05  9.454171E+05  1.845614E+05  3.340248E+05 -2.062287E-10  6.054692E-11
       113  18  1.573510E+05  5.587175E+05  1.060508E+05  3.932081E+05  6.113798E-10  1.353688E-10
       113  19 -4.049904E+05 -1.547404E+06 -3.977394E+05  4.193382E+05  1.562481E+04  1.164268E+05
       113  20 -2.622507E+05 -1.150617E+06 -2.403239E+05  3.601281E+05  4.539801E+04  4.136561E+04
       113  21 -1.586396E+05 -7.732794E+05 -1.416502E+05  3.866093E+05  3.896458E+04 -3.372927E+04
       113  22 -4.818254E+04 -1.077617E+05 -5.442876E+04  3.899615E+05  1.552389E+04  3.602595E+04
       113  23 -1.013948E+04 -1.031233E+05 -2.785157E+04  3.470880E+05  4.536517E+04  2.163708E+04
       113  24 -6.309024E+02 -1.074961E+05 -1.778984E+04  3.899078E+05  3.902381E+04  7.264306E+03
       113  25  3.084824E+05  1.333801E+06  2.887612E+05  3.605150E+05  1.543076E+04 -4.456092E+04
       113  26  2.419043E+05  9.454177E+05  1.845652E+05  3.340248E+05  4.533320E+04  1.875815E+03
       113  27  1.573532E+05  5.587204E+05  1.060581E+05  3.932097E+05  3.908344E+04  4.830075E+04
       114   1 -9.891066E+04 -5.174754E+05 -9.234296E+04  3.914000E+05 -2.388413E+04  3.247446E+04
       114   2 -5.717062E+03 -1.295150E+05 -1.866437E+04  3.463416E+05 -1.669032E+03  3.981627E+04
       114   3  8.395958E+04  2.565798E+05  4.929310E+04  3.891307E+05  2.064882E+04  4.716189E+04
       114   4 -1.214831E+03 -1.058817E+05 -1.558791E+04  3.903918E+05 -2.394213E+04 -4.725950E+03
       114   5  6.220998E+01 -1.048880E+05 -1.440276E+04  3.464684E+05 -1.727423E+03  2.434261E+03
       114   6 -2.139335E+03 -1.058755E+05 -1.881328E+04  3.903932E+05  2.058977E+04  9.593946E+03
       114   7  9.647198E+04  3.058790E+05  6.116512E+04  3.893829E+05 -2.399999E+04 -4.195041E+04
       114   8  5.842200E+03 -8.025737E+04 -1.013592E+04  3.465953E+05 -1.785827E+03 -3.494919E+04
       114   9 -8.824510E+04 -4.682009E+05 -8.692007E+04  3.916549E+05  2.053055E+04 -2.795261E+04
       114  10 -9.891156E+04 -5.174767E+05 -9.234602E+04  3.914006E+05  8.759452E-10 -2.188258E-09
       114  11 -5.717491E+03 -1.295167E+05 -1.866735E+04  3.463416E+05  8.637273E-10 -1.601195E-09
       114  12  8.395852E+04  2.565773E+05  4.928812E+04  3.891299E+05  2.661901E-10 -7.971394E-10
       114  13 -1.215452E+03 -1.058819E+05 -1.558903E+04  3.903918E+05  2.437439E-10  1.041445E-09
       114  14  6.220518E+01 -1.048880E+05 -1.440278E+04  3.464684E+05 -5.258521E-11 -1.022915E-09
       114  15 -2.139815E+03 -1.058758E+05 -1.881425E+04  3.903931E+05  3.106898E-10  2.016098E-09
       114  16  9.647089E+04  3.058769E+05  6.116073E+04  3.893821E+05  5.522852E-10  9.111502E-11
       114  17  5.841869E+03 -8.025868E+04 -1.013822E+04  3.465953E+05 -5.385672E-10  1.062100E-09
       114  18 -8.824577E+04 -4.682019E+05 -8.692233E+04  3.916554E+05  1.177241E-09  1.130956E-09
       114  19 -9.891066E+04 -5.174754E+05 -9.234296E+04  3.914000E+05  2.388413E+04 -3.247446E+04
       114  20 -5.717062E+03 -1.295150E+05 -1.866437E+04  3.463416E+05  1.669032E+03 -3.981627E+04
       114  21  8.395958E+04  2.565798E+05  4.929310E+04  3.891307E+05 -2.064882E+04 -4.716189E+04
       114  22 -1.214831E+03 -1.058817E+05 -1.558791E+04  3.903918E+05  2.394213E+04  4.725950E+03
       114  23  6.220998E+01 -1.048880E+05 -1.440276E+04  3.464684E+05  1.727423E+03 -2.434261E+03
       114  24 -2.139335E+03 -1.058755E+05 -1.881328E+04  3.903932E+05 -2.058977E+04 -9.593946E+03
       114  25  9.647198E+04  3.058790E+05  6.116512E+04  3.893829E+05  2.399999E+04  4.195041E+04
       114  26  5.842200E+03 -8.025737E+04 -1.013592E+04  3.465953E+05  1.785827E+03  3.494919E+04
       114  27 -8.824510E+04 -4.682009E+05 -8.692007E+04  3.916549E+05 -2.053055E+04  2.795261E+04
       115   1  1.451633E+05  5.085280E+05  9.228669E+04  3.944560E+05  3.578772E+04  5.395170E+04
       115   2  2.256729E+05  8.972636E+05  1.645534E+05  3.282457E+05  4.274249E+04  1.494288E+04
       115   3  2.758064E+05  1.283611E+06  2.545833E+05  3.477915E+05  1.469713E+04 -2.407201E+04
       115   4 -1.213973E+03 -1.083176E+05 -2.284355E+04  3.899252E+05  3.572650E+04  1.271203E+04
       115   5 -1.463422E+04 -1.020657E+05 -3.842421E+04  3.470749E+05  4.277186E+04  3.255236E+04
       115   6 -6.866666E+04 -1.085720E+05 -7.710267E+04  3.900028E+05  1.478831E+04  5.240936E+04
       115   7 -1.476122E+05 -7.247916E+05 -1.379837E+05  3.853988E+05  3.566585E+04 -2.848772E+04
       115   8 -2.550019E+05 -1.100444E+06 -2.414526E+05  3.658728E+05  4.280233E+04  5.013402E+04
       115   9 -4.132696E+05 -1.498962E+06 -4.089016E+05  4.321181E+05  1.489004E+04  1.287202E+05
       115  10  1.451612E+05  5.085246E+05  9.227882E+04  3.944545E+05  3.775532E-10 -1.328272E-09
       115  11  2.256708E+05  8.972629E+05  1.645495E+05  3.282452E+05  1.051337E-10 -7.508617E-10
       115  12  2.758060E+05  1.283610E+06  2.545818E+05  3.477918E+05 -6.815516E-11 -5.158216E-10
       115  13 -1.215386E+03 -1.083181E+05 -2.284625E+04  3.899249E+05  9.849511E-10  1.026927E-09
       115  14 -1.463647E+04 -1.020673E+05 -3.842964E+04  3.470738E+05  9.202203E-10 -7.942151E-10
       115  15 -6.866763E+04 -1.085751E+05 -7.710824E+04  3.900022E+05 -6.619454E-12  1.120146E-09
       115  16 -1.476138E+05 -7.247928E+05 -1.379876E+05  3.853996E+05  5.115666E-10 -6.233175E-10
       115  17 -2.550046E+05 -1.100447E+06 -2.414608E+05  3.658710E+05  7.396641E-10  3.162710E-10
       115  18 -4.132743E+05 -1.498980E+06 -4.089332E+05  4.321166E+05 -1.600461E-10  6.829549E-10
       115  19  1.451633E+05  5.085280E+05  9.228669E+04  3.944560E+05 -3.578772E+04 -5.395170E+04
       115  20  2.256729E+05  8.972636E+05  1.645534E+05  3.282457E+05 -4.274249E+04 -1.494288E+04
       115  21  2.758064E+05  1.283611E+06  2.545833E+05  3.477915E+05 -1.469713E+04  2.407201E+04
       115  22 -1.213973E+03 -1.083176E+05 -2.284355E+04  3.899252E+05 -3.572650E+04 -1.271203E+04
       115  23 -1.463422E+04 -1.020657E+05 -3.842421E+04  3.470749E+05 -4.277186E+04 -3.255236E+04
       115  24 -6.866666E+04 -1.085720E+05 -7.710267E+04  3.900028E+05 -1.478831E+04 -5.240936E+04
       115  25 -1.476122E+05 -7.247916E+05 -1.379837E+05  3.853988E+05 -3.566585E+04  2.848772E+04
       115  26 -2.550019E+05 -1.100444E+06 -2.414526E+05  3.658728E+05 -4.280233E+04 -5.013402E+04
       115  27 -4.132696E+05 -1.498962E+06 -4.089016E+05  4.321181E+05 -1.489004E+04 -1.287202E+05
       116   1 -3.073702E+05 -9.834150E+05 -2.960992E+05  4.695283E+05 -1.212717E+04 -4.594592E+04
       116   2 -1.966633E+05 -5.020902E+05 -1.651788E+05  4.230535E+05 -3.159317E+04  6.282678E+03
       116   3 -8.462500E+04 -2.715764E+04 -6.800789E+04  4.831800E+05 -1.716995E+04  5.852613E+04
       116   4  1.960120E+04  3.342880E+05  2.028358E+04  4.824085E+05 -1.202561E+04  1.532263E+04
       116   5  5.191913E+03  3.327875E+05  9.003037E+03  4.291289E+05 -3.158213E+04  1.068388E+04
       116   6  2.002193E+03  3.345505E+05  3.494156E+03  4.824353E+05 -1.727147E+04  6.019076E+03
       116   7  3.464489E+05  1.653590E+06  3.365573E+05  4.953150E+05 -1.192167E+04  7.672082E+04
       116   8  2.070028E+05  1.168325E+06  1.831465E+05  4.352121E+05 -3.157103E+04  1.509090E+04
       116   9  8.862292E+04  6.963896E+05  7.500013E+04  4.816900E+05 -1.737283E+04 -4.651793E+04
       116  10 -3.073709E+05 -9.834173E+05 -2.961035E+05  4.695279E+05 -2.266596E-10  7.586770E-10
       116  11 -1.966644E+05 -5.020905E+05 -1.651807E+05  4.230536E+05  1.815251E-09  2.874082E-09
       116  12 -8.462624E+04 -2.716140E+04 -6.801488E+04  4.831808E+05  7.844063E-10  1.084098E-09
       116  13  1.960098E+04  3.342877E+05  2.028287E+04  4.824087E+05  2.665914E-10 -2.721665E-11
       116  14  5.190811E+03  3.327871E+05  9.000946E+03  4.291292E+05  8.868020E-10 -5.266964E-11
       116  15  2.001863E+03  3.345503E+05  3.493527E+03  4.824353E+05  4.360052E-10  1.660195E-09
       116  16  3.464471E+05  1.653584E+06  3.365460E+05  4.953157E+05 -3.721249E-10 -7.034411E-10
       116  17  2.070016E+05  1.168325E+06  1.831442E+05  4.352125E+05  7.801506E-10 -1.423572E-09
       116  18  8.862202E+04  6.963872E+05  7.499550E+04  4.816893E+05  1.044368E-09  5.509087E-10
       116  19 -3.073702E+05 -9.834150E+05 -2.960992E+05  4.695283E+05  1.212717E+04  4.594592E+04
       116  20 -1.966633E+05 -5.020902E+05 -1.651788E+05  4.230535E+05  3.159317E+04 -6.282678E+03
       116  21 -8.462500E+04 -2.715764E+04 -6.800789E+04  4.831800E+05  1.716995E+04 -5.852613E+04
       116  22  1.960120E+04  3.342880E+05  2.028358E+04  4.824085E+05  1.202561E+04 -1.532263E+04
       116  23  5.191913E+03  3.327875E+05  9.003037E+03  4.291289E+05  3.158213E+04 -1.068388E+04
       116  24  2.002193E+03  3.345505E+05  3.494156E+03  4.824353E+05  1.727147E+04 -6.019076E+03
       116  25  3.464489E+05  1.653590E+06  3.365573E+05  4.953150E+05  1.192167E+04 -7.672082E+04
       116  26  2.070028E+05  1.168325E+06  1.831465E+05  4.352121E+05  3.157103E+04 -1.509090E+04
       116  27  8.862292E+04  6.963896E+05  7.500013E+04  4.816900E+05  1.737283E+04  4.651793E+04
       117   1 -1.005613E+04  2.856319E+05 -1.258185E+04  4.828082E+05  1.940584E+03  5.483082E+04
       117   2  1.018571E+05  7.637821E+05  7.164930E+04  4.288084E+05  3.029360E+04  5.317809E+04
       117   3  2.138442E+05  1.242163E+06  1.568917E+05  4.832932E+05  5.687012E+04  5.153505E+04
       117   4  2.366766E+03  3.337359E+05  1.439748E+03  4.828547E+05  1.843769E+03  5.667305E+03
       117   5  1.067204E+03  3.339243E+05 -2.724816E+03  4.286126E+05  3.021020E+04  6.982502E+03
       117   6 -6.644547E+02  3.336015E+05 -7.943644E+03  4.828599E+05  5.679907E+04  8.308591E+03
       117   7  1.479076E+04  3.818470E+05  1.547022E+04  4.829012E+05  1.746951E+03 -4.350009E+04
       117   8 -9.973144E+04 -9.574796E+04 -7.709731E+04  4.284169E+05  3.012679E+04 -3.918212E+04
       117   9 -2.152185E+05 -5.741542E+05 -1.728048E+05  4.824266E+05  5.672800E+04 -3.485645E+04
       117  10 -1.005694E+04  2.856286E+05 -1.258751E+04  4.828081E+05  1.534861E-10  3.656070E-10
       117  11  1.018553E+05  7.637789E+05  7.164227E+04  4.288071E+05  5.858903E-10  2.990348E-09
       117  12  2.138400E+05  1.242159E+06  1.568807E+05  4.832908E+05  7.042581E-11  1.245494E-09
       117  13  2.366753E+03  3.337358E+05  1.439681E+03  4.828547E+05  1.357996E-09 -2.084536E-11
       117  14  1.066211E+03  3.339240E+05 -2.726623E+03  4.286125E+05  2.500390E-10 -2.507010E-12
       117  15 -6.679375E+02  3.336006E+05 -7.949836E+03  4.828595E+05  5.396657E-10  1.583604E-09
       117  16  1.479025E+04  3.818450E+05  1.546666E+04  4.829013E+05  7.098110E-10 -3.834759E-10
       117  17 -9.973283E+04 -9.574985E+04 -7.710191E+04  4.284179E+05  7.897273E-10 -1.383600E-09
       117  18 -2.152223E+05 -5.741564E+05 -1.728131E+05  4.824282E+05  3.952190E-10  1.267808E-10
       117  19 -1.005613E+04  2.856319E+05 -1.258185E+04  4.828082E+05 -1.940584E+03 -5.483082E+04
       117  20  1.018571E+05  7.637821E+05  7.164930E+04  4.288084E+05 -3.029360E+04 -5.317809E+04
       117  21  2.138442E+05  1.242163E+06  1.568917E+05  4.832932E+05 -5.687012E+04 -5.153505E+04
       117  22  2.366766E+03  3.337359E+05  1.439748E+03  4.828547E+05 -1.843769E+03 -5.667305E+03
       117  23  1.067204E+03  3.339243E+05 -2.724816E+03  4.286126E+05 -3.021020E+04 -6.982502E+03
       117  24 -6.644547E+02  3.336015E+05 -7.943644E+03  4.828599E+05 -5.679907E+04 -8.308591E+03
       117  25  1.479076E+04  3.818470E+05  1.547022E+04  4.829012E+05 -1.746951E+03  4.350009E+04
       117  26 -9.973144E+04 -9.574796E+04 -7.709731E+04  4.284169E+05 -3.012679E+04  3.918212E+04
       117  27 -2.152185E+05 -5.741542E+05 -1.728048E+05  4.824266E+05 -5.672800E+04  3.485645E+04
       118   1  2.889450E+05  1.555494E+06  2.123805E+05  4.858941E+05  7.505266E+04  5.874051E+04
       118   2  3.976336E+05  2.030318E+06  3.170555E+05  4.194735E+05  7.707977E+04 -2.084853E+04
       118   3  4.984686E+05  2.513920E+06  4.715028E+05  4.582445E+05  2.513521E+04 -1.004890E+05
       118   4 -2.050272E+02  3.319894E+05 -1.118403E+04  4.821281E+05  7.498183E+04  9.643549E+03
       118   5 -8.621912E+03  3.353245E+05 -2.176432E+04  4.295435E+05  7.715244E+04  2.096067E+04
       118   6 -4.065594E+04  3.314719E+05 -4.560556E+04  4.821755E+05  2.528039E+04  3.228749E+04
       118   7 -2.894383E+05 -8.900586E+05 -2.348002E+05  4.783686E+05  7.491150E+04 -3.935945E+04
       118   8 -4.150522E+05 -1.356929E+06 -3.607224E+05  4.395838E+05  7.722661E+04  6.265823E+04
       118   9 -5.801104E+05 -1.846575E+06 -5.629786E+05  5.060195E+05  2.543618E+04  1.646009E+05
       118  10  2.889380E+05  1.555489E+06  2.123635E+05  4.858905E+05  2.227676E-10  8.002115E-11
       118  11  3.976271E+05  2.030316E+06  3.170435E+05  4.194748E+05 -5.629553E-10  1.605525E-09
       118  12  4.984652E+05  2.513909E+06  4.714827E+05  4.582465E+05 -3.693759E-10  2.615702E-10
       118  13 -2.110896E+02  3.319878E+05 -1.119477E+04  4.821275E+05  2.840033E-10  8.111292E-11
       118  14 -8.628421E+03  3.353224E+05 -2.177632E+04  4.295422E+05  1.715158E-10  5.605301E-11
       118  15 -4.065690E+04  3.314706E+05 -4.560872E+04  4.821748E+05  4.102509E-10  5.100122E-10
       118  16 -2.894447E+05 -8.900618E+05 -2.348137E+05  4.783710E+05  2.134163E-10 -6.101622E-11
       118  17 -4.150596E+05 -1.356934E+06 -3.607410E+05  4.395799E+05  8.341962E-11 -7.089404E-10
       118  18 -5.801184E+05 -1.846604E+06 -5.630309E+05  5.060161E+05 -1.159353E-10  2.506300E-10
       118  19  2.889450E+05  1.555494E+06  2.123805E+05  4.858941E+05 -7.505266E+04 -5.874051E+04
       118  20  3.976336E+05  2.030318E+06  3.170555E+05  4.194735E+05 -7.707977E+04  2.084853E+04
       118  21  4.984686E+05  2.513920E+06  4.715028E+05  4.582445E+05 -2.513521E+04  1.004890E+05
       118  22 -2.050272E+02  3.319894E+05 -1.118403E+04  4.821281E+05 -7.498183E+04 -9.643549E+03
       118  23 -8.621912E+03  3.353245E+05 -2.176432E+04  4.295435E+05 -7.715244E+04 -2.096067E+04
       118  24 -4.065594E+04  3.314719E+05 -4.560556E+04  4.821755E+05 -2.528039E+04 -3.228749E+04
       118  25 -2.894383E+05 -8.900586E+05 -2.348002E+05  4.783686E+05 -7.491150E+04  3.935945E+04
       118  26 -4.150522E+05 -1.356929E+06 -3.607224E+05  4.395838E+05 -7.722661E+04 -6.265823E+04
       118  27 -5.801104E+05 -1.846575E+06 -5.629786E+05  5.060195E+05 -2.543618E+04 -1.646009E+05
       119   1  2.157217E+06  5.267479E+05  5.073413E+05  3.798844E+05  1.474690E+05 -2.546019E+04
       119   2  1.779532E+06  4.077648E+05  3.442829E+05  3.342470E+05  5.723950E+04 -7.979324E+04
       119   3  1.420465E+06  3.139182E+05  2.461690E+05  3.688738E+05 -3.286324E+04 -8.342668E+04
       119   4  9.006640E+04  1.622768E+04  1.896814E+04  3.701732E+05  1.314830E+04 -2.537974E+04
       119   5  8.840617E+04  2.913297E+03  9.223514E+03  3.300342E+05  8.376784E+03 -7.979237E+04
       119   6  9.046810E+04 -2.984078E+01  5.218972E+03  3.701655E+05  3.676024E+03 -8.344380E+04
       119   7 -1.973126E+06 -4.945883E+05 -4.696331E+05  3.604940E+05 -1.207288E+05 -2.529506E+04
       119   8 -1.599985E+06 -4.021108E+05 -3.259684E+05  3.258326E+05 -4.035590E+04 -7.979087E+04
       119   9 -1.237808E+06 -3.140764E+05 -2.357961E+05  3.714540E+05  4.013929E+04 -8.346078E+04
       119  10  2.157193E+06  5.267414E+05  5.072994E+05  3.798874E+05 -5.285558E-10 -4.592412E-11
       119  11  1.779527E+06  4.077570E+05  3.442648E+05  3.342507E+05 -1.321805E-10 -1.602420E-10
       119  12  1.420462E+06  3.139104E+05  2.461539E+05  3.688716E+05  3.476708E-10 -1.903919E-10
       119  13  9.006604E+04  1.622694E+04  1.896661E+04  3.701735E+05  3.374067E-10 -9.209497E-12
       119  14  8.840438E+04  2.906441E+03  9.211415E+03  3.300347E+05  6.787642E-10 -4.694303E-11
       119  15  9.046622E+04 -3.732188E+01  5.205860E+03  3.701658E+05  7.049240E-10 -2.857498E-10
       119  16 -1.973142E+06 -4.945929E+05 -4.696618E+05  3.604916E+05 -2.032191E-10  2.972591E-11
       119  17 -1.599988E+06 -4.021181E+05 -3.259834E+05  3.258300E+05  1.595975E-09  4.472235E-11
       119  18 -1.237811E+06 -3.140843E+05 -2.358122E+05  3.714567E+05 -2.152581E-10 -3.332022E-10
       119  19  2.157217E+06  5.267479E+05  5.073413E+05  3.798844E+05 -1.474690E+05  2.546019E+04
       119  20  1.779532E+06  4.077648E+05  3.442829E+05  3.342470E+05 -5.723950E+04  7.979324E+04
       119  21  1.420465E+06  3.139182E+05  2.461690E+05  3.688738E+05  3.286324E+04  8.342668E+04
       119  22  9.006640E+04  1.622768E+04  1.896814E+04  3.701732E+05 -1.314830E+04  2.537974E+04
       119  23  8.840617E+04  2.913297E+03  9.223514E+03  3.300342E+05 -8.376784E+03  7.979237E+04
       119  24  9.046810E+04 -2.984078E+01  5.218972E+03  3.701655E+05 -3.676024E+03  8.344380E+04
       119  25 -1.973126E+06 -4.945883E+05 -4.696331E+05  3.604940E+05  1.207288E+05  2.529506E+04
       119  26 -1.599985E+06 -4.021108E+05 -3.259684E+05  3.258326E+05  4.035590E+04  7.979087E+04
       119  27 -1.237808E+06 -3.140764E+05 -2.357961E+05  3.714540E+05 -4.013929E+04  8.346078E+04
       120   1  1.177338E+06  2.567798E+05  1.993416E+05  3.710735E+05 -2.779824E+04 -6.981591E+04
       120   2  8.086883E+05  1.687744E+05  1.280071E+05  3.291980E+05 -3.604446E+04 -4.942262E+04
       120   3  4.418444E+05  8.249665E+04  6.250239E+04  3.708251E+05 -4.429575E+04 -2.483014E+04
       120   4  8.985279E+04  3.869196E+02  4.034180E+03  3.708872E+05  2.975880E+03 -6.982390E+04
       120   5  8.971452E+04 -6.260666E+01  2.406877E+03  3.291329E+05  1.786569E+03 -4.942074E+04
       120   6  9.002710E+04 -1.613113E+00  1.713716E+03  3.708873E+05  5.875310E+02 -2.481572E+04
       120   7 -9.964798E+05 -2.560712E+05 -1.913153E+05  3.707008E+05  3.369769E+04 -6.983190E+04
       120   8 -6.287504E+05 -1.689269E+05 -1.232064E+05  3.290676E+05  3.957515E+04 -4.941885E+04
       120   9 -2.616645E+05 -8.250545E+04 -5.907165E+04  3.709495E+05  4.544617E+04 -2.480128E+04
       120  10  1.177336E+06  2.567743E+05  1.993310E+05  3.710720E+05 -3.547006E-11 -1.546543E-10
       120  11  8.086862E+05  1.687714E+05  1.280000E+05  3.291966E+05 -2.089223E-10 -6.684071E-13
       120  12  4.418421E+05  8.249546E+04  6.249755E+04  3.708242E+05  1.915069E-10  2.221976E-10
       120  13  8.985147E+04  3.816815E+02  4.025000E+03  3.708873E+05  6.755928E-10 -3.111993E-10
       120  14  8.971387E+04 -6.523042E+01  2.402281E+03  3.291329E+05  7.464778E-10 -6.938792E-11
       120  15  9.002694E+04 -2.274530E+00  1.712558E+03  3.708873E+05 -1.107080E-10  9.714777E-11
       120  16 -9.964824E+05 -2.560768E+05 -1.913267E+05  3.707027E+05  5.211787E-10 -4.388890E-10
       120  17 -6.287527E+05 -1.689299E+05 -1.232139E+05  3.290692E+05  1.422567E-09 -1.675623E-10
       120  18 -2.616669E+05 -8.250666E+04 -5.907669E+04  3.709504E+05  1.256593E-10 -3.943166E-11
       120  19  1.177338E+06  2.567798E+05  1.993416E+05  3.710735E+05  2.779824E+04  6.981591E+04
       120  20  8.086883E+05  1.687744E+05  1.280071E+05  3.291980E+05  3.604446E+04  4.942262E+04
       120  21  4.418444E+05  8.249665E+04  6.250239E+04  3.708251E+05  4.429575E+04  2.483014E+04
       120  22  8.985279E+04  3.869196E+02  4.034180E+03  3.708872E+05 -2.975880E+03  6.982390E+04
       120  23  8.971452E+04 -6.260666E+01  2.406877E+03  3.291329E+05 -1.786569E+03  4.942074E+04
       120  24  9.002710E+04 -1.613113E+00  1.713716E+03  3.708873E+05 -5.875310E+02  2.481572E+04
       120  25 -9.964798E+05 -2.560712E+05 -1.913153E+05  3.707008E+05 -3.369769E+04  6.983190E+04
       120  26 -6.287504E+05 -1.689269E+05 -1.232064E+05  3.290676E+05 -3.957515E+04  4.941885E+04
       120  27 -2.616645E+05 -8.250545E+04 -5.907165E+04  3.709495E+05 -4.544617E+04  2.480128E+04
       121   1  2.017061E+05  2.599248E+04  1.966433E+04  3.709103E+05 -4.447199E+04 -8.997243E+03
       121   2 -1.655332E+05 -6.029954E+04 -4.464779E+04  3.290246E+05 -3.995686E+04  1.607032E+04
       121   3 -5.332905E+05 -1.472602E+05 -1.120507E+05  3.707104E+05 -3.544174E+04  3.798037E+04
       121   4  9.000745E+04  3.708843E+01  1.563793E+03  3.709007E+05  2.933273E+02 -8.980636E+03
       121   5  8.984380E+04  3.015382E+01  1.607388E+03  3.291162E+05 -5.075695E+02  1.608134E+04
       121   6  8.994562E+04  2.814900E+02  2.246977E+03  3.709007E+05 -1.305888E+03  3.798668E+04
       121   7 -2.167454E+04 -2.591786E+04 -1.652956E+04  3.708912E+05  4.505088E+04 -8.964028E+03
       121   8  3.452876E+05  6.035702E+04  4.786584E+04  3.292078E+05  3.895750E+04  1.609237E+04
       121   9  7.135615E+05  1.478017E+05  1.165332E+05  3.710910E+05  3.286335E+04  3.799301E+04
       121  10  2.017040E+05  2.599186E+04  1.966047E+04  3.709099E+05 -7.080504E-12  1.991720E-10
       121  11 -1.655349E+05 -6.030025E+04 -4.465128E+04  3.290251E+05 -6.680093E-11  1.127016E-10
       121  12 -5.332922E+05 -1.472621E+05 -1.120558E+05  3.707115E+05 -2.831434E-10  3.815845E-10
       121  13  9.000742E+04  3.700180E+01  1.563641E+03  3.709007E+05  1.142208E-09  1.637720E-10
       121  14  8.984373E+04  2.987604E+01  1.606902E+03  3.291162E+05 -3.922077E-11  2.468979E-10
       121  15  8.994523E+04  2.799399E+02  2.244262E+03  3.709007E+05 -3.945929E-10  2.447329E-10
       121  16 -2.167674E+04 -2.591849E+04 -1.653353E+04  3.708915E+05  7.642337E-10  1.312135E-10
       121  17  3.452859E+05  6.035634E+04  4.786251E+04  3.292073E+05  8.874580E-10  3.672655E-10
       121  18  7.135600E+05  1.477999E+05  1.165284E+05  3.710900E+05  1.747764E-10  1.149196E-10
       121  19  2.017061E+05  2.599248E+04  1.966433E+04  3.709103E+05  4.447199E+04  8.997243E+03
       121  20 -1.655332E+05 -6.029954E+04 -4.464779E+04  3.290246E+05  3.995686E+04 -1.607032E+04
       121  21 -5.332905E+05 -1.472602E+05 -1.120507E+05  3.707104E+05  3.544174E+04 -3.798037E+04
       121  22  9.000745E+04  3.708843E+01  1.563793E+03  3.709007E+05 -2.933273E+02  8.980636E+03
       121  23  8.984380E+04  3.015382E+01  1.607388E+03  3.291162E+05  5.075695E+02 -1.608134E+04
       121  24  8.994562E+04  2.814900E+02  2.246977E+03  3.709007E+05  1.305888E+03 -3.798668E+04
       121  25 -2.167454E+04 -2.591786E+04 -1.652956E+04  3.708912E+05 -4.505088E+04  8.964028E+03
       121  26  3.452876E+05  6.035702E+04  4.786584E+04  3.292078E+05 -3.895750E+04 -1.609237E+04
       121  27  7.135615E+05  1.478017E+05  1.165332E+05  3.710910E+05 -3.286335E+04 -3.799301E+04
       122   1 -7.745059E+05 -2.048113E+05 -1.564418E+05  3.708357E+05 -4.033922E+04  5.215556E+04
       122   2 -1.137324E+06 -2.932937E+05 -2.417623E+05  3.275806E+05  2.438442E+04  5.519606E+04
       122   3 -1.509768E+06 -3.882557E+05 -3.708306E+05  3.653440E+05  8.903235E+04  1.823521E+04
       122   4  9.024446E+04  5.663892E+01  2.779753E+03  3.703311E+05 -1.699424E+03  5.215714E+04
       122   5  8.913836E+04  1.443479E+03  4.675477E+03  3.298277E+05 -4.073467E+03  5.518902E+04
       122   6  8.995187E+04  8.021405E+03  9.460587E+03  3.703327E+05 -6.484592E+03  1.825632E+04
       122   7  9.557241E+05  2.048828E+05  1.619761E+05  3.698255E+05  3.699282E+04  5.215864E+04
       122   8  1.317039E+06  2.960883E+05  2.510396E+05  3.320789E+05 -3.258654E+04  5.518180E+04
       122   9  1.692044E+06  4.041191E+05  3.896073E+05  3.753337E+05 -1.022469E+05  1.827591E+04
       122  10 -7.745084E+05 -2.048147E+05 -1.564500E+05  3.708374E+05  6.979916E-10  2.554666E-10
       122  11 -1.137326E+06 -2.932972E+05 -2.417691E+05  3.275795E+05 -1.055052E-09 -3.195793E-10
       122  12 -1.509777E+06 -3.882582E+05 -3.708462E+05  3.653427E+05 -2.197128E-10 -1.913550E-10
       122  13  9.024372E+04  5.371675E+01  2.774635E+03  3.703312E+05 -4.262425E-10  1.454372E-10
       122  14  8.913752E+04  1.440203E+03  4.669721E+03  3.298278E+05 -9.023683E-11  3.305386E-11
       122  15  8.995174E+04  8.021036E+03  9.459881E+03  3.703328E+05  2.517674E-11 -7.979220E-11
       122  16  9.557219E+05  2.048795E+05  1.619684E+05  3.698240E+05  4.618356E-10  5.451321E-11
       122  17  1.317037E+06  2.960848E+05  2.510319E+05  3.320804E+05  9.461128E-10  2.094896E-10
       122  18  1.692033E+06  4.041159E+05  3.895871E+05  3.753352E+05 -2.606006E-12  8.501172E-11
       122  19 -7.745059E+05 -2.048113E+05 -1.564418E+05  3.708357E+05  4.033922E+04 -5.215556E+04
       122  20 -1.137324E+06 -2.932937E+05 -2.417623E+05  3.275806E+05 -2.438442E+04 -5.519606E+04
       122  21 -1.509768E+06 -3.882557E+05 -3.708306E+05  3.653440E+05 -8.903235E+04 -1.823521E+04
       122  22  9.024446E+04  5.663892E+01  2.779753E+03  3.703311E+05  1.699424E+03 -5.215714E+04
       122  23  8.913836E+04  1.443479E+03  4.675477E+03  3.298277E+05  4.073467E+03 -5.518902E+04
       122  24  8.995187E+04  8.021405E+03  9.460587E+03  3.703327E+05  6.484592E+03 -1.825632E+04
       122  25  9.557241E+05  2.048828E+05  1.619761E+05  3.698255E+05 -3.699282E+04 -5.215864E+04
       122  26  1.317039E+06  2.960883E+05  2.510396E+05  3.320789E+05  3.258654E+04 -5.518180E+04
       122  27  1.692044E+06  4.041191E+05  3.896073E+05  3.753337E+05  1.022469E+05 -1.827591E+04
       123   1 -1.840203E+05 -8.006061E+05 -1.846460E+05  2.234236E+05 -5.527555E+03 -6.112852E+04
       123   2 -9.901440E+04 -5.982931E+05 -1.002912E+05  1.871315E+05 -1.464855E+04 -2.472905E+04
       123   3 -4.344164E+04 -4.081859E+05 -4.703879E+04  1.945409E+05 -9.139964E+03  1.166297E+04
       123   4 -4.234195E+04 -2.290614E+05 -4.762213E+04  1.973973E+05 -5.477054E+03 -3.344886E+04
       123   5 -8.904542E+03 -2.250507E+05 -2.291755E+04  1.755103E+05 -1.464184E+04 -2.159429E+04
       123   6 -6.231664E+02 -2.290090E+05 -1.224627E+04  1.973280E+05 -9.179393E+03 -9.759429E+03
       123   7  9.931574E+04  3.427860E+05  8.938181E+04  1.713467E+05 -5.428904E+03 -5.743782E+03
       123   8  8.119700E+04  1.483241E+05  5.444867E+04  1.638819E+05 -1.463526E+04 -1.845767E+04
       123   9  4.219366E+04 -4.980037E+04  2.254646E+04  2.001159E+05 -9.219007E+03 -3.118787E+04
       123  10 -1.840214E+05 -8.006101E+05 -1.846530E+05  2.234234E+05 -1.986892E-10 -2.914599E-10
       123  11 -9.901479E+04 -5.982938E+05 -1.002928E+05  1.871312E+05  5.011076E-10  1.074804E-10
       123  12 -4.344176E+04 -4.081860E+05 -4.703920E+04  1.945410E+05  4.291228E-10  8.833104E-10
       123  13 -4.234229E+04 -2.290626E+05 -4.762429E+04  1.973971E+05 -1.039454E-09  6.375283E-11
       123  14 -8.904897E+03 -2.250513E+05 -2.291883E+04  1.755100E+05  1.510291E-10 -9.507150E-11
       123  15 -6.232824E+02 -2.290092E+05 -1.224660E+04  1.973279E+05 -4.876700E-10 -6.730094E-11
       123  16  9.931570E+04  3.427860E+05  8.938170E+04  1.713466E+05 -4.679541E-10  3.237296E-10
       123  17  8.119668E+04  1.483237E+05  5.444762E+04  1.638817E+05 -1.576116E-09 -3.763093E-10
       123  18  4.219330E+04 -4.980143E+04  2.254448E+04  2.001157E+05  9.916177E-12 -1.095243E-09
       123  19 -1.840203E+05 -8.006061E+05 -1.846460E+05  2.234236E+05  5.527555E+03  6.112852E+04
       123  20 -9.901440E+04 -5.982931E+05 -1.002912E+05  1.871315E+05  1.464855E+04  2.472905E+04
       123  21 -4.344164E+04 -4.081859E+05 -4.703879E+04  1.945409E+05  9.139964E+03 -1.166297E+04
       123  22 -4.234195E+04 -2.290614E+05 -4.762213E+04  1.973973E+05  5.477054E+03  3.344886E+04
       123  23 -8.904542E+03 -2.250507E+05 -2.291755E+04  1.755103E+05  1.464184E+04  2.159429E+04
       123  24 -6.231664E+02 -2.290090E+05 -1.224627E+04  1.973280E+05  9.179393E+03  9.759429E+03
       123  25  9.931574E+04  3.427860E+05  8.938181E+04  1.713467E+05  5.428904E+03  5.743782E+03
       123  26  8.119700E+04  1.483241E+05  5.444867E+04  1.638819E+05  1.463526E+04  1.845767E+04
       123  27  4.219366E+04 -4.980037E+04  2.254646E+04  2.001159E+05  9.219007E+03  3.118787E+04
       124   1 -1.360371E+04 -2.778661E+05 -2.018779E+04  1.981526E+05 -1.325333E+03  1.173628E+04
       124   2  3.450431E+04 -8.150977E+04  2.104984E+04  1.757036E+05  1.025539E+04  1.277750E+04
       124   3  8.186964E+04  1.144026E+05  6.137647E+04  1.977718E+05  2.123248E+04  1.382120E+04
       124   4 -1.276010E+03 -2.273788E+05 -9.036492E+03  1.975180E+05 -1.362561E+03 -8.218235E+03
       124   5  3.474060E+02 -2.270597E+05 -4.153038E+03  1.752570E+05  1.022111E+04 -6.165396E+03
       124   6  1.054476E+03 -2.273970E+05 -8.825630E+02  1.975138E+05  2.120100E+04 -4.110391E+03
       124   7  1.105173E+04 -1.768883E+05  2.116150E+03  1.968834E+05 -1.399747E+03 -2.817435E+04
       124   8 -3.381045E+04 -3.725880E+05 -2.935530E+04  1.748104E+05  1.018685E+04 -2.510399E+04
       124   9 -7.976711E+04 -5.690823E+05 -6.314507E+04  1.972559E+05  2.116953E+04 -2.203238E+04
       124  10 -1.360375E+04 -2.778663E+05 -2.018806E+04  1.981526E+05  8.991806E-10  7.243304E-11
       124  11  3.450415E+04 -8.150997E+04  2.104933E+04  1.757035E+05  2.804004E-10  7.855797E-11
       124  12  8.186911E+04  1.144022E+05  6.137526E+04  1.977715E+05  2.520580E-10  2.745178E-10
       124  13 -1.276030E+03 -2.273789E+05 -9.036622E+03  1.975180E+05  9.432696E-10 -2.192132E-10
       124  14  3.472836E+02 -2.270597E+05 -4.153305E+03  1.752570E+05 -1.481999E-10  7.503042E-11
       124  15  1.053989E+03 -2.273972E+05 -8.834395E+02  1.975139E+05  5.122670E-10 -3.023527E-11
       124  16  1.105152E+04 -1.768891E+05  2.114654E+03  1.968833E+05  5.000138E-10 -2.656540E-10
       124  17 -3.381073E+04 -3.725887E+05 -2.935668E+04  1.748106E+05  6.295732E-10 -2.015112E-10
       124  18 -7.976772E+04 -5.690830E+05 -6.314683E+04  1.972563E+05  1.518514E-10 -2.321548E-10
       124  19 -1.360371E+04 -2.778661E+05 -2.018779E+04  1.981526E+05  1.325333E+03 -1.173628E+04
       124  20  3.450431E+04 -8.150977E+04  2.104984E+04  1.757036E+05 -1.025539E+04 -1.277750E+04
       124  21  8.186964E+04  1.144026E+05  6.137647E+04  1.977718E+05 -2.123248E+04 -1.382120E+04
       124  22 -1.276010E+03 -2.273788E+05 -9.036492E+03  1.975180E+05  1.362561E+03  8.218235E+03
       124  23  3.474060E+02 -2.270597E+05 -4.153038E+03  1.752570E+05 -1.022111E+04  6.165396E+03
       124  24  1.054476E+03 -2.273970E+05 -8.825630E+02  1.975138E+05 -2.120100E+04  4.110391E+03
       124  25  1.105173E+04 -1.768883E+05  2.116150E+03  1.968834E+05  1.399747E+03  2.817435E+04
       124  26 -3.381045E+04 -3.725880E+05 -2.935530E+04  1.748104E+05 -1.018685E+04  2.510399E+04
       124  27 -7.976711E+04 -5.690823E+05 -6.314507E+04  1.972559E+05 -2.116953E+04  2.203238E+04
       125   1  1.122725E+05  2.439273E+05  8.685034E+04  1.971519E+05  2.873030E+04  1.620764E+04
       125   2  1.618763E+05  4.363194E+05  1.369675E+05  1.787999E+05  2.998609E+04 -2.182580E+04
       125   3  2.231128E+05  6.365116E+05  2.147230E+05  2.036403E+05  9.796617E+03 -5.984642E+04
       125   4  8.404857E+02 -2.269346E+05  5.303816E+02  1.972219E+05  2.869640E+04 -4.034387E+03
       125   5  2.443589E+03 -2.277337E+05  3.812166E+03  1.756181E+05  3.001450E+04 -6.014824E+03
       125   6  9.430671E+03 -2.270178E+05  9.705791E+03  1.972083E+05  9.877229E+03 -7.970320E+03
       125   7 -1.106039E+05 -6.975804E+05 -8.579709E+04  1.972917E+05  2.866248E+04 -2.426147E+04
       125   8 -1.570161E+05 -8.913656E+05 -1.293646E+05  1.724396E+05  3.004277E+04  9.779585E+03
       125   9 -2.043036E+05 -1.089857E+06 -1.953533E+05  1.907850E+05  9.956832E+03  4.383404E+04
       125  10  1.122715E+05  2.439268E+05  8.684830E+04  1.971516E+05  5.888993E-10 -9.000033E-11
       125  11  1.618752E+05  4.363186E+05  1.369649E+05  1.788004E+05 -7.701744E-10 -2.252841E-10
       125  12  2.231117E+05  6.365077E+05  2.147161E+05  2.036408E+05 -2.392829E-10  1.332720E-10
       125  13  8.395971E+02 -2.269348E+05  5.288035E+02  1.972220E+05 -2.710878E-10  1.132498E-10
       125  14  2.442612E+03 -2.277340E+05  3.810405E+03  1.756182E+05 -5.424379E-11  1.346751E-10
       125  15  9.430549E+03 -2.270179E+05  9.705488E+03  1.972084E+05 -4.786339E-10  4.619897E-11
       125  16 -1.106049E+05 -6.975812E+05 -8.579975E+04  1.972923E+05  7.338913E-10  9.403820E-11
       125  17 -1.570171E+05 -8.913659E+05 -1.293665E+05  1.724394E+05 -4.535718E-10  3.379048E-10
       125  18 -2.043042E+05 -1.089859E+06 -1.953571E+05  1.907846E+05 -5.526655E-10  2.611057E-11
       125  19  1.122725E+05  2.439273E+05  8.685034E+04  1.971519E+05 -2.873030E+04 -1.620764E+04
       125  20  1.618763E+05  4.363194E+05  1.369675E+05  1.787999E+05 -2.998609E+04  2.182580E+04
       125  21  2.231128E+05  6.365116E+05  2.147230E+05  2.036403E+05 -9.796617E+03  5.984642E+04
       125  22  8.404857E+02 -2.269346E+05  5.303816E+02  1.972219E+05 -2.869640E+04  4.034387E+03
       125  23  2.443589E+03 -2.277337E+05  3.812166E+03  1.756181E+05 -3.001450E+04  6.014824E+03
       125  24  9.430671E+03 -2.270178E+05  9.705791E+03  1.972083E+05 -9.877229E+03  7.970320E+03
       125  25 -1.106039E+05 -6.975804E+05 -8.579709E+04  1.972917E+05 -2.866248E+04  2.426147E+04
       125  26 -1.570161E+05 -8.913656E+05 -1.293646E+05  1.724396E+05 -3.004277E+04 -9.779585E+03
       125  27 -2.043036E+05 -1.089857E+06 -1.953533E+05  1.907850E+05 -9.956832E+03 -4.383404E+04
       126   1  2.089973E+06  4.941026E+05  4.788338E+05  3.811701E+05  1.448879E+05 -2.244727E+04
       126   2  1.721679E+06  3.659150E+05  3.164060E+05  3.304777E+05  5.792878E+04 -6.979497E+04
       126   3  1.373618E+06  2.716151E+05  2.189763E+05  3.580792E+05 -2.893322E+04 -7.124949E+04
       126   4  2.266413E+05  3.383859E+04  3.814201E+04  3.600224E+05  2.643518E+04 -2.242721E+04
       126   5  2.234418E+05  7.060096E+03  1.861884E+04  3.208726E+05  1.683054E+04 -6.980903E+04
       126   6  2.269908E+05  8.161372E+02  1.051168E+04  3.600190E+05  7.269307E+03 -7.125022E+04
       126   7 -1.633476E+06 -4.266649E+05 -4.027376E+05  3.389377E+05 -9.166496E+04 -2.239915E+04
       126   8 -1.272651E+06 -3.519305E+05 -2.792738E+05  3.112906E+05 -2.417079E+04 -6.982186E+04
       126   9 -9.183569E+05 -2.700561E+05 -1.980006E+05  3.619547E+05  4.340690E+04 -7.125071E+04
       126  10  2.089950E+06  4.940965E+05  4.787935E+05  3.811727E+05 -1.414768E-10  1.288432E-10
       126  11  1.721674E+06  3.659088E+05  3.163906E+05  3.304809E+05  1.282641E-10  9.344503E-11
       126  12  1.373615E+06  2.716095E+05  2.189652E+05  3.580776E+05  1.001999E-09 -9.404229E-11
       126  13  2.266404E+05  3.383787E+04  3.813975E+04  3.600229E+05  1.925468E-10  2.140366E-10
       126  14  2.234402E+05  7.054785E+03  1.860915E+04  3.208735E+05  4.489789E-10  2.365457E-10
       126  15  2.269894E+05  8.106706E+02  1.050204E+04  3.600194E+05  5.730444E-10 -2.224885E-10
       126  16 -1.633485E+06 -4.266677E+05 -4.027544E+05  3.389360E+05  7.410966E-10  9.293305E-11
       126  17 -1.272652E+06 -3.519359E+05 -2.792840E+05  3.112893E+05  1.316696E-09  1.718865E-10
       126  18 -9.183603E+05 -2.700621E+05 -1.980137E+05  3.619572E+05 -4.293767E-10 -3.061206E-10
       126  19  2.089973E+06  4.941026E+05  4.788338E+05  3.811701E+05 -1.448879E+05  2.244727E+04
       126  20  1.721679E+06  3.659150E+05  3.164060E+05  3.304777E+05 -5.792878E+04  6.979497E+04
       126  21  1.373618E+06  2.716151E+05  2.189763E+05  3.580792E+05  2.893322E+04  7.124949E+04
       126  22  2.266413E+05  3.383859E+04  3.814201E+04  3.600224E+05 -2.643518E+04  2.242721E+04
       126  23  2.234418E+05  7.060096E+03  1.861884E+04  3.208726E+05 -1.683054E+04  6.980903E+04
       126  24  2.269908E+05  8.161372E+02  1.051168E+04  3.600190E+05 -7.269307E+03  7.125022E+04
       126  25 -1.633476E+06 -4.266649E+05 -4.027376E+05  3.389377E+05  9.166496E+04  2.239915E+04
       126  26 -1.272651E+06 -3.519305E+05 -2.792738E+05  3.112906E+05  2.417079E+04  6.982186E+04
       126  27 -9.183569E+05 -2.700561E+05 -1.980006E+05  3.619547E+05 -4.340690E+04  7.125071E+04
       127   1  1.136763E+06  2.163878E+05  1.724956E+05  3.614365E+05 -2.513000E+04 -5.784112E+04
       127   2  7.782760E+05  1.301895E+05  1.020697E+05  3.203888E+05 -3.392310E+04 -3.754233E+04
       127   3  4.216929E+05  4.619293E+04  3.792526E+04  3.605438E+05 -4.271928E+04 -1.349027E+04
       127   4  2.257345E+05  1.464863E+03  8.174655E+03  3.606680E+05  5.861067E+03 -5.783586E+04
       127   5  2.254595E+05  2.758033E+02  4.990028E+03  3.200647E+05  3.375464E+03 -3.752755E+04
       127   6  2.258650E+05  1.998680E+02  3.710360E+03  3.606687E+05  8.818638E+02 -1.346410E+04
       127   7 -6.844847E+05 -2.135039E+05 -1.561751E+05  3.599004E+05  3.680798E+04 -5.783066E+04
       127   8 -3.270553E+05 -1.296538E+05 -9.209553E+04  3.197408E+05  4.064184E+04 -3.751280E+04
       127   9  3.007873E+04 -4.579426E+04 -3.049876E+04  3.607935E+05  4.446968E+04 -1.343791E+04
       127  10  1.136761E+06  2.163840E+05  1.724881E+05  3.614353E+05  1.942895E-10 -1.966154E-10
       127  11  7.782744E+05  1.301877E+05  1.020649E+05  3.203877E+05 -2.520038E-10 -1.070206E-10
       127  12  4.216909E+05  4.619225E+04  3.792149E+04  3.605434E+05 -4.697169E-10  3.474266E-12
       127  13  2.257335E+05  1.461262E+03  8.168303E+03  3.606683E+05  1.156256E-09 -3.001011E-10
       127  14  2.254591E+05  2.742877E+02  4.987360E+03  3.200648E+05  2.788470E-10 -2.048236E-10
       127  15  2.258650E+05  1.996731E+02  3.710017E+03  3.606687E+05 -6.533598E-10  5.882414E-11
       127  16 -6.844870E+05 -2.135079E+05 -1.561839E+05  3.599021E+05  6.009496E-10 -5.184515E-10
       127  17 -3.270574E+05 -1.296558E+05 -9.210128E+04  3.197420E+05  1.082091E-09 -2.957991E-10
       127  18  3.007656E+04 -4.579498E+04 -3.050282E+04  3.607940E+05  6.712051E-10 -8.585306E-11
       127  19  1.136763E+06  2.163878E+05  1.724956E+05  3.614365E+05  2.513000E+04  5.784112E+04
       127  20  7.782760E+05  1.301895E+05  1.020697E+05  3.203888E+05  3.392310E+04  3.754233E+04
       127  21  4.216929E+05  4.619293E+04  3.792526E+04  3.605438E+05  4.271928E+04  1.349027E+04
       127  22  2.257345E+05  1.464863E+03  8.174655E+03  3.606680E+05 -5.861067E+03  5.783586E+04
       127  23  2.254595E+05  2.758033E+02  4.990028E+03  3.200647E+05 -3.375464E+03  3.752755E+04
       127  24  2.258650E+05  1.998680E+02  3.710360E+03  3.606687E+05 -8.818638E+02  1.346410E+04
       127  25 -6.844847E+05 -2.135039E+05 -1.561751E+05  3.599004E+05 -3.680798E+04  5.783066E+04
       127  26 -3.270553E+05 -1.296538E+05 -9.209553E+04  3.197408E+05 -4.064184E+04  3.751280E+04
       127  27  3.007873E+04 -4.579426E+04 -3.049876E+04  3.607935E+05 -4.446968E+04  1.343791E+04
       128   1  1.882256E+05 -8.755528E+03 -3.768157E+03  3.607252E+05 -4.331702E+04  1.903097E+03
       128   2 -1.688987E+05 -9.264274E+04 -6.605960E+04  3.197831E+05 -3.956406E+04  2.613152E+04
       128   3 -5.263885E+05 -1.767457E+05 -1.308466E+05  3.600719E+05 -3.580752E+04  4.696014E+04
       128   4  2.258335E+05  2.220389E+02  3.517818E+03  3.606731E+05  2.386876E+02  1.929998E+03
       128   5  2.255337E+05  2.431759E+02  3.940426E+03  3.200593E+05 -1.730419E+03  2.614946E+04
       128   6  2.257404E+05  1.048283E+03  5.839017E+03  3.606727E+05 -3.693987E+03  4.697040E+04
       128   7  2.634469E+05  9.200539E+03  1.081085E+04  3.606210E+05  4.379697E+04  1.956889E+03
       128   8  6.201211E+05  9.312129E+04  7.394003E+04  3.203356E+05  3.612656E+04  2.616741E+04
       128   9  9.784219E+05  1.788110E+05  1.425060E+05  3.612741E+05  2.845741E+04  4.698071E+04
       128  10  1.882236E+05 -8.756035E+03 -3.771689E+03  3.607253E+05  3.110911E-10  5.248859E-11
       128  11 -1.689006E+05 -9.264389E+04 -6.606383E+04  3.197839E+05 -5.799302E-10  2.359913E-10
       128  12 -5.263905E+05 -1.767484E+05 -1.308532E+05  3.600733E+05 -1.488016E-10  7.846153E-11
       128  13  2.258335E+05  2.220349E+02  3.517811E+03  3.606731E+05 -1.103588E-09 -1.035279E-10
       128  14  2.255335E+05  2.424407E+02  3.939135E+03  3.200593E+05 -5.339731E-10  7.150620E-12
       128  15  2.257398E+05  1.045910E+03  5.834844E+03  3.606729E+05  3.475599E-10  8.605210E-11
       128  16  2.634448E+05  9.200021E+03  1.080724E+04  3.606210E+05  3.462381E-10 -4.651235E-11
       128  17  6.201195E+05  9.312020E+04  7.393629E+04  3.203348E+05  3.474684E-10 -3.778938E-10
       128  18  9.784204E+05  1.788084E+05  1.425003E+05  3.612730E+05  5.202974E-10  1.667047E-10
       128  19  1.882256E+05 -8.755528E+03 -3.768157E+03  3.607252E+05  4.331702E+04 -1.903097E+03
       128  20 -1.688987E+05 -9.264274E+04 -6.605960E+04  3.197831E+05  3.956406E+04 -2.613152E+04
       128  21 -5.263885E+05 -1.767457E+05 -1.308466E+05  3.600719E+05  3.580752E+04 -4.696014E+04
       128  22  2.258335E+05  2.220389E+02  3.517818E+03  3.606731E+05 -2.386876E+02 -1.929998E+03
       128  23  2.255337E+05  2.431759E+02  3.940426E+03  3.200593E+05  1.730419E+03 -2.614946E+04
       128  24  2.257404E+05  1.048283E+03  5.839017E+03  3.606727E+05  3.693987E+03 -4.697040E+04
       128  25  2.634469E+05  9.200539E+03  1.081085E+04  3.606210E+05 -4.379697E+04 -1.956889E+03
       128  26  6.201211E+05  9.312129E+04  7.394003E+04  3.203356E+05 -3.612656E+04 -2.616741E+04
       128  27  9.784219E+05  1.788110E+05  1.425060E+05  3.612741E+05 -2.845741E+04 -4.698071E+04
       129   1 -7.605249E+05 -2.330158E+05 -1.732608E+05  3.612851E+05 -4.158335E+04  6.056676E+04
       129   2 -1.114265E+06 -3.166085E+05 -2.549292E+05  3.142460E+05  2.288078E+04  6.142545E+04
       129   3 -1.475592E+06 -3.986293E+05 -3.781603E+05  3.457649E+05  8.727347E+04  1.998386E+04
       129   4  2.265771E+05  5.906364E+02  7.332553E+03  3.600757E+05 -4.700335E+03  6.057258E+04
       129   5  2.241097E+05  4.735033E+03  1.266496E+04  3.208031E+05 -1.119382E+04  6.141153E+04
       129   6  2.262649E+05  2.277954E+04  2.574387E+04  3.600759E+05 -1.772047E+04  1.999355E+04
       129   7  1.214629E+06  2.341427E+05  1.878915E+05  3.588640E+05  3.223981E+04  6.057824E+04
       129   8  1.564199E+06  3.259693E+05  2.801732E+05  3.273743E+05 -4.534049E+04  6.139692E+04
       129   9  1.930809E+06  4.439867E+05  4.294878E+05  3.744258E+05 -1.230012E+05  1.999843E+04
       129  10 -7.605278E+05 -2.330202E+05 -1.732709E+05  3.612871E+05 -7.275074E-10  1.453034E-10
       129  11 -1.114267E+06 -3.166127E+05 -2.549373E+05  3.142448E+05 -2.287292E-10  2.843476E-10
       129  12 -1.475600E+06 -3.986318E+05 -3.781754E+05  3.457635E+05 -2.790861E-10  6.238222E-11
       129  13  2.265761E+05  5.866899E+02  7.325615E+03  3.600759E+05  6.600557E-11  1.736476E-10
       129  14  2.241086E+05  4.730948E+03  1.265764E+04  3.208037E+05  7.353046E-10  1.635117E-10
       129  15  2.262645E+05  2.277903E+04  2.574252E+04  3.600762E+05  2.174776E-10  4.585502E-11
       129  16  1.214627E+06  2.341384E+05  1.878826E+05  3.588624E+05 -9.184654E-11  2.339341E-10
       129  17  1.564196E+06  3.259647E+05  2.801623E+05  3.273765E+05  1.050265E-09 -3.931373E-11
       129  18  1.930793E+06  4.439822E+05  4.294587E+05  3.744277E+05 -1.654526E-10 -2.696270E-11
       129  19 -7.605249E+05 -2.330158E+05 -1.732608E+05  3.612851E+05  4.158335E+04 -6.056676E+04
       129  20 -1.114265E+06 -3.166085E+05 -2.549292E+05  3.142460E+05 -2.288078E+04 -6.142545E+04
       129  21 -1.475592E+06 -3.986293E+05 -3.781603E+05  3.457649E+05 -8.727347E+04 -1.998386E+04
       129  22  2.265771E+05  5.906364E+02  7.332553E+03  3.600757E+05  4.700335E+03 -6.057258E+04
       129  23  2.241097E+05  4.735033E+03  1.266496E+04  3.208031E+05  1.119382E+04 -6.141153E+04
       129  24  2.262649E+05  2.277954E+04  2.574387E+04  3.600759E+05  1.772047E+04 -1.999355E+04
       129  25  1.214629E+06  2.341427E+05  1.878915E+05  3.588640E+05 -3.223981E+04 -6.057824E+04
       129  26  1.564199E+06  3.259693E+05  2.801732E+05  3.273743E+05  4.534049E+04 -6.139692E+04
       129  27  1.930809E+06  4.439867E+05  4.294878E+05  3.744258E+05  1.230012E+05 -1.999843E+04
       130   1 -3.537038E+05 -1.414548E+06 -3.451944E+05  4.204506E+05 -1.383164E+04 -8.737710E+04
       130   2 -2.286262E+05 -1.002272E+06 -2.026789E+05  3.684373E+05 -3.879316E+04 -2.419027E+04
       130   3 -1.259470E+05 -6.038190E+05 -1.069962E+05  4.064470E+05 -2.971302E+04  3.900823E+04
       130   4 -2.075962E+04 -7.180844E+04 -2.419270E+04  4.084671E+05 -1.371047E+04 -1.679743E+04
       130   5 -3.824120E+03 -6.966406E+04 -1.176236E+04  3.634407E+05 -3.876409E+04 -1.068013E+04
       130   6  6.614760E+02 -7.156204E+04 -6.463097E+03  4.084333E+05 -2.979804E+04 -4.594318E+03
       130   7  3.120572E+05  1.272598E+06  2.967007E+05  3.964565E+05 -1.359221E+04  5.393450E+04
       130   8  2.209235E+05  8.637715E+05  1.791087E+05  3.584358E+05 -3.873528E+04  2.849979E+03
       130   9  1.272545E+05  4.609727E+05  9.406462E+04  4.104212E+05 -2.988330E+04 -4.823336E+04
       130  10 -3.537061E+05 -1.414557E+06 -3.452091E+05  4.204496E+05 -7.353162E-10 -2.897132E-10
       130  11 -2.286279E+05 -1.002273E+06 -2.026828E+05  3.684365E+05 -5.009606E-10 -3.309614E-11
       130  12 -1.259484E+05 -6.038209E+05 -1.070007E+05  4.064480E+05 -2.516707E-10  3.393026E-10
       130  13 -2.075990E+04 -7.180880E+04 -2.419358E+04  4.084670E+05 -4.681820E-10  1.389629E-10
       130  14 -3.825764E+03 -6.966458E+04 -1.176540E+04  3.634404E+05  6.082951E-10  2.112893E-10
       130  15  6.605170E+02 -7.156230E+04 -6.464804E+03  4.084332E+05 -9.679589E-10  2.426419E-11
       130  16  3.120563E+05  1.272595E+06  2.966949E+05  3.964571E+05  2.041715E-10  4.427996E-10
       130  17  2.209219E+05  8.637711E+05  1.791059E+05  3.584359E+05 -1.212868E-09 -1.592885E-10
       130  18  1.272529E+05  4.609700E+05  9.405858E+04  4.104200E+05 -1.453306E-10 -5.931664E-10
       130  19 -3.537038E+05 -1.414548E+06 -3.451944E+05  4.204506E+05  1.383164E+04  8.737710E+04
       130  20 -2.286262E+05 -1.002272E+06 -2.026789E+05  3.684373E+05  3.879316E+04  2.419027E+04
       130  21 -1.259470E+05 -6.038190E+05 -1.069962E+05  4.064470E+05  2.971302E+04 -3.900823E+04
       130  22 -2.075962E+04 -7.180844E+04 -2.419270E+04  4.084671E+05  1.371047E+04  1.679743E+04
       130  23 -3.824120E+03 -6.966406E+04 -1.176236E+04  3.634407E+05  3.876409E+04  1.068013E+04
       130  24  6.614760E+02 -7.156204E+04 -6.463097E+03  4.084333E+05  2.979804E+04  4.594318E+03
       130  25  3.120572E+05  1.272598E+06  2.967007E+05  3.964565E+05  1.359221E+04 -5.393450E+04
       130  26  2.209235E+05  8.637715E+05  1.791087E+05  3.584358E+05  3.873528E+04 -2.849979E+03
       130  27  1.272545E+05  4.609727E+05  9.406462E+04  4.104212E+05  2.988330E+04  4.823336E+04
       131   1 -6.314272E+04 -3.369254E+05 -5.638930E+04  4.089312E+05 -1.374523E+04  3.631674E+04
       131   2  3.366948E+04  6.857213E+04  2.127062E+04  3.631580E+05  9.846592E+03  3.672009E+04
       131   3  1.301868E+05  4.738302E+05  9.850467E+04  4.093839E+05  3.286230E+04  3.712692E+04
       131   4  3.931478E+02 -7.074892E+04 -4.946345E+03  4.088775E+05 -1.382675E+04 -3.792402E+03
       131   5  1.042674E+03 -7.048458E+04 -2.805649E+03  3.628765E+05  9.769206E+03 -2.432581E+03
       131   6  1.238867E+03 -7.078602E+04 -1.755745E+03  4.088758E+05  3.278865E+04 -1.069526E+03
       131   7  6.392567E+04  1.954991E+05  4.649936E+04  4.088238E+05 -1.390825E+04 -4.391836E+04
       131   8 -3.158435E+04 -2.095190E+05 -2.687683E+04  3.625951E+05  9.691844E+03 -4.157675E+04
       131   9 -1.277252E+05 -6.151115E+05 -1.020229E+05  4.083680E+05  3.271503E+04 -3.923337E+04
       131  10 -6.314328E+04 -3.369268E+05 -5.639214E+04  4.089316E+05  4.658642E-10  6.904893E-10
       131  11  3.366901E+04  6.857066E+04  2.126791E+04  3.631577E+05 -4.270367E-10  1.696843E-10
       131  12  1.301853E+05  4.738285E+05  9.850005E+04  4.093829E+05  9.946620E-11 -8.375947E-10
       131  13  3.929387E+02 -7.074899E+04 -4.946731E+03  4.088775E+05  5.029896E-10  2.339939E-10
       131  14  1.042570E+03 -7.048461E+04 -2.805840E+03  3.628765E+05 -6.499194E-10  2.096303E-10
       131  15  1.237712E+03 -7.078631E+04 -1.757768E+03  4.088759E+05  1.374214E-10  1.074420E-11
       131  16  6.392494E+04  1.954970E+05  4.649537E+04  4.088233E+05  3.232477E-10 -5.635751E-10
       131  17 -3.158492E+04 -2.095209E+05 -2.688026E+04  3.625954E+05  6.718418E-10 -5.673528E-11
       131  18 -1.277268E+05 -6.151135E+05 -1.020278E+05  4.083691E+05  2.868651E-11  5.608785E-10
       131  19 -6.314272E+04 -3.369254E+05 -5.638930E+04  4.089312E+05  1.374523E+04 -3.631674E+04
       131  20  3.366948E+04  6.857213E+04  2.127062E+04  3.631580E+05 -9.846592E+03 -3.672009E+04
       131  21  1.301868E+05  4.738302E+05  9.850467E+04  4.093839E+05 -3.286230E+04 -3.712692E+04
       131  22  3.931478E+02 -7.074892E+04 -4.946345E+03  4.088775E+05  1.382675E+04  3.792402E+03
       131  23  1.042674E+03 -7.048458E+04 -2.805649E+03  3.628765E+05 -9.769206E+03  2.432581E+03
       131  24  1.238867E+03 -7.078602E+04 -1.755745E+03  4.088758E+05 -3.278865E+04  1.069526E+03
       131  25  6.392567E+04  1.954991E+05  4.649936E+04  4.088238E+05  1.390825E+04  4.391836E+04
       131  26 -3.158435E+04 -2.095190E+05 -2.687683E+04  3.625951E+05 -9.691844E+03  4.157675E+04
       131  27 -1.277252E+05 -6.151115E+05 -1.020229E+05  4.083680E+05 -3.271503E+04  3.923337E+04
       132   1  1.932730E+05  7.404856E+05  1.482856E+05  4.093778E+05  4.853086E+04  4.167044E+04
       132   2  2.914175E+05  1.140527E+06  2.428560E+05  3.644664E+05  5.342450E+04 -2.579263E+04
       132   3  4.009206E+05  1.552281E+06  3.841144E+05  4.091000E+05  1.781153E+04 -9.327024E+04
       132   4  1.135761E+03 -7.078400E+04 -1.458825E+03  4.083325E+05  4.845466E+04 -8.411921E+02
       132   5  4.740056E+02 -7.082019E+04 -1.304870E+03  3.635560E+05  5.347541E+04 -1.469786E+02
       132   6 -6.330012E+02 -7.110226E+04 -1.748207E+03  4.083346E+05  1.795326E+04  5.771026E+02
       132   7 -1.910381E+05 -8.814119E+05 -1.512239E+05  4.072882E+05  4.837854E+04 -4.329877E+04
       132   8 -2.905599E+05 -1.280769E+06 -2.455386E+05  3.626465E+05  5.352630E+04  2.544967E+04
       132   9 -4.023716E+05 -1.692051E+06 -3.877619E+05  4.075697E+05  1.809501E+04  9.418071E+04
       132  10  1.932700E+05  7.404831E+05  1.482779E+05  4.093762E+05 -1.198717E-10 -2.647556E-10
       132  11  2.914143E+05  1.140525E+06  2.428494E+05  3.644675E+05 -1.289200E-09 -1.224390E-10
       132  12  4.009179E+05  1.552272E+06  3.840975E+05  4.091014E+05 -3.826863E-10  3.485181E-11
       132  13  1.133240E+03 -7.078463E+04 -1.463238E+03  4.083326E+05 -4.020787E-10  1.783569E-10
       132  14  4.709349E+02 -7.082096E+04 -1.310243E+03  3.635561E+05  4.990579E-11  1.770344E-10
       132  15 -6.333474E+02 -7.110235E+04 -1.748813E+03  4.083346E+05 -1.523550E-10  1.875998E-11
       132  16 -1.910411E+05 -8.814146E+05 -1.512318E+05  4.072899E+05  1.180787E-10  2.382222E-10
       132  17 -2.905631E+05 -1.280770E+06 -2.455452E+05  3.626454E+05 -6.565373E-10  2.695108E-10
       132  18 -4.023744E+05 -1.692061E+06 -3.877793E+05  4.075683E+05 -1.452217E-10 -1.077702E-10
       132  19  1.932730E+05  7.404856E+05  1.482856E+05  4.093778E+05 -4.853086E+04 -4.167044E+04
       132  20  2.914175E+05  1.140527E+06  2.428560E+05  3.644664E+05 -5.342450E+04  2.579263E+04
       132  21  4.009206E+05  1.552281E+06  3.841144E+05  4.091000E+05 -1.781153E+04  9.327024E+04
       132  22  1.135761E+03 -7.078400E+04 -1.458825E+03  4.083325E+05 -4.845466E+04  8.411921E+02
       132  23  4.740056E+02 -7.082019E+04 -1.304870E+03  3.635560E+05 -5.347541E+04  1.469786E+02
       132  24 -6.330012E+02 -7.110226E+04 -1.748207E+03  4.083346E+05 -1.795326E+04 -5.771026E+02
       132  25 -1.910381E+05 -8.814119E+05 -1.512239E+05  4.072882E+05 -4.837854E+04  4.329877E+04
       132  26 -2.905599E+05 -1.280769E+06 -2.455386E+05  3.626465E+05 -5.352630E+04 -2.544967E+04
       132  27 -4.023716E+05 -1.692051E+06 -3.877619E+05  4.075697E+05 -1.809501E+04 -9.418071E+04
       133   1  1.921962E+06  4.367669E+05  4.246307E+05  3.403512E+05  1.321065E+05 -1.931278E+04
       133   2  1.598005E+06  3.173599E+05  2.779470E+05  2.926925E+05  5.419509E+04 -5.994047E+04
       133   3  1.293248E+06  2.328768E+05  1.906410E+05  3.137923E+05 -2.364124E+04 -6.086146E+04
       133   4  3.114262E+05  3.890612E+04  4.361788E+04  3.160076E+05  3.021059E+04 -1.930253E+04
       133   5  3.077880E+05  8.283912E+03  2.131925E+04  2.816271E+05  1.921118E+04 -5.995221E+04
       133   6  3.116934E+05  1.033662E+03  1.204481E+04  3.160052E+05  8.243408E+03 -6.086075E+04
       133   7 -1.296708E+06 -3.591327E+05 -3.375356E+05  2.917268E+05 -7.142307E+04 -1.928435E+04
       133   8 -9.808383E+05 -3.008926E+05 -2.353869E+05  2.705849E+05 -1.570168E+04 -5.996272E+04
       133   9 -6.689242E+05 -2.308631E+05 -1.665861E+05  3.182141E+05  4.007909E+04 -6.085980E+04
       133  10  1.921944E+06  4.367619E+05  4.245973E+05  3.403532E+05 -9.857146E-10  1.876483E-10
       133  11  1.598001E+06  3.173552E+05  2.779347E+05  2.926951E+05 -1.489863E-09  9.221527E-10
       133  12  1.293247E+06  2.328727E+05  1.906329E+05  3.137912E+05 -1.009263E-09  1.059129E-09
       133  13  3.114251E+05  3.890547E+04  4.361546E+04  3.160080E+05 -3.708003E-10  2.532353E-10
       133  14  3.077867E+05  8.279952E+03  2.131179E+04  2.816280E+05  1.282529E-09  6.103943E-10
       133  15  3.116923E+05  1.029665E+03  1.203772E+04  3.160056E+05  9.794190E-10  6.891160E-10
       133  16 -1.296714E+06 -3.591345E+05 -3.375459E+05  2.917257E+05  6.847690E-10 -8.773410E-11
       133  17 -9.808395E+05 -3.008965E+05 -2.353941E+05  2.705841E+05  2.271201E-09  3.659838E-10
       133  18 -6.689269E+05 -2.308676E+05 -1.665961E+05  3.182161E+05  1.012380E-09  3.592093E-10
       133  19  1.921962E+06  4.367669E+05  4.246307E+05  3.403512E+05 -1.321065E+05  1.931278E+04
       133  20  1.598005E+06  3.173599E+05  2.779470E+05  2.926925E+05 -5.419509E+04  5.994047E+04
       133  21  1.293248E+06  2.328768E+05  1.906410E+05  3.137923E+05  2.364124E+04  6.086146E+04
       133  22  3.114262E+05  3.890612E+04  4.361788E+04  3.160076E+05 -3.021059E+04  1.930253E+04
       133  23  3.077880E+05  8.283912E+03  2.131925E+04  2.816271E+05 -1.921118E+04  5.995221E+04
       133  24  3.116934E+05  1.033662E+03  1.204481E+04  3.160052E+05 -8.243408E+03  6.086075E+04
       133  25 -1.296708E+06 -3.591327E+05 -3.375356E+05  2.917268E+05  7.142307E+04  1.928435E+04
       133  26 -9.808383E+05 -3.008926E+05 -2.353869E+05  2.705849E+05  1.570168E+04  5.996272E+04
       133  27 -6.689242E+05 -2.308631E+05 -1.665861E+05  3.182141E+05 -4.007909E+04  6.085980E+04
       134   1  1.085074E+06  1.845383E+05  1.492838E+05  3.174196E+05 -2.074716E+04 -4.906414E+04
       134   2  7.703958E+05  1.085334E+05  8.676827E+04  2.812741E+05 -2.908001E+04 -3.116880E+04
       134   3  4.575020E+05  3.474240E+04  3.023147E+04  3.164040E+05 -3.741486E+04 -1.003535E+04
       134   4  3.102525E+05  1.722614E+03  9.392830E+03  3.165671E+05  6.631511E+03 -4.905903E+04
       134   5  3.099253E+05  3.036122E+02  5.799287E+03  2.809282E+05  3.741720E+03 -3.115655E+04
       134   6  3.103482E+05  1.611789E+02  4.410867E+03  3.165679E+05  8.459949E+02 -1.001459E+04
       134   7 -4.639837E+05 -1.811262E+05 -1.305188E+05  3.157156E+05  3.397700E+04 -4.905399E+04
       134   8 -1.503357E+05 -1.079372E+05 -7.517336E+04  2.805825E+05  3.653985E+04 -3.114432E+04
       134   9  1.632188E+05 -3.442043E+04 -2.140502E+04  3.167317E+05  3.909806E+04 -9.993817E+03
       134  10  1.085073E+06  1.845356E+05  1.492785E+05  3.174188E+05  1.003096E-08  6.684593E-10
       134  11  7.703946E+05  1.085321E+05  8.676486E+04  2.812734E+05 -1.853145E-08 -6.588080E-10
       134  12  4.575005E+05  3.474191E+04  3.022865E+04  3.164037E+05 -4.462481E-08 -2.231480E-09
       134  13  3.102518E+05  1.720017E+03  9.388223E+03  3.165674E+05  5.185737E-10  3.054176E-10
       134  14  3.099250E+05  3.025659E+02  5.797436E+03  2.809283E+05  3.719416E-10 -5.841126E-10
       134  15  3.103482E+05  1.610710E+02  4.410677E+03  3.165679E+05  8.315640E-11 -2.292422E-09
       134  16 -4.639856E+05 -1.811291E+05 -1.305255E+05  3.157170E+05 -9.093235E-09  1.421266E-10
       134  17 -1.503374E+05 -1.079386E+05 -7.517769E+04  2.805834E+05  1.945742E-08 -9.186352E-10
       134  18  1.632171E+05 -3.442095E+04 -2.140808E+04  3.167320E+05  4.454343E-08 -2.313591E-09
       134  19  1.085074E+06  1.845383E+05  1.492838E+05  3.174196E+05  2.074716E+04  4.906414E+04
       134  20  7.703958E+05  1.085334E+05  8.676827E+04  2.812741E+05  2.908001E+04  3.116880E+04
       134  21  4.575020E+05  3.474240E+04  3.023147E+04  3.164040E+05  3.741486E+04  1.003535E+04
       134  22  3.102525E+05  1.722614E+03  9.392830E+03  3.165671E+05 -6.631511E+03  4.905903E+04
       134  23  3.099253E+05  3.036122E+02  5.799287E+03  2.809282E+05 -3.741720E+03  3.115655E+04
       134  24  3.103482E+05  1.611789E+02  4.410867E+03  3.165679E+05 -8.459949E+02  1.001459E+04
       134  25 -4.639837E+05 -1.811262E+05 -1.305188E+05  3.157156E+05 -3.397700E+04  4.905399E+04
       134  26 -1.503357E+05 -1.079372E+05 -7.517336E+04  2.805825E+05 -3.653985E+04  3.114432E+04
       134  27  1.632188E+05 -3.442043E+04 -2.140502E+04  3.167317E+05 -3.909806E+04  9.993817E+03
       135   1  2.526111E+05 -1.348200E+04 -6.346648E+03  3.166594E+05 -3.815338E+04  3.473869E+03
       135   2 -6.091356E+04 -8.704268E+04 -6.073539E+04  2.806158E+05 -3.549811E+04  2.471146E+04
       135   3 -3.746148E+05 -1.604916E+05 -1.168223E+05  3.158626E+05 -3.283945E+04  4.290993E+04
       135   4  3.103214E+05  1.763563E+02  4.251332E+03  3.165698E+05  8.002976E+01  3.494993E+03
       135   5  3.099762E+05  2.589981E+02  4.926974E+03  2.809258E+05 -2.379545E+03  2.472527E+04
       135   6  3.102444E+05  1.344872E+03  7.452914E+03  3.165693E+05 -4.834454E+03  4.291749E+04
       135   7  3.680380E+05  1.383531E+04  1.485467E+04  3.164802E+05  3.831690E+04  3.516105E+03
       135   8  6.810027E+05  8.755371E+04  7.058836E+04  2.812360E+05  3.075823E+04  2.473910E+04
       135   9  9.955615E+05  1.631554E+05  1.317124E+05  3.172767E+05  2.320060E+04  4.292511E+04
       135  10  2.526096E+05 -1.348240E+04 -6.349406E+03  3.166595E+05  4.474638E-08 -2.019181E-09
       135  11 -6.091507E+04 -8.704368E+04 -6.073891E+04  2.806165E+05  1.971605E-08 -6.245857E-10
       135  12 -3.746164E+05 -1.604939E+05 -1.168278E+05  3.158637E+05 -9.527567E-09  6.345222E-10
       135  13  3.103214E+05  1.763432E+02  4.251309E+03  3.165698E+05 -3.647012E-12 -2.266282E-09
       135  14  3.099760E+05  2.583400E+02  4.925814E+03  2.809259E+05  1.752706E-10 -8.897259E-10
       135  15  3.102438E+05  1.342887E+03  7.449408E+03  3.165695E+05  4.541721E-10  4.234983E-10
       135  16  3.680365E+05  1.383490E+04  1.485189E+04  3.164801E+05 -4.449659E-08 -2.436599E-09
       135  17  6.810015E+05  8.755280E+04  7.058544E+04  2.812354E+05 -1.836850E-08 -7.941085E-10
       135  18  9.955604E+05  1.631533E+05  1.317080E+05  3.172759E+05  9.807692E-09  5.643613E-10
       135  19  2.526111E+05 -1.348200E+04 -6.346648E+03  3.166594E+05  3.815338E+04 -3.473869E+03
       135  20 -6.091356E+04 -8.704268E+04 -6.073539E+04  2.806158E+05  3.549811E+04 -2.471146E+04
       135  21 -3.746148E+05 -1.604916E+05 -1.168223E+05  3.158626E+05  3.283945E+04 -4.290993E+04
       135  22  3.103214E+05  1.763563E+02  4.251332E+03  3.165698E+05 -8.002976E+01 -3.494993E+03
       135  23  3.099762E+05  2.589981E+02  4.926974E+03  2.809258E+05  2.379545E+03 -2.472527E+04
       135  24  3.102444E+05  1.344872E+03  7.452914E+03  3.165693E+05  4.834454E+03 -4.291749E+04
       135  25  3.680380E+05  1.383531E+04  1.485467E+04  3.164802E+05 -3.831690E+04 -3.516105E+03
       135  26  6.810027E+05  8.755371E+04  7.058836E+04  2.812360E+05 -3.075823E+04 -2.473910E+04
       135  27  9.955615E+05  1.631554E+05  1.317124E+05  3.172767E+05 -2.320060E+04 -4.292511E+04
       136   1 -5.798063E+05 -2.100236E+05 -1.534433E+05  3.176661E+05 -3.837025E+04  5.482131E+04
       136   2 -8.911335E+05 -2.815887E+05 -2.232054E+05  2.730960E+05  1.646626E+04  5.521655E+04
       136   3 -1.207542E+06 -3.462558E+05 -3.269256E+05  2.974469E+05  7.124717E+04  1.791734E+04
       136   4  3.113361E+05  8.077271E+02  9.405251E+03  3.160396E+05 -6.112224E+03  5.482538E+04
       136   5  3.083099E+05  6.306570E+03  1.637284E+04  2.815851E+05 -1.452880E+04  5.520555E+04
       136   6  3.110882E+05  2.968296E+04  3.332366E+04  3.160399E+05 -2.297167E+04  1.792638E+04
       136   7  1.203253E+06  2.115947E+05  1.722256E+05  3.144106E+05  2.619089E+04  5.482927E+04
       136   8  1.509130E+06  2.941144E+05  2.558824E+05  2.900906E+05 -4.558258E+04  5.519372E+04
       136   9  1.831859E+06  4.054620E+05  3.934460E+05  3.346783E+05 -1.174201E+05  1.792981E+04
       136  10 -5.798087E+05 -2.100272E+05 -1.534518E+05  3.176678E+05  1.430979E-09  8.026078E-10
       136  11 -8.911346E+05 -2.815921E+05 -2.232116E+05  2.730953E+05  1.422383E-09  5.169321E-10
       136  12 -1.207548E+06 -3.462575E+05 -3.269358E+05  2.974459E+05  9.218511E-10  2.503428E-11
       136  13  3.113353E+05  8.044886E+02  9.399531E+03  3.160399E+05  1.203332E-10  8.784074E-10
       136  14  3.083089E+05  6.303240E+03  1.636672E+04  2.815857E+05  1.590721E-10  6.487527E-10
       136  15  3.110875E+05  2.968248E+04  3.332206E+04  3.160403E+05 -3.396265E-10  7.724742E-11
       136  16  1.203251E+06  2.115913E+05  1.722187E+05  3.144094E+05 -1.251808E-09  8.343333E-10
       136  17  1.509127E+06  2.941105E+05  2.558727E+05  2.900926E+05 -9.945934E-10  7.002643E-10
       136  18  1.831844E+06  4.054580E+05  3.934195E+05  3.346800E+05 -9.197064E-10  1.119661E-10
       136  19 -5.798063E+05 -2.100236E+05 -1.534433E+05  3.176661E+05  3.837025E+04 -5.482131E+04
       136  20 -8.911335E+05 -2.815887E+05 -2.232054E+05  2.730960E+05 -1.646626E+04 -5.521655E+04
       136  21 -1.207542E+06 -3.462558E+05 -3.269256E+05  2.974469E+05 -7.124717E+04 -1.791734E+04
       136  22  3.113361E+05  8.077271E+02  9.405251E+03  3.160396E+05  6.112224E+03 -5.482538E+04
       136  23  3.083099E+05  6.306570E+03  1.637284E+04  2.815851E+05  1.452880E+04 -5.520555E+04
       136  24  3.110882E+05  2.968296E+04  3.332366E+04  3.160399E+05  2.297167E+04 -1.792638E+04
       136  25  1.203253E+06  2.115947E+05  1.722256E+05  3.144106E+05 -2.619089E+04 -5.482927E+04
       136  26  1.509130E+06  2.941144E+05  2.558824E+05  2.900906E+05  4.558258E+04 -5.519372E+04
       136  27  1.831859E+06  4.054620E+05  3.934460E+05  3.346783E+05  1.174201E+05 -1.792981E+04
       137   1 -3.746814E+05 -1.448398E+06 -3.662369E+05  4.351479E+05 -1.453518E+04 -9.617214E+04
       137   2 -2.413690E+05 -1.025020E+06 -2.156862E+05  3.796759E+05 -4.100034E+04 -2.870156E+04
       137   3 -1.348643E+05 -6.170857E+05 -1.158608E+05  4.164727E+05 -3.201881E+04  3.878888E+04
       137   4 -2.760624E+04 -4.854551E+04 -3.170945E+04  4.188769E+05 -1.441647E+04 -2.190337E+04
       137   5 -5.389560E+03 -4.578446E+04 -1.551421E+04  3.727235E+05 -4.097004E+04 -1.385128E+04
       137   6  3.821710E+02 -4.828041E+04 -8.703872E+03  4.188361E+05 -3.210048E+04 -5.826720E+03
       137   7  3.193311E+05  1.353119E+06  3.027009E+05  4.025677E+05 -1.430183E+04  5.253247E+04
       137   8  2.305301E+05  9.343644E+05  1.846079E+05  3.657592E+05 -4.094011E+04  1.022040E+03
       137   9  1.356109E+05  5.208419E+05  9.844636E+04  4.212015E+05 -3.218245E+04 -5.048222E+04
       137  10 -3.746841E+05 -1.448408E+06 -3.662548E+05  4.351468E+05 -1.217722E-11 -1.099051E-09
       137  11 -2.413710E+05 -1.025022E+06 -2.156909E+05  3.796750E+05  9.568649E-10 -1.224565E-10
       137  12 -1.348658E+05 -6.170875E+05 -1.158655E+05  4.164737E+05  2.703268E-10  1.316627E-09
       137  13 -2.760659E+04 -4.854608E+04 -3.171074E+04  4.188767E+05 -1.047024E-09  2.035226E-10
       137  14 -5.391413E+03 -4.578512E+04 -1.551772E+04  3.727230E+05 -9.247959E-10 -6.584925E-10
       137  15  3.810556E+02 -4.828072E+04 -8.705872E+03  4.188360E+05 -4.267520E-11  6.382058E-10
       137  16  3.193301E+05  1.353116E+06  3.026953E+05  4.025683E+05 -6.964484E-12  7.119993E-10
       137  17  2.305283E+05  9.343640E+05  1.846048E+05  3.657593E+05 -1.877165E-09 -2.145959E-10
       137  18  1.356091E+05  5.208389E+05  9.843963E+04  4.212002E+05  1.705664E-11 -1.171178E-09
       137  19 -3.746814E+05 -1.448398E+06 -3.662369E+05  4.351479E+05  1.453518E+04  9.617214E+04
       137  20 -2.413690E+05 -1.025020E+06 -2.156862E+05  3.796759E+05  4.100034E+04  2.870156E+04
       137  21 -1.348643E+05 -6.170857E+05 -1.158608E+05  4.164727E+05  3.201881E+04 -3.878888E+04
       137  22 -2.760624E+04 -4.854551E+04 -3.170945E+04  4.188769E+05  1.441647E+04  2.190337E+04
       137  23 -5.389560E+03 -4.578446E+04 -1.551421E+04  3.727235E+05  4.097004E+04  1.385128E+04
       137  24  3.821710E+02 -4.828041E+04 -8.703872E+03  4.188361E+05  3.210048E+04  5.826720E+03
       137  25  3.193311E+05  1.353119E+06  3.027009E+05  4.025677E+05  1.430183E+04 -5.253247E+04
       137  26  2.305301E+05  9.343644E+05  1.846079E+05  3.657592E+05  4.094011E+04 -1.022040E+03
       137  27  1.356109E+05  5.208419E+05  9.844636E+04  4.212015E+05  3.218245E+04  5.048222E+04
       138   1 -7.053788E+04 -3.431871E+05 -6.358718E+04  4.195003E+05 -1.567017E+04  3.625233E+04
       138   2  2.896205E+04  7.268633E+04  1.646089E+04  3.723869E+05  8.474115E+03  3.750995E+04
       138   3  1.277623E+05  4.881389E+05  9.543079E+04  4.196066E+05  3.212298E+04  3.877114E+04
       138   4  2.354960E+01 -4.722977E+04 -6.798759E+03  4.193003E+05 -1.574885E+04 -4.714328E+03
       138   5  9.085863E+02 -4.688022E+04 -4.240994E+03  3.721323E+05  8.398980E+03 -2.636193E+03
       138   6  9.594840E+02 -4.726250E+04 -3.331737E+03  4.192985E+05  3.205100E+04 -5.552821E+02
       138   7  7.058070E+04  2.488155E+05  4.999195E+04  4.191001E+05 -1.582749E+04 -4.570007E+04
       138   8 -2.714478E+04 -1.664293E+05 -2.493732E+04  3.718776E+05  8.323868E+03 -4.277484E+04
       138   9 -1.258588E+05 -5.823827E+05 -1.021004E+05  4.189905E+05  3.197902E+04 -3.984870E+04
       138  10 -7.053850E+04 -3.431885E+05 -6.359011E+04  4.195008E+05  7.192924E-10 -6.959377E-10
       138  11  2.896159E+04  7.268480E+04  1.645812E+04  3.723867E+05 -5.069349E-11  4.327313E-10
       138  12  1.277608E+05  4.881370E+05  9.542603E+04  4.196056E+05 -7.189552E-11  1.177607E-09
       138  13  2.327738E+01 -4.722986E+04 -6.799266E+03  4.193002E+05 -1.647347E-10  3.378668E-10
       138  14  9.085087E+02 -4.688025E+04 -4.241139E+03  3.721323E+05 -7.516125E-10 -6.925170E-10
       138  15  9.583808E+02 -4.726278E+04 -3.333668E+03  4.192985E+05  9.291923E-10  6.481328E-10
       138  16  7.057987E+04  2.488132E+05  4.998756E+04  4.190995E+05  5.349672E-11  1.721877E-10
       138  17 -2.714534E+04 -1.664313E+05 -2.494089E+04  3.718779E+05  5.471236E-10 -2.362705E-10
       138  18 -1.258603E+05 -5.823847E+05 -1.021053E+05  4.189916E+05  5.294001E-10 -1.065227E-09
       138  19 -7.053788E+04 -3.431871E+05 -6.358718E+04  4.195003E+05  1.567017E+04 -3.625233E+04
       138  20  2.896205E+04  7.268633E+04  1.646089E+04  3.723869E+05 -8.474115E+03 -3.750995E+04
       138  21  1.277623E+05  4.881389E+05  9.543079E+04  4.196066E+05 -3.212298E+04 -3.877114E+04
       138  22  2.354960E+01 -4.722977E+04 -6.798759E+03  4.193003E+05  1.574885E+04  4.714328E+03
       138  23  9.085863E+02 -4.688022E+04 -4.240994E+03  3.721323E+05 -8.398980E+03  2.636193E+03
       138  24  9.594840E+02 -4.726250E+04 -3.331737E+03  4.192985E+05 -3.205100E+04  5.552821E+02
       138  25  7.058070E+04  2.488155E+05  4.999195E+04  4.191001E+05  1.582749E+04  4.570007E+04
       138  26 -2.714478E+04 -1.664293E+05 -2.493732E+04  3.718776E+05 -8.323868E+03  4.277484E+04
       138  27 -1.258588E+05 -5.823827E+05 -1.021004E+05  4.189905E+05 -3.197902E+04  3.984870E+04
       139   1  1.925071E+05  7.613699E+05  1.462005E+05  4.199980E+05  4.821400E+04  4.361923E+04
       139   2  2.921574E+05  1.172103E+06  2.417920E+05  3.722065E+05  5.356807E+04 -2.319790E+04
       139   3  4.003419E+05  1.593794E+06  3.829480E+05  4.162705E+05  1.792788E+04 -9.003476E+04
       139   4  9.228624E+02 -4.742649E+04 -3.267276E+03  4.187497E+05  4.813989E+04 -6.620512E+01
       139   5 -6.825715E+02 -4.701381E+04 -4.150398E+03  3.728204E+05  5.361579E+04  2.094991E+03
       139   6 -5.702549E+03 -4.775507E+04 -7.324255E+03  4.187584E+05  1.806010E+04  4.281411E+03
       139   7 -1.906977E+05 -8.555851E+05 -1.527552E+05  4.175026E+05  4.806590E+04 -4.369627E+04
       139   8 -2.936142E+05 -1.264715E+06 -2.501668E+05  3.734322E+05  5.366361E+04  2.733924E+04
       139   9 -4.119362E+05 -1.686815E+06 -3.977515E+05  4.212380E+05  1.819331E+04  9.834989E+04
       139  10  1.925041E+05  7.613673E+05  1.461926E+05  4.199963E+05  7.217527E-11 -5.437721E-10
       139  11  2.921542E+05  1.172102E+06  2.417856E+05  3.722075E+05 -7.631048E-10 -3.167756E-10
       139  12  4.003394E+05  1.593785E+06  3.829322E+05  4.162718E+05  2.561961E-11  3.697285E-10
       139  13  9.203739E+02 -4.742712E+04 -3.271630E+03  4.187497E+05 -3.918252E-11  2.793103E-10
       139  14 -6.856594E+02 -4.701459E+04 -4.155808E+03  3.728204E+05  3.361887E-10 -4.934770E-10
       139  15 -5.702904E+03 -4.775518E+04 -7.324903E+03  4.187583E+05 -9.831654E-11  3.975234E-10
       139  16 -1.907007E+05 -8.555878E+05 -1.527632E+05  4.175043E+05  6.794387E-10 -3.296342E-11
       139  17 -2.936175E+05 -1.264716E+06 -2.501736E+05  3.734310E+05 -3.377768E-10  3.187041E-10
       139  18 -4.119392E+05 -1.686826E+06 -3.977703E+05  4.212366E+05 -3.111870E-10 -1.311762E-10
       139  19  1.925071E+05  7.613699E+05  1.462005E+05  4.199980E+05 -4.821400E+04 -4.361923E+04
       139  20  2.921574E+05  1.172103E+06  2.417920E+05  3.722065E+05 -5.356807E+04  2.319790E+04
       139  21  4.003419E+05  1.593794E+06  3.829480E+05  4.162705E+05 -1.792788E+04  9.003476E+04
       139  22  9.228624E+02 -4.742649E+04 -3.267276E+03  4.187497E+05 -4.813989E+04  6.620512E+01
       139  23 -6.825715E+02 -4.701381E+04 -4.150398E+03  3.728204E+05 -5.361579E+04 -2.094991E+03
       139  24 -5.702549E+03 -4.775507E+04 -7.324255E+03  4.187584E+05 -1.806010E+04 -4.281411E+03
       139  25 -1.906977E+05 -8.555851E+05 -1.527552E+05  4.175026E+05 -4.806590E+04  4.369627E+04
       139  26 -2.936142E+05 -1.264715E+06 -2.501668E+05  3.734322E+05 -5.366361E+04 -2.733924E+04
       139  27 -4.119362E+05 -1.686815E+06 -3.977515E+05  4.212380E+05 -1.819331E+04 -9.834989E+04
       140   1  1.799075E+06  3.943869E+05  3.840281E+05  3.075535E+05  1.212419E+05 -1.722150E+04
       140   2  1.508601E+06  2.840955E+05  2.504055E+05  2.633643E+05  5.042989E+04 -5.343154E+04
       140   3  1.236044E+06  2.075941E+05  1.712641E+05  2.807734E+05 -2.032350E+04 -5.418822E+04
       140   4  3.614914E+05  3.923078E+04  4.389920E+04  2.830098E+05  3.038755E+04 -1.721421E+04
       140   5  3.578364E+05  8.411238E+03  2.147448E+04  2.522098E+05  1.930697E+04 -5.344106E+04
       140   6  3.617070E+05  1.068870E+03  1.214838E+04  2.830077E+05  8.251267E+03 -5.418754E+04
       140   7 -1.074178E+06 -3.160667E+05 -2.963417E+05  2.585228E+05 -6.025805E+04 -1.719978E+04
       140   8 -7.916623E+05 -2.673529E+05 -2.075189E+05  2.410762E+05 -1.175958E+04 -5.344949E+04
       140   9 -5.118858E+05 -2.054990E+05 -1.469949E+05  2.852387E+05  3.678694E+04 -5.418666E+04
       140  10  1.799059E+06  3.943826E+05  3.840000E+05  3.075552E+05 -5.880820E-10  1.399271E-10
       140  11  1.508597E+06  2.840917E+05  2.503953E+05  2.633665E+05 -2.413243E-10  3.886003E-10
       140  12  1.236042E+06  2.075909E+05  1.712578E+05  2.807725E+05  4.060124E-10  3.545888E-10
       140  13  3.614903E+05  3.923021E+04  4.389691E+04  2.830103E+05  4.381605E-10  4.590725E-11
       140  14  3.578352E+05  8.408070E+03  2.146841E+04  2.522107E+05  8.501317E-10 -3.229637E-11
       140  15  3.617062E+05  1.065698E+03  1.214274E+04  2.830081E+05 -4.498525E-10  1.840331E-10
       140  16 -1.074182E+06 -3.160680E+05 -2.963491E+05  2.585220E+05  1.887384E-11  1.316679E-10
       140  17 -7.916633E+05 -2.673560E+05 -2.075245E+05  2.410757E+05  4.660766E-10 -3.771825E-11
       140  18 -5.118880E+05 -2.055025E+05 -1.470030E+05  2.852403E+05 -5.725057E-11 -6.123319E-12
       140  19  1.799075E+06  3.943869E+05  3.840281E+05  3.075535E+05 -1.212419E+05  1.722150E+04
       140  20  1.508601E+06  2.840955E+05  2.504055E+05  2.633643E+05 -5.042989E+04  5.343154E+04
       140  21  1.236044E+06  2.075941E+05  1.712641E+05  2.807734E+05  2.032350E+04  5.418822E+04
       140  22  3.614914E+05  3.923078E+04  4.389920E+04  2.830098E+05 -3.038755E+04  1.721421E+04
       140  23  3.578364E+05  8.411238E+03  2.147448E+04  2.522098E+05 -1.930697E+04  5.344106E+04
       140  24  3.617070E+05  1.068870E+03  1.214838E+04  2.830077E+05 -8.251267E+03  5.418754E+04
       140  25 -1.074178E+06 -3.160667E+05 -2.963417E+05  2.585228E+05  6.025805E+04  1.719978E+04
       140  26 -7.916623E+05 -2.673529E+05 -2.075189E+05  2.410762E+05  1.175958E+04  5.344949E+04
       140  27 -5.118858E+05 -2.054990E+05 -1.469949E+05  2.852387E+05 -3.678694E+04  5.418666E+04
       141   1  1.049477E+06  1.643644E+05  1.339566E+05  2.843477E+05 -1.792636E+04 -4.361766E+04
       141   2  7.676393E+05  9.612402E+04  7.762814E+04  2.519287E+05 -2.573115E+04 -2.757662E+04
       141   3  4.874689E+05  3.000871E+04  2.691233E+04  2.833378E+05 -3.353724E+04 -8.646160E+03
       141   4  3.602557E+05  1.741033E+03  9.493894E+03  2.835056E+05  6.625292E+03 -4.361348E+04
       141   5  3.599193E+05  2.908623E+02  5.915193E+03  2.515906E+05  3.677725E+03 -2.756676E+04
       141   6  3.603318E+05  1.278471E+02  4.580578E+03  2.835063E+05  7.254960E+02 -8.629548E+03
       141   7 -3.285026E+05 -1.609086E+05 -1.149852E+05  2.826644E+05  3.115047E+04 -4.360935E+04
       141   8 -4.763649E+04 -9.555090E+04 -6.580055E+04  2.512527E+05  3.306787E+04 -2.755693E+04
       141   9  2.332130E+05 -2.975327E+04 -1.774735E+04  2.836747E+05  3.498143E+04 -8.612914E+03
       141  10  1.049476E+06  1.643623E+05  1.339524E+05  2.843471E+05 -7.371534E-10  4.800029E-10
       141  11  7.676384E+05  9.612302E+04  7.762547E+04  2.519281E+05 -8.519288E-10  3.272709E-10
       141  12  4.874677E+05  3.000833E+04  2.691008E+04  2.833376E+05  7.563273E-10 -6.124819E-12
       141  13  3.602552E+05  1.738978E+03  9.490236E+03  2.835059E+05  2.235885E-10  2.324395E-10
       141  14  3.599191E+05  2.900425E+02  5.913739E+03  2.515907E+05  3.263044E-10  4.265974E-10
       141  15  3.603318E+05  1.277669E+02  4.580437E+03  2.835063E+05  2.838551E-10  1.238229E-10
       141  16 -3.285042E+05 -1.609109E+05 -1.149906E+05  2.826655E+05  5.846730E-10  8.892391E-11
       141  17 -4.763787E+04 -9.555201E+04 -6.580404E+04  2.512534E+05  8.395821E-10  1.532500E-10
       141  18  2.332117E+05 -2.975367E+04 -1.774979E+04  2.836749E+05 -8.323337E-10 -9.706294E-11
       141  19  1.049477E+06  1.643644E+05  1.339566E+05  2.843477E+05  1.792636E+04  4.361766E+04
       141  20  7.676393E+05  9.612402E+04  7.762814E+04  2.519287E+05  2.573115E+04  2.757662E+04
       141  21  4.874689E+05  3.000871E+04  2.691233E+04  2.833378E+05  3.353724E+04  8.646160E+03
       141  22  3.602557E+05  1.741033E+03  9.493894E+03  2.835056E+05 -6.625292E+03  4.361348E+04
       141  23  3.599193E+05  2.908623E+02  5.915193E+03  2.515906E+05 -3.677725E+03  2.756676E+04
       141  24  3.603318E+05  1.278471E+02  4.580578E+03  2.835063E+05 -7.254960E+02  8.629548E+03
       141  25 -3.285026E+05 -1.609086E+05 -1.149852E+05  2.826644E+05 -3.115047E+04  4.360935E+04
       141  26 -4.763649E+04 -9.555090E+04 -6.580055E+04  2.512527E+05 -3.306787E+04  2.755693E+04
       141  27  2.332130E+05 -2.975327E+04 -1.774735E+04  2.836747E+05 -3.498143E+04  8.612914E+03
       142   1  3.039894E+05 -1.317824E+04 -5.812205E+03  2.836244E+05 -3.431349E+04  3.451305E+03
       142   2  2.315865E+04 -7.900573E+04 -5.429540E+04  2.512753E+05 -3.236061E+04  2.246403E+04
       142   3 -2.577344E+05 -1.445385E+05 -1.039729E+05  2.827686E+05 -3.040480E+04  3.874502E+04
       142   4  3.603129E+05  1.385685E+02  4.468077E+03  2.835083E+05 -7.244060E+01  3.468185E+03
       142   5  3.599552E+05  2.594957E+02  5.300068E+03  2.515881E+05 -2.717125E+03  2.247499E+04
       142   6  3.602501E+05  1.474838E+03  8.125939E+03  2.835078E+05 -5.357975E+03  3.875093E+04
       142   7  4.166421E+05  1.345583E+04  1.475264E+04  2.833922E+05  3.417163E+04  3.485051E+03
       142   8  6.968645E+05  7.951897E+04  6.489464E+04  2.519011E+05  2.694197E+04  2.248597E+04
       142   9  9.786075E+05  1.474671E+05  1.202120E+05  2.842477E+05  1.971311E+04  3.875689E+04
       142  10  3.039881E+05 -1.317857E+04 -5.814439E+03  2.836245E+05 -4.400169E-10 -2.395494E-10
       142  11  2.315739E+04 -7.900656E+04 -5.429832E+04  2.512759E+05  1.492455E-11  2.146609E-10
       142  12 -2.577358E+05 -1.445404E+05 -1.039774E+05  2.827695E+05  3.054083E-10  2.027321E-10
       142  13  3.603129E+05  1.385555E+02  4.468055E+03  2.835083E+05  5.162753E-10 -3.477993E-10
       142  14  3.599551E+05  2.589512E+02  5.299105E+03  2.515882E+05  6.724848E-10 -4.518799E-10
       142  15  3.602496E+05  1.473218E+03  8.123062E+03  2.835080E+05  2.391128E-10  4.104507E-11
       142  16  4.166408E+05  1.345550E+04  1.475042E+04  2.833921E+05 -1.600619E-10 -4.566891E-10
       142  17  6.968636E+05  7.951823E+04  6.489233E+04  2.519006E+05  4.439542E-10 -4.958676E-10
       142  18  9.786067E+05  1.474653E+05  1.202084E+05  2.842470E+05  6.529325E-10 -1.409368E-10
       142  19  3.039894E+05 -1.317824E+04 -5.812205E+03  2.836244E+05  3.431349E+04 -3.451305E+03
       142  20  2.315865E+04 -7.900573E+04 -5.429540E+04  2.512753E+05  3.236061E+04 -2.246403E+04
       142  21 -2.577344E+05 -1.445385E+05 -1.039729E+05  2.827686E+05  3.040480E+04 -3.874502E+04
       142  22  3.603129E+05  1.385685E+02  4.468077E+03  2.835083E+05  7.244060E+01 -3.468185E+03
       142  23  3.599552E+05  2.594957E+02  5.300068E+03  2.515881E+05  2.717125E+03 -2.247499E+04
       142  24  3.602501E+05  1.474838E+03  8.125939E+03  2.835078E+05  5.357975E+03 -3.875093E+04
       142  25  4.166421E+05  1.345583E+04  1.475264E+04  2.833922E+05 -3.417163E+04 -3.485051E+03
       142  26  6.968645E+05  7.951897E+04  6.489464E+04  2.519011E+05 -2.694197E+04 -2.248597E+04
       142  27  9.786075E+05  1.474671E+05  1.202120E+05  2.842477E+05 -1.971311E+04 -3.875689E+04
       143   1 -4.412927E+05 -1.889817E+05 -1.363627E+05  2.848501E+05 -3.561648E+04  4.940575E+04
       143   2 -7.206705E+05 -2.518979E+05 -1.974463E+05  2.428489E+05  1.195961E+04  4.969122E+04
       143   3 -1.003544E+06 -3.050742E+05 -2.870519E+05  2.625541E+05  5.949304E+04  1.611659E+04
       143   4  3.614551E+05  9.098102E+02  1.028713E+04  2.830303E+05 -6.748568E+03  4.940885E+04
       143   5  3.582048E+05  7.017429E+03  1.798680E+04  2.521822E+05 -1.600507E+04  4.968245E+04
       143   6  3.612533E+05  3.272743E+04  3.664034E+04  2.830307E+05 -2.528316E+04  1.612459E+04
       143   7  1.164831E+06  1.907654E+05  1.569140E+05  2.812080E+05  2.215568E+04  4.941177E+04
       143   8  1.438194E+06  2.658622E+05  2.333643E+05  2.615320E+05 -4.401738E+04  4.967286E+04
       143   9  1.727779E+06  3.704006E+05  3.602302E+05  3.035524E+05 -1.102449E+05  1.612702E+04
       143  10 -4.412947E+05 -1.889847E+05 -1.363697E+05  2.848515E+05  3.590875E-10  6.289236E-11
       143  11 -7.206713E+05 -2.519006E+05 -1.974512E+05  2.428484E+05 -1.052976E-10 -2.601903E-10
       143  12 -1.003548E+06 -3.050755E+05 -2.870591E+05  2.625533E+05 -2.632619E-10 -4.152451E-11
       143  13  3.614544E+05  9.071759E+02  1.028246E+04  2.830306E+05  9.919705E-10  1.657742E-10
       143  14  3.582039E+05  7.014709E+03  1.798167E+04  2.521829E+05  1.487234E-09 -1.857764E-10
       143  15  3.612525E+05  3.272698E+04  3.663865E+04  2.830311E+05 -1.013930E-10  5.173543E-11
       143  16  1.164830E+06  1.907626E+05  1.569085E+05  2.812071E+05  6.094269E-10  1.924582E-10
       143  17  1.438191E+06  2.658590E+05  2.333561E+05  2.615337E+05  1.080661E-10  2.942500E-10
       143  18  1.727766E+06  3.703971E+05  3.602070E+05  3.035538E+05  2.907655E-10  2.381242E-10
       143  19 -4.412927E+05 -1.889817E+05 -1.363627E+05  2.848501E+05  3.561648E+04 -4.940575E+04
       143  20 -7.206705E+05 -2.518979E+05 -1.974463E+05  2.428489E+05 -1.195961E+04 -4.969122E+04
       143  21 -1.003544E+06 -3.050742E+05 -2.870519E+05  2.625541E+05 -5.949304E+04 -1.611659E+04
       143  22  3.614551E+05  9.098102E+02  1.028713E+04  2.830303E+05  6.748568E+03 -4.940885E+04
       143  23  3.582048E+05  7.017429E+03  1.798680E+04  2.521822E+05  1.600507E+04 -4.968245E+04
       143  24  3.612533E+05  3.272743E+04  3.664034E+04  2.830307E+05  2.528316E+04 -1.612459E+04
       143  25  1.164831E+06  1.907654E+05  1.569140E+05  2.812080E+05 -2.215568E+04 -4.941177E+04
       143  26  1.438194E+06  2.658622E+05  2.333643E+05  2.615320E+05  4.401738E+04 -4.967286E+04
       143  27  1.727779E+06  3.704006E+05  3.602302E+05  3.035524E+05  1.102449E+05 -1.612702E+04
       144   1 -3.600847E+05 -1.345707E+06 -3.526181E+05  4.099051E+05 -1.381815E+04 -9.585770E+04
       144   2 -2.306787E+05 -9.501968E+05 -2.080038E+05  3.559998E+05 -3.915524E+04 -3.042798E+04
       144   3 -1.301485E+05 -5.703792E+05 -1.132908E+05  3.881145E+05 -3.103016E+04  3.502162E+04
       144   4 -3.213687E+04 -2.279665E+04 -3.659793E+04  3.906769E+05 -1.371420E+04 -2.515919E+04
       144   5 -6.491414E+03 -1.964764E+04 -1.800853E+04  3.476458E+05 -3.912779E+04 -1.582689E+04
       144   6  6.230744E+01 -2.256198E+04 -1.029323E+04  3.906338E+05 -3.109987E+04 -6.517750E+03
       144   7  2.956884E+05  1.301732E+06  2.793180E+05  3.714064E+05 -1.361478E+04  4.568960E+04
       144   8  2.176421E+05  9.117261E+05  1.719419E+05  3.392786E+05 -3.910076E+04 -1.204281E+03
       144   9  1.302566E+05  5.255492E+05  9.269779E+04  3.931552E+05 -3.116988E+04 -4.809289E+04
       144  10 -3.600874E+05 -1.345717E+06 -3.526358E+05  4.099040E+05 -3.386612E-10 -1.207951E-09
       144  11 -2.306806E+05 -9.501982E+05 -2.080084E+05  3.559988E+05  4.588926E-10  8.174352E-10
       144  12 -1.301499E+05 -5.703808E+05 -1.132950E+05  3.881154E+05  5.722889E-10  1.870245E-09
       144  13 -3.213724E+04 -2.279737E+04 -3.659947E+04  3.906766E+05 -8.074078E-10  3.470410E-12
       144  14 -6.493125E+03 -1.964832E+04 -1.801188E+04  3.476453E+05  9.523846E-11 -2.297597E-10
       144  15  6.125763E+01 -2.256228E+04 -1.029512E+04  3.906337E+05 -8.977164E-11 -9.931855E-11
       144  16  2.956877E+05  1.301730E+06  2.793138E+05  3.714069E+05 -4.670878E-10  1.357423E-09
       144  17  2.176404E+05  9.117257E+05  1.719390E+05  3.392786E+05 -1.954714E-09 -1.211015E-09
       144  18  1.302550E+05  5.255465E+05  9.269163E+04  3.931540E+05  3.116163E-10 -1.613346E-09
       144  19 -3.600847E+05 -1.345707E+06 -3.526181E+05  4.099051E+05  1.381815E+04  9.585770E+04
       144  20 -2.306787E+05 -9.501968E+05 -2.080038E+05  3.559998E+05  3.915524E+04  3.042798E+04
       144  21 -1.301485E+05 -5.703792E+05 -1.132908E+05  3.881145E+05  3.103016E+04 -3.502162E+04
       144  22 -3.213687E+04 -2.279665E+04 -3.659793E+04  3.906769E+05  1.371420E+04  2.515919E+04
       144  23 -6.491414E+03 -1.964764E+04 -1.800853E+04  3.476458E+05  3.912779E+04  1.582689E+04
       144  24  6.230744E+01 -2.256198E+04 -1.029323E+04  3.906338E+05  3.109987E+04  6.517750E+03
       144  25  2.956884E+05  1.301732E+06  2.793180E+05  3.714064E+05  1.361478E+04 -4.568960E+04
       144  26  2.176421E+05  9.117261E+05  1.719419E+05  3.392786E+05  3.910076E+04  1.204281E+03
       144  27  1.302566E+05  5.255492E+05  9.269779E+04  3.931552E+05  3.116988E+04  4.809289E+04
       145   1 -7.024046E+04 -3.147062E+05 -6.418218E+04  3.914288E+05 -1.580206E+04  3.291441E+04
       145   2  2.277398E+04  7.323799E+04  1.081512E+04  3.472930E+05  6.680108E+03  3.497690E+04
       145   3  1.147067E+05  4.605758E+05  8.412680E+04  3.911308E+05  2.877201E+04  3.704265E+04
       145   4 -3.624221E+02 -2.136593E+04 -8.181723E+03  3.910732E+05 -1.586933E+04 -5.170905E+03
       145   5  6.763750E+02 -2.094543E+04 -5.491870E+03  3.470851E+05  6.615458E+03 -2.462829E+03
       145   6  5.283871E+02 -2.138999E+04 -4.936260E+03  3.910716E+05  2.870966E+04  2.472804E+02
       145   7  6.951133E+04  2.720604E+05  4.782029E+04  3.907173E+05 -1.593655E+04 -4.327379E+04
       145   8 -2.142095E+04 -1.151171E+05 -2.179390E+04  3.468772E+05  6.550827E+03 -3.989705E+04
       145   9 -1.136625E+05 -5.031277E+05 -9.400393E+04  3.910124E+05  2.864728E+04 -3.652028E+04
       145  10 -7.024102E+04 -3.147075E+05 -6.418469E+04  3.914292E+05  4.087251E-10 -1.688625E-09
       145  11  2.277360E+04  7.323666E+04  1.081274E+04  3.472928E+05 -5.736734E-10  2.872617E-10
       145  12  1.147054E+05  4.605741E+05  8.412267E+04  3.911299E+05  2.478599E-10  1.014839E-09
       145  13 -3.626997E+02 -2.136603E+04 -8.182246E+03  3.910731E+05  2.011220E-10  1.845250E-11
       145  14  6.763263E+02 -2.094545E+04 -5.491964E+03  3.470851E+05  2.027380E-09 -2.707953E-10
       145  15  5.275020E+02 -2.139022E+04 -4.937809E+03  3.910716E+05  7.987169E-10 -5.344905E-11
       145  16  6.951055E+04  2.720584E+05  4.781630E+04  3.907167E+05  5.368144E-10  2.069351E-09
       145  17 -2.142143E+04 -1.151189E+05 -2.179697E+04  3.468774E+05  3.299109E-10 -2.611447E-10
       145  18 -1.136637E+05 -5.031294E+05 -9.400798E+04  3.910133E+05  1.391277E-10 -7.298806E-10
       145  19 -7.024046E+04 -3.147062E+05 -6.418218E+04  3.914288E+05  1.580206E+04 -3.291441E+04
       145  20  2.277398E+04  7.323799E+04  1.081512E+04  3.472930E+05 -6.680108E+03 -3.497690E+04
       145  21  1.147067E+05  4.605758E+05  8.412680E+04  3.911308E+05 -2.877201E+04 -3.704265E+04
       145  22 -3.624221E+02 -2.136593E+04 -8.181723E+03  3.910732E+05  1.586933E+04  5.170905E+03
       145  23  6.763750E+02 -2.094543E+04 -5.491870E+03  3.470851E+05 -6.615458E+03  2.462829E+03
       145  24  5.283871E+02 -2.138999E+04 -4.936260E+03  3.910716E+05 -2.870966E+04 -2.472804E+02
       145  25  6.951133E+04  2.720604E+05  4.782029E+04  3.907173E+05  1.593655E+04  4.327379E+04
       145  26 -2.142095E+04 -1.151171E+05 -2.179390E+04  3.468772E+05 -6.550827E+03  3.989705E+04
       145  27 -1.136625E+05 -5.031277E+05 -9.400393E+04  3.910124E+05 -2.864728E+04  3.652028E+04
       146   1  1.751757E+05  7.151434E+05  1.311196E+05  3.919891E+05  4.379737E+04  4.182107E+04
       146   2  2.669189E+05  1.098826E+06  2.186733E+05  3.452586E+05  4.904729E+04 -1.800253E+04
       146   3  3.627850E+05  1.491436E+06  3.461455E+05  3.842215E+05  1.647004E+04 -7.784201E+04
       146   4  5.903641E+02 -2.175527E+04 -5.205117E+03  3.905659E+05  4.373315E+04  1.010646E+03
       146   5 -2.053563E+03 -2.077512E+04 -7.370645E+03  3.477211E+05  4.908714E+04  4.827590E+03
       146   6 -1.160406E+04 -2.203674E+04 -1.377439E+04  3.905811E+05  1.658194E+04  8.665938E+03
       146   7 -1.740251E+05 -7.581244E+05 -1.415463E+05  3.891442E+05  4.366905E+04 -3.975264E+04
       146   8 -2.711033E+05 -1.139182E+06 -2.334772E+05  3.501784E+05  4.912722E+04  2.761738E+04
       146   9 -3.861539E+05 -1.533394E+06 -3.738264E+05  3.969239E+05  1.669580E+04  9.496438E+04
       146  10  1.751731E+05  7.151410E+05  1.311127E+05  3.919876E+05 -5.226497E-10 -2.122439E-09
       146  11  2.669162E+05  1.098825E+06  2.186682E+05  3.452593E+05 -9.485667E-10 -2.993000E-10
       146  12  3.627831E+05  1.491429E+06  3.461336E+05  3.842225E+05 -2.449385E-10  8.017559E-10
       146  13  5.883101E+02 -2.175579E+04 -5.208713E+03  3.905659E+05 -3.669040E-10  2.593959E-12
       146  14 -2.056157E+03 -2.077579E+04 -7.375216E+03  3.477209E+05 -1.523872E-10 -2.617095E-10
       146  15 -1.160438E+04 -2.203689E+04 -1.377505E+04  3.905810E+05 -4.747940E-10 -5.852836E-12
       146  16 -1.740276E+05 -7.581267E+05 -1.415529E+05  3.891456E+05  1.983770E-10  2.327997E-09
       146  17 -2.711061E+05 -1.139183E+06 -2.334832E+05  3.501774E+05 -7.316599E-10  2.842814E-10
       146  18 -3.861567E+05 -1.533404E+06 -3.738439E+05  3.969226E+05  8.542401E-11 -7.186843E-10
       146  19  1.751757E+05  7.151434E+05  1.311196E+05  3.919891E+05 -4.379737E+04 -4.182107E+04
       146  20  2.669189E+05  1.098826E+06  2.186733E+05  3.452586E+05 -4.904729E+04  1.800253E+04
       146  21  3.627850E+05  1.491436E+06  3.461455E+05  3.842215E+05 -1.647004E+04  7.784201E+04
       146  22  5.903641E+02 -2.175527E+04 -5.205117E+03  3.905659E+05 -4.373315E+04 -1.010646E+03
       146  23 -2.053563E+03 -2.077512E+04 -7.370645E+03  3.477211E+05 -4.908714E+04 -4.827590E+03
       146  24 -1.160406E+04 -2.203674E+04 -1.377439E+04  3.905811E+05 -1.658194E+04 -8.665938E+03
       146  25 -1.740251E+05 -7.581244E+05 -1.415463E+05  3.891442E+05 -4.366905E+04  3.975264E+04
       146  26 -2.711033E+05 -1.139182E+06 -2.334772E+05  3.501784E+05 -4.912722E+04 -2.761738E+04
       146  27 -3.861539E+05 -1.533394E+06 -3.738264E+05  3.969239E+05 -1.669580E+04 -9.496438E+04
       147   1  1.690328E+06  3.593443E+05  3.503241E+05  2.814554E+05  1.116785E+05 -1.552607E+04
       147   2  1.425968E+06  2.569348E+05  2.275883E+05  2.402987E+05  4.683743E+04 -4.812966E+04
       147   3  1.178335E+06  1.868352E+05  1.550848E+05  2.551691E+05 -1.795436E+04 -4.869222E+04
       147   4  3.917512E+05  3.850692E+04  4.303764E+04  2.573670E+05  2.978529E+04 -1.552076E+04
       147   5  3.881724E+05  8.292659E+03  2.106052E+04  2.293531E+05  1.891734E+04 -4.813753E+04
       147   6  3.919297E+05  1.066275E+03  1.191755E+04  2.573652E+05  8.069836E+03 -4.869153E+04
       147   7 -9.052634E+05 -2.824455E+05 -2.643403E+05  2.333289E+05 -5.193795E+04 -1.550912E+04
       147   8 -6.485941E+05 -2.404144E+05 -1.855181E+05  2.184258E+05 -8.957126E+03 -4.814444E+04
       147   9 -3.938735E+05 -1.847371E+05 -1.312720E+05  2.595583E+05  3.406201E+04 -4.869064E+04
       147  10  1.690314E+06  3.593407E+05  3.503002E+05  2.814568E+05 -2.270247E-10  3.386050E-11
       147  11  1.425965E+06  2.569317E+05  2.275798E+05  2.403006E+05 -4.255698E-10  3.954317E-10
       147  12  1.178334E+06  1.868325E+05  1.550798E+05  2.551684E+05 -1.182601E-10  3.375211E-10
       147  13  3.917502E+05  3.850642E+04  4.303552E+04  2.573674E+05  1.335650E-10  6.110176E-11
       147  14  3.881714E+05  8.290073E+03  2.105549E+04  2.293538E+05  2.797945E-10  5.290750E-10
       147  15  3.919290E+05  1.063711E+03  1.191298E+04  2.573655E+05  5.462455E-10  3.358398E-10
       147  16 -9.052664E+05 -2.824465E+05 -2.643458E+05  2.333283E+05  4.068731E-10  1.092866E-10
       147  17 -6.485948E+05 -2.404169E+05 -1.855226E+05  2.184255E+05  6.461394E-10  3.105263E-10
       147  18 -3.938754E+05 -1.847399E+05 -1.312786E+05  2.595596E+05  1.472576E-10  3.278548E-10
       147  19  1.690328E+06  3.593443E+05  3.503241E+05  2.814554E+05 -1.116785E+05  1.552607E+04
       147  20  1.425968E+06  2.569348E+05  2.275883E+05  2.402987E+05 -4.683743E+04  4.812966E+04
       147  21  1.178335E+06  1.868352E+05  1.550848E+05  2.551691E+05  1.795436E+04  4.869222E+04
       147  22  3.917512E+05  3.850692E+04  4.303764E+04  2.573670E+05 -2.978529E+04  1.552076E+04
       147  23  3.881724E+05  8.292659E+03  2.106052E+04  2.293531E+05 -1.891734E+04  4.813753E+04
       147  24  3.919297E+05  1.066275E+03  1.191755E+04  2.573652E+05 -8.069836E+03  4.869153E+04
       147  25 -9.052634E+05 -2.824455E+05 -2.643403E+05  2.333289E+05  5.193795E+04  1.550912E+04
       147  26 -6.485941E+05 -2.404144E+05 -1.855181E+05  2.184258E+05  8.957126E+03  4.814444E+04
       147  27 -3.938735E+05 -1.847371E+05 -1.312720E+05  2.595583E+05 -3.406201E+04  4.869064E+04
       148   1  1.008594E+06  1.475629E+05  1.209898E+05  2.586289E+05 -1.591421E+04 -3.906926E+04
       148   2  7.522847E+05  8.539741E+04  6.955771E+04  2.291162E+05 -2.320202E+04 -2.445383E+04
       148   3  4.975316E+05  2.525151E+04  2.337549E+04  2.576453E+05 -3.049062E+04 -7.230261E+03
       148   4  3.905060E+05  1.712119E+03  9.320931E+03  2.578151E+05  6.475182E+03 -3.906570E+04
       148   5  3.901723E+05  2.766037E+02  5.826446E+03  2.287934E+05  3.571756E+03 -2.444567E+04
       148   6  3.905676E+05  1.029557E+02  4.540061E+03  2.578157E+05  6.646270E+02 -7.216629E+03
       148   7 -2.272096E+05 -1.441597E+05 -1.023610E+05  2.570020E+05  2.884293E+04 -3.906219E+04
       148   8  2.818948E+04 -8.485098E+04 -5.790691E+04  2.284708E+05  3.033039E+04 -2.443752E+04
       148   9  2.836169E+05 -2.504570E+04 -1.429214E+04  2.579860E+05  3.181467E+04 -7.202977E+03
       148  10  1.008593E+06  1.475612E+05  1.209864E+05  2.586284E+05  4.392894E-10  1.878566E-10
       148  11  7.522840E+05  8.539662E+04  6.955558E+04  2.291157E+05  6.236220E-10 -5.162423E-11
       148  12  4.975306E+05  2.525120E+04  2.337365E+04  2.576452E+05  1.769699E-11 -1.783580E-10
       148  13  3.905055E+05  1.710468E+03  9.317984E+03  2.578153E+05  1.114225E-09  1.897921E-10
       148  14  3.901721E+05  2.759584E+02  5.825298E+03  2.287935E+05  5.352814E-10 -1.440791E-10
       148  15  3.905676E+05  1.028997E+02  4.539963E+03  2.578157E+05 -5.803790E-10 -2.960855E-10
       148  16 -2.272109E+05 -1.441616E+05 -1.023655E+05  2.570029E+05 -1.986171E-10  2.297417E-10
       148  17  2.818834E+04 -8.485187E+04 -5.790976E+04  2.284714E+05  5.760910E-10 -3.026539E-10
       148  18  2.836158E+05 -2.504603E+04 -1.429414E+04  2.579862E+05  3.599350E-10 -1.683626E-10
       148  19  1.008594E+06  1.475629E+05  1.209898E+05  2.586289E+05  1.591421E+04  3.906926E+04
       148  20  7.522847E+05  8.539741E+04  6.955771E+04  2.291162E+05  2.320202E+04  2.445383E+04
       148  21  4.975316E+05  2.525151E+04  2.337549E+04  2.576453E+05  3.049062E+04  7.230261E+03
       148  22  3.905060E+05  1.712119E+03  9.320931E+03  2.578151E+05 -6.475182E+03  3.906570E+04
       148  23  3.901723E+05  2.766037E+02  5.826446E+03  2.287934E+05 -3.571756E+03  2.444567E+04
       148  24  3.905676E+05  1.029557E+02  4.540061E+03  2.578157E+05 -6.646270E+02  7.216629E+03
       148  25 -2.272096E+05 -1.441597E+05 -1.023610E+05  2.570020E+05 -2.884293E+04  3.906219E+04
       148  26  2.818948E+04 -8.485098E+04 -5.790691E+04  2.284708E+05 -3.033039E+04  2.443752E+04
       148  27  2.836169E+05 -2.504570E+04 -1.429214E+04  2.579860E+05 -3.181467E+04  7.202977E+03
       149   1  3.306792E+05 -1.402303E+04 -6.373795E+03  2.579404E+05 -3.126668E+04  3.770680E+03
       149   2  7.527275E+04 -7.385806E+04 -5.035509E+04  2.284887E+05 -2.970689E+04  2.105106E+04
       149   3 -1.801523E+05 -1.333248E+05 -9.525817E+04  2.570886E+05 -2.814447E+04  3.582776E+04
       149   4  3.905518E+05  1.110536E+02  4.447290E+03  2.578169E+05 -1.267172E+02  3.784481E+03
       149   5  3.901994E+05  2.466481E+02  5.318589E+03  2.287919E+05 -2.779875E+03  2.105988E+04
       149   6  3.904983E+05  1.485036E+03  8.191819E+03  2.578164E+05 -5.429850E+03  3.583235E+04
       149   7  4.504301E+05  1.424545E+04  1.527188E+04  2.576934E+05  3.101617E+04  3.798267E+03
       149   8  7.052246E+05  7.434631E+04  6.099134E+04  2.290953E+05  2.416040E+04  2.106873E+04
       149   9  9.614668E+05  1.362768E+05  1.116308E+05  2.585449E+05  1.730508E+04  3.583699E+04
       149  10  3.306781E+05 -1.402330E+04 -6.375658E+03  2.579405E+05 -1.802887E-10  1.672165E-10
       149  11  7.527168E+04 -7.385878E+04 -5.035758E+04  2.284892E+05 -1.577304E-10  3.737463E-11
       149  12 -1.801535E+05 -1.333264E+05 -9.526207E+04  2.570894E+05 -6.992920E-10  2.155915E-11
       149  13  3.905518E+05  1.110382E+02  4.447263E+03  2.578169E+05 -2.939393E-10 -8.120208E-11
       149  14  3.901993E+05  2.461697E+02  5.317741E+03  2.287920E+05  8.679911E-10  7.535694E-11
       149  15  3.904979E+05  1.483648E+03  8.189350E+03  2.578166E+05 -1.078080E-10  9.002369E-11
       149  16  4.504290E+05  1.424518E+04  1.527004E+04  2.576933E+05  3.706051E-10 -1.828716E-10
       149  17  7.052238E+05  7.434568E+04  6.098941E+04  2.290949E+05  4.982152E-10 -4.859809E-11
       149  18  9.614661E+05  1.362754E+05  1.116279E+05  2.585444E+05  4.729423E-10 -8.180947E-11
       149  19  3.306792E+05 -1.402303E+04 -6.373795E+03  2.579404E+05  3.126668E+04 -3.770680E+03
       149  20  7.527275E+04 -7.385806E+04 -5.035509E+04  2.284887E+05  2.970689E+04 -2.105106E+04
       149  21 -1.801523E+05 -1.333248E+05 -9.525817E+04  2.570886E+05  2.814447E+04 -3.582776E+04
       149  22  3.905518E+05  1.110536E+02  4.447290E+03  2.578169E+05  1.267172E+02 -3.784481E+03
       149  23  3.901994E+05  2.466481E+02  5.318589E+03  2.287919E+05  2.779875E+03 -2.105988E+04
       149  24  3.904983E+05  1.485036E+03  8.191819E+03  2.578164E+05  5.429850E+03 -3.583235E+04
       149  25  4.504301E+05  1.424545E+04  1.527188E+04  2.576934E+05 -3.101617E+04 -3.798267E+03
       149  26  7.052246E+05  7.434631E+04  6.099134E+04  2.290953E+05 -2.416040E+04 -2.106873E+04
       149  27  9.614668E+05  1.362768E+05  1.116308E+05  2.585449E+05 -1.730508E+04 -3.583699E+04
       150   1 -3.469679E+05 -1.737878E+05 -1.244999E+05  2.592398E+05 -3.304366E+04  4.551175E+04
       150   2 -6.013280E+05 -2.303718E+05 -1.793799E+05  2.199007E+05  9.619480E+03  4.564543E+04
       150   3 -8.583251E+05 -2.761874E+05 -2.593257E+05  2.366688E+05  5.224656E+04  1.478846E+04
       150   4  3.917186E+05  9.260027E+02  1.038147E+04  2.573817E+05 -6.830066E+03  4.551397E+04
       150   5  3.884688E+05  7.131381E+03  1.818137E+04  2.293328E+05 -1.619181E+04  4.563831E+04
       150   6  3.915488E+05  3.313018E+04  3.704687E+04  2.573824E+05 -2.557182E+04  1.479617E+04
       150   7  1.130937E+06  1.756094E+05  1.452434E+05  2.555212E+05  1.941389E+04  4.551602E+04
       150   8  1.379203E+06  2.445752E+05  2.156960E+05  2.387802E+05 -4.204343E+04  4.563042E+04
       150   9  1.642872E+06  3.423404E+05  3.333337E+05  2.781378E+05 -1.035462E+05  1.479870E+04
       150  10 -3.469696E+05 -1.737903E+05 -1.245059E+05  2.592411E+05 -5.723901E-10  5.316770E-11
       150  11 -6.013287E+05 -2.303740E+05 -1.793840E+05  2.199003E+05 -1.048543E-10  7.992696E-12
       150  12 -8.583281E+05 -2.761884E+05 -2.593312E+05  2.366681E+05 -1.422165E-10  1.077127E-10
       150  13  3.917180E+05  9.237652E+02  1.037749E+04  2.573820E+05  1.600810E-10 -8.653883E-11
       150  14  3.884680E+05  7.129073E+03  1.817696E+04  2.293334E+05 -2.474731E-10 -2.285393E-10
       150  15  3.915481E+05  3.312977E+04  3.704523E+04  2.573828E+05 -6.469876E-11 -2.277519E-10
       150  16  1.130936E+06  1.756070E+05  1.452388E+05  2.555205E+05  6.700660E-10 -3.973696E-11
       150  17  1.379201E+06  2.445725E+05  2.156887E+05  2.387817E+05 -3.431064E-10 -1.669923E-10
       150  18  1.642861E+06  3.423373E+05  3.333132E+05  2.781391E+05  8.266268E-10 -3.192493E-10
       150  19 -3.469679E+05 -1.737878E+05 -1.244999E+05  2.592398E+05  3.304366E+04 -4.551175E+04
       150  20 -6.013280E+05 -2.303718E+05 -1.793799E+05  2.199007E+05 -9.619480E+03 -4.564543E+04
       150  21 -8.583251E+05 -2.761874E+05 -2.593257E+05  2.366688E+05 -5.224656E+04 -1.478846E+04
       150  22  3.917186E+05  9.260027E+02  1.038147E+04  2.573817E+05  6.830066E+03 -4.551397E+04
       150  23  3.884688E+05  7.131381E+03  1.818137E+04  2.293328E+05  1.619181E+04 -4.563831E+04
       150  24  3.915488E+05  3.313018E+04  3.704687E+04  2.573824E+05  2.557182E+04 -1.479617E+04
       150  25  1.130937E+06  1.756094E+05  1.452434E+05  2.555212E+05 -1.941389E+04 -4.551602E+04
       150  26  1.379203E+06  2.445752E+05  2.156960E+05  2.387802E+05  4.204343E+04 -4.563042E+04
       150  27  1.642872E+06  3.423404E+05  3.333337E+05  2.781378E+05  1.035462E+05 -1.479870E+04
       151   1 -3.420501E+05 -1.240155E+06 -3.352587E+05  3.802204E+05 -1.310449E+04 -9.349382E+04
       151   2 -2.193618E+05 -8.754372E+05 -1.987219E+05  3.291323E+05 -3.738099E+04 -3.102420E+04
       151   3 -1.259531E+05 -5.261302E+05 -1.102477E+05  3.572161E+05 -3.025801E+04  3.146376E+04
       151   4 -3.388224E+04  3.176567E+03 -3.840792E+04  3.597890E+05 -1.301373E+04 -2.631593E+04
       151   5 -6.969283E+03  6.459638E+03 -1.897238E+04  3.201823E+05 -3.735589E+04 -1.649216E+04
       151   6 -1.550830E+02  3.380959E+03 -1.097714E+04  3.597475E+05 -3.031668E+04 -6.688046E+03
       151   7  2.741778E+05  1.247938E+06  2.583513E+05  3.393156E+05 -1.292752E+04  4.099613E+04
       151   8  2.053751E+05  8.890974E+05  1.607371E+05  3.112190E+05 -3.733124E+04 -1.939831E+03
       151   9  1.256275E+05  5.331665E+05  8.828672E+04  3.622810E+05 -3.037563E+04 -4.487160E+04
       151  10 -3.420526E+05 -1.240164E+06 -3.352755E+05  3.802194E+05 -4.527542E-10 -1.309344E-09
       151  11 -2.193636E+05 -8.754386E+05 -1.987263E+05  3.291313E+05  2.878599E-10 -4.858474E-11
       151  12 -1.259543E+05 -5.261316E+05 -1.102512E+05  3.572169E+05 -6.906473E-10  7.222355E-10
       151  13 -3.388260E+04  3.175779E+03 -3.840954E+04  3.597887E+05 -4.984792E-10 -3.689823E-10
       151  14 -6.970854E+03  6.458972E+03 -1.897551E+04  3.201818E+05 -5.726163E-10  9.349527E-10
       151  15 -1.560817E+02  3.380664E+03 -1.097895E+04  3.597474E+05 -1.437263E-09 -2.304746E-10
       151  16  2.741772E+05  1.247936E+06  2.583478E+05  3.393160E+05 -4.322567E-11  1.144479E-09
       151  17  2.053736E+05  8.890970E+05  1.607345E+05  3.112189E+05 -1.520641E-09  1.538543E-10
       151  18  1.256260E+05  5.331641E+05  8.828121E+04  3.622799E+05 -9.861187E-11 -7.556472E-10
       151  19 -3.420501E+05 -1.240155E+06 -3.352587E+05  3.802204E+05  1.310449E+04  9.349382E+04
       151  20 -2.193618E+05 -8.754372E+05 -1.987219E+05  3.291323E+05  3.738099E+04  3.102420E+04
       151  21 -1.259531E+05 -5.261302E+05 -1.102477E+05  3.572161E+05  3.025801E+04 -3.146376E+04
       151  22 -3.388224E+04  3.176567E+03 -3.840792E+04  3.597890E+05  1.301373E+04  2.631593E+04
       151  23 -6.969283E+03  6.459638E+03 -1.897238E+04  3.201823E+05  3.735589E+04  1.649216E+04
       151  24 -1.550830E+02  3.380959E+03 -1.097714E+04  3.597475E+05  3.031668E+04  6.688046E+03
       151  25  2.741778E+05  1.247938E+06  2.583513E+05  3.393156E+05  1.292752E+04 -4.099613E+04
       151  26  2.053751E+05  8.890974E+05  1.607371E+05  3.112190E+05  3.733124E+04  1.939831E+03
       151  27  1.256275E+05  5.331665E+05  8.828672E+04  3.622810E+05  3.037563E+04  4.487160E+04
       152   1 -7.083363E+04 -2.905176E+05 -6.478065E+04  3.606003E+05 -1.626210E+04  2.966660E+04
       152   2  1.497533E+04  6.681214E+04  4.500224E+03  3.198089E+05  4.390143E+03  3.230581E+04
       152   3  9.945737E+04  4.234078E+05  7.166941E+04  3.600293E+05  2.478659E+04  3.494768E+04
       152   4 -6.056579E+02  4.624601E+03 -8.823674E+03  3.601611E+05 -1.631880E+04 -5.231442E+03
       152   5  4.923616E+02  5.083104E+03 -6.187923E+03  3.196543E+05  4.335080E+03 -2.170843E+03
       152   6  1.962610E+02  4.610053E+03 -5.956634E+03  3.601598E+05  2.473290E+04  8.909863E+02
       152   7  6.961788E+04  2.998535E+05  4.713401E+04  3.597216E+05 -1.637542E+04 -4.014568E+04
       152   8 -1.399018E+04 -5.663965E+04 -1.687174E+04  3.194996E+05  4.280031E+03 -3.664417E+04
       152   9 -9.907427E+04 -4.140153E+05 -8.358569E+04  3.602902E+05  2.467917E+04 -3.314334E+04
       152  10 -7.083415E+04 -2.905186E+05 -6.478281E+04  3.606007E+05 -1.571173E-10 -7.312010E-10
       152  11  1.497503E+04  6.681102E+04  4.498227E+03  3.198088E+05 -1.092262E-09  5.531960E-10
       152  12  9.945638E+04  4.234063E+05  7.166596E+04  3.600286E+05  1.972828E-10  4.733561E-10
       152  13 -6.059511E+02  4.624500E+03 -8.824226E+03  3.601610E+05 -3.790622E-10 -6.142859E-10
       152  14  4.923401E+02  5.083094E+03 -6.187968E+03  3.196543E+05  6.448339E-10  1.120373E-09
       152  15  1.956039E+02  4.609888E+03 -5.957785E+03  3.601598E+05 -2.378823E-10 -1.860232E-10
       152  16  6.961716E+04  2.998517E+05  4.713048E+04  3.597211E+05 -6.359855E-11  4.603664E-10
       152  17 -1.399056E+04 -5.664109E+04 -1.687429E+04  3.194997E+05  5.944605E-11  1.009379E-12
       152  18 -9.907522E+04 -4.140166E+05 -8.358891E+04  3.602909E+05 -7.341158E-10 -4.460727E-10
       152  19 -7.083363E+04 -2.905176E+05 -6.478065E+04  3.606003E+05  1.626210E+04 -2.966660E+04
       152  20  1.497533E+04  6.681214E+04  4.500224E+03  3.198089E+05 -4.390143E+03 -3.230581E+04
       152  21  9.945737E+04  4.234078E+05  7.166941E+04  3.600293E+05 -2.478659E+04 -3.494768E+04
       152  22 -6.056579E+02  4.624601E+03 -8.823674E+03  3.601611E+05  1.631880E+04  5.231442E+03
       152  23  4.923616E+02  5.083104E+03 -6.187923E+03  3.196543E+05 -4.335080E+03  2.170843E+03
       152  24  1.962610E+02  4.610053E+03 -5.956634E+03  3.601598E+05 -2.473290E+04 -8.909863E+02
       152  25  6.961788E+04  2.998535E+05  4.713401E+04  3.597216E+05  1.637542E+04  4.014568E+04
       152  26 -1.399018E+04 -5.663965E+04 -1.687174E+04  3.194996E+05 -4.280031E+03  3.664417E+04
       152  27 -9.907427E+04 -4.140153E+05 -8.358569E+04  3.602902E+05 -2.467917E+04  3.314334E+04
       153   1  1.552099E+05  6.576166E+05  1.146277E+05  3.612170E+05  3.865032E+04  3.951359E+04
       153   2  2.387190E+05  1.011483E+06  1.937916E+05  3.164465E+05  4.384805E+04 -1.315145E+04
       153   3  3.228701E+05  1.372451E+06  3.073514E+05  3.506310E+05  1.479569E+04 -6.582785E+04
       153   4  3.337546E+02  4.101119E+03 -6.483387E+03  3.597032E+05  3.859489E+04  1.832154E+03
       153   5 -3.016598E+03  5.487420E+03 -9.574554E+03  3.202299E+05  4.388041E+04  6.780976E+03
       153   6 -1.571413E+04  3.868312E+03 -1.824890E+04  3.597220E+05  1.488950E+04  1.174843E+04
       153   7 -1.545661E+05 -6.489978E+05 -1.276071E+05  3.581908E+05  3.853961E+04 -3.581067E+04
       153   8 -2.448147E+05 -9.995443E+05 -2.129915E+05  3.240065E+05  4.391305E+04  2.668175E+04
       153   9 -3.544297E+05 -1.362985E+06 -3.439576E+05  3.687919E+05  1.498573E+04  8.915478E+04
       153  10  1.552079E+05  6.576145E+05  1.146220E+05  3.612158E+05 -5.046374E-11 -3.779587E-10
       153  11  2.387169E+05  1.011482E+06  1.937876E+05  3.164470E+05 -1.724879E-10 -1.119047E-10
       153  12  3.228687E+05  1.372446E+06  3.073428E+05  3.506318E+05 -4.295686E-11 -4.532191E-10
       153  13  3.321543E+02  4.100716E+03 -6.486192E+03  3.597032E+05 -7.136044E-10 -5.336719E-10
       153  14 -3.018678E+03  5.486854E+03 -9.578258E+03  3.202297E+05 -1.455598E-10  9.144361E-10
       153  15 -1.571441E+04  3.868105E+03 -1.824958E+04  3.597219E+05 -6.144722E-10 -1.222123E-10
       153  16 -1.545681E+05 -6.489996E+05 -1.276123E+05  3.581919E+05 -2.970873E-11  4.875363E-11
       153  17 -2.448169E+05 -9.995456E+05 -2.129964E+05  3.240056E+05 -5.704008E-10  5.622300E-10
       153  18 -3.544321E+05 -1.362994E+06 -3.439730E+05  3.687909E+05  2.957927E-10  4.120018E-10
       153  19  1.552099E+05  6.576166E+05  1.146277E+05  3.612170E+05 -3.865032E+04 -3.951359E+04
       153  20  2.387190E+05  1.011483E+06  1.937916E+05  3.164465E+05 -4.384805E+04  1.315145E+04
       153  21  3.228701E+05  1.372451E+06  3.073514E+05  3.506310E+05 -1.479569E+04  6.582785E+04
       153  22  3.337546E+02  4.101119E+03 -6.483387E+03  3.597032E+05 -3.859489E+04 -1.832154E+03
       153  23 -3.016598E+03  5.487420E+03 -9.574554E+03  3.202299E+05 -4.388041E+04 -6.780976E+03
       153  24 -1.571413E+04  3.868312E+03 -1.824890E+04  3.597220E+05 -1.488950E+04 -1.174843E+04
       153  25 -1.545661E+05 -6.489978E+05 -1.276071E+05  3.581908E+05 -3.853961E+04  3.581067E+04
       153  26 -2.448147E+05 -9.995443E+05 -2.129915E+05  3.240065E+05 -4.391305E+04 -2.668175E+04
       153  27 -3.544297E+05 -1.362985E+06 -3.439576E+05  3.687919E+05 -1.498573E+04 -8.915478E+04
       154   1  1.583734E+06  3.256254E+05  3.182091E+05  2.541426E+05  1.037540E+05 -1.382588E+04
       154   2  1.347817E+06  2.300352E+05  2.057324E+05  2.155678E+05  4.443085E+04 -4.285613E+04
       154   3  1.127809E+06  1.665230E+05  1.398446E+05  2.268835E+05 -1.485096E+04 -4.335405E+04
       154   4  4.274555E+05  3.993394E+04  4.458321E+04  2.291800E+05  3.083959E+04 -1.382062E+04
       154   5  4.237518E+05  8.635592E+03  2.183141E+04  2.042342E+05  1.957227E+04 -4.286192E+04
       154   6  4.275995E+05  1.113446E+03  1.236740E+04  2.291773E+05  8.322025E+03 -4.335407E+04
       154   7 -7.275845E+05 -2.458481E+05 -2.291152E+05  2.042638E+05 -4.194009E+04 -1.380953E+04
       154   8 -4.994969E+05 -2.128154E+05 -1.621098E+05  1.929177E+05 -5.250141E+03 -4.286682E+04
       154   9 -2.721331E+05 -1.643234E+05 -1.151275E+05  2.314684E+05  3.146962E+04 -4.335391E+04
       154  10  1.583723E+06  3.256223E+05  3.181886E+05  2.541438E+05 -2.618927E-10 -9.539712E-11
       154  11  1.347814E+06  2.300327E+05  2.057252E+05  2.155694E+05 -2.293756E-10 -2.404395E-10
       154  12  1.127808E+06  1.665209E+05  1.398407E+05  2.268830E+05 -4.549133E-10  4.487734E-10
       154  13  4.274544E+05  3.993348E+04  4.458106E+04  2.291803E+05 -4.482622E-12  3.469696E-10
       154  14  4.237509E+05  8.633515E+03  2.182724E+04  2.042349E+05 -8.734701E-10  3.007406E-10
       154  15  4.275989E+05  1.111408E+03  1.236374E+04  2.291776E+05  8.511841E-10  4.090150E-10
       154  16 -7.275864E+05 -2.458488E+05 -2.291188E+05  2.042633E+05  5.001426E-11  9.787038E-11
       154  17 -4.994974E+05 -2.128173E+05 -1.621133E+05  1.929175E+05  5.070302E-11  5.422112E-10
       154  18 -2.721346E+05 -1.643257E+05 -1.151329E+05  2.314695E+05  1.492160E-10  3.498877E-10
       154  19  1.583734E+06  3.256254E+05  3.182091E+05  2.541426E+05 -1.037540E+05  1.382588E+04
       154  20  1.347817E+06  2.300352E+05  2.057324E+05  2.155678E+05 -4.443085E+04  4.285613E+04
       154  21  1.127809E+06  1.665230E+05  1.398446E+05  2.268835E+05  1.485096E+04  4.335405E+04
       154  22  4.274555E+05  3.993394E+04  4.458321E+04  2.291800E+05 -3.083959E+04  1.382062E+04
       154  23  4.237518E+05  8.635592E+03  2.183141E+04  2.042342E+05 -1.957227E+04  4.286192E+04
       154  24  4.275995E+05  1.113446E+03  1.236740E+04  2.291773E+05 -8.322025E+03  4.335407E+04
       154  25 -7.275845E+05 -2.458481E+05 -2.291152E+05  2.042638E+05  4.194009E+04  1.380953E+04
       154  26 -4.994969E+05 -2.128154E+05 -1.621098E+05  1.929177E+05  5.250141E+03  4.286682E+04
       154  27 -2.721331E+05 -1.643234E+05 -1.151275E+05  2.314684E+05 -3.146962E+04  4.335391E+04
       155   1  9.764512E+05  1.316276E+05  1.091162E+05  2.304003E+05 -1.327038E+04 -3.478479E+04
       155   2  7.481653E+05  7.604740E+04  6.284113E+04  2.040560E+05 -2.021456E+04 -2.176933E+04
       155   3  5.213567E+05  2.244751E+04  2.158101E+04  2.294007E+05 -2.715934E+04 -6.431659E+03
       155   4  4.261240E+05  1.766281E+03  9.689396E+03  2.295793E+05  6.666856E+03 -3.478245E+04
       155   5  4.257716E+05  2.643081E+02  6.100854E+03  2.037342E+05  3.627130E+03 -2.176344E+04
       155   6  4.261730E+05  6.936226E+01  4.820546E+03  2.295797E+05  5.844478E+02 -6.421529E+03
       155   7 -1.239080E+05 -1.281117E+05 -8.974785E+04  2.287589E+05  2.658693E+04 -3.478016E+04
       155   8  1.034806E+05 -7.552416E+04 -5.064108E+04  2.034125E+05  2.745682E+04 -2.175756E+04
       155   9  3.309998E+05 -2.230887E+04 -1.193735E+04  2.297587E+05  2.832411E+04 -6.411382E+03
       155  10  9.764507E+05  1.316262E+05  1.091136E+05  2.303999E+05  2.176510E-10  5.312417E-10
       155  11  7.481648E+05  7.604679E+04  6.283948E+04  2.040556E+05 -5.733644E-10  1.898807E-10
       155  12  5.213559E+05  2.244727E+04  2.157954E+04  2.294006E+05  5.634636E-10 -4.244565E-11
       155  13  4.261236E+05  1.764970E+03  9.687038E+03  2.295795E+05  1.009815E-09  4.593881E-10
       155  14  4.257714E+05  2.637958E+02  6.099939E+03  2.037342E+05  3.548132E-10  2.048564E-10
       155  15  4.261730E+05  6.931788E+01  4.820468E+03  2.295797E+05 -1.258042E-11 -3.328257E-10
       155  16 -1.239090E+05 -1.281132E+05 -8.975145E+04  2.287596E+05 -1.715460E-10  1.461507E-10
       155  17  1.034796E+05 -7.552487E+04 -5.064339E+04  2.034130E+05  5.101206E-10  4.632926E-11
       155  18  3.309990E+05 -2.230913E+04 -1.193894E+04  2.297589E+05 -6.568567E-11 -4.388154E-10
       155  19  9.764512E+05  1.316276E+05  1.091162E+05  2.304003E+05  1.327038E+04  3.478479E+04
       155  20  7.481653E+05  7.604740E+04  6.284113E+04  2.040560E+05  2.021456E+04  2.176933E+04
       155  21  5.213567E+05  2.244751E+04  2.158101E+04  2.294007E+05  2.715934E+04  6.431659E+03
       155  22  4.261240E+05  1.766281E+03  9.689396E+03  2.295793E+05 -6.666856E+03  3.478245E+04
       155  23  4.257716E+05  2.643081E+02  6.100854E+03  2.037342E+05 -3.627130E+03  2.176344E+04
       155  24  4.261730E+05  6.936226E+01  4.820546E+03  2.295797E+05 -5.844478E+02  6.421529E+03
       155  25 -1.239080E+05 -1.281117E+05 -8.974785E+04  2.287589E+05 -2.658693E+04  3.478016E+04
       155  26  1.034806E+05 -7.552416E+04 -5.064108E+04  2.034125E+05 -2.745682E+04  2.175756E+04
       155  27  3.309998E+05 -2.230887E+04 -1.193735E+04  2.297587E+05 -2.832411E+04  6.411382E+03
       156   1  3.727847E+05 -1.252571E+04 -4.882131E+03  2.297320E+05 -2.798810E+04  3.364273E+03
       156   2  1.452752E+05 -6.575490E+04 -4.379419E+04  2.034231E+05 -2.712517E+04  1.875127E+04
       156   3 -8.212774E+04 -1.184264E+05 -8.312567E+04  2.288100E+05 -2.626004E+04  3.190882E+04
       156   4  4.261635E+05  7.465176E+01  4.764216E+03  2.295805E+05 -2.575809E+02  3.374539E+03
       156   5  4.257893E+05  2.481808E+02  5.792801E+03  2.037332E+05 -3.146221E+03  1.875768E+04
       156   6  4.261208E+05  1.632219E+03  9.004362E+03  2.295801E+05 -6.032361E+03  3.191196E+04
       156   7  4.795468E+05  1.267526E+04  1.441334E+04  2.294290E+05  2.747525E+04  3.384790E+03
       156   8  7.063815E+05  6.624725E+04  5.537905E+04  2.040435E+05  2.084325E+04  1.876410E+04
       156   9  9.346215E+05  1.216765E+05  1.011257E+05  2.303507E+05  1.421143E+04  3.191514E+04
       156  10  3.727839E+05 -1.252593E+04 -4.883623E+03  2.297321E+05 -9.041118E-11  9.865268E-11
       156  11  1.452743E+05 -6.575547E+04 -4.379623E+04  2.034235E+05 -7.024001E-10 -3.176265E-10
       156  12 -8.212876E+04 -1.184276E+05 -8.312888E+04  2.288107E+05 -5.521768E-11 -3.584953E-10
       156  13  4.261635E+05  7.463951E+01  4.764194E+03  2.295805E+05  2.810458E-10 -3.011141E-10
       156  14  4.257892E+05  2.478002E+02  5.792121E+03  2.037333E+05 -4.705310E-10 -2.133057E-10
       156  15  4.261205E+05  1.631116E+03  9.002380E+03  2.295802E+05  1.394630E-10 -4.387331E-10
       156  16  4.795460E+05  1.267505E+04  1.441190E+04  2.294289E+05  7.427919E-10 -4.895911E-10
       156  17  7.063810E+05  6.624676E+04  5.537757E+04  2.040432E+05  8.127023E-10 -2.759512E-10
       156  18  9.346211E+05  1.216754E+05  1.011234E+05  2.303504E+05  6.568669E-11 -4.610632E-10
       156  19  3.727847E+05 -1.252571E+04 -4.882131E+03  2.297320E+05  2.798810E+04 -3.364273E+03
       156  20  1.452752E+05 -6.575490E+04 -4.379419E+04  2.034231E+05  2.712517E+04 -1.875127E+04
       156  21 -8.212774E+04 -1.184264E+05 -8.312567E+04  2.288100E+05  2.626004E+04 -3.190882E+04
       156  22  4.261635E+05  7.465176E+01  4.764216E+03  2.295805E+05  2.575809E+02 -3.374539E+03
       156  23  4.257893E+05  2.481808E+02  5.792801E+03  2.037332E+05  3.146221E+03 -1.875768E+04
       156  24  4.261208E+05  1.632219E+03  9.004362E+03  2.295801E+05  6.032361E+03 -3.191196E+04
       156  25  4.795468E+05  1.267526E+04  1.441334E+04  2.294290E+05 -2.747525E+04 -3.384790E+03
       156  26  7.063815E+05  6.624725E+04  5.537905E+04  2.040435E+05 -2.084325E+04 -1.876410E+04
       156  27  9.346215E+05  1.216765E+05  1.011257E+05  2.303507E+05 -1.421143E+04 -3.191514E+04
       157   1 -2.304248E+05 -1.545590E+05 -1.086836E+05  2.312789E+05 -3.091363E+04  4.053187E+04
       157   2 -4.576093E+05 -2.035687E+05 -1.558514E+05  1.937987E+05  5.072430E+03  4.064829E+04
       157   3 -6.858412E+05 -2.387750E+05 -2.229785E+05  2.062888E+05  4.102959E+04  1.316951E+04
       157   4  4.274731E+05  1.032789E+03  1.143529E+04  2.291940E+05 -7.569416E+03  4.053308E+04
       157   5  4.239354E+05  7.936223E+03  2.008459E+04  2.042136E+05 -1.791876E+04  4.064318E+04
       157   6  4.273359E+05  3.667634E+04  4.094826E+04  2.291955E+05 -2.828312E+04  1.317746E+04
       157   7  1.085793E+06  1.566005E+05  1.315388E+05  2.271067E+05  1.579888E+04  4.053412E+04
       157   8  1.306224E+06  2.193942E+05  1.959836E+05  2.146434E+05 -4.094194E+04  4.063731E+04
       157   9  1.541663E+06  3.120432E+05  3.048072E+05  2.521434E+05 -9.771952E+04  1.318030E+04
       157  10 -2.304262E+05 -1.545611E+05 -1.086885E+05  2.312799E+05 -7.399030E-10 -3.628175E-10
       157  11 -4.576098E+05 -2.035704E+05 -1.558546E+05  1.937986E+05 -4.533557E-10 -3.222680E-10
       157  12 -6.858431E+05 -2.387756E+05 -2.229820E+05  2.062884E+05 -7.438780E-10 -2.541769E-10
       157  13  4.274726E+05  1.031009E+03  1.143210E+04  2.291942E+05 -2.673048E-10 -4.516949E-10
       157  14  4.239346E+05  7.934362E+03  2.008088E+04  2.042142E+05  3.584090E-10 -1.508766E-10
       157  15  4.273350E+05  3.667594E+04  4.094643E+04  2.291958E+05 -3.211033E-10  1.021695E-10
       157  16  1.085792E+06  1.565986E+05  1.315352E+05  2.271062E+05  1.169198E-09 -4.426418E-10
       157  17  1.306221E+06  2.193919E+05  1.959774E+05  2.146448E+05  8.953684E-10  9.994987E-11
       157  18  1.541653E+06  3.120405E+05  3.047889E+05  2.521444E+05  9.861648E-10 -1.483574E-10
       157  19 -2.304248E+05 -1.545590E+05 -1.086836E+05  2.312789E+05  3.091363E+04 -4.053187E+04
       157  20 -4.576093E+05 -2.035687E+05 -1.558514E+05  1.937987E+05 -5.072430E+03 -4.064829E+04
       157  21 -6.858412E+05 -2.387750E+05 -2.229785E+05  2.062888E+05 -4.102959E+04 -1.316951E+04
       157  22  4.274731E+05  1.032789E+03  1.143529E+04  2.291940E+05  7.569416E+03 -4.053308E+04
       157  23  4.239354E+05  7.936223E+03  2.008459E+04  2.042136E+05  1.791876E+04 -4.064318E+04
       157  24  4.273359E+05  3.667634E+04  4.094826E+04  2.291955E+05  2.828312E+04 -1.317746E+04
       157  25  1.085793E+06  1.566005E+05  1.315388E+05  2.271067E+05 -1.579888E+04 -4.053412E+04
       157  26  1.306224E+06  2.193942E+05  1.959836E+05  2.146434E+05  4.094194E+04 -4.063731E+04
       157  27  1.541663E+06  3.120432E+05  3.048072E+05  2.521434E+05  9.771952E+04 -1.318030E+04
       158   1 -3.152476E+05 -1.103843E+06 -3.092199E+05  3.383219E+05 -1.211314E+04 -8.896501E+04
       158   2 -2.031625E+05 -7.815226E+05 -1.846824E+05  2.917147E+05 -3.489214E+04 -3.116427E+04
       158   3 -1.198387E+05 -4.738863E+05 -1.050235E+05  3.148926E+05 -2.912447E+04  2.665108E+04
       158   4 -3.446177E+04  2.928083E+04 -3.890103E+04  3.174198E+05 -1.203646E+04 -2.670303E+04
       158   5 -7.194818E+03  3.258488E+04 -1.918533E+04  2.825077E+05 -3.486964E+04 -1.677321E+04
       158   6 -3.432180E+02  2.944678E+04 -1.105256E+04  3.173813E+05 -2.917111E+04 -6.859987E+03
       158   7  2.462350E+05  1.163593E+06  2.313425E+05  2.964788E+05 -1.196406E+04  3.567225E+04
       158   8  1.887320E+05  8.473240E+05  1.462779E+05  2.732881E+05 -3.484759E+04 -2.363593E+03
       158   9  1.191382E+05  5.330275E+05  8.291174E+04  3.198720E+05 -2.921799E+04 -4.039755E+04
       158  10 -3.152498E+05 -1.103852E+06 -3.092351E+05  3.383210E+05 -1.273233E-10 -1.346065E-09
       158  11 -2.031640E+05 -7.815239E+05 -1.846865E+05  2.917138E+05  6.915011E-10  1.370236E-09
       158  12 -1.198398E+05 -4.738872E+05 -1.050264E+05  3.148933E+05  1.162940E-09  1.944397E-09
       158  13 -3.446211E+04  2.928003E+04 -3.890264E+04  3.174196E+05 -5.277654E-10  6.847120E-10
       158  14 -7.196199E+03  3.258425E+04 -1.918815E+04  2.825073E+05 -2.750984E-10  7.385811E-13
       158  15 -3.441443E+02  2.944650E+04 -1.105425E+04  3.173812E+05  4.779194E-10 -5.162325E-10
       158  16  2.462345E+05  1.163592E+06  2.313398E+05  2.964791E+05 -4.013901E-10  8.087016E-10
       158  17  1.887307E+05  8.473237E+05  1.462756E+05  2.732881E+05 -1.193267E-09 -6.766865E-10
       158  18  1.191369E+05  5.330255E+05  8.290707E+04  3.198710E+05  3.146845E-11 -1.421038E-09
       158  19 -3.152476E+05 -1.103843E+06 -3.092199E+05  3.383219E+05  1.211314E+04  8.896501E+04
       158  20 -2.031625E+05 -7.815226E+05 -1.846824E+05  2.917147E+05  3.489214E+04  3.116427E+04
       158  21 -1.198387E+05 -4.738863E+05 -1.050235E+05  3.148926E+05  2.912447E+04 -2.665108E+04
       158  22 -3.446177E+04  2.928083E+04 -3.890103E+04  3.174198E+05  1.203646E+04  2.670303E+04
       158  23 -7.194818E+03  3.258488E+04 -1.918533E+04  2.825077E+05  3.486964E+04  1.677321E+04
       158  24 -3.432180E+02  2.944678E+04 -1.105256E+04  3.173813E+05  2.917111E+04  6.859987E+03
       158  25  2.462350E+05  1.163593E+06  2.313425E+05  2.964788E+05  1.196406E+04 -3.567225E+04
       158  26  1.887320E+05  8.473240E+05  1.462779E+05  2.732881E+05  3.484759E+04  2.363593E+03
       158  27  1.191382E+05  5.330275E+05  8.291174E+04  3.198720E+05  2.921799E+04  4.039755E+04
       159   1 -7.126556E+04 -2.658247E+05 -6.455105E+04  3.182184E+05 -1.681707E+04  2.514311E+04
       159   2  4.639408E+03  4.946447E+04 -2.913455E+03  2.821428E+05  1.327634E+03  2.803603E+04
       159   3  7.916155E+04  3.639752E+05  5.644430E+04  3.175337E+05  1.939638E+04  3.093067E+04
       159   4 -8.100894E+02  3.071088E+04 -8.842257E+03  3.177592E+05 -1.686214E+04 -5.392192E+03
       159   5  3.438169E+02  3.115699E+04 -6.084272E+03  2.820251E+05  1.283075E+03 -2.377839E+03
       159   6  9.858089E+01  3.070703E+04 -5.690266E+03  3.177579E+05  1.935214E+04  6.368438E+02
       159   7  6.964078E+04  3.273335E+05  4.686622E+04  3.172997E+05 -1.690715E+04 -3.594173E+04
       159   8 -3.951295E+03  1.285182E+04 -9.251623E+03  2.819074E+05  1.238528E+03 -3.279084E+04
       159   9 -7.897029E+04 -3.024517E+05 -6.782613E+04  3.179819E+05  1.930787E+04 -2.964114E+04
       159  10 -7.126603E+04 -2.658255E+05 -6.455278E+04  3.182188E+05  6.608362E-10 -1.042496E-09
       159  11  4.639195E+03  4.946363E+04 -2.914935E+03  2.821428E+05 -5.394520E-11  1.728774E-09
       159  12  7.916089E+04  3.639740E+05  5.644180E+04  3.175333E+05 -1.766988E-10  1.173604E-09
       159  13 -8.104024E+02  3.071077E+04 -8.842846E+03  3.177591E+05  7.727146E-10  1.053193E-09
       159  14  3.438136E+02  3.115699E+04 -6.084285E+03  2.820251E+05 -1.765394E-10  9.761014E-12
       159  15  9.817862E+01  3.070693E+04 -5.690970E+03  3.177579E+05  2.854225E-10 -5.094716E-10
       159  16  6.964013E+04  3.273320E+05  4.686326E+04  3.172992E+05 -1.205575E-11  2.523097E-10
       159  17 -3.951586E+03  1.285067E+04 -9.253647E+03  2.819074E+05  7.429066E-10 -3.251937E-10
       159  18 -7.897093E+04 -3.024527E+05 -6.782848E+04  3.179824E+05 -3.268575E-10 -5.315594E-10
       159  19 -7.126556E+04 -2.658247E+05 -6.455105E+04  3.182184E+05  1.681707E+04 -2.514311E+04
       159  20  4.639408E+03  4.946447E+04 -2.913455E+03  2.821428E+05 -1.327634E+03 -2.803603E+04
       159  21  7.916155E+04  3.639752E+05  5.644430E+04  3.175337E+05 -1.939638E+04 -3.093067E+04
       159  22 -8.100894E+02  3.071088E+04 -8.842257E+03  3.177592E+05  1.686214E+04  5.392192E+03
       159  23  3.438169E+02  3.115699E+04 -6.084272E+03  2.820251E+05 -1.283075E+03  2.377839E+03
       159  24  9.858089E+01  3.070703E+04 -5.690266E+03  3.177579E+05 -1.935214E+04 -6.368438E+02
       159  25  6.964078E+04  3.273335E+05  4.686622E+04  3.172997E+05  1.690715E+04  3.594173E+04
       159  26 -3.951295E+03  1.285182E+04 -9.251623E+03  2.819074E+05 -1.238528E+03  3.279084E+04
       159  27 -7.897029E+04 -3.024517E+05 -6.782613E+04  3.179819E+05 -1.930787E+04  2.964114E+04
       160   1  1.283417E+05  5.705267E+05  9.432926E+04  3.186488E+05  3.166596E+04  3.492392E+04
       160   2  2.018621E+05  8.828708E+05  1.636266E+05  2.789259E+05  3.677020E+04 -9.902392E+03
       160   3  2.753299E+05  1.201084E+06  2.620505E+05  3.089166E+05  1.250474E+04 -5.473463E+04
       160   4  2.345621E+02  3.025214E+04 -6.114129E+03  3.173686E+05  3.162008E+04  1.537997E+03
       160   5 -2.791003E+03  3.155910E+04 -8.852823E+03  2.825158E+05  3.679429E+04  6.107112E+03
       160   6 -1.443475E+04  3.007846E+04 -1.674408E+04  3.173848E+05  1.257963E+04  1.069267E+04
       160   7 -1.278888E+05 -5.097376E+05 -1.065657E+05  3.160893E+05  3.157430E+04 -3.181964E+04
       160   8 -2.074889E+05 -8.190627E+05 -1.813689E+05  2.861003E+05  3.681859E+04  2.209510E+04
       160   9 -3.042957E+05 -1.139662E+06 -2.956186E+05  3.258362E+05  1.265641E+04  7.599732E+04
       160  10  1.283403E+05  5.705251E+05  9.432508E+04  3.186480E+05 -4.517604E-10 -6.027304E-10
       160  11  2.018606E+05  8.828703E+05  1.636238E+05  2.789262E+05 -6.438332E-10  8.722146E-10
       160  12  2.753290E+05  1.201081E+06  2.620446E+05  3.089172E+05  5.330059E-11  3.237018E-10
       160  13  2.334879E+02  3.025186E+04 -6.116012E+03  3.173685E+05 -1.739455E-10  1.000648E-09
       160  14 -2.792466E+03  3.155870E+04 -8.855437E+03  2.825156E+05 -3.704034E-10  1.472156E-11
       160  15 -1.443495E+04  3.007830E+04 -1.674459E+04  3.173846E+05 -9.968004E-11 -3.250876E-10
       160  16 -1.278901E+05 -5.097389E+05 -1.065695E+05  3.160901E+05 -1.791284E-10 -1.851881E-10
       160  17 -2.074905E+05 -8.190636E+05 -1.813723E+05  2.860996E+05 -6.482037E-10  1.545640E-10
       160  18 -3.042974E+05 -1.139668E+06 -2.956298E+05  3.258355E+05  1.710675E-10 -1.404256E-12
       160  19  1.283417E+05  5.705267E+05  9.432926E+04  3.186488E+05 -3.166596E+04 -3.492392E+04
       160  20  2.018621E+05  8.828708E+05  1.636266E+05  2.789259E+05 -3.677020E+04  9.902392E+03
       160  21  2.753299E+05  1.201084E+06  2.620505E+05  3.089166E+05 -1.250474E+04  5.473463E+04
       160  22  2.345621E+02  3.025214E+04 -6.114129E+03  3.173686E+05 -3.162008E+04 -1.537997E+03
       160  23 -2.791003E+03  3.155910E+04 -8.852823E+03  2.825158E+05 -3.679429E+04 -6.107112E+03
       160  24 -1.443475E+04  3.007846E+04 -1.674408E+04  3.173848E+05 -1.257963E+04 -1.069267E+04
       160  25 -1.278888E+05 -5.097376E+05 -1.065657E+05  3.160893E+05 -3.157430E+04  3.181964E+04
       160  26 -2.074889E+05 -8.190627E+05 -1.813689E+05  2.861003E+05 -3.681859E+04 -2.209510E+04
       160  27 -3.042957E+05 -1.139662E+06 -2.956186E+05  3.258362E+05 -1.265641E+04 -7.599732E+04
       161   1  1.575883E+06  3.145887E+05  3.099822E+05  2.395200E+05  1.093260E+05 -1.257942E+04
       161   2  1.363257E+06  2.134441E+05  1.975298E+05  1.982254E+05  5.012135E+04 -3.907228E+04
       161   3  1.168604E+06  1.528539E+05  1.337059E+05  2.014873E+05 -9.048511E+03 -3.973171E+04
       161   4  5.280187E+05  5.571423E+04  6.208020E+04  2.047036E+05  4.294793E+04 -1.257643E+04
       161   5  5.228710E+05  1.212870E+04  3.040143E+04  1.824247E+05  2.725548E+04 -3.907725E+04
       161   6  5.281430E+05  1.588295E+03  1.720488E+04  2.046993E+05  1.157709E+04 -3.973225E+04
       161   7 -5.188269E+05 -2.032320E+05 -1.858807E+05  1.699459E+05 -2.331893E+04 -1.256602E+04
       161   8 -3.168401E+05 -1.892286E+05 -1.367600E+05  1.666458E+05  4.419859E+03 -3.908106E+04
       161   9 -1.119188E+05 -1.497001E+05 -9.931091E+04  2.079078E+05  3.218202E+04 -3.973258E+04
       161  10  1.575870E+06  3.145853E+05  3.099595E+05  2.395211E+05 -5.736970E-10  1.835704E-10
       161  11  1.363254E+06  2.134418E+05  1.975222E+05  1.982270E+05  8.379924E-11 -1.894526E-10
       161  12  1.168603E+06  1.528522E+05  1.337027E+05  2.014870E+05 -6.692013E-11 -2.837207E-13
       161  13  5.280167E+05  5.571356E+04  6.207644E+04  2.047040E+05  1.126391E-09 -2.991581E-10
       161  14  5.228698E+05  1.212686E+04  3.039716E+04  1.824256E+05  9.511683E-10 -5.459697E-11
       161  15  5.281424E+05  1.586563E+03  1.720166E+04  2.046997E+05 -3.610191E-10  3.769840E-11
       161  16 -5.188275E+05 -2.032323E+05 -1.858820E+05  1.699457E+05  1.908081E-10 -3.111201E-10
       161  17 -3.168405E+05 -1.892303E+05 -1.367629E+05  1.666459E+05  7.627371E-11 -4.347660E-11
       161  18 -1.119204E+05 -1.497021E+05 -9.931582E+04  2.079088E+05 -1.176708E-09  4.347088E-11
       161  19  1.575883E+06  3.145887E+05  3.099822E+05  2.395200E+05 -1.093260E+05  1.257942E+04
       161  20  1.363257E+06  2.134441E+05  1.975298E+05  1.982254E+05 -5.012135E+04  3.907228E+04
       161  21  1.168604E+06  1.528539E+05  1.337059E+05  2.014873E+05  9.048511E+03  3.973171E+04
       161  22  5.280187E+05  5.571423E+04  6.208020E+04  2.047036E+05 -4.294793E+04  1.257643E+04
       161  23  5.228710E+05  1.212870E+04  3.040143E+04  1.824247E+05 -2.725548E+04  3.907725E+04
       161  24  5.281430E+05  1.588295E+03  1.720488E+04  2.046993E+05 -1.157709E+04  3.973225E+04
       161  25 -5.188269E+05 -2.032320E+05 -1.858807E+05  1.699459E+05  2.331893E+04  1.256602E+04
       161  26 -3.168401E+05 -1.892286E+05 -1.367600E+05  1.666458E+05 -4.419859E+03  3.908106E+04
       161  27 -1.119188E+05 -1.497001E+05 -9.931091E+04  2.079078E+05 -3.218202E+04  3.973258E+04
       162   1  1.032658E+06  1.219764E+05  1.049011E+05  2.061737E+05 -8.417254E+03 -3.209619E+04
       162   2  8.285675E+05  7.154556E+04  6.171929E+04  1.824040E+05 -1.618518E+04 -2.052071E+04
       162   3  6.261620E+05  2.354424E+04  2.420034E+04  2.047978E+05 -2.395312E+04 -6.837455E+03
       162   4  5.260848E+05  2.467805E+03  1.347638E+04  2.050594E+05  9.278630E+03 -3.209475E+04
       162   5  5.255901E+05  3.481959E+02  8.474217E+03  1.819773E+05  5.056044E+03 -2.051637E+04
       162   6  5.261266E+05  4.606269E+01  6.677253E+03  2.050600E+05  8.310313E+02 -6.829643E+03
       162   7  1.976168E+04 -1.170549E+05 -7.795723E+04  2.039461E+05  2.696049E+04 -3.209338E+04
       162   8  2.227034E+05 -7.085393E+04 -4.477249E+04  1.815509E+05  2.628722E+04 -2.051205E+04
       162   9  4.261023E+05 -2.345233E+04 -1.084389E+04  2.053222E+05  2.561131E+04 -6.821810E+03
       162  10  1.032658E+06  1.219752E+05  1.048991E+05  2.061735E+05 -3.090251E-10 -1.227673E-11
       162  11  8.285671E+05  7.154504E+04  6.171801E+04  1.824037E+05 -5.108050E-11  2.867226E-10
       162  12  6.261614E+05  2.354404E+04  2.419918E+04  2.047976E+05  2.581515E-10  1.472663E-10
       162  13  5.260844E+05  2.466675E+03  1.347428E+04  2.050597E+05  7.849940E-10  5.559055E-11
       162  14  5.255899E+05  3.477368E+02  8.473377E+03  1.819774E+05  1.471741E-10  2.466954E-10
       162  15  5.261266E+05  4.601240E+01  6.677164E+03  2.050600E+05 -2.398400E-10 -7.112412E-11
       162  16  1.976062E+04 -1.170562E+05 -7.796054E+04  2.039468E+05 -2.242257E-10  1.238022E-11
       162  17  2.227025E+05 -7.085457E+04 -4.477458E+04  1.815513E+05 -6.728466E-10  9.269654E-11
       162  18  4.261016E+05 -2.345256E+04 -1.084521E+04  2.053224E+05 -5.461996E-10 -4.532659E-11
       162  19  1.032658E+06  1.219764E+05  1.049011E+05  2.061737E+05  8.417254E+03  3.209619E+04
       162  20  8.285675E+05  7.154556E+04  6.171929E+04  1.824040E+05  1.618518E+04  2.052071E+04
       162  21  6.261620E+05  2.354424E+04  2.420034E+04  2.047978E+05  2.395312E+04  6.837455E+03
       162  22  5.260848E+05  2.467805E+03  1.347638E+04  2.050594E+05 -9.278630E+03  3.209475E+04
       162  23  5.255901E+05  3.481959E+02  8.474217E+03  1.819773E+05 -5.056044E+03  2.051637E+04
       162  24  5.261266E+05  4.606269E+01  6.677253E+03  2.050600E+05 -8.310313E+02  6.829643E+03
       162  25  1.976168E+04 -1.170549E+05 -7.795723E+04  2.039461E+05 -2.696049E+04  3.209338E+04
       162  26  2.227034E+05 -7.085393E+04 -4.477249E+04  1.815509E+05 -2.628722E+04  2.051205E+04
       162  27  4.261023E+05 -2.345233E+04 -1.084389E+04  2.053222E+05 -2.561131E+04  6.821810E+03
       163   1  4.934547E+05 -7.685695E+03  5.316408E+02  2.052810E+05 -2.509747E+04  1.910966E+03
       163   2  2.900707E+05 -5.510861E+04 -3.371190E+04  1.815658E+05 -2.579326E+04  1.566669E+04
       163   3  8.711805E+04 -1.014334E+05 -6.722498E+04  2.040245E+05 -2.648698E+04  2.746536E+04
       163   4  5.261121E+05  5.399984E+01  6.591232E+03  2.050617E+05 -3.319848E+02  1.918970E+03
       163   5  5.256167E+05  3.227822E+02  8.003673E+03  1.819752E+05 -4.321715E+03  1.567177E+04
       163   6  5.260795E+05  2.261634E+03  1.243008E+04  2.050612E+05 -8.309550E+03  2.746795E+04
       163   7  5.587718E+05  7.793962E+03  1.265308E+04  2.048425E+05  2.443477E+04  1.926956E+03
       163   8  7.612179E+05  5.575138E+04  4.971892E+04  1.823848E+05  1.715773E+04  1.567687E+04
       163   9  9.652289E+05  1.059460E+05  9.207872E+04  2.060986E+05  9.880382E+03  2.747060E+04
       163  10  4.934541E+05 -7.685868E+03  5.304511E+02  2.052810E+05 -2.911554E-10 -2.875873E-11
       163  11  2.900699E+05 -5.510906E+04 -3.371361E+04  1.815661E+05 -6.279017E-10 -1.812739E-10
       163  12  8.711710E+04 -1.014344E+05 -6.722771E+04  2.040251E+05  4.223816E-10 -2.154221E-10
       163  13  5.261121E+05  5.399586E+01  6.591225E+03  2.050617E+05 -9.752276E-10 -1.216123E-10
       163  14  5.256166E+05  3.225133E+02  8.003176E+03  1.819753E+05 -4.207759E-10 -4.480906E-13
       163  15  5.260792E+05  2.260805E+03  1.242853E+04  2.050614E+05 -2.158384E-10 -3.509824E-10
       163  16  5.587712E+05  7.793798E+03  1.265195E+04  2.048425E+05 -7.940104E-10 -1.243372E-10
       163  17  7.612175E+05  5.575103E+04  4.971791E+04  1.823846E+05  2.530077E-10 -2.209140E-10
       163  18  9.652286E+05  1.059452E+05  9.207712E+04  2.060984E+05 -7.046668E-10 -1.790090E-10
       163  19  4.934547E+05 -7.685695E+03  5.316408E+02  2.052810E+05  2.509747E+04 -1.910966E+03
       163  20  2.900707E+05 -5.510861E+04 -3.371190E+04  1.815658E+05  2.579326E+04 -1.566669E+04
       163  21  8.711805E+04 -1.014334E+05 -6.722498E+04  2.040245E+05  2.648698E+04 -2.746536E+04
       163  22  5.261121E+05  5.399984E+01  6.591232E+03  2.050617E+05  3.319848E+02 -1.918970E+03
       163  23  5.256167E+05  3.227822E+02  8.003673E+03  1.819752E+05  4.321715E+03 -1.567177E+04
       163  24  5.260795E+05  2.261634E+03  1.243008E+04  2.050612E+05  8.309550E+03 -2.746795E+04
       163  25  5.587718E+05  7.793962E+03  1.265308E+04  2.048425E+05 -2.443477E+04 -1.926956E+03
       163  26  7.612179E+05  5.575138E+04  4.971892E+04  1.823848E+05 -1.715773E+04 -1.567687E+04
       163  27  9.652289E+05  1.059460E+05  9.207872E+04  2.060986E+05 -9.880382E+03 -2.747060E+04
       164   1 -4.467509E+04 -1.339579E+05 -8.884724E+04  2.076147E+05 -3.134801E+04  3.518380E+04
       164   2 -2.493214E+05 -1.742666E+05 -1.265240E+05  1.679973E+05 -4.846651E+03  3.550429E+04
       164   3 -4.515195E+05 -1.915593E+05 -1.756827E+05  1.730358E+05  2.163500E+04  1.153305E+04
       164   4  5.279492E+05  1.463492E+03  1.578139E+04  2.047210E+05 -1.042803E+04  3.518498E+04
       164   5  5.231503E+05  1.105900E+04  2.773388E+04  1.823978E+05 -2.472988E+04  3.550017E+04
       164   6  5.278349E+05  5.073742E+04  5.652872E+04  2.047229E+05 -3.904372E+04  1.153893E+04
       164   7  1.100893E+06  1.368666E+05  1.203984E+05  2.018244E+05  1.051073E+04  3.518597E+04
       164   8  1.296193E+06  1.963490E+05  1.819633E+05  1.968165E+05 -4.463734E+04  3.549513E+04
       164   9  1.508080E+06  2.929710E+05  2.886878E+05  2.364601E+05 -9.981767E+04  1.153861E+04
       164  10 -4.467648E+04 -1.339595E+05 -8.885142E+04  2.076156E+05 -2.704033E-10 -2.364168E-10
       164  11 -2.493218E+05 -1.742679E+05 -1.265264E+05  1.679974E+05  1.581585E-11  1.365472E-10
       164  12 -4.515200E+05 -1.915596E+05 -1.756838E+05  1.730356E+05  6.528133E-10  3.076957E-10
       164  13  5.279487E+05  1.462133E+03  1.577885E+04  2.047213E+05  5.120406E-11 -1.774880E-10
       164  14  5.231493E+05  1.105748E+04  2.773036E+04  1.823985E+05  1.400876E-10  1.369613E-10
       164  15  5.278332E+05  5.073686E+04  5.652560E+04  2.047232E+05 -7.146529E-11 -2.494180E-10
       164  16  1.100892E+06  1.368653E+05  1.203959E+05  2.018241E+05  6.275447E-10 -7.705502E-11
       164  17  1.296191E+06  1.963471E+05  1.819572E+05  1.968178E+05 -1.937714E-10  1.379576E-10
       164  18  1.508070E+06  2.929682E+05  2.886688E+05  2.364611E+05  9.935583E-11 -6.594872E-11
       164  19 -4.467509E+04 -1.339579E+05 -8.884724E+04  2.076147E+05  3.134801E+04 -3.518380E+04
       164  20 -2.493214E+05 -1.742666E+05 -1.265240E+05  1.679973E+05  4.846651E+03 -3.550429E+04
       164  21 -4.515195E+05 -1.915593E+05 -1.756827E+05  1.730358E+05 -2.163500E+04 -1.153305E+04
       164  22  5.279492E+05  1.463492E+03  1.578139E+04  2.047210E+05  1.042803E+04 -3.518498E+04
       164  23  5.231503E+05  1.105900E+04  2.773388E+04  1.823978E+05  2.472988E+04 -3.550017E+04
       164  24  5.278349E+05  5.073742E+04  5.652872E+04  2.047229E+05  3.904372E+04 -1.153893E+04
       164  25  1.100893E+06  1.368666E+05  1.203984E+05  2.018244E+05 -1.051073E+04 -3.518597E+04
       164  26  1.296193E+06  1.963490E+05  1.819633E+05  1.968165E+05  4.463734E+04 -3.549513E+04
       164  27  1.508080E+06  2.929710E+05  2.886878E+05  2.364601E+05  9.981767E+04 -1.153861E+04
       165   1 -2.747201E+05 -9.349188E+05 -2.711126E+05  2.648924E+05 -1.032758E+04 -8.772935E+04
       165   2 -1.755885E+05 -6.915392E+05 -1.638341E+05  2.236953E+05 -3.043926E+04 -3.609187E+04
       165   3 -1.095173E+05 -4.631402E+05 -9.847818E+04  2.346202E+05 -2.727007E+04  1.555443E+04
       165   4 -4.441641E+04 -5.035650E+03 -4.972167E+04  2.376333E+05 -1.027040E+04 -3.437999E+04
       165   5 -9.529133E+03 -8.663909E+02 -2.434698E+04  2.115496E+05 -3.042034E+04 -2.178917E+04
       165   6 -8.938685E+02 -4.929928E+03 -1.373893E+04  2.375905E+05 -2.729875E+04 -9.210902E+03
       165   7  1.858293E+05  9.256495E+05  1.716198E+05  2.103329E+05 -1.021797E+04  1.904902E+04
       165   8  1.565014E+05  6.902621E+05  1.151164E+05  1.993899E+05 -3.040200E+04 -7.470839E+03
       165   9  1.077179E+05  4.534853E+05  7.099386E+04  2.405631E+05 -2.732765E+04 -3.399404E+04
       165  10 -2.747223E+05 -9.349271E+05 -2.711273E+05  2.648916E+05 -1.058608E-10 -9.083085E-10
       165  11 -1.755899E+05 -6.915409E+05 -1.638382E+05  2.236944E+05  5.965634E-10  9.744291E-10
       165  12 -1.095182E+05 -4.631406E+05 -9.848004E+04  2.346205E+05 -1.915102E-10  1.757285E-09
       165  13 -4.441684E+04 -5.036947E+03 -4.972409E+04  2.376330E+05 -7.400203E-10  6.364315E-10
       165  14 -9.530253E+03 -8.671488E+02 -2.434961E+04  2.115491E+05  8.211589E-11  8.046011E-10
       165  15 -8.946913E+02 -4.930219E+03 -1.374049E+04  2.375903E+05 -5.840602E-11  3.473950E-10
       165  16  1.858291E+05  9.256491E+05  1.716189E+05  2.103330E+05  3.532397E-11  1.528352E-09
       165  17  1.565004E+05  6.902617E+05  1.151145E+05  1.993898E+05 -1.659876E-09 -1.121591E-09
       165  18  1.077168E+05  4.534838E+05  7.099029E+04  2.405623E+05 -1.000282E-10 -1.125896E-09
       165  19 -2.747201E+05 -9.349188E+05 -2.711126E+05  2.648924E+05  1.032758E+04  8.772935E+04
       165  20 -1.755885E+05 -6.915392E+05 -1.638341E+05  2.236953E+05  3.043926E+04  3.609187E+04
       165  21 -1.095173E+05 -4.631402E+05 -9.847818E+04  2.346202E+05  2.727007E+04 -1.555443E+04
       165  22 -4.441641E+04 -5.035650E+03 -4.972167E+04  2.376333E+05  1.027040E+04  3.437999E+04
       165  23 -9.529133E+03 -8.663909E+02 -2.434698E+04  2.115496E+05  3.042034E+04  2.178917E+04
       165  24 -8.938685E+02 -4.929928E+03 -1.373893E+04  2.375905E+05  2.729875E+04  9.210902E+03
       165  25  1.858293E+05  9.256495E+05  1.716198E+05  2.103329E+05  1.021797E+04 -1.904902E+04
       165  26  1.565014E+05  6.902621E+05  1.151164E+05  1.993899E+05  3.040200E+04  7.470839E+03
       165  27  1.077179E+05  4.534853E+05  7.099386E+04  2.405631E+05  2.732765E+04  3.399404E+04
       166   1 -7.338569E+04 -3.065651E+05 -6.672484E+04  2.385338E+05 -1.814194E+04  1.489989E+04
       166   2 -1.576037E+04 -7.029791E+04 -1.843759E+04  2.112608E+05 -4.720627E+03  1.872852E+04
       166   3  4.016479E+04  1.649919E+05  2.689735E+04  2.375027E+05  8.980047E+03  2.255759E+04
       166   4 -1.527392E+03 -3.288786E+03 -1.075524E+04  2.379043E+05 -1.816955E+04 -7.400608E+03
       166   5  7.432929E+01 -2.809079E+03 -6.754211E+03  2.111460E+05 -4.749321E+03 -4.043761E+03
       166   6  6.084120E+01 -3.278309E+03 -5.376830E+03  2.379024E+05  8.950148E+03 -6.878476E+02
       166   7  7.032592E+04  3.000778E+05  4.521241E+04  2.372746E+05 -1.819710E+04 -2.971172E+04
       166   8  1.590906E+04  6.468533E+04  4.930957E+03  2.110313E+05 -4.778005E+03 -2.681844E+04
       166   9 -4.004449E+04 -1.715201E+05 -3.765028E+04  2.383020E+05  8.920215E+03 -2.392714E+04
       166  10 -7.338610E+04 -3.065654E+05 -6.672588E+04  2.385340E+05 -9.483444E-11  3.257056E-10
       166  11 -1.576049E+04 -7.029829E+04 -1.843829E+04  2.112609E+05 -2.930522E-10  1.407271E-09
       166  12  4.016457E+04  1.649913E+05  2.689625E+04  2.375025E+05 -8.313311E-10  8.841068E-10
       166  13 -1.527761E+03 -3.288934E+03 -1.075596E+04  2.379042E+05 -2.418443E-10  9.721233E-10
       166  14  7.430069E+01 -2.809103E+03 -6.754284E+03  2.111460E+05 -8.899910E-10  9.729488E-10
       166  15  6.075505E+01 -3.278331E+03 -5.376982E+03  2.379024E+05 -2.369693E-10  3.487352E-10
       166  16  7.032533E+04  3.000768E+05  4.521013E+04  2.372741E+05  1.684514E-11  6.022707E-10
       166  17  1.590885E+04  6.468456E+04  4.929563E+03  2.110312E+05  5.894594E-10 -1.241641E-09
       166  18 -4.004473E+04 -1.715208E+05 -3.765151E+04  2.383021E+05  1.349537E-10 -8.307138E-11
       166  19 -7.338569E+04 -3.065651E+05 -6.672484E+04  2.385338E+05  1.814194E+04 -1.489989E+04
       166  20 -1.576037E+04 -7.029791E+04 -1.843759E+04  2.112608E+05  4.720627E+03 -1.872852E+04
       166  21  4.016479E+04  1.649919E+05  2.689735E+04  2.375027E+05 -8.980047E+03 -2.255759E+04
       166  22 -1.527392E+03 -3.288786E+03 -1.075524E+04  2.379043E+05  1.816955E+04  7.400608E+03
       166  23  7.432929E+01 -2.809079E+03 -6.754211E+03  2.111460E+05  4.749321E+03  4.043761E+03
       166  24  6.084120E+01 -3.278309E+03 -5.376830E+03  2.379024E+05 -8.950148E+03  6.878476E+02
       166  25  7.032592E+04  3.000778E+05  4.521241E+04  2.372746E+05  1.819710E+04  2.971172E+04
       166  26  1.590906E+04  6.468533E+04  4.930957E+03  2.110313E+05  4.778005E+03  2.681844E+04
       166  27 -4.004449E+04 -1.715201E+05 -3.765028E+04  2.383020E+05 -8.920215E+03  2.392714E+04
       167   1  7.693757E+04  3.196220E+05  5.552798E+04  2.383967E+05  1.825665E+04  2.547993E+04
       167   2  1.319922E+05  5.537010E+05  1.068799E+05  2.088048E+05  2.323764E+04 -4.847612E+03
       167   3  1.867528E+05  7.916444E+05  1.778726E+05  2.315483E+05  8.126130E+03 -3.517348E+04
       167   4  1.482073E+02 -3.536616E+03 -5.314966E+03  2.376403E+05  1.822529E+04  1.556128E+02
       167   5 -1.933551E+03 -2.556243E+03 -6.715123E+03  2.114757E+05  2.324895E+04  3.605825E+03
       167   6 -1.016828E+04 -3.621785E+03 -1.192140E+04  2.376508E+05  8.171504E+03  7.068865E+03
       167   7 -7.664688E+04 -3.265930E+05 -6.616007E+04  2.368843E+05  1.819398E+04 -2.515585E+04
       167   8 -1.358786E+05 -5.585194E+05 -1.203263E+05  2.141441E+05  2.326033E+04  1.205183E+04
       167   9 -2.071340E+05 -7.983046E+05 -2.017531E+05  2.437453E+05  8.217744E+03  4.925739E+04
       167  10  7.693704E+04  3.196212E+05  5.552614E+04  2.383964E+05 -8.640955E-11  3.934985E-10
       167  11  1.319916E+05  5.537009E+05  1.068789E+05  2.088049E+05 -5.088876E-10  1.029172E-09
       167  12  1.867524E+05  7.916431E+05  1.778701E+05  2.315485E+05  2.781419E-11  5.606566E-10
       167  13  1.478506E+02 -3.536705E+03 -5.315590E+03  2.376403E+05 -8.151950E-10  9.686897E-10
       167  14 -1.934135E+03 -2.556402E+03 -6.716163E+03  2.114757E+05 -7.837996E-10  8.599092E-10
       167  15 -1.016837E+04 -3.621857E+03 -1.192162E+04  2.376508E+05 -2.142308E-10  2.782720E-10
       167  16 -7.664740E+04 -3.265938E+05 -6.616189E+04  2.368847E+05  5.182378E-10  5.443373E-10
       167  17 -1.358792E+05 -5.585197E+05 -1.203276E+05  2.141439E+05 -7.872126E-10 -9.118218E-10
       167  18 -2.071347E+05 -7.983072E+05 -2.017578E+05  2.437449E+05  7.131859E-11 -4.083719E-11
       167  19  7.693757E+04  3.196220E+05  5.552798E+04  2.383967E+05 -1.825665E+04 -2.547993E+04
       167  20  1.319922E+05  5.537010E+05  1.068799E+05  2.088048E+05 -2.323764E+04  4.847612E+03
       167  21  1.867528E+05  7.916444E+05  1.778726E+05  2.315483E+05 -8.126130E+03  3.517348E+04
       167  22  1.482073E+02 -3.536616E+03 -5.314966E+03  2.376403E+05 -1.822529E+04 -1.556128E+02
       167  23 -1.933551E+03 -2.556243E+03 -6.715123E+03  2.114757E+05 -2.324895E+04 -3.605825E+03
       167  24 -1.016828E+04 -3.621785E+03 -1.192140E+04  2.376508E+05 -8.171504E+03 -7.068865E+03
       167  25 -7.664688E+04 -3.265930E+05 -6.616007E+04  2.368843E+05 -1.819398E+04  2.515585E+04
       167  26 -1.358786E+05 -5.585194E+05 -1.203263E+05  2.141441E+05 -2.326033E+04 -1.205183E+04
       167  27 -2.071340E+05 -7.983046E+05 -2.017531E+05  2.437453E+05 -8.217744E+03 -4.925739E+04
       168   1  1.826567E+06  3.610563E+05  3.584456E+05  2.473264E+05  1.387110E+05 -1.384886E+04
       168   2  1.621118E+06  2.392624E+05  2.282973E+05  1.974256E+05  6.887074E+04 -4.370048E+04
       168   3  1.439363E+06  1.754135E+05  1.580281E+05  1.896773E+05 -9.310080E+02 -4.612189E+04
       168   4  7.061937E+05  8.442751E+04  9.390194E+04  1.945473E+05  6.529750E+04 -1.385439E+04
       168   5  6.984224E+05  1.846045E+04  4.573965E+04  1.734746E+05  4.168323E+04 -4.370952E+04
       168   6  7.063369E+05  2.476129E+03  2.544790E+04  1.945479E+05  1.808269E+04 -4.612227E+04
       168   7 -4.130113E+05 -1.922777E+05 -1.707067E+05  1.418636E+05 -7.984597E+03 -1.384749E+04
       168   8 -2.234577E+05 -2.023907E+05 -1.368569E+05  1.495598E+05  1.453517E+04 -4.371648E+04
       168   9 -2.616673E+04 -1.704910E+05 -1.071521E+05  1.994124E+05  3.707460E+04 -4.612235E+04
       168  10  1.826547E+06  3.610509E+05  3.584091E+05  2.473280E+05 -6.184615E-10  2.426931E-10
       168  11  1.621112E+06  2.392591E+05  2.282848E+05  1.974280E+05 -3.143317E-10 -1.386841E-10
       168  12  1.439363E+06  1.754112E+05  1.580241E+05  1.896773E+05 -2.277974E-10 -5.267175E-10
       168  13  7.061890E+05  8.442616E+04  9.389357E+04  1.945481E+05  3.551251E-10 -5.577450E-10
       168  14  6.984200E+05  1.845794E+04  4.573279E+04  1.734761E+05  5.574311E-11 -2.570490E-10
       168  15  7.063359E+05  2.473756E+03  2.544329E+04  1.945485E+05  4.904810E-10 -3.246967E-10
       168  16 -4.130114E+05 -1.922779E+05 -1.707072E+05  1.418636E+05  6.271930E-10 -4.306689E-10
       168  17 -2.234585E+05 -2.023928E+05 -1.368609E+05  1.495604E+05  7.090196E-10 -6.648829E-12
       168  18 -2.616878E+04 -1.704937E+05 -1.071587E+05  1.994138E+05  3.976705E-10 -3.111585E-10
       168  19  1.826567E+06  3.610563E+05  3.584456E+05  2.473264E+05 -1.387110E+05  1.384886E+04
       168  20  1.621118E+06  2.392624E+05  2.282973E+05  1.974256E+05 -6.887074E+04  4.370048E+04
       168  21  1.439363E+06  1.754135E+05  1.580281E+05  1.896773E+05  9.310080E+02  4.612189E+04
       168  22  7.061937E+05  8.442751E+04  9.390194E+04  1.945473E+05 -6.529750E+04  1.385439E+04
       168  23  6.984224E+05  1.846045E+04  4.573965E+04  1.734746E+05 -4.168323E+04  4.370952E+04
       168  24  7.063369E+05  2.476129E+03  2.544790E+04  1.945479E+05 -1.808269E+04  4.612227E+04
       168  25 -4.130113E+05 -1.922777E+05 -1.707067E+05  1.418636E+05  7.984597E+03  1.384749E+04
       168  26 -2.234577E+05 -2.023907E+05 -1.368569E+05  1.495598E+05 -1.453517E+04  4.371648E+04
       168  27 -2.616673E+04 -1.704910E+05 -1.071521E+05  1.994124E+05 -3.707460E+04  4.612235E+04
       169   1  1.308837E+06  1.464955E+05  1.281491E+05  1.965748E+05 -1.167340E+03 -3.901604E+04
       169   2  1.114635E+06  9.729219E+04  8.322048E+04  1.735808E+05 -1.068603E+04 -2.842455E+04
       169   3  9.225667E+05  5.143965E+04  4.532029E+04  1.944252E+05 -2.020527E+04 -1.555185E+04
       169   4  7.031992E+05  3.796284E+03  1.959123E+04  1.949265E+05  1.473136E+04 -3.901459E+04
       169   5  7.025116E+05  5.859417E+02  1.138330E+04  1.730073E+05  9.053587E+03 -2.841916E+04
       169   6  7.032545E+05  6.322825E+01  7.542900E+03  1.949280E+05  3.372372E+03 -1.554174E+04
       169   7  9.791922E+04 -1.389231E+05 -8.897977E+04  1.932798E+05  3.061501E+04 -3.901321E+04
       169   8  2.905550E+05 -9.612929E+04 -6.045844E+04  1.724341E+05  2.878051E+04 -2.841380E+04
       169   9  4.839906E+05 -5.131547E+04 -3.023404E+04  1.954305E+05  2.694196E+04 -1.553158E+04
       169  10  1.308836E+06  1.464939E+05  1.281462E+05  1.965748E+05 -8.469036E-10 -5.197707E-10
       169  11  1.114635E+06  9.729129E+04  8.321875E+04  1.735806E+05 -1.425886E-09 -1.002788E-09
       169  12  9.225662E+05  5.143928E+04  4.531907E+04  1.944250E+05 -1.125248E-10  4.174598E-13
       169  13  7.031985E+05  3.794591E+03  1.958796E+04  1.949270E+05  6.854519E-12 -4.818602E-10
       169  14  7.025112E+05  5.850520E+02  1.138162E+04  1.730075E+05 -5.240648E-10 -4.605248E-10
       169  15  7.032544E+05  6.296571E+01  7.542425E+03  1.949280E+05 -5.682641E-10 -1.368770E-10
       169  16  9.791781E+04 -1.389250E+05 -8.898439E+04  1.932808E+05  7.570501E-10 -4.829534E-10
       169  17  2.905539E+05 -9.613038E+04 -6.046151E+04  1.724348E+05  3.891004E-11 -1.422326E-10
       169  18  4.839897E+05 -5.131593E+04 -3.023586E+04  1.954309E+05 -1.262095E-10  2.265246E-10
       169  19  1.308837E+06  1.464955E+05  1.281491E+05  1.965748E+05  1.167340E+03  3.901604E+04
       169  20  1.114635E+06  9.729219E+04  8.322048E+04  1.735808E+05  1.068603E+04  2.842455E+04
       169  21  9.225667E+05  5.143965E+04  4.532029E+04  1.944252E+05  2.020527E+04  1.555185E+04
       169  22  7.031992E+05  3.796284E+03  1.959123E+04  1.949265E+05 -1.473136E+04  3.901459E+04
       169  23  7.025116E+05  5.859417E+02  1.138330E+04  1.730073E+05 -9.053587E+03  2.841916E+04
       169  24  7.032545E+05  6.322825E+01  7.542900E+03  1.949280E+05 -3.372372E+03  1.554174E+04
       169  25  9.791922E+04 -1.389231E+05 -8.897977E+04  1.932798E+05 -3.061501E+04  3.901321E+04
       169  26  2.905550E+05 -9.612929E+04 -6.045844E+04  1.724341E+05 -2.878051E+04  2.841380E+04
       169  27  4.839906E+05 -5.131547E+04 -3.023404E+04  1.954305E+05 -2.694196E+04  1.553158E+04
       170   1  7.963277E+05  2.184248E+04  2.197159E+04  1.949370E+05 -2.136766E+04 -7.242990E+03
       170   2  6.031962E+05 -2.334914E+04 -1.218580E+04  1.726370E+05 -2.178471E+04  5.943575E+03
       170   3  4.102969E+05 -6.794718E+04 -4.592866E+04  1.942086E+05 -2.220081E+04  1.755114E+04
       170   4  7.030907E+05  1.354477E+02  6.592802E+03  1.949348E+05  2.132441E+03 -7.232112E+03
       170   5  7.027546E+05  2.202563E+02  6.173591E+03  1.729991E+05 -9.425342E+02  5.952473E+03
       170   6  7.030775E+05  1.361862E+03  8.013089E+03  1.949344E+05 -4.016718E+03  1.755824E+04
       170   7  6.098633E+05 -2.157173E+04 -8.784172E+03  1.949327E+05  2.562914E+04 -7.221233E+03
       170   8  8.023235E+05  2.378932E+04  2.453420E+04  1.733613E+05  1.990289E+04  5.961394E+03
       170   9  9.959420E+05  7.066621E+04  6.195253E+04  1.956606E+05  1.417572E+04  1.756539E+04
       170  10  7.963272E+05  2.184230E+04  2.197064E+04  1.949369E+05  6.422988E-10  1.136370E-10
       170  11  6.031957E+05 -2.334930E+04 -1.218676E+04  1.726371E+05  7.348374E-10 -3.217255E-10
       170  12  4.102963E+05 -6.794765E+04 -4.593016E+04  1.942090E+05  1.017141E-09 -6.615728E-10
       170  13  7.030906E+05  1.353903E+02  6.592695E+03  1.949348E+05  2.226734E-10 -5.556018E-11
       170  14  7.027546E+05  2.202180E+02  6.173522E+03  1.729992E+05 -3.873252E-10 -4.056146E-10
       170  15  7.030774E+05  1.361527E+03  8.012479E+03  1.949345E+05  2.331212E-10 -5.669454E-10
       170  16  6.098626E+05 -2.157197E+04 -8.785504E+03  1.949328E+05 -5.590887E-10 -3.528344E-11
       170  17  8.023230E+05  2.378917E+04  2.453339E+04  1.733612E+05  2.393093E-10  2.563485E-10
       170  18  9.959417E+05  7.066582E+04  6.195157E+04  1.956604E+05 -1.939294E-10 -3.337968E-10
       170  19  7.963277E+05  2.184248E+04  2.197159E+04  1.949370E+05  2.136766E+04  7.242990E+03
       170  20  6.031962E+05 -2.334914E+04 -1.218580E+04  1.726370E+05  2.178471E+04 -5.943575E+03
       170  21  4.102969E+05 -6.794718E+04 -4.592866E+04  1.942086E+05  2.220081E+04 -1.755114E+04
       170  22  7.030907E+05  1.354477E+02  6.592802E+03  1.949348E+05 -2.132441E+03  7.232112E+03
       170  23  7.027546E+05  2.202563E+02  6.173591E+03  1.729991E+05  9.425342E+02 -5.952473E+03
       170  24  7.030775E+05  1.361862E+03  8.013089E+03  1.949344E+05  4.016718E+03 -1.755824E+04
       170  25  6.098633E+05 -2.157173E+04 -8.784172E+03  1.949327E+05 -2.562914E+04  7.221233E+03
       170  26  8.023235E+05  2.378932E+04  2.453420E+04  1.733613E+05 -1.990289E+04 -5.961394E+03
       170  27  9.959420E+05  7.066621E+04  6.195253E+04  1.956606E+05 -1.417572E+04 -1.756539E+04
       171   1  2.845105E+05 -9.846067E+04 -6.775978E+04  1.961791E+05 -2.583188E+04  2.502823E+04
       171   2  9.147293E+04 -1.400779E+05 -1.065202E+05  1.649287E+05 -2.858947E+02  2.712845E+04
       171   3 -1.019492E+05 -1.702862E+05 -1.590474E+05  1.762929E+05  2.524850E+04  9.053194E+03
       171   4  7.041274E+05  9.080606E+02  9.699870E+03  1.946542E+05 -5.373114E+03  2.503488E+04
       171   5  7.013557E+05  6.398205E+03  1.621345E+04  1.733469E+05 -1.372748E+04  2.712278E+04
       171   6  7.040415E+05  2.917442E+04  3.248849E+04  1.946488E+05 -2.208556E+04  9.045071E+03
       171   7  1.123916E+06  1.002670E+05  8.715377E+04  1.931282E+05  1.509911E+04  2.504143E+04
       171   8  1.311593E+06  1.528517E+05  1.389288E+05  1.817734E+05 -2.718201E+04  2.711674E+04
       171   9  1.510634E+06  2.285907E+05  2.239876E+05  2.130287E+05 -6.948076E+04  9.034162E+03
       171  10  2.845096E+05 -9.846152E+04 -6.776221E+04  1.961796E+05 -9.550869E-11 -6.379659E-10
       171  11  9.147273E+04 -1.400787E+05 -1.065216E+05  1.649287E+05 -7.049180E-10 -4.388627E-10
       171  12 -1.019500E+05 -1.702864E+05 -1.590488E+05  1.762927E+05  2.394310E-11 -3.167551E-11
       171  13  7.041272E+05  9.073796E+02  9.698638E+03  1.946543E+05 -7.654335E-10 -1.432725E-09
       171  14  7.013553E+05  6.397364E+03  1.621171E+04  1.733472E+05  1.431316E-09  1.438150E-10
       171  15  7.040409E+05  2.917420E+04  3.248742E+04  1.946490E+05  1.888488E-10 -1.413069E-11
       171  16  1.123915E+06  1.002663E+05  8.715216E+04  1.931279E+05  7.099665E-10 -4.888523E-10
       171  17  1.311592E+06  1.528507E+05  1.389260E+05  1.817740E+05  2.076359E-09  3.565071E-11
       171  18  1.510629E+06  2.285893E+05  2.239784E+05  2.130292E+05  4.530858E-11 -2.902143E-11
       171  19  2.845105E+05 -9.846067E+04 -6.775978E+04  1.961791E+05  2.583188E+04 -2.502823E+04
       171  20  9.147293E+04 -1.400779E+05 -1.065202E+05  1.649287E+05  2.858947E+02 -2.712845E+04
       171  21 -1.019492E+05 -1.702862E+05 -1.590474E+05  1.762929E+05 -2.524850E+04 -9.053194E+03
       171  22  7.041274E+05  9.080606E+02  9.699870E+03  1.946542E+05  5.373114E+03 -2.503488E+04
       171  23  7.013557E+05  6.398205E+03  1.621345E+04  1.733469E+05  1.372748E+04 -2.712278E+04
       171  24  7.040415E+05  2.917442E+04  3.248849E+04  1.946488E+05  2.208556E+04 -9.045071E+03
       171  25  1.123916E+06  1.002670E+05  8.715377E+04  1.931282E+05 -1.509911E+04 -2.504143E+04
       171  26  1.311593E+06  1.528517E+05  1.389288E+05  1.817734E+05  2.718201E+04 -2.711674E+04
       171  27  1.510634E+06  2.285907E+05  2.239876E+05  2.130287E+05  6.948076E+04 -9.034162E+03
       172   1 -2.270566E+05 -7.437126E+05 -2.291809E+05  2.455098E+05 -6.523164E+03 -8.511794E+04
       172   2 -1.207918E+05 -5.327575E+05 -1.269663E+05  2.001321E+05 -1.805108E+04 -3.876490E+04
       172   3 -5.899780E+04 -3.389666E+05 -6.608189E+04  1.997207E+05 -1.318309E+04  7.596868E+03
       172   4 -6.713668E+04 -9.839465E+04 -7.483395E+04  2.038653E+05 -6.488916E+03 -5.196090E+04
       172   5 -1.458251E+04 -9.215938E+04 -3.648429E+04  1.813528E+05 -1.804376E+04 -3.311316E+04
       172   6 -1.700196E+03 -9.833369E+04 -2.033326E+04  2.038126E+05 -1.320461E+04 -1.427298E+04
       172   7  9.276019E+04  5.473114E+05  7.948867E+04  1.621771E+05 -6.459143E+03 -1.876950E+04
       172   8  9.161597E+04  3.486240E+05  5.398771E+04  1.625599E+05 -1.803678E+04 -2.745747E+04
       172   9  5.559433E+04  1.423561E+05  2.541458E+04  2.079062E+05 -1.322641E+04 -3.615110E+04
       172  10 -2.270585E+05 -7.437204E+05 -2.291946E+05  2.455093E+05 -9.479855E-11 -1.013836E-08
       172  11 -1.207926E+05 -5.327592E+05 -1.269698E+05  2.001315E+05  1.414046E-10  1.881455E-08
       172  12 -5.899800E+04 -3.389667E+05 -6.608233E+04  1.997208E+05 -9.774338E-10  4.508957E-08
       172  13 -6.713745E+04 -9.839756E+04 -7.483910E+04  2.038650E+05 -7.938500E-10  5.563674E-10
       172  14 -1.458315E+04 -9.216065E+04 -3.648696E+04  1.813523E+05 -8.034983E-10 -6.502650E-10
       172  15 -1.700438E+03 -9.833395E+04 -2.033397E+04  2.038125E+05 -1.772947E-09  1.382568E-09
       172  16  9.276005E+04  5.473110E+05  7.948793E+04  1.621770E+05 -3.349443E-10  9.018787E-09
       172  17  9.161542E+04  3.486231E+05  5.398568E+04  1.625595E+05 -1.847331E-09 -1.930582E-08
       172  18  5.559379E+04  1.423547E+05  2.541180E+04  2.079058E+05 -1.255763E-09 -4.491821E-08
       172  19 -2.270566E+05 -7.437126E+05 -2.291809E+05  2.455098E+05  6.523164E+03  8.511794E+04
       172  20 -1.207918E+05 -5.327575E+05 -1.269663E+05  2.001321E+05  1.805108E+04  3.876490E+04
       172  21 -5.899780E+04 -3.389666E+05 -6.608189E+04  1.997207E+05  1.318309E+04 -7.596868E+03
       172  22 -6.713668E+04 -9.839465E+04 -7.483395E+04  2.038653E+05  6.488916E+03  5.196090E+04
       172  23 -1.458251E+04 -9.215938E+04 -3.648429E+04  1.813528E+05  1.804376E+04  3.311316E+04
       172  24 -1.700196E+03 -9.833369E+04 -2.033326E+04  2.038126E+05  1.320461E+04  1.427298E+04
       172  25  9.276019E+04  5.473114E+05  7.948867E+04  1.621771E+05  6.459143E+03  1.876950E+04
       172  26  9.161597E+04  3.486240E+05  5.398771E+04  1.625599E+05  1.803678E+04  2.745747E+04
       172  27  5.559433E+04  1.423561E+05  2.541458E+04  2.079062E+05  1.322641E+04  3.615110E+04
       173   1 -2.852762E+04 -2.036924E+05 -3.698972E+04  2.052301E+05 -5.183828E+03  8.584975E+03
       173   2  2.192360E+04 -8.540554E+02  7.072426E+03  1.814261E+05  6.646113E+03  1.254427E+04
       173   3  7.019863E+04  2.008960E+05  4.798925E+04  2.035346E+05  1.808444E+04  1.650590E+04
       173   4 -2.699542E+03 -9.584332E+04 -1.570236E+04  2.040280E+05 -5.204461E+03 -1.160892E+04
       173   5 -2.209438E+02 -9.522894E+04 -9.267319E+03  1.810701E+05  6.626881E+03 -6.993946E+03
       173   6 -3.019721E+01 -9.585567E+04 -6.431942E+03  2.040254E+05  1.806651E+04 -2.377857E+03
       173   7  2.312805E+04  1.201773E+04  5.585975E+03  2.028256E+05 -5.225014E+03 -3.180625E+04
       173   8 -2.236576E+04 -1.895943E+05 -2.560594E+04  1.807141E+05  6.607669E+03 -2.652928E+04
       173   9 -7.026383E+04 -3.925211E+05 -6.085540E+04  2.045159E+05  1.804854E+04 -2.125283E+04
       173  10 -2.852767E+04 -2.036924E+05 -3.698991E+04  2.052301E+05 -1.841010E-09 -4.688666E-08
       173  11  2.192351E+04 -8.542362E+02  7.072047E+03  1.814261E+05 -1.390884E-09 -2.053908E-08
       173  12  7.019821E+04  2.008956E+05  4.798813E+04  2.035344E+05 -1.098806E-10  8.746809E-09
       173  13 -2.699608E+03 -9.584347E+04 -1.570266E+04  2.040279E+05 -1.519723E-09  7.390402E-10
       173  14 -2.210041E+02 -9.522901E+04 -9.267493E+03  1.810701E+05 -5.754198E-10 -7.213194E-10
       173  15 -3.054924E+01 -9.585576E+04 -6.432566E+03  2.040255E+05  5.706179E-10  1.298446E-09
       173  16  2.312775E+04  1.201663E+04  5.584023E+03  2.028255E+05 -1.081668E-09  4.534854E-08
       173  17 -2.236600E+04 -1.895950E+05 -2.560734E+04  1.807143E+05  5.257667E-10  2.012029E-08
       173  18 -7.026430E+04 -3.925217E+05 -6.085686E+04  2.045162E+05  4.139655E-10 -8.558827E-09
       173  19 -2.852762E+04 -2.036924E+05 -3.698972E+04  2.052301E+05  5.183828E+03 -8.584975E+03
       173  20  2.192360E+04 -8.540554E+02  7.072426E+03  1.814261E+05 -6.646113E+03 -1.254427E+04
       173  21  7.019863E+04  2.008960E+05  4.798925E+04  2.035346E+05 -1.808444E+04 -1.650590E+04
       173  22 -2.699542E+03 -9.584332E+04 -1.570236E+04  2.040280E+05  5.204461E+03  1.160892E+04
       173  23 -2.209438E+02 -9.522894E+04 -9.267319E+03  1.810701E+05 -6.626881E+03  6.993946E+03
       173  24 -3.019721E+01 -9.585567E+04 -6.431942E+03  2.040254E+05 -1.806651E+04  2.377857E+03
       173  25  2.312805E+04  1.201773E+04  5.585975E+03  2.028256E+05  5.225014E+03  3.180625E+04
       173  26 -2.236576E+04 -1.895943E+05 -2.560594E+04  1.807141E+05 -6.607669E+03  2.652928E+04
       173  27 -7.026383E+04 -3.925211E+05 -6.085540E+04  2.045159E+05 -1.804854E+04  2.125283E+04
       174   1  1.017736E+05  3.338402E+05  7.334569E+04  2.042965E+05  2.587682E+04  1.972696E+04
       174   2  1.495097E+05  5.341068E+05  1.205492E+05  1.791957E+05  2.799879E+04 -1.213511E+04
       174   3  1.983461E+05  7.388239E+05  1.887552E+05  1.987422E+05  9.310665E+03 -4.400011E+04
       174   4 -6.133608E+00 -9.596618E+04 -5.808581E+03  2.037446E+05  2.585827E+04 -1.380094E+03
       174   5 -1.637579E+03 -9.517988E+04 -6.095192E+03  1.814222E+05  2.801235E+04  1.743386E+03
       174   6 -8.237800E+03 -9.604899E+04 -9.665075E+03  2.037505E+05  9.346376E+03  4.874100E+03
       174   7 -1.017961E+05 -5.255924E+05 -8.496881E+04  2.031930E+05  2.583976E+04 -2.247293E+04
       174   8 -1.528091E+05 -7.240888E+05 -1.327591E+05  1.836462E+05  2.802602E+04  1.560809E+04
       174   9 -2.148705E+05 -9.302774E+05 -2.081251E+05  2.087518E+05  9.382908E+03  5.368297E+04
       174  10  1.017727E+05  3.338396E+05  7.334370E+04  2.042961E+05  2.077658E-10 -2.322414E-09
       174  11  1.495088E+05  5.341065E+05  1.205474E+05  1.791959E+05  2.519919E-10 -1.246885E-09
       174  12  1.983455E+05  7.388218E+05  1.887515E+05  1.987426E+05  6.212131E-11 -2.974333E-10
       174  13 -6.852125E+00 -9.596636E+04 -5.809841E+03  2.037446E+05  4.845537E-10  6.404163E-10
       174  14 -1.638423E+03 -9.518010E+04 -6.096672E+03  1.814221E+05  3.455709E-10 -5.560849E-10
       174  15 -8.237900E+03 -9.604904E+04 -9.665284E+03  2.037505E+05  1.226217E-11  8.139879E-10
       174  16 -1.017970E+05 -5.255931E+05 -8.497102E+04  2.031935E+05  7.871798E-10  8.950890E-10
       174  17 -1.528101E+05 -7.240893E+05 -1.327610E+05  1.836459E+05 -3.480040E-10  9.235647E-10
       174  18 -2.148713E+05 -9.302805E+05 -2.081307E+05  2.087514E+05  1.488215E-11  3.533110E-10
       174  19  1.017736E+05  3.338402E+05  7.334569E+04  2.042965E+05 -2.587682E+04 -1.972696E+04
       174  20  1.495097E+05  5.341068E+05  1.205492E+05  1.791957E+05 -2.799879E+04  1.213511E+04
       174  21  1.983461E+05  7.388239E+05  1.887552E+05  1.987422E+05 -9.310665E+03  4.400011E+04
       174  22 -6.133608E+00 -9.596618E+04 -5.808581E+03  2.037446E+05 -2.585827E+04  1.380094E+03
       174  23 -1.637579E+03 -9.517988E+04 -6.095192E+03  1.814222E+05 -2.801235E+04 -1.743386E+03
       174  24 -8.237800E+03 -9.604899E+04 -9.665075E+03  2.037505E+05 -9.346376E+03 -4.874100E+03
       174  25 -1.017961E+05 -5.255924E+05 -8.496881E+04  2.031930E+05 -2.583976E+04  2.247293E+04
       174  26 -1.528091E+05 -7.240888E+05 -1.327591E+05  1.836462E+05 -2.802602E+04 -1.560809E+04
       174  27 -2.148705E+05 -9.302774E+05 -2.081251E+05  2.087518E+05 -9.382908E+03 -5.368297E+04
       175   1  3.015477E+06  5.856777E+05  5.706260E+05  3.513991E+05  1.980802E+05 -2.650603E+04
       175   2  2.698163E+06  4.380153E+05  3.872777E+05  2.937522E+05  9.244995E+04 -8.539897E+04
       175   3  2.409506E+06  3.487529E+05  2.871343E+05  3.014583E+05 -1.310756E+04 -9.392571E+04
       175   4  9.383004E+05  7.336764E+04  8.157918E+04  3.046605E+05  5.631212E+04 -2.658540E+04
       175   5  9.315272E+05  1.595500E+04  4.002591E+04  2.720118E+05  3.570656E+04 -8.546194E+04
       175   6  9.386757E+05  2.316018E+03  2.286585E+04  3.047098E+05  1.511394E+04 -9.391527E+04
       175   7 -1.134874E+06 -4.392310E+05 -4.076881E+05  2.580773E+05 -8.498643E+04 -2.664373E+04
       175   8 -8.321215E+05 -4.062901E+05 -3.073652E+05  2.503333E+05 -2.087945E+04 -8.552108E+04
       175   9 -5.300519E+05 -3.442407E+05 -2.414833E+05  3.079524E+05  4.327062E+04 -9.390451E+04
       175  10  3.015435E+06  5.856665E+05  5.705513E+05  3.514033E+05  1.006002E-09 -3.339121E-10
       175  11  2.698151E+06  4.380052E+05  3.872480E+05  2.937585E+05 -6.764388E-10 -1.808894E-09
       175  12  2.409504E+06  3.487434E+05  2.871174E+05  3.014573E+05  1.192503E-10 -1.851541E-09
       175  13  9.382968E+05  7.336603E+04  8.157190E+04  3.046617E+05  1.554656E-10 -1.006765E-10
       175  14  9.315239E+05  1.594681E+04  4.000978E+04  2.720143E+05 -5.078828E-10 -1.115816E-09
       175  15  9.386731E+05  2.306481E+03  2.284883E+04  3.047109E+05  9.384351E-10 -4.331702E-10
       175  16 -1.134882E+06 -4.392337E+05 -4.077030E+05  2.580755E+05 -9.733781E-10 -1.668155E-10
       175  17 -8.321240E+05 -4.062981E+05 -3.073798E+05  2.503318E+05  3.741166E-10 -1.901008E-09
       175  18 -5.300563E+05 -3.442506E+05 -2.415034E+05  3.079557E+05  4.847317E-10 -2.694321E-09
       175  19  3.015477E+06  5.856777E+05  5.706260E+05  3.513991E+05 -1.980802E+05  2.650603E+04
       175  20  2.698163E+06  4.380153E+05  3.872777E+05  2.937522E+05 -9.244995E+04  8.539897E+04
       175  21  2.409506E+06  3.487529E+05  2.871343E+05  3.014583E+05  1.310756E+04  9.392571E+04
       175  22  9.383004E+05  7.336764E+04  8.157918E+04  3.046605E+05 -5.631212E+04  2.658540E+04
       175  23  9.315272E+05  1.595500E+04  4.002591E+04  2.720118E+05 -3.570656E+04  8.546194E+04
       175  24  9.386757E+05  2.316018E+03  2.286585E+04  3.047098E+05 -1.511394E+04  9.391527E+04
       175  25 -1.134874E+06 -4.392310E+05 -4.076881E+05  2.580773E+05  8.498643E+04  2.664373E+04
       175  26 -8.321215E+05 -4.062901E+05 -3.073652E+05  2.503333E+05  2.087945E+04  8.552108E+04
       175  27 -5.300519E+05 -3.442407E+05 -2.414833E+05  3.079524E+05 -4.327062E+04  9.390451E+04
       176   1  2.207156E+06  3.025776E+05  2.442603E+05  3.078376E+05 -1.045199E+04 -8.320827E+04
       176   2  1.903875E+06  2.277608E+05  1.794119E+05  2.725873E+05 -2.353311E+04 -6.772848E+04
       176   3  1.603300E+06  1.567684E+05  1.240020E+05  3.057924E+05 -3.662485E+04 -4.796095E+04
       176   4  9.359885E+05  3.561714E+03  1.804706E+04  3.053985E+05  1.202441E+04 -8.319606E+04
       176   5  9.353991E+05  8.468543E+02  1.173526E+04  2.711698E+05  6.171561E+03 -6.769767E+04
       176   6  9.361836E+05  7.133381E+02  9.861405E+03  3.054027E+05  3.021441E+02 -4.790807E+04
       176   7 -3.336050E+05 -2.955430E+05 -2.082251E+05  3.029636E+05  3.445622E+04 -8.318402E+04
       176   8 -3.215726E+04 -2.261170E+05 -1.559706E+05  2.697540E+05  3.583143E+04 -6.766696E+04
       176   9  2.695067E+05 -1.553647E+05 -1.042890E+05  3.050133E+05  3.719079E+04 -4.785519E+04
       176  10  2.207154E+06  3.025702E+05  2.442471E+05  3.078369E+05 -3.930412E-09 -2.169860E-09
       176  11  1.903873E+06  2.277557E+05  1.794022E+05  2.725860E+05 -1.031657E-09  9.683952E-10
       176  12  1.603298E+06  1.567656E+05  1.239952E+05  3.057910E+05 -3.433931E-10  1.520510E-09
       176  13  9.359865E+05  3.554238E+03  1.803378E+04  3.053993E+05 -4.897774E-10 -1.607779E-09
       176  14  9.353978E+05  8.419204E+02  1.172657E+04  2.711701E+05  5.046554E-10 -1.156781E-10
       176  15  9.361830E+05  7.108724E+02  9.857090E+03  3.054027E+05  4.720285E-10 -1.278894E-09
       176  16 -3.336082E+05 -2.955507E+05 -2.082404E+05  3.029659E+05  3.427714E-09 -3.872665E-10
       176  17 -3.215987E+04 -2.261223E+05 -1.559816E+05  2.697560E+05  1.089605E-09  4.551501E-10
       176  18  2.695046E+05 -1.553675E+05 -1.042959E+05  3.050147E+05  1.006383E-09  4.958122E-10
       176  19  2.207156E+06  3.025776E+05  2.442603E+05  3.078376E+05  1.045199E+04  8.320827E+04
       176  20  1.903875E+06  2.277608E+05  1.794119E+05  2.725873E+05  2.353311E+04  6.772848E+04
       176  21  1.603300E+06  1.567684E+05  1.240020E+05  3.057924E+05  3.662485E+04  4.796095E+04
       176  22  9.359885E+05  3.561714E+03  1.804706E+04  3.053985E+05 -1.202441E+04  8.319606E+04
       176  23  9.353991E+05  8.468543E+02  1.173526E+04  2.711698E+05 -6.171561E+03  6.769767E+04
       176  24  9.361836E+05  7.133381E+02  9.861405E+03  3.054027E+05 -3.021441E+02  4.790807E+04
       176  25 -3.336050E+05 -2.955430E+05 -2.082251E+05  3.029636E+05 -3.445622E+04  8.318402E+04
       176  26 -3.215726E+04 -2.261170E+05 -1.559706E+05  2.697540E+05 -3.583143E+04  6.766696E+04
       176  27  2.695067E+05 -1.553647E+05 -1.042890E+05  3.050133E+05 -3.719079E+04  4.785519E+04
       177   1  1.406336E+06  1.104852E+05  8.925192E+04  3.063725E+05 -3.810663E+04 -3.498935E+04
       177   2  1.104338E+06  4.034685E+04  3.983255E+04  2.707083E+05 -4.169124E+04 -1.408689E+04
       177   3  8.033379E+05 -2.732487E+04 -6.692212E+03  3.035931E+05 -4.527546E+04  5.077659E+03
       177   4  9.362359E+05  7.567988E+02  1.008562E+04  3.054224E+05 -1.462668E+03 -3.493241E+04
       177   5  9.355436E+05  1.266534E+03  1.301500E+04  2.711448E+05 -7.977675E+03 -1.403260E+04
       177   6  9.362660E+05  4.754359E+03  2.086848E+04  3.054164E+05 -1.449392E+04  5.129190E+03
       177   7  4.663560E+05 -1.089824E+05 -6.908265E+04  3.044730E+05  3.515450E+04 -3.487556E+04
       177   8  7.667802E+05 -3.781459E+04 -1.379901E+04  2.715812E+05  2.572707E+04 -1.397826E+04
       177   9  1.069213E+06  3.683299E+04  4.843177E+04  3.072401E+05  1.629409E+04  5.180893E+03
       177  10  1.406334E+06  1.104835E+05  8.924690E+04  3.063714E+05 -2.167477E-10  2.116176E-09
       177  11  1.104336E+06  4.034617E+04  3.982892E+04  2.707079E+05  8.725090E-10  1.278216E-09
       177  12  8.033357E+05 -2.732545E+04 -6.696108E+03  3.035933E+05  2.095606E-09 -1.663918E-10
       177  13  9.362356E+05  7.554873E+02  1.008332E+04  3.054224E+05 -4.008941E-10 -1.764449E-09
       177  14  9.355435E+05  1.266305E+03  1.301451E+04  2.711448E+05  4.135926E-10  1.389547E-09
       177  15  9.362658E+05  4.754274E+03  2.086804E+04  3.054165E+05  8.966290E-10  2.217203E-09
       177  16  4.663543E+05 -1.089841E+05 -6.908726E+04  3.044740E+05  1.170673E-09  1.253364E-09
       177  17  7.667794E+05 -3.781498E+04 -1.380062E+04  2.715815E+05 -1.079669E-09  1.671468E-09
       177  18  1.069213E+06  3.683289E+04  4.843123E+04  3.072401E+05 -2.080035E-09  1.677456E-10
       177  19  1.406336E+06  1.104852E+05  8.925192E+04  3.063725E+05  3.810663E+04  3.498935E+04
       177  20  1.104338E+06  4.034685E+04  3.983255E+04  2.707083E+05  4.169124E+04  1.408689E+04
       177  21  8.033379E+05 -2.732487E+04 -6.692212E+03  3.035931E+05  4.527546E+04 -5.077659E+03
       177  22  9.362359E+05  7.567988E+02  1.008562E+04  3.054224E+05  1.462668E+03  3.493241E+04
       177  23  9.355436E+05  1.266534E+03  1.301500E+04  2.711448E+05  7.977675E+03  1.403260E+04
       177  24  9.362660E+05  4.754359E+03  2.086848E+04  3.054164E+05  1.449392E+04 -5.129190E+03
       177  25  4.663560E+05 -1.089824E+05 -6.908265E+04  3.044730E+05 -3.515450E+04  3.487556E+04
       177  26  7.667802E+05 -3.781459E+04 -1.379901E+04  2.715812E+05 -2.572707E+04  1.397826E+04
       177  27  1.069213E+06  3.683299E+04  4.843177E+04  3.072401E+05 -1.629409E+04 -5.180893E+03
       178   1  6.088380E+05 -7.537692E+04 -3.707021E+04  3.097187E+05 -5.153107E+04  1.712573E+04
       178   2  3.027500E+05 -1.318899E+05 -8.232877E+04  2.462358E+05 -3.566687E+04  2.509576E+04
       178   3  5.712576E+03 -1.439013E+05 -1.268148E+05  2.497933E+05 -1.978858E+04  9.125100E+03
       178   4  9.394741E+05  3.426998E+03  2.668477E+04  3.050911E+05 -1.807350E+04  1.718079E+04
       178   5  9.314356E+05  1.976243E+04  4.724257E+04  2.715229E+05 -4.246286E+04  2.508208E+04
       178   6  9.393126E+05  8.755394E+04  9.648699E+04  3.049765E+05 -6.683074E+04  9.055321E+03
       178   7  1.270218E+06  8.222512E+04  9.043889E+04  3.004608E+05  1.540146E+04  1.723533E+04
       178   8  1.560497E+06  1.713922E+05  1.767931E+05  2.968358E+05 -4.926558E+04  2.506786E+04
       178   9  1.873722E+06  3.189585E+05  3.197372E+05  3.602426E+05 -1.139433E+05  8.977250E+03
       178  10  6.088351E+05 -7.537795E+04 -3.707575E+04  3.097195E+05  1.550094E-09 -2.354948E-10
       178  11  3.027484E+05 -1.318910E+05 -8.233234E+04  2.462365E+05  1.406977E-09  2.432614E-09
       178  12  5.712133E+03 -1.439015E+05 -1.268157E+05  2.497934E+05  1.206624E-10  1.039856E-09
       178  13  9.394736E+05  3.426594E+03  2.668360E+04  3.050913E+05 -2.346540E-11  1.195600E-10
       178  14  9.314335E+05  1.976127E+04  4.723800E+04  2.715237E+05  1.214335E-09  2.331089E-09
       178  15  9.393077E+05  8.755266E+04  9.647845E+04  3.049770E+05  6.114337E-10 -4.258792E-10
       178  16  1.270217E+06  8.222474E+04  9.043789E+04  3.004606E+05 -1.029427E-09 -6.319518E-11
       178  17  1.560494E+06  1.713909E+05  1.767874E+05  2.968368E+05 -1.199037E-09  2.413490E-10
       178  18  1.873708E+06  3.189550E+05  3.197127E+05  3.602434E+05 -7.207016E-11 -6.762937E-10
       178  19  6.088380E+05 -7.537692E+04 -3.707021E+04  3.097187E+05  5.153107E+04 -1.712573E+04
       178  20  3.027500E+05 -1.318899E+05 -8.232877E+04  2.462358E+05  3.566687E+04 -2.509576E+04
       178  21  5.712576E+03 -1.439013E+05 -1.268148E+05  2.497933E+05  1.978858E+04 -9.125100E+03
       178  22  9.394741E+05  3.426998E+03  2.668477E+04  3.050911E+05  1.807350E+04 -1.718079E+04
       178  23  9.314356E+05  1.976243E+04  4.724257E+04  2.715229E+05  4.246286E+04 -2.508208E+04
       178  24  9.393126E+05  8.755394E+04  9.648699E+04  3.049765E+05  6.683074E+04 -9.055321E+03
       178  25  1.270218E+06  8.222512E+04  9.043889E+04  3.004608E+05 -1.540146E+04 -1.723533E+04
       178  26  1.560497E+06  1.713922E+05  1.767931E+05  2.968358E+05  4.926558E+04 -2.506786E+04
       178  27  1.873722E+06  3.189585E+05  3.197372E+05  3.602426E+05  1.139433E+05 -8.977250E+03
       179   1 -2.170204E+05 -4.032431E+05 -2.188377E+05  2.748037E+05 -5.699655E+03 -7.667962E+04
       179   2 -1.081678E+05 -1.601487E+05 -1.141846E+05  2.278543E+05 -1.460533E+04 -3.287535E+04
       179   3 -3.988791E+04  6.713411E+04 -4.821490E+04  2.333473E+05 -7.275791E+03  1.094395E+04
       179   4 -6.077828E+04  2.267804E+05 -6.749561E+04  2.371439E+05 -5.677330E+03 -4.806632E+04
       179   5 -1.325634E+04  2.323664E+05 -3.200965E+04  2.109042E+05 -1.460282E+04 -3.151158E+04
       179   6 -1.556543E+03  2.268335E+05 -1.626195E+04  2.371131E+05 -7.294888E+03 -1.495934E+04
       179   7  9.544076E+04  8.571723E+05  8.382212E+04  1.994456E+05 -5.658494E+03 -1.942407E+04
       179   8  8.164630E+04  6.250278E+05  5.015686E+04  1.939432E+05 -1.460039E+04 -3.014697E+04
       179   9  3.677367E+04  3.865588E+05  1.569223E+04  2.408798E+05 -7.314296E+03 -4.086916E+04
       179  10 -2.170220E+05 -4.032495E+05 -2.188488E+05  2.748034E+05 -3.188776E-10 -6.207519E-10
       179  11 -1.081683E+05 -1.601499E+05 -1.141870E+05  2.278539E+05  5.087715E-10  8.993149E-10
       179  12 -3.988800E+04  6.713397E+04 -4.821522E+04  2.333474E+05  5.710822E-10  1.248400E-09
       179  13 -6.077893E+04  2.267779E+05 -6.750001E+04  2.371437E+05  2.662914E-10 -3.854066E-11
       179  14 -1.325684E+04  2.323653E+05 -3.201192E+04  2.109038E+05 -3.138358E-12  6.148948E-11
       179  15 -1.556661E+03  2.268333E+05 -1.626247E+04  2.371130E+05  3.293773E-10  4.897461E-10
       179  16  9.544063E+04  8.571719E+05  8.382135E+04  1.994456E+05 -2.710230E-11  5.940423E-10
       179  17  8.164583E+04  6.250268E+05  5.015476E+04  1.939429E+05 -2.955515E-10 -7.112855E-10
       179  18  3.677317E+04  3.865570E+05  1.568899E+04  2.408795E+05  1.506105E-10 -7.567640E-10
       179  19 -2.170204E+05 -4.032431E+05 -2.188377E+05  2.748037E+05  5.699655E+03  7.667962E+04
       179  20 -1.081678E+05 -1.601487E+05 -1.141846E+05  2.278543E+05  1.460533E+04  3.287535E+04
       179  21 -3.988791E+04  6.713411E+04 -4.821490E+04  2.333473E+05  7.275791E+03 -1.094395E+04
       179  22 -6.077828E+04  2.267804E+05 -6.749561E+04  2.371439E+05  5.677330E+03  4.806632E+04
       179  23 -1.325634E+04  2.323664E+05 -3.200965E+04  2.109042E+05  1.460282E+04  3.151158E+04
       179  24 -1.556543E+03  2.268335E+05 -1.626195E+04  2.371131E+05  7.294888E+03  1.495934E+04
       179  25  9.544076E+04  8.571723E+05  8.382212E+04  1.994456E+05  5.658494E+03  1.942407E+04
       179  26  8.164630E+04  6.250278E+05  5.015686E+04  1.939432E+05  1.460039E+04  3.014697E+04
       179  27  3.677367E+04  3.865588E+05  1.569223E+04  2.408798E+05  7.314296E+03  4.086916E+04
       180   1 -4.351879E+03  2.237252E+05 -1.500316E+04  2.381310E+05  2.146504E+03  1.131507E+04
       180   2  5.385416E+04  4.589097E+05  3.660699E+04  2.112146E+05  1.613233E+04  1.126400E+04
       180   3  1.115844E+05  6.940088E+05  8.811641E+04  2.376478E+05  2.916719E+04  1.121556E+04
       180   4 -2.512775E+03  2.292175E+05 -1.129206E+04  2.373169E+05  2.128151E+03 -1.298843E+04
       180   5  2.773215E+01  2.294063E+05 -3.109914E+03  2.106400E+05  1.611716E+04 -1.144395E+04
       180   6  1.818742E+03  2.291807E+05  3.865735E+03  2.373141E+05  2.915492E+04 -9.896807E+03
       180   7 -6.733580E+02  2.347112E+05 -7.578751E+03  2.365028E+05  2.109863E+03 -3.729218E+04
       180   8 -5.380125E+04 -4.432556E+01 -4.282670E+04  2.100656E+05  1.610203E+04 -3.414377E+04
       180   9 -1.079588E+05 -2.354363E+05 -8.039182E+04  2.369805E+05  2.914266E+04 -3.099381E+04
       180  10 -4.351919E+03  2.237250E+05 -1.500341E+04  2.381310E+05  2.095140E-10 -2.767431E-11
       180  11  5.385385E+04  4.589095E+05  3.660626E+04  2.112145E+05 -2.079571E-10  9.692634E-10
       180  12  1.115834E+05  6.940084E+05  8.811457E+04  2.376475E+05 -6.327139E-10  5.555575E-10
       180  13 -2.512826E+03  2.292174E+05 -1.129239E+04  2.373169E+05  2.621096E-10  4.260434E-12
       180  14  2.741794E+01  2.294061E+05 -3.110648E+03  2.106402E+05 -7.450836E-11  2.331366E-11
       180  15  1.817803E+03  2.291804E+05  3.863953E+03  2.373143E+05 -1.441469E-11  3.875170E-10
       180  16 -6.737360E+02  2.347097E+05 -7.581372E+03  2.365029E+05  1.872576E-10 -8.048062E-11
       180  17 -5.380184E+04 -4.564737E+01 -4.282938E+04  2.100661E+05  2.346771E-10 -4.872488E-10
       180  18 -1.079600E+05 -2.354376E+05 -8.039523E+04  2.369812E+05 -1.590031E-11 -2.197901E-10
       180  19 -4.351879E+03  2.237252E+05 -1.500316E+04  2.381310E+05 -2.146504E+03 -1.131507E+04
       180  20  5.385416E+04  4.589097E+05  3.660699E+04  2.112146E+05 -1.613233E+04 -1.126400E+04
       180  21  1.115844E+05  6.940088E+05  8.811641E+04  2.376478E+05 -2.916719E+04 -1.121556E+04
       180  22 -2.512775E+03  2.292175E+05 -1.129206E+04  2.373169E+05 -2.128151E+03  1.298843E+04
       180  23  2.773215E+01  2.294063E+05 -3.109914E+03  2.106400E+05 -1.611716E+04  1.144395E+04
       180  24  1.818742E+03  2.291807E+05  3.865735E+03  2.373141E+05 -2.915492E+04  9.896807E+03
       180  25 -6.733580E+02  2.347112E+05 -7.578751E+03  2.365028E+05 -2.109863E+03  3.729218E+04
       180  26 -5.380125E+04 -4.432556E+01 -4.282670E+04  2.100656E+05 -1.610203E+04  3.414377E+04
       180  27 -1.079588E+05 -2.354363E+05 -8.039182E+04  2.369805E+05 -2.914266E+04  3.099381E+04
       181   1  1.476434E+05  8.503189E+05  1.206509E+05  2.348927E+05  3.808618E+04  1.338897E+04
       181   2  2.119830E+05  1.078582E+06  1.877916E+05  2.211612E+05  3.886274E+04 -4.115304E+04
       181   3  3.051065E+05  1.321250E+06  2.976102E+05  2.591399E+05  1.265946E+04 -9.572029E+04
       181   4  1.166335E+03  2.306858E+05  7.489754E+03  2.369502E+05  3.807479E+04 -1.065175E+04
       181   5  7.840198E+03  2.273685E+05  1.767776E+04  2.110893E+05  3.887696E+04 -1.979341E+04
       181   6  3.544813E+04  2.305523E+05  3.905827E+04  2.369378E+05  1.268450E+04 -2.893875E+04
       181   7 -1.453321E+05 -3.885735E+05 -1.056848E+05  2.390055E+05  3.806322E+04 -3.466914E+04
       181   8 -1.963464E+05 -6.231527E+05 -1.524709E+05  2.010313E+05  3.889051E+04  1.537571E+03
       181   9 -2.342914E+05 -8.590438E+05 -2.195594E+05  2.147746E+05  1.270482E+04  3.772629E+04
       181  10  1.476418E+05  8.503184E+05  1.206479E+05  2.348923E+05 -1.309498E-10 -6.642249E-11
       181  11  2.119809E+05  1.078579E+06  1.877856E+05  2.211625E+05 -1.465911E-10  1.432528E-10
       181  12  3.051038E+05  1.321240E+06  2.975927E+05  2.591408E+05 -2.061766E-10  1.609774E-10
       181  13  1.164747E+03  2.306853E+05  7.486816E+03  2.369506E+05 -2.435000E-10 -5.587768E-11
       181  14  7.838470E+03  2.273676E+05  1.767418E+04  2.110899E+05  1.887058E-11 -1.681507E-11
       181  15  3.544773E+04  2.305513E+05  3.905639E+04  2.369381E+05  1.924220E-10 -1.248294E-10
       181  16 -1.453340E+05 -3.885752E+05 -1.056898E+05  2.390066E+05 -7.389012E-11  6.787176E-11
       181  17 -1.963480E+05 -6.231531E+05 -1.524737E+05  2.010312E+05  3.108765E-10 -8.894695E-11
       181  18 -2.342920E+05 -8.590453E+05 -2.195624E+05  2.147742E+05 -5.367252E-12 -3.324516E-10
       181  19  1.476434E+05  8.503189E+05  1.206509E+05  2.348927E+05 -3.808618E+04 -1.338897E+04
       181  20  2.119830E+05  1.078582E+06  1.877916E+05  2.211612E+05 -3.886274E+04  4.115304E+04
       181  21  3.051065E+05  1.321250E+06  2.976102E+05  2.591399E+05 -1.265946E+04  9.572029E+04
       181  22  1.166335E+03  2.306858E+05  7.489754E+03  2.369502E+05 -3.807479E+04  1.065175E+04
       181  23  7.840198E+03  2.273685E+05  1.767776E+04  2.110893E+05 -3.887696E+04  1.979341E+04
       181  24  3.544813E+04  2.305523E+05  3.905827E+04  2.369378E+05 -1.268450E+04  2.893875E+04
       181  25 -1.453321E+05 -3.885735E+05 -1.056848E+05  2.390055E+05 -3.806322E+04  3.466914E+04
       181  26 -1.963464E+05 -6.231527E+05 -1.524709E+05  2.010313E+05 -3.889051E+04 -1.537571E+03
       181  27 -2.342914E+05 -8.590438E+05 -2.195594E+05  2.147746E+05 -1.270482E+04 -3.772629E+04
       182   1  1.318916E+06  2.040144E+05  1.970110E+05  1.655332E+05  5.754227E+04 -9.148805E+03
       182   2  1.159245E+06  1.507621E+05  1.297199E+05  1.442802E+05  2.179521E+04 -2.848978E+04
       182   3  1.007400E+06  1.103220E+05  8.887106E+04  1.571377E+05 -1.395976E+04 -2.866661E+04
       182   4  5.433739E+05  1.233165E+04  1.340712E+04  1.572952E+05  8.942761E+03 -9.207669E+03
       182   5  5.422968E+05  2.903639E+03  6.823575E+03  1.402467E+05  5.452195E+03 -2.851308E+04
       182   6  5.434389E+05  7.038271E+02  4.317625E+03  1.573096E+05  1.944652E+03 -2.864611E+04
       182   7 -2.316109E+05 -1.793928E+05 -1.702296E+05  1.490672E+05 -3.959646E+04 -9.265289E+03
       182   8 -7.428798E+04 -1.449779E+05 -1.160908E+05  1.362172E+05 -1.087493E+04 -2.853619E+04
       182   9  7.968752E+04 -1.089264E+05 -8.024352E+04  1.574812E+05  1.783752E+04 -2.862559E+04
       182  10  1.318912E+06  2.040135E+05  1.970046E+05  1.655337E+05  3.088964E-09 -1.155691E-09
       182  11  1.159245E+06  1.507611E+05  1.297175E+05  1.442807E+05  7.200737E-10 -2.084317E-09
       182  12  1.007399E+06  1.103211E+05  8.886915E+04  1.571374E+05 -2.487810E-09 -2.061861E-09
       182  13  5.433738E+05  1.233153E+04  1.340681E+04  1.572953E+05 -1.183766E-10  1.556709E-09
       182  14  5.422966E+05  2.902758E+03  6.821991E+03  1.402469E+05  7.393650E-10 -8.174988E-10
       182  15  5.434387E+05  7.029447E+02  4.316076E+03  1.573097E+05  6.705383E-10 -1.884654E-09
       182  16 -2.316126E+05 -1.793933E+05 -1.702327E+05  1.490670E+05 -3.268479E-09  1.187290E-10
       182  17 -7.428833E+04 -1.449788E+05 -1.160926E+05  1.362170E+05 -3.925264E-10 -2.256601E-09
       182  18  7.968696E+04 -1.089274E+05 -8.024566E+04  1.574817E+05  2.916000E-09 -2.062688E-09
       182  19  1.318916E+06  2.040144E+05  1.970110E+05  1.655332E+05 -5.754227E+04  9.148805E+03
       182  20  1.159245E+06  1.507621E+05  1.297199E+05  1.442802E+05 -2.179521E+04  2.848978E+04
       182  21  1.007400E+06  1.103220E+05  8.887106E+04  1.571377E+05  1.395976E+04  2.866661E+04
       182  22  5.433739E+05  1.233165E+04  1.340712E+04  1.572952E+05 -8.942761E+03  9.207669E+03
       182  23  5.422968E+05  2.903639E+03  6.823575E+03  1.402467E+05 -5.452195E+03  2.851308E+04
       182  24  5.434389E+05  7.038271E+02  4.317625E+03  1.573096E+05 -1.944652E+03  2.864611E+04
       182  25 -2.316109E+05 -1.793928E+05 -1.702296E+05  1.490672E+05  3.959646E+04  9.265289E+03
       182  26 -7.428798E+04 -1.449779E+05 -1.160908E+05  1.362172E+05  1.087493E+04  2.853619E+04
       182  27  7.968752E+04 -1.089264E+05 -8.024352E+04  1.574812E+05 -1.783752E+04  2.862559E+04
       183   1  9.045939E+05  8.623879E+04  6.915000E+04  1.582614E+05 -1.242118E+04 -2.279153E+04
       183   2  7.487445E+05  4.879666E+04  3.962740E+04  1.403290E+05 -1.670060E+04 -1.385607E+04
       183   3  5.936291E+05  1.236839E+04  1.311381E+04  1.577162E+05 -2.098224E+04 -3.366512E+03
       183   4  5.430188E+05  9.005156E+02  3.739794E+03  1.575765E+05  1.309351E+03 -2.277277E+04
       183   5  5.429007E+05  3.984413E+02  3.332200E+03  1.399166E+05 -3.575740E+02 -1.383239E+04
       183   6  5.430399E+05  4.583002E+02  4.121075E+03  1.575771E+05 -2.027743E+03 -3.337624E+03
       183   7  1.815712E+05 -8.444498E+04 -6.167486E+04  1.568919E+05  1.503212E+04 -2.275402E+04
       183   8  3.370989E+05 -4.800195E+04 -3.296355E+04  1.395043E+05  1.598019E+04 -1.380873E+04
       183   9  4.924540E+05 -1.145174E+04 -4.870410E+03  1.574380E+05  1.692526E+04 -3.308743E+03
       183  10  9.045936E+05  8.623819E+04  6.914873E+04  1.582612E+05 -1.442229E-10  9.128223E-10
       183  11  7.487442E+05  4.879638E+04  3.962651E+04  1.403288E+05 -3.292974E-10  8.859444E-10
       183  12  5.936286E+05  1.236826E+04  1.311297E+04  1.577162E+05 -1.892952E-09  1.686935E-09
       183  13  5.430187E+05  8.999581E+02  3.738815E+03  1.575765E+05 -4.373055E-10 -3.673234E-10
       183  14  5.429007E+05  3.982358E+02  3.331840E+03  1.399166E+05  1.731003E-10  4.429942E-10
       183  15  5.430399E+05  4.582871E+02  4.121047E+03  1.575771E+05  4.833904E-10  1.762882E-09
       183  16  1.815708E+05 -8.444560E+04 -6.167625E+04  1.568922E+05  3.971584E-10  7.111375E-10
       183  17  3.370986E+05 -4.800222E+04 -3.296438E+04  1.395045E+05  1.253130E-10 -3.778695E-09
       183  18  4.924537E+05 -1.145183E+04 -4.870969E+03  1.574380E+05  1.741888E-09  5.645050E-11
       183  19  9.045939E+05  8.623879E+04  6.915000E+04  1.582614E+05  1.242118E+04  2.279153E+04
       183  20  7.487445E+05  4.879666E+04  3.962740E+04  1.403290E+05  1.670060E+04  1.385607E+04
       183  21  5.936291E+05  1.236839E+04  1.311381E+04  1.577162E+05  2.098224E+04  3.366512E+03
       183  22  5.430188E+05  9.005156E+02  3.739794E+03  1.575765E+05 -1.309351E+03  2.277277E+04
       183  23  5.429007E+05  3.984413E+02  3.332200E+03  1.399166E+05  3.575740E+02  1.383239E+04
       183  24  5.430399E+05  4.583002E+02  4.121075E+03  1.575771E+05  2.027743E+03  3.337624E+03
       183  25  1.815712E+05 -8.444498E+04 -6.167486E+04  1.568919E+05 -1.503212E+04  2.275402E+04
       183  26  3.370989E+05 -4.800195E+04 -3.296355E+04  1.395043E+05 -1.598019E+04  1.380873E+04
       183  27  4.924540E+05 -1.145174E+04 -4.870410E+03  1.574380E+05 -1.692526E+04  3.308743E+03
       184   1  4.922627E+05 -1.158396E+04 -4.087114E+03  1.579498E+05 -2.178496E+04  3.325598E+03
       184   2  3.365776E+05 -4.770813E+04 -2.840424E+04  1.393565E+05 -2.314738E+04  1.382185E+04
       184   3  1.813845E+05 -8.227952E+04 -5.147517E+04  1.560843E+05 -2.450624E+04  2.276237E+04
       184   4  5.431870E+05  4.034140E+02  4.961707E+03  1.575775E+05 -2.832094E+03  3.354496E+03
       184   5  5.427160E+05  7.717401E+02  7.949318E+03  1.399154E+05 -6.812662E+03  1.384549E+04
       184   6  5.431642E+05  3.146898E+03  1.399790E+04  1.575734E+05 -1.078994E+04  2.278107E+04
       184   7  5.941145E+05  1.239083E+04  1.401178E+04  1.572051E+05  1.612228E+04  3.383369E+03
       184   8  7.488966E+05  4.924943E+04  4.430233E+04  1.404745E+05  9.527320E+03  1.386917E+04
       184   9  9.050715E+05  8.856609E+04  7.946652E+04  1.590634E+05  2.934121E+03  2.279982E+04
       184  10  4.922622E+05 -1.158409E+04 -4.088026E+03  1.579499E+05 -1.779387E-09  2.908706E-09
       184  11  3.365770E+05 -4.770848E+04 -2.840561E+04  1.393567E+05  5.578474E-10  4.992630E-10
       184  12  1.813837E+05 -8.228024E+04 -5.147727E+04  1.560847E+05  3.724499E-09  2.236513E-09
       184  13  5.431869E+05  4.033997E+02  4.961670E+03  1.575775E+05 -1.821104E-10  1.894190E-09
       184  14  5.427159E+05  7.715217E+02  7.948870E+03  1.399155E+05 -3.079277E-10  2.342017E-09
       184  15  5.431639E+05  3.146309E+03  1.399671E+04  1.575736E+05  2.078544E-10 -5.910520E-10
       184  16  5.941142E+05  1.239075E+04  1.401127E+04  1.572051E+05  2.093342E-09  1.620916E-09
       184  17  7.488965E+05  4.924920E+04  4.430179E+04  1.404744E+05 -1.213913E-09  4.473626E-10
       184  18  9.050714E+05  8.856553E+04  7.946552E+04  1.590634E+05 -4.022692E-09 -3.568874E-09
       184  19  4.922627E+05 -1.158396E+04 -4.087114E+03  1.579498E+05  2.178496E+04 -3.325598E+03
       184  20  3.365776E+05 -4.770813E+04 -2.840424E+04  1.393565E+05  2.314738E+04 -1.382185E+04
       184  21  1.813845E+05 -8.227952E+04 -5.147517E+04  1.560843E+05  2.450624E+04 -2.276237E+04
       184  22  5.431870E+05  4.034140E+02  4.961707E+03  1.575775E+05  2.832094E+03 -3.354496E+03
       184  23  5.427160E+05  7.717401E+02  7.949318E+03  1.399154E+05  6.812662E+03 -1.384549E+04
       184  24  5.431642E+05  3.146898E+03  1.399790E+04  1.575734E+05  1.078994E+04 -2.278107E+04
       184  25  5.941145E+05  1.239083E+04  1.401178E+04  1.572051E+05 -1.612228E+04 -3.383369E+03
       184  26  7.488966E+05  4.924943E+04  4.430233E+04  1.404745E+05 -9.527320E+03 -1.386917E+04
       184  27  9.050715E+05  8.856609E+04  7.946652E+04  1.590634E+05 -2.934121E+03 -2.279982E+04
       185   1  8.134228E+04 -1.074996E+05 -6.635299E+04  1.604120E+05 -2.907699E+04  2.863046E+04
       185   2 -7.709173E+04 -1.342749E+05 -8.999220E+04  1.223800E+05 -1.386564E+04  2.852071E+04
       185   3 -2.298784E+05 -1.304694E+05 -1.158976E+05  1.184425E+05  1.359609E+03  9.225293E+03
       185   4  5.454359E+05  2.201365E+03  1.826747E+04  1.573091E+05 -1.319305E+04  2.865111E+04
       185   5  5.397926E+05  1.372030E+04  3.298703E+04  1.402282E+05 -3.021836E+04  2.849713E+04
       185   6  5.453582E+05  6.139699E+04  6.781251E+04  1.572359E+05 -4.722702E+04  9.167237E+03
       185   7  1.009739E+06  1.118904E+05  1.028802E+05  1.542036E+05  2.702449E+03  2.867159E+04
       185   8  1.157042E+06  1.616935E+05  1.559484E+05  1.580944E+05 -4.658699E+04  2.847263E+04
       185   9  1.321155E+06  2.532271E+05  2.514905E+05  1.960778E+05 -9.587398E+04  9.103153E+03
       185  10  8.134116E+04 -1.075007E+05 -6.635612E+04  1.604127E+05 -7.014319E-10  1.685780E-09
       185  11 -7.709216E+04 -1.342758E+05 -8.999409E+04  1.223803E+05 -4.524034E-10 -2.161609E-09
       185  12 -2.298785E+05 -1.304695E+05 -1.158978E+05  1.184425E+05 -5.587958E-10 -9.236079E-10
       185  13  5.454355E+05  2.200437E+03  1.826560E+04  1.573094E+05  3.613339E-10  1.740482E-09
       185  14  5.397914E+05  1.371918E+04  3.298379E+04  1.402289E+05 -3.105436E-10 -3.459711E-09
       185  15  5.453558E+05  6.139630E+04  6.780816E+04  1.572362E+05  5.626020E-10  8.204870E-10
       185  16  1.009739E+06  1.118895E+05  1.028787E+05  1.542036E+05  1.130751E-09 -2.879259E-10
       185  17  1.157039E+06  1.616920E+05  1.559428E+05  1.580955E+05  3.454229E-10  4.846151E-10
       185  18  1.321145E+06  2.532245E+05  2.514731E+05  1.960785E+05  4.274365E-10 -3.395388E-10
       185  19  8.134228E+04 -1.074996E+05 -6.635299E+04  1.604120E+05  2.907699E+04 -2.863046E+04
       185  20 -7.709173E+04 -1.342749E+05 -8.999220E+04  1.223800E+05  1.386564E+04 -2.852071E+04
       185  21 -2.298784E+05 -1.304694E+05 -1.158976E+05  1.184425E+05 -1.359609E+03 -9.225293E+03
       185  22  5.454359E+05  2.201365E+03  1.826747E+04  1.573091E+05  1.319305E+04 -2.865111E+04
       185  23  5.397926E+05  1.372030E+04  3.298703E+04  1.402282E+05  3.021836E+04 -2.849713E+04
       185  24  5.453582E+05  6.139699E+04  6.781251E+04  1.572359E+05  4.722702E+04 -9.167237E+03
       185  25  1.009739E+06  1.118904E+05  1.028802E+05  1.542036E+05 -2.702449E+03 -2.867159E+04
       185  26  1.157042E+06  1.616935E+05  1.559484E+05  1.580944E+05  4.658699E+04 -2.847263E+04
       185  27  1.321155E+06  2.532271E+05  2.514905E+05  1.960778E+05  9.587398E+04 -9.103153E+03
       186   1 -5.264642E+05 -1.765773E+06 -5.197689E+05  4.749437E+05 -1.944117E+04 -1.780782E+05
       186   2 -3.364446E+05 -1.340635E+06 -3.163028E+05  3.959146E+05 -5.854124E+04 -7.853844E+04
       186   3 -2.171656E+05 -9.457059E+05 -1.954224E+05  4.072880E+05 -5.462421E+04  2.111162E+04
       186   4 -9.938255E+04 -4.251161E+04 -1.097518E+05  4.131405E+05 -1.943273E+04 -7.657396E+04
       186   5 -2.217684E+04 -3.344951E+04 -5.324568E+04  3.679367E+05 -5.852566E+04 -4.906832E+04
       186   6 -3.092523E+03 -4.216229E+04 -2.915241E+04  4.131484E+05 -5.463207E+04 -2.152421E+04
       186   7  3.275048E+05  1.683511E+06  3.000983E+05  3.511638E+05 -1.944464E+04  2.521150E+04
       186   8  2.919887E+05  1.275371E+06  2.097278E+05  3.398982E+05 -5.851278E+04 -1.953717E+04
       186   9  2.109351E+05  8.621782E+05  1.370908E+05  4.190172E+05 -5.464072E+04 -6.422050E+04
       186  10 -5.264731E+05 -1.765807E+06 -5.198293E+05  4.749409E+05 -1.503764E-10 -1.105028E-09
       186  11 -3.364499E+05 -1.340642E+06 -3.163208E+05  3.959109E+05 -3.927484E-10  1.112839E-09
       186  12 -2.171689E+05 -9.457072E+05 -1.954289E+05  4.072889E+05  6.783529E-11  1.859830E-10
       186  13 -9.938453E+04 -4.251801E+04 -1.097635E+05  4.131393E+05 -1.327844E-10 -1.767619E-09
       186  14 -2.218116E+04 -3.345301E+04 -5.325663E+04  3.679344E+05  5.821801E-12  1.335745E-10
       186  15 -3.095851E+03 -4.216359E+04 -2.915889E+04  4.131474E+05  3.473021E-11  1.889352E-10
       186  16  3.275042E+05  1.683510E+06  3.000964E+05  3.511642E+05 -7.886011E-11  6.014819E-10
       186  17  2.919849E+05  1.275370E+06  2.097206E+05  3.398973E+05 -9.590065E-13 -7.801235E-10
       186  18  2.109308E+05  8.621730E+05  1.370774E+05  4.190144E+05 -7.637759E-10 -9.106392E-10
       186  19 -5.264642E+05 -1.765773E+06 -5.197689E+05  4.749437E+05  1.944117E+04  1.780782E+05
       186  20 -3.364446E+05 -1.340635E+06 -3.163028E+05  3.959146E+05  5.854124E+04  7.853844E+04
       186  21 -2.171656E+05 -9.457059E+05 -1.954224E+05  4.072880E+05  5.462421E+04 -2.111162E+04
       186  22 -9.938255E+04 -4.251161E+04 -1.097518E+05  4.131405E+05  1.943273E+04  7.657396E+04
       186  23 -2.217684E+04 -3.344951E+04 -5.324568E+04  3.679367E+05  5.852566E+04  4.906832E+04
       186  24 -3.092523E+03 -4.216229E+04 -2.915241E+04  4.131484E+05  5.463207E+04  2.152421E+04
       186  25  3.275048E+05  1.683511E+06  3.000983E+05  3.511638E+05  1.944464E+04 -2.521150E+04
       186  26  2.919887E+05  1.275371E+06  2.097278E+05  3.398982E+05  5.851278E+04  1.953717E+04
       186  27  2.109351E+05  8.621782E+05  1.370908E+05  4.190172E+05  5.464072E+04  6.422050E+04
       187   1 -1.545627E+05 -6.725323E+05 -1.382042E+05  4.154270E+05 -3.886022E+04  2.028215E+04
       187   2 -5.317984E+04 -2.617630E+05 -5.076440E+04  3.676725E+05 -1.574176E+04  2.781813E+04
       187   3  4.485696E+04  1.474427E+05  3.093539E+04  4.129845E+05  8.303917E+03  3.535506E+04
       187   4 -4.479599E+03 -3.845612E+04 -2.212852E+04  4.137316E+05 -3.887329E+04 -1.775623E+04
       187   5 -6.005650E+02 -3.769971E+04 -1.196996E+04  3.671979E+05 -1.575851E+04 -1.178267E+04
       187   6  2.139254E+02 -3.839544E+04 -6.460527E+03  4.137297E+05  8.283009E+03 -5.812877E+03
       187   7  1.455815E+05  5.960139E+05  9.393627E+04  4.120343E+05 -3.888614E+04 -5.583244E+04
       187   8  5.197685E+04  1.864162E+05  2.682864E+04  3.667232E+05 -1.577520E+04 -5.139733E+04
       187   9 -4.443033E+04 -2.241970E+05 -4.385184E+04  4.144746E+05  8.261995E+03 -4.696873E+04
       187  10 -1.545644E+05 -6.725331E+05 -1.382078E+05  4.154276E+05 -2.196914E-10 -8.387606E-10
       187  11 -5.318031E+04 -2.617639E+05 -5.076632E+04  3.676728E+05 -9.977427E-10  4.215349E-10
       187  12  4.485655E+04  1.474413E+05  3.093292E+04  4.129843E+05 -4.596657E-10  5.505930E-10
       187  13 -4.481305E+03 -3.845686E+04 -2.213195E+04  4.137310E+05 -1.788759E-10 -8.300156E-10
       187  14 -6.008688E+02 -3.769993E+04 -1.197069E+04  3.671978E+05 -4.899005E-10 -4.024577E-10
       187  15  2.138426E+02 -3.839549E+04 -6.460719E+03  4.137297E+05  3.932699E-11 -4.956050E-10
       187  16  1.455791E+05  5.960102E+05  9.392759E+04  4.120325E+05 -4.869219E-10  3.497137E-10
       187  17  5.197587E+04  1.864133E+05  2.682321E+04  3.667226E+05 -4.886208E-11 -1.018962E-10
       187  18 -4.443100E+04 -2.241994E+05 -4.385612E+04  4.144749E+05 -3.601202E-10 -8.460976E-10
       187  19 -1.545627E+05 -6.725323E+05 -1.382042E+05  4.154270E+05  3.886022E+04 -2.028215E+04
       187  20 -5.317984E+04 -2.617630E+05 -5.076440E+04  3.676725E+05  1.574176E+04 -2.781813E+04
       187  21  4.485696E+04  1.474427E+05  3.093539E+04  4.129845E+05 -8.303917E+03 -3.535506E+04
       187  22 -4.479599E+03 -3.845612E+04 -2.212852E+04  4.137316E+05  3.887329E+04  1.775623E+04
       187  23 -6.005650E+02 -3.769971E+04 -1.196996E+04  3.671979E+05  1.575851E+04  1.178267E+04
       187  24  2.139254E+02 -3.839544E+04 -6.460527E+03  4.137297E+05 -8.283009E+03  5.812877E+03
       187  25  1.455815E+05  5.960139E+05  9.393627E+04  4.120343E+05  3.888614E+04  5.583244E+04
       187  26  5.197685E+04  1.864162E+05  2.682864E+04  3.667232E+05  1.577520E+04  5.139733E+04
       187  27 -4.443033E+04 -2.241970E+05 -4.385184E+04  4.144746E+05 -8.261995E+03  4.696873E+04
       188   1  1.084263E+05  4.170394E+05  8.230692E+04  4.130431E+05  2.454866E+04  3.961676E+04
       188   2  2.076082E+05  8.226222E+05  1.752112E+05  3.677083E+05  3.476408E+04 -1.397883E+04
       188   3  3.166100E+05  1.237977E+06  3.054590E+05  4.135583E+05  1.254658E+04 -6.762831E+04
       188   4  4.181034E+01 -3.806916E+04 -4.617309E+03  4.133136E+05  2.452888E+04 -4.860338E+03
       188   5  9.448717E+01 -3.826589E+04 -1.881235E+03  3.677168E+05  3.477071E+04 -3.913483E+03
       188   6  5.204862E+02 -3.829835E+04  3.500904E+02  4.133131E+05  1.255902E+04 -2.985346E+03
       188   7 -1.083538E+05 -4.929740E+05 -9.154350E+04  4.135838E+05  2.450904E+04 -4.930561E+04
       188   8 -2.074658E+05 -8.984510E+05 -1.790130E+05  3.677251E+05  3.477734E+04  6.138172E+03
       188   9 -3.156847E+05 -1.313073E+06 -3.048580E+05  4.130680E+05  1.257144E+04  6.152551E+04
       188  10  1.084252E+05  4.170375E+05  8.230285E+04  4.130423E+05  6.024561E-11  1.704223E-10
       188  11  2.076068E+05  8.226217E+05  1.752086E+05  3.677087E+05  1.990720E-11  8.971843E-10
       188  12  3.166086E+05  1.237972E+06  3.054501E+05  4.135590E+05 -6.168550E-11 -7.253834E-10
       188  13  4.115779E+01 -3.806935E+04 -4.618484E+03  4.133137E+05  5.917651E-11 -4.509942E-10
       188  14  9.318469E+01 -3.826623E+04 -1.883536E+03  3.677169E+05 -1.863635E-10  1.346799E-10
       188  15  5.203144E+02 -3.829841E+04  3.497771E+02  4.133132E+05  1.769484E-11 -6.994393E-10
       188  16 -1.083551E+05 -4.929767E+05 -9.154921E+04  4.135847E+05 -4.632841E-12 -2.121618E-10
       188  17 -2.074671E+05 -8.984514E+05 -1.790154E+05  3.677249E+05  3.541638E-10 -4.701689E-11
       188  18 -3.156859E+05 -1.313077E+06 -3.048654E+05  4.130674E+05 -1.377952E-10 -5.169209E-10
       188  19  1.084263E+05  4.170394E+05  8.230692E+04  4.130431E+05 -2.454866E+04 -3.961676E+04
       188  20  2.076082E+05  8.226222E+05  1.752112E+05  3.677083E+05 -3.476408E+04  1.397883E+04
       188  21  3.166100E+05  1.237977E+06  3.054590E+05  4.135583E+05 -1.254658E+04  6.762831E+04
       188  22  4.181034E+01 -3.806916E+04 -4.617309E+03  4.133136E+05 -2.452888E+04  4.860338E+03
       188  23  9.448717E+01 -3.826589E+04 -1.881235E+03  3.677168E+05 -3.477071E+04  3.913483E+03
       188  24  5.204862E+02 -3.829835E+04  3.500904E+02  4.133131E+05 -1.255902E+04  2.985346E+03
       188  25 -1.083538E+05 -4.929740E+05 -9.154350E+04  4.135838E+05 -2.450904E+04  4.930561E+04
       188  26 -2.074658E+05 -8.984510E+05 -1.790130E+05  3.677251E+05 -3.477734E+04 -6.138172E+03
       188  27 -3.156847E+05 -1.313073E+06 -3.048580E+05  4.130680E+05 -1.257144E+04 -6.152551E+04
       189   1  7.204617E+05  1.216359E+05  1.174388E+05  1.111038E+05  3.240322E+04 -5.306876E+03
       189   2  6.121695E+05  8.767803E+04  7.542774E+04  9.734419E+04  1.109363E+04 -1.617424E+04
       189   3  5.083603E+05  6.068550E+04  4.901742E+04  1.069191E+05 -1.022248E+04 -1.540413E+04
       189   4  2.535897E+05  6.142286E+03  6.626429E+03  1.069967E+05  4.384628E+03 -5.337703E+03
       189   5  2.530625E+05  1.482171E+03  3.399536E+03  9.533246E+04  2.646102E+03 -1.618465E+04
       189   6  2.536150E+05  3.948534E+02  2.193913E+03  1.070031E+05  8.972490E+02 -1.539117E+04
       189   7 -2.130807E+05 -1.093665E+05 -1.041981E+05  1.028927E+05 -2.361302E+04 -5.368173E+03
       189   8 -1.059213E+05 -8.472158E+04 -6.863495E+04  9.332188E+04 -5.796639E+03 -1.619500E+04
       189   9 -1.067096E+03 -5.989941E+04 -4.463180E+04  1.070870E+05  1.201254E+04 -1.537821E+04
       189  10  7.204605E+05  1.216356E+05  1.174367E+05  1.111039E+05 -2.716094E-09  1.811329E-10
       189  11  6.121693E+05  8.767772E+04  7.542701E+04  9.734433E+04 -3.107922E-10  3.125730E-09
       189  12  5.083601E+05  6.068521E+04  4.901678E+04  1.069190E+05  7.615197E-10  8.686969E-10
       189  13  2.535896E+05  6.142250E+03  6.626340E+03  1.069968E+05 -2.909770E-10 -1.775900E-09
       189  14  2.530625E+05  1.481887E+03  3.399031E+03  9.533250E+04 -2.566737E-10 -3.880391E-09
       189  15  2.536149E+05  3.945987E+02  2.193466E+03  1.070031E+05  4.366566E-10 -5.050723E-10
       189  16 -2.130813E+05 -1.093667E+05 -1.041992E+05  1.028926E+05  2.764975E-09 -4.142289E-10
       189  17 -1.059214E+05 -8.472187E+04 -6.863550E+04  9.332180E+04 -4.859871E-11  1.697710E-09
       189  18 -1.067315E+03 -5.989971E+04 -4.463252E+04  1.070871E+05 -8.388134E-10 -7.054655E-10
       189  19  7.204617E+05  1.216359E+05  1.174388E+05  1.111038E+05 -3.240322E+04  5.306876E+03
       189  20  6.121695E+05  8.767803E+04  7.542774E+04  9.734419E+04 -1.109363E+04  1.617424E+04
       189  21  5.083603E+05  6.068550E+04  4.901742E+04  1.069191E+05  1.022248E+04  1.540413E+04
       189  22  2.535897E+05  6.142286E+03  6.626429E+03  1.069967E+05 -4.384628E+03  5.337703E+03
       189  23  2.530625E+05  1.482171E+03  3.399536E+03  9.533246E+04 -2.646102E+03  1.618465E+04
       189  24  2.536150E+05  3.948534E+02  2.193913E+03  1.070031E+05 -8.972490E+02  1.539117E+04
       189  25 -2.130807E+05 -1.093665E+05 -1.041981E+05  1.028927E+05  2.361302E+04  5.368173E+03
       189  26 -1.059213E+05 -8.472158E+04 -6.863495E+04  9.332188E+04  5.796639E+03  1.619500E+04
       189  27 -1.067096E+03 -5.989941E+04 -4.463180E+04  1.070870E+05 -1.201254E+04  1.537821E+04
       190   1  4.384878E+05  4.426490E+04  3.580669E+04  1.074947E+05 -9.233855E+03 -1.132716E+04
       190   2  3.323601E+05  1.887747E+04  1.605246E+04  9.530832E+04 -1.168275E+04 -5.036872E+03
       190   3  2.266420E+05 -5.947413E+03 -1.984512E+03  1.071989E+05 -1.413251E+04  2.175006E+03
       190   4  2.534094E+05  4.883845E+02  1.931914E+03  1.071672E+05  5.695883E+02 -1.131531E+04
       190   5  2.533480E+05  2.292820E+02  1.798979E+03  9.512875E+04 -3.310572E+02 -5.022817E+03
       190   6  2.534149E+05  2.641443E+02  2.308029E+03  1.071675E+05 -1.232996E+03  2.191343E+03
       190   7  6.836444E+04 -4.329002E+04 -3.194390E+04  1.068398E+05  1.037019E+04 -1.130347E+04
       190   8  1.743423E+05 -1.841918E+04 -1.245426E+04  9.494920E+04  1.101923E+04 -5.008767E+03
       190   9  2.801888E+05  6.475755E+03  6.601176E+03  1.071360E+05  1.166706E+04  2.207678E+03
       190  10  4.384876E+05  4.426474E+04  3.580629E+04  1.074947E+05 -1.866812E-10 -4.896072E-10
       190  11  3.323600E+05  1.887740E+04  1.605216E+04  9.530827E+04  4.787228E-10  1.860443E-09
       190  12  2.266418E+05 -5.947472E+03 -1.984896E+03  1.071989E+05  1.803700E-10  3.625776E-09
       190  13  2.534093E+05  4.882469E+02  1.931672E+03  1.071672E+05  3.405525E-11  3.181035E-09
       190  14  2.533480E+05  2.292549E+02  1.798931E+03  9.512875E+04  2.232903E-12 -7.030424E-09
       190  15  2.534149E+05  2.641387E+02  2.308017E+03  1.071675E+05  9.473653E-10  4.895286E-09
       190  16  6.836429E+04 -4.329018E+04 -3.194434E+04  1.068399E+05  2.632227E-12 -3.000350E-09
       190  17  1.743422E+05 -1.841924E+04 -1.245454E+04  9.494925E+04 -4.634708E-10 -2.109045E-09
       190  18  2.801887E+05  6.475713E+03  6.600911E+03  1.071360E+05  1.279869E-10  2.674507E-09
       190  19  4.384878E+05  4.426490E+04  3.580669E+04  1.074947E+05  9.233855E+03  1.132716E+04
       190  20  3.323601E+05  1.887747E+04  1.605246E+04  9.530832E+04  1.168275E+04  5.036872E+03
       190  21  2.266420E+05 -5.947413E+03 -1.984512E+03  1.071989E+05  1.413251E+04 -2.175006E+03
       190  22  2.534094E+05  4.883845E+02  1.931914E+03  1.071672E+05 -5.695883E+02  1.131531E+04
       190  23  2.533480E+05  2.292820E+02  1.798979E+03  9.512875E+04  3.310572E+02  5.022817E+03
       190  24  2.534149E+05  2.641443E+02  2.308029E+03  1.071675E+05  1.232996E+03 -2.191343E+03
       190  25  6.836444E+04 -4.329002E+04 -3.194390E+04  1.068398E+05 -1.037019E+04  1.130347E+04
       190  26  1.743423E+05 -1.841918E+04 -1.245426E+04  9.494920E+04 -1.101923E+04  5.008767E+03
       190  27  2.801888E+05  6.475755E+03  6.601176E+03  1.071360E+05 -1.166706E+04 -2.207678E+03
       191   1  1.575569E+05 -2.227344E+04 -1.378062E+04  1.073271E+05 -1.461416E+04  6.736839E+03
       191   2  5.154945E+04 -4.694249E+04 -3.070248E+04  9.476054E+04 -1.488247E+04  1.383185E+04
       191   3 -5.426833E+04 -7.080348E+04 -4.726460E+04  1.062560E+05 -1.514857E+04  1.972834E+04
       191   4  2.535024E+05  2.290634E+02  2.811165E+03  1.071642E+05 -1.686218E+03  6.753047E+03
       191   5  2.532304E+05  4.405383E+02  4.560704E+03  9.513253E+04 -3.969681E+03  1.384470E+04
       191   6  2.534879E+05  1.810457E+03  8.068826E+03  1.071623E+05 -6.251010E+03  1.973803E+04
       191   7  3.494573E+05  2.273116E+04  1.940326E+04  1.070013E+05  1.124366E+04  6.769247E+03
       191   8  4.549514E+05  4.782142E+04  3.982288E+04  9.550463E+04  6.946546E+03  1.385755E+04
       191   9  5.613365E+05  7.441917E+04  6.339889E+04  1.080690E+05  2.650837E+03  1.974775E+04
       191  10  1.575566E+05 -2.227354E+04 -1.378110E+04  1.073272E+05  3.642885E-09 -8.647294E-10
       191  11  5.154917E+04 -4.694276E+04 -3.070326E+04  9.476071E+04  1.137509E-09 -2.293785E-09
       191  12 -5.426868E+04 -7.080396E+04 -4.726577E+04  1.062562E+05 -1.717769E-09 -1.482306E-09
       191  13  2.535024E+05  2.290137E+02  2.811074E+03  1.071642E+05 -3.499215E-11  8.895569E-10
       191  14  2.532303E+05  4.403282E+02  4.560314E+03  9.513258E+04  2.526553E-10 -3.334571E-09
       191  15  2.534877E+05  1.810028E+03  8.068020E+03  1.071624E+05  4.156748E-10 -3.117665E-09
       191  16  3.494572E+05  2.273108E+04  1.940294E+04  1.070012E+05 -3.541907E-09 -3.326426E-10
       191  17  4.549513E+05  4.782121E+04  3.982243E+04  9.550456E+04 -9.231534E-10  1.182361E-09
       191  18  5.613364E+05  7.441874E+04  6.339814E+04  1.080689E+05  2.266205E-09  1.448222E-09
       191  19  1.575569E+05 -2.227344E+04 -1.378062E+04  1.073271E+05  1.461416E+04 -6.736839E+03
       191  20  5.154945E+04 -4.694249E+04 -3.070248E+04  9.476054E+04  1.488247E+04 -1.383185E+04
       191  21 -5.426833E+04 -7.080348E+04 -4.726460E+04  1.062560E+05  1.514857E+04 -1.972834E+04
       191  22  2.535024E+05  2.290634E+02  2.811165E+03  1.071642E+05  1.686218E+03 -6.753047E+03
       191  23  2.532304E+05  4.405383E+02  4.560704E+03  9.513253E+04  3.969681E+03 -1.384470E+04
       191  24  2.534879E+05  1.810457E+03  8.068826E+03  1.071623E+05  6.251010E+03 -1.973803E+04
       191  25  3.494573E+05  2.273116E+04  1.940326E+04  1.070013E+05 -1.124366E+04 -6.769247E+03
       191  26  4.549514E+05  4.782142E+04  3.982288E+04  9.550463E+04 -6.946546E+03 -1.385755E+04
       191  27  5.613365E+05  7.441917E+04  6.339889E+04  1.080690E+05 -2.650837E+03 -1.974775E+04
       192   1 -1.227388E+05 -8.793100E+04 -5.794036E+04  1.087101E+05 -1.817508E+04  2.365614E+04
       192   2 -2.298967E+05 -1.074991E+05 -7.648240E+04  8.502681E+04 -3.644363E+03  2.269882E+04
       192   3 -3.347904E+05 -1.103943E+05 -1.003219E+05  8.447509E+04  1.089513E+04  7.237482E+03
       192   4  2.548010E+05  1.263550E+03  1.054005E+04  1.069596E+05 -7.635541E+03  2.366708E+04
       192   5  2.515433E+05  7.921168E+03  1.905147E+04  9.537751E+04 -1.746716E+04  2.268279E+04
       192   6  2.547638E+05  3.547346E+04  3.918022E+04  1.069243E+05 -2.728772E+04  7.200206E+03
       192   7  6.324798E+05  9.045016E+04  7.901522E+04  1.052080E+05  2.910236E+03  2.367795E+04
       192   8  7.332056E+05  1.233278E+05  1.145746E+05  1.057363E+05 -3.130045E+04  2.266631E+04
       192   9  8.446418E+05  1.813190E+05  1.786640E+05  1.293949E+05 -6.550663E+04  7.160188E+03
       192  10 -1.227393E+05 -8.793169E+04 -5.794203E+04  1.087104E+05  3.604679E-09 -2.824198E-09
       192  11 -2.298968E+05 -1.074996E+05 -7.648339E+04  8.502688E+04  4.048418E-10 -1.497308E-09
       192  12 -3.347906E+05 -1.103944E+05 -1.003223E+05  8.447503E+04 -2.997827E-09  9.495595E-11
       192  13  2.548008E+05  1.262932E+03  1.053889E+04  1.069597E+05 -2.592033E-10 -9.757765E-10
       192  14  2.515429E+05  7.920534E+03  1.904993E+04  9.537783E+04  1.428975E-10 -3.006477E-09
       192  15  2.547630E+05  3.547321E+04  3.917873E+04  1.069245E+05 -9.531529E-11 -1.775004E-09
       192  16  6.324796E+05  9.044956E+04  7.901416E+04  1.052079E+05 -3.718608E-09  1.227467E-10
       192  17  7.332044E+05  1.233270E+05  1.145718E+05  1.057369E+05 -7.400635E-11  1.483306E-09
       192  18  8.446372E+05  1.813178E+05  1.786559E+05  1.293953E+05  3.246128E-09  9.150472E-10
       192  19 -1.227388E+05 -8.793100E+04 -5.794036E+04  1.087101E+05  1.817508E+04 -2.365614E+04
       192  20 -2.298967E+05 -1.074991E+05 -7.648240E+04  8.502681E+04  3.644363E+03 -2.269882E+04
       192  21 -3.347904E+05 -1.103943E+05 -1.003219E+05  8.447509E+04 -1.089513E+04 -7.237482E+03
       192  22  2.548010E+05  1.263550E+03  1.054005E+04  1.069596E+05  7.635541E+03 -2.366708E+04
       192  23  2.515433E+05  7.921168E+03  1.905147E+04  9.537751E+04  1.746716E+04 -2.268279E+04
       192  24  2.547638E+05  3.547346E+04  3.918022E+04  1.069243E+05  2.728772E+04 -7.200206E+03
       192  25  6.324798E+05  9.045016E+04  7.901522E+04  1.052080E+05 -2.910236E+03 -2.367795E+04
       192  26  7.332056E+05  1.233278E+05  1.145746E+05  1.057363E+05  3.130045E+04 -2.266631E+04
       192  27  8.446418E+05  1.813190E+05  1.786640E+05  1.293949E+05  6.550663E+04 -7.160188E+03
       193   1 -3.721948E+05 -1.361875E+06 -3.672291E+05  3.467892E+05 -1.365888E+04 -1.231994E+05
       193   2 -2.368522E+05 -1.049199E+06 -2.224841E+05  2.903762E+05 -4.091970E+04 -5.282781E+04
       193   3 -1.501951E+05 -7.575875E+05 -1.357757E+05  3.006471E+05 -3.746689E+04  1.760860E+04
       193   4 -6.777452E+04 -1.335101E+05 -7.483256E+04  3.044447E+05 -1.367220E+04 -5.179638E+04
       193   5 -1.516303E+04 -1.273327E+05 -3.661373E+04  2.711098E+05 -4.091698E+04 -3.289907E+04
       193   6 -2.243559E+03 -1.333252E+05 -2.060630E+04  3.044649E+05 -3.746377E+04 -1.397432E+04
       193   7  2.365463E+05  1.096256E+06  2.174785E+05  2.620158E+05 -1.369530E+04  1.974755E+04
       193   8  2.064751E+05  7.953465E+05  1.492147E+05  2.518140E+05 -4.091550E+04 -1.294124E+04
       193   9  1.456863E+05  4.913176E+05  9.455072E+04  3.082866E+05 -3.746104E+04 -4.558820E+04
       193  10 -3.721991E+05 -1.361891E+06 -3.672580E+05  3.467878E+05 -2.336998E-10  2.765729E-08
       193  11 -2.368547E+05 -1.049203E+06 -2.224925E+05  2.903745E+05 -3.197203E-10  5.041418E-10
       193  12 -1.501967E+05 -7.575882E+05 -1.357790E+05  3.006477E+05  9.431589E-11 -2.963392E-08
       193  13 -6.777544E+04 -1.335130E+05 -7.483795E+04  3.044442E+05 -6.549714E-11 -5.107202E-10
       193  14 -1.516512E+04 -1.273343E+05 -3.661891E+04  2.711087E+05 -4.519431E-10 -2.618860E-10
       193  15 -2.245118E+03 -1.333258E+05 -2.060931E+04  3.044645E+05 -4.182993E-11 -1.010791E-10
       193  16  2.365460E+05  1.096256E+06  2.174774E+05  2.620160E+05  1.081220E-10 -2.914104E-08
       193  17  2.064733E+05  7.953458E+05  1.492113E+05  2.518136E+05  2.152842E-10 -1.070603E-09
       193  18  1.456843E+05  4.913149E+05  9.454418E+04  3.082852E+05 -5.672479E-10  2.999638E-08
       193  19 -3.721948E+05 -1.361875E+06 -3.672291E+05  3.467892E+05  1.365888E+04  1.231994E+05
       193  20 -2.368522E+05 -1.049199E+06 -2.224841E+05  2.903762E+05  4.091970E+04  5.282781E+04
       193  21 -1.501951E+05 -7.575875E+05 -1.357757E+05  3.006471E+05  3.746689E+04 -1.760860E+04
       193  22 -6.777452E+04 -1.335101E+05 -7.483256E+04  3.044447E+05  1.367220E+04  5.179638E+04
       193  23 -1.516303E+04 -1.273327E+05 -3.661373E+04  2.711098E+05  4.091698E+04  3.289907E+04
       193  24 -2.243559E+03 -1.333252E+05 -2.060630E+04  3.044649E+05  3.746377E+04  1.397432E+04
       193  25  2.365463E+05  1.096256E+06  2.174785E+05  2.620158E+05  1.369530E+04 -1.974755E+04
       193  26  2.064751E+05  7.953465E+05  1.492147E+05  2.518140E+05  4.091550E+04  1.294124E+04
       193  27  1.456863E+05  4.913176E+05  9.455072E+04  3.082866E+05  3.746104E+04  4.558820E+04
       194   1 -1.040177E+05 -5.565596E+05 -9.433548E+04  3.062480E+05 -2.580687E+04  1.706802E+04
       194   2 -2.966474E+04 -2.538243E+05 -3.139180E+04  2.708705E+05 -8.688356E+03  2.292165E+04
       194   3  4.194599E+04  4.764592E+04  2.706851E+04  3.040694E+05  8.941917E+03  2.877657E+04
       194   4 -3.191998E+03 -1.308486E+05 -1.609105E+04  3.048790E+05 -2.580719E+04 -1.124858E+04
       194   5 -6.613198E+02 -1.302348E+05 -9.992428E+03  2.705909E+05 -8.689914E+03 -6.257790E+03
       194   6 -7.177906E+02 -1.308237E+05 -7.775512E+03  3.048789E+05  8.938902E+03 -1.268389E+03
       194   7  9.762384E+04  2.950401E+05  6.214894E+04  3.035089E+05 -2.580737E+04 -3.958410E+04
       194   8  2.834174E+04 -6.628473E+03  1.140962E+04  2.703112E+05 -8.691444E+03 -3.544286E+04
       194   9 -4.338299E+04 -3.092607E+05 -4.261766E+04  3.056881E+05  8.935808E+03 -3.130490E+04
       194  10 -1.040185E+05 -5.565601E+05 -9.433728E+04  3.062484E+05  5.167530E-10 -5.603167E-10
       194  11 -2.966497E+04 -2.538249E+05 -3.139293E+04  2.708707E+05  1.140443E-09 -5.828517E-10
       194  12  4.194568E+04  4.764501E+04  2.706680E+04  3.040692E+05  1.609452E-09 -7.804764E-10
       194  13 -3.192747E+03 -1.308489E+05 -1.609254E+04  3.048788E+05 -1.952852E-10 -5.352562E-10
       194  14 -6.614114E+02 -1.302349E+05 -9.992644E+03  2.705908E+05  8.543012E-10 -5.332067E-10
       194  15 -7.178768E+02 -1.308237E+05 -7.775665E+03  3.048789E+05  1.734366E-09  6.794716E-10
       194  16  9.762271E+04  2.950382E+05  6.214475E+04  3.035081E+05 -1.084242E-10  3.329381E-10
       194  17  2.834132E+04 -6.629842E+03  1.140711E+04  2.703109E+05  1.008026E-09  1.613370E-11
       194  18 -4.338334E+04 -3.092618E+05 -4.261965E+04  3.056883E+05  3.909967E-10  1.870656E-09
       194  19 -1.040177E+05 -5.565596E+05 -9.433548E+04  3.062480E+05  2.580687E+04 -1.706802E+04
       194  20 -2.966474E+04 -2.538243E+05 -3.139180E+04  2.708705E+05  8.688356E+03 -2.292165E+04
       194  21  4.194599E+04  4.764592E+04  2.706851E+04  3.040694E+05 -8.941917E+03 -2.877657E+04
       194  22 -3.191998E+03 -1.308486E+05 -1.609105E+04  3.048790E+05  2.580719E+04  1.124858E+04
       194  23 -6.613198E+02 -1.302348E+05 -9.992428E+03  2.705909E+05  8.689914E+03  6.257790E+03
       194  24 -7.177906E+02 -1.308237E+05 -7.775512E+03  3.048789E+05 -8.938902E+03  1.268389E+03
       194  25  9.762384E+04  2.950401E+05  6.214894E+04  3.035089E+05  2.580737E+04  3.958410E+04
       194  26  2.834174E+04 -6.628473E+03  1.140962E+04  2.703112E+05  8.691444E+03  3.544286E+04
       194  27 -4.338299E+04 -3.092607E+05 -4.261766E+04  3.056881E+05 -8.935808E+03  3.130490E+04
       195   1  8.905136E+04  2.457522E+05  6.381927E+04  3.051660E+05  2.086665E+04  3.256617E+04
       195   2  1.594196E+05  5.457950E+05  1.291025E+05  2.666010E+05  2.782182E+04 -4.441604E+03
       195   3  2.284114E+05  8.505516E+05  2.181481E+05  2.951499E+05  9.899379E+03 -4.148476E+04
       195   4 -6.053553E+02 -1.311609E+05 -7.583492E+03  3.045562E+05  2.086512E+04 -3.680469E+01
       195   5 -3.379468E+03 -1.299146E+05 -9.352794E+03  2.709941E+05  2.782350E+04  4.776035E+03
       195   6 -1.478427E+04 -1.312943E+05 -1.639185E+04  3.045529E+05  9.891248E+03  9.571050E+03
       195   7 -9.026980E+04 -5.079347E+05 -7.898857E+04  3.039467E+05  2.086365E+04 -3.262047E+04
       195   8 -1.662071E+05 -8.051905E+05 -1.478321E+05  2.753822E+05  2.782531E+04  1.398383E+04
       195   9 -2.580480E+05 -1.112251E+06 -2.509899E+05  3.139408E+05  9.884670E+03  6.054654E+04
       195  10  8.905060E+04  2.457509E+05  6.381646E+04  3.051654E+05  1.281358E-09 -4.137872E-10
       195  11  1.594188E+05  5.457948E+05  1.291010E+05  2.666011E+05  6.154508E-10  7.257360E-10
       195  12  2.284109E+05  8.505498E+05  2.181447E+05  2.951502E+05  1.197593E-10 -1.015832E-09
       195  13 -6.058228E+02 -1.311610E+05 -7.584310E+03  3.045562E+05  8.623637E-10  1.097466E-11
       195  14 -3.380305E+03 -1.299148E+05 -9.354291E+03  2.709940E+05  4.105179E-10 -5.381574E-10
       195  15 -1.478440E+04 -1.312944E+05 -1.639220E+04  3.045528E+05  2.117288E-10 -8.238187E-10
       195  16 -9.027055E+04 -5.079360E+05 -7.899139E+04  3.039473E+05 -8.395973E-12  1.387008E-10
       195  17 -1.662080E+05 -8.051910E+05 -1.478339E+05  2.753819E+05  4.893608E-10  7.960624E-10
       195  18 -2.580491E+05 -1.112255E+06 -2.509970E+05  3.139403E+05 -3.247548E-11  2.123930E-10
       195  19  8.905136E+04  2.457522E+05  6.381927E+04  3.051660E+05 -2.086665E+04 -3.256617E+04
       195  20  1.594196E+05  5.457950E+05  1.291025E+05  2.666010E+05 -2.782182E+04  4.441604E+03
       195  21  2.284114E+05  8.505516E+05  2.181481E+05  2.951499E+05 -9.899379E+03  4.148476E+04
       195  22 -6.053553E+02 -1.311609E+05 -7.583492E+03  3.045562E+05 -2.086512E+04  3.680469E+01
       195  23 -3.379468E+03 -1.299146E+05 -9.352794E+03  2.709941E+05 -2.782350E+04 -4.776035E+03
       195  24 -1.478427E+04 -1.312943E+05 -1.639185E+04  3.045529E+05 -9.891248E+03 -9.571050E+03
       195  25 -9.026980E+04 -5.079347E+05 -7.898857E+04  3.039467E+05 -2.086365E+04  3.262047E+04
       195  26 -1.662071E+05 -8.051905E+05 -1.478321E+05  2.753822E+05 -2.782531E+04 -1.398383E+04
       195  27 -2.580480E+05 -1.112251E+06 -2.509899E+05  3.139408E+05 -9.884670E+03 -6.054654E+04
       196   1  2.462682E+05  4.374592E+04  4.234069E+04  5.312603E+04  9.968987E+03 -1.715741E+03
       196   2  1.938887E+05  2.879180E+04  2.507634E+04  4.684753E+04  2.200185E+03 -4.848311E+03
       196   3  1.430516E+05  1.603203E+04  1.341415E+04  5.202406E+04 -5.571186E+03 -3.643602E+03
       196   4  7.623634E+04  1.620969E+03  1.726185E+03  5.204546E+04  1.071551E+03 -1.723473E+03
       196   5  7.610124E+04  4.094850E+02  9.388557E+02  4.631854E+04  5.919150E+02 -4.849801E+03
       196   6  7.624033E+04  1.273784E+02  6.931033E+02  5.204673E+04  1.089433E+02 -3.638485E+03
       196   7 -9.376889E+04 -4.050602E+04 -3.889006E+04  5.096517E+04 -7.823461E+03 -1.731175E+03
       196   8 -4.167306E+04 -2.797370E+04 -2.319936E+04  4.578964E+04 -1.016056E+03 -4.851288E+03
       196   9  9.433486E+03 -1.577752E+04 -1.202803E+04  5.206941E+04  5.788476E+03 -3.633368E+03
       196  10  2.462681E+05  4.374589E+04  4.234050E+04  5.312605E+04  1.820709E-09  7.498228E-10
       196  11  1.938887E+05  2.879177E+04  2.507629E+04  4.684754E+04  1.594508E-09 -3.138130E-09
       196  12  1.430515E+05  1.603201E+04  1.341407E+04  5.202404E+04  1.032596E-10 -1.131398E-09
       196  13  7.623633E+04  1.620965E+03  1.726177E+03  5.204546E+04 -2.893601E-10  2.024318E-09
       196  14  7.610124E+04  4.094596E+02  9.388109E+02  4.631854E+04  3.093387E-10 -7.019505E-10
       196  15  7.624033E+04  1.273642E+02  6.930784E+02  5.204673E+04  4.534424E-10  3.648775E-10
       196  16 -9.376896E+04 -4.050604E+04 -3.889018E+04  5.096516E+04 -1.792776E-09  3.089616E-10
       196  17 -4.167307E+04 -2.797373E+04 -2.319941E+04  4.578964E+04 -1.686629E-09 -2.604875E-09
       196  18  9.433446E+03 -1.577754E+04 -1.202811E+04  5.206943E+04 -6.487627E-11 -2.260713E-09
       196  19  2.462682E+05  4.374592E+04  4.234069E+04  5.312603E+04 -9.968987E+03  1.715741E+03
       196  20  1.938887E+05  2.879180E+04  2.507634E+04  4.684753E+04 -2.200185E+03  4.848311E+03
       196  21  1.430516E+05  1.603203E+04  1.341415E+04  5.202406E+04  5.571186E+03  3.643602E+03
       196  22  7.623634E+04  1.620969E+03  1.726185E+03  5.204546E+04 -1.071551E+03  1.723473E+03
       196  23  7.610124E+04  4.094850E+02  9.388557E+02  4.631854E+04 -5.919150E+02  4.849801E+03
       196  24  7.624033E+04  1.273784E+02  6.931033E+02  5.204673E+04 -1.089433E+02  3.638485E+03
       196  25 -9.376889E+04 -4.050602E+04 -3.889006E+04  5.096517E+04  7.823461E+03  1.731175E+03
       196  26 -4.167306E+04 -2.797370E+04 -2.319936E+04  4.578964E+04  1.016056E+03  4.851288E+03
       196  27  9.433486E+03 -1.577752E+04 -1.202803E+04  5.206941E+04 -5.788476E+03  3.633368E+03
       197   1  1.091529E+05  8.041745E+03  7.177183E+03  5.218867E+04 -5.195631E+03 -1.590200E+03
       197   2  5.750957E+04 -4.225672E+03 -2.067975E+03  4.628054E+04 -6.120093E+03  1.659387E+03
       197   3  6.012471E+03 -1.630176E+04 -1.067028E+04  5.210505E+04 -7.044692E+03  5.228963E+03
       197   4  7.619140E+04  1.488975E+02  6.716989E+02  5.210823E+04 -3.199367E+00 -1.585471E+03
       197   5  7.616552E+04  7.365875E+01  7.745709E+02  4.624194E+04 -3.902163E+02  1.664561E+03
       197   6  7.619075E+04  9.675600E+01  1.147261E+03  5.210827E+04 -7.774345E+02  5.234582E+03
       197   7  4.323095E+04 -7.744001E+03 -5.833737E+03  5.202780E+04  5.188962E+03 -1.580744E+03
       197   8  9.482189E+04  4.372991E+03  3.617233E+03  4.620334E+04  5.339826E+03  1.669735E+03
       197   9  1.463740E+05  1.649503E+04  1.296479E+04  5.211149E+04  5.490508E+03  5.240201E+03
       197  10  1.091529E+05  8.041735E+03  7.177128E+03  5.218866E+04 -6.095304E-09 -6.114139E-10
       197  11  5.750953E+04 -4.225685E+03 -2.068051E+03  4.628055E+04 -7.852260E-10 -1.038418E-09
       197  12  6.012410E+03 -1.630180E+04 -1.067042E+04  5.210508E+04  3.835392E-09 -4.069379E-10
       197  13  7.619140E+04  1.488948E+02  6.716942E+02  5.210823E+04 -2.266383E-10  7.418670E-10
       197  14  7.616552E+04  7.365573E+01  7.745654E+02  4.624194E+04  3.117107E-10  4.864314E-10
       197  15  7.619074E+04  9.672641E+01  1.147208E+03  5.210827E+04  4.729279E-10 -1.472901E-09
       197  16  4.323092E+04 -7.744011E+03 -5.833792E+03  5.202781E+04  6.205062E-09  2.075539E-09
       197  17  9.482186E+04  4.372980E+03  3.617174E+03  4.620333E+04  6.785009E-10 -1.786801E-09
       197  18  1.463739E+05  1.649500E+04  1.296468E+04  5.211147E+04 -3.657128E-09  1.294880E-09
       197  19  1.091529E+05  8.041745E+03  7.177183E+03  5.218867E+04  5.195631E+03  1.590200E+03
       197  20  5.750957E+04 -4.225672E+03 -2.067975E+03  4.628054E+04  6.120093E+03 -1.659387E+03
       197  21  6.012471E+03 -1.630176E+04 -1.067028E+04  5.210505E+04  7.044692E+03 -5.228963E+03
       197  22  7.619140E+04  1.488975E+02  6.716989E+02  5.210823E+04  3.199367E+00  1.585471E+03
       197  23  7.616552E+04  7.365875E+01  7.745709E+02  4.624194E+04  3.902163E+02 -1.664561E+03
       197  24  7.619075E+04  9.675600E+01  1.147261E+03  5.210827E+04  7.774345E+02 -5.234582E+03
       197  25  4.323095E+04 -7.744001E+03 -5.833737E+03  5.202780E+04 -5.188962E+03  1.580744E+03
       197  26  9.482189E+04  4.372991E+03  3.617233E+03  4.620334E+04 -5.339826E+03 -1.669735E+03
       197  27  1.463740E+05  1.649503E+04  1.296479E+04  5.211149E+04 -5.490508E+03 -5.240201E+03
       198   1 -2.761540E+04 -2.425756E+04 -1.635365E+04  5.217800E+04 -7.314923E+03  7.450739E+03
       198   2 -7.923253E+04 -3.625584E+04 -2.449946E+04  4.604558E+04 -7.346830E+03  1.084974E+04
       198   3 -1.307585E+05 -4.783658E+04 -3.252584E+04  5.162337E+04 -7.377829E+03  1.353614E+04
       198   4  7.624411E+04  7.517411E+01  1.454032E+03  5.210336E+04 -1.006684E+03  7.456280E+03
       198   5  7.609327E+04  2.014607E+02  2.458362E+03  4.624797E+04 -2.236096E+03  1.085390E+04
       198   6  7.623875E+04  9.532007E+02  4.413500E+03  5.210258E+04 -3.464604E+03  1.353903E+04
       198   7  1.801143E+05  2.440735E+04  1.926150E+04  5.202870E+04  5.302578E+03  7.461818E+03
       198   8  2.314428E+05  3.665748E+04  2.941544E+04  4.645040E+04  2.875877E+03  1.085807E+04
       198   9  2.832778E+05  4.974062E+04  4.135127E+04  5.258195E+04  4.498887E+02  1.354192E+04
       198  10 -2.761547E+04 -2.425763E+04 -1.635386E+04  5.217805E+04  1.591205E-09 -1.023928E-09
       198  11 -7.923262E+04 -3.625598E+04 -2.449978E+04  4.604564E+04  5.341614E-10  2.163478E-09
       198  12 -1.307586E+05 -4.783679E+04 -3.252629E+04  5.162345E+04 -7.147640E-10 -5.139306E-10
       198  13  7.624409E+04  7.511413E+01  1.453926E+03  5.210336E+04 -2.694092E-10 -4.420335E-09
       198  14  7.609323E+04  2.013328E+02  2.458131E+03  4.624798E+04  1.201386E-10  1.663129E-09
       198  15  7.623869E+04  9.530006E+02  4.413133E+03  5.210262E+04  4.000748E-10  1.083484E-10
       198  16  1.801143E+05  2.440729E+04  1.926135E+04  5.202866E+04 -1.424636E-09 -8.364985E-10
       198  17  2.314427E+05  3.665735E+04  2.941520E+04  4.645037E+04 -7.657088E-10 -1.881590E-09
       198  18  2.832778E+05  4.974042E+04  4.135093E+04  5.258194E+04  9.204834E-10  8.666170E-10
       198  19 -2.761540E+04 -2.425756E+04 -1.635365E+04  5.217800E+04  7.314923E+03 -7.450739E+03
       198  20 -7.923253E+04 -3.625584E+04 -2.449946E+04  4.604558E+04  7.346830E+03 -1.084974E+04
       198  21 -1.307585E+05 -4.783658E+04 -3.252584E+04  5.162337E+04  7.377829E+03 -1.353614E+04
       198  22  7.624411E+04  7.517411E+01  1.454032E+03  5.210336E+04  1.006684E+03 -7.456280E+03
       198  23  7.609327E+04  2.014607E+02  2.458362E+03  4.624797E+04  2.236096E+03 -1.085390E+04
       198  24  7.623875E+04  9.532007E+02  4.413500E+03  5.210258E+04  3.464604E+03 -1.353903E+04
       198  25  1.801143E+05  2.440735E+04  1.926150E+04  5.202870E+04 -5.302578E+03 -7.461818E+03
       198  26  2.314428E+05  3.665748E+04  2.941544E+04  4.645040E+04 -2.875877E+03 -1.085807E+04
       198  27  2.832778E+05  4.974062E+04  4.135127E+04  5.258195E+04 -4.498887E+02 -1.354192E+04
       199   1 -1.640804E+05 -5.624137E+04 -3.765036E+04  5.297798E+04 -9.086871E+03  1.538122E+04
       199   2 -2.162732E+05 -6.546379E+04 -4.697748E+04  4.073508E+04 -3.974211E+02  1.408917E+04
       199   3 -2.673412E+05 -6.563836E+04 -5.970177E+04  3.966035E+04  8.296239E+03  4.402778E+03
       199   4  7.696300E+04  6.546158E+02  5.781966E+03  5.198389E+04 -4.220916E+03  1.538468E+04
       199   5  7.517368E+04  4.332751E+03  1.048223E+04  4.639308E+04 -9.631003E+03  1.408164E+04
       199   6  7.695264E+04  1.950404E+04  2.157629E+04  5.196970E+04 -1.503600E+04  4.386246E+03
       199   7  3.180630E+05  5.754737E+04  4.921212E+04  5.098939E+04  6.468760E+02  1.538812E+04
       199   8  3.667022E+05  7.412430E+04  6.793813E+04  5.205378E+04 -1.886883E+04  1.407395E+04
       199   9  4.213570E+05  1.046388E+05  1.028483E+05  6.428588E+04 -3.838112E+04  4.368793E+03
       199  10 -1.640805E+05 -5.624164E+04 -3.765096E+04  5.297810E+04  1.911424E-09  1.504308E-10
       199  11 -2.162733E+05 -6.546400E+04 -4.697786E+04  4.073508E+04  1.795703E-09  2.541946E-10
       199  12 -2.673413E+05 -6.563840E+04 -5.970194E+04  3.966033E+04  6.807904E-10  8.846221E-10
       199  13  7.696292E+04  6.543568E+02  5.781488E+03  5.198394E+04  2.083940E-10  1.490031E-10
       199  14  7.517353E+04  4.332513E+03  1.048168E+04  4.639319E+04  2.334238E-11  1.466856E-09
       199  15  7.695239E+04  1.950396E+04  2.157583E+04  5.196975E+04  3.513557E-10  3.840220E-10
       199  16  3.180630E+05  5.754712E+04  4.921168E+04  5.098938E+04 -1.805355E-09  1.255762E-09
       199  17  3.667018E+05  7.412399E+04  6.793708E+04  5.205400E+04 -1.615090E-09  1.182863E-09
       199  18  4.213554E+05  1.046384E+05  1.028455E+05  6.428602E+04 -1.137335E-09  4.408130E-10
       199  19 -1.640804E+05 -5.624137E+04 -3.765036E+04  5.297798E+04  9.086871E+03 -1.538122E+04
       199  20 -2.162732E+05 -6.546379E+04 -4.697748E+04  4.073508E+04  3.974211E+02 -1.408917E+04
       199  21 -2.673412E+05 -6.563836E+04 -5.970177E+04  3.966035E+04 -8.296239E+03 -4.402778E+03
       199  22  7.696300E+04  6.546158E+02  5.781966E+03  5.198389E+04  4.220916E+03 -1.538468E+04
       199  23  7.517368E+04  4.332751E+03  1.048223E+04  4.639308E+04  9.631003E+03 -1.408164E+04
       199  24  7.695264E+04  1.950404E+04  2.157629E+04  5.196970E+04  1.503600E+04 -4.386246E+03
       199  25  3.180630E+05  5.754737E+04  4.921212E+04  5.098939E+04 -6.468760E+02 -1.538812E+04
       199  26  3.667022E+05  7.412430E+04  6.793813E+04  5.205378E+04  1.886883E+04 -1.407395E+04
       199  27  4.213570E+05  1.046388E+05  1.028483E+05  6.428588E+04  3.838112E+04 -4.368793E+03
       200   1 -2.232877E+05 -8.783341E+05 -2.198514E+05  2.097360E+05 -8.329717E+03 -7.196931E+04
       200   2 -1.437152E+05 -6.873186E+05 -1.338118E+05  1.766153E+05 -2.496615E+04 -3.002136E+04
       200   3 -9.152358E+04 -5.084852E+05 -8.194463E+04  1.843080E+05 -2.284354E+04  1.195494E+04
       200   4 -3.733163E+04 -1.277655E+05 -4.123446E+04  1.863231E+05 -8.345095E+03 -2.835177E+04
       200   5 -8.361160E+03 -1.243624E+05 -2.031891E+04  1.659230E+05 -2.496801E+04 -1.787144E+04
       200   6 -1.288329E+03 -1.276958E+05 -1.169374E+04  1.863382E+05 -2.283796E+04 -7.376531E+03
       200   7  1.485868E+05  6.233258E+05  1.373505E+05  1.628818E+05 -8.363763E+03  1.531832E+04
       200   8  1.269737E+05  4.388967E+05  9.315832E+04  1.552207E+05 -2.497029E+04 -5.710699E+03
       200   9  8.893886E+04  2.532352E+05  5.855253E+04  1.883696E+05 -2.283251E+04 -2.671956E+04
       200  10 -2.232891E+05 -8.783397E+05 -2.198613E+05  2.097355E+05 -4.895567E-10 -5.695714E-09
       200  11 -1.437161E+05 -6.873198E+05 -1.338147E+05  1.766147E+05 -1.168527E-09  1.116435E-08
       200  12 -9.152417E+04 -5.084855E+05 -8.194588E+04  1.843083E+05 -9.426267E-10  2.313849E-08
       200  13 -3.733192E+04 -1.277664E+05 -4.123610E+04  1.863229E+05 -3.097323E-10  1.598927E-09
       200  14 -8.361915E+03 -1.243629E+05 -2.032068E+04  1.659226E+05 -1.398164E-09 -3.592970E-09
       200  15 -1.288904E+03 -1.276960E+05 -1.169482E+04  1.863380E+05 -9.267401E-10 -9.775903E-11
       200  16  1.485867E+05  6.233255E+05  1.373499E+05  1.628819E+05 -5.035744E-10  6.512259E-09
       200  17  1.269731E+05  4.388965E+05  9.315709E+04  1.552206E+05 -1.267601E-09 -1.398267E-08
       200  18  8.893811E+04  2.532343E+05  5.855021E+04  1.883691E+05 -1.314866E-09 -2.362335E-08
       200  19 -2.232877E+05 -8.783341E+05 -2.198514E+05  2.097360E+05  8.329717E+03  7.196931E+04
       200  20 -1.437152E+05 -6.873186E+05 -1.338118E+05  1.766153E+05  2.496615E+04  3.002136E+04
       200  21 -9.152358E+04 -5.084852E+05 -8.194463E+04  1.843080E+05  2.284354E+04 -1.195494E+04
       200  22 -3.733163E+04 -1.277655E+05 -4.123446E+04  1.863231E+05  8.345095E+03  2.835177E+04
       200  23 -8.361160E+03 -1.243624E+05 -2.031891E+04  1.659230E+05  2.496801E+04  1.787144E+04
       200  24 -1.288329E+03 -1.276958E+05 -1.169374E+04  1.863382E+05  2.283796E+04  7.376531E+03
       200  25  1.485868E+05  6.233258E+05  1.373505E+05  1.628818E+05  8.363763E+03 -1.531832E+04
       200  26  1.269737E+05  4.388967E+05  9.315832E+04  1.552207E+05  2.497029E+04  5.710699E+03
       200  27  8.893886E+04  2.532352E+05  5.855253E+04  1.883696E+05  2.283251E+04  2.671956E+04
       201   1 -6.321442E+04 -3.856236E+05 -5.699095E+04  1.874352E+05 -1.570818E+04  1.153523E+04
       201   2 -1.792344E+04 -2.003425E+05 -1.923206E+04  1.657385E+05 -5.231972E+03  1.522911E+04
       201   3  2.562441E+04 -1.588522E+04  1.569748E+04  1.860049E+05  5.552374E+03  1.892359E+04
       201   4 -1.812807E+03 -1.263545E+05 -9.332273E+03  1.865904E+05 -1.570434E+04 -5.801475E+03
       201   5 -4.697234E+02 -1.259665E+05 -6.354085E+03  1.656089E+05 -5.228466E+03 -2.626494E+03
       201   6 -7.777660E+02 -1.263453E+05 -5.844135E+03  1.865906E+05  5.555465E+03  5.480429E+02
       201   7  5.958515E+04  1.329805E+05  3.832477E+04  1.857451E+05 -1.570044E+04 -2.314523E+04
       201   8  1.698387E+04 -5.158448E+04  6.524899E+03  1.654793E+05 -5.224952E+03 -2.048417E+04
       201   9 -2.718049E+04 -2.367929E+05 -2.738507E+04  1.871761E+05  5.558521E+03 -1.782430E+04
       201  10 -6.321472E+04 -3.856238E+05 -5.699166E+04  1.874354E+05 -8.090788E-10 -2.381634E-08
       201  11 -1.792353E+04 -2.003427E+05 -1.923255E+04  1.657386E+05 -3.237489E-10 -8.260611E-09
       201  12  2.562428E+04 -1.588561E+04  1.569675E+04  1.860049E+05  4.189358E-10  4.632095E-09
       201  13 -1.813081E+03 -1.263546E+05 -9.332800E+03  1.865903E+05 -9.440414E-10  1.044516E-11
       201  14 -4.697546E+02 -1.259665E+05 -6.354150E+03  1.656089E+05 -4.704385E-10 -3.419720E-09
       201  15 -7.777993E+02 -1.263453E+05 -5.844194E+03  1.865906E+05  7.324385E-10  1.404116E-10
       201  16  5.958474E+04  1.329799E+05  3.832330E+04  1.857448E+05 -9.336388E-10  2.355837E-08
       201  17  1.698373E+04 -5.158494E+04  6.524060E+03  1.654792E+05 -5.901457E-10  7.359517E-09
       201  18 -2.718061E+04 -2.367933E+05 -2.738572E+04  1.871762E+05  9.419698E-10 -5.512564E-09
       201  19 -6.321442E+04 -3.856236E+05 -5.699095E+04  1.874352E+05  1.570818E+04 -1.153523E+04
       201  20 -1.792344E+04 -2.003425E+05 -1.923206E+04  1.657385E+05  5.231972E+03 -1.522911E+04
       201  21  2.562441E+04 -1.588522E+04  1.569748E+04  1.860049E+05 -5.552374E+03 -1.892359E+04
       201  22 -1.812807E+03 -1.263545E+05 -9.332273E+03  1.865904E+05  1.570434E+04  5.801475E+03
       201  23 -4.697234E+02 -1.259665E+05 -6.354085E+03  1.656089E+05  5.228466E+03  2.626494E+03
       201  24 -7.777660E+02 -1.263453E+05 -5.844135E+03  1.865906E+05 -5.555465E+03 -5.480429E+02
       201  25  5.958515E+04  1.329805E+05  3.832477E+04  1.857451E+05  1.570044E+04  2.314523E+04
       201  26  1.698387E+04 -5.158448E+04  6.524899E+03  1.654793E+05  5.224952E+03  2.048417E+04
       201  27 -2.718049E+04 -2.367929E+05 -2.738507E+04  1.871761E+05 -5.558521E+03  1.782430E+04
       202   1  5.455353E+04  1.050923E+05  3.768416E+04  1.871002E+05  1.284770E+04  2.143968E+04
       202   2  9.649958E+04  2.892315E+05  7.608321E+04  1.614231E+05  1.709135E+04  3.792824E+02
       202   3  1.340296E+05  4.751223E+05  1.271006E+05  1.768121E+05  6.079669E+03 -2.069724E+04
       202   4 -6.053272E+02 -1.267893E+05 -6.230811E+03  1.863928E+05  1.285169E+04  1.496339E+03
       202   5 -3.424362E+03 -1.254499E+05 -8.883590E+03  1.658555E+05  1.709069E+04  6.072728E+03
       202   6 -1.510950E+04 -1.268400E+05 -1.671921E+04  1.863875E+05  6.069332E+03  1.063888E+04
       202   7 -5.576711E+04 -3.586181E+05 -5.014668E+04  1.856857E+05  1.285573E+04 -1.843973E+04
       202   8 -1.033590E+05 -5.399678E+05 -9.385940E+04  1.702849E+05  1.709011E+04  1.176244E+04
       202   9 -1.642739E+05 -7.284678E+05 -1.605608E+05  1.959535E+05  6.059959E+03  4.194477E+04
       202  10  5.455323E+04  1.050917E+05  3.768299E+04  1.871000E+05  5.838092E-10 -1.831656E-09
       202  11  9.649926E+04  2.892314E+05  7.608266E+04  1.614231E+05  2.619193E-10  2.062534E-09
       202  12  1.340294E+05  4.751218E+05  1.270997E+05  1.768122E+05 -5.435266E-11  1.803247E-10
       202  13 -6.055051E+02 -1.267894E+05 -6.231126E+03  1.863928E+05  4.382104E-10  2.146247E-09
       202  14 -3.424685E+03 -1.254500E+05 -8.884208E+03  1.658554E+05  1.793315E-11 -2.862658E-09
       202  15 -1.510957E+04 -1.268401E+05 -1.671949E+04  1.863874E+05 -7.241157E-11  7.304895E-10
       202  16 -5.576738E+04 -3.586186E+05 -5.014763E+04  1.856859E+05  6.926987E-10  1.237035E-09
       202  17 -1.033594E+05 -5.399681E+05 -9.386021E+04  1.702848E+05  5.083513E-10 -4.014504E-09
       202  18 -1.642744E+05 -7.284697E+05 -1.605642E+05  1.959533E+05  1.760416E-10 -5.134600E-10
       202  19  5.455353E+04  1.050923E+05  3.768416E+04  1.871002E+05 -1.284770E+04 -2.143968E+04
       202  20  9.649958E+04  2.892315E+05  7.608321E+04  1.614231E+05 -1.709135E+04 -3.792824E+02
       202  21  1.340296E+05  4.751223E+05  1.271006E+05  1.768121E+05 -6.079669E+03  2.069724E+04
       202  22 -6.053272E+02 -1.267893E+05 -6.230811E+03  1.863928E+05 -1.285169E+04 -1.496339E+03
       202  23 -3.424362E+03 -1.254499E+05 -8.883590E+03  1.658555E+05 -1.709069E+04 -6.072728E+03
       202  24 -1.510950E+04 -1.268400E+05 -1.671921E+04  1.863875E+05 -6.069332E+03 -1.063888E+04
       202  25 -5.576711E+04 -3.586181E+05 -5.014668E+04  1.856857E+05 -1.285573E+04  1.843973E+04
       202  26 -1.033590E+05 -5.399678E+05 -9.385940E+04  1.702849E+05 -1.709011E+04 -1.176244E+04
       202  27 -1.642739E+05 -7.284678E+05 -1.605608E+05  1.959535E+05 -6.059959E+03 -4.194477E+04
       203   1 -1.027930E+05 -4.650684E+05 -1.016002E+05  9.253058E+04 -3.769434E+03 -3.471085E+04
       203   2 -6.556419E+04 -3.825571E+05 -6.208607E+04  7.703318E+04 -1.139251E+04 -1.506439E+04
       203   3 -4.241503E+04 -3.060886E+05 -3.888636E+04  7.905621E+04 -1.066072E+04  4.590129E+03
       203   4 -1.977321E+04 -1.298554E+05 -2.190456E+04  8.010514E+04 -3.777698E+03 -1.491537E+04
       203   5 -4.403794E+03 -1.280427E+05 -1.090422E+04  7.134893E+04 -1.139443E+04 -9.293969E+03
       203   6 -6.746731E+02 -1.298411E+05 -6.471726E+03  8.011374E+04 -1.065743E+04 -3.667424E+03
       203   7  6.323931E+04  2.054620E+05  5.778476E+04  6.767296E+04 -3.786754E+03  4.890758E+03
       203   8  5.675274E+04  1.265336E+05  4.027446E+04  6.566231E+04 -1.139645E+04 -3.521229E+03
       203   9  4.106396E+04  4.643674E+04  2.594189E+04  8.117157E+04 -1.065417E+04 -1.192726E+04
       203  10 -1.027934E+05 -4.650697E+05 -1.016025E+05  9.253047E+04  1.073100E-11  9.250720E-10
       203  11 -6.556439E+04 -3.825574E+05 -6.208674E+04  7.703304E+04  4.901723E-10  5.056400E-10
       203  12 -4.241516E+04 -3.060887E+05 -3.888661E+04  7.905625E+04  2.343605E-10 -1.405963E-09
       203  13 -1.977329E+04 -1.298556E+05 -2.190500E+04  8.010509E+04  5.460234E-10  1.434534E-11
       203  14 -4.403956E+03 -1.280428E+05 -1.090463E+04  7.134885E+04  6.492982E-10 -2.158986E-09
       203  15 -6.747987E+02 -1.298411E+05 -6.471964E+03  8.011370E+04  1.196490E-10  8.979695E-12
       203  16  6.323929E+04  2.054620E+05  5.778469E+04  6.767297E+04  7.877664E-11 -1.756739E-09
       203  17  5.675260E+04  1.265335E+05  4.027419E+04  6.566228E+04  7.456725E-10  7.213573E-10
       203  18  4.106380E+04  4.643656E+04  2.594141E+04  8.117147E+04 -1.529522E-10  3.724086E-10
       203  19 -1.027930E+05 -4.650684E+05 -1.016002E+05  9.253058E+04  3.769434E+03  3.471085E+04
       203  20 -6.556419E+04 -3.825571E+05 -6.208607E+04  7.703318E+04  1.139251E+04  1.506439E+04
       203  21 -4.241503E+04 -3.060886E+05 -3.888636E+04  7.905621E+04  1.066072E+04 -4.590129E+03
       203  22 -1.977321E+04 -1.298554E+05 -2.190456E+04  8.010514E+04  3.777698E+03  1.491537E+04
       203  23 -4.403794E+03 -1.280427E+05 -1.090422E+04  7.134893E+04  1.139443E+04  9.293969E+03
       203  24 -6.746731E+02 -1.298411E+05 -6.471726E+03  8.011374E+04  1.065743E+04  3.667424E+03
       203  25  6.323931E+04  2.054620E+05  5.778476E+04  6.767296E+04  3.786754E+03 -4.890758E+03
       203  26  5.675274E+04  1.265336E+05  4.027446E+04  6.566231E+04  1.139645E+04  3.521229E+03
       203  27  4.106396E+04  4.643674E+04  2.594189E+04  8.117157E+04  1.065417E+04  1.192726E+04
       204   1 -3.029716E+04 -2.531459E+05 -2.800146E+04  8.072133E+04 -7.608247E+03  4.588074E+03
       204   2 -1.073261E+04 -1.734195E+05 -1.173435E+04  7.125539E+04 -3.132509E+03  6.908893E+03
       204   3  7.739345E+03 -9.423914E+04  2.753764E+03  7.982411E+04  1.527733E+03  9.229927E+03
       204   4 -9.539187E+02 -1.291464E+05 -5.314305E+03  8.022651E+04 -7.605540E+03 -2.775783E+03
       204   5 -2.845028E+02 -1.288962E+05 -4.025151E+03  7.120925E+04 -3.129809E+03 -7.650200E+02
       204   6 -6.534661E+02 -1.291441E+05 -4.299467E+03  8.022661E+04  1.530412E+03  1.245677E+03
       204   7  2.838849E+04 -5.131915E+03  1.737243E+04  7.973159E+04 -7.602822E+03 -1.014107E+04
       204   8  1.016353E+04 -8.437069E+04  3.684202E+03  7.116310E+04 -3.127107E+03 -8.439467E+03
       204   9 -9.046318E+03 -1.640477E+05 -1.135252E+04  8.062909E+04  1.533081E+03 -6.738133E+03
       204  10 -3.029723E+04 -2.531460E+05 -2.800161E+04  8.072136E+04  9.844842E-11 -2.576171E-09
       204  11 -1.073264E+04 -1.734196E+05 -1.173446E+04  7.125541E+04  5.427966E-11 -1.996142E-10
       204  12  7.739320E+03 -9.423923E+04  2.753599E+03  7.982410E+04  3.970099E-10  1.452103E-09
       204  13 -9.539829E+02 -1.291465E+05 -5.314428E+03  8.022649E+04  3.013866E-11 -1.074859E-09
       204  14 -2.845135E+02 -1.288962E+05 -4.025171E+03  7.120924E+04 -3.584614E-10 -2.663451E-09
       204  15 -6.534691E+02 -1.291441E+05 -4.299474E+03  8.022661E+04 -2.024093E-10 -2.012060E-09
       204  16  2.838840E+04 -5.132041E+03  1.737213E+04  7.973153E+04 -3.108573E-10 -7.996487E-11
       204  17  1.016350E+04 -8.437077E+04  3.684049E+03  7.116307E+04 -6.606000E-10  8.140830E-10
       204  18 -9.046333E+03 -1.640478E+05 -1.135261E+04  8.062909E+04 -3.812693E-10 -1.234115E-09
       204  19 -3.029716E+04 -2.531459E+05 -2.800146E+04  8.072133E+04  7.608247E+03 -4.588074E+03
       204  20 -1.073261E+04 -1.734195E+05 -1.173435E+04  7.125539E+04  3.132509E+03 -6.908893E+03
       204  21  7.739345E+03 -9.423914E+04  2.753764E+03  7.982411E+04 -1.527733E+03 -9.229927E+03
       204  22 -9.539187E+02 -1.291464E+05 -5.314305E+03  8.022651E+04  7.605540E+03  2.775783E+03
       204  23 -2.845028E+02 -1.288962E+05 -4.025151E+03  7.120925E+04  3.129809E+03  7.650200E+02
       204  24 -6.534661E+02 -1.291441E+05 -4.299467E+03  8.022661E+04 -1.530412E+03 -1.245677E+03
       204  25  2.838849E+04 -5.131915E+03  1.737243E+04  7.973159E+04  7.602822E+03  1.014107E+04
       204  26  1.016353E+04 -8.437069E+04  3.684202E+03  7.116310E+04  3.127107E+03  8.439467E+03
       204  27 -9.046318E+03 -1.640477E+05 -1.135252E+04  8.062909E+04 -1.533081E+03  6.738133E+03
       205   1  2.026828E+04 -4.250695E+04  1.176843E+04  8.083558E+04  4.676714E+03  1.057624E+04
       205   2  3.698995E+04  3.729782E+04  2.653350E+04  6.746162E+04  6.678888E+03  3.959751E+03
       205   3  4.769046E+04  1.164908E+05  4.410606E+04  7.175696E+04  2.418167E+03 -2.660876E+03
       205   4 -4.769859E+02 -1.295777E+05 -4.882289E+03  8.014640E+04  4.679693E+03  1.954986E+03
       205   5 -2.968941E+03 -1.283602E+05 -7.577211E+03  7.130866E+04  6.678333E+03  5.860045E+03
       205   6 -1.330930E+04 -1.295870E+05 -1.477186E+04  8.014102E+04  2.413215E+03  9.761635E+03
       205   7 -2.122266E+04 -2.166409E+05 -2.153307E+04  7.945732E+04  4.682690E+03 -6.665090E+03
       205   8 -4.292951E+04 -2.939922E+05 -4.168937E+04  7.515465E+04  6.677802E+03  7.759841E+03
       205   9 -7.431310E+04 -3.756088E+05 -7.365345E+04  8.852174E+04  2.408599E+03  2.217924E+04
       205  10  2.026823E+04 -4.250708E+04  1.176818E+04  8.083554E+04  3.100700E-10 -1.569235E-09
       205  11  3.698990E+04  3.729779E+04  2.653338E+04  6.746160E+04 -3.759588E-10 -8.538607E-11
       205  12  4.769045E+04  1.164907E+05  4.410604E+04  7.175697E+04 -2.140639E-10 -2.734596E-10
       205  13 -4.770104E+02 -1.295777E+05 -4.882337E+03  8.014640E+04 -1.801977E-10  1.087278E-09
       205  14 -2.968998E+03 -1.283603E+05 -7.577359E+03  7.130863E+04 -2.868834E-10 -1.078123E-09
       205  15 -1.330933E+04 -1.295871E+05 -1.477205E+04  8.014100E+04 -6.858911E-11 -1.080574E-09
       205  16 -2.122269E+04 -2.166410E+05 -2.153319E+04  7.945734E+04 -3.223857E-10  5.829656E-10
       205  17 -4.292957E+04 -2.939922E+05 -4.168957E+04  7.515461E+04  4.495204E-11  2.405251E-09
       205  18 -7.431324E+04 -3.756094E+05 -7.365438E+04  8.852170E+04 -5.529294E-11 -2.681861E-10
       205  19  2.026828E+04 -4.250695E+04  1.176843E+04  8.083558E+04 -4.676714E+03 -1.057624E+04
       205  20  3.698995E+04  3.729782E+04  2.653350E+04  6.746162E+04 -6.678888E+03 -3.959751E+03
       205  21  4.769046E+04  1.164908E+05  4.410606E+04  7.175696E+04 -2.418167E+03  2.660876E+03
       205  22 -4.769859E+02 -1.295777E+05 -4.882289E+03  8.014640E+04 -4.679693E+03 -1.954986E+03
       205  23 -2.968941E+03 -1.283602E+05 -7.577211E+03  7.130866E+04 -6.678333E+03 -5.860045E+03
       205  24 -1.330930E+04 -1.295870E+05 -1.477186E+04  8.014102E+04 -2.413215E+03 -9.761635E+03
       205  25 -2.122266E+04 -2.166409E+05 -2.153307E+04  7.945732E+04 -4.682690E+03  6.665090E+03
       205  26 -4.292951E+04 -2.939922E+05 -4.168937E+04  7.515465E+04 -6.677802E+03 -7.759841E+03
       205  27 -7.431310E+04 -3.756088E+05 -7.365345E+04  8.852174E+04 -2.408599E+03 -2.217924E+04
       206   1  1.647474E+06  4.626937E+05  4.486619E+05  3.249139E+05  1.410661E+05 -2.141183E+04
       206   2  1.336364E+06  3.476153E+05  3.008712E+05  2.799438E+05  5.961069E+04 -6.729403E+04
       206   3  1.044741E+06  2.664565E+05  2.145361E+05  3.006062E+05 -2.175247E+04 -7.080302E+04
       206   4 -8.117554E+04  3.565279E+04  4.023405E+04  3.029833E+05  2.806016E+04 -2.135535E+04
       206   5 -8.457148E+04  7.380498E+03  1.949109E+04  2.701595E+05  1.798760E+04 -6.729291E+04
       206   6 -8.090131E+04  6.995171E+02  1.073361E+04  3.029689E+05  7.965280E+03 -7.081607E+04
       206   7 -1.807054E+06 -3.915934E+05 -3.683525E+05  2.811137E+05 -8.463353E+04 -2.129087E+04
       206   8 -1.503574E+06 -3.329759E+05 -2.619822E+05  2.603978E+05 -2.354239E+04 -6.729051E+04
       206   9 -1.205310E+06 -2.651280E+05 -1.931156E+05  3.053270E+05  3.763069E+04 -7.082890E+04
       206  10  1.647453E+06  4.626879E+05  4.486238E+05  3.249164E+05  6.809072E-10 -9.091456E-11
       206  11  1.336359E+06  3.476095E+05  3.008560E+05  2.799471E+05 -9.778504E-11 -2.273410E-10
       206  12  1.044739E+06  2.664510E+05  2.145258E+05  3.006050E+05 -5.842928E-10  5.889494E-11
       206  13 -8.117651E+04  3.565209E+04  4.023171E+04  3.029838E+05 -3.066529E-10 -8.651919E-11
       206  14 -8.457304E+04  7.375548E+03  1.948197E+04  2.701605E+05 -2.275263E-10 -1.544791E-10
       206  15 -8.090272E+04  6.941147E+02  1.072406E+04  3.029694E+05 -3.199183E-10  8.609517E-11
       206  16 -1.807062E+06 -3.915958E+05 -3.683669E+05  2.811122E+05 -3.743594E-10 -5.807955E-11
       206  17 -1.503576E+06 -3.329809E+05 -2.619918E+05  2.603965E+05 -2.257937E-10 -1.229838E-10
       206  18 -1.205313E+06 -2.651338E+05 -1.931277E+05  3.053291E+05  3.927050E-10  9.584250E-11
       206  19  1.647474E+06  4.626937E+05  4.486619E+05  3.249139E+05 -1.410661E+05  2.141183E+04
       206  20  1.336364E+06  3.476153E+05  3.008712E+05  2.799438E+05 -5.961069E+04  6.729403E+04
       206  21  1.044741E+06  2.664565E+05  2.145361E+05  3.006062E+05  2.175247E+04  7.080302E+04
       206  22 -8.117554E+04  3.565279E+04  4.023405E+04  3.029833E+05 -2.806016E+04  2.135535E+04
       206  23 -8.457148E+04  7.380498E+03  1.949109E+04  2.701595E+05 -1.798760E+04  6.729291E+04
       206  24 -8.090131E+04  6.995171E+02  1.073361E+04  3.029689E+05 -7.965280E+03  7.081607E+04
       206  25 -1.807054E+06 -3.915934E+05 -3.683525E+05  2.811137E+05  8.463353E+04  2.129087E+04
       206  26 -1.503574E+06 -3.329759E+05 -2.619822E+05  2.603978E+05  2.354239E+04  6.729051E+04
       206  27 -1.205310E+06 -2.651280E+05 -1.931156E+05  3.053270E+05 -3.763069E+04  7.082890E+04
       207   1  8.449305E+05  2.199845E+05  1.745245E+05  3.041125E+05 -1.834139E+04 -5.970534E+04
       207   2  5.430800E+05  1.470379E+05  1.135879E+05  2.695434E+05 -2.645097E+04 -4.313128E+04
       207   3  2.430233E+05  7.620956E+04  5.848163E+04  3.033191E+05 -3.456374E+04 -2.303494E+04
       207   4 -8.224279E+04  1.360269E+03  8.141646E+03  3.035760E+05  6.563960E+03 -5.971190E+04
       207   5 -8.252061E+04  1.166102E+02  4.402460E+03  2.694017E+05  4.374650E+03 -4.313098E+04
       207   6 -8.211883E+04 -3.060013E+01  2.386636E+03  3.035764E+05  2.178403E+03 -2.302586E+04
       207   7 -1.008577E+06 -2.173114E+05 -1.582720E+05  3.030403E+05  3.143319E+04 -5.971851E+04
       207   8 -7.077360E+05 -1.468254E+05 -1.047934E+05  2.692601E+05  3.517017E+04 -4.313069E+04
       207   9 -4.071543E+05 -7.627571E+04 -5.370690E+04  3.038334E+05  3.890191E+04 -2.301674E+04
       207  10  8.449292E+05  2.199806E+05  1.745171E+05  3.041116E+05  6.512137E-10  2.015406E-10
       207  11  5.430787E+05  1.470357E+05  1.135831E+05  2.695425E+05  3.020845E-10  7.036248E-11
       207  12  2.430219E+05  7.620867E+04  5.847839E+04  3.033185E+05  1.284314E-10 -1.973685E-10
       207  13 -8.224379E+04  1.356429E+03  8.134864E+03  3.035764E+05  2.168236E-11  1.865565E-10
       207  14 -8.252113E+04  1.146074E+02  4.398928E+03  2.694019E+05  3.115370E-10  3.290751E-11
       207  15 -8.211897E+04 -3.117075E+01  2.385631E+03  3.035764E+05  5.217045E-10 -1.815018E-10
       207  16 -1.008580E+06 -2.173155E+05 -1.582805E+05  3.030418E+05 -2.608813E-10  1.502199E-10
       207  17 -7.077378E+05 -1.468277E+05 -1.047992E+05  2.692613E+05 -2.006086E-10  8.694676E-12
       207  18 -4.071561E+05 -7.627669E+04 -5.371075E+04  3.038342E+05 -2.120348E-10 -1.660338E-10
       207  19  8.449305E+05  2.199845E+05  1.745245E+05  3.041125E+05  1.834139E+04  5.970534E+04
       207  20  5.430800E+05  1.470379E+05  1.135879E+05  2.695434E+05  2.645097E+04  4.313128E+04
       207  21  2.430233E+05  7.620956E+04  5.848163E+04  3.033191E+05  3.456374E+04  2.303494E+04
       207  22 -8.224279E+04  1.360269E+03  8.141646E+03  3.035760E+05 -6.563960E+03  5.971190E+04
       207  23 -8.252061E+04  1.166102E+02  4.402460E+03  2.694017E+05 -4.374650E+03  4.313098E+04
       207  24 -8.211883E+04 -3.060013E+01  2.386636E+03  3.035764E+05 -2.178403E+03  2.302586E+04
       207  25 -1.008577E+06 -2.173114E+05 -1.582720E+05  3.030403E+05 -3.143319E+04  5.971851E+04
       207  26 -7.077360E+05 -1.468254E+05 -1.047934E+05  2.692601E+05 -3.517017E+04  4.313069E+04
       207  27 -4.071543E+05 -7.627571E+04 -5.370690E+04  3.038334E+05 -3.890191E+04  2.301674E+04
       208   1  4.636927E+04  2.998765E+04  2.284383E+04  3.034564E+05 -3.481373E+04 -1.007366E+04
       208   2 -2.541546E+05 -4.074100E+04 -3.086442E+04  2.693183E+05 -3.091850E+04  1.048300E+04
       208   3 -5.552329E+05 -1.122877E+05 -8.730337E+04  3.035935E+05 -2.702390E+04  2.853916E+04
       208   4 -8.223426E+04  3.765284E+01  1.697095E+03  3.035904E+05  1.816578E+03 -1.006281E+04
       208   5 -8.229253E+04 -6.175959E+01  6.340457E+02  2.693845E+05  1.504152E+03  1.049061E+04
       208   6 -8.226834E+04 -2.459789E+02 -2.403094E+02  3.035906E+05  1.192943E+03  2.854404E+04
       208   7 -2.108185E+05 -2.991247E+04 -1.944508E+04  3.037244E+05  3.843956E+04 -1.005195E+04
       208   8  8.960054E+04  4.061637E+04  3.213526E+04  2.694508E+05  3.393554E+04  1.049823E+04
       208   9  3.909151E+05  1.117834E+05  8.681651E+04  3.035876E+05  2.943073E+04  2.854891E+04
       208  10  4.636794E+04  2.998721E+04  2.284137E+04  3.034561E+05 -3.587290E-10 -1.737177E-10
       208  11 -2.541557E+05 -4.074138E+04 -3.086642E+04  2.693186E+05 -1.847783E-10  5.770163E-11
       208  12 -5.552339E+05 -1.122888E+05 -8.730627E+04  3.035941E+05 -1.792096E-11  2.430531E-11
       208  13 -8.223429E+04  3.754321E+01  1.696899E+03  3.035904E+05 -9.750766E-11 -1.587328E-10
       208  14 -8.229256E+04 -6.187836E+01  6.338347E+02  2.693845E+05  6.967915E-11  4.906860E-11
       208  15 -8.226856E+04 -2.468542E+02 -2.418430E+02  3.035905E+05  3.085910E-10  7.927813E-11
       208  16 -2.108202E+05 -2.991298E+04 -1.944805E+04  3.037248E+05  6.535077E-10 -1.366786E-10
       208  17  8.959927E+04  4.061594E+04  3.213289E+04  2.694505E+05  2.020804E-10  5.514659E-11
       208  18  3.909140E+05  1.117823E+05  8.681335E+04  3.035869E+05  1.297893E-10  1.328579E-10
       208  19  4.636927E+04  2.998765E+04  2.284383E+04  3.034564E+05  3.481373E+04  1.007366E+04
       208  20 -2.541546E+05 -4.074100E+04 -3.086442E+04  2.693183E+05  3.091850E+04 -1.048300E+04
       208  21 -5.552329E+05 -1.122877E+05 -8.730337E+04  3.035935E+05  2.702390E+04 -2.853916E+04
       208  22 -8.223426E+04  3.765284E+01  1.697095E+03  3.035904E+05 -1.816578E+03  1.006281E+04
       208  23 -8.229253E+04 -6.175959E+01  6.340457E+02  2.693845E+05 -1.504152E+03 -1.049061E+04
       208  24 -8.226834E+04 -2.459789E+02 -2.403094E+02  3.035906E+05 -1.192943E+03 -2.854404E+04
       208  25 -2.108185E+05 -2.991247E+04 -1.944508E+04  3.037244E+05 -3.843956E+04  1.005195E+04
       208  26  8.960054E+04  4.061637E+04  3.213526E+04  2.694508E+05 -3.393554E+04 -1.049823E+04
       208  27  3.909151E+05  1.117834E+05  8.681651E+04  3.035876E+05 -2.943073E+04 -2.854891E+04
       209   1 -7.530627E+05 -1.591928E+05 -1.244505E+05  3.028746E+05 -3.057221E+04  4.018704E+04
       209   2 -1.049100E+06 -2.335378E+05 -1.964826E+05  2.711109E+05  2.389860E+04  4.321153E+04
       209   3 -1.354832E+06 -3.193587E+05 -3.068490E+05  3.057093E+05  7.831955E+04  1.436176E+04
       209   4 -8.243528E+04 -2.441315E+02 -6.719877E+02  3.031341E+05  1.234022E+03  4.018895E+04
       209   5 -8.229263E+04 -1.124072E+03 -1.880606E+03  2.699553E+05  2.233944E+03  4.320669E+04
       209   6 -8.262406E+04 -4.174941E+03 -4.254189E+03  3.031336E+05  3.210646E+03  1.437265E+04
       209   7  5.886309E+05  1.586794E+05  1.230917E+05  3.033939E+05  3.307374E+04  4.019088E+04
       209   8  8.854084E+05  2.312321E+05  1.926754E+05  2.687978E+05 -1.946384E+04  4.320194E+04
       209   9  1.191084E+06  3.108951E+05  2.982486E+05  3.005524E+05 -7.205169E+04  1.438418E+04
       209  10 -7.530642E+05 -1.591948E+05 -1.244553E+05  3.028756E+05  1.184569E-10  8.999202E-12
       209  11 -1.049102E+06 -2.335400E+05 -1.964872E+05  2.711100E+05  9.577815E-11  1.823035E-11
       209  12 -1.354839E+06 -3.193605E+05 -3.068609E+05  3.057083E+05 -8.034511E-11  9.717405E-11
       209  13 -8.243571E+04 -2.458662E+02 -6.750255E+02  3.031341E+05  3.596002E-10  2.403765E-11
       209  14 -8.229313E+04 -1.126078E+03 -1.884123E+03  2.699553E+05 -2.669696E-10  4.720392E-11
       209  15 -8.262412E+04 -4.175165E+03 -4.254597E+03  3.031336E+05  1.662899E-10  5.206197E-11
       209  16  5.886293E+05  1.586774E+05  1.230866E+05  3.033928E+05  2.605195E-10  6.180123E-11
       209  17  8.854075E+05  2.312300E+05  1.926711E+05  2.687985E+05 -4.302693E-10 -1.137745E-10
       209  18  1.191079E+06  3.108935E+05  2.982385E+05  3.005533E+05  2.846442E-10 -2.190882E-11
       209  19 -7.530627E+05 -1.591928E+05 -1.244505E+05  3.028746E+05  3.057221E+04 -4.018704E+04
       209  20 -1.049100E+06 -2.335378E+05 -1.964826E+05  2.711109E+05 -2.389860E+04 -4.321153E+04
       209  21 -1.354832E+06 -3.193587E+05 -3.068490E+05  3.057093E+05 -7.831955E+04 -1.436176E+04
       209  22 -8.243528E+04 -2.441315E+02 -6.719877E+02  3.031341E+05 -1.234022E+03 -4.018895E+04
       209  23 -8.229263E+04 -1.124072E+03 -1.880606E+03  2.699553E+05 -2.233944E+03 -4.320669E+04
       209  24 -8.262406E+04 -4.174941E+03 -4.254189E+03  3.031336E+05 -3.210646E+03 -1.437265E+04
       209  25  5.886309E+05  1.586794E+05  1.230917E+05  3.033939E+05 -3.307374E+04 -4.019088E+04
       209  26  8.854084E+05  2.312321E+05  1.926754E+05  2.687978E+05  1.946384E+04 -4.320194E+04
       209  27  1.191084E+06  3.108951E+05  2.982486E+05  3.005524E+05  7.205169E+04 -1.438418E+04
       210   1 -2.451538E+05 -1.323546E+06 -2.443791E+05  3.116194E+05 -7.675231E+03 -7.465671E+04
       210   2 -1.351782E+05 -1.033843E+06 -1.324056E+05  2.647391E+05 -2.018864E+04 -2.745246E+04
       210   3 -5.813315E+04 -7.586197E+05 -5.947713E+04  2.808102E+05 -1.202317E+04  1.975085E+04
       210   4 -4.523581E+04 -5.176926E+05 -5.097658E+04  2.839732E+05 -7.607133E+03 -3.620951E+04
       210   5 -9.404639E+03 -5.133832E+05 -2.421030E+04  2.524603E+05 -2.018021E+04 -2.367582E+04
       210   6 -4.557093E+02 -5.175854E+05 -1.236277E+04  2.839026E+05 -1.208001E+04 -1.116569E+04
       210   7  1.546387E+05  2.887611E+05  1.423859E+05  2.562906E+05 -7.542519E+03  2.287507E+03
       210   8  1.163522E+05  7.334437E+03  8.397032E+04  2.401710E+05 -2.017193E+04 -1.989606E+04
       210   9  5.721878E+04 -2.764932E+05  3.475240E+04  2.869962E+05 -1.213715E+04 -4.209398E+04
       210  10 -2.451554E+05 -1.323552E+06 -2.443897E+05  3.116189E+05  7.150892E-11  4.295844E-10
       210  11 -1.351788E+05 -1.033844E+06 -1.324078E+05  2.647387E+05  2.595718E-10 -2.219592E-10
       210  12 -5.813341E+04 -7.586202E+05 -5.947814E+04  2.808104E+05 -9.784840E-10 -8.058015E-10
       210  13 -4.523623E+04 -5.176940E+05 -5.097915E+04  2.839730E+05 -4.748041E-10  6.660624E-11
       210  14 -9.405227E+03 -5.133839E+05 -2.421212E+04  2.524600E+05  2.011187E-09 -1.669788E-10
       210  15 -4.558993E+02 -5.175856E+05 -1.236328E+04  2.839025E+05 -5.671106E-10  3.377197E-12
       210  16  1.546386E+05  2.887611E+05  1.423857E+05  2.562906E+05 -5.532510E-11 -4.208186E-10
       210  17  1.163517E+05  7.333903E+03  8.396881E+04  2.401706E+05  2.680222E-10  1.877294E-10
       210  18  5.721815E+04 -2.764951E+05  3.474880E+04  2.869957E+05  4.354600E-11  8.292294E-10
       210  19 -2.451538E+05 -1.323546E+06 -2.443791E+05  3.116194E+05  7.675231E+03  7.465671E+04
       210  20 -1.351782E+05 -1.033843E+06 -1.324056E+05  2.647391E+05  2.018864E+04  2.745246E+04
       210  21 -5.813315E+04 -7.586197E+05 -5.947713E+04  2.808102E+05  1.202317E+04 -1.975085E+04
       210  22 -4.523581E+04 -5.176926E+05 -5.097658E+04  2.839732E+05  7.607133E+03  3.620951E+04
       210  23 -9.404639E+03 -5.133832E+05 -2.421030E+04  2.524603E+05  2.018021E+04  2.367582E+04
       210  24 -4.557093E+02 -5.175854E+05 -1.236277E+04  2.839026E+05  1.208001E+04  1.116569E+04
       210  25  1.546387E+05  2.887611E+05  1.423859E+05  2.562906E+05  7.542519E+03 -2.287507E+03
       210  26  1.163522E+05  7.334437E+03  8.397032E+04  2.401710E+05  2.017193E+04  1.989606E+04
       210  27  5.721878E+04 -2.764932E+05  3.475240E+04  2.869962E+05  1.213715E+04  4.209398E+04
       211   1 -1.493397E+04 -5.715235E+05 -2.173056E+04  2.847332E+05 -7.486198E+02  1.917347E+04
       211   2  5.382066E+04 -2.890274E+05  3.665494E+04  2.527406E+05  1.596406E+04  1.886135E+04
       211   3  1.223697E+05 -6.662468E+03  9.512971E+04  2.848613E+05  3.173659E+04  1.855317E+04
       211   4 -1.166703E+03 -5.157912E+05 -8.647866E+03  2.841695E+05 -8.025889E+02 -9.678442E+03
       211   5  6.420137E+02 -5.155708E+05 -2.583817E+03  2.521093E+05  1.591540E+04 -8.416522E+03
       211   6  1.975965E+03 -5.158315E+05  2.477149E+03  2.841639E+05  3.169291E+04 -7.150527E+03
       211   7  1.260079E+04 -4.600543E+05  4.437746E+03  2.836059E+05 -8.565027E+02 -3.853293E+04
       211   8 -5.253900E+04 -7.420623E+05 -4.182155E+04  2.514783E+05  1.586679E+04 -3.568475E+04
       211   9 -1.184320E+05 -1.024747E+06 -9.018330E+04  2.834670E+05  3.164927E+04 -3.283371E+04
       211  10 -1.493407E+04 -5.715239E+05 -2.173125E+04  2.847332E+05 -2.175127E-10  9.928643E-10
       211  11  5.382029E+04 -2.890278E+05  3.665379E+04  2.527403E+05 -4.097919E-10  5.190606E-10
       211  12  1.223685E+05 -6.663108E+03  9.512717E+04  2.848608E+05  5.978404E-10  1.094282E-10
       211  13 -1.166728E+03 -5.157913E+05 -8.648043E+03  2.841695E+05 -3.078796E-10 -2.066560E-11
       211  14  6.417227E+02 -5.155710E+05 -2.584426E+03  2.521094E+05 -1.051385E-09  9.793932E-11
       211  15  1.974872E+03 -5.158318E+05  2.475166E+03  2.841641E+05 -8.901700E-10  3.692801E-11
       211  16  1.260039E+04 -4.600559E+05  4.434953E+03  2.836058E+05 -3.764741E-10 -1.008346E-09
       211  17 -5.253961E+04 -7.420637E+05 -4.182442E+04  2.514787E+05  5.056482E-10 -5.163465E-10
       211  18 -1.184334E+05 -1.024748E+06 -9.018721E+04  2.834678E+05  7.879843E-10 -2.385089E-10
       211  19 -1.493397E+04 -5.715235E+05 -2.173056E+04  2.847332E+05  7.486198E+02 -1.917347E+04
       211  20  5.382066E+04 -2.890274E+05  3.665494E+04  2.527406E+05 -1.596406E+04 -1.886135E+04
       211  21  1.223697E+05 -6.662468E+03  9.512971E+04  2.848613E+05 -3.173659E+04 -1.855317E+04
       211  22 -1.166703E+03 -5.157912E+05 -8.647866E+03  2.841695E+05  8.025889E+02  9.678442E+03
       211  23  6.420137E+02 -5.155708E+05 -2.583817E+03  2.521093E+05 -1.591540E+04  8.416522E+03
       211  24  1.975965E+03 -5.158315E+05  2.477149E+03  2.841639E+05 -3.169291E+04  7.150527E+03
       211  25  1.260079E+04 -4.600543E+05  4.437746E+03  2.836059E+05  8.565027E+02  3.853293E+04
       211  26 -5.253900E+04 -7.420623E+05 -4.182155E+04  2.514783E+05 -1.586679E+04  3.568475E+04
       211  27 -1.184320E+05 -1.024747E+06 -9.018330E+04  2.834670E+05 -3.164927E+04  3.283371E+04
       212   1  1.659808E+05  1.802872E+05  1.324036E+05  2.829499E+05  4.251545E+04  2.141697E+04
       212   2  2.396557E+05  4.560594E+05  2.072749E+05  2.605449E+05  4.408190E+04 -3.750843E+04
       212   3  3.372619E+05  7.454962E+05  3.264623E+05  3.002984E+05  1.436887E+04 -9.643513E+04
       212   4  1.485031E+03 -5.147723E+05  5.071880E+03  2.837342E+05  4.246953E+04 -7.661921E+03
       212   5  5.997261E+03 -5.170980E+05  1.225943E+04  2.526371E+05  4.412356E+04 -1.399296E+04
       212   6  2.533562E+04 -5.149438E+05  2.725622E+04  2.837000E+05  1.447728E+04 -2.029762E+04
       212   7 -1.630377E+05 -1.209361E+06 -1.222764E+05  2.845172E+05  4.242350E+04 -3.670913E+04
       212   8 -2.277190E+05 -1.489350E+06 -1.828020E+05  2.447414E+05  4.416466E+04  9.486417E+03
       212   9 -2.867009E+05 -1.773912E+06 -2.720388E+05  2.671345E+05  1.458175E+04  5.568626E+04
       212  10  1.659787E+05  1.802862E+05  1.323994E+05  2.829492E+05 -4.140413E-11 -6.782876E-10
       212  11  2.396532E+05  4.560574E+05  2.072686E+05  2.605463E+05 -1.598888E-10 -4.800151E-10
       212  12  3.372591E+05  7.454862E+05  3.264445E+05  3.002995E+05  2.109682E-10  7.073289E-11
       212  13  1.483078E+03 -5.147728E+05  5.068380E+03  2.837344E+05  1.171400E-09 -2.123642E-10
       212  14  5.995118E+03 -5.170987E+05  1.225540E+04  2.526376E+05 -6.137699E-10  1.013771E-11
       212  15  2.533529E+04 -5.149443E+05  2.725505E+04  2.837002E+05  2.195565E-10 -3.746285E-11
       212  16 -1.630400E+05 -1.209363E+06 -1.222823E+05  2.845185E+05 -6.861896E-11  6.723257E-10
       212  17 -2.277211E+05 -1.489351E+06 -1.828058E+05  2.447411E+05 -4.254837E-10  6.038439E-10
       212  18 -2.867020E+05 -1.773916E+06 -2.720451E+05  2.671339E+05  2.095814E-10 -1.397461E-10
       212  19  1.659808E+05  1.802872E+05  1.324036E+05  2.829499E+05 -4.251545E+04 -2.141697E+04
       212  20  2.396557E+05  4.560594E+05  2.072749E+05  2.605449E+05 -4.408190E+04  3.750843E+04
       212  21  3.372619E+05  7.454962E+05  3.264623E+05  3.002984E+05 -1.436887E+04  9.643513E+04
       212  22  1.485031E+03 -5.147723E+05  5.071880E+03  2.837342E+05 -4.246953E+04  7.661921E+03
       212  23  5.997261E+03 -5.170980E+05  1.225943E+04  2.526371E+05 -4.412356E+04  1.399296E+04
       212  24  2.533562E+04 -5.149438E+05  2.725622E+04  2.837000E+05 -1.447728E+04  2.029762E+04
       212  25 -1.630377E+05 -1.209361E+06 -1.222764E+05  2.845172E+05 -4.242350E+04  3.670913E+04
       212  26 -2.277190E+05 -1.489350E+06 -1.828020E+05  2.447414E+05 -4.416466E+04 -9.486417E+03
       212  27 -2.867009E+05 -1.773912E+06 -2.720388E+05  2.671345E+05 -1.458175E+04 -5.568626E+04
       213   1  1.442708E+06  3.704543E+05  3.555528E+05  2.888312E+05  9.736776E+04 -1.789778E+04
       213   2  1.151787E+06  2.867096E+05  2.394668E+05  2.564913E+05  3.471463E+04 -5.567925E+04
       213   3  8.725818E+05  2.160510E+05  1.674052E+05  2.864671E+05 -2.788085E+04 -5.685946E+04
       213   4 -4.209506E+04  3.481924E+03  4.208867E+03  2.866607E+05  2.971740E+03 -1.788296E+04
       213   5 -4.246980E+04  5.269666E+02  2.001386E+03  2.555001E+05  1.942569E+03 -5.568794E+04
       213   6 -4.187555E+04 -1.093184E+01  1.087671E+03  2.866604E+05  9.406881E+02 -5.685968E+04
       213   7 -1.524856E+06 -3.636437E+05 -3.472546E+05  2.844950E+05 -9.120012E+04 -1.786750E+04
       213   8 -1.235362E+06 -2.857422E+05 -2.355311E+05  2.545107E+05 -3.076783E+04 -5.569655E+04
       213   9 -9.555187E+05 -2.161195E+05 -1.652602E+05  2.868532E+05  2.972097E+04 -5.685986E+04
       213  10  1.442698E+06  3.704514E+05  3.555344E+05  2.888326E+05  5.632210E-10 -9.452169E-11
       213  11  1.151784E+06  2.867060E+05  2.394587E+05  2.564928E+05 -1.422864E-10 -1.628012E-10
       213  12  8.725801E+05  2.160473E+05  1.673977E+05  2.864659E+05 -7.273364E-10  1.811654E-10
       213  13 -4.209515E+04  3.481578E+03  4.208249E+03  2.866607E+05 -3.450962E-10  2.325736E-11
       213  14 -4.247064E+04  5.236355E+02  1.995551E+03  2.555002E+05 -2.554995E-10 -9.908285E-11
       213  15 -4.187642E+04 -1.440374E+01  1.081594E+03  2.866605E+05  6.498979E-11  1.460586E-10
       213  16 -1.524865E+06 -3.636463E+05 -3.472708E+05  2.844937E+05 -3.091441E-10 -8.351419E-11
       213  17 -1.235364E+06 -2.857458E+05 -2.355387E+05  2.545093E+05 -1.402820E-10 -1.143938E-10
       213  18 -9.555205E+05 -2.161232E+05 -1.652679E+05  2.868546E+05  4.481709E-10  1.130376E-10
       213  19  1.442708E+06  3.704543E+05  3.555528E+05  2.888312E+05 -9.736776E+04  1.789778E+04
       213  20  1.151787E+06  2.867096E+05  2.394668E+05  2.564913E+05 -3.471463E+04  5.567925E+04
       213  21  8.725818E+05  2.160510E+05  1.674052E+05  2.864671E+05  2.788085E+04  5.685946E+04
       213  22 -4.209506E+04  3.481924E+03  4.208867E+03  2.866607E+05 -2.971740E+03  1.788296E+04
       213  23 -4.246980E+04  5.269666E+02  2.001386E+03  2.555001E+05 -1.942569E+03  5.568794E+04
       213  24 -4.187555E+04 -1.093184E+01  1.087671E+03  2.866604E+05 -9.406881E+02  5.685968E+04
       213  25 -1.524856E+06 -3.636437E+05 -3.472546E+05  2.844950E+05  9.120012E+04  1.786750E+04
       213  26 -1.235362E+06 -2.857422E+05 -2.355311E+05  2.545107E+05  3.076783E+04  5.569655E+04
       213  27 -9.555187E+05 -2.161195E+05 -1.652602E+05  2.868532E+05 -2.972097E+04  5.685986E+04
       214   1  6.848872E+05  1.716844E+05  1.319402E+05  2.873202E+05 -2.387225E+04 -4.617945E+04
       214   2  3.996780E+05  1.039114E+05  7.791013E+04  2.549160E+05 -2.906084E+04 -3.001261E+04
       214   3  1.155237E+05  3.712432E+04  2.751072E+04  2.871858E+05 -3.425223E+04 -1.085184E+04
       214   4 -4.201021E+04  1.314459E+02  7.862199E+02  2.871842E+05  7.949464E+02 -4.617595E+04
       214   5 -4.201809E+04  7.446454E+01  3.229219E+02  2.548457E+05  6.342032E+02 -3.000300E+04
       214   6 -4.192732E+04  1.336200E+02 -1.374317E+00  2.871843E+05  4.683162E+02 -1.083493E+04
       214   7 -7.683922E+05 -1.714507E+05 -1.303862E+05  2.870482E+05  2.543409E+04 -4.617245E+04
       214   8 -4.835215E+05 -1.037726E+05 -7.726803E+04  2.547754E+05  3.030875E+04 -2.999340E+04
       214   9 -1.993515E+05 -3.685778E+04 -2.750982E+04  2.871827E+05  3.518032E+04 -1.081801E+04
       214  10  6.848860E+05  1.716819E+05  1.319352E+05  2.873193E+05  5.804153E-10  2.944241E-10
       214  11  3.996769E+05  1.039102E+05  7.790685E+04  2.549153E+05  1.215939E-10  6.835922E-11
       214  12  1.155224E+05  3.712388E+04  2.750829E+04  2.871855E+05  3.834737E-10 -6.358826E-11
       214  13 -4.201079E+04  1.291561E+02  7.822118E+02  2.871842E+05 -7.471397E-11  2.064074E-10
       214  14 -4.201833E+04  7.349780E+01  3.212295E+02  2.548457E+05 -2.384139E-11  1.468357E-10
       214  15 -4.192735E+04  1.334938E+02 -1.595346E+00  2.871843E+05  4.464751E-10 -6.765780E-12
       214  16 -7.683934E+05 -1.714532E+05 -1.303914E+05  2.870491E+05 -2.376177E-10  2.454861E-10
       214  17 -4.835227E+05 -1.037738E+05 -7.727145E+04  2.547761E+05  1.122206E-11  1.163079E-10
       214  18 -1.993528E+05 -3.685824E+04 -2.751237E+04  2.871830E+05  1.866861E-10 -1.789524E-10
       214  19  6.848872E+05  1.716844E+05  1.319402E+05  2.873202E+05  2.387225E+04  4.617945E+04
       214  20  3.996780E+05  1.039114E+05  7.791013E+04  2.549160E+05  2.906084E+04  3.001261E+04
       214  21  1.155237E+05  3.712432E+04  2.751072E+04  2.871858E+05  3.425223E+04  1.085184E+04
       214  22 -4.201021E+04  1.314459E+02  7.862199E+02  2.871842E+05 -7.949464E+02  4.617595E+04
       214  23 -4.201809E+04  7.446454E+01  3.229219E+02  2.548457E+05 -6.342032E+02  3.000300E+04
       214  24 -4.192732E+04  1.336200E+02 -1.374317E+00  2.871843E+05 -4.683162E+02  1.083493E+04
       214  25 -7.683922E+05 -1.714507E+05 -1.303862E+05  2.870482E+05 -2.543409E+04  4.617245E+04
       214  26 -4.835215E+05 -1.037726E+05 -7.726803E+04  2.547754E+05 -3.030875E+04  2.999340E+04
       214  27 -1.993515E+05 -3.685778E+04 -2.750982E+04  2.871827E+05 -3.518032E+04  1.081801E+04
       215   1 -7.040961E+04 -6.651488E+03 -5.714258E+03  2.871177E+05 -3.420994E+04  1.410916E+03
       215   2 -3.545739E+05 -7.360137E+04 -5.606680E+04  2.548088E+05 -2.938381E+04  2.071224E+04
       215   3 -6.394965E+05 -1.415077E+05 -1.098012E+05  2.871974E+05 -2.455617E+04  3.730874E+04
       215   4 -4.195433E+04  1.504712E+02 -1.637977E+02  2.871883E+05  4.752415E+02  1.428289E+03
       215   5 -4.196177E+04  3.670470E+01 -5.640798E+02  2.548407E+05  7.526903E+02  2.072392E+04
       215   6 -4.201302E+04 -2.390051E+02 -1.186966E+03  2.871885E+05  1.033682E+03  3.731553E+04
       215   7 -1.349569E+04  6.953027E+03  5.391146E+03  2.872590E+05  3.516197E+04  1.445670E+03
       215   8  2.707478E+05  7.366988E+04  5.493840E+04  2.548726E+05  3.090393E+04  2.073559E+04
       215   9  5.558193E+05  1.410100E+05  1.074155E+05  2.871794E+05  2.664751E+04  3.732232E+04
       215  10 -7.041087E+04 -6.651804E+03 -5.716462E+03  2.871177E+05  1.407538E-10 -3.115674E-12
       215  11 -3.545749E+05 -7.360207E+04 -5.606923E+04  2.548093E+05  3.314739E-11  5.363211E-11
       215  12 -6.394975E+05 -1.415094E+05 -1.098050E+05  2.871982E+05 -4.199939E-10 -1.148501E-10
       215  13 -4.195433E+04  1.504689E+02 -1.638019E+02  2.871883E+05  5.562386E-10 -1.625053E-10
       215  14 -4.196188E+04  3.624338E+01 -5.648879E+02  2.548407E+05  1.240456E-10  1.521378E-11
       215  15 -4.201339E+04 -2.405006E+02 -1.189584E+03  2.871884E+05 -6.543935E-10 -8.590954E-11
       215  16 -1.349701E+04  6.952693E+03  5.388819E+03  2.872589E+05  2.484938E-10 -1.621814E-10
       215  17  2.707467E+05  7.366917E+04  5.493580E+04  2.548721E+05 -2.927134E-10 -1.604587E-10
       215  18  5.558182E+05  1.410083E+05  1.074116E+05  2.871786E+05  1.839655E-10  3.728777E-11
       215  19 -7.040961E+04 -6.651488E+03 -5.714258E+03  2.871177E+05  3.420994E+04 -1.410916E+03
       215  20 -3.545739E+05 -7.360137E+04 -5.606680E+04  2.548088E+05  2.938381E+04 -2.071224E+04
       215  21 -6.394965E+05 -1.415077E+05 -1.098012E+05  2.871974E+05  2.455617E+04 -3.730874E+04
       215  22 -4.195433E+04  1.504712E+02 -1.637977E+02  2.871883E+05 -4.752415E+02 -1.428289E+03
       215  23 -4.196177E+04  3.670470E+01 -5.640798E+02  2.548407E+05 -7.526903E+02 -2.072392E+04
       215  24 -4.201302E+04 -2.390051E+02 -1.186966E+03  2.871885E+05 -1.033682E+03 -3.731553E+04
       215  25 -1.349569E+04  6.953027E+03  5.391146E+03  2.872590E+05 -3.516197E+04 -1.445670E+03
       215  26  2.707478E+05  7.366988E+04  5.493840E+04  2.548726E+05 -3.090393E+04 -2.073559E+04
       215  27  5.558193E+05  1.410100E+05  1.074155E+05  2.871794E+05 -2.664751E+04 -3.732232E+04
       216   1 -8.268557E+05 -1.859478E+05 -1.451818E+05  2.862990E+05 -2.816010E+04  4.814907E+04
       216   2 -1.106246E+06 -2.570429E+05 -2.158645E+05  2.570329E+05  2.988315E+04  4.885139E+04
       216   3 -1.396193E+06 -3.411418E+05 -3.275925E+05  2.903033E+05  8.787774E+04  1.589814E+04
       216   4 -4.223328E+04 -2.237472E+02 -1.597530E+03  2.867079E+05  1.227439E+03  4.815299E+04
       216   5 -4.192526E+04 -1.464038E+03 -3.029301E+03  2.554419E+05  2.819196E+03  4.884208E+04
       216   6 -4.242955E+04 -5.884572E+03 -6.264388E+03  2.867079E+05  4.390290E+03  1.590164E+04
       216   7  7.429895E+05  1.854659E+05  1.419650E+05  2.871172E+05  3.065116E+04  4.815695E+04
       216   8  1.023480E+06  2.540456E+05  2.097515E+05  2.538479E+05 -2.429029E+04  4.883293E+04
       216   9  1.313035E+06  3.292445E+05  3.149622E+05  2.831043E+05 -7.927861E+04  1.590614E+04
       216  10 -8.268572E+05 -1.859505E+05 -1.451877E+05  2.863001E+05 -1.453794E-10 -2.325290E-10
       216  11 -1.106248E+06 -2.570457E+05 -2.158706E+05  2.570318E+05  9.651412E-11 -2.495247E-10
       216  12 -1.396202E+06 -3.411442E+05 -3.276075E+05  2.903022E+05 -4.745669E-10 -2.259171E-11
       216  13 -4.223391E+04 -2.262374E+02 -1.601890E+03  2.867079E+05 -3.574085E-10 -1.284501E-10
       216  14 -4.192591E+04 -1.466601E+03 -3.033799E+03  2.554418E+05 -2.448463E-10 -2.914592E-10
       216  15 -4.242964E+04 -5.884849E+03 -6.264899E+03  2.867079E+05 -1.098653E-10 -5.962494E-11
       216  16  7.429879E+05  1.854631E+05  1.419589E+05  2.871160E+05 -2.633868E-10 -6.615960E-12
       216  17  1.023479E+06  2.540429E+05  2.097459E+05  2.538488E+05 -4.598184E-11 -1.703216E-10
       216  18  1.313028E+06  3.292426E+05  3.149500E+05  2.831054E+05  1.458814E-10 -6.582229E-11
       216  19 -8.268557E+05 -1.859478E+05 -1.451818E+05  2.862990E+05  2.816010E+04 -4.814907E+04
       216  20 -1.106246E+06 -2.570429E+05 -2.158645E+05  2.570329E+05 -2.988315E+04 -4.885139E+04
       216  21 -1.396193E+06 -3.411418E+05 -3.275925E+05  2.903033E+05 -8.787774E+04 -1.589814E+04
       216  22 -4.223328E+04 -2.237472E+02 -1.597530E+03  2.867079E+05 -1.227439E+03 -4.815299E+04
       216  23 -4.192526E+04 -1.464038E+03 -3.029301E+03  2.554419E+05 -2.819196E+03 -4.884208E+04
       216  24 -4.242955E+04 -5.884572E+03 -6.264388E+03  2.867079E+05 -4.390290E+03 -1.590164E+04
       216  25  7.429895E+05  1.854659E+05  1.419650E+05  2.871172E+05 -3.065116E+04 -4.815695E+04
       216  26  1.023480E+06  2.540456E+05  2.097515E+05  2.538479E+05  2.429029E+04 -4.883293E+04
       216  27  1.313035E+06  3.292445E+05  3.149622E+05  2.831043E+05  7.927861E+04 -1.590614E+04
       217   1 -2.642288E+05 -1.129290E+06 -2.555080E+05  3.638410E+05 -1.035754E+04 -5.310975E+04
       217   2 -1.697725E+05 -7.623288E+05 -1.439415E+05  3.242472E+05 -2.791089E+04 -8.227603E+03
       217   3 -8.204167E+04 -4.028762E+05 -6.334174E+04  3.655206E+05 -1.799167E+04  3.666197E+04
       217   4  2.296575E+03 -5.497242E+04  2.009646E+03  3.660299E+05 -1.028376E+04 -5.040877E+02
       217   5  1.027242E+03 -5.507787E+04  2.443633E+03  3.256005E+05 -2.789880E+04 -1.707679E+03
       217   6  1.052027E+03 -5.480543E+04  3.953338E+03  3.660315E+05 -1.805572E+04 -2.931107E+03
       217   7  2.687396E+05  1.020409E+06  2.594559E+05  3.682220E+05 -1.020970E+04  5.219236E+04
       217   8  1.717953E+05  6.526477E+05  1.488018E+05  3.269551E+05 -2.788668E+04  4.819553E+03
       217   9  8.413935E+04  2.933852E+05  7.124866E+04  3.665427E+05 -1.811982E+04 -4.254588E+04
       217  10 -2.642297E+05 -1.129293E+06 -2.555135E+05  3.638406E+05  1.806202E-11  9.913369E-11
       217  11 -1.697734E+05 -7.623291E+05 -1.439431E+05  3.242470E+05  5.128530E-10 -2.179703E-10
       217  12 -8.204238E+04 -4.028777E+05 -6.334488E+04  3.655211E+05 -9.485711E-10 -7.920475E-10
       217  13  2.296461E+03 -5.497245E+04  2.009447E+03  3.660299E+05 -3.680068E-10  1.475585E-10
       217  14  1.026405E+03 -5.507808E+04  2.442165E+03  3.256004E+05  1.513561E-09  5.031666E-11
       217  15  1.051674E+03 -5.480553E+04  3.952709E+03  3.660315E+05 -3.870319E-10 -6.818420E-11
       217  16  2.687388E+05  1.020406E+06  2.594506E+05  3.682224E+05  8.495435E-11 -6.922945E-11
       217  17  1.717945E+05  6.526475E+05  1.488003E+05  3.269552E+05  2.675349E-10  2.875641E-10
       217  18  8.413851E+04  2.933832E+05  7.124464E+04  3.665421E+05  3.838190E-11  6.438046E-10
       217  19 -2.642288E+05 -1.129290E+06 -2.555080E+05  3.638410E+05  1.035754E+04  5.310975E+04
       217  20 -1.697725E+05 -7.623288E+05 -1.439415E+05  3.242472E+05  2.791089E+04  8.227603E+03
       217  21 -8.204167E+04 -4.028762E+05 -6.334174E+04  3.655206E+05  1.799167E+04 -3.666197E+04
       217  22  2.296575E+03 -5.497242E+04  2.009646E+03  3.660299E+05  1.028376E+04  5.040877E+02
       217  23  1.027242E+03 -5.507787E+04  2.443633E+03  3.256005E+05  2.789880E+04  1.707679E+03
       217  24  1.052027E+03 -5.480543E+04  3.953338E+03  3.660315E+05  1.805572E+04  2.931107E+03
       217  25  2.687396E+05  1.020409E+06  2.594559E+05  3.682220E+05  1.020970E+04 -5.219236E+04
       217  26  1.717953E+05  6.526477E+05  1.488018E+05  3.269551E+05  2.788668E+04 -4.819553E+03
       217  27  8.413935E+04  2.933852E+05  7.124866E+04  3.665427E+05  1.811982E+04  4.254588E+04
       218   1 -2.563016E+04 -1.644034E+05 -1.838897E+04  3.656930E+05 -3.547609E+03  3.309409E+04
       218   2  6.074710E+04  1.981170E+05  5.263856E+04  3.257630E+05  1.784335E+04  2.692234E+04
       218   3  1.498310E+05  5.620701E+05  1.282986E+05  3.682603E+05  3.818472E+04  2.075222E+04
       218   4  1.026961E+03 -5.464611E+04  5.111973E+03  3.663803E+05 -3.608822E+03 -3.741068E+03
       218   5  1.321666E+03 -5.517690E+04  8.789354E+03  3.251636E+05  1.778842E+04 -8.157004E+03
       218   6  4.025393E+03 -5.470650E+04  1.588138E+04  3.663755E+05  3.813561E+04 -1.256789E+04
       218   7  2.768403E+04  5.512544E+04  2.861732E+04  3.670678E+05 -3.670110E+03 -4.058264E+04
       218   8 -5.810656E+04 -3.084052E+05 -3.505745E+04  3.245644E+05  1.773353E+04 -4.322248E+04
       218   9 -1.418011E+05 -6.711111E+05 -9.654701E+04  3.644925E+05  3.808666E+04 -4.585582E+04
       218  10 -2.563047E+04 -1.644046E+05 -1.839105E+04  3.656931E+05 -6.661574E-10  5.271537E-10
       218  11  6.074656E+04  1.981161E+05  5.263660E+04  3.257626E+05 -6.446733E-10  4.146417E-10
       218  12  1.498293E+05  5.620692E+05  1.282951E+05  3.682596E+05  4.492003E-10  1.287910E-10
       218  13  1.026944E+03 -5.464612E+04  5.111923E+03  3.663803E+05 -3.750090E-10  1.113421E-10
       218  14  1.321308E+03 -5.517705E+04  8.788634E+03  3.251637E+05 -8.995321E-10  1.678991E-10
       218  15  4.023788E+03 -5.470706E+04  1.587835E+04  3.663759E+05 -9.954200E-10  1.503303E-11
       218  16  2.768357E+04  5.512366E+04  2.861420E+04  3.670676E+05 -2.408034E-10 -5.427559E-10
       218  17 -5.810740E+04 -3.084073E+05 -3.506155E+04  3.245650E+05  3.373566E-10 -3.221259E-10
       218  18 -1.418032E+05 -6.711138E+05 -9.655370E+04  3.644939E+05  4.025979E-10 -2.768581E-10
       218  19 -2.563016E+04 -1.644034E+05 -1.838897E+04  3.656930E+05  3.547609E+03 -3.309409E+04
       218  20  6.074710E+04  1.981170E+05  5.263856E+04  3.257630E+05 -1.784335E+04 -2.692234E+04
       218  21  1.498310E+05  5.620701E+05  1.282986E+05  3.682603E+05 -3.818472E+04 -2.075222E+04
       218  22  1.026961E+03 -5.464611E+04  5.111973E+03  3.663803E+05  3.608822E+03  3.741068E+03
       218  23  1.321666E+03 -5.517690E+04  8.789354E+03  3.251636E+05 -1.778842E+04  8.157004E+03
       218  24  4.025393E+03 -5.470650E+04  1.588138E+04  3.663755E+05 -3.813561E+04  1.256789E+04
       218  25  2.768403E+04  5.512544E+04  2.861732E+04  3.670678E+05  3.670110E+03  4.058264E+04
       218  26 -5.810656E+04 -3.084052E+05 -3.505745E+04  3.245644E+05 -1.773353E+04  4.322248E+04
       218  27 -1.418011E+05 -6.711111E+05 -9.654701E+04  3.644925E+05 -3.808666E+04  4.585582E+04
       219   1  2.053347E+05  8.037434E+05  1.777740E+05  3.625577E+05  5.207510E+04  2.223499E+04
       219   2  3.071942E+05  1.155110E+06  2.811716E+05  3.466337E+05  5.463437E+04 -6.338000E+04
       219   3  4.621583E+05  1.531029E+06  4.535224E+05  4.107375E+05  1.788965E+04 -1.490327E+05
       219   4  2.867856E+03 -5.210645E+04  2.083432E+04  3.658487E+05  5.202540E+04 -1.531408E+04
       219   5  1.584422E+04 -5.875019E+04  3.774680E+04  3.257999E+05  5.468032E+04 -3.477054E+04
       219   6  7.051301E+04 -5.238993E+04  7.774293E+04  3.657736E+05  1.800268E+04 -5.421199E+04
       219   7 -1.996398E+05 -9.072427E+05 -1.361300E+05  3.691347E+05  5.197525E+04 -5.281280E+04
       219   8 -2.755945E+05 -1.271204E+06 -2.057496E+05  3.050069E+05  5.472442E+04 -6.215793E+03
       219   9 -3.213004E+05 -1.633486E+06 -2.981766E+05  3.209235E+05  1.810220E+04  4.036864E+04
       219  10  2.053317E+05  8.037422E+05  1.777679E+05  3.625568E+05 -5.222176E-11 -2.831808E-10
       219  11  3.071900E+05  1.155105E+06  2.811585E+05  3.466365E+05  3.461008E-11 -2.803906E-10
       219  12  4.621520E+05  1.531005E+06  4.534802E+05  4.107396E+05  2.146567E-10 -7.496703E-11
       219  13  2.864886E+03 -5.210743E+04  2.082879E+04  3.658494E+05  4.706203E-10  8.693640E-11
       219  14  1.584068E+04 -5.875230E+04  3.773890E+04  3.258015E+05 -3.145664E-10  5.931315E-11
       219  15  7.051187E+04 -5.239318E+04  7.773679E+04  3.657744E+05  1.358808E-10 -2.477819E-11
       219  16 -1.996434E+05 -9.072464E+05 -1.361403E+05  3.691369E+05 -2.474933E-10  3.129642E-10
       219  17 -2.755978E+05 -1.271204E+06 -2.057553E+05  3.050072E+05 -5.304277E-10  4.377752E-10
       219  18 -3.213012E+05 -1.633488E+06 -2.981803E+05  3.209229E+05  1.517826E-10  1.654308E-14
       219  19  2.053347E+05  8.037434E+05  1.777740E+05  3.625577E+05 -5.207510E+04 -2.223499E+04
       219  20  3.071942E+05  1.155110E+06  2.811716E+05  3.466337E+05 -5.463437E+04  6.338000E+04
       219  21  4.621583E+05  1.531029E+06  4.535224E+05  4.107375E+05 -1.788965E+04  1.490327E+05
       219  22  2.867856E+03 -5.210645E+04  2.083432E+04  3.658487E+05 -5.202540E+04  1.531408E+04
       219  23  1.584422E+04 -5.875019E+04  3.774680E+04  3.257999E+05 -5.468032E+04  3.477054E+04
       219  24  7.051301E+04 -5.238993E+04  7.774293E+04  3.657736E+05 -1.800268E+04  5.421199E+04
       219  25 -1.996398E+05 -9.072427E+05 -1.361300E+05  3.691347E+05 -5.197525E+04  5.281280E+04
       219  26 -2.755945E+05 -1.271204E+06 -2.057496E+05  3.050069E+05 -5.472442E+04  6.215793E+03
       219  27 -3.213004E+05 -1.633486E+06 -2.981766E+05  3.209235E+05 -1.810220E+04 -4.036864E+04
       220   1  1.345988E+06  3.318248E+05  3.198652E+05  2.635401E+05  9.107614E+04 -1.548804E+04
       220   2  1.085477E+06  2.504595E+05  2.125399E+05  2.316030E+05  3.390762E+04 -4.802914E+04
       220   3  8.367865E+05  1.857298E+05  1.465578E+05  2.553773E+05 -2.321538E+04 -4.862372E+04
       220   4  5.188816E+04  1.196217E+04  1.353039E+04  2.560449E+05  9.423986E+03 -1.548078E+04
       220   5  5.075084E+04  2.461825E+03  6.567697E+03  2.281876E+05  6.037410E+03 -4.803677E+04
       220   6  5.205844E+04  2.881546E+02  3.655670E+03  2.560445E+05  2.670692E+03 -4.862263E+04
       220   7 -1.240661E+06 -3.080167E+05 -2.928956E+05  2.485650E+05 -7.205916E+04 -1.547157E+04
       220   8 -9.829516E+05 -2.456008E+05 -1.994551E+05  2.247778E+05 -2.178736E+04 -4.804412E+04
       220   9 -7.320701E+05 -1.851878E+05 -1.392686E+05  2.567106E+05  2.852496E+04 -4.862148E+04
       220  10  1.345979E+06  3.318223E+05  3.198492E+05  2.635413E+05  3.184164E-10 -7.258919E-11
       220  11  1.085475E+06  2.504567E+05  2.125334E+05  2.316043E+05  3.606441E-10 -1.275358E-11
       220  12  8.367853E+05  1.857271E+05  1.465523E+05  2.553764E+05  3.605654E-11  5.704425E-11
       220  13  5.188800E+04  1.196189E+04  1.352977E+04  2.560450E+05 -2.982661E-10  5.669180E-11
       220  14  5.075019E+04  2.459337E+03  6.563291E+03  2.281878E+05  3.584928E-11 -3.379384E-11
       220  15  5.205780E+04  2.856138E+02  3.651214E+03  2.560446E+05  3.333832E-10  5.411800E-12
       220  16 -1.240666E+06 -3.080184E+05 -2.929058E+05  2.485641E+05 -2.590454E-10 -1.462541E-10
       220  17 -9.829527E+05 -2.456034E+05 -1.994603E+05  2.247770E+05 -9.585470E-11  8.402244E-11
       220  18 -7.320716E+05 -1.851906E+05 -1.392746E+05  2.567118E+05  2.155989E-10  6.002750E-11
       220  19  1.345988E+06  3.318248E+05  3.198652E+05  2.635401E+05 -9.107614E+04  1.548804E+04
       220  20  1.085477E+06  2.504595E+05  2.125399E+05  2.316030E+05 -3.390762E+04  4.802914E+04
       220  21  8.367865E+05  1.857298E+05  1.465578E+05  2.553773E+05  2.321538E+04  4.862372E+04
       220  22  5.188816E+04  1.196217E+04  1.353039E+04  2.560449E+05 -9.423986E+03  1.548078E+04
       220  23  5.075084E+04  2.461825E+03  6.567697E+03  2.281876E+05 -6.037410E+03  4.803677E+04
       220  24  5.205844E+04  2.881546E+02  3.655670E+03  2.560445E+05 -2.670692E+03  4.862263E+04
       220  25 -1.240661E+06 -3.080167E+05 -2.928956E+05  2.485650E+05  7.205916E+04  1.547157E+04
       220  26 -9.829516E+05 -2.456008E+05 -1.994551E+05  2.247778E+05  2.178736E+04  4.804412E+04
       220  27 -7.320701E+05 -1.851878E+05 -1.392686E+05  2.567106E+05 -2.852496E+04  4.862148E+04
       221   1  6.688713E+05  1.462447E+05  1.143419E+05  2.567937E+05 -2.007771E+04 -3.904772E+04
       221   2  4.141010E+05  8.539031E+04  6.539981E+04  2.277358E+05 -2.523282E+04 -2.450621E+04
       221   3  1.603805E+05  2.567819E+04  2.010074E+04  2.564451E+05 -3.038979E+04 -7.363094E+03
       221   4  5.161156E+04  5.367034E+02  2.794440E+03  2.565017E+05  2.184960E+03 -3.904388E+04
       221   5  5.152574E+04  1.304185E+02  1.573774E+03  2.276170E+05  1.399998E+03 -2.449771E+04
       221   6  5.167235E+04  1.122534E+02  9.638240E+02  2.565019E+05  6.112373E+02 -7.349066E+03
       221   7 -5.652765E+05 -1.451924E+05 -1.087661E+05  2.562098E+05  2.442613E+04 -3.904006E+04
       221   8 -3.109194E+05 -8.513628E+04 -6.225439E+04  2.274984E+05  2.801773E+04 -2.448921E+04
       221   9 -5.702221E+04 -2.545382E+04 -1.816991E+04  2.565587E+05  3.160700E+04 -7.335029E+03
       221  10  6.688705E+05  1.462430E+05  1.143383E+05  2.567931E+05  1.337359E-10  5.000730E-11
       221  11  4.141001E+05  8.538950E+04  6.539749E+04  2.277353E+05  3.851234E-10  3.180509E-12
       221  12  1.603795E+05  2.567789E+04  2.009890E+04  2.564449E+05  4.966166E-10 -3.742854E-10
       221  13  5.161114E+04  5.350650E+02  2.791566E+03  2.565017E+05  4.663207E-10  4.486190E-11
       221  14  5.152558E+04  1.297735E+02  1.572642E+03  2.276171E+05  1.385126E-10  2.030348E-10
       221  15  5.167234E+04  1.121953E+02  9.637218E+02  2.565019E+05  2.741845E-10 -1.912806E-10
       221  16 -5.652776E+05 -1.451942E+05 -1.087701E+05  2.562106E+05  1.054822E-10  6.992629E-11
       221  17 -3.109204E+05 -8.513714E+04 -6.225699E+04  2.274989E+05  3.266677E-10  7.069687E-11
       221  18 -5.702329E+04 -2.545414E+04 -1.817189E+04  2.565589E+05 -3.118212E-10  7.869834E-12
       221  19  6.688713E+05  1.462447E+05  1.143419E+05  2.567937E+05  2.007771E+04  3.904772E+04
       221  20  4.141010E+05  8.539031E+04  6.539981E+04  2.277358E+05  2.523282E+04  2.450621E+04
       221  21  1.603805E+05  2.567819E+04  2.010074E+04  2.564451E+05  3.038979E+04  7.363094E+03
       221  22  5.161156E+04  5.367034E+02  2.794440E+03  2.565017E+05 -2.184960E+03  3.904388E+04
       221  23  5.152574E+04  1.304185E+02  1.573774E+03  2.276170E+05 -1.399998E+03  2.449771E+04
       221  24  5.167235E+04  1.122534E+02  9.638240E+02  2.565019E+05 -6.112373E+02  7.349066E+03
       221  25 -5.652765E+05 -1.451924E+05 -1.087661E+05  2.562098E+05 -2.442613E+04  3.904006E+04
       221  26 -3.109194E+05 -8.513628E+04 -6.225439E+04  2.274984E+05 -2.801773E+04  2.448921E+04
       221  27 -5.702221E+04 -2.545382E+04 -1.816991E+04  2.565587E+05 -3.160700E+04  7.335029E+03
       222   1 -5.671473E+03 -1.341333E+04 -9.606630E+03  2.564591E+05 -3.053209E+04  3.587864E+03
       222   2 -2.595171E+05 -7.317118E+04 -5.446280E+04  2.275330E+05 -2.663388E+04  2.079247E+04
       222   3 -5.139429E+05 -1.335856E+05 -1.020204E+05  2.563838E+05 -2.273397E+04  3.550978E+04
       222   4  5.164068E+04  1.264851E+02  7.800020E+02  2.565031E+05  4.527769E+02  3.602059E+03
       222   5  5.157338E+04  6.103189E+01  5.659033E+02  2.276156E+05  1.681234E+02  2.080171E+04
       222   6  5.158854E+04  6.806409E+01  5.542062E+02  2.565031E+05 -1.133156E+02  3.551479E+04
       222   7  1.089581E+05  1.366663E+04  1.117011E+04  2.565470E+05  3.144043E+04  3.616257E+03
       222   8  3.627600E+05  7.328831E+04  5.559374E+04  2.276982E+05  2.698317E+04  2.081094E+04
       222   9  6.174323E+05  1.337040E+05  1.031181E+05  2.566224E+05  2.252739E+04  3.551980E+04
       222  10 -5.672477E+03 -1.341360E+04 -9.608406E+03  2.564592E+05 -3.738964E-10 -2.568098E-10
       222  11 -2.595180E+05 -7.317183E+04 -5.446495E+04  2.275335E+05  2.668415E-10 -3.285590E-11
       222  12 -5.139437E+05 -1.335870E+05 -1.020237E+05  2.563845E+05 -5.669580E-11  1.026950E-10
       222  13  5.164068E+04  1.264711E+02  7.799772E+02  2.565031E+05 -2.534017E-10 -1.797276E-10
       222  14  5.157326E+04  6.056722E+01  5.650901E+02  2.276156E+05 -4.249892E-10 -1.548089E-10
       222  15  5.158820E+04  6.670963E+01  5.518358E+02  2.565031E+05  3.702020E-10 -6.463181E-11
       222  16  1.089570E+05  1.366635E+04  1.116823E+04  2.565470E+05  1.427414E-10 -9.200698E-11
       222  17  3.627591E+05  7.328765E+04  5.559156E+04  2.276978E+05  9.960674E-11  5.081723E-11
       222  18  6.174315E+05  1.337025E+05  1.031147E+05  2.566217E+05  2.567711E-10  6.234273E-11
       222  19 -5.671473E+03 -1.341333E+04 -9.606630E+03  2.564591E+05  3.053209E+04 -3.587864E+03
       222  20 -2.595171E+05 -7.317118E+04 -5.446280E+04  2.275330E+05  2.663388E+04 -2.079247E+04
       222  21 -5.139429E+05 -1.335856E+05 -1.020204E+05  2.563838E+05  2.273397E+04 -3.550978E+04
       222  22  5.164068E+04  1.264851E+02  7.800020E+02  2.565031E+05 -4.527769E+02 -3.602059E+03
       222  23  5.157338E+04  6.103189E+01  5.659033E+02  2.276156E+05 -1.681234E+02 -2.080171E+04
       222  24  5.158854E+04  6.806409E+01  5.542062E+02  2.565031E+05  1.133156E+02 -3.551479E+04
       222  25  1.089581E+05  1.366663E+04  1.117011E+04  2.565470E+05 -3.144043E+04 -3.616257E+03
       222  26  3.627600E+05  7.328831E+04  5.559374E+04  2.276982E+05 -2.698317E+04 -2.081094E+04
       222  27  6.174323E+05  1.337040E+05  1.031181E+05  2.566224E+05 -2.252739E+04 -3.551980E+04
       223   1 -6.810852E+05 -1.733830E+05 -1.332466E+05  2.560783E+05 -2.631146E+04  4.515230E+04
       223   2 -9.311470E+05 -2.357040E+05 -1.953284E+05  2.277424E+05  2.494194E+04  4.531774E+04
       223   3 -1.189666E+06 -3.060136E+05 -2.927744E+05  2.552164E+05  7.615511E+04  1.468626E+04
       223   4  5.163146E+04 -1.188880E+01  6.085306E+02  2.560654E+05 -2.132986E+02  4.515490E+04
       223   5  5.131941E+04  1.316660E+02  8.544386E+02  2.281627E+05 -6.303253E+02  4.531012E+04
       223   6  5.146978E+04  1.270793E+03  1.644716E+03  2.560654E+05 -1.064811E+03  1.469080E+04
       223   7  7.848715E+05  1.733293E+05  1.344445E+05  2.560523E+05  2.591486E+04  4.515749E+04
       223   8  1.034710E+06  2.359085E+05  1.969912E+05  2.285835E+05 -2.624229E+04  4.530248E+04
       223   9  1.294035E+06  3.084476E+05  2.959790E+05  2.569159E+05 -7.843854E+04  1.469514E+04
       223  10 -6.810865E+05 -1.733854E+05 -1.332517E+05  2.560792E+05 -6.535591E-11  7.251903E-11
       223  11 -9.311482E+05 -2.357064E+05 -1.953334E+05  2.277415E+05  4.761211E-10  7.219567E-11
       223  12 -1.189672E+06 -3.060154E+05 -2.927857E+05  2.552155E+05 -4.745263E-10 -5.646060E-11
       223  13  5.163091E+04 -1.407836E+01  6.046988E+02  2.560654E+05 -7.697508E-11  9.563251E-11
       223  14  5.131886E+04  1.294613E+02  8.505797E+02  2.281627E+05  3.075802E-10  9.764202E-11
       223  15  5.146973E+04  1.270561E+03  1.644308E+03  2.560654E+05 -4.808846E-10 -4.756972E-11
       223  16  7.848703E+05  1.733269E+05  1.344394E+05  2.560514E+05 -2.193733E-11  4.996164E-12
       223  17  1.034709E+06  2.359061E+05  1.969861E+05  2.285844E+05  2.427857E-10  5.841291E-11
       223  18  1.294028E+06  3.084458E+05  2.959670E+05  2.569168E+05  1.743402E-10 -4.759000E-11
       223  19 -6.810852E+05 -1.733830E+05 -1.332466E+05  2.560783E+05  2.631146E+04 -4.515230E+04
       223  20 -9.311470E+05 -2.357040E+05 -1.953284E+05  2.277424E+05 -2.494194E+04 -4.531774E+04
       223  21 -1.189666E+06 -3.060136E+05 -2.927744E+05  2.552164E+05 -7.615511E+04 -1.468626E+04
       223  22  5.163146E+04 -1.188880E+01  6.085306E+02  2.560654E+05  2.132986E+02 -4.515490E+04
       223  23  5.131941E+04  1.316660E+02  8.544386E+02  2.281627E+05  6.303253E+02 -4.531012E+04
       223  24  5.146978E+04  1.270793E+03  1.644716E+03  2.560654E+05  1.064811E+03 -1.469080E+04
       223  25  7.848715E+05  1.733293E+05  1.344445E+05  2.560523E+05 -2.591486E+04 -4.515749E+04
       223  26  1.034710E+06  2.359085E+05  1.969912E+05  2.285835E+05  2.624229E+04 -4.530248E+04
       223  27  1.294035E+06  3.084476E+05  2.959790E+05  2.569159E+05  7.843854E+04 -1.469514E+04
       224   1 -2.343812E+05 -9.615415E+05 -2.269720E+05  3.201660E+05 -9.106593E+03 -4.778155E+04
       224   2 -1.499224E+05 -6.400032E+05 -1.284317E+05  2.847143E+05 -2.459513E+04 -7.434235E+03
       224   3 -7.275209E+04 -3.255213E+05 -5.802991E+04  3.200553E+05 -1.596214E+04  3.292009E+04
       224   4 -2.988547E+02 -1.784938E+04 -8.120504E+02  3.204997E+05 -9.051021E+03 -1.468160E+03
       224   5  3.307606E+02 -1.772584E+04  3.085030E+02  2.851052E+05 -2.458583E+04 -1.592932E+03
       224   6  7.129875E+02 -1.772076E+04  1.425198E+03  3.204986E+05 -1.601019E+04 -1.732212E+03
       224   7  2.337200E+05  9.266640E+05  2.252930E+05  3.208335E+05 -8.995456E+03  4.491542E+04
       224   8  1.505594E+05  6.049189E+05  1.290278E+05  2.854963E+05 -2.457653E+04  4.254131E+03
       224   9  7.417307E+04  2.901735E+05  6.088041E+04  3.209421E+05 -1.605827E+04 -3.640131E+04
       224  10 -2.343819E+05 -9.615440E+05 -2.269765E+05  3.201656E+05  2.022521E-12 -2.272317E-10
       224  11 -1.499230E+05 -6.400034E+05 -1.284329E+05  2.847141E+05  3.094316E-10 -1.376599E-10
       224  12 -7.275265E+04 -3.255226E+05 -5.803243E+04  3.200558E+05 -6.431772E-10 -1.818836E-10
       224  13 -2.989433E+02 -1.784941E+04 -8.122084E+02  3.204997E+05 -1.407190E-11  1.903292E-10
       224  14  3.301109E+02 -1.772601E+04  3.073624E+02  2.851051E+05  9.437519E-10 -4.561019E-10
       224  15  7.127114E+02 -1.772083E+04  1.424711E+03  3.204986E+05 -8.455763E-11  4.625056E-10
       224  16  2.337194E+05  9.266618E+05  2.252890E+05  3.208338E+05  3.032088E-12 -2.276158E-11
       224  17  1.505587E+05  6.049187E+05  1.290267E+05  2.854964E+05 -9.617624E-11  2.463554E-10
       224  18  7.417244E+04  2.901720E+05  6.087744E+04  3.209416E+05  2.122565E-11  2.811906E-10
       224  19 -2.343812E+05 -9.615415E+05 -2.269720E+05  3.201660E+05  9.106593E+03  4.778155E+04
       224  20 -1.499224E+05 -6.400032E+05 -1.284317E+05  2.847143E+05  2.459513E+04  7.434235E+03
       224  21 -7.275209E+04 -3.255213E+05 -5.802991E+04  3.200553E+05  1.596214E+04 -3.292009E+04
       224  22 -2.988547E+02 -1.784938E+04 -8.120504E+02  3.204997E+05  9.051021E+03  1.468160E+03
       224  23  3.307606E+02 -1.772584E+04  3.085030E+02  2.851052E+05  2.458583E+04  1.592932E+03
       224  24  7.129875E+02 -1.772076E+04  1.425198E+03  3.204986E+05  1.601019E+04  1.732212E+03
       224  25  2.337200E+05  9.266640E+05  2.252930E+05  3.208335E+05  8.995456E+03 -4.491542E+04
       224  26  1.505594E+05  6.049189E+05  1.290278E+05  2.854963E+05  2.457653E+04 -4.254131E+03
       224  27  7.417307E+04  2.901735E+05  6.088041E+04  3.209421E+05  1.605827E+04  3.640131E+04
       225   1 -2.336885E+04 -1.167361E+05 -1.902070E+04  3.204738E+05 -3.319081E+03  3.016066E+04
       225   2  5.215171E+04  2.008823E+05  4.186328E+04  2.850820E+05  1.540595E+04  2.662487E+04
       225   3  1.290789E+05  5.192821E+05  1.053552E+05  3.218540E+05  3.322511E+04  2.309117E+04
       225   4  6.863866E+02 -1.758485E+04  2.090399E+03  3.208050E+05 -3.365044E+03 -2.067704E+03
       225   5  8.441741E+02 -1.781789E+04  4.003940E+03  2.847214E+05  1.536470E+04 -4.087993E+03
       225   6  2.150594E+03 -1.763066E+04  7.473135E+03  3.208030E+05  3.318822E+04 -6.104481E+03
       225   7  2.474154E+04  8.157792E+04  2.320484E+04  3.211362E+05 -3.411038E+03 -3.430113E+04
       225   8 -5.046543E+04 -2.364692E+05 -3.385352E+04  2.843609E+05  1.532348E+04 -3.479038E+04
       225   9 -1.247936E+05 -5.542616E+05 -9.041728E+04  3.197527E+05  3.315141E+04 -3.527558E+04
       225  10 -2.336911E+04 -1.167371E+05 -1.902243E+04  3.204739E+05 -1.002481E-10  2.649876E-10
       225  11  5.215126E+04  2.008815E+05  4.186151E+04  2.850816E+05 -1.407423E-10  4.375821E-10
       225  12  1.290776E+05  5.192813E+05  1.053521E+05  3.218534E+05  6.406585E-10  4.763604E-10
       225  13  6.863733E+02 -1.758486E+04  2.090370E+03  3.208050E+05 -1.190743E-10  2.535489E-10
       225  14  8.439161E+02 -1.781797E+04  4.003465E+03  2.847214E+05 -7.900448E-10 -4.368136E-10
       225  15  2.149401E+03 -1.763100E+04  7.470995E+03  3.208031E+05 -4.327759E-10  4.689038E-10
       225  16  2.474122E+04  8.157666E+04  2.320261E+04  3.211361E+05 -1.211559E-10 -6.499531E-10
       225  17 -5.046601E+04 -2.364705E+05 -3.385623E+04  2.843613E+05  8.278204E-10 -2.561117E-10
       225  18 -1.247951E+05 -5.542632E+05 -9.042169E+04  3.197536E+05  5.664454E-10 -3.919534E-10
       225  19 -2.336885E+04 -1.167361E+05 -1.902070E+04  3.204738E+05  3.319081E+03 -3.016066E+04
       225  20  5.215171E+04  2.008823E+05  4.186328E+04  2.850820E+05 -1.540595E+04 -2.662487E+04
       225  21  1.290789E+05  5.192821E+05  1.053552E+05  3.218540E+05 -3.322511E+04 -2.309117E+04
       225  22  6.863866E+02 -1.758485E+04  2.090399E+03  3.208050E+05  3.365044E+03  2.067704E+03
       225  23  8.441741E+02 -1.781789E+04  4.003940E+03  2.847214E+05 -1.536470E+04  4.087993E+03
       225  24  2.150594E+03 -1.763066E+04  7.473135E+03  3.208030E+05 -3.318822E+04  6.104481E+03
       225  25  2.474154E+04  8.157792E+04  2.320484E+04  3.211362E+05  3.411038E+03  3.430113E+04
       225  26 -5.046543E+04 -2.364692E+05 -3.385352E+04  2.843609E+05 -1.532348E+04  3.479038E+04
       225  27 -1.247936E+05 -5.542616E+05 -9.041728E+04  3.197527E+05 -3.315141E+04  3.527558E+04
       226   1  1.781102E+05  7.298076E+05  1.467217E+05  3.189859E+05  4.539137E+04  2.548452E+04
       226   2  2.619881E+05  1.040024E+06  2.304835E+05  2.954886E+05  4.769803E+04 -4.155078E+04
       226   3  3.758309E+05  1.366569E+06  3.653356E+05  3.420594E+05  1.566115E+04 -1.086110E+05
       226   4  1.569213E+03 -1.638935E+04  9.865073E+03  3.203403E+05  4.535408E+04 -7.407808E+03
       226   5  7.662488E+03 -1.961674E+04  1.795233E+04  2.852906E+05  4.773146E+04 -1.665291E+04
       226   6  3.372881E+04 -1.660721E+04  3.704627E+04  3.203098E+05  1.574094E+04 -2.588750E+04
       226   7 -1.750028E+05 -7.620438E+05 -1.270103E+05  3.216928E+05  4.531662E+04 -4.026169E+04
       226   8 -2.467316E+05 -1.078186E+06 -1.946335E+05  2.751099E+05  4.776412E+04  8.203362E+03
       226   9 -3.085054E+05 -1.398013E+06 -2.913505E+05  2.986081E+05  1.581508E+04  5.665301E+04
       226  10  1.781078E+05  7.298063E+05  1.467166E+05  3.189850E+05  1.858147E-10 -8.839869E-10
       226  11  2.619852E+05  1.040021E+06  2.304760E+05  2.954902E+05 -2.258718E-10 -4.251578E-10
       226  12  3.758274E+05  1.366556E+06  3.653130E+05  3.420607E+05  2.221551E-10  2.352725E-10
       226  13  1.566989E+03 -1.638996E+04  9.861103E+03  3.203406E+05  1.090660E-09  1.857327E-10
       226  14  7.659966E+03 -1.961765E+04  1.794752E+04  2.852913E+05 -5.588989E-10 -3.157185E-10
       226  15  3.372836E+04 -1.660799E+04  3.704455E+04  3.203102E+05  7.483034E-12  2.472307E-10
       226  16 -1.750054E+05 -7.620461E+05 -1.270172E+05  3.216943E+05 -2.123308E-10  5.441853E-10
       226  17 -2.467340E+05 -1.078186E+06 -1.946379E+05  2.751096E+05 -3.488382E-10  6.211263E-10
       226  18 -3.085066E+05 -1.398016E+06 -2.913570E+05  2.986074E+05  1.278459E-10 -1.572354E-10
       226  19  1.781102E+05  7.298076E+05  1.467217E+05  3.189859E+05 -4.539137E+04 -2.548452E+04
       226  20  2.619881E+05  1.040024E+06  2.304835E+05  2.954886E+05 -4.769803E+04  4.155078E+04
       226  21  3.758309E+05  1.366569E+06  3.653356E+05  3.420594E+05 -1.566115E+04  1.086110E+05
       226  22  1.569213E+03 -1.638935E+04  9.865073E+03  3.203403E+05 -4.535408E+04  7.407808E+03
       226  23  7.662488E+03 -1.961674E+04  1.795233E+04  2.852906E+05 -4.773146E+04  1.665291E+04
       226  24  3.372881E+04 -1.660721E+04  3.704627E+04  3.203098E+05 -1.574094E+04  2.588750E+04
       226  25 -1.750028E+05 -7.620438E+05 -1.270103E+05  3.216928E+05 -4.531662E+04  4.026169E+04
       226  26 -2.467316E+05 -1.078186E+06 -1.946335E+05  2.751099E+05 -4.776412E+04 -8.203362E+03
       226  27 -3.085054E+05 -1.398013E+06 -2.913505E+05  2.986081E+05 -1.581508E+04 -5.665301E+04
       227   1  1.343211E+06  3.152138E+05  3.049849E+05  2.516725E+05  8.996392E+04 -1.431410E+04
       227   2  1.098403E+06  2.332943E+05  2.007526E+05  2.191844E+05  3.480718E+04 -4.432209E+04
       227   3  8.659207E+05  1.712327E+05  1.373575E+05  2.389506E+05 -2.031088E+04 -4.469137E+04
       227   4  1.433028E+05  1.863841E+04  2.091225E+04  2.400015E+05  1.451450E+04 -1.430925E+04
       227   5  1.415575E+05  3.955875E+03  1.019673E+04  2.138734E+05  9.254352E+03 -4.432893E+04
       227   6  1.434514E+05  4.994329E+02  5.724118E+03  2.400011E+05  4.011024E+03 -4.469012E+04
       227   7 -1.055273E+06 -2.780367E+05 -2.632390E+05  2.283530E+05 -6.079013E+04 -1.430159E+04
       227   8 -8.144133E+05 -2.254381E+05 -1.804025E+05  2.085706E+05 -1.625996E+04 -4.433535E+04
       227   9 -5.785098E+05 -1.702629E+05 -1.259280E+05  2.410502E+05  2.830542E+04 -4.468878E+04
       227  10  1.343203E+06  3.152114E+05  3.049694E+05  2.516735E+05  2.099570E-10  1.255333E-10
       227  11  1.098401E+06  2.332919E+05  2.007466E+05  2.191857E+05  9.157549E-11  2.629902E-10
       227  12  8.659198E+05  1.712304E+05  1.373530E+05  2.389499E+05  2.211693E-10  1.364593E-10
       227  13  1.433025E+05  1.863814E+04  2.091147E+04  2.400017E+05 -3.219006E-12 -2.997851E-11
       227  14  1.415569E+05  3.953742E+03  1.019288E+04  2.138738E+05  2.148461E-10 -1.231028E-10
       227  15  1.434509E+05  4.972837E+02  5.720335E+03  2.400012E+05  3.531636E-10  3.758519E-11
       227  16 -1.055277E+06 -2.780379E+05 -2.632463E+05  2.283523E+05 -1.863195E-11  1.893293E-11
       227  17 -8.144141E+05 -2.254403E+05 -1.804067E+05  2.085701E+05 -7.585518E-10 -2.175764E-10
       227  18 -5.785112E+05 -1.702653E+05 -1.259333E+05  2.410512E+05  4.366522E-11 -5.619349E-12
       227  19  1.343211E+06  3.152138E+05  3.049849E+05  2.516725E+05 -8.996392E+04  1.431410E+04
       227  20  1.098403E+06  2.332943E+05  2.007526E+05  2.191844E+05 -3.480718E+04  4.432209E+04
       227  21  8.659207E+05  1.712327E+05  1.373575E+05  2.389506E+05  2.031088E+04  4.469137E+04
       227  22  1.433028E+05  1.863841E+04  2.091225E+04  2.400015E+05 -1.451450E+04  1.430925E+04
       227  23  1.415575E+05  3.955875E+03  1.019673E+04  2.138734E+05 -9.254352E+03  4.432893E+04
       227  24  1.434514E+05  4.994329E+02  5.724118E+03  2.400011E+05 -4.011024E+03  4.469012E+04
       227  25 -1.055273E+06 -2.780367E+05 -2.632390E+05  2.283530E+05  6.079013E+04  1.430159E+04
       227  26 -8.144133E+05 -2.254381E+05 -1.804025E+05  2.085706E+05  1.625996E+04  4.433535E+04
       227  27 -5.785098E+05 -1.702629E+05 -1.259280E+05  2.410502E+05 -2.830542E+04  4.468878E+04
       228   1  7.082888E+05  1.343411E+05  1.067005E+05  2.408375E+05 -1.771221E+04 -3.570126E+04
       228   2  4.694385E+05  7.702482E+04  6.023869E+04  2.135136E+05 -2.307939E+04 -2.203093E+04
       228   3  2.316971E+05  2.101450E+04  1.759849E+04  2.403312E+05 -2.844779E+04 -5.951694E+03
       228   4  1.427593E+05  8.384086E+02  4.431457E+03  2.404212E+05  3.248307E+03 -3.569764E+04
       228   5  1.426092E+05  1.643947E+02  2.647656E+03  2.133496E+05  1.928244E+03 -2.202334E+04
       228   6  1.428108E+05  9.708437E+01  1.876832E+03  2.404215E+05  6.049956E+02 -5.939391E+03
       228   7 -4.224583E+05 -1.326820E+05 -9.784853E+04  2.400052E+05  2.419028E+04 -3.569405E+04
       228   8 -1.841143E+05 -7.670154E+04 -5.494493E+04  2.131858E+05  2.692311E+04 -2.201575E+04
       228   9  5.393390E+04 -2.082031E+04 -1.384195E+04  2.405117E+05  2.965374E+04 -5.927078E+03
       228  10  7.082882E+05  1.343397E+05  1.066975E+05  2.408370E+05 -1.004045E-10  1.139507E-10
       228  11  4.694378E+05  7.702416E+04  6.023678E+04  2.135132E+05  8.373986E-10  2.310408E-11
       228  12  2.316963E+05  2.101425E+04  1.759691E+04  2.403311E+05  1.962741E-10  2.939529E-11
       228  13  1.427589E+05  8.370373E+02  4.429042E+03  2.404213E+05  1.996918E-10  3.724651E-11
       228  14  1.426091E+05  1.638729E+02  2.646737E+03  2.133497E+05  2.854360E-10  1.779733E-10
       228  15  1.428107E+05  9.704639E+01  1.876765E+03  2.404215E+05  8.350541E-11  1.708632E-10
       228  16 -4.224592E+05 -1.326835E+05 -9.785202E+04  2.400059E+05  4.527495E-11  7.013226E-11
       228  17 -1.841152E+05 -7.670226E+04 -5.494721E+04  2.131862E+05 -2.890096E-10 -2.397808E-11
       228  18  5.393294E+04 -2.082059E+04 -1.384367E+04  2.405118E+05 -3.345167E-10  1.333910E-11
       228  19  7.082888E+05  1.343411E+05  1.067005E+05  2.408375E+05  1.771221E+04  3.570126E+04
       228  20  4.694385E+05  7.702482E+04  6.023869E+04  2.135136E+05  2.307939E+04  2.203093E+04
       228  21  2.316971E+05  2.101450E+04  1.759849E+04  2.403312E+05  2.844779E+04  5.951694E+03
       228  22  1.427593E+05  8.384086E+02  4.431457E+03  2.404212E+05 -3.248307E+03  3.569764E+04
       228  23  1.426092E+05  1.643947E+02  2.647656E+03  2.133496E+05 -1.928244E+03  2.202334E+04
       228  24  1.428108E+05  9.708437E+01  1.876832E+03  2.404215E+05 -6.049956E+02  5.939391E+03
       228  25 -4.224583E+05 -1.326820E+05 -9.784853E+04  2.400052E+05 -2.419028E+04  3.569405E+04
       228  26 -1.841143E+05 -7.670154E+04 -5.494493E+04  2.131858E+05 -2.692311E+04  2.201575E+04
       228  27  5.393390E+04 -2.082031E+04 -1.384195E+04  2.405117E+05 -2.965374E+04  5.927078E+03
       229   1  7.607109E+04 -1.562239E+04 -1.022311E+04  2.404233E+05 -2.875897E+04  4.311202E+03
       229   2 -1.619256E+05 -7.157450E+04 -5.199457E+04  2.132132E+05 -2.569006E+04  2.042150E+04
       229   3 -4.003234E+05 -1.278749E+05 -9.584900E+04  2.401520E+05 -2.261936E+04  3.417164E+04
       229   4  1.427840E+05  1.080388E+02  1.722919E+03  2.404223E+05  2.851608E+02  4.323577E+03
       229   5  1.426459E+05  1.010008E+02  1.802985E+03  2.133487E+05 -6.155353E+02  2.042938E+04
       229   6  1.427361E+05  4.362216E+02  2.554359E+03  2.404222E+05 -1.513263E+03  3.417571E+04
       229   7  2.095031E+05  1.583867E+04  1.367194E+04  2.404213E+05  2.933232E+04  4.335951E+03
       229   8  4.473095E+05  7.177176E+04  5.559949E+04  2.134842E+05  2.447093E+04  2.043728E+04
       229   9  6.860836E+05  1.287310E+05  1.009477E+05  2.406925E+05  1.961080E+04  3.417980E+04
       229  10  7.607020E+04 -1.562263E+04 -1.022470E+04  2.404234E+05 -2.677645E-12 -3.290950E-11
       229  11 -1.619264E+05 -7.157513E+04 -5.199659E+04  2.132136E+05  5.229875E-11  3.429404E-10
       229  12 -4.003242E+05 -1.278763E+05 -9.585216E+04  2.401527E+05 -3.173488E-11  1.569834E-10
       229  13  1.427840E+05  1.080187E+02  1.722883E+03  2.404223E+05  2.873167E-10 -4.857403E-11
       229  14  1.426458E+05  1.005525E+02  1.802200E+03  2.133487E+05 -5.952401E-11 -1.100204E-10
       229  15  1.427358E+05  4.349667E+02  2.552160E+03  2.404222E+05 -2.160384E-10  1.758230E-10
       229  16  2.095022E+05  1.583842E+04  1.367029E+04  2.404212E+05  2.447310E-10 -8.702561E-11
       229  17  4.473087E+05  7.177115E+04  5.559758E+04  2.134838E+05  2.452554E-11 -2.020827E-11
       229  18  6.860829E+05  1.287296E+05  1.009448E+05  2.406920E+05  1.423248E-12  1.711198E-10
       229  19  7.607109E+04 -1.562239E+04 -1.022311E+04  2.404233E+05  2.875897E+04 -4.311202E+03
       229  20 -1.619256E+05 -7.157450E+04 -5.199457E+04  2.132132E+05  2.569006E+04 -2.042150E+04
       229  21 -4.003234E+05 -1.278749E+05 -9.584900E+04  2.401520E+05  2.261936E+04 -3.417164E+04
       229  22  1.427840E+05  1.080388E+02  1.722919E+03  2.404223E+05 -2.851608E+02 -4.323577E+03
       229  23  1.426459E+05  1.010008E+02  1.802985E+03  2.133487E+05  6.155353E+02 -2.042938E+04
       229  24  1.427361E+05  4.362216E+02  2.554359E+03  2.404222E+05  1.513263E+03 -3.417571E+04
       229  25  2.095031E+05  1.583867E+04  1.367194E+04  2.404213E+05 -2.933232E+04 -4.335951E+03
       229  26  4.473095E+05  7.177176E+04  5.559949E+04  2.134842E+05 -2.447093E+04 -2.043728E+04
       229  27  6.860836E+05  1.287310E+05  1.009477E+05  2.406925E+05 -1.961080E+04 -3.417980E+04
       230   1 -5.566953E+05 -1.653055E+05 -1.245699E+05  2.405142E+05 -2.635223E+04  4.319273E+04
       230   2 -7.918405E+05 -2.221300E+05 -1.809452E+05  2.110808E+05  1.981761E+04  4.315936E+04
       230   3 -1.033454E+06 -2.815336E+05 -2.680194E+05  2.339323E+05  6.595375E+04  1.396240E+04
       230   4  1.430895E+05  2.364388E+02  3.171229E+03  2.400070E+05 -1.952764E+03  4.319464E+04
       230   5  1.420242E+05  1.989706E+03  5.409371E+03  2.138670E+05 -4.723453E+03  4.315283E+04
       230   6  1.429449E+05  9.669073E+03  1.095446E+04  2.400071E+05 -7.510129E+03  1.396799E+04
       230   7  8.433517E+05  1.657511E+05  1.308948E+05  2.394990E+05  2.247348E+04  4.319650E+04
       230   8  1.076724E+06  2.260563E+05  1.917225E+05  2.166574E+05 -2.930071E+04  4.314608E+04
       230   9  1.320628E+06  3.007753E+05  2.898523E+05  2.460933E+05 -8.111265E+04  1.397215E+04
       230  10 -5.566966E+05 -1.653077E+05 -1.245747E+05  2.405151E+05  4.485916E-11  1.299217E-10
       230  11 -7.918415E+05 -2.221321E+05 -1.809495E+05  2.110801E+05  4.961269E-10  1.365952E-10
       230  12 -1.033459E+06 -2.815350E+05 -2.680279E+05  2.339316E+05 -1.973296E-10  1.277002E-10
       230  13  1.430890E+05  2.344341E+02  3.167716E+03  2.400070E+05 -3.088927E-11  2.157741E-10
       230  14  1.420237E+05  1.987700E+03  5.405829E+03  2.138672E+05  2.607944E-10 -1.227740E-10
       230  15  1.429448E+05  9.668848E+03  1.095399E+04  2.400072E+05  4.365568E-11  5.105274E-11
       230  16  8.433507E+05  1.657489E+05  1.308904E+05  2.394982E+05  2.603929E-10  2.093588E-10
       230  17  1.076722E+06  2.260541E+05  1.917173E+05  2.166584E+05  2.770663E-10 -3.114740E-11
       230  18  1.320621E+06  3.007733E+05  2.898396E+05  2.460942E+05  9.801823E-11  6.799720E-11
       230  19 -5.566953E+05 -1.653055E+05 -1.245699E+05  2.405142E+05  2.635223E+04 -4.319273E+04
       230  20 -7.918405E+05 -2.221300E+05 -1.809452E+05  2.110808E+05 -1.981761E+04 -4.315936E+04
       230  21 -1.033454E+06 -2.815336E+05 -2.680194E+05  2.339323E+05 -6.595375E+04 -1.396240E+04
       230  22  1.430895E+05  2.364388E+02  3.171229E+03  2.400070E+05  1.952764E+03 -4.319464E+04
       230  23  1.420242E+05  1.989706E+03  5.409371E+03  2.138670E+05  4.723453E+03 -4.315283E+04
       230  24  1.429449E+05  9.669073E+03  1.095446E+04  2.400071E+05  7.510129E+03 -1.396799E+04
       230  25  8.433517E+05  1.657511E+05  1.308948E+05  2.394990E+05 -2.247348E+04 -4.319650E+04
       230  26  1.076724E+06  2.260563E+05  1.917225E+05  2.166574E+05  2.930071E+04 -4.314608E+04
       230  27  1.320628E+06  3.007753E+05  2.898523E+05  2.460933E+05  8.111265E+04 -1.397215E+04
       231   1 -2.238995E+05 -8.733315E+05 -2.181476E+05  3.000439E+05 -8.363147E+03 -4.965099E+04
       231   2 -1.395510E+05 -5.766693E+05 -1.232831E+05  2.645078E+05 -2.257022E+04 -9.832770E+03
       231   3 -6.699312E+04 -2.881248E+05 -5.733212E+04  2.941067E+05 -1.461203E+04  2.999281E+04
       231   4 -8.831048E+03 -6.196034E+03 -1.034109E+04  2.948973E+05 -8.315764E+03 -7.136544E+03
       231   5 -1.593362E+03 -5.274946E+03 -5.058625E+03  2.623266E+05 -2.256237E+04 -4.509815E+03
       231   6  3.258189E+02 -6.087358E+03 -2.835629E+03  2.948882E+05 -1.465269E+04 -1.895315E+03
       231   7  2.061839E+05  8.616328E+05  1.974190E+05  2.897432E+05 -8.269132E+03  3.543710E+04
       231   8  1.363436E+05  5.664292E+05  1.131482E+05  2.601432E+05 -2.255457E+04  8.179595E+02
       231   9  6.764057E+04  2.760288E+05  5.166097E+04  2.956701E+05 -1.469342E+04 -3.379760E+04
       231  10 -2.239003E+05 -8.733341E+05 -2.181524E+05  3.000435E+05  1.208197E-10 -3.055858E-10
       231  11 -1.395515E+05 -5.766696E+05 -1.232842E+05  2.645077E+05  1.446938E-10  8.854158E-11
       231  12 -6.699359E+04 -2.881258E+05 -5.733421E+04  2.941070E+05 -5.337809E-10 -2.166113E-10
       231  13 -8.831136E+03 -6.196108E+03 -1.034132E+04  2.948973E+05 -7.959829E-10 -9.303370E-12
       231  14 -1.593914E+03 -5.275105E+03 -5.059620E+03  2.623266E+05  8.380021E-10 -2.143421E-10
       231  15  3.255874E+02 -6.087419E+03 -2.836039E+03  2.948882E+05 -2.125864E-10 -5.639536E-11
       231  16  2.061835E+05  8.616314E+05  1.974165E+05  2.897434E+05  1.895529E-10  4.598550E-10
       231  17  1.363430E+05  5.664290E+05  1.131473E+05  2.601433E+05 -7.706011E-10 -2.056754E-10
       231  18  6.764003E+04  2.760275E+05  5.165842E+04  2.956697E+05  2.494594E-10  5.597465E-10
       231  19 -2.238995E+05 -8.733315E+05 -2.181476E+05  3.000439E+05  8.363147E+03  4.965099E+04
       231  20 -1.395510E+05 -5.766693E+05 -1.232831E+05  2.645078E+05  2.257022E+04  9.832770E+03
       231  21 -6.699312E+04 -2.881248E+05 -5.733212E+04  2.941067E+05  1.461203E+04 -2.999281E+04
       231  22 -8.831048E+03 -6.196034E+03 -1.034109E+04  2.948973E+05  8.315764E+03  7.136544E+03
       231  23 -1.593362E+03 -5.274946E+03 -5.058625E+03  2.623266E+05  2.256237E+04  4.509815E+03
       231  24  3.258189E+02 -6.087358E+03 -2.835629E+03  2.948882E+05  1.465269E+04  1.895315E+03
       231  25  2.061839E+05  8.616328E+05  1.974190E+05  2.897432E+05  8.269132E+03 -3.543710E+04
       231  26  1.363436E+05  5.664292E+05  1.131482E+05  2.601432E+05  2.255457E+04 -8.179595E+02
       231  27  6.764057E+04  2.760288E+05  5.166097E+04  2.956701E+05  1.469342E+04  3.379760E+04
       232   1 -2.165053E+04 -9.581396E+04 -2.143612E+04  2.952845E+05 -2.977314E+03  2.812151E+04
       232   2  4.792298E+04  1.967367E+05  3.364112E+04  2.621682E+05  1.425699E+04  2.739546E+04
       232   3  1.174948E+05  4.893563E+05  8.915258E+04  2.954467E+05  3.065326E+04  2.667233E+04
       232   4  2.080012E+02 -5.745894E+03 -2.215897E+03  2.951701E+05 -3.016245E+03 -1.539111E+03
       232   5  4.465693E+02 -5.636317E+03 -1.391427E+03  2.619719E+05  1.422209E+04 -8.632630E+02
       232   6  4.439340E+02 -5.784936E+03 -1.106900E+03  2.951698E+05  3.062210E+04 -1.841727E+02
       232   7  2.206647E+04  8.433170E+04  1.700717E+04  2.950557E+05 -3.055162E+03 -3.120397E+04
       232   8 -4.703162E+04 -2.079675E+05 -3.642239E+04  2.617756E+05  1.418721E+04 -2.911306E+04
       232   9 -1.166204E+05 -5.006864E+05 -9.137354E+04  2.948930E+05  3.059094E+04 -2.701985E+04
       232  10 -2.165075E+04 -9.581481E+04 -2.143763E+04  2.952846E+05 -3.081118E-10 -7.917334E-10
       232  11  4.792256E+04  1.967358E+05  3.363933E+04  2.621679E+05 -6.183457E-10  2.678788E-10
       232  12  1.174936E+05  4.893552E+05  8.914948E+04  2.954460E+05  2.770197E-10  6.541042E-10
       232  13  2.079908E+02 -5.745899E+03 -2.215918E+03  2.951701E+05 -3.130740E-10  1.585102E-11
       232  14  4.463519E+02 -5.636372E+03 -1.391809E+03  2.619719E+05 -6.846521E-10 -2.342159E-10
       232  15  4.429270E+02 -5.785188E+03 -1.108662E+03  2.951698E+05 -8.044742E-10 -3.306090E-11
       232  16  2.206620E+04  8.433065E+04  1.700532E+04  2.950556E+05  9.156107E-11  1.066865E-09
       232  17 -4.703206E+04 -2.079684E+05 -3.642437E+04  2.617759E+05 -4.514402E-10 -2.691951E-10
       232  18 -1.166216E+05 -5.006875E+05 -9.137667E+04  2.948937E+05  1.871351E-10 -4.334575E-10
       232  19 -2.165053E+04 -9.581396E+04 -2.143612E+04  2.952845E+05  2.977314E+03 -2.812151E+04
       232  20  4.792298E+04  1.967367E+05  3.364112E+04  2.621682E+05 -1.425699E+04 -2.739546E+04
       232  21  1.174948E+05  4.893563E+05  8.915258E+04  2.954467E+05 -3.065326E+04 -2.667233E+04
       232  22  2.080012E+02 -5.745894E+03 -2.215897E+03  2.951701E+05  3.016245E+03  1.539111E+03
       232  23  4.465693E+02 -5.636317E+03 -1.391427E+03  2.619719E+05 -1.422209E+04  8.632630E+02
       232  24  4.439340E+02 -5.784936E+03 -1.106900E+03  2.951698E+05 -3.062210E+04  1.841727E+02
       232  25  2.206647E+04  8.433170E+04  1.700717E+04  2.950557E+05  3.055162E+03  3.120397E+04
       232  26 -4.703162E+04 -2.079675E+05 -3.642239E+04  2.617756E+05 -1.418721E+04  2.911306E+04
       232  27 -1.166204E+05 -5.006864E+05 -9.137354E+04  2.948930E+05 -3.059094E+04  2.701985E+04
       233   1  1.631091E+05  6.818379E+05  1.250283E+05  2.953595E+05  4.184783E+04  3.023655E+04
       233   2  2.340270E+05  9.702998E+05  1.943374E+05  2.624925E+05  4.396784E+04 -2.221847E+04
       233   3  3.130679E+05  1.267723E+06  2.997958E+05  2.940878E+05  1.445877E+04 -7.468958E+04
       233   4  4.042250E+02 -5.846270E+03 -1.092030E+03  2.947412E+05  4.181623E+04 -2.747725E+01
       233   5 -2.243453E+02 -5.769501E+03 -1.425227E+03  2.625081E+05  4.399562E+04  7.258180E+02
       233   6 -1.950089E+03 -6.031183E+03 -2.528183E+03  2.947431E+05  1.452304E+04  1.487858E+03
       233   7 -1.623270E+05 -6.930697E+05 -1.272282E+05  2.941234E+05  4.178467E+04 -3.025890E+04
       233   8 -2.345341E+05 -9.809297E+05 -1.972343E+05  2.625233E+05  4.402343E+04  2.363478E+04
       233   9 -3.170817E+05 -1.278285E+06 -3.049435E+05  2.953963E+05  1.458756E+04  7.751003E+04
       233  10  1.631070E+05  6.818365E+05  1.250233E+05  2.953585E+05 -2.128333E-11 -7.786548E-10
       233  11  2.340248E+05  9.702988E+05  1.943328E+05  2.624933E+05 -2.154491E-10 -8.075840E-11
       233  12  3.130662E+05  1.267717E+06  2.997849E+05  2.940887E+05  1.053907E-10  1.459234E-10
       233  13  4.023474E+02 -5.846739E+03 -1.095316E+03  2.947412E+05  3.928113E-10 -7.277699E-13
       233  14 -2.264239E+02 -5.770021E+03 -1.428865E+03  2.625081E+05 -7.600550E-10 -1.477707E-10
       233  15 -1.950316E+03 -6.031242E+03 -2.528584E+03  2.947430E+05 -6.616880E-11 -4.695281E-11
       233  16 -1.623291E+05 -6.930711E+05 -1.272333E+05  2.941244E+05 -5.530312E-11  9.386181E-10
       233  17 -2.345363E+05 -9.809308E+05 -1.972390E+05  2.625225E+05 -5.586708E-10  1.198652E-10
       233  18 -3.170835E+05 -1.278292E+06 -3.049552E+05  2.953954E+05  8.460881E-11 -9.128979E-11
       233  19  1.631091E+05  6.818379E+05  1.250283E+05  2.953595E+05 -4.184783E+04 -3.023655E+04
       233  20  2.340270E+05  9.702998E+05  1.943374E+05  2.624925E+05 -4.396784E+04  2.221847E+04
       233  21  3.130679E+05  1.267723E+06  2.997958E+05  2.940878E+05 -1.445877E+04  7.468958E+04
       233  22  4.042250E+02 -5.846270E+03 -1.092030E+03  2.947412E+05 -4.181623E+04  2.747725E+01
       233  23 -2.243453E+02 -5.769501E+03 -1.425227E+03  2.625081E+05 -4.399562E+04 -7.258180E+02
       233  24 -1.950089E+03 -6.031183E+03 -2.528183E+03  2.947431E+05 -1.452304E+04 -1.487858E+03
       233  25 -1.623270E+05 -6.930697E+05 -1.272282E+05  2.941234E+05 -4.178467E+04  3.025890E+04
       233  26 -2.345341E+05 -9.809297E+05 -1.972343E+05  2.625233E+05 -4.402343E+04 -2.363478E+04
       233  27 -3.170817E+05 -1.278285E+06 -3.049435E+05  2.953963E+05 -1.458756E+04 -7.751003E+04
       234   1  1.361147E+06  3.075517E+05  2.979269E+05  2.492022E+05  8.834087E+04 -1.380182E+04
       234   2  1.119734E+06  2.256146E+05  1.950542E+05  2.165600E+05  3.424406E+04 -4.262946E+04
       234   3  8.906538E+05  1.641461E+05  1.324805E+05  2.354568E+05 -1.981518E+04 -4.270623E+04
       234   4  1.983151E+05  2.013688E+04  2.256855E+04  2.365865E+05  1.562353E+04 -1.379824E+04
       234   5  1.964343E+05  4.295754E+03  1.103737E+04  2.108161E+05  9.929856E+03 -4.263605E+04
       234   6  1.984572E+05  5.499341E+02  6.247372E+03  2.365861E+05  4.251930E+03 -4.270463E+04
       234   7 -9.632648E+05 -2.673715E+05 -2.528638E+05  2.239942E+05 -5.695858E+04 -1.379172E+04
       234   8 -7.260509E+05 -2.170748E+05 -1.730199E+05  2.050808E+05 -1.434898E+04 -4.264221E+04
       234   9 -4.932730E+05 -1.630730E+05 -1.200029E+05  2.377139E+05  2.829296E+04 -4.270294E+04
       234  10  1.361139E+06  3.075494E+05  2.979119E+05  2.492032E+05  8.687300E-11 -2.520352E-11
       234  11  1.119732E+06  2.256124E+05  1.950486E+05  2.165611E+05  1.434405E-10  6.836255E-11
       234  12  8.906529E+05  1.641441E+05  1.324764E+05  2.354562E+05  2.042295E-10 -1.356501E-10
       234  13  1.983148E+05  2.013661E+04  2.256773E+04  2.365866E+05 -2.674174E-10  1.474091E-11
       234  14  1.964337E+05  4.293775E+03  1.103376E+04  2.108165E+05 -5.980995E-10  2.058291E-10
       234  15  1.984567E+05  5.479707E+02  6.243910E+03  2.365862E+05 -3.575304E-10 -8.227306E-11
       234  16 -9.632684E+05 -2.673726E+05 -2.528703E+05  2.239936E+05 -8.554539E-11  4.982661E-11
       234  17 -7.260516E+05 -2.170768E+05 -1.730237E+05  2.050803E+05 -7.043041E-10  8.839033E-11
       234  18 -4.932743E+05 -1.630751E+05 -1.200079E+05  2.377149E+05 -1.699142E-10 -5.727226E-11
       234  19  1.361147E+06  3.075517E+05  2.979269E+05  2.492022E+05 -8.834087E+04  1.380182E+04
       234  20  1.119734E+06  2.256146E+05  1.950542E+05  2.165600E+05 -3.424406E+04  4.262946E+04
       234  21  8.906538E+05  1.641461E+05  1.324805E+05  2.354568E+05  1.981518E+04  4.270623E+04
       234  22  1.983151E+05  2.013688E+04  2.256855E+04  2.365865E+05 -1.562353E+04  1.379824E+04
       234  23  1.964343E+05  4.295754E+03  1.103737E+04  2.108161E+05 -9.929856E+03  4.263605E+04
       234  24  1.984572E+05  5.499341E+02  6.247372E+03  2.365861E+05 -4.251930E+03  4.270463E+04
       234  25 -9.632648E+05 -2.673715E+05 -2.528638E+05  2.239942E+05  5.695858E+04  1.379172E+04
       234  26 -7.260509E+05 -2.170748E+05 -1.730199E+05  2.050808E+05  1.434898E+04  4.264221E+04
       234  27 -4.932730E+05 -1.630730E+05 -1.200029E+05  2.377139E+05 -2.829296E+04  4.270294E+04
       235   1  7.352362E+05  1.278172E+05  1.022019E+05  2.374440E+05 -1.739308E+04 -3.382122E+04
       235   2  4.997839E+05  7.126416E+04  5.639256E+04  2.104914E+05 -2.282066E+04 -2.028226E+04
       235   3  2.654568E+05  1.605129E+04  1.445288E+04  2.369063E+05 -2.824909E+04 -4.413785E+03
       235   4  1.977123E+05  9.071130E+02  4.880676E+03  2.369931E+05  3.414213E+03 -3.381741E+04
       235   5  1.975413E+05  1.692756E+02  3.037231E+03  2.103087E+05  1.900354E+03 -2.027476E+04
       235   6  1.977592E+05  9.443830E+01  2.346479E+03  2.369934E+05  3.836434E+02 -4.401942E+03
       235   7 -3.395299E+05 -1.260189E+05 -9.245030E+04  2.365425E+05  2.420400E+04 -3.381362E+04
       235   8 -1.046108E+05 -7.093029E+04 -5.031916E+04  2.101261E+05  2.660970E+04 -2.026727E+04
       235   9  1.300679E+05 -1.586223E+04 -9.757014E+03  2.370805E+05  2.901334E+04 -4.390090E+03
       235  10  7.352356E+05  1.278158E+05  1.021991E+05  2.374436E+05  1.466882E-10 -2.044261E-10
       235  11  4.997832E+05  7.126358E+04  5.639081E+04  2.104910E+05  6.141876E-10  5.218414E-12
       235  12  2.654559E+05  1.605106E+04  1.445134E+04  2.369062E+05  2.384005E-11  9.578350E-11
       235  13  1.977119E+05  9.058817E+02  4.878505E+03  2.369932E+05 -5.979202E-11 -1.475570E-10
       235  14  1.975412E+05  1.688331E+02  3.036452E+03  2.103087E+05  6.634335E-10 -1.444667E-10
       235  15  1.977592E+05  9.441745E+01  2.346442E+03  2.369934E+05 -3.847604E-11 -8.243565E-11
       235  16 -3.395308E+05 -1.260203E+05 -9.245355E+04  2.365432E+05 -1.103081E-10 -8.299444E-11
       235  17 -1.046117E+05 -7.093092E+04 -5.032127E+04  2.101265E+05 -9.365223E-11 -3.433310E-10
       235  18  1.300670E+05 -1.586248E+04 -9.758632E+03  2.370806E+05  3.096834E-10 -1.966076E-11
       235  19  7.352362E+05  1.278172E+05  1.022019E+05  2.374440E+05  1.739308E+04  3.382122E+04
       235  20  4.997839E+05  7.126416E+04  5.639256E+04  2.104914E+05  2.282066E+04  2.028226E+04
       235  21  2.654568E+05  1.605129E+04  1.445288E+04  2.369063E+05  2.824909E+04  4.413785E+03
       235  22  1.977123E+05  9.071130E+02  4.880676E+03  2.369931E+05 -3.414213E+03  3.381741E+04
       235  23  1.975413E+05  1.692756E+02  3.037231E+03  2.103087E+05 -1.900354E+03  2.027476E+04
       235  24  1.977592E+05  9.443830E+01  2.346479E+03  2.369934E+05 -3.836434E+02  4.401942E+03
       235  25 -3.395299E+05 -1.260189E+05 -9.245030E+04  2.365425E+05 -2.420400E+04  3.381362E+04
       235  26 -1.046108E+05 -7.093029E+04 -5.031916E+04  2.101261E+05 -2.660970E+04  2.026727E+04
       235  27  1.300679E+05 -1.586223E+04 -9.757014E+03  2.370805E+05 -2.901334E+04  4.390090E+03
       236   1  1.120692E+05 -2.006830E+04 -1.288057E+04  2.370388E+05 -2.865972E+04  5.702050E+03
       236   2 -1.225784E+05 -7.517404E+04 -5.374011E+04  2.101363E+05 -2.601750E+04  2.156174E+04
       236   3 -3.575255E+05 -1.304189E+05 -9.635332E+04  2.366025E+05 -2.337312E+04  3.505006E+04
       236   4  1.977482E+05  9.777060E+01  2.284506E+03  2.369929E+05 -2.611279E+01  5.713847E+03
       236   5  1.975525E+05  1.378101E+02  2.696236E+03  2.103094E+05 -1.372163E+03  2.156899E+04
       236   6  1.976985E+05  7.341710E+02  4.123304E+03  2.369927E+05 -2.715173E+03  3.505347E+04
       236   7  2.834361E+05  2.026388E+04  1.745240E+04  2.369470E+05  2.861133E+04  5.725639E+03
       236   8  5.177849E+05  7.544438E+04  5.913112E+04  2.104825E+05  2.328550E+04  2.157625E+04
       236   9  7.532236E+05  1.318702E+05  1.045894E+05  2.373832E+05  1.796075E+04  3.505690E+04
       236  10  1.120683E+05 -2.006856E+04 -1.288218E+04  2.370389E+05  4.439676E-10  4.806405E-10
       236  11 -1.225793E+05 -7.517473E+04 -5.374226E+04  2.101367E+05  1.484411E-10  3.258021E-10
       236  12 -3.575265E+05 -1.304203E+05 -9.635666E+04  2.366031E+05 -5.009044E-10  1.675483E-10
       236  13  1.977482E+05  9.773554E+01  2.284445E+03  2.369929E+05  2.812820E-10  1.192459E-10
       236  14  1.975523E+05  1.373100E+02  2.695358E+03  2.103094E+05  4.286543E-10  1.204802E-10
       236  15  1.976982E+05  7.328494E+02  4.120980E+03  2.369928E+05  4.858800E-10  1.298496E-10
       236  16  2.834353E+05  2.026363E+04  1.745080E+04  2.369468E+05 -3.310781E-10 -1.328624E-10
       236  17  5.177842E+05  7.544373E+04  5.912922E+04  2.104821E+05  3.264085E-10 -2.166548E-10
       236  18  7.532229E+05  1.318688E+05  1.045865E+05  2.373826E+05  4.483078E-10 -9.727544E-11
       236  19  1.120692E+05 -2.006830E+04 -1.288057E+04  2.370388E+05  2.865972E+04 -5.702050E+03
       236  20 -1.225784E+05 -7.517404E+04 -5.374011E+04  2.101363E+05  2.601750E+04 -2.156174E+04
       236  21 -3.575255E+05 -1.304189E+05 -9.635332E+04  2.366025E+05  2.337312E+04 -3.505006E+04
       236  22  1.977482E+05  9.777060E+01  2.284506E+03  2.369929E+05  2.611279E+01 -5.713847E+03
       236  23  1.975525E+05  1.378101E+02  2.696236E+03  2.103094E+05  1.372163E+03 -2.156899E+04
       236  24  1.976985E+05  7.341710E+02  4.123304E+03  2.369927E+05  2.715173E+03 -3.505347E+04
       236  25  2.834361E+05  2.026388E+04  1.745240E+04  2.369470E+05 -2.861133E+04 -5.725639E+03
       236  26  5.177849E+05  7.544438E+04  5.913112E+04  2.104825E+05 -2.328550E+04 -2.157625E+04
       236  27  7.532236E+05  1.318702E+05  1.045894E+05  2.373832E+05 -1.796075E+04 -3.505690E+04
       237   1 -5.114249E+05 -1.674296E+05 -1.242072E+05  2.374951E+05 -2.738003E+04  4.391823E+04
       237   2 -7.438161E+05 -2.221642E+05 -1.783968E+05  2.061179E+05  1.696350E+04  4.359746E+04
       237   3 -9.814250E+05 -2.754511E+05 -2.610855E+05  2.262566E+05  6.127317E+04  1.406678E+04
       237   4  1.983066E+05  4.308518E+02  5.217655E+03  2.365796E+05 -3.422403E+03  4.391944E+04
       237   5  1.966116E+05  3.486952E+03  9.105347E+03  2.108246E+05 -8.101545E+03  4.359137E+04
       237   6  1.981621E+05  1.650516E+04  1.855184E+04  2.365800E+05 -1.279719E+04  1.407444E+04
       237   7  9.085290E+05  1.682632E+05  1.346244E+05  2.356628E+05  2.056189E+04  4.392057E+04
       237   8  1.137886E+06  2.290844E+05  1.965656E+05  2.155386E+05 -3.320381E+04  4.358490E+04
       237   9  1.379041E+06  3.083647E+05  2.981130E+05  2.469230E+05 -8.700770E+04  1.407964E+04
       237  10 -5.114262E+05 -1.674319E+05 -1.242123E+05  2.374961E+05  3.395460E-10  1.207391E-10
       237  11 -7.438169E+05 -2.221664E+05 -1.784009E+05  2.061173E+05  6.860317E-11  4.656518E-11
       237  12 -9.814291E+05 -2.754523E+05 -2.610929E+05  2.262559E+05 -4.198995E-10  1.266900E-10
       237  13  1.983060E+05  4.287771E+02  5.214007E+03  2.365797E+05  2.318406E-10 -4.124236E-13
       237  14  1.966110E+05  3.484893E+03  9.101652E+03  2.108249E+05  2.134107E-10 -1.988840E-10
       237  15  1.981619E+05  1.650490E+04  1.855115E+04  2.365802E+05  1.951926E-10 -2.379815E-10
       237  16  9.085281E+05  1.682610E+05  1.346200E+05  2.356621E+05  6.830119E-10  9.599712E-12
       237  17  1.137884E+06  2.290821E+05  1.965599E+05  2.155397E+05 -5.036161E-12 -1.888290E-10
       237  18  1.379032E+06  3.083625E+05  2.980985E+05  2.469240E+05  5.695039E-10 -3.565687E-10
       237  19 -5.114249E+05 -1.674296E+05 -1.242072E+05  2.374951E+05  2.738003E+04 -4.391823E+04
       237  20 -7.438161E+05 -2.221642E+05 -1.783968E+05  2.061179E+05 -1.696350E+04 -4.359746E+04
       237  21 -9.814250E+05 -2.754511E+05 -2.610855E+05  2.262566E+05 -6.127317E+04 -1.406678E+04
       237  22  1.983066E+05  4.308518E+02  5.217655E+03  2.365796E+05  3.422403E+03 -4.391944E+04
       237  23  1.966116E+05  3.486952E+03  9.105347E+03  2.108246E+05  8.101545E+03 -4.359137E+04
       237  24  1.981621E+05  1.650516E+04  1.855184E+04  2.365800E+05  1.279719E+04 -1.407444E+04
       237  25  9.085290E+05  1.682632E+05  1.346244E+05  2.356628E+05 -2.056189E+04 -4.392057E+04
       237  26  1.137886E+06  2.290844E+05  1.965656E+05  2.155386E+05  3.320381E+04 -4.358490E+04
       237  27  1.379041E+06  3.083647E+05  2.981130E+05  2.469230E+05  8.700770E+04 -1.407964E+04
       238   1 -2.411578E+05 -9.039037E+05 -2.357733E+05  3.112061E+05 -8.927764E+03 -5.665706E+04
       238   2 -1.497769E+05 -5.993824E+05 -1.347837E+05  2.727486E+05 -2.434757E+04 -1.287644E+04
       238   3 -7.428509E+04 -3.045124E+05 -6.631452E+04  3.009657E+05 -1.652070E+04  3.091389E+04
       238   4 -1.516046E+04  7.437402E+03 -1.751756E+04  3.020516E+05 -8.876975E+03 -1.119734E+04
       238   5 -2.967665E+03  8.973649E+03 -9.255141E+03  2.687075E+05 -2.433811E+04 -6.418604E+03
       238   6  1.261008E+02  7.555821E+03 -6.397714E+03  3.020364E+05 -1.656230E+04 -1.652230E+03
       238   7  2.107781E+05  9.195448E+05  2.006873E+05  2.928832E+05 -8.827579E+03  3.432891E+04
       238   8  1.438183E+05  6.176810E+05  1.162536E+05  2.646623E+05 -2.432875E+04  4.545720E+01
       238   9  7.453210E+04  3.197201E+05  5.351860E+04  3.031076E+05 -1.660399E+04 -3.423435E+04
       238  10 -2.411587E+05 -9.039072E+05 -2.357795E+05  3.112057E+05 -2.657947E-10 -6.612247E-10
       238  11 -1.497776E+05 -5.993827E+05 -1.347851E+05  2.727483E+05 -4.031642E-10 -1.487777E-10
       238  12 -7.428564E+04 -3.045135E+05 -6.631683E+04  3.009662E+05 -9.854180E-10 -3.105546E-10
       238  13 -1.516058E+04  7.437246E+03 -1.751795E+04  3.020515E+05 -5.713632E-10 -3.267716E-10
       238  14 -2.968313E+03  8.973446E+03 -9.256331E+03  2.687074E+05  6.662817E-10  7.980729E-10
       238  15  1.258055E+02  7.555744E+03 -6.398235E+03  3.020364E+05 -2.417609E-10 -1.106502E-10
       238  16  2.107777E+05  9.195435E+05  2.006849E+05  2.928834E+05 -2.591802E-10  5.084445E-10
       238  17  1.438176E+05  6.176809E+05  1.162525E+05  2.646623E+05 -8.050408E-10  4.774270E-10
       238  18  7.453149E+04  3.197188E+05  5.351588E+04  3.031071E+05  3.857654E-10  4.984911E-10
       238  19 -2.411578E+05 -9.039037E+05 -2.357733E+05  3.112061E+05  8.927764E+03  5.665706E+04
       238  20 -1.497769E+05 -5.993824E+05 -1.347837E+05  2.727486E+05  2.434757E+04  1.287644E+04
       238  21 -7.428509E+04 -3.045124E+05 -6.631452E+04  3.009657E+05  1.652070E+04 -3.091389E+04
       238  22 -1.516046E+04  7.437402E+03 -1.751756E+04  3.020516E+05  8.876975E+03  1.119734E+04
       238  23 -2.967665E+03  8.973649E+03 -9.255141E+03  2.687075E+05  2.433811E+04  6.418604E+03
       238  24  1.261008E+02  7.555821E+03 -6.397714E+03  3.020364E+05  1.656230E+04  1.652230E+03
       238  25  2.107781E+05  9.195448E+05  2.006873E+05  2.928832E+05  8.827579E+03 -3.432891E+04
       238  26  1.438183E+05  6.176810E+05  1.162536E+05  2.646623E+05  2.432875E+04 -4.545720E+01
       238  27  7.453210E+04  3.197201E+05  5.351860E+04  3.031076E+05  1.660399E+04  3.423435E+04
       239   1 -2.788180E+04 -1.074021E+05 -2.970208E+04  3.028096E+05 -4.628586E+03  2.951286E+04
       239   2  4.337600E+04  1.925635E+05  2.551282E+04  2.683751E+05  1.297876E+04  3.139323E+04
       239   3  1.133523E+05  4.919404E+05  7.914478E+04  3.019436E+05  2.982401E+04  3.327745E+04
       239   4 -4.504400E+01  8.028668E+03 -5.949418E+03  3.023338E+05 -4.668517E+03 -7.048419E+02
       239   5  1.862354E+02  8.459711E+03 -6.357089E+03  2.683322E+05  1.294259E+04  2.448905E+03
       239   6 -1.081414E+03  7.992313E+03 -9.233531E+03  3.023351E+05  2.979132E+04  5.605653E+03
       239   7  2.779136E+04  1.234740E+05  1.780596E+04  3.018580E+05 -4.708396E+03 -3.092806E+04
       239   8 -4.300490E+04 -1.756090E+05 -3.822503E+04  2.682893E+05  1.290643E+04 -2.648710E+04
       239   9 -1.155280E+05 -4.757267E+05 -9.761843E+04  3.027262E+05  2.975858E+04 -2.204517E+04
       239  10 -2.788206E+04 -1.074030E+05 -2.970376E+04  3.028097E+05 -4.770333E-10 -2.509524E-10
       239  11  4.337555E+04  1.925624E+05  2.551066E+04  2.683747E+05 -6.522699E-10  3.431281E-10
       239  12  1.133511E+05  4.919389E+05  7.914103E+04  3.019428E+05  3.270598E-10  3.185867E-10
       239  13 -4.506754E+01  8.028661E+03 -5.949460E+03  3.023338E+05 -2.817235E-10 -4.358466E-10
       239  14  1.860539E+02  8.459659E+03 -6.357415E+03  2.683321E+05 -9.266092E-10  8.784111E-10
       239  15 -1.082375E+03  7.992041E+03 -9.235258E+03  3.023350E+05 -9.060956E-10 -1.913394E-10
       239  16  2.779108E+04  1.234730E+05  1.780412E+04  3.018578E+05  5.714690E-11  2.082487E-11
       239  17 -4.300527E+04 -1.756098E+05 -3.822666E+04  2.682895E+05  2.516763E-10  8.112954E-11
       239  18 -1.155291E+05 -4.757274E+05 -9.762101E+04  3.027267E+05  9.559277E-11 -2.752496E-10
       239  19 -2.788180E+04 -1.074021E+05 -2.970208E+04  3.028096E+05  4.628586E+03 -2.951286E+04
       239  20  4.337600E+04  1.925635E+05  2.551282E+04  2.683751E+05 -1.297876E+04 -3.139323E+04
       239  21  1.133523E+05  4.919404E+05  7.914478E+04  3.019436E+05 -2.982401E+04 -3.327745E+04
       239  22 -4.504400E+01  8.028668E+03 -5.949418E+03  3.023338E+05  4.668517E+03  7.048419E+02
       239  23  1.862354E+02  8.459711E+03 -6.357089E+03  2.683322E+05 -1.294259E+04 -2.448905E+03
       239  24 -1.081414E+03  7.992313E+03 -9.233531E+03  3.023351E+05 -2.979132E+04 -5.605653E+03
       239  25  2.779136E+04  1.234740E+05  1.780596E+04  3.018580E+05  4.708396E+03  3.092806E+04
       239  26 -4.300490E+04 -1.756090E+05 -3.822503E+04  2.682893E+05 -1.290643E+04  2.648710E+04
       239  27 -1.155280E+05 -4.757267E+05 -9.761843E+04  3.027262E+05 -2.975858E+04  2.204517E+04
       240   1  1.605789E+05  6.877986E+05  1.135373E+05  3.045151E+05  4.131726E+04  3.824168E+04
       240   2  2.266431E+05  9.864943E+05  1.760396E+05  2.591699E+05  4.382466E+04 -4.982109E+03
       240   3  2.806954E+05  1.287927E+06  2.636525E+05  2.798838E+05  1.447749E+04 -4.821720E+04
       240   4 -6.094442E+02  6.671422E+03 -1.153666E+04  3.019022E+05  4.128394E+04  7.143265E+03
       240   5 -7.749009E+03  9.899286E+03 -2.002300E+04  2.688825E+05  4.385227E+04  1.749805E+04
       240   6 -3.620404E+04  6.482033E+03 -4.058532E+04  3.019332E+05  1.454138E+04  2.786168E+04
       240   7 -1.618236E+05 -6.740037E+05 -1.366260E+05  2.992919E+05  4.125085E+04 -2.392197E+04
       240   8 -2.421993E+05 -9.657856E+05 -2.161322E+05  2.785792E+05  4.388062E+04  3.994357E+04
       240   9 -3.532166E+05 -1.273443E+06 -3.449157E+05  3.239362E+05  1.461076E+04  1.037845E+05
       240  10  1.605767E+05  6.877966E+05  1.135314E+05  3.045139E+05  3.079286E-11 -6.748448E-10
       240  11  2.266411E+05  9.864937E+05  1.760360E+05  2.591701E+05 -1.568373E-11 -1.046111E-10
       240  12  2.806946E+05  1.287924E+06  2.636477E+05  2.798844E+05  1.177978E-10 -3.224967E-11
       240  13 -6.112879E+02  6.670910E+03 -1.153996E+04  3.019019E+05  7.515583E-10 -4.042423E-10
       240  14 -7.751156E+03  9.898441E+03 -2.002719E+04  2.688819E+05 -6.373295E-10  5.560145E-10
       240  15 -3.620448E+04  6.481143E+03 -4.058718E+04  3.019328E+05  7.975325E-11 -7.170100E-11
       240  16 -1.618256E+05 -6.740047E+05 -1.366303E+05  2.992927E+05 -2.013325E-10  4.430997E-10
       240  17 -2.422018E+05 -9.657879E+05 -2.161389E+05  2.785778E+05 -5.861327E-10  4.619998E-10
       240  18 -3.532198E+05 -1.273455E+06 -3.449364E+05  3.239350E+05  9.945964E-11  7.734267E-11
       240  19  1.605789E+05  6.877986E+05  1.135373E+05  3.045151E+05 -4.131726E+04 -3.824168E+04
       240  20  2.266431E+05  9.864943E+05  1.760396E+05  2.591699E+05 -4.382466E+04  4.982109E+03
       240  21  2.806954E+05  1.287927E+06  2.636525E+05  2.798838E+05 -1.447749E+04  4.821720E+04
       240  22 -6.094442E+02  6.671422E+03 -1.153666E+04  3.019022E+05 -4.128394E+04 -7.143265E+03
       240  23 -7.749009E+03  9.899286E+03 -2.002300E+04  2.688825E+05 -4.385227E+04 -1.749805E+04
       240  24 -3.620404E+04  6.482033E+03 -4.058532E+04  3.019332E+05 -1.454138E+04 -2.786168E+04
       240  25 -1.618236E+05 -6.740037E+05 -1.366260E+05  2.992919E+05 -4.125085E+04  2.392197E+04
       240  26 -2.421993E+05 -9.657856E+05 -2.161322E+05  2.785792E+05 -4.388062E+04 -3.994357E+04
       240  27 -3.532166E+05 -1.273443E+06 -3.449157E+05  3.239362E+05 -1.461076E+04 -1.037845E+05
       241   1  1.316212E+06  2.945054E+05  2.841978E+05  2.471832E+05  7.967819E+04 -1.348269E+04
       241   2  1.072179E+06  2.188098E+05  1.864958E+05  2.171631E+05  2.865610E+04 -4.144854E+04
       241   3  8.387531E+05  1.582461E+05  1.257611E+05  2.394962E+05 -2.232859E+04 -4.103155E+04
       241   4  1.704331E+05  1.126516E+04  1.273659E+04  2.401117E+05  8.729509E+03 -1.347746E+04
       241   5  1.693649E+05  2.339957E+03  6.293577E+03  2.139338E+05  5.485530E+03 -4.145428E+04
       241   6  1.705732E+05  2.759082E+02  3.688256E+03  2.401113E+05  2.257565E+03 -4.102999E+04
       241   7 -9.741303E+05 -2.720664E+05 -2.587970E+05  2.330532E+05 -6.208914E+04 -1.347064E+04
       241   8 -7.326710E+05 -2.141795E+05 -1.739476E+05  2.107091E+05 -1.765207E+04 -4.145979E+04
       241   9 -4.971722E+05 -1.577192E+05 -1.184004E+05  2.407256E+05  2.681800E+04 -4.102838E+04
       241  10  1.316205E+06  2.945035E+05  2.841856E+05  2.471841E+05  2.595615E-10 -4.034182E-11
       241  11  1.072178E+06  2.188077E+05  1.864910E+05  2.171641E+05 -7.441317E-11 -1.602961E-10
       241  12  8.387521E+05  1.582442E+05  1.257570E+05  2.394954E+05 -4.000322E-10  2.288287E-10
       241  13  1.704329E+05  1.126494E+04  1.273611E+04  2.401118E+05 -2.103569E-10  3.060817E-10
       241  14  1.693644E+05  2.338103E+03  6.290291E+03  2.139340E+05  5.215126E-10  1.753487E-10
       241  15  1.705727E+05  2.740989E+02  3.685083E+03  2.401113E+05  5.000983E-10  3.399002E-10
       241  16 -9.741345E+05 -2.720676E+05 -2.588046E+05  2.330525E+05 -9.330053E-12 -2.102525E-11
       241  17 -7.326717E+05 -2.141814E+05 -1.739514E+05  2.107085E+05  6.679620E-12  2.890138E-10
       241  18 -4.971734E+05 -1.577212E+05 -1.184049E+05  2.407265E+05  4.781088E-10  3.854067E-10
       241  19  1.316212E+06  2.945054E+05  2.841978E+05  2.471832E+05 -7.967819E+04  1.348269E+04
       241  20  1.072179E+06  2.188098E+05  1.864958E+05  2.171631E+05 -2.865610E+04  4.144854E+04
       241  21  8.387531E+05  1.582461E+05  1.257611E+05  2.394962E+05  2.232859E+04  4.103155E+04
       241  22  1.704331E+05  1.126516E+04  1.273659E+04  2.401117E+05 -8.729509E+03  1.347746E+04
       241  23  1.693649E+05  2.339957E+03  6.293577E+03  2.139338E+05 -5.485530E+03  4.145428E+04
       241  24  1.705732E+05  2.759082E+02  3.688256E+03  2.401113E+05 -2.257565E+03  4.102999E+04
       241  25 -9.741303E+05 -2.720664E+05 -2.587970E+05  2.330532E+05  6.208914E+04  1.347064E+04
       241  26 -7.326710E+05 -2.141795E+05 -1.739476E+05  2.107091E+05  1.765207E+04  4.145979E+04
       241  27 -4.971722E+05 -1.577192E+05 -1.184004E+05  2.407256E+05 -2.681800E+04  4.102838E+04
       242   1  6.814055E+05  1.212507E+05  9.575671E+04  2.408028E+05 -1.962175E+04 -3.197309E+04
       242   2  4.425333E+05  6.422973E+04  5.039210E+04  2.135683E+05 -2.451141E+04 -1.812033E+04
       242   3  2.046435E+05  8.264184E+03  8.475531E+03  2.405043E+05 -2.940187E+04 -1.980660E+03
       242   4  1.701612E+05  4.966918E+02  2.973859E+03  2.405154E+05  1.747499E+03 -3.196933E+04
       242   5  1.700507E+05  9.559710E+01  2.105735E+03  2.134294E+05  6.993312E+02 -1.811321E+04
       242   6  1.702041E+05  8.699642E+01  2.020198E+03  2.405155E+05 -3.513611E+02 -1.969572E+03
       242   7 -3.408281E+05 -1.202718E+05 -8.981767E+04  2.402281E+05  2.309965E+04 -3.196558E+04
       242   8 -1.023581E+05 -6.404228E+04 -4.618100E+04  2.132905E+05  2.589934E+04 -1.810609E+04
       242   9  1.357676E+05 -8.089807E+03 -4.432015E+03  2.405266E+05  2.869758E+04 -1.958482E+03
       242  10  6.814048E+05  1.212495E+05  9.575407E+04  2.408023E+05  1.332512E-11  2.498018E-10
       242  11  4.425326E+05  6.422922E+04  5.039036E+04  2.135680E+05  2.961185E-10  1.482173E-10
       242  12  2.046426E+05  8.263948E+03  8.473899E+03  2.405043E+05  2.277935E-10 -7.409642E-11
       242  13  1.701609E+05  4.955934E+02  2.971932E+03  2.405154E+05  3.987535E-10  4.306487E-10
       242  14  1.700506E+05  9.524463E+01  2.105117E+03  2.134294E+05  4.770960E-10  2.881303E-10
       242  15  1.702041E+05  8.699222E+01  2.020190E+03  2.405155E+05 -4.594248E-11 -1.431664E-10
       242  16 -3.408289E+05 -1.202730E+05 -8.982059E+04  2.402287E+05 -3.362242E-10  2.612802E-10
       242  17 -1.023589E+05 -6.404281E+04 -4.618288E+04  2.132909E+05 -2.705039E-10  2.530718E-10
       242  18  1.357667E+05 -8.090032E+03 -4.433570E+03  2.405267E+05 -1.724494E-10 -4.085174E-12
       242  19  6.814055E+05  1.212507E+05  9.575671E+04  2.408028E+05  1.962175E+04  3.197309E+04
       242  20  4.425333E+05  6.422973E+04  5.039210E+04  2.135683E+05  2.451141E+04  1.812033E+04
       242  21  2.046435E+05  8.264184E+03  8.475531E+03  2.405043E+05  2.940187E+04  1.980660E+03
       242  22  1.701612E+05  4.966918E+02  2.973859E+03  2.405154E+05 -1.747499E+03  3.196933E+04
       242  23  1.700507E+05  9.559710E+01  2.105735E+03  2.134294E+05 -6.993312E+02  1.811321E+04
       242  24  1.702041E+05  8.699642E+01  2.020198E+03  2.405155E+05  3.513611E+02  1.969572E+03
       242  25 -3.408281E+05 -1.202718E+05 -8.981767E+04  2.402281E+05 -2.309965E+04  3.196558E+04
       242  26 -1.023581E+05 -6.404228E+04 -4.618100E+04  2.132905E+05 -2.589934E+04  1.810609E+04
       242  27  1.357676E+05 -8.089807E+03 -4.432015E+03  2.405266E+05 -2.869758E+04  1.958482E+03
       243   1  4.902252E+04 -2.841314E+04 -1.901660E+04  2.406229E+05 -2.979287E+04  8.286373E+03
       243   2 -1.891429E+05 -8.430066E+04 -6.002156E+04  2.132580E+05 -2.717480E+04  2.434934E+04
       243   3 -4.275587E+05 -1.402042E+05 -1.027305E+05  2.400558E+05 -2.455427E+04  3.792817E+04
       243   4  1.702358E+05  7.134080E+01  2.206073E+03  2.405129E+05 -7.254484E+02  8.297207E+03
       243   5  1.699983E+05  1.587803E+02  3.123793E+03  2.134325E+05 -2.285271E+03  2.435531E+04
       243   6  1.701792E+05  9.576035E+02  5.237173E+03  2.405126E+05 -3.841690E+03  3.793008E+04
       243   7  2.914653E+05  2.855548E+04  2.343140E+04  2.404029E+05  2.834748E+04  8.308029E+03
       243   8  5.292670E+05  8.461151E+04  6.626680E+04  2.136071E+05  2.261823E+04  2.436128E+04
       243   9  7.682660E+05  1.420997E+05  1.131924E+05  2.409698E+05  1.689029E+04  3.793201E+04
       243  10  4.902155E+04 -2.841345E+04 -1.901840E+04  2.406231E+05 -2.459817E-11  1.418841E-10
       243  11 -1.891439E+05 -8.430150E+04 -6.002407E+04  2.132586E+05  2.037668E-10  5.074867E-12
       243  12 -4.275598E+05 -1.402059E+05 -1.027343E+05  2.400566E+05 -2.636037E-10 -2.053132E-11
       243  13  1.702358E+05  7.126672E+01  2.205943E+03  2.405129E+05  3.928268E-10 -4.201500E-11
       243  14  1.699981E+05  1.581419E+02  3.122669E+03  2.134326E+05  4.197899E-12  9.691579E-11
       243  15  1.701788E+05  9.560544E+02  5.234441E+03  2.405127E+05 -2.564461E-10 -9.236492E-11
       243  16  2.914644E+05  2.855519E+04  2.342976E+04  2.404027E+05  2.913423E-10 -4.615274E-11
       243  17  5.292663E+05  8.461074E+04  6.626472E+04  2.136066E+05 -3.348019E-11  4.171170E-11
       243  18  7.682653E+05  1.420980E+05  1.131892E+05  2.409692E+05  3.618101E-10 -1.195789E-10
       243  19  4.902252E+04 -2.841314E+04 -1.901660E+04  2.406229E+05  2.979287E+04 -8.286373E+03
       243  20 -1.891429E+05 -8.430066E+04 -6.002156E+04  2.132580E+05  2.717480E+04 -2.434934E+04
       243  21 -4.275587E+05 -1.402042E+05 -1.027305E+05  2.400558E+05  2.455427E+04 -3.792817E+04
       243  22  1.702358E+05  7.134080E+01  2.206073E+03  2.405129E+05  7.254484E+02 -8.297207E+03
       243  23  1.699983E+05  1.587803E+02  3.123793E+03  2.134325E+05  2.285271E+03 -2.435531E+04
       243  24  1.701792E+05  9.576035E+02  5.237173E+03  2.405126E+05  3.841690E+03 -3.793008E+04
       243  25  2.914653E+05  2.855548E+04  2.343140E+04  2.404029E+05 -2.834748E+04 -8.308029E+03
       243  26  5.292670E+05  8.461151E+04  6.626680E+04  2.136071E+05 -2.261823E+04 -2.436128E+04
       243  27  7.682660E+05  1.420997E+05  1.131924E+05  2.409698E+05 -1.689029E+04 -3.793201E+04
       244   1 -5.835811E+05 -1.778727E+05 -1.306358E+05  2.413669E+05 -2.889391E+04  4.688829E+04
       244   2 -8.198119E+05 -2.324934E+05 -1.847948E+05  2.077427E+05  1.599161E+04  4.606589E+04
       244   3 -1.060570E+06 -2.827215E+05 -2.670670E+05  2.263525E+05  6.083893E+04  1.479827E+04
       244   4  1.709990E+05  5.638632E+02  6.767152E+03  2.400821E+05 -4.741383E+03  4.688762E+04
       244   5  1.687772E+05  4.675868E+03  1.206507E+04  2.139694E+05 -1.094824E+04  4.606092E+04
       244   6  1.708448E+05  2.205090E+04  2.474540E+04  2.400840E+05 -1.717479E+04  1.481227E+04
       244   7  9.261342E+05  1.789686E+05  1.441494E+05  2.387955E+05  1.943972E+04  4.688684E+04
       244   8  1.158302E+06  2.417858E+05  2.088789E+05  2.202061E+05 -3.793015E+04  4.605541E+04
       244   9  1.403667E+06  3.267183E+05  3.164753E+05  2.538429E+05 -9.534260E+04  1.482282E+04
       244  10 -5.835826E+05 -1.778752E+05 -1.306415E+05  2.413680E+05  1.497492E-10 -2.403956E-10
       244  11 -8.198127E+05 -2.324957E+05 -1.847993E+05  2.077421E+05 -1.586156E-10 -5.197971E-10
       244  12 -1.060574E+06 -2.827227E+05 -2.670743E+05  2.263517E+05 -8.897066E-10 -3.793815E-10
       244  13  1.709984E+05  5.614961E+02  6.762977E+03  2.400822E+05  2.943110E-10 -2.082034E-10
       244  14  1.687765E+05  4.673557E+03  1.206085E+04  2.139698E+05  1.613419E-10 -4.038596E-10
       244  15  1.708445E+05  2.205059E+04  2.474443E+04  2.400843E+05 -7.281323E-10  6.478167E-12
       244  16  9.261332E+05  1.789661E+05  1.441446E+05  2.387947E+05  7.651397E-11 -2.549296E-10
       244  17  1.158300E+06  2.417832E+05  2.088722E+05  2.202075E+05 -1.176457E-10 -1.097323E-10
       244  18  1.403658E+06  3.267156E+05  3.164579E+05  2.538440E+05  9.075862E-10 -3.688279E-10
       244  19 -5.835811E+05 -1.778727E+05 -1.306358E+05  2.413669E+05  2.889391E+04 -4.688829E+04
       244  20 -8.198119E+05 -2.324934E+05 -1.847948E+05  2.077427E+05 -1.599161E+04 -4.606589E+04
       244  21 -1.060570E+06 -2.827215E+05 -2.670670E+05  2.263525E+05 -6.083893E+04 -1.479827E+04
       244  22  1.709990E+05  5.638632E+02  6.767152E+03  2.400821E+05  4.741383E+03 -4.688762E+04
       244  23  1.687772E+05  4.675868E+03  1.206507E+04  2.139694E+05  1.094824E+04 -4.606092E+04
       244  24  1.708448E+05  2.205090E+04  2.474540E+04  2.400840E+05  1.717479E+04 -1.481227E+04
       244  25  9.261342E+05  1.789686E+05  1.441494E+05  2.387955E+05 -1.943972E+04 -4.688684E+04
       244  26  1.158302E+06  2.417858E+05  2.088789E+05  2.202061E+05  3.793015E+04 -4.605541E+04
       244  27  1.403667E+06  3.267183E+05  3.164753E+05  2.538429E+05  9.534260E+04 -1.482282E+04
       245   1 -2.862616E+05 -1.067356E+06 -2.793387E+05  3.553913E+05 -1.099804E+04 -6.642398E+04
       245   2 -1.828441E+05 -7.181747E+05 -1.633920E+05  3.121610E+05 -3.051600E+04 -1.459583E+04
       245   3 -9.660474E+04 -3.799920E+05 -8.553942E+04  3.453150E+05 -2.222296E+04  3.724688E+04
       245   4 -1.498306E+04  2.671693E+04 -1.759832E+04  3.464009E+05 -1.092959E+04 -1.024353E+04
       245   5 -2.831426E+03  2.829815E+04 -1.005298E+04  3.082021E+05 -3.050080E+04 -5.063353E+03
       245   6  2.658410E+02  2.688344E+04 -8.165339E+03  3.463844E+05 -2.227550E+04  1.014645E+02
       245   7  2.562108E+05  1.121895E+06  2.440695E+05  3.373939E+05 -1.086285E+04  4.603565E+04
       245   8  1.771463E+05  7.753006E+05  1.432566E+05  3.042380E+05 -3.048574E+04  4.480391E+03
       245   9  9.712745E+04  4.339216E+05  6.920651E+04  3.474545E+05 -2.232814E+04 -3.706772E+04
       245  10 -2.862630E+05 -1.067360E+06 -2.793473E+05  3.553907E+05 -3.954609E-10 -6.159806E-10
       245  11 -1.828451E+05 -7.181751E+05 -1.633942E+05  3.121606E+05 -1.541584E-10  1.341263E-09
       245  12 -9.660564E+04 -3.799937E+05 -8.554296E+04  3.453156E+05 -3.995079E-11  9.112932E-10
       245  13 -1.498321E+04  2.671679E+04 -1.759874E+04  3.464008E+05 -4.018798E-10  6.818252E-10
       245  14 -2.832431E+03  2.829787E+04 -1.005477E+04  3.082019E+05  7.415639E-10  1.012228E-11
       245  15  2.653081E+02  2.688331E+04 -8.166271E+03  3.463844E+05  2.145656E-11 -4.851844E-10
       245  16  2.562101E+05  1.121892E+06  2.440653E+05  3.373943E+05 -1.246339E-10  1.626207E-10
       245  17  1.771453E+05  7.753003E+05  1.432548E+05  3.042381E+05  1.416362E-10 -2.624331E-10
       245  18  9.712655E+04  4.339200E+05  6.920299E+04  3.474538E+05  7.766555E-10 -3.099722E-10
       245  19 -2.862616E+05 -1.067356E+06 -2.793387E+05  3.553913E+05  1.099804E+04  6.642398E+04
       245  20 -1.828441E+05 -7.181747E+05 -1.633920E+05  3.121610E+05  3.051600E+04  1.459583E+04
       245  21 -9.660474E+04 -3.799920E+05 -8.553942E+04  3.453150E+05  2.222296E+04 -3.724688E+04
       245  22 -1.498306E+04  2.671693E+04 -1.759832E+04  3.464009E+05  1.092959E+04  1.024353E+04
       245  23 -2.831426E+03  2.829815E+04 -1.005298E+04  3.082021E+05  3.050080E+04  5.063353E+03
       245  24  2.658410E+02  2.688344E+04 -8.165339E+03  3.463844E+05  2.227550E+04 -1.014645E+02
       245  25  2.562108E+05  1.121895E+06  2.440695E+05  3.373939E+05  1.086285E+04 -4.603565E+04
       245  26  1.771463E+05  7.753006E+05  1.432566E+05  3.042380E+05  3.048574E+04 -4.480391E+03
       245  27  9.712745E+04  4.339216E+05  6.920651E+04  3.474545E+05  2.232814E+04  3.706772E+04
       246   1 -4.328224E+04 -1.540912E+05 -4.421208E+04  3.474322E+05 -8.637964E+03  3.572130E+04
       246   2  3.814380E+04  1.901659E+05  1.727951E+04  3.076086E+05  1.145648E+04  3.996937E+04
       246   3  1.171644E+05  5.332424E+05  7.535595E+04  3.457720E+05  3.088019E+04  4.422266E+04
       246   4  1.510282E+02  2.724291E+04 -8.382841E+03  3.467430E+05 -8.688594E+03  1.409283E+03
       246   5  9.478727E+01  2.797080E+04 -1.079815E+04  3.077505E+05  1.140967E+04  6.774534E+03
       246   6 -2.556526E+03  2.720631E+04 -1.740749E+04  3.467467E+05  3.083688E+04  1.214278E+04
       246   7  4.358293E+04  2.086111E+05  2.744921E+04  3.460535E+05 -8.739138E+03 -3.291255E+04
       246   8 -3.795505E+04 -1.341961E+05 -3.887258E+04  3.078923E+05  1.136284E+04 -2.641190E+04
       246   9 -1.222914E+05 -4.785791E+05 -1.101775E+05  3.477205E+05  3.079345E+04 -1.991167E+04
       246  10 -4.328266E+04 -1.540926E+05 -4.421462E+04  3.474324E+05  1.459569E-10 -1.324235E-09
       246  11  3.814323E+04  1.901642E+05  1.727626E+04  3.076083E+05 -1.646791E-10  1.296504E-09
       246  12  1.171629E+05  5.332400E+05  7.535049E+04  3.457709E+05  1.247996E-10  1.194028E-09
       246  13  1.509466E+02  2.724289E+04 -8.382987E+03  3.467430E+05 -7.045681E-12  9.740633E-10
       246  14  9.463522E+01  2.797071E+04 -1.079848E+04  3.077504E+05  1.307892E-09 -1.284420E-11
       246  15 -2.557586E+03  2.720590E+04 -1.740956E+04  3.467464E+05 -8.220381E-10 -4.616984E-10
       246  16  4.358256E+04  2.086099E+05  2.744703E+04  3.460533E+05  1.231281E-10  5.536303E-10
       246  17 -3.795538E+04 -1.341969E+05 -3.887413E+04  3.078925E+05  2.999153E-10  2.616866E-11
       246  18 -1.222926E+05 -4.785798E+05 -1.101801E+05  3.477210E+05  1.922629E-10 -4.716800E-10
       246  19 -4.328224E+04 -1.540912E+05 -4.421208E+04  3.474322E+05  8.637964E+03 -3.572130E+04
       246  20  3.814380E+04  1.901659E+05  1.727951E+04  3.076086E+05 -1.145648E+04 -3.996937E+04
       246  21  1.171644E+05  5.332424E+05  7.535595E+04  3.457720E+05 -3.088019E+04 -4.422266E+04
       246  22  1.510282E+02  2.724291E+04 -8.382841E+03  3.467430E+05  8.688594E+03 -1.409283E+03
       246  23  9.478727E+01  2.797080E+04 -1.079815E+04  3.077505E+05 -1.140967E+04 -6.774534E+03
       246  24 -2.556526E+03  2.720631E+04 -1.740749E+04  3.467467E+05 -3.083688E+04 -1.214278E+04
       246  25  4.358293E+04  2.086111E+05  2.744921E+04  3.460535E+05  8.739138E+03  3.291255E+04
       246  26 -3.795505E+04 -1.341961E+05 -3.887258E+04  3.078923E+05 -1.136284E+04  2.641190E+04
       246  27 -1.222914E+05 -4.785791E+05 -1.101775E+05  3.477205E+05 -3.079345E+04  1.991167E+04
       247   1  1.717759E+05  7.566434E+05  1.124775E+05  3.511323E+05  4.411696E+04  5.094570E+04
       247   2  2.414643E+05  1.102244E+06  1.758268E+05  2.885213E+05  4.768680E+04  1.192342E+04
       247   3  2.787649E+05  1.444976E+06  2.564560E+05  3.017448E+05  1.587185E+04 -2.710736E+04
       247   4 -1.546151E+03  2.452423E+04 -2.229713E+04  3.462652E+05  4.407250E+04  1.507274E+04
       247   5 -1.566836E+04  3.106623E+04 -3.963860E+04  3.083732E+05  4.772041E+04  3.556302E+04
       247   6 -7.253333E+04  2.428673E+04 -8.101430E+04  3.463355E+05  1.595245E+04  5.606472E+04
       247   7 -1.748979E+05 -7.070725E+05 -1.570891E+05  3.414038E+05  4.402857E+04 -2.075907E+04
       247   8 -2.728699E+05 -1.039016E+06 -2.551604E+05  3.281898E+05  4.775558E+04  5.916264E+04
       247   9 -4.239654E+05 -1.394533E+06 -4.185984E+05  3.908230E+05  1.604512E+04  1.390476E+05
       247  10  1.717731E+05  7.566401E+05  1.124690E+05  3.511304E+05 -2.499220E-10 -1.341152E-09
       247  11  2.414618E+05  1.102243E+06  1.758223E+05  2.885208E+05  2.653879E-10  1.807307E-10
       247  12  2.787644E+05  1.444975E+06  2.564542E+05  3.017451E+05  2.793738E-10  2.879479E-10
       247  13 -1.548297E+03  2.452347E+04 -2.230120E+04  3.462647E+05  5.929140E-10  8.638982E-10
       247  14 -1.567114E+04  3.106426E+04 -3.964525E+04  3.083719E+05  3.695369E-10  3.916032E-11
       247  15 -7.253445E+04  2.428329E+04 -8.102069E+04  3.463348E+05  7.973729E-11 -2.027987E-10
       247  16 -1.749001E+05 -7.070735E+05 -1.570936E+05  3.414045E+05  4.111776E-10  6.828924E-10
       247  17 -2.728733E+05 -1.039021E+06 -2.551712E+05  3.281875E+05 -7.942632E-10  8.399894E-10
       247  18 -4.239709E+05 -1.394554E+06 -4.186353E+05  3.908213E+05 -1.710287E-10 -5.653761E-12
       247  19  1.717759E+05  7.566434E+05  1.124775E+05  3.511323E+05 -4.411696E+04 -5.094570E+04
       247  20  2.414643E+05  1.102244E+06  1.758268E+05  2.885213E+05 -4.768680E+04 -1.192342E+04
       247  21  2.787649E+05  1.444976E+06  2.564560E+05  3.017448E+05 -1.587185E+04  2.710736E+04
       247  22 -1.546151E+03  2.452423E+04 -2.229713E+04  3.462652E+05 -4.407250E+04 -1.507274E+04
       247  23 -1.566836E+04  3.106623E+04 -3.963860E+04  3.083732E+05 -4.772041E+04 -3.556302E+04
       247  24 -7.253333E+04  2.428673E+04 -8.101430E+04  3.463355E+05 -1.595245E+04 -5.606472E+04
       247  25 -1.748979E+05 -7.070725E+05 -1.570891E+05  3.414038E+05 -4.402857E+04  2.075907E+04
       247  26 -2.728699E+05 -1.039016E+06 -2.551604E+05  3.281898E+05 -4.775558E+04 -5.916264E+04
       247  27 -4.239654E+05 -1.394533E+06 -4.185984E+05  3.908230E+05 -1.604512E+04 -1.390476E+05
       248   1  1.076050E+06  2.561359E+05  2.433698E+05  1.799857E+05  6.220558E+04 -1.343222E+04
       248   2  8.868814E+05  2.111200E+05  1.706929E+05  1.636684E+05  2.066733E+04 -4.237034E+04
       248   3  7.035662E+05  1.672687E+05  1.253338E+05  1.878789E+05 -2.084098E+04 -4.476246E+04
       248   4 -6.944011E+03 -1.151063E+04 -1.254170E+04  1.872485E+05 -8.807910E+03 -1.341315E+04
       248   5 -5.929677E+03 -2.697535E+03 -6.053661E+03  1.669838E+05 -5.681313E+03 -4.237161E+04
       248   6 -6.836906E+03 -4.653472E+02 -3.235237E+03  1.872503E+05 -2.537183E+03 -4.476606E+04
       248   7 -1.088850E+06 -2.792383E+05 -2.685154E+05  1.944985E+05 -7.969835E+04 -1.339574E+04
       248   8 -8.979775E+05 -2.165632E+05 -1.828369E+05  1.702942E+05 -3.199289E+04 -4.237316E+04
       248   9 -7.167485E+05 -1.682276E+05 -1.318229E+05  1.866224E+05  1.574627E+04 -4.476969E+04
       248  10  1.076045E+06  2.561347E+05  2.433622E+05  1.799864E+05 -6.700650E-10  3.266476E-10
       248  11  8.868805E+05  2.111180E+05  1.706887E+05  1.636691E+05  8.230065E-10 -1.808331E-10
       248  12  7.035652E+05  1.672665E+05  1.253292E+05  1.878781E+05  9.847576E-10  1.210208E-10
       248  13 -6.944143E+03 -1.151084E+04 -1.254219E+04  1.872484E+05 -4.916410E-11 -3.662295E-10
       248  14 -5.930194E+03 -2.699472E+03 -6.057096E+03  1.669836E+05  2.858593E-10 -1.083485E-10
       248  15 -6.837451E+03 -4.675009E+02 -3.239015E+03  1.872502E+05 -1.143391E-10  6.931872E-11
       248  16 -1.088857E+06 -2.792402E+05 -2.685277E+05  1.944976E+05  4.342501E-13 -3.699678E-10
       248  17 -8.979790E+05 -2.165654E+05 -1.828422E+05  1.702932E+05 -6.311949E-10 -1.595472E-10
       248  18 -7.167493E+05 -1.682298E+05 -1.318272E+05  1.866230E+05 -1.208723E-09 -3.334957E-10
       248  19  1.076050E+06  2.561359E+05  2.433698E+05  1.799857E+05 -6.220558E+04  1.343222E+04
       248  20  8.868814E+05  2.111200E+05  1.706929E+05  1.636684E+05 -2.066733E+04  4.237034E+04
       248  21  7.035662E+05  1.672687E+05  1.253338E+05  1.878789E+05  2.084098E+04  4.476246E+04
       248  22 -6.944011E+03 -1.151063E+04 -1.254170E+04  1.872485E+05  8.807910E+03  1.341315E+04
       248  23 -5.929677E+03 -2.697535E+03 -6.053661E+03  1.669838E+05  5.681313E+03  4.237161E+04
       248  24 -6.836906E+03 -4.653472E+02 -3.235237E+03  1.872503E+05  2.537183E+03  4.476606E+04
       248  25 -1.088850E+06 -2.792383E+05 -2.685154E+05  1.944985E+05  7.969835E+04  1.339574E+04
       248  26 -8.979775E+05 -2.165632E+05 -1.828369E+05  1.702942E+05  3.199289E+04  4.237316E+04
       248  27 -7.167485E+05 -1.682276E+05 -1.318229E+05  1.866224E+05 -1.574627E+04  4.476969E+04
       249   1  5.813426E+05  1.379971E+05  1.030142E+05  1.874355E+05 -1.741544E+04 -3.791877E+04
       249   2  3.950699E+05  9.415378E+04  6.886839E+04  1.664808E+05 -2.055615E+04 -2.772136E+04
       249   3  2.093546E+05  5.061498E+04  3.685049E+04  1.877664E+05 -2.369894E+04 -1.531361E+04
       249   4 -6.406489E+03 -5.945974E+02 -2.401249E+03  1.876300E+05 -2.128069E+03 -3.792016E+04
       249   5 -6.321230E+03 -1.069984E+02 -1.140156E+03  1.665088E+05 -1.555782E+03 -2.771971E+04
       249   6 -6.357257E+03  4.213275E+01 -3.292693E+02  1.876298E+05 -9.864583E+02 -1.530814E+04
       249   7 -5.938185E+05 -1.392053E+05 -1.078291E+05  1.878242E+05  1.314525E+04 -3.792153E+04
       249   8 -4.075538E+05 -9.437632E+04 -7.115306E+04  1.665368E+05  1.743268E+04 -2.771805E+04
       249   9 -2.220223E+05 -5.053293E+04 -3.750868E+04  1.874933E+05  2.171838E+04 -1.530268E+04
       249  10  5.813418E+05  1.379954E+05  1.030109E+05  1.874349E+05  1.243443E-10  5.967243E-11
       249  11  3.950693E+05  9.415284E+04  6.886615E+04  1.664803E+05  4.535876E-10  1.535927E-10
       249  12  2.093539E+05  5.061458E+04  3.684899E+04  1.877662E+05  5.114993E-10  8.605195E-11
       249  13 -6.406880E+03 -5.961427E+02 -2.403960E+03  1.876299E+05  1.606962E-10 -1.274934E-10
       249  14 -6.321439E+03 -1.078242E+02 -1.141604E+03  1.665088E+05  2.320893E-10  9.399828E-11
       249  15 -6.357321E+03  4.188086E+01 -3.297114E+02  1.876298E+05  4.293758E-10  1.156875E-11
       249  16 -5.938190E+05 -1.392069E+05 -1.078321E+05  1.878246E+05 -2.496672E-10 -2.503370E-10
       249  17 -4.075544E+05 -9.437723E+04 -7.115507E+04  1.665372E+05 -4.497094E-10  7.910584E-11
       249  18 -2.220229E+05 -5.053331E+04 -3.751001E+04  1.874935E+05 -1.544626E-10  1.142693E-10
       249  19  5.813426E+05  1.379971E+05  1.030142E+05  1.874355E+05  1.741544E+04  3.791877E+04
       249  20  3.950699E+05  9.415378E+04  6.886839E+04  1.664808E+05  2.055615E+04  2.772136E+04
       249  21  2.093546E+05  5.061498E+04  3.685049E+04  1.877664E+05  2.369894E+04  1.531361E+04
       249  22 -6.406489E+03 -5.945974E+02 -2.401249E+03  1.876300E+05  2.128069E+03  3.792016E+04
       249  23 -6.321230E+03 -1.069984E+02 -1.140156E+03  1.665088E+05  1.555782E+03  2.771971E+04
       249  24 -6.357257E+03  4.213275E+01 -3.292693E+02  1.876298E+05  9.864583E+02  1.530814E+04
       249  25 -5.938185E+05 -1.392053E+05 -1.078291E+05  1.878242E+05 -1.314525E+04  3.792153E+04
       249  26 -4.075538E+05 -9.437632E+04 -7.115306E+04  1.665368E+05 -1.743268E+04  2.771805E+04
       249  27 -2.220223E+05 -5.053293E+04 -3.750868E+04  1.874933E+05 -2.171838E+04  1.530268E+04
       250   1  8.794973E+04  2.199404E+04  1.559006E+04  1.877421E+05 -2.359824E+04 -7.302633E+03
       250   2 -9.783888E+04 -2.158753E+04 -1.621405E+04  1.664691E+05 -2.141968E+04  5.416043E+03
       250   3 -2.839094E+05 -6.536621E+04 -4.948412E+04  1.874805E+05 -1.924129E+04  1.662249E+04
       250   4 -6.295813E+03  2.980003E+01  9.022124E+00  1.876391E+05 -9.611670E+02 -7.296435E+03
       250   5 -6.362609E+03  9.707644E+01  7.261814E+02  1.664971E+05 -1.326252E+03  5.420887E+03
       250   6 -6.306994E+03  4.094296E+02  1.741969E+03  1.876390E+05 -1.690852E+03  1.662615E+04
       250   7 -1.005315E+05 -2.193462E+04 -1.557035E+04  1.875361E+05  2.167258E+04 -7.290242E+03
       250   8  8.512264E+04  2.178142E+04  1.766758E+04  1.665251E+05  1.877006E+04  5.425731E+03
       250   9  2.713709E+05  6.618084E+04  5.296602E+04  1.877975E+05  1.586723E+04  1.662981E+04
       250  10  8.794912E+04  2.199383E+04  1.558891E+04  1.877420E+05  2.901223E-10 -1.222202E-10
       250  11 -9.783939E+04 -2.158768E+04 -1.621496E+04  1.664692E+05  3.238378E-10 -3.155593E-10
       250  12 -2.839099E+05 -6.536661E+04 -4.948534E+04  1.874808E+05 -7.394561E-11  4.682935E-11
       250  13 -6.295828E+03  2.974261E+01  8.920354E+00  1.876391E+05  1.169995E-10 -1.060705E-10
       250  14 -6.362619E+03  9.704441E+01  7.261228E+02  1.664971E+05  5.249072E-10 -5.894252E-11
       250  15 -6.307071E+03  4.091320E+02  1.741444E+03  1.876390E+05 -5.122456E-10 -1.470149E-10
       250  16 -1.005320E+05 -2.193481E+04 -1.557134E+04  1.875363E+05 -8.965002E-11 -1.894355E-14
       250  17  8.512226E+04  2.178129E+04  1.766686E+04  1.665250E+05 -3.192271E-10 -1.490490E-10
       250  18  2.713705E+05  6.618048E+04  5.296502E+04  1.877973E+05 -3.700403E-10  4.504643E-11
       250  19  8.794973E+04  2.199404E+04  1.559006E+04  1.877421E+05  2.359824E+04  7.302633E+03
       250  20 -9.783888E+04 -2.158753E+04 -1.621405E+04  1.664691E+05  2.141968E+04 -5.416043E+03
       250  21 -2.839094E+05 -6.536621E+04 -4.948412E+04  1.874805E+05  1.924129E+04 -1.662249E+04
       250  22 -6.295813E+03  2.980003E+01  9.022124E+00  1.876391E+05  9.611670E+02  7.296435E+03
       250  23 -6.362609E+03  9.707644E+01  7.261814E+02  1.664971E+05  1.326252E+03 -5.420887E+03
       250  24 -6.306994E+03  4.094296E+02  1.741969E+03  1.876390E+05  1.690852E+03 -1.662615E+04
       250  25 -1.005315E+05 -2.193462E+04 -1.557035E+04  1.875361E+05 -2.167258E+04  7.290242E+03
       250  26  8.512264E+04  2.178142E+04  1.766758E+04  1.665251E+05 -1.877006E+04 -5.425731E+03
       250  27  2.713709E+05  6.618084E+04  5.296602E+04  1.877975E+05 -1.586723E+04 -1.662981E+04
       251   1 -4.057721E+05 -9.449927E+04 -7.149675E+04  1.878477E+05 -2.172597E+04  2.383761E+04
       251   2 -5.898048E+05 -1.383132E+05 -1.129247E+05  1.644418E+05  8.429827E+03  2.592160E+04
       251   3 -7.778179E+05 -1.827078E+05 -1.741314E+05  1.820804E+05  3.857016E+04  8.656550E+03
       251   4 -5.987307E+03  2.561674E+02  2.396049E+03  1.873628E+05 -1.995668E+03  2.384042E+04
       251   5 -6.838571E+03  1.810800E+03  4.517700E+03  1.668419E+05 -4.321230E+03  2.591861E+04
       251   6 -6.057572E+03  8.428322E+03  9.427569E+03  1.873627E+05 -6.653508E+03  8.656345E+03
       251   7  3.939533E+05  9.500267E+04  7.628364E+04  1.868775E+05  1.774702E+04  2.384321E+04
       251   8  5.764522E+05  1.419139E+05  1.219433E+05  1.692443E+05 -1.708403E+04  2.591552E+04
       251   9  7.662544E+05  1.995227E+05  1.929526E+05  1.926515E+05 -5.193316E+04  8.655378E+03
       251  10 -4.057727E+05 -9.450000E+04 -7.149870E+04  1.878482E+05  1.678737E-10  1.685281E-10
       251  11 -5.898050E+05 -1.383140E+05 -1.129261E+05  1.644416E+05  4.827599E-10  2.859268E-10
       251  12 -7.778196E+05 -1.827083E+05 -1.741343E+05  1.820802E+05  2.360781E-10  2.332391E-10
       251  13 -5.987464E+03  2.555560E+02  2.394974E+03  1.873629E+05 -4.598997E-10  1.480807E-10
       251  14 -6.838771E+03  1.810074E+03  4.516402E+03  1.668420E+05 -1.895869E-10  2.005662E-10
       251  15 -6.057639E+03  8.428230E+03  9.427345E+03  1.873627E+05 -1.530553E-10 -1.314068E-10
       251  16  3.939528E+05  9.500198E+04  7.628198E+04  1.868772E+05 -1.841622E-10  1.378093E-10
       251  17  5.764517E+05  1.419131E+05  1.219415E+05  1.692446E+05 -6.615425E-10  8.163041E-11
       251  18  7.662515E+05  1.995219E+05  1.929474E+05  1.926518E+05 -1.810039E-10 -6.546777E-11
       251  19 -4.057721E+05 -9.449927E+04 -7.149675E+04  1.878477E+05  2.172597E+04 -2.383761E+04
       251  20 -5.898048E+05 -1.383132E+05 -1.129247E+05  1.644418E+05 -8.429827E+03 -2.592160E+04
       251  21 -7.778179E+05 -1.827078E+05 -1.741314E+05  1.820804E+05 -3.857016E+04 -8.656550E+03
       251  22 -5.987307E+03  2.561674E+02  2.396049E+03  1.873628E+05  1.995668E+03 -2.384042E+04
       251  23 -6.838571E+03  1.810800E+03  4.517700E+03  1.668419E+05  4.321230E+03 -2.591861E+04
       251  24 -6.057572E+03  8.428322E+03  9.427569E+03  1.873627E+05  6.653508E+03 -8.656345E+03
       251  25  3.939533E+05  9.500267E+04  7.628364E+04  1.868775E+05 -1.774702E+04 -2.384321E+04
       251  26  5.764522E+05  1.419139E+05  1.219433E+05  1.692443E+05  1.708403E+04 -2.591552E+04
       251  27  7.662544E+05  1.995227E+05  1.929526E+05  1.926515E+05  5.193316E+04 -8.655378E+03
       252   1 -3.580468E+05 -1.396662E+06 -3.456943E+05  4.222800E+05 -1.508847E+04 -7.928257E+04
       252   2 -2.447884E+05 -9.715551E+05 -2.073665E+05  3.757060E+05 -4.293643E+04 -1.825899E+04
       252   3 -1.423417E+05 -5.570036E+05 -1.115520E+05  4.222803E+05 -3.429883E+04  4.278425E+04
       252   4 -2.226572E+02  4.655337E+04 -9.857693E+02  4.231752E+05 -1.497753E+04 -1.827116E+03
       252   5  5.419221E+02  4.673253E+04  4.174231E+02  3.766050E+05 -4.290567E+04 -1.979487E+03
       252   6  1.146589E+03  4.683099E+04  1.853645E+03  4.231736E+05 -3.437564E+04 -2.155266E+03
       252   7  3.574539E+05  1.491694E+06  3.435987E+05  4.240712E+05 -1.486655E+04  7.580790E+04
       252   8  2.458075E+05  1.066007E+06  2.081477E+05  3.775049E+05 -4.287489E+04  1.432626E+04
       252   9  1.446149E+05  6.510225E+05  1.152510E+05  4.240676E+05 -3.445251E+04 -4.713744E+04
       252  10 -3.580487E+05 -1.396669E+06 -3.457066E+05  4.222791E+05  1.345261E-11  7.045669E-10
       252  11 -2.447905E+05 -9.715560E+05 -2.073706E+05  3.757054E+05  5.102303E-10  9.956056E-10
       252  12 -1.423435E+05 -5.570058E+05 -1.115576E+05  4.222814E+05 -9.044066E-11 -3.892641E-11
       252  13 -2.228989E+02  4.655331E+04 -9.861971E+02  4.231752E+05 -1.865356E-10  7.454395E-10
       252  14  5.399443E+02  4.673203E+04  4.139565E+02  3.766050E+05  1.806310E-09  9.695229E-10
       252  15  1.145319E+03  4.683067E+04  1.851416E+03  4.231735E+05 -8.679375E-12  4.301860E-10
       252  16  3.574521E+05  1.491688E+06  3.435875E+05  4.240721E+05  2.132141E-10  8.820300E-12
       252  17  2.458055E+05  1.066007E+06  2.081439E+05  3.775054E+05  1.146294E-10 -8.105632E-10
       252  18  1.446130E+05  6.510198E+05  1.152446E+05  4.240663E+05  4.635757E-10  1.061603E-09
       252  19 -3.580468E+05 -1.396662E+06 -3.456943E+05  4.222800E+05  1.508847E+04  7.928257E+04
       252  20 -2.447884E+05 -9.715551E+05 -2.073665E+05  3.757060E+05  4.293643E+04  1.825899E+04
       252  21 -1.423417E+05 -5.570036E+05 -1.115520E+05  4.222803E+05  3.429883E+04 -4.278425E+04
       252  22 -2.226572E+02  4.655337E+04 -9.857693E+02  4.231752E+05  1.497753E+04  1.827116E+03
       252  23  5.419221E+02  4.673253E+04  4.174231E+02  3.766050E+05  4.290567E+04  1.979487E+03
       252  24  1.146589E+03  4.683099E+04  1.853645E+03  4.231736E+05  3.437564E+04  2.155266E+03
       252  25  3.574539E+05  1.491694E+06  3.435987E+05  4.240712E+05  1.486655E+04 -7.580790E+04
       252  26  2.458075E+05  1.066007E+06  2.081477E+05  3.775049E+05  4.287489E+04 -1.432626E+04
       252  27  1.446149E+05  6.510225E+05  1.152510E+05  4.240676E+05  3.445251E+04  4.713744E+04
       253   1 -7.699959E+04 -2.812086E+05 -5.979594E+04  4.229582E+05 -1.782279E+04  3.857317E+04
       253   2  2.282919E+04  1.382452E+05  2.097988E+04  3.763308E+05  6.492257E+03  3.534739E+04
       253   3  1.242851E+05  5.584713E+05  1.041842E+05  4.249795E+05  3.042793E+04  3.212164E+04
       253   4  1.154192E+03  4.700751E+04  2.697186E+03  4.236491E+05 -1.789701E+04 -2.599058E+03
       253   5  1.362959E+03  4.674850E+04  5.138717E+03  3.760092E+05  6.420685E+03 -5.199643E+03
       253   6  3.098857E+03  4.698210E+04  9.574465E+03  4.236457E+05  3.035863E+04 -7.798144E+03
       253   7  7.930255E+04  3.753311E+05  6.519184E+04  4.243404E+05 -1.797130E+04 -4.379254E+04
       253   8 -2.010284E+04 -4.473648E+04 -1.069656E+04  3.756876E+05  6.349148E+03 -4.574089E+04
       253   9 -1.181015E+05 -4.642502E+05 -8.504024E+04  4.223129E+05  3.028947E+04 -4.768592E+04
       253  10 -7.700033E+04 -2.812103E+05 -5.979934E+04  4.229588E+05 -1.464960E-10 -7.294122E-10
       253  11  2.282881E+04  1.382439E+05  2.097746E+04  3.763306E+05 -8.981927E-10  1.941392E-09
       253  12  1.242838E+05  5.584699E+05  1.041805E+05  4.249787E+05  3.396369E-10  2.684236E-09
       253  13  1.153846E+03  4.700742E+04  2.696572E+03  4.236491E+05 -2.753831E-10  1.208203E-09
       253  14  1.362908E+03  4.674846E+04  5.138589E+03  3.760092E+05 -2.082183E-09  1.256986E-09
       253  15  3.097850E+03  4.698179E+04  9.572618E+03  4.236459E+05 -1.145385E-09  4.511218E-10
       253  16  7.930169E+04  3.753290E+05  6.518764E+04  4.243397E+05 -2.097486E-10  1.919997E-09
       253  17 -2.010345E+04 -4.473874E+04 -1.070057E+04  3.756878E+05 -2.379906E-10 -1.725217E-09
       253  18 -1.181031E+05 -4.642529E+05 -8.504625E+04  4.223140E+05  1.204432E-10 -1.691311E-09
       253  19 -7.699959E+04 -2.812086E+05 -5.979594E+04  4.229582E+05  1.782279E+04 -3.857317E+04
       253  20  2.282919E+04  1.382452E+05  2.097988E+04  3.763308E+05 -6.492257E+03 -3.534739E+04
       253  21  1.242851E+05  5.584713E+05  1.041842E+05  4.249795E+05 -3.042793E+04 -3.212164E+04
       253  22  1.154192E+03  4.700751E+04  2.697186E+03  4.236491E+05  1.789701E+04  2.599058E+03
       253  23  1.362959E+03  4.674850E+04  5.138717E+03  3.760092E+05 -6.420685E+03  5.199643E+03
       253  24  3.098857E+03  4.698210E+04  9.574465E+03  4.236457E+05 -3.035863E+04  7.798144E+03
       253  25  7.930255E+04  3.753311E+05  6.519184E+04  4.243404E+05  1.797130E+04  4.379254E+04
       253  26 -2.010284E+04 -4.473648E+04 -1.069656E+04  3.756876E+05 -6.349148E+03  4.574089E+04
       253  27 -1.181015E+05 -4.642502E+05 -8.504024E+04  4.223129E+05 -3.028947E+04  4.768592E+04
       254   1  1.889350E+05  8.361746E+05  1.584087E+05  4.214695E+05  4.670552E+04  3.475361E+04
       254   2  2.989088E+05  1.246573E+06  2.657551E+05  3.899264E+05  5.251610E+04 -4.559847E+04
       254   3  4.463294E+05  1.676923E+06  4.346938E+05  4.512163E+05  1.761395E+04 -1.259852E+05
       254   4  2.350928E+03  4.856921E+04  1.263158E+04  4.231088E+05  4.663470E+04 -9.478472E+03
       254   5  1.006865E+04  4.443402E+04  2.296195E+04  3.766652E+05  5.256055E+04 -2.130529E+04
       254   6  4.339770E+04  4.824119E+04  4.736836E+04  4.230556E+05  1.774137E+04 -3.311092E+04
       254   7 -1.842676E+05 -7.384313E+05 -1.331642E+05  4.247455E+05  4.656358E+04 -5.365594E+04
       254   8 -2.788601E+05 -1.156328E+06 -2.199035E+05  3.634294E+05  5.260402E+04  2.941860E+03
       254   9 -3.597176E+05 -1.577990E+06 -3.401099E+05  3.949674E+05  1.786062E+04  5.952149E+04
       254  10  1.889324E+05  8.361727E+05  1.584024E+05  4.214682E+05  2.532085E-11 -4.621960E-10
       254  11  2.989052E+05  1.246570E+06  2.657460E+05  3.899283E+05  9.559353E-11  6.554676E-10
       254  12  4.463248E+05  1.676906E+06  4.346635E+05  4.512181E+05  2.772481E-10  4.552888E-10
       254  13  2.348568E+03  4.856853E+04  1.262733E+04  4.231091E+05  1.341862E-09  1.143881E-09
       254  14  1.006556E+04  4.443279E+04  2.295590E+04  3.766661E+05 -5.434813E-10  8.659800E-10
       254  15  4.339707E+04  4.823993E+04  4.736571E+04  4.230560E+05  1.321509E-10  2.440043E-10
       254  16 -1.842707E+05 -7.384350E+05 -1.331737E+05  4.247475E+05  4.898955E-10  1.579865E-09
       254  17 -2.788630E+05 -1.156329E+06 -2.199087E+05  3.634293E+05 -5.529049E-10 -3.442294E-10
       254  18 -3.597189E+05 -1.577994E+06 -3.401172E+05  3.949665E+05  3.565769E-11  1.004275E-10
       254  19  1.889350E+05  8.361746E+05  1.584087E+05  4.214695E+05 -4.670552E+04 -3.475361E+04
       254  20  2.989088E+05  1.246573E+06  2.657551E+05  3.899264E+05 -5.251610E+04  4.559847E+04
       254  21  4.463294E+05  1.676923E+06  4.346938E+05  4.512163E+05 -1.761395E+04  1.259852E+05
       254  22  2.350928E+03  4.856921E+04  1.263158E+04  4.231088E+05 -4.663470E+04  9.478472E+03
       254  23  1.006865E+04  4.443402E+04  2.296195E+04  3.766652E+05 -5.256055E+04  2.130529E+04
       254  24  4.339770E+04  4.824119E+04  4.736836E+04  4.230556E+05 -1.774137E+04  3.311092E+04
       254  25 -1.842676E+05 -7.384313E+05 -1.331642E+05  4.247455E+05 -4.656358E+04  5.365594E+04
       254  26 -2.788601E+05 -1.156328E+06 -2.199035E+05  3.634294E+05 -5.260402E+04 -2.941860E+03
       254  27 -3.597176E+05 -1.577990E+06 -3.401099E+05  3.949674E+05 -1.786062E+04 -5.952149E+04
       255   1  8.624688E+05  2.257795E+05  2.154795E+05  1.324567E+05  6.235081E+04 -1.178960E+04
       255   2  7.270400E+05  1.866121E+05  1.532777E+05  1.184108E+05  2.508149E+04 -3.789455E+04
       255   3  5.981198E+05  1.537192E+05  1.168979E+05  1.328804E+05 -1.217079E+04 -4.172485E+04
       255   4 -5.376062E+04 -5.871586E+02 -5.821804E+02  1.328186E+05 -2.838019E+02 -1.178542E+04
       255   5 -5.372533E+04 -2.091832E+02 -3.861546E+02  1.185603E+05 -8.249099E+01 -3.789956E+04
       255   6 -5.369438E+04 -5.316055E+01 -3.678294E+02  1.328186E+05  1.272119E+02 -4.172621E+04
       255   7 -9.692102E+05 -2.270118E+05 -2.166871E+05  1.331799E+05 -6.282660E+04 -1.178132E+04
       255   8 -8.339059E+05 -1.870670E+05 -1.540773E+05  1.187095E+05 -2.521553E+04 -3.790459E+04
       255   9 -7.050946E+05 -1.538491E+05 -1.176495E+05  1.327568E+05  1.241268E+04 -4.172757E+04
       255  10  8.624646E+05  2.257784E+05  2.154720E+05  1.324573E+05 -3.094422E-10  2.057694E-10
       255  11  7.270389E+05  1.866104E+05  1.532738E+05  1.184116E+05 -8.742640E-11 -2.970106E-11
       255  12  5.981192E+05  1.537172E+05  1.168944E+05  1.328800E+05 -1.376164E-10 -2.289469E-10
       255  13 -5.376066E+04 -5.873077E+02 -5.824416E+02  1.328186E+05 -5.924617E-10 -4.210610E-10
       255  14 -5.372572E+04 -2.107255E+02 -3.888538E+02  1.185603E+05 -2.160405E-10 -1.564095E-10
       255  15 -5.369485E+04 -5.503013E+01 -3.711012E+02  1.328186E+05  4.079387E-10 -4.403472E-11
       255  16 -9.692144E+05 -2.270130E+05 -2.166948E+05  1.331793E+05 -3.849385E-10 -3.329490E-10
       255  17 -8.339070E+05 -1.870687E+05 -1.540812E+05  1.187087E+05  7.896661E-11 -9.272816E-11
       255  18 -7.050952E+05 -1.538510E+05 -1.176530E+05  1.327572E+05  1.272522E-10 -1.615676E-11
       255  19  8.624688E+05  2.257795E+05  2.154795E+05  1.324567E+05 -6.235081E+04  1.178960E+04
       255  20  7.270400E+05  1.866121E+05  1.532777E+05  1.184108E+05 -2.508149E+04  3.789455E+04
       255  21  5.981198E+05  1.537192E+05  1.168979E+05  1.328804E+05  1.217079E+04  4.172485E+04
       255  22 -5.376062E+04 -5.871586E+02 -5.821804E+02  1.328186E+05  2.838019E+02  1.178542E+04
       255  23 -5.372533E+04 -2.091832E+02 -3.861546E+02  1.185603E+05  8.249099E+01  3.789956E+04
       255  24 -5.369438E+04 -5.316055E+01 -3.678294E+02  1.328186E+05 -1.272119E+02  4.172621E+04
       255  25 -9.692102E+05 -2.270118E+05 -2.166871E+05  1.331799E+05  6.282660E+04  1.178132E+04
       255  26 -8.339059E+05 -1.870670E+05 -1.540773E+05  1.187095E+05  2.521553E+04  3.790459E+04
       255  27 -7.050946E+05 -1.538491E+05 -1.176495E+05  1.327568E+05 -1.241268E+04  4.172757E+04
       256   1  5.109290E+05  1.329809E+05  1.001826E+05  1.331770E+05 -9.572802E+03 -3.704289E+04
       256   2  3.786618E+05  1.014609E+05  7.432281E+04  1.181957E+05 -1.246346E+04 -3.028472E+04
       256   3  2.469354E+05  7.046556E+04  5.047864E+04  1.331694E+05 -1.535621E+04 -2.162507E+04
       256   4 -5.368050E+04 -2.917004E+01 -4.175872E+02  1.331385E+05  1.913246E+02 -3.704325E+04
       256   5 -5.364534E+04  2.976791E+01 -6.132737E+02  1.181603E+05  4.959162E+02 -3.028230E+04
       256   6 -5.364288E+04  5.918080E+01 -1.012009E+03  1.331385E+05  7.977758E+02 -2.161917E+04
       256   7 -6.179788E+05 -1.330568E+05 -1.010294E+05  1.331001E+05  9.946831E+03 -3.704362E+04
       256   8 -4.857689E+05 -1.014114E+05 -7.555523E+04  1.181250E+05  1.344655E+04 -3.027987E+04
       256   9 -3.541319E+05 -7.035187E+04 -5.250471E+04  1.331076E+05  1.694419E+04 -2.161327E+04
       256  10  5.109285E+05  1.329794E+05  1.001798E+05  1.331767E+05 -4.562246E-10 -1.733591E-11
       256  11  3.786614E+05  1.014599E+05  7.432080E+04  1.181954E+05 -6.330496E-11 -5.948015E-10
       256  12  2.469351E+05  7.046499E+04  5.047732E+04  1.331692E+05  8.118301E-10 -3.099699E-10
       256  13 -5.368087E+04 -3.064352E+01 -4.201658E+02  1.331385E+05  1.978524E-11 -4.269087E-11
       256  14 -5.364558E+04  2.878315E+01 -6.149974E+02  1.181603E+05  5.906286E-10 -2.729560E-10
       256  15 -5.364301E+04  5.867875E+01 -1.012888E+03  1.331385E+05  1.344403E-10 -4.006023E-10
       256  16 -6.179793E+05 -1.330583E+05 -1.010322E+05  1.331004E+05  8.666927E-10 -1.441625E-10
       256  17 -4.857694E+05 -1.014124E+05 -7.555729E+04  1.181253E+05  2.975354E-10 -1.730552E-10
       256  18 -3.541323E+05 -7.035245E+04 -5.250612E+04  1.331079E+05 -4.862075E-10  3.030148E-11
       256  19  5.109290E+05  1.329809E+05  1.001826E+05  1.331770E+05  9.572802E+03  3.704289E+04
       256  20  3.786618E+05  1.014609E+05  7.432281E+04  1.181957E+05  1.246346E+04  3.028472E+04
       256  21  2.469354E+05  7.046556E+04  5.047864E+04  1.331694E+05  1.535621E+04  2.162507E+04
       256  22 -5.368050E+04 -2.917004E+01 -4.175872E+02  1.331385E+05 -1.913246E+02  3.704325E+04
       256  23 -5.364534E+04  2.976791E+01 -6.132737E+02  1.181603E+05 -4.959162E+02  3.028230E+04
       256  24 -5.364288E+04  5.918080E+01 -1.012009E+03  1.331385E+05 -7.977758E+02  2.161917E+04
       256  25 -6.179788E+05 -1.330568E+05 -1.010294E+05  1.331001E+05 -9.946831E+03  3.704362E+04
       256  26 -4.857689E+05 -1.014114E+05 -7.555523E+04  1.181250E+05 -1.344655E+04  3.027987E+04
       256  27 -3.541319E+05 -7.035187E+04 -5.250471E+04  1.331076E+05 -1.694419E+04  2.161327E+04
       257   1  1.606692E+05  5.019257E+04  3.484099E+04  1.330730E+05 -1.503265E+04 -1.593968E+04
       257   2  2.895511E+04  1.910146E+04  1.093310E+04  1.182586E+05 -1.264475E+04 -6.767472E+03
       257   3 -1.032623E+05 -1.276391E+04 -1.472844E+04  1.334736E+05 -1.025778E+04  1.664448E+03
       257   4 -5.369417E+04  9.085962E+01 -1.319996E+03  1.331548E+05  9.989121E+02 -1.593295E+04
       257   5 -5.353948E+04 -4.339469E+01 -2.295444E+03  1.181401E+05  2.141460E+03 -6.760836E+03
       257   6 -5.368699E+04 -7.345019E+02 -4.159568E+03  1.331551E+05  3.283536E+03  1.670965E+03
       257   7 -2.680118E+05 -5.001313E+04 -3.748148E+04  1.332364E+05  1.702512E+04 -1.592621E+04
       257   8 -1.360268E+05 -1.918848E+04 -1.552335E+04  1.180216E+05  1.692578E+04 -6.754206E+03
       257   9 -4.108973E+03  1.129485E+04  6.409855E+03  1.328366E+05  1.682592E+04  1.677468E+03
       257  10  1.606689E+05  5.019224E+04  3.484009E+04  1.330728E+05 -7.445395E-11 -2.609305E-10
       257  11  2.895493E+04  1.910137E+04  1.093271E+04  1.182586E+05  9.930909E-11 -2.080671E-10
       257  12 -1.032624E+05 -1.276394E+04 -1.472865E+04  1.334736E+05  5.496772E-10 -6.769767E-10
       257  13 -5.369424E+04  9.058675E+01 -1.320475E+03  1.331548E+05  1.236972E-10 -3.420848E-10
       257  14 -5.353950E+04 -4.344501E+01 -2.295539E+03  1.181401E+05 -4.717149E-10 -3.785729E-10
       257  15 -5.368700E+04 -7.345078E+02 -4.159593E+03  1.331551E+05  6.013790E-11 -3.383986E-10
       257  16 -2.680122E+05 -5.001348E+04 -3.748250E+04  1.332367E+05 -2.823871E-10 -2.308799E-10
       257  17 -1.360272E+05 -1.918860E+04 -1.552397E+04  1.180217E+05  4.235677E-11  4.197578E-10
       257  18 -4.109277E+03  1.129477E+04  6.409318E+03  1.328366E+05 -4.361662E-10  1.337940E-10
       257  19  1.606692E+05  5.019257E+04  3.484099E+04  1.330730E+05  1.503265E+04  1.593968E+04
       257  20  2.895511E+04  1.910146E+04  1.093310E+04  1.182586E+05  1.264475E+04  6.767472E+03
       257  21 -1.032623E+05 -1.276391E+04 -1.472844E+04  1.334736E+05  1.025778E+04 -1.664448E+03
       257  22 -5.369417E+04  9.085962E+01 -1.319996E+03  1.331548E+05 -9.989121E+02  1.593295E+04
       257  23 -5.353948E+04 -4.339469E+01 -2.295444E+03  1.181401E+05 -2.141460E+03  6.760836E+03
       257  24 -5.368699E+04 -7.345019E+02 -4.159568E+03  1.331551E+05 -3.283536E+03 -1.670965E+03
       257  25 -2.680118E+05 -5.001313E+04 -3.748148E+04  1.332364E+05 -1.702512E+04  1.592621E+04
       257  26 -1.360268E+05 -1.918848E+04 -1.552335E+04  1.180216E+05 -1.692578E+04  6.754206E+03
       257  27 -4.108973E+03  1.129485E+04  6.409855E+03  1.328366E+05 -1.682592E+04 -1.677468E+03
       258   1 -1.905110E+05 -3.297666E+04 -3.188074E+04  1.318883E+05 -1.070437E+04  6.960405E+03
       258   2 -3.193456E+05 -6.834971E+04 -6.504398E+04  1.234556E+05  1.170794E+04  1.057343E+04
       258   3 -4.545492E+05 -1.175639E+05 -1.162666E+05  1.443960E+05  3.411675E+04  3.893013E+03
       258   4 -5.437409E+04 -4.600549E+02 -5.459991E+03  1.330087E+05  3.991351E+03  6.967190E+03
       258   5 -5.269550E+04 -3.989132E+03 -9.926453E+03  1.183249E+05  9.118481E+03  1.057192E+04
       258   6 -5.439743E+04 -1.835340E+04 -2.044342E+04  1.330148E+05  1.424700E+04  3.884773E+03
       258   7  8.178106E+04  3.205556E+04  2.096070E+04  1.341293E+05  1.869022E+04  6.974028E+03
       258   8  2.140221E+05  6.036704E+04  4.518727E+04  1.131920E+05  6.527923E+03  1.057045E+04
       258   9  3.459023E+05  8.084623E+04  7.537002E+04  1.216262E+05 -5.635501E+03  3.877265E+03
       258  10 -1.905111E+05 -3.297674E+04 -3.188105E+04  1.318884E+05  1.509710E-11 -9.444117E-10
       258  11 -3.193457E+05 -6.834986E+04 -6.504445E+04  1.234555E+05 -1.405325E-10 -1.067242E-09
       258  12 -4.545505E+05 -1.175643E+05 -1.162688E+05  1.443959E+05 -3.516053E-10 -2.626488E-10
       258  13 -5.437412E+04 -4.601113E+02 -5.460112E+03  1.330087E+05  1.889385E-10 -1.757592E-09
       258  14 -5.269562E+04 -3.989274E+03 -9.926820E+03  1.183248E+05  1.340967E-10  6.007873E-10
       258  15 -5.439765E+04 -1.835347E+04 -2.044383E+04  1.330147E+05  1.912201E-10 -4.030362E-11
       258  16  8.178067E+04  3.205541E+04  2.095995E+04  1.341292E+05  5.395049E-11 -3.634394E-11
       258  17  2.140220E+05  6.036691E+04  4.518698E+04  1.131920E+05  5.372899E-10  6.086409E-10
       258  18  3.459022E+05  8.084620E+04  7.536993E+04  1.216262E+05  3.701154E-10 -2.294182E-10
       258  19 -1.905110E+05 -3.297666E+04 -3.188074E+04  1.318883E+05  1.070437E+04 -6.960405E+03
       258  20 -3.193456E+05 -6.834971E+04 -6.504398E+04  1.234556E+05 -1.170794E+04 -1.057343E+04
       258  21 -4.545492E+05 -1.175639E+05 -1.162666E+05  1.443960E+05 -3.411675E+04 -3.893013E+03
       258  22 -5.437409E+04 -4.600549E+02 -5.459991E+03  1.330087E+05 -3.991351E+03 -6.967190E+03
       258  23 -5.269550E+04 -3.989132E+03 -9.926453E+03  1.183249E+05 -9.118481E+03 -1.057192E+04
       258  24 -5.439743E+04 -1.835340E+04 -2.044342E+04  1.330148E+05 -1.424700E+04 -3.884773E+03
       258  25  8.178106E+04  3.205556E+04  2.096070E+04  1.341293E+05 -1.869022E+04 -6.974028E+03
       258  26  2.140221E+05  6.036704E+04  4.518727E+04  1.131920E+05 -6.527923E+03 -1.057045E+04
       258  27  3.459023E+05  8.084623E+04  7.537002E+04  1.216262E+05  5.635501E+03 -3.877265E+03
       259   1 -1.988325E+05 -8.524996E+05 -1.912015E+05  2.517760E+05 -8.147205E+03 -4.436120E+04
       259   2 -1.331206E+05 -5.982157E+05 -1.095333E+05  2.243945E+05 -2.274538E+04 -1.198148E+04
       259   3 -7.221087E+04 -3.493134E+05 -5.017570E+04  2.529147E+05 -1.680675E+04  2.040506E+04
       259   4  1.677834E+03 -4.380529E+04  2.205434E+03  2.535037E+05 -8.113139E+03 -2.582852E+03
       259   5  5.070230E+02 -4.403348E+04  4.198999E+03  2.255549E+05 -2.273738E+04 -4.666194E+03
       259   6  5.268929E+02 -4.371465E+04  7.836335E+03  2.535043E+05 -1.683327E+04 -6.756675E+03
       259   7  2.021417E+05  7.654928E+05  1.955728E+05  2.552334E+05 -8.078872E+03  3.924973E+04
       259   8  1.341153E+05  5.104407E+05  1.179151E+05  2.267162E+05 -2.272936E+04  2.655508E+03
       259   9  7.325958E+04  2.619759E+05  6.584697E+04  2.540941E+05 -1.685984E+04 -3.393147E+04
       259  10 -1.988331E+05 -8.525017E+05 -1.912053E+05  2.517757E+05  3.231520E-10 -6.583098E-10
       259  11 -1.331212E+05 -5.982160E+05 -1.095345E+05  2.243943E+05  4.248156E-10 -6.045030E-10
       259  12 -7.221129E+04 -3.493140E+05 -5.017702E+04  2.529150E+05  2.353763E-11 -1.936002E-10
       259  13  1.677762E+03 -4.380531E+04  2.205297E+03  2.535037E+05 -2.618130E-10  4.112664E-10
       259  14  5.064621E+02 -4.403364E+04  4.197986E+03  2.255548E+05  7.334923E-10 -5.763632E-10
       259  15  5.265764E+02 -4.371477E+04  7.835717E+03  2.535042E+05 -7.084705E-11  1.185783E-09
       259  16  2.021412E+05  7.654911E+05  1.955698E+05  2.552337E+05 -2.186560E-10 -1.912909E-10
       259  17  1.341148E+05  5.104405E+05  1.179141E+05  2.267163E+05 -3.303795E-10  2.871335E-10
       259  18  7.325897E+04  2.619745E+05  6.584428E+04  2.540937E+05  4.642533E-10  3.775586E-10
       259  19 -1.988325E+05 -8.524996E+05 -1.912015E+05  2.517760E+05  8.147205E+03  4.436120E+04
       259  20 -1.331206E+05 -5.982157E+05 -1.095333E+05  2.243945E+05  2.274538E+04  1.198148E+04
       259  21 -7.221087E+04 -3.493134E+05 -5.017570E+04  2.529147E+05  1.680675E+04 -2.040506E+04
       259  22  1.677834E+03 -4.380529E+04  2.205434E+03  2.535037E+05  8.113139E+03  2.582852E+03
       259  23  5.070230E+02 -4.403348E+04  4.198999E+03  2.255549E+05  2.273738E+04  4.666194E+03
       259  24  5.268929E+02 -4.371465E+04  7.836335E+03  2.535043E+05  1.683327E+04  6.756675E+03
       259  25  2.021417E+05  7.654928E+05  1.955728E+05  2.552334E+05  8.078872E+03 -3.924973E+04
       259  26  1.341153E+05  5.104407E+05  1.179151E+05  2.267162E+05  2.272936E+04 -2.655508E+03
       259  27  7.325958E+04  2.619759E+05  6.584697E+04  2.540941E+05  1.685984E+04  3.393147E+04
       260   1 -3.322136E+04 -1.837782E+05 -1.713421E+04  2.524759E+05 -6.873209E+03  1.670964E+04
       260   2  2.743107E+04  6.651378E+04  3.775284E+04  2.260338E+05  7.806418E+03  6.674336E+03
       260   3  9.298973E+04  3.193289E+05  1.003728E+05  2.566808E+05  2.202488E+04 -3.363441E+03
       260   4  3.975215E+02 -4.330420E+04  1.045253E+04  2.537696E+05 -6.898779E+03 -8.353871E+03
       260   5  1.387951E+03 -4.447842E+04  1.853684E+04  2.252218E+05  7.782653E+03 -1.761705E+04
       260   6  7.155021E+03 -4.332195E+04  3.382086E+04  2.537630E+05  2.200282E+04 -2.687886E+04
       260   7  3.401555E+04  9.719010E+04  3.804068E+04  2.550635E+05 -6.924449E+03 -3.342293E+04
       260   8 -2.465552E+04 -1.554573E+05 -6.773654E+02  2.244100E+05  7.758949E+03 -4.190423E+04
       260   9 -7.868684E+04 -4.058440E+05 -3.273436E+04  2.508469E+05  2.198097E+04 -5.038092E+04
       260  10 -3.322148E+04 -1.837786E+05 -1.713482E+04  2.524760E+05  1.266000E-10 -1.312466E-09
       260  11  2.743100E+04  6.651372E+04  3.775264E+04  2.260337E+05 -1.423758E-10 -6.763458E-10
       260  12  9.298921E+04  3.193288E+05  1.003718E+05  2.566809E+05 -3.057972E-10  3.019493E-11
       260  13  3.974517E+02 -4.330429E+04  1.045231E+04  2.537695E+05  7.934080E-11  6.665553E-10
       260  14  1.387803E+03 -4.447877E+04  1.853614E+04  2.252219E+05  1.071496E-09 -6.845521E-10
       260  15  7.154307E+03 -4.332286E+04  3.381859E+04  2.537635E+05 -5.410185E-10  1.223076E-09
       260  16  3.401520E+04  9.718889E+04  3.803849E+04  2.550633E+05  2.205899E-10 -2.667628E-11
       260  17 -2.465605E+04 -1.554592E+05 -6.807797E+02  2.244102E+05  2.558886E-10  3.691650E-10
       260  18 -7.868804E+04 -4.058468E+05 -3.274005E+04  2.508478E+05  2.093015E-10  3.048786E-10
       260  19 -3.322136E+04 -1.837782E+05 -1.713421E+04  2.524759E+05  6.873209E+03 -1.670964E+04
       260  20  2.743107E+04  6.651378E+04  3.775284E+04  2.260338E+05 -7.806418E+03 -6.674336E+03
       260  21  9.298973E+04  3.193289E+05  1.003728E+05  2.566808E+05 -2.202488E+04  3.363441E+03
       260  22  3.975215E+02 -4.330420E+04  1.045253E+04  2.537696E+05  6.898779E+03  8.353871E+03
       260  23  1.387951E+03 -4.447842E+04  1.853684E+04  2.252218E+05 -7.782653E+03  1.761705E+04
       260  24  7.155021E+03 -4.332195E+04  3.382086E+04  2.537630E+05 -2.200282E+04  2.687886E+04
       260  25  3.401555E+04  9.719010E+04  3.804068E+04  2.550635E+05  6.924449E+03  3.342293E+04
       260  26 -2.465552E+04 -1.554573E+05 -6.773654E+02  2.244100E+05 -7.758949E+03  4.190423E+04
       260  27 -7.868684E+04 -4.058440E+05 -3.273436E+04  2.508469E+05 -2.198097E+04  5.038092E+04
       261   1  1.298793E+05  4.903912E+05  1.417434E+05  2.449345E+05  3.171195E+04 -6.427340E+03
       261   2  2.196960E+05  7.245770E+05  2.370694E+05  2.684140E+05  3.440396E+04 -9.141217E+04
       261   3  4.055933E+05  9.938945E+05  4.117088E+05  3.474393E+05  1.137465E+04 -1.764287E+05
       261   4  4.842288E+03 -3.773071E+04  4.444822E+04  2.534261E+05  3.168955E+04 -3.267740E+04
       261   5  3.319866E+04 -5.160035E+04  8.081228E+04  2.256129E+05  3.442678E+04 -7.438693E+04
       261   6  1.501916E+05 -3.785373E+04  1.664947E+05  2.533279E+05  1.144199E+04 -1.160910E+05
       261   7 -1.202100E+05 -5.655805E+05 -5.285590E+04  2.619102E+05  3.166641E+04 -5.890572E+04
       261   8 -1.533290E+05 -8.271993E+05 -7.547370E+04  1.828662E+05  3.444728E+04 -5.738249E+04
       261   9 -1.052518E+05 -1.068599E+06 -7.877544E+04  1.593732E+05  1.149114E+04 -5.585275E+04
       261  10  1.298782E+05  4.903908E+05  1.417415E+05  2.449347E+05 -1.891486E-10 -8.844450E-10
       261  11  2.196925E+05  7.245677E+05  2.370515E+05  2.684165E+05  1.945563E-10 -5.838224E-10
       261  12  4.055849E+05  9.938611E+05  4.116501E+05  3.474409E+05  2.754090E-10 -1.687253E-10
       261  13  4.840923E+03 -3.773213E+04  4.444432E+04  2.534270E+05  6.142066E-10  6.059504E-10
       261  14  3.319590E+04 -5.160661E+04  8.079965E+04  2.256150E+05  4.449167E-10 -4.260338E-10
       261  15  1.501878E+05 -3.786824E+04  1.664691E+05  2.533290E+05  5.181180E-11  4.665838E-10
       261  16 -1.202120E+05 -5.655845E+05 -5.286432E+04  2.619117E+05  2.654965E-10 -2.044563E-10
       261  17 -1.533311E+05 -8.272031E+05 -7.548212E+04  1.828678E+05 -2.263048E-10  4.954087E-10
       261  18 -1.052528E+05 -1.068602E+06 -7.878156E+04  1.593737E+05  2.805430E-12  2.985478E-10
       261  19  1.298793E+05  4.903912E+05  1.417434E+05  2.449345E+05 -3.171195E+04  6.427340E+03
       261  20  2.196960E+05  7.245770E+05  2.370694E+05  2.684140E+05 -3.440396E+04  9.141217E+04
       261  21  4.055933E+05  9.938945E+05  4.117088E+05  3.474393E+05 -1.137465E+04  1.764287E+05
       261  22  4.842288E+03 -3.773071E+04  4.444822E+04  2.534261E+05 -3.168955E+04  3.267740E+04
       261  23  3.319866E+04 -5.160035E+04  8.081228E+04  2.256129E+05 -3.442678E+04  7.438693E+04
       261  24  1.501916E+05 -3.785373E+04  1.664947E+05  2.533279E+05 -1.144199E+04  1.160910E+05
       261  25 -1.202100E+05 -5.655805E+05 -5.285590E+04  2.619102E+05 -3.166641E+04  5.890572E+04
       261  26 -1.533290E+05 -8.271993E+05 -7.547370E+04  1.828662E+05 -3.444728E+04  5.738249E+04
       261  27 -1.052518E+05 -1.068599E+06 -7.877544E+04  1.593732E+05 -1.149114E+04  5.585275E+04
       262   1  1.496011E+06  3.671339E+05  3.468948E+05  2.592879E+05  8.424632E+04 -1.965008E+04
       262   2  1.219208E+06  3.083971E+05  2.454868E+05  2.384078E+05  2.596137E+04 -6.221713E+04
       262   3  9.492655E+05  2.459913E+05  1.810777E+05  2.769867E+05 -3.230040E+04 -6.580697E+04
       262   4 -9.480688E+04 -2.590186E+04 -2.893205E+04  2.747264E+05 -2.009408E+04 -1.972079E+04
       262   5 -9.239572E+04 -5.649417E+03 -1.411523E+04  2.449820E+05 -1.276160E+04 -6.226154E+04
       262   6 -9.457491E+04 -4.493871E+02 -7.813552E+03  2.747055E+05 -5.433597E+03 -6.578573E+04
       262   7 -1.683277E+06 -4.191120E+05 -4.048930E+05  2.901244E+05 -1.241690E+05 -1.979681E+04
       262   8 -1.402352E+06 -3.197995E+05 -2.737965E+05  2.515414E+05 -5.140457E+04 -6.230684E+04
       262   9 -1.137354E+06 -2.469507E+05 -1.967451E+05  2.724277E+05  2.138933E+04 -6.576467E+04
       262  10  1.496003E+06  3.671316E+05  3.468807E+05  2.592892E+05  1.282650E-09 -4.486926E-10
       262  11  1.219206E+06  3.083927E+05  2.454783E+05  2.384091E+05 -4.546478E-11 -2.129288E-09
       262  12  9.492632E+05  2.459863E+05  1.810676E+05  2.769850E+05  4.262277E-11 -1.895352E-09
       262  13 -9.480742E+04 -2.590238E+04 -2.893354E+04  2.747261E+05  2.076494E-10  1.306715E-10
       262  14 -9.239693E+04 -5.653623E+03 -1.412282E+04  2.449813E+05  2.541002E-10 -1.417552E-09
       262  15 -9.457610E+04 -4.540419E+02 -7.821739E+03  2.747052E+05 -5.185113E-12 -2.672337E-10
       262  16 -1.683294E+06 -4.191166E+05 -4.049228E+05  2.901225E+05 -1.543337E-09 -1.097871E-10
       262  17 -1.402356E+06 -3.198044E+05 -2.738088E+05  2.515388E+05  7.505979E-10 -2.498870E-09
       262  18 -1.137356E+06 -2.469555E+05 -1.967541E+05  2.724288E+05  4.786629E-10 -2.843441E-09
       262  19  1.496011E+06  3.671339E+05  3.468948E+05  2.592879E+05 -8.424632E+04  1.965008E+04
       262  20  1.219208E+06  3.083971E+05  2.454868E+05  2.384078E+05 -2.596137E+04  6.221713E+04
       262  21  9.492655E+05  2.459913E+05  1.810777E+05  2.769867E+05  3.230040E+04  6.580697E+04
       262  22 -9.480688E+04 -2.590186E+04 -2.893205E+04  2.747264E+05  2.009408E+04  1.972079E+04
       262  23 -9.239572E+04 -5.649417E+03 -1.411523E+04  2.449820E+05  1.276160E+04  6.226154E+04
       262  24 -9.457491E+04 -4.493871E+02 -7.813552E+03  2.747055E+05  5.433597E+03  6.578573E+04
       262  25 -1.683277E+06 -4.191120E+05 -4.048930E+05  2.901244E+05  1.241690E+05  1.979681E+04
       262  26 -1.402352E+06 -3.197995E+05 -2.737965E+05  2.515414E+05  5.140457E+04  6.230684E+04
       262  27 -1.137354E+06 -2.469507E+05 -1.967451E+05  2.724277E+05 -2.138933E+04  6.576467E+04
       263   1  7.701865E+05  2.029171E+05  1.488855E+05  2.754881E+05 -2.685908E+04 -5.575912E+04
       263   2  4.969277E+05  1.389124E+05  9.943329E+04  2.446254E+05 -3.057328E+04 -4.080121E+04
       263   3  2.241975E+05  7.515697E+04  5.243255E+04  2.757592E+05 -3.429588E+04 -2.259688E+04
       263   4 -9.359772E+04 -7.482968E+02 -6.022715E+03  2.752702E+05 -4.424636E+03 -5.573794E+04
       263   5 -9.330093E+04  3.086275E+02 -3.506941E+03  2.442691E+05 -2.687048E+03 -4.076757E+04
       263   6 -9.349136E+04  6.726569E+02 -2.324629E+03  2.752684E+05 -9.593328E+02 -2.254912E+04
       263   7 -9.566541E+05 -2.044549E+05 -1.609578E+05  2.750523E+05  1.797951E+04 -5.571675E+04
       263   8 -6.831868E+05 -1.383136E+05 -1.064566E+05  2.439130E+05  2.517349E+04 -4.073395E+04
       263   9 -4.110788E+05 -7.381647E+04 -5.708108E+04  2.747779E+05  3.236069E+04 -2.250140E+04
       263  10  7.701849E+05  2.029136E+05  1.488783E+05  2.754869E+05 -3.630453E-09 -2.008922E-09
       263  11  4.969263E+05  1.389103E+05  9.942841E+04  2.446244E+05 -1.341409E-09  8.005967E-10
       263  12  2.241961E+05  7.515611E+04  5.242938E+04  2.757586E+05  8.690126E-10  1.036088E-09
       263  13 -9.359858E+04 -7.516379E+02 -6.028589E+03  2.752700E+05  5.556587E-10 -1.437513E-09
       263  14 -9.330139E+04  3.068410E+02 -3.510078E+03  2.442690E+05  5.080456E-10  2.691967E-10
       263  15 -9.349150E+04  6.721107E+02 -2.325586E+03  2.752684E+05  2.181114E-10 -1.827268E-09
       263  16 -9.566553E+05 -2.044583E+05 -1.609642E+05  2.750531E+05  2.600510E-09 -1.402498E-10
       263  17 -6.831879E+05 -1.383155E+05 -1.064609E+05  2.439139E+05  1.460264E-09  8.971467E-10
       263  18 -4.110800E+05 -7.381730E+04 -5.708400E+04  2.747785E+05 -4.302831E-10 -2.173516E-10
       263  19  7.701865E+05  2.029171E+05  1.488855E+05  2.754881E+05  2.685908E+04  5.575912E+04
       263  20  4.969277E+05  1.389124E+05  9.943329E+04  2.446254E+05  3.057328E+04  4.080121E+04
       263  21  2.241975E+05  7.515697E+04  5.243255E+04  2.757592E+05  3.429588E+04  2.259688E+04
       263  22 -9.359772E+04 -7.482968E+02 -6.022715E+03  2.752702E+05  4.424636E+03  5.573794E+04
       263  23 -9.330093E+04  3.086275E+02 -3.506941E+03  2.442691E+05  2.687048E+03  4.076757E+04
       263  24 -9.349136E+04  6.726569E+02 -2.324629E+03  2.752684E+05  9.593328E+02  2.254912E+04
       263  25 -9.566541E+05 -2.044549E+05 -1.609578E+05  2.750523E+05 -1.797951E+04  5.571675E+04
       263  26 -6.831868E+05 -1.383136E+05 -1.064566E+05  2.439130E+05 -2.517349E+04  4.073395E+04
       263  27 -4.110788E+05 -7.381647E+04 -5.708108E+04  2.747779E+05 -3.236069E+04  2.250140E+04
       264   1  4.596569E+04  3.316764E+04  2.100770E+04  2.754114E+05 -3.382004E+04 -1.083825E+04
       264   2 -2.264601E+05 -3.102587E+04 -2.664057E+04  2.442308E+05 -2.913652E+04  7.837966E+03
       264   3 -4.997777E+05 -9.608083E+04 -7.759861E+04  2.751129E+05 -2.445153E+04  2.429691E+04
       264   4 -9.343789E+04  6.756823E+02 -2.046588E+03  2.752821E+05 -5.960266E+02 -1.078905E+04
       264   5 -9.329105E+04  5.486882E+02 -1.962081E+03  2.442516E+05  3.568776E+02  7.880252E+03
       264   6 -9.346182E+04  2.110800E+02 -2.598022E+03  2.752827E+05  1.313194E+03  2.433264E+04
       264   7 -2.328199E+05 -3.181669E+04 -2.509731E+04  2.751529E+05  3.262078E+04 -1.073985E+04
       264   8  3.989706E+04  3.212270E+04  2.271893E+04  2.442724E+05  2.985644E+04  7.922534E+03
       264   9  3.130157E+05  9.649392E+04  7.239820E+04  2.754526E+05  2.709435E+04  2.436836E+04
       264  10  4.596443E+04  3.316721E+04  2.100533E+04  2.754111E+05 -3.043189E-09  1.823763E-09
       264  11 -2.264610E+05 -3.102616E+04 -2.664228E+04  2.442310E+05 -1.074041E-10  1.765473E-09
       264  12 -4.997785E+05 -9.608163E+04 -7.760085E+04  2.751133E+05  3.315638E-09 -5.780297E-10
       264  13 -9.343792E+04  6.755572E+02 -2.046808E+03  2.752821E+05  6.216475E-10 -2.053656E-09
       264  14 -9.329106E+04  5.486215E+02 -1.962198E+03  2.442516E+05  7.669036E-13  1.330188E-09
       264  15 -9.346198E+04  2.104438E+02 -2.599138E+03  2.752827E+05  4.240025E-11  2.363225E-09
       264  16 -2.328211E+05 -3.181710E+04 -2.509953E+04  2.751532E+05  2.387383E-09  3.917788E-10
       264  17  3.989608E+04  3.212239E+04  2.271714E+04  2.442722E+05  8.284111E-10  1.802173E-09
       264  18  3.130147E+05  9.649308E+04  7.239571E+04  2.754520E+05 -2.786170E-09  8.420478E-11
       264  19  4.596569E+04  3.316764E+04  2.100770E+04  2.754114E+05  3.382004E+04  1.083825E+04
       264  20 -2.264601E+05 -3.102587E+04 -2.664057E+04  2.442308E+05  2.913652E+04 -7.837966E+03
       264  21 -4.997777E+05 -9.608083E+04 -7.759861E+04  2.751129E+05  2.445153E+04 -2.429691E+04
       264  22 -9.343789E+04  6.756823E+02 -2.046588E+03  2.752821E+05  5.960266E+02  1.078905E+04
       264  23 -9.329105E+04  5.486882E+02 -1.962081E+03  2.442516E+05 -3.568776E+02 -7.880252E+03
       264  24 -9.346182E+04  2.110800E+02 -2.598022E+03  2.752827E+05 -1.313194E+03 -2.433264E+04
       264  25 -2.328199E+05 -3.181669E+04 -2.509731E+04  2.751529E+05 -3.262078E+04  1.073985E+04
       264  26  3.989706E+04  3.212270E+04  2.271893E+04  2.442724E+05 -2.985644E+04 -7.922534E+03
       264  27  3.130157E+05  9.649392E+04  7.239820E+04  2.754526E+05 -2.709435E+04 -2.436836E+04
       265   1 -6.794180E+05 -1.385263E+05 -1.114315E+05  2.738000E+05 -2.723075E+04  3.488667E+04
       265   2 -9.473917E+05 -2.071463E+05 -1.775453E+05  2.468017E+05  2.317456E+04  3.801980E+04
       265   3 -1.225336E+06 -2.895400E+05 -2.799598E+05  2.800499E+05  7.357234E+04  1.277066E+04
       265   4 -9.381655E+04  3.044350E+02 -3.162848E+03  2.748775E+05  1.730870E+03  3.492396E+04
       265   5 -9.301194E+04 -1.735844E+03 -5.372422E+03  2.447610E+05  4.517290E+03  3.799303E+04
       265   6 -9.396821E+04 -9.264014E+03 -1.078477E+04  2.748878E+05  7.319934E+03  1.269721E+04
       265   7  4.921195E+05  1.391160E+05  1.050947E+05  2.759559E+05  3.071911E+04  3.496134E+04
       265   8  7.620652E+05  2.036296E+05  1.667644E+05  2.427171E+05 -1.416519E+04  3.796642E+04
       265   9  1.038585E+06  2.709221E+05  2.583173E+05  2.697157E+05 -5.905281E+04  1.262496E+04
       265  10 -6.794192E+05 -1.385278E+05 -1.114352E+05  2.738008E+05 -3.749579E-10 -5.467588E-10
       265  11 -9.473927E+05 -2.071480E+05 -1.775491E+05  2.468010E+05 -3.317427E-10  1.974733E-09
       265  12 -1.225342E+06 -2.895416E+05 -2.799703E+05  2.800492E+05  8.295985E-10  1.090049E-09
       265  13 -9.381688E+04  3.031246E+02 -3.165145E+03  2.748775E+05  6.269170E-10  1.275896E-10
       265  14 -9.301235E+04 -1.737400E+03 -5.375172E+03  2.447609E+05  1.407229E-10  2.614986E-09
       265  15 -9.396831E+04 -9.264201E+03 -1.078518E+04  2.748878E+05  6.088808E-10  2.892792E-11
       265  16  4.921181E+05  1.391144E+05  1.050906E+05  2.759550E+05 -1.846410E-10  6.061425E-10
       265  17  7.620646E+05  2.036280E+05  1.667613E+05  2.427176E+05  1.071266E-10  9.875777E-10
       265  18  1.038581E+06  2.709210E+05  2.583104E+05  2.697163E+05 -9.661979E-10 -1.976558E-10
       265  19 -6.794180E+05 -1.385263E+05 -1.114315E+05  2.738000E+05  2.723075E+04 -3.488667E+04
       265  20 -9.473917E+05 -2.071463E+05 -1.775453E+05  2.468017E+05 -2.317456E+04 -3.801980E+04
       265  21 -1.225336E+06 -2.895400E+05 -2.799598E+05  2.800499E+05 -7.357234E+04 -1.277066E+04
       265  22 -9.381655E+04  3.044350E+02 -3.162848E+03  2.748775E+05 -1.730870E+03 -3.492396E+04
       265  23 -9.301194E+04 -1.735844E+03 -5.372422E+03  2.447610E+05 -4.517290E+03 -3.799303E+04
       265  24 -9.396821E+04 -9.264014E+03 -1.078477E+04  2.748878E+05 -7.319934E+03 -1.269721E+04
       265  25  4.921195E+05  1.391160E+05  1.050947E+05  2.759559E+05 -3.071911E+04 -3.496134E+04
       265  26  7.620652E+05  2.036296E+05  1.667644E+05  2.427171E+05  1.416519E+04 -3.796642E+04
       265  27  1.038585E+06  2.709221E+05  2.583173E+05  2.697157E+05  5.905281E+04 -1.262496E+04
       266   1 -2.045969E+05 -7.698592E+05 -1.955066E+05  2.720087E+05 -8.556500E+03 -3.971289E+04
       266   2 -1.389502E+05 -4.912833E+05 -1.120016E+05  2.446048E+05 -2.370658E+04 -7.031343E+03
       266   3 -7.369105E+04 -2.169375E+05 -4.988923E+04  2.786666E+05 -1.685847E+04  2.566859E+04
       266   4  9.763230E+03  9.468161E+04  1.137149E+04  2.786192E+05 -8.540395E+03  4.203781E+03
       266   5  2.144409E+03  9.367945E+04  8.348964E+03  2.478902E+05 -2.370180E+04 -3.616542E+01
       266   6  5.552825E+02  9.478696E+04  9.591741E+03  2.786216E+05 -1.687486E+04 -4.273058E+03
       266   7  2.240704E+05  9.599121E+05  2.182040E+05  2.852387E+05 -8.523376E+03  4.818140E+04
       266   8  1.432176E+05  6.789672E+05  1.286814E+05  2.511787E+05 -2.369695E+04  6.965490E+03
       266   9  7.479638E+04  4.066070E+05  6.907169E+04  2.785765E+05 -1.689124E+04 -3.422938E+04
       266  10 -2.045974E+05 -7.698609E+05 -1.955097E+05  2.720084E+05  3.992923E-11  2.007022E-10
       266  11 -1.389509E+05 -4.912835E+05 -1.120028E+05  2.446047E+05  3.980864E-10  1.767027E-11
       266  12 -7.369153E+04 -2.169383E+05 -4.989101E+04  2.786670E+05 -1.783543E-12 -1.560936E-10
       266  13  9.763147E+03  9.468157E+04  1.137132E+04  2.786192E+05 -9.328201E-11 -1.971387E-11
       266  14  2.143806E+03  9.367930E+04  8.347908E+03  2.478902E+05  6.018464E-10  8.315839E-11
       266  15  5.549718E+02  9.478686E+04  9.591172E+03  2.786215E+05  1.781315E-10  1.574544E-10
       266  16  2.240697E+05  9.599096E+05  2.181995E+05  2.852390E+05 -1.005065E-10 -1.352105E-10
       266  17  1.432169E+05  6.789670E+05  1.286803E+05  2.511788E+05  2.958425E-10  1.328486E-11
       266  18  7.479576E+04  4.066056E+05  6.906895E+04  2.785761E+05 -6.680547E-11  4.023771E-10
       266  19 -2.045969E+05 -7.698592E+05 -1.955066E+05  2.720087E+05  8.556500E+03  3.971289E+04
       266  20 -1.389502E+05 -4.912833E+05 -1.120016E+05  2.446048E+05  2.370658E+04  7.031343E+03
       266  21 -7.369105E+04 -2.169375E+05 -4.988923E+04  2.786666E+05  1.685847E+04 -2.566859E+04
       266  22  9.763230E+03  9.468161E+04  1.137149E+04  2.786192E+05  8.540395E+03 -4.203781E+03
       266  23  2.144409E+03  9.367945E+04  8.348964E+03  2.478902E+05  2.370180E+04  3.616542E+01
       266  24  5.552825E+02  9.478696E+04  9.591741E+03  2.786216E+05  1.687486E+04  4.273058E+03
       266  25  2.240704E+05  9.599121E+05  2.182040E+05  2.852387E+05  8.523376E+03 -4.818140E+04
       266  26  1.432176E+05  6.789672E+05  1.286814E+05  2.511787E+05  2.369695E+04 -6.965490E+03
       266  27  7.479638E+04  4.066070E+05  6.907169E+04  2.785765E+05  1.689124E+04  3.422938E+04
       267   1 -3.071168E+04 -3.547004E+04 -1.473258E+04  2.776256E+05 -5.917382E+03  2.166492E+04
       267   2  3.540164E+04  2.396819E+05  4.307397E+04  2.482073E+05  1.026482E+04  1.175974E+04
       267   3  1.062235E+05  5.173750E+05  1.084957E+05  2.815150E+05  2.584134E+04  1.852110E+03
       267   4  5.700252E+02  9.484312E+04  1.135779E+04  2.789029E+05 -5.933719E+03 -6.041902E+03
       267   5  1.152266E+03  9.368277E+04  1.780195E+04  2.475384E+05  1.025054E+04 -1.493278E+04
       267   6  6.272008E+03  9.481611E+04  3.115979E+04  2.788999E+05  2.582895E+04 -2.382192E+04
       267   7  3.185111E+04  2.251741E+05  3.745019E+04  2.801805E+05 -5.950166E+03 -3.375443E+04
       267   8 -3.309787E+04 -5.229395E+04 -7.468131E+03  2.468696E+05  1.023632E+04 -4.161921E+04
       267   9 -9.368918E+04 -3.275680E+05 -4.618093E+04  2.762865E+05  2.581676E+04 -4.947896E+04
       267  10 -3.071185E+04 -3.547056E+04 -1.473353E+04  2.776257E+05 -2.792464E-10 -4.896140E-10
       267  11  3.540149E+04  2.396817E+05  4.307351E+04  2.482072E+05 -1.945630E-10  3.794341E-10
       267  12  1.062227E+05  5.173748E+05  1.084945E+05  2.815150E+05  2.824546E-10  7.261435E-10
       267  13  5.699776E+02  9.484307E+04  1.135766E+04  2.789029E+05 -1.933615E-10  1.562445E-12
       267  14  1.152093E+03  9.368250E+04  1.780133E+04  2.475385E+05 -2.536340E-10 -5.748282E-11
       267  15  6.271139E+03  9.481532E+04  3.115747E+04  2.789004E+05 -1.256780E-11  9.397074E-11
       267  16  3.185076E+04  2.251729E+05  3.744799E+04  2.801804E+05 -1.965032E-10  5.210807E-10
       267  17 -3.309845E+04 -5.229583E+04 -7.471584E+03  2.468699E+05 -3.221664E-10 -1.338101E-10
       267  18 -9.369055E+04 -3.275708E+05 -4.618679E+04  2.762875E+05 -1.477294E-10 -5.809492E-10
       267  19 -3.071168E+04 -3.547004E+04 -1.473258E+04  2.776256E+05  5.917382E+03 -2.166492E+04
       267  20  3.540164E+04  2.396819E+05  4.307397E+04  2.482073E+05 -1.026482E+04 -1.175974E+04
       267  21  1.062235E+05  5.173750E+05  1.084957E+05  2.815150E+05 -2.584134E+04 -1.852110E+03
       267  22  5.700252E+02  9.484312E+04  1.135779E+04  2.789029E+05  5.933719E+03  6.041902E+03
       267  23  1.152266E+03  9.368277E+04  1.780195E+04  2.475384E+05 -1.025054E+04  1.493278E+04
       267  24  6.272008E+03  9.481611E+04  3.115979E+04  2.788999E+05 -2.582895E+04  2.382192E+04
       267  25  3.185111E+04  2.251741E+05  3.745019E+04  2.801805E+05  5.950166E+03  3.375443E+04
       267  26 -3.309787E+04 -5.229395E+04 -7.468131E+03  2.468696E+05 -1.023632E+04  4.161921E+04
       267  27 -9.368918E+04 -3.275680E+05 -4.618093E+04  2.762865E+05 -2.581676E+04  4.947896E+04
       268   1  1.472233E+05  7.042520E+05  1.517650E+05  2.707250E+05  3.645942E+04 -4.015124E+02
       268   2  2.403680E+05  9.642388E+05  2.495539E+05  2.865076E+05  3.912360E+04 -8.671097E+04
       268   3  4.220003E+05  1.257730E+06  4.256227E+05  3.633161E+05  1.296929E+04 -1.730711E+05
       268   4  4.177081E+03  9.984398E+04  4.061804E+04  2.785180E+05  3.644849E+04 -2.915167E+04
       268   5  2.979582E+04  8.722490E+04  7.326832E+04  2.480003E+05  3.913929E+04 -6.695929E+04
       268   6  1.355581E+05  9.968109E+04  1.505856E+05  2.784922E+05  1.300582E+04 -1.047763E+05
       268   7 -1.388892E+05 -5.042079E+05 -7.054085E+04  2.863030E+05  3.643682E+04 -5.787460E+04
       268   8 -1.808181E+05 -7.890524E+05 -1.030543E+05  2.095482E+05  3.915256E+04 -4.723489E+04
       268   9 -1.509511E+05 -1.057113E+06 -1.245238E+05  1.938268E+05  1.302378E+04 -3.660787E+04
       268  10  1.472219E+05  7.042516E+05  1.517625E+05  2.707250E+05  1.446319E-10 -6.015831E-10
       268  11  2.403643E+05  9.642303E+05  2.495369E+05  2.865103E+05 -1.040054E-10 -3.655488E-10
       268  12  4.219921E+05  1.257698E+06  4.255662E+05  3.633179E+05 -5.110861E-11  1.999240E-10
       268  13  4.175426E+03  9.984271E+04  4.061394E+04  2.785188E+05  3.293979E-11 -2.688148E-11
       268  14  2.979297E+04  8.721967E+04  7.325701E+04  2.480024E+05 -2.931520E-10 -6.258993E-11
       268  15  1.355550E+05  9.966926E+04  1.505647E+05  2.784933E+05 -2.411165E-10 -4.521327E-10
       268  16 -1.388916E+05 -5.042118E+05 -7.054965E+04  2.863047E+05  2.346558E-10  4.571674E-10
       268  17 -1.808203E+05 -7.890552E+05 -1.030614E+05  2.095497E+05 -2.062909E-10  2.607029E-10
       268  18 -1.509516E+05 -1.057114E+06 -1.245266E+05  1.938272E+05 -6.246513E-11 -5.875165E-10
       268  19  1.472233E+05  7.042520E+05  1.517650E+05  2.707250E+05 -3.645942E+04  4.015124E+02
       268  20  2.403680E+05  9.642388E+05  2.495539E+05  2.865076E+05 -3.912360E+04  8.671097E+04
       268  21  4.220003E+05  1.257730E+06  4.256227E+05  3.633161E+05 -1.296929E+04  1.730711E+05
       268  22  4.177081E+03  9.984398E+04  4.061804E+04  2.785180E+05 -3.644849E+04  2.915167E+04
       268  23  2.979582E+04  8.722490E+04  7.326832E+04  2.480003E+05 -3.913929E+04  6.695929E+04
       268  24  1.355581E+05  9.968109E+04  1.505856E+05  2.784922E+05 -1.300582E+04  1.047763E+05
       268  25 -1.388892E+05 -5.042079E+05 -7.054085E+04  2.863030E+05 -3.643682E+04  5.787460E+04
       268  26 -1.808181E+05 -7.890524E+05 -1.030543E+05  2.095482E+05 -3.915256E+04  4.723489E+04
       268  27 -1.509511E+05 -1.057113E+06 -1.245238E+05  1.938268E+05 -1.302378E+04  3.660787E+04
       269   1  1.278344E+06  3.261222E+05  3.122032E+05  2.513840E+05  8.540123E+04 -1.572682E+04
       269   2  1.025895E+06  2.538376E+05  2.111511E+05  2.233885E+05  3.051952E+04 -4.931681E+04
       269   3  7.834259E+05  1.926554E+05  1.485696E+05  2.494643E+05 -2.435785E+04 -5.068324E+04
       269   4 -2.975477E+04  2.800097E+03  2.712547E+03  2.488174E+05  1.875312E+03 -1.581621E+04
       269   5 -2.993579E+04  8.327144E+02  1.331738E+03  2.217813E+05  1.232878E+03 -4.935906E+04
       269   6 -2.958631E+04  5.743694E+02  8.053688E+02  2.488202E+05  5.724482E+02 -5.065343E+04
       269   7 -1.336268E+06 -3.206410E+05 -3.068707E+05  2.462557E+05 -8.147583E+04 -1.590503E+04
       269   8 -1.084700E+06 -2.522398E+05 -2.085399E+05  2.201764E+05 -2.800504E+04 -4.940121E+04
       269   9 -8.419549E+05 -1.915435E+05 -1.469829E+05  2.481766E+05  2.547102E+04 -5.062365E+04
       269  10  1.278336E+06  3.261200E+05  3.121891E+05  2.513850E+05  1.816916E-09 -7.529276E-10
       269  11  1.025893E+06  2.538348E+05  2.111448E+05  2.233897E+05 -7.192065E-10 -1.718447E-09
       269  12  7.834246E+05  1.926524E+05  1.485637E+05  2.494633E+05 -2.205376E-09 -1.584331E-09
       269  13 -2.975484E+04  2.799828E+03  2.712070E+03  2.488175E+05  5.703530E-10  1.486893E-09
       269  14 -2.993645E+04  8.300978E+02  1.327157E+03  2.217813E+05  8.823480E-10 -6.110192E-10
       269  15 -2.958699E+04  5.716141E+02  8.005467E+02  2.488202E+05  9.333033E-10 -1.582544E-09
       269  16 -1.336275E+06 -3.206430E+05 -3.068836E+05  2.462546E+05 -2.381558E-09  3.714527E-11
       269  17 -1.084701E+06 -2.522426E+05 -2.085460E+05  2.201753E+05  4.693622E-10 -8.970050E-10
       269  18 -8.419563E+05 -1.915464E+05 -1.469890E+05  2.481777E+05  2.564322E-09 -1.238745E-09
       269  19  1.278344E+06  3.261222E+05  3.122032E+05  2.513840E+05 -8.540123E+04  1.572682E+04
       269  20  1.025895E+06  2.538376E+05  2.111511E+05  2.233885E+05 -3.051952E+04  4.931681E+04
       269  21  7.834259E+05  1.926554E+05  1.485696E+05  2.494643E+05  2.435785E+04  5.068324E+04
       269  22 -2.975477E+04  2.800097E+03  2.712547E+03  2.488174E+05 -1.875312E+03  1.581621E+04
       269  23 -2.993579E+04  8.327144E+02  1.331738E+03  2.217813E+05 -1.232878E+03  4.935906E+04
       269  24 -2.958631E+04  5.743694E+02  8.053688E+02  2.488202E+05 -5.724482E+02  5.065343E+04
       269  25 -1.336268E+06 -3.206410E+05 -3.068707E+05  2.462557E+05  8.147583E+04  1.590503E+04
       269  26 -1.084700E+06 -2.522398E+05 -2.085399E+05  2.201764E+05  2.800504E+04  4.940121E+04
       269  27 -8.419549E+05 -1.915435E+05 -1.469829E+05  2.481766E+05 -2.547102E+04  5.062365E+04
       270   1  6.205052E+05  1.541070E+05  1.178554E+05  2.499959E+05 -2.082887E+04 -4.142973E+04
       270   2  3.729750E+05  9.521022E+04  7.109777E+04  2.216553E+05 -2.551366E+04 -2.746208E+04
       270   3  1.262285E+05  3.730727E+04  2.759772E+04  2.494603E+05 -3.020400E+04 -1.085221E+04
       270   4 -2.966902E+04  6.767696E+02  6.488018E+02  2.492805E+05  4.439386E+02 -4.140150E+04
       270   5 -2.961306E+04  5.823053E+02  4.639279E+02  2.212065E+05  1.970030E+02 -2.742366E+04
       270   6 -2.960342E+04  7.143603E+02  4.556083E+02  2.492805E+05 -5.725024E+01 -1.080265E+04
       270   7 -6.794308E+05 -1.527768E+05 -1.165725E+05  2.485656E+05  2.169511E+04 -4.137329E+04
       270   8 -4.320411E+05 -9.405409E+04 -7.017328E+04  2.207580E+05  2.589150E+04 -2.738527E+04
       270   9 -1.854096E+05 -3.587937E+04 -2.668394E+04  2.491008E+05  3.008216E+04 -1.075310E+04
       270  10  6.205042E+05  1.541050E+05  1.178513E+05  2.499952E+05 -1.519712E-09  8.885195E-10
       270  11  3.729741E+05  9.520924E+04  7.109513E+04  2.216547E+05 -1.287315E-09  9.552486E-10
       270  12  1.262275E+05  3.730690E+04  2.759578E+04  2.494600E+05 -1.294523E-09  1.273093E-09
       270  13 -2.966948E+04  6.749289E+02  6.455804E+02  2.492805E+05  5.850295E-10 -1.161726E-10
       270  14 -2.961326E+04  5.814977E+02  4.625145E+02  2.212065E+05  4.466983E-10  1.600394E-09
       270  15 -2.960345E+04  7.142350E+02  4.553890E+02  2.492805E+05  2.140449E-10  1.175818E-09
       270  16 -6.794317E+05 -1.527788E+05 -1.165766E+05  2.485663E+05  1.119974E-09  6.967644E-10
       270  17 -4.320420E+05 -9.405508E+04 -7.017595E+04  2.207586E+05  1.921003E-09 -3.017549E-09
       270  18 -1.854106E+05 -3.587974E+04 -2.668586E+04  2.491011E+05  1.281875E-09 -1.459533E-10
       270  19  6.205052E+05  1.541070E+05  1.178554E+05  2.499959E+05  2.082887E+04  4.142973E+04
       270  20  3.729750E+05  9.521022E+04  7.109777E+04  2.216553E+05  2.551366E+04  2.746208E+04
       270  21  1.262285E+05  3.730727E+04  2.759772E+04  2.494603E+05  3.020400E+04  1.085221E+04
       270  22 -2.966902E+04  6.767696E+02  6.488018E+02  2.492805E+05 -4.439386E+02  4.140150E+04
       270  23 -2.961306E+04  5.823053E+02  4.639279E+02  2.212065E+05 -1.970030E+02  2.742366E+04
       270  24 -2.960342E+04  7.143603E+02  4.556083E+02  2.492805E+05  5.725024E+01  1.080265E+04
       270  25 -6.794308E+05 -1.527768E+05 -1.165725E+05  2.485656E+05 -2.169511E+04  4.137329E+04
       270  26 -4.320411E+05 -9.405409E+04 -7.017328E+04  2.207580E+05 -2.589150E+04  2.738527E+04
       270  27 -1.854096E+05 -3.587937E+04 -2.668394E+04  2.491008E+05 -3.008216E+04  1.075310E+04
       271   1 -3.515129E+04 -7.053221E+02 -1.062699E+03  2.493012E+05 -3.026663E+04 -2.068769E+02
       271   2 -2.818641E+05 -5.880882E+04 -4.421271E+04  2.208960E+05 -2.675967E+04  1.657106E+04
       271   3 -5.292148E+05 -1.172892E+05 -8.978684E+04  2.486613E+05 -2.324882E+04  3.104429E+04
       271   4 -2.959487E+04  7.180163E+02  4.962797E+02  2.492852E+05 -1.590676E+02 -1.568944E+02
       271   5 -2.960091E+04  6.350731E+02  6.925687E+02  2.212006E+05 -5.283273E+02  1.661221E+04
       271   6 -2.963596E+04  8.498425E+02  1.154471E+03  2.492849E+05 -8.923045E+02  3.107717E+04
       271   7 -2.403649E+04  2.141839E+03  2.058663E+03  2.492692E+05  2.994876E+04 -1.069137E+02
       271   8  2.227259E+05  6.007582E+04  4.559804E+04  2.215053E+05  2.571337E+04  1.665337E+04
       271   9  4.701868E+05  1.189751E+05  9.208767E+04  2.499089E+05  2.148172E+04  3.111009E+04
       271  10 -3.515227E+04 -7.055681E+02 -1.064421E+03  2.493012E+05 -3.576901E-09  3.760227E-09
       271  11 -2.818649E+05 -5.880931E+04 -4.421457E+04  2.208963E+05  2.701704E-10  6.841377E-10
       271  12 -5.292156E+05 -1.172904E+05 -8.978967E+04  2.486619E+05  4.589957E-09  2.657717E-09
       271  13 -2.959487E+04  7.180163E+02  4.962796E+02  2.492852E+05  2.635712E-10  2.463779E-09
       271  14 -2.960099E+04  6.347767E+02  6.920496E+02  2.212006E+05  3.189914E-10  2.607881E-09
       271  15 -2.963622E+04  8.488052E+02  1.152654E+03  2.492850E+05 -2.503555E-10 -5.369593E-10
       271  16 -2.403745E+04  2.141598E+03  2.056977E+03  2.492692E+05  2.752527E-09  2.062651E-09
       271  17  2.227251E+05  6.007535E+04  4.559628E+04  2.215050E+05  2.373779E-11  1.354504E-09
       271  18  4.701860E+05  1.189739E+05  9.208498E+04  2.499084E+05 -4.343390E-09 -3.889615E-09
       271  19 -3.515129E+04 -7.053221E+02 -1.062699E+03  2.493012E+05  3.026663E+04  2.068769E+02
       271  20 -2.818641E+05 -5.880882E+04 -4.421271E+04  2.208960E+05  2.675967E+04 -1.657106E+04
       271  21 -5.292148E+05 -1.172892E+05 -8.978684E+04  2.486613E+05  2.324882E+04 -3.104429E+04
       271  22 -2.959487E+04  7.180163E+02  4.962797E+02  2.492852E+05  1.590676E+02  1.568944E+02
       271  23 -2.960091E+04  6.350731E+02  6.925687E+02  2.212006E+05  5.283273E+02 -1.661221E+04
       271  24 -2.963596E+04  8.498425E+02  1.154471E+03  2.492849E+05  8.923045E+02 -3.107717E+04
       271  25 -2.403649E+04  2.141839E+03  2.058663E+03  2.492692E+05 -2.994876E+04  1.069137E+02
       271  26  2.227259E+05  6.007582E+04  4.559804E+04  2.215053E+05 -2.571337E+04 -1.665337E+04
       271  27  4.701868E+05  1.189751E+05  9.208767E+04  2.499089E+05 -2.148172E+04 -3.111009E+04
       272   1 -6.915032E+05 -1.559965E+05 -1.197788E+05  2.484772E+05 -2.671008E+04  4.047286E+04
       272   2 -9.349451E+05 -2.158651E+05 -1.784765E+05  2.194909E+05  2.021914E+04  4.141518E+04
       272   3 -1.185802E+06 -2.810194E+05 -2.690858E+05  2.448231E+05  6.715005E+04  1.359103E+04
       272   4 -2.946074E+04  7.239033E+02  1.491095E+03  2.488734E+05 -1.108414E+03  4.050769E+04
       272   5 -2.999411E+04  1.455978E+03  2.623812E+03  2.217136E+05 -2.444413E+03  4.138051E+04
       272   6 -2.960548E+04  5.294496E+03  5.389070E+03  2.488676E+05 -3.760028E+03  1.350633E+04
       272   7  6.330091E+05  1.574198E+05  1.227456E+05  2.492698E+05  2.451985E+04  4.054254E+04
       272   8  8.757405E+05  2.187270E+05  1.836847E+05  2.239392E+05 -2.514038E+04  4.134572E+04
       272   9  1.127831E+06  2.915149E+05  2.797897E+05  2.529190E+05 -7.480168E+04  1.342080E+04
       272  10 -6.915044E+05 -1.559985E+05 -1.197833E+05  2.484781E+05 -3.065485E-09  1.520832E-09
       272  11 -9.349460E+05 -2.158671E+05 -1.784805E+05  2.194903E+05 -7.873905E-10 -5.836518E-10
       272  12 -1.185807E+06 -2.810208E+05 -2.690947E+05  2.448224E+05  1.396356E-09  3.584072E-11
       272  13 -2.946118E+04  7.221410E+02  1.488009E+03  2.488735E+05  5.633969E-10  2.483614E-09
       272  14 -2.999457E+04  1.454138E+03  2.620583E+03  2.217137E+05  3.254510E-12 -2.354608E-09
       272  15 -2.960554E+04  5.294297E+03  5.388700E+03  2.488676E+05  2.583442E-10  1.565446E-09
       272  16  6.330080E+05  1.574179E+05  1.227414E+05  2.492690E+05  2.610715E-09 -4.833714E-10
       272  17  8.757393E+05  2.187250E+05  1.836803E+05  2.239400E+05  1.273569E-09  7.202894E-10
       272  18  1.127825E+06  2.915132E+05  2.797789E+05  2.529198E+05 -1.224889E-09  2.562774E-10
       272  19 -6.915032E+05 -1.559965E+05 -1.197788E+05  2.484772E+05  2.671008E+04 -4.047286E+04
       272  20 -9.349451E+05 -2.158651E+05 -1.784765E+05  2.194909E+05 -2.021914E+04 -4.141518E+04
       272  21 -1.185802E+06 -2.810194E+05 -2.690858E+05  2.448231E+05 -6.715005E+04 -1.359103E+04
       272  22 -2.946074E+04  7.239033E+02  1.491095E+03  2.488734E+05  1.108414E+03 -4.050769E+04
       272  23 -2.999411E+04  1.455978E+03  2.623812E+03  2.217136E+05  2.444413E+03 -4.138051E+04
       272  24 -2.960548E+04  5.294496E+03  5.389070E+03  2.488676E+05  3.760028E+03 -1.350633E+04
       272  25  6.330091E+05  1.574198E+05  1.227456E+05  2.492698E+05 -2.451985E+04 -4.054254E+04
       272  26  8.757405E+05  2.187270E+05  1.836847E+05  2.239392E+05  2.514038E+04 -4.134572E+04
       272  27  1.127831E+06  2.915149E+05  2.797897E+05  2.529190E+05  7.480168E+04 -1.342080E+04
       273   1 -2.643533E+05 -1.100292E+06 -2.537281E+05  3.426396E+05 -1.081616E+04 -5.348348E+04
       273   2 -1.773789E+05 -7.534598E+05 -1.471700E+05  3.062536E+05 -3.013912E+04 -9.570912E+03
       273   3 -9.507159E+04 -4.132508E+05 -7.039257E+04  3.462341E+05 -2.181727E+04  3.438286E+04
       273   4  5.217723E+03 -1.327178E+04  6.375806E+03  3.462168E+05 -1.081256E+04  2.139204E+03
       273   5  1.016384E+03 -1.385166E+04  4.853560E+03  3.080368E+05 -3.013494E+04 -3.246141E+02
       273   6  2.152261E+02 -1.310671E+04  5.792358E+03  3.462165E+05 -2.182787E+04 -2.772618E+03
       273   7  2.747048E+05  1.074840E+06  2.664079E+05  3.498001E+05 -1.080833E+04  5.785899E+04
       273   8  1.793772E+05  7.262763E+05  1.568482E+05  3.098222E+05 -3.013071E+04  8.932513E+03
       273   9  9.549338E+04  3.871948E+05  8.197527E+04  3.461988E+05 -2.183846E+04 -3.995148E+04
       273  10 -2.643542E+05 -1.100295E+06 -2.537337E+05  3.426392E+05 -1.093896E-10 -1.737824E-10
       273  11 -1.773799E+05 -7.534601E+05 -1.471719E+05  3.062533E+05 -6.221053E-10  1.691624E-09
       273  12 -9.507242E+04 -4.132522E+05 -7.039569E+04  3.462347E+05 -4.768490E-10  9.036241E-11
       273  13  5.217596E+03 -1.327181E+04  6.375577E+03  3.462169E+05  6.841209E-12 -1.140165E-09
       273  14  1.015409E+03 -1.385190E+04  4.851853E+03  3.080368E+05 -6.470698E-10 -8.145054E-10
       273  15  2.147124E+02 -1.310684E+04  5.791449E+03  3.462164E+05 -1.001251E-10 -6.825182E-10
       273  16  2.747038E+05  1.074836E+06  2.664014E+05  3.498006E+05  2.915503E-11  2.996551E-11
       273  17  1.793762E+05  7.262760E+05  1.568464E+05  3.098224E+05 -2.819374E-10 -7.899016E-10
       273  18  9.549244E+04  3.871929E+05  8.197138E+04  3.461981E+05  4.524672E-11 -1.008367E-09
       273  19 -2.643533E+05 -1.100292E+06 -2.537281E+05  3.426396E+05  1.081616E+04  5.348348E+04
       273  20 -1.773789E+05 -7.534598E+05 -1.471700E+05  3.062536E+05  3.013912E+04  9.570912E+03
       273  21 -9.507159E+04 -4.132508E+05 -7.039257E+04  3.462341E+05  2.181727E+04 -3.438286E+04
       273  22  5.217723E+03 -1.327178E+04  6.375806E+03  3.462168E+05  1.081256E+04 -2.139204E+03
       273  23  1.016384E+03 -1.385166E+04  4.853560E+03  3.080368E+05  3.013494E+04  3.246141E+02
       273  24  2.152261E+02 -1.310671E+04  5.792358E+03  3.462165E+05  2.182787E+04  2.772618E+03
       273  25  2.747048E+05  1.074840E+06  2.664079E+05  3.498001E+05  1.080833E+04 -5.785899E+04
       273  26  1.793772E+05  7.262763E+05  1.568482E+05  3.098222E+05  3.013071E+04 -8.932513E+03
       273  27  9.549338E+04  3.871948E+05  8.197527E+04  3.461988E+05  2.183846E+04  3.995148E+04
       274   1 -4.164009E+04 -1.877442E+05 -2.773444E+04  3.458048E+05 -8.230157E+03  3.048782E+04
       274   2  4.019128E+04  1.548774E+05  4.018838E+04  3.079916E+05  1.186107E+04  2.383546E+04
       274   3  1.249765E+05  4.992974E+05  1.131875E+05  3.481349E+05  3.125290E+04  1.718191E+04
       274   4  2.372837E+02 -1.304690E+04  6.930128E+03  3.465716E+05 -8.241884E+03 -3.854716E+03
       274   5  6.167191E+02 -1.380721E+04  1.098600E+04  3.075925E+05  1.185187E+04 -9.339055E+03
       274   6  3.753738E+03 -1.308496E+04  1.930855E+04  3.465707E+05  3.124592E+04 -1.482108E+04
       274   7  4.211343E+04  1.616822E+05  4.159762E+04  3.473386E+05 -8.253691E+03 -3.820672E+04
       274   8 -3.895879E+04 -1.824616E+05 -1.821324E+04  3.071935E+05  1.184271E+04 -4.250484E+04
       274   9 -1.174834E+05 -5.252103E+05 -7.457728E+04  3.450076E+05  3.123909E+04 -4.679838E+04
       274  10 -4.164041E+04 -1.877452E+05 -2.773632E+04  3.458050E+05 -5.275047E-10 -3.120018E-11
       274  11  4.019098E+04  1.548768E+05  4.018705E+04  3.079913E+05 -2.871107E-10  1.383481E-09
       274  12  1.249754E+05  4.992968E+05  1.131851E+05  3.481345E+05  2.698717E-10  6.307771E-10
       274  13  2.372068E+02 -1.304693E+04  6.929973E+03  3.465716E+05 -1.958635E-10 -4.935160E-10
       274  14  6.165447E+02 -1.380734E+04  1.098557E+04  3.075926E+05  9.783156E-11 -5.453000E-10
       274  15  3.752630E+03 -1.308545E+04  1.930630E+04  3.465710E+05  4.381082E-10 -3.851013E-11
       274  16  4.211297E+04  1.616806E+05  4.159475E+04  3.473384E+05 -1.309253E-10 -2.290714E-10
       274  17 -3.895942E+04 -1.824635E+05 -1.821690E+04  3.071939E+05  8.208713E-11 -1.155341E-09
       274  18 -1.174850E+05 -5.252129E+05 -7.458324E+04  3.450088E+05  4.837821E-10 -1.088403E-09
       274  19 -4.164009E+04 -1.877442E+05 -2.773444E+04  3.458048E+05  8.230157E+03 -3.048782E+04
       274  20  4.019128E+04  1.548774E+05  4.018838E+04  3.079916E+05 -1.186107E+04 -2.383546E+04
       274  21  1.249765E+05  4.992974E+05  1.131875E+05  3.481349E+05 -3.125290E+04 -1.718191E+04
       274  22  2.372837E+02 -1.304690E+04  6.930128E+03  3.465716E+05  8.241884E+03  3.854716E+03
       274  23  6.167191E+02 -1.380721E+04  1.098600E+04  3.075925E+05 -1.185187E+04  9.339055E+03
       274  24  3.753738E+03 -1.308496E+04  1.930855E+04  3.465707E+05 -3.124592E+04  1.482108E+04
       274  25  4.211343E+04  1.616822E+05  4.159762E+04  3.473386E+05  8.253691E+03  3.820672E+04
       274  26 -3.895879E+04 -1.824616E+05 -1.821324E+04  3.071935E+05 -1.184271E+04  4.250484E+04
       274  27 -1.174834E+05 -5.252103E+05 -7.457728E+04  3.450076E+05 -3.123909E+04  4.679838E+04
       275   1  1.771938E+05  7.284074E+05  1.610729E+05  3.411670E+05  4.446520E+04  1.766686E+04
       275   2  2.768309E+05  1.059272E+06  2.620731E+05  3.318786E+05  4.799017E+04 -6.553050E+04
       275   3  4.365478E+05  1.416309E+06  4.322454E+05  3.984363E+05  1.600206E+04 -1.488046E+05
       275   4  2.407305E+03 -9.969564E+03  2.519047E+04  3.460948E+05  4.446204E+04 -1.812916E+04
       275   5  1.819773E+04 -1.796115E+04  4.543323E+04  3.081817E+05  4.799909E+04 -4.155606E+04
       275   6  8.376320E+04 -1.020862E+04  9.340974E+04  3.461063E+05  1.600249E+04 -6.501126E+04
       275   7 -1.724094E+05 -7.478152E+05 -1.107097E+05  3.510163E+05  4.445831E+04 -5.388377E+04
       275   8 -2.405047E+05 -1.094087E+06 -1.712635E+05  2.845263E+05  4.800619E+04 -1.762230E+04
       275   9 -2.691538E+05 -1.434840E+06 -2.455402E+05  2.938965E+05  1.598886E+04  1.859098E+04
       275  10  1.771916E+05  7.284066E+05  1.610686E+05  3.411664E+05  1.074231E-10 -1.010994E-09
       275  11  2.768273E+05  1.059267E+06  2.620607E+05  3.318812E+05 -2.007203E-10  8.150822E-10
       275  12  4.365416E+05  1.416285E+06  4.322034E+05  3.984382E+05  4.097391E-11 -3.231762E-10
       275  13  2.405093E+03 -9.970449E+03  2.518613E+04  3.460954E+05  3.960943E-11 -7.750613E-10
       275  14  1.819479E+04 -1.796363E+04  4.542565E+04  3.081833E+05 -4.183392E-10 -5.734490E-12
       275  15  8.376179E+04 -1.021323E+04  9.340131E+04  3.461071E+05  7.706236E-11 -4.958371E-10
       275  16 -1.724123E+05 -7.478188E+05 -1.107188E+05  3.510183E+05  4.679994E-10  7.762833E-10
       275  17 -2.405072E+05 -1.094088E+06 -1.712684E+05  2.845270E+05 -1.619059E-10  7.206029E-11
       275  18 -2.691542E+05 -1.434840E+06 -2.455413E+05  2.938963E+05 -1.319388E-10 -1.154468E-09
       275  19  1.771938E+05  7.284074E+05  1.610729E+05  3.411670E+05 -4.446520E+04 -1.766686E+04
       275  20  2.768309E+05  1.059272E+06  2.620731E+05  3.318786E+05 -4.799017E+04  6.553050E+04
       275  21  4.365478E+05  1.416309E+06  4.322454E+05  3.984363E+05 -1.600206E+04  1.488046E+05
       275  22  2.407305E+03 -9.969564E+03  2.519047E+04  3.460948E+05 -4.446204E+04  1.812916E+04
       275  23  1.819773E+04 -1.796115E+04  4.543323E+04  3.081817E+05 -4.799909E+04  4.155606E+04
       275  24  8.376320E+04 -1.020862E+04  9.340974E+04  3.461063E+05 -1.600249E+04  6.501126E+04
       275  25 -1.724094E+05 -7.478152E+05 -1.107097E+05  3.510163E+05 -4.445831E+04  5.388377E+04
       275  26 -2.405047E+05 -1.094087E+06 -1.712635E+05  2.845263E+05 -4.800619E+04  1.762230E+04
       275  27 -2.691538E+05 -1.434840E+06 -2.455402E+05  2.938965E+05 -1.598886E+04 -1.859098E+04
       276   1  7.801747E+05  2.043881E+05  1.968226E+05  1.706605E+05  5.539712E+04 -9.290331E+03
       276   2  6.125211E+05  1.521165E+05  1.292894E+05  1.498287E+05  2.012176E+04 -2.876176E+04
       276   3  4.521003E+05  1.104473E+05  8.735439E+04  1.649718E+05 -1.515767E+04 -2.858959E+04
       276   4 -1.259141E+04  8.321107E+03  8.940526E+03  1.650236E+05  6.197850E+03 -9.341773E+03
       276   5 -1.329860E+04  2.008368E+03  4.372674E+03  1.470397E+05  3.963634E+03 -2.878225E+04
       276   6 -1.252514E+04  5.726639E+02  2.478081E+03  1.650319E+05  1.715485E+03 -2.857038E+04
       276   7 -8.047754E+05 -1.877896E+05 -1.789761E+05  1.593937E+05 -4.293898E+04 -9.392364E+03
       276   8 -6.387440E+05 -1.481236E+05 -1.205627E+05  1.442535E+05 -1.217855E+04 -2.880261E+04
       276   9 -4.769404E+05 -1.093140E+05 -8.240590E+04  1.650919E+05  1.857636E+04 -2.855116E+04
       276  10  7.801714E+05  2.043872E+05  1.968166E+05  1.706609E+05  1.019155E-09  7.387587E-10
       276  11  6.125205E+05  1.521155E+05  1.292870E+05  1.498291E+05 -1.043523E-08  1.907892E-09
       276  12  4.520999E+05  1.104463E+05  8.735243E+04  1.649715E+05 -1.975944E-08 -8.992224E-10
       276  13 -1.259147E+04  8.321003E+03  8.940290E+03  1.650236E+05  5.473135E-10 -1.687491E-09
       276  14 -1.329884E+04  2.007475E+03  4.371087E+03  1.470398E+05  5.273899E-10 -2.659869E-09
       276  15 -1.252536E+04  5.717865E+02  2.476541E+03  1.650320E+05  2.982225E-10 -6.842833E-10
       276  16 -8.047774E+05 -1.877902E+05 -1.789798E+05  1.593933E+05 -1.701424E-09  7.383119E-10
       276  17 -6.387443E+05 -1.481245E+05 -1.205646E+05  1.442532E+05  9.536332E-09  2.742610E-09
       276  18 -4.769410E+05 -1.093150E+05 -8.240808E+04  1.650923E+05  1.990561E-08 -9.602729E-10
       276  19  7.801747E+05  2.043881E+05  1.968226E+05  1.706605E+05 -5.539712E+04  9.290331E+03
       276  20  6.125211E+05  1.521165E+05  1.292894E+05  1.498287E+05 -2.012176E+04  2.876176E+04
       276  21  4.521003E+05  1.104473E+05  8.735439E+04  1.649718E+05  1.515767E+04  2.858959E+04
       276  22 -1.259141E+04  8.321107E+03  8.940526E+03  1.650236E+05 -6.197850E+03  9.341773E+03
       276  23 -1.329860E+04  2.008368E+03  4.372674E+03  1.470397E+05 -3.963634E+03  2.878225E+04
       276  24 -1.252514E+04  5.726639E+02  2.478081E+03  1.650319E+05 -1.715485E+03  2.857038E+04
       276  25 -8.047754E+05 -1.877896E+05 -1.789761E+05  1.593937E+05  4.293898E+04  9.392364E+03
       276  26 -6.387440E+05 -1.481236E+05 -1.205627E+05  1.442535E+05  1.217855E+04  2.880261E+04
       276  27 -4.769404E+05 -1.093140E+05 -8.240590E+04  1.650919E+05 -1.857636E+04  2.855116E+04
       277   1  3.439444E+05  8.500394E+04  6.666738E+04  1.657887E+05 -1.327252E+04 -2.236527E+04
       277   2  1.798059E+05  4.573874E+04  3.532463E+04  1.469252E+05 -1.654687E+04 -1.286091E+04
       277   3  1.623406E+04  7.278108E+03  6.289139E+03  1.653013E+05 -1.982332E+04 -1.771720E+03
       277   4 -1.282037E+04  7.184942E+02  1.937019E+03  1.653118E+05  1.375803E+03 -2.234744E+04
       277   5 -1.284794E+04  3.883671E+02  1.208465E+03  1.466919E+05  7.631470E+02 -1.283854E+04
       277   6 -1.279956E+04  4.014644E+02  9.384053E+02  1.653122E+05  1.475309E+02 -1.744505E+03
       277   7 -3.694609E+05 -8.357399E+04 -6.279759E+04  1.648352E+05  1.601594E+04 -2.232963E+04
       277   8 -2.054648E+05 -4.496389E+04 -3.290795E+04  1.464587E+05  1.806795E+04 -1.281617E+04
       277   9 -4.183151E+04 -6.475013E+03 -4.410864E+03  1.653232E+05  2.011747E+04 -1.717289E+03
       277  10  3.439440E+05  8.500336E+04  6.666611E+04  1.657884E+05  1.990905E-08 -2.519105E-09
       277  11  1.798055E+05  4.573849E+04  3.532381E+04  1.469250E+05  1.050663E-08  3.106446E-10
       277  12  1.623364E+04  7.277999E+03  6.288395E+03  1.653012E+05 -6.326113E-10  2.230999E-09
       277  13 -1.282050E+04  7.179574E+02  1.936077E+03  1.653118E+05  1.229987E-10  2.873020E-09
       277  14 -1.284798E+04  3.881900E+02  1.208154E+03  1.466919E+05  3.139185E-10 -6.477263E-09
       277  15 -1.279956E+04  4.014612E+02  9.383995E+02  1.653122E+05  6.107475E-10  2.277988E-09
       277  16 -3.694613E+05 -8.357460E+04 -6.279901E+04  1.648355E+05 -2.060077E-08 -2.405857E-09
       277  17 -2.054652E+05 -4.496415E+04 -3.290888E+04  1.464589E+05 -9.954959E-09 -7.306530E-10
       277  18 -4.183195E+04 -6.475125E+03 -4.411630E+03  1.653233E+05  1.021182E-09  3.625848E-10
       277  19  3.439444E+05  8.500394E+04  6.666738E+04  1.657887E+05  1.327252E+04  2.236527E+04
       277  20  1.798059E+05  4.573874E+04  3.532463E+04  1.469252E+05  1.654687E+04  1.286091E+04
       277  21  1.623406E+04  7.278108E+03  6.289139E+03  1.653013E+05  1.982332E+04  1.771720E+03
       277  22 -1.282037E+04  7.184942E+02  1.937019E+03  1.653118E+05 -1.375803E+03  2.234744E+04
       277  23 -1.284794E+04  3.883671E+02  1.208465E+03  1.466919E+05 -7.631470E+02  1.283854E+04
       277  24 -1.279956E+04  4.014644E+02  9.384053E+02  1.653122E+05 -1.475309E+02  1.744505E+03
       277  25 -3.694609E+05 -8.357399E+04 -6.279759E+04  1.648352E+05 -1.601594E+04  2.232963E+04
       277  26 -2.054648E+05 -4.496389E+04 -3.290795E+04  1.464587E+05 -1.806795E+04  1.281617E+04
       277  27 -4.183151E+04 -6.475013E+03 -4.410864E+03  1.653232E+05 -2.011747E+04  1.717289E+03
       278   1 -9.077973E+04 -1.793111E+04 -1.276545E+04  1.652614E+05 -2.000529E+04  5.287379E+03
       278   2 -2.543853E+05 -5.644449E+04 -4.141246E+04  1.464220E+05 -1.770885E+04  1.633856E+04
       278   3 -4.184002E+05 -9.514967E+04 -7.162977E+04  1.648169E+05 -1.540952E+04  2.569385E+04
       278   4 -1.280375E+04  4.015473E+02  9.162597E+02  1.653107E+05 -2.455634E+01  5.314505E+03
       278   5 -1.284764E+04  3.710395E+02  1.085690E+03  1.466938E+05 -5.786029E+02  1.636029E+04
       278   6 -1.282985E+04  6.454035E+02  1.664733E+03  1.653104E+05 -1.129219E+03  2.571055E+04
       278   7  6.517904E+04  1.873409E+04  1.459925E+04  1.653600E+05  1.995861E+04  5.341632E+03
       278   8  2.287478E+05  5.718353E+04  4.358282E+04  1.469658E+05  1.655812E+04  1.638203E+04
       278   9  3.929011E+05  9.643138E+04  7.495354E+04  1.658041E+05  1.316016E+04  2.572727E+04
       278  10 -9.078016E+04 -1.793125E+04 -1.276625E+04  1.652615E+05 -3.710342E-09 -3.246031E-09
       278  11 -2.543857E+05 -5.644486E+04 -4.141355E+04  1.464222E+05  1.019666E-08 -1.840722E-09
       278  12 -4.184006E+05 -9.515044E+04 -7.163146E+04  1.648172E+05  2.287484E-08 -6.625394E-10
       278  13 -1.280375E+04  4.015170E+02  9.162066E+02  1.653107E+05  4.475824E-10 -3.507986E-10
       278  14 -1.284771E+04  3.707520E+02  1.085186E+03  1.466939E+05  5.541875E-10 -1.880882E-09
       278  15 -1.283003E+04  6.446933E+02  1.663488E+03  1.653104E+05  3.810511E-10  1.432173E-10
       278  16  6.517861E+04  1.873395E+04  1.459845E+04  1.653599E+05  3.082652E-09 -1.888477E-09
       278  17  2.287474E+05  5.718317E+04  4.358180E+04  1.469656E+05 -1.006249E-08  2.175863E-09
       278  18  3.929008E+05  9.643062E+04  7.495198E+04  1.658038E+05 -2.276285E-08  3.019372E-09
       278  19 -9.077973E+04 -1.793111E+04 -1.276545E+04  1.652614E+05  2.000529E+04 -5.287379E+03
       278  20 -2.543853E+05 -5.644449E+04 -4.141246E+04  1.464220E+05  1.770885E+04 -1.633856E+04
       278  21 -4.184002E+05 -9.514967E+04 -7.162977E+04  1.648169E+05  1.540952E+04 -2.569385E+04
       278  22 -1.280375E+04  4.015473E+02  9.162597E+02  1.653107E+05  2.455634E+01 -5.314505E+03
       278  23 -1.284764E+04  3.710395E+02  1.085690E+03  1.466938E+05  5.786029E+02 -1.636029E+04
       278  24 -1.282985E+04  6.454035E+02  1.664733E+03  1.653104E+05  1.129219E+03 -2.571055E+04
       278  25  6.517904E+04  1.873409E+04  1.459925E+04  1.653600E+05 -1.995861E+04 -5.341632E+03
       278  26  2.287478E+05  5.718353E+04  4.358282E+04  1.469658E+05 -1.655812E+04 -1.638203E+04
       278  27  3.929011E+05  9.643138E+04  7.495354E+04  1.658041E+05 -1.316016E+04 -2.572727E+04
       279   1 -5.259799E+05 -1.209000E+05 -9.141358E+04  1.649639E+05 -1.805381E+04  3.185727E+04
       279   2 -6.875090E+05 -1.600746E+05 -1.306292E+05  1.446198E+05  1.497561E+04  3.140395E+04
       279   3 -8.538268E+05 -2.012009E+05 -1.918551E+05  1.601736E+05  4.800965E+04  1.014718E+04
       279   4 -1.258403E+04  5.165820E+02  2.108221E+03  1.650139E+05 -1.421887E+03  3.187534E+04
       279   5 -1.324629E+04  1.701849E+03  3.677673E+03  1.470628E+05 -3.309052E+03  3.138142E+04
       279   6 -1.265543E+04  7.002166E+03  7.497389E+03  1.650071E+05 -5.182506E+03  1.009464E+04
       279   7  5.010688E+05  1.219184E+05  9.562049E+04  1.650638E+05  1.522343E+04  3.189340E+04
       279   8  6.614519E+05  1.634507E+05  1.379630E+05  1.495082E+05 -2.161318E+04  3.135875E+04
       279   9  8.291727E+05  2.151560E+05  2.068113E+05  1.698469E+05 -5.844642E+04  1.004131E+04
       279  10 -5.259805E+05 -1.209012E+05 -9.141611E+04  1.649644E+05 -1.849675E-08 -2.239223E-09
       279  11 -6.875095E+05 -1.600758E+05 -1.306314E+05  1.446195E+05 -9.260844E-09 -2.378565E-10
       279  12 -8.538293E+05 -2.012017E+05 -1.918596E+05  1.601733E+05  2.358162E-09 -5.312760E-10
       279  13 -1.258430E+04  5.154904E+02  2.106308E+03  1.650139E+05  5.206649E-10  1.691556E-10
       279  14 -1.324657E+04  1.700788E+03  3.675802E+03  1.470628E+05  3.678179E-10 -4.541236E-09
       279  15 -1.265549E+04  7.002049E+03  7.497147E+03  1.650071E+05  1.775554E-10 -1.281295E-09
       279  16  5.010683E+05  1.219173E+05  9.561814E+04  1.650634E+05  1.797188E-08  4.938727E-10
       279  17  6.614511E+05  1.634495E+05  1.379603E+05  1.495088E+05  9.556852E-09  2.208817E-09
       279  18  8.291690E+05  2.151550E+05  2.068047E+05  1.698474E+05 -2.019570E-09 -1.948657E-10
       279  19 -5.259799E+05 -1.209000E+05 -9.141358E+04  1.649639E+05  1.805381E+04 -3.185727E+04
       279  20 -6.875090E+05 -1.600746E+05 -1.306292E+05  1.446198E+05 -1.497561E+04 -3.140395E+04
       279  21 -8.538268E+05 -2.012009E+05 -1.918551E+05  1.601736E+05 -4.800965E+04 -1.014718E+04
       279  22 -1.258403E+04  5.165820E+02  2.108221E+03  1.650139E+05  1.421887E+03 -3.187534E+04
       279  23 -1.324629E+04  1.701849E+03  3.677673E+03  1.470628E+05  3.309052E+03 -3.138142E+04
       279  24 -1.265543E+04  7.002166E+03  7.497389E+03  1.650071E+05  5.182506E+03 -1.009464E+04
       279  25  5.010688E+05  1.219184E+05  9.562049E+04  1.650638E+05 -1.522343E+04 -3.189340E+04
       279  26  6.614519E+05  1.634507E+05  1.379630E+05  1.495082E+05  2.161318E+04 -3.135875E+04
       279  27  8.291727E+05  2.151560E+05  2.068113E+05  1.698469E+05  5.844642E+04 -1.004131E+04
       280   1 -2.252584E+05 -9.609534E+05 -2.167636E+05  2.866974E+05 -9.091583E+03 -4.732292E+04
       280   2 -1.500844E+05 -6.729675E+05 -1.264066E+05  2.552023E+05 -2.545262E+04 -9.186508E+03
       280   3 -8.116622E+04 -3.912943E+05 -6.245632E+04  2.870062E+05 -1.868751E+04  2.898478E+04
       280   4  4.161983E+02 -5.084234E+04  9.442110E+02  2.870593E+05 -9.100070E+03 -4.729580E+02
       280   5 -8.360394E+01 -5.096173E+04  1.321997E+03  2.554117E+05 -2.545153E+04 -1.138202E+03
       280   6 -9.006352E+01 -5.072723E+04  2.266068E+03  2.870590E+05 -1.868749E+04 -1.786943E+03
       280   7  2.260320E+05  8.600334E+05  2.186018E+05  2.874215E+05 -9.108507E+03  4.644546E+04
       280   8  1.498929E+05  5.714118E+05  1.290302E+05  2.556213E+05 -2.545043E+04  6.918030E+03
       280   9  8.097980E+04  2.899538E+05  6.698682E+04  2.871118E+05 -1.868746E+04 -3.257515E+04
       280  10 -2.252591E+05 -9.609558E+05 -2.167679E+05  2.866971E+05 -3.112239E-10 -1.353003E-10
       280  11 -1.500852E+05 -6.729678E+05 -1.264080E+05  2.552021E+05  4.887703E-10  7.555241E-10
       280  12 -8.116682E+04 -3.912953E+05 -6.245855E+04  2.870066E+05  6.589577E-10  3.203621E-10
       280  13  4.161093E+02 -5.084236E+04  9.440550E+02  2.870593E+05  1.302614E-10 -1.062356E-09
       280  14 -8.429986E+01 -5.096191E+04  1.320778E+03  2.554117E+05 -6.349485E-10 -5.551861E-10
       280  15 -9.043935E+01 -5.072733E+04  2.265406E+03  2.870590E+05  3.160790E-10  1.733906E-10
       280  16  2.260313E+05  8.600311E+05  2.185976E+05  2.874219E+05 -1.769318E-10 -1.130954E-09
       280  17  1.498922E+05  5.714116E+05  1.290289E+05  2.556214E+05 -2.358724E-10 -6.044544E-10
       280  18  8.097914E+04  2.899525E+05  6.698417E+04  2.871113E+05 -4.839104E-10 -1.012117E-10
       280  19 -2.252584E+05 -9.609534E+05 -2.167636E+05  2.866974E+05  9.091583E+03  4.732292E+04
       280  20 -1.500844E+05 -6.729675E+05 -1.264066E+05  2.552023E+05  2.545262E+04  9.186508E+03
       280  21 -8.116622E+04 -3.912943E+05 -6.245632E+04  2.870062E+05  1.868751E+04 -2.898478E+04
       280  22  4.161983E+02 -5.084234E+04  9.442110E+02  2.870593E+05  9.100070E+03  4.729580E+02
       280  23 -8.360394E+01 -5.096173E+04  1.321997E+03  2.554117E+05  2.545153E+04  1.138202E+03
       280  24 -9.006352E+01 -5.072723E+04  2.266068E+03  2.870590E+05  1.868749E+04  1.786943E+03
       280  25  2.260320E+05  8.600334E+05  2.186018E+05  2.874215E+05  9.108507E+03 -4.644546E+04
       280  26  1.498929E+05  5.714118E+05  1.290302E+05  2.556213E+05  2.545043E+04 -6.918030E+03
       280  27  8.097980E+04  2.899538E+05  6.698682E+04  2.871118E+05  1.868746E+04  3.257515E+04
       281   1 -3.688898E+04 -2.042549E+05 -2.732072E+04  2.870415E+05 -7.430550E+03  2.617035E+04
       281   2  3.092253E+04  8.006283E+04  2.784291E+04  2.552218E+05  9.211972E+03  2.269516E+04
       281   3  1.001435E+05  3.653570E+05  8.563679E+04  2.880376E+05  2.531131E+04  1.921984E+04
       281   4 -1.011704E+02 -5.062363E+04  2.962930E+03  2.873570E+05 -7.431918E+03 -2.242715E+03
       281   5  1.711137E+02 -5.100619E+04  5.151185E+03  2.550390E+05  9.212036E+03 -4.810639E+03
       281   6  1.699481E+03 -5.064812E+04  9.339932E+03  2.873570E+05  2.531259E+04 -7.377186E+03
       281   7  3.668564E+04  1.030319E+05  3.324847E+04  2.876725E+05 -7.433314E+03 -3.066266E+04
       281   8 -3.058082E+04 -1.820567E+05 -1.753829E+04  2.548561E+05  9.212116E+03 -3.231081E+04
       281   9 -9.675399E+04 -4.664838E+05 -6.696135E+04  2.866769E+05  2.531393E+04 -3.395687E+04
       281  10 -3.688922E+04 -2.042556E+05 -2.732212E+04  2.870417E+05  8.274859E-10  2.423502E-10
       281  11  3.092230E+04  8.006225E+04  2.784178E+04  2.552217E+05  4.221469E-10  6.970785E-10
       281  12  1.001427E+05  3.653565E+05  8.563489E+04  2.880372E+05  8.135409E-10 -3.620498E-10
       281  13 -1.012311E+02 -5.062366E+04  2.962817E+03  2.873570E+05  2.513334E-10  5.375866E-10
       281  14  1.710164E+02 -5.100624E+04  5.150982E+03  2.550390E+05  1.053228E-09 -5.261393E-10
       281  15  1.698778E+03 -5.064835E+04  9.338626E+03  2.873572E+05  6.468829E-10 -1.145442E-09
       281  16  3.668533E+04  1.030309E+05  3.324660E+04  2.876723E+05 -2.206795E-10 -6.989412E-10
       281  17 -3.058119E+04 -1.820579E+05 -1.754041E+04  2.548564E+05 -2.859001E-10 -1.801541E-09
       281  18 -9.675499E+04 -4.664852E+05 -6.696472E+04  2.866776E+05 -1.280171E-10 -1.460737E-10
       281  19 -3.688898E+04 -2.042549E+05 -2.732072E+04  2.870415E+05  7.430550E+03 -2.617035E+04
       281  20  3.092253E+04  8.006283E+04  2.784291E+04  2.552218E+05 -9.211972E+03 -2.269516E+04
       281  21  1.001435E+05  3.653570E+05  8.563679E+04  2.880376E+05 -2.531131E+04 -1.921984E+04
       281  22 -1.011704E+02 -5.062363E+04  2.962930E+03  2.873570E+05  7.431918E+03  2.242715E+03
       281  23  1.711137E+02 -5.100619E+04  5.151185E+03  2.550390E+05 -9.212036E+03  4.810639E+03
       281  24  1.699481E+03 -5.064812E+04  9.339932E+03  2.873570E+05 -2.531259E+04  7.377186E+03
       281  25  3.668564E+04  1.030319E+05  3.324847E+04  2.876725E+05  7.433314E+03  3.066266E+04
       281  26 -3.058082E+04 -1.820567E+05 -1.753829E+04  2.548561E+05 -9.212116E+03  3.231081E+04
       281  27 -9.675399E+04 -4.664838E+05 -6.696135E+04  2.866769E+05 -2.531393E+04  3.395687E+04
       282   1  1.438784E+05  5.542321E+05  1.233719E+05  2.844353E+05  3.627690E+04  2.073944E+04
       282   2  2.210935E+05  8.311738E+05  2.001678E+05  2.669651E+05  3.933898E+04 -3.991394E+04
       282   3  3.312088E+05  1.124498E+06  3.246812E+05  3.123771E+05  1.315602E+04 -1.006221E+05
       282   4  1.022843E+03 -4.911668E+04  1.226013E+04  2.869637E+05  3.628146E+04 -8.979769E+03
       282   5  8.744091E+03 -5.309598E+04  2.222670E+04  2.555301E+05  3.933959E+04 -2.043563E+04
       282   6  4.086013E+04 -4.927881E+04  4.578296E+04  2.869776E+05  1.313632E+04 -3.191752E+04
       282   7 -1.418529E+05 -6.521106E+05 -9.886332E+04  2.894895E+05  3.628578E+04 -3.867088E+04
       282   8 -2.036529E+05 -9.366197E+05 -1.557529E+05  2.441116E+05  3.933948E+04 -9.844854E+02
       282   9 -2.495828E+05 -1.221781E+06 -2.331934E+05  2.616260E+05  1.311101E+04  3.665799E+04
       282  10  1.438768E+05  5.542313E+05  1.233686E+05  2.844347E+05  4.754807E-10 -1.880201E-09
       282  11  2.210914E+05  8.311716E+05  2.001619E+05  2.669664E+05 -2.496424E-10  1.004265E-09
       282  12  3.312059E+05  1.124487E+06  3.246619E+05  3.123782E+05 -5.595781E-10  3.855140E-10
       282  13  1.021408E+03 -4.911712E+04  1.225751E+04  2.869640E+05 -4.831264E-10 -5.578290E-10
       282  14  8.742317E+03 -5.309684E+04  2.222300E+04  2.555308E+05 -6.178371E-10 -2.597912E-10
       282  15  4.085967E+04 -4.927995E+04  4.578072E+04  2.869779E+05 -2.927204E-10  1.927726E-10
       282  16 -1.418547E+05 -6.521125E+05 -9.886861E+04  2.894906E+05 -5.337116E-10 -5.675782E-10
       282  17 -2.036546E+05 -9.366201E+05 -1.557558E+05  2.441117E+05 -4.034592E-10 -9.546988E-10
       282  18 -2.495833E+05 -1.221782E+06 -2.331963E+05  2.616257E+05 -4.377391E-10 -3.290250E-10
       282  19  1.438784E+05  5.542321E+05  1.233719E+05  2.844353E+05 -3.627690E+04 -2.073944E+04
       282  20  2.210935E+05  8.311738E+05  2.001678E+05  2.669651E+05 -3.933898E+04  3.991394E+04
       282  21  3.312088E+05  1.124498E+06  3.246812E+05  3.123771E+05 -1.315602E+04  1.006221E+05
       282  22  1.022843E+03 -4.911668E+04  1.226013E+04  2.869637E+05 -3.628146E+04  8.979769E+03
       282  23  8.744091E+03 -5.309598E+04  2.222670E+04  2.555301E+05 -3.933959E+04  2.043563E+04
       282  24  4.086013E+04 -4.927881E+04  4.578296E+04  2.869776E+05 -1.313632E+04  3.191752E+04
       282  25 -1.418529E+05 -6.521106E+05 -9.886332E+04  2.894895E+05 -3.628578E+04  3.867088E+04
       282  26 -2.036529E+05 -9.366197E+05 -1.557529E+05  2.441116E+05 -3.933948E+04  9.844854E+02
       282  27 -2.495828E+05 -1.221781E+06 -2.331934E+05  2.616260E+05 -1.311101E+04 -3.665799E+04
       283   1  3.587468E+05  9.829128E+04  9.549574E+04  9.183331E+04  2.781729E+04 -4.074898E+03
       283   2  2.708072E+05  6.820322E+04  6.001695E+04  7.949629E+04  1.022060E+04 -1.231026E+04
       283   3  1.870383E+05  4.570554E+04  3.788539E+04  8.607802E+04 -7.379310E+03 -1.146610E+04
       283   4 -4.301387E+03  8.434846E+03  9.232749E+03  8.641926E+04  6.368898E+03 -4.092971E+03
       283   5 -5.051363E+03  1.939397E+03  4.536572E+03  7.696323E+04  4.034854E+03 -1.231610E+04
       283   6 -4.286076E+03  3.874206E+02  2.593338E+03  8.642598E+04  1.694793E+03 -1.145802E+04
       283   7 -3.672276E+05 -8.143073E+04 -7.703771E+04  8.100835E+04 -1.506702E+04 -4.110676E+03
       283   8 -2.808373E+05 -6.432908E+04 -5.094755E+04  7.443130E+04 -2.148200E+03 -1.232188E+04
       283   9 -1.955748E+05 -4.493275E+04 -3.269993E+04  8.677383E+04  1.076617E+04 -1.144992E+04
       283  10  3.587460E+05  9.829106E+04  9.549426E+04  9.183340E+04 -8.837851E-10  9.323059E-10
       283  11  2.708071E+05  6.820303E+04  6.001647E+04  7.949639E+04 -8.749586E-10  7.746190E-10
       283  12  1.870382E+05  4.570539E+04  3.788504E+04  8.607795E+04 -3.967876E-10  9.937409E-10
       283  13 -4.301435E+03  8.434818E+03  9.232641E+03  8.641928E+04  3.604973E-10  1.317102E-09
       283  14 -5.051421E+03  1.939230E+03  4.536256E+03  7.696327E+04  6.002168E-10 -4.807024E-10
       283  15 -4.286114E+03  3.872789E+02  2.593086E+03  8.642600E+04  8.948626E-12  9.011581E-10
       283  16 -3.672278E+05 -8.143081E+04 -7.703817E+04  8.100830E+04  8.484645E-10 -6.253567E-10
       283  17 -2.808374E+05 -6.432925E+04 -5.094784E+04  7.443128E+04  1.332390E-09 -4.066796E-09
       283  18 -1.955749E+05 -4.493292E+04 -3.270039E+04  8.677393E+04  8.131250E-10 -1.083443E-09
       283  19  3.587468E+05  9.829128E+04  9.549574E+04  9.183331E+04 -2.781729E+04  4.074898E+03
       283  20  2.708072E+05  6.820322E+04  6.001695E+04  7.949629E+04 -1.022060E+04  1.231026E+04
       283  21  1.870383E+05  4.570554E+04  3.788539E+04  8.607802E+04  7.379310E+03  1.146610E+04
       283  22 -4.301387E+03  8.434846E+03  9.232749E+03  8.641926E+04 -6.368898E+03  4.092971E+03
       283  23 -5.051363E+03  1.939397E+03  4.536572E+03  7.696323E+04 -4.034854E+03  1.231610E+04
       283  24 -4.286076E+03  3.874206E+02  2.593338E+03  8.642598E+04 -1.694793E+03  1.145802E+04
       283  25 -3.672276E+05 -8.143073E+04 -7.703771E+04  8.100835E+04  1.506702E+04  4.110676E+03
       283  26 -2.808373E+05 -6.432908E+04 -5.094755E+04  7.443130E+04  2.148200E+03  1.232188E+04
       283  27 -1.955748E+05 -4.493275E+04 -3.269993E+04  8.677383E+04 -1.076617E+04  1.144992E+04
       284   1  1.303330E+05  3.246545E+04  2.687834E+04  8.681223E+04 -6.705927E+03 -8.145883E+03
       284   2  4.438416E+04  1.178579E+04  1.033367E+04  7.690259E+04 -8.579053E+03 -3.000852E+03
       284   3 -4.122425E+04 -8.379639E+03 -4.874049E+03  8.649778E+04 -1.045268E+04  2.857049E+03
       284   4 -4.591135E+03  5.170640E+02  2.052414E+03  8.655535E+04  1.342684E+03 -8.138447E+03
       284   5 -4.653086E+03  1.812575E+02  1.347845E+03  7.680306E+04  6.669280E+02 -2.992147E+03
       284   6 -4.588370E+03  1.525109E+02  1.149131E+03  8.655569E+04 -9.559576E+00  2.867062E+03
       284   7 -1.394975E+05 -3.143233E+04 -2.277402E+04  8.629853E+04  9.389592E+03 -8.131018E+03
       284   8 -5.368781E+04 -1.142337E+04 -7.637759E+03  7.670354E+04  9.912198E+03 -2.983446E+03
       284   9  3.204907E+04  8.684650E+03  7.172682E+03  8.661361E+04  1.043416E+04  2.877076E+03
       284  10  1.303329E+05  3.246537E+04  2.687813E+04  8.681218E+04 -6.224959E-09  9.735920E-10
       284  11  4.438408E+04  1.178576E+04  1.033352E+04  7.690257E+04 -1.728585E-09 -9.786810E-10
       284  12 -4.122437E+04 -8.379677E+03 -4.874270E+03  8.649780E+04  3.023516E-09 -1.047727E-09
       284  13 -4.591155E+03  5.169924E+02  2.052286E+03  8.655536E+04  6.981378E-10  1.515644E-09
       284  14 -4.653089E+03  1.812478E+02  1.347828E+03  7.680306E+04 -5.354199E-11  3.145149E-09
       284  15 -4.588372E+03  1.525020E+02  1.149116E+03  8.655569E+04  1.257875E-11 -9.645954E-10
       284  16 -1.394976E+05 -3.143242E+04 -2.277431E+04  8.629859E+04  5.798317E-09  3.149546E-09
       284  17 -5.368792E+04 -1.142340E+04 -7.637961E+03  7.670357E+04  1.519691E-09  1.111344E-09
       284  18  3.204895E+04  8.684612E+03  7.172462E+03  8.661358E+04 -2.699060E-09 -3.110653E-10
       284  19  1.303330E+05  3.246545E+04  2.687834E+04  8.681223E+04  6.705927E+03  8.145883E+03
       284  20  4.438416E+04  1.178579E+04  1.033367E+04  7.690259E+04  8.579053E+03  3.000852E+03
       284  21 -4.122425E+04 -8.379639E+03 -4.874049E+03  8.649778E+04  1.045268E+04 -2.857049E+03
       284  22 -4.591135E+03  5.170640E+02  2.052414E+03  8.655535E+04 -1.342684E+03  8.138447E+03
       284  23 -4.653086E+03  1.812575E+02  1.347845E+03  7.680306E+04 -6.669280E+02  2.992147E+03
       284  24 -4.588370E+03  1.525109E+02  1.149131E+03  8.655569E+04  9.559576E+00 -2.867062E+03
       284  25 -1.394975E+05 -3.143233E+04 -2.277402E+04  8.629853E+04 -9.389592E+03  8.131018E+03
       284  26 -5.368781E+04 -1.142337E+04 -7.637759E+03  7.670354E+04 -9.912198E+03  2.983446E+03
       284  27  3.204907E+04  8.684650E+03  7.172682E+03  8.661361E+04 -1.043416E+04 -2.877076E+03
       285   1 -9.723963E+04 -2.158191E+04 -1.480048E+04  8.654375E+04 -1.069039E+04  6.552810E+03
       285   2 -1.829455E+05 -4.169756E+04 -2.957303E+04  7.661890E+04 -9.781007E+03  1.228652E+04
       285   3 -2.687764E+05 -6.173519E+04 -4.492815E+04  8.618189E+04 -8.870304E+03  1.701547E+04
       285   4 -4.582199E+03  1.481592E+02  1.186799E+03  8.655183E+04 -2.172434E+02  6.562708E+03
       285   5 -4.667616E+03  1.876119E+02  1.553187E+03  7.680788E+04 -9.962306E+02  1.229422E+04
       285   6 -4.592284E+03  5.985019E+02  2.509375E+03  8.655140E+04 -1.773776E+03  1.702114E+04
       285   7  8.808389E+04  2.187782E+04  1.717420E+04  8.655990E+04  1.025741E+04  6.572606E+03
       285   8  1.736415E+05  4.207110E+04  3.267856E+04  7.699691E+04  7.790993E+03  1.230193E+04
       285   9  2.596600E+05  6.292834E+04  4.994439E+04  8.692106E+04  5.325689E+03  1.702681E+04
       285  10 -9.723976E+04 -2.158198E+04 -1.480078E+04  8.654381E+04 -5.403025E-08 -2.763264E-09
       285  11 -1.829456E+05 -4.169775E+04 -2.957349E+04  7.661899E+04 -6.302848E-12 -4.202569E-10
       285  12 -2.687766E+05 -6.173552E+04 -4.492884E+04  8.618201E+04  5.505154E-08 -3.039081E-09
       285  13 -4.582210E+03  1.481130E+02  1.186718E+03  8.655183E+04  3.000363E-10 -5.085601E-09
       285  14 -4.667658E+03  1.874493E+02  1.552901E+03  7.680789E+04 -8.715563E-11 -7.695066E-10
       285  15 -4.592366E+03  5.981899E+02  2.508825E+03  8.655143E+04  8.267049E-12 -1.529517E-09
       285  16  8.808377E+04  2.187775E+04  1.717392E+04  8.655984E+04  5.364019E-08 -3.311895E-09
       285  17  1.736414E+05  4.207092E+04  3.267816E+04  7.699683E+04 -5.417869E-10 -6.347424E-09
       285  18  2.596599E+05  6.292802E+04  4.994380E+04  8.692099E+04 -5.509701E-08 -1.306826E-09
       285  19 -9.723963E+04 -2.158191E+04 -1.480048E+04  8.654375E+04  1.069039E+04 -6.552810E+03
       285  20 -1.829455E+05 -4.169756E+04 -2.957303E+04  7.661890E+04  9.781007E+03 -1.228652E+04
       285  21 -2.687764E+05 -6.173519E+04 -4.492815E+04  8.618189E+04  8.870304E+03 -1.701547E+04
       285  22 -4.582199E+03  1.481592E+02  1.186799E+03  8.655183E+04  2.172434E+02 -6.562708E+03
       285  23 -4.667616E+03  1.876119E+02  1.553187E+03  7.680788E+04  9.962306E+02 -1.229422E+04
       285  24 -4.592284E+03  5.985019E+02  2.509375E+03  8.655140E+04  1.773776E+03 -1.702114E+04
       285  25  8.808389E+04  2.187782E+04  1.717420E+04  8.655990E+04 -1.025741E+04 -6.572606E+03
       285  26  1.736415E+05  4.207110E+04  3.267856E+04  7.699691E+04 -7.790993E+03 -1.230193E+04
       285  27  2.596600E+05  6.292834E+04  4.994439E+04  8.692106E+04 -5.325689E+03 -1.702681E+04
       286   1 -3.249116E+05 -7.534372E+04 -5.489430E+04  8.678923E+04 -1.067114E+04  2.018050E+04
       286   2 -4.099619E+05 -9.463527E+04 -7.453688E+04  7.381769E+04  6.702999E+03  1.918936E+04
       286   3 -4.965996E+05 -1.112116E+05 -1.048178E+05  7.955539E+04  2.408088E+04  6.100790E+03
       286   4 -4.205037E+03  4.313494E+02  3.215317E+03  8.637922E+04 -2.204333E+03  2.018686E+04
       286   5 -5.182113E+03  2.394239E+03  5.701407E+03  7.702125E+04 -5.143099E+03  1.917920E+04
       286   6 -4.227421E+03  1.059861E+04  1.165859E+04  8.637149E+04 -8.075343E+03  6.077921E+03
       286   7  3.166018E+05  7.620068E+04  6.132114E+04  8.596897E+04  6.266727E+03  2.019321E+04
       286   8  3.997548E+05  9.941388E+04  8.593212E+04  8.022691E+04 -1.699676E+04  1.916892E+04
       286   9  4.883700E+05  1.323921E+05  1.281221E+05  9.319298E+04 -4.025695E+04  6.054356E+03
       286  10 -3.249119E+05 -7.534419E+04 -5.489528E+04  8.678940E+04 -1.195808E-09 -4.726293E-10
       286  11 -4.099621E+05 -9.463568E+04 -7.453765E+04  7.381759E+04  2.309278E-09  1.110898E-09
       286  12 -4.966002E+05 -1.112118E+05 -1.048190E+05  7.955527E+04  5.759533E-09  2.861523E-09
       286  13 -4.205152E+03  4.309105E+02  3.214542E+03  8.637925E+04  3.801071E-10  1.147725E-09
       286  14 -5.182240E+03  2.393836E+03  5.700666E+03  7.702133E+04 -2.345515E-10  4.610749E-09
       286  15 -4.227501E+03  1.059856E+04  1.165839E+04  8.637153E+04  1.902050E-10  2.325491E-09
       286  16  3.166017E+05  7.620024E+04  6.132030E+04  8.596886E+04  9.775793E-10  3.824175E-10
       286  17  3.997544E+05  9.941340E+04  8.593089E+04  8.022717E+04 -2.220538E-09  4.456469E-09
       286  18  4.883682E+05  1.323917E+05  1.281190E+05  9.319318E+04 -5.994110E-09  7.770576E-10
       286  19 -3.249116E+05 -7.534372E+04 -5.489430E+04  8.678923E+04  1.067114E+04 -2.018050E+04
       286  20 -4.099619E+05 -9.463527E+04 -7.453688E+04  7.381769E+04 -6.702999E+03 -1.918936E+04
       286  21 -4.965996E+05 -1.112116E+05 -1.048178E+05  7.955539E+04 -2.408088E+04 -6.100790E+03
       286  22 -4.205037E+03  4.313494E+02  3.215317E+03  8.637922E+04  2.204333E+03 -2.018686E+04
       286  23 -5.182113E+03  2.394239E+03  5.701407E+03  7.702125E+04  5.143099E+03 -1.917920E+04
       286  24 -4.227421E+03  1.059861E+04  1.165859E+04  8.637149E+04  8.075343E+03 -6.077921E+03
       286  25  3.166018E+05  7.620068E+04  6.132114E+04  8.596897E+04 -6.266727E+03 -2.019321E+04
       286  26  3.997548E+05  9.941388E+04  8.593212E+04  8.022691E+04  1.699676E+04 -1.916892E+04
       286  27  4.883700E+05  1.323921E+05  1.281221E+05  9.319298E+04  4.025695E+04 -6.054356E+03
       287   1 -1.411959E+05 -6.175272E+05 -1.360631E+05  1.784299E+05 -5.660599E+03 -3.005066E+04
       287   2 -9.374471E+04 -4.389171E+05 -7.959498E+04  1.585334E+05 -1.587981E+04 -5.887860E+03
       287   3 -5.086991E+04 -2.644916E+05 -4.000501E+04  1.778551E+05 -1.172273E+04  1.829188E+04
       287   4 -8.521057E+02 -5.141796E+04 -6.831778E+02  1.778852E+05 -5.670397E+03 -8.407290E+02
       287   5 -3.071226E+02 -5.138453E+04 -5.395197E+01  1.582770E+05 -1.588052E+04 -8.097197E+02
       287   6 -1.439662E+02 -5.137351E+04  4.663049E+02  1.778854E+05 -1.171845E+04 -7.691237E+02
       287   7  1.394689E+05  5.149870E+05  1.346773E+05  1.773401E+05 -5.680245E+03  2.839574E+04
       287   8  9.312103E+04  3.362908E+05  7.947916E+04  1.580204E+05 -1.588124E+04  4.271535E+03
       287   9  5.057951E+04  1.617891E+05  4.093695E+04  1.779158E+05 -1.171417E+04 -1.983651E+04
       287  10 -1.411962E+05 -6.175281E+05 -1.360648E+05  1.784297E+05 -2.881404E-10 -7.023423E-10
       287  11 -9.374499E+04 -4.389172E+05 -7.959552E+04  1.585334E+05 -9.179361E-10  3.374577E-09
       287  12 -5.087015E+04 -2.644920E+05 -4.000590E+04  1.778553E+05  5.558815E-11  2.159034E-09
       287  13 -8.521405E+02 -5.141797E+04 -6.832395E+02  1.778852E+05 -2.537043E-10  1.400372E-09
       287  14 -3.073935E+02 -5.138459E+04 -5.442709E+01  1.582770E+05 -8.413829E-10 -3.730702E-09
       287  15 -1.441138E+02 -5.137354E+04  4.660457E+02  1.778854E+05 -2.589272E-10  1.022780E-09
       287  16  1.394687E+05  5.149861E+05  1.346757E+05  1.773402E+05 -3.517527E-10  1.236899E-09
       287  17  9.312076E+04  3.362907E+05  7.947865E+04  1.580205E+05 -5.689925E-10 -3.765729E-09
       287  18  5.057926E+04  1.617887E+05  4.093596E+04  1.779156E+05 -4.795028E-10 -2.285527E-09
       287  19 -1.411959E+05 -6.175272E+05 -1.360631E+05  1.784299E+05  5.660599E+03  3.005066E+04
       287  20 -9.374471E+04 -4.389171E+05 -7.959498E+04  1.585334E+05  1.587981E+04  5.887860E+03
       287  21 -5.086991E+04 -2.644916E+05 -4.000501E+04  1.778551E+05  1.172273E+04 -1.829188E+04
       287  22 -8.521057E+02 -5.141796E+04 -6.831778E+02  1.778852E+05  5.670397E+03  8.407290E+02
       287  23 -3.071226E+02 -5.138453E+04 -5.395197E+01  1.582770E+05  1.588052E+04  8.097197E+02
       287  24 -1.439662E+02 -5.137351E+04  4.663049E+02  1.778854E+05  1.171845E+04  7.691237E+02
       287  25  1.394689E+05  5.149870E+05  1.346773E+05  1.773401E+05  5.680245E+03 -2.839574E+04
       287  26  9.312103E+04  3.362908E+05  7.947916E+04  1.580204E+05  1.588124E+04 -4.271535E+03
       287  27  5.057951E+04  1.617891E+05  4.093695E+04  1.779158E+05  1.171417E+04  1.983651E+04
       288   1 -2.344177E+04 -1.485784E+05 -1.837592E+04  1.780035E+05 -4.749559E+03  1.671211E+04
       288   2  1.854017E+04  2.770821E+04  1.524813E+04  1.580938E+05  5.559377E+03  1.539524E+04
       288   3  6.097070E+04  2.043671E+05  4.985369E+04  1.782352E+05  1.554044E+04  1.407846E+04
       288   4 -1.593470E+02 -5.130683E+04  7.529856E+02  1.780709E+05 -4.746153E+03 -8.803087E+02
       288   5 -2.889341E+01 -5.143478E+04  1.546103E+03  1.580452E+05  5.563200E+03 -1.648515E+03
       288   6  4.563863E+02 -5.131600E+04  2.939621E+03  1.780710E+05  1.554460E+04 -2.416277E+03
       288   7  2.312267E+04  4.597451E+04  1.988260E+04  1.781382E+05 -4.742752E+03 -1.847542E+04
       288   8 -1.859814E+04 -1.305710E+05 -1.215505E+04  1.579967E+05  5.567026E+03 -1.869016E+04
       288   9 -6.006150E+04 -3.069351E+05 -4.397610E+04  1.779069E+05  1.554877E+04 -1.890440E+04
       288  10 -2.344187E+04 -1.485787E+05 -1.837649E+04  1.780036E+05  3.622584E-10  2.614188E-10
       288  11  1.854007E+04  2.770795E+04  1.524762E+04  1.580937E+05 -7.922317E-11  1.633046E-09
       288  12  6.097039E+04  2.043669E+05  4.985287E+04  1.782350E+05 -4.214333E-10 -1.445465E-09
       288  13 -1.593714E+02 -5.130683E+04  7.529418E+02  1.780709E+05  2.159929E-10  5.113494E-10
       288  14 -2.892737E+01 -5.143479E+04  1.546040E+03  1.580453E+05  7.602606E-11 -5.116035E-09
       288  15  4.561253E+02 -5.131607E+04  2.939156E+03  1.780710E+05  1.519079E-10  7.331811E-10
       288  16  2.312256E+04  4.597413E+04  1.988191E+04  1.781381E+05 -3.927678E-10 -8.056517E-10
       288  17 -1.859826E+04 -1.305714E+05 -1.215576E+04  1.579968E+05 -3.966922E-10 -2.312813E-09
       288  18 -6.006185E+04 -3.069355E+05 -4.397723E+04  1.779071E+05 -1.964098E-10  1.586344E-10
       288  19 -2.344177E+04 -1.485784E+05 -1.837592E+04  1.780035E+05  4.749559E+03 -1.671211E+04
       288  20  1.854017E+04  2.770821E+04  1.524813E+04  1.580938E+05 -5.559377E+03 -1.539524E+04
       288  21  6.097070E+04  2.043671E+05  4.985369E+04  1.782352E+05 -1.554044E+04 -1.407846E+04
       288  22 -1.593470E+02 -5.130683E+04  7.529856E+02  1.780709E+05  4.746153E+03  8.803087E+02
       288  23 -2.889341E+01 -5.143478E+04  1.546103E+03  1.580452E+05 -5.563200E+03  1.648515E+03
       288  24  4.563863E+02 -5.131600E+04  2.939621E+03  1.780710E+05 -1.554460E+04  2.416277E+03
       288  25  2.312267E+04  4.597451E+04  1.988260E+04  1.781382E+05  4.742752E+03  1.847542E+04
       288  26 -1.859814E+04 -1.305710E+05 -1.215505E+04  1.579967E+05 -5.567026E+03  1.869016E+04
       288  27 -6.006150E+04 -3.069351E+05 -4.397610E+04  1.779069E+05 -1.554877E+04  1.890440E+04
       289   1  8.826961E+04  3.209248E+05  7.237827E+04  1.769438E+05  2.233818E+04  1.550297E+04
       289   2  1.338114E+05  4.936562E+05  1.169818E+05  1.619108E+05  2.426996E+04 -1.855705E+04
       289   3  1.924354E+05  6.742152E+05  1.870382E+05  1.858384E+05  8.123355E+03 -5.264075E+04
       289   4  2.351221E+02 -5.082217E+04  3.893321E+03  1.778277E+05  2.234400E+04 -2.920740E+03
       289   5  2.716160E+03 -5.211905E+04  7.113984E+03  1.583498E+05  2.426736E+04 -6.586178E+03
       289   6  1.301267E+04 -5.088426E+04  1.469181E+04  1.778333E+05  8.105543E+03 -1.026560E+04
       289   7 -8.780705E+04 -4.224344E+05 -6.459607E+04  1.787110E+05  2.234977E+04 -2.133372E+04
       289   8 -1.283974E+05 -5.976101E+05 -1.027686E+05  1.547921E+05  2.426463E+04  5.374388E+03
       289   9 -1.664467E+05 -7.754975E+05 -1.576845E+05  1.698376E+05  8.086635E+03  3.206035E+04
       289  10  8.826901E+04  3.209244E+05  7.237688E+04  1.769435E+05 -5.456327E-10 -5.916065E-10
       289  11  1.338107E+05  4.936556E+05  1.169801E+05  1.619112E+05 -2.357737E-10  3.278288E-09
       289  12  1.924346E+05  6.742123E+05  1.870329E+05  1.858387E+05  3.888886E-11 -4.337071E-10
       289  13  2.345836E+02 -5.082232E+04  3.892367E+03  1.778278E+05 -8.659882E-10  1.168706E-09
       289  14  2.715516E+03 -5.211925E+04  7.112795E+03  1.583500E+05  3.325602E-10 -6.069397E-09
       289  15  1.301257E+04 -5.088439E+04  1.469149E+04  1.778334E+05 -5.173858E-10  2.820232E-09
       289  16 -8.780771E+04 -4.224350E+05 -6.459787E+04  1.787114E+05 -1.338344E-10 -9.995410E-10
       289  17 -1.283980E+05 -5.976103E+05 -1.027697E+05  1.547919E+05 -5.946133E-10 -3.164875E-09
       289  18 -1.664470E+05 -7.754986E+05 -1.576866E+05  1.698374E+05  1.919509E-10 -4.045935E-10
       289  19  8.826961E+04  3.209248E+05  7.237827E+04  1.769438E+05 -2.233818E+04 -1.550297E+04
       289  20  1.338114E+05  4.936562E+05  1.169818E+05  1.619108E+05 -2.426996E+04  1.855705E+04
       289  21  1.924354E+05  6.742152E+05  1.870382E+05  1.858384E+05 -8.123355E+03  5.264075E+04
       289  22  2.351221E+02 -5.082217E+04  3.893321E+03  1.778277E+05 -2.234400E+04  2.920740E+03
       289  23  2.716160E+03 -5.211905E+04  7.113984E+03  1.583498E+05 -2.426736E+04  6.586178E+03
       289  24  1.301267E+04 -5.088426E+04  1.469181E+04  1.778333E+05 -8.105543E+03  1.026560E+04
       289  25 -8.780705E+04 -4.224344E+05 -6.459607E+04  1.787110E+05 -2.234977E+04  2.133372E+04
       289  26 -1.283974E+05 -5.976101E+05 -1.027686E+05  1.547921E+05 -2.426463E+04 -5.374388E+03
       289  27 -1.664467E+05 -7.754975E+05 -1.576845E+05  1.698376E+05 -8.086635E+03 -3.206035E+04
       290   1 -5.320256E+04 -2.708180E+05 -5.096318E+04  7.391887E+04 -2.157083E+03 -9.251955E+03
       290   2 -3.536681E+04 -1.954437E+05 -2.931661E+04  6.640303E+04 -5.894738E+03 -3.506167E+02
       290   3 -1.777280E+04 -1.212587E+05 -1.352428E+04  7.552567E+04 -3.912486E+03  8.555050E+03
       290   4  2.358515E+03 -4.671822E+04  2.708195E+03  7.536892E+04 -2.161591E+03  1.822869E+03
       290   5  4.714788E+02 -4.695097E+04  1.364161E+03  6.704936E+04 -5.895201E+03  1.118056E+03
       290   6  1.089038E+01 -4.671106E+04  8.384166E+02  7.536791E+04 -3.909555E+03  4.163509E+02
       290   7  5.791602E+04  1.774278E+05  5.637648E+04  7.681950E+04 -2.166046E+03  1.290168E+04
       290   8  3.630838E+04  1.015627E+05  3.204375E+04  6.769585E+04 -5.895661E+03  2.587074E+03
       290   9  1.779429E+04  2.784210E+04  1.520110E+04  7.521013E+04 -3.906620E+03 -7.723303E+03
       290  10 -5.320259E+04 -2.708181E+05 -5.096335E+04  7.391885E+04 -5.553043E-10  2.090723E-08
       290  11 -3.536685E+04 -1.954437E+05 -2.931668E+04  6.640302E+04 -1.735228E-09  8.436625E-09
       290  12 -1.777284E+04 -1.212588E+05 -1.352444E+04  7.552570E+04 -8.944036E-10 -5.188084E-09
       290  13  2.358509E+03 -4.671822E+04  2.708180E+03  7.536892E+04 -3.711439E-10  1.063024E-11
       290  14  4.714411E+02 -4.695098E+04  1.364093E+03  6.704937E+04 -2.287763E-09  5.262633E-10
       290  15  1.087393E+01 -4.671106E+04  8.383875E+02  7.536791E+04 -1.171898E-09  6.826326E-10
       290  16  5.791597E+04  1.774277E+05  5.637616E+04  7.681953E+04 -5.051510E-10 -2.157446E-08
       290  17  3.630834E+04  1.015627E+05  3.204367E+04  6.769586E+04 -1.758256E-09 -8.012683E-09
       290  18  1.779425E+04  2.784203E+04  1.520096E+04  7.521010E+04 -1.460674E-09  5.482528E-09
       290  19 -5.320256E+04 -2.708180E+05 -5.096318E+04  7.391887E+04  2.157083E+03  9.251955E+03
       290  20 -3.536681E+04 -1.954437E+05 -2.931661E+04  6.640303E+04  5.894738E+03  3.506167E+02
       290  21 -1.777280E+04 -1.212587E+05 -1.352428E+04  7.552567E+04  3.912486E+03 -8.555050E+03
       290  22  2.358515E+03 -4.671822E+04  2.708195E+03  7.536892E+04  2.161591E+03 -1.822869E+03
       290  23  4.714788E+02 -4.695097E+04  1.364161E+03  6.704936E+04  5.895201E+03 -1.118056E+03
       290  24  1.089039E+01 -4.671106E+04  8.384166E+02  7.536791E+04  3.909555E+03 -4.163509E+02
       290  25  5.791602E+04  1.774278E+05  5.637648E+04  7.681950E+04  2.166046E+03 -1.290168E+04
       290  26  3.630838E+04  1.015627E+05  3.204375E+04  6.769585E+04  5.895661E+03 -2.587074E+03
       290  27  1.779429E+04  2.784210E+04  1.520110E+04  7.521013E+04  3.906620E+03  7.723303E+03
       291   1 -6.120703E+03 -7.228247E+04 -4.636419E+03  7.538663E+04 -9.416512E+02  7.860680E+03
       291   2  1.152669E+04  2.388564E+03  9.113989E+03  6.694209E+04  3.457799E+03  7.225494E+03
       291   3  2.936722E+04  7.721839E+04  2.333155E+04  7.546273E+04  7.653331E+03  6.590297E+03
       291   4  4.633834E+01 -4.679428E+04  7.090258E+02  7.544076E+04 -9.389993E+02  2.990500E+02
       291   5 -2.439289E+01 -4.684246E+04  5.907229E+02  6.695813E+04  3.460466E+03  6.032360E+00
       291   6  3.886759E+01 -4.679671E+04  7.018815E+02  7.544076E+04  7.655995E+03 -2.869235E+02
       291   7  6.213369E+03 -2.130536E+04  6.054650E+03  7.549490E+04 -9.363488E+02 -7.262886E+03
       291   8 -1.157558E+04 -9.607098E+04 -7.932432E+03  6.697418E+04  3.463134E+03 -7.212875E+03
       291   9 -2.929033E+04 -1.707968E+05 -2.192823E+04  7.541879E+04  7.658659E+03 -7.162808E+03
       291  10 -6.120721E+03 -7.228254E+04 -4.636537E+03  7.538663E+04 -3.721561E-10 -2.413890E-08
       291  11  1.152666E+04  2.388504E+03  9.113869E+03  6.694207E+04  8.517020E-10 -1.068705E-08
       291  12  2.936715E+04  7.721833E+04  2.333135E+04  7.546269E+04  1.021277E-09  2.630704E-09
       291  13  4.633737E+01 -4.679428E+04  7.090240E+02  7.544076E+04 -7.235373E-10  3.787876E-12
       291  14 -2.440575E+01 -4.684246E+04  5.907004E+02  6.695813E+04 -4.229888E-10 -1.097032E-09
       291  15  3.880463E+01 -4.679673E+04  7.017712E+02  7.544076E+04  5.695330E-10 -1.162892E-10
       291  16  6.213354E+03 -2.130542E+04  6.054549E+03  7.549489E+04 -5.340750E-10  2.341608E-08
       291  17 -1.157560E+04 -9.607104E+04 -7.932552E+03  6.697420E+04 -5.935855E-10  1.334747E-08
       291  18 -2.929041E+04 -1.707968E+05 -2.192843E+04  7.541884E+04  2.427565E-10 -2.629187E-09
       291  19 -6.120703E+03 -7.228247E+04 -4.636419E+03  7.538663E+04  9.416512E+02 -7.860680E+03
       291  20  1.152669E+04  2.388564E+03  9.113989E+03  6.694209E+04 -3.457799E+03 -7.225494E+03
       291  21  2.936722E+04  7.721839E+04  2.333155E+04  7.546273E+04 -7.653331E+03 -6.590297E+03
       291  22  4.633834E+01 -4.679428E+04  7.090258E+02  7.544076E+04  9.389993E+02 -2.990500E+02
       291  23 -2.439289E+01 -4.684246E+04  5.907229E+02  6.695813E+04 -3.460466E+03 -6.032360E+00
       291  24  3.886759E+01 -4.679671E+04  7.018815E+02  7.544076E+04 -7.655995E+03  2.869235E+02
       291  25  6.213369E+03 -2.130536E+04  6.054650E+03  7.549490E+04  9.363488E+02  7.262886E+03
       291  26 -1.157558E+04 -9.607098E+04 -7.932432E+03  6.697418E+04 -3.463134E+03  7.212875E+03
       291  27 -2.929033E+04 -1.707968E+05 -2.192823E+04  7.541879E+04 -7.658659E+03  7.162808E+03
       292   1  4.099539E+04  1.264717E+05  3.261763E+04  7.514225E+04  1.051577E+04  7.336447E+03
       292   2  5.972144E+04  1.998775E+05  5.089148E+04  6.768894E+04  1.111315E+04 -6.844173E+03
       292   3  8.219259E+04  2.760999E+05  7.933778E+04  7.671186E+04  3.682431E+03 -2.103128E+04
       292   4  1.563831E+00 -4.671566E+04  8.276143E+02  7.533198E+04  1.051900E+04 -4.030228E+02
       292   5  4.497845E+02 -4.695722E+04  1.340606E+03  6.709426E+04  1.111100E+04 -1.092342E+03
       292   6  2.302490E+03 -4.672756E+04  2.659064E+03  7.533305E+04  3.673483E+03 -1.786572E+03
       292   7 -4.099394E+04 -2.198738E+05 -3.096341E+04  7.552166E+04  1.052222E+04 -8.140391E+03
       292   8 -5.882560E+04 -2.937338E+05 -4.821324E+04  6.649983E+04  1.110884E+04  4.657247E+03
       292   9 -7.759491E+04 -3.694585E+05 -7.402553E+04  7.395498E+04  3.664448E+03  1.744819E+04
       292  10  4.099526E+04  1.264717E+05  3.261733E+04  7.514219E+04  8.034290E-10 -1.393233E-09
       292  11  5.972129E+04  1.998774E+05  5.089116E+04  6.768900E+04  2.509832E-10 -1.130238E-09
       292  12  8.219246E+04  2.760994E+05  7.933692E+04  7.671192E+04 -8.484515E-11 -1.168160E-09
       292  13  1.444971E+00 -4.671569E+04  8.274060E+02  7.533198E+04  2.770610E-10 -1.359844E-11
       292  14  4.496516E+02 -4.695726E+04  1.340371E+03  6.709427E+04  6.496382E-10  5.474257E-10
       292  15  2.302474E+03 -4.672757E+04  2.659032E+03  7.533306E+04  6.606196E-11 -4.338972E-10
       292  16 -4.099407E+04 -2.198739E+05 -3.096374E+04  7.552172E+04  8.017551E-10  2.436526E-11
       292  17 -5.882574E+04 -2.937338E+05 -4.821351E+04  6.649979E+04  9.967707E-10  2.489362E-09
       292  18 -7.759500E+04 -3.694589E+05 -7.402613E+04  7.395493E+04  3.018132E-10  5.856611E-10
       292  19  4.099539E+04  1.264717E+05  3.261763E+04  7.514225E+04 -1.051577E+04 -7.336447E+03
       292  20  5.972144E+04  1.998775E+05  5.089148E+04  6.768894E+04 -1.111315E+04  6.844173E+03
       292  21  8.219259E+04  2.760999E+05  7.933778E+04  7.671186E+04 -3.682431E+03  2.103128E+04
       292  22  1.563831E+00 -4.671566E+04  8.276143E+02  7.533198E+04 -1.051900E+04  4.030228E+02
       292  23  4.497845E+02 -4.695722E+04  1.340606E+03  6.709426E+04 -1.111100E+04  1.092342E+03
       292  24  2.302490E+03 -4.672756E+04  2.659064E+03  7.533305E+04 -3.673483E+03  1.786572E+03
       292  25 -4.099394E+04 -2.198738E+05 -3.096341E+04  7.552166E+04 -1.052222E+04  8.140391E+03
       292  26 -5.882560E+04 -2.937338E+05 -4.821324E+04  6.649983E+04 -1.110884E+04 -4.657247E+03
       292  27 -7.759491E+04 -3.694585E+05 -7.402553E+04  7.395498E+04 -3.664448E+03 -1.744819E+04
       293   1  5.013284E+05  2.911885E+05  2.744058E+05  1.927608E+05  6.567858E+04 -1.617929E+04
       293   2  2.909275E+05  2.507631E+05  1.973784E+05  1.792405E+05  2.031901E+04 -5.134938E+04
       293   3  8.511652E+04  2.041616E+05  1.483464E+05  2.108918E+05 -2.499818E+04 -5.508628E+04
       293   4 -7.834530E+05 -2.652955E+04 -2.917386E+04  2.095493E+05 -1.986756E+04 -1.614263E+04
       293   5 -7.810634E+05 -6.072103E+03 -1.452902E+04  1.869644E+05 -1.237919E+04 -5.134790E+04
       293   6 -7.832996E+05 -9.705361E+02 -8.586940E+03  2.095566E+05 -4.863414E+03 -5.509379E+04
       293   7 -2.066700E+06 -3.443610E+05 -3.328402E+05  2.263028E+05 -1.052377E+05 -1.611058E+04
       293   8 -1.851952E+06 -2.629764E+05 -2.264890E+05  1.946746E+05 -4.502211E+04 -5.134724E+04
       293   9 -1.650980E+06 -2.061447E+05 -1.655484E+05  2.082233E+05  1.524397E+04 -5.510139E+04
       293  10  5.013237E+05  2.911871E+05  2.743972E+05  1.927617E+05  2.505387E-10 -6.116028E-12
       293  11  2.909263E+05  2.507601E+05  1.973727E+05  1.792414E+05  3.087889E-10 -1.913656E-11
       293  12  8.511503E+04  2.041582E+05  1.483396E+05  2.108907E+05 -2.112434E-12 -1.804095E-12
       293  13 -7.834535E+05 -2.652994E+04 -2.917509E+04  2.095491E+05 -4.207001E-12 -4.997698E-12
       293  14 -7.810643E+05 -6.074974E+03 -1.453426E+04  1.869639E+05 -1.374865E-10 -5.055351E-13
       293  15 -7.833005E+05 -9.738006E+02 -8.592686E+03  2.095564E+05  2.330519E-11 -2.444627E-12
       293  16 -2.066712E+06 -3.443642E+05 -3.328615E+05  2.263015E+05  2.306331E-10  6.419030E-12
       293  17 -1.851955E+06 -2.629798E+05 -2.264977E+05  1.946727E+05 -3.436383E-10  2.738629E-11
       293  18 -1.650981E+06 -2.061480E+05 -1.655546E+05  2.082240E+05 -1.503606E-10  3.700274E-11
       293  19  5.013284E+05  2.911885E+05  2.744058E+05  1.927608E+05 -6.567858E+04  1.617929E+04
       293  20  2.909275E+05  2.507631E+05  1.973784E+05  1.792405E+05 -2.031901E+04  5.134938E+04
       293  21  8.511652E+04  2.041616E+05  1.483464E+05  2.108918E+05  2.499818E+04  5.508628E+04
       293  22 -7.834530E+05 -2.652955E+04 -2.917386E+04  2.095493E+05  1.986756E+04  1.614263E+04
       293  23 -7.810634E+05 -6.072103E+03 -1.452902E+04  1.869644E+05  1.237919E+04  5.134790E+04
       293  24 -7.832996E+05 -9.705361E+02 -8.586940E+03  2.095566E+05  4.863414E+03  5.509379E+04
       293  25 -2.066700E+06 -3.443610E+05 -3.328402E+05  2.263028E+05  1.052377E+05  1.611058E+04
       293  26 -1.851952E+06 -2.629764E+05 -2.264890E+05  1.946746E+05  4.502211E+04  5.134724E+04
       293  27 -1.650980E+06 -2.061447E+05 -1.655484E+05  2.082233E+05 -1.524397E+04  5.510139E+04
       294   1 -5.121504E+04  1.711714E+05  1.238539E+05  2.093882E+05 -2.024622E+04 -4.751201E+04
       294   2 -2.594796E+05  1.225820E+05  8.568723E+04  1.860836E+05 -2.204246E+04 -3.633056E+04
       294   3 -4.674434E+05  7.383217E+04  4.866462E+04  2.100555E+05 -2.384230E+04 -2.250545E+04
       294   4 -7.823445E+05 -1.299368E+03 -7.046404E+03  2.100219E+05 -3.680038E+03 -4.751621E+04
       294   5 -7.820518E+05 -1.891375E+02 -5.298495E+03  1.863823E+05 -1.040576E+03 -3.633078E+04
       294   6 -7.822721E+05 -8.278538E+00 -5.489748E+03  2.100218E+05  1.594697E+03 -2.250050E+04
       294   7 -1.512952E+06 -1.737997E+05 -1.379661E+05  2.106548E+05  1.286719E+04 -4.752038E+04
       294   8 -1.304355E+06 -1.229749E+05 -9.629219E+04  1.866807E+05  1.994416E+04 -3.633098E+04
       294   9 -1.097002E+06 -7.385369E+04 -5.964504E+04  2.099882E+05  2.701919E+04 -2.249555E+04
       294  10 -5.121609E+04  1.711689E+05  1.238489E+05  2.093874E+05  3.254126E-10 -1.436027E-11
       294  11 -2.594805E+05  1.225805E+05  8.568384E+04  1.860829E+05  1.548888E-10 -4.429969E-11
       294  12 -4.674442E+05  7.383147E+04  4.866260E+04  2.100550E+05  8.288359E-12 -4.885982E-12
       294  13 -7.823451E+05 -1.301796E+03 -7.050670E+03  2.100218E+05  5.970957E-11  3.681963E-11
       294  14 -7.820522E+05 -1.905547E+02 -5.300977E+03  1.863823E+05 -4.569043E-12 -2.672033E-11
       294  15 -7.822722E+05 -8.822694E+00 -5.490704E+03  2.100219E+05 -5.420465E-12  8.280710E-11
       294  16 -1.512952E+06 -1.738022E+05 -1.379707E+05  2.106553E+05 -6.272929E-11  2.768443E-11
       294  17 -1.304356E+06 -1.229764E+05 -9.629542E+04  1.866813E+05 -1.140954E-10 -7.244377E-11
       294  18 -1.097003E+06 -7.385443E+04 -5.964737E+04  2.099887E+05 -6.644147E-11  7.322374E-11
       294  19 -5.121504E+04  1.711714E+05  1.238539E+05  2.093882E+05  2.024622E+04  4.751201E+04
       294  20 -2.594796E+05  1.225820E+05  8.568723E+04  1.860836E+05  2.204246E+04  3.633056E+04
       294  21 -4.674434E+05  7.383217E+04  4.866462E+04  2.100555E+05  2.384230E+04  2.250545E+04
       294  22 -7.823445E+05 -1.299368E+03 -7.046404E+03  2.100219E+05  3.680038E+03  4.751621E+04
       294  23 -7.820518E+05 -1.891375E+02 -5.298495E+03  1.863823E+05  1.040576E+03  3.633078E+04
       294  24 -7.822721E+05 -8.278538E+00 -5.489748E+03  2.100218E+05 -1.594697E+03  2.250050E+04
       294  25 -1.512952E+06 -1.737997E+05 -1.379661E+05  2.106548E+05 -1.286719E+04  4.752038E+04
       294  26 -1.304355E+06 -1.229749E+05 -9.629219E+04  1.866807E+05 -1.994416E+04  3.633098E+04
       294  27 -1.097002E+06 -7.385369E+04 -5.964504E+04  2.099882E+05 -2.701919E+04  2.249555E+04
       295   1 -6.035614E+05  4.184157E+04  2.373443E+04  2.096047E+05 -2.270758E+04 -1.353118E+04
       295   2 -8.109262E+05 -7.520561E+03 -1.568836E+04  1.867677E+05 -1.551518E+04  7.915091E+02
       295   3 -1.019819E+06 -5.950726E+04 -6.045183E+04  2.112976E+05 -8.325383E+03  1.358697E+04
       295   4 -7.823955E+05  5.682664E+01 -6.216988E+03  2.100413E+05  2.613755E+03 -1.352493E+04
       295   5 -7.818354E+05 -4.154885E+02 -9.279163E+03  1.863582E+05  7.238996E+03  7.969136E+02
       295   6 -7.824021E+05 -3.064957E+03 -1.589876E+04  2.100419E+05  1.186397E+04  1.359161E+04
       295   7 -9.611967E+05 -4.172924E+04 -3.616699E+04  2.104778E+05  2.792803E+04 -1.351865E+04
       295   8 -7.527426E+05  6.689806E+03 -2.868069E+03  1.859486E+05  2.999423E+04  8.022878E+02
       295   9 -5.449297E+05  5.337430E+04  2.865340E+04  2.087858E+05  3.206085E+04  1.359617E+04
       295  10 -6.035620E+05  4.184123E+04  2.373312E+04  2.096045E+05  2.624751E-10  1.135874E-11
       295  11 -8.109264E+05 -7.520626E+03 -1.568882E+04  1.867677E+05  8.446358E-11 -2.468996E-11
       295  12 -1.019819E+06 -5.950747E+04 -6.045231E+04  2.112977E+05  2.026070E-10 -2.320067E-11
       295  13 -7.823956E+05  5.662842E+01 -6.217345E+03  2.100413E+05  5.127964E-11  7.548684E-11
       295  14 -7.818354E+05 -4.155033E+02 -9.279263E+03  1.863582E+05  4.170047E-11  2.002151E-11
       295  15 -7.824023E+05 -3.065193E+03 -1.589937E+04  2.100418E+05  2.267195E-11 -1.313119E-11
       295  16 -9.611976E+05 -4.172965E+04 -3.616880E+04  2.104781E+05 -1.403940E-10  9.292127E-11
       295  17 -7.527436E+05  6.689563E+03 -2.869763E+03  1.859486E+05 -1.444953E-10  1.263676E-12
       295  18 -5.449308E+05  5.337382E+04  2.865112E+04  2.087854E+05 -1.661429E-10  1.070334E-11
       295  19 -6.035614E+05  4.184157E+04  2.373443E+04  2.096047E+05  2.270758E+04  1.353118E+04
       295  20 -8.109262E+05 -7.520561E+03 -1.568836E+04  1.867677E+05  1.551518E+04 -7.915091E+02
       295  21 -1.019819E+06 -5.950726E+04 -6.045183E+04  2.112976E+05  8.325383E+03 -1.358697E+04
       295  22 -7.823955E+05  5.682664E+01 -6.216988E+03  2.100413E+05 -2.613755E+03  1.352493E+04
       295  23 -7.818354E+05 -4.154885E+02 -9.279163E+03  1.863582E+05 -7.238996E+03 -7.969136E+02
       295  24 -7.824021E+05 -3.064957E+03 -1.589876E+04  2.100419E+05 -1.186397E+04 -1.359161E+04
       295  25 -9.611967E+05 -4.172924E+04 -3.616699E+04  2.104778E+05 -2.792803E+04  1.351865E+04
       295  26 -7.527426E+05  6.689806E+03 -2.868069E+03  1.859486E+05 -2.999423E+04 -8.022878E+02
       295  27 -5.449297E+05  5.337430E+04  2.865340E+04  2.087858E+05 -3.206085E+04 -1.359617E+04
       296   1 -1.159069E+06 -9.092419E+04 -9.046372E+04  2.057334E+05 -7.868159E+03  2.175988E+04
       296   2 -1.358015E+06 -1.546483E+05 -1.545974E+05  2.061009E+05  4.477945E+04  2.515564E+04
       296   3 -1.575304E+06 -2.646535E+05 -2.646175E+05  2.525105E+05  9.740152E+04  8.580698E+03
       296   4 -7.849520E+05 -2.049177E+03 -2.063051E+04  2.097502E+05  1.456995E+04  2.176361E+04
       296   5 -7.787348E+05 -1.515339E+04 -3.710418E+04  1.867266E+05  3.373277E+04  2.515134E+04
       296   6 -7.850559E+05 -6.869093E+04 -7.616326E+04  2.097504E+05  5.288846E+04  8.572947E+03
       296   7 -4.106978E+05  8.681808E+04  4.919862E+04  2.137693E+05  3.702126E+04  2.176762E+04
       296   8 -1.991337E+05  1.243221E+05  8.037224E+04  1.673338E+05  2.267595E+04  2.514774E+04
       296   9  5.774161E+03  1.272344E+05  1.122556E+05  1.669355E+05  8.318842E+03  8.571355E+03
       296  10 -1.159069E+06 -9.092471E+04 -9.046473E+04  2.057336E+05  1.665824E-10 -1.446282E-11
       296  11 -1.358017E+06 -1.546495E+05 -1.546024E+05  2.061000E+05 -1.390929E-11  6.292282E-11
       296  12 -1.575314E+06 -2.646561E+05 -2.646355E+05  2.525098E+05  4.937859E-11  1.924179E-11
       296  13 -7.849523E+05 -2.049742E+03 -2.063180E+04  2.097499E+05  7.346120E-12  1.342074E-12
       296  14 -7.787362E+05 -1.515437E+04 -3.710751E+04  1.867259E+05  5.472705E-11  4.479848E-11
       296  15 -7.850589E+05 -6.869176E+04 -7.616866E+04  2.097501E+05  3.274890E-11  3.390348E-11
       296  16 -4.106994E+05  8.681721E+04  4.919516E+04  2.137687E+05 -4.585117E-11 -8.186783E-12
       296  17 -1.991344E+05  1.243213E+05  8.037008E+04  1.673333E+05 -1.731654E-10 -4.510675E-11
       296  18  5.774067E+03  1.272343E+05  1.122553E+05  1.669354E+05 -9.431989E-11 -2.433093E-11
       296  19 -1.159069E+06 -9.092419E+04 -9.046372E+04  2.057334E+05  7.868159E+03 -2.175988E+04
       296  20 -1.358015E+06 -1.546483E+05 -1.545974E+05  2.061009E+05 -4.477945E+04 -2.515564E+04
       296  21 -1.575304E+06 -2.646535E+05 -2.646175E+05  2.525105E+05 -9.740152E+04 -8.580698E+03
       296  22 -7.849520E+05 -2.049177E+03 -2.063051E+04  2.097502E+05 -1.456995E+04 -2.176361E+04
       296  23 -7.787348E+05 -1.515339E+04 -3.710418E+04  1.867266E+05 -3.373277E+04 -2.515134E+04
       296  24 -7.850559E+05 -6.869093E+04 -7.616326E+04  2.097504E+05 -5.288846E+04 -8.572947E+03
       296  25 -4.106978E+05  8.681808E+04  4.919862E+04  2.137693E+05 -3.702126E+04 -2.176762E+04
       296  26 -1.991337E+05  1.243221E+05  8.037224E+04  1.673338E+05 -2.267595E+04 -2.514774E+04
       296  27  5.774161E+03  1.272344E+05  1.122556E+05  1.669355E+05 -8.318842E+03 -8.571355E+03
       297   1  3.589805E+05  1.939028E+05  1.853148E+05  1.509065E+05  4.905558E+04 -9.581369E+03
       297   2  2.048599E+05  1.526665E+05  1.256417E+05  1.351359E+05  1.690434E+04 -2.984672E+04
       297   3  5.611762E+04  1.158617E+05  8.800893E+04  1.524803E+05 -1.523118E+04 -3.053535E+04
       297   4 -4.343333E+05 -2.332111E+03 -2.543961E+03  1.523856E+05 -1.457415E+03 -9.577716E+03
       297   5 -4.341249E+05 -5.671839E+02 -1.476542E+03  1.358273E+05 -6.990762E+02 -2.984947E+04
       297   6 -4.342704E+05 -8.011724E+01 -1.217042E+03  1.523857E+05  6.672807E+01 -3.053519E+04
       297   7 -1.227063E+06 -1.986109E+05 -1.904368E+05  1.538628E+05 -5.190622E+04 -9.574307E+03
       297   8 -1.072719E+06 -1.538257E+05 -1.286140E+05  1.365179E+05 -1.828475E+04 -2.985226E+04
       297   9 -9.244239E+05 -1.160354E+05 -9.045176E+04  1.522911E+05  1.535288E+04 -3.053503E+04
       297  10  3.589779E+05  1.939021E+05  1.853101E+05  1.509069E+05  4.140823E-12  5.179043E-11
       297  11  2.048594E+05  1.526655E+05  1.256395E+05  1.351364E+05 -2.533637E-11 -2.629515E-12
       297  12  5.611712E+04  1.158607E+05  8.800675E+04  1.524799E+05 -7.608036E-11 -8.070942E-12
       297  13 -4.343333E+05 -2.332210E+03 -2.544137E+03  1.523856E+05  1.683432E-11  1.459778E-11
       297  14 -4.341251E+05 -5.681406E+02 -1.478217E+03  1.358273E+05 -3.652251E-11  2.868266E-11
       297  15 -4.342706E+05 -8.111828E+01 -1.218793E+03  1.523857E+05  1.375318E-10  5.678794E-11
       297  16 -1.227066E+06 -1.986117E+05 -1.904421E+05  1.538624E+05  1.326546E-10  1.623454E-11
       297  17 -1.072719E+06 -1.538267E+05 -1.286163E+05  1.365175E+05  3.179380E-12  9.995322E-11
       297  18 -9.244244E+05 -1.160365E+05 -9.045396E+04  1.522915E+05  5.902034E-11  1.354717E-10
       297  19  3.589805E+05  1.939028E+05  1.853148E+05  1.509065E+05 -4.905558E+04  9.581369E+03
       297  20  2.048599E+05  1.526665E+05  1.256417E+05  1.351359E+05 -1.690434E+04  2.984672E+04
       297  21  5.611762E+04  1.158617E+05  8.800893E+04  1.524803E+05  1.523118E+04  3.053535E+04
       297  22 -4.343333E+05 -2.332111E+03 -2.543961E+03  1.523856E+05  1.457415E+03  9.577716E+03
       297  23 -4.341249E+05 -5.671839E+02 -1.476542E+03  1.358273E+05  6.990762E+02  2.984947E+04
       297  24 -4.342704E+05 -8.011724E+01 -1.217042E+03  1.523857E+05 -6.672807E+01  3.053519E+04
       297  25 -1.227063E+06 -1.986109E+05 -1.904368E+05  1.538628E+05  5.190622E+04  9.574307E+03
       297  26 -1.072719E+06 -1.538257E+05 -1.286140E+05  1.365179E+05  1.828475E+04  2.985226E+04
       297  27 -9.244239E+05 -1.160354E+05 -9.045176E+04  1.522911E+05 -1.535288E+04  3.053503E+04
       298   1 -4.349615E+04  9.218097E+04  6.924917E+04  1.525836E+05 -1.281091E+04 -2.485872E+04
       298   2 -1.950168E+05  5.628024E+04  4.035418E+04  1.353801E+05 -1.468317E+04 -1.627125E+04
       298   3 -3.461747E+05  2.070628E+04  1.276212E+04  1.525724E+05 -1.655648E+04 -6.080698E+03
       298   4 -4.342037E+05 -8.359141E+01 -1.266668E+03  1.526701E+05  2.690982E+02 -2.485754E+04
       298   5 -4.341272E+05  4.046973E+01 -1.651629E+03  1.354718E+05  1.087767E+03 -1.626828E+04
       298   6 -4.341800E+05  2.445168E+01 -2.603721E+03  1.526701E+05  1.904909E+03 -6.075571E+03
       298   7 -8.247622E+05 -9.235661E+04 -7.178784E+04  1.527565E+05  1.334111E+04 -2.485636E+04
       298   8 -6.731811E+05 -5.620229E+04 -4.365857E+04  1.355634E+05  1.685281E+04 -1.626529E+04
       298   9 -5.221770E+05 -2.065761E+04 -1.796856E+04  1.527678E+05  2.036375E+04 -6.070438E+03
       298  10 -4.349649E+04  9.218027E+04  6.924770E+04  1.525833E+05  1.282238E-10 -2.111495E-11
       298  11 -1.950171E+05  5.627990E+04  4.035327E+04  1.353799E+05 -9.370467E-12 -6.556054E-11
       298  12 -3.461750E+05  2.070617E+04  1.276154E+04  1.525723E+05 -1.365903E-10  3.372993E-11
       298  13 -4.342039E+05 -8.425481E+01 -1.267829E+03  1.526701E+05  4.492521E-11  2.204837E-11
       298  14 -4.341273E+05  4.018527E+01 -1.652128E+03  1.354718E+05 -4.803716E-11 -7.016376E-11
       298  15 -4.341800E+05  2.441107E+01 -2.603797E+03  1.526701E+05 -7.807549E-11  2.975057E-11
       298  16 -8.247626E+05 -9.235732E+04 -7.178934E+04  1.527567E+05 -7.070451E-11  7.141944E-11
       298  17 -6.731814E+05 -5.620265E+04 -4.365960E+04  1.355636E+05  8.615175E-12 -2.685481E-11
       298  18 -5.221774E+05 -2.065777E+04 -1.796941E+04  1.527679E+05  1.732234E-10 -5.561456E-11
       298  19 -4.349615E+04  9.218097E+04  6.924917E+04  1.525836E+05  1.281091E+04  2.485872E+04
       298  20 -1.950168E+05  5.628024E+04  4.035418E+04  1.353801E+05  1.468317E+04  1.627125E+04
       298  21 -3.461747E+05  2.070628E+04  1.276212E+04  1.525724E+05  1.655648E+04  6.080698E+03
       298  22 -4.342037E+05 -8.359141E+01 -1.266668E+03  1.526701E+05 -2.690982E+02  2.485754E+04
       298  23 -4.341272E+05  4.046973E+01 -1.651629E+03  1.354718E+05 -1.087767E+03  1.626828E+04
       298  24 -4.341800E+05  2.445168E+01 -2.603721E+03  1.526701E+05 -1.904909E+03  6.075571E+03
       298  25 -8.247622E+05 -9.235661E+04 -7.178784E+04  1.527565E+05 -1.334111E+04  2.485636E+04
       298  26 -6.731811E+05 -5.620229E+04 -4.365857E+04  1.355634E+05 -1.685281E+04  1.626529E+04
       298  27 -5.221770E+05 -2.065761E+04 -1.796856E+04  1.527678E+05 -2.036375E+04  6.070438E+03
       299   1 -4.451660E+05 -2.541998E+03 -5.578033E+03  1.523254E+05 -1.601947E+04  4.430255E+02
       299   2 -5.959134E+05 -3.844957E+04 -3.455639E+04  1.356947E+05 -1.074472E+04  1.071430E+04
       299   3 -7.477826E+05 -7.620413E+04 -6.743391E+04  1.534738E+05 -5.470123E+03  1.955656E+04
       299   4 -4.343107E+05  7.545724E+01 -3.352826E+03  1.526729E+05  2.422781E+03  4.482931E+02
       299   5 -4.339572E+05 -2.809993E+02 -5.765007E+03  1.354685E+05  5.297444E+03  1.071795E+04
       299   6 -4.343279E+05 -2.065512E+03 -1.040757E+04  1.526734E+05  8.173140E+03  1.955881E+04
       299   7 -4.234546E+05  2.693088E+03 -1.126345E+03  1.530204E+05  2.086535E+04  4.535812E+02
       299   8 -2.719748E+05  3.788626E+04  2.302636E+04  1.352422E+05  2.134367E+04  1.072159E+04
       299   9 -1.207773E+05  7.206767E+04  4.661553E+04  1.518726E+05  2.182311E+04  1.956102E+04
       299  10 -4.451663E+05 -2.542067E+03 -5.578516E+03  1.523254E+05  2.485692E-11  1.047051E-10
       299  11 -5.959136E+05 -3.844973E+04 -3.455682E+04  1.356948E+05 -2.784011E-11  6.084639E-11
       299  12 -7.477827E+05 -7.620455E+04 -6.743468E+04  1.534739E+05  8.108469E-11 -5.951784E-11
       299  13 -4.343107E+05  7.545545E+01 -3.352837E+03  1.526729E+05  1.064016E-10  6.470448E-12
       299  14 -4.339573E+05 -2.811302E+02 -5.765276E+03  1.354685E+05  1.859688E-11 -2.253236E-11
       299  15 -4.343281E+05 -2.065940E+03 -1.040842E+04  1.526733E+05  1.318627E-10 -9.936408E-11
       299  16 -4.234551E+05  2.692971E+03 -1.127164E+03  1.530204E+05 -1.198134E-11  2.052478E-11
       299  17 -2.719753E+05  3.788602E+04  2.302529E+04  1.352421E+05  9.914931E-11 -1.579090E-10
       299  18 -1.207779E+05  7.206713E+04  4.661392E+04  1.518722E+05 -9.494566E-11 -8.012776E-11
       299  19 -4.451660E+05 -2.541998E+03 -5.578033E+03  1.523254E+05  1.601947E+04 -4.430255E+02
       299  20 -5.959134E+05 -3.844957E+04 -3.455639E+04  1.356947E+05  1.074472E+04 -1.071430E+04
       299  21 -7.477826E+05 -7.620413E+04 -6.743391E+04  1.534738E+05  5.470123E+03 -1.955656E+04
       299  22 -4.343107E+05  7.545724E+01 -3.352826E+03  1.526729E+05 -2.422781E+03 -4.482931E+02
       299  23 -4.339572E+05 -2.809993E+02 -5.765007E+03  1.354685E+05 -5.297444E+03 -1.071795E+04
       299  24 -4.343279E+05 -2.065512E+03 -1.040757E+04  1.526734E+05 -8.173140E+03 -1.955881E+04
       299  25 -4.234546E+05  2.693088E+03 -1.126345E+03  1.530204E+05 -2.086535E+04 -4.535812E+02
       299  26 -2.719748E+05  3.788626E+04  2.302636E+04  1.352422E+05 -2.134367E+04 -1.072159E+04
       299  27 -1.207773E+05  7.206767E+04  4.661553E+04  1.518726E+05 -2.182311E+04 -1.956102E+04
       300   1 -8.490256E+05 -9.917001E+04 -8.926761E+04  1.496940E+05 -5.705365E+03  2.532794E+04
       300   2 -9.935839E+05 -1.450814E+05 -1.371627E+05  1.487688E+05  3.695813E+04  2.576108E+04
       300   3 -1.151713E+06 -2.232864E+05 -2.209269E+05  1.810845E+05  7.960483E+04  8.396535E+03
       300   4 -4.360447E+05 -1.387554E+03 -1.364819E+04  1.524150E+05  9.948792E+03  2.532940E+04
       300   5 -4.318816E+05 -1.017480E+04 -2.479220E+04  1.357939E+05  2.275759E+04  2.575741E+04
       300   6 -4.361093E+05 -4.605088E+04 -5.104373E+04  1.524161E+05  3.556099E+04  8.392967E+03
       300   7 -2.289735E+04  9.638538E+04  6.196521E+04  1.551379E+05  2.561309E+04  2.533099E+04
       300   8  1.301232E+05  1.247131E+05  8.756323E+04  1.228069E+05  8.544436E+03  2.575435E+04
       300   9  2.799711E+05  1.311519E+05  1.188114E+05  1.237143E+05 -8.533455E+03  8.393481E+03
       300  10 -8.490258E+05 -9.917070E+04 -8.926887E+04  1.496941E+05 -7.430503E-11  4.939388E-14
       300  11 -9.935856E+05 -1.450825E+05 -1.371665E+05  1.487680E+05  7.318139E-11  4.049588E-11
       300  12 -1.151720E+06 -2.232882E+05 -2.209389E+05  1.810840E+05 -1.348621E-10  1.502218E-11
       300  13 -4.360450E+05 -1.388269E+03 -1.364958E+04  1.524148E+05 -4.221159E-12 -1.004753E-10
       300  14 -4.318823E+05 -1.017565E+04 -2.479442E+04  1.357934E+05 -2.809581E-10 -9.739829E-11
       300  15 -4.361107E+05 -4.605130E+04 -5.104624E+04  1.524158E+05 -2.081633E-10 -9.644548E-12
       300  16 -2.289823E+04  9.638452E+04  6.196278E+04  1.551373E+05  1.732632E-11 -1.247690E-10
       300  17  1.301229E+05  1.247124E+05  8.756185E+04  1.228067E+05 -1.643552E-10 -1.367459E-10
       300  18  2.799710E+05  1.311518E+05  1.188112E+05  1.237143E+05 -1.438395E-10 -3.468632E-11
       300  19 -8.490256E+05 -9.917001E+04 -8.926761E+04  1.496940E+05  5.705365E+03 -2.532794E+04
       300  20 -9.935839E+05 -1.450814E+05 -1.371627E+05  1.487688E+05 -3.695813E+04 -2.576108E+04
       300  21 -1.151713E+06 -2.232864E+05 -2.209269E+05  1.810845E+05 -7.960483E+04 -8.396535E+03
       300  22 -4.360447E+05 -1.387554E+03 -1.364819E+04  1.524150E+05 -9.948792E+03 -2.532940E+04
       300  23 -4.318816E+05 -1.017480E+04 -2.479220E+04  1.357939E+05 -2.275759E+04 -2.575741E+04
       300  24 -4.361093E+05 -4.605088E+04 -5.104373E+04  1.524161E+05 -3.556099E+04 -8.392967E+03
       300  25 -2.289735E+04  9.638538E+04  6.196521E+04  1.551379E+05 -2.561309E+04 -2.533099E+04
       300  26  1.301232E+05  1.247131E+05  8.756323E+04  1.228069E+05 -8.544436E+03 -2.575435E+04
       300  27  2.799711E+05  1.311519E+05  1.188114E+05  1.237143E+05  8.533455E+03 -8.393481E+03
       301   1  5.486540E+05  1.796210E+05  1.738877E+05  1.416174E+05  5.226498E+04 -8.111690E+03
       301   2  4.117741E+05  1.325467E+05  1.142802E+05  1.229138E+05  2.081952E+04 -2.516590E+04
       301   3  2.820606E+05  9.752172E+04  7.815071E+04  1.333908E+05 -1.061312E+04 -2.547609E+04
       301   4 -1.289749E+05  1.203517E+04  1.339316E+04  1.341118E+05  9.514555E+03 -8.110817E+03
       301   5 -1.300853E+05  2.611718E+03  6.366003E+03  1.195214E+05  6.225724E+03 -2.516833E+04
       301   6 -1.289290E+05  3.576374E+02  3.276547E+03  1.341118E+05  2.942069E+03 -2.547555E+04
       301   7 -8.061781E+05 -1.555824E+05 -1.471264E+05  1.266144E+05 -3.318949E+04 -8.108915E+03
       301   8 -6.716638E+05 -1.273411E+05 -1.015621E+05  1.161320E+05 -8.355599E+03 -2.517060E+04
       301   9 -5.397541E+05 -9.681588E+04 -7.160371E+04  1.348323E+05  1.648853E+04 -2.547497E+04
       301  10  5.486511E+05  1.796202E+05  1.738825E+05  1.416177E+05  8.786644E-11 -5.829525E-11
       301  11  4.117734E+05  1.325459E+05  1.142782E+05  1.229142E+05 -1.749528E-11 -8.037768E-11
       301  12  2.820603E+05  9.752100E+04  7.814928E+04  1.333906E+05  1.394164E-10 -5.856408E-11
       301  13 -1.289750E+05  1.203507E+04  1.339287E+04  1.341119E+05  8.764212E-11  2.658911E-11
       301  14 -1.300855E+05  2.611028E+03  6.364739E+03  1.195215E+05 -4.690079E-11 -8.225343E-12
       301  15 -1.289292E+05  3.569382E+02  3.275311E+03  1.341119E+05  1.123580E-10  4.533112E-12
       301  16 -8.061793E+05 -1.555828E+05 -1.471286E+05  1.266142E+05  1.268636E-10  4.577482E-11
       301  17 -6.716640E+05 -1.273418E+05 -1.015634E+05  1.161318E+05 -1.697906E-10  6.553898E-11
       301  18 -5.397546E+05 -9.681665E+04 -7.160545E+04  1.348327E+05 -9.120236E-11  8.738545E-11
       301  19  5.486540E+05  1.796210E+05  1.738877E+05  1.416174E+05 -5.226498E+04  8.111690E+03
       301  20  4.117741E+05  1.325467E+05  1.142802E+05  1.229138E+05 -2.081952E+04  2.516590E+04
       301  21  2.820606E+05  9.752172E+04  7.815071E+04  1.333908E+05  1.061312E+04  2.547609E+04
       301  22 -1.289749E+05  1.203517E+04  1.339316E+04  1.341118E+05 -9.514555E+03  8.110817E+03
       301  23 -1.300853E+05  2.611718E+03  6.366003E+03  1.195214E+05 -6.225724E+03  2.516833E+04
       301  24 -1.289290E+05  3.576374E+02  3.276547E+03  1.341118E+05 -2.942069E+03  2.547555E+04
       301  25 -8.061781E+05 -1.555824E+05 -1.471264E+05  1.266144E+05  3.318949E+04  8.108915E+03
       301  26 -6.716638E+05 -1.273411E+05 -1.015621E+05  1.161320E+05  8.355599E+03  2.517060E+04
       301  27 -5.397541E+05 -9.681588E+04 -7.160371E+04  1.348323E+05 -1.648853E+04  2.547497E+04
       302   1  1.939079E+05  7.690778E+04  6.074985E+04  1.345531E+05 -9.119398E+03 -2.045825E+04
       302   2  6.046628E+04  4.479438E+04  3.417247E+04  1.192432E+05 -1.177740E+04 -1.283817E+04
       302   3 -7.242269E+04  1.341429E+04  9.508836E+03  1.341978E+05 -1.443597E+04 -3.854548E+03
       302   4 -1.293893E+05  5.622727E+02  2.303775E+03  1.343530E+05  2.539414E+03 -2.045698E+04
       302   5 -1.294510E+05  1.213582E+02  7.304543E+02  1.192205E+05  2.171704E+03 -1.283558E+04
       302   6 -1.293727E+05  1.762912E+01 -5.187635E+02  1.343531E+05  1.802925E+03 -3.850400E+03
       302   7 -4.525845E+05 -7.578902E+04 -5.614590E+04  1.341529E+05  1.419232E+04 -2.045572E+04
       302   8 -3.193325E+05 -4.455353E+04 -3.271214E+04  1.191978E+05  1.611667E+04 -1.283299E+04
       302   9 -1.863190E+05 -1.337906E+04 -1.054549E+04  1.345084E+05  1.804037E+04 -3.846244E+03
       302  10  1.939077E+05  7.690731E+04  6.074891E+04  1.345530E+05  2.137660E-11  2.570712E-11
       302  11  6.046609E+04  4.479417E+04  3.417190E+04  1.192431E+05  5.006391E-12  1.070837E-10
       302  12 -7.242292E+04  1.341422E+04  9.508416E+03  1.341978E+05  2.177147E-10  2.658613E-12
       302  13 -1.293894E+05  5.618216E+02  2.302976E+03  1.343530E+05  1.664520E-10 -1.621236E-11
       302  14 -1.294510E+05  1.211800E+02  7.301358E+02  1.192205E+05  1.524987E-10  1.624122E-10
       302  15 -1.293727E+05  1.761233E+01 -5.187975E+02  1.343531E+05  2.848967E-10  1.257775E-11
       302  16 -4.525848E+05 -7.578952E+04 -5.614706E+04  1.341532E+05 -4.162851E-11  6.779546E-11
       302  17 -3.193328E+05 -4.455378E+04 -3.271294E+04  1.191980E+05  1.688588E-10  5.422255E-11
       302  18 -1.863194E+05 -1.337917E+04 -1.054613E+04  1.345084E+05 -1.558964E-10  4.462245E-11
       302  19  1.939079E+05  7.690778E+04  6.074985E+04  1.345531E+05  9.119398E+03  2.045825E+04
       302  20  6.046628E+04  4.479438E+04  3.417247E+04  1.192432E+05  1.177740E+04  1.283817E+04
       302  21 -7.242269E+04  1.341429E+04  9.508836E+03  1.341978E+05  1.443597E+04  3.854548E+03
       302  22 -1.293893E+05  5.622727E+02  2.303775E+03  1.343530E+05 -2.539414E+03  2.045698E+04
       302  23 -1.294510E+05  1.213582E+02  7.304543E+02  1.192205E+05 -2.171704E+03  1.283558E+04
       302  24 -1.293727E+05  1.762912E+01 -5.187635E+02  1.343531E+05 -1.802925E+03  3.850400E+03
       302  25 -4.525845E+05 -7.578902E+04 -5.614590E+04  1.341529E+05 -1.419232E+04  2.045572E+04
       302  26 -3.193325E+05 -4.455353E+04 -3.271214E+04  1.191978E+05 -1.611667E+04  1.283299E+04
       302  27 -1.863190E+05 -1.337906E+04 -1.054549E+04  1.345084E+05 -1.804037E+04  3.846244E+03
       303   1 -1.595086E+05 -7.033457E+03 -6.610558E+03  1.341173E+05 -1.428314E+04  1.883403E+03
       303   2 -2.922773E+05 -3.853179E+04 -3.166694E+04  1.193115E+05 -1.067849E+04  1.089702E+04
       303   3 -4.257822E+05 -7.119053E+04 -5.936125E+04  1.347745E+05 -7.073673E+03  1.860759E+04
       303   4 -1.294863E+05  6.069675E+01 -1.168052E+03  1.343538E+05  1.948456E+03  1.887594E+03
       303   5 -1.293070E+05 -1.634739E+02 -2.835608E+03  1.192198E+05  3.363711E+03  1.089981E+04
       303   6 -1.295008E+05 -1.166846E+03 -5.620157E+03  1.343541E+05  4.779869E+03  1.860919E+04
       303   7 -9.946247E+04  7.154941E+03  4.275408E+03  1.345903E+05  1.818081E+04  1.891798E+03
       303   8  3.368970E+04  3.820349E+04  2.599549E+04  1.191281E+05  1.740949E+04  1.090260E+04
       303   9  1.668664E+05  6.885198E+04  4.811798E+04  1.339335E+05  1.663891E+04  1.861077E+04
       303  10 -1.595089E+05 -7.033516E+03 -6.610948E+03  1.341174E+05 -1.562780E-11  2.479178E-11
       303  11 -2.922775E+05 -3.853195E+04 -3.166738E+04  1.193116E+05  1.104740E-10 -6.558152E-11
       303  12 -4.257823E+05 -7.119091E+04 -5.936200E+04  1.347746E+05 -9.362868E-12 -1.279974E-10
       303  13 -1.294863E+05  6.069191E+01 -1.168066E+03  1.343538E+05  2.587134E-10  6.454279E-12
       303  14 -1.293070E+05 -1.636045E+02 -2.835852E+03  1.192198E+05  2.123276E-10  1.588766E-10
       303  15 -1.295009E+05 -1.167224E+03 -5.620851E+03  1.343540E+05  3.418651E-10 -1.641030E-10
       303  16 -9.946282E+04  7.154849E+03  4.274780E+03  1.345903E+05  3.025654E-11  2.199519E-12
       303  17  3.368934E+04  3.820328E+04  2.599470E+04  1.191279E+05  1.582233E-10  3.445951E-11
       303  18  1.668660E+05  6.885153E+04  4.811681E+04  1.339333E+05 -9.436348E-11 -2.078140E-12
       303  19 -1.595086E+05 -7.033457E+03 -6.610558E+03  1.341173E+05  1.428314E+04 -1.883403E+03
       303  20 -2.922773E+05 -3.853179E+04 -3.166694E+04  1.193115E+05  1.067849E+04 -1.089702E+04
       303  21 -4.257822E+05 -7.119053E+04 -5.936125E+04  1.347745E+05  7.073673E+03 -1.860759E+04
       303  22 -1.294863E+05  6.069675E+01 -1.168052E+03  1.343538E+05 -1.948456E+03 -1.887594E+03
       303  23 -1.293070E+05 -1.634739E+02 -2.835608E+03  1.192198E+05 -3.363711E+03 -1.089981E+04
       303  24 -1.295008E+05 -1.166846E+03 -5.620157E+03  1.343541E+05 -4.779869E+03 -1.860919E+04
       303  25 -9.946247E+04  7.154941E+03  4.275408E+03  1.345903E+05 -1.818081E+04 -1.891798E+03
       303  26  3.368970E+04  3.820349E+04  2.599549E+04  1.191281E+05 -1.740949E+04 -1.090260E+04
       303  27  1.668664E+05  6.885198E+04  4.811798E+04  1.339335E+05 -1.663891E+04 -1.861077E+04
       304   1 -5.143538E+05 -9.162191E+04 -7.762789E+04  1.325736E+05 -7.935880E+03  2.365940E+04
       304   2 -6.428784E+05 -1.292805E+05 -1.166183E+05  1.267848E+05  2.629437E+04  2.374409E+04
       304   3 -7.807830E+05 -1.868447E+05 -1.828766E+05  1.502209E+05  6.051163E+04  7.697787E+03
       304   4 -1.304710E+05 -7.899587E+02 -7.499239E+03  1.341228E+05  5.741570E+03  2.366034E+04
       304   5 -1.281498E+05 -5.733388E+03 -1.384515E+04  1.195101E+05  1.289890E+04  2.374144E+04
       304   6 -1.305170E+05 -2.587064E+04 -2.864347E+04  1.341232E+05  2.005162E+04  7.696687E+03
       304   7  2.535555E+05  9.003376E+04  6.262416E+04  1.356730E+05  1.942725E+04  2.366136E+04
       304   8  3.868326E+05  1.177977E+05  8.891540E+04  1.122293E+05 -5.074711E+02  2.373910E+04
       304   9  5.201419E+05  1.350749E+05  1.255665E+05  1.180086E+05 -2.045061E+04  7.697691E+03
       304  10 -5.143540E+05 -9.162252E+04 -7.762906E+04  1.325737E+05  1.201284E-10 -1.338257E-10
       304  11 -6.428793E+05 -1.292812E+05 -1.166207E+05  1.267843E+05 -1.082626E-12 -6.901968E-12
       304  12 -7.807870E+05 -1.868458E+05 -1.828836E+05  1.502205E+05 -1.607282E-10 -1.653144E-11
       304  13 -1.304712E+05 -7.905686E+02 -7.500353E+03  1.341227E+05  4.063138E-11 -7.499390E-11
       304  14 -1.281501E+05 -5.734037E+03 -1.384653E+04  1.195099E+05 -1.539282E-10 -5.300247E-11
       304  15 -1.305174E+05 -2.587081E+04 -2.864434E+04  1.341231E+05 -5.201744E-12 -5.138175E-11
       304  16  2.535549E+05  9.003306E+04  6.262240E+04  1.356726E+05  6.360087E-11 -1.011965E-10
       304  17  3.868325E+05  1.177971E+05  8.891434E+04  1.122293E+05 -1.866848E-10 -1.101192E-10
       304  18  5.201414E+05  1.350747E+05  1.255656E+05  1.180087E+05  5.830269E-11 -7.614619E-11
       304  19 -5.143538E+05 -9.162191E+04 -7.762789E+04  1.325736E+05  7.935880E+03 -2.365940E+04
       304  20 -6.428784E+05 -1.292805E+05 -1.166183E+05  1.267848E+05 -2.629437E+04 -2.374409E+04
       304  21 -7.807830E+05 -1.868447E+05 -1.828766E+05  1.502209E+05 -6.051163E+04 -7.697787E+03
       304  22 -1.304710E+05 -7.899587E+02 -7.499239E+03  1.341228E+05 -5.741570E+03 -2.366034E+04
       304  23 -1.281498E+05 -5.733388E+03 -1.384515E+04  1.195101E+05 -1.289890E+04 -2.374144E+04
       304  24 -1.305170E+05 -2.587064E+04 -2.864347E+04  1.341232E+05 -2.005162E+04 -7.696687E+03
       304  25  2.535555E+05  9.003376E+04  6.262416E+04  1.356730E+05 -1.942725E+04 -2.366136E+04
       304  26  3.868326E+05  1.177977E+05  8.891540E+04  1.122293E+05  5.074711E+02 -2.373910E+04
       304  27  5.201419E+05  1.350749E+05  1.255665E+05  1.180086E+05  2.045061E+04 -7.697691E+03
       305   1  7.852290E+05  1.841050E+05  1.806009E+05  1.455951E+05  6.105644E+04 -7.522379E+03
       305   2  6.527620E+05  1.266887E+05  1.151251E+05  1.222021E+05  2.705929E+04 -2.325656E+04
       305   3  5.299853E+05  9.014601E+04  7.698643E+04  1.267778E+05 -6.926383E+03 -2.332988E+04
       305   4  1.520818E+05  2.755530E+04  3.062711E+04  1.283891E+05  2.142017E+04 -7.523186E+03
       305   5  1.495462E+05  6.031894E+03  1.481966E+04  1.144052E+05  1.376764E+04 -2.325900E+04
       305   6  1.521253E+05  8.225446E+02  8.075585E+03  1.283893E+05  6.119370E+03 -2.332919E+04
       305   7 -4.806935E+05 -1.290212E+05 -1.193685E+05  1.112007E+05 -1.817594E+04 -7.521801E+03
       305   8 -3.534273E+05 -1.146400E+05 -8.549776E+04  1.066147E+05  4.865280E+02 -2.326112E+04
       305   9 -2.255958E+05 -8.850887E+04 -6.084037E+04  1.299998E+05  1.915740E+04 -2.332843E+04
       305  10  7.852250E+05  1.841039E+05  1.805938E+05  1.455955E+05  4.380250E-11  1.736990E-11
       305  11  6.527611E+05  1.266879E+05  1.151227E+05  1.222026E+05 -1.968976E-11  4.162830E-12
       305  12  5.299851E+05  9.014541E+04  7.698531E+04  1.267777E+05  4.790633E-11  2.607379E-11
       305  13  1.520813E+05  2.755512E+04  3.062614E+04  1.283892E+05 -6.856744E-11 -1.162165E-12
       305  14  1.495459E+05  6.031262E+03  1.481829E+04  1.144054E+05 -7.464328E-11  4.148888E-11
       305  15  1.521251E+05  8.219501E+02  8.074491E+03  1.283894E+05  5.657189E-11  4.335831E-11
       305  16 -4.806939E+05 -1.290213E+05 -1.193692E+05  1.112006E+05 -1.164585E-10  4.295712E-11
       305  17 -3.534274E+05 -1.146406E+05 -8.549877E+04  1.066147E+05 -7.737452E-11  1.468269E-10
       305  18 -2.255963E+05 -8.850956E+04 -6.084208E+04  1.300002E+05 -1.622443E-11  8.439212E-11
       305  19  7.852290E+05  1.841050E+05  1.806009E+05  1.455951E+05 -6.105644E+04  7.522379E+03
       305  20  6.527620E+05  1.266887E+05  1.151251E+05  1.222021E+05 -2.705929E+04  2.325656E+04
       305  21  5.299853E+05  9.014601E+04  7.698643E+04  1.267778E+05  6.926383E+03  2.332988E+04
       305  22  1.520818E+05  2.755530E+04  3.062711E+04  1.283891E+05 -2.142017E+04  7.523186E+03
       305  23  1.495462E+05  6.031894E+03  1.481966E+04  1.144052E+05 -1.376764E+04  2.325900E+04
       305  24  1.521253E+05  8.225446E+02  8.075585E+03  1.283893E+05 -6.119370E+03  2.332919E+04
       305  25 -4.806935E+05 -1.290212E+05 -1.193685E+05  1.112007E+05  1.817594E+04  7.521801E+03
       305  26 -3.534273E+05 -1.146400E+05 -8.549776E+04  1.066147E+05 -4.865280E+02  2.326112E+04
       305  27 -2.255958E+05 -8.850887E+04 -6.084037E+04  1.299998E+05 -1.915740E+04  2.332843E+04
       306   1  4.450372E+05  7.066893E+04  5.929568E+04  1.291143E+05 -6.197082E+03 -1.851021E+04
       306   2  3.171757E+05  3.932991E+04  3.249645E+04  1.142664E+05 -9.903999E+03 -1.116912E+04
       306   3  1.901224E+05  9.205031E+03  8.413264E+03  1.283818E+05 -1.361107E+04 -2.558406E+03
       306   4  1.510931E+05  1.257316E+03  6.079835E+03  1.286110E+05  5.074947E+03 -1.850889E+04
       306   5  1.508891E+05  2.123115E+02  3.150046E+03  1.141293E+05  3.501631E+03 -1.116666E+04
       306   6  1.511073E+05  1.220677E+01  1.455732E+03  1.286113E+05  1.927433E+03 -2.554617E+03
       306   7 -1.427666E+05 -6.815907E+04 -4.713895E+04  1.281079E+05  1.634179E+04 -1.850758E+04
       306   8 -1.537023E+04 -3.890670E+04 -2.619670E+04  1.139921E+05  1.690378E+04 -1.116421E+04
       306   9  1.120943E+05 -9.180572E+03 -5.500951E+03  1.288406E+05  1.746499E+04 -2.550816E+03
       306  10  4.450370E+05  7.066855E+04  5.929497E+04  1.291142E+05 -3.161976E-11 -1.321146E-11
       306  11  3.171756E+05  3.932975E+04  3.249603E+04  1.142663E+05  1.916218E-11 -1.458575E-11
       306  12  1.901222E+05  9.204975E+03  8.412904E+03  1.283818E+05  3.117427E-10 -1.126110E-10
       306  13  1.510930E+05  1.256941E+03  6.079142E+03  1.286111E+05 -1.586161E-10 -2.665032E-12
       306  14  1.508890E+05  2.121743E+02  3.149789E+03  1.141293E+05  1.596063E-10  4.327394E-11
       306  15  1.511073E+05  1.219876E+01  1.455713E+03  1.286113E+05  3.667851E-11  1.599700E-11
       306  16 -1.427670E+05 -6.815951E+04 -4.714009E+04  1.281082E+05  6.068147E-11  2.684727E-11
       306  17 -1.537057E+04 -3.890691E+04 -2.619747E+04  1.139923E+05 -9.003244E-11 -4.203076E-11
       306  18  1.120939E+05 -9.180661E+03 -5.501536E+03  1.288407E+05 -1.636098E-10 -8.842843E-11
       306  19  4.450372E+05  7.066893E+04  5.929568E+04  1.291143E+05  6.197082E+03  1.851021E+04
       306  20  3.171757E+05  3.932991E+04  3.249645E+04  1.142664E+05  9.903999E+03  1.116912E+04
       306  21  1.901224E+05  9.205031E+03  8.413264E+03  1.283818E+05  1.361107E+04  2.558406E+03
       306  22  1.510931E+05  1.257316E+03  6.079835E+03  1.286110E+05 -5.074947E+03  1.850889E+04
       306  23  1.508891E+05  2.123115E+02  3.150046E+03  1.141293E+05 -3.501631E+03  1.116666E+04
       306  24  1.511073E+05  1.220677E+01  1.455732E+03  1.286113E+05 -1.927433E+03  2.554617E+03
       306  25 -1.427666E+05 -6.815907E+04 -4.713895E+04  1.281079E+05 -1.634179E+04  1.850758E+04
       306  26 -1.537023E+04 -3.890670E+04 -2.619670E+04  1.139921E+05 -1.690378E+04  1.116421E+04
       306  27  1.120943E+05 -9.180572E+03 -5.500951E+03  1.288406E+05 -1.746499E+04  2.550816E+03
       307   1  1.067787E+05 -1.035753E+04 -7.019161E+03  1.284550E+05 -1.381222E+04  2.931530E+03
       307   2 -2.043534E+04 -4.040690E+04 -3.056157E+04  1.141021E+05 -1.149427E+04  1.154007E+04
       307   3 -1.480810E+05 -7.107288E+04 -5.576675E+04  1.287132E+05 -9.175888E+03  1.886711E+04
       307   4  1.509966E+05  5.341812E+01  8.233597E+02  1.286112E+05  1.726706E+03  2.935313E+03
       307   5  1.510272E+05 -6.906191E+01 -3.235380E+02  1.141295E+05  1.890478E+03  1.154248E+04
       307   6  1.509824E+05 -4.338808E+02 -1.638021E+03  1.286114E+05  2.055162E+03  1.886837E+04
       307   7  1.952170E+05  1.046439E+04  8.666715E+03  1.287674E+05  1.726671E+04  2.939103E+03
       307   8  3.225189E+05  4.026727E+04  2.991409E+04  1.141569E+05  1.527881E+04  1.154490E+04
       307   9  4.501330E+05  7.020017E+04  5.248766E+04  1.285094E+05  1.329147E+04  1.886962E+04
       307  10  1.067785E+05 -1.035759E+04 -7.019536E+03  1.284551E+05 -1.219377E-10 -5.179436E-11
       307  11 -2.043552E+04 -4.040708E+04 -3.056207E+04  1.141022E+05 -7.630297E-11  1.994216E-10
       307  12 -1.480812E+05 -7.107328E+04 -5.576758E+04  1.287134E+05  3.717152E-10  1.754949E-11
       307  13  1.509966E+05  5.340807E+01  8.233379E+02  1.286112E+05 -8.419341E-12 -5.801675E-11
       307  14  1.510272E+05 -6.920594E+01 -3.237951E+02  1.141295E+05  1.441045E-11 -4.619277E-11
       307  15  1.509823E+05 -4.342643E+02 -1.638698E+03  1.286113E+05  2.136565E-10 -3.086162E-11
       307  16  1.952167E+05  1.046430E+04  8.666139E+03  1.287674E+05  2.072809E-10  1.774441E-11
       307  17  3.225186E+05  4.026706E+04  2.991340E+04  1.141567E+05 -4.501325E-11  2.919992E-11
       307  18  4.501327E+05  7.019974E+04  5.248666E+04  1.285092E+05 -2.672280E-10 -8.664229E-11
       307  19  1.067787E+05 -1.035753E+04 -7.019161E+03  1.284550E+05  1.381222E+04 -2.931530E+03
       307  20 -2.043534E+04 -4.040690E+04 -3.056157E+04  1.141021E+05  1.149427E+04 -1.154007E+04
       307  21 -1.480810E+05 -7.107288E+04 -5.576675E+04  1.287132E+05  9.175888E+03 -1.886711E+04
       307  22  1.509966E+05  5.341812E+01  8.233597E+02  1.286112E+05 -1.726706E+03 -2.935313E+03
       307  23  1.510272E+05 -6.906191E+01 -3.235380E+02  1.141295E+05 -1.890478E+03 -1.154248E+04
       307  24  1.509824E+05 -4.338808E+02 -1.638021E+03  1.286114E+05 -2.055162E+03 -1.886837E+04
       307  25  1.952170E+05  1.046439E+04  8.666715E+03  1.287674E+05 -1.726671E+04 -2.939103E+03
       307  26  3.225189E+05  4.026727E+04  2.991409E+04  1.141569E+05 -1.527881E+04 -1.154490E+04
       307  27  4.501330E+05  7.020017E+04  5.248766E+04  1.285094E+05 -1.329147E+04 -1.886962E+04
       308   1 -2.323129E+05 -9.086314E+04 -7.225478E+04  1.277903E+05 -1.067760E+04  2.368228E+04
       308   2 -3.567416E+05 -1.240172E+05 -1.061793E+05  1.170175E+05  1.836449E+04  2.353946E+04
       308   3 -4.874171E+05 -1.672407E+05 -1.615273E+05  1.341947E+05  4.739615E+04  7.601620E+03
       308   4  1.506211E+05 -3.044533E+02 -2.419729E+03  1.283861E+05  2.340050E+03  2.368290E+04
       308   5  1.514263E+05 -2.106903E+03 -4.865472E+03  1.144114E+05  4.862170E+03  2.353728E+04
       308   6  1.505799E+05 -9.368173E+03 -1.031128E+04  1.283862E+05  7.379831E+03  7.602247E+03
       308   7  5.336980E+05  9.024605E+04  6.741005E+04  1.289824E+05  1.536551E+04  2.368355E+04
       308   8  6.598413E+05  1.197877E+05  9.643615E+04  1.118031E+05 -8.650988E+03  2.353521E+04
       308   9  7.889545E+05  1.484761E+05  1.408824E+05  1.225716E+05 -3.267742E+04  7.603627E+03
       308  10 -2.323132E+05 -9.086377E+04 -7.225605E+04  1.277905E+05  6.601305E-11 -2.408175E-11
       308  11 -3.567421E+05 -1.240179E+05 -1.061810E+05  1.170171E+05  2.074134E-10  3.732944E-11
       308  12 -4.874196E+05 -1.672414E+05 -1.615316E+05  1.341944E+05  1.108562E-12  6.922523E-11
       308  13  1.506210E+05 -3.050571E+02 -2.420793E+03  1.283861E+05  1.961452E-10 -4.117011E-11
       308  14  1.514261E+05 -2.107504E+03 -4.866557E+03  1.144113E+05  7.295444E-11 -1.097359E-10
       308  15  1.505798E+05 -9.368249E+03 -1.031149E+04  1.283861E+05  1.632088E-10  1.712148E-11
       308  16  5.336976E+05  9.024538E+04  6.740856E+04  1.289821E+05  1.911915E-10 -1.219643E-10
       308  17  6.598411E+05  1.197871E+05  9.643497E+04  1.118033E+05 -2.958817E-11 -1.152965E-10
       308  18  7.889533E+05  1.484758E+05  1.408803E+05  1.225718E+05 -1.821970E-10  1.414499E-11
       308  19 -2.323129E+05 -9.086314E+04 -7.225478E+04  1.277903E+05  1.067760E+04 -2.368228E+04
       308  20 -3.567416E+05 -1.240172E+05 -1.061793E+05  1.170175E+05 -1.836449E+04 -2.353946E+04
       308  21 -4.874171E+05 -1.672407E+05 -1.615273E+05  1.341947E+05 -4.739615E+04 -7.601620E+03
       308  22  1.506211E+05 -3.044533E+02 -2.419729E+03  1.283861E+05 -2.340050E+03 -2.368290E+04
       308  23  1.514263E+05 -2.106903E+03 -4.865472E+03  1.144114E+05 -4.862170E+03 -2.353728E+04
       308  24  1.505799E+05 -9.368173E+03 -1.031128E+04  1.283862E+05 -7.379831E+03 -7.602247E+03
       308  25  5.336980E+05  9.024605E+04  6.741005E+04  1.289824E+05 -1.536551E+04 -2.368355E+04
       308  26  6.598413E+05  1.197877E+05  9.643615E+04  1.118031E+05  8.650988E+03 -2.353521E+04
       308  27  7.889545E+05  1.484761E+05  1.408824E+05  1.225716E+05  3.267742E+04 -7.603627E+03
       309   1  1.094422E+06  2.070961E+05  2.054166E+05  1.656228E+05  7.560778E+04 -7.690724E+03
       309   2  9.513705E+05  1.335396E+05  1.273807E+05  1.351707E+05  3.567911E+04 -2.365512E+04
       309   3  8.214432E+05  9.150124E+04  8.319216E+04  1.346653E+05 -4.235331E+03 -2.340776E+04
       309   4  4.400408E+05  4.533456E+04  5.037891E+04  1.372982E+05  3.510040E+04 -7.693711E+03
       309   5  4.358746E+05  9.943794E+03  2.448707E+04  1.223262E+05  2.245660E+04 -2.365818E+04
       309   6  4.400957E+05  1.355027E+03  1.352708E+04  1.372988E+05  9.817408E+03 -2.340673E+04
       309   7 -2.139422E+05 -1.164538E+05 -1.046820E+05  1.090035E+05 -5.364586E+03 -7.693013E+03
       309   8 -7.936710E+04 -1.136676E+05 -7.841920E+04  1.094926E+05  9.244838E+03 -2.366070E+04
       309   9  5.888973E+04 -8.879927E+04 -5.614314E+04  1.399307E+05  2.386176E+04 -2.340557E+04
       309  10  1.094416E+06  2.070945E+05  2.054058E+05  1.656233E+05 -1.209479E-10 -1.418414E-11
       309  11  9.513690E+05  1.335387E+05  1.273773E+05  1.351713E+05 -2.955781E-10 -4.462076E-11
       309  12  8.214431E+05  9.150064E+04  8.319109E+04  1.346652E+05  3.240126E-10 -1.676956E-10
       309  13  4.400394E+05  4.533416E+04  5.037648E+04  1.372984E+05 -5.258171E-11  4.399438E-11
       309  14  4.358739E+05  9.943058E+03  2.448507E+04  1.223266E+05 -4.438826E-10  1.483597E-10
       309  15  4.400954E+05  1.354412E+03  1.352587E+04  1.372990E+05 -4.316663E-11 -7.650070E-11
       309  16 -2.139422E+05 -1.164539E+05 -1.046822E+05  1.090034E+05  3.447614E-10  8.887614E-11
       309  17 -7.936735E+04 -1.136682E+05 -7.842041E+04  1.094928E+05 -1.796104E-10  2.104374E-10
       309  18  5.888897E+04 -8.880001E+04 -5.614524E+04  1.399312E+05 -3.839939E-10 -2.089386E-11
       309  19  1.094422E+06  2.070961E+05  2.054166E+05  1.656228E+05 -7.560778E+04  7.690724E+03
       309  20  9.513705E+05  1.335396E+05  1.273807E+05  1.351707E+05 -3.567911E+04  2.365512E+04
       309  21  8.214432E+05  9.150124E+04  8.319216E+04  1.346653E+05  4.235331E+03  2.340776E+04
       309  22  4.400408E+05  4.533456E+04  5.037891E+04  1.372982E+05 -3.510040E+04  7.693711E+03
       309  23  4.358746E+05  9.943794E+03  2.448707E+04  1.223262E+05 -2.245660E+04  2.365818E+04
       309  24  4.400957E+05  1.355027E+03  1.352708E+04  1.372988E+05 -9.817408E+03  2.340673E+04
       309  25 -2.139422E+05 -1.164538E+05 -1.046820E+05  1.090035E+05  5.364586E+03  7.693013E+03
       309  26 -7.936710E+04 -1.136676E+05 -7.841920E+04  1.094926E+05 -9.244838E+03  2.366070E+04
       309  27  5.888973E+04 -8.879927E+04 -5.614314E+04  1.399307E+05 -2.386176E+04  2.340557E+04
       310   1  7.300559E+05  7.093322E+04  6.326367E+04  1.383744E+05 -4.170106E+03 -1.822962E+04
       310   2  5.932125E+05  3.683807E+04  3.329004E+04  1.223061E+05 -9.258205E+03 -1.031041E+04
       310   3  4.575076E+05  4.543469E+03  7.076835E+03  1.372008E+05 -1.434602E+04 -1.085230E+03
       310   4  4.384066E+05  2.057289E+03  1.033868E+04  1.375259E+05  8.047206E+03 -1.822793E+04
       310   5  4.380451E+05  3.240116E+02  5.795984E+03  1.220445E+05  5.154797E+03 -1.030753E+04
       310   6  4.384216E+05  1.114989E+01  3.490406E+03  1.375263E+05  2.261576E+03 -1.080990E+03
       310   7  1.468403E+05 -6.682333E+04 -4.258914E+04  1.366778E+05  2.025894E+04 -1.822626E+04
       310   8  2.829016E+05 -3.619126E+04 -2.169819E+04  1.217829E+05  1.956430E+04 -1.030466E+04
       310   9  4.193365E+05 -4.521042E+03 -9.500326E+01  1.378519E+05  1.886868E+04 -1.076732E+03
       310  10  7.300558E+05  7.093285E+04  6.326302E+04  1.383743E+05 -2.698686E-10 -2.090536E-10
       310  11  5.932124E+05  3.683793E+04  3.328968E+04  1.223061E+05 -1.349147E-10  4.027410E-11
       310  12  4.575074E+05  4.543412E+03  7.076446E+03  1.372007E+05 -3.056233E-10  4.381166E-11
       310  13  4.384065E+05  2.056915E+03  1.033793E+04  1.375260E+05 -8.417474E-11 -1.370086E-10
       310  14  4.380450E+05  3.238903E+02  5.795734E+03  1.220445E+05 -1.057696E-10 -2.546006E-11
       310  15  4.384216E+05  1.114727E+01  3.490394E+03  1.375263E+05 -1.852520E-10 -2.759079E-11
       310  16  1.468398E+05 -6.682380E+04 -4.259053E+04  1.366781E+05  1.229858E-10 -5.785566E-11
       310  17  2.829012E+05 -3.619147E+04 -2.169911E+04  1.217831E+05 -3.127179E-11 -1.108618E-10
       310  18  4.193361E+05 -4.521138E+03 -9.567405E+01  1.378519E+05  1.406693E-10  6.740346E-11
       310  19  7.300559E+05  7.093322E+04  6.326367E+04  1.383744E+05  4.170106E+03  1.822962E+04
       310  20  5.932125E+05  3.683807E+04  3.329004E+04  1.223061E+05  9.258205E+03  1.031041E+04
       310  21  4.575076E+05  4.543469E+03  7.076835E+03  1.372008E+05  1.434602E+04  1.085230E+03
       310  22  4.384066E+05  2.057289E+03  1.033868E+04  1.375259E+05 -8.047206E+03  1.822793E+04
       310  23  4.380451E+05  3.240116E+02  5.795984E+03  1.220445E+05 -5.154797E+03  1.030753E+04
       310  24  4.384216E+05  1.114989E+01  3.490406E+03  1.375263E+05 -2.261576E+03  1.080990E+03
       310  25  1.468403E+05 -6.682333E+04 -4.258914E+04  1.366778E+05 -2.025894E+04  1.822626E+04
       310  26  2.829016E+05 -3.619126E+04 -2.169819E+04  1.217829E+05 -1.956430E+04  1.030466E+04
       310  27  4.193365E+05 -4.521042E+03 -9.500326E+01  1.378519E+05 -1.886868E+04  1.076732E+03
       311   1  3.684047E+05 -1.636434E+04 -9.427651E+03  1.374259E+05 -1.490903E+04  4.782419E+03
       311   2  2.322542E+05 -4.839837E+04 -3.417148E+04  1.219018E+05 -1.352422E+04  1.396106E+04
       311   3  9.590500E+04 -8.060934E+04 -5.986074E+04  1.373357E+05 -1.213851E+04  2.171914E+04
       311   4  4.383011E+05  5.484977E+01  2.803188E+03  1.375250E+05  1.709788E+03  4.786577E+03
       311   5  4.381920E+05  1.235050E+01  2.020466E+03  1.220463E+05  7.058136E+02  1.396354E+04
       311   6  4.382827E+05  2.087856E+02  1.950790E+03  1.375250E+05 -2.970048E+02  2.172020E+04
       311   7  5.082028E+05  1.647393E+04  1.503489E+04  1.376241E+05  1.833042E+04  4.790741E+03
       311   8  6.441718E+05  4.842087E+04  3.821164E+04  1.221909E+05  1.494042E+04  1.396603E+04
       311   9  7.807747E+05  8.102044E+04  6.375826E+04  1.377144E+05  1.155085E+04  2.172127E+04
       311  10  3.684045E+05 -1.636443E+04 -9.428112E+03  1.374260E+05  2.751279E-10  2.097252E-10
       311  11  2.322539E+05 -4.839863E+04 -3.417219E+04  1.219019E+05 -2.306259E-11  4.515414E-11
       311  12  9.590471E+04 -8.060989E+04 -5.986191E+04  1.373359E+05 -3.287693E-10 -7.704173E-12
       311  13  4.383011E+05  5.482438E+01  2.803139E+03  1.375250E+05 -1.682980E-11  4.660122E-11
       311  14  4.381920E+05  1.214095E+01  2.020099E+03  1.220463E+05  3.741585E-11  1.962899E-11
       311  15  4.382825E+05  2.082789E+02  1.949904E+03  1.375250E+05  2.387416E-12 -2.559185E-11
       311  16  5.082024E+05  1.647381E+04  1.503422E+04  1.376240E+05 -2.176266E-10 -3.186028E-11
       311  17  6.441715E+05  4.842060E+04  3.821085E+04  1.221907E+05  7.967924E-11 -1.108883E-10
       311  18  7.807745E+05  8.101989E+04  6.375712E+04  1.377142E+05  2.004007E-10 -1.499289E-10
       311  19  3.684047E+05 -1.636434E+04 -9.427651E+03  1.374259E+05  1.490903E+04 -4.782419E+03
       311  20  2.322542E+05 -4.839837E+04 -3.417148E+04  1.219018E+05  1.352422E+04 -1.396106E+04
       311  21  9.590500E+04 -8.060934E+04 -5.986074E+04  1.373357E+05  1.213851E+04 -2.171914E+04
       311  22  4.383011E+05  5.484977E+01  2.803188E+03  1.375250E+05 -1.709788E+03 -4.786577E+03
       311  23  4.381920E+05  1.235050E+01  2.020466E+03  1.220463E+05 -7.058136E+02 -1.396354E+04
       311  24  4.382827E+05  2.087856E+02  1.950790E+03  1.375250E+05  2.970048E+02 -2.172020E+04
       311  25  5.082028E+05  1.647393E+04  1.503489E+04  1.376241E+05 -1.833042E+04 -4.790741E+03
       311  26  6.441718E+05  4.842087E+04  3.821164E+04  1.221909E+05 -1.494042E+04 -1.396603E+04
       311  27  7.807747E+05  8.102044E+04  6.375826E+04  1.377144E+05 -1.155085E+04 -2.172127E+04
       312   1  6.377376E+03 -1.020063E+05 -7.651554E+04  1.375213E+05 -1.443435E+04  2.683917E+04
       312   2 -1.280533E+05 -1.346203E+05 -1.095440E+05  1.208311E+05  1.322330E+04  2.636031E+04
       312   3 -2.664983E+05 -1.691620E+05 -1.610512E+05  1.340013E+05  4.086877E+04  8.470959E+03
       312   4  4.384573E+05  1.167114E+02  2.120947E+03  1.372808E+05 -6.219946E+02  2.683945E+04
       312   5  4.379094E+05  1.082632E+03  3.093209E+03  1.223514E+05 -2.206486E+03  2.635809E+04
       312   6  4.384064E+05  5.198252E+03  5.892021E+03  1.372809E+05 -3.796800E+03  8.473653E+03
       312   7  8.707191E+05  1.022293E+05  8.075067E+04  1.370401E+05  1.319972E+04  2.683971E+04
       312   8  1.004179E+06  1.367661E+05  1.157153E+05  1.238732E+05 -1.765005E+04  2.635579E+04
       312   9  1.143772E+06  1.795240E+05  1.728083E+05  1.405642E+05 -4.851283E+04  8.475877E+03
       312  10  6.376959E+03 -1.020071E+05 -7.651729E+04  1.375216E+05 -7.450484E-11 -2.642276E-11
       312  11 -1.280537E+05 -1.346210E+05 -1.095457E+05  1.208308E+05 -1.256479E-10  3.181479E-11
       312  12 -2.665001E+05 -1.691625E+05 -1.610545E+05  1.340010E+05 -4.152868E-10  1.036336E-10
       312  13  4.384571E+05  1.159376E+02  2.119592E+03  1.372808E+05 -1.537324E-10 -1.056837E-10
       312  14  4.379092E+05  1.081885E+03  3.091894E+03  1.223515E+05  5.980475E-11 -1.784742E-10
       312  15  4.384064E+05  5.198171E+03  5.891859E+03  1.372809E+05  1.050804E-10 -1.521861E-10
       312  16  8.707188E+05  1.022285E+05  8.074899E+04  1.370398E+05  4.341287E-10 -1.653499E-10
       312  17  1.004178E+06  1.367653E+05  1.157135E+05  1.238735E+05 -1.922398E-10 -2.226873E-10
       312  18  1.143769E+06  1.795233E+05  1.728037E+05  1.405645E+05  4.837068E-10 -2.299529E-10
       312  19  6.377376E+03 -1.020063E+05 -7.651554E+04  1.375213E+05  1.443435E+04 -2.683917E+04
       312  20 -1.280533E+05 -1.346203E+05 -1.095440E+05  1.208311E+05 -1.322330E+04 -2.636031E+04
       312  21 -2.664983E+05 -1.691620E+05 -1.610512E+05  1.340013E+05 -4.086877E+04 -8.470959E+03
       312  22  4.384573E+05  1.167114E+02  2.120947E+03  1.372808E+05  6.219946E+02 -2.683945E+04
       312  23  4.379094E+05  1.082632E+03  3.093209E+03  1.223514E+05  2.206486E+03 -2.635809E+04
       312  24  4.384064E+05  5.198252E+03  5.892021E+03  1.372809E+05  3.796800E+03 -8.473653E+03
       312  25  8.707191E+05  1.022293E+05  8.075067E+04  1.370401E+05 -1.319972E+04 -2.683971E+04
       312  26  1.004179E+06  1.367661E+05  1.157153E+05  1.238732E+05  1.765005E+04 -2.635579E+04
       312  27  1.143772E+06  1.795240E+05  1.728083E+05  1.405642E+05  4.851283E+04 -8.475877E+03
       313   1  1.498908E+06  2.479658E+05  2.484259E+05  2.091862E+05  9.525380E+04 -8.320117E+03
       313   2  1.324300E+06  1.492199E+05  1.499481E+05  1.678071E+05  4.527874E+04 -2.521431E+04
       313   3  1.167609E+06  9.588705E+04  9.530930E+04  1.628790E+05 -4.675102E+03 -2.397057E+04
       313   4  7.704166E+05  6.790960E+04  7.564513E+04  1.666290E+05  5.153239E+04 -8.326350E+03
       313   5  7.641517E+05  1.486644E+04  3.766421E+04  1.484062E+05  3.210398E+04 -2.521839E+04
       313   6  7.705011E+05  1.965032E+03  2.236087E+04  1.666293E+05  1.268181E+04 -2.396874E+04
       313   7  4.241973E+04 -1.121768E+05 -9.716441E+04  1.241218E+05  7.861890E+03 -8.326612E+03
       313   8  2.043034E+05 -1.195048E+05 -7.463472E+04  1.290230E+05  1.894084E+04 -2.522166E+04
       313   9  3.735461E+05 -9.196572E+04 -5.059289E+04  1.703772E+05  3.002793E+04 -2.396671E+04
       313  10  1.498898E+06  2.479633E+05  2.484087E+05  2.091868E+05  2.365170E-11 -3.035650E-11
       313  11  1.324298E+06  1.492187E+05  1.499430E+05  1.678081E+05  1.714628E-10 -4.187153E-11
       313  12  1.167609E+06  9.588642E+04  9.530818E+04  1.628789E+05  6.478638E-11  3.018725E-10
       313  13  7.704137E+05  6.790881E+04  7.564002E+04  1.666293E+05 -3.438256E-10  1.892405E-10
       313  14  7.641504E+05  1.486548E+04  3.766108E+04  1.484068E+05 -2.581382E-10  1.846860E-10
       313  15  7.705008E+05  1.964372E+03  2.235949E+04  1.666296E+05  3.178947E-10  2.997308E-10
       313  16  4.241965E+04 -1.121769E+05 -9.716465E+04  1.241218E+05  4.539636E-11  2.278657E-11
       313  17  2.043028E+05 -1.195056E+05 -7.463659E+04  1.290234E+05 -3.243111E-10  3.034750E-10
       313  18  3.735450E+05 -9.196658E+04 -5.059566E+04  1.703777E+05  5.355831E-11  2.121922E-10
       313  19  1.498908E+06  2.479658E+05  2.484259E+05  2.091862E+05 -9.525380E+04  8.320117E+03
       313  20  1.324300E+06  1.492199E+05  1.499481E+05  1.678071E+05 -4.527874E+04  2.521431E+04
       313  21  1.167609E+06  9.588705E+04  9.530930E+04  1.628790E+05  4.675102E+03  2.397057E+04
       313  22  7.704166E+05  6.790960E+04  7.564513E+04  1.666290E+05 -5.153239E+04  8.326350E+03
       313  23  7.641517E+05  1.486644E+04  3.766421E+04  1.484062E+05 -3.210398E+04  2.521839E+04
       313  24  7.705011E+05  1.965032E+03  2.236087E+04  1.666293E+05 -1.268181E+04  2.396874E+04
       313  25  4.241973E+04 -1.121768E+05 -9.716441E+04  1.241218E+05 -7.861890E+03  8.326612E+03
       313  26  2.043034E+05 -1.195048E+05 -7.463472E+04  1.290230E+05 -1.894084E+04  2.522166E+04
       313  27  3.735461E+05 -9.196572E+04 -5.059289E+04  1.703772E+05 -3.002793E+04  2.396671E+04
       314   1  1.056383E+06  7.114369E+04  7.110457E+04  1.684153E+05 -5.725999E+03 -1.761231E+04
       314   2  8.900488E+05  2.928848E+04  3.598414E+04  1.488565E+05 -1.503257E+04 -7.795068E+03
       314   3  7.256638E+05 -9.750250E+03  7.619955E+03  1.668715E+05 -2.433764E+04  3.458270E+03
       314   4  7.680449E+05  2.986316E+03  1.835827E+04  1.668813E+05  9.580133E+03 -1.760964E+04
       314   5  7.672989E+05  3.340640E+02  1.384766E+04  1.480944E+05  2.689446E+03 -7.791170E+03
       314   6  7.680597E+05  8.178754E+01  1.441934E+04  1.668817E+05 -4.202048E+03  3.463565E+03
       314   7  4.797880E+05 -6.517563E+04 -3.439053E+04  1.653480E+05  2.487936E+04 -1.760705E+04
       314   8  6.445643E+05 -2.862102E+04 -8.288220E+03  1.473325E+05  2.040806E+04 -7.787315E+03
       314   9  8.104581E+05  9.913952E+03  2.122021E+04  1.668918E+05  1.593487E+04  3.468860E+03
       314  10  1.056383E+06  7.114335E+04  7.110392E+04  1.684152E+05 -7.906718E-11  2.418393E-10
       314  11  8.900485E+05  2.928835E+04  3.598360E+04  1.488565E+05  2.577982E-10  1.839332E-10
       314  12  7.256632E+05 -9.750422E+03  7.618820E+03  1.668716E+05  9.757213E-13  1.516242E-10
       314  13  7.680448E+05  2.985958E+03  1.835751E+04  1.668814E+05  3.520274E-10  3.093882E-10
       314  14  7.672989E+05  3.339969E+02  1.384754E+04  1.480945E+05  3.791623E-10  2.918155E-10
       314  15  7.680596E+05  8.176991E+01  1.441929E+04  1.668817E+05 -1.298161E-10 -3.817858E-11
       314  16  4.797873E+05 -6.517613E+04 -3.439227E+04  1.653483E+05 -2.694927E-10  4.862212E-11
       314  17  6.445638E+05 -2.862120E+04 -8.289116E+03  1.473326E+05  2.120216E-10  2.734665E-10
       314  18  8.104579E+05  9.913871E+03  2.121971E+04  1.668918E+05  7.331177E-11  5.882151E-13
       314  19  1.056383E+06  7.114369E+04  7.110457E+04  1.684153E+05  5.725999E+03  1.761231E+04
       314  20  8.900488E+05  2.928848E+04  3.598414E+04  1.488565E+05  1.503257E+04  7.795068E+03
       314  21  7.256638E+05 -9.750250E+03  7.619955E+03  1.668715E+05  2.433764E+04 -3.458270E+03
       314  22  7.680449E+05  2.986316E+03  1.835827E+04  1.668813E+05 -9.580133E+03  1.760964E+04
       314  23  7.672989E+05  3.340640E+02  1.384766E+04  1.480944E+05 -2.689446E+03  7.791170E+03
       314  24  7.680597E+05  8.178754E+01  1.441934E+04  1.668817E+05  4.202048E+03 -3.463565E+03
       314  25  4.797880E+05 -6.517563E+04 -3.439053E+04  1.653480E+05 -2.487936E+04  1.760705E+04
       314  26  6.445643E+05 -2.862102E+04 -8.288220E+03  1.473325E+05 -2.040806E+04  7.787315E+03
       314  27  8.104581E+05  9.913952E+03  2.122021E+04  1.668918E+05 -1.593487E+04 -3.468860E+03
       315   1  6.180389E+05 -3.529262E+04 -9.646164E+03  1.680342E+05 -2.707240E+04  1.057529E+04
       315   2  4.514270E+05 -7.291251E+04 -3.074444E+04  1.469987E+05 -3.608026E+04  2.164349E+04
       315   3  2.873278E+05 -1.053830E+05 -4.468842E+04  1.635215E+05 -4.508388E+04  3.084103E+04
       315   4  7.683939E+05 -4.874165E+01  1.633733E+04  1.668777E+05 -6.892645E+03  1.058024E+04
       315   5  7.668590E+05  1.156277E+03  2.437745E+04  1.480987E+05 -1.905290E+04  2.164553E+04
       315   6  7.683530E+05  8.056260E+03  4.175426E+04  1.668762E+05 -3.121121E+04  3.084063E+04
       315   7  9.187718E+05  3.519414E+04  4.232158E+04  1.657209E+05  1.329185E+04  1.058511E+04
       315   8  1.082389E+06  7.521983E+04  7.949688E+04  1.491993E+05 -2.017151E+03  2.164764E+04
       315   9  1.249604E+06  1.214827E+05  1.281887E+05  1.702335E+05 -1.732810E+04  3.084038E+04
       315  10  6.180381E+05 -3.529293E+04 -9.647751E+03  1.680345E+05  1.864236E-10  2.382325E-10
       315  11  4.514255E+05 -7.291337E+04 -3.074777E+04  1.469993E+05  1.082990E-10 -1.248066E-10
       315  12  2.873253E+05 -1.053845E+05 -4.469403E+04  1.635226E+05  1.970761E-10 -3.847046E-10
       315  13  7.683938E+05 -4.887466E+01  1.633703E+04  1.668778E+05 -4.209347E-11 -2.026616E-11
       315  14  7.668584E+05  1.155676E+03  2.437588E+04  1.480990E+05  1.826837E-10 -1.272986E-10
       315  15  7.683517E+05  8.054976E+03  4.175065E+04  1.668769E+05 -1.148868E-10 -4.865754E-10
       315  16  9.187716E+05  3.519397E+04  4.232104E+04  1.657208E+05  1.021844E-10 -1.709298E-10
       315  17  1.082389E+06  7.521932E+04  7.949599E+04  1.491993E+05 -5.854763E-11 -2.369970E-10
       315  18  1.249603E+06  1.214816E+05  1.281864E+05  1.702340E+05 -3.347898E-11 -5.538338E-10
       315  19  6.180389E+05 -3.529262E+04 -9.646164E+03  1.680342E+05  2.707240E+04 -1.057529E+04
       315  20  4.514270E+05 -7.291251E+04 -3.074444E+04  1.469987E+05  3.608026E+04 -2.164349E+04
       315  21  2.873278E+05 -1.053830E+05 -4.468842E+04  1.635215E+05  4.508388E+04 -3.084103E+04
       315  22  7.683939E+05 -4.874165E+01  1.633733E+04  1.668777E+05  6.892645E+03 -1.058024E+04
       315  23  7.668590E+05  1.156277E+03  2.437745E+04  1.480987E+05  1.905290E+04 -2.164553E+04
       315  24  7.683530E+05  8.056260E+03  4.175426E+04  1.668762E+05  3.121121E+04 -3.084063E+04
       315  25  9.187718E+05  3.519414E+04  4.232158E+04  1.657209E+05 -1.329185E+04 -1.058511E+04
       315  26  1.082389E+06  7.521983E+04  7.949688E+04  1.491993E+05  2.017151E+03 -2.164764E+04
       315  27  1.249604E+06  1.214827E+05  1.281887E+05  1.702335E+05  1.732810E+04 -3.084038E+04
       316   1  1.850716E+05 -1.340056E+05 -5.278334E+04  1.770337E+05 -5.477392E+04  3.697264E+04
       316   2  6.047939E+03 -1.407737E+05 -5.188674E+04  9.765589E+04 -6.694990E+04  3.545980E+04
       316   3 -1.463414E+05 -4.792865E+04 -1.813356E+04  5.448438E+04 -7.913147E+04  1.131504E+04
       316   4  7.750318E+05  5.317686E+03  5.417872E+04  1.665660E+05 -3.834511E+04  3.697186E+04
       316   5  7.583800E+05  3.945815E+04  9.733689E+04  1.484798E+05 -8.859007E+04  3.545239E+04
       316   6  7.748859E+05  1.797339E+05  1.997367E+05  1.665846E+05 -1.388462E+05  1.131114E+04
       316   7  1.365331E+06  1.446220E+05  1.611281E+05  1.560879E+05 -2.190110E+04  3.697052E+04
       316   8  1.511260E+06  2.196654E+05  2.465356E+05  1.993666E+05 -1.102559E+05  3.544145E+04
       316   9  1.696928E+06  4.073848E+05  4.175682E+05  2.788520E+05 -1.986490E+05  1.128571E+04
       316  10  1.850680E+05 -1.340078E+05 -5.279155E+04  1.770354E+05 -1.039930E-10 -6.063408E-10
       316  11  6.042787E+03 -1.407762E+05 -5.189753E+04  9.765780E+04  4.582121E-11 -6.144999E-10
       316  12 -1.463481E+05 -4.793046E+04 -1.814557E+04  5.448510E+04 -7.075701E-10 -3.752448E-10
       316  13  7.750299E+05  5.315823E+03  5.417339E+04  1.665671E+05 -5.452204E-10 -5.236792E-10
       316  14  7.583713E+05  3.945470E+04  9.731979E+04  1.484824E+05 -9.020033E-11 -5.184061E-10
       316  15  7.748652E+05  1.797286E+05  1.997002E+05  1.665858E+05 -1.276817E-10 -2.860347E-11
       316  16  1.365330E+06  1.446204E+05  1.611246E+05  1.560886E+05  1.323710E-10 -6.844134E-10
       316  17  1.511246E+06  2.196608E+05  2.465105E+05  1.993697E+05 -3.315043E-10 -2.892074E-10
       316  18  1.696885E+06  4.073741E+05  4.174940E+05  2.788538E+05  9.014289E-10 -2.875103E-10
       316  19  1.850716E+05 -1.340056E+05 -5.278334E+04  1.770337E+05  5.477392E+04 -3.697264E+04
       316  20  6.047939E+03 -1.407737E+05 -5.188674E+04  9.765589E+04  6.694990E+04 -3.545980E+04
       316  21 -1.463414E+05 -4.792865E+04 -1.813356E+04  5.448438E+04  7.913147E+04 -1.131504E+04
       316  22  7.750318E+05  5.317686E+03  5.417872E+04  1.665660E+05  3.834511E+04 -3.697186E+04
       316  23  7.583800E+05  3.945815E+04  9.733689E+04  1.484798E+05  8.859007E+04 -3.545239E+04
       316  24  7.748859E+05  1.797339E+05  1.997367E+05  1.665846E+05  1.388462E+05 -1.131114E+04
       316  25  1.365331E+06  1.446220E+05  1.611281E+05  1.560879E+05  2.190110E+04 -3.697052E+04
       316  26  1.511260E+06  2.196654E+05  2.465356E+05  1.993666E+05  1.102559E+05 -3.544145E+04
       316  27  1.696928E+06  4.073848E+05  4.175682E+05  2.788520E+05  1.986490E+05 -1.128571E+04
       317   1 -6.071592E+05 -3.756730E+04 -7.054833E+04 -2.203438E+04 -1.217157E+05 -9.479094E+03
       317   2 -7.057850E+05  1.022798E+05  3.895780E+03  4.162764E+04 -9.009696E+04 -3.044595E+04
       317   3 -8.400442E+05  1.157084E+05  2.615353E+04  1.304891E+05 -5.847713E+04 -3.302033E+04
       317   4 -1.358254E+06 -2.236117E+05 -2.481128E+05  1.174925E+05 -1.721678E+05 -9.493001E+03
       317   5 -1.337628E+06 -4.923575E+04 -1.209293E+05  1.049090E+05 -1.097453E+05 -3.045418E+04
       317   6 -1.358063E+06 -6.729590E+03 -6.739835E+04  1.175336E+05 -4.731202E+04 -3.302207E+04
       317   7 -2.108782E+06 -4.096221E+05 -4.256963E+05  2.568495E+05 -2.225590E+05 -9.529642E+03
       317   8 -1.969079E+06 -2.007603E+05 -2.457704E+05  1.681246E+05 -1.293741E+05 -3.046643E+04
       317   9 -1.875820E+06 -1.291819E+05 -1.609602E+05  1.045893E+05 -3.615597E+04 -3.302429E+04
       317  10 -6.071751E+05 -3.757137E+04 -7.057636E+04 -2.203531E+04 -2.428095E-10  3.663555E-10
       317  11 -7.057940E+05  1.022766E+05  3.878768E+03  4.162543E+04  1.526863E-10 -2.982547E-10
       317  12 -8.400482E+05  1.157063E+05  2.614505E+04  1.304875E+05  1.553867E-09 -2.113553E-10
       317  13 -1.358286E+06 -2.236198E+05 -2.481688E+05  1.174912E+05 -4.701879E-10 -2.919405E-10
       317  14 -1.337641E+06 -4.923998E+04 -1.209537E+05  1.049064E+05 -4.930438E-10 -1.643463E-10
       317  15 -1.358066E+06 -6.731362E+03 -6.740461E+04  1.175324E+05  5.408287E-10 -2.290026E-10
       317  16 -2.108836E+06 -4.096355E+05 -4.257899E+05  2.568478E+05 -1.072570E-10 -1.516416E-10
       317  17 -1.969097E+06 -2.007658E+05 -2.458037E+05  1.681214E+05 -1.198188E-09 -1.274202E-10
       317  18 -1.875822E+06 -1.291834E+05 -1.609647E+05  1.045884E+05 -2.224437E-09 -7.088334E-10
       317  19 -6.071592E+05 -3.756730E+04 -7.054833E+04 -2.203438E+04  1.217157E+05  9.479094E+03
       317  20 -7.057850E+05  1.022798E+05  3.895780E+03  4.162764E+04  9.009696E+04  3.044595E+04
       317  21 -8.400442E+05  1.157084E+05  2.615353E+04  1.304891E+05  5.847713E+04  3.302033E+04
       317  22 -1.358254E+06 -2.236117E+05 -2.481128E+05  1.174925E+05  1.721678E+05  9.493001E+03
       317  23 -1.337628E+06 -4.923575E+04 -1.209293E+05  1.049090E+05  1.097453E+05  3.045418E+04
       317  24 -1.358063E+06 -6.729590E+03 -6.739835E+04  1.175336E+05  4.731202E+04  3.302207E+04
       317  25 -2.108782E+06 -4.096221E+05 -4.256963E+05  2.568495E+05  2.225590E+05  9.529642E+03
       317  26 -1.969079E+06 -2.007603E+05 -2.457704E+05  1.681246E+05  1.293741E+05  3.046643E+04
       317  27 -1.875820E+06 -1.291819E+05 -1.609602E+05  1.045893E+05  3.615597E+04  3.302429E+04
       318   1 -9.087200E+05  9.400051E+04  2.685599E+04  1.136205E+05 -4.752268E+04 -2.880574E+04
       318   2 -1.023744E+06  7.473734E+04  2.573518E+04  1.031739E+05 -3.484044E+04 -2.263193E+04
       318   3 -1.142044E+06  4.883045E+04  1.469552E+04  1.192397E+05 -2.216168E+04 -1.490250E+04
       318   4 -1.349769E+06 -1.010091E+04 -5.204456E+04  1.178140E+05 -3.844956E+04 -2.880785E+04
       318   5 -1.347876E+06 -1.453889E+03 -3.065747E+04  1.045566E+05 -2.316787E+04 -2.263248E+04
       318   6 -1.349730E+06  9.470040E+01 -2.100404E+04  1.178132E+05 -7.887395E+03 -1.490119E+04
       318   7 -1.790628E+06 -1.142130E+05 -1.309522E+05  1.220044E+05 -2.938270E+04 -2.880984E+04
       318   8 -1.671905E+06 -7.765074E+04 -8.705329E+04  1.059387E+05 -1.150123E+04 -2.263298E+04
       318   9 -1.557373E+06 -4.864324E+04 -5.670429E+04  1.163873E+05  6.382259E+03 -1.489994E+04
       318  10 -9.087226E+05  9.399901E+04  2.685019E+04  1.136194E+05 -2.120302E-10 -2.652207E-10
       318  11 -1.023745E+06  7.473647E+04  2.573194E+04  1.031732E+05 -2.906419E-10 -9.252269E-11
       318  12 -1.142045E+06  4.883008E+04  1.469418E+04  1.192394E+05  5.090593E-11  4.560464E-10
       318  13 -1.349771E+06 -1.010219E+04 -5.204890E+04  1.178131E+05 -4.514311E-10 -5.101149E-10
       318  14 -1.347877E+06 -1.454584E+03 -3.065944E+04  1.045562E+05 -7.220992E-10 -8.757747E-12
       318  15 -1.349730E+06  9.444540E+01 -2.100457E+04  1.178132E+05  5.555343E-10  2.996685E-10
       318  16 -1.790629E+06 -1.142142E+05 -1.309554E+05  1.220037E+05  4.550834E-10 -4.402917E-10
       318  17 -1.671906E+06 -7.765132E+04 -8.705451E+04  1.059385E+05 -4.040446E-10  2.149388E-10
       318  18 -1.557373E+06 -4.864349E+04 -5.670479E+04  1.163873E+05  1.980651E-10  1.569808E-10
       318  19 -9.087200E+05  9.400051E+04  2.685599E+04  1.136205E+05  4.752268E+04  2.880574E+04
       318  20 -1.023744E+06  7.473734E+04  2.573518E+04  1.031739E+05  3.484044E+04  2.263193E+04
       318  21 -1.142044E+06  4.883045E+04  1.469552E+04  1.192397E+05  2.216168E+04  1.490250E+04
       318  22 -1.349769E+06 -1.010091E+04 -5.204456E+04  1.178140E+05  3.844956E+04  2.880785E+04
       318  23 -1.347876E+06 -1.453889E+03 -3.065747E+04  1.045566E+05  2.316787E+04  2.263248E+04
       318  24 -1.349730E+06  9.470040E+01 -2.100404E+04  1.178132E+05  7.887395E+03  1.490119E+04
       318  25 -1.790628E+06 -1.142130E+05 -1.309522E+05  1.220044E+05  2.938270E+04  2.880984E+04
       318  26 -1.671905E+06 -7.765074E+04 -8.705329E+04  1.059387E+05  1.150123E+04  2.263298E+04
       318  27 -1.557373E+06 -4.864324E+04 -5.670429E+04  1.163873E+05 -6.382259E+03  1.489994E+04
       319   1 -1.217950E+06  3.070317E+04  3.241049E+03  1.177124E+05 -1.860570E+04 -9.865000E+03
       319   2 -1.333556E+06  2.832188E+03 -1.720351E+04  1.055400E+05 -7.865509E+03 -1.794191E+03
       319   3 -1.451457E+06 -2.869635E+04 -4.556418E+04  1.199528E+05  2.872359E+03  5.490075E+03
       319   4 -1.349354E+06 -3.842556E+01 -1.887193E+04  1.178290E+05 -4.409333E+03 -9.863230E+03
       319   5 -1.348316E+06 -4.714753E+02 -1.893802E+04  1.045364E+05  5.009464E+03 -1.792504E+03
       319   6 -1.349357E+06 -4.332233E+03 -2.600223E+04  1.178293E+05  1.442786E+04  5.491653E+03
       319   7 -1.480741E+06 -3.078082E+04 -4.098469E+04  1.179456E+05  9.784127E+03 -9.861454E+03
       319   8 -1.363075E+06 -3.775054E+03 -2.067190E+04  1.035328E+05  1.788415E+04 -1.790858E+03
       319   9 -1.247247E+06  2.003136E+04 -6.440254E+03  1.157053E+05  2.598523E+04  5.493152E+03
       319  10 -1.217951E+06  3.070297E+04  3.240215E+03  1.177122E+05  7.047839E-10  5.379640E-10
       319  11 -1.333556E+06  2.832168E+03 -1.720363E+04  1.055400E+05  1.320448E-09  2.796041E-10
       319  12 -1.451457E+06 -2.869638E+04 -4.556425E+04  1.199528E+05  1.253419E-10  2.048004E-10
       319  13 -1.349355E+06 -3.853518E+01 -1.887215E+04  1.178290E+05  5.701418E-10  1.816127E-10
       319  14 -1.348316E+06 -4.714855E+02 -1.893807E+04  1.045364E+05 -1.832685E-10  1.451564E-11
       319  15 -1.349358E+06 -4.332321E+03 -2.600268E+04  1.178292E+05  1.039924E-09 -1.187218E-10
       319  16 -1.480741E+06 -3.078095E+04 -4.098505E+04  1.179457E+05  4.174624E-11 -1.085761E-10
       319  17 -1.363076E+06 -3.775143E+03 -2.067251E+04  1.035329E+05  2.999575E-10 -2.707541E-10
       319  18 -1.247248E+06  2.003114E+04 -6.441582E+03  1.157052E+05  7.381552E-11 -1.617808E-10
       319  19 -1.217950E+06  3.070317E+04  3.241049E+03  1.177124E+05  1.860570E+04  9.865000E+03
       319  20 -1.333556E+06  2.832188E+03 -1.720351E+04  1.055400E+05  7.865509E+03  1.794191E+03
       319  21 -1.451457E+06 -2.869635E+04 -4.556418E+04  1.199528E+05 -2.872359E+03 -5.490075E+03
       319  22 -1.349354E+06 -3.842556E+01 -1.887193E+04  1.178290E+05  4.409333E+03  9.863230E+03
       319  23 -1.348316E+06 -4.714753E+02 -1.893802E+04  1.045364E+05 -5.009464E+03  1.792504E+03
       319  24 -1.349357E+06 -4.332233E+03 -2.600223E+04  1.178293E+05 -1.442786E+04 -5.491653E+03
       319  25 -1.480741E+06 -3.078082E+04 -4.098469E+04  1.179456E+05 -9.784127E+03  9.861454E+03
       319  26 -1.363075E+06 -3.775054E+03 -2.067190E+04  1.035328E+05 -1.788415E+04  1.790858E+03
       319  27 -1.247247E+06  2.003136E+04 -6.440254E+03  1.157053E+05 -2.598523E+04 -5.493152E+03
       320   1 -1.531717E+06 -4.541960E+04 -6.569108E+04  1.121293E+05  6.077123E+03  1.011529E+04
       320   2 -1.637824E+06 -9.257515E+04 -1.144802E+05  1.328090E+05  5.175605E+04  1.247170E+04
       320   3 -1.765227E+06 -2.011339E+05 -2.084112E+05  1.793668E+05  9.742435E+04  4.346527E+03
       320   4 -1.352947E+06 -2.864962E+03 -3.198676E+04  1.176744E+05  1.881304E+04  1.011674E+04
       320   5 -1.343871E+06 -2.169220E+04 -5.449955E+04  1.047328E+05  4.692109E+04  1.246858E+04
       320   6 -1.353032E+06 -9.885193E+04 -1.099192E+05  1.176754E+05  7.502757E+04  4.336148E+03
       320   7 -1.174146E+06  3.968801E+04  1.716788E+03  1.232211E+05  3.155255E+04  1.011842E+04
       320   8 -1.049833E+06  4.918832E+04  5.477076E+03  7.664308E+04  4.208388E+04  1.246589E+04
       320   9 -9.406719E+05  3.432309E+03 -1.143511E+04  5.594263E+04  5.261593E+04  4.330237E+03
       320  10 -1.531717E+06 -4.541972E+04 -6.569134E+04  1.121293E+05 -1.207056E-10  6.104778E-11
       320  11 -1.637827E+06 -9.257604E+04 -1.144856E+05  1.328084E+05  2.330871E-10  2.138606E-11
       320  12 -1.765237E+06 -2.011365E+05 -2.084292E+05  1.793665E+05  5.657509E-10 -1.927343E-11
       320  13 -1.352948E+06 -2.865167E+03 -3.198762E+04  1.176743E+05 -2.955891E-14  3.351224E-11
       320  14 -1.343873E+06 -2.169296E+04 -5.450399E+04  1.047323E+05  2.074246E-10  1.064541E-10
       320  15 -1.353038E+06 -9.885346E+04 -1.099298E+05  1.176751E+05 -5.268840E-10 -5.089424E-11
       320  16 -1.174147E+06  3.968763E+04  1.714722E+03  1.232209E+05 -5.951384E-11  9.283970E-11
       320  17 -1.049835E+06  4.918768E+04  5.473451E+03  7.664265E+04  4.340138E-11  1.876798E-10
       320  18 -9.406749E+05  3.431544E+03 -1.144036E+04  5.594245E+04 -3.389288E-10 -6.276980E-12
       320  19 -1.531717E+06 -4.541960E+04 -6.569108E+04  1.121293E+05 -6.077123E+03 -1.011529E+04
       320  20 -1.637824E+06 -9.257515E+04 -1.144802E+05  1.328090E+05 -5.175605E+04 -1.247170E+04
       320  21 -1.765227E+06 -2.011339E+05 -2.084112E+05  1.793668E+05 -9.742435E+04 -4.346527E+03
       320  22 -1.352947E+06 -2.864962E+03 -3.198676E+04  1.176744E+05 -1.881304E+04 -1.011674E+04
       320  23 -1.343871E+06 -2.169220E+04 -5.449955E+04  1.047328E+05 -4.692109E+04 -1.246858E+04
       320  24 -1.353032E+06 -9.885193E+04 -1.099192E+05  1.176754E+05 -7.502757E+04 -4.336148E+03
       320  25 -1.174146E+06  3.968801E+04  1.716788E+03  1.232211E+05 -3.155255E+04 -1.011842E+04
       320  26 -1.049833E+06  4.918832E+04  5.477076E+03  7.664308E+04 -4.208388E+04 -1.246589E+04
       320  27 -9.406719E+05  3.432309E+03 -1.143511E+04  5.594263E+04 -5.261593E+04 -4.330237E+03
       321   1 -4.702005E+05  1.053693E+05  9.195808E+04  3.861539E+04  5.549524E+03 -8.604571E+03
       321   2 -5.389275E+05  1.238972E+05  8.186106E+04  4.906498E+04 -5.399353E+03 -2.820578E+04
       321   3 -6.128456E+05  1.157851E+05  7.224392E+04  7.466219E+04 -1.634393E+04 -3.236843E+04
       321   4 -1.110164E+06 -5.288573E+04 -5.876179E+04  7.162887E+04 -4.029738E+04 -8.602979E+03
       321   5 -1.105283E+06 -1.164942E+04 -2.900759E+04  6.405236E+04 -2.533127E+04 -2.820913E+04
       321   6 -1.110110E+06 -1.571648E+03 -1.679351E+04  7.162530E+04 -1.036168E+04 -3.236964E+04
       321   7 -1.749743E+06 -2.111648E+05 -2.095014E+05  1.046081E+05 -8.609725E+04 -8.606270E+03
       321   8 -1.671328E+06 -1.472144E+05 -1.398901E+05  7.902574E+04 -4.524538E+04 -2.821344E+04
       321   9 -1.607133E+06 -1.189421E+05 -1.058403E+05  6.859090E+04 -4.384086E+03 -3.237090E+04
       321  10 -4.702005E+05  1.053692E+05  9.195789E+04  3.861543E+04 -2.729426E-10  2.134013E-10
       321  11 -5.389278E+05  1.238964E+05  8.185952E+04  4.906486E+04 -6.652065E-10  1.395077E-10
       321  12 -6.128461E+05  1.157839E+05  7.224145E+04  7.466176E+04 -9.167616E-11  9.469358E-11
       321  13 -1.110166E+06 -5.288625E+04 -5.876499E+04  7.162859E+04 -9.361705E-10 -1.630123E-10
       321  14 -1.105284E+06 -1.165045E+04 -2.901029E+04  6.405178E+04 -8.422812E-10  1.770300E-10
       321  15 -1.110111E+06 -1.572802E+03 -1.679568E+04  7.162503E+04  8.985727E-11  2.888354E-10
       321  16 -1.749751E+06 -2.111669E+05 -2.095155E+05  1.046075E+05 -3.988247E-10 -2.504135E-11
       321  17 -1.671331E+06 -1.472158E+05 -1.398954E+05  7.902471E+04  3.614991E-10  1.938464E-10
       321  18 -1.607134E+06 -1.189432E+05 -1.058423E+05  6.859078E+04  3.192150E-10  2.809935E-10
       321  19 -4.702005E+05  1.053693E+05  9.195808E+04  3.861539E+04 -5.549524E+03  8.604571E+03
       321  20 -5.389275E+05  1.238972E+05  8.186106E+04  4.906498E+04  5.399353E+03  2.820578E+04
       321  21 -6.128456E+05  1.157851E+05  7.224392E+04  7.466219E+04  1.634393E+04  3.236843E+04
       321  22 -1.110164E+06 -5.288573E+04 -5.876179E+04  7.162887E+04  4.029738E+04  8.602979E+03
       321  23 -1.105283E+06 -1.164942E+04 -2.900759E+04  6.405236E+04  2.533127E+04  2.820913E+04
       321  24 -1.110110E+06 -1.571648E+03 -1.679351E+04  7.162530E+04  1.036168E+04  3.236964E+04
       321  25 -1.749743E+06 -2.111648E+05 -2.095014E+05  1.046081E+05  8.609725E+04  8.606270E+03
       321  26 -1.671328E+06 -1.472144E+05 -1.398901E+05  7.902574E+04  4.524538E+04  2.821344E+04
       321  27 -1.607133E+06 -1.189421E+05 -1.058403E+05  6.859090E+04  4.384086E+03  3.237090E+04
       322   1 -6.582255E+05  1.036859E+05  6.631024E+04  7.082199E+04 -1.231073E+04 -3.000341E+04
       322   2 -7.293638E+05  8.852723E+04  5.599918E+04  6.334187E+04 -9.935472E+03 -2.680713E+04
       322   3 -8.011417E+05  7.198567E+04  4.379771E+04  7.207097E+04 -7.561892E+03 -2.225108E+04
       322   4 -1.108178E+06 -2.350239E+03 -1.347683E+04  7.186072E+04 -8.083175E+03 -3.000443E+04
       322   5 -1.107647E+06 -2.774450E+02 -9.352763E+03  6.375540E+04 -3.428384E+03 -2.680679E+04
       322   6 -1.108158E+06  1.553514E+01 -8.705594E+03  7.186001E+04  1.224957E+03 -2.224894E+04
       322   7 -1.557933E+06 -1.083976E+05 -9.327136E+04  7.289866E+04 -3.858595E+03 -3.000544E+04
       322   8 -1.485789E+06 -8.908980E+04 -7.470947E+04  6.416866E+04  3.074858E+03 -2.680643E+04
       322   9 -1.415082E+06 -7.195959E+04 -6.121174E+04  7.164914E+04  1.000759E+04 -2.224681E+04
       322  10 -6.582259E+05  1.036849E+05  6.630826E+04  7.082170E+04 -3.939397E-10  2.630130E-10
       322  11 -7.293641E+05  8.852643E+04  5.599765E+04  6.334166E+04  1.168707E-10 -5.858423E-10
       322  12 -8.011419E+05  7.198512E+04  4.379667E+04  7.207084E+04  3.550942E-10 -4.073396E-10
       322  13 -1.108179E+06 -2.351223E+03 -1.347864E+04  7.186053E+04  5.049286E-11  2.212878E-10
       322  14 -1.107647E+06 -2.782194E+02 -9.354135E+03  6.375533E+04  4.443211E-10 -1.837164E-10
       322  15 -1.108158E+06  1.500345E+01 -8.706526E+03  7.186003E+04  1.316163E-10 -3.122689E-10
       322  16 -1.557933E+06 -1.083985E+05 -9.327308E+04  7.289856E+04  7.428723E-10  1.256371E-10
       322  17 -1.485789E+06 -8.909058E+04 -7.471083E+04  6.416873E+04  7.762294E-10 -7.284239E-11
       322  18 -1.415082E+06 -7.196014E+04 -6.121286E+04  7.164932E+04 -4.542232E-10  2.591939E-10
       322  19 -6.582255E+05  1.036859E+05  6.631024E+04  7.082199E+04  1.231073E+04  3.000341E+04
       322  20 -7.293638E+05  8.852723E+04  5.599918E+04  6.334187E+04  9.935472E+03  2.680713E+04
       322  21 -8.011417E+05  7.198567E+04  4.379771E+04  7.207097E+04  7.561892E+03  2.225108E+04
       322  22 -1.108178E+06 -2.350239E+03 -1.347683E+04  7.186072E+04  8.083175E+03  3.000443E+04
       322  23 -1.107647E+06 -2.774450E+02 -9.352763E+03  6.375540E+04  3.428384E+03  2.680679E+04
       322  24 -1.108158E+06  1.553514E+01 -8.705594E+03  7.186001E+04 -1.224957E+03  2.224894E+04
       322  25 -1.557933E+06 -1.083976E+05 -9.327136E+04  7.289866E+04  3.858595E+03  3.000544E+04
       322  26 -1.485789E+06 -8.908980E+04 -7.470947E+04  6.416866E+04 -3.074858E+03  2.680643E+04
       322  27 -1.415082E+06 -7.195959E+04 -6.121174E+04  7.164914E+04 -1.000759E+04  2.224681E+04
       323   1 -8.480097E+05  6.101493E+04  3.477938E+04  7.139104E+04 -5.853792E+03 -1.916499E+04
       323   2 -9.187956E+05  4.360491E+04  1.869908E+04  6.437603E+04  8.339314E+02 -1.404042E+04
       323   3 -9.912069E+05  2.319769E+04 -2.491954E+03  7.368531E+04  7.520288E+03 -8.990172E+03
       323   4 -1.108279E+06  6.804466E+01 -9.401052E+03  7.188536E+04  2.804116E+03 -1.916238E+04
       323   5 -1.107473E+06 -5.478299E+02 -1.316777E+04  6.372380E+04  9.364860E+03 -1.403727E+04
       323   6 -1.108274E+06 -4.138781E+03 -2.195744E+04  7.188692E+04  1.592496E+04 -8.986518E+03
       323   7 -1.368481E+06 -6.088240E+04 -5.358340E+04  7.237946E+04  1.145851E+04 -1.915976E+04
       323   8 -1.296115E+06 -4.470240E+04 -4.503549E+04  6.307176E+04  1.789328E+04 -1.403414E+04
       323   9 -1.225328E+06 -3.147591E+04 -4.142307E+04  7.008888E+04  2.432809E+04 -8.982912E+03
       323  10 -8.480098E+05  6.101453E+04  3.477862E+04  7.139095E+04  2.325051E-11 -3.088304E-10
       323  11 -9.187957E+05  4.360470E+04  1.869871E+04  6.437604E+04 -5.630957E-10 -1.692264E-10
       323  12 -9.912070E+05  2.319759E+04 -2.492212E+03  7.368536E+04  4.569027E-10 -7.908799E-10
       323  13 -1.108279E+06  6.764843E+01 -9.401757E+03  7.188540E+04  1.177982E-10 -2.958008E-10
       323  14 -1.107473E+06 -5.480650E+02 -1.316831E+04  6.372390E+04  4.341247E-10 -4.772268E-10
       323  15 -1.108275E+06 -4.138936E+03 -2.195807E+04  7.188704E+04  1.425683E-10 -3.555283E-10
       323  16 -1.368481E+06 -6.088282E+04 -5.358434E+04  7.237964E+04 -3.595392E-10 -8.599194E-11
       323  17 -1.296115E+06 -4.470270E+04 -4.503646E+04  6.307196E+04 -8.300580E-10  1.845303E-10
       323  18 -1.225329E+06 -3.147616E+04 -4.142433E+04  7.008906E+04 -6.916361E-10  1.699719E-10
       323  19 -8.480097E+05  6.101493E+04  3.477938E+04  7.139104E+04  5.853792E+03  1.916499E+04
       323  20 -9.187956E+05  4.360491E+04  1.869908E+04  6.437603E+04 -8.339314E+02  1.404042E+04
       323  21 -9.912069E+05  2.319769E+04 -2.491954E+03  7.368531E+04 -7.520288E+03  8.990172E+03
       323  22 -1.108279E+06  6.804466E+01 -9.401052E+03  7.188536E+04 -2.804116E+03  1.916238E+04
       323  23 -1.107473E+06 -5.478299E+02 -1.316777E+04  6.372380E+04 -9.364860E+03  1.403727E+04
       323  24 -1.108274E+06 -4.138781E+03 -2.195744E+04  7.188692E+04 -1.592496E+04  8.986518E+03
       323  25 -1.368481E+06 -6.088240E+04 -5.358340E+04  7.237946E+04 -1.145851E+04  1.915976E+04
       323  26 -1.296115E+06 -4.470240E+04 -4.503549E+04  6.307176E+04 -1.789328E+04  1.403414E+04
       323  27 -1.225328E+06 -3.147591E+04 -4.142307E+04  7.008888E+04 -2.432809E+04  8.982912E+03
       324   1 -1.041509E+06  1.355060E+04 -1.725206E+04  6.645628E+04  1.101207E+04 -5.939043E+03
       324   2 -1.104283E+06 -2.115821E+04 -5.300163E+04  9.019135E+04  4.089769E+04 -1.885709E+03
       324   3 -1.184919E+06 -1.116597E+05 -1.221853E+05  1.301324E+05  7.078059E+04 -6.473325E+01
       324   4 -1.111737E+06 -2.721732E+03 -2.832823E+04  7.185663E+04  1.966158E+04 -5.934981E+03
       324   5 -1.103155E+06 -2.048922E+04 -5.063866E+04  6.376973E+04  4.579665E+04 -1.885204E+03
       324   6 -1.111786E+06 -9.339960E+04 -1.037738E+05  7.189328E+04  7.193230E+04 -7.085104E+01
       324   7 -1.181959E+06 -1.899416E+04 -3.940423E+04  7.725635E+04  2.831014E+04 -5.930767E+03
       324   8 -1.102026E+06 -1.981760E+04 -4.827522E+04  3.734810E+04  5.069562E+04 -1.885117E+03
       324   9 -1.038642E+06 -7.512717E+04 -8.536094E+04  1.364733E+04  7.308414E+04 -7.718464E+01
       324  10 -1.041509E+06  1.355053E+04 -1.725235E+04  6.645634E+04  2.915701E-10 -1.037568E-09
       324  11 -1.104285E+06 -2.115866E+04 -5.300478E+04  9.019141E+04  3.378799E-10 -1.340885E-09
       324  12 -1.184924E+06 -1.116610E+05 -1.221947E+05  1.301324E+05 -1.581191E-10 -3.692013E-10
       324  13 -1.111737E+06 -2.721873E+03 -2.832902E+04  7.185673E+04  1.332503E-09 -1.874431E-09
       324  14 -1.103157E+06 -2.048979E+04 -5.064261E+04  6.376980E+04 -9.703520E-10  9.599848E-10
       324  15 -1.111792E+06 -9.340099E+04 -1.037836E+05  7.189328E+04  1.615178E-10  2.931683E-11
       324  16 -1.181960E+06 -1.899441E+04 -3.940580E+04  7.725649E+04 -5.181782E-10  2.521318E-10
       324  17 -1.102028E+06 -1.981830E+04 -4.828006E+04  3.734817E+04 -8.653206E-10  9.730201E-10
       324  18 -1.038647E+06 -7.512861E+04 -8.537100E+04  1.364733E+04  4.904072E-10 -2.082093E-10
       324  19 -1.041509E+06  1.355060E+04 -1.725206E+04  6.645628E+04 -1.101207E+04  5.939043E+03
       324  20 -1.104283E+06 -2.115821E+04 -5.300163E+04  9.019135E+04 -4.089769E+04  1.885709E+03
       324  21 -1.184919E+06 -1.116597E+05 -1.221853E+05  1.301324E+05 -7.078059E+04  6.473325E+01
       324  22 -1.111737E+06 -2.721732E+03 -2.832823E+04  7.185663E+04 -1.966158E+04  5.934981E+03
       324  23 -1.103155E+06 -2.048922E+04 -5.063866E+04  6.376973E+04 -4.579665E+04  1.885204E+03
       324  24 -1.111786E+06 -9.339960E+04 -1.037738E+05  7.189328E+04 -7.193230E+04  7.085104E+01
       324  25 -1.181959E+06 -1.899416E+04 -3.940423E+04  7.725635E+04 -2.831014E+04  5.930767E+03
       324  26 -1.102026E+06 -1.981760E+04 -4.827522E+04  3.734810E+04 -5.069562E+04  1.885117E+03
       324  27 -1.038642E+06 -7.512717E+04 -8.536094E+04  1.364733E+04 -7.308414E+04  7.718464E+01
       325   1  2.510200E+05  2.281968E+05  2.111273E+05  1.445932E+05  4.089697E+04 -1.387422E+04
       325   2  8.048262E+04  2.114197E+05  1.583697E+05  1.407162E+05  8.100024E+03 -4.437275E+04
       325   3 -9.005040E+04  1.772720E+05  1.226360E+05  1.737833E+05 -2.469600E+04 -4.809721E+04
       325   4 -8.451220E+05 -4.283850E+04 -4.778180E+04  1.708628E+05 -3.278007E+04 -1.392418E+04
       325   5 -8.411387E+05 -9.345317E+03 -2.358473E+04  1.523708E+05 -2.058373E+04 -4.440183E+04
       325   6 -8.450037E+05 -1.051717E+03 -1.362204E+04  1.708289E+05 -8.396089E+03 -4.808563E+04
       325   7 -1.940146E+06 -3.139544E+05 -3.067533E+05  1.970853E+05 -1.063277E+05 -1.398044E+04
       325   8 -1.761944E+06 -2.301610E+05 -2.055776E+05  1.640075E+05 -4.922578E+04 -4.443201E+04
       325   9 -1.599401E+06 -1.794072E+05 -1.499014E+05  1.678779E+05  7.884548E+03 -4.807421E+04
       325  10  2.510182E+05  2.281962E+05  2.111238E+05  1.445937E+05  1.409457E-09 -3.861518E-10
       325  11  8.048202E+04  2.114176E+05  1.583659E+05  1.407165E+05  1.638805E-10 -1.933614E-09
       325  12 -9.005168E+04  1.772693E+05  1.226305E+05  1.737824E+05  3.303518E-10 -1.866597E-09
       325  13 -8.451232E+05 -4.283899E+04 -4.778419E+04  1.708624E+05 -3.255233E-11  1.761802E-10
       325  14 -8.411396E+05 -9.347547E+03 -2.358922E+04  1.523701E+05 -2.520056E-10 -1.478886E-09
       325  15 -8.450044E+05 -1.054218E+03 -1.362651E+04  1.708285E+05 -4.654201E-10 -2.623905E-10
       325  16 -1.940158E+06 -3.139577E+05 -3.067750E+05  1.970841E+05 -1.820279E-09 -1.526588E-10
       325  17 -1.761947E+06 -2.301637E+05 -2.055859E+05  1.640058E+05  9.001649E-10 -2.804024E-09
       325  18 -1.599402E+06 -1.794097E+05 -1.499058E+05  1.678782E+05  3.247177E-10 -2.957688E-09
       325  19  2.510200E+05  2.281968E+05  2.111273E+05  1.445932E+05 -4.089697E+04  1.387422E+04
       325  20  8.048262E+04  2.114197E+05  1.583697E+05  1.407162E+05 -8.100024E+03  4.437275E+04
       325  21 -9.005040E+04  1.772720E+05  1.226360E+05  1.737833E+05  2.469600E+04  4.809721E+04
       325  22 -8.451220E+05 -4.283850E+04 -4.778180E+04  1.708628E+05  3.278007E+04  1.392418E+04
       325  23 -8.411387E+05 -9.345317E+03 -2.358473E+04  1.523708E+05  2.058373E+04  4.440183E+04
       325  24 -8.450037E+05 -1.051717E+03 -1.362204E+04  1.708289E+05  8.396089E+03  4.808563E+04
       325  25 -1.940146E+06 -3.139544E+05 -3.067533E+05  1.970853E+05  1.063277E+05  1.398044E+04
       325  26 -1.761944E+06 -2.301610E+05 -2.055776E+05  1.640075E+05  4.922578E+04  4.443201E+04
       325  27 -1.599401E+06 -1.794072E+05 -1.499014E+05  1.678779E+05 -7.884548E+03  4.807421E+04
       326   1 -2.010146E+05  1.498737E+05  1.039350E+05  1.708224E+05 -1.981753E+04 -4.193544E+04
       326   2 -3.714667E+05  1.107987E+05  7.444577E+04  1.518475E+05 -1.987217E+04 -3.291100E+04
       326   3 -5.421208E+05  7.101006E+04  4.479738E+04  1.716163E+05 -1.993233E+04 -2.162167E+04
       326   4 -8.434285E+05 -1.650787E+03 -1.091811E+04  1.712316E+05 -6.557529E+03 -4.192480E+04
       326   5 -8.429568E+05  4.167131E+01 -7.536269E+03  1.518577E+05 -2.813111E+03 -3.289341E+04
       326   6 -8.433740E+05  3.616463E+02 -6.954612E+03  1.712294E+05  9.258327E+02 -2.159623E+04
       326   7 -1.485439E+06 -1.531981E+05 -1.257863E+05  1.716403E+05  6.689141E+03 -4.191413E+04
       326   8 -1.314228E+06 -1.107273E+05 -8.952502E+04  1.518677E+05  1.423338E+04 -3.287581E+04
       326   9 -1.144537E+06 -7.029139E+04 -5.870803E+04  1.708426E+05  2.177418E+04 -2.157080E+04
       326  10 -2.010155E+05  1.498717E+05  1.039310E+05  1.708217E+05 -2.901713E-09 -2.234200E-09
       326  11 -3.714675E+05  1.107975E+05  7.444300E+04  1.518470E+05 -1.499703E-09  7.317887E-10
       326  12 -5.421214E+05  7.100945E+04  4.479575E+04  1.716159E+05  8.875184E-10  1.151663E-09
       326  13 -8.434290E+05 -1.652685E+03 -1.092149E+04  1.712314E+05  4.045360E-10 -1.200244E-09
       326  14 -8.429571E+05  4.050781E+01 -7.538316E+03  1.518576E+05  5.171628E-10  3.198999E-10
       326  15 -8.433742E+05  3.611454E+02 -6.955490E+03  1.712294E+05  5.387646E-10 -1.055360E-09
       326  16 -1.485440E+06 -1.532000E+05 -1.257897E+05  1.716405E+05  2.232081E-09 -1.445524E-10
       326  17 -1.314229E+06 -1.107285E+05 -8.952743E+04  1.518681E+05  1.190632E-09  1.076769E-09
       326  18 -1.144538E+06 -7.029202E+04 -5.870980E+04  1.708430E+05 -2.964149E-10  3.615744E-10
       326  19 -2.010146E+05  1.498737E+05  1.039350E+05  1.708224E+05  1.981753E+04  4.193544E+04
       326  20 -3.714667E+05  1.107987E+05  7.444577E+04  1.518475E+05  1.987217E+04  3.291100E+04
       326  21 -5.421208E+05  7.101006E+04  4.479738E+04  1.716163E+05  1.993233E+04  2.162167E+04
       326  22 -8.434285E+05 -1.650787E+03 -1.091811E+04  1.712316E+05  6.557529E+03  4.192480E+04
       326  23 -8.429568E+05  4.167131E+01 -7.536269E+03  1.518577E+05  2.813111E+03  3.289341E+04
       326  24 -8.433740E+05  3.616463E+02 -6.954612E+03  1.712294E+05 -9.258327E+02  2.159623E+04
       326  25 -1.485439E+06 -1.531981E+05 -1.257863E+05  1.716403E+05 -6.689141E+03  4.191413E+04
       326  26 -1.314228E+06 -1.107273E+05 -8.952502E+04  1.518677E+05 -1.423338E+04  3.287581E+04
       326  27 -1.144537E+06 -7.029139E+04 -5.870803E+04  1.708426E+05 -2.177418E+04  2.157080E+04
       327   1 -6.536734E+05  4.478215E+04  2.442921E+04  1.709759E+05 -1.856761E+04 -1.426420E+04
       327   2 -8.234510E+05  4.189343E+03 -8.280964E+03  1.523271E+05 -1.144204E+04 -2.473745E+03
       327   3 -9.948772E+05 -3.902211E+04 -4.631747E+04  1.725116E+05 -4.317568E+03  8.162741E+03
       327   4 -8.434636E+05  4.106107E+02 -7.483906E+03  1.712486E+05  2.176343E+03 -1.423782E+04
       327   5 -8.427941E+05 -1.146842E+02 -1.043221E+04  1.518339E+05  7.362319E+03 -2.449690E+03
       327   6 -8.434642E+05 -2.920182E+03 -1.735884E+04  1.712527E+05  1.254905E+04  8.184486E+03
       327   7 -1.033217E+06 -4.396259E+04 -3.939654E+04  1.715211E+05  2.291415E+04 -1.421143E+04
       327   8 -8.621361E+05 -4.418534E+03 -1.258212E+04  1.513407E+05  2.616612E+04 -2.425665E+03
       327   9 -6.920285E+05  3.318055E+04  1.159982E+04  1.699935E+05  2.941969E+04  8.206159E+03
       327  10 -6.536739E+05  4.478184E+04  2.442818E+04  1.709757E+05 -1.416961E-09  2.061266E-09
       327  11 -8.234511E+05  4.189301E+03 -8.281222E+03  1.523271E+05 -2.568372E-10  1.367103E-09
       327  12 -9.948773E+05 -3.902219E+04 -4.631763E+04  1.725116E+05  2.325261E-09 -5.470962E-10
       327  13 -8.434636E+05  4.103918E+02 -7.484296E+03  1.712486E+05  5.910710E-10 -1.387016E-09
       327  14 -8.427942E+05 -1.147052E+02 -1.043232E+04  1.518339E+05  6.736478E-10  1.180470E-09
       327  15 -8.434644E+05 -2.920296E+03 -1.735926E+04  1.712526E+05  5.746198E-11  1.967513E-09
       327  16 -1.033218E+06 -4.396295E+04 -3.939791E+04  1.715214E+05  5.748390E-10  7.852751E-10
       327  17 -8.621368E+05 -4.418724E+03 -1.258342E+04  1.513407E+05  3.148890E-10  1.988185E-09
       327  18 -6.920295E+05  3.318025E+04  1.159806E+04  1.699933E+05 -1.366336E-09  5.606888E-10
       327  19 -6.536734E+05  4.478215E+04  2.442921E+04  1.709759E+05  1.856761E+04  1.426420E+04
       327  20 -8.234510E+05  4.189343E+03 -8.280964E+03  1.523271E+05  1.144204E+04  2.473745E+03
       327  21 -9.948772E+05 -3.902211E+04 -4.631747E+04  1.725116E+05  4.317568E+03 -8.162741E+03
       327  22 -8.434636E+05  4.106107E+02 -7.483906E+03  1.712486E+05 -2.176343E+03  1.423782E+04
       327  23 -8.427941E+05 -1.146842E+02 -1.043221E+04  1.518339E+05 -7.362319E+03  2.449690E+03
       327  24 -8.434642E+05 -2.920182E+03 -1.735884E+04  1.712527E+05 -1.254905E+04 -8.184486E+03
       327  25 -1.033217E+06 -4.396259E+04 -3.939654E+04  1.715211E+05 -2.291415E+04  1.421143E+04
       327  26 -8.621361E+05 -4.418534E+03 -1.258212E+04  1.513407E+05 -2.616612E+04  2.425665E+03
       327  27 -6.920285E+05  3.318055E+04  1.159982E+04  1.699935E+05 -2.941969E+04 -8.206159E+03
       328   1 -1.109612E+06 -6.449408E+04 -7.199751E+04  1.665110E+05 -3.101369E+03  1.491504E+04
       328   2 -1.271230E+06 -1.199450E+05 -1.280427E+05  1.726413E+05  4.331121E+04  1.837326E+04
       328   3 -1.450933E+06 -2.233448E+05 -2.263507E+05  2.166213E+05  8.972189E+04  6.470800E+03
       328   4 -8.461999E+05 -1.817431E+03 -2.238494E+04  1.710254E+05  1.549426E+04  1.493821E+04
       328   5 -8.394284E+05 -1.593067E+04 -4.000876E+04  1.521370E+05  3.614719E+04  1.836233E+04
       328   6 -8.462775E+05 -7.349619E+04 -8.197174E+04  1.711043E+05  5.681224E+04  6.426907E+03
       328   7 -5.827196E+05  6.085543E+04  2.722589E+04  1.755417E+05  3.409759E+04  1.496165E+04
       328   8 -4.074485E+05  8.807360E+04  4.801577E+04  1.316180E+05  2.897826E+04  1.835187E+04
       328   9 -2.412796E+05  7.633444E+04  6.238665E+04  1.255426E+05  2.387059E+04  6.387876E+03
       328  10 -1.109612E+06 -6.449432E+04 -7.199794E+04  1.665110E+05  7.922674E-10 -5.766329E-10
       328  11 -1.271232E+06 -1.199458E+05 -1.280468E+05  1.726406E+05 -9.571343E-10  2.508341E-09
       328  12 -1.450941E+06 -2.233471E+05 -2.263659E+05  2.166208E+05  1.454213E-10  9.002104E-10
       328  13 -8.462002E+05 -1.817735E+03 -2.238581E+04  1.710252E+05 -2.563540E-11 -1.469527E-10
       328  14 -8.394299E+05 -1.593138E+04 -4.001185E+04  1.521364E+05 -8.845617E-10  2.489323E-09
       328  15 -8.462810E+05 -7.349711E+04 -8.197789E+04  1.711041E+05  2.149098E-10 -4.226346E-10
       328  16 -5.827209E+05  6.085488E+04  2.722329E+04  1.755413E+05 -1.382013E-09  6.579500E-10
       328  17 -4.074494E+05  8.807302E+04  4.801356E+04  1.316176E+05 -3.923192E-10  4.860927E-10
       328  18 -2.412802E+05  7.633425E+04  6.238550E+04  1.255425E+05 -1.065869E-10 -1.612784E-10
       328  19 -1.109612E+06 -6.449408E+04 -7.199751E+04  1.665110E+05  3.101369E+03 -1.491504E+04
       328  20 -1.271230E+06 -1.199450E+05 -1.280427E+05  1.726413E+05 -4.331121E+04 -1.837326E+04
       328  21 -1.450933E+06 -2.233448E+05 -2.263507E+05  2.166213E+05 -8.972189E+04 -6.470800E+03
       328  22 -8.461999E+05 -1.817431E+03 -2.238494E+04  1.710254E+05 -1.549426E+04 -1.493821E+04
       328  23 -8.394284E+05 -1.593067E+04 -4.000876E+04  1.521370E+05 -3.614719E+04 -1.836233E+04
       328  24 -8.462775E+05 -7.349619E+04 -8.197174E+04  1.711043E+05 -5.681224E+04 -6.426907E+03
       328  25 -5.827196E+05  6.085543E+04  2.722589E+04  1.755417E+05 -3.409759E+04 -1.496165E+04
       328  26 -4.074485E+05  8.807360E+04  4.801577E+04  1.316180E+05 -2.897826E+04 -1.835187E+04
       328  27 -2.412796E+05  7.633444E+04  6.238665E+04  1.255426E+05 -2.387059E+04 -6.387876E+03
       329   1  3.119956E+05  1.936646E+05  1.833787E+05  1.505506E+05  4.450007E+04 -9.953852E+03
       329   2  1.536251E+05  1.577947E+05  1.264383E+05  1.371081E+05  1.346980E+04 -3.119444E+04
       329   3 -8.260200E+02  1.214773E+05  8.958661E+04  1.578628E+05 -1.756913E+04 -3.204607E+04
       329   4 -5.145599E+05 -1.078484E+04 -1.233619E+04  1.567928E+05 -8.264035E+03 -1.001263E+04
       329   5 -5.134994E+05 -2.180015E+03 -6.234759E+03  1.396867E+05 -5.023537E+03 -3.121953E+04
       329   6 -5.144898E+05  2.856080E+01 -3.841305E+03  1.567802E+05 -1.799331E+03 -3.202705E+04
       329   7 -1.340481E+06 -2.152817E+05 -2.080881E+05  1.630265E+05 -6.095828E+04 -1.007251E+04
       329   8 -1.180198E+06 -1.621817E+05 -1.389288E+05  1.422623E+05 -2.349741E+04 -3.124479E+04
       329   9 -1.027896E+06 -1.214349E+05 -9.727883E+04  1.556985E+05  1.395778E+04 -3.200809E+04
       329  10  3.119934E+05  1.936640E+05  1.833748E+05  1.505509E+05 -1.791178E-09 -1.208773E-09
       329  11  1.536246E+05  1.577936E+05  1.264362E+05  1.371084E+05  8.180438E-09 -1.402970E-09
       329  12 -8.266269E+02  1.214761E+05  8.958410E+04  1.578623E+05  1.906175E-08 -4.568135E-10
       329  13 -5.145600E+05 -1.078497E+04 -1.233651E+04  1.567928E+05 -6.363592E-10  1.351256E-09
       329  14 -5.134997E+05 -2.181068E+03 -6.236637E+03  1.396866E+05  6.055181E-10 -6.491173E-10
       329  15 -5.144901E+05  2.745876E+01 -3.843238E+03  1.567802E+05  7.899447E-10 -4.485900E-10
       329  16 -1.340485E+06 -2.152828E+05 -2.080953E+05  1.630260E+05  9.845259E-10  1.128550E-10
       329  17 -1.180198E+06 -1.621829E+05 -1.389316E+05  1.422617E+05 -8.708579E-09 -9.771024E-10
       329  18 -1.027897E+06 -1.214360E+05 -9.728113E+04  1.556989E+05 -1.835840E-08  2.173393E-10
       329  19  3.119956E+05  1.936646E+05  1.833787E+05  1.505506E+05 -4.450007E+04  9.953852E+03
       329  20  1.536251E+05  1.577947E+05  1.264383E+05  1.371081E+05 -1.346980E+04  3.119444E+04
       329  21 -8.260200E+02  1.214773E+05  8.958661E+04  1.578628E+05  1.756913E+04  3.204607E+04
       329  22 -5.145599E+05 -1.078484E+04 -1.233619E+04  1.567928E+05  8.264035E+03  1.001263E+04
       329  23 -5.134994E+05 -2.180015E+03 -6.234759E+03  1.396867E+05  5.023537E+03  3.121953E+04
       329  24 -5.144898E+05  2.856080E+01 -3.841305E+03  1.567802E+05  1.799331E+03  3.202705E+04
       329  25 -1.340481E+06 -2.152817E+05 -2.080881E+05  1.630265E+05  6.095828E+04  1.007251E+04
       329  26 -1.180198E+06 -1.621817E+05 -1.389288E+05  1.422623E+05  2.349741E+04  3.124479E+04
       329  27 -1.027896E+06 -1.214349E+05 -9.727883E+04  1.556985E+05 -1.395778E+04  3.200809E+04
       330   1 -1.034010E+05  9.687765E+04  7.081790E+04  1.572100E+05 -1.472111E+04 -2.618697E+04
       330   2 -2.598049E+05  6.008110E+04  4.184066E+04  1.394075E+05 -1.616085E+04 -1.734051E+04
       330   3 -4.160522E+05  2.344124E+04  1.381392E+04  1.571362E+05 -1.760391E+04 -6.821912E+03
       330   4 -5.140950E+05 -1.060195E+02 -3.271104E+03  1.570779E+05 -1.261775E+03 -2.616964E+04
       330   5 -5.139043E+05  3.172280E+02 -2.771229E+03  1.393115E+05  1.048047E+02 -1.731785E+04
       330   6 -5.140687E+05  4.107756E+02 -3.270926E+03  1.570772E+05  1.467709E+03 -6.793537E+03
       330   7 -9.246242E+05 -9.709903E+04 -7.736602E+04  1.569457E+05  1.218890E+04 -2.615232E+04
       330   8 -7.679400E+05 -5.945002E+04 -4.738446E+04  1.392154E+05  1.636399E+04 -1.729519E+04
       330   9 -6.120749E+05 -2.262002E+04 -2.035474E+04  1.570183E+05  2.053641E+04 -6.765163E+03
       330  10 -1.034014E+05  9.687686E+04  7.081620E+04  1.572097E+05 -2.239279E-08  2.146689E-09
       330  11 -2.598053E+05  6.008070E+04  4.183961E+04  1.394073E+05 -1.114269E-08  5.568548E-10
       330  12 -4.160525E+05  2.344111E+04  1.381325E+04  1.571361E+05  3.481100E-09  2.258902E-10
       330  13 -5.140951E+05 -1.067551E+02 -3.272394E+03  1.570779E+05  5.735859E-10  4.940878E-10
       330  14 -5.139044E+05  3.169060E+02 -2.771793E+03  1.393115E+05  8.563230E-10  3.414171E-10
       330  15 -5.140687E+05  4.107255E+02 -3.271017E+03  1.570772E+05  6.778163E-10  7.006861E-10
       330  16 -9.246245E+05 -9.709980E+04 -7.736758E+04  1.569460E+05  2.230056E-08  1.554465E-09
       330  17 -7.679403E+05 -5.945042E+04 -4.738552E+04  1.392157E+05  1.192179E-08 -3.596539E-09
       330  18 -6.120754E+05 -2.262018E+04 -2.035562E+04  1.570184E+05 -2.375389E-09 -8.195067E-10
       330  19 -1.034010E+05  9.687765E+04  7.081790E+04  1.572100E+05  1.472111E+04  2.618697E+04
       330  20 -2.598049E+05  6.008110E+04  4.184066E+04  1.394075E+05  1.616085E+04  1.734051E+04
       330  21 -4.160522E+05  2.344124E+04  1.381392E+04  1.571362E+05  1.760391E+04  6.821912E+03
       330  22 -5.140950E+05 -1.060195E+02 -3.271104E+03  1.570779E+05  1.261775E+03  2.616964E+04
       330  23 -5.139043E+05  3.172280E+02 -2.771229E+03  1.393115E+05 -1.048047E+02  1.731785E+04
       330  24 -5.140687E+05  4.107756E+02 -3.270926E+03  1.570772E+05 -1.467709E+03  6.793537E+03
       330  25 -9.246242E+05 -9.709903E+04 -7.736602E+04  1.569457E+05 -1.218890E+04  2.615232E+04
       330  26 -7.679400E+05 -5.945002E+04 -4.738446E+04  1.392154E+05 -1.636399E+04  1.729519E+04
       330  27 -6.120749E+05 -2.262002E+04 -2.035474E+04  1.570183E+05 -2.053641E+04  6.765163E+03
       331   1 -5.182772E+05 -5.861652E+02 -4.971306E+03  1.567484E+05 -1.696670E+04 -8.181318E+01
       331   2 -6.739510E+05 -3.770487E+04 -3.466108E+04  1.394101E+05 -1.146837E+04  1.054266E+04
       331   3 -8.308689E+05 -7.663388E+04 -6.841556E+04  1.576210E+05 -5.968682E+03  1.970700E+04
       331   4 -5.141755E+05  4.533969E+02 -3.883831E+03  1.570805E+05  2.081866E+03 -5.328838E+01
       331   5 -5.137624E+05  5.902633E+01 -6.136070E+03  1.393078E+05  5.127697E+03  1.056656E+04
       331   6 -5.141932E+05 -1.718729E+03 -1.074906E+04  1.570837E+05  8.176245E+03  1.972650E+04
       331   7 -5.100729E+05  1.493153E+03 -2.794993E+03  1.574127E+05  2.113056E+04 -2.474328E+01
       331   8 -3.535482E+05  3.782165E+04  2.238901E+04  1.392054E+05  2.172793E+04  1.059045E+04
       331   9 -1.974194E+05  7.319087E+04  4.691417E+04  1.565460E+05  2.232820E+04  1.974597E+04
       331  10 -5.182776E+05 -5.862425E+02 -4.971847E+03  1.567484E+05 -2.512824E-09  2.318431E-09
       331  11 -6.739511E+05 -3.770503E+04 -3.466154E+04  1.394102E+05  1.298923E-10  3.553620E-10
       331  12 -8.308691E+05 -7.663431E+04 -6.841636E+04  1.576211E+05  2.996707E-09  1.498925E-09
       331  13 -5.141755E+05  4.533957E+02 -3.883839E+03  1.570805E+05  2.341994E-10  9.056585E-10
       331  14 -5.137625E+05  5.889942E+01 -6.136329E+03  1.393077E+05  7.181111E-10  1.703389E-09
       331  15 -5.141934E+05 -1.719164E+03 -1.074992E+04  1.570835E+05 -7.214489E-11  6.603345E-11
       331  16 -5.100734E+05  1.493033E+03 -2.795833E+03  1.574127E+05  2.081709E-09  1.171937E-09
       331  17 -3.535487E+05  3.782141E+04  2.238791E+04  1.392052E+05  5.731802E-10  1.074713E-09
       331  18 -1.974201E+05  7.319032E+04  4.691250E+04  1.565456E+05 -2.740780E-09 -2.655641E-09
       331  19 -5.182772E+05 -5.861652E+02 -4.971306E+03  1.567484E+05  1.696670E+04  8.181318E+01
       331  20 -6.739510E+05 -3.770487E+04 -3.466108E+04  1.394101E+05  1.146837E+04 -1.054266E+04
       331  21 -8.308689E+05 -7.663388E+04 -6.841556E+04  1.576210E+05  5.968682E+03 -1.970700E+04
       331  22 -5.141755E+05  4.533969E+02 -3.883831E+03  1.570805E+05 -2.081866E+03  5.328838E+01
       331  23 -5.137624E+05  5.902633E+01 -6.136070E+03  1.393078E+05 -5.127697E+03 -1.056656E+04
       331  24 -5.141932E+05 -1.718729E+03 -1.074906E+04  1.570837E+05 -8.176245E+03 -1.972650E+04
       331  25 -5.100729E+05  1.493153E+03 -2.794993E+03  1.574127E+05 -2.113056E+04  2.474328E+01
       331  26 -3.535482E+05  3.782165E+04  2.238901E+04  1.392054E+05 -2.172793E+04 -1.059045E+04
       331  27 -1.974194E+05  7.319087E+04  4.691417E+04  1.565460E+05 -2.232820E+04 -1.974597E+04
       332   1 -9.354053E+05 -1.003764E+05 -9.087476E+04  1.536656E+05 -6.201966E+03  2.567732E+04
       332   2 -1.084791E+06 -1.476657E+05 -1.400279E+05  1.523581E+05  3.743139E+04  2.628010E+04
       332   3 -1.248116E+06 -2.278007E+05 -2.258443E+05  1.854177E+05  8.106970E+04  8.662750E+03
       332   4 -5.159378E+05 -1.030326E+03 -1.401125E+04  1.568145E+05  1.000074E+04  2.569848E+04
       332   5 -5.116558E+05 -1.002739E+04 -2.530873E+04  1.396577E+05  2.307427E+04  2.625897E+04
       332   6 -5.160074E+05 -4.654088E+04 -5.201457E+04  1.568704E+05  3.616430E+04  8.604796E+03
       332   7 -9.629875E+04  9.830589E+04  6.284607E+04  1.599654E+05  2.621410E+04  2.571979E+04
       332   8  6.179462E+04  1.275915E+05  8.939475E+04  1.269453E+05  8.704120E+03  2.623843E+04
       332   9  2.165998E+05  1.346846E+05  1.217858E+05  1.282890E+05 -8.793893E+03  8.551020E+03
       332  10 -9.354055E+05 -1.003771E+05 -9.087607E+04  1.536658E+05 -8.827764E-10  1.431618E-09
       332  11 -1.084793E+06 -1.476669E+05 -1.400319E+05  1.523573E+05 -3.058166E-10 -5.788256E-10
       332  12 -1.248123E+06 -2.278026E+05 -2.258569E+05  1.854171E+05  5.915763E-10 -7.123334E-10
       332  13 -5.159381E+05 -1.031062E+03 -1.401268E+04  1.568143E+05 -8.868643E-10  2.801464E-09
       332  14 -5.116566E+05 -1.002827E+04 -2.531102E+04  1.396572E+05  1.312279E-09 -2.875840E-09
       332  15 -5.160089E+05 -4.654132E+04 -5.201717E+04  1.568701E+05  9.469927E-11  1.835777E-09
       332  16 -9.629966E+04  9.830500E+04  6.284353E+04  1.599649E+05  6.373258E-11  1.981158E-10
       332  17  6.179435E+04  1.275907E+05  8.939331E+04  1.269451E+05  9.358824E-11  1.051711E-09
       332  18  2.165997E+05  1.346845E+05  1.217856E+05  1.282891E+05 -1.036664E-10 -1.633746E-10
       332  19 -9.354053E+05 -1.003764E+05 -9.087476E+04  1.536656E+05  6.201966E+03 -2.567732E+04
       332  20 -1.084791E+06 -1.476657E+05 -1.400279E+05  1.523581E+05 -3.743139E+04 -2.628010E+04
       332  21 -1.248116E+06 -2.278007E+05 -2.258443E+05  1.854177E+05 -8.106970E+04 -8.662750E+03
       332  22 -5.159378E+05 -1.030326E+03 -1.401125E+04  1.568145E+05 -1.000074E+04 -2.569848E+04
       332  23 -5.116558E+05 -1.002739E+04 -2.530873E+04  1.396577E+05 -2.307427E+04 -2.625897E+04
       332  24 -5.160074E+05 -4.654088E+04 -5.201457E+04  1.568704E+05 -3.616430E+04 -8.604796E+03
       332  25 -9.629875E+04  9.830589E+04  6.284607E+04  1.599654E+05 -2.621410E+04 -2.571979E+04
       332  26  6.179462E+04  1.275915E+05  8.939475E+04  1.269453E+05 -8.704120E+03 -2.623843E+04
       332  27  2.165998E+05  1.346846E+05  1.217858E+05  1.282890E+05  8.793893E+03 -8.551020E+03
       333   1  2.085181E+05  1.165897E+05  1.124376E+05  1.068997E+05  3.103546E+04 -5.096524E+03
       333   2  1.035237E+05  8.412594E+04  7.187693E+04  9.372569E+04  1.082245E+04 -1.550812E+04
       333   3  2.727616E+03  5.805132E+04  4.606747E+04  1.032059E+05 -9.397123E+03 -1.470478E+04
       333   4 -2.407713E+05  5.381280E+03  5.724247E+03  1.033179E+05  4.153295E+03 -5.126188E+03
       333   5 -2.412191E+05  1.325524E+03  2.660419E+03  9.199331E+04  2.788817E+03 -1.551800E+04
       333   6 -2.407490E+05  3.894015E+02  1.261559E+03  1.033234E+05  1.414268E+03 -1.469215E+04
       333   7 -6.898738E+05 -1.058412E+05 -1.010005E+05  9.973856E+04 -2.270952E+04 -5.155554E+03
       333   8 -5.858484E+05 -8.148218E+04 -6.656190E+04  9.026188E+04 -5.240441E+03 -1.552785E+04
       333   9 -4.841678E+05 -5.727583E+04 -4.354636E+04  1.034408E+05  1.222153E+04 -1.467952E+04
       333  10  2.085171E+05  1.165894E+05  1.124357E+05  1.068998E+05 -3.733503E-09  3.749668E-10
       333  11  1.035235E+05  8.412565E+04  7.187626E+04  9.372582E+04 -1.852737E-09  3.028680E-09
       333  12  2.727463E+03  5.805106E+04  4.606690E+04  1.032058E+05  2.140214E-09 -1.865795E-10
       333  13 -2.407713E+05  5.381247E+03  5.724166E+03  1.033179E+05  4.361834E-10 -1.185120E-09
       333  14 -2.412192E+05  1.325263E+03  2.659952E+03  9.199335E+04  4.323590E-10 -3.989397E-09
       333  15 -2.407490E+05  3.891692E+02  1.261149E+03  1.033234E+05  5.274146E-10 -3.215846E-10
       333  16 -6.898744E+05 -1.058414E+05 -1.010015E+05  9.973847E+04  2.834169E-09 -2.218138E-10
       333  17 -5.858485E+05 -8.148245E+04 -6.656240E+04  9.026181E+04  4.123942E-10  1.633909E-09
       333  18 -4.841680E+05 -5.727610E+04 -4.354704E+04  1.034410E+05 -1.418000E-09 -1.214024E-09
       333  19  2.085181E+05  1.165897E+05  1.124376E+05  1.068997E+05 -3.103546E+04  5.096524E+03
       333  20  1.035237E+05  8.412594E+04  7.187693E+04  9.372569E+04 -1.082245E+04  1.550812E+04
       333  21  2.727616E+03  5.805132E+04  4.606747E+04  1.032059E+05  9.397123E+03  1.470478E+04
       333  22 -2.407713E+05  5.381280E+03  5.724247E+03  1.033179E+05 -4.153295E+03  5.126188E+03
       333  23 -2.412191E+05  1.325524E+03  2.660419E+03  9.199331E+04 -2.788817E+03  1.551800E+04
       333  24 -2.407490E+05  3.894015E+02  1.261559E+03  1.033234E+05 -1.414268E+03  1.469215E+04
       333  25 -6.898738E+05 -1.058412E+05 -1.010005E+05  9.973856E+04  2.270952E+04  5.155554E+03
       333  26 -5.858484E+05 -8.148218E+04 -6.656190E+04  9.026188E+04  5.240441E+03  1.552785E+04
       333  27 -4.841678E+05 -5.727583E+04 -4.354636E+04  1.034408E+05 -1.222153E+04  1.467952E+04
       334   1 -6.509567E+04  4.210390E+04  3.302792E+04  1.036971E+05 -8.276603E+03 -1.074012E+04
       334   2 -1.680424E+05  1.748739E+04  1.315423E+04  9.183548E+04 -9.755967E+03 -4.616837E+03
       334   3 -2.707369E+05 -6.694892E+03 -5.664334E+03  1.033548E+05 -1.123631E+04  2.393148E+03
       334   4 -2.409515E+05  4.793832E+02  7.922514E+02  1.034841E+05  1.267569E+03 -1.072858E+04
       334   5 -2.409400E+05  2.660644E+02 -3.809158E+01  9.179370E+04  1.276857E+03 -4.603198E+03
       334   6 -2.409467E+05  2.285895E+02 -8.477619E+02  1.034844E+05  1.284909E+03  2.408952E+03
       334   7 -4.167772E+05 -4.114684E+04 -3.144434E+04  1.032712E+05  1.080911E+04 -1.071704E+04
       334   8 -3.138322E+05 -1.695549E+04 -1.323016E+04  9.175193E+04  1.230842E+04 -4.589560E+03
       334   9 -2.111553E+05  7.152110E+03  3.969376E+03  1.036140E+05  1.380671E+04  2.424762E+03
       334  10 -6.509578E+04  4.210376E+04  3.302757E+04  1.036970E+05 -3.031783E-08 -2.361621E-09
       334  11 -1.680425E+05  1.748734E+04  1.315401E+04  9.183544E+04  1.080246E-08 -1.919359E-09
       334  12 -2.707371E+05 -6.694932E+03 -5.664582E+03  1.033548E+05  5.275266E-08  1.493554E-09
       334  13 -2.409516E+05  4.792592E+02  7.920320E+02  1.034841E+05 -4.302429E-10  2.965689E-09
       334  14 -2.409400E+05  2.660412E+02 -3.813447E+01  9.179371E+04  9.366233E-10 -8.542001E-09
       334  15 -2.409467E+05  2.285829E+02 -8.477759E+02  1.034844E+05 -4.805405E-10  1.550626E-09
       334  16 -4.167773E+05 -4.114700E+04 -3.144477E+04  1.032713E+05  3.007099E-08 -3.993317E-09
       334  17 -3.138324E+05 -1.695555E+04 -1.323049E+04  9.175198E+04 -1.118916E-08 -2.952777E-09
       334  18 -2.111555E+05  7.152053E+03  3.969006E+03  1.036140E+05 -5.235408E-08  1.047959E-10
       334  19 -6.509567E+04  4.210390E+04  3.302792E+04  1.036971E+05  8.276603E+03  1.074012E+04
       334  20 -1.680424E+05  1.748739E+04  1.315423E+04  9.183548E+04  9.755967E+03  4.616837E+03
       334  21 -2.707369E+05 -6.694892E+03 -5.664334E+03  1.033548E+05  1.123631E+04 -2.393148E+03
       334  22 -2.409515E+05  4.793832E+02  7.922514E+02  1.034841E+05 -1.267569E+03  1.072858E+04
       334  23 -2.409400E+05  2.660644E+02 -3.809158E+01  9.179370E+04 -1.276857E+03  4.603198E+03
       334  24 -2.409467E+05  2.285895E+02 -8.477619E+02  1.034844E+05 -1.284909E+03 -2.408952E+03
       334  25 -4.167772E+05 -4.114684E+04 -3.144434E+04  1.032712E+05 -1.080911E+04  1.071704E+04
       334  26 -3.138322E+05 -1.695549E+04 -1.323016E+04  9.175193E+04 -1.230842E+04  4.589560E+03
       334  27 -2.111553E+05  7.152110E+03  3.969376E+03  1.036140E+05 -1.380671E+04 -2.424762E+03
       335   1 -3.379785E+05 -2.249198E+04 -1.809158E+04  1.032028E+05 -1.108127E+04  6.824854E+03
       335   2 -4.404149E+05 -4.686877E+04 -3.757031E+04  9.173265E+04 -7.786222E+03  1.371641E+04
       335   3 -5.435753E+05 -7.223685E+04 -5.945996E+04  1.036252E+05 -4.489534E+03  1.943495E+04
       335   4 -2.410311E+05  2.576859E+02 -1.326601E+03  1.034800E+05  1.469051E+03  6.840524E+03
       335   5 -2.408428E+05  4.136919E+01 -2.670237E+03  9.179953E+04  2.794161E+03  1.372883E+04
       335   6 -2.410449E+05 -8.229986E+02 -5.055532E+03  1.034813E+05  4.121401E+03  1.944431E+04
       335   7 -1.440741E+05  2.300693E+04  1.543865E+04  1.037573E+05  1.402127E+04  6.856204E+03
       335   8 -4.123147E+04  4.694940E+04  3.222883E+04  9.186642E+04  1.337784E+04  1.374125E+04
       335   9  6.157490E+04  7.058579E+04  4.934563E+04  1.033373E+05  1.273642E+04  1.945367E+04
       335  10 -3.379786E+05 -2.249206E+04 -1.809190E+04  1.032029E+05 -2.282485E-08 -2.558323E-09
       335  11 -4.404150E+05 -4.686899E+04 -3.757077E+04  9.173274E+04  1.608308E-09 -2.488651E-09
       335  12 -5.435754E+05 -7.223726E+04 -5.946071E+04  1.036253E+05  2.825264E-08 -7.186229E-12
       335  13 -2.410311E+05  2.576350E+02 -1.326693E+03  1.034800E+05 -5.498889E-10 -7.736470E-10
       335  14 -2.408429E+05  4.116473E+01 -2.670606E+03  9.179950E+04 -3.402118E-11 -1.368060E-09
       335  15 -2.410450E+05 -8.234091E+02 -5.056274E+03  1.034812E+05  2.516689E-11 -9.965114E-10
       335  16 -1.440743E+05  2.300682E+04  1.543819E+04  1.037572E+05  2.194390E-08 -1.415370E-09
       335  17 -4.123171E+04  4.694915E+04  3.222814E+04  9.186627E+04 -1.962754E-09  1.400914E-09
       335  18  6.157463E+04  7.058534E+04  4.934462E+04  1.033371E+05 -2.746737E-08  2.496311E-09
       335  19 -3.379785E+05 -2.249198E+04 -1.809158E+04  1.032028E+05  1.108127E+04 -6.824854E+03
       335  20 -4.404149E+05 -4.686877E+04 -3.757031E+04  9.173265E+04  7.786222E+03 -1.371641E+04
       335  21 -5.435753E+05 -7.223685E+04 -5.945996E+04  1.036252E+05  4.489534E+03 -1.943495E+04
       335  22 -2.410311E+05  2.576859E+02 -1.326601E+03  1.034800E+05 -1.469051E+03 -6.840524E+03
       335  23 -2.408428E+05  4.136919E+01 -2.670237E+03  9.179953E+04 -2.794161E+03 -1.372883E+04
       335  24 -2.410449E+05 -8.229986E+02 -5.055532E+03  1.034813E+05 -4.121401E+03 -1.944431E+04
       335  25 -1.440741E+05  2.300693E+04  1.543865E+04  1.037573E+05 -1.402127E+04 -6.856204E+03
       335  26 -4.123147E+04  4.694940E+04  3.222883E+04  9.186642E+04 -1.337784E+04 -1.374125E+04
       335  27  6.157490E+04  7.058579E+04  4.934563E+04  1.033373E+05 -1.273642E+04 -1.945367E+04
       336   1 -6.121461E+05 -8.801489E+04 -7.386574E+04  1.016283E+05 -5.234504E+03  2.324745E+04
       336   2 -7.108565E+05 -1.178124E+05 -1.057407E+05  9.812889E+04  2.489111E+04  2.227803E+04
       336   3 -8.178893E+05 -1.651240E+05 -1.616261E+05  1.170774E+05  5.502211E+04  7.132371E+03
       336   4 -2.418986E+05 -4.893344E+02 -6.690056E+03  1.032753E+05  4.981735E+03  2.325795E+04
       336   5 -2.398188E+05 -4.870859E+03 -1.225648E+04  9.206245E+04  1.131722E+04  2.226212E+04
       336   6 -2.419325E+05 -2.262609E+04 -2.529751E+04  1.032981E+05  1.766361E+04  7.094237E+03
       336   7  1.284827E+05  8.702858E+04  6.048058E+04  1.049233E+05  1.520390E+04  2.326851E+04
       336   8  2.314319E+05  1.080574E+05  8.121748E+04  8.599124E+04 -2.266769E+03  2.224650E+04
       336   9  3.343330E+05  1.198495E+05  1.110134E+05  8.950576E+04 -1.972940E+04  7.057783E+03
       336  10 -6.121463E+05 -8.801548E+04 -7.386680E+04  1.016284E+05  1.197224E-08 -1.674629E-09
       336  11 -7.108573E+05 -1.178131E+05 -1.057428E+05  9.812845E+04 -9.195899E-09 -1.584025E-09
       336  12 -8.178926E+05 -1.651249E+05 -1.616318E+05  1.170771E+05 -2.603901E-08 -1.005245E-09
       336  13 -2.418987E+05 -4.899218E+02 -6.691119E+03  1.032752E+05  1.237070E-11  1.515698E-09
       336  14 -2.398190E+05 -4.871425E+03 -1.225765E+04  9.206225E+04  4.242311E-10 -3.124754E-09
       336  15 -2.419328E+05 -2.262623E+04 -2.529819E+04  1.032980E+05  5.248946E-10 -9.771396E-10
       336  16  1.284823E+05  8.702794E+04  6.047913E+04  1.049230E+05 -1.245107E-08  1.002421E-09
       336  17  2.314317E+05  1.080568E+05  8.121654E+04  8.599128E+04  8.364959E-09  2.043373E-09
       336  18  3.343325E+05  1.198493E+05  1.110125E+05  8.950588E+04  2.652404E-08 -3.541186E-10
       336  19 -6.121461E+05 -8.801489E+04 -7.386574E+04  1.016283E+05  5.234504E+03 -2.324745E+04
       336  20 -7.108565E+05 -1.178124E+05 -1.057407E+05  9.812889E+04 -2.489111E+04 -2.227803E+04
       336  21 -8.178893E+05 -1.651240E+05 -1.616261E+05  1.170774E+05 -5.502211E+04 -7.132371E+03
       336  22 -2.418986E+05 -4.893344E+02 -6.690056E+03  1.032753E+05 -4.981735E+03 -2.325795E+04
       336  23 -2.398188E+05 -4.870859E+03 -1.225648E+04  9.206245E+04 -1.131722E+04 -2.226212E+04
       336  24 -2.419325E+05 -2.262609E+04 -2.529751E+04  1.032981E+05 -1.766361E+04 -7.094237E+03
       336  25  1.284827E+05  8.702858E+04  6.048058E+04  1.049233E+05 -1.520390E+04 -2.326851E+04
       336  26  2.314319E+05  1.080574E+05  8.121748E+04  8.599124E+04  2.266769E+03 -2.224650E+04
       336  27  3.343330E+05  1.198495E+05  1.110134E+05  8.950576E+04  1.972940E+04 -7.057783E+03
       337   1  8.550249E+04  4.840134E+04  4.797378E+04  5.524802E+04  1.539400E+04 -1.554222E+03
       337   2  3.509540E+04  2.802410E+04  2.712327E+04  4.656109E+04  6.034029E+03 -4.359828E+03
       337   3 -1.242038E+04  1.440663E+04  1.405300E+04  4.874930E+04 -3.328151E+03 -3.153488E+03
       337   4 -7.133103E+04  9.523975E+03  1.047820E+04  4.925854E+04  7.322616E+03 -1.561380E+03
       337   5 -7.218882E+04  2.151647E+03  5.075119E+03  4.382499E+04  4.704086E+03 -4.361084E+03
       337   6 -7.132795E+04  3.694382E+02  2.771516E+03  4.926638E+04  2.082477E+03 -3.148621E+03
       337   7 -2.281418E+05 -2.935501E+04 -2.701886E+04  4.327057E+04 -7.467359E+02 -1.568383E+03
       337   8 -1.794621E+05 -2.372150E+04 -1.697363E+04  4.108936E+04  3.374368E+03 -4.362328E+03
       337   9 -1.302321E+05 -1.366794E+04 -8.510018E+03  4.978341E+04  7.492603E+03 -3.143746E+03
       337  10  8.550224E+04  4.840127E+04  4.797333E+04  5.524804E+04 -9.850102E-09 -2.163827E-10
       337  11  3.509535E+04  2.802407E+04  2.712316E+04  4.656112E+04  1.748596E-08  8.598578E-10
       337  12 -1.242039E+04  1.440662E+04  1.405296E+04  4.874929E+04  4.346801E-08 -1.401833E-10
       337  13 -7.133108E+04  9.523958E+03  1.047809E+04  4.925855E+04 -5.921473E-10  2.687865E-09
       337  14 -7.218884E+04  2.151621E+03  5.075042E+03  4.382500E+04 -5.377875E-11 -1.153095E-09
       337  15 -7.132796E+04  3.694264E+02  2.771489E+03  4.926639E+04 -1.232782E-10  1.518651E-09
       337  16 -2.281418E+05 -2.935501E+04 -2.701886E+04  4.327057E+04  9.626850E-09 -9.813660E-11
       337  17 -1.794621E+05 -2.372153E+04 -1.697369E+04  4.108937E+04 -1.814375E-08 -1.723353E-09
       337  18 -1.302322E+05 -1.366797E+04 -8.510142E+03  4.978343E+04 -4.360075E-08  1.110753E-09
       337  19  8.550249E+04  4.840134E+04  4.797378E+04  5.524802E+04 -1.539400E+04  1.554222E+03
       337  20  3.509540E+04  2.802410E+04  2.712327E+04  4.656109E+04 -6.034029E+03  4.359828E+03
       337  21 -1.242038E+04  1.440663E+04  1.405300E+04  4.874930E+04  3.328151E+03  3.153488E+03
       337  22 -7.133103E+04  9.523975E+03  1.047820E+04  4.925854E+04 -7.322616E+03  1.561380E+03
       337  23 -7.218882E+04  2.151647E+03  5.075119E+03  4.382499E+04 -4.704086E+03  4.361084E+03
       337  24 -7.132795E+04  3.694382E+02  2.771516E+03  4.926638E+04 -2.082477E+03  3.148621E+03
       337  25 -2.281418E+05 -2.935501E+04 -2.701886E+04  4.327057E+04  7.467359E+02  1.568383E+03
       337  26 -1.794621E+05 -2.372150E+04 -1.697363E+04  4.108936E+04 -3.374368E+03  4.362328E+03
       337  27 -1.302321E+05 -1.366794E+04 -8.510018E+03  4.978341E+04 -7.492603E+03  3.143746E+03
       338   1 -4.488982E+04  6.950674E+03  7.482657E+03  4.950668E+04 -3.237898E+03 -1.199581E+03
       338   2 -9.393031E+04 -4.989513E+03 -2.363429E+03  4.378510E+04 -4.283963E+03  1.898830E+03
       338   3 -1.427573E+05 -1.653645E+04 -1.143661E+04  4.919811E+04 -5.330136E+03  5.290789E+03
       338   4 -7.168125E+04  5.137600E+02  2.093111E+03  4.932299E+04  1.722004E+03 -1.195075E+03
       338   5 -7.174480E+04  1.411009E+02  1.102368E+03  4.375591E+04  1.168923E+03  1.903735E+03
       338   6 -7.168201E+04  7.639808E+01  5.423633E+02  4.932338E+04  6.156651E+02  5.296090E+03
       338   7 -9.847194E+04 -5.923185E+03 -3.296379E+03  4.913930E+04  6.681696E+03 -1.190572E+03
       338   8 -4.955873E+04  5.271707E+03  4.568265E+03  4.372671E+04  6.621998E+03  1.908639E+03
       338   9 -6.016801E+02  1.668900E+04  1.252131E+04  4.944865E+04  6.562125E+03  5.301393E+03
       338  10 -4.488983E+04  6.950670E+03  7.482634E+03  4.950667E+04 -4.644498E-08  1.119080E-09
       338  11 -9.393033E+04 -4.989522E+03 -2.363470E+03  4.378511E+04 -1.970216E-08 -1.909030E-09
       338  12 -1.427573E+05 -1.653649E+04 -1.143672E+04  4.919813E+04  1.135945E-08 -1.346137E-09
       338  13 -7.168125E+04  5.137577E+02  2.093102E+03  4.932299E+04  8.547212E-12  6.196187E-10
       338  14 -7.174480E+04  1.410967E+02  1.102359E+03  4.375590E+04 -1.837637E-10  2.782998E-11
       338  15 -7.168202E+04  7.636786E+01  5.423099E+02  4.932337E+04  5.584092E-10  5.716749E-10
       338  16 -9.847199E+04 -5.923198E+03 -3.296466E+03  4.913931E+04  4.598514E-08  5.216240E-09
       338  17 -4.955878E+04  5.271691E+03  4.568175E+03  4.372670E+04  2.022579E-08  1.968239E-10
       338  18 -6.017338E+02  1.668896E+04  1.252118E+04  4.944863E+04 -1.012477E-08  2.751785E-10
       338  19 -4.488982E+04  6.950674E+03  7.482657E+03  4.950668E+04  3.237898E+03  1.199581E+03
       338  20 -9.393031E+04 -4.989513E+03 -2.363429E+03  4.378510E+04  4.283963E+03 -1.898830E+03
       338  21 -1.427573E+05 -1.653645E+04 -1.143661E+04  4.919811E+04  5.330136E+03 -5.290789E+03
       338  22 -7.168125E+04  5.137600E+02  2.093111E+03  4.932299E+04 -1.722004E+03  1.195075E+03
       338  23 -7.174480E+04  1.411009E+02  1.102368E+03  4.375591E+04 -1.168923E+03 -1.903735E+03
       338  24 -7.168201E+04  7.639808E+01  5.423633E+02  4.932338E+04 -6.156651E+02 -5.296090E+03
       338  25 -9.847194E+04 -5.923185E+03 -3.296379E+03  4.913930E+04 -6.681696E+03  1.190572E+03
       338  26 -4.955873E+04  5.271707E+03  4.568265E+03  4.372671E+04 -6.621998E+03 -1.908639E+03
       338  27 -6.016801E+02  1.668900E+04  1.252131E+04  4.944865E+04 -6.562125E+03 -5.301393E+03
       339   1 -1.747525E+05 -2.405483E+04 -1.732309E+04  4.920567E+04 -5.450033E+03  7.399408E+03
       339   2 -2.235690E+05 -3.560457E+04 -2.635643E+04  4.365809E+04 -4.295730E+03  1.062156E+04
       339   3 -2.726123E+05 -4.739342E+04 -3.620675E+04  4.922156E+04 -3.140653E+03  1.315722E+04
       339   4 -7.171760E+04  8.811356E+01  3.409190E+02  4.931804E+04  5.366142E+02  7.404635E+03
       339   5 -7.170558E+04  4.372547E+01 -5.365724E+00  4.376266E+04  5.377950E+02  1.062548E+04
       339   6 -7.172252E+04 -3.940659E+01 -3.676863E+02  4.931815E+04  5.398374E+02  1.315993E+04
       339   7  3.132787E+04  2.423051E+04  1.800471E+04  4.943043E+04  6.524224E+03  7.409864E+03
       339   8  8.018050E+04  3.569079E+04  2.634498E+04  4.386724E+04  5.372467E+03  1.062940E+04
       339   9  1.292067E+05  4.731238E+04  3.546990E+04  4.941476E+04  4.221485E+03  1.316263E+04
       339  10 -1.747526E+05 -2.405489E+04 -1.732325E+04  4.920570E+04  3.300805E-09 -9.101777E-10
       339  11 -2.235690E+05 -3.560470E+04 -2.635668E+04  4.365813E+04  2.809044E-10  2.099888E-09
       339  12 -2.726124E+05 -4.739361E+04 -3.620710E+04  4.922159E+04 -8.074267E-10 -1.403105E-09
       339  13 -7.171761E+04  8.805461E+01  3.408154E+02  4.931803E+04  3.206370E-10 -3.495686E-09
       339  14 -7.170561E+04  4.360416E+01 -5.578421E+00  4.376265E+04  5.361349E-10  1.867350E-09
       339  15 -7.172256E+04 -3.959263E+01 -3.680123E+02  4.931814E+04  5.060373E-11  1.002991E-09
       339  16  3.132781E+04  2.423044E+04  1.800452E+04  4.943039E+04 -3.893618E-09 -1.804415E-09
       339  17  8.018044E+04  3.569066E+04  2.634472E+04  4.386720E+04 -1.204096E-09 -2.607963E-09
       339  18  1.292066E+05  4.731219E+04  3.546954E+04  4.941471E+04  1.364566E-09  6.519763E-10
       339  19 -1.747525E+05 -2.405483E+04 -1.732309E+04  4.920567E+04  5.450033E+03 -7.399408E+03
       339  20 -2.235690E+05 -3.560457E+04 -2.635643E+04  4.365809E+04  4.295730E+03 -1.062156E+04
       339  21 -2.726123E+05 -4.739342E+04 -3.620675E+04  4.922156E+04  3.140653E+03 -1.315722E+04
       339  22 -7.171760E+04  8.811356E+01  3.409190E+02  4.931804E+04 -5.366142E+02 -7.404635E+03
       339  23 -7.170558E+04  4.372547E+01 -5.365724E+00  4.376266E+04 -5.377950E+02 -1.062548E+04
       339  24 -7.172252E+04 -3.940659E+01 -3.676863E+02  4.931815E+04 -5.398374E+02 -1.315993E+04
       339  25  3.132787E+04  2.423051E+04  1.800471E+04  4.943043E+04 -6.524224E+03 -7.409864E+03
       339  26  8.018050E+04  3.569079E+04  2.634498E+04  4.386724E+04 -5.372467E+03 -1.062940E+04
       339  27  1.292067E+05  4.731238E+04  3.546990E+04  4.941476E+04 -4.221485E+03 -1.316263E+04
       340   1 -3.050057E+05 -5.505738E+04 -4.258143E+04  4.891593E+04 -3.993341E+03  1.490333E+04
       340   2 -3.525987E+05 -6.775149E+04 -5.658334E+04  4.439762E+04  1.018326E+04  1.361651E+04
       340   3 -4.029702E+05 -8.414692E+04 -8.074431E+04  5.046969E+04  2.436329E+04  4.258890E+03
       340   4 -7.181371E+04 -6.754751E+00 -5.744433E+02  4.920224E+04  6.033656E+02  1.490657E+04
       340   5 -7.160452E+04 -4.632992E+02 -1.202134E+03  4.390794E+04  1.227939E+03  1.360922E+04
       340   6 -7.182264E+04 -2.266954E+03 -2.574699E+03  4.920394E+04  1.857372E+03  4.242699E+03
       340   7  1.614313E+05  5.504084E+04  4.143051E+04  4.948864E+04  5.201751E+03  1.490982E+04
       340   8  2.094654E+05  6.682015E+04  5.417552E+04  4.341802E+04 -7.731353E+03  1.360195E+04
       340   9  2.594269E+05  7.960544E+04  7.558924E+04  4.793748E+04 -2.066049E+04  4.226605E+03
       340  10 -3.050058E+05 -5.505762E+04 -4.258188E+04  4.891598E+04  9.168554E-10 -3.794568E-10
       340  11 -3.525988E+05 -6.775172E+04 -5.658388E+04  4.439750E+04  1.095770E-09  1.314420E-09
       340  12 -4.029709E+05 -8.414710E+04 -8.074546E+04  5.046961E+04  1.826031E-09  2.034558E-09
       340  13 -7.181377E+04 -6.993450E+00 -5.748616E+02  4.920223E+04 -4.855418E-12  1.504618E-09
       340  14 -7.160457E+04 -4.634985E+02 -1.202485E+03  4.390792E+04  4.654554E-11  2.117005E-09
       340  15 -7.182265E+04 -2.266974E+03 -2.574739E+03  4.920393E+04  1.420342E-10 -2.978227E-10
       340  16  1.614313E+05  5.504060E+04  4.143004E+04  4.948858E+04 -1.241320E-09  2.072723E-09
       340  17  2.094653E+05  6.681994E+04  5.417506E+04  4.341810E+04 -1.333648E-09  1.964491E-09
       340  18  2.594265E+05  7.960531E+04  7.558840E+04  4.793755E+04 -1.829323E-09  2.319466E-10
       340  19 -3.050057E+05 -5.505738E+04 -4.258143E+04  4.891593E+04  3.993341E+03 -1.490333E+04
       340  20 -3.525987E+05 -6.775149E+04 -5.658334E+04  4.439762E+04 -1.018326E+04 -1.361651E+04
       340  21 -4.029702E+05 -8.414692E+04 -8.074431E+04  5.046969E+04 -2.436329E+04 -4.258890E+03
       340  22 -7.181371E+04 -6.754751E+00 -5.744433E+02  4.920224E+04 -6.033656E+02 -1.490657E+04
       340  23 -7.160452E+04 -4.632992E+02 -1.202134E+03  4.390794E+04 -1.227939E+03 -1.360922E+04
       340  24 -7.182264E+04 -2.266954E+03 -2.574699E+03  4.920394E+04 -1.857372E+03 -4.242699E+03
       340  25  1.614313E+05  5.504084E+04  4.143051E+04  4.948864E+04 -5.201751E+03 -1.490982E+04
       340  26  2.094654E+05  6.682015E+04  5.417552E+04  4.341802E+04  7.731353E+03 -1.360195E+04
       340  27  2.594269E+05  7.960544E+04  7.558924E+04  4.793748E+04  2.066049E+04 -4.226605E+03
