    1C
    1UUSER                                                              
    1UDATE              21.september.2022                               
    1UTIME              09:10:56                                        
    1UHOST                                                              
    1UPGM               CalculiX                                        
    1UVERSION           Version 2.19                             
    1UCOMPILETIME       Fri Dec 17 13:15:26 CET 2021                    
    1UDIR                                                               
    1UDBN                                                               
    1UMAT    1MESH_MATERIAL                                             
    2C                           641                                     1
 -1         1 0.00000E+00 0.00000E+00 0.00000E+00
 -1         2 8.33333E-03 0.00000E+00 0.00000E+00
 -1         3 1.66667E-02 0.00000E+00 0.00000E+00
 -1         4 2.50000E-02 0.00000E+00 0.00000E+00
 -1         5 3.33333E-02 0.00000E+00 0.00000E+00
 -1         6 4.16667E-02 0.00000E+00 0.00000E+00
 -1         7 5.00000E-02 0.00000E+00 0.00000E+00
 -1         8 5.83333E-02 0.00000E+00 0.00000E+00
 -1         9 6.66667E-02 0.00000E+00 0.00000E+00
 -1        14 0.00000E+00 6.25000E-03 0.00000E+00
 -1        15 8.33333E-03 6.25000E-03 0.00000E+00
 -1        16 1.66667E-02 6.25000E-03 0.00000E+00
 -1        17 2.50000E-02 6.25000E-03 0.00000E+00
 -1        18 3.33333E-02 6.25000E-03 0.00000E+00
 -1        19 4.16667E-02 6.25000E-03 0.00000E+00
 -1        20 5.00000E-02 6.25000E-03 0.00000E+00
 -1        21 5.83333E-02 6.25000E-03 0.00000E+00
 -1        22 6.66667E-02 6.25000E-03 0.00000E+00
 -1        27 0.00000E+00 1.25000E-02 0.00000E+00
 -1        28 8.33333E-03 1.25000E-02 0.00000E+00
 -1        29 1.66667E-02 1.25000E-02 0.00000E+00
 -1        30 2.50000E-02 1.25000E-02 0.00000E+00
 -1        31 3.33333E-02 1.25000E-02 0.00000E+00
 -1        32 4.16667E-02 1.25000E-02 0.00000E+00
 -1        33 5.00000E-02 1.25000E-02 0.00000E+00
 -1        34 5.83333E-02 1.25000E-02 0.00000E+00
 -1        35 6.66667E-02 1.25000E-02 0.00000E+00
 -1        36 7.50000E-02 1.25000E-02 0.00000E+00
 -1        37 8.33333E-02 1.25000E-02 0.00000E+00
 -1        38 9.16667E-02 1.25000E-02 0.00000E+00
 -1        39 1.00000E-01 1.25000E-02 0.00000E+00
 -1        40 0.00000E+00 1.87500E-02 0.00000E+00
 -1        41 8.33333E-03 1.87500E-02 0.00000E+00
 -1        42 1.66667E-02 1.87500E-02 0.00000E+00
 -1        43 2.50000E-02 1.87500E-02 0.00000E+00
 -1        44 3.33333E-02 1.87500E-02 0.00000E+00
 -1        45 4.16667E-02 1.87500E-02 0.00000E+00
 -1        46 5.00000E-02 1.87500E-02 0.00000E+00
 -1        47 5.83333E-02 1.87500E-02 0.00000E+00
 -1        48 6.66667E-02 1.87500E-02 0.00000E+00
 -1        49 7.50000E-02 1.87500E-02 0.00000E+00
 -1        50 8.33333E-02 1.87500E-02 0.00000E+00
 -1        51 9.16667E-02 1.87500E-02 0.00000E+00
 -1        52 1.00000E-01 1.87500E-02 0.00000E+00
 -1        53 0.00000E+00 2.50000E-02 0.00000E+00
 -1        54 8.33333E-03 2.50000E-02 0.00000E+00
 -1        55 1.66667E-02 2.50000E-02 0.00000E+00
 -1        56 2.50000E-02 2.50000E-02 0.00000E+00
 -1        57 3.33333E-02 2.50000E-02 0.00000E+00
 -1        58 4.16667E-02 2.50000E-02 0.00000E+00
 -1        59 5.00000E-02 2.50000E-02 0.00000E+00
 -1        60 5.83333E-02 2.50000E-02 0.00000E+00
 -1        61 6.66667E-02 2.50000E-02 0.00000E+00
 -1        62 7.50000E-02 2.50000E-02 0.00000E+00
 -1        63 8.33333E-02 2.50000E-02 0.00000E+00
 -1        64 9.16667E-02 2.50000E-02 0.00000E+00
 -1        65 1.00000E-01 2.50000E-02 0.00000E+00
 -1        66 1.04167E-03 0.00000E+00 0.00000E+00
 -1        67 2.08333E-03 0.00000E+00 0.00000E+00
 -1        68 3.12500E-03 0.00000E+00 0.00000E+00
 -1        69 4.16667E-03 0.00000E+00 0.00000E+00
 -1        70 5.20833E-03 0.00000E+00 0.00000E+00
 -1        71 6.25000E-03 0.00000E+00 0.00000E+00
 -1        72 7.29167E-03 0.00000E+00 0.00000E+00
 -1        73 0.00000E+00 1.04167E-03 0.00000E+00
 -1        74 0.00000E+00 2.08333E-03 0.00000E+00
 -1        75 0.00000E+00 3.12500E-03 0.00000E+00
 -1        76 0.00000E+00 4.16667E-03 0.00000E+00
 -1        77 0.00000E+00 5.20833E-03 0.00000E+00
 -1        78 9.37500E-03 0.00000E+00 0.00000E+00
 -1        79 1.04167E-02 0.00000E+00 0.00000E+00
 -1        80 1.14583E-02 0.00000E+00 0.00000E+00
 -1        81 1.25000E-02 0.00000E+00 0.00000E+00
 -1        82 1.35417E-02 0.00000E+00 0.00000E+00
 -1        83 1.45833E-02 0.00000E+00 0.00000E+00
 -1        84 1.56250E-02 0.00000E+00 0.00000E+00
 -1        85 8.33333E-03 1.04167E-03 0.00000E+00
 -1        86 8.33333E-03 2.08333E-03 0.00000E+00
 -1        87 8.33333E-03 3.12500E-03 0.00000E+00
 -1        88 8.33333E-03 4.16667E-03 0.00000E+00
 -1        89 8.33333E-03 5.20833E-03 0.00000E+00
 -1        90 1.77083E-02 0.00000E+00 0.00000E+00
 -1        91 1.87500E-02 0.00000E+00 0.00000E+00
 -1        92 1.97917E-02 0.00000E+00 0.00000E+00
 -1        93 2.08333E-02 0.00000E+00 0.00000E+00
 -1        94 2.18750E-02 0.00000E+00 0.00000E+00
 -1        95 2.29167E-02 0.00000E+00 0.00000E+00
 -1        96 2.39583E-02 0.00000E+00 0.00000E+00
 -1        97 1.66667E-02 1.04167E-03 0.00000E+00
 -1        98 1.66667E-02 2.08333E-03 0.00000E+00
 -1        99 1.66667E-02 3.12500E-03 0.00000E+00
 -1       100 1.66667E-02 4.16667E-03 0.00000E+00
 -1       101 1.66667E-02 5.20833E-03 0.00000E+00
 -1       102 2.60417E-02 0.00000E+00 0.00000E+00
 -1       103 2.70833E-02 0.00000E+00 0.00000E+00
 -1       104 2.81250E-02 0.00000E+00 0.00000E+00
 -1       105 2.91667E-02 0.00000E+00 0.00000E+00
 -1       106 3.02083E-02 0.00000E+00 0.00000E+00
 -1       107 3.12500E-02 0.00000E+00 0.00000E+00
 -1       108 3.22917E-02 0.00000E+00 0.00000E+00
 -1       109 2.50000E-02 1.04167E-03 0.00000E+00
 -1       110 2.50000E-02 2.08333E-03 0.00000E+00
 -1       111 2.50000E-02 3.12500E-03 0.00000E+00
 -1       112 2.50000E-02 4.16667E-03 0.00000E+00
 -1       113 2.50000E-02 5.20833E-03 0.00000E+00
 -1       114 3.43750E-02 0.00000E+00 0.00000E+00
 -1       115 3.54167E-02 0.00000E+00 0.00000E+00
 -1       116 3.64583E-02 0.00000E+00 0.00000E+00
 -1       117 3.75000E-02 0.00000E+00 0.00000E+00
 -1       118 3.85417E-02 0.00000E+00 0.00000E+00
 -1       119 3.95833E-02 0.00000E+00 0.00000E+00
 -1       120 4.06250E-02 0.00000E+00 0.00000E+00
 -1       121 3.33333E-02 1.04167E-03 0.00000E+00
 -1       122 3.33333E-02 2.08333E-03 0.00000E+00
 -1       123 3.33333E-02 3.12500E-03 0.00000E+00
 -1       124 3.33333E-02 4.16667E-03 0.00000E+00
 -1       125 3.33333E-02 5.20833E-03 0.00000E+00
 -1       126 4.27083E-02 0.00000E+00 0.00000E+00
 -1       127 4.37500E-02 0.00000E+00 0.00000E+00
 -1       128 4.47917E-02 0.00000E+00 0.00000E+00
 -1       129 4.58333E-02 0.00000E+00 0.00000E+00
 -1       130 4.68750E-02 0.00000E+00 0.00000E+00
 -1       131 4.79167E-02 0.00000E+00 0.00000E+00
 -1       132 4.89583E-02 0.00000E+00 0.00000E+00
 -1       133 4.16667E-02 1.04167E-03 0.00000E+00
 -1       134 4.16667E-02 2.08333E-03 0.00000E+00
 -1       135 4.16667E-02 3.12500E-03 0.00000E+00
 -1       136 4.16667E-02 4.16667E-03 0.00000E+00
 -1       137 4.16667E-02 5.20833E-03 0.00000E+00
 -1       138 5.10417E-02 0.00000E+00 0.00000E+00
 -1       139 5.20833E-02 0.00000E+00 0.00000E+00
 -1       140 5.31250E-02 0.00000E+00 0.00000E+00
 -1       141 5.41667E-02 0.00000E+00 0.00000E+00
 -1       142 5.52083E-02 0.00000E+00 0.00000E+00
 -1       143 5.62500E-02 0.00000E+00 0.00000E+00
 -1       144 5.72917E-02 0.00000E+00 0.00000E+00
 -1       145 5.00000E-02 1.04167E-03 0.00000E+00
 -1       146 5.00000E-02 2.08333E-03 0.00000E+00
 -1       147 5.00000E-02 3.12500E-03 0.00000E+00
 -1       148 5.00000E-02 4.16667E-03 0.00000E+00
 -1       149 5.00000E-02 5.20833E-03 0.00000E+00
 -1       150 5.93750E-02 0.00000E+00 0.00000E+00
 -1       151 6.04167E-02 0.00000E+00 0.00000E+00
 -1       152 6.14583E-02 0.00000E+00 0.00000E+00
 -1       153 6.25000E-02 0.00000E+00 0.00000E+00
 -1       154 6.35417E-02 0.00000E+00 0.00000E+00
 -1       155 6.45833E-02 0.00000E+00 0.00000E+00
 -1       156 6.56250E-02 0.00000E+00 0.00000E+00
 -1       157 5.83333E-02 1.04167E-03 0.00000E+00
 -1       158 5.83333E-02 2.08333E-03 0.00000E+00
 -1       159 5.83333E-02 3.12500E-03 0.00000E+00
 -1       160 5.83333E-02 4.16667E-03 0.00000E+00
 -1       161 5.83333E-02 5.20833E-03 0.00000E+00
 -1       169 6.66667E-02 1.04167E-03 0.00000E+00
 -1       170 6.66667E-02 2.08333E-03 0.00000E+00
 -1       171 6.66667E-02 3.12500E-03 0.00000E+00
 -1       172 6.66667E-02 4.16667E-03 0.00000E+00
 -1       173 6.66667E-02 5.20833E-03 0.00000E+00
 -1       215 1.04167E-03 6.25000E-03 0.00000E+00
 -1       216 2.08333E-03 6.25000E-03 0.00000E+00
 -1       217 3.12500E-03 6.25000E-03 0.00000E+00
 -1       218 4.16667E-03 6.25000E-03 0.00000E+00
 -1       219 5.20833E-03 6.25000E-03 0.00000E+00
 -1       220 6.25000E-03 6.25000E-03 0.00000E+00
 -1       221 7.29167E-03 6.25000E-03 0.00000E+00
 -1       222 0.00000E+00 7.29167E-03 0.00000E+00
 -1       223 0.00000E+00 8.33333E-03 0.00000E+00
 -1       224 0.00000E+00 9.37500E-03 0.00000E+00
 -1       225 0.00000E+00 1.04167E-02 0.00000E+00
 -1       226 0.00000E+00 1.14583E-02 0.00000E+00
 -1       227 9.37500E-03 6.25000E-03 0.00000E+00
 -1       228 1.04167E-02 6.25000E-03 0.00000E+00
 -1       229 1.14583E-02 6.25000E-03 0.00000E+00
 -1       230 1.25000E-02 6.25000E-03 0.00000E+00
 -1       231 1.35417E-02 6.25000E-03 0.00000E+00
 -1       232 1.45833E-02 6.25000E-03 0.00000E+00
 -1       233 1.56250E-02 6.25000E-03 0.00000E+00
 -1       234 8.33333E-03 7.29167E-03 0.00000E+00
 -1       235 8.33333E-03 8.33333E-03 0.00000E+00
 -1       236 8.33333E-03 9.37500E-03 0.00000E+00
 -1       237 8.33333E-03 1.04167E-02 0.00000E+00
 -1       238 8.33333E-03 1.14583E-02 0.00000E+00
 -1       239 1.77083E-02 6.25000E-03 0.00000E+00
 -1       240 1.87500E-02 6.25000E-03 0.00000E+00
 -1       241 1.97917E-02 6.25000E-03 0.00000E+00
 -1       242 2.08333E-02 6.25000E-03 0.00000E+00
 -1       243 2.18750E-02 6.25000E-03 0.00000E+00
 -1       244 2.29167E-02 6.25000E-03 0.00000E+00
 -1       245 2.39583E-02 6.25000E-03 0.00000E+00
 -1       246 1.66667E-02 7.29167E-03 0.00000E+00
 -1       247 1.66667E-02 8.33333E-03 0.00000E+00
 -1       248 1.66667E-02 9.37500E-03 0.00000E+00
 -1       249 1.66667E-02 1.04167E-02 0.00000E+00
 -1       250 1.66667E-02 1.14583E-02 0.00000E+00
 -1       251 2.60417E-02 6.25000E-03 0.00000E+00
 -1       252 2.70833E-02 6.25000E-03 0.00000E+00
 -1       253 2.81250E-02 6.25000E-03 0.00000E+00
 -1       254 2.91667E-02 6.25000E-03 0.00000E+00
 -1       255 3.02083E-02 6.25000E-03 0.00000E+00
 -1       256 3.12500E-02 6.25000E-03 0.00000E+00
 -1       257 3.22917E-02 6.25000E-03 0.00000E+00
 -1       258 2.50000E-02 7.29167E-03 0.00000E+00
 -1       259 2.50000E-02 8.33333E-03 0.00000E+00
 -1       260 2.50000E-02 9.37500E-03 0.00000E+00
 -1       261 2.50000E-02 1.04167E-02 0.00000E+00
 -1       262 2.50000E-02 1.14583E-02 0.00000E+00
 -1       263 3.43750E-02 6.25000E-03 0.00000E+00
 -1       264 3.54167E-02 6.25000E-03 0.00000E+00
 -1       265 3.64583E-02 6.25000E-03 0.00000E+00
 -1       266 3.75000E-02 6.25000E-03 0.00000E+00
 -1       267 3.85417E-02 6.25000E-03 0.00000E+00
 -1       268 3.95833E-02 6.25000E-03 0.00000E+00
 -1       269 4.06250E-02 6.25000E-03 0.00000E+00
 -1       270 3.33333E-02 7.29167E-03 0.00000E+00
 -1       271 3.33333E-02 8.33333E-03 0.00000E+00
 -1       272 3.33333E-02 9.37500E-03 0.00000E+00
 -1       273 3.33333E-02 1.04167E-02 0.00000E+00
 -1       274 3.33333E-02 1.14583E-02 0.00000E+00
 -1       275 4.27083E-02 6.25000E-03 0.00000E+00
 -1       276 4.37500E-02 6.25000E-03 0.00000E+00
 -1       277 4.47917E-02 6.25000E-03 0.00000E+00
 -1       278 4.58333E-02 6.25000E-03 0.00000E+00
 -1       279 4.68750E-02 6.25000E-03 0.00000E+00
 -1       280 4.79167E-02 6.25000E-03 0.00000E+00
 -1       281 4.89583E-02 6.25000E-03 0.00000E+00
 -1       282 4.16667E-02 7.29167E-03 0.00000E+00
 -1       283 4.16667E-02 8.33333E-03 0.00000E+00
 -1       284 4.16667E-02 9.37500E-03 0.00000E+00
 -1       285 4.16667E-02 1.04167E-02 0.00000E+00
 -1       286 4.16667E-02 1.14583E-02 0.00000E+00
 -1       287 5.10417E-02 6.25000E-03 0.00000E+00
 -1       288 5.20833E-02 6.25000E-03 0.00000E+00
 -1       289 5.31250E-02 6.25000E-03 0.00000E+00
 -1       290 5.41667E-02 6.25000E-03 0.00000E+00
 -1       291 5.52083E-02 6.25000E-03 0.00000E+00
 -1       292 5.62500E-02 6.25000E-03 0.00000E+00
 -1       293 5.72917E-02 6.25000E-03 0.00000E+00
 -1       294 5.00000E-02 7.29167E-03 0.00000E+00
 -1       295 5.00000E-02 8.33333E-03 0.00000E+00
 -1       296 5.00000E-02 9.37500E-03 0.00000E+00
 -1       297 5.00000E-02 1.04167E-02 0.00000E+00
 -1       298 5.00000E-02 1.14583E-02 0.00000E+00
 -1       299 5.93750E-02 6.25000E-03 0.00000E+00
 -1       300 6.04167E-02 6.25000E-03 0.00000E+00
 -1       301 6.14583E-02 6.25000E-03 0.00000E+00
 -1       302 6.25000E-02 6.25000E-03 0.00000E+00
 -1       303 6.35417E-02 6.25000E-03 0.00000E+00
 -1       304 6.45833E-02 6.25000E-03 0.00000E+00
 -1       305 6.56250E-02 6.25000E-03 0.00000E+00
 -1       306 5.83333E-02 7.29167E-03 0.00000E+00
 -1       307 5.83333E-02 8.33333E-03 0.00000E+00
 -1       308 5.83333E-02 9.37500E-03 0.00000E+00
 -1       309 5.83333E-02 1.04167E-02 0.00000E+00
 -1       310 5.83333E-02 1.14583E-02 0.00000E+00
 -1       318 6.66667E-02 7.29167E-03 0.00000E+00
 -1       319 6.66667E-02 8.33333E-03 0.00000E+00
 -1       320 6.66667E-02 9.37500E-03 0.00000E+00
 -1       321 6.66667E-02 1.04167E-02 0.00000E+00
 -1       322 6.66667E-02 1.14583E-02 0.00000E+00
 -1       364 1.04167E-03 1.25000E-02 0.00000E+00
 -1       365 2.08333E-03 1.25000E-02 0.00000E+00
 -1       366 3.12500E-03 1.25000E-02 0.00000E+00
 -1       367 4.16667E-03 1.25000E-02 0.00000E+00
 -1       368 5.20833E-03 1.25000E-02 0.00000E+00
 -1       369 6.25000E-03 1.25000E-02 0.00000E+00
 -1       370 7.29167E-03 1.25000E-02 0.00000E+00
 -1       371 0.00000E+00 1.35417E-02 0.00000E+00
 -1       372 0.00000E+00 1.45833E-02 0.00000E+00
 -1       373 0.00000E+00 1.56250E-02 0.00000E+00
 -1       374 0.00000E+00 1.66667E-02 0.00000E+00
 -1       375 0.00000E+00 1.77083E-02 0.00000E+00
 -1       376 9.37500E-03 1.25000E-02 0.00000E+00
 -1       377 1.04167E-02 1.25000E-02 0.00000E+00
 -1       378 1.14583E-02 1.25000E-02 0.00000E+00
 -1       379 1.25000E-02 1.25000E-02 0.00000E+00
 -1       380 1.35417E-02 1.25000E-02 0.00000E+00
 -1       381 1.45833E-02 1.25000E-02 0.00000E+00
 -1       382 1.56250E-02 1.25000E-02 0.00000E+00
 -1       383 8.33333E-03 1.35417E-02 0.00000E+00
 -1       384 8.33333E-03 1.45833E-02 0.00000E+00
 -1       385 8.33333E-03 1.56250E-02 0.00000E+00
 -1       386 8.33333E-03 1.66667E-02 0.00000E+00
 -1       387 8.33333E-03 1.77083E-02 0.00000E+00
 -1       388 1.77083E-02 1.25000E-02 0.00000E+00
 -1       389 1.87500E-02 1.25000E-02 0.00000E+00
 -1       390 1.97917E-02 1.25000E-02 0.00000E+00
 -1       391 2.08333E-02 1.25000E-02 0.00000E+00
 -1       392 2.18750E-02 1.25000E-02 0.00000E+00
 -1       393 2.29167E-02 1.25000E-02 0.00000E+00
 -1       394 2.39583E-02 1.25000E-02 0.00000E+00
 -1       395 1.66667E-02 1.35417E-02 0.00000E+00
 -1       396 1.66667E-02 1.45833E-02 0.00000E+00
 -1       397 1.66667E-02 1.56250E-02 0.00000E+00
 -1       398 1.66667E-02 1.66667E-02 0.00000E+00
 -1       399 1.66667E-02 1.77083E-02 0.00000E+00
 -1       400 2.60417E-02 1.25000E-02 0.00000E+00
 -1       401 2.70833E-02 1.25000E-02 0.00000E+00
 -1       402 2.81250E-02 1.25000E-02 0.00000E+00
 -1       403 2.91667E-02 1.25000E-02 0.00000E+00
 -1       404 3.02083E-02 1.25000E-02 0.00000E+00
 -1       405 3.12500E-02 1.25000E-02 0.00000E+00
 -1       406 3.22917E-02 1.25000E-02 0.00000E+00
 -1       407 2.50000E-02 1.35417E-02 0.00000E+00
 -1       408 2.50000E-02 1.45833E-02 0.00000E+00
 -1       409 2.50000E-02 1.56250E-02 0.00000E+00
 -1       410 2.50000E-02 1.66667E-02 0.00000E+00
 -1       411 2.50000E-02 1.77083E-02 0.00000E+00
 -1       412 3.43750E-02 1.25000E-02 0.00000E+00
 -1       413 3.54167E-02 1.25000E-02 0.00000E+00
 -1       414 3.64583E-02 1.25000E-02 0.00000E+00
 -1       415 3.75000E-02 1.25000E-02 0.00000E+00
 -1       416 3.85417E-02 1.25000E-02 0.00000E+00
 -1       417 3.95833E-02 1.25000E-02 0.00000E+00
 -1       418 4.06250E-02 1.25000E-02 0.00000E+00
 -1       419 3.33333E-02 1.35417E-02 0.00000E+00
 -1       420 3.33333E-02 1.45833E-02 0.00000E+00
 -1       421 3.33333E-02 1.56250E-02 0.00000E+00
 -1       422 3.33333E-02 1.66667E-02 0.00000E+00
 -1       423 3.33333E-02 1.77083E-02 0.00000E+00
 -1       424 4.27083E-02 1.25000E-02 0.00000E+00
 -1       425 4.37500E-02 1.25000E-02 0.00000E+00
 -1       426 4.47917E-02 1.25000E-02 0.00000E+00
 -1       427 4.58333E-02 1.25000E-02 0.00000E+00
 -1       428 4.68750E-02 1.25000E-02 0.00000E+00
 -1       429 4.79167E-02 1.25000E-02 0.00000E+00
 -1       430 4.89583E-02 1.25000E-02 0.00000E+00
 -1       431 4.16667E-02 1.35417E-02 0.00000E+00
 -1       432 4.16667E-02 1.45833E-02 0.00000E+00
 -1       433 4.16667E-02 1.56250E-02 0.00000E+00
 -1       434 4.16667E-02 1.66667E-02 0.00000E+00
 -1       435 4.16667E-02 1.77083E-02 0.00000E+00
 -1       436 5.10417E-02 1.25000E-02 0.00000E+00
 -1       437 5.20833E-02 1.25000E-02 0.00000E+00
 -1       438 5.31250E-02 1.25000E-02 0.00000E+00
 -1       439 5.41667E-02 1.25000E-02 0.00000E+00
 -1       440 5.52083E-02 1.25000E-02 0.00000E+00
 -1       441 5.62500E-02 1.25000E-02 0.00000E+00
 -1       442 5.72917E-02 1.25000E-02 0.00000E+00
 -1       443 5.00000E-02 1.35417E-02 0.00000E+00
 -1       444 5.00000E-02 1.45833E-02 0.00000E+00
 -1       445 5.00000E-02 1.56250E-02 0.00000E+00
 -1       446 5.00000E-02 1.66667E-02 0.00000E+00
 -1       447 5.00000E-02 1.77083E-02 0.00000E+00
 -1       448 5.93750E-02 1.25000E-02 0.00000E+00
 -1       449 6.04167E-02 1.25000E-02 0.00000E+00
 -1       450 6.14583E-02 1.25000E-02 0.00000E+00
 -1       451 6.25000E-02 1.25000E-02 0.00000E+00
 -1       452 6.35417E-02 1.25000E-02 0.00000E+00
 -1       453 6.45833E-02 1.25000E-02 0.00000E+00
 -1       454 6.56250E-02 1.25000E-02 0.00000E+00
 -1       455 5.83333E-02 1.35417E-02 0.00000E+00
 -1       456 5.83333E-02 1.45833E-02 0.00000E+00
 -1       457 5.83333E-02 1.56250E-02 0.00000E+00
 -1       458 5.83333E-02 1.66667E-02 0.00000E+00
 -1       459 5.83333E-02 1.77083E-02 0.00000E+00
 -1       460 6.77083E-02 1.25000E-02 0.00000E+00
 -1       461 6.87500E-02 1.25000E-02 0.00000E+00
 -1       462 6.97917E-02 1.25000E-02 0.00000E+00
 -1       463 7.08333E-02 1.25000E-02 0.00000E+00
 -1       464 7.18750E-02 1.25000E-02 0.00000E+00
 -1       465 7.29167E-02 1.25000E-02 0.00000E+00
 -1       466 7.39583E-02 1.25000E-02 0.00000E+00
 -1       467 6.66667E-02 1.35417E-02 0.00000E+00
 -1       468 6.66667E-02 1.45833E-02 0.00000E+00
 -1       469 6.66667E-02 1.56250E-02 0.00000E+00
 -1       470 6.66667E-02 1.66667E-02 0.00000E+00
 -1       471 6.66667E-02 1.77083E-02 0.00000E+00
 -1       472 7.60417E-02 1.25000E-02 0.00000E+00
 -1       473 7.70833E-02 1.25000E-02 0.00000E+00
 -1       474 7.81250E-02 1.25000E-02 0.00000E+00
 -1       475 7.91667E-02 1.25000E-02 0.00000E+00
 -1       476 8.02083E-02 1.25000E-02 0.00000E+00
 -1       477 8.12500E-02 1.25000E-02 0.00000E+00
 -1       478 8.22917E-02 1.25000E-02 0.00000E+00
 -1       479 7.50000E-02 1.35417E-02 0.00000E+00
 -1       480 7.50000E-02 1.45833E-02 0.00000E+00
 -1       481 7.50000E-02 1.56250E-02 0.00000E+00
 -1       482 7.50000E-02 1.66667E-02 0.00000E+00
 -1       483 7.50000E-02 1.77083E-02 0.00000E+00
 -1       484 8.43750E-02 1.25000E-02 0.00000E+00
 -1       485 8.54167E-02 1.25000E-02 0.00000E+00
 -1       486 8.64583E-02 1.25000E-02 0.00000E+00
 -1       487 8.75000E-02 1.25000E-02 0.00000E+00
 -1       488 8.85417E-02 1.25000E-02 0.00000E+00
 -1       489 8.95833E-02 1.25000E-02 0.00000E+00
 -1       490 9.06250E-02 1.25000E-02 0.00000E+00
 -1       491 8.33333E-02 1.35417E-02 0.00000E+00
 -1       492 8.33333E-02 1.45833E-02 0.00000E+00
 -1       493 8.33333E-02 1.56250E-02 0.00000E+00
 -1       494 8.33333E-02 1.66667E-02 0.00000E+00
 -1       495 8.33333E-02 1.77083E-02 0.00000E+00
 -1       496 9.27083E-02 1.25000E-02 0.00000E+00
 -1       497 9.37500E-02 1.25000E-02 0.00000E+00
 -1       498 9.47917E-02 1.25000E-02 0.00000E+00
 -1       499 9.58333E-02 1.25000E-02 0.00000E+00
 -1       500 9.68750E-02 1.25000E-02 0.00000E+00
 -1       501 9.79167E-02 1.25000E-02 0.00000E+00
 -1       502 9.89583E-02 1.25000E-02 0.00000E+00
 -1       503 9.16667E-02 1.35417E-02 0.00000E+00
 -1       504 9.16667E-02 1.45833E-02 0.00000E+00
 -1       505 9.16667E-02 1.56250E-02 0.00000E+00
 -1       506 9.16667E-02 1.66667E-02 0.00000E+00
 -1       507 9.16667E-02 1.77083E-02 0.00000E+00
 -1       508 1.00000E-01 1.35417E-02 0.00000E+00
 -1       509 1.00000E-01 1.45833E-02 0.00000E+00
 -1       510 1.00000E-01 1.56250E-02 0.00000E+00
 -1       511 1.00000E-01 1.66667E-02 0.00000E+00
 -1       512 1.00000E-01 1.77083E-02 0.00000E+00
 -1       513 1.04167E-03 1.87500E-02 0.00000E+00
 -1       514 2.08333E-03 1.87500E-02 0.00000E+00
 -1       515 3.12500E-03 1.87500E-02 0.00000E+00
 -1       516 4.16667E-03 1.87500E-02 0.00000E+00
 -1       517 5.20833E-03 1.87500E-02 0.00000E+00
 -1       518 6.25000E-03 1.87500E-02 0.00000E+00
 -1       519 7.29167E-03 1.87500E-02 0.00000E+00
 -1       520 0.00000E+00 1.97917E-02 0.00000E+00
 -1       521 0.00000E+00 2.08333E-02 0.00000E+00
 -1       522 0.00000E+00 2.18750E-02 0.00000E+00
 -1       523 0.00000E+00 2.29167E-02 0.00000E+00
 -1       524 0.00000E+00 2.39583E-02 0.00000E+00
 -1       525 9.37500E-03 1.87500E-02 0.00000E+00
 -1       526 1.04167E-02 1.87500E-02 0.00000E+00
 -1       527 1.14583E-02 1.87500E-02 0.00000E+00
 -1       528 1.25000E-02 1.87500E-02 0.00000E+00
 -1       529 1.35417E-02 1.87500E-02 0.00000E+00
 -1       530 1.45833E-02 1.87500E-02 0.00000E+00
 -1       531 1.56250E-02 1.87500E-02 0.00000E+00
 -1       532 8.33333E-03 1.97917E-02 0.00000E+00
 -1       533 8.33333E-03 2.08333E-02 0.00000E+00
 -1       534 8.33333E-03 2.18750E-02 0.00000E+00
 -1       535 8.33333E-03 2.29167E-02 0.00000E+00
 -1       536 8.33333E-03 2.39583E-02 0.00000E+00
 -1       537 1.77083E-02 1.87500E-02 0.00000E+00
 -1       538 1.87500E-02 1.87500E-02 0.00000E+00
 -1       539 1.97917E-02 1.87500E-02 0.00000E+00
 -1       540 2.08333E-02 1.87500E-02 0.00000E+00
 -1       541 2.18750E-02 1.87500E-02 0.00000E+00
 -1       542 2.29167E-02 1.87500E-02 0.00000E+00
 -1       543 2.39583E-02 1.87500E-02 0.00000E+00
 -1       544 1.66667E-02 1.97917E-02 0.00000E+00
 -1       545 1.66667E-02 2.08333E-02 0.00000E+00
 -1       546 1.66667E-02 2.18750E-02 0.00000E+00
 -1       547 1.66667E-02 2.29167E-02 0.00000E+00
 -1       548 1.66667E-02 2.39583E-02 0.00000E+00
 -1       549 2.60417E-02 1.87500E-02 0.00000E+00
 -1       550 2.70833E-02 1.87500E-02 0.00000E+00
 -1       551 2.81250E-02 1.87500E-02 0.00000E+00
 -1       552 2.91667E-02 1.87500E-02 0.00000E+00
 -1       553 3.02083E-02 1.87500E-02 0.00000E+00
 -1       554 3.12500E-02 1.87500E-02 0.00000E+00
 -1       555 3.22917E-02 1.87500E-02 0.00000E+00
 -1       556 2.50000E-02 1.97917E-02 0.00000E+00
 -1       557 2.50000E-02 2.08333E-02 0.00000E+00
 -1       558 2.50000E-02 2.18750E-02 0.00000E+00
 -1       559 2.50000E-02 2.29167E-02 0.00000E+00
 -1       560 2.50000E-02 2.39583E-02 0.00000E+00
 -1       561 3.43750E-02 1.87500E-02 0.00000E+00
 -1       562 3.54167E-02 1.87500E-02 0.00000E+00
 -1       563 3.64583E-02 1.87500E-02 0.00000E+00
 -1       564 3.75000E-02 1.87500E-02 0.00000E+00
 -1       565 3.85417E-02 1.87500E-02 0.00000E+00
 -1       566 3.95833E-02 1.87500E-02 0.00000E+00
 -1       567 4.06250E-02 1.87500E-02 0.00000E+00
 -1       568 3.33333E-02 1.97917E-02 0.00000E+00
 -1       569 3.33333E-02 2.08333E-02 0.00000E+00
 -1       570 3.33333E-02 2.18750E-02 0.00000E+00
 -1       571 3.33333E-02 2.29167E-02 0.00000E+00
 -1       572 3.33333E-02 2.39583E-02 0.00000E+00
 -1       573 4.27083E-02 1.87500E-02 0.00000E+00
 -1       574 4.37500E-02 1.87500E-02 0.00000E+00
 -1       575 4.47917E-02 1.87500E-02 0.00000E+00
 -1       576 4.58333E-02 1.87500E-02 0.00000E+00
 -1       577 4.68750E-02 1.87500E-02 0.00000E+00
 -1       578 4.79167E-02 1.87500E-02 0.00000E+00
 -1       579 4.89583E-02 1.87500E-02 0.00000E+00
 -1       580 4.16667E-02 1.97917E-02 0.00000E+00
 -1       581 4.16667E-02 2.08333E-02 0.00000E+00
 -1       582 4.16667E-02 2.18750E-02 0.00000E+00
 -1       583 4.16667E-02 2.29167E-02 0.00000E+00
 -1       584 4.16667E-02 2.39583E-02 0.00000E+00
 -1       585 5.10417E-02 1.87500E-02 0.00000E+00
 -1       586 5.20833E-02 1.87500E-02 0.00000E+00
 -1       587 5.31250E-02 1.87500E-02 0.00000E+00
 -1       588 5.41667E-02 1.87500E-02 0.00000E+00
 -1       589 5.52083E-02 1.87500E-02 0.00000E+00
 -1       590 5.62500E-02 1.87500E-02 0.00000E+00
 -1       591 5.72917E-02 1.87500E-02 0.00000E+00
 -1       592 5.00000E-02 1.97917E-02 0.00000E+00
 -1       593 5.00000E-02 2.08333E-02 0.00000E+00
 -1       594 5.00000E-02 2.18750E-02 0.00000E+00
 -1       595 5.00000E-02 2.29167E-02 0.00000E+00
 -1       596 5.00000E-02 2.39583E-02 0.00000E+00
 -1       597 5.93750E-02 1.87500E-02 0.00000E+00
 -1       598 6.04167E-02 1.87500E-02 0.00000E+00
 -1       599 6.14583E-02 1.87500E-02 0.00000E+00
 -1       600 6.25000E-02 1.87500E-02 0.00000E+00
 -1       601 6.35417E-02 1.87500E-02 0.00000E+00
 -1       602 6.45833E-02 1.87500E-02 0.00000E+00
 -1       603 6.56250E-02 1.87500E-02 0.00000E+00
 -1       604 5.83333E-02 1.97917E-02 0.00000E+00
 -1       605 5.83333E-02 2.08333E-02 0.00000E+00
 -1       606 5.83333E-02 2.18750E-02 0.00000E+00
 -1       607 5.83333E-02 2.29167E-02 0.00000E+00
 -1       608 5.83333E-02 2.39583E-02 0.00000E+00
 -1       609 6.77083E-02 1.87500E-02 0.00000E+00
 -1       610 6.87500E-02 1.87500E-02 0.00000E+00
 -1       611 6.97917E-02 1.87500E-02 0.00000E+00
 -1       612 7.08333E-02 1.87500E-02 0.00000E+00
 -1       613 7.18750E-02 1.87500E-02 0.00000E+00
 -1       614 7.29167E-02 1.87500E-02 0.00000E+00
 -1       615 7.39583E-02 1.87500E-02 0.00000E+00
 -1       616 6.66667E-02 1.97917E-02 0.00000E+00
 -1       617 6.66667E-02 2.08333E-02 0.00000E+00
 -1       618 6.66667E-02 2.18750E-02 0.00000E+00
 -1       619 6.66667E-02 2.29167E-02 0.00000E+00
 -1       620 6.66667E-02 2.39583E-02 0.00000E+00
 -1       621 7.60417E-02 1.87500E-02 0.00000E+00
 -1       622 7.70833E-02 1.87500E-02 0.00000E+00
 -1       623 7.81250E-02 1.87500E-02 0.00000E+00
 -1       624 7.91667E-02 1.87500E-02 0.00000E+00
 -1       625 8.02083E-02 1.87500E-02 0.00000E+00
 -1       626 8.12500E-02 1.87500E-02 0.00000E+00
 -1       627 8.22917E-02 1.87500E-02 0.00000E+00
 -1       628 7.50000E-02 1.97917E-02 0.00000E+00
 -1       629 7.50000E-02 2.08333E-02 0.00000E+00
 -1       630 7.50000E-02 2.18750E-02 0.00000E+00
 -1       631 7.50000E-02 2.29167E-02 0.00000E+00
 -1       632 7.50000E-02 2.39583E-02 0.00000E+00
 -1       633 8.43750E-02 1.87500E-02 0.00000E+00
 -1       634 8.54167E-02 1.87500E-02 0.00000E+00
 -1       635 8.64583E-02 1.87500E-02 0.00000E+00
 -1       636 8.75000E-02 1.87500E-02 0.00000E+00
 -1       637 8.85417E-02 1.87500E-02 0.00000E+00
 -1       638 8.95833E-02 1.87500E-02 0.00000E+00
 -1       639 9.06250E-02 1.87500E-02 0.00000E+00
 -1       640 8.33333E-02 1.97917E-02 0.00000E+00
 -1       641 8.33333E-02 2.08333E-02 0.00000E+00
 -1       642 8.33333E-02 2.18750E-02 0.00000E+00
 -1       643 8.33333E-02 2.29167E-02 0.00000E+00
 -1       644 8.33333E-02 2.39583E-02 0.00000E+00
 -1       645 9.27083E-02 1.87500E-02 0.00000E+00
 -1       646 9.37500E-02 1.87500E-02 0.00000E+00
 -1       647 9.47917E-02 1.87500E-02 0.00000E+00
 -1       648 9.58333E-02 1.87500E-02 0.00000E+00
 -1       649 9.68750E-02 1.87500E-02 0.00000E+00
 -1       650 9.79167E-02 1.87500E-02 0.00000E+00
 -1       651 9.89583E-02 1.87500E-02 0.00000E+00
 -1       652 9.16667E-02 1.97917E-02 0.00000E+00
 -1       653 9.16667E-02 2.08333E-02 0.00000E+00
 -1       654 9.16667E-02 2.18750E-02 0.00000E+00
 -1       655 9.16667E-02 2.29167E-02 0.00000E+00
 -1       656 9.16667E-02 2.39583E-02 0.00000E+00
 -1       657 1.00000E-01 1.97917E-02 0.00000E+00
 -1       658 1.00000E-01 2.08333E-02 0.00000E+00
 -1       659 1.00000E-01 2.18750E-02 0.00000E+00
 -1       660 1.00000E-01 2.29167E-02 0.00000E+00
 -1       661 1.00000E-01 2.39583E-02 0.00000E+00
 -1       662 1.04167E-03 2.50000E-02 0.00000E+00
 -1       663 2.08333E-03 2.50000E-02 0.00000E+00
 -1       664 3.12500E-03 2.50000E-02 0.00000E+00
 -1       665 4.16667E-03 2.50000E-02 0.00000E+00
 -1       666 5.20833E-03 2.50000E-02 0.00000E+00
 -1       667 6.25000E-03 2.50000E-02 0.00000E+00
 -1       668 7.29167E-03 2.50000E-02 0.00000E+00
 -1       669 9.37500E-03 2.50000E-02 0.00000E+00
 -1       670 1.04167E-02 2.50000E-02 0.00000E+00
 -1       671 1.14583E-02 2.50000E-02 0.00000E+00
 -1       672 1.25000E-02 2.50000E-02 0.00000E+00
 -1       673 1.35417E-02 2.50000E-02 0.00000E+00
 -1       674 1.45833E-02 2.50000E-02 0.00000E+00
 -1       675 1.56250E-02 2.50000E-02 0.00000E+00
 -1       676 1.77083E-02 2.50000E-02 0.00000E+00
 -1       677 1.87500E-02 2.50000E-02 0.00000E+00
 -1       678 1.97917E-02 2.50000E-02 0.00000E+00
 -1       679 2.08333E-02 2.50000E-02 0.00000E+00
 -1       680 2.18750E-02 2.50000E-02 0.00000E+00
 -1       681 2.29167E-02 2.50000E-02 0.00000E+00
 -1       682 2.39583E-02 2.50000E-02 0.00000E+00
 -1       683 2.60417E-02 2.50000E-02 0.00000E+00
 -1       684 2.70833E-02 2.50000E-02 0.00000E+00
 -1       685 2.81250E-02 2.50000E-02 0.00000E+00
 -1       686 2.91667E-02 2.50000E-02 0.00000E+00
 -1       687 3.02083E-02 2.50000E-02 0.00000E+00
 -1       688 3.12500E-02 2.50000E-02 0.00000E+00
 -1       689 3.22917E-02 2.50000E-02 0.00000E+00
 -1       690 3.43750E-02 2.50000E-02 0.00000E+00
 -1       691 3.54167E-02 2.50000E-02 0.00000E+00
 -1       692 3.64583E-02 2.50000E-02 0.00000E+00
 -1       693 3.75000E-02 2.50000E-02 0.00000E+00
 -1       694 3.85417E-02 2.50000E-02 0.00000E+00
 -1       695 3.95833E-02 2.50000E-02 0.00000E+00
 -1       696 4.06250E-02 2.50000E-02 0.00000E+00
 -1       697 4.27083E-02 2.50000E-02 0.00000E+00
 -1       698 4.37500E-02 2.50000E-02 0.00000E+00
 -1       699 4.47917E-02 2.50000E-02 0.00000E+00
 -1       700 4.58333E-02 2.50000E-02 0.00000E+00
 -1       701 4.68750E-02 2.50000E-02 0.00000E+00
 -1       702 4.79167E-02 2.50000E-02 0.00000E+00
 -1       703 4.89583E-02 2.50000E-02 0.00000E+00
 -1       704 5.10417E-02 2.50000E-02 0.00000E+00
 -1       705 5.20833E-02 2.50000E-02 0.00000E+00
 -1       706 5.31250E-02 2.50000E-02 0.00000E+00
 -1       707 5.41667E-02 2.50000E-02 0.00000E+00
 -1       708 5.52083E-02 2.50000E-02 0.00000E+00
 -1       709 5.62500E-02 2.50000E-02 0.00000E+00
 -1       710 5.72917E-02 2.50000E-02 0.00000E+00
 -1       711 5.93750E-02 2.50000E-02 0.00000E+00
 -1       712 6.04167E-02 2.50000E-02 0.00000E+00
 -1       713 6.14583E-02 2.50000E-02 0.00000E+00
 -1       714 6.25000E-02 2.50000E-02 0.00000E+00
 -1       715 6.35417E-02 2.50000E-02 0.00000E+00
 -1       716 6.45833E-02 2.50000E-02 0.00000E+00
 -1       717 6.56250E-02 2.50000E-02 0.00000E+00
 -1       718 6.77083E-02 2.50000E-02 0.00000E+00
 -1       719 6.87500E-02 2.50000E-02 0.00000E+00
 -1       720 6.97917E-02 2.50000E-02 0.00000E+00
 -1       721 7.08333E-02 2.50000E-02 0.00000E+00
 -1       722 7.18750E-02 2.50000E-02 0.00000E+00
 -1       723 7.29167E-02 2.50000E-02 0.00000E+00
 -1       724 7.39583E-02 2.50000E-02 0.00000E+00
 -1       725 7.60417E-02 2.50000E-02 0.00000E+00
 -1       726 7.70833E-02 2.50000E-02 0.00000E+00
 -1       727 7.81250E-02 2.50000E-02 0.00000E+00
 -1       728 7.91667E-02 2.50000E-02 0.00000E+00
 -1       729 8.02083E-02 2.50000E-02 0.00000E+00
 -1       730 8.12500E-02 2.50000E-02 0.00000E+00
 -1       731 8.22917E-02 2.50000E-02 0.00000E+00
 -1       732 8.43750E-02 2.50000E-02 0.00000E+00
 -1       733 8.54167E-02 2.50000E-02 0.00000E+00
 -1       734 8.64583E-02 2.50000E-02 0.00000E+00
 -1       735 8.75000E-02 2.50000E-02 0.00000E+00
 -1       736 8.85417E-02 2.50000E-02 0.00000E+00
 -1       737 8.95833E-02 2.50000E-02 0.00000E+00
 -1       738 9.06250E-02 2.50000E-02 0.00000E+00
 -1       739 9.27083E-02 2.50000E-02 0.00000E+00
 -1       740 9.37500E-02 2.50000E-02 0.00000E+00
 -1       741 9.47917E-02 2.50000E-02 0.00000E+00
 -1       742 9.58333E-02 2.50000E-02 0.00000E+00
 -1       743 9.68750E-02 2.50000E-02 0.00000E+00
 -1       744 9.79167E-02 2.50000E-02 0.00000E+00
 -1       745 9.89583E-02 2.50000E-02 0.00000E+00
 -3
    3C                           340                                     1
 -1         1   12    0    1
 -2         1        67        66
 -1         2   12    0    1
 -2        67        69        68
 -1         3   12    0    1
 -2        69        71        70
 -1         4   12    0    1
 -2        71         2        72
 -1         5   12    0    1
 -2         1        74        73
 -1         6   12    0    1
 -2        74        76        75
 -1         7   12    0    1
 -2        76        14        77
 -1         8   12    0    1
 -2         2        79        78
 -1         9   12    0    1
 -2        79        81        80
 -1        10   12    0    1
 -2        81        83        82
 -1        11   12    0    1
 -2        83         3        84
 -1        12   12    0    1
 -2         2        86        85
 -1        13   12    0    1
 -2        86        88        87
 -1        14   12    0    1
 -2        88        15        89
 -1        15   12    0    1
 -2         3        91        90
 -1        16   12    0    1
 -2        91        93        92
 -1        17   12    0    1
 -2        93        95        94
 -1        18   12    0    1
 -2        95         4        96
 -1        19   12    0    1
 -2         3        98        97
 -1        20   12    0    1
 -2        98       100        99
 -1        21   12    0    1
 -2       100        16       101
 -1        22   12    0    1
 -2         4       103       102
 -1        23   12    0    1
 -2       103       105       104
 -1        24   12    0    1
 -2       105       107       106
 -1        25   12    0    1
 -2       107         5       108
 -1        26   12    0    1
 -2         4       110       109
 -1        27   12    0    1
 -2       110       112       111
 -1        28   12    0    1
 -2       112        17       113
 -1        29   12    0    1
 -2         5       115       114
 -1        30   12    0    1
 -2       115       117       116
 -1        31   12    0    1
 -2       117       119       118
 -1        32   12    0    1
 -2       119         6       120
 -1        33   12    0    1
 -2         5       122       121
 -1        34   12    0    1
 -2       122       124       123
 -1        35   12    0    1
 -2       124        18       125
 -1        36   12    0    1
 -2         6       127       126
 -1        37   12    0    1
 -2       127       129       128
 -1        38   12    0    1
 -2       129       131       130
 -1        39   12    0    1
 -2       131         7       132
 -1        40   12    0    1
 -2         6       134       133
 -1        41   12    0    1
 -2       134       136       135
 -1        42   12    0    1
 -2       136        19       137
 -1        43   12    0    1
 -2         7       139       138
 -1        44   12    0    1
 -2       139       141       140
 -1        45   12    0    1
 -2       141       143       142
 -1        46   12    0    1
 -2       143         8       144
 -1        47   12    0    1
 -2         7       146       145
 -1        48   12    0    1
 -2       146       148       147
 -1        49   12    0    1
 -2       148        20       149
 -1        50   12    0    1
 -2         8       151       150
 -1        51   12    0    1
 -2       151       153       152
 -1        52   12    0    1
 -2       153       155       154
 -1        53   12    0    1
 -2       155         9       156
 -1        54   12    0    1
 -2         8       158       157
 -1        55   12    0    1
 -2       158       160       159
 -1        56   12    0    1
 -2       160        21       161
 -1        57   12    0    1
 -2         9       170       169
 -1        58   12    0    1
 -2       170       172       171
 -1        59   12    0    1
 -2       172        22       173
 -1        60   12    0    1
 -2        14       216       215
 -1        61   12    0    1
 -2       216       218       217
 -1        62   12    0    1
 -2       218       220       219
 -1        63   12    0    1
 -2       220        15       221
 -1        64   12    0    1
 -2        14       223       222
 -1        65   12    0    1
 -2       223       225       224
 -1        66   12    0    1
 -2       225        27       226
 -1        67   12    0    1
 -2        15       228       227
 -1        68   12    0    1
 -2       228       230       229
 -1        69   12    0    1
 -2       230       232       231
 -1        70   12    0    1
 -2       232        16       233
 -1        71   12    0    1
 -2        15       235       234
 -1        72   12    0    1
 -2       235       237       236
 -1        73   12    0    1
 -2       237        28       238
 -1        74   12    0    1
 -2        16       240       239
 -1        75   12    0    1
 -2       240       242       241
 -1        76   12    0    1
 -2       242       244       243
 -1        77   12    0    1
 -2       244        17       245
 -1        78   12    0    1
 -2        16       247       246
 -1        79   12    0    1
 -2       247       249       248
 -1        80   12    0    1
 -2       249        29       250
 -1        81   12    0    1
 -2        17       252       251
 -1        82   12    0    1
 -2       252       254       253
 -1        83   12    0    1
 -2       254       256       255
 -1        84   12    0    1
 -2       256        18       257
 -1        85   12    0    1
 -2        17       259       258
 -1        86   12    0    1
 -2       259       261       260
 -1        87   12    0    1
 -2       261        30       262
 -1        88   12    0    1
 -2        18       264       263
 -1        89   12    0    1
 -2       264       266       265
 -1        90   12    0    1
 -2       266       268       267
 -1        91   12    0    1
 -2       268        19       269
 -1        92   12    0    1
 -2        18       271       270
 -1        93   12    0    1
 -2       271       273       272
 -1        94   12    0    1
 -2       273        31       274
 -1        95   12    0    1
 -2        19       276       275
 -1        96   12    0    1
 -2       276       278       277
 -1        97   12    0    1
 -2       278       280       279
 -1        98   12    0    1
 -2       280        20       281
 -1        99   12    0    1
 -2        19       283       282
 -1       100   12    0    1
 -2       283       285       284
 -1       101   12    0    1
 -2       285        32       286
 -1       102   12    0    1
 -2        20       288       287
 -1       103   12    0    1
 -2       288       290       289
 -1       104   12    0    1
 -2       290       292       291
 -1       105   12    0    1
 -2       292        21       293
 -1       106   12    0    1
 -2        20       295       294
 -1       107   12    0    1
 -2       295       297       296
 -1       108   12    0    1
 -2       297        33       298
 -1       109   12    0    1
 -2        21       300       299
 -1       110   12    0    1
 -2       300       302       301
 -1       111   12    0    1
 -2       302       304       303
 -1       112   12    0    1
 -2       304        22       305
 -1       113   12    0    1
 -2        21       307       306
 -1       114   12    0    1
 -2       307       309       308
 -1       115   12    0    1
 -2       309        34       310
 -1       116   12    0    1
 -2        22       319       318
 -1       117   12    0    1
 -2       319       321       320
 -1       118   12    0    1
 -2       321        35       322
 -1       119   12    0    1
 -2        27       365       364
 -1       120   12    0    1
 -2       365       367       366
 -1       121   12    0    1
 -2       367       369       368
 -1       122   12    0    1
 -2       369        28       370
 -1       123   12    0    1
 -2        27       372       371
 -1       124   12    0    1
 -2       372       374       373
 -1       125   12    0    1
 -2       374        40       375
 -1       126   12    0    1
 -2        28       377       376
 -1       127   12    0    1
 -2       377       379       378
 -1       128   12    0    1
 -2       379       381       380
 -1       129   12    0    1
 -2       381        29       382
 -1       130   12    0    1
 -2        28       384       383
 -1       131   12    0    1
 -2       384       386       385
 -1       132   12    0    1
 -2       386        41       387
 -1       133   12    0    1
 -2        29       389       388
 -1       134   12    0    1
 -2       389       391       390
 -1       135   12    0    1
 -2       391       393       392
 -1       136   12    0    1
 -2       393        30       394
 -1       137   12    0    1
 -2        29       396       395
 -1       138   12    0    1
 -2       396       398       397
 -1       139   12    0    1
 -2       398        42       399
 -1       140   12    0    1
 -2        30       401       400
 -1       141   12    0    1
 -2       401       403       402
 -1       142   12    0    1
 -2       403       405       404
 -1       143   12    0    1
 -2       405        31       406
 -1       144   12    0    1
 -2        30       408       407
 -1       145   12    0    1
 -2       408       410       409
 -1       146   12    0    1
 -2       410        43       411
 -1       147   12    0    1
 -2        31       413       412
 -1       148   12    0    1
 -2       413       415       414
 -1       149   12    0    1
 -2       415       417       416
 -1       150   12    0    1
 -2       417        32       418
 -1       151   12    0    1
 -2        31       420       419
 -1       152   12    0    1
 -2       420       422       421
 -1       153   12    0    1
 -2       422        44       423
 -1       154   12    0    1
 -2        32       425       424
 -1       155   12    0    1
 -2       425       427       426
 -1       156   12    0    1
 -2       427       429       428
 -1       157   12    0    1
 -2       429        33       430
 -1       158   12    0    1
 -2        32       432       431
 -1       159   12    0    1
 -2       432       434       433
 -1       160   12    0    1
 -2       434        45       435
 -1       161   12    0    1
 -2        33       437       436
 -1       162   12    0    1
 -2       437       439       438
 -1       163   12    0    1
 -2       439       441       440
 -1       164   12    0    1
 -2       441        34       442
 -1       165   12    0    1
 -2        33       444       443
 -1       166   12    0    1
 -2       444       446       445
 -1       167   12    0    1
 -2       446        46       447
 -1       168   12    0    1
 -2        34       449       448
 -1       169   12    0    1
 -2       449       451       450
 -1       170   12    0    1
 -2       451       453       452
 -1       171   12    0    1
 -2       453        35       454
 -1       172   12    0    1
 -2        34       456       455
 -1       173   12    0    1
 -2       456       458       457
 -1       174   12    0    1
 -2       458        47       459
 -1       175   12    0    1
 -2        35       461       460
 -1       176   12    0    1
 -2       461       463       462
 -1       177   12    0    1
 -2       463       465       464
 -1       178   12    0    1
 -2       465        36       466
 -1       179   12    0    1
 -2        35       468       467
 -1       180   12    0    1
 -2       468       470       469
 -1       181   12    0    1
 -2       470        48       471
 -1       182   12    0    1
 -2        36       473       472
 -1       183   12    0    1
 -2       473       475       474
 -1       184   12    0    1
 -2       475       477       476
 -1       185   12    0    1
 -2       477        37       478
 -1       186   12    0    1
 -2        36       480       479
 -1       187   12    0    1
 -2       480       482       481
 -1       188   12    0    1
 -2       482        49       483
 -1       189   12    0    1
 -2        37       485       484
 -1       190   12    0    1
 -2       485       487       486
 -1       191   12    0    1
 -2       487       489       488
 -1       192   12    0    1
 -2       489        38       490
 -1       193   12    0    1
 -2        37       492       491
 -1       194   12    0    1
 -2       492       494       493
 -1       195   12    0    1
 -2       494        50       495
 -1       196   12    0    1
 -2        38       497       496
 -1       197   12    0    1
 -2       497       499       498
 -1       198   12    0    1
 -2       499       501       500
 -1       199   12    0    1
 -2       501        39       502
 -1       200   12    0    1
 -2        38       504       503
 -1       201   12    0    1
 -2       504       506       505
 -1       202   12    0    1
 -2       506        51       507
 -1       203   12    0    1
 -2        39       509       508
 -1       204   12    0    1
 -2       509       511       510
 -1       205   12    0    1
 -2       511        52       512
 -1       206   12    0    1
 -2        40       514       513
 -1       207   12    0    1
 -2       514       516       515
 -1       208   12    0    1
 -2       516       518       517
 -1       209   12    0    1
 -2       518        41       519
 -1       210   12    0    1
 -2        40       521       520
 -1       211   12    0    1
 -2       521       523       522
 -1       212   12    0    1
 -2       523        53       524
 -1       213   12    0    1
 -2        41       526       525
 -1       214   12    0    1
 -2       526       528       527
 -1       215   12    0    1
 -2       528       530       529
 -1       216   12    0    1
 -2       530        42       531
 -1       217   12    0    1
 -2        41       533       532
 -1       218   12    0    1
 -2       533       535       534
 -1       219   12    0    1
 -2       535        54       536
 -1       220   12    0    1
 -2        42       538       537
 -1       221   12    0    1
 -2       538       540       539
 -1       222   12    0    1
 -2       540       542       541
 -1       223   12    0    1
 -2       542        43       543
 -1       224   12    0    1
 -2        42       545       544
 -1       225   12    0    1
 -2       545       547       546
 -1       226   12    0    1
 -2       547        55       548
 -1       227   12    0    1
 -2        43       550       549
 -1       228   12    0    1
 -2       550       552       551
 -1       229   12    0    1
 -2       552       554       553
 -1       230   12    0    1
 -2       554        44       555
 -1       231   12    0    1
 -2        43       557       556
 -1       232   12    0    1
 -2       557       559       558
 -1       233   12    0    1
 -2       559        56       560
 -1       234   12    0    1
 -2        44       562       561
 -1       235   12    0    1
 -2       562       564       563
 -1       236   12    0    1
 -2       564       566       565
 -1       237   12    0    1
 -2       566        45       567
 -1       238   12    0    1
 -2        44       569       568
 -1       239   12    0    1
 -2       569       571       570
 -1       240   12    0    1
 -2       571        57       572
 -1       241   12    0    1
 -2        45       574       573
 -1       242   12    0    1
 -2       574       576       575
 -1       243   12    0    1
 -2       576       578       577
 -1       244   12    0    1
 -2       578        46       579
 -1       245   12    0    1
 -2        45       581       580
 -1       246   12    0    1
 -2       581       583       582
 -1       247   12    0    1
 -2       583        58       584
 -1       248   12    0    1
 -2        46       586       585
 -1       249   12    0    1
 -2       586       588       587
 -1       250   12    0    1
 -2       588       590       589
 -1       251   12    0    1
 -2       590        47       591
 -1       252   12    0    1
 -2        46       593       592
 -1       253   12    0    1
 -2       593       595       594
 -1       254   12    0    1
 -2       595        59       596
 -1       255   12    0    1
 -2        47       598       597
 -1       256   12    0    1
 -2       598       600       599
 -1       257   12    0    1
 -2       600       602       601
 -1       258   12    0    1
 -2       602        48       603
 -1       259   12    0    1
 -2        47       605       604
 -1       260   12    0    1
 -2       605       607       606
 -1       261   12    0    1
 -2       607        60       608
 -1       262   12    0    1
 -2        48       610       609
 -1       263   12    0    1
 -2       610       612       611
 -1       264   12    0    1
 -2       612       614       613
 -1       265   12    0    1
 -2       614        49       615
 -1       266   12    0    1
 -2        48       617       616
 -1       267   12    0    1
 -2       617       619       618
 -1       268   12    0    1
 -2       619        61       620
 -1       269   12    0    1
 -2        49       622       621
 -1       270   12    0    1
 -2       622       624       623
 -1       271   12    0    1
 -2       624       626       625
 -1       272   12    0    1
 -2       626        50       627
 -1       273   12    0    1
 -2        49       629       628
 -1       274   12    0    1
 -2       629       631       630
 -1       275   12    0    1
 -2       631        62       632
 -1       276   12    0    1
 -2        50       634       633
 -1       277   12    0    1
 -2       634       636       635
 -1       278   12    0    1
 -2       636       638       637
 -1       279   12    0    1
 -2       638        51       639
 -1       280   12    0    1
 -2        50       641       640
 -1       281   12    0    1
 -2       641       643       642
 -1       282   12    0    1
 -2       643        63       644
 -1       283   12    0    1
 -2        51       646       645
 -1       284   12    0    1
 -2       646       648       647
 -1       285   12    0    1
 -2       648       650       649
 -1       286   12    0    1
 -2       650        52       651
 -1       287   12    0    1
 -2        51       653       652
 -1       288   12    0    1
 -2       653       655       654
 -1       289   12    0    1
 -2       655        64       656
 -1       290   12    0    1
 -2        52       658       657
 -1       291   12    0    1
 -2       658       660       659
 -1       292   12    0    1
 -2       660        65       661
 -1       293   12    0    1
 -2        53       663       662
 -1       294   12    0    1
 -2       663       665       664
 -1       295   12    0    1
 -2       665       667       666
 -1       296   12    0    1
 -2       667        54       668
 -1       297   12    0    1
 -2        54       670       669
 -1       298   12    0    1
 -2       670       672       671
 -1       299   12    0    1
 -2       672       674       673
 -1       300   12    0    1
 -2       674        55       675
 -1       301   12    0    1
 -2        55       677       676
 -1       302   12    0    1
 -2       677       679       678
 -1       303   12    0    1
 -2       679       681       680
 -1       304   12    0    1
 -2       681        56       682
 -1       305   12    0    1
 -2        56       684       683
 -1       306   12    0    1
 -2       684       686       685
 -1       307   12    0    1
 -2       686       688       687
 -1       308   12    0    1
 -2       688        57       689
 -1       309   12    0    1
 -2        57       691       690
 -1       310   12    0    1
 -2       691       693       692
 -1       311   12    0    1
 -2       693       695       694
 -1       312   12    0    1
 -2       695        58       696
 -1       313   12    0    1
 -2        58       698       697
 -1       314   12    0    1
 -2       698       700       699
 -1       315   12    0    1
 -2       700       702       701
 -1       316   12    0    1
 -2       702        59       703
 -1       317   12    0    1
 -2        59       705       704
 -1       318   12    0    1
 -2       705       707       706
 -1       319   12    0    1
 -2       707       709       708
 -1       320   12    0    1
 -2       709        60       710
 -1       321   12    0    1
 -2        60       712       711
 -1       322   12    0    1
 -2       712       714       713
 -1       323   12    0    1
 -2       714       716       715
 -1       324   12    0    1
 -2       716        61       717
 -1       325   12    0    1
 -2        61       719       718
 -1       326   12    0    1
 -2       719       721       720
 -1       327   12    0    1
 -2       721       723       722
 -1       328   12    0    1
 -2       723        62       724
 -1       329   12    0    1
 -2        62       726       725
 -1       330   12    0    1
 -2       726       728       727
 -1       331   12    0    1
 -2       728       730       729
 -1       332   12    0    1
 -2       730        63       731
 -1       333   12    0    1
 -2        63       733       732
 -1       334   12    0    1
 -2       733       735       734
 -1       335   12    0    1
 -2       735       737       736
 -1       336   12    0    1
 -2       737        64       738
 -1       337   12    0    1
 -2        64       740       739
 -1       338   12    0    1
 -2       740       742       741
 -1       339   12    0    1
 -2       742       744       743
 -1       340   12    0    1
 -2       744        65       745
 -3
    1PSTEP                         1           1           1          
  100CL  101 1.000000000         641                     0    1           1
 -4  DISP        4    1
 -5  D1          1    2    1    0
 -5  D2          1    2    2    0
 -5  D3          1    2    3    0
 -5  ALL         1    2    0    0    1ALL
 -1         1-4.89117E-05 0.00000E+00 0.00000E+00
 -1         2-4.16010E-05 0.00000E+00 0.00000E+00
 -1         3-3.61980E-05 0.00000E+00 0.00000E+00
 -1         4-3.21088E-05 0.00000E+00 0.00000E+00
 -1         5-2.89814E-05 0.00000E+00 0.00000E+00
 -1         6-2.66152E-05 0.00000E+00 0.00000E+00
 -1         7-2.49021E-05 0.00000E+00 0.00000E+00
 -1         8-2.37999E-05 0.00000E+00 0.00000E+00
 -1         9-2.33378E-05 0.00000E+00 0.00000E+00
 -1        14-3.26108E-05 1.30564E-06 0.00000E+00
 -1        15-3.08115E-05-4.07102E-07 0.00000E+00
 -1        16-2.85521E-05-2.87206E-07 0.00000E+00
 -1        17-2.63134E-05-1.67005E-07 0.00000E+00
 -1        18-2.42778E-05-7.08461E-08 0.00000E+00
 -1        19-2.25105E-05-6.00190E-09 0.00000E+00
 -1        20-2.10248E-05-4.58234E-08 0.00000E+00
 -1        21-1.98326E-05-4.88368E-08 0.00000E+00
 -1        22-1.90201E-05 1.70487E-07 0.00000E+00
 -1        27-1.92406E-05 1.56195E-06 0.00000E+00
 -1        28-1.89957E-05-5.68938E-07 0.00000E+00
 -1        29-1.83756E-05-4.60514E-07 0.00000E+00
 -1        30-1.75211E-05-2.62860E-07 0.00000E+00
 -1        31-1.65271E-05-9.80398E-08 0.00000E+00
 -1        32-1.54485E-05 1.53225E-08 0.00000E+00
 -1        33-1.42710E-05-8.77963E-08 0.00000E+00
 -1        34-1.28193E-05-2.53312E-07 0.00000E+00
 -1        35-1.08740E-05 8.70098E-07 0.00000E+00
 -1        36-8.28987E-06 9.89234E-06 0.00000E+00
 -1        37-6.79017E-06 2.04288E-05 0.00000E+00
 -1        38-6.09307E-06 2.94781E-05 0.00000E+00
 -1        39-5.88616E-06 3.62597E-05 0.00000E+00
 -1        40-9.25593E-06 1.08402E-06 0.00000E+00
 -1        41-9.49299E-06-7.18834E-07 0.00000E+00
 -1        42-9.61081E-06-5.58139E-07 0.00000E+00
 -1        43-9.46940E-06-3.03732E-07 0.00000E+00
 -1        44-9.07570E-06-8.28531E-08 0.00000E+00
 -1        45-8.52978E-06 8.55132E-08 0.00000E+00
 -1        46-8.06035E-06-8.74695E-08 0.00000E+00
 -1        47-8.07801E-06-4.42552E-07 0.00000E+00
 -1        48-8.22510E-06 1.35470E-06 0.00000E+00
 -1        49-8.48387E-06 9.82781E-06 0.00000E+00
 -1        50-8.57327E-06 2.01675E-05 0.00000E+00
 -1        51-8.61585E-06 2.92211E-05 0.00000E+00
 -1        52-8.63439E-06 3.59937E-05 0.00000E+00
 -1        53 0.00000E+00 0.00000E+00 0.00000E+00
 -1        54-2.17302E-06-8.49174E-07 0.00000E+00
 -1        55-3.37951E-06-6.03051E-07 0.00000E+00
 -1        56-3.73926E-06-3.15791E-07 0.00000E+00
 -1        57-3.32024E-06-5.89783E-08 0.00000E+00
 -1        58-2.10374E-06 1.55525E-07 0.00000E+00
 -1        59 0.00000E+00 0.00000E+00 0.00000E+00
 -1        60-3.72123E-06-5.60818E-07 0.00000E+00
 -1        61-6.79730E-06 1.52801E-06 0.00000E+00
 -1        62-9.14030E-06 9.78402E-06 0.00000E+00
 -1        63-1.05739E-05 2.00528E-05 0.00000E+00
 -1        64-1.12492E-05 2.91103E-05 0.00000E+00
 -1        65-1.14536E-05 3.58939E-05 0.00000E+00
 -1        66-4.80104E-05 1.56172E-21-2.64698E-23
 -1        67-4.70939E-05 2.56757E-21 1.32349E-23
 -1        68-4.61745E-05 2.76609E-21 0.00000E+00
 -1        69-4.52537E-05 1.03232E-21 0.00000E+00
 -1        70-4.43331E-05 8.99973E-22 0.00000E+00
 -1        71-4.34142E-05 9.92617E-22-1.32349E-23
 -1        72-4.24986E-05 1.23084E-21 2.64698E-23
 -1        73-4.75544E-05 2.35765E-07-4.96308E-24
 -1        74-4.52380E-05 4.55384E-07-3.30872E-24
 -1        75-4.22706E-05 6.71036E-07-4.13590E-24
 -1        76-3.89673E-05 8.84011E-07 0.00000E+00
 -1        77-3.56433E-05 1.09589E-06 1.32349E-23
 -1        78-4.09306E-05 6.28657E-22 1.32349E-23
 -1        79-4.02528E-05 7.14684E-22 0.00000E+00
 -1        80-3.95737E-05-5.95570E-22-2.64698E-23
 -1        81-3.88940E-05 8.86738E-22 1.32349E-23
 -1        82-3.82145E-05 1.50216E-21 2.64698E-23
 -1        83-3.75363E-05 2.38228E-21-6.61744E-24
 -1        84-3.68606E-05 1.27055E-21-1.32349E-23
 -1        85-4.06245E-05-4.33766E-08-3.30872E-24
 -1        86-3.90080E-05-1.12561E-07 0.00000E+00
 -1        87-3.69825E-05-1.86741E-07 0.00000E+00
 -1        88-3.47842E-05-2.63152E-07 0.00000E+00
 -1        89-3.26494E-05-3.38965E-07 0.00000E+00
 -1        90-3.56909E-05 1.55510E-21 0.00000E+00
 -1        91-3.51780E-05 2.44845E-21 0.00000E+00
 -1        92-3.46640E-05 2.56095E-21 1.32349E-23
 -1        93-3.41496E-05 4.12929E-21-6.61744E-24
 -1        94-3.36353E-05 3.95061E-21 0.00000E+00
 -1        95-3.31220E-05 2.42860E-21 6.61744E-24
 -1        96-3.26105E-05 7.80858E-22-1.32349E-23
 -1        97-3.55228E-05-3.03851E-08-6.61744E-24
 -1        98-3.43950E-05-7.98722E-08 0.00000E+00
 -1        99-3.29726E-05-1.32920E-07 0.00000E+00
 -1       100-3.14173E-05-1.87374E-07-2.06795E-25
 -1       101-2.98905E-05-2.41051E-07 0.00000E+00
 -1       102-3.17209E-05 6.74979E-22-1.32349E-23
 -1       103-3.13287E-05 2.56095E-21 0.00000E+00
 -1       104-3.09356E-05 1.33672E-21 0.00000E+00
 -1       105-3.05422E-05 1.29702E-21-6.61744E-24
 -1       106-3.01489E-05 6.68362E-22 0.00000E+00
 -1       107-2.97564E-05 4.49986E-22-6.61744E-24
 -1       108-2.93652E-05 2.91168E-22 0.00000E+00
 -1       109-3.16091E-05-1.51526E-08-8.27181E-25
 -1       110-3.07671E-05-4.45432E-08 0.00000E+00
 -1       111-2.96984E-05-7.65253E-08 0.00000E+00
 -1       112-2.85213E-05-1.09422E-07 2.06795E-25
 -1       113-2.73540E-05-1.41545E-07-3.30872E-24
 -1       114-2.86877E-05-1.91906E-22-6.61744E-24
 -1       115-2.83909E-05 8.50342E-22-3.30872E-24
 -1       116-2.80935E-05 2.80249E-21 0.00000E+00
 -1       117-2.77959E-05 3.67930E-21 0.00000E+00
 -1       118-2.74984E-05 2.91498E-21 0.00000E+00
 -1       119-2.72015E-05 1.81649E-21 3.30872E-24
 -1       120-2.69056E-05 3.30872E-22 0.00000E+00
 -1       121-2.85827E-05-2.62448E-09-2.48154E-24
 -1       122-2.79067E-05-1.57967E-08 8.27181E-25
 -1       123-2.70448E-05-3.08587E-08 0.00000E+00
 -1       124-2.60905E-05-4.65210E-08-4.13590E-25
 -1       125-2.51373E-05-6.14847E-08 0.00000E+00
 -1       126-2.64022E-05 5.19469E-22 0.00000E+00
 -1       127-2.61872E-05 1.58819E-21 0.00000E+00
 -1       128-2.59718E-05 1.55510E-21 6.61744E-24
 -1       129-2.57563E-05 2.00178E-21 0.00000E+00
 -1       130-2.55409E-05 2.74624E-22-6.61744E-24
 -1       131-2.53260E-05-6.71671E-22 0.00000E+00
 -1       132-2.51119E-05-4.36751E-22 0.00000E+00
 -1       133-2.62717E-05 5.45213E-09 2.48154E-24
 -1       134-2.56863E-05 3.30545E-09-8.27181E-25
 -1       135-2.49374E-05-1.86998E-10 0.00000E+00
 -1       136-2.41052E-05-4.05504E-09 0.00000E+00
 -1       137-2.32697E-05-7.31809E-09-1.65436E-24
 -1       138-2.47647E-05 4.26825E-22-3.30872E-24
 -1       139-2.46262E-05 1.22257E-21 0.00000E+00
 -1       140-2.44875E-05 1.10346E-21-3.30872E-24
 -1       141-2.43488E-05 5.04580E-22-1.65436E-24
 -1       142-2.42101E-05-4.23516E-22 0.00000E+00
 -1       143-2.40719E-05 3.44107E-22 1.65436E-24
 -1       144-2.39342E-05-4.05319E-22 0.00000E+00
 -1       145-2.45799E-05-3.18793E-09 0.00000E+00
 -1       146-2.40293E-05-1.18262E-08 0.00000E+00
 -1       147-2.33237E-05-2.14176E-08 0.00000E+00
 -1       148-2.25379E-05-3.12182E-08 1.03398E-25
 -1       149-2.17469E-05-4.04696E-08 0.00000E+00
 -1       150-2.37417E-05 4.96308E-24 1.65436E-24
 -1       151-2.36838E-05 1.42027E-21 0.00000E+00
 -1       152-2.36259E-05 1.49802E-21 1.65436E-24
 -1       153-2.35680E-05 1.90582E-21 0.00000E+00
 -1       154-2.35102E-05 2.72639E-21-1.65436E-24
 -1       155-2.34524E-05 2.24993E-21 0.00000E+00
 -1       156-2.33948E-05 7.03104E-22 0.00000E+00
 -1       157-2.34636E-05-5.68434E-09 0.00000E+00
 -1       158-2.28932E-05-1.45189E-08 0.00000E+00
 -1       159-2.21661E-05-2.39094E-08 0.00000E+00
 -1       160-2.13611E-05-3.33865E-08-5.16988E-26
 -1       161-2.05572E-05-4.24614E-08 0.00000E+00
 -1       169-2.30568E-05 2.84630E-08 0.00000E+00
 -1       170-2.25264E-05 5.62544E-08 0.00000E+00
 -1       171-2.18012E-05 8.39330E-08 0.00000E+00
 -1       172-2.09376E-05 1.11730E-07 8.27181E-25
 -1       173-1.99918E-05 1.39913E-07 8.27181E-25
 -1       215-3.23887E-05 7.73449E-08 0.00000E+00
 -1       216-3.21631E-05-5.27712E-07 0.00000E+00
 -1       217-3.19365E-05-6.73554E-07 1.32349E-23
 -1       218-3.17095E-05-5.28569E-07 3.30872E-24
 -1       219-3.14826E-05-2.61216E-07 0.00000E+00
 -1       220-3.12563E-05-4.00349E-08-3.30872E-24
 -1       221-3.10311E-05-3.35156E-08 5.99706E-24
 -1       222-3.02950E-05 1.35438E-06 1.65436E-24
 -1       223-2.78891E-05 1.39758E-06 0.00000E+00
 -1       224-2.54866E-05 1.43969E-06 3.30872E-24
 -1       225-2.31818E-05 1.48115E-06-1.65436E-24
 -1       226-2.10691E-05 1.52237E-06 0.00000E+00
 -1       227-3.05364E-05-9.13222E-07 0.00000E+00
 -1       228-3.02531E-05-1.03318E-06 0.00000E+00
 -1       229-2.99683E-05-8.83903E-07 1.32349E-23
 -1       230-2.96827E-05-5.85109E-07-3.30872E-24
 -1       231-2.93970E-05-2.56539E-07 0.00000E+00
 -1       232-2.91120E-05-1.79587E-08 1.65436E-24
 -1       233-2.88284E-05 1.09115E-08-4.96308E-24
 -1       234-2.91111E-05-4.28342E-07 0.00000E+00
 -1       235-2.70673E-05-4.55765E-07 0.00000E+00
 -1       236-2.48556E-05-4.84467E-07 0.00000E+00
 -1       237-2.26546E-05-5.13602E-07 0.00000E+00
 -1       238-2.06428E-05-5.42345E-07 0.00000E+00
 -1       239-2.82785E-05-6.67208E-07 0.00000E+00
 -1       240-2.79977E-05-7.46128E-07-6.61744E-24
 -1       241-2.77156E-05-6.16741E-07 0.00000E+00
 -1       242-2.74328E-05-3.73997E-07-3.30872E-24
 -1       243-2.71501E-05-1.12869E-07 0.00000E+00
 -1       244-2.68679E-05 7.16491E-08 1.65436E-24
 -1       245-2.65871E-05 8.45994E-08 6.61744E-24
 -1       246-2.71357E-05-3.09813E-07 0.00000E+00
 -1       247-2.53903E-05-3.39396E-07 0.00000E+00
 -1       248-2.34775E-05-3.70354E-07-2.06795E-25
 -1       249-2.15616E-05-4.01750E-07 0.00000E+00
 -1       250-1.98070E-05-4.32662E-07 0.00000E+00
 -1       251-2.60640E-05-4.71993E-07 6.61744E-24
 -1       252-2.58087E-05-5.29936E-07 0.00000E+00
 -1       253-2.55523E-05-4.17970E-07 6.61744E-24
 -1       254-2.52953E-05-2.15023E-07 0.00000E+00
 -1       255-2.50383E-05-5.20411E-11 0.00000E+00
 -1       256-2.47820E-05 1.47982E-07-3.30872E-24
 -1       257-2.45268E-05 1.50141E-07 6.61744E-24
 -1       258-2.51177E-05-1.77358E-07 1.65436E-24
 -1       259-2.36245E-05-1.94088E-07 0.00000E+00
 -1       260-2.19750E-05-2.12046E-07-1.55096E-25
 -1       261-2.03126E-05-2.30371E-07 0.00000E+00
 -1       262-1.87809E-05-2.48210E-07 0.00000E+00
 -1       263-2.40609E-05-3.25991E-07 0.00000E+00
 -1       264-2.38392E-05-3.69604E-07-3.30872E-24
 -1       265-2.36166E-05-2.68893E-07 0.00000E+00
 -1       266-2.33936E-05-9.26157E-08 0.00000E+00
 -1       267-2.31706E-05 9.04432E-08-6.61744E-24
 -1       268-2.29481E-05 2.11494E-07-1.65436E-24
 -1       269-2.27266E-05 2.01776E-07 4.96308E-24
 -1       270-2.32390E-05-7.06965E-08 1.65436E-24
 -1       271-2.19315E-05-7.60121E-08 0.00000E+00
 -1       272-2.04800E-05-8.23582E-08 0.00000E+00
 -1       273-1.90113E-05-8.89735E-08 0.00000E+00
 -1       274-1.76520E-05-9.50985E-08-3.30872E-24
 -1       275-2.23278E-05-2.36580E-07 6.61744E-24
 -1       276-2.21413E-05-2.79049E-07 6.61744E-24
 -1       277-2.19541E-05-1.94380E-07 0.00000E+00
 -1       278-2.17667E-05-4.49402E-08 0.00000E+00
 -1       279-2.15792E-05 1.06882E-07 3.30872E-24
 -1       280-2.13922E-05 1.98694E-07-3.30872E-24
 -1       281-2.12061E-05 1.68126E-07 1.65436E-24
 -1       282-2.15699E-05 1.23383E-09 0.00000E+00
 -1       283-2.03831E-05 3.95199E-09 0.00000E+00
 -1       284-1.90628E-05 5.83804E-09-8.27181E-25
 -1       285-1.77240E-05 7.56790E-09 0.00000E+00
 -1       286-1.64815E-05 9.81959E-09 3.30872E-24
 -1       287-2.08781E-05-2.64249E-07 0.00000E+00
 -1       288-2.07284E-05-2.99730E-07 0.00000E+00
 -1       289-2.05781E-05-2.11755E-07-6.61744E-24
 -1       290-2.04275E-05-6.11730E-08-1.65436E-24
 -1       291-2.02769E-05 9.11406E-08 0.00000E+00
 -1       292-2.01268E-05 1.84312E-07 1.65436E-24
 -1       293-1.99775E-05 1.57489E-07-8.27181E-25
 -1       294-2.01199E-05-4.99304E-08 0.00000E+00
 -1       295-1.89801E-05-5.80108E-08 0.00000E+00
 -1       296-1.77146E-05-6.67855E-08-3.10193E-25
 -1       297-1.64343E-05-7.55706E-08 0.00000E+00
 -1       298-1.52500E-05-8.36767E-08 0.00000E+00
 -1       299-1.97333E-05-1.65560E-07 0.00000E+00
 -1       300-1.96317E-05-6.85529E-08 0.00000E+00
 -1       301-1.95297E-05 1.56925E-07 3.30872E-24
 -1       302-1.94275E-05 4.23936E-07-1.65436E-24
 -1       303-1.93252E-05 6.45497E-07 1.65436E-24
 -1       304-1.92230E-05 7.34673E-07-4.13590E-25
 -1       305-1.91211E-05 6.04568E-07-3.30872E-24
 -1       306-1.88880E-05-8.05885E-08 0.00000E+00
 -1       307-1.76868E-05-1.16263E-07 0.00000E+00
 -1       308-1.63533E-05-1.52570E-07 0.00000E+00
 -1       309-1.50137E-05-1.88695E-07 0.00000E+00
 -1       310-1.37943E-05-2.23811E-07 0.00000E+00
 -1       318-1.76564E-05 2.84468E-07-3.30872E-24
 -1       319-1.60886E-05 3.99851E-07 0.00000E+00
 -1       320-1.44709E-05 5.15604E-07 6.61744E-24
 -1       321-1.29592E-05 6.32004E-07 0.00000E+00
 -1       322-1.17093E-05 7.49294E-07-1.32349E-23
 -1       364-1.92120E-05 6.77907E-07 0.00000E+00
 -1       365-1.91815E-05 2.07946E-07 0.00000E+00
 -1       366-1.91505E-05 3.51408E-08 0.00000E+00
 -1       367-1.91192E-05 3.95497E-08 0.00000E+00
 -1       368-1.90880E-05 1.01157E-07-6.20385E-25
 -1       369-1.90568E-05 9.98929E-08 0.00000E+00
 -1       370-1.90258E-05-8.42616E-08 0.00000E+00
 -1       371-1.75929E-05 1.48614E-06 0.00000E+00
 -1       372-1.58540E-05 1.40674E-06-8.27181E-25
 -1       373-1.40869E-05 1.32659E-06 1.65436E-24
 -1       374-1.23557E-05 1.24603E-06-1.24077E-24
 -1       375-1.07245E-05 1.16533E-06-2.48154E-24
 -1       376-1.89211E-05-1.02991E-06-6.61744E-24
 -1       377-1.88434E-05-1.12413E-06 0.00000E+00
 -1       378-1.87652E-05-9.65514E-07 0.00000E+00
 -1       379-1.86866E-05-6.70686E-07 1.65436E-24
 -1       380-1.86080E-05-3.56338E-07-8.27181E-25
 -1       381-1.85296E-05-1.39176E-07 8.27181E-25
 -1       382-1.84516E-05-1.35850E-07 0.00000E+00
 -1       383-1.75454E-05-5.92002E-07 0.00000E+00
 -1       384-1.58668E-05-6.17045E-07 0.00000E+00
 -1       385-1.40902E-05-6.42535E-07 2.06795E-25
 -1       386-1.23479E-05-6.68169E-07 0.00000E+00
 -1       387-1.07722E-05-6.93666E-07 0.00000E+00
 -1       388-1.82719E-05-8.30958E-07 0.00000E+00
 -1       389-1.81648E-05-8.85598E-07 0.00000E+00
 -1       390-1.80571E-05-7.24438E-07-6.61744E-24
 -1       391-1.79491E-05-4.49843E-07 0.00000E+00
 -1       392-1.78410E-05-1.64212E-07 0.00000E+00
 -1       393-1.77332E-05 3.00384E-08 6.20385E-25
 -1       394-1.76259E-05 3.05374E-08 1.65436E-24
 -1       395-1.70658E-05-4.74442E-07 0.00000E+00
 -1       396-1.55163E-05-4.90860E-07 0.00000E+00
 -1       397-1.38607E-05-5.07808E-07 0.00000E+00
 -1       398-1.22345E-05-5.24926E-07 0.00000E+00
 -1       399-1.07735E-05-5.41874E-07 0.00000E+00
 -1       400-1.73998E-05-5.92117E-07 0.00000E+00
 -1       401-1.72753E-05-6.39703E-07 0.00000E+00
 -1       402-1.71501E-05-4.95190E-07 0.00000E+00
 -1       403-1.70246E-05-2.50240E-07-1.65436E-24
 -1       404-1.68991E-05 3.44180E-09 3.30872E-24
 -1       405-1.67738E-05 1.74152E-07 3.10193E-25
 -1       406-1.66491E-05 1.70215E-07-1.65436E-24
 -1       407-1.63306E-05-2.67134E-07 0.00000E+00
 -1       408-1.49123E-05-2.74209E-07 0.00000E+00
 -1       409-1.33908E-05-2.81851E-07 0.00000E+00
 -1       410-1.18926E-05-2.89659E-07 0.00000E+00
 -1       411-1.05440E-05-2.97248E-07 0.00000E+00
 -1       412-1.63952E-05-3.94560E-07 0.00000E+00
 -1       413-1.62601E-05-4.37061E-07 0.00000E+00
 -1       414-1.61243E-05-3.07013E-07 0.00000E+00
 -1       415-1.59882E-05-8.77669E-08 0.00000E+00
 -1       416-1.58522E-05 1.37288E-07 1.65436E-24
 -1       417-1.57163E-05 2.84755E-07-1.24077E-24
 -1       418-1.55810E-05 2.71280E-07 1.91286E-24
 -1       419-1.54401E-05-9.29538E-08 0.00000E+00
 -1       420-1.41371E-05-9.07665E-08 0.00000E+00
 -1       421-1.27330E-05-8.91493E-08-8.27181E-25
 -1       422-1.13441E-05-8.76849E-08 0.00000E+00
 -1       423-1.00868E-05-8.59686E-08 0.00000E+00
 -1       424-1.53042E-05-2.74169E-07 0.00000E+00
 -1       425-1.51567E-05-3.37483E-07 0.00000E+00
 -1       426-1.50085E-05-2.47163E-07 6.61744E-24
 -1       427-1.48600E-05-7.74343E-08 0.00000E+00
 -1       428-1.47115E-05 9.74524E-08 0.00000E+00
 -1       429-1.45633E-05 2.03236E-07 0.00000E+00
 -1       430-1.44156E-05 1.65689E-07-8.27181E-25
 -1       431-1.44542E-05 2.96447E-08 0.00000E+00
 -1       432-1.32606E-05 4.10497E-08 0.00000E+00
 -1       433-1.19688E-05 5.18816E-08 8.27181E-25
 -1       434-1.06816E-05 6.25338E-08-1.65436E-24
 -1       435-9.50152E-06 7.33913E-08 3.30872E-24
 -1       436-1.40936E-05-3.68458E-07 6.61744E-24
 -1       437-1.39117E-05-4.43435E-07 3.30872E-24
 -1       438-1.37289E-05-3.77504E-07 6.61744E-24
 -1       439-1.35456E-05-2.36951E-07-3.30872E-24
 -1       440-1.33623E-05-8.80900E-08 0.00000E+00
 -1       441-1.31794E-05 2.76309E-09 1.65436E-24
 -1       442-1.29973E-05-3.06875E-08-1.65436E-24
 -1       443-1.34048E-05-8.41850E-08-1.65436E-24
 -1       444-1.23694E-05-8.42596E-08 0.00000E+00
 -1       445-1.12405E-05-8.50636E-08-3.87741E-26
 -1       446-1.00949E-05-8.61945E-08-8.27181E-25
 -1       447-9.00960E-06-8.72577E-08 0.00000E+00
 -1       448-1.25833E-05-4.66846E-07 6.61744E-24
 -1       449-1.23403E-05-4.54557E-07 3.30872E-24
 -1       450-1.20961E-05-2.77810E-07 0.00000E+00
 -1       451-1.18511E-05 4.46197E-10 3.30872E-24
 -1       452-1.16060E-05 3.17239E-07 6.61744E-24
 -1       453-1.13610E-05 6.09565E-07 0.00000E+00
 -1       454-1.11163E-05 8.14453E-07 3.30872E-24
 -1       455-1.20803E-05-2.79431E-07-8.27181E-25
 -1       456-1.12336E-05-3.11013E-07 0.00000E+00
 -1       457-1.03440E-05-3.43636E-07 3.10193E-25
 -1       458-9.47782E-06-3.76786E-07 0.00000E+00
 -1       459-8.70088E-06-4.09971E-07 0.00000E+00
 -1       460-1.05555E-05 1.16576E-06 0.00000E+00
 -1       461-1.02311E-05 1.89361E-06-1.32349E-23
 -1       462-9.90582E-06 2.95821E-06-1.32349E-23
 -1       463-9.58022E-06 4.26127E-06 6.61744E-24
 -1       464-9.25478E-06 5.70446E-06 0.00000E+00
 -1       465-8.93006E-06 7.18940E-06 3.30872E-24
 -1       466-8.60656E-06 8.61767E-06-6.61744E-24
 -1       467-1.04184E-05 9.56912E-07 3.30872E-24
 -1       468-9.86686E-06 1.03873E-06 1.65436E-24
 -1       469-9.29525E-06 1.11948E-06-3.30872E-24
 -1       470-8.78024E-06 1.19936E-06-3.30872E-24
 -1       471-8.39848E-06 1.27852E-06 0.00000E+00
 -1       472-8.10204E-06 1.10329E-05 6.61744E-24
 -1       473-7.91341E-06 1.23244E-05 3.30872E-24
 -1       474-7.72475E-06 1.37173E-05-1.32349E-23
 -1       475-7.53615E-06 1.51609E-05 0.00000E+00
 -1       476-7.34770E-06 1.66045E-05 3.30872E-24
 -1       477-7.15972E-06 1.79973E-05 1.65436E-24
 -1       478-6.97256E-06 1.92886E-05-1.65436E-24
 -1       479-8.68158E-06 9.88961E-06 1.65436E-24
 -1       480-8.75295E-06 9.87916E-06 0.00000E+00
 -1       481-8.63528E-06 9.86727E-06 0.00000E+00
 -1       482-8.46232E-06 9.85448E-06 0.00000E+00
 -1       483-8.36785E-06 9.84133E-06 0.00000E+00
 -1       484-6.70276E-06 2.14924E-05 3.30872E-24
 -1       485-6.61498E-06 2.26439E-05-1.65436E-24
 -1       486-6.52718E-06 2.38495E-05 3.30872E-24
 -1       487-6.43942E-06 2.50744E-05-1.65436E-24
 -1       488-6.35172E-06 2.62843E-05 0.00000E+00
 -1       489-6.26429E-06 2.74444E-05 4.13590E-25
 -1       490-6.17731E-06 2.85202E-05-4.13590E-25
 -1       491-7.32664E-06 2.03903E-05 0.00000E+00
 -1       492-7.63722E-06 2.03466E-05 0.00000E+00
 -1       493-7.81875E-06 2.03019E-05 0.00000E+00
 -1       494-7.96977E-06 2.02568E-05 1.55096E-25
 -1       495-8.18887E-06 2.02117E-05 8.27181E-25
 -1       496-6.06695E-06 3.03421E-05 8.27181E-25
 -1       497-6.04074E-06 3.12350E-05-4.13590E-25
 -1       498-6.01453E-06 3.21401E-05-8.27181E-25
 -1       499-5.98833E-06 3.30405E-05 0.00000E+00
 -1       500-5.96217E-06 3.39195E-05-5.16988E-25
 -1       501-5.93616E-06 3.47601E-05 0.00000E+00
 -1       502-5.91040E-06 3.55456E-05 0.00000E+00
 -1       503-6.65919E-06 2.94379E-05 0.00000E+00
 -1       504-7.08739E-06 2.93948E-05 0.00000E+00
 -1       505-7.43692E-06 2.93512E-05 0.00000E+00
 -1       506-7.76811E-06 2.93074E-05 0.00000E+00
 -1       507-8.14125E-06 2.92637E-05 4.13590E-25
 -1       508-6.41453E-06 3.62166E-05 0.00000E+00
 -1       509-6.88054E-06 3.61720E-05-1.65436E-24
 -1       510-7.30964E-06 3.61272E-05 0.00000E+00
 -1       511-7.72776E-06 3.60823E-05 4.13590E-25
 -1       512-8.16081E-06 3.60375E-05 8.27181E-25
 -1       513-9.28934E-06 3.20966E-07 0.00000E+00
 -1       514-9.31949E-06-9.40062E-08 0.00000E+00
 -1       515-9.34891E-06-2.56543E-07 0.00000E+00
 -1       516-9.37794E-06-2.64824E-07 1.03398E-25
 -1       517-9.40682E-06-2.17098E-07 0.00000E+00
 -1       518-9.43562E-06-2.11667E-07-1.65436E-24
 -1       519-9.46440E-06-3.46796E-07 0.00000E+00
 -1       520-7.72650E-06 9.07881E-07 0.00000E+00
 -1       521-6.06973E-06 7.27837E-07 0.00000E+00
 -1       522-4.37668E-06 5.46954E-07 0.00000E+00
 -1       523-2.73956E-06 3.65494E-07 0.00000E+00
 -1       524-1.25055E-06 1.83678E-07 6.61744E-24
 -1       525-9.50835E-06-1.07803E-06 0.00000E+00
 -1       526-9.52324E-06-1.14473E-06 0.00000E+00
 -1       527-9.53800E-06-1.00965E-06 0.00000E+00
 -1       528-9.55270E-06-7.65680E-07 5.16988E-26
 -1       529-9.56737E-06-5.05790E-07 0.00000E+00
 -1       530-9.58199E-06-3.22955E-07 0.00000E+00
 -1       531-9.59657E-06-3.10100E-07 0.00000E+00
 -1       532-8.31341E-06-7.38750E-07 0.00000E+00
 -1       533-6.96082E-06-7.58820E-07 0.00000E+00
 -1       534-5.55222E-06-7.79139E-07-6.20385E-25
 -1       535-4.20611E-06-8.00028E-07 8.27181E-25
 -1       536-3.04097E-06-8.21859E-07 3.30872E-24
 -1       537-9.59432E-06-8.37554E-07 0.00000E+00
 -1       538-9.57673E-06-8.63578E-07 0.00000E+00
 -1       539-9.55891E-06-7.17270E-07 0.00000E+00
 -1       540-9.54097E-06-4.81606E-07 0.00000E+00
 -1       541-9.52300E-06-2.39597E-07 0.00000E+00
 -1       542-9.50503E-06-7.42676E-08 0.00000E+00
 -1       543-9.48711E-06-6.85989E-08 0.00000E+00
 -1       544-8.60952E-06-5.64618E-07 0.00000E+00
 -1       545-7.45603E-06-5.71332E-07-4.13590E-25
 -1       546-6.25274E-06-5.78203E-07 0.00000E+00
 -1       547-5.10341E-06-5.85346E-07 0.00000E+00
 -1       548-4.11175E-06-5.92909E-07 0.00000E+00
 -1       549-9.42178E-06-5.56587E-07 0.00000E+00
 -1       550-9.37254E-06-5.75149E-07 1.65436E-24
 -1       551-9.32298E-06-4.35416E-07 3.30872E-24
 -1       552-9.27327E-06-2.15147E-07 0.00000E+00
 -1       553-9.22352E-06 7.85484E-09 3.10193E-25
 -1       554-9.17384E-06 1.55793E-07 8.27181E-25
 -1       555-9.12433E-06 1.50899E-07 1.65436E-24
 -1       556-8.54795E-06-3.04998E-07 0.00000E+00
 -1       557-7.48674E-06-3.07091E-07 0.00000E+00
 -1       558-6.38002E-06-3.09353E-07 0.00000E+00
 -1       559-5.32321E-06-3.11644E-07 0.00000E+00
 -1       560-4.41176E-06-3.13845E-07 0.00000E+00
 -1       561-9.00903E-06-3.21087E-07 0.00000E+00
 -1       562-8.94063E-06-3.33267E-07 0.00000E+00
 -1       563-8.87191E-06-1.94334E-07 0.00000E+00
 -1       564-8.80302E-06 1.90648E-08-8.27181E-25
 -1       565-8.73412E-06 2.30243E-07 8.27181E-25
 -1       566-8.66534E-06 3.62519E-07 8.27181E-25
 -1       567-8.59684E-06 3.39247E-07-1.65436E-24
 -1       568-8.16509E-06-7.85203E-08 0.00000E+00
 -1       569-7.10567E-06-7.54569E-08 0.00000E+00
 -1       570-5.99391E-06-7.25545E-08 0.00000E+00
 -1       571-4.92757E-06-6.94289E-08 0.00000E+00
 -1       572-4.00438E-06-6.57039E-08 0.00000E+00
 -1       573-8.47175E-06-1.69733E-07 0.00000E+00
 -1       574-8.41272E-06-2.03951E-07 0.00000E+00
 -1       575-8.35349E-06-9.32448E-08 0.00000E+00
 -1       576-8.29418E-06 8.45836E-08-8.27181E-25
 -1       577-8.23490E-06 2.51704E-07 1.55096E-24
 -1       578-8.17583E-06 3.30291E-07 8.27181E-25
 -1       579-8.11713E-06 2.42559E-07 1.65436E-24
 -1       580-7.54465E-06 9.65700E-08 0.00000E+00
 -1       581-6.37687E-06 1.06413E-07-4.13590E-25
 -1       582-5.13700E-06 1.16194E-07-1.65436E-24
 -1       583-3.93714E-06 1.26533E-07 1.65436E-24
 -1       584-2.88937E-06 1.38051E-07 0.00000E+00
 -1       585-8.06150E-06-4.76881E-07 0.00000E+00
 -1       586-8.06345E-06-6.47556E-07 0.00000E+00
 -1       587-8.06554E-06-6.58579E-07 0.00000E+00
 -1       588-8.06772E-06-5.70628E-07 0.00000E+00
 -1       589-8.06996E-06-4.44422E-07 0.00000E+00
 -1       590-8.07230E-06-3.40712E-07 0.00000E+00
 -1       591-8.07479E-06-3.20231E-07 0.00000E+00
 -1       592-6.88747E-06-7.15194E-08 0.00000E+00
 -1       593-5.46530E-06-5.59222E-08 0.00000E+00
 -1       594-3.92875E-06-4.05813E-08-8.27181E-25
 -1       595-2.41478E-06-2.56188E-08 0.00000E+00
 -1       596-1.06031E-06-1.11829E-08 0.00000E+00
 -1       597-8.09677E-06-5.89853E-07 0.00000E+00
 -1       598-8.11552E-06-5.45784E-07 0.00000E+00
 -1       599-8.13425E-06-3.52044E-07 0.00000E+00
 -1       600-8.15297E-06-5.16687E-08 0.00000E+00
 -1       601-8.17164E-06 3.12266E-07-2.06795E-25
 -1       602-8.19015E-06 6.96619E-07 0.00000E+00
 -1       603-8.20837E-06 1.05827E-06 0.00000E+00
 -1       604-7.41950E-06-4.58299E-07 1.65436E-24
 -1       605-6.62537E-06-4.74294E-07 0.00000E+00
 -1       606-5.77656E-06-4.90774E-07 0.00000E+00
 -1       607-4.95514E-06-5.08600E-07-6.20385E-25
 -1       608-4.24316E-06-5.28698E-07 0.00000E+00
 -1       609-8.25506E-06 1.90649E-06 0.00000E+00
 -1       610-8.28721E-06 2.77959E-06 0.00000E+00
 -1       611-8.31990E-06 3.88730E-06 0.00000E+00
 -1       612-8.35293E-06 5.14054E-06 2.06795E-25
 -1       613-8.38607E-06 6.45021E-06 0.00000E+00
 -1       614-8.41912E-06 7.72713E-06 0.00000E+00
 -1       615-8.45195E-06 8.88213E-06-3.30872E-24
 -1       616-8.04664E-06 1.38644E-06 0.00000E+00
 -1       617-7.72508E-06 1.41869E-06 0.00000E+00
 -1       618-7.34937E-06 1.45066E-06 0.00000E+00
 -1       619-7.00968E-06 1.48148E-06 0.00000E+00
 -1       620-6.79614E-06 1.51022E-06-2.27475E-24
 -1       621-8.49488E-06 1.07745E-05 0.00000E+00
 -1       622-8.50588E-06 1.19798E-05 0.00000E+00
 -1       623-8.51702E-06 1.33650E-05 0.00000E+00
 -1       624-8.52825E-06 1.48495E-05-1.29247E-25
 -1       625-8.53951E-06 1.63525E-05 0.00000E+00
 -1       626-8.55074E-06 1.77933E-05 0.00000E+00
 -1       627-8.56190E-06 1.90913E-05 0.00000E+00
 -1       628-8.67509E-06 9.82230E-06 0.00000E+00
 -1       629-8.68531E-06 9.81714E-06 8.27181E-25
 -1       630-8.62510E-06 9.81183E-06 0.00000E+00
 -1       631-8.60650E-06 9.80578E-06 8.27181E-25
 -1       632-8.74155E-06 9.79837E-06 0.00000E+00
 -1       633-8.57903E-06 2.11339E-05 0.00000E+00
 -1       634-8.58428E-06 2.22537E-05 0.00000E+00
 -1       635-8.58950E-06 2.34744E-05 0.00000E+00
 -1       636-8.59470E-06 2.47426E-05 0.00000E+00
 -1       637-8.59989E-06 2.60047E-05 0.00000E+00
 -1       638-8.60508E-06 2.72073E-05 0.00000E+00
 -1       639-8.61026E-06 2.82968E-05 0.00000E+00
 -1       640-8.97995E-06 2.01494E-05 3.30872E-24
 -1       641-9.23440E-06 2.01314E-05 0.00000E+00
 -1       642-9.42828E-06 2.01132E-05 4.13590E-25
 -1       643-9.65451E-06 2.00948E-05 0.00000E+00
 -1       644-1.00060E-05 2.00755E-05 1.65436E-24
 -1       645-8.61866E-06 3.00258E-05 0.00000E+00
 -1       646-8.62086E-06 3.08981E-05 0.00000E+00
 -1       647-8.62297E-06 3.18105E-05 0.00000E+00
 -1       648-8.62503E-06 3.27349E-05 0.00000E+00
 -1       649-8.62709E-06 3.36434E-05 0.00000E+00
 -1       650-8.62919E-06 3.45079E-05 0.00000E+00
 -1       651-8.63140E-06 3.53004E-05 0.00000E+00
 -1       652-9.10141E-06 2.92030E-05 0.00000E+00
 -1       653-9.49213E-06 2.91849E-05 0.00000E+00
 -1       654-9.84481E-06 2.91668E-05-2.06795E-25
 -1       655-1.02170E-05 2.91485E-05 0.00000E+00
 -1       656-1.06663E-05 2.91300E-05 0.00000E+00
 -1       657-9.11435E-06 3.59770E-05 0.00000E+00
 -1       658-9.55800E-06 3.59604E-05 4.13590E-25
 -1       659-9.98940E-06 3.59439E-05 2.06795E-25
 -1       660-1.04330E-05 3.59273E-05 1.03398E-25
 -1       661-1.09130E-05 3.59107E-05-2.06795E-25
 -1       662-2.70938E-07-5.55882E-07 3.30872E-24
 -1       663-5.43772E-07-8.48810E-07 0.00000E+00
 -1       664-8.16875E-07-9.44777E-07 0.00000E+00
 -1       665-1.09006E-06-9.11728E-07-3.30872E-24
 -1       666-1.36311E-06-8.17680E-07 0.00000E+00
 -1       667-1.63558E-06-7.30729E-07-3.30872E-24
 -1       668-1.90703E-06-7.18945E-07 0.00000E+00
 -1       669-2.32463E-06-1.02386E-06-3.30872E-24
 -1       670-2.47636E-06-1.04192E-06 1.65436E-24
 -1       671-2.62808E-06-9.51563E-07 0.00000E+00
 -1       672-2.77973E-06-8.02223E-07 1.65436E-24
 -1       673-2.93125E-06-6.43354E-07 0.00000E+00
 -1       674-3.08236E-06-5.24425E-07-3.30872E-24
 -1       675-3.23277E-06-4.94872E-07 6.61744E-24
 -1       676-3.42614E-06-7.30209E-07-5.16988E-25
 -1       677-3.47175E-06-7.24604E-07-6.20385E-25
 -1       678-3.51714E-06-6.28702E-07 4.13590E-25
 -1       679-3.56238E-06-4.85977E-07 0.00000E+00
 -1       680-3.60751E-06-3.39928E-07 0.00000E+00
 -1       681-3.65238E-06-2.34056E-07 0.00000E+00
 -1       682-3.69685E-06-2.11842E-07 0.00000E+00
 -1       683-3.68959E-06-4.26366E-07 0.00000E+00
 -1       684-3.63766E-06-4.13703E-07 0.00000E+00
 -1       685-3.58530E-06-3.18466E-07 1.65436E-24
 -1       686-3.53266E-06-1.82255E-07 8.27181E-25
 -1       687-3.47992E-06-4.66868E-08-8.27181E-25
 -1       688-3.42704E-06 4.66234E-08-2.06795E-25
 -1       689-3.37401E-06 5.60774E-08-2.06795E-25
 -1       690-3.17218E-06-1.65170E-07 0.00000E+00
 -1       691-3.02044E-06-1.45180E-07 0.00000E+00
 -1       692-2.86800E-06-4.25186E-08-6.61744E-24
 -1       693-2.71515E-06 9.83544E-08-1.65436E-24
 -1       694-2.56218E-06 2.32959E-07 3.30872E-24
 -1       695-2.40918E-06 3.16821E-07 0.00000E+00
 -1       696-2.25625E-06 3.05487E-07 0.00000E+00
 -1       697-1.84316E-06 3.12045E-08 6.61744E-24
 -1       698-1.57716E-06 4.38904E-08 0.00000E+00
 -1       699-1.31023E-06 1.40701E-07 0.00000E+00
 -1       700-1.04299E-06 2.67697E-07 0.00000E+00
 -1       701-7.76090E-07 3.70928E-07 6.61744E-24
 -1       702-5.10715E-07 3.96454E-07 0.00000E+00
 -1       703-2.48101E-07 2.90353E-07-3.30872E-24
 -1       704-4.47175E-07-3.49308E-07 6.61744E-24
 -1       705-9.12228E-07-5.43464E-07-3.30872E-24
 -1       706-1.38063E-06-6.19399E-07 1.32349E-23
 -1       707-1.85087E-06-6.15227E-07 0.00000E+00
 -1       708-2.32148E-06-5.69118E-07 0.00000E+00
 -1       709-2.79158E-06-5.19307E-07 0.00000E+00
 -1       710-3.26033E-06-5.04016E-07 0.00000E+00
 -1       711-4.10292E-06-6.25795E-07-6.61744E-24
 -1       712-4.48880E-06-5.51673E-07 0.00000E+00
 -1       713-4.87542E-06-3.60770E-07-6.61744E-24
 -1       714-5.26239E-06-7.63847E-08 0.00000E+00
 -1       715-5.64925E-06 2.78132E-07 0.00000E+00
 -1       716-6.03536E-06 6.79323E-07-6.61744E-24
 -1       717-6.42008E-06 1.10373E-06-6.61744E-24
 -1       718-7.08758E-06 2.15412E-06 0.00000E+00
 -1       719-7.38141E-06 3.00634E-06 0.00000E+00
 -1       720-7.67597E-06 4.03067E-06-6.61744E-24
 -1       721-7.97088E-06 5.17142E-06 3.30872E-24
 -1       722-8.26576E-06 6.37286E-06 6.61744E-24
 -1       723-8.56005E-06 7.57915E-06 0.00000E+00
 -1       724-8.85318E-06 8.73449E-06 0.00000E+00
 -1       725-9.31927E-06 1.08492E-05-3.30872E-24
 -1       726-9.49925E-06 1.20780E-05-3.30872E-24
 -1       727-9.67949E-06 1.34206E-05 0.00000E+00
 -1       728-9.85983E-06 1.48258E-05 0.00000E+00
 -1       729-1.00401E-05 1.62426E-05 0.00000E+00
 -1       730-1.02198E-05 1.76199E-05-3.30872E-24
 -1       731-1.03988E-05 1.89066E-05 0.00000E+00
 -1       732-1.06592E-05 2.11227E-05-3.30872E-24
 -1       733-1.07441E-05 2.22770E-05-8.27181E-25
 -1       734-1.08291E-05 2.34828E-05-1.65436E-24
 -1       735-1.09139E-05 2.47066E-05 0.00000E+00
 -1       736-1.09986E-05 2.59147E-05-3.30872E-24
 -1       737-1.10831E-05 2.70736E-05 0.00000E+00
 -1       738-1.11671E-05 2.81497E-05 0.00000E+00
 -1       739-1.12757E-05 2.99776E-05-8.27181E-25
 -1       740-1.13014E-05 3.08712E-05 4.13590E-25
 -1       741-1.13270E-05 3.17752E-05 0.00000E+00
 -1       742-1.13525E-05 3.26738E-05 0.00000E+00
 -1       743-1.13779E-05 3.35509E-05 0.00000E+00
 -1       744-1.14032E-05 3.43905E-05 0.00000E+00
 -1       745-1.14285E-05 3.51767E-05 0.00000E+00
 -3
    1PSTEP                         2           1           1          
  100CL  101 1.000000000         641                     0    1           1
 -4  STRESS      6    1
 -5  SXX         1    4    1    1
 -5  SYY         1    4    2    2
 -5  SZZ         1    4    3    3
 -5  SXY         1    4    1    2
 -5  SYZ         1    4    2    3
 -5  SZX         1    4    3    1
 -1         1 1.20221E+06 4.36313E+05-1.49567E+03 5.22932E+05-8.73115E-11-1.72440E-09
 -1         2 1.39911E+06 5.92588E+04-9.80482E+02 2.60431E+05-2.91038E-11 3.54112E-09
 -1         3 1.04346E+06 4.48891E+04-7.81744E+02 1.78170E+05 1.35818E-10-3.46608E-09
 -1         4 7.94284E+05 4.04286E+04-5.93083E+02 1.30427E+05-4.85064E-12-2.21379E-09
 -1         5 6.05813E+05 3.81037E+04-4.71257E+02 1.03213E+05-1.94026E-11 1.48831E-09
 -1         6 4.50886E+05 3.44688E+04-3.84011E+02 8.84394E+04-1.81899E-10 1.19348E-09
 -1         7 3.10096E+05 1.79908E+04-3.52296E+02 8.26653E+04 1.69772E-11 1.44792E-09
 -1         8 1.71357E+05 6.81420E+03-3.23961E+02 8.71312E+04-2.32831E-10-8.71069E-10
 -1         9 7.74168E+04 4.48017E+04-4.88053E+02 9.31612E+04 5.16593E-10-6.44491E-10
 -1        14 2.05807E+05 2.61460E+05-2.32086E+03 6.39943E+05-2.42532E-11-3.02657E-09
 -1        15 3.16734E+05-2.45717E+04-2.77888E+03 5.82535E+05 1.54614E-10 3.45935E-10
 -1        16 3.53199E+05-7.83043E+03-1.94266E+03 4.48088E+05-3.80169E-10-4.07574E-10
 -1        17 3.37569E+05 1.16183E+04-1.43843E+03 3.61079E+05 1.87356E-10-1.20777E-09
 -1        18 3.01990E+05 2.50300E+04-1.09974E+03 3.05026E+05-1.98270E-10-8.04253E-10
 -1        19 2.59645E+05 3.21183E+04-8.58397E+02 2.70310E+05-5.09317E-11 3.37984E-10
 -1        20 2.12425E+05 1.57350E+04-7.55243E+02 2.56129E+05 6.21185E-10-1.12253E-09
 -1        21 1.56235E+05-8.37319E+03-8.29137E+02 2.92508E+05-5.32054E-10 7.59570E-11
 -1        22 9.38827E+04 1.42049E+05-6.43595E+02 3.30990E+05 1.62891E-09 8.09640E-10
 -1        27 2.37129E+04-2.70196E+04-8.79222E+02 3.07196E+05 7.27596E-12 1.58108E-09
 -1        28 6.64910E+04-2.39762E+04-1.04426E+03 4.53374E+05 5.27507E-10-3.08688E-10
 -1        29 1.15287E+05-1.41966E+04-1.03680E+03 4.29908E+05-1.61890E-10 6.73367E-10
 -1        30 1.46521E+05 3.44851E+03-8.96432E+02 3.84395E+05 2.61934E-10-5.99428E-10
 -1        31 1.65777E+05 1.88079E+04-7.65726E+02 3.46524E+05-1.94632E-10 7.82052E-10
 -1        32 1.81651E+05 3.17197E+04-6.14999E+02 3.10861E+05 1.47338E-10 3.53523E-10
 -1        33 2.09543E+05 2.14958E+04-4.68572E+02 2.72057E+05 8.51287E-10 6.56470E-11
 -1        34 2.65541E+05-8.13316E+03-4.64594E+02 2.66410E+05-2.54659E-10-4.70095E-11
 -1        35 3.79180E+05 1.73369E+05 6.40120E+01 3.26794E+05 5.98448E-10-1.40061E-09
 -1        36 4.52323E+05 2.91193E+04-7.00812E+01 3.13044E+05-5.52488E-09-1.43048E-09
 -1        37 2.37688E+05-1.53687E+04-1.90675E+02 2.03327E+05 7.28323E-09-3.37877E-10
 -1        38 9.45469E+04-2.66636E+04-1.32924E+02 1.23466E+05 3.51671E-11-4.12835E-10
 -1        39 2.58989E+04-5.24445E+04-1.72200E+02 7.08147E+04 9.37416E-09 1.05359E-10
 -1        40-4.15606E+04-2.32696E+05-4.51182E+02 2.80479E+05-8.85242E-11 1.09441E-09
 -1        41-2.99379E+04-3.09389E+04-9.44346E+01 3.65952E+05-5.45697E-12 9.20551E-10
 -1        42 1.08612E+03-1.37248E+04-3.54635E+02 3.43899E+05-4.72937E-10 8.29559E-10
 -1        43 4.26969E+04-9.42130E+01-5.06105E+02 3.16951E+05-1.81899E-12 5.12564E-10
 -1        44 7.59299E+04 1.28647E+04-6.66644E+02 3.05370E+05-4.04725E-10 1.30662E-09
 -1        45 8.32085E+04 2.35445E+04-8.66881E+02 3.05940E+05-1.93722E-10 5.12308E-10
 -1        46 3.81324E+04 1.46587E+04-2.80154E+02 2.91884E+05 9.11314E-10 4.34213E-11
 -1        47-1.67568E+04-3.21512E+04 2.93970E+02 2.08527E+05-3.71983E-10 1.81828E-11
 -1        48-2.23089E+04 6.75891E+04 1.79405E+02 2.47650E+05-2.53749E-10-5.36637E-10
 -1        49-2.85092E+04-1.44175E+04-4.54057E+02 3.44286E+05-2.20007E-09-4.76277E-10
 -1        50-1.47371E+04-4.08561E+04-3.55040E+02 2.69757E+05 3.04590E-09-1.61307E-09
 -1        51-9.15979E+03-3.95180E+04-1.98185E+02 1.65176E+05 2.38333E-09-1.17472E-09
 -1        52-6.00243E+03-5.42393E+04-1.43840E+02 8.65150E+04 5.02935E-09 1.30169E-10
 -1        53-3.74981E+05-2.73786E+05-1.07130E+03 2.64501E+05-3.41061E-12 5.16593E-10
 -1        54-3.76164E+05-4.69932E+04-4.15738E+02 2.60329E+05-1.19902E-10 2.42532E-11
 -1        55-1.73784E+05-1.94812E+04-2.72869E+02 2.16999E+05-4.50693E-10 3.09228E-10
 -1        56 6.54246E+03-8.47526E+02-2.42175E+02 1.99262E+05 4.06430E-11 3.86838E-10
 -1        57 1.81648E+05 1.79165E+04-2.34538E+02 2.02967E+05-2.65838E-10 2.78912E-10
 -1        58 3.72317E+05 3.97840E+04 9.59247E+01 2.32523E+05-1.85291E-10 1.60071E-10
 -1        59-1.75670E+05-1.82790E+03-4.36804E+02 2.52857E+05-2.53597E-10-1.28057E-09
 -1        60-7.57029E+05-7.69140E+04-7.66828E+02 1.58289E+05 4.02726E-10-1.89175E-10
 -1        61-5.94288E+05-2.43905E+04-3.82599E+02 1.86464E+05-1.52196E-10-2.18279E-10
 -1        62-4.17687E+05-3.87359E+04-3.77448E+02 2.41118E+05-3.30592E-09 6.19669E-10
 -1        63-2.34668E+05-3.35847E+04-2.22836E+02 1.95713E+05 4.58550E-09-9.99231E-10
 -1        64-9.87794E+04-2.24017E+04-6.43812E+01 1.18158E+05 3.46349E-09 6.94854E-10
 -1        65-3.43869E+04-2.47666E+04 3.47231E+01 6.67774E+04 3.49299E-09 1.19871E-09
 -1        66 2.63410E+06 4.23500E+04 1.04959E+05 1.29694E-08 7.86851E-10-2.37196E-09
 -1        67 2.65458E+06 1.41409E+04 5.63762E+04 1.09849E-08 1.03317E-09-2.59843E-09
 -1        68 2.64301E+06 1.11660E+03 3.06736E+04 1.47412E-09-5.71320E-10-6.55746E-10
 -1        69 2.64588E+06 8.77685E+02 2.63755E+04 1.28551E-10-1.56398E-09 1.47713E-09
 -1        70 2.64289E+06 1.36906E+03 3.37883E+04-2.08297E-09-2.42373E-10-2.57387E-09
 -1        71 2.65638E+06 1.65943E+04 6.50232E+04 1.87174E-09 2.78556E-10-2.18279E-10
 -1        72 2.63240E+06 4.96554E+04 1.22606E+05 2.51748E-09-3.69602E-10 6.69388E-10
 -1        73-4.26273E+04 6.37244E+05-1.04405E+05 8.69593E+05 1.30967E-10-2.46655E-09
 -1        74-9.94432E+03 6.12113E+05-5.13257E+04 1.04841E+06-1.96451E-10 2.86673E-09
 -1        75 3.51866E+03 6.20379E+05-2.00713E+04 8.67662E+05 1.85537E-10 2.54659E-10
 -1        76 8.63161E+03 6.18120E+05-3.33838E+03 1.04952E+06 3.05590E-10 1.91994E-09
 -1        77 1.12990E+04 6.17955E+05 1.07654E+04 8.68484E+05 4.54975E-10 1.27329E-11
 -1        78 1.94531E+06 2.05595E+04 5.13148E+04 1.13869E-09-4.60387E-10 2.95222E-09
 -1        79 1.95524E+06 6.85658E+03 2.81856E+04-8.73229E-09-8.33746E-10-3.44562E-09
 -1        80 1.94961E+06 4.96560E+02 1.65277E+04-3.35490E-10 4.95652E-10-3.20210E-09
 -1        81 1.95125E+06 5.40089E+02 1.62264E+04-6.15049E-09 1.18259E-09 2.52970E-09
 -1        82 1.94934E+06 1.03152E+03 2.31324E+04-6.42956E-09 5.46972E-10-2.17915E-09
 -1        83 1.95907E+06 1.20612E+04 4.65259E+04-1.49612E-09-6.00112E-10-6.73936E-10
 -1        84 1.94172E+06 3.60427E+04 8.87339E+04-5.33691E-09-1.46763E-10-2.57205E-09
 -1        85-7.02174E+04-2.03284E+05-1.75203E+05 6.49122E+05 3.20142E-10-2.25555E-10
 -1        86-2.15203E+04-2.40282E+05-9.39501E+04 7.83300E+05 3.85626E-10 1.68802E-09
 -1        87-4.37991E+02-2.21504E+05-5.13080E+04 6.47824E+05 6.98492E-10 1.34605E-10
 -1        88-4.66050E+03-2.31126E+05-4.62875E+04 7.83888E+05 5.23869E-10-4.13388E-09
 -1        89-1.96345E+04-2.17561E+05-6.11453E+04 6.48606E+05 5.18412E-10-3.18505E-09
 -1        90 1.47173E+06 1.61305E+04 4.02259E+04 3.06954E-09-5.03219E-10-4.51109E-10
 -1        91 1.47952E+06 5.38231E+03 2.20158E+04-4.47653E-09-1.07569E-10 1.11754E-09
 -1        92 1.47510E+06 3.94971E+02 1.27614E+04 5.43264E-09 3.54500E-10 4.27235E-10
 -1        93 1.47636E+06 4.09500E+02 1.23007E+04 4.64030E-09 1.92874E-10 1.53250E-09
 -1        94 1.47492E+06 7.62765E+02 1.73048E+04 9.21546E-10-5.23248E-10 5.75255E-10
 -1        95 1.48216E+06 8.96327E+03 3.46339E+04-2.69529E-09-3.78084E-10-1.45883E-09
 -1        96 1.46926E+06 2.67791E+04 6.59680E+04-9.53150E-10 1.45875E-10-4.58385E-10
 -1        97-5.23360E+04-1.47492E+05-1.30804E+05 4.44119E+05-7.42148E-10-2.51021E-10
 -1        98-1.67212E+04-1.74525E+05-7.13364E+04 5.35817E+05-8.23093E-10 5.83896E-10
 -1        99-1.13737E+03-1.60042E+05-4.10772E+04 4.43187E+05-1.48248E-09 3.84534E-09
 -1       100-6.08724E+03-1.68468E+05-4.09561E+04 5.36284E+05-1.26238E-09-1.01755E-09
 -1       101-2.02944E+04-1.56247E+05-5.81128E+04 4.43699E+05-1.31331E-09-1.85173E-09
 -1       102 1.12525E+06 1.22050E+04 3.04410E+04-3.37332E-09-3.50123E-10-5.42059E-10
 -1       103 1.13114E+06 4.07344E+03 1.66580E+04-2.21235E-09-3.31286E-10-2.13618E-09
 -1       104 1.12780E+06 2.98866E+02 9.65054E+03-5.49036E-09-6.48714E-11 2.28965E-10
 -1       105 1.12875E+06 3.09508E+02 9.29590E+03-6.38693E-10-2.41055E-11 6.79591E-10
 -1       106 1.12766E+06 5.75723E+02 1.30719E+04 2.72345E-09 4.69909E-10-9.01764E-10
 -1       107 1.13313E+06 6.77040E+03 2.61609E+04 3.96153E-09 1.67794E-10 1.29148E-10
 -1       108 1.12339E+06 2.02237E+04 4.98280E+04 7.31234E-10-4.60165E-12 9.45874E-11
 -1       109-3.91676E+04-8.92403E+04-9.80850E+04 3.25147E+05-2.83762E-10 6.25732E-10
 -1       110-1.27698E+04-1.09303E+05-5.41464E+04 3.92207E+05-5.77529E-10-2.55022E-09
 -1       111-1.17679E+03-9.82417E+04-3.23526E+04 3.24435E+05-6.62112E-10-2.53203E-09
 -1       112-5.85367E+03-1.05287E+05-3.43010E+04 3.92593E+05-1.06593E-09 4.81748E-10
 -1       113-1.82889E+04-9.48658E+04-5.06004E+04 3.24791E+05-6.82121E-10-2.10002E-09
 -1       114 8.51184E+05 8.69157E+03 2.17083E+04-2.02772E-09 6.27550E-10 7.91260E-10
 -1       115 8.55381E+05 2.90029E+03 1.19285E+04-3.32170E-09 2.28231E-09-1.06320E-09
 -1       116 8.52995E+05 2.09139E+02 7.00351E+03-3.72059E-09 4.35367E-10 1.07809E-09
 -1       117 8.53690E+05 2.29559E+02 6.89417E+03-1.80559E-09-7.57903E-10 2.21442E-09
 -1       118 8.52881E+05 4.39315E+02 9.84882E+03-3.02342E-09-3.19415E-10-6.07088E-10
 -1       119 8.57032E+05 5.14341E+03 1.98319E+04-3.77008E-09-6.80414E-10 4.41787E-10
 -1       120 8.49641E+05 1.53590E+04 3.78312E+04-1.98270E-09-5.64688E-10 1.36424E-10
 -1       121-2.90868E+04-4.17544E+04-7.29980E+04 2.57322E+05-1.60071E-10-6.36646E-10
 -1       122-9.56786E+03-5.66286E+04-4.06919E+04 3.10349E+05-8.00355E-11-8.22183E-10
 -1       123-9.99112E+02-4.83094E+04-2.50324E+04 2.56741E+05 2.72848E-11-1.17689E-09
 -1       124-5.04892E+03-5.40222E+04-2.77442E+04 3.10681E+05-2.09184E-10 1.62913E-09
 -1       125-1.54506E+04-4.54445E+04-4.20134E+04 2.57011E+05 8.73115E-11 1.48248E-10
 -1       126 6.16412E+05 5.47822E+03 1.37529E+04 8.89440E-09-6.72801E-11 1.20826E-09
 -1       127 6.19060E+05 1.82581E+03 7.68135E+03 2.96495E-09-7.92164E-11-4.63842E-11
 -1       128 6.17547E+05 1.22674E+02 4.74347E+03 5.92588E-09-3.15807E-10-2.23736E-10
 -1       129 6.18040E+05 1.67654E+02 5.03450E+03-1.19175E-09-2.50494E-10-3.31738E-10
 -1       130 6.17435E+05 3.50723E+02 7.56330E+03 1.67667E-09-3.31885E-11-6.34827E-10
 -1       131 6.20697E+05 4.04909E+03 1.55147E+04 4.48154E-09-4.50805E-10-3.65389E-10
 -1       132 6.14883E+05 1.20853E+04 2.97320E+04 2.28647E-09-1.53438E-10 2.36832E-09
 -1       133-2.09898E+04-9.08208E+03-5.28279E+04 2.20501E+05-7.27596E-12-5.82077E-11
 -1       134-6.91340E+03-1.98599E+04-2.97564E+04 2.65910E+05 5.27507E-10 2.32103E-09
 -1       135-7.58880E+02-1.38055E+04-1.88775E+04 2.19991E+05-5.63887E-11 2.81580E-09
 -1       136-4.11984E+03-1.83378E+04-2.18514E+04 2.66212E+05 4.18368E-10-8.37645E-10
 -1       137-1.25997E+04-1.14402E+04-3.39030E+04 2.20214E+05-1.27329E-11 1.80762E-09
 -1       138 3.96899E+05 2.84969E+03 7.23714E+03-3.00656E-09 2.90595E-10 1.37402E-09
 -1       139 3.98283E+05 9.47014E+02 4.18957E+03-3.96074E-09 8.77127E-11-3.11218E-10
 -1       140 3.97483E+05 5.29589E+01 2.85982E+03 4.48041E-09-2.34053E-10-2.30784E-10
 -1       141 3.97807E+05 1.14568E+02 3.44008E+03 1.18763E-09-3.50063E-11 1.54520E-09
 -1       142 3.97376E+05 2.70434E+02 5.54959E+03 1.85382E-09-9.75968E-11-2.25782E-10
 -1       143 3.99844E+05 3.06789E+03 1.16620E+04 4.77201E-09-3.38448E-10 1.84923E-09
 -1       144 3.95442E+05 9.15187E+03 2.24802E+04-1.41245E-09 2.85474E-11-1.17689E-09
 -1       145-1.50805E+04-2.67140E+04-3.81394E+04 2.06106E+05-5.09317E-11-1.15506E-09
 -1       146-4.94090E+03-3.45433E+04-2.18222E+04 2.48537E+05 1.26420E-09 6.88487E-10
 -1       147-5.48810E+02-3.01604E+04-1.44770E+04 2.05620E+05-1.63709E-11 3.04681E-09
 -1       148-3.43952E+03-3.38864E+04-1.77535E+04 2.48829E+05 1.88993E-09 2.42198E-09
 -1       149-1.06448E+04-2.81212E+04-2.83866E+04 2.05824E+05 1.36424E-10-4.00178E-10
 -1       150 1.65733E+05-5.74881E+02-1.35699E+03-1.98014E-10-1.69546E-10-1.79756E-09
 -1       151 1.65448E+05-1.94706E+02-6.02570E+02 4.47424E-09-1.11477E-10-3.88724E-10
 -1       152 1.65608E+05-2.42743E+01-8.47307E+01 8.38322E-10 5.35944E-11 1.09273E-09
 -1       153 1.65613E+05 1.12018E+01 3.36329E+02 9.98668E-11-3.28455E-11 3.58341E-10
 -1       154 1.65568E+05 5.58849E+01 9.06922E+02 1.31642E-09-4.89251E-11 6.05667E-10
 -1       155 1.66024E+05 5.87300E+02 2.15253E+03-2.37404E-09 1.46347E-10 2.04668E-09
 -1       156 1.65196E+05 1.74824E+03 4.26274E+03 3.09910E-09-1.35139E-10 1.09185E-09
 -1       157-8.70050E+03-2.60519E+04-2.21744E+04 2.17197E+05 4.25644E-10 1.00226E-09
 -1       158-2.73606E+03-3.07329E+04-1.29141E+04 2.61931E+05 1.12777E-10-2.16642E-09
 -1       159-2.17921E+02-2.82334E+04-9.01148E+03 2.16692E+05 4.92946E-10-4.15639E-10
 -1       160-2.18553E+03-3.07551E+04-1.17157E+04 2.62216E+05 3.40151E-10-8.85905E-10
 -1       161-7.19452E+03-2.67967E+04-1.92822E+04 2.16918E+05 3.90173E-10-5.97083E-10
 -1       169-1.96805E+03 7.99767E+04-5.38402E+03 1.55226E+05-2.81943E-10 1.52613E-09
 -1       170-5.90910E+02 7.87001E+04-4.16129E+03 1.86843E+05 2.74304E-09-4.07454E-10
 -1       171-1.07953E+02 7.92829E+04-4.74924E+03 1.54713E+05-4.82032E-11 2.58296E-10
 -1       172-1.93950E+03 7.72293E+04-8.79913E+03 1.87350E+05 4.00541E-09 1.27011E-09
 -1       173-6.35818E+03 8.04747E+04-1.64376E+04 1.54728E+05 7.27596E-11-3.89264E-10
 -1       215 6.53187E+05 5.21117E+03 1.79965E+04 4.63756E+05 5.31145E-10-1.01863E-10
 -1       216 6.55580E+05 1.45720E+03 1.02144E+04 5.58794E+05-1.45519E-11 2.93949E-09
 -1       217 6.51814E+05-1.96547E+02 6.15016E+03 4.62424E+05-1.09867E-09 1.27329E-10
 -1       218 6.51785E+05 4.45649E+02 6.41510E+03 5.60134E+05-3.15595E-10-8.62201E-10
 -1       219 6.50874E+05 5.87012E+02 9.31523E+03 4.62397E+05 4.59750E-10-2.91402E-09
 -1       220 6.55376E+05 4.96523E+03 1.88965E+04 5.59242E+05 2.19188E-10-1.83718E-09
 -1       221 6.49143E+05 1.39615E+04 3.58241E+04 4.63341E+05-1.49157E-10-1.14142E-09
 -1       222-1.34188E+04 1.28327E+05-3.50460E+04 2.59569E+05 1.63709E-11 2.16960E-09
 -1       223-3.35826E+03 1.21101E+05-1.67154E+04 3.13691E+05 1.34605E-10-2.72053E-10
 -1       224 8.35095E+02 1.25169E+05-5.11999E+03 2.59278E+05 1.50976E-10 1.13505E-09
 -1       225 2.87847E+03 1.26110E+05 2.73340E+03 3.13328E+05-3.03771E-10 6.33008E-10
 -1       226 6.06170E+03 1.24464E+05 1.14109E+04 2.59889E+05 2.25555E-10-1.60799E-09
 -1       227 8.16636E+05 2.10008E+04 5.35158E+04 3.29734E+05-4.22006E-10 1.33878E-09
 -1       228 8.26580E+05 7.08574E+03 2.85410E+04 3.97464E+05-8.73115E-11-1.98452E-09
 -1       229 8.19987E+05 6.27576E+02 1.49355E+04 3.28853E+05-2.07365E-10-8.05812E-10
 -1       230 8.21120E+05 6.64804E+02 1.18970E+04 3.98311E+05-8.32188E-11-6.91216E-10
 -1       231 8.19882E+05 6.46495E+02 1.40413E+04 3.28847E+05 3.21961E-10 5.45697E-11
 -1       232 8.25709E+05 6.55608E+03 2.60383E+04 3.97575E+05 6.53017E-10-7.27596E-11
 -1       233 8.16718E+05 1.91360E+04 4.84296E+04 3.29619E+05 3.16504E-10-1.47793E-09
 -1       234-1.46027E+04-7.57027E+04-3.97508E+04 4.90638E+05 6.91216E-10 2.16460E-09
 -1       235-2.97897E+03-8.46959E+04-2.12705E+04 5.92449E+05 5.67525E-10 1.12777E-10
 -1       236 1.37420E+03-8.01130E+04-1.17078E+04 4.89819E+05 1.06229E-09-7.98536E-10
 -1       237 4.81366E+02-8.21309E+04-1.07204E+04 5.92404E+05 4.43833E-10-8.22183E-10
 -1       238-3.89707E+03-7.80310E+04-1.45384E+04 4.90671E+05 8.62201E-10-3.09592E-09
 -1       239 8.08223E+05 1.88169E+04 4.75317E+04 2.61518E+05-3.89264E-10 1.56069E-09
 -1       240 8.17188E+05 6.33967E+03 2.54150E+04 3.15260E+05 1.16415E-10 2.60661E-09
 -1       241 8.11520E+05 5.49501E+02 1.34801E+04 2.60830E+05 5.91172E-10 2.13731E-09
 -1       242 8.12632E+05 5.39387E+02 1.10422E+04 3.15924E+05 9.36780E-11 1.84627E-09
 -1       243 8.11452E+05 5.91436E+02 1.34461E+04 2.60827E+05-6.12999E-10 1.72258E-09
 -1       244 8.16995E+05 6.39875E+03 2.53115E+04 3.15331E+05-2.30102E-10-1.24965E-09
 -1       245 8.08044E+05 1.88499E+04 4.73297E+04 2.61447E+05 6.18456E-11-1.33605E-09
 -1       246-1.74483E+04-8.37077E+04-4.61358E+04 4.51828E+05-1.68075E-09 7.31234E-10
 -1       247-4.36541E+03-9.38090E+04-2.51691E+04 5.45541E+05-1.65164E-09-1.58616E-09
 -1       248 7.98064E+02-8.85090E+04-1.46771E+04 4.51055E+05-2.10275E-09-1.65983E-10
 -1       249-9.54102E+02-9.14391E+04-1.49458E+04 5.45546E+05-2.00089E-09 3.65617E-10
 -1       250-6.96795E+03-8.61414E+04-2.16951E+04 4.51815E+05-1.10595E-09-2.48474E-09
 -1       251 7.34428E+05 1.57554E+04 3.96700E+04 2.17354E+05-6.36646E-11 5.78439E-10
 -1       252 7.41953E+05 5.30440E+03 2.12572E+04 2.62046E+05 1.34605E-10 2.05728E-09
 -1       253 7.37289E+05 4.53163E+02 1.13810E+04 2.16794E+05 2.06455E-10-7.49424E-10
 -1       254 7.38263E+05 4.35156E+02 9.50268E+03 2.62590E+05-1.64846E-10 4.03816E-10
 -1       255 7.37235E+05 5.11556E+02 1.18026E+04 2.16791E+05-1.77351E-10 5.82077E-11
 -1       256 7.42104E+05 5.68335E+03 2.24231E+04 2.62088E+05-8.06722E-10-3.11047E-10
 -1       257 7.34092E+05 1.68051E+04 4.20545E+04 2.17314E+05 1.12777E-10 1.44564E-09
 -1       258-1.63075E+04-4.77688E+04-4.26826E+04 3.94483E+05-8.65839E-10-1.79352E-09
 -1       259-4.38153E+03-5.69807E+04-2.35503E+04 4.76250E+05-1.56797E-09 1.70621E-09
 -1       260 4.27840E+02-5.20706E+04-1.41886E+04 3.93792E+05-1.30603E-09-7.40783E-10
 -1       261-1.57071E+03-5.51238E+04-1.52333E+04 4.76293E+05-1.69530E-09 3.81988E-10
 -1       262-7.71570E+03-4.98575E+04-2.27928E+04 3.94436E+05-9.82709E-10-8.00355E-10
 -1       263 6.37385E+05 1.27227E+04 3.20060E+04 1.89304E+05-6.09361E-10-3.89264E-10
 -1       264 6.43464E+05 4.28406E+03 1.71858E+04 2.28246E+05-5.86624E-10-8.45830E-11
 -1       265 6.39723E+05 3.64036E+02 9.27433E+03 1.88824E+05 4.98403E-10-1.24874E-09
 -1       266 6.40532E+05 3.51276E+02 7.86783E+03 2.28714E+05 7.68750E-10-2.35923E-09
 -1       267 6.39678E+05 4.28522E+02 9.92409E+03 1.88822E+05 1.46429E-10 2.91038E-10
 -1       268 6.43795E+05 4.81924E+03 1.89882E+04 2.28271E+05-2.65572E-10 2.10821E-09
 -1       269 6.36980E+05 1.42754E+04 3.56858E+04 1.89281E+05-2.52840E-10-5.16138E-11
 -1       270-1.41270E+04-1.54268E+04-3.69025E+04 3.48536E+05-1.70985E-10-2.00089E-09
 -1       271-3.91612E+03-2.33441E+04-2.06338E+04 4.20747E+05-5.63887E-10-3.07500E-09
 -1       272 2.27904E+02-1.90719E+04-1.29213E+04 3.47916E+05-1.23691E-10-2.67710E-09
 -1       273-1.88487E+03-2.20592E+04-1.46870E+04 4.20808E+05-5.52973E-10 9.61336E-10
 -1       274-7.94398E+03-1.69858E+04-2.26769E+04 3.48474E+05 7.23048E-11 5.09317E-11
 -1       275 5.35918E+05 1.00054E+04 2.52213E+04 1.71657E+05 4.47471E-10-7.22139E-10
 -1       276 5.40700E+05 3.36863E+03 1.36213E+04 2.06988E+05 1.16415E-10-9.78616E-10
 -1       277 5.37748E+05 2.80554E+02 7.50069E+03 1.71227E+05-5.36602E-11-1.15324E-09
 -1       278 5.38423E+05 2.89034E+02 6.61781E+03 2.07408E+05 3.76474E-10 6.49379E-10
 -1       279 5.37697E+05 3.77157E+02 8.64830E+03 1.71227E+05-2.81943E-11 7.13044E-10
 -1       280 5.41351E+05 4.28076E+03 1.68085E+04 2.06998E+05-9.34961E-10 4.87489E-10
 -1       281 5.35279E+05 1.27039E+04 3.17238E+04 1.71649E+05-2.43745E-10-2.50066E-09
 -1       282-1.17225E+04 7.53911E+03-3.07829E+04 3.15855E+05-1.81899E-10 5.47516E-10
 -1       283-3.27398E+03 9.29574E+02-1.75661E+04 3.81277E+05 7.00311E-10 9.45874E-10
 -1       284 1.32591E+02 4.53809E+03-1.16466E+04 3.15288E+05-1.03682E-10-1.91585E-09
 -1       285-2.12569E+03 1.59621E+03-1.42710E+04 3.81343E+05 6.87578E-10-1.77124E-09
 -1       286-8.25450E+03 6.60585E+03-2.28963E+04 3.15789E+05 2.19188E-10-8.31278E-10
 -1       287 4.30483E+05 8.26381E+03 2.09055E+04 1.67451E+05 1.09139E-10 1.94814E-09
 -1       288 4.34430E+05 2.78621E+03 1.13534E+04 2.01925E+05 5.20231E-10-4.12911E-10
 -1       289 4.31960E+05 2.31845E+02 6.36585E+03 1.67035E+05 3.61979E-10-8.10360E-10
 -1       290 4.32544E+05 2.60499E+02 5.80737E+03 2.02333E+05 4.30816E-10 3.01952E-10
 -1       291 4.31899E+05 3.50784E+02 7.80351E+03 1.67035E+05 2.01908E-10 1.38789E-09
 -1       292 4.35254E+05 3.92490E+03 1.53466E+04 2.01929E+05 1.38243E-10 5.12955E-10
 -1       293 4.29693E+05 1.16395E+04 2.90527E+04 1.67450E+05-1.58252E-10-1.17325E-09
 -1       294-1.03431E+04-2.33635E+04-2.75552E+04 3.05012E+05 2.18279E-11 3.32875E-10
 -1       295-2.88740E+03-2.93014E+04-1.63569E+04 3.68207E+05 2.66300E-09 6.59384E-10
 -1       296 5.48765E+01-2.59803E+04-1.19828E+04 3.04469E+05 9.64064E-11-1.81763E-09
 -1       297-2.86111E+03-2.93928E+04-1.64005E+04 3.68261E+05 2.75759E-09 1.08230E-09
 -1       298-1.03127E+04-2.34776E+04-2.76521E+04 3.04959E+05 3.00133E-10-1.96815E-09
 -1       299 2.92215E+05 5.80151E+03 1.46077E+04 2.39052E+05-1.47338E-10 4.20187E-10
 -1       300 2.94837E+05 2.05974E+03 7.64764E+03 2.88469E+05-1.06411E-10-5.11136E-10
 -1       301 2.93056E+05 2.69260E+02 3.69334E+03 2.38541E+05-1.36515E-09 5.82077E-10
 -1       302 2.93338E+05 2.25048E+02 2.40079E+03 2.88962E+05 1.79625E-10 1.72440E-09
 -1       303 2.93274E+05 4.09211E+01 2.11924E+03 2.38554E+05 1.01863E-10-2.47383E-10
 -1       304 2.94313E+05 6.24466E+02 3.29565E+03 2.88292E+05 1.12777E-10-2.65572E-09
 -1       305 2.93514E+05 1.85837E+03 5.70815E+03 2.39214E+05-6.40284E-10-3.12866E-09
 -1       306-1.02009E+04-1.02211E+05-2.78995E+04 3.47084E+05 6.02085E-10 1.74259E-09
 -1       307-2.73806E+03-1.08328E+05-1.74721E+04 4.19060E+05 5.42059E-10 1.97088E-09
 -1       308 6.03007E+01-1.04842E+05-1.44003E+04 3.46486E+05 6.89397E-10-1.55865E-09
 -1       309-4.18941E+03-1.09402E+05-2.18946E+04 4.19084E+05 9.05857E-10-3.40515E-09
 -1       310-1.46898E+04-1.01233E+05-3.84680E+04 3.47062E+05 2.93312E-10-6.18456E-10
 -1       318 5.14878E+03 3.33423E+05 8.96864E+03 4.29160E+05-1.64164E-10 3.74712E-10
 -1       319 2.92906E+03 3.34549E+05 2.72755E+03 5.18472E+05 6.02813E-09-2.87400E-10
 -1       320 1.05671E+03 3.34170E+05-2.72444E+03 4.28635E+05 2.25555E-10-1.96087E-09
 -1       321-1.75909E+03 3.32351E+05-1.01443E+04 5.18099E+05 4.59477E-09-9.98625E-10
 -1       322-8.77594E+03 3.37691E+05-2.18790E+04 4.29538E+05 6.14818E-10-1.20417E-09
 -1       364 9.07275E+04 2.76475E+03 9.11737E+03 3.30062E+05-2.51021E-10 1.65164E-09
 -1       365 9.20001E+04 7.81958E+02 4.87689E+03 3.97804E+05-4.63842E-10-6.80302E-10
 -1       366 9.01873E+04-8.60514E+01 2.39778E+03 3.29150E+05-2.23736E-10-5.05679E-10
 -1       367 9.01327E+04 1.01966E+02 1.68303E+03 3.98726E+05 1.09139E-10-2.85218E-09
 -1       368 8.99481E+04 2.58432E+01 1.60969E+03 3.29134E+05 2.72848E-10-6.33008E-10
 -1       369 9.08636E+04 4.97379E+02 2.65062E+03 3.98030E+05 3.49246E-10 8.40373E-10
 -1       370 9.03803E+04 1.36193E+03 4.61464E+03 3.29849E+05 1.67347E-10-1.04410E-09
 -1       371-8.91293E+03-2.24939E+05-2.29248E+04 1.75512E+05-1.81899E-11-4.82032E-11
 -1       372-2.42840E+03-2.29624E+05-1.12661E+04 2.12116E+05 4.63842E-11-3.09399E-09
 -1       373 3.46057E+02-2.27041E+05-4.15290E+03 1.75266E+05 1.25510E-10-2.18233E-09
 -1       374 1.23117E+03-2.26891E+05-8.60507E+01 2.11979E+05-2.60115E-10 1.96451E-09
 -1       375 2.41995E+03-2.27383E+05 3.79464E+03 1.75630E+05-2.07365E-10 2.28465E-09
 -1       376 2.25277E+05 6.94314E+03 1.85347E+04 3.20910E+05-3.63798E-11 1.67347E-09
 -1       377 2.28413E+05 2.39848E+03 9.85688E+03 3.86908E+05-5.91172E-10 1.81899E-11
 -1       378 2.25764E+05 2.61361E+02 4.98607E+03 3.20082E+05-3.41970E-10 1.18234E-09
 -1       379 2.26001E+05 3.78788E+02 3.69205E+03 3.87730E+05 2.24077E-10 1.42609E-09
 -1       380 2.25716E+05 2.35074E+02 3.94020E+03 3.20076E+05 1.38243E-10-1.78261E-10
 -1       381 2.27581E+05 1.68562E+03 6.93908E+03 3.86986E+05 1.01863E-10 3.71074E-10
 -1       382 2.25586E+05 4.63992E+03 1.25954E+04 3.20833E+05 4.87489E-10 4.74756E-10
 -1       383-3.87482E+03-6.89287E+04-1.18024E+04 3.63451E+05 2.43745E-10-5.09317E-10
 -1       384-1.26828E+02-7.18437E+04-6.01136E+03 4.38976E+05 3.71074E-10-4.38740E-09
 -1       385 1.03987E+03-7.04163E+04-2.80280E+03 3.62896E+05 5.02041E-10-1.40562E-09
 -1       386 1.21471E+03-7.05957E+04-1.63797E+03 4.38848E+05 2.32831E-10-6.95763E-10
 -1       387 3.93146E+02-6.96105E+04-1.36627E+03 3.63576E+05 4.38376E-10 2.31739E-09
 -1       388 3.09157E+05 8.19753E+03 2.12573E+04 2.81663E+05 1.52795E-10 1.50612E-09
 -1       389 3.12940E+05 2.81575E+03 1.13071E+04 3.39608E+05 5.96629E-10 5.45697E-10
 -1       390 3.10148E+05 2.93485E+02 5.79694E+03 2.80943E+05-7.54881E-10-5.00222E-10
 -1       391 3.10519E+05 3.53153E+02 4.41787E+03 3.40318E+05-2.60661E-09-4.51109E-10
 -1       392 3.10138E+05 2.52013E+02 4.92645E+03 2.80941E+05-9.22228E-10-7.94898E-10
 -1       393 3.12323E+05 2.18487E+03 8.88278E+03 3.39655E+05 1.00226E-09 3.16504E-10
 -1       394 3.09501E+05 6.23081E+03 1.63178E+04 2.81615E+05 9.31323E-10 7.25777E-10
 -1       395-5.44512E+03-4.49744E+04-1.55580E+04 3.72731E+05-1.78079E-09-5.71163E-10
 -1       396-7.10177E+02-4.86546E+04-8.16300E+03 4.50152E+05-1.30603E-09-1.55887E-09
 -1       397 9.05878E+02-4.68120E+04-4.23793E+03 3.72152E+05-1.77897E-09-2.20416E-09
 -1       398 7.70787E+02-4.73443E+04-3.41038E+03 4.50042E+05-1.65528E-09-1.51886E-09
 -1       399-7.64802E+02-4.57857E+04-4.21308E+03 3.72838E+05-1.12050E-09 9.53150E-10
 -1       400 3.58932E+05 8.34278E+03 2.14256E+04 2.52242E+05 1.34605E-10-1.30967E-10
 -1       401 3.62819E+05 2.85049E+03 1.14135E+04 3.04146E+05 7.63976E-11-1.42063E-09
 -1       402 3.60100E+05 2.82908E+02 5.91348E+03 2.51604E+05-8.36735E-11-1.00044E-09
 -1       403 3.60517E+05 3.17995E+02 4.61203E+03 3.04775E+05-9.11029E-10-1.30058E-09
 -1       404 3.60093E+05 2.53769E+02 5.29965E+03 2.51601E+05-4.30191E-10 4.54747E-11
 -1       405 3.62383E+05 2.40580E+03 9.70393E+03 3.04177E+05 2.35559E-10 9.93168E-10
 -1       406 3.59174E+05 6.95650E+03 1.79428E+04 2.52210E+05 2.78305E-10 2.92857E-10
 -1       407-6.54134E+03-1.89165E+04-1.80479E+04 3.47651E+05-9.42237E-10 8.96762E-10
 -1       408-1.25377E+03-2.30221E+04-9.72322E+03 4.19838E+05-1.38607E-09-3.61979E-10
 -1       409 6.74159E+02-2.08880E+04-5.48921E+03 3.47103E+05-1.05865E-09-7.58519E-10
 -1       410 1.52625E+02-2.18353E+04-5.27403E+03 4.19751E+05-1.26965E-09 1.34605E-10
 -1       411-2.12317E+03-1.97371E+04-7.42393E+03 3.47734E+05-1.14687E-09-4.65661E-10
 -1       412 3.89068E+05 8.23714E+03 2.10209E+04 2.29382E+05-2.81943E-10-4.58385E-10
 -1       413 3.92928E+05 2.80556E+03 1.12001E+04 2.76587E+05 4.51109E-10 3.34694E-10
 -1       414 3.90321E+05 2.70298E+02 5.82524E+03 2.28806E+05-4.36557E-11 1.27329E-11
 -1       415 3.90753E+05 2.86116E+02 4.57917E+03 2.77155E+05 4.99483E-10-3.52884E-10
 -1       416 3.90322E+05 2.41688E+02 5.31816E+03 2.28804E+05 1.95541E-10-6.63931E-10
 -1       417 3.92585E+05 2.42952E+03 9.78883E+03 2.76610E+05 4.36557E-11-6.87578E-10
 -1       418 3.89288E+05 7.08034E+03 1.81447E+04 2.29359E+05-1.81899E-11-8.39464E-10
 -1       419-7.01383E+03 7.11548E+03-1.90075E+04 3.20186E+05-1.32786E-10 1.44610E-09
 -1       420-1.56939E+03 2.88453E+03-1.04173E+04 3.86638E+05-2.80124E-10-2.45018E-09
 -1       421 4.90630E+02 5.12990E+03-6.18566E+03 3.19671E+05 5.45697E-12-6.17547E-10
 -1       422-3.06522E+02 3.89246E+03-6.48659E+03 3.86581E+05-6.73026E-10-8.18545E-12
 -1       423-3.07309E+03 6.32832E+03-9.61804E+03 3.20240E+05-1.73713E-10-5.45697E-12
 -1       424 4.24468E+05 8.59192E+03 2.18005E+04 2.04261E+05 1.63709E-10-1.13141E-09
 -1       425 4.28531E+05 2.90487E+03 1.16302E+04 2.46295E+05 2.75577E-10-7.14863E-10
 -1       426 4.25895E+05 2.59317E+02 6.09999E+03 2.03745E+05-1.66438E-10-4.56566E-10
 -1       427 4.26378E+05 2.56432E+02 4.88137E+03 2.46802E+05-4.49631E-11-2.54659E-11
 -1       428 4.25893E+05 2.44254E+02 5.79255E+03 2.03744E+05 2.31012E-10 1.31149E-09
 -1       429 4.28315E+05 2.68129E+03 1.07741E+04 2.46317E+05-3.82897E-10-3.00133E-10
 -1       430 4.24592E+05 7.89614E+03 2.00560E+04 2.04238E+05 1.69166E-10-2.10730E-09
 -1       431-7.23242E+03 3.31426E+04-1.92149E+04 2.82510E+05-1.29148E-10-3.78350E-10
 -1       432-1.79918E+03 2.89529E+04-1.04731E+04 3.41101E+05 8.60382E-10-5.10227E-10
 -1       433 3.42575E+02 3.11926E+04-6.08251E+03 2.82040E+05 8.18545E-11 2.26578E-10
 -1       434-3.73853E+02 2.99879E+04-6.15123E+03 3.41083E+05 4.40195E-10 5.25688E-10
 -1       435-2.83181E+03 3.21648E+04-8.88447E+03 2.82525E+05-3.60160E-10 4.54747E-11
 -1       436 5.23473E+05 1.20939E+04 3.03775E+04 1.82454E+05-3.12866E-10 1.40426E-09
 -1       437 5.29257E+05 4.06416E+03 1.61778E+04 2.19986E+05 5.09317E-11 3.22871E-10
 -1       438 5.25705E+05 3.43860E+02 8.47353E+03 1.81987E+05 3.26509E-10-7.53971E-10
 -1       439 5.26417E+05 2.95728E+02 6.75366E+03 2.20443E+05 1.55978E-10 5.51154E-10
 -1       440 5.25702E+05 3.19978E+02 8.00387E+03 1.81985E+05 1.15506E-10-6.94854E-10
 -1       441 5.28930E+05 3.72089E+03 1.48701E+04 2.20016E+05-4.00178E-11-3.20142E-10
 -1       442 5.23665E+05 1.10292E+04 2.77132E+04 1.82424E+05-2.40107E-10-1.05047E-10
 -1       443-9.55541E+03-4.69971E+02-2.43675E+04 2.11547E+05 1.85537E-10-1.45519E-10
 -1       444-2.80819E+03-5.53927E+03-1.29190E+04 2.55345E+05 2.63390E-09-4.87489E-10
 -1       445 7.34400E+01-2.78653E+03-6.75348E+03 2.11157E+05 6.82121E-11-4.17685E-10
 -1       446-3.24485E+02-3.87522E+03-5.54362E+03 2.55404E+05 2.82125E-09 1.34150E-10
 -1       447-1.95153E+03-2.29473E+03-6.72941E+03 2.11484E+05 1.47793E-10 8.08541E-10
 -1       448 6.99150E+05 1.84210E+04 4.57140E+04 1.73516E+05 3.34694E-10-1.06229E-09
 -1       449 7.07947E+05 6.20578E+03 2.37778E+04 2.09052E+05-4.78394E-10 1.38516E-09
 -1       450 7.02698E+05 5.78422E+02 1.13809E+04 1.73017E+05-1.40244E-09-1.71167E-09
 -1       451 7.03501E+05 3.62769E+02 7.19393E+03 2.09542E+05-1.45519E-10 5.78439E-10
 -1       452 7.02811E+05 2.19448E+02 6.17478E+03 1.73008E+05-2.66937E-10 1.08048E-09
 -1       453 7.04686E+05 2.22069E+03 9.30341E+03 2.09199E+05-1.27693E-09-2.94676E-10
 -1       454 7.01698E+05 6.37876E+03 1.61994E+04 1.73364E+05-3.25599E-10-3.86081E-10
 -1       455-1.45930E+04-9.19961E+04-3.64933E+04 1.81349E+05 4.94765E-10-1.97360E-10
 -1       456-4.62636E+03-9.93483E+04-1.90245E+04 2.19060E+05 4.05635E-10-3.44812E-09
 -1       457-2.21845E+02-9.52124E+04-9.26708E+03 1.81080E+05 4.63842E-10-1.01818E-09
 -1       458-4.38448E+02-9.62954E+04-6.31322E+03 2.18971E+05 5.22050E-10 5.74801E-10
 -1       459-1.65938E+03-9.48579E+04-6.11187E+03 1.81429E+05-1.73713E-10 4.29281E-10
 -1       460 9.34089E+05 1.58000E+04 3.99201E+04 2.72081E+05-4.20187E-09-1.01863E-09
 -1       461 9.41347E+05 5.62767E+03 2.15415E+04 3.27335E+05-2.27737E-09-1.19326E-09
 -1       462 9.36242E+05 8.06675E+02 1.17159E+04 2.71185E+05 4.79486E-09 1.08230E-09
 -1       463 9.36872E+05 1.15348E+03 1.01528E+04 3.28237E+05-2.03363E-09-2.02999E-09
 -1       464 9.35646E+05 1.26481E+03 1.30187E+04 2.71159E+05-8.89031E-09-2.02999E-09
 -1       465 9.40737E+05 7.33321E+03 2.50867E+04 3.27839E+05-1.37243E-08-2.10275E-09
 -1       466 9.31825E+05 1.97439E+04 4.72300E+04 2.71563E+05-5.50608E-09-1.75169E-09
 -1       467-1.32655E+04 2.32518E+05-3.20175E+04 2.10904E+05 3.45608E-11-5.43878E-10
 -1       468-4.13467E+03 2.26081E+05-1.46392E+04 2.54840E+05 1.87174E-09-9.63269E-10
 -1       469 2.48641E+01 2.29480E+05-3.10999E+03 2.10651E+05 8.64020E-11-7.54881E-10
 -1       470 2.66723E+03 2.31161E+05 6.14331E+03 2.54630E+05 9.93168E-10 8.02174E-10
 -1       471 7.80259E+03 2.27973E+05 1.76507E+04 2.11113E+05-1.81899E-12-2.89219E-10
 -1       472 5.42634E+05 2.88379E+03 6.80929E+03 1.40258E+05-1.67711E-09-2.36469E-10
 -1       473 5.43751E+05 1.28045E+03 4.21535E+03 1.69009E+05 5.90398E-09 2.10093E-10
 -1       474 5.42971E+05 3.96384E+02 3.33197E+03 1.39924E+05-3.84625E-09 2.85581E-10
 -1       475 5.43280E+05 6.27951E+02 4.62265E+03 1.69345E+05-4.95646E-10 4.36557E-11
 -1       476 5.42786E+05 7.69721E+02 7.94940E+03 1.39923E+05 5.07498E-10-6.14818E-10
 -1       477 5.46432E+05 4.92097E+03 1.70425E+04 1.69004E+05-8.27640E-10 3.81988E-10
 -1       478 5.40132E+05 1.37029E+04 3.29759E+04 1.40252E+05 2.79579E-09 4.01087E-10
 -1       479-2.22675E+04-3.20369E+04-5.33144E+04 3.67899E+05 2.31739E-09-1.70985E-10
 -1       480-7.33831E+03-4.30842E+04-2.70985E+04 4.44019E+05 2.79033E-09-9.64974E-10
 -1       481-6.04783E+02-3.76031E+04-1.19680E+04 3.67217E+05 8.80391E-10-1.12323E-09
 -1       482-1.20770E+01-3.84160E+04-5.61160E+03 4.44215E+05-6.91216E-11 6.56655E-10
 -1       483 5.04923E+01-3.76315E+04-1.91612E+03 3.67736E+05 1.82717E-09-1.27329E-10
 -1       484 2.53181E+05 1.47532E+03 3.39453E+03 9.53385E+04-5.41422E-09-7.32143E-10
 -1       485 2.53739E+05 6.82597E+02 2.15618E+03 1.14983E+05-4.27872E-09-7.21229E-10
 -1       486 2.53370E+05 2.28903E+02 1.79924E+03 9.51338E+04-4.11728E-09-7.86713E-10
 -1       487 2.53558E+05 3.57495E+02 2.60508E+03 1.15185E+05-7.23958E-10 3.33785E-10
 -1       488 2.53280E+05 4.38723E+02 4.56026E+03 9.51376E+04 3.21597E-09 4.84761E-10
 -1       489 2.55395E+05 2.83393E+03 9.82963E+03 1.14923E+05 1.54614E-10-5.98448E-10
 -1       490 2.51745E+05 7.91025E+03 1.90444E+04 9.53898E+04 5.24233E-09 2.91266E-10
 -1       491-1.52089E+04-1.26634E+05-3.66491E+04 2.71096E+05 2.62662E-09-7.89441E-10
 -1       492-5.18477E+03-1.34115E+05-1.93587E+04 3.27213E+05 6.80302E-10-3.67436E-10
 -1       493-6.63141E+02-1.30198E+05-9.99133E+03 2.70605E+05-5.45697E-12 6.53472E-10
 -1       494-1.31940E+03-1.31592E+05-7.95512E+03 3.27323E+05 1.56797E-09 6.35282E-10
 -1       495-3.40632E+03-1.29532E+05-9.37422E+03 2.71003E+05 2.15277E-09 5.94810E-10
 -1       496 7.61168E+04 4.08708E+02 9.38275E+02 4.63211E+04 1.94927E-09 3.00020E-10
 -1       497 7.62682E+04 2.04532E+02 7.07925E+02 5.59402E+04 6.37874E-09 8.55380E-10
 -1       498 7.61706E+04 7.36274E+01 7.74703E+02 4.62444E+04 1.22327E-09 3.97449E-10
 -1       499 7.62776E+04 1.38697E+02 1.32333E+03 5.60110E+04-7.00311E-11-4.42469E-10
 -1       500 7.61177E+04 2.00434E+02 2.45799E+03 4.62504E+04 2.35241E-09-4.91582E-10
 -1       501 7.72821E+04 1.51407E+03 5.38664E+03 5.58545E+04-3.39423E-09-1.29603E-10
 -1       502 7.52463E+04 4.32891E+03 1.04799E+04 4.63979E+04 4.22278E-09-7.07132E-11
 -1       503-8.37861E+03-1.24106E+05-2.03326E+04 1.65922E+05-7.76527E-09-1.32150E-09
 -1       504-2.93128E+03-1.28198E+05-1.10776E+04 2.00257E+05-4.96584E-09 6.73026E-11
 -1       505-4.70417E+02-1.25957E+05-6.35382E+03 1.65618E+05-2.82762E-09-6.95309E-10
 -1       506-1.31377E+03-1.27132E+05-6.29425E+03 2.00324E+05-2.25918E-09 8.77208E-10
 -1       507-3.43457E+03-1.25310E+05-8.89189E+03 1.65861E+05-1.99884E-09-2.63753E-11
 -1       508-4.40749E+03-1.27996E+05-1.09073E+04 7.13504E+04 6.53745E-09 3.67891E-10
 -1       509-1.56040E+03-1.30157E+05-6.19923E+03 8.60941E+04-5.07498E-10-2.85581E-10
 -1       510-2.84688E+02-1.28899E+05-4.02528E+03 7.12130E+04 2.68255E-09-5.73891E-10
 -1       511-1.09076E+03-1.29845E+05-4.80757E+03 8.61348E+04 6.35737E-10 1.09708E-10
 -1       512-2.97072E+03-1.28343E+05-7.57886E+03 7.13114E+04 4.45721E-09-3.16504E-10
 -1       513-8.29396E+04 7.27673E+03 1.94178E+04 2.70194E+05-1.27329E-10 1.32786E-09
 -1       514-7.94477E+04 2.32877E+03 9.97210E+03 3.25584E+05 2.91038E-10 7.85803E-10
 -1       515-8.21741E+04 9.90256E+01 4.39545E+03 2.69416E+05 4.36557E-11 9.00400E-10
 -1       516-8.20338E+04 9.23917E+01 2.08765E+03 3.26365E+05-2.47383E-10 1.08776E-09
 -1       517-8.22413E+04-6.40326E+01 6.35977E+02 2.69399E+05 7.13953E-11-5.82077E-11
 -1       518-8.21763E+04-3.66012E+02-5.02816E+02 3.25813E+05 1.81899E-12 5.63887E-10
 -1       519-8.15261E+04-1.17521E+03-1.91911E+03 2.69968E+05-1.16415E-10 3.63798E-12
 -1       520-9.42117E+03-5.13170E+05-2.42240E+04 2.52463E+05-8.36735E-11 1.13869E-09
 -1       521-2.33934E+03-5.18174E+05-1.11542E+04 3.05201E+05-2.32831E-10 6.77005E-10
 -1       522 6.38913E+02-5.15527E+05-2.58340E+03 2.52123E+05 8.18545E-11-1.74623E-09
 -1       523 2.60350E+03-5.14345E+05 4.09912E+03 3.04984E+05 1.90994E-10-1.58616E-09
 -1       524 5.94688E+03-5.16346E+05 1.22224E+04 2.52662E+05 2.58296E-10-1.86446E-09
 -1       525-4.13126E+04 4.51965E+02 1.94703E+03 2.55515E+05-2.18279E-10 6.05723E-10
 -1       526-4.12401E+04 2.03165E+02 9.92847E+02 3.08077E+05 2.82853E-10-5.58430E-10
 -1       527-4.18331E+04 6.52304E+01 3.20212E+02 2.54859E+05-1.81899E-10-7.18501E-10
 -1       528-4.19532E+04 1.65314E+02-7.40970E+01 3.08737E+05-1.15506E-10-2.29193E-10
 -1       529-4.18562E+04 3.15903E+01-5.64371E+02 2.54854E+05 9.27685E-11-3.81988E-10
 -1       530-4.19004E+04-4.21803E+02-1.47281E+03 3.08142E+05-3.22871E-10 1.58252E-10
 -1       531-4.10006E+04-1.52470E+03-3.07409E+03 2.55453E+05-6.54836E-11 6.18456E-11
 -1       532 9.96958E+02-5.46454E+04 2.41959E+03 3.25619E+05 5.57975E-10 9.45874E-11
 -1       533 1.35062E+03-5.44936E+04 4.64548E+03 3.93407E+05 4.51109E-10 8.28095E-10
 -1       534 1.31745E+03-5.50822E+04 8.79119E+03 3.25181E+05 4.31100E-10-1.67893E-09
 -1       535 6.07517E+03-5.06709E+04 1.94096E+04 3.93170E+05 5.07498E-10-1.61253E-09
 -1       536 1.57679E+04-5.75411E+04 3.76916E+04 3.25855E+05 4.22006E-10-1.03682E-09
 -1       537 5.16246E+04 2.40555E+03 6.52693E+03 2.28205E+05-1.96451E-10 5.67525E-10
 -1       538 5.26591E+04 8.61664E+02 3.40729E+03 2.75176E+05 2.36469E-10 8.45830E-10
 -1       539 5.16578E+04 1.24081E+02 1.57229E+03 2.27629E+05 1.02773E-10-3.92902E-10
 -1       540 5.16862E+04 1.71532E+02 8.94897E+02 2.75750E+05-1.38016E-10-4.40195E-10
 -1       541 5.16772E+04 5.61548E+01 5.65239E+02 2.27628E+05-2.44654E-10 1.12777E-10
 -1       542 5.20219E+04 9.33453E+01 6.06510E+02 2.75204E+05-4.36557E-11-3.80169E-10
 -1       543 5.21104E+04 8.03009E+01 8.16789E+02 2.28175E+05 2.16460E-10-2.00089E-10
 -1       544 3.07315E+02-1.73901E+04 2.89840E+02 2.85120E+05-1.18325E-09 3.29237E-10
 -1       545 8.18966E+02-1.76006E+04 1.79265E+03 3.44465E+05-1.07138E-09 3.03771E-10
 -1       546 8.40975E+02-1.77452E+04 4.00518E+03 2.84736E+05-1.29876E-09-1.39698E-09
 -1       547 3.13335E+03-1.55968E+04 9.17141E+03 3.44264E+05-1.16779E-09-1.32877E-09
 -1       548 7.60276E+03-1.86951E+04 1.79084E+04 2.85322E+05-7.11225E-10-1.44428E-09
 -1       549 1.42310E+05 3.90793E+03 1.01621E+04 2.13892E+05 5.45697E-11 6.00267E-11
 -1       550 1.44085E+05 1.36004E+03 5.35999E+03 2.57933E+05 7.27596E-11-6.85759E-10
 -1       551 1.42723E+05 1.59201E+02 2.64664E+03 2.13361E+05-1.93722E-10 2.03727E-10
 -1       552 1.42870E+05 1.84705E+02 1.83790E+03 2.58461E+05-6.31530E-10-1.38607E-09
 -1       553 1.42748E+05 9.63938E+01 1.80227E+03 2.13360E+05-1.58252E-10 1.43700E-10
 -1       554 1.43573E+05 7.04628E+02 3.01294E+03 2.57942E+05 9.09495E-11-7.27596E-12
 -1       555 1.42743E+05 1.94358E+03 5.37579E+03 2.13882E+05 1.80080E-10 7.74889E-10
 -1       556-1.61325E+03-4.99129E+03-5.07463E+03 2.62338E+05-6.75755E-10-1.29512E-09
 -1       557-8.93569E+00-6.24773E+03-2.65581E+03 3.16939E+05-1.03319E-09-2.77169E-10
 -1       558 4.43813E+02-5.57394E+03-1.39067E+03 2.61986E+05-7.09406E-10-1.36606E-09
 -1       559 3.78108E+02-5.65714E+03-1.13680E+03 3.16755E+05-7.67614E-10 1.32150E-09
 -1       560-2.75979E+02-4.98744E+03-1.46387E+03 2.62521E+05-4.91127E-10-7.25777E-10
 -1       561 1.97139E+05 4.25108E+03 1.10051E+04 2.10835E+05-3.54703E-10-6.91216E-11
 -1       562 1.99083E+05 1.47519E+03 5.86947E+03 2.54263E+05 6.63931E-11 1.29148E-10
 -1       563 1.97645E+05 1.64758E+02 3.03659E+03 2.10320E+05 1.18234E-11-1.78261E-10
 -1       564 1.97850E+05 1.95642E+02 2.36221E+03 2.54773E+05 6.93035E-10-1.63709E-10
 -1       565 1.97665E+05 1.32815E+02 2.69529E+03 2.10320E+05 1.84627E-10-5.78439E-10
 -1       566 1.98901E+05 1.19770E+03 4.92217E+03 2.54255E+05-9.00400E-11 3.63798E-10
 -1       567 1.97343E+05 3.44049E+03 9.07177E+03 2.10842E+05-1.21872E-10-1.09139E-11
 -1       568-2.99000E+03 9.29393E+03-9.27318E+03 2.68717E+05-2.07365E-10-7.73070E-10
 -1       569-5.36785E+02 7.15809E+03-6.43334E+03 3.24620E+05-3.74712E-10-8.76298E-10
 -1       570 1.83700E+02 8.51846E+03-6.35632E+03 2.68346E+05-4.18368E-11-9.32232E-10
 -1       571-2.14428E+03 6.32198E+03-1.09381E+04 3.24455E+05-2.92857E-10 1.29148E-09
 -1       572-7.80087E+03 1.06845E+04-2.00624E+04 2.68882E+05 9.68612E-11-5.92991E-10
 -1       573 1.70038E+05 2.29679E+03 6.26205E+03 2.13949E+05 1.87356E-10-4.29281E-10
 -1       574 1.71049E+05 8.13091E+02 3.50603E+03 2.58058E+05 3.20142E-10-6.82121E-10
 -1       575 1.70139E+05 9.17795E+01 2.10552E+03 2.13441E+05-4.91127E-11-2.32831E-10
 -1       576 1.70310E+05 1.70587E+02 2.15655E+03 2.58560E+05 1.21872E-10 1.80080E-10
 -1       577 1.70132E+05 1.52648E+02 3.12225E+03 2.13444E+05 4.91127E-10-1.98270E-10
 -1       578 1.71722E+05 1.57395E+03 6.33526E+03 2.58017E+05-1.71894E-10-3.18323E-10
 -1       579 1.69582E+05 4.62488E+03 1.20285E+04 2.13990E+05-4.72937E-11-1.78170E-09
 -1       580-2.86440E+03 2.87763E+04-1.00793E+04 3.08213E+05-4.18368E-11-5.05679E-10
 -1       581-4.25939E+02 2.63464E+04-8.56796E+03 3.72278E+05 7.27596E-10-6.09361E-10
 -1       582 9.22125E+01 2.80340E+04-1.07968E+04 3.07766E+05-1.12777E-10-9.53605E-10
 -1       583-4.65163E+03 2.36692E+04-2.09443E+04 3.72137E+05 7.05768E-10 2.51930E-10
 -1       584-1.57300E+04 3.20160E+04-3.96858E+04 3.08356E+05-1.00044E-11-9.34961E-10
 -1       585-5.28430E+03-2.73905E+03-6.08345E+03 1.66988E+05-4.60204E-10 1.55524E-09
 -1       586-6.62926E+03-9.42083E+02-2.98737E+03 2.01230E+05 2.06455E-10 1.64619E-09
 -1       587-6.17810E+03-1.14218E+02-1.14327E+03 1.66518E+05 3.67436E-10-4.45652E-10
 -1       588-6.31775E+03 3.92439E+01-1.58907E+02 2.01715E+05 1.83491E-10-3.20142E-10
 -1       589-6.34414E+03 9.63471E+01 7.27036E+02 1.66506E+05 1.39380E-10 1.20053E-10
 -1       590-5.77209E+03 6.46936E+02 2.19676E+03 2.01381E+05 3.65617E-10 2.05546E-10
 -1       591-6.55838E+03 1.79234E+03 4.50393E+03 1.66853E+05-3.27418E-11-5.76620E-10
 -1       592 4.82370E+02 4.76100E+04 3.71075E+02 3.76626E+05 4.05635E-10-1.23509E-09
 -1       593 1.33382E+03 4.71063E+04 2.32414E+03 4.54798E+05 3.63798E-09 1.58298E-09
 -1       594 1.36051E+03 4.68178E+04 5.14253E+03 3.76029E+05 1.90994E-10 4.08818E-10
 -1       595 4.39171E+03 4.94666E+04 1.17530E+04 4.54711E+05 3.83807E-09-4.82032E-11
 -1       596 9.99006E+03 4.56356E+04 2.29029E+04 3.76709E+05 1.67347E-10-1.15324E-09
 -1       597-5.32361E+04-2.40281E+02-4.07785E+02 1.18566E+05 3.89264E-10-5.67525E-10
 -1       598-5.33950E+04-6.53228E+01-4.05764E+02 1.42719E+05 2.94676E-10 5.66615E-10
 -1       599-5.34893E+04 2.17311E+01-6.17335E+02 1.18167E+05-1.14960E-09-1.65528E-10
 -1       600-5.36735E+04 4.16629E+01-1.18474E+03 1.43139E+05-5.73891E-10-4.42014E-10
 -1       601-5.35304E+04-4.38055E+01-2.29502E+03 1.18146E+05-2.87855E-10-5.96629E-10
 -1       602-5.46408E+04-1.25387E+03-5.08178E+03 1.42977E+05-1.69587E-09-6.41194E-10
 -1       603-5.26366E+04-3.99356E+03-9.93025E+03 1.18329E+05 1.51886E-10-6.78028E-10
 -1       604 4.89030E+02-4.37735E+04 4.18506E+03 2.25568E+05 4.32010E-10 6.00267E-11
 -1       605 8.81606E+02-4.30080E+04 9.32991E+03 2.72459E+05 4.74756E-10-3.37423E-10
 -1       606 1.38684E+03-4.44487E+04 1.85394E+04 2.25234E+05 4.20187E-10-7.24867E-10
 -1       607 1.14760E+04-3.53937E+04 4.13703E+04 2.72349E+05 1.09594E-09 1.11868E-10
 -1       608 3.31784E+04-5.10952E+04 8.08022E+04 2.25676E+05-7.63976E-11-6.14818E-10
 -1       609-9.10071E+04-5.73882E+03-1.41794E+04 2.44981E+05-5.16593E-09 8.64020E-10
 -1       610-9.42105E+04-1.50958E+03-7.31121E+03 2.95225E+05-2.05364E-09-1.26784E-09
 -1       611-9.29955E+04 2.93049E+02-3.51374E+03 2.44282E+05 4.52201E-09-1.05865E-09
 -1       612-9.35766E+04 6.61024E+02-2.21478E+03 2.95942E+05-3.17368E-09-1.36970E-09
 -1       613-9.32555E+04 5.47139E+02-1.96042E+03 2.44264E+05-7.97945E-09-8.09450E-10
 -1       614-9.38053E+04-3.72110E+01-3.02215E+03 2.95454E+05-1.33005E-08-5.18412E-10
 -1       615-9.24138E+04-1.77599E+03-5.40290E+03 2.44771E+05-4.40377E-09-3.94721E-10
 -1       616 2.12433E+03 9.39779E+04 8.33342E+03 2.47906E+05 1.36424E-12 2.21917E-10
 -1       617 1.23979E+03 9.55603E+04 1.07705E+04 2.99449E+05 8.20364E-10-6.54836E-10
 -1       618 1.15059E+03 9.37312E+04 1.78044E+04 2.47552E+05 6.36646E-11-6.04814E-10
 -1       619 1.01842E+04 1.02077E+05 3.79205E+04 2.99310E+05 5.19776E-10-5.02041E-10
 -1       620 2.97645E+04 8.78713E+04 7.32493E+04 2.48065E+05-1.70985E-10-7.43967E-10
 -1       621-2.90316E+04 7.74226E+02 1.28942E+03 2.21795E+05-7.45786E-10-1.68620E-09
 -1       622-2.91289E+04 7.63482E+02 7.63631E+02 2.67412E+05 5.43514E-09-3.63798E-09
 -1       623-2.94613E+04 5.74740E+02 4.61524E+02 2.21218E+05-3.05590E-09-1.35697E-09
 -1       624-2.96260E+04 7.98394E+02 4.91602E+02 2.67993E+05-1.04296E-09-2.41926E-09
 -1       625-2.95294E+04 6.31682E+02 6.92672E+02 2.21212E+05-7.70342E-10-1.04410E-09
 -1       626-2.91427E+04 1.01942E+03 1.39787E+03 2.67484E+05-5.43878E-10-1.41335E-09
 -1       627-2.93251E+04 1.41219E+03 2.59153E+03 2.21728E+05 1.53341E-09-1.46974E-09
 -1       628 9.84170E+02-1.33838E+04 4.82835E+03 3.08055E+05 1.14733E-09 2.40107E-10
 -1       629 6.33632E+02-1.25791E+04 6.54414E+03 3.72100E+05 1.26965E-09-7.82165E-11
 -1       630 6.14143E+02-1.37443E+04 1.09885E+04 3.07609E+05 1.66983E-09-2.29193E-10
 -1       631 6.16000E+03-8.37525E+03 2.35153E+04 3.71941E+05 2.95222E-09 6.54836E-11
 -1       632 1.81389E+04-1.70023E+04 4.53912E+04 3.08237E+05 2.49565E-09 2.98314E-10
 -1       633-1.29796E+04 1.98770E+03 4.35762E+03 1.47050E+05-5.01677E-09-6.10271E-10
 -1       634-1.22839E+04 9.68863E+02 2.32894E+03 1.77368E+05-5.39512E-09-2.84399E-09
 -1       635-1.28091E+04 3.86494E+02 1.20832E+03 1.46700E+05-2.44290E-09-2.48383E-09
 -1       636-1.27865E+04 4.69529E+02 9.46629E+02 1.77717E+05 3.61359E-09-2.26282E-09
 -1       637-1.27914E+04 3.68265E+02 1.08500E+03 1.46702E+05 3.00315E-09-4.31100E-10
 -1       638-1.23236E+04 8.55690E+02 1.98803E+03 1.77344E+05-4.60386E-09-2.19552E-09
 -1       639-1.28765E+04 1.67798E+03 3.66043E+03 1.47073E+05 3.11957E-09-9.16771E-10
 -1       640-1.06376E+02-5.06336E+04 1.30413E+03 2.55425E+05 2.64845E-09 3.83807E-10
 -1       641 2.85639E+01-5.04674E+04 2.67767E+03 3.08519E+05 1.70439E-09 3.40151E-10
 -1       642 1.69413E+02-5.09670E+04 5.15280E+03 2.55052E+05 1.13505E-09 1.66438E-10
 -1       643 2.86088E+03-4.82720E+04 1.14206E+04 3.08397E+05 2.66300E-09 6.15728E-10
 -1       644 8.70269E+03-5.24528E+04 2.21964E+04 2.55559E+05 1.39153E-09 2.89219E-10
 -1       645-4.98891E+03 1.93542E+03 4.53373E+03 7.69683E+04 1.40426E-09-2.94676E-10
 -1       646-4.14546E+03 7.67476E+02 2.44827E+03 9.28915E+04 2.55932E-09-1.47020E-09
 -1       647-4.64881E+03 1.81085E+02 1.34807E+03 7.68071E+04-6.34031E-10-6.48924E-10
 -1       648-4.53619E+03 2.04189E+02 1.18898E+03 9.30492E+04-4.88399E-10-2.58478E-09
 -1       649-4.63935E+03 1.86195E+02 1.55268E+03 7.68120E+04 1.64300E-09-2.14686E-09
 -1       650-3.98225E+03 9.06789E+02 3.01915E+03 9.28281E+04-2.94358E-09-1.99998E-09
 -1       651-5.04937E+03 2.38594E+03 5.69568E+03 7.70272E+04 3.10592E-09-6.94399E-10
 -1       652-3.15968E+02-5.12588E+04-6.09033E+01 1.58285E+05-3.21825E-09-8.30369E-10
 -1       653-1.49281E+02-5.12911E+04 6.17309E+02 1.91183E+05-4.17276E-09-6.29370E-10
 -1       654-2.95401E+01-5.14216E+04 1.54670E+03 1.58054E+05-2.83762E-09-2.50338E-10
 -1       655 8.19640E+02-5.05338E+04 3.61521E+03 1.91110E+05-1.02955E-09-2.16005E-10
 -1       656 2.70012E+03-5.18757E+04 7.10214E+03 1.58361E+05-2.07365E-09 1.50794E-09
 -1       657 4.70189E+02-4.69342E+04 1.36318E+03 6.70530E+04 4.54011E-09-1.28807E-09
 -1       658 1.18524E+02-4.66561E+04 8.13071E+02 8.10019E+04 6.87578E-10 7.44080E-11
 -1       659-2.45636E+01-4.68409E+04 5.90815E+02 6.69616E+04 2.95449E-09 1.13278E-09
 -1       660 1.07963E+02-4.66439E+04 8.03173E+02 8.09569E+04 4.92037E-09 6.75755E-10
 -1       661 4.46515E+02-4.69095E+04 1.33821E+03 6.70980E+04 3.63252E-09 3.74712E-10
 -1       662-7.80172E+05-6.13160E+03-1.45715E+04 1.86962E+05 1.09139E-11-2.18279E-11
 -1       663-7.83138E+05-2.10846E+03-8.21952E+03 2.25194E+05-4.45652E-11-1.10958E-10
 -1       664-7.81853E+05-2.01189E+02-5.30431E+03 1.86392E+05-6.18456E-11-1.45519E-11
 -1       665-7.82540E+05-1.73482E+02-5.94992E+03 2.25798E+05 1.60526E-10-1.60071E-10
 -1       666-7.81859E+05-4.15988E+02-9.27820E+03 1.86368E+05-2.10321E-12-1.50067E-10
 -1       667-7.85860E+05-5.03986E+03-1.92853E+04 2.25461E+05 3.31966E-11-1.45519E-10
 -1       668-7.78492E+05-1.51712E+04-3.71185E+04 1.86719E+05-8.18545E-12-1.10958E-10
 -1       669-4.33814E+05-5.88726E+02-1.49221E+03 1.35834E+05 4.91127E-11 7.00311E-11
 -1       670-4.34149E+05-1.69417E+02-1.28095E+03 1.63774E+05-2.81943E-11 2.00089E-11
 -1       671-4.34094E+05 3.77701E+01-1.65254E+03 1.35479E+05-1.58252E-10 2.21917E-10
 -1       672-4.34376E+05-4.71008E+01-3.02691E+03 1.64133E+05 9.18590E-11-5.36602E-11
 -1       673-4.33950E+05-2.82408E+02-5.76531E+03 1.35476E+05-3.18323E-11-1.42791E-10
 -1       674-4.36587E+05-3.39027E+03-1.27118E+04 1.63816E+05-1.88265E-10 4.20187E-10
 -1       675-4.31644E+05-1.01915E+04-2.48051E+04 1.35790E+05-4.00178E-11 7.27596E-11
 -1       676-1.29853E+05 2.59647E+03 6.35512E+03 1.19530E+05-5.09317E-11-6.00267E-11
 -1       677-1.28649E+05 8.96060E+02 2.96710E+03 1.44134E+05 1.27329E-10-3.09228E-10
 -1       678-1.29422E+05 1.19626E+02 7.30068E+02 1.19227E+05 1.45519E-11-1.49157E-10
 -1       679-1.29469E+05 1.57360E+01-8.55786E+02 1.44437E+05 6.87805E-11-1.99179E-10
 -1       680-1.29286E+05-1.64827E+02-2.83593E+03 1.19226E+05-1.06411E-10-1.30058E-10
 -1       681-1.30736E+05-1.90925E+03-6.94193E+03 1.44150E+05-1.83263E-10 1.38243E-10
 -1       682-1.27940E+05-5.74763E+03-1.38560E+04 1.19511E+05-7.27596E-12 4.71118E-10
 -1       683 1.49760E+05 6.01928E+03 1.48110E+04 1.14417E+05 3.63798E-11-2.85581E-10
 -1       684 1.52613E+05 2.04114E+03 7.48745E+03 1.37982E+05-4.72937E-11-2.52840E-10
 -1       685 1.50925E+05 2.10966E+02 3.14998E+03 1.14135E+05-1.42791E-10-2.70120E-10
 -1       686 1.51098E+05 7.86186E+01 1.16120E+03 1.38261E+05-1.67532E-10-3.06500E-10
 -1       687 1.51064E+05-7.05088E+01-3.23855E+02 1.14135E+05 3.91083E-11-6.73026E-11
 -1       688 1.50597E+05-6.99591E+02-2.16379E+03 1.37980E+05-4.09273E-11-2.71939E-10
 -1       689 1.51644E+05-2.12071E+03-4.87570E+03 1.14415E+05 1.00044E-11-1.32786E-10
 -1       690 4.36114E+05 9.93134E+03 2.44790E+04 1.22343E+05-1.83718E-10 1.45519E-11
 -1       691 4.40841E+05 3.35466E+03 1.26088E+04 1.47556E+05-1.65528E-10-6.54836E-10
 -1       692 4.38093E+05 3.22807E+02 5.79624E+03 1.22051E+05 8.09450E-11 4.54747E-11
 -1       693 4.38495E+05 1.50049E+02 3.20332E+03 1.47840E+05 4.57476E-10 1.54614E-11
 -1       694 4.38255E+05 1.03351E+01 2.02001E+03 1.22053E+05 4.54747E-11 9.64064E-11
 -1       695 4.38676E+05 3.63445E+02 2.11977E+03 1.47533E+05-1.26875E-10 1.50976E-10
 -1       696 4.38192E+05 1.06585E+03 3.08112E+03 1.22359E+05-1.21872E-10 2.14641E-10
 -1       697 7.64449E+05 1.48527E+04 3.76557E+04 1.48431E+05 1.29148E-10-2.40107E-10
 -1       698 7.71684E+05 4.97495E+03 2.13932E+04 1.79082E+05 1.84627E-10 1.50067E-10
 -1       699 7.67359E+05 3.33164E+02 1.38489E+04 1.48102E+05 3.95630E-11 3.72893E-11
 -1       700 7.68951E+05 5.65128E+02 1.56465E+04 1.79395E+05 1.07775E-10 6.04814E-10
 -1       701 7.66988E+05 1.15197E+03 2.43777E+04 1.48107E+05 1.88265E-10 4.43833E-10
 -1       702 7.77920E+05 1.32113E+04 5.06454E+04 1.78990E+05-5.27507E-10 3.34694E-10
 -1       703 7.58892E+05 3.94463E+04 9.73360E+04 1.48544E+05-3.72893E-10-1.23691E-09
 -1       704-1.33735E+06-4.92374E+04-1.20928E+05 1.04856E+05-8.34916E-10-3.09228E-10
 -1       705-1.36114E+06-1.65511E+04-6.30680E+04 1.26307E+05-3.45608E-10 2.16460E-09
 -1       706-1.34785E+06-1.45847E+03-3.06603E+04 1.04562E+05 1.96451E-10 2.18279E-11
 -1       707-1.35044E+06-6.72766E+02-2.02818E+04 1.26667E+05 4.36557E-10 7.54881E-10
 -1       708-1.34838E+06-4.71641E+02-1.89384E+04 1.04542E+05 1.12777E-10-9.32687E-10
 -1       709-1.35447E+06-7.22154E+03-3.04932E+04 1.26495E+05 1.98270E-10-1.63686E-09
 -1       710-1.34386E+06-2.16944E+04-5.45021E+04 1.04725E+05 5.91172E-12-1.13141E-09
 -1       711-1.10508E+06-1.16651E+04-2.90188E+04 6.40436E+04 4.38376E-10 1.01340E-09
 -1       712-1.11071E+06-3.89855E+03-1.59366E+04 7.69697E+04 7.14863E-10-1.67893E-09
 -1       713-1.10758E+06-2.83502E+02-9.35644E+03 6.37586E+04-1.02773E-09 1.52249E-09
 -1       714-1.10855E+06-2.75570E+02-9.21021E+03 7.72921E+04-4.74756E-10 6.33918E-10
 -1       715-1.10750E+06-5.49322E+02-1.31688E+04 6.37272E+04-4.04725E-10-1.54387E-10
 -1       716-1.11309E+06-6.82585E+03-2.65410E+04 7.72891E+04-1.72986E-09 8.69022E-10
 -1       717-1.10320E+06-2.04869E+04-5.06375E+04 6.37718E+04 7.10088E-10-1.60071E-10
 -1       718-8.40493E+05-9.38893E+03-2.36159E+04 1.52363E+05-5.26597E-09 1.89993E-09
 -1       719-8.45248E+05-2.90532E+03-1.29227E+04 1.83642E+05-2.08456E-09-1.62981E-09
 -1       720-8.42807E+05 3.19546E+01-7.54129E+03 1.51866E+05 4.38013E-09-1.23509E-09
 -1       721-8.43716E+05 1.64592E+02-7.34119E+03 1.84162E+05-1.85310E-09-6.29370E-10
 -1       722-8.42826E+05-1.14978E+02-1.04317E+04 1.51842E+05-6.74379E-09 8.74934E-10
 -1       723-8.47264E+05-5.01912E+03-2.09735E+04 1.83912E+05-1.11777E-08 3.07136E-09
 -1       724-8.39311E+05-1.59401E+04-4.00168E+04 1.52131E+05-4.49745E-09 1.45337E-09
 -1       725-5.13163E+05-2.20355E+03-6.25201E+03 1.39691E+05-1.37334E-09-2.56478E-10
 -1       726-5.14506E+05-4.18556E+02-3.72682E+03 1.68545E+05 6.52926E-09-3.46154E-09
 -1       727-5.13869E+05 3.14208E+02-2.77234E+03 1.39319E+05-4.32919E-09-4.32010E-10
 -1       728-5.14307E+05 3.42884E+02-3.63621E+03 1.68919E+05-1.98384E-10-1.04319E-09
 -1       729-5.13759E+05 5.76412E+01-6.13633E+03 1.39315E+05 4.71118E-10 3.38332E-10
 -1       730-5.16521E+05-3.04282E+03-1.30780E+04 1.68595E+05-6.63022E-10-2.33740E-10
 -1       731-5.11411E+05-1.00448E+04-2.53222E+04 1.39654E+05 4.27463E-10 8.73115E-11
 -1       732-2.41133E+05 1.31919E+03 2.65576E+03 9.19990E+04-4.61023E-09-8.64020E-11
 -1       733-2.40658E+05 6.37219E+02 1.10185E+03 1.11073E+05-4.57021E-09-1.12504E-09
 -1       734-2.40944E+05 2.65733E+02-3.79243E+01 9.17985E+04-5.99198E-09 3.91992E-10
 -1       735-2.41048E+05 2.24984E+02-1.10470E+03 1.11269E+05 2.52703E-09 8.00355E-11
 -1       736-2.40819E+05 3.95547E+01-2.67108E+03 9.18044E+04 1.01772E-09-5.93445E-10
 -1       737-2.42137E+05-1.46546E+03-6.21178E+03 1.11009E+05-3.80032E-09-1.57434E-09
 -1       738-2.39650E+05-4.88260E+03-1.22652E+04 9.20630E+04 9.56788E-10-4.78394E-10
 -1       739-7.21825E+04 2.15117E+03 5.07491E+03 4.38278E+04 4.98517E-09 2.87400E-10
 -1       740-7.11935E+04 7.90353E+02 2.57278E+03 5.29615E+04 1.09057E-08-2.90129E-10
 -1       741-7.17471E+04 1.41072E+02 1.10251E+03 4.37582E+04 1.80376E-09-1.41881E-10
 -1       742-7.16753E+04 1.04350E+02 4.49473E+02 5.30264E+04-1.75442E-09-8.87212E-10
 -1       743-7.16895E+04 4.27310E+01-5.85882E+00 4.37650E+04 6.32008E-09-1.48498E-09
 -1       744-7.18036E+04-1.00750E+02-5.04957E+02 5.28751E+04 1.00545E-09-1.61799E-09
 -1       745-7.15443E+04-4.67373E+02-1.20502E+03 4.39100E+04 2.97223E-09 2.60115E-10
 -3
 9999
