    1C
    1UUSER                                                              
    1UDATE              12.september.2022                               
    1UTIME              21:48:43                                        
    1UHOST                                                              
    1UPGM               CalculiX                                        
    1UVERSION           Version 2.19                             
    1UCOMPILETIME       Fri Dec 17 13:15:26 CET 2021                    
    1UDIR                                                               
    1UDBN                                                               
    1UMAT    1MESH_MATERIAL                                             
    2C                          1001                                     1
 -1         1 0.00000E+00 0.00000E+00 0.00000E+00
 -1         2 8.33333E-03 0.00000E+00 0.00000E+00
 -1         3 1.66667E-02 0.00000E+00 0.00000E+00
 -1         4 2.50000E-02 0.00000E+00 0.00000E+00
 -1         5 3.33333E-02 0.00000E+00 0.00000E+00
 -1         6 4.16667E-02 0.00000E+00 0.00000E+00
 -1         7 5.00000E-02 0.00000E+00 0.00000E+00
 -1         8 5.83333E-02 0.00000E+00 0.00000E+00
 -1         9 6.66667E-02 0.00000E+00 0.00000E+00
 -1        14 0.00000E+00 6.25000E-03 0.00000E+00
 -1        15 8.33333E-03 6.25000E-03 0.00000E+00
 -1        16 1.66667E-02 6.25000E-03 0.00000E+00
 -1        17 2.50000E-02 6.25000E-03 0.00000E+00
 -1        18 3.33333E-02 6.25000E-03 0.00000E+00
 -1        19 4.16667E-02 6.25000E-03 0.00000E+00
 -1        20 5.00000E-02 6.25000E-03 0.00000E+00
 -1        21 5.83333E-02 6.25000E-03 0.00000E+00
 -1        22 6.66667E-02 6.25000E-03 0.00000E+00
 -1        27 0.00000E+00 1.25000E-02 0.00000E+00
 -1        28 8.33333E-03 1.25000E-02 0.00000E+00
 -1        29 1.66667E-02 1.25000E-02 0.00000E+00
 -1        30 2.50000E-02 1.25000E-02 0.00000E+00
 -1        31 3.33333E-02 1.25000E-02 0.00000E+00
 -1        32 4.16667E-02 1.25000E-02 0.00000E+00
 -1        33 5.00000E-02 1.25000E-02 0.00000E+00
 -1        34 5.83333E-02 1.25000E-02 0.00000E+00
 -1        35 6.66667E-02 1.25000E-02 0.00000E+00
 -1        36 7.50000E-02 1.25000E-02 0.00000E+00
 -1        37 8.33333E-02 1.25000E-02 0.00000E+00
 -1        38 9.16667E-02 1.25000E-02 0.00000E+00
 -1        39 1.00000E-01 1.25000E-02 0.00000E+00
 -1        40 0.00000E+00 1.87500E-02 0.00000E+00
 -1        41 8.33333E-03 1.87500E-02 0.00000E+00
 -1        42 1.66667E-02 1.87500E-02 0.00000E+00
 -1        43 2.50000E-02 1.87500E-02 0.00000E+00
 -1        44 3.33333E-02 1.87500E-02 0.00000E+00
 -1        45 4.16667E-02 1.87500E-02 0.00000E+00
 -1        46 5.00000E-02 1.87500E-02 0.00000E+00
 -1        47 5.83333E-02 1.87500E-02 0.00000E+00
 -1        48 6.66667E-02 1.87500E-02 0.00000E+00
 -1        49 7.50000E-02 1.87500E-02 0.00000E+00
 -1        50 8.33333E-02 1.87500E-02 0.00000E+00
 -1        51 9.16667E-02 1.87500E-02 0.00000E+00
 -1        52 1.00000E-01 1.87500E-02 0.00000E+00
 -1        53 0.00000E+00 2.50000E-02 0.00000E+00
 -1        54 8.33333E-03 2.50000E-02 0.00000E+00
 -1        55 1.66667E-02 2.50000E-02 0.00000E+00
 -1        56 2.50000E-02 2.50000E-02 0.00000E+00
 -1        57 3.33333E-02 2.50000E-02 0.00000E+00
 -1        58 4.16667E-02 2.50000E-02 0.00000E+00
 -1        59 5.00000E-02 2.50000E-02 0.00000E+00
 -1        60 5.83333E-02 2.50000E-02 0.00000E+00
 -1        61 6.66667E-02 2.50000E-02 0.00000E+00
 -1        62 7.50000E-02 2.50000E-02 0.00000E+00
 -1        63 8.33333E-02 2.50000E-02 0.00000E+00
 -1        64 9.16667E-02 2.50000E-02 0.00000E+00
 -1        65 1.00000E-01 2.50000E-02 0.00000E+00
 -1        66 1.04167E-03 0.00000E+00 0.00000E+00
 -1        67 2.08333E-03 0.00000E+00 0.00000E+00
 -1        68 3.12500E-03 0.00000E+00 0.00000E+00
 -1        69 4.16667E-03 0.00000E+00 0.00000E+00
 -1        70 5.20833E-03 0.00000E+00 0.00000E+00
 -1        71 6.25000E-03 0.00000E+00 0.00000E+00
 -1        72 7.29167E-03 0.00000E+00 0.00000E+00
 -1        73 0.00000E+00 1.04167E-03 0.00000E+00
 -1        74 0.00000E+00 2.08333E-03 0.00000E+00
 -1        75 0.00000E+00 3.12500E-03 0.00000E+00
 -1        76 0.00000E+00 4.16667E-03 0.00000E+00
 -1        77 0.00000E+00 5.20833E-03 0.00000E+00
 -1        78 8.33330E-04 6.25000E-04 0.00000E+00
 -1        79 1.66667E-03 1.25000E-03 0.00000E+00
 -1        80 2.50000E-03 1.87500E-03 0.00000E+00
 -1        81 3.33333E-03 2.50000E-03 0.00000E+00
 -1        82 4.16667E-03 3.12500E-03 0.00000E+00
 -1        83 5.00000E-03 3.75000E-03 0.00000E+00
 -1        84 5.83333E-03 4.37500E-03 0.00000E+00
 -1        85 6.66667E-03 5.00000E-03 0.00000E+00
 -1        86 7.50000E-03 5.62500E-03 0.00000E+00
 -1        87 9.37500E-03 0.00000E+00 0.00000E+00
 -1        88 1.04167E-02 0.00000E+00 0.00000E+00
 -1        89 1.14583E-02 0.00000E+00 0.00000E+00
 -1        90 1.25000E-02 0.00000E+00 0.00000E+00
 -1        91 1.35417E-02 0.00000E+00 0.00000E+00
 -1        92 1.45833E-02 0.00000E+00 0.00000E+00
 -1        93 1.56250E-02 0.00000E+00 0.00000E+00
 -1        94 8.33333E-03 1.04167E-03 0.00000E+00
 -1        95 8.33333E-03 2.08333E-03 0.00000E+00
 -1        96 8.33333E-03 3.12500E-03 0.00000E+00
 -1        97 8.33333E-03 4.16667E-03 0.00000E+00
 -1        98 8.33333E-03 5.20833E-03 0.00000E+00
 -1        99 9.16667E-03 6.25000E-04 0.00000E+00
 -1       100 1.00000E-02 1.25000E-03 0.00000E+00
 -1       101 1.08333E-02 1.87500E-03 0.00000E+00
 -1       102 1.16667E-02 2.50000E-03 0.00000E+00
 -1       103 1.25000E-02 3.12500E-03 0.00000E+00
 -1       104 1.33333E-02 3.75000E-03 0.00000E+00
 -1       105 1.41667E-02 4.37500E-03 0.00000E+00
 -1       106 1.50000E-02 5.00000E-03 0.00000E+00
 -1       107 1.58333E-02 5.62500E-03 0.00000E+00
 -1       108 1.77083E-02 0.00000E+00 0.00000E+00
 -1       109 1.87500E-02 0.00000E+00 0.00000E+00
 -1       110 1.97917E-02 0.00000E+00 0.00000E+00
 -1       111 2.08333E-02 0.00000E+00 0.00000E+00
 -1       112 2.18750E-02 0.00000E+00 0.00000E+00
 -1       113 2.29167E-02 0.00000E+00 0.00000E+00
 -1       114 2.39583E-02 0.00000E+00 0.00000E+00
 -1       115 1.66667E-02 1.04167E-03 0.00000E+00
 -1       116 1.66667E-02 2.08333E-03 0.00000E+00
 -1       117 1.66667E-02 3.12500E-03 0.00000E+00
 -1       118 1.66667E-02 4.16667E-03 0.00000E+00
 -1       119 1.66667E-02 5.20833E-03 0.00000E+00
 -1       120 1.75000E-02 6.25000E-04 0.00000E+00
 -1       121 1.83333E-02 1.25000E-03 0.00000E+00
 -1       122 1.91667E-02 1.87500E-03 0.00000E+00
 -1       123 2.00000E-02 2.50000E-03 0.00000E+00
 -1       124 2.08333E-02 3.12500E-03 0.00000E+00
 -1       125 2.16667E-02 3.75000E-03 0.00000E+00
 -1       126 2.25000E-02 4.37500E-03 0.00000E+00
 -1       127 2.33333E-02 5.00000E-03 0.00000E+00
 -1       128 2.41667E-02 5.62500E-03 0.00000E+00
 -1       129 2.60417E-02 0.00000E+00 0.00000E+00
 -1       130 2.70833E-02 0.00000E+00 0.00000E+00
 -1       131 2.81250E-02 0.00000E+00 0.00000E+00
 -1       132 2.91667E-02 0.00000E+00 0.00000E+00
 -1       133 3.02083E-02 0.00000E+00 0.00000E+00
 -1       134 3.12500E-02 0.00000E+00 0.00000E+00
 -1       135 3.22917E-02 0.00000E+00 0.00000E+00
 -1       136 2.50000E-02 1.04167E-03 0.00000E+00
 -1       137 2.50000E-02 2.08333E-03 0.00000E+00
 -1       138 2.50000E-02 3.12500E-03 0.00000E+00
 -1       139 2.50000E-02 4.16667E-03 0.00000E+00
 -1       140 2.50000E-02 5.20833E-03 0.00000E+00
 -1       141 2.58333E-02 6.25000E-04 0.00000E+00
 -1       142 2.66667E-02 1.25000E-03 0.00000E+00
 -1       143 2.75000E-02 1.87500E-03 0.00000E+00
 -1       144 2.83333E-02 2.50000E-03 0.00000E+00
 -1       145 2.91667E-02 3.12500E-03 0.00000E+00
 -1       146 3.00000E-02 3.75000E-03 0.00000E+00
 -1       147 3.08333E-02 4.37500E-03 0.00000E+00
 -1       148 3.16667E-02 5.00000E-03 0.00000E+00
 -1       149 3.25000E-02 5.62500E-03 0.00000E+00
 -1       150 3.43750E-02 0.00000E+00 0.00000E+00
 -1       151 3.54167E-02 0.00000E+00 0.00000E+00
 -1       152 3.64583E-02 0.00000E+00 0.00000E+00
 -1       153 3.75000E-02 0.00000E+00 0.00000E+00
 -1       154 3.85417E-02 0.00000E+00 0.00000E+00
 -1       155 3.95833E-02 0.00000E+00 0.00000E+00
 -1       156 4.06250E-02 0.00000E+00 0.00000E+00
 -1       157 3.33333E-02 1.04167E-03 0.00000E+00
 -1       158 3.33333E-02 2.08333E-03 0.00000E+00
 -1       159 3.33333E-02 3.12500E-03 0.00000E+00
 -1       160 3.33333E-02 4.16667E-03 0.00000E+00
 -1       161 3.33333E-02 5.20833E-03 0.00000E+00
 -1       162 3.41667E-02 6.25000E-04 0.00000E+00
 -1       163 3.50000E-02 1.25000E-03 0.00000E+00
 -1       164 3.58333E-02 1.87500E-03 0.00000E+00
 -1       165 3.66667E-02 2.50000E-03 0.00000E+00
 -1       166 3.75000E-02 3.12500E-03 0.00000E+00
 -1       167 3.83333E-02 3.75000E-03 0.00000E+00
 -1       168 3.91667E-02 4.37500E-03 0.00000E+00
 -1       169 4.00000E-02 5.00000E-03 0.00000E+00
 -1       170 4.08333E-02 5.62500E-03 0.00000E+00
 -1       171 4.27083E-02 0.00000E+00 0.00000E+00
 -1       172 4.37500E-02 0.00000E+00 0.00000E+00
 -1       173 4.47917E-02 0.00000E+00 0.00000E+00
 -1       174 4.58333E-02 0.00000E+00 0.00000E+00
 -1       175 4.68750E-02 0.00000E+00 0.00000E+00
 -1       176 4.79167E-02 0.00000E+00 0.00000E+00
 -1       177 4.89583E-02 0.00000E+00 0.00000E+00
 -1       178 4.16667E-02 1.04167E-03 0.00000E+00
 -1       179 4.16667E-02 2.08333E-03 0.00000E+00
 -1       180 4.16667E-02 3.12500E-03 0.00000E+00
 -1       181 4.16667E-02 4.16667E-03 0.00000E+00
 -1       182 4.16667E-02 5.20833E-03 0.00000E+00
 -1       183 4.25000E-02 6.25000E-04 0.00000E+00
 -1       184 4.33333E-02 1.25000E-03 0.00000E+00
 -1       185 4.41667E-02 1.87500E-03 0.00000E+00
 -1       186 4.50000E-02 2.50000E-03 0.00000E+00
 -1       187 4.58333E-02 3.12500E-03 0.00000E+00
 -1       188 4.66667E-02 3.75000E-03 0.00000E+00
 -1       189 4.75000E-02 4.37500E-03 0.00000E+00
 -1       190 4.83333E-02 5.00000E-03 0.00000E+00
 -1       191 4.91667E-02 5.62500E-03 0.00000E+00
 -1       192 5.10417E-02 0.00000E+00 0.00000E+00
 -1       193 5.20833E-02 0.00000E+00 0.00000E+00
 -1       194 5.31250E-02 0.00000E+00 0.00000E+00
 -1       195 5.41667E-02 0.00000E+00 0.00000E+00
 -1       196 5.52083E-02 0.00000E+00 0.00000E+00
 -1       197 5.62500E-02 0.00000E+00 0.00000E+00
 -1       198 5.72917E-02 0.00000E+00 0.00000E+00
 -1       199 5.00000E-02 1.04167E-03 0.00000E+00
 -1       200 5.00000E-02 2.08333E-03 0.00000E+00
 -1       201 5.00000E-02 3.12500E-03 0.00000E+00
 -1       202 5.00000E-02 4.16667E-03 0.00000E+00
 -1       203 5.00000E-02 5.20833E-03 0.00000E+00
 -1       204 5.08333E-02 6.25000E-04 0.00000E+00
 -1       205 5.16667E-02 1.25000E-03 0.00000E+00
 -1       206 5.25000E-02 1.87500E-03 0.00000E+00
 -1       207 5.33333E-02 2.50000E-03 0.00000E+00
 -1       208 5.41667E-02 3.12500E-03 0.00000E+00
 -1       209 5.50000E-02 3.75000E-03 0.00000E+00
 -1       210 5.58333E-02 4.37500E-03 0.00000E+00
 -1       211 5.66667E-02 5.00000E-03 0.00000E+00
 -1       212 5.75000E-02 5.62500E-03 0.00000E+00
 -1       213 5.93750E-02 0.00000E+00 0.00000E+00
 -1       214 6.04167E-02 0.00000E+00 0.00000E+00
 -1       215 6.14583E-02 0.00000E+00 0.00000E+00
 -1       216 6.25000E-02 0.00000E+00 0.00000E+00
 -1       217 6.35417E-02 0.00000E+00 0.00000E+00
 -1       218 6.45833E-02 0.00000E+00 0.00000E+00
 -1       219 6.56250E-02 0.00000E+00 0.00000E+00
 -1       220 5.83333E-02 1.04167E-03 0.00000E+00
 -1       221 5.83333E-02 2.08333E-03 0.00000E+00
 -1       222 5.83333E-02 3.12500E-03 0.00000E+00
 -1       223 5.83333E-02 4.16667E-03 0.00000E+00
 -1       224 5.83333E-02 5.20833E-03 0.00000E+00
 -1       225 5.91667E-02 6.25000E-04 0.00000E+00
 -1       226 6.00000E-02 1.25000E-03 0.00000E+00
 -1       227 6.08333E-02 1.87500E-03 0.00000E+00
 -1       228 6.16667E-02 2.50000E-03 0.00000E+00
 -1       229 6.25000E-02 3.12500E-03 0.00000E+00
 -1       230 6.33333E-02 3.75000E-03 0.00000E+00
 -1       231 6.41667E-02 4.37500E-03 0.00000E+00
 -1       232 6.50000E-02 5.00000E-03 0.00000E+00
 -1       233 6.58333E-02 5.62500E-03 0.00000E+00
 -1       241 6.66667E-02 1.04167E-03 0.00000E+00
 -1       242 6.66667E-02 2.08333E-03 0.00000E+00
 -1       243 6.66667E-02 3.12500E-03 0.00000E+00
 -1       244 6.66667E-02 4.16667E-03 0.00000E+00
 -1       245 6.66667E-02 5.20833E-03 0.00000E+00
 -1       323 1.04167E-03 6.25000E-03 0.00000E+00
 -1       324 2.08333E-03 6.25000E-03 0.00000E+00
 -1       325 3.12500E-03 6.25000E-03 0.00000E+00
 -1       326 4.16667E-03 6.25000E-03 0.00000E+00
 -1       327 5.20833E-03 6.25000E-03 0.00000E+00
 -1       328 6.25000E-03 6.25000E-03 0.00000E+00
 -1       329 7.29167E-03 6.25000E-03 0.00000E+00
 -1       330 0.00000E+00 7.29167E-03 0.00000E+00
 -1       331 0.00000E+00 8.33333E-03 0.00000E+00
 -1       332 0.00000E+00 9.37500E-03 0.00000E+00
 -1       333 0.00000E+00 1.04167E-02 0.00000E+00
 -1       334 0.00000E+00 1.14583E-02 0.00000E+00
 -1       335 8.33330E-04 6.87500E-03 0.00000E+00
 -1       336 1.66667E-03 7.50000E-03 0.00000E+00
 -1       337 2.50000E-03 8.12500E-03 0.00000E+00
 -1       338 3.33333E-03 8.75000E-03 0.00000E+00
 -1       339 4.16667E-03 9.37500E-03 0.00000E+00
 -1       340 5.00000E-03 1.00000E-02 0.00000E+00
 -1       341 5.83333E-03 1.06250E-02 0.00000E+00
 -1       342 6.66667E-03 1.12500E-02 0.00000E+00
 -1       343 7.50000E-03 1.18750E-02 0.00000E+00
 -1       344 9.37500E-03 6.25000E-03 0.00000E+00
 -1       345 1.04167E-02 6.25000E-03 0.00000E+00
 -1       346 1.14583E-02 6.25000E-03 0.00000E+00
 -1       347 1.25000E-02 6.25000E-03 0.00000E+00
 -1       348 1.35417E-02 6.25000E-03 0.00000E+00
 -1       349 1.45833E-02 6.25000E-03 0.00000E+00
 -1       350 1.56250E-02 6.25000E-03 0.00000E+00
 -1       351 8.33333E-03 7.29167E-03 0.00000E+00
 -1       352 8.33333E-03 8.33333E-03 0.00000E+00
 -1       353 8.33333E-03 9.37500E-03 0.00000E+00
 -1       354 8.33333E-03 1.04167E-02 0.00000E+00
 -1       355 8.33333E-03 1.14583E-02 0.00000E+00
 -1       356 9.16667E-03 6.87500E-03 0.00000E+00
 -1       357 1.00000E-02 7.50000E-03 0.00000E+00
 -1       358 1.08333E-02 8.12500E-03 0.00000E+00
 -1       359 1.16667E-02 8.75000E-03 0.00000E+00
 -1       360 1.25000E-02 9.37500E-03 0.00000E+00
 -1       361 1.33333E-02 1.00000E-02 0.00000E+00
 -1       362 1.41667E-02 1.06250E-02 0.00000E+00
 -1       363 1.50000E-02 1.12500E-02 0.00000E+00
 -1       364 1.58333E-02 1.18750E-02 0.00000E+00
 -1       365 1.77083E-02 6.25000E-03 0.00000E+00
 -1       366 1.87500E-02 6.25000E-03 0.00000E+00
 -1       367 1.97917E-02 6.25000E-03 0.00000E+00
 -1       368 2.08333E-02 6.25000E-03 0.00000E+00
 -1       369 2.18750E-02 6.25000E-03 0.00000E+00
 -1       370 2.29167E-02 6.25000E-03 0.00000E+00
 -1       371 2.39583E-02 6.25000E-03 0.00000E+00
 -1       372 1.66667E-02 7.29167E-03 0.00000E+00
 -1       373 1.66667E-02 8.33333E-03 0.00000E+00
 -1       374 1.66667E-02 9.37500E-03 0.00000E+00
 -1       375 1.66667E-02 1.04167E-02 0.00000E+00
 -1       376 1.66667E-02 1.14583E-02 0.00000E+00
 -1       377 1.75000E-02 6.87500E-03 0.00000E+00
 -1       378 1.83333E-02 7.50000E-03 0.00000E+00
 -1       379 1.91667E-02 8.12500E-03 0.00000E+00
 -1       380 2.00000E-02 8.75000E-03 0.00000E+00
 -1       381 2.08333E-02 9.37500E-03 0.00000E+00
 -1       382 2.16667E-02 1.00000E-02 0.00000E+00
 -1       383 2.25000E-02 1.06250E-02 0.00000E+00
 -1       384 2.33333E-02 1.12500E-02 0.00000E+00
 -1       385 2.41667E-02 1.18750E-02 0.00000E+00
 -1       386 2.60417E-02 6.25000E-03 0.00000E+00
 -1       387 2.70833E-02 6.25000E-03 0.00000E+00
 -1       388 2.81250E-02 6.25000E-03 0.00000E+00
 -1       389 2.91667E-02 6.25000E-03 0.00000E+00
 -1       390 3.02083E-02 6.25000E-03 0.00000E+00
 -1       391 3.12500E-02 6.25000E-03 0.00000E+00
 -1       392 3.22917E-02 6.25000E-03 0.00000E+00
 -1       393 2.50000E-02 7.29167E-03 0.00000E+00
 -1       394 2.50000E-02 8.33333E-03 0.00000E+00
 -1       395 2.50000E-02 9.37500E-03 0.00000E+00
 -1       396 2.50000E-02 1.04167E-02 0.00000E+00
 -1       397 2.50000E-02 1.14583E-02 0.00000E+00
 -1       398 2.58333E-02 6.87500E-03 0.00000E+00
 -1       399 2.66667E-02 7.50000E-03 0.00000E+00
 -1       400 2.75000E-02 8.12500E-03 0.00000E+00
 -1       401 2.83333E-02 8.75000E-03 0.00000E+00
 -1       402 2.91667E-02 9.37500E-03 0.00000E+00
 -1       403 3.00000E-02 1.00000E-02 0.00000E+00
 -1       404 3.08333E-02 1.06250E-02 0.00000E+00
 -1       405 3.16667E-02 1.12500E-02 0.00000E+00
 -1       406 3.25000E-02 1.18750E-02 0.00000E+00
 -1       407 3.43750E-02 6.25000E-03 0.00000E+00
 -1       408 3.54167E-02 6.25000E-03 0.00000E+00
 -1       409 3.64583E-02 6.25000E-03 0.00000E+00
 -1       410 3.75000E-02 6.25000E-03 0.00000E+00
 -1       411 3.85417E-02 6.25000E-03 0.00000E+00
 -1       412 3.95833E-02 6.25000E-03 0.00000E+00
 -1       413 4.06250E-02 6.25000E-03 0.00000E+00
 -1       414 3.33333E-02 7.29167E-03 0.00000E+00
 -1       415 3.33333E-02 8.33333E-03 0.00000E+00
 -1       416 3.33333E-02 9.37500E-03 0.00000E+00
 -1       417 3.33333E-02 1.04167E-02 0.00000E+00
 -1       418 3.33333E-02 1.14583E-02 0.00000E+00
 -1       419 3.41667E-02 6.87500E-03 0.00000E+00
 -1       420 3.50000E-02 7.50000E-03 0.00000E+00
 -1       421 3.58333E-02 8.12500E-03 0.00000E+00
 -1       422 3.66667E-02 8.75000E-03 0.00000E+00
 -1       423 3.75000E-02 9.37500E-03 0.00000E+00
 -1       424 3.83333E-02 1.00000E-02 0.00000E+00
 -1       425 3.91667E-02 1.06250E-02 0.00000E+00
 -1       426 4.00000E-02 1.12500E-02 0.00000E+00
 -1       427 4.08333E-02 1.18750E-02 0.00000E+00
 -1       428 4.27083E-02 6.25000E-03 0.00000E+00
 -1       429 4.37500E-02 6.25000E-03 0.00000E+00
 -1       430 4.47917E-02 6.25000E-03 0.00000E+00
 -1       431 4.58333E-02 6.25000E-03 0.00000E+00
 -1       432 4.68750E-02 6.25000E-03 0.00000E+00
 -1       433 4.79167E-02 6.25000E-03 0.00000E+00
 -1       434 4.89583E-02 6.25000E-03 0.00000E+00
 -1       435 4.16667E-02 7.29167E-03 0.00000E+00
 -1       436 4.16667E-02 8.33333E-03 0.00000E+00
 -1       437 4.16667E-02 9.37500E-03 0.00000E+00
 -1       438 4.16667E-02 1.04167E-02 0.00000E+00
 -1       439 4.16667E-02 1.14583E-02 0.00000E+00
 -1       440 4.25000E-02 6.87500E-03 0.00000E+00
 -1       441 4.33333E-02 7.50000E-03 0.00000E+00
 -1       442 4.41667E-02 8.12500E-03 0.00000E+00
 -1       443 4.50000E-02 8.75000E-03 0.00000E+00
 -1       444 4.58333E-02 9.37500E-03 0.00000E+00
 -1       445 4.66667E-02 1.00000E-02 0.00000E+00
 -1       446 4.75000E-02 1.06250E-02 0.00000E+00
 -1       447 4.83333E-02 1.12500E-02 0.00000E+00
 -1       448 4.91667E-02 1.18750E-02 0.00000E+00
 -1       449 5.10417E-02 6.25000E-03 0.00000E+00
 -1       450 5.20833E-02 6.25000E-03 0.00000E+00
 -1       451 5.31250E-02 6.25000E-03 0.00000E+00
 -1       452 5.41667E-02 6.25000E-03 0.00000E+00
 -1       453 5.52083E-02 6.25000E-03 0.00000E+00
 -1       454 5.62500E-02 6.25000E-03 0.00000E+00
 -1       455 5.72917E-02 6.25000E-03 0.00000E+00
 -1       456 5.00000E-02 7.29167E-03 0.00000E+00
 -1       457 5.00000E-02 8.33333E-03 0.00000E+00
 -1       458 5.00000E-02 9.37500E-03 0.00000E+00
 -1       459 5.00000E-02 1.04167E-02 0.00000E+00
 -1       460 5.00000E-02 1.14583E-02 0.00000E+00
 -1       461 5.08333E-02 6.87500E-03 0.00000E+00
 -1       462 5.16667E-02 7.50000E-03 0.00000E+00
 -1       463 5.25000E-02 8.12500E-03 0.00000E+00
 -1       464 5.33333E-02 8.75000E-03 0.00000E+00
 -1       465 5.41667E-02 9.37500E-03 0.00000E+00
 -1       466 5.50000E-02 1.00000E-02 0.00000E+00
 -1       467 5.58333E-02 1.06250E-02 0.00000E+00
 -1       468 5.66667E-02 1.12500E-02 0.00000E+00
 -1       469 5.75000E-02 1.18750E-02 0.00000E+00
 -1       470 5.93750E-02 6.25000E-03 0.00000E+00
 -1       471 6.04167E-02 6.25000E-03 0.00000E+00
 -1       472 6.14583E-02 6.25000E-03 0.00000E+00
 -1       473 6.25000E-02 6.25000E-03 0.00000E+00
 -1       474 6.35417E-02 6.25000E-03 0.00000E+00
 -1       475 6.45833E-02 6.25000E-03 0.00000E+00
 -1       476 6.56250E-02 6.25000E-03 0.00000E+00
 -1       477 5.83333E-02 7.29167E-03 0.00000E+00
 -1       478 5.83333E-02 8.33333E-03 0.00000E+00
 -1       479 5.83333E-02 9.37500E-03 0.00000E+00
 -1       480 5.83333E-02 1.04167E-02 0.00000E+00
 -1       481 5.83333E-02 1.14583E-02 0.00000E+00
 -1       482 5.91667E-02 6.87500E-03 0.00000E+00
 -1       483 6.00000E-02 7.50000E-03 0.00000E+00
 -1       484 6.08333E-02 8.12500E-03 0.00000E+00
 -1       485 6.16667E-02 8.75000E-03 0.00000E+00
 -1       486 6.25000E-02 9.37500E-03 0.00000E+00
 -1       487 6.33333E-02 1.00000E-02 0.00000E+00
 -1       488 6.41667E-02 1.06250E-02 0.00000E+00
 -1       489 6.50000E-02 1.12500E-02 0.00000E+00
 -1       490 6.58333E-02 1.18750E-02 0.00000E+00
 -1       498 6.66667E-02 7.29167E-03 0.00000E+00
 -1       499 6.66667E-02 8.33333E-03 0.00000E+00
 -1       500 6.66667E-02 9.37500E-03 0.00000E+00
 -1       501 6.66667E-02 1.04167E-02 0.00000E+00
 -1       502 6.66667E-02 1.14583E-02 0.00000E+00
 -1       580 1.04167E-03 1.25000E-02 0.00000E+00
 -1       581 2.08333E-03 1.25000E-02 0.00000E+00
 -1       582 3.12500E-03 1.25000E-02 0.00000E+00
 -1       583 4.16667E-03 1.25000E-02 0.00000E+00
 -1       584 5.20833E-03 1.25000E-02 0.00000E+00
 -1       585 6.25000E-03 1.25000E-02 0.00000E+00
 -1       586 7.29167E-03 1.25000E-02 0.00000E+00
 -1       587 0.00000E+00 1.35417E-02 0.00000E+00
 -1       588 0.00000E+00 1.45833E-02 0.00000E+00
 -1       589 0.00000E+00 1.56250E-02 0.00000E+00
 -1       590 0.00000E+00 1.66667E-02 0.00000E+00
 -1       591 0.00000E+00 1.77083E-02 0.00000E+00
 -1       592 8.33330E-04 1.31250E-02 0.00000E+00
 -1       593 1.66667E-03 1.37500E-02 0.00000E+00
 -1       594 2.50000E-03 1.43750E-02 0.00000E+00
 -1       595 3.33333E-03 1.50000E-02 0.00000E+00
 -1       596 4.16667E-03 1.56250E-02 0.00000E+00
 -1       597 5.00000E-03 1.62500E-02 0.00000E+00
 -1       598 5.83333E-03 1.68750E-02 0.00000E+00
 -1       599 6.66667E-03 1.75000E-02 0.00000E+00
 -1       600 7.50000E-03 1.81250E-02 0.00000E+00
 -1       601 9.37500E-03 1.25000E-02 0.00000E+00
 -1       602 1.04167E-02 1.25000E-02 0.00000E+00
 -1       603 1.14583E-02 1.25000E-02 0.00000E+00
 -1       604 1.25000E-02 1.25000E-02 0.00000E+00
 -1       605 1.35417E-02 1.25000E-02 0.00000E+00
 -1       606 1.45833E-02 1.25000E-02 0.00000E+00
 -1       607 1.56250E-02 1.25000E-02 0.00000E+00
 -1       608 8.33333E-03 1.35417E-02 0.00000E+00
 -1       609 8.33333E-03 1.45833E-02 0.00000E+00
 -1       610 8.33333E-03 1.56250E-02 0.00000E+00
 -1       611 8.33333E-03 1.66667E-02 0.00000E+00
 -1       612 8.33333E-03 1.77083E-02 0.00000E+00
 -1       613 9.16667E-03 1.31250E-02 0.00000E+00
 -1       614 1.00000E-02 1.37500E-02 0.00000E+00
 -1       615 1.08333E-02 1.43750E-02 0.00000E+00
 -1       616 1.16667E-02 1.50000E-02 0.00000E+00
 -1       617 1.25000E-02 1.56250E-02 0.00000E+00
 -1       618 1.33333E-02 1.62500E-02 0.00000E+00
 -1       619 1.41667E-02 1.68750E-02 0.00000E+00
 -1       620 1.50000E-02 1.75000E-02 0.00000E+00
 -1       621 1.58333E-02 1.81250E-02 0.00000E+00
 -1       622 1.77083E-02 1.25000E-02 0.00000E+00
 -1       623 1.87500E-02 1.25000E-02 0.00000E+00
 -1       624 1.97917E-02 1.25000E-02 0.00000E+00
 -1       625 2.08333E-02 1.25000E-02 0.00000E+00
 -1       626 2.18750E-02 1.25000E-02 0.00000E+00
 -1       627 2.29167E-02 1.25000E-02 0.00000E+00
 -1       628 2.39583E-02 1.25000E-02 0.00000E+00
 -1       629 1.66667E-02 1.35417E-02 0.00000E+00
 -1       630 1.66667E-02 1.45833E-02 0.00000E+00
 -1       631 1.66667E-02 1.56250E-02 0.00000E+00
 -1       632 1.66667E-02 1.66667E-02 0.00000E+00
 -1       633 1.66667E-02 1.77083E-02 0.00000E+00
 -1       634 1.75000E-02 1.31250E-02 0.00000E+00
 -1       635 1.83333E-02 1.37500E-02 0.00000E+00
 -1       636 1.91667E-02 1.43750E-02 0.00000E+00
 -1       637 2.00000E-02 1.50000E-02 0.00000E+00
 -1       638 2.08333E-02 1.56250E-02 0.00000E+00
 -1       639 2.16667E-02 1.62500E-02 0.00000E+00
 -1       640 2.25000E-02 1.68750E-02 0.00000E+00
 -1       641 2.33333E-02 1.75000E-02 0.00000E+00
 -1       642 2.41667E-02 1.81250E-02 0.00000E+00
 -1       643 2.60417E-02 1.25000E-02 0.00000E+00
 -1       644 2.70833E-02 1.25000E-02 0.00000E+00
 -1       645 2.81250E-02 1.25000E-02 0.00000E+00
 -1       646 2.91667E-02 1.25000E-02 0.00000E+00
 -1       647 3.02083E-02 1.25000E-02 0.00000E+00
 -1       648 3.12500E-02 1.25000E-02 0.00000E+00
 -1       649 3.22917E-02 1.25000E-02 0.00000E+00
 -1       650 2.50000E-02 1.35417E-02 0.00000E+00
 -1       651 2.50000E-02 1.45833E-02 0.00000E+00
 -1       652 2.50000E-02 1.56250E-02 0.00000E+00
 -1       653 2.50000E-02 1.66667E-02 0.00000E+00
 -1       654 2.50000E-02 1.77083E-02 0.00000E+00
 -1       655 2.58333E-02 1.31250E-02 0.00000E+00
 -1       656 2.66667E-02 1.37500E-02 0.00000E+00
 -1       657 2.75000E-02 1.43750E-02 0.00000E+00
 -1       658 2.83333E-02 1.50000E-02 0.00000E+00
 -1       659 2.91667E-02 1.56250E-02 0.00000E+00
 -1       660 3.00000E-02 1.62500E-02 0.00000E+00
 -1       661 3.08333E-02 1.68750E-02 0.00000E+00
 -1       662 3.16667E-02 1.75000E-02 0.00000E+00
 -1       663 3.25000E-02 1.81250E-02 0.00000E+00
 -1       664 3.43750E-02 1.25000E-02 0.00000E+00
 -1       665 3.54167E-02 1.25000E-02 0.00000E+00
 -1       666 3.64583E-02 1.25000E-02 0.00000E+00
 -1       667 3.75000E-02 1.25000E-02 0.00000E+00
 -1       668 3.85417E-02 1.25000E-02 0.00000E+00
 -1       669 3.95833E-02 1.25000E-02 0.00000E+00
 -1       670 4.06250E-02 1.25000E-02 0.00000E+00
 -1       671 3.33333E-02 1.35417E-02 0.00000E+00
 -1       672 3.33333E-02 1.45833E-02 0.00000E+00
 -1       673 3.33333E-02 1.56250E-02 0.00000E+00
 -1       674 3.33333E-02 1.66667E-02 0.00000E+00
 -1       675 3.33333E-02 1.77083E-02 0.00000E+00
 -1       676 3.41667E-02 1.31250E-02 0.00000E+00
 -1       677 3.50000E-02 1.37500E-02 0.00000E+00
 -1       678 3.58333E-02 1.43750E-02 0.00000E+00
 -1       679 3.66667E-02 1.50000E-02 0.00000E+00
 -1       680 3.75000E-02 1.56250E-02 0.00000E+00
 -1       681 3.83333E-02 1.62500E-02 0.00000E+00
 -1       682 3.91667E-02 1.68750E-02 0.00000E+00
 -1       683 4.00000E-02 1.75000E-02 0.00000E+00
 -1       684 4.08333E-02 1.81250E-02 0.00000E+00
 -1       685 4.27083E-02 1.25000E-02 0.00000E+00
 -1       686 4.37500E-02 1.25000E-02 0.00000E+00
 -1       687 4.47917E-02 1.25000E-02 0.00000E+00
 -1       688 4.58333E-02 1.25000E-02 0.00000E+00
 -1       689 4.68750E-02 1.25000E-02 0.00000E+00
 -1       690 4.79167E-02 1.25000E-02 0.00000E+00
 -1       691 4.89583E-02 1.25000E-02 0.00000E+00
 -1       692 4.16667E-02 1.35417E-02 0.00000E+00
 -1       693 4.16667E-02 1.45833E-02 0.00000E+00
 -1       694 4.16667E-02 1.56250E-02 0.00000E+00
 -1       695 4.16667E-02 1.66667E-02 0.00000E+00
 -1       696 4.16667E-02 1.77083E-02 0.00000E+00
 -1       697 4.25000E-02 1.31250E-02 0.00000E+00
 -1       698 4.33333E-02 1.37500E-02 0.00000E+00
 -1       699 4.41667E-02 1.43750E-02 0.00000E+00
 -1       700 4.50000E-02 1.50000E-02 0.00000E+00
 -1       701 4.58333E-02 1.56250E-02 0.00000E+00
 -1       702 4.66667E-02 1.62500E-02 0.00000E+00
 -1       703 4.75000E-02 1.68750E-02 0.00000E+00
 -1       704 4.83333E-02 1.75000E-02 0.00000E+00
 -1       705 4.91667E-02 1.81250E-02 0.00000E+00
 -1       706 5.10417E-02 1.25000E-02 0.00000E+00
 -1       707 5.20833E-02 1.25000E-02 0.00000E+00
 -1       708 5.31250E-02 1.25000E-02 0.00000E+00
 -1       709 5.41667E-02 1.25000E-02 0.00000E+00
 -1       710 5.52083E-02 1.25000E-02 0.00000E+00
 -1       711 5.62500E-02 1.25000E-02 0.00000E+00
 -1       712 5.72917E-02 1.25000E-02 0.00000E+00
 -1       713 5.00000E-02 1.35417E-02 0.00000E+00
 -1       714 5.00000E-02 1.45833E-02 0.00000E+00
 -1       715 5.00000E-02 1.56250E-02 0.00000E+00
 -1       716 5.00000E-02 1.66667E-02 0.00000E+00
 -1       717 5.00000E-02 1.77083E-02 0.00000E+00
 -1       718 5.08333E-02 1.31250E-02 0.00000E+00
 -1       719 5.16667E-02 1.37500E-02 0.00000E+00
 -1       720 5.25000E-02 1.43750E-02 0.00000E+00
 -1       721 5.33333E-02 1.50000E-02 0.00000E+00
 -1       722 5.41667E-02 1.56250E-02 0.00000E+00
 -1       723 5.50000E-02 1.62500E-02 0.00000E+00
 -1       724 5.58333E-02 1.68750E-02 0.00000E+00
 -1       725 5.66667E-02 1.75000E-02 0.00000E+00
 -1       726 5.75000E-02 1.81250E-02 0.00000E+00
 -1       727 5.93750E-02 1.25000E-02 0.00000E+00
 -1       728 6.04167E-02 1.25000E-02 0.00000E+00
 -1       729 6.14583E-02 1.25000E-02 0.00000E+00
 -1       730 6.25000E-02 1.25000E-02 0.00000E+00
 -1       731 6.35417E-02 1.25000E-02 0.00000E+00
 -1       732 6.45833E-02 1.25000E-02 0.00000E+00
 -1       733 6.56250E-02 1.25000E-02 0.00000E+00
 -1       734 5.83333E-02 1.35417E-02 0.00000E+00
 -1       735 5.83333E-02 1.45833E-02 0.00000E+00
 -1       736 5.83333E-02 1.56250E-02 0.00000E+00
 -1       737 5.83333E-02 1.66667E-02 0.00000E+00
 -1       738 5.83333E-02 1.77083E-02 0.00000E+00
 -1       739 5.91667E-02 1.31250E-02 0.00000E+00
 -1       740 6.00000E-02 1.37500E-02 0.00000E+00
 -1       741 6.08333E-02 1.43750E-02 0.00000E+00
 -1       742 6.16667E-02 1.50000E-02 0.00000E+00
 -1       743 6.25000E-02 1.56250E-02 0.00000E+00
 -1       744 6.33333E-02 1.62500E-02 0.00000E+00
 -1       745 6.41667E-02 1.68750E-02 0.00000E+00
 -1       746 6.50000E-02 1.75000E-02 0.00000E+00
 -1       747 6.58333E-02 1.81250E-02 0.00000E+00
 -1       748 6.77083E-02 1.25000E-02 0.00000E+00
 -1       749 6.87500E-02 1.25000E-02 0.00000E+00
 -1       750 6.97917E-02 1.25000E-02 0.00000E+00
 -1       751 7.08333E-02 1.25000E-02 0.00000E+00
 -1       752 7.18750E-02 1.25000E-02 0.00000E+00
 -1       753 7.29167E-02 1.25000E-02 0.00000E+00
 -1       754 7.39583E-02 1.25000E-02 0.00000E+00
 -1       755 6.66667E-02 1.35417E-02 0.00000E+00
 -1       756 6.66667E-02 1.45833E-02 0.00000E+00
 -1       757 6.66667E-02 1.56250E-02 0.00000E+00
 -1       758 6.66667E-02 1.66667E-02 0.00000E+00
 -1       759 6.66667E-02 1.77083E-02 0.00000E+00
 -1       760 6.75000E-02 1.31250E-02 0.00000E+00
 -1       761 6.83333E-02 1.37500E-02 0.00000E+00
 -1       762 6.91667E-02 1.43750E-02 0.00000E+00
 -1       763 7.00000E-02 1.50000E-02 0.00000E+00
 -1       764 7.08333E-02 1.56250E-02 0.00000E+00
 -1       765 7.16667E-02 1.62500E-02 0.00000E+00
 -1       766 7.25000E-02 1.68750E-02 0.00000E+00
 -1       767 7.33333E-02 1.75000E-02 0.00000E+00
 -1       768 7.41667E-02 1.81250E-02 0.00000E+00
 -1       769 7.60417E-02 1.25000E-02 0.00000E+00
 -1       770 7.70833E-02 1.25000E-02 0.00000E+00
 -1       771 7.81250E-02 1.25000E-02 0.00000E+00
 -1       772 7.91667E-02 1.25000E-02 0.00000E+00
 -1       773 8.02083E-02 1.25000E-02 0.00000E+00
 -1       774 8.12500E-02 1.25000E-02 0.00000E+00
 -1       775 8.22917E-02 1.25000E-02 0.00000E+00
 -1       776 7.50000E-02 1.35417E-02 0.00000E+00
 -1       777 7.50000E-02 1.45833E-02 0.00000E+00
 -1       778 7.50000E-02 1.56250E-02 0.00000E+00
 -1       779 7.50000E-02 1.66667E-02 0.00000E+00
 -1       780 7.50000E-02 1.77083E-02 0.00000E+00
 -1       781 7.58333E-02 1.31250E-02 0.00000E+00
 -1       782 7.66667E-02 1.37500E-02 0.00000E+00
 -1       783 7.75000E-02 1.43750E-02 0.00000E+00
 -1       784 7.83333E-02 1.50000E-02 0.00000E+00
 -1       785 7.91667E-02 1.56250E-02 0.00000E+00
 -1       786 8.00000E-02 1.62500E-02 0.00000E+00
 -1       787 8.08333E-02 1.68750E-02 0.00000E+00
 -1       788 8.16667E-02 1.75000E-02 0.00000E+00
 -1       789 8.25000E-02 1.81250E-02 0.00000E+00
 -1       790 8.43750E-02 1.25000E-02 0.00000E+00
 -1       791 8.54167E-02 1.25000E-02 0.00000E+00
 -1       792 8.64583E-02 1.25000E-02 0.00000E+00
 -1       793 8.75000E-02 1.25000E-02 0.00000E+00
 -1       794 8.85417E-02 1.25000E-02 0.00000E+00
 -1       795 8.95833E-02 1.25000E-02 0.00000E+00
 -1       796 9.06250E-02 1.25000E-02 0.00000E+00
 -1       797 8.33333E-02 1.35417E-02 0.00000E+00
 -1       798 8.33333E-02 1.45833E-02 0.00000E+00
 -1       799 8.33333E-02 1.56250E-02 0.00000E+00
 -1       800 8.33333E-02 1.66667E-02 0.00000E+00
 -1       801 8.33333E-02 1.77083E-02 0.00000E+00
 -1       802 8.41667E-02 1.31250E-02 0.00000E+00
 -1       803 8.50000E-02 1.37500E-02 0.00000E+00
 -1       804 8.58333E-02 1.43750E-02 0.00000E+00
 -1       805 8.66667E-02 1.50000E-02 0.00000E+00
 -1       806 8.75000E-02 1.56250E-02 0.00000E+00
 -1       807 8.83333E-02 1.62500E-02 0.00000E+00
 -1       808 8.91667E-02 1.68750E-02 0.00000E+00
 -1       809 9.00000E-02 1.75000E-02 0.00000E+00
 -1       810 9.08333E-02 1.81250E-02 0.00000E+00
 -1       811 9.27083E-02 1.25000E-02 0.00000E+00
 -1       812 9.37500E-02 1.25000E-02 0.00000E+00
 -1       813 9.47917E-02 1.25000E-02 0.00000E+00
 -1       814 9.58333E-02 1.25000E-02 0.00000E+00
 -1       815 9.68750E-02 1.25000E-02 0.00000E+00
 -1       816 9.79167E-02 1.25000E-02 0.00000E+00
 -1       817 9.89583E-02 1.25000E-02 0.00000E+00
 -1       818 9.16667E-02 1.35417E-02 0.00000E+00
 -1       819 9.16667E-02 1.45833E-02 0.00000E+00
 -1       820 9.16667E-02 1.56250E-02 0.00000E+00
 -1       821 9.16667E-02 1.66667E-02 0.00000E+00
 -1       822 9.16667E-02 1.77083E-02 0.00000E+00
 -1       823 9.25000E-02 1.31250E-02 0.00000E+00
 -1       824 9.33333E-02 1.37500E-02 0.00000E+00
 -1       825 9.41667E-02 1.43750E-02 0.00000E+00
 -1       826 9.50000E-02 1.50000E-02 0.00000E+00
 -1       827 9.58333E-02 1.56250E-02 0.00000E+00
 -1       828 9.66667E-02 1.62500E-02 0.00000E+00
 -1       829 9.75000E-02 1.68750E-02 0.00000E+00
 -1       830 9.83333E-02 1.75000E-02 0.00000E+00
 -1       831 9.91667E-02 1.81250E-02 0.00000E+00
 -1       832 1.00000E-01 1.35417E-02 0.00000E+00
 -1       833 1.00000E-01 1.45833E-02 0.00000E+00
 -1       834 1.00000E-01 1.56250E-02 0.00000E+00
 -1       835 1.00000E-01 1.66667E-02 0.00000E+00
 -1       836 1.00000E-01 1.77083E-02 0.00000E+00
 -1       837 1.04167E-03 1.87500E-02 0.00000E+00
 -1       838 2.08333E-03 1.87500E-02 0.00000E+00
 -1       839 3.12500E-03 1.87500E-02 0.00000E+00
 -1       840 4.16667E-03 1.87500E-02 0.00000E+00
 -1       841 5.20833E-03 1.87500E-02 0.00000E+00
 -1       842 6.25000E-03 1.87500E-02 0.00000E+00
 -1       843 7.29167E-03 1.87500E-02 0.00000E+00
 -1       844 0.00000E+00 1.97917E-02 0.00000E+00
 -1       845 0.00000E+00 2.08333E-02 0.00000E+00
 -1       846 0.00000E+00 2.18750E-02 0.00000E+00
 -1       847 0.00000E+00 2.29167E-02 0.00000E+00
 -1       848 0.00000E+00 2.39583E-02 0.00000E+00
 -1       849 8.33330E-04 1.93750E-02 0.00000E+00
 -1       850 1.66667E-03 2.00000E-02 0.00000E+00
 -1       851 2.50000E-03 2.06250E-02 0.00000E+00
 -1       852 3.33333E-03 2.12500E-02 0.00000E+00
 -1       853 4.16667E-03 2.18750E-02 0.00000E+00
 -1       854 5.00000E-03 2.25000E-02 0.00000E+00
 -1       855 5.83333E-03 2.31250E-02 0.00000E+00
 -1       856 6.66667E-03 2.37500E-02 0.00000E+00
 -1       857 7.50000E-03 2.43750E-02 0.00000E+00
 -1       858 9.37500E-03 1.87500E-02 0.00000E+00
 -1       859 1.04167E-02 1.87500E-02 0.00000E+00
 -1       860 1.14583E-02 1.87500E-02 0.00000E+00
 -1       861 1.25000E-02 1.87500E-02 0.00000E+00
 -1       862 1.35417E-02 1.87500E-02 0.00000E+00
 -1       863 1.45833E-02 1.87500E-02 0.00000E+00
 -1       864 1.56250E-02 1.87500E-02 0.00000E+00
 -1       865 8.33333E-03 1.97917E-02 0.00000E+00
 -1       866 8.33333E-03 2.08333E-02 0.00000E+00
 -1       867 8.33333E-03 2.18750E-02 0.00000E+00
 -1       868 8.33333E-03 2.29167E-02 0.00000E+00
 -1       869 8.33333E-03 2.39583E-02 0.00000E+00
 -1       870 9.16667E-03 1.93750E-02 0.00000E+00
 -1       871 1.00000E-02 2.00000E-02 0.00000E+00
 -1       872 1.08333E-02 2.06250E-02 0.00000E+00
 -1       873 1.16667E-02 2.12500E-02 0.00000E+00
 -1       874 1.25000E-02 2.18750E-02 0.00000E+00
 -1       875 1.33333E-02 2.25000E-02 0.00000E+00
 -1       876 1.41667E-02 2.31250E-02 0.00000E+00
 -1       877 1.50000E-02 2.37500E-02 0.00000E+00
 -1       878 1.58333E-02 2.43750E-02 0.00000E+00
 -1       879 1.77083E-02 1.87500E-02 0.00000E+00
 -1       880 1.87500E-02 1.87500E-02 0.00000E+00
 -1       881 1.97917E-02 1.87500E-02 0.00000E+00
 -1       882 2.08333E-02 1.87500E-02 0.00000E+00
 -1       883 2.18750E-02 1.87500E-02 0.00000E+00
 -1       884 2.29167E-02 1.87500E-02 0.00000E+00
 -1       885 2.39583E-02 1.87500E-02 0.00000E+00
 -1       886 1.66667E-02 1.97917E-02 0.00000E+00
 -1       887 1.66667E-02 2.08333E-02 0.00000E+00
 -1       888 1.66667E-02 2.18750E-02 0.00000E+00
 -1       889 1.66667E-02 2.29167E-02 0.00000E+00
 -1       890 1.66667E-02 2.39583E-02 0.00000E+00
 -1       891 1.75000E-02 1.93750E-02 0.00000E+00
 -1       892 1.83333E-02 2.00000E-02 0.00000E+00
 -1       893 1.91667E-02 2.06250E-02 0.00000E+00
 -1       894 2.00000E-02 2.12500E-02 0.00000E+00
 -1       895 2.08333E-02 2.18750E-02 0.00000E+00
 -1       896 2.16667E-02 2.25000E-02 0.00000E+00
 -1       897 2.25000E-02 2.31250E-02 0.00000E+00
 -1       898 2.33333E-02 2.37500E-02 0.00000E+00
 -1       899 2.41667E-02 2.43750E-02 0.00000E+00
 -1       900 2.60417E-02 1.87500E-02 0.00000E+00
 -1       901 2.70833E-02 1.87500E-02 0.00000E+00
 -1       902 2.81250E-02 1.87500E-02 0.00000E+00
 -1       903 2.91667E-02 1.87500E-02 0.00000E+00
 -1       904 3.02083E-02 1.87500E-02 0.00000E+00
 -1       905 3.12500E-02 1.87500E-02 0.00000E+00
 -1       906 3.22917E-02 1.87500E-02 0.00000E+00
 -1       907 2.50000E-02 1.97917E-02 0.00000E+00
 -1       908 2.50000E-02 2.08333E-02 0.00000E+00
 -1       909 2.50000E-02 2.18750E-02 0.00000E+00
 -1       910 2.50000E-02 2.29167E-02 0.00000E+00
 -1       911 2.50000E-02 2.39583E-02 0.00000E+00
 -1       912 2.58333E-02 1.93750E-02 0.00000E+00
 -1       913 2.66667E-02 2.00000E-02 0.00000E+00
 -1       914 2.75000E-02 2.06250E-02 0.00000E+00
 -1       915 2.83333E-02 2.12500E-02 0.00000E+00
 -1       916 2.91667E-02 2.18750E-02 0.00000E+00
 -1       917 3.00000E-02 2.25000E-02 0.00000E+00
 -1       918 3.08333E-02 2.31250E-02 0.00000E+00
 -1       919 3.16667E-02 2.37500E-02 0.00000E+00
 -1       920 3.25000E-02 2.43750E-02 0.00000E+00
 -1       921 3.43750E-02 1.87500E-02 0.00000E+00
 -1       922 3.54167E-02 1.87500E-02 0.00000E+00
 -1       923 3.64583E-02 1.87500E-02 0.00000E+00
 -1       924 3.75000E-02 1.87500E-02 0.00000E+00
 -1       925 3.85417E-02 1.87500E-02 0.00000E+00
 -1       926 3.95833E-02 1.87500E-02 0.00000E+00
 -1       927 4.06250E-02 1.87500E-02 0.00000E+00
 -1       928 3.33333E-02 1.97917E-02 0.00000E+00
 -1       929 3.33333E-02 2.08333E-02 0.00000E+00
 -1       930 3.33333E-02 2.18750E-02 0.00000E+00
 -1       931 3.33333E-02 2.29167E-02 0.00000E+00
 -1       932 3.33333E-02 2.39583E-02 0.00000E+00
 -1       933 3.41667E-02 1.93750E-02 0.00000E+00
 -1       934 3.50000E-02 2.00000E-02 0.00000E+00
 -1       935 3.58333E-02 2.06250E-02 0.00000E+00
 -1       936 3.66667E-02 2.12500E-02 0.00000E+00
 -1       937 3.75000E-02 2.18750E-02 0.00000E+00
 -1       938 3.83333E-02 2.25000E-02 0.00000E+00
 -1       939 3.91667E-02 2.31250E-02 0.00000E+00
 -1       940 4.00000E-02 2.37500E-02 0.00000E+00
 -1       941 4.08333E-02 2.43750E-02 0.00000E+00
 -1       942 4.27083E-02 1.87500E-02 0.00000E+00
 -1       943 4.37500E-02 1.87500E-02 0.00000E+00
 -1       944 4.47917E-02 1.87500E-02 0.00000E+00
 -1       945 4.58333E-02 1.87500E-02 0.00000E+00
 -1       946 4.68750E-02 1.87500E-02 0.00000E+00
 -1       947 4.79167E-02 1.87500E-02 0.00000E+00
 -1       948 4.89583E-02 1.87500E-02 0.00000E+00
 -1       949 4.16667E-02 1.97917E-02 0.00000E+00
 -1       950 4.16667E-02 2.08333E-02 0.00000E+00
 -1       951 4.16667E-02 2.18750E-02 0.00000E+00
 -1       952 4.16667E-02 2.29167E-02 0.00000E+00
 -1       953 4.16667E-02 2.39583E-02 0.00000E+00
 -1       954 4.25000E-02 1.93750E-02 0.00000E+00
 -1       955 4.33333E-02 2.00000E-02 0.00000E+00
 -1       956 4.41667E-02 2.06250E-02 0.00000E+00
 -1       957 4.50000E-02 2.12500E-02 0.00000E+00
 -1       958 4.58333E-02 2.18750E-02 0.00000E+00
 -1       959 4.66667E-02 2.25000E-02 0.00000E+00
 -1       960 4.75000E-02 2.31250E-02 0.00000E+00
 -1       961 4.83333E-02 2.37500E-02 0.00000E+00
 -1       962 4.91667E-02 2.43750E-02 0.00000E+00
 -1       963 5.10417E-02 1.87500E-02 0.00000E+00
 -1       964 5.20833E-02 1.87500E-02 0.00000E+00
 -1       965 5.31250E-02 1.87500E-02 0.00000E+00
 -1       966 5.41667E-02 1.87500E-02 0.00000E+00
 -1       967 5.52083E-02 1.87500E-02 0.00000E+00
 -1       968 5.62500E-02 1.87500E-02 0.00000E+00
 -1       969 5.72917E-02 1.87500E-02 0.00000E+00
 -1       970 5.00000E-02 1.97917E-02 0.00000E+00
 -1       971 5.00000E-02 2.08333E-02 0.00000E+00
 -1       972 5.00000E-02 2.18750E-02 0.00000E+00
 -1       973 5.00000E-02 2.29167E-02 0.00000E+00
 -1       974 5.00000E-02 2.39583E-02 0.00000E+00
 -1       975 5.08333E-02 1.93750E-02 0.00000E+00
 -1       976 5.16667E-02 2.00000E-02 0.00000E+00
 -1       977 5.25000E-02 2.06250E-02 0.00000E+00
 -1       978 5.33333E-02 2.12500E-02 0.00000E+00
 -1       979 5.41667E-02 2.18750E-02 0.00000E+00
 -1       980 5.50000E-02 2.25000E-02 0.00000E+00
 -1       981 5.58333E-02 2.31250E-02 0.00000E+00
 -1       982 5.66667E-02 2.37500E-02 0.00000E+00
 -1       983 5.75000E-02 2.43750E-02 0.00000E+00
 -1       984 5.93750E-02 1.87500E-02 0.00000E+00
 -1       985 6.04167E-02 1.87500E-02 0.00000E+00
 -1       986 6.14583E-02 1.87500E-02 0.00000E+00
 -1       987 6.25000E-02 1.87500E-02 0.00000E+00
 -1       988 6.35417E-02 1.87500E-02 0.00000E+00
 -1       989 6.45833E-02 1.87500E-02 0.00000E+00
 -1       990 6.56250E-02 1.87500E-02 0.00000E+00
 -1       991 5.83333E-02 1.97917E-02 0.00000E+00
 -1       992 5.83333E-02 2.08333E-02 0.00000E+00
 -1       993 5.83333E-02 2.18750E-02 0.00000E+00
 -1       994 5.83333E-02 2.29167E-02 0.00000E+00
 -1       995 5.83333E-02 2.39583E-02 0.00000E+00
 -1       996 5.91667E-02 1.93750E-02 0.00000E+00
 -1       997 6.00000E-02 2.00000E-02 0.00000E+00
 -1       998 6.08333E-02 2.06250E-02 0.00000E+00
 -1       999 6.16667E-02 2.12500E-02 0.00000E+00
 -1      1000 6.25000E-02 2.18750E-02 0.00000E+00
 -1      1001 6.33333E-02 2.25000E-02 0.00000E+00
 -1      1002 6.41667E-02 2.31250E-02 0.00000E+00
 -1      1003 6.50000E-02 2.37500E-02 0.00000E+00
 -1      1004 6.58333E-02 2.43750E-02 0.00000E+00
 -1      1005 6.77083E-02 1.87500E-02 0.00000E+00
 -1      1006 6.87500E-02 1.87500E-02 0.00000E+00
 -1      1007 6.97917E-02 1.87500E-02 0.00000E+00
 -1      1008 7.08333E-02 1.87500E-02 0.00000E+00
 -1      1009 7.18750E-02 1.87500E-02 0.00000E+00
 -1      1010 7.29167E-02 1.87500E-02 0.00000E+00
 -1      1011 7.39583E-02 1.87500E-02 0.00000E+00
 -1      1012 6.66667E-02 1.97917E-02 0.00000E+00
 -1      1013 6.66667E-02 2.08333E-02 0.00000E+00
 -1      1014 6.66667E-02 2.18750E-02 0.00000E+00
 -1      1015 6.66667E-02 2.29167E-02 0.00000E+00
 -1      1016 6.66667E-02 2.39583E-02 0.00000E+00
 -1      1017 6.75000E-02 1.93750E-02 0.00000E+00
 -1      1018 6.83333E-02 2.00000E-02 0.00000E+00
 -1      1019 6.91667E-02 2.06250E-02 0.00000E+00
 -1      1020 7.00000E-02 2.12500E-02 0.00000E+00
 -1      1021 7.08333E-02 2.18750E-02 0.00000E+00
 -1      1022 7.16667E-02 2.25000E-02 0.00000E+00
 -1      1023 7.25000E-02 2.31250E-02 0.00000E+00
 -1      1024 7.33333E-02 2.37500E-02 0.00000E+00
 -1      1025 7.41667E-02 2.43750E-02 0.00000E+00
 -1      1026 7.60417E-02 1.87500E-02 0.00000E+00
 -1      1027 7.70833E-02 1.87500E-02 0.00000E+00
 -1      1028 7.81250E-02 1.87500E-02 0.00000E+00
 -1      1029 7.91667E-02 1.87500E-02 0.00000E+00
 -1      1030 8.02083E-02 1.87500E-02 0.00000E+00
 -1      1031 8.12500E-02 1.87500E-02 0.00000E+00
 -1      1032 8.22917E-02 1.87500E-02 0.00000E+00
 -1      1033 7.50000E-02 1.97917E-02 0.00000E+00
 -1      1034 7.50000E-02 2.08333E-02 0.00000E+00
 -1      1035 7.50000E-02 2.18750E-02 0.00000E+00
 -1      1036 7.50000E-02 2.29167E-02 0.00000E+00
 -1      1037 7.50000E-02 2.39583E-02 0.00000E+00
 -1      1038 7.58333E-02 1.93750E-02 0.00000E+00
 -1      1039 7.66667E-02 2.00000E-02 0.00000E+00
 -1      1040 7.75000E-02 2.06250E-02 0.00000E+00
 -1      1041 7.83333E-02 2.12500E-02 0.00000E+00
 -1      1042 7.91667E-02 2.18750E-02 0.00000E+00
 -1      1043 8.00000E-02 2.25000E-02 0.00000E+00
 -1      1044 8.08333E-02 2.31250E-02 0.00000E+00
 -1      1045 8.16667E-02 2.37500E-02 0.00000E+00
 -1      1046 8.25000E-02 2.43750E-02 0.00000E+00
 -1      1047 8.43750E-02 1.87500E-02 0.00000E+00
 -1      1048 8.54167E-02 1.87500E-02 0.00000E+00
 -1      1049 8.64583E-02 1.87500E-02 0.00000E+00
 -1      1050 8.75000E-02 1.87500E-02 0.00000E+00
 -1      1051 8.85417E-02 1.87500E-02 0.00000E+00
 -1      1052 8.95833E-02 1.87500E-02 0.00000E+00
 -1      1053 9.06250E-02 1.87500E-02 0.00000E+00
 -1      1054 8.33333E-02 1.97917E-02 0.00000E+00
 -1      1055 8.33333E-02 2.08333E-02 0.00000E+00
 -1      1056 8.33333E-02 2.18750E-02 0.00000E+00
 -1      1057 8.33333E-02 2.29167E-02 0.00000E+00
 -1      1058 8.33333E-02 2.39583E-02 0.00000E+00
 -1      1059 8.41667E-02 1.93750E-02 0.00000E+00
 -1      1060 8.50000E-02 2.00000E-02 0.00000E+00
 -1      1061 8.58333E-02 2.06250E-02 0.00000E+00
 -1      1062 8.66667E-02 2.12500E-02 0.00000E+00
 -1      1063 8.75000E-02 2.18750E-02 0.00000E+00
 -1      1064 8.83333E-02 2.25000E-02 0.00000E+00
 -1      1065 8.91667E-02 2.31250E-02 0.00000E+00
 -1      1066 9.00000E-02 2.37500E-02 0.00000E+00
 -1      1067 9.08333E-02 2.43750E-02 0.00000E+00
 -1      1068 9.27083E-02 1.87500E-02 0.00000E+00
 -1      1069 9.37500E-02 1.87500E-02 0.00000E+00
 -1      1070 9.47917E-02 1.87500E-02 0.00000E+00
 -1      1071 9.58333E-02 1.87500E-02 0.00000E+00
 -1      1072 9.68750E-02 1.87500E-02 0.00000E+00
 -1      1073 9.79167E-02 1.87500E-02 0.00000E+00
 -1      1074 9.89583E-02 1.87500E-02 0.00000E+00
 -1      1075 9.16667E-02 1.97917E-02 0.00000E+00
 -1      1076 9.16667E-02 2.08333E-02 0.00000E+00
 -1      1077 9.16667E-02 2.18750E-02 0.00000E+00
 -1      1078 9.16667E-02 2.29167E-02 0.00000E+00
 -1      1079 9.16667E-02 2.39583E-02 0.00000E+00
 -1      1080 9.25000E-02 1.93750E-02 0.00000E+00
 -1      1081 9.33333E-02 2.00000E-02 0.00000E+00
 -1      1082 9.41667E-02 2.06250E-02 0.00000E+00
 -1      1083 9.50000E-02 2.12500E-02 0.00000E+00
 -1      1084 9.58333E-02 2.18750E-02 0.00000E+00
 -1      1085 9.66667E-02 2.25000E-02 0.00000E+00
 -1      1086 9.75000E-02 2.31250E-02 0.00000E+00
 -1      1087 9.83333E-02 2.37500E-02 0.00000E+00
 -1      1088 9.91667E-02 2.43750E-02 0.00000E+00
 -1      1089 1.00000E-01 1.97917E-02 0.00000E+00
 -1      1090 1.00000E-01 2.08333E-02 0.00000E+00
 -1      1091 1.00000E-01 2.18750E-02 0.00000E+00
 -1      1092 1.00000E-01 2.29167E-02 0.00000E+00
 -1      1093 1.00000E-01 2.39583E-02 0.00000E+00
 -1      1094 1.04167E-03 2.50000E-02 0.00000E+00
 -1      1095 2.08333E-03 2.50000E-02 0.00000E+00
 -1      1096 3.12500E-03 2.50000E-02 0.00000E+00
 -1      1097 4.16667E-03 2.50000E-02 0.00000E+00
 -1      1098 5.20833E-03 2.50000E-02 0.00000E+00
 -1      1099 6.25000E-03 2.50000E-02 0.00000E+00
 -1      1100 7.29167E-03 2.50000E-02 0.00000E+00
 -1      1101 9.37500E-03 2.50000E-02 0.00000E+00
 -1      1102 1.04167E-02 2.50000E-02 0.00000E+00
 -1      1103 1.14583E-02 2.50000E-02 0.00000E+00
 -1      1104 1.25000E-02 2.50000E-02 0.00000E+00
 -1      1105 1.35417E-02 2.50000E-02 0.00000E+00
 -1      1106 1.45833E-02 2.50000E-02 0.00000E+00
 -1      1107 1.56250E-02 2.50000E-02 0.00000E+00
 -1      1108 1.77083E-02 2.50000E-02 0.00000E+00
 -1      1109 1.87500E-02 2.50000E-02 0.00000E+00
 -1      1110 1.97917E-02 2.50000E-02 0.00000E+00
 -1      1111 2.08333E-02 2.50000E-02 0.00000E+00
 -1      1112 2.18750E-02 2.50000E-02 0.00000E+00
 -1      1113 2.29167E-02 2.50000E-02 0.00000E+00
 -1      1114 2.39583E-02 2.50000E-02 0.00000E+00
 -1      1115 2.60417E-02 2.50000E-02 0.00000E+00
 -1      1116 2.70833E-02 2.50000E-02 0.00000E+00
 -1      1117 2.81250E-02 2.50000E-02 0.00000E+00
 -1      1118 2.91667E-02 2.50000E-02 0.00000E+00
 -1      1119 3.02083E-02 2.50000E-02 0.00000E+00
 -1      1120 3.12500E-02 2.50000E-02 0.00000E+00
 -1      1121 3.22917E-02 2.50000E-02 0.00000E+00
 -1      1122 3.43750E-02 2.50000E-02 0.00000E+00
 -1      1123 3.54167E-02 2.50000E-02 0.00000E+00
 -1      1124 3.64583E-02 2.50000E-02 0.00000E+00
 -1      1125 3.75000E-02 2.50000E-02 0.00000E+00
 -1      1126 3.85417E-02 2.50000E-02 0.00000E+00
 -1      1127 3.95833E-02 2.50000E-02 0.00000E+00
 -1      1128 4.06250E-02 2.50000E-02 0.00000E+00
 -1      1129 4.27083E-02 2.50000E-02 0.00000E+00
 -1      1130 4.37500E-02 2.50000E-02 0.00000E+00
 -1      1131 4.47917E-02 2.50000E-02 0.00000E+00
 -1      1132 4.58333E-02 2.50000E-02 0.00000E+00
 -1      1133 4.68750E-02 2.50000E-02 0.00000E+00
 -1      1134 4.79167E-02 2.50000E-02 0.00000E+00
 -1      1135 4.89583E-02 2.50000E-02 0.00000E+00
 -1      1136 5.10417E-02 2.50000E-02 0.00000E+00
 -1      1137 5.20833E-02 2.50000E-02 0.00000E+00
 -1      1138 5.31250E-02 2.50000E-02 0.00000E+00
 -1      1139 5.41667E-02 2.50000E-02 0.00000E+00
 -1      1140 5.52083E-02 2.50000E-02 0.00000E+00
 -1      1141 5.62500E-02 2.50000E-02 0.00000E+00
 -1      1142 5.72917E-02 2.50000E-02 0.00000E+00
 -1      1143 5.93750E-02 2.50000E-02 0.00000E+00
 -1      1144 6.04167E-02 2.50000E-02 0.00000E+00
 -1      1145 6.14583E-02 2.50000E-02 0.00000E+00
 -1      1146 6.25000E-02 2.50000E-02 0.00000E+00
 -1      1147 6.35417E-02 2.50000E-02 0.00000E+00
 -1      1148 6.45833E-02 2.50000E-02 0.00000E+00
 -1      1149 6.56250E-02 2.50000E-02 0.00000E+00
 -1      1150 6.77083E-02 2.50000E-02 0.00000E+00
 -1      1151 6.87500E-02 2.50000E-02 0.00000E+00
 -1      1152 6.97917E-02 2.50000E-02 0.00000E+00
 -1      1153 7.08333E-02 2.50000E-02 0.00000E+00
 -1      1154 7.18750E-02 2.50000E-02 0.00000E+00
 -1      1155 7.29167E-02 2.50000E-02 0.00000E+00
 -1      1156 7.39583E-02 2.50000E-02 0.00000E+00
 -1      1157 7.60417E-02 2.50000E-02 0.00000E+00
 -1      1158 7.70833E-02 2.50000E-02 0.00000E+00
 -1      1159 7.81250E-02 2.50000E-02 0.00000E+00
 -1      1160 7.91667E-02 2.50000E-02 0.00000E+00
 -1      1161 8.02083E-02 2.50000E-02 0.00000E+00
 -1      1162 8.12500E-02 2.50000E-02 0.00000E+00
 -1      1163 8.22917E-02 2.50000E-02 0.00000E+00
 -1      1164 8.43750E-02 2.50000E-02 0.00000E+00
 -1      1165 8.54167E-02 2.50000E-02 0.00000E+00
 -1      1166 8.64583E-02 2.50000E-02 0.00000E+00
 -1      1167 8.75000E-02 2.50000E-02 0.00000E+00
 -1      1168 8.85417E-02 2.50000E-02 0.00000E+00
 -1      1169 8.95833E-02 2.50000E-02 0.00000E+00
 -1      1170 9.06250E-02 2.50000E-02 0.00000E+00
 -1      1171 9.27083E-02 2.50000E-02 0.00000E+00
 -1      1172 9.37500E-02 2.50000E-02 0.00000E+00
 -1      1173 9.47917E-02 2.50000E-02 0.00000E+00
 -1      1174 9.58333E-02 2.50000E-02 0.00000E+00
 -1      1175 9.68750E-02 2.50000E-02 0.00000E+00
 -1      1176 9.79167E-02 2.50000E-02 0.00000E+00
 -1      1177 9.89583E-02 2.50000E-02 0.00000E+00
 -3
    3C                           540                                     1
 -1         1   12    0    1
 -2         1        67        66
 -1         2   12    0    1
 -2        67        69        68
 -1         3   12    0    1
 -2        69        71        70
 -1         4   12    0    1
 -2        71         2        72
 -1         5   12    0    1
 -2         1        74        73
 -1         6   12    0    1
 -2        74        76        75
 -1         7   12    0    1
 -2        76        14        77
 -1         8   12    0    1
 -2         1        79        78
 -1         9   12    0    1
 -2        79        81        80
 -1        10   12    0    1
 -2        81        83        82
 -1        11   12    0    1
 -2        83        85        84
 -1        12   12    0    1
 -2        85        15        86
 -1        13   12    0    1
 -2         2        88        87
 -1        14   12    0    1
 -2        88        90        89
 -1        15   12    0    1
 -2        90        92        91
 -1        16   12    0    1
 -2        92         3        93
 -1        17   12    0    1
 -2         2        95        94
 -1        18   12    0    1
 -2        95        97        96
 -1        19   12    0    1
 -2        97        15        98
 -1        20   12    0    1
 -2         2       100        99
 -1        21   12    0    1
 -2       100       102       101
 -1        22   12    0    1
 -2       102       104       103
 -1        23   12    0    1
 -2       104       106       105
 -1        24   12    0    1
 -2       106        16       107
 -1        25   12    0    1
 -2         3       109       108
 -1        26   12    0    1
 -2       109       111       110
 -1        27   12    0    1
 -2       111       113       112
 -1        28   12    0    1
 -2       113         4       114
 -1        29   12    0    1
 -2         3       116       115
 -1        30   12    0    1
 -2       116       118       117
 -1        31   12    0    1
 -2       118        16       119
 -1        32   12    0    1
 -2         3       121       120
 -1        33   12    0    1
 -2       121       123       122
 -1        34   12    0    1
 -2       123       125       124
 -1        35   12    0    1
 -2       125       127       126
 -1        36   12    0    1
 -2       127        17       128
 -1        37   12    0    1
 -2         4       130       129
 -1        38   12    0    1
 -2       130       132       131
 -1        39   12    0    1
 -2       132       134       133
 -1        40   12    0    1
 -2       134         5       135
 -1        41   12    0    1
 -2         4       137       136
 -1        42   12    0    1
 -2       137       139       138
 -1        43   12    0    1
 -2       139        17       140
 -1        44   12    0    1
 -2         4       142       141
 -1        45   12    0    1
 -2       142       144       143
 -1        46   12    0    1
 -2       144       146       145
 -1        47   12    0    1
 -2       146       148       147
 -1        48   12    0    1
 -2       148        18       149
 -1        49   12    0    1
 -2         5       151       150
 -1        50   12    0    1
 -2       151       153       152
 -1        51   12    0    1
 -2       153       155       154
 -1        52   12    0    1
 -2       155         6       156
 -1        53   12    0    1
 -2         5       158       157
 -1        54   12    0    1
 -2       158       160       159
 -1        55   12    0    1
 -2       160        18       161
 -1        56   12    0    1
 -2         5       163       162
 -1        57   12    0    1
 -2       163       165       164
 -1        58   12    0    1
 -2       165       167       166
 -1        59   12    0    1
 -2       167       169       168
 -1        60   12    0    1
 -2       169        19       170
 -1        61   12    0    1
 -2         6       172       171
 -1        62   12    0    1
 -2       172       174       173
 -1        63   12    0    1
 -2       174       176       175
 -1        64   12    0    1
 -2       176         7       177
 -1        65   12    0    1
 -2         6       179       178
 -1        66   12    0    1
 -2       179       181       180
 -1        67   12    0    1
 -2       181        19       182
 -1        68   12    0    1
 -2         6       184       183
 -1        69   12    0    1
 -2       184       186       185
 -1        70   12    0    1
 -2       186       188       187
 -1        71   12    0    1
 -2       188       190       189
 -1        72   12    0    1
 -2       190        20       191
 -1        73   12    0    1
 -2         7       193       192
 -1        74   12    0    1
 -2       193       195       194
 -1        75   12    0    1
 -2       195       197       196
 -1        76   12    0    1
 -2       197         8       198
 -1        77   12    0    1
 -2         7       200       199
 -1        78   12    0    1
 -2       200       202       201
 -1        79   12    0    1
 -2       202        20       203
 -1        80   12    0    1
 -2         7       205       204
 -1        81   12    0    1
 -2       205       207       206
 -1        82   12    0    1
 -2       207       209       208
 -1        83   12    0    1
 -2       209       211       210
 -1        84   12    0    1
 -2       211        21       212
 -1        85   12    0    1
 -2         8       214       213
 -1        86   12    0    1
 -2       214       216       215
 -1        87   12    0    1
 -2       216       218       217
 -1        88   12    0    1
 -2       218         9       219
 -1        89   12    0    1
 -2         8       221       220
 -1        90   12    0    1
 -2       221       223       222
 -1        91   12    0    1
 -2       223        21       224
 -1        92   12    0    1
 -2         8       226       225
 -1        93   12    0    1
 -2       226       228       227
 -1        94   12    0    1
 -2       228       230       229
 -1        95   12    0    1
 -2       230       232       231
 -1        96   12    0    1
 -2       232        22       233
 -1        97   12    0    1
 -2         9       242       241
 -1        98   12    0    1
 -2       242       244       243
 -1        99   12    0    1
 -2       244        22       245
 -1       100   12    0    1
 -2        14       324       323
 -1       101   12    0    1
 -2       324       326       325
 -1       102   12    0    1
 -2       326       328       327
 -1       103   12    0    1
 -2       328        15       329
 -1       104   12    0    1
 -2        14       331       330
 -1       105   12    0    1
 -2       331       333       332
 -1       106   12    0    1
 -2       333        27       334
 -1       107   12    0    1
 -2        14       336       335
 -1       108   12    0    1
 -2       336       338       337
 -1       109   12    0    1
 -2       338       340       339
 -1       110   12    0    1
 -2       340       342       341
 -1       111   12    0    1
 -2       342        28       343
 -1       112   12    0    1
 -2        15       345       344
 -1       113   12    0    1
 -2       345       347       346
 -1       114   12    0    1
 -2       347       349       348
 -1       115   12    0    1
 -2       349        16       350
 -1       116   12    0    1
 -2        15       352       351
 -1       117   12    0    1
 -2       352       354       353
 -1       118   12    0    1
 -2       354        28       355
 -1       119   12    0    1
 -2        15       357       356
 -1       120   12    0    1
 -2       357       359       358
 -1       121   12    0    1
 -2       359       361       360
 -1       122   12    0    1
 -2       361       363       362
 -1       123   12    0    1
 -2       363        29       364
 -1       124   12    0    1
 -2        16       366       365
 -1       125   12    0    1
 -2       366       368       367
 -1       126   12    0    1
 -2       368       370       369
 -1       127   12    0    1
 -2       370        17       371
 -1       128   12    0    1
 -2        16       373       372
 -1       129   12    0    1
 -2       373       375       374
 -1       130   12    0    1
 -2       375        29       376
 -1       131   12    0    1
 -2        16       378       377
 -1       132   12    0    1
 -2       378       380       379
 -1       133   12    0    1
 -2       380       382       381
 -1       134   12    0    1
 -2       382       384       383
 -1       135   12    0    1
 -2       384        30       385
 -1       136   12    0    1
 -2        17       387       386
 -1       137   12    0    1
 -2       387       389       388
 -1       138   12    0    1
 -2       389       391       390
 -1       139   12    0    1
 -2       391        18       392
 -1       140   12    0    1
 -2        17       394       393
 -1       141   12    0    1
 -2       394       396       395
 -1       142   12    0    1
 -2       396        30       397
 -1       143   12    0    1
 -2        17       399       398
 -1       144   12    0    1
 -2       399       401       400
 -1       145   12    0    1
 -2       401       403       402
 -1       146   12    0    1
 -2       403       405       404
 -1       147   12    0    1
 -2       405        31       406
 -1       148   12    0    1
 -2        18       408       407
 -1       149   12    0    1
 -2       408       410       409
 -1       150   12    0    1
 -2       410       412       411
 -1       151   12    0    1
 -2       412        19       413
 -1       152   12    0    1
 -2        18       415       414
 -1       153   12    0    1
 -2       415       417       416
 -1       154   12    0    1
 -2       417        31       418
 -1       155   12    0    1
 -2        18       420       419
 -1       156   12    0    1
 -2       420       422       421
 -1       157   12    0    1
 -2       422       424       423
 -1       158   12    0    1
 -2       424       426       425
 -1       159   12    0    1
 -2       426        32       427
 -1       160   12    0    1
 -2        19       429       428
 -1       161   12    0    1
 -2       429       431       430
 -1       162   12    0    1
 -2       431       433       432
 -1       163   12    0    1
 -2       433        20       434
 -1       164   12    0    1
 -2        19       436       435
 -1       165   12    0    1
 -2       436       438       437
 -1       166   12    0    1
 -2       438        32       439
 -1       167   12    0    1
 -2        19       441       440
 -1       168   12    0    1
 -2       441       443       442
 -1       169   12    0    1
 -2       443       445       444
 -1       170   12    0    1
 -2       445       447       446
 -1       171   12    0    1
 -2       447        33       448
 -1       172   12    0    1
 -2        20       450       449
 -1       173   12    0    1
 -2       450       452       451
 -1       174   12    0    1
 -2       452       454       453
 -1       175   12    0    1
 -2       454        21       455
 -1       176   12    0    1
 -2        20       457       456
 -1       177   12    0    1
 -2       457       459       458
 -1       178   12    0    1
 -2       459        33       460
 -1       179   12    0    1
 -2        20       462       461
 -1       180   12    0    1
 -2       462       464       463
 -1       181   12    0    1
 -2       464       466       465
 -1       182   12    0    1
 -2       466       468       467
 -1       183   12    0    1
 -2       468        34       469
 -1       184   12    0    1
 -2        21       471       470
 -1       185   12    0    1
 -2       471       473       472
 -1       186   12    0    1
 -2       473       475       474
 -1       187   12    0    1
 -2       475        22       476
 -1       188   12    0    1
 -2        21       478       477
 -1       189   12    0    1
 -2       478       480       479
 -1       190   12    0    1
 -2       480        34       481
 -1       191   12    0    1
 -2        21       483       482
 -1       192   12    0    1
 -2       483       485       484
 -1       193   12    0    1
 -2       485       487       486
 -1       194   12    0    1
 -2       487       489       488
 -1       195   12    0    1
 -2       489        35       490
 -1       196   12    0    1
 -2        22       499       498
 -1       197   12    0    1
 -2       499       501       500
 -1       198   12    0    1
 -2       501        35       502
 -1       199   12    0    1
 -2        27       581       580
 -1       200   12    0    1
 -2       581       583       582
 -1       201   12    0    1
 -2       583       585       584
 -1       202   12    0    1
 -2       585        28       586
 -1       203   12    0    1
 -2        27       588       587
 -1       204   12    0    1
 -2       588       590       589
 -1       205   12    0    1
 -2       590        40       591
 -1       206   12    0    1
 -2        27       593       592
 -1       207   12    0    1
 -2       593       595       594
 -1       208   12    0    1
 -2       595       597       596
 -1       209   12    0    1
 -2       597       599       598
 -1       210   12    0    1
 -2       599        41       600
 -1       211   12    0    1
 -2        28       602       601
 -1       212   12    0    1
 -2       602       604       603
 -1       213   12    0    1
 -2       604       606       605
 -1       214   12    0    1
 -2       606        29       607
 -1       215   12    0    1
 -2        28       609       608
 -1       216   12    0    1
 -2       609       611       610
 -1       217   12    0    1
 -2       611        41       612
 -1       218   12    0    1
 -2        28       614       613
 -1       219   12    0    1
 -2       614       616       615
 -1       220   12    0    1
 -2       616       618       617
 -1       221   12    0    1
 -2       618       620       619
 -1       222   12    0    1
 -2       620        42       621
 -1       223   12    0    1
 -2        29       623       622
 -1       224   12    0    1
 -2       623       625       624
 -1       225   12    0    1
 -2       625       627       626
 -1       226   12    0    1
 -2       627        30       628
 -1       227   12    0    1
 -2        29       630       629
 -1       228   12    0    1
 -2       630       632       631
 -1       229   12    0    1
 -2       632        42       633
 -1       230   12    0    1
 -2        29       635       634
 -1       231   12    0    1
 -2       635       637       636
 -1       232   12    0    1
 -2       637       639       638
 -1       233   12    0    1
 -2       639       641       640
 -1       234   12    0    1
 -2       641        43       642
 -1       235   12    0    1
 -2        30       644       643
 -1       236   12    0    1
 -2       644       646       645
 -1       237   12    0    1
 -2       646       648       647
 -1       238   12    0    1
 -2       648        31       649
 -1       239   12    0    1
 -2        30       651       650
 -1       240   12    0    1
 -2       651       653       652
 -1       241   12    0    1
 -2       653        43       654
 -1       242   12    0    1
 -2        30       656       655
 -1       243   12    0    1
 -2       656       658       657
 -1       244   12    0    1
 -2       658       660       659
 -1       245   12    0    1
 -2       660       662       661
 -1       246   12    0    1
 -2       662        44       663
 -1       247   12    0    1
 -2        31       665       664
 -1       248   12    0    1
 -2       665       667       666
 -1       249   12    0    1
 -2       667       669       668
 -1       250   12    0    1
 -2       669        32       670
 -1       251   12    0    1
 -2        31       672       671
 -1       252   12    0    1
 -2       672       674       673
 -1       253   12    0    1
 -2       674        44       675
 -1       254   12    0    1
 -2        31       677       676
 -1       255   12    0    1
 -2       677       679       678
 -1       256   12    0    1
 -2       679       681       680
 -1       257   12    0    1
 -2       681       683       682
 -1       258   12    0    1
 -2       683        45       684
 -1       259   12    0    1
 -2        32       686       685
 -1       260   12    0    1
 -2       686       688       687
 -1       261   12    0    1
 -2       688       690       689
 -1       262   12    0    1
 -2       690        33       691
 -1       263   12    0    1
 -2        32       693       692
 -1       264   12    0    1
 -2       693       695       694
 -1       265   12    0    1
 -2       695        45       696
 -1       266   12    0    1
 -2        32       698       697
 -1       267   12    0    1
 -2       698       700       699
 -1       268   12    0    1
 -2       700       702       701
 -1       269   12    0    1
 -2       702       704       703
 -1       270   12    0    1
 -2       704        46       705
 -1       271   12    0    1
 -2        33       707       706
 -1       272   12    0    1
 -2       707       709       708
 -1       273   12    0    1
 -2       709       711       710
 -1       274   12    0    1
 -2       711        34       712
 -1       275   12    0    1
 -2        33       714       713
 -1       276   12    0    1
 -2       714       716       715
 -1       277   12    0    1
 -2       716        46       717
 -1       278   12    0    1
 -2        33       719       718
 -1       279   12    0    1
 -2       719       721       720
 -1       280   12    0    1
 -2       721       723       722
 -1       281   12    0    1
 -2       723       725       724
 -1       282   12    0    1
 -2       725        47       726
 -1       283   12    0    1
 -2        34       728       727
 -1       284   12    0    1
 -2       728       730       729
 -1       285   12    0    1
 -2       730       732       731
 -1       286   12    0    1
 -2       732        35       733
 -1       287   12    0    1
 -2        34       735       734
 -1       288   12    0    1
 -2       735       737       736
 -1       289   12    0    1
 -2       737        47       738
 -1       290   12    0    1
 -2        34       740       739
 -1       291   12    0    1
 -2       740       742       741
 -1       292   12    0    1
 -2       742       744       743
 -1       293   12    0    1
 -2       744       746       745
 -1       294   12    0    1
 -2       746        48       747
 -1       295   12    0    1
 -2        35       749       748
 -1       296   12    0    1
 -2       749       751       750
 -1       297   12    0    1
 -2       751       753       752
 -1       298   12    0    1
 -2       753        36       754
 -1       299   12    0    1
 -2        35       756       755
 -1       300   12    0    1
 -2       756       758       757
 -1       301   12    0    1
 -2       758        48       759
 -1       302   12    0    1
 -2        35       761       760
 -1       303   12    0    1
 -2       761       763       762
 -1       304   12    0    1
 -2       763       765       764
 -1       305   12    0    1
 -2       765       767       766
 -1       306   12    0    1
 -2       767        49       768
 -1       307   12    0    1
 -2        36       770       769
 -1       308   12    0    1
 -2       770       772       771
 -1       309   12    0    1
 -2       772       774       773
 -1       310   12    0    1
 -2       774        37       775
 -1       311   12    0    1
 -2        36       777       776
 -1       312   12    0    1
 -2       777       779       778
 -1       313   12    0    1
 -2       779        49       780
 -1       314   12    0    1
 -2        36       782       781
 -1       315   12    0    1
 -2       782       784       783
 -1       316   12    0    1
 -2       784       786       785
 -1       317   12    0    1
 -2       786       788       787
 -1       318   12    0    1
 -2       788        50       789
 -1       319   12    0    1
 -2        37       791       790
 -1       320   12    0    1
 -2       791       793       792
 -1       321   12    0    1
 -2       793       795       794
 -1       322   12    0    1
 -2       795        38       796
 -1       323   12    0    1
 -2        37       798       797
 -1       324   12    0    1
 -2       798       800       799
 -1       325   12    0    1
 -2       800        50       801
 -1       326   12    0    1
 -2        37       803       802
 -1       327   12    0    1
 -2       803       805       804
 -1       328   12    0    1
 -2       805       807       806
 -1       329   12    0    1
 -2       807       809       808
 -1       330   12    0    1
 -2       809        51       810
 -1       331   12    0    1
 -2        38       812       811
 -1       332   12    0    1
 -2       812       814       813
 -1       333   12    0    1
 -2       814       816       815
 -1       334   12    0    1
 -2       816        39       817
 -1       335   12    0    1
 -2        38       819       818
 -1       336   12    0    1
 -2       819       821       820
 -1       337   12    0    1
 -2       821        51       822
 -1       338   12    0    1
 -2        38       824       823
 -1       339   12    0    1
 -2       824       826       825
 -1       340   12    0    1
 -2       826       828       827
 -1       341   12    0    1
 -2       828       830       829
 -1       342   12    0    1
 -2       830        52       831
 -1       343   12    0    1
 -2        39       833       832
 -1       344   12    0    1
 -2       833       835       834
 -1       345   12    0    1
 -2       835        52       836
 -1       346   12    0    1
 -2        40       838       837
 -1       347   12    0    1
 -2       838       840       839
 -1       348   12    0    1
 -2       840       842       841
 -1       349   12    0    1
 -2       842        41       843
 -1       350   12    0    1
 -2        40       845       844
 -1       351   12    0    1
 -2       845       847       846
 -1       352   12    0    1
 -2       847        53       848
 -1       353   12    0    1
 -2        40       850       849
 -1       354   12    0    1
 -2       850       852       851
 -1       355   12    0    1
 -2       852       854       853
 -1       356   12    0    1
 -2       854       856       855
 -1       357   12    0    1
 -2       856        54       857
 -1       358   12    0    1
 -2        41       859       858
 -1       359   12    0    1
 -2       859       861       860
 -1       360   12    0    1
 -2       861       863       862
 -1       361   12    0    1
 -2       863        42       864
 -1       362   12    0    1
 -2        41       866       865
 -1       363   12    0    1
 -2       866       868       867
 -1       364   12    0    1
 -2       868        54       869
 -1       365   12    0    1
 -2        41       871       870
 -1       366   12    0    1
 -2       871       873       872
 -1       367   12    0    1
 -2       873       875       874
 -1       368   12    0    1
 -2       875       877       876
 -1       369   12    0    1
 -2       877        55       878
 -1       370   12    0    1
 -2        42       880       879
 -1       371   12    0    1
 -2       880       882       881
 -1       372   12    0    1
 -2       882       884       883
 -1       373   12    0    1
 -2       884        43       885
 -1       374   12    0    1
 -2        42       887       886
 -1       375   12    0    1
 -2       887       889       888
 -1       376   12    0    1
 -2       889        55       890
 -1       377   12    0    1
 -2        42       892       891
 -1       378   12    0    1
 -2       892       894       893
 -1       379   12    0    1
 -2       894       896       895
 -1       380   12    0    1
 -2       896       898       897
 -1       381   12    0    1
 -2       898        56       899
 -1       382   12    0    1
 -2        43       901       900
 -1       383   12    0    1
 -2       901       903       902
 -1       384   12    0    1
 -2       903       905       904
 -1       385   12    0    1
 -2       905        44       906
 -1       386   12    0    1
 -2        43       908       907
 -1       387   12    0    1
 -2       908       910       909
 -1       388   12    0    1
 -2       910        56       911
 -1       389   12    0    1
 -2        43       913       912
 -1       390   12    0    1
 -2       913       915       914
 -1       391   12    0    1
 -2       915       917       916
 -1       392   12    0    1
 -2       917       919       918
 -1       393   12    0    1
 -2       919        57       920
 -1       394   12    0    1
 -2        44       922       921
 -1       395   12    0    1
 -2       922       924       923
 -1       396   12    0    1
 -2       924       926       925
 -1       397   12    0    1
 -2       926        45       927
 -1       398   12    0    1
 -2        44       929       928
 -1       399   12    0    1
 -2       929       931       930
 -1       400   12    0    1
 -2       931        57       932
 -1       401   12    0    1
 -2        44       934       933
 -1       402   12    0    1
 -2       934       936       935
 -1       403   12    0    1
 -2       936       938       937
 -1       404   12    0    1
 -2       938       940       939
 -1       405   12    0    1
 -2       940        58       941
 -1       406   12    0    1
 -2        45       943       942
 -1       407   12    0    1
 -2       943       945       944
 -1       408   12    0    1
 -2       945       947       946
 -1       409   12    0    1
 -2       947        46       948
 -1       410   12    0    1
 -2        45       950       949
 -1       411   12    0    1
 -2       950       952       951
 -1       412   12    0    1
 -2       952        58       953
 -1       413   12    0    1
 -2        45       955       954
 -1       414   12    0    1
 -2       955       957       956
 -1       415   12    0    1
 -2       957       959       958
 -1       416   12    0    1
 -2       959       961       960
 -1       417   12    0    1
 -2       961        59       962
 -1       418   12    0    1
 -2        46       964       963
 -1       419   12    0    1
 -2       964       966       965
 -1       420   12    0    1
 -2       966       968       967
 -1       421   12    0    1
 -2       968        47       969
 -1       422   12    0    1
 -2        46       971       970
 -1       423   12    0    1
 -2       971       973       972
 -1       424   12    0    1
 -2       973        59       974
 -1       425   12    0    1
 -2        46       976       975
 -1       426   12    0    1
 -2       976       978       977
 -1       427   12    0    1
 -2       978       980       979
 -1       428   12    0    1
 -2       980       982       981
 -1       429   12    0    1
 -2       982        60       983
 -1       430   12    0    1
 -2        47       985       984
 -1       431   12    0    1
 -2       985       987       986
 -1       432   12    0    1
 -2       987       989       988
 -1       433   12    0    1
 -2       989        48       990
 -1       434   12    0    1
 -2        47       992       991
 -1       435   12    0    1
 -2       992       994       993
 -1       436   12    0    1
 -2       994        60       995
 -1       437   12    0    1
 -2        47       997       996
 -1       438   12    0    1
 -2       997       999       998
 -1       439   12    0    1
 -2       999      1001      1000
 -1       440   12    0    1
 -2      1001      1003      1002
 -1       441   12    0    1
 -2      1003        61      1004
 -1       442   12    0    1
 -2        48      1006      1005
 -1       443   12    0    1
 -2      1006      1008      1007
 -1       444   12    0    1
 -2      1008      1010      1009
 -1       445   12    0    1
 -2      1010        49      1011
 -1       446   12    0    1
 -2        48      1013      1012
 -1       447   12    0    1
 -2      1013      1015      1014
 -1       448   12    0    1
 -2      1015        61      1016
 -1       449   12    0    1
 -2        48      1018      1017
 -1       450   12    0    1
 -2      1018      1020      1019
 -1       451   12    0    1
 -2      1020      1022      1021
 -1       452   12    0    1
 -2      1022      1024      1023
 -1       453   12    0    1
 -2      1024        62      1025
 -1       454   12    0    1
 -2        49      1027      1026
 -1       455   12    0    1
 -2      1027      1029      1028
 -1       456   12    0    1
 -2      1029      1031      1030
 -1       457   12    0    1
 -2      1031        50      1032
 -1       458   12    0    1
 -2        49      1034      1033
 -1       459   12    0    1
 -2      1034      1036      1035
 -1       460   12    0    1
 -2      1036        62      1037
 -1       461   12    0    1
 -2        49      1039      1038
 -1       462   12    0    1
 -2      1039      1041      1040
 -1       463   12    0    1
 -2      1041      1043      1042
 -1       464   12    0    1
 -2      1043      1045      1044
 -1       465   12    0    1
 -2      1045        63      1046
 -1       466   12    0    1
 -2        50      1048      1047
 -1       467   12    0    1
 -2      1048      1050      1049
 -1       468   12    0    1
 -2      1050      1052      1051
 -1       469   12    0    1
 -2      1052        51      1053
 -1       470   12    0    1
 -2        50      1055      1054
 -1       471   12    0    1
 -2      1055      1057      1056
 -1       472   12    0    1
 -2      1057        63      1058
 -1       473   12    0    1
 -2        50      1060      1059
 -1       474   12    0    1
 -2      1060      1062      1061
 -1       475   12    0    1
 -2      1062      1064      1063
 -1       476   12    0    1
 -2      1064      1066      1065
 -1       477   12    0    1
 -2      1066        64      1067
 -1       478   12    0    1
 -2        51      1069      1068
 -1       479   12    0    1
 -2      1069      1071      1070
 -1       480   12    0    1
 -2      1071      1073      1072
 -1       481   12    0    1
 -2      1073        52      1074
 -1       482   12    0    1
 -2        51      1076      1075
 -1       483   12    0    1
 -2      1076      1078      1077
 -1       484   12    0    1
 -2      1078        64      1079
 -1       485   12    0    1
 -2        51      1081      1080
 -1       486   12    0    1
 -2      1081      1083      1082
 -1       487   12    0    1
 -2      1083      1085      1084
 -1       488   12    0    1
 -2      1085      1087      1086
 -1       489   12    0    1
 -2      1087        65      1088
 -1       490   12    0    1
 -2        52      1090      1089
 -1       491   12    0    1
 -2      1090      1092      1091
 -1       492   12    0    1
 -2      1092        65      1093
 -1       493   12    0    1
 -2        53      1095      1094
 -1       494   12    0    1
 -2      1095      1097      1096
 -1       495   12    0    1
 -2      1097      1099      1098
 -1       496   12    0    1
 -2      1099        54      1100
 -1       497   12    0    1
 -2        54      1102      1101
 -1       498   12    0    1
 -2      1102      1104      1103
 -1       499   12    0    1
 -2      1104      1106      1105
 -1       500   12    0    1
 -2      1106        55      1107
 -1       501   12    0    1
 -2        55      1109      1108
 -1       502   12    0    1
 -2      1109      1111      1110
 -1       503   12    0    1
 -2      1111      1113      1112
 -1       504   12    0    1
 -2      1113        56      1114
 -1       505   12    0    1
 -2        56      1116      1115
 -1       506   12    0    1
 -2      1116      1118      1117
 -1       507   12    0    1
 -2      1118      1120      1119
 -1       508   12    0    1
 -2      1120        57      1121
 -1       509   12    0    1
 -2        57      1123      1122
 -1       510   12    0    1
 -2      1123      1125      1124
 -1       511   12    0    1
 -2      1125      1127      1126
 -1       512   12    0    1
 -2      1127        58      1128
 -1       513   12    0    1
 -2        58      1130      1129
 -1       514   12    0    1
 -2      1130      1132      1131
 -1       515   12    0    1
 -2      1132      1134      1133
 -1       516   12    0    1
 -2      1134        59      1135
 -1       517   12    0    1
 -2        59      1137      1136
 -1       518   12    0    1
 -2      1137      1139      1138
 -1       519   12    0    1
 -2      1139      1141      1140
 -1       520   12    0    1
 -2      1141        60      1142
 -1       521   12    0    1
 -2        60      1144      1143
 -1       522   12    0    1
 -2      1144      1146      1145
 -1       523   12    0    1
 -2      1146      1148      1147
 -1       524   12    0    1
 -2      1148        61      1149
 -1       525   12    0    1
 -2        61      1151      1150
 -1       526   12    0    1
 -2      1151      1153      1152
 -1       527   12    0    1
 -2      1153      1155      1154
 -1       528   12    0    1
 -2      1155        62      1156
 -1       529   12    0    1
 -2        62      1158      1157
 -1       530   12    0    1
 -2      1158      1160      1159
 -1       531   12    0    1
 -2      1160      1162      1161
 -1       532   12    0    1
 -2      1162        63      1163
 -1       533   12    0    1
 -2        63      1165      1164
 -1       534   12    0    1
 -2      1165      1167      1166
 -1       535   12    0    1
 -2      1167      1169      1168
 -1       536   12    0    1
 -2      1169        64      1170
 -1       537   12    0    1
 -2        64      1172      1171
 -1       538   12    0    1
 -2      1172      1174      1173
 -1       539   12    0    1
 -2      1174      1176      1175
 -1       540   12    0    1
 -2      1176        65      1177
 -3
    1PSTEP                         1           1           1          
  100CL  101 1.000000000        1001                     0    1           1
 -4  DISP        4    1
 -5  D1          1    2    1    0
 -5  D2          1    2    2    0
 -5  D3          1    2    3    0
 -5  ALL         1    2    0    0    1ALL
 -1         1-1.81558E-05 0.00000E+00 0.00000E+00
 -1         2-1.30229E-05 0.00000E+00 0.00000E+00
 -1         3-9.84323E-06 0.00000E+00 0.00000E+00
 -1         4-7.68081E-06 0.00000E+00 0.00000E+00
 -1         5-6.12968E-06 0.00000E+00 0.00000E+00
 -1         6-4.97190E-06 0.00000E+00 0.00000E+00
 -1         7-4.11119E-06 0.00000E+00 0.00000E+00
 -1         8-3.65561E-06 0.00000E+00 0.00000E+00
 -1         9-3.62411E-06 0.00000E+00 0.00000E+00
 -1        14-1.09026E-05 9.68510E-07 0.00000E+00
 -1        15-1.08505E-05-9.91759E-07 0.00000E+00
 -1        16-9.22630E-06-8.92082E-07 0.00000E+00
 -1        17-7.57953E-06-6.05694E-07 0.00000E+00
 -1        18-6.23660E-06-3.28964E-07 0.00000E+00
 -1        19-5.16706E-06-1.63205E-07 0.00000E+00
 -1        20-4.19471E-06-1.39513E-07 0.00000E+00
 -1        21-3.33829E-06 8.27890E-08 0.00000E+00
 -1        22-3.23148E-06 4.60918E-07 0.00000E+00
 -1        27-6.71881E-06 9.56111E-07 0.00000E+00
 -1        28-7.01513E-06-1.23951E-06 0.00000E+00
 -1        29-6.93950E-06-1.64625E-06 0.00000E+00
 -1        30-6.26442E-06-1.27863E-06 0.00000E+00
 -1        31-5.43590E-06-7.26523E-07 0.00000E+00
 -1        32-4.79615E-06-3.15593E-07 0.00000E+00
 -1        33-4.17866E-06-3.40533E-07 0.00000E+00
 -1        34-3.25332E-06-2.34319E-07 0.00000E+00
 -1        35-1.95630E-06 1.25633E-06 0.00000E+00
 -1        36-1.26088E-07 8.94812E-06 0.00000E+00
 -1        37 7.24844E-07 1.81768E-05 0.00000E+00
 -1        38 1.01061E-06 2.77520E-05 0.00000E+00
 -1        39 1.04336E-06 3.70988E-05 0.00000E+00
 -1        40-3.76082E-06 6.04953E-07 0.00000E+00
 -1        41-4.19487E-06-1.40812E-06 0.00000E+00
 -1        42-4.60334E-06-2.06000E-06 0.00000E+00
 -1        43-4.58462E-06-1.82069E-06 0.00000E+00
 -1        44-4.10382E-06-1.16740E-06 0.00000E+00
 -1        45-3.46019E-06-3.70164E-07 0.00000E+00
 -1        46-3.59209E-06-3.31341E-07 0.00000E+00
 -1        47-3.89455E-06-4.48732E-07 0.00000E+00
 -1        48-4.24331E-06 1.65452E-06 0.00000E+00
 -1        49-4.90240E-06 8.36086E-06 0.00000E+00
 -1        50-5.19179E-06 1.76073E-05 0.00000E+00
 -1        51-5.35163E-06 2.73328E-05 0.00000E+00
 -1        52-5.46199E-06 3.67553E-05 0.00000E+00
 -1        53 0.00000E+00 0.00000E+00 0.00000E+00
 -1        54-1.65372E-06-1.60577E-06 0.00000E+00
 -1        55-2.83686E-06-2.28600E-06 0.00000E+00
 -1        56-3.45228E-06-2.14369E-06 0.00000E+00
 -1        57-3.32988E-06-1.56016E-06 0.00000E+00
 -1        58-2.30615E-06-8.10303E-07 0.00000E+00
 -1        59 0.00000E+00 0.00000E+00 0.00000E+00
 -1        60-3.10413E-06-5.61349E-07 0.00000E+00
 -1        61-5.83173E-06 1.75494E-06 0.00000E+00
 -1        62-8.44513E-06 8.11741E-06 0.00000E+00
 -1        63-1.03567E-05 1.71957E-05 0.00000E+00
 -1        64-1.13678E-05 2.70208E-05 0.00000E+00
 -1        65-1.17374E-05 3.65486E-05 0.00000E+00
 -1        66-1.75200E-05 3.24255E-22 1.32349E-23
 -1        67-1.68754E-05 6.74979E-22 0.00000E+00
 -1        68-1.62292E-05 1.39628E-21 0.00000E+00
 -1        69-1.55824E-05 1.32349E-21 6.61744E-24
 -1        70-1.49358E-05 9.39677E-22-1.32349E-23
 -1        71-1.42908E-05 6.88214E-22 6.61744E-24
 -1        72-1.36489E-05 2.38228E-22 1.32349E-23
 -1        73-1.75179E-05 1.75705E-07 0.00000E+00
 -1        74-1.64511E-05 3.38675E-07-1.65436E-24
 -1        75-1.51042E-05 4.98942E-07 0.00000E+00
 -1        76-1.36293E-05 6.57312E-07 0.00000E+00
 -1        77-1.21786E-05 8.14593E-07 6.61744E-24
 -1        78-1.76367E-05 1.81704E-07 0.00000E+00
 -1        79-1.70189E-05 2.37889E-07 0.00000E+00
 -1        80-1.63227E-05 1.90629E-07 1.32349E-23
 -1        81-1.55669E-05 6.44222E-08-6.61744E-24
 -1        82-1.47704E-05-1.16247E-07 1.32349E-23
 -1        83-1.39518E-05-3.26796E-07 0.00000E+00
 -1        84-1.31299E-05-5.42694E-07-1.32349E-23
 -1        85-1.23244E-05-7.40044E-07 0.00000E+00
 -1        86-1.15548E-05-8.94991E-07-1.32349E-23
 -1        87-1.26286E-05 6.08805E-22 1.32349E-23
 -1        88-1.22292E-05 7.80858E-22 0.00000E+00
 -1        89-1.18288E-05 1.37643E-21-1.32349E-23
 -1        90-1.14281E-05 1.54848E-21 0.00000E+00
 -1        91-1.10276E-05 9.19825E-22 0.00000E+00
 -1        92-1.06281E-05 3.50725E-22-6.61744E-24
 -1        93-1.02305E-05-1.78671E-22 6.61744E-24
 -1        94-1.28696E-05-1.48977E-07 8.27181E-25
 -1        95-1.25900E-05-3.17749E-07-3.30872E-24
 -1        96-1.22158E-05-4.89870E-07 3.30872E-24
 -1        97-1.17795E-05-6.62749E-07-1.65436E-24
 -1        98-1.13136E-05-8.33813E-07-8.27181E-25
 -1        99-1.27576E-05 6.83019E-08 0.00000E+00
 -1       100-1.24355E-05 5.84936E-08 0.00000E+00
 -1       101-1.20673E-05-1.31395E-08-6.61744E-24
 -1       102-1.16652E-05-1.30389E-07-3.30872E-24
 -1       103-1.12412E-05-2.77044E-07 0.00000E+00
 -1       104-1.08074E-05-4.36936E-07 3.30872E-24
 -1       105-1.03762E-05-5.93926E-07 6.61744E-24
 -1       106-9.95995E-06-7.32133E-07 3.30872E-24
 -1       107-9.57128E-06-8.35709E-07 0.00000E+00
 -1       108-9.57638E-06-1.58819E-22 0.00000E+00
 -1       109-9.30487E-06-8.93355E-23-3.30872E-24
 -1       110-9.03253E-06 1.38966E-22 6.61744E-24
 -1       111-8.75982E-06 1.68745E-22 0.00000E+00
 -1       112-8.48718E-06 1.09188E-22 0.00000E+00
 -1       113-8.21523E-06 1.45584E-22-3.30872E-24
 -1       114-7.94457E-06 1.52201E-22 6.61744E-24
 -1       115-9.81519E-06-1.37740E-07 0.00000E+00
 -1       116-9.75226E-06-2.89406E-07 0.00000E+00
 -1       117-9.65805E-06-4.43359E-07 3.30872E-24
 -1       118-9.53639E-06-5.97647E-07 1.65436E-24
 -1       119-9.39115E-06-7.50329E-07-8.27181E-25
 -1       120-9.68564E-06 3.39877E-08 3.30872E-24
 -1       121-9.49218E-06 1.85896E-08 1.65436E-24
 -1       122-9.26996E-06-3.54708E-08 0.00000E+00
 -1       123-9.02688E-06-1.17544E-07 0.00000E+00
 -1       124-8.77087E-06-2.16981E-07-3.30872E-24
 -1       125-8.50990E-06-3.23153E-07 0.00000E+00
 -1       126-8.25200E-06-4.25441E-07 3.30872E-24
 -1       127-8.00529E-06-5.13355E-07 1.65436E-24
 -1       128-7.77792E-06-5.76419E-07-3.30872E-24
 -1       129-7.48966E-06 4.40060E-22 6.61744E-24
 -1       130-7.29499E-06 8.47033E-22-3.30872E-24
 -1       131-7.09968E-06 4.23516E-22 0.00000E+00
 -1       132-6.90408E-06-2.97785E-23 0.00000E+00
 -1       133-6.70852E-06-1.65436E-23 0.00000E+00
 -1       134-6.51341E-06-1.65436E-23-3.30872E-24
 -1       135-6.31919E-06 7.27919E-23 3.30872E-24
 -1       136-7.69116E-06-9.35789E-08-5.16988E-26
 -1       137-7.69671E-06-1.96700E-07-8.27181E-25
 -1       138-7.69288E-06-3.01374E-07 0.00000E+00
 -1       139-7.67508E-06-4.06231E-07 0.00000E+00
 -1       140-7.63877E-06-5.09909E-07 0.00000E+00
 -1       141-7.57740E-06 2.39045E-08-3.30872E-24
 -1       142-7.45174E-06 1.67212E-08 1.65436E-24
 -1       143-7.30825E-06-1.44968E-08-3.30872E-24
 -1       144-7.15204E-06-6.28545E-08 0.00000E+00
 -1       145-6.98821E-06-1.21456E-07-3.30872E-24
 -1       146-6.82191E-06-1.83423E-07 0.00000E+00
 -1       147-6.65830E-06-2.41885E-07 0.00000E+00
 -1       148-6.50262E-06-2.90036E-07 0.00000E+00
 -1       149-6.36010E-06-3.21076E-07 0.00000E+00
 -1       150-5.98694E-06 3.47416E-23 3.30872E-24
 -1       151-5.84168E-06-6.78288E-23 0.00000E+00
 -1       152-5.69595E-06-1.57164E-22 0.00000E+00
 -1       153-5.55001E-06-1.00916E-22-1.65436E-24
 -1       154-5.40410E-06-7.44463E-23 0.00000E+00
 -1       155-5.25851E-06 1.60473E-22 0.00000E+00
 -1       156-5.11354E-06 4.79765E-23 0.00000E+00
 -1       157-6.15309E-06-4.99813E-08 0.00000E+00
 -1       158-6.18369E-06-1.06269E-07 2.06795E-25
 -1       159-6.21444E-06-1.63580E-07 0.00000E+00
 -1       160-6.23823E-06-2.21003E-07 0.00000E+00
 -1       161-6.24793E-06-2.77631E-07 0.00000E+00
 -1       162-6.05845E-06 1.90173E-08-1.65436E-24
 -1       163-5.97340E-06 1.80688E-08-8.27181E-25
 -1       164-5.87716E-06 1.89538E-09-1.65436E-24
 -1       165-5.77298E-06-2.50282E-08 0.00000E+00
 -1       166-5.66415E-06-5.82254E-08 0.00000E+00
 -1       167-5.55398E-06-9.32442E-08 0.00000E+00
 -1       168-5.44582E-06-1.25637E-07 0.00000E+00
 -1       169-5.34301E-06-1.50984E-07-8.27181E-25
 -1       170-5.24891E-06-1.64871E-07-1.65436E-24
 -1       171-4.86557E-06-1.12497E-22 3.30872E-24
 -1       172-4.75755E-06-4.61567E-22 1.65436E-24
 -1       173-4.64924E-06-6.65053E-22-3.30872E-24
 -1       174-4.54078E-06-4.16899E-22 1.65436E-24
 -1       175-4.43235E-06-3.42453E-22 3.30872E-24
 -1       176-4.32417E-06-2.87859E-22-1.65436E-24
 -1       177-4.21645E-06-8.93355E-23 3.30872E-24
 -1       178-5.00046E-06-2.39327E-08 8.27181E-25
 -1       179-5.04128E-06-5.21523E-08-6.46235E-27
 -1       180-5.08639E-06-8.10645E-08 0.00000E+00
 -1       181-5.12774E-06-1.10044E-07 0.00000E+00
 -1       182-5.15727E-06-1.38466E-07 2.06795E-25
 -1       183-4.91422E-06 1.42293E-08-1.65436E-24
 -1       184-4.84500E-06 1.18827E-08 8.27181E-25
 -1       185-4.76654E-06-3.02610E-09 0.00000E+00
 -1       186-4.68161E-06-2.66802E-08 0.00000E+00
 -1       187-4.59302E-06-5.52625E-08-1.65436E-24
 -1       188-4.50362E-06-8.49730E-08-8.27181E-25
 -1       189-4.41623E-06-1.12013E-07-1.65436E-24
 -1       190-4.33371E-06-1.32603E-07 8.27181E-25
 -1       191-4.25891E-06-1.42967E-07 0.00000E+00
 -1       192-4.05423E-06 7.44463E-24 0.00000E+00
 -1       193-3.99705E-06-3.72231E-23 8.27181E-25
 -1       194-3.93984E-06-1.24077E-23 1.65436E-24
 -1       195-3.88262E-06-6.70016E-23 0.00000E+00
 -1       196-3.82543E-06 1.81980E-23 1.65436E-24
 -1       197-3.76836E-06-1.98523E-23-8.27181E-25
 -1       198-3.71147E-06-4.88037E-23 0.00000E+00
 -1       199-4.12455E-06-2.08239E-08 0.00000E+00
 -1       200-4.14322E-06-4.49714E-08 0.00000E+00
 -1       201-4.16341E-06-6.96440E-08 2.06795E-25
 -1       202-4.18128E-06-9.43306E-08 0.00000E+00
 -1       203-4.19296E-06-1.18521E-07-4.13590E-25
 -1       204-4.04971E-06 2.82692E-08 0.00000E+00
 -1       205-3.97988E-06 4.64983E-08 0.00000E+00
 -1       206-3.90375E-06 5.65310E-08-1.65436E-24
 -1       207-3.82304E-06 6.05692E-08 8.27181E-25
 -1       208-3.73946E-06 6.08172E-08 0.00000E+00
 -1       209-3.65470E-06 5.95059E-08-8.27181E-25
 -1       210-3.57047E-06 5.88661E-08 0.00000E+00
 -1       211-3.48847E-06 6.11087E-08 0.00000E+00
 -1       212-3.41041E-06 6.84430E-08 0.00000E+00
 -1       213-3.65058E-06 3.86707E-23 0.00000E+00
 -1       214-3.64690E-06 8.45792E-23-2.06795E-25
 -1       215-3.64346E-06 9.65733E-23 2.06795E-25
 -1       216-3.64013E-06 1.21699E-22 0.00000E+00
 -1       217-3.63680E-06 6.80098E-23 0.00000E+00
 -1       218-3.63331E-06 3.87224E-23 0.00000E+00
 -1       219-3.62952E-06 6.05910E-23 0.00000E+00
 -1       220-3.62401E-06 1.41413E-08-8.27181E-25
 -1       221-3.57340E-06 2.74023E-08-4.13590E-25
 -1       222-3.51158E-06 4.05580E-08 4.13590E-25
 -1       223-3.44651E-06 5.38176E-08 0.00000E+00
 -1       224-3.38613E-06 6.73944E-08 8.27181E-25
 -1       225-3.62066E-06 5.35247E-08 0.00000E+00
 -1       226-3.59227E-06 1.17821E-07 0.00000E+00
 -1       227-3.56792E-06 1.87896E-07 0.00000E+00
 -1       228-3.54432E-06 2.59210E-07-8.27181E-25
 -1       229-3.51818E-06 3.27218E-07 0.00000E+00
 -1       230-3.48615E-06 3.87421E-07 0.00000E+00
 -1       231-3.44485E-06 4.35319E-07-1.65436E-24
 -1       232-3.39092E-06 4.66448E-07 0.00000E+00
 -1       233-3.32096E-06 4.76350E-07-1.65436E-24
 -1       241-3.60446E-06 7.52265E-08 0.00000E+00
 -1       242-3.56250E-06 1.52074E-07 8.27181E-25
 -1       243-3.50115E-06 2.29225E-07 1.65436E-24
 -1       244-3.42347E-06 3.06528E-07 8.27181E-25
 -1       245-3.33254E-06 3.83841E-07 1.65436E-24
 -1       323-1.08936E-05 4.05763E-07 0.00000E+00
 -1       324-1.08882E-05 1.61586E-08 0.00000E+00
 -1       325-1.08833E-05-2.40717E-07 0.00000E+00
 -1       326-1.08787E-05-4.06497E-07 0.00000E+00
 -1       327-1.08740E-05-5.22847E-07 0.00000E+00
 -1       328-1.08687E-05-6.31484E-07 0.00000E+00
 -1       329-1.08624E-05-7.74110E-07-8.27181E-25
 -1       330-1.01046E-05 9.70551E-07 0.00000E+00
 -1       331-9.32649E-06 9.68661E-07 0.00000E+00
 -1       332-8.58351E-06 9.66027E-07 0.00000E+00
 -1       333-7.89109E-06 9.62946E-07 0.00000E+00
 -1       334-7.26459E-06 9.59695E-07 0.00000E+00
 -1       335-1.03541E-05 5.28674E-07 0.00000E+00
 -1       336-9.85928E-06 1.67265E-07-3.30872E-24
 -1       337-9.41318E-06-1.27777E-07 0.00000E+00
 -1       338-9.00820E-06-3.67206E-07 3.30872E-24
 -1       339-8.63672E-06-5.61773E-07 6.61744E-24
 -1       340-8.29093E-06-7.22139E-07 3.30872E-24
 -1       341-7.96302E-06-8.58972E-07 0.00000E+00
 -1       342-7.64546E-06-9.83133E-07-1.65436E-24
 -1       343-7.33076E-06-1.10548E-06-3.30872E-24
 -1       344-1.06498E-05-1.19580E-06-6.61744E-24
 -1       345-1.04460E-05-1.26652E-06 3.30872E-24
 -1       346-1.02416E-05-1.23906E-06 0.00000E+00
 -1       347-1.00370E-05-1.14951E-06 3.30872E-24
 -1       348-9.83238E-06-1.03398E-06 6.61744E-24
 -1       349-9.62825E-06-9.28604E-07 1.65436E-24
 -1       350-9.42497E-06-8.69484E-07 3.30872E-24
 -1       351-1.02844E-05-1.02611E-06-1.65436E-24
 -1       352-9.61969E-06-1.06825E-06 0.00000E+00
 -1       353-8.90809E-06-1.11178E-06 0.00000E+00
 -1       354-8.20200E-06-1.15579E-06 0.00000E+00
 -1       355-7.55383E-06-1.19939E-06 0.00000E+00
 -1       356-1.04184E-05-1.12078E-06-6.61744E-24
 -1       357-9.99144E-06-1.23254E-06 0.00000E+00
 -1       358-9.57368E-06-1.33005E-06-6.61744E-24
 -1       359-9.16549E-06-1.41370E-06-3.30872E-24
 -1       360-8.76724E-06-1.48384E-06 6.61744E-24
 -1       361-8.37905E-06-1.54067E-06 0.00000E+00
 -1       362-8.00107E-06-1.58439E-06 6.61744E-24
 -1       363-7.63385E-06-1.61550E-06-3.30872E-24
 -1       364-7.27796E-06-1.63453E-06-6.61744E-24
 -1       365-9.02431E-06-9.63173E-07 6.61744E-24
 -1       366-8.81759E-06-9.63002E-07-6.61744E-24
 -1       367-8.61000E-06-9.11614E-07 6.61744E-24
 -1       368-8.40200E-06-8.29567E-07-3.30872E-24
 -1       369-8.19403E-06-7.37422E-07 0.00000E+00
 -1       370-7.98660E-06-6.55752E-07 0.00000E+00
 -1       371-7.78023E-06-6.05121E-07 0.00000E+00
 -1       372-8.92221E-06-1.01002E-06 1.65436E-24
 -1       373-8.53936E-06-1.13794E-06 0.00000E+00
 -1       374-8.11343E-06-1.26750E-06-3.30872E-24
 -1       375-7.68070E-06-1.39727E-06-8.27181E-25
 -1       376-7.27748E-06-1.52582E-06-6.20385E-25
 -1       377-8.94436E-06-9.19336E-07 3.30872E-24
 -1       378-8.64628E-06-9.59639E-07 0.00000E+00
 -1       379-8.33895E-06-1.01069E-06 6.61744E-24
 -1       380-8.02635E-06-1.06784E-06-3.30872E-24
 -1       381-7.71250E-06-1.12646E-06 0.00000E+00
 -1       382-7.40120E-06-1.18172E-06-3.30872E-24
 -1       383-7.09627E-06-1.22884E-06 0.00000E+00
 -1       384-6.80180E-06-1.26322E-06 0.00000E+00
 -1       385-6.52188E-06-1.28031E-06 0.00000E+00
 -1       386-7.41498E-06-6.33007E-07-3.30872E-24
 -1       387-7.24643E-06-6.17829E-07-3.30872E-24
 -1       388-7.07715E-06-5.72373E-07 0.00000E+00
 -1       389-6.90751E-06-5.09157E-07 0.00000E+00
 -1       390-6.73790E-06-4.40707E-07 0.00000E+00
 -1       391-6.56872E-06-3.79550E-07 1.65436E-24
 -1       392-6.40038E-06-3.38210E-07-3.30872E-24
 -1       393-7.41199E-06-7.11587E-07 0.00000E+00
 -1       394-7.19543E-06-8.25895E-07-8.27181E-25
 -1       395-6.95094E-06-9.41549E-07-3.30872E-24
 -1       396-6.70001E-06-1.05728E-06 8.27181E-25
 -1       397-6.46411E-06-1.17182E-06-4.13590E-25
 -1       398-7.38580E-06-5.96201E-07 3.30872E-24
 -1       399-7.17655E-06-6.01025E-07 0.00000E+00
 -1       400-6.95738E-06-6.17856E-07-3.30872E-24
 -1       401-6.73177E-06-6.42597E-07 3.30872E-24
 -1       402-6.50318E-06-6.71141E-07 6.61744E-24
 -1       403-6.27492E-06-6.99261E-07-3.30872E-24
 -1       404-6.05032E-06-7.22730E-07 6.61744E-24
 -1       405-5.83286E-06-7.37467E-07 0.00000E+00
 -1       406-5.62606E-06-7.39401E-07-3.30872E-24
 -1       407-6.10544E-06-3.40339E-07 0.00000E+00
 -1       408-5.97123E-06-3.29057E-07-1.65436E-24
 -1       409-5.83647E-06-3.01761E-07 3.30872E-24
 -1       410-5.70144E-06-2.65256E-07 1.65436E-24
 -1       411-5.56642E-06-2.26352E-07 0.00000E+00
 -1       412-5.43173E-06-1.91859E-07-1.65436E-24
 -1       413-5.29768E-06-1.68587E-07 0.00000E+00
 -1       414-6.14079E-06-3.91033E-07 0.00000E+00
 -1       415-6.01202E-06-4.58915E-07 0.00000E+00
 -1       416-5.86359E-06-5.27710E-07 1.65436E-24
 -1       417-5.70908E-06-5.96510E-07-4.13590E-25
 -1       418-5.56205E-06-6.64405E-07 0.00000E+00
 -1       419-6.11120E-06-3.06229E-07 0.00000E+00
 -1       420-5.97548E-06-2.93511E-07 0.00000E+00
 -1       421-5.83262E-06-2.89584E-07-3.30872E-24
 -1       422-5.68459E-06-2.92163E-07-1.65436E-24
 -1       423-5.53332E-06-2.98957E-07-3.30872E-24
 -1       424-5.38067E-06-3.07603E-07 0.00000E+00
 -1       425-5.22851E-06-3.15738E-07-3.30872E-24
 -1       426-5.07880E-06-3.21089E-07 1.65436E-24
 -1       427-4.93351E-06-3.21387E-07 0.00000E+00
 -1       428-5.04795E-06-1.73510E-07 3.30872E-24
 -1       429-4.92593E-06-1.74617E-07 1.65436E-24
 -1       430-4.80338E-06-1.69188E-07 0.00000E+00
 -1       431-4.68058E-06-1.59953E-07 0.00000E+00
 -1       432-4.55778E-06-1.49642E-07 3.30872E-24
 -1       433-4.43528E-06-1.40988E-07 0.00000E+00
 -1       434-4.31339E-06-1.36719E-07 0.00000E+00
 -1       435-5.12840E-06-1.85997E-07 2.06795E-25
 -1       436-5.07606E-06-2.12400E-07 0.00000E+00
 -1       437-5.01330E-06-2.39371E-07 0.00000E+00
 -1       438-4.94349E-06-2.66346E-07 0.00000E+00
 -1       439-4.86999E-06-2.92760E-07 0.00000E+00
 -1       440-5.08677E-06-1.56831E-07 1.65436E-24
 -1       441-4.99533E-06-1.64423E-07 0.00000E+00
 -1       442-4.89554E-06-1.82986E-07 0.00000E+00
 -1       443-4.78996E-06-2.09187E-07 8.27181E-25
 -1       444-4.68113E-06-2.39694E-07 0.00000E+00
 -1       445-4.57161E-06-2.71151E-07-8.27181E-25
 -1       446-4.46394E-06-3.00205E-07-1.65436E-24
 -1       447-4.36072E-06-3.23550E-07 0.00000E+00
 -1       448-4.26455E-06-3.37886E-07 0.00000E+00
 -1       449-4.08994E-06-1.29286E-07 3.30872E-24
 -1       450-3.98260E-06-1.02663E-07 0.00000E+00
 -1       451-3.87479E-06-6.52582E-08 3.30872E-24
 -1       452-3.76673E-06-2.28085E-08-1.65436E-24
 -1       453-3.65867E-06 1.89457E-08-3.30872E-24
 -1       454-3.55081E-06 5.42659E-08 0.00000E+00
 -1       455-3.44338E-06 7.74153E-08-1.65436E-24
 -1       456-4.19398E-06-1.70275E-07-2.06795E-25
 -1       457-4.19770E-06-2.04691E-07 2.06795E-25
 -1       458-4.20196E-06-2.39692E-07-8.27181E-25
 -1       459-4.20282E-06-2.74734E-07 2.06795E-25
 -1       460-4.19634E-06-3.09275E-07 0.00000E+00
 -1       461-4.11117E-06-1.36301E-07 0.00000E+00
 -1       462-4.01239E-06-1.51909E-07 8.27181E-25
 -1       463-3.90349E-06-1.80721E-07 0.00000E+00
 -1       464-3.78919E-06-2.16580E-07-8.27181E-25
 -1       465-3.67419E-06-2.53323E-07-1.65436E-24
 -1       466-3.56317E-06-2.84748E-07 0.00000E+00
 -1       467-3.46083E-06-3.04653E-07 3.30872E-24
 -1       468-3.37188E-06-3.06882E-07 1.65436E-24
 -1       469-3.30100E-06-2.85285E-07 1.65436E-24
 -1       470-3.32352E-06 1.16721E-07 0.00000E+00
 -1       471-3.31060E-06 1.81567E-07 4.13590E-25
 -1       472-3.29801E-06 2.63926E-07 0.00000E+00
 -1       473-3.28559E-06 3.50145E-07 0.00000E+00
 -1       474-3.27313E-06 4.26563E-07 6.20385E-25
 -1       475-3.26042E-06 4.79532E-07 2.06795E-25
 -1       476-3.24724E-06 4.95408E-07-8.27181E-25
 -1       477-3.30349E-06 3.34333E-08 0.00000E+00
 -1       478-3.26945E-06-2.06707E-08 0.00000E+00
 -1       479-3.24178E-06-7.55279E-08 0.00000E+00
 -1       480-3.22614E-06-1.30415E-07 0.00000E+00
 -1       481-3.22816E-06-1.84608E-07 0.00000E+00
 -1       482-3.15994E-06 1.36034E-07 0.00000E+00
 -1       483-2.96648E-06 1.78450E-07 0.00000E+00
 -1       484-2.76921E-06 2.17572E-07-6.61744E-24
 -1       485-2.57628E-06 2.63520E-07 0.00000E+00
 -1       486-2.39582E-06 3.26428E-07-6.61744E-24
 -1       487-2.23571E-06 4.16637E-07 3.30872E-24
 -1       488-2.10383E-06 5.44502E-07 0.00000E+00
 -1       489-2.00803E-06 7.20337E-07 0.00000E+00
 -1       490-1.95616E-06 9.54455E-07 0.00000E+00
 -1       498-2.94337E-06 5.90266E-07 3.30872E-24
 -1       499-2.60641E-06 7.22360E-07 1.65436E-24
 -1       500-2.27974E-06 8.55028E-07 0.00000E+00
 -1       501-2.02298E-06 9.88150E-07 0.00000E+00
 -1       502-1.89574E-06 1.12161E-06-6.61744E-24
 -1       580-6.75533E-06 5.70371E-07-2.06795E-25
 -1       581-6.79308E-06 2.48601E-07-1.03398E-25
 -1       582-6.83103E-06-2.50014E-08 4.13590E-25
 -1       583-6.86903E-06-2.66689E-07 4.13590E-25
 -1       584-6.90696E-06-4.92727E-07 8.27181E-25
 -1       585-6.94453E-06-7.19407E-07 0.00000E+00
 -1       586-6.98149E-06-9.63003E-07 0.00000E+00
 -1       587-6.23161E-06 8.99642E-07-1.65436E-24
 -1       588-5.73317E-06 8.40986E-07 8.27181E-25
 -1       589-5.23013E-06 7.81932E-07 0.00000E+00
 -1       590-4.72925E-06 7.22704E-07 0.00000E+00
 -1       591-4.23727E-06 6.63521E-07-1.65436E-24
 -1       592-6.41018E-06 6.39664E-07-1.65436E-24
 -1       593-6.11737E-06 3.49485E-07-8.27181E-25
 -1       594-5.84049E-06 8.15519E-08 0.00000E+00
 -1       595-5.57774E-06-1.66967E-07 0.00000E+00
 -1       596-5.32732E-06-3.98902E-07 0.00000E+00
 -1       597-5.08726E-06-6.16992E-07 8.27181E-25
 -1       598-4.85563E-06-8.23986E-07-1.65436E-24
 -1       599-4.63061E-06-1.02272E-06 0.00000E+00
 -1       600-4.41037E-06-1.21604E-06 0.00000E+00
 -1       601-7.00485E-06-1.44807E-06-1.65436E-24
 -1       602-6.99580E-06-1.55524E-06 0.00000E+00
 -1       603-6.98698E-06-1.58872E-06-1.65436E-24
 -1       604-6.97824E-06-1.57697E-06 8.27181E-25
 -1       605-6.96947E-06-1.54843E-06 4.13590E-25
 -1       606-6.96048E-06-1.53158E-06-3.61892E-25
 -1       607-6.95108E-06-1.55488E-06-3.10193E-25
 -1       608-6.57264E-06-1.26487E-06 0.00000E+00
 -1       609-6.08118E-06-1.29315E-06 0.00000E+00
 -1       610-5.56904E-06-1.32198E-06 0.00000E+00
 -1       611-5.06489E-06-1.35103E-06-8.07794E-28
 -1       612-4.59744E-06-1.38001E-06-4.13590E-25
 -1       613-6.71774E-06-1.40377E-06-3.30872E-24
 -1       614-6.43651E-06-1.53858E-06 0.00000E+00
 -1       615-6.17208E-06-1.64946E-06 0.00000E+00
 -1       616-5.92224E-06-1.74005E-06 0.00000E+00
 -1       617-5.68475E-06-1.81395E-06 3.30872E-24
 -1       618-5.45717E-06-1.87467E-06 0.00000E+00
 -1       619-5.23707E-06-1.92571E-06 3.30872E-24
 -1       620-5.02228E-06-1.97073E-06-1.65436E-24
 -1       621-4.81062E-06-2.01342E-06 0.00000E+00
 -1       622-6.85617E-06-1.73047E-06 0.00000E+00
 -1       623-6.77168E-06-1.72405E-06-4.96308E-24
 -1       624-6.68698E-06-1.65332E-06-3.30872E-24
 -1       625-6.60217E-06-1.54523E-06 0.00000E+00
 -1       626-6.51735E-06-1.42679E-06-3.30872E-24
 -1       627-6.43261E-06-1.32497E-06 8.27181E-25
 -1       628-6.34804E-06-1.26677E-06 0.00000E+00
 -1       629-6.59839E-06-1.71050E-06 0.00000E+00
 -1       630-6.18920E-06-1.78041E-06 0.00000E+00
 -1       631-5.74826E-06-1.85128E-06-1.65436E-24
 -1       632-5.31247E-06-1.92239E-06 8.27181E-25
 -1       633-4.91874E-06-1.99299E-06-7.23783E-25
 -1       634-6.68043E-06-1.70335E-06 0.00000E+00
 -1       635-6.42252E-06-1.75001E-06 0.00000E+00
 -1       636-6.16951E-06-1.78846E-06 0.00000E+00
 -1       637-5.92200E-06-1.81862E-06 0.00000E+00
 -1       638-5.68059E-06-1.84041E-06-6.61744E-24
 -1       639-5.44564E-06-1.85361E-06-3.30872E-24
 -1       640-5.21756E-06-1.85798E-06 6.61744E-24
 -1       641-4.99697E-06-1.85349E-06 0.00000E+00
 -1       642-4.78456E-06-1.84012E-06 0.00000E+00
 -1       643-6.16242E-06-1.30476E-06 0.00000E+00
 -1       644-6.05863E-06-1.26053E-06 0.00000E+00
 -1       645-5.95451E-06-1.16720E-06 0.00000E+00
 -1       646-5.85022E-06-1.04657E-06 1.65436E-24
 -1       647-5.74593E-06-9.20429E-07 0.00000E+00
 -1       648-5.64180E-06-8.10587E-07 8.27181E-25
 -1       649-5.53798E-06-7.38838E-07 0.00000E+00
 -1       650-6.02613E-06-1.36370E-06 0.00000E+00
 -1       651-5.72964E-06-1.45556E-06 0.00000E+00
 -1       652-5.40589E-06-1.54854E-06 0.00000E+00
 -1       653-5.08628E-06-1.64166E-06-4.13590E-25
 -1       654-4.80223E-06-1.73394E-06 2.06795E-25
 -1       655-6.04580E-06-1.27915E-06 3.30872E-24
 -1       656-5.82024E-06-1.28029E-06 0.00000E+00
 -1       657-5.59268E-06-1.28246E-06 6.61744E-24
 -1       658-5.36505E-06-1.28379E-06 3.30872E-24
 -1       659-5.13928E-06-1.28240E-06 0.00000E+00
 -1       660-4.91709E-06-1.27624E-06 0.00000E+00
 -1       661-4.70019E-06-1.26328E-06 6.61744E-24
 -1       662-4.49054E-06-1.24165E-06-3.30872E-24
 -1       663-4.29006E-06-1.20949E-06 3.30872E-24
 -1       664-5.35642E-06-7.36131E-07 0.00000E+00
 -1       665-5.27626E-06-6.96950E-07 0.00000E+00
 -1       666-5.19598E-06-6.24439E-07-3.30872E-24
 -1       667-5.11564E-06-5.34423E-07 1.65436E-24
 -1       668-5.03532E-06-4.42734E-07 0.00000E+00
 -1       669-4.95510E-06-3.65206E-07 8.27181E-25
 -1       670-4.87509E-06-3.17666E-07 0.00000E+00
 -1       671-5.25372E-06-7.95518E-07 8.27181E-25
 -1       672-5.01863E-06-8.70615E-07 0.00000E+00
 -1       673-4.75818E-06-9.46682E-07 1.65436E-24
 -1       674-4.50032E-06-1.02278E-06 4.13590E-25
 -1       675-4.27304E-06-1.09798E-06 0.00000E+00
 -1       676-5.24814E-06-6.86196E-07 0.00000E+00
 -1       677-5.05448E-06-6.45210E-07 1.65436E-24
 -1       678-4.85843E-06-6.05797E-07 0.00000E+00
 -1       679-4.66052E-06-5.67946E-07 3.30872E-24
 -1       680-4.46126E-06-5.31632E-07 6.61744E-24
 -1       681-4.26097E-06-4.96676E-07 0.00000E+00
 -1       682-4.05996E-06-4.62894E-07-6.61744E-24
 -1       683-3.85872E-06-4.30241E-07 0.00000E+00
 -1       684-3.65774E-06-3.98678E-07 0.00000E+00
 -1       685-4.71962E-06-3.52846E-07 0.00000E+00
 -1       686-4.64214E-06-3.68519E-07 0.00000E+00
 -1       687-4.56449E-06-3.68427E-07-3.30872E-24
 -1       688-4.48677E-06-3.58544E-07 0.00000E+00
 -1       689-4.40907E-06-3.44846E-07-1.65436E-24
 -1       690-4.33153E-06-3.33312E-07-8.27181E-25
 -1       691-4.25429E-06-3.29919E-07 0.00000E+00
 -1       692-4.62972E-06-3.22926E-07-2.06795E-25
 -1       693-4.40605E-06-3.33117E-07 0.00000E+00
 -1       694-4.15099E-06-3.43725E-07-1.03398E-25
 -1       695-3.89085E-06-3.54229E-07-8.27181E-25
 -1       696-3.65195E-06-3.64101E-07 1.65436E-24
 -1       697-4.69114E-06-2.98942E-07 0.00000E+00
 -1       698-4.58837E-06-2.76356E-07 1.65436E-24
 -1       699-4.48645E-06-2.52081E-07 0.00000E+00
 -1       700-4.38293E-06-2.29637E-07 1.65436E-24
 -1       701-4.27534E-06-2.12541E-07 0.00000E+00
 -1       702-4.16118E-06-2.04271E-07 0.00000E+00
 -1       703-4.03793E-06-2.08307E-07-1.65436E-24
 -1       704-3.90322E-06-2.28225E-07-8.27181E-25
 -1       705-3.75471E-06-2.67608E-07-1.65436E-24
 -1       706-4.06596E-06-3.67072E-07-3.30872E-24
 -1       707-3.94993E-06-3.81210E-07 0.00000E+00
 -1       708-3.83328E-06-3.83411E-07 0.00000E+00
 -1       709-3.71632E-06-3.74212E-07-1.65436E-24
 -1       710-3.59936E-06-3.54150E-07 3.30872E-24
 -1       711-3.48265E-06-3.23774E-07 0.00000E+00
 -1       712-3.36649E-06-2.83631E-07 0.00000E+00
 -1       713-4.13740E-06-3.37454E-07-2.06795E-25
 -1       714-4.07523E-06-3.36128E-07-5.16988E-26
 -1       715-3.99080E-06-3.35111E-07-2.06795E-25
 -1       716-3.88290E-06-3.34197E-07 0.00000E+00
 -1       717-3.75035E-06-3.33186E-07-1.03398E-25
 -1       718-4.13624E-06-3.67304E-07 0.00000E+00
 -1       719-4.09169E-06-3.98724E-07 4.13590E-25
 -1       720-4.04648E-06-4.31383E-07-8.27181E-25
 -1       721-4.00272E-06-4.62312E-07 4.13590E-25
 -1       722-3.96256E-06-4.88542E-07 0.00000E+00
 -1       723-3.92820E-06-5.07149E-07 0.00000E+00
 -1       724-3.90183E-06-5.15217E-07 0.00000E+00
 -1       725-3.88575E-06-5.09907E-07 0.00000E+00
 -1       726-3.88225E-06-4.88389E-07 0.00000E+00
 -1       727-3.09677E-06-1.65320E-07 3.30872E-24
 -1       728-2.93520E-06-6.29512E-08 0.00000E+00
 -1       729-2.77267E-06 7.29869E-08-6.61744E-24
 -1       730-2.60958E-06 2.42514E-07 0.00000E+00
 -1       731-2.44631E-06 4.45643E-07 6.61744E-24
 -1       732-2.28296E-06 6.82361E-07 3.30872E-24
 -1       733-2.11958E-06 9.52657E-07 0.00000E+00
 -1       734-3.34122E-06-2.66335E-07 0.00000E+00
 -1       735-3.44890E-06-3.02119E-07 2.06795E-25
 -1       736-3.56729E-06-3.38606E-07 8.27181E-25
 -1       737-3.68715E-06-3.75457E-07 0.00000E+00
 -1       738-3.79927E-06-4.12342E-07 8.27181E-25
 -1       739-3.25715E-06-1.70603E-07-1.65436E-24
 -1       740-3.27601E-06-8.79360E-08-8.27181E-25
 -1       741-3.31196E-06 1.72948E-08 0.00000E+00
 -1       742-3.36735E-06 1.48330E-07-8.27181E-25
 -1       743-3.44458E-06 3.08399E-07 1.65436E-24
 -1       744-3.54604E-06 5.00699E-07-1.65436E-24
 -1       745-3.67414E-06 7.28425E-07 0.00000E+00
 -1       746-3.83133E-06 9.94692E-07 0.00000E+00
 -1       747-4.02008E-06 1.30262E-06 0.00000E+00
 -1       748-1.72909E-06 1.78113E-06-6.61744E-24
 -1       749-1.49891E-06 2.50512E-06 0.00000E+00
 -1       750-1.26830E-06 3.39191E-06 6.61744E-24
 -1       751-1.03757E-06 4.40381E-06 3.30872E-24
 -1       752-8.07033E-07 5.50311E-06 0.00000E+00
 -1       753-5.77185E-07 6.65205E-06 3.30872E-24
 -1       754-3.48525E-07 7.81285E-06 0.00000E+00
 -1       755-2.28339E-06 1.32790E-06 0.00000E+00
 -1       756-2.63053E-06 1.39522E-06 1.65436E-24
 -1       757-2.99897E-06 1.46163E-06 3.30872E-24
 -1       758-3.38986E-06 1.52727E-06 0.00000E+00
 -1       759-3.80431E-06 1.59224E-06-3.30872E-24
 -1       760-2.05146E-06 1.70130E-06 6.61744E-24
 -1       761-2.21134E-06 2.23480E-06 0.00000E+00
 -1       762-2.42907E-06 2.84579E-06 0.00000E+00
 -1       763-2.69659E-06 3.52325E-06 0.00000E+00
 -1       764-3.00580E-06 4.25620E-06 6.61744E-24
 -1       765-3.34859E-06 5.03362E-06 0.00000E+00
 -1       766-3.71686E-06 5.84446E-06 0.00000E+00
 -1       767-4.10291E-06 6.67742E-06-3.30872E-24
 -1       768-4.49903E-06 7.52118E-06 3.30872E-24
 -1       769-1.96788E-08 1.00197E-05 3.30872E-24
 -1       770 8.75118E-08 1.11370E-05 0.00000E+00
 -1       771 1.94797E-07 1.22891E-05 3.30872E-24
 -1       772 3.02079E-07 1.34648E-05 0.00000E+00
 -1       773 4.09247E-07 1.46526E-05 0.00000E+00
 -1       774 5.16038E-07 1.58414E-05 0.00000E+00
 -1       775 6.22177E-07 1.70199E-05 0.00000E+00
 -1       776-1.02699E-06 8.85725E-06 1.65436E-24
 -1       777-1.84938E-06 8.75820E-06 0.00000E+00
 -1       778-2.62041E-06 8.65776E-06 3.30872E-24
 -1       779-3.36781E-06 8.55693E-06-8.27181E-25
 -1       780-4.11932E-06 8.45667E-06 8.27181E-25
 -1       781-6.36221E-07 9.81830E-06 3.30872E-24
 -1       782-1.13902E-06 1.06807E-05-1.65436E-24
 -1       783-1.63734E-06 1.15375E-05 3.30872E-24
 -1       784-2.13341E-06 1.23915E-05-1.65436E-24
 -1       785-2.62944E-06 1.32455E-05 0.00000E+00
 -1       786-3.12763E-06 1.41021E-05 0.00000E+00
 -1       787-3.63019E-06 1.49643E-05 0.00000E+00
 -1       788-4.13959E-06 1.58346E-05 0.00000E+00
 -1       789-4.65829E-06 1.67156E-05 0.00000E+00
 -1       790 7.60624E-07 1.93315E-05-1.65436E-24
 -1       791 7.96738E-07 2.05161E-05 8.27181E-25
 -1       792 8.32885E-07 2.17217E-05-1.65436E-24
 -1       793 8.69025E-07 2.29394E-05 4.13590E-25
 -1       794 9.05113E-07 2.41603E-05 0.00000E+00
 -1       795 9.41027E-07 2.53753E-05-4.13590E-25
 -1       796 9.76640E-07 2.65755E-05 0.00000E+00
 -1       797-3.17120E-07 1.80862E-05 0.00000E+00
 -1       798-1.31310E-06 1.79903E-05 0.00000E+00
 -1       799-2.28068E-06 1.78934E-05 0.00000E+00
 -1       800-3.23775E-06 1.77964E-05 0.00000E+00
 -1       801-4.20222E-06 1.76999E-05 0.00000E+00
 -1       802 1.09888E-07 1.91002E-05 0.00000E+00
 -1       803-5.00039E-07 2.00194E-05 0.00000E+00
 -1       804-1.10683E-06 2.09350E-05 0.00000E+00
 -1       805-1.71148E-06 2.18481E-05 8.27181E-25
 -1       806-2.31499E-06 2.27596E-05 1.65436E-24
 -1       807-2.91829E-06 2.36709E-05 8.27181E-25
 -1       808-3.52234E-06 2.45829E-05 0.00000E+00
 -1       809-4.12821E-06 2.54968E-05-8.27181E-25
 -1       810-4.73700E-06 2.64136E-05 0.00000E+00
 -1       811 1.01476E-06 2.89103E-05 2.06795E-25
 -1       812 1.01916E-06 3.00806E-05 0.00000E+00
 -1       813 1.02360E-06 3.12583E-05 0.00000E+00
 -1       814 1.02804E-06 3.24389E-05-5.16988E-26
 -1       815 1.03243E-06 3.36178E-05 0.00000E+00
 -1       816 1.03669E-06 3.47904E-05 0.00000E+00
 -1       817 1.04070E-06 3.59523E-05-4.13590E-25
 -1       818-8.15561E-08 2.76843E-05 0.00000E+00
 -1       819-1.14522E-06 2.76137E-05 0.00000E+00
 -1       820-2.19213E-06 2.75426E-05 1.65436E-24
 -1       821-3.23423E-06 2.74715E-05-8.27181E-25
 -1       822-4.28346E-06 2.74008E-05 8.27181E-25
 -1       823 3.47771E-07 2.86716E-05-2.06795E-25
 -1       824-3.09511E-07 2.95856E-05-2.06795E-25
 -1       825-9.62438E-07 3.04942E-05 4.13590E-25
 -1       826-1.61161E-06 3.13979E-05-2.06795E-25
 -1       827-2.25762E-06 3.22975E-05 4.13590E-25
 -1       828-2.90103E-06 3.31936E-05 0.00000E+00
 -1       829-3.54241E-06 3.40869E-05-4.13590E-25
 -1       830-4.18241E-06 3.49780E-05 0.00000E+00
 -1       831-4.82168E-06 3.58676E-05 5.16988E-26
 -1       832-6.15920E-08 3.70424E-05-1.65436E-24
 -1       833-1.15168E-06 3.69847E-05 0.00000E+00
 -1       834-2.23179E-06 3.69268E-05 0.00000E+00
 -1       835-3.30691E-06 3.68689E-05 0.00000E+00
 -1       836-4.38199E-06 3.68113E-05 0.00000E+00
 -1       837-3.81513E-06 2.30101E-07 1.65436E-24
 -1       838-3.86986E-06-7.93172E-08-8.27181E-25
 -1       839-3.92465E-06-3.38127E-07 8.27181E-25
 -1       840-3.97944E-06-5.61609E-07-4.13590E-25
 -1       841-4.03417E-06-7.65055E-07 1.65436E-24
 -1       842-4.08867E-06-9.63787E-07-8.27181E-25
 -1       843-4.14279E-06-1.17311E-06-1.65436E-24
 -1       844-3.18743E-06 5.07501E-07 0.00000E+00
 -1       845-2.54937E-06 4.07484E-07 0.00000E+00
 -1       846-1.87887E-06 3.06881E-07-3.30872E-24
 -1       847-1.20871E-06 2.05730E-07 0.00000E+00
 -1       848-5.71670E-07 1.04050E-07 3.30872E-24
 -1       849-3.48100E-06 2.86559E-07 0.00000E+00
 -1       850-3.21963E-06-1.20596E-09 0.00000E+00
 -1       851-2.97713E-06-2.62674E-07 1.65436E-24
 -1       852-2.75165E-06-5.00799E-07 0.00000E+00
 -1       853-2.54135E-06-7.18528E-07 0.00000E+00
 -1       854-2.34424E-06-9.18721E-07 8.27181E-25
 -1       855-2.15835E-06-1.10425E-06-8.27181E-25
 -1       856-1.98192E-06-1.27816E-06 0.00000E+00
 -1       857-1.81322E-06-1.44350E-06-4.13590E-25
 -1       858-4.24453E-06-1.60842E-06-5.16988E-25
 -1       859-4.29609E-06-1.73634E-06 7.23783E-25
 -1       860-4.34798E-06-1.81076E-06-8.27181E-25
 -1       861-4.40002E-06-1.85110E-06 4.13590E-25
 -1       862-4.45203E-06-1.87679E-06-1.65436E-24
 -1       863-4.50377E-06-1.90727E-06 8.27181E-25
 -1       864-4.55497E-06-1.96198E-06 0.00000E+00
 -1       865-3.79629E-06-1.43913E-06-1.65436E-24
 -1       866-3.34807E-06-1.47129E-06 0.00000E+00
 -1       867-2.87979E-06-1.50375E-06-8.27181E-25
 -1       868-2.42141E-06-1.53661E-06-4.13590E-25
 -1       869-2.00291E-06-1.56997E-06 0.00000E+00
 -1       870-3.99645E-06-1.58339E-06-1.65436E-24
 -1       871-3.81747E-06-1.72793E-06 0.00000E+00
 -1       872-3.65712E-06-1.84672E-06-1.65436E-24
 -1       873-3.51278E-06-1.94364E-06 0.00000E+00
 -1       874-3.38183E-06-2.02261E-06 0.00000E+00
 -1       875-3.26151E-06-2.08745E-06 8.27181E-25
 -1       876-3.14910E-06-2.14201E-06-1.65436E-24
 -1       877-3.04207E-06-2.19027E-06 0.00000E+00
 -1       878-2.93789E-06-2.23624E-06 2.06795E-25
 -1       879-4.60086E-06-2.13795E-06-1.65436E-24
 -1       880-4.59884E-06-2.14283E-06 0.00000E+00
 -1       881-4.59689E-06-2.09545E-06 8.27181E-25
 -1       882-4.59497E-06-2.01712E-06 0.00000E+00
 -1       883-4.59301E-06-1.92918E-06 1.80946E-25
 -1       884-4.59089E-06-1.85298E-06 0.00000E+00
 -1       885-4.58849E-06-1.80984E-06 4.13590E-25
 -1       886-4.32998E-06-2.09515E-06-8.27181E-25
 -1       887-4.01151E-06-2.13256E-06 0.00000E+00
 -1       888-3.67528E-06-2.17042E-06-8.27181E-25
 -1       889-3.34903E-06-2.20860E-06 2.06795E-25
 -1       890-3.06048E-06-2.24698E-06 4.13590E-25
 -1       891-4.44304E-06-2.13369E-06 1.65436E-24
 -1       892-4.29440E-06-2.18627E-06 0.00000E+00
 -1       893-4.15824E-06-2.22116E-06 0.00000E+00
 -1       894-4.03336E-06-2.24041E-06 0.00000E+00
 -1       895-3.91853E-06-2.24611E-06-3.30872E-24
 -1       896-3.81242E-06-2.24022E-06 1.65436E-24
 -1       897-3.71366E-06-2.22473E-06-3.30872E-24
 -1       898-3.62109E-06-2.20176E-06 8.27181E-25
 -1       899-3.53354E-06-2.17342E-06 1.65436E-24
 -1       900-4.52572E-06-1.82677E-06 0.00000E+00
 -1       901-4.46572E-06-1.76650E-06 1.65436E-24
 -1       902-4.40551E-06-1.66023E-06 0.00000E+00
 -1       903-4.34518E-06-1.52878E-06 8.27181E-25
 -1       904-4.28482E-06-1.39298E-06-1.65436E-24
 -1       905-4.22444E-06-1.27367E-06 0.00000E+00
 -1       906-4.16408E-06-1.19168E-06 1.65436E-24
 -1       907-4.40586E-06-1.87108E-06 0.00000E+00
 -1       908-4.19250E-06-1.92544E-06 0.00000E+00
 -1       909-3.96737E-06-1.98048E-06 0.00000E+00
 -1       910-3.75361E-06-2.03574E-06 4.13590E-25
 -1       911-3.57435E-06-2.09074E-06 2.06795E-25
 -1       912-4.43691E-06-1.83025E-06-3.30872E-24
 -1       913-4.29041E-06-1.83221E-06 0.00000E+00
 -1       914-4.14802E-06-1.82755E-06 0.00000E+00
 -1       915-4.01053E-06-1.81571E-06 0.00000E+00
 -1       916-3.87873E-06-1.79611E-06 0.00000E+00
 -1       917-3.75324E-06-1.76806E-06 0.00000E+00
 -1       918-3.63469E-06-1.73090E-06-3.30872E-24
 -1       919-3.52383E-06-1.68402E-06-1.65436E-24
 -1       920-3.42141E-06-1.62684E-06 3.30872E-24
 -1       921-4.02445E-06-1.13365E-06 0.00000E+00
 -1       922-3.94407E-06-1.03544E-06-1.65436E-24
 -1       923-3.86351E-06-8.95272E-07-3.30872E-24
 -1       924-3.78283E-06-7.36164E-07 8.27181E-25
 -1       925-3.70212E-06-5.81138E-07 1.65436E-24
 -1       926-3.62141E-06-4.53214E-07 8.27181E-25
 -1       927-3.54072E-06-3.75400E-07 3.30872E-24
 -1       928-3.97647E-06-1.22882E-06-4.13590E-25
 -1       929-3.82363E-06-1.29568E-06 0.00000E+00
 -1       930-3.66385E-06-1.36341E-06 1.65436E-24
 -1       931-3.51585E-06-1.43119E-06 2.06795E-25
 -1       932-3.39841E-06-1.49819E-06-4.13590E-25
 -1       933-3.92697E-06-1.13651E-06 0.00000E+00
 -1       934-3.73915E-06-1.11230E-06 1.65436E-24
 -1       935-3.54620E-06-1.09343E-06 3.30872E-24
 -1       936-3.35122E-06-1.07637E-06 0.00000E+00
 -1       937-3.15731E-06-1.05761E-06 6.61744E-24
 -1       938-2.96737E-06-1.03345E-06 0.00000E+00
 -1       939-2.78428E-06-1.00021E-06-6.61744E-24
 -1       940-2.61095E-06-9.54218E-07-3.30872E-24
 -1       941-2.45030E-06-8.91842E-07 6.61744E-24
 -1       942-3.47246E-06-3.93245E-07 1.65436E-24
 -1       943-3.48888E-06-3.72600E-07 0.00000E+00
 -1       944-3.50608E-06-3.25888E-07-1.80946E-25
 -1       945-3.52372E-06-2.71124E-07-2.06795E-25
 -1       946-3.54145E-06-2.26327E-07 0.00000E+00
 -1       947-3.55908E-06-2.09508E-07 0.00000E+00
 -1       948-3.57642E-06-2.38669E-07 0.00000E+00
 -1       949-3.27125E-06-4.39478E-07 0.00000E+00
 -1       950-3.04509E-06-5.15399E-07-4.13590E-25
 -1       951-2.80847E-06-5.92277E-07 8.27181E-25
 -1       952-2.58848E-06-6.68899E-07-3.61892E-25
 -1       953-2.41219E-06-7.44045E-07 0.00000E+00
 -1       954-3.16419E-06-2.82154E-07 0.00000E+00
 -1       955-2.84916E-06-2.02984E-07 0.00000E+00
 -1       956-2.52212E-06-1.36707E-07 0.00000E+00
 -1       957-2.18435E-06-8.29631E-08 0.00000E+00
 -1       958-1.83712E-06-4.13762E-08 0.00000E+00
 -1       959-1.48129E-06-1.12699E-08-3.30872E-24
 -1       960-1.11774E-06 8.02878E-09 0.00000E+00
 -1       961-7.47776E-07 1.68734E-08 3.30872E-24
 -1       962-3.72708E-07 1.55984E-08 6.61744E-24
 -1       963-3.62716E-06-4.68082E-07 4.13590E-25
 -1       964-3.66483E-06-5.59370E-07 4.00666E-25
 -1       965-3.70298E-06-6.10300E-07 2.06795E-25
 -1       966-3.74142E-06-6.26262E-07 2.06795E-25
 -1       967-3.77993E-06-6.12651E-07 4.13590E-25
 -1       968-3.81842E-06-5.74898E-07 0.00000E+00
 -1       969-3.85680E-06-5.18431E-07 0.00000E+00
 -1       970-3.13968E-06-2.77791E-07 8.27181E-25
 -1       971-2.53329E-06-2.22734E-07 3.87741E-25
 -1       972-1.84398E-06-1.67396E-07 0.00000E+00
 -1       973-1.14400E-06-1.11846E-07 0.00000E+00
 -1       974-5.05612E-07-5.61428E-08 3.30872E-24
 -1       975-3.48113E-06-4.34604E-07 0.00000E+00
 -1       976-3.38885E-06-5.12496E-07 0.00000E+00
 -1       977-3.31352E-06-5.67726E-07 1.65436E-24
 -1       978-3.25313E-06-6.03050E-07 0.00000E+00
 -1       979-3.20569E-06-6.21234E-07 0.00000E+00
 -1       980-3.16922E-06-6.25093E-07 0.00000E+00
 -1       981-3.14179E-06-6.17464E-07-4.13590E-25
 -1       982-3.12190E-06-6.01507E-07 4.13590E-25
 -1       983-3.10806E-06-5.80405E-07 1.65436E-24
 -1       984-3.93769E-06-3.60394E-07-8.27181E-25
 -1       985-3.98172E-06-2.21111E-07 2.06795E-25
 -1       986-4.02591E-06-3.12123E-08 2.06795E-25
 -1       987-4.07017E-06 2.08677E-07 5.16988E-25
 -1       988-4.11439E-06 4.97916E-07 4.13590E-25
 -1       989-4.15838E-06 8.35812E-07-2.58494E-25
 -1       990-4.20197E-06 1.22167E-06 4.13590E-25
 -1       991-3.83642E-06-4.65410E-07 0.00000E+00
 -1       992-3.70869E-06-4.81941E-07 0.00000E+00
 -1       993-3.54123E-06-4.98697E-07 0.00000E+00
 -1       994-3.36445E-06-5.16242E-07 0.00000E+00
 -1       995-3.20876E-06-5.35169E-07 1.65436E-24
 -1       996-3.97143E-06-3.82038E-07 7.23783E-25
 -1       997-4.08045E-06-2.72326E-07-4.13590E-25
 -1       998-4.21942E-06-1.22695E-07-2.06795E-25
 -1       999-4.38587E-06 6.35319E-08-3.10193E-25
 -1      1000-4.57734E-06 2.83014E-07 2.58494E-26
 -1      1001-4.79139E-06 5.32363E-07-2.06795E-25
 -1      1002-5.02560E-06 8.08174E-07-8.27181E-25
 -1      1003-5.27785E-06 1.10680E-06-8.27181E-25
 -1      1004-5.54602E-06 1.42457E-06 0.00000E+00
 -1      1005-4.32205E-06 2.23015E-06 1.65436E-24
 -1      1006-4.40485E-06 2.92484E-06-2.19720E-25
 -1      1007-4.48844E-06 3.71713E-06 1.65436E-24
 -1      1008-4.57245E-06 4.58468E-06 0.00000E+00
 -1      1009-4.65651E-06 5.50521E-06 0.00000E+00
 -1      1010-4.74024E-06 6.45630E-06-8.27181E-25
 -1      1011-4.82327E-06 7.41557E-06 0.00000E+00
 -1      1012-4.57117E-06 1.67345E-06 0.00000E+00
 -1      1013-4.83007E-06 1.69273E-06 0.00000E+00
 -1      1014-5.05256E-06 1.71180E-06 0.00000E+00
 -1      1015-5.27169E-06 1.73000E-06-2.06795E-25
 -1      1016-5.52055E-06 1.74661E-06 1.65436E-24
 -1      1017-4.51713E-06 2.10486E-06-1.65436E-24
 -1      1018-4.83857E-06 2.62203E-06-3.30872E-24
 -1      1019-5.20297E-06 3.19703E-06 3.30872E-24
 -1      1020-5.60417E-06 3.82133E-06 0.00000E+00
 -1      1021-6.03597E-06 4.48639E-06-1.65436E-24
 -1      1022-6.49215E-06 5.18369E-06 8.27181E-25
 -1      1023-6.96649E-06 5.90464E-06 0.00000E+00
 -1      1024-7.45314E-06 6.64042E-06 0.00000E+00
 -1      1025-7.94630E-06 7.38219E-06 0.00000E+00
 -1      1026-4.93674E-06 9.35340E-06 0.00000E+00
 -1      1027-4.97298E-06 1.04415E-05-2.06795E-25
 -1      1028-5.00962E-06 1.16012E-05 4.39440E-25
 -1      1029-5.04648E-06 1.28078E-05 0.00000E+00
 -1      1030-5.08339E-06 1.40363E-05 0.00000E+00
 -1      1031-5.12017E-06 1.52623E-05 0.00000E+00
 -1      1032-5.15668E-06 1.64607E-05 0.00000E+00
 -1      1033-5.58503E-06 8.32369E-06 0.00000E+00
 -1      1034-6.16356E-06 8.28455E-06 0.00000E+00
 -1      1035-6.68805E-06 8.24489E-06 0.00000E+00
 -1      1036-7.20936E-06 8.20452E-06 0.00000E+00
 -1      1037-7.77836E-06 8.16320E-06-1.65436E-24
 -1      1038-5.37555E-06 9.14307E-06-1.65436E-24
 -1      1039-5.86966E-06 9.95989E-06 0.00000E+00
 -1      1040-6.38462E-06 1.08057E-05 0.00000E+00
 -1      1041-6.91782E-06 1.16765E-05 0.00000E+00
 -1      1042-7.46663E-06 1.25681E-05-3.30872E-24
 -1      1043-8.02830E-06 1.34768E-05 0.00000E+00
 -1      1044-8.60007E-06 1.43984E-05-3.30872E-24
 -1      1045-9.17954E-06 1.53289E-05-8.27181E-25
 -1      1046-9.76433E-06 1.62639E-05 0.00000E+00
 -1      1047-5.21110E-06 1.87369E-05 0.00000E+00
 -1      1048-5.23111E-06 1.99253E-05 1.03398E-25
 -1      1049-5.25128E-06 2.11558E-05 5.16988E-26
 -1      1050-5.27154E-06 2.24110E-05 2.06795E-25
 -1      1051-5.29181E-06 2.36736E-05 8.27181E-25
 -1      1052-5.31202E-06 2.49263E-05 0.00000E+00
 -1      1053-5.33211E-06 2.61517E-05 0.00000E+00
 -1      1054-6.10128E-06 1.75418E-05 0.00000E+00
 -1      1055-6.94031E-06 1.74735E-05-8.27181E-25
 -1      1056-7.74687E-06 1.74047E-05 0.00000E+00
 -1      1057-8.55953E-06 1.73355E-05 8.27181E-25
 -1      1058-9.41682E-06 1.72660E-05 0.00000E+00
 -1      1059-5.77787E-06 1.85018E-05 0.00000E+00
 -1      1060-6.37217E-06 1.94128E-05 8.27181E-25
 -1      1061-6.97566E-06 2.03372E-05 0.00000E+00
 -1      1062-7.58729E-06 2.12730E-05 8.27181E-25
 -1      1063-8.20597E-06 2.22183E-05 0.00000E+00
 -1      1064-8.83049E-06 2.31713E-05 0.00000E+00
 -1      1065-9.45964E-06 2.41303E-05 0.00000E+00
 -1      1066-1.00924E-05 2.50932E-05 0.00000E+00
 -1      1067-1.07279E-05 2.60581E-05 0.00000E+00
 -1      1068-5.36505E-06 2.84837E-05 2.58494E-25
 -1      1069-5.37874E-06 2.96612E-05-2.58494E-26
 -1      1070-5.39250E-06 3.08561E-05-4.13590E-25
 -1      1071-5.40629E-06 3.20587E-05 0.00000E+00
 -1      1072-5.42011E-06 3.32594E-05-8.27181E-25
 -1      1073-5.43395E-06 3.44488E-05 8.27181E-25
 -1      1074-5.44783E-06 3.56172E-05 0.00000E+00
 -1      1075-6.37738E-06 2.72826E-05 0.00000E+00
 -1      1076-7.36295E-06 2.72305E-05-8.27181E-25
 -1      1077-8.33142E-06 2.71781E-05 0.00000E+00
 -1      1078-9.30620E-06 2.71255E-05-8.27181E-25
 -1      1079-1.03106E-05 2.70729E-05-8.27181E-25
 -1      1080-5.98820E-06 2.82482E-05 0.00000E+00
 -1      1081-6.62477E-06 2.91673E-05-4.13590E-25
 -1      1082-7.26245E-06 3.00886E-05 0.00000E+00
 -1      1083-7.90101E-06 3.10115E-05 0.00000E+00
 -1      1084-8.54023E-06 3.19354E-05-1.65436E-24
 -1      1085-9.17978E-06 3.28597E-05 8.27181E-25
 -1      1086-9.81935E-06 3.37839E-05 0.00000E+00
 -1      1087-1.04587E-05 3.47073E-05 0.00000E+00
 -1      1088-1.10977E-05 3.56295E-05-4.13590E-25
 -1      1089-6.51797E-06 3.67212E-05 8.27181E-25
 -1      1090-7.55518E-06 3.66864E-05-4.13590E-25
 -1      1091-8.58461E-06 3.66517E-05 0.00000E+00
 -1      1092-9.61740E-06 3.66169E-05-4.13590E-25
 -1      1093-1.06647E-05 3.65823E-05 8.27181E-25
 -1      1094-2.05450E-07-3.58135E-07 3.30872E-24
 -1      1095-4.13240E-07-6.35916E-07 3.30872E-24
 -1      1096-6.21424E-07-8.50665E-07 6.61744E-24
 -1      1097-8.29756E-07-1.02028E-06 0.00000E+00
 -1      1098-1.03797E-06-1.16267E-06 6.61744E-24
 -1      1099-1.24564E-06-1.29579E-06 0.00000E+00
 -1      1100-1.45232E-06-1.43760E-06-6.61744E-24
 -1      1101-1.79971E-06-1.78153E-06-3.30872E-24
 -1      1102-1.94838E-06-1.90903E-06 0.00000E+00
 -1      1103-2.09751E-06-1.99922E-06 0.00000E+00
 -1      1104-2.24687E-06-2.06338E-06 1.65436E-24
 -1      1105-2.39616E-06-2.11284E-06 0.00000E+00
 -1      1106-2.54502E-06-2.15891E-06 0.00000E+00
 -1      1107-2.69308E-06-2.21291E-06 0.00000E+00
 -1      1108-2.91331E-06-2.34561E-06-1.65436E-24
 -1      1109-2.99089E-06-2.36029E-06 0.00000E+00
 -1      1110-3.06866E-06-2.34123E-06-1.65436E-24
 -1      1111-3.14649E-06-2.29997E-06 0.00000E+00
 -1      1112-3.22425E-06-2.24806E-06 0.00000E+00
 -1      1113-3.30169E-06-2.19704E-06 0.00000E+00
 -1      1114-3.37854E-06-2.15847E-06 0.00000E+00
 -1      1115-3.43845E-06-2.12460E-06 0.00000E+00
 -1      1116-3.42364E-06-2.06878E-06 4.13590E-25
 -1      1117-3.40863E-06-1.98673E-06 0.00000E+00
 -1      1118-3.39347E-06-1.88924E-06 0.00000E+00
 -1      1119-3.37823E-06-1.78707E-06 0.00000E+00
 -1      1120-3.36280E-06-1.69102E-06-2.06795E-25
 -1      1121-3.34707E-06-1.61187E-06-4.13590E-25
 -1      1122-3.20584E-06-1.50416E-06 3.30872E-24
 -1      1123-3.07828E-06-1.41498E-06-1.65436E-24
 -1      1124-2.95005E-06-1.30367E-06 0.00000E+00
 -1      1125-2.82142E-06-1.18153E-06 0.00000E+00
 -1      1126-2.69266E-06-1.05985E-06 3.30872E-24
 -1      1127-2.56383E-06-9.49936E-07-1.65436E-24
 -1      1128-2.43497E-06-8.63074E-07 0.00000E+00
 -1      1129-2.02338E-06-7.00868E-07-6.61744E-24
 -1      1130-1.73342E-06-5.37842E-07 3.30872E-24
 -1      1131-1.44218E-06-3.48920E-07-6.61744E-24
 -1      1132-1.15033E-06-1.62245E-07 0.00000E+00
 -1      1133-8.58583E-07-5.96253E-09-6.61744E-24
 -1      1134-5.67812E-07 9.17924E-08 3.30872E-24
 -1      1135-2.78905E-07 1.02897E-07 0.00000E+00
 -1      1136-3.67898E-07-1.97723E-07-6.61744E-24
 -1      1137-7.55901E-07-3.47378E-07 0.00000E+00
 -1      1138-1.14768E-06-4.54556E-07 0.00000E+00
 -1      1139-1.54153E-06-5.25174E-07 0.00000E+00
 -1      1140-1.93578E-06-5.65170E-07-1.32349E-23
 -1      1141-2.32940E-06-5.80529E-07 6.61744E-24
 -1      1142-2.72140E-06-5.77241E-07 6.61744E-24
 -1      1143-3.43904E-06-4.91171E-07 6.61744E-24
 -1      1144-3.78106E-06-3.40788E-07 0.00000E+00
 -1      1145-4.12439E-06-1.18600E-07 1.32349E-23
 -1      1146-4.46838E-06 1.66454E-07-3.30872E-24
 -1      1147-4.81237E-06 5.05401E-07-1.32349E-23
 -1      1148-5.15564E-06 8.89189E-07 3.30872E-24
 -1      1149-5.49752E-06 1.30876E-06 0.00000E+00
 -1      1150-6.15250E-06 2.29750E-06-6.61744E-24
 -1      1151-6.48036E-06 2.95031E-06-3.30872E-24
 -1      1152-6.80957E-06 3.69488E-06 6.61744E-24
 -1      1153-7.13944E-06 4.51189E-06 3.30872E-24
 -1      1154-7.46930E-06 5.38204E-06 6.61744E-24
 -1      1155-7.79839E-06 6.28592E-06-3.30872E-24
 -1      1156-8.12595E-06 7.20413E-06-6.61744E-24
 -1      1157-8.68066E-06 9.07786E-06-3.30872E-24
 -1      1158-8.92072E-06 1.01295E-05 0.00000E+00
 -1      1159-9.16166E-06 1.12520E-05-6.61744E-24
 -1      1160-9.40300E-06 1.24246E-05 3.30872E-24
 -1      1161-9.64429E-06 1.36261E-05 6.61744E-24
 -1      1162-9.88491E-06 1.48358E-05-3.30872E-24
 -1      1163-1.01242E-05 1.60325E-05 6.61744E-24
 -1      1164-1.04819E-05 1.83481E-05-3.30872E-24
 -1      1165-1.06090E-05 1.95502E-05-1.65436E-24
 -1      1166-1.07365E-05 2.07882E-05 3.30872E-24
 -1      1167-1.08642E-05 2.20479E-05 0.00000E+00
 -1      1168-1.09918E-05 2.33152E-05 0.00000E+00
 -1      1169-1.11189E-05 2.45758E-05-1.65436E-24
 -1      1170-1.12453E-05 2.58157E-05 0.00000E+00
 -1      1171-1.14140E-05 2.81995E-05 8.27181E-25
 -1      1172-1.14605E-05 2.93968E-05 4.13590E-25
 -1      1173-1.15071E-05 3.06051E-05-1.65436E-24
 -1      1174-1.15537E-05 3.18169E-05-8.27181E-25
 -1      1175-1.16003E-05 3.30247E-05-1.65436E-24
 -1      1176-1.16467E-05 3.42210E-05 0.00000E+00
 -1      1177-1.16928E-05 3.53980E-05 1.65436E-24
 -3
    1PSTEP                         2           1           1          
  100CL  101 1.000000000        1001                     0    1           1
 -4  STRESS      6    1
 -5  SXX         1    4    1    1
 -5  SYY         1    4    2    2
 -5  SZZ         1    4    3    3
 -5  SXY         1    4    1    2
 -5  SYZ         1    4    2    3
 -5  SZX         1    4    3    1
 -1         1 9.17900E+05 3.59555E+05 4.14314E+02 3.92080E+05-3.12260E-11-1.73047E-09
 -1         2 8.03450E+05 6.66280E+02-6.92048E+02 1.10959E+05-1.36424E-11-5.01586E-10
 -1         3 5.04078E+05-3.05430E+04-6.14774E+02 5.16579E+04-2.95586E-12-6.35737E-10
 -1         4 3.47947E+05-2.05677E+04-4.26009E+02 2.87008E+04 2.31921E-11-6.55518E-10
 -1         5 2.54002E+05-3.53943E+03-2.73641E+02 1.75493E+04-2.88765E-11-8.27640E-11
 -1         6 1.92890E+05 6.21777E+03-1.85267E+02 1.19671E+04-3.39924E-11 2.25555E-10
 -1         7 1.39430E+05 8.74786E+03-1.87192E+02 1.79783E+04-7.13918E-11-5.17559E-11
 -1         8 6.51472E+04 3.12547E+04-1.62591E+02 2.68430E+04-3.67208E-11-1.04819E-10
 -1         9 1.70204E+04 9.83194E+04-1.37241E+01 5.06557E+03 1.02887E-10 4.42384E-11
 -1        14 7.84452E+04 1.64612E+05-1.11846E+03 2.31150E+05 6.54836E-11-9.41327E-10
 -1        15 3.29387E+05 4.82246E+04-1.17548E+03 2.40739E+05 5.30539E-11 5.33570E-10
 -1        16 3.09884E+05-2.85987E+04-1.00890E+03 1.42024E+05-6.56352E-11 5.17957E-10
 -1        17 2.48799E+05-2.78242E+04-7.51621E+02 8.76581E+04 2.33437E-11-8.39767E-11
 -1        18 1.90888E+05-5.80614E+03-5.10433E+02 5.67931E+04-2.99375E-11-7.01069E-11
 -1        19 1.51655E+05 8.48251E+03-3.15698E+02 3.10427E+04-2.66785E-11-4.81274E-11
 -1        20 1.37784E+05 1.98027E+03-2.66101E+02 2.54092E+04-1.78867E-11-1.94746E-10
 -1        21 1.30440E+05 2.50591E+04-2.67158E+02 6.53381E+04-1.01257E-10 7.18501E-11
 -1        22 4.35091E+04 1.60066E+05-1.91924E+01 8.66356E+04 3.02464E-10 1.31744E-10
 -1        27-4.94962E+03-2.35316E+04-3.94225E+02 4.78548E+04-1.68257E-11 2.09639E-10
 -1        28 6.97576E+04 3.60451E+04-4.69903E+02 1.33419E+05 1.22100E-10 1.82960E-10
 -1        29 1.62071E+05 2.66271E+03-6.73052E+02 1.57319E+05-7.68523E-11 3.49398E-10
 -1        30 1.89374E+05-1.11825E+04-6.50096E+02 1.31260E+05 4.44137E-11-2.78912E-11
 -1        31 1.74901E+05 7.88219E+03-5.30380E+02 1.10625E+05-1.58404E-11-3.85398E-10
 -1        32 1.27116E+05 3.10794E+04-3.29349E+02 7.20155E+04 3.70240E-11 1.00651E-10
 -1        33 1.10160E+05 6.50293E+03-1.70071E+02 1.88579E+04 2.66027E-11 1.12019E-10
 -1        34 1.50764E+05-1.18578E+04-2.19156E+02 2.00183E+04-1.38774E-10-8.97368E-11
 -1        35 2.91060E+05 1.71941E+05 3.73826E+02 1.37657E+05-7.28051E-10-3.21506E-10
 -1        36 2.68460E+05-1.54220E+04-2.17092E+02 1.00715E+05-3.21239E-09-1.16438E-09
 -1        37 1.15480E+05-3.54880E+04-2.40837E+02 5.07299E+04 3.91208E-09-2.97518E-10
 -1        38 3.12511E+04-3.54239E+04-1.64358E+02 2.70831E+04-4.42014E-10-2.23679E-10
 -1        39-3.34210E+03-7.20824E+04-2.30128E+02 1.58667E+04 1.56456E-08-6.59064E-10
 -1        40-3.16536E+04-9.49312E+04-1.40117E+01 5.24977E+04-9.54969E-12 1.02773E-10
 -1        41-1.85951E+04-5.19189E+03-5.50873E+01 7.27407E+04-6.03677E-11 3.29578E-10
 -1        42 3.72835E+04-2.32415E+03-2.82879E+02 1.01623E+05-2.10321E-10-2.35256E-10
 -1        43 1.05584E+05-6.11591E+03-4.36005E+02 1.09119E+05-3.60766E-11 1.90842E-10
 -1        44 1.57475E+05 5.44863E+03-5.33206E+02 1.16075E+05-3.03165E-13 2.40182E-10
 -1        45 1.64621E+05 5.29372E+04-5.65006E+02 1.45090E+05 7.21532E-11 1.49612E-10
 -1        46 1.16727E+04 4.71130E+04-1.64751E+02 7.72538E+04 1.87356E-10-1.68408E-10
 -1        47-4.02830E+04-2.69493E+04 1.19224E+02 1.16856E+04-1.41047E-10-2.41168E-10
 -1        48-2.68107E+04 4.87941E+04 1.41299E+02 4.88228E+04-7.98915E-10-2.24342E-11
 -1        49 1.52896E+04-2.30789E+03-2.60525E+02 1.23519E+05 5.29629E-10-8.25063E-10
 -1        50 2.21687E+04-3.83271E+04-2.59816E+02 8.68004E+04 5.25658E-09-1.55471E-09
 -1        51 1.07270E+04-3.37467E+04-1.76892E+02 5.24314E+04 1.73501E-09-5.79651E-10
 -1        52-4.00103E+03-5.46122E+04-1.73227E+02 2.56937E+04 6.55530E-09 1.07582E-10
 -1        53-2.80429E+05-1.62530E+05-5.90827E+02 8.38365E+04 2.93028E-11 3.49246E-10
 -1        54-2.24689E+05-2.78155E+04-2.04246E+02 5.26727E+04 1.08868E-10 2.52840E-10
 -1        55-1.31338E+05-1.79031E+04-2.70570E+02 5.38986E+04-2.68376E-10 1.85082E-10
 -1        56-8.71836E+03-1.31756E+04-3.34742E+02 6.08743E+04-3.01732E-11-3.41061E-11
 -1        57 1.41859E+05-4.67086E+03-3.78761E+02 6.83356E+04 1.20689E-10 1.33241E-10
 -1        58 3.49304E+05 1.50070E+04-2.51616E+02 1.08108E+05 4.29026E-11-1.63709E-11
 -1        59 7.96549E+04 1.04121E+05 7.03083E+00 1.72725E+05-1.33198E-10-1.13687E-09
 -1        60-4.79063E+05-4.28408E+04-5.24468E+02 3.07532E+04 2.54602E-10 1.76442E-10
 -1        61-4.55040E+05-2.89143E+04-2.90047E+02 3.23568E+04-1.44361E-10 2.56023E-10
 -1        62-3.64065E+05-3.45876E+04-4.36857E+02 8.06219E+04-6.52258E-10 1.55569E-09
 -1        63-2.09506E+05-3.43808E+04-3.68476E+02 8.04694E+04 3.17640E-09-1.53250E-10
 -1        64-8.79600E+04-2.12820E+04-1.98774E+02 5.39007E+04 7.17092E-09 1.03182E-09
 -1        65-1.84260E+04-1.67073E+04-5.83507E+01 3.47882E+04 7.09764E-09 1.16658E-09
 -1        66 1.85081E+06 2.43990E+04 6.09348E+04 3.42334E-09-4.15549E-10-5.82077E-10
 -1        67 1.86265E+06 8.13586E+03 3.35306E+04 3.75167E-10-1.23621E-09 1.38243E-10
 -1        68 1.85591E+06 5.84620E+02 1.97783E+04 1.33718E-09 6.37463E-10-4.27008E-10
 -1        69 1.85793E+06 6.52432E+02 1.96009E+04-1.31831E-09 2.62753E-09 2.17483E-10
 -1        70 1.85557E+06 1.26100E+03 2.81303E+04-5.84635E-10 6.79869E-10 3.77440E-10
 -1        71 1.86749E+06 1.47169E+04 5.67227E+04-2.20007E-09-9.69134E-10 3.08319E-10
 -1        72 1.84627E+06 4.39803E+04 1.08259E+05-1.26965E-09-6.24425E-10 9.27685E-10
 -1        73-3.42882E+04 4.64142E+05-8.32553E+04 4.19287E+05 5.82077E-11-8.87667E-10
 -1        74-1.04436E+04 4.46690E+05-4.05094E+04 5.05670E+05 1.00044E-10 9.98625E-10
 -1        75 2.40066E+02 4.55092E+05-1.42213E+04 4.18400E+05 1.01863E-10 1.62072E-09
 -1        76 4.05897E+03 4.55600E+05 1.66086E+03 5.06102E+05 4.72937E-11 1.07323E-09
 -1        77 9.74755E+03 4.52765E+05 1.76364E+04 4.18860E+05 1.25510E-10-1.22236E-09
 -1        78 1.05520E+06 4.69040E+05 2.51842E+04 6.97855E+05-4.88399E-10-4.38376E-10
 -1        79 1.07246E+06 4.49862E+05 1.35363E+04 6.98521E+05-1.56433E-10-8.11610E-10
 -1        80 1.05264E+06 4.63760E+05 7.35174E+03 7.03620E+05-1.78261E-10 1.53022E-10
 -1        81 1.07008E+06 4.46606E+05 6.26501E+03 6.98886E+05 3.63798E-12-1.98895E-10
 -1        82 1.05247E+06 4.63503E+05 7.98668E+03 7.03811E+05 2.59206E-10-3.84944E-10
 -1        83 1.07066E+06 4.47132E+05 1.43761E+04 6.98994E+05 5.94696E-10 6.13909E-10
 -1        84 1.05257E+06 4.64274E+05 2.71550E+04 7.02618E+05-1.51431E-10 3.86535E-10
 -1        85 1.08297E+06 4.61145E+05 5.97097E+04 6.96833E+05-6.47560E-09-7.63566E-09
 -1        86 1.06291E+06 4.89963E+05 1.16335E+05 6.75653E+05-1.67347E-10 1.81899E-11
 -1        87 1.14624E+06 1.43211E+04 3.58469E+04-5.97538E-10 2.45696E-10-1.24783E-09
 -1        88 1.15319E+06 4.77492E+03 1.98482E+04-1.06547E-09-3.24891E-10-1.26147E-09
 -1        89 1.14922E+06 3.33752E+02 1.19373E+04 7.94103E-11-1.45125E-09-5.61840E-10
 -1        90 1.15046E+06 4.05914E+02 1.21919E+04 1.59176E-09-4.62895E-10 7.13385E-11
 -1        91 1.14898E+06 8.13384E+02 1.78644E+04-5.84464E-10 5.77819E-10-7.50333E-10
 -1        92 1.15663E+06 9.44673E+03 3.63101E+04 1.76442E-10 4.45057E-10-1.63709E-11
 -1        93 1.14302E+06 2.82124E+04 6.94327E+04-1.99361E-09 2.71759E-10 3.63798E-12
 -1        94-5.49512E+04-4.92828E+05-1.38528E+05 8.93363E+04 7.27596E-11-5.19321E-10
 -1        95-1.88243E+04-5.20382E+05-7.88564E+04 1.07673E+05 8.45830E-11-9.53150E-10
 -1        96-2.81796E+03-5.03969E+05-5.12983E+04 8.90877E+04 1.54159E-10-2.18279E-10
 -1        97-1.29812E+04-5.16399E+05-6.14361E+04 1.07901E+05 1.61890E-10-2.00089E-11
 -1        98-3.70532E+04-4.97068E+05-9.68976E+04 8.91391E+04 8.00355E-11-2.05091E-10
 -1        99 5.13385E+05 2.03308E+05-8.89955E+03 3.31912E+05-8.61746E-11 5.42059E-10
 -1       100 5.23960E+05 1.93340E+05-4.31653E+03 3.26663E+05 6.22549E-10 9.05402E-10
 -1       101 5.13942E+05 2.05473E+05-1.46219E+03 3.29838E+05-7.25868E-09-1.12993E-08
 -1       102 5.25130E+05 1.94221E+05 2.19157E+02 3.26426E+05 1.67347E-10-9.09921E-10
 -1       103 5.13881E+05 2.05506E+05 2.00524E+03 3.29728E+05-3.41061E-10-1.67233E-10
 -1       104 5.25481E+05 1.94524E+05 4.96479E+03 3.26499E+05-6.50516E-10-3.44698E-10
 -1       105 5.13911E+05 2.05777E+05 1.01257E+04 3.29276E+05-9.68612E-11 9.15179E-11
 -1       106 5.30141E+05 1.99958E+05 2.27136E+04 3.25716E+05-2.23736E-10 6.97469E-10
 -1       107 5.17933E+05 2.15525E+05 4.44417E+04 3.18960E+05-5.09317E-11 7.82165E-11
 -1       108 7.79428E+05 1.28061E+04 3.18805E+04 1.66983E-09-4.08550E-11 6.96673E-10
 -1       109 7.85636E+05 4.27677E+03 1.73283E+04 5.43423E-11-1.95510E-11 3.17414E-10
 -1       110 7.82103E+05 3.21877E+02 9.81858E+03 1.45377E-10 1.44378E-10 1.38698E-11
 -1       111 7.83074E+05 3.03395E+02 9.11132E+03 4.81833E-10-6.01146E-11-1.37163E-10
 -1       112 7.81998E+05 5.35022E+02 1.24536E+04 1.89004E-11 5.21209E-11-9.43601E-10
 -1       113 7.87165E+05 6.35415E+03 2.46479E+04 1.01909E-09 5.92979E-11-4.38376E-10
 -1       114 7.78000E+05 1.89808E+04 4.68128E+04-4.53838E-10-1.61213E-10-3.01952E-10
 -1       115-3.87798E+04-4.41263E+05-9.82702E+04 1.05871E+04-5.82077E-11-7.77618E-11
 -1       116-1.33654E+04-4.60772E+05-5.69030E+04 1.26844E+04-7.50333E-11-7.72161E-10
 -1       117-2.16987E+03-4.48967E+05-3.87547E+04 1.05219E+04-8.10587E-11-1.03228E-09
 -1       118-1.07632E+04-4.58946E+05-4.90853E+04 1.27861E+04-1.53250E-10-7.60792E-10
 -1       119-3.07825E+04-4.43104E+05-7.95879E+04 1.04960E+04-2.72848E-10 1.53477E-10
 -1       120 3.00549E+05 1.12996E+05-6.21487E+03 1.90711E+05 3.41942E-10-8.00355E-11
 -1       121 3.07490E+05 1.06485E+05-3.07663E+03 1.87192E+05 6.84850E-09 7.66840E-09
 -1       122 3.00960E+05 1.14501E+05-1.17221E+03 1.89280E+05 2.95586E-11-6.49152E-11
 -1       123 3.08295E+05 1.07105E+05-1.73122E+02 1.87034E+05-2.31921E-10-4.75779E-11
 -1       124 3.00931E+05 1.14532E+05 7.53269E+02 1.89209E+05-1.82808E-10 5.14660E-10
 -1       125 3.08467E+05 1.07251E+05 2.12061E+03 1.87071E+05-1.89004E-10 7.68750E-10
 -1       126 3.00946E+05 1.14647E+05 4.42777E+03 1.89011E+05-1.33014E-10-7.47150E-10
 -1       127 3.10487E+05 1.09683E+05 9.98942E+03 1.86740E+05-1.10845E-10-1.13687E-10
 -1       128 3.02749E+05 1.18903E+05 1.95676E+04 1.84458E+05-5.00222E-11-3.92902E-10
 -1       129 5.58860E+05 9.69891E+03 2.41076E+04 2.76486E-10 8.04606E-12 4.11092E-10
 -1       130 5.63558E+05 3.24106E+03 1.30298E+04 2.96723E-10-3.88874E-12 2.47837E-11
 -1       131 5.60888E+05 2.49071E+02 7.24257E+03 1.25823E-10 7.50330E-11-1.35515E-10
 -1       132 5.61590E+05 2.16290E+02 6.49489E+03-1.07755E-09 3.01015E-12 5.93900E-10
 -1       133 5.60832E+05 3.61607E+02 8.63420E+03 6.94143E-10 8.97637E-11 1.77351E-10
 -1       134 5.64366E+05 4.33823E+03 1.68957E+04-7.21229E-10 1.08413E-10-7.36691E-11
 -1       135 5.58106E+05 1.29600E+04 3.19943E+04-3.00133E-10 1.93960E-11-1.61890E-10
 -1       136-2.66042E+04-3.00148E+05-6.75344E+04-1.25342E+04-7.27596E-12-5.74460E-10
 -1       137-9.17904E+03-3.13556E+05-3.93297E+04-1.51892E+04 1.77351E-11 6.97469E-10
 -1       138-1.52306E+03-3.05409E+05-2.71888E+04-1.25383E+04 1.68257E-11 8.57199E-11
 -1       139-7.74922E+03-3.12544E+05-3.50248E+04-1.51375E+04 5.45697E-12-9.99876E-10
 -1       140-2.22047E+04-3.01152E+05-5.72455E+04-1.25821E+04-2.91038E-11 2.94676E-10
 -1       141 1.97860E+05 7.48095E+04-5.62739E+03 1.26479E+05-1.64221E-10 3.18323E-11
 -1       142 2.02305E+05 7.07633E+04-2.83315E+03 1.23845E+05-5.54792E-11 6.72571E-10
 -1       143 1.98271E+05 7.61383E+04-1.17864E+03 1.25186E+05 1.32104E-10-6.65523E-10
 -1       144 2.02995E+05 7.13533E+04-4.07554E+02 1.23714E+05 6.04814E-11-6.04516E-10
 -1       145 1.98258E+05 7.61729E+04 1.84600E+02 1.25127E+05-7.59428E-11 3.41061E-11
 -1       146 2.03093E+05 7.14360E+04 8.84581E+02 1.23736E+05 2.28795E-11 6.98037E-11
 -1       147 1.98264E+05 7.62211E+04 1.97590E+03 1.25037E+05-2.57046E-10-2.95586E-10
 -1       148 2.03991E+05 7.25638E+04 4.52624E+03 1.23593E+05 1.86446E-11-1.28921E-10
 -1       149 1.99104E+05 7.81367E+04 8.89641E+03 1.22960E+05-1.12777E-10 1.28239E-10
 -1       150 4.16949E+05 6.98204E+03 1.73508E+04 5.54792E-11 4.10490E-11 1.83718E-10
 -1       151 4.20329E+05 2.33354E+03 9.36874E+03-4.66571E-10-9.18099E-11-3.15708E-10
 -1       152 4.18409E+05 1.79928E+02 5.19013E+03-2.86576E-10-1.03505E-10-2.55454E-10
 -1       153 4.18908E+05 1.54057E+02 4.62598E+03 9.95698E-10-1.17892E-11 1.88422E-10
 -1       154 4.18372E+05 2.54974E+02 6.11827E+03-6.65224E-10 9.32230E-11-1.49839E-10
 -1       155 4.20867E+05 3.06535E+03 1.19471E+04-2.30784E-10 5.64410E-11 8.18545E-12
 -1       156 4.16446E+05 9.15667E+03 2.26106E+04 4.30646E-10 3.88559E-11-2.18279E-10
 -1       157-1.75903E+04-1.64451E+05-4.46748E+04-1.95451E+04 0.00000E+00-1.86105E-10
 -1       158-6.06892E+03-1.73325E+05-2.60604E+04-2.36277E+04-8.64020E-12 4.61355E-11
 -1       159-1.01234E+03-1.67927E+05-1.80950E+04-1.95252E+04 8.41283E-12 1.17211E-10
 -1       160-5.19321E+03-1.72704E+05-2.34229E+04-2.36020E+04 5.54792E-11 1.14028E-10
 -1       161-1.48948E+04-1.65065E+05-3.83703E+04-1.95696E+04 2.18279E-11-1.14596E-10
 -1       162 1.37062E+05 5.30825E+04-6.12574E+03 8.93974E+04-1.40972E-11-3.56067E-10
 -1       163 1.39862E+05 5.07173E+04-3.12058E+03 8.71354E+04 7.91260E-11 2.17369E-10
 -1       164 1.37544E+05 5.44917E+04-1.37066E+03 8.79878E+04 4.36557E-11 1.77010E-10
 -1       165 1.40575E+05 5.13952E+04-6.30515E+02 8.70028E+04 3.51292E-11 1.69592E-10
 -1       166 1.37541E+05 5.45332E+04-1.70418E+02 8.79256E+04 1.05274E-10-1.02432E-10
 -1       167 1.40637E+05 5.14475E+04 1.90086E+02 8.70172E+04 1.78346E-11-7.34417E-10
 -1       168 1.37541E+05 5.45441E+04 6.32981E+02 8.78935E+04-1.36424E-12-1.12209E-10
 -1       169 1.40933E+05 5.18633E+04 1.55444E+03 8.69771E+04-9.90212E-11-7.56017E-11
 -1       170 1.37853E+05 5.51934E+04 3.09908E+03 8.71632E+04-4.77485E-11-1.66779E-10
 -1       171 3.09914E+05 4.64529E+03 1.15641E+04 2.78078E-10 5.25358E-11-1.35969E-10
 -1       172 3.12162E+05 1.55194E+03 6.28009E+03-1.96621E-10 7.28664E-11-1.40233E-10
 -1       173 3.10883E+05 1.17074E+02 3.54769E+03-2.73346E-10-5.29643E-11 2.34763E-11
 -1       174 3.11230E+05 1.09099E+02 3.27580E+03-3.23045E-10 7.65098E-11 1.03213E-10
 -1       175 3.10847E+05 1.90846E+02 4.46020E+03 1.62800E-10-5.72672E-11 4.52587E-10
 -1       176 3.12692E+05 2.27148E+03 8.81519E+03-1.84627E-10-1.20678E-10 5.85601E-10
 -1       177 3.09419E+05 6.78310E+03 1.67353E+04 4.67480E-10-1.45991E-10-8.36735E-11
 -1       178-1.19632E+04-8.30693E+04-3.04076E+04-2.21567E+04-6.36646E-12 3.92220E-10
 -1       179-4.12831E+03-8.91136E+04-1.77842E+04-2.67677E+04-3.75167E-11 5.75199E-10
 -1       180-6.94370E+02-8.54308E+04-1.24313E+04-2.21265E+04 7.27596E-12-6.23572E-11
 -1       181-3.60571E+03-8.87435E+04-1.62100E+04-2.67538E+04 2.05205E-11 3.22871E-11
 -1       182-1.03543E+04-8.34359E+04-2.66447E+04-2.21702E+04 1.18234E-11 6.11635E-11
 -1       183 1.10433E+05 4.17145E+04-4.75940E+03 7.12496E+04-1.32445E-11 6.82121E-11
 -1       184 1.12839E+05 3.96468E+04-2.43053E+03 6.94255E+04-7.28733E-11 5.39387E-10
 -1       185 1.10806E+05 4.28134E+04-1.07964E+03 7.01564E+04-2.71712E-11 1.28239E-10
 -1       186 1.13396E+05 4.01697E+04-5.22020E+02 6.93211E+04 9.09495E-12-3.23340E-10
 -1       187 1.10804E+05 4.28464E+04-1.96226E+02 7.01081E+04 2.72848E-12-3.29180E-10
 -1       188 1.13436E+05 4.02040E+04 1.47744E+01 6.93305E+04-6.60521E-11 3.55556E-10
 -1       189 1.10804E+05 4.28475E+04 2.30897E+02 7.00948E+04 4.38831E-11-1.96678E-11
 -1       190 1.13540E+05 4.03974E+04 6.27856E+02 6.93224E+04-1.32104E-10-1.87356E-10
 -1       191 1.10951E+05 4.30952E+04 1.27502E+03 6.97882E+04-4.22915E-11-5.50244E-11
 -1       192 1.63731E+05 6.15530E+02 1.58685E+03 1.22014E-09 1.60548E-11 2.20837E-10
 -1       193 1.64026E+05 2.03754E+02 9.60224E+02 4.80256E-11-2.57774E-11-9.17950E-11
 -1       194 1.63855E+05 8.34042E+00 7.29700E+02-3.53371E-11 1.91872E-11-3.71923E-10
 -1       195 1.63939E+05 3.25571E+01 9.77491E+02-3.46557E-10 1.43434E-11-1.63567E-11
 -1       196 1.63818E+05 8.35266E+01 1.65986E+03 1.67493E-10 1.02324E-11 2.45848E-10
 -1       197 1.64567E+05 9.37260E+02 3.54449E+03 1.09253E-10-3.12428E-11-1.59730E-10
 -1       198 1.63227E+05 2.79469E+03 6.85826E+03-3.27645E-10-4.01412E-11 0.00000E+00
 -1       199-9.29764E+03-7.09324E+04-2.37311E+04-1.05666E+04-4.54747E-12 8.72546E-11
 -1       200-3.21943E+03-7.56514E+04-1.40700E+04-1.27675E+04-2.91038E-11-4.53277E-10
 -1       201-5.69104E+02-7.27511E+04-1.01699E+04-1.05531E+04 1.25056E-12-2.66283E-10
 -1       202-3.11001E+03-7.55737E+04-1.37402E+04-1.27590E+04-8.64020E-12 2.25327E-10
 -1       203-8.96067E+03-7.10090E+04-2.29427E+04-1.05749E+04-9.09495E-12-4.83737E-10
 -1       204 1.30560E+05 6.26686E+04 4.39544E+03 8.88734E+04-4.03588E-11-6.60805E-11
 -1       205 1.32179E+05 6.07106E+04 2.27060E+03 8.94147E+04 1.72804E-11-2.19941E-10
 -1       206 1.30150E+05 6.17184E+04 1.06067E+03 8.98967E+04-3.08091E-11-7.34985E-11
 -1       207 1.31735E+05 6.01614E+04 6.17911E+02 8.94922E+04-1.03228E-10-1.14582E-10
 -1       208 1.30142E+05 6.16883E+04 4.50979E+02 8.99413E+04-3.41061E-13-2.19416E-11
 -1       209 1.31730E+05 6.01565E+04 5.47825E+02 8.94906E+04 3.24292E-11 5.04201E-11
 -1       210 1.30150E+05 6.17146E+04 8.89490E+02 8.99046E+04-4.51905E-11-1.81899E-10
 -1       211 1.32094E+05 6.06042E+04 1.87092E+03 8.94251E+04 2.09752E-11-4.41560E-10
 -1       212 1.30485E+05 6.24960E+04 3.60722E+03 8.90659E+04 3.04681E-11-5.66160E-11
 -1       213 9.89168E+03-3.69265E+03-9.16726E+03-3.29692E-11 4.38074E-11-7.54881E-11
 -1       214 8.08507E+03-1.23493E+03-4.92988E+03-2.48860E-10 4.38887E-11 2.10377E-10
 -1       215 9.11916E+03-9.65767E+01-2.69216E+03-2.25185E-10-4.97668E-11 2.10093E-10
 -1       216 8.84443E+03-7.78036E+01-2.33588E+03 7.09797E-11-4.63498E-11-1.37049E-10
 -1       217 9.13215E+03-1.22926E+02-3.01818E+03-2.48221E-10 1.01014E-11-3.64935E-11
 -1       218 7.89563E+03-1.49205E+03-5.83570E+03 6.75129E-10 7.74981E-11-2.62503E-10
 -1       219 1.00682E+04-4.45634E+03-1.10148E+04-6.63931E-11 5.80343E-11 6.41194E-11
 -1       220-2.52347E+03 3.73554E+04-6.72682E+03 2.18665E+04 3.54703E-11 2.86491E-10
 -1       221-8.99542E+02 3.60006E+04-4.52743E+03 2.63872E+04 1.80762E-11 5.32509E-10
 -1       222-2.33051E+02 3.69026E+04-4.20676E+03 2.18238E+04 3.77440E-11-2.65686E-10
 -1       223-1.71287E+03 3.54260E+04-6.97582E+03 2.63992E+04 2.41016E-11-1.04490E-09
 -1       224-5.02734E+03 3.79271E+04-1.25803E+04 2.18546E+04 7.27596E-12-4.45652E-10
 -1       225 9.90027E+04 8.02586E+04 8.15117E+03 8.71595E+04-1.27784E-10-1.54614E-11
 -1       226 9.61637E+04 8.24793E+04 4.15999E+03 8.98803E+04 2.99792E-10 3.75621E-10
 -1       227 9.83221E+04 7.84171E+04 1.84213E+03 8.90392E+04 4.41503E-10 3.17456E-10
 -1       228 9.52508E+04 8.15406E+04 8.78706E+02 9.00431E+04-2.37748E-11 3.23894E-10
 -1       229 9.83220E+04 7.83640E+04 3.04905E+02 8.91219E+04-1.53932E-10-8.07177E-11
 -1       230 9.51812E+04 8.14748E+04-9.04802E+01 9.00263E+04-3.15595E-10-3.08319E-10
 -1       231 9.83251E+04 7.83590E+04-5.23574E+02 8.91542E+04-1.37334E-10 1.45519E-10
 -1       232 9.49476E+04 8.10799E+04-1.35989E+03 9.00580E+04-7.73070E-12 1.19257E-10
 -1       233 9.80270E+04 7.78075E+04-2.74190E+03 8.98143E+04 6.77574E-11-1.45519E-10
 -1       241 4.45441E+03 2.20663E+05 1.09809E+04 8.48353E+03-2.34195E-11 5.36602E-11
 -1       242 1.50381E+03 2.22816E+05 5.77369E+03 1.01737E+04 2.61366E-10 3.17527E-10
 -1       243 1.62419E+02 2.21593E+05 2.89809E+03 8.43938E+03-1.45519E-11 9.09495E-13
 -1       244 3.00742E+02 2.21965E+05 2.15101E+03 1.02331E+04 4.37922E-10 2.71029E-10
 -1       245 7.49436E+02 2.21508E+05 2.31916E+03 8.42381E+03 5.91172E-11-2.11458E-11
 -1       323 1.44681E+04-1.00954E+04-2.46841E+04 1.14658E+05-6.73026E-11-1.94495E-09
 -1       324 9.54739E+03-3.44110E+03-1.34479E+04 1.38087E+05-2.25555E-10-1.16779E-09
 -1       325 1.22000E+04-3.25759E+02-7.70789E+03 1.14307E+05-7.82165E-11-2.68301E-10
 -1       326 1.13263E+04-2.85028E+02-7.28769E+03 1.38465E+05-1.16415E-10 5.63887E-11
 -1       327 1.22150E+04-4.68141E+02-1.01217E+04 1.14292E+05-2.24418E-10-3.30147E-10
 -1       328 7.94131E+03-5.24388E+03-2.01657E+04 1.38283E+05 9.89075E-11-6.70980E-10
 -1       329 1.55438E+04-1.56163E+04-3.83731E+04 1.14480E+05-2.81943E-11 2.61934E-10
 -1       330-1.07056E+04-6.39104E+03-2.62584E+04 4.21700E+04-6.18456E-11 7.36236E-10
 -1       331-3.53684E+03-1.15796E+04-1.32524E+04 5.11083E+04-2.90754E-11 5.62068E-10
 -1       332-2.63944E+02-8.66554E+03-5.57098E+03 4.21813E+04 1.04649E-10-5.45697E-12
 -1       333 1.91833E+02-8.90084E+03-1.97832E+03 5.09214E+04-1.67347E-10-5.85715E-10
 -1       334 7.93736E+02-8.97389E+03 6.91871E+02 4.23453E+04 1.36424E-11-1.17052E-09
 -1       335 2.98816E+05 2.27301E+05 2.77558E+04 2.51903E+05-3.54703E-11 2.16460E-10
 -1       336 2.92617E+05 2.31418E+05 1.44411E+04 2.60143E+05-2.70120E-10-5.96174E-10
 -1       337 2.96559E+05 2.20950E+05 6.95301E+03 2.58230E+05-1.07320E-10-6.40284E-10
 -1       338 2.89461E+05 2.28325E+05 4.45174E+03 2.60727E+05 8.54925E-11-3.76531E-10
 -1       339 2.96501E+05 2.20717E+05 3.93635E+03 2.58483E+05-2.09184E-11-2.29761E-10
 -1       340 2.89535E+05 2.28415E+05 5.72696E+03 2.60731E+05 1.44155E-10-1.15506E-10
 -1       341 2.96545E+05 2.21026E+05 1.00696E+04 2.58047E+05-1.67347E-10 7.82165E-11
 -1       342 2.94083E+05 2.33364E+05 2.17076E+04 2.59887E+05-3.50155E-11 1.01863E-10
 -1       343 3.00171E+05 2.30423E+05 4.20979E+04 2.48317E+05 7.09406E-11-2.49202E-10
 -1       344 5.85071E+05 8.43773E+03 2.12041E+04 9.94264E+04 4.54747E-11 1.03864E-09
 -1       345 5.89142E+05 2.81539E+03 1.15344E+04 1.19791E+05-7.27596E-11-8.00355E-11
 -1       346 5.86718E+05 2.08754E+02 6.53151E+03 9.91386E+04-5.91172E-11-4.98403E-10
 -1       347 5.87325E+05 2.25975E+02 6.06062E+03 1.20079E+05 1.80307E-10 3.43789E-10
 -1       348 5.86612E+05 3.73660E+02 8.27378E+03 9.91323E+04 3.91083E-11-1.33696E-10
 -1       349 5.90060E+05 4.23512E+03 1.63693E+04 1.19889E+05-2.16460E-10-1.69894E-09
 -1       350 5.84021E+05 1.25808E+04 3.10725E+04 9.93333E+04-3.91083E-11-3.59250E-10
 -1       351-2.13066E+04-1.23894E+05-5.35606E+04 1.44059E+05 1.92813E-10-1.80353E-09
 -1       352-7.07799E+03-1.34608E+05-2.95027E+04 1.73968E+05 2.47383E-10-1.02341E-09
 -1       353-7.84987E+02-1.28365E+05-1.74455E+04 1.43821E+05 1.35515E-10-1.31308E-11
 -1       354-3.32790E+03-1.31947E+05-1.82020E+04 1.73946E+05 7.45786E-11-2.23736E-10
 -1       355-9.76075E+03-1.26521E+05-2.65490E+04 1.44076E+05 3.94266E-10-8.62201E-10
 -1       356 5.11012E+05 2.94988E+05 4.22092E+04 3.70402E+05-1.37334E-10 1.10958E-10
 -1       357 5.12209E+05 2.90629E+05 2.19607E+04 3.79844E+05 2.20325E-10 4.41105E-11
 -1       358 5.07364E+05 2.85584E+05 1.05798E+04 3.80145E+05-3.12070E-11 1.57979E-09
 -1       359 5.07692E+05 2.85669E+05 6.77531E+03 3.80704E+05-1.11413E-11 2.59661E-10
 -1       360 5.07277E+05 2.85245E+05 6.00099E+03 3.80570E+05 1.18234E-11-7.12816E-11
 -1       361 5.07838E+05 2.85798E+05 8.73611E+03 3.80741E+05-2.65118E-10 4.04725E-11
 -1       362 5.07358E+05 2.85704E+05 1.53659E+04 3.79920E+05-3.54703E-11-8.41283E-10
 -1       363 5.14692E+05 2.93441E+05 3.31262E+04 3.79491E+05-6.54836E-11-4.62023E-10
 -1       364 5.12981E+05 2.99959E+05 6.42475E+04 3.65045E+05-2.18279E-11-1.34605E-10
 -1       365 5.94008E+05 1.29954E+04 3.22960E+04 5.66327E+04-6.12999E-10 7.02130E-10
 -1       366 6.00300E+05 4.34743E+03 1.73651E+04 6.82452E+04 1.49385E-09 7.10486E-10
 -1       367 5.96694E+05 3.44043E+02 9.47439E+03 5.64745E+04 3.51520E-09 3.25599E-10
 -1       368 5.97594E+05 2.85221E+02 8.20414E+03 6.84014E+04 1.99447E-09 3.66526E-10
 -1       369 5.96642E+05 4.38568E+02 1.05775E+04 5.64723E+04 3.45949E-10 2.04636E-10
 -1       370 6.00920E+05 5.22737E+03 2.04284E+04 6.82836E+04-9.60426E-10 3.45608E-10
 -1       371 5.93387E+05 1.55935E+04 3.85462E+04 5.65950E+04-2.08092E-09-1.58252E-10
 -1       372-2.77284E+04-3.71068E+05-7.04699E+04 9.96299E+04-4.32919E-10 1.51886E-10
 -1       373-9.48642E+03-3.85103E+05-4.09541E+04 1.20295E+05-5.16593E-10-4.60432E-10
 -1       374-1.49708E+03-3.76627E+05-2.81748E+04 9.94481E+04-5.62068E-10-3.29919E-10
 -1       375-7.86550E+03-3.83977E+05-3.60975E+04 1.20319E+05-3.86535E-10-3.64707E-10
 -1       376-2.27510E+04-3.72225E+05-5.88614E+04 9.96064E+04-3.27418E-10-7.99901E-10
 -1       377 4.15361E+05 2.14300E+05 3.42729E+04 2.84090E+05 4.36557E-11 8.73115E-11
 -1       378 4.19637E+05 2.07454E+05 1.77931E+04 2.90792E+05-2.24190E-10 3.24690E-10
 -1       379 4.12330E+05 2.06730E+05 8.49514E+03 2.92020E+05 3.36513E-11 4.42469E-10
 -1       380 4.16030E+05 2.03356E+05 5.29805E+03 2.91464E+05 1.78943E-10 8.15817E-10
 -1       381 4.12261E+05 2.06466E+05 4.46869E+03 2.92366E+05-1.68711E-10 2.61139E-10
 -1       382 4.16101E+05 2.03418E+05 6.25272E+03 2.91482E+05-1.79227E-10-2.45791E-10
 -1       383 4.12327E+05 2.06789E+05 1.08260E+04 2.91912E+05-1.63709E-11 9.43601E-11
 -1       384 4.20862E+05 2.08812E+05 2.32315E+04 2.90619E+05-7.48059E-11 6.87237E-10
 -1       385 4.16308E+05 2.16733E+05 4.50055E+04 2.81488E+05-8.18545E-11 6.67569E-10
 -1       386 4.84316E+05 1.09745E+04 2.72321E+04 3.44856E+04 1.00499E-10 1.85537E-10
 -1       387 4.89632E+05 3.67170E+03 1.46084E+04 4.15615E+04-9.68612E-11-4.54975E-10
 -1       388 4.86603E+05 2.92185E+02 7.90751E+03 3.43917E+04-1.16415E-10 5.33760E-10
 -1       389 4.87352E+05 2.30033E+02 6.74177E+03 4.16548E+04-1.98497E-10-1.84627E-10
 -1       390 4.86574E+05 3.47574E+02 8.57178E+03 3.43904E+04 1.02318E-11-1.11413E-10
 -1       391 4.90011E+05 4.19862E+03 1.64533E+04 4.15810E+04-1.21304E-10 5.18412E-11
 -1       392 4.83949E+05 1.25355E+04 3.09966E+04 3.44667E+04 2.97860E-11 1.17325E-10
 -1       393-2.34856E+04-3.31535E+05-5.98826E+04 5.89819E+04-1.38243E-10-5.30235E-10
 -1       394-8.09922E+03-3.43444E+05-3.53022E+04 7.12037E+04-2.27033E-10 6.27551E-11
 -1       395-1.38155E+03-3.36170E+05-2.51666E+04 5.88704E+04-1.50067E-10 2.91607E-10
 -1       396-7.50393E+03-3.43034E+05-3.35222E+04 7.12275E+04-2.56478E-10-4.27463E-10
 -1       397-2.16590E+04-3.31963E+05-5.56274E+04 5.89597E+04-1.76442E-10-4.59522E-10
 -1       398 3.20470E+05 1.62619E+05 2.57753E+04 2.17654E+05-1.02773E-10 7.64885E-10
 -1       399 3.24086E+05 1.57070E+05 1.33602E+04 2.22578E+05 1.80080E-10 8.54016E-10
 -1       400 3.18179E+05 1.56937E+05 6.33486E+03 2.23622E+05 2.79670E-10 4.17003E-10
 -1       401 3.21380E+05 1.53973E+05 3.86927E+03 2.23076E+05 4.47926E-11-1.22782E-11
 -1       402 3.18130E+05 1.56743E+05 3.13215E+03 2.23882E+05-2.00657E-11-2.42153E-10
 -1       403 3.21407E+05 1.53997E+05 4.22712E+03 2.23083E+05 8.01492E-11-1.12664E-10
 -1       404 3.18178E+05 1.56960E+05 7.20849E+03 2.23581E+05-1.73713E-10 5.46720E-10
 -1       405 3.24548E+05 1.57574E+05 1.53980E+04 2.22512E+05 4.00178E-11-3.36058E-10
 -1       406 3.20821E+05 1.63535E+05 2.97978E+04 2.16679E+05-5.18412E-11 1.54614E-10
 -1       407 3.85523E+05 8.36861E+03 2.07569E+04 1.87432E+04-1.12777E-10 5.27507E-10
 -1       408 3.89576E+05 2.79923E+03 1.11291E+04 2.25911E+04-7.35554E-11-3.12923E-10
 -1       409 3.87272E+05 2.22191E+02 6.01403E+03 1.86930E+04-2.30784E-11-4.11490E-10
 -1       410 3.87841E+05 1.71912E+02 5.11037E+03 2.26412E+04 2.49770E-10 8.20819E-11
 -1       411 3.87253E+05 2.60138E+02 6.47820E+03 1.86923E+04 7.98650E-11 2.68756E-10
 -1       412 3.89844E+05 3.16602E+03 1.24185E+04 2.26003E+04 3.18323E-12 3.19915E-10
 -1       413 3.85270E+05 9.45722E+03 2.33874E+04 1.87343E+04-5.11591E-11 5.00222E-10
 -1       414-1.62615E+04-1.97410E+05-4.15742E+04 3.72892E+04-2.00089E-11-1.52795E-10
 -1       415-5.62786E+03-2.05680E+05-2.47518E+04 4.50036E+04-5.92308E-11 2.78987E-10
 -1       416-1.00116E+03-2.00593E+05-1.80686E+04 3.72154E+04 1.45519E-11-6.69957E-10
 -1       417-5.59516E+03-2.05662E+05-2.46596E+04 4.50261E+04-7.73070E-12-7.32200E-10
 -1       418-1.61635E+04-1.97438E+05-4.13534E+04 3.72679E+04-3.63798E-11-4.08136E-10
 -1       419 2.23686E+05 1.16093E+05 1.51793E+04 1.54840E+05-3.72893E-11-4.32010E-11
 -1       420 2.25718E+05 1.12918E+05 7.87034E+03 1.57765E+05 8.06040E-11 1.71724E-10
 -1       421 2.22333E+05 1.12750E+05 3.73662E+03 1.58355E+05-5.13865E-11-4.28940E-10
 -1       422 2.24128E+05 1.11092E+05 2.29198E+03 1.58058E+05 7.49765E-11-2.46018E-10
 -1       423 2.22304E+05 1.12636E+05 1.87117E+03 1.58508E+05-7.38964E-11-7.40101E-11
 -1       424 2.24147E+05 1.11108E+05 2.54505E+03 1.58062E+05 6.43752E-11-5.91314E-11
 -1       425 2.22332E+05 1.12767E+05 4.35465E+03 1.58326E+05 3.29692E-11-1.27216E-10
 -1       426 2.26054E+05 1.13266E+05 9.31217E+03 1.57714E+05-8.94715E-11-4.55657E-10
 -1       427 2.23924E+05 1.16750E+05 1.80246E+04 1.54152E+05-3.31966E-11-4.14730E-10
 -1       428 3.50566E+05 7.98740E+03 1.98038E+04 7.51430E+03-1.07434E-10-1.87356E-10
 -1       429 3.54437E+05 2.67123E+03 1.06087E+04 9.05680E+03 3.12070E-11-7.27596E-11
 -1       430 3.52239E+05 2.11986E+02 5.71546E+03 7.49381E+03 4.22347E-11 1.37561E-10
 -1       431 3.52780E+05 1.60951E+02 4.82728E+03 9.07720E+03 8.93507E-11 2.24134E-10
 -1       432 3.52224E+05 2.41942E+02 6.08505E+03 7.49355E+03 7.52323E-11 2.84217E-10
 -1       433 3.54651E+05 2.96281E+03 1.16355E+04 9.06103E+03-9.34790E-11 9.54969E-12
 -1       434 3.50366E+05 8.85334E+03 2.18981E+04 7.51023E+03-1.77920E-10 2.54659E-11
 -1       435-1.01087E+04-7.75527E+04-2.58328E+04 9.25656E+03 1.09139E-11 7.42034E-10
 -1       436-3.50307E+03-8.26912E+04-1.53759E+04 1.11485E+04 5.82077E-11 9.15406E-10
 -1       437-6.27110E+02-7.95264E+04-1.12171E+04 9.22805E+03 2.09752E-11 5.10681E-10
 -1       438-3.47657E+03-8.26741E+04-1.52979E+04 1.11745E+04 5.36602E-11-6.00181E-10
 -1       439-1.00279E+04-7.75728E+04-2.56464E+04 9.23143E+03-2.63753E-11-8.26645E-10
 -1       440 1.37425E+05 6.05768E+04 3.62985E+03 9.03843E+04-5.68434E-13-2.16460E-10
 -1       441 1.39784E+05 5.79352E+04 1.90269E+03 9.05279E+04 3.52429E-11-4.06558E-10
 -1       442 1.37071E+05 5.98076E+04 9.44573E+02 9.12302E+04 2.56932E-11-9.65912E-11
 -1       443 1.39438E+05 5.74689E+04 6.57127E+02 9.05904E+04 7.62839E-11 7.27312E-11
 -1       444 1.37058E+05 5.97787E+04 6.64103E+02 9.12668E+04 6.99174E-12 4.02451E-11
 -1       445 1.39469E+05 5.74946E+04 1.05964E+03 9.05974E+04-1.39494E-10 3.38787E-11
 -1       446 1.37069E+05 5.98331E+04 1.92729E+03 9.11840E+04 9.17453E-11 2.62389E-10
 -1       447 1.40310E+05 5.84977E+04 4.19605E+03 9.04505E+04 5.57066E-12 3.59137E-10
 -1       448 1.37813E+05 6.16125E+04 8.15484E+03 8.92885E+04-5.77529E-11 2.79670E-10
 -1       449 3.08387E+05 7.07690E+03 1.75058E+04 1.57905E+04 8.29914E-12-4.45652E-11
 -1       450 3.11809E+05 2.36930E+03 9.30353E+03 1.90437E+04 3.38787E-11-3.75167E-10
 -1       451 3.09870E+05 1.94244E+02 4.86865E+03 1.57530E+04 2.83649E-11 1.76215E-12
 -1       452 3.10312E+05 1.30436E+02 3.86801E+03 1.90808E+04-5.00933E-12-1.38925E-10
 -1       453 3.09882E+05 1.71347E+02 4.58670E+03 1.57532E+04 1.16984E-10 4.43833E-10
 -1       454 3.11645E+05 2.14676E+03 8.52022E+03 1.90409E+04 1.90994E-10 2.85581E-10
 -1       455 3.08540E+05 6.41619E+03 1.59081E+04 1.57933E+04 3.09228E-11 2.06455E-10
 -1       456-1.02079E+04-1.00466E+05-2.59859E+04-1.08275E+04-6.36646E-12-3.92617E-10
 -1       457-3.52827E+03-1.05629E+05-1.52780E+04-1.30870E+04 2.72848E-11 9.57971E-11
 -1       458-6.05828E+02-1.02473E+05-1.08198E+04-1.08157E+04 1.51203E-11 1.41711E-10
 -1       459-3.20661E+03-1.05402E+05-1.43095E+04-1.30744E+04 7.27596E-11 6.05382E-11
 -1       460-9.21773E+03-1.00692E+05-2.36707E+04-1.08397E+04 4.00178E-11-3.61524E-11
 -1       461 1.49221E+05 5.30117E+04 6.09524E+03 8.87125E+04 1.40972E-10-1.34889E-10
 -1       462 1.53598E+05 4.81709E+04 3.15552E+03 8.88428E+04-2.27374E-11-3.41515E-10
 -1       463 1.48636E+05 5.17109E+04 1.48707E+03 9.01334E+04 8.50378E-11 2.14868E-11
 -1       464 1.53001E+05 4.73923E+04 8.91427E+02 8.89445E+04 9.39053E-11-2.85468E-10
 -1       465 1.48621E+05 5.16689E+04 6.93439E+02 9.01958E+04 1.82752E-11-1.38925E-10
 -1       466 1.53001E+05 4.73946E+04 9.01392E+02 8.89471E+04 3.28555E-11 1.02773E-10
 -1       467 1.48639E+05 5.17099E+04 1.51144E+03 9.01351E+04-3.06954E-11-5.54792E-11
 -1       468 1.53588E+05 4.82089E+04 3.21199E+03 8.88532E+04 6.75300E-11 1.16188E-10
 -1       469 1.49258E+05 5.30143E+04 6.20752E+03 8.86847E+04 1.36424E-10 3.18096E-10
 -1       470 3.60660E+04-5.10524E+03-1.27018E+04 3.75135E+04-1.11413E-11-1.69621E-10
 -1       471 3.35556E+04-1.70050E+03-6.87696E+03 4.52826E+04 2.32717E-10 3.54703E-11
 -1       472 3.49908E+04-1.24381E+02-3.84620E+03 3.74387E+04-4.03531E-10-1.04137E-10
 -1       473 3.45854E+04-1.09062E+02-3.48925E+03 4.53547E+04-1.25510E-10 2.52840E-10
 -1       474 3.50295E+04-1.95602E+02-4.68507E+03 3.74418E+04 3.09228E-11-1.31877E-10
 -1       475 3.30814E+04-2.36866E+03-9.20698E+03 4.52435E+04-7.36691E-11-6.01005E-10
 -1       476 3.65354E+04-7.07885E+03-1.74548E+04 3.75485E+04 5.82077E-11-1.98270E-10
 -1       477-1.32760E+04-1.57409E+05-3.38639E+04 1.54804E+04 1.81899E-12 9.43601E-12
 -1       478-4.59487E+03-1.64136E+05-2.00311E+04 1.87397E+04 3.45608E-11 1.16358E-10
 -1       479-8.06027E+02-1.60008E+05-1.43972E+04 1.54760E+04 1.30740E-11-1.82581E-10
 -1       480-4.36668E+03-1.63971E+05-1.93397E+04 1.86953E+04 8.70841E-11 2.85127E-10
 -1       481-1.25719E+04-1.57566E+05-3.22115E+04 1.55230E+04-5.27507E-11-1.64391E-10
 -1       482 3.71488E+05 1.62149E+05 3.74857E+04 2.31456E+05-3.29237E-10-3.87445E-10
 -1       483 3.79666E+05 1.51155E+05 1.92313E+04 2.37788E+05 1.88265E-10 2.67846E-10
 -1       484 3.68170E+05 1.53867E+05 8.72337E+03 2.40151E+05 2.67164E-10 7.05768E-10
 -1       485 3.75690E+05 1.46646E+05 4.57892E+03 2.38496E+05 5.21254E-11 2.06455E-10
 -1       486 3.68140E+05 1.53620E+05 2.47119E+03 2.40541E+05-2.36923E-10-1.66892E-10
 -1       487 3.75486E+05 1.46476E+05 1.81042E+03 2.38464E+05-2.03727E-10-3.31056E-10
 -1       488 3.68199E+05 1.53683E+05 1.96066E+03 2.40493E+05 1.02318E-10 3.31966E-10
 -1       489 3.75986E+05 1.47382E+05 3.45889E+03 2.38392E+05-2.21917E-10-1.27329E-11
 -1       490 3.68933E+05 1.54935E+05 6.35731E+03 2.39017E+05-5.02041E-10-2.61480E-10
 -1       498 7.53515E+03 3.79253E+05 1.78431E+04 1.64012E+05 2.36469E-11 8.66294E-11
 -1       499 2.59953E+03 3.82696E+05 8.40057E+03 1.98278E+05 9.58607E-10 1.33923E-10
 -1       500 1.95299E+02 3.80917E+05 2.27268E+03 1.63864E+05 5.27507E-11-1.45519E-10
 -1       501-1.02023E+03 3.80426E+05-2.17789E+03 1.98029E+05-9.09495E-11 2.98314E-10
 -1       502-3.48111E+03 3.82049E+05-7.46845E+03 1.64261E+05 1.38243E-10-2.27374E-10
 -1       580-1.08420E+05-3.50297E+03-8.73261E+03 4.47798E+04-5.63887E-11 5.48084E-10
 -1       581-1.10130E+05-1.18925E+03-4.95065E+03 5.39345E+04-8.77662E-11 2.45564E-11
 -1       582-1.09162E+05-9.81604E+01-3.19711E+03 4.46454E+04-6.91216E-11-3.23325E-10
 -1       583-1.09539E+05-1.44497E+02-3.60082E+03 5.40762E+04-1.23919E-10-2.78305E-10
 -1       584-1.09076E+05-2.86437E+02-5.60767E+03 4.46405E+04 6.72173E-11 3.38787E-11
 -1       585-1.11556E+05-3.07800E+03-1.16499E+04 5.39977E+04 7.18501E-11-5.15570E-10
 -1       586-1.07144E+05-9.13311E+03-2.23951E+04 4.47197E+04-6.20730E-11-5.91172E-10
 -1       587-5.98923E+03-1.68527E+05-1.48934E+04 1.84649E+04-4.63842E-11 2.64890E-11
 -1       588-2.01511E+03-1.71466E+05-8.00127E+03 2.23160E+04 2.13248E-10-4.93259E-10
 -1       589-2.25764E+02-1.69770E+05-4.34907E+03 1.84345E+04 1.31138E-10-5.05395E-10
 -1       590-6.49278E+02-1.70503E+05-3.89174E+03 2.23077E+04-1.08685E-10 2.29875E-10
 -1       591-1.78569E+03-1.69488E+05-5.06828E+03 1.84707E+04-9.97602E-11 6.54836E-10
 -1       592 1.05410E+05 7.68260E+04 2.08214E+04 8.19217E+04 5.13865E-11-2.08274E-10
 -1       593 1.04254E+05 7.64344E+04 1.07724E+04 8.71025E+04 1.62174E-10-8.59472E-11
 -1       594 1.03652E+05 7.21406E+04 5.06909E+03 8.67145E+04-1.45519E-11 5.21595E-10
 -1       595 1.01969E+05 7.40292E+04 3.02421E+03 8.75295E+04-1.94291E-10 4.19277E-10
 -1       596 1.03622E+05 7.19799E+04 2.32880E+03 8.69211E+04-6.43468E-11 7.50333E-11
 -1       597 1.01960E+05 7.40317E+04 2.99687E+03 8.75281E+04 2.00998E-10-6.59206E-11
 -1       598 1.03655E+05 7.21346E+04 5.00312E+03 8.67127E+04 3.29692E-11-9.77707E-12
 -1       599 1.04150E+05 7.64620E+04 1.06180E+04 8.71208E+04-4.72937E-11 4.76689E-10
 -1       600 1.05443E+05 7.66927E+04 2.05162E+04 8.19701E+04-5.09317E-11 2.72848E-12
 -1       601 2.53967E+04-3.55629E+03-8.74526E+03 7.82644E+04-1.19144E-10-3.13321E-10
 -1       602 2.36439E+04-1.19554E+03-4.78971E+03 9.43177E+04-2.40107E-10-1.03773E-09
 -1       603 2.45904E+04-9.53789E+01-2.79488E+03 7.80466E+04-1.81899E-10-3.49701E-10
 -1       604 2.42658E+04-8.62152E+01-2.72265E+03 9.45428E+04 2.23281E-10-1.85537E-10
 -1       605 2.46143E+04-1.69814E+02-3.86703E+03 7.80414E+04 7.76481E-11 3.38332E-10
 -1       606 2.29737E+04-2.01766E+03-7.77115E+03 9.43853E+04 1.45974E-10-6.65750E-10
 -1       607 2.59235E+04-6.03689E+03-1.48236E+04 7.82021E+04 2.40561E-10-3.08319E-10
 -1       608-7.97831E+03-8.20531E+04-1.99504E+04 7.88354E+04 7.63976E-11 4.67480E-10
 -1       609-2.63445E+03-8.60294E+04-1.07357E+04 9.52213E+04 1.64164E-10-1.12414E-09
 -1       610-2.53578E+02-8.37364E+04-5.87554E+03 7.87146E+04 2.27828E-10-1.86321E-09
 -1       611-8.43260E+02-8.47522E+04-5.33070E+03 9.51912E+04 4.36557E-11-3.54703E-10
 -1       612-2.45920E+03-8.33017E+04-7.02951E+03 7.88631E+04 6.83258E-11 7.71706E-10
 -1       613 2.58904E+05 1.68768E+05 3.18918E+04 1.96087E+05 1.70076E-10-7.58519E-10
 -1       614 2.57570E+05 1.67726E+05 1.65428E+04 2.03886E+05 2.64322E-11-7.20320E-10
 -1       615 2.56186E+05 1.61621E+05 7.86913E+03 2.03435E+05 5.38876E-11-3.05135E-10
 -1       616 2.54101E+05 1.64017E+05 4.85400E+03 2.04538E+05 1.94973E-10 5.22618E-10
 -1       617 2.56131E+05 1.61370E+05 4.00841E+03 2.03753E+05 7.50333E-12-6.36760E-10
 -1       618 2.54146E+05 1.64064E+05 5.50779E+03 2.04549E+05-2.98883E-10-5.05509E-10
 -1       619 2.56185E+05 1.61658E+05 9.46441E+03 2.03355E+05 1.51886E-10 3.87445E-10
 -1       620 2.58353E+05 1.68705E+05 2.02648E+04 2.03773E+05 4.10182E-10 8.70159E-10
 -1       621 2.59596E+05 1.70386E+05 3.92384E+04 1.94283E+05-3.63798E-10 7.63976E-11
 -1       622 2.42400E+05 3.11182E+03 7.76387E+03 7.42447E+04-1.75532E-10-2.27374E-11
 -1       623 2.43880E+05 1.04855E+03 4.11762E+03 8.94894E+04-1.38243E-10-6.84395E-10
 -1       624 2.42996E+05 9.31435E+01 2.12771E+03 7.40444E+04-1.43700E-10-2.46018E-10
 -1       625 2.43161E+05 7.55458E+01 1.64525E+03 8.96910E+04 9.00968E-11-3.00133E-11
 -1       626 2.42995E+05 8.09882E+01 1.88885E+03 7.40418E+04-2.43290E-11 4.41105E-11
 -1       627 2.43714E+05 8.73937E+02 3.45252E+03 8.95307E+04-8.86757E-11 3.28328E-10
 -1       628 2.42498E+05 2.57022E+03 6.40870E+03 7.42055E+04-1.08230E-10 4.33715E-10
 -1       629-1.56141E+04-2.02712E+05-3.94613E+04 1.01357E+05-4.85670E-10-1.00545E-09
 -1       630-5.27255E+03-2.10578E+05-2.23581E+04 1.22413E+05 2.72848E-12-1.16233E-09
 -1       631-7.21576E+02-2.05904E+05-1.43745E+04 1.01194E+05-3.50155E-10 1.79170E-10
 -1       632-3.47928E+03-2.09302E+05-1.69502E+04 1.22393E+05-3.21961E-10 4.94765E-10
 -1       633-1.00912E+04-2.03964E+05-2.65344E+04 1.01375E+05-3.65617E-10 9.49512E-10
 -1       634 3.34643E+05 1.92832E+05 3.58650E+04 2.38834E+05-3.84716E-10-3.63798E-11
 -1       635 3.35913E+05 1.88884E+05 1.85955E+04 2.46794E+05 5.48880E-10 3.27236E-09
 -1       636 3.31531E+05 1.84850E+05 8.83012E+03 2.47119E+05-4.57248E-10 7.83984E-10
 -1       637 3.32072E+05 1.84655E+05 5.41766E+03 2.47514E+05 6.31644E-10 3.68118E-10
 -1       638 3.31469E+05 1.84575E+05 4.42570E+03 2.47481E+05 4.04725E-10-6.04928E-10
 -1       639 3.32116E+05 1.84696E+05 6.02215E+03 2.47526E+05 2.81034E-10-4.19163E-10
 -1       640 3.31531E+05 1.84886E+05 1.03063E+04 2.47049E+05 1.95541E-11 1.73713E-10
 -1       641 3.36658E+05 1.89772E+05 2.20392E+04 2.46692E+05 3.31966E-11 4.92946E-10
 -1       642 3.35271E+05 1.94344E+05 4.26619E+04 2.37176E+05-3.45608E-11 2.72848E-10
 -1       643 2.97921E+05 4.91311E+03 1.21951E+04 5.99841E+04-2.54659E-11-2.72848E-11
 -1       644 3.00278E+05 1.65255E+03 6.49980E+03 7.23113E+04-3.06500E-10 1.22782E-11
 -1       645 2.98915E+05 1.42165E+02 3.43113E+03 5.98279E+04-5.22959E-11-6.73936E-10
 -1       646 2.99213E+05 1.10678E+02 2.77917E+03 7.24676E+04-1.84230E-10-4.27008E-10
 -1       647 2.98913E+05 1.39422E+02 3.35923E+03 5.98264E+04-2.83990E-10 3.08773E-10
 -1       648 3.00225E+05 1.60174E+03 6.29940E+03 7.23320E+04-1.67574E-10 1.76442E-10
 -1       649 2.97946E+05 4.75252E+03 1.17872E+04 5.99644E+04 6.23004E-11 2.41016E-10
 -1       650-1.88868E+04-2.66332E+05-4.80049E+04 8.62635E+04-2.18279E-10 7.13044E-10
 -1       651-6.46134E+03-2.75888E+05-2.79038E+04 1.04186E+05-1.87242E-10-4.17913E-10
 -1       652-1.02361E+03-2.70110E+05-1.92094E+04 8.61248E+04-1.57343E-10-9.06653E-11
 -1       653-5.37527E+03-2.75114E+05-2.46275E+04 1.04170E+05-2.27374E-10 6.97128E-10
 -1       654-1.55419E+04-2.67090E+05-4.01741E+04 8.62780E+04-3.89264E-10-2.19188E-10
 -1       655 3.42995E+05 1.88094E+05 3.48758E+04 2.39219E+05-7.63976E-11 3.28328E-10
 -1       656 3.45430E+05 1.83050E+05 1.80557E+04 2.46609E+05-3.09228E-11-6.45741E-10
 -1       657 3.39943E+05 1.80358E+05 8.52067E+03 2.47285E+05 1.57343E-10 9.09495E-12
 -1       658 3.41719E+05 1.78908E+05 5.12686E+03 2.47298E+05 1.50465E-10 4.94083E-10
 -1       659 3.39885E+05 1.80096E+05 4.02240E+03 2.47638E+05-4.45084E-11-1.54955E-10
 -1       660 3.41729E+05 1.78919E+05 5.27088E+03 2.47301E+05 1.96792E-10 4.77826E-10
 -1       661 3.39944E+05 1.80366E+05 8.87242E+03 2.47269E+05-1.02318E-10 5.46152E-10
 -1       662 3.45597E+05 1.83273E+05 1.88763E+04 2.46590E+05 9.27685E-11 4.83169E-10
 -1       663 3.43158E+05 1.88442E+05 3.64952E+04 2.38822E+05-2.08274E-10-2.61934E-10
 -1       664 2.29737E+05 1.86715E+03 4.66896E+03 4.35477E+04-3.31966E-11-1.14596E-10
 -1       665 2.30625E+05 6.28809E+02 2.54833E+03 5.25077E+04-6.18456E-11 4.53383E-10
 -1       666 2.30107E+05 5.16629E+01 1.46044E+03 4.34386E+04-1.03228E-10 2.53294E-10
 -1       667 2.30239E+05 5.57864E+01 1.38296E+03 5.26170E+04 2.44881E-10 3.91992E-10
 -1       668 2.30088E+05 8.93683E+01 1.91848E+03 4.34381E+04 5.70708E-11 1.44155E-10
 -1       669 2.30888E+05 9.91304E+02 3.82073E+03 5.25142E+04 7.36691E-11-3.50155E-10
 -1       670 2.29486E+05 2.94195E+03 7.26456E+03 4.35418E+04 1.54614E-11 9.94760E-11
 -1       671-1.70272E+04-2.18124E+05-4.34958E+04 7.68302E+04 1.09139E-11-9.36780E-11
 -1       672-5.85790E+03-2.26789E+05-2.57403E+04 9.27849E+04 1.25510E-10-4.99199E-10
 -1       673-1.00018E+03-2.21488E+05-1.85271E+04 7.67054E+04 7.73070E-11 2.33058E-12
 -1       674-5.58857E+03-2.26594E+05-2.49248E+04 9.27752E+04-3.45608E-11 7.68523E-10
 -1       675-1.61965E+04-2.18310E+05-4.15469E+04 7.68393E+04-2.91038E-11 1.50067E-11
 -1       676 3.36279E+05 1.93848E+05 3.43630E+04 2.40749E+05-1.23691E-10-5.30235E-10
 -1       677 3.37413E+05 1.90141E+05 1.77626E+04 2.48402E+05-4.54747E-11-2.52840E-10
 -1       678 3.33278E+05 1.86220E+05 8.32688E+03 2.48698E+05 2.09184E-11 1.42563E-10
 -1       679 3.33744E+05 1.86065E+05 4.90480E+03 2.49079E+05 8.29914E-11 4.99909E-10
 -1       680 3.33226E+05 1.85966E+05 3.67188E+03 2.49046E+05 5.96856E-13-4.15461E-10
 -1       681 3.33721E+05 1.86044E+05 4.58667E+03 2.49073E+05-2.82569E-10-3.77241E-10
 -1       682 3.33279E+05 1.86200E+05 7.55031E+03 2.48734E+05 2.04636E-12 1.99634E-10
 -1       683 3.37007E+05 1.89688E+05 1.59508E+04 2.48460E+05 1.82354E-10 3.29919E-10
 -1       684 3.35963E+05 1.93038E+05 3.07872E+04 2.41618E+05 7.00311E-11 7.82165E-11
 -1       685 2.22178E+05 2.63311E+03 6.57693E+03 1.64424E+04 1.22782E-11 6.59384E-11
 -1       686 2.23451E+05 8.79001E+02 3.60125E+03 1.98128E+04 9.43601E-12 1.58394E-10
 -1       687 2.22724E+05 6.40212E+01 2.08996E+03 1.63954E+04-2.36469E-11 4.54747E-11
 -1       688 2.22930E+05 6.77607E+01 2.02015E+03 1.98605E+04-2.90470E-11-9.29958E-11
 -1       689 2.22692E+05 1.25899E+02 2.84819E+03 1.63944E+04-3.91083E-11 2.91266E-10
 -1       690 2.23889E+05 1.47805E+03 5.70770E+03 1.98279E+04-4.67253E-11 8.09450E-11
 -1       691 2.21765E+05 4.41092E+03 1.08738E+04 1.64283E+04-4.72937E-11-1.50976E-10
 -1       692-8.03176E+03-3.07687E+04-2.08543E+04 7.23514E+04-1.18234E-11 3.50155E-10
 -1       693-2.77838E+03-3.49537E+04-1.29491E+04 8.73361E+04 2.10093E-10 4.36557E-11
 -1       694-5.46554E+02-3.23255E+04-1.03792E+04 7.22205E+04 2.68301E-11-3.11331E-10
 -1       695-3.60079E+03-3.55419E+04-1.54327E+04 8.73549E+04 1.35969E-10-7.83302E-11
 -1       696-1.05664E+04-3.01968E+04-2.67910E+04 7.23332E+04-6.91216E-11-1.63709E-11
 -1       697 1.66388E+05 1.13350E+05 1.19841E+04 1.32891E+05 9.54969E-12-1.93268E-10
 -1       698 1.64365E+05 1.14472E+05 6.25680E+03 1.36255E+05 6.98748E-11 2.09980E-10
 -1       699 1.65359E+05 1.10673E+05 3.05652E+03 1.35652E+05 1.07491E-10 9.03242E-11
 -1       700 1.63076E+05 1.13076E+05 2.03717E+03 1.36506E+05 6.57110E-11-1.27955E-10
 -1       701 1.65331E+05 1.10572E+05 1.92962E+03 1.35773E+05 7.53744E-11-2.00771E-10
 -1       702 1.63149E+05 1.13133E+05 2.95152E+03 1.36523E+05 5.63318E-11 2.13277E-10
 -1       703 1.65354E+05 1.10733E+05 5.28833E+03 1.35551E+05 2.31751E-10-2.90584E-10
 -1       704 1.65594E+05 1.15717E+05 1.14644E+04 1.36076E+05-4.26184E-11 3.93356E-11
 -1       705 1.67243E+05 1.15735E+05 2.22616E+04 1.30419E+05-3.58796E-10-5.45697E-11
 -1       706 3.33619E+05 9.14201E+03 2.26118E+04 1.51722E+03-1.19371E-11 8.54925E-11
 -1       707 3.38046E+05 3.05903E+03 1.20120E+04 1.78341E+03 1.44610E-10 2.15095E-10
 -1       708 3.35538E+05 2.49411E+02 6.27685E+03 1.49477E+03 8.45830E-11-1.43473E-10
 -1       709 3.36113E+05 1.65176E+02 4.97064E+03 1.80801E+03-8.76526E-11-2.34323E-10
 -1       710 3.35554E+05 2.17001E+02 5.87411E+03 1.49200E+03 2.62617E-11 2.26464E-10
 -1       711 3.37812E+05 2.74174E+03 1.08931E+04 1.82548E+03 1.13289E-10 1.01295E-10
 -1       712 3.33836E+05 8.19896E+03 2.03296E+04 1.47660E+03 4.28599E-11 8.64020E-11
 -1       713-4.84950E+03 2.91571E+03-1.21239E+04-3.27075E+03-4.54747E-12-2.00771E-10
 -1       714-1.65627E+03 5.11723E+02-6.71736E+03-4.04404E+03 2.02931E-10 2.71939E-10
 -1       715-2.28994E+02 1.93032E+03-4.04078E+03-3.30817E+03-1.42109E-11 9.64064E-11
 -1       716-8.63770E+02 1.07183E+03-4.33148E+03-3.95779E+03 3.61212E-10 4.36557E-11
 -1       717-2.40975E+03 2.35894E+03-6.41988E+03-3.35631E+03 4.54747E-13-4.45652E-11
 -1       718 3.89871E+04 5.59823E+03-7.22119E+03 2.14391E+04-2.09184E-11 6.59384E-11
 -1       719 4.07843E+04 4.33566E+03-3.63506E+03 1.92218E+04-1.20721E-11-3.77440E-11
 -1       720 3.96012E+04 7.21979E+03-1.50810E+03 1.97652E+04 1.00044E-11-2.12253E-10
 -1       721 4.15884E+04 5.18497E+03-5.13556E+02 1.90882E+04 8.84484E-11-2.84217E-11
 -1       722 3.95938E+04 7.25661E+03 2.55638E+02 1.96927E+04 1.04023E-10 2.64436E-10
 -1       723 4.17133E+04 5.29680E+03 1.17480E+03 1.91212E+04 1.16984E-10-2.23622E-10
 -1       724 3.95995E+04 7.32347E+03 2.61418E+03 1.95741E+04-2.70575E-11-1.60071E-10
 -1       725 4.29388E+04 6.74749E+03 5.98383E+03 1.89182E+04-1.30740E-11-7.38964E-11
 -1       726 4.06710E+04 9.89253E+03 1.17604E+04 1.68355E+04-1.56433E-10-8.09450E-11
 -1       727 4.64699E+05 1.37474E+04 3.36613E+04 1.40197E+02-4.33374E-10-9.38599E-10
 -1       728 4.71309E+05 4.60959E+03 1.72516E+04 1.42507E+01 2.31239E-10 3.96085E-10
 -1       729 4.67614E+05 4.17155E+02 7.78993E+03 8.39406E+01-6.18456E-10-6.61657E-10
 -1       730 4.68171E+05 1.29944E+02 4.02184E+03 7.89112E+01-2.51248E-10-2.88082E-10
 -1       731 4.67844E+05-4.77211E+01 2.04093E+03 7.54839E+01-3.27418E-11 1.49043E-10
 -1       732 4.67972E+05 7.66979E+01 1.28076E+03 1.42886E+02-1.22373E-09-5.69912E-10
 -1       733 4.67814E+05 2.77446E+02 1.08235E+03 1.99854E+01 1.23237E-10 4.45198E-10
 -1       734-1.03294E+04-1.04123E+05-2.54562E+04-2.53610E+04-8.73115E-11 4.57021E-11
 -1       735-3.48096E+03-1.09153E+05-1.33548E+04-3.06163E+04-3.22871E-11 7.00197E-10
 -1       736-3.66366E+02-1.06289E+05-6.64447E+03-2.53152E+04-2.91038E-11 1.90568E-10
 -1       737-6.41554E+02-1.07154E+05-4.81504E+03-3.06215E+04-1.06411E-10 5.90603E-11
 -1       738-1.59237E+03-1.06124E+05-5.03976E+03-2.53554E+04-2.34195E-11-2.93539E-10
 -1       739 7.28403E+04 2.38734E+04-4.28298E+03 4.50670E+04-2.42494E-10-1.53705E-10
 -1       740 7.50179E+04 2.20101E+04-2.15110E+03 4.34269E+04 4.94765E-10 1.86219E-10
 -1       741 7.32485E+04 2.47949E+04-8.82739E+02 4.40661E+04 1.05820E-09 4.09273E-12
 -1       742 7.54522E+04 2.25581E+04-2.79583E+02 4.33656E+04 4.97494E-10-1.34378E-10
 -1       743 7.32487E+04 2.48111E+04 2.01833E+02 4.40259E+04-8.86303E-10 1.60526E-10
 -1       744 7.55272E+04 2.26421E+04 8.03207E+02 4.33954E+04-8.05221E-09-7.08292E-09
 -1       745 7.32601E+04 2.48486E+04 1.75760E+03 4.39486E+04-3.24690E-10-6.81212E-10
 -1       746 7.62776E+04 2.36869E+04 4.01298E+03 4.32853E+04-1.90994E-11-1.54046E-09
 -1       747 7.40518E+04 2.65041E+04 7.88029E+03 4.20980E+04-4.73847E-10 4.32465E-10
 -1       748 6.61420E+05 8.44889E+03 2.11531E+04 1.04612E+05-4.35102E-09-8.73115E-10
 -1       749 6.65422E+05 2.93200E+03 1.17538E+04 1.25681E+05-1.06866E-09-3.04226E-10
 -1       750 6.62949E+05 3.22090E+02 7.10985E+03 1.04216E+05 3.95448E-09 7.56245E-10
 -1       751 6.63586E+05 4.75497E+02 7.34487E+03 1.26095E+05-1.86901E-09-1.09321E-09
 -1       752 6.62670E+05 7.07270E+02 1.08293E+04 1.04197E+05-6.93308E-09-1.75896E-09
 -1       753 6.67254E+05 6.02707E+03 2.20685E+04 1.26006E+05-1.21703E-08-2.06182E-09
 -1       754 6.59032E+05 1.73771E+04 4.22136E+04 1.04283E+05-5.35465E-09-1.07684E-09
 -1       755-1.14352E+04 1.91148E+05-2.71926E+04 3.00704E+03 2.81943E-11-4.68845E-10
 -1       756-3.76634E+03 1.85785E+05-1.23700E+04 3.73845E+03-1.84468E-09 1.78261E-10
 -1       757-1.41043E+02 1.88604E+05-2.44375E+03 3.04601E+03 2.72848E-11 8.36735E-11
 -1       758 2.23643E+03 1.90014E+05 5.68797E+03 3.65750E+03-2.06569E-09-6.80984E-11
 -1       759 7.04124E+03 1.86917E+05 1.59812E+04 3.09653E+03 6.09361E-11-3.50610E-10
 -1       760 3.17567E+05 2.37468E+05 9.49392E+03 2.73431E+05-2.66897E-09-9.91349E-10
 -1       761 3.10621E+05 2.43703E+05 5.16282E+03 2.77606E+05-1.56979E-09-1.96451E-10
 -1       762 3.16908E+05 2.35168E+05 2.91764E+03 2.75513E+05-3.61797E-09-1.34969E-09
 -1       763 3.09407E+05 2.42805E+05 2.68153E+03 2.77846E+05-2.75941E-09-6.27551E-10
 -1       764 3.16850E+05 2.35046E+05 3.64836E+03 2.75576E+05-3.72347E-09-2.86036E-10
 -1       765 3.09686E+05 2.43076E+05 6.75087E+03 2.77896E+05-7.08314E-09-6.88033E-10
 -1       766 3.16881E+05 2.35419E+05 1.28567E+04 2.74998E+05-7.52334E-09-1.04274E-09
 -1       767 3.15648E+05 2.49614E+05 2.83414E+04 2.76813E+05-7.69114E-09-8.60382E-10
 -1       768 3.21695E+05 2.47699E+05 5.52458E+04 2.62196E+05 2.06637E-09-6.00267E-11
 -1       769 3.08867E+05 2.37137E+03 5.93339E+03 3.13983E+04-1.93950E-09-2.42835E-10
 -1       770 3.09981E+05 8.44822E+02 3.54514E+03 3.77480E+04 4.79531E-09 1.43245E-11
 -1       771 3.09321E+05 1.02118E+02 2.61453E+03 3.13050E+04-2.99360E-09-4.40423E-10
 -1       772 3.09622E+05 1.98694E+02 3.40706E+03 3.78472E+04 3.16959E-10-1.96451E-10
 -1       773 3.09192E+05 3.56153E+02 5.71321E+03 3.13014E+04-6.35907E-10-1.25965E-10
 -1       774 3.11766E+05 3.29506E+03 1.21530E+04 3.77941E+04-1.12777E-09-1.09139E-11
 -1       775 3.07173E+05 9.64032E+03 2.34935E+04 3.13448E+04 1.27488E-09 2.20098E-10
 -1       776-2.30092E+04-2.86440E+05-5.73494E+04 7.64835E+04 3.78714E-09-4.97494E-10
 -1       777-7.96552E+03-2.97800E+05-3.20761E+04 9.22399E+04 3.31522E-09 1.50294E-09
 -1       778-1.22581E+03-2.91122E+05-1.98544E+04 7.63406E+04 4.00610E-09 5.50244E-10
 -1       779-4.67222E+03-2.95523E+05-2.22191E+04 9.23278E+04 3.84489E-09 5.15513E-10
 -1       780-1.28981E+04-2.88798E+05-3.37852E+04 7.64133E+04 4.16730E-09-4.72937E-11
 -1       781 2.22466E+05 1.12407E+05 8.13322E+03 1.54965E+05 2.60184E-09-1.13232E-10
 -1       782 2.24610E+05 1.09649E+05 4.35678E+03 1.56211E+05-2.06091E-09-2.39993E-10
 -1       783 2.21727E+05 1.10632E+05 2.34690E+03 1.56840E+05-3.72052E-09-9.29731E-10
 -1       784 2.23789E+05 1.08674E+05 1.96577E+03 1.56384E+05 2.38742E-11-4.78451E-10
 -1       785 2.21685E+05 1.10547E+05 2.46859E+03 1.56922E+05 2.44978E-09 6.15046E-10
 -1       786 2.23973E+05 1.08833E+05 4.41564E+03 1.56429E+05-2.92096E-09-1.77010E-09
 -1       787 2.21720E+05 1.10785E+05 8.32820E+03 1.56561E+05 7.88759E-10-4.46562E-10
 -1       788 2.27774E+05 1.13105E+05 1.83121E+04 1.55754E+05-1.39016E-09-1.35810E-09
 -1       789 2.24882E+05 1.18662E+05 3.56745E+04 1.48287E+05 3.80442E-09 8.89486E-10
 -1       790 1.05417E+05 1.07644E+03 2.63643E+03 2.48287E+04-6.34441E-09-2.02817E-10
 -1       791 1.05908E+05 4.06305E+02 1.59220E+03 2.99062E+04-2.43017E-09-1.75987E-10
 -1       792 1.05617E+05 7.09459E+01 1.20347E+03 2.47643E+04-2.00589E-09-2.03045E-10
 -1       793 1.05756E+05 1.23613E+02 1.60458E+03 2.99730E+04 2.08095E-09-7.20775E-11
 -1       794 1.05555E+05 1.94122E+02 2.71854E+03 2.47631E+04 2.28238E-09 1.50749E-10
 -1       795 1.06786E+05 1.60247E+03 5.80139E+03 2.99182E+04-2.46462E-09-4.70664E-10
 -1       796 1.04594E+05 4.62762E+03 1.12227E+04 2.48126E+04 2.64754E-09-6.09361E-11
 -1       797-1.52059E+04-2.75963E+05-3.81687E+04 4.94860E+04 1.46429E-09-5.64341E-10
 -1       798-5.30663E+03-2.83514E+05-2.19026E+04 5.96756E+04 4.60864E-09 8.23775E-10
 -1       799-9.07799E+02-2.78994E+05-1.45743E+04 4.94031E+04 1.66301E-09 7.47946E-10
 -1       800-3.98911E+03-2.82598E+05-1.79535E+04 5.97150E+04 2.00544E-09 2.89219E-10
 -1       801-1.11580E+04-2.76902E+05-2.87276E+04 4.94540E+04 3.30783E-09-1.11618E-09
 -1       802 1.23356E+05 6.54806E+04 1.07647E+04 8.53667E+04 5.64864E-09-1.01704E-09
 -1       803 1.24448E+05 6.35852E+04 5.62724E+03 8.75446E+04 6.25732E-10-1.35515E-10
 -1       804 1.22397E+05 6.31096E+04 2.76315E+03 8.78551E+04-1.04785E-09-1.21980E-09
 -1       805 1.23320E+05 6.23023E+04 1.86794E+03 8.77612E+04-1.31035E-09-1.65699E-09
 -1       806 1.22369E+05 6.30203E+04 1.80923E+03 8.79638E+04 1.80370E-09-1.37933E-09
 -1       807 1.23391E+05 6.23630E+04 2.80909E+03 8.77784E+04 4.99219E-09-6.23906E-10
 -1       808 1.22394E+05 6.31688E+04 5.06100E+03 8.77476E+04-4.31896E-09-2.25918E-09
 -1       809 1.25670E+05 6.49073E+04 1.09888E+04 8.73668E+04 9.07903E-10-1.97338E-09
 -1       810 1.24278E+05 6.78895E+04 2.13456E+04 8.28023E+04 2.61298E-09-6.82121E-11
 -1       811 1.46134E+04 7.85946E+02 1.96341E+03 1.25648E+04 8.51458E-09 7.73070E-12
 -1       812 1.49890E+04 2.84786E+02 1.20287E+03 1.51577E+04 1.03678E-08-2.05205E-10
 -1       813 1.47646E+04 3.74687E+01 9.39140E+02 1.25378E+04-1.33838E-10-3.75167E-12
 -1       814 1.48866E+04 7.73291E+01 1.28834E+03 1.51853E+04-1.75167E-09-1.55751E-10
 -1       815 1.47143E+04 1.40000E+02 2.21024E+03 1.25381E+04 4.59352E-09 2.88765E-11
 -1       816 1.57284E+04 1.28680E+03 4.73454E+03 1.51507E+04-1.54074E-09-3.70619E-11
 -1       817 1.39264E+04 3.76322E+03 9.16734E+03 1.25671E+04 3.29567E-09 6.98037E-11
 -1       818-8.46954E+03-2.02017E+05-2.13847E+04 3.30588E+04-8.43556E-09-1.16643E-09
 -1       819-2.98434E+03-2.06245E+05-1.25767E+04 3.98653E+04-1.07426E-08 2.98132E-09
 -1       820-5.65412E+02-2.03675E+05-8.91551E+03 3.30052E+04-5.37398E-09 8.03652E-10
 -1       821-2.72605E+03-2.06066E+05-1.18039E+04 3.98833E+04-6.21344E-09 4.52957E-10
 -1       822-7.67640E+03-2.02203E+05-1.95370E+04 3.30425E+04-6.54381E-09-1.25351E-09
 -1       823 4.61322E+04 2.37096E+04 7.31520E+03 3.00150E+04-5.23278E-09 8.73115E-11
 -1       824 4.67950E+04 2.25060E+04 3.81526E+03 3.15220E+04-6.69326E-09-4.61597E-10
 -1       825 4.54755E+04 2.21042E+04 1.85621E+03 3.17083E+04-8.41192E-09-1.47639E-09
 -1       826 4.60332E+04 2.16273E+04 1.22331E+03 3.16662E+04-4.98142E-09-1.00033E-09
 -1       827 4.54568E+04 2.20453E+04 1.13803E+03 3.17822E+04-1.07485E-09 8.21387E-11
 -1       828 4.60718E+04 2.16581E+04 1.71881E+03 3.16748E+04-5.20316E-10-6.09162E-10
 -1       829 4.54723E+04 2.21365E+04 3.06583E+03 3.16518E+04-1.08966E-09-1.86776E-09
 -1       830 4.74543E+04 2.31861E+04 6.63791E+03 3.14235E+04 2.38526E-09-9.98057E-10
 -1       831 4.66026E+04 2.49930E+04 1.28855E+04 2.86691E+04 3.99905E-09 2.16824E-09
 -1       832-3.83080E+03-1.64247E+05-9.79324E+03 1.38683E+04 1.15356E-08-1.25817E-09
 -1       833-1.36018E+03-1.66180E+05-5.97886E+03 1.66940E+04 4.75778E-09-5.25290E-10
 -1       834-2.87305E+02-1.64978E+05-4.62099E+03 1.38406E+04 6.87976E-09 1.15045E-09
 -1       835-1.58528E+03-1.66340E+05-6.65769E+03 1.67126E+04 1.89038E-09 7.78357E-10
 -1       836-4.52409E+03-1.64090E+05-1.14161E+04 1.38491E+04 9.93396E-09 4.11092E-10
 -1       837-1.56630E+05-1.31092E+03-3.27076E+03 4.21287E+04-1.54614E-11 6.06178E-10
 -1       838-1.57261E+05-4.55451E+02-1.96814E+03 5.07140E+04-5.22959E-11 4.97948E-10
 -1       839-1.56915E+05-4.23865E+01-1.48135E+03 4.19914E+04 5.54792E-11 4.96811E-10
 -1       840-1.57104E+05-8.72191E+01-1.96578E+03 5.08585E+04 1.77351E-11 6.89397E-10
 -1       841-1.56854E+05-1.83617E+02-3.32626E+03 4.19850E+04-1.03114E-10 1.11413E-11
 -1       842-1.58364E+05-1.89550E+03-7.09599E+03 5.07956E+04 2.14186E-10 1.15165E-10
 -1       843-1.55667E+05-5.61281E+03-1.37284E+04 4.20522E+04-4.16094E-11 1.32786E-10
 -1       844-6.69365E+03-2.86491E+05-1.59019E+04 8.99190E+04-9.09495E-11 3.32875E-10
 -1       845-2.07197E+03-2.89630E+05-6.73316E+03 1.08601E+05-2.00089E-10 3.53111E-10
 -1       846 1.02280E+02-2.88076E+05-2.11838E+02 8.97635E+04 1.13005E-10-7.27624E-10
 -1       847 2.21201E+03-2.86610E+05 6.15444E+03 1.08598E+05 1.05047E-10-8.00128E-10
 -1       848 6.49033E+03-2.89505E+05 1.49119E+04 8.99152E+04 7.63976E-11-7.87168E-10
 -1       849 6.22753E+04 5.37005E+04 2.42243E+04 4.89029E+04-6.32099E-11 1.67347E-10
 -1       850 6.11777E+04 5.30120E+04 1.26032E+04 5.48590E+04 6.46878E-11 5.29781E-11
 -1       851 6.02273E+04 4.82519E+04 6.07145E+03 5.44725E+04 6.95763E-11-1.62345E-10
 -1       852 5.85299E+04 5.02200E+04 3.89119E+03 5.53647E+04-1.05956E-10 5.65706E-10
 -1       853 6.01800E+04 4.80524E+04 3.45036E+03 5.47121E+04 1.07775E-10 2.28056E-10
 -1       854 5.86069E+04 5.02994E+04 5.02969E+03 5.53845E+04 6.36646E-11-1.01945E-09
 -1       855 6.02275E+04 4.83180E+04 8.85215E+03 5.43360E+04 4.27463E-11 1.13232E-10
 -1       856 6.25656E+04 5.46985E+04 1.90908E+04 5.46614E+04-7.07132E-11-3.84262E-11
 -1       857 6.34613E+04 5.65403E+04 3.70282E+04 4.57693E+04-4.09273E-11-1.27329E-10
 -1       858-1.48333E+05-5.31167E+03-1.31478E+04 5.34456E+04-2.60115E-10 3.86905E-10
 -1       859-1.50920E+05-1.78406E+03-7.14121E+03 6.43925E+04-1.22327E-10-1.44610E-10
 -1       860-1.49472E+05-1.43498E+02-4.04173E+03 5.32915E+04-2.86491E-11-4.54747E-11
 -1       861-1.49895E+05-1.28712E+02-3.74374E+03 6.45540E+04 2.12935E-10 1.08685E-10
 -1       862-1.49441E+05-2.22808E+02-5.11334E+03 5.32867E+04 4.61000E-11-5.04997E-10
 -1       863-1.51571E+05-2.61528E+03-1.01203E+04 6.44527E+04-2.19416E-11-6.16183E-11
 -1       864-1.47785E+05-7.80335E+03-1.92223E+04 5.33908E+04-1.29148E-10-1.85537E-10
 -1       865-2.85266E+03-9.20013E+04-6.39289E+03 8.23594E+04 4.36557E-11 3.00588E-10
 -1       866-8.15746E+02-9.32611E+04-1.81590E+03 9.94855E+04 1.25965E-10 4.60545E-10
 -1       867 1.88955E+02-9.27535E+04 2.09720E+03 8.22373E+04 2.16005E-10-6.06178E-10
 -1       868 2.29092E+03-9.10525E+04 7.55150E+03 9.94477E+04 1.64619E-10-4.71118E-10
 -1       869 6.71828E+03-9.41714E+04 1.60035E+04 8.23947E+04 2.50111E-10-5.82531E-10
 -1       870 9.47034E+04 7.61555E+04 1.94220E+04 7.80703E+04 1.28239E-10-2.09184E-10
 -1       871 9.27832E+04 7.66425E+04 1.01190E+04 8.31445E+04-5.91172E-11-5.15229E-10
 -1       872 9.30764E+04 7.17757E+04 4.90129E+03 8.25300E+04-1.23237E-10-2.44199E-10
 -1       873 9.06430E+04 7.44197E+04 3.18986E+03 8.35543E+04-6.82121E-13-7.24526E-10
 -1       874 9.30363E+04 7.16122E+04 2.90626E+03 8.27207E+04 2.00089E-11-1.42506E-10
 -1       875 9.07225E+04 7.44987E+04 4.32335E+03 8.35738E+04-1.28466E-11 3.23610E-10
 -1       876 9.30739E+04 7.18417E+04 7.66776E+03 8.23938E+04-1.71894E-10 1.27784E-10
 -1       877 9.41799E+04 7.83031E+04 1.65740E+04 8.29418E+04 9.09495E-12-1.88948E-10
 -1       878 9.58682E+04 7.89986E+04 3.21623E+04 7.49565E+04 1.27329E-11-1.22782E-10
 -1       879 5.60244E+03-1.32029E+03-3.29762E+03 5.86699E+04 9.36780E-11 2.92403E-10
 -1       880 4.93726E+03-4.35845E+02-1.89850E+03 7.07140E+04 5.15229E-10 1.73713E-10
 -1       881 5.29477E+03-2.18656E+01-1.28401E+03 5.85094E+04-7.91260E-11 2.52385E-10
 -1       882 5.12427E+03-3.88694E+01-1.52735E+03 7.08776E+04-1.35572E-10-2.58751E-10
 -1       883 5.33327E+03-1.11110E+02-2.45317E+03 5.85067E+04-8.28777E-11-8.00355E-11
 -1       884 4.23760E+03-1.34785E+03-5.14805E+03 7.07534E+04 1.94632E-10-1.27329E-11
 -1       885 6.21233E+03-4.04580E+03-9.92448E+03 5.86329E+04 1.24601E-10 2.45564E-10
 -1       886-6.06995E+03-1.07840E+05-1.47620E+04 7.61962E+04-3.34694E-10-1.95541E-10
 -1       887-1.97337E+03-1.10765E+05-7.18510E+03 9.20433E+04-4.10637E-10-5.32054E-11
 -1       888-9.23425E+01-1.09180E+05-2.48745E+03 7.60848E+04-3.50610E-10-7.30211E-10
 -1       889 5.35945E+02-1.08978E+05 3.83632E+02 9.20057E+04-3.62888E-10-4.63842E-10
 -1       890 1.66098E+03-1.09591E+05 3.33262E+03 7.62325E+04-1.85082E-10-2.51930E-10
 -1       891 1.57950E+05 1.02714E+05 2.23897E+04 1.18218E+05-9.18590E-11 1.69166E-10
 -1       892 1.57346E+05 1.01655E+05 1.16173E+04 1.23598E+05 1.33582E-10 2.63753E-10
 -1       893 1.56040E+05 9.76968E+04 5.53215E+03 1.23377E+05-1.24828E-10-2.04182E-10
 -1       894 1.54911E+05 9.90517E+04 3.42546E+03 1.24057E+05 1.10163E-10-1.92699E-10
 -1       895 1.56002E+05 9.75211E+04 2.84952E+03 1.23601E+05 1.40517E-10 6.78710E-11
 -1       896 1.54945E+05 9.90882E+04 3.94045E+03 1.24066E+05-1.94632E-10-1.76222E-10
 -1       897 1.56041E+05 9.77262E+04 6.79009E+03 1.23315E+05 1.86901E-10-1.69393E-10
 -1       898 1.57957E+05 1.02433E+05 1.45515E+04 1.23513E+05 8.64020E-12-8.68567E-11
 -1       899 1.58503E+05 1.03983E+05 2.81811E+04 1.16796E+05-4.54747E-12-1.63709E-11
 -1       900 1.72229E+05 2.97782E+03 7.32227E+03 5.73075E+04-6.86668E-11 1.61890E-10
 -1       901 1.73642E+05 1.00873E+03 3.76884E+03 6.90903E+04-2.00998E-10-7.98991E-10
 -1       902 1.72826E+05 1.00666E+02 1.72794E+03 5.71598E+04-1.58707E-10-1.02773E-10
 -1       903 1.72938E+05 5.01829E+01 9.46313E+02 6.92386E+04-3.41430E-10 5.41149E-11
 -1       904 1.72868E+05 1.03732E+01 5.82241E+02 5.71586E+04-1.18007E-10 2.93312E-10
 -1       905 1.72968E+05 1.09691E+02 5.85250E+02 6.91070E+04-1.45292E-10-3.31511E-10
 -1       906 1.72840E+05 2.99620E+02 8.28979E+02 5.72915E+04 4.09273E-11-1.45519E-11
 -1       907-1.09350E+04-1.57456E+05-2.74442E+04 6.35540E+04-1.36424E-10 1.38925E-10
 -1       908-3.70894E+03-1.62902E+05-1.52876E+04 7.67856E+04-1.17211E-10-3.13548E-10
 -1       909-4.98047E+02-1.59688E+05-9.35105E+03 6.34669E+04 5.95719E-11-1.09367E-10
 -1       910-2.05176E+03-1.61717E+05-1.02834E+04 7.67432E+04-2.03727E-10 4.31783E-10
 -1       911-5.82782E+03-1.58608E+05-1.54820E+04 6.35951E+04-1.78034E-10-1.67802E-10
 -1       912 2.19522E+05 1.23976E+05 2.41133E+04 1.54734E+05-1.23691E-10 4.53838E-10
 -1       913 2.20734E+05 1.20960E+05 1.24571E+04 1.59984E+05-3.01270E-12-3.61752E-10
 -1       914 2.17430E+05 1.18609E+05 5.82506E+03 1.60308E+05-2.66141E-10 1.86446E-11
 -1       915 2.18145E+05 1.18113E+05 3.40379E+03 1.60462E+05-1.53022E-10 2.55000E-10
 -1       916 2.17396E+05 1.18431E+05 2.50118E+03 1.60551E+05-1.59162E-12 6.70752E-12
 -1       917 2.18117E+05 1.18093E+05 3.06225E+03 1.60457E+05-4.09671E-10-4.25274E-10
 -1       918 2.17434E+05 1.18585E+05 4.99153E+03 1.60347E+05-3.79714E-11-2.76827E-11
 -1       919 2.20254E+05 1.20518E+05 1.05123E+04 1.60061E+05 7.74207E-11-1.68711E-10
 -1       920 2.19227E+05 1.23062E+05 2.02748E+04 1.55654E+05 4.27463E-11 2.71029E-10
 -1       921 2.30505E+05 2.74338E+03 6.73822E+03 6.33124E+04 7.73070E-12-2.00089E-10
 -1       922 2.31795E+05 9.35830E+02 3.47775E+03 7.63648E+04-1.77351E-10-3.24235E-10
 -1       923 2.31051E+05 9.87571E+01 1.61266E+03 6.31646E+04-1.70530E-11-2.96950E-10
 -1       924 2.31153E+05 5.48069E+01 9.19199E+02 7.65109E+04 5.03178E-10-5.45697E-11
 -1       925 2.31094E+05 1.69591E+01 6.30535E+02 6.31658E+04 2.86491E-11-1.42791E-10
 -1       926 2.31234E+05 1.56745E+02 7.49696E+02 7.63490E+04-8.23093E-11-3.54248E-10
 -1       927 2.31048E+05 4.36462E+02 1.17305E+03 6.33267E+04 5.54792E-11-4.82032E-11
 -1       928-1.51895E+04-1.94247E+05-3.87396E+04 5.15030E+04 1.18234E-10-2.13731E-11
 -1       929-5.23918E+03-2.01949E+05-2.28510E+04 6.22368E+04-2.03784E-10-3.89662E-11
 -1       930-8.99240E+02-1.97234E+05-1.63151E+04 5.14373E+04-1.72804E-11-1.39153E-10
 -1       931-4.88345E+03-2.01684E+05-2.17647E+04 6.21931E+04-1.70076E-10 8.73115E-11
 -1       932-1.40883E+04-1.94485E+05-3.61436E+04 5.15446E+04 5.00222E-11 2.37378E-10
 -1       933 3.20287E+05 1.66525E+05 3.19798E+04 2.17526E+05-9.54969E-11 4.00178E-10
 -1       934 3.23729E+05 1.60681E+05 1.64389E+04 2.23956E+05 1.36424E-11-6.43468E-11
 -1       935 3.17472E+05 1.59445E+05 7.52215E+03 2.24936E+05-3.70619E-11-3.31966E-11
 -1       936 3.20323E+05 1.56855E+05 4.07840E+03 2.24566E+05-1.33696E-10-1.71440E-10
 -1       937 3.17439E+05 1.59227E+05 2.45096E+03 2.25261E+05-3.41061E-11-4.57476E-10
 -1       938 3.20185E+05 1.56739E+05 2.25728E+03 2.24535E+05-4.81464E-11-1.03000E-10
 -1       939 3.17481E+05 1.59328E+05 3.07547E+03 2.25146E+05 1.70530E-11 3.21393E-10
 -1       940 3.21347E+05 1.58144E+05 6.06487E+03 2.24310E+05 1.98042E-10 2.68187E-10
 -1       941 3.18537E+05 1.61833E+05 1.15073E+04 2.22483E+05 7.45786E-11-4.27463E-11
 -1       942-4.88872E+04-1.13995E+04-2.80251E+04 4.94887E+04-3.95630E-11-6.09361E-11
 -1       943-5.44244E+04-3.81694E+03-1.45954E+04 5.97284E+04 4.46789E-11 3.45608E-10
 -1       944-5.13088E+04-3.28318E+02-7.05849E+03 4.93863E+04 1.79625E-11 1.52795E-10
 -1       945-5.19134E+04-1.46965E+02-4.59496E+03 5.98297E+04 8.27640E-11-1.53250E-10
 -1       946-5.14165E+04-1.00036E+02-4.17684E+03 4.93893E+04 1.12777E-10-8.18545E-11
 -1       947-5.27321E+04-1.55299E+03-6.58766E+03 5.96883E+04 1.09139E-11-7.86713E-11
 -1       948-5.04274E+04-4.66110E+03-1.16939E+04 4.95261E+04 1.03682E-10-3.40151E-10
 -1       949-1.86059E+04-2.21054E+05-4.83006E+04 7.43824E+04 7.27596E-11 1.15506E-10
 -1       950-6.48493E+03-2.30695E+05-3.00433E+04 8.98844E+04 1.98497E-10-9.97602E-11
 -1       951-1.32174E+03-2.24593E+05-2.41534E+04 7.42868E+04 4.27463E-11-1.51886E-10
 -1       952-8.47922E+03-2.32070E+05-3.60079E+04 8.98235E+04 1.72804E-11-5.07043E-11
 -1       953-2.47264E+04-2.19622E+05-6.25587E+04 7.44391E+04 1.67347E-10-6.36646E-11
 -1       954 5.64422E+05 3.24732E+05 6.66917E+04 3.99844E+05-1.29148E-10 3.45608E-11
 -1       955 5.66821E+05 3.17350E+05 3.45295E+04 4.14646E+05 7.59064E-09 1.16488E-08
 -1       956 5.58576E+05 3.09948E+05 1.63047E+04 4.15275E+05 4.27463E-11 8.19909E-10
 -1       957 5.59734E+05 3.09426E+05 9.82524E+03 4.15961E+05 1.51999E-10 1.38357E-10
 -1       958 5.58464E+05 3.09446E+05 7.73285E+03 4.15950E+05 1.70758E-10 1.06866E-11
 -1       959 5.59761E+05 3.09446E+05 1.01628E+04 4.15967E+05 1.91790E-10 3.52770E-10
 -1       960 5.58572E+05 3.09971E+05 1.71283E+04 4.15236E+05-1.61435E-11 2.10093E-10
 -1       961 5.67305E+05 3.17777E+05 3.64508E+04 4.14567E+05-1.39835E-10 2.49202E-10
 -1       962 5.64697E+05 3.25651E+05 7.04847E+04 3.98939E+05-2.83762E-10 1.01863E-10
 -1       963-1.08916E+05-7.13801E+03-1.75022E+04 1.49278E+04-1.91449E-10 1.00044E-10
 -1       964-1.12362E+05-2.39861E+03-9.05659E+03 1.78789E+04 5.09317E-11 3.12866E-10
 -1       965-1.10430E+05-2.17898E+02-4.26361E+03 1.48429E+04 9.86802E-11 2.36469E-10
 -1       966-1.10774E+05-8.81564E+01-2.55420E+03 1.79752E+04 3.47882E-11-1.54841E-10
 -1       967-1.10527E+05-2.93764E+01-1.98128E+03 1.48337E+04 1.22782E-11-3.70960E-10
 -1       968-1.11051E+05-5.90690E+02-2.71586E+03 1.79988E+04 1.98725E-10 9.20863E-11
 -1       969-1.10169E+05-1.78154E+03-4.56856E+03 1.48194E+04 1.10731E-10-1.14881E-10
 -1       970 4.32374E+03 1.58810E+05 1.01444E+04 1.98864E+05 2.55113E-10-1.18234E-10
 -1       971 1.69432E+03 1.60615E+05 4.99524E+03 2.40034E+05 1.45337E-09 6.43922E-10
 -1       972 3.57234E+02 1.59494E+05 1.79282E+03 1.98509E+05-5.45697E-12 2.31012E-10
 -1       973 2.32701E+01 1.59386E+05-8.87931E+01 2.40074E+05 1.55705E-09 1.36424E-12
 -1       974-8.43616E+02 1.59943E+05-2.00808E+03 1.98824E+05-3.63798E-12-5.01132E-10
 -1       975 4.09413E+04 3.75360E+04 2.05505E+03 3.95849E+04-1.76101E-10 4.18368E-11
 -1       976 3.92200E+04 3.91242E+04 1.38109E+03 4.05399E+04 6.25278E-11-3.81988E-11
 -1       977 4.08119E+04 3.70323E+04 1.28567E+03 4.00128E+04-1.11868E-10-1.59162E-11
 -1       978 3.89901E+04 3.89721E+04 1.98026E+03 4.06381E+04 3.04681E-11 5.80371E-11
 -1       979 4.07551E+04 3.69558E+04 3.57174E+03 4.00281E+04-4.22915E-11-2.32887E-10
 -1       980 3.93800E+04 3.93178E+04 7.25411E+03 4.07338E+04-9.82254E-11-1.95541E-11
 -1       981 4.07969E+04 3.73598E+04 1.41629E+04 3.94058E+04 8.64020E-12-3.54703E-11
 -1       982 4.59866E+04 4.66126E+04 3.14276E+04 3.95611E+04-8.41283E-11-1.18234E-10
 -1       983 4.61508E+04 5.09975E+04 6.13571E+04 2.51970E+04 1.29148E-10-8.36735E-11
 -1       984-1.26369E+05-2.47961E+03-6.22950E+03 1.88641E+03-1.65710E-09-1.55524E-10
 -1       985-1.27576E+05-8.31205E+02-3.51762E+03 2.06886E+03 4.51564E-10-3.57090E-10
 -1       986-1.26879E+05-6.13489E+01-2.24489E+03 1.79732E+03 5.43878E-10-2.61409E-10
 -1       987-1.27132E+05-9.04154E+01-2.48857E+03 2.17421E+03 6.00267E-10-6.91060E-10
 -1       988-1.26817E+05-1.89445E+02-3.84037E+03 1.78117E+03 4.59295E-10-5.39217E-10
 -1       989-1.28507E+05-2.08783E+03-7.95090E+03 2.27062E+03-1.27056E-09-4.66912E-10
 -1       990-1.25509E+05-6.21486E+03-1.52717E+04 1.70509E+03 5.53882E-10-1.01636E-10
 -1       991 8.61156E+02-4.64005E+04 4.28306E+03 8.36209E+04 4.63842E-11-3.22871E-11
 -1       992 5.32268E+02-4.55013E+04 6.49741E+03 1.00923E+05-1.40972E-11 2.54659E-10
 -1       993 6.72080E+02-4.65999E+04 1.15396E+04 8.34615E+04 8.62883E-11-1.28921E-10
 -1       994 6.70895E+03-4.11685E+04 2.50578E+04 1.00957E+05 2.22144E-10 1.52681E-10
 -1       995 1.98677E+04-5.07638E+04 4.86686E+04 8.35883E+04-9.09495E-11-2.13277E-10
 -1       996-5.00346E+04-1.07461E+04 8.15765E+02-2.62127E+04-1.42563E-10 2.94676E-10
 -1       997-5.21096E+04-8.70083E+03 6.50654E+02-2.54282E+04 7.92625E-10 1.17097E-10
 -1       998-5.00157E+04-1.10132E+04 7.61087E+02-2.60757E+04 1.27829E-09-5.64341E-10
 -1       999-5.22691E+04-8.67483E+03 1.32263E+03-2.53587E+04 1.32104E-10 4.36557E-10
 -1      1000-5.00524E+04-1.10691E+04 2.48492E+03-2.60770E+04-8.42192E-10-6.61657E-11
 -1      1001-5.19984E+04-8.41602E+03 5.10284E+03-2.52906E+04-9.03810E-10 5.65223E-10
 -1      1002-5.00226E+04-1.07887E+04 9.98865E+03-2.65208E+04 1.58252E-10 3.73575E-10
 -1      1003-4.73651E+04-3.23711E+03 2.21829E+04-2.61131E+04 3.63798E-11-3.09456E-10
 -1      1004-4.62078E+04-1.19605E+03 4.33136E+04-3.65632E+04-9.02219E-10 1.10958E-10
 -1      1005-2.38001E+05-1.09394E+04-2.71672E+04 6.13258E+04-4.20368E-09 6.12772E-10
 -1      1006-2.43374E+05-3.59485E+03-1.44704E+04 7.37655E+04-1.01863E-09-1.21645E-09
 -1      1007-2.40380E+05-2.21491E+02-7.64636E+03 6.10790E+04 3.84625E-09-9.10859E-10
 -1      1008-2.41151E+05-8.80951E+01-6.19978E+03 7.40255E+04-1.91903E-09-8.66748E-10
 -1      1009-2.40432E+05-1.80677E+02-7.51545E+03 6.10618E+04-5.36511E-09 6.13909E-11
 -1      1010-2.43415E+05-3.43319E+03-1.41129E+04 7.39836E+04-9.18044E-09-4.39059E-10
 -1      1011-2.38205E+05-1.05565E+04-2.64314E+04 6.11324E+04-4.33198E-09-7.65795E-10
 -1      1012 1.36873E+03 5.63893E+04 5.99005E+03 9.09615E+04-2.00089E-11-1.57343E-10
 -1      1013 6.76963E+02 5.76395E+04 7.97115E+03 1.09811E+05-1.71985E-09 4.89990E-10
 -1      1014 7.10471E+02 5.62643E+04 1.34029E+04 9.08008E+04-1.96906E-10-1.10106E-10
 -1      1015 7.56291E+03 6.24828E+04 2.86782E+04 1.09822E+05-1.59753E-09-5.47288E-10
 -1      1016 2.25659E+04 5.15356E+04 5.55094E+04 9.09628E+04-2.65572E-10-5.51154E-10
 -1      1017 7.22585E+04 8.69426E+04 1.38670E+04 7.92171E+04-2.54659E-11-9.82254E-11
 -1      1018 6.71008E+04 9.10961E+04 7.40786E+03 8.39185E+04-1.32741E-09 1.81899E-12
 -1      1019 7.11808E+04 8.37190E+04 3.94440E+03 8.23391E+04-3.54339E-09-2.50566E-10
 -1      1020 6.54755E+04 8.96347E+04 3.23377E+03 8.42472E+04-2.70211E-09 7.23730E-10
 -1      1021 7.11231E+04 8.35661E+04 3.97440E+03 8.24584E+04-2.84308E-09-4.88001E-10
 -1      1022 6.57411E+04 8.98910E+04 7.04104E+03 8.43046E+04-2.57842E-10 7.24015E-09
 -1      1023 7.11667E+04 8.39501E+04 1.32426E+04 8.18747E+04-6.31007E-09-1.13369E-09
 -1      1024 7.18560E+04 9.66001E+04 2.90975E+04 8.31995E+04-7.47013E-09 1.78625E-09
 -1      1025 7.61115E+04 9.65471E+04 5.66806E+04 6.87514E+04 2.47201E-09 7.33053E-10
 -1      1026-1.02913E+05-4.84662E+03-1.22379E+04 6.79699E+04-1.01954E-09-1.42995E-09
 -1      1027-1.05372E+05-1.49606E+03-6.45892E+03 8.18970E+04 5.24733E-09-2.67300E-09
 -1      1028-1.04019E+05 6.76992E+00-3.30245E+03 6.77611E+04-3.49064E-09-1.01909E-09
 -1      1029-1.04368E+05 1.08942E+02-2.48572E+03 8.21080E+04-2.35400E-09-1.42609E-09
 -1      1030-1.04061E+05 6.30286E+01-2.77902E+03 6.77541E+04-8.61604E-10-4.74756E-10
 -1      1031-1.05122E+05-1.05620E+03-5.00746E+03 8.19855E+04-2.69438E-11-2.03363E-09
 -1      1032-1.03257E+05-3.58552E+03-9.27454E+03 6.78881E+04 3.01225E-09-1.34605E-09
 -1      1033-5.57658E+03-1.11700E+05-1.18450E+04 1.39924E+05 3.80987E-09 1.86446E-10
 -1      1034-1.85338E+03-1.14014E+05-3.45913E+03 1.68922E+05 1.93995E-09 1.13687E-09
 -1      1035 6.00691E+01-1.13142E+05 3.64341E+03 1.39688E+05 2.13277E-09 4.54065E-10
 -1      1036 3.76298E+03-1.10067E+05 1.34239E+04 1.68933E+05 2.86855E-09 3.52884E-10
 -1      1037 1.17052E+04-1.15663E+05 2.85243E+04 1.39934E+05 2.72121E-09 1.17052E-09
 -1      1038 1.66564E+05 1.18837E+05 2.71174E+04 1.30192E+05-2.69210E-09-1.56433E-10
 -1      1039 1.64798E+05 1.18595E+05 1.41727E+04 1.36997E+05-4.52530E-09 1.81899E-12
 -1      1040 1.64256E+05 1.12754E+05 6.95512E+03 1.36425E+05-4.47926E-09 1.35515E-10
 -1      1041 1.61842E+05 1.15477E+05 4.69454E+03 1.37571E+05-2.09729E-09-5.15342E-10
 -1      1042 1.64190E+05 1.12521E+05 4.53491E+03 1.36693E+05 3.89809E-09 3.41799E-10
 -1      1043 1.62009E+05 1.15633E+05 7.02960E+03 1.37611E+05-3.23325E-09 1.76078E-09
 -1      1044 1.64250E+05 1.12896E+05 1.26573E+04 1.36151E+05 3.59751E-09 5.95264E-10
 -1      1045 1.67742E+05 1.21958E+05 2.74762E+04 1.36569E+05 1.86174E-09 1.10231E-09
 -1      1046 1.68927E+05 1.24735E+05 5.33745E+04 1.23794E+05 4.54747E-11 2.18824E-09
 -1      1047-5.56593E+04-1.62574E+03-4.25459E+03 4.75750E+04-4.65116E-09-2.37833E-10
 -1      1048-5.65272E+04-4.47300E+02-2.25126E+03 5.73543E+04-4.92423E-09-1.20963E-09
 -1      1049-5.60474E+04 6.30403E+01-1.16333E+03 4.74435E+04-4.57203E-09-1.05001E-09
 -1      1050-5.61821E+04 1.09616E+02-8.97664E+02 5.74861E+04-2.29517E-09-1.85082E-09
 -1      1051-5.60576E+04 7.68159E+01-1.03336E+03 4.74411E+04-1.30933E-09-9.49512E-10
 -1      1052-5.64644E+04-3.38436E+02-1.89082E+03 5.73843E+04-7.72889E-09-1.58616E-09
 -1      1053-5.57440E+04-1.31306E+03-3.51867E+03 4.75471E+04 3.61206E-09-1.21736E-09
 -1      1054-7.84805E+03-1.95299E+05-1.85218E+04 1.06149E+05 2.97769E-09 2.73758E-10
 -1      1055-2.75024E+03-1.98930E+05-9.04597E+03 1.28165E+05 1.33787E-09 2.18279E-10
 -1      1056-3.46163E+02-1.96999E+05-3.20207E+03 1.05990E+05 3.06818E-09 1.58025E-10
 -1      1057 3.47854E+02-1.96731E+05 2.90557E+02 1.28142E+05 4.64024E-09 1.85105E-09
 -1      1058 1.69280E+03-1.97467E+05 3.79950E+03 1.06185E+05 3.04135E-09 1.17234E-09
 -1      1059 1.29862E+05 8.64523E+04 2.30861E+04 9.65378E+04 3.94903E-09-1.15597E-09
 -1      1060 1.29371E+05 8.52340E+04 1.19976E+04 1.02045E+05-8.25892E-10 5.03860E-10
 -1      1061 1.27870E+05 8.13046E+04 5.75205E+03 1.01863E+05-3.67527E-09 6.66432E-10
 -1      1062 1.26874E+05 8.25411E+04 3.63354E+03 1.02518E+05-1.70235E-08-1.31495E-08
 -1      1063 1.27825E+05 8.11202E+04 3.14022E+03 1.02094E+05 5.19935E-09-9.11172E-10
 -1      1064 1.26936E+05 8.25992E+04 4.48420E+03 1.02534E+05 1.63395E-08 3.42067E-09
 -1      1065 1.27869E+05 8.13550E+04 7.82835E+03 1.01763E+05-2.65300E-09-2.85286E-09
 -1      1066 1.30436E+05 8.64662E+04 1.68424E+04 1.01893E+05-2.90265E-09-2.08115E-09
 -1      1067 1.30732E+05 8.85932E+04 3.26480E+04 9.42077E+04 1.40972E-09-7.80346E-10
 -1      1068-3.74047E+04-5.87651E+02-1.55284E+03 2.62675E+04 7.18455E-09-7.15659E-10
 -1      1069-3.77244E+04-1.45432E+02-7.49670E+02 3.16935E+04 6.16558E-09-1.42450E-09
 -1      1070-3.75491E+04 3.70034E+01-2.46471E+02 2.62050E+04 8.66521E-10-7.56472E-10
 -1      1071-3.75645E+04 7.54959E+01 5.95472E+01 3.17546E+04-2.73474E-09-1.65460E-09
 -1      1072-3.75738E+04 8.81033E+01 3.91378E+02 2.62054E+04 5.74050E-09-9.32687E-10
 -1      1073-3.73520E+04 3.56725E+02 1.02266E+03 3.16862E+04 2.23611E-09-1.89357E-09
 -1      1074-3.77479E+04 9.05464E+02 2.06222E+03 2.62722E+04 3.00906E-09-6.56883E-10
 -1      1075-5.48423E+03-1.48544E+05-1.32923E+04 6.44458E+04-6.07633E-09-2.07820E-09
 -1      1076-1.96193E+03-1.51149E+05-7.16585E+03 7.78146E+04-5.53928E-09-1.22100E-09
 -1      1077-3.41846E+02-1.49664E+05-3.94706E+03 6.43556E+04-5.20231E-09 6.63249E-10
 -1      1078-7.89159E+02-1.50313E+05-3.62734E+03 7.77913E+04-2.04045E-09 2.76236E-09
 -1      1079-1.87091E+03-1.49362E+05-4.83295E+03 6.44741E+04-6.60964E-09 1.57888E-09
 -1      1080 7.95228E+04 5.01860E+04 1.51491E+04 5.68484E+04 1.25829E-09 6.87533E-09
 -1      1081 7.96117E+04 4.89738E+04 7.84615E+03 6.03455E+04-2.40857E-09-7.14863E-10
 -1      1082 7.81993E+04 4.68232E+04 3.70840E+03 6.03498E+04-7.08349E-09-1.25453E-09
 -1      1083 7.79865E+04 4.71875E+04 2.24326E+03 6.06482E+04-1.51787E-09-1.32044E-09
 -1      1084 7.81739E+04 4.67084E+04 1.78024E+03 6.05027E+04-1.62373E-09-7.70484E-10
 -1      1085 7.79950E+04 4.71951E+04 2.35885E+03 6.06504E+04 4.79943E-10 8.53120E-09
 -1      1086 7.81990E+04 4.68303E+04 3.99062E+03 6.03366E+04 2.96950E-09-3.61047E-09
 -1      1087 7.97594E+04 4.91384E+04 8.50455E+03 6.03243E+04 1.01699E-08 7.60156E-09
 -1      1088 7.96382E+04 5.04798E+04 1.64486E+04 5.65329E+04-9.34961E-09-1.56820E-08
 -1      1089-1.76953E+03-9.81370E+04-4.46881E+03 3.07157E+04 8.82278E-09 3.26395E-10
 -1      1090-6.75392E+02-9.90113E+04-2.86170E+03 3.70809E+04-3.24530E-09-5.50074E-10
 -1      1091-1.97305E+02-9.84565E+04-2.43718E+03 3.06721E+04 5.04383E-09-1.01454E-09
 -1      1092-9.89161E+02-9.92299E+04-3.80282E+03 3.70684E+04 4.47289E-09-9.86347E-10
 -1      1093-2.73413E+03-9.79138E+04-6.71909E+03 3.07268E+04 1.05904E-08 1.92790E-09
 -1      1094-5.95256E+05-6.60688E+03-1.64722E+04 4.93973E+04-1.00044E-11 6.82121E-12
 -1      1095-5.98446E+05-2.22617E+03-9.19598E+03 5.94330E+04-9.77707E-11-1.63709E-11
 -1      1096-5.96652E+05-1.72925E+02-5.67755E+03 4.92306E+04-1.54614E-10-7.36691E-11
 -1      1097-5.97263E+05-2.20498E+02-6.02548E+03 5.96145E+04 2.27374E-11-4.91127E-11
 -1      1098-5.96537E+05-4.33308E+02-9.05613E+03 4.92204E+04-7.95808E-13-4.80327E-11
 -1      1099-6.00460E+05-4.86741E+03-1.85874E+04 5.95496E+04 4.93685E-11 1.51772E-10
 -1      1100-5.93484E+05-1.44885E+04-3.56242E+04 4.92910E+04 1.05956E-10 9.09495E-12
 -1      1101-4.26480E+05-7.41135E+03-1.84442E+04 3.11361E+04 7.45786E-11 4.50200E-11
 -1      1102-4.30074E+05-2.48257E+03-1.00639E+04 3.74810E+04-8.20819E-11 1.00044E-10
 -1      1103-4.28035E+05-1.90000E+02-5.77713E+03 3.10359E+04 8.45830E-11-7.00311E-11
 -1      1104-4.28621E+05-1.87308E+02-5.48513E+03 3.75893E+04-7.90124E-11-1.80989E-10
 -1      1105-4.27967E+05-3.35712E+02-7.63361E+03 3.10305E+04 1.74509E-11-5.53086E-11
 -1      1106-4.31170E+05-3.93880E+03-1.52235E+04 3.75432E+04 1.71156E-10 7.62270E-11
 -1      1107-4.25495E+05-1.17487E+04-2.89667E+04 3.10801E+04-4.43379E-11 1.54614E-10
 -1      1108-2.22486E+05-3.15638E+03-7.95124E+03 3.17392E+04-1.44155E-10-1.18519E-10
 -1      1109-2.24032E+05-1.05095E+03-4.51980E+03 3.82321E+04 1.60753E-10-7.32143E-11
 -1      1110-2.23148E+05-6.47238E+01-2.93926E+03 3.16426E+04-3.54703E-11 1.59162E-11
 -1      1111-2.23488E+05-1.07939E+02-3.34011E+03 3.83328E+04 3.16220E-10 3.29692E-11
 -1      1112-2.23062E+05-2.46442E+02-5.22727E+03 3.16392E+04-6.97042E-11 3.35035E-10
 -1      1113-2.25374E+05-2.84954E+03-1.08780E+04 3.82765E+04-2.71143E-11 2.66482E-10
 -1      1114-2.21262E+05-8.50764E+03-2.09188E+04 3.16984E+04-2.95586E-11 1.75532E-10
 -1      1115 4.28099E+04 2.67301E+03 6.43265E+03 2.96473E+04-8.00355E-11-1.54159E-10
 -1      1116 4.40762E+04 9.04891E+02 3.08293E+03 3.57336E+04-2.67619E-10-1.13801E-10
 -1      1117 4.33749E+04 1.01371E+02 9.58998E+02 2.95665E+04-1.13914E-10 8.00355E-11
 -1      1118 4.33787E+04-5.70872E+00-3.82954E+02 3.58156E+04-7.20206E-11-2.16914E-10
 -1      1119 4.34867E+04-1.28084E+02-1.89600E+03 2.95652E+04-1.07889E-10-3.25144E-10
 -1      1120 4.24124E+04-1.34417E+03-4.84967E+03 3.57523E+04 1.40858E-10-3.29408E-10
 -1      1121 4.43498E+04-4.01193E+03-9.74755E+03 2.96298E+04-3.88809E-11-1.24601E-10
 -1      1122 3.66653E+05 9.63917E+03 2.35928E+04 3.11041E+04-5.22959E-12 6.91216E-11
 -1      1123 3.71275E+05 3.24009E+03 1.20890E+04 3.75046E+04-4.22006E-10-4.97494E-10
 -1      1124 3.68686E+05 3.01984E+02 5.45205E+03 3.10289E+04-5.70708E-11 3.08205E-10
 -1      1125 3.69068E+05 1.02357E+02 2.80099E+03 3.75793E+04 4.40210E-10 7.10770E-10
 -1      1126 3.68848E+05-2.62353E+01 1.39421E+03 3.10291E+04 5.38876E-11 4.33829E-10
 -1      1127 3.68919E+05 4.01828E+01 8.15876E+02 3.75033E+04 2.04636E-11 6.79847E-11
 -1      1128 3.68852E+05 1.31749E+02 5.97293E+02 3.11050E+04 7.41238E-11 7.36691E-11
 -1      1129 8.33550E+05 1.98015E+04 4.92105E+04 7.74934E+04-2.20552E-10-8.00355E-11
 -1      1130 8.43144E+05 6.64272E+03 2.66528E+04 9.35510E+04 2.45109E-10-2.51248E-11
 -1      1131 8.37661E+05 5.31212E+02 1.49164E+04 7.73552E+04-5.51495E-10-1.90539E-10
 -1      1132 8.39152E+05 4.80200E+02 1.35414E+04 9.36818E+04-7.13271E-10 5.83896E-10
 -1      1133 8.37564E+05 7.73232E+02 1.81788E+04 7.73611E+04 7.74889E-10 5.65706E-10
 -1      1134 8.45122E+05 9.17244E+03 3.57194E+04 9.34395E+04 1.92085E-09 1.80989E-10
 -1      1135 8.31879E+05 2.73919E+04 6.77040E+04 7.76108E+04 2.66482E-10-8.80391E-10
 -1      1136-1.11860E+06-5.50799E+04-1.35618E+05 1.64630E+04-6.30280E-10-7.71252E-10
 -1      1137-1.14527E+06-1.84887E+04-7.08164E+04 1.97247E+04-3.31056E-10 1.38334E-09
 -1      1138-1.13021E+06-1.60118E+03-3.45634E+04 1.63888E+04-1.76897E-10 1.81899E-11
 -1      1139-1.13314E+06-7.75969E+02-2.31247E+04 1.98336E+04 3.86081E-10 6.28006E-10
 -1      1140-1.13072E+06-5.80260E+02-2.19732E+04 1.63756E+04 3.00133E-11-6.22549E-10
 -1      1141-1.13795E+06-8.54338E+03-3.58215E+04 1.98610E+04 4.99085E-11-1.66619E-09
 -1      1142-1.12543E+06-2.55964E+04-6.42730E+04 1.63623E+04 3.86535E-12-5.34783E-10
 -1      1143-9.81229E+05-1.95495E+04-4.84490E+04 2.45481E+04-8.18545E-12 1.13505E-09
 -1      1144-9.90682E+05-6.54525E+03-2.59210E+04 2.94152E+04 8.01265E-10-1.62800E-09
 -1      1145-9.85334E+05-5.23124E+02-1.39012E+04 2.43922E+04-8.60382E-10 1.49430E-09
 -1      1146-9.86638E+05-3.80114E+02-1.16393E+04 2.95974E+04-4.80668E-10 1.36197E-10
 -1      1147-9.85327E+05-5.63747E+02-1.45579E+04 2.43689E+04-2.89219E-10-2.77396E-10
 -1      1148-9.91113E+05-7.03943E+03-2.77487E+04 2.96562E+04-1.68620E-09 1.25851E-09
 -1      1149-9.80928E+05-2.10560E+04-5.21736E+04 2.43464E+04 5.37511E-10-1.12777E-10
 -1      1150-9.40200E+05-1.93315E+04-4.80617E+04 5.25106E+04-4.05635E-09 1.25874E-09
 -1      1151-9.49607E+05-6.41684E+03-2.58194E+04 6.32253E+04-1.21645E-09-1.50749E-09
 -1      1152-9.44306E+05-4.48822E+02-1.40565E+04 5.22750E+04 3.02589E-09-1.38880E-09
 -1      1153-9.45682E+05-3.09743E+02-1.21258E+04 6.34761E+04-2.03590E-09 2.98314E-10
 -1      1154-9.44285E+05-5.46677E+02-1.55937E+04 5.22534E+04-4.89581E-09 2.28420E-09
 -1      1155-9.50604E+05-7.57897E+03-3.00972E+04 6.34616E+04-8.54789E-09 2.45791E-09
 -1      1156-9.39485E+05-2.28646E+04-5.67792E+04 5.23144E+04-4.27440E-09 1.80808E-09
 -1      1157-6.87211E+05-1.21984E+04-3.06195E+04 5.68629E+04-2.59024E-09 2.41471E-10
 -1      1158-6.93216E+05-3.97576E+03-1.66665E+04 6.85904E+04 4.55111E-09-1.53523E-09
 -1      1159-6.89822E+05-1.90525E+02-9.49399E+03 5.66578E+04-3.45153E-09 2.47383E-10
 -1      1160-6.90815E+05-1.40698E+02-8.89690E+03 6.87954E+04 8.24684E-10-1.95087E-10
 -1      1161-6.89736E+05-3.98408E+02-1.22607E+04 5.66470E+04-3.50155E-10 2.93767E-10
 -1      1162-6.94886E+05-6.12824E+03-2.43585E+04 6.87163E+04-1.06661E-09-6.51539E-10
 -1      1163-6.85784E+05-1.86390E+04-4.63038E+04 5.67618E+04 6.09361E-11-1.16415E-10
 -1      1164-3.62636E+05-5.00677E+03-1.27622E+04 3.85464E+04-5.92445E-09 4.76348E-10
 -1      1165-3.65138E+05-1.59057E+03-7.09901E+03 4.65350E+04-2.03818E-09 7.91260E-11
 -1      1166-3.63708E+05-2.50906E+01-4.33320E+03 3.84308E+04-3.47177E-09 3.23780E-10
 -1      1167-3.64194E+05-3.67993E+01-4.52570E+03 4.66468E+04 8.11269E-10-2.35332E-10
 -1      1168-3.63617E+05-2.16175E+02-6.73236E+03 3.84284E+04 2.77714E-09-3.01327E-10
 -1      1169-3.66543E+05-3.47761E+03-1.37662E+04 4.65675E+04-4.92867E-09 4.97778E-10
 -1      1170-3.61351E+05-1.06192E+04-2.63600E+04 3.85250E+04-8.73570E-10 2.78305E-10
 -1      1171-1.31412E+05-9.25986E+02-2.49628E+03 2.06113E+04 5.34897E-09 4.09855E-10
 -1      1172-1.31900E+05-2.64668E+02-1.49211E+03 2.49037E+04 8.93488E-09-9.01196E-10
 -1      1173-1.31612E+05 3.33194E+01-1.10316E+03 2.05657E+04-1.64971E-09-8.18545E-12
 -1      1174-1.31757E+05 1.02069E+01-1.44084E+03 2.49467E+04-1.70971E-09-9.18362E-10
 -1      1175-1.31559E+05-7.38341E+01-2.41963E+03 2.05672E+04 1.20599E-09 1.00613E-11
 -1      1176-1.32663E+05-1.30448E+03-5.14983E+03 2.48879E+04-3.64946E-09-2.14641E-10
 -1      1177-1.30697E+05-4.01169E+03-9.95709E+03 2.06301E+04 3.95130E-09 4.07454E-10
 -3
 9999
