    1C
    1UUSER                                                              
    1UDATE              11.october.2022                                 
    1UTIME              17:31:13                                        
    1UHOST                                                              
    1UPGM               CalculiX                                        
    1UVERSION           Version 2.20                             
    1UCOMPILETIME       Sun Jul 31 18:08:37 CEST 2022                    
    1UDIR                                                               
    1UDBN                                                               
    1UMAT    1MESH_MATERIAL                                             
    2C                           841                                     1
 -1         1 0.00000E+00 0.00000E+00 0.00000E+00
 -1         2 1.66667E-02 0.00000E+00 0.00000E+00
 -1         3 3.33333E-02 0.00000E+00 0.00000E+00
 -1         4 5.00000E-02 0.00000E+00 0.00000E+00
 -1         5 6.66667E-02 0.00000E+00 0.00000E+00
 -1         8 0.00000E+00 6.25000E-03 0.00000E+00
 -1         9 1.66667E-02 6.25000E-03 0.00000E+00
 -1        10 3.33333E-02 6.25000E-03 0.00000E+00
 -1        11 5.00000E-02 6.25000E-03 0.00000E+00
 -1        12 6.66667E-02 6.25000E-03 0.00000E+00
 -1        15 0.00000E+00 1.25000E-02 0.00000E+00
 -1        16 1.66667E-02 1.25000E-02 0.00000E+00
 -1        17 3.33333E-02 1.25000E-02 0.00000E+00
 -1        18 5.00000E-02 1.25000E-02 0.00000E+00
 -1        19 6.66667E-02 1.25000E-02 0.00000E+00
 -1        20 8.33333E-02 1.25000E-02 0.00000E+00
 -1        21 1.00000E-01 1.25000E-02 0.00000E+00
 -1        22 0.00000E+00 1.87500E-02 0.00000E+00
 -1        23 1.66667E-02 1.87500E-02 0.00000E+00
 -1        24 3.33333E-02 1.87500E-02 0.00000E+00
 -1        25 5.00000E-02 1.87500E-02 0.00000E+00
 -1        26 6.66667E-02 1.87500E-02 0.00000E+00
 -1        27 8.33333E-02 1.87500E-02 0.00000E+00
 -1        28 1.00000E-01 1.87500E-02 0.00000E+00
 -1        29 0.00000E+00 2.50000E-02 0.00000E+00
 -1        30 1.66667E-02 2.50000E-02 0.00000E+00
 -1        31 3.33333E-02 2.50000E-02 0.00000E+00
 -1        32 5.00000E-02 2.50000E-02 0.00000E+00
 -1        33 6.66667E-02 2.50000E-02 0.00000E+00
 -1        34 8.33333E-02 2.50000E-02 0.00000E+00
 -1        35 1.00000E-01 2.50000E-02 0.00000E+00
 -1        36 1.04167E-03 0.00000E+00 0.00000E+00
 -1        37 2.08333E-03 0.00000E+00 0.00000E+00
 -1        38 3.12500E-03 0.00000E+00 0.00000E+00
 -1        39 4.16667E-03 0.00000E+00 0.00000E+00
 -1        40 5.20833E-03 0.00000E+00 0.00000E+00
 -1        41 6.25000E-03 0.00000E+00 0.00000E+00
 -1        42 7.29167E-03 0.00000E+00 0.00000E+00
 -1        43 8.33333E-03 0.00000E+00 0.00000E+00
 -1        44 9.37500E-03 0.00000E+00 0.00000E+00
 -1        45 1.04167E-02 0.00000E+00 0.00000E+00
 -1        46 1.14583E-02 0.00000E+00 0.00000E+00
 -1        47 1.25000E-02 0.00000E+00 0.00000E+00
 -1        48 1.35417E-02 0.00000E+00 0.00000E+00
 -1        49 1.45833E-02 0.00000E+00 0.00000E+00
 -1        50 1.56250E-02 0.00000E+00 0.00000E+00
 -1        51 0.00000E+00 1.04167E-03 0.00000E+00
 -1        52 0.00000E+00 2.08333E-03 0.00000E+00
 -1        53 0.00000E+00 3.12500E-03 0.00000E+00
 -1        54 0.00000E+00 4.16667E-03 0.00000E+00
 -1        55 0.00000E+00 5.20833E-03 0.00000E+00
 -1        56 1.04167E-03 3.90630E-04 0.00000E+00
 -1        57 2.08333E-03 7.81250E-04 0.00000E+00
 -1        58 3.12500E-03 1.17188E-03 0.00000E+00
 -1        59 4.16667E-03 1.56250E-03 0.00000E+00
 -1        60 5.20833E-03 1.95312E-03 0.00000E+00
 -1        61 6.25000E-03 2.34375E-03 0.00000E+00
 -1        62 7.29167E-03 2.73438E-03 0.00000E+00
 -1        63 8.33333E-03 3.12500E-03 0.00000E+00
 -1        64 9.37500E-03 3.51563E-03 0.00000E+00
 -1        65 1.04167E-02 3.90625E-03 0.00000E+00
 -1        66 1.14583E-02 4.29688E-03 0.00000E+00
 -1        67 1.25000E-02 4.68750E-03 0.00000E+00
 -1        68 1.35417E-02 5.07813E-03 0.00000E+00
 -1        69 1.45833E-02 5.46875E-03 0.00000E+00
 -1        70 1.56250E-02 5.85938E-03 0.00000E+00
 -1        71 1.77083E-02 0.00000E+00 0.00000E+00
 -1        72 1.87500E-02 0.00000E+00 0.00000E+00
 -1        73 1.97917E-02 0.00000E+00 0.00000E+00
 -1        74 2.08333E-02 0.00000E+00 0.00000E+00
 -1        75 2.18750E-02 0.00000E+00 0.00000E+00
 -1        76 2.29167E-02 0.00000E+00 0.00000E+00
 -1        77 2.39583E-02 0.00000E+00 0.00000E+00
 -1        78 2.50000E-02 0.00000E+00 0.00000E+00
 -1        79 2.60417E-02 0.00000E+00 0.00000E+00
 -1        80 2.70833E-02 0.00000E+00 0.00000E+00
 -1        81 2.81250E-02 0.00000E+00 0.00000E+00
 -1        82 2.91667E-02 0.00000E+00 0.00000E+00
 -1        83 3.02083E-02 0.00000E+00 0.00000E+00
 -1        84 3.12500E-02 0.00000E+00 0.00000E+00
 -1        85 3.22917E-02 0.00000E+00 0.00000E+00
 -1        86 1.66667E-02 1.04167E-03 0.00000E+00
 -1        87 1.66667E-02 2.08333E-03 0.00000E+00
 -1        88 1.66667E-02 3.12500E-03 0.00000E+00
 -1        89 1.66667E-02 4.16667E-03 0.00000E+00
 -1        90 1.66667E-02 5.20833E-03 0.00000E+00
 -1        91 1.77083E-02 3.90630E-04 0.00000E+00
 -1        92 1.87500E-02 7.81250E-04 0.00000E+00
 -1        93 1.97917E-02 1.17188E-03 0.00000E+00
 -1        94 2.08333E-02 1.56250E-03 0.00000E+00
 -1        95 2.18750E-02 1.95312E-03 0.00000E+00
 -1        96 2.29167E-02 2.34375E-03 0.00000E+00
 -1        97 2.39583E-02 2.73438E-03 0.00000E+00
 -1        98 2.50000E-02 3.12500E-03 0.00000E+00
 -1        99 2.60417E-02 3.51563E-03 0.00000E+00
 -1       100 2.70833E-02 3.90625E-03 0.00000E+00
 -1       101 2.81250E-02 4.29688E-03 0.00000E+00
 -1       102 2.91667E-02 4.68750E-03 0.00000E+00
 -1       103 3.02083E-02 5.07813E-03 0.00000E+00
 -1       104 3.12500E-02 5.46875E-03 0.00000E+00
 -1       105 3.22917E-02 5.85938E-03 0.00000E+00
 -1       106 3.43750E-02 0.00000E+00 0.00000E+00
 -1       107 3.54167E-02 0.00000E+00 0.00000E+00
 -1       108 3.64583E-02 0.00000E+00 0.00000E+00
 -1       109 3.75000E-02 0.00000E+00 0.00000E+00
 -1       110 3.85417E-02 0.00000E+00 0.00000E+00
 -1       111 3.95833E-02 0.00000E+00 0.00000E+00
 -1       112 4.06250E-02 0.00000E+00 0.00000E+00
 -1       113 4.16667E-02 0.00000E+00 0.00000E+00
 -1       114 4.27083E-02 0.00000E+00 0.00000E+00
 -1       115 4.37500E-02 0.00000E+00 0.00000E+00
 -1       116 4.47917E-02 0.00000E+00 0.00000E+00
 -1       117 4.58333E-02 0.00000E+00 0.00000E+00
 -1       118 4.68750E-02 0.00000E+00 0.00000E+00
 -1       119 4.79167E-02 0.00000E+00 0.00000E+00
 -1       120 4.89583E-02 0.00000E+00 0.00000E+00
 -1       121 3.33333E-02 1.04167E-03 0.00000E+00
 -1       122 3.33333E-02 2.08333E-03 0.00000E+00
 -1       123 3.33333E-02 3.12500E-03 0.00000E+00
 -1       124 3.33333E-02 4.16667E-03 0.00000E+00
 -1       125 3.33333E-02 5.20833E-03 0.00000E+00
 -1       126 3.43750E-02 3.90630E-04 0.00000E+00
 -1       127 3.54167E-02 7.81250E-04 0.00000E+00
 -1       128 3.64583E-02 1.17188E-03 0.00000E+00
 -1       129 3.75000E-02 1.56250E-03 0.00000E+00
 -1       130 3.85417E-02 1.95312E-03 0.00000E+00
 -1       131 3.95833E-02 2.34375E-03 0.00000E+00
 -1       132 4.06250E-02 2.73438E-03 0.00000E+00
 -1       133 4.16667E-02 3.12500E-03 0.00000E+00
 -1       134 4.27083E-02 3.51563E-03 0.00000E+00
 -1       135 4.37500E-02 3.90625E-03 0.00000E+00
 -1       136 4.47917E-02 4.29688E-03 0.00000E+00
 -1       137 4.58333E-02 4.68750E-03 0.00000E+00
 -1       138 4.68750E-02 5.07813E-03 0.00000E+00
 -1       139 4.79167E-02 5.46875E-03 0.00000E+00
 -1       140 4.89583E-02 5.85938E-03 0.00000E+00
 -1       141 5.10417E-02 0.00000E+00 0.00000E+00
 -1       142 5.20833E-02 0.00000E+00 0.00000E+00
 -1       143 5.31250E-02 0.00000E+00 0.00000E+00
 -1       144 5.41667E-02 0.00000E+00 0.00000E+00
 -1       145 5.52083E-02 0.00000E+00 0.00000E+00
 -1       146 5.62500E-02 0.00000E+00 0.00000E+00
 -1       147 5.72917E-02 0.00000E+00 0.00000E+00
 -1       148 5.83333E-02 0.00000E+00 0.00000E+00
 -1       149 5.93750E-02 0.00000E+00 0.00000E+00
 -1       150 6.04167E-02 0.00000E+00 0.00000E+00
 -1       151 6.14583E-02 0.00000E+00 0.00000E+00
 -1       152 6.25000E-02 0.00000E+00 0.00000E+00
 -1       153 6.35417E-02 0.00000E+00 0.00000E+00
 -1       154 6.45833E-02 0.00000E+00 0.00000E+00
 -1       155 6.56250E-02 0.00000E+00 0.00000E+00
 -1       156 5.00000E-02 1.04167E-03 0.00000E+00
 -1       157 5.00000E-02 2.08333E-03 0.00000E+00
 -1       158 5.00000E-02 3.12500E-03 0.00000E+00
 -1       159 5.00000E-02 4.16667E-03 0.00000E+00
 -1       160 5.00000E-02 5.20833E-03 0.00000E+00
 -1       161 5.10417E-02 3.90630E-04 0.00000E+00
 -1       162 5.20833E-02 7.81250E-04 0.00000E+00
 -1       163 5.31250E-02 1.17188E-03 0.00000E+00
 -1       164 5.41667E-02 1.56250E-03 0.00000E+00
 -1       165 5.52083E-02 1.95312E-03 0.00000E+00
 -1       166 5.62500E-02 2.34375E-03 0.00000E+00
 -1       167 5.72917E-02 2.73438E-03 0.00000E+00
 -1       168 5.83333E-02 3.12500E-03 0.00000E+00
 -1       169 5.93750E-02 3.51563E-03 0.00000E+00
 -1       170 6.04167E-02 3.90625E-03 0.00000E+00
 -1       171 6.14583E-02 4.29688E-03 0.00000E+00
 -1       172 6.25000E-02 4.68750E-03 0.00000E+00
 -1       173 6.35417E-02 5.07813E-03 0.00000E+00
 -1       174 6.45833E-02 5.46875E-03 0.00000E+00
 -1       175 6.56250E-02 5.85938E-03 0.00000E+00
 -1       191 6.66667E-02 1.04167E-03 0.00000E+00
 -1       192 6.66667E-02 2.08333E-03 0.00000E+00
 -1       193 6.66667E-02 3.12500E-03 0.00000E+00
 -1       194 6.66667E-02 4.16667E-03 0.00000E+00
 -1       195 6.66667E-02 5.20833E-03 0.00000E+00
 -1       251 1.04167E-03 6.25000E-03 0.00000E+00
 -1       252 2.08333E-03 6.25000E-03 0.00000E+00
 -1       253 3.12500E-03 6.25000E-03 0.00000E+00
 -1       254 4.16667E-03 6.25000E-03 0.00000E+00
 -1       255 5.20833E-03 6.25000E-03 0.00000E+00
 -1       256 6.25000E-03 6.25000E-03 0.00000E+00
 -1       257 7.29167E-03 6.25000E-03 0.00000E+00
 -1       258 8.33333E-03 6.25000E-03 0.00000E+00
 -1       259 9.37500E-03 6.25000E-03 0.00000E+00
 -1       260 1.04167E-02 6.25000E-03 0.00000E+00
 -1       261 1.14583E-02 6.25000E-03 0.00000E+00
 -1       262 1.25000E-02 6.25000E-03 0.00000E+00
 -1       263 1.35417E-02 6.25000E-03 0.00000E+00
 -1       264 1.45833E-02 6.25000E-03 0.00000E+00
 -1       265 1.56250E-02 6.25000E-03 0.00000E+00
 -1       266 0.00000E+00 7.29167E-03 0.00000E+00
 -1       267 0.00000E+00 8.33333E-03 0.00000E+00
 -1       268 0.00000E+00 9.37500E-03 0.00000E+00
 -1       269 0.00000E+00 1.04167E-02 0.00000E+00
 -1       270 0.00000E+00 1.14583E-02 0.00000E+00
 -1       271 1.04167E-03 6.64063E-03 0.00000E+00
 -1       272 2.08333E-03 7.03125E-03 0.00000E+00
 -1       273 3.12500E-03 7.42188E-03 0.00000E+00
 -1       274 4.16667E-03 7.81250E-03 0.00000E+00
 -1       275 5.20833E-03 8.20313E-03 0.00000E+00
 -1       276 6.25000E-03 8.59375E-03 0.00000E+00
 -1       277 7.29167E-03 8.98438E-03 0.00000E+00
 -1       278 8.33333E-03 9.37500E-03 0.00000E+00
 -1       279 9.37500E-03 9.76562E-03 0.00000E+00
 -1       280 1.04167E-02 1.01562E-02 0.00000E+00
 -1       281 1.14583E-02 1.05469E-02 0.00000E+00
 -1       282 1.25000E-02 1.09375E-02 0.00000E+00
 -1       283 1.35417E-02 1.13281E-02 0.00000E+00
 -1       284 1.45833E-02 1.17188E-02 0.00000E+00
 -1       285 1.56250E-02 1.21094E-02 0.00000E+00
 -1       286 1.77083E-02 6.25000E-03 0.00000E+00
 -1       287 1.87500E-02 6.25000E-03 0.00000E+00
 -1       288 1.97917E-02 6.25000E-03 0.00000E+00
 -1       289 2.08333E-02 6.25000E-03 0.00000E+00
 -1       290 2.18750E-02 6.25000E-03 0.00000E+00
 -1       291 2.29167E-02 6.25000E-03 0.00000E+00
 -1       292 2.39583E-02 6.25000E-03 0.00000E+00
 -1       293 2.50000E-02 6.25000E-03 0.00000E+00
 -1       294 2.60417E-02 6.25000E-03 0.00000E+00
 -1       295 2.70833E-02 6.25000E-03 0.00000E+00
 -1       296 2.81250E-02 6.25000E-03 0.00000E+00
 -1       297 2.91667E-02 6.25000E-03 0.00000E+00
 -1       298 3.02083E-02 6.25000E-03 0.00000E+00
 -1       299 3.12500E-02 6.25000E-03 0.00000E+00
 -1       300 3.22917E-02 6.25000E-03 0.00000E+00
 -1       301 1.66667E-02 7.29167E-03 0.00000E+00
 -1       302 1.66667E-02 8.33333E-03 0.00000E+00
 -1       303 1.66667E-02 9.37500E-03 0.00000E+00
 -1       304 1.66667E-02 1.04167E-02 0.00000E+00
 -1       305 1.66667E-02 1.14583E-02 0.00000E+00
 -1       306 1.77083E-02 6.64063E-03 0.00000E+00
 -1       307 1.87500E-02 7.03125E-03 0.00000E+00
 -1       308 1.97917E-02 7.42188E-03 0.00000E+00
 -1       309 2.08333E-02 7.81250E-03 0.00000E+00
 -1       310 2.18750E-02 8.20313E-03 0.00000E+00
 -1       311 2.29167E-02 8.59375E-03 0.00000E+00
 -1       312 2.39583E-02 8.98438E-03 0.00000E+00
 -1       313 2.50000E-02 9.37500E-03 0.00000E+00
 -1       314 2.60417E-02 9.76562E-03 0.00000E+00
 -1       315 2.70833E-02 1.01562E-02 0.00000E+00
 -1       316 2.81250E-02 1.05469E-02 0.00000E+00
 -1       317 2.91667E-02 1.09375E-02 0.00000E+00
 -1       318 3.02083E-02 1.13281E-02 0.00000E+00
 -1       319 3.12500E-02 1.17188E-02 0.00000E+00
 -1       320 3.22917E-02 1.21094E-02 0.00000E+00
 -1       321 3.43750E-02 6.25000E-03 0.00000E+00
 -1       322 3.54167E-02 6.25000E-03 0.00000E+00
 -1       323 3.64583E-02 6.25000E-03 0.00000E+00
 -1       324 3.75000E-02 6.25000E-03 0.00000E+00
 -1       325 3.85417E-02 6.25000E-03 0.00000E+00
 -1       326 3.95833E-02 6.25000E-03 0.00000E+00
 -1       327 4.06250E-02 6.25000E-03 0.00000E+00
 -1       328 4.16667E-02 6.25000E-03 0.00000E+00
 -1       329 4.27083E-02 6.25000E-03 0.00000E+00
 -1       330 4.37500E-02 6.25000E-03 0.00000E+00
 -1       331 4.47917E-02 6.25000E-03 0.00000E+00
 -1       332 4.58333E-02 6.25000E-03 0.00000E+00
 -1       333 4.68750E-02 6.25000E-03 0.00000E+00
 -1       334 4.79167E-02 6.25000E-03 0.00000E+00
 -1       335 4.89583E-02 6.25000E-03 0.00000E+00
 -1       336 3.33333E-02 7.29167E-03 0.00000E+00
 -1       337 3.33333E-02 8.33333E-03 0.00000E+00
 -1       338 3.33333E-02 9.37500E-03 0.00000E+00
 -1       339 3.33333E-02 1.04167E-02 0.00000E+00
 -1       340 3.33333E-02 1.14583E-02 0.00000E+00
 -1       341 3.43750E-02 6.64063E-03 0.00000E+00
 -1       342 3.54167E-02 7.03125E-03 0.00000E+00
 -1       343 3.64583E-02 7.42188E-03 0.00000E+00
 -1       344 3.75000E-02 7.81250E-03 0.00000E+00
 -1       345 3.85417E-02 8.20313E-03 0.00000E+00
 -1       346 3.95833E-02 8.59375E-03 0.00000E+00
 -1       347 4.06250E-02 8.98438E-03 0.00000E+00
 -1       348 4.16667E-02 9.37500E-03 0.00000E+00
 -1       349 4.27083E-02 9.76562E-03 0.00000E+00
 -1       350 4.37500E-02 1.01562E-02 0.00000E+00
 -1       351 4.47917E-02 1.05469E-02 0.00000E+00
 -1       352 4.58333E-02 1.09375E-02 0.00000E+00
 -1       353 4.68750E-02 1.13281E-02 0.00000E+00
 -1       354 4.79167E-02 1.17188E-02 0.00000E+00
 -1       355 4.89583E-02 1.21094E-02 0.00000E+00
 -1       356 5.10417E-02 6.25000E-03 0.00000E+00
 -1       357 5.20833E-02 6.25000E-03 0.00000E+00
 -1       358 5.31250E-02 6.25000E-03 0.00000E+00
 -1       359 5.41667E-02 6.25000E-03 0.00000E+00
 -1       360 5.52083E-02 6.25000E-03 0.00000E+00
 -1       361 5.62500E-02 6.25000E-03 0.00000E+00
 -1       362 5.72917E-02 6.25000E-03 0.00000E+00
 -1       363 5.83333E-02 6.25000E-03 0.00000E+00
 -1       364 5.93750E-02 6.25000E-03 0.00000E+00
 -1       365 6.04167E-02 6.25000E-03 0.00000E+00
 -1       366 6.14583E-02 6.25000E-03 0.00000E+00
 -1       367 6.25000E-02 6.25000E-03 0.00000E+00
 -1       368 6.35417E-02 6.25000E-03 0.00000E+00
 -1       369 6.45833E-02 6.25000E-03 0.00000E+00
 -1       370 6.56250E-02 6.25000E-03 0.00000E+00
 -1       371 5.00000E-02 7.29167E-03 0.00000E+00
 -1       372 5.00000E-02 8.33333E-03 0.00000E+00
 -1       373 5.00000E-02 9.37500E-03 0.00000E+00
 -1       374 5.00000E-02 1.04167E-02 0.00000E+00
 -1       375 5.00000E-02 1.14583E-02 0.00000E+00
 -1       376 5.10417E-02 6.64063E-03 0.00000E+00
 -1       377 5.20833E-02 7.03125E-03 0.00000E+00
 -1       378 5.31250E-02 7.42188E-03 0.00000E+00
 -1       379 5.41667E-02 7.81250E-03 0.00000E+00
 -1       380 5.52083E-02 8.20313E-03 0.00000E+00
 -1       381 5.62500E-02 8.59375E-03 0.00000E+00
 -1       382 5.72917E-02 8.98438E-03 0.00000E+00
 -1       383 5.83333E-02 9.37500E-03 0.00000E+00
 -1       384 5.93750E-02 9.76562E-03 0.00000E+00
 -1       385 6.04167E-02 1.01562E-02 0.00000E+00
 -1       386 6.14583E-02 1.05469E-02 0.00000E+00
 -1       387 6.25000E-02 1.09375E-02 0.00000E+00
 -1       388 6.35417E-02 1.13281E-02 0.00000E+00
 -1       389 6.45833E-02 1.17188E-02 0.00000E+00
 -1       390 6.56250E-02 1.21094E-02 0.00000E+00
 -1       406 6.66667E-02 7.29167E-03 0.00000E+00
 -1       407 6.66667E-02 8.33333E-03 0.00000E+00
 -1       408 6.66667E-02 9.37500E-03 0.00000E+00
 -1       409 6.66667E-02 1.04167E-02 0.00000E+00
 -1       410 6.66667E-02 1.14583E-02 0.00000E+00
 -1       466 1.04167E-03 1.25000E-02 0.00000E+00
 -1       467 2.08333E-03 1.25000E-02 0.00000E+00
 -1       468 3.12500E-03 1.25000E-02 0.00000E+00
 -1       469 4.16667E-03 1.25000E-02 0.00000E+00
 -1       470 5.20833E-03 1.25000E-02 0.00000E+00
 -1       471 6.25000E-03 1.25000E-02 0.00000E+00
 -1       472 7.29167E-03 1.25000E-02 0.00000E+00
 -1       473 8.33333E-03 1.25000E-02 0.00000E+00
 -1       474 9.37500E-03 1.25000E-02 0.00000E+00
 -1       475 1.04167E-02 1.25000E-02 0.00000E+00
 -1       476 1.14583E-02 1.25000E-02 0.00000E+00
 -1       477 1.25000E-02 1.25000E-02 0.00000E+00
 -1       478 1.35417E-02 1.25000E-02 0.00000E+00
 -1       479 1.45833E-02 1.25000E-02 0.00000E+00
 -1       480 1.56250E-02 1.25000E-02 0.00000E+00
 -1       481 0.00000E+00 1.35417E-02 0.00000E+00
 -1       482 0.00000E+00 1.45833E-02 0.00000E+00
 -1       483 0.00000E+00 1.56250E-02 0.00000E+00
 -1       484 0.00000E+00 1.66667E-02 0.00000E+00
 -1       485 0.00000E+00 1.77083E-02 0.00000E+00
 -1       486 1.04167E-03 1.28906E-02 0.00000E+00
 -1       487 2.08333E-03 1.32813E-02 0.00000E+00
 -1       488 3.12500E-03 1.36719E-02 0.00000E+00
 -1       489 4.16667E-03 1.40625E-02 0.00000E+00
 -1       490 5.20833E-03 1.44531E-02 0.00000E+00
 -1       491 6.25000E-03 1.48437E-02 0.00000E+00
 -1       492 7.29167E-03 1.52344E-02 0.00000E+00
 -1       493 8.33333E-03 1.56250E-02 0.00000E+00
 -1       494 9.37500E-03 1.60156E-02 0.00000E+00
 -1       495 1.04167E-02 1.64062E-02 0.00000E+00
 -1       496 1.14583E-02 1.67969E-02 0.00000E+00
 -1       497 1.25000E-02 1.71875E-02 0.00000E+00
 -1       498 1.35417E-02 1.75781E-02 0.00000E+00
 -1       499 1.45833E-02 1.79687E-02 0.00000E+00
 -1       500 1.56250E-02 1.83594E-02 0.00000E+00
 -1       501 1.77083E-02 1.25000E-02 0.00000E+00
 -1       502 1.87500E-02 1.25000E-02 0.00000E+00
 -1       503 1.97917E-02 1.25000E-02 0.00000E+00
 -1       504 2.08333E-02 1.25000E-02 0.00000E+00
 -1       505 2.18750E-02 1.25000E-02 0.00000E+00
 -1       506 2.29167E-02 1.25000E-02 0.00000E+00
 -1       507 2.39583E-02 1.25000E-02 0.00000E+00
 -1       508 2.50000E-02 1.25000E-02 0.00000E+00
 -1       509 2.60417E-02 1.25000E-02 0.00000E+00
 -1       510 2.70833E-02 1.25000E-02 0.00000E+00
 -1       511 2.81250E-02 1.25000E-02 0.00000E+00
 -1       512 2.91667E-02 1.25000E-02 0.00000E+00
 -1       513 3.02083E-02 1.25000E-02 0.00000E+00
 -1       514 3.12500E-02 1.25000E-02 0.00000E+00
 -1       515 3.22917E-02 1.25000E-02 0.00000E+00
 -1       516 1.66667E-02 1.35417E-02 0.00000E+00
 -1       517 1.66667E-02 1.45833E-02 0.00000E+00
 -1       518 1.66667E-02 1.56250E-02 0.00000E+00
 -1       519 1.66667E-02 1.66667E-02 0.00000E+00
 -1       520 1.66667E-02 1.77083E-02 0.00000E+00
 -1       521 1.77083E-02 1.28906E-02 0.00000E+00
 -1       522 1.87500E-02 1.32813E-02 0.00000E+00
 -1       523 1.97917E-02 1.36719E-02 0.00000E+00
 -1       524 2.08333E-02 1.40625E-02 0.00000E+00
 -1       525 2.18750E-02 1.44531E-02 0.00000E+00
 -1       526 2.29167E-02 1.48437E-02 0.00000E+00
 -1       527 2.39583E-02 1.52344E-02 0.00000E+00
 -1       528 2.50000E-02 1.56250E-02 0.00000E+00
 -1       529 2.60417E-02 1.60156E-02 0.00000E+00
 -1       530 2.70833E-02 1.64062E-02 0.00000E+00
 -1       531 2.81250E-02 1.67969E-02 0.00000E+00
 -1       532 2.91667E-02 1.71875E-02 0.00000E+00
 -1       533 3.02083E-02 1.75781E-02 0.00000E+00
 -1       534 3.12500E-02 1.79687E-02 0.00000E+00
 -1       535 3.22917E-02 1.83594E-02 0.00000E+00
 -1       536 3.43750E-02 1.25000E-02 0.00000E+00
 -1       537 3.54167E-02 1.25000E-02 0.00000E+00
 -1       538 3.64583E-02 1.25000E-02 0.00000E+00
 -1       539 3.75000E-02 1.25000E-02 0.00000E+00
 -1       540 3.85417E-02 1.25000E-02 0.00000E+00
 -1       541 3.95833E-02 1.25000E-02 0.00000E+00
 -1       542 4.06250E-02 1.25000E-02 0.00000E+00
 -1       543 4.16667E-02 1.25000E-02 0.00000E+00
 -1       544 4.27083E-02 1.25000E-02 0.00000E+00
 -1       545 4.37500E-02 1.25000E-02 0.00000E+00
 -1       546 4.47917E-02 1.25000E-02 0.00000E+00
 -1       547 4.58333E-02 1.25000E-02 0.00000E+00
 -1       548 4.68750E-02 1.25000E-02 0.00000E+00
 -1       549 4.79167E-02 1.25000E-02 0.00000E+00
 -1       550 4.89583E-02 1.25000E-02 0.00000E+00
 -1       551 3.33333E-02 1.35417E-02 0.00000E+00
 -1       552 3.33333E-02 1.45833E-02 0.00000E+00
 -1       553 3.33333E-02 1.56250E-02 0.00000E+00
 -1       554 3.33333E-02 1.66667E-02 0.00000E+00
 -1       555 3.33333E-02 1.77083E-02 0.00000E+00
 -1       556 3.43750E-02 1.28906E-02 0.00000E+00
 -1       557 3.54167E-02 1.32813E-02 0.00000E+00
 -1       558 3.64583E-02 1.36719E-02 0.00000E+00
 -1       559 3.75000E-02 1.40625E-02 0.00000E+00
 -1       560 3.85417E-02 1.44531E-02 0.00000E+00
 -1       561 3.95833E-02 1.48437E-02 0.00000E+00
 -1       562 4.06250E-02 1.52344E-02 0.00000E+00
 -1       563 4.16667E-02 1.56250E-02 0.00000E+00
 -1       564 4.27083E-02 1.60156E-02 0.00000E+00
 -1       565 4.37500E-02 1.64062E-02 0.00000E+00
 -1       566 4.47917E-02 1.67969E-02 0.00000E+00
 -1       567 4.58333E-02 1.71875E-02 0.00000E+00
 -1       568 4.68750E-02 1.75781E-02 0.00000E+00
 -1       569 4.79167E-02 1.79687E-02 0.00000E+00
 -1       570 4.89583E-02 1.83594E-02 0.00000E+00
 -1       571 5.10417E-02 1.25000E-02 0.00000E+00
 -1       572 5.20833E-02 1.25000E-02 0.00000E+00
 -1       573 5.31250E-02 1.25000E-02 0.00000E+00
 -1       574 5.41667E-02 1.25000E-02 0.00000E+00
 -1       575 5.52083E-02 1.25000E-02 0.00000E+00
 -1       576 5.62500E-02 1.25000E-02 0.00000E+00
 -1       577 5.72917E-02 1.25000E-02 0.00000E+00
 -1       578 5.83333E-02 1.25000E-02 0.00000E+00
 -1       579 5.93750E-02 1.25000E-02 0.00000E+00
 -1       580 6.04167E-02 1.25000E-02 0.00000E+00
 -1       581 6.14583E-02 1.25000E-02 0.00000E+00
 -1       582 6.25000E-02 1.25000E-02 0.00000E+00
 -1       583 6.35417E-02 1.25000E-02 0.00000E+00
 -1       584 6.45833E-02 1.25000E-02 0.00000E+00
 -1       585 6.56250E-02 1.25000E-02 0.00000E+00
 -1       586 5.00000E-02 1.35417E-02 0.00000E+00
 -1       587 5.00000E-02 1.45833E-02 0.00000E+00
 -1       588 5.00000E-02 1.56250E-02 0.00000E+00
 -1       589 5.00000E-02 1.66667E-02 0.00000E+00
 -1       590 5.00000E-02 1.77083E-02 0.00000E+00
 -1       591 5.10417E-02 1.28906E-02 0.00000E+00
 -1       592 5.20833E-02 1.32813E-02 0.00000E+00
 -1       593 5.31250E-02 1.36719E-02 0.00000E+00
 -1       594 5.41667E-02 1.40625E-02 0.00000E+00
 -1       595 5.52083E-02 1.44531E-02 0.00000E+00
 -1       596 5.62500E-02 1.48437E-02 0.00000E+00
 -1       597 5.72917E-02 1.52344E-02 0.00000E+00
 -1       598 5.83333E-02 1.56250E-02 0.00000E+00
 -1       599 5.93750E-02 1.60156E-02 0.00000E+00
 -1       600 6.04167E-02 1.64062E-02 0.00000E+00
 -1       601 6.14583E-02 1.67969E-02 0.00000E+00
 -1       602 6.25000E-02 1.71875E-02 0.00000E+00
 -1       603 6.35417E-02 1.75781E-02 0.00000E+00
 -1       604 6.45833E-02 1.79687E-02 0.00000E+00
 -1       605 6.56250E-02 1.83594E-02 0.00000E+00
 -1       606 6.77083E-02 1.25000E-02 0.00000E+00
 -1       607 6.87500E-02 1.25000E-02 0.00000E+00
 -1       608 6.97917E-02 1.25000E-02 0.00000E+00
 -1       609 7.08333E-02 1.25000E-02 0.00000E+00
 -1       610 7.18750E-02 1.25000E-02 0.00000E+00
 -1       611 7.29167E-02 1.25000E-02 0.00000E+00
 -1       612 7.39583E-02 1.25000E-02 0.00000E+00
 -1       613 7.50000E-02 1.25000E-02 0.00000E+00
 -1       614 7.60417E-02 1.25000E-02 0.00000E+00
 -1       615 7.70833E-02 1.25000E-02 0.00000E+00
 -1       616 7.81250E-02 1.25000E-02 0.00000E+00
 -1       617 7.91667E-02 1.25000E-02 0.00000E+00
 -1       618 8.02083E-02 1.25000E-02 0.00000E+00
 -1       619 8.12500E-02 1.25000E-02 0.00000E+00
 -1       620 8.22917E-02 1.25000E-02 0.00000E+00
 -1       621 6.66667E-02 1.35417E-02 0.00000E+00
 -1       622 6.66667E-02 1.45833E-02 0.00000E+00
 -1       623 6.66667E-02 1.56250E-02 0.00000E+00
 -1       624 6.66667E-02 1.66667E-02 0.00000E+00
 -1       625 6.66667E-02 1.77083E-02 0.00000E+00
 -1       626 6.77083E-02 1.28906E-02 0.00000E+00
 -1       627 6.87500E-02 1.32813E-02 0.00000E+00
 -1       628 6.97917E-02 1.36719E-02 0.00000E+00
 -1       629 7.08333E-02 1.40625E-02 0.00000E+00
 -1       630 7.18750E-02 1.44531E-02 0.00000E+00
 -1       631 7.29167E-02 1.48437E-02 0.00000E+00
 -1       632 7.39583E-02 1.52344E-02 0.00000E+00
 -1       633 7.50000E-02 1.56250E-02 0.00000E+00
 -1       634 7.60417E-02 1.60156E-02 0.00000E+00
 -1       635 7.70833E-02 1.64062E-02 0.00000E+00
 -1       636 7.81250E-02 1.67969E-02 0.00000E+00
 -1       637 7.91667E-02 1.71875E-02 0.00000E+00
 -1       638 8.02083E-02 1.75781E-02 0.00000E+00
 -1       639 8.12500E-02 1.79687E-02 0.00000E+00
 -1       640 8.22917E-02 1.83594E-02 0.00000E+00
 -1       641 8.43750E-02 1.25000E-02 0.00000E+00
 -1       642 8.54167E-02 1.25000E-02 0.00000E+00
 -1       643 8.64583E-02 1.25000E-02 0.00000E+00
 -1       644 8.75000E-02 1.25000E-02 0.00000E+00
 -1       645 8.85417E-02 1.25000E-02 0.00000E+00
 -1       646 8.95833E-02 1.25000E-02 0.00000E+00
 -1       647 9.06250E-02 1.25000E-02 0.00000E+00
 -1       648 9.16667E-02 1.25000E-02 0.00000E+00
 -1       649 9.27083E-02 1.25000E-02 0.00000E+00
 -1       650 9.37500E-02 1.25000E-02 0.00000E+00
 -1       651 9.47917E-02 1.25000E-02 0.00000E+00
 -1       652 9.58333E-02 1.25000E-02 0.00000E+00
 -1       653 9.68750E-02 1.25000E-02 0.00000E+00
 -1       654 9.79167E-02 1.25000E-02 0.00000E+00
 -1       655 9.89583E-02 1.25000E-02 0.00000E+00
 -1       656 8.33333E-02 1.35417E-02 0.00000E+00
 -1       657 8.33333E-02 1.45833E-02 0.00000E+00
 -1       658 8.33333E-02 1.56250E-02 0.00000E+00
 -1       659 8.33333E-02 1.66667E-02 0.00000E+00
 -1       660 8.33333E-02 1.77083E-02 0.00000E+00
 -1       661 8.43750E-02 1.28906E-02 0.00000E+00
 -1       662 8.54167E-02 1.32813E-02 0.00000E+00
 -1       663 8.64583E-02 1.36719E-02 0.00000E+00
 -1       664 8.75000E-02 1.40625E-02 0.00000E+00
 -1       665 8.85417E-02 1.44531E-02 0.00000E+00
 -1       666 8.95833E-02 1.48437E-02 0.00000E+00
 -1       667 9.06250E-02 1.52344E-02 0.00000E+00
 -1       668 9.16667E-02 1.56250E-02 0.00000E+00
 -1       669 9.27083E-02 1.60156E-02 0.00000E+00
 -1       670 9.37500E-02 1.64062E-02 0.00000E+00
 -1       671 9.47917E-02 1.67969E-02 0.00000E+00
 -1       672 9.58333E-02 1.71875E-02 0.00000E+00
 -1       673 9.68750E-02 1.75781E-02 0.00000E+00
 -1       674 9.79167E-02 1.79687E-02 0.00000E+00
 -1       675 9.89583E-02 1.83594E-02 0.00000E+00
 -1       676 1.00000E-01 1.35417E-02 0.00000E+00
 -1       677 1.00000E-01 1.45833E-02 0.00000E+00
 -1       678 1.00000E-01 1.56250E-02 0.00000E+00
 -1       679 1.00000E-01 1.66667E-02 0.00000E+00
 -1       680 1.00000E-01 1.77083E-02 0.00000E+00
 -1       681 1.04167E-03 1.87500E-02 0.00000E+00
 -1       682 2.08333E-03 1.87500E-02 0.00000E+00
 -1       683 3.12500E-03 1.87500E-02 0.00000E+00
 -1       684 4.16667E-03 1.87500E-02 0.00000E+00
 -1       685 5.20833E-03 1.87500E-02 0.00000E+00
 -1       686 6.25000E-03 1.87500E-02 0.00000E+00
 -1       687 7.29167E-03 1.87500E-02 0.00000E+00
 -1       688 8.33333E-03 1.87500E-02 0.00000E+00
 -1       689 9.37500E-03 1.87500E-02 0.00000E+00
 -1       690 1.04167E-02 1.87500E-02 0.00000E+00
 -1       691 1.14583E-02 1.87500E-02 0.00000E+00
 -1       692 1.25000E-02 1.87500E-02 0.00000E+00
 -1       693 1.35417E-02 1.87500E-02 0.00000E+00
 -1       694 1.45833E-02 1.87500E-02 0.00000E+00
 -1       695 1.56250E-02 1.87500E-02 0.00000E+00
 -1       696 0.00000E+00 1.97917E-02 0.00000E+00
 -1       697 0.00000E+00 2.08333E-02 0.00000E+00
 -1       698 0.00000E+00 2.18750E-02 0.00000E+00
 -1       699 0.00000E+00 2.29167E-02 0.00000E+00
 -1       700 0.00000E+00 2.39583E-02 0.00000E+00
 -1       701 1.04167E-03 1.91406E-02 0.00000E+00
 -1       702 2.08333E-03 1.95312E-02 0.00000E+00
 -1       703 3.12500E-03 1.99219E-02 0.00000E+00
 -1       704 4.16667E-03 2.03125E-02 0.00000E+00
 -1       705 5.20833E-03 2.07031E-02 0.00000E+00
 -1       706 6.25000E-03 2.10938E-02 0.00000E+00
 -1       707 7.29167E-03 2.14844E-02 0.00000E+00
 -1       708 8.33333E-03 2.18750E-02 0.00000E+00
 -1       709 9.37500E-03 2.22656E-02 0.00000E+00
 -1       710 1.04167E-02 2.26563E-02 0.00000E+00
 -1       711 1.14583E-02 2.30469E-02 0.00000E+00
 -1       712 1.25000E-02 2.34375E-02 0.00000E+00
 -1       713 1.35417E-02 2.38281E-02 0.00000E+00
 -1       714 1.45833E-02 2.42187E-02 0.00000E+00
 -1       715 1.56250E-02 2.46094E-02 0.00000E+00
 -1       716 1.77083E-02 1.87500E-02 0.00000E+00
 -1       717 1.87500E-02 1.87500E-02 0.00000E+00
 -1       718 1.97917E-02 1.87500E-02 0.00000E+00
 -1       719 2.08333E-02 1.87500E-02 0.00000E+00
 -1       720 2.18750E-02 1.87500E-02 0.00000E+00
 -1       721 2.29167E-02 1.87500E-02 0.00000E+00
 -1       722 2.39583E-02 1.87500E-02 0.00000E+00
 -1       723 2.50000E-02 1.87500E-02 0.00000E+00
 -1       724 2.60417E-02 1.87500E-02 0.00000E+00
 -1       725 2.70833E-02 1.87500E-02 0.00000E+00
 -1       726 2.81250E-02 1.87500E-02 0.00000E+00
 -1       727 2.91667E-02 1.87500E-02 0.00000E+00
 -1       728 3.02083E-02 1.87500E-02 0.00000E+00
 -1       729 3.12500E-02 1.87500E-02 0.00000E+00
 -1       730 3.22917E-02 1.87500E-02 0.00000E+00
 -1       731 1.66667E-02 1.97917E-02 0.00000E+00
 -1       732 1.66667E-02 2.08333E-02 0.00000E+00
 -1       733 1.66667E-02 2.18750E-02 0.00000E+00
 -1       734 1.66667E-02 2.29167E-02 0.00000E+00
 -1       735 1.66667E-02 2.39583E-02 0.00000E+00
 -1       736 1.77083E-02 1.91406E-02 0.00000E+00
 -1       737 1.87500E-02 1.95312E-02 0.00000E+00
 -1       738 1.97917E-02 1.99219E-02 0.00000E+00
 -1       739 2.08333E-02 2.03125E-02 0.00000E+00
 -1       740 2.18750E-02 2.07031E-02 0.00000E+00
 -1       741 2.29167E-02 2.10938E-02 0.00000E+00
 -1       742 2.39583E-02 2.14844E-02 0.00000E+00
 -1       743 2.50000E-02 2.18750E-02 0.00000E+00
 -1       744 2.60417E-02 2.22656E-02 0.00000E+00
 -1       745 2.70833E-02 2.26563E-02 0.00000E+00
 -1       746 2.81250E-02 2.30469E-02 0.00000E+00
 -1       747 2.91667E-02 2.34375E-02 0.00000E+00
 -1       748 3.02083E-02 2.38281E-02 0.00000E+00
 -1       749 3.12500E-02 2.42187E-02 0.00000E+00
 -1       750 3.22917E-02 2.46094E-02 0.00000E+00
 -1       751 3.43750E-02 1.87500E-02 0.00000E+00
 -1       752 3.54167E-02 1.87500E-02 0.00000E+00
 -1       753 3.64583E-02 1.87500E-02 0.00000E+00
 -1       754 3.75000E-02 1.87500E-02 0.00000E+00
 -1       755 3.85417E-02 1.87500E-02 0.00000E+00
 -1       756 3.95833E-02 1.87500E-02 0.00000E+00
 -1       757 4.06250E-02 1.87500E-02 0.00000E+00
 -1       758 4.16667E-02 1.87500E-02 0.00000E+00
 -1       759 4.27083E-02 1.87500E-02 0.00000E+00
 -1       760 4.37500E-02 1.87500E-02 0.00000E+00
 -1       761 4.47917E-02 1.87500E-02 0.00000E+00
 -1       762 4.58333E-02 1.87500E-02 0.00000E+00
 -1       763 4.68750E-02 1.87500E-02 0.00000E+00
 -1       764 4.79167E-02 1.87500E-02 0.00000E+00
 -1       765 4.89583E-02 1.87500E-02 0.00000E+00
 -1       766 3.33333E-02 1.97917E-02 0.00000E+00
 -1       767 3.33333E-02 2.08333E-02 0.00000E+00
 -1       768 3.33333E-02 2.18750E-02 0.00000E+00
 -1       769 3.33333E-02 2.29167E-02 0.00000E+00
 -1       770 3.33333E-02 2.39583E-02 0.00000E+00
 -1       771 3.43750E-02 1.91406E-02 0.00000E+00
 -1       772 3.54167E-02 1.95312E-02 0.00000E+00
 -1       773 3.64583E-02 1.99219E-02 0.00000E+00
 -1       774 3.75000E-02 2.03125E-02 0.00000E+00
 -1       775 3.85417E-02 2.07031E-02 0.00000E+00
 -1       776 3.95833E-02 2.10938E-02 0.00000E+00
 -1       777 4.06250E-02 2.14844E-02 0.00000E+00
 -1       778 4.16667E-02 2.18750E-02 0.00000E+00
 -1       779 4.27083E-02 2.22656E-02 0.00000E+00
 -1       780 4.37500E-02 2.26563E-02 0.00000E+00
 -1       781 4.47917E-02 2.30469E-02 0.00000E+00
 -1       782 4.58333E-02 2.34375E-02 0.00000E+00
 -1       783 4.68750E-02 2.38281E-02 0.00000E+00
 -1       784 4.79167E-02 2.42187E-02 0.00000E+00
 -1       785 4.89583E-02 2.46094E-02 0.00000E+00
 -1       786 5.10417E-02 1.87500E-02 0.00000E+00
 -1       787 5.20833E-02 1.87500E-02 0.00000E+00
 -1       788 5.31250E-02 1.87500E-02 0.00000E+00
 -1       789 5.41667E-02 1.87500E-02 0.00000E+00
 -1       790 5.52083E-02 1.87500E-02 0.00000E+00
 -1       791 5.62500E-02 1.87500E-02 0.00000E+00
 -1       792 5.72917E-02 1.87500E-02 0.00000E+00
 -1       793 5.83333E-02 1.87500E-02 0.00000E+00
 -1       794 5.93750E-02 1.87500E-02 0.00000E+00
 -1       795 6.04167E-02 1.87500E-02 0.00000E+00
 -1       796 6.14583E-02 1.87500E-02 0.00000E+00
 -1       797 6.25000E-02 1.87500E-02 0.00000E+00
 -1       798 6.35417E-02 1.87500E-02 0.00000E+00
 -1       799 6.45833E-02 1.87500E-02 0.00000E+00
 -1       800 6.56250E-02 1.87500E-02 0.00000E+00
 -1       801 5.00000E-02 1.97917E-02 0.00000E+00
 -1       802 5.00000E-02 2.08333E-02 0.00000E+00
 -1       803 5.00000E-02 2.18750E-02 0.00000E+00
 -1       804 5.00000E-02 2.29167E-02 0.00000E+00
 -1       805 5.00000E-02 2.39583E-02 0.00000E+00
 -1       806 5.10417E-02 1.91406E-02 0.00000E+00
 -1       807 5.20833E-02 1.95312E-02 0.00000E+00
 -1       808 5.31250E-02 1.99219E-02 0.00000E+00
 -1       809 5.41667E-02 2.03125E-02 0.00000E+00
 -1       810 5.52083E-02 2.07031E-02 0.00000E+00
 -1       811 5.62500E-02 2.10938E-02 0.00000E+00
 -1       812 5.72917E-02 2.14844E-02 0.00000E+00
 -1       813 5.83333E-02 2.18750E-02 0.00000E+00
 -1       814 5.93750E-02 2.22656E-02 0.00000E+00
 -1       815 6.04167E-02 2.26563E-02 0.00000E+00
 -1       816 6.14583E-02 2.30469E-02 0.00000E+00
 -1       817 6.25000E-02 2.34375E-02 0.00000E+00
 -1       818 6.35417E-02 2.38281E-02 0.00000E+00
 -1       819 6.45833E-02 2.42187E-02 0.00000E+00
 -1       820 6.56250E-02 2.46094E-02 0.00000E+00
 -1       821 6.77083E-02 1.87500E-02 0.00000E+00
 -1       822 6.87500E-02 1.87500E-02 0.00000E+00
 -1       823 6.97917E-02 1.87500E-02 0.00000E+00
 -1       824 7.08333E-02 1.87500E-02 0.00000E+00
 -1       825 7.18750E-02 1.87500E-02 0.00000E+00
 -1       826 7.29167E-02 1.87500E-02 0.00000E+00
 -1       827 7.39583E-02 1.87500E-02 0.00000E+00
 -1       828 7.50000E-02 1.87500E-02 0.00000E+00
 -1       829 7.60417E-02 1.87500E-02 0.00000E+00
 -1       830 7.70833E-02 1.87500E-02 0.00000E+00
 -1       831 7.81250E-02 1.87500E-02 0.00000E+00
 -1       832 7.91667E-02 1.87500E-02 0.00000E+00
 -1       833 8.02083E-02 1.87500E-02 0.00000E+00
 -1       834 8.12500E-02 1.87500E-02 0.00000E+00
 -1       835 8.22917E-02 1.87500E-02 0.00000E+00
 -1       836 6.66667E-02 1.97917E-02 0.00000E+00
 -1       837 6.66667E-02 2.08333E-02 0.00000E+00
 -1       838 6.66667E-02 2.18750E-02 0.00000E+00
 -1       839 6.66667E-02 2.29167E-02 0.00000E+00
 -1       840 6.66667E-02 2.39583E-02 0.00000E+00
 -1       841 6.77083E-02 1.91406E-02 0.00000E+00
 -1       842 6.87500E-02 1.95312E-02 0.00000E+00
 -1       843 6.97917E-02 1.99219E-02 0.00000E+00
 -1       844 7.08333E-02 2.03125E-02 0.00000E+00
 -1       845 7.18750E-02 2.07031E-02 0.00000E+00
 -1       846 7.29167E-02 2.10938E-02 0.00000E+00
 -1       847 7.39583E-02 2.14844E-02 0.00000E+00
 -1       848 7.50000E-02 2.18750E-02 0.00000E+00
 -1       849 7.60417E-02 2.22656E-02 0.00000E+00
 -1       850 7.70833E-02 2.26563E-02 0.00000E+00
 -1       851 7.81250E-02 2.30469E-02 0.00000E+00
 -1       852 7.91667E-02 2.34375E-02 0.00000E+00
 -1       853 8.02083E-02 2.38281E-02 0.00000E+00
 -1       854 8.12500E-02 2.42187E-02 0.00000E+00
 -1       855 8.22917E-02 2.46094E-02 0.00000E+00
 -1       856 8.43750E-02 1.87500E-02 0.00000E+00
 -1       857 8.54167E-02 1.87500E-02 0.00000E+00
 -1       858 8.64583E-02 1.87500E-02 0.00000E+00
 -1       859 8.75000E-02 1.87500E-02 0.00000E+00
 -1       860 8.85417E-02 1.87500E-02 0.00000E+00
 -1       861 8.95833E-02 1.87500E-02 0.00000E+00
 -1       862 9.06250E-02 1.87500E-02 0.00000E+00
 -1       863 9.16667E-02 1.87500E-02 0.00000E+00
 -1       864 9.27083E-02 1.87500E-02 0.00000E+00
 -1       865 9.37500E-02 1.87500E-02 0.00000E+00
 -1       866 9.47917E-02 1.87500E-02 0.00000E+00
 -1       867 9.58333E-02 1.87500E-02 0.00000E+00
 -1       868 9.68750E-02 1.87500E-02 0.00000E+00
 -1       869 9.79167E-02 1.87500E-02 0.00000E+00
 -1       870 9.89583E-02 1.87500E-02 0.00000E+00
 -1       871 8.33333E-02 1.97917E-02 0.00000E+00
 -1       872 8.33333E-02 2.08333E-02 0.00000E+00
 -1       873 8.33333E-02 2.18750E-02 0.00000E+00
 -1       874 8.33333E-02 2.29167E-02 0.00000E+00
 -1       875 8.33333E-02 2.39583E-02 0.00000E+00
 -1       876 8.43750E-02 1.91406E-02 0.00000E+00
 -1       877 8.54167E-02 1.95312E-02 0.00000E+00
 -1       878 8.64583E-02 1.99219E-02 0.00000E+00
 -1       879 8.75000E-02 2.03125E-02 0.00000E+00
 -1       880 8.85417E-02 2.07031E-02 0.00000E+00
 -1       881 8.95833E-02 2.10938E-02 0.00000E+00
 -1       882 9.06250E-02 2.14844E-02 0.00000E+00
 -1       883 9.16667E-02 2.18750E-02 0.00000E+00
 -1       884 9.27083E-02 2.22656E-02 0.00000E+00
 -1       885 9.37500E-02 2.26563E-02 0.00000E+00
 -1       886 9.47917E-02 2.30469E-02 0.00000E+00
 -1       887 9.58333E-02 2.34375E-02 0.00000E+00
 -1       888 9.68750E-02 2.38281E-02 0.00000E+00
 -1       889 9.79167E-02 2.42187E-02 0.00000E+00
 -1       890 9.89583E-02 2.46094E-02 0.00000E+00
 -1       891 1.00000E-01 1.97917E-02 0.00000E+00
 -1       892 1.00000E-01 2.08333E-02 0.00000E+00
 -1       893 1.00000E-01 2.18750E-02 0.00000E+00
 -1       894 1.00000E-01 2.29167E-02 0.00000E+00
 -1       895 1.00000E-01 2.39583E-02 0.00000E+00
 -1       896 1.04167E-03 2.50000E-02 0.00000E+00
 -1       897 2.08333E-03 2.50000E-02 0.00000E+00
 -1       898 3.12500E-03 2.50000E-02 0.00000E+00
 -1       899 4.16667E-03 2.50000E-02 0.00000E+00
 -1       900 5.20833E-03 2.50000E-02 0.00000E+00
 -1       901 6.25000E-03 2.50000E-02 0.00000E+00
 -1       902 7.29167E-03 2.50000E-02 0.00000E+00
 -1       903 8.33333E-03 2.50000E-02 0.00000E+00
 -1       904 9.37500E-03 2.50000E-02 0.00000E+00
 -1       905 1.04167E-02 2.50000E-02 0.00000E+00
 -1       906 1.14583E-02 2.50000E-02 0.00000E+00
 -1       907 1.25000E-02 2.50000E-02 0.00000E+00
 -1       908 1.35417E-02 2.50000E-02 0.00000E+00
 -1       909 1.45833E-02 2.50000E-02 0.00000E+00
 -1       910 1.56250E-02 2.50000E-02 0.00000E+00
 -1       911 1.77083E-02 2.50000E-02 0.00000E+00
 -1       912 1.87500E-02 2.50000E-02 0.00000E+00
 -1       913 1.97917E-02 2.50000E-02 0.00000E+00
 -1       914 2.08333E-02 2.50000E-02 0.00000E+00
 -1       915 2.18750E-02 2.50000E-02 0.00000E+00
 -1       916 2.29167E-02 2.50000E-02 0.00000E+00
 -1       917 2.39583E-02 2.50000E-02 0.00000E+00
 -1       918 2.50000E-02 2.50000E-02 0.00000E+00
 -1       919 2.60417E-02 2.50000E-02 0.00000E+00
 -1       920 2.70833E-02 2.50000E-02 0.00000E+00
 -1       921 2.81250E-02 2.50000E-02 0.00000E+00
 -1       922 2.91667E-02 2.50000E-02 0.00000E+00
 -1       923 3.02083E-02 2.50000E-02 0.00000E+00
 -1       924 3.12500E-02 2.50000E-02 0.00000E+00
 -1       925 3.22917E-02 2.50000E-02 0.00000E+00
 -1       926 3.43750E-02 2.50000E-02 0.00000E+00
 -1       927 3.54167E-02 2.50000E-02 0.00000E+00
 -1       928 3.64583E-02 2.50000E-02 0.00000E+00
 -1       929 3.75000E-02 2.50000E-02 0.00000E+00
 -1       930 3.85417E-02 2.50000E-02 0.00000E+00
 -1       931 3.95833E-02 2.50000E-02 0.00000E+00
 -1       932 4.06250E-02 2.50000E-02 0.00000E+00
 -1       933 4.16667E-02 2.50000E-02 0.00000E+00
 -1       934 4.27083E-02 2.50000E-02 0.00000E+00
 -1       935 4.37500E-02 2.50000E-02 0.00000E+00
 -1       936 4.47917E-02 2.50000E-02 0.00000E+00
 -1       937 4.58333E-02 2.50000E-02 0.00000E+00
 -1       938 4.68750E-02 2.50000E-02 0.00000E+00
 -1       939 4.79167E-02 2.50000E-02 0.00000E+00
 -1       940 4.89583E-02 2.50000E-02 0.00000E+00
 -1       941 5.10417E-02 2.50000E-02 0.00000E+00
 -1       942 5.20833E-02 2.50000E-02 0.00000E+00
 -1       943 5.31250E-02 2.50000E-02 0.00000E+00
 -1       944 5.41667E-02 2.50000E-02 0.00000E+00
 -1       945 5.52083E-02 2.50000E-02 0.00000E+00
 -1       946 5.62500E-02 2.50000E-02 0.00000E+00
 -1       947 5.72917E-02 2.50000E-02 0.00000E+00
 -1       948 5.83333E-02 2.50000E-02 0.00000E+00
 -1       949 5.93750E-02 2.50000E-02 0.00000E+00
 -1       950 6.04167E-02 2.50000E-02 0.00000E+00
 -1       951 6.14583E-02 2.50000E-02 0.00000E+00
 -1       952 6.25000E-02 2.50000E-02 0.00000E+00
 -1       953 6.35417E-02 2.50000E-02 0.00000E+00
 -1       954 6.45833E-02 2.50000E-02 0.00000E+00
 -1       955 6.56250E-02 2.50000E-02 0.00000E+00
 -1       956 6.77083E-02 2.50000E-02 0.00000E+00
 -1       957 6.87500E-02 2.50000E-02 0.00000E+00
 -1       958 6.97917E-02 2.50000E-02 0.00000E+00
 -1       959 7.08333E-02 2.50000E-02 0.00000E+00
 -1       960 7.18750E-02 2.50000E-02 0.00000E+00
 -1       961 7.29167E-02 2.50000E-02 0.00000E+00
 -1       962 7.39583E-02 2.50000E-02 0.00000E+00
 -1       963 7.50000E-02 2.50000E-02 0.00000E+00
 -1       964 7.60417E-02 2.50000E-02 0.00000E+00
 -1       965 7.70833E-02 2.50000E-02 0.00000E+00
 -1       966 7.81250E-02 2.50000E-02 0.00000E+00
 -1       967 7.91667E-02 2.50000E-02 0.00000E+00
 -1       968 8.02083E-02 2.50000E-02 0.00000E+00
 -1       969 8.12500E-02 2.50000E-02 0.00000E+00
 -1       970 8.22917E-02 2.50000E-02 0.00000E+00
 -1       971 8.43750E-02 2.50000E-02 0.00000E+00
 -1       972 8.54167E-02 2.50000E-02 0.00000E+00
 -1       973 8.64583E-02 2.50000E-02 0.00000E+00
 -1       974 8.75000E-02 2.50000E-02 0.00000E+00
 -1       975 8.85417E-02 2.50000E-02 0.00000E+00
 -1       976 8.95833E-02 2.50000E-02 0.00000E+00
 -1       977 9.06250E-02 2.50000E-02 0.00000E+00
 -1       978 9.16667E-02 2.50000E-02 0.00000E+00
 -1       979 9.27083E-02 2.50000E-02 0.00000E+00
 -1       980 9.37500E-02 2.50000E-02 0.00000E+00
 -1       981 9.47917E-02 2.50000E-02 0.00000E+00
 -1       982 9.58333E-02 2.50000E-02 0.00000E+00
 -1       983 9.68750E-02 2.50000E-02 0.00000E+00
 -1       984 9.79167E-02 2.50000E-02 0.00000E+00
 -1       985 9.89583E-02 2.50000E-02 0.00000E+00
 -3
    3C                           440                                     1
 -1         1   12    0    1
 -2         1        37        36
 -1         2   12    0    1
 -2        37        39        38
 -1         3   12    0    1
 -2        39        41        40
 -1         4   12    0    1
 -2        41        43        42
 -1         5   12    0    1
 -2        43        45        44
 -1         6   12    0    1
 -2        45        47        46
 -1         7   12    0    1
 -2        47        49        48
 -1         8   12    0    1
 -2        49         2        50
 -1         9   12    0    1
 -2         1        52        51
 -1        10   12    0    1
 -2        52        54        53
 -1        11   12    0    1
 -2        54         8        55
 -1        12   12    0    1
 -2         1        57        56
 -1        13   12    0    1
 -2        57        59        58
 -1        14   12    0    1
 -2        59        61        60
 -1        15   12    0    1
 -2        61        63        62
 -1        16   12    0    1
 -2        63        65        64
 -1        17   12    0    1
 -2        65        67        66
 -1        18   12    0    1
 -2        67        69        68
 -1        19   12    0    1
 -2        69         9        70
 -1        20   12    0    1
 -2         2        72        71
 -1        21   12    0    1
 -2        72        74        73
 -1        22   12    0    1
 -2        74        76        75
 -1        23   12    0    1
 -2        76        78        77
 -1        24   12    0    1
 -2        78        80        79
 -1        25   12    0    1
 -2        80        82        81
 -1        26   12    0    1
 -2        82        84        83
 -1        27   12    0    1
 -2        84         3        85
 -1        28   12    0    1
 -2         2        87        86
 -1        29   12    0    1
 -2        87        89        88
 -1        30   12    0    1
 -2        89         9        90
 -1        31   12    0    1
 -2         2        92        91
 -1        32   12    0    1
 -2        92        94        93
 -1        33   12    0    1
 -2        94        96        95
 -1        34   12    0    1
 -2        96        98        97
 -1        35   12    0    1
 -2        98       100        99
 -1        36   12    0    1
 -2       100       102       101
 -1        37   12    0    1
 -2       102       104       103
 -1        38   12    0    1
 -2       104        10       105
 -1        39   12    0    1
 -2         3       107       106
 -1        40   12    0    1
 -2       107       109       108
 -1        41   12    0    1
 -2       109       111       110
 -1        42   12    0    1
 -2       111       113       112
 -1        43   12    0    1
 -2       113       115       114
 -1        44   12    0    1
 -2       115       117       116
 -1        45   12    0    1
 -2       117       119       118
 -1        46   12    0    1
 -2       119         4       120
 -1        47   12    0    1
 -2         3       122       121
 -1        48   12    0    1
 -2       122       124       123
 -1        49   12    0    1
 -2       124        10       125
 -1        50   12    0    1
 -2         3       127       126
 -1        51   12    0    1
 -2       127       129       128
 -1        52   12    0    1
 -2       129       131       130
 -1        53   12    0    1
 -2       131       133       132
 -1        54   12    0    1
 -2       133       135       134
 -1        55   12    0    1
 -2       135       137       136
 -1        56   12    0    1
 -2       137       139       138
 -1        57   12    0    1
 -2       139        11       140
 -1        58   12    0    1
 -2         4       142       141
 -1        59   12    0    1
 -2       142       144       143
 -1        60   12    0    1
 -2       144       146       145
 -1        61   12    0    1
 -2       146       148       147
 -1        62   12    0    1
 -2       148       150       149
 -1        63   12    0    1
 -2       150       152       151
 -1        64   12    0    1
 -2       152       154       153
 -1        65   12    0    1
 -2       154         5       155
 -1        66   12    0    1
 -2         4       157       156
 -1        67   12    0    1
 -2       157       159       158
 -1        68   12    0    1
 -2       159        11       160
 -1        69   12    0    1
 -2         4       162       161
 -1        70   12    0    1
 -2       162       164       163
 -1        71   12    0    1
 -2       164       166       165
 -1        72   12    0    1
 -2       166       168       167
 -1        73   12    0    1
 -2       168       170       169
 -1        74   12    0    1
 -2       170       172       171
 -1        75   12    0    1
 -2       172       174       173
 -1        76   12    0    1
 -2       174        12       175
 -1        77   12    0    1
 -2         5       192       191
 -1        78   12    0    1
 -2       192       194       193
 -1        79   12    0    1
 -2       194        12       195
 -1        80   12    0    1
 -2         8       252       251
 -1        81   12    0    1
 -2       252       254       253
 -1        82   12    0    1
 -2       254       256       255
 -1        83   12    0    1
 -2       256       258       257
 -1        84   12    0    1
 -2       258       260       259
 -1        85   12    0    1
 -2       260       262       261
 -1        86   12    0    1
 -2       262       264       263
 -1        87   12    0    1
 -2       264         9       265
 -1        88   12    0    1
 -2         8       267       266
 -1        89   12    0    1
 -2       267       269       268
 -1        90   12    0    1
 -2       269        15       270
 -1        91   12    0    1
 -2         8       272       271
 -1        92   12    0    1
 -2       272       274       273
 -1        93   12    0    1
 -2       274       276       275
 -1        94   12    0    1
 -2       276       278       277
 -1        95   12    0    1
 -2       278       280       279
 -1        96   12    0    1
 -2       280       282       281
 -1        97   12    0    1
 -2       282       284       283
 -1        98   12    0    1
 -2       284        16       285
 -1        99   12    0    1
 -2         9       287       286
 -1       100   12    0    1
 -2       287       289       288
 -1       101   12    0    1
 -2       289       291       290
 -1       102   12    0    1
 -2       291       293       292
 -1       103   12    0    1
 -2       293       295       294
 -1       104   12    0    1
 -2       295       297       296
 -1       105   12    0    1
 -2       297       299       298
 -1       106   12    0    1
 -2       299        10       300
 -1       107   12    0    1
 -2         9       302       301
 -1       108   12    0    1
 -2       302       304       303
 -1       109   12    0    1
 -2       304        16       305
 -1       110   12    0    1
 -2         9       307       306
 -1       111   12    0    1
 -2       307       309       308
 -1       112   12    0    1
 -2       309       311       310
 -1       113   12    0    1
 -2       311       313       312
 -1       114   12    0    1
 -2       313       315       314
 -1       115   12    0    1
 -2       315       317       316
 -1       116   12    0    1
 -2       317       319       318
 -1       117   12    0    1
 -2       319        17       320
 -1       118   12    0    1
 -2        10       322       321
 -1       119   12    0    1
 -2       322       324       323
 -1       120   12    0    1
 -2       324       326       325
 -1       121   12    0    1
 -2       326       328       327
 -1       122   12    0    1
 -2       328       330       329
 -1       123   12    0    1
 -2       330       332       331
 -1       124   12    0    1
 -2       332       334       333
 -1       125   12    0    1
 -2       334        11       335
 -1       126   12    0    1
 -2        10       337       336
 -1       127   12    0    1
 -2       337       339       338
 -1       128   12    0    1
 -2       339        17       340
 -1       129   12    0    1
 -2        10       342       341
 -1       130   12    0    1
 -2       342       344       343
 -1       131   12    0    1
 -2       344       346       345
 -1       132   12    0    1
 -2       346       348       347
 -1       133   12    0    1
 -2       348       350       349
 -1       134   12    0    1
 -2       350       352       351
 -1       135   12    0    1
 -2       352       354       353
 -1       136   12    0    1
 -2       354        18       355
 -1       137   12    0    1
 -2        11       357       356
 -1       138   12    0    1
 -2       357       359       358
 -1       139   12    0    1
 -2       359       361       360
 -1       140   12    0    1
 -2       361       363       362
 -1       141   12    0    1
 -2       363       365       364
 -1       142   12    0    1
 -2       365       367       366
 -1       143   12    0    1
 -2       367       369       368
 -1       144   12    0    1
 -2       369        12       370
 -1       145   12    0    1
 -2        11       372       371
 -1       146   12    0    1
 -2       372       374       373
 -1       147   12    0    1
 -2       374        18       375
 -1       148   12    0    1
 -2        11       377       376
 -1       149   12    0    1
 -2       377       379       378
 -1       150   12    0    1
 -2       379       381       380
 -1       151   12    0    1
 -2       381       383       382
 -1       152   12    0    1
 -2       383       385       384
 -1       153   12    0    1
 -2       385       387       386
 -1       154   12    0    1
 -2       387       389       388
 -1       155   12    0    1
 -2       389        19       390
 -1       156   12    0    1
 -2        12       407       406
 -1       157   12    0    1
 -2       407       409       408
 -1       158   12    0    1
 -2       409        19       410
 -1       159   12    0    1
 -2        15       467       466
 -1       160   12    0    1
 -2       467       469       468
 -1       161   12    0    1
 -2       469       471       470
 -1       162   12    0    1
 -2       471       473       472
 -1       163   12    0    1
 -2       473       475       474
 -1       164   12    0    1
 -2       475       477       476
 -1       165   12    0    1
 -2       477       479       478
 -1       166   12    0    1
 -2       479        16       480
 -1       167   12    0    1
 -2        15       482       481
 -1       168   12    0    1
 -2       482       484       483
 -1       169   12    0    1
 -2       484        22       485
 -1       170   12    0    1
 -2        15       487       486
 -1       171   12    0    1
 -2       487       489       488
 -1       172   12    0    1
 -2       489       491       490
 -1       173   12    0    1
 -2       491       493       492
 -1       174   12    0    1
 -2       493       495       494
 -1       175   12    0    1
 -2       495       497       496
 -1       176   12    0    1
 -2       497       499       498
 -1       177   12    0    1
 -2       499        23       500
 -1       178   12    0    1
 -2        16       502       501
 -1       179   12    0    1
 -2       502       504       503
 -1       180   12    0    1
 -2       504       506       505
 -1       181   12    0    1
 -2       506       508       507
 -1       182   12    0    1
 -2       508       510       509
 -1       183   12    0    1
 -2       510       512       511
 -1       184   12    0    1
 -2       512       514       513
 -1       185   12    0    1
 -2       514        17       515
 -1       186   12    0    1
 -2        16       517       516
 -1       187   12    0    1
 -2       517       519       518
 -1       188   12    0    1
 -2       519        23       520
 -1       189   12    0    1
 -2        16       522       521
 -1       190   12    0    1
 -2       522       524       523
 -1       191   12    0    1
 -2       524       526       525
 -1       192   12    0    1
 -2       526       528       527
 -1       193   12    0    1
 -2       528       530       529
 -1       194   12    0    1
 -2       530       532       531
 -1       195   12    0    1
 -2       532       534       533
 -1       196   12    0    1
 -2       534        24       535
 -1       197   12    0    1
 -2        17       537       536
 -1       198   12    0    1
 -2       537       539       538
 -1       199   12    0    1
 -2       539       541       540
 -1       200   12    0    1
 -2       541       543       542
 -1       201   12    0    1
 -2       543       545       544
 -1       202   12    0    1
 -2       545       547       546
 -1       203   12    0    1
 -2       547       549       548
 -1       204   12    0    1
 -2       549        18       550
 -1       205   12    0    1
 -2        17       552       551
 -1       206   12    0    1
 -2       552       554       553
 -1       207   12    0    1
 -2       554        24       555
 -1       208   12    0    1
 -2        17       557       556
 -1       209   12    0    1
 -2       557       559       558
 -1       210   12    0    1
 -2       559       561       560
 -1       211   12    0    1
 -2       561       563       562
 -1       212   12    0    1
 -2       563       565       564
 -1       213   12    0    1
 -2       565       567       566
 -1       214   12    0    1
 -2       567       569       568
 -1       215   12    0    1
 -2       569        25       570
 -1       216   12    0    1
 -2        18       572       571
 -1       217   12    0    1
 -2       572       574       573
 -1       218   12    0    1
 -2       574       576       575
 -1       219   12    0    1
 -2       576       578       577
 -1       220   12    0    1
 -2       578       580       579
 -1       221   12    0    1
 -2       580       582       581
 -1       222   12    0    1
 -2       582       584       583
 -1       223   12    0    1
 -2       584        19       585
 -1       224   12    0    1
 -2        18       587       586
 -1       225   12    0    1
 -2       587       589       588
 -1       226   12    0    1
 -2       589        25       590
 -1       227   12    0    1
 -2        18       592       591
 -1       228   12    0    1
 -2       592       594       593
 -1       229   12    0    1
 -2       594       596       595
 -1       230   12    0    1
 -2       596       598       597
 -1       231   12    0    1
 -2       598       600       599
 -1       232   12    0    1
 -2       600       602       601
 -1       233   12    0    1
 -2       602       604       603
 -1       234   12    0    1
 -2       604        26       605
 -1       235   12    0    1
 -2        19       607       606
 -1       236   12    0    1
 -2       607       609       608
 -1       237   12    0    1
 -2       609       611       610
 -1       238   12    0    1
 -2       611       613       612
 -1       239   12    0    1
 -2       613       615       614
 -1       240   12    0    1
 -2       615       617       616
 -1       241   12    0    1
 -2       617       619       618
 -1       242   12    0    1
 -2       619        20       620
 -1       243   12    0    1
 -2        19       622       621
 -1       244   12    0    1
 -2       622       624       623
 -1       245   12    0    1
 -2       624        26       625
 -1       246   12    0    1
 -2        19       627       626
 -1       247   12    0    1
 -2       627       629       628
 -1       248   12    0    1
 -2       629       631       630
 -1       249   12    0    1
 -2       631       633       632
 -1       250   12    0    1
 -2       633       635       634
 -1       251   12    0    1
 -2       635       637       636
 -1       252   12    0    1
 -2       637       639       638
 -1       253   12    0    1
 -2       639        27       640
 -1       254   12    0    1
 -2        20       642       641
 -1       255   12    0    1
 -2       642       644       643
 -1       256   12    0    1
 -2       644       646       645
 -1       257   12    0    1
 -2       646       648       647
 -1       258   12    0    1
 -2       648       650       649
 -1       259   12    0    1
 -2       650       652       651
 -1       260   12    0    1
 -2       652       654       653
 -1       261   12    0    1
 -2       654        21       655
 -1       262   12    0    1
 -2        20       657       656
 -1       263   12    0    1
 -2       657       659       658
 -1       264   12    0    1
 -2       659        27       660
 -1       265   12    0    1
 -2        20       662       661
 -1       266   12    0    1
 -2       662       664       663
 -1       267   12    0    1
 -2       664       666       665
 -1       268   12    0    1
 -2       666       668       667
 -1       269   12    0    1
 -2       668       670       669
 -1       270   12    0    1
 -2       670       672       671
 -1       271   12    0    1
 -2       672       674       673
 -1       272   12    0    1
 -2       674        28       675
 -1       273   12    0    1
 -2        21       677       676
 -1       274   12    0    1
 -2       677       679       678
 -1       275   12    0    1
 -2       679        28       680
 -1       276   12    0    1
 -2        22       682       681
 -1       277   12    0    1
 -2       682       684       683
 -1       278   12    0    1
 -2       684       686       685
 -1       279   12    0    1
 -2       686       688       687
 -1       280   12    0    1
 -2       688       690       689
 -1       281   12    0    1
 -2       690       692       691
 -1       282   12    0    1
 -2       692       694       693
 -1       283   12    0    1
 -2       694        23       695
 -1       284   12    0    1
 -2        22       697       696
 -1       285   12    0    1
 -2       697       699       698
 -1       286   12    0    1
 -2       699        29       700
 -1       287   12    0    1
 -2        22       702       701
 -1       288   12    0    1
 -2       702       704       703
 -1       289   12    0    1
 -2       704       706       705
 -1       290   12    0    1
 -2       706       708       707
 -1       291   12    0    1
 -2       708       710       709
 -1       292   12    0    1
 -2       710       712       711
 -1       293   12    0    1
 -2       712       714       713
 -1       294   12    0    1
 -2       714        30       715
 -1       295   12    0    1
 -2        23       717       716
 -1       296   12    0    1
 -2       717       719       718
 -1       297   12    0    1
 -2       719       721       720
 -1       298   12    0    1
 -2       721       723       722
 -1       299   12    0    1
 -2       723       725       724
 -1       300   12    0    1
 -2       725       727       726
 -1       301   12    0    1
 -2       727       729       728
 -1       302   12    0    1
 -2       729        24       730
 -1       303   12    0    1
 -2        23       732       731
 -1       304   12    0    1
 -2       732       734       733
 -1       305   12    0    1
 -2       734        30       735
 -1       306   12    0    1
 -2        23       737       736
 -1       307   12    0    1
 -2       737       739       738
 -1       308   12    0    1
 -2       739       741       740
 -1       309   12    0    1
 -2       741       743       742
 -1       310   12    0    1
 -2       743       745       744
 -1       311   12    0    1
 -2       745       747       746
 -1       312   12    0    1
 -2       747       749       748
 -1       313   12    0    1
 -2       749        31       750
 -1       314   12    0    1
 -2        24       752       751
 -1       315   12    0    1
 -2       752       754       753
 -1       316   12    0    1
 -2       754       756       755
 -1       317   12    0    1
 -2       756       758       757
 -1       318   12    0    1
 -2       758       760       759
 -1       319   12    0    1
 -2       760       762       761
 -1       320   12    0    1
 -2       762       764       763
 -1       321   12    0    1
 -2       764        25       765
 -1       322   12    0    1
 -2        24       767       766
 -1       323   12    0    1
 -2       767       769       768
 -1       324   12    0    1
 -2       769        31       770
 -1       325   12    0    1
 -2        24       772       771
 -1       326   12    0    1
 -2       772       774       773
 -1       327   12    0    1
 -2       774       776       775
 -1       328   12    0    1
 -2       776       778       777
 -1       329   12    0    1
 -2       778       780       779
 -1       330   12    0    1
 -2       780       782       781
 -1       331   12    0    1
 -2       782       784       783
 -1       332   12    0    1
 -2       784        32       785
 -1       333   12    0    1
 -2        25       787       786
 -1       334   12    0    1
 -2       787       789       788
 -1       335   12    0    1
 -2       789       791       790
 -1       336   12    0    1
 -2       791       793       792
 -1       337   12    0    1
 -2       793       795       794
 -1       338   12    0    1
 -2       795       797       796
 -1       339   12    0    1
 -2       797       799       798
 -1       340   12    0    1
 -2       799        26       800
 -1       341   12    0    1
 -2        25       802       801
 -1       342   12    0    1
 -2       802       804       803
 -1       343   12    0    1
 -2       804        32       805
 -1       344   12    0    1
 -2        25       807       806
 -1       345   12    0    1
 -2       807       809       808
 -1       346   12    0    1
 -2       809       811       810
 -1       347   12    0    1
 -2       811       813       812
 -1       348   12    0    1
 -2       813       815       814
 -1       349   12    0    1
 -2       815       817       816
 -1       350   12    0    1
 -2       817       819       818
 -1       351   12    0    1
 -2       819        33       820
 -1       352   12    0    1
 -2        26       822       821
 -1       353   12    0    1
 -2       822       824       823
 -1       354   12    0    1
 -2       824       826       825
 -1       355   12    0    1
 -2       826       828       827
 -1       356   12    0    1
 -2       828       830       829
 -1       357   12    0    1
 -2       830       832       831
 -1       358   12    0    1
 -2       832       834       833
 -1       359   12    0    1
 -2       834        27       835
 -1       360   12    0    1
 -2        26       837       836
 -1       361   12    0    1
 -2       837       839       838
 -1       362   12    0    1
 -2       839        33       840
 -1       363   12    0    1
 -2        26       842       841
 -1       364   12    0    1
 -2       842       844       843
 -1       365   12    0    1
 -2       844       846       845
 -1       366   12    0    1
 -2       846       848       847
 -1       367   12    0    1
 -2       848       850       849
 -1       368   12    0    1
 -2       850       852       851
 -1       369   12    0    1
 -2       852       854       853
 -1       370   12    0    1
 -2       854        34       855
 -1       371   12    0    1
 -2        27       857       856
 -1       372   12    0    1
 -2       857       859       858
 -1       373   12    0    1
 -2       859       861       860
 -1       374   12    0    1
 -2       861       863       862
 -1       375   12    0    1
 -2       863       865       864
 -1       376   12    0    1
 -2       865       867       866
 -1       377   12    0    1
 -2       867       869       868
 -1       378   12    0    1
 -2       869        28       870
 -1       379   12    0    1
 -2        27       872       871
 -1       380   12    0    1
 -2       872       874       873
 -1       381   12    0    1
 -2       874        34       875
 -1       382   12    0    1
 -2        27       877       876
 -1       383   12    0    1
 -2       877       879       878
 -1       384   12    0    1
 -2       879       881       880
 -1       385   12    0    1
 -2       881       883       882
 -1       386   12    0    1
 -2       883       885       884
 -1       387   12    0    1
 -2       885       887       886
 -1       388   12    0    1
 -2       887       889       888
 -1       389   12    0    1
 -2       889        35       890
 -1       390   12    0    1
 -2        28       892       891
 -1       391   12    0    1
 -2       892       894       893
 -1       392   12    0    1
 -2       894        35       895
 -1       393   12    0    1
 -2        29       897       896
 -1       394   12    0    1
 -2       897       899       898
 -1       395   12    0    1
 -2       899       901       900
 -1       396   12    0    1
 -2       901       903       902
 -1       397   12    0    1
 -2       903       905       904
 -1       398   12    0    1
 -2       905       907       906
 -1       399   12    0    1
 -2       907       909       908
 -1       400   12    0    1
 -2       909        30       910
 -1       401   12    0    1
 -2        30       912       911
 -1       402   12    0    1
 -2       912       914       913
 -1       403   12    0    1
 -2       914       916       915
 -1       404   12    0    1
 -2       916       918       917
 -1       405   12    0    1
 -2       918       920       919
 -1       406   12    0    1
 -2       920       922       921
 -1       407   12    0    1
 -2       922       924       923
 -1       408   12    0    1
 -2       924        31       925
 -1       409   12    0    1
 -2        31       927       926
 -1       410   12    0    1
 -2       927       929       928
 -1       411   12    0    1
 -2       929       931       930
 -1       412   12    0    1
 -2       931       933       932
 -1       413   12    0    1
 -2       933       935       934
 -1       414   12    0    1
 -2       935       937       936
 -1       415   12    0    1
 -2       937       939       938
 -1       416   12    0    1
 -2       939        32       940
 -1       417   12    0    1
 -2        32       942       941
 -1       418   12    0    1
 -2       942       944       943
 -1       419   12    0    1
 -2       944       946       945
 -1       420   12    0    1
 -2       946       948       947
 -1       421   12    0    1
 -2       948       950       949
 -1       422   12    0    1
 -2       950       952       951
 -1       423   12    0    1
 -2       952       954       953
 -1       424   12    0    1
 -2       954        33       955
 -1       425   12    0    1
 -2        33       957       956
 -1       426   12    0    1
 -2       957       959       958
 -1       427   12    0    1
 -2       959       961       960
 -1       428   12    0    1
 -2       961       963       962
 -1       429   12    0    1
 -2       963       965       964
 -1       430   12    0    1
 -2       965       967       966
 -1       431   12    0    1
 -2       967       969       968
 -1       432   12    0    1
 -2       969        34       970
 -1       433   12    0    1
 -2        34       972       971
 -1       434   12    0    1
 -2       972       974       973
 -1       435   12    0    1
 -2       974       976       975
 -1       436   12    0    1
 -2       976       978       977
 -1       437   12    0    1
 -2       978       980       979
 -1       438   12    0    1
 -2       980       982       981
 -1       439   12    0    1
 -2       982       984       983
 -1       440   12    0    1
 -2       984        35       985
 -3
    1PSTEP                         1           1           1          
  100CL  101 1.000000000         841                     0    1           1
 -4  DISP        4    1
 -5  D1          1    2    1    0
 -5  D2          1    2    2    0
 -5  D3          1    2    3    0
 -5  ALL         1    2    0    0    1ALL
 -1         1 5.68451E-05 0.00000E+00 0.00000E+00
 -1         2 4.60605E-05 0.00000E+00 0.00000E+00
 -1         3 4.25650E-05 0.00000E+00 0.00000E+00
 -1         4 4.20396E-05 0.00000E+00 0.00000E+00
 -1         5 4.19526E-05 0.00000E+00 0.00000E+00
 -1         8 3.49980E-05-1.55253E-06 0.00000E+00
 -1         9 3.82057E-05 1.10012E-06 0.00000E+00
 -1        10 3.83948E-05-1.65453E-08 0.00000E+00
 -1        11 3.95677E-05 6.58736E-08 0.00000E+00
 -1        12 4.05726E-05 3.41936E-06 0.00000E+00
 -1        15 1.84689E-05-1.82516E-06 0.00000E+00
 -1        16 2.32645E-05 1.38617E-06 0.00000E+00
 -1        17 2.66002E-05-5.88162E-08 0.00000E+00
 -1        18 3.08032E-05-8.48240E-09 0.00000E+00
 -1        19 3.53296E-05 6.79124E-06 0.00000E+00
 -1        20 3.68937E-05 6.16691E-05 0.00000E+00
 -1        21 3.68563E-05 1.18021E-04 0.00000E+00
 -1        22 8.57140E-06-1.16289E-06 0.00000E+00
 -1        23 1.10406E-05 1.74250E-06 0.00000E+00
 -1        24 1.30789E-05-1.08917E-07 0.00000E+00
 -1        25 1.76430E-05 7.08372E-08 0.00000E+00
 -1        26 2.14409E-05 9.06708E-06 0.00000E+00
 -1        27 1.88353E-05 6.10044E-05 0.00000E+00
 -1        28 1.76545E-05 1.17416E-04 0.00000E+00
 -1        29 0.00000E+00 0.00000E+00 0.00000E+00
 -1        30 4.26397E-06 2.14602E-06 0.00000E+00
 -1        31 5.17379E-06 5.86188E-07 0.00000E+00
 -1        32 0.00000E+00 0.00000E+00 0.00000E+00
 -1        33 5.49712E-06 1.06097E-05 0.00000E+00
 -1        34 2.41067E-06 6.08230E-05 0.00000E+00
 -1        35 1.80809E-08 1.17064E-04 0.00000E+00
 -1        36 5.61729E-05 4.16899E-22 2.64698E-23
 -1        37 5.54973E-05 2.62713E-21 0.00000E+00
 -1        38 5.48215E-05 8.70856E-21 0.00000E+00
 -1        39 5.41453E-05 1.18982E-20-1.32349E-23
 -1        40 5.34690E-05 8.72841E-21 0.00000E+00
 -1        41 5.27926E-05 4.40722E-21 0.00000E+00
 -1        42 5.21162E-05 5.19469E-21 0.00000E+00
 -1        43 5.14398E-05 6.35275E-21-1.32349E-23
 -1        44 5.07634E-05 5.61821E-21 0.00000E+00
 -1        45 5.00872E-05 6.23363E-21 1.32349E-23
 -1        46 4.94111E-05 1.02438E-20-2.64698E-23
 -1        47 4.87353E-05 1.13555E-20 0.00000E+00
 -1        48 4.80602E-05 6.29981E-21 0.00000E+00
 -1        49 4.73870E-05 3.55357E-21 0.00000E+00
 -1        50 4.67151E-05 1.28378E-21 0.00000E+00
 -1        51 5.52919E-05-2.71623E-07-2.94683E-24
 -1        52 5.23147E-05-5.29218E-07-4.13590E-24
 -1        53 4.83512E-05-7.86843E-07 0.00000E+00
 -1        54 4.38471E-05-1.04410E-06-3.30872E-24
 -1        55 3.92484E-05-1.30065E-06 6.61744E-24
 -1        56 5.58676E-05-3.81964E-07 0.00000E+00
 -1        57 5.48713E-05-7.67680E-07 0.00000E+00
 -1        58 5.38680E-05-1.13807E-06-2.64698E-23
 -1        59 5.28520E-05-1.48069E-06 0.00000E+00
 -1        60 5.18201E-05-1.78225E-06-2.64698E-23
 -1        61 5.07676E-05-2.03011E-06 0.00000E+00
 -1        62 4.96902E-05-2.21170E-06 2.64698E-23
 -1        63 4.85832E-05-2.31476E-06 0.00000E+00
 -1        64 4.74422E-05-2.32717E-06 2.64698E-23
 -1        65 4.62629E-05-2.23710E-06 0.00000E+00
 -1        66 4.50411E-05-2.03293E-06-2.64698E-23
 -1        67 4.37729E-05-1.70332E-06 0.00000E+00
 -1        68 4.24545E-05-1.23718E-06 2.64698E-23
 -1        69 4.10850E-05-6.22970E-07 0.00000E+00
 -1        70 3.96586E-05 1.48840E-07-1.32349E-23
 -1        71 4.58383E-05 1.02074E-21-6.61744E-24
 -1        72 4.56188E-05-7.08067E-22 0.00000E+00
 -1        73 4.53995E-05-1.94222E-21-6.61744E-24
 -1        74 4.51806E-05-4.25171E-22-3.30872E-24
 -1        75 4.49617E-05-5.29396E-23 6.61744E-24
 -1        76 4.47430E-05 8.15600E-22 0.00000E+00
 -1        77 4.45242E-05 5.96563E-21-6.61744E-24
 -1        78 4.43055E-05 8.07328E-21 0.00000E+00
 -1        79 4.40867E-05 3.59327E-21 0.00000E+00
 -1        80 4.38681E-05 2.12089E-21 3.30872E-24
 -1        81 4.36494E-05-5.24433E-22 6.61744E-24
 -1        82 4.34309E-05-5.65792E-22-3.30872E-24
 -1        83 4.32125E-05-7.95748E-22-6.61744E-24
 -1        84 4.29947E-05-1.25731E-21-3.30872E-24
 -1        85 4.27773E-05-3.71239E-21 6.61744E-24
 -1        86 4.55926E-05 1.68880E-07 0.00000E+00
 -1        87 4.45847E-05 3.57974E-07 0.00000E+00
 -1        88 4.31887E-05 5.47766E-07 0.00000E+00
 -1        89 4.15581E-05 7.37736E-07 1.65436E-24
 -1        90 3.98462E-05 9.27015E-07 0.00000E+00
 -1        91 4.56539E-05-1.77503E-07 0.00000E+00
 -1        92 4.52491E-05-3.78641E-07 0.00000E+00
 -1        93 4.48483E-05-5.91593E-07 0.00000E+00
 -1        94 4.44476E-05-8.06728E-07 0.00000E+00
 -1        95 4.40437E-05-1.01412E-06 1.32349E-23
 -1        96 4.36332E-05-1.20399E-06 6.61744E-24
 -1        97 4.32124E-05-1.36662E-06 0.00000E+00
 -1        98 4.27777E-05-1.49231E-06 6.61744E-24
 -1        99 4.23256E-05-1.57140E-06 0.00000E+00
 -1       100 4.18524E-05-1.59430E-06 0.00000E+00
 -1       101 4.13547E-05-1.55146E-06 1.32349E-23
 -1       102 4.08290E-05-1.43339E-06 0.00000E+00
 -1       103 4.02719E-05-1.23065E-06-1.32349E-23
 -1       104 3.96811E-05-9.33621E-07-6.61744E-24
 -1       105 3.90524E-05-5.33345E-07 0.00000E+00
 -1       106 4.25284E-05-1.92816E-21-1.65436E-24
 -1       107 4.24950E-05-1.22960E-21 8.27181E-25
 -1       108 4.24618E-05-2.95345E-21 1.65436E-24
 -1       109 4.24290E-05-8.41698E-21 4.13590E-25
 -1       110 4.23963E-05-1.19435E-20 0.00000E+00
 -1       111 4.23636E-05-1.40412E-20-4.13590E-25
 -1       112 4.23310E-05-1.50017E-20 0.00000E+00
 -1       113 4.22984E-05-1.53971E-20 4.13590E-25
 -1       114 4.22658E-05-1.28579E-20 0.00000E+00
 -1       115 4.22332E-05-9.94044E-21-4.13590E-25
 -1       116 4.22007E-05-5.25177E-21 0.00000E+00
 -1       117 4.21681E-05-4.50689E-21 0.00000E+00
 -1       118 4.21356E-05-1.50340E-21-8.27181E-25
 -1       119 4.21032E-05 9.62218E-22 0.00000E+00
 -1       120 4.20709E-05 1.14296E-21 0.00000E+00
 -1       121 4.23144E-05-5.33514E-09-8.27181E-25
 -1       122 4.17763E-05-6.29993E-09 1.03398E-25
 -1       123 4.10323E-05-7.20305E-09 7.62557E-25
 -1       124 4.01655E-05-8.30239E-09 0.00000E+00
 -1       125 3.92588E-05-9.70706E-09 0.00000E+00
 -1       126 4.24144E-05-8.71804E-08 0.00000E+00
 -1       127 4.22733E-05-2.07231E-07-1.65436E-24
 -1       128 4.21404E-05-3.49854E-07 0.00000E+00
 -1       129 4.20121E-05-5.05598E-07 3.30872E-24
 -1       130 4.18850E-05-6.64881E-07 6.61744E-24
 -1       131 4.17557E-05-8.18185E-07 3.30872E-24
 -1       132 4.16205E-05-9.55999E-07-6.61744E-24
 -1       133 4.14759E-05-1.06882E-06 0.00000E+00
 -1       134 4.13185E-05-1.14717E-06 6.61744E-24
 -1       135 4.11445E-05-1.18156E-06 3.30872E-24
 -1       136 4.09506E-05-1.16254E-06 0.00000E+00
 -1       137 4.07333E-05-1.08066E-06 0.00000E+00
 -1       138 4.04890E-05-9.26487E-07 0.00000E+00
 -1       139 4.02148E-05-6.90489E-07-1.65436E-24
 -1       140 3.99068E-05-3.63438E-07 3.30872E-24
 -1       141 4.20323E-05-2.45916E-21 2.06795E-25
 -1       142 4.20251E-05 1.42001E-21 1.03398E-25
 -1       143 4.20180E-05 6.45356E-21 2.06795E-25
 -1       144 4.20108E-05 1.28793E-20-1.03398E-25
 -1       145 4.20037E-05 1.42205E-20 0.00000E+00
 -1       146 4.19966E-05 1.43698E-20 0.00000E+00
 -1       147 4.19895E-05 1.56441E-20-2.06795E-25
 -1       148 4.19824E-05 1.52760E-20 1.03398E-25
 -1       149 4.19753E-05 1.11115E-20 1.03398E-25
 -1       150 4.19683E-05 6.05812E-21 2.58494E-26
 -1       151 4.19615E-05 6.96765E-21 0.00000E+00
 -1       152 4.19549E-05 6.65136E-21 0.00000E+00
 -1       153 4.19489E-05 4.78359E-21 0.00000E+00
 -1       154 4.19445E-05 2.09173E-21 0.00000E+00
 -1       155 4.19413E-05-1.05135E-21-6.61744E-24
 -1       156 4.19143E-05 1.05540E-08 0.00000E+00
 -1       157 4.16282E-05 2.20042E-08 0.00000E+00
 -1       158 4.12156E-05 3.34432E-08 0.00000E+00
 -1       159 4.07113E-05 4.47925E-08 0.00000E+00
 -1       160 4.01504E-05 5.60376E-08 5.16988E-26
 -1       161 4.20214E-05 1.28713E-08-4.13590E-25
 -1       162 4.19912E-05 5.76675E-08 2.06795E-25
 -1       163 4.19494E-05 1.33369E-07 0.00000E+00
 -1       164 4.18964E-05 2.38827E-07 1.03398E-25
 -1       165 4.18326E-05 3.72905E-07-4.13590E-25
 -1       166 4.17586E-05 5.34464E-07 0.00000E+00
 -1       167 4.16747E-05 7.22359E-07 0.00000E+00
 -1       168 4.15813E-05 9.35447E-07 2.06795E-25
 -1       169 4.14790E-05 1.17259E-06 2.06795E-25
 -1       170 4.13681E-05 1.43266E-06 0.00000E+00
 -1       171 4.12492E-05 1.71451E-06 5.16988E-26
 -1       172 4.11228E-05 2.01708E-06 0.00000E+00
 -1       173 4.09896E-05 2.33927E-06 8.27181E-25
 -1       174 4.08511E-05 2.68039E-06 0.00000E+00
 -1       175 4.07072E-05 3.03902E-06-3.30872E-24
 -1       191 4.18965E-05 5.62221E-07 0.00000E+00
 -1       192 4.17599E-05 1.13524E-06-6.61744E-24
 -1       193 4.15510E-05 1.70933E-06-1.32349E-23
 -1       194 4.12779E-05 2.28347E-06 6.61744E-24
 -1       195 4.09490E-05 2.85658E-06 0.00000E+00
 -1       251 3.51780E-05 1.15820E-06 0.00000E+00
 -1       252 3.53765E-05 3.07889E-06-4.13590E-25
 -1       253 3.55775E-05 4.30486E-06 6.61744E-24
 -1       254 3.57810E-05 4.93357E-06 3.30872E-24
 -1       255 3.59853E-05 5.06210E-06 3.30872E-24
 -1       256 3.61900E-05 4.78733E-06 0.00000E+00
 -1       257 3.63948E-05 4.20602E-06 6.61744E-24
 -1       258 3.65995E-05 3.41472E-06 3.30872E-24
 -1       259 3.68042E-05 2.50992E-06 0.00000E+00
 -1       260 3.70087E-05 1.58803E-06 0.00000E+00
 -1       261 3.72132E-05 7.45478E-07 6.61744E-24
 -1       262 3.74174E-05 7.86999E-08-3.30872E-24
 -1       263 3.76211E-05-3.15769E-07 6.61744E-24
 -1       264 3.78229E-05-3.41333E-07 0.00000E+00
 -1       265 3.80232E-05 9.88818E-08 0.00000E+00
 -1       266 3.16842E-05-1.60572E-06 0.00000E+00
 -1       267 2.84616E-05-1.65265E-06 0.00000E+00
 -1       268 2.54295E-05-1.69849E-06 0.00000E+00
 -1       269 2.26874E-05-1.74264E-06 0.00000E+00
 -1       270 2.03346E-05-1.78551E-06 0.00000E+00
 -1       271 3.33903E-05 1.00664E-06 0.00000E+00
 -1       272 3.20366E-05 2.83881E-06 0.00000E+00
 -1       273 3.09223E-05 4.03275E-06 0.00000E+00
 -1       274 3.00137E-05 4.67416E-06 0.00000E+00
 -1       275 2.92794E-05 4.85016E-06 0.00000E+00
 -1       276 2.86866E-05 4.64841E-06-1.32349E-23
 -1       277 2.82021E-05 4.15708E-06 0.00000E+00
 -1       278 2.77929E-05 3.46488E-06 0.00000E+00
 -1       279 2.74256E-05 2.66076E-06-1.32349E-23
 -1       280 2.70669E-05 1.83393E-06 6.61744E-24
 -1       281 2.66835E-05 1.07362E-06 0.00000E+00
 -1       282 2.62422E-05 4.68962E-07 6.61744E-24
 -1       283 2.57099E-05 1.08909E-07 0.00000E+00
 -1       284 2.50553E-05 8.24284E-08 0.00000E+00
 -1       285 2.42440E-05 4.77122E-07-6.61744E-24
 -1       286 3.82075E-05 2.24107E-06-6.61744E-24
 -1       287 3.82185E-05 2.98242E-06 0.00000E+00
 -1       288 3.82304E-05 3.37416E-06 0.00000E+00
 -1       289 3.82435E-05 3.46764E-06 0.00000E+00
 -1       290 3.82568E-05 3.31409E-06 0.00000E+00
 -1       291 3.82703E-05 2.96478E-06 0.00000E+00
 -1       292 3.82838E-05 2.47100E-06-2.06795E-25
 -1       293 3.82974E-05 1.88400E-06 1.55096E-25
 -1       294 3.83109E-05 1.25506E-06 4.13590E-25
 -1       295 3.83244E-05 6.35452E-07 0.00000E+00
 -1       296 3.83379E-05 7.64284E-08 0.00000E+00
 -1       297 3.83513E-05-3.70737E-07 8.27181E-25
 -1       298 3.83645E-05-6.54770E-07 0.00000E+00
 -1       299 3.83770E-05-7.24448E-07 0.00000E+00
 -1       300 3.83891E-05-5.28451E-07 8.27181E-25
 -1       301 3.61262E-05 1.13972E-06-1.65436E-24
 -1       302 3.35766E-05 1.18916E-06 0.00000E+00
 -1       303 3.07850E-05 1.23933E-06-4.13590E-25
 -1       304 2.79824E-05 1.28998E-06 0.00000E+00
 -1       305 2.53995E-05 1.34065E-06 0.00000E+00
 -1       306 3.71304E-05 2.02275E-06 1.32349E-23
 -1       307 3.61738E-05 2.56616E-06 0.00000E+00
 -1       308 3.53371E-05 2.78688E-06-2.64698E-23
 -1       309 3.45998E-05 2.73565E-06 3.97047E-23
 -1       310 3.39444E-05 2.46452E-06 0.00000E+00
 -1       311 3.33514E-05 2.02553E-06 0.00000E+00
 -1       312 3.28016E-05 1.47097E-06-2.64698E-23
 -1       313 3.22754E-05 8.53301E-07 0.00000E+00
 -1       314 3.17531E-05 2.25113E-07 0.00000E+00
 -1       315 3.12151E-05-3.60990E-07 0.00000E+00
 -1       316 3.06419E-05-8.52486E-07-2.64698E-23
 -1       317 3.00141E-05-1.19698E-06 0.00000E+00
 -1       318 2.93123E-05-1.34229E-06 0.00000E+00
 -1       319 2.85191E-05-1.23611E-06 6.61744E-24
 -1       320 2.76139E-05-8.27544E-07 1.32349E-23
 -1       321 3.84583E-05 5.76573E-07 0.00000E+00
 -1       322 3.85307E-05 9.58214E-07 0.00000E+00
 -1       323 3.86039E-05 1.15641E-06 0.00000E+00
 -1       324 3.86781E-05 1.19986E-06 8.27181E-25
 -1       325 3.87526E-05 1.11718E-06 0.00000E+00
 -1       326 3.88273E-05 9.37018E-07 8.27181E-25
 -1       327 3.89020E-05 6.87975E-07 1.65436E-24
 -1       328 3.89768E-05 3.98659E-07 0.00000E+00
 -1       329 3.90516E-05 9.76672E-08 0.00000E+00
 -1       330 3.91264E-05-1.86411E-07 0.00000E+00
 -1       331 3.92012E-05-4.24976E-07 0.00000E+00
 -1       332 3.92759E-05-5.89423E-07-1.65436E-24
 -1       333 3.93504E-05-6.51136E-07 0.00000E+00
 -1       334 3.94245E-05-5.81506E-07 1.65436E-24
 -1       335 3.94982E-05-3.51861E-07 0.00000E+00
 -1       336 3.70514E-05-2.63802E-08-8.27181E-25
 -1       337 3.51305E-05-3.15845E-08 4.13590E-25
 -1       338 3.28774E-05-3.70942E-08 4.13590E-25
 -1       339 3.05398E-05-4.27724E-08 8.27181E-25
 -1       340 2.83655E-05-4.84012E-08 0.00000E+00
 -1       341 3.77700E-05 4.22614E-07 0.00000E+00
 -1       342 3.72126E-05 6.43245E-07-6.61744E-24
 -1       343 3.67225E-05 6.82313E-07 0.00000E+00
 -1       344 3.62864E-05 5.72990E-07 0.00000E+00
 -1       345 3.58929E-05 3.49154E-07 0.00000E+00
 -1       346 3.55293E-05 4.45311E-08 0.00000E+00
 -1       347 3.51833E-05-3.07080E-07 1.32349E-23
 -1       348 3.48422E-05-6.71845E-07 0.00000E+00
 -1       349 3.44934E-05-1.01591E-06-1.32349E-23
 -1       350 3.41241E-05-1.30547E-06 0.00000E+00
 -1       351 3.37219E-05-1.50675E-06 0.00000E+00
 -1       352 3.32743E-05-1.58605E-06 6.61744E-24
 -1       353 3.27689E-05-1.50980E-06 0.00000E+00
 -1       354 3.21946E-05-1.24422E-06 3.30872E-24
 -1       355 3.15380E-05-7.56470E-07-6.61744E-24
 -1       356 3.96248E-05 5.54211E-07 0.00000E+00
 -1       357 3.96856E-05 9.51720E-07 0.00000E+00
 -1       358 3.97467E-05 1.26969E-06-1.65436E-24
 -1       359 3.98083E-05 1.51971E-06 0.00000E+00
 -1       360 3.98700E-05 1.71330E-06 1.65436E-24
 -1       361 3.99318E-05 1.86202E-06-8.27181E-25
 -1       362 3.99936E-05 1.97741E-06-1.65436E-24
 -1       363 4.00554E-05 2.07101E-06 0.00000E+00
 -1       364 4.01173E-05 2.15436E-06-1.65436E-24
 -1       365 4.01793E-05 2.23898E-06 8.27181E-25
 -1       366 4.02414E-05 2.33642E-06-1.65436E-24
 -1       367 4.03037E-05 2.45820E-06-1.65436E-24
 -1       368 4.03664E-05 2.61586E-06 0.00000E+00
 -1       369 4.04305E-05 2.82094E-06 0.00000E+00
 -1       370 4.04956E-05 3.08500E-06 6.61744E-24
 -1       371 3.85971E-05 5.37959E-08 0.00000E+00
 -1       372 3.72101E-05 4.17500E-08 0.00000E+00
 -1       373 3.55712E-05 2.94073E-08 1.03398E-25
 -1       374 3.38466E-05 1.69008E-08 0.00000E+00
 -1       375 3.22023E-05 4.45583E-09 1.65436E-24
 -1       376 3.93132E-05 4.64881E-07 3.30872E-24
 -1       377 3.91127E-05 7.10033E-07-1.65436E-24
 -1       378 3.89570E-05 8.35369E-07-3.30872E-24
 -1       379 3.88333E-05 8.74285E-07 1.65436E-24
 -1       380 3.87293E-05 8.60313E-07 0.00000E+00
 -1       381 3.86325E-05 8.26939E-07 0.00000E+00
 -1       382 3.85304E-05 8.07653E-07 0.00000E+00
 -1       383 3.84105E-05 8.35933E-07 1.65436E-24
 -1       384 3.82602E-05 9.45249E-07 1.65436E-24
 -1       385 3.80670E-05 1.16905E-06 8.27181E-25
 -1       386 3.78184E-05 1.54075E-06-1.65436E-24
 -1       387 3.75020E-05 2.09378E-06 1.24077E-24
 -1       388 3.71055E-05 2.86150E-06-1.24077E-24
 -1       389 3.66175E-05 3.87757E-06 0.00000E+00
 -1       390 3.60247E-05 5.17496E-06-3.30872E-24
 -1       406 4.02185E-05 3.97585E-06 0.00000E+00
 -1       407 3.97265E-05 4.54221E-06 0.00000E+00
 -1       408 3.90438E-05 5.10931E-06 1.32349E-23
 -1       409 3.81183E-05 5.67582E-06 6.61744E-24
 -1       410 3.68972E-05 6.24053E-06 0.00000E+00
 -1       466 1.87551E-05-6.07169E-07 0.00000E+00
 -1       467 1.90547E-05 2.06714E-07 0.00000E+00
 -1       468 1.93555E-05 6.73478E-07-6.61744E-24
 -1       469 1.96579E-05 8.51138E-07 0.00000E+00
 -1       470 1.99608E-05 7.97459E-07 0.00000E+00
 -1       471 2.02640E-05 5.70068E-07 3.30872E-24
 -1       472 2.05672E-05 2.26494E-07 6.61744E-24
 -1       473 2.08705E-05-1.75833E-07 0.00000E+00
 -1       474 2.11737E-05-5.79523E-07 0.00000E+00
 -1       475 2.14769E-05-9.27177E-07 6.61744E-24
 -1       476 2.17800E-05-1.16137E-06-1.32349E-23
 -1       477 2.20827E-05-1.22458E-06 0.00000E+00
 -1       478 2.23849E-05-1.05918E-06 1.32349E-23
 -1       479 2.26849E-05-6.07431E-07 3.30872E-24
 -1       480 2.29834E-05 1.88698E-07 0.00000E+00
 -1       481 1.68147E-05-1.71867E-06 0.00000E+00
 -1       482 1.50536E-05-1.60779E-06 0.00000E+00
 -1       483 1.32668E-05-1.49665E-06 0.00000E+00
 -1       484 1.15363E-05-1.38509E-06 0.00000E+00
 -1       485 9.94416E-06-1.27331E-06 1.65436E-24
 -1       486 1.76611E-05-6.40867E-07 6.61744E-24
 -1       487 1.69503E-05 2.39841E-07 0.00000E+00
 -1       488 1.63373E-05 8.57553E-07 1.32349E-23
 -1       489 1.58076E-05 1.24847E-06-1.32349E-23
 -1       490 1.53487E-05 1.44963E-06 1.32349E-23
 -1       491 1.49468E-05 1.49793E-06 6.61744E-24
 -1       492 1.45882E-05 1.43037E-06 0.00000E+00
 -1       493 1.42592E-05 1.28405E-06 6.61744E-24
 -1       494 1.39458E-05 1.09612E-06 0.00000E+00
 -1       495 1.36340E-05 9.03785E-07-6.61744E-24
 -1       496 1.33100E-05 7.44248E-07 0.00000E+00
 -1       497 1.29601E-05 6.54709E-07-3.30872E-24
 -1       498 1.25704E-05 6.72317E-07-6.61744E-24
 -1       499 1.21281E-05 8.34405E-07 0.00000E+00
 -1       500 1.16186E-05 1.17764E-06 6.61744E-24
 -1       501 2.34592E-05 2.54059E-06-1.65436E-24
 -1       502 2.36674E-05 3.22630E-06-1.65436E-24
 -1       503 2.38768E-05 3.50739E-06 0.00000E+00
 -1       504 2.40878E-05 3.44921E-06 0.00000E+00
 -1       505 2.42992E-05 3.11693E-06 0.00000E+00
 -1       506 2.45108E-05 2.57557E-06 0.00000E+00
 -1       507 2.47224E-05 1.89010E-06-6.61744E-24
 -1       508 2.49340E-05 1.12540E-06 3.30872E-24
 -1       509 2.51456E-05 3.46297E-07 0.00000E+00
 -1       510 2.53572E-05-3.82353E-07 0.00000E+00
 -1       511 2.55687E-05-9.95711E-07 0.00000E+00
 -1       512 2.57800E-05-1.42885E-06-3.30872E-24
 -1       513 2.59908E-05-1.61677E-06 6.61744E-24
 -1       514 2.61999E-05-1.49440E-06 0.00000E+00
 -1       515 2.64077E-05-9.96430E-07 0.00000E+00
 -1       516 2.13333E-05 1.44092E-06 0.00000E+00
 -1       517 1.90626E-05 1.50151E-06 0.00000E+00
 -1       518 1.66745E-05 1.56223E-06 0.00000E+00
 -1       519 1.43927E-05 1.62335E-06-4.13590E-25
 -1       520 1.24409E-05 1.68489E-06 0.00000E+00
 -1       521 2.22409E-05 2.39287E-06 1.32349E-23
 -1       522 2.13411E-05 3.00232E-06 0.00000E+00
 -1       523 2.05673E-05 3.27234E-06 0.00000E+00
 -1       524 1.98989E-05 3.25442E-06 0.00000E+00
 -1       525 1.93179E-05 3.00143E-06 0.00000E+00
 -1       526 1.88048E-05 2.56614E-06 0.00000E+00
 -1       527 1.83399E-05 2.00158E-06 0.00000E+00
 -1       528 1.79035E-05 1.36096E-06 0.00000E+00
 -1       529 1.74756E-05 6.97596E-07 0.00000E+00
 -1       530 1.70363E-05 6.48506E-08 0.00000E+00
 -1       531 1.65657E-05-4.83970E-07-1.32349E-23
 -1       532 1.60441E-05-8.95650E-07 6.61744E-24
 -1       533 1.54518E-05-1.11717E-06-1.32349E-23
 -1       534 1.47707E-05-1.09542E-06 0.00000E+00
 -1       535 1.39800E-05-7.78453E-07 0.00000E+00
 -1       536 2.68441E-05 9.29903E-07-1.44757E-24
 -1       537 2.71056E-05 1.54685E-06 0.00000E+00
 -1       538 2.73686E-05 1.84298E-06-6.61744E-24
 -1       539 2.76337E-05 1.87025E-06 0.00000E+00
 -1       540 2.78993E-05 1.68037E-06-6.61744E-24
 -1       541 2.81653E-05 1.32497E-06 0.00000E+00
 -1       542 2.84314E-05 8.55570E-07-6.61744E-24
 -1       543 2.86975E-05 3.23623E-07 0.00000E+00
 -1       544 2.89637E-05-2.19448E-07 0.00000E+00
 -1       545 2.92298E-05-7.22244E-07 0.00000E+00
 -1       546 2.94958E-05-1.13333E-06 0.00000E+00
 -1       547 2.97616E-05-1.40121E-06 0.00000E+00
 -1       548 3.00270E-05-1.47432E-06-6.61744E-24
 -1       549 3.02909E-05-1.30099E-06 9.92617E-24
 -1       550 3.05536E-05-8.29352E-07 0.00000E+00
 -1       551 2.46862E-05-7.00900E-08 1.65436E-24
 -1       552 2.23232E-05-7.66242E-08 4.13590E-25
 -1       553 1.97450E-05-8.30527E-08 1.65436E-24
 -1       554 1.71878E-05-8.95629E-08 0.00000E+00
 -1       555 1.48880E-05-9.63064E-08 0.00000E+00
 -1       556 2.57599E-05 7.46962E-07 0.00000E+00
 -1       557 2.50331E-05 1.20181E-06-6.61744E-24
 -1       558 2.44156E-05 1.36046E-06 0.00000E+00
 -1       559 2.38880E-05 1.27440E-06 6.61744E-24
 -1       560 2.34321E-05 9.95566E-07 0.00000E+00
 -1       561 2.30288E-05 5.75863E-07 0.00000E+00
 -1       562 2.26587E-05 6.72590E-08-1.32349E-23
 -1       563 2.23023E-05-4.78206E-07 0.00000E+00
 -1       564 2.19402E-05-1.00847E-06-1.32349E-23
 -1       565 2.15530E-05-1.47151E-06 0.00000E+00
 -1       566 2.11213E-05-1.81532E-06 0.00000E+00
 -1       567 2.06257E-05-1.98798E-06 0.00000E+00
 -1       568 2.00470E-05-1.93769E-06 0.00000E+00
 -1       569 1.93671E-05-1.61258E-06 6.61744E-24
 -1       570 1.85669E-05-9.61350E-07 6.61744E-24
 -1       571 3.10695E-05 8.36530E-07-1.65436E-24
 -1       572 3.13499E-05 1.41712E-06 0.00000E+00
 -1       573 3.16323E-05 1.77703E-06-6.61744E-24
 -1       574 3.19162E-05 1.96118E-06-3.30872E-24
 -1       575 3.22006E-05 2.01444E-06 6.61744E-24
 -1       576 3.24854E-05 1.98166E-06-3.30872E-24
 -1       577 3.27702E-05 1.90769E-06 0.00000E+00
 -1       578 3.30552E-05 1.83737E-06 0.00000E+00
 -1       579 3.33401E-05 1.81551E-06-1.32349E-23
 -1       580 3.36251E-05 1.88697E-06-6.61744E-24
 -1       581 3.39100E-05 2.09663E-06-1.32349E-23
 -1       582 3.41948E-05 2.48945E-06 6.61744E-24
 -1       583 3.44794E-05 3.11041E-06 0.00000E+00
 -1       584 3.47637E-05 4.00454E-06 6.61744E-24
 -1       585 3.50475E-05 5.21697E-06-1.32349E-23
 -1       586 2.91208E-05 5.08515E-09 0.00000E+00
 -1       587 2.69659E-05 1.99473E-08 0.00000E+00
 -1       588 2.45385E-05 3.44187E-08 0.00000E+00
 -1       589 2.20408E-05 4.83980E-08 0.00000E+00
 -1       590 1.96756E-05 6.19857E-08-3.30872E-24
 -1       591 3.01580E-05 7.59694E-07 0.00000E+00
 -1       592 2.95806E-05 1.30721E-06 6.61744E-24
 -1       593 2.90678E-05 1.67808E-06 0.00000E+00
 -1       594 2.86045E-05 1.91311E-06 0.00000E+00
 -1       595 2.81762E-05 2.05348E-06 1.32349E-23
 -1       596 2.77679E-05 2.14019E-06-6.61744E-24
 -1       597 2.73641E-05 2.21427E-06 1.32349E-23
 -1       598 2.69497E-05 2.31670E-06-3.30872E-24
 -1       599 2.65093E-05 2.48846E-06-6.61744E-24
 -1       600 2.60276E-05 2.77048E-06-3.30872E-24
 -1       601 2.54892E-05 3.20365E-06 0.00000E+00
 -1       602 2.48790E-05 3.82879E-06 3.30872E-24
 -1       603 2.41819E-05 4.68663E-06 0.00000E+00
 -1       604 2.33839E-05 5.81805E-06 3.30872E-24
 -1       605 2.24699E-05 7.26345E-06 0.00000E+00
 -1       606 3.54395E-05 8.85749E-06 0.00000E+00
 -1       607 3.55419E-05 1.12539E-05 0.00000E+00
 -1       608 3.56428E-05 1.39498E-05 0.00000E+00
 -1       609 3.57421E-05 1.69131E-05 3.30872E-24
 -1       610 3.58406E-05 2.01119E-05 6.61744E-24
 -1       611 3.59383E-05 2.35139E-05 0.00000E+00
 -1       612 3.60353E-05 2.70872E-05 0.00000E+00
 -1       613 3.61319E-05 3.07996E-05 1.65436E-24
 -1       614 3.62280E-05 3.46192E-05-3.30872E-24
 -1       615 3.63239E-05 3.85139E-05 0.00000E+00
 -1       616 3.64195E-05 4.24518E-05 0.00000E+00
 -1       617 3.65151E-05 4.64008E-05 0.00000E+00
 -1       618 3.66106E-05 5.03289E-05 1.65436E-24
 -1       619 3.67060E-05 5.42042E-05 0.00000E+00
 -1       620 3.68012E-05 5.79948E-05 8.27181E-25
 -1       621 3.32631E-05 7.16975E-06 0.00000E+00
 -1       622 3.10066E-05 7.55329E-06 0.00000E+00
 -1       623 2.86277E-05 7.93682E-06 0.00000E+00
 -1       624 2.61948E-05 8.31930E-06-3.30872E-24
 -1       625 2.37766E-05 8.70012E-06 0.00000E+00
 -1       626 3.47709E-05 8.93985E-06 0.00000E+00
 -1       627 3.40855E-05 1.14188E-05 0.00000E+00
 -1       628 3.32878E-05 1.41944E-05 1.32349E-23
 -1       629 3.23914E-05 1.72304E-05 6.61744E-24
 -1       630 3.14099E-05 2.04914E-05 0.00000E+00
 -1       631 3.03568E-05 2.39415E-05-3.30872E-24
 -1       632 2.92456E-05 2.75449E-05 0.00000E+00
 -1       633 2.80897E-05 3.12662E-05-3.30872E-24
 -1       634 2.69027E-05 3.50697E-05-6.61744E-24
 -1       635 2.56979E-05 3.89198E-05 0.00000E+00
 -1       636 2.44889E-05 4.27810E-05 0.00000E+00
 -1       637 2.32889E-05 4.66177E-05 0.00000E+00
 -1       638 2.21114E-05 5.03943E-05 6.61744E-24
 -1       639 2.09691E-05 5.40751E-05 1.65436E-24
 -1       640 1.98755E-05 5.76244E-05 0.00000E+00
 -1       641 3.68928E-05 6.52365E-05 0.00000E+00
 -1       642 3.68907E-05 6.88171E-05 2.06795E-25
 -1       643 3.68885E-05 7.24068E-05 0.00000E+00
 -1       644 3.68861E-05 7.60016E-05 0.00000E+00
 -1       645 3.68837E-05 7.95971E-05 0.00000E+00
 -1       646 3.68812E-05 8.31894E-05 5.16988E-26
 -1       647 3.68788E-05 8.67743E-05 0.00000E+00
 -1       648 3.68764E-05 9.03476E-05 2.58494E-26
 -1       649 3.68741E-05 9.39052E-05 0.00000E+00
 -1       650 3.68718E-05 9.74430E-05-2.58494E-26
 -1       651 3.68696E-05 1.00957E-04 0.00000E+00
 -1       652 3.68674E-05 1.04442E-04 0.00000E+00
 -1       653 3.68653E-05 1.07896E-04 0.00000E+00
 -1       654 3.68630E-05 1.11313E-04 0.00000E+00
 -1       655 3.68607E-05 1.14689E-04 0.00000E+00
 -1       656 3.35728E-05 6.15618E-05 0.00000E+00
 -1       657 3.04935E-05 6.14492E-05 1.65436E-24
 -1       658 2.75683E-05 6.13367E-05-3.30872E-24
 -1       659 2.47089E-05 6.12243E-05 0.00000E+00
 -1       660 2.18272E-05 6.11120E-05 0.00000E+00
 -1       661 3.56459E-05 6.52647E-05 0.00000E+00
 -1       662 3.43997E-05 6.88653E-05 0.00000E+00
 -1       663 3.31536E-05 7.24658E-05 0.00000E+00
 -1       664 3.19095E-05 7.60624E-05 0.00000E+00
 -1       665 3.06685E-05 7.96508E-05 3.30872E-24
 -1       666 2.94323E-05 8.32270E-05 0.00000E+00
 -1       667 2.82022E-05 8.67868E-05 0.00000E+00
 -1       668 2.69799E-05 9.03263E-05-1.65436E-24
 -1       669 2.57668E-05 9.38414E-05 0.00000E+00
 -1       670 2.45645E-05 9.73279E-05 0.00000E+00
 -1       671 2.33744E-05 1.00782E-04-3.30872E-24
 -1       672 2.21982E-05 1.04199E-04 0.00000E+00
 -1       673 2.10373E-05 1.07575E-04 1.65436E-24
 -1       674 1.98927E-05 1.10907E-04 8.27181E-25
 -1       675 1.87664E-05 1.14189E-04 0.00000E+00
 -1       676 3.35831E-05 1.17922E-04 0.00000E+00
 -1       677 3.03502E-05 1.17820E-04 0.00000E+00
 -1       678 2.71492E-05 1.17718E-04-3.30872E-24
 -1       679 2.39719E-05 1.17616E-04 0.00000E+00
 -1       680 2.08098E-05 1.17514E-04-1.65436E-24
 -1       681 8.72217E-06-1.90787E-07-1.65436E-24
 -1       682 8.87680E-06 5.05454E-07-1.65436E-24
 -1       683 9.03186E-06 9.61838E-07 3.30872E-24
 -1       684 9.18741E-06 1.21516E-06-1.65436E-24
 -1       685 9.34311E-06 1.30211E-06 0.00000E+00
 -1       686 9.49891E-06 1.25932E-06 1.65436E-24
 -1       687 9.65473E-06 1.12342E-06 3.30872E-24
 -1       688 9.81055E-06 9.30960E-07 1.65436E-24
 -1       689 9.96636E-06 7.18501E-07 0.00000E+00
 -1       690 1.01221E-05 5.22588E-07 0.00000E+00
 -1       691 1.02778E-05 3.79768E-07 6.61744E-24
 -1       692 1.04333E-05 3.26611E-07-3.30872E-24
 -1       693 1.05885E-05 3.99718E-07 0.00000E+00
 -1       694 1.07427E-05 6.35701E-07 0.00000E+00
 -1       695 1.08961E-05 1.07129E-06 0.00000E+00
 -1       696 7.23789E-06-9.74570E-07 0.00000E+00
 -1       697 5.75971E-06-7.81014E-07 0.00000E+00
 -1       698 4.21656E-06-5.87059E-07-6.61744E-24
 -1       699 2.68878E-06-3.92288E-07 0.00000E+00
 -1       700 1.25672E-06-1.97079E-07 0.00000E+00
 -1       701 8.02828E-06-1.93771E-07-3.30872E-24
 -1       702 7.55196E-06 5.65181E-07 1.65436E-24
 -1       703 7.14428E-06 1.13954E-06 0.00000E+00
 -1       704 6.79621E-06 1.55165E-06 3.30872E-24
 -1       705 6.50011E-06 1.82440E-06-1.32349E-23
 -1       706 6.24757E-06 1.98050E-06-3.30872E-24
 -1       707 6.03018E-06 2.04270E-06 6.61744E-24
 -1       708 5.83943E-06 2.03378E-06-3.30872E-24
 -1       709 5.66680E-06 1.97655E-06 0.00000E+00
 -1       710 5.50376E-06 1.89383E-06 3.30872E-24
 -1       711 5.34178E-06 1.80848E-06 6.61744E-24
 -1       712 5.17243E-06 1.74336E-06 0.00000E+00
 -1       713 4.98724E-06 1.72133E-06 0.00000E+00
 -1       714 4.77847E-06 1.76549E-06-1.65436E-24
 -1       715 4.53706E-06 1.89844E-06-1.65436E-24
 -1       716 1.11605E-05 2.35303E-06-1.24077E-24
 -1       717 1.12882E-05 2.63863E-06 8.27181E-25
 -1       718 1.14166E-05 2.64745E-06-1.65436E-24
 -1       719 1.15459E-05 2.42870E-06-1.65436E-24
 -1       720 1.16754E-05 2.03141E-06 0.00000E+00
 -1       721 1.18050E-05 1.50461E-06-1.65436E-24
 -1       722 1.19347E-05 8.97303E-07-3.30872E-24
 -1       723 1.20643E-05 2.58453E-07-1.65436E-24
 -1       724 1.21939E-05-3.62975E-07 3.30872E-24
 -1       725 1.23236E-05-9.18008E-07 0.00000E+00
 -1       726 1.24531E-05-1.35767E-06 0.00000E+00
 -1       727 1.25824E-05-1.63294E-06 0.00000E+00
 -1       728 1.27114E-05-1.69473E-06 0.00000E+00
 -1       729 1.28388E-05-1.49398E-06 0.00000E+00
 -1       730 1.29652E-05-9.81421E-07 0.00000E+00
 -1       731 9.94215E-06 1.80516E-06 0.00000E+00
 -1       732 8.65736E-06 1.87265E-06-1.65436E-24
 -1       733 7.31628E-06 1.94046E-06-1.65436E-24
 -1       734 6.04990E-06 2.00885E-06-2.06795E-25
 -1       735 4.98923E-06 2.07757E-06-1.03398E-25
 -1       736 1.04432E-05 2.32678E-06 0.00000E+00
 -1       737 9.90764E-06 2.70633E-06-6.61744E-24
 -1       738 9.43750E-06 2.90914E-06 0.00000E+00
 -1       739 9.02304E-06 2.95912E-06 0.00000E+00
 -1       740 8.65624E-06 2.88089E-06 1.32349E-23
 -1       741 8.32808E-06 2.69890E-06 6.61744E-24
 -1       742 8.02952E-06 2.43767E-06-1.32349E-23
 -1       743 7.75140E-06 2.12178E-06 0.00000E+00
 -1       744 7.48453E-06 1.77584E-06 0.00000E+00
 -1       745 7.21972E-06 1.42452E-06 0.00000E+00
 -1       746 6.94776E-06 1.09247E-06 0.00000E+00
 -1       747 6.65954E-06 8.04336E-07-6.61744E-24
 -1       748 6.34594E-06 5.84760E-07 6.61744E-24
 -1       749 5.99858E-06 4.58521E-07 0.00000E+00
 -1       750 5.60776E-06 4.49896E-07 0.00000E+00
 -1       751 1.33435E-05 7.41338E-07 1.65436E-24
 -1       752 1.36279E-05 1.21053E-06 0.00000E+00
 -1       753 1.39139E-05 1.35578E-06 0.00000E+00
 -1       754 1.42022E-05 1.23520E-06-3.30872E-24
 -1       755 1.44910E-05 9.06688E-07 0.00000E+00
 -1       756 1.47803E-05 4.28008E-07 0.00000E+00
 -1       757 1.50697E-05-1.43151E-07 0.00000E+00
 -1       758 1.53591E-05-7.49171E-07 3.30872E-24
 -1       759 1.56486E-05-1.33245E-06 0.00000E+00
 -1       760 1.59380E-05-1.83538E-06 6.61744E-24
 -1       761 1.62274E-05-2.20030E-06 0.00000E+00
 -1       762 1.65164E-05-2.36943E-06 6.61744E-24
 -1       763 1.68048E-05-2.28490E-06 0.00000E+00
 -1       764 1.70911E-05-1.88869E-06-3.30872E-24
 -1       765 1.73759E-05-1.12251E-06 6.61744E-24
 -1       766 1.16905E-05-1.56667E-09 2.06795E-25
 -1       767 1.01355E-05 1.17464E-07 0.00000E+00
 -1       768 8.55974E-06 2.37041E-07-8.27181E-25
 -1       769 7.10996E-06 3.56928E-07-3.10193E-25
 -1       770 5.93290E-06 4.76675E-07 0.00000E+00
 -1       771 1.20471E-05 5.49224E-07 0.00000E+00
 -1       772 1.10910E-05 9.30015E-07 0.00000E+00
 -1       773 1.02187E-05 1.07925E-06 0.00000E+00
 -1       774 9.41566E-06 1.03611E-06 0.00000E+00
 -1       775 8.66897E-06 8.40530E-07 0.00000E+00
 -1       776 7.96408E-06 5.32175E-07 1.32349E-23
 -1       777 7.28638E-06 1.50796E-07 2.64698E-23
 -1       778 6.62105E-06-2.63796E-07-1.32349E-23
 -1       779 5.95323E-06-6.71769E-07 2.64698E-23
 -1       780 5.26807E-06-1.03331E-06 0.00000E+00
 -1       781 4.55074E-06-1.30864E-06 0.00000E+00
 -1       782 3.78664E-06-1.45806E-06 1.32349E-23
 -1       783 2.96117E-06-1.44195E-06 0.00000E+00
 -1       784 2.06123E-06-1.22057E-06 0.00000E+00
 -1       785 1.07225E-06-7.54810E-07-1.32349E-23
 -1       786 1.78635E-05 1.30339E-06 1.24077E-24
 -1       787 1.80994E-05 2.18319E-06-3.30872E-24
 -1       788 1.83367E-05 2.76608E-06 3.30872E-24
 -1       789 1.85759E-05 3.10883E-06 3.30872E-24
 -1       790 1.88157E-05 3.26806E-06-6.61744E-24
 -1       791 1.90557E-05 3.30031E-06 3.30872E-24
 -1       792 1.92960E-05 3.26205E-06 0.00000E+00
 -1       793 1.95363E-05 3.20972E-06 0.00000E+00
 -1       794 1.97766E-05 3.19974E-06 0.00000E+00
 -1       795 2.00168E-05 3.28858E-06 0.00000E+00
 -1       796 2.02570E-05 3.53272E-06-6.61744E-24
 -1       797 2.04970E-05 3.98877E-06 3.30872E-24
 -1       798 2.07364E-05 4.71344E-06 0.00000E+00
 -1       799 2.09748E-05 5.76353E-06 0.00000E+00
 -1       800 2.12120E-05 7.19612E-06 0.00000E+00
 -1       801 1.52625E-05 5.88624E-08-1.65436E-24
 -1       802 1.21232E-05 4.94291E-08-4.13590E-25
 -1       803 8.62474E-06 3.90785E-08 1.65436E-24
 -1       804 5.17002E-06 2.82692E-08 0.00000E+00
 -1       805 2.16199E-06 1.79790E-08 6.61744E-24
 -1       806 1.67251E-05 1.20032E-06 0.00000E+00
 -1       807 1.58843E-05 2.07779E-06 0.00000E+00
 -1       808 1.51200E-05 2.74658E-06-1.32349E-23
 -1       809 1.44175E-05 3.24634E-06 6.61744E-24
 -1       810 1.37628E-05 3.61714E-06 1.32349E-23
 -1       811 1.31413E-05 3.89891E-06 0.00000E+00
 -1       812 1.25382E-05 4.13162E-06 0.00000E+00
 -1       813 1.19384E-05 4.35525E-06 0.00000E+00
 -1       814 1.13269E-05 4.60978E-06 0.00000E+00
 -1       815 1.06890E-05 4.93515E-06-6.61744E-24
 -1       816 1.00095E-05 5.37127E-06-1.32349E-23
 -1       817 9.27385E-06 5.95801E-06-6.61744E-24
 -1       818 8.46718E-06 6.73513E-06 0.00000E+00
 -1       819 7.57597E-06 7.74250E-06 3.30872E-24
 -1       820 6.58542E-06 9.01955E-06 0.00000E+00
 -1       821 2.12910E-05 1.13857E-05 7.23783E-25
 -1       822 2.11308E-05 1.39493E-05 8.27181E-25
 -1       823 2.09692E-05 1.67329E-05-3.30872E-24
 -1       824 2.08059E-05 1.97102E-05 0.00000E+00
 -1       825 2.06418E-05 2.28553E-05 3.30872E-24
 -1       826 2.04771E-05 2.61419E-05 1.65436E-24
 -1       827 2.03119E-05 2.95437E-05 0.00000E+00
 -1       828 2.01464E-05 3.30346E-05 0.00000E+00
 -1       829 1.99807E-05 3.65881E-05 0.00000E+00
 -1       830 1.98148E-05 4.01779E-05 3.30872E-24
 -1       831 1.96490E-05 4.37777E-05 6.61744E-24
 -1       832 1.94835E-05 4.73611E-05 3.30872E-24
 -1       833 1.93183E-05 5.09017E-05 0.00000E+00
 -1       834 1.91541E-05 5.43733E-05-1.65436E-24
 -1       835 1.89909E-05 5.77495E-05 3.30872E-24
 -1       836 1.89515E-05 9.32030E-06 0.00000E+00
 -1       837 1.61969E-05 9.58134E-06 0.00000E+00
 -1       838 1.33250E-05 9.84228E-06 6.61744E-24
 -1       839 1.04851E-05 1.01027E-05-1.65436E-24
 -1       840 7.82651E-06 1.03628E-05-3.30872E-24
 -1       841 2.05983E-05 1.13922E-05 0.00000E+00
 -1       842 1.96621E-05 1.39597E-05 0.00000E+00
 -1       843 1.86436E-05 1.67449E-05 0.00000E+00
 -1       844 1.75526E-05 1.97213E-05 0.00000E+00
 -1       845 1.63990E-05 2.28628E-05 0.00000E+00
 -1       846 1.51929E-05 2.61432E-05-1.65436E-24
 -1       847 1.39440E-05 2.95363E-05 0.00000E+00
 -1       848 1.26624E-05 3.30160E-05 0.00000E+00
 -1       849 1.13579E-05 3.65560E-05-8.27181E-25
 -1       850 1.00404E-05 4.01300E-05-4.13590E-25
 -1       851 8.71989E-06 4.37121E-05 8.27181E-25
 -1       852 7.40620E-06 4.72759E-05 4.13590E-25
 -1       853 6.10915E-06 5.07953E-05-3.61892E-25
 -1       854 4.83830E-06 5.42439E-05 0.00000E+00
 -1       855 3.60376E-06 5.75957E-05 0.00000E+00
 -1       856 1.87661E-05 6.42433E-05 0.00000E+00
 -1       857 1.86932E-05 6.75963E-05 4.13590E-25
 -1       858 1.86197E-05 7.10476E-05 0.00000E+00
 -1       859 1.85455E-05 7.45809E-05 0.00000E+00
 -1       860 1.84710E-05 7.81797E-05 1.65436E-24
 -1       861 1.83963E-05 8.18277E-05-8.27181E-25
 -1       862 1.83214E-05 8.55087E-05 0.00000E+00
 -1       863 1.82465E-05 8.92061E-05 0.00000E+00
 -1       864 1.81715E-05 9.29036E-05-1.65436E-24
 -1       865 1.80966E-05 9.65849E-05-8.27181E-25
 -1       866 1.80219E-05 1.00234E-04 0.00000E+00
 -1       867 1.79473E-05 1.03833E-04 0.00000E+00
 -1       868 1.78730E-05 1.07368E-04 0.00000E+00
 -1       869 1.77992E-05 1.10820E-04 0.00000E+00
 -1       870 1.77258E-05 1.14175E-04 1.65436E-24
 -1       871 1.59361E-05 6.09760E-05 0.00000E+00
 -1       872 1.32204E-05 6.09466E-05 0.00000E+00
 -1       873 1.05995E-05 6.09172E-05-8.27181E-25
 -1       874 7.98390E-06 6.08873E-05-2.06795E-25
 -1       875 5.28384E-06 6.08568E-05 8.27181E-25
 -1       876 1.77444E-05 6.42675E-05 3.30872E-24
 -1       877 1.66256E-05 6.76202E-05 1.65436E-24
 -1       878 1.54784E-05 7.10490E-05-3.30872E-24
 -1       879 1.43076E-05 7.45419E-05-1.65436E-24
 -1       880 1.31173E-05 7.80866E-05-3.30872E-24
 -1       881 1.19120E-05 8.16712E-05 0.00000E+00
 -1       882 1.06962E-05 8.52836E-05 0.00000E+00
 -1       883 9.47449E-06 8.89119E-05-1.65436E-24
 -1       884 8.25126E-06 9.25439E-05 0.00000E+00
 -1       885 7.03112E-06 9.61678E-05 0.00000E+00
 -1       886 5.81853E-06 9.97716E-05 3.30872E-24
 -1       887 4.61802E-06 1.03343E-04-1.65436E-24
 -1       888 3.43401E-06 1.06871E-04 0.00000E+00
 -1       889 2.27055E-06 1.10342E-04-1.65436E-24
 -1       890 1.13248E-06 1.13744E-04 0.00000E+00
 -1       891 1.46333E-05 1.17358E-04 0.00000E+00
 -1       892 1.17301E-05 1.17299E-04 0.00000E+00
 -1       893 8.88110E-06 1.17240E-04 0.00000E+00
 -1       894 6.02217E-06 1.17181E-04 4.13590E-25
 -1       895 3.08906E-06 1.17122E-04 4.13590E-25
 -1       896 2.65343E-07 9.16242E-07 0.00000E+00
 -1       897 5.32494E-07 1.60391E-06 3.30872E-24
 -1       898 7.99899E-07 2.08935E-06 0.00000E+00
 -1       899 1.06756E-06 2.39949E-06-3.30872E-24
 -1       900 1.33532E-06 2.56111E-06 0.00000E+00
 -1       901 1.60312E-06 2.60095E-06 0.00000E+00
 -1       902 1.87094E-06 2.54564E-06 0.00000E+00
 -1       903 2.13875E-06 2.42178E-06 3.30872E-24
 -1       904 2.40654E-06 2.25590E-06 0.00000E+00
 -1       905 2.67428E-06 2.07452E-06 0.00000E+00
 -1       906 2.94193E-06 1.90415E-06 0.00000E+00
 -1       907 3.20939E-06 1.77130E-06-3.30872E-24
 -1       908 3.47654E-06 1.70252E-06 0.00000E+00
 -1       909 3.74262E-06 1.72435E-06 0.00000E+00
 -1       910 4.00796E-06 1.86344E-06 0.00000E+00
 -1       911 4.32162E-06 2.43251E-06-8.27181E-25
 -1       912 4.37941E-06 2.56914E-06 0.00000E+00
 -1       913 4.43722E-06 2.57669E-06-8.27181E-25
 -1       914 4.49505E-06 2.47644E-06-4.13590E-25
 -1       915 4.55286E-06 2.28958E-06 0.00000E+00
 -1       916 4.61067E-06 2.03736E-06 8.27181E-25
 -1       917 4.66846E-06 1.74098E-06 0.00000E+00
 -1       918 4.72623E-06 1.42166E-06 0.00000E+00
 -1       919 4.78399E-06 1.10061E-06 0.00000E+00
 -1       920 4.84171E-06 7.99027E-07 0.00000E+00
 -1       921 4.89937E-06 5.38126E-07 0.00000E+00
 -1       922 4.95686E-06 3.39123E-07 0.00000E+00
 -1       923 5.01409E-06 2.23243E-07 0.00000E+00
 -1       924 5.07042E-06 2.11698E-07 0.00000E+00
 -1       925 5.12611E-06 3.25750E-07 4.13590E-25
 -1       926 4.86003E-06 7.96671E-07 0.00000E+00
 -1       927 4.53752E-06 8.01056E-07 6.61744E-24
 -1       928 4.21433E-06 6.35659E-07 0.00000E+00
 -1       929 3.89011E-06 3.37688E-07-6.61744E-24
 -1       930 3.56556E-06-5.56290E-08 0.00000E+00
 -1       931 3.24081E-06-5.06933E-07 0.00000E+00
 -1       932 2.91597E-06-9.78848E-07 0.00000E+00
 -1       933 2.59110E-06-1.43396E-06-6.61744E-24
 -1       934 2.26624E-06-1.83488E-06 6.61744E-24
 -1       935 1.94142E-06-2.14426E-06 0.00000E+00
 -1       936 1.61665E-06-2.32480E-06 6.61744E-24
 -1       937 1.29200E-06-2.33935E-06 0.00000E+00
 -1       938 9.67470E-07-2.15082E-06 0.00000E+00
 -1       939 6.43388E-07-1.72239E-06 3.30872E-24
 -1       940 3.19508E-07-1.01727E-06-6.61744E-24
 -1       941 3.16841E-07 1.04322E-06-1.65436E-24
 -1       942 6.58735E-07 1.84100E-06-3.30872E-24
 -1       943 1.00274E-06 2.43471E-06 0.00000E+00
 -1       944 1.34967E-06 2.86636E-06-3.30872E-24
 -1       945 1.69748E-06 3.17778E-06 0.00000E+00
 -1       946 2.04586E-06 3.41074E-06 6.61744E-24
 -1       947 2.39447E-06 3.60693E-06 1.32349E-23
 -1       948 2.74317E-06 3.80802E-06-6.61744E-24
 -1       949 3.09189E-06 4.05569E-06 1.32349E-23
 -1       950 3.44051E-06 4.39166E-06 6.61744E-24
 -1       951 3.78893E-06 4.85771E-06 0.00000E+00
 -1       952 4.13687E-06 5.49574E-06 0.00000E+00
 -1       953 4.48405E-06 6.34776E-06 1.32349E-23
 -1       954 4.82896E-06 7.45595E-06 0.00000E+00
 -1       955 5.17211E-06 8.86274E-06-6.61744E-24
 -1       956 5.31334E-06 1.27542E-05-3.30872E-24
 -1       957 5.12305E-06 1.51499E-05-8.27181E-25
 -1       958 4.93143E-06 1.77725E-05-6.61744E-24
 -1       959 4.73865E-06 2.05965E-05 0.00000E+00
 -1       960 4.54517E-06 2.35963E-05 0.00000E+00
 -1       961 4.35114E-06 2.67462E-05 1.65436E-24
 -1       962 4.15668E-06 3.00203E-05-3.30872E-24
 -1       963 3.96189E-06 3.33931E-05-3.30872E-24
 -1       964 3.76685E-06 3.68385E-05 6.61744E-24
 -1       965 3.57169E-06 4.03309E-05 0.00000E+00
 -1       966 3.37648E-06 4.38443E-05 0.00000E+00
 -1       967 3.18139E-06 4.73528E-05 0.00000E+00
 -1       968 2.98656E-06 5.08307E-05 0.00000E+00
 -1       969 2.79240E-06 5.42522E-05 0.00000E+00
 -1       970 2.59911E-06 5.75914E-05-6.61744E-24
 -1       971 2.26443E-06 6.40279E-05 0.00000E+00
 -1       972 2.11531E-06 6.73448E-05 0.00000E+00
 -1       973 1.96567E-06 7.07591E-05 0.00000E+00
 -1       974 1.81548E-06 7.42555E-05 1.65436E-24
 -1       975 1.66498E-06 7.78187E-05 0.00000E+00
 -1       976 1.51424E-06 8.14336E-05-1.65436E-24
 -1       977 1.36336E-06 8.50850E-05 0.00000E+00
 -1       978 1.21240E-06 8.87574E-05-1.65436E-24
 -1       979 1.06143E-06 9.24357E-05 3.30872E-24
 -1       980 9.10508E-07 9.61045E-05 0.00000E+00
 -1       981 7.59723E-07 9.97486E-05 0.00000E+00
 -1       982 6.09192E-07 1.03353E-04 0.00000E+00
 -1       983 4.59029E-07 1.06901E-04 3.30872E-24
 -1       984 3.09707E-07 1.10380E-04 1.65436E-24
 -1       985 1.61084E-07 1.13772E-04 0.00000E+00
 -3
    1PSTEP                         2           1           1          
  100CL  101 1.000000000         841                     0    1           1
 -4  STRESS      6    1
 -5  SXX         1    4    1    1
 -5  SYY         1    4    2    2
 -5  SZZ         1    4    3    3
 -5  SXY         1    4    1    2
 -5  SYZ         1    4    2    3
 -5  SZX         1    4    3    1
 -1         1-1.41610E+06-4.49719E+05-3.20003E+04-6.24104E+05 7.27596E-11-4.46259E-10
 -1         2-8.25867E+05 2.64254E+04 1.42019E+03-1.53323E+05 1.24828E-10 5.63432E-09
 -1         3-2.64079E+05-3.16225E+04 5.12644E+02-6.95595E+04 3.47882E-11-6.80302E-10
 -1         4-3.24497E+04 4.23301E+03 1.15944E+02-1.57571E+04-9.67475E-11-9.53094E-10
 -1         5 6.99133E+04 7.12284E+05-2.97218E+04-9.50804E+03 6.03904E-10 2.09658E-09
 -1         8-1.94866E+05-2.74118E+05 5.77606E+03-4.64485E+05 1.81899E-12 1.51704E-09
 -1         9-5.31488E+05-4.74429E+04-8.21457E+03-3.89712E+05 1.00044E-10 2.13428E-10
 -1        10-2.82811E+05-7.51345E+04 8.39223E+02-2.22999E+05-4.74453E-11 1.87538E-09
 -1        11-3.51418E+04-2.26723E+04 1.91373E+02-1.01924E+05 3.47124E-10-3.11654E-10
 -1        12 1.04935E+05 7.21145E+05-2.71362E+04 3.67199E+04 2.77112E-09 5.40494E-09
 -1        15 1.70092E+04 1.31784E+04 8.76716E+02-1.61607E+05-6.63931E-11-8.89486E-10
 -1        16-2.07284E+05-5.54278E+04-4.60085E+03-3.48116E+05 7.33962E-10-1.55220E-10
 -1        17-2.17887E+05-9.32317E+04 1.09762E+04-3.52616E+05 6.60293E-10-1.13990E-10
 -1        18-3.79192E+04-5.42520E+04-1.98954E+03-2.57238E+05 1.37031E-10 1.66256E-09
 -1        19 2.75350E+05 4.14102E+05-9.79605E+03 2.54785E+04 6.73087E-09 3.37726E-10
 -1        20 1.13994E+05-5.16752E+04-5.14575E+03 7.44710E+04 5.59021E-09-1.62891E-09
 -1        21-1.17456E+04-1.23094E+05-5.15144E+02 9.91899E+03 4.99549E-08 2.29917E-09
 -1        22 3.21429E+04 1.79748E+05 4.53737E+02-1.09325E+05 4.27463E-11-4.92946E-10
 -1        23-1.23578E+05-1.02670E+03 6.62691E+02-2.09115E+05 4.63539E-10 1.11140E-09
 -1        24-2.95086E+05-5.02944E+04 1.87797E+04-3.42063E+05-1.18841E-10-5.86927E-10
 -1        25-1.02873E+05-5.55262E+04 2.67548E+04-3.52730E+05-8.76753E-10-9.37992E-10
 -1        26-3.02624E+04 2.42301E+05 4.45606E+03-1.10063E+05-1.94420E-09 1.11019E-09
 -1        27 1.18032E+04-2.97654E+04-7.87976E+03 1.20548E+05 1.38137E-09 1.89781E-10
 -1        28-1.36294E+03-8.71319E+04-4.70252E+02 5.15455E+04 1.83925E-08-2.21210E-10
 -1        29 3.72217E+05 2.92782E+05 8.94888E+02-8.25560E+04-2.92744E-11-1.38243E-09
 -1        30 1.29253E+05 3.26333E+04 6.05265E+02-1.02388E+05 2.12069E-10-1.77351E-10
 -1        31-3.66617E+05 1.73585E+04 1.16941E+03-1.54640E+05 7.17350E-10-1.04774E-09
 -1        32-3.90589E+05-7.07084E+04 3.20853E+04-3.41133E+05-2.65700E-10-7.47605E-10
 -1        33-1.06326E+05 1.28321E+05 3.48121E+04-1.59288E+05 2.13444E-09 1.10413E-09
 -1        34-2.15914E+05-1.99491E+04 2.33254E+03 7.72327E+04 2.04913E-09-1.60304E-09
 -1        35-3.77149E+04-3.08521E+04-3.74772E+02 7.39273E+04 2.71139E-08-4.28918E-09
 -1        36-1.93020E+06-1.72660E+03-2.08148E+04-8.77390E-09 2.83490E-10-2.32649E-09
 -1        37-1.93563E+06-3.14881E+03-1.17176E+04 4.97357E-09 2.61006E-10 1.11186E-10
 -1        38-1.93269E+06-1.11028E+00-5.18437E+03 9.60159E-09 2.25244E-10 9.33824E-10
 -1        39-1.93295E+06-1.32613E+02-2.72429E+03-5.97140E-09 6.25150E-10-7.27596E-10
 -1        40-1.93286E+06 2.22676E+01-1.38438E+03-9.82714E-09 1.09637E-12 7.91601E-10
 -1        41-1.93276E+06 8.93557E-02-8.63082E+02 2.72943E-09-4.98242E-10 7.16798E-09
 -1        42-1.93288E+06 1.41377E+01-7.33469E+02-5.08995E-09 9.26476E-10-1.25340E-11
 -1        43-1.93276E+06 6.79888E+00-1.00969E+03-1.71373E-09-9.61115E-10 1.23053E-09
 -1        44-1.93286E+06 3.31756E+01-1.74998E+03-5.33372E-10-6.38334E-10 5.95776E-10
 -1        45-1.93290E+06-8.65431E+00-3.46517E+03 1.62771E-08 9.02239E-10 2.44086E-09
 -1        46-1.93274E+06 1.06640E+02-6.74489E+03 3.14544E-09 2.32990E-10 1.21167E-09
 -1        47-1.93395E+06-6.98444E+02-1.40355E+04 4.87967E-09 1.75632E-12 1.12550E-09
 -1        48-1.93182E+06-8.23133E+00-2.70821E+04-9.86307E-09-5.20650E-11 2.41926E-09
 -1        49-1.94800E+06-1.65283E+04-6.14394E+04-4.61387E-09-7.40666E-10-5.45151E-09
 -1        50-1.91876E+06-9.05333E+03-1.09194E+05-1.76606E-08-7.18102E-10 2.03727E-09
 -1        51 2.30200E+04-7.10623E+05 9.76853E+04-7.55608E+05-2.18279E-10-3.23053E-09
 -1        52 1.76009E+04-6.93309E+05 5.12119E+04-1.00503E+06 3.63798E-11-7.27596E-10
 -1        53 5.60889E+03-7.10194E+05 1.89187E+04-7.52986E+05-5.45697E-11-2.54659E-10
 -1        54 6.97932E+03-7.14616E+05 1.16911E+03-1.00668E+06-2.69210E-10-8.29004E-09
 -1        55 9.71714E+02-7.08462E+05-1.59909E+04-7.53867E+05-1.76442E-10-1.71531E-09
 -1        56-2.49504E+06-3.62772E+05-1.05312E+05-9.44693E+05 2.98496E-09 5.07498E-09
 -1        57-2.51945E+06-3.83298E+05-5.82467E+04-9.55750E+05 5.14774E-10 2.50293E-09
 -1        58-2.50668E+06-3.60441E+05-2.39876E+04-9.50795E+05-2.43745E-10 3.63616E-09
 -1        59-2.50414E+06-3.66204E+05-1.20630E+04-9.56469E+05-1.05388E-09-1.53318E-09
 -1        60-2.50753E+06-3.60634E+05-5.55515E+03-9.51139E+05 2.21462E-10-2.78095E-09
 -1        61-2.50310E+06-3.65257E+05-2.92701E+03-9.56284E+05-1.27693E-09-1.00597E-08
 -1        62-2.50758E+06-3.60747E+05-1.79229E+03-9.51200E+05-1.36743E-09-2.53385E-09
 -1        63-2.50310E+06-3.65121E+05-1.80656E+03-9.56140E+05 6.28461E-10-2.28886E-09
 -1        64-2.50749E+06-3.60794E+05-2.76689E+03-9.51258E+05-1.50067E-11-4.70664E-10
 -1        65-2.50346E+06-3.65085E+05-5.50765E+03-9.56042E+05-7.25322E-10 2.43745E-10
 -1        66-2.50719E+06-3.60733E+05-1.10507E+04-9.51302E+05 7.90806E-10-2.54931E-09
 -1        67-2.50585E+06-3.66708E+05-2.43202E+04-9.56038E+05 1.02705E-09-5.31372E-09
 -1        68-2.50528E+06-3.60505E+05-4.85054E+04-9.50758E+05-5.93104E-10-1.31331E-09
 -1        69-2.53714E+06-4.00958E+05-1.17852E+05-9.54158E+05 7.39306E-10-2.14277E-09
 -1        70-2.48152E+06-3.65373E+05-2.13036E+05-9.38579E+05 8.36735E-10 6.00994E-09
 -1        71-6.27827E+05 1.47254E+03 1.76710E+04 4.07090E-09 6.37829E-10 4.24006E-09
 -1        72-6.23012E+05 2.67090E+03 9.93662E+03-1.33364E-08-1.48554E-11 3.39298E-09
 -1        73-6.25711E+05 1.69571E+00 4.37619E+03-8.33005E-09-1.74971E-10 2.79420E-09
 -1        74-6.25283E+05 1.12890E+02 2.25580E+03 5.76892E-09 6.42267E-10 3.46256E-09
 -1        75-6.25561E+05-1.66137E+01 1.05941E+03-1.70343E-09-3.73063E-10 6.07258E-10
 -1        76-6.25454E+05 1.95440E+00 4.93661E+02 1.68792E-08 3.06441E-10 1.72355E-09
 -1        77-6.25540E+05-2.76484E+00 1.49980E+02-8.14977E-09-6.46069E-10 9.57442E-10
 -1        78-6.25486E+05 7.38602E-01-1.09330E+02-6.05815E-09-7.57498E-10-4.77252E-09
 -1        79-6.25530E+05 7.88675E+00-4.18841E+02-1.03576E-08 5.62046E-12 1.96525E-09
 -1        80-6.25533E+05-2.85717E+00-9.62026E+02-1.61856E-08-2.83198E-10 2.98854E-11
 -1        81-6.25495E+05 3.05541E+01-1.93877E+03-2.49665E-09 5.96014E-10 9.70772E-10
 -1        82-6.25839E+05-2.02474E+02-4.06792E+03-2.89626E-09 1.23393E-09-6.89852E-10
 -1        83-6.25226E+05-2.83835E+00-7.86398E+03-1.42010E-09 2.59323E-10-1.10640E-09
 -1        84-6.29914E+05-4.79423E+03-1.78402E+04 8.58154E-09-1.23556E-09 3.63707E-09
 -1        85-6.21426E+05-2.64155E+03-3.17151E+04 6.84940E-09-2.85221E-10 4.20550E-09
 -1        86 1.07666E+04 5.43983E+05 1.37364E+05-1.52373E+05-3.63798E-11 5.85715E-10
 -1        87 2.11018E+04 5.80553E+05 8.72869E+04-2.36819E+05 9.59972E-10-7.91624E-09
 -1        88 3.83786E+02 5.58177E+05 5.85119E+04-1.51790E+05-8.18545E-12-9.00400E-10
 -1        89 1.77503E+04 5.76420E+05 7.59304E+04-2.37197E+05 1.20053E-09-1.16779E-09
 -1        90 9.32207E+03 5.46358E+05 1.12879E+05-1.51948E+05 1.38243E-10 3.09660E-09
 -1        91-1.04901E+06-1.54984E+05-3.66065E+04-4.00936E+05-1.78716E-10 6.52471E-09
 -1        92-1.05559E+06-1.63975E+05-2.02435E+04-4.06944E+05 1.46429E-10-2.79397E-09
 -1        93-1.05309E+06-1.54136E+05-8.34384E+03-4.03041E+05-8.22865E-10-3.68846E-09
 -1        94-1.05025E+06-1.58073E+05-4.19775E+03-4.07230E+05-7.98508E-10-5.80101E-09
 -1        95-1.05340E+06-1.54194E+05-1.93567E+03-4.03153E+05 2.32728E-09 4.27303E-09
 -1        96-1.04988E+06-1.57761E+05-1.02361E+03-4.07185E+05-1.50203E-09 2.71143E-11
 -1        97-1.05342E+06-1.54225E+05-6.32553E+02-4.03166E+05-1.51431E-10 1.56911E-09
 -1        98-1.04987E+06-1.57728E+05-6.47852E+02-4.07152E+05-4.34284E-10 2.64299E-09
 -1        99-1.05340E+06-1.54235E+05-1.00120E+03-4.03177E+05-3.46972E-10 1.48520E-09
 -1       100-1.04997E+06-1.57732E+05-1.99817E+03-4.07135E+05 2.47360E-09 3.10683E-09
 -1       101-1.05329E+06-1.54204E+05-4.01134E+03-4.03181E+05-5.08862E-10 1.40699E-09
 -1       102-1.05082E+06-1.58338E+05-8.82426E+03-4.07151E+05-2.51362E-09-5.83896E-10
 -1       103-1.05260E+06-1.54115E+05-1.75957E+04-4.02971E+05 1.20122E-09 3.09501E-09
 -1       104-1.06216E+06-1.70717E+05-4.27168E+04-4.06446E+05 1.27864E-09-1.06229E-09
 -1       105-1.04395E+06-1.55951E+05-7.72474E+04-3.98573E+05 2.93767E-10 1.08776E-09
 -1       106-9.57944E+04 1.66169E+03 1.99131E+04-3.24326E-09-6.02167E-10-1.78898E-09
 -1       107-9.04222E+04 3.00832E+03 1.12005E+04-3.17937E-09 1.92452E-11 2.12458E-09
 -1       108-9.34082E+04 1.86699E+00 4.93929E+03-1.18829E-08 2.38946E-10 4.07681E-10
 -1       109-9.29791E+04 1.26970E+02 2.55691E+03-1.04751E-08-5.12782E-10-2.00737E-09
 -1       110-9.32389E+04-1.92775E+01 1.22233E+03-7.59221E-09 4.45089E-12 9.30072E-10
 -1       111-9.31705E+04 1.70149E+00 6.13706E+02 5.71625E-09-1.01309E-09-2.10309E-09
 -1       112-9.32169E+04-5.31611E+00 2.81652E+02 6.47697E-09 5.37522E-10 1.99869E-09
 -1       113-9.31983E+04-7.20147E-01 1.06507E+02 1.21907E-08-1.93074E-10 2.95074E-10
 -1       114-9.32112E+04 3.27716E-01-1.97512E+01 7.99433E-10 5.03440E-10-8.45162E-10
 -1       115-9.32119E+04-8.31104E-01-1.57550E+02 1.61918E-08 1.54008E-10 9.05050E-10
 -1       116-9.32034E+04 5.70637E+00-3.66009E+02 7.78554E-09-7.53288E-10 1.39971E-09
 -1       117-9.32731E+04-3.98650E+01-7.92619E+02 1.04013E-08 1.86290E-10 5.33457E-09
 -1       118-9.31501E+04-6.61766E-01-1.54357E+03 7.84963E-10-4.78216E-11 1.12641E-09
 -1       119-9.40746E+04-9.42708E+02-3.50776E+03-2.90453E-09-9.14727E-11 2.15812E-09
 -1       120-9.24020E+04-5.20551E+02-6.23860E+03 2.50714E-09-6.94421E-11 3.77281E-09
 -1       121 2.33163E+03-1.81074E+03 3.06811E+04-8.18942E+04 2.18279E-10 3.72529E-09
 -1       122 4.73843E+03 6.34529E+03 2.06041E+04-1.27489E+05 7.04858E-11-3.04681E-09
 -1       123 1.10233E+02 1.14908E+03 1.57660E+04-8.15667E+04 1.64619E-10-1.02318E-09
 -1       124 5.76027E+03 6.92842E+03 2.33838E+04-1.27718E+05 2.36014E-10-1.03500E-09
 -1       125 3.07209E+03-2.88902E+03 3.67420E+04-8.16579E+04 6.91216E-11 3.27418E-10
 -1       126-4.03702E+05-6.33383E+04-1.55571E+04-1.59119E+05-2.73189E-10 1.86083E-09
 -1       127-4.04588E+05-6.90677E+04-8.60270E+03-1.63870E+05 2.98678E-09 9.38144E-09
 -1       128-4.05454E+05-6.29574E+04-3.54778E+03-1.59997E+05 1.72747E-10-1.80398E-09
 -1       129-4.02304E+05-6.65799E+04-1.78595E+03-1.64014E+05-6.20474E-10-1.41677E-10
 -1       130-4.05588E+05-6.29793E+04-8.25880E+02-1.60043E+05-1.92017E-10-1.16898E-09
 -1       131-4.02142E+05-6.64508E+04-4.41216E+02-1.64000E+05-1.17893E-09-5.18230E-09
 -1       132-4.05600E+05-6.29908E+04-2.81325E+02-1.60046E+05 9.24842E-10 1.98497E-09
 -1       133-4.02133E+05-6.64418E+04-3.02064E+02-1.63990E+05 1.04092E-09 1.61850E-09
 -1       134-4.05589E+05-6.29927E+04-4.79920E+02-1.60048E+05-8.51742E-10 2.71552E-09
 -1       135-4.02179E+05-6.64499E+04-9.66611E+02-1.63986E+05-5.61840E-10-5.37170E-10
 -1       136-4.05539E+05-6.29771E+04-1.94470E+03-1.60046E+05-1.21872E-10 2.84217E-10
 -1       137-4.02578E+05-6.67490E+04-4.27767E+03-1.63997E+05 2.40470E-09 9.05311E-09
 -1       138-4.05202E+05-6.29337E+04-8.53101E+03-1.59938E+05 1.15460E-09 4.41150E-09
 -1       139-4.08087E+05-7.27244E+04-2.07018E+04-1.63627E+05-4.95561E-10 2.22144E-09
 -1       140-4.00974E+05-6.38572E+04-3.74400E+04-1.57830E+05-5.83327E-10-3.91083E-10
 -1       141-2.05039E+04 6.85754E+01 8.16747E+02 6.17123E-09-3.13759E-10 3.02782E-09
 -1       142-2.02815E+04 1.24095E+02 4.51379E+02-3.08117E-09 1.83552E-11 1.08074E-09
 -1       143-2.04052E+04 4.97239E-01 1.82244E+02-7.29796E-09 4.82218E-10-1.22093E-09
 -1       144-2.03884E+04 5.62723E+00 6.13026E+01 3.35241E-09 9.30703E-10-3.67687E-09
 -1       145-2.03970E+04 9.18370E-01-3.67734E+01-3.60729E-10-6.08852E-10 7.69191E-10
 -1       146-2.04023E+04 1.59666E+00-1.52678E+02 1.07356E-08 1.92060E-10 2.92773E-09
 -1       147-2.03913E+04 6.63292E+00-3.39147E+02-1.01996E-08 8.63532E-11 1.22023E-09
 -1       148-2.04286E+04 4.81405E+00-7.11796E+02-9.86543E-09-7.60172E-10 8.04462E-10
 -1       149-2.03708E+04 2.67065E+01-1.41113E+03 1.56670E-09-2.73878E-10 2.57734E-09
 -1       150-2.05494E+04-7.40467E+00-2.89572E+03-1.81088E-09 2.46409E-10-1.19257E-10
 -1       151-2.02705E+04 8.97839E+01-5.68567E+03 3.18039E-11 3.86544E-10-3.36968E-09
 -1       152-2.14337E+04-5.87650E+02-1.18510E+04-2.07365E-09-5.79616E-10 3.88059E-09
 -1       153-1.94860E+04-8.39620E+00-2.28715E+04 6.12346E-10-5.57220E-10 4.92037E-10
 -1       154-3.32688E+04-1.39263E+04-5.18539E+04-1.79625E-09 4.75811E-11-2.36196E-09
 -1       155-8.42227E+03-7.68378E+03-9.21508E+04 9.42782E-09 2.14879E-10 1.82627E-09
 -1       156 4.71432E+02 3.30474E+04 6.46716E+03-3.45114E+04 5.09317E-11 1.19144E-09
 -1       157 9.92040E+02 3.47704E+04 4.49251E+03-5.36301E+04 7.77618E-10-3.45608E-10
 -1       158 1.84342E+01 3.36396E+04 3.68503E+03-3.43398E+04 2.26919E-10 1.19780E-09
 -1       159 1.45394E+03 3.50789E+04 5.79424E+03-5.37975E+04 1.17893E-09-1.14301E-09
 -1       160 7.85842E+02 3.25833E+04 9.29904E+03-3.43426E+04 2.59206E-10 3.97449E-10
 -1       161-3.01596E+04-3.51847E+03-4.47289E+02-1.03150E+04-5.07043E-11 2.94676E-10
 -1       162-3.06545E+04-3.21060E+03-2.51823E+02-9.91028E+03-1.97815E-10-4.70831E-09
 -1       163-3.01894E+04-3.52714E+03-1.13790E+02-1.03633E+04-5.56156E-10-2.68835E-09
 -1       164-3.06114E+04-3.11811E+03-7.73994E+01-9.89084E+03-2.00089E-10 2.37677E-09
 -1       165-3.01927E+04-3.52836E+03-7.81514E+01-1.03661E+04-7.64885E-10-2.51924E-09
 -1       166-3.06125E+04-3.11264E+03-1.28599E+02-9.89087E+03 7.21229E-10-6.34373E-10
 -1       167-3.01883E+04-3.52472E+03-2.46821E+02-1.03667E+04 5.75028E-10 2.59490E-10
 -1       168-3.06330E+04-3.11357E+03-5.21198E+02-9.89826E+03-7.09406E-10 3.10149E-09
 -1       169-3.01704E+04-3.50876E+03-1.06681E+03-1.03661E+04-1.26158E-09 1.63084E-09
 -1       170-3.07443E+04-3.15138E+03-2.30142E+03-9.92994E+03 9.86802E-11 2.19734E-09
 -1       171-3.00722E+04-3.44507E+03-4.70152E+03-1.03512E+04 1.17836E-10 9.96124E-10
 -1       172-3.17001E+04-3.90794E+03-1.03861E+04-1.00155E+04 1.54472E-09 1.39789E-09
 -1       173-2.92930E+04-3.30473E+03-2.07232E+04-1.00734E+04 6.59384E-11 1.64709E-09
 -1       174-4.49184E+04-1.86017E+04-5.03025E+04-9.35286E+03-1.00317E-09-2.47383E-09
 -1       175-1.91867E+04-5.37414E+03-9.09508E+04-4.76858E+03 1.25692E-09-2.30648E-09
 -1       191 1.76041E+04 1.64418E+06 7.49395E+04-1.45512E+04 4.00178E-11-1.02864E-09
 -1       192 9.24011E+03 1.66136E+06 4.62193E+04-1.90886E+04 5.97993E-10-4.37149E-09
 -1       193 6.16625E+02 1.65110E+06 3.32270E+04-1.44510E+04 7.61133E-11 5.56611E-10
 -1       194 8.87392E+03 1.66101E+06 4.49332E+04-1.92279E+04 1.05138E-09 4.26553E-10
 -1       195 1.68590E+04 1.64450E+06 7.19947E+04-1.43989E+04 0.00000E+00 1.69621E-09
 -1       251 5.75420E+05 7.36953E+03 1.05150E+05-9.60050E+04-4.22006E-10-2.07910E-09
 -1       252 6.04285E+05 1.48575E+04 5.92942E+04-1.48767E+05-6.20275E-10 2.75031E-09
 -1       253 5.87201E+05-7.60035E+02 2.60343E+04-9.52311E+04-3.89264E-10 1.71167E-09
 -1       254 5.89446E+05 2.17464E+02 1.35974E+04-1.49409E+05-1.23691E-10-8.56744E-10
 -1       255 5.87439E+05-3.66672E+02 6.54721E+03-9.52869E+04-1.92813E-10-7.16682E-10
 -1       256 5.87590E+05 3.33342E+00 3.53520E+03-1.49308E+05 6.07542E-10 5.38421E-10
 -1       257 5.87144E+05 1.02375E+01 2.03053E+03-9.53375E+04-5.45697E-12 1.98088E-09
 -1       258 5.87041E+05 2.20597E+02 1.69398E+03-1.49237E+05-1.02182E-09-7.35781E-10
 -1       259 5.86993E+05 1.24351E+02 2.09596E+03-9.53588E+04 3.08432E-10 2.53567E-09
 -1       260 5.87119E+05 2.58060E+02 3.66070E+03-1.49229E+05-5.89580E-10-3.53339E-09
 -1       261 5.86984E+05-2.46912E+01 6.84267E+03-9.53448E+04 8.36735E-10-2.84899E-09
 -1       262 5.88529E+05 7.51035E+02 1.41095E+04-1.49259E+05 2.58296E-10 9.89530E-10
 -1       263 5.86411E+05-1.81257E+02 2.70834E+04-9.53260E+04-7.60338E-10-2.89947E-09
 -1       264 6.03347E+05 1.61691E+04 6.14561E+04-1.48754E+05-5.45697E-12-1.46019E-09
 -1       265 5.73897E+05 8.49275E+03 1.09107E+05-9.58917E+04-1.16415E-10-1.23691E-09
 -1       266 3.73533E+03-1.21082E+05 3.68319E+04-9.73884E+04-3.54703E-11-5.02041E-10
 -1       267 6.45397E+03-1.11315E+05 1.93791E+04-1.52896E+05 2.17142E-11-2.13367E-09
 -1       268 4.02388E+02-1.16213E+05 5.78921E+03-9.74406E+04 1.28068E-10-5.69344E-10
 -1       269-1.25717E+03-1.17248E+05-3.13539E+03-1.52347E+05 3.44698E-10-3.05590E-10
 -1       270-1.15845E+03-1.13751E+05-1.20499E+04-9.79743E+04-4.72937E-11 8.91305E-10
 -1       271-1.40544E+06-2.59069E+05-1.07737E+05-6.00248E+05-4.38376E-10 1.20053E-09
 -1       272-1.40467E+06-3.04981E+05-5.94658E+04-6.40485E+05 2.91038E-11-1.10958E-09
 -1       273-1.41844E+06-2.55663E+05-2.46172E+04-6.06120E+05-1.58616E-09-3.15049E-09
 -1       274-1.38894E+06-2.88205E+05-1.23053E+04-6.42738E+05-5.87534E-10-2.27101E-09
 -1       275-1.41991E+06-2.55368E+05-5.68055E+03-6.06498E+05-1.01136E-09-9.68157E-10
 -1       276-1.38805E+06-2.87402E+05-2.87535E+03-6.43320E+05 2.83762E-10 1.80091E-09
 -1       277-1.42036E+06-2.55155E+05-1.61120E+03-6.06559E+05 4.07999E-09 5.26609E-09
 -1       278-1.38808E+06-2.87400E+05-1.34363E+03-6.43648E+05 1.17325E-09 4.84306E-11
 -1       279-1.42049E+06-2.55042E+05-1.80662E+03-6.06577E+05-1.04228E-09 1.41335E-09
 -1       280-1.38823E+06-2.87457E+05-3.43590E+03-6.43723E+05-4.98630E-10-1.80080E-10
 -1       281-1.42027E+06-2.55018E+05-6.83277E+03-6.06546E+05 9.36780E-11-5.72982E-11
 -1       282-1.38953E+06-2.88507E+05-1.49880E+04-6.43556E+05 1.36424E-11-1.38971E-09
 -1       283-1.41885E+06-2.55071E+05-2.99199E+04-6.06128E+05-1.09503E-09-1.82627E-09
 -1       284-1.40871E+06-3.09311E+05-7.25538E+04-6.41643E+05-2.49202E-10 2.69210E-09
 -1       285-1.40355E+06-2.58701E+05-1.31293E+05-5.98784E+05 9.43146E-10 4.38013E-09
 -1       286 3.25498E+04 4.33772E+03 5.61030E+04-5.08654E+04 1.31331E-09-4.52928E-10
 -1       287 4.77918E+04 8.24577E+03 3.15967E+04-7.86121E+04 7.09406E-10 2.37742E-09
 -1       288 3.90528E+04-1.68041E+02 1.39084E+04-5.04368E+04-1.63709E-11-1.84355E-09
 -1       289 4.02360E+04 2.78685E+02 7.23793E+03-7.90356E+04 6.00267E-11 4.37467E-10
 -1       290 3.93579E+04-9.60382E+01 3.48794E+03-5.04222E+04-3.29237E-10 1.36060E-09
 -1       291 3.94807E+04 4.03552E+01 1.84407E+03-7.90497E+04-1.03228E-10-2.07501E-09
 -1       292 3.93158E+04 1.78597E+01 1.01099E+03-5.04238E+04 3.27418E-10-1.32422E-09
 -1       293 3.93138E+04 8.69184E+01 7.47584E+02-7.90482E+04 1.48475E-09 4.22915E-10
 -1       294 3.92902E+04 4.41153E+01 8.17517E+02-5.04238E+04 1.45633E-10 1.27511E-09
 -1       295 3.93599E+04 8.86043E+01 1.34079E+03-7.90483E+04 7.28051E-10 1.37106E-09
 -1       296 3.92931E+04-1.19848E+01 2.45868E+03-5.04236E+04 7.37600E-10-1.41426E-09
 -1       297 3.98557E+04 2.68841E+02 5.04576E+03-7.90355E+04 6.38465E-10-7.13044E-10
 -1       298 3.90756E+04-5.70221E+01 9.67662E+03-5.04361E+04 1.90994E-10-1.01659E-09
 -1       299 4.51115E+04 5.79799E+03 2.19542E+04-7.86924E+04-9.71340E-10-5.58998E-10
 -1       300 3.45739E+04 3.06004E+03 3.89749E+04-5.07746E+04-3.63798E-11-3.28146E-09
 -1       301 1.83357E+04 1.52876E+05 7.14803E+04-3.93081E+05 2.40107E-09 6.62112E-10
 -1       302 1.15771E+04 1.68011E+05 4.19453E+04-5.23313E+05 1.83354E-09-3.90082E-09
 -1       303 2.55725E+03 1.58518E+05 2.60431E+04-3.92243E+05 2.66482E-09-4.81361E-09
 -1       304 8.00311E+03 1.64642E+05 2.95509E+04-5.23349E+05 2.15005E-09 2.59206E-10
 -1       305 1.10861E+04 1.56038E+05 4.30913E+04-3.93054E+05 1.37334E-09 3.90719E-09
 -1       306-1.62028E+06-2.65811E+05-1.24384E+05-6.49682E+05 5.45697E-10-2.34286E-09
 -1       307-1.63669E+06-3.02337E+05-6.87627E+04-6.77011E+05 3.59250E-10-1.79170E-09
 -1       308-1.63453E+06-2.62575E+05-2.83480E+04-6.56609E+05 6.36646E-11-6.47560E-10
 -1       309-1.61836E+06-2.82612E+05-1.42193E+04-6.78591E+05-1.72804E-09-1.93904E-09
 -1       310-1.63579E+06-2.62588E+05-6.50657E+03-6.56942E+05 5.18412E-11 3.53975E-09
 -1       311-1.61704E+06-2.81669E+05-3.31256E+03-6.78738E+05 2.75122E-10 4.01940E-10
 -1       312-1.63602E+06-2.62579E+05-1.82071E+03-6.56946E+05 1.81899E-12 7.74094E-10
 -1       313-1.61692E+06-2.81652E+05-1.49644E+03-6.78802E+05 1.22100E-10 7.42830E-10
 -1       314-1.63603E+06-2.62569E+05-1.96164E+03-6.56944E+05 5.10227E-10-3.36513E-10
 -1       315-1.61707E+06-2.81688E+05-3.68902E+03-6.78776E+05 8.19455E-10-2.54659E-10
 -1       316-1.63579E+06-2.62548E+05-7.30342E+03-6.56935E+05 1.84446E-09 2.86764E-09
 -1       317-1.61856E+06-2.82774E+05-1.60072E+04-6.78677E+05 3.39242E-10-2.96768E-09
 -1       318-1.63442E+06-2.62494E+05-3.19153E+04-6.56550E+05 2.52840E-10-1.06047E-09
 -1       319-1.63916E+06-3.05069E+05-7.74505E+04-6.77030E+05 1.10595E-09 5.56247E-09
 -1       320-1.61845E+06-2.66049E+05-1.40073E+05-6.48691E+05 7.55563E-10-2.20462E-09
 -1       321 2.07132E+05 4.57883E+03 5.59827E+04-2.83914E+04-1.76442E-10 1.52977E-09
 -1       322 2.22226E+05 8.39064E+03 3.15006E+04-4.39447E+04-9.39508E-10 1.34605E-10
 -1       323 2.13776E+05-4.16262E+01 1.38917E+04-2.81757E+04-9.91349E-11 2.05000E-09
 -1       324 2.14939E+05 3.36636E+02 7.21234E+03-4.41530E+04 3.84716E-10 2.90038E-09
 -1       325 2.14204E+05-6.40850E+01 3.47684E+03-2.81724E+04-4.27463E-11-7.59428E-11
 -1       326 2.14343E+05 1.61569E+01 1.81294E+03-4.41522E+04 3.09228E-11-1.14323E-09
 -1       327 2.14236E+05-6.61708E+00 9.61175E+02-2.81770E+04 5.66160E-11 1.70803E-09
 -1       328 2.14252E+05 2.11314E+01 6.44941E+02-4.41470E+04 1.29546E-10-4.66116E-10
 -1       329 2.14238E+05 3.25176E+00 6.21872E+02-2.81777E+04 2.36355E-10 1.65346E-09
 -1       330 2.14282E+05 2.10631E+01 9.43479E+02-4.41483E+04-4.81123E-10 6.40284E-10
 -1       331 2.14230E+05-2.53926E+01 1.68748E+03-2.81756E+04 6.65750E-10 1.23691E-10
 -1       332 2.14578E+05 1.64125E+02 3.43588E+03-4.41481E+04-7.66249E-10-1.43433E-09
 -1       333 2.14045E+05-2.70453E+01 6.58429E+03-2.81777E+04-1.92267E-09-5.46152E-10
 -1       334 2.18065E+05 3.95953E+03 1.49179E+04-4.39632E+04-1.54614E-11 1.45428E-09
 -1       335 2.10925E+05 2.13851E+03 2.64952E+04-2.83645E+04 2.11912E-10-1.65892E-09
 -1       336 3.08492E+03-8.99936E+03 3.60968E+04-2.44298E+05 6.07542E-10 9.82254E-10
 -1       337 6.94315E+03-2.33674E+02 2.37864E+04-3.80998E+05 3.45608E-10 1.19599E-09
 -1       338 1.06152E+03-6.21401E+03 1.71380E+04-2.43586E+05 3.51065E-10-8.02174E-10
 -1       339 7.24761E+03-6.31870E+02 2.40391E+04-3.81154E+05 1.37879E-09-1.26647E-09
 -1       340 3.56116E+03-9.61922E+03 3.67228E+04-2.44133E+05 8.18545E-12 3.34148E-09
 -1       341-1.02218E+06-1.68030E+05-7.63806E+04-4.10557E+05-9.02673E-10 2.35741E-09
 -1       342-1.03150E+06-1.91253E+05-4.22299E+04-4.28260E+05 1.18780E-09 5.44514E-09
 -1       343-1.03087E+06-1.66093E+05-1.74090E+04-4.14833E+05 1.79352E-09 8.61382E-09
 -1       344-1.02026E+06-1.79097E+05-8.73997E+03-4.29117E+05 1.52795E-10 2.71768E-09
 -1       345-1.03159E+06-1.66146E+05-4.00403E+03-4.15047E+05-1.90084E-10 1.26772E-09
 -1       346-1.01946E+06-1.78494E+05-2.05750E+03-4.29132E+05-7.02130E-10-1.21105E-09
 -1       347-1.03170E+06-1.66171E+05-1.16109E+03-4.15055E+05-3.82443E-10-1.38812E-09
 -1       348-1.01939E+06-1.78468E+05-1.01182E+03-4.29127E+05-8.03510E-10-8.02629E-10
 -1       349-1.03168E+06-1.66178E+05-1.39369E+03-4.15057E+05-1.67211E-09-3.14412E-09
 -1       350-1.01950E+06-1.78491E+05-2.67056E+03-4.29103E+05 6.29598E-10 2.60025E-09
 -1       351-1.03152E+06-1.66153E+05-5.31098E+03-4.15049E+05 1.55524E-10 3.78259E-09
 -1       352-1.02058E+06-1.79295E+05-1.16496E+04-4.29074E+05 1.83263E-10 2.81034E-09
 -1       353-1.03056E+06-1.66079E+05-2.32275E+04-4.14760E+05 3.61069E-10 2.20280E-09
 -1       354-1.03556E+06-1.95551E+05-5.63609E+04-4.27973E+05 1.68347E-09-9.74069E-10
 -1       355-1.01899E+06-1.68620E+05-1.01925E+05-4.09016E+05-2.03272E-09 1.24055E-09
 -1       356 1.74028E+05 1.88951E+03 2.28962E+04-1.14149E+04 1.74168E-10 9.16771E-10
 -1       357 1.80191E+05 3.43920E+03 1.28746E+04-1.76809E+04-4.60204E-10-2.37515E-09
 -1       358 1.76763E+05-1.14547E+01 5.66363E+03-1.13251E+04-7.17137E-10 2.03727E-09
 -1       359 1.77232E+05 1.34323E+02 2.90817E+03-1.77688E+04-1.28921E-10 1.29762E-09
 -1       360 1.76950E+05-2.80274E+01 1.34017E+03-1.13239E+04-2.57842E-10 1.40903E-09
 -1       361 1.76996E+05-2.87932E+00 5.72825E+02-1.77687E+04 9.31323E-10-9.35529E-10
 -1       362 1.76973E+05-4.08270E+00 6.11632E+01-1.13252E+04 2.84058E-09 2.20757E-09
 -1       363 1.76940E+05-2.53940E-01-4.13924E+02-1.77668E+04-2.01680E-10-1.74634E-09
 -1       364 1.76994E+05 1.85206E+01-1.07946E+03-1.13259E+04-1.39649E-09-2.32444E-09
 -1       365 1.76835E+05-9.68786E+00-2.34621E+03-1.77668E+04 3.12923E-10 5.75233E-09
 -1       366 1.77080E+05 7.02559E+01-4.67059E+03-1.13253E+04-3.68345E-11 1.01045E-09
 -1       367 1.76110E+05-4.91204E+02-9.76759E+03-1.77657E+04-9.74978E-10-9.44965E-10
 -1       368 1.77734E+05-1.49066E+01-1.88666E+04-1.13271E+04-1.08230E-10-4.65661E-10
 -1       369 1.66360E+05-1.14995E+04-4.27776E+04-1.76965E+04-1.55114E-09 2.47383E-10
 -1       370 1.86872E+05-6.35859E+03-7.60298E+04-1.13872E+04 3.99268E-10-2.74304E-09
 -1       371 3.03437E+02-3.14283E+04 2.80195E+03-1.63810E+05 5.32054E-10-4.29281E-10
 -1       372 1.13867E+03-3.11207E+04 2.14851E+03-2.55433E+05 3.43243E-09-2.39379E-09
 -1       373 5.11124E+02-3.16946E+04 1.91907E+03-1.63309E+05 6.29370E-10 5.13182E-09
 -1       374 1.64252E+03-3.11283E+04 3.22211E+03-2.55592E+05 3.50519E-09 2.33945E-09
 -1       375 8.00154E+02-3.21141E+04 5.18104E+03-1.63648E+05 4.24507E-10 5.78439E-10
 -1       376-2.19390E+05-5.28669E+04-1.96789E+04-1.10248E+05-1.65983E-10-2.23008E-09
 -1       377-2.12897E+05-6.77260E+04-1.08782E+04-1.25006E+05 1.21872E-09 1.14392E-09
 -1       378-2.21718E+05-5.22811E+04-4.49397E+03-1.11292E+05-8.39918E-10-6.22776E-10
 -1       379-2.09968E+05-6.46525E+04-2.26953E+03-1.25316E+05-8.45830E-11 9.29987E-10
 -1       380-2.21909E+05-5.22910E+04-1.07033E+03-1.11354E+05 1.50067E-11 1.12914E-09
 -1       381-2.09770E+05-6.44923E+04-6.14383E+02-1.25314E+05-1.79412E-11 2.07592E-09
 -1       382-2.21920E+05-5.23044E+04-4.74878E+02-1.11355E+05-1.69803E-09 3.66072E-10
 -1       383-2.09745E+05-6.44896E+04-6.37110E+02-1.25294E+05 3.61297E-10 8.44921E-10
 -1       384-2.21880E+05-5.23164E+04-1.14020E+03-1.11342E+05-7.51243E-10-3.65662E-09
 -1       385-2.09808E+05-6.45409E+04-2.36412E+03-1.25270E+05 3.23053E-09 1.06957E-09
 -1       386-2.21719E+05-5.22901E+04-4.80146E+03-1.11302E+05-2.00544E-09 4.52928E-10
 -1       387-2.10717E+05-6.53185E+04-1.05659E+04-1.25261E+05 2.50111E-10 2.95768E-09
 -1       388-2.20844E+05-5.22205E+04-2.10923E+04-1.10998E+05 3.09137E-09-7.02130E-10
 -1       389-2.24245E+05-8.00765E+04-5.11400E+04-1.24248E+05-1.06411E-10-2.53294E-09
 -1       390-2.10309E+05-5.45604E+04-9.25011E+04-1.05758E+05-5.64796E-10-6.33008E-10
 -1       406 1.62491E+04 1.62578E+06 7.08579E+04 8.78183E+04 7.34872E-10 2.36287E-09
 -1       407 8.48215E+03 1.64222E+06 4.59213E+04 1.17997E+05 2.69574E-09-2.21462E-09
 -1       408 3.97332E+02 1.63229E+06 3.68437E+04 8.79037E+04 4.59750E-10 9.53150E-10
 -1       409 1.09841E+04 1.64511E+06 5.52201E+04 1.17464E+05 4.38217E-09 2.61934E-09
 -1       410 2.13560E+04 1.62390E+06 9.21152E+04 8.84140E+04 9.53150E-10 4.03452E-09
 -1       466 8.58515E+05 6.46643E+03 8.17042E+04-5.70943E+04 1.25510E-10-7.34872E-10
 -1       467 8.80575E+05 1.20829E+04 4.60046E+04-8.86954E+04-7.73070E-11 1.09958E-09
 -1       468 8.68069E+05-1.68277E+02 2.02865E+04-5.67337E+04-1.49157E-10 2.25555E-10
 -1       469 8.69710E+05 4.36878E+02 1.05697E+04-8.89823E+04 5.05679E-10 2.31012E-10
 -1       470 8.68584E+05-1.17858E+02 5.14138E+03-5.67766E+04-1.45519E-10 3.20142E-10
 -1       471 8.68716E+05 3.69015E+01 2.78712E+03-8.89120E+04 4.40195E-10-1.78716E-10
 -1       472 8.68577E+05 2.14019E+00 1.67159E+03-5.68055E+04 2.63753E-10-2.50566E-10
 -1       473 8.68565E+05 6.13402E+01 1.48573E+03-8.88829E+04 9.55794E-10-3.91537E-10
 -1       474 8.68570E+05-2.63136E+00 1.97040E+03-5.68061E+04 1.87811E-09-5.91172E-12
 -1       475 8.68753E+05 4.11968E+01 3.55128E+03-8.89122E+04-5.62522E-10 2.08183E-09
 -1       476 8.68546E+05-1.40129E+02 6.71510E+03-5.67758E+04-3.97631E-09-1.76112E-09
 -1       477 8.69993E+05 6.05332E+02 1.38866E+04-8.89795E+04-8.98581E-10 2.19018E-10
 -1       478 8.67807E+05-1.61338E+02 2.67063E+04-5.67369E+04 1.56797E-09 2.26828E-09
 -1       479 8.84175E+05 1.59948E+04 6.05609E+04-8.86858E+04 3.16504E-10 2.25918E-09
 -1       480 8.55150E+05 8.64227E+03 1.07600E+05-5.71097E+04-3.72893E-10-1.35333E-09
 -1       481 2.67460E+03 3.21236E+05 2.96460E+04-8.13098E+04 1.25510E-10 1.41335E-09
 -1       482 4.91352E+03 3.29014E+05 1.77138E+04-1.26715E+05-2.19416E-10 2.75787E-09
 -1       483 2.73326E+02 3.24610E+05 9.87696E+03-8.11646E+04-2.54659E-11 1.29921E-09
 -1       484 2.27421E+03 3.26814E+05 9.83453E+03-1.26623E+05 3.68345E-10-1.04956E-09
 -1       485 1.07094E+03 3.23662E+05 1.25583E+04-8.14091E+04 3.10365E-10-2.38106E-09
 -1       486-8.11990E+05-1.41428E+05-9.03309E+04-3.34595E+05 2.24873E-10-2.02272E-09
 -1       487-8.24133E+05-1.67755E+05-4.99379E+04-3.54239E+05-1.96451E-10 7.08496E-10
 -1       488-8.22305E+05-1.39104E+05-2.05935E+04-3.39656E+05-1.32786E-10-9.16771E-10
 -1       489-8.10853E+05-1.53396E+05-1.03254E+04-3.55304E+05-9.09495E-11-1.49385E-10
 -1       490-8.23187E+05-1.39149E+05-4.71717E+03-3.39922E+05-1.67347E-10-6.84395E-10
 -1       491-8.09924E+05-1.52683E+05-2.37759E+03-3.55362E+05-1.02773E-10 6.50573E-10
 -1       492-8.23344E+05-1.39153E+05-1.25890E+03-3.39935E+05-1.20690E-09-3.44454E-09
 -1       493-8.09844E+05-1.52664E+05-9.45270E+02-3.55407E+05 3.84716E-10 6.04359E-10
 -1       494-8.23369E+05-1.39136E+05-1.12896E+03-3.39935E+05-2.18733E-10-8.84938E-10
 -1       495-8.09920E+05-1.52695E+05-2.03989E+03-3.55430E+05 2.26009E-10-6.26642E-10
 -1       496-8.23272E+05-1.39102E+05-3.99039E+03-3.39923E+05-1.63254E-10 2.67846E-10
 -1       497-8.10714E+05-1.53309E+05-8.72424E+03-3.55431E+05-2.62162E-10 8.47649E-10
 -1       498-8.22557E+05-1.39042E+05-1.73800E+04-3.39700E+05 4.32010E-10-1.70985E-10
 -1       499-8.21917E+05-1.65458E+05-4.21624E+04-3.54588E+05 2.50793E-10 4.91127E-10
 -1       500-8.13876E+05-1.40977E+05-7.62563E+04-3.35415E+05 9.74524E-10 4.64570E-09
 -1       501 5.96746E+05 6.40779E+03 8.21627E+04-6.46213E+04 1.14596E-09-9.98625E-10
 -1       502 6.18980E+05 1.21207E+04 4.62735E+04-1.00147E+05 3.47427E-10 2.69574E-09
 -1       503 6.06272E+05-1.99891E+02 2.03876E+04-6.41704E+04 6.00267E-11 5.45697E-10
 -1       504 6.07929E+05 4.58819E+02 1.06230E+04-1.00537E+05-7.23048E-10-2.67801E-09
 -1       505 6.06730E+05-1.02576E+02 5.15239E+03-6.42006E+04 5.71163E-10 4.65661E-10
 -1       506 6.06850E+05 9.70667E+01 2.77697E+03-1.00482E+05 8.25821E-10-8.43102E-10
 -1       507 6.06687E+05 4.65721E+01 1.62828E+03-6.42270E+04 5.47516E-10-1.60799E-09
 -1       508 6.06657E+05 1.42366E+02 1.38840E+03-1.00453E+05 1.33673E-09 1.93995E-09
 -1       509 6.06671E+05 5.37259E+01 1.77142E+03-6.42295E+04 8.55380E-10-7.88987E-10
 -1       510 6.06829E+05 1.19924E+02 3.13962E+03-1.00472E+05 1.95951E-09-3.42061E-09
 -1       511 6.06674E+05-8.48124E+01 5.90232E+03-6.42085E+04 1.83718E-10 4.39968E-10
 -1       512 6.07984E+05 5.80279E+02 1.21947E+04-1.00517E+05-1.17961E-09-9.41441E-10
 -1       513 6.06087E+05-1.49297E+02 2.34343E+04-6.41825E+04 1.61890E-10 2.14641E-10
 -1       514 6.20565E+05 1.40329E+04 5.31648E+04-1.00143E+05 4.36557E-10-2.26009E-10
 -1       515 5.95069E+05 7.50260E+03 9.44311E+04-6.46139E+04-1.20053E-10-1.45519E-11
 -1       516 4.14266E+03 1.80146E+05 4.28215E+04-2.20900E+05 3.69255E-10 4.67480E-10
 -1       517 8.05537E+03 1.90882E+05 2.70279E+04-3.44728E+05 1.49885E-09 3.14139E-09
 -1       518 9.70902E+02 1.84524E+05 1.76289E+04-2.20444E+05 1.76442E-10 2.40925E-09
 -1       519 6.20469E+03 1.89996E+05 2.21642E+04-3.44544E+05 1.79352E-09-7.79437E-10
 -1       520 2.72464E+03 1.82188E+05 3.21940E+04-2.21095E+05 3.69710E-10-3.69982E-09
 -1       521-1.44062E+06-2.41352E+05-1.33031E+05-5.82773E+05-6.94854E-10 5.89353E-10
 -1       522-1.45915E+06-2.79453E+05-7.35444E+04-6.10917E+05 1.25874E-09 1.46611E-09
 -1       523-1.45583E+06-2.37914E+05-3.03197E+04-5.90217E+05 3.63798E-12-8.29459E-10
 -1       524-1.43959E+06-2.58323E+05-1.52008E+04-6.12566E+05 1.52795E-10-8.09450E-11
 -1       525-1.45718E+06-2.37938E+05-6.94123E+03-5.90588E+05-1.39153E-10 1.10504E-09
 -1       526-1.43820E+06-2.57299E+05-3.49959E+03-6.12708E+05 2.41425E-09 4.65496E-09
 -1       527-1.45743E+06-2.37931E+05-1.85616E+03-5.90599E+05 8.30369E-10-1.64630E-09
 -1       528-1.43807E+06-2.57278E+05-1.40257E+03-6.12779E+05 7.83757E-10 1.35060E-10
 -1       529-1.45745E+06-2.37917E+05-1.68905E+03-5.90597E+05 6.25960E-10 7.36236E-10
 -1       530-1.43818E+06-2.57311E+05-3.06322E+03-6.12765E+05-9.79298E-10-1.97861E-09
 -1       531-1.45726E+06-2.37904E+05-6.00537E+03-5.90585E+05 1.27329E-10 1.51158E-09
 -1       532-1.43939E+06-2.58203E+05-1.31285E+04-6.12669E+05 2.76486E-10 1.04001E-09
 -1       533-1.45611E+06-2.37875E+05-2.61653E+04-5.90264E+05 1.11868E-10-5.16593E-10
 -1       534-1.45628E+06-2.76433E+05-6.34758E+04-6.11239E+05-1.73713E-10-1.97906E-09
 -1       535-1.44295E+06-2.40862E+05-1.14813E+05-5.83858E+05 1.01272E-09 3.63798E-10
 -1       536 7.48683E+05 8.87238E+03 1.09578E+05-5.12660E+04 2.18279E-11-2.98314E-10
 -1       537 7.78228E+05 1.63485E+04 6.16655E+04-7.95009E+04-1.85901E-09-1.04046E-09
 -1       538 7.61615E+05-1.26942E+02 2.71964E+04-5.09139E+04 2.52840E-10-1.78261E-10
 -1       539 7.63852E+05 6.45725E+02 1.41376E+04-7.97871E+04 2.11003E-10-1.77351E-10
 -1       540 7.62397E+05-1.28367E+02 6.83564E+03-5.09444E+04 6.18456E-11-4.45652E-10
 -1       541 7.62621E+05 5.40677E+01 3.61151E+03-7.97316E+04-1.43700E-10-8.74024E-10
 -1       542 7.62432E+05 3.61895E+00 1.99967E+03-5.09712E+04-2.81943E-10 1.28375E-09
 -1       543 7.62431E+05 7.39289E+01 1.50115E+03-7.97027E+04 1.99634E-10 7.65795E-10
 -1       544 7.62431E+05 1.55887E+01 1.68238E+03-5.09737E+04 2.78987E-10 1.23691E-09
 -1       545 7.62553E+05 6.47146E+01 2.79758E+03-7.97198E+04-1.47293E-09 4.26553E-10
 -1       546 7.62411E+05-8.39082E+01 5.16161E+03-5.09539E+04 3.91992E-10-1.59980E-09
 -1       547 7.63492E+05 4.96613E+02 1.06025E+04-7.97677E+04 1.18598E-09 1.30689E-09
 -1       548 7.61849E+05-9.96033E+01 2.03576E+04-5.09245E+04-7.82165E-11-1.85264E-09
 -1       549 7.74300E+05 1.22212E+04 4.61456E+04-7.95003E+04 3.98359E-10 1.36379E-09
 -1       550 7.52209E+05 6.60132E+03 8.19737E+04-5.12443E+04-7.34872E-10 4.18004E-09
 -1       551 9.99946E+03-9.48332E+03 3.79321E+04-4.01778E+05-1.55342E-09 3.63798E-10
 -1       552 7.25321E+03-2.02843E+03 2.43854E+04-5.35134E+05-4.84579E-09-1.21872E-09
 -1       553 2.29231E+03-7.22379E+03 1.88613E+04-4.00952E+05-2.12458E-09 2.88765E-10
 -1       554 8.05259E+03-1.06206E+03 2.74066E+04-5.35074E+05-4.16912E-09-1.77624E-09
 -1       555 1.16304E+04-1.00544E+04 4.48337E+04-4.01838E+05-1.80034E-09-4.20550E-09
 -1       556-1.17373E+06-2.39871E+05-9.77403E+04-5.08582E+05 2.23736E-10-2.27737E-09
 -1       557-1.17636E+06-2.55203E+05-5.10532E+04-5.40308E+05-1.81899E-11-4.29372E-09
 -1       558-1.18174E+06-2.23309E+05-2.15409E+04-5.18592E+05-2.06273E-09-9.26775E-09
 -1       559-1.16406E+06-2.42798E+05-1.06349E+04-5.41253E+05-5.74801E-10 1.87583E-10
 -1       560-1.18257E+06-2.22865E+05-4.91315E+03-5.19026E+05-5.63887E-10 7.31120E-10
 -1       561-1.16335E+06-2.42317E+05-2.48753E+03-5.41313E+05 1.03091E-09 3.81590E-09
 -1       562-1.18275E+06-2.22874E+05-1.36024E+03-5.19063E+05 2.30557E-10 2.17324E-09
 -1       563-1.16330E+06-2.42303E+05-1.09903E+03-5.41329E+05-1.10805E-09 1.74668E-09
 -1       564-1.18273E+06-2.22883E+05-1.42147E+03-5.19057E+05-1.98725E-10 1.57888E-09
 -1       565-1.16334E+06-2.42320E+05-2.64776E+03-5.41278E+05-4.16549E-10-1.59343E-09
 -1       566-1.18251E+06-2.22893E+05-5.25712E+03-5.19010E+05-2.72848E-10-1.63163E-09
 -1       567-1.16408E+06-2.42838E+05-1.13860E+04-5.41191E+05-5.09317E-11 2.83944E-09
 -1       568-1.18160E+06-2.23375E+05-2.30655E+04-5.18536E+05-2.50111E-09-8.03993E-09
 -1       569-1.17726E+06-2.56129E+05-5.46685E+04-5.40168E+05 8.96762E-10-1.16233E-09
 -1       570-1.17301E+06-2.41101E+05-1.04647E+05-5.07810E+05-1.69166E-09-1.73532E-09
 -1       571 8.06191E+05 2.17684E+04 8.96908E+04-7.64715E+04 1.13505E-09-3.52884E-10
 -1       572 8.26847E+05 1.10367E+04 4.79012E+04-1.01340E+05-1.30967E-10 7.00311E-11
 -1       573 8.15224E+05 2.63792E+02 2.14878E+04-7.60548E+04-3.96540E-10 2.55932E-09
 -1       574 8.16710E+05 2.50284E+02 1.10290E+04-1.01719E+05-2.11912E-10-2.83399E-09
 -1       575 8.15722E+05-1.45527E+02 5.32909E+03-7.60506E+04-1.58252E-10 9.91349E-11
 -1       576 8.15865E+05-2.03407E+01 2.72897E+03-1.01720E+05 3.70619E-10 6.05723E-10
 -1       577 8.15764E+05-3.20263E+01 1.35830E+03-7.60553E+04 1.56660E-10-2.12185E-09
 -1       578 8.15767E+05-6.46654E+00 7.37956E+02-1.01724E+05-1.17552E-10 2.10548E-09
 -1       579 8.15834E+05-4.17296E+01 4.44676E+02-7.60476E+04 4.63842E-11-1.12959E-09
 -1       580 8.15889E+05-7.43635E+01 4.04561E+02-1.01752E+05 1.46429E-10 2.94676E-10
 -1       581 8.15981E+05-1.46173E+02 5.28259E+02-7.60268E+04-1.20781E-09-2.04545E-09
 -1       582 8.16213E+05-1.89662E+02 9.91279E+02-1.01772E+05-7.86713E-10-2.29556E-09
 -1       583 8.16173E+05-2.73124E+02 1.84283E+03-7.60267E+04-1.15324E-09-7.64430E-10
 -1       584 8.17476E+05 5.54299E+02 4.14620E+03-1.01295E+05-5.54064E-09-1.12595E-09
 -1       585 8.15691E+05 1.38825E+03 7.69064E+03-7.65072E+04 1.20053E-09-2.03545E-09
 -1       586 3.99398E+03 5.01508E+04 1.47828E+04-3.44553E+05-1.25328E-09 1.39335E-09
 -1       587 3.76124E+03 5.24469E+04 1.12135E+04-4.58594E+05-2.57569E-09 1.70257E-09
 -1       588 1.79867E+03 5.00253E+04 1.13782E+04-3.43726E+05-3.89264E-10 1.52340E-09
 -1       589 6.57185E+03 5.43103E+04 2.00393E+04-4.58780E+05-3.37968E-09-1.50794E-09
 -1       590 9.65466E+03 4.71611E+04 3.50590E+04-3.44352E+05-3.00133E-10-1.04410E-09
 -1       591-7.79725E+05-1.69515E+05-8.08468E+04-3.46471E+05 9.70772E-10 1.26602E-09
 -1       592-7.82452E+05-1.81751E+05-4.22436E+04-3.72155E+05 1.10049E-09 2.87400E-10
 -1       593-7.86205E+05-1.55930E+05-1.78140E+04-3.54792E+05 3.41061E-10 2.13549E-09
 -1       594-7.72256E+05-1.71424E+05-8.80564E+03-3.72743E+05 4.49290E-10 4.73619E-10
 -1       595-7.86798E+05-1.55634E+05-4.07306E+03-3.55129E+05 5.02951E-10 2.30784E-10
 -1       596-7.71621E+05-1.71027E+05-2.08451E+03-3.72693E+05-4.54747E-12 2.66255E-09
 -1       597-7.86880E+05-1.55687E+05-1.17816E+03-3.55137E+05-4.23370E-10 2.28147E-09
 -1       598-7.71540E+05-1.71024E+05-1.02186E+03-3.72645E+05-6.64386E-10 1.62618E-09
 -1       599-7.86818E+05-1.55719E+05-1.40742E+03-3.55115E+05 2.97405E-10-2.99042E-09
 -1       600-7.71561E+05-1.71051E+05-2.68026E+03-3.72581E+05 1.12141E-09 4.21551E-10
 -1       601-7.86596E+05-1.55719E+05-5.34982E+03-3.55061E+05 1.82808E-09 9.00945E-09
 -1       602-7.72325E+05-1.71586E+05-1.15974E+04-3.72533E+05 1.62436E-09-6.69388E-10
 -1       603-7.85728E+05-1.56175E+05-2.34920E+04-3.54588E+05-6.56655E-10-1.87356E-10
 -1       604-7.85740E+05-1.85153E+05-5.56690E+04-3.71622E+05-5.76256E-09 3.19415E-09
 -1       605-7.77104E+05-1.74113E+05-1.06547E+05-3.43619E+05-1.04592E-09-4.90400E-09
 -1       606 3.00335E+05-1.08560E+04-4.41981E+04 5.57961E+04-1.37952E-08-4.46789E-10
 -1       607 2.90063E+05-5.36049E+03-2.35778E+04 7.31926E+04-2.83580E-09 7.27596E-12
 -1       608 2.95571E+05-7.70440E+01-1.06095E+04 5.53289E+04 1.03537E-08-3.74803E-09
 -1       609 2.94635E+05 1.54681E+02-5.42092E+03 7.36521E+04-7.69069E-09-3.45199E-09
 -1       610 2.95076E+05 2.99178E+02-2.61977E+03 5.53111E+04-2.00234E-08-5.79439E-09
 -1       611 2.94780E+05 4.37634E+02-1.29652E+03 7.36579E+04-3.36186E-08-5.69116E-09
 -1       612 2.94900E+05 3.49579E+02-5.84246E+02 5.53190E+04-1.51231E-08-8.35689E-09
 -1       613 2.94693E+05 5.06956E+02-1.75181E+02 7.36438E+04-2.14295E-08 8.34916E-10
 -1       614 2.94804E+05 3.86312E+02 1.42104E+02 5.53234E+04-2.33467E-09-1.01863E-10
 -1       615 2.94651E+05 5.41750E+02 5.44551E+02 7.36350E+04 2.13749E-08 1.82354E-10
 -1       616 2.94748E+05 3.86789E+02 1.18818E+03 5.53268E+04-1.21352E-08-8.85848E-10
 -1       617 2.94809E+05 6.25232E+02 2.52308E+03 7.36206E+04-1.60901E-09-6.75755E-10
 -1       618 2.94617E+05 4.91772E+02 4.94559E+03 5.53367E+04-3.95630E-11-3.15140E-09
 -1       619 2.97145E+05 3.11298E+03 1.10394E+04 7.34206E+04 5.01086E-09 4.79304E-10
 -1       620 2.92544E+05 5.43934E+03 2.06717E+04 5.55022E+04 6.35828E-09-1.98452E-09
 -1       621 9.48961E+03 1.10721E+06 4.13795E+04-1.19244E+05 1.07502E-09 2.04454E-09
 -1       622 5.67827E+03 1.11642E+06 3.04975E+04-1.57848E+05 8.70750E-09 1.87129E-09
 -1       623 1.10322E+03 1.11020E+06 3.05450E+04-1.18963E+05-3.63798E-11 1.50703E-09
 -1       624 1.23935E+04 1.12233E+06 5.33100E+04-1.57971E+05 1.00017E-08 7.50532E-10
 -1       625 2.31088E+04 1.10098E+06 9.36685E+04-1.19073E+05 1.33514E-09-1.45246E-09
 -1       626 5.08224E+05 1.10536E+05-1.11690E+04 2.46177E+05-1.48029E-08-1.51704E-09
 -1       627 4.92910E+05 1.23846E+05-5.81400E+03 2.59542E+05-2.73576E-09 4.27076E-09
 -1       628 5.07497E+05 1.12164E+05-2.47469E+03 2.44559E+05 1.35769E-08 6.37556E-10
 -1       629 4.93782E+05 1.25668E+05-1.19812E+03 2.59703E+05 1.96733E-08 7.51879E-09
 -1       630 5.07294E+05 1.12282E+05-5.36192E+02 2.44424E+05-5.71163E-10 1.24851E-09
 -1       631 4.93730E+05 1.25773E+05-2.01826E+02 2.59601E+05-7.25413E-09-1.66136E-09
 -1       632 5.07178E+05 1.12339E+05 1.42742E+01 2.44374E+05-1.10376E-08 8.46455E-10
 -1       633 4.93676E+05 1.25796E+05 2.49648E+02 2.59526E+05 1.67174E-08 3.98359E-10
 -1       634 5.07108E+05 1.12358E+05 6.07294E+02 2.44348E+05 2.96495E-09 4.81123E-10
 -1       635 4.93706E+05 1.25809E+05 1.35474E+03 2.59516E+05 1.92313E-09 2.75577E-10
 -1       636 5.07045E+05 1.12317E+05 2.79351E+03 2.44342E+05-4.12109E-09 1.38698E-09
 -1       637 4.94197E+05 1.26073E+05 6.11820E+03 2.59604E+05-4.17731E-09 7.16682E-10
 -1       638 5.06720E+05 1.12456E+05 1.23910E+04 2.44145E+05-9.36006E-09-6.53927E-10
 -1       639 5.01450E+05 1.33198E+05 2.94049E+04 2.59316E+05 1.12550E-10 8.08359E-09
 -1       640 5.02367E+05 1.21826E+05 5.62625E+04 2.38423E+05 4.01133E-09 8.04175E-09
 -1       641 1.16497E+04-5.95650E+02-7.47426E+03 4.12628E+03-1.54848E-08-4.57658E-09
 -1       642 9.61900E+03-1.08519E+03-4.20335E+03 6.39850E+03-1.66990E-08 7.68659E-09
 -1       643 1.07530E+04 2.76163E+01-1.85156E+03 4.10582E+03-1.28494E-08-1.80114E-09
 -1       644 1.05784E+04-3.31682E+00-9.54339E+02 6.41411E+03 2.04231E-09-1.05001E-09
 -1       645 1.06892E+04 3.54247E+01-4.47933E+02 4.10482E+03 6.00713E-09-3.97949E-09
 -1       646 1.06513E+04 4.34050E+01-2.08042E+02 6.41503E+03-5.50827E-09-8.64247E-10
 -1       647 1.06808E+04 2.92113E+01-6.17826E+01 4.10472E+03 1.44186E-08-1.27358E-09
 -1       648 1.06659E+04 4.33372E+01 4.98270E+01 6.41530E+03 2.67922E-08 5.66089E-09
 -1       649 1.06770E+04 2.39142E+01 1.84084E+02 4.10457E+03 1.19084E-08-8.21217E-10
 -1       650 1.06878E+04 4.39456E+01 4.21338E+02 6.41523E+03 9.43908E-09 3.46253E-09
 -1       651 1.06628E+04 1.29661E+01 8.47987E+02 4.10483E+03-6.68797E-09-6.14307E-10
 -1       652 1.08239E+04 1.29760E+02 1.77908E+03 6.41327E+03 6.95763E-11 8.17636E-10
 -1       653 1.05466E+04 2.62508E+01 3.43839E+03 4.10622E+03 9.15770E-09-1.40244E-09
 -1       654 1.26080E+04 2.13420E+03 7.79929E+03 6.36767E+03-8.70239E-09-9.14952E-10
 -1       655 8.88621E+03 1.18092E+03 1.38654E+04 4.14048E+03 1.39698E-08-3.69482E-09
 -1       656-3.86268E+03-3.08483E+05-4.05157E+04 8.79397E+04-7.25231E-09 1.84809E-09
 -1       657-6.90733E+03-3.19131E+05-2.57906E+04 1.36603E+05-7.92170E-09 2.31012E-09
 -1       658-5.04828E+02-3.13056E+05-1.74733E+04 8.76751E+04-1.11058E-08 2.88719E-09
 -1       659-5.90810E+03-3.18426E+05-2.29368E+04 1.36735E+05 3.09228E-11 1.61867E-09
 -1       660-3.19808E+03-3.09471E+05-3.43138E+04 8.78175E+04-5.83532E-09-3.49701E-10
 -1       661 2.40694E+05 3.78035E+04 1.75978E+04 9.43292E+04-9.81890E-09 2.15005E-09
 -1       662 2.44078E+05 4.19233E+04 9.73091E+03 9.69825E+04 7.60338E-09 8.91305E-10
 -1       663 2.42643E+05 3.74031E+04 4.01331E+03 9.53594E+04 1.96434E-08 4.69106E-09
 -1       664 2.41518E+05 3.90865E+04 2.01891E+03 9.71159E+04 1.58716E-08-7.14682E-09
 -1       665 2.42794E+05 3.74295E+04 9.29655E+02 9.54132E+04 2.44792E-08 4.09445E-09
 -1       666 2.41334E+05 3.89415E+04 4.88427E+02 9.71023E+04 1.16431E-08 7.59070E-09
 -1       667 2.42813E+05 3.74388E+04 2.94962E+02 9.54153E+04 1.42632E-09-7.47434E-10
 -1       668 2.41319E+05 3.89371E+04 2.91609E+02 9.71031E+04 1.17352E-08 5.70174E-09
 -1       669 2.42812E+05 3.74336E+04 4.38913E+02 9.54139E+04-6.01858E-09 5.19765E-09
 -1       670 2.41354E+05 3.89534E+04 8.70513E+02 9.71183E+04-6.51198E-10 3.73120E-10
 -1       671 2.42780E+05 3.74084E+04 1.74223E+03 9.54072E+04-2.30737E-08-3.95403E-09
 -1       672 2.41704E+05 3.92343E+04 3.83132E+03 9.71548E+04-1.28822E-08-7.80506E-09
 -1       673 2.42496E+05 3.73536E+04 7.63623E+03 9.53034E+04 5.53473E-09-4.98903E-09
 -1       674 2.46603E+05 4.46172E+04 1.85299E+04 9.68816E+04-2.17440E-08-1.70621E-09
 -1       675 2.38761E+05 3.81379E+04 3.35142E+04 9.33693E+04-8.80141E-09 1.51522E-09
 -1       676-1.23262E+03-2.77324E+05-1.51092E+04 9.16172E+03 1.90130E-08 2.44813E-09
 -1       677-2.35751E+03-2.81333E+05-1.02517E+04 1.37704E+04 1.48812E-08 5.88716E-09
 -1       678-5.94636E+01-2.78873E+05-8.05569E+03 9.12511E+03 1.12184E-08 5.08180E-09
 -1       679-3.00164E+03-2.81911E+05-1.22156E+04 1.38174E+04 1.07348E-08-1.96098E-09
 -1       680-1.60350E+03-2.76755E+05-1.93621E+04 9.11223E+03 8.38645E-09-8.93465E-09
 -1       681 4.43348E+05 1.73450E+03 2.29106E+04-3.62609E+04 2.40107E-10 2.92857E-10
 -1       682 4.49551E+05 3.33041E+03 1.29116E+04-5.62469E+04-3.63798E-11 2.60115E-10
 -1       683 4.45988E+05-9.20180E+01 5.68969E+03-3.60085E+04 5.82077E-11-4.20187E-10
 -1       684 4.46439E+05 8.96168E+01 2.97679E+03-5.64829E+04-1.60981E-10 1.37516E-09
 -1       685 4.46100E+05-5.34943E+01 1.46307E+03-3.60186E+04-3.63798E-12 7.90351E-10
 -1       686 4.46119E+05-6.25635E-01 8.31458E+02-5.64620E+04 1.95541E-11 1.30058E-10
 -1       687 4.46076E+05-5.17799E+00 5.65946E+02-3.60297E+04-1.50521E-10-1.16188E-10
 -1       688 4.46059E+05 1.83061E+01 6.16706E+02-5.64480E+04-6.01972E-11-2.41698E-10
 -1       689 4.46059E+05-4.59170E+00 9.45751E+02-3.60327E+04 2.27374E-11 1.90994E-11
 -1       690 4.46139E+05 1.95118E+01 1.80043E+03-5.64521E+04-4.45652E-11 5.01586E-10
 -1       691 4.46025E+05-6.17920E+01 3.46087E+03-3.60255E+04 9.18590E-11-2.51816E-10
 -1       692 4.46743E+05 3.32670E+02 7.18166E+03-5.64630E+04 2.11003E-10 1.33747E-09
 -1       693 4.45613E+05-5.01312E+01 1.38314E+04-3.60212E+04 9.27685E-11-5.74346E-10
 -1       694 4.54032E+05 8.33349E+03 3.13643E+04-5.62485E+04-5.05679E-10-5.67525E-10
 -1       695 4.39021E+05 4.53182E+03 5.57332E+04-3.62521E+04-1.08048E-09-4.07454E-10
 -1       696 3.03807E+03 5.56367E+05 3.36145E+04-8.00461E+04 1.00044E-10-4.00178E-10
 -1       697 5.45040E+03 5.65219E+05 1.79645E+04-1.24506E+05 2.70120E-10-7.62839E-10
 -1       698 2.36793E+02 5.60477E+05 5.98720E+03-7.98741E+04-2.68528E-10 1.75555E-09
 -1       699-8.84281E+02 5.59624E+05-1.26784E+03-1.24486E+05-4.10182E-10 1.71326E-09
 -1       700-6.73152E+02 5.62031E+05-8.05438E+03-8.00763E+04-2.90129E-10 1.60071E-09
 -1       701-4.06240E+05-7.41569E+04-6.36609E+04-1.70712E+05-1.24601E-10-1.92813E-09
 -1       702-4.15946E+05-9.15978E+04-3.51969E+04-1.83289E+05-1.92358E-10-1.44064E-09
 -1       703-4.13472E+05-7.25477E+04-1.45147E+04-1.74289E+05-8.18545E-12-5.78439E-10
 -1       704-4.06591E+05-8.14572E+04-7.28133E+03-1.83976E+05 6.82121E-12-6.36646E-10
 -1       705-4.14065E+05-7.26047E+04-3.32883E+03-1.74481E+05 4.27463E-11-1.95087E-10
 -1       706-4.05937E+05-8.09424E+04-1.68426E+03-1.83980E+05-1.03682E-10 3.47370E-10
 -1       707-4.14160E+05-7.26205E+04-9.02835E+02-1.74493E+05 1.71894E-10 1.24146E-10
 -1       708-4.05883E+05-8.09231E+04-6.97707E+02-1.83998E+05 2.27374E-11-2.20837E-11
 -1       709-4.14176E+05-7.26091E+04-8.58841E+02-1.74494E+05-2.56932E-10-1.12550E-10
 -1       710-4.05946E+05-8.09480E+04-1.57216E+03-1.84025E+05-2.13163E-10 6.49152E-10
 -1       711-4.14116E+05-7.25699E+04-3.08494E+03-1.74485E+05 1.41995E-10 4.86125E-10
 -1       712-4.06564E+05-8.14341E+04-6.75124E+03-1.84066E+05-7.34985E-11 3.68345E-10
 -1       713-4.13595E+05-7.24945E+04-1.34464E+04-1.74308E+05-7.84439E-11-5.00222E-11
 -1       714-4.15203E+05-9.08877E+04-3.26253E+04-1.83520E+05 4.20073E-11-3.20142E-10
 -1       715-4.06950E+05-7.39252E+04-5.89978E+04-1.70950E+05-2.54886E-10 7.31234E-10
 -1       716 3.65733E+05 3.84147E+03 4.84852E+04-4.86857E+04 6.40284E-10 1.48793E-09
 -1       717 3.78819E+05 7.21238E+03 2.73059E+04-7.54430E+04 8.36735E-11 6.09361E-11
 -1       718 3.71378E+05-7.32645E+01 1.20405E+04-4.83644E+04 1.67347E-10 4.38376E-10
 -1       719 3.72340E+05 3.10810E+02 6.27945E+03-7.57476E+04 1.60981E-10 1.85719E-09
 -1       720 3.71672E+05-3.46485E+01 3.06541E+03-4.83701E+04 4.10182E-10 5.27507E-11
 -1       721 3.71741E+05 7.76853E+01 1.68332E+03-7.57339E+04 6.85986E-10 7.40783E-10
 -1       722 3.71666E+05 3.54983E+01 1.04956E+03-4.83788E+04 6.80984E-10-5.89353E-10
 -1       723 3.71666E+05 8.63057E+01 9.98343E+02-7.57271E+04 5.96174E-10 6.73481E-10
 -1       724 3.71671E+05 2.00073E+01 1.39708E+03-4.83770E+04 3.10592E-10 1.18189E-09
 -1       725 3.71826E+05 6.07928E+01 2.57573E+03-7.57416E+04 9.16771E-10-1.42973E-09
 -1       726 3.71665E+05-9.04808E+01 4.90028E+03-4.83641E+04 8.27640E-11 5.45697E-11
 -1       727 3.72755E+05 4.64207E+02 1.01569E+04-7.57616E+04 3.31056E-10-1.60867E-10
 -1       728 3.71137E+05-1.15116E+02 1.95405E+04-4.83557E+04 1.16415E-10-3.28782E-10
 -1       729 3.83160E+05 1.17278E+04 4.43346E+04-7.54271E+04-7.23958E-10 7.96717E-10
 -1       730 3.61886E+05 6.31284E+03 7.87647E+04-4.87216E+04-1.78261E-10-4.07454E-10
 -1       731 2.89397E+03 1.95005E+05 3.19792E+04-1.29358E+05 1.56433E-10 1.60071E-10
 -1       732 5.36173E+03 2.03353E+05 1.83536E+04-2.01897E+05 7.82165E-10 4.09273E-11
 -1       733 3.16212E+02 1.98697E+05 8.75602E+03-1.29103E+05 8.27640E-11 1.23600E-09
 -1       734 1.22171E+03 1.99983E+05 6.07640E+03-2.01771E+05 7.34872E-10 1.32422E-09
 -1       735 3.42924E+02 1.98852E+05 5.34471E+03-1.29491E+05 8.00355E-11 1.23327E-09
 -1       736-8.48317E+05-1.37904E+05-7.91458E+04-3.37616E+05-6.13909E-11 3.85626E-10
 -1       737-8.61741E+05-1.58231E+05-4.37605E+04-3.51675E+05 2.71029E-10-8.47649E-10
 -1       738-8.57278E+05-1.35932E+05-1.80360E+04-3.42069E+05-9.84983E-10-3.14049E-09
 -1       739-8.50104E+05-1.45613E+05-9.04633E+03-3.52510E+05 2.94676E-10 2.63753E-11
 -1       740-8.58015E+05-1.36000E+05-4.12467E+03-3.42292E+05 1.27329E-10-2.93539E-10
 -1       741-8.49261E+05-1.44987E+05-2.07304E+03-3.52521E+05 7.81256E-10 4.51166E-10
 -1       742-8.58133E+05-1.36022E+05-1.08079E+03-3.42297E+05 3.50610E-10 1.55595E-10
 -1       743-8.49176E+05-1.44972E+05-7.81293E+02-3.52540E+05-3.92561E-10-8.93579E-10
 -1       744-8.58150E+05-1.36014E+05-8.91576E+02-3.42294E+05-2.54090E-10-2.14641E-10
 -1       745-8.49230E+05-1.44996E+05-1.57566E+03-3.52558E+05-3.47882E-10-5.18412E-11
 -1       746-8.58082E+05-1.35984E+05-3.06190E+03-3.42287E+05 3.69710E-10 3.94721E-10
 -1       747-8.49849E+05-1.45467E+05-6.68494E+03-3.52574E+05 4.33602E-10 1.63686E-09
 -1       748-8.57548E+05-1.35925E+05-1.33088E+04-3.42120E+05 0.00000E+00 1.33787E-09
 -1       749-8.58437E+05-1.54784E+05-3.22918E+04-3.51971E+05-2.74667E-10 3.81988E-10
 -1       750-8.50937E+05-1.37380E+05-5.83990E+04-3.38838E+05 1.03682E-10-3.05590E-10
 -1       751 8.13853E+05 1.00060E+04 1.23140E+05-5.74588E+04-7.09406E-11 5.74801E-10
 -1       752 8.47024E+05 1.84096E+04 6.92955E+04-8.91202E+04-9.19499E-10-7.20320E-10
 -1       753 8.28381E+05-1.08549E+02 3.05704E+04-5.70962E+04-2.36469E-10 1.63709E-10
 -1       754 8.30877E+05 7.64040E+02 1.58969E+04-8.94138E+04-3.40151E-10 5.14319E-10
 -1       755 8.29268E+05-1.16571E+02 7.70212E+03-5.71285E+04 2.43745E-10-1.74714E-09
 -1       756 8.29516E+05 8.84061E+01 4.09284E+03-8.93601E+04 2.71029E-10-5.72072E-10
 -1       757 8.29324E+05 1.75321E+01 2.31365E+03-5.71520E+04-5.49562E-10 1.04137E-10
 -1       758 8.29342E+05 9.14714E+01 1.81896E+03-8.93430E+04-2.98201E-10 3.27873E-10
 -1       759 8.29345E+05 6.83387E+00 2.14729E+03-5.71459E+04 3.14230E-10-3.83352E-10
 -1       760 8.29551E+05 5.65896E+01 3.67225E+03-8.93815E+04-6.78483E-10-2.36014E-10
 -1       761 8.29341E+05-1.44428E+02 6.83168E+03-5.71131E+04 3.31056E-10-1.31536E-09
 -1       762 8.30833E+05 6.12578E+02 1.40750E+04-8.94573E+04 5.98448E-10 5.84038E-10
 -1       763 8.28612E+05-1.79561E+02 2.70374E+04-5.70680E+04 3.63798E-11 1.79443E-09
 -1       764 8.45221E+05 1.61784E+04 6.13102E+04-8.91480E+04 5.34783E-10 7.45786E-10
 -1       765 8.15817E+05 8.71850E+03 1.08919E+05-5.74638E+04-1.89902E-09 8.00355E-10
 -1       766 6.76666E+03 3.44005E+05 8.02976E+04-1.45103E+05 1.60071E-10 3.68345E-10
 -1       767 1.28018E+04 3.65273E+05 5.16140E+04-2.26443E+05 7.62157E-10 6.22776E-10
 -1       768 4.13877E+02 3.52623E+05 3.56925E+04-1.44861E+05 9.73159E-11 1.57070E-09
 -1       769 1.13983E+04 3.64616E+05 4.79395E+04-2.26231E+05 7.27596E-10-1.26602E-09
 -1       770 5.68354E+03 3.45562E+05 7.22644E+04-1.45332E+05-2.07365E-10 7.82165E-10
 -1       771-1.75151E+06-3.17295E+05-1.52084E+05-7.03279E+05-2.27374E-10-8.51287E-10
 -1       772-1.77039E+06-3.26596E+05-7.94810E+04-7.35758E+05-3.61069E-10 5.34783E-10
 -1       773-1.76348E+06-2.91954E+05-3.34965E+04-7.19010E+05 2.25555E-10 8.45830E-10
 -1       774-1.75124E+06-3.07062E+05-1.65444E+04-7.36687E+05-7.27596E-10-1.25169E-09
 -1       775-1.76458E+06-2.91395E+05-7.62343E+03-7.19610E+05-3.48336E-10-3.01497E-10
 -1       776-1.75001E+06-3.06343E+05-3.84080E+03-7.36632E+05 1.63709E-11-1.76442E-10
 -1       777-1.76479E+06-2.91461E+05-2.04850E+03-7.19626E+05 9.91349E-11 3.73120E-10
 -1       778-1.74990E+06-3.06334E+05-1.56290E+03-7.36625E+05-4.03020E-10-4.45652E-10
 -1       779-1.76479E+06-2.91470E+05-1.89857E+03-7.19624E+05-1.34060E-09-4.39286E-10
 -1       780-1.74999E+06-3.06338E+05-3.44491E+03-7.36606E+05-2.86718E-10 7.28505E-10
 -1       781-1.76459E+06-2.91431E+05-6.77798E+03-7.19609E+05 1.95541E-10-1.21599E-09
 -1       782-1.75107E+06-3.06969E+05-1.46743E+04-7.36620E+05 3.80169E-10 6.45741E-11
 -1       783-1.76358E+06-2.91946E+05-2.96965E+04-7.19073E+05-2.00089E-11-7.60338E-10
 -1       784-1.76809E+06-3.24239E+05-7.04537E+04-7.35707E+05 1.76760E-09-4.80941E-09
 -1       785-1.75289E+06-3.14465E+05-1.34808E+05-7.05169E+05-4.32010E-11-3.71074E-10
 -1       786 6.76075E+05 7.65813E+03 9.52520E+04-5.58588E+04 1.37152E-09-7.85803E-10
 -1       787 7.01761E+05 1.41553E+04 5.36075E+04-8.68267E+04-1.18598E-09-2.02726E-09
 -1       788 6.87286E+05-1.37541E+02 2.36402E+04-5.55110E+04-4.16549E-10 7.93079E-10
 -1       789 6.89229E+05 5.19882E+02 1.22818E+04-8.71172E+04 7.82165E-11 6.14818E-10
 -1       790 6.87957E+05-1.31803E+02 5.92552E+03-5.55330E+04 2.65572E-10-9.20409E-10
 -1       791 6.88163E+05 2.85362E+00 3.09783E+03-8.70832E+04 7.04858E-10 3.09683E-10
 -1       792 6.88004E+05-2.75917E+01 1.65355E+03-5.55464E+04-1.48930E-11 3.36513E-10
 -1       793 6.88035E+05-2.29495E+00 1.12755E+03-8.70790E+04 3.26168E-10 5.91172E-11
 -1       794 6.88047E+05-4.25380E+01 1.10716E+03-5.55375E+04 1.39153E-10-2.74531E-09
 -1       795 6.88194E+05-5.72245E+01 1.70908E+03-8.71205E+04 7.88987E-10 4.76166E-09
 -1       796 6.88120E+05-1.62406E+02 3.05769E+03-5.55046E+04-1.24055E-09 2.28511E-10
 -1       797 6.88912E+05 1.09410E+02 6.25989E+03-8.71846E+04-6.36646E-10 1.13062E-09
 -1       798 6.87916E+05-2.68830E+02 1.19731E+04-5.54720E+04-9.36780E-10 8.25366E-10
 -1       799 6.95531E+05 6.90554E+03 2.71945E+04-8.68504E+04-6.51926E-09-1.04114E-09
 -1       800 6.82394E+05 3.54953E+03 4.82479E+04-5.58626E+04 5.67525E-10 1.56797E-09
 -1       801 3.41064E+03-1.25092E+04 3.00268E+04-3.97187E+05 5.07498E-10-1.04774E-09
 -1       802 8.57213E+03-6.77100E+03 2.29258E+04-6.19881E+05 7.41056E-09-3.28146E-09
 -1       803 2.62532E+03-1.15804E+04 2.14587E+04-3.96198E+05 1.12050E-09 3.97972E-09
 -1       804 1.30071E+04-2.26228E+03 3.69805E+04-6.19790E+05 7.07587E-09-2.50293E-09
 -1       805 5.74134E+03-1.61557E+04 6.04147E+04-3.97278E+05 7.81256E-10 1.60435E-09
 -1       806-1.08654E+06-2.14205E+05-9.39705E+04-4.59361E+05 1.22736E-09-2.90311E-09
 -1       807-1.09258E+06-2.25543E+05-4.91019E+04-4.85864E+05 4.43924E-09 6.97764E-09
 -1       808-1.09406E+06-1.98436E+05-2.07046E+04-4.69036E+05 1.51522E-09-1.05319E-09
 -1       809-1.08072E+06-2.13541E+05-1.02300E+04-4.86560E+05-8.36735E-11-1.05467E-09
 -1       810-1.09476E+06-1.98078E+05-4.72626E+03-4.69426E+05 5.79348E-10 6.69047E-10
 -1       811-1.07999E+06-2.13085E+05-2.40257E+03-4.86534E+05-1.47338E-10 7.02130E-10
 -1       812-1.09489E+06-1.98118E+05-1.32671E+03-4.69442E+05 2.93085E-10-1.39153E-10
 -1       813-1.07992E+06-2.13077E+05-1.09675E+03-4.86516E+05-8.78913E-10-1.12686E-09
 -1       814-1.09486E+06-1.98133E+05-1.44536E+03-4.69434E+05 6.61657E-10-1.82717E-09
 -1       815-1.07997E+06-2.13090E+05-2.71240E+03-4.86479E+05 1.52977E-09-1.03955E-09
 -1       816-1.09466E+06-1.98116E+05-5.38785E+03-4.69401E+05-1.26147E-09 1.45246E-09
 -1       817-1.08079E+06-2.13610E+05-1.16818E+04-4.86458E+05 3.05590E-10-5.74801E-10
 -1       818-1.09382E+06-1.98556E+05-2.36543E+04-4.68949E+05-1.70985E-09-4.16549E-10
 -1       819-1.09432E+06-2.27297E+05-5.60832E+04-4.85608E+05-5.28235E-09 2.06637E-09
 -1       820-1.08520E+06-2.16576E+05-1.07332E+05-4.57895E+05 2.82671E-09 1.85901E-09
 -1       821-4.48677E+05-5.19568E+03-6.26370E+04 2.46784E+04-1.40972E-08 1.41881E-09
 -1       822-4.65535E+05-9.32337E+03-3.52317E+04 3.86523E+04-3.01407E-09 1.64073E-09
 -1       823-4.56252E+05 7.01425E+01-1.55616E+04 2.43884E+04 1.19253E-08 2.17369E-10
 -1       824-4.57610E+05-2.05316E+02-8.07301E+03 3.89502E+04-3.72711E-09 1.01818E-09
 -1       825-4.56842E+05 1.82969E+02-3.91367E+03 2.43523E+04-1.70294E-08 1.58707E-09
 -1       826-4.57092E+05 2.32756E+02-2.05713E+03 3.90001E+04-3.17086E-08 5.48562E-09
 -1       827-4.56948E+05 1.74420E+02-1.13947E+03 2.43357E+04-1.41408E-08 7.73070E-12
 -1       828-4.57074E+05 2.70116E+02-8.47310E+02 3.90256E+04-2.27519E-08 2.71507E-09
 -1       829-4.56974E+05 1.88170E+02-9.48834E+02 2.43261E+04-8.39009E-09 0.00000E+00
 -1       830-4.57138E+05 2.72877E+02-1.57560E+03 3.90357E+04 1.52481E-08 4.09955E-10
 -1       831-4.56931E+05 2.19111E+02-2.91645E+03 2.43253E+04-8.69272E-09-1.13573E-10
 -1       832-4.57570E+05-2.48667E+01-5.98645E+03 3.90244E+04-4.46437E-09 1.38678E-09
 -1       833-4.56523E+05 1.57319E+02-1.15149E+04 2.43389E+04-1.54068E-09 1.53250E-09
 -1       834-4.63481E+05-6.75492E+03-2.60808E+04 3.88722E+04 8.18545E-10 4.70595E-09
 -1       835-4.50937E+05-3.72475E+03-4.63566E+04 2.45093E+04 2.17733E-09-2.36469E-10
 -1       836 5.24833E+03 7.58003E+05 5.99768E+04-1.49262E+05-8.08359E-09-1.64619E-09
 -1       837 1.02748E+04 7.73490E+05 4.21548E+04-2.31880E+05-3.00679E-09-8.71296E-10
 -1       838 8.29848E+02 7.63712E+05 3.54673E+04-1.48954E+05-8.74024E-09 3.01907E-09
 -1       839 1.50179E+04 7.77862E+05 5.67421E+04-2.31830E+05-3.43425E-09 3.93811E-10
 -1       840 7.95190E+03 7.53860E+05 9.15734E+04-1.49303E+05-7.21047E-09 1.68620E-09
 -1       841 5.20834E+04 2.38488E+04-1.04516E+04 4.22199E+04-5.04224E-09-1.08321E-09
 -1       842 3.99332E+04 3.16032E+04-5.76647E+03 5.21586E+04-3.93538E-09-3.54891E-09
 -1       843 5.10301E+04 2.39628E+04-2.38681E+03 4.13958E+04 3.87081E-09 6.13454E-10
 -1       844 4.12084E+04 3.34759E+04-1.18363E+03 5.22142E+04 1.02382E-08-9.93168E-10
 -1       845 5.09065E+04 2.39716E+04-5.28541E+02 4.13298E+04 2.62116E-09-1.95371E-09
 -1       846 4.12573E+04 3.35868E+04-2.26566E+02 5.21904E+04-1.91912E-08-1.08651E-09
 -1       847 5.08654E+04 2.39847E+04-4.58749E+01 4.13098E+04-1.40053E-08-1.45718E-09
 -1       848 4.12444E+04 3.36046E+04 1.09334E+02 5.21714E+04 4.83055E-09 1.18525E-08
 -1       849 5.08412E+04 2.39881E+04 3.18315E+02 4.12990E+04 1.07318E-08 8.20478E-10
 -1       850 4.12703E+04 3.36224E+04 7.34051E+02 5.21727E+04 7.26806E-09-2.11662E-09
 -1       851 5.08064E+04 2.39689E+04 1.51927E+03 4.12931E+04-6.46614E-09-1.35742E-09
 -1       852 4.15926E+04 3.38620E+04 3.36680E+03 5.22020E+04 8.26378E-09-6.23004E-10
 -1       853 5.05607E+04 2.39176E+04 6.71833E+03 4.12133E+04 5.99630E-09 5.63068E-09
 -1       854 4.59990E+04 3.85279E+04 1.63140E+04 5.19056E+04-4.91332E-09 1.83400E-09
 -1       855 4.72338E+04 2.46527E+04 2.95016E+04 3.95954E+04 1.02268E-08-1.20053E-09
 -1       856-1.93022E+05-1.67411E+03-2.10306E+04 1.55428E+04-8.81482E-09 2.74395E-09
 -1       857-1.98722E+05-3.02717E+03-1.18287E+04 2.43927E+04-6.81985E-09 1.86265E-09
 -1       858-1.95562E+05 9.25737E+01-5.22182E+03 1.54101E+04-7.17455E-09 1.43655E-09
 -1       859-1.96053E+05 3.05798E+01-2.70788E+03 2.45218E+04 1.01477E-09 3.39583E-09
 -1       860-1.95755E+05 1.26282E+02-1.30753E+03 1.53991E+04 4.15866E-09 2.39379E-09
 -1       861-1.95869E+05 1.72470E+02-6.80733E+02 2.45340E+04-3.11093E-09 2.53374E-09
 -1       862-1.95784E+05 1.18142E+02-3.62610E+02 1.53970E+04 8.75207E-09-4.76803E-10
 -1       863-1.95851E+05 1.78803E+02-2.45771E+02 2.45361E+04 3.93627E-08 6.45286E-10
 -1       864-1.95787E+05 1.15916E+02-2.42652E+02 1.53969E+04 1.70934E-08-8.47876E-10
 -1       865-1.95853E+05 1.73523E+02-3.73775E+02 2.45336E+04 8.59666E-09-5.79803E-11
 -1       866-1.95769E+05 1.16404E+02-6.75372E+02 1.53996E+04-1.56570E-09 9.92486E-11
 -1       867-1.95936E+05 9.70926E+01-1.37472E+03 2.45219E+04 9.54128E-09 2.43892E-09
 -1       868-1.95665E+05 9.36704E+01-2.64158E+03 1.54092E+04 1.63236E-08-3.03316E-10
 -1       869-1.97268E+05-1.45421E+03-5.97434E+03 2.43931E+04 6.01040E-09 3.11394E-09
 -1       870-1.94373E+05-8.06087E+02-1.06228E+04 1.55359E+04 1.26502E-08-1.88265E-10
 -1       871-3.27747E+03-7.29458E+04-8.85976E+03 1.52668E+05-9.94714E-09-1.54614E-09
 -1       872-2.18283E+03-7.48360E+04-3.10829E+03 2.03251E+05-2.67173E-08-1.12095E-09
 -1       873-7.36678E+02-7.42580E+04 1.81035E+03 1.52349E+05-8.97307E-09 2.49571E-09
 -1       874 1.09024E+03-7.18872E+04 8.08074E+03 2.03264E+05-1.59071E-08-4.37467E-10
 -1       875 3.34919E+03-7.59306E+04 1.67710E+04 1.52685E+05-4.85124E-09 1.32786E-10
 -1       876 3.09532E+05 5.33103E+04 3.15322E+04 1.26942E+05-1.49839E-09 3.28328E-09
 -1       877 3.13952E+05 6.23535E+04 1.74353E+04 1.33575E+05-2.09229E-09-2.09184E-09
 -1       878 3.13064E+05 5.25518E+04 7.18788E+03 1.28730E+05 7.01789E-09-1.91494E-09
 -1       879 3.09312E+05 5.73173E+04 3.61165E+03 1.33853E+05 1.55826E-08 2.43870E-09
 -1       880 3.13325E+05 5.26057E+04 1.65326E+03 1.28825E+05 8.59882E-09 7.83984E-09
 -1       881 3.08980E+05 5.70546E+04 8.48991E+02 1.33815E+05 1.16290E-09 2.22398E-09
 -1       882 3.13352E+05 5.26308E+04 4.74728E+02 1.28830E+05 1.28158E-08 4.05254E-09
 -1       883 3.08950E+05 5.70406E+04 4.05833E+02 1.33803E+05 8.39992E-09 7.60946E-09
 -1       884 3.13350E+05 5.26300E+04 5.47642E+02 1.28830E+05-1.41991E-09 3.42561E-09
 -1       885 3.08992E+05 5.70571E+04 1.04227E+03 1.33816E+05 6.04291E-09-5.38012E-09
 -1       886 3.13312E+05 5.26007E+04 2.06456E+03 1.28824E+05-1.96270E-08-6.22003E-09
 -1       887 3.09409E+05 5.73868E+04 4.52827E+03 1.33860E+05-1.93370E-09-3.92379E-09
 -1       888 3.12980E+05 5.25340E+04 9.01974E+03 1.28703E+05-1.17848E-09 3.27418E-10
 -1       889 3.15215E+05 6.37280E+04 2.18841E+04 1.33528E+05-1.82570E-08-9.10404E-09
 -1       890 3.08560E+05 5.34696E+04 3.95784E+04 1.26437E+05 4.48381E-10-1.87356E-09
 -1       891-9.57519E+02-1.56489E+05-7.35478E+03 6.37421E+04 5.55247E-09 1.45519E-09
 -1       892-1.65054E+03-1.58279E+05-4.95263E+03 9.92497E+04-7.08224E-09-2.69324E-09
 -1       893-3.50740E+02-1.57290E+05-3.84904E+03 6.35918E+04-4.18095E-09-1.59508E-09
 -1       894-1.92946E+03-1.58507E+05-5.78056E+03 9.92304E+04 3.93493E-09-1.52977E-09
 -1       895-1.12898E+03-1.56230E+05-9.15049E+03 6.37598E+04 7.37941E-10 6.35737E-10
 -1       896 7.65506E+05 7.35194E+02 1.02818E+04-2.63387E+04-1.36424E-10-1.40403E-09
 -1       897 7.68264E+05 1.45759E+03 5.80178E+03-4.09546E+04-3.45608E-11-1.50703E-09
 -1       898 7.66674E+05-7.09866E+01 2.55796E+03-2.61567E+04-2.41926E-10-7.30097E-10
 -1       899 7.66836E+05 1.62204E+01 1.35246E+03-4.11095E+04 3.39696E-10-4.42469E-10
 -1       900 7.66707E+05-4.12729E+01 6.86183E+02-2.61813E+04 1.02773E-10-3.18323E-11
 -1       901 7.66670E+05-1.18243E+01 4.38852E+02-4.10644E+04 8.95852E-11 1.66892E-10
 -1       902 7.66681E+05-1.09558E+01 3.82525E+02-2.62021E+04 1.62800E-10 1.30967E-10
 -1       903 7.66633E+05 5.80999E+00 5.41750E+02-4.10335E+04-3.09228E-11 1.49612E-10
 -1       904 7.66654E+05-9.76715E+00 9.46076E+02-2.62123E+04-1.36197E-10 1.22554E-10
 -1       905 7.66698E+05 1.87449E+01 1.87640E+03-4.10257E+04-1.50976E-10-1.63368E-10
 -1       906 7.66594E+05-5.25709E+01 3.65003E+03-2.62098E+04-1.29148E-10-1.68512E-10
 -1       907 7.67283E+05 3.78072E+02 7.58964E+03-4.10349E+04-1.74623E-10 5.45725E-10
 -1       908 7.66114E+05-6.90912E+00 1.46342E+04-2.62026E+04-2.27374E-11 4.32919E-10
 -1       909 7.74902E+05 8.87775E+03 3.31677E+04-4.09155E+04-3.78350E-10-8.87667E-10
 -1       910 7.59080E+05 4.88975E+03 5.89563E+04-2.63355E+04-2.81943E-11-3.45608E-10
 -1       911 1.65479E+05 1.19709E+01 6.78501E+02-2.10501E+04-8.54925E-11 1.35515E-10
 -1       912 1.65661E+05 7.85432E+01 3.91891E+02-3.25985E+04-1.01863E-10 3.87899E-10
 -1       913 1.65527E+05-1.78775E+01 1.77411E+02-2.09033E+04 4.72937E-11 4.35080E-10
 -1       914 1.65522E+05 3.02347E+00 1.12647E+02-3.27476E+04-2.00544E-10 4.07681E-10
 -1       915 1.65507E+05-9.05973E-02 8.90596E+01-2.09009E+04 1.59162E-10 6.05496E-10
 -1       916 1.65489E+05 1.40552E+01 1.20307E+02-3.27480E+04 4.32010E-10 6.39602E-10
 -1       917 1.65492E+05 7.37621E+00 2.04065E+02-2.09030E+04 3.90855E-10 8.76071E-10
 -1       918 1.65491E+05 1.77803E+01 4.00457E+02-3.27459E+04-1.80897E-10 1.14585E-09
 -1       919 1.65481E+05-3.00362E+00 7.79130E+02-2.09030E+04-7.75344E-11 8.20364E-10
 -1       920 1.65566E+05 1.97250E+01 1.59160E+03-3.27477E+04-4.75211E-11 8.73115E-10
 -1       921 1.65437E+05-4.65831E+01 3.11908E+03-2.09011E+04 6.32099E-11 6.46537E-10
 -1       922 1.66079E+05 3.22747E+02 6.50150E+03-3.27469E+04 7.07132E-11 8.66720E-10
 -1       923 1.65031E+05-1.10130E+01 1.25426E+04-2.09034E+04 0.00000E+00-2.03727E-10
 -1       924 1.72620E+05 7.61395E+03 2.84418E+04-3.25977E+04 7.27596E-12-5.83896E-10
 -1       925 1.59005E+05 4.18156E+03 5.05579E+04-2.10554E+04-1.81899E-10-5.63887E-10
 -1       926-9.21441E+05-4.70039E+03-5.55964E+04-3.66124E+04 4.76575E-10-1.12777E-10
 -1       927-9.36326E+05-8.42940E+03-3.12685E+04-5.68359E+04 3.74257E-10 8.45375E-10
 -1       928-9.28176E+05-1.80629E+01-1.37990E+04-3.63608E+04 1.95541E-10 2.59661E-10
 -1       929-9.29294E+05-3.28211E+02-7.15410E+03-5.71325E+04-8.63565E-10-1.58593E-11
 -1       930-9.28694E+05 7.82932E+01-3.45290E+03-3.63220E+04 2.40107E-10 5.17502E-10
 -1       931-9.28809E+05 4.74162E+01-1.79882E+03-5.71769E+04 3.20028E-11 1.10595E-09
 -1       932-9.28763E+05 5.00103E+01-9.61609E+02-3.63158E+04-9.42464E-11 4.37922E-10
 -1       933-9.28731E+05 4.86026E+01-6.58894E+02-5.71680E+04 2.58524E-10 1.09844E-09
 -1       934-9.28741E+05 2.31815E+01-6.65173E+02-3.63308E+04 3.68345E-10 3.55612E-10
 -1       935-9.28680E+05 3.04410E+00-1.03240E+03-5.71144E+04-5.84350E-10 9.75433E-11
 -1       936-9.28647E+05-9.97582E+00-1.88099E+03-3.63695E+04 3.24690E-10 2.65118E-10
 -1       937-9.28825E+05-2.54420E+02-3.81787E+03-5.70044E+04 4.53838E-10-1.12595E-09
 -1       938-9.28297E+05-1.20395E+02-7.35156E+03-3.64411E+04-5.82077E-11-1.29421E-09
 -1       939-9.32414E+05-4.61577E+03-1.65955E+04-5.65503E+04 1.53341E-09-1.93177E-09
 -1       940-9.24640E+05-2.67313E+03-2.95329E+04-3.68136E+04-5.71163E-10-1.06411E-10
 -1       941 9.78568E+05 1.30277E+04 1.57484E+05-4.10399E+04 7.18501E-10-1.34605E-09
 -1       942 1.02093E+06 2.36249E+04 8.85790E+04-6.39694E+04-7.56700E-10-3.54339E-09
 -1       943 9.97336E+05-6.91537E+01 3.91015E+04-4.07864E+04-5.41149E-10-9.65883E-10
 -1       944 1.00058E+06 9.36621E+02 2.03091E+04-6.41504E+04-3.92902E-10-1.75123E-09
 -1       945 9.98611E+05-1.87664E+02 9.82753E+03-4.08111E+04 2.74667E-10-8.64020E-11
 -1       946 9.99011E+05-1.63457E+01 5.17467E+03-6.41166E+04 6.33577E-10 1.02318E-09
 -1       947 9.98757E+05-7.01769E+01 2.84893E+03-4.08216E+04 5.58799E-10 8.59472E-10
 -1       948 9.98841E+05-4.35295E+01 2.10390E+03-6.41207E+04 1.06866E-10 1.54387E-10
 -1       949 9.98794E+05-8.06512E+01 2.31670E+03-4.08072E+04-1.34969E-09-1.99748E-09
 -1       950 9.99024E+05-6.59039E+01 3.82052E+03-6.41746E+04 8.36735E-10 5.43878E-10
 -1       951 9.98754E+05-2.05262E+02 7.03250E+03-4.07671E+04-2.00453E-09-2.35582E-09
 -1       952 1.00024E+06 5.54381E+02 1.44369E+04-6.42594E+04-1.05229E-09-2.58569E-09
 -1       953 9.97924E+05-1.77133E+02 2.77259E+04-4.07209E+04-1.32241E-09-1.60071E-09
 -1       954 1.01480E+06 1.65832E+04 6.28231E+04-6.40444E+04-6.15182E-09-3.89355E-09
 -1       955 9.84690E+05 9.03971E+03 1.11635E+05-4.10351E+04 1.95359E-09-1.17871E-09
 -1       956-5.37171E+05-9.47206E+03-3.88078E+04 4.24073E+04-1.31131E-08 2.86354E-09
 -1       957-5.46125E+05-4.69085E+03-2.07107E+04 5.62187E+04-4.50473E-09 1.92449E-09
 -1       958-5.41289E+05-4.77862E+01-9.31423E+03 4.20078E+04 1.02664E-08-4.85670E-10
 -1       959-5.42026E+05 1.17202E+02-4.77784E+03 5.66358E+04-5.28235E-09 2.95040E-09
 -1       960-5.41670E+05 2.47485E+02-2.33516E+03 4.19654E+04-1.64691E-08 1.52204E-09
 -1       961-5.41840E+05 3.33994E+02-1.22449E+03 5.66898E+04-3.10247E-08 6.64795E-09
 -1       962-5.41782E+05 2.68293E+02-6.83027E+02 4.19509E+04-1.34978E-08 2.10048E-09
 -1       963-5.41884E+05 3.75044E+02-5.08746E+02 5.67120E+04-2.06596E-08 6.30325E-09
 -1       964-5.41830E+05 2.96893E+02-5.73946E+02 4.19422E+04-2.81125E-09 7.72161E-10
 -1       965-5.41948E+05 3.98801E+02-9.53597E+02 5.67215E+04 1.60443E-08 3.39742E-09
 -1       966-5.41816E+05 3.29831E+02-1.77069E+03 4.19408E+04-5.51574E-09 1.54159E-09
 -1       967-5.42178E+05 2.84526E+02-3.61530E+03 5.67084E+04 4.99358E-09 5.30645E-09
 -1       968-5.41591E+05 1.50168E+02-7.03168E+03 4.19563E+04-4.25007E-09 1.30473E-09
 -1       969-5.45360E+05-3.31224E+03-1.56590E+04 5.65158E+04-7.19820E-09 5.23983E-09
 -1       970-5.38525E+05-6.94735E+03-2.93298E+04 4.21656E+04 8.11815E-09-6.73026E-11
 -1       971-4.11307E+05-1.26837E+03-1.60602E+04 1.37147E+04-2.14577E-08-4.63615E-09
 -1       972-4.15642E+05-2.29160E+03-9.03440E+03 2.19290E+04-1.50740E-08-8.54334E-09
 -1       973-4.13248E+05 8.22327E+01-3.99328E+03 1.35813E+04-1.36611E-08-5.36784E-09
 -1       974-4.13610E+05 4.61747E+01-2.07956E+03 2.20665E+04-7.17159E-09-8.84575E-09
 -1       975-4.13398E+05 1.10355E+02-1.02262E+03 1.35661E+04-8.50150E-09-5.77370E-09
 -1       976-4.13475E+05 1.56924E+02-5.68940E+02 2.20857E+04-1.76536E-08-9.00366E-09
 -1       977-4.13421E+05 1.07067E+02-3.74040E+02 1.35614E+04 9.92793E-09-6.65352E-09
 -1       978-4.13470E+05 1.64061E+02-3.86026E+02 2.20911E+04 3.91171E-08-1.14687E-08
 -1       979-4.13418E+05 1.11785E+02-5.76043E+02 1.35607E+04 2.63796E-08-7.17068E-09
 -1       980-4.13507E+05 1.57308E+02-1.08622E+03 2.20881E+04 2.57228E-08-1.09114E-08
 -1       981-4.13378E+05 1.29912E+02-2.08768E+03 1.35644E+04-7.34872E-10-5.72729E-09
 -1       982-4.13815E+05-6.16872E+01-4.32670E+03 2.20726E+04-5.49539E-09-8.97531E-09
 -1       983-4.13081E+05 8.52347E+01-8.34210E+03 1.35773E+04 2.58842E-09-6.61544E-09
 -1       984-4.18106E+05-4.93776E+03-1.89044E+04 2.19513E+04-6.94035E-09-9.82072E-09
 -1       985-4.09039E+05-2.72404E+03-3.36052E+04 1.37093E+04 5.59794E-09-6.05542E-09
 -3
 9999
