
 stresses (elem, integ.pnt.,sxx,syy,szz,sxy,sxz,syz) for set ELALL and time  0.1000000E+01

         1   1  2.401018E+06  1.566593E+05  1.778838E+05  9.296004E+04  1.219183E+05  1.818835E+01
         1   2  2.384883E+06  2.496399E+04  8.626480E+04  3.947589E+04  7.709240E+04  4.884003E+00
         1   3  2.401191E+06 -1.424049E+02  5.040010E+04 -1.400660E+04  3.226572E+04 -7.252604E-01
         1   4  2.401009E+06  1.566431E+05  1.778815E+05 -2.969664E-09  1.219183E+05 -1.922072E-10
         1   5  2.384882E+06  2.496108E+04  8.626438E+04 -1.544850E-09  7.709240E+04 -4.564249E-10
         1   6  2.401190E+06 -1.427721E+02  5.040005E+04 -1.998210E-09  3.226572E+04 -5.356453E-11
         1   7  2.401018E+06  1.566593E+05  1.778838E+05 -9.296004E+04  1.219183E+05 -1.818835E+01
         1   8  2.384883E+06  2.496399E+04  8.626480E+04 -3.947589E+04  7.709240E+04 -4.884003E+00
         1   9  2.401191E+06 -1.424049E+02  5.040010E+04  1.400660E+04  3.226572E+04  7.252604E-01
         1  10  2.401002E+06  1.566553E+05  1.778560E+05  9.296004E+04  3.099955E-10 -1.044606E-10
         1  11  2.384877E+06  2.496241E+04  8.625367E+04  3.947589E+04 -6.864817E-10 -1.463589E-10
         1  12  2.401189E+06 -1.426830E+02  5.039815E+04 -1.400660E+04 -1.466358E-09  2.190928E-10
         1  13  2.400993E+06  1.566392E+05  1.778537E+05 -9.610252E-10  1.128682E-09 -7.935331E-11
         1  14  2.384875E+06  2.495949E+04  8.625326E+04  1.735516E-09 -2.561826E-10 -1.468763E-10
         1  15  2.401189E+06 -1.430503E+02  5.039810E+04  3.632006E-09  6.090278E-11  1.155321E-10
         1  16  2.401002E+06  1.566553E+05  1.778560E+05 -9.296004E+04 -5.534993E-10 -9.144696E-12
         1  17  2.384877E+06  2.496241E+04  8.625367E+04 -3.947589E+04  4.052945E-10 -1.095966E-10
         1  18  2.401189E+06 -1.426830E+02  5.039815E+04  1.400660E+04 -3.543139E-11 -5.033630E-12
         1  19  2.401018E+06  1.566593E+05  1.778838E+05  9.296004E+04 -1.219183E+05 -1.818835E+01
         1  20  2.384883E+06  2.496399E+04  8.626480E+04  3.947589E+04 -7.709240E+04 -4.884003E+00
         1  21  2.401191E+06 -1.424049E+02  5.040010E+04 -1.400660E+04 -3.226572E+04  7.252604E-01
         1  22  2.401009E+06  1.566431E+05  1.778815E+05 -1.622299E-09 -1.219183E+05  1.848176E-11
         1  23  2.384882E+06  2.496108E+04  8.626438E+04 -1.447889E-09 -7.709240E+04  1.552343E-10
         1  24  2.401190E+06 -1.427721E+02  5.040005E+04  6.045560E-10 -3.226572E+04  2.751311E-10
         1  25  2.401018E+06  1.566593E+05  1.778838E+05 -9.296004E+04 -1.219183E+05  1.818835E+01
         1  26  2.384883E+06  2.496399E+04  8.626480E+04 -3.947589E+04 -7.709240E+04  4.884003E+00
         1  27  2.401191E+06 -1.424049E+02  5.040010E+04  1.400660E+04 -3.226572E+04 -7.252604E-01
         2   1  2.394644E+06  5.907304E+03  4.067499E+04  2.353916E+03  2.533731E+04  9.571402E-02
         2   2  2.393119E+06  3.160637E+02  2.776771E+04  8.972160E+02  1.150733E+04  1.656900E-02
         2   3  2.394658E+06 -1.897135E+02  2.511065E+04 -5.594892E+02 -2.322537E+03  2.085344E-03
         2   4  2.394644E+06  5.907294E+03  4.067499E+04 -7.144728E-10  2.533731E+04  1.107950E-10
         2   5  2.393119E+06  3.160622E+02  2.776771E+04 -5.524242E-10  1.150733E+04 -1.944130E-10
         2   6  2.394658E+06 -1.897140E+02  2.511065E+04 -5.152925E-09 -2.322537E+03 -5.029704E-10
         2   7  2.394644E+06  5.907304E+03  4.067499E+04 -2.353916E+03  2.533731E+04 -9.571402E-02
         2   8  2.393119E+06  3.160637E+02  2.776771E+04 -8.972160E+02  1.150733E+04 -1.656900E-02
         2   9  2.394658E+06 -1.897135E+02  2.511065E+04  5.594892E+02 -2.322537E+03 -2.085345E-03
         2  10  2.394643E+06  5.907132E+03  4.067379E+04  2.353916E+03  3.185920E-10  2.468887E-10
         2  11  2.393119E+06  3.160283E+02  2.776746E+04  8.972160E+02  9.094987E-11 -4.406038E-10
         2  12  2.394658E+06 -1.897149E+02  2.511064E+04 -5.594892E+02 -1.043083E-09 -5.159157E-10
         2  13  2.394643E+06  5.907122E+03  4.067379E+04  5.509049E-09 -4.917593E-10  5.975223E-11
         2  14  2.393119E+06  3.160268E+02  2.776746E+04  4.462698E-09 -6.737650E-10 -3.286218E-10
         2  15  2.394658E+06 -1.897155E+02  2.511064E+04 -6.261553E-10  4.547928E-10 -4.083917E-10
         2  16  2.394643E+06  5.907132E+03  4.067379E+04 -2.353916E+03 -3.270215E-10 -1.101809E-10
         2  17  2.393119E+06  3.160283E+02  2.776746E+04 -8.972160E+02 -9.382009E-10 -1.665677E-10
         2  18  2.394658E+06 -1.897149E+02  2.511064E+04  5.594892E+02  1.788008E-10 -2.945983E-10
         2  19  2.394644E+06  5.907304E+03  4.067499E+04  2.353916E+03 -2.533731E+04 -9.571402E-02
         2  20  2.393119E+06  3.160637E+02  2.776771E+04  8.972160E+02 -1.150733E+04 -1.656900E-02
         2  21  2.394658E+06 -1.897135E+02  2.511065E+04 -5.594892E+02  2.322537E+03 -2.085345E-03
         2  22  2.394644E+06  5.907294E+03  4.067499E+04  3.587899E-10 -2.533731E+04  5.385819E-11
         2  23  2.393119E+06  3.160622E+02  2.776771E+04  5.666890E-09 -1.150733E+04 -3.877775E-10
         2  24  2.394658E+06 -1.897140E+02  2.511065E+04 -9.925359E-10  2.322537E+03 -3.058765E-10
         2  25  2.394644E+06  5.907304E+03  4.067499E+04 -2.353916E+03 -2.533731E+04  9.571402E-02
         2  26  2.393119E+06  3.160637E+02  2.776771E+04 -8.972160E+02 -1.150733E+04  1.656900E-02
         2  27  2.394658E+06 -1.897135E+02  2.511065E+04  5.594892E+02  2.322537E+03  2.085344E-03
         3   1  2.394926E+06 -3.537837E+02  2.668836E+04  1.517536E+03 -6.892037E+03 -1.678456E-02
         3   2  2.392777E+06  6.772541E+02  3.642300E+04 -9.294371E+02 -2.505273E+04  3.736802E-02
         3   3  2.394899E+06  9.373020E+03  5.986497E+04 -3.376352E+03 -4.321347E+04  2.341485E-01
         3   4  2.394926E+06 -3.537880E+02  2.668836E+04  8.762004E-10 -6.892037E+03 -2.166829E-10
         3   5  2.392777E+06  6.772525E+02  3.642300E+04  5.813945E-10 -2.505273E+04  6.025315E-10
         3   6  2.394899E+06  9.372999E+03  5.986497E+04  4.655689E-11 -4.321347E+04  4.318395E-11
         3   7  2.394926E+06 -3.537837E+02  2.668836E+04 -1.517536E+03 -6.892037E+03  1.678456E-02
         3   8  2.392777E+06  6.772541E+02  3.642300E+04  9.294371E+02 -2.505273E+04 -3.736802E-02
         3   9  2.394899E+06  9.373020E+03  5.986497E+04  3.376352E+03 -4.321347E+04 -2.341485E-01
         3  10  2.394926E+06 -3.537964E+02  2.668827E+04  1.517536E+03 -2.568634E-10 -4.670622E-10
         3  11  2.392776E+06  6.770864E+02  3.642182E+04 -9.294371E+02  1.508040E-10 -1.453290E-10
         3  12  2.394897E+06  9.372521E+03  5.986148E+04 -3.376352E+03  7.184649E-10  2.135121E-10
         3  13  2.394926E+06 -3.538007E+02  2.668827E+04 -1.675490E-09  3.840042E-10 -3.059796E-10
         3  14  2.392776E+06  6.770848E+02  3.642182E+04 -6.649282E-10  1.044321E-09 -3.295381E-11
         3  15  2.394897E+06  9.372500E+03  5.986148E+04 -1.254504E-09 -1.145375E-09  1.621989E-10
         3  16  2.394926E+06 -3.537964E+02  2.668827E+04 -1.517536E+03  3.175074E-10 -1.349437E-10
         3  17  2.392776E+06  6.770864E+02  3.642182E+04  9.294371E+02 -7.572663E-10 -9.047171E-11
         3  18  2.394897E+06  9.372521E+03  5.986148E+04  3.376352E+03 -5.703405E-10  4.009988E-11
         3  19  2.394926E+06 -3.537837E+02  2.668836E+04  1.517536E+03  6.892037E+03  1.678456E-02
         3  20  2.392777E+06  6.772541E+02  3.642300E+04 -9.294371E+02  2.505273E+04 -3.736802E-02
         3  21  2.394899E+06  9.373020E+03  5.986497E+04 -3.376352E+03  4.321347E+04 -2.341485E-01
         3  22  2.394926E+06 -3.537880E+02  2.668836E+04 -4.752581E-10  6.892037E+03 -4.426434E-10
         3  23  2.392777E+06  6.772525E+02  3.642300E+04 -1.355419E-09  2.505273E+04 -6.885291E-10
         3  24  2.394899E+06  9.372999E+03  5.986497E+04 -2.058711E-09  4.321347E+04  2.502223E-10
         3  25  2.394926E+06 -3.537837E+02  2.668836E+04 -1.517536E+03  6.892037E+03 -1.678456E-02
         3  26  2.392777E+06  6.772541E+02  3.642300E+04  9.294371E+02  2.505273E+04  3.736802E-02
         3  27  2.394899E+06  9.373020E+03  5.986497E+04  3.376352E+03  4.321347E+04  2.341485E-01
         4   1  2.405275E+06 -1.479350E+02  7.620608E+04  2.222051E+04 -5.346573E+04 -1.906546E+00
         4   2  2.379724E+06  3.923550E+04  1.340618E+05 -6.178158E+04 -1.231537E+05  1.221081E+01
         4   3  2.405011E+06  2.459259E+05  2.789999E+05 -1.457909E+05 -1.928426E+05  4.511951E+01
         4   4  2.405275E+06 -1.488593E+02  7.620595E+04 -7.792324E-10 -5.346573E+04 -2.502057E-10
         4   5  2.379720E+06  3.922835E+04  1.340608E+05  1.683312E-10 -1.231537E+05  8.279479E-11
         4   6  2.404989E+06  2.458861E+05  2.789942E+05 -2.063187E-10 -1.928426E+05  1.092355E-10
         4   7  2.405275E+06 -1.479350E+02  7.620608E+04 -2.222051E+04 -5.346573E+04  1.906546E+00
         4   8  2.379724E+06  3.923550E+04  1.340618E+05  6.178158E+04 -1.231537E+05 -1.221081E+01
         4   9  2.405011E+06  2.459259E+05  2.789999E+05  1.457909E+05 -1.928426E+05 -4.511951E+01
         4  10  2.405272E+06 -1.486987E+02  7.620073E+04  2.222051E+04  7.478058E-11  5.592369E-10
         4  11  2.379708E+06  3.923144E+04  1.340334E+05 -6.178158E+04  5.262970E-10  3.837873E-10
         4  12  2.404971E+06  2.459160E+05  2.789303E+05 -1.457909E+05  5.349683E-10  1.224433E-10
         4  13  2.405272E+06 -1.496230E+02  7.620060E+04 -1.348782E-10  1.058895E-10  2.643214E-10
         4  14  2.379704E+06  3.922430E+04  1.340324E+05  9.515360E-10 -3.754185E-10  2.971889E-10
         4  15  2.404949E+06  2.458762E+05  2.789246E+05  3.680648E-09 -5.908263E-10  1.209608E-10
         4  16  2.405272E+06 -1.486987E+02  7.620073E+04 -2.222051E+04 -1.625283E-10  1.867064E-11
         4  17  2.379708E+06  3.923144E+04  1.340334E+05  6.178158E+04  5.470053E-10  2.428748E-10
         4  18  2.404971E+06  2.459160E+05  2.789303E+05  1.457909E+05 -1.754832E-11  1.026433E-10
         4  19  2.405275E+06 -1.479350E+02  7.620608E+04  2.222051E+04  5.346573E+04  1.906546E+00
         4  20  2.379724E+06  3.923550E+04  1.340618E+05 -6.178158E+04  1.231537E+05 -1.221081E+01
         4  21  2.405011E+06  2.459259E+05  2.789999E+05 -1.457909E+05  1.928426E+05 -4.511951E+01
         4  22  2.405275E+06 -1.488593E+02  7.620595E+04 -1.128528E-09  5.346573E+04  7.819095E-10
         4  23  2.379720E+06  3.922835E+04  1.340608E+05 -1.727565E-10  1.231537E+05  5.182672E-10
         4  24  2.404989E+06  2.458861E+05  2.789942E+05 -8.445990E-11  1.928426E+05  1.027106E-10
         4  25  2.405275E+06 -1.479350E+02  7.620608E+04 -2.222051E+04  5.346573E+04 -1.906546E+00
         4  26  2.379724E+06  3.923550E+04  1.340618E+05  6.178158E+04  1.231537E+05  1.221081E+01
         4  27  2.405011E+06  2.459259E+05  2.789999E+05  1.457909E+05  1.928426E+05  4.511951E+01
         5   1 -8.305829E+05 -2.084138E+06 -8.315404E+05  5.714903E+05 -3.110388E+04 -3.157189E+05
         5   2 -5.262568E+05 -1.585048E+06 -5.222260E+05  4.435915E+05 -9.589455E+04 -1.585929E+05
         5   3 -3.726210E+05 -1.143618E+06 -3.530297E+05  4.267933E+05 -9.735378E+04 -1.332846E+03
         5   4 -2.114989E+05  4.153451E+05 -2.372689E+05  4.446771E+05 -3.090098E+04 -1.659847E+05
         5   5 -4.019077E+04  4.359325E+05 -1.136190E+05  3.889914E+05 -9.579272E+04 -1.069941E+05
         5   6 -2.228223E+03  4.159097E+05 -6.162097E+04  4.444478E+05 -9.741034E+04 -4.800483E+04
         5   7  4.072084E+05  2.920656E+06  3.566595E+05  3.173464E+05 -3.076002E+04 -1.564808E+04
         5   8  4.456349E+05  2.460821E+06  2.947887E+05  3.342075E+05 -9.570023E+04 -5.522972E+04
         5   9  3.680264E+05  1.977798E+06  2.296917E+05  4.621461E+05 -9.746945E+04 -9.479114E+04
         5  10 -8.306108E+05 -2.084246E+06 -8.317301E+05  5.714824E+05 -1.558416E-12  3.711649E-10
         5  11 -5.262734E+05 -1.585078E+06 -5.222906E+05  4.435793E+05 -8.944261E-11  1.471017E-09
         5  12 -3.726312E+05 -1.143621E+06 -3.530475E+05  4.267932E+05  1.235001E-09  2.763768E-09
         5  13 -2.115073E+05  4.153153E+05 -2.373225E+05  4.446730E+05  1.105683E-09 -1.644137E-11
         5  14 -4.020369E+04  4.359177E+05 -1.136577E+05  3.889831E+05  3.401751E-10  2.543182E-12
         5  15 -2.239028E+03  4.159047E+05 -6.164312E+04  4.444440E+05  1.641751E-09  6.243225E-11
         5  16  4.072073E+05  2.920656E+06  3.566572E+05  3.173460E+05 -7.725121E-10 -2.888539E-10
         5  17  4.456243E+05  2.460815E+06  2.947658E+05  3.342032E+05  4.728940E-10 -1.468208E-09
         5  18  3.680138E+05  1.977786E+06  2.296571E+05  4.621387E+05 -2.258266E-10 -2.835938E-09
         5  19 -8.305829E+05 -2.084138E+06 -8.315404E+05  5.714903E+05  3.110388E+04  3.157189E+05
         5  20 -5.262568E+05 -1.585048E+06 -5.222260E+05  4.435915E+05  9.589455E+04  1.585929E+05
         5  21 -3.726210E+05 -1.143618E+06 -3.530297E+05  4.267933E+05  9.735378E+04  1.332846E+03
         5  22 -2.114989E+05  4.153451E+05 -2.372689E+05  4.446771E+05  3.090098E+04  1.659847E+05
         5  23 -4.019077E+04  4.359325E+05 -1.136190E+05  3.889914E+05  9.579272E+04  1.069941E+05
         5  24 -2.228223E+03  4.159097E+05 -6.162097E+04  4.444478E+05  9.741034E+04  4.800483E+04
         5  25  4.072084E+05  2.920656E+06  3.566595E+05  3.173464E+05  3.076002E+04  1.564808E+04
         5  26  4.456349E+05  2.460821E+06  2.947887E+05  3.342075E+05  9.570023E+04  5.522972E+04
         5  27  3.680264E+05  1.977798E+06  2.296917E+05  4.621461E+05  9.746945E+04  9.479114E+04
         6   1 -3.030685E+05 -8.208272E+05 -2.775265E+05  4.467479E+05 -7.904740E+04 -2.458294E+03
         6   2 -1.828186E+05 -3.494367E+05 -1.625258E+05  3.876958E+05 -5.336986E+04  1.347141E+04
         6   3 -6.861341E+04  1.183374E+05 -5.950113E+04  4.435361E+05 -2.473321E+04  2.939207E+04
         6   4 -7.701149E+03  4.244370E+05 -4.624052E+04  4.453048E+05 -7.910231E+04 -4.010155E+04
         6   5  2.262667E+02  4.260621E+05 -2.277654E+04  3.878520E+05 -5.344535E+04 -2.876512E+04
         6   6  2.927019E+03  4.246689E+05 -8.075165E+03  4.452842E+05 -2.483150E+04 -1.744930E+04
         6   7  2.875780E+05  1.671207E+06  1.849853E+05  4.438575E+05 -7.915697E+04 -7.781838E+04
         6   8  1.832385E+05  1.202150E+06  1.169560E+05  3.880080E+05 -5.352079E+04 -7.105294E+04
         6   9  7.446372E+04  7.310976E+05  4.335610E+04  4.470332E+05 -2.493001E+04 -6.431302E+04
         6  10 -3.030752E+05 -8.208289E+05 -2.775383E+05  4.467478E+05  1.420491E-09  8.886889E-09
         6  11 -1.828217E+05 -3.494376E+05 -1.625315E+05  3.876963E+05  7.334215E-10 -2.113377E-09
         6  12 -6.861430E+04  1.183363E+05 -5.950390E+04  4.435367E+05  3.304969E-09 -1.342108E-08
         6  13 -7.708298E+03  4.244336E+05 -4.625529E+04  4.453022E+05 -3.964701E-11  1.252660E-11
         6  14  2.229783E+02  4.260604E+05 -2.278346E+04  3.878508E+05 -2.840168E-09 -1.016435E-10
         6  15  2.926276E+03  4.246684E+05 -8.076895E+03  4.452839E+05 -5.280576E-09 -4.191123E-11
         6  16  2.875696E+05  1.671199E+06  1.849622E+05  4.438526E+05  3.330110E-10 -8.930760E-09
         6  17  1.832341E+05  1.202144E+06  1.169412E+05  3.880050E+05  1.736751E-09  2.046532E-09
         6  18  7.446194E+04  7.310930E+05  4.334717E+04  4.470319E+05  3.257448E-09  1.324581E-08
         6  19 -3.030685E+05 -8.208272E+05 -2.775265E+05  4.467479E+05  7.904740E+04  2.458294E+03
         6  20 -1.828186E+05 -3.494367E+05 -1.625258E+05  3.876958E+05  5.336986E+04 -1.347141E+04
         6  21 -6.861341E+04  1.183374E+05 -5.950113E+04  4.435361E+05  2.473321E+04 -2.939207E+04
         6  22 -7.701149E+03  4.244370E+05 -4.624052E+04  4.453048E+05  7.910231E+04  4.010155E+04
         6  23  2.262667E+02  4.260621E+05 -2.277654E+04  3.878520E+05  5.344535E+04  2.876512E+04
         6  24  2.927019E+03  4.246689E+05 -8.075165E+03  4.452842E+05  2.483150E+04  1.744930E+04
         6  25  2.875780E+05  1.671207E+06  1.849853E+05  4.438575E+05  7.915697E+04  7.781838E+04
         6  26  1.832385E+05  1.202150E+06  1.169560E+05  3.880080E+05  5.352079E+04  7.105294E+04
         6  27  7.446372E+04  7.310976E+05  4.335610E+04  4.470332E+05  2.493001E+04  6.431302E+04
         7   1  4.632323E+03  4.330787E+05  5.005283E+03  4.422381E+05 -5.416355E+03  3.356409E+04
         7   2  1.221838E+05  8.970741E+05  1.145845E+05  3.957337E+05  1.360594E+04 -1.221885E+04
         7   3  2.645929E+05  1.373126E+06  2.600495E+05  4.627671E+05  6.726703E+03 -5.800698E+04
         7   4  1.874637E+03  4.264411E+05 -2.216031E+03  4.449939E+05 -5.523121E+03 -1.640041E+04
         7   5  6.717699E+03  4.239305E+05  1.020154E+04  3.882009E+05  1.358761E+04 -2.181828E+04
         7   6  2.944300E+04  4.262911E+05  3.051104E+04  4.449453E+05  6.789125E+03 -2.720721E+04
         7   7 -8.816945E+02  4.198089E+05 -9.427948E+03  4.477497E+05 -5.630330E+03 -6.636420E+04
         7   8 -1.087632E+05 -4.900378E+04 -9.419487E+04  3.806737E+05  1.356950E+04 -3.141049E+04
         7   9 -2.057711E+05 -5.197243E+05 -1.990883E+05  4.271499E+05  6.849843E+03  3.545833E+03
         7  10  4.631989E+03  4.330775E+05  5.003112E+03  4.422382E+05  3.388488E-09  1.497831E-08
         7  11  1.221835E+05  8.970738E+05  1.145839E+05  3.957339E+05  1.436926E-09  2.685757E-09
         7  12  2.645920E+05  1.373123E+06  2.600431E+05  4.627674E+05  3.597630E-10 -9.226670E-09
         7  13  1.874532E+03  4.264408E+05 -2.216593E+03  4.449938E+05 -4.938400E-09 -1.099129E-10
         7  14  6.717372E+03  4.239300E+05  1.020029E+04  3.882011E+05 -3.770150E-09 -1.287664E-10
         7  15  2.944275E+04  4.262903E+05  3.050956E+04  4.449454E+05 -8.015355E-10  1.410760E-12
         7  16 -8.829095E+02  4.198042E+05 -9.436277E+03  4.477494E+05  3.960941E-09 -1.513189E-08
         7  17 -1.087636E+05 -4.900489E+04 -9.419707E+04  3.806740E+05  5.846565E-10 -2.746410E-09
         7  18 -2.057711E+05 -5.197244E+05 -1.990884E+05  4.271499E+05  5.306787E-10  9.157359E-09
         7  19  4.632323E+03  4.330787E+05  5.005283E+03  4.422381E+05  5.416355E+03 -3.356409E+04
         7  20  1.221838E+05  8.970741E+05  1.145845E+05  3.957337E+05 -1.360594E+04  1.221885E+04
         7  21  2.645929E+05  1.373126E+06  2.600495E+05  4.627671E+05 -6.726703E+03  5.800698E+04
         7  22  1.874637E+03  4.264411E+05 -2.216031E+03  4.449939E+05  5.523121E+03  1.640041E+04
         7  23  6.717699E+03  4.239305E+05  1.020154E+04  3.882009E+05 -1.358761E+04  2.181828E+04
         7  24  2.944300E+04  4.262911E+05  3.051104E+04  4.449453E+05 -6.789125E+03  2.720721E+04
         7  25 -8.816945E+02  4.198089E+05 -9.427948E+03  4.477497E+05  5.630330E+03  6.636420E+04
         7  26 -1.087632E+05 -4.900378E+04 -9.419487E+04  3.806737E+05 -1.356950E+04  3.141049E+04
         7  27 -2.057711E+05 -5.197243E+05 -1.990883E+05  4.271499E+05 -6.849843E+03 -3.545833E+03
         8   1  9.782744E+05  5.464105E+05 -1.532982E+04  7.697526E+05  3.934848E+04  3.880104E+04
         8   2  1.005110E+06  4.938434E+05 -5.071847E+04  8.239797E+05  1.956179E+04  4.407974E+04
         8   3  1.094640E+06  4.819835E+05 -5.752165E+04  8.440983E+05  8.544199E+03  3.766222E+04
         8   4  1.433935E+06  7.830687E+05  1.177515E+05  9.552899E+05  6.022406E+04  5.444764E+04
         8   5  1.382551E+06  7.280996E+05  5.508191E+04  9.972916E+05  2.740704E+04  4.995727E+04
         8   6  1.396649E+06  7.166250E+05  3.226222E+04  1.005192E+06  3.358552E+03  3.377521E+04
         8   7  1.889816E+06  1.019775E+06  2.508134E+05  1.140956E+06  8.112058E+04  7.010438E+04
         8   8  1.760146E+06  9.624117E+05  1.608679E+05  1.170714E+06  3.525874E+04  5.583883E+04
         8   9  1.698757E+06  9.513316E+05  1.220361E+05  1.166377E+06 -1.830478E+03  2.988534E+04
         8  10  9.782723E+05  5.464085E+05 -1.533554E+04  7.697514E+05  3.838339E-09  2.061683E-09
         8  11  1.005109E+06  4.938412E+05 -5.072283E+04  8.239790E+05 -4.275898E-09 -4.131243E-09
         8  12  1.094640E+06  4.819819E+05 -5.752445E+04  8.440980E+05 -6.988490E-09 -5.227041E-09
         8  13  1.433930E+06  7.830645E+05  1.177391E+05  9.552872E+05 -2.214645E-09 -1.513244E-09
         8  14  1.382550E+06  7.280967E+05  5.507582E+04  9.972905E+05 -5.400467E-09 -3.859203E-09
         8  15  1.396648E+06  7.166238E+05  3.226006E+04  1.005191E+06 -2.788224E-09 -1.470001E-09
         8  16  1.889808E+06  1.019768E+06  2.507919E+05  1.140951E+06 -7.383578E-09 -5.043530E-09
         8  17  1.760144E+06  9.624081E+05  1.608598E+05  1.170713E+06 -7.398158E-09 -3.633992E-09
         8  18  1.698757E+06  9.513306E+05  1.220344E+05  1.166378E+06  1.939464E-09  2.174659E-09
         8  19  9.782744E+05  5.464105E+05 -1.532982E+04  7.697526E+05 -3.934848E+04 -3.880104E+04
         8  20  1.005110E+06  4.938434E+05 -5.071847E+04  8.239797E+05 -1.956179E+04 -4.407974E+04
         8  21  1.094640E+06  4.819835E+05 -5.752165E+04  8.440983E+05 -8.544199E+03 -3.766222E+04
         8  22  1.433935E+06  7.830687E+05  1.177515E+05  9.552899E+05 -6.022406E+04 -5.444764E+04
         8  23  1.382551E+06  7.280996E+05  5.508191E+04  9.972916E+05 -2.740704E+04 -4.995727E+04
         8  24  1.396649E+06  7.166250E+05  3.226222E+04  1.005192E+06 -3.358552E+03 -3.377521E+04
         8  25  1.889816E+06  1.019775E+06  2.508134E+05  1.140956E+06 -8.112058E+04 -7.010438E+04
         8  26  1.760146E+06  9.624117E+05  1.608679E+05  1.170714E+06 -3.525874E+04 -5.583883E+04
         8  27  1.698757E+06  9.513316E+05  1.220361E+05  1.166377E+06  1.830478E+03 -2.988534E+04
         9   1  1.113412E+06  5.221192E+05 -5.478779E+04  8.584586E+05  3.727616E+03  3.030592E+04
         9   2  1.146300E+06  5.589580E+05 -5.185919E+04  8.845017E+05 -2.388743E+02  2.381917E+04
         9   3  1.201474E+06  5.792138E+05 -4.338346E+04  9.038640E+05 -3.772442E+03  1.675151E+04
         9   4  1.396290E+06  7.197013E+05  2.585673E+04  9.989871E+05  1.552260E+03  2.867456E+04
         9   5  1.384280E+06  7.264896E+05  1.577087E+04  1.003412E+06 -3.063379E+03  2.170215E+04
         9   6  1.394691E+06  7.168337E+05  1.179085E+04  1.001154E+06 -7.245609E+03  1.414941E+04
         9   7  1.679259E+06  9.173296E+05  1.064941E+05  1.139589E+06 -6.244614E+02  2.704220E+04
         9   8  1.622322E+06  8.940530E+05  8.339518E+04  1.122373E+06 -5.889345E+03  1.958403E+04
         9   9  1.587946E+06  8.544734E+05  6.696060E+04  1.098477E+06 -1.072019E+04  1.154625E+04
         9  10  1.113411E+06  5.221182E+05 -5.478954E+04  8.584585E+05  3.100980E-09  1.751443E-09
         9  11  1.146300E+06  5.589574E+05 -5.186026E+04  8.845017E+05 -6.194020E-09 -3.270488E-09
         9  12  1.201474E+06  5.792135E+05 -4.338402E+04  9.038640E+05 -8.193256E-09 -4.379847E-09
         9  13  1.396289E+06  7.197004E+05  2.585518E+04  9.989871E+05 -2.876933E-09 -1.197177E-09
         9  14  1.384280E+06  7.264891E+05  1.576996E+04  1.003412E+06 -5.739267E-09 -3.315530E-09
         9  15  1.394691E+06  7.168334E+05  1.179038E+04  1.001154E+06 -2.481970E-09 -1.305032E-09
         9  16  1.679258E+06  9.173288E+05  1.064928E+05  1.139589E+06 -6.961905E-09 -4.419086E-09
         9  17  1.622322E+06  8.940526E+05  8.339439E+04  1.122373E+06 -6.452419E-09 -3.331884E-09
         9  18  1.587946E+06  8.544733E+05  6.696014E+04  1.098477E+06  2.661600E-09  1.700473E-09
         9  19  1.113412E+06  5.221192E+05 -5.478779E+04  8.584586E+05 -3.727616E+03 -3.030592E+04
         9  20  1.146300E+06  5.589580E+05 -5.185919E+04  8.845017E+05  2.388743E+02 -2.381917E+04
         9  21  1.201474E+06  5.792138E+05 -4.338346E+04  9.038640E+05  3.772442E+03 -1.675151E+04
         9  22  1.396290E+06  7.197013E+05  2.585673E+04  9.989871E+05 -1.552260E+03 -2.867456E+04
         9  23  1.384280E+06  7.264896E+05  1.577087E+04  1.003412E+06  3.063379E+03 -2.170215E+04
         9  24  1.394691E+06  7.168337E+05  1.179085E+04  1.001154E+06  7.245609E+03 -1.414941E+04
         9  25  1.679259E+06  9.173296E+05  1.064941E+05  1.139589E+06  6.244614E+02 -2.704220E+04
         9  26  1.622322E+06  8.940530E+05  8.339518E+04  1.122373E+06  5.889345E+03 -1.958403E+04
         9  27  1.587946E+06  8.544734E+05  6.696060E+04  1.098477E+06  1.072019E+04 -1.154625E+04
        10   1  1.232908E+06  6.029547E+05 -3.448567E+04  9.199665E+05 -4.229692E+03  1.360022E+04
        10   2  1.265968E+06  6.431949E+05 -2.087238E+04  9.444960E+05 -7.005337E+03  6.863311E+03
        10   3  1.319473E+06  6.647037E+05 -3.013205E+03  9.634342E+05 -9.774127E+03  1.151343E+02
        10   4  1.394624E+06  7.169856E+05  1.124927E+04  1.000904E+06 -7.544756E+03  1.111693E+04
        10   5  1.384448E+06  7.264342E+05  1.267045E+04  1.003638E+06 -1.033367E+04  4.370482E+03
        10   6  1.394718E+06  7.171527E+05  1.834812E+04  1.000780E+06 -1.311531E+04 -2.386902E+03
        10   7  1.556369E+06  8.310314E+05  5.698165E+04  1.081865E+06 -1.086099E+04  8.632771E+03
        10   8  1.502945E+06  8.096818E+05  4.621217E+04  1.062794E+06 -1.366289E+04  1.877001E+03
        10   9  1.469971E+06  7.696055E+05  3.970925E+04  1.038131E+06 -1.645707E+04 -4.889371E+03
        10  10  1.232908E+06  6.029545E+05 -3.448606E+04  9.199665E+05 -5.944037E-10  1.986021E-11
        10  11  1.265968E+06  6.431948E+05 -2.087256E+04  9.444961E+05  1.779201E-10 -6.985952E-10
        10  12  1.319473E+06  6.647037E+05 -3.013384E+03  9.634342E+05 -3.306804E-11 -8.747264E-10
        10  13  1.394624E+06  7.169855E+05  1.124893E+04  1.000904E+06 -9.011454E-10 -2.057107E-10
        10  14  1.384448E+06  7.264341E+05  1.267021E+04  1.003638E+06 -7.268589E-11 -4.049786E-10
        10  15  1.394718E+06  7.171526E+05  1.834779E+04  1.000780E+06 -1.058024E-09  5.936218E-11
        10  16  1.556368E+06  8.310313E+05  5.698129E+04  1.081865E+06  5.934657E-10 -6.321753E-10
        10  17  1.502945E+06  8.096818E+05  4.621181E+04  1.062794E+06  9.130965E-10 -1.396713E-10
        10  18  1.469971E+06  7.696054E+05  3.970870E+04  1.038131E+06  4.569722E-10  1.190772E-09
        10  19  1.232908E+06  6.029547E+05 -3.448567E+04  9.199665E+05  4.229692E+03 -1.360022E+04
        10  20  1.265968E+06  6.431949E+05 -2.087238E+04  9.444960E+05  7.005337E+03 -6.863311E+03
        10  21  1.319473E+06  6.647037E+05 -3.013205E+03  9.634342E+05  9.774127E+03 -1.151343E+02
        10  22  1.394624E+06  7.169856E+05  1.124927E+04  1.000904E+06  7.544756E+03 -1.111693E+04
        10  23  1.384448E+06  7.264342E+05  1.267045E+04  1.003638E+06  1.033367E+04 -4.370482E+03
        10  24  1.394718E+06  7.171527E+05  1.834812E+04  1.000780E+06  1.311531E+04  2.386902E+03
        10  25  1.556369E+06  8.310314E+05  5.698165E+04  1.081865E+06  1.086099E+04 -8.632771E+03
        10  26  1.502945E+06  8.096818E+05  4.621217E+04  1.062794E+06  1.366289E+04 -1.877001E+03
        10  27  1.469971E+06  7.696055E+05  3.970925E+04  1.038131E+06  1.645707E+04  4.889371E+03
        11   1  1.349927E+06  6.890065E+05  1.103414E+04  9.809225E+05 -1.132591E+04 -3.811816E+03
        11   2  1.385077E+06  7.258319E+05  3.856821E+04  1.002914E+06 -2.476397E+04 -1.843649E+04
        11   3  1.447004E+06  7.520831E+05  8.151464E+04  1.016477E+06 -3.839274E+04 -3.280978E+04
        11   4  1.394962E+06  7.169000E+05  2.299853E+04  1.001688E+06 -1.472085E+04 -6.353931E+03
        11   5  1.383840E+06  7.262172E+05  3.833927E+04  1.002895E+06 -2.787781E+04 -2.076821E+04
        11   6  1.399433E+06  7.248999E+05  6.885069E+04  9.956736E+05 -4.122402E+04 -3.493025E+04
        11   7  1.439999E+06  7.447940E+05  3.496264E+04  1.022455E+06 -1.811607E+04 -8.896225E+03
        11   8  1.382604E+06  7.266025E+05  3.811039E+04  1.002877E+06 -3.099162E+04 -2.309992E+04
        11   9  1.351866E+06  6.977175E+05  5.618660E+04  9.748722E+05 -4.405500E+04 -3.705055E+04
        11  10  1.349926E+06  6.890065E+05  1.103387E+04  9.809225E+05  1.516941E-09  1.037329E-09
        11  11  1.385076E+06  7.258314E+05  3.856643E+04  1.002913E+06  8.097677E-11 -1.865989E-09
        11  12  1.447002E+06  7.520816E+05  8.150986E+04  1.016476E+06  8.292532E-10 -1.867013E-09
        11  13  1.394962E+06  7.168999E+05  2.299805E+04  1.001688E+06 -1.748905E-09 -3.497091E-10
        11  14  1.383839E+06  7.262165E+05  3.833701E+04  1.002895E+06 -2.201977E-09 -1.208930E-09
        11  15  1.399431E+06  7.248982E+05  6.884522E+04  9.956724E+05 -3.140263E-09  2.897114E-10
        11  16  1.439999E+06  7.447938E+05  3.496188E+04  1.022455E+06 -3.728773E-09 -1.625304E-09
        11  17  1.382602E+06  7.266016E+05  3.810759E+04  1.002877E+06 -6.753350E-10 -5.448957E-10
        11  18  1.351864E+06  6.977156E+05  5.618039E+04  9.748709E+05  2.717698E-09  2.801521E-09
        11  19  1.349927E+06  6.890065E+05  1.103414E+04  9.809225E+05  1.132591E+04  3.811816E+03
        11  20  1.385077E+06  7.258319E+05  3.856821E+04  1.002914E+06  2.476397E+04  1.843649E+04
        11  21  1.447004E+06  7.520831E+05  8.151464E+04  1.016477E+06  3.839274E+04  3.280978E+04
        11  22  1.394962E+06  7.169000E+05  2.299853E+04  1.001688E+06  1.472085E+04  6.353931E+03
        11  23  1.383840E+06  7.262172E+05  3.833927E+04  1.002895E+06  2.787781E+04  2.076821E+04
        11  24  1.399433E+06  7.248999E+05  6.885069E+04  9.956736E+05  4.122402E+04  3.493025E+04
        11  25  1.439999E+06  7.447940E+05  3.496264E+04  1.022455E+06  1.811607E+04  8.896225E+03
        11  26  1.382604E+06  7.266025E+05  3.811039E+04  1.002877E+06  3.099162E+04  2.309992E+04
        11  27  1.351866E+06  6.977175E+05  5.618660E+04  9.748722E+05  4.405500E+04  3.705055E+04
        12   1  1.442130E+06  8.044022E+05  1.093767E+05  1.061033E+06 -4.524566E+04 -4.109292E+04
        12   2  1.551519E+06  7.616336E+05  1.877697E+05  1.029659E+06 -1.139632E+05 -9.441457E+04
        12   3  1.809528E+06  8.753898E+05  3.814267E+05  9.134239E+05 -1.864329E+05 -1.427418E+05
        12   4  1.400686E+06  7.161707E+05  8.749858E+04  1.012884E+06 -4.935569E+04 -4.416628E+04
        12   5  1.378787E+06  7.309727E+05  1.522212E+05  9.859426E+05 -1.125035E+05 -9.333810E+04
        12   6  1.504295E+06  9.011183E+05  3.274147E+05  8.741458E+05 -1.793808E+05 -1.375296E+05
        12   7  1.359246E+06  6.279516E+05  6.562045E+04  9.647409E+05 -5.346544E+04 -4.723868E+04
        12   8  1.206092E+06  7.003152E+05  1.166726E+05  9.422326E+05 -1.110443E+05 -9.226165E+04
        12   9  1.199201E+06  9.268789E+05  2.734112E+05  8.348597E+05 -1.723336E+05 -1.323160E+05
        12  10  1.442127E+06  8.043999E+05  1.093697E+05  1.061032E+06  4.654288E-09  2.691502E-09
        12  11  1.551503E+06  7.616205E+05  1.877287E+05  1.029650E+06 -1.571138E-09 -5.366555E-10
        12  12  1.809485E+06  8.753587E+05  3.813235E+05  9.134025E+05 -2.710855E-09 -1.730243E-09
        12  13  1.400683E+06  7.161680E+05  8.749037E+04  1.012883E+06 -1.470156E-09  5.423056E-10
        12  14  1.378771E+06  7.309600E+05  1.521812E+05  9.859342E+05 -3.935187E-09 -1.068388E-09
        12  15  1.504255E+06  9.010894E+05  3.273190E+05  8.741259E+05 -4.369195E-10 -5.988637E-10
        12  16  1.359242E+06  6.279485E+05  6.561091E+04  9.647388E+05 -1.159845E-09 -1.644589E-09
        12  17  1.206077E+06  7.003027E+05  1.166336E+05  9.422243E+05 -6.383864E-10 -1.630052E-09
        12  18  1.199165E+06  9.268522E+05  2.733228E+05  8.348414E+05  1.370081E-09  6.150401E-10
        12  19  1.442130E+06  8.044022E+05  1.093767E+05  1.061033E+06  4.524566E+04  4.109292E+04
        12  20  1.551519E+06  7.616336E+05  1.877697E+05  1.029659E+06  1.139632E+05  9.441457E+04
        12  21  1.809528E+06  8.753898E+05  3.814267E+05  9.134239E+05  1.864329E+05  1.427418E+05
        12  22  1.400686E+06  7.161707E+05  8.749858E+04  1.012884E+06  4.935569E+04  4.416628E+04
        12  23  1.378787E+06  7.309727E+05  1.522212E+05  9.859426E+05  1.125035E+05  9.333810E+04
        12  24  1.504295E+06  9.011183E+05  3.274147E+05  8.741458E+05  1.793808E+05  1.375296E+05
        12  25  1.359246E+06  6.279516E+05  6.562045E+04  9.647409E+05  5.346544E+04  4.723868E+04
        12  26  1.206092E+06  7.003152E+05  1.166726E+05  9.422326E+05  1.110443E+05  9.226165E+04
        12  27  1.199201E+06  9.268789E+05  2.734112E+05  8.348597E+05  1.723336E+05  1.323160E+05
        13   1  1.202102E+06  2.628996E+04  2.809225E+04  1.784904E+04  1.915950E+04  5.498202E-01
        13   2  1.200215E+06  8.950521E+03  1.461269E+04  9.296301E+03  1.170761E+04  1.749848E-01
        13   3  1.202116E+06  2.890322E+03  8.797621E+03  7.436128E+02  4.255730E+03  5.087931E-03
        13   4  1.202102E+06  2.628936E+04  2.809216E+04 -1.388226E-09  1.915950E+04  1.032923E-10
        13   5  1.200215E+06  8.950359E+03  1.461266E+04 -2.617423E-09  1.170761E+04  2.150426E-10
        13   6  1.202116E+06  2.890321E+03  8.797621E+03 -1.990499E-09  4.255730E+03  1.106045E-11
        13   7  1.202102E+06  2.628996E+04  2.809225E+04 -1.784904E+04  1.915950E+04 -5.498202E-01
        13   8  1.200215E+06  8.950521E+03  1.461269E+04 -9.296301E+03  1.170761E+04 -1.749848E-01
        13   9  1.202116E+06  2.890322E+03  8.797621E+03 -7.436128E+02  4.255730E+03 -5.087931E-03
        13  10  1.202102E+06  2.628986E+04  2.809156E+04  1.784904E+04 -1.817482E-10  6.605494E-12
        13  11  1.200215E+06  8.950484E+03  1.461243E+04  9.296301E+03 -1.183516E-09 -1.425054E-11
        13  12  1.202116E+06  2.890317E+03  8.797587E+03  7.436128E+02 -8.032074E-10 -8.873728E-11
        13  13  1.202101E+06  2.628926E+04  2.809148E+04  1.625445E-09  3.970807E-10 -7.322332E-12
        13  14  1.200215E+06  8.950322E+03  1.461241E+04  1.153810E-09  2.153834E-10 -2.013704E-11
        13  15  1.202116E+06  2.890316E+03  8.797587E+03 -2.437825E-10 -3.874551E-10 -3.144458E-11
        13  16  1.202102E+06  2.628986E+04  2.809156E+04 -1.784904E+04  1.961118E-10 -1.413451E-11
        13  17  1.200215E+06  8.950484E+03  1.461243E+04 -9.296301E+03  1.443605E-09 -5.143325E-11
        13  18  1.202116E+06  2.890317E+03  8.797587E+03 -7.436128E+02  6.895747E-10 -6.965263E-13
        13  19  1.202102E+06  2.628996E+04  2.809225E+04  1.784904E+04 -1.915950E+04 -5.498202E-01
        13  20  1.200215E+06  8.950521E+03  1.461269E+04  9.296301E+03 -1.170761E+04 -1.749848E-01
        13  21  1.202116E+06  2.890322E+03  8.797621E+03  7.436128E+02 -4.255730E+03 -5.087931E-03
        13  22  1.202102E+06  2.628936E+04  2.809216E+04  1.095116E-09 -1.915950E+04 -1.112785E-10
        13  23  1.200215E+06  8.950359E+03  1.461266E+04  3.022586E-09 -1.170761E+04 -2.509455E-10
        13  24  1.202116E+06  2.890321E+03  8.797621E+03  4.211969E-10 -4.255730E+03 -8.033143E-11
        13  25  1.202102E+06  2.628996E+04  2.809225E+04 -1.784904E+04 -1.915950E+04  5.498202E-01
        13  26  1.200215E+06  8.950521E+03  1.461269E+04 -9.296301E+03 -1.170761E+04  1.749848E-01
        13  27  1.202116E+06  2.890322E+03  8.797621E+03 -7.436128E+02 -4.255730E+03  5.087931E-03
        14   1  1.201438E+06  2.144621E+03  7.309788E+03  1.413714E+03  3.017645E+03  6.858833E-03
        14   2  1.201069E+06  7.178492E+02  6.001570E+03  6.631482E+02  2.363709E+01  2.520117E-05
        14   3  1.201438E+06  6.865300E+02  6.988638E+03 -8.740556E+01 -2.970328E+03  4.174106E-04
        14   4  1.201438E+06  2.144617E+03  7.309787E+03 -2.769792E-09  3.017645E+03 -1.509973E-10
        14   5  1.201069E+06  7.178483E+02  6.001570E+03 -1.246127E-09  2.363709E+01 -3.350830E-10
        14   6  1.201438E+06  6.865300E+02  6.988638E+03 -2.087901E-09 -2.970328E+03 -5.081004E-10
        14   7  1.201438E+06  2.144621E+03  7.309788E+03 -1.413714E+03  3.017645E+03 -6.858833E-03
        14   8  1.201069E+06  7.178492E+02  6.001570E+03 -6.631482E+02  2.363709E+01 -2.520183E-05
        14   9  1.201438E+06  6.865300E+02  6.988638E+03  8.740556E+01 -2.970328E+03 -4.174116E-04
        14  10  1.201438E+06  2.144619E+03  7.309771E+03  1.413714E+03 -4.462875E-10 -2.175881E-11
        14  11  1.201069E+06  7.178492E+02  6.001570E+03  6.631482E+02 -1.001754E-09 -5.444916E-11
        14  12  1.201438E+06  6.865277E+02  6.988622E+03 -8.740556E+01  3.078408E-11 -3.921347E-10
        14  13  1.201438E+06  2.144615E+03  7.309770E+03  4.121570E-10  1.252104E-10 -4.314287E-11
        14  14  1.201069E+06  7.178483E+02  6.001570E+03  1.380163E-09  6.639593E-10 -1.699675E-10
        14  15  1.201438E+06  6.865277E+02  6.988622E+03 -1.940309E-10  6.368356E-10 -4.166324E-10
        14  16  1.201438E+06  2.144619E+03  7.309771E+03 -1.413714E+03  7.403687E-10 -7.544364E-11
        14  17  1.201069E+06  7.178492E+02  6.001570E+03 -6.631482E+02  3.019949E-10 -3.128207E-10
        14  18  1.201438E+06  6.865277E+02  6.988622E+03  8.740556E+01 -3.823616E-10 -4.111941E-10
        14  19  1.201438E+06  2.144621E+03  7.309788E+03  1.413714E+03 -3.017645E+03 -6.858833E-03
        14  20  1.201069E+06  7.178492E+02  6.001570E+03  6.631482E+02 -2.363709E+01 -2.520140E-05
        14  21  1.201438E+06  6.865300E+02  6.988638E+03 -8.740556E+01  2.970328E+03 -4.174114E-04
        14  22  1.201438E+06  2.144617E+03  7.309787E+03 -1.305147E-09 -3.017645E+03  7.315849E-11
        14  23  1.201069E+06  7.178483E+02  6.001570E+03  2.141897E-09 -2.363709E+01  2.872913E-12
        14  24  1.201438E+06  6.865300E+02  6.988638E+03 -5.309107E-10  2.970328E+03 -3.172326E-10
        14  25  1.201438E+06  2.144621E+03  7.309788E+03 -1.413714E+03 -3.017645E+03  6.858833E-03
        14  26  1.201069E+06  7.178492E+02  6.001570E+03 -6.631482E+02 -2.363709E+01  2.520144E-05
        14  27  1.201438E+06  6.865300E+02  6.988638E+03  8.740556E+01  2.970328E+03  4.174109E-04
        15   1  1.201702E+06  8.376243E+02  8.289827E+03  3.368553E+02 -4.262348E+03 -2.308409E-03
        15   2  1.200736E+06  2.676013E+03  1.318575E+04 -2.338145E+03 -1.086482E+04  4.084279E-02
        15   3  1.201695E+06  8.782601E+03  2.344119E+04 -5.013180E+03 -1.746744E+04  1.407873E-01
        15   4  1.201702E+06  8.376241E+02  8.289827E+03 -2.441460E-09 -4.262348E+03 -4.758305E-10
        15   5  1.200736E+06  2.676002E+03  1.318574E+04 -3.453641E-10 -1.086482E+04 -1.305760E-10
        15   6  1.201695E+06  8.782554E+03  2.344118E+04 -4.842508E-10 -1.746744E+04  3.391384E-10
        15   7  1.201702E+06  8.376243E+02  8.289827E+03 -3.368553E+02 -4.262348E+03  2.308408E-03
        15   8  1.200736E+06  2.676013E+03  1.318575E+04  2.338145E+03 -1.086482E+04 -4.084279E-02
        15   9  1.201695E+06  8.782601E+03  2.344119E+04  5.013180E+03 -1.746744E+04 -1.407873E-01
        15  10  1.201702E+06  8.376195E+02  8.289793E+03  3.368553E+02 -6.958148E-10 -3.592759E-10
        15  11  1.200736E+06  2.675981E+03  1.318552E+04 -2.338145E+03 -4.348024E-10 -2.002925E-11
        15  12  1.201694E+06  8.782519E+03  2.344061E+04 -5.013180E+03  5.856884E-10 -2.059441E-10
        15  13  1.201702E+06  8.376192E+02  8.289793E+03 -1.431736E-10 -6.469208E-10 -4.011809E-10
        15  14  1.200736E+06  2.675971E+03  1.318552E+04 -2.610807E-10  8.790582E-10 -8.844223E-11
        15  15  1.201694E+06  8.782472E+03  2.344061E+04  1.681804E-10 -7.578966E-10  2.178159E-11
        15  16  1.201702E+06  8.376195E+02  8.289793E+03 -3.368553E+02  1.175612E-09 -4.144656E-10
        15  17  1.200736E+06  2.675981E+03  1.318552E+04  2.338145E+03  1.649004E-10 -1.311876E-10
        15  18  1.201694E+06  8.782519E+03  2.344061E+04  5.013180E+03 -1.574217E-10  2.201166E-10
        15  19  1.201702E+06  8.376243E+02  8.289827E+03  3.368553E+02  4.262348E+03  2.308409E-03
        15  20  1.200736E+06  2.676013E+03  1.318575E+04 -2.338145E+03  1.086482E+04 -4.084279E-02
        15  21  1.201695E+06  8.782601E+03  2.344119E+04 -5.013180E+03  1.746744E+04 -1.407873E-01
        15  22  1.201702E+06  8.376241E+02  8.289827E+03 -6.228368E-10  4.262348E+03 -3.289822E-10
        15  23  1.200736E+06  2.676002E+03  1.318574E+04  1.157434E-09  1.086482E+04 -7.641918E-11
        15  24  1.201695E+06  8.782554E+03  2.344118E+04 -5.557398E-10  1.746744E+04 -3.019328E-10
        15  25  1.201702E+06  8.376243E+02  8.289827E+03 -3.368553E+02  4.262348E+03 -2.308409E-03
        15  26  1.200736E+06  2.676013E+03  1.318575E+04  2.338145E+03  1.086482E+04  4.084279E-02
        15  27  1.201695E+06  8.782601E+03  2.344119E+04  5.013180E+03  1.746744E+04  1.407873E-01
        16   1  1.204638E+06  1.178537E+04  3.111889E+04 -2.515377E+03 -2.153425E+04  8.708679E-02
        16   2  1.197029E+06  3.631653E+04  5.703828E+04 -3.718472E+04 -5.064957E+04  3.028073E+00
        16   3  1.204586E+06  1.063861E+05  1.132735E+05 -7.185492E+04 -7.976505E+04  9.214966E+00
        16   4  1.204638E+06  1.178536E+04  3.111889E+04 -1.026968E-09 -2.153425E+04  4.069284E-10
        16   5  1.197028E+06  3.631393E+04  5.703791E+04 -1.010683E-10 -5.064957E+04  1.349034E-10
        16   6  1.204581E+06  1.063764E+05  1.132721E+05 -7.956420E-10 -7.976504E+04  2.234583E-11
        16   7  1.204638E+06  1.178537E+04  3.111889E+04  2.515377E+03 -2.153425E+04 -8.708679E-02
        16   8  1.197029E+06  3.631653E+04  5.703828E+04  3.718472E+04 -5.064957E+04 -3.028073E+00
        16   9  1.204586E+06  1.063861E+05  1.132735E+05  7.185492E+04 -7.976505E+04 -9.214966E+00
        16  10  1.204637E+06  1.178524E+04  3.111802E+04 -2.515377E+03  1.959310E-10 -3.151830E-10
        16  11  1.197027E+06  3.631584E+04  5.703347E+04 -3.718472E+04 -2.022813E-10 -2.611706E-10
        16  12  1.204579E+06  1.063843E+05  1.132615E+05 -7.185492E+04 -1.000244E-09 -7.552361E-11
        16  13  1.204637E+06  1.178523E+04  3.111802E+04  1.010635E-10  1.684417E-11  3.183425E-11
        16  14  1.197025E+06  3.631325E+04  5.703309E+04 -1.094847E-10 -3.226018E-10  4.758331E-11
        16  15  1.204574E+06  1.063747E+05  1.132601E+05 -1.769215E-10  6.362703E-10  1.191061E-11
        16  16  1.204637E+06  1.178524E+04  3.111802E+04  2.515377E+03 -9.775750E-10  3.801250E-10
        16  17  1.197027E+06  3.631584E+04  5.703347E+04  3.718472E+04 -1.768025E-10  3.806252E-10
        16  18  1.204579E+06  1.063843E+05  1.132615E+05  7.185492E+04  4.436951E-10  1.133651E-10
        16  19  1.204638E+06  1.178537E+04  3.111889E+04 -2.515377E+03  2.153425E+04 -8.708679E-02
        16  20  1.197029E+06  3.631653E+04  5.703828E+04 -3.718472E+04  5.064957E+04 -3.028073E+00
        16  21  1.204586E+06  1.063861E+05  1.132735E+05 -7.185492E+04  7.976505E+04 -9.214966E+00
        16  22  1.204638E+06  1.178536E+04  3.111889E+04 -2.041296E-09  2.153425E+04 -3.491715E-10
        16  23  1.197028E+06  3.631393E+04  5.703791E+04 -1.263302E-10  5.064957E+04 -4.217919E-11
        16  24  1.204581E+06  1.063764E+05  1.132721E+05 -6.652182E-10  7.976504E+04  6.824139E-12
        16  25  1.204638E+06  1.178537E+04  3.111889E+04  2.515377E+03  2.153425E+04  8.708679E-02
        16  26  1.197029E+06  3.631653E+04  5.703828E+04  3.718472E+04  5.064957E+04  3.028073E+00
        16  27  1.204586E+06  1.063861E+05  1.132735E+05  7.185492E+04  7.976505E+04  9.214966E+00
        17   1 -4.243565E+05 -9.359154E+05 -4.403163E+05  2.436865E+05 -1.004128E+04 -2.358672E+05
        17   2 -2.147250E+05 -8.234745E+05 -2.593833E+05  1.536007E+05 -3.263699E+04 -1.367828E+05
        17   3 -1.451446E+05 -7.589303E+05 -1.780076E+05  8.143842E+04 -3.738498E+04 -3.767690E+04
        17   4 -2.386061E+05 -1.839745E+05 -2.636249E+05  9.256951E+04 -9.972531E+03 -1.804263E+05
        17   5 -5.696807E+04 -1.627378E+05 -1.314656E+05  8.356400E+04 -3.261154E+04 -1.127062E+05
        17   6 -9.870177E+03 -1.839175E+05 -7.701378E+04  9.249892E+04 -3.738563E+04 -4.498413E+04
        17   7 -5.280842E+04  5.685432E+05 -8.694837E+04 -5.873185E+04 -9.930869E+03 -1.249185E+05
        17   8  1.007816E+05  4.984307E+05 -3.563520E+03  1.345097E+04 -3.259155E+04 -8.860443E+04
        17   9  1.253867E+05  3.914195E+05  2.396834E+04  1.035699E+05 -3.738653E+04 -5.229791E+04
        17  10 -4.243716E+05 -9.359752E+05 -4.404212E+05  2.436846E+05 -8.138164E-10 -1.062453E-10
        17  11 -2.147312E+05 -8.234949E+05 -2.594205E+05  1.535971E+05 -5.339570E-10  1.247686E-10
        17  12 -1.451465E+05 -7.589322E+05 -1.780129E+05  8.143729E+04  2.998110E-10  3.404922E-10
        17  13 -2.386150E+05 -1.840095E+05 -2.636863E+05  9.256806E+04  5.123671E-10  1.581273E-11
        17  14 -5.697262E+04 -1.627517E+05 -1.314915E+05  8.356104E+04  2.708360E-10 -4.894083E-12
        17  15 -9.872221E+03 -1.839200E+05 -7.702021E+04  9.249757E+04 -4.943443E-10  2.543021E-11
        17  16 -5.281271E+04  5.685264E+05 -8.697785E+04 -5.873285E+04 -1.094880E-09  1.032641E-10
        17  17  1.007784E+05  4.984220E+05 -3.580258E+03  1.344865E+04 -1.369092E-10 -1.556096E-10
        17  18  1.253844E+05  3.914162E+05  2.396058E+04  1.035683E+05  3.841259E-10 -3.754643E-10
        17  19 -4.243565E+05 -9.359154E+05 -4.403163E+05  2.436865E+05  1.004128E+04  2.358672E+05
        17  20 -2.147250E+05 -8.234745E+05 -2.593833E+05  1.536007E+05  3.263699E+04  1.367828E+05
        17  21 -1.451446E+05 -7.589303E+05 -1.780076E+05  8.143842E+04  3.738498E+04  3.767690E+04
        17  22 -2.386061E+05 -1.839745E+05 -2.636249E+05  9.256951E+04  9.972531E+03  1.804263E+05
        17  23 -5.696807E+04 -1.627378E+05 -1.314656E+05  8.356400E+04  3.261154E+04  1.127062E+05
        17  24 -9.870177E+03 -1.839175E+05 -7.701378E+04  9.249892E+04  3.738563E+04  4.498413E+04
        17  25 -5.280842E+04  5.685432E+05 -8.694837E+04 -5.873185E+04  9.930869E+03  1.249185E+05
        17  26  1.007816E+05  4.984307E+05 -3.563520E+03  1.345097E+04  3.259155E+04  8.860443E+04
        17  27  1.253867E+05  3.914195E+05  2.396834E+04  1.035699E+05  3.738653E+04  5.229791E+04
        18   1 -1.330522E+05 -6.928752E+05 -1.521914E+05  9.858987E+04 -3.457165E+04 -2.885034E+04
        18   2 -1.033545E+05 -6.012534E+05 -1.180292E+05  8.368345E+04 -3.043476E+04 -2.742723E+03
        18   3 -8.626222E+04 -5.161781E+05 -1.040260E+05  8.792617E+04 -2.443617E+04  2.336630E+04
        18   4 -1.165104E+04 -1.758121E+05 -6.247905E+04  9.277213E+04 -3.457147E+04 -3.448814E+04
        18   5 -3.173864E+03 -1.728080E+05 -4.576072E+04  8.319574E+04 -3.043766E+04 -1.164118E+04
        18   6 -6.729587E+03 -1.757865E+05 -4.692574E+04  9.276842E+04 -2.444236E+04  1.120367E+04
        18   7  1.097358E+05  3.415136E+05  2.722415E+04  8.694933E+04 -3.457118E+04 -4.013050E+04
        18   8  9.699712E+04  2.558186E+05  2.650224E+04  8.270765E+04 -3.044055E+04 -2.054558E+04
        18   9  7.279714E+04  1.647197E+05  1.017143E+04  9.761340E+04 -2.444873E+04 -9.654227E+02
        18  10 -1.330537E+05 -6.928765E+05 -1.521952E+05  9.858907E+04  1.371243E-10 -9.129847E-10
        18  11 -1.033555E+05 -6.012536E+05 -1.180310E+05  8.368338E+04  6.096720E-10 -2.777764E-10
        18  12 -8.626301E+04 -5.161788E+05 -1.040281E+05  8.792663E+04 -4.136107E-10  2.545417E-10
        18  13 -1.165265E+04 -1.758137E+05 -6.248353E+04  9.277117E+04  1.024395E-10  5.755188E-12
        18  14 -3.174895E+03 -1.728083E+05 -4.576271E+04  8.319545E+04  5.881534E-10 -4.355059E-12
        18  15 -6.730263E+03 -1.757868E+05 -4.692710E+04  9.276864E+04 -9.286144E-10  4.518297E-11
        18  16  1.097341E+05  3.415115E+05  2.721888E+04  8.694822E+04 -4.055589E-10  8.973545E-10
        18  17  9.699602E+04  2.558179E+05  2.649970E+04  8.270714E+04 -5.879327E-10  2.013429E-10
        18  18  7.279650E+04  1.647196E+05  1.017031E+04  9.761338E+04 -6.560158E-10 -3.660077E-10
        18  19 -1.330522E+05 -6.928752E+05 -1.521914E+05  9.858987E+04  3.457165E+04  2.885034E+04
        18  20 -1.033545E+05 -6.012534E+05 -1.180292E+05  8.368345E+04  3.043476E+04  2.742723E+03
        18  21 -8.626222E+04 -5.161781E+05 -1.040260E+05  8.792617E+04  2.443617E+04 -2.336630E+04
        18  22 -1.165104E+04 -1.758121E+05 -6.247905E+04  9.277213E+04  3.457147E+04  3.448814E+04
        18  23 -3.173864E+03 -1.728080E+05 -4.576072E+04  8.319574E+04  3.043766E+04  1.164118E+04
        18  24 -6.729587E+03 -1.757865E+05 -4.692574E+04  9.276842E+04  2.444236E+04 -1.120367E+04
        18  25  1.097358E+05  3.415136E+05  2.722415E+04  8.694933E+04  3.457118E+04  4.013050E+04
        18  26  9.699712E+04  2.558186E+05  2.650224E+04  8.270765E+04  3.044055E+04  2.054558E+04
        18  27  7.279714E+04  1.647197E+05  1.017143E+04  9.761340E+04  2.444873E+04  9.654227E+02
        19   1 -7.196693E+04 -4.633667E+05 -9.995067E+04  9.856423E+04 -2.046351E+04  3.074200E+04
        19   2 -7.883854E+04 -3.621414E+05 -1.142248E+05  4.168187E+04 -1.274185E+04  7.536399E+04
        19   3 -1.650067E+05 -2.865600E+05 -1.773821E+05  4.207553E+03 -3.093223E+03  1.199887E+05
        19   4 -5.809820E+03 -1.800191E+05 -5.257419E+04  9.281738E+04 -2.047072E+04  1.889913E+04
        19   5 -3.302675E+04 -1.674859E+05 -8.019896E+04  8.315028E+04 -1.274686E+04  6.012645E+04
        19   6 -1.389473E+05 -1.800190E+05 -1.543461E+05  9.289514E+04 -3.089539E+03  1.013513E+05
        19   7  6.034330E+04  1.034081E+05 -5.199634E+03  8.706780E+04 -2.047770E+04  7.051038E+03
        19   8  1.278955E+04  2.721092E+04 -4.617272E+04  1.246321E+05 -1.275391E+04  4.488427E+04
        19   9 -1.128588E+05 -7.344960E+04 -1.313052E+05  1.815982E+05 -3.091183E+03  8.271083E+04
        19  10 -7.196763E+04 -4.633678E+05 -9.995324E+04  9.856474E+04 -8.442858E-11 -1.282245E-10
        19  11 -7.884024E+04 -3.621476E+05 -1.142357E+05  4.168264E+04 -5.500564E-10  1.314873E-10
        19  12 -1.650106E+05 -2.865755E+05 -1.774092E+05  4.207852E+03 -9.445957E-10  5.501035E-11
        19  13 -5.810366E+03 -1.800196E+05 -5.257564E+04  9.281769E+04  4.779685E-10 -1.930621E-12
        19  14 -3.302790E+04 -1.674898E+05 -8.020606E+04  8.315090E+04  4.956608E-10  1.477909E-11
        19  15 -1.389500E+05 -1.800300E+05 -1.543654E+05  9.289539E+04  3.905088E-10  4.212444E-11
        19  16  6.034284E+04  1.034079E+05 -5.200515E+03  8.706792E+04  7.672341E-10  1.002301E-10
        19  17  1.278884E+04  2.720871E+04 -4.617681E+04  1.246325E+05  1.112351E-10 -1.549626E-10
        19  18 -1.128606E+05 -7.345695E+04 -1.313181E+05  1.815984E+05  6.813824E-10 -1.944882E-10
        19  19 -7.196693E+04 -4.633667E+05 -9.995067E+04  9.856423E+04  2.046351E+04 -3.074200E+04
        19  20 -7.883854E+04 -3.621414E+05 -1.142248E+05  4.168187E+04  1.274185E+04 -7.536399E+04
        19  21 -1.650067E+05 -2.865600E+05 -1.773821E+05  4.207553E+03  3.093223E+03 -1.199887E+05
        19  22 -5.809820E+03 -1.800191E+05 -5.257419E+04  9.281738E+04  2.047072E+04 -1.889913E+04
        19  23 -3.302675E+04 -1.674859E+05 -8.019896E+04  8.315028E+04  1.274686E+04 -6.012645E+04
        19  24 -1.389473E+05 -1.800190E+05 -1.543461E+05  9.289514E+04  3.089539E+03 -1.013513E+05
        19  25  6.034330E+04  1.034081E+05 -5.199634E+03  8.706780E+04  2.047770E+04 -7.051038E+03
        19  26  1.278955E+04  2.721092E+04 -4.617272E+04  1.246321E+05  1.275391E+04 -4.488427E+04
        19  27 -1.128588E+05 -7.344960E+04 -1.313052E+05  1.815982E+05  3.091183E+03 -8.271083E+04
        20   1  5.957723E+05  3.054849E+05 -3.574409E+04  4.701909E+05  7.629091E+03  8.921058E+03
        20   2  6.019916E+05  3.085645E+05 -4.026374E+04  4.894751E+05  2.593939E+03  1.147597E+04
        20   3  6.363489E+05  3.114559E+05 -3.763448E+04  4.961896E+05  1.026294E+03  9.406332E+03
        20   4  7.795187E+05  4.252493E+05  2.397899E+04  5.559260E+05  1.130435E+04  1.167689E+04
        20   5  7.615484E+05  4.186219E+05  1.086103E+04  5.670404E+05  3.599858E+03  1.222989E+04
        20   6  7.722902E+05  4.123815E+05  7.203822E+03  5.655854E+05 -6.375361E+02  8.159055E+03
        20   7  9.633016E+05  5.450284E+05  8.369815E+04  6.416886E+05  1.498111E+04  1.443372E+04
        20   8  9.211329E+05  5.286926E+05  6.198286E+04  6.446279E+05  4.606134E+03  1.298406E+04
        20   9  9.082518E+05  5.133187E+05  5.203990E+04  6.349989E+05 -2.301870E+03  6.911379E+03
        20  10  5.957722E+05  3.054848E+05 -3.574434E+04  4.701908E+05 -1.106185E-09 -5.093296E-10
        20  11  6.019916E+05  3.085643E+05 -4.026400E+04  4.894751E+05 -3.778925E-09 -2.821563E-09
        20  12  6.363488E+05  3.114558E+05 -3.763465E+04  4.961896E+05 -6.580135E-09 -5.269291E-09
        20  13  7.795186E+05  4.252491E+05  2.397850E+04  5.559259E+05 -1.255792E-10 -1.363038E-10
        20  14  7.615483E+05  4.186218E+05  1.086073E+04  5.670403E+05 -1.082101E-09 -2.372459E-09
        20  15  7.722902E+05  4.123814E+05  7.203696E+03  5.655854E+05 -3.420054E-09 -7.216877E-09
        20  16  9.633013E+05  5.450281E+05  8.369734E+04  6.416885E+05  1.243061E-09  1.423185E-09
        20  17  9.211328E+05  5.286924E+05  6.198250E+04  6.446279E+05  2.325826E-09  3.120910E-09
        20  18  9.082518E+05  5.133187E+05  5.203980E+04  6.349989E+05 -1.679943E-09 -5.525271E-10
        20  19  5.957723E+05  3.054849E+05 -3.574409E+04  4.701909E+05 -7.629091E+03 -8.921058E+03
        20  20  6.019916E+05  3.085645E+05 -4.026374E+04  4.894751E+05 -2.593939E+03 -1.147597E+04
        20  21  6.363489E+05  3.114559E+05 -3.763448E+04  4.961896E+05 -1.026294E+03 -9.406332E+03
        20  22  7.795187E+05  4.252493E+05  2.397899E+04  5.559260E+05 -1.130435E+04 -1.167689E+04
        20  23  7.615484E+05  4.186219E+05  1.086103E+04  5.670404E+05 -3.599858E+03 -1.222989E+04
        20  24  7.722902E+05  4.123815E+05  7.203822E+03  5.655854E+05  6.375361E+02 -8.159055E+03
        20  25  9.633016E+05  5.450284E+05  8.369815E+04  6.416886E+05 -1.498111E+04 -1.443372E+04
        20  26  9.211329E+05  5.286926E+05  6.198286E+04  6.446279E+05 -4.606134E+03 -1.298406E+04
        20  27  9.082518E+05  5.133187E+05  5.203990E+04  6.349989E+05  2.301870E+03 -6.911379E+03
        21   1  6.555775E+05  3.317739E+05 -3.153923E+04  5.062063E+05 -4.340513E+02  6.512533E+03
        21   2  6.656949E+05  3.513315E+05 -2.720174E+04  5.185264E+05 -1.609717E+03  4.717135E+03
        21   3  6.933292E+05  3.565436E+05 -2.097048E+04  5.254281E+05 -2.571450E+03  2.635742E+03
        21   4  7.724443E+05  4.138011E+05  6.229823E+03  5.636622E+05 -6.888933E+02  6.321414E+03
        21   5  7.633558E+05  4.203989E+05  4.403550E+03  5.667897E+05 -2.029889E+03  4.402186E+03
        21   6  7.718195E+05  4.126870E+05  4.614110E+03  5.644989E+05 -3.156909E+03  2.197036E+03
        21   7  8.893248E+05  4.958349E+05  4.399686E+04  6.211298E+05 -9.437993E+02  6.130248E+03
        21   8  8.610264E+05  4.894712E+05  3.600750E+04  6.150614E+05 -2.450150E+03  4.087171E+03
        21   9  8.503163E+05  4.688337E+05  3.019788E+04  6.035752E+05 -3.742469E+03  1.758254E+03
        21  10  6.555774E+05  3.317738E+05 -3.153931E+04  5.062063E+05  1.286904E-09  1.491734E-09
        21  11  6.656949E+05  3.513315E+05 -2.720179E+04  5.185264E+05  4.141767E-09  4.597951E-09
        21  12  6.933292E+05  3.565436E+05 -2.097050E+04  5.254282E+05  2.149677E-09  2.690217E-09
        21  13  7.724443E+05  4.138011E+05  6.229747E+03  5.636622E+05 -4.874844E-09 -6.816891E-09
        21  14  7.633558E+05  4.203989E+05  4.403505E+03  5.667897E+05  2.815494E-10 -5.578376E-11
        21  15  7.718195E+05  4.126870E+05  4.614082E+03  5.644989E+05  7.422196E-10  5.055157E-09
        21  16  8.893248E+05  4.958349E+05  4.399679E+04  6.211298E+05 -8.704385E-09 -7.612318E-09
        21  17  8.610264E+05  4.894712E+05  3.600746E+04  6.150614E+05 -3.473476E-09 -4.705942E-09
        21  18  8.503163E+05  4.688337E+05  3.019785E+04  6.035752E+05 -8.402548E-12 -4.618214E-10
        21  19  6.555775E+05  3.317739E+05 -3.153923E+04  5.062063E+05  4.340513E+02 -6.512533E+03
        21  20  6.656949E+05  3.513315E+05 -2.720174E+04  5.185264E+05  1.609717E+03 -4.717135E+03
        21  21  6.933292E+05  3.565436E+05 -2.097048E+04  5.254281E+05  2.571450E+03 -2.635742E+03
        21  22  7.724443E+05  4.138011E+05  6.229823E+03  5.636622E+05  6.888933E+02 -6.321414E+03
        21  23  7.633558E+05  4.203989E+05  4.403550E+03  5.667897E+05  2.029889E+03 -4.402186E+03
        21  24  7.718195E+05  4.126870E+05  4.614110E+03  5.644989E+05  3.156909E+03 -2.197036E+03
        21  25  8.893248E+05  4.958349E+05  4.399686E+04  6.211298E+05  9.437993E+02 -6.130248E+03
        21  26  8.610264E+05  4.894712E+05  3.600750E+04  6.150614E+05  2.450150E+03 -4.087171E+03
        21  27  8.503163E+05  4.688337E+05  3.019788E+04  6.035752E+05  3.742469E+03 -1.758254E+03
        22   1  7.144625E+05  3.726212E+05 -1.322852E+04  5.363505E+05 -2.941975E+03  1.486746E+03
        22   2  7.248889E+05  3.929832E+05 -4.996679E+03  5.476749E+05 -5.286510E+03 -1.620402E+03
        22   3  7.526966E+05  3.992346E+05  6.223114E+03  5.537743E+05 -7.627674E+03 -4.732547E+03
        22   4  7.718038E+05  4.127698E+05  5.185663E+03  5.645139E+05 -3.439843E+03  1.113711E+03
        22   5  7.633916E+05  4.203218E+05  7.483430E+03  5.667534E+05 -5.787417E+03 -1.995683E+03
        22   6  7.723606E+05  4.137637E+05  1.277167E+04  5.637678E+05 -8.131482E+03 -5.109968E+03
        22   7  8.291489E+05  4.529203E+05  2.359955E+04  5.926803E+05 -3.937777E+03  7.406279E+02
        22   8  8.018958E+05  4.476612E+05  1.996335E+04  5.858332E+05 -6.288365E+03 -2.370994E+03
        22   9  7.920249E+05  4.282929E+05  1.932014E+04  5.737615E+05 -8.635309E+03 -5.487403E+03
        22  10  7.144625E+05  3.726212E+05 -1.322854E+04  5.363505E+05  1.100019E-09  5.740259E-10
        22  11  7.248889E+05  3.929832E+05 -4.996737E+03  5.476749E+05 -7.177729E-10 -1.905234E-09
        22  12  7.526966E+05  3.992345E+05  6.222963E+03  5.537743E+05  4.672652E-10 -2.036507E-09
        22  13  7.718038E+05  4.127698E+05  5.185639E+03  5.645139E+05  1.205868E-09  4.940638E-09
        22  14  7.633916E+05  4.203218E+05  7.483359E+03  5.667534E+05  1.545958E-09  1.981445E-09
        22  15  7.723605E+05  4.137636E+05  1.277150E+04  5.637677E+05  1.420543E-09 -2.319941E-10
        22  16  8.291489E+05  4.529203E+05  2.359952E+04  5.926803E+05  1.612143E-09  8.086215E-10
        22  17  8.018958E+05  4.476612E+05  1.996326E+04  5.858332E+05  3.431722E-09  9.788934E-10
        22  18  7.920248E+05  4.282929E+05  1.931995E+04  5.737615E+05  1.777013E-09  5.176064E-10
        22  19  7.144625E+05  3.726212E+05 -1.322852E+04  5.363505E+05  2.941975E+03 -1.486746E+03
        22  20  7.248889E+05  3.929832E+05 -4.996679E+03  5.476749E+05  5.286510E+03  1.620402E+03
        22  21  7.526966E+05  3.992346E+05  6.223114E+03  5.537743E+05  7.627674E+03  4.732547E+03
        22  22  7.718038E+05  4.127698E+05  5.185663E+03  5.645139E+05  3.439843E+03 -1.113711E+03
        22  23  7.633916E+05  4.203218E+05  7.483430E+03  5.667534E+05  5.787417E+03  1.995683E+03
        22  24  7.723606E+05  4.137637E+05  1.277167E+04  5.637678E+05  8.131482E+03  5.109968E+03
        22  25  8.291489E+05  4.529203E+05  2.359955E+04  5.926803E+05  3.937777E+03 -7.406279E+02
        22  26  8.018958E+05  4.476612E+05  1.996335E+04  5.858332E+05  6.288365E+03  2.370994E+03
        22  27  7.920249E+05  4.282929E+05  1.932014E+04  5.737615E+05  8.635309E+03  5.487403E+03
        23   1  7.712306E+05  4.163154E+05  1.677069E+04  5.671685E+05 -9.227455E+03 -6.770923E+03
        23   2  7.829332E+05  4.313060E+05  3.360358E+04  5.764080E+05 -1.974815E+04 -1.600768E+04
        23   3  8.227506E+05  4.466613E+05  6.484464E+04  5.741931E+05 -3.039418E+04 -2.507847E+04
        23   4  7.722941E+05  4.126140E+05  1.620286E+04  5.656526E+05 -9.776419E+03 -7.182095E+03
        23   5  7.616052E+05  4.184320E+05  2.712043E+04  5.668860E+05 -2.020056E+04 -1.634667E+04
        23   6  7.790105E+05  4.245942E+05  5.236335E+04  5.566647E+05 -3.074950E+04 -2.534511E+04
        23   7  7.733575E+05  4.089126E+05  1.563503E+04  5.641367E+05 -1.032539E+04 -7.593260E+03
        23   8  7.402777E+05  4.055580E+05  2.063720E+04  5.573643E+05 -2.065294E+04 -1.668565E+04
        23   9  7.352723E+05  4.025275E+05  3.988181E+04  5.391374E+05 -3.110480E+04 -2.561174E+04
        23  10  7.712305E+05  4.163153E+05  1.677045E+04  5.671685E+05  1.026072E-09 -7.299864E-10
        23  11  7.829327E+05  4.313056E+05  3.360237E+04  5.764077E+05 -2.883509E-09 -2.078285E-09
        23  12  8.227495E+05  4.466603E+05  6.484173E+04  5.741925E+05 -3.385079E-09 -1.748073E-09
        23  13  7.722940E+05  4.126139E+05  1.620258E+04  5.656526E+05 -1.256777E-09 -1.305164E-09
        23  14  7.616047E+05  4.184316E+05  2.711916E+04  5.668857E+05 -1.395958E-09 -2.074051E-09
        23  15  7.790093E+05  4.245933E+05  5.236038E+04  5.566641E+05 -5.219374E-10 -8.229350E-10
        23  16  7.733574E+05  4.089125E+05  1.563472E+04  5.641366E+05 -1.883693E-09 -1.842363E-09
        23  17  7.402772E+05  4.055576E+05  2.063588E+04  5.573640E+05 -2.284234E-09 -2.027899E-09
        23  18  7.352710E+05  4.025266E+05  3.987876E+04  5.391368E+05  1.132923E-09  1.955716E-10
        23  19  7.712306E+05  4.163154E+05  1.677069E+04  5.671685E+05  9.227455E+03  6.770923E+03
        23  20  7.829332E+05  4.313060E+05  3.360358E+04  5.764080E+05  1.974815E+04  1.600768E+04
        23  21  8.227506E+05  4.466613E+05  6.484464E+04  5.741931E+05  3.039418E+04  2.507847E+04
        23  22  7.722941E+05  4.126140E+05  1.620286E+04  5.656526E+05  9.776419E+03  7.182095E+03
        23  23  7.616052E+05  4.184320E+05  2.712043E+04  5.668860E+05  2.020056E+04  1.634667E+04
        23  24  7.790105E+05  4.245942E+05  5.236335E+04  5.566647E+05  3.074950E+04  2.534511E+04
        23  25  7.733575E+05  4.089126E+05  1.563503E+04  5.641367E+05  1.032539E+04  7.593260E+03
        23  26  7.402777E+05  4.055580E+05  2.063720E+04  5.573643E+05  2.065294E+04  1.668565E+04
        23  27  7.352723E+05  4.025275E+05  3.988181E+04  5.391374E+05  3.110480E+04  2.561174E+04
        24   1  8.117350E+05  4.792582E+05  8.388842E+04  6.132506E+05 -3.681383E+04 -3.125588E+04
        24   2  8.420255E+05  4.368734E+05  1.296570E+05  6.025561E+05 -8.267730E+04 -6.669593E+04
        24   3  1.009240E+06  5.444484E+05  2.689829E+05  5.103570E+05 -1.305374E+05 -9.947318E+04
        24   4  7.769772E+05  4.111848E+05  6.440444E+04  5.760227E+05 -3.797867E+04 -3.212604E+04
        24   5  7.443496E+05  3.999352E+05  1.041344E+05  5.690979E+05 -8.229861E+04 -6.641645E+04
        24   6  8.483186E+05  5.383266E+05  2.360983E+05  4.806675E+05 -1.286081E+05 -9.804923E+04
        24   7  7.422220E+05  3.431193E+05  4.492048E+04  5.387986E+05 -3.914343E+04 -3.299599E+04
        24   8  6.466851E+05  3.629985E+05  7.861133E+04  5.356441E+05 -8.192000E+04 -6.613699E+04
        24   9  6.874334E+05  5.322101E+05  2.032149E+05  4.509793E+05 -1.266795E+05 -9.662519E+04
        24  10  8.117332E+05  4.792568E+05  8.388405E+04  6.132497E+05 -8.821421E-10  1.949636E-11
        24  11  8.420170E+05  4.368668E+05  1.296358E+05  6.025517E+05 -2.360147E-11 -4.941283E-10
        24  12  1.009219E+06  5.444332E+05  2.689324E+05  5.103465E+05 -7.101127E-11 -4.451344E-10
        24  13  7.769754E+05  4.111833E+05  6.439980E+04  5.760217E+05  1.055054E-09 -7.427888E-11
        24  14  7.443411E+05  3.999287E+05  1.041134E+05  5.690935E+05  1.535542E-10 -2.704140E-10
        24  15  8.482983E+05  5.383119E+05  2.360492E+05  4.806574E+05  2.115678E-10 -1.026980E-10
        24  16  7.422201E+05  3.431177E+05  4.491556E+04  5.387976E+05  4.458246E-10 -2.416405E-10
        24  17  6.466767E+05  3.629920E+05  7.859053E+04  5.356398E+05 -3.841254E-12 -2.359386E-10
        24  18  6.874137E+05  5.321958E+05  2.031673E+05  4.509695E+05  6.498787E-10  1.647472E-10
        24  19  8.117350E+05  4.792582E+05  8.388842E+04  6.132506E+05  3.681383E+04  3.125588E+04
        24  20  8.420255E+05  4.368734E+05  1.296570E+05  6.025561E+05  8.267730E+04  6.669593E+04
        24  21  1.009240E+06  5.444484E+05  2.689829E+05  5.103570E+05  1.305374E+05  9.947318E+04
        24  22  7.769772E+05  4.111848E+05  6.440444E+04  5.760227E+05  3.797867E+04  3.212604E+04
        24  23  7.443496E+05  3.999352E+05  1.041344E+05  5.690979E+05  8.229861E+04  6.641645E+04
        24  24  8.483186E+05  5.383266E+05  2.360983E+05  4.806675E+05  1.286081E+05  9.804923E+04
        24  25  7.422220E+05  3.431193E+05  4.492048E+04  5.387986E+05  3.914343E+04  3.299599E+04
        24  26  6.466851E+05  3.629985E+05  7.861133E+04  5.356441E+05  8.192000E+04  6.613699E+04
        24  27  6.874334E+05  5.322101E+05  2.032149E+05  4.509793E+05  1.266795E+05  9.662519E+04
        25   1  1.014056E+06  6.568033E+04  7.271041E+04  4.139220E+04  5.025390E+04  3.345323E+00
        25   2  1.008155E+06  1.514364E+04  3.580959E+04  1.902342E+04  3.178689E+04  9.724961E-01
        25   3  1.014085E+06  2.342697E+03  2.035175E+04 -3.344619E+03  1.332016E+04 -7.164774E-02
        25   4  1.014054E+06  6.567712E+04  7.270995E+04 -1.496161E-09  5.025390E+04  6.790533E-11
        25   5  1.008154E+06  1.514297E+04  3.580949E+04 -1.973767E-09  3.178689E+04  2.904366E-10
        25   6  1.014085E+06  2.342676E+03  2.035175E+04 -1.014164E-09  1.332016E+04  5.145412E-10
        25   7  1.014056E+06  6.568033E+04  7.271041E+04 -4.139220E+04  5.025390E+04 -3.345323E+00
        25   8  1.008155E+06  1.514364E+04  3.580959E+04 -1.902342E+04  3.178689E+04 -9.724961E-01
        25   9  1.014085E+06  2.342697E+03  2.035175E+04  3.344619E+03  1.332016E+04  7.164774E-02
        25  10  1.014053E+06  6.567966E+04  7.270567E+04  4.139220E+04 -6.962989E-10 -2.755907E-11
        25  11  1.008154E+06  1.514337E+04  3.580769E+04  1.902342E+04 -6.267950E-10 -7.860115E-11
        25  12  1.014085E+06  2.342649E+03  2.035142E+04 -3.344619E+03 -3.291386E-11  2.544227E-10
        25  13  1.014051E+06  6.567644E+04  7.270521E+04 -9.132354E-10  4.654161E-10  1.276088E-11
        25  14  1.008153E+06  1.514270E+04  3.580760E+04 -1.923250E-09 -2.609381E-10  8.383316E-11
        25  15  1.014085E+06  2.342628E+03  2.035142E+04 -5.217524E-10  8.135241E-10  1.693704E-10
        25  16  1.014053E+06  6.567966E+04  7.270567E+04 -4.139220E+04  5.272867E-10  6.491091E-11
        25  17  1.008154E+06  1.514337E+04  3.580769E+04 -1.902342E+04  1.545987E-10  2.293626E-10
        25  18  1.014085E+06  2.342649E+03  2.035142E+04  3.344619E+03 -2.606413E-10  8.991900E-11
        25  19  1.014056E+06  6.568033E+04  7.271041E+04  4.139220E+04 -5.025390E+04 -3.345323E+00
        25  20  1.008155E+06  1.514364E+04  3.580959E+04  1.902342E+04 -3.178689E+04 -9.724961E-01
        25  21  1.014085E+06  2.342697E+03  2.035175E+04 -3.344619E+03 -1.332016E+04  7.164774E-02
        25  22  1.014054E+06  6.567712E+04  7.270995E+04 -8.500786E-10 -5.025390E+04 -3.522731E-11
        25  23  1.008154E+06  1.514297E+04  3.580949E+04  2.778837E-10 -3.178689E+04 -1.269113E-10
        25  24  1.014085E+06  2.342676E+03  2.035175E+04 -2.028420E-09 -1.332016E+04 -1.855907E-10
        25  25  1.014056E+06  6.568033E+04  7.271041E+04 -4.139220E+04 -5.025390E+04  3.345323E+00
        25  26  1.008155E+06  1.514364E+04  3.580959E+04 -1.902342E+04 -3.178689E+04  9.724961E-01
        25  27  1.014085E+06  2.342697E+03  2.035175E+04  3.344619E+03 -1.332016E+04 -7.164774E-02
        26   1  1.011726E+06  3.057553E+03  1.603030E+04  1.404297E+03  1.059347E+04  2.392462E-02
        26   2  1.011116E+06  4.408200E+02  1.038740E+04  5.618127E+02  5.416416E+03  4.893860E-03
        26   3  1.011728E+06  2.239897E+01  8.660618E+03 -2.806852E+02  2.393003E+02 -1.080220E-04
        26   4  1.011726E+06  3.057549E+03  1.603030E+04 -2.732301E-10  1.059347E+04  4.994843E-10
        26   5  1.011116E+06  4.408194E+02  1.038740E+04 -8.667812E-10  5.416416E+03  1.433388E-10
        26   6  1.011728E+06  2.239882E+01  8.660618E+03 -1.771759E-09  2.393003E+02 -2.473935E-10
        26   7  1.011726E+06  3.057553E+03  1.603030E+04 -1.404297E+03  1.059347E+04 -2.392462E-02
        26   8  1.011116E+06  4.408200E+02  1.038740E+04 -5.618127E+02  5.416416E+03 -4.893860E-03
        26   9  1.011728E+06  2.239897E+01  8.660618E+03  2.806852E+02  2.393003E+02  1.080215E-04
        26  10  1.011726E+06  3.057523E+03  1.603009E+04  1.404297E+03  4.132543E-10  3.637579E-10
        26  11  1.011116E+06  4.408121E+02  1.038734E+04  5.618127E+02  1.660469E-10  1.547368E-10
        26  12  1.011728E+06  2.239895E+01  8.660618E+03 -2.806852E+02  4.017693E-10 -3.106536E-10
        26  13  1.011726E+06  3.057519E+03  1.603009E+04 -3.237584E-10 -8.304581E-10  2.006763E-10
        26  14  1.011116E+06  4.408115E+02  1.038734E+04 -2.318801E-09  3.645526E-10  1.276697E-10
        26  15  1.011728E+06  2.239880E+01  8.660618E+03  3.619249E-10  5.411876E-10 -1.214969E-10
        26  16  1.011726E+06  3.057523E+03  1.603009E+04 -1.404297E+03 -8.930213E-10  3.354618E-11
        26  17  1.011116E+06  4.408121E+02  1.038734E+04 -5.618127E+02 -3.214795E-10  1.531774E-10
        26  18  1.011728E+06  2.239895E+01  8.660618E+03  2.806852E+02 -8.340288E-10  4.990043E-11
        26  19  1.011726E+06  3.057553E+03  1.603030E+04  1.404297E+03 -1.059347E+04 -2.392462E-02
        26  20  1.011116E+06  4.408200E+02  1.038740E+04  5.618127E+02 -5.416416E+03 -4.893860E-03
        26  21  1.011728E+06  2.239897E+01  8.660618E+03 -2.806852E+02 -2.393003E+02  1.080214E-04
        26  22  1.011726E+06  3.057549E+03  1.603030E+04 -2.495416E-09 -1.059347E+04 -9.094667E-11
        26  23  1.011116E+06  4.408194E+02  1.038740E+04 -2.964869E-09 -5.416416E+03  1.120974E-10
        26  24  1.011728E+06  2.239882E+01  8.660618E+03 -2.697815E-09 -2.393003E+02 -4.685205E-12
        26  25  1.011726E+06  3.057553E+03  1.603030E+04 -1.404297E+03 -1.059347E+04  2.392462E-02
        26  26  1.011116E+06  4.408200E+02  1.038740E+04 -5.618127E+02 -5.416416E+03  4.893860E-03
        26  27  1.011728E+06  2.239897E+01  8.660618E+03  2.806852E+02 -2.393003E+02 -1.080212E-04
        27   1  1.011761E+06  1.209389E+01  8.842250E+03  3.901059E+02 -1.287866E+03 -8.079808E-04
        27   2  1.011075E+06  5.313329E+02  1.138528E+04 -6.021338E+02 -6.964484E+03  6.744194E-03
        27   3  1.011757E+06  3.566672E+03  1.824872E+04 -1.594371E+03 -1.264113E+04  3.241330E-02
        27   4  1.011761E+06  1.209361E+01  8.842250E+03  1.917902E-10 -1.287866E+03 -3.007411E-10
        27   5  1.011075E+06  5.313322E+02  1.138528E+04  1.388864E-09 -6.964484E+03 -1.155551E-10
        27   6  1.011757E+06  3.566667E+03  1.824872E+04 -7.241362E-10 -1.264113E+04  4.607391E-13
        27   7  1.011761E+06  1.209389E+01  8.842250E+03 -3.901059E+02 -1.287866E+03  8.079802E-04
        27   8  1.011075E+06  5.313329E+02  1.138528E+04  6.021338E+02 -6.964484E+03 -6.744194E-03
        27   9  1.011757E+06  3.566672E+03  1.824872E+04  1.594371E+03 -1.264113E+04 -3.241330E-02
        27  10  1.011761E+06  1.209345E+01  8.842247E+03  3.901059E+02  1.396543E-12 -3.066460E-10
        27  11  1.011075E+06  5.313199E+02  1.138519E+04 -6.021338E+02  5.450478E-10 -3.944144E-11
        27  12  1.011757E+06  3.566629E+03  1.824842E+04 -1.594371E+03  2.276781E-10 -7.272550E-11
        27  13  1.011761E+06  1.209316E+01  8.842247E+03  8.210167E-10  8.420744E-11 -1.807369E-10
        27  14  1.011075E+06  5.313192E+02  1.138519E+04  1.389411E-10 -2.565033E-10 -2.824328E-11
        27  15  1.011757E+06  3.566624E+03  1.824842E+04 -4.084569E-10 -5.377628E-10  9.432673E-11
        27  16  1.011761E+06  1.209345E+01  8.842247E+03 -3.901059E+02  5.113490E-10 -2.426694E-11
        27  17  1.011075E+06  5.313199E+02  1.138519E+04  6.021338E+02 -7.367567E-11  1.618555E-11
        27  18  1.011757E+06  3.566629E+03  1.824842E+04  1.594371E+03 -8.307585E-11  2.764053E-10
        27  19  1.011761E+06  1.209389E+01  8.842250E+03  3.901059E+02  1.287866E+03  8.079801E-04
        27  20  1.011075E+06  5.313329E+02  1.138528E+04 -6.021338E+02  6.964484E+03 -6.744194E-03
        27  21  1.011757E+06  3.566672E+03  1.824872E+04 -1.594371E+03  1.264113E+04 -3.241330E-02
        27  22  1.011761E+06  1.209361E+01  8.842250E+03  3.580984E-10  1.287866E+03 -5.777786E-11
        27  23  1.011075E+06  5.313322E+02  1.138528E+04 -3.134507E-10  6.964484E+03  5.425177E-11
        27  24  1.011757E+06  3.566667E+03  1.824872E+04 -1.593144E-09  1.264113E+04  1.898649E-10
        27  25  1.011761E+06  1.209389E+01  8.842250E+03 -3.901059E+02  1.287866E+03 -8.079802E-04
        27  26  1.011075E+06  5.313329E+02  1.138528E+04  6.021338E+02  6.964484E+03  6.744194E-03
        27  27  1.011757E+06  3.566672E+03  1.824872E+04  1.594371E+03  1.264113E+04  3.241330E-02
        28   1  1.014510E+06  2.732370E+03  2.337392E+04  3.915026E+03 -1.575012E+04 -9.916646E-02
        28   2  1.007621E+06  1.760569E+04  4.148739E+04 -2.208719E+04 -3.714777E+04  1.319548E+00
        28   3  1.014476E+06  7.633440E+04  8.448022E+04 -4.808957E+04 -5.854513E+04  4.527847E+00
        28   4  1.014510E+06  2.732341E+03  2.337391E+04 -8.354231E-10 -1.575012E+04  1.088796E-10
        28   5  1.007621E+06  1.760477E+04  4.148726E+04 -9.766879E-10 -3.714777E+04  1.689340E-10
        28   6  1.014473E+06  7.633006E+04  8.447960E+04 -2.753067E-09 -5.854513E+04  1.101004E-10
        28   7  1.014510E+06  2.732370E+03  2.337392E+04 -3.915026E+03 -1.575012E+04  9.916646E-02
        28   8  1.007621E+06  1.760569E+04  4.148739E+04  2.208719E+04 -3.714777E+04 -1.319548E+00
        28   9  1.014476E+06  7.633440E+04  8.448022E+04  4.808957E+04 -5.854513E+04 -4.527847E+00
        28  10  1.014509E+06  2.732303E+03  2.337345E+04  3.915026E+03  4.126740E-10 -6.178066E-11
        28  11  1.007620E+06  1.760532E+04  4.148480E+04 -2.208719E+04 -2.409577E-10  1.032771E-10
        28  12  1.014472E+06  7.633348E+04  8.447379E+04 -4.808957E+04  3.373441E-10  4.892939E-11
        28  13  1.014509E+06  2.732274E+03  2.337345E+04  2.105166E-11  7.186229E-10  1.567921E-10
        28  14  1.007619E+06  1.760440E+04  4.148467E+04 -7.410133E-10  3.588135E-10  1.691022E-10
        28  15  1.014469E+06  7.632915E+04  8.447317E+04 -1.099055E-09 -8.296419E-12  5.620544E-11
        28  16  1.014509E+06  2.732303E+03  2.337345E+04 -3.915026E+03  1.229178E-10  3.907209E-10
        28  17  1.007620E+06  1.760532E+04  4.148480E+04  2.208719E+04  5.997740E-10  2.607542E-10
        28  18  1.014472E+06  7.633348E+04  8.447379E+04  4.808957E+04  4.359640E-10  7.559180E-11
        28  19  1.014510E+06  2.732370E+03  2.337392E+04  3.915026E+03  1.575012E+04  9.916646E-02
        28  20  1.007621E+06  1.760569E+04  4.148739E+04 -2.208719E+04  3.714777E+04 -1.319548E+00
        28  21  1.014476E+06  7.633440E+04  8.448022E+04 -4.808957E+04  5.854513E+04 -4.527847E+00
        28  22  1.014510E+06  2.732341E+03  2.337391E+04 -1.977733E-10  1.575012E+04  2.056235E-10
        28  23  1.007621E+06  1.760477E+04  4.148726E+04  3.547065E-11  3.714777E+04  1.687730E-10
        28  24  1.014473E+06  7.633006E+04  8.447960E+04 -2.403806E-09  5.854513E+04  4.788600E-12
        28  25  1.014510E+06  2.732370E+03  2.337392E+04 -3.915026E+03  1.575012E+04 -9.916646E-02
        28  26  1.007621E+06  1.760569E+04  4.148739E+04  2.208719E+04  3.714777E+04  1.319548E+00
        28  27  1.014476E+06  7.633440E+04  8.448022E+04  4.808957E+04  5.854513E+04  4.527847E+00
        29   1 -4.133789E+05 -1.276151E+06 -4.285543E+05  2.834655E+05 -9.365426E+03 -2.223405E+05
        29   2 -2.026912E+05 -1.118931E+06 -2.458523E+05  1.928325E+05 -2.931415E+04 -1.264466E+05
        29   3 -1.248672E+05 -1.007408E+06 -1.588667E+05  1.300843E+05 -3.096876E+04 -3.052574E+04
        29   4 -2.256408E+05 -5.171146E+05 -2.492268E+05  1.406984E+05 -9.299768E+03 -1.711753E+05
        29   5 -5.383296E+04 -4.970177E+05 -1.237728E+05  1.267095E+05 -2.929132E+04 -1.074147E+05
        29   6 -9.244894E+03 -5.170067E+05 -7.163992E+04  1.406261E+05 -3.097345E+04 -4.365258E+04
        29   7 -3.786584E+04  2.425025E+05 -6.991823E+04 -2.244664E+03 -9.257745E+03 -1.199477E+05
        29   8  9.501856E+04  1.252774E+05 -1.708307E+03  6.051869E+04 -2.927258E+04 -8.836405E+04
        29   9  1.063646E+05 -2.636984E+04  1.557849E+04  1.511764E+05 -3.097859E+04 -5.678949E+04
        29  10 -4.133923E+05 -1.276205E+06 -4.286476E+05  2.834638E+05  1.171967E-10  2.683569E-08
        29  11 -2.026964E+05 -1.118949E+06 -2.458840E+05  1.928295E+05 -1.440409E-09 -5.943354E-10
        29  12 -1.248685E+05 -1.007409E+06 -1.588702E+05  1.300835E+05  5.102630E-11 -2.845405E-08
        29  13 -2.256488E+05 -5.171461E+05 -2.492820E+05  1.406971E+05 -2.639509E-10  2.034172E-11
        29  14 -5.383698E+04 -4.970304E+05 -1.237961E+05  1.267070E+05 -6.124709E-10  4.133359E-11
        29  15 -9.246436E+03 -5.170090E+05 -7.164531E+04  1.406250E+05 -1.311863E-09 -6.057501E-11
        29  16 -3.786980E+04  2.424870E+05 -6.994542E+04 -2.245558E+03 -2.833296E-10 -2.686423E-08
        29  17  9.501554E+04  1.252688E+05 -1.724586E+03  6.051660E+04 -1.281127E-09  7.926698E-10
        29  18  1.063627E+05 -2.637356E+04  1.557063E+04  1.511750E+05 -5.580155E-10  2.842370E-08
        29  19 -4.133789E+05 -1.276151E+06 -4.285543E+05  2.834655E+05  9.365426E+03  2.223405E+05
        29  20 -2.026912E+05 -1.118931E+06 -2.458523E+05  1.928325E+05  2.931415E+04  1.264466E+05
        29  21 -1.248672E+05 -1.007408E+06 -1.588667E+05  1.300843E+05  3.096876E+04  3.052574E+04
        29  22 -2.256408E+05 -5.171146E+05 -2.492268E+05  1.406984E+05  9.299768E+03  1.711753E+05
        29  23 -5.383296E+04 -4.970177E+05 -1.237728E+05  1.267095E+05  2.929132E+04  1.074147E+05
        29  24 -9.244894E+03 -5.170067E+05 -7.163992E+04  1.406261E+05  3.097345E+04  4.365258E+04
        29  25 -3.786584E+04  2.425025E+05 -6.991823E+04 -2.244664E+03  9.257745E+03  1.199477E+05
        29  26  9.501856E+04  1.252774E+05 -1.708307E+03  6.051869E+04  2.927258E+04  8.836405E+04
        29  27  1.063646E+05 -2.636984E+04  1.557849E+04  1.511764E+05  3.097859E+04  5.678949E+04
        30   1 -1.057118E+05 -9.119953E+05 -1.282335E+05  1.462330E+05 -2.617518E+04 -2.249614E+04
        30   2 -6.548212E+04 -7.748944E+05 -8.559973E+04  1.270108E+05 -1.906211E+04 -3.231831E+02
        30   3 -3.621354E+04 -6.434224E+05 -6.016055E+04  1.368994E+05 -1.078349E+04  2.185262E+04
        30   4 -1.095168E+04 -5.092640E+05 -5.746085E+04  1.408989E+05 -2.617954E+04 -3.397617E+04
        30   5 -2.732445E+03 -5.066067E+05 -4.033120E+04  1.263415E+05 -1.906898E+04 -1.384446E+04
        30   6 -5.115054E+03 -5.092373E+05 -3.897004E+04  1.408951E+05 -1.079282E+04  6.285545E+03
        30   7  8.379976E+04 -1.063734E+05  1.330646E+04  1.355612E+05 -2.618371E+04 -4.546343E+04
        30   8  6.001354E+04 -2.382476E+05  4.935725E+03  1.256719E+05 -1.907582E+04 -2.737140E+04
        30   9  2.598273E+04 -3.750337E+05 -1.777905E+04  1.448918E+05 -1.080235E+04 -9.284771E+03
        30  10 -1.057127E+05 -9.119961E+05 -1.282358E+05  1.462325E+05  6.195690E-10 -1.711897E-09
        30  11 -6.548251E+04 -7.748945E+05 -8.560041E+04  1.270108E+05 -2.427581E-10 -1.010074E-09
        30  12 -3.621380E+04 -6.434229E+05 -6.016167E+04  1.368996E+05  2.876811E-10 -7.559657E-10
        30  13 -1.095273E+04 -5.092654E+05 -5.746430E+04  1.408982E+05  3.098340E-10  8.591842E-11
        30  14 -2.732887E+03 -5.066070E+05 -4.033224E+04  1.263413E+05 -2.585238E-10  1.153741E-10
        30  15 -5.115190E+03 -5.092374E+05 -3.897033E+04  1.408952E+05  2.551059E-10 -1.138216E-10
        30  16  8.379847E+04 -1.063758E+05  1.330129E+04  1.355602E+05  6.155213E-10  1.735530E-09
        30  17  6.001295E+04 -2.382485E+05  4.933633E+03  1.256715E+05  5.593561E-10  1.510821E-09
        30  18  2.598258E+04 -3.750338E+05 -1.777943E+04  1.448917E+05  7.811969E-10  6.903304E-10
        30  19 -1.057118E+05 -9.119953E+05 -1.282335E+05  1.462330E+05  2.617518E+04  2.249614E+04
        30  20 -6.548212E+04 -7.748944E+05 -8.559973E+04  1.270108E+05  1.906211E+04  3.231831E+02
        30  21 -3.621354E+04 -6.434224E+05 -6.016055E+04  1.368994E+05  1.078349E+04 -2.185262E+04
        30  22 -1.095168E+04 -5.092640E+05 -5.746085E+04  1.408989E+05  2.617954E+04  3.397617E+04
        30  23 -2.732445E+03 -5.066067E+05 -4.033120E+04  1.263415E+05  1.906898E+04  1.384446E+04
        30  24 -5.115054E+03 -5.092373E+05 -3.897004E+04  1.408951E+05  1.079282E+04 -6.285545E+03
        30  25  8.379976E+04 -1.063734E+05  1.330646E+04  1.355612E+05  2.618371E+04  4.546343E+04
        30  26  6.001354E+04 -2.382476E+05  4.935725E+03  1.256719E+05  1.907582E+04  2.737140E+04
        30  27  2.598273E+04 -3.750337E+05 -1.777905E+04  1.448918E+05  1.080235E+04  9.284771E+03
        31   1 -1.498969E+04 -5.594078E+05 -4.829111E+04  1.452230E+05 -5.264330E+03  2.860320E+04
        31   2 -4.015228E+03 -4.162176E+05 -4.216032E+04  9.442721E+04  8.651520E+02  5.048115E+04
        31   3 -5.203159E+04 -2.906264E+05 -6.503107E+04  7.246557E+04  1.083837E+03  7.236532E+04
        31   4 -4.442099E+03 -5.123755E+05 -4.258390E+04  1.408297E+05 -5.274580E+03  1.263385E+04
        31   5 -2.540527E+04 -5.026752E+05 -6.282080E+04  1.264353E+05  8.643933E+02  4.490643E+04
        31   6 -1.071753E+05 -5.124077E+05 -1.192873E+05  1.408816E+05  1.094751E+03  7.718038E+04
        31   7  6.105617E+03 -4.653402E+05 -3.687573E+04  1.364361E+05 -5.284603E+03 -3.336642E+03
        31   8 -4.679199E+04 -5.891237E+05 -8.348113E+04  1.584389E+05  8.630593E+02  3.933249E+04
        31   9 -1.623050E+05 -7.341341E+05 -1.735445E+05  2.092732E+05  1.106730E+03  8.199371E+04
        31  10 -1.498994E+04 -5.594087E+05 -4.829270E+04  1.452231E+05  8.872567E-10  5.278850E-10
        31  11 -4.015914E+03 -4.162204E+05 -4.216511E+04  9.442717E+04  8.950090E-11 -8.730477E-11
        31  12 -5.203300E+04 -2.906321E+05 -6.504092E+04  7.246551E+04  1.399937E-11 -9.334457E-10
        31  13 -4.442171E+03 -5.123757E+05 -4.258426E+04  1.408298E+05  7.586788E-10  9.669827E-11
        31  14 -2.540582E+04 -5.026774E+05 -6.282459E+04  1.264353E+05 -1.335741E-10  1.320418E-10
        31  15 -1.071769E+05 -5.124141E+05 -1.192985E+05  1.408816E+05  3.535519E-10 -1.177132E-10
        31  16  6.105584E+03 -4.653403E+05 -3.687580E+04  1.364361E+05  7.822450E-10 -4.972704E-10
        31  17 -4.679240E+04 -5.891253E+05 -8.348404E+04  1.584389E+05  8.136264E-11  5.425133E-10
        31  18 -1.623068E+05 -7.341413E+05 -1.735571E+05  2.092731E+05 -6.956498E-10  8.486444E-10
        31  19 -1.498969E+04 -5.594078E+05 -4.829111E+04  1.452230E+05  5.264330E+03 -2.860320E+04
        31  20 -4.015228E+03 -4.162176E+05 -4.216032E+04  9.442721E+04 -8.651520E+02 -5.048115E+04
        31  21 -5.203159E+04 -2.906264E+05 -6.503107E+04  7.246557E+04 -1.083837E+03 -7.236532E+04
        31  22 -4.442099E+03 -5.123755E+05 -4.258390E+04  1.408297E+05  5.274580E+03 -1.263385E+04
        31  23 -2.540527E+04 -5.026752E+05 -6.282080E+04  1.264353E+05 -8.643933E+02 -4.490643E+04
        31  24 -1.071753E+05 -5.124077E+05 -1.192873E+05  1.408816E+05 -1.094751E+03 -7.718038E+04
        31  25  6.105617E+03 -4.653402E+05 -3.687573E+04  1.364361E+05  5.284603E+03  3.336642E+03
        31  26 -4.679199E+04 -5.891237E+05 -8.348113E+04  1.584389E+05 -8.630593E+02 -3.933249E+04
        31  27 -1.623050E+05 -7.341341E+05 -1.735445E+05  2.092732E+05 -1.106730E+03 -8.199371E+04
        32   1  2.350495E+05  5.340120E+04 -7.553808E+04  2.103668E+05 -4.049712E+03  4.152466E+03
        32   2  2.663957E+05  6.938242E+04 -6.748656E+04  2.399024E+05 -6.629508E+03  1.760803E+04
        32   3  3.240418E+05  8.097442E+04 -5.880624E+04  2.574890E+05 -2.281699E+03  2.182695E+04
        32   4  5.650223E+05  2.663300E+05  2.890295E+04  3.637197E+05  1.240193E+04  1.648835E+04
        32   5  5.461572E+05  2.592295E+05  1.355833E+04  3.758203E+05 -6.770013E+02  2.206954E+04
        32   6  5.558604E+05  2.500115E+05  7.947058E+03  3.759719E+05 -6.830703E+03  1.841649E+04
        32   7  8.951117E+05  4.793049E+05  1.333325E+05  5.171602E+05  2.886560E+04  2.883215E+04
        32   8  8.260034E+05  4.491154E+05  9.459476E+04  5.118057E+05  5.279123E+03  2.653360E+04
        32   9  7.877360E+05  4.190799E+05  7.469404E+04  4.945047E+05 -1.138195E+04  1.500426E+04
        32  10  2.350495E+05  5.340118E+04 -7.553814E+04  2.103668E+05  1.858206E-10  5.222508E-11
        32  11  2.663955E+05  6.938207E+04 -6.748723E+04  2.399024E+05 -4.903649E-10 -2.789738E-10
        32  12  3.240417E+05  8.097391E+04 -5.880714E+04  2.574891E+05 -1.032141E-09 -2.231254E-10
        32  13  5.650221E+05  2.663297E+05  2.890215E+04  3.637195E+05 -4.637627E-10 -7.081603E-11
        32  14  5.461571E+05  2.592290E+05  1.355742E+04  3.758203E+05  2.104485E-10 -9.188159E-11
        32  15  5.558602E+05  2.500111E+05  7.946333E+03  3.759720E+05  5.233951E-10  1.018771E-10
        32  16  8.951106E+05  4.793038E+05  1.333293E+05  5.171595E+05 -6.215171E-10 -8.149135E-11
        32  17  8.260031E+05  4.491146E+05  9.459339E+04  5.118056E+05  8.623856E-10  8.659127E-11
        32  18  7.877358E+05  4.190796E+05  7.469338E+04  4.945049E+05  9.508769E-10  3.953455E-10
        32  19  2.350495E+05  5.340120E+04 -7.553808E+04  2.103668E+05  4.049712E+03 -4.152466E+03
        32  20  2.663957E+05  6.938242E+04 -6.748656E+04  2.399024E+05  6.629508E+03 -1.760803E+04
        32  21  3.240418E+05  8.097442E+04 -5.880624E+04  2.574890E+05  2.281699E+03 -2.182695E+04
        32  22  5.650223E+05  2.663300E+05  2.890295E+04  3.637197E+05 -1.240193E+04 -1.648835E+04
        32  23  5.461572E+05  2.592295E+05  1.355833E+04  3.758203E+05  6.770013E+02 -2.206954E+04
        32  24  5.558604E+05  2.500115E+05  7.947058E+03  3.759719E+05  6.830703E+03 -1.841649E+04
        32  25  8.951117E+05  4.793049E+05  1.333325E+05  5.171602E+05 -2.886560E+04 -2.883215E+04
        32  26  8.260034E+05  4.491154E+05  9.459476E+04  5.118057E+05 -5.279123E+03 -2.653360E+04
        32  27  7.877360E+05  4.190799E+05  7.469404E+04  4.945047E+05  1.138195E+04 -1.500426E+04
        33   1  3.507071E+05  1.061522E+05 -5.200324E+04  2.720106E+05 -3.904093E+03  1.731873E+04
        33   2  3.820744E+05  1.428181E+05 -4.253557E+04  2.951815E+05 -3.288523E+03  1.433949E+04
        33   3  4.318206E+05  1.623145E+05 -3.201787E+04  3.129289E+05 -2.317275E+03  1.088426E+04
        33   4  5.558422E+05  2.506410E+05  6.378490E+03  3.744634E+05 -6.136646E+03  1.564483E+04
        33   5  5.464059E+05  2.588270E+05  3.950709E+03  3.774344E+05 -6.062488E+03  1.226029E+04
        33   6  5.554634E+05  2.499598E+05  3.041738E+03  3.749802E+05 -5.632633E+03  8.399902E+03
        33   7  7.610239E+05  3.951535E+05  6.475596E+04  4.769546E+05 -8.370197E+03  1.397019E+04
        33   8  7.107684E+05  3.748521E+05  5.043466E+04  4.597125E+05 -8.837462E+03  1.018034E+04
        33   9  6.791247E+05  3.376149E+05  3.810038E+04  4.370464E+05 -8.948922E+03  5.914845E+03
        33  10  3.507070E+05  1.061519E+05 -5.200383E+04  2.720106E+05  5.643111E-11  9.334866E-11
        33  11  3.820743E+05  1.428178E+05 -4.253598E+04  2.951815E+05  3.222713E-11 -1.315538E-10
        33  12  4.318205E+05  1.623144E+05 -3.201811E+04  3.129289E+05  5.109012E-11 -5.277907E-11
        33  13  5.558421E+05  2.506407E+05  6.377960E+03  3.744634E+05 -6.924385E-10  1.902071E-10
        33  14  5.464058E+05  2.588269E+05  3.950358E+03  3.774344E+05 -1.142241E-09  7.800036E-11
        33  15  5.554633E+05  2.499597E+05  3.041546E+03  3.749802E+05 -7.532607E-11  3.693634E-10
        33  16  7.610237E+05  3.951532E+05  6.475546E+04  4.769547E+05 -2.617722E-10 -2.235801E-11
        33  17  7.107683E+05  3.748520E+05  5.043432E+04  4.597126E+05 -7.472672E-10  1.156766E-10
        33  18  6.791246E+05  3.376148E+05  3.810017E+04  4.370464E+05 -7.115180E-10  5.641311E-10
        33  19  3.507071E+05  1.061522E+05 -5.200324E+04  2.720106E+05  3.904093E+03 -1.731873E+04
        33  20  3.820744E+05  1.428181E+05 -4.253557E+04  2.951815E+05  3.288523E+03 -1.433949E+04
        33  21  4.318206E+05  1.623145E+05 -3.201787E+04  3.129289E+05  2.317275E+03 -1.088426E+04
        33  22  5.558422E+05  2.506410E+05  6.378490E+03  3.744634E+05  6.136646E+03 -1.564483E+04
        33  23  5.464059E+05  2.588270E+05  3.950709E+03  3.774344E+05  6.062488E+03 -1.226029E+04
        33  24  5.554634E+05  2.499598E+05  3.041738E+03  3.749802E+05  5.632633E+03 -8.399902E+03
        33  25  7.610239E+05  3.951535E+05  6.475596E+04  4.769546E+05  8.370197E+03 -1.397019E+04
        33  26  7.107684E+05  3.748521E+05  5.043466E+04  4.597125E+05  8.837462E+03 -1.018034E+04
        33  27  6.791247E+05  3.376149E+05  3.810038E+04  4.370464E+05  8.948922E+03 -5.914845E+03
        34   1  4.613297E+05  1.835463E+05 -2.346059E+04  3.277737E+05 -1.599960E+03  8.787599E+03
        34   2  4.926681E+05  2.209608E+05 -1.167820E+04  3.506148E+05 -8.522886E+02  4.950919E+03
        34   3  5.420677E+05  2.407709E+05  1.257782E+03  3.682826E+05 -9.978828E+01  1.107086E+03
        34   4  5.554556E+05  2.499920E+05  2.958209E+03  3.749229E+05 -4.797494E+03  6.391744E+03
        34   5  5.464388E+05  2.588179E+05  3.458777E+03  3.774922E+05 -4.058035E+03  2.549105E+03
        34   6  5.554838E+05  2.500410E+05  5.120225E+03  3.748873E+05 -3.313637E+03 -1.300603E+03
        34   7  6.495902E+05  3.164418E+05  2.937579E+04  4.220798E+05 -7.995643E+03  3.995430E+03
        34   8  6.002124E+05  2.966765E+05  1.859540E+04  4.043722E+05 -7.264135E+03  1.470276E+02
        34   9  5.689000E+05  2.593112E+05  8.982708E+03  3.814920E+05 -6.527578E+03 -3.708361E+03
        34  10  4.613297E+05  1.835462E+05 -2.346074E+04  3.277737E+05 -2.972631E-10  5.796615E-10
        34  11  4.926681E+05  2.209608E+05 -1.167824E+04  3.506148E+05 -4.556873E-10  6.079582E-10
        34  12  5.420677E+05  2.407709E+05  1.257779E+03  3.682826E+05  1.817008E-10  5.927423E-11
        34  13  5.554556E+05  2.499919E+05  2.958089E+03  3.749230E+05 -6.987180E-10  2.252165E-10
        34  14  5.464388E+05  2.588179E+05  3.458733E+03  3.774923E+05  5.658957E-10  3.434093E-10
        34  15  5.554837E+05  2.500410E+05  5.120201E+03  3.748873E+05  5.679807E-10 -9.084339E-12
        34  16  6.495902E+05  3.164418E+05  2.937564E+04  4.220798E+05 -6.434986E-10  3.470207E-10
        34  17  6.002123E+05  2.966765E+05  1.859530E+04  4.043722E+05  4.206261E-10 -9.514805E-11
        34  18  5.688999E+05  2.593112E+05  8.982603E+03  3.814920E+05  1.753607E-10  2.657484E-12
        34  19  4.613297E+05  1.835463E+05 -2.346059E+04  3.277737E+05  1.599960E+03 -8.787599E+03
        34  20  4.926681E+05  2.209608E+05 -1.167820E+04  3.506148E+05  8.522886E+02 -4.950919E+03
        34  21  5.420677E+05  2.407709E+05  1.257782E+03  3.682826E+05  9.978828E+01 -1.107086E+03
        34  22  5.554556E+05  2.499920E+05  2.958209E+03  3.749229E+05  4.797494E+03 -6.391744E+03
        34  23  5.464388E+05  2.588179E+05  3.458777E+03  3.774922E+05  4.058035E+03 -2.549105E+03
        34  24  5.554838E+05  2.500410E+05  5.120225E+03  3.748873E+05  3.313637E+03  1.300603E+03
        34  25  6.495902E+05  3.164418E+05  2.937579E+04  4.220798E+05  7.995643E+03 -3.995430E+03
        34  26  6.002124E+05  2.966765E+05  1.859540E+04  4.043722E+05  7.264135E+03 -1.470276E+02
        34  27  5.689000E+05  2.593112E+05  8.982708E+03  3.814920E+05  6.527578E+03  3.708361E+03
        35   1  5.712950E+05  2.622038E+05  1.122928E+04  3.835115E+05  4.120986E+02 -1.129177E+03
        35   2  6.032383E+05  2.986941E+05  2.695489E+04  4.056490E+05 -2.237787E+03 -7.379717E+03
        35   3  6.550737E+05  3.198999E+05  4.726517E+04  4.218397E+05 -5.128132E+03 -1.330994E+04
        35   4  5.555568E+05  2.499757E+05  6.457203E+03  3.751371E+05 -2.876459E+03 -3.592848E+03
        35   5  5.462726E+05  2.587678E+05  1.083199E+04  3.772774E+05 -5.161373E+03 -9.570160E+03
        35   6  5.567997E+05  2.521953E+05  1.947572E+04  3.734691E+05 -7.686307E+03 -1.522678E+04
        35   7  5.398187E+05  2.377477E+05  1.685091E+03  3.667628E+05 -6.164943E+03 -6.056452E+03
        35   8  4.893104E+05  2.188434E+05 -5.291196E+03  3.489087E+05 -8.084597E+03 -1.176033E+04
        35   9  4.585376E+05  1.844968E+05 -8.314271E+03  3.251078E+05 -1.024390E+04 -1.714320E+04
        35  10  5.712950E+05  2.622038E+05  1.122928E+04  3.835115E+05 -2.131486E-10 -6.313574E-11
        35  11  6.032383E+05  2.986940E+05  2.695478E+04  4.056490E+05 -1.143442E-09  7.014433E-11
        35  12  6.550736E+05  3.198997E+05  4.726478E+04  4.218396E+05 -4.955891E-10 -2.008477E-10
        35  13  5.555568E+05  2.499757E+05  6.457163E+03  3.751371E+05 -1.447266E-10  1.517353E-10
        35  14  5.462725E+05  2.587677E+05  1.083176E+04  3.772774E+05  8.774617E-11 -2.013976E-10
        35  15  5.567996E+05  2.521951E+05  1.947517E+04  3.734690E+05  4.605069E-10 -1.314928E-10
        35  16  5.398186E+05  2.377477E+05  1.684950E+03  3.667628E+05  3.082901E-10  7.323206E-11
        35  17  4.893103E+05  2.188433E+05 -5.291578E+03  3.489086E+05  4.539402E-10 -3.341653E-10
        35  18  4.585374E+05  1.844964E+05 -8.315020E+03  3.251076E+05  7.674489E-10 -2.177397E-11
        35  19  5.712950E+05  2.622038E+05  1.122928E+04  3.835115E+05 -4.120986E+02  1.129177E+03
        35  20  6.032383E+05  2.986941E+05  2.695489E+04  4.056490E+05  2.237787E+03  7.379717E+03
        35  21  6.550737E+05  3.198999E+05  4.726517E+04  4.218397E+05  5.128132E+03  1.330994E+04
        35  22  5.555568E+05  2.499757E+05  6.457203E+03  3.751371E+05  2.876459E+03  3.592848E+03
        35  23  5.462726E+05  2.587678E+05  1.083199E+04  3.772774E+05  5.161373E+03  9.570160E+03
        35  24  5.567997E+05  2.521953E+05  1.947572E+04  3.734691E+05  7.686307E+03  1.522678E+04
        35  25  5.398187E+05  2.377477E+05  1.685091E+03  3.667628E+05  6.164943E+03  6.056452E+03
        35  26  4.893104E+05  2.188434E+05 -5.291196E+03  3.489087E+05  8.084597E+03  1.176033E+04
        35  27  4.585376E+05  1.844968E+05 -8.314271E+03  3.251078E+05  1.024390E+04  1.714320E+04
        36   1  6.745886E+05  3.493993E+05  6.103357E+04  4.446938E+05 -4.819614E+03 -1.613748E+04
        36   2  7.279631E+05  3.632712E+05  9.277960E+04  4.511211E+05 -2.969674E+04 -3.557953E+04
        36   3  8.362913E+05  4.101187E+05  1.618193E+05  4.302791E+05 -5.923654E+04 -4.880647E+04
        36   4  5.571451E+05  2.499129E+05  2.480060E+04  3.782400E+05 -8.936264E+03 -1.922193E+04
        36   5  5.451742E+05  2.604493E+05  4.327771E+04  3.721790E+05 -2.673683E+04 -3.336329E+04
        36   6  5.866288E+05  3.024404E+05  9.292307E+04  3.388463E+05 -4.919677E+04 -4.128869E+04
        36   7  4.397168E+05  1.504387E+05 -1.143391E+04  3.118018E+05 -1.305188E+04 -2.230540E+04
        36   8  3.624212E+05  1.576373E+05 -6.227466E+03  2.932600E+05 -2.377809E+04 -3.114768E+04
        36   9  3.370330E+05  1.947708E+05  2.402166E+04  2.474444E+05 -3.916250E+04 -3.377290E+04
        36  10  6.745885E+05  3.493990E+05  6.103304E+04  4.446937E+05 -8.998063E-11 -4.043004E-10
        36  11  7.279618E+05  3.632696E+05  9.277557E+04  4.511202E+05  3.996736E-10 -2.553991E-11
        36  12  8.362869E+05  4.101152E+05  1.618083E+05  4.302768E+05  1.973438E-10  2.405324E-10
        36  13  5.571449E+05  2.499125E+05  2.479975E+04  3.782399E+05  5.087313E-10  2.242302E-10
        36  14  5.451731E+05  2.604479E+05  4.327428E+04  3.721783E+05  6.026925E-10  1.173666E-10
        36  15  5.866257E+05  3.024379E+05  9.291533E+04  3.388447E+05 -5.407477E-10  8.656637E-11
        36  16  4.397165E+05  1.504381E+05 -1.143517E+04  3.118015E+05  7.992263E-10  5.467302E-10
        36  17  3.624203E+05  1.576361E+05 -6.230349E+03  2.932594E+05  1.425353E-09  3.468215E-10
        36  18  3.370311E+05  1.947692E+05  2.401664E+04  2.474433E+05  1.738681E-10 -5.747715E-11
        36  19  6.745886E+05  3.493993E+05  6.103357E+04  4.446938E+05  4.819614E+03  1.613748E+04
        36  20  7.279631E+05  3.632712E+05  9.277960E+04  4.511211E+05  2.969674E+04  3.557953E+04
        36  21  8.362913E+05  4.101187E+05  1.618193E+05  4.302791E+05  5.923654E+04  4.880647E+04
        36  22  5.571451E+05  2.499129E+05  2.480060E+04  3.782400E+05  8.936264E+03  1.922193E+04
        36  23  5.451742E+05  2.604493E+05  4.327771E+04  3.721790E+05  2.673683E+04  3.336329E+04
        36  24  5.866288E+05  3.024404E+05  9.292307E+04  3.388463E+05  4.919677E+04  4.128869E+04
        36  25  4.397168E+05  1.504387E+05 -1.143391E+04  3.118018E+05  1.305188E+04  2.230540E+04
        36  26  3.624212E+05  1.576373E+05 -6.227466E+03  2.932600E+05  2.377809E+04  3.114768E+04
        36  27  3.370330E+05  1.947708E+05  2.402166E+04  2.474444E+05  3.916250E+04  3.377290E+04
        37   1  9.627453E+05  6.374898E+04  7.321803E+04  3.645418E+04  5.024779E+04  2.946106E+00
        37   2  9.557231E+05  7.987633E+03  3.498036E+04  1.486770E+04  3.200402E+04  7.653048E-01
        37   3  9.627740E+05 -9.545697E+02  2.031260E+04 -6.718692E+03  1.375997E+04 -1.486904E-01
        37   4  9.627439E+05  6.374649E+04  7.321768E+04  3.070201E-09  5.024779E+04  2.204139E-10
        37   5  9.557228E+05  7.987218E+03  3.498030E+04  3.138927E-08  3.200402E+04 -2.410531E-09
        37   6  9.627740E+05 -9.546544E+02  2.031259E+04  7.074049E-08  1.375997E+04 -1.053902E-08
        37   7  9.627453E+05  6.374898E+04  7.321803E+04 -3.645418E+04  5.024779E+04 -2.946106E+00
        37   8  9.557231E+05  7.987633E+03  3.498036E+04 -1.486770E+04  3.200402E+04 -7.653048E-01
        37   9  9.627740E+05 -9.545697E+02  2.031260E+04  6.718692E+03  1.375997E+04  1.486904E-01
        37  10  9.627426E+05  6.374830E+04  7.321329E+04  3.645418E+04 -2.047520E-09  4.961686E-10
        37  11  9.557220E+05  7.987359E+03  3.497844E+04  1.486770E+04 -1.549370E-08  1.333928E-09
        37  12  9.627738E+05 -9.546205E+02  2.031224E+04 -6.718692E+03 -2.123446E-08  5.891664E-10
        37  13  9.627412E+05  6.374581E+04  7.321294E+04 -2.187685E-08  5.302932E-10 -6.580778E-10
        37  14  9.557217E+05  7.986944E+03  3.497838E+04 -2.207701E-08 -1.268294E-11 -3.772907E-09
        37  15  9.627738E+05 -9.547052E+02  2.031223E+04 -2.578330E-08  2.297441E-10 -8.190821E-09
        37  16  9.627426E+05  6.374830E+04  7.321329E+04 -3.645418E+04  1.691209E-09  3.600114E-10
        37  17  9.557220E+05  7.987359E+03  3.497844E+04 -1.486770E+04  1.370647E-08  9.762749E-10
        37  18  9.627738E+05 -9.546205E+02  2.031224E+04  6.718692E+03  2.176613E-08  5.344446E-10
        37  19  9.627453E+05  6.374898E+04  7.321803E+04  3.645418E+04 -5.024779E+04 -2.946106E+00
        37  20  9.557231E+05  7.987633E+03  3.498036E+04  1.486770E+04 -3.200402E+04 -7.653048E-01
        37  21  9.627740E+05 -9.545697E+02  2.031260E+04 -6.718692E+03 -1.375997E+04  1.486904E-01
        37  22  9.627439E+05  6.374649E+04  7.321768E+04 -9.475170E-09 -5.024779E+04 -1.545455E-09
        37  23  9.557228E+05  7.987218E+03  3.498030E+04 -3.710711E-08 -3.200402E+04 -5.154634E-09
        37  24  9.627740E+05 -9.546544E+02  2.031259E+04 -8.440838E-08 -1.375997E+04 -5.831501E-09
        37  25  9.627453E+05  6.374898E+04  7.321803E+04 -3.645418E+04 -5.024779E+04  2.946106E+00
        37  26  9.557231E+05  7.987633E+03  3.498036E+04 -1.486770E+04 -3.200402E+04  7.653048E-01
        37  27  9.627740E+05 -9.545697E+02  2.031260E+04  6.718692E+03 -1.375997E+04 -1.486904E-01
        38   1  9.599113E+05  2.383718E+03  1.625941E+04  8.581416E+02  1.097498E+04  1.514763E-02
        38   2  9.593094E+05  8.630595E+01  1.045311E+04  2.577481E+02  5.767169E+03  2.390780E-03
        38   3  9.599138E+05 -9.387969E+01  8.562838E+03 -3.426465E+02  5.593761E+02 -3.082678E-04
        38   4  9.599113E+05  2.383716E+03  1.625941E+04 -6.979797E-08  1.097498E+04 -1.094814E-08
        38   5  9.593094E+05  8.630582E+01  1.045311E+04 -2.956288E-08  5.767169E+03 -2.111128E-09
        38   6  9.599138E+05 -9.387991E+01  8.562838E+03  1.870042E-09  5.593761E+02  4.523332E-09
        38   7  9.599113E+05  2.383718E+03  1.625941E+04 -8.581416E+02  1.097498E+04 -1.514764E-02
        38   8  9.593094E+05  8.630595E+01  1.045311E+04 -2.577481E+02  5.767169E+03 -2.390774E-03
        38   9  9.599138E+05 -9.387969E+01  8.562838E+03  3.426465E+02  5.593761E+02  3.082788E-04
        38  10  9.599111E+05  2.383685E+03  1.625918E+04  8.581416E+02  2.359763E-08  3.047523E-10
        38  11  9.593094E+05  8.629704E+01  1.045305E+04  2.577481E+02  1.538312E-08  8.653012E-10
        38  12  9.599138E+05 -9.387978E+01  8.562837E+03 -3.426465E+02  2.947829E-09  1.146596E-09
        38  13  9.599111E+05  2.383684E+03  1.625918E+04  2.279000E-08  7.957977E-11 -8.336356E-09
        38  14  9.593094E+05  8.629691E+01  1.045305E+04  1.925998E-08 -1.048406E-10 -3.837281E-09
        38  15  9.599138E+05 -9.388000E+01  8.562837E+03  2.019524E-08  7.102826E-10  2.478674E-10
        38  16  9.599111E+05  2.383685E+03  1.625918E+04 -8.581416E+02 -2.383751E-08  4.857896E-10
        38  17  9.593094E+05  8.629704E+01  1.045305E+04 -2.577481E+02 -1.531653E-08  1.334176E-09
        38  18  9.599138E+05 -9.387978E+01  8.562837E+03  3.426465E+02 -2.528970E-09  1.544902E-09
        38  19  9.599113E+05  2.383718E+03  1.625941E+04  8.581416E+02 -1.097498E+04 -1.514763E-02
        38  20  9.593094E+05  8.630595E+01  1.045311E+04  2.577481E+02 -5.767169E+03 -2.390778E-03
        38  21  9.599138E+05 -9.387969E+01  8.562838E+03 -3.426465E+02 -5.593761E+02  3.082699E-04
        38  22  9.599113E+05  2.383716E+03  1.625941E+04  7.587463E-08 -1.097498E+04 -5.719711E-09
        38  23  9.593094E+05  8.630582E+01  1.045311E+04  3.182223E-08 -5.767169E+03 -5.591006E-09
        38  24  9.599138E+05 -9.387991E+01  8.562838E+03  5.594951E-10 -5.593761E+02 -4.025852E-09
        38  25  9.599113E+05  2.383718E+03  1.625941E+04 -8.581416E+02 -1.097498E+04  1.514764E-02
        38  26  9.593094E+05  8.630595E+01  1.045311E+04 -2.577481E+02 -5.767169E+03  2.390777E-03
        38  27  9.599138E+05 -9.387969E+01  8.562838E+03  3.426465E+02 -5.593761E+02 -3.082757E-04
        39   1  9.599256E+05 -1.024943E+02  8.631034E+03  3.831900E+02 -9.585209E+02 -5.907372E-04
        39   2  9.592946E+05  9.699580E+01  1.082752E+04 -2.580393E+02 -6.353664E+03  2.636897E-03
        39   3  9.599228E+05  2.528767E+03  1.709063E+04 -8.992575E+02 -1.174875E+04  1.699254E-02
        39   4  9.599256E+05 -1.024946E+02  8.631034E+03  5.998443E-09 -9.585209E+02  5.012393E-09
        39   5  9.592946E+05  9.699567E+01  1.082752E+04  2.653662E-09 -6.353664E+03  2.483902E-09
        39   6  9.599228E+05  2.528765E+03  1.709063E+04  7.187564E-10 -1.174875E+04  1.355561E-09
        39   7  9.599256E+05 -1.024943E+02  8.631034E+03 -3.831900E+02 -9.585209E+02  5.907472E-04
        39   8  9.592946E+05  9.699580E+01  1.082752E+04  2.580393E+02 -6.353664E+03 -2.636892E-03
        39   9  9.599228E+05  2.528767E+03  1.709063E+04  8.992575E+02 -1.174875E+04 -1.699254E-02
        39  10  9.599256E+05 -1.024945E+02  8.631033E+03  3.831900E+02  2.658918E-09  1.144622E-09
        39  11  9.592945E+05  9.698498E+01  1.082744E+04 -2.580393E+02  1.354888E-09  1.017314E-09
        39  12  9.599227E+05  2.528730E+03  1.709037E+04 -8.992575E+02  1.381616E-09  1.051321E-09
        39  13  9.599256E+05 -1.024948E+02  8.631032E+03 -3.344585E-09  5.302785E-10  1.246035E-09
        39  14  9.592945E+05  9.698486E+01  1.082744E+04 -1.733755E-09  1.928736E-10  9.576566E-10
        39  15  9.599227E+05  2.528728E+03  1.709037E+04 -1.204520E-09  2.488630E-10  8.727655E-10
        39  16  9.599256E+05 -1.024945E+02  8.631033E+03 -3.831900E+02 -2.339046E-09  1.325649E-09
        39  17  9.592945E+05  9.698498E+01  1.082744E+04  2.580393E+02 -1.923467E-09  9.360494E-10
        39  18  9.599227E+05  2.528730E+03  1.709037E+04  8.992575E+02 -1.170620E-09  6.914748E-10
        39  19  9.599256E+05 -1.024943E+02  8.631034E+03  3.831900E+02  9.585209E+02  5.907394E-04
        39  20  9.592946E+05  9.699580E+01  1.082752E+04 -2.580393E+02  6.353664E+03 -2.636895E-03
        39  21  9.599228E+05  2.528767E+03  1.709063E+04 -8.992575E+02  1.174875E+04 -1.699254E-02
        39  22  9.599256E+05 -1.024946E+02  8.631034E+03 -7.837275E-09  9.585209E+02 -2.528979E-09
        39  23  9.592946E+05  9.699567E+01  1.082752E+04 -4.509319E-09  6.353664E+03 -5.796823E-10
        39  24  9.599228E+05  2.528765E+03  1.709063E+04 -7.159579E-09  1.174875E+04  3.878559E-10
        39  25  9.599256E+05 -1.024943E+02  8.631034E+03 -3.831900E+02  9.585209E+02 -5.907444E-04
        39  26  9.592946E+05  9.699580E+01  1.082752E+04  2.580393E+02  6.353664E+03  2.636894E-03
        39  27  9.599228E+05  2.528767E+03  1.709063E+04  8.992575E+02  1.174875E+04  1.699254E-02
        40   1  9.629597E+05 -1.009310E+03  2.142293E+04  7.126450E+03 -1.467842E+04 -1.682414E-01
        40   2  9.554901E+05  8.465655E+03  3.701957E+04 -1.574866E+04 -3.398680E+04  8.608749E-01
        40   3  9.629294E+05  6.755085E+04  7.757595E+04 -3.862456E+04 -5.329545E+04  3.310837E+00
        40   4  9.629596E+05 -1.009406E+03  2.142292E+04  1.605325E-09 -1.467842E+04  1.100190E-09
        40   5  9.554898E+05  8.465190E+03  3.701951E+04  9.630455E-11 -3.398680E+04  5.428687E-10
        40   6  9.629278E+05  6.754805E+04  7.757555E+04 -2.950975E-09 -5.329545E+04  1.479633E-10
        40   7  9.629597E+05 -1.009310E+03  2.142293E+04 -7.126450E+03 -1.467842E+04  1.682414E-01
        40   8  9.554901E+05  8.465655E+03  3.701957E+04  1.574866E+04 -3.398680E+04 -8.608749E-01
        40   9  9.629294E+05  6.755085E+04  7.757595E+04  3.862456E+04 -5.329545E+04 -3.310837E+00
        40  10  9.629595E+05 -1.009368E+03  2.142253E+04  7.126450E+03  1.671786E-09  7.964357E-10
        40  11  9.554889E+05  8.465345E+03  3.701740E+04 -1.574865E+04  5.158881E-10  2.512392E-10
        40  12  9.629263E+05  6.755009E+04  7.757062E+04 -3.862456E+04 -9.672040E-11  1.274812E-11
        40  13  9.629594E+05 -1.009464E+03  2.142251E+04  2.942928E-10 -1.967474E-10  7.170543E-10
        40  14  9.554886E+05  8.464880E+03  3.701734E+04  7.696303E-10  2.435894E-10  2.874117E-10
        40  15  9.629247E+05  6.754729E+04  7.757022E+04 -1.440074E-09 -7.666501E-10  3.447820E-11
        40  16  9.629595E+05 -1.009368E+03  2.142253E+04 -7.126450E+03 -1.124913E-09  5.831449E-10
        40  17  9.554889E+05  8.465345E+03  3.701740E+04  1.574865E+04  6.135635E-11  3.259347E-10
        40  18  9.629263E+05  6.755009E+04  7.757062E+04  3.862456E+04 -2.345121E-10  7.654435E-11
        40  19  9.629597E+05 -1.009310E+03  2.142293E+04  7.126450E+03  1.467842E+04  1.682414E-01
        40  20  9.554901E+05  8.465655E+03  3.701957E+04 -1.574866E+04  3.398680E+04 -8.608749E-01
        40  21  9.629294E+05  6.755085E+04  7.757595E+04 -3.862456E+04  5.329545E+04 -3.310837E+00
        40  22  9.629596E+05 -1.009406E+03  2.142292E+04 -3.171511E-09  1.467842E+04  3.293739E-10
        40  23  9.554898E+05  8.465190E+03  3.701951E+04 -1.752328E-10  3.398680E+04  1.711527E-11
        40  24  9.629278E+05  6.754805E+04  7.757555E+04 -2.490152E-09  5.329545E+04 -8.679769E-11
        40  25  9.629597E+05 -1.009310E+03  2.142293E+04 -7.126450E+03  1.467842E+04 -1.682414E-01
        40  26  9.554901E+05  8.465655E+03  3.701957E+04  1.574866E+04  3.398680E+04  8.608749E-01
        40  27  9.629294E+05  6.755085E+04  7.757595E+04  3.862456E+04  5.329545E+04  3.310837E+00
        41   1 -2.658878E+05 -9.353946E+05 -3.267407E+05  7.654671E+04 -1.670118E+03 -1.873421E+05
        41   2 -2.720012E+03 -8.644957E+05 -1.645929E+05  1.942896E+04 -4.625880E+03 -1.175506E+05
        41   3 -2.400236E+04 -8.738040E+05 -1.190266E+05 -1.077323E+04 -3.437801E+03 -4.775643E+04
        41   4 -2.182905E+05 -7.447758E+05 -2.794948E+05  1.617498E+04 -1.651699E+03 -1.852196E+05
        41   5  3.697495E+04 -7.047986E+05 -1.259147E+05  2.704845E+03 -4.622566E+03 -1.171840E+05
        41   6  8.129018E+03 -7.447044E+05 -8.767155E+04  1.615548E+04 -3.440234E+03 -4.914923E+04
        41   7 -1.706822E+05 -5.541160E+05 -2.322497E+05 -4.421533E+04 -1.633699E+03 -1.830966E+05
        41   8  7.666910E+04 -5.450776E+05 -8.723820E+04 -1.402359E+04 -4.619273E+03 -1.168172E+05
        41   9  4.026190E+04 -6.155879E+05 -5.631733E+04  4.308981E+04 -3.442787E+03 -5.054232E+04
        41  10 -2.658973E+05 -9.354323E+05 -3.268067E+05  7.654646E+04  8.575653E-11 -9.220955E-11
        41  11 -2.723751E+03 -8.645106E+05 -1.646189E+05  1.942852E+04 -5.912961E-11  1.277249E-10
        41  12 -2.400299E+04 -8.738064E+05 -1.190309E+05 -1.077336E+04  6.058471E-11  5.456249E-10
        41  13 -2.182997E+05 -7.448126E+05 -2.795594E+05  1.617473E+04 -6.817759E-11 -4.928994E-12
        41  14  3.697124E+04 -7.048134E+05 -1.259406E+05  2.704408E+03 -2.672690E-10 -2.360313E-11
        41  15  8.128356E+03 -7.447070E+05 -8.767612E+04  1.615534E+04  1.194175E-10 -5.047543E-11
        41  16 -1.706912E+05 -5.541521E+05 -2.323128E+05 -4.421557E+04 -6.539164E-10  1.024720E-10
        41  17  7.666541E+04 -5.450923E+05 -8.726390E+04 -1.402402E+04 -1.577658E-10 -4.546095E-11
        41  18  4.026120E+04 -6.155907E+05 -5.632216E+04  4.308967E+04  5.622582E-10 -5.764451E-10
        41  19 -2.658878E+05 -9.353946E+05 -3.267407E+05  7.654671E+04  1.670118E+03  1.873421E+05
        41  20 -2.720012E+03 -8.644957E+05 -1.645929E+05  1.942896E+04  4.625880E+03  1.175506E+05
        41  21 -2.400236E+04 -8.738040E+05 -1.190266E+05 -1.077323E+04  3.437801E+03  4.775643E+04
        41  22 -2.182905E+05 -7.447758E+05 -2.794948E+05  1.617498E+04  1.651699E+03  1.852196E+05
        41  23  3.697495E+04 -7.047986E+05 -1.259147E+05  2.704845E+03  4.622566E+03  1.171840E+05
        41  24  8.129018E+03 -7.447044E+05 -8.767155E+04  1.615548E+04  3.440234E+03  4.914923E+04
        41  25 -1.706822E+05 -5.541160E+05 -2.322497E+05 -4.421533E+04  1.633699E+03  1.830966E+05
        41  26  7.666910E+04 -5.450776E+05 -8.723820E+04 -1.402359E+04  4.619273E+03  1.168172E+05
        41  27  4.026190E+04 -6.155879E+05 -5.631733E+04  4.308981E+04  3.442787E+03  5.054232E+04
        42   1 -4.392290E+04 -8.092791E+05 -9.620259E+04  2.531886E+04 -2.110676E+03 -3.448221E+04
        42   2 -3.810680E+03 -7.687682E+05 -6.758556E+04  2.864135E+03 -1.284163E+03 -5.445421E+03
        42   3 -2.347666E+04 -7.470101E+05 -7.283652E+04  7.782668E+03 -2.941646E+02  2.359270E+04
        42   4 -2.449367E+04 -7.311321E+05 -7.723425E+04  1.626792E+04 -2.110260E+03 -3.479860E+04
        42   5  7.879293E+03 -7.217605E+05 -5.618074E+04  2.580785E+03 -1.284291E+03 -5.829292E+03
        42   6 -1.951177E+04 -7.311294E+05 -6.894587E+04  1.626721E+04 -2.940236E+02  2.313991E+04
        42   7 -5.064578E+03 -6.529793E+05 -5.826630E+04  7.215835E+03 -2.109836E+03 -3.511504E+04
        42   8  1.956910E+04 -6.747508E+05 -4.477607E+04  2.297413E+03 -1.284419E+03 -6.213192E+03
        42   9 -1.554664E+04 -7.152483E+05 -6.505521E+04  2.475198E+04 -2.938950E+02  2.268712E+04
        42  10 -4.392322E+04 -8.092804E+05 -9.620483E+04  2.531880E+04  4.248385E-10 -3.542808E-11
        42  11 -3.810690E+03 -7.687683E+05 -6.758562E+04  2.864130E+03  5.058510E-10  1.553426E-11
        42  12 -2.347681E+04 -7.470107E+05 -7.283756E+04  7.782673E+03  2.461349E-10  2.992361E-10
        42  13 -2.449400E+04 -7.311334E+05 -7.723653E+04  1.626786E+04  2.801283E-10 -2.192443E-11
        42  14  7.879282E+03 -7.217606E+05 -5.618080E+04  2.580779E+03 -4.956079E-10  8.644963E-11
        42  15 -1.951192E+04 -7.311300E+05 -6.894688E+04  1.626722E+04 -1.479177E-09 -4.404896E-11
        42  16 -5.064914E+03 -6.529806E+05 -5.826863E+04  7.215775E+03  3.240119E-10  9.872745E-12
        42  17  1.956909E+04 -6.747508E+05 -4.477614E+04  2.297407E+03 -1.325648E-10  2.374557E-10
        42  18 -1.554678E+04 -7.152488E+05 -6.505618E+04  2.475198E+04 -5.132360E-11 -3.521390E-10
        42  19 -4.392290E+04 -8.092791E+05 -9.620259E+04  2.531886E+04  2.110676E+03  3.448221E+04
        42  20 -3.810680E+03 -7.687682E+05 -6.758556E+04  2.864135E+03  1.284163E+03  5.445421E+03
        42  21 -2.347666E+04 -7.470101E+05 -7.283652E+04  7.782668E+03  2.941646E+02 -2.359270E+04
        42  22 -2.449367E+04 -7.311321E+05 -7.723425E+04  1.626792E+04  2.110260E+03  3.479860E+04
        42  23  7.879293E+03 -7.217605E+05 -5.618074E+04  2.580785E+03  1.284291E+03  5.829292E+03
        42  24 -1.951177E+04 -7.311294E+05 -6.894587E+04  1.626721E+04  2.940236E+02 -2.313991E+04
        42  25 -5.064578E+03 -6.529793E+05 -5.826630E+04  7.215835E+03  2.109836E+03  3.511504E+04
        42  26  1.956910E+04 -6.747508E+05 -4.477607E+04  2.297413E+03  1.284419E+03  6.213192E+03
        42  27 -1.554664E+04 -7.152483E+05 -6.505521E+04  2.475198E+04  2.938950E+02 -2.268712E+04
        43   1  1.445167E+04 -7.061400E+05 -6.735902E+04  3.833063E+04  8.065064E+02  3.676959E+04
        43   2  4.675165E+04 -6.423847E+05 -8.844956E+04 -1.098868E+04  1.985055E+03  9.217269E+04
        43   3 -1.531763E+05 -6.439288E+05 -2.036857E+05 -3.297784E+04  8.142214E+02  1.475796E+05
        43   4  5.625231E+03 -7.415036E+05 -7.599136E+04  1.623682E+04  8.048022E+02  3.577052E+04
        43   5  3.025830E+04 -7.087899E+05 -1.045171E+05  2.599652E+03  1.987090E+03  9.216978E+04
        43   6 -1.775285E+05 -7.415621E+05 -2.278900E+05  1.629217E+04  8.262592E+02  1.485700E+05
        43   7 -3.199465E+03 -7.768651E+05 -8.462354E+04 -5.855732E+03  8.031691E+02  3.477151E+04
        43   8  1.376533E+04 -7.751907E+05 -1.205848E+05  1.618653E+04  1.989124E+03  9.216687E+04
        43   9 -2.018724E+05 -8.391815E+05 -2.520938E+05  6.555442E+04  8.384560E+02  1.495602E+05
        43  10  1.445131E+04 -7.061414E+05 -6.736156E+04  3.833060E+04  1.881858E-10  5.224997E-10
        43  11  4.674936E+04 -6.423938E+05 -8.846555E+04 -1.098883E+04  2.733612E-10  1.054320E-10
        43  12 -1.531821E+05 -6.439522E+05 -2.037267E+05 -3.297793E+04  4.165313E-10 -1.019274E-10
        43  13  5.624886E+03 -7.415050E+05 -7.599377E+04  1.623679E+04 -8.743777E-10  6.194491E-11
        43  14  3.025601E+04 -7.087990E+05 -1.045331E+05  2.599505E+03 -2.186256E-10  6.726773E-11
        43  15 -1.775345E+05 -7.415858E+05 -2.279315E+05  1.629207E+04 -3.055317E-10 -5.603917E-11
        43  16 -3.199791E+03 -7.768664E+05 -8.462581E+04 -5.855755E+03  7.405252E-12 -4.230686E-10
        43  17  1.376304E+04 -7.751998E+05 -1.206008E+05  1.618638E+04 -3.420120E-10  4.390697E-11
        43  18 -2.018784E+05 -8.392055E+05 -2.521358E+05  6.555432E+04 -6.925779E-12  4.636337E-11
        43  19  1.445167E+04 -7.061400E+05 -6.735902E+04  3.833063E+04 -8.065064E+02 -3.676959E+04
        43  20  4.675165E+04 -6.423847E+05 -8.844956E+04 -1.098868E+04 -1.985055E+03 -9.217269E+04
        43  21 -1.531763E+05 -6.439288E+05 -2.036857E+05 -3.297784E+04 -8.142214E+02 -1.475796E+05
        43  22  5.625231E+03 -7.415036E+05 -7.599136E+04  1.623682E+04 -8.048022E+02 -3.577052E+04
        43  23  3.025830E+04 -7.087899E+05 -1.045171E+05  2.599652E+03 -1.987090E+03 -9.216978E+04
        43  24 -1.775285E+05 -7.415621E+05 -2.278900E+05  1.629217E+04 -8.262592E+02 -1.485700E+05
        43  25 -3.199465E+03 -7.768651E+05 -8.462354E+04 -5.855732E+03 -8.031691E+02 -3.477151E+04
        43  26  1.376533E+04 -7.751907E+05 -1.205848E+05  1.618653E+04 -1.989124E+03 -9.216687E+04
        43  27 -2.018724E+05 -8.391815E+05 -2.520938E+05  6.555442E+04 -8.384560E+02 -1.495602E+05
        44   1 -1.887767E+05 -3.975960E+05 -2.204264E+05 -1.049543E+05 -8.410816E+04 -5.299536E+04
        44   2 -1.353765E+05 -2.887125E+05 -1.402599E+05 -9.058951E+04 -5.864493E+04 -1.106104E+04
        44   3 -9.238117E+04 -2.266859E+05 -1.000090E+05 -6.856696E+04 -2.446207E+04  1.925881E+04
        44   4  2.236483E+05 -3.321193E+04 -7.433276E+04  1.324030E+05 -4.644623E+04 -2.476805E+04
        44   5  2.380961E+05  8.482126E+03 -3.646764E+04  1.131447E+05 -4.239555E+04  1.114950E+03
        44   6  2.468005E+05  7.978740E+03 -1.991733E+04  1.015378E+05 -2.963206E+04  1.538168E+04
        44   7  6.362504E+05  3.313265E+05  7.174056E+04  3.699529E+05 -8.751434E+03  3.492160E+03
        44   8  6.117235E+05  3.057835E+05  6.731156E+04  3.170259E+05 -2.613330E+04  1.330228E+04
        44   9  5.861154E+05  2.427104E+05  6.016703E+04  2.717493E+05 -3.480583E+04  1.150177E+04
        44  10 -1.887851E+05 -3.976010E+05 -2.204449E+05 -1.049579E+05  1.118242E-10  4.434449E-11
        44  11 -1.353803E+05 -2.887136E+05 -1.402666E+05 -9.059003E+04 -3.834063E-10  4.935296E-11
        44  12 -9.238192E+04 -2.266864E+05 -1.000108E+05 -6.856658E+04  3.576030E-10  5.370902E-11
        44  13  2.236458E+05 -3.321317E+04 -7.433797E+04  1.324021E+05  2.458697E-12  7.117808E-12
        44  14  2.380941E+05  8.481642E+03 -3.647102E+04  1.131448E+05 -3.627614E-11  5.052049E-11
        44  15  2.467994E+05  7.978250E+03 -1.991942E+04  1.015382E+05  5.040140E-11  9.970437E-11
        44  16  6.362503E+05  3.313265E+05  7.174040E+04  3.699529E+05  1.648077E-11 -3.129082E-11
        44  17  6.117227E+05  3.057832E+05  6.730995E+04  3.170262E+05 -2.860747E-10  8.857442E-13
        44  18  5.861140E+05  2.427099E+05  6.016451E+04  2.717496E+05 -1.718063E-10  5.454803E-11
        44  19 -1.887767E+05 -3.975960E+05 -2.204264E+05 -1.049543E+05  8.410816E+04  5.299536E+04
        44  20 -1.353765E+05 -2.887125E+05 -1.402599E+05 -9.058951E+04  5.864493E+04  1.106104E+04
        44  21 -9.238117E+04 -2.266859E+05 -1.000090E+05 -6.856696E+04  2.446207E+04 -1.925881E+04
        44  22  2.236483E+05 -3.321193E+04 -7.433276E+04  1.324030E+05  4.644623E+04  2.476805E+04
        44  23  2.380961E+05  8.482126E+03 -3.646764E+04  1.131447E+05  4.239555E+04 -1.114950E+03
        44  24  2.468005E+05  7.978740E+03 -1.991733E+04  1.015378E+05  2.963206E+04 -1.538168E+04
        44  25  6.362504E+05  3.313265E+05  7.174056E+04  3.699529E+05  8.751434E+03 -3.492160E+03
        44  26  6.117235E+05  3.057835E+05  6.731156E+04  3.170259E+05  2.613330E+04 -1.330228E+04
        44  27  5.861154E+05  2.427104E+05  6.016703E+04  2.717493E+05  3.480583E+04 -1.150177E+04
        45   1 -4.955340E+04 -2.036702E+05 -8.523197E+04 -4.986034E+04 -2.174928E+04  1.825379E+04
        45   2  4.605945E+02 -1.521721E+05 -6.301169E+04 -1.950102E+04 -1.411840E+04  1.937444E+04
        45   3  6.419610E+04 -1.186321E+05 -4.587649E+04  6.831753E+03 -5.615878E+03  1.933206E+04
        45   4  2.484742E+05  8.564697E+03 -1.505707E+04  1.026242E+05 -2.610953E+04  1.498417E+04
        45   5  2.420387E+05  1.847098E+04 -8.206640E+03  1.037780E+05 -2.062213E+04  1.449962E+04
        45   6  2.497848E+05  1.088347E+04 -4.580064E+03  1.009019E+05 -1.426409E+04  1.285181E+04
        45   7  5.466113E+05  2.208597E+05  5.511441E+04  2.551971E+05 -3.047266E+04  1.171236E+04
        45   8  4.836855E+05  1.891506E+05  4.659544E+04  2.271129E+05 -2.712922E+04  9.622255E+03
        45   9  4.354107E+05  1.404176E+05  3.671376E+04  1.950030E+05 -2.291558E+04  6.369120E+03
        45  10 -4.955400E+04 -2.036707E+05 -8.523348E+04 -4.986002E+04  1.210201E-10  9.233104E-11
        45  11  4.602797E+02 -1.521726E+05 -6.301277E+04 -1.950080E+04 -8.257989E-11 -1.635394E-11
        45  12  6.419597E+04 -1.186325E+05 -4.587725E+04  6.831841E+03 -5.386707E-10 -3.198513E-10
        45  13  2.484735E+05  8.564273E+03 -1.505877E+04  1.026245E+05 -3.294862E-10  6.184088E-11
        45  14  2.420382E+05  1.847064E+04 -8.207834E+03  1.037782E+05 -9.176157E-11  1.133000E-10
        45  15  2.497846E+05  1.088324E+04 -4.580757E+03  1.009021E+05  1.388260E-10  6.999294E-10
        45  16  5.466102E+05  2.208593E+05  5.511241E+04  2.551974E+05 -4.343444E-10 -1.359250E-11
        45  17  4.836847E+05  1.891503E+05  4.659388E+04  2.271132E+05 -2.491247E-10  3.714868E-10
        45  18  4.354101E+05  1.404174E+05  3.671270E+04  1.950032E+05  5.919674E-10  1.469058E-09
        45  19 -4.955340E+04 -2.036702E+05 -8.523197E+04 -4.986034E+04  2.174928E+04 -1.825379E+04
        45  20  4.605945E+02 -1.521721E+05 -6.301169E+04 -1.950102E+04  1.411840E+04 -1.937444E+04
        45  21  6.419610E+04 -1.186321E+05 -4.587649E+04  6.831753E+03  5.615878E+03 -1.933206E+04
        45  22  2.484742E+05  8.564697E+03 -1.505707E+04  1.026242E+05  2.610953E+04 -1.498417E+04
        45  23  2.420387E+05  1.847098E+04 -8.206640E+03  1.037780E+05  2.062213E+04 -1.449962E+04
        45  24  2.497848E+05  1.088347E+04 -4.580064E+03  1.009019E+05  1.426409E+04 -1.285181E+04
        45  25  5.466113E+05  2.208597E+05  5.511441E+04  2.551971E+05  3.047266E+04 -1.171236E+04
        45  26  4.836855E+05  1.891506E+05  4.659544E+04  2.271129E+05  2.712922E+04 -9.622255E+03
        45  27  4.354107E+05  1.404176E+05  3.671376E+04  1.950030E+05  2.291558E+04 -6.369120E+03
        46   1  1.012850E+05 -9.311923E+04 -3.620090E+04  2.546686E+04 -3.068719E+03  1.692519E+04
        46   2  1.506385E+05 -4.505055E+04 -2.183081E+04  5.680676E+04  1.209811E+03  1.284042E+04
        46   3  2.156069E+05 -1.288160E+04 -8.127875E+03  8.352738E+04  5.522285E+03  8.709801E+03
        46   4  2.499277E+05  1.092096E+04 -3.407721E+03  1.010121E+05 -1.163995E+04  1.050325E+04
        46   5  2.421413E+05  1.891070E+04 -1.754186E+03  1.032900E+05 -7.446230E+03  6.355485E+03
        46   6  2.499844E+05  1.101684E+04 -6.945406E+02  1.009454E+05 -3.218637E+03  2.161799E+03
        46   7  3.985968E+05  1.149750E+05  2.938483E+04  1.765786E+05 -2.021393E+04  4.079267E+03
        46   8  3.336552E+05  8.287792E+04  1.832280E+04  1.497818E+05 -1.610406E+04 -1.307794E+02
        46   9  2.843641E+05  3.491662E+04  6.739428E+03  1.183650E+05 -1.196038E+04 -4.386810E+03
        46  10  1.012849E+05 -9.311954E+04 -3.620146E+04  2.546690E+04  4.671630E-11  5.727181E-12
        46  11  1.506385E+05 -4.505073E+04 -2.183112E+04  5.680674E+04 -8.601880E-11 -7.842880E-10
        46  12  2.156069E+05 -1.288169E+04 -8.128075E+03  8.352734E+04  7.174711E-10 -3.074780E-09
        46  13  2.499275E+05  1.092080E+04 -3.408183E+03  1.010122E+05  9.654153E-10  6.714418E-10
        46  14  2.421413E+05  1.891064E+04 -1.754366E+03  1.032900E+05  4.816220E-10  7.745309E-10
        46  15  2.499844E+05  1.101683E+04 -6.945688E+02  1.009454E+05  1.487493E-09  2.439840E-10
        46  16  3.985963E+05  1.149748E+05  2.938403E+04  1.765787E+05  1.133425E-10  1.317926E-09
        46  17  3.336550E+05  8.287785E+04  1.832231E+04  1.497818E+05  5.143304E-10  1.391742E-09
        46  18  2.843640E+05  3.491656E+04  6.739123E+03  1.183649E+05  8.098990E-10  2.810420E-09
        46  19  1.012850E+05 -9.311923E+04 -3.620090E+04  2.546686E+04  3.068719E+03 -1.692519E+04
        46  20  1.506385E+05 -4.505055E+04 -2.183081E+04  5.680676E+04 -1.209811E+03 -1.284042E+04
        46  21  2.156069E+05 -1.288160E+04 -8.127875E+03  8.352738E+04 -5.522285E+03 -8.709801E+03
        46  22  2.499277E+05  1.092096E+04 -3.407721E+03  1.010121E+05  1.163995E+04 -1.050325E+04
        46  23  2.421413E+05  1.891070E+04 -1.754186E+03  1.032900E+05  7.446230E+03 -6.355485E+03
        46  24  2.499844E+05  1.101684E+04 -6.945406E+02  1.009454E+05  3.218637E+03 -2.161799E+03
        46  25  3.985968E+05  1.149750E+05  2.938483E+04  1.765786E+05  2.021393E+04 -4.079267E+03
        46  26  3.336552E+05  8.287792E+04  1.832280E+04  1.497818E+05  1.610406E+04  1.307794E+02
        46  27  2.843641E+05  3.491662E+04  6.739428E+03  1.183650E+05  1.196038E+04  4.386810E+03
        47   1  2.522554E+05  1.288393E+04  7.439305E+02  1.021697E+05  7.730449E+03  5.999747E+03
        47   2  3.015928E+05  6.069342E+04  1.465047E+04  1.333468E+05  9.509688E+03  4.492874E+02
        47   3  3.670955E+05  9.329309E+04  2.993629E+04  1.598473E+05  1.076316E+04 -4.399555E+03
        47   4  2.500043E+05  1.103899E+04 -2.678603E+02  1.009820E+05 -1.052288E+03 -5.795165E+02
        47   5  2.421389E+05  1.892140E+04  5.691387E+02  1.032173E+05  2.021512E+03 -5.160469E+03
        47   6  2.501555E+05  1.131231E+04  1.663085E+03  1.007736E+05  4.569675E+03 -9.039665E+03
        47   7  2.477535E+05  9.194219E+03 -1.279184E+03  9.979445E+04 -9.834806E+03 -7.158610E+03
        47   8  1.826899E+05 -2.284794E+04 -1.351187E+04  7.309148E+04 -5.465628E+03 -1.076945E+04
        47   9  1.332314E+05 -7.066017E+04 -2.661080E+04  4.171271E+04 -1.622239E+03 -1.367861E+04
        47  10  2.522553E+05  1.288387E+04  7.437507E+02  1.021697E+05 -4.156624E-08 -3.566481E-08
        47  11  3.015927E+05  6.069340E+04  1.465030E+04  1.333468E+05 -1.414909E-08 -1.323192E-08
        47  12  3.670954E+05  9.329303E+04  2.993604E+04  1.598474E+05  3.053118E-08  2.482603E-08
        47  13  2.500043E+05  1.103899E+04 -2.678630E+02  1.009820E+05 -4.597995E-09 -5.471628E-09
        47  14  2.421389E+05  1.892137E+04  5.690809E+02  1.032173E+05 -1.432632E-08 -1.272502E-08
        47  15  2.501555E+05  1.131222E+04  1.662892E+03  1.007736E+05 -4.805752E-09 -5.024878E-09
        47  16  2.477534E+05  9.194138E+03 -1.279462E+03  9.979439E+04  3.091123E-08  2.481119E-08
        47  17  1.826898E+05 -2.284807E+04 -1.351215E+04  7.309143E+04 -1.454369E-08 -1.342950E-08
        47  18  1.332314E+05 -7.066037E+04 -2.661116E+04  4.171269E+04 -4.139359E-08 -3.575086E-08
        47  19  2.522554E+05  1.288393E+04  7.439305E+02  1.021697E+05 -7.730449E+03 -5.999747E+03
        47  20  3.015928E+05  6.069342E+04  1.465047E+04  1.333468E+05 -9.509688E+03 -4.492874E+02
        47  21  3.670955E+05  9.329309E+04  2.993629E+04  1.598473E+05 -1.076316E+04  4.399555E+03
        47  22  2.500043E+05  1.103899E+04 -2.678603E+02  1.009820E+05  1.052288E+03  5.795165E+02
        47  23  2.421389E+05  1.892140E+04  5.691387E+02  1.032173E+05 -2.021512E+03  5.160469E+03
        47  24  2.501555E+05  1.131231E+04  1.663085E+03  1.007736E+05 -4.569675E+03  9.039665E+03
        47  25  2.477535E+05  9.194219E+03 -1.279184E+03  9.979445E+04  9.834806E+03  7.158610E+03
        47  26  1.826899E+05 -2.284794E+04 -1.351187E+04  7.309148E+04  5.465628E+03  1.076945E+04
        47  27  1.332314E+05 -7.066017E+04 -2.661080E+04  4.171271E+04  1.622239E+03  1.367861E+04
        48   1  4.036691E+05  1.200795E+05  3.992825E+04  1.788799E+05  1.274749E+04 -6.505299E+03
        48   2  4.557349E+05  1.659814E+05  6.141551E+04  2.069990E+05 -2.146920E+03 -1.779309E+04
        48   3  5.284174E+05  2.031149E+05  9.694450E+04  2.291574E+05 -2.234964E+04 -2.200388E+04
        48   4  2.502176E+05  1.153731E+04  2.360260E+03  1.009654E+05  6.062115E+03 -1.151432E+04
        48   5  2.428005E+05  1.996955E+04  4.584655E+03  1.019697E+05  4.236438E+03 -1.301093E+04
        48   6  2.531644E+05  1.679905E+04  9.517568E+03  9.701001E+04 -2.896425E+03 -7.427503E+03
        48   7  9.679089E+04 -9.699222E+04 -3.520999E+04  2.307203E+04 -6.211502E+02 -1.652174E+04
        48   8  2.991559E+04 -1.260187E+05 -5.225047E+04 -3.019535E+03  1.061688E+04 -8.230867E+03
        48   9 -2.200630E+04 -1.694796E+05 -7.791629E+04 -3.507231E+04  1.654494E+04  7.140540E+03
        48  10  4.036689E+05  1.200794E+05  3.992787E+04  1.788800E+05 -2.594518E-10  2.573219E-09
        48  11  4.557349E+05  1.659811E+05  6.141491E+04  2.069990E+05  5.529945E-10  1.769755E-09
        48  12  5.284167E+05  2.031142E+05  9.694266E+04  2.291570E+05  1.064552E-09  9.932427E-10
        48  13  2.502175E+05  1.153715E+04  2.359942E+03  1.009655E+05  3.264273E-10 -2.197424E-10
        48  14  2.428004E+05  1.996936E+04  4.584304E+03  1.019698E+05 -6.434548E-10  4.458101E-10
        48  15  2.531644E+05  1.679899E+04  9.517449E+03  9.700999E+04 -1.378735E-10 -1.421807E-11
        48  16  9.679082E+04 -9.699252E+04 -3.521050E+04  2.307202E+04  5.419909E-10 -2.400380E-09
        48  17  2.991545E+04 -1.260188E+05 -5.225081E+04 -3.019465E+03 -1.057204E-09 -7.396245E-10
        48  18 -2.200660E+04 -1.694797E+05 -7.791690E+04 -3.507241E+04 -1.652044E-09 -6.075636E-10
        48  19  4.036691E+05  1.200795E+05  3.992825E+04  1.788799E+05 -1.274749E+04  6.505299E+03
        48  20  4.557349E+05  1.659814E+05  6.141551E+04  2.069990E+05  2.146920E+03  1.779309E+04
        48  21  5.284174E+05  2.031149E+05  9.694450E+04  2.291574E+05  2.234964E+04  2.200388E+04
        48  22  2.502176E+05  1.153731E+04  2.360260E+03  1.009654E+05 -6.062115E+03  1.151432E+04
        48  23  2.428005E+05  1.996955E+04  4.584655E+03  1.019697E+05 -4.236438E+03  1.301093E+04
        48  24  2.531644E+05  1.679905E+04  9.517568E+03  9.701001E+04  2.896425E+03  7.427503E+03
        48  25  9.679089E+04 -9.699222E+04 -3.520999E+04  2.307203E+04  6.211502E+02  1.652174E+04
        48  26  2.991559E+04 -1.260187E+05 -5.225047E+04 -3.019535E+03 -1.061688E+04  8.230867E+03
        48  27 -2.200630E+04 -1.694796E+05 -7.791629E+04 -3.507231E+04 -1.654494E+04 -7.140540E+03
        49   1  7.422152E+05  2.473085E+04  3.119609E+04  8.525568E+03  2.036521E+04  2.793454E-01
        49   2  7.380067E+05 -3.079912E+03  1.450054E+04  2.551157E+03  1.259147E+04  5.168263E-02
        49   3  7.422244E+05 -1.221331E+03  1.027906E+04 -3.423208E+03  4.817723E+03 -2.653402E-02
        49   4  7.422152E+05  2.473071E+04  3.119607E+04 -4.407394E-09  2.036521E+04  1.121294E-10
        49   5  7.380067E+05 -3.079924E+03  1.450054E+04  7.449065E-10  1.259147E+04  3.241980E-10
        49   6  7.422243E+05 -1.221353E+03  1.027906E+04  2.492853E-10  4.817723E+03  1.672665E-11
        49   7  7.422152E+05  2.473085E+04  3.119609E+04 -8.525568E+03  2.036521E+04 -2.793454E-01
        49   8  7.380067E+05 -3.079912E+03  1.450054E+04 -2.551157E+03  1.259147E+04 -5.168263E-02
        49   9  7.422244E+05 -1.221331E+03  1.027906E+04  3.423208E+03  4.817723E+03  2.653402E-02
        49  10  7.422148E+05  2.473074E+04  3.119531E+04  8.525568E+03  2.271225E-11 -2.563479E-11
        49  11  7.380065E+05 -3.079955E+03  1.450024E+04  2.551157E+03 -1.222975E-10  8.584518E-11
        49  12  7.422243E+05 -1.221337E+03  1.027902E+04 -3.423208E+03 -2.484992E-11  3.633821E-11
        49  13  7.422147E+05  2.473060E+04  3.119529E+04  9.906993E-10 -8.418911E-12  6.978753E-11
        49  14  7.380065E+05 -3.079967E+03  1.450024E+04  1.279336E-09 -2.641094E-10  1.496162E-10
        49  15  7.422243E+05 -1.221359E+03  1.027902E+04 -5.213423E-11  3.700914E-10  1.188143E-11
        49  16  7.422148E+05  2.473074E+04  3.119531E+04 -8.525568E+03 -1.679007E-10  8.418013E-11
        49  17  7.380065E+05 -3.079955E+03  1.450024E+04 -2.551157E+03 -1.136601E-10  1.672285E-10
        49  18  7.422243E+05 -1.221337E+03  1.027902E+04  3.423208E+03 -1.738368E-10  1.150271E-10
        49  19  7.422152E+05  2.473085E+04  3.119609E+04  8.525568E+03 -2.036521E+04 -2.793454E-01
        49  20  7.380067E+05 -3.079912E+03  1.450054E+04  2.551157E+03 -1.259147E+04 -5.168263E-02
        49  21  7.422244E+05 -1.221331E+03  1.027906E+04 -3.423208E+03 -4.817723E+03  2.653402E-02
        49  22  7.422152E+05  2.473071E+04  3.119607E+04 -5.448393E-09 -2.036521E+04  5.597817E-12
        49  23  7.380067E+05 -3.079924E+03  1.450054E+04  2.896316E-09 -1.259147E+04 -1.061378E-11
        49  24  7.422243E+05 -1.221353E+03  1.027906E+04 -8.774660E-10 -4.817723E+03  3.560622E-11
        49  25  7.422152E+05  2.473085E+04  3.119609E+04 -8.525568E+03 -2.036521E+04  2.793454E-01
        49  26  7.380067E+05 -3.079912E+03  1.450054E+04 -2.551157E+03 -1.259147E+04  5.168263E-02
        49  27  7.422244E+05 -1.221331E+03  1.027906E+04  3.423208E+03 -4.817723E+03 -2.653402E-02
        50   1  7.407022E+05  2.325681E+03  9.338952E+03  9.293544E+02  3.136710E+03  4.690129E-03
        50   2  7.399094E+05 -4.757600E+02  7.908542E+03  1.754643E+02 -8.579431E+02 -2.422011E-04
        50   3  7.407024E+05  9.893481E+02  1.014318E+04 -5.784136E+02 -4.852541E+03  4.515821E-03
        50   4  7.407022E+05  2.325679E+03  9.338952E+03  9.981603E-10  3.136710E+03 -5.347034E-11
        50   5  7.399094E+05 -4.757600E+02  7.908542E+03  4.708167E-09 -8.579431E+02  1.578666E-10
        50   6  7.407024E+05  9.893475E+02  1.014318E+04 -8.771438E-10 -4.852541E+03  5.631658E-11
        50   7  7.407022E+05  2.325681E+03  9.338952E+03 -9.293544E+02  3.136710E+03 -4.690129E-03
        50   8  7.399094E+05 -4.757600E+02  7.908542E+03 -1.754643E+02 -8.579431E+02  2.422016E-04
        50   9  7.407024E+05  9.893481E+02  1.014318E+04  5.784136E+02 -4.852541E+03 -4.515821E-03
        50  10  7.407022E+05  2.325678E+03  9.338934E+03  9.293544E+02 -2.644711E-10 -4.178729E-11
        50  11  7.399094E+05 -4.757602E+02  7.908541E+03  1.754643E+02  2.001168E-10 -2.613853E-11
        50  12  7.407023E+05  9.893418E+02  1.014314E+04 -5.784136E+02 -2.303596E-10 -1.622914E-10
        50  13  7.407022E+05  2.325677E+03  9.338934E+03  3.142750E-09 -2.272311E-10 -7.504711E-11
        50  14  7.399094E+05 -4.757602E+02  7.908541E+03  5.246813E-09 -8.027420E-28 -1.057749E-10
        50  15  7.407023E+05  9.893411E+02  1.014314E+04  1.965480E-09 -4.893785E-11 -7.154815E-11
        50  16  7.407022E+05  2.325678E+03  9.338934E+03 -9.293544E+02  4.111568E-10 -1.742272E-10
        50  17  7.399094E+05 -4.757602E+02  7.908541E+03 -1.754643E+02 -6.034792E-10 -2.262382E-10
        50  18  7.407023E+05  9.893418E+02  1.014314E+04  5.784136E+02 -1.983206E-10  2.587506E-11
        50  19  7.407022E+05  2.325681E+03  9.338952E+03  9.293544E+02 -3.136710E+03 -4.690129E-03
        50  20  7.399094E+05 -4.757600E+02  7.908542E+03  1.754643E+02  8.579431E+02  2.422011E-04
        50  21  7.407024E+05  9.893481E+02  1.014318E+04 -5.784136E+02  4.852541E+03 -4.515822E-03
        50  22  7.407022E+05  2.325679E+03  9.338952E+03  2.051250E-09 -3.136710E+03 -1.102403E-10
        50  23  7.399094E+05 -4.757600E+02  7.908542E+03  3.631402E-09  8.579431E+02 -3.951746E-10
        50  24  7.407024E+05  9.893475E+02  1.014318E+04 -3.011733E-09  4.852541E+03 -2.313422E-10
        50  25  7.407022E+05  2.325681E+03  9.338952E+03 -9.293544E+02 -3.136710E+03  4.690129E-03
        50  26  7.399094E+05 -4.757600E+02  7.908542E+03 -1.754643E+02  8.579431E+02 -2.422018E-04
        50  27  7.407024E+05  9.893481E+02  1.014318E+04  5.784136E+02  4.852541E+03  4.515822E-03
        51   1  7.414330E+05 -4.075741E+02  1.198498E+04  1.829981E+03 -6.805871E+03 -2.003821E-02
        51   2  7.389943E+05 -1.578266E+03  1.845405E+04 -9.030082E+02 -1.622200E+04  2.356821E-02
        51   3  7.414263E+05  1.183968E+04  3.469555E+04 -3.636032E+03 -2.563835E+04  1.499848E-01
        51   4  7.414330E+05 -4.075804E+02  1.198498E+04 -3.088545E-09 -6.805871E+03 -7.043694E-11
        51   5  7.389943E+05 -1.578268E+03  1.845405E+04  6.968623E-10 -1.622200E+04 -1.229803E-10
        51   6  7.414263E+05  1.183966E+04  3.469554E+04 -2.662675E-09 -2.563835E+04  2.761044E-10
        51   7  7.414330E+05 -4.075741E+02  1.198498E+04 -1.829981E+03 -6.805871E+03  2.003821E-02
        51   8  7.389943E+05 -1.578266E+03  1.845405E+04  9.030082E+02 -1.622200E+04 -2.356821E-02
        51   9  7.414263E+05  1.183968E+04  3.469555E+04  3.636032E+03 -2.563835E+04 -1.499848E-01
        51  10  7.414329E+05 -4.075866E+02  1.198489E+04  1.829981E+03  5.879099E-10 -9.965920E-11
        51  11  7.389940E+05 -1.578337E+03  1.845356E+04 -9.030082E+02 -7.947822E-11  2.183587E-12
        51  12  7.414256E+05  1.183951E+04  3.469431E+04 -3.636032E+03 -1.232848E-10  2.070864E-10
        51  13  7.414329E+05 -4.075929E+02  1.198489E+04 -9.502767E-10 -5.386531E-10 -8.921939E-11
        51  14  7.389940E+05 -1.578339E+03  1.845356E+04  1.785195E-09 -1.757823E-12 -1.009130E-10
        51  15  7.414256E+05  1.183948E+04  3.469431E+04  1.554979E-09 -3.122938E-10  2.035322E-10
        51  16  7.414329E+05 -4.075866E+02  1.198489E+04 -1.829981E+03 -1.772602E-10  3.210902E-11
        51  17  7.389940E+05 -1.578337E+03  1.845356E+04  9.030082E+02  7.859919E-11 -1.580003E-10
        51  18  7.414256E+05  1.183951E+04  3.469431E+04  3.636032E+03 -5.714520E-10  1.736582E-10
        51  19  7.414330E+05 -4.075741E+02  1.198498E+04  1.829981E+03  6.805871E+03  2.003821E-02
        51  20  7.389943E+05 -1.578266E+03  1.845405E+04 -9.030082E+02  1.622200E+04 -2.356821E-02
        51  21  7.414263E+05  1.183968E+04  3.469555E+04 -3.636032E+03  2.563835E+04 -1.499848E-01
        51  22  7.414330E+05 -4.075804E+02  1.198498E+04 -7.421384E-09  6.805871E+03 -1.173109E-10
        51  23  7.389943E+05 -1.578268E+03  1.845405E+04 -2.512369E-09  1.622200E+04 -1.787094E-11
        51  24  7.414263E+05  1.183966E+04  3.469554E+04 -7.971773E-09  2.563835E+04  1.123391E-10
        51  25  7.414330E+05 -4.075741E+02  1.198498E+04 -1.829981E+03  6.805871E+03 -2.003821E-02
        51  26  7.389943E+05 -1.578266E+03  1.845405E+04  9.030082E+02  1.622200E+04  2.356821E-02
        51  27  7.414263E+05  1.183968E+04  3.469555E+04  3.636032E+03  2.563835E+04  1.499848E-01
        52   1  7.495696E+05 -6.539860E+03  4.243045E+04  1.708290E+04 -3.216520E+04 -8.840393E-01
        52   2  7.288134E+05 -1.522205E+04  6.808317E+04 -1.255186E+04 -6.881421E+04  1.389711E+00
        52   3  7.495265E+05  1.229406E+05  1.542909E+05 -4.218768E+04 -1.054629E+05  7.158401E+00
        52   4  7.495693E+05 -6.540408E+03  4.243037E+04 -6.580927E-09 -3.216520E+04  3.422771E-10
        52   5  7.288132E+05 -1.522235E+04  6.808313E+04 -3.456039E-09 -6.881421E+04 -1.387553E-10
        52   6  7.495246E+05  1.229373E+05  1.542904E+05 -4.907570E-09 -1.054629E+05  4.353395E-10
        52   7  7.495696E+05 -6.539860E+03  4.243045E+04 -1.708290E+04 -3.216520E+04  8.840393E-01
        52   8  7.288134E+05 -1.522205E+04  6.808317E+04  1.255186E+04 -6.881421E+04 -1.389711E+00
        52   9  7.495265E+05  1.229406E+05  1.542909E+05  4.218768E+04 -1.054629E+05 -7.158401E+00
        52  10  7.495685E+05 -6.540137E+03  4.242851E+04  1.708290E+04 -9.655373E-11  3.240525E-10
        52  11  7.288083E+05 -1.522332E+04  6.807428E+04 -1.255186E+04 -5.359736E-10  4.123521E-10
        52  12  7.495146E+05  1.229376E+05  1.542700E+05 -4.218768E+04  2.117814E-12  1.526453E-10
        52  13  7.495681E+05 -6.540685E+03  4.242843E+04 -3.347514E-09 -2.595421E-10  3.397533E-10
        52  14  7.288081E+05 -1.522362E+04  6.807424E+04 -7.702942E-10 -2.742353E-10  2.950082E-10
        52  15  7.495127E+05  1.229343E+05  1.542695E+05 -1.164209E-09 -8.907077E-11  8.983710E-11
        52  16  7.495685E+05 -6.540137E+03  4.242851E+04 -1.708290E+04  5.605441E-10  3.895146E-10
        52  17  7.288083E+05 -1.522332E+04  6.807428E+04  1.255186E+04  4.089900E-10  2.113695E-10
        52  18  7.495146E+05  1.229376E+05  1.542700E+05  4.218768E+04 -1.587880E-10  7.319687E-11
        52  19  7.495696E+05 -6.539860E+03  4.243045E+04  1.708290E+04  3.216520E+04  8.840393E-01
        52  20  7.288134E+05 -1.522205E+04  6.808317E+04 -1.255186E+04  6.881421E+04 -1.389711E+00
        52  21  7.495265E+05  1.229406E+05  1.542909E+05 -4.218768E+04  1.054629E+05 -7.158401E+00
        52  22  7.495693E+05 -6.540408E+03  4.243037E+04 -4.420572E-09  3.216520E+04  3.224380E-10
        52  23  7.288132E+05 -1.522235E+04  6.808313E+04  1.910764E-09  6.881421E+04  7.410094E-10
        52  24  7.495246E+05  1.229373E+05  1.542904E+05 -5.098355E-10  1.054629E+05 -2.495181E-10
        52  25  7.495696E+05 -6.539860E+03  4.243045E+04 -1.708290E+04  3.216520E+04 -8.840393E-01
        52  26  7.288134E+05 -1.522205E+04  6.808317E+04  1.255186E+04  6.881421E+04  1.389711E+00
        52  27  7.495265E+05  1.229406E+05  1.542909E+05  4.218768E+04  1.054629E+05  7.158401E+00
        53   1 -3.035053E+05 -1.347063E+06 -3.979626E+05  3.401677E+04 -7.961407E+00 -2.633745E+05
        53   2  7.037011E+04 -1.287761E+06 -1.766322E+05  9.528498E+03 -1.407337E+01 -1.673271E+05
        53   3  4.103463E+03 -1.351072E+06 -1.279316E+05 -1.961280E+04 -8.891662E+01 -7.128160E+04
        53   4 -3.035620E+05 -1.347282E+06 -3.980169E+05 -1.749374E+03  7.242471E+00 -2.633766E+05
        53   5  7.083949E+04 -1.285884E+06 -1.761636E+05  5.760091E+02 -1.165569E+01 -1.673192E+05
        53   6  5.094969E+03 -1.347103E+06 -1.269477E+05 -1.749077E+03 -9.097183E+01 -7.126321E+04
        53   7 -3.036139E+05 -1.347499E+06 -3.980705E+05 -3.751550E+04  2.244661E+01 -2.633788E+05
        53   8  7.130917E+04 -1.284008E+06 -1.756949E+05 -8.376507E+03 -9.238236E+00 -1.673112E+05
        53   9  6.087676E+03 -1.343133E+06 -1.259635E+05  1.611477E+04 -9.302596E+01 -7.124482E+04
        53  10 -3.035239E+05 -1.347137E+06 -3.980932E+05  3.401676E+04  3.755184E-10  4.031481E-10
        53  11  7.036257E+04 -1.287791E+06 -1.766849E+05  9.528496E+03  6.608105E-11  3.353035E-10
        53  12  4.102095E+03 -1.351078E+06 -1.279412E+05 -1.961281E+04  1.502568E-10 -6.351873E-11
        53  13 -3.035806E+05 -1.347357E+06 -3.981475E+05 -1.749372E+03  5.924277E-11 -2.311123E-11
        53  14  7.083195E+04 -1.285914E+06 -1.762163E+05  5.760075E+02 -1.567470E-10 -1.134591E-11
        53  15  5.093602E+03 -1.347108E+06 -1.269572E+05 -1.749082E+03 -2.029957E-11  1.076816E-11
        53  16 -3.036325E+05 -1.347574E+06 -3.982011E+05 -3.751550E+04 -1.484143E-10 -4.106647E-10
        53  17  7.130163E+04 -1.284038E+06 -1.757476E+05 -8.376508E+03 -2.538143E-10 -3.051062E-10
        53  18  6.086310E+03 -1.343138E+06 -1.259731E+05  1.611476E+04  8.323541E-10  6.173867E-11
        53  19 -3.035053E+05 -1.347063E+06 -3.979626E+05  3.401677E+04  7.961407E+00  2.633745E+05
        53  20  7.037011E+04 -1.287761E+06 -1.766322E+05  9.528498E+03  1.407337E+01  1.673271E+05
        53  21  4.103463E+03 -1.351072E+06 -1.279316E+05 -1.961280E+04  8.891662E+01  7.128160E+04
        53  22 -3.035620E+05 -1.347282E+06 -3.980169E+05 -1.749374E+03 -7.242471E+00  2.633766E+05
        53  23  7.083949E+04 -1.285884E+06 -1.761636E+05  5.760091E+02  1.165569E+01  1.673192E+05
        53  24  5.094969E+03 -1.347103E+06 -1.269477E+05 -1.749077E+03  9.097183E+01  7.126321E+04
        53  25 -3.036139E+05 -1.347499E+06 -3.980705E+05 -3.751550E+04 -2.244661E+01  2.633788E+05
        53  26  7.130917E+04 -1.284008E+06 -1.756949E+05 -8.376507E+03  9.238236E+00  1.673112E+05
        53  27  6.087676E+03 -1.343133E+06 -1.259635E+05  1.611477E+04  9.302596E+01  7.124482E+04
        54   1 -4.893567E+04 -1.346468E+06 -1.170425E+05  5.531017E+03 -1.613791E+02 -4.970189E+04
        54   2  1.360991E+04 -1.331086E+06 -8.315479E+04  6.847784E+02 -2.382333E+02 -8.795318E+03
        54   3 -4.060791E+04 -1.350240E+06 -1.051255E+05 -8.354705E+03 -2.490095E+02  3.211122E+04
        54   4 -4.420958E+04 -1.327577E+06 -1.123301E+05 -1.647959E+03 -1.608025E+02 -4.968413E+04
        54   5  1.880709E+04 -1.310306E+06 -7.797833E+04  4.498192E+02 -2.382290E+02 -8.787736E+03
        54   6 -3.493597E+04 -1.327569E+06 -9.947673E+04 -1.645657E+03 -2.486615E+02  3.210875E+04
        54   7 -3.948333E+04 -1.308685E+06 -1.076177E+05 -8.827155E+03 -1.602264E+02 -4.966637E+04
        54   8  2.400423E+04 -1.289526E+06 -7.280190E+04  2.148521E+02 -2.382248E+02 -8.780154E+03
        54   9 -2.926390E+04 -1.304899E+06 -9.382795E+04  5.063636E+03 -2.483136E+02  3.210627E+04
        54  10 -4.893634E+04 -1.346471E+06 -1.170472E+05  5.531011E+03  2.817619E-10 -7.627313E-11
        54  11  1.360989E+04 -1.331086E+06 -8.315494E+04  6.847767E+02 -9.830633E-10 -2.235511E-10
        54  12 -4.060818E+04 -1.350241E+06 -1.051275E+05 -8.354699E+03  2.365319E-10 -7.021699E-10
        54  13 -4.421025E+04 -1.327579E+06 -1.123347E+05 -1.647966E+03 -3.589702E-10 -1.386760E-10
        54  14  1.880706E+04 -1.310306E+06 -7.797847E+04  4.498175E+02 -1.013407E-09  5.949157E-12
        54  15 -3.493625E+04 -1.327571E+06 -9.947867E+04 -1.645651E+03 -1.500571E-09  1.461534E-11
        54  16 -3.948399E+04 -1.308687E+06 -1.076223E+05 -8.827161E+03  7.823181E-10  3.838687E-11
        54  17  2.400421E+04 -1.289526E+06 -7.280204E+04  2.148504E+02  1.806531E-10  3.713709E-10
        54  18 -2.926418E+04 -1.304900E+06 -9.382989E+04  5.063643E+03  3.728054E-10  7.215241E-10
        54  19 -4.893567E+04 -1.346468E+06 -1.170425E+05  5.531017E+03  1.613791E+02  4.970189E+04
        54  20  1.360991E+04 -1.331086E+06 -8.315479E+04  6.847784E+02  2.382333E+02  8.795318E+03
        54  21 -4.060791E+04 -1.350240E+06 -1.051255E+05 -8.354705E+03  2.490095E+02 -3.211122E+04
        54  22 -4.420958E+04 -1.327577E+06 -1.123301E+05 -1.647959E+03  1.608025E+02  4.968413E+04
        54  23  1.880709E+04 -1.310306E+06 -7.797833E+04  4.498192E+02  2.382290E+02  8.787736E+03
        54  24 -3.493597E+04 -1.327569E+06 -9.947673E+04 -1.645657E+03  2.486615E+02 -3.210875E+04
        54  25 -3.948333E+04 -1.308685E+06 -1.076177E+05 -8.827155E+03  1.602264E+02  4.966637E+04
        54  26  2.400423E+04 -1.289526E+06 -7.280190E+04  2.148521E+02  2.382248E+02  8.780154E+03
        54  27 -2.926390E+04 -1.304899E+06 -9.382795E+04  5.063636E+03  2.483136E+02 -3.210627E+04
        55   1 -7.047797E+03 -1.376889E+06 -1.178637E+05  1.317988E+04 -3.439179E+02  5.087284E+04
        55   2  4.832664E+04 -1.328586E+06 -1.535912E+05 -7.023102E+03 -4.368525E+02  1.296595E+05
        55   3 -2.529828E+05 -1.379762E+06 -3.298420E+05 -3.020043E+04 -1.199588E+02  2.084466E+05
        55   4  1.684599E+03 -1.341963E+06 -1.091580E+05 -1.395337E+03 -3.451072E+02  5.092679E+04
        55   5  5.740333E+04 -1.292304E+06 -1.445568E+05  1.231757E+02 -4.353586E+02  1.296473E+05
        55   6 -2.435410E+05 -1.342108E+06 -3.204274E+05 -1.334520E+03 -1.102680E+02  2.083686E+05
        55   7  1.041770E+04 -1.307034E+06 -1.004523E+05 -1.597137E+04 -3.462991E+02  5.098075E+04
        55   8  6.648012E+04 -1.256021E+06 -1.355225E+05  7.269872E+03 -4.338651E+02  1.296352E+05
        55   9 -2.340961E+05 -1.304451E+06 -3.110124E+05  2.753315E+04 -1.005850E+02  2.082905E+05
        55  10 -7.048493E+03 -1.376892E+06 -1.178686E+05  1.317989E+04  6.346753E-10  2.893906E-11
        55  11  4.832211E+04 -1.328604E+06 -1.536229E+05 -7.023056E+03  8.437262E-11  2.947227E-10
        55  12 -2.529945E+05 -1.379809E+06 -3.299239E+05 -3.020042E+04  4.850944E-10 -6.603985E-11
        55  13  1.683900E+03 -1.341965E+06 -1.091629E+05 -1.395323E+03 -4.356321E-10  9.612377E-11
        55  14  5.739881E+04 -1.292322E+06 -1.445885E+05  1.232211E+02  6.604608E-11 -1.429997E-10
        55  15 -2.435527E+05 -1.342155E+06 -3.205092E+05 -1.334502E+03 -2.817504E-10  3.064330E-10
        55  16  1.041700E+04 -1.307037E+06 -1.004572E+05 -1.597136E+04  7.468992E-10 -1.034626E-10
        55  17  6.647560E+04 -1.256039E+06 -1.355542E+05  7.269917E+03  3.154277E-10  5.746822E-11
        55  18 -2.341078E+05 -1.304498E+06 -3.110941E+05  2.753317E+04 -1.744987E-10  4.747274E-11
        55  19 -7.047797E+03 -1.376889E+06 -1.178637E+05  1.317988E+04  3.439179E+02 -5.087284E+04
        55  20  4.832664E+04 -1.328586E+06 -1.535912E+05 -7.023102E+03  4.368525E+02 -1.296595E+05
        55  21 -2.529828E+05 -1.379762E+06 -3.298420E+05 -3.020043E+04  1.199588E+02 -2.084466E+05
        55  22  1.684599E+03 -1.341963E+06 -1.091580E+05 -1.395337E+03  3.451072E+02 -5.092679E+04
        55  23  5.740333E+04 -1.292304E+06 -1.445568E+05  1.231757E+02  4.353586E+02 -1.296473E+05
        55  24 -2.435410E+05 -1.342108E+06 -3.204274E+05 -1.334520E+03  1.102680E+02 -2.083686E+05
        55  25  1.041770E+04 -1.307034E+06 -1.004523E+05 -1.597137E+04  3.462991E+02 -5.098075E+04
        55  26  6.648012E+04 -1.256021E+06 -1.355225E+05  7.269872E+03  4.338651E+02 -1.296352E+05
        55  27 -2.340961E+05 -1.304451E+06 -3.110124E+05  2.753315E+04  1.005850E+02 -2.082905E+05
        56   1  1.755394E+05 -3.282531E+04 -8.247102E+04  1.312728E+05 -3.143292E+04 -1.995236E+04
        56   2  2.016665E+05  1.094700E+04 -5.084091E+04  1.410267E+05 -2.111899E+04 -4.156536E+03
        56   3  2.260222E+05  3.788768E+04 -3.400868E+04  1.524776E+05 -7.556290E+03  7.310289E+03
        56   4  3.387606E+05  1.086954E+05 -2.532651E+04  2.240186E+05 -1.609889E+04 -8.455321E+03
        56   5  3.425336E+05  1.230126E+05 -1.249295E+04  2.180089E+05 -1.484862E+04  5.444881E+02
        56   6  3.465024E+05  1.224648E+05 -6.591268E+03  2.136948E+05 -1.035090E+04  5.214637E+03
        56   7  5.020138E+05  2.502430E+05  3.181659E+04  3.167965E+05 -7.591530E+02  3.047201E+03
        56   8  4.834261E+05  2.350962E+05  2.585443E+04  2.950139E+05 -8.576227E+03  5.247266E+03
        56   9  4.670020E+05  2.070525E+05  2.082617E+04  2.749270E+05 -1.314629E+04  3.118406E+03
        56  10  1.755382E+05 -3.282600E+04 -8.247362E+04  1.312723E+05  2.142543E-10  1.686619E-10
        56  11  2.016660E+05  1.094686E+04 -5.084178E+04  1.410266E+05 -1.063707E-09  7.712119E-11
        56  12  2.260221E+05  3.788761E+04 -3.400889E+04  1.524776E+05 -1.545878E-09  7.284867E-10
        56  13  3.387603E+05  1.086953E+05 -2.532713E+04  2.240185E+05 -1.137221E-10 -1.264892E-10
        56  14  3.425334E+05  1.230126E+05 -1.249336E+04  2.180089E+05 -5.391634E-10 -2.567347E-10
        56  15  3.465023E+05  1.224647E+05 -6.591520E+03  2.136949E+05  1.909930E-10 -2.976849E-10
        56  16  5.020138E+05  2.502430E+05  3.181657E+04  3.167965E+05 -3.545975E-10 -3.303005E-10
        56  17  4.834261E+05  2.350961E+05  2.585424E+04  2.950139E+05  1.932263E-11 -6.046137E-10
        56  18  4.670018E+05  2.070524E+05  2.082583E+04  2.749270E+05  1.328314E-09 -1.394638E-09
        56  19  1.755394E+05 -3.282531E+04 -8.247102E+04  1.312728E+05  3.143292E+04  1.995236E+04
        56  20  2.016665E+05  1.094700E+04 -5.084091E+04  1.410267E+05  2.111899E+04  4.156536E+03
        56  21  2.260222E+05  3.788768E+04 -3.400868E+04  1.524776E+05  7.556290E+03 -7.310289E+03
        56  22  3.387606E+05  1.086954E+05 -2.532651E+04  2.240186E+05  1.609889E+04  8.455321E+03
        56  23  3.425336E+05  1.230126E+05 -1.249295E+04  2.180089E+05  1.484862E+04 -5.444881E+02
        56  24  3.465024E+05  1.224648E+05 -6.591268E+03  2.136948E+05  1.035090E+04 -5.214637E+03
        56  25  5.020138E+05  2.502430E+05  3.181659E+04  3.167965E+05  7.591530E+02 -3.047201E+03
        56  26  4.834261E+05  2.350962E+05  2.585443E+04  2.950139E+05  8.576227E+03 -5.247266E+03
        56  27  4.670020E+05  2.070525E+05  2.082617E+04  2.749270E+05  1.314629E+04 -3.118406E+03
        57   1  2.455491E+05  5.017210E+04 -2.759937E+04  1.614527E+05 -6.199079E+03  6.863536E+03
        57   2  2.705302E+05  7.490658E+04 -1.788019E+04  1.764545E+05 -3.101308E+03  6.717899E+03
        57   3  3.016052E+05  9.189654E+04 -9.985217E+03  1.896950E+05  3.719559E+02  6.071403E+03
        57   4  3.471895E+05  1.228964E+05 -4.786312E+03  2.138299E+05 -8.983199E+03  4.775883E+03
        57   5  3.443034E+05  1.271430E+05 -2.152144E+03  2.143451E+05 -6.934006E+03  3.844274E+03
        57   6  3.477385E+05  1.238725E+05 -4.321277E+02  2.130986E+05 -4.509428E+03  2.411780E+03
        57   7  4.488396E+05  1.956257E+05  1.802543E+04  2.662159E+05 -1.176786E+04  2.687812E+03
        57   8  4.180822E+05  1.793822E+05  1.357545E+04  2.522405E+05 -1.076726E+04  9.702228E+02
        57   9  3.938743E+05  1.558498E+05  9.121007E+03  2.365042E+05 -9.391290E+03 -1.248196E+03
        57  10  2.455491E+05  5.017204E+04 -2.759953E+04  1.614528E+05 -1.078796E-08 -6.922790E-09
        57  11  2.705302E+05  7.490653E+04 -1.788029E+04  1.764545E+05  1.103768E-08  7.731138E-09
        57  12  3.016052E+05  9.189650E+04 -9.985286E+03  1.896950E+05  1.994455E-08  1.410539E-08
        57  13  3.471894E+05  1.228964E+05 -4.786506E+03  2.138299E+05  4.214993E-09  2.645705E-09
        57  14  3.443033E+05  1.271429E+05 -2.152262E+03  2.143451E+05  1.123577E-08  7.221122E-09
        57  15  3.477385E+05  1.238725E+05 -4.321769E+02  2.130986E+05  4.670837E-09  2.932826E-09
        57  16  4.488394E+05  1.956257E+05  1.802516E+04  2.662159E+05  2.011351E-08  1.223106E-08
        57  17  4.180821E+05  1.793822E+05  1.357523E+04  2.522405E+05  1.090235E-08  6.592152E-09
        57  18  3.938742E+05  1.558498E+05  9.120838E+03  2.365042E+05 -1.111820E-08 -8.132171E-09
        57  19  2.455491E+05  5.017210E+04 -2.759937E+04  1.614527E+05  6.199079E+03 -6.863536E+03
        57  20  2.705302E+05  7.490658E+04 -1.788019E+04  1.764545E+05  3.101308E+03 -6.717899E+03
        57  21  3.016052E+05  9.189654E+04 -9.985217E+03  1.896950E+05 -3.719559E+02 -6.071403E+03
        57  22  3.471895E+05  1.228964E+05 -4.786312E+03  2.138299E+05  8.983199E+03 -4.775883E+03
        57  23  3.443034E+05  1.271430E+05 -2.152144E+03  2.143451E+05  6.934006E+03 -3.844274E+03
        57  24  3.477385E+05  1.238725E+05 -4.321277E+02  2.130986E+05  4.509428E+03 -2.411780E+03
        57  25  4.488396E+05  1.956257E+05  1.802543E+04  2.662159E+05  1.176786E+04 -2.687812E+03
        57  26  4.180822E+05  1.793822E+05  1.357545E+04  2.522405E+05  1.076726E+04 -9.702228E+02
        57  27  3.938743E+05  1.558498E+05  9.121007E+03  2.365042E+05  9.391290E+03  1.248196E+03
        58   1  3.194566E+05  1.043350E+05 -5.450717E+03  1.987832E+05  1.402386E+03  4.691763E+03
        58   2  3.441885E+05  1.275615E+05  1.985448E+03  2.141149E+05  2.362054E+03  1.770811E+03
        58   3  3.759882E+05  1.440842E+05  1.010905E+04  2.274318E+05  3.321626E+03 -1.150147E+03
        58   4  3.478244E+05  1.239110E+05  3.239958E+02  2.131490E+05 -3.477804E+03  1.033091E+03
        58   5  3.443608E+05  1.273874E+05  1.985126E+03  2.140638E+05 -2.518166E+03 -1.887903E+03
        58   6  3.479636E+05  1.241591E+05  4.333478E+03  2.129626E+05 -1.558580E+03 -4.808831E+03
        58   7  3.761939E+05  1.434879E+05  6.099038E+03  2.275160E+05 -8.358396E+03 -2.625879E+03
        58   8  3.445332E+05  1.272134E+05  1.984944E+03  2.140127E+05 -7.398389E+03 -5.546614E+03
        58   9  3.199406E+05  1.042350E+05 -1.441764E+03  1.984945E+05 -6.438389E+03 -8.467212E+03
        58  10  3.194566E+05  1.043350E+05 -5.450762E+03  1.987831E+05  2.482925E-08  1.809264E-08
        58  11  3.441885E+05  1.275615E+05  1.985432E+03  2.141149E+05  8.232523E-09  6.165743E-09
        58  12  3.759882E+05  1.440842E+05  1.010903E+04  2.274318E+05 -1.675044E-08 -1.362866E-08
        58  13  3.478244E+05  1.239110E+05  3.239710E+02  2.131490E+05  3.645353E-09  2.548229E-09
        58  14  3.443608E+05  1.273874E+05  1.985108E+03  2.140638E+05  7.630790E-09  6.299973E-09
        58  15  3.479636E+05  1.241591E+05  4.333430E+03  2.129626E+05  3.240715E-09  2.592970E-09
        58  16  3.761938E+05  1.434879E+05  6.098894E+03  2.275160E+05 -1.845319E-08 -1.295365E-08
        58  17  3.445332E+05  1.272133E+05  1.984784E+03  2.140127E+05  6.107058E-09  6.456093E-09
        58  18  3.199406E+05  1.042349E+05 -1.441976E+03  1.984945E+05  2.226027E-08  1.884419E-08
        58  19  3.194566E+05  1.043350E+05 -5.450717E+03  1.987832E+05 -1.402386E+03 -4.691763E+03
        58  20  3.441885E+05  1.275615E+05  1.985448E+03  2.141149E+05 -2.362054E+03 -1.770811E+03
        58  21  3.759882E+05  1.440842E+05  1.010905E+04  2.274318E+05 -3.321626E+03  1.150147E+03
        58  22  3.478244E+05  1.239110E+05  3.239958E+02  2.131490E+05  3.477804E+03 -1.033091E+03
        58  23  3.443608E+05  1.273874E+05  1.985126E+03  2.140638E+05  2.518166E+03  1.887903E+03
        58  24  3.479636E+05  1.241591E+05  4.333478E+03  2.129626E+05  1.558580E+03  4.808831E+03
        58  25  3.761939E+05  1.434879E+05  6.099038E+03  2.275160E+05  8.358396E+03  2.625879E+03
        58  26  3.445332E+05  1.272134E+05  1.984944E+03  2.140127E+05  7.398389E+03  5.546614E+03
        58  27  3.199406E+05  1.042350E+05 -1.441764E+03  1.984945E+05  6.438389E+03  8.467212E+03
        59   1  3.935862E+05  1.570214E+05  1.550432E+04  2.367014E+05  3.654113E+03 -3.052860E+03
        59   2  4.201272E+05  1.789382E+05  2.662112E+04  2.504907E+05 -1.962913E+02 -9.189468E+03
        59   3  4.559666E+05  1.969679E+05  4.304339E+04  2.614000E+05 -4.422467E+03 -1.482544E+04
        59   4  3.481740E+05  1.243173E+05  5.950652E+03  2.130830E+05 -1.227195E+03 -6.712426E+03
        59   5  3.447289E+05  1.283153E+05  1.089290E+04  2.130669E+05 -4.027992E+03 -1.206236E+04
        59   6  3.503540E+05  1.281986E+05  2.023090E+04  2.101700E+05 -7.204287E+03 -1.691145E+04
        59   7  3.027643E+05  9.161463E+04 -3.602970E+03  1.894666E+05 -6.108035E+03 -1.037163E+04
        59   8  2.693364E+05  7.769505E+04 -4.835776E+03  1.756478E+05 -7.859116E+03 -1.493485E+04
        59   9  2.447521E+05  5.943359E+04 -2.582892E+03  1.589486E+05 -9.985535E+03 -1.899708E+04
        59  10  3.935862E+05  1.570214E+05  1.550428E+04  2.367014E+05  6.424903E-10 -8.924298E-10
        59  11  4.201272E+05  1.789381E+05  2.662097E+04  2.504907E+05  5.194836E-10 -6.698871E-10
        59  12  4.559665E+05  1.969676E+05  4.304294E+04  2.613999E+05  1.369570E-09 -1.296424E-09
        59  13  3.481740E+05  1.243173E+05  5.950564E+03  2.130829E+05  1.810865E-10  1.132609E-10
        59  14  3.447288E+05  1.283152E+05  1.089260E+04  2.130668E+05  5.649174E-10 -1.853984E-10
        59  15  3.503539E+05  1.281983E+05  2.023027E+04  2.101699E+05  5.160459E-10 -1.386987E-10
        59  16  3.027642E+05  9.161450E+04 -3.603242E+03  1.894666E+05 -3.474723E-10  9.708194E-10
        59  17  2.693363E+05  7.769480E+04 -4.836311E+03  1.756477E+05 -4.669885E-10  4.548641E-10
        59  18  2.447519E+05  5.943318E+04 -2.583757E+03  1.589484E+05 -7.209036E-10  1.036194E-09
        59  19  3.935862E+05  1.570214E+05  1.550432E+04  2.367014E+05 -3.654113E+03  3.052860E+03
        59  20  4.201272E+05  1.789382E+05  2.662112E+04  2.504907E+05  1.962913E+02  9.189468E+03
        59  21  4.559666E+05  1.969679E+05  4.304339E+04  2.614000E+05  4.422467E+03  1.482544E+04
        59  22  3.481740E+05  1.243173E+05  5.950652E+03  2.130830E+05  1.227195E+03  6.712426E+03
        59  23  3.447289E+05  1.283153E+05  1.089290E+04  2.130669E+05  4.027992E+03  1.206236E+04
        59  24  3.503540E+05  1.281986E+05  2.023090E+04  2.101700E+05  7.204287E+03  1.691145E+04
        59  25  3.027643E+05  9.161463E+04 -3.602970E+03  1.894666E+05  6.108035E+03  1.037163E+04
        59  26  2.693364E+05  7.769505E+04 -4.835776E+03  1.756478E+05  7.859116E+03  1.493485E+04
        59  27  2.447521E+05  5.943359E+04 -2.582892E+03  1.589486E+05  9.985535E+03  1.899708E+04
        60   1  4.729004E+05  2.151206E+05  5.441431E+04  2.720978E+05 -6.504956E+03 -1.785062E+04
        60   2  5.300432E+05  2.193477E+05  8.812468E+04  2.646547E+05 -3.658697E+04 -3.910645E+04
        60   3  6.204969E+05  2.521651E+05  1.572134E+05  2.411701E+05 -6.991866E+04 -5.603384E+04
        60   4  3.526393E+05  1.302941E+05  2.699608E+04  2.107959E+05 -9.295639E+03 -1.994332E+04
        60   5  3.522457E+05  1.441661E+05  4.977573E+04  1.984217E+05 -3.030637E+04 -3.440071E+04
        60   6  3.831980E+05  1.846679E+05  1.000715E+05  1.700059E+05 -5.456277E+04 -4.453033E+04
        60   7  2.323974E+05  4.547824E+04 -4.221166E+02  1.495090E+05 -1.208555E+04 -2.203544E+04
        60   8  1.744893E+05  6.899207E+04  1.142668E+04  1.322070E+05 -2.402837E+04 -2.969595E+04
        60   9  1.459716E+05  1.171781E+05  4.293014E+04  9.886200E+04 -3.921545E+04 -3.302850E+04
        60  10  4.729003E+05  2.151202E+05  5.441363E+04  2.720977E+05  1.174492E-08  6.760093E-09
        60  11  5.300413E+05  2.193457E+05  8.811929E+04  2.646535E+05 -1.000161E-08 -7.855732E-09
        60  12  6.204908E+05  2.521604E+05  1.571983E+05  2.411670E+05 -1.930175E-08 -1.399915E-08
        60  13  3.526391E+05  1.302936E+05  2.699517E+04  2.107958E+05 -3.577707E-09 -3.116546E-09
        60  14  3.522444E+05  1.441646E+05  4.977178E+04  1.984209E+05 -1.022712E-08 -7.557808E-09
        60  15  3.831943E+05  1.846650E+05  1.000622E+05  1.700039E+05 -3.900242E-09 -3.017411E-09
        60  16  2.323972E+05  4.547768E+04 -4.233031E+02  1.495088E+05 -2.012304E-08 -1.298782E-08
        60  17  1.744884E+05  6.899097E+04  1.142394E+04  1.322064E+05 -1.076137E-08 -7.336051E-09
        60  18  1.459697E+05  1.171766E+05  4.292520E+04  9.886095E+04  1.049202E-08  7.919265E-09
        60  19  4.729004E+05  2.151206E+05  5.441431E+04  2.720978E+05  6.504956E+03  1.785062E+04
        60  20  5.300432E+05  2.193477E+05  8.812468E+04  2.646547E+05  3.658697E+04  3.910645E+04
        60  21  6.204969E+05  2.521651E+05  1.572134E+05  2.411701E+05  6.991866E+04  5.603384E+04
        60  22  3.526393E+05  1.302941E+05  2.699608E+04  2.107959E+05  9.295639E+03  1.994332E+04
        60  23  3.522457E+05  1.441661E+05  4.977573E+04  1.984217E+05  3.030637E+04  3.440071E+04
        60  24  3.831980E+05  1.846679E+05  1.000715E+05  1.700059E+05  5.456277E+04  4.453033E+04
        60  25  2.323974E+05  4.547824E+04 -4.221166E+02  1.495090E+05  1.208555E+04  2.203544E+04
        60  26  1.744893E+05  6.899207E+04  1.142668E+04  1.322070E+05  2.402837E+04  2.969595E+04
        60  27  1.459716E+05  1.171781E+05  4.293014E+04  9.886200E+04  3.921545E+04  3.302850E+04
        61   1  1.000674E+06  1.623179E+05  2.057960E+05  4.952744E+04  1.397941E+05  1.113525E+01
        61   2  9.721726E+05 -2.432788E+04  9.076083E+04  1.421677E+04  9.078993E+04  2.075938E+00
        61   3  1.000750E+06 -8.073984E+03  5.832481E+04 -2.109171E+04  4.178581E+04 -1.417414E+00
        61   4  1.000672E+06  1.623133E+05  2.057954E+05 -3.916442E-09  1.397941E+05 -5.880206E-10
        61   5  9.721724E+05 -2.432826E+04  9.076078E+04  2.953670E-09  9.078993E+04  3.653993E-10
        61   6  1.000750E+06 -8.074819E+03  5.832469E+04 -1.218549E-09  4.178581E+04  3.161321E-10
        61   7  1.000674E+06  1.623179E+05  2.057960E+05 -4.952744E+04  1.397941E+05 -1.113525E+01
        61   8  9.721726E+05 -2.432788E+04  9.076083E+04 -1.421677E+04  9.078993E+04 -2.075938E+00
        61   9  1.000750E+06 -8.073984E+03  5.832481E+04  2.109171E+04  4.178581E+04  1.417414E+00
        61  10  1.000653E+06  1.623126E+05  2.057594E+05  4.952744E+04 -3.602922E-10  7.833592E-11
        61  11  9.721638E+05 -2.433009E+04  9.074537E+04  1.421677E+04  3.808656E-10  1.764158E-10
        61  12  1.000748E+06 -8.074452E+03  5.832154E+04 -2.109171E+04  4.698575E-10  2.275709E-10
        61  13  1.000651E+06  1.623080E+05  2.057587E+05  4.100136E-10 -3.434434E-10  9.384941E-11
        61  14  9.721636E+05 -2.433047E+04  9.074531E+04  1.876207E-09 -2.110714E-10  2.218327E-10
        61  15  1.000748E+06 -8.075287E+03  5.832142E+04 -2.044482E-09  3.518512E-10  9.383097E-11
        61  16  1.000653E+06  1.623126E+05  2.057594E+05 -4.952744E+04  3.539096E-10  1.094233E-10
        61  17  9.721638E+05 -2.433009E+04  9.074537E+04 -1.421677E+04 -3.556995E-10  3.178716E-10
        61  18  1.000748E+06 -8.074452E+03  5.832154E+04  2.109171E+04  3.751568E-11  1.005161E-10
        61  19  1.000674E+06  1.623179E+05  2.057960E+05  4.952744E+04 -1.397941E+05 -1.113525E+01
        61  20  9.721726E+05 -2.432788E+04  9.076083E+04  1.421677E+04 -9.078993E+04 -2.075938E+00
        61  21  1.000750E+06 -8.073984E+03  5.832481E+04 -2.109171E+04 -4.178581E+04  1.417414E+00
        61  22  1.000672E+06  1.623133E+05  2.057954E+05 -6.042957E-09 -1.397941E+05  7.674820E-10
        61  23  9.721724E+05 -2.432826E+04  9.076078E+04 -2.783690E-10 -9.078993E+04  1.047856E-10
        61  24  1.000750E+06 -8.074819E+03  5.832469E+04 -4.212396E-09 -4.178581E+04 -1.078391E-10
        61  25  1.000674E+06  1.623179E+05  2.057960E+05 -4.952744E+04 -1.397941E+05  1.113525E+01
        61  26  9.721726E+05 -2.432788E+04  9.076083E+04 -1.421677E+04 -9.078993E+04  2.075938E+00
        61  27  1.000750E+06 -8.073984E+03  5.832481E+04  2.109171E+04 -4.178581E+04 -1.417414E+00
        62   1  9.897908E+05  1.748112E+04  4.865612E+04  5.078377E+03  3.257384E+04  2.660466E-01
        62   2  9.858731E+05 -2.945751E+03  2.790660E+04  1.174812E+03  1.829393E+04  3.456532E-02
        62   3  9.898017E+05  5.947034E+02  2.243576E+04 -2.728815E+03  4.013908E+03 -1.761587E-02
        62   4  9.897907E+05  1.748107E+04  4.865612E+04 -3.261668E-09  3.257384E+04 -5.232004E-11
        62   5  9.858731E+05 -2.945753E+03  2.790660E+04  5.440679E-10  1.829393E+04 -3.488982E-10
        62   6  9.898017E+05  5.946895E+02  2.243575E+04  2.602766E-09  4.013908E+03  3.106881E-11
        62   7  9.897908E+05  1.748112E+04  4.865612E+04 -5.078377E+03  3.257384E+04 -2.660466E-01
        62   8  9.858731E+05 -2.945751E+03  2.790660E+04 -1.174812E+03  1.829393E+04 -3.456532E-02
        62   9  9.898017E+05  5.947034E+02  2.243576E+04  2.728815E+03  4.013908E+03  1.761587E-02
        62  10  9.897896E+05  1.748083E+04  4.865413E+04  5.078377E+03 -1.509328E-10 -6.558289E-11
        62  11  9.858727E+05 -2.945841E+03  2.790598E+04  1.174812E+03  2.078590E-10 -1.234969E-10
        62  12  9.898017E+05  5.946991E+02  2.243573E+04 -2.728815E+03 -1.370871E-10  1.187865E-10
        62  13  9.897896E+05  1.748078E+04  4.865412E+04 -1.121608E-09  3.459995E-10 -7.220427E-11
        62  14  9.858727E+05 -2.945843E+03  2.790597E+04  3.783075E-09  5.232082E-10 -1.572159E-10
        62  15  9.898017E+05  5.946852E+02  2.243572E+04  5.992252E-09 -7.052883E-10  6.567127E-11
        62  16  9.897896E+05  1.748083E+04  4.865413E+04 -5.078377E+03 -5.641518E-11 -1.635977E-10
        62  17  9.858727E+05 -2.945841E+03  2.790598E+04 -1.174812E+03  6.186026E-10 -2.263356E-10
        62  18  9.898017E+05  5.946991E+02  2.243573E+04  2.728815E+03  3.278131E-10  2.309337E-11
        62  19  9.897908E+05  1.748112E+04  4.865612E+04  5.078377E+03 -3.257384E+04 -2.660466E-01
        62  20  9.858731E+05 -2.945751E+03  2.790660E+04  1.174812E+03 -1.829393E+04 -3.456532E-02
        62  21  9.898017E+05  5.947034E+02  2.243576E+04 -2.728815E+03 -4.013908E+03  1.761587E-02
        62  22  9.897907E+05  1.748107E+04  4.865612E+04 -1.137919E-09 -3.257384E+04 -1.102309E-10
        62  23  9.858731E+05 -2.945753E+03  2.790660E+04  5.551245E-10 -1.829393E+04  2.692184E-11
        62  24  9.898017E+05  5.946895E+02  2.243575E+04  1.574842E-09 -4.013908E+03  1.233887E-10
        62  25  9.897908E+05  1.748112E+04  4.865612E+04 -5.078377E+03 -3.257384E+04  2.660466E-01
        62  26  9.858731E+05 -2.945751E+03  2.790660E+04 -1.174812E+03 -1.829393E+04  3.456532E-02
        62  27  9.898017E+05  5.947034E+02  2.243576E+04  2.728815E+03 -4.013908E+03 -1.761587E-02
        63   1  9.895160E+05  1.173558E+03  2.179829E+04  2.300149E+03  9.550478E+01  3.533003E-04
        63   2  9.862309E+05 -2.440976E+03  2.422231E+04 -9.104082E+02 -1.227915E+04  1.797916E-02
        63   3  9.895083E+05  1.376593E+04  3.964925E+04 -4.120966E+03 -2.465386E+04  1.633983E-01
        63   4  9.895160E+05  1.173548E+03  2.179829E+04 -5.456540E-09  9.550478E+01  2.579713E-10
        63   5  9.862309E+05 -2.440977E+03  2.422231E+04  1.055284E-09 -1.227915E+04  8.525008E-11
        63   6  9.895082E+05  1.376590E+04  3.964924E+04  5.682792E-10 -2.465386E+04 -2.753733E-10
        63   7  9.895160E+05  1.173558E+03  2.179829E+04 -2.300149E+03  9.550478E+01 -3.533001E-04
        63   8  9.862309E+05 -2.440976E+03  2.422231E+04  9.104082E+02 -1.227915E+04 -1.797916E-02
        63   9  9.895083E+05  1.376593E+04  3.964925E+04  4.120966E+03 -2.465386E+04 -1.633983E-01
        63  10  9.895160E+05  1.173558E+03  2.179829E+04  2.300149E+03  6.459789E-10  2.758569E-10
        63  11  9.862308E+05 -2.441016E+03  2.422203E+04 -9.104082E+02  3.122541E-10  1.140804E-10
        63  12  9.895076E+05  1.376577E+04  3.964811E+04 -4.120966E+03 -2.876219E-10 -2.588437E-10
        63  13  9.895160E+05  1.173548E+03  2.179829E+04 -1.152750E-09 -2.861966E-10  1.810355E-10
        63  14  9.862308E+05 -2.441018E+03  2.422203E+04  2.118991E-09 -4.875807E-10  3.618543E-11
        63  15  9.895076E+05  1.376574E+04  3.964810E+04  5.509065E-10 -3.013910E-10 -1.835372E-10
        63  16  9.895160E+05  1.173558E+03  2.179829E+04 -2.300149E+03  2.432980E-10  1.541966E-10
        63  17  9.862308E+05 -2.441016E+03  2.422203E+04  9.104082E+02 -1.775763E-10 -4.400900E-11
        63  18  9.895076E+05  1.376577E+04  3.964811E+04  4.120966E+03 -1.657841E-10 -1.030311E-10
        63  19  9.895160E+05  1.173558E+03  2.179829E+04  2.300149E+03 -9.550478E+01 -3.533000E-04
        63  20  9.862309E+05 -2.440976E+03  2.422231E+04 -9.104082E+02  1.227915E+04 -1.797916E-02
        63  21  9.895083E+05  1.376593E+04  3.964925E+04 -4.120966E+03  2.465386E+04 -1.633983E-01
        63  22  9.895160E+05  1.173548E+03  2.179829E+04 -7.626065E-09 -9.550478E+01  6.640884E-11
        63  23  9.862309E+05 -2.440977E+03  2.422231E+04 -4.473377E-11  1.227915E+04 -1.251369E-11
        63  24  9.895082E+05  1.376590E+04  3.964924E+04 -6.740475E-12  2.465386E+04 -1.014425E-10
        63  25  9.895160E+05  1.173558E+03  2.179829E+04 -2.300149E+03 -9.550478E+01  3.533001E-04
        63  26  9.862309E+05 -2.440976E+03  2.422231E+04  9.104082E+02  1.227915E+04  1.797916E-02
        63  27  9.895083E+05  1.376593E+04  3.964925E+04  4.120966E+03  2.465386E+04  1.633983E-01
        64   1  9.980895E+05 -6.301966E+03  4.696187E+04  1.665204E+04 -3.211893E+04 -8.601734E-01
        64   2  9.755033E+05 -1.921864E+04  7.206709E+04 -1.123251E+04 -7.101542E+04  1.282929E+00
        64   3  9.980283E+05  1.281335E+05  1.625383E+05 -3.911769E+04 -1.099109E+05  6.914789E+00
        64   4  9.980892E+05 -6.302486E+03  4.696179E+04 -1.478522E-09 -3.211893E+04 -3.846281E-10
        64   5  9.755032E+05 -1.921888E+04  7.206706E+04  8.336971E-10 -7.101542E+04 -1.115885E-10
        64   6  9.980267E+05  1.281306E+05  1.625379E+05 -1.163209E-09 -1.099109E+05  1.958453E-10
        64   7  9.980895E+05 -6.301966E+03  4.696187E+04 -1.665204E+04 -3.211893E+04  8.601734E-01
        64   8  9.755033E+05 -1.921864E+04  7.206709E+04  1.123251E+04 -7.101542E+04 -1.282929E+00
        64   9  9.980283E+05  1.281335E+05  1.625383E+05  3.911769E+04 -1.099109E+05 -6.914789E+00
        64  10  9.980884E+05 -6.302242E+03  4.695993E+04  1.665204E+04 -5.515677E-10 -2.465239E-10
        64  11  9.754979E+05 -1.921999E+04  7.205763E+04 -1.123251E+04 -2.034304E-10 -1.637427E-11
        64  12  9.980154E+05  1.281302E+05  1.625157E+05 -3.911769E+04  3.638620E-10 -1.246281E-11
        64  13  9.980881E+05 -6.302763E+03  4.695986E+04  2.303354E-09 -7.310244E-10 -2.008848E-10
        64  14  9.754978E+05 -1.922023E+04  7.205759E+04 -1.315219E-09  2.777877E-10 -2.740339E-11
        64  15  9.980137E+05  1.281273E+05  1.625153E+05  3.685322E-09 -4.338106E-10  5.995985E-12
        64  16  9.980884E+05 -6.302242E+03  4.695993E+04 -1.665204E+04 -1.530731E-10 -1.631973E-10
        64  17  9.754979E+05 -1.921999E+04  7.205763E+04  1.123251E+04 -4.621259E-10 -8.129454E-11
        64  18  9.980154E+05  1.281302E+05  1.625157E+05  3.911769E+04 -5.263488E-12  7.928883E-12
        64  19  9.980895E+05 -6.301966E+03  4.696187E+04  1.665204E+04  3.211893E+04  8.601734E-01
        64  20  9.755033E+05 -1.921864E+04  7.206709E+04 -1.123251E+04  7.101542E+04 -1.282929E+00
        64  21  9.980283E+05  1.281335E+05  1.625383E+05 -3.911769E+04  1.099109E+05 -6.914789E+00
        64  22  9.980892E+05 -6.302486E+03  4.696179E+04 -3.615927E-09  3.211893E+04 -1.500159E-11
        64  23  9.755032E+05 -1.921888E+04  7.206706E+04  8.463236E-10  7.101542E+04  4.670605E-11
        64  24  9.980267E+05  1.281306E+05  1.625379E+05 -6.250092E-10  1.099109E+05 -1.680416E-10
        64  25  9.980895E+05 -6.301966E+03  4.696187E+04 -1.665204E+04  3.211893E+04 -8.601734E-01
        64  26  9.755033E+05 -1.921864E+04  7.206709E+04  1.123251E+04  7.101542E+04  1.282929E+00
        64  27  9.980283E+05  1.281335E+05  1.625383E+05  3.911769E+04  1.099109E+05  6.914789E+00
        65   1 -6.253008E+01 -1.816338E+02 -5.565459E+01 -4.648321E+01  5.086236E-06 -4.301675E+01
        65   2 -5.763617E+01 -1.802603E+02 -3.255845E+01 -4.651747E+01  8.225789E-06 -2.687958E+01
        65   3 -5.554394E+01 -1.816886E+02 -2.066890E+01 -4.655175E+01  8.168263E-06 -1.074218E+01
        65   4 -6.256844E+01 -1.817902E+02 -5.568999E+01 -4.649753E+01  5.086299E-06 -4.303490E+01
        65   5 -5.766573E+01 -1.803885E+02 -3.257814E+01 -4.649753E+01  8.226227E-06 -2.688798E+01
        65   6 -5.556641E+01 -1.817902E+02 -2.067966E+01 -4.649753E+01  8.167829E-06 -1.074082E+01
        65   7 -6.260680E+01 -1.819466E+02 -5.572538E+01 -4.651185E+01  5.088652E-06 -4.305305E+01
        65   8 -5.769530E+01 -1.805167E+02 -3.259782E+01 -4.647758E+01  8.224645E-06 -2.689637E+01
        65   9 -5.558888E+01 -1.818918E+02 -2.069041E+01 -4.644331E+01  8.167597E-06 -1.073946E+01
        65  10 -6.253008E+01 -1.816338E+02 -5.565460E+01 -4.648321E+01 -4.039582E-10  1.476241E-12
        65  11 -5.763617E+01 -1.802604E+02 -3.255845E+01 -4.651747E+01 -8.078710E-10  2.193773E-11
        65  12 -5.554394E+01 -1.816886E+02 -2.066890E+01 -4.655175E+01 -2.356656E-10  4.245347E-11
        65  13 -6.256844E+01 -1.817902E+02 -5.568999E+01 -4.649753E+01  3.728468E-14  9.965122E-12
        65  14 -5.766573E+01 -1.803885E+02 -3.257814E+01 -4.649753E+01  5.384372E-10  5.124535E-11
        65  15 -5.556641E+01 -1.817902E+02 -2.067966E+01 -4.649753E+01  3.029365E-10  9.251829E-11
        65  16 -6.260680E+01 -1.819466E+02 -5.572538E+01 -4.651185E+01 -7.140519E-14  5.087485E-12
        65  17 -5.769530E+01 -1.805167E+02 -3.259783E+01 -4.647758E+01  1.346111E-10  1.905585E-11
        65  18 -5.558888E+01 -1.818918E+02 -2.069041E+01 -4.644331E+01  2.188136E-10  3.296904E-11
        65  19 -6.253008E+01 -1.816338E+02 -5.565459E+01 -4.648321E+01 -5.084082E-06  4.301675E+01
        65  20 -5.763617E+01 -1.802603E+02 -3.255845E+01 -4.651747E+01 -8.227269E-06  2.687958E+01
        65  21 -5.554394E+01 -1.816886E+02 -2.066890E+01 -4.655175E+01 -8.169189E-06  1.074218E+01
        65  22 -6.256844E+01 -1.817902E+02 -5.568999E+01 -4.649753E+01 -5.086299E-06  4.303490E+01
        65  23 -5.766573E+01 -1.803885E+02 -3.257814E+01 -4.649753E+01 -8.226765E-06  2.688798E+01
        65  24 -5.556641E+01 -1.817902E+02 -2.067966E+01 -4.649753E+01 -8.168906E-06  1.074082E+01
        65  25 -6.260680E+01 -1.819466E+02 -5.572538E+01 -4.651185E+01 -5.090806E-06  4.305305E+01
        65  26 -5.769530E+01 -1.805167E+02 -3.259782E+01 -4.647758E+01 -8.226261E-06  2.689637E+01
        65  27 -5.558888E+01 -1.818918E+02 -2.069041E+01 -4.644331E+01 -8.166520E-06  1.073946E+01
        66   1 -5.482564E+01 -1.813659E+02 -1.739997E+01 -4.657025E+01  7.387082E-06 -7.364114E+00
        66   2 -5.419312E+01 -1.807545E+02 -1.484844E+01 -4.660233E+01  5.580900E-06 -4.602355E-03
        66   3 -5.483832E+01 -1.814207E+02 -1.740772E+01 -4.663441E+01  3.227521E-06  7.354910E+00
        66   4 -5.484425E+01 -1.814512E+02 -1.740771E+01 -4.649753E+01  7.387206E-06 -7.361110E+00
        66   5 -5.420534E+01 -1.808122E+02 -1.485179E+01 -4.649753E+01  5.580482E-06  6.171684E-05
        66   6 -5.484444E+01 -1.814512E+02 -1.740782E+01 -4.649753E+01  3.229309E-06  7.361234E+00
        66   7 -5.486286E+01 -1.815365E+02 -1.741545E+01 -4.642481E+01  7.386119E-06 -7.358106E+00
        66   8 -5.421756E+01 -1.808700E+02 -1.485514E+01 -4.639273E+01  5.579326E-06  4.725789E-03
        66   9 -5.485056E+01 -1.814817E+02 -1.740793E+01 -4.636065E+01  3.233960E-06  7.367558E+00
        66  10 -5.482564E+01 -1.813659E+02 -1.739997E+01 -4.657025E+01  1.345303E-10  3.357090E-11
        66  11 -5.419312E+01 -1.807545E+02 -1.484844E+01 -4.660233E+01 -3.366902E-10  3.906723E-11
        66  12 -5.483832E+01 -1.814207E+02 -1.740772E+01 -4.663441E+01  7.066865E-10  4.453436E-11
        66  13 -5.484425E+01 -1.814512E+02 -1.740771E+01 -4.649753E+01  8.077719E-10  1.016705E-10
        66  14 -5.420534E+01 -1.808122E+02 -1.485179E+01 -4.649753E+01 -5.385303E-10  9.895755E-11
        66  15 -5.484444E+01 -1.814512E+02 -1.740782E+01 -4.649753E+01 -1.345856E-10  9.621638E-11
        66  16 -5.486286E+01 -1.815365E+02 -1.741545E+01 -4.642481E+01  4.037946E-10  4.628937E-11
        66  17 -5.421756E+01 -1.808700E+02 -1.485514E+01 -4.639273E+01 -6.731154E-10  4.010073E-11
        66  18 -5.485056E+01 -1.814817E+02 -1.740793E+01 -4.636065E+01  2.356386E-10  3.391501E-11
        66  19 -5.482564E+01 -1.813659E+02 -1.739997E+01 -4.657025E+01 -7.386678E-06  7.364114E+00
        66  20 -5.419312E+01 -1.807545E+02 -1.484844E+01 -4.660233E+01 -5.579621E-06  4.602355E-03
        66  21 -5.483832E+01 -1.814207E+02 -1.740772E+01 -4.663441E+01 -3.227706E-06 -7.354910E+00
        66  22 -5.484425E+01 -1.814512E+02 -1.740771E+01 -4.649753E+01 -7.386668E-06  7.361110E+00
        66  23 -5.420534E+01 -1.808122E+02 -1.485179E+01 -4.649753E+01 -5.579405E-06 -6.171664E-05
        66  24 -5.484444E+01 -1.814512E+02 -1.740782E+01 -4.649753E+01 -3.229578E-06 -7.361234E+00
        66  25 -5.486286E+01 -1.815365E+02 -1.741545E+01 -4.642481E+01 -7.385042E-06  7.358106E+00
        66  26 -5.421756E+01 -1.808700E+02 -1.485514E+01 -4.639273E+01 -5.580403E-06 -4.725789E-03
        66  27 -5.485056E+01 -1.814817E+02 -1.740793E+01 -4.636065E+01 -3.229652E-06 -7.367558E+00
        67   1 -5.556412E+01 -1.817758E+02 -2.068127E+01 -4.665292E+01  1.726727E-06  1.073476E+01
        67   2 -5.766979E+01 -1.804013E+02 -3.258350E+01 -4.668719E+01 -1.119072E-06  2.688458E+01
        67   3 -6.257931E+01 -1.818306E+02 -5.570095E+01 -4.672146E+01 -3.152183E-06  4.303416E+01
        67   4 -5.556671E+01 -1.817902E+02 -2.067984E+01 -4.649753E+01  1.725449E-06  1.074097E+01
        67   5 -5.766623E+01 -1.803885E+02 -3.257851E+01 -4.649753E+01 -1.111004E-06  2.688831E+01
        67   6 -6.256917E+01 -1.817902E+02 -5.569067E+01 -4.649753E+01 -3.138270E-06  4.303542E+01
        67   7 -5.556930E+01 -1.818046E+02 -2.067841E+01 -4.634214E+01  1.727135E-06  1.074717E+01
        67   8 -5.766267E+01 -1.803757E+02 -3.257351E+01 -4.630787E+01 -1.103337E-06  2.689204E+01
        67   9 -6.255903E+01 -1.817498E+02 -5.568039E+01 -4.627360E+01 -3.123582E-06  4.303667E+01
        67  10 -5.556412E+01 -1.817758E+02 -2.068127E+01 -4.665292E+01  1.345340E-10  3.176142E-11
        67  11 -5.766979E+01 -1.804013E+02 -3.258350E+01 -4.668719E+01  1.344804E-10  1.745670E-11
        67  12 -6.257931E+01 -1.818306E+02 -5.570095E+01 -4.672146E+01 -2.693227E-10  3.113922E-12
        67  13 -5.556671E+01 -1.817902E+02 -2.067984E+01 -4.649753E+01  4.163333E-14  8.165262E-11
        67  14 -5.766623E+01 -1.803885E+02 -3.257851E+01 -4.649753E+01  4.038171E-10  4.669732E-11
        67  15 -6.256917E+01 -1.817902E+02 -5.569068E+01 -4.649753E+01  1.010047E-10  1.174777E-11
        67  16 -5.556930E+01 -1.818046E+02 -2.067841E+01 -4.634214E+01  4.037967E-10  3.211194E-11
        67  17 -5.766267E+01 -1.803757E+02 -3.257351E+01 -4.630787E+01  5.384771E-10  1.990960E-11
        67  18 -6.255903E+01 -1.817498E+02 -5.568040E+01 -4.627360E+01  3.870895E-10  7.729627E-12
        67  19 -5.556412E+01 -1.817758E+02 -2.068127E+01 -4.665292E+01 -1.721207E-06 -1.073476E+01
        67  20 -5.766979E+01 -1.804013E+02 -3.258350E+01 -4.668719E+01  1.120284E-06 -2.688458E+01
        67  21 -6.257931E+01 -1.818306E+02 -5.570095E+01 -4.672146E+01  3.153294E-06 -4.303416E+01
        67  22 -5.556671E+01 -1.817902E+02 -2.067984E+01 -4.649753E+01 -1.723833E-06 -1.074097E+01
        67  23 -5.766623E+01 -1.803885E+02 -3.257851E+01 -4.649753E+01  1.111543E-06 -2.688831E+01
        67  24 -6.256917E+01 -1.817902E+02 -5.569067E+01 -4.649753E+01  3.137933E-06 -4.303542E+01
        67  25 -5.556930E+01 -1.818046E+02 -2.067841E+01 -4.634214E+01 -1.724981E-06 -1.074717E+01
        67  26 -5.766267E+01 -1.803757E+02 -3.257351E+01 -4.630787E+01  1.104953E-06 -2.689204E+01
        67  27 -6.255903E+01 -1.817498E+02 -5.568039E+01 -4.627360E+01  3.122505E-06 -4.303667E+01
        68   1  3.802214E+05  2.653997E+05  1.133305E+05  2.308943E+05  6.594791E+04  4.963130E+04
        68   2  3.346908E+05  1.805939E+05  4.453259E+04  2.757342E+05  4.317683E+04  3.285372E+04
        68   3  3.638867E+05  1.899908E+05  2.719086E+04  2.736919E+05  2.061134E+04  1.580137E+04
        68   4  4.136321E+05  2.711166E+05  1.211371E+05  2.390897E+05  6.600774E+04  4.967434E+04
        68   5  3.589768E+05  1.932644E+05  5.187933E+04  2.855996E+05  4.318771E+04  3.286157E+04
        68   6  3.790559E+05  2.096222E+05  3.411758E+04  2.852281E+05  2.057380E+04  1.577351E+04
        68   7  4.470442E+05  2.768336E+05  1.289438E+05  2.472853E+05  6.606757E+04  4.971739E+04
        68   8  3.832634E+05  2.059350E+05  5.922600E+04  2.954653E+05  4.319859E+04  3.286942E+04
        68   9  3.942254E+05  2.292540E+05  4.104425E+04  2.967647E+05  2.053626E+04  1.574564E+04
        68  10  3.802161E+05  2.653959E+05  1.133177E+05  2.308916E+05 -1.417239E-10  1.206274E-10
        68  11  3.346885E+05  1.805922E+05  4.452706E+04  2.757330E+05  9.027453E-11  5.207116E-10
        68  12  3.638862E+05  1.899905E+05  2.718959E+04  2.736917E+05  2.356480E-10  2.974815E-10
        68  13  4.136268E+05  2.711128E+05  1.211243E+05  2.390870E+05 -1.481161E-10  1.997656E-10
        68  14  3.589745E+05  1.932627E+05  5.187380E+04  2.855984E+05 -2.853667E-10  3.592435E-10
        68  15  3.790554E+05  2.096218E+05  3.411632E+04  2.852278E+05  2.337617E-10  1.627311E-10
        68  16  4.470389E+05  2.768298E+05  1.289310E+05  2.472827E+05 -1.584878E-12  2.251813E-10
        68  17  3.832611E+05  2.059333E+05  5.922047E+04  2.954642E+05 -7.500941E-11  3.642913E-10
        68  18  3.942249E+05  2.292537E+05  4.104299E+04  2.967644E+05  2.866088E-11  6.725509E-11
        68  19  3.802214E+05  2.653997E+05  1.133305E+05  2.308943E+05 -6.594791E+04 -4.963130E+04
        68  20  3.346908E+05  1.805939E+05  4.453259E+04  2.757342E+05 -4.317683E+04 -3.285372E+04
        68  21  3.638867E+05  1.899908E+05  2.719086E+04  2.736919E+05 -2.061134E+04 -1.580137E+04
        68  22  4.136321E+05  2.711166E+05  1.211371E+05  2.390897E+05 -6.600774E+04 -4.967434E+04
        68  23  3.589768E+05  1.932644E+05  5.187933E+04  2.855996E+05 -4.318771E+04 -3.286157E+04
        68  24  3.790559E+05  2.096222E+05  3.411758E+04  2.852281E+05 -2.057380E+04 -1.577351E+04
        68  25  4.470442E+05  2.768336E+05  1.289438E+05  2.472853E+05 -6.606757E+04 -4.971739E+04
        68  26  3.832634E+05  2.059350E+05  5.922600E+04  2.954653E+05 -4.319859E+04 -3.286942E+04
        68  27  3.942254E+05  2.292540E+05  4.104425E+04  2.967647E+05 -2.053626E+04 -1.574564E+04
        69   1  3.673857E+05  2.112596E+05  2.429306E+04  2.683731E+05  1.611547E+04  1.231635E+04
        69   2  3.599916E+05  2.005179E+05  1.026915E+04  2.758449E+05  1.030375E+04  7.937320E+03
        69   3  3.668651E+05  2.014837E+05  5.985742E+03  2.756142E+05  4.520143E+03  3.520653E+03
        69   4  3.807332E+05  2.181706E+05  2.832263E+04  2.737704E+05  1.611663E+04  1.231717E+04
        69   5  3.710512E+05  2.077825E+05  1.391392E+04  2.810227E+05  1.029831E+04  7.933232E+03
        69   6  3.756380E+05  2.091031E+05  9.251219E+03  2.805726E+05  4.508124E+03  3.511652E+03
        69   7  3.940808E+05  2.250817E+05  3.235219E+04  2.791678E+05  1.611780E+04  1.231798E+04
        69   8  3.821110E+05  2.150472E+05  1.755867E+04  2.862007E+05  1.029287E+04  7.929145E+03
        69   9  3.844111E+05  2.167226E+05  1.251669E+04  2.855312E+05  4.496105E+03  3.502650E+03
        69  10  3.673854E+05  2.112594E+05  2.429229E+04  2.683729E+05  4.186092E-10 -2.385790E-10
        69  11  3.599915E+05  2.005178E+05  1.026884E+04  2.758448E+05 -4.334006E-10 -6.180050E-10
        69  12  3.668651E+05  2.014837E+05  5.985680E+03  2.756142E+05 -2.025009E-10 -3.091286E-11
        69  13  3.807328E+05  2.181704E+05  2.832186E+04  2.737702E+05 -3.170280E-10 -3.049687E-10
        69  14  3.710511E+05  2.077824E+05  1.391360E+04  2.810227E+05 -3.413847E-10 -5.876330E-10
        69  15  3.756380E+05  2.091031E+05  9.251157E+03  2.805726E+05 -1.975718E-10  2.385965E-10
        69  16  3.940805E+05  2.250814E+05  3.235142E+04  2.791676E+05 -1.190858E-10 -4.644216E-10
        69  17  3.821108E+05  2.150471E+05  1.755835E+04  2.862006E+05 -4.752945E-10 -5.949981E-10
        69  18  3.844111E+05  2.167226E+05  1.251663E+04  2.855311E+05 -3.171654E-10  2.860684E-10
        69  19  3.673857E+05  2.112596E+05  2.429306E+04  2.683731E+05 -1.611547E+04 -1.231635E+04
        69  20  3.599916E+05  2.005179E+05  1.026915E+04  2.758449E+05 -1.030375E+04 -7.937320E+03
        69  21  3.668651E+05  2.014837E+05  5.985742E+03  2.756142E+05 -4.520143E+03 -3.520653E+03
        69  22  3.807332E+05  2.181706E+05  2.832263E+04  2.737704E+05 -1.611663E+04 -1.231717E+04
        69  23  3.710512E+05  2.077825E+05  1.391392E+04  2.810227E+05 -1.029831E+04 -7.933232E+03
        69  24  3.756380E+05  2.091031E+05  9.251219E+03  2.805726E+05 -4.508124E+03 -3.511652E+03
        69  25  3.940808E+05  2.250817E+05  3.235219E+04  2.791678E+05 -1.611780E+04 -1.231798E+04
        69  26  3.821110E+05  2.150472E+05  1.755867E+04  2.862007E+05 -1.029287E+04 -7.929145E+03
        69  27  3.844111E+05  2.167226E+05  1.251669E+04  2.855312E+05 -4.496105E+03 -3.502650E+03
        70   1  3.738743E+05  2.093515E+05  7.279130E+03  2.782547E+05  3.304418E+03  2.555219E+03
        70   2  3.721703E+05  2.093799E+05  5.197082E+03  2.801371E+05  1.128063E+03  8.566660E+02
        70   3  3.762374E+05  2.098077E+05  6.073157E+03  2.796056E+05 -1.048302E+03 -8.418231E+02
        70   4  3.758124E+05  2.102602E+05  7.841503E+03  2.789955E+05  3.297068E+03  2.549706E+03
        70   5  3.727660E+05  2.097741E+05  5.394012E+03  2.804174E+05  1.120713E+03  8.511558E+02
        70   6  3.754907E+05  2.096875E+05  5.904642E+03  2.794252E+05 -1.055647E+03 -8.473300E+02
        70   7  3.777505E+05  2.111688E+05  8.403875E+03  2.797363E+05  3.289718E+03  2.544193E+03
        70   8  3.733617E+05  2.101683E+05  5.590942E+03  2.806976E+05  1.113363E+03  8.456456E+02
        70   9  3.747439E+05  2.095672E+05  5.736127E+03  2.792448E+05 -1.062992E+03 -8.528369E+02
        70  10  3.738742E+05  2.093515E+05  7.279098E+03  2.782547E+05  5.154512E-10  1.895665E-10
        70  11  3.721703E+05  2.093799E+05  5.197078E+03  2.801371E+05  1.888110E-11 -3.111205E-10
        70  12  3.762374E+05  2.098077E+05  6.073153E+03  2.796056E+05  2.412403E-10 -5.687464E-10
        70  13  3.758124E+05  2.102602E+05  7.841471E+03  2.789955E+05 -5.009984E-10 -5.016043E-12
        70  14  3.727660E+05  2.097741E+05  5.394008E+03  2.804173E+05 -4.666537E-10 -3.028739E-10
        70  15  3.754907E+05  2.096875E+05  5.904638E+03  2.794252E+05  2.891625E-10 -3.564542E-10
        70  16  3.777505E+05  2.111688E+05  8.403843E+03  2.797363E+05 -7.352420E-10  7.101511E-11
        70  17  3.733617E+05  2.101682E+05  5.590938E+03  2.806976E+05 -1.677133E-10 -3.919981E-10
        70  18  3.747439E+05  2.095672E+05  5.736123E+03  2.792448E+05  3.397915E-10 -1.027359E-10
        70  19  3.738743E+05  2.093515E+05  7.279130E+03  2.782547E+05 -3.304418E+03 -2.555219E+03
        70  20  3.721703E+05  2.093799E+05  5.197082E+03  2.801371E+05 -1.128063E+03 -8.566660E+02
        70  21  3.762374E+05  2.098077E+05  6.073157E+03  2.796056E+05  1.048302E+03  8.418231E+02
        70  22  3.758124E+05  2.102602E+05  7.841503E+03  2.789955E+05 -3.297068E+03 -2.549706E+03
        70  23  3.727660E+05  2.097741E+05  5.394012E+03  2.804174E+05 -1.120713E+03 -8.511558E+02
        70  24  3.754907E+05  2.096875E+05  5.904642E+03  2.794252E+05  1.055647E+03  8.473300E+02
        70  25  3.777505E+05  2.111688E+05  8.403875E+03  2.797363E+05 -3.289718E+03 -2.544193E+03
        70  26  3.733617E+05  2.101683E+05  5.590942E+03  2.806976E+05 -1.113363E+03 -8.456456E+02
        70  27  3.747439E+05  2.095672E+05  5.736127E+03  2.792448E+05  1.062992E+03  8.528369E+02
        71   1  3.832950E+05  2.155611E+05  9.277577E+03  2.844303E+05 -1.910708E+03 -1.541570E+03
        71   2  3.816459E+05  2.154057E+05  1.185895E+04  2.853356E+05 -5.484584E+03 -4.300676E+03
        71   3  3.897926E+05  2.209117E+05  2.035160E+04  2.812965E+05 -9.085398E+03 -7.023892E+03
        71   4  3.754109E+05  2.091236E+05  6.424123E+03  2.801624E+05 -1.922522E+03 -1.550424E+03
        71   5  3.719528E+05  2.088549E+05  8.628067E+03  2.807131E+05 -5.490175E+03 -4.304871E+03
        71   6  3.782894E+05  2.142464E+05  1.673798E+04  2.763195E+05 -9.084745E+03 -7.023424E+03
        71   7  3.675269E+05  2.026862E+05  3.570655E+03  2.758945E+05 -1.934335E+03 -1.559278E+03
        71   8  3.622599E+05  2.023042E+05  5.397172E+03  2.760908E+05 -5.495766E+03 -4.309066E+03
        71   9  3.667862E+05  2.075811E+05  1.312436E+04  2.713426E+05 -9.084092E+03 -7.022956E+03
        71  10  3.832950E+05  2.155611E+05  9.277566E+03  2.844303E+05 -3.379835E-10 -3.035553E-10
        71  11  3.816458E+05  2.154057E+05  1.185886E+04  2.853356E+05 -1.017454E-09 -1.641881E-10
        71  12  3.897925E+05  2.209116E+05  2.035135E+04  2.812964E+05 -3.906703E-10  1.378695E-10
        71  13  3.754109E+05  2.091236E+05  6.424112E+03  2.801624E+05 -2.314950E-10 -3.401209E-10
        71  14  3.719528E+05  2.088549E+05  8.627975E+03  2.807131E+05 -4.624687E-10 -2.286320E-10
        71  15  3.782893E+05  2.142463E+05  1.673774E+04  2.763194E+05 -6.334603E-10 -6.668172E-11
        71  16  3.675269E+05  2.026862E+05  3.570643E+03  2.758945E+05 -4.580923E-10 -3.105109E-10
        71  17  3.622598E+05  2.023041E+05  5.397080E+03  2.760908E+05 -6.516832E-10 -3.052755E-10
        71  18  3.667861E+05  2.075810E+05  1.312411E+04  2.713425E+05  5.709475E-12 -1.018455E-10
        71  19  3.832950E+05  2.155611E+05  9.277577E+03  2.844303E+05  1.910708E+03  1.541570E+03
        71  20  3.816459E+05  2.154057E+05  1.185895E+04  2.853356E+05  5.484584E+03  4.300676E+03
        71  21  3.897926E+05  2.209117E+05  2.035160E+04  2.812965E+05  9.085398E+03  7.023892E+03
        71  22  3.754109E+05  2.091236E+05  6.424123E+03  2.801624E+05  1.922522E+03  1.550424E+03
        71  23  3.719528E+05  2.088549E+05  8.628067E+03  2.807131E+05  5.490175E+03  4.304871E+03
        71  24  3.782894E+05  2.142464E+05  1.673798E+04  2.763195E+05  9.084745E+03  7.023424E+03
        71  25  3.675269E+05  2.026862E+05  3.570655E+03  2.758945E+05  1.934335E+03  1.559278E+03
        71  26  3.622599E+05  2.023042E+05  5.397172E+03  2.760908E+05  5.495766E+03  4.309066E+03
        71  27  3.667862E+05  2.075811E+05  1.312436E+04  2.713426E+05  9.084092E+03  7.022956E+03
        72   1  3.933574E+05  2.258068E+05  2.649208E+04  2.931788E+05 -1.165193E+04 -9.058253E+03
        72   2  3.867627E+05  2.133510E+05  3.706604E+04  2.929001E+05 -2.482458E+04 -1.906140E+04
        72   3  4.249777E+05  2.540858E+05  7.757185E+04  2.650142E+05 -3.819359E+04 -2.880294E+04
        72   4  3.773412E+05  2.092834E+05  2.001524E+04  2.829269E+05 -1.168795E+04 -9.085172E+03
        72   5  3.649548E+05  2.005039E+05  3.017704E+04  2.833671E+05 -2.481513E+04 -1.905442E+04
        72   6  3.973694E+05  2.449069E+05  7.023228E+04  2.561997E+05 -3.813849E+04 -2.876223E+04
        72   7  3.613252E+05  1.927602E+05  1.353835E+04  2.726754E+05 -1.172398E+04 -9.112090E+03
        72   8  3.431474E+05  1.876570E+05  2.328797E+04  2.738344E+05 -2.480568E+04 -1.904743E+04
        72   9  3.697620E+05  2.357281E+05  6.289266E+04  2.473855E+05 -3.808339E+04 -2.872152E+04
        72  10  3.933573E+05  2.258067E+05  2.649168E+04  2.931788E+05 -3.131637E-10  1.237929E-10
        72  11  3.867619E+05  2.133505E+05  3.706421E+04  2.928997E+05  2.367784E-10 -1.114949E-10
        72  12  4.249759E+05  2.540845E+05  7.756755E+04  2.650133E+05  2.134118E-10 -2.383988E-11
        72  13  3.773410E+05  2.092832E+05  2.001483E+04  2.829268E+05 -1.471325E-10  9.765961E-11
        72  14  3.649540E+05  2.005034E+05  3.017520E+04  2.833667E+05  8.974635E-10 -2.450772E-11
        72  15  3.973676E+05  2.449056E+05  7.022800E+04  2.561988E+05 -1.569417E-11 -2.327088E-10
        72  16  3.613250E+05  1.927601E+05  1.353793E+04  2.726753E+05 -5.036436E-10 -6.121165E-11
        72  17  3.431466E+05  1.876564E+05  2.328613E+04  2.738340E+05 -2.358189E-10  3.679809E-11
        72  18  3.697602E+05  2.357268E+05  6.288839E+04  2.473846E+05  1.607679E-11  1.040983E-10
        72  19  3.933574E+05  2.258068E+05  2.649208E+04  2.931788E+05  1.165193E+04  9.058253E+03
        72  20  3.867627E+05  2.133510E+05  3.706604E+04  2.929001E+05  2.482458E+04  1.906140E+04
        72  21  4.249777E+05  2.540858E+05  7.757185E+04  2.650142E+05  3.819359E+04  2.880294E+04
        72  22  3.773412E+05  2.092834E+05  2.001524E+04  2.829269E+05  1.168795E+04  9.085172E+03
        72  23  3.649548E+05  2.005039E+05  3.017704E+04  2.833671E+05  2.481513E+04  1.905442E+04
        72  24  3.973694E+05  2.449069E+05  7.023228E+04  2.561997E+05  3.813849E+04  2.876223E+04
        72  25  3.613252E+05  1.927602E+05  1.353835E+04  2.726754E+05  1.172398E+04  9.112090E+03
        72  26  3.431474E+05  1.876570E+05  2.328797E+04  2.738344E+05  2.480568E+04  1.904743E+04
        72  27  3.697620E+05  2.357281E+05  6.289266E+04  2.473855E+05  3.808339E+04  2.872152E+04
        73   1  1.979930E+05 -1.998184E+03 -2.110343E+03 -1.353866E+03 -1.523943E+03  3.322280E-03
        73   2  1.981294E+05 -7.143123E+02 -1.039707E+03 -7.091940E+02 -9.936372E+02  1.134710E-03
        73   3  1.979928E+05 -2.463723E+02 -5.182286E+02 -6.451252E+01 -4.633239E+02  4.813053E-05
        73   4  1.979930E+05 -1.998188E+03 -2.110344E+03 -8.551516E-10 -1.523943E+03 -7.275769E-12
        73   5  1.981294E+05 -7.143133E+02 -1.039707E+03 -1.041543E-10 -9.936372E+02 -1.517566E-11
        73   6  1.979928E+05 -2.463723E+02 -5.182286E+02 -6.468905E-10 -4.633239E+02  2.834780E-12
        73   7  1.979930E+05 -1.998184E+03 -2.110343E+03  1.353866E+03 -1.523943E+03 -3.322280E-03
        73   8  1.981294E+05 -7.143123E+02 -1.039707E+03  7.091940E+02 -9.936372E+02 -1.134710E-03
        73   9  1.979928E+05 -2.463723E+02 -5.182286E+02  6.451252E+01 -4.633239E+02 -4.813053E-05
        73  10  1.979930E+05 -1.998185E+03 -2.110348E+03 -1.353866E+03  1.643742E-10 -4.217391E-11
        73  11  1.981294E+05 -7.143126E+02 -1.039709E+03 -7.091940E+02 -8.662339E-11 -8.419804E-11
        73  12  1.979928E+05 -2.463724E+02 -5.182290E+02 -6.451252E+01 -1.498352E-10 -3.327850E-12
        73  13  1.979930E+05 -1.998188E+03 -2.110348E+03 -4.270715E-10 -2.038492E-10 -4.002351E-11
        73  14  1.981294E+05 -7.143135E+02 -1.039709E+03  2.692434E-10 -6.290495E-11 -7.908570E-11
        73  15  1.979928E+05 -2.463724E+02 -5.182290E+02  2.944999E-10 -1.816684E-10  2.897676E-11
        73  16  1.979930E+05 -1.998185E+03 -2.110348E+03  1.353866E+03  6.817839E-11 -3.809413E-11
        73  17  1.981294E+05 -7.143126E+02 -1.039709E+03  7.091940E+02 -3.322758E-12 -7.268662E-11
        73  18  1.979928E+05 -2.463724E+02 -5.182290E+02  6.451252E+01  3.275196E-10  5.895798E-11
        73  19  1.979930E+05 -1.998184E+03 -2.110343E+03 -1.353866E+03  1.523943E+03 -3.322281E-03
        73  20  1.981294E+05 -7.143123E+02 -1.039707E+03 -7.091940E+02  9.936372E+02 -1.134710E-03
        73  21  1.979928E+05 -2.463723E+02 -5.182286E+02 -6.451252E+01  4.633239E+02 -4.813054E-05
        73  22  1.979930E+05 -1.998188E+03 -2.110344E+03 -9.493076E-10  1.523943E+03 -7.108693E-11
        73  23  1.981294E+05 -7.143133E+02 -1.039707E+03 -3.003123E-10  9.936372E+02 -1.405854E-10
        73  24  1.979928E+05 -2.463723E+02 -5.182286E+02 -3.691807E-10  4.633239E+02  5.614081E-11
        73  25  1.979930E+05 -1.998184E+03 -2.110343E+03  1.353866E+03  1.523943E+03  3.322280E-03
        73  26  1.981294E+05 -7.143123E+02 -1.039707E+03  7.091940E+02  9.936372E+02  1.134710E-03
        73  27  1.979928E+05 -2.463723E+02 -5.182286E+02  6.451252E+01  4.633239E+02  4.813065E-05
        74   1  1.980489E+05 -1.798731E+02 -3.495045E+02 -9.569660E+01 -4.006613E+02  6.173995E-05
        74   2  1.980592E+05 -5.193776E+01 -8.499629E+01 -4.870291E+01 -3.574407E+02  2.803189E-05
        74   3  1.980489E+05  1.572828E+01  1.363128E+02 -1.709222E+00 -3.142200E+02  8.647353E-07
        74   4  1.980489E+05 -1.798731E+02 -3.495045E+02 -3.423936E-10 -4.006613E+02  3.098784E-11
        74   5  1.980592E+05 -5.193776E+01 -8.499629E+01  2.555742E-10 -3.574407E+02  8.372331E-12
        74   6  1.980489E+05  1.572828E+01  1.363128E+02 -4.559692E-10 -3.142200E+02 -1.455790E-10
        74   7  1.980489E+05 -1.798731E+02 -3.495045E+02  9.569660E+01 -4.006613E+02 -6.173989E-05
        74   8  1.980592E+05 -5.193776E+01 -8.499629E+01  4.870291E+01 -3.574407E+02 -2.803188E-05
        74   9  1.980489E+05  1.572828E+01  1.363128E+02  1.709222E+00 -3.142200E+02 -8.650222E-07
        74  10  1.980489E+05 -1.798731E+02 -3.495048E+02 -9.569660E+01  3.861164E-10  7.348238E-11
        74  11  1.980592E+05 -5.193779E+01 -8.499653E+01 -4.870291E+01  1.800550E-10  8.212959E-11
        74  12  1.980489E+05  1.572825E+01  1.363127E+02 -1.709222E+00  2.859777E-10  1.516919E-11
        74  13  1.980489E+05 -1.798732E+02 -3.495048E+02 -1.220419E-10  6.948149E-11  7.545697E-11
        74  14  1.980592E+05 -5.193780E+01 -8.499653E+01  5.258857E-10  1.052742E-10  1.939241E-11
        74  15  1.980489E+05  1.572825E+01  1.363127E+02  1.598620E-10  1.892645E-10 -5.047506E-11
        74  16  1.980489E+05 -1.798731E+02 -3.495048E+02  9.569660E+01 -2.935880E-10  7.558779E-11
        74  17  1.980592E+05 -5.193779E+01 -8.499653E+01  4.870291E+01  1.965879E-10 -5.467224E-11
        74  18  1.980489E+05  1.572825E+01  1.363127E+02  1.709222E+00 -1.650339E-10 -1.132180E-10
        74  19  1.980489E+05 -1.798731E+02 -3.495045E+02 -9.569660E+01  4.006613E+02 -6.173981E-05
        74  20  1.980592E+05 -5.193776E+01 -8.499629E+01 -4.870291E+01  3.574407E+02 -2.803173E-05
        74  21  1.980489E+05  1.572828E+01  1.363128E+02 -1.709222E+00  3.142200E+02 -8.647259E-07
        74  22  1.980489E+05 -1.798731E+02 -3.495045E+02 -9.713870E-10  4.006613E+02  1.209669E-10
        74  23  1.980592E+05 -5.193776E+01 -8.499629E+01  3.249835E-10  3.574407E+02  3.440064E-11
        74  24  1.980489E+05  1.572828E+01  1.363128E+02 -1.206980E-09  3.142200E+02  4.410270E-11
        74  25  1.980489E+05 -1.798731E+02 -3.495045E+02  9.569660E+01  4.006613E+02  6.174005E-05
        74  26  1.980592E+05 -5.193776E+01 -8.499629E+01  4.870291E+01  3.574407E+02  2.803177E-05
        74  27  1.980489E+05  1.572828E+01  1.363128E+02  1.709222E+00  3.142200E+02  8.648044E-07
        75   1  1.980737E+05  3.475080E+01  2.565230E+02  7.758060E+00 -3.472102E+02 -4.337585E-06
        75   2  1.980281E+05  1.555549E+02  5.792902E+02 -1.371064E+02 -6.377114E+02  1.407909E-04
        75   3  1.980736E+05  4.894445E+02  1.144414E+03 -2.819688E+02 -9.282085E+02  4.214432E-04
        75   4  1.980737E+05  3.475080E+01  2.565230E+02 -1.021320E-09 -3.472102E+02 -1.723515E-10
        75   5  1.980281E+05  1.555549E+02  5.792902E+02 -3.302591E-10 -6.377114E+02 -2.449761E-11
        75   6  1.980736E+05  4.894443E+02  1.144414E+03 -6.352688E-10 -9.282085E+02  1.425599E-10
        75   7  1.980737E+05  3.475080E+01  2.565230E+02 -7.758060E+00 -3.472102E+02  4.337238E-06
        75   8  1.980281E+05  1.555549E+02  5.792902E+02  1.371064E+02 -6.377114E+02 -1.407910E-04
        75   9  1.980736E+05  4.894445E+02  1.144414E+03  2.819688E+02 -9.282085E+02 -4.214429E-04
        75  10  1.980737E+05  3.475077E+01  2.565227E+02  7.758060E+00  3.427458E-10  3.512953E-12
        75  11  1.980281E+05  1.555548E+02  5.792894E+02 -1.371064E+02 -8.559024E-12  1.254815E-10
        75  12  1.980736E+05  4.894442E+02  1.144413E+03 -2.819688E+02 -1.637394E-10  2.219175E-10
        75  13  1.980737E+05  3.475077E+01  2.565227E+02 -6.037478E-10  2.040648E-10 -7.487818E-11
        75  14  1.980281E+05  1.555548E+02  5.792894E+02 -8.035659E-10 -4.038977E-10 -1.405966E-12
        75  15  1.980736E+05  4.894441E+02  1.144413E+03 -8.619957E-11  3.997168E-10  1.814613E-10
        75  16  1.980737E+05  3.475077E+01  2.565227E+02 -7.758060E+00 -1.870595E-10 -1.475869E-10
        75  17  1.980281E+05  1.555548E+02  5.792894E+02  1.371064E+02  1.127293E-10 -1.200908E-10
        75  18  1.980736E+05  4.894442E+02  1.144413E+03  2.819688E+02  3.982979E-10  1.431682E-10
        75  19  1.980737E+05  3.475080E+01  2.565230E+02  7.758060E+00  3.472102E+02  4.337565E-06
        75  20  1.980281E+05  1.555549E+02  5.792902E+02 -1.371064E+02  6.377114E+02 -1.407907E-04
        75  21  1.980736E+05  4.894445E+02  1.144414E+03 -2.819688E+02  9.282085E+02 -4.214427E-04
        75  22  1.980737E+05  3.475080E+01  2.565230E+02 -1.667133E-09  3.472102E+02  2.437725E-11
        75  23  1.980281E+05  1.555549E+02  5.792902E+02 -3.291857E-10  6.377114E+02  2.061258E-11
        75  24  1.980736E+05  4.894443E+02  1.144414E+03 -1.524437E-10  9.282085E+02  2.193565E-10
        75  25  1.980737E+05  3.475080E+01  2.565230E+02 -7.758060E+00  3.472102E+02 -4.337523E-06
        75  26  1.980281E+05  1.555549E+02  5.792902E+02  1.371064E+02  6.377114E+02  1.407907E-04
        75  27  1.980736E+05  4.894445E+02  1.144414E+03  2.819688E+02  9.282085E+02  4.214432E-04
        76   1  1.982199E+05  6.703016E+02  1.552371E+03 -1.904601E+02 -1.128326E+03  3.460435E-04
        76   2  1.978450E+05  1.944216E+03  2.898929E+03 -1.945973E+03 -2.605937E+03  8.165696E-03
        76   3  1.982194E+05  5.445804E+03  5.764161E+03 -3.701514E+03 -4.083571E+03  2.433951E-02
        76   4  1.982199E+05  6.703015E+02  1.552371E+03 -8.024821E-10 -1.128326E+03  1.017380E-10
        76   5  1.978450E+05  1.944209E+03  2.898928E+03 -6.967984E-10 -2.605937E+03 -8.478502E-11
        76   6  1.982194E+05  5.445778E+03  5.764157E+03 -3.928480E-10 -4.083571E+03 -4.879088E-11
        76   7  1.982199E+05  6.703016E+02  1.552371E+03  1.904601E+02 -1.128326E+03 -3.460433E-04
        76   8  1.978450E+05  1.944216E+03  2.898929E+03  1.945973E+03 -2.605937E+03 -8.165696E-03
        76   9  1.982194E+05  5.445804E+03  5.764161E+03  3.701514E+03 -4.083571E+03 -2.433951E-02
        76  10  1.982199E+05  6.703012E+02  1.552368E+03 -1.904601E+02  5.108654E-10  1.092977E-10
        76  11  1.978450E+05  1.944214E+03  2.898916E+03 -1.945973E+03 -2.188346E-10 -1.621223E-10
        76  12  1.982194E+05  5.445799E+03  5.764130E+03 -3.701514E+03 -2.685256E-11 -8.202596E-11
        76  13  1.982199E+05  6.703012E+02  1.552368E+03 -1.367042E-10  8.204187E-10  1.735265E-10
        76  14  1.978450E+05  1.944207E+03  2.898915E+03 -7.993588E-10  5.029567E-10 -6.733826E-12
        76  15  1.982194E+05  5.445774E+03  5.764126E+03 -6.205611E-10  3.282726E-10 -2.599834E-11
        76  16  1.982199E+05  6.703012E+02  1.552368E+03  1.904601E+02 -4.805511E-10  2.393847E-10
        76  17  1.978450E+05  1.944214E+03  2.898916E+03  1.945973E+03  8.037060E-11  1.421930E-10
        76  18  1.982194E+05  5.445799E+03  5.764130E+03  3.701514E+03 -1.010638E-11  3.580694E-11
        76  19  1.982199E+05  6.703016E+02  1.552371E+03 -1.904601E+02  1.128326E+03 -3.460433E-04
        76  20  1.978450E+05  1.944216E+03  2.898929E+03 -1.945973E+03  2.605937E+03 -8.165696E-03
        76  21  1.982194E+05  5.445804E+03  5.764161E+03 -3.701514E+03  4.083571E+03 -2.433951E-02
        76  22  1.982199E+05  6.703015E+02  1.552371E+03 -1.097561E-09  1.128326E+03  2.438831E-10
        76  23  1.978450E+05  1.944209E+03  2.898928E+03 -9.990909E-11  2.605937E+03  6.980726E-11
        76  24  1.982194E+05  5.445778E+03  5.764157E+03 -1.130532E-10  4.083571E+03 -1.986293E-12
        76  25  1.982199E+05  6.703016E+02  1.552371E+03  1.904601E+02  1.128326E+03  3.460438E-04
        76  26  1.978450E+05  1.944216E+03  2.898929E+03  1.945973E+03  2.605937E+03  8.165696E-03
        76  27  1.982194E+05  5.445804E+03  5.764161E+03  3.701514E+03  4.083571E+03  2.433951E-02
        77   1 -1.700147E+04  9.032814E+04 -2.235465E+04 -2.000547E+03  8.407692E+02 -2.406020E+04
        77   2  6.252526E+03  6.751281E+04 -9.601085E+03 -1.173252E+04  2.339739E+03 -1.647436E+04
        77   3  6.604280E+03  3.798577E+04 -7.510917E+03 -2.763497E+04  1.684615E+03 -8.888783E+03
        77   4 -3.753659E+04  7.485710E+03 -4.219755E+04 -2.507657E+04  8.418552E+02 -2.813625E+04
        77   5 -7.357118E+03  1.113873E+04 -2.128283E+04 -2.199045E+04  2.340063E+03 -1.714130E+04
        77   6 -6.735601E+02  7.486484E+03 -1.339987E+04 -2.507507E+04  1.684401E+03 -6.146202E+03
        77   7 -5.807020E+04 -7.534925E+04 -6.204057E+04 -4.814949E+04  8.432443E+02 -3.221177E+04
        77   8 -2.096657E+04 -4.523211E+04 -3.296468E+04 -3.224745E+04  2.340410E+03 -1.780818E+04
        77   9 -7.951426E+03 -2.301188E+04 -1.928884E+04 -2.251529E+04  1.684210E+03 -3.403752E+03
        77  10 -1.700162E+04  9.032752E+04 -2.235574E+04 -2.000531E+03  1.681872E-11 -2.164483E-10
        77  11  6.252447E+03  6.751252E+04 -9.601605E+03 -1.173249E+04  7.840484E-11  2.011954E-10
        77  12  6.604255E+03  3.798569E+04 -7.511071E+03 -2.763496E+04  2.709019E-10  6.374756E-10
        77  13 -3.753680E+04  7.484859E+03 -4.219903E+04 -2.507655E+04 -6.497384E-11  7.221871E-12
        77  14 -7.357203E+03  1.113841E+04 -2.128339E+04 -2.199042E+04 -6.193404E-11 -7.728238E-12
        77  15 -6.735733E+02  7.486443E+03 -1.339995E+04 -2.507506E+04  1.090930E-10  3.211993E-11
        77  16 -5.807048E+04 -7.535037E+04 -6.204253E+04 -4.814947E+04 -3.116197E-11  2.076439E-10
        77  17 -2.096666E+04 -4.523245E+04 -3.296529E+04 -3.224741E+04 -1.593543E-11 -1.809295E-10
        77  18 -7.951433E+03 -2.301189E+04 -1.928887E+04 -2.251528E+04  2.147562E-10 -6.547744E-10
        77  19 -1.700147E+04  9.032814E+04 -2.235465E+04 -2.000547E+03 -8.407692E+02  2.406020E+04
        77  20  6.252526E+03  6.751281E+04 -9.601085E+03 -1.173252E+04 -2.339739E+03  1.647436E+04
        77  21  6.604280E+03  3.798577E+04 -7.510917E+03 -2.763497E+04 -1.684615E+03  8.888783E+03
        77  22 -3.753659E+04  7.485710E+03 -4.219755E+04 -2.507657E+04 -8.418552E+02  2.813625E+04
        77  23 -7.357118E+03  1.113873E+04 -2.128283E+04 -2.199045E+04 -2.340063E+03  1.714130E+04
        77  24 -6.735601E+02  7.486484E+03 -1.339987E+04 -2.507507E+04 -1.684401E+03  6.146202E+03
        77  25 -5.807020E+04 -7.534925E+04 -6.204057E+04 -4.814949E+04 -8.432443E+02  3.221177E+04
        77  26 -2.096657E+04 -4.523211E+04 -3.296468E+04 -3.224745E+04 -2.340410E+03  1.780818E+04
        77  27 -7.951426E+03 -2.301188E+04 -1.928884E+04 -2.251529E+04 -1.684210E+03  3.403752E+03
        78   1  1.626928E+03  2.193151E+04 -8.947103E+03 -2.417162E+04  6.330646E+02 -6.696503E+03
        78   2 -3.498075E+03 -3.573152E+03 -1.249827E+04 -2.198104E+04 -9.021988E+02 -1.542964E+03
        78   3 -1.112872E+04 -3.037478E+04 -2.003100E+04 -2.608311E+04 -2.386724E+03  3.610384E+03
        78   4 -1.519147E+03  8.824741E+03 -1.157170E+04 -2.510231E+04  6.329041E+02 -4.226064E+03
        78   5 -4.241994E+02  9.466463E+03 -1.016843E+04 -2.195597E+04 -9.023511E+02  8.470770E+02
        78   6 -1.820886E+03  8.824529E+03 -1.269090E+04 -2.510233E+04 -2.386855E+03  5.920232E+03
        78   7 -4.665227E+03 -4.281845E+03 -1.419629E+04 -2.603297E+04  6.327362E+02 -1.755677E+03
        78   8  2.649670E+03  2.250626E+04 -7.838579E+03 -2.193091E+04 -9.025032E+02  3.237167E+03
        78   9  7.486867E+03  4.802534E+04 -5.350837E+03 -2.412149E+04 -2.386978E+03  8.230223E+03
        78  10  1.626916E+03  2.193146E+04 -8.947188E+03 -2.417162E+04  2.419030E-10 -5.411470E-10
        78  11 -3.498077E+03 -3.573155E+03 -1.249828E+04 -2.198104E+04  6.779520E-10 -2.046778E-10
        78  12 -1.112873E+04 -3.037479E+04 -2.003104E+04 -2.608310E+04 -2.881343E-10  1.738244E-10
        78  13 -1.519152E+03  8.824722E+03 -1.157174E+04 -2.510231E+04  1.765916E-10  3.050224E-11
        78  14 -4.242005E+02  9.466462E+03 -1.016843E+04 -2.195597E+04 -5.982081E-10 -1.623945E-11
        78  15 -1.820901E+03  8.824490E+03 -1.269097E+04 -2.510232E+04  1.512202E-10  1.520090E-11
        78  16 -4.665228E+03 -4.281848E+03 -1.419629E+04 -2.603297E+04 -9.393626E-11  4.902667E-10
        78  17  2.649666E+03  2.250624E+04 -7.838600E+03 -2.193091E+04  3.396217E-10  2.348689E-10
        78  18  7.486843E+03  4.802526E+04 -5.350975E+03 -2.412148E+04 -2.538344E-10 -1.800088E-10
        78  19  1.626928E+03  2.193151E+04 -8.947103E+03 -2.417162E+04 -6.330646E+02  6.696503E+03
        78  20 -3.498075E+03 -3.573152E+03 -1.249827E+04 -2.198104E+04  9.021988E+02  1.542964E+03
        78  21 -1.112872E+04 -3.037478E+04 -2.003100E+04 -2.608311E+04  2.386724E+03 -3.610384E+03
        78  22 -1.519147E+03  8.824741E+03 -1.157170E+04 -2.510231E+04 -6.329041E+02  4.226064E+03
        78  23 -4.241994E+02  9.466463E+03 -1.016843E+04 -2.195597E+04  9.023511E+02 -8.470770E+02
        78  24 -1.820886E+03  8.824529E+03 -1.269090E+04 -2.510233E+04  2.386855E+03 -5.920232E+03
        78  25 -4.665227E+03 -4.281845E+03 -1.419629E+04 -2.603297E+04 -6.327362E+02  1.755677E+03
        78  26  2.649670E+03  2.250626E+04 -7.838579E+03 -2.193091E+04  9.025032E+02 -3.237167E+03
        78  27  7.486867E+03  4.802534E+04 -5.350837E+03 -2.412149E+04  2.386978E+03 -8.230223E+03
        79   1 -1.424489E+04 -4.942981E+04 -2.577692E+04 -2.197559E+04 -3.418499E+03  5.365508E+03
        79   2 -2.858407E+04 -7.089747E+04 -4.169193E+04 -3.414257E+04 -3.720546E+03  2.264569E+04
        79   3 -7.157617E+04 -1.017772E+05 -7.602036E+04 -5.243689E+04 -1.245265E+03  3.992475E+04
        79   4 -7.944723E+02  7.187601E+03 -1.514542E+04 -2.506573E+04 -3.418657E+03  8.041349E+03
        79   5 -8.749048E+03  1.151130E+04 -2.492256E+04 -2.200223E+04 -3.719994E+03  2.092471E+04
        79   6 -4.459187E+04  7.186437E+03 -5.005857E+04 -2.506707E+04 -1.243325E+03  3.380785E+04
        79   7  1.265580E+04  6.380815E+04 -4.514028E+03 -2.815616E+04 -3.418842E+03  1.071743E+04
        79   8  1.108610E+04  9.392684E+04 -8.153460E+03 -9.860248E+03 -3.719510E+03  1.920352E+04
        79   9 -1.760559E+04  1.161626E+05 -2.409706E+04  2.307574E+03 -1.241923E+03  2.768988E+04
        79  10 -1.424491E+04 -4.942985E+04 -2.577700E+04 -2.197557E+04  2.024628E-10 -4.543362E-10
        79  11 -2.858422E+04 -7.089802E+04 -4.169292E+04 -3.414251E+04 -3.173264E-10 -6.494701E-11
        79  12 -7.157660E+04 -1.017789E+05 -7.602336E+04 -5.243685E+04  1.728621E-10  3.397504E-10
        79  13 -7.945022E+02  7.187528E+03 -1.514557E+04 -2.506571E+04 -3.376363E-10  9.911751E-12
        79  14 -8.749181E+03  1.151082E+04 -2.492341E+04 -2.200217E+04  8.966517E-11 -1.587493E-12
        79  15 -4.459218E+04  7.185209E+03 -5.006072E+04 -2.506704E+04 -4.875142E-10 -9.771998E-12
        79  16  1.265575E+04  6.380802E+04 -4.514266E+03 -2.815614E+04 -6.803889E-11  4.237234E-10
        79  17  1.108599E+04  9.392644E+04 -8.154179E+03 -9.860190E+03 -6.064754E-10  7.124891E-11
        79  18 -1.760580E+04  1.161618E+05 -2.409850E+04  2.307602E+03  1.141030E-10 -3.253563E-10
        79  19 -1.424489E+04 -4.942981E+04 -2.577692E+04 -2.197559E+04  3.418499E+03 -5.365508E+03
        79  20 -2.858407E+04 -7.089747E+04 -4.169193E+04 -3.414257E+04  3.720546E+03 -2.264569E+04
        79  21 -7.157617E+04 -1.017772E+05 -7.602036E+04 -5.243689E+04  1.245265E+03 -3.992475E+04
        79  22 -7.944723E+02  7.187601E+03 -1.514542E+04 -2.506573E+04  3.418657E+03 -8.041349E+03
        79  23 -8.749048E+03  1.151130E+04 -2.492256E+04 -2.200223E+04  3.719994E+03 -2.092471E+04
        79  24 -4.459187E+04  7.186437E+03 -5.005857E+04 -2.506707E+04  1.243325E+03 -3.380785E+04
        79  25  1.265580E+04  6.380815E+04 -4.514028E+03 -2.815616E+04  3.418842E+03 -1.071743E+04
        79  26  1.108610E+04  9.392684E+04 -8.153460E+03 -9.860248E+03  3.719510E+03 -1.920352E+04
        79  27 -1.760559E+04  1.161626E+05 -2.409706E+04  2.307574E+03  1.241923E+03 -2.768988E+04
        80   1  3.475128E+05  2.221478E+05  6.384372E+04  2.278677E+05  3.547076E+04  2.662060E+04
        80   2  3.215971E+05  1.767066E+05  2.661783E+04  2.519298E+05  2.328677E+04  1.751358E+04
        80   3  3.345828E+05  1.839984E+05  1.722160E+04  2.510204E+05  1.112286E+04  8.379977E+03
        80   4  3.547068E+05  2.210893E+05  6.506928E+04  2.285823E+05  3.547473E+04  2.662324E+04
        80   5  3.260173E+05  1.782934E+05  2.781601E+04  2.533948E+05  2.328762E+04  1.751415E+04
        80   6  3.362297E+05  1.882308E+05  1.839483E+04  2.532358E+05  1.112066E+04  8.378381E+03
        80   7  3.619008E+05  2.200308E+05  6.629484E+04  2.292969E+05  3.547870E+04  2.662588E+04
        80   8  3.304375E+05  1.798802E+05  2.901419E+04  2.548598E+05  2.328847E+04  1.751473E+04
        80   9  3.378766E+05  1.924633E+05  1.956806E+04  2.554512E+05  1.111846E+04  8.376785E+03
        80  10  3.475112E+05  2.221467E+05  6.384003E+04  2.278669E+05 -5.554729E-11 -4.035955E-11
        80  11  3.215964E+05  1.767062E+05  2.661624E+04  2.519295E+05 -5.612289E-11  5.537842E-12
        80  12  3.345827E+05  1.839983E+05  1.722124E+04  2.510203E+05  1.783674E-10  2.986155E-10
        80  13  3.547052E+05  2.210882E+05  6.506559E+04  2.285815E+05  4.225231E-10  4.210470E-11
        80  14  3.260166E+05  1.782930E+05  2.781442E+04  2.533945E+05  2.136956E-10 -1.482771E-10
        80  15  3.362296E+05  1.882307E+05  1.839447E+04  2.532357E+05  4.553491E-11  3.351930E-10
        80  16  3.618993E+05  2.200297E+05  6.629115E+04  2.292961E+05  1.333797E-11 -8.110330E-11
        80  17  3.304369E+05  1.798798E+05  2.901259E+04  2.548595E+05  4.766163E-11  3.418309E-10
        80  18  3.378765E+05  1.924632E+05  1.956770E+04  2.554511E+05  5.288241E-10  5.228142E-10
        80  19  3.475128E+05  2.221478E+05  6.384372E+04  2.278677E+05 -3.547076E+04 -2.662060E+04
        80  20  3.215971E+05  1.767066E+05  2.661783E+04  2.519298E+05 -2.328677E+04 -1.751358E+04
        80  21  3.345828E+05  1.839984E+05  1.722160E+04  2.510204E+05 -1.112286E+04 -8.379977E+03
        80  22  3.547068E+05  2.210893E+05  6.506928E+04  2.285823E+05 -3.547473E+04 -2.662324E+04
        80  23  3.260173E+05  1.782934E+05  2.781601E+04  2.533948E+05 -2.328762E+04 -1.751415E+04
        80  24  3.362297E+05  1.882308E+05  1.839483E+04  2.532358E+05 -1.112066E+04 -8.378381E+03
        80  25  3.619008E+05  2.200308E+05  6.629484E+04  2.292969E+05 -3.547870E+04 -2.662588E+04
        80  26  3.304375E+05  1.798802E+05  2.901419E+04  2.548598E+05 -2.328847E+04 -1.751473E+04
        80  27  3.378766E+05  1.924633E+05  1.956806E+04  2.554512E+05 -1.111846E+04 -8.376785E+03
        81   1  3.342536E+05  1.916862E+05  1.448579E+04  2.460075E+05  8.678174E+03  6.536552E+03
        81   2  3.301146E+05  1.847469E+05  6.714512E+03  2.497144E+05  5.524592E+03  4.171991E+03
        81   3  3.323856E+05  1.859604E+05  4.317998E+03  2.495515E+05  2.373264E+03  1.804425E+03
        81   4  3.371779E+05  1.928496E+05  1.530139E+04  2.470287E+05  8.678407E+03  6.536715E+03
        81   5  3.325743E+05  1.862854E+05  7.512220E+03  2.508301E+05  5.524477E+03  4.171903E+03
        81   6  3.343808E+05  1.878742E+05  5.098086E+03  2.507618E+05  2.372809E+03  1.804085E+03
        81   7  3.401022E+05  1.940129E+05  1.611699E+04  2.480499E+05  8.678640E+03  6.536877E+03
        81   8  3.350340E+05  1.878239E+05  8.309928E+03  2.519459E+05  5.524362E+03  4.171815E+03
        81   9  3.363759E+05  1.897879E+05  5.878172E+03  2.519721E+05  2.372353E+03  1.803745E+03
        81  10  3.342535E+05  1.916861E+05  1.448556E+04  2.460075E+05  2.943753E-10  3.538868E-10
        81  11  3.301145E+05  1.847468E+05  6.714422E+03  2.497143E+05 -6.114082E-10  3.970907E-11
        81  12  3.323856E+05  1.859604E+05  4.317982E+03  2.495515E+05 -8.596142E-10 -4.125941E-10
        81  13  3.371778E+05  1.928495E+05  1.530117E+04  2.470287E+05  1.079490E-11  3.410528E-10
        81  14  3.325742E+05  1.862854E+05  7.512130E+03  2.508301E+05 -7.421958E-10 -4.744962E-10
        81  15  3.343807E+05  1.878742E+05  5.098069E+03  2.507618E+05 -7.543810E-10 -2.847563E-10
        81  16  3.401021E+05  1.940129E+05  1.611677E+04  2.480499E+05  1.653400E-10  3.403134E-10
        81  17  3.350339E+05  1.878239E+05  8.309838E+03  2.519459E+05 -8.546966E-10 -2.462192E-10
        81  18  3.363759E+05  1.897879E+05  5.878156E+03  2.519721E+05 -1.038902E-09 -1.570969E-10
        81  19  3.342536E+05  1.916862E+05  1.448579E+04  2.460075E+05 -8.678174E+03 -6.536552E+03
        81  20  3.301146E+05  1.847469E+05  6.714512E+03  2.497144E+05 -5.524592E+03 -4.171991E+03
        81  21  3.323856E+05  1.859604E+05  4.317998E+03  2.495515E+05 -2.373264E+03 -1.804425E+03
        81  22  3.371779E+05  1.928496E+05  1.530139E+04  2.470287E+05 -8.678407E+03 -6.536715E+03
        81  23  3.325743E+05  1.862854E+05  7.512220E+03  2.508301E+05 -5.524477E+03 -4.171903E+03
        81  24  3.343808E+05  1.878742E+05  5.098086E+03  2.507618E+05 -2.372809E+03 -1.804085E+03
        81  25  3.401022E+05  1.940129E+05  1.611699E+04  2.480499E+05 -8.678640E+03 -6.536877E+03
        81  26  3.350340E+05  1.878239E+05  8.309928E+03  2.519459E+05 -5.524362E+03 -4.171815E+03
        81  27  3.363759E+05  1.897879E+05  5.878172E+03  2.519721E+05 -2.372353E+03 -1.803745E+03
        82   1  3.327900E+05  1.874933E+05  3.839685E+03  2.491581E+05  1.686659E+03  1.286430E+03
        82   2  3.319645E+05  1.862797E+05  2.609693E+03  2.497231E+05  4.000549E+02  3.185758E+02
        82   3  3.329387E+05  1.871152E+05  3.155158E+03  2.492960E+05 -8.867817E+02 -6.489976E+02
        82   4  3.344770E+05  1.885110E+05  4.379212E+03  2.499061E+05  1.686437E+03  1.286263E+03
        82   5  3.335153E+05  1.873765E+05  3.137978E+03  2.504847E+05  3.998611E+02  3.184305E+02
        82   6  3.343534E+05  1.882911E+05  3.672172E+03  2.500712E+05 -8.869476E+02 -6.491222E+02
        82   7  3.361641E+05  1.895288E+05  4.918738E+03  2.506542E+05  1.686215E+03  1.286096E+03
        82   8  3.350662E+05  1.884733E+05  3.666262E+03  2.512463E+05  3.996674E+02  3.182852E+02
        82   9  3.357681E+05  1.894670E+05  4.189186E+03  2.508464E+05 -8.871135E+02 -6.492468E+02
        82  10  3.327900E+05  1.874933E+05  3.839676E+03  2.491581E+05 -3.931434E-10 -3.079021E-11
        82  11  3.319645E+05  1.862797E+05  2.609692E+03  2.497231E+05  1.906071E-10  3.220087E-10
        82  12  3.329387E+05  1.871152E+05  3.155156E+03  2.492960E+05  4.018026E-10  3.633797E-10
        82  13  3.344770E+05  1.885110E+05  4.379203E+03  2.499061E+05  1.751256E-10 -1.137458E-10
        82  14  3.335153E+05  1.873765E+05  3.137977E+03  2.504847E+05  9.141262E-10  3.386639E-10
        82  15  3.343534E+05  1.882911E+05  3.672170E+03  2.500712E+05  1.146809E-09  4.154944E-10
        82  16  3.361640E+05  1.895288E+05  4.918730E+03  2.506542E+05 -7.734070E-10  8.379412E-11
        82  17  3.350662E+05  1.884733E+05  3.666262E+03  2.512463E+05  2.859991E-10  2.210324E-10
        82  18  3.357681E+05  1.894670E+05  4.189183E+03  2.508464E+05  1.644691E-10  6.056453E-10
        82  19  3.327900E+05  1.874933E+05  3.839685E+03  2.491581E+05 -1.686659E+03 -1.286430E+03
        82  20  3.319645E+05  1.862797E+05  2.609693E+03  2.497231E+05 -4.000549E+02 -3.185758E+02
        82  21  3.329387E+05  1.871152E+05  3.155158E+03  2.492960E+05  8.867817E+02  6.489976E+02
        82  22  3.344770E+05  1.885110E+05  4.379212E+03  2.499061E+05 -1.686437E+03 -1.286263E+03
        82  23  3.335153E+05  1.873765E+05  3.137978E+03  2.504847E+05 -3.998611E+02 -3.184305E+02
        82  24  3.343534E+05  1.882911E+05  3.672172E+03  2.500712E+05  8.869476E+02  6.491222E+02
        82  25  3.361641E+05  1.895288E+05  4.918738E+03  2.506542E+05 -1.686215E+03 -1.286096E+03
        82  26  3.350662E+05  1.884733E+05  3.666262E+03  2.512463E+05 -3.996674E+02 -3.182852E+02
        82  27  3.357681E+05  1.894670E+05  4.189186E+03  2.508464E+05  8.871135E+02  6.492468E+02
        83   1  3.330446E+05  1.873999E+05  3.725200E+03  2.501802E+05 -1.447942E+03 -1.071303E+03
        83   2  3.320532E+05  1.858687E+05  5.262290E+03  2.501839E+05 -3.794303E+03 -2.833397E+03
        83   3  3.356588E+05  1.903384E+05  1.075195E+04  2.473984E+05 -6.140823E+03 -4.595223E+03
        83   4  3.342663E+05  1.879087E+05  4.070361E+03  2.506173E+05 -1.448138E+03 -1.071449E+03
        83   5  3.329528E+05  1.866607E+05  5.599827E+03  2.506972E+05 -3.794476E+03 -2.833528E+03
        83   6  3.362364E+05  1.914136E+05  1.108184E+04  2.479878E+05 -6.140973E+03 -4.595342E+03
        83   7  3.354881E+05  1.884175E+05  4.415521E+03  2.510544E+05 -1.448334E+03 -1.071596E+03
        83   8  3.338525E+05  1.874527E+05  5.937364E+03  2.512104E+05 -3.794649E+03 -2.833659E+03
        83   9  3.368140E+05  1.924889E+05  1.141173E+04  2.485772E+05 -6.141122E+03 -4.595460E+03
        83  10  3.330446E+05  1.873999E+05  3.725194E+03  2.501802E+05  1.917091E-10  6.643507E-10
        83  11  3.320531E+05  1.858687E+05  5.262248E+03  2.501839E+05 -2.835157E-10  3.273380E-10
        83  12  3.356588E+05  1.903384E+05  1.075184E+04  2.473983E+05  2.196456E-10 -3.563159E-11
        83  13  3.342663E+05  1.879087E+05  4.070355E+03  2.506173E+05  1.203308E-09  5.202708E-10
        83  14  3.329528E+05  1.866607E+05  5.599785E+03  2.506972E+05  1.933568E-10  3.196770E-10
        83  15  3.362364E+05  1.914136E+05  1.108173E+04  2.479877E+05 -9.598342E-11 -9.179627E-11
        83  16  3.354881E+05  1.884175E+05  4.415515E+03  2.510544E+05  1.705579E-10  5.003570E-10
        83  17  3.338525E+05  1.874527E+05  5.937322E+03  2.512104E+05 -3.897400E-10  2.413174E-10
        83  18  3.368140E+05  1.924888E+05  1.141162E+04  2.485771E+05  2.334000E-10 -3.031176E-10
        83  19  3.330446E+05  1.873999E+05  3.725200E+03  2.501802E+05  1.447942E+03  1.071303E+03
        83  20  3.320532E+05  1.858687E+05  5.262290E+03  2.501839E+05  3.794303E+03  2.833397E+03
        83  21  3.356588E+05  1.903384E+05  1.075195E+04  2.473984E+05  6.140823E+03  4.595223E+03
        83  22  3.342663E+05  1.879087E+05  4.070361E+03  2.506173E+05  1.448138E+03  1.071449E+03
        83  23  3.329528E+05  1.866607E+05  5.599827E+03  2.506972E+05  3.794476E+03  2.833528E+03
        83  24  3.362364E+05  1.914136E+05  1.108184E+04  2.479878E+05  6.140973E+03  4.595342E+03
        83  25  3.354881E+05  1.884175E+05  4.415521E+03  2.510544E+05  1.448334E+03  1.071596E+03
        83  26  3.338525E+05  1.874527E+05  5.937364E+03  2.512104E+05  3.794649E+03  2.833659E+03
        83  27  3.368140E+05  1.924889E+05  1.141173E+04  2.485772E+05  6.141122E+03  4.595460E+03
        84   1  3.336225E+05  1.889613E+05  1.304758E+04  2.524859E+05 -7.909042E+03 -5.921338E+03
        84   2  3.283338E+05  1.798364E+05  1.974611E+04  2.520276E+05 -1.664029E+04 -1.246988E+04
        84   3  3.507447E+05  2.086403E+05  4.638838E+04  2.337334E+05 -2.536950E+04 -1.902109E+04
        84   4  3.355376E+05  1.881338E+05  1.326447E+04  2.524257E+05 -7.909002E+03 -5.921281E+03
        84   5  3.282978E+05  1.809284E+05  1.995678E+04  2.525224E+05 -1.664053E+04 -1.247009E+04
        84   6  3.487576E+05  2.116519E+05  4.659307E+04  2.347832E+05 -2.536998E+04 -1.902162E+04
        84   7  3.374526E+05  1.873062E+05  1.348137E+04  2.523656E+05 -7.908962E+03 -5.921225E+03
        84   8  3.282618E+05  1.820205E+05  2.016744E+04  2.530173E+05 -1.664078E+04 -1.247030E+04
        84   9  3.467706E+05  2.146635E+05  4.679776E+04  2.358330E+05 -2.537045E+04 -1.902215E+04
        84  10  3.336224E+05  1.889612E+05  1.304740E+04  2.524859E+05  3.050667E-10 -3.273999E-10
        84  11  3.283334E+05  1.798362E+05  1.974530E+04  2.520275E+05  4.881238E-10  2.955544E-11
        84  12  3.507439E+05  2.086397E+05  4.638649E+04  2.337331E+05  1.125139E-10  1.241399E-10
        84  13  3.355375E+05  1.881337E+05  1.326429E+04  2.524257E+05  2.251903E-10 -1.626304E-10
        84  14  3.282974E+05  1.809282E+05  1.995597E+04  2.525223E+05  2.042389E-10 -4.713844E-11
        84  15  3.487569E+05  2.116513E+05  4.659118E+04  2.347828E+05  6.286606E-11  1.660100E-11
        84  16  3.374525E+05  1.873062E+05  1.348118E+04  2.523656E+05  4.338901E-10 -2.369653E-10
        84  17  3.282615E+05  1.820202E+05  2.016663E+04  2.530171E+05 -4.561573E-10 -1.301269E-10
        84  18  3.467699E+05  2.146630E+05  4.679587E+04  2.358326E+05 -1.375124E-10  1.437824E-11
        84  19  3.336225E+05  1.889613E+05  1.304758E+04  2.524859E+05  7.909042E+03  5.921338E+03
        84  20  3.283338E+05  1.798364E+05  1.974611E+04  2.520276E+05  1.664029E+04  1.246988E+04
        84  21  3.507447E+05  2.086403E+05  4.638838E+04  2.337334E+05  2.536950E+04  1.902109E+04
        84  22  3.355376E+05  1.881338E+05  1.326447E+04  2.524257E+05  7.909002E+03  5.921281E+03
        84  23  3.282978E+05  1.809284E+05  1.995678E+04  2.525224E+05  1.664053E+04  1.247009E+04
        84  24  3.487576E+05  2.116519E+05  4.659307E+04  2.347832E+05  2.536998E+04  1.902162E+04
        84  25  3.374526E+05  1.873062E+05  1.348137E+04  2.523656E+05  7.908962E+03  5.921225E+03
        84  26  3.282618E+05  1.820205E+05  2.016744E+04  2.530173E+05  1.664078E+04  1.247030E+04
        84  27  3.467706E+05  2.146635E+05  4.679776E+04  2.358330E+05  2.537045E+04  1.902215E+04
        85   1  1.484508E+04 -3.070573E+04 -3.291242E+04 -2.047374E+04 -2.320516E+04  7.652352E-01
        85   2  1.713417E+04 -9.836916E+03 -1.639907E+04 -1.034646E+04 -1.481873E+04  2.469537E-01
        85   3  1.484444E+04 -2.916476E+03 -8.832384E+03 -2.191091E+02 -6.432289E+03  2.270077E-03
        85   4  1.484463E+04 -3.070652E+04 -3.291253E+04 -4.727012E-12 -2.320516E+04  8.358284E-11
        85   5  1.713405E+04 -9.837117E+03 -1.639910E+04  7.782924E-11 -1.481873E+04  8.262718E-11
        85   6  1.484443E+04 -2.916477E+03 -8.832384E+03  2.287532E-10 -6.432289E+03 -8.693446E-11
        85   7  1.484508E+04 -3.070573E+04 -3.291242E+04  2.047374E+04 -2.320516E+04 -7.652352E-01
        85   8  1.713417E+04 -9.836916E+03 -1.639907E+04  1.034646E+04 -1.481873E+04 -2.469537E-01
        85   9  1.484444E+04 -2.916476E+03 -8.832384E+03  2.191091E+02 -6.432289E+03 -2.270077E-03
        85  10  1.484450E+04 -3.070587E+04 -3.291343E+04 -2.047374E+04  3.266501E-11  6.928278E-11
        85  11  1.713393E+04 -9.836975E+03 -1.639949E+04 -1.034646E+04  1.847594E-10  1.027502E-10
        85  12  1.484439E+04 -2.916488E+03 -8.832462E+03 -2.191091E+02  2.518101E-10 -4.920657E-11
        85  13  1.484405E+04 -3.070666E+04 -3.291354E+04  3.754734E-10 -2.551681E-10 -6.411217E-12
        85  14  1.713382E+04 -9.837176E+03 -1.639951E+04 -1.503973E-10  1.507983E-10 -3.243314E-11
        85  15  1.484439E+04 -2.916488E+03 -8.832462E+03 -4.112314E-10  7.034405E-11 -6.485162E-11
        85  16  1.484450E+04 -3.070587E+04 -3.291343E+04  2.047374E+04  3.773429E-10 -4.099415E-11
        85  17  1.713393E+04 -9.836975E+03 -1.639949E+04  1.034646E+04 -4.609603E-11 -1.675531E-10
        85  18  1.484439E+04 -2.916488E+03 -8.832462E+03  2.191091E+02  7.119508E-12 -8.032307E-11
        85  19  1.484508E+04 -3.070573E+04 -3.291242E+04 -2.047374E+04  2.320516E+04 -7.652352E-01
        85  20  1.713417E+04 -9.836916E+03 -1.639907E+04 -1.034646E+04  1.481873E+04 -2.469537E-01
        85  21  1.484444E+04 -2.916476E+03 -8.832384E+03 -2.191091E+02  6.432289E+03 -2.270077E-03
        85  22  1.484463E+04 -3.070652E+04 -3.291253E+04  8.624635E-11  2.320516E+04 -9.435125E-11
        85  23  1.713405E+04 -9.837117E+03 -1.639910E+04  2.418923E-11  1.481873E+04 -1.465187E-10
        85  24  1.484443E+04 -2.916477E+03 -8.832384E+03 -1.745903E-10  6.432289E+03 -3.663289E-11
        85  25  1.484508E+04 -3.070573E+04 -3.291242E+04  2.047374E+04  2.320516E+04  7.652352E-01
        85  26  1.713417E+04 -9.836916E+03 -1.639907E+04  1.034646E+04  1.481873E+04  2.469537E-01
        85  27  1.484444E+04 -2.916476E+03 -8.832384E+03  2.191091E+02  6.432289E+03  2.270077E-03
        86   1  1.574974E+04 -2.266493E+03 -6.565228E+03 -1.203877E+03 -5.295271E+03  1.026797E-02
        86   2  1.600226E+04 -6.240377E+02 -3.410415E+03 -5.272609E+02 -3.587668E+03  3.046857E-03
        86   3  1.574970E+04 -1.126797E+02 -1.650029E+03  1.493448E+02 -1.880088E+03 -4.522544E-04
        86   4  1.574974E+04 -2.266496E+03 -6.565229E+03  7.754595E-10 -5.295271E+03 -1.389160E-10
        86   5  1.600226E+04 -6.240382E+02 -3.410415E+03  5.829249E-10 -3.587668E+03 -7.705754E-11
        86   6  1.574970E+04 -1.126797E+02 -1.650029E+03  2.551759E-10 -1.880088E+03 -1.017048E-10
        86   7  1.574974E+04 -2.266493E+03 -6.565228E+03  1.203877E+03 -5.295271E+03 -1.026797E-02
        86   8  1.600226E+04 -6.240377E+02 -3.410415E+03  5.272609E+02 -3.587668E+03 -3.046857E-03
        86   9  1.574970E+04 -1.126797E+02 -1.650029E+03 -1.493448E+02 -1.880088E+03  4.522542E-04
        86  10  1.574971E+04 -2.266501E+03 -6.565281E+03 -1.203877E+03 -9.712241E-11 -9.522285E-11
        86  11  1.600225E+04 -6.240412E+02 -3.410439E+03 -5.272609E+02 -5.697486E-11  2.529903E-11
        86  12  1.574969E+04 -1.126806E+02 -1.650035E+03  1.493448E+02  1.353140E-10  1.227622E-10
        86  13  1.574971E+04 -2.266504E+03 -6.565282E+03 -2.441369E-10  2.697699E-10 -5.763970E-11
        86  14  1.600225E+04 -6.240417E+02 -3.410439E+03 -2.986962E-10 -1.412230E-10  6.779126E-12
        86  15  1.574969E+04 -1.126807E+02 -1.650035E+03  5.224495E-10 -3.737750E-10  7.475263E-11
        86  16  1.574971E+04 -2.266501E+03 -6.565281E+03  1.203877E+03  2.318623E-10 -2.389850E-11
        86  17  1.600225E+04 -6.240412E+02 -3.410439E+03  5.272609E+02 -9.639771E-11 -1.188906E-11
        86  18  1.574969E+04 -1.126806E+02 -1.650035E+03 -1.493448E+02 -8.205617E-11  2.667413E-11
        86  19  1.574974E+04 -2.266493E+03 -6.565228E+03 -1.203877E+03  5.295271E+03 -1.026797E-02
        86  20  1.600226E+04 -6.240377E+02 -3.410415E+03 -5.272609E+02  3.587668E+03 -3.046857E-03
        86  21  1.574970E+04 -1.126797E+02 -1.650029E+03  1.493448E+02  1.880088E+03  4.522546E-04
        86  22  1.574974E+04 -2.266496E+03 -6.565229E+03  8.249461E-11  5.295271E+03  2.362201E-11
        86  23  1.600226E+04 -6.240382E+02 -3.410415E+03 -1.028089E-10  3.587668E+03  8.982403E-11
        86  24  1.574970E+04 -1.126797E+02 -1.650029E+03 -1.893278E-11  1.880088E+03  2.501392E-10
        86  25  1.574974E+04 -2.266493E+03 -6.565228E+03  1.203877E+03  5.295271E+03  1.026797E-02
        86  26  1.600226E+04 -6.240377E+02 -3.410415E+03  5.272609E+02  3.587668E+03  3.046857E-03
        86  27  1.574970E+04 -1.126797E+02 -1.650029E+03 -1.493448E+02  1.880088E+03 -4.522541E-04
        87   1  1.587422E+04 -7.029764E+01 -1.020249E+03  6.482691E+01 -1.652832E+03 -1.725832E-04
        87   2  1.584658E+04  1.573961E+02  6.393084E+01 -9.434523E+01 -1.688569E+03  2.565979E-04
        87   3  1.587421E+04  5.876448E+02  1.222008E+03 -2.535196E+02 -1.724306E+03  7.041100E-04
        87   4  1.587422E+04 -7.029765E+01 -1.020249E+03  3.062797E-11 -1.652832E+03 -1.347594E-10
        87   5  1.584658E+04  1.573961E+02  6.393084E+01 -1.504329E-10 -1.688569E+03 -7.201624E-11
        87   6  1.587421E+04  5.876447E+02  1.222008E+03  2.742750E-10 -1.724306E+03  1.333833E-10
        87   7  1.587422E+04 -7.029764E+01 -1.020249E+03 -6.482691E+01 -1.652832E+03  1.725829E-04
        87   8  1.584658E+04  1.573961E+02  6.393084E+01  9.434523E+01 -1.688569E+03 -2.565981E-04
        87   9  1.587421E+04  5.876448E+02  1.222008E+03  2.535196E+02 -1.724306E+03 -7.041098E-04
        87  10  1.587422E+04 -7.029837E+01 -1.020254E+03  6.482691E+01  2.907334E-10  1.404762E-10
        87  11  1.584657E+04  1.573953E+02  6.392548E+01 -9.434523E+01  1.038995E-10  9.879726E-11
        87  12  1.587421E+04  5.876440E+02  1.222002E+03 -2.535196E+02 -1.371564E-10  3.399424E-11
        87  13  1.587422E+04 -7.029838E+01 -1.020254E+03  7.927020E-11 -5.258728E-13  6.514165E-11
        87  14  1.584657E+04  1.573953E+02  6.392548E+01  3.365417E-11  4.038679E-10  8.708059E-12
        87  15  1.587421E+04  5.876439E+02  1.222002E+03  7.955109E-10  5.750021E-10  2.598710E-11
        87  16  1.587422E+04 -7.029837E+01 -1.020254E+03 -6.482691E+01 -3.554522E-10 -9.918631E-12
        87  17  1.584657E+04  1.573953E+02  6.392548E+01  9.434523E+01 -2.239818E-10 -8.082689E-11
        87  18  1.587421E+04  5.876440E+02  1.222002E+03  2.535196E+02  4.059721E-10  1.828554E-11
        87  19  1.587422E+04 -7.029764E+01 -1.020249E+03  6.482691E+01  1.652832E+03  1.725835E-04
        87  20  1.584658E+04  1.573961E+02  6.393084E+01 -9.434523E+01  1.688569E+03 -2.565977E-04
        87  21  1.587421E+04  5.876448E+02  1.222008E+03 -2.535196E+02  1.724306E+03 -7.041100E-04
        87  22  1.587422E+04 -7.029765E+01 -1.020249E+03 -6.798560E-10  1.652832E+03  2.655128E-10
        87  23  1.584658E+04  1.573961E+02  6.393084E+01 -1.865209E-10  1.688569E+03  8.929114E-11
        87  24  1.587421E+04  5.876447E+02  1.222008E+03  2.396011E-10  1.724306E+03 -8.123034E-11
        87  25  1.587422E+04 -7.029764E+01 -1.020249E+03 -6.482691E+01  1.652832E+03 -1.725829E-04
        87  26  1.584658E+04  1.573961E+02  6.393084E+01  9.434523E+01  1.688569E+03  2.565979E-04
        87  27  1.587421E+04  5.876448E+02  1.222008E+03  2.535196E+02  1.724306E+03  7.041098E-04
        88   1  1.611762E+04  7.497650E+02  1.916943E+03 -1.894219E+01 -1.944313E+03  5.932146E-05
        88   2  1.554230E+04  2.503813E+03  4.009387E+03 -2.594205E+03 -3.997130E+03  1.670196E-02
        88   3  1.611759E+04  7.791130E+03  8.321615E+03 -5.169472E+03 -6.049949E+03  5.037471E-02
        88   4  1.611762E+04  7.497650E+02  1.916943E+03  1.735438E-11 -1.944313E+03  1.658431E-10
        88   5  1.554229E+04  2.503800E+03  4.009385E+03  2.973486E-10 -3.997130E+03  3.735185E-11
        88   6  1.611756E+04  7.791080E+03  8.321608E+03  2.579093E-10 -6.049949E+03  6.427321E-12
        88   7  1.611762E+04  7.497650E+02  1.916943E+03  1.894219E+01 -1.944313E+03 -5.932113E-05
        88   8  1.554230E+04  2.503813E+03  4.009387E+03  2.594205E+03 -3.997130E+03 -1.670196E-02
        88   9  1.611759E+04  7.791130E+03  8.321615E+03  5.169472E+03 -6.049949E+03 -5.037471E-02
        88  10  1.611761E+04  7.497640E+02  1.916936E+03 -1.894219E+01  2.973979E-10  1.621671E-11
        88  11  1.554228E+04  2.503808E+03  4.009357E+03 -2.594205E+03  2.913585E-10  2.402820E-11
        88  12  1.611755E+04  7.791120E+03  8.321546E+03 -5.169472E+03 -1.401003E-10  8.410103E-12
        88  13  1.611761E+04  7.497640E+02  1.916936E+03  5.612345E-10  2.543329E-10 -9.704354E-13
        88  14  1.554227E+04  2.503796E+03  4.009355E+03  4.158337E-10  2.849474E-10 -7.956360E-11
        88  15  1.611752E+04  7.791070E+03  8.321539E+03  1.213188E-09  3.045689E-10 -3.574842E-11
        88  16  1.611761E+04  7.497640E+02  1.916936E+03  1.894219E+01  4.248819E-11 -1.820778E-11
        88  17  1.554228E+04  2.503808E+03  4.009357E+03  2.594205E+03 -1.516227E-10 -1.749306E-10
        88  18  1.611755E+04  7.791120E+03  8.321546E+03  5.169472E+03  1.943632E-10 -8.186424E-11
        88  19  1.611762E+04  7.497650E+02  1.916943E+03 -1.894219E+01  1.944313E+03 -5.932144E-05
        88  20  1.554230E+04  2.503813E+03  4.009387E+03 -2.594205E+03  3.997130E+03 -1.670196E-02
        88  21  1.611759E+04  7.791130E+03  8.321615E+03 -5.169472E+03  6.049949E+03 -5.037471E-02
        88  22  1.611762E+04  7.497650E+02  1.916943E+03  4.316394E-10  1.944313E+03 -1.676447E-10
        88  23  1.554229E+04  2.503800E+03  4.009385E+03  1.072842E-09  3.997130E+03 -1.965051E-10
        88  24  1.611756E+04  7.791080E+03  8.321608E+03  4.016697E-10  6.049949E+03 -7.325987E-11
        88  25  1.611762E+04  7.497650E+02  1.916943E+03  1.894219E+01  1.944313E+03  5.932110E-05
        88  26  1.554230E+04  2.503813E+03  4.009387E+03  2.594205E+03  3.997130E+03  1.670196E-02
        88  27  1.611759E+04  7.791130E+03  8.321615E+03  5.169472E+03  6.049949E+03  5.037471E-02
        89   1 -5.486227E+04 -1.392690E+04 -4.916148E+04  3.548708E+04 -3.478828E+03  6.966523E+03
        89   2 -5.665554E+04  5.407469E+04 -4.082949E+04  2.737839E+04 -1.004270E+04  8.746218E+03
        89   3 -4.041846E+04  1.263706E+05 -2.914551E+04  4.799736E+04 -8.252836E+03  1.052539E+04
        89   4  2.021460E+04  2.880672E+05  2.426318E+04  4.511290E+04 -3.477605E+03  1.675487E+04
        89   5 -5.701734E+01  2.852698E+05  1.100281E+04  3.075116E+04 -1.004202E+04  1.092373E+04
        89   6 -9.811560E+02  2.880796E+05  6.376603E+03  4.511568E+04 -8.254125E+03  5.091801E+03
        89   7  9.528516E+04  5.901449E+05  9.768165E+04  5.474341E+04 -3.476078E+03  2.654797E+04
        89   8  5.653791E+04  5.165147E+05  6.283174E+04  3.412519E+04 -1.004131E+04  1.310204E+04
        89   9  3.845444E+04  4.498130E+05  4.189724E+04  4.223324E+04 -8.255364E+03 -3.431819E+02
        89  10 -5.486230E+04 -1.392695E+04 -4.916160E+04  3.548710E+04  3.265761E-10 -1.586543E-08
        89  11 -5.665567E+04  5.407458E+04 -4.082982E+04  2.737846E+04  6.681978E-10  1.144723E-09
        89  12 -4.041856E+04  1.263705E+05 -2.914585E+04  4.799743E+04  4.252818E-10  1.925281E-08
        89  13  2.021451E+04  2.880669E+05  2.426263E+04  4.511295E+04  5.714135E-10 -5.659153E-11
        89  14 -5.715766E+01  2.852696E+05  1.100239E+04  3.075125E+04  9.394190E-10 -5.449459E-11
        89  15 -9.812361E+02  2.880795E+05  6.376426E+03  4.511571E+04  4.717867E-10 -2.253896E-10
        89  16  9.528496E+04  5.901441E+05  9.768030E+04  5.474349E+04  1.917417E-10  1.589193E-08
        89  17  5.653775E+04  5.165145E+05  6.283123E+04  3.412530E+04  1.027949E-09 -1.077892E-09
        89  18  3.845437E+04  4.498130E+05  4.189711E+04  4.223324E+04  4.159404E-10 -1.914738E-08
        89  19 -5.486227E+04 -1.392690E+04 -4.916148E+04  3.548708E+04  3.478828E+03 -6.966523E+03
        89  20 -5.665554E+04  5.407469E+04 -4.082949E+04  2.737839E+04  1.004270E+04 -8.746218E+03
        89  21 -4.041846E+04  1.263706E+05 -2.914551E+04  4.799736E+04  8.252836E+03 -1.052539E+04
        89  22  2.021460E+04  2.880672E+05  2.426318E+04  4.511290E+04  3.477605E+03 -1.675487E+04
        89  23 -5.701734E+01  2.852698E+05  1.100281E+04  3.075116E+04  1.004202E+04 -1.092373E+04
        89  24 -9.811560E+02  2.880796E+05  6.376603E+03  4.511568E+04  8.254125E+03 -5.091801E+03
        89  25  9.528516E+04  5.901449E+05  9.768165E+04  5.474341E+04  3.476078E+03 -2.654797E+04
        89  26  5.653791E+04  5.165147E+05  6.283174E+04  3.412519E+04  1.004131E+04 -1.310204E+04
        89  27  3.845444E+04  4.498130E+05  4.189724E+04  4.223324E+04  8.255364E+03  3.431819E+02
        90   1 -2.431242E+04  1.826539E+05 -1.798458E+04  4.480106E+04 -5.182535E+03  7.276370E+03
        90   2 -8.366087E+03  2.524780E+05 -5.008458E+03  3.056215E+04 -1.759815E+03  6.087985E+03
        90   3  8.595897E+03  3.227006E+05  8.991163E+03  4.537272E+04  1.740429E+03  4.899297E+03
        90   4  1.134404E+03  2.869267E+05  5.002389E+03  4.518662E+04 -5.183340E+03  4.193415E+03
        90   5 -1.586319E+01  2.867246E+05  2.505993E+03  3.066212E+04 -1.760699E+03  2.934003E+03
        90   6 -1.379689E+02  2.869285E+05  1.082317E+03  4.518698E+04  1.739448E+03  1.674418E+03
        90   7  2.658051E+04  3.912097E+05  2.798873E+04  4.557224E+04 -5.184149E+03  1.109947E+03
        90   8  8.334288E+03  3.209723E+05  1.002041E+04  3.076210E+04 -1.761583E+03 -2.201509E+02
        90   9 -8.871915E+03  2.511576E+05 -6.826569E+03  4.500124E+04  1.738470E+03 -1.550277E+03
        90  10 -2.431247E+04  1.826538E+05 -1.798473E+04  4.480109E+04 -6.429267E-11  2.140733E-09
        90  11 -8.366101E+03  2.524779E+05 -5.008534E+03  3.056216E+04 -8.263014E-10  1.375540E-09
        90  12  8.595887E+03  3.227006E+05  8.991112E+03  4.537272E+04 -5.418246E-10  1.869398E-09
        90  13  1.134370E+03  2.869267E+05  5.002306E+03  4.518664E+04 -2.736713E-10 -4.553957E-10
        90  14 -1.586883E+01  2.867245E+05  2.505971E+03  3.066212E+04 -5.353099E-10 -1.564086E-10
        90  15 -1.379729E+02  2.869285E+05  1.082306E+03  4.518698E+04 -5.329793E-10 -2.717815E-10
        90  16  2.658048E+04  3.912096E+05  2.798867E+04  4.557225E+04 -7.555980E-10 -2.002134E-09
        90  17  8.334285E+03  3.209723E+05  1.002040E+04  3.076210E+04 -1.093581E-09 -1.261391E-09
        90  18 -8.871919E+03  2.511576E+05 -6.826580E+03  4.500125E+04 -3.708378E-10 -1.684009E-09
        90  19 -2.431242E+04  1.826539E+05 -1.798458E+04  4.480106E+04  5.182535E+03 -7.276370E+03
        90  20 -8.366087E+03  2.524780E+05 -5.008458E+03  3.056215E+04  1.759815E+03 -6.087985E+03
        90  21  8.595897E+03  3.227006E+05  8.991163E+03  4.537272E+04 -1.740429E+03 -4.899297E+03
        90  22  1.134404E+03  2.869267E+05  5.002389E+03  4.518662E+04  5.183340E+03 -4.193415E+03
        90  23 -1.586319E+01  2.867246E+05  2.505993E+03  3.066212E+04  1.760699E+03 -2.934003E+03
        90  24 -1.379689E+02  2.869285E+05  1.082317E+03  4.518698E+04 -1.739448E+03 -1.674418E+03
        90  25  2.658051E+04  3.912097E+05  2.798873E+04  4.557224E+04  5.184149E+03 -1.109947E+03
        90  26  8.334288E+03  3.209723E+05  1.002041E+04  3.076210E+04  1.761583E+03  2.201509E+02
        90  27 -8.871915E+03  2.511576E+05 -6.826569E+03  4.500124E+04 -1.738470E+03  1.550277E+03
        91   1  2.289171E+04  3.799053E+05  2.108088E+04  4.542871E+04  4.665889E+03  6.567071E+03
        91   2  3.986091E+04  4.497220E+05  3.613021E+04  3.049190E+04  6.896919E+03  7.993651E+02
        91   3  5.624655E+04  5.201452E+05  5.478532E+04  4.434637E+04  2.515769E+03 -4.967839E+03
        91   4  1.616500E+02  2.867382E+05  5.634773E+02  4.512956E+04  4.664457E+03  1.519351E+03
        91   5  4.610559E+00  2.869564E+05 -4.544377E+02  3.073385E+04  6.897271E+03  1.777505E+03
        91   6 -1.781220E+03  2.867319E+05 -2.048892E+03  4.512994E+04  2.517118E+03  2.036718E+03
        91   7 -2.256898E+04  1.935792E+05 -1.995436E+04  4.483045E+04  4.663029E+03 -3.527620E+03
        91   8 -3.985349E+04  1.242153E+05 -3.704077E+04  3.097573E+04  6.897623E+03  2.755391E+03
        91   9 -5.981298E+04  5.336832E+04 -5.888687E+04  4.591321E+04  2.518484E+03  9.038651E+03
        91  10  2.289168E+04  3.799052E+05  2.108076E+04  4.542868E+04  4.018502E-11  6.953606E-10
        91  11  3.986085E+04  4.497220E+05  3.613012E+04  3.049189E+04  1.339885E-10  2.065070E-10
        91  12  5.624654E+04  5.201451E+05  5.478526E+04  4.434638E+04  2.197483E-10 -2.378370E-11
        91  13  1.616261E+02  2.867381E+05  5.634321E+02  4.512955E+04 -6.861071E-11 -4.863568E-10
        91  14  4.558621E+00  2.869563E+05 -4.545330E+02  3.073384E+04 -2.821092E-10 -1.023210E-10
        91  15 -1.781228E+03  2.867319E+05 -2.048912E+03  4.512994E+04  1.712231E-10 -1.538270E-10
        91  16 -2.256901E+04  1.935792E+05 -1.995443E+04  4.483047E+04  4.317928E-11 -6.105371E-10
        91  17 -3.985355E+04  1.242153E+05 -3.704087E+04  3.097572E+04 -2.493977E-11 -1.352632E-10
        91  18 -5.981300E+04  5.336823E+04 -5.888703E+04  4.591320E+04 -2.755713E-10  1.029025E-10
        91  19  2.289171E+04  3.799053E+05  2.108088E+04  4.542871E+04 -4.665889E+03 -6.567071E+03
        91  20  3.986091E+04  4.497220E+05  3.613021E+04  3.049190E+04 -6.896919E+03 -7.993651E+02
        91  21  5.624655E+04  5.201452E+05  5.478532E+04  4.434637E+04 -2.515769E+03  4.967839E+03
        91  22  1.616500E+02  2.867382E+05  5.634773E+02  4.512956E+04 -4.664457E+03 -1.519351E+03
        91  23  4.610559E+00  2.869564E+05 -4.544377E+02  3.073385E+04 -6.897271E+03 -1.777505E+03
        91  24 -1.781220E+03  2.867319E+05 -2.048892E+03  4.512994E+04 -2.517118E+03 -2.036718E+03
        91  25 -2.256898E+04  1.935792E+05 -1.995436E+04  4.483045E+04 -4.663029E+03  3.527620E+03
        91  26 -3.985349E+04  1.242153E+05 -3.704077E+04  3.097573E+04 -6.897623E+03 -2.755391E+03
        91  27 -5.981298E+04  5.336832E+04 -5.888687E+04  4.591321E+04 -2.518484E+03 -9.038651E+03
        92   1  1.221388E+05  1.311548E+05  1.481060E+04  1.201096E+05  6.362250E+03  5.681261E+03
        92   2  1.088833E+05  1.041066E+05  2.775767E+03  1.151477E+05  1.570765E+03  4.947770E+03
        92   3  9.647148E+04  8.736020E+04 -4.359992E+03  1.085458E+05 -3.024990E+03  3.953448E+03
        92   4  1.495667E+05  1.311608E+05  1.936079E+04  1.248483E+05  1.040145E+04  8.710679E+03
        92   5  1.461197E+05  1.206768E+05  9.654434E+03  1.296249E+05  5.072440E+03  7.574126E+03
        92   6  1.436329E+05  1.206108E+05  5.313658E+03  1.327615E+05 -6.088699E+01  6.176607E+03
        92   7  1.769963E+05  1.311669E+05  2.391122E+04  1.295871E+05  1.444097E+04  1.174010E+04
        92   8  1.833586E+05  1.372476E+05  1.653335E+04  1.441033E+05  8.574466E+03  1.020064E+04
        92   9  1.907980E+05  1.538636E+05  1.498759E+04  1.569798E+05  2.903569E+03  8.400033E+03
        92  10  1.221387E+05  1.311548E+05  1.481047E+04  1.201096E+05 -2.054144E-10  8.998939E-12
        92  11  1.088833E+05  1.041066E+05  2.775716E+03  1.151477E+05  1.803619E-10  9.603966E-11
        92  12  9.647147E+04  8.736018E+04 -4.360038E+03  1.085458E+05 -4.899782E-10  5.367146E-11
        92  13  1.495666E+05  1.311607E+05  1.936044E+04  1.248482E+05  3.182433E-10  7.059888E-11
        92  14  1.461197E+05  1.206767E+05  9.654278E+03  1.296249E+05  1.445452E-10  1.756617E-10
        92  15  1.436329E+05  1.206108E+05  5.313587E+03  1.327615E+05 -3.481861E-10  1.123719E-10
        92  16  1.769960E+05  1.311667E+05  2.391057E+04  1.295870E+05  4.626209E-10  1.135709E-10
        92  17  1.833585E+05  1.372474E+05  1.653302E+04  1.441032E+05  5.420546E-10  1.133936E-10
        92  18  1.907979E+05  1.538635E+05  1.498744E+04  1.569798E+05  2.058246E-10  3.701788E-10
        92  19  1.221388E+05  1.311548E+05  1.481060E+04  1.201096E+05 -6.362250E+03 -5.681261E+03
        92  20  1.088833E+05  1.041066E+05  2.775767E+03  1.151477E+05 -1.570765E+03 -4.947770E+03
        92  21  9.647148E+04  8.736020E+04 -4.359992E+03  1.085458E+05  3.024990E+03 -3.953448E+03
        92  22  1.495667E+05  1.311608E+05  1.936079E+04  1.248483E+05 -1.040145E+04 -8.710679E+03
        92  23  1.461197E+05  1.206768E+05  9.654434E+03  1.296249E+05 -5.072440E+03 -7.574126E+03
        92  24  1.436329E+05  1.206108E+05  5.313658E+03  1.327615E+05  6.088699E+01 -6.176607E+03
        92  25  1.769963E+05  1.311669E+05  2.391122E+04  1.295871E+05 -1.444097E+04 -1.174010E+04
        92  26  1.833586E+05  1.372476E+05  1.653335E+04  1.441033E+05 -8.574466E+03 -1.020064E+04
        92  27  1.907980E+05  1.538636E+05  1.498759E+04  1.569798E+05 -2.903569E+03 -8.400033E+03
        93   1  8.550346E+04  8.079579E+04 -7.636648E+03  1.035824E+05 -4.206174E+03  4.362298E+03
        93   2  7.172530E+04  6.693299E+04 -1.235968E+04  9.525151E+04 -6.135497E+03  5.137336E+03
        93   3  5.447248E+04  5.748139E+04 -1.622153E+04  8.789710E+04 -8.036528E+03  5.874945E+03
        93   4  1.431913E+05  1.202397E+05  4.047492E+03  1.326231E+05 -1.238776E+03  6.587869E+03
        93   5  1.447130E+05  1.176579E+05  2.352392E+03  1.324106E+05 -3.245490E+03  7.304705E+03
        93   6  1.427765E+05  1.195034E+05  1.585466E+03  1.331741E+05 -5.223954E+03  7.984095E+03
        93   7  2.008818E+05  1.596846E+05  1.573112E+04  1.616663E+05  1.728922E+03  8.813656E+03
        93   8  2.177063E+05  1.683854E+05  1.706404E+04  1.695744E+05 -3.550650E+02  9.472383E+03
        93   9  2.310898E+05  1.815303E+05  1.939224E+04  1.784587E+05 -2.410852E+03  1.009364E+04
        93  10  8.550344E+04  8.079577E+04 -7.636717E+03  1.035824E+05  2.694477E-10  5.105150E-10
        93  11  7.172525E+04  6.693296E+04 -1.235980E+04  9.525154E+04 -3.358431E-10  6.335682E-11
        93  12  5.447240E+04  5.748134E+04 -1.622172E+04  8.789714E+04  2.340841E-10 -1.695970E-10
        93  13  1.431913E+05  1.202396E+05  4.047408E+03  1.326231E+05 -7.799812E-10  5.873726E-12
        93  14  1.447130E+05  1.176578E+05  2.352272E+03  1.324106E+05 -1.489980E-10 -9.804526E-11
        93  15  1.427764E+05  1.195033E+05  1.585295E+03  1.331742E+05  1.400852E-10 -2.333866E-10
        93  16  2.008817E+05  1.596846E+05  1.573097E+04  1.616663E+05 -7.928847E-10 -1.819444E-10
        93  17  2.177063E+05  1.683853E+05  1.706387E+04  1.695744E+05 -1.080689E-10 -3.265045E-10
        93  18  2.310897E+05  1.815302E+05  1.939203E+04  1.784587E+05  3.643080E-10 -3.058905E-10
        93  19  8.550346E+04  8.079579E+04 -7.636648E+03  1.035824E+05  4.206174E+03 -4.362298E+03
        93  20  7.172530E+04  6.693299E+04 -1.235968E+04  9.525151E+04  6.135497E+03 -5.137336E+03
        93  21  5.447248E+04  5.748139E+04 -1.622153E+04  8.789710E+04  8.036528E+03 -5.874945E+03
        93  22  1.431913E+05  1.202397E+05  4.047492E+03  1.326231E+05  1.238776E+03 -6.587869E+03
        93  23  1.447130E+05  1.176579E+05  2.352392E+03  1.324106E+05  3.245490E+03 -7.304705E+03
        93  24  1.427765E+05  1.195034E+05  1.585466E+03  1.331741E+05  5.223954E+03 -7.984095E+03
        93  25  2.008818E+05  1.596846E+05  1.573112E+04  1.616663E+05 -1.728922E+03 -8.813656E+03
        93  26  2.177063E+05  1.683854E+05  1.706404E+04  1.695744E+05  3.550650E+02 -9.472383E+03
        93  27  2.310898E+05  1.815303E+05  1.939224E+04  1.784587E+05  2.410852E+03 -1.009364E+04
        94   1  4.450432E+04  5.062781E+04 -1.846610E+04  8.287381E+04 -8.843579E+03  6.514199E+03
        94   2  3.074795E+04  3.765971E+04 -2.167342E+04  7.429017E+04 -1.024542E+04  7.542593E+03
        94   3  1.319403E+04  2.867231E+04 -2.452879E+04  6.684069E+04 -1.159392E+04  8.500112E+03
        94   4  1.427443E+05  1.194769E+05  1.412000E+03  1.331588E+05 -6.029528E+03  8.624363E+03
        94   5  1.446330E+05  1.174809E+05  1.386713E+03  1.325837E+05 -7.577574E+03  9.542919E+03
        94   6  1.427558E+05  1.194976E+05  1.840379E+03  1.331429E+05 -9.072274E+03  1.039059E+04
        94   7  2.409980E+05  1.883337E+05  2.129057E+04  1.834541E+05 -3.214827E+03  1.073501E+04
        94   8  2.585337E+05  1.973103E+05  2.444646E+04  1.908899E+05 -4.909075E+03  1.154373E+04
        94   9  2.723348E+05  2.103316E+05  2.820803E+04  1.994599E+05 -6.549981E+03  1.228156E+04
        94  10  4.450422E+04  5.062775E+04 -1.846632E+04  8.287386E+04 -4.525668E-10 -6.009428E-10
        94  11  3.074782E+04  3.765962E+04 -2.167372E+04  7.429024E+04  9.622218E-11  2.849688E-10
        94  12  1.319386E+04  2.867220E+04 -2.452917E+04  6.684077E+04  5.677046E-10  5.154677E-10
        94  13  1.427442E+05  1.194768E+05  1.411792E+03  1.331588E+05  3.828306E-10 -7.911750E-11
        94  14  1.446329E+05  1.174808E+05  1.386433E+03  1.325838E+05  3.356884E-10  1.576734E-10
        94  15  1.427556E+05  1.194975E+05  1.840021E+03  1.331430E+05  6.782630E-10  6.081408E-11
        94  16  2.409980E+05  1.883336E+05  2.129034E+04  1.834541E+05  6.594307E-10  4.257874E-10
        94  17  2.585337E+05  1.973102E+05  2.444616E+04  1.908899E+05  8.094662E-12  2.056885E-10
        94  18  2.723347E+05  2.103314E+05  2.820767E+04  1.994600E+05 -6.824364E-10 -3.595425E-10
        94  19  4.450432E+04  5.062781E+04 -1.846610E+04  8.287381E+04  8.843579E+03 -6.514199E+03
        94  20  3.074795E+04  3.765971E+04 -2.167342E+04  7.429017E+04  1.024542E+04 -7.542593E+03
        94  21  1.319403E+04  2.867231E+04 -2.452879E+04  6.684069E+04  1.159392E+04 -8.500112E+03
        94  22  1.427443E+05  1.194769E+05  1.412000E+03  1.331588E+05  6.029528E+03 -8.624363E+03
        94  23  1.446330E+05  1.174809E+05  1.386713E+03  1.325837E+05  7.577574E+03 -9.542919E+03
        94  24  1.427558E+05  1.194976E+05  1.840379E+03  1.331429E+05  9.072274E+03 -1.039059E+04
        94  25  2.409980E+05  1.883337E+05  2.129057E+04  1.834541E+05  3.214827E+03 -1.073501E+04
        94  26  2.585337E+05  1.973103E+05  2.444646E+04  1.908899E+05  4.909075E+03 -1.154373E+04
        94  27  2.723348E+05  2.103316E+05  2.820803E+04  1.994599E+05  6.549981E+03 -1.228156E+04
        95   1  3.242895E+03  2.188040E+04 -2.628800E+04  6.186844E+04 -1.243593E+04  9.018152E+03
        95   2 -9.912175E+03  8.557748E+03 -2.863494E+04  5.290852E+04 -1.341969E+04  9.739128E+03
        95   3 -2.644353E+04 -2.973284E+02 -3.054192E+04  4.479378E+04 -1.396153E+04  9.870914E+03
        95   4  1.428276E+05  1.195283E+05  2.266799E+03  1.331737E+05 -9.907002E+03  1.091395E+04
        95   5  1.447288E+05  1.177781E+05  3.743852E+03  1.322883E+05 -1.210431E+04  1.072475E+04
        95   6  1.435169E+05  1.207581E+05  6.713842E+03  1.322477E+05 -1.385981E+04  9.946438E+03
        95   7  2.824358E+05  2.171885E+05  3.082099E+04  2.044979E+05 -7.377316E+03  1.281031E+04
        95   8  2.994002E+05  2.270150E+05  3.612236E+04  2.116922E+05 -1.078848E+04  1.171071E+04
        95   9  3.135154E+05  2.418350E+05  4.396956E+04  2.197316E+05 -1.375804E+04  1.002199E+04
        95  10  3.242707E+03  2.188027E+04 -2.628844E+04  6.186853E+04 -1.985969E-10 -1.587633E-10
        95  11 -9.912394E+03  8.557598E+03 -2.863546E+04  5.290863E+04 -2.962668E-10  8.519966E-11
        95  12 -2.644376E+04 -2.974854E+02 -3.054247E+04  4.479389E+04  2.160686E-10  8.791422E-11
        95  13  1.428274E+05  1.195281E+05  2.266391E+03  1.331738E+05  2.995682E-10 -1.656835E-11
        95  14  1.447286E+05  1.177779E+05  3.743360E+03  1.322884E+05  6.010130E-11  1.393870E-10
        95  15  1.435166E+05  1.207580E+05  6.713296E+03  1.322478E+05  1.329477E-10  4.409932E-11
        95  16  2.824357E+05  2.171884E+05  3.082058E+04  2.044980E+05  1.627290E-10  2.253527E-10
        95  17  2.994001E+05  2.270148E+05  3.612188E+04  2.116923E+05  3.692089E-10  1.359149E-10
        95  18  3.135151E+05  2.418348E+05  4.396902E+04  2.197317E+05 -3.951811E-10 -1.782214E-11
        95  19  3.242895E+03  2.188040E+04 -2.628800E+04  6.186844E+04  1.243593E+04 -9.018152E+03
        95  20 -9.912175E+03  8.557748E+03 -2.863494E+04  5.290852E+04  1.341969E+04 -9.739128E+03
        95  21 -2.644353E+04 -2.973284E+02 -3.054192E+04  4.479378E+04  1.396153E+04 -9.870914E+03
        95  22  1.428276E+05  1.195283E+05  2.266799E+03  1.331737E+05  9.907002E+03 -1.091395E+04
        95  23  1.447288E+05  1.177781E+05  3.743852E+03  1.322883E+05  1.210431E+04 -1.072475E+04
        95  24  1.435169E+05  1.207581E+05  6.713842E+03  1.322477E+05  1.385981E+04 -9.946438E+03
        95  25  2.824358E+05  2.171885E+05  3.082099E+04  2.044979E+05  7.377316E+03 -1.281031E+04
        95  26  2.994002E+05  2.270150E+05  3.612236E+04  2.116922E+05  1.078848E+04 -1.171071E+04
        95  27  3.135154E+05  2.418350E+05  4.396956E+04  2.197316E+05  1.375804E+04 -1.002199E+04
        96   1 -3.699561E+04 -5.838514E+03 -3.149013E+04  4.025852E+04 -1.511682E+04  9.362475E+03
        96   2 -4.006257E+04 -2.505702E+04 -3.340683E+04  2.557419E+04 -9.392896E+03  9.779952E+03
        96   3 -4.057111E+04 -3.214308E+04 -3.540396E+04  7.179299E+03  1.666999E+02  5.079299E+03
        96   4  1.443707E+05  1.212823E+05  8.891593E+03  1.324569E+05 -1.495628E+04  9.482062E+03
        96   5  1.469621E+05  1.229957E+05  1.628199E+04  1.276215E+05 -1.976960E+04  2.000208E+03
        96   6  1.543952E+05  1.391240E+05  3.273454E+04  1.190761E+05 -2.074802E+04 -1.059841E+04
        96   7  3.257724E+05  2.484209E+05  4.927043E+04  2.246850E+05 -1.479568E+04  9.601693E+03
        96   8  3.340237E+05  2.710734E+05  6.596723E+04  2.297045E+05 -3.015027E+04 -5.783027E+03
        96   9  3.493998E+05  3.104239E+05  1.008687E+05  2.310148E+05 -4.167118E+04 -2.628455E+04
        96  10 -3.699588E+04 -5.838670E+03 -3.149072E+04  4.025864E+04  1.066075E-10  6.366313E-11
        96  11 -4.006269E+04 -2.505715E+04 -3.340718E+04  2.557427E+04  1.707754E-10 -1.836602E-10
        96  12 -4.057112E+04 -3.214311E+04 -3.540400E+04  7.179298E+03  9.189575E-11  2.377247E-10
        96  13  1.443705E+05  1.212821E+05  8.891003E+03  1.324570E+05 -1.287051E-11  2.488179E-11
        96  14  1.469617E+05  1.229956E+05  1.628125E+04  1.276216E+05  4.946410E-10 -3.064654E-10
        96  15  1.543947E+05  1.391237E+05  3.273352E+04  1.190759E+05  1.926910E-10 -6.138299E-10
        96  16  3.257721E+05  2.484207E+05  4.926985E+04  2.246851E+05 -3.398953E-11  4.647471E-10
        96  17  3.340227E+05  2.710731E+05  6.596546E+04  2.297044E+05 -1.395474E-10 -3.839584E-11
        96  18  3.493978E+05  3.104226E+05  1.008641E+05  2.310139E+05 -2.890750E-10  7.909069E-11
        96  19 -3.699561E+04 -5.838514E+03 -3.149013E+04  4.025852E+04  1.511682E+04 -9.362475E+03
        96  20 -4.006257E+04 -2.505702E+04 -3.340683E+04  2.557419E+04  9.392896E+03 -9.779952E+03
        96  21 -4.057111E+04 -3.214308E+04 -3.540396E+04  7.179299E+03 -1.666999E+02 -5.079299E+03
        96  22  1.443707E+05  1.212823E+05  8.891593E+03  1.324569E+05  1.495628E+04 -9.482062E+03
        96  23  1.469621E+05  1.229957E+05  1.628199E+04  1.276215E+05  1.976960E+04 -2.000208E+03
        96  24  1.543952E+05  1.391240E+05  3.273454E+04  1.190761E+05  2.074802E+04  1.059841E+04
        96  25  3.257724E+05  2.484209E+05  4.927043E+04  2.246850E+05  1.479568E+04 -9.601693E+03
        96  26  3.340237E+05  2.710734E+05  6.596723E+04  2.297045E+05  3.015027E+04  5.783027E+03
        96  27  3.493998E+05  3.104239E+05  1.008687E+05  2.310148E+05  4.167118E+04  2.628455E+04
        97   1 -8.425633E+04 -3.803604E+05 -8.260140E+04  3.078712E+04 -4.077697E+03 -2.883731E+04
        97   2 -6.598069E+04 -3.534446E+05 -6.022170E+04  2.381387E+04 -1.346378E+04 -1.383400E+04
        97   3 -5.746035E+04 -3.309141E+05 -5.005047E+04  2.241589E+04 -1.569101E+04  1.170420E+03
        97   4 -1.226837E+04 -8.917923E+04 -1.392058E+04  2.325078E+04 -4.076124E+03 -8.649854E+03
        97   5 -2.321807E+03 -8.795226E+04 -7.484794E+03  2.046233E+04 -1.346230E+04 -4.790960E+03
        97   6 -1.929598E+02 -8.917462E+04 -5.514221E+03  2.324939E+04 -1.569082E+04 -9.318848E+02
        97   7  5.971396E+04  2.020809E+05  5.475595E+04  1.571087E+04 -4.075042E+03  1.154703E+04
        97   8  6.133286E+04  1.776076E+05  4.524892E+04  1.710933E+04 -1.346091E+04  4.255869E+03
        97   9  5.707110E+04  1.526216E+05  3.901963E+04  2.408321E+04 -1.569064E+04 -3.034987E+03
        97  10 -8.425658E+04 -3.803613E+05 -8.260299E+04  3.078703E+04 -3.039610E-10 -4.359152E-10
        97  11 -6.598094E+04 -3.534448E+05 -6.022240E+04  2.381372E+04 -3.027317E-10  3.318487E-10
        97  12 -5.746061E+04 -3.309142E+05 -5.005093E+04  2.241591E+04  6.348069E-11  9.450792E-10
        97  13 -1.226841E+04 -8.917932E+04 -1.392075E+04  2.325075E+04 -1.049664E-10 -2.629339E-12
        97  14 -2.322008E+03 -8.795233E+04 -7.485178E+03  2.046228E+04 -3.436730E-10  7.928292E-11
        97  15 -1.932244E+02 -8.917469E+04 -5.514685E+03  2.324938E+04 -3.700793E-12 -3.097093E-10
        97  16  5.971391E+04  2.020808E+05  5.475567E+04  1.571091E+04 -3.797289E-11  4.090479E-10
        97  17  6.133266E+04  1.776076E+05  4.524855E+04  1.710938E+04  1.387563E-10 -3.504531E-10
        97  18  5.707083E+04  1.526215E+05  3.901915E+04  2.408318E+04  2.181384E-10 -1.020453E-09
        97  19 -8.425633E+04 -3.803604E+05 -8.260140E+04  3.078712E+04  4.077697E+03  2.883731E+04
        97  20 -6.598069E+04 -3.534446E+05 -6.022170E+04  2.381387E+04  1.346378E+04  1.383400E+04
        97  21 -5.746035E+04 -3.309141E+05 -5.005047E+04  2.241589E+04  1.569101E+04 -1.170420E+03
        97  22 -1.226837E+04 -8.917923E+04 -1.392058E+04  2.325078E+04  4.076124E+03  8.649854E+03
        97  23 -2.321807E+03 -8.795226E+04 -7.484794E+03  2.046233E+04  1.346230E+04  4.790960E+03
        97  24 -1.929598E+02 -8.917462E+04 -5.514221E+03  2.324939E+04  1.569082E+04  9.318848E+02
        97  25  5.971396E+04  2.020809E+05  5.475595E+04  1.571087E+04  4.075042E+03 -1.154703E+04
        97  26  6.133286E+04  1.776076E+05  4.524892E+04  1.710933E+04  1.346091E+04 -4.255869E+03
        97  27  5.707110E+04  1.526216E+05  3.901963E+04  2.408321E+04  1.569064E+04  3.034987E+03
        98   1 -5.373154E+04 -3.138579E+05 -4.656358E+04  2.380024E+04 -1.483568E+04  9.577034E+02
        98   2 -4.751994E+04 -2.886960E+05 -4.221133E+04  2.022095E+04 -1.379243E+04  5.202372E+03
        98   3 -4.300119E+04 -2.645075E+05 -4.104591E+04  2.267579E+04 -1.198311E+04  9.446816E+03
        98   4 -4.630178E+02 -8.879925E+04 -5.331808E+03  2.335139E+04 -1.483541E+04 -6.915184E+01
        98   5 -2.362212E+02 -8.841435E+04 -6.118939E+03  2.033446E+04 -1.379254E+04  2.983532E+03
        98   6 -1.494934E+03 -8.879612E+04 -9.264410E+03  2.335157E+04 -1.198371E+04  6.035833E+03
        98   7  5.280264E+04  1.363086E+05  3.589790E+04  2.290238E+04 -1.483514E+04 -1.096370E+03
        98   8  4.704526E+04  1.119064E+05  2.997190E+04  2.044801E+04 -1.379264E+04  7.639952E+02
        98   9  4.000960E+04  8.694532E+04  2.251592E+04  2.402754E+04 -1.198432E+04  2.623911E+03
        98  10 -5.373178E+04 -3.138579E+05 -4.656399E+04  2.380025E+04  1.012578E-10 -6.244539E-10
        98  11 -4.752015E+04 -2.886961E+05 -4.221173E+04  2.022100E+04  7.357191E-11  1.399427E-10
        98  12 -4.300137E+04 -2.645076E+05 -4.104635E+04  2.267589E+04  2.513087E-10  6.941888E-10
        98  13 -4.632541E+02 -8.879931E+04 -5.332221E+03  2.335139E+04  1.492984E-10 -3.310103E-12
        98  14 -2.364278E+02 -8.841441E+04 -6.119314E+03  2.033449E+04 -3.459115E-10  2.150349E-10
        98  15 -1.495098E+03 -8.879620E+04 -9.264749E+03  2.335163E+04  3.374030E-11 -5.696656E-10
        98  16  5.280240E+04  1.363085E+05  3.589748E+04  2.290236E+04  2.984951E-11  3.922716E-10
        98  17  4.704506E+04  1.119064E+05  2.997154E+04  2.044802E+04 -1.947478E-10 -1.755874E-10
        98  18  4.000944E+04  8.694527E+04  2.251564E+04  2.402757E+04  1.720664E-10 -8.309460E-10
        98  19 -5.373154E+04 -3.138579E+05 -4.656358E+04  2.380024E+04  1.483568E+04 -9.577034E+02
        98  20 -4.751994E+04 -2.886960E+05 -4.221133E+04  2.022095E+04  1.379243E+04 -5.202372E+03
        98  21 -4.300119E+04 -2.645075E+05 -4.104591E+04  2.267579E+04  1.198311E+04 -9.446816E+03
        98  22 -4.630178E+02 -8.879925E+04 -5.331808E+03  2.335139E+04  1.483541E+04  6.915184E+01
        98  23 -2.362212E+02 -8.841435E+04 -6.118939E+03  2.033446E+04  1.379254E+04 -2.983532E+03
        98  24 -1.494934E+03 -8.879612E+04 -9.264410E+03  2.335157E+04  1.198371E+04 -6.035833E+03
        98  25  5.280264E+04  1.363086E+05  3.589790E+04  2.290238E+04  1.483514E+04  1.096370E+03
        98  26  4.704526E+04  1.119064E+05  2.997190E+04  2.044801E+04  1.379264E+04 -7.639952E+02
        98  27  4.000960E+04  8.694532E+04  2.251592E+04  2.402754E+04  1.198432E+04 -2.623911E+03
        99   1 -3.818237E+04 -2.496603E+05 -4.048645E+04  2.610960E+04 -1.086202E+04  1.057597E+04
        99   2 -3.907649E+04 -2.210438E+05 -4.602943E+04  1.036449E+04 -7.712198E+03  2.490872E+04
        99   3 -6.409837E+04 -2.003277E+05 -6.693773E+04  8.463211E+02 -2.088089E+03  3.924071E+04
        99   4 -5.229641E+02 -9.023142E+04 -1.164068E+04  2.339282E+04 -1.086267E+04  7.604721E+03
        99   5 -7.021802E+03 -8.661551E+04 -2.024409E+04  2.028433E+04 -7.713764E+03  1.808507E+04
        99   6 -3.697735E+04 -9.023077E+04 -4.153593E+04  2.340287E+04 -2.090236E+03  2.856433E+04
        99   7  3.713505E+04  6.922224E+04  1.720414E+04  2.067532E+04 -1.086330E+04  4.632731E+03
        99   8  2.503221E+04  4.783054E+04  5.540647E+03  3.020637E+04 -7.715548E+03  1.125998E+04
        99   9 -9.855202E+03  1.987870E+04 -1.613424E+04  4.596346E+04 -2.093159E+03  1.788608E+04
        99  10 -3.818253E+04 -2.496605E+05 -4.048689E+04  2.610970E+04  4.198653E-10 -8.627605E-10
        99  11 -3.907672E+04 -2.210445E+05 -4.603071E+04  1.036465E+04  3.380942E-11 -7.603221E-11
        99  12 -6.409878E+04 -2.003294E+05 -6.694063E+04  8.463871E+02 -1.627177E-10  3.920261E-10
        99  13 -5.231063E+02 -9.023152E+04 -1.164101E+04  2.339289E+04  8.765510E-11  7.595287E-12
        99  14 -7.021953E+03 -8.661588E+04 -2.024482E+04  2.028444E+04 -5.859491E-10  3.003735E-10
        99  15 -3.697757E+04 -9.023165E+04 -4.153747E+04  2.340292E+04 -4.297159E-11 -7.580864E-10
        99  16  3.713492E+04  6.922218E+04  1.720388E+04  2.067536E+04 -1.714797E-10  4.742158E-10
        99  17  2.503211E+04  4.783038E+04  5.540297E+03  3.020644E+04 -3.407243E-10  1.910614E-11
        99  18 -9.855293E+03  1.987836E+04 -1.613485E+04  4.596349E+04  1.176774E-10 -5.741055E-10
        99  19 -3.818237E+04 -2.496603E+05 -4.048645E+04  2.610960E+04  1.086202E+04 -1.057597E+04
        99  20 -3.907649E+04 -2.210438E+05 -4.602943E+04  1.036449E+04  7.712198E+03 -2.490872E+04
        99  21 -6.409837E+04 -2.003277E+05 -6.693773E+04  8.463211E+02  2.088089E+03 -3.924071E+04
        99  22 -5.229641E+02 -9.023142E+04 -1.164068E+04  2.339282E+04  1.086267E+04 -7.604721E+03
        99  23 -7.021802E+03 -8.661551E+04 -2.024409E+04  2.028433E+04  7.713764E+03 -1.808507E+04
        99  24 -3.697735E+04 -9.023077E+04 -4.153593E+04  2.340287E+04  2.090236E+03 -2.856433E+04
        99  25  3.713505E+04  6.922224E+04  1.720414E+04  2.067532E+04  1.086330E+04 -4.632731E+03
        99  26  2.503221E+04  4.783054E+04  5.540647E+03  3.020637E+04  7.715548E+03 -1.125998E+04
        99  27 -9.855202E+03  1.987870E+04 -1.613424E+04  4.596346E+04  2.093159E+03 -1.788608E+04
       100   1  1.728901E+06  3.634853E+05  3.497015E+05  1.888199E+05  6.468913E+04 -1.943910E+04
       100   2  1.472409E+06  3.035476E+05  2.603621E+05  1.546841E+05  1.905978E+04 -5.991068E+04
       100   3  1.222210E+06  2.429840E+05  2.005834E+05  1.973992E+05 -2.650875E+04 -5.994373E+04
       100   4  2.114730E+05 -1.238640E+04 -1.390530E+04  1.962369E+05 -9.172880E+03 -1.938588E+04
       100   5  2.127160E+05 -1.595148E+03 -6.900143E+03  1.578100E+05 -5.589310E+03 -5.990823E+04
       100   6  2.116691E+05  4.076476E+01 -4.454114E+03  1.962434E+05 -1.963371E+03 -5.995434E+04
       100   7 -1.303839E+06 -3.884220E+05 -3.776546E+05  2.036358E+05 -8.285546E+04 -1.933437E+04
       100   8 -1.045483E+06 -3.068403E+05 -2.742507E+05  1.609296E+05 -3.018923E+04 -5.990603E+04
       100   9 -7.979001E+05 -2.429656E+05 -2.095425E+05  1.950895E+05  2.254287E+04 -5.996506E+04
       100  10  1.728897E+06  3.634838E+05  3.496930E+05  1.888209E+05  8.051109E-09 -4.084059E-10
       100  11  1.472408E+06  3.035436E+05  2.603547E+05  1.546850E+05 -2.206264E-09 -1.795131E-09
       100  12  1.222208E+06  2.429799E+05  2.005753E+05  1.973980E+05 -1.389032E-08 -3.175935E-09
       100  13  2.114728E+05 -1.238682E+04 -1.390617E+04  1.962367E+05  6.105143E-12  7.872122E-10
       100  14  2.127150E+05 -1.599011E+03 -6.906946E+03  1.578098E+05 -7.051574E-10  3.287568E-09
       100  15  2.116681E+05  3.690349E+01 -4.460876E+03  1.962434E+05  4.665998E-11  5.566035E-09
       100  16 -1.303846E+06 -3.884242E+05 -3.776682E+05  2.036345E+05 -8.233659E-09 -2.553612E-10
       100  17 -1.045485E+06 -3.068444E+05 -2.742592E+05  1.609281E+05  2.899885E-09 -1.447162E-09
       100  18 -7.979016E+05 -2.429696E+05 -2.095503E+05  1.950906E+05  1.418539E-08 -3.206407E-09
       100  19  1.728901E+06  3.634853E+05  3.497015E+05  1.888199E+05 -6.468913E+04  1.943910E+04
       100  20  1.472409E+06  3.035476E+05  2.603621E+05  1.546841E+05 -1.905978E+04  5.991068E+04
       100  21  1.222210E+06  2.429840E+05  2.005834E+05  1.973992E+05  2.650875E+04  5.994373E+04
       100  22  2.114730E+05 -1.238640E+04 -1.390530E+04  1.962369E+05  9.172880E+03  1.938588E+04
       100  23  2.127160E+05 -1.595148E+03 -6.900143E+03  1.578100E+05  5.589310E+03  5.990823E+04
       100  24  2.116691E+05  4.076476E+01 -4.454114E+03  1.962434E+05  1.963371E+03  5.995434E+04
       100  25 -1.303839E+06 -3.884220E+05 -3.776546E+05  2.036358E+05  8.285546E+04  1.933437E+04
       100  26 -1.045483E+06 -3.068403E+05 -2.742507E+05  1.609296E+05  3.018923E+04  5.990603E+04
       100  27 -7.979001E+05 -2.429656E+05 -2.095425E+05  1.950895E+05 -2.254287E+04  5.996506E+04
       101   1  1.040483E+06  1.985580E+05  1.643687E+05  1.964098E+05 -1.642735E+04 -4.883083E+04
       101   2  7.876256E+05  1.381044E+05  1.122856E+05  1.570860E+05 -1.730715E+04 -3.529914E+04
       101   3  5.350402E+05  7.758570E+04  6.078071E+04  1.967258E+05 -1.819464E+04 -1.958520E+04
       101   4  2.121917E+05 -6.421338E+02 -3.953978E+03  1.967103E+05 -1.303164E+03 -4.883576E+04
       101   5  2.123617E+05 -4.705076E+01 -3.546285E+03  1.572261E+05  4.651037E+02 -3.529948E+04
       101   6  2.122831E+05  2.684543E+01 -4.397496E+03  1.967103E+05  2.225332E+03 -1.957980E+04
       101   7 -6.154474E+05 -1.998849E+05 -1.723116E+05  1.970102E+05  1.380125E+04 -4.884067E+04
       101   8 -3.625864E+05 -1.382187E+05 -1.193940E+05  1.573661E+05  1.822123E+04 -3.529982E+04
       101   9 -1.103739E+05 -7.753824E+04 -6.957951E+04  1.966947E+05  2.263490E+04 -1.957440E+04
       101  10  1.040482E+06  1.985554E+05  1.643637E+05  1.964091E+05  1.205033E-08 -3.124985E-09
       101  11  7.876250E+05  1.381029E+05  1.122827E+05  1.570855E+05  1.536111E-09 -1.784712E-09
       101  12  5.350397E+05  7.758520E+04  6.077937E+04  1.967255E+05 -1.028220E-08 -6.939124E-10
       101  13  2.121910E+05 -6.446954E+02 -3.958463E+03  1.967102E+05  5.310054E-10  5.541542E-09
       101  14  2.123613E+05 -4.838900E+01 -3.548627E+03  1.572262E+05  8.196755E-10  3.104746E-09
       101  15  2.122830E+05  2.643237E+01 -4.398225E+03  1.967103E+05  6.140416E-10  5.186816E-10
       101  16 -6.154482E+05 -1.998875E+05 -1.723165E+05  1.970108E+05 -1.210007E-08 -3.335121E-09
       101  17 -3.625871E+05 -1.382202E+05 -1.193969E+05  1.573666E+05 -1.408867E-09 -1.836954E-09
       101  18 -1.103746E+05 -7.753879E+04 -6.958119E+04  1.966951E+05  1.036315E-08 -5.023030E-10
       101  19  1.040483E+06  1.985580E+05  1.643687E+05  1.964098E+05  1.642735E+04  4.883083E+04
       101  20  7.876256E+05  1.381044E+05  1.122856E+05  1.570860E+05  1.730715E+04  3.529914E+04
       101  21  5.350402E+05  7.758570E+04  6.078071E+04  1.967258E+05  1.819464E+04  1.958520E+04
       101  22  2.121917E+05 -6.421338E+02 -3.953978E+03  1.967103E+05  1.303164E+03  4.883576E+04
       101  23  2.123617E+05 -4.705076E+01 -3.546285E+03  1.572261E+05 -4.651037E+02  3.529948E+04
       101  24  2.122831E+05  2.684543E+01 -4.397496E+03  1.967103E+05 -2.225332E+03  1.957980E+04
       101  25 -6.154474E+05 -1.998849E+05 -1.723116E+05  1.970102E+05 -1.380125E+04  4.884067E+04
       101  26 -3.625864E+05 -1.382187E+05 -1.193940E+05  1.573661E+05 -1.822123E+04  3.529982E+04
       101  27 -1.103739E+05 -7.753824E+04 -6.957951E+04  1.966947E+05 -2.263490E+04  1.957440E+04
       102   1  3.540895E+05  3.412933E+04  2.253141E+04  1.962406E+05 -1.718630E+04 -9.684326E+03
       102   2  1.021886E+05 -2.665198E+04 -3.113634E+04  1.573580E+05 -1.114902E+04  6.257430E+03
       102   3 -1.510297E+05 -8.988859E+04 -8.935110E+04  1.974657E+05 -5.112826E+03  2.071167E+04
       102   4  2.121186E+05  1.785839E+02 -5.299923E+03  1.967150E+05  3.076188E+03 -9.677673E+03
       102   5  2.126437E+05 -3.276436E+01 -8.475951E+03  1.572206E+05  7.304115E+03  6.262482E+03
       102   6  2.121018E+05 -2.382352E+03 -1.494181E+04  1.967157E+05  1.153335E+04  2.071543E+04
       102   7  7.016788E+04 -3.377316E+04 -3.313069E+04  1.971893E+05  2.333414E+04 -9.670989E+03
       102   8  3.231112E+05  2.658586E+04  1.418507E+04  1.570831E+05  2.576048E+04  6.267524E+03
       102   9  5.753592E+05  8.511575E+04  5.946151E+04  1.959653E+05  2.818909E+04  2.071914E+04
       102  10  3.540891E+05  3.412915E+04  2.253068E+04  1.962404E+05 -1.715495E-09 -4.568395E-10
       102  11  1.021884E+05 -2.665205E+04 -3.113665E+04  1.573580E+05 -8.083854E-10 -4.242108E-10
       102  12 -1.510299E+05 -8.988905E+04 -8.935196E+04  1.974658E+05 -8.697744E-10 -1.283769E-10
       102  13  2.121185E+05  1.784807E+02 -5.300117E+03  1.967150E+05  5.441599E-10 -3.516504E-10
       102  14  2.126437E+05 -3.282078E+01 -8.476124E+03  1.572205E+05  7.919445E-12 -3.644264E-10
       102  15  2.121015E+05 -2.382849E+03 -1.494287E+04  1.967155E+05  2.746207E-10 -9.359771E-11
       102  16  7.016727E+04 -3.377341E+04 -3.313189E+04  1.971895E+05  1.718286E-09 -2.432828E-10
       102  17  3.231105E+05  2.658564E+04  1.418375E+04  1.570830E+05  2.772073E-10 -2.805111E-10
       102  18  5.753582E+05  8.511508E+04  5.945921E+04  1.959648E+05  8.906889E-10 -4.542046E-11
       102  19  3.540895E+05  3.412933E+04  2.253141E+04  1.962406E+05  1.718630E+04  9.684326E+03
       102  20  1.021886E+05 -2.665198E+04 -3.113634E+04  1.573580E+05  1.114902E+04 -6.257430E+03
       102  21 -1.510297E+05 -8.988859E+04 -8.935110E+04  1.974657E+05  5.112826E+03 -2.071167E+04
       102  22  2.121186E+05  1.785839E+02 -5.299923E+03  1.967150E+05 -3.076188E+03  9.677673E+03
       102  23  2.126437E+05 -3.276436E+01 -8.475951E+03  1.572206E+05 -7.304115E+03 -6.262482E+03
       102  24  2.121018E+05 -2.382352E+03 -1.494181E+04  1.967157E+05 -1.153335E+04 -2.071543E+04
       102  25  7.016788E+04 -3.377316E+04 -3.313069E+04  1.971893E+05 -2.333414E+04  9.670989E+03
       102  26  3.231112E+05  2.658586E+04  1.418507E+04  1.570831E+05 -2.576048E+04 -6.267524E+03
       102  27  5.753592E+05  8.511575E+04  5.946151E+04  1.959653E+05 -2.818909E+04 -2.071914E+04
       103   1 -3.355100E+05 -1.296645E+05 -1.303787E+05  1.890935E+05 -9.200678E+03  3.144227E+04
       103   2 -5.782461E+05 -1.989049E+05 -2.034171E+05  1.709838E+05  4.319207E+04  3.627362E+04
       103   3 -8.411057E+05 -3.222898E+05 -3.240880E+05  2.303293E+05  9.555054E+04  1.234544E+04
       103   4  2.091723E+05  1.550420E+03 -1.904913E+04  1.963780E+05  1.411162E+04  3.144502E+04
       103   5  2.161602E+05 -5.988269E+03 -3.343706E+04  1.576456E+05  3.163028E+04  3.626938E+04
       103   6  2.090541E+05 -6.157252E+04 -7.120560E+04  1.963710E+05  4.913675E+04  1.234737E+04
       103   7  7.541378E+05  1.327472E+05  9.226677E+04  2.036690E+05  3.744401E+04  3.144831E+04
       103   8  1.011161E+06  1.868879E+05  1.365070E+05  1.442899E+05  2.005388E+04  3.626564E+04
       103   9  1.260231E+06  1.990699E+05  1.816069E+05  1.623548E+05  2.644618E+03  1.235439E+04
       103  10 -3.355103E+05 -1.296656E+05 -1.303807E+05  1.890937E+05 -3.627497E-10 -8.464198E-13
       103  11 -5.782485E+05 -1.989068E+05 -2.034231E+05  1.709826E+05 -5.372724E-10 -2.344421E-11
       103  12 -8.411156E+05 -3.222924E+05 -3.241055E+05  2.303284E+05 -1.713836E-10 -3.765653E-11
       103  13  2.091718E+05  1.549305E+03 -1.905136E+04  1.963777E+05  2.695126E-11  2.750165E-11
       103  14  2.161587E+05 -5.989950E+03 -3.344141E+04  1.576446E+05 -5.053765E-10  1.891432E-12
       103  15  2.090515E+05 -6.157334E+04 -7.121042E+04  1.963705E+05  4.047822E-10  4.537920E-11
       103  16  7.541360E+05  1.327458E+05  9.226228E+04  2.036680E+05  4.841542E-10  3.655627E-11
       103  17  1.011160E+06  1.868864E+05  1.365038E+05  1.442893E+05  1.104900E-09 -4.870159E-11
       103  18  1.260231E+06  1.990697E+05  1.816066E+05  1.623547E+05  8.365064E-10 -9.034863E-12
       103  19 -3.355100E+05 -1.296645E+05 -1.303787E+05  1.890935E+05  9.200678E+03 -3.144227E+04
       103  20 -5.782461E+05 -1.989049E+05 -2.034171E+05  1.709838E+05 -4.319207E+04 -3.627362E+04
       103  21 -8.411057E+05 -3.222898E+05 -3.240880E+05  2.303293E+05 -9.555054E+04 -1.234544E+04
       103  22  2.091723E+05  1.550420E+03 -1.904913E+04  1.963780E+05 -1.411162E+04 -3.144502E+04
       103  23  2.161602E+05 -5.988269E+03 -3.343706E+04  1.576456E+05 -3.163028E+04 -3.626938E+04
       103  24  2.090541E+05 -6.157252E+04 -7.120560E+04  1.963710E+05 -4.913675E+04 -1.234737E+04
       103  25  7.541378E+05  1.327472E+05  9.226677E+04  2.036690E+05 -3.744401E+04 -3.144831E+04
       103  26  1.011161E+06  1.868879E+05  1.365070E+05  1.442899E+05 -2.005388E+04 -3.626564E+04
       103  27  1.260231E+06  1.990699E+05  1.816069E+05  1.623548E+05 -2.644618E+03 -1.235439E+04
       104   1 -2.743499E+04  1.238138E+05 -3.145476E+04  3.210693E+04  8.350760E+02 -2.476720E+04
       104   2  6.084251E+02  1.303896E+05 -1.179595E+04  1.821153E+04  3.091841E+03 -1.599620E+04
       104   3  1.043508E+04  1.312675E+05 -2.402769E+03  5.083037E+03  4.218426E+03 -7.223736E+03
       104   4 -4.087125E+04  6.942055E+04 -4.385308E+04  4.804854E+03  8.289758E+02 -3.082227E+04
       104   5 -1.303524E+04  7.248049E+04 -2.191523E+04  4.399574E+03  3.087951E+03 -1.961725E+04
       104   6 -3.840122E+03  6.941919E+04 -1.193363E+04  4.761647E+03  4.217080E+03 -8.410691E+03
       104   7 -5.430490E+04  1.503171E+04 -5.625105E+04 -2.249481E+04  8.234077E+02 -3.687681E+04
       104   8 -2.667836E+04  1.457510E+04 -3.203447E+04 -9.411059E+03  3.084222E+03 -2.323796E+04
       104   9 -1.811551E+04  7.574738E+03 -2.146458E+04  4.440288E+03  4.215734E+03 -9.597532E+03
       104  10 -2.743516E+04  1.238132E+05 -3.145591E+04  3.210695E+04  1.577816E-10  2.290722E-08
       104  11  6.083461E+02  1.303893E+05 -1.179645E+04  1.821157E+04  1.343877E-09 -4.197967E-08
       104  12  1.043504E+04  1.312674E+05 -2.402901E+03  5.083062E+03  2.106592E-09 -1.025599E-07
       104  13 -4.087151E+04  6.941953E+04 -4.385487E+04  4.804875E+03  3.420670E-10 -2.283806E-11
       104  14 -1.303535E+04  7.248008E+04 -2.191597E+04  4.399623E+03  1.128836E-09 -1.278520E-11
       104  15 -3.840160E+03  6.941911E+04 -1.193380E+04  4.761675E+03  2.454379E-09  4.675820E-11
       104  16 -5.430527E+04  1.503025E+04 -5.625361E+04 -2.249478E+04  3.730956E-10 -2.296990E-08
       104  17 -2.667851E+04  1.457452E+04 -3.203550E+04 -9.411002E+03  2.026647E-09  4.194063E-08
       104  18 -1.811555E+04  7.574634E+03 -2.146479E+04  4.440321E+03  2.061193E-09  1.026604E-07
       104  19 -2.743499E+04  1.238138E+05 -3.145476E+04  3.210693E+04 -8.350760E+02  2.476720E+04
       104  20  6.084251E+02  1.303896E+05 -1.179595E+04  1.821153E+04 -3.091841E+03  1.599620E+04
       104  21  1.043508E+04  1.312675E+05 -2.402769E+03  5.083037E+03 -4.218426E+03  7.223736E+03
       104  22 -4.087125E+04  6.942055E+04 -4.385308E+04  4.804854E+03 -8.289758E+02  3.082227E+04
       104  23 -1.303524E+04  7.248049E+04 -2.191523E+04  4.399574E+03 -3.087951E+03  1.961725E+04
       104  24 -3.840122E+03  6.941919E+04 -1.193363E+04  4.761647E+03 -4.217080E+03  8.410691E+03
       104  25 -5.430490E+04  1.503171E+04 -5.625105E+04 -2.249481E+04 -8.234077E+02  3.687681E+04
       104  26 -2.667836E+04  1.457510E+04 -3.203447E+04 -9.411059E+03 -3.084222E+03  2.323796E+04
       104  27 -1.811551E+04  7.574738E+03 -2.146458E+04  4.440288E+03 -4.215734E+03  9.597532E+03
       105   1  1.176913E+04  1.347211E+05  7.159161E+02  6.408331E+03  4.504995E+03 -5.693196E+03
       105   2  1.471420E+04  1.387283E+05  5.112955E+03  5.137524E+03  4.878786E+03 -3.940499E+03
       105   3  1.619041E+04  1.421385E+05  8.001309E+03  4.525852E+03  4.911275E+03 -2.187388E+03
       105   4 -2.993609E+03  7.061836E+04 -8.979760E+03  4.741088E+03  4.503693E+03 -6.861582E+03
       105   5 -8.525829E+02  7.098053E+04 -4.971833E+03  4.409983E+03  4.878342E+03 -4.373570E+03
       105   6 -3.081534E+02  7.061801E+04 -2.983266E+03  4.738022E+03  4.911675E+03 -1.885151E+03
       105   7 -1.775653E+04  6.519696E+03 -1.867551E+04  3.074022E+03  4.502396E+03 -8.029852E+03
       105   8 -1.641958E+04  3.237333E+03 -1.505671E+04  3.682523E+03  4.877899E+03 -4.806595E+03
       105   9 -1.680696E+04 -8.974073E+02 -1.396795E+04  4.950165E+03  4.912076E+03 -1.582948E+03
       105  10  1.176910E+04  1.347211E+05  7.158171E+02  6.408352E+03  1.363799E-09  1.694440E-07
       105  11  1.471417E+04  1.387283E+05  5.112881E+03  5.137540E+03 -1.788800E-09  4.309791E-08
       105  12  1.619038E+04  1.421385E+05  8.001254E+03  4.525860E+03 -1.943116E-09 -8.662426E-08
       105  13 -2.993643E+03  7.061830E+04 -8.979887E+03  4.741112E+03  7.247627E-10  3.708096E-12
       105  14 -8.526136E+02  7.098050E+04 -4.971914E+03  4.410000E+03 -1.451356E-09 -1.488731E-10
       105  15 -3.081803E+02  7.061800E+04 -2.983318E+03  4.738029E+03 -1.687252E-09 -3.354149E-11
       105  16 -1.775657E+04  6.519621E+03 -1.867567E+04  3.074051E+03  1.055664E-09 -1.693457E-07
       105  17 -1.641961E+04  3.237302E+03 -1.505680E+04  3.682541E+03 -7.087562E-10 -4.315914E-08
       105  18 -1.680699E+04 -8.974165E+02 -1.396800E+04  4.950171E+03 -1.116291E-09  8.658690E-08
       105  19  1.176913E+04  1.347211E+05  7.159161E+02  6.408331E+03 -4.504995E+03  5.693196E+03
       105  20  1.471420E+04  1.387283E+05  5.112955E+03  5.137524E+03 -4.878786E+03  3.940499E+03
       105  21  1.619041E+04  1.421385E+05  8.001309E+03  4.525852E+03 -4.911275E+03  2.187388E+03
       105  22 -2.993609E+03  7.061836E+04 -8.979760E+03  4.741088E+03 -4.503693E+03  6.861582E+03
       105  23 -8.525829E+02  7.098053E+04 -4.971833E+03  4.409983E+03 -4.878342E+03  4.373570E+03
       105  24 -3.081534E+02  7.061801E+04 -2.983266E+03  4.738022E+03 -4.911675E+03  1.885151E+03
       105  25 -1.775653E+04  6.519696E+03 -1.867551E+04  3.074022E+03 -4.502396E+03  8.029852E+03
       105  26 -1.641958E+04  3.237333E+03 -1.505671E+04  3.682523E+03 -4.877899E+03  4.806595E+03
       105  27 -1.680696E+04 -8.974073E+02 -1.396795E+04  4.950165E+03 -4.912076E+03  1.582948E+03
       106   1  1.680753E+04  1.446402E+05  9.221149E+03  4.703360E+03  4.885386E+03 -1.766394E+03
       106   2  1.767581E+04  1.482126E+05  1.208818E+04  3.833996E+03  3.865177E+03 -4.577231E+03
       106   3  1.827977E+04  1.520839E+05  1.671937E+04  3.490514E+03  1.115750E+03 -7.386156E+03
       106   4 -3.034233E+02  7.070166E+04 -2.404948E+03  4.708581E+03  4.885816E+03 -1.437831E+03
       106   5 -5.682857E+02  7.087557E+04 -1.813863E+03  4.446470E+03  3.869793E+03 -5.219364E+02
       106   6 -1.744399E+03  7.070150E+04 -2.046268E+03  4.710223E+03  1.124447E+03  3.958405E+02
       106   7 -1.741465E+04 -3.231445E+03 -1.403118E+04  4.713800E+03  4.886246E+03 -1.109305E+03
       106   8 -1.881270E+04 -6.455635E+03 -1.571607E+04  5.058865E+03  3.874417E+03  3.532867E+03
       106   9 -2.176899E+04 -1.067469E+04 -2.081211E+04  5.929770E+03  1.133176E+03  8.176825E+03
       106  10  1.680751E+04  1.446402E+05  9.221098E+03  4.703367E+03 -1.209737E-09  6.123819E-10
       106  11  1.767579E+04  1.482126E+05  1.208811E+04  3.834010E+03 -9.012271E-10  4.231615E-10
       106  12  1.827975E+04  1.520839E+05  1.671926E+04  3.490521E+03 -5.935142E-10  1.602817E-10
       106  13 -3.034495E+02  7.070165E+04 -2.404996E+03  4.708587E+03 -1.388222E-09  2.094568E-11
       106  14 -5.683018E+02  7.087556E+04 -1.813892E+03  4.446472E+03 -5.400255E-10  4.027330E-11
       106  15 -1.744400E+03  7.070150E+04 -2.046271E+03  4.710223E+03 -1.341095E-10  2.471842E-11
       106  16 -1.741468E+04 -3.231453E+03 -1.403122E+04  4.713804E+03 -1.752730E-09 -6.556284E-10
       106  17 -1.881272E+04 -6.455652E+03 -1.571612E+04  5.058854E+03 -4.150679E-10 -3.435791E-10
       106  18 -2.176901E+04 -1.067477E+04 -2.081224E+04  5.929762E+03 -3.446650E-10 -2.082974E-10
       106  19  1.680753E+04  1.446402E+05  9.221149E+03  4.703360E+03 -4.885386E+03  1.766394E+03
       106  20  1.767581E+04  1.482126E+05  1.208818E+04  3.833996E+03 -3.865177E+03  4.577231E+03
       106  21  1.827977E+04  1.520839E+05  1.671937E+04  3.490514E+03 -1.115750E+03  7.386156E+03
       106  22 -3.034233E+02  7.070166E+04 -2.404948E+03  4.708581E+03 -4.885816E+03  1.437831E+03
       106  23 -5.682857E+02  7.087557E+04 -1.813863E+03  4.446470E+03 -3.869793E+03  5.219364E+02
       106  24 -1.744399E+03  7.070150E+04 -2.046268E+03  4.710223E+03 -1.124447E+03 -3.958405E+02
       106  25 -1.741465E+04 -3.231445E+03 -1.403118E+04  4.713800E+03 -4.886246E+03  1.109305E+03
       106  26 -1.881270E+04 -6.455635E+03 -1.571607E+04  5.058865E+03 -3.874417E+03 -3.532867E+03
       106  27 -2.176899E+04 -1.067469E+04 -2.081211E+04  5.929770E+03 -1.133176E+03 -8.176825E+03
       107   1  9.620348E+05  7.114382E+05  2.546372E+05  6.104041E+05  1.036477E+05  7.436001E+04
       107   2  9.045380E+05  5.448706E+05  1.444336E+05  6.582475E+05  7.016350E+04  4.308867E+04
       107   3  9.257464E+05  5.364127E+05  1.100189E+05  6.487082E+05  3.312287E+04  1.657293E+04
       107   4  7.847087E+05  5.220121E+05  1.820517E+05  4.937327E+05  1.009450E+05  7.232765E+04
       107   5  7.187684E+05  3.952900E+05  7.942698E+04  5.582842E+05  6.947290E+04  4.256967E+04
       107   6  7.311267E+05  4.262729E+05  5.086971E+04  5.654434E+05  3.444438E+04  1.756362E+04
       107   7  6.074177E+05  3.326330E+05  1.094609E+05  3.771064E+05  9.824341E+04  7.029658E+04
       107   8  5.330353E+05  2.457350E+05  1.441543E+04  4.583564E+05  6.878258E+04  4.205091E+04
       107   9  5.365475E+05  3.161442E+05 -8.283545E+03  4.822047E+05  3.576531E+04  1.855400E+04
       107  10  9.620218E+05  7.114294E+05  2.546067E+05  6.103979E+05  3.189590E-10  1.243610E-11
       107  11  9.045322E+05  5.448673E+05  1.444209E+05  6.582451E+05  4.865239E-10 -2.438617E-10
       107  12  9.257451E+05  5.364121E+05  1.100163E+05  6.487077E+05 -4.921826E-10  1.039032E-10
       107  13  7.846964E+05  5.220037E+05  1.820227E+05  4.937268E+05 -4.455867E-11 -1.839507E-10
       107  14  7.187627E+05  3.952868E+05  7.941453E+04  5.582818E+05 -4.805608E-11 -3.214701E-10
       107  15  7.311253E+05  4.262722E+05  5.086691E+04  5.654429E+05 -8.439405E-10  1.319833E-10
       107  16  6.074060E+05  3.326252E+05  1.094335E+05  3.771009E+05 -3.101853E-10 -3.438376E-10
       107  17  5.330298E+05  2.457318E+05  1.440324E+04  4.583541E+05  5.473889E-11 -4.098832E-10
       107  18  5.365460E+05  3.161435E+05 -8.286592E+03  4.822042E+05  1.975268E-10  2.124352E-10
       107  19  9.620348E+05  7.114382E+05  2.546372E+05  6.104041E+05 -1.036477E+05 -7.436001E+04
       107  20  9.045380E+05  5.448706E+05  1.444336E+05  6.582475E+05 -7.016350E+04 -4.308867E+04
       107  21  9.257464E+05  5.364127E+05  1.100189E+05  6.487082E+05 -3.312287E+04 -1.657293E+04
       107  22  7.847087E+05  5.220121E+05  1.820517E+05  4.937327E+05 -1.009450E+05 -7.232765E+04
       107  23  7.187684E+05  3.952900E+05  7.942698E+04  5.582842E+05 -6.947290E+04 -4.256967E+04
       107  24  7.311267E+05  4.262729E+05  5.086971E+04  5.654434E+05 -3.444438E+04 -1.756362E+04
       107  25  6.074177E+05  3.326330E+05  1.094609E+05  3.771064E+05 -9.824341E+04 -7.029658E+04
       107  26  5.330353E+05  2.457350E+05  1.441543E+04  4.583564E+05 -6.878258E+04 -4.205091E+04
       107  27  5.365475E+05  3.161442E+05 -8.283545E+03  4.822047E+05 -3.576531E+04 -1.855400E+04
       108   1  8.783872E+05  5.474378E+05  9.160231E+04  6.241175E+05  2.709798E+04  1.381734E+04
       108   2  8.650674E+05  5.084984E+05  6.609370E+04  6.197143E+05  1.754469E+04  7.099934E+03
       108   3  8.444171E+05  5.062405E+05  5.374055E+04  6.138846E+05  7.680113E+03  7.982487E+02
       108   4  7.334737E+05  4.375427E+05  4.206141E+04  5.492947E+05  2.712381E+04  1.383629E+04
       108   5  7.340589E+05  4.136931E+05  2.225262E+04  5.541533E+05  1.774805E+04  7.252146E+03
       108   6  7.272778E+05  4.264898E+05  1.544848E+04  5.575845E+05  8.060741E+03  1.083452E+03
       108   7  5.885815E+05  3.276601E+05 -7.482695E+03  4.744917E+05  2.714962E+04  1.385523E+04
       108   8  6.030683E+05  3.188974E+05 -2.159082E+04  4.886079E+05  1.795135E+04  7.404313E+03
       108   9  6.101534E+05  3.467459E+05 -2.284521E+04  5.012963E+05  8.441269E+03  1.368585E+03
       108  10  8.783863E+05  5.474374E+05  9.160057E+04  6.241172E+05 -4.590540E-11  4.322278E-10
       108  11  8.650670E+05  5.084982E+05  6.609303E+04  6.197142E+05 -2.717289E-09 -2.103361E-09
       108  12  8.444170E+05  5.062405E+05  5.374044E+04  6.138846E+05 -1.532347E-09 -1.685879E-09
       108  13  7.334729E+05  4.375423E+05  4.205968E+04  5.492944E+05 -1.118196E-09 -3.809981E-10
       108  14  7.340585E+05  4.136930E+05  2.225193E+04  5.541532E+05 -1.500668E-09 -1.956320E-09
       108  15  7.272777E+05  4.264897E+05  1.544836E+04  5.575845E+05 -9.063408E-10 -8.448138E-10
       108  16  5.885807E+05  3.276597E+05 -7.484439E+03  4.744914E+05 -2.207597E-09 -1.393219E-09
       108  17  6.030680E+05  3.188972E+05 -2.159153E+04  4.886078E+05 -2.484216E-09 -1.681099E-09
       108  18  6.101533E+05  3.467458E+05 -2.284535E+04  5.012963E+05 -1.007120E-09 -9.642756E-11
       108  19  8.783872E+05  5.474378E+05  9.160231E+04  6.241175E+05 -2.709798E+04 -1.381734E+04
       108  20  8.650674E+05  5.084984E+05  6.609370E+04  6.197143E+05 -1.754469E+04 -7.099934E+03
       108  21  8.444171E+05  5.062405E+05  5.374055E+04  6.138846E+05 -7.680113E+03 -7.982487E+02
       108  22  7.334737E+05  4.375427E+05  4.206141E+04  5.492947E+05 -2.712381E+04 -1.383629E+04
       108  23  7.340589E+05  4.136931E+05  2.225262E+04  5.541533E+05 -1.774805E+04 -7.252146E+03
       108  24  7.272778E+05  4.264898E+05  1.544848E+04  5.575845E+05 -8.060741E+03 -1.083452E+03
       108  25  5.885815E+05  3.276601E+05 -7.482695E+03  4.744917E+05 -2.714962E+04 -1.385523E+04
       108  26  6.030683E+05  3.188974E+05 -2.159082E+04  4.886079E+05 -1.795135E+04 -7.404313E+03
       108  27  6.101534E+05  3.467459E+05 -2.284521E+04  5.012963E+05 -8.441269E+03 -1.368585E+03
       109   1  8.141658E+05  4.901982E+05  4.268125E+04  5.992894E+05  5.363358E+03 -2.118844E+02
       109   2  8.065119E+05  4.662256E+05  3.566562E+04  5.889396E+05  4.326665E+00 -3.226707E+03
       109   3  7.833258E+05  4.660203E+05  3.410184E+04  5.824322E+05 -5.366880E+03 -6.225376E+03
       109   4  7.275992E+05  4.274332E+05  1.373715E+04  5.559058E+05  5.629612E+03 -1.238072E+01
       109   5  7.354844E+05  4.157603E+05  1.207223E+04  5.538268E+05  2.781149E+02 -3.021502E+03
       109   6  7.278358E+05  4.278537E+05  1.585331E+04  5.555900E+05 -5.085734E+03 -6.014617E+03
       109   7  6.410405E+05  3.646723E+05 -1.520798E+04  5.125289E+05  5.895815E+03  1.870841E+02
       109   8  6.644621E+05  3.652974E+05 -1.152190E+04  5.187184E+05  5.518611E+02 -2.816329E+03
       109   9  6.723488E+05  3.896885E+05 -2.395716E+03  5.287504E+05 -4.804620E+03 -5.803881E+03
       109  10  8.141658E+05  4.901982E+05  4.268119E+04  5.992894E+05  9.438311E-10 -2.324768E-11
       109  11  8.065119E+05  4.662256E+05  3.566560E+04  5.889396E+05 -8.442678E-11  3.855013E-11
       109  12  7.833257E+05  4.660202E+05  3.410172E+04  5.824321E+05 -2.197795E-10 -1.593490E-12
       109  13  7.275992E+05  4.274332E+05  1.373709E+04  5.559058E+05  5.167068E-10 -7.167947E-11
       109  14  7.354844E+05  4.157602E+05  1.207221E+04  5.538268E+05 -8.569610E-10  1.098811E-10
       109  15  7.278357E+05  4.278537E+05  1.585319E+04  5.555900E+05 -7.840540E-12  1.667215E-10
       109  16  6.410405E+05  3.646723E+05 -1.520805E+04  5.125289E+05 -1.209703E-10 -2.424077E-11
       109  17  6.644621E+05  3.652974E+05 -1.152191E+04  5.187184E+05  2.188866E-10  1.754657E-10
       109  18  6.723487E+05  3.896884E+05 -2.395822E+03  5.287504E+05 -2.523565E-10  1.157877E-10
       109  19  8.141658E+05  4.901982E+05  4.268125E+04  5.992894E+05 -5.363358E+03  2.118844E+02
       109  20  8.065119E+05  4.662256E+05  3.566562E+04  5.889396E+05 -4.326665E+00  3.226707E+03
       109  21  7.833258E+05  4.660203E+05  3.410184E+04  5.824322E+05  5.366880E+03  6.225376E+03
       109  22  7.275992E+05  4.274332E+05  1.373715E+04  5.559058E+05 -5.629612E+03  1.238072E+01
       109  23  7.354844E+05  4.157603E+05  1.207223E+04  5.538268E+05 -2.781149E+02  3.021502E+03
       109  24  7.278358E+05  4.278537E+05  1.585331E+04  5.555900E+05  5.085734E+03  6.014617E+03
       109  25  6.410405E+05  3.646723E+05 -1.520798E+04  5.125289E+05 -5.895815E+03 -1.870841E+02
       109  26  6.644621E+05  3.652974E+05 -1.152190E+04  5.187184E+05 -5.518611E+02  2.816329E+03
       109  27  6.723488E+05  3.896885E+05 -2.395716E+03  5.287504E+05  4.804620E+03  5.803881E+03
       110   1  7.527331E+05  4.486240E+05  2.777094E+04  5.723993E+05 -8.163343E+03 -7.674289E+03
       110   2  7.461291E+05  4.202340E+05  3.226623E+04  5.598149E+05 -2.028968E+04 -1.573003E+04
       110   3  7.369805E+05  4.325114E+05  5.345942E+04  5.431976E+05 -3.230716E+04 -2.393006E+04
       110   4  7.276934E+05  4.262167E+05  1.861810E+04  5.578882E+05 -7.853461E+03 -7.441887E+03
       110   5  7.330793E+05  4.132117E+05  2.836469E+04  5.543986E+05 -2.004045E+04 -1.554323E+04
       110   6  7.359331E+05  4.408868E+05  5.486167E+04  5.468756E+05 -3.211889E+04 -2.378934E+04
       110   7  7.026544E+05  4.038101E+05  9.465205E+03  5.433778E+05 -7.543597E+03 -7.209503E+03
       110   8  7.200296E+05  4.061895E+05  2.446313E+04  5.489824E+05 -1.979123E+04 -1.535644E+04
       110   9  7.348859E+05  4.492623E+05  5.626394E+04  5.505535E+05 -3.193063E+04 -2.364862E+04
       110  10  7.527330E+05  4.486239E+05  2.777071E+04  5.723993E+05  5.062457E-11  7.146420E-11
       110  11  7.461286E+05  4.202336E+05  3.226500E+04  5.598146E+05  3.091383E-10  1.060874E-10
       110  12  7.369792E+05  4.325105E+05  5.345639E+04  5.431970E+05  3.751426E-11  3.223445E-10
       110  13  7.276933E+05  4.262166E+05  1.861788E+04  5.578881E+05 -6.567755E-11  1.353280E-10
       110  14  7.330788E+05  4.132113E+05  2.836348E+04  5.543983E+05  4.616833E-10  1.612846E-10
       110  15  7.359319E+05  4.408859E+05  5.485868E+04  5.468749E+05 -4.697423E-10  2.769435E-10
       110  16  7.026544E+05  4.038100E+05  9.465000E+03  5.433778E+05 -3.121037E-10  1.353424E-10
       110  17  7.200291E+05  4.061892E+05  2.446195E+04  5.489822E+05 -1.030358E-10  1.167978E-10
       110  18  7.348846E+05  4.492615E+05  5.626098E+04  5.505529E+05 -3.943420E-11  6.449928E-11
       110  19  7.527331E+05  4.486240E+05  2.777094E+04  5.723993E+05  8.163343E+03  7.674289E+03
       110  20  7.461291E+05  4.202340E+05  3.226623E+04  5.598149E+05  2.028968E+04  1.573003E+04
       110  21  7.369805E+05  4.325114E+05  5.345942E+04  5.431976E+05  3.230716E+04  2.393006E+04
       110  22  7.276934E+05  4.262167E+05  1.861810E+04  5.578882E+05  7.853461E+03  7.441887E+03
       110  23  7.330793E+05  4.132117E+05  2.836469E+04  5.543986E+05  2.004045E+04  1.554323E+04
       110  24  7.359331E+05  4.408868E+05  5.486167E+04  5.468756E+05  3.211889E+04  2.378934E+04
       110  25  7.026544E+05  4.038101E+05  9.465205E+03  5.433778E+05  7.543597E+03  7.209503E+03
       110  26  7.200296E+05  4.061895E+05  2.446313E+04  5.489824E+05  1.979123E+04  1.535644E+04
       110  27  7.348859E+05  4.492623E+05  5.626394E+04  5.505535E+05  3.193063E+04  2.364862E+04
       111   1  6.803346E+05  4.251953E+05  5.620739E+04  5.589742E+05 -4.166621E+04 -2.997790E+04
       111   2  6.789467E+05  3.421262E+05  8.877592E+04  5.326055E+05 -8.677170E+04 -6.272477E+04
       111   3  7.893188E+05  4.576101E+05  2.182123E+05  4.279576E+05 -1.306815E+05 -9.706174E+04
       111   4  7.331243E+05  4.257415E+05  6.659755E+04  5.680748E+05 -4.104612E+04 -2.951064E+04
       111   5  7.125452E+05  3.893708E+05  1.044389E+05  5.599658E+05 -8.682560E+04 -6.276825E+04
       111   6  8.038571E+05  5.516836E+05  2.397255E+05  4.735808E+05 -1.314070E+05 -9.762232E+04
       111   7  7.859181E+05  4.262884E+05  7.698789E+04  5.771754E+05 -4.042595E+04 -2.904339E+04
       111   8  7.461453E+05  4.366187E+05  1.201018E+05  5.873284E+05 -8.687951E+04 -6.281174E+04
       111   9  8.183997E+05  6.457742E+05  2.612395E+05  5.192076E+05 -1.321325E+05 -9.818309E+04
       111  10  6.803325E+05  4.251939E+05  5.620245E+04  5.589732E+05 -1.142200E-10  3.568579E-10
       111  11  6.789376E+05  3.421199E+05  8.875441E+04  5.326011E+05  4.897216E-10  5.599464E-11
       111  12  7.892980E+05  4.575955E+05  2.181626E+05  4.279474E+05  3.605571E-10 -8.068467E-11
       111  13  7.331222E+05  4.257401E+05  6.659276E+04  5.680738E+05 -3.212783E-10  2.554771E-10
       111  14  7.125361E+05  3.893645E+05  1.044174E+05  5.599614E+05 -1.237494E-10 -1.137076E-11
       111  15  8.038360E+05  5.516688E+05  2.396752E+05  4.735705E+05 -3.182129E-10 -3.285017E-11
       111  16  7.859161E+05  4.262870E+05  7.698324E+04  5.771745E+05  3.670685E-10  9.854464E-11
       111  17  7.461361E+05  4.366125E+05  1.200802E+05  5.873240E+05 -4.562678E-10 -8.330956E-11
       111  18  8.183784E+05  6.457592E+05  2.611887E+05  5.191972E+05  1.727393E-10  3.315944E-11
       111  19  6.803346E+05  4.251953E+05  5.620739E+04  5.589742E+05  4.166621E+04  2.997790E+04
       111  20  6.789467E+05  3.421262E+05  8.877592E+04  5.326055E+05  8.677170E+04  6.272477E+04
       111  21  7.893188E+05  4.576101E+05  2.182123E+05  4.279576E+05  1.306815E+05  9.706174E+04
       111  22  7.331243E+05  4.257415E+05  6.659755E+04  5.680748E+05  4.104612E+04  2.951064E+04
       111  23  7.125452E+05  3.893708E+05  1.044389E+05  5.599658E+05  8.682560E+04  6.276825E+04
       111  24  8.038571E+05  5.516836E+05  2.397255E+05  4.735808E+05  1.314070E+05  9.762232E+04
       111  25  7.859181E+05  4.262884E+05  7.698789E+04  5.771754E+05  4.042595E+04  2.904339E+04
       111  26  7.461453E+05  4.366187E+05  1.201018E+05  5.873284E+05  8.687951E+04  6.281174E+04
       111  27  8.183997E+05  6.457742E+05  2.612395E+05  5.192076E+05  1.321325E+05  9.818309E+04
       112   1  1.467274E+06  1.757882E+05  2.017346E+05  5.122082E+04  8.642025E+04 -2.853405E+03
       112   2  1.403440E+06  5.190513E+04  1.204341E+05  1.207906E+04  5.382772E+04 -8.029551E+03
       112   3  1.374921E+06  5.186122E+04  9.130243E+04  1.206378E+04  2.124004E+04 -6.275920E+03
       112   4  1.147855E+06  9.624700E+04  1.228162E+05  2.404015E+04  8.256572E+04 -2.855458E+03
       112   5  1.130486E+06 -1.577040E+04  5.459896E+04  4.455488E+03  5.305159E+04 -8.030210E+03
       112   6  1.147914E+06 -4.453384E+03  3.643435E+04  2.399637E+04  2.353975E+04 -6.275896E+03
       112   7  8.285311E+05  1.670098E+04  4.389069E+04 -3.126544E+03  7.871316E+04 -2.857176E+03
       112   8  8.576009E+05 -8.345115E+04 -1.124149E+04 -3.164723E+03  5.227580E+04 -8.030850E+03
       112   9  9.209545E+05 -6.077122E+04 -1.843732E+04  3.592458E+04  2.583862E+04 -6.275783E+03
       112  10  1.467266E+06  1.757862E+05  2.017205E+05  5.122101E+04 -3.994216E-10  1.192372E-10
       112  11  1.403437E+06  5.190429E+04  1.204286E+05  1.207941E+04 -4.670566E-10  2.423819E-10
       112  12  1.374920E+06  5.186106E+04  9.130151E+04  1.206389E+04 -3.335187E-10 -1.823142E-10
       112  13  1.147848E+06  9.624517E+04  1.228034E+05  2.404034E+04 -1.013621E-10  1.936116E-10
       112  14  1.130483E+06 -1.577122E+04  5.459356E+04  4.455831E+03 -5.178391E-12  1.770878E-10
       112  15  1.147913E+06 -4.453575E+03  3.643324E+04  2.399648E+04  3.372558E-12 -1.524107E-10
       112  16  8.285244E+05  1.669931E+04  4.387905E+04 -3.126363E+03  2.777575E-10  1.225987E-10
       112  17  8.575980E+05 -8.345195E+04 -1.124674E+04 -3.164385E+03  9.336368E-10  2.524352E-10
       112  18  9.209538E+05 -6.077144E+04 -1.843865E+04  3.592471E+04  2.811421E-10 -1.283892E-10
       112  19  1.467274E+06  1.757882E+05  2.017346E+05  5.122082E+04 -8.642025E+04  2.853405E+03
       112  20  1.403440E+06  5.190513E+04  1.204341E+05  1.207906E+04 -5.382772E+04  8.029551E+03
       112  21  1.374921E+06  5.186122E+04  9.130243E+04  1.206378E+04 -2.124004E+04  6.275920E+03
       112  22  1.147855E+06  9.624700E+04  1.228162E+05  2.404015E+04 -8.256572E+04  2.855458E+03
       112  23  1.130486E+06 -1.577040E+04  5.459896E+04  4.455488E+03 -5.305159E+04  8.030210E+03
       112  24  1.147914E+06 -4.453384E+03  3.643435E+04  2.399637E+04 -2.353975E+04  6.275896E+03
       112  25  8.285311E+05  1.670098E+04  4.389069E+04 -3.126544E+03 -7.871316E+04  2.857176E+03
       112  26  8.576009E+05 -8.345115E+04 -1.124149E+04 -3.164723E+03 -5.227580E+04  8.030850E+03
       112  27  9.209545E+05 -6.077122E+04 -1.843732E+04  3.592458E+04 -2.583862E+04  6.275783E+03
       113   1  1.296855E+06  4.946880E+04  6.882118E+04  2.700084E+04  1.727634E+04 -4.237075E+03
       113   2  1.249029E+06  2.515194E+04  4.693188E+04  5.329432E+03  6.670952E+03 -3.102204E+03
       113   3  1.206898E+06  1.803984E+04  3.624103E+04  2.191571E+04 -3.933896E+03 -1.419776E+03
       113   4  1.141432E+06  1.090994E+04  3.123687E+04  2.381597E+04  1.765437E+04 -4.237243E+03
       113   5  1.138610E+06 -2.237785E+03  2.025597E+04  4.686820E+03  7.293244E+03 -3.102225E+03
       113   6  1.141440E+06  1.778749E+03  2.030599E+04  2.381555E+04 -3.068106E+03 -1.419689E+03
       113   7  9.860317E+05 -2.765065E+04 -6.349160E+03  2.063191E+04  1.803231E+04 -4.237414E+03
       113   8  1.028202E+06 -2.962840E+04 -6.420814E+03  4.044322E+03  7.915425E+03 -3.102248E+03
       113   9  1.075985E+06 -1.448264E+04  4.370641E+03  2.571519E+04 -2.202407E+03 -1.419597E+03
       113  10  1.296855E+06  4.946870E+04  6.882059E+04  2.700090E+04  1.421829E-11 -3.285397E-10
       113  11  1.249029E+06  2.515192E+04  4.693178E+04  5.329449E+03 -3.394405E-10 -3.657455E-11
       113  12  1.206898E+06  1.803983E+04  3.624099E+04  2.191571E+04 -4.642899E-10  1.432894E-10
       113  13  1.141432E+06  1.090984E+04  3.123626E+04  2.381603E+04  6.580890E-10 -3.055809E-10
       113  14  1.138610E+06 -2.237809E+03  2.025585E+04  4.686838E+03  1.718604E-09 -1.279630E-10
       113  15  1.141440E+06  1.778745E+03  2.030597E+04  2.381555E+04  1.959830E-10  1.866879E-10
       113  16  9.860314E+05 -2.765076E+04 -6.349804E+03  2.063197E+04 -5.093290E-10 -2.578783E-10
       113  17  1.028202E+06 -2.962842E+04 -6.420949E+03  4.044342E+03 -1.015153E-10 -2.688962E-10
       113  18  1.075985E+06 -1.448265E+04  4.370628E+03  2.571519E+04  5.303051E-10  1.294242E-10
       113  19  1.296855E+06  4.946880E+04  6.882118E+04  2.700084E+04 -1.727634E+04  4.237075E+03
       113  20  1.249029E+06  2.515194E+04  4.693188E+04  5.329432E+03 -6.670952E+03  3.102204E+03
       113  21  1.206898E+06  1.803984E+04  3.624103E+04  2.191571E+04  3.933896E+03  1.419776E+03
       113  22  1.141432E+06  1.090994E+04  3.123687E+04  2.381597E+04 -1.765437E+04  4.237243E+03
       113  23  1.138610E+06 -2.237785E+03  2.025597E+04  4.686820E+03 -7.293244E+03  3.102225E+03
       113  24  1.141440E+06  1.778749E+03  2.030599E+04  2.381555E+04  3.068106E+03  1.419689E+03
       113  25  9.860317E+05 -2.765065E+04 -6.349160E+03  2.063191E+04 -1.803231E+04  4.237414E+03
       113  26  1.028202E+06 -2.962840E+04 -6.420814E+03  4.044322E+03 -7.915425E+03  3.102248E+03
       113  27  1.075985E+06 -1.448264E+04  4.370641E+03  2.571519E+04  2.202407E+03  1.419597E+03
       114   1  1.137084E+06 -1.011593E+03  2.047995E+04  2.668817E+04 -7.645694E+03 -2.587990E+02
       114   2  1.087854E+06 -1.597541E+04  1.702683E+04  3.452311E+03 -2.238431E+04  1.410878E+03
       114   3  1.047480E+06 -3.167441E+03  3.009988E+04  1.832413E+04 -3.712202E+04  2.641511E+03
       114   4  1.142161E+06  2.699914E+02  2.182158E+04  2.378258E+04 -6.809901E+03 -2.586486E+02
       114   5  1.137710E+06 -3.607732E+03  2.906916E+04  4.728358E+03 -2.174377E+04  1.410881E+03
       114   6  1.142145E+06  2.031893E+04  5.297717E+04  2.378138E+04 -3.667778E+04  2.641190E+03
       114   7  1.147238E+06  1.551605E+03  2.316322E+04  2.087696E+04 -5.974100E+03 -2.585060E+02
       114   8  1.187568E+06  8.759775E+03  4.111132E+04  6.004507E+03 -2.110317E+04  1.410887E+03
       114   9  1.236819E+06  4.380476E+04  7.585383E+04  2.923946E+04 -3.623347E+04  2.640877E+03
       114  10  1.137083E+06 -1.011608E+03  2.047984E+04  2.668817E+04 -6.608403E-10  5.946436E-12
       114  11  1.087853E+06 -1.597555E+04  1.702589E+04  3.452336E+03 -3.383971E-11 -4.897091E-11
       114  12  1.047478E+06 -3.167818E+03  3.009728E+04  1.832421E+04 -4.972328E-10 -1.673658E-10
       114  13  1.142161E+06  2.699789E+02  2.182149E+04  2.378258E+04 -1.191637E-10  1.347186E-10
       114  14  1.137709E+06 -3.607860E+03  2.906827E+04  4.728382E+03  5.825492E-10 -1.892817E-10
       114  15  1.142144E+06  2.031856E+04  5.297463E+04  2.378146E+04  3.909988E-10 -1.340403E-10
       114  16  1.147238E+06  1.551596E+03  2.316315E+04  2.087696E+04  2.760525E-10  1.858783E-10
       114  17  1.187567E+06  8.759653E+03  4.111048E+04  6.004531E+03 -3.937368E-10 -2.372984E-10
       114  18  1.236817E+06  4.380440E+04  7.585135E+04  2.923954E+04 -4.750545E-10 -8.476856E-11
       114  19  1.137084E+06 -1.011593E+03  2.047995E+04  2.668817E+04  7.645694E+03  2.587990E+02
       114  20  1.087854E+06 -1.597541E+04  1.702683E+04  3.452311E+03  2.238431E+04 -1.410878E+03
       114  21  1.047480E+06 -3.167441E+03  3.009988E+04  1.832413E+04  3.712202E+04 -2.641511E+03
       114  22  1.142161E+06  2.699914E+02  2.182158E+04  2.378258E+04  6.809901E+03  2.586486E+02
       114  23  1.137710E+06 -3.607732E+03  2.906916E+04  4.728358E+03  2.174377E+04 -1.410881E+03
       114  24  1.142145E+06  2.031893E+04  5.297717E+04  2.378138E+04  3.667778E+04 -2.641190E+03
       114  25  1.147238E+06  1.551605E+03  2.316322E+04  2.087696E+04  5.974100E+03  2.585060E+02
       114  26  1.187568E+06  8.759775E+03  4.111132E+04  6.004507E+03  2.110317E+04 -1.410887E+03
       114  27  1.236819E+06  4.380476E+04  7.585383E+04  2.923946E+04  3.623347E+04 -2.640877E+03
       115   1  9.887363E+05 -4.965092E+04  2.371675E+04  4.588817E+04 -4.882834E+04  4.491561E+03
       115   2  9.113083E+05 -8.140010E+04  4.837698E+04 -9.573907E+03 -1.000212E+05  6.235892E+03
       115   3  8.973770E+05  1.139143E+05  1.631263E+05 -2.633377E+04 -1.512102E+05  2.286608E+03
       115   4  1.154391E+06 -8.545752E+03  6.378832E+04  2.390193E+04 -4.680939E+04  4.493245E+03
       115   5  1.122387E+06 -2.905180E+04  9.929657E+04  4.574457E+03 -1.005380E+05  6.233548E+03
       115   6  1.154289E+06  1.778980E+05  2.266279E+05  2.394760E+04 -1.542667E+05  2.275136E+03
       115   7  1.320071E+06  3.255922E+04  1.038582E+05  1.909804E+03 -4.478990E+04  4.494786E+03
       115   8  1.333507E+06  2.329400E+04  1.502131E+05  1.872764E+04 -1.010549E+05  6.231181E+03
       115   9  1.411266E+06  2.418863E+05  2.901261E+05  7.424977E+04 -1.573244E+05  2.263175E+03
       115  10  9.887338E+05 -4.965158E+04  2.371224E+04  4.588835E+04 -9.070787E-10 -1.751993E-10
       115  11  9.112975E+05 -8.140282E+04  4.835814E+04 -9.573405E+03  6.047463E-10  2.624120E-11
       115  12  8.973524E+05  1.139081E+05  1.630833E+05 -2.633349E+04  3.531333E-10  1.071233E-10
       115  13  1.154388E+06 -8.546361E+03  6.378417E+04  2.390210E+04 -1.060690E-09  1.207690E-12
       115  14  1.122376E+06 -2.905455E+04  9.927754E+04  4.574962E+03 -8.345003E-10  1.400923E-10
       115  15  1.154263E+06  1.778916E+05  2.265833E+05  2.394788E+04  4.196600E-10  9.333790E-11
       115  16  1.320069E+06  3.255866E+04  1.038544E+05  1.909966E+03  4.971424E-11  1.012302E-10
       115  17  1.333496E+06  2.329122E+04  1.501939E+05  1.872815E+04  5.081240E-10  1.162884E-10
       115  18  1.411239E+06  2.418797E+05  2.900797E+05  7.425005E+04  2.851446E-10  9.572160E-11
       115  19  9.887363E+05 -4.965092E+04  2.371675E+04  4.588817E+04  4.882834E+04 -4.491561E+03
       115  20  9.113083E+05 -8.140010E+04  4.837698E+04 -9.573907E+03  1.000212E+05 -6.235892E+03
       115  21  8.973770E+05  1.139143E+05  1.631263E+05 -2.633377E+04  1.512102E+05 -2.286608E+03
       115  22  1.154391E+06 -8.545752E+03  6.378832E+04  2.390193E+04  4.680939E+04 -4.493245E+03
       115  23  1.122387E+06 -2.905180E+04  9.929657E+04  4.574457E+03  1.005380E+05 -6.233548E+03
       115  24  1.154289E+06  1.778980E+05  2.266279E+05  2.394760E+04  1.542667E+05 -2.275136E+03
       115  25  1.320071E+06  3.255922E+04  1.038582E+05  1.909804E+03  4.478990E+04 -4.494786E+03
       115  26  1.333507E+06  2.329400E+04  1.502131E+05  1.872764E+04  1.010549E+05 -6.231181E+03
       115  27  1.411266E+06  2.418863E+05  2.901261E+05  7.424977E+04  1.573244E+05 -2.263175E+03
       116   1 -2.263778E+05 -4.585640E+05 -2.297176E+05  3.000389E+05 -5.077978E+03 -8.858657E+04
       116   2 -1.072146E+05 -2.184231E+05 -1.176496E+05  2.496025E+05 -1.255980E+04 -3.996380E+04
       116   3 -3.562389E+04  3.478920E+03 -4.916247E+04  2.466807E+05 -5.194388E+03  8.670493E+03
       116   4 -7.869609E+04  1.372357E+05 -8.666600E+04  2.500091E+05 -5.042895E+03 -6.135356E+04
       116   5 -1.962053E+04  1.440494E+05 -4.188888E+04  2.262131E+05 -1.255751E+04 -3.977188E+04
       116   6 -3.401771E+03  1.372852E+05 -2.188850E+04  2.499406E+05 -5.224700E+03 -1.819773E+04
       116   7  6.896973E+04  7.333675E+05  5.636454E+04  1.999309E+05 -5.012225E+03 -3.409448E+04
       116   8  6.796722E+04  5.066473E+05  3.386488E+04  2.028099E+05 -1.255523E+04 -3.957984E+04
       116   9  2.881966E+04  2.711100E+05  5.387249E+03  2.532012E+05 -5.255291E+03 -4.507164E+04
       116  10 -2.263800E+05 -4.585724E+05 -2.297324E+05  3.000386E+05 -9.154993E-10 -9.197860E-10
       116  11 -1.072152E+05 -2.184249E+05 -1.176529E+05  2.496021E+05 -9.197495E-10 -4.242212E-10
       116  12 -3.562394E+04  3.478832E+03 -4.916266E+04  2.466808E+05  6.415568E-11  5.362063E-10
       116  13 -7.869713E+04  1.372316E+05 -8.667312E+04  2.500089E+05 -3.567087E-11  6.219013E-11
       116  14 -1.962113E+04  1.440476E+05 -4.189215E+04  2.262127E+05  1.093151E-09  1.956746E-10
       116  15 -3.401889E+03  1.372848E+05 -2.188917E+04  2.499405E+05  4.515145E-10 -7.332743E-11
       116  16  6.896939E+04  7.333662E+05  5.636231E+04  1.999308E+05 -9.409388E-11  9.530738E-10
       116  17  6.796663E+04  5.066456E+05  3.386165E+04  2.028095E+05  3.815818E-10  3.160149E-10
       116  18  2.881909E+04  2.711079E+05  5.383381E+03  2.532010E+05  8.258438E-12 -6.070038E-10
       116  19 -2.263778E+05 -4.585640E+05 -2.297176E+05  3.000389E+05  5.077978E+03  8.858657E+04
       116  20 -1.072146E+05 -2.184231E+05 -1.176496E+05  2.496025E+05  1.255980E+04  3.996380E+04
       116  21 -3.562389E+04  3.478920E+03 -4.916247E+04  2.466807E+05  5.194388E+03 -8.670493E+03
       116  22 -7.869609E+04  1.372357E+05 -8.666600E+04  2.500091E+05  5.042895E+03  6.135356E+04
       116  23 -1.962053E+04  1.440494E+05 -4.188888E+04  2.262131E+05  1.255751E+04  3.977188E+04
       116  24 -3.401771E+03  1.372852E+05 -2.188850E+04  2.499406E+05  5.224700E+03  1.819773E+04
       116  25  6.896973E+04  7.333675E+05  5.636454E+04  1.999309E+05  5.012225E+03  3.409448E+04
       116  26  6.796722E+04  5.066473E+05  3.386488E+04  2.028099E+05  1.255523E+04  3.957984E+04
       116  27  2.881966E+04  2.711100E+05  5.387249E+03  2.532012E+05  5.255291E+03  4.507164E+04
       117   1 -7.390081E+02  1.554042E+05 -1.653825E+04  2.517635E+05  3.908152E+03  1.045041E+04
       117   2  5.720132E+04  3.866105E+05  3.440329E+04  2.269488E+05  1.757544E+04  1.155500E+04
       117   3  1.138620E+05  6.173373E+05  8.428020E+04  2.504822E+05  3.014140E+04  1.266298E+04
       117   4 -3.641021E+03  1.401108E+05 -1.573672E+04  2.501313E+05  3.878607E+03 -1.547531E+04
       117   5 -1.325959E+02  1.405304E+05 -6.251895E+03  2.259538E+05  1.755028E+04 -1.236525E+04
       117   6  1.751044E+03  1.400721E+05  7.775574E+02  2.501258E+05  3.012032E+04 -9.252151E+03
       117   7 -6.542662E+03  1.248192E+05 -1.493263E+04  2.484990E+05  3.849198E+03 -4.140048E+04
       117   8 -5.746933E+04 -1.054886E+05 -4.690672E+04  2.249592E+05  1.752519E+04 -3.627634E+04
       117   9 -1.103721E+05 -3.369692E+05 -8.273143E+04  2.497697E+05  3.009925E+04 -3.115095E+04
       117  10 -7.390538E+02  1.554040E+05 -1.653848E+04  2.517635E+05 -2.667528E-10 -1.050913E-09
       117  11  5.720095E+04  3.866102E+05  3.440246E+04  2.269487E+05  7.005873E-10  1.203962E-10
       117  12  1.138610E+05  6.173369E+05  8.427819E+04  2.504818E+05  2.878111E-10  1.487128E-09
       117  13 -3.641102E+03  1.401106E+05 -1.573720E+04  2.501313E+05 -5.042732E-10  7.845056E-11
       117  14 -1.329679E+02  1.405302E+05 -6.252761E+03  2.259540E+05 -2.906257E-10  1.964226E-10
       117  15  1.750046E+03  1.400718E+05  7.756910E+02  2.501260E+05 -4.091617E-10 -4.964851E-11
       117  16 -6.543138E+03  1.248174E+05 -1.493588E+04  2.484992E+05 -7.030425E-11  1.145322E-09
       117  17 -5.747001E+04 -1.054901E+05 -4.690978E+04  2.249597E+05 -1.996122E-10 -1.098378E-10
       117  18 -1.103733E+05 -3.369705E+05 -8.273496E+04  2.497704E+05  3.691369E-10 -1.615784E-09
       117  19 -7.390081E+02  1.554042E+05 -1.653825E+04  2.517635E+05 -3.908152E+03 -1.045041E+04
       117  20  5.720132E+04  3.866105E+05  3.440329E+04  2.269488E+05 -1.757544E+04 -1.155500E+04
       117  21  1.138620E+05  6.173373E+05  8.428020E+04  2.504822E+05 -3.014140E+04 -1.266298E+04
       117  22 -3.641021E+03  1.401108E+05 -1.573672E+04  2.501313E+05 -3.878607E+03  1.547531E+04
       117  23 -1.325959E+02  1.405304E+05 -6.251895E+03  2.259538E+05 -1.755028E+04  1.236525E+04
       117  24  1.751044E+03  1.400721E+05  7.775574E+02  2.501258E+05 -3.012032E+04  9.252151E+03
       117  25 -6.542662E+03  1.248192E+05 -1.493263E+04  2.484990E+05 -3.849198E+03  4.140048E+04
       117  26 -5.746933E+04 -1.054886E+05 -4.690672E+04  2.249592E+05 -1.752519E+04  3.627634E+04
       117  27 -1.103721E+05 -3.369692E+05 -8.273143E+04  2.497697E+05 -3.009925E+04  3.115095E+04
       118   1  1.491099E+05  7.682620E+05  1.151325E+05  2.488775E+05  3.848671E+04  1.426566E+04
       118   2  2.113415E+05  9.930840E+05  1.804743E+05  2.347867E+05  3.845305E+04 -3.983206E+04
       118   3  2.965117E+05  1.230739E+06  2.867373E+05  2.673901E+05  1.239414E+04 -9.394491E+04
       118   4  1.577103E+03  1.412493E+05  4.129236E+03  2.497601E+05  3.846636E+04 -9.511363E+03
       118   5  7.061683E+03  1.389047E+05  1.275224E+04  2.264031E+05  3.847775E+04 -1.609047E+04
       118   6  2.726214E+04  1.411190E+05  2.933500E+04  2.497403E+05  1.244908E+04 -2.266371E+04
       118   7 -1.459770E+05 -4.853783E+05 -1.068865E+05  2.506415E+05  3.844593E+04 -3.326509E+04
       118   8 -1.972616E+05 -7.145750E+05 -1.550030E+05  2.180310E+05  3.850184E+04  7.619204E+03
       118   9 -2.420686E+05 -9.473998E+05 -2.281303E+05  2.321213E+05  1.250004E+04  4.849329E+04
       118  10  1.491082E+05  7.682613E+05  1.151294E+05  2.488771E+05 -2.467627E-10 -1.389899E-09
       118  11  2.113394E+05  9.930819E+05  1.804686E+05  2.347879E+05 -1.054000E-09 -3.390891E-10
       118  12  2.965092E+05  1.230730E+06  2.867205E+05  2.673910E+05 -3.363075E-10  8.525187E-10
       118  13  1.575489E+03  1.412488E+05  4.126285E+03  2.497604E+05  5.604059E-10  8.062237E-11
       118  14  7.060023E+03  1.389040E+05  1.274897E+04  2.264036E+05  3.619915E-10  1.442670E-10
       118  15  2.726184E+04  1.411184E+05  2.933374E+04  2.497405E+05 -8.523410E-10 -1.593160E-11
       118  16 -1.459789E+05 -4.853799E+05 -1.068914E+05  2.506426E+05  2.952629E-10  1.442860E-09
       118  17 -1.972632E+05 -7.145755E+05 -1.550059E+05  2.180308E+05  3.156353E-10  2.628974E-10
       118  18 -2.420694E+05 -9.474024E+05 -2.281350E+05  2.321208E+05 -2.209892E-10 -8.815851E-10
       118  19  1.491099E+05  7.682620E+05  1.151325E+05  2.488775E+05 -3.848671E+04 -1.426566E+04
       118  20  2.113415E+05  9.930840E+05  1.804743E+05  2.347867E+05 -3.845305E+04  3.983206E+04
       118  21  2.965117E+05  1.230739E+06  2.867373E+05  2.673901E+05 -1.239414E+04  9.394491E+04
       118  22  1.577103E+03  1.412493E+05  4.129236E+03  2.497601E+05 -3.846636E+04  9.511363E+03
       118  23  7.061683E+03  1.389047E+05  1.275224E+04  2.264031E+05 -3.847775E+04  1.609047E+04
       118  24  2.726214E+04  1.411190E+05  2.933500E+04  2.497403E+05 -1.244908E+04  2.266371E+04
       118  25 -1.459770E+05 -4.853783E+05 -1.068865E+05  2.506415E+05 -3.844593E+04  3.326509E+04
       118  26 -1.972616E+05 -7.145750E+05 -1.550030E+05  2.180310E+05 -3.850184E+04 -7.619204E+03
       118  27 -2.420686E+05 -9.473998E+05 -2.281303E+05  2.321213E+05 -1.250004E+04 -4.849329E+04
       119   1  6.332207E+05  4.454093E+05  9.441650E+04  4.389276E+05  4.766510E+04  3.311060E+04
       119   2  6.360261E+05  3.999075E+05  5.653461E+04  4.534066E+05  3.322424E+04  1.565720E+04
       119   3  6.572179E+05  3.761927E+05  4.043771E+04  4.582122E+05  1.707580E+04  4.833904E+02
       119   4  5.726647E+05  3.391202E+05  6.368903E+04  3.795907E+05  3.681108E+04  2.497551E+04
       119   5  5.541936E+05  3.112978E+05  3.176509E+04  3.974904E+05  2.696018E+04  1.096310E+04
       119   6  5.531156E+05  3.042695E+05  1.764831E+04  4.057160E+05  1.540227E+04 -7.706035E+02
       119   7  5.121140E+05  2.328474E+05  3.296126E+04  3.202626E+05  2.595819E+04  1.684335E+04
       119   8  4.723680E+05  2.226978E+05  6.994640E+03  3.415836E+05  2.069709E+04  6.270312E+03
       119   9  4.490242E+05  2.323514E+05 -5.142266E+03  3.532291E+05  1.372908E+04 -2.024346E+03
       119  10  6.332180E+05  4.454075E+05  9.441018E+04  4.389264E+05 -3.906364E-10 -4.709041E-10
       119  11  6.360249E+05  3.999070E+05  5.653208E+04  4.534062E+05 -7.478521E-10  2.266207E-12
       119  12  6.572176E+05  3.761926E+05  4.043717E+04  4.582122E+05 -3.835805E-10  9.284391E-10
       119  13  5.726630E+05  3.391192E+05  6.368531E+04  3.795900E+05 -3.334371E-11  2.498590E-10
       119  14  5.541928E+05  3.112975E+05  3.176350E+04  3.974902E+05 -4.735870E-10  2.042015E-10
       119  15  5.531153E+05  3.042694E+05  1.764786E+04  4.057161E+05  3.419671E-10 -3.760888E-10
       119  16  5.121132E+05  2.328469E+05  3.295946E+04  3.202622E+05  3.481885E-10  6.661643E-10
       119  17  4.723676E+05  2.226976E+05  6.993762E+03  3.415835E+05 -2.638547E-10  2.086978E-10
       119  18  4.490240E+05  2.323513E+05 -5.142628E+03  3.532291E+05  6.994523E-10 -1.723595E-09
       119  19  6.332207E+05  4.454093E+05  9.441650E+04  4.389276E+05 -4.766510E+04 -3.311060E+04
       119  20  6.360261E+05  3.999075E+05  5.653461E+04  4.534066E+05 -3.322424E+04 -1.565720E+04
       119  21  6.572179E+05  3.761927E+05  4.043771E+04  4.582122E+05 -1.707580E+04 -4.833904E+02
       119  22  5.726647E+05  3.391202E+05  6.368903E+04  3.795907E+05 -3.681108E+04 -2.497551E+04
       119  23  5.541936E+05  3.112978E+05  3.176509E+04  3.974904E+05 -2.696018E+04 -1.096310E+04
       119  24  5.531156E+05  3.042695E+05  1.764831E+04  4.057160E+05 -1.540227E+04  7.706035E+02
       119  25  5.121140E+05  2.328474E+05  3.296126E+04  3.202626E+05 -2.595819E+04 -1.684335E+04
       119  26  4.723680E+05  2.226978E+05  6.994640E+03  3.415836E+05 -2.069709E+04 -6.270312E+03
       119  27  4.490242E+05  2.323514E+05 -5.142266E+03  3.532291E+05 -1.372908E+04  2.024346E+03
       120   1  6.551482E+05  3.789773E+05  3.637623E+04  4.594392E+05  1.557265E+04 -1.276271E+03
       120   2  6.575468E+05  3.785580E+05  3.095414E+04  4.621241E+05  1.230844E+04 -4.859319E+03
       120   3  6.623532E+05  3.791181E+05  2.918163E+04  4.640578E+05  8.850135E+03 -8.183073E+03
       120   4  5.516520E+05  3.032143E+05  1.357829E+04  4.051699E+05  1.384310E+04 -2.572359E+03
       120   5  5.498527E+05  3.016188E+05  8.227139E+03  4.064174E+05  1.110167E+04 -5.763790E+03
       120   6  5.503482E+05  3.008898E+05  6.073047E+03  4.069137E+05  8.166112E+03 -8.695933E+03
       120   7  4.481707E+05  2.274604E+05 -9.219328E+03  3.509125E+05  1.211396E+04 -3.868116E+03
       120   8  4.421737E+05  2.246881E+05 -1.449989E+04  3.507227E+05  9.895189E+03 -6.668038E+03
       120   9  4.383584E+05  2.226694E+05 -1.703597E+04  3.497818E+05  7.482254E+03 -9.208671E+03
       120  10  6.551480E+05  3.789773E+05  3.637577E+04  4.594392E+05 -7.150846E-09 -3.110282E-09
       120  11  6.575467E+05  3.785580E+05  3.095381E+04  4.621242E+05  3.083689E-09  4.433649E-09
       120  12  6.623531E+05  3.791180E+05  2.918136E+04  4.640578E+05  5.523463E-09  6.245190E-09
       120  13  5.516517E+05  3.032143E+05  1.357792E+04  4.051699E+05  2.142291E-09  8.560486E-10
       120  14  5.498526E+05  3.016187E+05  8.226845E+03  4.064175E+05  7.495059E-09  2.094155E-09
       120  15  5.503481E+05  3.008897E+05  6.072779E+03  4.069138E+05  4.087751E-09 -1.660367E-09
       120  16  4.481705E+05  2.274604E+05 -9.219632E+03  3.509125E+05  1.039965E-08  4.645122E-09
       120  17  4.421736E+05  2.246880E+05 -1.450015E+04  3.507228E+05  1.134983E-09 -1.591725E-10
       120  18  4.383583E+05  2.226693E+05 -1.703623E+04  3.497818E+05 -1.433443E-08 -9.814801E-09
       120  19  6.551482E+05  3.789773E+05  3.637623E+04  4.594392E+05 -1.557265E+04  1.276271E+03
       120  20  6.575468E+05  3.785580E+05  3.095414E+04  4.621241E+05 -1.230844E+04  4.859319E+03
       120  21  6.623532E+05  3.791181E+05  2.918163E+04  4.640578E+05 -8.850135E+03  8.183073E+03
       120  22  5.516520E+05  3.032143E+05  1.357829E+04  4.051699E+05 -1.384310E+04  2.572359E+03
       120  23  5.498527E+05  3.016188E+05  8.227139E+03  4.064174E+05 -1.110167E+04  5.763790E+03
       120  24  5.503482E+05  3.008898E+05  6.073047E+03  4.069137E+05 -8.166112E+03  8.695933E+03
       120  25  4.481707E+05  2.274604E+05 -9.219328E+03  3.509125E+05 -1.211396E+04  3.868116E+03
       120  26  4.421737E+05  2.246881E+05 -1.449989E+04  3.507227E+05 -9.895189E+03  6.668038E+03
       120  27  4.383584E+05  2.226694E+05 -1.703597E+04  3.497818E+05 -7.482254E+03  9.208671E+03
       121   1  6.640141E+05  3.808303E+05  2.928727E+04  4.651798E+05  8.171740E+03 -8.989408E+03
       121   2  6.666633E+05  3.834028E+05  3.067789E+04  4.669333E+05  5.674080E+03 -1.134385E+04
       121   3  6.707396E+05  3.857117E+05  3.443060E+04  4.684470E+05  3.124442E+03 -1.362904E+04
       121   4  5.502605E+05  3.008303E+05  5.775181E+03  4.068792E+05  7.479085E+03 -9.508769E+03
       121   5  5.496132E+05  3.010700E+05  6.526927E+03  4.069286E+05  5.121589E+03 -1.175824E+04
       121   6  5.503630E+05  3.010154E+05  9.519658E+03  4.067380E+05  2.712183E+03 -1.393838E+04
       121   7  4.365200E+05  2.208369E+05 -1.773822E+04  3.485899E+05  6.786583E+03 -1.002801E+04
       121   8  4.325794E+05  2.187459E+05 -1.762454E+04  3.469372E+05  4.569237E+03 -1.217252E+04
       121   9  4.300063E+05  2.163303E+05 -1.539093E+04  3.450444E+05  2.300038E+03 -1.424763E+04
       121  10  6.640140E+05  3.808302E+05  2.928699E+04  4.651799E+05 -1.363445E-08 -8.882871E-09
       121  11  6.666632E+05  3.834026E+05  3.067759E+04  4.669334E+05  2.614707E-09  2.522370E-10
       121  12  6.707396E+05  3.857115E+05  3.443023E+04  4.684470E+05  9.110932E-09  5.635384E-09
       121  13  5.502605E+05  3.008302E+05  5.774906E+03  4.068793E+05  4.462839E-09 -2.056331E-09
       121  14  5.496131E+05  3.010698E+05  6.526618E+03  4.069287E+05  7.375211E-09  1.569373E-09
       121  15  5.503629E+05  3.010152E+05  9.519279E+03  4.067381E+05  3.312871E-09  7.559281E-10
       121  16  4.365199E+05  2.208367E+05 -1.773850E+04  3.485900E+05  4.774392E-09  4.969026E-09
       121  17  4.325793E+05  2.187458E+05 -1.762486E+04  3.469372E+05  2.322933E-09  3.101252E-09
       121  18  4.300062E+05  2.163301E+05 -1.539132E+04  3.450444E+05 -6.060647E-09 -4.191073E-09
       121  19  6.640141E+05  3.808303E+05  2.928727E+04  4.651798E+05 -8.171740E+03  8.989408E+03
       121  20  6.666633E+05  3.834028E+05  3.067789E+04  4.669333E+05 -5.674080E+03  1.134385E+04
       121  21  6.707396E+05  3.857117E+05  3.443060E+04  4.684470E+05 -3.124442E+03  1.362904E+04
       121  22  5.502605E+05  3.008303E+05  5.775181E+03  4.068792E+05 -7.479085E+03  9.508769E+03
       121  23  5.496132E+05  3.010700E+05  6.526927E+03  4.069286E+05 -5.121589E+03  1.175824E+04
       121  24  5.503630E+05  3.010154E+05  9.519658E+03  4.067380E+05 -2.712183E+03  1.393838E+04
       121  25  4.365200E+05  2.208369E+05 -1.773822E+04  3.485899E+05 -6.786583E+03  1.002801E+04
       121  26  4.325794E+05  2.187459E+05 -1.762454E+04  3.469372E+05 -4.569237E+03  1.217252E+04
       121  27  4.300063E+05  2.163303E+05 -1.539093E+04  3.450444E+05 -2.300038E+03  1.424763E+04
       122   1  6.725023E+05  3.881271E+05  3.745762E+04  4.699484E+05  1.748068E+03 -1.486972E+04
       122   2  6.782857E+05  3.887771E+05  4.691433E+04  4.691407E+05 -7.146295E+03 -2.157191E+04
       122   3  6.889676E+05  3.935582E+05  6.513014E+04  4.666072E+05 -1.632135E+04 -2.789994E+04
       122   4  5.506951E+05  3.012326E+05  1.203212E+04  4.069556E+05  1.324757E+03 -1.518735E+04
       122   5  5.501551E+05  3.025059E+05  2.038671E+04  4.053748E+05 -6.813648E+03 -2.132314E+04
       122   6  5.543507E+05  3.077476E+05  3.684664E+04  4.020680E+05 -1.523273E+04 -2.708480E+04
       122   7  4.289054E+05  2.143478E+05 -1.339397E+04  3.439774E+05  9.015563E+02 -1.550490E+04
       122   8  4.220426E+05  2.162431E+05 -6.142052E+03  3.416232E+05 -6.481088E+03 -2.107443E+04
       122   9  4.197522E+05  2.219441E+05  8.561361E+03  3.375431E+05 -1.414439E+04 -2.626986E+04
       122  10  6.725023E+05  3.881269E+05  3.745720E+04  4.699484E+05  1.029968E-08  7.109556E-09
       122  11  6.782855E+05  3.887766E+05  4.691336E+04  4.691406E+05  1.496643E-09 -3.110726E-10
       122  12  6.889671E+05  3.935573E+05  6.512818E+04  4.666068E+05 -1.086389E-08 -1.310650E-08
       122  13  5.506950E+05  3.012323E+05  1.203169E+04  4.069556E+05  1.596245E-09  1.453283E-09
       122  14  5.501549E+05  3.025054E+05  2.038577E+04  4.053746E+05  2.172562E-09  5.010474E-09
       122  15  5.543502E+05  3.077468E+05  3.684483E+04  4.020677E+05 -1.640843E-09  4.745586E-09
       122  16  4.289054E+05  2.143475E+05 -1.339442E+04  3.439774E+05 -7.885597E-09 -6.317300E-09
       122  17  4.220425E+05  2.162426E+05 -6.142965E+03  3.416231E+05  2.573293E-09  7.409606E-10
       122  18  4.197518E+05  2.219433E+05  8.559689E+03  3.375428E+05  8.689278E-09  5.192984E-09
       122  19  6.725023E+05  3.881271E+05  3.745762E+04  4.699484E+05 -1.748068E+03  1.486972E+04
       122  20  6.782857E+05  3.887771E+05  4.691433E+04  4.691407E+05  7.146295E+03  2.157191E+04
       122  21  6.889676E+05  3.935582E+05  6.513014E+04  4.666072E+05  1.632135E+04  2.789994E+04
       122  22  5.506951E+05  3.012326E+05  1.203212E+04  4.069556E+05 -1.324757E+03  1.518735E+04
       122  23  5.501551E+05  3.025059E+05  2.038671E+04  4.053748E+05  6.813648E+03  2.132314E+04
       122  24  5.543507E+05  3.077476E+05  3.684664E+04  4.020680E+05  1.523273E+04  2.708480E+04
       122  25  4.289054E+05  2.143478E+05 -1.339397E+04  3.439774E+05 -9.015563E+02  1.550490E+04
       122  26  4.220426E+05  2.162431E+05 -6.142052E+03  3.416232E+05  6.481088E+03  2.107443E+04
       122  27  4.197522E+05  2.219441E+05  8.561361E+03  3.375431E+05  1.414439E+04  2.626986E+04
       123   1  6.881918E+05  4.055405E+05  7.818990E+04  4.714380E+05 -2.144787E+04 -3.146651E+04
       123   2  7.491240E+05  3.732763E+05  1.233626E+05  4.332681E+05 -6.646215E+04 -6.182623E+04
       123   3  8.583723E+05  4.037526E+05  2.246097E+05  3.683706E+05 -1.139705E+05 -8.886074E+04
       123   4  5.583328E+05  3.109097E+05  4.881674E+04  4.036914E+05 -2.043909E+04 -3.071071E+04
       123   5  5.625970E+05  3.295962E+05  8.945409E+04  3.800564E+05 -5.875714E+04 -5.606117E+04
       123   6  6.137256E+05  4.095753E+05  1.803702E+05  3.296942E+05 -9.956263E+04 -7.809295E+04
       123   7  4.284961E+05  2.162921E+05  1.944351E+04  3.359627E+05 -1.943060E+04 -2.995514E+04
       123   8  3.761180E+05  2.859213E+05  5.554697E+04  3.268560E+05 -5.105550E+04 -5.029657E+04
       123   9  3.691697E+05  4.154143E+05  1.361367E+05  2.910174E+05 -8.516318E+04 -6.732360E+04
       123  10  6.881911E+05  4.055393E+05  7.818718E+04  4.714374E+05  2.383346E-08  1.240535E-08
       123  11  7.491182E+05  3.732710E+05  1.233471E+05  4.332648E+05 -5.781983E-09 -6.634106E-09
       123  12  8.583563E+05  4.037406E+05  2.245705E+05  3.683625E+05 -2.542968E-08 -1.957948E-08
       123  13  5.583321E+05  3.109086E+05  4.881418E+04  4.036909E+05 -5.658874E-09  1.423686E-09
       123  14  5.625924E+05  3.295920E+05  8.944171E+04  3.800538E+05 -9.741964E-09 -3.031479E-09
       123  15  6.137133E+05  4.095661E+05  1.803401E+05  3.296879E+05 -3.688361E-09 -1.360810E-09
       123  16  4.284955E+05  2.162911E+05  1.944112E+04  3.359623E+05 -3.502217E-08 -2.674055E-08
       123  17  3.761145E+05  2.859178E+05  5.553733E+04  3.268539E+05 -1.262610E-08 -8.996016E-09
       123  18  3.691607E+05  4.154075E+05  1.361146E+05  2.910128E+05  1.919919E-08  1.436309E-08
       123  19  6.881918E+05  4.055405E+05  7.818990E+04  4.714380E+05  2.144787E+04  3.146651E+04
       123  20  7.491240E+05  3.732763E+05  1.233626E+05  4.332681E+05  6.646215E+04  6.182623E+04
       123  21  8.583723E+05  4.037526E+05  2.246097E+05  3.683706E+05  1.139705E+05  8.886074E+04
       123  22  5.583328E+05  3.109097E+05  4.881674E+04  4.036914E+05  2.043909E+04  3.071071E+04
       123  23  5.625970E+05  3.295962E+05  8.945409E+04  3.800564E+05  5.875714E+04  5.606117E+04
       123  24  6.137256E+05  4.095753E+05  1.803702E+05  3.296942E+05  9.956263E+04  7.809295E+04
       123  25  4.284961E+05  2.162921E+05  1.944351E+04  3.359627E+05  1.943060E+04  2.995514E+04
       123  26  3.761180E+05  2.859213E+05  5.554697E+04  3.268560E+05  5.105550E+04  5.029657E+04
       123  27  3.691697E+05  4.154143E+05  1.361367E+05  2.910174E+05  8.516318E+04  6.732360E+04
       124   1  1.073194E+06  1.977213E+05  2.234046E+05  7.955595E+04  1.064455E+05 -3.678401E+03
       124   2  9.990326E+05  5.801905E+04  1.268877E+05  3.257297E+04  6.572254E+04 -1.074782E+04
       124   3  9.621658E+05  4.615021E+04  8.881844E+04  1.437915E+04  2.500610E+04 -9.319825E+03
       124   4  7.481943E+05  1.169309E+05  1.439598E+05  3.164497E+04  9.826330E+04 -3.684522E+03
       124   5  7.300971E+05 -8.137896E+03  6.474888E+04  1.723844E+04  6.367174E+04 -1.074942E+04
       124   6  7.482448E+05 -6.409177E+03  3.975181E+04  3.161729E+04  2.908256E+04 -9.319535E+03
       124   7  4.232961E+05  3.614133E+04  6.450885E+04 -1.624090E+04  9.008538E+04 -3.689385E+03
       124   8  4.612288E+05 -7.429903E+04  2.605393E+03  1.910591E+03  6.162182E+04 -1.075092E+04
       124   9  5.343669E+05 -5.897063E+04 -9.317621E+03  4.884946E+04  3.315764E+04 -9.319018E+03
       124  10  1.073182E+06  1.977183E+05  2.233833E+05  7.955626E+04 -6.380690E-09 -1.903289E-10
       124  11  9.990279E+05  5.801777E+04  1.268794E+05  3.257354E+04 -5.394959E-11 -2.960664E-10
       124  12  9.621651E+05  4.614995E+04  8.881711E+04  1.437934E+04  8.391042E-09 -5.066036E-11
       124  13  7.481839E+05  1.169283E+05  1.439417E+05  3.164526E+04 -5.779115E-10 -3.320006E-11
       124  14  7.300927E+05 -8.139107E+03  6.474105E+04  1.723899E+04  7.965198E-10 -3.927251E-10
       124  15  7.482439E+05 -6.409497E+03  3.975006E+04  3.161751E+04  3.746000E-10 -2.082721E-10
       124  16  4.232874E+05  3.613914E+04  6.449359E+04 -1.624063E+04  6.667495E-09 -3.119487E-10
       124  17  4.612247E+05 -7.430017E+04  2.598045E+03  1.911125E+03  4.915507E-10 -3.571538E-10
       124  18  5.343657E+05 -5.897101E+04 -9.319849E+03  4.884971E+04 -8.669387E-09 -3.639295E-10
       124  19  1.073194E+06  1.977213E+05  2.234046E+05  7.955595E+04 -1.064455E+05  3.678401E+03
       124  20  9.990326E+05  5.801905E+04  1.268877E+05  3.257297E+04 -6.572254E+04  1.074782E+04
       124  21  9.621658E+05  4.615021E+04  8.881844E+04  1.437915E+04 -2.500610E+04  9.319825E+03
       124  22  7.481943E+05  1.169309E+05  1.439598E+05  3.164497E+04 -9.826330E+04  3.684522E+03
       124  23  7.300971E+05 -8.137896E+03  6.474888E+04  1.723844E+04 -6.367174E+04  1.074942E+04
       124  24  7.482448E+05 -6.409177E+03  3.975181E+04  3.161729E+04 -2.908256E+04  9.319535E+03
       124  25  4.232961E+05  3.614133E+04  6.450885E+04 -1.624090E+04 -9.008538E+04  3.689385E+03
       124  26  4.612288E+05 -7.429903E+04  2.605393E+03  1.910591E+03 -6.162182E+04  1.075092E+04
       124  27  5.343669E+05 -5.897063E+04 -9.317621E+03  4.884946E+04 -3.315764E+04  9.319018E+03
       125   1  9.018941E+05  4.828178E+04  6.953774E+04  3.470301E+04  2.168867E+04 -6.734978E+03
       125   2  8.448806E+05  2.521402E+04  4.303399E+04  1.797382E+04  1.193624E+04 -4.507023E+03
       125   3  7.916864E+05  1.232007E+04  2.541717E+04  3.012990E+04  2.184174E+03 -1.878848E+03
       125   4  7.410238E+05  8.731992E+03  3.251057E+04  3.164685E+04  2.314473E+04 -6.735202E+03
       125   5  7.391438E+05 -7.748272E+02  1.873338E+04  1.720421E+04  1.368248E+04 -4.507030E+03
       125   6  7.410321E+05 -1.564539E+02  1.364410E+04  3.164698E+04  4.219758E+03 -1.878667E+03
       125   7  5.801774E+05 -3.081957E+04 -4.518307E+03  2.859150E+04  2.460041E+04 -6.735441E+03
       125   8  6.334173E+05 -2.676445E+04 -5.567965E+03  1.643474E+04  1.542843E+04 -4.507041E+03
       125   9  6.903803E+05 -1.263314E+04  1.870881E+03  3.316393E+04  6.255177E+03 -1.878477E+03
       125  10  9.018936E+05  4.828161E+04  6.953677E+04  3.470313E+04  2.060109E-09  2.576658E-10
       125  11  8.448804E+05  2.521396E+04  4.303369E+04  1.797386E+04  1.199874E-09  3.856256E-10
       125  12  7.916864E+05  1.232006E+04  2.541715E+04  3.012990E+04  5.667972E-10  3.082399E-10
       125  13  7.410232E+05  8.731800E+03  3.250948E+04  3.164698E+04  7.340414E-10  1.873897E-10
       125  14  7.391436E+05 -7.748992E+02  1.873299E+04  1.720426E+04  2.565556E-10  5.536977E-10
       125  15  7.410321E+05 -1.564624E+02  1.364406E+04  3.164698E+04  5.016722E-11  3.216625E-10
       125  16  5.801767E+05 -3.081978E+04 -4.519528E+03  2.859163E+04 -1.429362E-09 -1.263139E-12
       125  17  6.334170E+05 -2.676454E+04 -5.568450E+03  1.643479E+04 -5.771325E-10  6.313894E-10
       125  18  6.903802E+05 -1.263316E+04  1.870801E+03  3.316394E+04 -4.923691E-10  2.970174E-10
       125  19  9.018941E+05  4.828178E+04  6.953774E+04  3.470301E+04 -2.168867E+04  6.734978E+03
       125  20  8.448806E+05  2.521402E+04  4.303399E+04  1.797382E+04 -1.193624E+04  4.507023E+03
       125  21  7.916864E+05  1.232007E+04  2.541717E+04  3.012990E+04 -2.184174E+03  1.878848E+03
       125  22  7.410238E+05  8.731992E+03  3.251057E+04  3.164685E+04 -2.314473E+04  6.735202E+03
       125  23  7.391438E+05 -7.748272E+02  1.873338E+04  1.720421E+04 -1.368248E+04  4.507030E+03
       125  24  7.410321E+05 -1.564539E+02  1.364410E+04  3.164698E+04 -4.219758E+03  1.878667E+03
       125  25  5.801774E+05 -3.081957E+04 -4.518307E+03  2.859150E+04 -2.460041E+04  6.735441E+03
       125  26  6.334173E+05 -2.676445E+04 -5.567965E+03  1.643474E+04 -1.542843E+04  4.507041E+03
       125  27  6.903803E+05 -1.263314E+04  1.870881E+03  3.316393E+04 -6.255177E+03  1.878477E+03
       126   1  7.386244E+05 -1.925834E+02  1.202438E+04  3.250997E+04 -1.115383E+02 -2.088664E+02
       126   2  6.823972E+05 -1.452550E+04 -2.331428E+01  1.674970E+04 -6.470048E+03  2.423593E+03
       126   3  6.285063E+05 -2.283540E+04 -6.429220E+03  2.985359E+04 -1.282779E+04  4.716035E+03
       126   4  7.407230E+05  3.510078E+02  1.264636E+04  3.164221E+04  1.905480E+03 -2.086705E+02
       126   5  7.395334E+05 -4.796012E+02  1.311472E+04  1.721018E+04 -4.698176E+03  2.423681E+03
       126   6  7.407192E+05  4.755152E+03  1.939472E+04  3.164203E+04 -1.130162E+04  4.716014E+03
       126   7  7.428216E+05  8.946037E+02  1.326835E+04  3.077445E+04  3.922505E+03 -2.084802E+02
       126   8  7.966725E+05  1.356607E+04  2.625255E+04  1.767071E+04 -2.926141E+03  2.423772E+03
       126   9  8.529438E+05  3.234484E+04  4.521784E+04  3.343081E+04 -9.775166E+03  4.716002E+03
       126  10  7.386244E+05 -1.925835E+02  1.202438E+04  3.250997E+04 -2.148360E-11  1.673586E-10
       126  11  6.823972E+05 -1.452552E+04 -2.340390E+01  1.674971E+04  2.645732E-10 -3.082975E-12
       126  12  6.285061E+05 -2.283547E+04 -6.429571E+03  2.985363E+04  5.999320E-10  4.005228E-13
       126  13  7.407230E+05  3.510068E+02  1.264635E+04  3.164221E+04  1.683546E-11  1.147333E-10
       126  14  7.395333E+05 -4.796135E+02  1.311467E+04  1.721019E+04 -7.374193E-10 -8.884931E-11
       126  15  7.407190E+05  4.755094E+03  1.939444E+04  3.164208E+04 -8.135899E-10 -4.193680E-11
       126  16  7.428216E+05  8.945995E+02  1.326832E+04  3.077445E+04 -2.515362E-10 -5.567042E-12
       126  17  7.966725E+05  1.356607E+04  2.625252E+04  1.767072E+04  6.195003E-12 -1.931311E-10
       126  18  8.529436E+05  3.234479E+04  4.521762E+04  3.343084E+04 -1.144188E-10 -3.095100E-11
       126  19  7.386244E+05 -1.925834E+02  1.202438E+04  3.250997E+04  1.115383E+02  2.088664E+02
       126  20  6.823972E+05 -1.452550E+04 -2.331428E+01  1.674970E+04  6.470048E+03 -2.423593E+03
       126  21  6.285063E+05 -2.283540E+04 -6.429220E+03  2.985359E+04  1.282779E+04 -4.716035E+03
       126  22  7.407230E+05  3.510078E+02  1.264636E+04  3.164221E+04 -1.905480E+03  2.086705E+02
       126  23  7.395334E+05 -4.796012E+02  1.311472E+04  1.721018E+04  4.698176E+03 -2.423681E+03
       126  24  7.407192E+05  4.755152E+03  1.939472E+04  3.164203E+04  1.130162E+04 -4.716014E+03
       126  25  7.428216E+05  8.946037E+02  1.326835E+04  3.077445E+04 -3.922505E+03  2.084802E+02
       126  26  7.966725E+05  1.356607E+04  2.625255E+04  1.767071E+04  2.926141E+03 -2.423772E+03
       126  27  8.529438E+05  3.234484E+04  4.521784E+04  3.343081E+04  9.775166E+03 -4.716002E+03
       127   1  5.794608E+05 -4.407035E+04 -1.497145E+04  4.101330E+04 -1.858014E+04  7.158169E+03
       127   2  5.145829E+05 -5.862269E+04 -1.488869E+04  8.820861E+03 -3.252024E+04  8.759490E+03
       127   3  4.687000E+05 -4.611729E+03  1.141477E+04  5.378421E+03 -4.645975E+04  3.048149E+03
       127   4  7.446138E+05 -3.482601E+03  2.293535E+04  3.161392E+04 -1.480115E+04  7.158374E+03
       127   5  7.346509E+05 -4.465128E+03  3.599079E+04  1.724463E+04 -3.400853E+04  8.758968E+03
       127   6  7.445836E+05  6.401457E+04  7.891409E+04  3.162324E+04 -5.321664E+04  3.047251E+03
       127   7  9.097923E+05  3.710359E+04  6.084044E+04  2.221201E+04 -1.102117E+04  7.158464E+03
       127   8  9.547638E+05  4.968931E+04  8.686708E+04  2.567140E+04 -3.549735E+04  8.758405E+03
       127   9  1.020538E+06  1.326379E+05  1.464084E+05  5.787974E+04 -5.997653E+04  3.045782E+03
       127  10  5.794604E+05 -4.407050E+04 -1.497219E+04  4.101341E+04 -3.844649E-10 -2.081069E-11
       127  11  5.145818E+05 -5.862306E+04 -1.489082E+04  8.821091E+03 -1.723481E-10 -9.924030E-11
       127  12  4.686977E+05 -4.612318E+03  1.141070E+04  5.378535E+03 -1.588832E-10 -1.806447E-10
       127  13  7.446135E+05 -3.482715E+03  2.293484E+04  3.161400E+04  3.925043E-10  7.469841E-11
       127  14  7.346497E+05 -4.465521E+03  3.598847E+04  1.724487E+04 -1.218104E-09  1.506599E-10
       127  15  7.445806E+05  6.401380E+04  7.890875E+04  3.162337E+04  6.592174E-10 -6.558616E-11
       127  16  9.097921E+05  3.710350E+04  6.084012E+04  2.221208E+04 -6.796839E-10  9.551311E-11
       127  17  9.547624E+05  4.968889E+04  8.686457E+04  2.567165E+04 -1.256543E-10  3.838890E-10
       127  18  1.020534E+06  1.326369E+05  1.464016E+05  5.787989E+04  3.234209E-10  9.677308E-11
       127  19  5.794608E+05 -4.407035E+04 -1.497145E+04  4.101330E+04  1.858014E+04 -7.158169E+03
       127  20  5.145829E+05 -5.862269E+04 -1.488869E+04  8.820861E+03  3.252024E+04 -8.759490E+03
       127  21  4.687000E+05 -4.611729E+03  1.141477E+04  5.378421E+03  4.645975E+04 -3.048149E+03
       127  22  7.446138E+05 -3.482601E+03  2.293535E+04  3.161392E+04  1.480115E+04 -7.158374E+03
       127  23  7.346509E+05 -4.465128E+03  3.599079E+04  1.724463E+04  3.400853E+04 -8.758968E+03
       127  24  7.445836E+05  6.401457E+04  7.891409E+04  3.162324E+04  5.321664E+04 -3.047251E+03
       127  25  9.097923E+05  3.710359E+04  6.084044E+04  2.221201E+04  1.102117E+04 -7.158464E+03
       127  26  9.547638E+05  4.968931E+04  8.686708E+04  2.567140E+04  3.549735E+04 -8.758405E+03
       127  27  1.020538E+06  1.326379E+05  1.464084E+05  5.787974E+04  5.997653E+04 -3.045782E+03
       128   1 -9.543886E+04 -4.687461E+05 -1.078146E+05  7.439788E+04  1.358830E+03 -7.963733E+04
       128   2 -1.107311E+04 -4.621978E+05 -4.917893E+04  3.446793E+04  4.790053E+03 -4.977195E+04
       128   3  1.308548E+04 -4.745919E+05 -2.504729E+04 -5.867444E+03  6.066237E+03 -1.990575E+04
       128   4 -1.192946E+05 -5.652098E+05 -1.301884E+05 -3.491698E+03  1.365764E+03 -8.835455E+04
       128   5 -3.319285E+04 -5.553574E+05 -6.639834E+04 -3.308109E+03  4.791608E+03 -5.431212E+04
       128   6 -8.034989E+03 -5.651790E+05 -4.001851E+04 -3.528138E+03  6.066125E+03 -2.026833E+04
       128   7 -1.431282E+05 -6.616518E+05 -1.525592E+05 -8.136908E+04  1.374888E+03 -9.707042E+04
       128   8 -5.530772E+04 -6.485054E+05 -8.361726E+04 -4.107833E+04  4.793716E+03 -5.885163E+04
       128   9 -2.915587E+04 -6.557580E+05 -5.498997E+04 -1.189186E+03  6.066011E+03 -2.063086E+04
       128  10 -9.544057E+04 -4.687529E+05 -1.078265E+05  7.439797E+04 -4.174654E-11 -4.219484E-10
       128  11 -1.107380E+04 -4.622005E+05 -4.918363E+04  3.446813E+04  8.321676E-11 -5.519193E-10
       128  12  1.308534E+04 -4.745923E+05 -2.504810E+04 -5.867346E+03  1.350976E-10  1.416346E-11
       128  13 -1.192967E+05 -5.652182E+05 -1.302031E+05 -3.491601E+03  5.174537E-10  2.386393E-10
       128  14 -3.319367E+04 -5.553606E+05 -6.640393E+04 -3.307899E+03  5.594180E-10 -3.667686E-11
       128  15 -8.035139E+03 -5.651795E+05 -4.001935E+04 -3.528039E+03 -8.501136E-10 -1.244091E-11
       128  16 -1.431307E+05 -6.616619E+05 -1.525769E+05 -8.136897E+04  8.936507E-11  4.171752E-10
       128  17 -5.530867E+04 -6.485092E+05 -8.362382E+04 -4.107810E+04  7.215720E-10  1.266623E-10
       128  18 -2.915602E+04 -6.557585E+05 -5.499084E+04 -1.189085E+03 -8.965397E-11  7.171706E-11
       128  19 -9.543886E+04 -4.687461E+05 -1.078146E+05  7.439788E+04 -1.358830E+03  7.963733E+04
       128  20 -1.107311E+04 -4.621978E+05 -4.917893E+04  3.446793E+04 -4.790053E+03  4.977195E+04
       128  21  1.308548E+04 -4.745919E+05 -2.504729E+04 -5.867444E+03 -6.066237E+03  1.990575E+04
       128  22 -1.192946E+05 -5.652098E+05 -1.301884E+05 -3.491698E+03 -1.365764E+03  8.835455E+04
       128  23 -3.319285E+04 -5.553574E+05 -6.639834E+04 -3.308109E+03 -4.791608E+03  5.431212E+04
       128  24 -8.034989E+03 -5.651790E+05 -4.001851E+04 -3.528138E+03 -6.066125E+03  2.026833E+04
       128  25 -1.431282E+05 -6.616518E+05 -1.525592E+05 -8.136908E+04 -1.374888E+03  9.707042E+04
       128  26 -5.530772E+04 -6.485054E+05 -8.361726E+04 -4.107833E+04 -4.793716E+03  5.885163E+04
       128  27 -2.915587E+04 -6.557580E+05 -5.498997E+04 -1.189186E+03 -6.066011E+03  2.063086E+04
       129   1  1.336984E+04 -4.730435E+05 -1.891840E+04  5.762901E+02  6.117686E+03 -1.425102E+04
       129   2  1.681676E+04 -4.742046E+05 -1.354977E+04 -3.146466E+03  6.157625E+03 -1.463112E+03
       129   3  1.253888E+04 -4.789623E+05 -1.844166E+04 -7.450041E+03  5.793433E+03  1.132487E+04
       129   4 -7.244852E+03 -5.616385E+05 -3.332928E+04 -3.563622E+03  6.117717E+03 -1.471175E+04
       129   5 -3.028226E+03 -5.597717E+05 -2.715723E+04 -3.273197E+03  6.157803E+03 -1.140345E+03
       129   6 -6.673209E+03 -5.616380E+05 -3.179106E+04 -3.563618E+03  5.793895E+03  1.243118E+04
       129   7 -2.785988E+04 -6.502256E+05 -4.774038E+04 -7.702922E+03  6.117754E+03 -1.517242E+04
       129   8 -2.287357E+04 -6.453314E+05 -4.076488E+04 -3.399911E+03  6.157980E+03 -8.176212E+02
       129   9 -2.588559E+04 -6.443069E+05 -4.514064E+04  3.222674E+02  5.794370E+03  1.353736E+04
       129  10  1.336974E+04 -4.730438E+05 -1.891885E+04  5.763603E+02 -3.497196E-11  6.696650E-11
       129  11  1.681671E+04 -4.742047E+05 -1.354984E+04 -3.146459E+03 -5.243010E-10  6.148029E-11
       129  12  1.253881E+04 -4.789624E+05 -1.844197E+04 -7.450094E+03  3.597349E-10  4.221522E-10
       129  13 -7.244950E+03 -5.616387E+05 -3.332976E+04 -3.563549E+03  4.954082E-12  2.647692E-10
       129  14 -3.028267E+03 -5.597717E+05 -2.715730E+04 -3.273192E+03 -3.849604E-10 -2.394278E-11
       129  15 -6.673287E+03 -5.616382E+05 -3.179142E+04 -3.563676E+03 -1.424651E-11 -1.262402E-10
       129  16 -2.785998E+04 -6.502259E+05 -4.774088E+04 -7.702847E+03 -2.739490E-10 -2.856940E-11
       129  17 -2.287361E+04 -6.453314E+05 -4.076495E+04 -3.399907E+03  1.984454E-10 -4.299733E-10
       129  18 -2.588568E+04 -6.443071E+05 -4.514104E+04  3.222042E+02  4.326894E-10 -4.964832E-10
       129  19  1.336984E+04 -4.730435E+05 -1.891840E+04  5.762901E+02 -6.117686E+03  1.425102E+04
       129  20  1.681676E+04 -4.742046E+05 -1.354977E+04 -3.146466E+03 -6.157625E+03  1.463112E+03
       129  21  1.253888E+04 -4.789623E+05 -1.844166E+04 -7.450041E+03 -5.793433E+03 -1.132487E+04
       129  22 -7.244852E+03 -5.616385E+05 -3.332928E+04 -3.563622E+03 -6.117717E+03  1.471175E+04
       129  23 -3.028226E+03 -5.597717E+05 -2.715723E+04 -3.273197E+03 -6.157803E+03  1.140345E+03
       129  24 -6.673209E+03 -5.616380E+05 -3.179106E+04 -3.563618E+03 -5.793895E+03 -1.243118E+04
       129  25 -2.785988E+04 -6.502256E+05 -4.774038E+04 -7.702922E+03 -6.117754E+03  1.517242E+04
       129  26 -2.287357E+04 -6.453314E+05 -4.076488E+04 -3.399911E+03 -6.157980E+03  8.176212E+02
       129  27 -2.588559E+04 -6.443069E+05 -4.514064E+04  3.222674E+02 -5.794370E+03 -1.353736E+04
       130   1  1.143236E+04 -4.839538E+05 -2.434973E+04 -1.460216E+03  5.527629E+03  1.668102E+04
       130   2 -1.207361E+04 -4.781534E+05 -4.714252E+04 -3.786456E+04  4.181748E+03  4.490223E+04
       130   3 -9.091583E+04 -4.898639E+05 -1.021504E+05 -7.497070E+04  1.189557E+03  7.312351E+04
       130   4 -7.399700E+03 -5.648221E+05 -3.758653E+04 -3.593513E+03  5.527927E+03  1.770885E+04
       130   5 -3.041911E+04 -5.558011E+05 -6.127815E+04 -3.227295E+03  4.185433E+03  4.912061E+04
       130   6 -1.093378E+05 -5.648499E+05 -1.194043E+05 -3.564784E+03  1.199878E+03  8.053226E+04
       130   7 -2.623208E+04 -6.456840E+05 -5.082352E+04 -5.726523E+03  5.528217E+03  1.873655E+04
       130   8 -4.876042E+04 -6.334404E+05 -7.541331E+04  3.140552E+04  4.189588E+03  5.333847E+04
       130   9 -1.277410E+05 -6.398197E+05 -1.366557E+05  6.783243E+04  1.211907E+03  8.794011E+04
       130  10  1.143225E+04 -4.839541E+05 -2.435031E+04 -1.460291E+03  1.871943E-10 -1.158810E-10
       130  11 -1.207417E+04 -4.781555E+05 -4.714635E+04 -3.786471E+04 -8.322830E-11 -8.769377E-11
       130  12 -9.091727E+04 -4.898696E+05 -1.021604E+05 -7.497077E+04 -5.065911E-10  2.523632E-10
       130  13 -7.399817E+03 -5.648225E+05 -3.758718E+04 -3.593592E+03  1.042991E-10  7.586079E-11
       130  14 -3.041977E+04 -5.558037E+05 -6.128272E+04 -3.227461E+03 -4.982424E-10 -1.222006E-10
       130  15 -1.093396E+05 -5.648569E+05 -1.194165E+05 -3.564862E+03  4.707190E-10 -1.587406E-10
       130  16 -2.623220E+04 -6.456844E+05 -5.082423E+04 -5.726606E+03 -5.251983E-11  3.897336E-11
       130  17 -4.876120E+04 -6.334435E+05 -7.541869E+04  3.140534E+04  4.450982E-10 -3.033260E-10
       130  18 -1.277431E+05 -6.398280E+05 -1.366703E+05  6.783235E+04 -2.407037E-11 -1.891489E-10
       130  19  1.143236E+04 -4.839538E+05 -2.434973E+04 -1.460216E+03 -5.527629E+03 -1.668102E+04
       130  20 -1.207361E+04 -4.781534E+05 -4.714252E+04 -3.786456E+04 -4.181748E+03 -4.490223E+04
       130  21 -9.091583E+04 -4.898639E+05 -1.021504E+05 -7.497070E+04 -1.189557E+03 -7.312351E+04
       130  22 -7.399700E+03 -5.648221E+05 -3.758653E+04 -3.593513E+03 -5.527927E+03 -1.770885E+04
       130  23 -3.041911E+04 -5.558011E+05 -6.127815E+04 -3.227295E+03 -4.185433E+03 -4.912061E+04
       130  24 -1.093378E+05 -5.648499E+05 -1.194043E+05 -3.564784E+03 -1.199878E+03 -8.053226E+04
       130  25 -2.623208E+04 -6.456840E+05 -5.082352E+04 -5.726523E+03 -5.528217E+03 -1.873655E+04
       130  26 -4.876042E+04 -6.334404E+05 -7.541331E+04  3.140552E+04 -4.189588E+03 -5.333847E+04
       130  27 -1.277410E+05 -6.398197E+05 -1.366557E+05  6.783243E+04 -1.211907E+03 -8.794011E+04
       131   1  4.712364E+05  4.408795E+05  1.538452E+05  3.241792E+05  7.729005E+04  5.591286E+04
       131   2  4.604065E+05  3.334664E+05  8.178600E+04  3.486356E+05  5.090923E+04  3.150450E+04
       131   3  4.890679E+05  2.847786E+05  5.169728E+04  3.490786E+05  2.279119E+04  9.415258E+03
       131   4  4.507071E+05  3.163566E+05  1.263586E+05  2.633615E+05  7.116622E+04  5.131036E+04
       131   5  4.113184E+05  2.517249E+05  6.057769E+04  3.020961E+05  4.822452E+04  2.948877E+04
       131   6  4.106773E+05  2.450717E+05  3.378473E+04  3.168167E+05  2.354759E+04  9.982562E+03
       131   7  4.301854E+05  1.918636E+05  9.887350E+04  2.025502E+05  6.504253E+04  4.671002E+04
       131   8  3.622346E+05  1.699946E+05  3.936942E+04  2.555631E+05  4.554009E+04  2.747363E+04
       131   9  3.322949E+05  2.053670E+05  1.587213E+04  2.845592E+05  2.430385E+04  1.054980E+04
       131  10  4.712292E+05  4.408745E+05  1.538282E+05  3.241758E+05 -3.520591E-10 -8.602421E-12
       131  11  4.604034E+05  3.334647E+05  8.177927E+04  3.486343E+05  3.771916E-10 -4.199216E-11
       131  12  4.890673E+05  2.847784E+05  5.169614E+04  3.490785E+05  3.181433E-10 -1.252214E-10
       131  13  4.507009E+05  3.163524E+05  1.263441E+05  2.633586E+05 -6.256160E-10  4.377678E-11
       131  14  4.113157E+05  2.517234E+05  6.057169E+04  3.020950E+05 -2.887161E-10 -1.956037E-10
       131  15  4.106767E+05  2.450715E+05  3.378350E+04  3.168165E+05  5.416192E-10 -1.913505E-11
       131  16  4.301803E+05  1.918601E+05  9.886146E+04  2.025478E+05 -4.278258E-10 -4.710667E-11
       131  17  3.622322E+05  1.699933E+05  3.936411E+04  2.555621E+05  2.943263E-10  1.852831E-10
       131  18  3.322942E+05  2.053668E+05  1.587081E+04  2.845590E+05  6.411379E-10 -8.954573E-11
       131  19  4.712364E+05  4.408795E+05  1.538452E+05  3.241792E+05 -7.729005E+04 -5.591286E+04
       131  20  4.604065E+05  3.334664E+05  8.178600E+04  3.486356E+05 -5.090923E+04 -3.150450E+04
       131  21  4.890679E+05  2.847786E+05  5.169728E+04  3.490786E+05 -2.279119E+04 -9.415258E+03
       131  22  4.507071E+05  3.163566E+05  1.263586E+05  2.633615E+05 -7.116622E+04 -5.131036E+04
       131  23  4.113184E+05  2.517249E+05  6.057769E+04  3.020961E+05 -4.822452E+04 -2.948877E+04
       131  24  4.106773E+05  2.450717E+05  3.378473E+04  3.168167E+05 -2.354759E+04 -9.982562E+03
       131  25  4.301854E+05  1.918636E+05  9.887350E+04  2.025502E+05 -6.504253E+04 -4.671002E+04
       131  26  3.622346E+05  1.699946E+05  3.936942E+04  2.555631E+05 -4.554009E+04 -2.747363E+04
       131  27  3.322949E+05  2.053670E+05  1.587213E+04  2.845592E+05 -2.430385E+04 -1.054980E+04
       132   1  4.716934E+05  2.925417E+05  4.256365E+04  3.455351E+05  1.937046E+04  7.339913E+03
       132   2  4.645289E+05  2.819242E+05  2.895862E+04  3.425225E+05  1.302126E+04  3.107885E+03
       132   3  4.572358E+05  2.767184E+05  2.116812E+04  3.394951E+05  6.543168E+03 -9.520010E+02
       132   4  4.090520E+05  2.458882E+05  2.604797E+04  3.127713E+05  1.974250E+04  7.618630E+03
       132   5  4.083259E+05  2.417523E+05  1.463402E+04  3.138730E+05  1.364966E+04  3.578844E+03
       132   6  4.074159E+05  2.429729E+05  8.812939E+03  3.149598E+05  7.427803E+03 -2.889184E+02
       132   7  3.464149E+05  1.992372E+05  9.531951E+03  2.800115E+05  2.011450E+04  7.897307E+03
       132   8  3.521260E+05  2.015819E+05  3.090170E+02  2.852262E+05  1.427800E+04  4.049748E+03
       132   9  3.575980E+05  2.092282E+05 -3.542697E+03  2.904264E+05  8.312356E+03  3.741071E+02
       132  10  4.716930E+05  2.925416E+05  4.256284E+04  3.455350E+05 -7.932647E-10 -2.376277E-10
       132  11  4.645287E+05  2.819242E+05  2.895828E+04  3.425225E+05 -3.248972E-10 -2.928575E-10
       132  12  4.572357E+05  2.767184E+05  2.116804E+04  3.394951E+05  9.748630E-12 -1.834734E-10
       132  13  4.090515E+05  2.458880E+05  2.604713E+04  3.127712E+05 -6.894544E-10 -7.773194E-11
       132  14  4.083257E+05  2.417522E+05  1.463365E+04  3.138729E+05 -2.940948E-10 -2.270367E-11
       132  15  4.074158E+05  2.429729E+05  8.812835E+03  3.149598E+05 -1.600046E-10 -4.406016E-11
       132  16  3.464145E+05  1.992370E+05  9.531074E+03  2.800113E+05  3.203883E-11 -2.417343E-10
       132  17  3.521258E+05  2.015818E+05  3.086034E+02  2.852262E+05  1.290746E-09  3.231161E-12
       132  18  3.575979E+05  2.092282E+05 -3.542828E+03  2.904264E+05 -6.115408E-11  2.905472E-10
       132  19  4.716934E+05  2.925417E+05  4.256365E+04  3.455351E+05 -1.937046E+04 -7.339913E+03
       132  20  4.645289E+05  2.819242E+05  2.895862E+04  3.425225E+05 -1.302126E+04 -3.107885E+03
       132  21  4.572358E+05  2.767184E+05  2.116812E+04  3.394951E+05 -6.543168E+03  9.520010E+02
       132  22  4.090520E+05  2.458882E+05  2.604797E+04  3.127713E+05 -1.974250E+04 -7.618630E+03
       132  23  4.083259E+05  2.417523E+05  1.463402E+04  3.138730E+05 -1.364966E+04 -3.578844E+03
       132  24  4.074159E+05  2.429729E+05  8.812939E+03  3.149598E+05 -7.427803E+03  2.889184E+02
       132  25  3.464149E+05  1.992372E+05  9.531951E+03  2.800115E+05 -2.011450E+04 -7.897307E+03
       132  26  3.521260E+05  2.015819E+05  3.090170E+02  2.852262E+05 -1.427800E+04 -4.049748E+03
       132  27  3.575980E+05  2.092282E+05 -3.542697E+03  2.904264E+05 -8.312356E+03 -3.741071E+02
       133   1  4.514871E+05  2.737244E+05  1.810824E+04  3.368740E+05  5.189786E+03 -1.423191E+03
       133   2  4.449757E+05  2.671164E+05  1.421384E+04  3.327133E+05  2.734471E+03 -2.355626E+03
       133   3  4.362398E+05  2.633471E+05  1.201840E+04  3.293741E+05  2.713452E+02 -3.277523E+03
       133   4  4.072800E+05  2.429796E+05  7.071332E+03  3.147204E+05  6.045478E+03 -7.817895E+02
       133   5  4.083864E+05  2.415480E+05  5.060032E+03  3.143205E+05  3.605901E+03 -1.702407E+03
