
 stresses (elem, integ.pnt.,sxx,syy,szz,sxy,sxz,syz) for set ELALL and time  0.1000000E+01

         1   1  1.409293E+06  8.744002E+04  9.391842E+04  5.851546E+04  6.513652E+04  6.126067E+00
         1   2  1.402767E+06  2.795619E+04  4.766532E+04  2.968172E+04  4.076815E+04  1.944903E+00
         1   3  1.409345E+06  8.237974E+03  2.719408E+04  8.481671E+02  1.639949E+04  2.235600E-02
         1   4  1.409289E+06  8.743360E+04  9.391750E+04 -3.661309E-10  6.513652E+04 -4.614932E-12
         1   5  1.402766E+06  2.795454E+04  4.766508E+04  1.538612E-09  4.076815E+04 -6.717480E-12
         1   6  1.409345E+06  8.237972E+03  2.719408E+04 -6.300384E-11  1.639949E+04  2.759878E-11
         1   7  1.409293E+06  8.744002E+04  9.391842E+04 -5.851546E+04  6.513652E+04 -6.126067E+00
         1   8  1.402767E+06  2.795619E+04  4.766532E+04 -2.968172E+04  4.076815E+04 -1.944903E+00
         1   9  1.409345E+06  8.237974E+03  2.719408E+04 -8.481671E+02  1.639949E+04 -2.235600E-02
         1  10  1.409288E+06  8.743888E+04  9.391047E+04  5.851546E+04  1.117042E-10 -9.358098E-12
         1  11  1.402765E+06  2.795574E+04  4.766220E+04  2.968172E+04  4.996498E-10  4.397174E-12
         1  12  1.409344E+06  8.237902E+03  2.719358E+04  8.481671E+02  6.311177E-10 -1.762423E-10
         1  13  1.409285E+06  8.743246E+04  9.390955E+04  1.768911E-10  2.862540E-10  5.393552E-12
         1  14  1.402764E+06  2.795409E+04  4.766196E+04  4.715555E-10  2.772364E-10  2.300930E-11
         1  15  1.409344E+06  8.237900E+03  2.719358E+04  8.430936E-11  3.567179E-10  3.116383E-11
         1  16  1.409288E+06  8.743888E+04  9.391047E+04 -5.851546E+04 -1.694938E-10 -1.906709E-11
         1  17  1.402765E+06  2.795574E+04  4.766220E+04 -2.968172E+04 -3.044538E-10  7.307150E-11
         1  18  1.409344E+06  8.237902E+03  2.719358E+04 -8.481671E+02 -5.942492E-11  2.231388E-10
         1  19  1.409293E+06  8.744002E+04  9.391842E+04  5.851546E+04 -6.513652E+04 -6.126067E+00
         1  20  1.402767E+06  2.795619E+04  4.766532E+04  2.968172E+04 -4.076815E+04 -1.944903E+00
         1  21  1.409345E+06  8.237974E+03  2.719408E+04  8.481671E+02 -1.639949E+04 -2.235600E-02
         1  22  1.409289E+06  8.743360E+04  9.391750E+04 -8.628250E-10 -6.513652E+04  2.409161E-11
         1  23  1.402766E+06  2.795454E+04  4.766508E+04 -5.933972E-10 -4.076815E+04  6.051388E-11
         1  24  1.409345E+06  8.237972E+03  2.719408E+04 -1.468924E-09 -1.639949E+04  3.726072E-11
         1  25  1.409293E+06  8.744002E+04  9.391842E+04 -5.851546E+04 -6.513652E+04  6.126067E+00
         1  26  1.402767E+06  2.795619E+04  4.766532E+04 -2.968172E+04 -4.076815E+04  1.944903E+00
         1  27  1.409345E+06  8.237974E+03  2.719408E+04 -8.481671E+02 -1.639949E+04  2.235600E-02
         2   1  1.406851E+06  6.372112E+03  2.148357E+04  3.753562E+03  1.272584E+04  7.677394E-02
         2   2  1.405908E+06  1.780686E+03  1.473010E+04  1.748191E+03  5.370323E+03  1.508945E-02
         2   3  1.406856E+06  9.357145E+02  1.369414E+04 -2.571807E+02 -1.985177E+03  8.205802E-04
         2   4  1.406851E+06  6.372086E+03  2.148357E+04  8.760279E-10  1.272584E+04  6.852611E-11
         2   5  1.405908E+06  1.780680E+03  1.473010E+04  1.009284E-10  5.370323E+03  1.226334E-10
         2   6  1.406856E+06  9.357144E+02  1.369414E+04 -1.078265E-09 -1.985177E+03  2.601522E-10
         2   7  1.406851E+06  6.372112E+03  2.148357E+04 -3.753562E+03  1.272584E+04 -7.677394E-02
         2   8  1.405908E+06  1.780686E+03  1.473010E+04 -1.748191E+03  5.370323E+03 -1.508945E-02
         2   9  1.406856E+06  9.357145E+02  1.369414E+04  2.571807E+02 -1.985177E+03 -8.205797E-04
         2  10  1.406851E+06  6.372069E+03  2.148327E+04  3.753562E+03  6.743020E-10 -1.171957E-10
         2  11  1.405908E+06  1.780678E+03  1.473005E+04  1.748191E+03  3.202465E-10 -3.937091E-11
         2  12  1.406856E+06  9.357134E+02  1.369413E+04 -2.571807E+02  4.484251E-11 -7.679360E-12
         2  13  1.406851E+06  6.372042E+03  2.148326E+04  9.181439E-10  2.377284E-10  3.569986E-11
         2  14  1.405908E+06  1.780673E+03  1.473005E+04  1.009279E-10  2.070671E-10  6.177674E-11
         2  15  1.406856E+06  9.357133E+02  1.369413E+04 -2.448485E-10  2.967309E-11  6.598680E-11
         2  16  1.406851E+06  6.372069E+03  2.148327E+04 -3.753562E+03 -9.338590E-11  2.061639E-10
         2  17  1.405908E+06  1.780678E+03  1.473005E+04 -1.748191E+03 -3.597882E-10  1.853691E-10
         2  18  1.406856E+06  9.357134E+02  1.369413E+04  2.571807E+02 -2.405282E-10  9.484866E-11
         2  19  1.406851E+06  6.372112E+03  2.148357E+04  3.753562E+03 -1.272584E+04 -7.677394E-02
         2  20  1.405908E+06  1.780686E+03  1.473010E+04  1.748191E+03 -5.370323E+03 -1.508945E-02
         2  21  1.406856E+06  9.357145E+02  1.369414E+04 -2.571807E+02  1.985177E+03 -8.205802E-04
         2  22  1.406851E+06  6.372086E+03  2.148357E+04 -6.855913E-10 -1.272584E+04  1.486736E-11
         2  23  1.405908E+06  1.780680E+03  1.473010E+04 -1.431967E-10 -5.370323E+03 -7.707122E-12
         2  24  1.406856E+06  9.357144E+02  1.369414E+04 -1.090919E-09  1.985177E+03 -1.105933E-10
         2  25  1.406851E+06  6.372112E+03  2.148357E+04 -3.753562E+03 -1.272584E+04  7.677394E-02
         2  26  1.405908E+06  1.780686E+03  1.473010E+04 -1.748191E+03 -5.370323E+03  1.508945E-02
         2  27  1.406856E+06  9.357145E+02  1.369414E+04  2.571807E+02  1.985177E+03  8.205800E-04
         3   1  1.407081E+06  1.012062E+03  1.483336E+04  6.460616E+02 -4.416128E+03 -4.585627E-03
         3   2  1.405624E+06  3.191462E+03  2.101353E+04 -2.870394E+03 -1.492578E+04  6.885937E-02
         3   3  1.407070E+06  1.152641E+04  3.556383E+04 -6.386788E+03 -2.543537E+04  2.610986E-01
         3   4  1.407081E+06  1.012061E+03  1.483336E+04 -6.741731E-10 -4.416128E+03  2.099712E-10
         3   5  1.405624E+06  3.191447E+03  2.101352E+04  1.892205E-10 -1.492578E+04  1.073917E-11
         3   6  1.407070E+06  1.152633E+04  3.556381E+04  9.287126E-11 -2.543537E+04  1.268998E-10
         3   7  1.407081E+06  1.012062E+03  1.483336E+04 -6.460616E+02 -4.416128E+03  4.585628E-03
         3   8  1.405624E+06  3.191462E+03  2.101353E+04  2.870394E+03 -1.492578E+04 -6.885937E-02
         3   9  1.407070E+06  1.152641E+04  3.556383E+04  6.386788E+03 -2.543537E+04 -2.610986E-01
         3  10  1.407081E+06  1.012057E+03  1.483332E+04  6.460616E+02 -4.062686E-11  1.162123E-11
         3  11  1.405623E+06  3.191402E+03  2.101311E+04 -2.870394E+03  2.747086E-10  4.474968E-11
         3  12  1.407069E+06  1.152623E+04  3.556261E+04 -6.386788E+03 -4.462456E-11  8.243913E-11
         3  13  1.407081E+06  1.012056E+03  1.483332E+04 -7.641977E-11 -4.847745E-11  8.391626E-11
         3  14  1.405623E+06  3.191387E+03  2.101311E+04  9.763451E-10  1.684688E-11  9.390421E-11
         3  15  1.407069E+06  1.152616E+04  3.556260E+04  4.885141E-10  1.680978E-11  3.002845E-11
         3  16  1.407081E+06  1.012057E+03  1.483332E+04 -6.460616E+02 -2.499163E-10  1.457302E-10
         3  17  1.405623E+06  3.191402E+03  2.101311E+04  2.870394E+03 -3.312025E-11  1.595208E-10
         3  18  1.407069E+06  1.152623E+04  3.556261E+04  6.386788E+03 -3.402076E-10  1.752725E-11
         3  19  1.407081E+06  1.012062E+03  1.483336E+04  6.460616E+02  4.416128E+03  4.585627E-03
         3  20  1.405624E+06  3.191462E+03  2.101353E+04 -2.870394E+03  1.492578E+04 -6.885937E-02
         3  21  1.407070E+06  1.152641E+04  3.556383E+04 -6.386788E+03  2.543537E+04 -2.610986E-01
         3  22  1.407081E+06  1.012061E+03  1.483336E+04 -1.166633E-09  4.416128E+03 -6.664599E-11
         3  23  1.405624E+06  3.191447E+03  2.101352E+04  5.469858E-10  1.492578E+04  1.679745E-10
         3  24  1.407070E+06  1.152633E+04  3.556381E+04  3.805480E-11  2.543537E+04 -6.701025E-11
         3  25  1.407081E+06  1.012062E+03  1.483336E+04 -6.460616E+02  4.416128E+03 -4.585627E-03
         3  26  1.405624E+06  3.191462E+03  2.101353E+04  2.870394E+03  1.492578E+04  6.885937E-02
         3  27  1.407070E+06  1.152641E+04  3.556383E+04  6.386788E+03  2.543537E+04  2.610986E-01
         4   1  1.411639E+06  1.485790E+04  4.662943E+04 -1.274788E+03 -3.156705E+04  6.467752E-02
         4   2  1.399868E+06  5.025114E+04  8.455945E+04 -5.308182E+04 -7.480967E+04  6.382562E+00
         4   3  1.411550E+06  1.570073E+05  1.684421E+05 -1.048916E+05 -1.180532E+05  1.990251E+01
         4   4  1.411639E+06  1.485790E+04  4.662943E+04 -7.954782E-10 -3.156705E+04  1.970404E-10
         4   5  1.399865E+06  5.024586E+04  8.455870E+04 -1.471573E-10 -7.480967E+04  1.135171E-10
         4   6  1.411538E+06  1.569866E+05  1.684392E+05 -1.386765E-10 -1.180532E+05  5.434694E-11
         4   7  1.411639E+06  1.485790E+04  4.662943E+04  1.274788E+03 -3.156705E+04 -6.467752E-02
         4   8  1.399868E+06  5.025114E+04  8.455945E+04  5.308182E+04 -7.480967E+04 -6.382562E+00
         4   9  1.411550E+06  1.570073E+05  1.684421E+05  1.048916E+05 -1.180532E+05 -1.990251E+01
         4  10  1.411638E+06  1.485763E+04  4.662756E+04 -1.274788E+03  6.462215E-11  3.145606E-11
         4  11  1.399862E+06  5.024964E+04  8.454896E+04 -5.308182E+04  5.644710E-10  2.351771E-11
         4  12  1.411535E+06  1.570035E+05  1.684160E+05 -1.048916E+05  4.513223E-10  1.015356E-11
         4  13  1.411638E+06  1.485763E+04  4.662756E+04  2.611227E-10  2.808679E-10  2.650407E-11
         4  14  1.399859E+06  5.024436E+04  8.454820E+04  5.894795E-10 -1.967093E-10  6.831316E-11
         4  15  1.411523E+06  1.569829E+05  1.684130E+05  4.548287E-10  6.494950E-11  2.607452E-11
         4  16  1.411638E+06  1.485763E+04  4.662756E+04  1.274788E+03  2.247062E-10  1.076021E-11
         4  17  1.399862E+06  5.024964E+04  8.454896E+04  5.308182E+04 -5.441600E-10  6.836926E-11
         4  18  1.411535E+06  1.570035E+05  1.684160E+05  1.048916E+05 -4.553728E-10  2.700647E-11
         4  19  1.411639E+06  1.485790E+04  4.662943E+04 -1.274788E+03  3.156705E+04 -6.467752E-02
         4  20  1.399868E+06  5.025114E+04  8.455945E+04 -5.308182E+04  7.480967E+04 -6.382562E+00
         4  21  1.411550E+06  1.570073E+05  1.684421E+05 -1.048916E+05  1.180532E+05 -1.990251E+01
         4  22  1.411639E+06  1.485790E+04  4.662943E+04 -5.806823E-10  3.156705E+04 -1.406011E-10
         4  23  1.399865E+06  5.024586E+04  8.455870E+04 -4.165463E-10  7.480967E+04  1.691374E-11
         4  24  1.411538E+06  1.569866E+05  1.684392E+05 -5.807888E-10  1.180532E+05 -3.612459E-12
         4  25  1.411639E+06  1.485790E+04  4.662943E+04  1.274788E+03  3.156705E+04  6.467752E-02
         4  26  1.399868E+06  5.025114E+04  8.455945E+04  5.308182E+04  7.480967E+04  6.382562E+00
         4  27  1.411550E+06  1.570073E+05  1.684421E+05  1.048916E+05  1.180532E+05  1.990251E+01
         5   1 -5.363680E+05 -1.330629E+06 -5.241841E+05  5.073028E+05 -1.876198E+04 -2.155298E+05
         5   2 -3.578606E+05 -9.732970E+05 -3.171744E+05  4.396352E+05 -5.849052E+04 -1.034214E+05
         5   3 -2.465568E+05 -6.471954E+05 -2.000353E+05  4.299127E+05 -6.100454E+04  8.763976E+03
         5   4 -1.174889E+05  3.651812E+05 -1.261279E+05  4.298878E+05 -1.863508E+04 -8.961598E+04
         5   5 -3.740408E+04  3.739958E+05 -6.233574E+04  4.008643E+05 -5.843065E+04 -5.767656E+04
         5   6 -1.050278E+04  3.654647E+05 -3.261751E+04  4.298022E+05 -6.103491E+04 -2.573070E+04
         5   7  3.012168E+05  2.063690E+06  2.717946E+05  3.522584E+05 -1.853992E+04  3.664051E+04
         5   8  2.829535E+05  1.723050E+06  1.924313E+05  3.620062E+05 -5.837659E+04 -1.183469E+04
         5   9  2.254989E+05  1.379141E+06  1.347743E+05  4.296909E+05 -6.106523E+04 -6.027974E+04
         5  10 -5.363809E+05 -1.330679E+06 -5.242722E+05  5.072995E+05 -6.644867E-11  3.395417E-10
         5  11 -3.578672E+05 -9.733095E+05 -3.172009E+05  4.396303E+05  6.042211E-10  3.547287E-10
         5  12 -2.465608E+05 -6.471965E+05 -2.000424E+05  4.299132E+05  1.904009E-10  4.145708E-10
         5  13 -1.174915E+05  3.651725E+05 -1.261436E+05  4.298865E+05  3.147991E-10  8.523710E-12
         5  14 -3.740863E+04  3.739913E+05 -6.234839E+04  4.008616E+05  4.827720E-10 -2.292389E-11
         5  15 -1.050695E+04  3.654630E+05 -3.262575E+04  4.298009E+05 -1.437225E-11 -2.510231E-11
         5  16  3.012161E+05  2.063688E+06  2.717914E+05  3.522590E+05 -1.989207E-10 -3.284328E-10
         5  17  2.829498E+05  1.723049E+06  1.924247E+05  3.620056E+05  1.286127E-10 -3.456864E-10
         5  18  2.254939E+05  1.379137E+06  1.347604E+05  4.296879E+05  5.507846E-10 -4.214426E-10
         5  19 -5.363680E+05 -1.330629E+06 -5.241841E+05  5.073028E+05  1.876198E+04  2.155298E+05
         5  20 -3.578606E+05 -9.732970E+05 -3.171744E+05  4.396352E+05  5.849052E+04  1.034214E+05
         5  21 -2.465568E+05 -6.471954E+05 -2.000353E+05  4.299127E+05  6.100454E+04 -8.763976E+03
         5  22 -1.174889E+05  3.651812E+05 -1.261279E+05  4.298878E+05  1.863508E+04  8.961598E+04
         5  23 -3.740408E+04  3.739958E+05 -6.233574E+04  4.008643E+05  5.843065E+04  5.767656E+04
         5  24 -1.050278E+04  3.654647E+05 -3.261751E+04  4.298022E+05  6.103491E+04  2.573070E+04
         5  25  3.012168E+05  2.063690E+06  2.717946E+05  3.522584E+05  1.853992E+04 -3.664051E+04
         5  26  2.829535E+05  1.723050E+06  1.924313E+05  3.620062E+05  5.837659E+04  1.183469E+04
         5  27  2.254989E+05  1.379141E+06  1.347743E+05  4.296909E+05  6.106523E+04  6.027974E+04
         6   1 -1.929978E+05 -4.278377E+05 -1.521634E+05  4.342727E+05 -5.015272E+04  1.339936E+04
         6   2 -1.055752E+05 -8.522879E+04 -7.760372E+04  4.023536E+05 -3.277157E+04  2.333699E+04
         6   3 -2.214094E+04  2.551531E+05 -1.053775E+04  4.309308E+05 -1.309590E+04  3.327366E+04
         6   4 -7.881529E+03  3.690633E+05 -2.347492E+04  4.303668E+05 -5.018962E+04 -2.163910E+04
         6   5 -1.054101E+03  3.698520E+05 -9.977637E+03  4.001139E+05 -3.281984E+04 -1.665753E+04
         6   6  2.653770E+03  3.691646E+05 -5.264094E+02  4.303553E+05 -1.315647E+04 -1.168210E+04
         6   7  1.772034E+05  1.166597E+06  1.052009E+05  4.264553E+05 -5.022605E+04 -5.672095E+04
         6   8  1.034582E+05  8.251444E+05  5.765059E+04  3.978723E+05 -3.286779E+04 -5.668018E+04
         6   9  2.744918E+04  4.831944E+05  9.492869E+03  4.297796E+05 -1.321694E+04 -5.664559E+04
         6  10 -1.930006E+05 -4.278386E+05 -1.521685E+05  4.342732E+05  8.012759E-11 -4.609736E-10
         6  11 -1.055765E+05 -8.522967E+04 -7.760677E+04  4.023543E+05 -7.426017E-10 -2.007875E-10
         6  12 -2.214142E+04  2.551518E+05 -1.054015E+04  4.309312E+05  2.051231E-10  2.241720E-10
         6  13 -7.884359E+03  3.690621E+05 -2.348053E+04  4.303659E+05 -2.504117E-10  8.174585E-12
         6  14 -1.055331E+03  3.698514E+05 -9.980181E+03  4.001134E+05 -1.231469E-10 -5.898223E-11
         6  15  2.653547E+03  3.691644E+05 -5.269906E+02  4.303551E+05  2.021459E-11  3.198383E-11
         6  16  1.771998E+05  1.166593E+06  1.051901E+05  4.264530E+05  3.504571E-10  5.397432E-10
         6  17  1.034561E+05  8.251407E+05  5.764253E+04  3.978708E+05 -2.550344E-10  1.809041E-10
         6  18  2.744813E+04  4.831909E+05  9.486518E+03  4.297790E+05  3.336422E-10 -2.585374E-10
         6  19 -1.929978E+05 -4.278377E+05 -1.521634E+05  4.342727E+05  5.015272E+04 -1.339936E+04
         6  20 -1.055752E+05 -8.522879E+04 -7.760372E+04  4.023536E+05  3.277157E+04 -2.333699E+04
         6  21 -2.214094E+04  2.551531E+05 -1.053775E+04  4.309308E+05  1.309590E+04 -3.327366E+04
         6  22 -7.881529E+03  3.690633E+05 -2.347492E+04  4.303668E+05  5.018962E+04  2.163910E+04
         6  23 -1.054101E+03  3.698520E+05 -9.977637E+03  4.001139E+05  3.281984E+04  1.665753E+04
         6  24  2.653770E+03  3.691646E+05 -5.264094E+02  4.303553E+05  1.315647E+04  1.168210E+04
         6  25  1.772034E+05  1.166597E+06  1.052009E+05  4.264553E+05  5.022605E+04  5.672095E+04
         6  26  1.034582E+05  8.251444E+05  5.765059E+04  3.978723E+05  3.286779E+04  5.668018E+04
         6  27  2.744918E+04  4.831944E+05  9.492869E+03  4.297796E+05  1.321694E+04  5.664559E+04
         7   1  2.870633E+04  4.713230E+05  2.932373E+04  4.302924E+05 -1.590305E+02  3.292720E+04
         7   2  1.174367E+05  8.073910E+05  1.081591E+05  4.112706E+05  1.148281E+04 -1.347053E+04
         7   3  2.272387E+05  1.154812E+06  2.224174E+05  4.517288E+05  5.134540E+03 -5.988732E+04
         7   4  3.453945E+03  3.704962E+05  3.841091E+03  4.301316E+05 -2.195697E+02 -1.181067E+04
         7   5  1.091458E+04  3.681878E+05  1.460235E+04  4.003777E+05  1.147625E+04 -1.931566E+04
         7   6  3.271622E+04  3.703913E+05  3.380471E+04  4.301019E+05  5.177628E+03 -2.681457E+04
         7   7 -2.179814E+04  2.696830E+05 -2.163481E+04  4.299709E+05 -2.800924E+02 -5.654128E+04
         7   8 -9.561960E+04 -7.083360E+04 -7.896528E+04  3.894924E+05  1.146988E+04 -2.515670E+04
         7   9 -1.618488E+05 -4.134636E+05 -1.548474E+05  4.085020E+05  5.218454E+03  6.216631E+03
         7  10  2.870604E+04  4.713219E+05  2.932170E+04  4.302924E+05  1.205071E-10  6.458678E-10
         7  11  1.174365E+05  8.073908E+05  1.081585E+05  4.112708E+05  2.646414E-10  6.288001E-11
         7  12  2.272377E+05  1.154808E+06  2.224106E+05  4.517291E+05  1.013505E-10 -6.600382E-10
         7  13  3.453907E+03  3.704961E+05  3.840828E+03  4.301316E+05 -1.212086E-10 -2.519738E-11
         7  14  1.091433E+04  3.681874E+05  1.460140E+04  4.003778E+05  1.538397E-10 -3.379084E-11
         7  15  3.271600E+04  3.703906E+05  3.380331E+04  4.301020E+05 -3.347236E-10  1.455496E-11
         7  16 -2.179900E+04  2.696795E+05 -2.164082E+04  4.299709E+05  1.754152E-10 -6.805685E-10
         7  17 -9.561991E+04 -7.083431E+04 -7.896671E+04  3.894926E+05  5.258441E-10 -1.030945E-10
         7  18 -1.618488E+05 -4.134637E+05 -1.548475E+05  4.085020E+05  1.050428E-10  6.541949E-10
         7  19  2.870633E+04  4.713230E+05  2.932373E+04  4.302924E+05  1.590305E+02 -3.292720E+04
         7  20  1.174367E+05  8.073910E+05  1.081591E+05  4.112706E+05 -1.148281E+04  1.347053E+04
         7  21  2.272387E+05  1.154812E+06  2.224174E+05  4.517288E+05 -5.134540E+03  5.988732E+04
         7  22  3.453945E+03  3.704962E+05  3.841091E+03  4.301316E+05  2.195697E+02  1.181067E+04
         7  23  1.091458E+04  3.681878E+05  1.460235E+04  4.003777E+05 -1.147625E+04  1.931566E+04
         7  24  3.271622E+04  3.703913E+05  3.380471E+04  4.301019E+05 -5.177628E+03  2.681457E+04
         7  25 -2.179814E+04  2.696830E+05 -2.163481E+04  4.299709E+05  2.800924E+02  5.654128E+04
         7  26 -9.561960E+04 -7.083360E+04 -7.896528E+04  3.894924E+05 -1.146988E+04  2.515670E+04
         7  27 -1.618488E+05 -4.134636E+05 -1.548474E+05  4.085020E+05 -5.218454E+03 -6.216631E+03
         8   1  3.442541E+05  2.098093E+04 -1.136345E+05  2.729623E+05 -2.904348E+04 -1.203494E+04
         8   2  4.002142E+05  4.881234E+04 -8.436960E+04  3.079378E+05 -2.317709E+04  1.485931E+04
         8   3  4.716429E+05  6.977262E+04 -6.639509E+04  3.347307E+05 -9.140584E+03  3.086534E+04
         8   4  8.248067E+05  3.281754E+05  3.328045E+04  4.957882E+05  1.386245E+04  2.013282E+04
         8   5  8.094863E+05  3.200800E+05  1.681564E+04  5.066282E+05 -3.808485E+03  2.937565E+04
         8   6  8.147297E+05  3.102107E+05  9.471067E+03  5.092841E+05 -1.331485E+04  2.773419E+04
         8   7  1.305600E+06  6.354614E+05  1.801759E+05  7.187952E+05  5.681286E+04  5.232945E+04
         8   8  1.218945E+06  5.914307E+05  1.179890E+05  7.054631E+05  1.557707E+04  4.390369E+04
         8   9  1.157955E+06  5.507213E+05  8.533129E+04  6.839495E+05 -1.749218E+04  2.460075E+04
         8  10  3.442532E+05  2.098055E+04 -1.136364E+05  2.729620E+05  3.145324E-10  1.442938E-10
         8  11  4.002136E+05  4.881196E+04 -8.437102E+04  3.079380E+05 -3.177850E-10  1.075505E-10
         8  12  4.716426E+05  6.977157E+04 -6.639704E+04  3.347310E+05  9.578539E-10  1.940434E-11
         8  13  8.248064E+05  3.281749E+05  3.327933E+04  4.957880E+05  2.660744E-10 -1.386503E-11
         8  14  8.094861E+05  3.200791E+05  1.681399E+04  5.066283E+05 -7.389692E-10 -9.185941E-11
         8  15  8.147293E+05  3.102098E+05  9.469287E+03  5.092844E+05 -5.732297E-10 -1.344560E-10
         8  16  1.305596E+06  6.354576E+05  1.801647E+05  7.187928E+05 -1.298263E-10 -1.673408E-10
         8  17  1.218945E+06  5.914285E+05  1.179849E+05  7.054625E+05  3.366723E-10 -3.047172E-10
         8  18  1.157954E+06  5.507205E+05  8.532958E+04  6.839499E+05 -6.494436E-10 -2.490420E-10
         8  19  3.442541E+05  2.098093E+04 -1.136345E+05  2.729623E+05  2.904348E+04  1.203494E+04
         8  20  4.002142E+05  4.881234E+04 -8.436960E+04  3.079378E+05  2.317709E+04 -1.485931E+04
         8  21  4.716429E+05  6.977262E+04 -6.639509E+04  3.347307E+05  9.140584E+03 -3.086534E+04
         8  22  8.248067E+05  3.281754E+05  3.328045E+04  4.957882E+05 -1.386245E+04 -2.013282E+04
         8  23  8.094863E+05  3.200800E+05  1.681564E+04  5.066282E+05  3.808485E+03 -2.937565E+04
         8  24  8.147297E+05  3.102107E+05  9.471067E+03  5.092841E+05  1.331485E+04 -2.773419E+04
         8  25  1.305600E+06  6.354614E+05  1.801759E+05  7.187952E+05 -5.681286E+04 -5.232945E+04
         8  26  1.218945E+06  5.914307E+05  1.179890E+05  7.054631E+05 -1.557707E+04 -4.390369E+04
         8  27  1.157955E+06  5.507213E+05  8.533129E+04  6.839495E+05  1.749218E+04 -2.460075E+04
         9   1  5.065285E+05  9.556921E+04 -5.866656E+04  3.531896E+05 -8.819590E+03  2.867979E+04
         9   2  5.571629E+05  1.410875E+05 -4.614443E+04  3.846159E+05 -5.899575E+03  2.670306E+04
         9   3  6.214290E+05  1.735740E+05 -3.422150E+04  4.118483E+05 -1.997777E+03  2.341542E+04
         9   4  8.141259E+05  3.092661E+05  7.381420E+03  5.091083E+05 -1.316567E+04  2.542050E+04
         9   5  8.066305E+05  3.147972E+05  4.791897E+03  5.117248E+05 -1.308077E+04  2.132019E+04
         9   6  8.133742E+05  3.079084E+05  4.059164E+03  5.101440E+05 -1.201453E+04  1.590929E+04
         9   7  1.121843E+06  5.230259E+05  7.342769E+04  6.651203E+05 -1.751471E+04  2.215902E+04
         9   8  1.056173E+06  4.885458E+05  5.572635E+04  6.388935E+05 -2.026580E+04  1.593447E+04
         9   9  1.005360E+06  4.422633E+05  4.233777E+04  6.084733E+05 -2.203517E+04  8.400265E+03
         9  10  5.065282E+05  9.556830E+04 -5.866825E+04  3.531898E+05  1.394278E-10 -1.516172E-10
         9  11  5.571627E+05  1.410868E+05 -4.614583E+04  3.846160E+05 -1.108549E-10 -2.839909E-11
         9  12  6.214289E+05  1.735734E+05 -3.422254E+04  4.118483E+05 -5.290282E-10  1.145647E-10
         9  13  8.141256E+05  3.092654E+05  7.379879E+03  5.091086E+05 -1.032987E-09 -1.478348E-10
         9  14  8.066302E+05  3.147966E+05  4.790721E+03  5.117251E+05 -1.096472E-11  8.227889E-11
         9  15  8.133740E+05  3.079081E+05  4.058416E+03  5.101441E+05  2.935184E-11  3.320395E-10
         9  16  1.121842E+06  5.230253E+05  7.342619E+04  6.651206E+05 -2.224728E-10 -5.169562E-11
         9  17  1.056172E+06  4.885454E+05  5.572510E+04  6.388938E+05 -7.172733E-10  1.786859E-10
         9  18  1.005359E+06  4.422630E+05  4.233673E+04  6.084734E+05  7.132175E-11  5.511513E-10
         9  19  5.065285E+05  9.556921E+04 -5.866656E+04  3.531896E+05  8.819590E+03 -2.867979E+04
         9  20  5.571629E+05  1.410875E+05 -4.614443E+04  3.846159E+05  5.899575E+03 -2.670306E+04
         9  21  6.214290E+05  1.735740E+05 -3.422150E+04  4.118483E+05  1.997777E+03 -2.341542E+04
         9  22  8.141259E+05  3.092661E+05  7.381420E+03  5.091083E+05  1.316567E+04 -2.542050E+04
         9  23  8.066305E+05  3.147972E+05  4.791897E+03  5.117248E+05  1.308077E+04 -2.132019E+04
         9  24  8.133742E+05  3.079084E+05  4.059164E+03  5.101440E+05  1.201453E+04 -1.590929E+04
         9  25  1.121843E+06  5.230259E+05  7.342769E+04  6.651203E+05  1.751471E+04 -2.215902E+04
         9  26  1.056173E+06  4.885458E+05  5.572635E+04  6.388935E+05  2.026580E+04 -1.593447E+04
         9  27  1.005360E+06  4.422633E+05  4.233777E+04  6.084733E+05  2.203517E+04 -8.400265E+03
        10   1  6.569428E+05  1.987620E+05 -2.658351E+04  4.301565E+05 -4.974958E+02  2.024374E+04
        10   2  7.071179E+05  2.452752E+05 -1.380025E+04  4.611927E+05  9.699682E+02  1.404603E+04
        10   3  7.712914E+05  2.787991E+05  7.709383E+02  4.882499E+05  2.486558E+03  7.781577E+03
        10   4  8.133637E+05  3.078524E+05  4.194104E+03  5.101452E+05 -1.053172E+04  1.272521E+04
        10   5  8.064483E+05  3.145039E+05  5.487772E+03  5.120102E+05 -9.209079E+03  6.419619E+03
        10   6  8.135587E+05  3.081952E+05  8.694033E+03  5.098930E+05 -7.837086E+03  4.741456E+01
        10   7  9.698144E+05  4.169585E+05  3.497167E+04  5.901578E+05 -2.056929E+04  5.204176E+03
        10   8  9.057922E+05  3.837400E+05  2.477657E+04  5.628380E+05 -1.939040E+04 -1.208492E+03
        10   9  8.558294E+05  3.375933E+05  1.661807E+04  5.315385E+05 -1.816190E+04 -7.687618E+03
        10  10  6.569427E+05  1.987616E+05 -2.658428E+04  4.301565E+05  2.489478E-10  5.970914E-10
        10  11  7.071179E+05  2.452749E+05 -1.380062E+04  4.611927E+05  1.874194E-10  4.133475E-10
        10  12  7.712914E+05  2.787990E+05  7.708130E+02  4.882499E+05  8.631930E-10  2.651678E-10
        10  13  8.133635E+05  3.078521E+05  4.193591E+03  5.101454E+05 -1.733226E-10  3.346935E-10
        10  14  8.064482E+05  3.145038E+05  5.487536E+03  5.120102E+05  5.689992E-10  2.176574E-10
        10  15  8.135586E+05  3.081951E+05  8.693918E+03  5.098930E+05  1.950571E-10 -1.112184E-10
        10  16  9.698140E+05  4.169583E+05  3.497083E+04  5.901579E+05 -2.771443E-10  1.773079E-10
        10  17  9.057918E+05  3.837399E+05  2.477587E+04  5.628380E+05 -4.324871E-10 -2.547849E-11
        10  18  8.558291E+05  3.375932E+05  1.661734E+04  5.315384E+05 -4.212132E-10 -4.424140E-10
        10  19  6.569428E+05  1.987620E+05 -2.658351E+04  4.301565E+05  4.974958E+02 -2.024374E+04
        10  20  7.071179E+05  2.452752E+05 -1.380025E+04  4.611927E+05 -9.699682E+02 -1.404603E+04
        10  21  7.712914E+05  2.787991E+05  7.709383E+02  4.882499E+05 -2.486558E+03 -7.781577E+03
        10  22  8.133637E+05  3.078524E+05  4.194104E+03  5.101452E+05  1.053172E+04 -1.272521E+04
        10  23  8.064483E+05  3.145039E+05  5.487772E+03  5.120102E+05  9.209079E+03 -6.419619E+03
        10  24  8.135587E+05  3.081952E+05  8.694033E+03  5.098930E+05  7.837086E+03 -4.741456E+01
        10  25  9.698144E+05  4.169585E+05  3.497167E+04  5.901578E+05  2.056929E+04 -5.204176E+03
        10  26  9.057922E+05  3.837400E+05  2.477657E+04  5.628380E+05  1.939040E+04  1.208492E+03
        10  27  8.558294E+05  3.375933E+05  1.661807E+04  5.315385E+05  1.816190E+04  7.687618E+03
        11   1  8.067546E+05  3.047019E+05  1.068144E+04  5.068237E+05  3.221067E+03  3.943058E+03
        11   2  8.604165E+05  3.490161E+05  3.084318E+04  5.349612E+05 -2.899685E+03 -7.502619E+03
        11   3  9.318674E+05  3.851533E+05  6.026687E+04  5.575751E+05 -9.582336E+03 -1.820043E+04
        11   4  8.139397E+05  3.085081E+05  1.122429E+04  5.100544E+05 -7.092670E+03 -3.783588E+03
        11   5  8.072365E+05  3.163674E+05  1.945559E+04  5.101179E+05 -1.159369E+04 -1.401607E+04
        11   6  8.179697E+05  3.156989E+05  3.554707E+04  5.046558E+05 -1.665554E+04 -2.350003E+04
        11   7  8.211249E+05  3.123145E+05  1.176770E+04  5.132853E+05 -1.740632E+04 -1.151014E+04
        11   8  7.540607E+05  2.837204E+05  8.068529E+03  4.852773E+05 -2.028658E+04 -2.052881E+04
        11   9  7.040875E+05  2.462505E+05  1.082696E+04  4.517471E+05 -2.372699E+04 -2.879855E+04
        11  10  8.067545E+05  3.047018E+05  1.068139E+04  5.068237E+05 -1.320751E-10 -5.424917E-10
        11  11  8.604164E+05  3.490161E+05  3.084306E+04  5.349612E+05 -7.949779E-11  9.840757E-11
        11  12  9.318672E+05  3.851529E+05  6.026607E+04  5.575750E+05  2.471147E-10  3.858819E-10
        11  13  8.139396E+05  3.085081E+05  1.122416E+04  5.100544E+05  5.555355E-10 -5.479668E-11
        11  14  8.072363E+05  3.163671E+05  1.945497E+04  5.101177E+05  5.099746E-10  1.837612E-10
        11  15  8.179693E+05  3.156983E+05  3.554552E+04  5.046555E+05 -2.003510E-10  1.325055E-10
        11  16  8.211245E+05  3.123142E+05  1.176688E+04  5.132851E+05  4.167849E-10  4.808782E-10
        11  17  7.540602E+05  2.837199E+05  8.066966E+03  4.852769E+05 -2.641533E-10  2.681352E-10
        11  18  7.040866E+05  2.462494E+05  1.082434E+04  4.517466E+05 -4.418564E-10 -1.977441E-10
        11  19  8.067546E+05  3.047019E+05  1.068144E+04  5.068237E+05 -3.221067E+03 -3.943058E+03
        11  20  8.604165E+05  3.490161E+05  3.084318E+04  5.349612E+05  2.899685E+03  7.502619E+03
        11  21  9.318674E+05  3.851533E+05  6.026687E+04  5.575751E+05  9.582336E+03  1.820043E+04
        11  22  8.139397E+05  3.085081E+05  1.122429E+04  5.100544E+05  7.092670E+03  3.783588E+03
        11  23  8.072365E+05  3.163674E+05  1.945559E+04  5.101179E+05  1.159369E+04  1.401607E+04
        11  24  8.179697E+05  3.156989E+05  3.554707E+04  5.046558E+05  1.665554E+04  2.350003E+04
        11  25  8.211249E+05  3.123145E+05  1.176770E+04  5.132853E+05  1.740632E+04  1.151014E+04
        11  26  7.540607E+05  2.837204E+05  8.068529E+03  4.852773E+05  2.028658E+04  2.052881E+04
        11  27  7.040875E+05  2.462505E+05  1.082696E+04  4.517471E+05  2.372699E+04  2.879855E+04
        12   1  9.670897E+05  4.196145E+05  8.076177E+04  5.780151E+05 -1.301480E+04 -2.409136E+04
        12   2  1.074105E+06  4.339187E+05  1.397646E+05  5.693457E+05 -6.228941E+04 -6.110863E+04
        12   3  1.239113E+06  4.942858E+05  2.580449E+05  5.330859E+05 -1.163098E+05 -9.181342E+04
        12   4  8.221437E+05  3.197337E+05  4.734793E+04  5.053319E+05 -1.998478E+04 -2.931380E+04
        12   5  8.210507E+05  3.452694E+05  8.711369E+04  4.838000E+05 -5.558572E+04 -5.609574E+04
        12   6  8.749857E+05  4.139233E+05  1.743243E+05  4.346775E+05 -9.591858E+04 -7.656614E+04
        12   7  6.772189E+05  2.198628E+05  1.393200E+04  4.326666E+05 -2.695274E+04 -3.453476E+04
        12   8  5.680736E+05  2.566294E+05  3.446125E+04  3.982822E+05 -4.888582E+04 -5.108386E+04
        12   9  5.110316E+05  3.335769E+05  9.060583E+04  3.363056E+05 -7.554473E+04 -6.132080E+04
        12  10  9.670894E+05  4.196139E+05  8.076036E+04  5.780149E+05 -2.390337E-10 -1.686157E-10
        12  11  1.074100E+06  4.339136E+05  1.397503E+05  5.693427E+05 -9.551462E-11  1.815479E-11
        12  12  1.239096E+06  4.942731E+05  2.580037E+05  5.330773E+05 -1.492670E-10  9.830799E-11
        12  13  8.221431E+05  3.197327E+05  4.734557E+04  5.053315E+05 -7.930836E-10 -3.723184E-12
        12  14  8.210466E+05  3.452652E+05  8.710199E+04  4.837974E+05 -3.333426E-10  1.447696E-10
        12  15  8.749742E+05  4.139145E+05  1.742961E+05  4.346716E+05 -1.847946E-11 -5.068576E-13
        12  16  6.772178E+05  2.198613E+05  1.392840E+04  4.326659E+05  8.629678E-11  2.053240E-10
        12  17  5.680704E+05  2.566259E+05  3.445187E+04  3.982802E+05  7.613801E-11  1.278347E-10
        12  18  5.110245E+05  3.335713E+05  9.058806E+04  3.363019E+05  8.307043E-11 -2.175419E-11
        12  19  9.670897E+05  4.196145E+05  8.076177E+04  5.780151E+05  1.301480E+04  2.409136E+04
        12  20  1.074105E+06  4.339187E+05  1.397646E+05  5.693457E+05  6.228941E+04  6.110863E+04
        12  21  1.239113E+06  4.942858E+05  2.580449E+05  5.330859E+05  1.163098E+05  9.181342E+04
        12  22  8.221437E+05  3.197337E+05  4.734793E+04  5.053319E+05  1.998478E+04  2.931380E+04
        12  23  8.210507E+05  3.452694E+05  8.711369E+04  4.838000E+05  5.558572E+04  5.609574E+04
        12  24  8.749857E+05  4.139233E+05  1.743243E+05  4.346775E+05  9.591858E+04  7.656614E+04
        12  25  6.772189E+05  2.198628E+05  1.393200E+04  4.326666E+05  2.695274E+04  3.453476E+04
        12  26  5.680736E+05  2.566294E+05  3.446125E+04  3.982822E+05  4.888582E+04  5.108386E+04
        12  27  5.110316E+05  3.335769E+05  9.060583E+04  3.363056E+05  7.554473E+04  6.132080E+04
        13   1  8.678759E+05  5.017390E+04  5.390183E+04  3.357092E+04  3.730300E+04  2.014437E+00
        13   2  8.641220E+05  1.603432E+04  2.740122E+04  1.703366E+04  2.329709E+04  6.383472E-01
        13   3  8.678943E+05  4.720449E+03  1.571670E+04  4.966049E+02  9.291195E+03  7.422098E-03
        13   4  8.678747E+05  5.017178E+04  5.390153E+04 -9.468628E-10  3.730300E+04  6.469254E-11
        13   5  8.641217E+05  1.603378E+04  2.740114E+04 -7.679483E-10  2.329709E+04  1.261051E-10
        13   6  8.678943E+05  4.720448E+03  1.571670E+04 -1.324473E-10  9.291195E+03 -9.736495E-11
        13   7  8.678759E+05  5.017390E+04  5.390183E+04 -3.357092E+04  3.730300E+04 -2.014437E+00
        13   8  8.641220E+05  1.603432E+04  2.740122E+04 -1.703366E+04  2.329709E+04 -6.383472E-01
        13   9  8.678943E+05  4.720449E+03  1.571670E+04 -4.966049E+02  9.291195E+03 -7.422098E-03
        13  10  8.678744E+05  5.017352E+04  5.389922E+04  3.357092E+04 -4.042599E-10  7.350437E-11
        13  11  8.641214E+05  1.603418E+04  2.740020E+04  1.703366E+04 -1.555832E-13  7.976196E-11
        13  12  8.678942E+05  4.720425E+03  1.571653E+04  4.966049E+02  3.087365E-10 -1.655176E-10
        13  13  8.678732E+05  5.017141E+04  5.389892E+04  1.936537E-10 -5.201633E-11  2.921053E-11
        13  14  8.641211E+05  1.603363E+04  2.740012E+04 -1.135737E-10 -3.021769E-11  3.113294E-11
        13  15  8.678942E+05  4.720425E+03  1.571653E+04  3.535456E-10 -4.719718E-11 -1.323963E-10
        13  16  8.678744E+05  5.017352E+04  5.389922E+04 -3.357092E+04  4.530500E-10 -3.994143E-12
        13  17  8.641214E+05  1.603418E+04  2.740020E+04 -1.703366E+04 -9.502050E-12 -4.620719E-11
        13  18  8.678942E+05  4.720425E+03  1.571653E+04 -4.966049E+02 -4.181532E-10 -1.031207E-10
        13  19  8.678759E+05  5.017390E+04  5.390183E+04  3.357092E+04 -3.730300E+04 -2.014437E+00
        13  20  8.641220E+05  1.603432E+04  2.740122E+04  1.703366E+04 -2.329709E+04 -6.383472E-01
        13  21  8.678943E+05  4.720449E+03  1.571670E+04  4.966049E+02 -9.291195E+03 -7.422099E-03
        13  22  8.678747E+05  5.017178E+04  5.390153E+04  1.515996E-10 -3.730300E+04 -6.094613E-12
        13  23  8.641217E+05  1.603378E+04  2.740114E+04  9.658602E-10 -2.329709E+04 -6.580749E-11
        13  24  8.678943E+05  4.720448E+03  1.571670E+04 -4.040392E-10 -9.291195E+03 -1.683046E-10
        13  25  8.678759E+05  5.017390E+04  5.390183E+04 -3.357092E+04 -3.730300E+04  2.014437E+00
        13  26  8.641220E+05  1.603432E+04  2.740122E+04 -1.703366E+04 -2.329709E+04  6.383472E-01
        13  27  8.678943E+05  4.720449E+03  1.571670E+04 -4.966049E+02 -9.291195E+03  7.422098E-03
        14   1  8.664683E+05  3.650192E+03  1.248344E+04  2.170417E+03  7.160364E+03  2.499903E-02
        14   2  8.659132E+05  1.021133E+03  8.737208E+03  1.016345E+03  2.799114E+03  4.576219E-03
        14   3  8.664699E+05  5.717130E+02  8.372319E+03 -1.377105E+02 -1.562065E+03  3.460277E-04
        14   4  8.664683E+05  3.650183E+03  1.248344E+04 -7.956162E-10  7.160364E+03 -2.193227E-10
        14   5  8.659132E+05  1.021131E+03  8.737207E+03  8.078688E-10  2.799114E+03 -2.110211E-10
        14   6  8.664699E+05  5.717130E+02  8.372319E+03  1.535601E-10 -1.562065E+03 -1.691070E-10
        14   7  8.664683E+05  3.650192E+03  1.248344E+04 -2.170417E+03  7.160364E+03 -2.499904E-02
        14   8  8.659132E+05  1.021133E+03  8.737208E+03 -1.016345E+03  2.799114E+03 -4.576219E-03
        14   9  8.664699E+05  5.717130E+02  8.372319E+03  1.377105E+02 -1.562065E+03 -3.460281E-04
        14  10  8.664682E+05  3.650178E+03  1.248334E+04  2.170417E+03 -2.253176E-10 -1.927020E-10
        14  11  8.659132E+05  1.021130E+03  8.737193E+03  1.016345E+03  1.492577E-10 -7.784201E-12
        14  12  8.664699E+05  5.717124E+02  8.372315E+03 -1.377105E+02  3.649626E-10 -1.484419E-11
        14  13  8.664682E+05  3.650169E+03  1.248334E+04 -3.200422E-10  8.646440E-11 -1.905115E-10
        14  14  8.659132E+05  1.021128E+03  8.737193E+03  7.068798E-10 -1.912953E-10 -1.426534E-10
        14  15  8.664699E+05  5.717123E+02  8.372315E+03  9.005446E-10 -1.722207E-11 -1.368508E-10
        14  16  8.664682E+05  3.650178E+03  1.248334E+04 -2.170417E+03  2.895992E-10 -1.903357E-10
        14  17  8.659132E+05  1.021130E+03  8.737193E+03 -1.016345E+03  3.820835E-11 -2.829388E-10
        14  18  8.664699E+05  5.717124E+02  8.372315E+03  1.377105E+02 -2.438729E-10 -2.563533E-10
        14  19  8.664683E+05  3.650192E+03  1.248344E+04  2.170417E+03 -7.160364E+03 -2.499904E-02
        14  20  8.659132E+05  1.021133E+03  8.737208E+03  1.016345E+03 -2.799114E+03 -4.576219E-03
        14  21  8.664699E+05  5.717130E+02  8.372319E+03 -1.377105E+02  1.562065E+03 -3.460278E-04
        14  22  8.664683E+05  3.650183E+03  1.248344E+04 -1.193258E-09 -7.160364E+03 -1.597729E-10
        14  23  8.659132E+05  1.021131E+03  8.737207E+03  6.648049E-10 -2.799114E+03 -7.759160E-11
        14  24  8.664699E+05  5.717130E+02  8.372319E+03 -1.473508E-10  1.562065E+03 -1.076656E-10
        14  25  8.664683E+05  3.650192E+03  1.248344E+04 -2.170417E+03 -7.160364E+03  2.499904E-02
        14  26  8.659132E+05  1.021133E+03  8.737208E+03 -1.016345E+03 -2.799114E+03  4.576219E-03
        14  27  8.664699E+05  5.717130E+02  8.372319E+03  1.377105E+02  1.562065E+03  3.460276E-04
        15   1  8.666324E+05  6.267410E+02  9.195105E+03  4.187339E+02 -3.058451E+03 -2.060081E-03
        15   2  8.657086E+05  2.039699E+03  1.327568E+04 -1.826199E+03 -9.697423E+03  2.848721E-02
        15   3  8.666278E+05  7.372703E+03  2.265422E+04 -4.071162E+03 -1.633653E+04  1.069851E-01
        15   4  8.666324E+05  6.267407E+02  9.195105E+03 -2.168540E-10 -3.058451E+03 -9.464139E-11
        15   5  8.657086E+05  2.039692E+03  1.327568E+04 -1.688656E-11 -9.697423E+03  4.780819E-11
        15   6  8.666278E+05  7.372672E+03  2.265421E+04 -1.956771E-10 -1.633653E+04  7.823679E-11
        15   7  8.666324E+05  6.267410E+02  9.195105E+03 -4.187339E+02 -3.058451E+03  2.060081E-03
        15   8  8.657086E+05  2.039699E+03  1.327568E+04  1.826199E+03 -9.697423E+03 -2.848721E-02
        15   9  8.666278E+05  7.372703E+03  2.265422E+04  4.071162E+03 -1.633653E+04 -1.069851E-01
        15  10  8.666324E+05  6.267385E+02  9.195088E+03  4.187339E+02 -3.496653E-10 -1.051173E-11
        15  11  8.657085E+05  2.039673E+03  1.327551E+04 -1.826199E+03  1.824206E-10  3.505040E-11
        15  12  8.666275E+05  7.372631E+03  2.265372E+04 -4.071162E+03  3.359047E-10 -3.505891E-11
        15  13  8.666324E+05  6.267382E+02  9.195088E+03  4.544762E-10  4.860135E-10 -5.828360E-11
        15  14  8.657085E+05  2.039667E+03  1.327551E+04 -3.451135E-10  3.896268E-11  1.156624E-10
        15  15  8.666275E+05  7.372600E+03  2.265371E+04  6.228234E-10 -2.170425E-10  8.894823E-11
        15  16  8.666324E+05  6.267385E+02  9.195088E+03 -4.187339E+02  4.548426E-10 -8.412564E-11
        15  17  8.657085E+05  2.039673E+03  1.327551E+04  1.826199E+03 -1.746147E-10  1.943655E-10
        15  18  8.666275E+05  7.372631E+03  2.265372E+04  4.071162E+03 -2.437341E-10  2.353459E-10
        15  19  8.666324E+05  6.267410E+02  9.195105E+03  4.187339E+02  3.058451E+03  2.060081E-03
        15  20  8.657086E+05  2.039699E+03  1.327568E+04 -1.826199E+03  9.697423E+03 -2.848721E-02
        15  21  8.666278E+05  7.372703E+03  2.265422E+04 -4.071162E+03  1.633653E+04 -1.069851E-01
        15  22  8.666324E+05  6.267407E+02  9.195105E+03 -2.861291E-10  3.058451E+03 -1.621285E-11
        15  23  8.657086E+05  2.039692E+03  1.327568E+04  2.524984E-10  9.697423E+03  1.795928E-10
        15  24  8.666278E+05  7.372672E+03  2.265421E+04 -4.019568E-10  1.633653E+04  1.095971E-10
        15  25  8.666324E+05  6.267410E+02  9.195105E+03 -4.187339E+02  3.058451E+03 -2.060081E-03
        15  26  8.657086E+05  2.039699E+03  1.327568E+04  1.826199E+03  9.697423E+03  2.848721E-02
        15  27  8.666278E+05  7.372703E+03  2.265422E+04  4.071162E+03  1.633653E+04  1.069851E-01
        16   1  8.695542E+05  9.500291E+03  2.975563E+04 -8.012421E+02 -2.024139E+04  2.608842E-02
        16   2  8.620331E+05  3.213754E+04  5.405269E+04 -3.393220E+04 -4.788117E+04  2.613525E+00
        16   3  8.695194E+05  1.004354E+05  1.077437E+05 -6.706396E+04 -7.552106E+04  8.147151E+00
        16   4  8.695542E+05  9.500289E+03  2.975563E+04  6.319314E-11 -2.024139E+04  6.765405E-11
        16   5  8.620319E+05  3.213538E+04  5.405238E+04  3.809636E-10 -4.788117E+04  5.062536E-11
        16   6  8.695146E+05  1.004269E+05  1.077425E+05  1.684713E-10 -7.552106E+04  2.328077E-11
        16   7  8.695542E+05  9.500291E+03  2.975563E+04  8.012421E+02 -2.024139E+04 -2.608842E-02
        16   8  8.620331E+05  3.213754E+04  5.405269E+04  3.393220E+04 -4.788117E+04 -2.613525E+00
        16   9  8.695194E+05  1.004354E+05  1.077437E+05  6.706396E+04 -7.552106E+04 -8.147151E+00
        16  10  8.695538E+05  9.500181E+03  2.975486E+04 -8.012421E+02  8.133608E-11 -6.197075E-11
        16  11  8.620307E+05  3.213693E+04  5.404838E+04 -3.393220E+04 -6.033341E-11  3.494493E-12
        16  12  8.695133E+05  1.004338E+05  1.077330E+05 -6.706396E+04 -5.666602E-11  3.002580E-11
        16  13  8.695538E+05  9.500180E+03  2.975486E+04  7.575850E-10 -4.208544E-10  5.911105E-11
        16  14  8.620295E+05  3.213476E+04  5.404808E+04  4.293559E-10  2.311875E-10  6.544084E-11
        16  15  8.695085E+05  1.004254E+05  1.077318E+05  3.199600E-10  1.358001E-10  2.342965E-11
        16  16  8.695538E+05  9.500181E+03  2.975486E+04  8.012421E+02 -2.604779E-11  1.838749E-10
        16  17  8.620307E+05  3.213693E+04  5.404838E+04  3.393220E+04  5.114922E-10  1.533212E-10
        16  18  8.695133E+05  1.004338E+05  1.077330E+05  6.706396E+04 -1.966943E-10  3.690267E-11
        16  19  8.695542E+05  9.500291E+03  2.975563E+04 -8.012421E+02  2.024139E+04 -2.608842E-02
        16  20  8.620331E+05  3.213754E+04  5.405269E+04 -3.393220E+04  4.788117E+04 -2.613525E+00
        16  21  8.695194E+05  1.004354E+05  1.077437E+05 -6.706396E+04  7.552106E+04 -8.147151E+00
        16  22  8.695542E+05  9.500289E+03  2.975563E+04  2.399619E-10  2.024139E+04  5.910698E-11
        16  23  8.620319E+05  3.213538E+04  5.405238E+04  4.735398E-10  4.788117E+04  8.480633E-11
        16  24  8.695146E+05  1.004269E+05  1.077425E+05  3.073162E-10  7.552106E+04  2.268382E-11
        16  25  8.695542E+05  9.500291E+03  2.975563E+04  8.012421E+02  2.024139E+04  2.608842E-02
        16  26  8.620331E+05  3.213754E+04  5.405269E+04  3.393220E+04  4.788117E+04  2.613525E+00
        16  27  8.695194E+05  1.004354E+05  1.077437E+05  6.706396E+04  7.552106E+04  8.147151E+00
        17   1 -3.068733E+05 -8.292745E+05 -3.149249E+05  2.099331E+05 -5.700763E+03 -1.804239E+05
        17   2 -1.560781E+05 -7.477775E+05 -1.792942E+05  1.411680E+05 -1.851986E+04 -1.047636E+05
        17   3 -9.669686E+04 -6.989881E+05 -1.158055E+05  8.319092E+04 -2.124503E+04 -2.909075E+04
        17   4 -1.918896E+05 -3.630865E+05 -2.062359E+05  8.174008E+04 -5.657320E+03 -1.418390E+05
        17   5 -6.145510E+04 -3.486052E+05 -1.054390E+05  7.632374E+04 -1.850446E+04 -8.795511E+04
        17   6 -1.863081E+04 -3.630378E+05 -6.162755E+04  8.170528E+04 -2.124520E+04 -3.406964E+04
        17   7 -7.685857E+04  1.033408E+05 -9.754710E+04 -4.654997E+04 -5.629855E+03 -1.032252E+05
        17   8  3.317475E+04  5.073132E+04 -3.158722E+04  1.143659E+04 -1.849257E+04 -7.113611E+04
        17   9  5.942955E+04 -2.697525E+04 -7.452573E+03  8.021880E+04 -2.124534E+04 -3.905113E+04
        17  10 -3.068821E+05 -8.293095E+05 -3.149862E+05  2.099323E+05  5.297882E-11 -1.393180E-10
        17  11 -1.560814E+05 -7.477894E+05 -1.793155E+05  1.411665E+05 -1.019024E-10 -1.080689E-10
        17  12 -9.669758E+04 -6.989891E+05 -1.158079E+05  8.319043E+04  1.178090E-10 -9.922030E-11
        17  13 -1.918950E+05 -3.631081E+05 -2.062738E+05  8.173943E+04 -2.721934E-11 -7.080406E-12
        17  14 -6.145755E+04 -3.486137E+05 -1.054542E+05  7.632243E+04  3.493846E-10  7.583157E-13
        17  15 -1.863161E+04 -3.630391E+05 -6.163058E+04  8.170470E+04 -2.324311E-10 -1.519715E-11
        17  16 -7.686146E+04  1.033293E+05 -9.756718E+04 -4.655044E+04 -1.414614E-11  1.434505E-10
        17  17  3.317303E+04  5.072579E+04 -3.159737E+04  1.143553E+04  2.775322E-10  9.212905E-11
        17  18  5.942866E+04 -2.697700E+04 -7.456286E+03  8.021813E+04 -2.372920E-11  5.087468E-11
        17  19 -3.068733E+05 -8.292745E+05 -3.149249E+05  2.099331E+05  5.700763E+03  1.804239E+05
        17  20 -1.560781E+05 -7.477775E+05 -1.792942E+05  1.411680E+05  1.851986E+04  1.047636E+05
        17  21 -9.669686E+04 -6.989881E+05 -1.158055E+05  8.319092E+04  2.124503E+04  2.909075E+04
        17  22 -1.918896E+05 -3.630865E+05 -2.062359E+05  8.174008E+04  5.657320E+03  1.418390E+05
        17  23 -6.145510E+04 -3.486052E+05 -1.054390E+05  7.632374E+04  1.850446E+04  8.795511E+04
        17  24 -1.863081E+04 -3.630378E+05 -6.162755E+04  8.170528E+04  2.124520E+04  3.406964E+04
        17  25 -7.685857E+04  1.033408E+05 -9.754710E+04 -4.654997E+04  5.629855E+03  1.032252E+05
        17  26  3.317475E+04  5.073132E+04 -3.158722E+04  1.143659E+04  1.849257E+04  7.113611E+04
        17  27  5.942955E+04 -2.697525E+04 -7.452573E+03  8.021880E+04  2.124534E+04  3.905113E+04
        18   1 -8.293762E+04 -6.524799E+05 -9.615361E+04  9.002599E+04 -1.950394E+04 -2.054116E+04
        18   2 -5.925213E+04 -5.844523E+05 -7.160087E+04  7.712204E+04 -1.654479E+04  7.161364E+02
        18   3 -4.808089E+04 -5.223210E+05 -6.402513E+04  7.575110E+04 -1.242710E+04  2.197491E+04
        18   4 -1.471932E+04 -3.578241E+05 -4.986314E+04  8.186901E+04 -1.950428E+04 -2.567113E+04
        18   5 -6.533210E+03 -3.550861E+05 -3.749306E+04  7.610124E+04 -1.654663E+04 -6.908044E+03
        18   6 -1.042505E+04 -3.578130E+05 -4.036230E+04  8.186695E+04 -1.243017E+04  1.185443E+04
        18   7  5.349495E+04 -6.308156E+04 -3.574643E+03  7.370801E+04 -1.950448E+04 -3.080344E+04
        18   8  4.618327E+04 -1.256669E+05 -3.386022E+03  7.508004E+04 -1.654844E+04 -1.453493E+04
        18   9  2.722974E+04 -1.932773E+05 -1.669948E+04  8.798449E+04 -1.243344E+04  1.731384E+03
        18  10 -8.293814E+04 -6.524805E+05 -9.615512E+04  9.002567E+04 -2.194502E-10 -2.677864E-10
        18  11 -5.925242E+04 -5.844523E+05 -7.160138E+04  7.712205E+04 -5.853192E-10  9.125994E-11
        18  12 -4.808119E+04 -5.223215E+05 -6.402633E+04  7.575132E+04  5.930048E-12  4.393462E-10
        18  13 -1.471991E+04 -3.578250E+05 -4.986509E+04  8.186861E+04 -9.789729E-11 -1.110842E-11
        18  14 -6.533517E+03 -3.550862E+05 -3.749366E+04  7.610115E+04 -1.586309E-10  7.448540E-11
        18  15 -1.042526E+04 -3.578132E+05 -4.036285E+04  8.186707E+04 -4.122930E-11 -5.318424E-11
        18  16  5.349429E+04 -6.308268E+04 -3.577141E+03  7.370752E+04  1.803640E-10  2.842127E-10
        18  17  4.618292E+04 -1.256672E+05 -3.386933E+03  7.507985E+04 -3.076491E-10 -1.023560E-10
        18  18  2.722958E+04 -1.932773E+05 -1.669977E+04  8.798451E+04  2.144623E-11 -4.707217E-10
        18  19 -8.293762E+04 -6.524799E+05 -9.615361E+04  9.002599E+04  1.950394E+04  2.054116E+04
        18  20 -5.925213E+04 -5.844523E+05 -7.160087E+04  7.712204E+04  1.654479E+04 -7.161364E+02
        18  21 -4.808089E+04 -5.223210E+05 -6.402513E+04  7.575110E+04  1.242710E+04 -2.197491E+04
        18  22 -1.471932E+04 -3.578241E+05 -4.986314E+04  8.186901E+04  1.950428E+04  2.567113E+04
        18  23 -6.533210E+03 -3.550861E+05 -3.749306E+04  7.610124E+04  1.654663E+04  6.908044E+03
        18  24 -1.042505E+04 -3.578130E+05 -4.036230E+04  8.186695E+04  1.243017E+04 -1.185443E+04
        18  25  5.349495E+04 -6.308156E+04 -3.574643E+03  7.370801E+04  1.950448E+04  3.080344E+04
        18  26  4.618327E+04 -1.256669E+05 -3.386022E+03  7.508004E+04  1.654844E+04  1.453493E+04
        18  27  2.722974E+04 -1.932773E+05 -1.669948E+04  8.798449E+04  1.243344E+04 -1.731384E+03
        19   1 -4.119645E+04 -4.847324E+05 -6.392757E+04  8.065940E+04 -9.626890E+03  2.863826E+04
        19   2 -5.486302E+04 -4.098070E+05 -8.102410E+04  3.192315E+04 -5.136401E+03  6.528906E+04
        19   3 -1.279579E+05 -3.545112E+05 -1.368454E+05 -5.223704E+03 -1.075170E+03  1.019425E+05
        19   4 -1.295635E+04 -3.609950E+05 -4.653043E+04  8.187743E+04 -9.630384E+03  1.850721E+04
        19   5 -4.159559E+04 -3.511045E+05 -7.358855E+04  7.609893E+04 -5.135142E+03  5.607582E+04
        19   6 -1.298274E+05 -3.610133E+05 -1.400104E+05  8.191234E+04 -1.064061E+03  9.364369E+04
        19   7  1.528311E+04 -2.372420E+05 -2.913310E+04  8.309571E+04 -9.633918E+03  8.374227E+03
        19   8 -2.832093E+04 -2.923941E+05 -6.615165E+04  1.202791E+05 -5.135194E+03  4.686175E+04
        19   9 -1.316684E+05 -3.674989E+05 -1.431711E+05  1.690476E+05 -1.055283E+03  8.534498E+04
        19  10 -4.119677E+04 -4.847333E+05 -6.392929E+04  8.065962E+04  3.753605E-10  6.293344E-11
        19  11 -5.486420E+04 -4.098116E+05 -8.103216E+04  3.192342E+04  8.509412E-11  8.526570E-11
        19  12 -1.279607E+05 -3.545224E+05 -1.368649E+05 -5.223616E+03  1.907287E-10  9.539901E-11
        19  13 -1.295655E+04 -3.609954E+05 -4.653125E+04  8.187757E+04  2.532511E-10 -5.563031E-11
        19  14 -4.159647E+04 -3.511079E+05 -7.359452E+04  7.609916E+04  6.433412E-10  2.220263E-11
        19  15 -1.298298E+05 -3.610227E+05 -1.400269E+05  8.191242E+04  2.863389E-10 -4.646877E-11
        19  16  1.528299E+04 -2.372421E+05 -2.913341E+04  8.309577E+04  5.923735E-11 -4.053321E-11
        19  17 -2.832154E+04 -2.923965E+05 -6.615583E+04  1.202793E+05 -4.921894E-10 -1.533442E-10
        19  18 -1.316703E+05 -3.675067E+05 -1.431848E+05  1.690476E+05 -2.163761E-10 -1.190897E-10
        19  19 -4.119645E+04 -4.847324E+05 -6.392757E+04  8.065940E+04  9.626890E+03 -2.863826E+04
        19  20 -5.486302E+04 -4.098070E+05 -8.102410E+04  3.192315E+04  5.136401E+03 -6.528906E+04
        19  21 -1.279579E+05 -3.545112E+05 -1.368454E+05 -5.223704E+03  1.075170E+03 -1.019425E+05
        19  22 -1.295635E+04 -3.609950E+05 -4.653043E+04  8.187743E+04  9.630384E+03 -1.850721E+04
        19  23 -4.159559E+04 -3.511045E+05 -7.358855E+04  7.609893E+04  5.135142E+03 -5.607582E+04
        19  24 -1.298274E+05 -3.610133E+05 -1.400104E+05  8.191234E+04  1.064061E+03 -9.364369E+04
        19  25  1.528311E+04 -2.372420E+05 -2.913310E+04  8.309571E+04  9.633918E+03 -8.374227E+03
        19  26 -2.832093E+04 -2.923941E+05 -6.615165E+04  1.202791E+05  5.135194E+03 -4.686175E+04
        19  27 -1.316684E+05 -3.674989E+05 -1.431711E+05  1.690476E+05  1.055283E+03 -8.534498E+04
        20   1  1.235377E+05 -9.428766E+04 -1.078587E+05  1.000855E+05 -3.878770E+04 -2.320621E+04
        20   2  1.592534E+05 -4.732106E+04 -7.029000E+04  1.158566E+05 -2.718100E+04 -1.050011E+03
        20   3  1.957959E+05 -1.749710E+04 -5.009345E+04  1.316631E+05 -1.055903E+04  1.442380E+04
        20   4  3.945829E+05  1.164671E+05 -1.787456E+04  2.429881E+05 -1.296398E+04 -3.844787E+03
        20   5  3.953219E+05  1.283058E+05 -8.854954E+03  2.393507E+05 -1.579533E+04  7.485151E+03
        20   6  4.000206E+05  1.261346E+05 -4.676997E+03  2.357465E+05 -1.361429E+04  1.213242E+04
        20   7  6.657130E+05  3.272771E+05  7.210530E+04  3.859673E+05  1.287552E+04  1.552990E+04
        20   8  6.314590E+05  3.039740E+05  5.257789E+04  3.629028E+05 -4.403649E+03  1.602514E+04
        20   9  6.042984E+05  2.697952E+05  4.073876E+04  3.398717E+05 -1.667095E+04  9.839989E+03
        20  10  1.235359E+05 -9.428864E+04 -1.078625E+05  1.000848E+05 -3.642980E-10 -1.985938E-10
        20  11  1.592526E+05 -4.732126E+04 -7.029139E+04  1.158565E+05 -2.021990E-10  2.708886E-10
        20  12  1.957957E+05 -1.749735E+04 -5.009405E+04  1.316632E+05  1.494375E-10  4.527181E-10
        20  13  3.945827E+05  1.164671E+05 -1.787490E+04  2.429881E+05  2.082197E-10  8.993599E-11
        20  14  3.953216E+05  1.283056E+05 -8.855528E+03  2.393508E+05  3.162356E-11  2.722491E-10
        20  15  4.000203E+05  1.261344E+05 -4.677622E+03  2.357466E+05  2.445879E-11  2.788284E-10
        20  16  6.657128E+05  3.272768E+05  7.210454E+04  3.859672E+05  2.527520E-10  3.562538E-10
        20  17  6.314589E+05  3.039737E+05  5.257737E+04  3.629029E+05  2.694187E-10  2.593619E-10
        20  18  6.042981E+05  2.697950E+05  4.073805E+04  3.398719E+05 -6.857357E-10  1.181948E-10
        20  19  1.235377E+05 -9.428766E+04 -1.078587E+05  1.000855E+05  3.878770E+04  2.320621E+04
        20  20  1.592534E+05 -4.732106E+04 -7.029000E+04  1.158566E+05  2.718100E+04  1.050011E+03
        20  21  1.957959E+05 -1.749710E+04 -5.009345E+04  1.316631E+05  1.055903E+04 -1.442380E+04
        20  22  3.945829E+05  1.164671E+05 -1.787456E+04  2.429881E+05  1.296398E+04  3.844787E+03
        20  23  3.953219E+05  1.283058E+05 -8.854954E+03  2.393507E+05  1.579533E+04 -7.485151E+03
        20  24  4.000206E+05  1.261346E+05 -4.676997E+03  2.357465E+05  1.361429E+04 -1.213242E+04
        20  25  6.657130E+05  3.272771E+05  7.210530E+04  3.859673E+05 -1.287552E+04 -1.552990E+04
        20  26  6.314590E+05  3.039740E+05  5.257789E+04  3.629028E+05  4.403649E+03 -1.602514E+04
        20  27  6.042984E+05  2.697952E+05  4.073876E+04  3.398717E+05  1.667095E+04 -9.839989E+03
        21   1  2.208548E+05 -8.006559E+02 -4.246974E+04  1.436213E+05 -9.167488E+03  1.377072E+04
        21   2  2.543297E+05  3.132021E+04 -3.085406E+04  1.637631E+05 -5.410459E+03  1.367572E+04
        21   3  2.958893E+05  5.374060E+04 -2.140440E+04  1.814979E+05 -1.051313E+03  1.277734E+04
        21   4  4.005952E+05  1.264143E+05 -3.399499E+03  2.357799E+05 -1.232723E+04  1.140129E+04
        21   5  3.965744E+05  1.314473E+05 -1.552537E+03  2.367075E+05 -1.030601E+04  1.000553E+04
        21   6  4.010139E+05  1.271561E+05 -3.653598E+02  2.352271E+05 -7.682915E+03  7.806402E+03
        21   7  5.803696E+05  2.536468E+05  3.566782E+04  3.279677E+05 -1.548812E+04  9.030986E+03
        21   8  5.388416E+05  2.315860E+05  2.774779E+04  3.096706E+05 -1.520300E+04  6.334253E+03
        21   9  5.061519E+05  2.005787E+05  2.067357E+04  2.889670E+05 -1.431600E+04  2.834358E+03
        21  10  2.208547E+05 -8.008821E+02 -4.247025E+04  1.436214E+05  1.049743E-10  3.319771E-10
        21  11  2.543297E+05  3.132001E+04 -3.085447E+04  1.637631E+05  2.023408E-10  2.788880E-10
        21  12  2.958892E+05  5.374042E+04 -2.140471E+04  1.814979E+05  5.415091E-10  1.583728E-10
        21  13  4.005950E+05  1.264142E+05 -3.400028E+03  2.357800E+05 -1.503834E-10  2.064822E-10
        21  14  3.965743E+05  1.314471E+05 -1.552925E+03  2.367075E+05 -7.415028E-10  1.381404E-10
        21  15  4.010138E+05  1.271561E+05 -3.655853E+02  2.352272E+05 -2.278564E-10  5.560215E-11
        21  16  5.803693E+05  2.536467E+05  3.566721E+04  3.279678E+05 -4.662522E-10  1.601040E-10
        21  17  5.388413E+05  2.315859E+05  2.774728E+04  3.096707E+05 -5.386053E-10  5.315911E-11
        21  18  5.061517E+05  2.005786E+05  2.067317E+04  2.889670E+05 -5.727906E-10 -1.921561E-10
        21  19  2.208548E+05 -8.006559E+02 -4.246974E+04  1.436213E+05  9.167488E+03 -1.377072E+04
        21  20  2.543297E+05  3.132021E+04 -3.085406E+04  1.637631E+05  5.410459E+03 -1.367572E+04
        21  21  2.958893E+05  5.374060E+04 -2.140440E+04  1.814979E+05  1.051313E+03 -1.277734E+04
        21  22  4.005952E+05  1.264143E+05 -3.399499E+03  2.357799E+05  1.232723E+04 -1.140129E+04
        21  23  3.965744E+05  1.314473E+05 -1.552537E+03  2.367075E+05  1.030601E+04 -1.000553E+04
        21  24  4.010139E+05  1.271561E+05 -3.653598E+02  2.352271E+05  7.682915E+03 -7.806402E+03
        21  25  5.803696E+05  2.536468E+05  3.566782E+04  3.279677E+05  1.548812E+04 -9.030986E+03
        21  26  5.388416E+05  2.315860E+05  2.774779E+04  3.096706E+05  1.520300E+04 -6.334253E+03
        21  27  5.061519E+05  2.005787E+05  2.067357E+04  2.889670E+05  1.431600E+04 -2.834358E+03
        22   1  3.195216E+05  7.024705E+04 -1.595743E+04  1.935423E+05  3.332527E+02  1.097224E+04
        22   2  3.526532E+05  1.010451E+05 -7.284976E+03  2.140060E+05  2.213904E+03  7.558086E+03
        22   3  3.947968E+05  1.230524E+05  1.770509E+03  2.318633E+05  4.116600E+03  4.114204E+03
        22   4  4.010859E+05  1.271821E+05  1.472653E+02  2.352550E+05 -6.309600E+03  5.993087E+03
        22   5  3.966307E+05  1.316705E+05  1.256475E+03  2.364856E+05 -4.493315E+03  2.530848E+03
        22   6  4.011986E+05  1.273807E+05  2.803993E+03  2.351081E+05 -2.654967E+03 -9.610487E+02
        22   7  4.826603E+05  1.841227E+05  1.625268E+04  2.769752E+05 -1.295376E+04  1.012957E+03
        22   8  4.406106E+05  1.622972E+05  9.798141E+03  2.589672E+05 -1.120116E+04 -2.496858E+03
        22   9  4.076004E+05  1.317090E+05  3.837695E+03  2.383529E+05 -9.426475E+03 -6.036254E+03
        22  10  3.195216E+05  7.024692E+04 -1.595766E+04  1.935423E+05 -1.540151E-10 -1.174756E-10
        22  11  3.526532E+05  1.010450E+05 -7.285093E+03  2.140060E+05  4.696333E-10  9.081147E-11
        22  12  3.947968E+05  1.230524E+05  1.770446E+03  2.318633E+05  4.904419E-10  2.720764E-11
        22  13  4.010859E+05  1.271820E+05  1.471230E+02  2.352551E+05 -1.010476E-11  1.155425E-11
        22  14  3.966307E+05  1.316705E+05  1.256425E+03  2.364857E+05  7.763777E-11 -6.672039E-11
        22  15  4.011986E+05  1.273807E+05  2.803978E+03  2.351081E+05  6.939226E-11  5.403390E-11
        22  16  4.826601E+05  1.841227E+05  1.625237E+04  2.769752E+05  1.997328E-10  5.645860E-11
        22  17  4.406104E+05  1.622971E+05  9.797893E+03  2.589672E+05  1.442472E-10  1.101472E-10
        22  18  4.076003E+05  1.317089E+05  3.837460E+03  2.383528E+05  4.871933E-11  4.497343E-12
        22  19  3.195216E+05  7.024705E+04 -1.595743E+04  1.935423E+05 -3.332527E+02 -1.097224E+04
        22  20  3.526532E+05  1.010451E+05 -7.284976E+03  2.140060E+05 -2.213904E+03 -7.558086E+03
        22  21  3.947968E+05  1.230524E+05  1.770509E+03  2.318633E+05 -4.116600E+03 -4.114204E+03
        22  22  4.010859E+05  1.271821E+05  1.472653E+02  2.352550E+05  6.309600E+03 -5.993087E+03
        22  23  3.966307E+05  1.316705E+05  1.256475E+03  2.364856E+05  4.493315E+03 -2.530848E+03
        22  24  4.011986E+05  1.273807E+05  2.803993E+03  2.351081E+05  2.654967E+03  9.610487E+02
        22  25  4.826603E+05  1.841227E+05  1.625268E+04  2.769752E+05  1.295376E+04 -1.012957E+03
        22  26  4.406106E+05  1.622972E+05  9.798141E+03  2.589672E+05  1.120116E+04  2.496858E+03
        22  27  4.076004E+05  1.317090E+05  3.837695E+03  2.383529E+05  9.426475E+03  6.036254E+03
        23   1  4.182504E+05  1.398730E+05  7.712269E+03  2.440150E+05  5.040639E+03  1.922106E+03
        23   2  4.526399E+05  1.697439E+05  1.889716E+04  2.633734E+05  3.134329E+03 -3.961197E+03
        23   3  4.976402E+05  1.928520E+05  3.400771E+04  2.795426E+05  8.122725E+02 -9.290395E+03
        23   4  4.013438E+05  1.275051E+05  3.865057E+03  2.351774E+05 -1.723483E+03 -3.147561E+03
        23   5  3.969250E+05  1.323635E+05  7.104958E+03  2.357618E+05 -2.431388E+03 -8.132871E+03
        23   6  4.028557E+05  1.301987E+05  1.323155E+04  2.331558E+05 -3.554761E+03 -1.256385E+04
        23   7  3.844376E+05  1.151375E+05  1.809374E+01  2.263400E+05 -8.487366E+03 -8.217039E+03
        23   8  3.412131E+05  9.498445E+04 -4.687429E+03  2.081527E+05 -7.996506E+03 -1.230413E+04
        23   9  3.080795E+05  6.754871E+04 -7.545700E+03  1.867760E+05 -7.921004E+03 -1.583677E+04
        23  10  4.182503E+05  1.398730E+05  7.712214E+03  2.440150E+05  4.873668E-10  4.217363E-11
        23  11  4.526399E+05  1.697439E+05  1.889711E+04  2.633734E+05  2.140345E-10  1.346465E-11
        23  12  4.976402E+05  1.928519E+05  3.400754E+04  2.795426E+05  1.274047E-10  7.002405E-11
        23  13  4.013438E+05  1.275051E+05  3.865033E+03  2.351774E+05  1.054066E-10  2.749176E-11
        23  14  3.969249E+05  1.323634E+05  7.104823E+03  2.357618E+05  3.497796E-10  1.423180E-10
        23  15  4.028557E+05  1.301985E+05  1.323123E+04  2.331558E+05  1.217217E-10  1.362441E-10
        23  16  3.844375E+05  1.151374E+05  1.783169E+01  2.263400E+05 -2.721758E-10  3.113577E-11
        23  17  3.412130E+05  9.498427E+04 -4.687833E+03  2.081526E+05  1.010503E-10  5.584277E-11
        23  18  3.080794E+05  6.754843E+04 -7.546289E+03  1.867759E+05  1.591350E-10  2.213033E-10
        23  19  4.182504E+05  1.398730E+05  7.712269E+03  2.440150E+05 -5.040639E+03 -1.922106E+03
        23  20  4.526399E+05  1.697439E+05  1.889716E+04  2.633734E+05 -3.134329E+03  3.961197E+03
        23  21  4.976402E+05  1.928520E+05  3.400771E+04  2.795426E+05 -8.122725E+02  9.290395E+03
        23  22  4.013438E+05  1.275051E+05  3.865057E+03  2.351774E+05  1.723483E+03  3.147561E+03
        23  23  3.969250E+05  1.323635E+05  7.104958E+03  2.357618E+05  2.431388E+03  8.132871E+03
        23  24  4.028557E+05  1.301987E+05  1.323155E+04  2.331558E+05  3.554761E+03  1.256385E+04
        23  25  3.844376E+05  1.151375E+05  1.809374E+01  2.263400E+05  8.487366E+03  8.217039E+03
        23  26  3.412131E+05  9.498445E+04 -4.687429E+03  2.081527E+05  7.996506E+03  1.230413E+04
        23  27  3.080795E+05  6.754871E+04 -7.545700E+03  1.867760E+05  7.921004E+03  1.583677E+04
        24   1  5.210968E+05  2.130790E+05  4.432086E+04  2.924241E+05 -8.916029E+01 -1.205887E+04
        24   2  5.754706E+05  2.317086E+05  7.262537E+04  2.975195E+05 -2.378625E+04 -2.928478E+04
        24   3  6.563084E+05  2.650918E+05  1.274680E+05  2.912000E+05 -5.097935E+04 -4.185219E+04
        24   4  4.043765E+05  1.317544E+05  1.768918E+04  2.334246E+05 -4.382206E+03 -1.527703E+04
        24   5  4.021647E+05  1.431441E+05  3.265768E+04  2.258733E+05 -1.800217E+04 -2.495088E+04
        24   6  4.242340E+05  1.671084E+05  6.542962E+04  2.069064E+05 -3.511560E+04 -2.996561E+04
        24   7  2.876751E+05  5.044000E+04 -8.942223E+03  1.744394E+05 -8.674075E+03 -1.849431E+04
        24   8  2.288957E+05  5.458913E+04 -7.310916E+03  1.542476E+05 -1.222037E+04 -2.061809E+04
        24   9  1.922211E+05  6.913399E+04  3.388899E+03  1.226403E+05 -1.926013E+04 -1.808199E+04
        24  10  5.210967E+05  2.130788E+05  4.432059E+04  2.924241E+05  2.187685E-10  4.105960E-10
        24  11  5.754698E+05  2.317076E+05  7.262269E+04  2.975189E+05  4.792484E-10  2.357341E-10
        24  12  6.563051E+05  2.650893E+05  1.274598E+05  2.911983E+05 -1.128514E-10  6.938234E-11
        24  13  4.043764E+05  1.317541E+05  1.768870E+04  2.334246E+05 -1.701195E-10  1.858116E-10
        24  14  4.021642E+05  1.431434E+05  3.265590E+04  2.258729E+05  1.318670E-10 -3.885524E-11
        24  15  4.242324E+05  1.671071E+05  6.542562E+04  2.069056E+05  8.754790E-11  5.952090E-11
        24  16  2.876749E+05  5.043961E+04 -8.943007E+03  1.744393E+05 -3.183688E-10 -1.008593E-10
        24  17  2.288954E+05  5.458863E+04 -7.311995E+03  1.542474E+05 -5.994228E-11 -2.400538E-10
        24  18  1.922206E+05  6.913354E+04  3.387588E+03  1.226400E+05  2.915662E-11 -7.458746E-11
        24  19  5.210968E+05  2.130790E+05  4.432086E+04  2.924241E+05  8.916029E+01  1.205887E+04
        24  20  5.754706E+05  2.317086E+05  7.262537E+04  2.975195E+05  2.378625E+04  2.928478E+04
        24  21  6.563084E+05  2.650918E+05  1.274680E+05  2.912000E+05  5.097935E+04  4.185219E+04
        24  22  4.043765E+05  1.317544E+05  1.768918E+04  2.334246E+05  4.382206E+03  1.527703E+04
        24  23  4.021647E+05  1.431441E+05  3.265768E+04  2.258733E+05  1.800217E+04  2.495088E+04
        24  24  4.242340E+05  1.671084E+05  6.542962E+04  2.069064E+05  3.511560E+04  2.996561E+04
        24  25  2.876751E+05  5.044000E+04 -8.942223E+03  1.744394E+05  8.674075E+03  1.849431E+04
        24  26  2.288957E+05  5.458913E+04 -7.310916E+03  1.542476E+05  1.222037E+04  2.061809E+04
        24  27  1.922211E+05  6.913399E+04  3.388899E+03  1.226403E+05  1.926013E+04  1.808199E+04
        25   1  5.911552E+05  4.571336E+04  4.908535E+04  3.055803E+04  3.411502E+04  1.677655E+00
        25   2  5.877362E+05  1.461350E+04  2.483681E+04  1.548905E+04  2.141894E+04  5.338940E-01
        25   3  5.911664E+05  4.307608E+03  1.404696E+04  4.204542E+02  8.723072E+03  5.902249E-03
        25   4  5.911542E+05  4.571160E+04  4.908510E+04 -3.892371E-10  3.411502E+04 -1.435278E-12
        25   5  5.877360E+05  1.461305E+04  2.483675E+04  2.198990E-10  2.141894E+04 -3.831510E-11
        25   6  5.911664E+05  4.307608E+03  1.404696E+04 -6.774095E-10  8.723072E+03 -8.879090E-11
        25   7  5.911552E+05  4.571336E+04  4.908535E+04 -3.055803E+04  3.411502E+04 -1.677655E+00
        25   8  5.877362E+05  1.461350E+04  2.483681E+04 -1.548905E+04  2.141894E+04 -5.338940E-01
        25   9  5.911664E+05  4.307608E+03  1.404696E+04 -4.204542E+02  8.723072E+03 -5.902249E-03
        25  10  5.911539E+05  4.571304E+04  4.908316E+04  3.055803E+04  2.066702E-11  5.950202E-11
        25  11  5.877357E+05  1.461338E+04  2.483595E+04  1.548905E+04 -1.909210E-10  1.026762E-10
        25  12  5.911663E+05  4.307587E+03  1.404682E+04  4.204542E+02 -1.284629E-10  3.546857E-11
        25  13  5.911529E+05  4.571129E+04  4.908291E+04  7.576069E-11  2.295562E-10  2.116818E-11
        25  14  5.877355E+05  1.461293E+04  2.483589E+04  4.313505E-10  6.732776E-11  5.717492E-11
        25  15  5.911663E+05  4.307587E+03  1.404682E+04  1.389181E-10  6.092115E-10  4.667565E-11
        25  16  5.911539E+05  4.571304E+04  4.908316E+04 -3.055803E+04  3.239684E-10 -2.847523E-11
        25  17  5.877357E+05  1.461338E+04  2.483595E+04 -1.548905E+04  3.423712E-10  9.543778E-12
        25  18  5.911663E+05  4.307587E+03  1.404682E+04 -4.204542E+02 -9.200804E-11  7.069851E-11
        25  19  5.911552E+05  4.571336E+04  4.908535E+04  3.055803E+04 -3.411502E+04 -1.677655E+00
        25  20  5.877362E+05  1.461350E+04  2.483681E+04  1.548905E+04 -2.141894E+04 -5.338940E-01
        25  21  5.911664E+05  4.307608E+03  1.404696E+04  4.204542E+02 -8.723072E+03 -5.902249E-03
        25  22  5.911542E+05  4.571160E+04  4.908510E+04 -1.451500E-10 -3.411502E+04  4.191466E-11
        25  23  5.877360E+05  1.461305E+04  2.483675E+04  6.427987E-10 -2.141894E+04  1.509357E-10
        25  24  5.911664E+05  4.307608E+03  1.404696E+04 -2.377016E-10 -8.723072E+03  1.789569E-10
        25  25  5.911552E+05  4.571336E+04  4.908535E+04 -3.055803E+04 -3.411502E+04  1.677655E+00
        25  26  5.877362E+05  1.461350E+04  2.483681E+04 -1.548905E+04 -2.141894E+04  5.338940E-01
        25  27  5.911664E+05  4.307608E+03  1.404696E+04 -4.204542E+02 -8.723072E+03  5.902249E-03
        26   1  5.898556E+05  3.335434E+03  1.100139E+04  1.933077E+03  6.839584E+03  2.127693E-02
        26   2  5.893800E+05  9.292266E+02  7.289881E+03  8.924575E+02  3.199195E+03  4.594715E-03
        26   3  5.898568E+05  4.384188E+02  6.425676E+03 -1.481776E+02 -4.412417E+02  1.052176E-04
        26   4  5.898556E+05  3.335427E+03  1.100139E+04 -8.016399E-10  6.839584E+03 -8.733674E-11
        26   5  5.893800E+05  9.292251E+02  7.289881E+03 -3.219503E-10  3.199195E+03 -5.230663E-11
        26   6  5.898568E+05  4.384188E+02  6.425676E+03 -4.608206E-10 -4.412417E+02 -8.054244E-11
        26   7  5.898556E+05  3.335434E+03  1.100139E+04 -1.933077E+03  6.839584E+03 -2.127693E-02
        26   8  5.893800E+05  9.292266E+02  7.289881E+03 -8.924575E+02  3.199195E+03 -4.594715E-03
        26   9  5.898568E+05  4.384188E+02  6.425676E+03  1.481776E+02 -4.412417E+02 -1.052178E-04
        26  10  5.898556E+05  3.335421E+03  1.100130E+04  1.933077E+03 -1.631973E-11 -1.647456E-11
        26  11  5.893800E+05  9.292238E+02  7.289862E+03  8.924575E+02 -2.142477E-10 -7.630983E-11
        26  12  5.898568E+05  4.384188E+02  6.425676E+03 -1.481776E+02 -1.335111E-10 -5.145622E-11
        26  13  5.898556E+05  3.335414E+03  1.100130E+04 -4.292458E-10 -2.408444E-10  2.577118E-11
        26  14  5.893800E+05  9.292224E+02  7.289862E+03 -2.146547E-10  2.797077E-10 -1.054363E-11
        26  15  5.898568E+05  4.384187E+02  6.425676E+03  9.250834E-11  2.307892E-10 -3.404595E-11
        26  16  5.898556E+05  3.335421E+03  1.100130E+04 -1.933077E+03  2.856291E-10  8.463275E-11
        26  17  5.893800E+05  9.292238E+02  7.289862E+03 -8.924575E+02  2.469529E-10  4.279248E-11
        26  18  5.898568E+05  4.384188E+02  6.425676E+03  1.481776E+02  1.963058E-10 -1.065112E-11
        26  19  5.898556E+05  3.335434E+03  1.100139E+04  1.933077E+03 -6.839584E+03 -2.127693E-02
        26  20  5.893800E+05  9.292266E+02  7.289881E+03  8.924575E+02 -3.199195E+03 -4.594715E-03
        26  21  5.898568E+05  4.384188E+02  6.425676E+03 -1.481776E+02  4.412417E+02 -1.052178E-04
        26  22  5.898556E+05  3.335427E+03  1.100139E+04 -5.891536E-10 -6.839584E+03  1.428586E-10
        26  23  5.893800E+05  9.292251E+02  7.289881E+03  2.313787E-10 -3.199195E+03  2.925659E-11
        26  24  5.898568E+05  4.384188E+02  6.425676E+03  6.241495E-12  4.412417E+02  1.482125E-11
        26  25  5.898556E+05  3.335434E+03  1.100139E+04 -1.933077E+03 -6.839584E+03  2.127693E-02
        26  26  5.893800E+05  9.292266E+02  7.289881E+03 -8.924575E+02 -3.199195E+03  4.594715E-03
        26  27  5.898568E+05  4.384188E+02  6.425676E+03  1.481776E+02  4.412417E+02  1.052178E-04
        27   1  5.899274E+05  4.623036E+02  6.783216E+03  2.703390E+02 -1.566007E+03 -6.812904E-04
        27   2  5.892913E+05  1.371767E+03  9.262173E+03 -1.244243E+03 -6.196228E+03  1.240689E-02
        27   3  5.899254E+05  4.953067E+03  1.542154E+04 -2.758823E+03 -1.082647E+04  4.806632E-02
        27   4  5.899274E+05  4.623034E+02  6.783216E+03  4.846660E-11 -1.566007E+03 -1.111202E-10
        27   5  5.892913E+05  1.371764E+03  9.262173E+03  2.419815E-10 -6.196228E+03 -1.724377E-10
        27   6  5.899254E+05  4.953053E+03  1.542153E+04 -1.473018E-10 -1.082647E+04 -2.495520E-10
        27   7  5.899274E+05  4.623036E+02  6.783216E+03 -2.703390E+02 -1.566007E+03  6.812902E-04
        27   8  5.892913E+05  1.371767E+03  9.262173E+03  1.244243E+03 -6.196228E+03 -1.240689E-02
        27   9  5.899254E+05  4.953067E+03  1.542154E+04  2.758823E+03 -1.082647E+04 -4.806632E-02
        27  10  5.899274E+05  4.623029E+02  6.783212E+03  2.703390E+02  8.586367E-11 -9.397493E-11
        27  11  5.892913E+05  1.371756E+03  9.262101E+03 -1.244243E+03 -1.222566E-11 -1.659765E-10
        27  12  5.899253E+05  4.953036E+03  1.542132E+04 -2.758823E+03  3.714302E-11 -9.541215E-11
        27  13  5.899274E+05  4.623028E+02  6.783212E+03 -2.518960E-11  1.599081E-10 -7.077507E-11
        27  14  5.892913E+05  1.371753E+03  9.262100E+03 -1.472482E-10  1.690880E-10 -1.135174E-10
        27  15  5.899252E+05  4.953021E+03  1.542131E+04 -1.977792E-10 -1.733035E-11 -5.566116E-11
        27  16  5.899274E+05  4.623029E+02  6.783212E+03 -2.703390E+02 -4.041752E-11 -4.530469E-11
        27  17  5.892913E+05  1.371756E+03  9.262101E+03  1.244243E+03 -2.143792E-11 -8.869193E-11
        27  18  5.899253E+05  4.953036E+03  1.542132E+04  2.758823E+03  1.887497E-10 -2.580919E-11
        27  19  5.899274E+05  4.623036E+02  6.783216E+03  2.703390E+02  1.566007E+03  6.812902E-04
        27  20  5.892913E+05  1.371767E+03  9.262173E+03 -1.244243E+03  6.196228E+03 -1.240689E-02
        27  21  5.899254E+05  4.953067E+03  1.542154E+04 -2.758823E+03  1.082647E+04 -4.806632E-02
        27  22  5.899274E+05  4.623034E+02  6.783216E+03 -3.765704E-10  1.566007E+03 -2.895960E-11
        27  23  5.892913E+05  1.371764E+03  9.262173E+03  1.241627E-10  6.196228E+03 -5.240304E-11
        27  24  5.899254E+05  4.953053E+03  1.542153E+04 -4.859892E-10  1.082647E+04  1.461619E-10
        27  25  5.899274E+05  4.623036E+02  6.783216E+03 -2.703390E+02  1.566007E+03 -6.812903E-04
        27  26  5.892913E+05  1.371767E+03  9.262173E+03  1.244243E+03  6.196228E+03  1.240689E-02
        27  27  5.899254E+05  4.953067E+03  1.542154E+04  2.758823E+03  1.082647E+04  4.806632E-02
        28   1  5.918884E+05  6.384425E+03  2.014814E+04 -5.519759E+02 -1.348050E+04  1.197444E-02
        28   2  5.868296E+05  2.161139E+04  3.641949E+04 -2.283199E+04 -3.210166E+04  1.179518E+00
        28   3  5.918725E+05  6.755879E+04  7.248689E+04 -4.511203E+04 -5.072260E+04  3.682361E+00
        28   4  5.918884E+05  6.384425E+03  2.014814E+04 -3.724232E-10 -1.348050E+04 -1.867831E-10
        28   5  5.868290E+05  2.161041E+04  3.641935E+04 -4.060812E-10 -3.210166E+04 -1.481586E-11
        28   6  5.918703E+05  6.755497E+04  7.248635E+04 -4.902440E-10 -5.072260E+04  4.295128E-11
        28   7  5.918884E+05  6.384425E+03  2.014814E+04  5.519759E+02 -1.348050E+04 -1.197444E-02
        28   8  5.868296E+05  2.161139E+04  3.641949E+04  2.283199E+04 -3.210166E+04 -1.179518E+00
        28   9  5.918725E+05  6.755879E+04  7.248689E+04  4.511203E+04 -5.072260E+04 -3.682361E+00
        28  10  5.918882E+05  6.384377E+03  2.014780E+04 -5.519759E+02 -2.514908E-10 -3.573949E-11
        28  11  5.868284E+05  2.161111E+04  3.641756E+04 -2.283199E+04 -4.421782E-10  1.461624E-11
        28  12  5.918697E+05  6.755810E+04  7.248206E+04 -4.511203E+04  1.553165E-10 -4.637476E-12
        28  13  5.918882E+05  6.384376E+03  2.014780E+04 -4.208912E-12 -1.388759E-11  2.398197E-11
        28  14  5.868279E+05  2.161013E+04  3.641742E+04 -3.366502E-10 -3.059165E-10  9.136809E-11
        28  15  5.918676E+05  6.755428E+04  7.248152E+04 -4.292466E-10  2.409653E-10  3.609230E-11
        28  16  5.918882E+05  6.384377E+03  2.014780E+04  5.519759E+02  1.500739E-11  8.910962E-11
        28  17  5.868284E+05  2.161111E+04  3.641756E+04  2.283199E+04  1.608060E-12  1.627045E-10
        28  18  5.918697E+05  6.755810E+04  7.248206E+04  4.511203E+04  1.269098E-10  7.874639E-11
        28  19  5.918884E+05  6.384425E+03  2.014814E+04 -5.519759E+02  1.348050E+04 -1.197444E-02
        28  20  5.868296E+05  2.161139E+04  3.641949E+04 -2.283199E+04  3.210166E+04 -1.179518E+00
        28  21  5.918725E+05  6.755879E+04  7.248689E+04 -4.511203E+04  5.072260E+04 -3.682361E+00
        28  22  5.918884E+05  6.384425E+03  2.014814E+04 -4.291795E-10  1.348050E+04  2.371501E-10
        28  23  5.868290E+05  2.161041E+04  3.641935E+04  4.144737E-10  3.210166E+04  1.918245E-10
        28  24  5.918703E+05  6.755497E+04  7.248635E+04 -3.114398E-10  5.072260E+04  2.941754E-11
        28  25  5.918884E+05  6.384425E+03  2.014814E+04  5.519759E+02  1.348050E+04  1.197444E-02
        28  26  5.868296E+05  2.161139E+04  3.641949E+04  2.283199E+04  3.210166E+04  1.179518E+00
        28  27  5.918725E+05  6.755879E+04  7.248689E+04  4.511203E+04  5.072260E+04  3.682361E+00
        29   1 -1.662268E+05 -4.569232E+05 -1.747231E+05  9.727376E+04 -1.661323E+03 -1.124848E+05
        29   2 -7.058105E+04 -4.416968E+05 -9.601559E+04  5.163348E+04 -5.687117E+03 -6.837817E+04
        29   3 -3.860298E+04 -4.481325E+05 -6.194903E+04  6.570153E+03 -7.223041E+03 -2.426987E+04
        29   4 -1.372795E+05 -3.392791E+05 -1.476120E+05  5.452151E+03 -1.644498E+03 -1.010855E+05
        29   5 -4.397432E+04 -3.289043E+05 -7.579331E+04  5.159801E+03 -5.681727E+03 -6.236162E+04
        29   6 -1.340313E+04 -3.392577E+05 -4.487313E+04  5.446872E+03 -7.222847E+03 -2.363695E+04
        29   7 -1.083014E+05 -2.216037E+05 -1.204968E+05 -8.638701E+04 -1.631050E+03 -8.968412E+04
        29   8 -1.736016E+04 -2.160946E+05 -5.557022E+04 -4.132256E+04 -5.677239E+03 -5.634401E+04
        29   9  1.179614E+04 -2.303712E+05 -2.779752E+04  4.323386E+03 -7.222656E+03 -2.300393E+04
        29  10 -1.662302E+05 -4.569368E+05 -1.747469E+05  9.727361E+04 -3.057536E-10 -1.729343E-09
        29  11 -7.058234E+04 -4.417018E+05 -9.602444E+04  5.163316E+04 -3.886774E-10 -6.383691E-10
        29  12 -3.860320E+04 -4.481331E+05 -6.195024E+04  6.570012E+03  4.194002E-10  1.890110E-10
        29  13 -1.372823E+05 -3.392901E+05 -1.476312E+05  5.452017E+03 -3.723426E-10  3.624674E-12
        29  14 -4.397540E+04 -3.289085E+05 -7.580068E+04  5.159515E+03 -6.159065E-10 -2.129921E-11
        29  15 -1.340334E+04 -3.392583E+05 -4.487428E+04  5.446734E+03  8.247628E-12  2.076916E-11
        29  16 -1.083036E+05 -2.216124E+05 -1.205119E+05 -8.638712E+04 -2.480228E-10  1.728702E-09
        29  17 -1.736105E+04 -2.160981E+05 -5.557625E+04 -4.132282E+04 -5.512123E-10  6.453218E-10
        29  18  1.179594E+04 -2.303717E+05 -2.779861E+04  4.323252E+03  3.467671E-10 -1.847509E-10
        29  19 -1.662268E+05 -4.569232E+05 -1.747231E+05  9.727376E+04  1.661323E+03  1.124848E+05
        29  20 -7.058105E+04 -4.416968E+05 -9.601559E+04  5.163348E+04  5.687117E+03  6.837817E+04
        29  21 -3.860298E+04 -4.481325E+05 -6.194903E+04  6.570153E+03  7.223041E+03  2.426987E+04
        29  22 -1.372795E+05 -3.392791E+05 -1.476120E+05  5.452151E+03  1.644498E+03  1.010855E+05
        29  23 -4.397432E+04 -3.289043E+05 -7.579331E+04  5.159801E+03  5.681727E+03  6.236162E+04
        29  24 -1.340313E+04 -3.392577E+05 -4.487313E+04  5.446872E+03  7.222847E+03  2.363695E+04
        29  25 -1.083014E+05 -2.216037E+05 -1.204968E+05 -8.638701E+04  1.631050E+03  8.968412E+04
        29  26 -1.736016E+04 -2.160946E+05 -5.557022E+04 -4.132256E+04  5.677239E+03  5.634401E+04
        29  27  1.179614E+04 -2.303712E+05 -2.779752E+04  4.323386E+03  7.222656E+03  2.300393E+04
        30   1 -3.508346E+04 -4.415831E+05 -5.298949E+04  1.144609E+04 -7.304681E+03 -1.806206E+04
        30   2 -2.837369E+04 -4.350109E+05 -4.388941E+04  5.569843E+03 -7.322424E+03 -2.547376E+03
        30   3 -3.113667E+04 -4.328279E+05 -4.726231E+04  4.693651E+02 -6.827575E+03  1.296739E+04
        30   4 -1.062697E+04 -3.355851E+05 -3.674829E+04  5.490466E+03 -7.304355E+03 -1.747008E+04
        30   5 -5.040713E+03 -3.334864E+05 -2.879345E+04  5.102358E+03 -7.322340E+03 -3.060332E+03
        30   6 -8.734476E+03 -3.355843E+05 -3.254269E+04  5.490051E+03 -6.827502E+03  1.134939E+04
        30   7  1.382910E+04 -2.295759E+05 -2.050731E+04 -4.662182E+02 -7.304040E+03 -1.687800E+04
        30   8  1.829178E+04 -2.319515E+05 -1.369768E+04  4.634793E+03 -7.322255E+03 -3.573369E+03
        30   9  1.366736E+04 -2.383312E+05 -1.782323E+04  1.051155E+04 -6.827456E+03  9.731156E+03
        30  10 -3.508360E+04 -4.415834E+05 -5.299021E+04  1.144599E+04  1.241269E-09 -6.487324E-08
        30  11 -2.837374E+04 -4.350109E+05 -4.388953E+04  5.569827E+03  1.686178E-09 -2.964979E-11
        30  12 -3.113677E+04 -4.328281E+05 -4.726271E+04  4.694364E+02  1.049115E-09  6.476536E-08
        30  13 -1.062711E+04 -3.355855E+05 -3.674896E+04  5.490364E+03  1.370713E-09  1.170982E-11
        30  14 -5.040773E+03 -3.334864E+05 -2.879357E+04  5.102340E+03  1.899980E-09 -1.258549E-11
        30  15 -8.734561E+03 -3.355845E+05 -3.254302E+04  5.490113E+03  1.201254E-09  3.822507E-11
        30  16  1.382896E+04 -2.295762E+05 -2.050795E+04 -4.663175E+02  1.253650E-09  6.486281E-08
        30  17  1.829171E+04 -2.319515E+05 -1.369781E+04  4.634772E+03  1.687353E-09  9.582520E-11
        30  18  1.366729E+04 -2.383313E+05 -1.782350E+04  1.051161E+04  1.024474E-09 -6.477153E-08
        30  19 -3.508346E+04 -4.415831E+05 -5.298949E+04  1.144609E+04  7.304681E+03  1.806206E+04
        30  20 -2.837369E+04 -4.350109E+05 -4.388941E+04  5.569843E+03  7.322424E+03  2.547376E+03
        30  21 -3.113667E+04 -4.328279E+05 -4.726231E+04  4.693651E+02  6.827575E+03 -1.296739E+04
        30  22 -1.062697E+04 -3.355851E+05 -3.674829E+04  5.490466E+03  7.304355E+03  1.747008E+04
        30  23 -5.040713E+03 -3.334864E+05 -2.879345E+04  5.102358E+03  7.322340E+03  3.060332E+03
        30  24 -8.734476E+03 -3.355843E+05 -3.254269E+04  5.490051E+03  6.827502E+03 -1.134939E+04
        30  25  1.382910E+04 -2.295759E+05 -2.050731E+04 -4.662182E+02  7.304040E+03  1.687800E+04
        30  26  1.829178E+04 -2.319515E+05 -1.369768E+04  4.634793E+03  7.322255E+03  3.573369E+03
        30  27  1.366736E+04 -2.383312E+05 -1.782323E+04  1.051155E+04  6.827456E+03 -9.731156E+03
        31   1 -3.275330E+04 -4.329605E+05 -5.279238E+04  4.546317E+03 -6.440164E+03  1.839295E+04
        31   2 -5.634530E+04 -4.199109E+05 -7.745035E+04 -3.223300E+04 -4.781097E+03  5.375394E+04
        31   3 -1.309328E+05 -4.242164E+05 -1.378854E+05 -6.808174E+04 -1.338204E+03  8.911398E+04
        31   4 -1.090386E+04 -3.383589E+05 -3.818980E+04  5.523293E+03 -6.440193E+03  1.674345E+04
        31   5 -3.520166E+04 -3.300238E+05 -6.169420E+04  5.062898E+03 -4.778381E+03  4.824796E+04
        31   6 -1.098262E+05 -3.383752E+05 -1.182952E+05  5.531812E+03 -1.328722E+03  7.975168E+04
        31   7  1.094515E+04 -2.437483E+05 -2.358741E+04  6.500423E+03 -6.440227E+03  1.509371E+04
        31   8 -1.405321E+04 -2.401258E+05 -4.593748E+04  4.236436E+04 -4.776326E+03  4.274120E+04
        31   9 -8.869960E+04 -2.525153E+05 -9.870224E+04  7.915564E+04 -1.321462E+03  7.038810E+04
        31  10 -3.275344E+04 -4.329609E+05 -5.279309E+04  4.546412E+03  4.345601E-10  3.868312E-10
        31  11 -5.634610E+04 -4.199140E+05 -7.745582E+04 -3.223279E+04 -4.170663E-10  8.779575E-10
        31  12 -1.309349E+05 -4.242249E+05 -1.379003E+05 -6.808165E+04 -5.105753E-10  1.442556E-09
        31  13 -1.090398E+04 -3.383592E+05 -3.819040E+04  5.523380E+03  1.617665E-10  1.670003E-11
        31  14 -3.520231E+04 -3.300263E+05 -6.169862E+04  5.063084E+03 -5.856636E-10 -1.154118E-11
        31  15 -1.098279E+05 -3.383820E+05 -1.183071E+05  5.531897E+03 -4.947382E-10  7.434203E-11
        31  16  1.094504E+04 -2.437486E+05 -2.358791E+04  6.500501E+03  3.621245E-11 -3.805577E-10
        31  17 -1.405373E+04 -2.401277E+05 -4.594096E+04  4.236452E+04 -6.513139E-10 -8.101477E-10
        31  18 -8.870093E+04 -2.525207E+05 -9.871155E+04  7.915572E+04 -3.150017E-10 -1.465834E-09
        31  19 -3.275330E+04 -4.329605E+05 -5.279238E+04  4.546317E+03  6.440164E+03 -1.839295E+04
        31  20 -5.634530E+04 -4.199109E+05 -7.745035E+04 -3.223300E+04  4.781097E+03 -5.375394E+04
        31  21 -1.309328E+05 -4.242164E+05 -1.378854E+05 -6.808174E+04  1.338204E+03 -8.911398E+04
        31  22 -1.090386E+04 -3.383589E+05 -3.818980E+04  5.523293E+03  6.440193E+03 -1.674345E+04
        31  23 -3.520166E+04 -3.300238E+05 -6.169420E+04  5.062898E+03  4.778381E+03 -4.824796E+04
        31  24 -1.098262E+05 -3.383752E+05 -1.182952E+05  5.531812E+03  1.328722E+03 -7.975168E+04
        31  25  1.094515E+04 -2.437483E+05 -2.358741E+04  6.500423E+03  6.440227E+03 -1.509371E+04
        31  26 -1.405321E+04 -2.401258E+05 -4.593748E+04  4.236436E+04  4.776326E+03 -4.274120E+04
        31  27 -8.869960E+04 -2.525153E+05 -9.870224E+04  7.915564E+04  1.321462E+03 -7.038810E+04
        32   1  6.123724E+04 -7.177898E+04 -6.833357E+04  4.902316E+04 -2.427344E+04 -1.448088E+04
        32   2  8.486954E+04 -4.143519E+04 -4.444178E+04  5.969679E+04 -1.690497E+04 -4.775122E+02
        32   3  1.093768E+05 -2.208239E+04 -3.150778E+04  7.025342E+04 -6.330546E+03  9.253320E+03
        32   4  2.345374E+05  6.241871E+04 -1.086307E+04  1.401222E+05 -7.936239E+03 -2.230444E+03
        32   5  2.347510E+05  6.984979E+04 -5.393136E+03  1.379804E+05 -9.797813E+03  4.851229E+03
        32   6  2.378422E+05  6.829308E+04 -2.869613E+03  1.357207E+05 -8.454738E+03  7.660270E+03
        32   7  4.078707E+05  1.966376E+05  4.660514E+04  2.312516E+05  8.407208E+03  1.002523E+04
        32   8  3.846572E+05  1.811491E+05  3.365356E+04  2.162857E+05 -2.688415E+03  1.018178E+04
        32   9  3.663246E+05  1.586771E+05  2.576689E+04  2.012025E+05 -1.057948E+04  6.066810E+03
        32  10  6.123655E+04 -7.177936E+04 -6.833507E+04  4.902287E+04 -4.124048E-10 -1.796306E-10
        32  11  8.486923E+04 -4.143527E+04 -4.444232E+04  5.969679E+04 -6.568376E-10  2.718658E-10
        32  12  1.093767E+05 -2.208249E+04 -3.150801E+04  7.025346E+04 -1.627888E-09  1.055726E-09
        32  13  2.345373E+05  6.241868E+04 -1.086320E+04  1.401222E+05  2.178627E-10  5.211586E-11
        32  14  2.347509E+05  6.984974E+04 -5.393361E+03  1.379804E+05 -1.838139E-10  1.459401E-10
        32  15  2.378421E+05  6.829300E+04 -2.869858E+03  1.357207E+05 -5.004216E-10  1.358814E-10
        32  16  4.078706E+05  1.966375E+05  4.660482E+04  2.312515E+05  2.948716E-10  2.839315E-10
        32  17  3.846571E+05  1.811490E+05  3.365335E+04  2.162858E+05  3.276371E-10  3.181205E-11
        32  18  3.663245E+05  1.586770E+05  2.576661E+04  2.012025E+05  1.417212E-09 -8.077029E-10
        32  19  6.123724E+04 -7.177898E+04 -6.833357E+04  4.902316E+04  2.427344E+04  1.448088E+04
        32  20  8.486954E+04 -4.143519E+04 -4.444178E+04  5.969679E+04  1.690497E+04  4.775122E+02
        32  21  1.093768E+05 -2.208239E+04 -3.150778E+04  7.025342E+04  6.330546E+03 -9.253320E+03
        32  22  2.345374E+05  6.241871E+04 -1.086307E+04  1.401222E+05  7.936239E+03  2.230444E+03
        32  23  2.347510E+05  6.984979E+04 -5.393136E+03  1.379804E+05  9.797813E+03 -4.851229E+03
        32  24  2.378422E+05  6.829308E+04 -2.869613E+03  1.357207E+05  8.454738E+03 -7.660270E+03
        32  25  4.078707E+05  1.966376E+05  4.660514E+04  2.312516E+05 -8.407208E+03 -1.002523E+04
        32  26  3.846572E+05  1.811491E+05  3.365356E+04  2.162857E+05  2.688415E+03 -1.018178E+04
        32  27  3.663246E+05  1.586771E+05  2.576689E+04  2.012025E+05  1.057948E+04 -6.066810E+03
        33   1  1.259277E+05 -1.101359E+04 -2.657147E+04  7.818634E+04 -5.416207E+03  8.782174E+03
        33   2  1.481222E+05  1.022568E+04 -1.906221E+04  9.156233E+04 -2.948253E+03  8.647410E+03
        33   3  1.757066E+05  2.506010E+04 -1.293947E+04  1.033303E+05 -9.553117E+01  7.999495E+03
        33   4  2.381928E+05  6.845622E+04 -2.104522E+03  1.357377E+05 -7.607295E+03  7.139088E+03
        33   5  2.355049E+05  7.176361E+04 -1.012793E+03  1.363742E+05 -6.248041E+03  6.173239E+03
        33   6  2.384468E+05  6.890617E+04 -3.455072E+02  1.354021E+05 -4.504123E+03  4.694218E+03
        33   7  3.504731E+05  1.479341E+05  2.236190E+04  1.933012E+05 -9.798913E+03  5.495602E+03
        33   8  3.228978E+05  1.333072E+05  1.703678E+04  1.811940E+05 -9.548485E+03  3.698574E+03
        33   9  3.011932E+05  1.127558E+05  1.224897E+04  1.674784E+05 -8.913408E+03  1.388424E+03
        33  10  1.259276E+05 -1.101368E+04 -2.657167E+04  7.818637E+04 -1.202100E-08 -7.015701E-09
        33  11  1.481221E+05  1.022560E+04 -1.906237E+04  9.156235E+04  1.100508E-08  7.534452E-09
        33  12  1.757066E+05  2.506003E+04 -1.293959E+04  1.033303E+05  2.063132E-08  1.319772E-08
        33  13  2.381928E+05  6.845615E+04 -2.104726E+03  1.357377E+05  4.221300E-09  3.116739E-09
        33  14  2.355048E+05  7.176356E+04 -1.012938E+03  1.363742E+05  1.062830E-08  7.481815E-09
        33  15  2.384467E+05  6.890614E+04 -3.455867E+02  1.354021E+05  4.531711E-09  2.953686E-09
        33  16  3.504729E+05  1.479341E+05  2.236166E+04  1.933013E+05  2.036254E-08  1.317407E-08
        33  17  3.228977E+05  1.333072E+05  1.703659E+04  1.811940E+05  1.065037E-08  7.448185E-09
        33  18  3.011931E+05  1.127558E+05  1.224881E+04  1.674784E+05 -1.198730E-08 -7.237415E-09
        33  19  1.259277E+05 -1.101359E+04 -2.657147E+04  7.818634E+04  5.416207E+03 -8.782174E+03
        33  20  1.481222E+05  1.022568E+04 -1.906221E+04  9.156233E+04  2.948253E+03 -8.647410E+03
        33  21  1.757066E+05  2.506010E+04 -1.293947E+04  1.033303E+05  9.553117E+01 -7.999495E+03
        33  22  2.381928E+05  6.845622E+04 -2.104522E+03  1.357377E+05  7.607295E+03 -7.139088E+03
        33  23  2.355049E+05  7.176361E+04 -1.012793E+03  1.363742E+05  6.248041E+03 -6.173239E+03
        33  24  2.384468E+05  6.890617E+04 -3.455072E+02  1.354021E+05  4.504123E+03 -4.694218E+03
        33  25  3.504731E+05  1.479341E+05  2.236190E+04  1.933012E+05  9.798913E+03 -5.495602E+03
        33  26  3.228978E+05  1.333072E+05  1.703678E+04  1.811940E+05  9.548485E+03 -3.698574E+03
        33  27  3.011932E+05  1.127558E+05  1.224897E+04  1.674784E+05  8.913408E+03 -1.388424E+03
        34   1  1.913771E+05  3.600174E+04 -9.398383E+03  1.113139E+05  8.445736E+02  6.814814E+03
        34   2  2.133521E+05  5.643708E+04 -3.833462E+03  1.249013E+05  2.225344E+03  4.645763E+03
        34   3  2.412723E+05  7.100658E+04  1.869814E+03  1.367620E+05  3.617275E+03  2.461704E+03
        34   4  2.384889E+05  6.892061E+04 -7.350952E+01  1.354171E+05 -3.571399E+03  3.504095E+03
        34   5  2.355393E+05  7.189694E+04  4.777381E+02  1.362454E+05 -2.223096E+03  1.310794E+03
        34   6  2.385417E+05  6.901454E+04  1.195661E+03  1.353467E+05 -8.636185E+02 -8.975209E+02
        34   7  2.856023E+05  1.018401E+05  9.251025E+03  1.595220E+05 -7.987712E+03  1.931219E+02
        34   8  2.577269E+05  8.735694E+04  4.788947E+03  1.475899E+05 -6.671693E+03 -2.024290E+03
        34   9  2.358111E+05  6.702254E+04  5.216251E+02  1.339314E+05 -5.344482E+03 -4.256722E+03
        34  10  1.913771E+05  3.600169E+04 -9.398471E+03  1.113139E+05  1.595842E-09 -9.619873E-10
        34  11  2.133521E+05  5.643706E+04 -3.833512E+03  1.249013E+05  6.159400E-10 -1.829369E-10
        34  12  2.412723E+05  7.100657E+04  1.869778E+03  1.367620E+05  6.166159E-10  1.629187E-10
        34  13  2.384889E+05  6.892059E+04 -7.355657E+01  1.354171E+05  1.495397E-12  1.413775E-11
        34  14  2.355393E+05  7.189693E+04  4.777256E+02  1.362454E+05  2.275169E-10  1.248728E-10
        34  15  2.385417E+05  6.901454E+04  1.195658E+03  1.353467E+05 -2.127027E-10  6.225875E-11
        34  16  2.856023E+05  1.018401E+05  9.250905E+03  1.595220E+05 -1.248725E-09  9.841948E-10
        34  17  2.577268E+05  8.735692E+04  4.788856E+03  1.475899E+05 -5.107411E-10  3.539587E-10
        34  18  2.358111E+05  6.702252E+04  5.215374E+02  1.339314E+05 -5.442980E-10 -6.839101E-11
        34  19  1.913771E+05  3.600174E+04 -9.398383E+03  1.113139E+05 -8.445736E+02 -6.814814E+03
        34  20  2.133521E+05  5.643708E+04 -3.833462E+03  1.249013E+05 -2.225344E+03 -4.645763E+03
        34  21  2.412723E+05  7.100658E+04  1.869814E+03  1.367620E+05 -3.617275E+03 -2.461704E+03
        34  22  2.384889E+05  6.892061E+04 -7.350952E+01  1.354171E+05  3.571399E+03 -3.504095E+03
        34  23  2.355393E+05  7.189694E+04  4.777381E+02  1.362454E+05  2.223096E+03 -1.310794E+03
        34  24  2.385417E+05  6.901454E+04  1.195661E+03  1.353467E+05  8.636185E+02  8.975209E+02
        34  25  2.856023E+05  1.018401E+05  9.251025E+03  1.595220E+05  7.987712E+03 -1.931219E+02
        34  26  2.577269E+05  8.735694E+04  4.788947E+03  1.475899E+05  6.671693E+03  2.024290E+03
        34  27  2.358111E+05  6.702254E+04  5.216251E+02  1.339314E+05  5.344482E+03  4.256722E+03
        35   1  2.568437E+05  8.209585E+04  5.592683E+03  1.447952E+05  4.334422E+03  1.088671E+03
        35   2  2.793626E+05  1.021061E+05  1.233674E+04  1.578718E+05  3.653597E+03 -2.354445E+03
        35   3  3.085991E+05  1.172337E+05  2.107819E+04  1.689668E+05  2.682170E+03 -5.410221E+03
        35   4  2.386047E+05  6.907238E+04  1.676027E+03  1.353790E+05 -1.412589E+02 -2.266676E+03
        35   5  2.356712E+05  7.220006E+04  3.123769E+03  1.359231E+05  1.522379E+01 -5.082192E+03
        35   6  2.392726E+05  7.026266E+04  5.842403E+03  1.344847E+05 -1.187671E+02 -7.510216E+03
        35   7  2.203658E+05  5.604886E+04 -2.240672E+03  1.259630E+05 -4.616865E+03 -5.621965E+03
        35   8  1.919821E+05  4.229517E+04 -6.089203E+03  1.139762E+05 -3.622809E+03 -7.809691E+03
        35   9  1.699534E+05  2.329546E+04 -9.393044E+03  1.000078E+05 -2.919223E+03 -9.609865E+03
        35  10  2.568437E+05  8.209584E+04  5.592646E+03  1.447951E+05  7.657282E-11  5.998414E-11
        35  11  2.793626E+05  1.021061E+05  1.233670E+04  1.578718E+05 -2.099057E-10  1.774692E-10
        35  12  3.085990E+05  1.172337E+05  2.107813E+04  1.689668E+05  3.320458E-12  1.706414E-10
        35  13  2.386047E+05  6.907237E+04  1.676018E+03  1.353790E+05 -1.967535E-10  1.096116E-10
        35  14  2.356712E+05  7.220004E+04  3.123720E+03  1.359231E+05 -3.494889E-10  2.944837E-11
        35  15  2.392726E+05  7.026259E+04  5.842297E+03  1.344847E+05 -1.696885E-10  2.665218E-11
        35  16  2.203657E+05  5.604882E+04 -2.240771E+03  1.259630E+05 -3.591401E-10  1.051447E-10
        35  17  1.919821E+05  4.229510E+04 -6.089342E+03  1.139762E+05 -3.853050E-10  6.051829E-11
        35  18  1.699533E+05  2.329536E+04 -9.393233E+03  1.000077E+05 -2.585781E-10 -8.910318E-11
        35  19  2.568437E+05  8.209585E+04  5.592683E+03  1.447952E+05 -4.334422E+03 -1.088671E+03
        35  20  2.793626E+05  1.021061E+05  1.233674E+04  1.578718E+05 -3.653597E+03  2.354445E+03
        35  21  3.085991E+05  1.172337E+05  2.107819E+04  1.689668E+05 -2.682170E+03  5.410221E+03
        35  22  2.386047E+05  6.907238E+04  1.676027E+03  1.353790E+05  1.412589E+02  2.266676E+03
        35  23  2.356712E+05  7.220006E+04  3.123769E+03  1.359231E+05 -1.522379E+01  5.082192E+03
        35  24  2.392726E+05  7.026266E+04  5.842403E+03  1.344847E+05  1.187671E+02  7.510216E+03
        35  25  2.203658E+05  5.604886E+04 -2.240672E+03  1.259630E+05  4.616865E+03  5.621965E+03
        35  26  1.919821E+05  4.229517E+04 -6.089203E+03  1.139762E+05  3.622809E+03  7.809691E+03
        35  27  1.699534E+05  2.329546E+04 -9.393044E+03  1.000078E+05  2.919223E+03  9.609865E+03
        36   1  3.242239E+05  1.299234E+05  2.697573E+04  1.773361E+05  2.473452E+03 -6.923862E+03
        36   2  3.555648E+05  1.449692E+05  4.266023E+04  1.838665E+05 -1.073003E+04 -1.627077E+04
        36   3  4.010274E+05  1.652495E+05  7.231812E+04  1.848065E+05 -2.637299E+04 -2.236659E+04
        36   4  2.399231E+05  7.097442E+04  7.817550E+03  1.346114E+05 -2.761567E+02 -8.985450E+03
        36   5  2.380194E+05  7.693855E+04  1.444362E+04  1.315413E+05 -6.450458E+03 -1.306263E+04
        36   6  2.487132E+05  8.661444E+04  2.894616E+04  1.228803E+05 -1.506349E+04 -1.388808E+04
        36   7  1.556306E+05  1.202971E+04 -1.134101E+04  9.189337E+04 -3.025269E+03 -1.104667E+04
        36   8  1.204884E+05  8.912136E+03 -1.377428E+04  7.922592E+04 -2.171937E+03 -9.855075E+03
        36   9  9.642116E+04  7.983448E+03 -1.442830E+04  6.096741E+04 -3.757572E+03 -5.411238E+03
        36  10  3.242238E+05  1.299234E+05  2.697563E+04  1.773361E+05 -2.650725E-10  3.864758E-11
        36  11  3.555646E+05  1.449689E+05  4.265952E+04  1.838664E+05  9.118862E-11  1.234657E-10
        36  12  4.010265E+05  1.652487E+05  7.231588E+04  1.848061E+05  5.620713E-11  1.753396E-10
        36  13  2.399231E+05  7.097433E+04  7.817398E+03  1.346114E+05 -2.248079E-10  1.377019E-10
        36  14  2.380193E+05  7.693835E+04  1.444322E+04  1.315413E+05 -7.363633E-11  1.079861E-10
        36  15  2.487129E+05  8.661417E+04  2.894537E+04  1.228802E+05 -1.487379E-10  7.863379E-11
        36  16  1.556306E+05  1.202957E+04 -1.134126E+04  9.189334E+04 -1.372209E-10  1.077468E-10
        36  17  1.204883E+05  8.912030E+03 -1.377447E+04  7.922591E+04 -3.775028E-11  2.255057E-11
        36  18  9.642114E+04  7.983413E+03 -1.442838E+04  6.096739E+04 -1.026064E-10 -1.120228E-10
        36  19  3.242239E+05  1.299234E+05  2.697573E+04  1.773361E+05 -2.473452E+03  6.923862E+03
        36  20  3.555648E+05  1.449692E+05  4.266023E+04  1.838665E+05  1.073003E+04  1.627077E+04
        36  21  4.010274E+05  1.652495E+05  7.231812E+04  1.848065E+05  2.637299E+04  2.236659E+04
        36  22  2.399231E+05  7.097442E+04  7.817550E+03  1.346114E+05  2.761567E+02  8.985450E+03
        36  23  2.380194E+05  7.693855E+04  1.444362E+04  1.315413E+05  6.450458E+03  1.306263E+04
        36  24  2.487132E+05  8.661444E+04  2.894616E+04  1.228803E+05  1.506349E+04  1.388808E+04
        36  25  1.556306E+05  1.202971E+04 -1.134101E+04  9.189337E+04  3.025269E+03  1.104667E+04
        36  26  1.204884E+05  8.912136E+03 -1.377428E+04  7.922592E+04  2.171937E+03  9.855075E+03
        36  27  9.642116E+04  7.983448E+03 -1.442830E+04  6.096741E+04  3.757572E+03  5.411238E+03
        37   1  4.247477E+05  3.469827E+04  3.725245E+04  2.318688E+04  2.592054E+04  9.674506E-01
        37   2  4.221519E+05  1.109256E+04  1.882390E+04  1.174934E+04  1.629819E+04  3.082449E-01
        37   3  4.247538E+05  3.270728E+03  1.060314E+04  3.117289E+02  6.675712E+03  3.349773E-03
        37   4  4.247472E+05  3.469726E+04  3.725231E+04  1.715544E-10  2.592054E+04  5.470768E-12
        37   5  4.221517E+05  1.109230E+04  1.882386E+04  5.402135E-10  1.629819E+04  2.199127E-11
        37   6  4.247538E+05  3.270727E+03  1.060314E+04  3.850187E-10  6.675712E+03 -5.043381E-11
        37   7  4.247477E+05  3.469827E+04  3.725245E+04 -2.318688E+04  2.592054E+04 -9.674506E-01
        37   8  4.221519E+05  1.109256E+04  1.882390E+04 -1.174934E+04  1.629819E+04 -3.082449E-01
        37   9  4.247538E+05  3.270728E+03  1.060314E+04 -3.117289E+02  6.675712E+03 -3.349773E-03
        37  10  4.247470E+05  3.469809E+04  3.725119E+04  2.318688E+04 -1.158529E-10  4.228841E-11
        37  11  4.221516E+05  1.109249E+04  1.882340E+04  1.174934E+04  9.746462E-11  9.700256E-11
        37  12  4.247537E+05  3.270716E+03  1.060306E+04  3.117289E+02  3.136706E-10 -2.513572E-12
        37  13  4.247464E+05  3.469708E+04  3.725105E+04  5.996920E-10 -4.208374E-12  1.780850E-11
        37  14  4.221515E+05  1.109223E+04  1.882336E+04  5.896143E-11  4.494086E-10  3.505435E-11
        37  15  4.247537E+05  3.270716E+03  1.060306E+04 -3.218765E-10  2.096717E-10  7.848098E-13
        37  16  4.247470E+05  3.469809E+04  3.725119E+04 -2.318688E+04 -3.629287E-13 -4.661282E-12
        37  17  4.221516E+05  1.109249E+04  1.882340E+04 -1.174934E+04  1.302948E-10 -3.973773E-11
        37  18  4.247537E+05  3.270716E+03  1.060306E+04 -3.117289E+02 -2.140060E-10  1.148286E-11
        37  19  4.247477E+05  3.469827E+04  3.725245E+04  2.318688E+04 -2.592054E+04 -9.674506E-01
        37  20  4.221519E+05  1.109256E+04  1.882390E+04  1.174934E+04 -1.629819E+04 -3.082449E-01
        37  21  4.247538E+05  3.270728E+03  1.060314E+04  3.117289E+02 -6.675712E+03 -3.349773E-03
        37  22  4.247472E+05  3.469726E+04  3.725231E+04  2.420438E-10 -2.592054E+04  2.824431E-11
        37  23  4.221517E+05  1.109230E+04  1.882386E+04 -1.625240E-11 -1.629819E+04  5.758325E-11
        37  24  4.247538E+05  3.270727E+03  1.060314E+04 -3.723756E-10 -6.675712E+03  5.763807E-11
        37  25  4.247477E+05  3.469827E+04  3.725245E+04 -2.318688E+04 -2.592054E+04  9.674506E-01
        37  26  4.221519E+05  1.109256E+04  1.882390E+04 -1.174934E+04 -1.629819E+04  3.082449E-01
        37  27  4.247538E+05  3.270728E+03  1.060314E+04 -3.117289E+02 -6.675712E+03  3.349773E-03
        38   1  4.237563E+05  2.533656E+03  8.270075E+03  1.457523E+03  5.258888E+03  1.233817E-02
        38   2  4.234017E+05  7.049863E+02  5.388772E+03  6.700849E+02  2.567525E+03  2.769401E-03
        38   3  4.237569E+05  3.149872E+02  4.618470E+03 -1.173535E+02 -1.238355E+02  2.339281E-05
        38   4  4.237563E+05  2.533652E+03  8.270075E+03 -5.196980E-10  5.258888E+03 -6.745153E-11
        38   5  4.234017E+05  7.049855E+02  5.388772E+03  2.019267E-10  2.567525E+03 -5.842695E-13
        38   6  4.237569E+05  3.149872E+02  4.618470E+03 -1.557107E-10 -1.238355E+02  4.492436E-11
        38   7  4.237563E+05  2.533656E+03  8.270075E+03 -1.457523E+03  5.258888E+03 -1.233817E-02
        38   8  4.234017E+05  7.049863E+02  5.388772E+03 -6.700849E+02  2.567525E+03 -2.769401E-03
        38   9  4.237569E+05  3.149872E+02  4.618470E+03  1.173535E+02 -1.238355E+02 -2.339272E-05
        38  10  4.237563E+05  2.533649E+03  8.270023E+03  1.457523E+03  1.559182E-10 -4.297453E-11
        38  11  4.234017E+05  7.049845E+02  5.388760E+03  6.700849E+02 -3.804263E-11  1.183443E-12
        38  12  4.237569E+05  3.149872E+02  4.618470E+03 -1.173535E+02  2.056791E-12  1.990204E-11
        38  13  4.237563E+05  2.533645E+03  8.270023E+03 -3.072100E-10  1.930094E-10 -1.699147E-11
        38  14  4.234017E+05  7.049837E+02  5.388760E+03  2.019324E-10  1.436041E-10  9.512624E-12
        38  15  4.237569E+05  3.149872E+02  4.618470E+03 -2.440618E-10  3.301363E-10  5.068346E-11
        38  16  4.237563E+05  2.533649E+03  8.270023E+03 -1.457523E+03 -2.548674E-11  1.057579E-11
        38  17  4.234017E+05  7.049845E+02  5.388760E+03 -6.700849E+02 -2.176084E-10  1.766930E-11
        38  18  4.237569E+05  3.149872E+02  4.618470E+03  1.173535E+02  1.451872E-10  8.093729E-11
        38  19  4.237563E+05  2.533656E+03  8.270075E+03  1.457523E+03 -5.258888E+03 -1.233817E-02
        38  20  4.234017E+05  7.049863E+02  5.388772E+03  6.700849E+02 -2.567525E+03 -2.769401E-03
        38  21  4.237569E+05  3.149872E+02  4.618470E+03 -1.173535E+02  1.238355E+02 -2.339278E-05
        38  22  4.237563E+05  2.533652E+03  8.270075E+03 -6.354048E-10 -5.258888E+03  3.380759E-11
        38  23  4.234017E+05  7.049855E+02  5.388772E+03 -4.237033E-12 -2.567525E+03  1.676685E-11
        38  24  4.237569E+05  3.149872E+02  4.618470E+03 -3.744894E-10  1.238355E+02  5.991736E-11
        38  25  4.237563E+05  2.533656E+03  8.270075E+03 -1.457523E+03 -5.258888E+03  1.233817E-02
        38  26  4.234017E+05  7.049863E+02  5.388772E+03 -6.700849E+02 -2.567525E+03  2.769401E-03
        38  27  4.237569E+05  3.149872E+02  4.618470E+03  1.173535E+02  1.238355E+02  2.339290E-05
        39   1  4.237939E+05  3.274771E+02  4.805538E+03  1.812843E+02 -9.261881E+02 -2.702717E-04
        39   2  4.233553E+05  9.364987E+02  6.420710E+03 -8.541018E+02 -4.135414E+03  5.685520E-03
        39   3  4.237929E+05  3.380003E+03  1.058283E+04 -1.889472E+03 -7.344601E+03  2.233829E-02
        39   4  4.237939E+05  3.274771E+02  4.805538E+03 -4.039336E-10 -9.261881E+02  3.541708E-11
        39   5  4.233553E+05  9.364973E+02  6.420710E+03  7.359466E-11 -4.135414E+03  9.756631E-12
        39   6  4.237929E+05  3.379996E+03  1.058283E+04 -1.231501E-10 -7.344601E+03  3.100258E-11
        39   7  4.237939E+05  3.274771E+02  4.805538E+03 -1.812843E+02 -9.261881E+02  2.702718E-04
        39   8  4.233553E+05  9.364987E+02  6.420710E+03  8.541018E+02 -4.135414E+03 -5.685519E-03
        39   9  4.237929E+05  3.380003E+03  1.058283E+04  1.889472E+03 -7.344601E+03 -2.233829E-02
        39  10  4.237939E+05  3.274769E+02  4.805536E+03  1.812843E+02  2.369049E-10  6.715422E-12
        39  11  4.233553E+05  9.364941E+02  6.420678E+03 -8.541018E+02  1.326776E-10 -5.043970E-11
        39  12  4.237929E+05  3.379988E+03  1.058273E+04 -1.889472E+03  5.408929E-11 -1.775593E-11
        39  13  4.237939E+05  3.274768E+02  4.805536E+03 -3.239977E-10 -2.019927E-29  4.659102E-11
        39  14  4.233553E+05  9.364927E+02  6.420677E+03 -1.010234E-10 -1.780959E-11  9.713663E-12
        39  15  4.237929E+05  3.379982E+03  1.058273E+04 -1.515463E-10 -1.151070E-11  2.652484E-11
        39  16  4.237939E+05  3.274769E+02  4.805536E+03 -1.812843E+02  6.815106E-11  1.093622E-10
        39  17  4.233553E+05  9.364941E+02  6.420678E+03  8.541018E+02  2.824750E-12  8.086447E-11
        39  18  4.237929E+05  3.379988E+03  1.058273E+04  1.889472E+03 -9.715642E-11  5.503122E-11
        39  19  4.237939E+05  3.274771E+02  4.805538E+03  1.812843E+02  9.261881E+02  2.702717E-04
        39  20  4.233553E+05  9.364987E+02  6.420710E+03 -8.541018E+02  4.135414E+03 -5.685520E-03
        39  21  4.237929E+05  3.380003E+03  1.058283E+04 -1.889472E+03  7.344601E+03 -2.233829E-02
        39  22  4.237939E+05  3.274771E+02  4.805538E+03 -6.522037E-10  9.261881E+02  5.083867E-11
        39  23  4.233553E+05  9.364973E+02  6.420710E+03 -9.508845E-12  4.135414E+03  7.652150E-12
        39  24  4.237929E+05  3.379996E+03  1.058283E+04 -6.017546E-10  7.344601E+03  2.454358E-11
        39  25  4.237939E+05  3.274771E+02  4.805538E+03 -1.812843E+02  9.261881E+02 -2.702715E-04
        39  26  4.233553E+05  9.364987E+02  6.420710E+03  8.541018E+02  4.135414E+03  5.685520E-03
        39  27  4.237929E+05  3.380003E+03  1.058283E+04  1.889472E+03  7.344601E+03  2.233829E-02
        40   1  4.251317E+05  4.357339E+03  1.379555E+04 -3.805884E+02 -9.164794E+03  5.614600E-03
        40   2  4.216780E+05  1.475435E+04  2.488475E+04 -1.559110E+04 -2.188735E+04  5.493049E-01
        40   3  4.251238E+05  4.612925E+04  4.949763E+04 -3.080201E+04 -3.461011E+04  1.716030E+00
        40   4  4.251317E+05  4.357339E+03  1.379555E+04  9.573959E-11 -9.164794E+03  6.394516E-11
        40   5  4.216778E+05  1.475389E+04  2.488468E+04  9.153554E-11 -2.188735E+04  7.997456E-11
        40   6  4.251228E+05  4.612747E+04  4.949738E+04 -7.361292E-11 -3.461011E+04  4.318629E-11
        40   7  4.251317E+05  4.357339E+03  1.379555E+04  3.805884E+02 -9.164794E+03 -5.614600E-03
        40   8  4.216780E+05  1.475435E+04  2.488475E+04  1.559110E+04 -2.188735E+04 -5.493049E-01
        40   9  4.251238E+05  4.612925E+04  4.949763E+04  3.080201E+04 -3.461011E+04 -1.716030E+00
        40  10  4.251316E+05  4.357317E+03  1.379540E+04 -3.805884E+02  1.972688E-11  2.619001E-11
        40  11  4.216775E+05  1.475422E+04  2.488385E+04 -1.559110E+04 -9.708592E-11  6.629214E-11
        40  12  4.251225E+05  4.612893E+04  4.949538E+04 -3.080201E+04 -1.337798E-11  3.521289E-11
        40  13  4.251316E+05  4.357317E+03  1.379540E+04  2.945620E-10  2.841625E-10  6.083410E-11
        40  14  4.216773E+05  1.475376E+04  2.488378E+04  3.808108E-10  1.569538E-10  9.064317E-11
        40  15  4.251215E+05  4.612715E+04  4.949513E+04  2.104696E-11  7.808733E-11  3.127408E-11
        40  16  4.251316E+05  4.357317E+03  1.379540E+04  3.805884E+02 -2.961604E-11  8.973831E-11
        40  17  4.216775E+05  1.475422E+04  2.488385E+04  1.559110E+04  1.326070E-10  1.051819E-10
        40  18  4.251225E+05  4.612893E+04  4.949538E+04  3.080201E+04 -8.755965E-11  2.858783E-11
        40  19  4.251317E+05  4.357339E+03  1.379555E+04 -3.805884E+02  9.164794E+03 -5.614600E-03
        40  20  4.216780E+05  1.475435E+04  2.488475E+04 -1.559110E+04  2.188735E+04 -5.493049E-01
        40  21  4.251238E+05  4.612925E+04  4.949763E+04 -3.080201E+04  3.461011E+04 -1.716030E+00
        40  22  4.251317E+05  4.357339E+03  1.379555E+04 -1.072556E-10  9.164794E+03  6.033938E-11
        40  23  4.216778E+05  1.475389E+04  2.488468E+04  5.354414E-10  2.188735E+04  9.313423E-11
        40  24  4.251228E+05  4.612747E+04  4.949738E+04  6.942310E-11  3.461011E+04  1.744988E-11
        40  25  4.251317E+05  4.357339E+03  1.379555E+04  3.805884E+02  9.164794E+03  5.614600E-03
        40  26  4.216780E+05  1.475435E+04  2.488475E+04  1.559110E+04  2.188735E+04  5.493049E-01
        40  27  4.251238E+05  4.612925E+04  4.949763E+04  3.080201E+04  3.461011E+04  1.716030E+00
        41   1 -9.648482E+04 -2.406383E+05 -1.032545E+05  4.820176E+04 -3.395143E+02 -7.205729E+04
        41   2 -3.485826E+04 -2.454748E+05 -5.528725E+04  1.800575E+04 -1.412046E+03 -4.508298E+04
        41   3 -1.652973E+04 -2.646481E+05 -3.570814E+04 -1.434236E+04 -2.377412E+03 -1.810862E+04
        41   4 -9.464449E+04 -2.328900E+05 -1.017870E+05 -1.512631E+04 -3.322201E+02 -6.961413E+04
        41   5 -3.031933E+04 -2.257361E+05 -5.233517E+04 -1.405031E+04 -1.409758E+03 -4.287693E+04
        41   6 -9.254163E+03 -2.328802E+05 -3.110752E+04 -1.512585E+04 -2.377413E+03 -1.613925E+04
        41   7 -9.278909E+04 -2.251330E+05 -1.003173E+05 -7.845518E+04 -3.254245E+02 -6.717094E+04
        41   8 -2.577655E+04 -2.059947E+05 -4.938253E+04 -4.610744E+04 -1.407698E+03 -4.067081E+04
        41   9 -1.978639E+03 -2.011112E+05 -2.650690E+04 -1.590937E+04 -2.377420E+03 -1.416979E+04
        41  10 -9.648622E+04 -2.406439E+05 -1.032643E+05  4.820174E+04 -8.141692E-11 -1.113060E-10
        41  11 -3.485881E+04 -2.454770E+05 -5.529108E+04  1.800570E+04 -2.341123E-10 -6.267645E-12
        41  12 -1.652982E+04 -2.646485E+05 -3.570877E+04 -1.434240E+04 -3.810206E-11  1.109162E-10
        41  13 -9.464580E+04 -2.328952E+05 -1.017961E+05 -1.512633E+04  1.260200E-10 -4.815144E-12
        41  14 -3.031983E+04 -2.257381E+05 -5.233863E+04 -1.405036E+04 -3.718592E-10 -5.316757E-12
        41  15 -9.254239E+03 -2.328805E+05 -3.110802E+04 -1.512588E+04 -1.468089E-10  7.829791E-12
        41  16 -9.279030E+04 -2.251378E+05 -1.003258E+05 -7.845520E+04  1.195016E-10  1.075840E-10
        41  17 -2.577700E+04 -2.059965E+05 -4.938565E+04 -4.610749E+04 -2.375976E-10  1.180934E-11
        41  18 -1.978699E+03 -2.011114E+05 -2.650728E+04 -1.590940E+04 -2.195728E-10 -1.124550E-10
        41  19 -9.648482E+04 -2.406383E+05 -1.032545E+05  4.820176E+04  3.395143E+02  7.205729E+04
        41  20 -3.485826E+04 -2.454748E+05 -5.528725E+04  1.800575E+04  1.412046E+03  4.508298E+04
        41  21 -1.652973E+04 -2.646481E+05 -3.570814E+04 -1.434236E+04  2.377412E+03  1.810862E+04
        41  22 -9.464449E+04 -2.328900E+05 -1.017870E+05 -1.512631E+04  3.322201E+02  6.961413E+04
        41  23 -3.031933E+04 -2.257361E+05 -5.233517E+04 -1.405031E+04  1.409758E+03  4.287693E+04
        41  24 -9.254163E+03 -2.328802E+05 -3.110752E+04 -1.512585E+04  2.377413E+03  1.613925E+04
        41  25 -9.278909E+04 -2.251330E+05 -1.003173E+05 -7.845518E+04  3.254245E+02  6.717094E+04
        41  26 -2.577655E+04 -2.059947E+05 -4.938253E+04 -4.610744E+04  1.407698E+03  4.067081E+04
        41  27 -1.978639E+03 -2.011112E+05 -2.650690E+04 -1.590937E+04  2.377420E+03  1.416979E+04
        42   1 -1.634700E+04 -2.696404E+05 -3.129320E+04 -1.099235E+04 -2.914103E+03 -1.381714E+04
        42   2 -1.532397E+04 -2.801215E+05 -2.789405E+04 -1.379371E+04 -3.694758E+03 -3.111544E+03
        42   3 -2.093297E+04 -2.936546E+05 -3.312441E+04 -1.872237E+04 -4.216813E+03  7.593889E+03
        42   4 -7.343651E+03 -2.303602E+05 -2.556840E+04 -1.512054E+04 -2.914024E+03 -1.185293E+04
        42   5 -3.549672E+03 -2.288827E+05 -2.027624E+04 -1.405691E+04 -3.694737E+03 -1.705339E+03
        42   6 -6.290577E+03 -2.303605E+05 -2.322563E+04 -1.512064E+04 -4.216729E+03  8.442274E+03
        42   7  1.659690E+03 -1.910784E+05 -1.984361E+04 -1.924900E+04 -2.913970E+03 -9.888591E+03
        42   8  8.224499E+03 -1.776414E+05 -1.265847E+04 -1.432013E+04 -3.694717E+03 -2.990228E+02
        42   9  8.351672E+03 -1.670623E+05 -1.332694E+04 -1.151854E+04 -4.216634E+03  9.290742E+03
        42  10 -1.634706E+04 -2.696406E+05 -3.129357E+04 -1.099238E+04 -8.715576E-11 -2.987015E-10
        42  11 -1.532398E+04 -2.801215E+05 -2.789410E+04 -1.379372E+04 -2.791621E-10  1.209017E-10
        42  12 -2.093301E+04 -2.936547E+05 -3.312455E+04 -1.872234E+04  2.210719E-11  4.657399E-10
        42  13 -7.343697E+03 -2.303604E+05 -2.556868E+04 -1.512057E+04 -2.906930E-11  2.795371E-12
        42  14 -3.549688E+03 -2.288828E+05 -2.027627E+04 -1.405691E+04  2.588717E-12  2.074824E-11
        42  15 -6.290616E+03 -2.303605E+05 -2.322580E+04 -1.512062E+04 -1.165117E-10  3.994638E-11
        42  16  1.659655E+03 -1.910786E+05 -1.984381E+04 -1.924903E+04 -9.520316E-11  2.939081E-10
        42  17  8.224485E+03 -1.776414E+05 -1.265849E+04 -1.432013E+04  4.145333E-11 -1.013146E-10
        42  18  8.351629E+03 -1.670624E+05 -1.332713E+04 -1.151851E+04  1.250070E-10 -4.693771E-10
        42  19 -1.634700E+04 -2.696404E+05 -3.129320E+04 -1.099235E+04  2.914103E+03  1.381714E+04
        42  20 -1.532397E+04 -2.801215E+05 -2.789405E+04 -1.379371E+04  3.694758E+03  3.111544E+03
        42  21 -2.093297E+04 -2.936546E+05 -3.312441E+04 -1.872237E+04  4.216813E+03 -7.593889E+03
        42  22 -7.343651E+03 -2.303602E+05 -2.556840E+04 -1.512054E+04  2.914024E+03  1.185293E+04
        42  23 -3.549672E+03 -2.288827E+05 -2.027624E+04 -1.405691E+04  3.694737E+03  1.705339E+03
        42  24 -6.290577E+03 -2.303605E+05 -2.322563E+04 -1.512064E+04  4.216729E+03 -8.442274E+03
        42  25  1.659690E+03 -1.910784E+05 -1.984361E+04 -1.924900E+04  2.913970E+03  9.888591E+03
        42  26  8.224499E+03 -1.776414E+05 -1.265847E+04 -1.432013E+04  3.694717E+03  2.990228E+02
        42  27  8.351672E+03 -1.670623E+05 -1.332694E+04 -1.151854E+04  4.216634E+03 -9.290742E+03
        43   1 -2.433010E+04 -3.033058E+05 -3.876969E+04 -1.578412E+04 -4.516846E+03  1.148140E+04
        43   2 -4.499243E+04 -3.089171E+05 -5.968562E+04 -4.103562E+04 -3.870161E+03  3.862474E+04
        43   3 -1.027721E+05 -3.273431E+05 -1.075562E+05 -6.826202E+04 -1.174234E+03  6.576675E+04
        43   4 -7.863580E+03 -2.323803E+05 -2.738440E+04 -1.508735E+04 -4.516781E+03  1.229803E+04
        43   5 -2.543503E+04 -2.263619E+05 -4.448098E+04 -1.409862E+04 -3.868504E+03  3.501411E+04
        43   6 -7.935476E+04 -2.323892E+05 -8.545561E+04 -1.508616E+04 -1.168815E+03  5.772969E+04
        43   7  8.602684E+03 -1.614498E+05 -1.599925E+04 -1.439050E+04 -4.516713E+03  1.311474E+04
        43   8 -5.875282E+03 -1.437985E+05 -2.927618E+04  1.284206E+04 -3.867160E+03  3.140303E+04
        43   9 -5.592738E+04 -1.374208E+05 -6.335388E+04  3.809789E+04 -1.164773E+03  4.969140E+04
        43  10 -2.433015E+04 -3.033059E+05 -3.876998E+04 -1.578407E+04  3.055817E-10 -8.099866E-11
        43  11 -4.499284E+04 -3.089187E+05 -5.968845E+04 -4.103550E+04 -4.549973E-11 -7.223900E-11
        43  12 -1.027733E+05 -3.273477E+05 -1.075643E+05 -6.826196E+04  9.343699E-11 -6.771876E-11
        43  13 -7.863643E+03 -2.323805E+05 -2.738473E+04 -1.508730E+04 -1.710916E-10  1.765511E-11
        43  14 -2.543537E+04 -2.263632E+05 -4.448331E+04 -1.409851E+04 -7.886776E-11  1.301580E-11
        43  15 -7.935566E+04 -2.323928E+05 -8.546188E+04 -1.508611E+04 -1.781648E-10  9.627884E-11
        43  16  8.602616E+03 -1.614500E+05 -1.599961E+04 -1.439045E+04 -9.819248E-11  1.197655E-10
        43  17 -5.875563E+03 -1.437995E+05 -2.927806E+04  1.284216E+04  5.736758E-11  5.162654E-11
        43  18 -5.592804E+04 -1.374235E+05 -6.335852E+04  3.809793E+04 -5.695869E-11  6.353534E-11
        43  19 -2.433010E+04 -3.033058E+05 -3.876969E+04 -1.578412E+04  4.516846E+03 -1.148140E+04
        43  20 -4.499243E+04 -3.089171E+05 -5.968562E+04 -4.103562E+04  3.870161E+03 -3.862474E+04
        43  21 -1.027721E+05 -3.273431E+05 -1.075562E+05 -6.826202E+04  1.174234E+03 -6.576675E+04
        43  22 -7.863580E+03 -2.323803E+05 -2.738440E+04 -1.508735E+04  4.516781E+03 -1.229803E+04
        43  23 -2.543503E+04 -2.263619E+05 -4.448098E+04 -1.409862E+04  3.868504E+03 -3.501411E+04
        43  24 -7.935476E+04 -2.323892E+05 -8.545561E+04 -1.508616E+04  1.168815E+03 -5.772969E+04
        43  25  8.602684E+03 -1.614498E+05 -1.599925E+04 -1.439050E+04  4.516713E+03 -1.311474E+04
        43  26 -5.875282E+03 -1.437985E+05 -2.927618E+04  1.284206E+04  3.867160E+03 -3.140303E+04
        43  27 -5.592738E+04 -1.374208E+05 -6.335388E+04  3.809789E+04  1.164773E+03 -4.969140E+04
        44   1  4.737935E+04 -4.437986E+04 -4.530608E+04  3.692285E+04 -1.647750E+04 -1.002688E+04
        44   2  6.258843E+04 -2.328378E+04 -2.904477E+04  4.345951E+04 -1.134363E+04 -8.875427E+02
        44   3  7.790058E+04 -9.937047E+03 -2.030624E+04  5.020124E+04 -4.188802E+03  5.557617E+03
        44   4  1.551671E+05  4.148559E+04 -9.096179E+03  9.468409E+04 -6.254624E+03 -2.360756E+03
        44   5  1.558664E+05  4.718699E+04 -4.527929E+03  9.273813E+04 -6.940543E+03  2.414097E+03
        44   6  1.579321E+05  4.640232E+04 -2.430888E+03  9.099700E+04 -5.605858E+03  4.494884E+03
        44   7  2.629649E+05  1.273576E+05  2.711181E+04  1.524560E+05  3.970413E+03  5.307280E+03
        44   8  2.491532E+05  1.176630E+05  1.998789E+04  1.420250E+05 -2.536626E+03  5.716423E+03
        44   9  2.379711E+05  1.027456E+05  1.544412E+04  1.317989E+05 -7.023156E+03  3.431968E+03
        44  10  4.737903E+04 -4.438004E+04 -4.530678E+04  3.692272E+04 -3.589748E-11  9.620770E-12
        44  11  6.258829E+04 -2.328381E+04 -2.904502E+04  4.345951E+04  1.986397E-10 -4.009639E-11
        44  12  7.790055E+04 -9.937085E+03 -2.030633E+04  5.020126E+04 -6.918208E-11  2.844099E-11
        44  13  1.551671E+05  4.148557E+04 -9.096263E+03  9.468408E+04  1.797730E-10  1.031425E-11
        44  14  1.558663E+05  4.718697E+04 -4.528031E+03  9.273814E+04  5.771622E-10 -1.338870E-11
        44  15  1.579320E+05  4.640229E+04 -2.430985E+03  9.099702E+04  1.085097E-10 -6.093694E-12
        44  16  2.629649E+05  1.273576E+05  2.711173E+04  1.524560E+05 -9.612183E-11 -2.153742E-11
        44  17  2.491531E+05  1.176630E+05  1.998782E+04  1.420250E+05 -2.170071E-11  6.565874E-13
        44  18  2.379710E+05  1.027456E+05  1.544400E+04  1.317989E+05  2.742448E-10 -4.844372E-11
        44  19  4.737935E+04 -4.437986E+04 -4.530608E+04  3.692285E+04  1.647750E+04  1.002688E+04
        44  20  6.258843E+04 -2.328378E+04 -2.904477E+04  4.345951E+04  1.134363E+04  8.875427E+02
        44  21  7.790058E+04 -9.937047E+03 -2.030624E+04  5.020124E+04  4.188802E+03 -5.557617E+03
        44  22  1.551671E+05  4.148559E+04 -9.096179E+03  9.468409E+04  6.254624E+03  2.360756E+03
        44  23  1.558664E+05  4.718699E+04 -4.527929E+03  9.273813E+04  6.940543E+03 -2.414097E+03
        44  24  1.579321E+05  4.640232E+04 -2.430888E+03  9.099700E+04  5.605858E+03 -4.494884E+03
        44  25  2.629649E+05  1.273576E+05  2.711181E+04  1.524560E+05 -3.970413E+03 -5.307280E+03
        44  26  2.491532E+05  1.176630E+05  1.998789E+04  1.420250E+05  2.536626E+03 -5.716423E+03
        44  27  2.379711E+05  1.027456E+05  1.544412E+04  1.317989E+05  7.023156E+03 -3.431968E+03
        45   1  8.871150E+04 -2.794908E+03 -1.699472E+04  5.532254E+04 -3.531148E+03  5.288641E+03
        45   2  1.030732E+05  1.105235E+04 -1.198742E+04  6.394750E+04 -1.836990E+03  5.251115E+03
        45   3  1.208780E+05  2.069997E+04 -7.964451E+03  7.155042E+04  9.967047E+01  4.890251E+03
        45   4  1.582084E+05  4.655523E+04 -1.800703E+03  9.101597E+04 -4.990457E+03  4.194268E+03
        45   5  1.565176E+05  4.876744E+04 -9.177450E+02  9.138691E+04 -3.994841E+03  3.633005E+03
        45   6  1.584207E+05  4.693131E+04 -4.129965E+02  9.073543E+04 -2.756805E+03  2.748390E+03
        45   7  2.277126E+05  9.590962E+04  1.339365E+04  1.267149E+05 -6.450015E+03  3.099705E+03
        45   8  2.099655E+05  8.648436E+04  1.015185E+04  1.188291E+05 -6.152937E+03  2.014709E+03
        45   9  1.959643E+05  7.316294E+04  7.138163E+03  1.099214E+05 -5.613445E+03  6.064054E+02
        45  10  8.871148E+04 -2.794941E+03 -1.699480E+04  5.532255E+04 -1.061913E-10  3.502021E-11
        45  11  1.030732E+05  1.105232E+04 -1.198748E+04  6.394750E+04  9.002314E-11  1.180359E-10
        45  12  1.208780E+05  2.069994E+04 -7.964496E+03  7.155042E+04 -1.049569E-10  1.665824E-10
        45  13  1.582084E+05  4.655520E+04 -1.800782E+03  9.101598E+04  2.895294E-10  8.680188E-14
        45  14  1.565176E+05  4.876742E+04 -9.177998E+02  9.138692E+04  2.597690E-10  2.204403E-11
        45  15  1.584207E+05  4.693130E+04 -4.130250E+02  9.073544E+04  6.324527E-11 -3.003397E-11
        45  16  2.277126E+05  9.590960E+04  1.339355E+04  1.267149E+05  1.986072E-10 -2.205357E-11
        45  17  2.099655E+05  8.648435E+04  1.015178E+04  1.188291E+05  1.562176E-10 -4.034974E-11
        45  18  1.959643E+05  7.316293E+04  7.138103E+03  1.099214E+05 -6.877393E-11 -1.679510E-10
        45  19  8.871150E+04 -2.794908E+03 -1.699472E+04  5.532254E+04  3.531148E+03 -5.288641E+03
        45  20  1.030732E+05  1.105235E+04 -1.198742E+04  6.394750E+04  1.836990E+03 -5.251115E+03
        45  21  1.208780E+05  2.069997E+04 -7.964451E+03  7.155042E+04 -9.967047E+01 -4.890251E+03
        45  22  1.582084E+05  4.655523E+04 -1.800703E+03  9.101597E+04  4.990457E+03 -4.194268E+03
        45  23  1.565176E+05  4.876744E+04 -9.177450E+02  9.138691E+04  3.994841E+03 -3.633005E+03
        45  24  1.584207E+05  4.693131E+04 -4.129965E+02  9.073543E+04  2.756805E+03 -2.748390E+03
        45  25  2.277126E+05  9.590962E+04  1.339365E+04  1.267149E+05  6.450015E+03 -3.099705E+03
        45  26  2.099655E+05  8.648436E+04  1.015185E+04  1.188291E+05  6.152937E+03 -2.014709E+03
        45  27  1.959643E+05  7.316294E+04  7.138163E+03  1.099214E+05  5.613445E+03 -6.064054E+02
        46   1  1.310270E+05  2.777220E+04 -5.663539E+03  7.671307E+04  7.339931E+02  4.141904E+03
        46   2  1.452460E+05  4.100154E+04 -2.083404E+03  8.550613E+04  1.701615E+03  2.792677E+03
        46   3  1.632937E+05  5.041738E+04  1.521719E+03  9.318361E+04  2.674957E+03  1.435818E+03
        46   4  1.584503E+05  4.694297E+04 -2.255914E+02  9.074539E+04 -2.127021E+03  1.996682E+03
        46   5  1.565493E+05  4.887453E+04  1.128302E+02  9.128362E+04 -1.175957E+03  6.350545E+02
        46   6  1.584802E+05  4.699592E+04  4.905701E+02  9.070600E+04 -2.191656E+02 -7.342124E+02
        46   7  1.858746E+05  6.611426E+04  5.212391E+03  1.047785E+05 -4.988206E+03 -1.486670E+02
        46   8  1.678529E+05  5.674770E+04  2.309158E+03  9.706131E+04 -4.053633E+03 -1.522646E+03
        46   9  1.536667E+05  4.357441E+04 -5.405709E+02  8.822836E+04 -3.113326E+03 -2.904271E+03
        46  10  1.310270E+05  2.777218E+04 -5.663572E+03  7.671307E+04 -3.315171E-10  5.645862E-11
        46  11  1.452460E+05  4.100153E+04 -2.083424E+03  8.550613E+04  1.617740E-10  8.221698E-11
        46  12  1.632937E+05  5.041737E+04  1.521702E+03  9.318361E+04  3.185581E-10  9.034534E-11
        46  13  1.584503E+05  4.694297E+04 -2.256073E+02  9.074539E+04 -1.358897E-10  1.008825E-11
        46  14  1.565493E+05  4.887453E+04  1.128268E+02  9.128362E+04 -1.880512E-10  3.221874E-12
        46  15  1.584802E+05  4.699592E+04  4.905690E+02  9.070600E+04 -2.556831E-11 -4.601676E-11
        46  16  1.858746E+05  6.611426E+04  5.212344E+03  1.047785E+05  3.202926E-10 -5.656616E-11
        46  17  1.678528E+05  5.674770E+04  2.309123E+03  9.706131E+04  3.287303E-12 -5.694108E-11
        46  18  1.536667E+05  4.357439E+04 -5.406050E+02  8.822835E+04 -5.127938E-10 -1.211382E-10
        46  19  1.310270E+05  2.777220E+04 -5.663539E+03  7.671307E+04 -7.339931E+02 -4.141904E+03
        46  20  1.452460E+05  4.100154E+04 -2.083404E+03  8.550613E+04 -1.701615E+03 -2.792677E+03
        46  21  1.632937E+05  5.041738E+04  1.521719E+03  9.318361E+04 -2.674957E+03 -1.435818E+03
        46  22  1.584503E+05  4.694297E+04 -2.255914E+02  9.074539E+04  2.127021E+03 -1.996682E+03
        46  23  1.565493E+05  4.887453E+04  1.128302E+02  9.128362E+04  1.175957E+03 -6.350545E+02
        46  24  1.584802E+05  4.699592E+04  4.905701E+02  9.070600E+04  2.191656E+02  7.342124E+02
        46  25  1.858746E+05  6.611426E+04  5.212391E+03  1.047785E+05  4.988206E+03  1.486670E+02
        46  26  1.678529E+05  5.674770E+04  2.309158E+03  9.706131E+04  4.053633E+03  1.522646E+03
        46  27  1.536667E+05  4.357441E+04 -5.405709E+02  8.822836E+04  3.113326E+03  2.904271E+03
        47   1  1.733749E+05  5.756544E+04  3.858510E+03  9.837076E+04  3.182008E+03  5.812016E+02
        47   2  1.878352E+05  7.058283E+04  7.984720E+03  1.069174E+05  2.960374E+03 -1.472500E+03
        47   3  2.065207E+05  8.029342E+04  1.317511E+04  1.142309E+05  2.544281E+03 -3.266880E+03
        47   4  1.585087E+05  4.702421E+04  7.272861E+02  9.072217E+04  2.913141E+02 -1.586268E+03
        47   5  1.566110E+05  4.901291E+04  1.416124E+03  9.113254E+04  6.300313E+02 -3.219846E+03
        47   6  1.588171E+05  4.757346E+04  2.683100E+03  9.030971E+04  7.743082E+02 -4.594089E+03
        47   7  1.436431E+05  3.648339E+04 -2.403774E+03  8.307399E+04 -2.599220E+03 -3.753618E+03
        47   8  1.253884E+05  2.744386E+04 -5.152348E+03  7.534878E+04 -1.700128E+03 -4.967056E+03
        47   9  1.111163E+05  1.485487E+04 -7.808988E+03  6.639065E+04 -9.954817E+02 -5.921164E+03
        47  10  1.733749E+05  5.756544E+04  3.858490E+03  9.837076E+04  1.947412E-10 -1.051654E-10
        47  11  1.878352E+05  7.058283E+04  7.984700E+03  1.069174E+05  2.803002E-10 -7.860838E-11
        47  12  2.065207E+05  8.029340E+04  1.317507E+04  1.142309E+05  2.472697E-10 -5.070963E-11
        47  13  1.585087E+05  4.702421E+04  7.272812E+02  9.072217E+04  1.274073E-10 -1.826820E-11
        47  14  1.566110E+05  4.901290E+04  1.416104E+03  9.113254E+04 -6.181627E-11  1.111091E-11
        47  15  1.588171E+05  4.757344E+04  2.683059E+03  9.030971E+04 -7.670201E-11  7.570935E-11
        47  16  1.436431E+05  3.648338E+04 -2.403813E+03  8.307398E+04 -3.786268E-10  5.770163E-11
        47  17  1.253884E+05  2.744383E+04 -5.152400E+03  7.534877E+04 -2.181582E-10  1.944069E-11
        47  18  1.111162E+05  1.485484E+04 -7.809056E+03  6.639065E+04 -1.241967E-10  1.103613E-10
        47  19  1.733749E+05  5.756544E+04  3.858510E+03  9.837076E+04 -3.182008E+03 -5.812016E+02
        47  20  1.878352E+05  7.058283E+04  7.984720E+03  1.069174E+05 -2.960374E+03  1.472500E+03
        47  21  2.065207E+05  8.029342E+04  1.317511E+04  1.142309E+05 -2.544281E+03  3.266880E+03
        47  22  1.585087E+05  4.702421E+04  7.272861E+02  9.072217E+04 -2.913141E+02  1.586268E+03
        47  23  1.566110E+05  4.901291E+04  1.416124E+03  9.113254E+04 -6.300313E+02  3.219846E+03
        47  24  1.588171E+05  4.757346E+04  2.683100E+03  9.030971E+04 -7.743082E+02  4.594089E+03
        47  25  1.436431E+05  3.648339E+04 -2.403774E+03  8.307399E+04  2.599220E+03  3.753618E+03
        47  26  1.253884E+05  2.744386E+04 -5.152348E+03  7.534878E+04  1.700128E+03  4.967056E+03
        47  27  1.111163E+05  1.485487E+04 -7.808988E+03  6.639065E+04  9.954817E+02  5.921164E+03
        48   1  2.166554E+05  8.823419E+04  1.664587E+04  1.195808E+05  2.553350E+03 -4.124392E+03
        48   2  2.351793E+05  9.896543E+04  2.566460E+04  1.249709E+05 -5.084254E+03 -9.408140E+03
        48   3  2.615693E+05  1.113998E+05  4.239548E+04  1.274791E+05 -1.435288E+04 -1.251812E+04
        48   4  1.591052E+05  4.791526E+04  3.599195E+03  9.037250E+04  8.176037E+02 -5.425979E+03
        48   5  1.577111E+05  5.118371E+04  6.664403E+03  8.910480E+04 -2.121630E+03 -7.186749E+03
        48   6  1.631637E+05  5.513625E+04  1.336518E+04  8.495484E+04 -6.691446E+03 -6.773341E+03
        48   7  1.015575E+05  7.597403E+03 -9.448102E+03  6.116670E+04 -9.179666E+02 -6.727434E+03
        48   8  8.024965E+04  3.404562E+03 -1.233618E+04  5.324356E+04  8.404931E+02 -4.965670E+03
        48   9  6.477093E+04 -1.122927E+03 -1.566509E+04  4.243842E+04  9.681410E+02 -1.029629E+03
        48  10  2.166554E+05  8.823417E+04  1.664583E+04  1.195808E+05  1.415066E-10  1.320895E-10
        48  11  2.351793E+05  9.896533E+04  2.566439E+04  1.249708E+05 -1.219809E-10  1.704920E-11
        48  12  2.615691E+05  1.113996E+05  4.239480E+04  1.274789E+05 -3.359243E-10 -7.310074E-11
        48  13  1.591051E+05  4.791522E+04  3.599139E+03  9.037250E+04  4.248604E-11 -9.387685E-12
        48  14  1.577110E+05  5.118365E+04  6.664297E+03  8.910479E+04 -6.366109E-11 -3.737844E-11
        48  15  1.631636E+05  5.513619E+04  1.336501E+04  8.495480E+04 -1.453197E-10 -2.583321E-11
        48  16  1.015575E+05  7.597355E+03 -9.448189E+03  6.116670E+04 -1.816172E-10 -1.062260E-10
        48  17  8.024964E+04  3.404535E+03 -1.233623E+04  5.324357E+04 -2.990053E-11 -7.998754E-11
        48  18  6.477092E+04 -1.122928E+03 -1.566509E+04  4.243842E+04  2.198902E-11  3.803121E-11
        48  19  2.166554E+05  8.823419E+04  1.664587E+04  1.195808E+05 -2.553350E+03  4.124392E+03
        48  20  2.351793E+05  9.896543E+04  2.566460E+04  1.249709E+05  5.084254E+03  9.408140E+03
        48  21  2.615693E+05  1.113998E+05  4.239548E+04  1.274791E+05  1.435288E+04  1.251812E+04
        48  22  1.591052E+05  4.791526E+04  3.599195E+03  9.037250E+04 -8.176037E+02  5.425979E+03
        48  23  1.577111E+05  5.118371E+04  6.664403E+03  8.910480E+04  2.121630E+03  7.186749E+03
        48  24  1.631637E+05  5.513625E+04  1.336518E+04  8.495484E+04  6.691446E+03  6.773341E+03
        48  25  1.015575E+05  7.597403E+03 -9.448102E+03  6.116670E+04  9.179666E+02  6.727434E+03
        48  26  8.024965E+04  3.404562E+03 -1.233618E+04  5.324356E+04 -8.404931E+02  4.965670E+03
        48  27  6.477093E+04 -1.122927E+03 -1.566509E+04  4.243842E+04 -9.681410E+02  1.029629E+03
        49   1  3.194689E+05  2.535248E+04  2.721790E+04  1.693956E+04  1.894199E+04  5.165830E-01
        49   2  3.175718E+05  8.104633E+03  1.374931E+04  8.582986E+03  1.191369E+04  1.646256E-01
        49   3  3.194723E+05  2.389726E+03  7.738105E+03  2.264674E+02  4.885393E+03  1.781215E-03
        49   4  3.194686E+05  2.535194E+04  2.721782E+04 -4.775693E-10  1.894199E+04 -4.923976E-12
        49   5  3.175717E+05  8.104494E+03  1.374929E+04  1.283230E-10  1.191369E+04  7.498493E-12
        49   6  3.194723E+05  2.389725E+03  7.738105E+03 -4.559758E-10  4.885393E+03  5.021998E-12
        49   7  3.194689E+05  2.535248E+04  2.721790E+04 -1.693956E+04  1.894199E+04 -5.165830E-01
        49   8  3.175718E+05  8.104633E+03  1.374931E+04 -8.582986E+03  1.191369E+04 -1.646256E-01
        49   9  3.194723E+05  2.389726E+03  7.738105E+03 -2.264674E+02  4.885393E+03 -1.781215E-03
        49  10  3.194686E+05  2.535238E+04  2.721723E+04  1.693956E+04 -5.170160E-11  3.811718E-11
        49  11  3.175716E+05  8.104595E+03  1.374904E+04  8.582986E+03 -5.117143E-11  8.389633E-11
        49  12  3.194723E+05  2.389719E+03  7.738060E+03  2.264674E+02 -3.647621E-11  6.656279E-11
        49  13  3.194682E+05  2.535184E+04  2.721715E+04 -3.597529E-10 -4.208016E-12  1.535190E-11
        49  14  3.175715E+05  8.104456E+03  1.374902E+04  2.482382E-10 -3.513593E-11  5.131731E-11
        49  15  3.194723E+05  2.389719E+03  7.738060E+03 -4.207402E-10  1.732697E-10  4.893943E-11
        49  16  3.194686E+05  2.535238E+04  2.721723E+04 -1.693956E+04  1.200745E-10 -5.994564E-12
        49  17  3.175716E+05  8.104595E+03  1.374904E+04 -8.582986E+03 -8.839951E-12  7.784200E-13
        49  18  3.194723E+05  2.389719E+03  7.738060E+03 -2.264674E+02  1.216901E-10  3.305661E-11
        49  19  3.194689E+05  2.535248E+04  2.721790E+04  1.693956E+04 -1.894199E+04 -5.165830E-01
        49  20  3.175718E+05  8.104633E+03  1.374931E+04  8.582986E+03 -1.191369E+04 -1.646256E-01
        49  21  3.194723E+05  2.389726E+03  7.738105E+03  2.264674E+02 -4.885393E+03 -1.781215E-03
        49  22  3.194686E+05  2.535194E+04  2.721782E+04 -5.154259E-10 -1.894199E+04  3.767485E-11
        49  23  3.175717E+05  8.104494E+03  1.374929E+04 -1.746118E-10 -1.191369E+04  9.013240E-11
        49  24  3.194723E+05  2.389725E+03  7.738105E+03 -3.386974E-10 -4.885393E+03  9.448364E-11
        49  25  3.194689E+05  2.535248E+04  2.721790E+04 -1.693956E+04 -1.894199E+04  5.165830E-01
        49  26  3.175718E+05  8.104633E+03  1.374931E+04 -8.582986E+03 -1.191369E+04  1.646256E-01
        49  27  3.194723E+05  2.389726E+03  7.738105E+03 -2.264674E+02 -4.885393E+03  1.781215E-03
        50   1  3.187431E+05  1.851398E+03  6.030266E+03  1.063345E+03  3.852193E+03  6.594680E-03
        50   2  3.184849E+05  5.149960E+02  3.915466E+03  4.884337E+02  1.896654E+03  1.491438E-03
        50   3  3.187434E+05  2.274452E+02  3.335522E+03 -8.646900E+01 -5.885453E+01  8.193191E-06
        50   4  3.187431E+05  1.851396E+03  6.030266E+03 -2.250595E-10  3.852193E+03 -1.125841E-11
        50   5  3.184849E+05  5.149956E+02  3.915466E+03 -3.544554E-10  1.896654E+03 -3.666022E-11
        50   6  3.187434E+05  2.274452E+02  3.335522E+03 -5.480160E-10 -5.885453E+01  2.645935E-11
        50   7  3.187431E+05  1.851398E+03  6.030266E+03 -1.063345E+03  3.852193E+03 -6.594680E-03
        50   8  3.184849E+05  5.149960E+02  3.915466E+03 -4.884337E+02  1.896654E+03 -1.491438E-03
        50   9  3.187434E+05  2.274452E+02  3.335522E+03  8.646900E+01 -5.885453E+01 -8.193176E-06
        50  10  3.187430E+05  1.851394E+03  6.030238E+03  1.063345E+03  7.442450E-12 -4.532567E-12
        50  11  3.184849E+05  5.149951E+02  3.915459E+03  4.884337E+02  2.542417E-11 -5.554909E-11
        50  12  3.187434E+05  2.274452E+02  3.335522E+03 -8.646900E+01 -1.592737E-10  1.326925E-11
        50  13  3.187430E+05  1.851392E+03  6.030238E+03  7.155323E-11  5.890377E-11  8.494288E-12
        50  14  3.184849E+05  5.149946E+02  3.915459E+03  3.157726E-11  2.777123E-30 -5.095712E-11
        50  15  3.187434E+05  2.274452E+02  3.335522E+03 -7.992619E-11 -1.727106E-10 -1.995787E-11
        50  16  3.187430E+05  1.851394E+03  6.030238E+03 -1.063345E+03  2.335486E-11  2.082023E-11
        50  17  3.184849E+05  5.149951E+02  3.915459E+03 -4.884337E+02 -1.523448E-12 -5.636336E-11
        50  18  3.187434E+05  2.274452E+02  3.335522E+03  8.646900E+01  1.993837E-10 -5.424460E-11
        50  19  3.187431E+05  1.851398E+03  6.030266E+03  1.063345E+03 -3.852193E+03 -6.594680E-03
        50  20  3.184849E+05  5.149960E+02  3.915466E+03  4.884337E+02 -1.896654E+03 -1.491438E-03
        50  21  3.187434E+05  2.274452E+02  3.335522E+03 -8.646900E+01  5.885453E+01 -8.193186E-06
        50  22  3.187431E+05  1.851396E+03  6.030266E+03  1.052000E-10 -3.852193E+03  2.722512E-11
        50  23  3.184849E+05  5.149956E+02  3.915466E+03  4.249740E-10 -1.896654E+03 -6.873464E-11
        50  24  3.187434E+05  2.274452E+02  3.335522E+03 -3.902158E-10  5.885453E+01 -6.363194E-11
        50  25  3.187431E+05  1.851398E+03  6.030266E+03 -1.063345E+03 -3.852193E+03  6.594680E-03
        50  26  3.184849E+05  5.149960E+02  3.915466E+03 -4.884337E+02 -1.896654E+03  1.491438E-03
        50  27  3.187434E+05  2.274452E+02  3.335522E+03  8.646900E+01  5.885453E+01  8.193079E-06
        51   1  3.187679E+05  2.357244E+02  3.459574E+03  1.288662E+02 -6.373732E+02 -1.322342E-04
        51   2  3.184542E+05  6.685125E+02  4.599795E+03 -6.104413E+02 -2.936280E+03  2.885713E-03
        51   3  3.187674E+05  2.412637E+03  7.563979E+03 -1.349759E+03 -5.235225E+03  1.137636E-02
        51   4  3.187679E+05  2.357244E+02  3.459574E+03 -1.977244E-10 -6.373732E+02  4.288146E-11
        51   5  3.184542E+05  6.685118E+02  4.599795E+03 -3.890686E-11 -2.936280E+03  2.558882E-11
        51   6  3.187674E+05  2.412634E+03  7.563978E+03 -3.387037E-10 -5.235225E+03  6.489343E-11
        51   7  3.187679E+05  2.357244E+02  3.459574E+03 -1.288662E+02 -6.373732E+02  1.322344E-04
        51   8  3.184542E+05  6.685125E+02  4.599795E+03  6.104413E+02 -2.936280E+03 -2.885712E-03
        51   9  3.187674E+05  2.412637E+03  7.563979E+03  1.349759E+03 -5.235225E+03 -1.137636E-02
        51  10  3.187679E+05  2.357243E+02  3.459574E+03  1.288662E+02  3.499915E-11  6.025772E-11
        51  11  3.184542E+05  6.685101E+02  4.599779E+03 -6.104413E+02 -2.234242E-11  4.729875E-11
        51  12  3.187674E+05  2.412630E+03  7.563927E+03 -1.349759E+03 -7.532368E-11  5.056926E-11
        51  13  3.187679E+05  2.357243E+02  3.459574E+03 -1.493324E-10 -9.449524E-28  2.806234E-11
        51  14  3.184542E+05  6.685094E+02  4.599779E+03  1.094081E-10 -8.149715E-11  6.660757E-11
        51  15  3.187674E+05  2.412626E+03  7.563927E+03 -2.945601E-11  3.709148E-11  5.795317E-11
        51  16  3.187679E+05  2.357243E+02  3.459574E+03 -1.288662E+02  7.284267E-11  3.234620E-12
        51  17  3.184542E+05  6.685101E+02  4.599779E+03  6.104413E+02  1.946175E-11  7.937348E-11
        51  18  3.187674E+05  2.412630E+03  7.563927E+03  1.349759E+03 -1.647197E-11  6.723291E-11
        51  19  3.187679E+05  2.357244E+02  3.459574E+03  1.288662E+02  6.373732E+02  1.322344E-04
        51  20  3.184542E+05  6.685125E+02  4.599795E+03 -6.104413E+02  2.936280E+03 -2.885712E-03
        51  21  3.187674E+05  2.412637E+03  7.563979E+03 -1.349759E+03  5.235225E+03 -1.137636E-02
        51  22  3.187679E+05  2.357244E+02  3.459574E+03 -4.354335E-10  6.373732E+02  1.484725E-11
        51  23  3.184542E+05  6.685118E+02  4.599795E+03  5.576488E-11  2.936280E+03  9.814980E-11
        51  24  3.187674E+05  2.412634E+03  7.563978E+03 -1.072985E-10  5.235225E+03  4.960624E-11
        51  25  3.187679E+05  2.357244E+02  3.459574E+03 -1.288662E+02  6.373732E+02 -1.322343E-04
        51  26  3.184542E+05  6.685125E+02  4.599795E+03  6.104413E+02  2.936280E+03  2.885713E-03
        51  27  3.187674E+05  2.412637E+03  7.563979E+03  1.349759E+03  5.235225E+03  1.137636E-02
        52   1  3.197230E+05  3.110221E+03  9.855130E+03 -2.719279E+02 -6.535774E+03  2.861290E-03
        52   2  3.172576E+05  1.053279E+04  1.776849E+04 -1.113054E+04 -1.562000E+04  2.799049E-01
        52   3  3.197187E+05  3.293324E+04  3.533860E+04 -2.198924E+04 -2.470424E+04  8.745698E-01
        52   4  3.197230E+05  3.110221E+03  9.855130E+03 -5.775229E-10 -6.535774E+03  7.331245E-11
        52   5  3.172575E+05  1.053256E+04  1.776846E+04  1.293497E-10 -1.562000E+04  2.685281E-11
        52   6  3.197182E+05  3.293233E+04  3.533847E+04 -3.818455E-10 -2.470424E+04  3.417562E-11
        52   7  3.197230E+05  3.110221E+03  9.855130E+03  2.719279E+02 -6.535774E+03 -2.861290E-03
        52   8  3.172576E+05  1.053279E+04  1.776849E+04  1.113054E+04 -1.562000E+04 -2.799049E-01
        52   9  3.197187E+05  3.293324E+04  3.533860E+04  2.198924E+04 -2.470424E+04 -8.745698E-01
        52  10  3.197229E+05  3.110210E+03  9.855049E+03 -2.719279E+02 -1.427491E-10  2.698241E-11
        52  11  3.172574E+05  1.053273E+04  1.776803E+04 -1.113054E+04 -1.772149E-10 -4.997585E-12
        52  12  3.197181E+05  3.293307E+04  3.533745E+04 -2.198924E+04 -6.499234E-11 -1.158991E-12
        52  13  3.197229E+05  3.110209E+03  9.855049E+03 -1.473144E-10 -1.168126E-10  3.545393E-11
        52  14  3.172572E+05  1.053249E+04  1.776800E+04  2.145494E-10  1.572827E-10  7.930012E-12
        52  15  3.197176E+05  3.293217E+04  3.533732E+04  1.724973E-10  7.313388E-11 -4.980246E-13
        52  16  3.197229E+05  3.110210E+03  9.855049E+03  2.719279E+02  1.535705E-10  4.488513E-11
        52  17  3.172574E+05  1.053273E+04  1.776803E+04  1.113054E+04  2.160806E-10  2.360465E-11
        52  18  3.197181E+05  3.293307E+04  3.533745E+04  2.198924E+04  8.545490E-11  2.320097E-11
        52  19  3.197230E+05  3.110221E+03  9.855130E+03 -2.719279E+02  6.535774E+03 -2.861290E-03
        52  20  3.172576E+05  1.053279E+04  1.776849E+04 -1.113054E+04  1.562000E+04 -2.799049E-01
        52  21  3.197187E+05  3.293324E+04  3.533860E+04 -2.198924E+04  2.470424E+04 -8.745698E-01
        52  22  3.197230E+05  3.110221E+03  9.855130E+03 -2.525059E-10  6.535774E+03 -4.884934E-12
        52  23  3.172575E+05  1.053256E+04  1.776846E+04  7.383779E-10  1.562000E+04 -1.216834E-11
        52  24  3.197182E+05  3.293233E+04  3.533847E+04 -1.556893E-10  2.470424E+04 -3.845433E-11
        52  25  3.197230E+05  3.110221E+03  9.855130E+03  2.719279E+02  6.535774E+03  2.861290E-03
        52  26  3.172576E+05  1.053279E+04  1.776849E+04  1.113054E+04  1.562000E+04  2.799049E-01
        52  27  3.197187E+05  3.293324E+04  3.533860E+04  2.198924E+04  2.470424E+04  8.745698E-01
        53   1 -5.399968E+04 -9.328807E+04 -5.897450E+04  2.070100E+04  2.051956E+02 -4.488787E+04
        53   2 -1.566096E+04 -1.056376E+05 -3.071429E+04  1.434800E+03  3.886250E+02 -2.891241E+04
        53   3 -5.707253E+03 -1.271628E+05 -1.995116E+04 -2.078696E+04 -2.473066E+02 -1.293713E+04
        53   4 -6.277555E+04 -1.286197E+05 -6.751792E+04 -2.130945E+04  2.082801E+02 -4.616308E+04
        53   5 -2.011089E+04 -1.238756E+05 -3.472805E+04 -1.983104E+04  3.895980E+02 -2.842125E+04
        53   6 -6.140199E+03 -1.286158E+05 -2.066304E+04 -2.130813E+04 -2.473883E+02 -1.067912E+04
        53   7 -7.154488E+04 -1.639463E+05 -7.606048E+04 -6.331749E+04  2.115373E+02 -4.743822E+04
        53   8 -2.455914E+04 -1.421124E+05 -3.874159E+04 -4.109625E+04  3.905375E+02 -2.793010E+04
        53   9 -6.573141E+03 -1.300687E+05 -2.137490E+04 -2.182931E+04 -2.474738E+02 -8.421109E+03
        53  10 -5.400022E+04 -9.329023E+04 -5.897829E+04  2.070100E+04  4.757268E-10  2.379577E-09
        53  11 -1.566118E+04 -1.056385E+05 -3.071586E+04  1.434809E+03  7.466336E-10  1.507928E-09
        53  12 -5.707298E+03 -1.271630E+05 -1.995148E+04 -2.078696E+04 -6.034065E-10  1.066589E-09
        53  13 -6.277612E+04 -1.286220E+05 -6.752193E+04 -2.130944E+04  4.454048E-10  2.557459E-13
        53  14 -2.011111E+04 -1.238765E+05 -3.472957E+04 -1.983103E+04  8.260653E-10  4.294196E-12
        53  15 -6.140230E+03 -1.286159E+05 -2.066325E+04 -2.130813E+04 -6.369403E-10 -6.642425E-12
        53  16 -7.154549E+04 -1.639487E+05 -7.606471E+04 -6.331749E+04  3.143285E-10 -2.378222E-09
        53  17 -2.455935E+04 -1.421132E+05 -3.874306E+04 -4.109624E+04  7.262543E-10 -1.515946E-09
        53  18 -6.573160E+03 -1.300688E+05 -2.137503E+04 -2.182931E+04 -5.354521E-10 -1.068002E-09
        53  19 -5.399968E+04 -9.328807E+04 -5.897450E+04  2.070100E+04 -2.051956E+02  4.488787E+04
        53  20 -1.566096E+04 -1.056376E+05 -3.071429E+04  1.434800E+03 -3.886250E+02  2.891241E+04
        53  21 -5.707253E+03 -1.271628E+05 -1.995116E+04 -2.078696E+04  2.473066E+02  1.293713E+04
        53  22 -6.277555E+04 -1.286197E+05 -6.751792E+04 -2.130945E+04 -2.082801E+02  4.616308E+04
        53  23 -2.011089E+04 -1.238756E+05 -3.472805E+04 -1.983104E+04 -3.895980E+02  2.842125E+04
        53  24 -6.140199E+03 -1.286158E+05 -2.066304E+04 -2.130813E+04  2.473883E+02  1.067912E+04
        53  25 -7.154488E+04 -1.639463E+05 -7.606048E+04 -6.331749E+04 -2.115373E+02  4.743822E+04
        53  26 -2.455914E+04 -1.421124E+05 -3.874159E+04 -4.109625E+04 -3.905375E+02  2.793010E+04
        53  27 -6.573141E+03 -1.300687E+05 -2.137490E+04 -2.182931E+04  2.474738E+02  8.421109E+03
        54   1 -6.919818E+03 -1.361406E+05 -1.803589E+04 -1.857615E+04 -8.974437E+02 -1.009723E+04
        54   2 -8.363740E+03 -1.520634E+05 -1.740229E+04 -1.965367E+04 -1.881789E+03 -3.045279E+03
        54   3 -1.421491E+04 -1.700060E+05 -2.246218E+04 -2.373094E+04 -2.734434E+03  4.006514E+03
        54   4 -4.873204E+03 -1.269464E+05 -1.699957E+04 -2.131803E+04 -8.974899E+02 -7.829810E+03
        54   5 -2.366409E+03 -1.259611E+05 -1.352207E+04 -1.981813E+04 -1.881851E+03 -1.062265E+03
        54   6 -4.217409E+03 -1.269466E+05 -1.554046E+04 -2.131804E+04 -2.734457E+03  5.705300E+03
        54   7 -2.826563E+03 -1.177521E+05 -1.596322E+04 -2.405994E+04 -8.975562E+02 -5.562357E+03
        54   8  3.630891E+03 -9.985823E+04 -9.641839E+03 -1.998259E+04 -1.881915E+03  9.208299E+02
        54   9  5.780027E+03 -8.388539E+04 -8.618780E+03 -1.890497E+04 -2.734467E+03  7.404199E+03
        54  10 -6.919846E+03 -1.361407E+05 -1.803609E+04 -1.857616E+04 -2.246625E-09  1.293988E-07
        54  11 -8.363746E+03 -1.520634E+05 -1.740232E+04 -1.965368E+04 -3.719115E-09 -2.506703E-11
        54  12 -1.421493E+04 -1.700060E+05 -2.246222E+04 -2.373093E+04 -2.235169E-09 -1.294241E-07
        54  13 -4.873221E+03 -1.269464E+05 -1.699968E+04 -2.131803E+04 -2.409105E-09  6.611827E-12
        54  14 -2.366413E+03 -1.259611E+05 -1.352208E+04 -1.981813E+04 -3.574435E-09  7.087333E-12
        54  15 -4.217425E+03 -1.269466E+05 -1.554054E+04 -2.131803E+04 -1.964786E-09 -4.034131E-12
        54  16 -2.826572E+03 -1.177521E+05 -1.596328E+04 -2.405995E+04 -2.204683E-09 -1.294102E-07
        54  17  3.630887E+03 -9.985824E+04 -9.641847E+03 -1.998259E+04 -3.413942E-09  2.659799E-11
        54  18  5.780004E+03 -8.388545E+04 -8.618897E+03 -1.890496E+04 -2.160594E-09  1.294311E-07
        54  19 -6.919818E+03 -1.361406E+05 -1.803589E+04 -1.857615E+04  8.974437E+02  1.009723E+04
        54  20 -8.363740E+03 -1.520634E+05 -1.740229E+04 -1.965367E+04  1.881789E+03  3.045279E+03
        54  21 -1.421491E+04 -1.700060E+05 -2.246218E+04 -2.373094E+04  2.734434E+03 -4.006514E+03
        54  22 -4.873204E+03 -1.269464E+05 -1.699957E+04 -2.131803E+04  8.974899E+02  7.829810E+03
        54  23 -2.366409E+03 -1.259611E+05 -1.352207E+04 -1.981813E+04  1.881851E+03  1.062265E+03
        54  24 -4.217409E+03 -1.269466E+05 -1.554046E+04 -2.131804E+04  2.734457E+03 -5.705300E+03
        54  25 -2.826563E+03 -1.177521E+05 -1.596322E+04 -2.405994E+04  8.975562E+02  5.562357E+03
        54  26  3.630891E+03 -9.985823E+04 -9.641839E+03 -1.998259E+04  1.881915E+03 -9.208299E+02
        54  27  5.780027E+03 -8.388539E+04 -8.618780E+03 -1.890497E+04  2.734467E+03 -7.404199E+03
        55   1 -1.780042E+04 -1.820718E+05 -2.719880E+04 -2.175463E+04 -3.264062E+03  6.615969E+03
        55   2 -3.379316E+04 -1.946155E+05 -4.309901E+04 -3.793150E+04 -3.078977E+03  2.599638E+04
        55   3 -7.489539E+04 -2.159601E+05 -7.789569E+04 -5.697425E+04 -9.758977E+02  4.537577E+04
        55   4 -5.274183E+03 -1.283046E+05 -1.834421E+04 -2.128857E+04 -3.264079E+03  8.286401E+03
        55   5 -1.706908E+04 -1.242657E+05 -2.983629E+04 -1.985544E+04 -3.078146E+03  2.352393E+04
        55   6 -5.325360E+04 -1.283084E+05 -5.734655E+04 -2.128914E+04 -9.732189E+02  3.876115E+04
        55   7  7.251913E+03 -7.453449E+04 -9.489705E+03 -2.082247E+04 -3.264094E+03  9.956973E+03
        55   8 -3.440549E+02 -5.391050E+04 -1.657358E+04 -1.777288E+03 -3.077460E+03  2.105121E+04
        55   9 -3.160755E+04 -4.064683E+04 -3.679708E+04  1.440103E+04 -9.713012E+02  3.214560E+04
        55  10 -1.780045E+04 -1.820719E+05 -2.719890E+04 -2.175461E+04 -7.143035E-10 -1.147918E-09
        55  11 -3.379335E+04 -1.946162E+05 -4.310030E+04 -3.793144E+04  3.902849E-10 -1.503445E-09
        55  12 -7.489594E+04 -2.159624E+05 -7.789957E+04 -5.697422E+04  3.478376E-10 -2.224862E-09
        55  13 -5.274213E+03 -1.283047E+05 -1.834436E+04 -2.128855E+04 -5.129497E-10  6.813126E-12
        55  14 -1.706924E+04 -1.242663E+05 -2.983734E+04 -1.985539E+04  8.965666E-10 -8.610195E-12
        55  15 -5.325401E+04 -1.283101E+05 -5.734937E+04 -2.128911E+04  3.237265E-10  1.187531E-11
        55  16  7.251875E+03 -7.453460E+04 -9.489912E+03 -2.082244E+04 -5.138831E-10  1.157171E-09
        55  17 -3.441840E+02 -5.391098E+04 -1.657443E+04 -1.777236E+03  8.145862E-10  1.503901E-09
        55  18 -3.160783E+04 -4.064794E+04 -3.679902E+04  1.440106E+04  3.766174E-10  2.255218E-09
        55  19 -1.780042E+04 -1.820718E+05 -2.719880E+04 -2.175463E+04  3.264062E+03 -6.615969E+03
        55  20 -3.379316E+04 -1.946155E+05 -4.309901E+04 -3.793150E+04  3.078977E+03 -2.599638E+04
        55  21 -7.489539E+04 -2.159601E+05 -7.789569E+04 -5.697425E+04  9.758977E+02 -4.537577E+04
        55  22 -5.274183E+03 -1.283046E+05 -1.834421E+04 -2.128857E+04  3.264079E+03 -8.286401E+03
        55  23 -1.706908E+04 -1.242657E+05 -2.983629E+04 -1.985544E+04  3.078146E+03 -2.352393E+04
        55  24 -5.325360E+04 -1.283084E+05 -5.734655E+04 -2.128914E+04  9.732189E+02 -3.876115E+04
        55  25  7.251913E+03 -7.453449E+04 -9.489705E+03 -2.082247E+04  3.264094E+03 -9.956973E+03
        55  26 -3.440549E+02 -5.391050E+04 -1.657358E+04 -1.777288E+03  3.077460E+03 -2.105121E+04
        55  27 -3.160755E+04 -4.064683E+04 -3.679708E+04  1.440103E+04  9.713012E+02 -3.214560E+04
        56   1  3.924906E+04 -2.932402E+04 -3.317138E+04  3.042343E+04 -1.285160E+04 -8.146836E+03
        56   2  4.902927E+04 -1.270875E+04 -2.066348E+04  3.393019E+04 -8.709952E+03 -1.661943E+03
        56   3  5.791461E+04 -2.414653E+03 -1.410123E+04  3.811929E+04 -3.270778E+03  3.093407E+03
        56   4  1.059626E+05  2.821762E+04 -9.932669E+03  6.819764E+04 -6.312046E+03 -3.242774E+03
        56   5  1.075142E+05  3.365691E+04 -4.954882E+03  6.584397E+04 -5.906672E+03  4.402109E+02
        56   6  1.089817E+05  3.358573E+04 -2.679561E+03  6.417239E+04 -4.203994E+03  2.393515E+03
        56   7  1.726824E+05  8.576439E+04  1.330613E+04  1.059776E+05  2.285784E+02  1.662295E+03
        56   8  1.660042E+05  8.002620E+04  1.075389E+04  9.776203E+04 -3.102987E+03  2.542713E+03
        56   9  1.600530E+05  6.958847E+04  8.742322E+03  9.022850E+04 -5.137330E+03  1.693532E+03
        56  10  3.924887E+04 -2.932414E+04 -3.317182E+04  3.042335E+04  1.281891E-10  9.480952E-11
        56  11  4.902918E+04 -1.270878E+04 -2.066363E+04  3.393018E+04  3.044114E-10  1.124721E-11
        56  12  5.791460E+04 -2.414666E+03 -1.410127E+04  3.811929E+04  6.289047E-10  3.410531E-11
        56  13  1.059626E+05  2.821760E+04 -9.932763E+03  6.819762E+04  1.606929E-10 -3.028802E-11
        56  14  1.075141E+05  3.365690E+04 -4.954948E+03  6.584397E+04  1.587186E-10 -1.207372E-10
        56  15  1.089817E+05  3.358572E+04 -2.679605E+03  6.417240E+04  2.392287E-10 -1.790508E-10
        56  16  1.726824E+05  8.576438E+04  1.330612E+04  1.059776E+05 -1.658569E-10 -1.507682E-10
        56  17  1.660042E+05  8.002619E+04  1.075385E+04  9.776203E+04 -2.523715E-10 -2.824611E-10
        56  18  1.600529E+05  6.958846E+04  8.742267E+03  9.022851E+04 -2.848350E-10 -3.991240E-10
        56  19  3.924906E+04 -2.932402E+04 -3.317138E+04  3.042343E+04  1.285160E+04  8.146836E+03
        56  20  4.902927E+04 -1.270875E+04 -2.066348E+04  3.393019E+04  8.709952E+03  1.661943E+03
        56  21  5.791461E+04 -2.414653E+03 -1.410123E+04  3.811929E+04  3.270778E+03 -3.093407E+03
        56  22  1.059626E+05  2.821762E+04 -9.932669E+03  6.819764E+04  6.312046E+03  3.242774E+03
        56  23  1.075142E+05  3.365691E+04 -4.954882E+03  6.584397E+04  5.906672E+03 -4.402109E+02
        56  24  1.089817E+05  3.358573E+04 -2.679561E+03  6.417239E+04  4.203994E+03 -2.393515E+03
        56  25  1.726824E+05  8.576439E+04  1.330613E+04  1.059776E+05 -2.285784E+02 -1.662295E+03
        56  26  1.660042E+05  8.002620E+04  1.075389E+04  9.776203E+04  3.102987E+03 -2.542713E+03
        56  27  1.600530E+05  6.958847E+04  8.742322E+03  9.022850E+04  5.137330E+03 -1.693532E+03
        57   1  6.515075E+04  2.196855E+03 -1.168600E+04  4.142665E+04 -2.727247E+03  3.001831E+03
        57   2  7.449407E+04  1.140994E+04 -8.078697E+03  4.697255E+04 -1.441237E+03  3.109620E+03
        57   3  8.598162E+04  1.778140E+04 -5.294269E+03  5.189065E+04  3.806172E-01  3.009867E+03
        57   4  1.092604E+05  3.377627E+04 -2.000742E+03  6.420018E+04 -3.687528E+03  2.281662E+03
        57   5  1.082547E+05  3.535321E+04 -1.065040E+03  6.436042E+04 -2.849807E+03  2.053316E+03
        57   6  1.094907E+05  3.418593E+04 -5.630306E+02  6.389288E+04 -1.856487E+03  1.617429E+03
        57   7  1.533713E+05  6.535618E+04  7.684059E+03  8.697509E+04 -4.647878E+03  1.561440E+03
        57   8  1.420164E+05  5.929692E+04  5.948442E+03  8.174920E+04 -4.258462E+03  9.969463E+02
        57   9  1.330005E+05  5.059080E+04  4.168204E+03  7.589564E+04 -3.713447E+03  2.249236E+02
        57  10  6.515074E+04  2.196843E+03 -1.168603E+04  4.142666E+04 -5.816472E-09 -4.831973E-09
        57  11  7.449406E+04  1.140993E+04 -8.078719E+03  4.697255E+04  1.202572E-08  9.040669E-09
        57  12  8.598162E+04  1.778139E+04 -5.294286E+03  5.189065E+04  2.737693E-08  2.132918E-08
        57  13  1.092604E+05  3.377626E+04 -2.000777E+03  6.420019E+04  3.975988E-10  7.854226E-11
        57  14  1.082547E+05  3.535320E+04 -1.065063E+03  6.436043E+04  7.366422E-11  2.970738E-10
        57  15  1.094907E+05  3.418593E+04 -5.630420E+02  6.389288E+04 -2.348533E-09 -6.461531E-10
        57  16  1.533713E+05  6.535617E+04  7.684014E+03  8.697509E+04  6.584827E-09  4.981923E-09
        57  17  1.420163E+05  5.929692E+04  5.948406E+03  8.174920E+04 -1.212356E-08 -8.515837E-09
        57  18  1.330005E+05  5.059079E+04  4.168178E+03  7.589564E+04 -3.198137E-08 -2.259677E-08
        57  19  6.515075E+04  2.196855E+03 -1.168600E+04  4.142665E+04  2.727247E+03 -3.001831E+03
        57  20  7.449407E+04  1.140994E+04 -8.078697E+03  4.697255E+04  1.441237E+03 -3.109620E+03
        57  21  8.598162E+04  1.778140E+04 -5.294269E+03  5.189065E+04 -3.806171E-01 -3.009867E+03
        57  22  1.092604E+05  3.377627E+04 -2.000742E+03  6.420018E+04  3.687528E+03 -2.281662E+03
        57  23  1.082547E+05  3.535321E+04 -1.065040E+03  6.436042E+04  2.849807E+03 -2.053316E+03
        57  24  1.094907E+05  3.418593E+04 -5.630306E+02  6.389288E+04  1.856487E+03 -1.617429E+03
        57  25  1.533713E+05  6.535618E+04  7.684059E+03  8.697509E+04  4.647878E+03 -1.561440E+03
        57  26  1.420164E+05  5.929692E+04  5.948442E+03  8.174920E+04  4.258462E+03 -9.969463E+02
        57  27  1.330005E+05  5.059080E+04  4.168204E+03  7.589564E+04  3.713447E+03 -2.249236E+02
        58   1  9.259791E+04  2.236714E+04 -3.753209E+03  5.524296E+04  4.499981E+02  2.551427E+03
        58   2  1.018416E+05  3.097487E+04 -1.389735E+03  6.095523E+04  1.160817E+03  1.736056E+03
        58   3  1.135532E+05  3.708485E+04  9.180807E+02  6.594425E+04  1.874913E+03  9.163113E+02
        58   4  1.095184E+05  3.420014E+04 -3.944735E+02  6.390238E+04 -1.409813E+03  1.156792E+03
        58   5  1.082933E+05  3.546535E+04 -1.364694E+02  6.425126E+04 -7.084562E+02  3.343254E+02
        58   6  1.095378E+05  3.423463E+04  7.398071E+01  6.387666E+04 -3.832619E+00 -4.925068E+02
        58   7  1.264396E+05  4.603361E+04  2.964409E+03  7.256227E+04 -3.269732E+03 -2.379247E+02
        58   8  1.147451E+05  3.995586E+04  1.116815E+03  6.754733E+04 -2.577755E+03 -1.067424E+03
        58   9  1.055226E+05  3.138449E+04 -7.700672E+02  6.180913E+04 -1.882520E+03 -1.901281E+03
        58  10  9.259791E+04  2.236713E+04 -3.753222E+03  5.524296E+04 -3.191172E-08 -2.268435E-08
        58  11  1.018416E+05  3.097487E+04 -1.389743E+03  6.095523E+04 -1.239724E-08 -8.403942E-09
        58  12  1.135532E+05  3.708484E+04  9.180725E+02  6.594424E+04  6.722781E-09  5.016721E-09
        58  13  1.095184E+05  3.420014E+04 -3.944797E+02  6.390238E+04 -2.338865E-09 -6.405038E-10
        58  14  1.082933E+05  3.546535E+04 -1.364705E+02  6.425126E+04 -2.206434E-10  4.307837E-10
        58  15  1.095378E+05  3.423463E+04  7.398025E+01  6.387666E+04  3.814074E-10  6.050497E-11
        58  16  1.264396E+05  4.603361E+04  2.964389E+03  7.256227E+04  2.714686E-08  2.146474E-08
        58  17  1.147451E+05  3.995586E+04  1.116801E+03  6.754732E+04  1.192786E-08  9.123738E-09
        58  18  1.055226E+05  3.138448E+04 -7.700806E+02  6.180913E+04 -6.058701E-09 -4.875099E-09
        58  19  9.259791E+04  2.236714E+04 -3.753209E+03  5.524296E+04 -4.499981E+02 -2.551427E+03
        58  20  1.018416E+05  3.097487E+04 -1.389735E+03  6.095523E+04 -1.160817E+03 -1.736056E+03
        58  21  1.135532E+05  3.708485E+04  9.180807E+02  6.594425E+04 -1.874913E+03 -9.163113E+02
        58  22  1.095184E+05  3.420014E+04 -3.944735E+02  6.390238E+04  1.409813E+03 -1.156792E+03
        58  23  1.082933E+05  3.546535E+04 -1.364694E+02  6.425126E+04  7.084562E+02 -3.343254E+02
        58  24  1.095378E+05  3.423463E+04  7.398071E+01  6.387666E+04  3.832619E+00  4.925068E+02
        58  25  1.264396E+05  4.603361E+04  2.964409E+03  7.256227E+04  3.269732E+03  2.379247E+02
        58  26  1.147451E+05  3.995586E+04  1.116815E+03  6.754733E+04  2.577755E+03  1.067424E+03
        58  27  1.055226E+05  3.138449E+04 -7.700672E+02  6.180913E+04  1.882520E+03  1.901281E+03
        59   1  1.201083E+05  4.170742E+04  2.391741E+03  6.930664E+04  2.240808E+03  3.888732E+02
        59   2  1.294249E+05  5.021513E+04  4.906605E+03  7.492326E+04  2.273475E+03 -8.099709E+02
        59   3  1.413967E+05  5.646506E+04  7.934033E+03  7.977450E+04  2.177915E+03 -1.837821E+03
        59   4  1.095483E+05  3.424675E+04  1.829400E+02  6.388446E+04  3.644148E+02 -1.018181E+03
        59   5  1.083157E+05  3.551330E+04  4.616040E+02  6.419407E+04  7.665094E+02 -1.940026E+03
        59   6  1.096580E+05  3.444186E+04  9.322346E+02  6.373819E+04  1.040386E+03 -2.690868E+03
        59   7  9.898835E+04  2.678615E+04 -2.025848E+03  5.846238E+04 -1.511937E+03 -2.425204E+03
        59   8  8.720673E+04  2.081157E+04 -3.983492E+03  5.346518E+04 -7.404060E+02 -3.070044E+03
        59   9  7.791982E+04  1.241873E+04 -6.069866E+03  4.770247E+04 -9.709264E+01 -3.543877E+03
        59  10  1.201083E+05  4.170742E+04  2.391731E+03  6.930664E+04 -2.340417E-10 -5.197015E-10
        59  11  1.294249E+05  5.021513E+04  4.906594E+03  7.492326E+04 -1.478040E-10 -5.010366E-10
        59  12  1.413967E+05  5.646506E+04  7.934017E+03  7.977450E+04 -4.507410E-11 -4.259547E-10
        59  13  1.095483E+05  3.424675E+04  1.829378E+02  6.388446E+04  1.787716E-10 -3.005356E-10
        59  14  1.083157E+05  3.551330E+04  4.615958E+02  6.419408E+04  3.425757E-10 -2.496067E-10
        59  15  1.096580E+05  3.444185E+04  9.322190E+02  6.373820E+04  5.420072E-11 -1.587858E-10
        59  16  9.898835E+04  2.678615E+04 -2.025863E+03  5.846238E+04  5.811090E-10  3.207392E-12
        59  17  8.720673E+04  2.081156E+04 -3.983511E+03  5.346518E+04  2.268789E-10 -3.435304E-12
        59  18  7.791982E+04  1.241872E+04 -6.069890E+03  4.770247E+04  3.113298E-10  8.254508E-11
        59  19  1.201083E+05  4.170742E+04  2.391741E+03  6.930664E+04 -2.240808E+03 -3.888732E+02
        59  20  1.294249E+05  5.021513E+04  4.906605E+03  7.492326E+04 -2.273475E+03  8.099709E+02
        59  21  1.413967E+05  5.646506E+04  7.934033E+03  7.977450E+04 -2.177915E+03  1.837821E+03
        59  22  1.095483E+05  3.424675E+04  1.829400E+02  6.388446E+04 -3.644148E+02  1.018181E+03
        59  23  1.083157E+05  3.551330E+04  4.616040E+02  6.419407E+04 -7.665094E+02  1.940026E+03
        59  24  1.096580E+05  3.444186E+04  9.322346E+02  6.373819E+04 -1.040386E+03  2.690868E+03
        59  25  9.898835E+04  2.678615E+04 -2.025848E+03  5.846238E+04  1.511937E+03  2.425204E+03
        59  26  8.720673E+04  2.081157E+04 -3.983492E+03  5.346518E+04  7.404060E+02  3.070044E+03
        59  27  7.791982E+04  1.241873E+04 -6.069866E+03  4.770247E+04  9.709264E+01  3.543877E+03
        60   1  1.479996E+05  6.142423E+04  9.931856E+03  8.320270E+04  2.293687E+03 -2.308520E+03
        60   2  1.587523E+05  6.912393E+04  1.492794E+04  8.756346E+04 -1.921239E+03 -5.156179E+03
        60   3  1.736741E+05  7.668037E+04  2.390374E+04  9.058815E+04 -7.210922E+03 -6.570810E+03
        60   4  1.097476E+05  3.457576E+04  1.264895E+03  6.376427E+04  1.178609E+03 -3.144747E+03
        60   5  1.087221E+05  3.626940E+04  2.366556E+03  6.346741E+04  6.003935E+01 -3.670450E+03
        60   6  1.111940E+05  3.714835E+04  4.761045E+03  6.183453E+04 -2.133292E+03 -2.763067E+03
        60   7  7.149824E+04  7.728847E+03 -7.401825E+03  4.432769E+04  6.364949E+01 -3.980885E+03
        60   8  5.869532E+04  3.416533E+03 -1.019479E+04  3.937382E+04  2.041078E+03 -2.184885E+03
        60   9  4.871821E+04 -2.382020E+03 -1.438193E+04  3.308404E+04  2.943632E+03  1.044224E+03
        60  10  1.479996E+05  6.142423E+04  9.931836E+03  8.320270E+04  1.878193E-10 -2.676885E-10
        60  11  1.587523E+05  6.912390E+04  1.492788E+04  8.756345E+04 -1.520208E-10 -1.460665E-10
        60  12  1.736741E+05  7.668031E+04  2.390356E+04  9.058811E+04 -4.530427E-11 -5.951230E-11
        60  13  1.097476E+05  3.457575E+04  1.264874E+03  6.376427E+04  1.931260E-10 -1.225222E-10
        60  14  1.087221E+05  3.626939E+04  2.366530E+03  6.346741E+04  9.068102E-11 -8.144864E-11
        60  15  1.111940E+05  3.714834E+04  4.761022E+03  6.183453E+04  1.332650E-10 -1.056036E-11
        60  16  7.149824E+04  7.728830E+03 -7.401855E+03  4.432769E+04  3.050976E-11  2.967138E-12
        60  17  5.869531E+04  3.416527E+03 -1.019481E+04  3.937382E+04 -5.785549E-11 -1.343894E-11
        60  18  4.871820E+04 -2.382024E+03 -1.438195E+04  3.308404E+04  8.258107E-11  3.322795E-11
        60  19  1.479996E+05  6.142423E+04  9.931856E+03  8.320270E+04 -2.293687E+03  2.308520E+03
        60  20  1.587523E+05  6.912393E+04  1.492794E+04  8.756346E+04  1.921239E+03  5.156179E+03
        60  21  1.736741E+05  7.668037E+04  2.390374E+04  9.058815E+04  7.210922E+03  6.570810E+03
        60  22  1.097476E+05  3.457576E+04  1.264895E+03  6.376427E+04 -1.178609E+03  3.144747E+03
        60  23  1.087221E+05  3.626940E+04  2.366556E+03  6.346741E+04 -6.003935E+01  3.670450E+03
        60  24  1.111940E+05  3.714835E+04  4.761045E+03  6.183453E+04  2.133292E+03  2.763067E+03
        60  25  7.149824E+04  7.728847E+03 -7.401825E+03  4.432769E+04 -6.364949E+01  3.980885E+03
        60  26  5.869532E+04  3.416533E+03 -1.019479E+04  3.937382E+04 -2.041078E+03  2.184885E+03
        60  27  4.871821E+04 -2.382020E+03 -1.438193E+04  3.308404E+04 -2.943632E+03 -1.044224E+03
        61   1  2.428964E+05  1.782502E+04  1.913842E+04  1.191093E+04  1.330697E+04  2.552044E-01
        61   2  2.415618E+05  5.697631E+03  9.676408E+03  6.036127E+03  8.360875E+03  8.125940E-02
        61   3  2.428982E+05  1.679454E+03  5.460881E+03  1.614362E+02  3.414857E+03  8.876381E-04
        61   4  2.428962E+05  1.782475E+04  1.913838E+04 -5.364574E-10  1.330697E+04  2.916455E-11
        61   5  2.415618E+05  5.697562E+03  9.676398E+03  1.404150E-10  8.360875E+03  1.182954E-10
        61   6  2.428982E+05  1.679454E+03  5.460881E+03 -9.307985E-11  3.414857E+03  7.538289E-11
        61   7  2.428964E+05  1.782502E+04  1.913842E+04 -1.191093E+04  1.330697E+04 -2.552044E-01
        61   8  2.415618E+05  5.697631E+03  9.676408E+03 -6.036127E+03  8.360875E+03 -8.125939E-02
        61   9  2.428982E+05  1.679454E+03  5.460881E+03 -1.614362E+02  3.414857E+03 -8.876379E-04
        61  10  2.428962E+05  1.782497E+04  1.913809E+04  1.191093E+04 -7.547388E-11  9.152119E-12
        61  11  2.415618E+05  5.697612E+03  9.676277E+03  6.036127E+03  5.496216E-11  5.084283E-11
        61  12  2.428982E+05  1.679451E+03  5.460859E+03  1.614362E+02  3.398170E-11  7.904851E-11
        61  13  2.428961E+05  1.782470E+04  1.913805E+04 -1.430635E-10 -1.450887E-10  1.903840E-11
        61  14  2.415617E+05  5.697543E+03  9.676267E+03  1.472518E-10 -5.463021E-11  5.136237E-11
        61  15  2.428982E+05  1.679451E+03  5.460859E+03 -9.255899E-11  1.166551E-10  2.886971E-11
        61  16  2.428962E+05  1.782497E+04  1.913809E+04 -1.191093E+04  5.023025E-11  2.188359E-11
        61  17  2.415618E+05  5.697612E+03  9.676277E+03 -6.036127E+03 -3.073700E-11  5.477427E-11
        61  18  2.428982E+05  1.679451E+03  5.460859E+03 -1.614362E+02 -4.322635E-11 -3.444828E-11
        61  19  2.428964E+05  1.782502E+04  1.913842E+04  1.191093E+04 -1.330697E+04 -2.552044E-01
        61  20  2.415618E+05  5.697631E+03  9.676408E+03  6.036127E+03 -8.360875E+03 -8.125940E-02
        61  21  2.428982E+05  1.679454E+03  5.460881E+03  1.614362E+02 -3.414857E+03 -8.876379E-04
        61  22  2.428962E+05  1.782475E+04  1.913838E+04 -4.186408E-10 -1.330697E+04  9.346109E-12
        61  23  2.415618E+05  5.697562E+03  9.676398E+03 -1.183362E-10 -8.360875E+03 -1.657676E-11
        61  24  2.428982E+05  1.679454E+03  5.460881E+03 -1.872283E-10 -3.414857E+03 -2.010475E-11
        61  25  2.428964E+05  1.782502E+04  1.913842E+04 -1.191093E+04 -1.330697E+04  2.552044E-01
        61  26  2.415618E+05  5.697631E+03  9.676408E+03 -6.036127E+03 -8.360875E+03  8.125939E-02
        61  27  2.428982E+05  1.679454E+03  5.460881E+03 -1.614362E+02 -3.414857E+03  8.876378E-04
        62   1  2.423864E+05  1.300829E+03  4.267680E+03  7.508016E+02  2.684124E+03  3.244818E-03
        62   2  2.422025E+05  3.620880E+02  2.803369E+03  3.458652E+02  1.284233E+03  7.151767E-04
        62   3  2.423865E+05  1.660996E+02  2.435889E+03 -5.907730E+01 -1.156781E+02  1.100371E-05
        62   4  2.423864E+05  1.300828E+03  4.267680E+03 -2.314129E-10  2.684124E+03  5.265765E-11
        62   5  2.422025E+05  3.620878E+02  2.803369E+03 -7.364205E-11  1.284233E+03  7.268580E-11
        62   6  2.423865E+05  1.660996E+02  2.435889E+03 -3.713157E-10 -1.156781E+02  8.031037E-11
        62   7  2.423864E+05  1.300829E+03  4.267680E+03 -7.508016E+02  2.684124E+03 -3.244818E-03
        62   8  2.422025E+05  3.620880E+02  2.803369E+03 -3.458652E+02  1.284233E+03 -7.151765E-04
        62   9  2.423865E+05  1.660996E+02  2.435889E+03  5.907730E+01 -1.156781E+02 -1.100355E-05
        62  10  2.423864E+05  1.300827E+03  4.267666E+03  7.508016E+02 -6.203816E-11  5.710621E-11
        62  11  2.422025E+05  3.620875E+02  2.803366E+03  3.458652E+02  7.021558E-11  2.970840E-11
        62  12  2.423865E+05  1.660996E+02  2.435889E+03 -5.907730E+01 -1.105082E-10  1.145403E-10
        62  13  2.423863E+05  1.300826E+03  4.267666E+03 -1.220246E-10  1.462002E-10  4.299912E-12
        62  14  2.422025E+05  3.620873E+02  2.803366E+03  2.229778E-10  2.786769E-11  9.022205E-12
        62  15  2.423865E+05  1.660996E+02  2.435889E+03  1.893191E-10 -6.849908E-11  7.172687E-11
        62  16  2.423864E+05  1.300827E+03  4.267666E+03 -7.508016E+02 -7.337961E-11 -5.576483E-11
        62  17  2.422025E+05  3.620875E+02  2.803366E+03 -3.458652E+02  2.329697E-10 -1.156728E-11
        62  18  2.423865E+05  1.660996E+02  2.435889E+03  5.907730E+01  1.945887E-10  2.068992E-11
        62  19  2.423864E+05  1.300829E+03  4.267680E+03  7.508016E+02 -2.684124E+03 -3.244818E-03
        62  20  2.422025E+05  3.620880E+02  2.803369E+03  3.458652E+02 -1.284233E+03 -7.151766E-04
        62  21  2.423865E+05  1.660996E+02  2.435889E+03 -5.907730E+01  1.156781E+02 -1.100347E-05
        62  22  2.423864E+05  1.300828E+03  4.267680E+03 -2.072249E-10 -2.684124E+03 -4.293514E-11
        62  23  2.422025E+05  3.620878E+02  2.803369E+03  1.199012E-10 -1.284233E+03 -5.270007E-11
        62  24  2.423865E+05  1.660996E+02  2.435889E+03 -1.430519E-10  1.156781E+02  6.482951E-11
        62  25  2.423864E+05  1.300829E+03  4.267680E+03 -7.508016E+02 -2.684124E+03  3.244818E-03
        62  26  2.422025E+05  3.620880E+02  2.803369E+03 -3.458652E+02 -1.284233E+03  7.151765E-04
        62  27  2.423865E+05  1.660996E+02  2.435889E+03  5.907730E+01  1.156781E+02  1.100362E-05
        63   1  2.424096E+05  1.738982E+02  2.552786E+03  9.903374E+01 -5.403414E+02 -8.616154E-05
        63   2  2.421736E+05  5.067437E+02  3.448240E+03 -4.608241E+02 -2.263844E+03  1.679750E-03
        63   3  2.424093E+05  1.829707E+03  5.712986E+03 -1.020682E+03 -3.987349E+03  6.552958E-03
        63   4  2.424096E+05  1.738982E+02  2.552786E+03 -4.265210E-10 -5.403414E+02  4.787559E-11
        63   5  2.421736E+05  5.067433E+02  3.448240E+03 -2.713635E-10 -2.263844E+03 -4.086728E-11
        63   6  2.424093E+05  1.829705E+03  5.712986E+03 -1.545977E-10 -3.987349E+03 -9.009277E-11
        63   7  2.424096E+05  1.738982E+02  2.552786E+03 -9.903374E+01 -5.403414E+02  8.616165E-05
        63   8  2.421736E+05  5.067437E+02  3.448240E+03  4.608241E+02 -2.263844E+03 -1.679750E-03
        63   9  2.424093E+05  1.829707E+03  5.712986E+03  1.020682E+03 -3.987349E+03 -6.552958E-03
        63  10  2.424096E+05  1.738981E+02  2.552786E+03  9.903374E+01  1.638920E-10  1.222650E-10
        63  11  2.421736E+05  5.067423E+02  3.448230E+03 -4.608241E+02 -1.463324E-10 -1.250650E-11
        63  12  2.424093E+05  1.829703E+03  5.712956E+03 -1.020682E+03 -5.521127E-11 -1.111924E-10
        63  13  2.424096E+05  1.738981E+02  2.552786E+03 -1.199208E-10 -2.103878E-12  6.638966E-11
        63  14  2.421736E+05  5.067419E+02  3.448230E+03  8.414837E-11  2.119096E-10 -3.290504E-11
        63  15  2.424093E+05  1.829701E+03  5.712956E+03  2.209001E-10 -2.178355E-10 -1.140528E-10
        63  16  2.424096E+05  1.738981E+02  2.552786E+03 -9.903374E+01  2.536744E-11  1.017568E-11
        63  17  2.421736E+05  5.067423E+02  3.448230E+03  4.608241E+02  1.126736E-10 -5.890982E-11
        63  18  2.424093E+05  1.829703E+03  5.712956E+03  1.020682E+03  4.488653E-11 -1.200392E-10
        63  19  2.424096E+05  1.738982E+02  2.552786E+03  9.903374E+01  5.403414E+02  8.616178E-05
        63  20  2.421736E+05  5.067437E+02  3.448240E+03 -4.608241E+02  2.263844E+03 -1.679750E-03
        63  21  2.424093E+05  1.829707E+03  5.712986E+03 -1.020682E+03  3.987349E+03 -6.552958E-03
        63  22  2.424096E+05  1.738982E+02  2.552786E+03 -2.892760E-10  5.403414E+02  8.728718E-11
        63  23  2.421736E+05  5.067433E+02  3.448240E+03  3.034476E-10  2.263844E+03 -2.614432E-11
        63  24  2.424093E+05  1.829705E+03  5.712986E+03  1.151841E-10  3.987349E+03 -1.376407E-10
        63  25  2.424096E+05  1.738982E+02  2.552786E+03 -9.903374E+01  5.403414E+02 -8.616161E-05
        63  26  2.421736E+05  5.067437E+02  3.448240E+03  4.608241E+02  2.263844E+03  1.679749E-03
        63  27  2.424093E+05  1.829707E+03  5.712986E+03  1.020682E+03  3.987349E+03  6.552958E-03
        64   1  2.431345E+05  2.358361E+03  7.455854E+03 -2.041428E+02 -4.969923E+03  1.633601E-03
        64   2  2.412659E+05  7.985701E+03  1.346384E+04 -8.436744E+03 -1.185342E+04  1.610210E-01
        64   3  2.431321E+05  2.496893E+04  2.679114E+04 -1.666927E+04 -1.873683E+04  5.028938E-01
        64   4  2.431345E+05  2.358361E+03  7.455854E+03  1.368538E-11 -4.969923E+03 -1.052848E-10
        64   5  2.412658E+05  7.985567E+03  1.346382E+04  2.724361E-10 -1.185342E+04 -8.723158E-11
        64   6  2.431318E+05  2.496841E+04  2.679107E+04  1.072965E-10 -1.873683E+04 -1.993538E-11
        64   7  2.431345E+05  2.358361E+03  7.455854E+03  2.041428E+02 -4.969923E+03 -1.633601E-03
        64   8  2.412659E+05  7.985701E+03  1.346384E+04  8.436744E+03 -1.185342E+04 -1.610210E-01
        64   9  2.431321E+05  2.496893E+04  2.679114E+04  1.666927E+04 -1.873683E+04 -5.028938E-01
        64  10  2.431345E+05  2.358355E+03  7.455807E+03 -2.041428E+02 -1.651894E-10 -1.329087E-10
        64  11  2.412657E+05  7.985663E+03  1.346357E+04 -8.436744E+03  7.815788E-11 -8.165115E-11
        64  12  2.431317E+05  2.496883E+04  2.679048E+04 -1.666927E+04 -6.606654E-11 -2.798279E-11
        64  13  2.431345E+05  2.358355E+03  7.455807E+03  1.409595E-10 -1.039620E-10 -1.272368E-10
        64  14  2.412657E+05  7.985530E+03  1.346356E+04  2.861136E-10 -2.722018E-29 -8.743693E-11
        64  15  2.431314E+05  2.496831E+04  2.679041E+04  9.257643E-11 -1.436107E-10 -2.315228E-11
        64  16  2.431345E+05  2.358355E+03  7.455807E+03  2.041428E+02  1.086942E-10 -1.318697E-10
        64  17  2.412657E+05  7.985663E+03  1.346357E+04  8.436744E+03 -2.458113E-11 -9.121269E-11
        64  18  2.431317E+05  2.496883E+04  2.679048E+04  1.666927E+04  1.508410E-10 -1.235307E-11
        64  19  2.431345E+05  2.358361E+03  7.455854E+03 -2.041428E+02  4.969923E+03 -1.633602E-03
        64  20  2.412659E+05  7.985701E+03  1.346384E+04 -8.436744E+03  1.185342E+04 -1.610210E-01
        64  21  2.431321E+05  2.496893E+04  2.679114E+04 -1.666927E+04  1.873683E+04 -5.028938E-01
        64  22  2.431345E+05  2.358361E+03  7.455854E+03  6.259940E-11  4.969923E+03 -1.505378E-10
        64  23  2.412658E+05  7.985567E+03  1.346382E+04  1.667340E-10  1.185342E+04 -8.722448E-11
        64  24  2.431318E+05  2.496841E+04  2.679107E+04  5.839766E-11  1.873683E+04 -2.718951E-11
        64  25  2.431345E+05  2.358361E+03  7.455854E+03  2.041428E+02  4.969923E+03  1.633601E-03
        64  26  2.412659E+05  7.985701E+03  1.346384E+04  8.436744E+03  1.185342E+04  1.610210E-01
        64  27  2.431321E+05  2.496893E+04  2.679114E+04  1.666927E+04  1.873683E+04  5.028938E-01
        65   1 -2.961993E+04 -1.286633E+04 -3.342749E+04  4.530686E+03  4.615728E+02 -2.894661E+04
        65   2 -5.222416E+03 -2.936159E+04 -1.674583E+04 -8.150714E+03  1.232520E+03 -1.937951E+04
        65   3 -2.306829E+02 -5.195322E+04 -1.114391E+04 -2.421598E+04  7.382659E+02 -9.812582E+03
        65   4 -4.349401E+04 -6.888320E+04 -4.678295E+04 -2.457885E+04  4.630601E+02 -3.197500E+04
        65   5 -1.393403E+04 -6.559638E+04 -2.407238E+04 -2.288625E+04  1.233000E+03 -1.967706E+04
        65   6 -4.255476E+03 -6.888136E+04 -1.433885E+04 -2.457760E+04  7.381461E+02 -7.378903E+03
        65   7 -5.736512E+04 -1.248953E+05 -6.013813E+04 -5.368575E+04  4.648315E+02 -3.500312E+04
        65   8 -2.264491E+04 -1.018294E+05 -3.139887E+04 -3.762090E+04  1.233493E+03 -1.997458E+04
        65   9 -8.280281E+03 -8.580921E+04 -1.753379E+04 -2.493921E+04  7.380235E+02 -4.945288E+03
        65  10 -2.962016E+04 -1.286723E+04 -3.342907E+04  4.530697E+03 -2.812893E-11  3.529811E-12
        65  11 -5.222518E+03 -2.936200E+04 -1.674654E+04 -8.150694E+03  1.553681E-10 -2.292025E-11
        65  12 -2.307094E+02 -5.195332E+04 -1.114409E+04 -2.421598E+04  1.660099E-10 -3.427984E-11
        65  13 -4.349428E+04 -6.888429E+04 -4.678487E+04 -2.457884E+04  7.736565E-11 -2.924163E-12
        65  14 -1.393414E+04 -6.559680E+04 -2.407311E+04 -2.288623E+04 -3.404462E-11 -1.378555E-12
        65  15 -4.255491E+03 -6.888142E+04 -1.433895E+04 -2.457760E+04  3.312098E-11 -1.524283E-11
        65  16 -5.736545E+04 -1.248967E+05 -6.014043E+04 -5.368574E+04 -3.305109E-11 -4.714148E-12
        65  17 -2.264502E+04 -1.018299E+05 -3.139963E+04 -3.762088E+04  3.285105E-11  1.059513E-11
        65  18 -8.280288E+03 -8.580924E+04 -1.753383E+04 -2.493920E+04 -8.711468E-11  3.483698E-11
        65  19 -2.961993E+04 -1.286633E+04 -3.342749E+04  4.530686E+03 -4.615728E+02  2.894661E+04
        65  20 -5.222416E+03 -2.936159E+04 -1.674583E+04 -8.150714E+03 -1.232520E+03  1.937951E+04
        65  21 -2.306829E+02 -5.195322E+04 -1.114391E+04 -2.421598E+04 -7.382659E+02  9.812582E+03
        65  22 -4.349401E+04 -6.888320E+04 -4.678295E+04 -2.457885E+04 -4.630601E+02  3.197500E+04
        65  23 -1.393403E+04 -6.559638E+04 -2.407238E+04 -2.288625E+04 -1.233000E+03  1.967706E+04
        65  24 -4.255476E+03 -6.888136E+04 -1.433885E+04 -2.457760E+04 -7.381461E+02  7.378903E+03
        65  25 -5.736512E+04 -1.248953E+05 -6.013813E+04 -5.368575E+04 -4.648315E+02  3.500312E+04
        65  26 -2.264491E+04 -1.018294E+05 -3.139887E+04 -3.762090E+04 -1.233493E+03  1.997458E+04
        65  27 -8.280281E+03 -8.580921E+04 -1.753379E+04 -2.493921E+04 -7.380235E+02  4.945288E+03
        66   1 -2.227822E+03 -6.309949E+04 -1.068429E+04 -2.269267E+04  2.345435E+01 -7.850291E+03
        66   2 -5.070443E+03 -8.193424E+04 -1.163820E+04 -2.275841E+04 -1.073616E+03 -2.971229E+03
        66   3 -1.097827E+04 -1.021702E+05 -1.653508E+04 -2.628483E+04 -2.095543E+03  1.907701E+03
        66   4 -3.377893E+03 -6.772621E+04 -1.180867E+04 -2.459469E+04  2.334813E+01 -5.400174E+03
        66   5 -1.648444E+03 -6.703958E+04 -9.424188E+03 -2.286432E+04 -1.073726E+03 -6.834736E+02
        66   6 -2.955982E+03 -6.772639E+04 -1.086993E+04 -2.459469E+04 -2.095631E+03  4.033239E+03
        66   7 -4.527948E+03 -7.235290E+04 -1.293302E+04 -2.649670E+04  2.322689E+01 -2.950077E+03
        66   8  1.773548E+03 -5.214470E+04 -7.210159E+03 -2.297024E+04 -1.073838E+03  1.604335E+03
        66   9  5.066259E+03 -3.328137E+04 -5.204793E+03 -2.290446E+04 -2.095708E+03  6.158891E+03
        66  10 -2.227839E+03 -6.309956E+04 -1.068440E+04 -2.269267E+04  2.623508E-11  3.260851E-12
        66  11 -5.070447E+03 -8.193425E+04 -1.163822E+04 -2.275841E+04 -1.231300E-10 -9.143121E-12
        66  12 -1.097828E+04 -1.021702E+05 -1.653509E+04 -2.628483E+04 -3.692541E-11  9.556576E-12
        66  13 -3.377901E+03 -6.772625E+04 -1.180872E+04 -2.459469E+04 -7.588099E-12 -1.390824E-11
        66  14 -1.648445E+03 -6.703958E+04 -9.424191E+03 -2.286432E+04  8.472443E-11  4.842405E-12
        66  15 -2.955991E+03 -6.772641E+04 -1.086997E+04 -2.459468E+04 -8.667925E-11 -1.029565E-11
        66  16 -4.527950E+03 -7.235291E+04 -1.293304E+04 -2.649670E+04 -1.059797E-10 -1.084675E-11
        66  17  1.773546E+03 -5.214470E+04 -7.210166E+03 -2.297024E+04 -8.699292E-11 -4.382071E-12
        66  18  5.066244E+03 -3.328141E+04 -5.204873E+03 -2.290445E+04 -1.142218E-11 -6.630509E-12
        66  19 -2.227822E+03 -6.309949E+04 -1.068429E+04 -2.269267E+04 -2.345435E+01  7.850291E+03
        66  20 -5.070443E+03 -8.193424E+04 -1.163820E+04 -2.275841E+04  1.073616E+03  2.971229E+03
        66  21 -1.097827E+04 -1.021702E+05 -1.653508E+04 -2.628483E+04  2.095543E+03 -1.907701E+03
        66  22 -3.377893E+03 -6.772621E+04 -1.180867E+04 -2.459469E+04 -2.334813E+01  5.400174E+03
        66  23 -1.648444E+03 -6.703958E+04 -9.424188E+03 -2.286432E+04  1.073726E+03  6.834736E+02
        66  24 -2.955982E+03 -6.772639E+04 -1.086993E+04 -2.459469E+04  2.095631E+03 -4.033239E+03
        66  25 -4.527948E+03 -7.235290E+04 -1.293302E+04 -2.649670E+04 -2.322689E+01  2.950077E+03
        66  26  1.773548E+03 -5.214470E+04 -7.210159E+03 -2.297024E+04  1.073838E+03 -1.604335E+03
        66  27  5.066259E+03 -3.328137E+04 -5.204793E+03 -2.290446E+04  2.095708E+03 -6.158891E+03
        67   1 -1.462342E+04 -1.154608E+05 -2.068812E+04 -2.489236E+04 -2.741615E+03  3.741175E+03
        67   2 -2.769243E+04 -1.318180E+05 -3.352931E+04 -3.558295E+04 -2.767525E+03  1.851499E+04
        67   3 -5.858388E+04 -1.545540E+05 -6.044527E+04 -4.960645E+04 -9.011610E+02  3.328799E+04
        67   4 -3.698299E+03 -6.868116E+04 -1.284699E+04 -2.456645E+04 -2.741690E+03  5.839398E+03
        67   5 -1.197706E+04 -6.584746E+04 -2.092515E+04 -2.290010E+04 -2.767053E+03  1.652620E+04
        67   6 -3.736811E+04 -6.868317E+04 -4.023902E+04 -2.456731E+04 -8.996472E+02  2.721279E+04
        67   7  7.226705E+03 -2.189931E+04 -5.005914E+03 -2.424052E+04 -2.741762E+03  7.937774E+03
        67   8  3.738654E+03  1.275858E+02 -8.321077E+03 -1.021587E+04 -2.766662E+03  1.453721E+04
        67   9 -1.615050E+04  1.719591E+04 -2.003279E+04  4.753116E+02 -8.986237E+02  2.113676E+04
        67  10 -1.462343E+04 -1.154609E+05 -2.068816E+04 -2.489235E+04  3.356858E-11 -4.287008E-11
        67  11 -2.769253E+04 -1.318183E+05 -3.352997E+04 -3.558291E+04  3.930631E-11 -5.804569E-11
        67  12 -5.858418E+04 -1.545552E+05 -6.044736E+04 -4.960642E+04 -2.413455E-12 -5.598731E-11
        67  13 -3.698317E+03 -6.868120E+04 -1.284707E+04 -2.456644E+04 -1.715096E-10 -5.882003E-12
        67  14 -1.197714E+04 -6.584776E+04 -2.092567E+04 -2.290006E+04  2.231874E-11  1.310189E-13
        67  15 -3.736831E+04 -6.868397E+04 -4.024041E+04 -2.456729E+04  1.477520E-10  1.321745E-11
        67  16  7.226680E+03 -2.189938E+04 -5.006046E+03 -2.424050E+04 -1.359979E-10  3.804374E-11
        67  17  3.738589E+03  1.273568E+02 -8.321488E+03 -1.021584E+04 -1.077012E-11  5.698940E-11
        67  18 -1.615062E+04  1.719543E+04 -2.003364E+04  4.753269E+02  3.660604E-11  5.312671E-11
        67  19 -1.462342E+04 -1.154608E+05 -2.068812E+04 -2.489236E+04  2.741615E+03 -3.741175E+03
        67  20 -2.769243E+04 -1.318180E+05 -3.352931E+04 -3.558295E+04  2.767525E+03 -1.851499E+04
        67  21 -5.858388E+04 -1.545540E+05 -6.044527E+04 -4.960645E+04  9.011610E+02 -3.328799E+04
        67  22 -3.698299E+03 -6.868116E+04 -1.284699E+04 -2.456645E+04  2.741690E+03 -5.839398E+03
        67  23 -1.197706E+04 -6.584746E+04 -2.092515E+04 -2.290010E+04  2.767053E+03 -1.652620E+04
        67  24 -3.736811E+04 -6.868317E+04 -4.023902E+04 -2.456731E+04  8.996472E+02 -2.721279E+04
        67  25  7.226705E+03 -2.189931E+04 -5.005914E+03 -2.424052E+04  2.741762E+03 -7.937774E+03
        67  26  3.738654E+03  1.275858E+02 -8.321077E+03 -1.021587E+04  2.766662E+03 -1.453721E+04
        67  27 -1.615050E+04  1.719591E+04 -2.003279E+04  4.753116E+02  8.986237E+02 -2.113676E+04
        68   1  2.916762E+04 -2.733044E+04 -2.764276E+04  2.209562E+04 -1.062359E+04 -6.731316E+03
        68   2  3.765325E+04 -1.323412E+04 -1.716720E+04  2.523655E+04 -7.157100E+03 -1.346190E+03
        68   3  4.549796E+04 -4.470443E+03 -1.163886E+04  2.890899E+04 -2.603599E+03  2.589983E+03
        68   4  8.502822E+04  2.072841E+04 -8.194922E+03  5.366595E+04 -5.207788E+03 -2.669827E+03
        68   5  8.625466E+04  2.526956E+04 -4.090408E+03  5.173973E+04 -4.871300E+03  3.679581E+02
        68   6  8.751938E+04  2.515738E+04 -2.216148E+03  5.034487E+04 -3.448009E+03  1.956702E+03
        68   7  1.408924E+05  6.879025E+04  1.125271E+04  8.523992E+04  2.086956E+02  1.392309E+03
        68   8  1.348584E+05  6.377481E+04  8.986082E+03  7.824525E+04 -2.585279E+03  2.082302E+03
        68   9  1.295421E+05  5.478573E+04  7.206199E+03  7.178204E+04 -4.292479E+03  1.323376E+03
        68  10  2.916749E+04 -2.733052E+04 -2.764306E+04  2.209557E+04 -1.551821E-10 -4.664896E-11
        68  11  3.765319E+04 -1.323414E+04 -1.716730E+04  2.523654E+04 -1.342768E-12  3.234292E-11
        68  12  4.549795E+04 -4.470452E+03 -1.163888E+04  2.890899E+04  3.779374E-10  5.760233E-11
        68  13  8.502819E+04  2.072840E+04 -8.194986E+03  5.366594E+04  9.640123E-11  2.362542E-11
        68  14  8.625463E+04  2.526955E+04 -4.090453E+03  5.173974E+04 -1.508370E-10  1.579977E-11
        68  15  8.751937E+04  2.515737E+04 -2.216178E+03  5.034487E+04 -1.084275E-10 -4.498980E-11
        68  16  1.408924E+05  6.879025E+04  1.125271E+04  8.523992E+04  1.057430E-10  5.658926E-11
        68  17  1.348584E+05  6.377481E+04  8.986062E+03  7.824526E+04 -1.173165E-10 -1.132263E-11
        68  18  1.295421E+05  5.478572E+04  7.206161E+03  7.178205E+04 -1.412445E-10 -1.365784E-10
        68  19  2.916762E+04 -2.733044E+04 -2.764276E+04  2.209562E+04  1.062359E+04  6.731316E+03
        68  20  3.765325E+04 -1.323412E+04 -1.716720E+04  2.523655E+04  7.157100E+03  1.346190E+03
        68  21  4.549796E+04 -4.470443E+03 -1.163886E+04  2.890899E+04  2.603599E+03 -2.589983E+03
        68  22  8.502822E+04  2.072841E+04 -8.194922E+03  5.366595E+04  5.207788E+03  2.669827E+03
        68  23  8.625466E+04  2.526956E+04 -4.090408E+03  5.173973E+04  4.871300E+03 -3.679581E+02
        68  24  8.751938E+04  2.515738E+04 -2.216148E+03  5.034487E+04  3.448009E+03 -1.956702E+03
        68  25  1.408924E+05  6.879025E+04  1.125271E+04  8.523992E+04 -2.086956E+02 -1.392309E+03
        68  26  1.348584E+05  6.377481E+04  8.986082E+03  7.824525E+04  2.585279E+03 -2.082302E+03
        68  27  1.295421E+05  5.478573E+04  7.206199E+03  7.178204E+04  4.292479E+03 -1.323376E+03
        69   1  5.175887E+04 -4.622530E+02 -9.584715E+03  3.178526E+04 -2.138116E+03  2.494490E+03
        69   2  5.987637E+04  7.518301E+03 -6.517745E+03  3.661312E+04 -1.039411E+03  2.555624E+03
        69   3  6.987051E+04  1.304278E+04 -4.138949E+03  4.089081E+04  1.895563E+02  2.443082E+03
        69   4  8.774892E+04  2.531354E+04 -1.658436E+03  5.036697E+04 -3.005208E+03  1.844215E+03
        69   5  8.686508E+04  2.667006E+04 -8.925060E+02  5.051534E+04 -2.281695E+03  1.624006E+03
        69   6  8.793924E+04  2.565182E+04 -4.890958E+02  5.011345E+04 -1.427932E+03  1.230111E+03
        69   7  1.237405E+05  5.109021E+04  6.267795E+03  6.894996E+04 -3.872367E+03  1.193889E+03
        69   8  1.138550E+05  4.582254E+04  4.732830E+03  6.441844E+04 -3.524067E+03  6.923213E+02
        69   9  1.060088E+05  3.826137E+04  3.160911E+03  5.933662E+04 -3.045520E+03  1.706556E+01
        69  10  5.175887E+04 -4.622609E+02 -9.584735E+03  3.178527E+04  6.777903E-11 -1.076259E-10
        69  11  5.987637E+04  7.518294E+03 -6.517759E+03  3.661313E+04  1.829196E-11  4.016492E-11
        69  12  6.987050E+04  1.304278E+04 -4.138961E+03  4.089081E+04 -4.147994E-11  1.029752E-10
        69  13  8.774891E+04  2.531354E+04 -1.658459E+03  5.036697E+04  6.451225E-11 -5.908818E-11
        69  14  8.686507E+04  2.667006E+04 -8.925208E+02  5.051535E+04  6.141367E-12  2.952080E-11
        69  15  8.793924E+04  2.565181E+04 -4.891025E+02  5.011345E+04  6.625527E-11  6.624855E-12
        69  16  1.237405E+05  5.109021E+04  6.267764E+03  6.894997E+04  2.134805E-10  3.491530E-11
        69  17  1.138550E+05  4.582254E+04  4.732806E+03  6.441845E+04 -2.532926E-11 -4.165736E-11
        69  18  1.060088E+05  3.826136E+04  3.160894E+03  5.933662E+04 -1.773973E-10 -8.603259E-11
        69  19  5.175887E+04 -4.622530E+02 -9.584715E+03  3.178526E+04  2.138116E+03 -2.494490E+03
        69  20  5.987637E+04  7.518301E+03 -6.517745E+03  3.661312E+04  1.039411E+03 -2.555624E+03
        69  21  6.987051E+04  1.304278E+04 -4.138949E+03  4.089081E+04 -1.895563E+02 -2.443082E+03
        69  22  8.774892E+04  2.531354E+04 -1.658436E+03  5.036697E+04  3.005208E+03 -1.844215E+03
        69  23  8.686508E+04  2.667006E+04 -8.925060E+02  5.051534E+04  2.281695E+03 -1.624006E+03
        69  24  8.793924E+04  2.565182E+04 -4.890958E+02  5.011345E+04  1.427932E+03 -1.230111E+03
        69  25  1.237405E+05  5.109021E+04  6.267795E+03  6.894996E+04  3.872367E+03 -1.193889E+03
        69  26  1.138550E+05  4.582254E+04  4.732830E+03  6.441844E+04  3.524067E+03 -6.923213E+02
        69  27  1.060088E+05  3.826137E+04  3.160911E+03  5.933662E+04  3.045520E+03 -1.706556E+01
        70   1  7.561881E+04  1.702760E+04 -2.816240E+03  4.380370E+04  5.820269E+02  2.044710E+03
        70   2  8.365265E+04  2.450903E+04 -7.991957E+02  4.877117E+04  1.217196E+03  1.347716E+03
        70   3  9.382705E+04  2.981484E+04  1.154564E+03  5.311015E+04  1.853998E+03  6.485276E+02
        70   4  8.796174E+04  2.566349E+04 -3.578799E+02  5.012096E+04 -1.037948E+03  8.298833E+02
        70   5  8.689739E+04  2.676234E+04 -1.694704E+02  5.042641E+04 -4.075174E+02  1.293502E+02
        70   6  8.797473E+04  2.568673E+04 -4.015660E+01  5.010340E+04  2.245486E+02 -5.733828E+02
        70   7  1.003046E+05  3.429927E+04  2.100389E+03  5.643822E+04 -2.657929E+03 -3.849469E+02
        70   8  9.014211E+04  2.901564E+04  4.602562E+02  5.208163E+04 -2.032223E+03 -1.089010E+03
        70   9  8.212246E+04  2.155865E+04 -1.234861E+03  4.709668E+04 -1.404879E+03 -1.795277E+03
        70  10  7.561881E+04  1.702759E+04 -2.816248E+03  4.380370E+04 -7.011790E-12  6.880614E-12
        70  11  8.365265E+04  2.450903E+04 -7.992019E+02  4.877117E+04  8.716479E-11  6.359307E-11
        70  12  9.382705E+04  2.981484E+04  1.154557E+03  5.311015E+04  1.896639E-10  7.099567E-11
        70  13  8.796174E+04  2.566349E+04 -3.578832E+02  5.012096E+04 -1.742675E-10 -1.724885E-11
        70  14  8.689739E+04  2.676234E+04 -1.694707E+02  5.042641E+04  5.722849E-11 -4.623772E-11
        70  15  8.797473E+04  2.568673E+04 -4.015731E+01  5.010340E+04  2.430103E-10 -4.516281E-11
        70  16  1.003045E+05  3.429926E+04  2.100375E+03  5.643822E+04 -1.699231E-10  1.896288E-11
        70  17  9.014210E+04  2.901563E+04  4.602462E+02  5.208163E+04 -3.128435E-10  2.002242E-11
        70  18  8.212246E+04  2.155864E+04 -1.234871E+03  4.709667E+04 -2.097129E-10 -1.694829E-10
        70  19  7.561881E+04  1.702760E+04 -2.816240E+03  4.380370E+04 -5.820269E+02 -2.044710E+03
        70  20  8.365265E+04  2.450903E+04 -7.991957E+02  4.877117E+04 -1.217196E+03 -1.347716E+03
        70  21  9.382705E+04  2.981484E+04  1.154564E+03  5.311015E+04 -1.853998E+03 -6.485276E+02
        70  22  8.796174E+04  2.566349E+04 -3.578799E+02  5.012096E+04  1.037948E+03 -8.298833E+02
        70  23  8.689739E+04  2.676234E+04 -1.694704E+02  5.042641E+04  4.075174E+02 -1.293502E+02
        70  24  8.797473E+04  2.568673E+04 -4.015660E+01  5.010340E+04 -2.245486E+02  5.733828E+02
        70  25  1.003046E+05  3.429927E+04  2.100389E+03  5.643822E+04  2.657929E+03  3.849469E+02
        70  26  9.014211E+04  2.901564E+04  4.602562E+02  5.208163E+04  2.032223E+03  1.089010E+03
        70  27  8.212246E+04  2.155865E+04 -1.234861E+03  4.709668E+04  1.404879E+03  1.795277E+03
        71   1  9.952711E+04  3.382163E+04  2.399338E+03  5.602824E+04  2.188151E+03  2.033144E+02
        71   2  1.075774E+05  4.124821E+04  4.477693E+03  6.094804E+04  2.301717E+03 -7.670458E+02
        71   3  1.178844E+05  4.664965E+04  6.909381E+03  6.522458E+04  2.298799E+03 -1.582098E+03
        71   4  8.797833E+04  2.569334E+04  1.701828E+01  5.010795E+04  5.608396E+02 -1.017002E+03
        71   5  8.690653E+04  2.677834E+04  1.430808E+02  5.040252E+04  1.009949E+03 -1.735763E+03
        71   6  8.801844E+04  2.576514E+04  3.311872E+02  5.005364E+04  1.342582E+03 -2.299193E+03
        71   7  7.642945E+04  1.756494E+04 -2.365382E+03  4.418766E+04 -1.066468E+03 -2.237316E+03
        71   8  6.623620E+04  1.230875E+04 -4.191539E+03  3.985741E+04 -2.817626E+02 -2.704438E+03
        71   9  5.815423E+04  4.881676E+03 -6.246809E+03  3.488388E+04  3.864471E+02 -3.016227E+03
        71  10  9.952711E+04  3.382163E+04  2.399328E+03  5.602824E+04  1.083259E-10 -6.472265E-11
        71  11  1.075774E+05  4.124821E+04  4.477682E+03  6.094804E+04  1.025234E-10 -5.497343E-11
        71  12  1.178844E+05  4.664964E+04  6.909366E+03  6.522459E+04 -3.001543E-11 -4.515190E-11
        71  13  8.797833E+04  2.569333E+04  1.701574E+01  5.010795E+04  9.354605E-11 -3.405900E-11
        71  14  8.690653E+04  2.677834E+04  1.430732E+02  5.040252E+04  1.163576E-10  4.073264E-11
        71  15  8.801844E+04  2.576514E+04  3.311738E+02  5.005364E+04 -1.963842E-10  4.866405E-11
        71  16  7.642945E+04  1.756493E+04 -2.365394E+03  4.418765E+04  1.396809E-10  2.485741E-11
        71  17  6.623620E+04  1.230874E+04 -4.191553E+03  3.985741E+04  3.905251E-11  6.017132E-11
        71  18  5.815423E+04  4.881666E+03 -6.246827E+03  3.488388E+04 -1.927635E-11  1.121055E-10
        71  19  9.952711E+04  3.382163E+04  2.399338E+03  5.602824E+04 -2.188151E+03 -2.033144E+02
        71  20  1.075774E+05  4.124821E+04  4.477693E+03  6.094804E+04 -2.301717E+03  7.670458E+02
        71  21  1.178844E+05  4.664965E+04  6.909381E+03  6.522458E+04 -2.298799E+03  1.582098E+03
        71  22  8.797833E+04  2.569334E+04  1.701828E+01  5.010795E+04 -5.608396E+02  1.017002E+03
        71  23  8.690653E+04  2.677834E+04  1.430808E+02  5.040252E+04 -1.009949E+03  1.735763E+03
        71  24  8.801844E+04  2.576514E+04  3.311872E+02  5.005364E+04 -1.342582E+03  2.299193E+03
        71  25  7.642945E+04  1.756494E+04 -2.365382E+03  4.418766E+04  1.066468E+03  2.237316E+03
        71  26  6.623620E+04  1.230875E+04 -4.191539E+03  3.985741E+04  2.817626E+02  2.704438E+03
        71  27  5.815423E+04  4.881676E+03 -6.246809E+03  3.488388E+04 -3.864471E+02  3.016227E+03
        72   1  1.236355E+05  5.084302E+04  8.497786E+03  6.817595E+04  2.459661E+03 -1.935351E+03
        72   2  1.322082E+05  5.797531E+04  1.237120E+04  7.247514E+04 -8.700703E+02 -4.093601E+03
        72   3  1.438530E+05  6.425437E+04  1.916214E+04  7.593834E+04 -5.174813E+03 -4.951998E+03
        72   4  8.803745E+04  2.582993E+04  4.595681E+02  5.006822E+04  1.523865E+03 -2.637143E+03
        72   5  8.707542E+04  2.704011E+04  8.761709E+02  5.012708E+04  1.002731E+03 -2.689166E+03
        72   6  8.857613E+04  2.678775E+04  1.772849E+03  4.934988E+04 -4.934007E+02 -1.441210E+03
        72   7  5.244083E+04  8.176140E+02 -7.578725E+03  3.196167E+04  5.881396E+02 -3.338882E+03
        72   8  4.194445E+04 -3.894346E+03 -1.061918E+04  2.778059E+04  2.875371E+03 -1.284846E+03
        72   9  3.330132E+04 -1.067826E+04 -1.561713E+04  2.276343E+04  4.187551E+03  2.069258E+03
        72  10  1.236355E+05  5.084301E+04  8.497768E+03  6.817595E+04  5.069624E-11  4.858200E-11
        72  11  1.322082E+05  5.797529E+04  1.237116E+04  7.247514E+04 -8.128612E-11  5.134213E-11
        72  12  1.438529E+05  6.425434E+04  1.916205E+04  7.593832E+04 -1.528313E-10  6.623568E-12
        72  13  8.803745E+04  2.582993E+04  4.595507E+02  5.006822E+04 -1.180087E-10  4.659687E-11
        72  14  8.707542E+04  2.704010E+04  8.761555E+02  5.012708E+04 -1.115122E-10  9.879989E-12
        72  15  8.857613E+04  2.678775E+04  1.772844E+03  4.934988E+04  2.542000E-12  4.097928E-13
        72  16  5.244083E+04  8.176019E+02 -7.578746E+03  3.196168E+04 -3.751633E-11  9.863548E-12
        72  17  4.194444E+04 -3.894350E+03 -1.061920E+04  2.778059E+04 -3.473143E-11 -5.261800E-11
        72  18  3.330130E+04 -1.067827E+04 -1.561717E+04  2.276342E+04  3.506369E-11 -3.543968E-12
        72  19  1.236355E+05  5.084302E+04  8.497786E+03  6.817595E+04 -2.459661E+03  1.935351E+03
        72  20  1.322082E+05  5.797531E+04  1.237120E+04  7.247514E+04  8.700703E+02  4.093601E+03
        72  21  1.438530E+05  6.425437E+04  1.916214E+04  7.593834E+04  5.174813E+03  4.951998E+03
        72  22  8.803745E+04  2.582993E+04  4.595681E+02  5.006822E+04 -1.523865E+03  2.637143E+03
        72  23  8.707542E+04  2.704011E+04  8.761709E+02  5.012708E+04 -1.002731E+03  2.689166E+03
        72  24  8.857613E+04  2.678775E+04  1.772849E+03  4.934988E+04  4.934007E+02  1.441210E+03
        72  25  5.244083E+04  8.176140E+02 -7.578725E+03  3.196167E+04 -5.881396E+02  3.338882E+03
        72  26  4.194445E+04 -3.894346E+03 -1.061918E+04  2.778059E+04 -2.875371E+03  1.284846E+03
        72  27  3.330132E+04 -1.067826E+04 -1.561713E+04  2.276343E+04 -4.187551E+03 -2.069258E+03
        73   1  1.361567E+05  3.929238E+03  4.224402E+03  2.630168E+03  2.902005E+03  1.229180E-02
        73   2  1.358613E+05  1.254360E+03  2.161976E+03  1.336365E+03  1.797419E+03  3.868195E-03
        73   3  1.361569E+05  3.682817E+02  1.265783E+03  4.254367E+01  6.928174E+02  4.746653E-05
        73   4  1.361567E+05  3.929225E+03  4.224400E+03 -1.709163E-10  2.902005E+03  2.335227E-12
        73   5  1.358613E+05  1.254357E+03  2.161976E+03  8.177930E-11  1.797419E+03  7.597323E-13
        73   6  1.361569E+05  3.682817E+02  1.265783E+03  2.367069E-11  6.928174E+02 -3.726664E-11
        73   7  1.361567E+05  3.929238E+03  4.224402E+03 -2.630168E+03  2.902005E+03 -1.229180E-02
        73   8  1.358613E+05  1.254360E+03  2.161976E+03 -1.336365E+03  1.797419E+03 -3.868195E-03
        73   9  1.361569E+05  3.682817E+02  1.265783E+03 -4.254367E+01  6.928174E+02 -4.746660E-05
        73  10  1.361567E+05  3.929236E+03  4.224386E+03  2.630168E+03 -1.016829E-10  1.482343E-11
        73  11  1.358613E+05  1.254359E+03  2.161970E+03  1.336365E+03  7.175034E-11  3.683089E-11
        73  12  1.361569E+05  3.682815E+02  1.265782E+03  4.254367E+01  7.608564E-11  3.934303E-11
        73  13  1.361567E+05  3.929223E+03  4.224384E+03 -5.259239E-12  5.095535E-11  9.945345E-13
        73  14  1.358613E+05  1.254356E+03  2.161970E+03  1.146477E-10 -5.211999E-11  4.330864E-12
        73  15  1.361569E+05  3.682815E+02  1.265782E+03  2.945541E-11 -1.078353E-11  2.622537E-12
        73  16  1.361567E+05  3.929236E+03  4.224386E+03 -2.630168E+03  3.092194E-11 -1.383850E-11
        73  17  1.358613E+05  1.254359E+03  2.161970E+03 -1.336365E+03  1.513517E-10 -3.337401E-11
        73  18  1.361569E+05  3.682815E+02  1.265782E+03 -4.254367E+01 -3.109599E-13 -3.187239E-11
        73  19  1.361567E+05  3.929238E+03  4.224402E+03  2.630168E+03 -2.902005E+03 -1.229180E-02
        73  20  1.358613E+05  1.254360E+03  2.161976E+03  1.336365E+03 -1.797419E+03 -3.868195E-03
        73  21  1.361569E+05  3.682817E+02  1.265783E+03  4.254367E+01 -6.928174E+02 -4.746645E-05
        73  22  1.361567E+05  3.929225E+03  4.224400E+03 -3.733880E-11 -2.902005E+03  1.947254E-13
        73  23  1.358613E+05  1.254357E+03  2.161976E+03  2.845119E-10 -1.797419E+03  7.989342E-12
        73  24  1.361569E+05  3.682817E+02  1.265783E+03 -1.419863E-10 -6.928174E+02  4.339328E-11
        73  25  1.361567E+05  3.929238E+03  4.224402E+03 -2.630168E+03 -2.902005E+03  1.229180E-02
        73  26  1.358613E+05  1.254360E+03  2.161976E+03 -1.336365E+03 -1.797419E+03  3.868195E-03
        73  27  1.361569E+05  3.682817E+02  1.265783E+03 -4.254367E+01 -6.928174E+02  4.746655E-05
        74   1  1.360467E+05  2.843060E+02  1.025695E+03  1.754202E+02  5.186600E+02  1.465197E-04
        74   2  1.359992E+05  7.994935E+01  7.714056E+02  8.381029E+01  1.339651E+02  1.808107E-05
        74   3  1.360467E+05  5.544973E+01  8.124931E+02 -7.799596E+00 -2.507297E+02  3.149211E-06
        74   4  1.360467E+05  2.843059E+02  1.025695E+03  1.288531E-10  5.186600E+02 -3.616733E-11
        74   5  1.359992E+05  7.994934E+01  7.714056E+02  1.803845E-10  1.339651E+02 -1.977732E-11
        74   6  1.360467E+05  5.544973E+01  8.124931E+02 -2.156539E-11 -2.507297E+02 -8.196368E-11
        74   7  1.360467E+05  2.843060E+02  1.025695E+03 -1.754202E+02  5.186600E+02 -1.465198E-04
        74   8  1.359992E+05  7.994935E+01  7.714056E+02 -8.381029E+01  1.339651E+02 -1.808110E-05
        74   9  1.360467E+05  5.544973E+01  8.124931E+02  7.799596E+00 -2.507297E+02 -3.149379E-06
        74  10  1.360467E+05  2.843059E+02  1.025695E+03  1.754202E+02 -3.701580E-11  5.147763E-11
        74  11  1.359992E+05  7.994935E+01  7.714056E+02  8.381029E+01  1.770311E-10  5.946749E-11
        74  12  1.360467E+05  5.544972E+01  8.124930E+02 -7.799596E+00  1.397793E-10 -1.808720E-11
        74  13  1.360467E+05  2.843059E+02  1.025695E+03  1.598808E-10  5.119085E-11  4.613794E-12
        74  14  1.359992E+05  7.994933E+01  7.714056E+02  2.324472E-10 -5.889481E-11 -1.223417E-12
        74  15  1.360467E+05  5.544972E+01  8.124930E+02 -1.020292E-10 -1.395410E-10 -2.954019E-11
        74  16  1.360467E+05  2.843059E+02  1.025695E+03 -1.754202E+02  3.508514E-11 -4.037083E-11
        74  17  1.359992E+05  7.994935E+01  7.714056E+02 -8.381029E+01  3.070289E-11 -6.197862E-11
        74  18  1.360467E+05  5.544972E+01  8.124930E+02  7.799596E+00 -1.457402E-10 -3.878468E-11
        74  19  1.360467E+05  2.843060E+02  1.025695E+03  1.754202E+02 -5.186600E+02 -1.465196E-04
        74  20  1.359992E+05  7.994935E+01  7.714056E+02  8.381029E+01 -1.339651E+02 -1.808096E-05
        74  21  1.360467E+05  5.544973E+01  8.124931E+02 -7.799596E+00  2.507297E+02 -3.149235E-06
        74  22  1.360467E+05  2.843059E+02  1.025695E+03 -7.309054E-11 -5.186600E+02  4.502080E-11
        74  23  1.359992E+05  7.994934E+01  7.714056E+02 -1.945734E-11 -1.339651E+02  1.676838E-11
        74  24  1.360467E+05  5.544973E+01  8.124931E+02 -3.334248E-10  2.507297E+02  2.443248E-11
        74  25  1.360467E+05  2.843060E+02  1.025695E+03 -1.754202E+02 -5.186600E+02  1.465197E-04
        74  26  1.359992E+05  7.994935E+01  7.714056E+02 -8.381029E+01 -1.339651E+02  1.808098E-05
        74  27  1.360467E+05  5.544973E+01  8.124931E+02  7.799596E+00  2.507297E+02  3.149303E-06
        75   1  1.360696E+05  6.317049E+01  9.282640E+02  4.737713E+01 -3.988976E+02 -3.043443E-05
        75   2  1.359706E+05  2.232005E+02  1.410070E+03 -1.976463E+02 -1.104069E+03  3.514138E-04
        75   3  1.360695E+05  8.080853E+02  2.457116E+03 -4.426660E+02 -1.809231E+03  1.289745E-03
        75   4  1.360696E+05  6.317049E+01  9.282640E+02 -3.892386E-11 -3.988976E+02 -7.000397E-11
        75   5  1.359706E+05  2.232005E+02  1.410070E+03 -7.204605E-11 -1.104069E+03  3.337173E-11
        75   6  1.360695E+05  8.080849E+02  2.457116E+03  1.861776E-10 -1.809231E+03  3.389368E-11
        75   7  1.360696E+05  6.317049E+01  9.282640E+02 -4.737713E+01 -3.988976E+02  3.043430E-05
        75   8  1.359706E+05  2.232005E+02  1.410070E+03  1.976463E+02 -1.104069E+03 -3.514137E-04
        75   9  1.360695E+05  8.080853E+02  2.457116E+03  4.426660E+02 -1.809231E+03 -1.289745E-03
        75  10  1.360696E+05  6.317045E+01  9.282637E+02  4.737713E+01 -6.658703E-11 -4.732742E-11
        75  11  1.359706E+05  2.232002E+02  1.410068E+03 -1.976463E+02 -1.173408E-10 -2.447353E-11
        75  12  1.360695E+05  8.080844E+02  2.457110E+03 -4.426660E+02  1.769830E-11 -3.312710E-11
        75  13  1.360696E+05  6.317044E+01  9.282637E+02 -2.303472E-10 -4.691696E-11 -2.622964E-11
        75  14  1.359706E+05  2.232001E+02  1.410068E+03 -8.729596E-11  1.009720E-10  9.396618E-12
        75  15  1.360695E+05  8.080840E+02  2.457110E+03  2.009019E-10 -5.482264E-12  1.317293E-11
        75  16  1.360696E+05  6.317045E+01  9.282637E+02 -4.737713E+01 -4.901606E-11 -3.737197E-12
        75  17  1.359706E+05  2.232002E+02  1.410068E+03  1.976463E+02  9.036676E-12  4.516879E-11
        75  18  1.360695E+05  8.080844E+02  2.457110E+03  4.426660E+02  3.999059E-11  6.214330E-11
        75  19  1.360696E+05  6.317049E+01  9.282640E+02  4.737713E+01  3.988976E+02  3.043435E-05
        75  20  1.359706E+05  2.232005E+02  1.410070E+03 -1.976463E+02  1.104069E+03 -3.514139E-04
        75  21  1.360695E+05  8.080853E+02  2.457116E+03 -4.426660E+02  1.809231E+03 -1.289745E-03
        75  22  1.360696E+05  6.317049E+01  9.282640E+02 -3.497227E-10  3.988976E+02  1.666825E-11
        75  23  1.359706E+05  2.232005E+02  1.410070E+03  1.162263E-10  1.104069E+03 -1.541533E-11
        75  24  1.360695E+05  8.080849E+02  2.457116E+03  2.308775E-10  1.809231E+03 -5.754218E-12
        75  25  1.360696E+05  6.317049E+01  9.282640E+02 -4.737713E+01  3.988976E+02 -3.043431E-05
        75  26  1.359706E+05  2.232005E+02  1.410070E+03  1.976463E+02  1.104069E+03  3.514138E-04
        75  27  1.360695E+05  8.080853E+02  2.457116E+03  4.426660E+02  1.809231E+03  1.289745E-03
        76   1  1.363910E+05  1.040651E+03  3.241624E+03 -8.485915E+01 -2.232890E+03  3.051404E-04
        76   2  1.355684E+05  3.520558E+03  5.913182E+03 -3.713815E+03 -5.256279E+03  3.143641E-02
        76   3  1.363904E+05  1.100480E+04  1.180387E+04 -7.342834E+03 -8.279714E+03  9.790688E-02
        76   4  1.363910E+05  1.040651E+03  3.241624E+03 -9.309219E-11 -2.232890E+03  2.794380E-11
        76   5  1.355684E+05  3.520532E+03  5.913178E+03 -7.310619E-11 -5.256279E+03  4.221412E-11
        76   6  1.363903E+05  1.100469E+04  1.180385E+04 -1.582996E-10 -8.279714E+03  2.128859E-11
        76   7  1.363910E+05  1.040651E+03  3.241624E+03  8.485915E+01 -2.232890E+03 -3.051403E-04
        76   8  1.355684E+05  3.520558E+03  5.913182E+03  3.713815E+03 -5.256279E+03 -3.143641E-02
        76   9  1.363904E+05  1.100480E+04  1.180387E+04  7.342834E+03 -8.279714E+03 -9.790688E-02
        76  10  1.363910E+05  1.040650E+03  3.241615E+03 -8.485915E+01  3.398375E-11 -2.524108E-11
        76  11  1.355684E+05  3.520551E+03  5.913130E+03 -3.713815E+03 -4.695154E-11  6.784200E-12
        76  12  1.363903E+05  1.100478E+04  1.180374E+04 -7.342834E+03  2.168601E-11  1.259925E-11
        76  13  1.363910E+05  1.040650E+03  3.241615E+03 -1.725029E-10  6.731473E-11  5.690094E-12
        76  14  1.355684E+05  3.520525E+03  5.913126E+03 -5.785513E-11  4.315911E-11 -1.407293E-12
        76  15  1.363903E+05  1.100468E+04  1.180372E+04 -1.451516E-10 -2.348219E-11 -1.470897E-12
        76  16  1.363910E+05  1.040650E+03  3.241615E+03  8.485915E+01 -3.296805E-11  3.505280E-11
        76  17  1.355684E+05  3.520551E+03  5.913130E+03  3.713815E+03  8.278362E-11 -7.676255E-12
        76  18  1.363903E+05  1.100478E+04  1.180374E+04  7.342834E+03  2.474684E-11 -3.747043E-12
        76  19  1.363910E+05  1.040651E+03  3.241624E+03 -8.485915E+01  2.232890E+03 -3.051404E-04
        76  20  1.355684E+05  3.520558E+03  5.913182E+03 -3.713815E+03  5.256279E+03 -3.143641E-02
        76  21  1.363904E+05  1.100480E+04  1.180387E+04 -7.342834E+03  8.279714E+03 -9.790688E-02
        76  22  1.363910E+05  1.040651E+03  3.241624E+03 -1.146550E-10  2.232890E+03 -1.641912E-11
        76  23  1.355684E+05  3.520532E+03  5.913178E+03 -1.130746E-10  5.256279E+03 -4.481431E-11
        76  24  1.363903E+05  1.100469E+04  1.180385E+04 -1.462034E-10  8.279714E+03 -2.481841E-11
        76  25  1.363910E+05  1.040651E+03  3.241624E+03  8.485915E+01  2.232890E+03  3.051404E-04
        76  26  1.355684E+05  3.520558E+03  5.913182E+03  3.713815E+03  5.256279E+03  3.143641E-02
        76  27  1.363904E+05  1.100480E+04  1.180387E+04  7.342834E+03  8.279714E+03  9.790688E-02
        77   1 -2.640353E+04 -2.642002E+04 -2.931931E+04  9.255572E+03  2.708776E+02 -2.343406E+04
        77   2 -5.936552E+03 -3.490199E+04 -1.483333E+04 -1.163080E+03  7.343822E+02 -1.525158E+04
        77   3 -9.219348E+02 -4.831226E+04 -9.537531E+03 -1.347570E+04  4.711299E+02 -7.069123E+03
        77   4 -3.438616E+04 -5.865471E+04 -3.699695E+04 -1.376618E+04  2.717897E+02 -2.521814E+04
        77   5 -1.101780E+04 -5.605357E+04 -1.908892E+04 -1.281895E+04  7.346762E+02 -1.546701E+04
        77   6 -3.374974E+03 -5.865364E+04 -1.146084E+04 -1.376562E+04  4.710938E+02 -5.715732E+03
        77   7 -4.236687E+04 -9.088732E+04 -4.467436E+04 -3.678674E+04  2.728340E+02 -2.700213E+04
        77   8 -1.609857E+04 -7.720442E+04 -2.334446E+04 -2.447441E+04  7.349782E+02 -1.568244E+04
        77   9 -5.828018E+03 -6.899492E+04 -1.338414E+04 -1.405553E+04  4.710566E+02 -4.362363E+03
        77  10 -2.640368E+04 -2.642061E+04 -2.932034E+04  9.255577E+03 -5.030988E-11 -1.227355E-10
        77  11 -5.936615E+03 -3.490224E+04 -1.483377E+04 -1.163071E+03 -1.321846E-10 -1.391767E-11
        77  12 -9.219485E+02 -4.831231E+04 -9.537625E+03 -1.347570E+04  1.231775E-11  8.106322E-11
        77  13 -3.438633E+04 -5.865540E+04 -3.699814E+04 -1.376618E+04 -1.851342E-11  1.316411E-13
        77  14 -1.101787E+04 -5.605383E+04 -1.908937E+04 -1.281894E+04 -1.444905E-10 -4.972635E-12
        77  15 -3.374983E+03 -5.865368E+04 -1.146090E+04 -1.376562E+04 -1.719278E-10 -9.149718E-12
        77  16 -4.236706E+04 -9.088810E+04 -4.467573E+04 -3.678673E+04 -1.895438E-11  1.224682E-10
        77  17 -1.609864E+04 -7.720469E+04 -2.334492E+04 -2.447440E+04 -1.286759E-10  1.294382E-11
        77  18 -5.828023E+03 -6.899494E+04 -1.338418E+04 -1.405553E+04 -7.948854E-11 -7.839711E-11
        77  19 -2.640353E+04 -2.642002E+04 -2.931931E+04  9.255572E+03 -2.708776E+02  2.343406E+04
        77  20 -5.936552E+03 -3.490199E+04 -1.483333E+04 -1.163080E+03 -7.343822E+02  1.525158E+04
        77  21 -9.219348E+02 -4.831226E+04 -9.537531E+03 -1.347570E+04 -4.711299E+02  7.069123E+03
        77  22 -3.438616E+04 -5.865471E+04 -3.699695E+04 -1.376618E+04 -2.717897E+02  2.521814E+04
        77  23 -1.101780E+04 -5.605357E+04 -1.908892E+04 -1.281895E+04 -7.346762E+02  1.546701E+04
        77  24 -3.374974E+03 -5.865364E+04 -1.146084E+04 -1.376562E+04 -4.710938E+02  5.715732E+03
        77  25 -4.236687E+04 -9.088732E+04 -4.467436E+04 -3.678674E+04 -2.728340E+02  2.700213E+04
        77  26 -1.609857E+04 -7.720442E+04 -2.334446E+04 -2.447441E+04 -7.349782E+02  1.568244E+04
        77  27 -5.828018E+03 -6.899492E+04 -1.338414E+04 -1.405553E+04 -4.710566E+02  4.362363E+03
        78   1 -1.841832E+03 -5.429889E+04 -8.746368E+03 -1.225831E+04  7.276568E+01 -5.489185E+03
        78   2 -3.078195E+03 -6.466786E+04 -8.876586E+03 -1.276911E+04 -5.394920E+02 -1.521738E+03
        78   3 -6.830801E+03 -7.618241E+04 -1.221896E+04 -1.521823E+04 -1.114001E+03  2.445648E+03
        78   4 -2.683976E+03 -5.774931E+04 -9.506933E+03 -1.377551E+04  7.273806E+01 -4.126249E+03
        78   5 -1.358733E+03 -5.718357E+04 -7.764097E+03 -1.280634E+04 -5.395275E+02 -2.403755E+02
        78   6 -2.535562E+03 -5.774936E+04 -9.176776E+03 -1.377551E+04 -1.114026E+03  3.645502E+03
        78   7 -3.526112E+03 -6.119971E+04 -1.026749E+04 -1.529270E+04  7.270377E+01 -2.763321E+03
        78   8  3.607278E+02 -4.969922E+04 -6.651604E+03 -1.284357E+04 -5.395632E+02  1.041002E+03
        78   9  1.759668E+03 -3.931597E+04 -6.134590E+03 -1.233275E+04 -1.114045E+03  4.845390E+03
        78  10 -1.841840E+03 -5.429892E+04 -8.746425E+03 -1.225831E+04  4.602954E-11  2.777868E-11
        78  11 -3.078196E+03 -6.466786E+04 -8.876591E+03 -1.276911E+04 -1.044684E-10  2.407546E-11
        78  12 -6.830804E+03 -7.618241E+04 -1.221898E+04 -1.521822E+04  1.946409E-11 -1.650716E-12
        78  13 -2.683981E+03 -5.774933E+04 -9.506965E+03 -1.377551E+04 -1.211208E-10  2.303577E-12
        78  14 -1.358733E+03 -5.718357E+04 -7.764098E+03 -1.280634E+04 -5.944959E-11 -4.235544E-12
        78  15 -2.535567E+03 -5.774937E+04 -9.176803E+03 -1.377551E+04 -1.244604E-11 -6.982446E-12
        78  16 -3.526114E+03 -6.119972E+04 -1.026751E+04 -1.529270E+04  4.616455E-11 -3.030987E-11
        78  17  3.607272E+02 -4.969922E+04 -6.651606E+03 -1.284357E+04  4.057625E-11 -1.992739E-11
        78  18  1.759661E+03 -3.931599E+04 -6.134637E+03 -1.233274E+04  1.918523E-11  3.784091E-12
        78  19 -1.841832E+03 -5.429889E+04 -8.746368E+03 -1.225831E+04 -7.276568E+01  5.489185E+03
        78  20 -3.078195E+03 -6.466786E+04 -8.876586E+03 -1.276911E+04  5.394920E+02  1.521738E+03
        78  21 -6.830801E+03 -7.618241E+04 -1.221896E+04 -1.521823E+04  1.114001E+03 -2.445648E+03
        78  22 -2.683976E+03 -5.774931E+04 -9.506933E+03 -1.377551E+04 -7.273806E+01  4.126249E+03
        78  23 -1.358733E+03 -5.718357E+04 -7.764097E+03 -1.280634E+04  5.395275E+02  2.403755E+02
        78  24 -2.535562E+03 -5.774936E+04 -9.176776E+03 -1.377551E+04  1.114026E+03 -3.645502E+03
        78  25 -3.526112E+03 -6.119971E+04 -1.026749E+04 -1.529270E+04 -7.270377E+01  2.763321E+03
        78  26  3.607278E+02 -4.969922E+04 -6.651604E+03 -1.284357E+04  5.395632E+02 -1.041002E+03
        78  27  1.759668E+03 -3.931597E+04 -6.134590E+03 -1.233275E+04  1.114045E+03 -4.845390E+03
        79   1 -9.099232E+03 -8.392465E+04 -1.519404E+04 -1.403741E+04 -1.477823E+03  3.989436E+03
        79   2 -1.892971E+04 -9.223556E+04 -2.488946E+04 -2.375976E+04 -1.505853E+03  1.542412E+04
        79   3 -4.390259E+04 -1.058209E+05 -4.581532E+04 -3.535029E+04 -4.922419E+02  2.685839E+04
        79   4 -3.178971E+03 -5.858321E+04 -1.093615E+04 -1.376002E+04 -1.477846E+03  5.174290E+03
        79   5 -1.032947E+04 -5.614184E+04 -1.798202E+04 -1.282594E+04 -1.505553E+03  1.435885E+04
        79   6 -3.223162E+04 -5.858433E+04 -3.469542E+04 -1.376046E+04 -4.912525E+02  2.354326E+04
        79   7  2.741258E+03 -3.324114E+04 -6.678266E+03 -1.348262E+04 -1.477869E+03  6.359190E+03
        79   8 -1.728862E+03 -2.004660E+04 -1.107458E+04 -1.891462E+03 -1.505290E+03  1.329352E+04
        79   9 -2.055905E+04 -1.134467E+04 -2.357537E+04  7.831035E+03 -4.904938E+02  2.022789E+04
        79  10 -9.099238E+03 -8.392467E+04 -1.519408E+04 -1.403740E+04  5.309278E-11 -1.332926E-10
        79  11 -1.892978E+04 -9.223581E+04 -2.488991E+04 -2.375974E+04  1.126354E-10 -7.386797E-11
        79  12 -4.390278E+04 -1.058217E+05 -4.581668E+04 -3.535028E+04  3.042364E-11 -1.119536E-11
        79  13 -3.178980E+03 -5.858324E+04 -1.093620E+04 -1.376001E+04  1.860824E-10  3.899059E-12
        79  14 -1.032953E+04 -5.614206E+04 -1.798241E+04 -1.282592E+04  1.566464E-11 -1.370819E-12
        79  15 -3.223177E+04 -5.858493E+04 -3.469646E+04 -1.376045E+04  4.367014E-11  1.016078E-11
        79  16  2.741245E+03 -3.324119E+04 -6.678346E+03 -1.348261E+04  1.731362E-11  1.408582E-10
        79  17 -1.728912E+03 -2.004679E+04 -1.107491E+04 -1.891446E+03  3.187855E-11  7.441306E-11
        79  18 -2.055916E+04 -1.134511E+04 -2.357614E+04  7.831043E+03  5.542395E-11  8.267760E-12
        79  19 -9.099232E+03 -8.392465E+04 -1.519404E+04 -1.403741E+04  1.477823E+03 -3.989436E+03
        79  20 -1.892971E+04 -9.223556E+04 -2.488946E+04 -2.375976E+04  1.505853E+03 -1.542412E+04
        79  21 -4.390259E+04 -1.058209E+05 -4.581532E+04 -3.535029E+04  4.922419E+02 -2.685839E+04
        79  22 -3.178971E+03 -5.858321E+04 -1.093615E+04 -1.376002E+04  1.477846E+03 -5.174290E+03
        79  23 -1.032947E+04 -5.614184E+04 -1.798202E+04 -1.282594E+04  1.505553E+03 -1.435885E+04
        79  24 -3.223162E+04 -5.858433E+04 -3.469542E+04 -1.376046E+04  4.912525E+02 -2.354326E+04
        79  25  2.741258E+03 -3.324114E+04 -6.678266E+03 -1.348262E+04  1.477869E+03 -6.359190E+03
        79  26 -1.728862E+03 -2.004660E+04 -1.107458E+04 -1.891462E+03  1.505290E+03 -1.329352E+04
        79  27 -2.055905E+04 -1.134467E+04 -2.357537E+04  7.831035E+03  4.904938E+02 -2.022789E+04
        80   1  6.005702E+04  1.979382E+04 -7.137102E+03  4.428843E+04 -8.125604E+02  1.913563E+02
        80   2  6.583591E+04  2.112571E+04 -5.735919E+03  4.834216E+04 -7.685371E+02  2.027649E+03
        80   3  7.381817E+04  2.246177E+04 -4.603773E+03  5.126211E+04 -1.916067E+01  2.923467E+03
        80   4  1.027539E+05  4.453028E+04  5.483347E+03  6.289362E+04  2.696625E+03  2.823158E+03
        80   5  1.005985E+05  4.282644E+04  2.743131E+03  6.457155E+04  7.089504E+02  3.135686E+03
        80   6  1.010875E+05  4.156751E+04  1.497232E+03  6.511575E+04 -5.733848E+02  2.507812E+03
        80   7  1.454517E+05  6.926677E+04  1.810336E+04  8.149970E+04  6.206061E+03  5.455087E+03
        80   8  1.353621E+05  6.452743E+04  1.122197E+04  8.080174E+04  2.186532E+03  4.243782E+03
        80   9  1.283576E+05  6.067370E+04  7.598191E+03  7.897009E+04 -1.127641E+03  2.092133E+03
        80  10  6.005701E+04  1.979382E+04 -7.137103E+03  4.428843E+04 -1.712342E-10 -4.197588E-11
        80  11  6.583591E+04  2.112571E+04 -5.735928E+03  4.834216E+04 -2.707278E-11  5.364816E-11
        80  12  7.381816E+04  2.246176E+04 -4.603789E+03  5.126211E+04  2.715396E-11  8.274214E-11
        80  13  1.027538E+05  4.453027E+04  5.483319E+03  6.289361E+04  4.869311E-11  2.458797E-11
        80  14  1.005985E+05  4.282643E+04  2.743111E+03  6.457155E+04  5.338565E-11  3.364253E-11
        80  15  1.010875E+05  4.156751E+04  1.497219E+03  6.511575E+04 -3.692051E-11  1.781074E-11
        80  16  1.454516E+05  6.926672E+04  1.810323E+04  8.149967E+04  6.599939E-11  8.420537E-11
        80  17  1.353621E+05  6.452741E+04  1.122192E+04  8.080173E+04  1.619829E-11  3.755963E-11
        80  18  1.283576E+05  6.067370E+04  7.598181E+03  7.897009E+04 -8.442286E-11 -2.839211E-11
        80  19  6.005702E+04  1.979382E+04 -7.137102E+03  4.428843E+04  8.125604E+02 -1.913563E+02
        80  20  6.583591E+04  2.112571E+04 -5.735919E+03  4.834216E+04  7.685371E+02 -2.027649E+03
        80  21  7.381817E+04  2.246177E+04 -4.603773E+03  5.126211E+04  1.916067E+01 -2.923467E+03
        80  22  1.027539E+05  4.453028E+04  5.483347E+03  6.289362E+04 -2.696625E+03 -2.823158E+03
        80  23  1.005985E+05  4.282644E+04  2.743131E+03  6.457155E+04 -7.089504E+02 -3.135686E+03
        80  24  1.010875E+05  4.156751E+04  1.497232E+03  6.511575E+04  5.733848E+02 -2.507812E+03
        80  25  1.454517E+05  6.926677E+04  1.810336E+04  8.149970E+04 -6.206061E+03 -5.455087E+03
        80  26  1.353621E+05  6.452743E+04  1.122197E+04  8.080174E+04 -2.186532E+03 -4.243782E+03
        80  27  1.283576E+05  6.067370E+04  7.598191E+03  7.897009E+04  1.127641E+03 -2.092133E+03
        81   1  7.732364E+04  2.514794E+04 -3.996244E+03  5.319102E+04 -2.063945E+01  2.631189E+03
        81   2  8.258480E+04  2.976639E+04 -2.992932E+03  5.649701E+04  2.093573E+02  2.304080E+03
        81   3  8.931965E+04  3.308813E+04 -1.946562E+03  5.934521E+04  5.238773E+02  1.864258E+03
        81   4  1.009707E+05  4.142628E+04  1.129420E+03  6.509031E+04 -5.896329E+02  2.204462E+03
        81   5  1.001440E+05  4.193518E+04  6.330499E+02  6.540424E+04 -6.031430E+02  1.694742E+03
        81   6  1.008437E+05  4.120012E+04  3.910043E+02  6.526028E+04 -5.321343E+02  1.072316E+03
        81   7  1.246189E+05  5.770534E+04  6.255246E+03  7.699040E+04 -1.158668E+03  1.777704E+03
        81   8  1.177037E+05  5.410416E+04  4.259025E+03  7.431176E+04 -1.415674E+03  1.085381E+03
        81   9  1.123676E+05  4.931201E+04  2.728481E+03  7.117536E+04 -1.588148E+03  2.803713E+02
        81  10  7.732363E+04  2.514793E+04 -3.996257E+03  5.319102E+04 -1.701626E-11  3.196451E-11
        81  11  8.258480E+04  2.976639E+04 -2.992942E+03  5.649701E+04 -1.191130E-10 -8.490725E-11
        81  12  8.931965E+04  3.308813E+04 -1.946569E+03  5.934520E+04 -3.579576E-10 -1.273476E-10
        81  13  1.009707E+05  4.142628E+04  1.129410E+03  6.509031E+04  3.680120E-11 -1.027631E-13
        81  14  1.001440E+05  4.193518E+04  6.330438E+02  6.540424E+04 -4.298753E-11 -1.421019E-11
        81  15  1.008437E+05  4.120012E+04  3.910016E+02  6.526028E+04 -5.768218E-11  5.490121E-11
        81  16  1.246189E+05  5.770534E+04  6.255237E+03  7.699040E+04  8.597449E-11 -4.933079E-11
        81  17  1.177037E+05  5.410416E+04  4.259019E+03  7.431176E+04  9.636427E-11  5.919920E-11
        81  18  1.123676E+05  4.931201E+04  2.728476E+03  7.117536E+04  2.698281E-10  2.551237E-10
        81  19  7.732364E+04  2.514794E+04 -3.996244E+03  5.319102E+04  2.063945E+01 -2.631189E+03
        81  20  8.258480E+04  2.976639E+04 -2.992932E+03  5.649701E+04 -2.093573E+02 -2.304080E+03
        81  21  8.931965E+04  3.308813E+04 -1.946562E+03  5.934521E+04 -5.238773E+02 -1.864258E+03
        81  22  1.009707E+05  4.142628E+04  1.129420E+03  6.509031E+04  5.896329E+02 -2.204462E+03
        81  23  1.001440E+05  4.193518E+04  6.330499E+02  6.540424E+04  6.031430E+02 -1.694742E+03
        81  24  1.008437E+05  4.120012E+04  3.910043E+02  6.526028E+04  5.321343E+02 -1.072316E+03
        81  25  1.246189E+05  5.770534E+04  6.255246E+03  7.699040E+04  1.158668E+03 -1.777704E+03
        81  26  1.177037E+05  5.410416E+04  4.259025E+03  7.431176E+04  1.415674E+03 -1.085381E+03
        81  27  1.123676E+05  4.931201E+04  2.728481E+03  7.117536E+04  1.588148E+03 -2.803713E+02
        82   1  9.300939E+04  3.570783E+04 -1.236251E+03  6.124766E+04  6.934098E+02  1.539209E+03
        82   2  9.823486E+04  4.055840E+04 -1.056506E+02  6.449607E+04  9.601478E+02  9.733848E+02
        82   3  1.048929E+05  4.402592E+04  1.113623E+03  6.733207E+04  1.227846E+03  4.062850E+02
        82   4  1.008340E+05  4.118908E+04  3.238071E+02  6.525546E+04 -3.641685E+02  7.460989E+02
        82   5  1.001168E+05  4.187911E+04  2.611788E+02  6.546264E+04 -1.002017E+02  1.781949E+02
        82   6  1.008327E+05  4.118664E+04  2.896217E+02  6.525737E+04  1.647272E+02 -3.909871E+02
        82   7  1.086587E+05  4.667037E+04  1.883873E+03  6.926333E+04 -1.421765E+03 -4.702562E+01
        82   8  1.019988E+05  4.319984E+04  6.280229E+02  6.642923E+04 -1.160568E+03 -6.170079E+02
        82   9  9.677248E+04  3.834731E+04 -5.344072E+02  6.318264E+04 -8.984068E+02 -1.188271E+03
        82  10  9.300939E+04  3.570783E+04 -1.236257E+03  6.124766E+04 -2.773636E-10  3.472211E-11
        82  11  9.823486E+04  4.055840E+04 -1.056541E+02  6.449607E+04 -2.404357E-10 -1.298816E-11
        82  12  1.048929E+05  4.402592E+04  1.113620E+03  6.733207E+04 -3.217742E-10 -8.813263E-11
        82  13  1.008340E+05  4.118908E+04  3.238058E+02  6.525546E+04 -5.444907E-11  1.006502E-10
        82  14  1.001168E+05  4.187911E+04  2.611788E+02  6.546264E+04  6.292236E-11  8.058081E-11
        82  15  1.008327E+05  4.118664E+04  2.896214E+02  6.525737E+04 -1.293847E-10  7.055648E-11
        82  16  1.086587E+05  4.667037E+04  1.883869E+03  6.926333E+04  1.023842E-10  1.544182E-10
        82  17  1.019988E+05  4.319984E+04  6.280196E+02  6.642923E+04  1.348331E-10  1.839638E-10
        82  18  9.677248E+04  3.834731E+04 -5.344113E+02  6.318264E+04  3.993687E-11  2.311827E-10
        82  19  9.300939E+04  3.570783E+04 -1.236251E+03  6.124766E+04 -6.934098E+02 -1.539209E+03
        82  20  9.823486E+04  4.055840E+04 -1.056506E+02  6.449607E+04 -9.601478E+02 -9.733848E+02
        82  21  1.048929E+05  4.402592E+04  1.113623E+03  6.733207E+04 -1.227846E+03 -4.062850E+02
        82  22  1.008340E+05  4.118908E+04  3.238071E+02  6.525546E+04  3.641685E+02 -7.460989E+02
        82  23  1.001168E+05  4.187911E+04  2.611788E+02  6.546264E+04  1.002017E+02 -1.781949E+02
        82  24  1.008327E+05  4.118664E+04  2.896217E+02  6.525737E+04 -1.647272E+02  3.909871E+02
        82  25  1.086587E+05  4.667037E+04  1.883873E+03  6.926333E+04  1.421765E+03  4.702562E+01
        82  26  1.019988E+05  4.319984E+04  6.280229E+02  6.642923E+04  1.160568E+03  6.170079E+02
        82  27  9.677248E+04  3.834731E+04 -5.344072E+02  6.318264E+04  8.984068E+02  1.188271E+03
        83   1  1.086021E+05  4.666196E+04  1.935892E+03  6.924196E+04  1.401240E+03  8.231415E+01
        83   2  1.139161E+05  5.146831E+04  3.395889E+03  7.239840E+04  1.302485E+03 -6.798953E+02
        83   3  1.207809E+05  5.504737E+04  5.255697E+03  7.510658E+04  1.127224E+03 -1.340082E+03
        83   4  1.008397E+05  4.119537E+04  3.364837E+02  6.526071E+04  3.394966E+02 -7.139286E+02
        83   5  1.001393E+05  4.192395E+04  5.215870E+02  6.541645E+04  4.611552E+02 -1.310844E+03
        83   6  1.009421E+05  4.137755E+04  9.152742E+02  6.512398E+04  5.063078E+02 -1.805740E+03
        83   7  9.307746E+04  3.572894E+04 -1.262856E+03  6.127960E+04 -7.222041E+02 -1.510140E+03
        83   8  8.636296E+04  3.237983E+04 -2.352660E+03  5.843477E+04 -3.801392E+02 -1.941766E+03
        83   9  8.110370E+04  2.770797E+04 -3.425159E+03  5.514177E+04 -1.145816E+02 -2.271378E+03
        83  10  1.086021E+05  4.666196E+04  1.935889E+03  6.924196E+04  1.323537E-09  1.671424E-09
        83  11  1.139161E+05  5.146831E+04  3.395885E+03  7.239840E+04 -5.969602E-09 -2.999690E-09
        83  12  1.207809E+05  5.504737E+04  5.255691E+03  7.510658E+04 -5.652427E-09 -3.958057E-09
        83  13  1.008397E+05  4.119537E+04  3.364825E+02  6.526071E+04 -1.015865E-09 -6.686137E-10
        83  14  1.001393E+05  4.192395E+04  5.215834E+02  6.541645E+04  1.024328E-10 -1.038426E-10
        83  15  1.009421E+05  4.137755E+04  9.152676E+02  6.512398E+04  7.409147E-09  5.142154E-09
        83  16  9.307746E+04  3.572894E+04 -1.262861E+03  6.127960E+04 -3.383182E-09 -3.000693E-09
        83  17  8.636295E+04  3.237983E+04 -2.352668E+03  5.843477E+04  5.957753E-09  2.786784E-09
        83  18  8.110370E+04  2.770796E+04 -3.425169E+03  5.514176E+04  2.048868E-08  1.424641E-08
        83  19  1.086021E+05  4.666196E+04  1.935892E+03  6.924196E+04 -1.401240E+03 -8.231415E+01
        83  20  1.139161E+05  5.146831E+04  3.395889E+03  7.239840E+04 -1.302485E+03  6.798953E+02
        83  21  1.207809E+05  5.504737E+04  5.255697E+03  7.510658E+04 -1.127224E+03  1.340082E+03
        83  22  1.008397E+05  4.119537E+04  3.364837E+02  6.526071E+04 -3.394966E+02  7.139286E+02
        83  23  1.001393E+05  4.192395E+04  5.215870E+02  6.541645E+04 -4.611552E+02  1.310844E+03
        83  24  1.009421E+05  4.137755E+04  9.152742E+02  6.512398E+04 -5.063078E+02  1.805740E+03
        83  25  9.307746E+04  3.572894E+04 -1.262856E+03  6.127960E+04  7.222041E+02  1.510140E+03
        83  26  8.636296E+04  3.237983E+04 -2.352660E+03  5.843477E+04  3.801392E+02  1.941766E+03
        83  27  8.110370E+04  2.770797E+04 -3.425159E+03  5.514177E+04  1.145816E+02  2.271378E+03
        84   1  1.245193E+05  5.795281E+04  6.503800E+03  7.707196E+04  1.135435E+03 -1.642171E+03
        84   2  1.311751E+05  6.200540E+04  9.766339E+03  7.915986E+04 -1.721463E+03 -3.557192E+03
        84   3  1.406243E+05  6.654929E+04  1.583199E+04  8.025828E+04 -5.218695E+03 -4.618655E+03
        84   4  1.010342E+05  4.149304E+04  1.209259E+03  6.514491E+04  5.279236E+02 -2.097783E+03
        84   5  1.005074E+05  4.263887E+04  2.208522E+03  6.474585E+04 -4.846518E+02 -2.629658E+03
        84   6  1.023739E+05  4.387579E+04  4.410283E+03  6.335722E+04 -2.137462E+03 -2.307889E+03
        84   7  7.754921E+04  2.503322E+04 -4.085495E+03  5.321812E+04 -7.957064E+01 -2.553382E+03
        84   8  6.984083E+04  2.327277E+04 -5.349356E+03  5.033262E+04  7.520769E+02 -1.702177E+03
        84   9  6.412594E+04  2.120331E+04 -7.011247E+03  4.645762E+04  9.434402E+02  2.671682E+00
        84  10  1.245193E+05  5.795281E+04  6.503792E+03  7.707196E+04  2.026881E-08  1.414990E-08
        84  11  1.311751E+05  6.200538E+04  9.766310E+03  7.915985E+04  6.085442E-09  2.633737E-09
        84  12  1.406243E+05  6.654926E+04  1.583189E+04  8.025826E+04 -3.318922E-09 -3.205367E-09
        84  13  1.010342E+05  4.149303E+04  1.209250E+03  6.514491E+04  7.415758E-09  5.131123E-09
        84  14  1.005074E+05  4.263886E+04  2.208508E+03  6.474585E+04  3.680800E-12 -1.288290E-10
        84  15  1.023739E+05  4.387578E+04  4.410265E+03  6.335722E+04 -9.157413E-10 -7.298233E-10
        84  16  7.754921E+04  2.503321E+04 -4.085507E+03  5.321812E+04 -5.442739E-09 -3.873255E-09
        84  17  6.984083E+04  2.327277E+04 -5.349363E+03  5.033262E+04 -5.889253E-09 -2.936413E-09
        84  18  6.412594E+04  2.120331E+04 -7.011249E+03  4.645762E+04  1.478156E-09  1.767775E-09
        84  19  1.245193E+05  5.795281E+04  6.503800E+03  7.707196E+04 -1.135435E+03  1.642171E+03
        84  20  1.311751E+05  6.200540E+04  9.766339E+03  7.915986E+04  1.721463E+03  3.557192E+03
        84  21  1.406243E+05  6.654929E+04  1.583199E+04  8.025828E+04  5.218695E+03  4.618655E+03
        84  22  1.010342E+05  4.149304E+04  1.209259E+03  6.514491E+04 -5.279236E+02  2.097783E+03
        84  23  1.005074E+05  4.263887E+04  2.208522E+03  6.474585E+04  4.846518E+02  2.629658E+03
        84  24  1.023739E+05  4.387579E+04  4.410283E+03  6.335722E+04  2.137462E+03  2.307889E+03
        84  25  7.754921E+04  2.503322E+04 -4.085495E+03  5.321812E+04  7.957064E+01  2.553382E+03
        84  26  6.984083E+04  2.327277E+04 -5.349356E+03  5.033262E+04 -7.520769E+02  1.702177E+03
        84  27  6.412594E+04  2.120331E+04 -7.011247E+03  4.645762E+04 -9.434402E+02 -2.671682E+00
        85   1  1.424738E+04 -1.301973E+04 -1.397770E+04 -8.697308E+03 -9.725454E+03  1.362415E-01
        85   2  1.522267E+04 -4.161493E+03 -7.060546E+03 -4.406595E+03 -6.116484E+03  4.341296E-02
        85   3  1.424722E+04 -1.226803E+03 -3.973784E+03 -1.158680E+02 -2.507512E+03  4.679741E-04
        85   4  1.424730E+04 -1.301987E+04 -1.397772E+04 -1.430372E-10 -9.725454E+03  2.508263E-11
        85   5  1.522265E+04 -4.161529E+03 -7.060551E+03  7.546151E-11 -6.116484E+03  2.644959E-11
        85   6  1.424722E+04 -1.226803E+03 -3.973784E+03 -1.340970E-10 -2.507512E+03  1.098401E-11
        85   7  1.424738E+04 -1.301973E+04 -1.397770E+04  8.697308E+03 -9.725454E+03 -1.362415E-01
        85   8  1.522267E+04 -4.161493E+03 -7.060546E+03  4.406595E+03 -6.116484E+03 -4.341296E-02
        85   9  1.424722E+04 -1.226803E+03 -3.973784E+03  1.158680E+02 -2.507512E+03 -4.679740E-04
        85  10  1.424728E+04 -1.301975E+04 -1.397788E+04 -8.697308E+03 -5.962585E-12  2.705214E-11
        85  11  1.522263E+04 -4.161503E+03 -7.060616E+03 -4.406595E+03  7.713120E-12  4.590991E-11
        85  12  1.424721E+04 -1.226805E+03 -3.973796E+03 -1.158680E+02  4.465407E-11  1.497395E-11
        85  13  1.424720E+04 -1.301989E+04 -1.397790E+04 -8.151024E-11 -1.230484E-10  9.673375E-12
        85  14  1.522261E+04 -4.161539E+03 -7.060621E+03 -2.629892E-12  1.157334E-11  2.818247E-11
        85  15  1.424721E+04 -1.226805E+03 -3.973796E+03 -2.471624E-11 -2.287445E-11  2.280189E-11
        85  16  1.424728E+04 -1.301975E+04 -1.397788E+04  8.697308E+03  2.331709E-11  1.119936E-11
        85  17  1.522263E+04 -4.161503E+03 -7.060616E+03  4.406595E+03 -7.186800E-11  1.207869E-11
        85  18  1.424721E+04 -1.226805E+03 -3.973796E+03  1.158680E+02  2.765145E-11  3.167098E-11
        85  19  1.424738E+04 -1.301973E+04 -1.397770E+04 -8.697308E+03  9.725454E+03 -1.362415E-01
        85  20  1.522267E+04 -4.161493E+03 -7.060546E+03 -4.406595E+03  6.116484E+03 -4.341296E-02
        85  21  1.424722E+04 -1.226803E+03 -3.973784E+03 -1.158680E+02  2.507512E+03 -4.679740E-04
        85  22  1.424730E+04 -1.301987E+04 -1.397772E+04 -1.882609E-10  9.725454E+03 -5.847882E-12
        85  23  1.522265E+04 -4.161529E+03 -7.060551E+03  1.038588E-10  6.116484E+03  2.970589E-11
        85  24  1.424722E+04 -1.226803E+03 -3.973784E+03 -4.022941E-11  2.507512E+03  3.730614E-11
        85  25  1.424738E+04 -1.301973E+04 -1.397770E+04  8.697308E+03  9.725454E+03  1.362415E-01
        85  26  1.522267E+04 -4.161493E+03 -7.060546E+03  4.406595E+03  6.116484E+03  4.341296E-02
        85  27  1.424722E+04 -1.226803E+03 -3.973784E+03  1.158680E+02  2.507512E+03  4.679741E-04
        86   1  1.462173E+04 -9.505470E+02 -3.096952E+03 -5.458573E+02 -1.977079E+03  1.738274E-03
        86   2  1.475446E+04 -2.643485E+02 -2.011419E+03 -2.507436E+02 -9.726042E+02  3.928086E-04
        86   3  1.462172E+04 -1.168562E+02 -1.714490E+03  4.436568E+01  3.185647E+01  2.276476E-06
        86   4  1.462173E+04 -9.505475E+02 -3.096952E+03 -1.440231E-10 -1.977079E+03  1.556304E-11
        86   5  1.475446E+04 -2.643486E+02 -2.011419E+03  2.629441E-12 -9.726042E+02  3.241786E-11
        86   6  1.462172E+04 -1.168562E+02 -1.714490E+03  4.430521E-11  3.185647E+01 -2.991272E-12
        86   7  1.462173E+04 -9.505470E+02 -3.096952E+03  5.458573E+02 -1.977079E+03 -1.738274E-03
        86   8  1.475446E+04 -2.643485E+02 -2.011419E+03  2.507436E+02 -9.726042E+02 -3.928085E-04
        86   9  1.462172E+04 -1.168562E+02 -1.714490E+03 -4.436568E+01  3.185647E+01 -2.276481E-06
        86  10  1.462173E+04 -9.505480E+02 -3.096959E+03 -5.458573E+02 -6.100684E-11 -5.071081E-12
        86  11  1.475446E+04 -2.643487E+02 -2.011421E+03 -2.507436E+02 -5.330719E-11  1.931519E-12
        86  12  1.462172E+04 -1.168562E+02 -1.714490E+03  4.436568E+01  1.491286E-11  3.009015E-12
        86  13  1.462173E+04 -9.505486E+02 -3.096959E+03 -7.835507E-11 -5.258720E-13  1.694882E-11
        86  14  1.475446E+04 -2.643488E+02 -2.011421E+03  1.381723E-10 -1.064635E-10  7.906301E-12
        86  15  1.462172E+04 -1.168562E+02 -1.714490E+03  5.193014E-11 -4.429197E-11 -1.707908E-11
        86  16  1.462173E+04 -9.505480E+02 -3.096959E+03  5.458573E+02  3.985307E-11  3.779152E-11
        86  17  1.475446E+04 -2.643487E+02 -2.011421E+03  2.507436E+02  3.668552E-11  1.526372E-11
        86  18  1.462172E+04 -1.168562E+02 -1.714490E+03 -4.436568E+01 -4.726626E-11 -3.729985E-11
        86  19  1.462173E+04 -9.505470E+02 -3.096952E+03 -5.458573E+02  1.977079E+03 -1.738274E-03
        86  20  1.475446E+04 -2.643485E+02 -2.011419E+03 -2.507436E+02  9.726042E+02 -3.928086E-04
        86  21  1.462172E+04 -1.168562E+02 -1.714490E+03  4.436568E+01 -3.185647E+01 -2.276470E-06
        86  22  1.462173E+04 -9.505475E+02 -3.096952E+03 -1.202974E-11  1.977079E+03  1.820800E-11
        86  23  1.475446E+04 -2.643486E+02 -2.011419E+03  2.067982E-10  9.726042E+02 -1.687538E-11
        86  24  1.462172E+04 -1.168562E+02 -1.714490E+03  2.221833E-11 -3.185647E+01 -3.067892E-11
        86  25  1.462173E+04 -9.505470E+02 -3.096952E+03  5.458573E+02  1.977079E+03  1.738274E-03
        86  26  1.475446E+04 -2.643485E+02 -2.011419E+03  2.507436E+02  9.726042E+02  3.928086E-04
        86  27  1.462172E+04 -1.168562E+02 -1.714490E+03 -4.436568E+01 -3.185647E+01  2.276409E-06
        87   1  1.460900E+04 -1.211459E+02 -1.778841E+03 -6.636670E+01  3.291889E+02 -3.518929E-05
        87   2  1.477036E+04 -3.439689E+02 -2.366424E+03  3.140074E+02  1.511779E+03  7.646155E-04
        87   3  1.460902E+04 -1.241685E+03 -3.892620E+03  6.943873E+02  2.694385E+03  3.013536E-03
        87   4  1.460900E+04 -1.211459E+02 -1.778841E+03 -8.312058E-11  3.291889E+02 -3.452413E-11
        87   5  1.477036E+04 -3.439691E+02 -2.366424E+03  2.008142E-11  1.511779E+03 -4.156140E-11
        87   6  1.460902E+04 -1.241686E+03 -3.892620E+03 -1.903000E-11  2.694385E+03 -9.243173E-12
        87   7  1.460900E+04 -1.211459E+02 -1.778841E+03  6.636670E+01  3.291889E+02  3.518923E-05
        87   8  1.477036E+04 -3.439689E+02 -2.366424E+03 -3.140074E+02  1.511779E+03 -7.646155E-04
        87   9  1.460902E+04 -1.241685E+03 -3.892620E+03 -6.943873E+02  2.694385E+03 -3.013536E-03
        87  10  1.460900E+04 -1.211459E+02 -1.778842E+03 -6.636670E+01  7.749054E-11  3.574112E-12
        87  11  1.477036E+04 -3.439695E+02 -2.366428E+03  3.140074E+02  1.143119E-11  3.036205E-12
        87  12  1.460901E+04 -1.241687E+03 -3.892634E+03  6.943873E+02 -1.369948E-11  6.618092E-13
        87  13  1.460900E+04 -1.211459E+02 -1.778842E+03  8.072068E-11  5.258721E-13 -2.904808E-11
        87  14  1.477036E+04 -3.439697E+02 -2.366428E+03 -9.242177E-11  3.282291E-30 -2.840897E-11
        87  15  1.460901E+04 -1.241688E+03 -3.892634E+03  3.720530E-11  5.430204E-11 -1.737759E-11
        87  16  1.460900E+04 -1.211459E+02 -1.778842E+03  6.636670E+01  7.311877E-12 -6.039283E-11
        87  17  1.477036E+04 -3.439695E+02 -2.366428E+03 -3.140074E+02  5.288693E-11 -5.922807E-11
        87  18  1.460901E+04 -1.241687E+03 -3.892634E+03 -6.943873E+02  2.498971E-11 -3.548887E-11
        87  19  1.460900E+04 -1.211459E+02 -1.778841E+03 -6.636670E+01 -3.291889E+02  3.518930E-05
        87  20  1.477036E+04 -3.439689E+02 -2.366424E+03  3.140074E+02 -1.511779E+03 -7.646154E-04
        87  21  1.460902E+04 -1.241685E+03 -3.892620E+03  6.943873E+02 -2.694385E+03 -3.013536E-03
        87  22  1.460900E+04 -1.211459E+02 -1.778841E+03 -1.262748E-10 -3.291889E+02 -2.348235E-11
        87  23  1.477036E+04 -3.439691E+02 -2.366424E+03 -2.990986E-12 -1.511779E+03 -1.530111E-11
        87  24  1.460902E+04 -1.241686E+03 -3.892620E+03  1.492173E-11 -2.694385E+03 -2.529639E-11
        87  25  1.460900E+04 -1.211459E+02 -1.778841E+03  6.636670E+01 -3.291889E+02 -3.518935E-05
        87  26  1.477036E+04 -3.439689E+02 -2.366424E+03 -3.140074E+02 -1.511779E+03  7.646154E-04
        87  27  1.460902E+04 -1.241685E+03 -3.892620E+03 -6.943873E+02 -2.694385E+03  3.013536E-03
        88   1  1.411706E+04 -1.600506E+03 -5.072065E+03  1.393108E+02  3.363464E+03  7.547218E-04
        88   2  1.538542E+04 -5.421131E+03 -9.145670E+03  5.728065E+03  8.039050E+03  7.416977E-02
        88   3  1.411730E+04 -1.695287E+04 -1.819092E+04  1.131680E+04  1.271463E+04  2.317618E-01
        88   4  1.411706E+04 -1.600506E+03 -5.072065E+03  1.878673E-10  3.363464E+03  9.811279E-12
        88   5  1.538539E+04 -5.421193E+03 -9.145678E+03  2.891631E-10  8.039050E+03  1.276912E-11
        88   6  1.411716E+04 -1.695311E+04 -1.819096E+04 -5.914661E-12  1.271463E+04 -1.695736E-11
        88   7  1.411706E+04 -1.600506E+03 -5.072065E+03 -1.393108E+02  3.363464E+03 -7.547218E-04
        88   8  1.538542E+04 -5.421131E+03 -9.145670E+03 -5.728065E+03  8.039050E+03 -7.416977E-02
        88   9  1.411730E+04 -1.695287E+04 -1.819092E+04 -1.131680E+04  1.271463E+04 -2.317618E-01
        88  10  1.411704E+04 -1.600509E+03 -5.072087E+03  1.393108E+02  7.308306E-11 -1.595632E-11
        88  11  1.538535E+04 -5.421149E+03 -9.145791E+03  5.728065E+03  1.055056E-12 -4.426889E-11
        88  12  1.411712E+04 -1.695291E+04 -1.819123E+04  1.131680E+04 -1.546992E-11 -1.719674E-11
        88  13  1.411704E+04 -1.600509E+03 -5.072087E+03  1.937833E-10 -8.662448E-11 -1.058763E-11
        88  14  1.538532E+04 -5.421210E+03 -9.145800E+03  2.265189E-10 -8.165301E-11 -6.150490E-12
        88  15  1.411699E+04 -1.695315E+04 -1.819126E+04  2.917257E-10 -8.563300E-12 -1.208448E-12
        88  16  1.411704E+04 -1.600509E+03 -5.072087E+03 -1.393108E+02 -8.775930E-12 -5.569634E-12
        88  17  1.538535E+04 -5.421149E+03 -9.145791E+03 -5.728065E+03  8.969646E-11  1.468714E-11
        88  18  1.411712E+04 -1.695291E+04 -1.819123E+04 -1.131680E+04 -8.459216E-12  1.855486E-11
        88  19  1.411706E+04 -1.600506E+03 -5.072065E+03  1.393108E+02 -3.363464E+03 -7.547219E-04
        88  20  1.538542E+04 -5.421131E+03 -9.145670E+03  5.728065E+03 -8.039050E+03 -7.416977E-02
        88  21  1.411730E+04 -1.695287E+04 -1.819092E+04  1.131680E+04 -1.271463E+04 -2.317618E-01
        88  22  1.411706E+04 -1.600506E+03 -5.072065E+03  1.975960E-10 -3.363464E+03 -3.091753E-11
        88  23  1.538539E+04 -5.421193E+03 -9.145678E+03  3.990042E-10 -8.039050E+03 -2.516409E-11
        88  24  1.411716E+04 -1.695311E+04 -1.819096E+04  2.774100E-11 -1.271463E+04  3.768177E-12
        88  25  1.411706E+04 -1.600506E+03 -5.072065E+03 -1.393108E+02 -3.363464E+03  7.547218E-04
        88  26  1.538542E+04 -5.421131E+03 -9.145670E+03 -5.728065E+03 -8.039050E+03  7.416977E-02
        88  27  1.411730E+04 -1.695287E+04 -1.819092E+04 -1.131680E+04 -1.271463E+04  2.317618E-01
        89   1 -2.514151E+04 -3.121273E+04 -2.519905E+04  2.674180E+04 -6.268365E+02 -1.102714E+04
        89   2 -1.418949E+04 -1.405995E+04 -1.450506E+04  2.218965E+04 -1.877361E+03 -5.206149E+03
        89   3 -8.158520E+03  1.105121E+03 -8.831128E+03  2.040692E+04 -1.731104E+03  6.150986E+02
        89   4 -9.562792E+03  3.180851E+04 -1.032455E+04  2.031516E+04 -6.265690E+02 -6.817348E+03
        89   5 -3.067629E+03  3.254083E+04 -5.494679E+03  1.893025E+04 -1.877273E+03 -4.013109E+03
        89   6 -9.696057E+02  3.180888E+04 -3.589717E+03  2.031489E+04 -1.731185E+03 -1.208819E+03
        89   7  6.015811E+03  9.483352E+04  4.549771E+03  1.388786E+04 -6.263887E+02 -2.607134E+03
        89   8  8.054146E+03  7.914372E+04  3.515616E+03  1.567060E+04 -1.877198E+03 -2.819981E+03
        89   9  6.219260E+03  6.251357E+04  1.651677E+03  2.022285E+04 -1.731266E+03 -3.032824E+03
        89  10 -2.514155E+04 -3.121286E+04 -2.519928E+04  2.674180E+04  4.042320E-11 -3.075064E-11
        89  11 -1.418950E+04 -1.405998E+04 -1.450512E+04  2.218964E+04  3.167211E-11  2.187861E-11
        89  12 -8.158523E+03  1.105120E+03 -8.831135E+03  2.040692E+04  3.154849E-11  6.198901E-11
        89  13 -9.562805E+03  3.180846E+04 -1.032464E+04  2.031516E+04  1.249460E-12  2.598732E-12
        89  14 -3.067637E+03  3.254081E+04 -5.494715E+03  1.893024E+04 -8.014005E-12 -1.268386E-11
        89  15 -9.696093E+02  3.180888E+04 -3.589725E+03  2.031488E+04 -1.989477E-11  3.236755E-11
        89  16  6.015809E+03  9.483352E+04  4.549758E+03  1.388786E+04 -1.985642E-11  2.673763E-11
        89  17  8.054141E+03  7.914371E+04  3.515595E+03  1.567060E+04  7.020193E-11  7.287254E-12
        89  18  6.219255E+03  6.251356E+04  1.651654E+03  2.022285E+04 -2.528095E-11 -5.024710E-11
        89  19 -2.514151E+04 -3.121273E+04 -2.519905E+04  2.674180E+04  6.268365E+02  1.102714E+04
        89  20 -1.418949E+04 -1.405995E+04 -1.450506E+04  2.218965E+04  1.877361E+03  5.206149E+03
        89  21 -8.158520E+03  1.105121E+03 -8.831128E+03  2.040692E+04  1.731104E+03 -6.150986E+02
        89  22 -9.562792E+03  3.180851E+04 -1.032455E+04  2.031516E+04  6.265690E+02  6.817348E+03
        89  23 -3.067629E+03  3.254083E+04 -5.494679E+03  1.893025E+04  1.877273E+03  4.013109E+03
        89  24 -9.696057E+02  3.180888E+04 -3.589717E+03  2.031489E+04  1.731185E+03  1.208819E+03
        89  25  6.015811E+03  9.483352E+04  4.549771E+03  1.388786E+04  6.263887E+02  2.607134E+03
        89  26  8.054146E+03  7.914372E+04  3.515616E+03  1.567060E+04  1.877198E+03  2.819981E+03
        89  27  6.219260E+03  6.251357E+04  1.651677E+03  2.022285E+04  1.731266E+03  3.032824E+03
        90   1 -5.583221E+03  1.151707E+04 -6.666935E+03  2.079993E+04 -1.178774E+03  1.157891E+03
        90   2 -1.555409E+03  2.790273E+04 -3.818681E+03  1.876547E+04 -3.141276E+02  2.792330E+03
        90   3  1.442529E+03  4.381832E+04 -2.291976E+03  1.959188E+04  5.725169E+02  4.426806E+03
        90   4 -7.862896E+02  3.203168E+04 -3.196137E+03  2.033519E+04 -1.178865E+03 -6.858575E+02
        90   5 -5.538115E+02  3.226276E+04 -3.170657E+03  1.890475E+04 -3.142218E+02  9.010568E+02
        90   6 -1.342947E+03  3.203175E+04 -4.433727E+03  2.033521E+04  5.724223E+02  2.487968E+03
        90   7  4.010622E+03  5.254672E+04  2.746597E+02  1.987042E+04 -1.178953E+03 -2.529665E+03
        90   8  4.477867E+02  3.662281E+04 -2.522621E+03  1.904404E+04 -3.143168E+02 -9.902293E+02
        90   9 -4.128426E+03  2.024532E+04 -6.575469E+03  2.107852E+04  5.723230E+02  5.491657E+02
        90  10 -5.583223E+03  1.151707E+04 -6.666940E+03  2.079993E+04  6.952082E-11 -1.925147E-10
        90  11 -1.555411E+03  2.790272E+04 -3.818696E+03  1.876547E+04  6.233263E-12 -4.221486E-11
        90  12  1.442523E+03  4.381830E+04 -2.292014E+03  1.959188E+04  4.811639E-11  9.600439E-11
        90  13 -7.862913E+02  3.203168E+04 -3.196141E+03  2.033519E+04  7.005271E-11  2.099928E-11
        90  14 -5.538118E+02  3.226276E+04 -3.170659E+03  1.890475E+04 -5.090970E-11 -2.559640E-11
        90  15 -1.342949E+03  3.203174E+04 -4.433740E+03  2.033521E+04  7.555264E-11  4.556464E-11
        90  16  4.010619E+03  5.254671E+04  2.746451E+02  1.987042E+04  1.817725E-11  1.898011E-10
        90  17  4.477863E+02  3.662281E+04 -2.522623E+03  1.904404E+04 -2.405295E-11  9.170390E-11
        90  18 -4.128426E+03  2.024532E+04 -6.575471E+03  2.107852E+04  4.984489E-11 -8.228412E-11
        90  19 -5.583221E+03  1.151707E+04 -6.666935E+03  2.079993E+04  1.178774E+03 -1.157891E+03
        90  20 -1.555409E+03  2.790273E+04 -3.818681E+03  1.876547E+04  3.141276E+02 -2.792330E+03
        90  21  1.442529E+03  4.381832E+04 -2.291976E+03  1.959188E+04 -5.725169E+02 -4.426806E+03
        90  22 -7.862896E+02  3.203168E+04 -3.196137E+03  2.033519E+04  1.178865E+03  6.858575E+02
        90  23 -5.538115E+02  3.226276E+04 -3.170657E+03  1.890475E+04  3.142218E+02 -9.010568E+02
        90  24 -1.342947E+03  3.203175E+04 -4.433727E+03  2.033521E+04 -5.724223E+02 -2.487968E+03
        90  25  4.010622E+03  5.254672E+04  2.746597E+02  1.987042E+04  1.178953E+03  2.529665E+03
        90  26  4.477867E+02  3.662281E+04 -2.522621E+03  1.904404E+04  3.143168E+02  9.902293E+02
        90  27 -4.128426E+03  2.024532E+04 -6.575469E+03  2.107852E+04 -5.723230E+02 -5.491657E+02
        91   1  3.464374E+03  5.351054E+04 -1.675019E+03  2.017953E+04  1.144962E+03  5.160717E+03
        91   2  3.423071E+03  7.076845E+04 -2.178392E+03  1.296215E+04  1.428290E+03  7.469285E+03
        91   3 -4.210246E+03  8.582809E+04 -6.082620E+03  8.528927E+03  4.985682E+02  9.777890E+03
        91   4 -1.704851E+03  3.154472E+04 -5.556508E+03  2.031815E+04  1.144870E+03  3.238466E+03
        91   5 -5.648505E+03  3.287136E+04 -9.643907E+03  1.892632E+04  1.428399E+03  8.167135E+03
        91   6 -1.763938E+04  3.154455E+04 -1.895169E+04  2.031869E+04  4.988891E+02  1.309573E+04
        91   7 -6.874101E+03  9.579372E+03 -9.438001E+03  2.045677E+04  1.144776E+03  1.316281E+03
        91   8 -1.472004E+04 -5.024277E+03 -1.710947E+04  2.489012E+04  1.428522E+03  8.864943E+03
        91   9 -3.106819E+04 -2.273595E+04 -3.182086E+04  3.210742E+04  4.993359E+02  1.641327E+04
        91  10  3.464366E+03  5.351051E+04 -1.675071E+03  2.017952E+04  8.895454E-11 -1.218666E-10
        91  11  3.423054E+03  7.076839E+04 -2.178501E+03  1.296214E+04 -8.991059E-11  1.718328E-11
        91  12 -4.210272E+03  8.582799E+04 -6.082800E+03  8.528923E+03 -6.544128E-11  1.224144E-10
        91  13 -1.704855E+03  3.154471E+04 -5.556530E+03  2.031815E+04  4.521052E-11  2.131992E-11
        91  14 -5.648525E+03  3.287129E+04 -9.644037E+03  1.892631E+04  1.769485E-11 -1.318712E-11
        91  15 -1.763942E+04  3.154437E+04 -1.895202E+04  2.031869E+04  3.048675E-14  1.421519E-11
        91  16 -6.874103E+03  9.579370E+03 -9.438007E+03  2.045676E+04 -6.961750E-12  1.128655E-10
        91  17 -1.472006E+04 -5.024362E+03 -1.710962E+04  2.489011E+04 -4.751325E-11  2.067687E-11
        91  18 -3.106827E+04 -2.273624E+04 -3.182136E+04  3.210741E+04  9.017799E-12 -1.135880E-10
        91  19  3.464374E+03  5.351054E+04 -1.675019E+03  2.017953E+04 -1.144962E+03 -5.160717E+03
        91  20  3.423071E+03  7.076845E+04 -2.178392E+03  1.296215E+04 -1.428290E+03 -7.469285E+03
        91  21 -4.210246E+03  8.582809E+04 -6.082620E+03  8.528927E+03 -4.985682E+02 -9.777890E+03
        91  22 -1.704851E+03  3.154472E+04 -5.556508E+03  2.031815E+04 -1.144870E+03 -3.238466E+03
        91  23 -5.648505E+03  3.287136E+04 -9.643907E+03  1.892632E+04 -1.428399E+03 -8.167135E+03
        91  24 -1.763938E+04  3.154455E+04 -1.895169E+04  2.031869E+04 -4.988891E+02 -1.309573E+04
        91  25 -6.874101E+03  9.579372E+03 -9.438001E+03  2.045677E+04 -1.144776E+03 -1.316281E+03
        91  26 -1.472004E+04 -5.024277E+03 -1.710947E+04  2.489012E+04 -1.428522E+03 -8.864943E+03
        91  27 -3.106819E+04 -2.273595E+04 -3.182086E+04  3.210742E+04 -4.993359E+02 -1.641327E+04
        92   1  1.055088E+05  1.017371E+05  2.308584E+04  8.362876E+04  9.661094E+03  6.649647E+03
        92   2  9.827493E+04  8.594227E+04  1.282315E+04  8.161469E+04  5.976891E+03  2.677085E+03
        92   3  9.250948E+04  7.626076E+04  7.408021E+03  7.848710E+04  1.667315E+03 -4.615522E+02
        92   4  7.863659E+04  7.030486E+04  1.207103E+04  6.463025E+04  7.088287E+03  4.719784E+03
        92   5  7.626344E+04  6.418247E+04  6.020503E+03  6.763318E+04  5.205709E+03  2.098607E+03
        92   6  7.496800E+04  6.378272E+04  3.254025E+03  6.952253E+04  2.697702E+03  3.112930E+02
        92   7  5.176470E+04  3.887339E+04  1.055924E+03  4.563254E+04  4.515576E+03  2.790091E+03
        92   8  5.425208E+04  4.242289E+04 -7.823668E+02  5.365205E+04  4.434548E+03  1.520160E+03
        92   9  5.742653E+04  5.130462E+04 -9.001040E+02  6.055809E+04  3.728069E+03  1.084123E+03
        92  10  1.055087E+05  1.017370E+05  2.308558E+04  8.362871E+04 -1.809972E-10 -4.998355E-11
        92  11  9.827489E+04  8.594225E+04  1.282307E+04  8.161468E+04  3.980376E-11  1.779349E-10
        92  12  9.250948E+04  7.626076E+04  7.408015E+03  7.848710E+04  1.190907E-10  1.515036E-10
        92  13  7.863653E+04  7.030483E+04  1.207090E+04  6.463022E+04  8.064906E-11  6.327273E-11
        92  14  7.626341E+04  6.418246E+04  6.020444E+03  6.763317E+04 -1.756996E-11  1.835415E-10
        92  15  7.496799E+04  6.378272E+04  3.254011E+03  6.952253E+04 -1.413098E-10  3.256331E-11
        92  16  5.176468E+04  3.887338E+04  1.055871E+03  4.563253E+04  1.537161E-10  1.383433E-10
        92  17  5.425206E+04  4.242288E+04 -7.824081E+02  5.365205E+04 -2.949474E-11  7.920972E-11
        92  18  5.742651E+04  5.130462E+04 -9.001323E+02  6.055809E+04 -9.695902E-11 -1.005708E-10
        92  19  1.055088E+05  1.017371E+05  2.308584E+04  8.362876E+04 -9.661094E+03 -6.649647E+03
        92  20  9.827493E+04  8.594227E+04  1.282315E+04  8.161469E+04 -5.976891E+03 -2.677085E+03
        92  21  9.250948E+04  7.626076E+04  7.408021E+03  7.848710E+04 -1.667315E+03  4.615522E+02
        92  22  7.863659E+04  7.030486E+04  1.207103E+04  6.463025E+04 -7.088287E+03 -4.719784E+03
        92  23  7.626344E+04  6.418247E+04  6.020503E+03  6.763318E+04 -5.205709E+03 -2.098607E+03
        92  24  7.496800E+04  6.378272E+04  3.254025E+03  6.952253E+04 -2.697702E+03 -3.112930E+02
        92  25  5.176470E+04  3.887339E+04  1.055924E+03  4.563254E+04 -4.515576E+03 -2.790091E+03
        92  26  5.425208E+04  4.242289E+04 -7.823668E+02  5.365205E+04 -4.434548E+03 -1.520160E+03
        92  27  5.742653E+04  5.130462E+04 -9.001040E+02  6.055809E+04 -3.728069E+03 -1.084123E+03
        93   1  8.672776E+04  7.274971E+04  5.361659E+03  7.595150E+04  1.085270E+03 -4.129657E+02
        93   2  7.951920E+04  6.541538E+04  2.350339E+03  7.171182E+04 -4.253605E+01 -4.272300E+02
        93   3  7.071713E+04  6.037837E+04  4.888262E+01  6.791867E+04 -1.244146E+03 -3.430215E+02
        93   4  7.465442E+04  6.352754E+04  2.428252E+03  6.948182E+04  2.128740E+03  3.696976E+02
        93   5  7.533466E+04  6.215361E+04  1.288216E+03  6.944511E+04  1.213614E+03  5.149520E+02
        93   6  7.437502E+04  6.303066E+04  6.734018E+02  6.985476E+04  2.246597E+02  7.586641E+02
        93   7  6.258154E+04  5.430570E+04 -5.050553E+02  6.301245E+04  3.172158E+03  1.152320E+03
        93   8  7.115020E+04  5.889190E+04  2.261193E+02  6.717845E+04  2.469737E+03  1.457113E+03
        93   9  7.803293E+04  6.568296E+04  1.297933E+03  7.179087E+04  1.693475E+03  1.860358E+03
        93  10  8.672776E+04  7.274971E+04  5.361656E+03  7.595150E+04  2.205777E-11  8.202340E-11
        93  11  7.951920E+04  6.541538E+04  2.350339E+03  7.171182E+04  1.099609E-11  4.488067E-11
        93  12  7.071713E+04  6.037837E+04  4.887949E+01  6.791867E+04  4.724492E-11 -8.015940E-11
        93  13  7.465441E+04  6.352754E+04  2.428243E+03  6.948182E+04 -8.912190E-11 -3.640985E-11
        93  14  7.533466E+04  6.215361E+04  1.288213E+03  6.944511E+04 -9.753306E-12 -1.081439E-10
        93  15  7.437502E+04  6.303066E+04  6.734006E+02  6.985476E+04 -2.275645E-11 -4.875927E-11
        93  16  6.258152E+04  5.430569E+04 -5.050768E+02  6.301245E+04 -2.085775E-11  2.038538E-11
        93  17  7.115019E+04  5.889189E+04  2.261039E+02  6.717845E+04  4.535757E-11  7.595455E-11
        93  18  7.803293E+04  6.568295E+04  1.297921E+03  7.179087E+04  8.032493E-12  1.646732E-12
        93  19  8.672776E+04  7.274971E+04  5.361659E+03  7.595150E+04 -1.085270E+03  4.129657E+02
        93  20  7.951920E+04  6.541538E+04  2.350339E+03  7.171182E+04  4.253605E+01  4.272300E+02
        93  21  7.071713E+04  6.037837E+04  4.888262E+01  6.791867E+04  1.244146E+03  3.430215E+02
        93  22  7.465442E+04  6.352754E+04  2.428252E+03  6.948182E+04 -2.128740E+03 -3.696976E+02
        93  23  7.533466E+04  6.215361E+04  1.288216E+03  6.944511E+04 -1.213614E+03 -5.149520E+02
        93  24  7.437502E+04  6.303066E+04  6.734018E+02  6.985476E+04 -2.246597E+02 -7.586641E+02
        93  25  6.258154E+04  5.430570E+04 -5.050553E+02  6.301245E+04 -3.172158E+03 -1.152320E+03
        93  26  7.115020E+04  5.889190E+04  2.261193E+02  6.717845E+04 -2.469737E+03 -1.457113E+03
        93  27  7.803293E+04  6.568296E+04  1.297933E+03  7.179087E+04 -1.693475E+03 -1.860358E+03
        94   1  6.558304E+04  5.683951E+04 -1.207823E+03  6.532512E+04 -1.622708E+03 -1.136297E+00
        94   2  5.843338E+04  5.017541E+04 -3.146483E+03  6.091465E+04 -2.159792E+03  6.503594E+02
        94   3  4.937203E+04  4.543933E+04 -5.057696E+03  5.706314E+04 -2.688288E+03  1.290422E+03
        94   4  7.434401E+04  6.301036E+04  4.649395E+02  6.984196E+04 -1.526912E+02  1.101458E+03
        94   5  7.528476E+04  6.202153E+04  1.404571E+02  6.957906E+04 -7.144962E+02  1.734402E+03
        94   6  7.431925E+04  6.296624E+04 -1.350478E+02  6.987516E+04 -1.267707E+03  2.355907E+03
        94   7  8.310528E+04  6.918140E+04  2.137783E+03  7.435898E+04  1.317386E+03  2.204098E+03
        94   8  9.213648E+04  7.386785E+04  3.427403E+03  7.824375E+04  7.308519E+02  2.818484E+03
        94   9  9.926664E+04  8.049313E+04  4.787396E+03  8.268751E+04  1.529188E+02  3.421424E+03
        94  10  6.558303E+04  5.683951E+04 -1.207828E+03  6.532512E+04 -7.473324E-11 -3.993744E-11
        94  11  5.843338E+04  5.017541E+04 -3.146493E+03  6.091465E+04 -7.486953E-11 -6.064596E-11
        94  12  4.937203E+04  4.543933E+04 -5.057713E+03  5.706314E+04  1.506514E-11 -8.772576E-11
        94  13  7.434401E+04  6.301035E+04  4.649372E+02  6.984196E+04  2.891608E-11  4.778908E-11
        94  14  7.528476E+04  6.202153E+04  1.404505E+02  6.957906E+04  7.186714E-12  2.405319E-11
        94  15  7.431924E+04  6.296623E+04 -1.350613E+02  6.987517E+04  5.590108E-11  1.766166E-11
        94  16  8.310528E+04  6.918140E+04  2.137770E+03  7.435898E+04  6.882030E-11 -2.614707E-11
        94  17  9.213648E+04  7.386784E+04  3.427387E+03  7.824375E+04 -6.595617E-11  2.578819E-11
        94  18  9.926663E+04  8.049312E+04  4.787374E+03  8.268751E+04  8.114015E-12  1.629802E-11
        94  19  6.558304E+04  5.683951E+04 -1.207823E+03  6.532512E+04  1.622708E+03  1.136297E+00
        94  20  5.843338E+04  5.017541E+04 -3.146483E+03  6.091465E+04  2.159792E+03 -6.503594E+02
        94  21  4.937203E+04  4.543933E+04 -5.057696E+03  5.706314E+04  2.688288E+03 -1.290422E+03
        94  22  7.434401E+04  6.301036E+04  4.649395E+02  6.984196E+04  1.526912E+02 -1.101458E+03
        94  23  7.528476E+04  6.202153E+04  1.404571E+02  6.957906E+04  7.144962E+02 -1.734402E+03
        94  24  7.431925E+04  6.296624E+04 -1.350478E+02  6.987516E+04  1.267707E+03 -2.355907E+03
        94  25  8.310528E+04  6.918140E+04  2.137783E+03  7.435898E+04 -1.317386E+03 -2.204098E+03
        94  26  9.213648E+04  7.386785E+04  3.427403E+03  7.824375E+04 -7.308519E+02 -2.818484E+03
        94  27  9.926664E+04  8.049313E+04  4.787396E+03  8.268751E+04 -1.529188E+02 -3.421424E+03
        95   1  4.430033E+04  4.184523E+04 -6.273211E+03  5.445586E+04 -2.950676E+03  1.703131E+03
        95   2  3.703369E+04  3.530661E+04 -8.465823E+03  5.017750E+04 -2.682906E+03  2.777690E+03
        95   3  2.762228E+04  3.039397E+04 -1.129902E+04  4.651808E+04 -2.269444E+03  3.657990E+03
        95   4  7.430405E+04  6.294954E+04 -2.821846E+02  6.986472E+04 -1.532924E+03  2.766474E+03
        95   5  7.525251E+04  6.195201E+04 -6.673719E+02  6.965926E+04 -1.684755E+03  3.526292E+03
        95   6  7.414724E+04  6.267144E+04 -1.328904E+03  7.007268E+04 -1.690887E+03  4.091870E+03
        95   7  1.043089E+05  8.405445E+04  5.708836E+03  8.527447E+04 -1.150805E+02  3.829886E+03
        95   8  1.134736E+05  8.859866E+04  7.131198E+03  8.914266E+04 -6.865113E+02  4.274963E+03
        95   9  1.206759E+05  9.495102E+04  8.641495E+03  9.362987E+04 -1.112258E+03  4.525801E+03
        95  10  4.430032E+04  4.184522E+04 -6.273233E+03  5.445587E+04  7.425342E-11 -2.578186E-11
        95  11  3.703368E+04  3.530660E+04 -8.465851E+03  5.017751E+04 -1.113766E-10 -1.006393E-10
        95  12  2.762227E+04  3.039395E+04 -1.129905E+04  4.651809E+04 -2.246719E-10 -1.430576E-10
        95  13  7.430405E+04  6.294953E+04 -2.822034E+02  6.986473E+04  1.955171E-11 -5.385116E-11
        95  14  7.525251E+04  6.195199E+04 -6.674006E+02  6.965927E+04  1.067818E-10 -8.192415E-11
        95  15  7.414723E+04  6.267142E+04 -1.328941E+03  7.007268E+04 -8.354932E-11 -3.693499E-11
        95  16  1.043089E+05  8.405443E+04  5.708808E+03  8.527447E+04 -1.032388E-10 -3.779748E-11
        95  17  1.134736E+05  8.859864E+04  7.131162E+03  8.914267E+04  4.849396E-12  5.604428E-11
        95  18  1.206759E+05  9.495100E+04  8.641454E+03  9.362988E+04  1.832798E-10  1.597486E-10
        95  19  4.430033E+04  4.184523E+04 -6.273211E+03  5.445586E+04  2.950676E+03 -1.703131E+03
        95  20  3.703369E+04  3.530661E+04 -8.465823E+03  5.017750E+04  2.682906E+03 -2.777690E+03
        95  21  2.762228E+04  3.039397E+04 -1.129902E+04  4.651808E+04  2.269444E+03 -3.657990E+03
        95  22  7.430405E+04  6.294954E+04 -2.821846E+02  6.986472E+04  1.532924E+03 -2.766474E+03
        95  23  7.525251E+04  6.195201E+04 -6.673719E+02  6.965926E+04  1.684755E+03 -3.526292E+03
        95  24  7.414724E+04  6.267144E+04 -1.328904E+03  7.007268E+04  1.690887E+03 -4.091870E+03
        95  25  1.043089E+05  8.405445E+04  5.708836E+03  8.527447E+04  1.150805E+02 -3.829886E+03
        95  26  1.134736E+05  8.859866E+04  7.131198E+03  8.914266E+04  6.865113E+02 -4.274963E+03
        95  27  1.206759E+05  9.495102E+04  8.641495E+03  9.362987E+04  1.112258E+03 -4.525801E+03
        96   1  2.250095E+04  2.635646E+04 -1.317833E+04  4.382345E+04 -2.219278E+03  4.027598E+03
        96   2  1.318963E+04  2.096671E+04 -1.841555E+04  4.124239E+04  3.048715E+03  7.119574E+03
        96   3 -2.732699E+02  1.441613E+04 -2.850832E+04  4.010004E+04  9.525309E+03  8.599524E+03
        96   4  7.401187E+04  6.248912E+04 -1.798623E+03  7.003834E+04 -1.665940E+03  4.442549E+03
        96   5  7.468385E+04  6.086747E+04 -3.358019E+03  7.068724E+04  1.204778E+02  4.923344E+03
        96   6  7.195972E+04  5.884061E+04 -6.751015E+03  7.277467E+04  3.115577E+03  3.792322E+03
        96   7  1.255249E+05  9.862269E+04  9.580598E+03  9.625527E+04 -1.112551E+03  4.857538E+03
        96   8  1.361812E+05  1.007693E+05  1.169888E+04  1.001348E+05 -2.808094E+03  2.726894E+03
        96   9  1.441970E+05  1.032662E+05  1.500550E+04  1.054527E+05 -3.295056E+03 -1.015419E+03
        96  10  2.250094E+04  2.635644E+04 -1.317837E+04  4.382346E+04  8.643633E-11  1.111707E-10
        96  11  1.318960E+04  2.096665E+04 -1.841566E+04  4.124237E+04  4.029915E-11  3.563134E-11
        96  12 -2.733872E+02  1.441603E+04 -2.850863E+04  4.009997E+04 -4.427064E-11 -3.135427E-13
        96  13  7.401187E+04  6.248910E+04 -1.798665E+03  7.003835E+04 -4.991689E-11  2.825072E-11
        96  14  7.468385E+04  6.086744E+04 -3.358065E+03  7.068724E+04  1.843968E-10  5.001812E-11
        96  15  7.195971E+04  5.884059E+04 -6.751060E+03  7.277466E+04  5.069951E-11 -1.991919E-11
        96  16  1.255249E+05  9.862266E+04  9.580551E+03  9.625527E+04 -1.170397E-11 -2.270197E-11
        96  17  1.361812E+05  1.007693E+05  1.169885E+04  1.001348E+05  5.178845E-11 -2.012056E-11
        96  18  1.441970E+05  1.032662E+05  1.500548E+04  1.054527E+05 -2.114124E-11 -1.019381E-11
        96  19  2.250095E+04  2.635646E+04 -1.317833E+04  4.382345E+04  2.219278E+03 -4.027598E+03
        96  20  1.318963E+04  2.096671E+04 -1.841555E+04  4.124239E+04 -3.048715E+03 -7.119574E+03
        96  21 -2.732699E+02  1.441613E+04 -2.850832E+04  4.010004E+04 -9.525309E+03 -8.599524E+03
        96  22  7.401187E+04  6.248912E+04 -1.798623E+03  7.003834E+04  1.665940E+03 -4.442549E+03
        96  23  7.468385E+04  6.086747E+04 -3.358019E+03  7.068724E+04 -1.204778E+02 -4.923344E+03
        96  24  7.195972E+04  5.884061E+04 -6.751015E+03  7.277467E+04 -3.115577E+03 -3.792322E+03
        96  25  1.255249E+05  9.862269E+04  9.580598E+03  9.625527E+04  1.112551E+03 -4.857538E+03
        96  26  1.361812E+05  1.007693E+05  1.169888E+04  1.001348E+05  2.808094E+03 -2.726894E+03
        96  27  1.441970E+05  1.032662E+05  1.500550E+04  1.054527E+05  3.295056E+03  1.015419E+03
        97   1 -3.483228E+03  1.036229E+05 -1.130131E+03  3.811171E+03 -9.920130E+02  5.915814E+03
        97   2 -1.127919E+04  1.147355E+05 -3.915594E+03  8.403113E+03 -3.242419E+03  5.120445E+03
        97   3 -1.203152E+04  1.277133E+05 -4.422219E+03  1.499845E+04 -3.697792E+03  4.325038E+03
        97   4  1.694974E+04  1.864826E+05  1.818652E+04  1.512560E+04 -9.917070E+02  1.271730E+04
        97   5  5.426111E+03  1.852148E+05  9.141473E+03  1.412426E+04 -3.242232E+03  8.043763E+03
        97   6  1.618663E+03  1.864846E+05  5.067651E+03  1.512615E+04 -3.697804E+03  3.370172E+03
        97   7  3.738272E+04  2.693491E+05  3.750296E+04  2.644154E+04 -9.911532E+02  1.951969E+04
        97   8  2.213125E+04  2.556990E+05  2.219838E+04  1.984606E+04 -3.241991E+03  1.096741E+04
        97   9  1.526867E+04  2.452594E+05  1.455743E+04  1.525385E+04 -3.697817E+03  2.415220E+03
        97  10 -3.483238E+03  1.036228E+05 -1.130199E+03  3.811176E+03 -4.465012E-11 -9.023924E-11
        97  11 -1.127921E+04  1.147355E+05 -3.915663E+03  8.403127E+03 -5.558782E-11  7.681760E-11
        97  12 -1.203154E+04  1.277132E+05 -4.422280E+03  1.499847E+04  4.212533E-13  2.134811E-10
        97  13  1.694969E+04  1.864825E+05  1.818622E+04  1.512561E+04 -8.268648E-11 -1.735705E-11
        97  14  5.426082E+03  1.852147E+05  9.141332E+03  1.412428E+04 -6.513430E-11  3.132744E-12
        97  15  1.618645E+03  1.864846E+05  5.067604E+03  1.512616E+04 -1.204085E-10 -6.527392E-11
        97  16  3.738262E+04  2.693487E+05  3.750224E+04  2.644156E+04 -8.417128E-11  9.842734E-11
        97  17  2.213121E+04  2.556989E+05  2.219814E+04  1.984609E+04  3.317718E-11 -4.374026E-11
        97  18  1.526865E+04  2.452594E+05  1.455739E+04  1.525386E+04  1.683892E-11 -2.264639E-10
        97  19 -3.483228E+03  1.036229E+05 -1.130131E+03  3.811171E+03  9.920130E+02 -5.915814E+03
        97  20 -1.127919E+04  1.147355E+05 -3.915594E+03  8.403113E+03  3.242419E+03 -5.120445E+03
        97  21 -1.203152E+04  1.277133E+05 -4.422219E+03  1.499845E+04  3.697792E+03 -4.325038E+03
        97  22  1.694974E+04  1.864826E+05  1.818652E+04  1.512560E+04  9.917070E+02 -1.271730E+04
        97  23  5.426111E+03  1.852148E+05  9.141473E+03  1.412426E+04  3.242232E+03 -8.043763E+03
        97  24  1.618663E+03  1.864846E+05  5.067651E+03  1.512615E+04  3.697804E+03 -3.370172E+03
        97  25  3.738272E+04  2.693491E+05  3.750296E+04  2.644154E+04  9.911532E+02 -1.951969E+04
        97  26  2.213125E+04  2.556990E+05  2.219838E+04  1.984606E+04  3.241991E+03 -1.096741E+04
        97  27  1.526867E+04  2.452594E+05  1.455743E+04  1.525385E+04  3.697817E+03 -2.415220E+03
        98   1 -1.056985E+04  1.348586E+05 -4.156815E+03  1.446738E+04 -3.369110E+03  3.686305E+03
        98   2 -8.559378E+03  1.467537E+05 -3.443041E+03  1.385287E+04 -2.815605E+03  2.929170E+03
        98   3 -5.861040E+03  1.589195E+05 -2.064455E+03  1.536923E+04 -2.065050E+03  2.172001E+03
        98   4  1.264982E+03  1.859973E+05  3.887445E+03  1.515450E+04 -3.369131E+03  2.703463E+03
        98   5  4.147775E+02  1.858254E+05  2.363318E+03  1.408911E+04 -2.815667E+03  1.520531E+03
        98   6  3.263195E+02  1.859978E+05  1.799579E+03  1.515455E+04 -2.065158E+03  3.375790E+02
        98   7  1.309969E+04  2.371387E+05  1.193164E+04  1.584168E+04 -3.369155E+03  1.720542E+03
        98   8  9.388863E+03  2.248986E+05  8.169656E+03  1.432535E+04 -2.815730E+03  1.118069E+02
        98   9  6.513648E+03  2.130768E+05  5.663614E+03  1.493987E+04 -2.065265E+03 -1.496919E+03
        98  10 -1.056986E+04  1.348585E+05 -4.156862E+03  1.446739E+04  2.459893E-11 -2.891528E-11
        98  11 -8.559389E+03  1.467537E+05 -3.443072E+03  1.385288E+04 -8.089668E-11  7.805363E-11
        98  12 -5.861046E+03  1.589195E+05 -2.064471E+03  1.536923E+04 -4.123244E-11  9.053110E-11
        98  13  1.264968E+03  1.859973E+05  3.887410E+03  1.515451E+04  1.299203E-11 -1.259938E-11
        98  14  4.147684E+02  1.858254E+05  2.363298E+03  1.408911E+04  7.109348E-11  2.161741E-12
        98  15  3.263149E+02  1.859978E+05  1.799571E+03  1.515456E+04 -7.940566E-11 -1.075088E-10
        98  16  1.309967E+04  2.371387E+05  1.193162E+04  1.584168E+04 -5.130297E-12  5.109954E-11
        98  17  9.388854E+03  2.248986E+05  8.169641E+03  1.432535E+04  9.843896E-12 -1.686521E-11
        98  18  6.513643E+03  2.130768E+05  5.663602E+03  1.493987E+04 -8.168148E-11 -1.279249E-10
        98  19 -1.056985E+04  1.348586E+05 -4.156815E+03  1.446738E+04  3.369110E+03 -3.686305E+03
        98  20 -8.559378E+03  1.467537E+05 -3.443041E+03  1.385287E+04  2.815605E+03 -2.929170E+03
        98  21 -5.861040E+03  1.589195E+05 -2.064455E+03  1.536923E+04  2.065050E+03 -2.172001E+03
        98  22  1.264982E+03  1.859973E+05  3.887445E+03  1.515450E+04  3.369131E+03 -2.703463E+03
        98  23  4.147775E+02  1.858254E+05  2.363318E+03  1.408911E+04  2.815667E+03 -1.520531E+03
        98  24  3.263195E+02  1.859978E+05  1.799579E+03  1.515455E+04  2.065158E+03 -3.375790E+02
        98  25  1.309969E+04  2.371387E+05  1.193164E+04  1.584168E+04  3.369155E+03 -1.720542E+03
        98  26  9.388863E+03  2.248986E+05  8.169656E+03  1.432535E+04  2.815730E+03 -1.118069E+02
        98  27  6.513648E+03  2.130768E+05  5.663614E+03  1.493987E+04  2.065265E+03  1.496919E+03
        99   1 -4.067194E+03  1.665004E+05 -9.456491E+02  1.520183E+04 -1.556181E+03  1.889879E+03
        99   2 -5.911161E+02  1.782358E+05  1.355989E+03  1.524497E+04 -7.811202E+02  4.792918E+02
        99   3  4.499466E+03  1.905581E+05  4.979302E+03  1.742179E+04 -1.545390E+02 -9.312987E+02
        99   4  3.788437E+02  1.860394E+05  1.749540E+03  1.515519E+04 -1.556296E+03  5.480936E+01
        99   5  1.073072E+03  1.857737E+05  2.141534E+03  1.408828E+04 -7.812198E+02 -1.035021E+03
        99   6  3.326172E+03  1.860392E+05  3.632548E+03  1.515504E+04 -1.546166E+02 -2.124834E+03
        99   7  4.824866E+03  2.055788E+05  4.444736E+03  1.510855E+04 -1.556412E+03 -1.780316E+03
        99   8  2.737264E+03  1.933116E+05  2.927089E+03  1.293158E+04 -7.813137E+02 -2.549350E+03
        99   9  2.152896E+03  1.815204E+05  2.285800E+03  1.288830E+04 -1.546855E+02 -3.318360E+03
        99  10 -4.067197E+03  1.665004E+05 -9.456603E+02  1.520183E+04 -7.147669E-11 -1.187941E-10
        99  11 -5.911169E+02  1.782358E+05  1.355988E+03  1.524497E+04 -1.245167E-10  1.018094E-10
        99  12  4.499466E+03  1.905581E+05  4.979301E+03  1.742179E+04 -7.463744E-11  1.961240E-10
        99  13  3.788411E+02  1.860394E+05  1.749535E+03  1.515519E+04 -1.245737E-10 -1.890659E-11
        99  14  1.073071E+03  1.857737E+05  2.141531E+03  1.408828E+04 -1.306661E-10 -1.472282E-11
        99  15  3.326171E+03  1.860392E+05  3.632540E+03  1.515504E+04 -1.425346E-10 -1.233378E-10
        99  16  4.824863E+03  2.055788E+05  4.444726E+03  1.510855E+04 -5.326517E-11  1.146248E-10
        99  17  2.737261E+03  1.933116E+05  2.927076E+03  1.293157E+04 -7.664671E-11 -3.792017E-12
        99  18  2.152893E+03  1.815204E+05  2.285780E+03  1.288830E+04 -1.731485E-12 -2.387090E-10
        99  19 -4.067194E+03  1.665004E+05 -9.456491E+02  1.520183E+04  1.556181E+03 -1.889879E+03
        99  20 -5.911161E+02  1.782358E+05  1.355989E+03  1.524497E+04  7.811202E+02 -4.792918E+02
        99  21  4.499466E+03  1.905581E+05  4.979302E+03  1.742179E+04  1.545390E+02  9.312987E+02
        99  22  3.788437E+02  1.860394E+05  1.749540E+03  1.515519E+04  1.556296E+03 -5.480936E+01
        99  23  1.073072E+03  1.857737E+05  2.141534E+03  1.408828E+04  7.812198E+02  1.035021E+03
        99  24  3.326172E+03  1.860392E+05  3.632548E+03  1.515504E+04  1.546166E+02  2.124834E+03
        99  25  4.824866E+03  2.055788E+05  4.444736E+03  1.510855E+04  1.556412E+03  1.780316E+03
        99  26  2.737264E+03  1.933116E+05  2.927089E+03  1.293158E+04  7.813137E+02  2.549350E+03
        99  27  2.152896E+03  1.815204E+05  2.285800E+03  1.288830E+04  1.546855E+02  3.318360E+03
       100   1  6.640117E+05  1.198553E+05  1.095309E+05  9.130708E+04  2.744050E+04 -7.285480E+03
       100   2  5.748625E+05  1.128586E+05  7.946114E+04  9.387368E+04  7.296569E+03 -2.376778E+04
       100   3  4.861915E+05  9.713088E+04  6.031531E+04  1.112227E+05 -1.283737E+04 -2.706040E+04
       100   4  5.538998E+04 -3.020756E+04 -3.233388E+04  1.115679E+05 -2.244639E+04 -7.270213E+03
       100   5  5.764344E+04 -9.720276E+03 -1.637662E+04  1.041793E+05 -1.407809E+04 -2.376442E+04
       100   6  5.541927E+04 -2.916094E+03 -9.287323E+03  1.115745E+05 -5.702251E+03 -2.706324E+04
       100   7 -5.528841E+05 -1.802938E+05 -1.742142E+05  1.318088E+05 -7.228474E+04 -7.258195E+03
       100   8 -4.593154E+05 -1.323139E+05 -1.122238E+05  1.144762E+05 -3.543541E+04 -2.376177E+04
       100   9 -3.751688E+05 -1.029724E+05 -7.889484E+04  1.119260E+05  1.428096E+03 -2.706607E+04
       100  10  6.640109E+05  1.198550E+05  1.095294E+05  9.130724E+04 -2.300519E-08  2.270083E-10
       100  11  5.748623E+05  1.128580E+05  7.945998E+04  9.387382E+04  4.308466E-08  1.119666E-09
       100  12  4.861911E+05  9.713005E+04  6.031363E+04  1.112224E+05  1.050615E-07  2.331916E-09
       100  13  5.538943E+04 -3.020775E+04 -3.233493E+04  1.115678E+05  8.073329E-11  2.285733E-10
       100  14  5.764308E+04 -9.720936E+03 -1.637805E+04  1.041791E+05  4.025903E-10  1.212275E-09
       100  15  5.541904E+04 -2.916889E+03 -9.288761E+03  1.115743E+05  3.500482E-11  2.437009E-09
       100  16 -5.528897E+05 -1.802952E+05 -1.742241E+05  1.318084E+05  2.285187E-08  2.418877E-10
       100  17 -4.593169E+05 -1.323148E+05 -1.122273E+05  1.144755E+05 -4.287735E-08  1.282004E-09
       100  18 -3.751690E+05 -1.029732E+05 -7.889622E+04  1.119260E+05 -1.051051E-07  2.544863E-09
       100  19  6.640117E+05  1.198553E+05  1.095309E+05  9.130708E+04 -2.744050E+04  7.285480E+03
       100  20  5.748625E+05  1.128586E+05  7.946114E+04  9.387368E+04 -7.296569E+03  2.376778E+04
       100  21  4.861915E+05  9.713088E+04  6.031531E+04  1.112227E+05  1.283737E+04  2.706040E+04
       100  22  5.538998E+04 -3.020756E+04 -3.233388E+04  1.115679E+05  2.244639E+04  7.270213E+03
       100  23  5.764344E+04 -9.720276E+03 -1.637662E+04  1.041793E+05  1.407809E+04  2.376442E+04
       100  24  5.541927E+04 -2.916094E+03 -9.287323E+03  1.115745E+05  5.702251E+03  2.706324E+04
       100  25 -5.528841E+05 -1.802938E+05 -1.742142E+05  1.318088E+05  7.228474E+04  7.258195E+03
       100  26 -4.593154E+05 -1.323139E+05 -1.122238E+05  1.144762E+05  3.543541E+04  2.376177E+04
       100  27 -3.751688E+05 -1.029724E+05 -7.889484E+04  1.119260E+05 -1.428096E+03  2.706607E+04
       101   1  4.307084E+05  8.439035E+04  5.166089E+04  1.104523E+05 -1.179437E+04 -2.461789E+04
       101   2  3.419207E+05  6.489347E+04  3.763146E+04  1.032907E+05 -1.261351E+04 -2.046656E+04
       101   3  2.530880E+05  4.468738E+04  2.396236E+04  1.118628E+05 -1.343292E+04 -1.480300E+04
       101   4  5.628480E+04 -2.264580E+03 -7.297714E+03  1.117847E+05 -4.455072E+03 -2.462018E+04
       101   5  5.660334E+04 -6.625162E+02 -4.898945E+03  1.039177E+05 -2.007869E+03 -2.046837E+04
       101   6  5.630181E+04 -3.365951E+02 -4.408223E+03  1.117849E+05  4.389392E+02 -1.480396E+04
       101   7 -3.179991E+05 -8.892641E+04 -6.625957E+04  1.131163E+05  2.879969E+03 -2.462244E+04
       101   8 -2.286320E+05 -6.622227E+04 -4.743048E+04  1.045443E+05  8.593092E+03 -2.047015E+04
       101   9 -1.404449E+05 -4.536224E+04 -3.277869E+04  1.117070E+05  1.430659E+04 -1.480491E+04
       101  10  4.307081E+05  8.438966E+04  5.165949E+04  1.104521E+05 -1.058472E-07  2.349415E-09
       101  11  3.419204E+05  6.489297E+04  3.763037E+04  1.032905E+05 -4.339747E-08  8.800559E-10
       101  12  2.530878E+05  4.468710E+04  2.396161E+04  1.118626E+05  2.268334E-08 -6.188111E-10
       101  13  5.628462E+04 -2.265236E+03 -7.298890E+03  1.117846E+05 -1.859273E-10  2.399151E-09
       101  14  5.660323E+04 -6.629672E+02 -4.899740E+03  1.039176E+05 -4.071993E-12  8.715666E-10
       101  15  5.630175E+04 -3.368305E+02 -4.408635E+03  1.117849E+05  2.022780E-10 -6.595813E-10
       101  16 -3.179992E+05 -8.892706E+04 -6.626073E+04  1.131164E+05  1.057847E-07  2.429066E-09
       101  17 -2.286322E+05 -6.622274E+04 -4.743140E+04  1.045445E+05  4.352425E-08  8.477074E-10
       101  18 -1.404452E+05 -4.536253E+04 -3.277948E+04  1.117072E+05 -2.240192E-08 -6.751780E-10
       101  19  4.307084E+05  8.439035E+04  5.166089E+04  1.104523E+05  1.179437E+04  2.461789E+04
       101  20  3.419207E+05  6.489347E+04  3.763146E+04  1.032907E+05  1.261351E+04  2.046656E+04
       101  21  2.530880E+05  4.468738E+04  2.396236E+04  1.118628E+05  1.343292E+04  1.480300E+04
       101  22  5.628480E+04 -2.264580E+03 -7.297714E+03  1.117847E+05  4.455072E+03  2.462018E+04
       101  23  5.660334E+04 -6.625162E+02 -4.898945E+03  1.039177E+05  2.007869E+03  2.046837E+04
       101  24  5.630181E+04 -3.365951E+02 -4.408223E+03  1.117849E+05 -4.389392E+02  1.480396E+04
       101  25 -3.179991E+05 -8.892641E+04 -6.625957E+04  1.131163E+05 -2.879969E+03  2.462244E+04
       101  26 -2.286320E+05 -6.622227E+04 -4.743048E+04  1.045443E+05 -8.593092E+03  2.047015E+04
       101  27 -1.404449E+05 -4.536224E+04 -3.277869E+04  1.117070E+05 -1.430659E+04  1.480491E+04
       102   1  1.974079E+05  3.184719E+04  1.514555E+04  1.115921E+05 -1.266989E+04 -1.097726E+04
       102   2  1.091649E+05  1.075902E+04 -1.960881E+02  1.047778E+05 -8.206846E+03 -4.828650E+03
       102   3  1.983284E+04 -1.243779E+04 -1.896723E+04  1.137586E+05 -3.744837E+03  7.642565E+02
       102   4  5.624544E+04 -3.507008E+02 -4.703018E+03  1.117984E+05  1.214546E+03 -1.097781E+04
       102   5  5.669193E+04 -9.997288E+02 -6.522611E+03  1.039007E+05  4.475762E+03 -4.828932E+03
       102   6  5.624879E+04 -3.548910E+03 -1.093803E+04  1.117982E+05  7.736551E+03  7.641990E+02
       102   7 -8.489642E+04 -3.254937E+04 -2.455112E+04  1.120047E+05  1.509596E+04 -1.097834E+04
       102   8  4.222141E+03 -1.275849E+04 -1.284853E+04  1.030236E+05  1.715735E+04 -4.829250E+03
       102   9  9.266628E+04  5.339968E+03 -2.908421E+03  1.098377E+05  1.921860E+04  7.640690E+02
       102  10  1.974077E+05  3.184701E+04  1.514502E+04  1.115920E+05 -1.495644E-09 -9.637969E-10
       102  11  1.091648E+05  1.075897E+04 -1.962584E+02  1.047778E+05 -9.001876E-10 -7.157529E-10
       102  12  1.983282E+04 -1.243780E+04 -1.896726E+04  1.137586E+05 -1.215985E-09 -4.153819E-10
       102  13  5.624540E+04 -3.508306E+02 -4.703247E+03  1.117985E+05 -1.596100E-10 -1.021570E-09
       102  14  5.669190E+04 -9.997593E+02 -6.522693E+03  1.039007E+05  1.344466E-10 -7.795160E-10
       102  15  5.624873E+04 -3.548927E+03 -1.093815E+04  1.117982E+05 -1.076805E-10 -4.265078E-10
       102  16 -8.489670E+04 -3.254957E+04 -2.455178E+04  1.120049E+05  1.734920E-09 -1.065685E-09
       102  17  4.221818E+03 -1.275860E+04 -1.284912E+04  1.030237E+05  1.157104E-09 -8.662595E-10
       102  18  9.266588E+04  5.339868E+03 -2.909116E+03  1.098376E+05  1.009492E-09 -4.544448E-10
       102  19  1.974079E+05  3.184719E+04  1.514555E+04  1.115921E+05  1.266989E+04  1.097726E+04
       102  20  1.091649E+05  1.075902E+04 -1.960881E+02  1.047778E+05  8.206846E+03  4.828650E+03
       102  21  1.983284E+04 -1.243779E+04 -1.896723E+04  1.137586E+05  3.744837E+03 -7.642565E+02
       102  22  5.624544E+04 -3.507008E+02 -4.703018E+03  1.117984E+05 -1.214546E+03  1.097781E+04
       102  23  5.669193E+04 -9.997288E+02 -6.522611E+03  1.039007E+05 -4.475762E+03  4.828932E+03
       102  24  5.624879E+04 -3.548910E+03 -1.093803E+04  1.117982E+05 -7.736551E+03 -7.641990E+02
       102  25 -8.489642E+04 -3.254937E+04 -2.455112E+04  1.120047E+05 -1.509596E+04  1.097834E+04
       102  26  4.222141E+03 -1.275849E+04 -1.284853E+04  1.030236E+05 -1.715735E+04  4.829250E+03
       102  27  9.266628E+04  5.339968E+03 -2.908421E+03  1.098377E+05 -1.921860E+04 -7.640690E+02
       103   1 -3.743978E+04 -2.649237E+04 -3.164512E+04  1.120934E+05 -1.769290E+03  4.082224E+03
       103   2 -1.215079E+05 -5.864143E+04 -6.208048E+04  1.202775E+05  2.477989E+04  6.274728E+03
       103   3 -2.150645E+05 -1.149829E+05 -1.158478E+05  1.438176E+05  5.132366E+04  2.309766E+03
       103   4  5.484913E+04 -4.568330E+03 -1.431329E+04  1.117016E+05  9.618363E+03  4.082046E+03
       103   5  5.843557E+04 -1.541562E+04 -2.591506E+04  1.040205E+05  2.286964E+04  6.274016E+03
       103   6  5.483971E+04 -4.814224E+04 -5.161061E+04  1.116972E+05  3.611931E+04  2.307989E+03
       103   7  1.471465E+05  1.735528E+04  3.018656E+03  1.113098E+05  2.100767E+04  4.081853E+03
       103   8  2.384105E+05  2.780918E+04  1.024886E+04  8.775865E+04  2.095884E+04  6.273404E+03
       103   9  3.248135E+05  1.869715E+04  1.262290E+04  7.956266E+04  2.090838E+04  2.307786E+03
       103  10 -3.743979E+04 -2.649239E+04 -3.164516E+04  1.120934E+05 -4.281488E-10 -2.870283E-10
       103  11 -1.215085E+05 -5.864164E+04 -6.208171E+04  1.202774E+05 -6.866148E-10 -2.096129E-10
       103  12 -2.150673E+05 -1.149836E+05 -1.158527E+05  1.438175E+05 -2.530478E-10 -5.126236E-11
       103  13  5.484902E+04 -4.568373E+03 -1.431350E+04  1.117016E+05 -1.177013E-11 -2.596893E-10
       103  14  5.843500E+04 -1.541581E+04 -2.591612E+04  1.040204E+05  1.357993E-10 -3.771274E-11
       103  15  5.483831E+04 -4.814260E+04 -5.161307E+04  1.116971E+05  1.811042E-10 -4.103218E-12
       103  16  1.471461E+05  1.735515E+04  3.017795E+03  1.113098E+05  8.654875E-10 -2.100618E-10
       103  17  2.384100E+05  2.780902E+04  1.024796E+04  8.775855E+04  6.414659E-10 -4.429325E-11
       103  18  3.248131E+05  1.869702E+04  1.262206E+04  7.956262E+04  1.384698E-10  7.740739E-12
       103  19 -3.743978E+04 -2.649237E+04 -3.164512E+04  1.120934E+05  1.769290E+03 -4.082224E+03
       103  20 -1.215079E+05 -5.864143E+04 -6.208048E+04  1.202775E+05 -2.477989E+04 -6.274728E+03
       103  21 -2.150645E+05 -1.149829E+05 -1.158478E+05  1.438176E+05 -5.132366E+04 -2.309766E+03
       103  22  5.484913E+04 -4.568330E+03 -1.431329E+04  1.117016E+05 -9.618363E+03 -4.082046E+03
       103  23  5.843557E+04 -1.541562E+04 -2.591506E+04  1.040205E+05 -2.286964E+04 -6.274016E+03
       103  24  5.483971E+04 -4.814224E+04 -5.161061E+04  1.116972E+05 -3.611931E+04 -2.307989E+03
       103  25  1.471465E+05  1.735528E+04  3.018656E+03  1.113098E+05 -2.100767E+04 -4.081853E+03
       103  26  2.384105E+05  2.780918E+04  1.024886E+04  8.775865E+04 -2.095884E+04 -6.273404E+03
       103  27  3.248135E+05  1.869715E+04  1.262290E+04  7.956266E+04 -2.090838E+04 -2.307786E+03
       104   1 -4.957964E+04 -3.495890E+04 -5.314501E+04  8.932481E+04  4.087003E+02 -2.795105E+04
       104   2 -9.664184E+03  1.728806E+04 -2.138552E+04  7.131188E+04  2.462040E+03 -1.469554E+04
       104   3  1.105857E+04  6.300272E+04 -3.057473E+03  6.196699E+04  5.409293E+03 -1.439197E+03
       104   4 -4.144465E+04 -2.733922E+03 -4.449485E+04  6.166788E+04  4.078610E+02 -3.140135E+04
       104   5 -1.322034E+04  3.654938E+02 -2.214432E+04  5.732285E+04  2.459161E+03 -2.007745E+04
       104   6 -3.853943E+03 -2.734415E+03 -1.188320E+04  6.164730E+04  5.404971E+03 -8.753707E+03
       104   7 -3.330687E+04  2.949365E+04 -3.584433E+04  3.400951E+04  4.073291E+02 -3.485184E+04
       104   8 -1.677576E+04 -1.655627E+04 -2.290290E+04  4.333423E+04  2.456525E+03 -2.545922E+04
       104   9 -1.876662E+04 -6.846703E+04 -2.070876E+04  6.132765E+04  5.400657E+03 -1.606748E+04
       104  10 -4.957984E+04 -3.495974E+04 -5.314647E+04  8.932482E+04  9.317556E-11 -5.009031E-10
       104  11 -9.664249E+03  1.728783E+04 -2.138593E+04  7.131191E+04 -5.706633E-11  1.837417E-10
       104  12  1.105854E+04  6.300271E+04 -3.057532E+03  6.196699E+04  1.950133E-10  8.348681E-10
       104  13 -4.144492E+04 -2.734981E+03 -4.449670E+04  6.166789E+04 -1.453775E-10 -3.119690E-11
       104  14 -1.322046E+04  3.650593E+02 -2.214509E+04  5.732289E+04 -2.441156E-10 -3.389912E-11
       104  15 -3.853995E+03 -2.734505E+03 -1.188339E+04  6.164734E+04 -3.626290E-11 -4.599271E-12
       104  16 -3.330720E+04  2.949234E+04 -3.584661E+04  3.400952E+04 -3.116002E-10  4.814335E-10
       104  17 -1.677594E+04 -1.655697E+04 -2.290413E+04  4.333428E+04 -2.664720E-10 -2.202794E-10
       104  18 -1.876672E+04 -6.846731E+04 -2.070930E+04  6.132772E+04  6.473508E-11 -8.951535E-10
       104  19 -4.957964E+04 -3.495890E+04 -5.314501E+04  8.932481E+04 -4.087003E+02  2.795105E+04
       104  20 -9.664184E+03  1.728806E+04 -2.138552E+04  7.131188E+04 -2.462040E+03  1.469554E+04
       104  21  1.105857E+04  6.300272E+04 -3.057473E+03  6.196699E+04 -5.409293E+03  1.439197E+03
       104  22 -4.144465E+04 -2.733922E+03 -4.449485E+04  6.166788E+04 -4.078610E+02  3.140135E+04
       104  23 -1.322034E+04  3.654938E+02 -2.214432E+04  5.732285E+04 -2.459161E+03  2.007745E+04
       104  24 -3.853943E+03 -2.734415E+03 -1.188320E+04  6.164730E+04 -5.404971E+03  8.753707E+03
       104  25 -3.330687E+04  2.949365E+04 -3.584433E+04  3.400951E+04 -4.073291E+02  3.485184E+04
       104  26 -1.677576E+04 -1.655627E+04 -2.290290E+04  4.333423E+04 -2.456525E+03  2.545922E+04
       104  27 -1.876662E+04 -6.846703E+04 -2.070876E+04  6.132765E+04 -5.400657E+03  1.606748E+04
       105   1  1.903919E+04  9.493957E+04  4.836515E+03  6.331274E+04  7.450190E+03  8.814067E+01
       105   2  3.264646E+04  1.440996E+05  1.712853E+04  5.814167E+04  1.047144E+04  7.375160E+02
       105   3  4.509939E+04  1.928804E+05  2.870637E+04  6.164456E+04  1.275978E+04  1.387505E+03
       105   4 -2.977246E+03 -1.503634E+03 -8.796610E+03  6.164994E+04  7.445973E+03 -7.228648E+03
       105   5 -7.258772E+02 -1.177848E+03 -4.463089E+03  5.731206E+04  1.046842E+04 -4.996376E+03
       105   6  9.638519E+01 -1.508447E+03 -1.942895E+03  6.164835E+04  1.275788E+04 -2.763531E+03
       105   7 -2.499406E+04 -9.793730E+04 -2.242966E+04  5.998741E+04  7.441795E+03 -1.454435E+04
       105   8 -3.409918E+04 -1.464341E+05 -2.605498E+04  5.648265E+04  1.046542E+04 -1.072898E+04
       105   9 -4.490848E+04 -1.958596E+05 -3.259303E+04  6.165212E+04  1.275597E+04 -6.913316E+03
       105  10  1.903913E+04  9.493956E+04  4.836410E+03  6.331274E+04 -4.807816E-11 -1.147610E-09
       105  11  3.264634E+04  1.440996E+05  1.712833E+04  5.814166E+04 -2.776041E-10 -1.049566E-10
       105  12  4.509922E+04  1.928803E+05  2.870606E+04  6.164455E+04 -2.594103E-10  1.033550E-09
       105  13 -2.977320E+03 -1.503705E+03 -8.796813E+03  6.164999E+04 -3.906069E-10 -5.099422E-11
       105  14 -7.260016E+02 -1.177904E+03 -4.463342E+03  5.731210E+04 -4.493218E-10 -1.723636E-11
       105  15  9.620835E+01 -1.508499E+03 -1.943215E+03  6.164838E+04 -3.635052E-10 -1.522926E-11
       105  16 -2.499418E+04 -9.793755E+04 -2.243016E+04  5.998750E+04 -1.115282E-11  1.148225E-09
       105  17 -3.409933E+04 -1.464342E+05 -2.605540E+04  5.648274E+04 -3.298358E-10  8.169104E-11
       105  18 -4.490867E+04 -1.958597E+05 -3.259343E+04  6.165219E+04 -1.949230E-11 -1.052103E-09
       105  19  1.903919E+04  9.493957E+04  4.836515E+03  6.331274E+04 -7.450190E+03 -8.814067E+01
       105  20  3.264646E+04  1.440996E+05  1.712853E+04  5.814167E+04 -1.047144E+04 -7.375160E+02
       105  21  4.509939E+04  1.928804E+05  2.870637E+04  6.164456E+04 -1.275978E+04 -1.387505E+03
       105  22 -2.977246E+03 -1.503634E+03 -8.796610E+03  6.164994E+04 -7.445973E+03  7.228648E+03
       105  23 -7.258772E+02 -1.177848E+03 -4.463089E+03  5.731206E+04 -1.046842E+04  4.996376E+03
       105  24  9.638519E+01 -1.508447E+03 -1.942895E+03  6.164835E+04 -1.275788E+04  2.763531E+03
       105  25 -2.499406E+04 -9.793730E+04 -2.242966E+04  5.998741E+04 -7.441795E+03  1.454435E+04
       105  26 -3.409918E+04 -1.464341E+05 -2.605498E+04  5.648265E+04 -1.046542E+04  1.072898E+04
       105  27 -4.490848E+04 -1.958596E+05 -3.259303E+04  6.165212E+04 -1.275597E+04  6.913316E+03
       106   1  5.258330E+04  2.241657E+05  3.549384E+04  6.158831E+04  1.412962E+04  1.544358E+03
       106   2  6.581678E+04  2.716695E+05  5.154406E+04  5.854366E+04  1.248451E+04 -1.405406E+04
       106   3  8.304305E+04  3.222003E+05  7.874498E+04  6.367359E+04  3.823054E+03 -2.965146E+04
       106   4  2.039210E+02 -1.277245E+03 -9.907262E+02  6.153756E+04  1.412795E+04 -2.498263E+03
       106   5  1.052857E+03 -1.479001E+03  8.336656E+02  5.744951E+04  1.249045E+04 -2.935148E+03
       106   6  3.264039E+03 -1.285992E+03  3.282702E+03  6.153607E+04  3.835248E+03 -3.369839E+03
       106   7 -5.217802E+04 -2.266698E+05 -3.747663E+04  6.148682E+04  1.412627E+04 -6.539469E+03
       106   8 -6.371528E+04 -2.745549E+05 -4.987942E+04  5.635585E+04  1.249636E+04  8.179000E+03
       106   9 -7.652199E+04 -3.246743E+05 -7.218408E+04  5.939966E+04  3.847265E+03  2.289819E+04
       106  10  5.258308E+04  2.241657E+05  3.549346E+04  6.158829E+04  1.180759E-10 -6.072631E-10
       106  11  6.581656E+04  2.716692E+05  5.154340E+04  5.854380E+04 -1.319115E-11 -1.724091E-10
       106  12  8.304280E+04  3.221994E+05  7.874331E+04  6.367368E+04 -8.107002E-11  2.460215E-10
       106  13  2.037050E+02 -1.277306E+03 -9.911131E+02  6.153759E+04  2.070204E-10 -4.423800E-12
       106  14  1.052687E+03 -1.479052E+03  8.333562E+02  5.744954E+04 -9.329102E-11  4.949532E-13
       106  15  3.264021E+03 -1.286008E+03  3.282653E+03  6.153608E+04  4.345137E-11 -4.219265E-11
       106  16 -5.217825E+04 -2.266699E+05 -3.747708E+04  6.148690E+04  1.167443E-10  6.063736E-10
       106  17 -6.371546E+04 -2.745551E+05 -4.987984E+04  5.635577E+04  3.142974E-10  1.230756E-10
       106  18 -7.652215E+04 -3.246749E+05 -7.218509E+04  5.939959E+04 -1.330277E-10 -2.542102E-10
       106  19  5.258330E+04  2.241657E+05  3.549384E+04  6.158831E+04 -1.412962E+04 -1.544358E+03
       106  20  6.581678E+04  2.716695E+05  5.154406E+04  5.854366E+04 -1.248451E+04  1.405406E+04
       106  21  8.304305E+04  3.222003E+05  7.874498E+04  6.367359E+04 -3.823054E+03  2.965146E+04
       106  22  2.039210E+02 -1.277245E+03 -9.907262E+02  6.153756E+04 -1.412795E+04  2.498263E+03
       106  23  1.052857E+03 -1.479001E+03  8.336656E+02  5.744951E+04 -1.249045E+04  2.935148E+03
       106  24  3.264039E+03 -1.285992E+03  3.282702E+03  6.153607E+04 -3.835248E+03  3.369839E+03
       106  25 -5.217802E+04 -2.266698E+05 -3.747663E+04  6.148682E+04 -1.412627E+04  6.539469E+03
       106  26 -6.371528E+04 -2.745549E+05 -4.987942E+04  5.635585E+04 -1.249636E+04 -8.179000E+03
       106  27 -7.652199E+04 -3.246743E+05 -7.218408E+04  5.939966E+04 -3.847265E+03 -2.289819E+04
       107   1  4.304020E+05  3.737224E+05  1.084762E+05  2.959306E+05  4.632748E+04  2.988995E+04
       107   2  4.134060E+05  3.275310E+05  6.894795E+04  2.947917E+05  3.275038E+04  8.184122E+03
       107   3  4.047849E+05  3.003732E+05  4.981622E+04  2.892369E+05  1.541782E+04 -8.505585E+03
       107   4  2.397843E+05  1.972901E+05  4.031546E+04  1.823292E+05  2.493913E+04  1.386039E+04
       107   5  2.306541E+05  1.780514E+05  2.020709E+04  1.927081E+05  2.220499E+04  2.803565E+02
       107   6  2.275513E+05  1.754981E+05  1.109542E+04  1.986700E+05  1.571381E+04 -8.284512E+03
       107   7  4.921136E+04  2.090108E+04 -2.784632E+04  6.877524E+04  3.560035E+03 -2.159532E+03
       107   8  4.794314E+04  2.860246E+04 -2.853508E+04  9.066305E+04  1.166384E+04 -7.619560E+03
       107   9  5.035505E+04  5.064291E+04 -2.762682E+04  1.081335E+05  1.600970E+04 -8.063523E+03
       107  10  4.303995E+05  3.737209E+05  1.084705E+05  2.959294E+05 -3.564426E-10 -9.361783E-11
       107  11  4.134049E+05  3.275307E+05  6.894581E+04  2.947915E+05  1.768017E-10  1.118471E-10
       107  12  4.047847E+05  3.003730E+05  4.981563E+04  2.892370E+05  2.562827E-10  1.354178E-10
       107  13  2.397835E+05  1.972897E+05  4.031394E+04  1.823289E+05 -2.215837E-10  4.003670E-11
       107  14  2.306535E+05  1.780513E+05  2.020616E+04  1.927081E+05 -1.051602E-10  1.178119E-10
       107  15  2.275511E+05  1.754980E+05  1.109483E+04  1.986702E+05 -7.920768E-11 -2.221318E-11
       107  16  4.921134E+04  2.090107E+04 -2.784635E+04  6.877524E+04  7.687651E-12  1.712405E-10
       107  17  4.794298E+04  2.860236E+04 -2.853545E+04  9.066312E+04  4.271688E-11  6.878602E-11
       107  18  5.035476E+04  5.064277E+04 -2.762742E+04  1.081336E+05 -2.574346E-10 -1.674768E-10
       107  19  4.304020E+05  3.737224E+05  1.084762E+05  2.959306E+05 -4.632748E+04 -2.988995E+04
       107  20  4.134060E+05  3.275310E+05  6.894795E+04  2.947917E+05 -3.275038E+04 -8.184122E+03
       107  21  4.047849E+05  3.003732E+05  4.981622E+04  2.892369E+05 -1.541782E+04  8.505585E+03
       107  22  2.397843E+05  1.972901E+05  4.031546E+04  1.823292E+05 -2.493913E+04 -1.386039E+04
       107  23  2.306541E+05  1.780514E+05  2.020709E+04  1.927081E+05 -2.220499E+04 -2.803565E+02
       107  24  2.275513E+05  1.754981E+05  1.109542E+04  1.986700E+05 -1.571381E+04  8.284512E+03
       107  25  4.921136E+04  2.090108E+04 -2.784632E+04  6.877524E+04 -3.560035E+03  2.159532E+03
       107  26  4.794314E+04  2.860246E+04 -2.853508E+04  9.066305E+04 -1.166384E+04  7.619560E+03
       107  27  5.035505E+04  5.064291E+04 -2.762682E+04  1.081335E+05 -1.600970E+04  8.063523E+03
       108   1  3.910654E+05  2.926230E+05  4.369934E+04  2.837495E+05  1.396809E+04 -9.159168E+03
       108   2  3.750150E+05  2.756487E+05  3.482041E+04  2.747554E+05  1.034657E+04 -1.112691E+04
       108   3  3.560458E+05  2.642624E+05  2.902246E+04  2.666154E+05  6.269295E+03 -1.248664E+04
       108   4  2.264676E+05  1.746903E+05  8.424276E+03  1.985533E+05  1.434332E+04 -8.878663E+03
       108   5  2.276019E+05  1.712065E+05  4.870448E+03  1.987507E+05  1.203678E+04 -9.860703E+03
       108   6  2.255331E+05  1.730256E+05  3.257792E+03  1.998022E+05  9.274361E+03 -1.023468E+04
       108   7  6.189834E+04  5.677268E+04 -2.685327E+04  1.133818E+05  1.471843E+04 -8.598253E+03
       108   8  8.021507E+04  6.677845E+04 -2.508021E+04  1.227674E+05  1.372645E+04 -8.594902E+03
       108   9  9.504409E+04  8.180192E+04 -2.250627E+04  1.330069E+05  1.227852E+04 -7.983405E+03
       108  10  3.910652E+05  2.926228E+05  4.369881E+04  2.837496E+05  1.597366E-10 -1.167442E-10
       108  11  3.750148E+05  2.756485E+05  3.481997E+04  2.747555E+05  2.391184E-10 -4.267102E-11
       108  12  3.560457E+05  2.642622E+05  2.902210E+04  2.666155E+05  8.923366E-11 -2.908085E-11
       108  13  2.264674E+05  1.746901E+05  8.423741E+03  1.985534E+05  2.440646E-10 -6.067417E-11
       108  14  2.276018E+05  1.712063E+05  4.869993E+03  1.987508E+05  9.737419E-11 -4.856552E-11
       108  15  2.255330E+05  1.730255E+05  3.257433E+03  1.998022E+05  1.518071E-10  2.342251E-11
       108  16  6.189809E+04  5.677255E+04 -2.685382E+04  1.133819E+05  2.517389E-11 -5.105250E-11
       108  17  8.021485E+04  6.677832E+04 -2.508070E+04  1.227675E+05 -6.075057E-10 -1.200065E-11
       108  18  9.504391E+04  8.180181E+04 -2.250667E+04  1.330070E+05 -2.714689E-10  5.142069E-11
       108  19  3.910654E+05  2.926230E+05  4.369934E+04  2.837495E+05 -1.396809E+04  9.159168E+03
       108  20  3.750150E+05  2.756487E+05  3.482041E+04  2.747554E+05 -1.034657E+04  1.112691E+04
       108  21  3.560458E+05  2.642624E+05  2.902246E+04  2.666154E+05 -6.269295E+03  1.248664E+04
       108  22  2.264676E+05  1.746903E+05  8.424276E+03  1.985533E+05 -1.434332E+04  8.878663E+03
       108  23  2.276019E+05  1.712065E+05  4.870448E+03  1.987507E+05 -1.203678E+04  9.860703E+03
       108  24  2.255331E+05  1.730256E+05  3.257792E+03  1.998022E+05 -9.274361E+03  1.023468E+04
       108  25  6.189834E+04  5.677268E+04 -2.685327E+04  1.133818E+05 -1.471843E+04  8.598253E+03
       108  26  8.021507E+04  6.677845E+04 -2.508021E+04  1.227674E+05 -1.372645E+04  8.594902E+03
       108  27  9.504409E+04  8.180192E+04 -2.250627E+04  1.330069E+05 -1.227852E+04  7.983405E+03
       109   1  3.446751E+05  2.565795E+05  2.627677E+04  2.609711E+05  5.211290E+03 -1.197850E+04
       109   2  3.289648E+05  2.419118E+05  2.257978E+04  2.512606E+05  2.877237E+03 -1.149674E+04
       109   3  3.093585E+05  2.317524E+05  1.999147E+04  2.427604E+05  4.916522E+02 -1.094642E+04
       109   4  2.254479E+05  1.729753E+05  2.888020E+03  1.997831E+05  8.225145E+03 -9.719818E+03
       109   5  2.274310E+05  1.707695E+05  2.808479E+03  1.991549E+05  6.039560E+03 -9.126564E+03
       109   6  2.254853E+05  1.730398E+05  3.708870E+03  1.997369E+05  3.802373E+03 -8.464768E+03
       109   7  1.062378E+05  8.938026E+04 -2.050109E+04  1.386089E+05  1.123824E+04 -7.461714E+03
       109   8  1.259084E+05  9.963288E+04 -1.696346E+04  1.470587E+05  9.201237E+03 -6.756873E+03
       109   9  1.416187E+05  1.143303E+05 -1.257454E+04  1.567192E+05  7.112578E+03 -5.983506E+03
       109  10  3.446750E+05  2.565794E+05  2.627645E+04  2.609712E+05 -5.682123E-11  1.418508E-11
       109  11  3.289647E+05  2.419117E+05  2.257952E+04  2.512606E+05  4.839559E-11  1.035596E-10
       109  12  3.093585E+05  2.317523E+05  1.999125E+04  2.427604E+05  1.262454E-10  1.280339E-10
       109  13  2.254478E+05  1.729752E+05  2.887715E+03  1.997832E+05  6.426708E-11  2.711617E-11
       109  14  2.274309E+05  1.707694E+05  2.808254E+03  1.991550E+05  3.826631E-10  1.011802E-10
       109  15  2.254853E+05  1.730397E+05  3.708708E+03  1.997369E+05 -1.467733E-10  4.653969E-11
       109  16  1.062376E+05  8.938017E+04 -2.050143E+04  1.386089E+05  7.284379E-11  9.105453E-11
       109  17  1.259083E+05  9.963281E+04 -1.696371E+04  1.470587E+05 -1.629062E-10  1.212784E-11
       109  18  1.416186E+05  1.143302E+05 -1.257470E+04  1.567192E+05  2.118212E-10 -9.679185E-12
       109  19  3.446751E+05  2.565795E+05  2.627677E+04  2.609711E+05 -5.211290E+03  1.197850E+04
       109  20  3.289648E+05  2.419118E+05  2.257978E+04  2.512606E+05 -2.877237E+03  1.149674E+04
       109  21  3.093585E+05  2.317524E+05  1.999147E+04  2.427604E+05 -4.916522E+02  1.094642E+04
       109  22  2.254479E+05  1.729753E+05  2.888020E+03  1.997831E+05 -8.225145E+03  9.719818E+03
       109  23  2.274310E+05  1.707695E+05  2.808479E+03  1.991549E+05 -6.039560E+03  9.126564E+03
       109  24  2.254853E+05  1.730398E+05  3.708870E+03  1.997369E+05 -3.802373E+03  8.464768E+03
       109  25  1.062378E+05  8.938026E+04 -2.050109E+04  1.386089E+05 -1.123824E+04  7.461714E+03
       109  26  1.259084E+05  9.963288E+04 -1.696346E+04  1.470587E+05 -9.201237E+03  6.756873E+03
       109  27  1.416187E+05  1.143303E+05 -1.257454E+04  1.567192E+05 -7.112578E+03  5.983506E+03
       110   1  2.981942E+05  2.243463E+05  1.859590E+04  2.372191E+05 -7.471590E+02 -1.047611E+04
       110   2  2.839053E+05  2.089948E+05  1.812115E+04  2.264309E+05 -4.834754E+03 -1.117282E+04
       110   3  2.669254E+05  1.996973E+05  2.062324E+04  2.162707E+05 -8.898300E+03 -1.190138E+04
       110   4  2.256265E+05  1.731504E+05  4.564701E+03  1.997891E+05  2.563639E+03 -7.994305E+03
       110   5  2.277323E+05  1.714816E+05  7.545139E+03  1.984522E+05 -1.592813E+03 -8.742561E+03
       110   6  2.271613E+05  1.758813E+05  1.356203E+04  1.977426E+05 -5.725347E+03 -9.522787E+03
       110   7  1.530669E+05  1.219593E+05 -9.465955E+03  1.623652E+05  5.873849E+03 -5.512943E+03
       110   8  1.715639E+05  1.339707E+05 -3.030643E+03  1.704767E+05  1.648700E+03 -6.312608E+03
       110   9  1.873992E+05  1.520659E+05  6.500868E+03  1.792158E+05 -2.552669E+03 -7.144358E+03
       110  10  2.981942E+05  2.243462E+05  1.859569E+04  2.372191E+05  3.633124E-11  5.706317E-11
       110  11  2.839053E+05  2.089946E+05  1.812087E+04  2.264309E+05  3.371873E-10  1.332931E-10
       110  12  2.669253E+05  1.996972E+05  2.062283E+04  2.162706E+05  5.949402E-10  6.894040E-11
       110  13  2.256264E+05  1.731504E+05  4.564569E+03  1.997891E+05  1.232047E-11  4.966977E-11
       110  14  2.277323E+05  1.714815E+05  7.544991E+03  1.984522E+05  3.058879E-10  2.926289E-11
       110  15  2.271613E+05  1.758812E+05  1.356180E+04  1.977425E+05 -1.193980E-10 -7.909416E-11
       110  16  1.530668E+05  1.219592E+05 -9.466077E+03  1.623652E+05  3.632406E-11  8.890017E-11
       110  17  1.715639E+05  1.339706E+05 -3.030723E+03  1.704767E+05 -1.523185E-11 -1.202440E-11
       110  18  1.873992E+05  1.520659E+05  6.500759E+03  1.792157E+05 -2.196081E-10 -3.424531E-10
       110  19  2.981942E+05  2.243463E+05  1.859590E+04  2.372191E+05  7.471590E+02  1.047611E+04
       110  20  2.839053E+05  2.089948E+05  1.812115E+04  2.264309E+05  4.834754E+03  1.117282E+04
       110  21  2.669254E+05  1.996973E+05  2.062324E+04  2.162707E+05  8.898300E+03  1.190138E+04
       110  22  2.256265E+05  1.731504E+05  4.564701E+03  1.997891E+05 -2.563639E+03  7.994305E+03
       110  23  2.277323E+05  1.714816E+05  7.545139E+03  1.984522E+05  1.592813E+03  8.742561E+03
       110  24  2.271613E+05  1.758813E+05  1.356203E+04  1.977426E+05  5.725347E+03  9.522787E+03
       110  25  1.530669E+05  1.219593E+05 -9.465955E+03  1.623652E+05 -5.873849E+03  5.512943E+03
       110  26  1.715639E+05  1.339707E+05 -3.030643E+03  1.704767E+05 -1.648700E+03  6.312608E+03
       110  27  1.873992E+05  1.520659E+05  6.500868E+03  1.792158E+05  2.552669E+03  7.144358E+03
       111   1  2.555610E+05  1.953168E+05  2.275890E+04  2.114050E+05 -1.141693E+04 -1.243633E+04
       111   2  2.615319E+05  1.685662E+05  3.396928E+04  1.872184E+05 -2.518512E+04 -2.072829E+04
       111   3  2.791415E+05  1.670652E+05  6.254743E+04  1.552257E+05 -3.870376E+04 -2.935293E+04
       111   4  2.287931E+05  1.773588E+05  1.800513E+04  1.979824E+05 -8.249446E+03 -1.006173E+04
       111   5  2.329243E+05  1.825056E+05  3.303290E+04  1.885009E+05 -2.273803E+04 -1.889507E+04
       111   6  2.488492E+05  2.130566E+05  6.605365E+04  1.712134E+05 -3.697658E+04 -2.806208E+04
       111   7  2.020255E+05  1.594009E+05  1.325120E+04  1.845602E+05 -5.082073E+03 -7.687212E+03
       111   8  2.043185E+05  1.964459E+05  3.209678E+04  1.897831E+05 -2.029110E+04 -1.706173E+04
       111   9  2.185615E+05  2.590532E+05  6.956072E+04  1.871996E+05 -3.524957E+04 -2.677101E+04
       111  10  2.555608E+05  1.953166E+05  2.275836E+04  2.114049E+05 -2.789452E-10 -4.285578E-10
       111  11  2.615311E+05  1.685656E+05  3.396728E+04  1.872180E+05 -7.377752E-11  4.611143E-11
       111  12  2.791396E+05  1.670639E+05  6.254299E+04  1.552248E+05  5.619864E-11  1.992281E-10
       111  13  2.287930E+05  1.773587E+05  1.800481E+04  1.979823E+05 -3.260289E-10 -1.575041E-10
       111  14  2.329237E+05  1.825050E+05  3.303125E+04  1.885006E+05 -9.150472E-11 -9.096689E-12
       111  15  2.488475E+05  2.130554E+05  6.604961E+04  1.712125E+05 -3.089996E-10 -4.570520E-11
       111  16  2.020255E+05  1.594008E+05  1.325104E+04  1.845601E+05  1.342652E-10  1.616754E-10
       111  17  2.043180E+05  1.964455E+05  3.209546E+04  1.897828E+05 -8.082442E-11 -2.845544E-11
       111  18  2.185600E+05  2.590521E+05  6.955704E+04  1.871989E+05 -9.573761E-11 -1.006318E-10
       111  19  2.555610E+05  1.953168E+05  2.275890E+04  2.114050E+05  1.141693E+04  1.243633E+04
       111  20  2.615319E+05  1.685662E+05  3.396928E+04  1.872184E+05  2.518512E+04  2.072829E+04
       111  21  2.791415E+05  1.670652E+05  6.254743E+04  1.552257E+05  3.870376E+04  2.935293E+04
       111  22  2.287931E+05  1.773588E+05  1.800513E+04  1.979824E+05  8.249446E+03  1.006173E+04
       111  23  2.329243E+05  1.825056E+05  3.303290E+04  1.885009E+05  2.273803E+04  1.889507E+04
       111  24  2.488492E+05  2.130566E+05  6.605365E+04  1.712134E+05  3.697658E+04  2.806208E+04
       111  25  2.020255E+05  1.594009E+05  1.325120E+04  1.845602E+05  5.082073E+03  7.687212E+03
       111  26  2.043185E+05  1.964459E+05  3.209678E+04  1.897831E+05  2.029110E+04  1.706173E+04
       111  27  2.185615E+05  2.590532E+05  6.956072E+04  1.871996E+05  3.524957E+04  2.677101E+04
       112   1  9.795930E+05  1.589035E+05  1.548826E+05  1.269287E+05  6.582182E+04 -5.871529E+03
       112   2  8.921010E+05  1.106335E+05  9.705142E+04  1.086570E+05  3.248486E+04 -1.893906E+04
       112   3  8.139090E+05  8.213813E+04  6.584605E+04  1.042720E+05 -8.436202E+02 -2.100862E+04
       112   4  4.743032E+05  3.434356E+04  3.691814E+04  1.039604E+05  2.565961E+04 -5.871673E+03
       112   5  4.717314E+05  1.095193E+04  1.867573E+04  9.701709E+04  1.611407E+04 -1.894058E+04
       112   6  4.743333E+05  3.216374E+03  1.055937E+04  1.039595E+05  6.571834E+03 -2.100929E+04
       112   7 -3.074698E+04 -9.023164E+04 -8.105735E+04  8.101075E+04 -1.447017E+04 -5.868852E+03
       112   8  5.153349E+04 -8.873911E+04 -5.970644E+04  8.538528E+04 -2.459380E+02 -1.894148E+04
       112   9  1.348719E+05 -7.571122E+04 -4.473034E+04  1.036471E+05  1.398338E+04 -2.100996E+04
       112  10  9.795884E+05  1.589023E+05  1.548744E+05  1.269291E+05  6.263711E-11  4.425590E-11
       112  11  8.920998E+05  1.106328E+05  9.704877E+04  1.086575E+05  4.711404E-11  7.552110E-11
       112  12  8.139089E+05  8.213765E+04  6.584522E+04  1.042720E+05 -1.370121E-10 -4.174756E-12
       112  13  4.743025E+05  3.434335E+04  3.691684E+04  1.039605E+05 -2.211657E-10  3.314071E-11
       112  14  4.717311E+05  1.095147E+04  1.867456E+04  9.701734E+04 -4.249853E-10  6.893870E-12
       112  15  4.743332E+05  3.215888E+03  1.055846E+04  1.039596E+05  5.196236E-11 -9.467573E-11
       112  16 -3.074722E+04 -9.023173E+04 -8.105781E+04  8.101068E+04  1.525512E-12 -4.595826E-11
       112  17  5.153340E+04 -8.873950E+04 -5.970711E+04  8.538528E+04 -1.292864E-10 -6.800608E-11
       112  18  1.348716E+05 -7.571175E+04 -4.473153E+04  1.036473E+05  3.847580E-11 -1.654291E-10
       112  19  9.795930E+05  1.589035E+05  1.548826E+05  1.269287E+05 -6.582182E+04  5.871529E+03
       112  20  8.921010E+05  1.106335E+05  9.705142E+04  1.086570E+05 -3.248486E+04  1.893906E+04
       112  21  8.139090E+05  8.213813E+04  6.584605E+04  1.042720E+05  8.436202E+02  2.100862E+04
       112  22  4.743032E+05  3.434356E+04  3.691814E+04  1.039604E+05 -2.565961E+04  5.871673E+03
       112  23  4.717314E+05  1.095193E+04  1.867573E+04  9.701709E+04 -1.611407E+04  1.894058E+04
       112  24  4.743333E+05  3.216374E+03  1.055937E+04  1.039595E+05 -6.571834E+03  2.100929E+04
       112  25 -3.074698E+04 -9.023164E+04 -8.105735E+04  8.101075E+04  1.447017E+04  5.868852E+03
       112  26  5.153349E+04 -8.873911E+04 -5.970644E+04  8.538528E+04  2.459380E+02  1.894148E+04
       112  27  1.348719E+05 -7.571122E+04 -4.473034E+04  1.036471E+05 -1.398338E+04  2.100996E+04
       113   1  7.605193E+05  6.901095E+04  5.388427E+04  1.055889E+05 -2.431666E+03 -1.857551E+04
       113   2  6.772024E+05  4.764937E+04  3.616433E+04  9.747706E+04 -7.827196E+03 -1.444895E+04
       113   3  5.950770E+05  2.818950E+04  2.243120E+04  1.040277E+05 -1.322241E+04 -9.088940E+03
       113   4  4.733497E+05  2.494070E+03  8.265095E+03  1.041327E+05  5.156136E+03 -1.857571E+04
       113   5  4.729950E+05  6.949830E+02  5.464266E+03  9.680141E+04  2.427805E+03 -1.444834E+04
       113   6  4.733618E+05  3.352742E+02  4.799733E+03  1.041328E+05 -3.009273E+02 -9.087320E+03
       113   7  1.862621E+05 -6.402688E+04 -3.735597E+04  1.026771E+05  1.274056E+04 -1.857593E+04
       113   8  2.688297E+05 -4.626133E+04 -2.523623E+04  9.612599E+04  1.267957E+04 -1.444775E+04
       113   9  3.516618E+05 -2.751954E+04 -1.283134E+04  1.042380E+05  1.261813E+04 -9.085696E+03
       113  10  7.605192E+05  6.901058E+04  5.388361E+04  1.055889E+05 -3.788064E-10  2.097874E-12
       113  11  6.772022E+05  4.764913E+04  3.616382E+04  9.747697E+04  9.054566E-11  1.773213E-10
       113  12  5.950768E+05  2.818936E+04  2.243071E+04  1.040276E+05 -2.079829E-10  2.090413E-10
       113  13  4.733495E+05  2.493692E+03  8.264397E+03  1.041327E+05  3.080763E-10 -6.996795E-11
       113  14  4.729950E+05  6.947572E+02  5.463863E+03  9.680144E+04  1.814830E-10  7.109096E-11
       113  15  4.733617E+05  3.351855E+02  4.799577E+03  1.041328E+05  4.920493E-11  1.366113E-10
       113  16  1.862618E+05 -6.402729E+04 -3.735692E+04  1.026773E+05  2.804071E-10 -1.535374E-10
       113  17  2.688295E+05 -4.626159E+04 -2.523693E+04  9.612614E+04  7.135716E-10  6.177012E-12
       113  18  3.516616E+05 -2.751967E+04 -1.283180E+04  1.042381E+05  3.555574E-10 -2.824738E-11
       113  19  7.605193E+05  6.901095E+04  5.388427E+04  1.055889E+05  2.431666E+03  1.857551E+04
       113  20  6.772024E+05  4.764937E+04  3.616433E+04  9.747706E+04  7.827196E+03  1.444895E+04
       113  21  5.950770E+05  2.818950E+04  2.243120E+04  1.040277E+05  1.322241E+04  9.088940E+03
       113  22  4.733497E+05  2.494070E+03  8.265095E+03  1.041327E+05 -5.156136E+03  1.857571E+04
       113  23  4.729950E+05  6.949830E+02  5.464266E+03  9.680141E+04 -2.427805E+03  1.444834E+04
       113  24  4.733618E+05  3.352742E+02  4.799733E+03  1.041328E+05  3.009273E+02  9.087320E+03
       113  25  1.862621E+05 -6.402688E+04 -3.735597E+04  1.026771E+05 -1.274056E+04  1.857593E+04
       113  26  2.688297E+05 -4.626133E+04 -2.523623E+04  9.612599E+04 -1.267957E+04  1.444775E+04
       113  27  3.516618E+05 -2.751954E+04 -1.283134E+04  1.042380E+05 -1.261813E+04  9.085696E+03
       114   1  5.433268E+05  1.626944E+04  1.475505E+04  1.043437E+05 -1.406882E+04 -5.527552E+03
       114   2  4.602870E+05 -2.102961E+03  3.878119E+03  9.586770E+04 -1.601435E+04  1.077932E+02
       114   3  3.779397E+05 -1.875184E+04 -5.301620E+03  1.020878E+05 -1.795973E+04  5.051232E+03
       114   4  4.734136E+05  3.553809E+02  5.056950E+03  1.041402E+05 -1.140744E+03 -5.525708E+03
       114   5  4.729395E+05  1.027855E+03  6.884537E+03  9.679214E+04 -4.582433E+03  1.093645E+02
       114   6  4.734117E+05  3.683861E+03  1.144748E+04  1.041399E+05 -8.024234E+03  5.052532E+03
       114   7  4.035056E+05 -1.555880E+04 -4.640577E+03  1.039368E+05  1.178595E+04 -5.523871E+03
       114   8  4.855925E+05  4.158733E+03  9.891435E+03  9.771660E+04  6.849718E+03  1.109698E+02
       114   9  5.688928E+05  2.611913E+04  2.819663E+04  1.061924E+05  1.912746E+03  5.053897E+03
       114  10  5.433266E+05  1.626935E+04  1.475462E+04  1.043436E+05  2.622967E-10  1.113848E-10
       114  11  4.602867E+05 -2.103029E+03  3.877638E+03  9.586770E+04 -7.920522E-11 -1.094100E-10
       114  12  3.779393E+05 -1.875196E+04 -5.302274E+03  1.020879E+05 -3.269614E-10 -2.440753E-10
       114  13  4.734136E+05  3.553478E+02  5.056890E+03  1.041402E+05  1.098287E-10 -2.434307E-11
       114  14  4.729395E+05  1.027850E+03  6.884498E+03  9.679214E+04  2.905749E-10 -1.312990E-10
       114  15  4.734116E+05  3.683816E+03  1.144731E+04  1.041400E+05 -8.461345E-11 -1.684006E-10
       114  16  4.035055E+05 -1.555887E+04 -4.640895E+03  1.039368E+05 -1.771693E-10 -6.949243E-11
       114  17  4.855925E+05  4.158720E+03  9.891347E+03  9.771660E+04 -1.847919E-10 -2.369277E-10
       114  18  5.688928E+05  2.611911E+04  2.819658E+04  1.061924E+05  3.904373E-10 -7.894064E-11
       114  19  5.433268E+05  1.626944E+04  1.475505E+04  1.043437E+05  1.406882E+04  5.527552E+03
       114  20  4.602870E+05 -2.102961E+03  3.878119E+03  9.586770E+04  1.601435E+04 -1.077932E+02
       114  21  3.779397E+05 -1.875184E+04 -5.301620E+03  1.020878E+05  1.795973E+04 -5.051232E+03
       114  22  4.734136E+05  3.553809E+02  5.056950E+03  1.041402E+05  1.140744E+03  5.525708E+03
       114  23  4.729395E+05  1.027855E+03  6.884537E+03  9.679214E+04  4.582433E+03 -1.093645E+02
       114  24  4.734117E+05  3.683861E+03  1.144748E+04  1.041399E+05  8.024234E+03 -5.052532E+03
       114  25  4.035056E+05 -1.555880E+04 -4.640577E+03  1.039368E+05 -1.178595E+04  5.523871E+03
       114  26  4.855925E+05  4.158733E+03  9.891435E+03  9.771660E+04 -6.849718E+03 -1.109698E+02
       114  27  5.688928E+05  2.611913E+04  2.819663E+04  1.061924E+05 -1.912746E+03 -5.053897E+03
       115   1  3.272814E+05 -2.989262E+04 -1.070182E+04  1.036129E+05 -1.982034E+04  7.979966E+03
       115   2  2.420928E+05 -3.866815E+04 -1.752301E+04  7.998626E+04 -1.847722E+04  9.023204E+03
       115   3  1.617873E+05 -2.727479E+04 -2.017426E+04  7.056650E+04 -1.713510E+04  3.054212E+03
       115   4  4.748665E+05  4.741986E+03  1.495151E+04  1.040306E+05 -9.994789E+03  7.981095E+03
       115   5  4.711041E+05  1.602599E+04  2.701582E+04  9.692712E+04 -2.380591E+04  9.021921E+03
       115   6  4.748433E+05  5.010322E+04  5.376637E+04  1.040283E+05 -3.761807E+04  3.051782E+03
       115   7  6.224732E+05  3.937547E+04  4.060445E+04  1.044483E+05 -1.669753E+02  7.982237E+03
       115   8  7.001663E+05  7.071808E+04  7.155242E+04  1.138744E+05 -2.913652E+04  9.020347E+03
       115   9  7.879926E+05  1.274786E+05  1.277024E+05  1.375071E+05 -5.811131E+04  3.047148E+03
       115  10  3.272810E+05 -2.989280E+04 -1.070268E+04  1.036131E+05 -1.433722E-10 -1.976787E-10
       115  11  2.420924E+05 -3.866832E+04 -1.752380E+04  7.998639E+04  5.472042E-11 -4.553914E-11
       115  12  1.617870E+05 -2.727487E+04 -2.017483E+04  7.056654E+04 -5.828894E-11  2.276915E-12
       115  13  4.748664E+05  4.741891E+03  1.495120E+04  1.040306E+05 -1.397570E-10 -8.380476E-11
       115  14  4.711034E+05  1.602575E+04  2.701460E+04  9.692729E+04 -1.555439E-10 -2.353482E-11
       115  15  4.748418E+05  5.010283E+04  5.376370E+04  1.040284E+05 -1.247110E-10  2.735385E-12
       115  16  6.224732E+05  3.937540E+04  4.060433E+04  1.044483E+05  2.368771E-10  1.187190E-11
       115  17  7.001654E+05  7.071777E+04  7.155067E+04  1.138746E+05  9.357042E-11  1.791695E-12
       115  18  7.879889E+05  1.274777E+05  1.276960E+05  1.375073E+05  1.064900E-10  2.311454E-11
       115  19  3.272814E+05 -2.989262E+04 -1.070182E+04  1.036129E+05  1.982034E+04 -7.979966E+03
       115  20  2.420928E+05 -3.866815E+04 -1.752301E+04  7.998626E+04  1.847722E+04 -9.023204E+03
       115  21  1.617873E+05 -2.727479E+04 -2.017426E+04  7.056650E+04  1.713510E+04 -3.054212E+03
       115  22  4.748665E+05  4.741986E+03  1.495151E+04  1.040306E+05  9.994789E+03 -7.981095E+03
       115  23  4.711041E+05  1.602599E+04  2.701582E+04  9.692712E+04  2.380591E+04 -9.021921E+03
       115  24  4.748433E+05  5.010322E+04  5.376637E+04  1.040283E+05  3.761807E+04 -3.051782E+03
       115  25  6.224732E+05  3.937547E+04  4.060445E+04  1.044483E+05  1.669753E+02 -7.982237E+03
       115  26  7.001663E+05  7.071808E+04  7.155242E+04  1.138744E+05  2.913652E+04 -9.020347E+03
       115  27  7.879926E+05  1.274786E+05  1.277024E+05  1.375071E+05  5.811131E+04 -3.047148E+03
       116   1 -1.828998E+05 -5.236386E+05 -1.845008E+05  2.011277E+05 -4.012915E+03 -8.569066E+04
       116   2 -9.675732E+04 -3.981242E+05 -1.018024E+05  1.647350E+05 -1.158956E+04 -4.339472E+04
       116   3 -5.040754E+04 -2.880663E+05 -5.660500E+04  1.486006E+05 -9.850585E+03 -1.091318E+03
       116   4 -7.952870E+04 -1.056008E+05 -8.553392E+04  1.480864E+05 -3.991894E+03 -5.924092E+04
       116   5 -2.539150E+04 -9.960233E+04 -4.341578E+04  1.379375E+05 -1.158377E+04 -3.704671E+04
       116   6 -7.544868E+03 -1.055737E+05 -2.482195E+04  1.480523E+05 -9.858511E+03 -1.485406E+04
       116   7  2.384083E+04  3.126053E+05  1.342494E+04  9.500907E+04 -3.975406E+03 -3.277343E+04
       116   8  4.597169E+04  1.990067E+05  1.496708E+04  1.111269E+05 -1.157853E+04 -3.069571E+04
       116   9  3.531610E+04  7.695202E+04  6.960645E+03  1.475038E+05 -9.866411E+03 -2.862072E+04
       116  10 -1.829018E+05 -5.236465E+05 -1.845146E+05  2.011275E+05 -1.404513E-10 -2.618302E-10
       116  11 -9.675797E+04 -3.981263E+05 -1.018062E+05  1.647346E+05  2.249169E-10 -1.057089E-10
       116  12 -5.040764E+04 -2.880663E+05 -5.660518E+04  1.486006E+05  9.830694E-11  8.385398E-11
       116  13 -7.952966E+04 -1.056046E+05 -8.554054E+04  1.480862E+05  1.567003E-10 -5.443846E-11
       116  14 -2.539202E+04 -9.960384E+04 -4.341861E+04  1.379372E+05 -2.620917E-10  6.221455E-11
       116  15 -7.545032E+03 -1.055739E+05 -2.482254E+04  1.480522E+05 -2.594415E-10 -5.006113E-11
       116  16  2.384053E+04  3.126042E+05  1.342290E+04  9.500897E+04 -1.389231E-10  2.538827E-10
       116  17  4.597129E+04  1.990057E+05  1.496506E+04  1.111267E+05 -3.183013E-10 -1.820816E-12
       116  18  3.531578E+04  7.695112E+04  6.958923E+03  1.475036E+05  9.802314E-11 -1.635460E-10
       116  19 -1.828998E+05 -5.236386E+05 -1.845008E+05  2.011277E+05  4.012915E+03  8.569066E+04
       116  20 -9.675732E+04 -3.981242E+05 -1.018024E+05  1.647350E+05  1.158956E+04  4.339472E+04
       116  21 -5.040754E+04 -2.880663E+05 -5.660500E+04  1.486006E+05  9.850585E+03  1.091318E+03
       116  22 -7.952870E+04 -1.056008E+05 -8.553392E+04  1.480864E+05  3.991894E+03  5.924092E+04
       116  23 -2.539150E+04 -9.960233E+04 -4.341578E+04  1.379375E+05  1.158377E+04  3.704671E+04
       116  24 -7.544868E+03 -1.055737E+05 -2.482195E+04  1.480523E+05  9.858511E+03  1.485406E+04
       116  25  2.384083E+04  3.126053E+05  1.342494E+04  9.500907E+04  3.975406E+03  3.277343E+04
       116  26  4.597169E+04  1.990067E+05  1.496708E+04  1.111269E+05  1.157853E+04  3.069571E+04
       116  27  3.531610E+04  7.695202E+04  6.960645E+03  1.475038E+05  9.866411E+03  2.862072E+04
       117   1 -3.135911E+04 -2.116315E+05 -3.867746E+04  1.514724E+05 -5.725985E+03  2.368435E+03
       117   2 -9.001873E+01 -9.291302E+04 -1.225841E+04  1.384840E+05  6.859526E+02  9.100211E+03
       117   3  2.681052E+04  2.383420E+04  8.679193E+03  1.463524E+05  7.050011E+03  1.583324E+04
       117   4 -5.900476E+03 -1.033550E+05 -1.965771E+04  1.481860E+05 -5.734342E+03 -1.152222E+04
       117   5 -2.260161E+03 -1.023541E+05 -1.366224E+04  1.377566E+05  6.777080E+02 -4.687579E+03
       117   6 -3.005505E+03 -1.033556E+05 -1.321915E+04  1.481844E+05  7.041918E+03  2.147133E+03
       117   7  1.955766E+04  4.933411E+03 -6.376471E+02  1.448989E+05 -5.742550E+03 -2.541523E+04
       117   8 -4.430204E+03 -1.117947E+05 -1.506535E+04  1.370291E+05  6.694955E+02 -1.847517E+04
       117   9 -3.282228E+04 -2.305290E+05 -3.511734E+04  1.500161E+05  7.033743E+03 -1.153626E+04
       117  10 -3.135915E+04 -2.116315E+05 -3.867753E+04  1.514724E+05  4.319867E-11 -6.682194E-10
       117  11 -9.004147E+01 -9.291311E+04 -1.225857E+04  1.384840E+05 -2.753846E-10 -6.168206E-11
       117  12  2.681040E+04  2.383392E+04  8.678628E+03  1.463523E+05  1.339901E-10  6.140299E-10
       117  13 -5.900546E+03 -1.033552E+05 -1.965802E+04  1.481859E+05 -2.882949E-10 -1.065383E-10
       117  14 -2.260168E+03 -1.023541E+05 -1.366228E+04  1.377566E+05 -3.089917E-10  8.636217E-11
       117  15 -3.005560E+03 -1.033556E+05 -1.321925E+04  1.481844E+05 -4.236614E-11 -1.412997E-10
       117  16  1.955746E+04  4.932709E+03 -6.389227E+02  1.448988E+05  8.588330E-12  6.404946E-10
       117  17 -4.430296E+03 -1.117950E+05 -1.506599E+04  1.370291E+05 -4.930978E-10 -2.712696E-11
       117  18 -3.282237E+04 -2.305292E+05 -3.511768E+04  1.500162E+05  2.440788E-10 -6.639430E-10
       117  19 -3.135911E+04 -2.116315E+05 -3.867746E+04  1.514724E+05  5.725985E+03 -2.368435E+03
       117  20 -9.001873E+01 -9.291302E+04 -1.225841E+04  1.384840E+05 -6.859526E+02 -9.100211E+03
       117  21  2.681052E+04  2.383420E+04  8.679193E+03  1.463524E+05 -7.050011E+03 -1.583324E+04
       117  22 -5.900476E+03 -1.033550E+05 -1.965771E+04  1.481860E+05  5.734342E+03  1.152222E+04
       117  23 -2.260161E+03 -1.023541E+05 -1.366224E+04  1.377566E+05 -6.777080E+02  4.687579E+03
       117  24 -3.005505E+03 -1.033556E+05 -1.321915E+04  1.481844E+05 -7.041918E+03 -2.147133E+03
       117  25  1.955766E+04  4.933411E+03 -6.376471E+02  1.448989E+05  5.742550E+03  2.541523E+04
       117  26 -4.430204E+03 -1.117947E+05 -1.506535E+04  1.370291E+05 -6.694955E+02  1.847517E+04
       117  27 -3.282228E+04 -2.305290E+05 -3.511734E+04  1.500161E+05 -7.033743E+03  1.153626E+04
       118   1  4.351329E+04  9.725114E+04  2.013778E+04  1.477429E+05  1.112933E+04  1.784694E+04
       118   2  6.384957E+04  2.161294E+05  3.989779E+04  1.252045E+05  1.253916E+04  8.007960E+03
       118   3  7.053378E+04  3.328834E+05  6.264662E+04  1.228926E+05  4.237652E+03 -1.830674E+03
       118   4 -3.721645E+03 -1.041997E+05 -1.458980E+04  1.480442E+05  1.112167E+04  4.295460E+03
       118   5 -1.196648E+04 -1.013222E+05 -2.183007E+04  1.379376E+05  1.254384E+04  1.543592E+04
       118   6 -3.750938E+04 -1.042261E+05 -4.065149E+04  1.480600E+05  4.251992E+03  2.657812E+04
       118   7 -5.095866E+04 -3.056104E+05 -4.931806E+04  1.483455E+05  1.111398E+04 -9.251761E+03
       118   8 -8.778792E+04 -4.186767E+05 -8.356241E+04  1.506640E+05  1.254883E+04  2.286016E+04
       118   9 -1.455634E+05 -5.411570E+05 -1.439594E+05  1.732096E+05  4.268642E+03  5.496703E+04
       118  10  4.351307E+04  9.725077E+04  2.013694E+04  1.477427E+05  7.961540E-11 -9.066621E-10
       118  11  6.384939E+04  2.161293E+05  3.989738E+04  1.252044E+05 -9.076570E-11 -1.520591E-10
       118  12  7.053376E+04  3.328834E+05  6.264658E+04  1.228926E+05 -1.563071E-10  5.013137E-10
       118  13 -3.721783E+03 -1.041998E+05 -1.459006E+04  1.480442E+05  4.380041E-10 -8.654557E-11
       118  14 -1.196671E+04 -1.013225E+05 -2.183082E+04  1.379374E+05 -4.511578E-12 -1.209863E-11
       118  15 -3.750958E+04 -1.042269E+05 -4.065285E+04  1.480600E+05  1.185397E-11 -6.330737E-11
       118  16 -5.095881E+04 -3.056105E+05 -4.931846E+04  1.483455E+05  1.498940E-10  9.052471E-10
       118  17 -8.778823E+04 -4.186773E+05 -8.356369E+04  1.506637E+05  6.925852E-11  7.012457E-11
       118  18 -1.455642E+05 -5.411602E+05 -1.439652E+05  1.732095E+05  3.169349E-11 -5.420674E-10
       118  19  4.351329E+04  9.725114E+04  2.013778E+04  1.477429E+05 -1.112933E+04 -1.784694E+04
       118  20  6.384957E+04  2.161294E+05  3.989779E+04  1.252045E+05 -1.253916E+04 -8.007960E+03
       118  21  7.053378E+04  3.328834E+05  6.264662E+04  1.228926E+05 -4.237652E+03  1.830674E+03
       118  22 -3.721645E+03 -1.041997E+05 -1.458980E+04  1.480442E+05 -1.112167E+04 -4.295460E+03
       118  23 -1.196648E+04 -1.013222E+05 -2.183007E+04  1.379376E+05 -1.254384E+04 -1.543592E+04
       118  24 -3.750938E+04 -1.042261E+05 -4.065149E+04  1.480600E+05 -4.251992E+03 -2.657812E+04
       118  25 -5.095866E+04 -3.056104E+05 -4.931806E+04  1.483455E+05 -1.111398E+04  9.251761E+03
       118  26 -8.778792E+04 -4.186767E+05 -8.356241E+04  1.506640E+05 -1.254883E+04 -2.286016E+04
       118  27 -1.455634E+05 -5.411570E+05 -1.439594E+05  1.732096E+05 -4.268642E+03 -5.496703E+04
       119   1  3.924955E+05  2.989156E+05  6.933598E+04  2.778893E+05  3.813696E+04  2.784835E+04
       119   2  3.962145E+05  2.565146E+05  3.749073E+04  2.909605E+05  2.528716E+04  1.623298E+04
       119   3  4.157759E+05  2.333424E+05  2.343366E+04  2.954346E+05  1.201325E+04  5.183404E+03
       119   4  4.034065E+05  2.440173E+05  6.134509E+04  2.543829E+05  3.478523E+04  2.533230E+04
       119   5  3.863072E+05  2.179601E+05  3.074564E+04  2.711123E+05  2.315621E+04  1.463443E+04
       119   6  3.847853E+05  2.108665E+05  1.687497E+04  2.792447E+05  1.110358E+04  4.501461E+03
       119   7  4.143201E+05  1.891260E+05  5.335495E+04  2.308765E+05  3.143338E+04  2.281681E+04
       119   8  3.764006E+05  1.794081E+05  2.400061E+04  2.512648E+05  2.102526E+04  1.303611E+04
       119   9  3.537950E+05  1.883908E+05  1.031598E+04  2.630554E+05  1.019394E+04  3.819549E+03
       119  10  3.924937E+05  2.989144E+05  6.933179E+04  2.778885E+05 -2.832839E-10 -1.051719E-10
       119  11  3.962137E+05  2.565141E+05  3.748903E+04  2.909602E+05 -1.563425E-10  1.083552E-11
       119  12  4.157757E+05  2.333423E+05  2.343334E+04  2.954346E+05 -2.599553E-10  1.469452E-10
       119  13  4.034050E+05  2.440162E+05  6.134161E+04  2.543822E+05 -2.446622E-10  4.169394E-11
       119  14  3.863066E+05  2.179597E+05  3.074423E+04  2.711121E+05 -3.388596E-10  1.952197E-10
       119  15  3.847851E+05  2.108665E+05  1.687470E+04  2.792447E+05 -1.020166E-10  2.506227E-10
       119  16  4.143189E+05  1.891251E+05  5.335212E+04  2.308760E+05  9.228622E-11  2.370838E-10
       119  17  3.764001E+05  1.794078E+05  2.399946E+04  2.512645E+05 -1.886673E-10  3.085661E-10
       119  18  3.537949E+05  1.883907E+05  1.031576E+04  2.630554E+05  1.963460E-10  2.749308E-10
       119  19  3.924955E+05  2.989156E+05  6.933598E+04  2.778893E+05 -3.813696E+04 -2.784835E+04
       119  20  3.962145E+05  2.565146E+05  3.749073E+04  2.909605E+05 -2.528716E+04 -1.623298E+04
       119  21  4.157759E+05  2.333424E+05  2.343366E+04  2.954346E+05 -1.201325E+04 -5.183404E+03
       119  22  4.034065E+05  2.440173E+05  6.134509E+04  2.543829E+05 -3.478523E+04 -2.533230E+04
       119  23  3.863072E+05  2.179601E+05  3.074564E+04  2.711123E+05 -2.315621E+04 -1.463443E+04
       119  24  3.847853E+05  2.108665E+05  1.687497E+04  2.792447E+05 -1.110358E+04 -4.501461E+03
       119  25  4.143201E+05  1.891260E+05  5.335495E+04  2.308765E+05 -3.143338E+04 -2.281681E+04
       119  26  3.764006E+05  1.794081E+05  2.400061E+04  2.512648E+05 -2.102526E+04 -1.303611E+04
       119  27  3.537950E+05  1.883908E+05  1.031598E+04  2.630554E+05 -1.019394E+04 -3.819549E+03
       120   1  4.142773E+05  2.350096E+05  1.959998E+04  2.966779E+05  1.040359E+04  3.628958E+03
       120   2  4.166002E+05  2.340590E+05  1.452909E+04  2.991901E+05  7.579122E+03  9.164914E+02
       120   3  4.210964E+05  2.341878E+05  1.253628E+04  3.009471E+05  4.701464E+03 -1.724871E+03
       120   4  3.832673E+05  2.094986E+05  1.280655E+04  2.790272E+05  9.502730E+03  2.953577E+03
       120   5  3.814842E+05  2.077058E+05  7.389506E+03  2.803574E+05  6.832021E+03  3.563920E+02
       120   6  3.818411E+05  2.069592E+05  4.917398E+03  2.809324E+05  4.108108E+03 -2.169716E+03
       120   7  3.522593E+05  1.839891E+05  6.013361E+03  2.613780E+05  8.601952E+03  2.278266E+03
       120   8  3.463701E+05  1.813538E+05  2.500443E+02  2.615262E+05  6.084984E+03 -2.036550E+02
       120   9  3.425876E+05  1.797315E+05 -2.701511E+03  2.609192E+05  3.514804E+03 -2.614524E+03
       120  10  4.142771E+05  2.350096E+05  1.959975E+04  2.966779E+05  1.625083E-09  2.164077E-09
       120  11  4.166001E+05  2.340590E+05  1.452898E+04  2.991901E+05 -5.984652E-09 -2.699623E-09
       120  12  4.210964E+05  2.341878E+05  1.253624E+04  3.009471E+05 -5.530995E-09 -3.772437E-09
       120  13  3.832672E+05  2.094986E+05  1.280636E+04  2.790272E+05 -1.201671E-09 -5.187748E-10
       120  14  3.814841E+05  2.077058E+05  7.389418E+03  2.803574E+05  2.765853E-11 -9.269628E-11
       120  15  3.818411E+05  2.069592E+05  4.917358E+03  2.809324E+05  7.087026E-09  5.390187E-09
       120  16  3.522593E+05  1.839891E+05  6.013213E+03  2.613780E+05 -3.359524E-09 -3.138987E-09
       120  17  3.463700E+05  1.813538E+05  2.499747E+02  2.615262E+05  5.800673E-09  2.690976E-09
       120  18  3.425876E+05  1.797315E+05 -2.701548E+03  2.609192E+05  2.034791E-08  1.433613E-08
       120  19  4.142773E+05  2.350096E+05  1.959998E+04  2.966779E+05 -1.040359E+04 -3.628958E+03
       120  20  4.166002E+05  2.340590E+05  1.452909E+04  2.991901E+05 -7.579122E+03 -9.164914E+02
       120  21  4.210964E+05  2.341878E+05  1.253628E+04  3.009471E+05 -4.701464E+03  1.724871E+03
       120  22  3.832673E+05  2.094986E+05  1.280655E+04  2.790272E+05 -9.502730E+03 -2.953577E+03
       120  23  3.814842E+05  2.077058E+05  7.389506E+03  2.803574E+05 -6.832021E+03 -3.563920E+02
       120  24  3.818411E+05  2.069592E+05  4.917398E+03  2.809324E+05 -4.108108E+03  2.169716E+03
       120  25  3.522593E+05  1.839891E+05  6.013361E+03  2.613780E+05 -8.601952E+03 -2.278266E+03
       120  26  3.463701E+05  1.813538E+05  2.500443E+02  2.615262E+05 -6.084984E+03  2.036550E+02
       120  27  3.425876E+05  1.797315E+05 -2.701511E+03  2.609192E+05 -3.514804E+03  2.614524E+03
       121   1  4.225680E+05  2.356333E+05  1.231942E+04  3.019304E+05  4.179036E+03 -2.363025E+03
       121   2  4.250500E+05  2.378295E+05  1.272398E+04  3.035140E+05  2.650027E+03 -3.914034E+03
       121   3  4.286447E+05  2.397513E+05  1.464129E+04  3.048669E+05  1.098776E+03 -5.435463E+03
       121   4  3.817231E+05  2.068642E+05  4.341229E+03  2.808980E+05  3.586787E+03 -2.807052E+03
       121   5  3.811967E+05  2.070497E+05  4.179792E+03  2.809821E+05  2.121921E+03 -4.309993E+03
       121   6  3.817689E+05  2.069467E+05  5.475540E+03  2.808353E+05  6.348605E+02 -5.783313E+03
       121   7  3.408793E+05  1.780955E+05 -3.637325E+03  2.598668E+05  2.994577E+03 -3.251050E+03
       121   8  3.373456E+05  1.762710E+05 -4.364441E+03  2.584520E+05  1.593865E+03 -4.705915E+03
       121   9  3.348969E+05  1.741442E+05 -3.689890E+03  2.568065E+05  1.710015E+02 -6.131121E+03
       121  10  4.225680E+05  2.356333E+05  1.231937E+04  3.019304E+05  2.084725E-08  1.468655E-08
       121  11  4.250500E+05  2.378295E+05  1.272393E+04  3.035141E+05  6.288987E-09  2.902903E-09
       121  12  4.286447E+05  2.397513E+05  1.464123E+04  3.048669E+05 -3.450038E-09 -3.017839E-09
       121  13  3.817231E+05  2.068642E+05  4.341190E+03  2.808980E+05  7.363299E-09  5.239686E-09
       121  14  3.811966E+05  2.070496E+05  4.179748E+03  2.809821E+05 -9.351286E-11 -9.269102E-11
       121  15  3.817689E+05  2.069466E+05  5.475476E+03  2.808354E+05 -1.136226E-09 -5.665264E-10
       121  16  3.408793E+05  1.780955E+05 -3.637362E+03  2.598668E+05 -6.127965E-09 -4.159851E-09
       121  17  3.373456E+05  1.762710E+05 -4.364487E+03  2.584521E+05 -6.084162E-09 -3.052859E-09
       121  18  3.348969E+05  1.741441E+05 -3.689960E+03  2.568065E+05  1.587758E-09  1.933994E-09
       121  19  4.225680E+05  2.356333E+05  1.231942E+04  3.019304E+05 -4.179036E+03  2.363025E+03
       121  20  4.250500E+05  2.378295E+05  1.272398E+04  3.035140E+05 -2.650027E+03  3.914034E+03
       121  21  4.286447E+05  2.397513E+05  1.464129E+04  3.048669E+05 -1.098776E+03  5.435463E+03
       121  22  3.817231E+05  2.068642E+05  4.341229E+03  2.808980E+05 -3.586787E+03  2.807052E+03
       121  23  3.811967E+05  2.070497E+05  4.179792E+03  2.809821E+05 -2.121921E+03  4.309993E+03
       121  24  3.817689E+05  2.069467E+05  5.475540E+03  2.808353E+05 -6.348605E+02  5.783313E+03
       121  25  3.408793E+05  1.780955E+05 -3.637325E+03  2.598668E+05 -2.994577E+03  3.251050E+03
       121  26  3.373456E+05  1.762710E+05 -4.364441E+03  2.584520E+05 -1.593865E+03  4.705915E+03
       121  27  3.348969E+05  1.741442E+05 -3.689890E+03  2.568065E+05 -1.710015E+02  6.131121E+03
       122   1  4.303593E+05  2.415761E+05  1.630254E+04  3.059968E+05  3.573821E+02 -6.195725E+03
       122   2  4.348762E+05  2.427323E+05  2.146169E+04  3.059648E+05 -4.372037E+03 -9.935854E+03
       122   3  4.423959E+05  2.460313E+05  3.141450E+04  3.048529E+05 -9.234876E+03 -1.349814E+04
       122   4  3.819733E+05  2.071121E+05  6.724131E+03  2.809141E+05 -1.039329E+02 -6.541630E+03
       122   5  3.816380E+05  2.080838E+05  1.108664E+04  2.799525E+05 -4.448325E+03 -9.993154E+03
       122   6  3.842221E+05  2.111151E+05  1.990924E+04  2.779110E+05 -8.926137E+03 -1.326687E+04
       122   7  3.335902E+05  1.726496E+05 -2.854358E+03  2.558337E+05 -5.652007E+02 -6.887500E+03
       122   8  3.284026E+05  1.734364E+05  7.112898E+02  2.539425E+05 -4.524604E+03 -1.005045E+04
       122   9  3.260509E+05  1.761996E+05  8.403403E+03  2.509713E+05 -8.617430E+03 -1.303561E+04
       122  10  4.303593E+05  2.415760E+05  1.630247E+04  3.059968E+05 -6.649224E-11  4.754368E-10
       122  11  4.348762E+05  2.427322E+05  2.146146E+04  3.059647E+05  4.353397E-10  3.159438E-10
       122  12  4.423958E+05  2.460310E+05  3.141400E+04  3.048528E+05  1.701620E-10  1.758229E-10
       122  13  3.819733E+05  2.071120E+05  6.724051E+03  2.809141E+05 -6.268099E-11  2.720992E-10
       122  14  3.816380E+05  2.080837E+05  1.108642E+04  2.799525E+05 -9.084627E-11  2.072120E-10
       122  15  3.842219E+05  2.111149E+05  1.990876E+04  2.779109E+05  3.426049E-11  6.815515E-11
       122  16  3.335902E+05  1.726495E+05 -2.854448E+03  2.558337E+05 -4.299520E-10 -7.494716E-11
       122  17  3.284025E+05  1.734363E+05  7.110616E+02  2.539425E+05 -4.246094E-10 -6.380885E-12
       122  18  3.260507E+05  1.761994E+05  8.402944E+03  2.509713E+05 -1.234876E-10  4.668821E-11
       122  19  4.303593E+05  2.415761E+05  1.630254E+04  3.059968E+05 -3.573821E+02  6.195725E+03
       122  20  4.348762E+05  2.427323E+05  2.146169E+04  3.059648E+05  4.372037E+03  9.935854E+03
       122  21  4.423959E+05  2.460313E+05  3.141450E+04  3.048529E+05  9.234876E+03  1.349814E+04
       122  22  3.819733E+05  2.071121E+05  6.724131E+03  2.809141E+05  1.039329E+02  6.541630E+03
       122  23  3.816380E+05  2.080838E+05  1.108664E+04  2.799525E+05  4.448325E+03  9.993154E+03
       122  24  3.842221E+05  2.111151E+05  1.990924E+04  2.779110E+05  8.926137E+03  1.326687E+04
       122  25  3.335902E+05  1.726496E+05 -2.854358E+03  2.558337E+05  5.652007E+02  6.887500E+03
       122  26  3.284026E+05  1.734364E+05  7.112898E+02  2.539425E+05  4.524604E+03  1.005045E+04
       122  27  3.260509E+05  1.761996E+05  8.403403E+03  2.509713E+05  8.617430E+03  1.303561E+04
       123   1  4.439115E+05  2.524500E+05  3.865972E+04  3.069983E+05 -1.203397E+04 -1.554724E+04
       123   2  4.781301E+05  2.368914E+05  6.320527E+04  2.869183E+05 -3.568267E+04 -3.189717E+04
       123   3  5.370178E+05  2.526077E+05  1.168845E+05  2.534325E+05 -6.042586E+04 -4.678717E+04
       123   4  3.865782E+05  2.133197E+05  2.642657E+04  2.782728E+05 -1.170202E+04 -1.529848E+04
       123   5  3.892991E+05  2.242097E+05  4.847438E+04  2.653348E+05 -3.219614E+04 -2.928617E+04
       123   6  4.160046E+05  2.656905E+05  9.692217E+04  2.389911E+05 -5.378310E+04 -4.181600E+04
       123   7  3.292502E+05  1.741922E+05  1.419374E+04  2.495510E+05 -1.137013E+04 -1.504975E+04
       123   8  3.004797E+05  2.115292E+05  3.374405E+04  2.437529E+05 -2.871037E+04 -2.667519E+04
       123   9  2.950140E+05  2.787791E+05  7.696153E+04  2.245481E+05 -4.714222E+04 -3.684423E+04
       123  10  4.439113E+05  2.524497E+05  3.865899E+04  3.069982E+05  2.093642E-10  1.393853E-10
       123  11  4.781285E+05  2.368900E+05  6.320097E+04  2.869174E+05  2.015239E-10  1.288287E-10
       123  12  5.370133E+05  2.526043E+05  1.168736E+05  2.534303E+05 -2.333043E-10  8.029695E-11
       123  13  3.865780E+05  2.133194E+05  2.642587E+04  2.782727E+05 -2.059434E-10  1.012593E-10
       123  14  3.892977E+05  2.242085E+05  4.847082E+04  2.653340E+05  1.058266E-10 -7.647938E-12
       123  15  4.160011E+05  2.656879E+05  9.691346E+04  2.389893E+05 -1.235951E-10 -1.873280E-12
       123  16  3.292500E+05  1.741919E+05  1.419307E+04  2.495509E+05 -8.143855E-11  3.218897E-11
       123  17  3.004786E+05  2.115282E+05  3.374117E+04  2.437523E+05  3.437709E-11 -7.657882E-11
       123  18  2.950113E+05  2.787770E+05  7.695481E+04  2.245467E+05 -1.517421E-10 -7.782763E-11
       123  19  4.439115E+05  2.524500E+05  3.865972E+04  3.069983E+05  1.203397E+04  1.554724E+04
       123  20  4.781301E+05  2.368914E+05  6.320527E+04  2.869183E+05  3.568267E+04  3.189717E+04
       123  21  5.370178E+05  2.526077E+05  1.168845E+05  2.534325E+05  6.042586E+04  4.678717E+04
       123  22  3.865782E+05  2.133197E+05  2.642657E+04  2.782728E+05  1.170202E+04  1.529848E+04
       123  23  3.892991E+05  2.242097E+05  4.847438E+04  2.653348E+05  3.219614E+04  2.928617E+04
       123  24  4.160046E+05  2.656905E+05  9.692217E+04  2.389911E+05  5.378310E+04  4.181600E+04
       123  25  3.292502E+05  1.741922E+05  1.419374E+04  2.495510E+05  1.137013E+04  1.504975E+04
       123  26  3.004797E+05  2.115292E+05  3.374405E+04  2.437529E+05  2.871037E+04  2.667519E+04
       123  27  2.950140E+05  2.787791E+05  7.696153E+04  2.245481E+05  4.714222E+04  3.684423E+04
       124   1  7.434993E+05  1.167781E+05  1.167905E+05  9.320201E+04  5.783249E+04 -3.160837E+03
       124   2  6.902937E+05  6.948008E+04  6.885316E+04  7.315297E+04  3.132624E+04 -1.012677E+04
       124   3  6.466176E+05  4.648786E+04  4.423534E+04  6.125751E+04  4.823716E+03 -1.104050E+04
       124   4  4.663753E+05  4.843578E+04  5.200576E+04  6.082572E+04  3.622665E+04 -3.163887E+03
       124   5  4.627541E+05  1.548091E+04  2.624937E+04  5.674997E+04  2.280838E+04 -1.012813E+04
       124   6  4.663928E+05  4.565793E+03  1.473462E+04  6.082631E+04  9.391167E+03 -1.104052E+04
       124   7  1.893253E+05 -1.990775E+04 -1.278191E+04  2.846395E+04  1.463038E+04 -3.164687E+03
       124   8  2.352652E+05 -3.852021E+04 -1.635624E+04  4.035312E+04  1.429356E+04 -1.012905E+04
       124   9  2.862001E+05 -3.735792E+04 -1.476695E+04  6.039524E+04  1.395734E+04 -1.104054E+04
       124  10  7.434957E+05  1.167771E+05  1.167842E+05  9.320216E+04 -2.392015E-10  2.918878E-11
       124  11  6.902926E+05  6.947971E+04  6.885113E+04  7.315323E+04  1.468317E-10  5.094409E-11
       124  12  6.466175E+05  4.648772E+04  4.423506E+04  6.125755E+04  3.780753E-10 -1.346748E-10
       124  13  4.663739E+05  4.843542E+04  5.200328E+04  6.082581E+04 -1.958665E-10 -7.746375E-12
       124  14  4.627535E+05  1.548066E+04  2.624820E+04  5.675015E+04 -7.153297E-11  1.951803E-11
       124  15  4.663926E+05  4.565638E+03  1.473423E+04  6.082639E+04  3.031742E-10 -5.683173E-11
       124  16  1.893251E+05 -1.990782E+04 -1.278233E+04  2.846399E+04  8.663264E-11 -7.342841E-11
       124  17  2.352649E+05 -3.852037E+04 -1.635681E+04  4.035324E+04  1.553067E-10 -3.432519E-11
       124  18  2.861999E+05 -3.735811E+04 -1.476754E+04  6.039536E+04 -3.349323E-10  2.976349E-11
       124  19  7.434993E+05  1.167781E+05  1.167905E+05  9.320201E+04 -5.783249E+04  3.160837E+03
       124  20  6.902937E+05  6.948008E+04  6.885316E+04  7.315297E+04 -3.132624E+04  1.012677E+04
       124  21  6.466176E+05  4.648786E+04  4.423534E+04  6.125751E+04 -4.823716E+03  1.104050E+04
       124  22  4.663753E+05  4.843578E+04  5.200576E+04  6.082572E+04 -3.622665E+04  3.163887E+03
       124  23  4.627541E+05  1.548091E+04  2.624937E+04  5.674997E+04 -2.280838E+04  1.012813E+04
       124  24  4.663928E+05  4.565793E+03  1.473462E+04  6.082631E+04 -9.391167E+03  1.104052E+04
       124  25  1.893253E+05 -1.990775E+04 -1.278191E+04  2.846395E+04 -1.463038E+04  3.164687E+03
       124  26  2.352652E+05 -3.852021E+04 -1.635624E+04  4.035312E+04 -1.429356E+04  1.012905E+04
       124  27  2.862001E+05 -3.735792E+04 -1.476695E+04  6.039524E+04 -1.395734E+04  1.104054E+04
       125   1  6.145983E+05  3.822529E+04  3.536935E+04  6.295022E+04  2.764554E+03 -9.569830E+03
       125   2  5.656028E+05  2.425391E+04  2.265426E+04  5.756230E+04 -2.354736E+03 -7.077859E+03
       125   3  5.178365E+05  1.252413E+04  1.383019E+04  6.075504E+04 -7.473862E+03 -3.916258E+03
       125   4  4.649980E+05  3.539780E+03  1.145072E+04  6.092185E+04  7.427205E+03 -9.569702E+03
       125   5  4.645117E+05  9.865846E+02  7.349576E+03  5.663162E+04  3.755977E+03 -7.077437E+03
       125   6  4.650023E+05  4.243141E+02  6.135216E+03  6.092207E+04  8.456016E+01 -3.915501E+03
       125   7  3.154199E+05 -3.114682E+04 -1.246840E+04  5.889398E+04  1.208877E+04 -9.569604E+03
       125   8  3.634310E+05 -2.228121E+04 -7.955182E+03  5.570109E+04  9.865734E+03 -7.077032E+03
       125   9  4.121710E+05 -1.167560E+04 -1.559588E+03  6.108909E+04  7.642366E+03 -3.914740E+03
       125  10  6.145983E+05  3.822519E+04  3.536916E+04  6.295024E+04  2.502479E-10 -1.789012E-10
       125  11  5.656028E+05  2.425386E+04  2.265416E+04  5.756229E+04  7.476066E-11 -8.538492E-11
       125  12  5.178364E+05  1.252410E+04  1.383005E+04  6.075501E+04 -2.396845E-10 -6.377694E-11
       125  13  4.649979E+05  3.539667E+03  1.145045E+04  6.092191E+04  1.824812E-11 -2.139489E-11
       125  14  4.645117E+05  9.865271E+02  7.349455E+03  5.663164E+04  3.650192E-10  3.681771E-11
       125  15  4.650023E+05  4.242977E+02  6.135188E+03  6.092207E+04 -3.339270E-10  2.353732E-11
       125  16  3.154197E+05 -3.114696E+04 -1.246885E+04  5.889407E+04  4.729673E-11  8.600036E-11
       125  17  3.634308E+05 -2.228129E+04 -7.955459E+03  5.570115E+04 -2.316927E-11  9.036808E-11
       125  18  4.121709E+05 -1.167563E+04 -1.559726E+03  6.108911E+04  5.017386E-11  8.949906E-11
       125  19  6.145983E+05  3.822529E+04  3.536935E+04  6.295022E+04 -2.764554E+03  9.569830E+03
       125  20  5.656028E+05  2.425391E+04  2.265426E+04  5.756230E+04  2.354736E+03  7.077859E+03
       125  21  5.178365E+05  1.252413E+04  1.383019E+04  6.075504E+04  7.473862E+03  3.916258E+03
       125  22  4.649980E+05  3.539780E+03  1.145072E+04  6.092185E+04 -7.427205E+03  9.569702E+03
       125  23  4.645117E+05  9.865846E+02  7.349576E+03  5.663162E+04 -3.755977E+03  7.077437E+03
       125  24  4.650023E+05  4.243141E+02  6.135216E+03  6.092207E+04 -8.456016E+01  3.915501E+03
       125  25  3.154199E+05 -3.114682E+04 -1.246840E+04  5.889398E+04 -1.208877E+04  9.569604E+03
       125  26  3.634310E+05 -2.228121E+04 -7.955182E+03  5.570109E+04 -9.865734E+03  7.077032E+03
       125  27  4.121710E+05 -1.167560E+04 -1.559588E+03  6.108909E+04 -7.642366E+03  3.914740E+03
       126   1  4.875700E+05  5.551290E+03  9.348373E+03  6.114977E+04 -8.534948E+03 -1.833057E+03
       126   2  4.387241E+05 -4.843875E+03  3.812675E+03  5.554385E+04 -1.165823E+04  1.436861E+03
       126   3  3.908264E+05 -1.308392E+04  8.482820E+02  5.853121E+04 -1.478127E+04  4.250169E+03
       126   4  4.650338E+05  4.355742E+02  6.293765E+03  6.092485E+04 -9.739065E+02 -1.832245E+03
       126   5  4.644743E+05  1.186153E+03  8.224511E+03  5.662814E+04 -5.084434E+03  1.437497E+03
       126   6  4.650317E+05  4.263104E+03  1.341145E+04  6.092457E+04 -9.194951E+03  4.250628E+03
       126   7  4.424983E+05 -4.680133E+03  3.239366E+03  6.069994E+04  6.586873E+03 -1.831438E+03
       126   8  4.902253E+05  7.216174E+03  1.263649E+04  5.771247E+04  1.489624E+03  1.438157E+03
       126   9  5.392425E+05  2.160988E+04  2.597456E+04  6.331823E+04 -3.607984E+03  4.251130E+03
       126  10  4.875700E+05  5.551267E+03  9.348230E+03  6.114976E+04 -1.614693E-10 -2.026948E-11
       126  11  4.387240E+05 -4.843914E+03  3.812415E+03  5.554386E+04  7.356272E-11  7.315344E-13
       126  12  3.908261E+05 -1.308400E+04  8.478377E+02  5.853126E+04  2.759400E-10 -1.693166E-10
       126  13  4.650338E+05  4.355704E+02  6.293756E+03  6.092485E+04 -3.188949E-12  5.445348E-11
       126  14  4.644743E+05  1.186144E+03  8.224458E+03  5.662814E+04 -5.384171E-11 -3.201531E-11
       126  15  4.650316E+05  4.263062E+03  1.341126E+04  6.092460E+04 -1.160200E-11 -1.245361E-10
       126  16  4.424982E+05 -4.680148E+03  3.239278E+03  6.069995E+04  1.318220E-10  6.918591E-11
       126  17  4.902253E+05  7.216171E+03  1.263648E+04  5.771247E+04  1.307751E-10  4.070349E-11
       126  18  5.392424E+05  2.160985E+04  2.597450E+04  6.331824E+04 -2.405599E-10 -2.196099E-11
       126  19  4.875700E+05  5.551290E+03  9.348373E+03  6.114977E+04  8.534948E+03  1.833057E+03
       126  20  4.387241E+05 -4.843875E+03  3.812675E+03  5.554385E+04  1.165823E+04 -1.436861E+03
       126  21  3.908264E+05 -1.308392E+04  8.482820E+02  5.853121E+04  1.478127E+04 -4.250169E+03
       126  22  4.650338E+05  4.355742E+02  6.293765E+03  6.092485E+04  9.739065E+02  1.832245E+03
       126  23  4.644743E+05  1.186153E+03  8.224511E+03  5.662814E+04  5.084434E+03 -1.437497E+03
       126  24  4.650317E+05  4.263104E+03  1.341145E+04  6.092457E+04  9.194951E+03 -4.250628E+03
       126  25  4.424983E+05 -4.680133E+03  3.239366E+03  6.069994E+04 -6.586873E+03  1.831438E+03
       126  26  4.902253E+05  7.216174E+03  1.263649E+04  5.771247E+04 -1.489624E+03 -1.438157E+03
       126  27  5.392425E+05  2.160988E+04  2.597456E+04  6.331823E+04  3.607984E+03 -4.251130E+03
       127   1  3.620014E+05 -1.900837E+04 -4.039003E+02  6.036426E+04 -1.701651E+04  5.915727E+03
       127   2  3.100772E+05 -1.771060E+04  2.093072E+03  3.705588E+04 -2.337205E+04  6.227782E+03
       127   3  2.651782E+05  8.351879E+03  1.491873E+04  2.202781E+04 -2.972718E+04  2.056765E+03
       127   4  4.667163E+05  5.493932E+03  1.744087E+04  6.085458E+04 -1.150057E+04  5.916137E+03
       127   5  4.623578E+05  1.859297E+04  3.138741E+04  5.671406E+04 -2.754694E+04  6.226632E+03
       127   6  4.666991E+05  5.813313E+04  6.238664E+04  6.085228E+04 -4.359344E+04  2.054171E+03
       127   7  5.714420E+05  2.999567E+04  3.528540E+04  6.134499E+04 -5.983726E+03  5.916555E+03
       127   8  6.146615E+05  5.489663E+04  6.068096E+04  7.637717E+04 -3.172282E+04  6.225219E+03
       127   9  6.682611E+05  1.079172E+05  1.098533E+05  9.968941E+04 -5.746418E+04  2.049845E+03
       127  10  3.620010E+05 -1.900848E+04 -4.045100E+02  6.036435E+04 -2.900049E-10 -1.750542E-10
       127  11  3.100766E+05 -1.771079E+04  2.091973E+03  3.705599E+04  5.042245E-11  1.626217E-11
       127  12  2.651772E+05  8.351638E+03  1.491707E+04  2.202786E+04  1.173684E-10  2.047017E-11
       127  13  4.667161E+05  5.493859E+03  1.744056E+04  6.085464E+04  2.196244E-10 -8.898677E-11
       127  14  4.623569E+05  1.859272E+04  3.138592E+04  5.671420E+04 -1.441343E-11 -5.733778E-11
       127  15  4.666971E+05  5.813261E+04  6.238306E+04  6.085235E+04 -5.102434E-11 -1.484778E-11
       127  16  5.714420E+05  2.999562E+04  3.528527E+04  6.134502E+04  3.356711E-10 -9.559332E-11
       127  17  6.146604E+05  5.489632E+04  6.067900E+04  7.637733E+04 -2.097924E-10 -6.912403E-11
       127  18  6.682575E+05  1.079164E+05  1.098471E+05  9.968951E+04  5.015196E-11 -2.488932E-11
       127  19  3.620014E+05 -1.900837E+04 -4.039003E+02  6.036426E+04  1.701651E+04 -5.915727E+03
       127  20  3.100772E+05 -1.771060E+04  2.093072E+03  3.705588E+04  2.337205E+04 -6.227782E+03
       127  21  2.651782E+05  8.351879E+03  1.491873E+04  2.202781E+04  2.972718E+04 -2.056765E+03
       127  22  4.667163E+05  5.493932E+03  1.744087E+04  6.085458E+04  1.150057E+04 -5.916137E+03
       127  23  4.623578E+05  1.859297E+04  3.138741E+04  5.671406E+04  2.754694E+04 -6.226632E+03
       127  24  4.666991E+05  5.813313E+04  6.238664E+04  6.085228E+04  4.359344E+04 -2.054171E+03
       127  25  5.714420E+05  2.999567E+04  3.528540E+04  6.134499E+04  5.983726E+03 -5.916555E+03
       127  26  6.146615E+05  5.489663E+04  6.068096E+04  7.637717E+04  3.172282E+04 -6.225219E+03
       127  27  6.682611E+05  1.079172E+05  1.098533E+05  9.968941E+04  5.746418E+04 -2.049845E+03
       128   1 -1.767470E+05 -5.988278E+05 -1.808329E+05  1.654372E+05 -3.160431E+03 -9.438394E+04
       128   2 -8.721695E+04 -5.113885E+05 -9.987822E+04  1.257576E+05 -9.418493E+03 -5.131757E+04
       128   3 -4.586319E+04 -4.416035E+05 -5.902243E+04  9.954060E+04 -8.772124E+03 -8.244911E+03
       128   4 -9.971647E+04 -2.871646E+05 -1.072764E+05  9.877652E+04 -3.144196E+03 -7.339889E+04
       128   5 -3.191700E+04 -2.796194E+05 -5.513016E+04  9.203057E+04 -9.413508E+03 -4.523164E+04
       128   6 -9.697868E+03 -2.871396E+05 -3.272096E+04  9.875222E+04 -8.775007E+03 -1.706444E+04
       128   7 -2.267589E+04  2.459858E+04 -3.372260E+04  3.208214E+04 -3.132478E+03 -5.240335E+04
       128   8  2.338405E+04 -4.779607E+04 -1.038384E+04  5.829061E+04 -9.409187E+03 -3.914349E+04
       128   9  2.646623E+04 -1.326521E+05 -6.419988E+03  9.796364E+04 -8.777867E+03 -2.588610E+04
       128  10 -1.767494E+05 -5.988373E+05 -1.808496E+05  1.654370E+05 -2.765023E-10  6.257009E-08
       128  11 -8.721775E+04 -5.113913E+05 -9.988334E+04  1.257572E+05 -9.010621E-10 -1.507794E-09
       128  12 -4.586329E+04 -4.416036E+05 -5.902270E+04  9.954054E+04 -3.079243E-10 -6.590917E-08
       128  13 -9.971792E+04 -2.871703E+05 -1.072865E+05  9.877634E+04 -2.189788E-10  5.337011E-11
       128  14 -3.191765E+04 -2.796216E+05 -5.513417E+04  9.203023E+04 -1.390843E-09 -6.504496E-11
       128  15 -9.698029E+03 -2.871399E+05 -3.272165E+04  9.875210E+04 -3.009871E-10  1.061517E-10
       128  16 -2.267664E+04  2.459563E+04 -3.372778E+04  3.208201E+04 -4.576875E-10 -6.262646E-08
       128  17  2.338355E+04 -4.779773E+04 -1.038688E+04  5.829031E+04 -9.276750E-10  1.521149E-09
       128  18  2.646597E+04 -1.326528E+05 -6.421392E+03  9.796346E+04 -4.724198E-10  6.593197E-08
       128  19 -1.767470E+05 -5.988278E+05 -1.808329E+05  1.654372E+05  3.160431E+03  9.438394E+04
       128  20 -8.721695E+04 -5.113885E+05 -9.987822E+04  1.257576E+05  9.418493E+03  5.131757E+04
       128  21 -4.586319E+04 -4.416035E+05 -5.902243E+04  9.954060E+04  8.772124E+03  8.244911E+03
       128  22 -9.971647E+04 -2.871646E+05 -1.072764E+05  9.877652E+04  3.144196E+03  7.339889E+04
       128  23 -3.191700E+04 -2.796194E+05 -5.513016E+04  9.203057E+04  9.413508E+03  4.523164E+04
       128  24 -9.697868E+03 -2.871396E+05 -3.272096E+04  9.875222E+04  8.775007E+03  1.706444E+04
       128  25 -2.267589E+04  2.459858E+04 -3.372260E+04  3.208214E+04  3.132478E+03  5.240335E+04
       128  26  2.338405E+04 -4.779607E+04 -1.038384E+04  5.829061E+04  9.409187E+03  3.914349E+04
       128  27  2.646623E+04 -1.326521E+05 -6.419988E+03  9.796364E+04  8.777867E+03  2.588610E+04
       129   1 -3.219640E+04 -3.893732E+05 -4.452642E+04  1.031737E+05 -6.093743E+03 -3.645510E+03
       129   2 -9.705829E+03 -3.092342E+05 -2.512114E+04  9.218810E+04 -1.894352E+03  7.254287E+03
       129   3  5.905083E+03 -2.322347E+05 -1.453670E+04  9.512348E+04  2.437686E+03  1.815528E+04
       129   4 -7.679455E+03 -2.844780E+05 -2.685969E+04  9.885407E+04 -6.096847E+03 -1.256144E+04
       129   5 -3.661134E+03 -2.829293E+05 -2.121031E+04  9.189314E+04 -1.897657E+03 -1.947763E+03
       129   6 -6.472272E+03 -2.844763E+05 -2.418236E+04  9.885364E+04  2.434312E+03  8.665833E+03
       129   7  1.683703E+04 -1.795717E+05 -9.192999E+03  9.453372E+04 -6.099826E+03 -2.147882E+04
       129   8  2.383574E+03 -2.566236E+05 -1.729917E+04  9.159817E+04 -1.900954E+03 -1.115019E+04
       129   9 -1.884968E+04 -3.367151E+05 -3.382780E+04  1.025835E+05  2.430822E+03 -8.228418E+02
       129  10 -3.219645E+04 -3.893733E+05 -4.452652E+04  1.031736E+05  3.635686E-10 -2.279870E-09
       129  11 -9.705847E+03 -3.092343E+05 -2.512125E+04  9.218811E+04  1.127421E-09 -1.605953E-09
       129  12  5.904988E+03 -2.322351E+05 -1.453733E+04  9.512344E+04  7.958816E-10 -1.269353E-09
       129  13 -7.679537E+03 -2.844782E+05 -2.686006E+04  9.885401E+04  1.200398E-11  4.482389E-11
       129  14 -3.661139E+03 -2.829293E+05 -2.121033E+04  9.189314E+04  7.980801E-10 -7.950603E-11
       129  15 -6.472298E+03 -2.844764E+05 -2.418251E+04  9.885362E+04  8.277938E-10  6.247047E-11
       129  16  1.683686E+04 -1.795722E+05 -9.193936E+03  9.453362E+04  2.484962E-10  2.194545E-09
       129  17  2.383537E+03 -2.566237E+05 -1.729941E+04  9.159815E+04  5.795729E-10  1.606502E-09
       129  18 -1.884969E+04 -3.367151E+05 -3.382781E+04  1.025835E+05  9.833338E-10  1.215744E-09
       129  19 -3.219640E+04 -3.893732E+05 -4.452642E+04  1.031737E+05  6.093743E+03  3.645510E+03
       129  20 -9.705829E+03 -3.092342E+05 -2.512114E+04  9.218810E+04  1.894352E+03 -7.254287E+03
       129  21  5.905083E+03 -2.322347E+05 -1.453670E+04  9.512348E+04 -2.437686E+03 -1.815528E+04
       129  22 -7.679455E+03 -2.844780E+05 -2.685969E+04  9.885407E+04  6.096847E+03  1.256144E+04
       129  23 -3.661134E+03 -2.829293E+05 -2.121031E+04  9.189314E+04  1.897657E+03  1.947763E+03
       129  24 -6.472272E+03 -2.844763E+05 -2.418236E+04  9.885364E+04 -2.434312E+03 -8.665833E+03
       129  25  1.683703E+04 -1.795717E+05 -9.192999E+03  9.453372E+04  6.099826E+03  2.147882E+04
       129  26  2.383574E+03 -2.566236E+05 -1.729917E+04  9.159817E+04  1.900954E+03  1.115019E+04
       129  27 -1.884968E+04 -3.367151E+05 -3.382780E+04  1.025835E+05 -2.430822E+03  8.228418E+02
       130   1  1.587221E+04 -1.848065E+05 -1.037232E+04  9.807220E+04  5.237019E+03  2.208907E+04
       130   2  1.660486E+04 -1.010356E+05 -1.072921E+04  6.410671E+04  6.697864E+03  3.314452E+04
       130   3 -1.816412E+04 -2.757379E+04 -2.715975E+04  4.369595E+04  2.360704E+03  4.420210E+04
       130   4 -8.103123E+03 -2.865658E+05 -2.846638E+04  9.877179E+04  5.233708E+03  1.267682E+04
       130   5 -2.632712E+04 -2.803285E+05 -4.615422E+04  9.200350E+04  6.700542E+03  3.624719E+04
       130   6 -8.223480E+04 -2.865857E+05 -8.861275E+04  9.879262E+04  2.369564E+03  5.981782E+04
       130   7 -3.207898E+04 -3.883148E+05 -4.656049E+04  9.947126E+04  5.230376E+03  3.266059E+03
       130   8 -6.925812E+04 -4.595889E+05 -8.158036E+04  1.198921E+05  6.703499E+03  3.934899E+04
       130   9 -1.462988E+05 -5.455289E+05 -1.500679E+05  1.538662E+05  2.381199E+03  7.542705E+04
       130  10  1.587205E+04 -1.848071E+05 -1.037329E+04  9.807211E+04  9.097282E-10 -1.030485E-09
       130  11  1.660452E+04 -1.010368E+05 -1.073136E+04  6.410653E+04  5.309496E-10 -8.650932E-10
       130  12 -1.816465E+04 -2.757589E+04 -2.716343E+04  4.369587E+04  2.660901E-10 -8.287046E-10
       130  13 -8.103195E+03 -2.865660E+05 -2.846673E+04  9.877174E+04  8.912557E-10  4.439411E-11
       130  14 -2.632752E+04 -2.803299E+05 -4.615678E+04  9.200331E+04  5.203806E-10 -2.040703E-10
       130  15 -8.223576E+04 -2.865895E+05 -8.861948E+04  9.879251E+04  1.390024E-10  4.192820E-12
       130  16 -3.207901E+04 -3.883149E+05 -4.656056E+04  9.947125E+04  7.824943E-10  9.298324E-10
       130  17 -6.925858E+04 -4.595906E+05 -8.158336E+04  1.198918E+05  5.369211E-10  8.126996E-10
       130  18 -1.463003E+05 -5.455350E+05 -1.500786E+05  1.538660E+05  3.481114E-11  8.235958E-10
       130  19  1.587221E+04 -1.848065E+05 -1.037232E+04  9.807220E+04 -5.237019E+03 -2.208907E+04
       130  20  1.660486E+04 -1.010356E+05 -1.072921E+04  6.410671E+04 -6.697864E+03 -3.314452E+04
       130  21 -1.816412E+04 -2.757379E+04 -2.715975E+04  4.369595E+04 -2.360704E+03 -4.420210E+04
       130  22 -8.103123E+03 -2.865658E+05 -2.846638E+04  9.877179E+04 -5.233708E+03 -1.267682E+04
       130  23 -2.632712E+04 -2.803285E+05 -4.615422E+04  9.200350E+04 -6.700542E+03 -3.624719E+04
       130  24 -8.223480E+04 -2.865857E+05 -8.861275E+04  9.879262E+04 -2.369564E+03 -5.981782E+04
       130  25 -3.207898E+04 -3.883148E+05 -4.656049E+04  9.947126E+04 -5.230376E+03 -3.266059E+03
       130  26 -6.925812E+04 -4.595889E+05 -8.158036E+04  1.198921E+05 -6.703499E+03 -3.934899E+04
       130  27 -1.462988E+05 -5.455289E+05 -1.500679E+05  1.538662E+05 -2.381199E+03 -7.542705E+04
       131   1  2.340311E+05  1.558897E+05  2.860854E+04  1.666556E+05  2.202016E+04  1.780554E+04
       131   2  2.471009E+05  1.305087E+05  1.111599E+04  1.825606E+05  1.388363E+04  1.450352E+04
       131   3  2.744439E+05  1.176958E+05  4.296665E+03  1.907502E+05  6.970742E+03  9.568792E+03
       131   4  3.318568E+05  1.739228E+05  5.037451E+04  1.914686E+05  2.766066E+04  2.203278E+04
       131   5  3.166913E+05  1.536472E+05  2.523294E+04  2.055345E+05  1.599386E+04  1.608499E+04
       131   6  3.165612E+05  1.467035E+05  1.382521E+04  2.118850E+05  5.551320E+03  8.504565E+03
       131   7  4.296967E+05  1.919575E+05  7.214113E+04  2.162843E+05  3.330256E+04  2.626017E+04
       131   8  3.862875E+05  1.767864E+05  3.934981E+04  2.285104E+05  1.810443E+04  1.766655E+04
       131   9  3.586796E+05  1.757115E+05  2.335333E+04  2.330210E+05  4.131800E+03  7.440268E+03
       131  10  2.340305E+05  1.558892E+05  2.860704E+04  1.666553E+05 -9.652168E-11 -4.200771E-12
       131  11  2.471007E+05  1.305084E+05  1.111523E+04  1.825604E+05  4.292517E-11  4.238354E-11
       131  12  2.744438E+05  1.176957E+05  4.296402E+03  1.907501E+05  3.805868E-10  3.988075E-11
       131  13  3.318558E+05  1.739221E+05  5.037217E+04  1.914681E+05 -7.945001E-13  5.984787E-11
       131  14  3.166909E+05  1.536469E+05  2.523197E+04  2.055343E+05  2.180416E-10  5.221652E-11
       131  15  3.165611E+05  1.467034E+05  1.382501E+04  2.118850E+05  1.932788E-10  1.229711E-10
       131  16  4.296953E+05  1.919565E+05  7.213776E+04  2.162836E+05  2.947670E-10  3.041706E-11
       131  17  3.862871E+05  1.767860E+05  3.934861E+04  2.285101E+05 -2.410678E-10  1.241998E-10
       131  18  3.586796E+05  1.757114E+05  2.335320E+04  2.330210E+05  9.082221E-12  2.124932E-10
       131  19  2.340311E+05  1.558897E+05  2.860854E+04  1.666556E+05 -2.202016E+04 -1.780554E+04
       131  20  2.471009E+05  1.305087E+05  1.111599E+04  1.825606E+05 -1.388363E+04 -1.450352E+04
       131  21  2.744439E+05  1.176958E+05  4.296665E+03  1.907502E+05 -6.970742E+03 -9.568792E+03
       131  22  3.318568E+05  1.739228E+05  5.037451E+04  1.914686E+05 -2.766066E+04 -2.203278E+04
       131  23  3.166913E+05  1.536472E+05  2.523294E+04  2.055345E+05 -1.599386E+04 -1.608499E+04
       131  24  3.165612E+05  1.467035E+05  1.382521E+04  2.118850E+05 -5.551320E+03 -8.504565E+03
       131  25  4.296967E+05  1.919575E+05  7.214113E+04  2.162843E+05 -3.330256E+04 -2.626017E+04
       131  26  3.862875E+05  1.767864E+05  3.934981E+04  2.285104E+05 -1.810443E+04 -1.766655E+04
       131  27  3.586796E+05  1.757115E+05  2.335333E+04  2.330210E+05 -4.131800E+03 -7.440268E+03
       132   1  2.798422E+05  1.236804E+05  2.939477E+03  1.950680E+05  5.885672E+03  8.057412E+03
       132   2  2.909352E+05  1.314447E+05  1.519115E+03  2.027113E+05  4.484474E+03  5.810044E+03
       132   3  3.061100E+05  1.375544E+05  2.126751E+03  2.090265E+05  3.229008E+03  3.368201E+03
       132   4  3.153542E+05  1.455409E+05  1.047235E+04  2.116937E+05  4.440309E+03  6.973735E+03
       132   5  3.126827E+05  1.452811E+05  5.988752E+03  2.131393E+05  2.618694E+03  4.411214E+03
       132   6  3.141839E+05  1.434576E+05  3.897682E+03  2.132568E+05  9.428419E+02  1.654228E+03
       132   7  3.508678E+05  1.674020E+05  1.800519E+04  2.283204E+05  2.994834E+03  5.889987E+03
       132   8  3.344311E+05  1.591178E+05  1.045848E+04  2.235679E+05  7.528035E+02  3.012310E+03
       132   9  3.222582E+05  1.493610E+05  5.668708E+03  2.174872E+05 -1.343416E+03 -5.981482E+01
       132  10  2.798421E+05  1.236803E+05  2.939290E+03  1.950680E+05  4.675249E-10  3.027409E-10
       132  11  2.909351E+05  1.314447E+05  1.519014E+03  2.027112E+05  6.263276E-10  1.810967E-10
       132  12  3.061099E+05  1.375544E+05  2.126710E+03  2.090265E+05  6.614256E-10  6.737505E-11
       132  13  3.153542E+05  1.455408E+05  1.047222E+04  2.116937E+05  9.159830E-11  3.217431E-11
       132  14  3.126827E+05  1.452810E+05  5.988702E+03  2.131393E+05  2.757219E-10 -3.029060E-11
       132  15  3.141839E+05  1.434576E+05  3.897675E+03  2.132568E+05  3.001993E-10 -2.398888E-10
       132  16  3.508678E+05  1.674019E+05  1.800510E+04  2.283204E+05 -2.095185E-10 -8.615319E-11
       132  17  3.344311E+05  1.591178E+05  1.045846E+04  2.235679E+05 -5.550690E-10 -3.190351E-10
       132  18  3.222582E+05  1.493610E+05  5.668705E+03  2.174871E+05 -4.834324E-10 -4.549713E-10
       132  19  2.798422E+05  1.236804E+05  2.939477E+03  1.950680E+05 -5.885672E+03 -8.057412E+03
       132  20  2.909352E+05  1.314447E+05  1.519115E+03  2.027113E+05 -4.484474E+03 -5.810044E+03
       132  21  3.061100E+05  1.375544E+05  2.126751E+03  2.090265E+05 -3.229008E+03 -3.368201E+03
       132  22  3.153542E+05  1.455409E+05  1.047235E+04  2.116937E+05 -4.440309E+03 -6.973735E+03
       132  23  3.126827E+05  1.452811E+05  5.988752E+03  2.131393E+05 -2.618694E+03 -4.411214E+03
       132  24  3.141839E+05  1.434576E+05  3.897682E+03  2.132568E+05 -9.428419E+02 -1.654228E+03
       132  25  3.508678E+05  1.674020E+05  1.800519E+04  2.283204E+05 -2.994834E+03 -5.889987E+03
       132  26  3.344311E+05  1.591178E+05  1.045848E+04  2.235679E+05 -7.528035E+02 -3.012310E+03
       132  27  3.222582E+05  1.493610E+05  5.668708E+03  2.174872E+05  1.343416E+03  5.981482E+01
       133   1  3.137767E+05  1.432556E+05  3.262745E+03  2.131232E+05  3.198100E+03  2.369356E+03
       133   2  3.248898E+05  1.534978E+05  5.534392E+03  2.200602E+05  2.737321E+03  3.761770E+02
       133   3  3.393167E+05  1.610362E+05  8.905078E+03  2.260977E+05  2.270211E+03 -1.608563E+03
       133   4  3.140881E+05  1.433741E+05  3.379258E+03  2.132241E+05  9.092304E+02  6.533588E+02
       133   5  3.124441E+05  1.447474E+05  3.107387E+03  2.136591E+05  4.666972E+02 -1.326145E+03
       133   6  3.141099E+05  1.434131E+05  3.918858E+03  2.131945E+05  1.785496E+01 -3.297202E+03
       133   7  3.143996E+05  1.434926E+05  3.495800E+03  2.133251E+05 -1.379587E+03 -1.062600E+03
       133   8  2.999988E+05  1.359972E+05  6.804611E+02  2.072582E+05 -1.803839E+03 -3.028401E+03
       133   9  2.889040E+05  1.257905E+05 -1.067342E+03  2.002920E+05 -2.234378E+03 -4.985749E+03
       133  10  3.137766E+05  1.432555E+05  3.262715E+03  2.131232E+05  9.661920E-10  5.246044E-11
       133  11  3.248898E+05  1.534978E+05  5.534378E+03  2.200602E+05  1.292946E-09  1.127169E-10
       133  12  3.393167E+05  1.610362E+05  8.905064E+03  2.260977E+05  1.573070E-09  2.788369E-10
       133  13  3.140881E+05  1.433741E+05  3.379256E+03  2.132241E+05  4.289931E-10 -2.591934E-10
       133  14  3.124441E+05  1.447474E+05  3.107383E+03  2.136591E+05  1.967141E-10 -3.605985E-10
       133  15  3.141099E+05  1.434131E+05  3.918838E+03  2.131945E+05  7.273836E-10 -5.102494E-10
       133  16  3.143996E+05  1.434926E+05  3.495794E+03  2.133251E+05 -3.116064E-10 -5.672807E-10
       133  17  2.999988E+05  1.359972E+05  6.804378E+02  2.072582E+05 -3.583401E-10 -9.054001E-10
       133  18  2.889040E+05  1.257904E+05 -1.067398E+03  2.002920E+05 -4.884586E-10 -1.430795E-09
       133  19  3.137767E+05  1.432556E+05  3.262745E+03  2.131232E+05 -3.198100E+03 -2.369356E+03
       133  20  3.248898E+05  1.534978E+05  5.534392E+03  2.200602E+05 -2.737321E+03 -3.761770E+02
       133  21  3.393167E+05  1.610362E+05  8.905078E+03  2.260977E+05 -2.270211E+03  1.608563E+03
       133  22  3.140881E+05  1.433741E+05  3.379258E+03  2.132241E+05 -9.092304E+02 -6.533588E+02
       133  23  3.124441E+05  1.447474E+05  3.107387E+03  2.136591E+05 -4.666972E+02  1.326145E+03
       133  24  3.141099E+05  1.434131E+05  3.918858E+03  2.131945E+05 -1.785496E+01  3.297202E+03
       133  25  3.143996E+05  1.434926E+05  3.495800E+03  2.133251E+05  1.379587E+03  1.062600E+03
       133  26  2.999988E+05  1.359972E+05  6.804611E+02  2.072582E+05  1.803839E+03  3.028401E+03
       133  27  2.889040E+05  1.257905E+05 -1.067342E+03  2.002920E+05  2.234378E+03  4.985749E+03
       134   1  3.471730E+05  1.669890E+05  1.141226E+04  2.302949E+05  2.133298E+03 -2.674849E+03
       134   2  3.596935E+05  1.765216E+05  1.719138E+04  2.360808E+05 -8.600291E+02 -6.337222E+03
       134   3  3.768858E+05  1.850933E+05  2.658088E+04  2.403833E+05 -4.052312E+03 -9.734594E+03
       134   4  3.142477E+05  1.435293E+05  4.757171E+03  2.132481E+05 -1.153170E+02 -4.360714E+03
       134   5  3.127543E+05  1.454613E+05  7.747345E+03  2.129471E+05 -2.535346E+03 -7.593344E+03
       134   6  3.158082E+05  1.463080E+05  1.385080E+04  2.111625E+05 -5.154155E+03 -1.056083E+04
       134   7  2.813229E+05  1.200698E+05 -1.898191E+03  1.962020E+05 -2.363824E+03 -6.046496E+03
       134   8  2.658177E+05  1.144023E+05 -1.696751E+03  1.898155E+05 -4.210494E+03 -8.849348E+03
       134   9  2.547364E+05  1.075254E+05  1.121043E+03  1.819455E+05 -6.255828E+03 -1.138695E+04
       134  10  3.471730E+05  1.669890E+05  1.141224E+04  2.302949E+05 -1.145563E-08 -9.597720E-09
       134  11  3.596935E+05  1.765216E+05  1.719131E+04  2.360808E+05  2.487280E-08  1.832305E-08
       134  12  3.768858E+05  1.850932E+05  2.658067E+04  2.403833E+05  5.500341E-08  4.295822E-08
       134  13  3.142477E+05  1.435293E+05  4.757135E+03  2.132481E+05  9.886215E-10 -2.026364E-11
       134  14  3.127543E+05  1.454613E+05  7.747225E+03  2.129471E+05 -2.020420E-10  4.494466E-10
       134  15  3.158081E+05  1.463078E+05  1.385054E+04  2.111624E+05 -4.283579E-09 -1.480501E-09
       134  16  2.813229E+05  1.200697E+05 -1.898270E+03  1.962020E+05  1.325730E-08  9.571074E-09
       134  17  2.658177E+05  1.144022E+05 -1.696931E+03  1.898154E+05 -2.513130E-08 -1.740586E-08
       134  18  2.547363E+05  1.075252E+05  1.120726E+03  1.819455E+05 -6.395447E-08 -4.590121E-08
       134  19  3.471730E+05  1.669890E+05  1.141226E+04  2.302949E+05 -2.133298E+03  2.674849E+03
       134  20  3.596935E+05  1.765216E+05  1.719138E+04  2.360808E+05  8.600291E+02  6.337222E+03
       134  21  3.768858E+05  1.850933E+05  2.658088E+04  2.403833E+05  4.052312E+03  9.734594E+03
       134  22  3.142477E+05  1.435293E+05  4.757171E+03  2.132481E+05  1.153170E+02  4.360714E+03
       134  23  3.127543E+05  1.454613E+05  7.747345E+03  2.129471E+05  2.535346E+03  7.593344E+03
       134  24  3.158082E+05  1.463080E+05  1.385080E+04  2.111625E+05  5.154155E+03  1.056083E+04
       134  25  2.813229E+05  1.200698E+05 -1.898191E+03  1.962020E+05  2.363824E+03  6.046496E+03
       134  26  2.658177E+05  1.144023E+05 -1.696751E+03  1.898155E+05  4.210494E+03  8.849348E+03
       134  27  2.547364E+05  1.075254E+05  1.121043E+03  1.819455E+05  6.255828E+03  1.138695E+04
       135   1  3.846612E+05  1.943251E+05  3.323367E+04  2.452996E+05 -5.720677E+03 -1.157045E+04
       135   2  4.177909E+05  1.922614E+05  5.388107E+04  2.369295E+05 -2.472376E+04 -2.486517E+04
       135   3  4.710270E+05  2.100589E+05  9.700155E+04  2.185464E+05 -4.538326E+04 -3.595263E+04
       135   4  3.174213E+05  1.478617E+05  1.836878E+04  2.114208E+05 -6.787564E+03 -1.237047E+04
       135   5  3.181043E+05  1.566291E+05  3.366643E+04  2.027897E+05 -2.101794E+04 -2.208817E+04
       135   6  3.378591E+05  1.842251E+05  6.729915E+04  1.841454E+05 -3.690341E+04 -2.959921E+04
       135   7  2.501867E+05  1.014010E+05  3.503642E+03  1.775462E+05 -7.854298E+03 -1.317038E+04
       135   8  2.184285E+05  1.209979E+05  1.345127E+04  1.686540E+05 -1.731290E+04 -1.931136E+04
       135   9  2.047104E+05  1.583928E+05  3.759627E+04  1.497477E+05 -2.842595E+04 -2.324580E+04
       135  10  3.846612E+05  1.943249E+05  3.323336E+04  2.452995E+05 -6.370113E-08 -4.540862E-08
       135  11  4.177901E+05  1.922606E+05  5.387876E+04  2.369290E+05 -2.481484E-08 -1.697469E-08
       135  12  4.710245E+05  2.100569E+05  9.699526E+04  2.185451E+05  1.304634E-08  1.035579E-08
       135  13  3.174213E+05  1.478615E+05  1.836840E+04  2.114207E+05 -4.399622E-09 -1.436529E-09
       135  14  3.181037E+05  1.566285E+05  3.366468E+04  2.027893E+05 -1.488776E-11  5.468364E-10
       135  15  3.378574E+05  1.842238E+05  6.729495E+04  1.841445E+05  3.557085E-10  4.840900E-10
       135  16  2.501866E+05  1.014008E+05  3.503200E+03  1.775461E+05  5.454188E-08  4.244371E-08
       135  17  2.184281E+05  1.209974E+05  1.345001E+04  1.686537E+05  2.406234E-08  1.815709E-08
       135  18  2.047094E+05  1.583920E+05  3.759373E+04  1.497471E+05 -1.244065E-08 -9.403601E-09
       135  19  3.846612E+05  1.943251E+05  3.323367E+04  2.452996E+05  5.720677E+03  1.157045E+04
       135  20  4.177909E+05  1.922614E+05  5.388107E+04  2.369295E+05  2.472376E+04  2.486517E+04
       135  21  4.710270E+05  2.100589E+05  9.700155E+04  2.185464E+05  4.538326E+04  3.595263E+04
       135  22  3.174213E+05  1.478617E+05  1.836878E+04  2.114208E+05  6.787564E+03  1.237047E+04
       135  23  3.181043E+05  1.566291E+05  3.366643E+04  2.027897E+05  2.101794E+04  2.208817E+04
       135  24  3.378591E+05  1.842251E+05  6.729915E+04  1.841454E+05  3.690341E+04  2.959921E+04
       135  25  2.501867E+05  1.014010E+05  3.503642E+03  1.775462E+05  7.854298E+03  1.317038E+04
       135  26  2.184285E+05  1.209979E+05  1.345127E+04  1.686540E+05  1.731290E+04  1.931136E+04
       135  27  2.047104E+05  1.583928E+05  3.759627E+04  1.497477E+05  2.842595E+04  2.324580E+04
       136   1  5.421087E+05  8.130179E+04  8.213183E+04  6.441654E+04  4.295346E+04 -1.886059E+03
       136   2  5.085147E+05  4.515122E+04  4.728981E+04  4.864319E+04  2.394647E+04 -6.023525E+03
       136   3  4.823074E+05  2.865183E+04  2.972802E+04  3.791128E+04  4.940575E+03 -6.515854E+03
       136   4  3.754725E+05  4.019500E+04  4.314975E+04  3.755712E+04  3.007085E+04 -1.888089E+03
       136   5  3.724669E+05  1.285011E+04  2.176741E+04  3.503700E+04  1.894364E+04 -6.024301E+03
       136   6  3.754820E+05  3.791305E+03  1.219836E+04  3.755783E+04  7.816538E+03 -6.515818E+03
       136   7  2.088638E+05 -9.109661E+02  4.166784E+03  1.070495E+04  1.719167E+04 -1.889006E+03
       136   8  2.364373E+05 -1.945137E+04 -3.755604E+03  2.143387E+04  1.394187E+04 -6.024858E+03
       136   9  2.686680E+05 -2.106980E+04 -5.331609E+03  3.720444E+04  1.069202E+04 -6.515785E+03
       136  10  5.421068E+05  8.130129E+04  8.212836E+04  6.441661E+04 -2.038155E-10  2.153179E-11
       136  11  5.085141E+05  4.515103E+04  4.728867E+04  4.864331E+04 -1.578209E-10  3.564073E-11
       136  12  4.823073E+05  2.865177E+04  2.972789E+04  3.791131E+04  1.701479E-11 -2.873727E-11
       136  13  3.754716E+05  4.019475E+04  4.314804E+04  3.755717E+04 -1.478290E-10 -7.450789E-12
       136  14  3.724665E+05  1.284997E+04  2.176667E+04  3.503710E+04 -3.048591E-10 -3.178916E-11
       136  15  3.754819E+05  3.791243E+03  1.219816E+04  3.755787E+04  7.751163E-12 -3.227356E-11
       136  16  2.088635E+05 -9.110492E+02  4.166223E+03  1.070497E+04 -1.026354E-10 -3.601608E-11
       136  17  2.364371E+05 -1.945146E+04 -3.756037E+03  2.143394E+04  2.427250E-11 -1.007612E-10
       136  18  2.686678E+05 -2.106987E+04 -5.331904E+03  3.720450E+04 -8.484883E-11 -3.976568E-11
       136  19  5.421087E+05  8.130179E+04  8.213183E+04  6.441654E+04 -4.295346E+04  1.886059E+03
       136  20  5.085147E+05  4.515122E+04  4.728981E+04  4.864319E+04 -2.394647E+04  6.023525E+03
       136  21  4.823074E+05  2.865183E+04  2.972802E+04  3.791128E+04 -4.940575E+03  6.515854E+03
       136  22  3.754725E+05  4.019500E+04  4.314975E+04  3.755712E+04 -3.007085E+04  1.888089E+03
       136  23  3.724669E+05  1.285011E+04  2.176741E+04  3.503700E+04 -1.894364E+04  6.024301E+03
       136  24  3.754820E+05  3.791305E+03  1.219836E+04  3.755783E+04 -7.816538E+03  6.515818E+03
       136  25  2.088638E+05 -9.109661E+02  4.166784E+03  1.070495E+04 -1.719167E+04  1.889006E+03
       136  26  2.364373E+05 -1.945137E+04 -3.755604E+03  2.143387E+04 -1.394187E+04  6.024858E+03
       136  27  2.686680E+05 -2.106980E+04 -5.331609E+03  3.720444E+04 -1.069202E+04  6.515785E+03
       137   1  4.622495E+05  2.333643E+04  2.356469E+04  3.929229E+04  3.260096E+03 -5.596258E+03
       137   2  4.319034E+05  1.417103E+04  1.484066E+04  3.573354E+04 -6.197381E+02 -4.038598E+03
       137   3  4.025121E+05  6.800670E+03  9.090016E+03  3.747331E+04 -4.499446E+03 -2.079957E+03
       137   4  3.743230E+05  2.939205E+03  9.463815E+03  3.761518E+04  6.193175E+03 -5.596172E+03
       137   5  3.739222E+05  8.181830E+02  6.031355E+03  3.496600E+04  3.180219E+03 -4.038391E+03
       137   6  3.743249E+05  3.419385E+02  4.970832E+03  3.761532E+04  1.672152E+02 -2.079621E+03
       137   7  2.864043E+05 -1.745839E+04 -4.637228E+03  3.593832E+04  9.125854E+03 -5.596102E+03
       137   8  3.159443E+05 -1.253482E+04 -2.777967E+03  3.419853E+04  6.979836E+03 -4.038194E+03
       137   9  3.461386E+05 -6.116817E+03  8.517165E+02  3.775733E+04  4.833673E+03 -2.079283E+03
       137  10  4.622495E+05  2.333639E+04  2.356461E+04  3.929231E+04  1.466456E-10 -2.169217E-11
       137  11  4.319034E+05  1.417102E+04  1.484063E+04  3.573353E+04  2.154178E-10  2.367275E-11
       137  12  4.025121E+05  6.800659E+03  9.089970E+03  3.747330E+04  4.274717E-11 -9.318217E-12
       137  13  3.743230E+05  2.939161E+03  9.463684E+03  3.761521E+04 -5.106562E-11 -1.560234E-11
       137  14  3.739222E+05  8.181628E+02  6.031305E+03  3.496601E+04  2.061672E-10  6.944524E-11
       137  15  3.743249E+05  3.419339E+02  4.970824E+03  3.761532E+04  2.875568E-10  7.560890E-11
       137  16  2.864042E+05 -1.745845E+04 -4.637443E+03  3.593836E+04  1.666384E-10  2.089860E-12
       137  17  3.159442E+05 -1.253485E+04 -2.778089E+03  3.419855E+04  4.467445E-11  2.298889E-11
       137  18  3.461385E+05 -6.116828E+03  8.516644E+02  3.775734E+04  3.737883E-11  1.058925E-10
       137  19  4.622495E+05  2.333643E+04  2.356469E+04  3.929229E+04 -3.260096E+03  5.596258E+03
       137  20  4.319034E+05  1.417103E+04  1.484066E+04  3.573354E+04  6.197381E+02  4.038598E+03
       137  21  4.025121E+05  6.800670E+03  9.090016E+03  3.747331E+04  4.499446E+03  2.079957E+03
       137  22  3.743230E+05  2.939205E+03  9.463815E+03  3.761518E+04 -6.193175E+03  5.596172E+03
       137  23  3.739222E+05  8.181830E+02  6.031355E+03  3.496600E+04 -3.180219E+03  4.038391E+03
       137  24  3.743249E+05  3.419385E+02  4.970832E+03  3.761532E+04 -1.672152E+02  2.079621E+03
       137  25  2.864043E+05 -1.745839E+04 -4.637228E+03  3.593832E+04 -9.125854E+03  5.596102E+03
       137  26  3.159443E+05 -1.253482E+04 -2.777967E+03  3.419853E+04 -6.979836E+03  4.038194E+03
       137  27  3.461386E+05 -6.116817E+03  8.517165E+02  3.775733E+04 -4.833673E+03  2.079283E+03
       138   1  3.838245E+05  2.494548E+03  6.317373E+03  3.779188E+04 -5.355191E+03 -7.936168E+02
       138   2  3.535711E+05 -3.803257E+03  3.177879E+03  3.410650E+04 -7.988285E+03  1.219116E+03
       138   3  3.240944E+05 -8.370495E+03  2.184735E+03  3.572623E+04 -1.062121E+04  2.937398E+03
       138   4  3.743433E+05  3.483336E+02  5.063508E+03  3.761677E+04 -6.871643E+02 -7.932626E+02
       138   5  3.738998E+05  9.339042E+02  6.542693E+03  3.496418E+04 -3.956796E+03  1.219387E+03
       138   6  3.743420E+05  3.360344E+03  1.060978E+04  3.761661E+04 -7.226371E+03  2.937582E+03
       138   7  3.648622E+05 -1.797873E+03  3.809725E+03  3.744167E+04  3.980794E+03 -7.929109E+02
       138   8  3.942289E+05  5.671056E+03  9.907555E+03  3.582189E+04  7.482012E+01  1.219669E+03
       138   9  4.245922E+05  1.509107E+04  1.903479E+04  3.950715E+04 -3.831262E+03  2.937786E+03
       138  10  3.838245E+05  2.494540E+03  6.317318E+03  3.779188E+04  1.705166E-12 -2.725187E-11
       138  11  3.535710E+05 -3.803276E+03  3.177756E+03  3.410651E+04 -3.593553E-11  7.642007E-11
       138  12  3.240943E+05 -8.370534E+03  2.184507E+03  3.572625E+04 -9.690756E-11  3.043034E-11
       138  13  3.743433E+05  3.483328E+02  5.063506E+03  3.761677E+04  1.280946E-10  2.635701E-11
       138  14  3.738998E+05  9.338984E+02  6.542660E+03  3.496418E+04  6.639175E-14 -3.015282E-12
       138  15  3.743420E+05  3.360321E+03  1.060966E+04  3.761663E+04  3.881389E-11  2.208775E-11
       138  16  3.648622E+05 -1.797878E+03  3.809694E+03  3.744167E+04  1.108375E-10  8.745602E-11
       138  17  3.942289E+05  5.671054E+03  9.907553E+03  3.582189E+04  2.532945E-10  3.195862E-11
       138  18  4.245922E+05  1.509106E+04  1.903475E+04  3.950716E+04  9.285398E-11  3.650926E-11
       138  19  3.838245E+05  2.494548E+03  6.317373E+03  3.779188E+04  5.355191E+03  7.936168E+02
       138  20  3.535711E+05 -3.803257E+03  3.177879E+03  3.410650E+04  7.988285E+03 -1.219116E+03
       138  21  3.240944E+05 -8.370495E+03  2.184735E+03  3.572623E+04  1.062121E+04 -2.937398E+03
       138  22  3.743433E+05  3.483336E+02  5.063508E+03  3.761677E+04  6.871643E+02  7.932626E+02
       138  23  3.738998E+05  9.339042E+02  6.542693E+03  3.496418E+04  3.956796E+03 -1.219387E+03
       138  24  3.743420E+05  3.360344E+03  1.060978E+04  3.761661E+04  7.226371E+03 -2.937582E+03
       138  25  3.648622E+05 -1.797873E+03  3.809725E+03  3.744167E+04 -3.980794E+03  7.929109E+02
       138  26  3.942289E+05  5.671056E+03  9.907555E+03  3.582189E+04 -7.482012E+01 -1.219669E+03
       138  27  4.245922E+05  1.509107E+04  1.903479E+04  3.950715E+04  3.831262E+03 -2.937786E+03
       139   1  3.065785E+05 -1.182200E+04  2.076163E+03  3.718401E+04 -1.239969E+04  3.954393E+03
       139   2  2.737918E+05 -8.789314E+03  5.900330E+03  1.951168E+04 -1.888036E+04  4.075002E+03
       139   3  2.467975E+05  1.403187E+04  1.888981E+04  6.942615E+03 -2.536084E+04  1.335215E+03
       139   4  3.756702E+05  4.331889E+03  1.378018E+04  3.757166E+04 -9.049686E+03  3.954563E+03
       139   5  3.722339E+05  1.466707E+04  2.477072E+04  3.501948E+04 -2.171299E+04  4.074338E+03
       139   6  3.756604E+05  4.586106E+04  4.921729E+04  3.757022E+04 -3.437663E+04  1.333612E+03
       139   7  4.447666E+05  2.048553E+04  2.548408E+04  3.795935E+04 -5.699321E+03  3.954738E+03
       139   8  4.706859E+05  3.812379E+04  4.364083E+04  5.052980E+04 -2.454606E+04  4.073534E+03
       139   9  5.045409E+05  7.769263E+04  7.954443E+04  6.820421E+04 -4.339427E+04  1.331119E+03
       139  10  3.065783E+05 -1.182205E+04  2.075845E+03  3.718405E+04 -2.209235E-11  2.798697E-11
       139  11  2.737914E+05 -8.789428E+03  5.899629E+03  1.951174E+04  2.647752E-11  7.758936E-12
       139  12  2.467968E+05  1.403170E+04  1.888860E+04  6.942643E+03 -1.101123E-10  4.756255E-12
       139  13  3.756701E+05  4.331850E+03  1.377999E+04  3.757169E+04  2.625264E-10  7.803762E-11
       139  14  3.722334E+05  1.466693E+04  2.476981E+04  3.501955E+04 -7.178698E-11  5.361771E-11
       139  15  3.756592E+05  4.586074E+04  4.921507E+04  3.757026E+04  3.532062E-11  4.149554E-12
       139  16  4.447665E+05  2.048550E+04  2.548399E+04  3.795937E+04 -4.311917E-11  5.725096E-11
       139  17  4.706852E+05  3.812361E+04  4.363967E+04  5.052988E+04 -2.409109E-11  5.068236E-11
       139  18  5.045389E+05  7.769213E+04  7.954089E+04  6.820426E+04 -8.724292E-11  2.710014E-12
       139  19  3.065785E+05 -1.182200E+04  2.076163E+03  3.718401E+04  1.239969E+04 -3.954393E+03
       139  20  2.737918E+05 -8.789314E+03  5.900330E+03  1.951168E+04  1.888036E+04 -4.075002E+03
       139  21  2.467975E+05  1.403187E+04  1.888981E+04  6.942615E+03  2.536084E+04 -1.335215E+03
       139  22  3.756702E+05  4.331889E+03  1.378018E+04  3.757166E+04  9.049686E+03 -3.954563E+03
       139  23  3.722339E+05  1.466707E+04  2.477072E+04  3.501948E+04  2.171299E+04 -4.074338E+03
       139  24  3.756604E+05  4.586106E+04  4.921729E+04  3.757022E+04  3.437663E+04 -1.333612E+03
       139  25  4.447666E+05  2.048553E+04  2.548408E+04  3.795935E+04  5.699321E+03 -3.954738E+03
       139  26  4.706859E+05  3.812379E+04  4.364083E+04  5.052980E+04  2.454606E+04 -4.073534E+03
       139  27  5.045409E+05  7.769263E+04  7.954443E+04  6.820421E+04  4.339427E+04 -1.331119E+03
       140   1 -1.301068E+05 -4.424686E+05 -1.343540E+05  1.134768E+05 -1.923258E+03 -7.432701E+04
       140   2 -6.042800E+04 -3.896823E+05 -7.361144E+04  8.186436E+04 -5.786952E+03 -4.162301E+04
       140   3 -3.064699E+04 -3.511309E+05 -4.414399E+04  5.806162E+04 -5.510604E+03 -8.915897E+03
       140   4 -8.383744E+04 -2.552304E+05 -9.020756E+04  5.738086E+04 -1.914482E+03 -6.150324E+04
       140   5 -2.685231E+04 -2.488826E+05 -4.652468E+04  5.346891E+04 -5.784261E+03 -3.773655E+04
       140   6 -8.209672E+03 -2.552166E+05 -2.790334E+04  5.736949E+04 -5.511512E+03 -1.396962E+04
       140   7 -3.755863E+04 -6.795287E+04 -4.606122E+04  1.267930E+03 -1.908026E+03 -4.867562E+04
       140   8  6.725259E+03 -1.080619E+05 -1.943834E+04  2.506686E+04 -5.781927E+03 -3.384923E+04
       140   9  1.422717E+04 -1.592932E+05 -1.166288E+04  5.667725E+04 -5.512409E+03 -1.902409E+04
       140  10 -1.301083E+05 -4.424746E+05 -1.343644E+05  1.134766E+05  9.509787E-11  1.260229E-10
       140  11 -6.042851E+04 -3.896842E+05 -7.361476E+04  8.186417E+04 -4.261962E-11  1.571837E-10
       140  12 -3.064704E+04 -3.511310E+05 -4.414420E+04  5.806158E+04  6.343656E-11  1.431076E-10
       140  13 -8.383846E+04 -2.552345E+05 -9.021468E+04  5.738076E+04  4.017529E-11  2.095515E-11
       140  14 -2.685272E+04 -2.488841E+05 -4.652742E+04  5.346873E+04 -2.584313E-11 -4.738174E-11
       140  15 -8.209757E+03 -2.552168E+05 -2.790376E+04  5.736943E+04  2.630954E-10  1.178273E-10
       140  16 -3.755927E+04 -6.795541E+04 -4.606568E+04  1.267855E+03 -4.248570E-11 -1.418995E-10
       140  17  6.724915E+03 -1.080632E+05 -1.944056E+04  2.506670E+04 -1.619634E-10 -2.370674E-10
       140  18  1.422704E+04 -1.592936E+05 -1.166362E+04  5.667716E+04 -3.952416E-11 -1.514600E-10
       140  19 -1.301068E+05 -4.424686E+05 -1.343540E+05  1.134768E+05  1.923258E+03  7.432701E+04
       140  20 -6.042800E+04 -3.896823E+05 -7.361144E+04  8.186436E+04  5.786952E+03  4.162301E+04
       140  21 -3.064699E+04 -3.511309E+05 -4.414399E+04  5.806162E+04  5.510604E+03  8.915897E+03
       140  22 -8.383744E+04 -2.552304E+05 -9.020756E+04  5.738086E+04  1.914482E+03  6.150324E+04
       140  23 -2.685231E+04 -2.488826E+05 -4.652468E+04  5.346891E+04  5.784261E+03  3.773655E+04
       140  24 -8.209672E+03 -2.552166E+05 -2.790334E+04  5.736949E+04  5.511512E+03  1.396962E+04
       140  25 -3.755863E+04 -6.795287E+04 -4.606122E+04  1.267930E+03  1.908026E+03  4.867562E+04
       140  26  6.725259E+03 -1.080619E+05 -1.943834E+04  2.506686E+04  5.781927E+03  3.384923E+04
       140  27  1.422717E+04 -1.592932E+05 -1.166288E+04  5.667725E+04  5.512409E+03  1.902409E+04
       141   1 -2.218896E+04 -3.201190E+05 -3.432773E+04  6.111639E+04 -3.969261E+03 -4.991427E+03
       141   2 -8.208277E+03 -2.730851E+05 -2.201930E+04  5.348975E+04 -1.545821E+03  4.665406E+03
       141   3 -3.351112E+02 -2.288358E+05 -1.752730E+04  5.394969E+04  9.858058E+02  1.432286E+04
       141   4 -6.523500E+03 -2.530082E+05 -2.312467E+04  5.743088E+04 -3.970235E+03 -1.010350E+04
       141   5 -3.279178E+03 -2.516349E+05 -1.883025E+04  5.338740E+04 -1.546906E+03 -6.800536E+02
       141   6 -6.101616E+03 -2.530075E+05 -2.218978E+04  5.743076E+04  9.847171E+02  8.743356E+03
       141   7  9.141788E+03 -1.858929E+05 -1.192165E+04  5.374495E+04 -3.971148E+03 -1.521611E+04
       141   8  1.649915E+03 -2.301841E+05 -1.564110E+04  5.328505E+04 -1.547989E+03 -6.025690E+03
       141   9 -1.186809E+04 -2.771786E+05 -2.685216E+04  6.091170E+04  9.835658E+02  3.164067E+03
       141  10 -2.218898E+04 -3.201191E+05 -3.432781E+04  6.111638E+04  1.238078E-10  7.696283E-11
       141  11 -8.208285E+03 -2.730851E+05 -2.201934E+04  5.348975E+04  6.065844E-12  2.310196E-10
       141  12 -3.351674E+02 -2.288360E+05 -1.752769E+04  5.394968E+04  7.231181E-11  2.775973E-10
       141  13 -6.523544E+03 -2.530084E+05 -2.312489E+04  5.743085E+04 -1.418811E-10  6.849594E-11
       141  14 -3.279180E+03 -2.516349E+05 -1.883025E+04  5.338740E+04 -1.362981E-10 -4.430089E-11
       141  15 -6.101637E+03 -2.530076E+05 -2.218992E+04  5.743076E+04  1.458228E-10  1.763591E-10
       141  16  9.141709E+03 -1.858932E+05 -1.192211E+04  5.374490E+04  5.104557E-11 -6.789973E-13
       141  17  1.649903E+03 -2.301842E+05 -1.564117E+04  5.328504E+04 -1.157830E-10 -1.948117E-10
       141  18 -1.186810E+04 -2.771786E+05 -2.685218E+04  6.091170E+04 -6.534350E-11 -3.397139E-10
       141  19 -2.218896E+04 -3.201190E+05 -3.432773E+04  6.111639E+04  3.969261E+03  4.991427E+03
       141  20 -8.208277E+03 -2.730851E+05 -2.201930E+04  5.348975E+04  1.545821E+03 -4.665406E+03
       141  21 -3.351112E+02 -2.288358E+05 -1.752730E+04  5.394969E+04 -9.858058E+02 -1.432286E+04
       141  22 -6.523500E+03 -2.530082E+05 -2.312467E+04  5.743088E+04  3.970235E+03  1.010350E+04
       141  23 -3.279178E+03 -2.516349E+05 -1.883025E+04  5.338740E+04  1.546906E+03  6.800536E+02
       141  24 -6.101616E+03 -2.530075E+05 -2.218978E+04  5.743076E+04 -9.847171E+02 -8.743356E+03
       141  25  9.141788E+03 -1.858929E+05 -1.192165E+04  5.374495E+04  3.971148E+03  1.521611E+04
       141  26  1.649915E+03 -2.301841E+05 -1.564110E+04  5.328505E+04  1.547989E+03  6.025690E+03
       141  27 -1.186809E+04 -2.771786E+05 -2.685216E+04  6.091170E+04 -9.835658E+02 -3.164067E+03
       142   1  4.845496E+03 -2.020873E+05 -1.686941E+04  5.672329E+04  2.626086E+03  1.797440E+04
       142   2 -1.410066E+03 -1.511396E+05 -2.390502E+04  2.708599E+04  3.572197E+03  3.314721E+04
       142   3 -4.203162E+04 -1.107569E+05 -4.941112E+04  5.333527E+03  1.279614E+03  4.832124E+04
       142   4 -7.652267E+03 -2.550160E+05 -2.641770E+04  5.738558E+04  2.624980E+03  1.243765E+04
       142   5 -2.489963E+04 -2.491297E+05 -4.339036E+04  5.344822E+04  3.573927E+03  3.459935E+04
       142   6 -7.773238E+04 -2.550278E+05 -8.369043E+04  5.739675E+04  1.285200E+03  5.676088E+04
       142   7 -2.015017E+04 -3.079420E+05 -3.596598E+04  5.804781E+04  2.623862E+03  6.901366E+03
       142   8 -4.838717E+04 -3.471090E+05 -6.287579E+04  7.980621E+04  3.575780E+03  3.605127E+04
       142   9 -1.134244E+05 -3.992737E+05 -1.179695E+05  1.094478E+05  1.292202E+03  6.519857E+04
       142  10  4.845402E+03 -2.020876E+05 -1.687003E+04  5.672325E+04  7.884253E-11 -3.835777E-11
       142  11 -1.410375E+03 -1.511408E+05 -2.390711E+04  2.708590E+04 -1.197131E-10  1.770407E-10
       142  12 -4.203225E+04 -1.107595E+05 -4.941551E+04  5.333477E+03 -1.489087E-10  2.504346E-10
       142  13 -7.652316E+03 -2.550162E+05 -2.641800E+04  5.738555E+04  3.869156E-11  7.699383E-11
       142  14 -2.489997E+04 -2.491310E+05 -4.339263E+04  5.344812E+04 -1.533319E-10 -1.829871E-11
       142  15 -7.773325E+04 -2.550313E+05 -8.369649E+04  5.739669E+04 -3.926925E-11  7.180939E-11
       142  16 -2.015019E+04 -3.079420E+05 -3.596608E+04  5.804780E+04 -1.173814E-10  8.104531E-11
       142  17 -4.838754E+04 -3.471104E+05 -6.287825E+04  7.980610E+04 -2.235499E-11 -1.728900E-10
       142  18 -1.134256E+05 -3.992782E+05 -1.179775E+05  1.094477E+05  9.724899E-12 -2.244178E-10
       142  19  4.845496E+03 -2.020873E+05 -1.686941E+04  5.672329E+04 -2.626086E+03 -1.797440E+04
       142  20 -1.410066E+03 -1.511396E+05 -2.390502E+04  2.708599E+04 -3.572197E+03 -3.314721E+04
       142  21 -4.203162E+04 -1.107569E+05 -4.941112E+04  5.333527E+03 -1.279614E+03 -4.832124E+04
       142  22 -7.652267E+03 -2.550160E+05 -2.641770E+04  5.738558E+04 -2.624980E+03 -1.243765E+04
       142  23 -2.489963E+04 -2.491297E+05 -4.339036E+04  5.344822E+04 -3.573927E+03 -3.459935E+04
       142  24 -7.773238E+04 -2.550278E+05 -8.369043E+04  5.739675E+04 -1.285200E+03 -5.676088E+04
       142  25 -2.015017E+04 -3.079420E+05 -3.596598E+04  5.804781E+04 -2.623862E+03 -6.901366E+03
       142  26 -4.838717E+04 -3.471090E+05 -6.287579E+04  7.980621E+04 -3.575780E+03 -3.605127E+04
       142  27 -1.134244E+05 -3.992737E+05 -1.179695E+05  1.094478E+05 -1.292202E+03 -6.519857E+04
       143   1  1.682394E+05  1.082415E+05  1.734458E+04  1.210848E+05  1.517617E+04  1.267132E+04
       143   2  1.792250E+05  9.002876E+04  5.301809E+03  1.336511E+05  9.345212E+03  1.116242E+04
       143   3  2.011002E+05  8.097181E+04  7.484966E+02  1.403046E+05  4.681208E+03  8.097339E+03
       143   4  2.560374E+05  1.316145E+05  3.817928E+04  1.466756E+05  2.082109E+04  1.690328E+04
       143   5  2.444298E+05  1.163580E+05  1.911601E+04  1.573685E+05  1.162616E+04  1.287239E+04
       143   6  2.444404E+05  1.109854E+05  1.046011E+04  1.621489E+05  3.598386E+03  7.285370E+03
       143   7  3.438428E+05  1.549878E+05  5.901341E+04  1.722683E+05  2.646701E+04  2.113532E+04
       143   8  3.096389E+05  1.426878E+05  3.292986E+04  1.810878E+05  1.390742E+04  1.458244E+04
       143   9  2.877827E+05  1.410001E+05  2.017161E+04  1.839949E+05  2.515464E+03  6.473327E+03
       143  10  1.682391E+05  1.082413E+05  1.734385E+04  1.210846E+05 -9.830992E-11  1.384747E-11
       143  11  1.792248E+05  9.002860E+04  5.301411E+03  1.336511E+05  3.616821E-11  1.755194E-12
       143  12  2.011002E+05  8.097174E+04  7.483322E+02  1.403046E+05  2.284369E-10 -2.878103E-11
       143  13  2.560369E+05  1.316141E+05  3.817793E+04  1.466753E+05 -1.017995E-10  1.733907E-11
       143  14  2.444296E+05  1.163578E+05  1.911544E+04  1.573684E+05 -4.188639E-10 -1.072545E-11
       143  15  2.444403E+05  1.109854E+05  1.045998E+04  1.621489E+05 -4.934270E-11 -6.625115E-11
       143  16  3.438419E+05  1.549871E+05  5.901126E+04  1.722678E+05 -4.270337E-11 -7.373315E-12
       143  17  3.096386E+05  1.426875E+05  3.292909E+04  1.810876E+05 -3.415648E-11 -9.660133E-11
       143  18  2.877827E+05  1.410001E+05  2.017152E+04  1.839949E+05 -9.559128E-11 -1.824547E-10
       143  19  1.682394E+05  1.082415E+05  1.734458E+04  1.210848E+05 -1.517617E+04 -1.267132E+04
       143  20  1.792250E+05  9.002876E+04  5.301809E+03  1.336511E+05 -9.345212E+03 -1.116242E+04
       143  21  2.011002E+05  8.097181E+04  7.484966E+02  1.403046E+05 -4.681208E+03 -8.097339E+03
       143  22  2.560374E+05  1.316145E+05  3.817928E+04  1.466756E+05 -2.082109E+04 -1.690328E+04
       143  23  2.444298E+05  1.163580E+05  1.911601E+04  1.573685E+05 -1.162616E+04 -1.287239E+04
       143  24  2.444404E+05  1.109854E+05  1.046011E+04  1.621489E+05 -3.598386E+03 -7.285370E+03
       143  25  3.438428E+05  1.549878E+05  5.901341E+04  1.722683E+05 -2.646701E+04 -2.113532E+04
       143  26  3.096389E+05  1.426878E+05  3.292986E+04  1.810878E+05 -1.390742E+04 -1.458244E+04
       143  27  2.877827E+05  1.410001E+05  2.017161E+04  1.839949E+05 -2.515464E+03 -6.473327E+03
       144   1  2.058865E+05  8.599010E+04 -7.555122E+01  1.439175E+05  3.877863E+03  6.943408E+03
       144   2  2.152508E+05  9.276440E+04 -8.447814E+02  1.502840E+05  2.935920E+03  5.290948E+03
       144   3  2.279379E+05  9.801573E+04 -1.637772E+02  1.555707E+05  2.133430E+03  3.452366E+03
       144   4  2.435318E+05  1.100982E+05  7.912368E+03  1.620015E+05  2.770500E+03  6.113036E+03
       144   5  2.413839E+05  1.100273E+05  4.494652E+03  1.631336E+05  1.426304E+03  4.158990E+03
       144   6  2.426454E+05  1.085204E+05  2.875889E+03  1.631857E+05  2.216168E+02  2.018880E+03
       144   7  2.811796E+05  1.342075E+05  1.590052E+04  1.800872E+05  1.663022E+03  5.282586E+03
       144   8  2.675177E+05  1.272905E+05  9.834073E+03  1.759839E+05 -8.339663E+01  3.026974E+03
       144   9  2.573528E+05  1.190249E+05  5.915451E+03  1.708007E+05 -1.690214E+03  5.853793E+02
       144  10  2.058865E+05  8.599005E+04 -7.567003E+01  1.439174E+05  2.556514E-10 -1.530643E-10
       144  11  2.152508E+05  9.276437E+04 -8.448502E+02  1.502840E+05  2.546449E-10  3.503464E-11
       144  12  2.279379E+05  9.801572E+04 -1.638082E+02  1.555707E+05  1.919514E-10  1.058369E-10
       144  13  2.435318E+05  1.100981E+05  7.912284E+03  1.620015E+05  3.217352E-10 -5.081364E-11
       144  14  2.413839E+05  1.100272E+05  4.494615E+03  1.631336E+05  2.068155E-10  5.874556E-11
       144  15  2.426454E+05  1.085204E+05  2.875881E+03  1.631857E+05  2.580814E-10 -1.738548E-11
       144  16  2.811796E+05  1.342075E+05  1.590046E+04  1.800872E+05  6.170417E-11  5.735343E-11
       144  17  2.675177E+05  1.272905E+05  9.834055E+03  1.759839E+05  2.133362E-11  4.152612E-11
       144  18  2.573528E+05  1.190249E+05  5.915445E+03  1.708007E+05 -1.342350E-10 -1.629954E-10
       144  19  2.058865E+05  8.599010E+04 -7.555122E+01  1.439175E+05 -3.877863E+03 -6.943408E+03
       144  20  2.152508E+05  9.276440E+04 -8.447814E+02  1.502840E+05 -2.935920E+03 -5.290948E+03
       144  21  2.279379E+05  9.801573E+04 -1.637772E+02  1.555707E+05 -2.133430E+03 -3.452366E+03
       144  22  2.435318E+05  1.100982E+05  7.912368E+03  1.620015E+05 -2.770500E+03 -6.113036E+03
       144  23  2.413839E+05  1.100273E+05  4.494652E+03  1.631336E+05 -1.426304E+03 -4.158990E+03
       144  24  2.426454E+05  1.085204E+05  2.875889E+03  1.631857E+05 -2.216168E+02 -2.018880E+03
       144  25  2.811796E+05  1.342075E+05  1.590052E+04  1.800872E+05 -1.663022E+03 -5.282586E+03
       144  26  2.675177E+05  1.272905E+05  9.834073E+03  1.759839E+05  8.339663E+01 -3.026974E+03
       144  27  2.573528E+05  1.190249E+05  5.915451E+03  1.708007E+05  1.690214E+03 -5.853793E+02
       145   1  2.344167E+05  1.028002E+05  8.148746E+02  1.590127E+05  2.160950E+03  2.655639E+03
       145   2  2.437786E+05  1.114392E+05  2.676788E+03  1.648575E+05  1.957976E+03  1.120841E+03
       145   3  2.558850E+05  1.177570E+05  5.300008E+03  1.699484E+05  1.753681E+03 -4.122169E+02
       145   4  2.425716E+05  1.084555E+05  2.457708E+03  1.631590E+05  2.465901E+02  1.220256E+03
       145   5  2.412038E+05  1.096236E+05  2.174052E+03  1.635308E+05  4.736787E+01 -3.117363E+02
       145   6  2.425795E+05  1.084695E+05  2.648428E+03  1.631486E+05 -1.531615E+02 -1.841986E+03
       145   7  2.507266E+05  1.141109E+05  4.100562E+03  1.673053E+05 -1.667805E+03 -2.151537E+02
       145   8  2.386289E+05  1.078080E+05  1.671326E+03  1.622040E+05 -1.863252E+03 -1.744323E+03
       145   9  2.292739E+05  9.918194E+04 -3.245549E+00  1.563488E+05 -2.059994E+03 -3.271749E+03
       145  10  2.344167E+05  1.028002E+05  8.148526E+02  1.590127E+05  1.243794E-10  6.288759E-11
       145  11  2.437786E+05  1.114392E+05  2.676778E+03  1.648575E+05  2.079294E-11  1.692103E-11
       145  12  2.558850E+05  1.177570E+05  5.300002E+03  1.699484E+05 -2.843222E-11  9.445907E-11
       145  13  2.425716E+05  1.084555E+05  2.457705E+03  1.631590E+05  1.313193E-10 -3.227632E-11
       145  14  2.412038E+05  1.096236E+05  2.174052E+03  1.635308E+05  1.883687E-11 -1.134378E-10
       145  15  2.425795E+05  1.084695E+05  2.648422E+03  1.631486E+05 -5.114144E-11  4.871981E-11
       145  16  2.507266E+05  1.141109E+05  4.100557E+03  1.673053E+05  1.749028E-10 -1.441925E-10
       145  17  2.386289E+05  1.078080E+05  1.671314E+03  1.622040E+05 -5.965560E-11 -3.934698E-11
       145  18  2.292739E+05  9.918192E+04 -3.273627E+00  1.563488E+05  1.401091E-10 -5.512792E-11
       145  19  2.344167E+05  1.028002E+05  8.148746E+02  1.590127E+05 -2.160950E+03 -2.655639E+03
       145  20  2.437786E+05  1.114392E+05  2.676788E+03  1.648575E+05 -1.957976E+03 -1.120841E+03
       145  21  2.558850E+05  1.177570E+05  5.300008E+03  1.699484E+05 -1.753681E+03  4.122169E+02
       145  22  2.425716E+05  1.084555E+05  2.457708E+03  1.631590E+05 -2.465901E+02 -1.220256E+03
       145  23  2.412038E+05  1.096236E+05  2.174052E+03  1.635308E+05 -4.736787E+01  3.117363E+02
       145  24  2.425795E+05  1.084695E+05  2.648428E+03  1.631486E+05  1.531615E+02  1.841986E+03
       145  25  2.507266E+05  1.141109E+05  4.100562E+03  1.673053E+05  1.667805E+03  2.151537E+02
       145  26  2.386289E+05  1.078080E+05  1.671326E+03  1.622040E+05  1.863252E+03  1.744323E+03
       145  27  2.292739E+05  9.918194E+04 -3.245549E+00  1.563488E+05  2.059994E+03  3.271749E+03
       146   1  2.625119E+05  1.227011E+05  7.231460E+03  1.734569E+05  1.741559E+03 -1.236167E+03
       146   2  2.727986E+05  1.308864E+05  1.148625E+04  1.785373E+05 -1.542469E+02 -3.877387E+03
       146   3  2.867215E+05  1.378975E+05  1.817082E+04  1.824825E+05 -2.200565E+03 -6.317874E+03
       146   4  2.426678E+05  1.085454E+05  3.179454E+03  1.631823E+05 -1.625350E+02 -2.663888E+03
       146   5  2.414091E+05  1.100914E+05  5.116076E+03  1.630657E+05 -1.624426E+03 -4.979778E+03
       146   6  2.436928E+05  1.103693E+05  9.106262E+03  1.618139E+05 -3.236802E+03 -7.094925E+03
       146   7  2.228247E+05  9.439029E+04 -8.723797E+02  1.529085E+05 -2.066504E+03 -4.091513E+03
       146   8  2.100213E+05  8.929717E+04 -1.253985E+03  1.475952E+05 -3.094488E+03 -6.082087E+03
       146   9  2.006662E+05  8.284207E+04  4.164620E+01  1.411468E+05 -4.272941E+03 -7.871912E+03
       146  10  2.625119E+05  1.227011E+05  7.231451E+03  1.734569E+05 -2.289037E-10  2.101186E-11
       146  11  2.727986E+05  1.308864E+05  1.148622E+04  1.785373E+05 -6.760720E-11  1.375463E-10
       146  12  2.867215E+05  1.378975E+05  1.817073E+04  1.824825E+05  2.118702E-10  1.223490E-10
       146  13  2.426678E+05  1.085454E+05  3.179440E+03  1.631823E+05 -5.839743E-11  5.820047E-11
       146  14  2.414091E+05  1.100914E+05  5.116024E+03  1.630657E+05 -2.026147E-10  1.184093E-10
       146  15  2.436927E+05  1.103693E+05  9.106148E+03  1.618138E+05 -5.329964E-11  5.832707E-11
       146  16  2.228247E+05  9.439027E+04 -8.724192E+02  1.529085E+05  8.916311E-11  1.279118E-10
       146  17  2.100212E+05  8.929713E+04 -1.254073E+03  1.475952E+05 -2.089135E-10  5.299969E-11
       146  18  2.006662E+05  8.284200E+04  4.149549E+01  1.411468E+05 -2.904324E-10 -3.628144E-11
       146  19  2.625119E+05  1.227011E+05  7.231460E+03  1.734569E+05 -1.741559E+03  1.236167E+03
       146  20  2.727986E+05  1.308864E+05  1.148625E+04  1.785373E+05  1.542469E+02  3.877387E+03
       146  21  2.867215E+05  1.378975E+05  1.817082E+04  1.824825E+05  2.200565E+03  6.317874E+03
       146  22  2.426678E+05  1.085454E+05  3.179454E+03  1.631823E+05  1.625350E+02  2.663888E+03
       146  23  2.414091E+05  1.100914E+05  5.116076E+03  1.630657E+05  1.624426E+03  4.979778E+03
       146  24  2.436928E+05  1.103693E+05  9.106262E+03  1.618139E+05  3.236802E+03  7.094925E+03
       146  25  2.228247E+05  9.439029E+04 -8.723797E+02  1.529085E+05  2.066504E+03  4.091513E+03
       146  26  2.100213E+05  8.929717E+04 -1.253985E+03  1.475952E+05  3.094488E+03  6.082087E+03
       146  27  2.006662E+05  8.284207E+04  4.164620E+01  1.411468E+05  4.272941E+03  7.871912E+03
       147   1  2.933070E+05  1.450080E+05  2.288267E+04  1.864651E+05 -3.231705E+03 -7.619162E+03
       147   2  3.171159E+05  1.455859E+05  3.717353E+04  1.822131E+05 -1.617014E+04 -1.674214E+04
       147   3  3.547630E+05  1.587659E+05  6.663858E+04  1.712341E+05 -3.036592E+04 -2.418995E+04
       147   4  2.447470E+05  1.113932E+05  1.206580E+04  1.619845E+05 -4.241372E+03 -8.376299E+03
       147   5  2.449268E+05  1.174145E+05  2.209607E+04  1.563991E+05 -1.355833E+04 -1.478435E+04
       147   6  2.581593E+05  1.352536E+05  4.415959E+04  1.440865E+05 -2.413161E+04 -1.951720E+04
       147   7  1.961886E+05  7.777892E+04  1.248436E+03  1.375056E+05 -5.250955E+03 -9.133374E+03
       147   8  1.727440E+05  8.924400E+04  7.018484E+03  1.305876E+05 -1.094693E+04 -1.282669E+04
       147   9  1.615693E+05  1.117428E+05  2.168114E+04  1.169423E+05 -1.789880E+04 -1.484472E+04
       147  10  2.933069E+05  1.450080E+05  2.288254E+04  1.864650E+05  9.215869E-11 -2.074140E-11
       147  11  3.171155E+05  1.455856E+05  3.717251E+04  1.822129E+05 -2.361354E-10 -2.074472E-11
       147  12  3.547618E+05  1.587650E+05  6.663575E+04  1.712335E+05 -1.253738E-10 -4.225560E-11
       147  13  2.447469E+05  1.113931E+05  1.206564E+04  1.619845E+05  1.991441E-10 -4.631041E-11
       147  14  2.449266E+05  1.174142E+05  2.209532E+04  1.563989E+05 -7.735331E-11 -2.333426E-11
       147  15  2.581586E+05  1.352530E+05  4.415778E+04  1.440862E+05  4.769873E-11 -9.791241E-12
       147  16  1.961886E+05  7.777882E+04  1.248228E+03  1.375056E+05  9.828087E-11 -1.292548E-11
       147  17  1.727439E+05  8.924379E+04  7.017949E+03  1.305875E+05  1.584444E-10 -2.974979E-11
       147  18  1.615689E+05  1.117425E+05  2.168013E+04  1.169421E+05  1.768999E-10  5.210796E-11
       147  19  2.933070E+05  1.450080E+05  2.288267E+04  1.864651E+05  3.231705E+03  7.619162E+03
       147  20  3.171159E+05  1.455859E+05  3.717353E+04  1.822131E+05  1.617014E+04  1.674214E+04
       147  21  3.547630E+05  1.587659E+05  6.663858E+04  1.712341E+05  3.036592E+04  2.418995E+04
       147  22  2.447470E+05  1.113932E+05  1.206580E+04  1.619845E+05  4.241372E+03  8.376299E+03
       147  23  2.449268E+05  1.174145E+05  2.209607E+04  1.563991E+05  1.355833E+04  1.478435E+04
       147  24  2.581593E+05  1.352536E+05  4.415959E+04  1.440865E+05  2.413161E+04  1.951720E+04
       147  25  1.961886E+05  7.777892E+04  1.248436E+03  1.375056E+05  5.250955E+03  9.133374E+03
       147  26  1.727440E+05  8.924400E+04  7.018484E+03  1.305876E+05  1.094693E+04  1.282669E+04
       147  27  1.615693E+05  1.117428E+05  2.168114E+04  1.169423E+05  1.789880E+04  1.484472E+04
       148   1  3.852328E+05  5.219858E+04  5.329365E+04  4.068064E+04  2.946085E+04 -1.000598E+03
       148   2  3.663096E+05  2.683852E+04  2.996281E+04  2.933153E+04  1.687630E+04 -3.186474E+03
       148   3  3.526473E+05  1.597127E+04  1.844491E+04  2.073256E+04  4.292236E+03 -3.424390E+03
       148   4  2.962980E+05  3.025470E+04  3.247719E+04  2.046755E+04  2.263259E+04 -1.001619E+03
       148   5  2.940350E+05  9.672640E+03  1.638280E+04  1.909279E+04  1.425785E+04 -3.186828E+03
       148   6  2.963028E+05  2.853524E+03  9.179848E+03  2.046787E+04  5.883196E+03 -3.424376E+03
       148   7  2.073715E+05  8.311808E+03  1.166060E+04  2.573649E+02  1.580531E+04 -1.002197E+03
       148   8  2.217657E+05 -7.493145E+03  2.802657E+03  8.855282E+03  1.163971E+04 -3.187095E+03
       148   9  2.399615E+05 -1.026438E+04 -8.530129E+01  2.020322E+04  7.474018E+03 -3.424363E+03
       148  10  3.852319E+05  5.219835E+04  5.329201E+04  4.068066E+04 -2.079768E-10  7.581879E-12
       148  11  3.663093E+05  2.683843E+04  2.996225E+04  2.933157E+04 -2.168495E-11 -2.277748E-12
       148  12  3.526473E+05  1.597125E+04  1.844486E+04  2.073257E+04  1.091269E-10 -1.745020E-12
       148  13  2.962975E+05  3.025456E+04  3.247623E+04  2.046756E+04  7.258540E-13  4.020424E-11
       148  14  2.940348E+05  9.672574E+03  1.638240E+04  1.909283E+04 -2.912000E-10  6.771781E-11
       148  15  2.963028E+05  2.853502E+03  9.179761E+03  2.046789E+04  1.131867E-10  3.666028E-11
       148  16  2.073712E+05  8.311740E+03  1.166013E+04  2.573777E+02  1.140084E-10  6.160571E-11
       148  17  2.217656E+05 -7.493192E+03  2.802383E+03  8.855312E+03 -4.653705E-11  1.405820E-10
       148  18  2.399614E+05 -1.026441E+04 -8.542826E+01  2.020324E+04 -1.128658E-10  4.931059E-11
       148  19  3.852328E+05  5.219858E+04  5.329365E+04  4.068064E+04 -2.946085E+04  1.000598E+03
       148  20  3.663096E+05  2.683852E+04  2.996281E+04  2.933153E+04 -1.687630E+04  3.186474E+03
       148  21  3.526473E+05  1.597127E+04  1.844491E+04  2.073256E+04 -4.292236E+03  3.424390E+03
       148  22  2.962980E+05  3.025470E+04  3.247719E+04  2.046755E+04 -2.263259E+04  1.001619E+03
       148  23  2.940350E+05  9.672640E+03  1.638280E+04  1.909279E+04 -1.425785E+04  3.186828E+03
       148  24  2.963028E+05  2.853524E+03  9.179848E+03  2.046787E+04 -5.883196E+03  3.424376E+03
       148  25  2.073715E+05  8.311808E+03  1.166060E+04  2.573649E+02 -1.580531E+04  1.002197E+03
       148  26  2.217657E+05 -7.493145E+03  2.802657E+03  8.855282E+03 -1.163971E+04  3.187095E+03
       148  27  2.399615E+05 -1.026438E+04 -8.530129E+01  2.020322E+04 -7.474018E+03  3.424363E+03
       149   1  3.414787E+05  1.289902E+04  1.452519E+04  2.175950E+04  3.040335E+03 -2.918322E+03
       149   2  3.248592E+05  7.465331E+03  9.068246E+03  1.963137E+04  3.129582E+02 -2.061338E+03
       149   3  3.089245E+05  3.349171E+03  5.715644E+03  2.039115E+04 -2.414323E+03 -9.910770E+02
       149   4  2.954303E+05  2.211865E+03  7.121409E+03  2.049860E+04  4.661760E+03 -2.918295E+03
       149   5  2.951285E+05  6.150155E+02  4.537020E+03  1.905468E+04  2.395353E+03 -2.061273E+03
       149   6  2.954311E+05  2.556989E+02  3.737012E+03  2.049865E+04  1.289670E+02 -9.909748E+02
       149   7  2.493841E+05 -8.475393E+03 -2.824210E+02  1.923779E+04  6.283070E+03 -2.918275E+03
       149   8  2.653987E+05 -6.235339E+03  5.790751E+00  1.847802E+04  4.477652E+03 -2.061212E+03
       149   9  2.819378E+05 -2.837778E+03  1.758402E+03  2.060615E+04  2.672204E+03 -9.908716E+02
       149  10  3.414787E+05  1.289901E+04  1.452516E+04  2.175951E+04 -2.078222E-10  1.052187E-11
       149  11  3.248592E+05  7.465327E+03  9.068238E+03  1.963137E+04 -1.356891E-11  9.618504E-11
       149  12  3.089245E+05  3.349168E+03  5.715631E+03  2.039115E+04 -7.789905E-12  8.808433E-11
       149  13  2.954303E+05  2.211850E+03  7.121352E+03  2.049861E+04  1.247509E-11  4.578160E-12
       149  14  2.951285E+05  6.150094E+02  4.537001E+03  1.905469E+04 -1.346379E-10  2.003556E-11
       149  15  2.954311E+05  2.556979E+02  3.737010E+03  2.049865E+04 -1.833586E-10  1.763314E-11
       149  16  2.493840E+05 -8.475412E+03 -2.825112E+02  1.923781E+04  1.689444E-10 -2.094541E-11
       149  17  2.653987E+05 -6.235349E+03  5.745104E+00  1.847803E+04 -8.062992E-11 -8.129155E-11
       149  18  2.819378E+05 -2.837781E+03  1.758387E+03  2.060616E+04 -1.158319E-10 -7.518405E-12
       149  19  3.414787E+05  1.289902E+04  1.452519E+04  2.175950E+04 -3.040335E+03  2.918322E+03
       149  20  3.248592E+05  7.465331E+03  9.068246E+03  1.963137E+04 -3.129582E+02  2.061338E+03
       149  21  3.089245E+05  3.349171E+03  5.715644E+03  2.039115E+04  2.414323E+03  9.910770E+02
       149  22  2.954303E+05  2.211865E+03  7.121409E+03  2.049860E+04 -4.661760E+03  2.918295E+03
       149  23  2.951285E+05  6.150155E+02  4.537020E+03  1.905468E+04 -2.395353E+03  2.061273E+03
       149  24  2.954311E+05  2.556989E+02  3.737012E+03  2.049865E+04 -1.289670E+02  9.909748E+02
       149  25  2.493841E+05 -8.475393E+03 -2.824210E+02  1.923779E+04 -6.283070E+03  2.918275E+03
       149  26  2.653987E+05 -6.235339E+03  5.790751E+00  1.847802E+04 -4.477652E+03  2.061212E+03
       149  27  2.819378E+05 -2.837778E+03  1.758402E+03  2.060615E+04 -2.672204E+03  9.908716E+02
       150   1  2.987433E+05  1.003219E+03  4.222330E+03  2.063058E+04 -3.057112E+03 -2.899576E+02
       150   2  2.821657E+05 -2.309175E+03  2.810862E+03  1.841008E+04 -5.154794E+03  8.044052E+02
       150   3  2.661912E+05 -4.301372E+03  3.094633E+03  1.908048E+04 -7.252454E+03  1.732992E+03
       150   4  2.954446E+05  2.603190E+02  3.805486E+03  2.049932E+04 -5.132011E+02 -2.898505E+02
       150   5  2.951117E+05  7.000015E+02  4.914776E+03  1.905385E+04 -2.969149E+03  8.044833E+02
       150   6  2.954440E+05  2.522102E+03  7.968026E+03  2.049925E+04 -5.425131E+03  1.733038E+03
       150   7  2.921459E+05 -4.825778E+02  3.388667E+03  2.036806E+04  2.030697E+03 -2.897445E+02
       150   8  3.080578E+05  3.709174E+03  7.018703E+03  1.969763E+04 -7.834599E+02  8.045660E+02
       150   9  3.246975E+05  9.345540E+03  1.284141E+04  2.191810E+04 -3.597725E+03  1.733092E+03
       150  10  2.987433E+05  1.003216E+03  4.222312E+03  2.063058E+04  2.133227E-10  8.002109E-11
       150  11  2.821657E+05 -2.309183E+03  2.810811E+03  1.841008E+04  3.444153E-11  3.049090E-12
       150  12  2.661912E+05 -4.301389E+03  3.094529E+03  1.908049E+04 -2.349730E-10 -8.206075E-11
       150  13  2.954446E+05  2.603188E+02  3.805485E+03  2.049932E+04 -5.780925E-11  1.665662E-11
       150  14  2.951117E+05  6.999985E+02  4.914758E+03  1.905385E+04 -4.181139E-10 -4.950600E-11
       150  15  2.954439E+05  2.522091E+03  7.967965E+03  2.049926E+04 -1.285961E-10 -8.164607E-11
       150  16  2.921459E+05 -4.825790E+02  3.388659E+03  2.036806E+04 -2.243727E-10 -4.539539E-11
       150  17  3.080578E+05  3.709173E+03  7.018701E+03  1.969763E+04 -4.109573E-11 -1.064244E-10
       150  18  3.246975E+05  9.345533E+03  1.284138E+04  2.191810E+04  2.964446E-11 -1.244249E-10
       150  19  2.987433E+05  1.003219E+03  4.222330E+03  2.063058E+04  3.057112E+03  2.899576E+02
       150  20  2.821657E+05 -2.309175E+03  2.810862E+03  1.841008E+04  5.154794E+03 -8.044052E+02
       150  21  2.661912E+05 -4.301372E+03  3.094633E+03  1.908048E+04  7.252454E+03 -1.732992E+03
       150  22  2.954446E+05  2.603190E+02  3.805486E+03  2.049932E+04  5.132011E+02  2.898505E+02
       150  23  2.951117E+05  7.000015E+02  4.914776E+03  1.905385E+04  2.969149E+03 -8.044833E+02
       150  24  2.954440E+05  2.522102E+03  7.968026E+03  2.049925E+04  5.425131E+03 -1.733038E+03
       150  25  2.921459E+05 -4.825778E+02  3.388667E+03  2.036806E+04 -2.030697E+03  2.897445E+02
       150  26  3.080578E+05  3.709174E+03  7.018703E+03  1.969763E+04  7.834599E+02 -8.045660E+02
       150  27  3.246975E+05  9.345540E+03  1.284141E+04  2.191810E+04  3.597725E+03 -1.733092E+03
       151   1  2.569166E+05 -5.984335E+03  3.680597E+03  2.018440E+04 -8.596523E+03  2.282481E+03
       151   2  2.383485E+05 -2.209061E+03  7.986947E+03  7.440822E+03 -1.465255E+04  2.317889E+03
       151   3  2.243359E+05  1.663247E+04  2.000176E+04 -2.524539E+03 -2.070842E+04  7.553967E+02
       151   4  2.964415E+05  3.251759E+03  1.034845E+04  2.047415E+04 -6.794143E+03  2.282528E+03
       151   5  2.938620E+05  1.101356E+04  1.860144E+04  1.908486E+04 -1.630373E+04  2.317554E+03
       151   6  2.964362E+05  3.443970E+04  3.695989E+04  2.047357E+04 -2.581337E+04  7.545242E+02
       151   7  3.359679E+05  1.248777E+04  1.701626E+04  2.076393E+04 -4.991653E+03  2.282576E+03
       151   8  3.493788E+05  2.423651E+04  2.921587E+04  3.072995E+04 -1.795506E+04  2.317157E+03
       151   9  3.685426E+05  5.224856E+04  5.391805E+04  4.347436E+04 -3.091891E+04  7.532737E+02
       151  10  2.569165E+05 -5.984360E+03  3.680448E+03  2.018442E+04 -2.898643E-10 -3.674777E-11
       151  11  2.383483E+05 -2.209125E+03  7.986533E+03  7.440850E+03 -6.767963E-11  3.585338E-11
       151  12  2.243354E+05  1.663236E+04  2.000095E+04 -2.524526E+03  2.039024E-11  2.875119E-11
       151  13  2.964414E+05  3.251741E+03  1.034835E+04  2.047417E+04 -2.426898E-10 -8.931031E-11
       151  14  2.938617E+05  1.101348E+04  1.860093E+04  1.908489E+04 -1.108370E-11  4.852422E-12
       151  15  2.964355E+05  3.443952E+04  3.695864E+04  2.047358E+04  8.822557E-11  7.501897E-12
       151  16  3.359678E+05  1.248776E+04  1.701621E+04  2.076394E+04  1.596397E-10 -7.299835E-11
       151  17  3.493784E+05  2.423642E+04  2.921526E+04  3.072999E+04 -1.714409E-10 -6.245525E-11
       151  18  3.685415E+05  5.224831E+04  5.391625E+04  4.347438E+04  5.015879E-11  9.219472E-12
       151  19  2.569166E+05 -5.984335E+03  3.680597E+03  2.018440E+04  8.596523E+03 -2.282481E+03
       151  20  2.383485E+05 -2.209061E+03  7.986947E+03  7.440822E+03  1.465255E+04 -2.317889E+03
       151  21  2.243359E+05  1.663247E+04  2.000176E+04 -2.524539E+03  2.070842E+04 -7.553967E+02
       151  22  2.964415E+05  3.251759E+03  1.034845E+04  2.047415E+04  6.794143E+03 -2.282528E+03
       151  23  2.938620E+05  1.101356E+04  1.860144E+04  1.908486E+04  1.630373E+04 -2.317554E+03
       151  24  2.964362E+05  3.443970E+04  3.695989E+04  2.047357E+04  2.581337E+04 -7.545242E+02
       151  25  3.359679E+05  1.248777E+04  1.701626E+04  2.076393E+04  4.991653E+03 -2.282576E+03
       151  26  3.493788E+05  2.423651E+04  2.921587E+04  3.072995E+04  1.795506E+04 -2.317157E+03
       151  27  3.685426E+05  5.224856E+04  5.391805E+04  4.347436E+04  3.091891E+04 -7.532737E+02
       152   1 -8.799136E+04 -2.735088E+05 -9.096281E+04  7.444826E+04 -1.281837E+03 -5.081293E+04
       152   2 -4.080173E+04 -2.401164E+05 -5.003214E+04  5.294972E+04 -3.908466E+03 -2.857362E+04
       152   3 -2.101537E+04 -2.164713E+05 -3.043467E+04  3.631835E+04 -3.828378E+03 -6.332815E+03
       152   4 -5.767423E+04 -1.507988E+05 -6.207068E+04  3.583681E+04 -1.277868E+03 -4.221316E+04
       152   5 -1.847807E+04 -1.464299E+05 -3.209658E+04  3.340022E+04 -3.907232E+03 -2.581833E+04
       152   6 -5.668978E+03 -1.507931E+05 -1.939401E+04  3.583217E+04 -3.828702E+03 -9.423280E+03
       152   7 -2.735253E+04 -2.807154E+04 -3.317850E+04 -2.782319E+03 -1.274970E+03 -3.361170E+04
       152   8  3.846510E+03 -5.273408E+04 -1.416118E+04  1.384770E+04 -3.906172E+03 -2.306264E+04
       152   9  9.677196E+03 -8.511063E+04 -8.353440E+03  3.534592E+04 -3.829021E+03 -1.251406E+04
       152  10 -8.799206E+04 -2.735115E+05 -9.096767E+04  7.444820E+04 -9.529257E-11 -2.473143E-10
       152  11 -4.080197E+04 -2.401173E+05 -5.003371E+04  5.294963E+04 -3.974682E-10 -5.654836E-11
       152  12 -2.101540E+04 -2.164713E+05 -3.043477E+04  3.631833E+04 -1.689912E-10  1.769563E-10
       152  13 -5.767471E+04 -1.508007E+05 -6.207403E+04  3.583677E+04 -2.276297E-11 -1.951146E-12
       152  14 -1.847827E+04 -1.464306E+05 -3.209786E+04  3.340014E+04  9.560358E-11 -1.797698E-12
       152  15 -5.669018E+03 -1.507932E+05 -1.939420E+04  3.583214E+04 -2.639125E-11  4.688522E-11
       152  16 -2.735283E+04 -2.807276E+04 -3.318063E+04 -2.782353E+03  7.501064E-11  2.510632E-10
       152  17  3.846351E+03 -5.273465E+04 -1.416221E+04  1.384762E+04 -1.050140E-10  9.353086E-11
       152  18  9.677139E+03 -8.511080E+04 -8.353761E+03  3.534589E+04 -3.579501E-11 -8.930077E-11
       152  19 -8.799136E+04 -2.735088E+05 -9.096281E+04  7.444826E+04  1.281837E+03  5.081293E+04
       152  20 -4.080173E+04 -2.401164E+05 -5.003214E+04  5.294972E+04  3.908466E+03  2.857362E+04
       152  21 -2.101537E+04 -2.164713E+05 -3.043467E+04  3.631835E+04  3.828378E+03  6.332815E+03
       152  22 -5.767423E+04 -1.507988E+05 -6.207068E+04  3.583681E+04  1.277868E+03  4.221316E+04
       152  23 -1.847807E+04 -1.464299E+05 -3.209658E+04  3.340022E+04  3.907232E+03  2.581833E+04
       152  24 -5.668978E+03 -1.507931E+05 -1.939401E+04  3.583217E+04  3.828702E+03  9.423280E+03
       152  25 -2.735253E+04 -2.807154E+04 -3.317850E+04 -2.782319E+03  1.274970E+03  3.361170E+04
       152  26  3.846510E+03 -5.273408E+04 -1.416118E+04  1.384770E+04  3.906172E+03  2.306264E+04
       152  27  9.677196E+03 -8.511063E+04 -8.353440E+03  3.534592E+04  3.829021E+03  1.251406E+04
       153   1 -1.562655E+04 -1.969726E+05 -2.405545E+04  3.843181E+04 -2.879531E+03 -3.594093E+03
       153   2 -6.752227E+03 -1.674729E+05 -1.630214E+04  3.334487E+04 -1.381393E+03  3.347399E+03
       153   3 -2.249102E+03 -1.399699E+05 -1.416186E+04  3.330729E+04  2.134302E+02  1.028916E+04
       153   4 -4.513552E+03 -1.492883E+05 -1.618062E+04  3.587253E+04 -2.879881E+03 -6.723298E+03
       153   5 -2.348635E+03 -1.483075E+05 -1.345306E+04  3.334778E+04 -1.381802E+03  9.542209E+00
       153   6 -4.518571E+03 -1.492879E+05 -1.619342E+04  3.587250E+04  2.130165E+02  6.742359E+03
       153   7  6.599358E+03 -1.016017E+05 -8.305822E+03  3.331304E+04 -2.880205E+03 -9.852735E+03
       153   8  2.054947E+03 -1.291417E+05 -1.060394E+04  3.335069E+04 -1.382212E+03 -3.328414E+03
       153   9 -6.788014E+03 -1.586058E+05 -1.822494E+04  3.843768E+04  2.125735E+02  3.195607E+03
       153  10 -1.562656E+04 -1.969726E+05 -2.405549E+04  3.843180E+04  9.407084E-12  1.557473E-10
       153  11 -6.752232E+03 -1.674729E+05 -1.630216E+04  3.334487E+04  1.314748E-11  8.659421E-11
       153  12 -2.249130E+03 -1.399701E+05 -1.416206E+04  3.330729E+04  1.062161E-10  6.659046E-13
       153  13 -4.513573E+03 -1.492883E+05 -1.618073E+04  3.587251E+04 -7.151889E-11  3.099408E-11
       153  14 -2.348637E+03 -1.483075E+05 -1.345306E+04  3.334778E+04  1.096500E-10 -3.465004E-11
       153  15 -4.518583E+03 -1.492880E+05 -1.619351E+04  3.587250E+04  6.189390E-12 -3.711819E-12
       153  16  6.599323E+03 -1.016018E+05 -8.306020E+03  3.331302E+04 -6.127085E-12 -1.356130E-10
       153  17  2.054942E+03 -1.291417E+05 -1.060397E+04  3.335069E+04 -2.768693E-10 -2.193017E-11
       153  18 -6.788017E+03 -1.586058E+05 -1.822496E+04  3.843768E+04 -1.694297E-10  8.718594E-11
       153  19 -1.562655E+04 -1.969726E+05 -2.405545E+04  3.843181E+04  2.879531E+03  3.594093E+03
       153  20 -6.752227E+03 -1.674729E+05 -1.630214E+04  3.334487E+04  1.381393E+03 -3.347399E+03
       153  21 -2.249102E+03 -1.399699E+05 -1.416186E+04  3.330729E+04 -2.134302E+02 -1.028916E+04
       153  22 -4.513552E+03 -1.492883E+05 -1.618062E+04  3.587253E+04  2.879881E+03  6.723298E+03
       153  23 -2.348635E+03 -1.483075E+05 -1.345306E+04  3.334778E+04  1.381802E+03 -9.542209E+00
       153  24 -4.518571E+03 -1.492879E+05 -1.619342E+04  3.587250E+04 -2.130165E+02 -6.742359E+03
       153  25  6.599358E+03 -1.016017E+05 -8.305822E+03  3.331304E+04  2.880205E+03  9.852735E+03
       153  26  2.054947E+03 -1.291417E+05 -1.060394E+04  3.335069E+04  1.382212E+03  3.328414E+03
       153  27 -6.788014E+03 -1.586058E+05 -1.822494E+04  3.843768E+04 -2.125735E+02 -3.195607E+03
       154   1  7.912321E+02 -1.235270E+05 -1.435260E+04  3.535720E+04  1.250725E+03  1.296671E+04
       154   2 -5.191625E+03 -9.099714E+04 -2.099511E+04  1.380020E+04  1.932145E+03  2.528199E+04
       154   3 -3.688486E+04 -6.649754E+04 -4.208327E+04 -2.823402E+03  7.132104E+02  3.759778E+04
       154   4 -5.675468E+03 -1.507953E+05 -1.941438E+04  3.584654E+04  1.250292E+03  9.444693E+03
       154   5 -1.850317E+04 -1.464253E+05 -3.213947E+04  3.338221E+04  1.933024E+03  2.586151E+04
       154   6 -5.775616E+04 -1.508003E+05 -6.215994E+04  3.585162E+04  7.160812E+02  4.227814E+04
       154   7 -1.214220E+04 -1.780629E+05 -2.447616E+04  3.633585E+04  1.249854E+03  5.922830E+03
       154   8 -3.181346E+04 -2.018497E+05 -4.328377E+04  5.296243E+04  1.933940E+03  2.644098E+04
       154   9 -7.862234E+04 -2.350933E+05 -8.223621E+04  7.452136E+04  7.195356E+02  4.695786E+04
       154  10  7.911853E+02 -1.235272E+05 -1.435291E+04  3.535719E+04  5.334956E-11 -9.361000E-11
       154  11 -5.191801E+03 -9.099782E+04 -2.099632E+04  1.380016E+04 -1.015424E-10  4.128085E-11
       154  12 -3.688524E+04 -6.649906E+04 -4.208593E+04 -2.823424E+03 -2.480364E-11  1.900850E-10
       154  13 -5.675493E+03 -1.507954E+05 -1.941455E+04  3.584653E+04 -2.903792E-11 -9.157167E-12
       154  14 -1.850335E+04 -1.464260E+05 -3.214073E+04  3.338217E+04  1.919929E-11 -1.947862E-11
       154  15 -5.775664E+04 -1.508022E+05 -6.216330E+04  3.585159E+04 -1.345923E-11  2.730663E-11
       154  16 -1.214221E+04 -1.780630E+05 -2.447623E+04  3.633584E+04 -8.210150E-11  9.919995E-11
       154  17 -3.181365E+04 -2.018505E+05 -4.328509E+04  5.296239E+04 -3.386538E-10 -1.446566E-11
       154  18 -7.862294E+04 -2.350957E+05 -8.224036E+04  7.452133E+04 -7.366574E-11 -1.076812E-10
       154  19  7.912321E+02 -1.235270E+05 -1.435260E+04  3.535720E+04 -1.250725E+03 -1.296671E+04
       154  20 -5.191625E+03 -9.099714E+04 -2.099511E+04  1.380020E+04 -1.932145E+03 -2.528199E+04
       154  21 -3.688486E+04 -6.649754E+04 -4.208327E+04 -2.823402E+03 -7.132104E+02 -3.759778E+04
       154  22 -5.675468E+03 -1.507953E+05 -1.941438E+04  3.584654E+04 -1.250292E+03 -9.444693E+03
       154  23 -1.850317E+04 -1.464253E+05 -3.213947E+04  3.338221E+04 -1.933024E+03 -2.586151E+04
       154  24 -5.775616E+04 -1.508003E+05 -6.215994E+04  3.585162E+04 -7.160812E+02 -4.227814E+04
       154  25 -1.214220E+04 -1.780629E+05 -2.447616E+04  3.633585E+04 -1.249854E+03 -5.922830E+03
       154  26 -3.181346E+04 -2.018497E+05 -4.328377E+04  5.296243E+04 -1.933940E+03 -2.644098E+04
       154  27 -7.862234E+04 -2.350933E+05 -8.223621E+04  7.452136E+04 -7.195356E+02 -4.695786E+04
       155   1  1.193960E+05  7.492808E+04  8.353082E+03  8.844601E+04  8.116057E+03  6.992089E+03
       155   2  1.256550E+05  6.414427E+04  1.678056E+03  9.562571E+04  4.796964E+03  6.567637E+03
       155   3  1.381468E+05  5.872178E+04 -8.597089E+02  9.937071E+04  2.255926E+03  5.105607E+03
       155   4  1.763928E+05  9.262903E+04  2.231198E+04  1.062302E+05  1.209302E+04  9.974194E+03
       155   5  1.696440E+05  8.367744E+04  1.117196E+04  1.124688E+05  6.531835E+03  7.868508E+03
       155   6  1.696141E+05  8.057307E+04  6.114580E+03  1.152729E+05  1.748718E+03  4.725225E+03
       155   7  2.333936E+05  1.103304E+05  3.627084E+04  1.240156E+05  1.607050E+04  1.295641E+04
       155   8  2.136360E+05  1.032113E+05  2.066595E+04  1.293133E+05  8.266896E+03  9.169460E+03
       155   9  2.010832E+05  1.024255E+05  1.308908E+04  1.311763E+05  1.241464E+03  4.344808E+03
       155  10  1.193959E+05  7.492801E+04  8.352866E+03  8.844596E+04 -1.194963E-11 -1.690282E-11
       155  11  1.256549E+05  6.414421E+04  1.677932E+03  9.562569E+04 -1.941919E-10 -3.462588E-11
       155  12  1.381468E+05  5.872176E+04 -8.597674E+02  9.937070E+04  1.188875E-10 -2.476078E-11
       155  13  1.763927E+05  9.262889E+04  2.231151E+04  1.062301E+05 -1.482988E-10 -1.834928E-12
       155  14  1.696440E+05  8.367736E+04  1.117176E+04  1.124688E+05 -4.681895E-12  1.255469E-11
       155  15  1.696140E+05  8.057304E+04  6.114533E+03  1.152729E+05 -3.946284E-11  2.665883E-11
       155  16  2.333933E+05  1.103301E+05  3.627004E+04  1.240154E+05 -5.964673E-11  1.064237E-11
       155  17  2.136359E+05  1.032112E+05  2.066566E+04  1.293132E+05 -1.757196E-10  2.716710E-11
       155  18  2.010832E+05  1.024255E+05  1.308904E+04  1.311763E+05  9.649385E-12  6.185896E-11
       155  19  1.193960E+05  7.492808E+04  8.353082E+03  8.844601E+04 -8.116057E+03 -6.992089E+03
       155  20  1.256550E+05  6.414427E+04  1.678056E+03  9.562571E+04 -4.796964E+03 -6.567637E+03
       155  21  1.381468E+05  5.872178E+04 -8.597089E+02  9.937071E+04 -2.255926E+03 -5.105607E+03
       155  22  1.763928E+05  9.262903E+04  2.231198E+04  1.062302E+05 -1.209302E+04 -9.974194E+03
       155  23  1.696440E+05  8.367744E+04  1.117196E+04  1.124688E+05 -6.531835E+03 -7.868508E+03
       155  24  1.696141E+05  8.057307E+04  6.114580E+03  1.152729E+05 -1.748718E+03 -4.725225E+03
       155  25  2.333936E+05  1.103304E+05  3.627084E+04  1.240156E+05 -1.607050E+04 -1.295641E+04
       155  26  2.136360E+05  1.032113E+05  2.066595E+04  1.293133E+05 -8.266896E+03 -9.169460E+03
       155  27  2.010832E+05  1.024255E+05  1.308908E+04  1.311763E+05 -1.241464E+03 -4.344808E+03
       156   1  1.408017E+05  6.155364E+04 -1.340336E+03  1.014036E+05  1.766700E+03  4.461377E+03
       156   2  1.460628E+05  6.531817E+04 -1.785317E+03  1.049852E+05  1.211708E+03  3.569138E+03
       156   3  1.531980E+05  6.824559E+04 -1.410993E+03  1.079535E+05  7.501748E+02  2.552274E+03
       156   4  1.690860E+05  8.005252E+04  4.626693E+03  1.151864E+05  1.243136E+03  4.068731E+03
       156   5  1.678604E+05  7.998067E+04  2.631628E+03  1.158389E+05  4.188105E+02  2.974538E+03
       156   6  1.685674E+05  7.913018E+04  1.689599E+03  1.158781E+05 -3.120534E+02  1.755724E+03
       156   7  1.973707E+05  9.855137E+04  1.059346E+04  1.289696E+05  7.195525E+02  3.676071E+03
       156   8  1.896584E+05  9.464326E+04  7.048468E+03  1.266929E+05 -3.741148E+02  2.379918E+03
       156   9  1.839371E+05  9.001491E+04  4.790185E+03  1.238030E+05 -1.374315E+03  9.591490E+02
       156  10  1.408017E+05  6.155362E+04 -1.340379E+03  1.014036E+05  1.777912E-10  9.767126E-11
       156  11  1.460628E+05  6.531815E+04 -1.785344E+03  1.049852E+05 -4.231068E-11 -2.247382E-11
       156  12  1.531980E+05  6.824559E+04 -1.411006E+03  1.079535E+05 -1.712687E-10 -6.911415E-11
       156  13  1.690860E+05  8.005250E+04  4.626659E+03  1.151864E+05  5.728416E-11  2.686729E-11
       156  14  1.678604E+05  7.998066E+04  2.631611E+03  1.158389E+05  2.931825E-10  1.275772E-11
       156  15  1.685674E+05  7.913018E+04  1.689593E+03  1.158781E+05 -3.002248E-10  3.363048E-11
       156  16  1.973707E+05  9.855136E+04  1.059344E+04  1.289696E+05 -1.018642E-10 -5.354633E-11
       156  17  1.896584E+05  9.464325E+04  7.048457E+03  1.266929E+05  3.048839E-10  9.269490E-13
       156  18  1.839371E+05  9.001491E+04  4.790180E+03  1.238030E+05  1.135616E-10  1.756155E-10
       156  19  1.408017E+05  6.155364E+04 -1.340336E+03  1.014036E+05 -1.766700E+03 -4.461377E+03
       156  20  1.460628E+05  6.531817E+04 -1.785317E+03  1.049852E+05 -1.211708E+03 -3.569138E+03
       156  21  1.531980E+05  6.824559E+04 -1.410993E+03  1.079535E+05 -7.501748E+02 -2.552274E+03
       156  22  1.690860E+05  8.005252E+04  4.626693E+03  1.151864E+05 -1.243136E+03 -4.068731E+03
       156  23  1.678604E+05  7.998067E+04  2.631628E+03  1.158389E+05 -4.188105E+02 -2.974538E+03
       156  24  1.685674E+05  7.913018E+04  1.689599E+03  1.158781E+05  3.120534E+02 -1.755724E+03
       156  25  1.973707E+05  9.855137E+04  1.059346E+04  1.289696E+05 -7.195525E+02 -3.676071E+03
       156  26  1.896584E+05  9.464326E+04  7.048468E+03  1.266929E+05  3.741148E+02 -2.379918E+03
       156  27  1.839371E+05  9.001491E+04  4.790185E+03  1.238030E+05  1.374315E+03 -9.591490E+02
       157   1  1.568308E+05  7.093466E+04 -8.640225E+02  1.098862E+05  7.543893E+02  2.100042E+03
       157   2  1.620846E+05  7.578196E+04  1.883063E+02  1.131658E+05  6.208839E+02  1.227549E+03
       157   3  1.688837E+05  7.933104E+04  1.683858E+03  1.160219E+05  4.902408E+02  3.511979E+02
       157   4  1.685250E+05  7.909202E+04  1.448200E+03  1.158626E+05 -3.096091E+02  1.302167E+03
       157   5  1.677544E+05  7.974535E+04  1.291537E+03  1.160707E+05 -4.514392E+02  4.234310E+02
       157   6  1.685307E+05  7.910217E+04  1.585248E+03  1.158551E+05 -5.903937E+02 -4.591442E+02
       157   7  1.802196E+05  8.724966E+04  3.760519E+03  1.218393E+05 -1.373658E+03  5.042543E+02
       157   8  1.734242E+05  8.370878E+04  2.394774E+03  1.189755E+05 -1.523775E+03 -3.806965E+02
       157   9  1.681778E+05  7.887331E+04  1.486648E+03  1.156883E+05 -1.671003E+03 -1.269468E+03
       157  10  1.568308E+05  7.093466E+04 -8.640318E+02  1.098862E+05 -4.886371E-11  1.105043E-10
       157  11  1.620846E+05  7.578195E+04  1.883028E+02  1.131658E+05 -2.699203E-11  1.089067E-11
       157  12  1.688837E+05  7.933104E+04  1.683857E+03  1.160219E+05 -1.228648E-10 -8.641370E-11
       157  13  1.685250E+05  7.909202E+04  1.448197E+03  1.158626E+05  4.341883E-11  4.045783E-11
       157  14  1.677544E+05  7.974535E+04  1.291537E+03  1.160707E+05 -5.063434E-10  5.359363E-11
       157  15  1.685307E+05  7.910217E+04  1.585247E+03  1.158551E+05 -1.572232E-11  5.392027E-11
       157  16  1.802196E+05  8.724966E+04  3.760515E+03  1.218393E+05 -1.619604E-10 -2.556495E-11
       157  17  1.734242E+05  8.370878E+04  2.394770E+03  1.189755E+05 -1.351627E-10  4.250621E-11
       157  18  1.681777E+05  7.887331E+04  1.486639E+03  1.156883E+05  5.949785E-11  2.075500E-10
       157  19  1.568308E+05  7.093466E+04 -8.640225E+02  1.098862E+05 -7.543893E+02 -2.100042E+03
       157  20  1.620846E+05  7.578196E+04  1.883063E+02  1.131658E+05 -6.208839E+02 -1.227549E+03
       157  21  1.688837E+05  7.933104E+04  1.683858E+03  1.160219E+05 -4.902408E+02 -3.511979E+02
       157  22  1.685250E+05  7.909202E+04  1.448200E+03  1.158626E+05  3.096091E+02 -1.302167E+03
       157  23  1.677544E+05  7.974535E+04  1.291537E+03  1.160707E+05  4.514392E+02 -4.234310E+02
       157  24  1.685307E+05  7.910217E+04  1.585248E+03  1.158551E+05  5.903937E+02  4.591442E+02
       157  25  1.802196E+05  8.724966E+04  3.760519E+03  1.218393E+05  1.373658E+03 -5.042543E+02
       157  26  1.734242E+05  8.370878E+04  2.394774E+03  1.189755E+05  1.523775E+03  3.806965E+02
       157  27  1.681778E+05  7.887331E+04  1.486648E+03  1.156883E+05  1.671003E+03  1.269468E+03
       158   1  1.725985E+05  8.211354E+04  2.787924E+03  1.179937E+05  4.702313E+02 -1.246688E+02
       158   2  1.784076E+05  8.668324E+04  5.233937E+03  1.208187E+05 -6.214303E+02 -1.651504E+03
       158   3  1.862921E+05  9.063450E+04  9.089367E+03  1.229895E+05 -1.782456E+03 -3.085872E+03
       158   4  1.685847E+05  7.914758E+04  1.907808E+03  1.158755E+05 -6.091413E+02 -9.340625E+02
       158   5  1.678778E+05  8.002812E+04  3.078205E+03  1.157904E+05 -1.500953E+03 -2.311045E+03
       158   6  1.692028E+05  8.024687E+04  5.484619E+03  1.150510E+05 -2.462124E+03 -3.595560E+03
       158   7  1.645710E+05  7.618163E+04  1.027697E+03  1.137573E+05 -1.688505E+03 -1.743450E+03
       158   8  1.573480E+05  7.337297E+04  9.224293E+02  1.107621E+05 -2.380467E+03 -2.970581E+03
       158   9  1.521135E+05  6.985911E+04  1.879729E+03  1.071126E+05 -3.141782E+03 -4.105243E+03
       158  10  1.725985E+05  8.211354E+04  2.787923E+03  1.179937E+05  9.618396E-11  1.702424E-10
       158  11  1.784076E+05  8.668323E+04  5.233931E+03  1.208187E+05 -2.621425E-10  6.980522E-12
       158  12  1.862920E+05  9.063449E+04  9.089343E+03  1.229895E+05 -2.199554E-10 -8.660138E-11
       158  13  1.685847E+05  7.914758E+04  1.907806E+03  1.158755E+05  4.248442E-12  2.009096E-11
       158  14  1.678778E+05  8.002811E+04  3.078190E+03  1.157904E+05 -1.973027E-10 -4.388178E-12
       158  15  1.692028E+05  8.024685E+04  5.484584E+03  1.150510E+05 -1.955677E-10  6.821729E-11
       158  16  1.645710E+05  7.618163E+04  1.027686E+03  1.137573E+05 -2.798234E-10 -8.625442E-11
       158  17  1.573480E+05  7.337296E+04  9.224021E+02  1.107621E+05 -1.460956E-10 -3.163950E-11
       158  18  1.521135E+05  6.985909E+04  1.879679E+03  1.071126E+05  1.497835E-10  2.083735E-10
       158  19  1.725985E+05  8.211354E+04  2.787924E+03  1.179937E+05 -4.702313E+02  1.246688E+02
       158  20  1.784076E+05  8.668324E+04  5.233937E+03  1.208187E+05  6.214303E+02  1.651504E+03
       158  21  1.862921E+05  9.063450E+04  9.089367E+03  1.229895E+05  1.782456E+03  3.085872E+03
       158  22  1.685847E+05  7.914758E+04  1.907808E+03  1.158755E+05  6.091413E+02  9.340625E+02
       158  23  1.678778E+05  8.002812E+04  3.078205E+03  1.157904E+05  1.500953E+03  2.311045E+03
       158  24  1.692028E+05  8.024687E+04  5.484619E+03  1.150510E+05  2.462124E+03  3.595560E+03
       158  25  1.645710E+05  7.618163E+04  1.027697E+03  1.137573E+05  1.688505E+03  1.743450E+03
       158  26  1.573480E+05  7.337297E+04  9.224293E+02  1.107621E+05  2.380467E+03  2.970581E+03
       158  27  1.521135E+05  6.985911E+04  1.879729E+03  1.071126E+05  3.141782E+03  4.105243E+03
       159   1  1.899712E+05  9.470507E+04  1.181746E+04  1.252446E+05 -2.394472E+03 -3.873556E+03
       159   2  2.039299E+05  9.468725E+04  2.003647E+04  1.224923E+05 -9.578550E+03 -9.136757E+03
       159   3  2.260354E+05  1.022372E+05  3.696258E+04  1.157101E+05 -1.734502E+04 -1.362327E+04
       159   4  1.698420E+05  8.085912E+04  7.268425E+03  1.151524E+05 -3.061907E+03 -4.374070E+03
       159   5  1.699927E+05  8.444646E+04  1.331360E+04  1.117750E+05 -8.567845E+03 -8.379067E+03
       159   6  1.779264E+05  9.523773E+04  2.661001E+04  1.043677E+05 -1.465603E+04 -1.160754E+04
       159   7  1.497137E+05  6.701374E+04  2.719536E+03  1.050607E+05 -3.729298E+03 -4.874552E+03
       159   8  1.360573E+05  7.420595E+04  6.590823E+03  1.010582E+05 -7.557230E+03 -7.621400E+03
       159   9  1.298205E+05  8.823857E+04  1.625751E+04  9.302580E+04 -1.196734E+04 -9.591801E+03
       159  10  1.899712E+05  9.470505E+04  1.181742E+04  1.252446E+05  2.691720E-10  2.467570E-10
       159  11  2.039298E+05  9.468714E+04  2.003614E+04  1.224922E+05  1.672278E-10  7.395020E-11
       159  12  2.260351E+05  1.022369E+05  3.696167E+04  1.157099E+05 -3.527835E-11 -8.602257E-11
       159  13  1.698420E+05  8.085910E+04  7.268371E+03  1.151524E+05  3.667437E-11  5.348415E-11
       159  14  1.699926E+05  8.444637E+04  1.331333E+04  1.117749E+05  1.118601E-10 -2.873524E-11
       159  15  1.779262E+05  9.523753E+04  2.660936E+04  1.043676E+05  1.694157E-12 -3.438741E-11
       159  16  1.497137E+05  6.701371E+04  2.719465E+03  1.050607E+05 -2.919005E-10 -1.477634E-10
       159  17  1.360573E+05  7.420587E+04  6.590607E+03  1.010581E+05  3.494825E-11 -1.316333E-10
       159  18  1.298203E+05  8.823843E+04  1.625707E+04  9.302571E+04 -1.932042E-11  2.955081E-11
       159  19  1.899712E+05  9.470507E+04  1.181746E+04  1.252446E+05  2.394472E+03  3.873556E+03
       159  20  2.039299E+05  9.468725E+04  2.003647E+04  1.224923E+05  9.578550E+03  9.136757E+03
       159  21  2.260354E+05  1.022372E+05  3.696258E+04  1.157101E+05  1.734502E+04  1.362327E+04
       159  22  1.698420E+05  8.085912E+04  7.268425E+03  1.151524E+05  3.061907E+03  4.374070E+03
       159  23  1.699927E+05  8.444646E+04  1.331360E+04  1.117750E+05  8.567845E+03  8.379067E+03
       159  24  1.779264E+05  9.523773E+04  2.661001E+04  1.043677E+05  1.465603E+04  1.160754E+04
       159  25  1.497137E+05  6.701374E+04  2.719536E+03  1.050607E+05  3.729298E+03  4.874552E+03
       159  26  1.360573E+05  7.420595E+04  6.590823E+03  1.010582E+05  7.557230E+03  7.621400E+03
       159  27  1.298205E+05  8.823857E+04  1.625751E+04  9.302580E+04  1.196734E+04  9.591801E+03
       160   1  3.053237E+05  3.806117E+04  3.969392E+04  2.735663E+04  2.449804E+04 -4.286655E+02
       160   2  2.965620E+05  1.653534E+04  2.137372E+04  1.731203E+04  1.475469E+04 -1.376890E+03
       160   3  2.924227E+05  8.427385E+03  1.274916E+04  8.352641E+03  5.011631E+03 -1.507304E+03
       160   4  2.678806E+05  2.882390E+04  3.094002E+04  8.102139E+03  2.156617E+04 -4.294213E+02
       160   5  2.657246E+05  9.215650E+03  1.560350E+04  7.559688E+03  1.358975E+04 -1.377130E+03
       160   6  2.678843E+05  2.718676E+03  8.736253E+03  8.102152E+03  5.613477E+03 -1.507307E+03
       160   7  2.304397E+05  1.958792E+04  2.218625E+04 -1.115118E+04  1.863447E+04 -4.299953E+02
       160   8  2.348883E+05  1.896260E+03  9.833286E+03 -2.192156E+03  1.242487E+04 -1.377333E+03
       160   9  2.433464E+05 -2.990062E+03  4.723327E+03  7.851672E+03  6.215299E+03 -1.507311E+03
       160  10  3.053230E+05  3.806101E+04  3.969279E+04  2.735664E+04 -7.427119E-11 -4.149440E-12
       160  11  2.965618E+05  1.653528E+04  2.137331E+04  1.731204E+04 -1.451871E-11  4.688509E-11
       160  12  2.924227E+05  8.427376E+03  1.274911E+04  8.352647E+03 -1.144219E-12  1.517660E-10
       160  13  2.678801E+05  2.882377E+04  3.093914E+04  8.102147E+03 -2.288152E-10  5.583707E-12
       160  14  2.657244E+05  9.215599E+03  1.560315E+04  7.559703E+03 -1.615528E-10  2.875015E-11
       160  15  2.678842E+05  2.718666E+03  8.736190E+03  8.102158E+03  2.478827E-10  7.431650E-11
       160  16  2.304393E+05  1.958783E+04  2.218559E+04 -1.115118E+04  1.076210E-10  4.403730E-12
       160  17  2.348881E+05  1.896217E+03  9.832993E+03 -2.192142E+03  8.447998E-11  1.239018E-11
       160  18  2.433464E+05 -2.990075E+03  4.723250E+03  7.851680E+03  1.449797E-10 -8.816802E-12
       160  19  3.053237E+05  3.806117E+04  3.969392E+04  2.735663E+04 -2.449804E+04  4.286655E+02
       160  20  2.965620E+05  1.653534E+04  2.137372E+04  1.731203E+04 -1.475469E+04  1.376890E+03
       160  21  2.924227E+05  8.427385E+03  1.274916E+04  8.352641E+03 -5.011631E+03  1.507304E+03
       160  22  2.678806E+05  2.882390E+04  3.094002E+04  8.102139E+03 -2.156617E+04  4.294213E+02
       160  23  2.657246E+05  9.215650E+03  1.560350E+04  7.559688E+03 -1.358975E+04  1.377130E+03
       160  24  2.678843E+05  2.718676E+03  8.736253E+03  8.102152E+03 -5.613477E+03  1.507307E+03
       160  25  2.304397E+05  1.958792E+04  2.218625E+04 -1.115118E+04 -1.863447E+04  4.299953E+02
       160  26  2.348883E+05  1.896260E+03  9.833286E+03 -2.192156E+03 -1.242487E+04  1.377333E+03
       160  27  2.433464E+05 -2.990062E+03  4.723327E+03  7.851672E+03 -6.215299E+03  1.507311E+03
       161   1  2.875114E+05  6.851119E+03  1.003883E+04  9.314203E+03  3.837095E+03 -1.312670E+03
       161   2  2.807628E+05  3.807051E+03  6.415498E+03  8.091369E+03  1.493176E+03 -9.828141E+02
       161   3  2.746219E+05  1.973502E+03  4.620285E+03  8.011696E+03 -8.507555E+02 -5.622123E+02
       161   4  2.670526E+05  2.107235E+03  6.771790E+03  8.115123E+03  4.451757E+03 -1.312676E+03
       161   5  2.667660E+05  5.853451E+02  4.299503E+03  7.543547E+03  2.303972E+03 -9.828092E+02
       161   6  2.670530E+05  2.399819E+02  3.519243E+03  8.115138E+03  1.561557E+02 -5.622002E+02
       161   7  2.465943E+05 -2.636664E+03  3.504745E+03  6.916083E+03  5.066399E+03 -1.312684E+03
       161   8  2.527693E+05 -2.636369E+03  2.183507E+03  6.995739E+03  3.114751E+03 -9.828057E+02
       161   9  2.594842E+05 -1.493540E+03  2.418203E+03  8.218580E+03  1.163055E+03 -5.621877E+02
       161  10  2.875113E+05  6.851113E+03  1.003879E+04  9.314207E+03 -1.138025E-10  1.325981E-10
       161  11  2.807628E+05  3.807050E+03  6.415492E+03  8.091370E+03  1.423598E-10  3.013437E-11
       161  12  2.746219E+05  1.973501E+03  4.620283E+03  8.011695E+03  4.285300E-11 -3.733825E-12
       161  13  2.670526E+05  2.107228E+03  6.771749E+03  8.115128E+03  2.279689E-10  8.134738E-11
       161  14  2.667660E+05  5.853427E+02  4.299491E+03  7.543549E+03  2.113946E-10  2.652043E-11
       161  15  2.670530E+05  2.399816E+02  3.519242E+03  8.115139E+03 -1.623062E-10 -2.002075E-11
       161  16  2.465942E+05 -2.636672E+03  3.504694E+03  6.916089E+03  4.980870E-11  4.208244E-12
       161  17  2.527693E+05 -2.636373E+03  2.183487E+03  6.995741E+03  2.397863E-10  4.365759E-11
       161  18  2.594842E+05 -1.493541E+03  2.418200E+03  8.218581E+03  1.529212E-11 -2.706457E-11
       161  19  2.875114E+05  6.851119E+03  1.003883E+04  9.314203E+03 -3.837095E+03  1.312670E+03
       161  20  2.807628E+05  3.807051E+03  6.415498E+03  8.091369E+03 -1.493176E+03  9.828141E+02
       161  21  2.746219E+05  1.973502E+03  4.620285E+03  8.011696E+03  8.507555E+02  5.622123E+02
       161  22  2.670526E+05  2.107235E+03  6.771790E+03  8.115123E+03 -4.451757E+03  1.312676E+03
       161  23  2.667660E+05  5.853451E+02  4.299503E+03  7.543547E+03 -2.303972E+03  9.828092E+02
       161  24  2.670530E+05  2.399819E+02  3.519243E+03  8.115138E+03 -1.561557E+02  5.622002E+02
       161  25  2.465943E+05 -2.636664E+03  3.504745E+03  6.916083E+03 -5.066399E+03  1.312684E+03
       161  26  2.527693E+05 -2.636369E+03  2.183507E+03  6.995739E+03 -3.114751E+03  9.828057E+02
       161  27  2.594842E+05 -1.493540E+03  2.418203E+03  8.218580E+03 -1.163055E+03  5.621877E+02
       162   1  2.705958E+05  1.046281E+03  4.053816E+03  8.236807E+03 -1.454766E+03 -2.845982E+02
       162   2  2.638526E+05 -3.256370E+01  4.074615E+03  6.944196E+03 -3.618031E+03  1.519158E+02
       162   3  2.577070E+05  1.527040E+02  5.819409E+03  6.796661E+03 -5.781278E+03  5.290936E+02
       162   4  2.670633E+05  2.434578E+02  3.571147E+03  8.115561E+03 -4.474340E+02 -2.845847E+02
       162   5  2.667532E+05  6.496421E+02  4.585844E+03  7.543019E+03 -2.738930E+03  1.519232E+02
       162   6  2.670629E+05  2.342185E+03  7.413541E+03  8.115544E+03 -5.030430E+03  5.290900E+02
       162   7  2.635308E+05 -5.593650E+02  3.088481E+03  7.994316E+03  5.598924E+02 -2.845715E+02
       162   8  2.696538E+05  1.331849E+03  5.097075E+03  8.141845E+03 -1.859826E+03  1.519322E+02
       162   9  2.764188E+05  4.531669E+03  9.007674E+03  9.434447E+03 -4.279571E+03  5.290895E+02
       162  10  2.705958E+05  1.046280E+03  4.053812E+03  8.236807E+03  8.555298E-11 -7.408164E-12
       162  11  2.638525E+05 -3.256723E+01  4.074591E+03  6.944197E+03 -7.370079E-11 -4.653576E-11
       162  12  2.577069E+05  1.526947E+02  5.819345E+03  6.796663E+03  3.437851E-11 -1.317289E-10
       162  13  2.670633E+05  2.434577E+02  3.571146E+03  8.115561E+03  1.388324E-10 -4.337063E-11
       162  14  2.667531E+05  6.496401E+02  4.585830E+03  7.543020E+03 -1.930851E-11 -9.269252E-11
       162  15  2.670628E+05  2.342178E+03  7.413493E+03  8.115546E+03 -7.398201E-11 -1.605598E-10
       162  16  2.635308E+05 -5.593652E+02  3.088480E+03  7.994316E+03  1.887127E-11 -9.070181E-11
       162  17  2.696538E+05  1.331848E+03  5.097069E+03  8.141845E+03  7.567971E-11 -1.397559E-10
       162  18  2.764188E+05  4.531664E+03  9.007639E+03  9.434449E+03  2.024817E-11 -1.753164E-10
       162  19  2.705958E+05  1.046281E+03  4.053816E+03  8.236807E+03  1.454766E+03  2.845982E+02
       162  20  2.638526E+05 -3.256370E+01  4.074615E+03  6.944196E+03  3.618031E+03 -1.519158E+02
       162  21  2.577070E+05  1.527040E+02  5.819409E+03  6.796661E+03  5.781278E+03 -5.290936E+02
       162  22  2.670633E+05  2.434578E+02  3.571147E+03  8.115561E+03  4.474340E+02  2.845847E+02
       162  23  2.667532E+05  6.496421E+02  4.585844E+03  7.543019E+03  2.738930E+03 -1.519232E+02
       162  24  2.670629E+05  2.342185E+03  7.413541E+03  8.115544E+03  5.030430E+03 -5.290900E+02
       162  25  2.635308E+05 -5.593650E+02  3.088481E+03  7.994316E+03 -5.598924E+02  2.845715E+02
       162  26  2.696538E+05  1.331849E+03  5.097075E+03  8.141845E+03  1.859826E+03 -1.519322E+02
       162  27  2.764188E+05  4.531669E+03  9.007674E+03  9.434447E+03  4.279571E+03 -5.290895E+02
       163   1  2.545692E+05 -1.221488E+02  7.326252E+03  7.836947E+03 -7.045622E+03  7.524236E+02
       163   2  2.458344E+05  5.519126E+03  1.347552E+04 -3.263530E+03 -1.461498E+04  8.027337E+02
       163   3  2.416684E+05  2.549407E+04  2.813503E+04 -1.326006E+04 -2.218414E+04  2.668748E+02
       163   4  2.679893E+05  3.020244E+03  9.622044E+03  8.106354E+03 -6.303896E+03  7.524276E+02
       163   5  2.655932E+05  1.023163E+04  1.728512E+04  7.554403E+03 -1.514053E+04  8.024727E+02
       163   6  2.679853E+05  3.199592E+04  3.433796E+04  8.106211E+03 -2.397706E+04  2.661003E+02
       163   7  2.814096E+05  6.162629E+03  1.191783E+04  8.375767E+03 -5.562154E+03  7.524322E+02
       163   8  2.853527E+05  1.494456E+04  2.109476E+04  1.837269E+04 -1.566611E+04  8.021934E+02
       163   9  2.943038E+05  3.849943E+04  4.054110E+04  2.947340E+04 -2.577005E+04  2.652025E+02
       163  10  2.545691E+05 -1.221627E+02  7.326157E+03  7.836951E+03  1.361080E-11 -1.605248E-10
       163  11  2.458342E+05  5.519068E+03  1.347512E+04 -3.263521E+03 -6.022518E-13 -1.080826E-10
       163  12  2.416679E+05  2.549394E+04  2.813411E+04 -1.326006E+04 -1.684906E-10 -3.693259E-11
       163  13  2.679892E+05  3.020233E+03  9.621968E+03  8.106358E+03 -1.251251E-10 -1.759890E-10
       163  14  2.655930E+05  1.023157E+04  1.728468E+04  7.554412E+03 -2.104974E-12 -1.152317E-10
       163  15  2.679847E+05  3.199576E+04  3.433688E+04  8.106216E+03 -8.451155E-11 -3.484844E-11
       163  16  2.814095E+05  6.162620E+03  1.191777E+04  8.375771E+03 -1.259681E-10 -1.776264E-10
       163  17  2.853524E+05  1.494449E+04  2.109430E+04  1.837270E+04 -1.054972E-10 -1.207348E-10
       163  18  2.943031E+05  3.849925E+04  4.053986E+04  2.947340E+04  3.063901E-10 -1.931960E-11
       163  19  2.545692E+05 -1.221488E+02  7.326252E+03  7.836947E+03  7.045622E+03 -7.524236E+02
       163  20  2.458344E+05  5.519126E+03  1.347552E+04 -3.263530E+03  1.461498E+04 -8.027337E+02
       163  21  2.416684E+05  2.549407E+04  2.813503E+04 -1.326006E+04  2.218414E+04 -2.668748E+02
       163  22  2.679893E+05  3.020244E+03  9.622044E+03  8.106354E+03  6.303896E+03 -7.524276E+02
       163  23  2.655932E+05  1.023163E+04  1.728512E+04  7.554403E+03  1.514053E+04 -8.024727E+02
       163  24  2.679853E+05  3.199592E+04  3.433796E+04  8.106211E+03  2.397706E+04 -2.661003E+02
       163  25  2.814096E+05  6.162629E+03  1.191783E+04  8.375767E+03  5.562154E+03 -7.524322E+02
       163  26  2.853527E+05  1.494456E+04  2.109476E+04  1.837269E+04  1.566611E+04 -8.021934E+02
       163  27  2.943038E+05  3.849943E+04  4.054110E+04  2.947340E+04  2.577005E+04 -2.652025E+02
       164   1 -4.723524E+04 -1.070051E+05 -4.931597E+04  3.164689E+04 -5.733435E+02 -3.005989E+04
       164   2 -2.100964E+04 -9.795135E+04 -2.732633E+04  1.933150E+04 -1.883521E+03 -1.772545E+04
       164   3 -1.150277E+04 -9.468346E+04 -1.754725E+04  8.032946E+03 -2.184110E+03 -5.390657E+03
       164   4 -3.571530E+04 -6.027735E+04 -3.843664E+04  7.730455E+03 -5.720612E+02 -2.613821E+04
       164   5 -1.144488E+04 -5.757316E+04 -1.987835E+04  7.221256E+03 -1.883102E+03 -1.598450E+04
       164   6 -3.514425E+03 -6.027621E+04 -1.201568E+04  7.729284E+03 -2.184115E+03 -5.830651E+03
       164   7 -2.419337E+04 -1.354629E+04 -2.755710E+04 -1.618779E+04 -5.710813E+02 -2.221624E+04
       164   8 -1.879653E+03 -1.719306E+04 -1.243034E+04 -4.889795E+03 -1.882750E+03 -1.424345E+04
       164   9  4.473860E+03 -2.586779E+04 -6.484150E+03  7.425605E+03 -2.184119E+03 -6.270669E+03
       164  10 -4.723548E+04 -1.070061E+05 -4.931767E+04  3.164688E+04 -5.480700E-11 -1.514293E-10
       164  11 -2.100973E+04 -9.795169E+04 -2.732693E+04  1.933147E+04  1.348471E-10  8.401634E-11
       164  12 -1.150278E+04 -9.468349E+04 -1.754731E+04  8.032936E+03  7.559152E-12  2.633791E-10
       164  13 -3.571549E+04 -6.027809E+04 -3.843793E+04  7.730443E+03  1.195305E-10  1.301141E-11
       164  14 -1.144495E+04 -5.757343E+04 -1.987884E+04  7.221232E+03  3.429650E-11  4.423065E-12
       164  15 -3.514439E+03 -6.027625E+04 -1.201576E+04  7.729274E+03 -1.718618E-10  3.477871E-11
       164  16 -2.419350E+04 -1.354682E+04 -2.755803E+04 -1.618780E+04  7.523293E-12  1.599421E-10
       164  17 -1.879711E+03 -1.719328E+04 -1.243073E+04 -4.889817E+03  5.718243E-11 -5.849213E-11
       164  18  4.473844E+03 -2.586783E+04 -6.484233E+03  7.425594E+03  4.539367E-11 -2.756282E-10
       164  19 -4.723524E+04 -1.070051E+05 -4.931597E+04  3.164689E+04  5.733435E+02  3.005989E+04
       164  20 -2.100964E+04 -9.795135E+04 -2.732633E+04  1.933150E+04  1.883521E+03  1.772545E+04
       164  21 -1.150277E+04 -9.468346E+04 -1.754725E+04  8.032946E+03  2.184110E+03  5.390657E+03
       164  22 -3.571530E+04 -6.027735E+04 -3.843664E+04  7.730455E+03  5.720612E+02  2.613821E+04
       164  23 -1.144488E+04 -5.757316E+04 -1.987835E+04  7.221256E+03  1.883102E+03  1.598450E+04
       164  24 -3.514425E+03 -6.027621E+04 -1.201568E+04  7.729284E+03  2.184115E+03  5.830651E+03
       164  25 -2.419337E+04 -1.354629E+04 -2.755710E+04 -1.618779E+04  5.710813E+02  2.221624E+04
       164  26 -1.879653E+03 -1.719306E+04 -1.243034E+04 -4.889795E+03  1.882750E+03  1.424345E+04
       164  27  4.473860E+03 -2.586779E+04 -6.484150E+03  7.425605E+03  2.184119E+03  6.270669E+03
       165   1 -9.854567E+03 -8.984331E+04 -1.480462E+04  9.332482E+03 -2.025843E+03 -3.701514E+03
       165   2 -7.048245E+03 -8.305848E+04 -1.196075E+04  7.196623E+03 -1.753325E+03  7.402382E+02
       165   3 -6.977346E+03 -7.753593E+04 -1.269274E+04  6.150921E+03 -1.358092E+03  5.182022E+03
       165   4 -2.799193E+03 -5.934491E+04 -1.002793E+04  7.745534E+03 -2.025845E+03 -4.157233E+03
       165   5 -1.460434E+03 -5.873671E+04 -8.345442E+03  7.200440E+03 -1.753352E+03  1.960491E+01
       165   6 -2.811044E+03 -5.934481E+04 -1.005473E+04  7.745515E+03 -1.358126E+03  4.196434E+03
       165   7  4.256144E+03 -2.884556E+04 -5.251264E+03  6.158506E+03 -2.025844E+03 -4.612975E+03
       165   8  4.127348E+03 -3.441435E+04 -4.730141E+03  7.204256E+03 -1.753380E+03 -7.010555E+02
       165   9  1.355252E+03 -4.115334E+04 -7.416720E+03  9.340157E+03 -1.358165E+03  3.210819E+03
       165  10 -9.854575E+03 -8.984333E+04 -1.480466E+04  9.332476E+03  1.167912E-11 -1.431361E-10
       165  11 -7.048248E+03 -8.305848E+04 -1.196076E+04  7.196624E+03  1.308489E-10  1.412394E-10
       165  12 -6.977355E+03 -7.753596E+04 -1.269279E+04  6.150926E+03 -6.762740E-11  3.567816E-10
       165  13 -2.799202E+03 -5.934493E+04 -1.002797E+04  7.745528E+03 -3.541708E-11  4.032853E-11
       165  14 -1.460438E+03 -5.873671E+04 -8.345448E+03  7.200440E+03 -1.070857E-10  4.670202E-12
       165  15 -2.811051E+03 -5.934482E+04 -1.005476E+04  7.745519E+03 -8.944930E-13  5.002528E-11
       165  16  4.256134E+03 -2.884559E+04 -5.251311E+03  6.158498E+03 -1.188362E-10  1.590829E-10
       165  17  4.127345E+03 -3.441435E+04 -4.730148E+03  7.204255E+03 -8.670106E-11 -8.307902E-11
       165  18  1.355248E+03 -4.115335E+04 -7.416743E+03  9.340161E+03  6.549990E-11 -3.569630E-10
       165  19 -9.854567E+03 -8.984331E+04 -1.480462E+04  9.332482E+03  2.025843E+03  3.701514E+03
       165  20 -7.048245E+03 -8.305848E+04 -1.196075E+04  7.196623E+03  1.753325E+03 -7.402382E+02
       165  21 -6.977346E+03 -7.753593E+04 -1.269274E+04  6.150921E+03  1.358092E+03 -5.182022E+03
       165  22 -2.799193E+03 -5.934491E+04 -1.002793E+04  7.745534E+03  2.025845E+03  4.157233E+03
       165  23 -1.460434E+03 -5.873671E+04 -8.345442E+03  7.200440E+03  1.753352E+03 -1.960491E+01
       165  24 -2.811044E+03 -5.934481E+04 -1.005473E+04  7.745515E+03  1.358126E+03 -4.196434E+03
       165  25  4.256144E+03 -2.884556E+04 -5.251264E+03  6.158506E+03  2.025844E+03  4.612975E+03
       165  26  4.127348E+03 -3.441435E+04 -4.730141E+03  7.204256E+03  1.753380E+03  7.010555E+02
       165  27  1.355252E+03 -4.115334E+04 -7.416720E+03  9.340157E+03  1.358165E+03 -3.210819E+03
       166   1 -6.809245E+03 -7.462129E+04 -1.411351E+04  7.441285E+03 -1.087586E+03  6.862294E+03
       166   2 -1.337218E+04 -6.574804E+04 -2.113804E+04 -4.972011E+03 -6.224064E+02  1.709529E+04
       166   3 -3.635959E+04 -6.231341E+04 -3.893095E+04 -1.628564E+04 -1.421947E+02  2.732820E+04
       166   4 -3.530039E+03 -6.028180E+04 -1.205827E+04  7.747477E+03 -1.087633E+03  5.874775E+03
       166   5 -1.150032E+04 -5.756569E+04 -1.996817E+04  7.198480E+03 -6.221257E+02  1.607455E+04
       166   6 -3.588973E+04 -6.028275E+04 -3.862343E+04  7.748990E+03 -1.411954E+02  2.627416E+04
       166   7 -2.508407E+02 -4.594210E+04 -1.000304E+04  8.053675E+03 -1.087680E+03  4.887235E+03
       166   8 -9.627907E+03 -4.938296E+04 -1.879823E+04  1.936914E+04 -6.218851E+02  1.505380E+04
       166   9 -3.541771E+04 -5.825084E+04 -3.831560E+04  3.178370E+04 -1.402778E+02  2.522012E+04
       166  10 -6.809259E+03 -7.462134E+04 -1.411360E+04  7.441291E+03 -1.161239E-10 -3.990065E-10
       166  11 -1.337226E+04 -6.574835E+04 -2.113859E+04 -4.972002E+03 -6.574699E-11  3.720354E-11
       166  12 -3.635979E+04 -6.231421E+04 -3.893235E+04 -1.628563E+04 -9.096867E-11  3.858484E-10
       166  13 -3.530049E+03 -6.028184E+04 -1.205834E+04  7.747482E+03 -1.532140E-10  5.115204E-11
       166  14 -1.150039E+04 -5.756597E+04 -1.996866E+04  7.198488E+03 -1.588725E-10 -4.496246E-12
       166  15 -3.588992E+04 -6.028349E+04 -3.862473E+04  7.748993E+03 -7.660754E-11  4.114328E-11
       166  16 -2.508483E+02 -4.594213E+04 -1.000309E+04  8.053680E+03 -1.194679E-11  4.152434E-10
       166  17 -9.627968E+03 -4.938320E+04 -1.879865E+04  1.936914E+04 -2.093411E-10  1.697317E-11
       166  18 -3.541788E+04 -5.825153E+04 -3.831679E+04  3.178370E+04 -1.606391E-10 -3.855572E-10
       166  19 -6.809245E+03 -7.462129E+04 -1.411351E+04  7.441285E+03  1.087586E+03 -6.862294E+03
       166  20 -1.337218E+04 -6.574804E+04 -2.113804E+04 -4.972011E+03  6.224064E+02 -1.709529E+04
       166  21 -3.635959E+04 -6.231341E+04 -3.893095E+04 -1.628564E+04  1.421947E+02 -2.732820E+04
       166  22 -3.530039E+03 -6.028180E+04 -1.205827E+04  7.747477E+03  1.087633E+03 -5.874775E+03
       166  23 -1.150032E+04 -5.756569E+04 -1.996817E+04  7.198480E+03  6.221257E+02 -1.607455E+04
       166  24 -3.588973E+04 -6.028275E+04 -3.862343E+04  7.748990E+03  1.411954E+02 -2.627416E+04
       166  25 -2.508407E+02 -4.594210E+04 -1.000304E+04  8.053675E+03  1.087680E+03 -4.887235E+03
       166  26 -9.627907E+03 -4.938296E+04 -1.879823E+04  1.936914E+04  6.218851E+02 -1.505380E+04
       166  27 -3.541771E+04 -5.825084E+04 -3.831560E+04  3.178370E+04  1.402778E+02 -2.522012E+04
       167   1  5.236084E+04  8.133844E+03 -1.167171E+04  3.852661E+04 -2.418138E+03 -7.718991E+02
       167   2  5.979013E+04  1.158293E+04 -8.649552E+03  4.333548E+04 -1.876045E+03  1.981530E+03
       167   3  6.949695E+04  1.427299E+04 -6.627169E+03  4.700110E+04 -4.173934E+02  3.512996E+03
       167   4  1.064173E+05  4.170998E+04  4.728197E+03  6.312191E+04  2.146784E+03  2.651502E+03
       167   5  1.042745E+05  4.052598E+04  2.374769E+03  6.465188E+04  4.904710E+01  3.425182E+03
       167   6  1.049814E+05  3.915567E+04  1.312670E+03  6.503852E+04 -1.132235E+03  2.976902E+03
       167   7  1.604782E+05  7.528804E+04  2.112829E+04  8.772004E+04  6.712355E+03  6.075322E+03
       167   8  1.487610E+05  6.947000E+04  1.339896E+04  8.596999E+04  1.974326E+03  4.868960E+03
       167   9  1.404666E+05  6.403855E+04  9.252165E+03  8.307674E+04 -1.847114E+03  2.440779E+03
       167  10  5.236083E+04  8.133842E+03 -1.167172E+04  3.852661E+04 -8.881068E-11  1.052722E-11
       167  11  5.979013E+04  1.158293E+04 -8.649566E+03  4.333548E+04 -3.034638E-11  7.458341E-11
       167  12  6.949695E+04  1.427298E+04 -6.627192E+03  4.700110E+04  1.305210E-10  4.646559E-11
       167  13  1.064173E+05  4.170998E+04  4.728175E+03  6.312191E+04 -1.622194E-10  5.918627E-12
       167  14  1.042745E+05  4.052597E+04  2.374747E+03  6.465188E+04 -7.686976E-11  3.808731E-11
       167  15  1.049814E+05  3.915566E+04  1.312651E+03  6.503852E+04  1.059997E-10 -7.240329E-12
       167  16  1.604781E+05  7.528799E+04  2.112813E+04  8.772001E+04  6.294924E-11 -8.795704E-12
       167  17  1.487610E+05  6.946997E+04  1.339891E+04  8.596998E+04  5.013060E-11 -3.819474E-11
       167  18  1.404666E+05  6.403854E+04  9.252147E+03  8.307674E+04  2.629230E-11 -3.554468E-11
       167  19  5.236084E+04  8.133844E+03 -1.167171E+04  3.852661E+04  2.418138E+03  7.718991E+02
       167  20  5.979013E+04  1.158293E+04 -8.649552E+03  4.333548E+04  1.876045E+03 -1.981530E+03
       167  21  6.949695E+04  1.427299E+04 -6.627169E+03  4.700110E+04  4.173934E+02 -3.512996E+03
       167  22  1.064173E+05  4.170998E+04  4.728197E+03  6.312191E+04 -2.146784E+03 -2.651502E+03
       167  23  1.042745E+05  4.052598E+04  2.374769E+03  6.465188E+04 -4.904710E+01 -3.425182E+03
       167  24  1.049814E+05  3.915567E+04  1.312670E+03  6.503852E+04  1.132235E+03 -2.976902E+03
       167  25  1.604782E+05  7.528804E+04  2.112829E+04  8.772004E+04 -6.712355E+03 -6.075322E+03
       167  26  1.487610E+05  6.947000E+04  1.339896E+04  8.596999E+04 -1.974326E+03 -4.868960E+03
       167  27  1.404666E+05  6.403855E+04  9.252165E+03  8.307674E+04  1.847114E+03 -2.440779E+03
       168   1  7.416248E+04  1.773610E+04 -5.672295E+03  4.948770E+04 -3.559724E+02  3.182965E+03
       168   2  8.097879E+04  2.384557E+04 -4.132762E+03  5.373415E+04  3.041650E+01  2.827410E+03
       168   3  8.965051E+04  2.821086E+04 -2.630877E+03  5.741040E+04  5.266384E+02  2.325392E+03
       168   4  1.048888E+05  3.902598E+04  1.003677E+03  6.501470E+04 -1.089997E+03  2.632497E+03
       168   5  1.038718E+05  3.976592E+04  5.998559E+02  6.537330E+04 -1.020039E+03  2.039663E+03
       168   6  1.047788E+05  3.883024E+04  4.329964E+02  6.516164E+04 -8.402526E+02  1.300362E+03
       168   7  1.356162E+05  6.031645E+04  7.679616E+03  8.054261E+04 -1.824070E+03  2.081994E+03
       168   8  1.267657E+05  5.568680E+04  5.332558E+03  7.701310E+04 -2.070559E+03  1.251868E+03
       168   9  1.199077E+05  4.945003E+04  3.496999E+03  7.291329E+04 -2.207220E+03  2.752743E+02
       168  10  7.416247E+04  1.773608E+04 -5.672315E+03  4.948770E+04  2.016313E-10  2.716495E-11
       168  11  8.097879E+04  2.384556E+04 -4.132777E+03  5.373415E+04  9.499715E-11  4.292013E-11
       168  12  8.965051E+04  2.821085E+04 -2.630888E+03  5.741040E+04  1.720443E-10  3.319014E-11
       168  13  1.048888E+05  3.902597E+04  1.003661E+03  6.501470E+04  1.054944E-10 -1.154600E-11
       168  14  1.038718E+05  3.976592E+04  5.998461E+02  6.537331E+04  2.029619E-11  3.648783E-11
       168  15  1.047788E+05  3.883024E+04  4.329919E+02  6.516164E+04  1.319838E-10  3.281098E-13
       168  16  1.356162E+05  6.031645E+04  7.679602E+03  8.054261E+04 -6.958232E-11 -1.346142E-11
       168  17  1.267656E+05  5.568680E+04  5.332547E+03  7.701311E+04 -7.023690E-11 -5.876061E-11
       168  18  1.199077E+05  4.945003E+04  3.496989E+03  7.291329E+04 -4.825678E-11 -2.618309E-11
       168  19  7.416248E+04  1.773610E+04 -5.672295E+03  4.948770E+04  3.559724E+02 -3.182965E+03
       168  20  8.097879E+04  2.384557E+04 -4.132762E+03  5.373415E+04 -3.041650E+01 -2.827410E+03
       168  21  8.965051E+04  2.821086E+04 -2.630877E+03  5.741040E+04 -5.266384E+02 -2.325392E+03
       168  22  1.048888E+05  3.902598E+04  1.003677E+03  6.501470E+04  1.089997E+03 -2.632497E+03
       168  23  1.038718E+05  3.976592E+04  5.998559E+02  6.537330E+04  1.020039E+03 -2.039663E+03
       168  24  1.047788E+05  3.883024E+04  4.329964E+02  6.516164E+04  8.402526E+02 -1.300362E+03
       168  25  1.356162E+05  6.031645E+04  7.679616E+03  8.054261E+04  1.824070E+03 -2.081994E+03
       168  26  1.267657E+05  5.568680E+04  5.332558E+03  7.701310E+04  2.070559E+03 -1.251868E+03
       168  27  1.199077E+05  4.945003E+04  3.496999E+03  7.291329E+04  2.207220E+03 -2.752743E+02
       169   1  9.443979E+04  3.160270E+04 -1.650991E+03  5.987608E+04  7.514113E+02  1.908622E+03
       169   2  1.012074E+05  3.788593E+04 -6.448300E+01  6.407382E+04  1.053491E+03  1.143726E+03
       169   3  1.098400E+05  4.238924E+04  1.674727E+03  6.773678E+04  1.356898E+03  3.770471E+02
       169   4  1.047737E+05  3.882098E+04  4.061591E+02  6.515946E+04 -6.175776E+02  8.820245E+02
       169   5  1.038457E+05  3.971921E+04  4.476467E+02  6.542022E+04 -3.193497E+02  1.142514E+02
       169   6  1.047834E+05  3.883846E+04  6.452438E+02  6.514624E+04 -1.979067E+01 -6.553070E+02
       169   7  1.151074E+05  4.603916E+04  2.463232E+03  7.044283E+04 -1.986565E+03 -1.445712E+02
       169   8  1.064839E+05  4.155247E+04  9.597761E+02  6.676662E+04 -1.692181E+03 -9.152160E+02
       169   9  9.972696E+04  3.528770E+04 -3.842273E+02  6.255573E+04 -1.396463E+03 -1.687649E+03
       169  10  9.443979E+04  3.160270E+04 -1.650999E+03  5.987608E+04  1.729489E-10  4.075022E-11
       169  11  1.012074E+05  3.788593E+04 -6.448754E+01  6.407381E+04 -1.494412E-10  4.961261E-12
       169  12  1.098400E+05  4.238924E+04  1.674723E+03  6.773678E+04 -1.654671E-10 -3.835962E-11
       169  13  1.047737E+05  3.882098E+04  4.061569E+02  6.515946E+04  2.630406E-11 -1.925358E-11
       169  14  1.038457E+05  3.971921E+04  4.476465E+02  6.542022E+04 -9.047317E-11 -7.132923E-11
       169  15  1.047834E+05  3.883846E+04  6.452430E+02  6.514624E+04  4.961750E-11  4.318705E-11
       169  16  1.151074E+05  4.603916E+04  2.463224E+03  7.044283E+04 -6.603428E-11 -2.979556E-11
       169  17  1.064839E+05  4.155247E+04  9.597691E+02  6.676662E+04 -6.908245E-11  7.715440E-11
       169  18  9.972695E+04  3.528770E+04 -3.842363E+02  6.255573E+04  9.624739E-11  9.762589E-11
       169  19  9.443979E+04  3.160270E+04 -1.650991E+03  5.987608E+04 -7.514113E+02 -1.908622E+03
       169  20  1.012074E+05  3.788593E+04 -6.448300E+01  6.407382E+04 -1.053491E+03 -1.143726E+03
       169  21  1.098400E+05  4.238924E+04  1.674727E+03  6.773678E+04 -1.356898E+03 -3.770471E+02
       169  22  1.047737E+05  3.882098E+04  4.061591E+02  6.515946E+04  6.175776E+02 -8.820245E+02
       169  23  1.038457E+05  3.971921E+04  4.476467E+02  6.542022E+04  3.193497E+02 -1.142514E+02
       169  24  1.047834E+05  3.883846E+04  6.452438E+02  6.514624E+04  1.979067E+01  6.553070E+02
       169  25  1.151074E+05  4.603916E+04  2.463232E+03  7.044283E+04  1.986565E+03  1.445712E+02
       169  26  1.064839E+05  4.155247E+04  9.597761E+02  6.676662E+04  1.692181E+03  9.152160E+02
       169  27  9.972696E+04  3.528770E+04 -3.842273E+02  6.255573E+04  1.396463E+03  1.687649E+03
       170   1  1.146367E+05  4.583348E+04  2.846829E+03  7.022192E+04  1.537438E+03 -7.541856E+01
       170   2  1.216483E+05  5.196899E+04  5.062098E+03  7.420007E+04  1.129183E+03 -1.273082E+03
       170   3  1.308157E+05  5.669872E+04  8.080459E+03  7.753797E+04  6.222682E+02 -2.339243E+03
       170   4  1.048082E+05  3.886147E+04  8.138583E+02  6.515751E+04  1.625654E+02 -1.106419E+03
       170   5  1.039029E+05  3.984742E+04  1.379138E+03  6.528842E+04  3.847377E+01 -2.091009E+03
       170   6  1.050916E+05  3.936575E+04  2.500856E+03  6.477891E+04 -1.842506E+02 -2.944064E+03
       170   7  9.497963E+04  3.188936E+04 -1.219184E+03  6.009308E+04 -1.212309E+03 -2.137420E+03
       170   8  8.615789E+04  2.772604E+04 -2.303827E+03  5.637705E+04 -1.052194E+03 -2.908906E+03
       170   9  7.936881E+04  2.203357E+04 -3.078574E+03  5.202075E+04 -9.907066E+02 -3.548841E+03
       170  10  1.146367E+05  4.583348E+04  2.846825E+03  7.022192E+04  1.699856E-10  1.834883E-10
       170  11  1.216483E+05  5.196899E+04  5.062093E+03  7.420008E+04  9.200120E-11 -2.800914E-11
       170  12  1.308157E+05  5.669872E+04  8.080448E+03  7.753797E+04 -1.574969E-10 -1.327756E-10
       170  13  1.048082E+05  3.886147E+04  8.138559E+02  6.515751E+04  4.441817E-11  4.771048E-11
       170  14  1.039029E+05  3.984741E+04  1.379130E+03  6.528842E+04 -1.938779E-10  8.142644E-12
       170  15  1.050916E+05  3.936575E+04  2.500840E+03  6.477891E+04 -1.582904E-11  3.454961E-11
       170  16  9.497962E+04  3.188935E+04 -1.219195E+03  6.009307E+04 -2.729054E-10 -6.245025E-11
       170  17  8.615789E+04  2.772603E+04 -2.303845E+03  5.637705E+04 -2.659998E-11 -3.348596E-11
       170  18  7.936881E+04  2.203355E+04 -3.078600E+03  5.202075E+04  1.284591E-10  1.653229E-10
       170  19  1.146367E+05  4.583348E+04  2.846829E+03  7.022192E+04 -1.537438E+03  7.541856E+01
       170  20  1.216483E+05  5.196899E+04  5.062098E+03  7.420007E+04 -1.129183E+03  1.273082E+03
       170  21  1.308157E+05  5.669872E+04  8.080459E+03  7.753797E+04 -6.222682E+02  2.339243E+03
       170  22  1.048082E+05  3.886147E+04  8.138583E+02  6.515751E+04 -1.625654E+02  1.106419E+03
       170  23  1.039029E+05  3.984742E+04  1.379138E+03  6.528842E+04 -3.847377E+01  2.091009E+03
       170  24  1.050916E+05  3.936575E+04  2.500856E+03  6.477891E+04  1.842506E+02  2.944064E+03
       170  25  9.497963E+04  3.188936E+04 -1.219184E+03  6.009308E+04  1.212309E+03  2.137420E+03
       170  26  8.615789E+04  2.772604E+04 -2.303827E+03  5.637705E+04  1.052194E+03  2.908906E+03
       170  27  7.936881E+04  2.203357E+04 -3.078574E+03  5.202075E+04  9.907066E+02  3.548841E+03
       171   1  1.356276E+05  6.079463E+04  1.013991E+04  8.016173E+04  4.512618E+02 -2.867423E+03
       171   2  1.463720E+05  6.482861E+04  1.585000E+04  8.142845E+04 -4.566253E+03 -6.340941E+03
       171   3  1.623075E+05  7.159226E+04  2.695481E+04  8.052273E+04 -1.040940E+04 -8.713809E+03
       171   4  1.053713E+05  3.966153E+04  3.326108E+03  6.483026E+04 -3.379517E+02 -3.459274E+03
       171   5  1.048919E+05  4.185851E+04  6.112149E+03  6.343853E+04 -2.977100E+03 -5.149292E+03
       171   6  1.090874E+05  4.626946E+04  1.222903E+04  5.987428E+04 -6.441807E+03 -5.738603E+03
       171   7  7.511618E+04  1.852897E+04 -3.487748E+03  4.949964E+04 -1.127114E+03 -4.051086E+03
       171   8  6.341314E+04  1.888870E+04 -3.625954E+03  4.544963E+04 -1.388073E+03 -3.957706E+03
       171   9  5.586919E+04  2.094667E+04 -2.497267E+03  3.922700E+04 -2.474594E+03 -2.763530E+03
       171  10  1.356276E+05  6.079462E+04  1.013989E+04  8.016173E+04 -2.650456E-11 -3.158850E-12
       171  11  1.463720E+05  6.482856E+04  1.584988E+04  8.142842E+04 -1.403785E-11  6.101604E-11
       171  12  1.623073E+05  7.159215E+04  2.695446E+04  8.052265E+04  3.347525E-12  8.757205E-11
       171  13  1.053713E+05  3.966151E+04  3.326085E+03  6.483026E+04 -6.736140E-11  3.078357E-11
       171  14  1.048918E+05  4.185848E+04  6.112082E+03  6.343852E+04 -1.595810E-10  6.740314E-11
       171  15  1.090873E+05  4.626941E+04  1.222889E+04  5.987425E+04  4.398804E-11  2.377042E-11
       171  16  7.511617E+04  1.852895E+04 -3.487781E+03  4.949964E+04  1.246506E-11  9.320831E-11
       171  17  6.341313E+04  1.888868E+04 -3.625988E+03  4.544963E+04 -1.208552E-10  2.270769E-11
       171  18  5.586918E+04  2.094666E+04 -2.497293E+03  3.922699E+04 -8.670279E-11 -3.958408E-11
       171  19  1.356276E+05  6.079463E+04  1.013991E+04  8.016173E+04 -4.512618E+02  2.867423E+03
       171  20  1.463720E+05  6.482861E+04  1.585000E+04  8.142845E+04  4.566253E+03  6.340941E+03
       171  21  1.623075E+05  7.159226E+04  2.695481E+04  8.052273E+04  1.040940E+04  8.713809E+03
       171  22  1.053713E+05  3.966153E+04  3.326108E+03  6.483026E+04  3.379517E+02  3.459274E+03
       171  23  1.048919E+05  4.185851E+04  6.112149E+03  6.343853E+04  2.977100E+03  5.149292E+03
       171  24  1.090874E+05  4.626946E+04  1.222903E+04  5.987428E+04  6.441807E+03  5.738603E+03
       171  25  7.511618E+04  1.852897E+04 -3.487748E+03  4.949964E+04  1.127114E+03  4.051086E+03
       171  26  6.341314E+04  1.888870E+04 -3.625954E+03  4.544963E+04  1.388073E+03  3.957706E+03
       171  27  5.586919E+04  2.094667E+04 -2.497267E+03  3.922700E+04  2.474594E+03  2.763530E+03
       172   1  3.022946E+05  4.196555E+04  4.307723E+04  3.317115E+04  2.439733E+04 -7.082844E+02
       172   2  2.875581E+05  2.057728E+04  2.381426E+04  2.350135E+04  1.413698E+04 -2.235876E+03
       172   3  2.772587E+05  1.159595E+04  1.433090E+04  1.595162E+04  3.876748E+03 -2.352042E+03
       172   4  2.380762E+05  2.611439E+04  2.802506E+04  1.573135E+04  1.957225E+04 -7.090697E+02
       172   5  2.361238E+05  8.350955E+03  1.410450E+04  1.467160E+04  1.236174E+04 -2.236139E+03
       172   6  2.380794E+05  2.465564E+03  7.846785E+03  1.573186E+04  5.151158E+03 -2.352014E+03
       172   7  1.738623E+05  1.026410E+04  1.297285E+04 -1.706649E+03  1.474766E+04 -7.095840E+02
       172   8  1.846921E+05 -3.875227E+03  4.394677E+03  5.842605E+03  1.058665E+04 -2.236352E+03
       172   9  1.989017E+05 -6.664895E+03  1.362632E+03  1.551211E+04  6.425490E+03 -2.351986E+03
       172  10  3.022939E+05  4.196539E+04  4.307611E+04  3.317117E+04 -9.585825E-11 -1.125975E-11
       172  11  2.875579E+05  2.057722E+04  2.381388E+04  2.350137E+04  9.773961E-11  7.601355E-11
       172  12  2.772587E+05  1.159594E+04  1.433086E+04  1.595163E+04 -1.749998E-10  1.189722E-10
       172  13  2.380758E+05  2.611429E+04  2.802434E+04  1.573136E+04  3.679322E-10  4.287161E-12
       172  14  2.361236E+05  8.350909E+03  1.410421E+04  1.467162E+04  1.173679E-10  3.866808E-11
       172  15  2.380794E+05  2.465551E+03  7.846724E+03  1.573187E+04 -1.215742E-10  9.343396E-11
       172  16  1.738621E+05  1.026404E+04  1.297244E+04 -1.706641E+03  3.722657E-11 -2.440667E-11
       172  17  1.846920E+05 -3.875263E+03  4.394457E+03  5.842625E+03  1.537649E-10 -5.369104E-13
       172  18  1.989017E+05 -6.664912E+03  1.362544E+03  1.551212E+04  3.423619E-10  1.405717E-10
       172  19  3.022946E+05  4.196555E+04  4.307723E+04  3.317115E+04 -2.439733E+04  7.082844E+02
       172  20  2.875581E+05  2.057728E+04  2.381426E+04  2.350135E+04 -1.413698E+04  2.235876E+03
       172  21  2.772587E+05  1.159595E+04  1.433090E+04  1.595162E+04 -3.876748E+03  2.352042E+03
       172  22  2.380762E+05  2.611439E+04  2.802506E+04  1.573135E+04 -1.957225E+04  7.090697E+02
       172  23  2.361238E+05  8.350955E+03  1.410450E+04  1.467160E+04 -1.236174E+04  2.236139E+03
       172  24  2.380794E+05  2.465564E+03  7.846785E+03  1.573186E+04 -5.151158E+03  2.352014E+03
       172  25  1.738623E+05  1.026410E+04  1.297285E+04 -1.706649E+03 -1.474766E+04  7.095840E+02
       172  26  1.846921E+05 -3.875227E+03  4.394677E+03  5.842605E+03 -1.058665E+04  2.236352E+03
       172  27  1.989017E+05 -6.664895E+03  1.362632E+03  1.551211E+04 -6.425490E+03  2.351986E+03
       173   1  2.685962E+05  9.179297E+03  1.111203E+04  1.683011E+04  2.816741E+03 -1.952499E+03
       173   2  2.558077E+05  4.854697E+03  6.614823E+03  1.513243E+04  6.252868E+02 -1.276388E+03
       173   3  2.435809E+05  1.635495E+03  3.820233E+03  1.565485E+04 -1.566133E+03 -4.480037E+02
       173   4  2.373231E+05  1.912377E+03  6.041909E+03  1.575410E+04  4.113165E+03 -1.952464E+03
       173   5  2.370711E+05  5.308189E+02  3.726966E+03  1.464409E+04  2.250788E+03 -1.276328E+03
       173   6  2.373235E+05  1.975811E+02  2.886240E+03  1.575416E+04  3.884039E+02 -4.479209E+02
       173   7  2.060509E+05 -5.354588E+03  9.717725E+02  1.467815E+04  5.409526E+03 -1.952434E+03
       173   8  2.183348E+05 -3.793074E+03  8.391106E+02  1.415576E+04  3.876241E+03 -1.276271E+03
       173   9  2.310662E+05 -1.240332E+03  1.952260E+03  1.585347E+04  2.342921E+03 -4.478376E+02
       173  10  2.685962E+05  9.179290E+03  1.111200E+04  1.683011E+04  1.547682E-10  1.261435E-10
       173  11  2.558077E+05  4.854695E+03  6.614819E+03  1.513243E+04  2.636774E-10  6.861851E-11
       173  12  2.435809E+05  1.635494E+03  3.820228E+03  1.565485E+04  1.038563E-10 -1.096605E-10
       173  13  2.373230E+05  1.912368E+03  6.041870E+03  1.575411E+04  1.537204E-11  1.468459E-10
       173  14  2.370711E+05  5.308158E+02  3.726953E+03  1.464409E+04  2.707218E-11  4.398607E-11
       173  15  2.373235E+05  1.975808E+02  2.886239E+03  1.575416E+04 -4.552807E-11 -1.171845E-10
       173  16  2.060509E+05 -5.354600E+03  9.717104E+02  1.467816E+04 -2.242766E-10  1.116136E-10
       173  17  2.183348E+05 -3.793080E+03  8.390793E+02  1.415577E+04 -8.106494E-11 -2.090191E-11
       173  18  2.310662E+05 -1.240334E+03  1.952249E+03  1.585347E+04 -4.401927E-11 -6.387997E-11
       173  19  2.685962E+05  9.179297E+03  1.111203E+04  1.683011E+04 -2.816741E+03  1.952499E+03
       173  20  2.558077E+05  4.854697E+03  6.614823E+03  1.513243E+04 -6.252868E+02  1.276388E+03
       173  21  2.435809E+05  1.635495E+03  3.820233E+03  1.565485E+04  1.566133E+03  4.480037E+02
       173  22  2.373231E+05  1.912377E+03  6.041909E+03  1.575410E+04 -4.113165E+03  1.952464E+03
       173  23  2.370711E+05  5.308189E+02  3.726966E+03  1.464409E+04 -2.250788E+03  1.276328E+03
       173  24  2.373235E+05  1.975811E+02  2.886240E+03  1.575416E+04 -3.884039E+02  4.479209E+02
       173  25  2.060509E+05 -5.354588E+03  9.717725E+02  1.467815E+04 -5.409526E+03  1.952434E+03
       173  26  2.183348E+05 -3.793074E+03  8.391106E+02  1.415576E+04 -3.876241E+03  1.276271E+03
       173  27  2.310662E+05 -1.240332E+03  1.952260E+03  1.585347E+04 -2.342921E+03  4.478376E+02
       174   1  2.357368E+05 -1.743027E+02  2.568411E+03  1.583613E+04 -2.053318E+03  9.080719E+01
       174   2  2.230261E+05 -2.786132E+03  1.230897E+03  1.420640E+04 -3.472332E+03  9.259401E+02
       174   3  2.107221E+05 -4.510991E+03  1.038760E+03  1.479763E+04 -4.891293E+03  1.622052E+03
       174   4  2.373133E+05  1.941474E+02  2.834603E+03  1.575435E+04 -9.860711E+01  9.089129E+01
       174   5  2.370839E+05  4.669733E+02  3.442110E+03  1.464386E+04 -1.818058E+03  9.260018E+02
       174   6  2.373130E+05  1.678850E+03  5.403478E+03  1.575430E+04 -3.537477E+03  1.622091E+03
       174   7  2.388899E+05  5.625995E+02  3.100809E+03  1.567257E+04  1.856108E+03  9.097487E+01
       174   8  2.511419E+05  3.720071E+03  5.653328E+03  1.508133E+04 -1.637472E+02  9.260659E+02
       174   9  2.639045E+05  7.868660E+03  9.768183E+03  1.671102E+04 -2.183605E+03  1.622134E+03
       174  10  2.357368E+05 -1.743039E+02  2.568403E+03  1.583613E+04 -1.004217E-10 -1.672927E-10
       174  11  2.230261E+05 -2.786136E+03  1.230873E+03  1.420640E+04 -2.350086E-10 -1.498055E-10
       174  12  2.107221E+05 -4.511000E+03  1.038710E+03  1.479763E+04  1.054871E-10 -7.031405E-11
       174  13  2.373133E+05  1.941474E+02  2.834603E+03  1.575435E+04 -1.399134E-10 -1.134734E-10
       174  14  2.370839E+05  4.669715E+02  3.442102E+03  1.464386E+04 -2.103849E-12 -2.576993E-11
       174  15  2.373129E+05  1.678844E+03  5.403449E+03  1.575431E+04 -5.777359E-11 -6.245896E-11
       174  16  2.388898E+05  5.625986E+02  3.100803E+03  1.567257E+04  7.008838E-11 -4.075779E-11
       174  17  2.511419E+05  3.720070E+03  5.653326E+03  1.508133E+04 -6.689646E-12 -1.041874E-11
       174  18  2.639045E+05  7.868656E+03  9.768169E+03  1.671102E+04  2.918252E-12  4.050054E-11
       174  19  2.357368E+05 -1.743027E+02  2.568411E+03  1.583613E+04  2.053318E+03 -9.080719E+01
       174  20  2.230261E+05 -2.786132E+03  1.230897E+03  1.420640E+04  3.472332E+03 -9.259401E+02
       174  21  2.107221E+05 -4.510991E+03  1.038760E+03  1.479763E+04  4.891293E+03 -1.622052E+03
       174  22  2.373133E+05  1.941474E+02  2.834603E+03  1.575435E+04  9.860711E+01 -9.089129E+01
       174  23  2.370839E+05  4.669733E+02  3.442110E+03  1.464386E+04  1.818058E+03 -9.260018E+02
       174  24  2.373130E+05  1.678850E+03  5.403478E+03  1.575430E+04  3.537477E+03 -1.622091E+03
       174  25  2.388899E+05  5.625995E+02  3.100809E+03  1.567257E+04 -1.856108E+03 -9.097487E+01
       174  26  2.511419E+05  3.720071E+03  5.653328E+03  1.508133E+04  1.637472E+02 -9.260659E+02
       174  27  2.639045E+05  7.868660E+03  9.768183E+03  1.671102E+04  2.183605E+03 -1.622134E+03
       175   1  2.034847E+05 -5.882591E+03  1.205398E+03  1.553263E+04 -5.797599E+03  2.033713E+03
       175   2  1.894934E+05 -3.786494E+03  3.548402E+03  6.900883E+03 -9.313516E+03  1.994058E+03
       175   3  1.784479E+05  8.261311E+03  1.066786E+04  3.966194E+02 -1.282941E+04  6.406916E+02
       175   4  2.379751E+05  2.165805E+03  6.965566E+03  1.573354E+04 -4.464285E+03  2.033749E+03
       175   5  2.362547E+05  7.340491E+03  1.243156E+04  1.466955E+04 -1.081900E+04  1.993886E+03
       175   6  2.379722E+05  2.295898E+04  2.464465E+04  1.573305E+04 -1.717382E+04  6.402706E+02
       175   7  2.724666E+05  1.021414E+04  1.272570E+04  1.593446E+04 -3.130899E+03  2.033786E+03
       175   8  2.830181E+05  1.846757E+04  2.131466E+04  2.243881E+04 -1.232459E+04  1.993676E+03
       175   9  2.975004E+05  3.765730E+04  3.862140E+04  3.107095E+04 -2.151865E+04  6.396351E+02
       175  10  2.034847E+05 -5.882604E+03  1.205327E+03  1.553264E+04  2.333785E-11 -3.908135E-11
       175  11  1.894933E+05 -3.786521E+03  3.548232E+03  6.900898E+03 -2.357316E-11  2.501968E-11
       175  12  1.784477E+05  8.261267E+03  1.066755E+04  3.966260E+02  1.709776E-11  1.976731E-11
       175  13  2.379750E+05  2.165795E+03  6.965521E+03  1.573354E+04  7.292496E-11  2.344946E-12
       175  14  2.362545E+05  7.340455E+03  1.243133E+04  1.466957E+04  1.599785E-10  4.266387E-12
       175  15  2.379719E+05  2.295890E+04  2.464410E+04  1.573305E+04  2.034964E-10  1.762136E-11
       175  16  2.724666E+05  1.021413E+04  1.272568E+04  1.593446E+04  5.195573E-11  4.956688E-11
       175  17  2.830179E+05  1.846753E+04  2.131437E+04  2.243883E+04 -5.239905E-11 -1.056851E-11
       175  18  2.974999E+05  3.765717E+04  3.862053E+04  3.107096E+04  4.219645E-12  6.436939E-12
       175  19  2.034847E+05 -5.882591E+03  1.205398E+03  1.553263E+04  5.797599E+03 -2.033713E+03
       175  20  1.894934E+05 -3.786494E+03  3.548402E+03  6.900883E+03  9.313516E+03 -1.994058E+03
       175  21  1.784479E+05  8.261311E+03  1.066786E+04  3.966194E+02  1.282941E+04 -6.406916E+02
       175  22  2.379751E+05  2.165805E+03  6.965566E+03  1.573354E+04  4.464285E+03 -2.033749E+03
       175  23  2.362547E+05  7.340491E+03  1.243156E+04  1.466955E+04  1.081900E+04 -1.993886E+03
       175  24  2.379722E+05  2.295898E+04  2.464465E+04  1.573305E+04  1.717382E+04 -6.402706E+02
       175  25  2.724666E+05  1.021414E+04  1.272570E+04  1.593446E+04  3.130899E+03 -2.033786E+03
       175  26  2.830181E+05  1.846757E+04  2.131466E+04  2.243881E+04  1.232459E+04 -1.993676E+03
       175  27  2.975004E+05  3.765730E+04  3.862140E+04  3.107095E+04  2.151865E+04 -6.396351E+02
       176   1 -2.988947E+04 -5.315636E+04 -3.281070E+04  1.084256E+04  1.689362E+02 -2.539039E+04
       176   2 -8.121277E+03 -6.109878E+04 -1.698190E+04 -1.512255E+02  3.851630E+02 -1.641346E+04
       176   3 -2.619093E+03 -7.427638E+04 -1.106405E+04 -1.298293E+04  3.239688E+01 -7.436546E+03
       176   4 -3.604517E+04 -7.796643E+04 -3.877530E+04 -1.328494E+04  1.699388E+02 -2.646976E+04
       176   5 -1.154873E+04 -7.524127E+04 -1.997612E+04 -1.236591E+04  3.854843E+02 -1.626501E+04
       176   6 -3.532258E+03 -7.796506E+04 -1.194097E+04 -1.328471E+04  3.237547E+01 -6.060085E+03
       176   7 -4.219872E+04 -1.027747E+05 -4.473963E+04 -3.741148E+04  1.710254E+02 -2.754909E+04
       176   8 -1.497563E+04 -8.938326E+04 -2.297027E+04 -2.458030E+04  3.857998E+02 -1.611656E+04
       176   9 -4.445422E+03 -8.165373E+04 -1.281787E+04 -1.358648E+04  3.235271E+01 -4.683632E+03
       176  10 -2.988964E+04 -5.315706E+04 -3.281191E+04  1.084257E+04 -1.548169E-11 -9.945104E-11
       176  11 -8.121349E+03 -6.109907E+04 -1.698240E+04 -1.512204E+02 -4.105068E-11  7.619582E-12
       176  12 -2.619108E+03 -7.427644E+04 -1.106416E+04 -1.298293E+04  3.067305E-11  1.189314E-10
       176  13 -3.604536E+04 -7.796719E+04 -3.877662E+04 -1.328494E+04  1.177767E-10  3.194777E-12
       176  14 -1.154880E+04 -7.524156E+04 -1.997662E+04 -1.236590E+04 -2.409283E-10  5.043682E-12
       176  15 -3.532268E+03 -7.796510E+04 -1.194103E+04 -1.328471E+04 -2.434439E-11  1.654785E-11
       176  16 -4.219893E+04 -1.027755E+05 -4.474106E+04 -3.741147E+04 -1.622467E-11  9.834088E-11
       176  17 -1.497570E+04 -8.938354E+04 -2.297076E+04 -2.458030E+04 -1.090671E-10 -6.742688E-12
       176  18 -4.445428E+03 -8.165375E+04 -1.281791E+04 -1.358648E+04 -6.340355E-12 -1.204362E-10
       176  19 -2.988947E+04 -5.315636E+04 -3.281070E+04  1.084256E+04 -1.689362E+02  2.539039E+04
       176  20 -8.121277E+03 -6.109878E+04 -1.698190E+04 -1.512255E+02 -3.851630E+02  1.641346E+04
       176  21 -2.619093E+03 -7.427638E+04 -1.106405E+04 -1.298293E+04 -3.239688E+01  7.436546E+03
       176  22 -3.604517E+04 -7.796643E+04 -3.877530E+04 -1.328494E+04 -1.699388E+02  2.646976E+04
       176  23 -1.154873E+04 -7.524127E+04 -1.997612E+04 -1.236591E+04 -3.854843E+02  1.626501E+04
       176  24 -3.532258E+03 -7.796506E+04 -1.194097E+04 -1.328471E+04 -3.237547E+01  6.060085E+03
       176  25 -4.219872E+04 -1.027747E+05 -4.473963E+04 -3.741148E+04 -1.710254E+02  2.754909E+04
       176  26 -1.497563E+04 -8.938326E+04 -2.297027E+04 -2.458030E+04 -3.857998E+02  1.611656E+04
       176  27 -4.445422E+03 -8.165373E+04 -1.281787E+04 -1.358648E+04 -3.235271E+01  4.683632E+03
       177   1 -3.441558E+03 -7.996459E+04 -1.008854E+04 -1.170931E+04 -3.664394E+02 -5.791959E+03
       177   2 -4.493544E+03 -8.992918E+04 -9.962223E+03 -1.229084E+04 -9.729829E+02 -1.663017E+03
       177   3 -8.135050E+03 -1.010787E+05 -1.317158E+04 -1.474255E+04 -1.511434E+03  2.465865E+03
       177   4 -2.806356E+03 -7.701192E+04 -9.865760E+03 -1.329190E+04 -3.664496E+02 -4.408574E+03
       177   5 -1.392638E+03 -7.643223E+04 -7.955941E+03 -1.235680E+04 -9.729999E+02 -4.267029E+02
       177   6 -2.542883E+03 -7.701200E+04 -9.279651E+03 -1.329190E+04 -1.511439E+03  3.555174E+03
       177   7 -2.171144E+03 -7.405922E+04 -9.642967E+03 -1.487449E+04 -3.664669E+02 -3.025183E+03
       177   8  1.708260E+03 -6.293509E+04 -5.949657E+03 -1.242276E+04 -9.730171E+02  8.096371E+02
       177   9  3.049264E+03 -5.294475E+04 -5.387727E+03 -1.184120E+04 -1.511438E+03  4.644523E+03
       177  10 -3.441567E+03 -7.996463E+04 -1.008861E+04 -1.170931E+04 -3.262609E-11 -1.789662E-10
       177  11 -4.493546E+03 -8.992919E+04 -9.962230E+03 -1.229084E+04  5.638766E-11 -3.324930E-11
       177  12 -8.135054E+03 -1.010787E+05 -1.317160E+04 -1.474254E+04 -9.751596E-11  1.433658E-10
       177  13 -2.806362E+03 -7.701194E+04 -9.865797E+03 -1.329190E+04 -3.165747E-11  1.304747E-11
       177  14 -1.392639E+03 -7.643223E+04 -7.955943E+03 -1.235680E+04 -8.586548E-11  1.204992E-11
       177  15 -2.542889E+03 -7.701201E+04 -9.279679E+03 -1.329190E+04 -6.022446E-11  1.753774E-11
       177  16 -2.171147E+03 -7.405923E+04 -9.642985E+03 -1.487449E+04 -3.353841E-11  1.811151E-10
       177  17  1.708259E+03 -6.293509E+04 -5.949660E+03 -1.242276E+04 -2.210528E-10  4.085618E-11
       177  18  3.049255E+03 -5.294478E+04 -5.387772E+03 -1.184120E+04 -1.349651E-10 -1.334306E-10
       177  19 -3.441558E+03 -7.996459E+04 -1.008854E+04 -1.170931E+04  3.664394E+02  5.791959E+03
       177  20 -4.493544E+03 -8.992918E+04 -9.962223E+03 -1.229084E+04  9.729829E+02  1.663017E+03
       177  21 -8.135050E+03 -1.010787E+05 -1.317158E+04 -1.474255E+04  1.511434E+03 -2.465865E+03
       177  22 -2.806356E+03 -7.701192E+04 -9.865760E+03 -1.329190E+04  3.664496E+02  4.408574E+03
       177  23 -1.392638E+03 -7.643223E+04 -7.955941E+03 -1.235680E+04  9.729999E+02  4.267029E+02
       177  24 -2.542883E+03 -7.701200E+04 -9.279651E+03 -1.329190E+04  1.511439E+03 -3.555174E+03
       177  25 -2.171144E+03 -7.405922E+04 -9.642967E+03 -1.487449E+04  3.664669E+02  3.025183E+03
       177  26  1.708260E+03 -6.293509E+04 -5.949657E+03 -1.242276E+04  9.730171E+02 -8.096371E+02
       177  27  3.049264E+03 -5.294475E+04 -5.387727E+03 -1.184120E+04  1.511438E+03 -4.644523E+03
       178   1 -1.035029E+04 -1.085796E+05 -1.609664E+04 -1.355441E+04 -1.847980E+03  4.026382E+03
       178   2 -2.010066E+04 -1.164874E+05 -2.578768E+04 -2.331210E+04 -1.776012E+03  1.568192E+04
       178   3 -4.502880E+04 -1.297073E+05 -4.686200E+04 -3.486156E+04 -5.667063E+02  2.733701E+04
       178   4 -3.184304E+03 -7.784003E+04 -1.100951E+04 -1.327461E+04 -1.847983E+03  5.098939E+03
       178   5 -1.032677E+04 -7.539795E+04 -1.801111E+04 -1.237853E+04 -1.775718E+03  1.429780E+04
       178   6 -3.222031E+04 -7.784144E+04 -3.468951E+04 -1.327465E+04 -5.657510E+02  2.349648E+04
       178   7  3.981634E+03 -4.709953E+04 -5.922407E+03 -1.299479E+04 -1.847985E+03  6.171548E+03
       178   8 -5.525279E+02 -3.430661E+04 -1.023453E+04 -1.444230E+03 -1.775473E+03  1.291359E+04
       178   9 -1.941025E+04 -2.597210E+04 -2.251689E+04  8.314080E+03 -5.650628E+02  1.965563E+04
       178  10 -1.035030E+04 -1.085796E+05 -1.609668E+04 -1.355440E+04 -2.117665E-10 -1.140865E-10
       178  11 -2.010073E+04 -1.164877E+05 -2.578815E+04 -2.331207E+04 -1.448568E-10 -4.874627E-12
       178  12 -4.502900E+04 -1.297081E+05 -4.686341E+04 -3.486154E+04 -2.600413E-12  1.498331E-10
       178  13 -3.184315E+03 -7.784005E+04 -1.100957E+04 -1.327460E+04 -4.203561E-11 -7.088158E-12
       178  14 -1.032683E+04 -7.539817E+04 -1.801150E+04 -1.237851E+04 -1.246541E-10  1.345781E-11
       178  15 -3.222046E+04 -7.784203E+04 -3.469055E+04 -1.327463E+04 -6.264512E-11  2.500989E-11
       178  16  3.981620E+03 -4.709957E+04 -5.922485E+03 -1.299478E+04 -7.648329E-11  1.087104E-10
       178  17 -5.525761E+02 -3.430679E+04 -1.023485E+04 -1.444211E+03 -1.903570E-10 -5.893296E-12
       178  18 -1.941035E+04 -2.597251E+04 -2.251762E+04  8.314089E+03  1.004403E-11 -1.368390E-10
       178  19 -1.035029E+04 -1.085796E+05 -1.609664E+04 -1.355441E+04  1.847980E+03 -4.026382E+03
       178  20 -2.010066E+04 -1.164874E+05 -2.578768E+04 -2.331210E+04  1.776012E+03 -1.568192E+04
       178  21 -4.502880E+04 -1.297073E+05 -4.686200E+04 -3.486156E+04  5.667063E+02 -2.733701E+04
       178  22 -3.184304E+03 -7.784003E+04 -1.100951E+04 -1.327461E+04  1.847983E+03 -5.098939E+03
       178  23 -1.032677E+04 -7.539795E+04 -1.801111E+04 -1.237853E+04  1.775718E+03 -1.429780E+04
       178  24 -3.222031E+04 -7.784144E+04 -3.468951E+04 -1.327465E+04  5.657510E+02 -2.349648E+04
       178  25  3.981634E+03 -4.709953E+04 -5.922407E+03 -1.299479E+04  1.847985E+03 -6.171548E+03
       178  26 -5.525279E+02 -3.430661E+04 -1.023453E+04 -1.444230E+03  1.775473E+03 -1.291359E+04
       178  27 -1.941025E+04 -2.597210E+04 -2.251689E+04  8.314080E+03  5.650628E+02 -1.965563E+04
       179   1  4.720389E+04 -8.429686E+03 -1.309483E+04  2.744670E+04 -1.242610E+03  2.882253E+02
       179   2  6.033204E+04 -2.294886E+03 -9.426151E+03  3.620612E+04 -6.927030E+02  3.271654E+03
       179   3  7.783958E+04  2.603449E+03 -6.522588E+03  4.292284E+04  1.063286E+03  4.647003E+03
       179   4  1.183880E+05  3.372639E+04  8.253463E+03  5.886271E+04  4.049435E+03  4.256860E+03
       179   5  1.145678E+05  3.173826E+04  4.131291E+03  6.155631E+04  1.125429E+03  4.635037E+03
       179   6  1.158806E+05  2.926731E+04  2.259089E+03  6.220724E+04 -5.925755E+02  3.405267E+03
       179   7  1.895761E+05  7.588325E+04  2.960084E+04  9.028172E+04  9.342193E+03  8.225892E+03
       179   8  1.688062E+05  6.577229E+04  1.768831E+04  8.690860E+04  2.943754E+03  5.998541E+03
       179   9  1.539232E+05  5.593202E+04  1.104068E+04  8.149299E+04 -2.248571E+03  2.163431E+03
       179  10  4.720388E+04 -8.429686E+03 -1.309483E+04  2.744670E+04 -3.630570E-10 -1.578173E-10
       179  11  6.033204E+04 -2.294898E+03 -9.426172E+03  3.620612E+04 -3.256530E-10 -5.077827E-11
       179  12  7.783957E+04  2.603425E+03 -6.522631E+03  4.292284E+04 -3.257071E-10 -7.108987E-11
       179  13  1.183880E+05  3.372637E+04  8.253398E+03  5.886269E+04 -2.441322E-11  4.061391E-11
       179  14  1.145678E+05  3.173824E+04  4.131248E+03  6.155630E+04 -2.564438E-10  1.625066E-10
       179  15  1.158806E+05  2.926729E+04  2.259066E+03  6.220724E+04 -1.725436E-10  1.648965E-10
       179  16  1.895760E+05  7.588315E+04  2.960055E+04  9.028165E+04  2.637567E-10  2.379359E-10
       179  17  1.688062E+05  6.577225E+04  1.768823E+04  8.690858E+04  5.297918E-11  3.515776E-10
       179  18  1.539232E+05  5.593202E+04  1.104067E+04  8.149300E+04  9.197293E-11  4.256423E-10
       179  19  4.720389E+04 -8.429686E+03 -1.309483E+04  2.744670E+04  1.242610E+03 -2.882253E+02
       179  20  6.033204E+04 -2.294886E+03 -9.426151E+03  3.620612E+04  6.927030E+02 -3.271654E+03
       179  21  7.783958E+04  2.603449E+03 -6.522588E+03  4.292284E+04 -1.063286E+03 -4.647003E+03
       179  22  1.183880E+05  3.372639E+04  8.253463E+03  5.886271E+04 -4.049435E+03 -4.256860E+03
       179  23  1.145678E+05  3.173826E+04  4.131291E+03  6.155631E+04 -1.125429E+03 -4.635037E+03
       179  24  1.158806E+05  2.926731E+04  2.259089E+03  6.220724E+04  5.925755E+02 -3.405267E+03
       179  25  1.895761E+05  7.588325E+04  2.960084E+04  9.028172E+04 -9.342193E+03 -8.225892E+03
       179  26  1.688062E+05  6.577229E+04  1.768831E+04  8.690860E+04 -2.943754E+03 -5.998541E+03
       179  27  1.539232E+05  5.593202E+04  1.104068E+04  8.149299E+04  2.248571E+03 -2.163431E+03
       180   1  8.621592E+04  8.817310E+03 -4.938550E+03  4.740496E+04  1.234859E+03  3.979600E+03
       180   2  9.848782E+04  1.981760E+04 -2.403999E+03  5.507751E+04  1.915454E+03  3.125118E+03
       180   3  1.141383E+05  2.768778E+04  1.603077E+02  6.172029E+04  2.739101E+03  2.079872E+03
       180   4  1.157087E+05  2.905123E+04  1.707549E+03  6.216801E+04 -4.462673E+02  2.718934E+03
       180   5  1.138794E+05  3.040143E+04  9.664600E+02  6.281099E+04 -1.778389E+02  1.555387E+03
       180   6  1.155174E+05  2.871063E+04  6.126547E+02  6.242388E+04  2.336296E+02  2.010888E+02
       180   7  1.452031E+05  4.928613E+04  8.353847E+03  7.693221E+04 -2.127538E+03  1.458162E+03
       180   8  1.292712E+05  4.098540E+04  4.336934E+03  7.054471E+04 -2.271201E+03 -1.439450E+01
       180   9  1.168965E+05  2.973347E+04  1.065028E+03  6.312745E+04 -2.271793E+03 -1.677658E+03
       180  10  8.621591E+04  8.817293E+03 -4.938583E+03  4.740495E+04 -4.024512E-10 -1.292523E-10
       180  11  9.848781E+04  1.981759E+04 -2.404025E+03  5.507750E+04 -3.000979E-10 -4.315278E-10
       180  12  1.141383E+05  2.768777E+04  1.602855E+02  6.172029E+04  3.156912E-10 -1.387006E-09
       180  13  1.157087E+05  2.905122E+04  1.707534E+03  6.216801E+04 -5.490598E-11  1.495419E-10
       180  14  1.138794E+05  3.040142E+04  9.664554E+02  6.281099E+04 -1.477305E-10  5.393950E-11
       180  15  1.155174E+05  2.871063E+04  6.126546E+02  6.242388E+04  1.276721E-10 -1.737886E-10
       180  16  1.452031E+05  4.928613E+04  8.353835E+03  7.693221E+04  1.577687E-10  4.505177E-10
       180  17  1.292712E+05  4.098540E+04  4.336924E+03  7.054471E+04 -1.009606E-10  6.067121E-10
       180  18  1.168965E+05  2.973346E+04  1.065013E+03  6.312745E+04 -1.067145E-10  1.074544E-09
       180  19  8.621592E+04  8.817310E+03 -4.938550E+03  4.740496E+04 -1.234859E+03 -3.979600E+03
       180  20  9.848782E+04  1.981760E+04 -2.403999E+03  5.507751E+04 -1.915454E+03 -3.125118E+03
       180  21  1.141383E+05  2.768778E+04  1.603077E+02  6.172029E+04 -2.739101E+03 -2.079872E+03
       180  22  1.157087E+05  2.905123E+04  1.707549E+03  6.216801E+04  4.462673E+02 -2.718934E+03
       180  23  1.138794E+05  3.040143E+04  9.664600E+02  6.281099E+04  1.778389E+02 -1.555387E+03
       180  24  1.155174E+05  2.871063E+04  6.126547E+02  6.242388E+04 -2.336296E+02 -2.010888E+02
       180  25  1.452031E+05  4.928613E+04  8.353847E+03  7.693221E+04  2.127538E+03 -1.458162E+03
       180  26  1.292712E+05  4.098540E+04  4.336934E+03  7.054471E+04  2.271201E+03  1.439450E+01
       180  27  1.168965E+05  2.973347E+04  1.065028E+03  6.312745E+04  2.271793E+03  1.677658E+03
       181   1  1.227769E+05  3.379550E+04  1.867799E+03  6.616344E+04  3.176588E+03  1.339360E+03
       181   2  1.349866E+05  4.513481E+04  4.568410E+03  7.374917E+04  3.832588E+03  2.887119E+01
       181   3  1.505355E+05  5.323608E+04  7.452568E+03  8.037268E+04  4.477846E+03 -1.267244E+03
       181   4  1.155035E+05  2.869410E+04  5.193216E+02  6.241719E+04  6.686424E+02 -5.412751E+02
       181   5  1.138375E+05  3.031689E+04  4.489809E+02  6.289817E+04  1.355633E+03 -1.828564E+03
       181   6  1.155039E+05  2.869476E+04  5.352811E+02  6.241675E+04  2.031889E+03 -3.101483E+03
       181   7  1.082302E+05  2.359274E+04 -8.291221E+02  5.867099E+04 -1.839267E+03 -2.421882E+03
       181   8  9.268880E+04  1.549908E+04 -3.670515E+03  5.204748E+04 -1.121241E+03 -3.685938E+03
       181   9  8.047296E+04  4.153636E+03 -6.382295E+03  4.446159E+04 -4.139417E+02 -4.935627E+03
       181  10  1.227769E+05  3.379549E+04  1.867777E+03  6.616344E+04 -2.304803E-08 -1.932307E-08
       181  11  1.349866E+05  4.513481E+04  4.568383E+03  7.374917E+04 -7.456412E-09 -6.511844E-09
       181  12  1.505355E+05  5.323607E+04  7.452528E+03  8.037269E+04  1.739297E-08  1.377598E-08
       181  13  1.155035E+05  2.869410E+04  5.193202E+02  6.241719E+04 -2.720993E-09 -2.753518E-09
       181  14  1.138375E+05  3.031689E+04  4.489711E+02  6.289817E+04 -7.389680E-09 -6.552933E-09
       181  15  1.155039E+05  2.869475E+04  5.352553E+02  6.241675E+04 -2.814275E-09 -2.796555E-09
       181  16  1.082302E+05  2.359273E+04 -8.291395E+02  5.867099E+04  1.736713E-08  1.382502E-08
       181  17  9.268880E+04  1.549906E+04 -3.670543E+03  5.204748E+04 -7.406722E-09 -6.526656E-09
       181  18  8.047296E+04  4.153609E+03 -6.382341E+03  4.446159E+04 -2.290516E-08 -1.938367E-08
       181  19  1.227769E+05  3.379550E+04  1.867799E+03  6.616344E+04 -3.176588E+03 -1.339360E+03
       181  20  1.349866E+05  4.513481E+04  4.568410E+03  7.374917E+04 -3.832588E+03 -2.887119E+01
       181  21  1.505355E+05  5.323608E+04  7.452568E+03  8.037268E+04 -4.477846E+03  1.267244E+03
       181  22  1.155035E+05  2.869410E+04  5.193216E+02  6.241719E+04 -6.686424E+02  5.412751E+02
       181  23  1.138375E+05  3.031689E+04  4.489809E+02  6.289817E+04 -1.355633E+03  1.828564E+03
       181  24  1.155039E+05  2.869476E+04  5.352811E+02  6.241675E+04 -2.031889E+03  3.101483E+03
       181  25  1.082302E+05  2.359274E+04 -8.291221E+02  5.867099E+04  1.839267E+03  2.421882E+03
       181  26  9.268880E+04  1.549908E+04 -3.670515E+03  5.204748E+04  1.121241E+03  3.685938E+03
       181  27  8.047296E+04  4.153636E+03 -6.382295E+03  4.446159E+04  4.139417E+02  4.935627E+03
       182   1  1.592084E+05  5.938981E+04  9.381711E+03  8.483271E+04  4.895821E+03 -2.001879E+03
       182   2  1.715913E+05  7.063773E+04  1.283153E+04  9.221704E+04  4.547776E+03 -3.785613E+03
       182   3  1.875874E+05  7.901470E+04  1.727240E+04  9.857002E+04  3.966668E+03 -5.258534E+03
       182   4  1.155158E+05  2.871388E+04  6.378376E+02  6.242445E+04  2.454292E+03 -3.832834E+03
       182   5  1.138830E+05  3.040209E+04  1.018211E+03  6.280481E+04  2.777844E+03 -5.112997E+03
       182   6  1.157178E+05  2.907390E+04  1.807025E+03  6.215383E+04  2.868334E+03 -6.082328E+03
       182   7  7.182644E+04 -1.960067E+03 -8.105698E+03  4.001857E+04  1.304758E+01 -5.663575E+03
       182   8  5.617940E+04 -9.830953E+03 -1.079496E+04  3.339613E+04  1.008151E+03 -6.440203E+03
       182   9  4.385449E+04 -2.086371E+04 -1.365855E+04  2.574256E+04  1.770171E+03 -6.905995E+03
       182  10  1.592084E+05  5.938980E+04  9.381659E+03  8.483272E+04 -4.474721E-10  8.151485E-10
       182  11  1.715912E+05  7.063771E+04  1.283146E+04  9.221706E+04  5.016598E-11  5.768832E-10
       182  12  1.875874E+05  7.901467E+04  1.727232E+04  9.857004E+04  1.635086E-10  5.035599E-10
       182  13  1.155157E+05  2.871386E+04  6.377986E+02  6.242445E+04  1.895323E-10 -2.229245E-10
       182  14  1.138830E+05  3.040206E+04  1.018148E+03  6.280482E+04 -2.270567E-10  1.239963E-10
       182  15  1.157178E+05  2.907385E+04  1.806940E+03  6.215384E+04 -1.773160E-10  1.591981E-10
       182  16  7.182643E+04 -1.960101E+03 -8.105758E+03  4.001857E+04  7.512198E-10 -1.198988E-09
       182  17  5.617939E+04 -9.830998E+03 -1.079504E+04  3.339613E+04 -6.646866E-11 -3.146370E-10
       182  18  4.385447E+04 -2.086376E+04 -1.365865E+04  2.574257E+04 -4.444299E-10 -1.516520E-10
       182  19  1.592084E+05  5.938981E+04  9.381711E+03  8.483271E+04 -4.895821E+03  2.001879E+03
       182  20  1.715913E+05  7.063773E+04  1.283153E+04  9.221704E+04 -4.547776E+03  3.785613E+03
       182  21  1.875874E+05  7.901470E+04  1.727240E+04  9.857002E+04 -3.966668E+03  5.258534E+03
       182  22  1.155158E+05  2.871388E+04  6.378376E+02  6.242445E+04 -2.454292E+03  3.832834E+03
       182  23  1.138830E+05  3.040209E+04  1.018211E+03  6.280481E+04 -2.777844E+03  5.112997E+03
       182  24  1.157178E+05  2.907390E+04  1.807025E+03  6.215383E+04 -2.868334E+03  6.082328E+03
       182  25  7.182644E+04 -1.960067E+03 -8.105698E+03  4.001857E+04 -1.304758E+01  5.663575E+03
       182  26  5.617940E+04 -9.830953E+03 -1.079496E+04  3.339613E+04 -1.008151E+03  6.440203E+03
       182  27  4.385449E+04 -2.086371E+04 -1.365855E+04  2.574256E+04 -1.770171E+03  6.905995E+03
       183   1  1.963607E+05  8.577549E+04  2.022982E+04  1.031516E+05  3.966423E+03 -5.862763E+03
       183   2  2.113945E+05  9.553716E+04  2.828204E+04  1.082381E+05 -4.006510E+03 -1.058958E+04
       183   3  2.327983E+05  1.062827E+05  4.356248E+04  1.112420E+05 -1.391694E+04 -1.273433E+04
       183   4  1.158837E+05  2.931997E+04  2.393119E+03  6.220085E+04  2.908705E+03 -6.656139E+03
       183   5  1.146326E+05  3.179707E+04  4.379600E+03  6.146821E+04  5.162604E+02 -7.197794E+03
       183   6  1.185410E+05  3.404742E+04  8.751718E+03  5.865258E+04 -3.813361E+03 -5.156887E+03
       183   7  3.541247E+04 -2.713285E+04 -1.544454E+04  2.125541E+04  1.851147E+03 -7.449395E+03
       183   8  1.788147E+04 -3.193827E+04 -1.952341E+04  1.470650E+04  5.038080E+03 -3.806657E+03
       183   9  4.300406E+03 -3.818084E+04 -2.605909E+04  6.074774E+03  6.287444E+03  2.418751E+03
       183  10  1.963607E+05  8.577544E+04  2.022972E+04  1.031516E+05  1.110049E-10  3.752743E-10
       183  11  2.113944E+05  9.553704E+04  2.828180E+04  1.082380E+05  1.496893E-10  2.153646E-10
       183  12  2.327981E+05  1.062825E+05  4.356181E+04  1.112418E+05  1.723048E-10  1.714022E-10
       183  13  1.158837E+05  2.931992E+04  2.393020E+03  6.220087E+04 -1.095085E-10  1.114040E-10
       183  14  1.146326E+05  3.179701E+04  4.379502E+03  6.146822E+04 -5.186292E-12  1.256559E-10
       183  15  1.185409E+05  3.404739E+04  8.751640E+03  5.865256E+04  6.887688E-12 -2.541245E-11
       183  16  3.541245E+04 -2.713291E+04 -1.544465E+04  2.125542E+04 -3.259201E-10 -8.761275E-11
       183  17  1.788144E+04 -3.193829E+04 -1.952348E+04  1.470652E+04 -3.865328E-10 -1.042487E-10
       183  18  4.300362E+03 -3.818086E+04 -2.605918E+04  6.074762E+03 -2.954685E-10 -1.472344E-10
       183  19  1.963607E+05  8.577549E+04  2.022982E+04  1.031516E+05 -3.966423E+03  5.862763E+03
       183  20  2.113945E+05  9.553716E+04  2.828204E+04  1.082381E+05  4.006510E+03  1.058958E+04
       183  21  2.327983E+05  1.062827E+05  4.356248E+04  1.112420E+05  1.391694E+04  1.273433E+04
       183  22  1.158837E+05  2.931997E+04  2.393119E+03  6.220085E+04 -2.908705E+03  6.656139E+03
       183  23  1.146326E+05  3.179707E+04  4.379600E+03  6.146821E+04 -5.162604E+02  7.197794E+03
       183  24  1.185410E+05  3.404742E+04  8.751718E+03  5.865258E+04  3.813361E+03  5.156887E+03
       183  25  3.541247E+04 -2.713285E+04 -1.544454E+04  2.125541E+04 -1.851147E+03  7.449395E+03
       183  26  1.788147E+04 -3.193827E+04 -1.952341E+04  1.470650E+04 -5.038080E+03  3.806657E+03
       183  27  4.300406E+03 -3.818084E+04 -2.605909E+04  6.074774E+03 -6.287444E+03 -2.418751E+03
       184   1  1.496425E+05  1.108801E+04  8.689275E+03  2.374339E+04 -4.471238E+03 -1.091451E+03
       184   2  1.230657E+05  1.431493E+04  7.080177E+03  2.662404E+04 -5.322193E+03 -3.271570E+03
       184   3  9.502760E+04  1.124718E+04  4.451426E+03  3.418199E+04 -6.173095E+03 -3.019138E+03
       184   4  4.068476E+04 -1.584065E+04 -1.701250E+04  3.432733E+04 -1.180730E+04 -1.091944E+03
       184   5  4.187271E+04 -5.060666E+03 -8.615892E+03  3.198820E+04 -7.403527E+03 -3.271786E+03
       184   6  4.068594E+04 -1.488140E+03 -4.888009E+03  3.432661E+04 -2.999710E+03 -3.018915E+03
       184   7 -6.826167E+04 -4.276970E+04 -4.271483E+04  4.490940E+04 -1.914209E+04 -1.092687E+03
       184   8 -3.931390E+04 -2.443655E+04 -2.431224E+04  3.735164E+04 -9.484596E+03 -3.272038E+03
       184   9 -1.365281E+04 -1.422361E+04 -1.422751E+04  3.447122E+04  1.734050E+02 -3.018691E+03
       184  10  1.496424E+05  1.108800E+04  8.689236E+03  2.374339E+04 -1.715966E-10  3.018084E-11
       184  11  1.230657E+05  1.431491E+04  7.080104E+03  2.662402E+04 -2.416762E-11  1.249227E-10
       184  12  9.502756E+04  1.124716E+04  4.451338E+03  3.418198E+04  4.666917E-11 -8.200771E-12
       184  13  4.068461E+04 -1.584069E+04 -1.701276E+04  3.432732E+04 -3.316182E-11  7.984236E-11
       184  14  4.187265E+04 -5.060693E+03 -8.616015E+03  3.198818E+04 -1.411475E-12  1.282921E-10
       184  15  4.068593E+04 -1.488153E+03 -4.888043E+03  3.432660E+04  2.331243E-11  3.472515E-11
       184  16 -6.826206E+04 -4.276980E+04 -4.271552E+04  4.490939E+04  7.298807E-11  4.166502E-11
       184  17 -3.931400E+04 -2.443658E+04 -2.431243E+04  3.735161E+04  7.497249E-11 -2.272561E-11
       184  18 -1.365281E+04 -1.422362E+04 -1.422752E+04  3.447122E+04 -1.124112E-10 -4.213872E-12
       184  19  1.496425E+05  1.108801E+04  8.689275E+03  2.374339E+04  4.471238E+03  1.091451E+03
       184  20  1.230657E+05  1.431493E+04  7.080177E+03  2.662404E+04  5.322193E+03  3.271570E+03
       184  21  9.502760E+04  1.124718E+04  4.451426E+03  3.418199E+04  6.173095E+03  3.019138E+03
       184  22  4.068476E+04 -1.584065E+04 -1.701250E+04  3.432733E+04  1.180730E+04  1.091944E+03
       184  23  4.187271E+04 -5.060666E+03 -8.615892E+03  3.198820E+04  7.403527E+03  3.271786E+03
       184  24  4.068594E+04 -1.488140E+03 -4.888009E+03  3.432661E+04  2.999710E+03  3.018915E+03
       184  25 -6.826167E+04 -4.276970E+04 -4.271483E+04  4.490940E+04  1.914209E+04  1.092687E+03
       184  26 -3.931390E+04 -2.443655E+04 -2.431224E+04  3.735164E+04  9.484596E+03  3.272038E+03
       184  27 -1.365281E+04 -1.422361E+04 -1.422751E+04  3.447122E+04 -1.734050E+02  3.018691E+03
       185   1  7.827292E+04  7.550410E+03  2.536665E+03  3.369394E+04 -5.553938E+03 -2.066508E+03
       185   2  5.110506E+04  2.002207E+03 -7.725238E+02  3.162877E+04 -4.794416E+03 -4.580317E+02
       185   3  2.369506E+04 -4.123175E+03 -4.720393E+03  3.441368E+04 -4.034943E+03  1.394742E+03
       185   4  4.113952E+04 -1.151101E+03 -3.840699E+03  3.436497E+04 -2.343226E+03 -2.066262E+03
       185   5  4.130706E+04 -3.183964E+02 -2.578368E+03  3.193988E+04 -1.056141E+03 -4.577304E+02
       185   6  4.113967E+04 -1.545604E+02 -2.321258E+03  3.436491E+04  2.309164E+02  1.395100E+03
       185   7  4.007494E+03 -9.852679E+03 -1.021807E+04  3.503596E+04  8.673003E+02 -2.066009E+03
       185   8  3.150918E+04 -2.638998E+03 -4.384163E+03  3.225099E+04  2.682076E+03 -4.574252E+02
       185   9  5.858462E+04  3.814051E+03  7.794107E+01  3.431613E+04  4.496890E+03  1.395457E+03
       185  10  7.827288E+04  7.550397E+03  2.536599E+03  3.369393E+04 -9.926220E-11  1.373496E-11
       185  11  5.110504E+04  2.002201E+03 -7.725673E+02  3.162877E+04 -7.819117E-11 -1.261588E-10
       185  12  2.369504E+04 -4.123182E+03 -4.720427E+03  3.441368E+04  2.770760E-11 -3.084895E-11
       185  13  4.113951E+04 -1.151107E+03 -3.840717E+03  3.436497E+04  6.566295E-12 -2.317341E-12
       185  14  4.130706E+04 -3.183969E+02 -2.578370E+03  3.193988E+04 -1.619003E-11 -3.661439E-11
       185  15  4.113967E+04 -1.545626E+02 -2.321262E+03  3.436491E+04  2.940014E-11 -1.682396E-11
       185  16  4.007492E+03 -9.852684E+03 -1.021808E+04  3.503596E+04  1.336186E-10 -4.022869E-11
       185  17  3.150917E+04 -2.639000E+03 -4.384177E+03  3.225099E+04  1.203805E-10 -3.481090E-12
       185  18  5.858460E+04  3.814043E+03  7.789942E+01  3.431613E+04 -6.860115E-11  6.264620E-11
       185  19  7.827292E+04  7.550410E+03  2.536665E+03  3.369394E+04  5.553938E+03  2.066508E+03
       185  20  5.110506E+04  2.002207E+03 -7.725238E+02  3.162877E+04  4.794416E+03  4.580317E+02
       185  21  2.369506E+04 -4.123175E+03 -4.720393E+03  3.441368E+04  4.034943E+03 -1.394742E+03
       185  22  4.113952E+04 -1.151101E+03 -3.840699E+03  3.436497E+04  2.343226E+03  2.066262E+03
       185  23  4.130706E+04 -3.183964E+02 -2.578368E+03  3.193988E+04  1.056141E+03  4.577304E+02
       185  24  4.113967E+04 -1.545604E+02 -2.321258E+03  3.436491E+04 -2.309164E+02 -1.395100E+03
       185  25  4.007494E+03 -9.852679E+03 -1.021807E+04  3.503596E+04 -8.673003E+02  2.066009E+03
       185  26  3.150918E+04 -2.638998E+03 -4.384163E+03  3.225099E+04 -2.682076E+03  4.574252E+02
       185  27  5.858462E+04  3.814051E+03  7.794107E+01  3.431613E+04 -4.496890E+03 -1.395457E+03
       186   1  6.571078E+03 -8.076298E+03 -7.495027E+03  3.425856E+04 -3.624606E+03  2.570791E+03
       186   2 -2.040825E+04 -1.472641E+04 -1.275619E+04  3.240437E+04 -1.062580E+03  4.349254E+03
       186   3 -4.800670E+04 -2.252068E+04 -1.997151E+04  3.539066E+04  1.499434E+03  5.736243E+03
       186   4  4.110891E+04 -1.651657E+02 -2.476395E+03  3.436277E+04  6.391738E+02  2.571128E+03
       186   5  4.134466E+04 -5.116498E+02 -3.434326E+03  3.194259E+04  2.355750E+03  4.349458E+03
       186   6  4.110784E+04 -1.855312E+03 -5.759081E+03  3.436287E+04  4.072408E+03  5.736330E+03
       186   7  7.564799E+04  7.745921E+03  2.542286E+03  3.446697E+04  4.903181E+03  2.571467E+03
       186   8  1.031014E+05  1.370293E+04  5.887503E+03  3.148076E+04  5.774406E+03  4.349657E+03
       186   9  1.302303E+05  1.880967E+04  8.453162E+03  3.333494E+04  6.645737E+03  5.736409E+03
       186  10  6.571062E+03 -8.076308E+03 -7.495064E+03  3.425857E+04  1.195286E-11 -1.759996E-11
       186  11 -2.040826E+04 -1.472643E+04 -1.275623E+04  3.240437E+04  1.201860E-11 -4.466326E-11
       186  12 -4.800671E+04 -2.252072E+04 -1.997157E+04  3.539065E+04  1.136371E-10 -1.325066E-10
       186  13  4.110891E+04 -1.651729E+02 -2.476408E+03  3.436276E+04  5.071257E-12 -1.414456E-11
       186  14  4.134465E+04 -5.116716E+02 -3.434372E+03  3.194258E+04 -3.260482E-11 -4.556040E-11
       186  15  4.110781E+04 -1.855352E+03 -5.759174E+03  3.436286E+04  7.589226E-11 -1.017381E-10
       186  16  7.564796E+04  7.745907E+03  2.542228E+03  3.446696E+04  3.801617E-11  1.981311E-11
       186  17  1.031014E+05  1.370290E+04  5.887405E+03  3.148073E+04  5.622821E-11  9.102908E-11
       186  18  1.302302E+05  1.880962E+04  8.453017E+03  3.333491E+04 -1.620999E-10 -3.623124E-11
       186  19  6.571078E+03 -8.076298E+03 -7.495027E+03  3.425856E+04  3.624606E+03 -2.570791E+03
       186  20 -2.040825E+04 -1.472641E+04 -1.275619E+04  3.240437E+04  1.062580E+03 -4.349254E+03
       186  21 -4.800670E+04 -2.252068E+04 -1.997151E+04  3.539066E+04 -1.499434E+03 -5.736243E+03
       186  22  4.110891E+04 -1.651657E+02 -2.476395E+03  3.436277E+04 -6.391738E+02 -2.571128E+03
       186  23  4.134466E+04 -5.116498E+02 -3.434326E+03  3.194259E+04 -2.355750E+03 -4.349458E+03
       186  24  4.110784E+04 -1.855312E+03 -5.759081E+03  3.436287E+04 -4.072408E+03 -5.736330E+03
       186  25  7.564799E+04  7.745921E+03  2.542286E+03  3.446697E+04 -4.903181E+03 -2.571467E+03
       186  26  1.031014E+05  1.370293E+04  5.887503E+03  3.148076E+04 -5.774406E+03 -4.349657E+03
       186  27  1.302303E+05  1.880967E+04  8.453162E+03  3.333494E+04 -6.645737E+03 -5.736409E+03
       187   1 -6.601878E+04 -2.714643E+04 -2.491705E+04  3.450757E+04  2.544642E+03  6.554417E+03
       187   2 -9.077955E+04 -3.968516E+04 -3.852020E+04  4.056256E+04  1.711214E+04  5.963306E+03
       187   3 -1.206444E+05 -6.505982E+04 -6.481649E+04  5.120571E+04  3.167866E+04  1.856841E+03
       187   4  4.037095E+04 -2.391897E+03 -7.535942E+03  3.430694E+04  5.063186E+03  6.554454E+03
       187   5  4.226287E+04 -8.100990E+03 -1.364320E+04  3.201302E+04  1.203896E+04  5.962780E+03
       187   6  4.036902E+04 -2.532659E+04 -2.717047E+04  3.430761E+04  1.901453E+04  1.855708E+03
       187   7  1.467719E+05  2.236206E+04  9.844872E+03  3.410627E+04  7.582147E+03  6.554490E+03
       187   8  1.753226E+05  2.348244E+04  1.123318E+04  2.346159E+04  6.964728E+03  5.962394E+03
       187   9  2.014073E+05  1.440597E+04  1.047454E+04  1.740510E+04  6.347140E+03  1.855264E+03
       187  10 -6.601880E+04 -2.714647E+04 -2.491715E+04  3.450755E+04 -1.054194E-10 -1.349935E-10
       187  11 -9.077987E+04 -3.968527E+04 -3.852082E+04  4.056248E+04  7.108066E-11 -4.850273E-11
       187  12 -1.206455E+05 -6.506009E+04 -6.481839E+04  5.120566E+04  4.029998E-11 -3.797007E-12
       187  13  4.037092E+04 -2.391950E+03 -7.536071E+03  3.430691E+04 -1.157284E-10 -2.022775E-10
       187  14  4.226271E+04 -8.101067E+03 -1.364354E+04  3.201296E+04  8.418971E-11 -2.000458E-12
       187  15  4.036863E+04 -2.532669E+04 -2.717116E+04  3.430758E+04  7.655088E-11 -8.002471E-12
       187  16  1.467718E+05  2.236199E+04  9.844683E+03  3.410623E+04  1.322007E-10 -4.961871E-11
       187  17  1.753226E+05  2.348239E+04  1.123302E+04  2.346156E+04  2.589144E-10 -2.063491E-12
       187  18  2.014073E+05  1.440595E+04  1.047446E+04  1.740509E+04 -1.926826E-11  1.189410E-11
       187  19 -6.601878E+04 -2.714643E+04 -2.491705E+04  3.450757E+04 -2.544642E+03 -6.554417E+03
       187  20 -9.077955E+04 -3.968516E+04 -3.852020E+04  4.056256E+04 -1.711214E+04 -5.963306E+03
       187  21 -1.206444E+05 -6.505982E+04 -6.481649E+04  5.120571E+04 -3.167866E+04 -1.856841E+03
       187  22  4.037095E+04 -2.391897E+03 -7.535942E+03  3.430694E+04 -5.063186E+03 -6.554454E+03
       187  23  4.226287E+04 -8.100990E+03 -1.364320E+04  3.201302E+04 -1.203896E+04 -5.962780E+03
       187  24  4.036902E+04 -2.532659E+04 -2.717047E+04  3.430761E+04 -1.901453E+04 -1.855708E+03
       187  25  1.467719E+05  2.236206E+04  9.844872E+03  3.410627E+04 -7.582147E+03 -6.554490E+03
       187  26  1.753226E+05  2.348244E+04  1.123318E+04  2.346159E+04 -6.964728E+03 -5.962394E+03
       187  27  2.014073E+05  1.440597E+04  1.047454E+04  1.740510E+04 -6.347140E+03 -1.855264E+03
       188   1 -4.292387E+04 -9.834596E+04 -4.662938E+04  4.345870E+04  2.916492E+02 -3.046727E+04
       188   2 -1.026701E+04 -8.412549E+04 -2.208879E+04  2.779196E+04  1.246879E+03 -1.805810E+04
       188   3  2.094627E+03 -7.659464E+04 -1.070157E+04  1.407196E+04  2.114246E+03 -5.648546E+03
       188   4 -4.445624E+04 -1.047930E+05 -4.782785E+04  1.369846E+04  2.930527E+02 -3.262129E+04
       188   5 -1.424390E+04 -1.014305E+05 -2.466081E+04  1.272457E+04  1.247274E+03 -2.002373E+04
       188   6 -4.360539E+03 -1.047910E+05 -1.477807E+04  1.369806E+04  2.114221E+03 -7.425952E+03
       188   7 -4.598529E+04 -1.112380E+05 -4.902584E+04 -1.606146E+04  2.946627E+02 -3.477529E+04
       188   8 -1.821994E+04 -1.187347E+05 -2.723270E+04 -2.342393E+03  1.247765E+03 -2.198930E+04
       188   9 -1.081574E+04 -1.329865E+05 -1.885457E+04  1.332419E+04  2.114197E+03 -9.203279E+03
       188  10 -4.292412E+04 -9.834696E+04 -4.663112E+04  4.345871E+04 -5.771247E-11 -3.702658E-11
       188  11 -1.026710E+04 -8.412584E+04 -2.208940E+04  2.779198E+04  4.009661E-11  1.818780E-11
       188  12  2.094613E+03 -7.659467E+04 -1.070164E+04  1.407196E+04 -3.746420E-12  7.798342E-11
       188  13 -4.445653E+04 -1.047941E+05 -4.782985E+04  1.369847E+04  3.010915E-12 -1.921897E-12
       188  14 -1.424401E+04 -1.014309E+05 -2.466157E+04  1.272459E+04 -7.847108E-11  1.442555E-12
       188  15 -4.360559E+03 -1.047910E+05 -1.477818E+04  1.369808E+04 -1.073414E-10  6.966052E-12
       188  16 -4.598561E+04 -1.112393E+05 -4.902811E+04 -1.606145E+04 -5.361098E-12  3.006198E-11
       188  17 -1.822008E+04 -1.187352E+05 -2.723362E+04 -2.342371E+03 -7.330610E-11 -2.222193E-11
       188  18 -1.081577E+04 -1.329866E+05 -1.885474E+04  1.332420E+04  3.107804E-11 -8.362095E-11
       188  19 -4.292387E+04 -9.834596E+04 -4.662938E+04  4.345870E+04 -2.916492E+02  3.046727E+04
       188  20 -1.026701E+04 -8.412549E+04 -2.208879E+04  2.779196E+04 -1.246879E+03  1.805810E+04
       188  21  2.094627E+03 -7.659464E+04 -1.070157E+04  1.407196E+04 -2.114246E+03  5.648546E+03
       188  22 -4.445624E+04 -1.047930E+05 -4.782785E+04  1.369846E+04 -2.930527E+02  3.262129E+04
       188  23 -1.424390E+04 -1.014305E+05 -2.466081E+04  1.272457E+04 -1.247274E+03  2.002373E+04
       188  24 -4.360539E+03 -1.047910E+05 -1.477807E+04  1.369806E+04 -2.114221E+03  7.425952E+03
       188  25 -4.598529E+04 -1.112380E+05 -4.902584E+04 -1.606146E+04 -2.946627E+02  3.477529E+04
       188  26 -1.821994E+04 -1.187347E+05 -2.723270E+04 -2.342393E+03 -1.247765E+03  2.198930E+04
       188  27 -1.081574E+04 -1.329865E+05 -1.885457E+04  1.332419E+04 -2.114197E+03  9.203279E+03
       189   1  4.553677E+03 -6.861811E+04 -7.141066E+03  1.565109E+04  2.598779E+03 -3.605953E+03
       189   2  8.789772E+03 -5.706121E+04 -3.127111E+03  1.279265E+04  3.304214E+03  8.696850E+02
       189   3  9.909284E+03 -4.686592E+04 -2.806242E+03  1.186085E+04  3.778323E+03  5.345410E+03
       189   4 -3.466575E+03 -1.036191E+05 -1.223756E+04  1.369350E+04  2.598771E+03 -5.378918E+03
       189   5 -1.740402E+03 -1.028950E+05 -9.940130E+03  1.273018E+04  3.304223E+03 -4.040114E+02
       189   6 -3.217636E+03 -1.036194E+05 -1.168269E+04  1.369355E+04  3.778367E+03  4.570910E+03
       189   7 -1.148687E+04 -1.386188E+05 -1.733405E+04  1.173603E+04  2.598774E+03 -7.151788E+03
       189   8 -1.227067E+04 -1.487266E+05 -1.675318E+04  1.266772E+04  3.304232E+03 -1.677618E+03
       189   9 -1.634470E+04 -1.603697E+05 -2.055921E+04  1.552606E+04  3.778407E+03  3.796478E+03
       189  10  4.553666E+03 -6.861812E+04 -7.141104E+03  1.565109E+04 -9.224931E-12 -1.458779E-10
       189  11  8.789760E+03 -5.706121E+04 -3.127133E+03  1.279265E+04 -9.665466E-12 -4.317914E-12
       189  12  9.909261E+03 -4.686595E+04 -2.806322E+03  1.186084E+04  8.163637E-11  1.597003E-10
       189  13 -3.466590E+03 -1.036191E+05 -1.223762E+04  1.369351E+04 -7.136315E-11  7.143034E-12
       189  14 -1.740414E+03 -1.028950E+05 -9.940151E+03  1.273018E+04 -5.801154E-11  1.580729E-11
       189  15 -3.217657E+03 -1.036194E+05 -1.168275E+04  1.369353E+04  3.326105E-11 -3.270096E-11
       189  16 -1.148689E+04 -1.386189E+05 -1.733416E+04  1.173605E+04  3.634821E-11  1.441385E-10
       189  17 -1.227069E+04 -1.487267E+05 -1.675321E+04  1.266772E+04 -1.943562E-10 -1.812536E-11
       189  18 -1.634472E+04 -1.603697E+05 -2.055926E+04  1.552605E+04  5.150768E-12 -1.591551E-10
       189  19  4.553677E+03 -6.861811E+04 -7.141066E+03  1.565109E+04 -2.598779E+03  3.605953E+03
       189  20  8.789772E+03 -5.706121E+04 -3.127111E+03  1.279265E+04 -3.304214E+03 -8.696850E+02
       189  21  9.909284E+03 -4.686592E+04 -2.806242E+03  1.186085E+04 -3.778323E+03 -5.345410E+03
       189  22 -3.466575E+03 -1.036191E+05 -1.223756E+04  1.369350E+04 -2.598771E+03  5.378918E+03
       189  23 -1.740402E+03 -1.028950E+05 -9.940130E+03  1.273018E+04 -3.304223E+03  4.040114E+02
       189  24 -3.217636E+03 -1.036194E+05 -1.168269E+04  1.369355E+04 -3.778367E+03 -4.570910E+03
       189  25 -1.148687E+04 -1.386188E+05 -1.733405E+04  1.173603E+04 -2.598774E+03  7.151788E+03
       189  26 -1.227067E+04 -1.487266E+05 -1.675318E+04  1.266772E+04 -3.304232E+03  1.677618E+03
       189  27 -1.634470E+04 -1.603697E+05 -2.055921E+04  1.552606E+04 -3.778407E+03 -3.796478E+03
       190   1  1.074644E+04 -4.100708E+04 -3.675582E+03  1.331046E+04  4.051374E+03  7.261647E+03
       190   2  4.488706E+03 -2.737280E+04 -9.132514E+03 -1.088607E+03  3.473420E+03  1.492267E+04
       190   3 -1.976722E+04 -1.923478E+04 -2.407654E+04 -1.369553E+04  1.049993E+03  2.258368E+04
       190   4 -4.031877E+03 -1.046729E+05 -1.389624E+04  1.366374E+04  4.051416E+03  6.515940E+03
       190   5 -1.308813E+04 -1.015796E+05 -2.280055E+04  1.276755E+04  3.473755E+03  1.816136E+04
       190   6 -4.083625E+04 -1.046754E+05 -4.395980E+04  1.366338E+04  1.050851E+03  2.980650E+04
       190   7 -1.881040E+04 -1.683347E+05 -2.411700E+04  1.401698E+04  4.051458E+03  5.770306E+03
       190   8 -3.066456E+04 -1.757806E+05 -3.646867E+04  2.662201E+04  3.474234E+03  2.139968E+04
       190   9 -6.190297E+04 -1.901075E+05 -6.384296E+04  4.101849E+04  1.052346E+03  3.702833E+04
       190  10  1.074641E+04 -4.100714E+04 -3.675711E+03  1.331043E+04 -2.195174E-11 -2.108260E-10
       190  11  4.488633E+03 -2.737304E+04 -9.132955E+03 -1.088649E+03 -9.462284E-11 -3.713074E-11
       190  12 -1.976735E+04 -1.923533E+04 -2.407750E+04 -1.369555E+04 -1.386908E-11  1.728733E-10
       190  13 -4.031906E+03 -1.046730E+05 -1.389635E+04  1.366372E+04 -1.217040E-11 -1.807312E-11
       190  14 -1.308823E+04 -1.015799E+05 -2.280119E+04  1.276750E+04 -5.564303E-12  2.459258E-11
       190  15 -4.083649E+04 -1.046763E+05 -4.396147E+04  1.366335E+04  2.905665E-11 -1.021974E-10
       190  16 -1.881042E+04 -1.683348E+05 -2.411710E+04  1.401696E+04  4.315880E-11  2.153127E-10
       190  17 -3.066469E+04 -1.757810E+05 -3.646956E+04  2.662195E+04 -1.601064E-12 -5.991292E-11
       190  18 -6.190333E+04 -1.901090E+05 -6.384554E+04  4.101846E+04 -1.375657E-11 -1.879941E-10
       190  19  1.074644E+04 -4.100708E+04 -3.675582E+03  1.331046E+04 -4.051374E+03 -7.261647E+03
       190  20  4.488706E+03 -2.737280E+04 -9.132514E+03 -1.088607E+03 -3.473420E+03 -1.492267E+04
       190  21 -1.976722E+04 -1.923478E+04 -2.407654E+04 -1.369553E+04 -1.049993E+03 -2.258368E+04
       190  22 -4.031877E+03 -1.046729E+05 -1.389624E+04  1.366374E+04 -4.051416E+03 -6.515940E+03
       190  23 -1.308813E+04 -1.015796E+05 -2.280055E+04  1.276755E+04 -3.473755E+03 -1.816136E+04
       190  24 -4.083625E+04 -1.046754E+05 -4.395980E+04  1.366338E+04 -1.050851E+03 -2.980650E+04
       190  25 -1.881040E+04 -1.683347E+05 -2.411700E+04  1.401698E+04 -4.051458E+03 -5.770306E+03
       190  26 -3.066456E+04 -1.757806E+05 -3.646867E+04  2.662201E+04 -3.474234E+03 -2.139968E+04
       190  27 -6.190297E+04 -1.901075E+05 -6.384296E+04  4.101849E+04 -1.052346E+03 -3.702833E+04
       191   1  2.174529E+05  1.293501E+05  3.835578E+04  1.320207E+05  2.827229E+04  2.165256E+04
       191   2  2.387947E+05  1.091100E+05  1.958809E+04  1.538611E+05  1.976023E+04  1.558737E+04
       191   3  2.777235E+05  1.004149E+05  1.317548E+04  1.668512E+05  1.215765E+04  8.308715E+03
       191   4  2.959209E+05  1.302484E+05  5.373864E+04  1.455972E+05  3.002809E+04  2.296682E+04
       191   5  2.786821E+05  1.096749E+05  2.684537E+04  1.609130E+05  1.889181E+04  1.493529E+04
       191   6  2.795965E+05  1.012137E+05  1.458232E+04  1.673781E+05  8.665629E+03  5.690105E+03
       191   7  3.743976E+05  1.311482E+05  6.912183E+04  1.591739E+05  3.178422E+04  2.428103E+04
       191   8  3.185723E+05  1.102401E+05  3.410284E+04  1.679650E+05  1.802330E+04  1.428322E+04
       191   9  2.814696E+05  1.020126E+05  1.598924E+04  1.679050E+05  5.173514E+03  3.071429E+03
       191  10  2.174519E+05  1.293493E+05  3.835340E+04  1.320202E+05  5.752761E-11  2.859377E-11
       191  11  2.387942E+05  1.091097E+05  1.958690E+04  1.538609E+05 -9.193213E-11  4.124190E-12
       191  12  2.777233E+05  1.004148E+05  1.317507E+04  1.668511E+05 -3.868294E-10 -2.338539E-11
       191  13  2.959198E+05  1.302476E+05  5.373595E+04  1.455967E+05  1.044645E-10  1.041767E-11
       191  14  2.786817E+05  1.096746E+05  2.684428E+04  1.609128E+05  1.808116E-10  9.668204E-11
       191  15  2.795964E+05  1.012137E+05  1.458212E+04  1.673780E+05 -1.722528E-10  7.246231E-11
       191  16  3.743964E+05  1.311473E+05  6.911883E+04  1.591733E+05 -1.673585E-10 -9.607268E-11
       191  17  3.185719E+05  1.102398E+05  3.410184E+04  1.679648E+05  3.748721E-10  5.984621E-11
       191  18  2.814695E+05  1.020126E+05  1.598917E+04  1.679050E+05  2.081210E-10  1.679150E-10
       191  19  2.174529E+05  1.293501E+05  3.835578E+04  1.320207E+05 -2.827229E+04 -2.165256E+04
       191  20  2.387947E+05  1.091100E+05  1.958809E+04  1.538611E+05 -1.976023E+04 -1.558737E+04
       191  21  2.777235E+05  1.004149E+05  1.317548E+04  1.668512E+05 -1.215765E+04 -8.308715E+03
       191  22  2.959209E+05  1.302484E+05  5.373864E+04  1.455972E+05 -3.002809E+04 -2.296682E+04
       191  23  2.786821E+05  1.096749E+05  2.684537E+04  1.609130E+05 -1.889181E+04 -1.493529E+04
       191  24  2.795965E+05  1.012137E+05  1.458232E+04  1.673781E+05 -8.665629E+03 -5.690105E+03
       191  25  3.743976E+05  1.311482E+05  6.912183E+04  1.591739E+05 -3.178422E+04 -2.428103E+04
       191  26  3.185723E+05  1.102401E+05  3.410284E+04  1.679650E+05 -1.802330E+04 -1.428322E+04
       191  27  2.814696E+05  1.020126E+05  1.598924E+04  1.679050E+05 -5.173514E+03 -3.071429E+03
       192   1  2.888545E+05  1.105668E+05  1.262829E+04  1.742262E+05  1.140507E+04  6.199889E+03
       192   2  3.083282E+05  1.259145E+05  1.238322E+04  1.871447E+05  1.058192E+04  2.936434E+03
       192   3  3.342333E+05  1.374450E+05  1.429543E+04  1.980357E+05  9.862200E+03 -4.649208E+02
       192   4  2.782965E+05  9.998317E+04  1.094234E+04  1.671727E+05  7.893579E+03  3.566623E+03
       192   5  2.744248E+05  1.007502E+05  5.973082E+03  1.690184E+05  6.772359E+03  7.962167E+01
       192   6  2.770488E+05  9.776473E+04  3.419830E+03  1.688364E+05  5.754657E+03 -3.545246E+03
       192   7  2.677390E+05  8.940006E+04  9.256571E+03  1.601196E+05  4.382242E+03  9.335099E+02
       192   8  2.405232E+05  7.558710E+04 -4.368439E+02  1.508936E+05  2.963114E+03 -2.776934E+03
       192   9  2.198685E+05  5.808661E+04 -7.455725E+03  1.396403E+05  1.647618E+03 -6.625197E+03
       192  10  2.888544E+05  1.105667E+05  1.262797E+04  1.742262E+05 -1.742799E-10  1.361218E-10
       192  11  3.083280E+05  1.259145E+05  1.238300E+04  1.871447E+05 -8.502308E-11  2.212230E-10
       192  12  3.342331E+05  1.374450E+05  1.429525E+04  1.980357E+05 -1.412581E-10  1.761698E-10
       192  13  2.782965E+05  9.998314E+04  1.094219E+04  1.671727E+05  2.283853E-11  1.870599E-10
       192  14  2.744247E+05  1.007502E+05  5.972996E+03  1.690184E+05  1.957569E-10  2.773101E-10
       192  15  2.770488E+05  9.776471E+04  3.419744E+03  1.688364E+05 -2.230118E-10  9.243980E-11
       192  16  2.677390E+05  8.940005E+04  9.256533E+03  1.601196E+05 -4.810826E-11  1.466442E-10
       192  17  2.405232E+05  7.558709E+04 -4.368749E+02  1.508936E+05  5.571914E-11  2.373546E-10
       192  18  2.198685E+05  5.808656E+04 -7.455813E+03  1.396403E+05 -7.268036E-11  7.668307E-11
       192  19  2.888545E+05  1.105668E+05  1.262829E+04  1.742262E+05 -1.140507E+04 -6.199889E+03
       192  20  3.083282E+05  1.259145E+05  1.238322E+04  1.871447E+05 -1.058192E+04 -2.936434E+03
       192  21  3.342333E+05  1.374450E+05  1.429543E+04  1.980357E+05 -9.862200E+03  4.649208E+02
       192  22  2.782965E+05  9.998317E+04  1.094234E+04  1.671727E+05 -7.893579E+03 -3.566623E+03
       192  23  2.744248E+05  1.007502E+05  5.973082E+03  1.690184E+05 -6.772359E+03 -7.962167E+01
       192  24  2.770488E+05  9.776473E+04  3.419830E+03  1.688364E+05 -5.754657E+03  3.545246E+03
       192  25  2.677390E+05  8.940006E+04  9.256571E+03  1.601196E+05 -4.382242E+03 -9.335099E+02
       192  26  2.405232E+05  7.558710E+04 -4.368439E+02  1.508936E+05 -2.963114E+03  2.776934E+03
       192  27  2.198685E+05  5.808661E+04 -7.455725E+03  1.396403E+05 -1.647618E+03  6.625197E+03
       193   1  3.478441E+05  1.472903E+05  1.635491E+04  2.051594E+05  1.028698E+04 -1.888019E+03
       193   2  3.673530E+05  1.653565E+05  1.973528E+04  2.173696E+05  1.091688E+04 -4.336642E+03
       193   3  3.923208E+05  1.783371E+05  2.379325E+04  2.280329E+05  1.149965E+04 -6.722254E+03
       193   4  2.769289E+05  9.767004E+04  2.628377E+03  1.687870E+05  6.178042E+03 -4.969507E+03
       193   5  2.741815E+05  1.001707E+05  1.602888E+03  1.696023E+05  6.944105E+03 -7.316270E+03
       193   6  2.768627E+05  9.755545E+04  1.136720E+03  1.688698E+05  7.663074E+03 -9.599957E+03
       193   7  2.060183E+05  4.805182E+04 -1.109875E+04  1.324188E+05  2.069629E+03 -8.050598E+03
       193   8  1.810206E+05  3.499063E+04 -1.652963E+04  1.218435E+05  2.972118E+03 -1.029531E+04
       193   9  1.614234E+05  1.678427E+04 -2.151916E+04  1.097211E+05  3.827527E+03 -1.247689E+04
       193  10  3.478440E+05  1.472903E+05  1.635471E+04  2.051594E+05 -1.635242E-10  7.478361E-11
       193  11  3.673529E+05  1.653564E+05  1.973502E+04  2.173697E+05 -9.568112E-11 -8.892748E-11
       193  12  3.923207E+05  1.783370E+05  2.379292E+04  2.280330E+05 -2.298276E-10 -2.343781E-10
       193  13  2.769289E+05  9.767000E+04  2.628259E+03  1.687871E+05  3.509800E-11  1.235190E-10
       193  14  2.741815E+05  1.001707E+05  1.602697E+03  1.696024E+05  1.776741E-11  8.210859E-11
       193  15  2.768626E+05  9.755534E+04  1.136436E+03  1.688699E+05  3.748182E-11  9.453310E-11
       193  16  2.060183E+05  4.805175E+04 -1.109888E+04  1.324188E+05 -5.521178E-11  3.486181E-11
       193  17  1.810206E+05  3.499052E+04 -1.652984E+04  1.218435E+05  6.218964E-12  7.270919E-11
       193  18  1.614233E+05  1.678410E+04 -2.151948E+04  1.097211E+05  1.156020E-10  3.374905E-11
       193  19  3.478441E+05  1.472903E+05  1.635491E+04  2.051594E+05 -1.028698E+04  1.888019E+03
       193  20  3.673530E+05  1.653565E+05  1.973528E+04  2.173696E+05 -1.091688E+04  4.336642E+03
       193  21  3.923208E+05  1.783371E+05  2.379325E+04  2.280329E+05 -1.149965E+04  6.722254E+03
       193  22  2.769289E+05  9.767004E+04  2.628377E+03  1.687870E+05 -6.178042E+03  4.969507E+03
       193  23  2.741815E+05  1.001707E+05  1.602888E+03  1.696023E+05 -6.944105E+03  7.316270E+03
       193  24  2.768627E+05  9.755545E+04  1.136720E+03  1.688698E+05 -7.663074E+03  9.599957E+03
       193  25  2.060183E+05  4.805182E+04 -1.109875E+04  1.324188E+05 -2.069629E+03  8.050598E+03
       193  26  1.810206E+05  3.499063E+04 -1.652963E+04  1.218435E+05 -2.972118E+03  1.029531E+04
       193  27  1.614234E+05  1.678427E+04 -2.151916E+04  1.097211E+05 -3.827527E+03  1.247689E+04
       194   1  4.062131E+05  1.882017E+05  2.666488E+04  2.351737E+05  1.212956E+04 -7.901817E+03
       194   2  4.259127E+05  2.063534E+05  3.186786E+04  2.471060E+05  1.132394E+04 -1.075201E+04
       194   3  4.513277E+05  2.198098E+05  3.874565E+04  2.574615E+05  1.001873E+04 -1.293606E+04
       194   4  2.768530E+05  9.757285E+04  1.045201E+03  1.688680E+05  8.302706E+03 -1.077240E+04
       194   5  2.742315E+05  1.002197E+05  1.112895E+03  1.695484E+05  8.937247E+03 -1.254276E+04
       194   6  2.770127E+05  9.785877E+04  1.606259E+03  1.686515E+05  9.072200E+03 -1.364680E+04
       194   7  1.475129E+05  6.954689E+03 -2.457491E+04  1.025785E+05  4.476906E+03 -1.364219E+04
       194   8  1.225761E+05 -5.900768E+03 -2.964345E+04  9.201201E+04  6.551301E+03 -1.433296E+04
       194   9  1.027296E+05 -2.407632E+04 -3.553587E+04  7.986854E+04  8.126000E+03 -1.435730E+04
       194  10  4.062130E+05  1.882016E+05  2.666448E+04  2.351737E+05 -8.300667E-11 -9.119987E-11
       194  11  4.259125E+05  2.063532E+05  3.186740E+04  2.471061E+05 -9.986285E-12  5.788319E-11
       194  12  4.513275E+05  2.198096E+05  3.874515E+04  2.574617E+05 -2.603906E-10 -1.613761E-10
       194  13  2.768529E+05  9.757271E+04  1.044854E+03  1.688681E+05 -1.094982E-11 -5.729512E-11
       194  14  2.742314E+05  1.002195E+05  1.112449E+03  1.695484E+05 -7.742395E-11 -1.925820E-10
       194  15  2.770125E+05  9.785855E+04  1.605754E+03  1.686516E+05  5.431692E-11 -3.060204E-11
       194  16  1.475129E+05  6.954484E+03 -2.457529E+04  1.025786E+05  1.608356E-10 -1.124052E-11
       194  17  1.225760E+05 -5.901000E+03 -2.964392E+04  9.201209E+04  2.369604E-10  3.541958E-11
       194  18  1.027294E+05 -2.407656E+04 -3.553638E+04  7.986863E+04  1.659834E-10 -2.032336E-11
       194  19  4.062131E+05  1.882017E+05  2.666488E+04  2.351737E+05 -1.212956E+04  7.901817E+03
       194  20  4.259127E+05  2.063534E+05  3.186786E+04  2.471060E+05 -1.132394E+04  1.075201E+04
       194  21  4.513277E+05  2.198098E+05  3.874565E+04  2.574615E+05 -1.001873E+04  1.293606E+04
       194  22  2.768530E+05  9.757285E+04  1.045201E+03  1.688680E+05 -8.302706E+03  1.077240E+04
       194  23  2.742315E+05  1.002197E+05  1.112895E+03  1.695484E+05 -8.937247E+03  1.254276E+04
       194  24  2.770127E+05  9.785877E+04  1.606259E+03  1.686515E+05 -9.072200E+03  1.364680E+04
       194  25  1.475129E+05  6.954689E+03 -2.457491E+04  1.025785E+05 -4.476906E+03  1.364219E+04
       194  26  1.225761E+05 -5.900768E+03 -2.964345E+04  9.201201E+04 -6.551301E+03  1.433296E+04
       194  27  1.027296E+05 -2.407632E+04 -3.553587E+04  7.986854E+04 -8.126000E+03  1.435730E+04
       195   1  4.655109E+05  2.304273E+05  4.330254E+04  2.647498E+05  1.004894E+04 -1.361385E+04
       195   2  4.873036E+05  2.474404E+05  5.635241E+04  2.741717E+05 -5.063224E+03 -2.127134E+04
       195   3  5.181182E+05  2.645271E+05  8.164169E+04  2.812602E+05 -2.430595E+04 -2.342553E+04
       195   4  2.770734E+05  9.811650E+04  2.026009E+03  1.687035E+05  9.188724E+03 -1.425995E+04
       195   5  2.749103E+05  1.012511E+05  3.539591E+03  1.684566E+05  5.976758E+03 -1.299011E+04
       195   6  2.791888E+05  1.018799E+05  6.969380E+03  1.658763E+05 -1.366011E+03 -6.215484E+03
       195   7  8.868236E+04 -3.416901E+04 -3.925069E+04  7.269343E+04  8.328873E+03 -1.490578E+04
       195   8  6.257152E+04 -4.491083E+04 -4.927500E+04  6.278405E+04  1.701153E+04 -4.712650E+03
       195   9  4.032189E+04 -6.073840E+04 -6.770672E+04  5.054186E+04  2.156186E+04  1.098601E+04
       195  10  4.655107E+05  2.304271E+05  4.330200E+04  2.647499E+05  1.076266E-10  2.258701E-10
       195  11  4.873035E+05  2.474399E+05  5.635151E+04  2.741716E+05  1.598291E-10  1.856398E-10
       195  12  5.181174E+05  2.645263E+05  8.163955E+04  2.812598E+05  3.780969E-11  1.488751E-11
       195  13  2.770732E+05  9.811626E+04  2.025469E+03  1.687036E+05 -4.279902E-11 -1.131816E-10
       195  14  2.749102E+05  1.012509E+05  3.539207E+03  1.684566E+05  7.177138E-11  2.618852E-10
       195  15  2.791888E+05  1.018799E+05  6.969304E+03  1.658762E+05  1.172101E-11  6.749780E-11
       195  16  8.868223E+04 -3.416927E+04 -3.925123E+04  7.269353E+04 -1.458898E-10 -2.028484E-10
       195  17  6.257120E+04 -4.491093E+04 -4.927558E+04  6.278412E+04 -1.384515E-10  3.301598E-10
       195  18  4.032136E+04 -6.073865E+04 -6.770782E+04  5.054167E+04 -1.299068E-10 -1.969559E-10
       195  19  4.655109E+05  2.304273E+05  4.330254E+04  2.647498E+05 -1.004894E+04  1.361385E+04
       195  20  4.873036E+05  2.474404E+05  5.635241E+04  2.741717E+05  5.063224E+03  2.127134E+04
       195  21  5.181182E+05  2.645271E+05  8.164169E+04  2.812602E+05  2.430595E+04  2.342553E+04
       195  22  2.770734E+05  9.811650E+04  2.026009E+03  1.687035E+05 -9.188724E+03  1.425995E+04
       195  23  2.749103E+05  1.012511E+05  3.539591E+03  1.684566E+05 -5.976758E+03  1.299011E+04
       195  24  2.791888E+05  1.018799E+05  6.969380E+03  1.658763E+05  1.366011E+03  6.215484E+03
       195  25  8.868236E+04 -3.416901E+04 -3.925069E+04  7.269343E+04 -8.328873E+03  1.490578E+04
       195  26  6.257152E+04 -4.491083E+04 -4.927500E+04  6.278405E+04 -1.701153E+04  4.712650E+03
       195  27  4.032189E+04 -6.073840E+04 -6.770672E+04  5.054186E+04 -2.156186E+04 -1.098601E+04
       196   1 -2.581978E+04  9.545440E+04 -2.291555E+04  1.436112E+05 -8.176141E+02  1.707151E+04
       196   2 -1.274293E+04  2.234467E+05 -6.445907E+03  1.416855E+05 -3.146701E+02  2.050341E+04
       196   3  1.130164E+04  3.537551E+05  1.053176E+04  1.623812E+05  5.344167E+03  2.393627E+04
       196   4  2.844846E+04  3.134549E+05  3.041633E+04  1.625664E+05 -8.156640E+02  2.156062E+04
       196   5  9.141477E+03  3.113462E+05  1.507117E+04  1.512595E+05 -3.164656E+02  1.385115E+04
       196   6  2.734350E+03  3.134664E+05  7.966590E+03  1.625717E+05  5.338185E+03  6.141829E+03
       196   7  8.271455E+04  5.314994E+05  8.374500E+04  1.815282E+05 -8.134405E+02  2.605129E+04
       196   8  3.102568E+04  3.992530E+05  3.658789E+04  1.608349E+05 -3.184660E+02  7.197951E+03
       196   9 -5.832805E+03  2.731801E+05  5.402688E+03  1.627621E+05  5.332190E+03 -1.165155E+04
       196  10 -2.581986E+04  9.545409E+04 -2.291610E+04  1.436112E+05 -6.848185E-11 -6.840649E-11
       196  11 -1.274304E+04  2.234463E+05 -6.446696E+03  1.416855E+05  1.391490E-11  2.627228E-10
       196  12  1.130145E+04  3.537545E+05  1.053063E+04  1.623811E+05  9.457699E-11  3.523045E-10
       196  13  2.844834E+04  3.134544E+05  3.041545E+04  1.625664E+05  8.300602E-11  1.595986E-11
       196  14  9.141425E+03  3.113460E+05  1.507081E+04  1.512595E+05 -1.679004E-10 -5.449917E-12
       196  15  2.734309E+03  3.134663E+05  7.966466E+03  1.625716E+05 -1.006033E-11 -2.328811E-10
       196  16  8.271437E+04  5.314987E+05  8.374372E+04  1.815282E+05  2.069067E-11  1.056124E-10
       196  17  3.102566E+04  3.992529E+05  3.658779E+04  1.608349E+05  4.434504E-11 -5.098356E-11
       196  18 -5.832872E+03  2.731800E+05  5.402379E+03  1.627621E+05  2.913719E-11 -3.626643E-10
       196  19 -2.581978E+04  9.545440E+04 -2.291555E+04  1.436112E+05  8.176141E+02 -1.707151E+04
       196  20 -1.274293E+04  2.234467E+05 -6.445907E+03  1.416855E+05  3.146701E+02 -2.050341E+04
       196  21  1.130164E+04  3.537551E+05  1.053176E+04  1.623812E+05 -5.344167E+03 -2.393627E+04
       196  22  2.844846E+04  3.134549E+05  3.041633E+04  1.625664E+05  8.156640E+02 -2.156062E+04
       196  23  9.141477E+03  3.113462E+05  1.507117E+04  1.512595E+05  3.164656E+02 -1.385115E+04
       196  24  2.734350E+03  3.134664E+05  7.966590E+03  1.625717E+05 -5.338185E+03 -6.141829E+03
       196  25  8.271455E+04  5.314994E+05  8.374500E+04  1.815282E+05  8.134405E+02 -2.605129E+04
       196  26  3.102568E+04  3.992530E+05  3.658789E+04  1.608349E+05  3.184660E+02 -7.197951E+03
       196  27 -5.832805E+03  2.731801E+05  5.402688E+03  1.627621E+05 -5.332190E+03  1.165155E+04
       197   1  2.954091E+04  4.340372E+05  2.150247E+04  1.615573E+05  1.041518E+04  2.297926E+04
       197   2  5.798179E+04  5.627621E+05  3.983265E+04  1.506370E+05  1.804187E+04  1.893162E+04
       197   3  8.775102E+04  6.923691E+05  6.112927E+04  1.625875E+05  2.440689E+04  1.488425E+04
       197   4  2.125509E+03  3.126112E+05  5.794136E+03  1.626275E+05  1.040950E+04  5.127891E+03
       197   5  4.974497E+02  3.124045E+05  2.638446E+03  1.511920E+05  1.803826E+04  3.805900E+03
       197   6 -2.745232E+02  3.125900E+05  5.566369E+02  1.626279E+05  2.440507E+04  2.484959E+03
       197   7 -2.529033E+04  1.912009E+05 -9.913076E+03  1.636974E+05  1.040376E+04 -1.272016E+04
       197   8 -5.698971E+04  6.211023E+04 -3.455607E+04  1.517468E+05  1.803461E+04 -1.131397E+04
       197   9 -8.830720E+04 -6.704544E+04 -6.001917E+04  1.626683E+05  2.440324E+04 -9.907029E+03
       197  10  2.954065E+04  4.340366E+05  2.150127E+04  1.615571E+05  1.552570E-10 -6.414492E-11
       197  11  5.798134E+04  5.627617E+05  3.983136E+04  1.506367E+05  3.611395E-12  2.410708E-10
       197  12  8.775032E+04  6.923687E+05  6.112774E+04  1.625872E+05  1.575981E-10  5.331757E-10
       197  13  2.125386E+03  3.126111E+05  5.793883E+03  1.626274E+05  1.637502E-11 -5.761929E-11
       197  14  4.970964E+02  3.124044E+05  2.637808E+03  1.511919E+05 -6.534832E-11 -4.774785E-11
       197  15 -2.751645E+02  3.125898E+05  5.555059E+02  1.626279E+05 -2.951887E-11  2.061161E-11
       197  16 -2.529049E+04  1.912007E+05 -9.913584E+03  1.636975E+05  1.669045E-11  1.048846E-10
       197  17 -5.699009E+04  6.211000E+04 -3.455692E+04  1.517469E+05 -6.583565E-11 -1.916466E-10
       197  18 -8.830786E+04 -6.704571E+04 -6.002048E+04  1.626685E+05 -1.162907E-10 -5.723087E-10
       197  19  2.954091E+04  4.340372E+05  2.150247E+04  1.615573E+05 -1.041518E+04 -2.297926E+04
       197  20  5.798179E+04  5.627621E+05  3.983265E+04  1.506370E+05 -1.804187E+04 -1.893162E+04
       197  21  8.775102E+04  6.923691E+05  6.112927E+04  1.625875E+05 -2.440689E+04 -1.488425E+04
       197  22  2.125509E+03  3.126112E+05  5.794136E+03  1.626275E+05 -1.040950E+04 -5.127891E+03
       197  23  4.974497E+02  3.124045E+05  2.638446E+03  1.511920E+05 -1.803826E+04 -3.805900E+03
       197  24 -2.745232E+02  3.125900E+05  5.566369E+02  1.626279E+05 -2.440507E+04 -2.484959E+03
       197  25 -2.529033E+04  1.912009E+05 -9.913076E+03  1.636974E+05 -1.040376E+04  1.272016E+04
       197  26 -5.698971E+04  6.211023E+04 -3.455607E+04  1.517468E+05 -1.803461E+04  1.131397E+04
       197  27 -8.830720E+04 -6.704544E+04 -6.001917E+04  1.626683E+05 -2.440324E+04  9.907029E+03
       198   1  1.069045E+05  7.738697E+05  7.513430E+04  1.624298E+05  2.832363E+04  1.459675E+04
       198   2  1.376674E+05  9.006286E+05  1.076995E+05  1.496434E+05  2.609219E+04 -1.805917E+04
       198   3  1.718026E+05  1.032523E+06  1.623545E+05  1.586416E+05  8.163809E+03 -5.072654E+04
       198   4 -4.442782E+02  3.123204E+05 -3.546069E+02  1.623867E+05  2.832285E+04  2.433976E+03
       198   5 -1.876521E+03  3.126781E+05 -2.489277E+03  1.514941E+05  2.609711E+04  3.725026E+03
       198   6 -5.823020E+03  3.122715E+05 -6.088429E+03  1.623872E+05  8.167386E+03  5.011351E+03
       198   7 -1.078039E+05 -1.490178E+05 -7.584905E+04  1.623436E+05  2.832206E+04 -9.720078E+03
       198   8 -1.414401E+05 -2.749376E+05 -1.126912E+05  1.533430E+05  2.610216E+04  2.548913E+04
       198   9 -1.834837E+05 -4.074962E+05 -1.745550E+05  1.661284E+05  8.171644E+03  6.068508E+04
       198  10  1.069036E+05  7.738692E+05  7.513239E+04  1.624294E+05  1.491448E-10 -8.135316E-11
       198  11  1.376666E+05  9.006280E+05  1.076976E+05  1.496438E+05 -1.483877E-10 -3.512162E-11
       198  12  1.718019E+05  1.032520E+06  1.623496E+05  1.586419E+05 -1.180226E-10  4.668151E-10
       198  13 -4.451413E+02  3.123202E+05 -3.561256E+02  1.623866E+05  5.848082E-11  3.253974E-11
       198  14 -1.877256E+03  3.126779E+05 -2.490583E+03  1.514940E+05 -1.265297E-10  1.988143E-11
       198  15 -5.823099E+03  3.122714E+05 -6.088602E+03  1.623872E+05 -1.533888E-10  5.668362E-10
       198  16 -1.078047E+05 -1.490182E+05 -7.585074E+04  1.623439E+05 -8.917885E-11  5.163978E-11
       198  17 -1.414411E+05 -2.749385E+05 -1.126937E+05  1.533424E+05 -1.508115E-10 -2.359396E-10
       198  18 -1.834848E+05 -4.075001E+05 -1.745621E+05  1.661280E+05 -5.425864E-11 -4.100940E-10
       198  19  1.069045E+05  7.738697E+05  7.513430E+04  1.624298E+05 -2.832363E+04 -1.459675E+04
       198  20  1.376674E+05  9.006286E+05  1.076995E+05  1.496434E+05 -2.609219E+04  1.805917E+04
       198  21  1.718026E+05  1.032523E+06  1.623545E+05  1.586416E+05 -8.163809E+03  5.072654E+04
       198  22 -4.442782E+02  3.123204E+05 -3.546069E+02  1.623867E+05 -2.832285E+04 -2.433976E+03
       198  23 -1.876521E+03  3.126781E+05 -2.489277E+03  1.514941E+05 -2.609711E+04 -3.725026E+03
       198  24 -5.823020E+03  3.122715E+05 -6.088429E+03  1.623872E+05 -8.167386E+03 -5.011351E+03
       198  25 -1.078039E+05 -1.490178E+05 -7.584905E+04  1.623436E+05 -2.832206E+04  9.720078E+03
       198  26 -1.414401E+05 -2.749376E+05 -1.126912E+05  1.533430E+05 -2.610216E+04 -2.548913E+04
       198  27 -1.834837E+05 -4.074962E+05 -1.745550E+05  1.661284E+05 -8.171644E+03 -6.068508E+04
       199   1  1.970480E+05  5.552695E+04  5.120915E+04  4.381083E+04  1.407053E+04 -3.173535E+03
       199   2  1.562902E+05  5.018408E+04  3.620296E+04  4.385859E+04  4.448392E+03 -1.031793E+04
       199   3  1.161602E+05  4.230426E+04  2.682581E+04  5.065064E+04 -5.171108E+03 -1.165942E+04
       199   4 -7.017855E+04 -1.038757E+04 -1.113597E+04  5.079397E+04 -7.636865E+03 -3.168054E+03
       199   5 -6.940050E+04 -3.335837E+03 -5.708939E+03  4.742278E+04 -4.721650E+03 -1.031621E+04
       199   6 -7.017226E+04 -9.979136E+02 -3.358530E+03  5.079609E+04 -1.804256E+03 -1.166037E+04
       199   7 -3.373382E+05 -7.630671E+04 -7.348413E+04  5.777408E+04 -2.933498E+04 -3.163060E+03
       199   8 -2.950417E+05 -5.685859E+04 -4.762267E+04  5.098564E+04 -1.388845E+04 -1.031459E+04
       199   9 -2.564703E+05 -4.430184E+04 -3.354379E+04  5.094149E+04  1.561622E+03 -1.166132E+04
       199  10  1.970478E+05  5.552689E+04  5.120876E+04  4.381087E+04 -9.280634E-11  2.991253E-11
       199  11  1.562901E+05  5.018396E+04  3.620273E+04  4.385863E+04 -9.006716E-11  8.831422E-11
       199  12  1.161601E+05  4.230410E+04  2.682551E+04  5.065059E+04 -4.264487E-11  2.400040E-11
       199  13 -7.017862E+04 -1.038760E+04 -1.113610E+04  5.079395E+04  1.348914E-10  3.008890E-11
       199  14 -6.940055E+04 -3.335957E+03 -5.709180E+03  4.742274E+04 -1.107785E-10  6.330114E-11
       199  15 -7.017230E+04 -9.980605E+02 -3.358791E+03  5.079607E+04 -1.417213E-10  1.228997E-11
       199  16 -3.373391E+05 -7.630695E+04 -7.348577E+04  5.777401E+04  3.070786E-10  3.684700E-11
       199  17 -2.950419E+05 -5.685875E+04 -4.762323E+04  5.098553E+04  4.377967E-10  4.509652E-11
       199  18 -2.564703E+05 -4.430199E+04 -3.354405E+04  5.094150E+04  6.679927E-12 -3.358025E-11
       199  19  1.970480E+05  5.552695E+04  5.120915E+04  4.381083E+04 -1.407053E+04  3.173535E+03
       199  20  1.562902E+05  5.018408E+04  3.620296E+04  4.385859E+04 -4.448392E+03  1.031793E+04
       199  21  1.161602E+05  4.230426E+04  2.682581E+04  5.065064E+04  5.171108E+03  1.165942E+04
       199  22 -7.017855E+04 -1.038757E+04 -1.113597E+04  5.079397E+04  7.636865E+03  3.168054E+03
       199  23 -6.940050E+04 -3.335837E+03 -5.708939E+03  4.742278E+04  4.721650E+03  1.031621E+04
       199  24 -7.017226E+04 -9.979136E+02 -3.358530E+03  5.079609E+04  1.804256E+03  1.166037E+04
       199  25 -3.373382E+05 -7.630671E+04 -7.348413E+04  5.777408E+04  2.933498E+04  3.163060E+03
       199  26 -2.950417E+05 -5.685859E+04 -4.762267E+04  5.098564E+04  1.388845E+04  1.031459E+04
       199  27 -2.564703E+05 -4.430184E+04 -3.354379E+04  5.094149E+04 -1.561622E+03  1.166132E+04
       200   1  9.082906E+04  3.644333E+04  2.264391E+04  5.039777E+04 -4.797542E+03 -1.052268E+04
       200   2  5.042122E+04  2.739561E+04  1.587039E+04  4.706625E+04 -5.182396E+03 -8.591904E+03
       200   3  1.001208E+04  1.811301E+04  9.290149E+03  5.089699E+04 -5.567220E+03 -6.000089E+03
       200   4 -6.988199E+04 -7.742147E+02 -2.734646E+03  5.088872E+04 -1.340477E+03 -1.052353E+04
       200   5 -6.975492E+04 -2.320301E+02 -2.090475E+03  4.730758E+04 -2.976691E+02 -8.592832E+03
       200   6 -6.987869E+04 -1.725661E+02 -2.244573E+03  5.088882E+04  7.451447E+02 -6.001025E+03
       200   7 -2.305673E+05 -3.799303E+04 -2.811380E+04  5.137953E+04  2.115725E+03 -1.052438E+04
       200   8 -1.899165E+05 -2.786034E+04 -2.005153E+04  4.754886E+04  4.586150E+03 -8.593757E+03
       200   9 -1.497629E+05 -1.845842E+04 -1.377925E+04  5.088064E+04  7.056732E+03 -6.001962E+03
       200  10  9.082900E+04  3.644320E+04  2.264366E+04  5.039773E+04 -3.221677E-11 -6.640712E-11
       200  11  5.042117E+04  2.739552E+04  1.587020E+04  4.706621E+04 -6.345805E-11 -1.317357E-10
       200  12  1.001204E+04  1.811297E+04  9.290023E+03  5.089697E+04  3.852763E-11 -1.422125E-10
       200  13 -6.988202E+04 -7.743341E+02 -2.734857E+03  5.088871E+04 -1.362013E-10 -8.963825E-11
       200  14 -6.975494E+04 -2.321094E+02 -2.090614E+03  4.730758E+04  1.055072E-10 -8.371576E-11
       200  15 -6.987870E+04 -1.726049E+02 -2.244642E+03  5.088882E+04  1.910141E-10 -1.237263E-10
       200  16 -2.305673E+05 -3.799315E+04 -2.811402E+04  5.137955E+04  6.304984E-11 -8.045937E-11
       200  17 -1.899165E+05 -2.786042E+04 -2.005171E+04  4.754889E+04  1.240267E-10 -9.806675E-11
       200  18 -1.497630E+05 -1.845847E+04 -1.377941E+04  5.088068E+04  1.221805E-10 -9.005127E-11
       200  19  9.082906E+04  3.644333E+04  2.264391E+04  5.039777E+04  4.797542E+03  1.052268E+04
       200  20  5.042122E+04  2.739561E+04  1.587039E+04  4.706625E+04  5.182396E+03  8.591904E+03
       200  21  1.001208E+04  1.811301E+04  9.290149E+03  5.089699E+04  5.567220E+03  6.000089E+03
       200  22 -6.988199E+04 -7.742147E+02 -2.734646E+03  5.088872E+04  1.340477E+03  1.052353E+04
       200  23 -6.975492E+04 -2.320301E+02 -2.090475E+03  4.730758E+04  2.976691E+02  8.592832E+03
       200  24 -6.987869E+04 -1.725661E+02 -2.244573E+03  5.088882E+04 -7.451447E+02  6.001025E+03
       200  25 -2.305673E+05 -3.799303E+04 -2.811380E+04  5.137953E+04 -2.115725E+03  1.052438E+04
       200  26 -1.899165E+05 -2.786034E+04 -2.005153E+04  4.754886E+04 -4.586150E+03  8.593757E+03
       200  27 -1.497629E+05 -1.845842E+04 -1.377925E+04  5.088064E+04 -7.056732E+03  6.001962E+03
       201   1 -1.536546E+04  1.225354E+04  5.072112E+03  5.075263E+04 -5.161358E+03 -4.258782E+03
       201   2 -5.544162E+04  2.495306E+03 -2.478029E+03  4.785570E+04 -2.574319E+03 -1.474354E+03
       201   3 -9.617464E+04 -8.568577E+03 -1.203766E+04  5.214569E+04  1.242348E+01  1.029799E+03
       201   4 -6.994540E+04 -1.941635E+02 -2.583741E+03  5.089431E+04  1.156275E+03 -4.259646E+03
       201   5 -6.966831E+04 -6.466622E+02 -3.961123E+03  4.730065E+04  3.137675E+03 -1.475107E+03
       201   6 -6.994511E+04 -2.299756E+03 -6.927615E+03  5.089398E+04  5.118943E+03  1.029150E+03
       201   7 -1.245222E+05 -1.264198E+04 -1.023948E+04  5.103598E+04  7.473377E+03 -4.260507E+03
       201   8 -8.389471E+04 -3.788619E+03 -5.444091E+03  4.674561E+04  8.849545E+03 -1.475869E+03
       201   9 -4.371486E+04  3.969045E+03 -1.817506E+03  4.964220E+04  1.022567E+04  1.028480E+03
       201  10 -1.536549E+04  1.225352E+04  5.072028E+03  5.075261E+04  5.954880E-12 -1.017623E-10
       201  11 -5.544163E+04  2.495302E+03 -2.478046E+03  4.785569E+04 -1.615913E-10 -1.553151E-10
       201  12 -9.617464E+04 -8.568578E+03 -1.203766E+04  5.214569E+04 -2.258847E-11 -1.569704E-10
       201  13 -6.994540E+04 -1.941833E+02 -2.583778E+03  5.089431E+04  2.712989E-10 -7.402779E-11
       201  14 -6.966832E+04 -6.466672E+02 -3.961145E+03  4.730065E+04  2.406280E-10 -7.430019E-11
       201  15 -6.994514E+04 -2.299764E+03 -6.927667E+03  5.089397E+04 -7.865068E-11 -8.208792E-11
       201  16 -1.245223E+05 -1.264202E+04 -1.023962E+04  5.103600E+04  1.613565E-10 -3.256144E-11
       201  17 -8.389479E+04 -3.788642E+03 -5.444242E+03  4.674562E+04  1.498387E-10  1.311085E-11
       201  18 -4.371497E+04  3.969016E+03 -1.817705E+03  4.964220E+04 -1.134878E-10 -6.386844E-12
       201  19 -1.536546E+04  1.225354E+04  5.072112E+03  5.075263E+04  5.161358E+03  4.258782E+03
       201  20 -5.544162E+04  2.495306E+03 -2.478029E+03  4.785570E+04  2.574319E+03  1.474354E+03
       201  21 -9.617464E+04 -8.568577E+03 -1.203766E+04  5.214569E+04 -1.242348E+01 -1.029799E+03
       201  22 -6.994540E+04 -1.941635E+02 -2.583741E+03  5.089431E+04 -1.156275E+03  4.259646E+03
       201  23 -6.966831E+04 -6.466622E+02 -3.961123E+03  4.730065E+04 -3.137675E+03  1.475107E+03
       201  24 -6.994511E+04 -2.299756E+03 -6.927615E+03  5.089398E+04 -5.118943E+03 -1.029150E+03
       201  25 -1.245222E+05 -1.264198E+04 -1.023948E+04  5.103598E+04 -7.473377E+03  4.260507E+03
       201  26 -8.389471E+04 -3.788619E+03 -5.444091E+03  4.674561E+04 -8.849545E+03  1.475869E+03
       201  27 -4.371486E+04  3.969045E+03 -1.817506E+03  4.964220E+04 -1.022567E+04 -1.028480E+03
       202   1 -1.225241E+05 -1.516852E+04 -1.852894E+04  5.109094E+04  1.252716E+03  2.514804E+03
       202   2 -1.600582E+05 -3.190578E+04 -3.486257E+04  5.785608E+04  1.627682E+04  3.354066E+03
       202   3 -2.033602E+05 -6.390860E+04 -6.479442E+04  7.159312E+04  3.129930E+04  1.189686E+03
       202   4 -7.085374E+04 -2.956725E+03 -9.146434E+03  5.084678E+04  6.313448E+03  2.514129E+03
       202   5 -6.853480E+04 -9.961695E+03 -1.669702E+04  4.735816E+04  1.485095E+04  3.353958E+03
       202   6 -7.085719E+04 -3.110464E+04 -3.333959E+04  5.084196E+04  2.338779E+04  1.189855E+03
       202   7 -1.918074E+04  9.254932E+03  2.360609E+02  5.060259E+04  1.137459E+04  2.513450E+03
       202   8  2.299689E+04  1.198230E+04  1.468175E+03  3.685867E+04  1.342488E+04  3.353899E+03
       202   9  6.166299E+04  1.699707E+03 -1.885522E+03  3.008634E+04  1.547460E+04  1.190553E+03
       202  10 -1.225241E+05 -1.516852E+04 -1.852895E+04  5.109093E+04 -5.915494E-12 -1.147290E-10
       202  11 -1.600585E+05 -3.190587E+04 -3.486309E+04  5.785604E+04 -2.313944E-10 -7.065428E-11
       202  12 -2.033612E+05 -6.390887E+04 -6.479626E+04  7.159309E+04 -5.109481E-11 -2.006321E-11
       202  13 -7.085378E+04 -2.956742E+03 -9.146521E+03  5.084676E+04  1.306916E-10 -8.100015E-11
       202  14 -6.853504E+04 -9.961766E+03 -1.669746E+04  4.735812E+04 -4.320103E-10  3.139951E-11
       202  15 -7.085778E+04 -3.110479E+04 -3.334062E+04  5.084193E+04 -1.611363E-10 -3.142556E-11
       202  16 -1.918088E+04  9.254890E+03  2.358059E+02  5.060257E+04 -6.984896E-11 -6.027063E-11
       202  17  2.299669E+04  1.198224E+04  1.467815E+03  3.685863E+04  1.825198E-10  5.241416E-12
       202  18  6.166273E+04  1.699642E+03 -1.885974E+03  3.008633E+04 -4.784441E-11 -4.278501E-12
       202  19 -1.225241E+05 -1.516852E+04 -1.852894E+04  5.109094E+04 -1.252716E+03 -2.514804E+03
       202  20 -1.600582E+05 -3.190578E+04 -3.486257E+04  5.785608E+04 -1.627682E+04 -3.354066E+03
       202  21 -2.033602E+05 -6.390860E+04 -6.479442E+04  7.159312E+04 -3.129930E+04 -1.189686E+03
       202  22 -7.085374E+04 -2.956725E+03 -9.146434E+03  5.084678E+04 -6.313448E+03 -2.514129E+03
       202  23 -6.853480E+04 -9.961695E+03 -1.669702E+04  4.735816E+04 -1.485095E+04 -3.353958E+03
       202  24 -7.085719E+04 -3.110464E+04 -3.333959E+04  5.084196E+04 -2.338779E+04 -1.189855E+03
       202  25 -1.918074E+04  9.254932E+03  2.360609E+02  5.060259E+04 -1.137459E+04 -2.513450E+03
       202  26  2.299689E+04  1.198230E+04  1.468175E+03  3.685867E+04 -1.342488E+04 -3.353899E+03
       202  27  6.166299E+04  1.699707E+03 -1.885522E+03  3.008634E+04 -1.547460E+04 -1.190553E+03
       203   1 -3.894081E+04 -2.004360E+05 -4.021855E+04  4.235675E+04 -4.893190E+02 -2.140880E+04
       203   2 -1.688091E+04 -1.775741E+05 -2.085554E+04  3.250749E+04 -1.278075E+03 -1.179392E+04
       203   3 -6.428618E+03 -1.588692E+05 -1.065600E+04  2.625962E+04 -7.372925E+02 -2.178983E+03
       203   4 -2.437705E+04 -1.415890E+05 -2.618249E+04  2.609031E+04 -4.875359E+02 -1.826174E+04
       203   5 -7.791408E+03 -1.397586E+05 -1.319195E+04  2.428526E+04 -1.277804E+03 -1.151789E+04
       203   6 -2.314602E+03 -1.415869E+05 -7.370271E+03  2.608200E+04 -7.383226E+02 -4.774369E+03
       203   7 -9.812543E+03 -8.273823E+04 -1.214648E+04  9.822315E+03 -4.859179E+02 -1.511438E+04
       203   8  1.298257E+03 -1.019416E+05 -5.528392E+03  1.606251E+04 -1.277541E+03 -1.124184E+04
       203   9  1.799400E+03 -1.243043E+05 -4.084535E+03  2.590439E+04 -7.393513E+02 -7.369826E+03
       203  10 -3.894093E+04 -2.004365E+05 -4.021941E+04  4.235674E+04 -1.161263E-10  1.410360E-10
       203  11 -1.688095E+04 -1.775743E+05 -2.085580E+04  3.250748E+04  3.191750E-10  9.879988E-11
       203  12 -6.428620E+03 -1.588692E+05 -1.065600E+04  2.625961E+04  2.400356E-10  1.731918E-10
       203  13 -2.437714E+04 -1.415893E+05 -2.618311E+04  2.609030E+04  5.337455E-11  3.171512E-11
       203  14 -7.791445E+03 -1.397588E+05 -1.319220E+04  2.428525E+04 -8.049164E-11  1.040453E-11
       203  15 -2.314609E+03 -1.415869E+05 -7.370315E+03  2.608200E+04  2.833156E-11 -7.853384E-13
       203  16 -9.812605E+03 -8.273847E+04 -1.214691E+04  9.822309E+03  1.877359E-10 -1.791110E-10
       203  17  1.298221E+03 -1.019417E+05 -5.528632E+03  1.606250E+04 -3.238143E-10 -7.688644E-11
       203  18  1.799385E+03 -1.243044E+05 -4.084638E+03  2.590438E+04  2.423388E-11 -1.948981E-10
       203  19 -3.894081E+04 -2.004360E+05 -4.021855E+04  4.235675E+04  4.893190E+02  2.140880E+04
       203  20 -1.688091E+04 -1.775741E+05 -2.085554E+04  3.250749E+04  1.278075E+03  1.179392E+04
       203  21 -6.428618E+03 -1.588692E+05 -1.065600E+04  2.625962E+04  7.372925E+02  2.178983E+03
       203  22 -2.437705E+04 -1.415890E+05 -2.618249E+04  2.609031E+04  4.875359E+02  1.826174E+04
       203  23 -7.791408E+03 -1.397586E+05 -1.319195E+04  2.428526E+04  1.277804E+03  1.151789E+04
       203  24 -2.314602E+03 -1.415869E+05 -7.370271E+03  2.608200E+04  7.383226E+02  4.774369E+03
       203  25 -9.812543E+03 -8.273823E+04 -1.214648E+04  9.822315E+03  4.859179E+02  1.511438E+04
       203  26  1.298257E+03 -1.019416E+05 -5.528392E+03  1.606251E+04  1.277541E+03  1.124184E+04
       203  27  1.799400E+03 -1.243043E+05 -4.084535E+03  2.590439E+04  7.393513E+02  7.369826E+03
       204   1 -2.864784E+03 -1.450957E+05 -6.787326E+03  2.709314E+04  2.467877E+01 -1.187355E+03
       204   2  3.191572E+03 -1.240773E+05 -1.135604E+03  2.457350E+04  1.193353E+03  4.315419E+02
       204   3  8.123007E+03 -1.035538E+05  3.179793E+03  2.573369E+04  2.278494E+03  2.050531E+03
       204   4 -1.807307E+03 -1.408909E+05 -5.700735E+03  2.609996E+04  2.363884E+01 -3.800053E+03
       204   5 -6.113524E+02 -1.406277E+05 -3.595956E+03  2.425979E+04  1.192395E+03 -2.000793E+03
       204   6 -5.716207E+02 -1.408910E+05 -2.952753E+03  2.609949E+04  2.277621E+03 -2.014910E+02
       204   7 -7.498250E+02 -1.366860E+05 -4.614118E+03  2.510676E+04  2.260728E+01 -6.412769E+03
       204   8 -4.414286E+03 -1.571777E+05 -6.056291E+03  2.394609E+04  1.191440E+03 -4.433066E+03
       204   9 -9.266317E+03 -1.782268E+05 -9.085320E+03  2.646526E+04  2.276745E+03 -2.453382E+03
       204  10 -2.864784E+03 -1.450957E+05 -6.787329E+03  2.709314E+04  2.279978E-10 -1.301672E-10
       204  11  3.191571E+03 -1.240773E+05 -1.135607E+03  2.457350E+04 -4.246918E-11 -4.677540E-11
       204  12  8.123001E+03 -1.035538E+05  3.179775E+03  2.573369E+04 -1.616440E-10  5.835419E-11
       204  13 -1.807311E+03 -1.408909E+05 -5.700762E+03  2.609996E+04  1.022640E-11 -1.079046E-12
       204  14 -6.113550E+02 -1.406277E+05 -3.595966E+03  2.425979E+04  1.266122E-13 -2.083858E-12
       204  15 -5.716263E+02 -1.408910E+05 -2.952763E+03  2.609949E+04 -9.328611E-11 -1.418352E-11
       204  16 -7.498360E+02 -1.366861E+05 -4.614196E+03  2.510676E+04  9.354306E-11  1.219992E-10
       204  17 -4.414293E+03 -1.571777E+05 -6.056331E+03  2.394609E+04  1.944252E-10 -1.418951E-11
       204  18 -9.266324E+03 -1.782268E+05 -9.085341E+03  2.646527E+04 -8.652855E-11 -6.931585E-11
       204  19 -2.864784E+03 -1.450957E+05 -6.787326E+03  2.709314E+04 -2.467877E+01  1.187355E+03
       204  20  3.191572E+03 -1.240773E+05 -1.135604E+03  2.457350E+04 -1.193353E+03 -4.315419E+02
       204  21  8.123007E+03 -1.035538E+05  3.179793E+03  2.573369E+04 -2.278494E+03 -2.050531E+03
       204  22 -1.807307E+03 -1.408909E+05 -5.700735E+03  2.609996E+04 -2.363884E+01  3.800053E+03
       204  23 -6.113524E+02 -1.406277E+05 -3.595956E+03  2.425979E+04 -1.192395E+03  2.000793E+03
       204  24 -5.716207E+02 -1.408910E+05 -2.952753E+03  2.609949E+04 -2.277621E+03  2.014910E+02
       204  25 -7.498250E+02 -1.366860E+05 -4.614118E+03  2.510676E+04 -2.260728E+01  6.412769E+03
       204  26 -4.414286E+03 -1.571777E+05 -6.056291E+03  2.394609E+04 -1.191440E+03  4.433066E+03
       204  27 -9.266317E+03 -1.782268E+05 -9.085320E+03  2.646526E+04 -2.276745E+03  2.453382E+03
       205   1  1.109918E+04 -9.054591E+04  5.445549E+03  2.600365E+04  2.963845E+03  2.490288E+03
       205   2  1.481543E+04 -6.963433E+04  9.549324E+03  2.208871E+04  2.978308E+03  1.386249E+02
       205   3  1.628925E+04 -4.897953E+04  1.462306E+04  2.171775E+04  9.654763E+02 -2.212438E+03
       205   4 -6.826618E+02 -1.410002E+05 -3.003153E+03  2.606921E+04  2.963000E+03  2.677203E+02
       205   5 -2.061438E+03 -1.404923E+05 -3.978691E+03  2.429825E+04  2.979153E+03  2.294590E+03
       205   6 -6.442969E+03 -1.410016E+05 -7.025280E+03  2.607134E+04  9.678892E+02  4.322070E+03
       205   7 -1.246464E+04 -1.914520E+05 -1.145192E+04  2.613477E+04  2.962155E+03 -1.954673E+03
       205   8 -1.893858E+04 -2.113453E+05 -1.750691E+04  2.650754E+04  2.980014E+03  4.450315E+03
       205   9 -2.917570E+04 -2.330157E+05 -2.867403E+04  3.042427E+04  9.703939E+02  1.085561E+04
       205  10  1.109917E+04 -9.054592E+04  5.445521E+03  2.600364E+04  1.929462E-12  1.170262E-10
       205  11  1.481542E+04 -6.963433E+04  9.549307E+03  2.208870E+04 -2.411237E-10  4.158867E-11
       205  12  1.628925E+04 -4.897953E+04  1.462305E+04  2.171775E+04 -8.361600E-11 -3.207369E-13
       205  13 -6.826713E+02 -1.410002E+05 -3.003170E+03  2.606921E+04 -1.440414E-10  2.096776E-12
       205  14 -2.061449E+03 -1.404923E+05 -3.978717E+03  2.429825E+04 -5.324557E-11 -1.682112E-11
       205  15 -6.442975E+03 -1.410016E+05 -7.025317E+03  2.607133E+04 -4.301076E-11  4.196514E-12
       205  16 -1.246465E+04 -1.914520E+05 -1.145194E+04  2.613477E+04  6.592701E-11 -1.827411E-10
       205  17 -1.893859E+04 -2.113454E+05 -1.750697E+04  2.650753E+04  1.755631E-12 -3.887607E-11
       205  18 -2.917573E+04 -2.330158E+05 -2.867425E+04  3.042426E+04 -1.402404E-10 -5.055684E-12
       205  19  1.109918E+04 -9.054591E+04  5.445549E+03  2.600365E+04 -2.963845E+03 -2.490288E+03
       205  20  1.481543E+04 -6.963433E+04  9.549324E+03  2.208871E+04 -2.978308E+03 -1.386249E+02
       205  21  1.628925E+04 -4.897953E+04  1.462306E+04  2.171775E+04 -9.654763E+02  2.212438E+03
       205  22 -6.826618E+02 -1.410002E+05 -3.003153E+03  2.606921E+04 -2.963000E+03 -2.677203E+02
       205  23 -2.061438E+03 -1.404923E+05 -3.978691E+03  2.429825E+04 -2.979153E+03 -2.294590E+03
       205  24 -6.442969E+03 -1.410016E+05 -7.025280E+03  2.607134E+04 -9.678892E+02 -4.322070E+03
       205  25 -1.246464E+04 -1.914520E+05 -1.145192E+04  2.613477E+04 -2.962155E+03  1.954673E+03
       205  26 -1.893858E+04 -2.113453E+05 -1.750691E+04  2.650754E+04 -2.980014E+03 -4.450315E+03
       205  27 -2.917570E+04 -2.330157E+05 -2.867403E+04  3.042427E+04 -9.703939E+02 -1.085561E+04
       206   1  1.593785E+05  1.616135E+05  6.106313E+04  1.043202E+05  2.858039E+04  1.937225E+04
       206   2  1.541771E+05  1.320636E+05  3.693597E+04  1.077560E+05  1.976295E+04  7.797021E+03
       206   3  1.567539E+05  1.152149E+05  2.565106E+04  1.070291E+05  9.399844E+03 -1.714731E+03
       206   4  9.027100E+04  7.894489E+04  3.292777E+04  5.450877E+04  1.948050E+04  1.255040E+04
       206   5  8.186562E+04  6.417803E+04  1.648074E+04  6.326213E+04  1.512075E+04  4.317064E+03
       206   6  8.027250E+04  6.114586E+04  9.009038E+03  6.785253E+04  9.215090E+03 -1.853357E+03
       206   7  2.117095E+04 -3.712150E+03  4.792849E+03  4.706472E+03  1.038213E+04  5.730647E+03
       206   8  9.561253E+03 -3.700407E+03 -3.974454E+03  1.877567E+04  1.047932E+04  8.379204E+02
       206   9  3.798060E+03  7.080601E+03 -7.633233E+03  2.868167E+04  9.030366E+03 -1.991961E+03
       206  10  1.593776E+05  1.616129E+05  6.106089E+04  1.043198E+05 -1.057574E-10 -1.194928E-10
       206  11  1.541767E+05  1.320634E+05  3.693512E+04  1.077559E+05 -8.292943E-12  1.293726E-10
       206  12  1.567539E+05  1.152149E+05  2.565089E+04  1.070291E+05  1.303518E-11  1.955751E-10
       206  13  9.027055E+04  7.894462E+04  3.292676E+04  5.450857E+04 -1.558739E-10  6.158271E-11
       206  14  8.186537E+04  6.417795E+04  1.648028E+04  6.326208E+04  5.097705E-11  9.254281E-11
       206  15  8.027241E+04  6.114583E+04  9.008872E+03  6.785254E+04  8.345388E-11  3.359214E-11
       206  16  2.117082E+04 -3.712214E+03  4.792584E+03  4.706424E+03  1.633122E-10  1.559087E-10
       206  17  9.561135E+03 -3.700438E+03 -3.974662E+03  1.877566E+04 -2.882975E-10  1.131224E-10
       206  18  3.797971E+03  7.080575E+03 -7.633394E+03  2.868169E+04 -8.919355E-11 -1.314142E-10
       206  19  1.593785E+05  1.616135E+05  6.106313E+04  1.043202E+05 -2.858039E+04 -1.937225E+04
       206  20  1.541771E+05  1.320636E+05  3.693597E+04  1.077560E+05 -1.976295E+04 -7.797021E+03
       206  21  1.567539E+05  1.152149E+05  2.565106E+04  1.070291E+05 -9.399844E+03  1.714731E+03
       206  22  9.027100E+04  7.894489E+04  3.292777E+04  5.450877E+04 -1.948050E+04 -1.255040E+04
       206  23  8.186562E+04  6.417803E+04  1.648074E+04  6.326213E+04 -1.512075E+04 -4.317064E+03
       206  24  8.027250E+04  6.114586E+04  9.009038E+03  6.785253E+04 -9.215090E+03  1.853357E+03
       206  25  2.117095E+04 -3.712150E+03  4.792849E+03  4.706472E+03 -1.038213E+04 -5.730647E+03
       206  26  9.561253E+03 -3.700407E+03 -3.974454E+03  1.877567E+04 -1.047932E+04 -8.379204E+02
       206  27  3.798060E+03  7.080601E+03 -7.633233E+03  2.868167E+04 -9.030366E+03  1.991961E+03
       207   1  1.512429E+05  1.128382E+05  2.223501E+04  1.053661E+05  8.403432E+03 -2.412445E+03
       207   2  1.460040E+05  1.062812E+05  1.739169E+04  1.027823E+05  6.279845E+03 -3.917822E+03
       207   3  1.403213E+05  1.021031E+05  1.456131E+04  1.002890E+05  3.968029E+03 -5.172149E+03
       207   4  7.942406E+04  6.044661E+04  6.807688E+03  6.774446E+04  8.251352E+03 -2.526588E+03
       207   5  7.932226E+04  5.863561E+04  3.847221E+03  6.820914E+04  6.670445E+03 -3.625165E+03
       207   6  7.865918E+04  5.908572E+04  2.429019E+03  6.876423E+04  4.901320E+03 -4.472664E+03
       207   7  7.609749E+03  8.057395E+03 -8.620435E+03  3.012715E+04  8.099292E+03 -2.640716E+03
       207   8  1.264584E+04  1.099295E+04 -9.697392E+03  3.364034E+04  7.060989E+03 -3.332551E+03
       207   9  1.700310E+04  1.607174E+04 -9.702882E+03  3.724383E+04  5.834466E+03 -3.773287E+03
       207  10  1.512428E+05  1.128381E+05  2.223487E+04  1.053661E+05 -4.224936E-10 -1.047216E-10
       207  11  1.460040E+05  1.062812E+05  1.739159E+04  1.027824E+05  3.241886E-10  1.409030E-10
       207  12  1.403213E+05  1.021031E+05  1.456123E+04  1.002890E+05  2.356245E-10  2.123710E-10
       207  13  7.942399E+04  6.044659E+04  6.807548E+03  6.774448E+04 -3.124866E-11  7.159368E-11
       207  14  7.932221E+04  5.863558E+04  3.847112E+03  6.820916E+04 -1.932253E-10  9.848188E-11
       207  15  7.865915E+04  5.908569E+04  2.428937E+03  6.876424E+04 -7.930757E-11 -1.535745E-11
       207  16  7.609676E+03  8.057370E+03 -8.620572E+03  3.012717E+04  3.363365E-10  2.008006E-10
       207  17  1.264579E+04  1.099293E+04 -9.697506E+03  3.364036E+04 -9.992807E-11  1.106396E-10
       207  18  1.700306E+04  1.607172E+04 -9.702973E+03  3.724385E+04 -3.020960E-10 -2.401532E-10
       207  19  1.512429E+05  1.128382E+05  2.223501E+04  1.053661E+05 -8.403432E+03  2.412445E+03
       207  20  1.460040E+05  1.062812E+05  1.739169E+04  1.027823E+05 -6.279845E+03  3.917822E+03
       207  21  1.403213E+05  1.021031E+05  1.456131E+04  1.002890E+05 -3.968029E+03  5.172149E+03
       207  22  7.942406E+04  6.044661E+04  6.807688E+03  6.774446E+04 -8.251352E+03  2.526588E+03
       207  23  7.932226E+04  5.863561E+04  3.847221E+03  6.820914E+04 -6.670445E+03  3.625165E+03
       207  24  7.865918E+04  5.908572E+04  2.429019E+03  6.876423E+04 -4.901320E+03  4.472664E+03
       207  25  7.609749E+03  8.057395E+03 -8.620435E+03  3.012715E+04 -8.099292E+03  2.640716E+03
       207  26  1.264584E+04  1.099295E+04 -9.697392E+03  3.364034E+04 -7.060989E+03  3.332551E+03
       207  27  1.700310E+04  1.607174E+04 -9.702882E+03  3.724383E+04 -5.834466E+03  3.773287E+03
       208   1  1.365557E+05  9.967612E+04  1.341070E+04  9.848479E+04  3.460111E+03 -5.145137E+03
       208   2  1.314811E+05  9.490605E+04  1.194270E+04  9.537756E+04  2.347543E+03 -5.273900E+03
       208   3  1.252446E+05  9.167289E+04  1.115428E+04  9.265298E+04  1.208370E+03 -5.367205E+03
       208   4  7.858767E+04  5.903739E+04  2.052253E+03  6.874260E+04  4.397314E+03 -4.442701E+03
       208   5  7.917784E+04  5.827846E+04  1.757221E+03  6.855061E+04  3.361449E+03 -4.513930E+03
       208   6  7.858939E+04  5.903989E+04  2.075241E+03  6.874128E+04  2.298960E+03 -4.549708E+03
       208   7  2.062370E+04  1.840080E+04 -9.306296E+03  3.900364E+04  5.334401E+03 -3.740351E+03
       208   8  2.687728E+04  2.165217E+04 -8.428550E+03  4.172600E+04  4.375255E+03 -3.754035E+03
       208   9  3.193569E+04  2.640749E+04 -7.004233E+03  4.483114E+04  3.389467E+03 -3.732273E+03
       208  10  1.365556E+05  9.967609E+04  1.341063E+04  9.848481E+04 -4.854711E-10 -2.566165E-10
       208  11  1.314811E+05  9.490602E+04  1.194264E+04  9.537757E+04 -5.599260E-11  9.462433E-11
       208  12  1.252446E+05  9.167286E+04  1.115422E+04  9.265299E+04  2.336648E-10  1.628527E-10
       208  13  7.858764E+04  5.903737E+04  2.052180E+03  6.874261E+04  8.110303E-11 -3.694401E-11
       208  14  7.917783E+04  5.827844E+04  1.757162E+03  6.855063E+04  1.204758E-10  2.017220E-11
       208  15  7.858938E+04  5.903987E+04  2.075192E+03  6.874129E+04 -6.366616E-11 -5.132342E-11
       208  16  2.062367E+04  1.840078E+04 -9.306375E+03  3.900366E+04  4.003750E-10  1.673633E-10
       208  17  2.687726E+04  2.165215E+04 -8.428612E+03  4.172602E+04  2.118369E-10  8.525709E-12
       208  18  3.193567E+04  2.640747E+04 -7.004280E+03  4.483115E+04 -1.568302E-10 -2.173293E-10
       208  19  1.365557E+05  9.967612E+04  1.341070E+04  9.848479E+04 -3.460111E+03  5.145137E+03
       208  20  1.314811E+05  9.490605E+04  1.194270E+04  9.537756E+04 -2.347543E+03  5.273900E+03
       208  21  1.252446E+05  9.167289E+04  1.115428E+04  9.265298E+04 -1.208370E+03  5.367205E+03
       208  22  7.858767E+04  5.903739E+04  2.052253E+03  6.874260E+04 -4.397314E+03  4.442701E+03
       208  23  7.917784E+04  5.827846E+04  1.757221E+03  6.855061E+04 -3.361449E+03  4.513930E+03
       208  24  7.858939E+04  5.903989E+04  2.075241E+03  6.874128E+04 -2.298960E+03  4.549708E+03
       208  25  2.062370E+04  1.840080E+04 -9.306296E+03  3.900364E+04 -5.334401E+03  3.740351E+03
       208  26  2.687728E+04  2.165217E+04 -8.428550E+03  4.172600E+04 -4.375255E+03  3.754035E+03
       208  27  3.193569E+04  2.640749E+04 -7.004233E+03  4.483114E+04 -3.389467E+03  3.732273E+03
       209   1  1.216392E+05  8.937286E+04  1.083415E+04  9.089892E+04  6.750514E+02 -5.308637E+03
       209   2  1.172949E+05  8.428834E+04  1.125241E+04  8.721916E+04 -1.389239E+03 -6.031207E+03
       209   3  1.123993E+05  8.153341E+04  1.332927E+04  8.363091E+04 -3.487811E+03 -6.707957E+03
       209   4  7.865673E+04  5.909584E+04  2.465494E+03  6.876531E+04  1.766725E+03 -4.490309E+03
       209   5  7.933431E+04  5.863753E+04  3.921890E+03  6.819826E+04 -1.985512E+02 -5.138638E+03
       209   6  7.943886E+04  6.048725E+04  6.950983E+03  6.772261E+04 -2.198148E+03 -5.741175E+03
       209   7  3.567757E+04  2.882076E+04 -5.902848E+03  4.663402E+04  2.858274E+03 -3.672075E+03
       209   8  4.137591E+04  3.298790E+04 -3.408494E+03  4.917893E+04  9.920262E+02 -4.246149E+03
       209   9  4.647976E+04  3.944168E+04  5.726826E+02  5.181527E+04 -9.085762E+02 -4.774454E+03
       209  10  1.216392E+05  8.937283E+04  1.083410E+04  9.089892E+04 -5.563914E-11 -2.074387E-10
       209  11  1.172949E+05  8.428830E+04  1.125233E+04  8.721916E+04  3.097323E-10  1.509436E-10
       209  12  1.123993E+05  8.153336E+04  1.332917E+04  8.363089E+04  3.795639E-10  1.600896E-10
       209  13  7.865672E+04  5.909581E+04  2.465450E+03  6.876531E+04  1.424781E-10 -2.486898E-11
       209  14  7.933430E+04  5.863750E+04  3.921840E+03  6.819826E+04  1.016369E-10  3.672922E-11
       209  15  7.943885E+04  6.048722E+04  6.950912E+03  6.772260E+04  1.195065E-10  1.101757E-10
       209  16  3.567756E+04  2.882074E+04 -5.902888E+03  4.663403E+04  2.853117E-10  1.752505E-10
       209  17  4.137591E+04  3.298788E+04 -3.408529E+03  4.917893E+04 -2.876458E-10  8.018161E-11
       209  18  4.647976E+04  3.944166E+04  5.726382E+02  5.181527E+04 -3.870703E-10 -1.572066E-10
       209  19  1.216392E+05  8.937286E+04  1.083415E+04  9.089892E+04 -6.750514E+02  5.308637E+03
       209  20  1.172949E+05  8.428834E+04  1.125241E+04  8.721916E+04  1.389239E+03  6.031207E+03
       209  21  1.123993E+05  8.153341E+04  1.332927E+04  8.363091E+04  3.487811E+03  6.707957E+03
       209  22  7.865673E+04  5.909584E+04  2.465494E+03  6.876531E+04 -1.766725E+03  4.490309E+03
       209  23  7.933431E+04  5.863753E+04  3.921890E+03  6.819826E+04  1.985512E+02  5.138638E+03
       209  24  7.943886E+04  6.048725E+04  6.950983E+03  6.772261E+04  2.198148E+03  5.741175E+03
       209  25  3.567757E+04  2.882076E+04 -5.902848E+03  4.663402E+04 -2.858274E+03  3.672075E+03
       209  26  4.137591E+04  3.298790E+04 -3.408494E+03  4.917893E+04 -9.920262E+02  4.246149E+03
       209  27  4.647976E+04  3.944168E+04  5.726826E+02  5.181527E+04  9.085762E+02  4.774454E+03
       210   1  1.087226E+05  8.081092E+04  1.494978E+04  8.222741E+04 -4.704679E+03 -7.096455E+03
       210   2  1.146932E+05  6.992470E+04  2.196303E+04  7.161997E+04 -1.292403E+04 -1.205044E+04
       210   3  1.275772E+05  7.140131E+04  3.879827E+04  5.681974E+04 -2.140417E+04 -1.665682E+04
       210   4  8.025957E+04  6.124964E+04  9.201947E+03  6.784723E+04 -3.409494E+03 -6.125503E+03
       210   5  8.199392E+04  6.424242E+04  1.683878E+04  6.312623E+04 -1.087789E+04 -1.051685E+04
       210   6  9.047876E+04  7.943521E+04  3.364625E+04  5.421254E+04 -1.860677E+04 -1.456076E+04
       210   7  5.179687E+04  4.168839E+04  3.453871E+03  5.346749E+04 -2.114359E+03 -5.154588E+03
       210   8  4.929610E+04  5.856028E+04  1.171458E+04  5.463274E+04 -8.831899E+03 -8.983260E+03
       210   9  5.338340E+04  8.746974E+04  2.849462E+04  5.160512E+04 -1.580968E+04 -1.246464E+04
       210  10  1.087225E+05  8.081086E+04  1.494964E+04  8.222738E+04  1.641089E-11 -8.006631E-11
       210  11  1.146929E+05  6.992450E+04  2.196244E+04  7.161985E+04  1.654325E-10 -1.395165E-11
       210  12  1.275767E+05  7.140089E+04  3.879689E+04  5.681945E+04  8.147692E-11  3.801972E-11
       210  13  8.025954E+04  6.124960E+04  9.201854E+03  6.784721E+04 -1.243260E-10 -7.621815E-11
       210  14  8.199376E+04  6.424227E+04  1.683835E+04  6.312614E+04 -1.311309E-10 -3.831620E-11
       210  15  9.047833E+04  7.943489E+04  3.364520E+04  5.421233E+04  4.817922E-11  2.383621E-12
       210  16  5.179686E+04  4.168836E+04  3.453813E+03  5.346748E+04  2.053227E-11  4.255595E-11
       210  17  4.929600E+04  5.856018E+04  1.171429E+04  5.463267E+04  1.204496E-10  2.325028E-11
       210  18  5.338309E+04  8.746950E+04  2.849386E+04  5.160496E+04 -7.811737E-11 -2.094405E-11
       210  19  1.087226E+05  8.081092E+04  1.494978E+04  8.222741E+04  4.704679E+03  7.096455E+03
       210  20  1.146932E+05  6.992470E+04  2.196303E+04  7.161997E+04  1.292403E+04  1.205044E+04
       210  21  1.275772E+05  7.140131E+04  3.879827E+04  5.681974E+04  2.140417E+04  1.665682E+04
       210  22  8.025957E+04  6.124964E+04  9.201947E+03  6.784723E+04  3.409494E+03  6.125503E+03
       210  23  8.199392E+04  6.424242E+04  1.683878E+04  6.312623E+04  1.087789E+04  1.051685E+04
       210  24  9.047876E+04  7.943521E+04  3.364625E+04  5.421254E+04  1.860677E+04  1.456076E+04
       210  25  5.179687E+04  4.168839E+04  3.453871E+03  5.346749E+04  2.114359E+03  5.154588E+03
       210  26  4.929610E+04  5.856028E+04  1.171458E+04  5.463274E+04  8.831899E+03  8.983260E+03
       210  27  5.338340E+04  8.746974E+04  2.849462E+04  5.160512E+04  1.580968E+04  1.246464E+04
       211   1  4.473019E+05  9.089929E+04  8.509059E+04  7.903769E+04  2.562603E+04 -4.649074E+03
       211   2  3.789092E+05  7.636274E+04  5.769984E+04  7.610889E+04  8.978903E+03 -1.495475E+04
       211   3  3.125868E+05  6.137361E+04  4.102967E+04  8.448471E+04 -7.663854E+03 -1.649355E+04
       211   4  4.528285E+04 -8.271139E+03 -8.852483E+03  8.457530E+04 -6.120244E+03 -4.646188E+03
       211   5  4.590113E+04 -2.662837E+03 -4.502144E+03  7.892299E+04 -3.819348E+03 -1.495478E+04
       211   6  4.529737E+04 -7.956444E+02 -2.584617E+03  8.457577E+04 -1.515994E+03 -1.649419E+04
       211   7 -3.565850E+05 -1.074524E+05 -1.028027E+05  9.010929E+04 -3.784610E+04 -4.643868E+03
       211   8 -2.869993E+05 -8.169469E+04 -6.670827E+04  8.173554E+04 -1.661091E+04 -1.495493E+04
       211   9 -2.219212E+05 -6.296852E+04 -4.620079E+04  8.466678E+04  4.629312E+03 -1.649482E+04
       211  10  4.473012E+05  9.089909E+04  8.508931E+04  7.903779E+04  2.968249E-10 -2.365966E-11
       211  11  3.789090E+05  7.636248E+04  5.769927E+04  7.610900E+04  2.589250E-11 -1.537329E-10
       211  12  3.125866E+05  6.137330E+04  4.102905E+04  8.448461E+04 -4.111541E-11 -2.883196E-11
       211  13  4.528280E+04 -8.271172E+03 -8.852594E+03  8.457528E+04 -2.787867E-10 -1.799643E-11
       211  14  4.590106E+04 -2.663082E+03 -4.502591E+03  7.892295E+04 -2.296645E-10 -1.215453E-10
       211  15  4.529730E+04 -7.959372E+02 -2.585133E+03  8.457575E+04  3.003605E-11 -7.128641E-11
       211  16 -3.565866E+05 -1.074528E+05 -1.028055E+05  9.010915E+04 -3.458595E-10 -3.853992E-11
       211  17 -2.869996E+05 -8.169501E+04 -6.670921E+04  8.173534E+04  2.601754E-11 -6.494101E-12
       211  18 -2.219213E+05 -6.296882E+04 -4.620134E+04  8.466684E+04  1.741350E-10  4.714833E-12
       211  19  4.473019E+05  9.089929E+04  8.509059E+04  7.903769E+04 -2.562603E+04  4.649074E+03
       211  20  3.789092E+05  7.636274E+04  5.769984E+04  7.610889E+04 -8.978903E+03  1.495475E+04
       211  21  3.125868E+05  6.137361E+04  4.102967E+04  8.448471E+04  7.663854E+03  1.649355E+04
       211  22  4.528285E+04 -8.271139E+03 -8.852483E+03  8.457530E+04  6.120244E+03  4.646188E+03
       211  23  4.590113E+04 -2.662837E+03 -4.502144E+03  7.892299E+04  3.819348E+03  1.495478E+04
       211  24  4.529737E+04 -7.956444E+02 -2.584617E+03  8.457577E+04  1.515994E+03  1.649419E+04
       211  25 -3.565850E+05 -1.074524E+05 -1.028027E+05  9.010929E+04  3.784610E+04  4.643868E+03
       211  26 -2.869993E+05 -8.169469E+04 -6.670827E+04  8.173554E+04  1.661091E+04  1.495493E+04
       211  27 -2.219212E+05 -6.296852E+04 -4.620079E+04  8.466678E+04 -4.629312E+03  1.649482E+04
       212   1  2.702098E+05  5.146871E+04  3.372630E+04  8.435347E+04 -7.449753E+03 -1.448974E+04
       212   2  2.028227E+05  3.599776E+04  2.224687E+04  7.857953E+04 -8.841059E+03 -1.109220E+04
       212   3  1.356295E+05  2.053398E+04  1.167632E+04  8.473852E+04 -1.023244E+04 -6.715698E+03
       212   4  4.553307E+04 -6.146971E+02 -2.056578E+03  8.471522E+04 -1.165834E+03 -1.449008E+04
       212   5  4.562599E+04 -1.760157E+02 -1.448825E+03  7.874864E+04 -4.425295E+02 -1.109211E+04
       212   6  4.554019E+04 -9.734623E+01 -1.400860E+03  8.471521E+04  2.805297E+02 -6.715055E+03
       212   7 -1.790934E+05 -5.270061E+04 -3.784061E+04  8.507683E+04  5.115894E+03 -1.449041E+04
       212   8 -1.115458E+05 -3.635093E+04 -2.514475E+04  7.891770E+04  7.953958E+03 -1.109202E+04
       212   9 -4.454071E+04 -2.072899E+04 -1.447776E+04  8.469190E+04  1.079203E+04 -6.714413E+03
       212  10  2.702097E+05  5.146847E+04  3.372580E+04  8.435338E+04  2.559010E-11  2.443127E-11
       212  11  2.028226E+05  3.599761E+04  2.224649E+04  7.857945E+04 -2.060948E-10  1.120303E-11
       212  12  1.356294E+05  2.053391E+04  1.167604E+04  8.473846E+04  1.556219E-11  8.022940E-12
       212  13  4.553302E+04 -6.149230E+02 -2.056975E+03  8.471521E+04  1.403543E-10  3.014375E-11
       212  14  4.562596E+04 -1.761479E+02 -1.449057E+03  7.874863E+04  2.626043E-10 -3.143143E-11
       212  15  4.554018E+04 -9.739467E+01 -1.400945E+03  8.471521E+04 -2.811528E-10  2.254690E-11
       212  16 -1.790935E+05 -5.270084E+04 -3.784106E+04  8.507689E+04 -1.258441E-11 -3.277599E-11
       212  17 -1.115459E+05 -3.635108E+04 -2.514510E+04  7.891777E+04  9.379193E-11  6.701255E-11
       212  18 -4.454084E+04 -2.072907E+04 -1.447806E+04  8.469196E+04 -6.641642E-11  2.209287E-11
       212  19  2.702098E+05  5.146871E+04  3.372630E+04  8.435347E+04  7.449753E+03  1.448974E+04
       212  20  2.028227E+05  3.599776E+04  2.224687E+04  7.857953E+04  8.841059E+03  1.109220E+04
       212  21  1.356295E+05  2.053398E+04  1.167632E+04  8.473852E+04  1.023244E+04  6.715698E+03
       212  22  4.553307E+04 -6.146971E+02 -2.056578E+03  8.471522E+04  1.165834E+03  1.449008E+04
       212  23  4.562599E+04 -1.760157E+02 -1.448825E+03  7.874864E+04  4.425295E+02  1.109211E+04
       212  24  4.554019E+04 -9.734623E+01 -1.400860E+03  8.471521E+04 -2.805297E+02  6.715055E+03
       212  25 -1.790934E+05 -5.270061E+04 -3.784061E+04  8.507683E+04 -5.115894E+03  1.449041E+04
       212  26 -1.115458E+05 -3.635093E+04 -2.514475E+04  7.891770E+04 -7.953958E+03  1.109202E+04
       212  27 -4.454071E+04 -2.072899E+04 -1.447776E+04  8.469190E+04 -1.079203E+04  6.714413E+03
       213   1  9.345434E+04  1.080612E+04  5.073568E+03  8.464967E+04 -9.986980E+03 -3.816435E+03
       213   2  2.643862E+04 -4.939531E+03 -5.984326E+03  7.905049E+04 -7.593165E+03  7.586645E+02
       213   3 -4.110385E+04 -2.157219E+04 -1.882196E+04  8.541005E+04 -5.199596E+03  4.745425E+03
       213   4  4.551222E+04 -1.052618E+02 -1.545368E+03  8.472089E+04  5.310767E+02 -3.815666E+03
       213   5  4.566657E+04 -3.462909E+02 -2.245214E+03  7.874155E+04  1.653614E+03  7.593003E+02
       213   6  4.551141E+04 -1.253180E+03 -3.841881E+03  8.472093E+04  2.776129E+03  4.745935E+03
       213   7 -2.427328E+03 -1.101669E+04 -8.163914E+03  8.479211E+04  1.104836E+04 -3.814894E+03
       213   8  6.489506E+04  4.246973E+03  1.494202E+03  7.843259E+04  1.090067E+04  7.599268E+02
       213   9  1.321342E+05  1.906546E+04  1.113818E+04  8.403170E+04  1.075293E+04  4.746427E+03
       213  10  9.345423E+04  1.080608E+04  5.073353E+03  8.464964E+04  1.737043E-10 -2.258183E-11
       213  11  2.643856E+04 -4.939547E+03 -5.984435E+03  7.905050E+04 -1.746168E-10 -9.562396E-11
       213  12 -4.110389E+04 -2.157222E+04 -1.882206E+04  8.541007E+04 -2.178149E-10  1.950584E-11
       213  13  4.551222E+04 -1.052775E+02 -1.545396E+03  8.472089E+04  2.650755E-10 -6.445197E-12
       213  14  4.566657E+04 -3.462922E+02 -2.245220E+03  7.874154E+04 -7.520835E-11 -5.684720E-11
       213  15  4.551139E+04 -1.253206E+03 -3.841938E+03  8.472092E+04 -1.328021E-10  1.865163E-11
       213  16 -2.427463E+03 -1.101673E+04 -8.164170E+03  8.479214E+04 -1.346376E-10  2.227741E-12
       213  17  6.489493E+04  4.246941E+03  1.493978E+03  7.843258E+04  2.136343E-10  6.311326E-11
       213  18  1.321340E+05  1.906540E+04  1.113792E+04  8.403166E+04  1.042101E-10  8.398851E-11
       213  19  9.345434E+04  1.080612E+04  5.073568E+03  8.464967E+04  9.986980E+03  3.816435E+03
       213  20  2.643862E+04 -4.939531E+03 -5.984326E+03  7.905049E+04  7.593165E+03 -7.586645E+02
       213  21 -4.110385E+04 -2.157219E+04 -1.882196E+04  8.541005E+04  5.199596E+03 -4.745425E+03
       213  22  4.551222E+04 -1.052618E+02 -1.545368E+03  8.472089E+04 -5.310767E+02  3.815666E+03
       213  23  4.566657E+04 -3.462909E+02 -2.245214E+03  7.874155E+04 -1.653614E+03 -7.593003E+02
       213  24  4.551141E+04 -1.253180E+03 -3.841881E+03  8.472093E+04 -2.776129E+03 -4.745935E+03
       213  25 -2.427328E+03 -1.101669E+04 -8.163914E+03  8.479211E+04 -1.104836E+04  3.814894E+03
       213  26  6.489506E+04  4.246973E+03  1.494202E+03  7.843259E+04 -1.090067E+04 -7.599268E+02
       213  27  1.321342E+05  1.906546E+04  1.113818E+04  8.403170E+04 -1.075293E+04 -4.746427E+03
       214   1 -8.401611E+04 -3.187558E+04 -2.731290E+04  8.476087E+04 -4.447595E+03  7.107002E+03
       214   2 -1.489526E+05 -5.208313E+04 -4.700903E+04  8.461810E+04  1.297882E+04  7.810786E+03
       214   3 -2.186410E+05 -8.226075E+04 -8.054327E+04  9.601510E+04  3.040221E+04  2.618904E+03
       214   4  4.501313E+04 -1.616316E+03 -5.049262E+03  8.462803E+04  3.437392E+03  7.107355E+03
       214   5  4.628105E+04 -5.468164E+03 -9.180314E+03  7.885790E+04  8.132379E+03  7.810322E+03
       214   6  4.500480E+04 -1.707762E+04 -1.830641E+04  8.462792E+04  1.282638E+04  2.618163E+03
       214   7  1.740588E+05  2.864209E+04  1.721404E+04  8.449517E+04  1.132397E+04  7.107706E+03
       214   8  2.415515E+05  4.114467E+04  2.864672E+04  7.309584E+04  3.284452E+03  7.809948E+03
       214   9  3.087155E+05  4.810118E+04  4.392687E+04  7.323588E+04 -4.756884E+03  2.618068E+03
       214  10 -8.401615E+04 -3.187564E+04 -2.731304E+04  8.476089E+04  6.500324E-11 -8.693582E-13
       214  11 -1.489528E+05 -5.208324E+04 -4.700946E+04  8.461802E+04  8.480696E-11 -4.828042E-11
       214  12 -2.186420E+05 -8.226100E+04 -8.054502E+04  9.601503E+04  7.060989E-11 -1.305205E-11
       214  13  4.501310E+04 -1.616373E+03 -5.049379E+03  8.462801E+04 -1.356692E-10  6.207497E-11
       214  14  4.628096E+04 -5.468247E+03 -9.180552E+03  7.885785E+04  6.864634E-11 -8.534785E-11
       214  15  4.500462E+04 -1.707767E+04 -1.830674E+04  8.462790E+04  1.733215E-10  1.868091E-11
       214  16  1.740587E+05  2.864200E+04  1.721371E+04  8.449510E+04 -3.388007E-10  7.304728E-11
       214  17  2.415514E+05  4.114460E+04  2.864658E+04  7.309582E+04 -1.018330E-10  1.184652E-11
       214  18  3.087155E+05  4.810116E+04  4.392681E+04  7.323589E+04 -1.029666E-10  9.218971E-13
       214  19 -8.401611E+04 -3.187558E+04 -2.731290E+04  8.476087E+04  4.447595E+03 -7.107002E+03
       214  20 -1.489526E+05 -5.208313E+04 -4.700903E+04  8.461810E+04 -1.297882E+04 -7.810786E+03
       214  21 -2.186410E+05 -8.226075E+04 -8.054327E+04  9.601510E+04 -3.040221E+04 -2.618904E+03
       214  22  4.501313E+04 -1.616316E+03 -5.049262E+03  8.462803E+04 -3.437392E+03 -7.107355E+03
       214  23  4.628105E+04 -5.468164E+03 -9.180314E+03  7.885790E+04 -8.132379E+03 -7.810322E+03
       214  24  4.500480E+04 -1.707762E+04 -1.830641E+04  8.462792E+04 -1.282638E+04 -2.618163E+03
       214  25  1.740588E+05  2.864209E+04  1.721404E+04  8.449517E+04 -1.132397E+04 -7.107706E+03
       214  26  2.415515E+05  4.114467E+04  2.864672E+04  7.309584E+04 -3.284452E+03 -7.809948E+03
       214  27  3.087155E+05  4.810118E+04  4.392687E+04  7.323588E+04  4.756884E+03 -2.618068E+03
       215   1 -8.488133E+04 -2.885967E+05 -8.507096E+04  1.068819E+05 -1.941439E+03 -3.603812E+04
       215   2 -4.537920E+04 -2.168296E+05 -4.627001E+04  9.070251E+04 -5.405517E+03 -1.688606E+04
       215   3 -2.188564E+04 -1.515607E+05 -2.394503E+04  8.635297E+04 -3.994146E+03  2.267491E+03
       215   4 -3.109053E+04 -7.123668E+04 -3.343126E+04  8.615134E+04 -1.935194E+03 -2.328024E+04
       215   5 -9.917994E+03 -6.889602E+04 -1.687319E+04  8.023076E+04 -5.404218E+03 -1.465371E+04
       215   6 -2.923945E+03 -7.122896E+04 -9.477538E+03  8.614113E+04 -3.997697E+03 -6.028089E+03
       215   7  2.269859E+04  1.461680E+05  1.820598E+04  6.541350E+04 -1.929802E+03 -1.051790E+04
       215   8  2.554229E+04  7.905869E+04  1.252263E+04  6.975645E+04 -5.402994E+03 -1.242083E+04
       215   9  1.603742E+04  9.109198E+03  4.989965E+03  8.592926E+04 -4.001241E+03 -1.432471E+04
       215  10 -8.488169E+04 -2.885981E+05 -8.507340E+04  1.068818E+05 -9.526156E-11 -3.979638E-10
       215  11 -4.537931E+04 -2.168299E+05 -4.627060E+04  9.070244E+04 -1.962800E-10 -1.964422E-11
       215  12 -2.188565E+04 -1.515607E+05 -2.394507E+04  8.635297E+04 -8.101275E-11  4.847355E-10
       215  13 -3.109068E+04 -7.123726E+04 -3.343229E+04  8.615130E+04 -1.532023E-10 -9.502981E-11
       215  14 -9.918083E+03 -6.889626E+04 -1.687365E+04  8.023069E+04  5.358918E-11  4.091403E-11
       215  15 -2.923972E+03 -7.122901E+04 -9.477637E+03  8.614111E+04 -9.082917E-11 -5.453995E-11
       215  16  2.269856E+04  1.461679E+05  1.820577E+04  6.541349E+04  7.054465E-12  4.102179E-10
       215  17  2.554222E+04  7.905852E+04  1.252228E+04  6.975639E+04 -3.976831E-10 -1.061660E-10
       215  18  1.603735E+04  9.108973E+03  4.989550E+03  8.592921E+04  1.515599E-10 -5.088231E-10
       215  19 -8.488133E+04 -2.885967E+05 -8.507096E+04  1.068819E+05  1.941439E+03  3.603812E+04
       215  20 -4.537920E+04 -2.168296E+05 -4.627001E+04  9.070251E+04  5.405517E+03  1.688606E+04
       215  21 -2.188564E+04 -1.515607E+05 -2.394503E+04  8.635297E+04  3.994146E+03 -2.267491E+03
       215  22 -3.109053E+04 -7.123668E+04 -3.343126E+04  8.615134E+04  1.935194E+03  2.328024E+04
       215  23 -9.917994E+03 -6.889602E+04 -1.687319E+04  8.023076E+04  5.404218E+03  1.465371E+04
       215  24 -2.923945E+03 -7.122896E+04 -9.477538E+03  8.614113E+04  3.997697E+03  6.028089E+03
       215  25  2.269859E+04  1.461680E+05  1.820598E+04  6.541350E+04  1.929802E+03  1.051790E+04
       215  26  2.554229E+04  7.905869E+04  1.252263E+04  6.975645E+04  5.402994E+03  1.242083E+04
       215  27  1.603742E+04  9.109198E+03  4.989965E+03  8.592926E+04  4.001241E+03  1.432471E+04
       216   1 -1.113942E+04 -1.075281E+05 -1.450609E+04  8.747522E+04 -1.536193E+03  3.590025E+03
       216   2  6.409358E+03 -3.871849E+04 -1.151741E+02  8.051960E+04  2.257082E+03  5.632552E+03
       216   3  2.248950E+04  2.945470E+04  1.257600E+04  8.569701E+04  5.892488E+03  7.675403E+03
       216   4 -2.276523E+03 -7.034509E+04 -7.372034E+03  8.620890E+04 -1.539857E+03 -4.771276E+03
       216   5 -7.766839E+02 -6.999573E+04 -4.764467E+03  8.014203E+04  2.253650E+03 -2.388107E+03
       216   6 -8.044106E+02 -7.034645E+04 -4.093173E+03  8.620834E+04  5.889285E+03 -4.821407E+00
       216   7  6.586333E+03 -3.316062E+04 -2.377734E+02  8.494250E+04 -1.543487E+03 -1.313307E+04
       216   8 -7.962736E+03 -1.012718E+05 -9.413536E+03  7.976449E+04  2.250228E+03 -1.040838E+04
       216   9 -2.409881E+04 -1.701377E+05 -2.076244E+04  8.671959E+04  5.886069E+03 -7.683852E+03
       216  10 -1.113942E+04 -1.075281E+05 -1.450612E+04  8.747523E+04  1.540743E-10 -4.434841E-10
       216  11  6.409344E+03 -3.871852E+04 -1.152433E+02  8.051959E+04 -8.099336E-12 -1.196755E-10
       216  12  2.248945E+04  2.945463E+04  1.257583E+04  8.569697E+04 -2.016332E-10  1.287565E-10
       216  13 -2.276531E+03 -7.034511E+04 -7.372081E+03  8.620889E+04  1.740639E-10 -5.079295E-11
       216  14 -7.766909E+02 -6.999573E+04 -4.764487E+03  8.014204E+04 -1.347857E-10  8.445615E-11
       216  15 -8.044478E+02 -7.034646E+04 -4.093238E+03  8.620834E+04  5.429353E-11 -3.286123E-11
       216  16  6.586284E+03 -3.316080E+04 -2.381020E+02  8.494248E+04  2.227161E-10  4.190021E-10
       216  17 -7.962771E+03 -1.012720E+05 -9.413749E+03  7.976451E+04  3.046782E-10  4.787679E-11
       216  18 -2.409886E+04 -1.701377E+05 -2.076261E+04  8.671963E+04 -5.140924E-11 -1.452595E-10
       216  19 -1.113942E+04 -1.075281E+05 -1.450609E+04  8.747522E+04  1.536193E+03 -3.590025E+03
       216  20  6.409358E+03 -3.871849E+04 -1.151741E+02  8.051960E+04 -2.257082E+03 -5.632552E+03
       216  21  2.248950E+04  2.945470E+04  1.257600E+04  8.569701E+04 -5.892488E+03 -7.675403E+03
       216  22 -2.276523E+03 -7.034509E+04 -7.372034E+03  8.620890E+04  1.539857E+03  4.771276E+03
       216  23 -7.766839E+02 -6.999573E+04 -4.764467E+03  8.014203E+04 -2.253650E+03  2.388107E+03
       216  24 -8.044106E+02 -7.034645E+04 -4.093173E+03  8.620834E+04 -5.889285E+03  4.821407E+00
       216  25  6.586333E+03 -3.316062E+04 -2.377734E+02  8.494250E+04  1.543487E+03  1.313307E+04
       216  26 -7.962736E+03 -1.012718E+05 -9.413536E+03  7.976449E+04 -2.250228E+03  1.040838E+04
       216  27 -2.409881E+04 -1.701377E+05 -2.076244E+04  8.671959E+04 -5.886069E+03  7.683852E+03
       217   1  3.247050E+04  7.250057E+04  1.995699E+04  8.604473E+04  8.205522E+03  8.241070E+03
       217   2  4.708623E+04  1.406327E+05  3.459744E+04  7.696219E+04  8.618924E+03 -2.139195E+03
       217   3  5.951914E+04  2.095708E+05  5.544808E+04  7.960323E+04  2.839653E+03 -1.251934E+04
       217   4 -9.801451E+02 -7.053064E+04 -4.266613E+03  8.611733E+04  8.202514E+03  6.492525E+02
       217   5 -3.086022E+03 -6.977539E+04 -5.880247E+03  8.025680E+04  8.621378E+03  3.647469E+03
       217   6 -9.697332E+03 -7.054044E+04 -1.057372E+04  8.612036E+04  2.846492E+03  6.646765E+03
       217   7 -3.443184E+04 -2.135416E+05 -2.849066E+04  8.618991E+04  8.199504E+03 -6.940873E+03
       217   8 -5.326084E+04 -2.801408E+05 -4.635984E+04  8.355026E+04  8.623895E+03  9.432217E+03
       217   9 -7.891905E+04 -3.505786E+05 -7.659952E+04  9.263452E+04  2.853736E+03  2.580427E+04
       217  10  3.247041E+04  7.250047E+04  1.995674E+04  8.604467E+04  3.366717E-11  4.581821E-11
       217  11  4.708615E+04  1.406327E+05  3.459729E+04  7.696221E+04 -4.164569E-10  7.759425E-11
       217  12  5.951909E+04  2.095706E+05  5.544777E+04  7.960326E+04  1.837462E-12  3.790780E-11
       217  13 -9.802174E+02 -7.053066E+04 -4.266740E+03  8.611732E+04 -1.276487E-10 -3.426994E-11
       217  14 -3.086105E+03 -6.977543E+04 -5.880411E+03  8.025677E+04 -1.580749E-10  1.644969E-11
       217  15 -9.697352E+03 -7.054048E+04 -1.057382E+04  8.612034E+04  3.692435E-11 -1.454183E-11
       217  16 -3.443193E+04 -2.135416E+05 -2.849088E+04  8.618995E+04 -1.346428E-11 -4.706039E-11
       217  17 -5.326094E+04 -2.801409E+05 -4.636015E+04  8.355019E+04 -1.249791E-10 -5.492037E-11
       217  18 -7.891924E+04 -3.505793E+05 -7.660079E+04  9.263446E+04 -3.506446E-11  2.442616E-12
       217  19  3.247050E+04  7.250057E+04  1.995699E+04  8.604473E+04 -8.205522E+03 -8.241070E+03
       217  20  4.708623E+04  1.406327E+05  3.459744E+04  7.696219E+04 -8.618924E+03  2.139195E+03
       217  21  5.951914E+04  2.095708E+05  5.544808E+04  7.960323E+04 -2.839653E+03  1.251934E+04
       217  22 -9.801451E+02 -7.053064E+04 -4.266613E+03  8.611733E+04 -8.202514E+03 -6.492525E+02
       217  23 -3.086022E+03 -6.977539E+04 -5.880247E+03  8.025680E+04 -8.621378E+03 -3.647469E+03
       217  24 -9.697332E+03 -7.054044E+04 -1.057372E+04  8.612036E+04 -2.846492E+03 -6.646765E+03
       217  25 -3.443184E+04 -2.135416E+05 -2.849066E+04  8.618991E+04 -8.199504E+03  6.940873E+03
       217  26 -5.326084E+04 -2.801408E+05 -4.635984E+04  8.355026E+04 -8.623895E+03 -9.432217E+03
       217  27 -7.891905E+04 -3.505786E+05 -7.659952E+04  9.263452E+04 -2.853736E+03 -2.580427E+04
       218   1  2.678107E+05  2.449260E+05  7.642220E+04  1.856354E+05  3.708062E+04  2.577565E+04
       218   2  2.623767E+05  2.036636E+05  4.449345E+04  1.915559E+05  2.506249E+04  1.188768E+04
       218   3  2.682847E+05  1.802059E+05  2.960608E+04  1.912577E+05  1.149805E+04  6.339203E+01
       218   4  2.080731E+05  1.531688E+05  4.832008E+04  1.332199E+05  2.810242E+04  1.904237E+04
       218   5  1.955484E+05  1.316928E+05  2.419840E+04  1.461206E+05  2.054306E+04  8.498622E+03
       218   6  1.934000E+05  1.270555E+05  1.325072E+04  1.528024E+05  1.143729E+04  1.770367E+01
       218   7  1.483408E+05  6.142437E+04  2.021791E+04  8.081239E+04  1.912531E+04  1.231126E+04
       218   8  1.287249E+05  5.972856E+04  3.902749E+03  1.006917E+05  1.602420E+04  5.110339E+03
       218   9  1.185201E+05  7.390749E+04 -3.105515E+03  1.143516E+05  1.137655E+04 -2.797839E+01
       218  10  2.678090E+05  2.449249E+05  7.641837E+04  1.856346E+05  9.580235E-10  5.115919E-10
       218  11  2.623760E+05  2.036632E+05  4.449201E+04  1.915557E+05  4.611193E-10  4.293080E-10
       218  12  2.682846E+05  1.802058E+05  2.960583E+04  1.912577E+05 -6.745071E-10  1.315219E-09
       218  13  2.080722E+05  1.531682E+05  4.831792E+04  1.332194E+05  3.609356E-10 -1.029009E-10
       218  14  1.955479E+05  1.316926E+05  2.419747E+04  1.461205E+05  7.348788E-10 -1.925082E-10
       218  15  1.933999E+05  1.270555E+05  1.325048E+04  1.528024E+05 -2.812821E-10  4.563225E-10
       218  16  1.483404E+05  6.142411E+04  2.021694E+04  8.081220E+04 -6.129880E-10 -8.527365E-10
       218  17  1.287246E+05  5.972847E+04  3.902217E+03  1.006916E+05 -4.016200E-10 -8.076153E-10
       218  18  1.185200E+05  7.390745E+04 -3.105758E+03  1.143516E+05 -7.810574E-11 -5.126926E-10
       218  19  2.678107E+05  2.449260E+05  7.642220E+04  1.856354E+05 -3.708062E+04 -2.577565E+04
       218  20  2.623767E+05  2.036636E+05  4.449345E+04  1.915559E+05 -2.506249E+04 -1.188768E+04
       218  21  2.682847E+05  1.802059E+05  2.960608E+04  1.912577E+05 -1.149805E+04 -6.339203E+01
       218  22  2.080731E+05  1.531688E+05  4.832008E+04  1.332199E+05 -2.810242E+04 -1.904237E+04
       218  23  1.955484E+05  1.316928E+05  2.419840E+04  1.461206E+05 -2.054306E+04 -8.498622E+03
       218  24  1.934000E+05  1.270555E+05  1.325072E+04  1.528024E+05 -1.143729E+04 -1.770367E+01
       218  25  1.483408E+05  6.142437E+04  2.021791E+04  8.081239E+04 -1.912531E+04 -1.231126E+04
       218  26  1.287249E+05  5.972856E+04  3.902749E+03  1.006917E+05 -1.602420E+04 -5.110339E+03
       218  27  1.185201E+05  7.390749E+04 -3.105515E+03  1.143516E+05 -1.137655E+04  2.797839E+01
       219   1  2.615417E+05  1.776451E+05  2.509037E+04  1.894611E+05  1.003190E+04 -9.343520E+02
       219   2  2.556643E+05  1.697168E+05  1.877069E+04  1.867401E+05  7.117037E+03 -2.943858E+03
       219   3  2.495485E+05  1.647623E+05  1.520804E+04  1.840171E+05  4.014321E+03 -4.702593E+03
       219   4  1.921725E+05  1.260091E+05  1.003090E+04  1.526381E+05  1.000373E+04 -9.556302E+02
       219   5  1.917896E+05  1.235823E+05  5.719643E+03  1.533886E+05  7.630950E+03 -2.558684E+03
       219   6  1.910506E+05  1.240119E+05  3.695377E+03  1.541370E+05  5.070234E+03 -3.911017E+03
       219   7  1.228106E+05  7.437777E+04 -5.028197E+03  1.158209E+05  9.975558E+03 -9.769046E+02
       219   8  1.279205E+05  7.745118E+04 -7.331261E+03  1.200416E+05  8.144786E+03 -2.173569E+03
       219   9  1.325569E+05  8.326361E+04 -7.817354E+03  1.242603E+05  6.126015E+03 -3.119540E+03
       219  10  2.615416E+05  1.776451E+05  2.509018E+04  1.894611E+05  5.766597E-08  4.601734E-08
       219  11  2.556643E+05  1.697168E+05  1.877058E+04  1.867401E+05  4.016274E-09  5.629337E-09
       219  12  2.495485E+05  1.647623E+05  1.520797E+04  1.840171E+05 -5.555930E-08 -4.085492E-08
       219  13  1.921724E+05  1.260091E+05  1.003071E+04  1.526381E+05  1.446651E-09  2.667946E-09
       219  14  1.917895E+05  1.235823E+05  5.719522E+03  1.533886E+05  4.269622E-09  5.572473E-09
       219  15  1.910506E+05  1.240118E+05  3.695300E+03  1.541371E+05  1.407368E-09  2.703275E-09
       219  16  1.228105E+05  7.437775E+04 -5.028386E+03  1.158209E+05 -5.514720E-08 -4.062073E-08
       219  17  1.279204E+05  7.745116E+04 -7.331394E+03  1.200416E+05  4.129183E-09  5.670457E-09
       219  18  1.325568E+05  8.326359E+04 -7.817443E+03  1.242603E+05  5.815555E-08  4.614760E-08
       219  19  2.615417E+05  1.776451E+05  2.509037E+04  1.894611E+05 -1.003190E+04  9.343520E+02
       219  20  2.556643E+05  1.697168E+05  1.877069E+04  1.867401E+05 -7.117037E+03  2.943858E+03
       219  21  2.495485E+05  1.647623E+05  1.520804E+04  1.840171E+05 -4.014321E+03  4.702593E+03
       219  22  1.921725E+05  1.260091E+05  1.003090E+04  1.526381E+05 -1.000373E+04  9.556302E+02
       219  23  1.917896E+05  1.235823E+05  5.719643E+03  1.533886E+05 -7.630950E+03  2.558684E+03
       219  24  1.910506E+05  1.240119E+05  3.695377E+03  1.541370E+05 -5.070234E+03  3.911017E+03
       219  25  1.228106E+05  7.437777E+04 -5.028197E+03  1.158209E+05 -9.975558E+03  9.769046E+02
       219  26  1.279205E+05  7.745118E+04 -7.331261E+03  1.200416E+05 -8.144786E+03  2.173569E+03
       219  27  1.325569E+05  8.326361E+04 -7.817354E+03  1.242603E+05 -6.126015E+03  3.119540E+03
       220   1  2.452828E+05  1.620895E+05  1.384068E+04  1.820145E+05  3.315878E+03 -4.766794E+03
       220   2  2.396064E+05  1.567306E+05  1.223724E+04  1.785404E+05  1.722207E+03 -5.170255E+03
       220   3  2.327191E+05  1.531717E+05  1.169941E+04  1.754865E+05  1.041162E+02 -5.541212E+03
       220   4  1.909506E+05  1.239393E+05  3.184424E+03  1.541072E+05  4.375550E+03 -3.972374E+03
       220   5  1.915718E+05  1.230617E+05  2.881097E+03  1.538858E+05  2.852248E+03 -4.323035E+03
       220   6  1.909670E+05  1.239688E+05  3.582435E+03  1.540847E+05  1.304542E+03 -4.641187E+03
       220   7  1.366207E+05  8.579011E+04 -7.472337E+03  1.262021E+05  5.435123E+03 -3.178029E+03
       220   8  1.435400E+05  8.939427E+04 -6.475099E+03  1.292335E+05  3.982175E+03 -3.475902E+03
       220   9  1.492179E+05  9.476777E+04 -4.534246E+03  1.326850E+05  2.504834E+03 -3.741264E+03
       220  10  2.452828E+05  1.620895E+05  1.384061E+04  1.820146E+05 -8.245012E-10 -7.607633E-10
       220  11  2.396064E+05  1.567306E+05  1.223719E+04  1.785404E+05 -4.057286E-10 -1.172449E-09
       220  12  2.327191E+05  1.531717E+05  1.169935E+04  1.754865E+05 -6.137352E-10 -1.483048E-09
       220  13  1.909506E+05  1.239393E+05  3.184358E+03  1.541072E+05 -4.440402E-10  3.680076E-10
       220  14  1.915718E+05  1.230617E+05  2.881047E+03  1.538858E+05  1.719417E-10 -3.708485E-10
       220  15  1.909670E+05  1.239688E+05  3.582391E+03  1.540847E+05  1.253151E-10 -5.861831E-10
       220  16  1.366207E+05  8.579009E+04 -7.472411E+03  1.262021E+05  9.786301E-11  1.587009E-09
       220  17  1.435399E+05  8.939426E+04 -6.475152E+03  1.292335E+05  1.067031E-09  5.830086E-10
       220  18  1.492179E+05  9.476776E+04 -4.534284E+03  1.326850E+05  1.429945E-09  3.139019E-10
       220  19  2.452828E+05  1.620895E+05  1.384068E+04  1.820145E+05 -3.315878E+03  4.766794E+03
       220  20  2.396064E+05  1.567306E+05  1.223724E+04  1.785404E+05 -1.722207E+03  5.170255E+03
       220  21  2.327191E+05  1.531717E+05  1.169941E+04  1.754865E+05 -1.041162E+02  5.541212E+03
       220  22  1.909506E+05  1.239393E+05  3.184424E+03  1.541072E+05 -4.375550E+03  3.972374E+03
       220  23  1.915718E+05  1.230617E+05  2.881097E+03  1.538858E+05 -2.852248E+03  4.323035E+03
       220  24  1.909670E+05  1.239688E+05  3.582435E+03  1.540847E+05 -1.304542E+03  4.641187E+03
       220  25  1.366207E+05  8.579011E+04 -7.472337E+03  1.262021E+05 -5.435123E+03  3.178029E+03
       220  26  1.435400E+05  8.939427E+04 -6.475099E+03  1.292335E+05 -3.982175E+03  3.475902E+03
       220  27  1.492179E+05  9.476777E+04 -4.534246E+03  1.326850E+05 -2.504834E+03  3.741264E+03
       221   1  2.286666E+05  1.507269E+05  1.164801E+04  1.735741E+05 -6.826127E+02 -5.625285E+03
       221   2  2.242880E+05  1.447535E+05  1.314289E+04  1.690911E+05 -3.963282E+03 -7.199858E+03
       221   3  2.198202E+05  1.420195E+05  1.749788E+04  1.644968E+05 -7.260384E+03 -8.752506E+03
       221   4  1.910943E+05  1.240706E+05  4.329503E+03  1.541314E+05  5.183785E+02 -4.724821E+03
       221   5  1.918503E+05  1.237123E+05  7.017317E+03  1.532448E+05 -2.714743E+03 -6.263732E+03
       221   6  1.925066E+05  1.265832E+05  1.252405E+04  1.522470E+05 -5.964358E+03 -7.780776E+03
       221   7  1.535237E+05  9.741523E+04 -2.989047E+03  1.346900E+05  1.719275E+03 -3.824429E+03
       221   8  1.594134E+05  1.026714E+05  8.915893E+02  1.373993E+05 -1.466276E+03 -5.327653E+03
       221   9  1.651934E+05  1.111469E+05  7.550005E+03  1.399974E+05 -4.668380E+03 -6.809065E+03
       221  10  2.286666E+05  1.507269E+05  1.164795E+04  1.735741E+05 -5.035671E-10 -1.196483E-09
       221  11  2.242880E+05  1.447534E+05  1.314277E+04  1.690910E+05 -6.668911E-11 -8.162876E-10
       221  12  2.198201E+05  1.420194E+05  1.749764E+04  1.644968E+05  9.179904E-11 -6.448241E-10
       221  13  1.910943E+05  1.240706E+05  4.329460E+03  1.541314E+05  2.304038E-10 -4.799195E-10
       221  14  1.918503E+05  1.237122E+05  7.017229E+03  1.532448E+05  4.669390E-10 -3.592609E-10
       221  15  1.925066E+05  1.265832E+05  1.252387E+04  1.522469E+05  3.318946E-10 -3.108909E-10
       221  16  1.535237E+05  9.741522E+04 -2.989080E+03  1.346900E+05  1.215978E-09  2.483188E-10
       221  17  1.594134E+05  1.026714E+05  8.915320E+02  1.373993E+05  7.744336E-10 -3.885688E-11
       221  18  1.651933E+05  1.111468E+05  7.549877E+03  1.399974E+05  4.995130E-10 -7.560820E-11
       221  19  2.286666E+05  1.507269E+05  1.164801E+04  1.735741E+05  6.826127E+02  5.625285E+03
       221  20  2.242880E+05  1.447535E+05  1.314289E+04  1.690911E+05  3.963282E+03  7.199858E+03
       221  21  2.198202E+05  1.420195E+05  1.749788E+04  1.644968E+05  7.260384E+03  8.752506E+03
       221  22  1.910943E+05  1.240706E+05  4.329503E+03  1.541314E+05 -5.183785E+02  4.724821E+03
       221  23  1.918503E+05  1.237123E+05  7.017317E+03  1.532448E+05  2.714743E+03  6.263732E+03
       221  24  1.925066E+05  1.265832E+05  1.252405E+04  1.522470E+05  5.964358E+03  7.780776E+03
       221  25  1.535237E+05  9.741523E+04 -2.989047E+03  1.346900E+05 -1.719275E+03  3.824429E+03
       221  26  1.594134E+05  1.026714E+05  8.915893E+02  1.373993E+05  1.466276E+03  5.327653E+03
       221  27  1.651934E+05  1.111469E+05  7.550005E+03  1.399974E+05  4.668380E+03  6.809065E+03
       222   1  2.156109E+05  1.423939E+05  2.081837E+04  1.632129E+05 -9.250760E+03 -9.707893E+03
       222   2  2.298778E+05  1.259257E+05  3.363032E+04  1.463059E+05 -2.253154E+04 -1.860829E+04
       222   3  2.573976E+05  1.305948E+05  6.329568E+04  1.215341E+05 -3.592608E+04 -2.735614E+04
       222   4  1.939989E+05  1.279518E+05  1.660309E+04  1.524697E+05 -7.952331E+03 -8.734310E+03
       222   5  1.966436E+05  1.338489E+05  3.042139E+04  1.440802E+05 -2.090500E+04 -1.738978E+04
       222   6  2.124694E+05  1.608108E+05  6.080863E+04  1.278257E+05 -3.397113E+04 -2.589368E+04
       222   7  1.723880E+05  1.135102E+05  1.238799E+04  1.417271E+05 -6.653992E+03 -7.760792E+03
       222   8  1.634118E+05  1.417727E+05  2.721272E+04  1.418542E+05 -1.927860E+04 -1.617123E+04
       222   9  1.675459E+05  1.910307E+05  5.832238E+04  1.341161E+05 -3.201639E+04 -2.443101E+04
       222  10  2.156108E+05  1.423938E+05  2.081803E+04  1.632128E+05 -1.310660E-10 -7.101849E-10
       222  11  2.298771E+05  1.259251E+05  3.362872E+04  1.463056E+05 -1.709621E-10 -4.630010E-10
       222  12  2.573960E+05  1.305937E+05  6.329185E+04  1.215334E+05 -1.170145E-10 -1.906430E-10
       222  13  1.939988E+05  1.279517E+05  1.660283E+04  1.524696E+05  2.113281E-10 -2.876156E-10
       222  14  1.966431E+05  1.338484E+05  3.042000E+04  1.440799E+05 -5.233391E-11 -2.556906E-10
       222  15  2.124680E+05  1.608098E+05  6.080521E+04  1.278250E+05 -1.078409E-11 -6.066109E-11
       222  16  1.723880E+05  1.135101E+05  1.238779E+04  1.417271E+05  5.706317E-10  7.350411E-12
       222  17  1.634113E+05  1.417723E+05  2.721153E+04  1.418540E+05  5.193571E-10  9.272635E-12
       222  18  1.675447E+05  1.910298E+05  5.831933E+04  1.341155E+05  3.306283E-10  1.455730E-10
       222  19  2.156109E+05  1.423939E+05  2.081837E+04  1.632129E+05  9.250760E+03  9.707893E+03
       222  20  2.298778E+05  1.259257E+05  3.363032E+04  1.463059E+05  2.253154E+04  1.860829E+04
       222  21  2.573976E+05  1.305948E+05  6.329568E+04  1.215341E+05  3.592608E+04  2.735614E+04
       222  22  1.939989E+05  1.279518E+05  1.660309E+04  1.524697E+05  7.952331E+03  8.734310E+03
       222  23  1.966436E+05  1.338489E+05  3.042139E+04  1.440802E+05  2.090500E+04  1.738978E+04
       222  24  2.124694E+05  1.608108E+05  6.080863E+04  1.278257E+05  3.397113E+04  2.589368E+04
       222  25  1.723880E+05  1.135102E+05  1.238799E+04  1.417271E+05  6.653992E+03  7.760792E+03
       222  26  1.634118E+05  1.417727E+05  2.721272E+04  1.418542E+05  1.927860E+04  1.617123E+04
       222  27  1.675459E+05  1.910307E+05  5.832238E+04  1.341161E+05  3.201639E+04  2.443101E+04
       223   1  5.596520E+05  1.018915E+05  9.842761E+04  8.925156E+04  3.823133E+04 -4.026061E+03
       223   2  4.936840E+05  7.342741E+04  6.214428E+04  7.917484E+04  1.748825E+04 -1.285294E+04
       223   3  4.327891E+05  5.441257E+04  4.172034E+04  7.978541E+04 -3.250795E+03 -1.391881E+04
       223   4  2.047868E+05  1.434792E+04  1.541209E+04  7.965831E+04  1.076278E+04 -4.026856E+03
       223   5  2.037139E+05  4.579321E+03  7.756763E+03  7.431498E+04  6.798113E+03 -1.285400E+04
       223   6  2.048002E+05  1.351153E+03  4.317365E+03  7.965858E+04  2.834854E+03 -1.391877E+04
       223   7 -1.499605E+05 -7.320389E+04 -6.760911E+04  7.007057E+04 -1.669018E+04 -4.026805E+03
       223   8 -8.617476E+04 -6.427349E+04 -4.663396E+04  6.945743E+04 -3.887158E+03 -1.285489E+04
       223   9 -2.313715E+04 -5.171291E+04 -3.308697E+04  7.953179E+04  8.918346E+03 -1.391874E+04
       223  10  5.596504E+05  1.018911E+05  9.842483E+04  8.925168E+04  1.104330E-10  2.255633E-11
       223  11  4.936836E+05  7.342715E+04  6.214340E+04  7.917502E+04 -5.704334E-11  4.097258E-11
       223  12  4.327891E+05  5.441236E+04  4.171995E+04  7.978538E+04  1.164012E-10 -2.529369E-11
       223  13  2.047867E+05  1.434787E+04  1.541185E+04  7.965835E+04  1.248644E-10 -3.800637E-11
       223  14  2.037138E+05  4.579131E+03  7.756366E+03  7.431505E+04 -2.159267E-10  6.431525E-12
       223  15  2.048002E+05  1.350943E+03  4.316986E+03  7.965861E+04  3.437965E-10 -2.334118E-11
       223  16 -1.499608E+05 -7.320398E+04 -6.760966E+04  7.007052E+04  2.143261E-11 -2.559359E-11
       223  17 -8.617482E+04 -6.427367E+04 -4.663430E+04  6.945739E+04  6.962817E-11 -1.111907E-10
       223  18 -2.313728E+04 -5.171314E+04 -3.308749E+04  7.953189E+04  1.622196E-10 -1.642682E-11
       223  19  5.596520E+05  1.018915E+05  9.842761E+04  8.925156E+04 -3.823133E+04  4.026061E+03
       223  20  4.936840E+05  7.342741E+04  6.214428E+04  7.917484E+04 -1.748825E+04  1.285294E+04
       223  21  4.327891E+05  5.441257E+04  4.172034E+04  7.978541E+04  3.250795E+03  1.391881E+04
       223  22  2.047868E+05  1.434792E+04  1.541209E+04  7.965831E+04 -1.076278E+04  4.026856E+03
       223  23  2.037139E+05  4.579321E+03  7.756763E+03  7.431498E+04 -6.798113E+03  1.285400E+04
       223  24  2.048002E+05  1.351153E+03  4.317365E+03  7.965858E+04 -2.834854E+03  1.391877E+04
       223  25 -1.499605E+05 -7.320389E+04 -6.760911E+04  7.007057E+04  1.669018E+04  4.026805E+03
       223  26 -8.617476E+04 -6.427349E+04 -4.663396E+04  6.945743E+04  3.887158E+03  1.285489E+04
       223  27 -2.313715E+04 -5.171291E+04 -3.308697E+04  7.953179E+04 -8.918346E+03  1.391874E+04
       224   1  3.922781E+05  4.464135E+04  3.344756E+04  8.038085E+04 -3.943556E+03 -1.197113E+04
       224   2  3.286129E+05  2.893905E+04  2.094000E+04  7.443565E+04 -6.815717E+03 -8.671788E+03
       224   3  2.655513E+05  1.413439E+04  1.052614E+04  7.973155E+04 -9.687872E+03 -4.517831E+03
       224   4  2.043857E+05  1.051241E+03  3.324659E+03  7.978187E+04  2.263153E+03 -1.197084E+04
       224   5  2.042483E+05  2.961865E+02  2.052021E+03  7.416129E+04  1.237804E+03 -8.671027E+03
       224   6  2.043911E+05  1.187891E+02  1.591449E+03  7.978196E+04  2.122133E+02 -4.516516E+03
       224   7  1.652834E+04 -4.254062E+04 -2.679903E+04  7.918307E+04  8.468051E+03 -1.197055E+04
       224   8  7.989930E+04 -2.834738E+04 -1.683604E+04  7.388699E+04  9.289776E+03 -8.670273E+03
       224   9  1.432349E+05 -1.389693E+04 -7.342939E+03  7.983235E+04  1.011136E+04 -4.515199E+03
       224  10  3.922780E+05  4.464119E+04  3.344726E+04  8.038081E+04 -6.027713E-11 -1.890590E-12
       224  11  3.286129E+05  2.893896E+04  2.093977E+04  7.443560E+04 -6.923856E-11  2.793628E-11
       224  12  2.655512E+05  1.413434E+04  1.052593E+04  7.973152E+04  7.184809E-11 -6.052940E-11
       224  13  2.043856E+05  1.051085E+03  3.324380E+03  7.978189E+04  2.303401E-10 -3.164907E-11
       224  14  2.042483E+05  2.961053E+02  2.051877E+03  7.416130E+04  3.434105E-10  1.375787E-10
       224  15  2.043911E+05  1.187672E+02  1.591410E+03  7.978196E+04  2.055665E-10  6.678492E-11
       224  16  1.652822E+04 -4.254079E+04 -2.679944E+04  7.918315E+04  2.714536E-10  1.314339E-11
       224  17  7.989919E+04 -2.834749E+04 -1.683634E+04  7.388706E+04  3.347070E-10  1.456597E-10
       224  18  1.432348E+05 -1.389698E+04 -7.343169E+03  7.983239E+04  1.271675E-10  2.345834E-10
       224  19  3.922781E+05  4.464135E+04  3.344756E+04  8.038085E+04  3.943556E+03  1.197113E+04
       224  20  3.286129E+05  2.893905E+04  2.094000E+04  7.443565E+04  6.815717E+03  8.671788E+03
       224  21  2.655513E+05  1.413439E+04  1.052614E+04  7.973155E+04  9.687872E+03  4.517831E+03
       224  22  2.043857E+05  1.051241E+03  3.324659E+03  7.978187E+04 -2.263153E+03  1.197084E+04
       224  23  2.042483E+05  2.961865E+02  2.052021E+03  7.416129E+04 -1.237804E+03  8.671027E+03
       224  24  2.043911E+05  1.187891E+02  1.591449E+03  7.978196E+04 -2.122133E+02  4.516516E+03
       224  25  1.652834E+04 -4.254062E+04 -2.679903E+04  7.918307E+04 -8.468051E+03  1.197055E+04
       224  26  7.989930E+04 -2.834738E+04 -1.683604E+04  7.388699E+04 -9.289776E+03  8.670273E+03
       224  27  1.432349E+05 -1.389693E+04 -7.342939E+03  7.983235E+04 -1.011136E+04  4.515199E+03
       225   1  2.258620E+05  4.983010E+03  4.418820E+03  7.983142E+04 -9.959730E+03 -1.788356E+03
       225   2  1.624960E+05 -9.472218E+03 -5.041475E+03  7.391334E+04 -9.567419E+03  2.484864E+03
       225   3  9.915570E+04 -2.364110E+04 -1.468545E+04  7.925082E+04 -9.175090E+03  6.137155E+03
       225   4  2.043860E+05  1.179208E+02  1.563911E+03  7.978512E+04 -5.677784E+01 -1.786967E+03
       225   5  2.042579E+05  2.669150E+02  1.900565E+03  7.415735E+04 -1.006443E+03  2.485961E+03
       225   6  2.043841E+05  9.352769E+02  2.984997E+03  7.978505E+04 -1.956053E+03  6.137983E+03
       225   7  1.829107E+05 -4.747135E+03 -1.290633E+03  7.973882E+04  9.845848E+03 -1.785580E+03
       225   8  2.460216E+05  1.000600E+04  8.842827E+03  7.440137E+04  7.555089E+03  2.487064E+03
       225   9  3.096235E+05  2.551110E+04  2.065529E+04  8.031937E+04  5.264168E+03  6.138823E+03
       225  10  2.258619E+05  4.982980E+03  4.418627E+03  7.983141E+04  1.746816E-10 -1.152475E-10
       225  11  1.624959E+05 -9.472249E+03 -5.041658E+03  7.391335E+04  1.691424E-10 -1.134964E-10
       225  12  9.915560E+04 -2.364116E+04 -1.468567E+04  7.925086E+04 -1.672909E-10 -2.500028E-11
       225  13  2.043860E+05  1.179173E+02  1.563905E+03  7.978512E+04  1.388407E-10  3.300664E-13
       225  14  2.042579E+05  2.669081E+02  1.900552E+03  7.415735E+04  2.271643E-10  7.205397E-11
       225  15  2.043841E+05  9.352354E+02  2.984919E+03  7.978506E+04  2.280385E-10 -8.137478E-11
       225  16  1.829106E+05 -4.747165E+03 -1.290821E+03  7.973883E+04 -1.937026E-10  1.215383E-10
       225  17  2.460215E+05  1.000597E+04  8.842709E+03  7.440136E+04  9.920330E-11 -7.405778E-11
       225  18  3.096235E+05  2.551105E+04  2.065516E+04  8.031934E+04  1.777565E-10 -1.283205E-11
       225  19  2.258620E+05  4.983010E+03  4.418820E+03  7.983142E+04  9.959730E+03  1.788356E+03
       225  20  1.624960E+05 -9.472218E+03 -5.041475E+03  7.391334E+04  9.567419E+03 -2.484864E+03
       225  21  9.915570E+04 -2.364110E+04 -1.468545E+04  7.925082E+04  9.175090E+03 -6.137155E+03
       225  22  2.043860E+05  1.179208E+02  1.563911E+03  7.978512E+04  5.677784E+01  1.786967E+03
       225  23  2.042579E+05  2.669150E+02  1.900565E+03  7.415735E+04  1.006443E+03 -2.485961E+03
       225  24  2.043841E+05  9.352769E+02  2.984997E+03  7.978505E+04  1.956053E+03 -6.137983E+03
       225  25  1.829107E+05 -4.747135E+03 -1.290633E+03  7.973882E+04 -9.845848E+03  1.785580E+03
       225  26  2.460216E+05  1.000600E+04  8.842827E+03  7.440137E+04 -7.555089E+03 -2.487064E+03
       225  27  3.096235E+05  2.551110E+04  2.065529E+04  8.031937E+04 -5.264168E+03 -6.138823E+03
       226   1  5.955111E+04 -3.275818E+04 -2.077360E+04  7.957174E+04 -9.593703E+03  8.299024E+03
       226   2 -3.664738E+03 -4.539340E+04 -3.292950E+04  6.997649E+04 -4.953882E+01  8.577549E+03
       226   3 -6.723606E+04 -5.451918E+04 -5.042035E+04  7.121016E+04  9.492880E+03  2.813015E+03
       226   4  2.047491E+05  1.201649E+03  3.848306E+03  7.969007E+04 -2.468512E+03  8.299690E+03
       226   5  2.037917E+05  4.053397E+03  6.866800E+03  7.427563E+04 -5.977504E+03  8.576810E+03
       226   6  2.047393E+05  1.267956E+04  1.361332E+04  7.968945E+04 -9.487083E+03  2.811933E+03
       226   7  3.499680E+05  3.516039E+04  2.846972E+04  7.980843E+04  4.658292E+03  8.300358E+03
       226   8  4.112896E+05  5.349773E+04  4.666127E+04  7.857624E+04 -1.190740E+04  8.575989E+03
       226   9  4.767836E+05  7.987349E+04  7.764330E+04  8.817247E+04 -2.847531E+04  2.810333E+03
       226  10  5.955099E+04 -3.275828E+04 -2.077390E+04  7.957181E+04  1.248825E-11 -4.875485E-11
       226  11 -3.664758E+03 -4.539347E+04 -3.292964E+04  6.997649E+04  7.524223E-11 -6.945698E-11
       226  12 -6.723616E+04 -5.451921E+04 -5.042053E+04  7.121014E+04 -4.343993E-12 -1.082049E-11
       226  13  2.047491E+05  1.201574E+03  3.848166E+03  7.969009E+04 -1.003064E-10  3.810493E-11
       226  14  2.037916E+05  4.053308E+03  6.866595E+03  7.427567E+04  2.271339E-10 -2.359941E-11
       226  15  2.047392E+05  1.267953E+04  1.361314E+04  7.968947E+04  5.556178E-12 -4.075817E-11
       226  16  3.499679E+05  3.516031E+04  2.846955E+04  7.980839E+04 -2.333837E-10 -3.557254E-11
       226  17  4.112895E+05  5.349762E+04  4.666087E+04  7.857632E+04  3.511099E-11  4.526184E-11
       226  18  4.767827E+05  7.987326E+04  7.764176E+04  8.817254E+04  6.606173E-11  7.628019E-13
       226  19  5.955111E+04 -3.275818E+04 -2.077360E+04  7.957174E+04  9.593703E+03 -8.299024E+03
       226  20 -3.664738E+03 -4.539340E+04 -3.292950E+04  6.997649E+04  4.953882E+01 -8.577549E+03
       226  21 -6.723606E+04 -5.451918E+04 -5.042035E+04  7.121016E+04 -9.492880E+03 -2.813015E+03
       226  22  2.047491E+05  1.201649E+03  3.848306E+03  7.969007E+04  2.468512E+03 -8.299690E+03
       226  23  2.037917E+05  4.053397E+03  6.866800E+03  7.427563E+04  5.977504E+03 -8.576810E+03
       226  24  2.047393E+05  1.267956E+04  1.361332E+04  7.968945E+04  9.487083E+03 -2.811933E+03
       226  25  3.499680E+05  3.516039E+04  2.846972E+04  7.980843E+04 -4.658292E+03 -8.300358E+03
       226  26  4.112896E+05  5.349773E+04  4.666127E+04  7.857624E+04  1.190740E+04 -8.575989E+03
       226  27  4.767836E+05  7.987349E+04  7.764330E+04  8.817247E+04  2.847531E+04 -2.810333E+03
       227   1 -1.275724E+05 -4.437155E+05 -1.289521E+05  1.433981E+05 -2.657864E+03 -5.985217E+04
       227   2 -6.609456E+04 -3.545009E+05 -7.068998E+04  1.173182E+05 -7.594798E+03 -3.008796E+04
       227   3 -3.309574E+04 -2.762813E+05 -3.893521E+04  1.056582E+05 -6.170524E+03 -3.196391E+02
       227   4 -5.712764E+04 -1.589581E+05 -6.144734E+04  1.052441E+05 -2.648427E+03 -4.230983E+04
       227   5 -1.826388E+04 -1.546439E+05 -3.137671E+04  9.802519E+04 -7.592344E+03 -2.627505E+04
       227   6 -5.489524E+03 -1.589429E+05 -1.826996E+04  1.052290E+05 -6.174189E+03 -1.024070E+04
       227   7  1.331690E+04  1.258775E+05  6.053768E+03  6.707253E+04 -2.641151E+03 -2.475948E+04
       227   8  2.956580E+04  4.525224E+04  7.934878E+03  7.872586E+04 -7.590127E+03 -2.246095E+04
       227   9  2.211599E+04 -4.159089E+04  2.395167E+03  1.047996E+05 -6.177839E+03 -2.016358E+04
       227  10 -1.275733E+05 -4.437193E+05 -1.289589E+05  1.433980E+05 -4.087519E-11 -9.550340E-11
       227  11 -6.609487E+04 -3.545019E+05 -7.069179E+04  1.173180E+05  3.971608E-11 -1.078652E-11
       227  12 -3.309578E+04 -2.762813E+05 -3.893529E+04  1.056582E+05  1.029176E-11  2.134614E-10
       227  13 -5.712813E+04 -1.589600E+05 -6.145071E+04  1.052440E+05 -7.899506E-11  5.335399E-11
       227  14 -1.826413E+04 -1.546446E+05 -3.137811E+04  9.802503E+04 -9.369930E-11 -5.189306E-11
       227  15 -5.489593E+03 -1.589431E+05 -1.827023E+04  1.052289E+05  2.118918E-11  7.885567E-11
       227  16  1.331673E+04  1.258769E+05  6.052603E+03  6.707248E+04  1.571637E-10  3.474979E-11
       227  17  2.956560E+04  4.525168E+04  7.933822E+03  7.872572E+04 -9.618234E-11 -3.722636E-11
       227  18  2.211584E+04 -4.159134E+04  2.394331E+03  1.047995E+05  1.656839E-10 -2.268404E-10
       227  19 -1.275724E+05 -4.437155E+05 -1.289521E+05  1.433981E+05  2.657864E+03  5.985217E+04
       227  20 -6.609456E+04 -3.545009E+05 -7.068998E+04  1.173182E+05  7.594798E+03  3.008796E+04
       227  21 -3.309574E+04 -2.762813E+05 -3.893521E+04  1.056582E+05  6.170524E+03  3.196391E+02
       227  22 -5.712764E+04 -1.589581E+05 -6.144734E+04  1.052441E+05  2.648427E+03  4.230983E+04
       227  23 -1.826388E+04 -1.546439E+05 -3.137671E+04  9.802519E+04  7.592344E+03  2.627505E+04
       227  24 -5.489524E+03 -1.589429E+05 -1.826996E+04  1.052290E+05  6.174189E+03  1.024070E+04
       227  25  1.331690E+04  1.258775E+05  6.053768E+03  6.707253E+04  2.641151E+03  2.475948E+04
       227  26  2.956580E+04  4.525224E+04  7.934878E+03  7.872586E+04  7.590127E+03  2.246095E+04
       227  27  2.211599E+04 -4.159089E+04  2.395167E+03  1.047996E+05  6.177839E+03  2.016358E+04
       228   1 -1.956821E+04 -2.219799E+05 -2.636606E+04  1.077414E+05 -3.210726E+03  2.250220E+03
       228   2  2.523551E+03 -1.375188E+05 -8.103526E+03  9.826348E+04  1.377327E+03  7.515374E+03
       228   3  2.113339E+04 -5.461346E+04  5.857552E+03  1.036107E+05  5.869064E+03  1.278126E+04
       228   4 -4.320772E+03 -1.573826E+05 -1.472959E+04  1.053192E+05 -3.214584E+03 -7.757592E+03
       228   5 -1.857218E+03 -1.565838E+05 -1.093786E+04  9.790622E+04  1.373615E+03 -2.284844E+03
       228   6 -2.911323E+03 -1.573835E+05 -1.159164E+04  1.053187E+05  5.865523E+03  3.187982E+03
       228   7  1.092651E+04 -9.278095E+04 -3.092897E+03  1.028967E+05 -3.218363E+03 -1.776642E+04
       228   8 -6.237953E+03 -1.756481E+05 -1.377183E+04  9.754897E+04  1.369914E+03 -1.208477E+04
       228   9 -2.695654E+04 -2.601429E+05 -2.904082E+04  1.070265E+05  5.861929E+03 -6.403763E+03
       228  10 -1.956822E+04 -2.219799E+05 -2.636609E+04  1.077414E+05  5.116217E-11 -3.269321E-10
       228  11  2.523533E+03 -1.375189E+05 -8.103635E+03  9.826347E+04 -8.934215E-11 -4.073238E-11
       228  12  2.113331E+04 -5.461365E+04  5.857181E+03  1.036106E+05 -1.388477E-10  2.739360E-10
       228  13 -4.320800E+03 -1.573826E+05 -1.472972E+04  1.053192E+05  7.565946E-11  2.388744E-11
       228  14 -1.857222E+03 -1.565838E+05 -1.093787E+04  9.790622E+04 -2.631738E-11 -7.406871E-11
       228  15 -2.911363E+03 -1.573835E+05 -1.159172E+04  1.053187E+05  2.428094E-10  9.500068E-11
       228  16  1.092641E+04 -9.278130E+04 -3.093510E+03  1.028966E+05  1.212590E-10  2.428468E-10
       228  17 -6.237994E+03 -1.756483E+05 -1.377211E+04  9.754898E+04  2.245790E-10  7.766180E-11
       228  18 -2.695658E+04 -2.601429E+05 -2.904097E+04  1.070265E+05  1.386462E-10 -3.228129E-10
       228  19 -1.956821E+04 -2.219799E+05 -2.636606E+04  1.077414E+05  3.210726E+03 -2.250220E+03
       228  20  2.523551E+03 -1.375188E+05 -8.103526E+03  9.826348E+04 -1.377327E+03 -7.515374E+03
       228  21  2.113339E+04 -5.461346E+04  5.857552E+03  1.036107E+05 -5.869064E+03 -1.278126E+04
       228  22 -4.320772E+03 -1.573826E+05 -1.472959E+04  1.053192E+05  3.214584E+03  7.757592E+03
       228  23 -1.857218E+03 -1.565838E+05 -1.093786E+04  9.790622E+04 -1.373615E+03  2.284844E+03
       228  24 -2.911323E+03 -1.573835E+05 -1.159164E+04  1.053187E+05 -5.865523E+03 -3.187982E+03
       228  25  1.092651E+04 -9.278095E+04 -3.092897E+03  1.028967E+05  3.218363E+03  1.776642E+04
       228  26 -6.237953E+03 -1.756481E+05 -1.377183E+04  9.754897E+04 -1.369914E+03  1.208477E+04
       228  27 -2.695654E+04 -2.601429E+05 -2.904082E+04  1.070265E+05 -5.861929E+03  6.403763E+03
       229   1  3.280975E+04 -2.707092E+03  1.332933E+04  1.049103E+05  8.740189E+03  1.458731E+04
       229   2  4.507470E+04  8.247957E+04  2.521036E+04  8.560475E+04  9.549932E+03  9.761811E+03
       229   3  4.319784E+04  1.647653E+05  3.669665E+04  8.065497E+04  3.195568E+03  4.936490E+03
       229   4 -3.628445E+03 -1.582741E+05 -1.328305E+04  1.052144E+05  8.736872E+03  5.094314E+03
       229   5 -1.172414E+04 -1.554841E+05 -2.085635E+04  9.804039E+04  9.552412E+03  1.574271E+04
       229   6 -3.665155E+04 -1.582898E+05 -3.957218E+04  1.052238E+05  3.202388E+03  2.639157E+04
       229   7 -4.006788E+04 -3.138172E+05 -3.989590E+04  1.055184E+05  8.733545E+03 -4.396381E+03
       229   8 -6.852576E+04 -3.933929E+05 -6.692549E+04  1.104711E+05  9.555133E+03  2.172137E+04
       229   9 -1.165059E+05 -4.812468E+05 -1.158462E+05  1.297797E+05  3.210909E+03  4.783554E+04
       229  10  3.280961E+04 -2.707341E+03  1.332879E+04  1.049102E+05 -3.229722E-11 -4.682430E-10
       229  11  4.507458E+04  8.247944E+04  2.521000E+04  8.560468E+04 -1.799087E-10 -1.193799E-10
       229  12  4.319782E+04  1.647653E+05  3.669658E+04  8.065495E+04  6.224857E-12  2.966135E-10
       229  13 -3.628533E+03 -1.582742E+05 -1.328324E+04  1.052143E+05 -1.017113E-10 -6.414009E-13
       229  14 -1.172431E+04 -1.554844E+05 -2.085699E+04  9.804026E+04 -9.647282E-11 -1.061147E-10
       229  15 -3.665175E+04 -1.582906E+05 -3.957351E+04  1.052237E+05 -3.214031E-11  8.136505E-11
       229  16 -4.006797E+04 -3.138172E+05 -3.989608E+04  1.055184E+05  1.784388E-10  3.720264E-10
       229  17 -6.852598E+04 -3.933935E+05 -6.692655E+04  1.104710E+05 -3.040661E-10  2.172483E-10
       229  18 -1.165065E+05 -4.812492E+05 -1.158505E+05  1.297796E+05 -1.794596E-10 -2.422585E-10
       229  19  3.280975E+04 -2.707092E+03  1.332933E+04  1.049103E+05 -8.740189E+03 -1.458731E+04
       229  20  4.507470E+04  8.247957E+04  2.521036E+04  8.560475E+04 -9.549932E+03 -9.761811E+03
       229  21  4.319784E+04  1.647653E+05  3.669665E+04  8.065497E+04 -3.195568E+03 -4.936490E+03
       229  22 -3.628445E+03 -1.582741E+05 -1.328305E+04  1.052144E+05 -8.736872E+03 -5.094314E+03
       229  23 -1.172414E+04 -1.554841E+05 -2.085635E+04  9.804039E+04 -9.552412E+03 -1.574271E+04
       229  24 -3.665155E+04 -1.582898E+05 -3.957218E+04  1.052238E+05 -3.202388E+03 -2.639157E+04
       229  25 -4.006788E+04 -3.138172E+05 -3.989590E+04  1.055184E+05 -8.733545E+03  4.396381E+03
       229  26 -6.852576E+04 -3.933929E+05 -6.692549E+04  1.104711E+05 -9.555133E+03 -2.172137E+04
       229  27 -1.165059E+05 -4.812468E+05 -1.158462E+05  1.297797E+05 -3.210909E+03 -4.783554E+04
       230   1  2.534203E+05  2.109604E+05  5.879106E+04  1.777256E+05  3.251471E+04  2.387198E+04
       230   2  2.563481E+05  1.737945E+05  3.133424E+04  1.888582E+05  2.140967E+04  1.417991E+04
       230   3  2.729063E+05  1.534135E+05  1.914420E+04  1.925399E+05  1.001721E+04  4.870673E+03
       230   4  2.678339E+05  1.666928E+05  5.337249E+04  1.597322E+05  3.021518E+04  2.214517E+04
       230   5  2.530039E+05  1.439699E+05  2.672648E+04  1.742729E+05  1.993587E+04  1.307401E+04
       230   6  2.516242E+05  1.378522E+05  1.462987E+04  1.813626E+05  9.369861E+03  4.385285E+03
       230   7  2.822500E+05  1.224292E+05  4.795436E+04  1.417381E+05  2.791550E+04  2.041862E+04
       230   8  2.496602E+05  1.141471E+05  2.211886E+04  1.596879E+05  1.846207E+04  1.196823E+04
       230   9  2.303432E+05  1.222915E+05  1.011570E+04  1.701860E+05  8.722560E+03  3.899931E+03
       230  10  2.534190E+05  2.109595E+05  5.878801E+04  1.777250E+05 -2.277744E-11 -2.379986E-11
       230  11  2.563475E+05  1.737941E+05  3.133300E+04  1.888580E+05 -3.348503E-10 -7.773127E-11
       230  12  2.729062E+05  1.534134E+05  1.914397E+04  1.925399E+05 -4.157023E-10 -2.225494E-10
       230  13  2.678328E+05  1.666921E+05  5.336985E+04  1.597317E+05 -2.163698E-11  1.613431E-11
       230  14  2.530034E+05  1.439696E+05  2.672541E+04  1.742727E+05 -1.910495E-10 -7.096588E-12
       230  15  2.516241E+05  1.378521E+05  1.462967E+04  1.813625E+05 -5.307389E-11  1.673559E-10
       230  16  2.822490E+05  1.224285E+05  4.795212E+04  1.417377E+05  4.626868E-11  4.436387E-11
       230  17  2.496598E+05  1.141468E+05  2.211795E+04  1.596877E+05  4.803832E-10  2.473668E-10
       230  18  2.303431E+05  1.222915E+05  1.011553E+04  1.701859E+05  3.746807E-10  4.875286E-10
       230  19  2.534203E+05  2.109604E+05  5.879106E+04  1.777256E+05 -3.251471E+04 -2.387198E+04
       230  20  2.563481E+05  1.737945E+05  3.133424E+04  1.888582E+05 -2.140967E+04 -1.417991E+04
       230  21  2.729063E+05  1.534135E+05  1.914420E+04  1.925399E+05 -1.001721E+04 -4.870673E+03
       230  22  2.678339E+05  1.666928E+05  5.337249E+04  1.597322E+05 -3.021518E+04 -2.214517E+04
       230  23  2.530039E+05  1.439699E+05  2.672648E+04  1.742729E+05 -1.993587E+04 -1.307401E+04
       230  24  2.516242E+05  1.378522E+05  1.462987E+04  1.813626E+05 -9.369861E+03 -4.385285E+03
       230  25  2.822500E+05  1.224292E+05  4.795436E+04  1.417381E+05 -2.791550E+04 -2.041862E+04
       230  26  2.496602E+05  1.141471E+05  2.211886E+04  1.596879E+05 -1.846207E+04 -1.196823E+04
       230  27  2.303432E+05  1.222915E+05  1.011570E+04  1.701860E+05 -8.722560E+03 -3.899931E+03
       231   1  2.713594E+05  1.546913E+05  1.576476E+04  1.934899E+05  8.601931E+03  3.560685E+03
       231   2  2.730403E+05  1.535387E+05  1.126119E+04  1.954505E+05  6.180867E+03  1.319579E+03
       231   3  2.765020E+05  1.534111E+05  9.368773E+03  1.967799E+05  3.723668E+03 -8.733305E+02
       231   4  2.503052E+05  1.366608E+05  1.107116E+04  1.811715E+05  7.960569E+03  3.079751E+03
       231   5  2.488060E+05  1.350561E+05  6.301381E+03  1.823150E+05  5.643777E+03  9.168422E+02
       231   6  2.490650E+05  1.344538E+05  4.052393E+03  1.828273E+05  3.290838E+03 -1.197892E+03
       231   7  2.292516E+05  1.186308E+05  6.377536E+03  1.688537E+05  7.319234E+03  2.598844E+03
       231   8  2.245721E+05  1.165738E+05  1.341453E+03  1.691801E+05  5.106707E+03  5.141239E+02
       231   9  2.216282E+05  1.154965E+05 -1.264229E+03  1.688752E+05  2.858023E+03 -1.522442E+03
       231  10  2.713593E+05  1.546912E+05  1.576460E+04  1.934898E+05 -4.646642E-10 -1.435679E-10
       231  11  2.730402E+05  1.535387E+05  1.126111E+04  1.954505E+05  1.940775E-10 -3.983135E-10
       231  12  2.765020E+05  1.534110E+05  9.368745E+03  1.967799E+05  1.139452E-09 -1.264268E-09
       231  13  2.503052E+05  1.366608E+05  1.107102E+04  1.811715E+05 -1.097295E-10  2.900605E-10
       231  14  2.488059E+05  1.350561E+05  6.301320E+03  1.823150E+05  7.473072E-11  1.654125E-10
       231  15  2.490650E+05  1.344538E+05  4.052370E+03  1.828273E+05  1.799994E-10 -3.300895E-10
       231  16  2.292516E+05  1.186308E+05  6.377423E+03  1.688537E+05  2.643250E-10  5.300441E-10
       231  17  2.245720E+05  1.165738E+05  1.341403E+03  1.691801E+05 -2.875390E-10  4.296145E-10
       231  18  2.216282E+05  1.154965E+05 -1.264249E+03  1.688752E+05 -8.243298E-10  5.689832E-10
       231  19  2.713594E+05  1.546913E+05  1.576476E+04  1.934899E+05 -8.601931E+03 -3.560685E+03
       231  20  2.730403E+05  1.535387E+05  1.126119E+04  1.954505E+05 -6.180867E+03 -1.319579E+03
       231  21  2.765020E+05  1.534111E+05  9.368773E+03  1.967799E+05 -3.723668E+03  8.733305E+02
       231  22  2.503052E+05  1.366608E+05  1.107116E+04  1.811715E+05 -7.960569E+03 -3.079751E+03
       231  23  2.488060E+05  1.350561E+05  6.301381E+03  1.823150E+05 -5.643777E+03 -9.168422E+02
       231  24  2.490650E+05  1.344538E+05  4.052393E+03  1.828273E+05 -3.290838E+03  1.197892E+03
       231  25  2.292516E+05  1.186308E+05  6.377536E+03  1.688537E+05 -7.319234E+03 -2.598844E+03
       231  26  2.245721E+05  1.165738E+05  1.341453E+03  1.691801E+05 -5.106707E+03 -5.141239E+02
       231  27  2.216282E+05  1.154965E+05 -1.264229E+03  1.688752E+05 -2.858023E+03  1.522442E+03
       232   1  2.775374E+05  1.544817E+05  9.059664E+03  1.974990E+05  3.290458E+03 -1.378248E+03
       232   2  2.793434E+05  1.560701E+05  9.110291E+03  1.986718E+05  2.151646E+03 -2.528123E+03
       232   3  2.819690E+05  1.574617E+05  1.028553E+04  1.996751E+05  9.972328E+02 -3.657138E+03
       232   4  2.489570E+05  1.343685E+05  3.478136E+03  1.827921E+05  2.858448E+03 -1.702200E+03
       232   5  2.485595E+05  1.344847E+05  3.113597E+03  1.828671E+05  1.764751E+03 -2.818251E+03
       232   6  2.489717E+05  1.343945E+05  3.834617E+03  1.827727E+05  6.554464E+02 -3.913450E+03
       232   7  2.203783E+05  1.142562E+05 -2.103175E+03  1.680863E+05  2.426473E+03 -2.026124E+03
       232   8  2.177770E+05  1.129002E+05 -2.882989E+03  1.670635E+05  1.377887E+03 -3.108357E+03
       232   9  2.159757E+05  1.113280E+05 -2.616319E+03  1.658713E+05  3.136844E+02 -4.169744E+03
       232  10  2.775374E+05  1.544817E+05  9.059641E+03  1.974990E+05 -2.317250E-08 -1.974992E-08
       232  11  2.793434E+05  1.560701E+05  9.110271E+03  1.986718E+05 -7.636874E-09 -6.588510E-09
       232  12  2.819690E+05  1.574617E+05  1.028551E+04  1.996751E+05  1.732794E-08  1.384750E-08
       232  13  2.489570E+05  1.343685E+05  3.478115E+03  1.827921E+05 -2.368771E-09 -2.947123E-09
       232  14  2.485595E+05  1.344847E+05  3.113576E+03  1.828671E+05 -7.224725E-09 -6.366111E-09
       232  15  2.489717E+05  1.343945E+05  3.834587E+03  1.827727E+05 -2.756092E-09 -2.613505E-09
       232  16  2.203783E+05  1.142562E+05 -2.103194E+03  1.680863E+05  1.759105E-08  1.392745E-08
       232  17  2.177770E+05  1.129002E+05 -2.883011E+03  1.670635E+05 -7.404109E-09 -6.380165E-09
       232  18  2.159757E+05  1.113280E+05 -2.616352E+03  1.658713E+05 -2.309293E-08 -1.922000E-08
       232  19  2.775374E+05  1.544817E+05  9.059664E+03  1.974990E+05 -3.290458E+03  1.378248E+03
       232  20  2.793434E+05  1.560701E+05  9.110291E+03  1.986718E+05 -2.151646E+03  2.528123E+03
       232  21  2.819690E+05  1.574617E+05  1.028553E+04  1.996751E+05 -9.972328E+02  3.657138E+03
       232  22  2.489570E+05  1.343685E+05  3.478136E+03  1.827921E+05 -2.858448E+03  1.702200E+03
       232  23  2.485595E+05  1.344847E+05  3.113597E+03  1.828671E+05 -1.764751E+03  2.818251E+03
       232  24  2.489717E+05  1.343945E+05  3.834617E+03  1.827727E+05 -6.554464E+02  3.913450E+03
       232  25  2.203783E+05  1.142562E+05 -2.103175E+03  1.680863E+05 -2.426473E+03  2.026124E+03
       232  26  2.177770E+05  1.129002E+05 -2.882989E+03  1.670635E+05 -1.377887E+03  3.108357E+03
       232  27  2.159757E+05  1.113280E+05 -2.616319E+03  1.658713E+05 -3.136844E+02  4.169744E+03
       233   1  2.832246E+05  1.587687E+05  1.137244E+04  2.004893E+05  4.866996E+02 -4.190373E+03
       233   2  2.864000E+05  1.597027E+05  1.479412E+04  2.005739E+05 -2.702896E+03 -6.729003E+03
       233   3  2.916291E+05  1.620246E+05  2.144971E+04  1.999276E+05 -5.987458E+03 -9.141191E+03
       233   4  2.491046E+05  1.345035E+05  4.620038E+03  1.828222E+05  1.468411E+02 -4.445244E+03
       233   5  2.488565E+05  1.351724E+05  7.462994E+03  1.821871E+05 -2.769162E+03 -6.778744E+03
       233   6  2.506029E+05  1.371700E+05  1.330270E+04  1.808212E+05 -5.780037E+03 -8.985744E+03
       233   7  2.149851E+05  1.102385E+05 -2.132675E+03  1.651558E+05 -1.930002E+02 -4.700101E+03
       233   8  2.113147E+05  1.106430E+05  1.318295E+02  1.638017E+05 -2.835424E+03 -6.828482E+03
       233   9  2.095797E+05  1.123168E+05  5.155933E+03  1.617166E+05 -5.572639E+03 -8.830312E+03
       233  10  2.832246E+05  1.587687E+05  1.137241E+04  2.004893E+05 -3.032462E-10  1.081097E-09
       233  11  2.864000E+05  1.597026E+05  1.479402E+04  2.005739E+05 -1.120939E-10  6.641824E-10
       233  12  2.916290E+05  1.620245E+05  2.144949E+04  1.999276E+05  6.680533E-11  5.006039E-10
       233  13  2.491046E+05  1.345035E+05  4.620000E+03  1.828222E+05  2.228003E-11 -1.541754E-11
       233  14  2.488565E+05  1.351724E+05  7.462894E+03  1.821871E+05 -1.278097E-11  1.848997E-10
       233  15  2.506029E+05  1.371699E+05  1.330248E+04  1.808212E+05 -1.276850E-10  1.089832E-10
       233  16  2.149851E+05  1.102385E+05 -2.132716E+03  1.651558E+05  4.766170E-10 -1.202812E-09
       233  17  2.113146E+05  1.106429E+05  1.317268E+02  1.638016E+05 -6.129448E-11 -2.993340E-10
       233  18  2.095797E+05  1.123167E+05  5.155728E+03  1.617166E+05 -3.066570E-10 -1.283602E-10
       233  19  2.832246E+05  1.587687E+05  1.137244E+04  2.004893E+05 -4.866996E+02  4.190373E+03
       233  20  2.864000E+05  1.597027E+05  1.479412E+04  2.005739E+05  2.702896E+03  6.729003E+03
       233  21  2.916291E+05  1.620246E+05  2.144971E+04  1.999276E+05  5.987458E+03  9.141191E+03
       233  22  2.491046E+05  1.345035E+05  4.620038E+03  1.828222E+05 -1.468411E+02  4.445244E+03
       233  23  2.488565E+05  1.351724E+05  7.462994E+03  1.821871E+05  2.769162E+03  6.778744E+03
       233  24  2.506029E+05  1.371700E+05  1.330270E+04  1.808212E+05  5.780037E+03  8.985744E+03
       233  25  2.149851E+05  1.102385E+05 -2.132675E+03  1.651558E+05  1.930002E+02  4.700101E+03
       233  26  2.113147E+05  1.106430E+05  1.318295E+02  1.638017E+05  2.835424E+03  6.828482E+03
       233  27  2.095797E+05  1.123168E+05  5.155933E+03  1.617166E+05  5.572639E+03  8.830312E+03
       234   1  2.927588E+05  1.663907E+05  2.630224E+04  2.014183E+05 -7.856217E+03 -1.051229E+04
       234   2  3.157175E+05  1.561898E+05  4.275549E+04  1.881406E+05 -2.377687E+04 -2.147830E+04
       234   3  3.551799E+05  1.668100E+05  7.874169E+04  1.659228E+05 -4.047584E+04 -3.140691E+04
       234   4  2.521707E+05  1.386400E+05  1.763117E+04  1.810626E+05 -7.632502E+03 -1.034459E+04
       234   5  2.539662E+05  1.459114E+05  3.229724E+04  1.724515E+05 -2.131116E+04 -1.963066E+04
       234   6  2.717790E+05  1.735184E+05  6.455216E+04  1.549004E+05 -3.576740E+04 -2.788024E+04
       234   7  2.115845E+05  1.108903E+05  8.960007E+03  1.607085E+05 -7.408807E+03 -1.017690E+04
       234   8  1.922193E+05  1.356334E+05  2.183894E+04  1.567631E+05 -1.884576E+04 -1.778300E+04
       234   9  1.883867E+05  1.802293E+05  5.036302E+04  1.438771E+05 -3.105978E+04 -2.435322E+04
       234  10  2.927587E+05  1.663905E+05  2.630192E+04  2.014183E+05  6.692433E-11  3.526114E-10
       234  11  3.157167E+05  1.561891E+05  4.275356E+04  1.881401E+05  1.731912E-10  2.242104E-10
       234  12  3.551779E+05  1.668085E+05  7.873676E+04  1.659218E+05  2.041016E-10  1.383120E-10
       234  13  2.521706E+05  1.386399E+05  1.763086E+04  1.810626E+05 -7.825959E-11  8.820611E-11
       234  14  2.539656E+05  1.459109E+05  3.229567E+04  1.724512E+05 -4.159925E-11 -4.815016E-11
       234  15  2.717774E+05  1.735172E+05  6.454830E+04  1.548996E+05  1.063701E-11  1.451755E-11
       234  16  2.115845E+05  1.108902E+05  8.959709E+03  1.607084E+05 -2.503210E-10 -1.892106E-10
       234  17  1.922188E+05  1.356330E+05  2.183768E+04  1.567629E+05 -1.608255E-11 -1.378573E-10
       234  18  1.883855E+05  1.802284E+05  5.036009E+04  1.438765E+05 -2.530965E-11 -1.314724E-10
       234  19  2.927588E+05  1.663907E+05  2.630224E+04  2.014183E+05  7.856217E+03  1.051229E+04
       234  20  3.157175E+05  1.561898E+05  4.275549E+04  1.881406E+05  2.377687E+04  2.147830E+04
       234  21  3.551799E+05  1.668100E+05  7.874169E+04  1.659228E+05  4.047584E+04  3.140691E+04
       234  22  2.521707E+05  1.386400E+05  1.763117E+04  1.810626E+05  7.632502E+03  1.034459E+04
       234  23  2.539662E+05  1.459114E+05  3.229724E+04  1.724515E+05  2.131116E+04  1.963066E+04
       234  24  2.717790E+05  1.735184E+05  6.455216E+04  1.549004E+05  3.576740E+04  2.788024E+04
       234  25  2.115845E+05  1.108903E+05  8.960007E+03  1.607085E+05  7.408807E+03  1.017690E+04
       234  26  1.922193E+05  1.356334E+05  2.183894E+04  1.567631E+05  1.884576E+04  1.778300E+04
       234  27  1.883867E+05  1.802293E+05  5.036302E+04  1.438771E+05  3.105978E+04  2.435322E+04
       235   1  5.141723E+05  8.717470E+04  8.521205E+04  7.734880E+04  3.572152E+04 -3.046960E+03
       235   2  4.606018E+05  5.871928E+04  5.225175E+04  6.646176E+04  1.729547E+04 -9.670004E+03
       235   3  4.122650E+05  4.158794E+04  3.411228E+04  6.418379E+04 -1.128498E+03 -1.032133E+04
       235   4  2.417698E+05  1.996090E+04  2.142785E+04  6.400548E+04  1.495293E+04 -3.048526E+03
       235   5  2.402776E+05  6.379910E+03  1.079326E+04  5.970151E+04  9.435944E+03 -9.670967E+03
       235   6  2.417794E+05  1.885546E+03  6.021420E+03  6.400630E+04  3.919509E+03 -1.032110E+04
       235   7 -3.056301E+04 -4.725727E+04 -4.235968E+04  5.066804E+04 -5.806616E+03 -3.049200E+03
       235   8  2.000053E+04 -4.596207E+04 -3.066711E+04  5.294372E+04  1.579132E+03 -9.671759E+03
       235   9  7.132261E+04 -3.781833E+04 -2.207020E+04  6.382886E+04  8.966178E+03 -1.032088E+04
       235  10  5.141709E+05  8.717435E+04  8.520963E+04  7.734889E+04 -9.905588E-11  7.068776E-12
       235  11  4.606014E+05  5.871910E+04  5.225102E+04  6.646189E+04 -3.085598E-10 -3.411052E-12
       235  12  4.122649E+05  4.158782E+04  3.411208E+04  6.418378E+04  2.920393E-10 -2.204088E-11
       235  13  2.417696E+05  1.996083E+04  2.142742E+04  6.400551E+04 -4.206364E-12  1.151485E-11
       235  14  2.402775E+05  6.379786E+03  1.079291E+04  5.970159E+04 -1.144713E-10  1.319202E-11
       235  15  2.417793E+05  1.885427E+03  6.021191E+03  6.400633E+04  1.140518E-11 -1.100791E-10
       235  16 -3.056305E+04 -4.725728E+04 -4.235976E+04  5.066802E+04 -9.561004E-13  1.494452E-11
       235  17  2.000050E+04 -4.596217E+04 -3.066729E+04  5.294374E+04  1.585560E-10  1.457379E-11
       235  18  7.132249E+04 -3.781846E+04 -2.207055E+04  6.382894E+04 -1.034352E-11 -9.074277E-11
       235  19  5.141723E+05  8.717470E+04  8.521205E+04  7.734880E+04 -3.572152E+04  3.046960E+03
       235  20  4.606018E+05  5.871928E+04  5.225175E+04  6.646176E+04 -1.729547E+04  9.670004E+03
       235  21  4.122650E+05  4.158794E+04  3.411228E+04  6.418379E+04  1.128498E+03  1.032133E+04
       235  22  2.417698E+05  1.996090E+04  2.142785E+04  6.400548E+04 -1.495293E+04  3.048526E+03
       235  23  2.402776E+05  6.379910E+03  1.079326E+04  5.970151E+04 -9.435944E+03  9.670967E+03
       235  24  2.417794E+05  1.885546E+03  6.021420E+03  6.400630E+04 -3.919509E+03  1.032110E+04
       235  25 -3.056301E+04 -4.725727E+04 -4.235968E+04  5.066804E+04  5.806616E+03  3.049200E+03
       235  26  2.000053E+04 -4.596207E+04 -3.066711E+04  5.294372E+04 -1.579132E+03  9.671759E+03
       235  27  7.132261E+04 -3.781833E+04 -2.207020E+04  6.382886E+04 -8.966178E+03  1.032088E+04
       236   1  3.794961E+05  3.357245E+04  2.694225E+04  6.493355E+04 -2.020110E+03 -8.723994E+03
       236   2  3.282750E+05  2.052854E+04  1.624785E+04  5.996516E+04 -4.876921E+03 -6.019682E+03
       236   3  2.776919E+05  8.536494E+03  7.675573E+03  6.402919E+04 -7.733652E+03 -2.664582E+03
       236   4  2.412028E+05  1.464940E+03  4.649224E+03  6.410053E+04  3.120928E+03 -8.723609E+03
       236   5  2.410087E+05  4.119075E+02  2.902796E+03  5.958437E+04  1.670503E+03 -6.018984E+03
       236   6  2.412060E+05  1.668912E+02  2.302350E+03  6.410066E+04  2.199375E+02 -2.663527E+03
       236   7  1.029285E+05 -3.064352E+04 -1.764422E+04  6.326771E+04  8.260862E+03 -8.723238E+03
       236   8  1.537500E+05 -1.970506E+04 -1.044226E+04  5.920363E+04  8.217043E+03 -6.018294E+03
       236   9  2.047216E+05 -8.202740E+03 -3.070659E+03  6.417213E+04  8.173079E+03 -2.662470E+03
       236  10  3.794961E+05  3.357237E+04  2.694210E+04  6.493353E+04 -3.871685E-11 -1.578951E-10
       236  11  3.282750E+05  2.052849E+04  1.624774E+04  5.996514E+04  6.345769E-11 -1.166907E-10
       236  12  2.776919E+05  8.536471E+03  7.675447E+03  6.402917E+04 -2.115042E-11 -9.567531E-11
       236  13  2.412028E+05  1.464855E+03  4.649063E+03  6.410056E+04 -5.185396E-11 -2.252465E-10
       236  14  2.410087E+05  4.118679E+02  2.902723E+03  5.958438E+04  3.191354E-10 -1.674874E-10
       236  15  2.412060E+05  1.668836E+02  2.302337E+03  6.410066E+04  1.979141E-10 -2.198224E-11
       236  16  1.029284E+05 -3.064362E+04 -1.764449E+04  6.326777E+04 -6.447333E-11 -2.522860E-10
       236  17  1.537499E+05 -1.970512E+04 -1.044246E+04  5.920367E+04  2.759163E-10 -2.201978E-10
       236  18  2.047215E+05 -8.202766E+03 -3.070797E+03  6.417215E+04  1.268673E-10 -4.028817E-11
       236  19  3.794961E+05  3.357245E+04  2.694225E+04  6.493355E+04  2.020110E+03  8.723994E+03
       236  20  3.282750E+05  2.052854E+04  1.624785E+04  5.996516E+04  4.876921E+03  6.019682E+03
       236  21  2.776919E+05  8.536494E+03  7.675573E+03  6.402919E+04  7.733652E+03  2.664582E+03
       236  22  2.412028E+05  1.464940E+03  4.649224E+03  6.410053E+04 -3.120928E+03  8.723609E+03
       236  23  2.410087E+05  4.119075E+02  2.902796E+03  5.958437E+04 -1.670503E+03  6.018984E+03
       236  24  2.412060E+05  1.668912E+02  2.302350E+03  6.410066E+04 -2.199375E+02  2.663527E+03
       236  25  1.029285E+05 -3.064352E+04 -1.764422E+04  6.326771E+04 -8.260862E+03  8.723238E+03
       236  26  1.537500E+05 -1.970506E+04 -1.044226E+04  5.920363E+04 -8.217043E+03  6.018294E+03
       236  27  2.047216E+05 -8.202740E+03 -3.070659E+03  6.417213E+04 -8.173079E+03  2.662470E+03
       237   1  2.458107E+05  1.185534E+03  2.783043E+03  6.417373E+04 -8.126615E+03 -4.719407E+02
       237   2  1.948220E+05 -1.031354E+04 -4.549058E+03  5.921202E+04 -8.398300E+03  2.942600E+03
       237   3  1.440197E+05 -2.122301E+04 -1.155679E+04  6.329019E+04 -8.669891E+03  5.822567E+03
       237   4  2.412045E+05  1.667095E+02  2.293818E+03  6.410229E+04 -1.716245E+02 -4.708546E+02
       237   5  2.410119E+05  4.032677E+02  2.855911E+03  5.958234E+04 -1.598701E+03  2.943432E+03
       237   6  2.412027E+05  1.429782E+03  4.544060E+03  6.410217E+04 -3.025686E+03  5.823167E+03
       237   7  2.365984E+05 -8.520820E+02  1.804832E+03  6.403085E+04  7.783310E+03 -4.697704E+02
       237   8  2.872040E+05  1.111999E+04  1.026100E+04  5.995269E+04  5.201386E+03  2.944273E+03
       237   9  3.383950E+05  2.408211E+04  2.064475E+04  6.491428E+04  2.619372E+03  5.823783E+03
       237  10  2.458106E+05  1.185516E+03  2.782919E+03  6.417373E+04  1.791356E-10 -3.967616E-11
       237  11  1.948219E+05 -1.031357E+04 -4.549207E+03  5.921204E+04  2.845213E-10  8.509071E-11
       237  12  1.440196E+05 -2.122307E+04 -1.155700E+04  6.329023E+04  2.724229E-10  3.926321E-11
       237  13  2.412045E+05  1.667092E+02  2.293818E+03  6.410229E+04  6.100705E-11  3.138053E-11
       237  14  2.410119E+05  4.032577E+02  2.855890E+03  5.958234E+04  5.103535E-11  2.899343E-11
       237  15  2.412026E+05  1.429743E+03  4.543979E+03  6.410218E+04 -8.772562E-11 -2.236197E-12
       237  16  2.365984E+05 -8.520985E+02  1.804718E+03  6.403086E+04 -5.215520E-12  1.602259E-10
       237  17  2.872039E+05  1.111997E+04  1.026093E+04  5.995267E+04 -2.164788E-11  1.059123E-10
       237  18  3.383950E+05  2.408207E+04  2.064467E+04  6.491426E+04 -2.704371E-10 -1.216012E-11
       237  19  2.458107E+05  1.185534E+03  2.783043E+03  6.417373E+04  8.126615E+03  4.719407E+02
       237  20  1.948220E+05 -1.031354E+04 -4.549058E+03  5.921202E+04  8.398300E+03 -2.942600E+03
       237  21  1.440197E+05 -2.122301E+04 -1.155679E+04  6.329019E+04  8.669891E+03 -5.822567E+03
       237  22  2.412045E+05  1.667095E+02  2.293818E+03  6.410229E+04  1.716245E+02  4.708546E+02
       237  23  2.410119E+05  4.032677E+02  2.855911E+03  5.958234E+04  1.598701E+03 -2.943432E+03
       237  24  2.412027E+05  1.429782E+03  4.544060E+03  6.410217E+04  3.025686E+03 -5.823167E+03
       237  25  2.365984E+05 -8.520820E+02  1.804832E+03  6.403085E+04 -7.783310E+03  4.697704E+02
       237  26  2.872040E+05  1.111999E+04  1.026100E+04  5.995269E+04 -5.201386E+03 -2.944273E+03
       237  27  3.383950E+05  2.408211E+04  2.064475E+04  6.491428E+04 -2.619372E+03 -5.823783E+03
       238   1  1.124524E+05 -2.836422E+04 -1.585951E+04  6.384708E+04 -9.370413E+03  7.526441E+03
       238   2  6.102012E+04 -3.647394E+04 -2.368524E+04  5.309789E+04 -3.690923E+03  7.544655E+03
       238   3  1.058631E+04 -3.765249E+04 -3.347497E+04  5.102558E+04  1.987867E+03  2.445296E+03
       238   4  2.417639E+05  1.840191E+03  5.876204E+03  6.402138E+04 -3.806022E+03  7.526929E+03
       238   5  2.403025E+05  6.218261E+03  1.051785E+04  5.968265E+04 -9.181837E+03  7.543970E+03
       238   6  2.417558E+05  1.944535E+04  2.087095E+04  6.402028E+04 -1.455810E+04  2.444237E+03
       238   7  3.710919E+05  3.204375E+04  2.761151E+04  6.419571E+04  1.759490E+03  7.527419E+03
       238   8  4.196160E+05  4.890875E+04  4.471962E+04  6.626935E+04 -1.467430E+04  7.543168E+03
       238   9  4.729754E+05  7.654017E+04  7.521431E+04  7.701985E+04 -3.111019E+04  2.442486E+03
       238  10  1.124523E+05 -2.836431E+04 -1.585978E+04  6.384713E+04  1.358205E-10  2.977957E-11
       238  11  6.102009E+04 -3.647400E+04 -2.368538E+04  5.309792E+04 -5.555366E-11 -4.459195E-11
       238  12  1.058631E+04 -3.765250E+04 -3.347498E+04  5.102558E+04 -8.106055E-11 -1.780012E-11
       238  13  2.417639E+05  1.840126E+03  5.876071E+03  6.402140E+04  7.090454E-11  2.350560E-11
       238  14  2.403024E+05  6.218178E+03  1.051758E+04  5.968271E+04  1.261345E-10  4.380798E-11
       238  15  2.417556E+05  1.944529E+04  2.087054E+04  6.402031E+04 -9.131404E-11 -1.267597E-11
       238  16  3.710919E+05  3.204368E+04  2.761139E+04  6.419570E+04  1.198581E-10 -2.120856E-11
       238  17  4.196158E+05  4.890863E+04  4.471910E+04  6.626944E+04 -4.356165E-11 -2.527182E-11
       238  18  4.729743E+05  7.653990E+04  7.521248E+04  7.701991E+04 -3.551552E-11 -1.973421E-11
       238  19  1.124524E+05 -2.836422E+04 -1.585951E+04  6.384708E+04  9.370413E+03 -7.526441E+03
       238  20  6.102012E+04 -3.647394E+04 -2.368524E+04  5.309789E+04  3.690923E+03 -7.544655E+03
       238  21  1.058631E+04 -3.765249E+04 -3.347497E+04  5.102558E+04 -1.987867E+03 -2.445296E+03
       238  22  2.417639E+05  1.840191E+03  5.876204E+03  6.402138E+04  3.806022E+03 -7.526929E+03
       238  23  2.403025E+05  6.218261E+03  1.051785E+04  5.968265E+04  9.181837E+03 -7.543970E+03
       238  24  2.417558E+05  1.944535E+04  2.087095E+04  6.402028E+04  1.455810E+04 -2.444237E+03
       238  25  3.710919E+05  3.204375E+04  2.761151E+04  6.419571E+04 -1.759490E+03 -7.527419E+03
       238  26  4.196160E+05  4.890875E+04  4.471962E+04  6.626935E+04  1.467430E+04 -7.543168E+03
       238  27  4.729754E+05  7.654017E+04  7.521431E+04  7.701985E+04  3.111019E+04 -2.442486E+03
       239   1 -1.260185E+05 -4.399030E+05 -1.287318E+05  1.324527E+05 -2.196244E+03 -6.438715E+04
       239   2 -6.121602E+04 -3.644851E+05 -6.995922E+04  1.040884E+05 -6.271435E+03 -3.389204E+04
       239   3 -2.937007E+04 -3.012772E+05 -3.928871E+04  8.766240E+04 -5.087390E+03 -3.393026E+03
       239   4 -6.777764E+04 -2.044790E+05 -7.291807E+04  8.713215E+04 -2.188136E+03 -4.989810E+04
       239   5 -2.169389E+04 -1.993523E+05 -3.746918E+04  8.115525E+04 -6.269263E+03 -3.075470E+04
       239   6 -6.590867E+03 -2.044651E+05 -2.223101E+04  8.711954E+04 -5.089598E+03 -1.161125E+04
       239   7 -9.532959E+03  3.100092E+04 -1.710626E+04  4.179434E+04 -2.182147E+03 -3.540359E+04
       239   8  1.782858E+04 -3.419216E+04 -4.980145E+03  5.821585E+04 -6.267323E+03 -2.761654E+04
       239   9  1.618786E+04 -1.076437E+05 -5.173393E+03  8.657658E+04 -5.091792E+03 -1.983072E+04
       239  10 -1.260196E+05 -4.399075E+05 -1.287397E+05  1.324525E+05 -3.104376E-10 -1.321536E-09
       239  11 -6.121637E+04 -3.644864E+05 -6.996145E+04  1.040882E+05 -6.208772E-10 -6.947780E-10
       239  12 -2.937010E+04 -3.012773E+05 -3.928878E+04  8.766239E+04  2.805988E-10 -3.799554E-10
       239  13 -6.777831E+04 -2.044816E+05 -7.292276E+04  8.713206E+04 -3.562238E-10  7.860578E-11
       239  14 -2.169418E+04 -1.993533E+05 -3.747103E+04  8.115510E+04 -3.024468E-10 -2.771765E-11
       239  15 -6.590931E+03 -2.044653E+05 -2.223131E+04  8.711949E+04  2.447494E-10  2.105498E-10
       239  16 -9.533300E+03  3.099957E+04 -1.710862E+04  4.179428E+04 -2.386102E-10  1.336528E-09
       239  17  1.782834E+04 -3.419299E+04 -4.981652E+03  5.821571E+04 -5.958509E-10  6.681388E-10
       239  18  1.618773E+04 -1.076442E+05 -5.174180E+03  8.657650E+04  1.374362E-10  3.368264E-10
       239  19 -1.260185E+05 -4.399030E+05 -1.287318E+05  1.324527E+05  2.196244E+03  6.438715E+04
       239  20 -6.121602E+04 -3.644851E+05 -6.995922E+04  1.040884E+05  6.271435E+03  3.389204E+04
       239  21 -2.937007E+04 -3.012772E+05 -3.928871E+04  8.766240E+04  5.087390E+03  3.393026E+03
       239  22 -6.777764E+04 -2.044790E+05 -7.291807E+04  8.713215E+04  2.188136E+03  4.989810E+04
       239  23 -2.169389E+04 -1.993523E+05 -3.746918E+04  8.115525E+04  6.269263E+03  3.075470E+04
       239  24 -6.590867E+03 -2.044651E+05 -2.223101E+04  8.711954E+04  5.089598E+03  1.161125E+04
       239  25 -9.532959E+03  3.100092E+04 -1.710626E+04  4.179434E+04  2.182147E+03  3.540359E+04
       239  26  1.782858E+04 -3.419216E+04 -4.980145E+03  5.821585E+04  6.267323E+03  2.761654E+04
       239  27  1.618786E+04 -1.076437E+05 -5.173393E+03  8.657658E+04  5.091792E+03  1.983072E+04
       240   1 -1.776573E+04 -2.558013E+05 -2.782614E+04  9.013670E+04 -2.635889E+03 -2.626124E+02
       240   2  1.218663E+03 -1.854858E+05 -1.199381E+04  8.126800E+04  1.164142E+03  6.762938E+03
       240   3  1.559967E+04 -1.172347E+05 -1.888658E+03  8.467378E+04  4.882711E+03  1.378927E+04
       240   4 -5.218982E+03 -2.026554E+05 -1.824277E+04  8.719421E+04 -2.638222E+03 -8.552292E+03
       240   5 -2.485508E+03 -2.016059E+05 -1.439042E+04  8.105671E+04  1.161897E+03 -1.351138E+03
       240   6 -4.385729E+03 -2.026560E+05 -1.638712E+04  8.719403E+04  4.880610E+03  5.850068E+03
       240   7  7.327677E+03 -1.495066E+05 -8.659242E+03  8.425145E+04 -2.640477E+03 -1.684266E+04
       240   8 -6.189655E+03 -2.177256E+05 -1.678679E+04  8.084543E+04  1.159658E+03 -9.465012E+03
       240   9 -2.437146E+04 -2.880700E+05 -3.088557E+04  8.971393E+04  4.878444E+03 -2.088073E+03
       240  10 -1.776574E+04 -2.558013E+05 -2.782616E+04  9.013670E+04  1.148275E-09 -6.499187E-08
       240  11  1.218649E+03 -1.854858E+05 -1.199390E+04  8.126799E+04  1.452996E-09  2.473631E-10
       240  12  1.559960E+04 -1.172349E+05 -1.889060E+03  8.467372E+04  1.124601E-09  6.537337E-08
       240  13 -5.219009E+03 -2.026555E+05 -1.824292E+04  8.719419E+04  1.152994E-09  1.094838E-10
       240  14 -2.485510E+03 -2.016059E+05 -1.439043E+04  8.105671E+04  2.024396E-09 -1.298661E-10
       240  15 -4.385764E+03 -2.026561E+05 -1.638723E+04  8.719401E+04  1.397980E-09  2.737951E-10
       240  16  7.327593E+03 -1.495069E+05 -8.659788E+03  8.425141E+04  1.166275E-09  6.512580E-08
       240  17 -6.189680E+03 -2.177257E+05 -1.678696E+04  8.084543E+04  1.721574E-09 -2.658621E-10
       240  18 -2.437149E+04 -2.880700E+05 -3.088563E+04  8.971394E+04  1.224634E-09 -6.537225E-08
       240  19 -1.776573E+04 -2.558013E+05 -2.782614E+04  9.013670E+04  2.635889E+03  2.626124E+02
       240  20  1.218663E+03 -1.854858E+05 -1.199381E+04  8.126800E+04 -1.164142E+03 -6.762938E+03
       240  21  1.559967E+04 -1.172347E+05 -1.888658E+03  8.467378E+04 -4.882711E+03 -1.378927E+04
       240  22 -5.218982E+03 -2.026554E+05 -1.824277E+04  8.719421E+04  2.638222E+03  8.552292E+03
       240  23 -2.485508E+03 -2.016059E+05 -1.439042E+04  8.105671E+04 -1.161897E+03  1.351138E+03
       240  24 -4.385729E+03 -2.026560E+05 -1.638712E+04  8.719403E+04 -4.880610E+03 -5.850068E+03
       240  25  7.327677E+03 -1.495066E+05 -8.659242E+03  8.425145E+04  2.640477E+03  1.684266E+04
       240  26 -6.189655E+03 -2.177256E+05 -1.678679E+04  8.084543E+04 -1.159658E+03  9.465012E+03
       240  27 -2.437146E+04 -2.880700E+05 -3.088557E+04  8.971393E+04 -4.878444E+03  2.088073E+03
       241   1  2.475678E+04 -7.493686E+04  2.804529E+03  8.663831E+04  7.259434E+03  1.642435E+04
       241   2  2.927783E+04 -2.501850E+03  6.952967E+03  6.228815E+04  7.926213E+03  1.955691E+04
       241   3  1.052556E+04  6.371329E+04  3.243756E+03  4.982238E+04  2.653262E+03  2.269018E+04
       241   4 -5.490691E+03 -2.040698E+05 -1.928196E+04  8.710731E+04  7.257460E+03  8.567966E+03
       241   5 -1.782705E+04 -1.998494E+05 -3.124794E+04  8.116926E+04  7.928196E+03  2.452639E+04
       241   6 -5.566915E+04 -2.040839E+05 -5.998203E+04  8.711730E+04  2.658517E+03  4.048476E+04
       241   7 -3.573902E+04 -3.331861E+05 -4.136876E+04  8.757621E+04  7.255473E+03  7.131632E+02
       241   8 -6.493289E+04 -3.971587E+05 -6.945039E+04  1.000442E+05  7.930483E+03  2.949432E+04
       241   9 -1.218636E+05 -4.718114E+05 -1.232108E+05  1.243960E+05  2.665912E+03  5.827171E+04
       241  10  2.475665E+04 -7.493716E+04  2.803923E+03  8.663822E+04  3.211040E-10  2.001444E-10
       241  11  2.927766E+04 -2.502278E+03  6.952130E+03  6.228802E+04 -4.799022E-10  7.620883E-10
       241  12  1.052542E+04  6.371274E+04  3.242776E+03  4.982233E+04 -3.186289E-10  1.405130E-09
       241  13 -5.490767E+03 -2.040699E+05 -1.928219E+04  8.710726E+04  3.329476E-10  8.328719E-11
       241  14 -1.782728E+04 -1.998501E+05 -3.124919E+04  8.116910E+04 -5.938863E-10  4.282673E-11
       241  15 -5.566959E+04 -2.040856E+05 -5.998513E+04  8.711721E+04 -9.590631E-11  1.505912E-10
       241  16 -3.573908E+04 -3.331861E+05 -4.136886E+04  8.757621E+04  4.918419E-10 -1.013743E-10
       241  17 -6.493320E+04 -3.971597E+05 -6.945214E+04  1.000440E+05 -5.081106E-10 -8.115763E-10
       241  18 -1.218645E+05 -4.718150E+05 -1.232172E+05  1.243959E+05 -1.491681E-10 -1.486044E-09
       241  19  2.475678E+04 -7.493686E+04  2.804529E+03  8.663831E+04 -7.259434E+03 -1.642435E+04
       241  20  2.927783E+04 -2.501850E+03  6.952967E+03  6.228815E+04 -7.926213E+03 -1.955691E+04
       241  21  1.052556E+04  6.371329E+04  3.243756E+03  4.982238E+04 -2.653262E+03 -2.269018E+04
       241  22 -5.490691E+03 -2.040698E+05 -1.928196E+04  8.710731E+04 -7.257460E+03 -8.567966E+03
       241  23 -1.782705E+04 -1.998494E+05 -3.124794E+04  8.116926E+04 -7.928196E+03 -2.452639E+04
       241  24 -5.566915E+04 -2.040839E+05 -5.998203E+04  8.711730E+04 -2.658517E+03 -4.048476E+04
       241  25 -3.573902E+04 -3.331861E+05 -4.136876E+04  8.757621E+04 -7.255473E+03 -7.131632E+02
       241  26 -6.493289E+04 -3.971587E+05 -6.945039E+04  1.000442E+05 -7.930483E+03 -2.949432E+04
       241  27 -1.218636E+05 -4.718114E+05 -1.232108E+05  1.243960E+05 -2.665912E+03 -5.827171E+04
       242   1  2.221686E+05  1.754328E+05  4.487404E+04  1.574841E+05  2.745105E+04  2.092099E+04
       242   2  2.288602E+05  1.430682E+05  2.186885E+04  1.702145E+05  1.769161E+04  1.422531E+04
       242   3  2.491808E+05  1.257014E+05  1.197690E+04  1.754803E+05  8.322575E+03  7.009215E+03
       242   4  2.740515E+05  1.594860E+05  5.169776E+04  1.588829E+05  2.887881E+04  2.198936E+04
       242   5  2.592637E+05  1.378992E+05  2.587855E+04  1.730912E+05  1.799240E+04  1.445011E+04
       242   6  2.583484E+05  1.315527E+05  1.414936E+04  1.798353E+05  7.496793E+03  6.390007E+03
       242   7  3.259380E+05  1.435417E+05  5.852181E+04  1.602808E+05  3.030671E+04  2.305761E+04
       242   8  2.896684E+05  1.327306E+05  2.988832E+04  1.759677E+05  1.829320E+04  1.467489E+04
       242   9  2.675161E+05  1.374041E+05  1.632182E+04  1.841903E+05  6.670995E+03  5.770788E+03
       242  10  2.221677E+05  1.754321E+05  4.487180E+04  1.574837E+05 -8.982647E-11 -9.269213E-11
       242  11  2.288598E+05  1.430679E+05  2.186788E+04  1.702143E+05  1.412680E-10  8.816459E-11
       242  12  2.491807E+05  1.257013E+05  1.197667E+04  1.754803E+05 -6.505852E-11  1.134703E-10
       242  13  2.740505E+05  1.594853E+05  5.169528E+04  1.588824E+05  2.872358E-10  4.054911E-11
       242  14  2.592633E+05  1.378989E+05  2.587755E+04  1.730909E+05 -7.508607E-11  1.148268E-10
       242  15  2.583483E+05  1.315527E+05  1.414918E+04  1.798352E+05 -1.843523E-10  1.724496E-10
       242  16  3.259368E+05  1.435409E+05  5.851909E+04  1.602802E+05  1.764729E-10  1.765115E-10
       242  17  2.896679E+05  1.327303E+05  2.988729E+04  1.759674E+05 -1.888956E-10  2.049384E-10
       242  18  2.675161E+05  1.374040E+05  1.632167E+04  1.841903E+05 -1.664273E-12  2.044324E-10
       242  19  2.221686E+05  1.754328E+05  4.487404E+04  1.574841E+05 -2.745105E+04 -2.092099E+04
       242  20  2.288602E+05  1.430682E+05  2.186885E+04  1.702145E+05 -1.769161E+04 -1.422531E+04
       242  21  2.491808E+05  1.257014E+05  1.197690E+04  1.754803E+05 -8.322575E+03 -7.009215E+03
       242  22  2.740515E+05  1.594860E+05  5.169776E+04  1.588829E+05 -2.887881E+04 -2.198936E+04
       242  23  2.592637E+05  1.378992E+05  2.587855E+04  1.730912E+05 -1.799240E+04 -1.445011E+04
       242  24  2.583484E+05  1.315527E+05  1.414936E+04  1.798353E+05 -7.496793E+03 -6.390007E+03
       242  25  3.259380E+05  1.435417E+05  5.852181E+04  1.602808E+05 -3.030671E+04 -2.305761E+04
       242  26  2.896684E+05  1.327306E+05  2.988832E+04  1.759677E+05 -1.829320E+04 -1.467489E+04
       242  27  2.675161E+05  1.374041E+05  1.632182E+04  1.841903E+05 -6.670995E+03 -5.770788E+03
       243   1  2.502157E+05  1.287006E+05  9.404283E+03  1.776557E+05  7.035933E+03  5.664848E+03
       243   2  2.553476E+05  1.308425E+05  6.111943E+03  1.816766E+05  5.059491E+03  3.532201E+03
       243   3  2.630714E+05  1.330042E+05  5.129171E+03  1.848164E+05  3.128743E+03  1.338470E+03
       243   4  2.570876E+05  1.303815E+05  1.069402E+04  1.796446E+05  6.201983E+03  5.039488E+03
       243   5  2.551770E+05  1.292889E+05  6.049771E+03  1.808867E+05  4.093564E+03  2.807899E+03
       243   6  2.558866E+05  1.282446E+05  3.829410E+03  1.812477E+05  2.030920E+03  5.152832E+02
       243   7  2.639598E+05  1.320625E+05  1.198381E+04  1.816335E+05  5.368001E+03  4.414112E+03
       243   8  2.550064E+05  1.277353E+05  5.987606E+03  1.800968E+05  3.127637E+03  2.083602E+03
       243   9  2.487020E+05  1.234851E+05  2.529710E+03  1.776790E+05  9.331390E+02 -3.078736E+02
       243  10  2.502156E+05  1.287006E+05  9.404130E+03  1.776556E+05 -1.755432E-10  1.707755E-10
       243  11  2.553476E+05  1.308425E+05  6.111871E+03  1.816766E+05 -1.332188E-10  2.459384E-10
       243  12  2.630714E+05  1.330042E+05  5.129150E+03  1.848164E+05 -1.886972E-10  3.138909E-10
       243  13  2.570876E+05  1.303815E+05  1.069390E+04  1.796445E+05 -9.140379E-11  1.636441E-10
       243  14  2.551770E+05  1.292889E+05  6.049725E+03  1.808867E+05 -3.479356E-11  1.802217E-10
       243  15  2.558866E+05  1.282446E+05  3.829401E+03  1.812477E+05 -1.983662E-10  5.415819E-11
       243  16  2.639597E+05  1.320624E+05  1.198372E+04  1.816335E+05 -7.699731E-11  1.690004E-10
       243  17  2.550064E+05  1.277353E+05  5.987580E+03  1.800968E+05 -2.703452E-10  6.633345E-11
       243  18  2.487020E+05  1.234851E+05  2.529709E+03  1.776790E+05  5.784689E-11 -1.358921E-10
       243  19  2.502157E+05  1.287006E+05  9.404283E+03  1.776557E+05 -7.035933E+03 -5.664848E+03
       243  20  2.553476E+05  1.308425E+05  6.111943E+03  1.816766E+05 -5.059491E+03 -3.532201E+03
       243  21  2.630714E+05  1.330042E+05  5.129171E+03  1.848164E+05 -3.128743E+03 -1.338470E+03
       243  22  2.570876E+05  1.303815E+05  1.069402E+04  1.796446E+05 -6.201983E+03 -5.039488E+03
       243  23  2.551770E+05  1.292889E+05  6.049771E+03  1.808867E+05 -4.093564E+03 -2.807899E+03
       243  24  2.558866E+05  1.282446E+05  3.829410E+03  1.812477E+05 -2.030920E+03 -5.152832E+02
       243  25  2.639598E+05  1.320625E+05  1.198381E+04  1.816335E+05 -5.368001E+03 -4.414112E+03
       243  26  2.550064E+05  1.277353E+05  5.987606E+03  1.800968E+05 -3.127637E+03 -2.083602E+03
       243  27  2.487020E+05  1.234851E+05  2.529710E+03  1.776790E+05 -9.331390E+02  3.078736E+02
       244   1  2.665318E+05  1.357564E+05  5.317799E+03  1.867626E+05  2.866890E+03  6.753007E+02
       244   2  2.717374E+05  1.405102E+05  6.065422E+03  1.900478E+05  2.110464E+03 -6.771706E+02
       244   3  2.786400E+05  1.441194E+05  7.808468E+03  1.928994E+05  1.345515E+03 -2.018286E+03
       244   4  2.557821E+05  1.281595E+05  3.242303E+03  1.812112E+05  1.768328E+03 -1.484427E+02
       244   5  2.549378E+05  1.287373E+05  2.793703E+03  1.814260E+05  1.036487E+03 -1.482493E+03
       244   6  2.557852E+05  1.281650E+05  3.319215E+03  1.812072E+05  2.961270E+02 -2.805189E+03
       244   7  2.450325E+05  1.205627E+05  1.166808E+03  1.756599E+05  6.697902E+02 -9.721678E+02
       244   8  2.381384E+05  1.169644E+05 -4.780877E+02  1.728044E+05 -3.746499E+01 -2.287797E+03
       244   9  2.329305E+05  1.122106E+05 -1.170235E+03  1.695152E+05 -7.532347E+02 -3.592072E+03
       244  10  2.665318E+05  1.357564E+05  5.317782E+03  1.867626E+05 -3.337803E-10  2.320320E-11
       244  11  2.717374E+05  1.405102E+05  6.065413E+03  1.900478E+05 -1.953087E-10  6.742984E-11
       244  12  2.786400E+05  1.441193E+05  7.808457E+03  1.928994E+05  2.342674E-10  1.023305E-10
       244  13  2.557821E+05  1.281595E+05  3.242297E+03  1.812112E+05  6.459744E-11  8.390223E-11
       244  14  2.549378E+05  1.287373E+05  2.793697E+03  1.814260E+05  2.207260E-10  6.452439E-11
       244  15  2.557852E+05  1.281650E+05  3.319200E+03  1.812072E+05  1.270742E-10 -3.282965E-11
       244  16  2.450325E+05  1.205627E+05  1.166805E+03  1.756599E+05  1.886953E-10  1.046837E-10
       244  17  2.381384E+05  1.169644E+05 -4.780975E+02  1.728044E+05  9.689618E-11  2.403564E-11
       244  18  2.329305E+05  1.122106E+05 -1.170260E+03  1.695152E+05  5.703284E-11 -2.151030E-10
       244  19  2.665318E+05  1.357564E+05  5.317799E+03  1.867626E+05 -2.866890E+03 -6.753007E+02
       244  20  2.717374E+05  1.405102E+05  6.065422E+03  1.900478E+05 -2.110464E+03  6.771706E+02
       244  21  2.786400E+05  1.441194E+05  7.808468E+03  1.928994E+05 -1.345515E+03  2.018286E+03
       244  22  2.557821E+05  1.281595E+05  3.242303E+03  1.812112E+05 -1.768328E+03  1.484427E+02
       244  23  2.549378E+05  1.287373E+05  2.793703E+03  1.814260E+05 -1.036487E+03  1.482493E+03
       244  24  2.557852E+05  1.281650E+05  3.319215E+03  1.812072E+05 -2.961270E+02  2.805189E+03
       244  25  2.450325E+05  1.205627E+05  1.166808E+03  1.756599E+05 -6.697902E+02  9.721678E+02
       244  26  2.381384E+05  1.169644E+05 -4.780877E+02  1.728044E+05  3.746499E+01  2.287797E+03
       244  27  2.329305E+05  1.122106E+05 -1.170235E+03  1.695152E+05  7.532347E+02  3.592072E+03
       245   1  2.823160E+05  1.470627E+05  9.237753E+03  1.949261E+05  1.059584E+03 -2.683346E+03
       245   2  2.886702E+05  1.512837E+05  1.294450E+04  1.972848E+05 -1.494861E+03 -5.233699E+03
       245   3  2.977637E+05  1.557015E+05  1.947093E+04  1.987423E+05 -4.166547E+03 -7.627649E+03
       245   4  2.558936E+05  1.282560E+05  3.951760E+03  1.812469E+05  1.243412E+01 -3.468580E+03
       245   5  2.551888E+05  1.293121E+05  6.300264E+03  1.808588E+05 -2.203881E+03 -5.765404E+03
       245   6  2.571502E+05  1.304917E+05  1.117531E+04  1.795696E+05 -4.537431E+03 -7.905833E+03
       245   7  2.294726E+05  1.094503E+05 -1.334028E+03  1.675687E+05 -1.034632E+03 -4.253750E+03
       245   8  2.217092E+05  1.073414E+05 -3.438693E+02  1.644340E+05 -2.912842E+03 -6.297068E+03
       245   9  2.165386E+05  1.052828E+05  2.879629E+03  1.603982E+05 -4.908282E+03 -8.183996E+03
       245  10  2.823160E+05  1.470627E+05  9.237737E+03  1.949261E+05 -4.793662E-12 -7.690656E-11
       245  11  2.886702E+05  1.512837E+05  1.294445E+04  1.972848E+05 -1.303080E-10  6.710824E-12
       245  12  2.977637E+05  1.557015E+05  1.947079E+04  1.987423E+05 -2.318027E-10 -3.557588E-11
       245  13  2.558936E+05  1.282560E+05  3.951737E+03  1.812469E+05 -6.735290E-11 -3.980307E-11
       245  14  2.551888E+05  1.293121E+05  6.300193E+03  1.808588E+05 -6.083136E-11  2.681085E-11
       245  15  2.571501E+05  1.304917E+05  1.117515E+04  1.795695E+05 -1.191211E-10  9.781758E-11
       245  16  2.294726E+05  1.094503E+05 -1.334064E+03  1.675687E+05  1.944352E-10 -1.087007E-11
       245  17  2.217092E+05  1.073413E+05 -3.439597E+02  1.644340E+05  3.141957E-10  1.290867E-10
       245  18  2.165386E+05  1.052827E+05  2.879458E+03  1.603982E+05  8.346472E-11  2.533066E-10
       245  19  2.823160E+05  1.470627E+05  9.237753E+03  1.949261E+05 -1.059584E+03  2.683346E+03
       245  20  2.886702E+05  1.512837E+05  1.294450E+04  1.972848E+05  1.494861E+03  5.233699E+03
       245  21  2.977637E+05  1.557015E+05  1.947093E+04  1.987423E+05  4.166547E+03  7.627649E+03
       245  22  2.558936E+05  1.282560E+05  3.951760E+03  1.812469E+05 -1.243412E+01  3.468580E+03
       245  23  2.551888E+05  1.293121E+05  6.300264E+03  1.808588E+05  2.203881E+03  5.765404E+03
       245  24  2.571502E+05  1.304917E+05  1.117531E+04  1.795696E+05  4.537431E+03  7.905833E+03
       245  25  2.294726E+05  1.094503E+05 -1.334028E+03  1.675687E+05  1.034632E+03  4.253750E+03
       245  26  2.217092E+05  1.073414E+05 -3.438693E+02  1.644340E+05  2.912842E+03  6.297068E+03
       245  27  2.165386E+05  1.052828E+05  2.879629E+03  1.603982E+05  4.908282E+03  8.183996E+03
       246   1  3.013567E+05  1.612388E+05  2.416325E+04  2.013408E+05 -5.621730E+03 -8.946140E+03
       246   2  3.242921E+05  1.561308E+05  3.931039E+04  1.924156E+05 -1.986430E+04 -1.886746E+04
       246   3  3.622171E+05  1.677190E+05  7.163182E+04  1.757181E+05 -3.507943E+04 -2.749323E+04
       246   4  2.584561E+05  1.317319E+05  1.479676E+04  1.797739E+05 -5.972030E+03 -9.208873E+03
       246   5  2.594828E+05  1.383045E+05  2.707987E+04  1.726948E+05 -1.741396E+04 -1.703092E+04
       246   6  2.748913E+05  1.609668E+05  5.410855E+04  1.578435E+05 -2.982734E+04 -2.355767E+04
       246   7  2.155568E+05  1.022253E+05  5.429831E+03  1.582082E+05 -6.322307E+03 -9.471588E+03
       246   8  1.946788E+05  1.204787E+05  1.484936E+04  1.529754E+05 -1.496397E+04 -1.519444E+04
       246   9  1.875779E+05  1.542161E+05  3.658609E+04  1.399701E+05 -2.457643E+04 -1.962210E+04
       246  10  3.013566E+05  1.612387E+05  2.416305E+04  2.013407E+05  1.237819E-10  2.563146E-10
       246  11  3.242916E+05  1.561303E+05  3.930898E+04  1.924153E+05 -4.517176E-11  1.190804E-11
       246  12  3.622155E+05  1.677179E+05  7.162809E+04  1.757173E+05 -1.180841E-10 -8.724193E-11
       246  13  2.584561E+05  1.317318E+05  1.479653E+04  1.797738E+05 -2.087127E-10  7.774604E-11
       246  14  2.594824E+05  1.383041E+05  2.707876E+04  1.726945E+05 -8.566468E-11  1.501176E-11
       246  15  2.748902E+05  1.609660E+05  5.410584E+04  1.578429E+05 -1.321443E-10 -3.756109E-11
       246  16  2.155567E+05  1.022252E+05  5.429587E+03  1.582082E+05 -2.886510E-10 -8.687418E-11
       246  17  1.946785E+05  1.204784E+05  1.484851E+04  1.529752E+05 -1.188059E-10 -1.066153E-10
       246  18  1.875772E+05  1.542155E+05  3.658424E+04  1.399697E+05  2.788453E-12  4.978092E-11
       246  19  3.013567E+05  1.612388E+05  2.416325E+04  2.013408E+05  5.621730E+03  8.946140E+03
       246  20  3.242921E+05  1.561308E+05  3.931039E+04  1.924156E+05  1.986430E+04  1.886746E+04
       246  21  3.622171E+05  1.677190E+05  7.163182E+04  1.757181E+05  3.507943E+04  2.749323E+04
       246  22  2.584561E+05  1.317319E+05  1.479676E+04  1.797739E+05  5.972030E+03  9.208873E+03
       246  23  2.594828E+05  1.383045E+05  2.707987E+04  1.726948E+05  1.741396E+04  1.703092E+04
       246  24  2.748913E+05  1.609668E+05  5.410855E+04  1.578435E+05  2.982734E+04  2.355767E+04
       246  25  2.155568E+05  1.022253E+05  5.429831E+03  1.582082E+05  6.322307E+03  9.471588E+03
       246  26  1.946788E+05  1.204787E+05  1.484936E+04  1.529754E+05  1.496397E+04  1.519444E+04
       246  27  1.875779E+05  1.542161E+05  3.658609E+04  1.399701E+05  2.457643E+04  1.962210E+04
       247   1  3.717232E+05  5.428909E+04  5.263418E+04  5.165171E+04  2.026310E+04 -2.035748E+03
       247   2  3.337820E+05  3.788563E+04  3.260209E+04  4.572134E+04  9.077876E+03 -6.407129E+03
       247   3  2.986600E+05  2.692487E+04  2.120990E+04  4.598028E+04 -2.106352E+03 -6.708228E+03
       247   4  1.866258E+05  8.602162E+03  9.238237E+03  4.589737E+04  6.419053E+03 -2.036415E+03
       247   5  1.859819E+05  2.748577E+03  4.673847E+03  4.280291E+04  4.030412E+03 -6.407552E+03
       247   6  1.866300E+05  8.118840E+02  2.643520E+03  4.589766E+04  1.642044E+03 -6.708063E+03
       247   7  1.560362E+03 -3.708697E+04 -3.415931E+04  4.014476E+04 -7.420899E+03 -2.036825E+03
       247   8  3.820286E+04 -3.238971E+04 -2.325526E+04  3.988519E+04 -1.015879E+03 -6.407929E+03
       247   9  7.461246E+04 -2.530175E+04 -1.592318E+04  4.581505E+04  5.389787E+03 -6.707899E+03
       247  10  3.717227E+05  5.428897E+04  5.263340E+04  5.165174E+04 -6.054308E-11  1.206786E-11
       247  11  3.337819E+05  3.788557E+04  3.260186E+04  4.572139E+04 -5.280185E-11  1.071540E-11
       247  12  2.986600E+05  2.692483E+04  2.120980E+04  4.598027E+04  1.715014E-10 -6.924896E-11
       247  13  1.866257E+05  8.602146E+03  9.238151E+03  4.589738E+04 -1.346316E-10  1.035319E-11
       247  14  1.859818E+05  2.748529E+03  4.673740E+03  4.280293E+04 -3.578409E-11  1.067429E-11
       247  15  1.866300E+05  8.118350E+02  2.643430E+03  4.589767E+04 -4.205116E-11 -1.026578E-10
       247  16  1.560301E+03 -3.708699E+04 -3.415942E+04  4.014475E+04  6.854545E-11  2.325469E-12
       247  17  3.820285E+04 -3.238975E+04 -2.325534E+04  3.988519E+04 -4.952243E-11  1.527046E-11
       247  18  7.461242E+04 -2.530181E+04 -1.592332E+04  4.581508E+04 -2.826848E-10 -1.630056E-10
       247  19  3.717232E+05  5.428909E+04  5.263418E+04  5.165171E+04 -2.026310E+04  2.035748E+03
       247  20  3.337820E+05  3.788563E+04  3.260209E+04  4.572134E+04 -9.077876E+03  6.407129E+03
       247  21  2.986600E+05  2.692487E+04  2.120990E+04  4.598028E+04  2.106352E+03  6.708228E+03
       247  22  1.866258E+05  8.602162E+03  9.238237E+03  4.589737E+04 -6.419053E+03  2.036415E+03
       247  23  1.859819E+05  2.748577E+03  4.673847E+03  4.280291E+04 -4.030412E+03  6.407552E+03
       247  24  1.866300E+05  8.118840E+02  2.643520E+03  4.589766E+04 -1.642044E+03  6.708063E+03
       247  25  1.560362E+03 -3.708697E+04 -3.415931E+04  4.014476E+04  7.420899E+03  2.036825E+03
       247  26  3.820286E+04 -3.238971E+04 -2.325526E+04  3.988519E+04  1.015879E+03  6.407929E+03
       247  27  7.461246E+04 -2.530175E+04 -1.592318E+04  4.581505E+04 -5.389787E+03  6.707899E+03
       248   1  2.753455E+05  2.130789E+04  1.651959E+04  4.632914E+04 -2.524024E+03 -5.536305E+03
       248   2  2.386747E+05  1.227110E+04  9.466771E+03  4.289284E+04 -4.154837E+03 -3.553417E+03
       248   3  2.023496E+05  3.759489E+03  3.606761E+03  4.593504E+04 -5.785598E+03 -1.132681E+03
       248   4  1.863836E+05  6.303317E+02  2.070204E+03  4.596197E+04  1.287596E+03 -5.536064E+03
       248   5  1.862945E+05  1.785291E+02  1.371395E+03  4.272273E+04  6.027765E+02 -3.553031E+03
       248   6  1.863850E+05  8.764993E+01  1.208499E+03  4.596201E+04 -8.209377E+01 -1.132130E+03
       248   7  9.742967E+04 -2.004762E+04 -1.237934E+04  4.559485E+04  5.098690E+03 -5.535828E+03
       248   8  1.339171E+05 -1.191417E+04 -6.723958E+03  4.255263E+04  5.360005E+03 -3.552647E+03
       248   9  1.704207E+05 -3.584184E+03 -1.189645E+03  4.598898E+04  5.621269E+03 -1.131579E+03
       248  10  2.753455E+05  2.130785E+04  1.651952E+04  4.632913E+04 -8.587079E-11 -1.349160E-10
       248  11  2.386747E+05  1.227108E+04  9.466715E+03  4.289283E+04  7.196575E-11 -5.335038E-11
       248  12  2.023495E+05  3.759479E+03  3.606695E+03  4.593503E+04 -9.181165E-11 -4.058510E-11
       248  13  1.863836E+05  6.302983E+02  2.070144E+03  4.596198E+04  2.099683E-12 -1.346478E-10
       248  14  1.862945E+05  1.785154E+02  1.371370E+03  4.272273E+04  3.552075E-11 -1.073855E-10
       248  15  1.863850E+05  8.764855E+01  1.208497E+03  4.596201E+04  3.089862E-11 -7.397554E-11
       248  16  9.742963E+04 -2.004766E+04 -1.237945E+04  4.559487E+04  1.370801E-10 -1.425047E-10
       248  17  1.339171E+05 -1.191419E+04 -6.724036E+03  4.255264E+04  2.220805E-11 -1.604117E-10
       248  18  1.704207E+05 -3.584194E+03 -1.189707E+03  4.598898E+04 -1.531994E-11 -2.398761E-11
       248  19  2.753455E+05  2.130789E+04  1.651959E+04  4.632914E+04  2.524024E+03  5.536305E+03
       248  20  2.386747E+05  1.227110E+04  9.466771E+03  4.289284E+04  4.154837E+03  3.553417E+03
       248  21  2.023496E+05  3.759489E+03  3.606761E+03  4.593504E+04  5.785598E+03  1.132681E+03
       248  22  1.863836E+05  6.303317E+02  2.070204E+03  4.596197E+04 -1.287596E+03  5.536064E+03
       248  23  1.862945E+05  1.785291E+02  1.371395E+03  4.272273E+04 -6.027765E+02  3.553031E+03
       248  24  1.863850E+05  8.764993E+01  1.208499E+03  4.596201E+04  8.209377E+01  1.132130E+03
       248  25  9.742967E+04 -2.004762E+04 -1.237934E+04  4.559485E+04 -5.098690E+03  5.535828E+03
       248  26  1.339171E+05 -1.191417E+04 -6.723958E+03  4.255263E+04 -5.360005E+03  3.552647E+03
       248  27  1.704207E+05 -3.584184E+03 -1.189645E+03  4.598898E+04 -5.621269E+03  1.131579E+03
       249   1  1.795027E+05 -1.507496E+03  1.712034E+02  4.601270E+04 -5.997458E+03  4.397243E+02
       249   2  1.429647E+05 -9.756264E+03 -5.043374E+03  4.248662E+04 -5.977040E+03  2.873752E+03
       249   3  1.065120E+05 -1.765714E+04 -1.018441E+04  4.544076E+04 -5.956573E+03  4.895553E+03
       249   4  1.863983E+05  9.217920E+01  1.275481E+03  4.596237E+04 -2.937098E+02  4.402803E+02
       249   5  1.862781E+05  2.617165E+02  1.740931E+03  4.272226E+04 -1.164014E+03  2.874157E+03
       249   6  1.863971E+05  9.339153E+02  2.898409E+03  4.596231E+04 -2.034282E+03  4.895823E+03
       249   7  1.932939E+05  1.691869E+03  2.379879E+03  4.591205E+04  5.410099E+03  4.408355E+02
       249   8  2.295934E+05  1.027962E+04  8.525279E+03  4.295792E+04  3.649335E+03  2.874566E+03
       249   9  2.662885E+05  1.952465E+04  1.598110E+04  4.648394E+04  1.888497E+03  4.896100E+03
       249  10  1.795027E+05 -1.507506E+03  1.711355E+02  4.601270E+04  1.853959E-10  4.939556E-11
       249  11  1.429647E+05 -9.756282E+03 -5.043457E+03  4.248663E+04 -1.560333E-11  3.720347E-11
       249  12  1.065120E+05 -1.765717E+04 -1.018452E+04  4.544078E+04 -1.618814E-10  3.929734E-11
       249  13  1.863983E+05  9.217897E+01  1.275480E+03  4.596237E+04  6.731561E-11 -1.444265E-11
       249  14  1.862781E+05  2.617073E+02  1.740913E+03  4.272226E+04 -6.529513E-11  3.170659E-11
       249  15  1.863971E+05  9.338885E+02  2.898356E+03  4.596232E+04 -1.034253E-10  7.787540E-11
       249  16  1.932939E+05  1.691861E+03  2.379824E+03  4.591205E+04 -9.148327E-11 -2.560143E-11
       249  17  2.295934E+05  1.027960E+04  8.525238E+03  4.295791E+04 -7.020102E-11 -2.422191E-13
       249  18  2.662885E+05  1.952462E+04  1.598105E+04  4.648393E+04  2.865025E-11  4.941542E-11
       249  19  1.795027E+05 -1.507496E+03  1.712034E+02  4.601270E+04  5.997458E+03 -4.397243E+02
       249  20  1.429647E+05 -9.756264E+03 -5.043374E+03  4.248662E+04  5.977040E+03 -2.873752E+03
       249  21  1.065120E+05 -1.765714E+04 -1.018441E+04  4.544076E+04  5.956573E+03 -4.895553E+03
       249  22  1.863983E+05  9.217920E+01  1.275481E+03  4.596237E+04  2.937098E+02 -4.402803E+02
       249  23  1.862781E+05  2.617165E+02  1.740931E+03  4.272226E+04  1.164014E+03 -2.874157E+03
       249  24  1.863971E+05  9.339153E+02  2.898409E+03  4.596231E+04  2.034282E+03 -4.895823E+03
       249  25  1.932939E+05  1.691869E+03  2.379879E+03  4.591205E+04 -5.410099E+03 -4.408355E+02
       249  26  2.295934E+05  1.027962E+04  8.525279E+03  4.295792E+04 -3.649335E+03 -2.874566E+03
       249  27  2.662885E+05  1.952465E+04  1.598110E+04  4.648394E+04 -1.888497E+03 -4.896100E+03
       250   1  8.382923E+04 -2.281546E+04 -1.337719E+04  4.579399E+04 -6.394961E+03  6.091058E+03
       250   2  4.708150E+04 -2.894816E+04 -1.948322E+04  3.850511E+04 -1.507378E+03  5.938359E+03
       250   3  1.078117E+04 -3.075888E+04 -2.769017E+04  3.742115E+04  3.379705E+03  1.903451E+03
       250   4  1.867657E+05  1.201551E+03  3.786700E+03  4.590106E+04 -2.533076E+03  6.091264E+03
       250   5  1.858128E+05  4.060489E+03  6.844231E+03  4.279851E+04 -6.031723E+03  5.937988E+03
       250   6  1.867613E+05  1.269653E+04  1.362353E+04  4.590060E+04 -9.530602E+03  1.902970E+03
       250   7  2.897127E+05  2.521802E+04  2.095032E+04  4.600815E+04  1.329428E+03  6.091470E+03
       250   8  3.245628E+05  3.706809E+04  3.317091E+04  4.709290E+04 -1.055705E+04  5.937554E+03
       250   9  3.627705E+05  5.615009E+04  5.493578E+04  5.438246E+04 -2.244455E+04  1.902137E+03
       250  10  8.382918E+04 -2.281551E+04 -1.337734E+04  4.579402E+04 -4.155987E-11  6.405184E-11
       250  11  4.708148E+04 -2.894820E+04 -1.948329E+04  3.850511E+04 -4.730805E-11  2.613951E-11
       250  12  1.078116E+04 -3.075889E+04 -2.769019E+04  3.742114E+04  3.680829E-11  1.433190E-11
       250  13  1.867657E+05  1.201510E+03  3.786618E+03  4.590107E+04 -6.004912E-11  3.744973E-11
       250  14  1.858128E+05  4.060442E+03  6.844097E+03  4.279854E+04 -2.887298E-12  5.256255E-11
       250  15  1.867612E+05  1.269650E+04  1.362336E+04  4.590061E+04  8.493489E-11  6.461855E-12
       250  16  2.897127E+05  2.521798E+04  2.095025E+04  4.600814E+04  2.218325E-11  1.393884E-10
       250  17  3.245627E+05  3.706802E+04  3.317064E+04  4.709295E+04  3.625960E-11  2.674663E-11
       250  18  3.627700E+05  5.614995E+04  5.493483E+04  5.438250E+04  1.416596E-10  1.076116E-11
       250  19  8.382923E+04 -2.281546E+04 -1.337719E+04  4.579399E+04  6.394961E+03 -6.091058E+03
       250  20  4.708150E+04 -2.894816E+04 -1.948322E+04  3.850511E+04  1.507378E+03 -5.938359E+03
       250  21  1.078117E+04 -3.075888E+04 -2.769017E+04  3.742115E+04 -3.379705E+03 -1.903451E+03
       250  22  1.867657E+05  1.201551E+03  3.786700E+03  4.590106E+04  2.533076E+03 -6.091264E+03
       250  23  1.858128E+05  4.060489E+03  6.844231E+03  4.279851E+04  6.031723E+03 -5.937988E+03
       250  24  1.867613E+05  1.269653E+04  1.362353E+04  4.590060E+04  9.530602E+03 -1.902970E+03
       250  25  2.897127E+05  2.521802E+04  2.095032E+04  4.600815E+04 -1.329428E+03 -6.091470E+03
       250  26  3.245628E+05  3.706809E+04  3.317091E+04  4.709290E+04  1.055705E+04 -5.937554E+03
       250  27  3.627705E+05  5.615009E+04  5.493578E+04  5.438246E+04  2.244455E+04 -1.902137E+03
       251   1 -1.118180E+05 -3.721090E+05 -1.142570E+05  1.164203E+05 -1.951448E+03 -5.715938E+04
       251   2 -5.442470E+04 -3.061935E+05 -6.234455E+04  9.126542E+04 -5.604363E+03 -3.000461E+04
       251   3 -2.638420E+04 -2.511514E+05 -3.545613E+04  7.652245E+04 -4.613672E+03 -2.846666E+03
       251   4 -6.035656E+04 -1.640786E+05 -6.495976E+04  7.603326E+04 -1.945339E+03 -4.424976E+04
       251   5 -1.932683E+04 -1.595067E+05 -3.353498E+04  7.082174E+04 -5.602694E+03 -2.711894E+04
       251   6 -5.905831E+03 -1.640683E+05 -2.016685E+04  7.602451E+04 -4.615205E+03 -9.987962E+03
       251   7 -8.891965E+03  4.399546E+04 -1.566403E+04  3.563256E+04 -1.940912E+03 -3.133583E+04
       251   8  1.577132E+04 -1.279836E+04 -4.726194E+03  5.037312E+04 -5.601216E+03 -2.423260E+04
       251   9  1.457215E+04 -7.697758E+04 -4.877652E+03  7.552650E+04 -4.616726E+03 -1.713023E+04
       251  10 -1.118189E+05 -3.721125E+05 -1.142631E+05  1.164202E+05 -7.286605E-12 -2.895352E-10
       251  11 -5.442497E+04 -3.061945E+05 -6.234630E+04  9.126528E+04 -4.047743E-10 -1.178270E-11
       251  12 -2.638422E+04 -2.511514E+05 -3.545618E+04  7.652244E+04 -1.631801E-11  4.207730E-10
       251  13 -6.035709E+04 -1.640807E+05 -6.496344E+04  7.603319E+04 -1.466670E-10  5.037755E-12
       251  14 -1.932706E+04 -1.595075E+05 -3.353642E+04  7.082162E+04 -1.416702E-10 -7.127966E-11
       251  15 -5.905881E+03 -1.640684E+05 -2.016708E+04  7.602448E+04  2.797708E-11  3.288671E-11
       251  16 -8.892233E+03  4.399440E+04 -1.566588E+04  3.563251E+04 -5.202870E-12  2.947475E-10
       251  17  1.577113E+04 -1.279900E+04 -4.727357E+03  5.037301E+04 -1.597753E-10  1.659917E-11
       251  18  1.457205E+04 -7.697790E+04 -4.878244E+03  7.552644E+04  5.505917E-11 -2.756136E-10
       251  19 -1.118180E+05 -3.721090E+05 -1.142570E+05  1.164203E+05  1.951448E+03  5.715938E+04
       251  20 -5.442470E+04 -3.061935E+05 -6.234455E+04  9.126542E+04  5.604363E+03  3.000461E+04
       251  21 -2.638420E+04 -2.511514E+05 -3.545613E+04  7.652245E+04  4.613672E+03  2.846666E+03
       251  22 -6.035656E+04 -1.640786E+05 -6.495976E+04  7.603326E+04  1.945339E+03  4.424976E+04
       251  23 -1.932683E+04 -1.595067E+05 -3.353498E+04  7.082174E+04  5.602694E+03  2.711894E+04
       251  24 -5.905831E+03 -1.640683E+05 -2.016685E+04  7.602451E+04  4.615205E+03  9.987962E+03
       251  25 -8.891965E+03  4.399546E+04 -1.566403E+04  3.563256E+04  1.940912E+03  3.133583E+04
       251  26  1.577132E+04 -1.279836E+04 -4.726194E+03  5.037312E+04  5.601216E+03  2.423260E+04
       251  27  1.457215E+04 -7.697758E+04 -4.877652E+03  7.552650E+04  4.616726E+03  1.713023E+04
       252   1 -1.624090E+04 -2.114623E+05 -2.551264E+04  7.875228E+04 -2.480882E+03  1.553814E+01
       252   2  2.498583E+02 -1.500194E+05 -1.204394E+04  7.078474E+04  8.278812E+02  6.770671E+03
       252   3  1.233422E+04 -9.055619E+04 -4.076353E+03  7.352700E+04  4.078731E+03  1.352644E+04
       252   4 -4.692676E+03 -1.624834E+05 -1.675401E+04  7.609056E+04 -2.482514E+03 -7.189157E+03
       252   5 -2.383708E+03 -1.614812E+05 -1.374792E+04  7.073552E+04  8.263045E+02 -3.092026E+02
       252   6 -4.502682E+03 -1.624839E+05 -1.632958E+04  7.609054E+04  4.077261E+03  6.570781E+03
       252   7  6.855470E+03 -1.135021E+05 -7.995260E+03  7.342862E+04 -2.484083E+03 -1.439441E+04
       252   8 -5.017253E+03 -1.729427E+05 -1.545170E+04  7.068630E+04  8.247290E+02 -7.388951E+03
       252   9 -2.133981E+04 -2.344064E+05 -2.858279E+04  7.865378E+04  4.075734E+03 -3.841008E+02
       252  10 -1.624091E+04 -2.114623E+05 -2.551265E+04  7.875228E+04 -4.114425E-11 -1.453087E-10
       252  11  2.498452E+02 -1.500195E+05 -1.204403E+04  7.078474E+04 -1.578210E-10  4.578947E-11
       252  12  1.233416E+04 -9.055639E+04 -4.076728E+03  7.352695E+04 -1.423730E-12  2.188279E-10
       252  13 -4.692696E+03 -1.624835E+05 -1.675411E+04  7.609055E+04  1.639552E-11 -7.357613E-16
       252  14 -2.383708E+03 -1.614812E+05 -1.374792E+04  7.073552E+04  1.950302E-10 -8.794594E-11
       252  15 -4.502712E+03 -1.624839E+05 -1.632969E+04  7.609052E+04  1.178685E-10  6.552728E-11
       252  16  6.855408E+03 -1.135024E+05 -7.995661E+03  7.342860E+04 -6.433853E-11  1.916221E-10
       252  17 -5.017268E+03 -1.729428E+05 -1.545181E+04  7.068630E+04  1.197375E-11  2.568561E-11
       252  18 -2.133983E+04 -2.344064E+05 -2.858282E+04  7.865378E+04  9.125589E-11 -7.778964E-11
       252  19 -1.624090E+04 -2.114623E+05 -2.551264E+04  7.875228E+04  2.480882E+03 -1.553814E+01
       252  20  2.498583E+02 -1.500194E+05 -1.204394E+04  7.078474E+04 -8.278812E+02 -6.770671E+03
       252  21  1.233422E+04 -9.055619E+04 -4.076353E+03  7.352700E+04 -4.078731E+03 -1.352644E+04
       252  22 -4.692676E+03 -1.624834E+05 -1.675401E+04  7.609056E+04  2.482514E+03  7.189157E+03
       252  23 -2.383708E+03 -1.614812E+05 -1.374792E+04  7.073552E+04 -8.263045E+02  3.092026E+02
       252  24 -4.502682E+03 -1.624839E+05 -1.632958E+04  7.609054E+04 -4.077261E+03 -6.570781E+03
       252  25  6.855470E+03 -1.135021E+05 -7.995260E+03  7.342862E+04  2.484083E+03  1.439441E+04
       252  26 -5.017253E+03 -1.729427E+05 -1.545170E+04  7.068630E+04 -8.247290E+02  7.388951E+03
       252  27 -2.133981E+04 -2.344064E+05 -2.858279E+04  7.865378E+04 -4.075734E+03  3.841008E+02
       253   1  2.013314E+04 -5.391348E+04 -6.275923E+02  7.553634E+04  6.158418E+03  1.617591E+04
       253   2  2.204478E+04  9.973745E+03  7.579386E+02  5.131281E+04  6.781430E+03  2.150618E+04
       253   3 -4.720877E+02  6.706539E+04 -7.433512E+03  3.746312E+04  2.276608E+03  2.683714E+04
       253   4 -5.655081E+03 -1.639782E+05 -1.949230E+04  7.601589E+04  6.157030E+03  9.291572E+03
       253   5 -1.844367E+04 -1.596214E+05 -3.211206E+04  7.083230E+04  6.783053E+03  2.569421E+04
       253   6 -5.758841E+04 -1.639892E+05 -6.200100E+04  7.602398E+04  2.280922E+03  4.209665E+04
       253   7 -3.144392E+04 -2.740310E+05 -3.835724E+04  7.649536E+04  6.155631E+03  2.408416E+03
       253   8 -5.893240E+04 -3.291880E+05 -6.498315E+04  9.034634E+04  6.784940E+03  2.988113E+04
       253   9 -1.147028E+05 -3.949911E+05 -1.165705E+05  1.145704E+05  2.287133E+03  5.735052E+04
       253  10  2.013303E+04 -5.391377E+04 -6.281552E+02  7.553626E+04  1.934130E-11 -2.285191E-10
       253  11  2.204461E+04  9.973236E+03  7.569831E+02  5.131269E+04 -2.054583E-10 -2.510325E-11
       253  12 -4.722866E+02  6.706461E+04 -7.434875E+03  3.746307E+04 -9.774004E-11  1.599918E-10
       253  13 -5.655144E+03 -1.639783E+05 -1.949254E+04  7.601585E+04 -1.052987E-10  3.348454E-11
       253  14 -1.844390E+04 -1.596221E+05 -3.211339E+04  7.083216E+04 -2.317262E-10 -1.688553E-11
       253  15 -5.758889E+04 -1.639911E+05 -6.200434E+04  7.602390E+04 -8.663381E-11 -4.604264E-12
       253  16 -3.144396E+04 -2.740310E+05 -3.835732E+04  7.649534E+04  4.343280E-11  2.890215E-10
       253  17 -5.893269E+04 -3.291889E+05 -6.498491E+04  9.034618E+04 -2.048067E-10  1.672247E-10
       253  18 -1.147037E+05 -3.949946E+05 -1.165767E+05  1.145703E+05  8.345202E-11 -1.213456E-10
       253  19  2.013314E+04 -5.391348E+04 -6.275923E+02  7.553634E+04 -6.158418E+03 -1.617591E+04
       253  20  2.204478E+04  9.973745E+03  7.579386E+02  5.131281E+04 -6.781430E+03 -2.150618E+04
       253  21 -4.720877E+02  6.706539E+04 -7.433512E+03  3.746312E+04 -2.276608E+03 -2.683714E+04
       253  22 -5.655081E+03 -1.639782E+05 -1.949230E+04  7.601589E+04 -6.157030E+03 -9.291572E+03
       253  23 -1.844367E+04 -1.596214E+05 -3.211206E+04  7.083230E+04 -6.783053E+03 -2.569421E+04
       253  24 -5.758841E+04 -1.639892E+05 -6.200100E+04  7.602398E+04 -2.280922E+03 -4.209665E+04
       253  25 -3.144392E+04 -2.740310E+05 -3.835724E+04  7.649536E+04 -6.155631E+03 -2.408416E+03
       253  26 -5.893240E+04 -3.291880E+05 -6.498315E+04  9.034634E+04 -6.784940E+03 -2.988113E+04
       253  27 -1.147028E+05 -3.949911E+05 -1.165705E+05  1.145704E+05 -2.287133E+03 -5.735052E+04
       254   1  2.193264E+05  1.844999E+05  4.572265E+04  1.615165E+05  2.685270E+04  2.048056E+04
       254   2  2.221821E+05  1.492586E+05  2.188828E+04  1.717769E+05  1.688521E+04  1.380142E+04
       254   3  2.375144E+05  1.297799E+05  1.118767E+04  1.749908E+05  7.196812E+03  6.749999E+03
       254   4  2.654594E+05  1.654159E+05  5.076237E+04  1.605220E+05  2.835937E+04  2.160828E+04
       254   5  2.514240E+05  1.437342E+05  2.540073E+04  1.743321E+05  1.758557E+04  1.432593E+04
       254   6  2.500392E+05  1.379887E+05  1.387157E+04  1.810958E+05  7.091185E+03  6.670778E+03
       254   7  3.115965E+05  1.463341E+05  5.580261E+04  1.595267E+05  2.986620E+04  2.273588E+04
       254   8  2.806677E+05  1.382101E+05  2.891336E+04  1.768871E+05  1.828600E+04  1.485042E+04
       254   9  2.625646E+05  1.461978E+05  1.655557E+04  1.872011E+05  6.985553E+03  6.591553E+03
       254  10  2.193256E+05  1.844992E+05  4.572051E+04  1.615160E+05 -5.750563E-11 -2.680657E-11
       254  11  2.221818E+05  1.492583E+05  2.188739E+04  1.717767E+05  1.284885E-10  3.851897E-11
       254  12  2.375143E+05  1.297798E+05  1.118748E+04  1.749908E+05  2.433985E-10  6.952422E-11
       254  13  2.654584E+05  1.654151E+05  5.075998E+04  1.605215E+05  4.702493E-11  3.162247E-11
       254  14  2.514236E+05  1.437339E+05  2.539976E+04  1.743319E+05  5.054445E-11  1.275208E-11
       254  15  2.500392E+05  1.379886E+05  1.387139E+04  1.810958E+05  1.046278E-10  1.012799E-11
       254  16  3.115954E+05  1.463333E+05  5.579997E+04  1.595261E+05  1.057054E-10  9.176989E-11
       254  17  2.806672E+05  1.382098E+05  2.891232E+04  1.768869E+05 -6.979958E-11  1.130457E-11
       254  18  2.625645E+05  1.461977E+05  1.655540E+04  1.872011E+05 -2.758188E-10 -7.041297E-11
       254  19  2.193264E+05  1.844999E+05  4.572265E+04  1.615165E+05 -2.685270E+04 -2.048056E+04
       254  20  2.221821E+05  1.492586E+05  2.188828E+04  1.717769E+05 -1.688521E+04 -1.380142E+04
       254  21  2.375144E+05  1.297799E+05  1.118767E+04  1.749908E+05 -7.196812E+03 -6.749999E+03
       254  22  2.654594E+05  1.654159E+05  5.076237E+04  1.605220E+05 -2.835937E+04 -2.160828E+04
       254  23  2.514240E+05  1.437342E+05  2.540073E+04  1.743321E+05 -1.758557E+04 -1.432593E+04
       254  24  2.500392E+05  1.379887E+05  1.387157E+04  1.810958E+05 -7.091185E+03 -6.670778E+03
       254  25  3.115965E+05  1.463341E+05  5.580261E+04  1.595267E+05 -2.986620E+04 -2.273588E+04
       254  26  2.806677E+05  1.382101E+05  2.891336E+04  1.768871E+05 -1.828600E+04 -1.485042E+04
       254  27  2.625646E+05  1.461978E+05  1.655557E+04  1.872011E+05 -6.985553E+03 -6.591553E+03
       255   1  2.359275E+05  1.309016E+05  8.098247E+03  1.757991E+05  5.788738E+03  5.626665E+03
       255   2  2.373099E+05  1.296002E+05  3.993572E+03  1.774780E+05  3.586312E+03  3.859178E+03
       255   3  2.402575E+05  1.293063E+05  2.166684E+03  1.785776E+05  1.417649E+03  2.046770E+03
       255   4  2.487983E+05  1.368415E+05  1.047051E+04  1.809089E+05  5.677194E+03  5.542983E+03
       255   5  2.474157E+05  1.352785E+05  5.885809E+03  1.819853E+05  3.377532E+03  3.702603E+03
       255   6  2.476193E+05  1.347441E+05  3.663259E+03  1.824824E+05  1.111623E+03  1.817282E+03
       255   7  2.616690E+05  1.427812E+05  1.284268E+04  1.860186E+05  5.565650E+03  5.459303E+03
       255   8  2.575214E+05  1.409567E+05  7.778004E+03  1.864925E+05  3.168750E+03  3.546028E+03
       255   9  2.549811E+05  1.401820E+05  5.159831E+03  1.863871E+05  8.055923E+02  1.587791E+03
       255  10  2.359275E+05  1.309016E+05  8.098124E+03  1.757991E+05  8.725020E-11 -2.111763E-11
       255  11  2.373099E+05  1.296001E+05  3.993520E+03  1.774780E+05  1.958745E-10  1.852979E-11
       255  12  2.402575E+05  1.293063E+05  2.166672E+03  1.785776E+05  2.046998E-10  2.575870E-11
       255  13  2.487983E+05  1.368414E+05  1.047039E+04  1.809088E+05 -1.172977E-11 -1.140925E-12
       255  14  2.474156E+05  1.352784E+05  5.885762E+03  1.819853E+05 -2.629641E-12 -6.955724E-11
       255  15  2.476193E+05  1.347441E+05  3.663251E+03  1.824824E+05  4.569647E-11 -1.062112E-10
       255  16  2.616690E+05  1.427812E+05  1.284256E+04  1.860186E+05 -1.476067E-10 -1.680311E-11
       255  17  2.575214E+05  1.409567E+05  7.777962E+03  1.864925E+05 -2.978191E-10 -1.085792E-10
       255  18  2.549811E+05  1.401820E+05  5.159825E+03  1.863871E+05  4.658281E-11 -2.368128E-10
       255  19  2.359275E+05  1.309016E+05  8.098247E+03  1.757991E+05 -5.788738E+03 -5.626665E+03
       255  20  2.373099E+05  1.296002E+05  3.993572E+03  1.774780E+05 -3.586312E+03 -3.859178E+03
       255  21  2.402575E+05  1.293063E+05  2.166684E+03  1.785776E+05 -1.417649E+03 -2.046770E+03
       255  22  2.487983E+05  1.368415E+05  1.047051E+04  1.809089E+05 -5.677194E+03 -5.542983E+03
       255  23  2.474157E+05  1.352785E+05  5.885809E+03  1.819853E+05 -3.377532E+03 -3.702603E+03
       255  24  2.476193E+05  1.347441E+05  3.663259E+03  1.824824E+05 -1.111623E+03 -1.817282E+03
       255  25  2.616690E+05  1.427812E+05  1.284268E+04  1.860186E+05 -5.565650E+03 -5.459303E+03
       255  26  2.575214E+05  1.409567E+05  7.778004E+03  1.864925E+05 -3.168750E+03 -3.546028E+03
       255  27  2.549811E+05  1.401820E+05  5.159831E+03  1.863871E+05 -8.055923E+02 -1.587791E+03
       256   1  2.410629E+05  1.301844E+05  1.791007E+03  1.791574E+05  1.019750E+03  1.616714E+03
       256   2  2.425219E+05  1.314591E+05  1.609504E+03  1.801213E+05  1.346976E+02  7.288165E+02
       256   3  2.446354E+05  1.325647E+05  2.300196E+03  1.809479E+05 -7.480114E+02 -1.622602E+02
       256   4  2.475146E+05  1.346598E+05  3.055430E+03  1.824445E+05  7.130761E+02  1.386740E+03
       256   5  2.471826E+05  1.347365E+05  2.518485E+03  1.825185E+05 -1.788262E+02  4.937052E+02
       256   6  2.475066E+05  1.346455E+05  2.859643E+03  1.824553E+05 -1.068361E+03 -4.024878E+02
       256   7  2.539665E+05  1.391353E+05  4.319903E+03  1.857317E+05  4.063915E+02  1.156758E+03
       256   8  2.518434E+05  1.380139E+05  3.427466E+03  1.849157E+05 -4.923532E+02  2.585917E+02
       256   9  2.503777E+05  1.367262E+05  3.419067E+03  1.839626E+05 -1.388705E+03 -6.427115E+02
       256  10  2.410629E+05  1.301844E+05  1.791000E+03  1.791574E+05 -2.001086E-10 -1.319385E-10
       256  11  2.425219E+05  1.314591E+05  1.609503E+03  1.801213E+05  1.723961E-10 -4.754271E-11
       256  12  2.446354E+05  1.325647E+05  2.300195E+03  1.809479E+05  6.491795E-11  2.344067E-11
       256  13  2.475146E+05  1.346598E+05  3.055425E+03  1.824445E+05  1.057736E-10 -8.936492E-11
       256  14  2.471826E+05  1.347365E+05  2.518485E+03  1.825185E+05 -1.356102E-10 -6.494221E-11
       256  15  2.475066E+05  1.346455E+05  2.859640E+03  1.824553E+05 -1.635239E-10 -1.141324E-11
       256  16  2.539664E+05  1.391353E+05  4.319900E+03  1.857317E+05  3.278649E-10 -6.539807E-11
       256  17  2.518434E+05  1.380139E+05  3.427466E+03  1.849157E+05 -3.355430E-13 -2.651327E-11
       256  18  2.503777E+05  1.367262E+05  3.419062E+03  1.839626E+05 -7.026278E-11 -2.056426E-11
       256  19  2.410629E+05  1.301844E+05  1.791007E+03  1.791574E+05 -1.019750E+03 -1.616714E+03
       256  20  2.425219E+05  1.314591E+05  1.609504E+03  1.801213E+05 -1.346976E+02 -7.288165E+02
       256  21  2.446354E+05  1.325647E+05  2.300196E+03  1.809479E+05  7.480114E+02  1.622602E+02
       256  22  2.475146E+05  1.346598E+05  3.055430E+03  1.824445E+05 -7.130761E+02 -1.386740E+03
       256  23  2.471826E+05  1.347365E+05  2.518485E+03  1.825185E+05  1.788262E+02 -4.937052E+02
       256  24  2.475066E+05  1.346455E+05  2.859643E+03  1.824553E+05  1.068361E+03  4.024878E+02
       256  25  2.539665E+05  1.391353E+05  4.319903E+03  1.857317E+05 -4.063915E+02 -1.156758E+03
       256  26  2.518434E+05  1.380139E+05  3.427466E+03  1.849157E+05  4.923532E+02 -2.585917E+02
       256  27  2.503777E+05  1.367262E+05  3.419067E+03  1.839626E+05  1.388705E+03  6.427115E+02
       257   1  2.456503E+05  1.335805E+05  3.018486E+03  1.815905E+05 -1.110601E+03 -5.703334E+02
       257   2  2.480648E+05  1.344370E+05  5.276778E+03  1.818034E+05 -3.145991E+03 -2.313626E+03
       257   3  2.519385E+05  1.361572E+05  9.670374E+03  1.814934E+05 -5.195259E+03 -4.038441E+03
       257   4  2.475961E+05  1.347180E+05  3.351432E+03  1.824856E+05 -1.430710E+03 -8.103795E+02
       257   5  2.473893E+05  1.352128E+05  5.247689E+03  1.820551E+05 -3.426135E+03 -2.523710E+03
       257   6  2.486331E+05  1.365627E+05  9.244566E+03  1.811016E+05 -5.435448E+03 -4.218580E+03
       257   7  2.495420E+05  1.358555E+05  3.684379E+03  1.833807E+05 -1.750822E+03 -1.050427E+03
       257   8  2.467139E+05  1.359887E+05  5.218600E+03  1.823067E+05 -3.706282E+03 -2.733796E+03
       257   9  2.453276E+05  1.369681E+05  8.818747E+03  1.807098E+05 -5.675640E+03 -4.398724E+03
       257  10  2.456503E+05  1.335805E+05  3.018483E+03  1.815905E+05 -6.753314E-11  1.308332E-11
       257  11  2.480648E+05  1.344370E+05  5.276749E+03  1.818034E+05  6.254247E-11  1.035592E-10
       257  12  2.519385E+05  1.361572E+05  9.670292E+03  1.814934E+05  2.727498E-11  1.107914E-10
       257  13  2.475961E+05  1.347180E+05  3.351427E+03  1.824856E+05 -4.659830E-11  3.202965E-11
       257  14  2.473893E+05  1.352128E+05  5.247655E+03  1.820550E+05 -3.416413E-11  7.496592E-11
       257  15  2.486331E+05  1.365626E+05  9.244477E+03  1.811016E+05  5.263699E-11  5.088327E-11
       257  16  2.495420E+05  1.358555E+05  3.684371E+03  1.833807E+05 -1.176702E-11  3.261876E-11
       257  17  2.467139E+05  1.359886E+05  5.218561E+03  1.823067E+05 -6.346869E-11  1.622775E-11
       257  18  2.453276E+05  1.369681E+05  8.818650E+03  1.807098E+05 -1.815081E-10 -4.462808E-11
       257  19  2.456503E+05  1.335805E+05  3.018486E+03  1.815905E+05  1.110601E+03  5.703334E+02
       257  20  2.480648E+05  1.344370E+05  5.276778E+03  1.818034E+05  3.145991E+03  2.313626E+03
       257  21  2.519385E+05  1.361572E+05  9.670374E+03  1.814934E+05  5.195259E+03  4.038441E+03
       257  22  2.475961E+05  1.347180E+05  3.351432E+03  1.824856E+05  1.430710E+03  8.103795E+02
       257  23  2.473893E+05  1.352128E+05  5.247689E+03  1.820551E+05  3.426135E+03  2.523710E+03
       257  24  2.486331E+05  1.365627E+05  9.244566E+03  1.811016E+05  5.435448E+03  4.218580E+03
       257  25  2.495420E+05  1.358555E+05  3.684379E+03  1.833807E+05  1.750822E+03  1.050427E+03
       257  26  2.467139E+05  1.359887E+05  5.218600E+03  1.823067E+05  3.706282E+03  2.733796E+03
       257  27  2.453276E+05  1.369681E+05  8.818747E+03  1.807098E+05  5.675640E+03  4.398724E+03
       258   1  2.528467E+05  1.392386E+05  1.290817E+04  1.825977E+05 -6.421598E+03 -5.067835E+03
       258   2  2.689459E+05  1.323899E+05  2.356941E+04  1.736855E+05 -1.587849E+04 -1.220769E+04
       258   3  2.963061E+05  1.395569E+05  4.668911E+04  1.585606E+05 -2.545371E+04 -1.918942E+04
       258   4  2.497268E+05  1.375679E+05  1.222290E+04  1.812644E+05 -6.659276E+03 -5.246074E+03
       258   5  2.509105E+05  1.426519E+05  2.234060E+04  1.753282E+05 -1.577526E+04 -1.213086E+04
       258   6  2.632811E+05  1.616772E+05  4.462118E+04  1.631796E+05 -2.500934E+04 -1.885798E+04
       258   7  2.466070E+05  1.358973E+05  1.153766E+04  1.799311E+05 -6.896947E+03 -5.424309E+03
       258   8  2.328761E+05  1.529144E+05  2.111192E+04  1.769708E+05 -1.567205E+04 -1.205401E+04
       258   9  2.302586E+05  1.837995E+05  4.255367E+04  1.677980E+05 -2.456501E+04 -1.852649E+04
       258  10  2.528466E+05  1.392386E+05  1.290804E+04  1.825977E+05  6.246330E-11 -3.653447E-11
       258  11  2.689456E+05  1.323896E+05  2.356865E+04  1.736853E+05  1.188976E-10  6.190989E-11
       258  12  2.963053E+05  1.395564E+05  4.668720E+04  1.585602E+05  1.711378E-10  1.034236E-10
       258  13  2.497267E+05  1.375679E+05  1.222277E+04  1.812643E+05 -6.154438E-11  2.886652E-11
       258  14  2.509102E+05  1.426517E+05  2.233986E+04  1.753281E+05 -1.011532E-10  4.006872E-11
       258  15  2.632803E+05  1.616766E+05  4.461934E+04  1.631792E+05  8.089302E-11  1.425941E-11
       258  16  2.466069E+05  1.358972E+05  1.153752E+04  1.799310E+05  2.471693E-10  1.193479E-10
       258  17  2.328758E+05  1.529141E+05  2.111119E+04  1.769707E+05 -2.383070E-11  6.236061E-11
       258  18  2.302579E+05  1.837990E+05  4.255189E+04  1.677976E+05 -1.099623E-10 -5.447981E-11
       258  19  2.528467E+05  1.392386E+05  1.290817E+04  1.825977E+05  6.421598E+03  5.067835E+03
       258  20  2.689459E+05  1.323899E+05  2.356941E+04  1.736855E+05  1.587849E+04  1.220769E+04
       258  21  2.963061E+05  1.395569E+05  4.668911E+04  1.585606E+05  2.545371E+04  1.918942E+04
       258  22  2.497268E+05  1.375679E+05  1.222290E+04  1.812644E+05  6.659276E+03  5.246074E+03
       258  23  2.509105E+05  1.426519E+05  2.234060E+04  1.753282E+05  1.577526E+04  1.213086E+04
       258  24  2.632811E+05  1.616772E+05  4.462118E+04  1.631796E+05  2.500934E+04  1.885798E+04
       258  25  2.466070E+05  1.358973E+05  1.153766E+04  1.799311E+05  6.896947E+03  5.424309E+03
       258  26  2.328761E+05  1.529144E+05  2.111192E+04  1.769708E+05  1.567205E+04  1.205401E+04
       258  27  2.302586E+05  1.837995E+05  4.255367E+04  1.677980E+05  2.456501E+04  1.852649E+04
       259   1  2.512876E+05  2.945886E+04  2.909738E+04  2.347826E+04  1.339918E+04 -9.397919E+02
       259   2  2.365445E+05  1.898442E+04  1.769662E+04  1.923840E+04  6.951154E+03 -3.022755E+03
       259   3  2.238744E+05  1.344224E+04  1.172568E+04  1.730006E+04  5.034835E+02 -3.329683E+03
       259   4  1.698717E+05  9.374327E+03  1.006979E+04  1.721107E+04  6.979438E+03 -9.398570E+02
       259   5  1.691690E+05  2.994664E+03  5.107449E+03  1.606033E+04  4.369118E+03 -3.022809E+03
       259   6  1.698730E+05  8.814371E+02  2.910796E+03  1.721101E+04  1.758928E+03 -3.329701E+03
       259   7  8.846210E+04 -1.071050E+04 -8.958073E+03  1.094470E+04  5.605315E+02 -9.397926E+02
       259   8  1.017979E+05 -1.299531E+04 -7.481890E+03  1.288262E+04  1.787355E+03 -3.022837E+03
       259   9  1.158746E+05 -1.167952E+04 -5.904168E+03  1.712197E+04  3.014267E+03 -3.329720E+03
       259  10  2.512874E+05  2.945881E+04  2.909705E+04  2.347827E+04 -3.082419E-11 -3.010878E-12
       259  11  2.365445E+05  1.898439E+04  1.769652E+04  1.923842E+04  1.438474E-10  1.117248E-14
       259  12  2.238744E+05  1.344223E+04  1.172566E+04  1.730006E+04 -1.026758E-10  3.959103E-11
       259  13  1.698717E+05  9.374313E+03  1.006970E+04  1.721107E+04 -1.846627E-10  2.258362E-11
       259  14  1.691690E+05  2.994649E+03  5.107396E+03  1.606035E+04 -9.838017E-11  7.992751E-12
       259  15  1.698730E+05  8.814243E+02  2.910770E+03  1.721101E+04  2.303827E-10 -5.141958E-12
       259  16  8.846210E+04 -1.071050E+04 -8.958075E+03  1.094470E+04 -4.830483E-12 -8.845736E-12
       259  17  1.017979E+05 -1.299532E+04 -7.481913E+03  1.288263E+04  2.044569E-10  8.905632E-13
       259  18  1.158745E+05 -1.167953E+04 -5.904206E+03  1.712198E+04  1.726507E-10 -2.473305E-11
       259  19  2.512876E+05  2.945886E+04  2.909738E+04  2.347826E+04 -1.339918E+04  9.397919E+02
       259  20  2.365445E+05  1.898442E+04  1.769662E+04  1.923840E+04 -6.951154E+03  3.022755E+03
       259  21  2.238744E+05  1.344224E+04  1.172568E+04  1.730006E+04 -5.034835E+02  3.329683E+03
       259  22  1.698717E+05  9.374327E+03  1.006979E+04  1.721107E+04 -6.979438E+03  9.398570E+02
       259  23  1.691690E+05  2.994664E+03  5.107449E+03  1.606033E+04 -4.369118E+03  3.022809E+03
       259  24  1.698730E+05  8.814371E+02  2.910796E+03  1.721101E+04 -1.758928E+03  3.329701E+03
       259  25  8.846210E+04 -1.071050E+04 -8.958073E+03  1.094470E+04 -5.605315E+02  9.397926E+02
       259  26  1.017979E+05 -1.299531E+04 -7.481890E+03  1.288262E+04 -1.787355E+03  3.022837E+03
       259  27  1.158746E+05 -1.167952E+04 -5.904168E+03  1.712197E+04 -3.014267E+03  3.329720E+03
       260   1  2.149369E+05  1.119103E+04  9.520159E+03  1.764033E+04  8.327504E+01 -2.920944E+03
       260   2  2.011061E+05  7.462464E+03  6.335394E+03  1.621171E+04 -1.128282E+03 -2.227972E+03
       260   3  1.875520E+05  4.208792E+03  4.057934E+03  1.721159E+04 -2.339843E+03 -1.336909E+03
       260   4  1.696055E+05  6.822154E+02  2.297427E+03  1.723928E+04  1.366450E+03 -2.920950E+03
       260   5  1.695045E+05  1.903580E+02  1.569749E+03  1.602502E+04  5.829234E+02 -2.227957E+03
       260   6  1.696059E+05  9.918355E+01  1.452289E+03  1.723929E+04 -2.006249E+02 -1.336869E+03
       260   7  1.242762E+05 -9.826704E+03 -4.925352E+03  1.683826E+04  2.649534E+03 -2.920957E+03
       260   8  1.379039E+05 -7.081794E+03 -3.195906E+03  1.583835E+04  2.294046E+03 -2.227944E+03
       260   9  1.516601E+05 -4.010437E+03 -1.153344E+03  1.726698E+04  1.938534E+03 -1.336830E+03
       260  10  2.149369E+05  1.119102E+04  9.520143E+03  1.764034E+04  7.857809E-12  2.792474E-11
       260  11  2.011061E+05  7.462458E+03  6.335383E+03  1.621170E+04  9.506006E-11 -4.340053E-11
       260  12  1.875520E+05  4.208788E+03  4.057920E+03  1.721158E+04 -1.009313E-10  3.622255E-12
       260  13  1.696055E+05  6.822057E+02  2.297407E+03  1.723928E+04  1.894486E-10 -1.385876E-11
       260  14  1.695045E+05  1.903525E+02  1.569739E+03  1.602503E+04  1.551845E-10 -5.969660E-11
       260  15  1.696059E+05  9.918162E+01  1.452286E+03  1.723929E+04 -1.446568E-10 -7.090871E-11
       260  16  1.242762E+05 -9.826715E+03 -4.925382E+03  1.683826E+04  6.162862E-11 -3.812015E-11
       260  17  1.379039E+05 -7.081800E+03 -3.195925E+03  1.583836E+04  1.252454E-10 -5.248252E-11
       260  18  1.516601E+05 -4.010440E+03 -1.153354E+03  1.726699E+04  2.448734E-10 -1.077044E-10
       260  19  2.149369E+05  1.119103E+04  9.520159E+03  1.764033E+04 -8.327504E+01  2.920944E+03
       260  20  2.011061E+05  7.462464E+03  6.335394E+03  1.621171E+04  1.128282E+03  2.227972E+03
       260  21  1.875520E+05  4.208792E+03  4.057934E+03  1.721159E+04  2.339843E+03  1.336909E+03
       260  22  1.696055E+05  6.822154E+02  2.297427E+03  1.723928E+04 -1.366450E+03  2.920950E+03
       260  23  1.695045E+05  1.903580E+02  1.569749E+03  1.602502E+04 -5.829234E+02  2.227957E+03
       260  24  1.696059E+05  9.918355E+01  1.452289E+03  1.723929E+04  2.006249E+02  1.336869E+03
       260  25  1.242762E+05 -9.826704E+03 -4.925352E+03  1.683826E+04 -2.649534E+03  2.920957E+03
       260  26  1.379039E+05 -7.081794E+03 -3.195906E+03  1.583835E+04 -2.294046E+03  2.227944E+03
       260  27  1.516601E+05 -4.010437E+03 -1.153344E+03  1.726698E+04 -1.938534E+03  1.336830E+03
       261   1  1.789994E+05  2.239106E+03  2.861345E+03  1.730834E+04 -2.598120E+03 -7.470149E+02
       261   2  1.651775E+05 -6.868935E+02  1.400597E+03  1.572166E+04 -3.445522E+03  1.832209E+02
       261   3  1.516171E+05 -3.009173E+03  6.424005E+02  1.656827E+04 -4.292908E+03  9.926509E+02
       261   4  1.696291E+05  1.070797E+02  1.569643E+03  1.724034E+04 -4.578645E+02 -7.469702E+02
       261   5  1.694757E+05  3.359155E+02  2.217180E+03  1.602370E+04 -1.566291E+03  1.832562E+02
       261   6  1.696289E+05  1.213776E+03  3.748473E+03  1.724033E+04 -2.674719E+03  9.926762E+02
       261   7  1.602589E+05 -2.024948E+03  2.779579E+02  1.717235E+04  1.682360E+03 -7.469259E+02
       261   8  1.737739E+05  1.358726E+03  3.033775E+03  1.632574E+04  3.129526E+02  1.832933E+02
       261   9  1.876410E+05  5.436710E+03  6.854544E+03  1.791242E+04 -1.056484E+03  9.927050E+02
       261  10  1.789994E+05  2.239103E+03  2.861331E+03  1.730834E+04  1.227852E-10  2.602157E-11
       261  11  1.651775E+05 -6.868967E+02  1.400575E+03  1.572166E+04 -4.411897E-11 -1.023220E-11
       261  12  1.516171E+05 -3.009179E+03  6.423640E+02  1.656827E+04 -3.449397E-11 -3.760641E-11
       261  13  1.696291E+05  1.070791E+02  1.569642E+03  1.724034E+04 -5.679805E-11 -6.691704E-11
       261  14  1.694757E+05  3.359148E+02  2.217175E+03  1.602370E+04  2.949140E-11 -7.709632E-11
       261  15  1.696289E+05  1.213773E+03  3.748457E+03  1.724033E+04  2.997078E-11 -5.414093E-11
       261  16  1.602589E+05 -2.024949E+03  2.779516E+02  1.717235E+04  1.043639E-10 -1.456227E-10
       261  17  1.737739E+05  1.358726E+03  3.033775E+03  1.632574E+04  1.317573E-10 -1.571306E-10
       261  18  1.876410E+05  5.436709E+03  6.854540E+03  1.791242E+04  8.182675E-11 -4.436074E-11
       261  19  1.789994E+05  2.239106E+03  2.861345E+03  1.730834E+04  2.598120E+03  7.470149E+02
       261  20  1.651775E+05 -6.868935E+02  1.400597E+03  1.572166E+04  3.445522E+03 -1.832209E+02
       261  21  1.516171E+05 -3.009173E+03  6.424005E+02  1.656827E+04  4.292908E+03 -9.926509E+02
       261  22  1.696291E+05  1.070797E+02  1.569643E+03  1.724034E+04  4.578645E+02  7.469702E+02
       261  23  1.694757E+05  3.359155E+02  2.217180E+03  1.602370E+04  1.566291E+03 -1.832562E+02
       261  24  1.696289E+05  1.213776E+03  3.748473E+03  1.724033E+04  2.674719E+03 -9.926762E+02
       261  25  1.602589E+05 -2.024948E+03  2.779579E+02  1.717235E+04 -1.682360E+03  7.469259E+02
       261  26  1.737739E+05  1.358726E+03  3.033775E+03  1.632574E+04 -3.129526E+02 -1.832933E+02
       261  27  1.876410E+05  5.436710E+03  6.854544E+03  1.791242E+04  1.056484E+03 -9.927050E+02
       262   1  1.434668E+05 -4.682017E+03  3.241542E+02  1.708919E+04 -4.919549E+03  1.472068E+03
       262   2  1.287553E+05 -4.282502E+03  1.144937E+03  1.045895E+04 -6.866500E+03  1.608889E+03
       262   3  1.160664E+05  3.190507E+03  5.001610E+03  6.176997E+03 -8.813402E+03  5.384196E+02
       262   4  1.701107E+05  1.563735E+03  4.913689E+03  1.722139E+04 -3.320050E+03  1.472090E+03
       262   5  1.688725E+05  5.292652E+03  8.909993E+03  1.604730E+04 -7.875463E+03  1.608807E+03
       262   6  1.701090E+05  1.654739E+04  1.775304E+04  1.722132E+04 -1.243085E+04  5.382350E+02
       262   7  1.967553E+05  7.809450E+03  9.503209E+03  1.735359E+04 -1.720485E+03  1.472113E+03
       262   8  2.089914E+05  1.486783E+04  1.667499E+04  2.163603E+04 -8.884489E+03  1.608707E+03
       262   9  2.241546E+05  2.990454E+04  3.050439E+04  2.826662E+04 -1.604860E+04  5.379217E+02
       262  10  1.434667E+05 -4.682026E+03  3.241047E+02  1.708919E+04  4.148034E-11 -6.580402E-11
       262  11  1.287553E+05 -4.282517E+03  1.144844E+03  1.045895E+04 -1.719738E-10 -5.625521E-11
       262  12  1.160663E+05  3.190486E+03  5.001463E+03  6.177001E+03  7.242059E-11 -2.724711E-11
       262  13  1.701107E+05  1.563729E+03  4.913664E+03  1.722139E+04 -5.479348E-11 -3.160687E-11
       262  14  1.688725E+05  5.292632E+03  8.909872E+03  1.604731E+04 -3.579198E-11 -9.294954E-12
       262  15  1.701089E+05  1.654735E+04  1.775275E+04  1.722133E+04 -1.185424E-10 -1.167471E-11
       262  16  1.967553E+05  7.809447E+03  9.503199E+03  1.735359E+04  2.769492E-12 -5.169681E-12
       262  17  2.089913E+05  1.486780E+04  1.667484E+04  2.163604E+04 -2.247763E-11  6.207210E-12
       262  18  2.241543E+05  2.990447E+04  3.050391E+04  2.826662E+04  1.493733E-10  8.059760E-12
       262  19  1.434668E+05 -4.682017E+03  3.241542E+02  1.708919E+04  4.919549E+03 -1.472068E+03
       262  20  1.287553E+05 -4.282502E+03  1.144937E+03  1.045895E+04  6.866500E+03 -1.608889E+03
       262  21  1.160664E+05  3.190507E+03  5.001610E+03  6.176997E+03  8.813402E+03 -5.384196E+02
       262  22  1.701107E+05  1.563735E+03  4.913689E+03  1.722139E+04  3.320050E+03 -1.472090E+03
       262  23  1.688725E+05  5.292652E+03  8.909993E+03  1.604730E+04  7.875463E+03 -1.608807E+03
       262  24  1.701090E+05  1.654739E+04  1.775304E+04  1.722132E+04  1.243085E+04 -5.382350E+02
       262  25  1.967553E+05  7.809450E+03  9.503209E+03  1.735359E+04  1.720485E+03 -1.472113E+03
       262  26  2.089914E+05  1.486783E+04  1.667499E+04  2.163603E+04  8.884489E+03 -1.608707E+03
       262  27  2.241546E+05  2.990454E+04  3.050439E+04  2.826662E+04  1.604860E+04 -5.379217E+02
       263   1 -8.379828E+04 -2.465177E+05 -8.352360E+04  9.070718E+04 -2.236709E+03 -3.565278E+04
       263   2 -4.868418E+04 -1.864721E+05 -4.811386E+04  7.639165E+04 -6.696869E+03 -1.673773E+04
       263   3 -2.850777E+04 -1.326212E+05 -2.875617E+04  7.183405E+04 -6.201908E+03  2.179387E+03
       263   4 -2.852446E+04 -2.292231E+04 -3.075238E+04  7.159557E+04 -2.233035E+03 -2.066663E+04
       263   5 -9.135030E+03 -2.074964E+04 -1.609111E+04  6.671415E+04 -6.695655E+03 -1.244949E+04
       263   6 -2.823389E+03 -2.291578E+04 -1.004921E+04  7.159154E+04 -6.203190E+03 -4.232326E+03
       263   7  2.674728E+04  2.007203E+05  2.201643E+04  5.247703E+04 -2.230285E+03 -5.675099E+03
       263   8  3.041285E+04  1.449995E+05  1.593049E+04  5.703399E+04 -6.694575E+03 -8.160122E+03
       263   9  2.286037E+04  8.680158E+04  8.657503E+03  7.134899E+04 -6.204466E+03 -1.064513E+04
       263  10 -8.379863E+04 -2.465191E+05 -8.352600E+04  9.070711E+04  2.909581E-13 -4.854439E-12
       263  11 -4.868431E+04 -1.864725E+05 -4.811448E+04  7.639156E+04 -5.767224E-11  1.498991E-10
       263  12 -2.850781E+04 -1.326212E+05 -2.875625E+04  7.183407E+04 -1.455544E-11  1.538846E-10
       263  13 -2.852458E+04 -2.292277E+04 -3.075319E+04  7.159553E+04 -3.552585E-11  4.917469E-11
       263  14 -9.135120E+03 -2.074982E+04 -1.609148E+04  6.671408E+04  5.830220E-11  1.401659E-11
       263  15 -2.823436E+03 -2.291581E+04 -1.004932E+04  7.159152E+04 -3.095124E-11  1.014079E-10
       263  16  2.674726E+04  2.007203E+05  2.201636E+04  5.247702E+04 -5.652755E-12  3.663014E-11
       263  17  3.041279E+04  1.449994E+05  1.593028E+04  5.703395E+04 -2.787465E-10 -9.760180E-11
       263  18  2.286030E+04  8.680145E+04  8.657218E+03  7.134893E+04  2.854742E-10 -1.745820E-10
       263  19 -8.379828E+04 -2.465177E+05 -8.352360E+04  9.070718E+04  2.236709E+03  3.565278E+04
       263  20 -4.868418E+04 -1.864721E+05 -4.811386E+04  7.639165E+04  6.696869E+03  1.673773E+04
       263  21 -2.850777E+04 -1.326212E+05 -2.875617E+04  7.183405E+04  6.201908E+03 -2.179387E+03
       263  22 -2.852446E+04 -2.292231E+04 -3.075238E+04  7.159557E+04  2.233035E+03  2.066663E+04
       263  23 -9.135030E+03 -2.074964E+04 -1.609111E+04  6.671415E+04  6.695655E+03  1.244949E+04
       263  24 -2.823389E+03 -2.291578E+04 -1.004921E+04  7.159154E+04  6.203190E+03  4.232326E+03
       263  25  2.674728E+04  2.007203E+05  2.201643E+04  5.247703E+04  2.230285E+03  5.675099E+03
       263  26  3.041285E+04  1.449995E+05  1.593049E+04  5.703399E+04  6.694575E+03  8.160122E+03
       263  27  2.286037E+04  8.680158E+04  8.657503E+03  7.134899E+04  6.204466E+03  1.064513E+04
       264   1 -1.951180E+04 -9.599841E+04 -2.108904E+04  7.297103E+04 -4.258198E+03  3.676339E+03
       264   2 -5.216572E+03 -3.849410E+04 -1.030240E+04  6.645068E+04 -1.213648E+03  7.761818E+03
       264   3  6.536774E+03  1.784407E+04 -2.811937E+03  7.001367E+04  1.915983E+03  1.184760E+04
       264   4 -2.260201E+03 -2.220318E+04 -8.628192E+03  7.166381E+04 -4.259605E+03 -2.805617E+03
       264   5 -1.343169E+03 -2.163414E+04 -7.796432E+03  6.662214E+04 -1.215118E+03  1.096004E+03
       264   6 -2.935934E+03 -2.220254E+04 -1.013315E+04  7.166392E+04  1.914465E+03  4.997584E+03
       264   7  1.499114E+04  5.159751E+04  3.832644E+03  7.035642E+04 -4.260985E+03 -9.288318E+03
       264   8  2.530245E+03 -4.773793E+03 -5.290302E+03  6.679359E+04 -1.216591E+03 -5.569983E+03
       264   9 -1.240870E+04 -6.224749E+04 -1.745424E+04  7.331407E+04  1.912911E+03 -1.852005E+03
       264  10 -1.951182E+04 -9.599843E+04 -2.108910E+04  7.297104E+04  4.375329E-11 -1.811061E-10
       264  11 -5.216589E+03 -3.849416E+04 -1.030252E+04  6.645069E+04  1.253285E-11  3.376986E-11
       264  12  6.536733E+03  1.784392E+04 -2.812208E+03  7.001365E+04  1.341976E-10 -1.323841E-11
       264  13 -2.260223E+03 -2.220320E+04 -8.628241E+03  7.166380E+04  2.231112E-10  1.228633E-10
       264  14 -1.343171E+03 -2.163414E+04 -7.796437E+03  6.662214E+04 -9.253071E-11  1.824058E-11
       264  15 -2.935944E+03 -2.220257E+04 -1.013320E+04  7.166391E+04 -5.414023E-12  1.267954E-10
       264  16  1.499110E+04  5.159741E+04  3.832447E+03  7.035639E+04  1.117840E-10  2.280051E-10
       264  17  2.530235E+03 -4.773827E+03 -5.290363E+03  6.679359E+04 -6.416634E-11  1.170558E-10
       264  18 -1.240870E+04 -6.224750E+04 -1.745426E+04  7.331407E+04 -4.585221E-11  3.066173E-12
       264  19 -1.951180E+04 -9.599841E+04 -2.108904E+04  7.297103E+04  4.258198E+03 -3.676339E+03
       264  20 -5.216572E+03 -3.849410E+04 -1.030240E+04  6.645068E+04  1.213648E+03 -7.761818E+03
       264  21  6.536774E+03  1.784407E+04 -2.811937E+03  7.001367E+04 -1.915983E+03 -1.184760E+04
       264  22 -2.260201E+03 -2.220318E+04 -8.628192E+03  7.166381E+04  4.259605E+03  2.805617E+03
       264  23 -1.343169E+03 -2.163414E+04 -7.796432E+03  6.662214E+04  1.215118E+03 -1.096004E+03
       264  24 -2.935934E+03 -2.220254E+04 -1.013315E+04  7.166392E+04 -1.914465E+03 -4.997584E+03
       264  25  1.499114E+04  5.159751E+04  3.832644E+03  7.035642E+04  4.260985E+03  9.288318E+03
       264  26  2.530245E+03 -4.773793E+03 -5.290302E+03  6.679359E+04  1.216591E+03  5.569983E+03
       264  27 -1.240870E+04 -6.224749E+04 -1.745424E+04  7.331407E+04 -1.912911E+03  1.852005E+03
       265   1  1.415786E+04  5.268603E+04  1.006861E+03  7.130138E+04  3.937379E+03  1.349350E+04
       265   2  1.934816E+04  1.117357E+05  4.911328E+03  5.372730E+04  4.959263E+03  1.512714E+04
       265   3  8.614818E+03  1.665951E+05  3.771303E+03  4.596807E+04  1.737085E+03  1.676115E+04
       265   4 -3.715659E+03 -2.323626E+04 -1.244095E+04  7.160421E+04  3.935914E+03  6.700963E+03
       265   5 -1.227094E+04 -2.034596E+04 -2.113663E+04  6.669913E+04  4.960140E+03  1.750119E+04
       265   6 -3.834363E+04 -2.324166E+04 -4.124332E+04  7.160989E+04  1.739953E+03  2.830140E+04
       265   7 -2.158947E+04 -9.915282E+04 -2.588881E+04  7.190700E+04  3.934443E+03 -9.077074E+01
       265   8 -4.389045E+04 -1.524105E+05 -4.718532E+04  7.966815E+04  4.961117E+03  1.987474E+04
       265   9 -8.530212E+04 -2.130436E+05 -8.625959E+04  9.724383E+04  1.743775E+03  3.983814E+04
       265  10  1.415779E+04  5.268583E+04  1.006489E+03  7.130134E+04 -7.084267E-11 -1.500371E-10
       265  11  1.934807E+04  1.117354E+05  4.910852E+03  5.372724E+04 -5.253260E-11  5.922144E-11
       265  12  8.614739E+03  1.665948E+05  3.770770E+03  4.596805E+04  2.992040E-13  7.507780E-11
       265  13 -3.715688E+03 -2.323631E+04 -1.244107E+04  7.160419E+04 -8.814750E-11  1.220903E-10
       265  14 -1.227105E+04 -2.034630E+04 -2.113725E+04  6.669906E+04 -2.964028E-11  3.682146E-12
       265  15 -3.834384E+04 -2.324252E+04 -4.124483E+04  7.160985E+04 -8.337725E-11  8.534530E-11
       265  16 -2.158948E+04 -9.915282E+04 -2.588884E+04  7.190700E+04  6.587334E-11  2.214803E-10
       265  17 -4.389058E+04 -1.524110E+05 -4.718611E+04  7.966807E+04 -1.991010E-12  6.762248E-11
       265  18 -8.530254E+04 -2.130453E+05 -8.626258E+04  9.724378E+04  3.898625E-11 -1.022600E-10
       265  19  1.415786E+04  5.268603E+04  1.006861E+03  7.130138E+04 -3.937379E+03 -1.349350E+04
       265  20  1.934816E+04  1.117357E+05  4.911328E+03  5.372730E+04 -4.959263E+03 -1.512714E+04
       265  21  8.614818E+03  1.665951E+05  3.771303E+03  4.596807E+04 -1.737085E+03 -1.676115E+04
       265  22 -3.715659E+03 -2.323626E+04 -1.244095E+04  7.160421E+04 -3.935914E+03 -6.700963E+03
       265  23 -1.227094E+04 -2.034596E+04 -2.113663E+04  6.669913E+04 -4.960140E+03 -1.750119E+04
       265  24 -3.834363E+04 -2.324166E+04 -4.124332E+04  7.160989E+04 -1.739953E+03 -2.830140E+04
       265  25 -2.158947E+04 -9.915282E+04 -2.588881E+04  7.190700E+04 -3.934443E+03  9.077074E+01
       265  26 -4.389045E+04 -1.524105E+05 -4.718532E+04  7.966815E+04 -4.961117E+03 -1.987474E+04
       265  27 -8.530212E+04 -2.130436E+05 -8.625959E+04  9.724383E+04 -1.743775E+03 -3.983814E+04
       266   1  1.272222E+05  1.114215E+05  2.084830E+04  1.014819E+05  1.013809E+04  7.553859E+03
       266   2  1.225587E+05  9.381084E+04  1.012654E+04  1.017445E+05  5.918482E+03  4.469770E+03
       266   3  1.209959E+05  8.333555E+04  4.717592E+03  9.996356E+04  1.512254E+03  1.634452E+03
       266   4  1.286568E+05  9.428340E+04  1.776183E+04  9.385558E+04  9.980975E+03  7.435749E+03
       266   5  1.244663E+05  8.597545E+04  8.907711E+03  9.847649E+04  6.298680E+03  4.754820E+03
       266   6  1.232599E+05  8.468630E+04  4.900059E+03  1.010540E+05  2.429862E+03  2.322620E+03
       266   7  1.300916E+05  7.714561E+04  1.467535E+04  8.622913E+04  9.823857E+03  7.317645E+03
       266   8  1.263740E+05  7.814021E+04  7.688900E+03  9.520851E+04  6.678881E+03  5.039862E+03
       266   9  1.255239E+05  8.603702E+04  5.082513E+03  1.021443E+05  3.347454E+03  3.010774E+03
       266  10  1.272221E+05  1.114214E+05  2.084800E+04  1.014818E+05  5.953773E-11  3.265310E-11
       266  11  1.225587E+05  9.381081E+04  1.012643E+04  1.017444E+05 -1.878550E-12 -1.058326E-11
       266  12  1.209959E+05  8.333555E+04  4.717583E+03  9.996356E+04  1.165264E-10 -2.153240E-11
       266  13  1.286566E+05  9.428332E+04  1.776154E+04  9.385552E+04  1.702384E-10 -6.936181E-13
       266  14  1.244663E+05  8.597542E+04  8.907594E+03  9.847647E+04 -2.171315E-10 -2.940648E-11
       266  15  1.232599E+05  8.468630E+04  4.900038E+03  1.010539E+05  7.419455E-11 -4.476264E-12
       266  16  1.300914E+05  7.714553E+04  1.467507E+04  8.622907E+04 -6.492689E-11 -1.891886E-11
       266  17  1.263739E+05  7.814017E+04  7.688769E+03  9.520848E+04  8.909752E-11 -1.656575E-12
       266  18  1.255239E+05  8.603701E+04  5.082475E+03  1.021443E+05 -6.817978E-11  1.833805E-11
       266  19  1.272222E+05  1.114215E+05  2.084830E+04  1.014819E+05 -1.013809E+04 -7.553859E+03
       266  20  1.225587E+05  9.381084E+04  1.012654E+04  1.017445E+05 -5.918482E+03 -4.469770E+03
       266  21  1.209959E+05  8.333555E+04  4.717592E+03  9.996356E+04 -1.512254E+03 -1.634452E+03
       266  22  1.286568E+05  9.428340E+04  1.776183E+04  9.385558E+04 -9.980975E+03 -7.435749E+03
       266  23  1.244663E+05  8.597545E+04  8.907711E+03  9.847649E+04 -6.298680E+03 -4.754820E+03
       266  24  1.232599E+05  8.468630E+04  4.900059E+03  1.010540E+05 -2.429862E+03 -2.322620E+03
       266  25  1.300916E+05  7.714561E+04  1.467535E+04  8.622913E+04 -9.823857E+03 -7.317645E+03
       266  26  1.263740E+05  7.814021E+04  7.688900E+03  9.520851E+04 -6.678881E+03 -5.039862E+03
       266  27  1.255239E+05  8.603702E+04  5.082513E+03  1.021443E+05 -3.347454E+03 -3.010774E+03
       267   1  1.165100E+05  8.098001E+04  2.778196E+03  9.825266E+04  8.014984E+02  1.503059E+03
       267   2  1.114763E+05  7.540349E+04  5.554742E+01  9.543772E+04 -4.588246E+02  1.245888E+03
       267   3  1.055413E+05  7.168031E+04 -1.750237E+03  9.285319E+04 -1.739890E+03  1.016400E+03
       267   4  1.228192E+05  8.429225E+04  3.727975E+03  1.009918E+05  1.722998E+03  2.194139E+03
       267   5  1.230694E+05  8.300420E+04  2.176376E+03  1.011524E+05  5.224650E+02  1.981805E+03
       267   6  1.224054E+05  8.355651E+04  1.489761E+03  1.015434E+05 -6.988318E+02  1.797140E+03
       267   7  1.291284E+05  8.760451E+04  4.677760E+03  1.037309E+05  2.644510E+03  2.885226E+03
       267   8  1.346628E+05  9.060509E+04  4.297256E+03  1.068673E+05  1.503791E+03  2.717748E+03
       267   9  1.392701E+05  9.543318E+04  4.729899E+03  1.102342E+05  3.422885E+02  2.577927E+03
       267  10  1.165100E+05  8.098001E+04  2.778191E+03  9.825266E+04  1.963937E-11  9.381236E-12
       267  11  1.114763E+05  7.540349E+04  5.554411E+01  9.543772E+04 -2.219146E-11  9.458087E-12
       267  12  1.055413E+05  7.168031E+04 -1.750245E+03  9.285319E+04 -9.434395E-11 -1.205336E-12
       267  13  1.228192E+05  8.429225E+04  3.727960E+03  1.009918E+05 -1.021655E-10 -5.810469E-12
       267  14  1.230694E+05  8.300420E+04  2.176368E+03  1.011524E+05 -2.417231E-10 -2.879164E-11
       267  15  1.224054E+05  8.355651E+04  1.489754E+03  1.015434E+05 -8.450820E-11 -2.032278E-11
       267  16  1.291284E+05  8.760450E+04  4.677731E+03  1.037309E+05  3.293292E-11 -2.067316E-11
       267  17  1.346628E+05  9.060508E+04  4.297238E+03  1.068673E+05 -1.115424E-10 -6.985564E-11
       267  18  1.392701E+05  9.543318E+04  4.729887E+03  1.102342E+05 -5.035172E-13 -5.656403E-11
       267  19  1.165100E+05  8.098001E+04  2.778196E+03  9.825266E+04 -8.014984E+02 -1.503059E+03
       267  20  1.114763E+05  7.540349E+04  5.554742E+01  9.543772E+04  4.588246E+02 -1.245888E+03
       267  21  1.055413E+05  7.168031E+04 -1.750237E+03  9.285319E+04  1.739890E+03 -1.016400E+03
       267  22  1.228192E+05  8.429225E+04  3.727975E+03  1.009918E+05 -1.722998E+03 -2.194139E+03
       267  23  1.230694E+05  8.300420E+04  2.176376E+03  1.011524E+05 -5.224650E+02 -1.981805E+03
       267  24  1.224054E+05  8.355651E+04  1.489761E+03  1.015434E+05  6.988318E+02 -1.797140E+03
       267  25  1.291284E+05  8.760451E+04  4.677760E+03  1.037309E+05 -2.644510E+03 -2.885226E+03
       267  26  1.346628E+05  9.060509E+04  4.297256E+03  1.068673E+05 -1.503791E+03 -2.717748E+03
       267  27  1.392701E+05  9.543318E+04  4.729899E+03  1.102342E+05 -3.422885E+02 -2.577927E+03
       268   1  1.019200E+05  6.926487E+04 -2.614219E+03  9.106892E+04 -2.147953E+03  1.151579E+03
       268   2  9.693537E+04  6.459668E+04 -3.705880E+03  8.798112E+04 -3.005947E+03  1.247382E+03
       268   3  9.074021E+04  6.138765E+04 -4.354802E+03  8.527375E+04 -3.850679E+03  1.325565E+03
       268   4  1.223729E+05  8.352959E+04  1.344556E+03  1.015350E+05 -1.106676E+03  1.932476E+03
       268   5  1.229845E+05  8.281461E+04  1.364076E+03  1.013307E+05 -2.002812E+03  1.999650E+03
       268   6  1.223938E+05  8.356689E+04  1.859368E+03  1.015068E+05 -2.885701E+03  2.049200E+03
       268   7  1.428259E+05  9.779422E+04  5.303159E+03  1.120012E+05 -6.537739E+01  2.713389E+03
       268   8  1.490342E+05  1.010327E+05  6.433908E+03  1.146808E+05 -9.996343E+02  2.751951E+03
       268   9  1.540485E+05  1.057468E+05  8.073508E+03  1.177407E+05 -1.920658E+03  2.772883E+03
       268  10  1.019200E+05  6.926487E+04 -2.614231E+03  9.106892E+04 -2.627529E-10 -9.092081E-11
       268  11  9.693536E+04  6.459667E+04 -3.705900E+03  8.798112E+04 -1.849713E-10  1.304337E-11
       268  12  9.074020E+04  6.138764E+04 -4.354834E+03  8.527376E+04 -8.024988E-11  3.046016E-11
       268  13  1.223729E+05  8.352958E+04  1.344547E+03  1.015350E+05 -1.108105E-10 -9.014986E-12
       268  14  1.229845E+05  8.281460E+04  1.364061E+03  1.013307E+05 -1.461732E-10  1.137585E-11
       268  15  1.223937E+05  8.356688E+04  1.859345E+03  1.015068E+05 -5.611479E-11 -1.571431E-11
       268  16  1.428259E+05  9.779421E+04  5.303146E+03  1.120012E+05  9.976502E-11  6.422524E-11
       268  17  1.490342E+05  1.010327E+05  6.433892E+03  1.146808E+05 -5.216185E-11  4.462110E-11
       268  18  1.540485E+05  1.057467E+05  8.073487E+03  1.177407E+05  1.651339E-11 -6.623483E-11
       268  19  1.019200E+05  6.926487E+04 -2.614219E+03  9.106892E+04  2.147953E+03 -1.151579E+03
       268  20  9.693537E+04  6.459668E+04 -3.705880E+03  8.798112E+04  3.005947E+03 -1.247382E+03
       268  21  9.074021E+04  6.138765E+04 -4.354802E+03  8.527375E+04  3.850679E+03 -1.325565E+03
       268  22  1.223729E+05  8.352959E+04  1.344556E+03  1.015350E+05  1.106676E+03 -1.932476E+03
       268  23  1.229845E+05  8.281461E+04  1.364076E+03  1.013307E+05  2.002812E+03 -1.999650E+03
       268  24  1.223938E+05  8.356689E+04  1.859368E+03  1.015068E+05  2.885701E+03 -2.049200E+03
       268  25  1.428259E+05  9.779422E+04  5.303159E+03  1.120012E+05  6.537739E+01 -2.713389E+03
       268  26  1.490342E+05  1.010327E+05  6.433908E+03  1.146808E+05  9.996343E+02 -2.751951E+03
       268  27  1.540485E+05  1.057468E+05  8.073508E+03  1.177407E+05  1.920658E+03 -2.772883E+03
       269   1  8.717146E+04  5.908848E+04 -4.654569E+03  8.353672E+04 -4.333317E+03  1.379672E+03
       269   2  8.289404E+04  5.404035E+04 -4.415857E+03  7.993266E+04 -5.764985E+03  8.649708E+02
       269   3  7.799663E+04  5.118731E+04 -2.953423E+03  7.640495E+04 -7.065098E+03  1.748306E+02
       269   4  1.224701E+05  8.362041E+04  2.309634E+03  1.015338E+05 -3.370987E+03  2.101312E+03
       269   5  1.231326E+05  8.318154E+04  3.854256E+03  1.009707E+05 -5.181796E+03  1.302262E+03
       269   6  1.232573E+05  8.502012E+04  6.951610E+03  1.004841E+05 -6.861042E+03  3.277836E+02
       269   7  1.577711E+05  1.081537E+05  9.274087E+03  1.195324E+05 -2.408563E+03  2.823022E+03
       269   8  1.633731E+05  1.123238E+05  1.212432E+04  1.220104E+05 -4.598558E+03  1.739592E+03
       269   9  1.685193E+05  1.188536E+05  1.685618E+04  1.245649E+05 -6.656971E+03  4.807493E+02
       269  10  8.717144E+04  5.908847E+04 -4.654608E+03  8.353673E+04  6.977236E-11 -3.454253E-11
       269  11  8.289400E+04  5.404034E+04 -4.415921E+03  7.993266E+04  1.771254E-10 -1.081743E-10
       269  12  7.799657E+04  5.118729E+04 -2.953517E+03  7.640495E+04  1.833921E-10 -8.430634E-11
       269  13  1.224701E+05  8.362040E+04  2.309604E+03  1.015338E+05 -4.598023E-12 -5.505634E-11
       269  14  1.231326E+05  8.318153E+04  3.854202E+03  1.009707E+05  1.646626E-10 -4.084950E-11
       269  15  1.232572E+05  8.502011E+04  6.951522E+03  1.004841E+05  1.977157E-10 -8.552290E-11
       269  16  1.577711E+05  1.081537E+05  9.274061E+03  1.195324E+05  1.856161E-11 -4.467862E-11
       269  17  1.633731E+05  1.123238E+05  1.212427E+04  1.220104E+05  4.974589E-11 -5.893477E-11
       269  18  1.685193E+05  1.188536E+05  1.685610E+04  1.245649E+05 -1.129205E-11 -1.213512E-10
       269  19  8.717146E+04  5.908848E+04 -4.654569E+03  8.353672E+04  4.333317E+03 -1.379672E+03
       269  20  8.289404E+04  5.404035E+04 -4.415857E+03  7.993266E+04  5.764985E+03 -8.649708E+02
       269  21  7.799663E+04  5.118731E+04 -2.953423E+03  7.640495E+04  7.065098E+03 -1.748306E+02
       269  22  1.224701E+05  8.362041E+04  2.309634E+03  1.015338E+05  3.370987E+03 -2.101312E+03
       269  23  1.231326E+05  8.318154E+04  3.854256E+03  1.009707E+05  5.181796E+03 -1.302262E+03
       269  24  1.232573E+05  8.502012E+04  6.951610E+03  1.004841E+05  6.861042E+03 -3.277836E+02
       269  25  1.577711E+05  1.081537E+05  9.274087E+03  1.195324E+05  2.408563E+03 -2.823022E+03
       269  26  1.633731E+05  1.123238E+05  1.212432E+04  1.220104E+05  4.598558E+03 -1.739592E+03
       269  27  1.685193E+05  1.188536E+05  1.685618E+04  1.245649E+05  6.656971E+03 -4.807493E+02
       270   1  7.425471E+04  5.033968E+04 -1.727873E+03  7.499823E+04 -8.082240E+03 -4.225265E+02
       270   2  8.038911E+04  3.942267E+04  3.001879E+03  6.477105E+04 -1.140849E+04 -3.916731E+03
       270   3  9.285007E+04  3.992310E+04  1.425347E+04  5.025787E+04 -1.364863E+04 -8.859232E+03
       270   4  1.241189E+05  8.575365E+04  9.235334E+03  1.006004E+05 -7.901130E+03 -2.867774E+02
       270   5  1.257679E+05  8.886803E+04  1.695458E+04  9.587134E+04 -1.435695E+04 -6.127996E+03
       270   6  1.344215E+05  1.040777E+05  3.391116E+04  8.685637E+04 -1.972678E+04 -1.341772E+04
       270   7  1.739861E+05  1.211693E+05  2.019844E+04  1.262050E+05 -7.720002E+03 -1.510135E+02
       270   8  1.711498E+05  1.383175E+05  3.090740E+04  1.269752E+05 -1.730572E+04 -8.339654E+03
       270   9  1.759966E+05  1.682401E+05  5.356932E+04  1.234597E+05 -2.580559E+04 -1.797734E+04
       270  10  7.425464E+04  5.033966E+04 -1.727996E+03  7.499823E+04  3.298293E-11 -2.021526E-10
       270  11  8.038897E+04  3.942262E+04  3.001606E+03  6.477102E+04  5.311464E-12  1.593249E-11
       270  12  9.284985E+04  3.992296E+04  1.425297E+04  5.025777E+04 -5.109364E-11  6.193750E-11
       270  13  1.241188E+05  8.575364E+04  9.235216E+03  1.006004E+05  1.885471E-10 -1.335084E-10
       270  14  1.257677E+05  8.886793E+04  1.695412E+04  9.587127E+04 -2.605868E-11 -2.414594E-10
       270  15  1.344211E+05  1.040774E+05  3.391009E+04  8.685616E+04  2.707224E-11  4.633847E-12
       270  16  1.739860E+05  1.211692E+05  2.019832E+04  1.262050E+05  2.441220E-10 -9.300390E-12
       270  17  1.711495E+05  1.383174E+05  3.090670E+04  1.269751E+05  8.217771E-11 -7.651822E-11
       270  18  1.759958E+05  1.682396E+05  5.356746E+04  1.234593E+05 -1.044354E-10 -2.277178E-12
       270  19  7.425471E+04  5.033968E+04 -1.727873E+03  7.499823E+04  8.082240E+03  4.225265E+02
       270  20  8.038911E+04  3.942267E+04  3.001879E+03  6.477105E+04  1.140849E+04  3.916731E+03
       270  21  9.285007E+04  3.992310E+04  1.425347E+04  5.025787E+04  1.364863E+04  8.859232E+03
       270  22  1.241189E+05  8.575365E+04  9.235334E+03  1.006004E+05  7.901130E+03  2.867774E+02
       270  23  1.257679E+05  8.886803E+04  1.695458E+04  9.587134E+04  1.435695E+04  6.127996E+03
       270  24  1.344215E+05  1.040777E+05  3.391116E+04  8.685637E+04  1.972678E+04  1.341772E+04
       270  25  1.739861E+05  1.211693E+05  2.019844E+04  1.262050E+05  7.720002E+03  1.510135E+02
       270  26  1.711498E+05  1.383175E+05  3.090740E+04  1.269752E+05  1.730572E+04  8.339654E+03
       270  27  1.759966E+05  1.682401E+05  5.356932E+04  1.234597E+05  2.580559E+04  1.797734E+04
       271   1  2.948592E+05  4.383187E+04  4.515293E+04  2.235980E+04  2.802378E+04 -7.844244E+02
       271   2  2.905704E+05  2.229695E+04  2.586541E+04  1.231974E+04  1.718046E+04 -2.726204E+03
       271   3  2.912262E+05  1.489489E+04  1.716866E+04  2.507426E+03  6.337116E+03 -3.497261E+03
       271   4  2.390588E+05  3.010709E+04  3.231063E+04  2.254762E+03  2.256326E+04 -7.852421E+02
       271   5  2.368076E+05  9.627201E+03  1.626264E+04  2.140818E+03  1.424948E+04 -2.726478E+03
       271   6  2.390621E+05  2.841470E+03  9.049691E+03  2.254674E+03  5.935620E+03 -3.497291E+03
       271   7  1.832621E+05  1.638363E+04  1.946846E+04 -1.784845E+04  1.710322E+04 -7.857064E+02
       271   8  1.830478E+05 -3.042314E+03  6.659859E+03 -8.037197E+03  1.131874E+04 -2.726655E+03
       271   9  1.869007E+05 -9.212087E+03  9.306591E+02  2.001943E+03  5.534156E+03 -3.497321E+03
       271  10  2.948584E+05  4.383166E+04  4.515146E+04  2.235982E+04 -4.988944E-11  1.790584E-11
       271  11  2.905701E+05  2.229686E+04  2.586484E+04  1.231978E+04  2.125345E-11  4.609957E-11
       271  12  2.912261E+05  1.489487E+04  1.716856E+04  2.507444E+03 -1.472003E-10  9.898761E-12
       271  13  2.390582E+05  3.010696E+04  3.230968E+04  2.254776E+03  1.510257E-10 -1.928492E-11
       271  14  2.368074E+05  9.627139E+03  1.626225E+04  2.140849E+03  8.191556E-11  4.979276E-12
       271  15  2.390620E+05  2.841448E+03  9.049602E+03  2.254690E+03 -1.150183E-10  2.340054E-11
       271  16  1.832618E+05  1.638355E+04  1.946791E+04 -1.784844E+04  1.498795E-10 -5.638338E-11
       271  17  1.830477E+05 -3.042357E+03  6.659604E+03 -8.037172E+03  3.193595E-10 -5.730317E-11
       271  18  1.869007E+05 -9.212108E+03  9.305786E+02  2.001959E+03  2.198786E-10  2.403704E-11
       271  19  2.948592E+05  4.383187E+04  4.515293E+04  2.235980E+04 -2.802378E+04  7.844244E+02
       271  20  2.905704E+05  2.229695E+04  2.586541E+04  1.231974E+04 -1.718046E+04  2.726204E+03
       271  21  2.912262E+05  1.489489E+04  1.716866E+04  2.507426E+03 -6.337116E+03  3.497261E+03
       271  22  2.390588E+05  3.010709E+04  3.231063E+04  2.254762E+03 -2.256326E+04  7.852421E+02
       271  23  2.368076E+05  9.627201E+03  1.626264E+04  2.140818E+03 -1.424948E+04  2.726478E+03
       271  24  2.390621E+05  2.841470E+03  9.049691E+03  2.254674E+03 -5.935620E+03  3.497291E+03
       271  25  1.832621E+05  1.638363E+04  1.946846E+04 -1.784845E+04 -1.710322E+04  7.857064E+02
       271  26  1.830478E+05 -3.042314E+03  6.659859E+03 -8.037197E+03 -1.131874E+04  2.726655E+03
       271  27  1.869007E+05 -9.212087E+03  9.306591E+02  2.001943E+03 -5.534156E+03  3.497321E+03
       272   1  2.891503E+05  1.393850E+04  1.470020E+04  3.513803E+03  5.121187E+03 -3.559743E+03
       272   2  2.870239E+05  1.185881E+04  1.143486E+04  2.680674E+03  2.638724E+03 -3.660162E+03
       272   3  2.855375E+05  1.104596E+04  1.010194E+04  2.159594E+03  1.562706E+02 -3.607225E+03
       272   4  2.381901E+05  2.203518E+03  6.970006E+03  2.273445E+03  4.738286E+03 -3.559783E+03
       272   5  2.378991E+05  6.107475E+02  4.304558E+03  2.117437E+03  2.587342E+03 -3.660193E+03
       272   6  2.381905E+05  2.273463E+02  3.341475E+03  2.273479E+03  4.363994E+02 -3.607247E+03
       272   7  1.872326E+05 -9.531579E+03 -7.602442E+02  1.033193E+03  4.355415E+03 -3.559821E+03
       272   8  1.887768E+05 -1.063742E+04 -2.825787E+03  1.554247E+03  2.535964E+03 -3.660225E+03
       272   9  1.908459E+05 -1.059137E+04 -3.419021E+03  2.387354E+03  7.165078E+02 -3.607270E+03
       272  10  2.891502E+05  1.393848E+04  1.470013E+04  3.513818E+03 -6.513583E-11  3.957029E-13
       272  11  2.870239E+05  1.185879E+04  1.143482E+04  2.680682E+03 -1.573975E-11  3.877628E-11
       272  12  2.855375E+05  1.104595E+04  1.010191E+04  2.159595E+03 -1.678749E-10  2.789032E-11
       272  13  2.381901E+05  2.203499E+03  6.969940E+03  2.273459E+03  1.466234E-10 -8.112805E-12
       272  14  2.378991E+05  6.107313E+02  4.304520E+03  2.117445E+03  2.617229E-10  1.339834E-12
       272  15  2.381905E+05  2.273323E+02  3.341450E+03  2.273480E+03 -4.397375E-11  6.141362E-12
       272  16  1.872326E+05 -9.531597E+03 -7.603036E+02  1.033205E+03 -9.888949E-12  6.836033E-12
       272  17  1.887767E+05 -1.063744E+04 -2.825824E+03  1.554255E+03  1.508407E-10 -6.507508E-11
       272  18  1.908459E+05 -1.059139E+04 -3.419047E+03  2.387356E+03  1.310743E-10  2.010724E-11
       272  19  2.891503E+05  1.393850E+04  1.470020E+04  3.513803E+03 -5.121187E+03  3.559743E+03
       272  20  2.870239E+05  1.185881E+04  1.143486E+04  2.680674E+03 -2.638724E+03  3.660162E+03
       272  21  2.855375E+05  1.104596E+04  1.010194E+04  2.159594E+03 -1.562706E+02  3.607225E+03
       272  22  2.381901E+05  2.203518E+03  6.970006E+03  2.273445E+03 -4.738286E+03  3.559783E+03
       272  23  2.378991E+05  6.107475E+02  4.304558E+03  2.117437E+03 -2.587342E+03  3.660193E+03
       272  24  2.381905E+05  2.273463E+02  3.341475E+03  2.273479E+03 -4.363994E+02  3.607247E+03
       272  25  1.872326E+05 -9.531579E+03 -7.602442E+02  1.033193E+03 -4.355415E+03  3.559821E+03
       272  26  1.887768E+05 -1.063742E+04 -2.825787E+03  1.554247E+03 -2.535964E+03  3.660225E+03
       272  27  1.908459E+05 -1.059137E+04 -3.419021E+03  2.387354E+03 -7.165078E+02  3.607270E+03
       273   1  2.843967E+05  1.078179E+04  9.873863E+03  2.373415E+03 -4.115429E+02 -3.529517E+03
       273   2  2.823072E+05  1.069803E+04  1.039617E+04  1.604893E+03 -2.651052E+03 -3.342581E+03
       273   3  2.807930E+05  1.174905E+04  1.265976E+04  1.164707E+03 -4.890533E+03 -3.044301E+03
       273   4  2.381797E+05  2.237111E+02  3.286509E+03  2.277101E+03 -1.278037E+02 -3.529537E+03
       273   5  2.379128E+05  5.428833E+02  4.001346E+03  2.112924E+03 -2.126607E+03 -3.342593E+03
       273   6  2.381795E+05  1.955112E+03  6.290430E+03  2.277072E+03 -4.125390E+03 -3.044305E+03
       273   7  1.919649E+05 -1.033447E+04 -3.300876E+03  2.180795E+03  1.559153E+02 -3.529558E+03
       273   8  1.935204E+05 -9.612348E+03 -2.393504E+03  2.620916E+03 -1.602198E+03 -3.342604E+03
       273   9  1.955677E+05 -7.838910E+03 -7.892760E+01  3.389357E+03 -3.360298E+03 -3.044306E+03
       273  10  2.843967E+05  1.078178E+04  9.873840E+03  2.373414E+03  2.930068E-12 -2.482191E-11
       273  11  2.823072E+05  1.069801E+04  1.039613E+04  1.604886E+03 -2.427103E-10 -1.130840E-10
       273  12  2.807930E+05  1.174904E+04  1.265969E+04  1.164695E+03 -5.089717E-11 -1.133331E-10
       273  13  2.381797E+05  2.236977E+02  3.286486E+03  2.277101E+03 -1.412435E-11  1.094428E-11
       273  14  2.379128E+05  5.428701E+02  4.001316E+03  2.112918E+03 -6.421541E-11 -1.007563E-11
       273  15  2.381794E+05  1.955098E+03  6.290381E+03  2.277062E+03 -1.828042E-10 -1.222962E-10
       273  16  1.919649E+05 -1.033448E+04 -3.300900E+03  2.180795E+03 -1.367386E-10  4.725111E-11
       273  17  1.935204E+05 -9.612360E+03 -2.393529E+03  2.620912E+03  3.871563E-12 -2.386442E-11
       273  18  1.955677E+05 -7.838923E+03 -7.896623E+01  3.389349E+03  7.731100E-11 -1.043429E-11
       273  19  2.843967E+05  1.078179E+04  9.873863E+03  2.373415E+03  4.115429E+02  3.529517E+03
       273  20  2.823072E+05  1.069803E+04  1.039617E+04  1.604893E+03  2.651052E+03  3.342581E+03
       273  21  2.807930E+05  1.174905E+04  1.265976E+04  1.164707E+03  4.890533E+03  3.044301E+03
       273  22  2.381797E+05  2.237111E+02  3.286509E+03  2.277101E+03  1.278037E+02  3.529537E+03
       273  23  2.379128E+05  5.428833E+02  4.001346E+03  2.112924E+03  2.126607E+03  3.342593E+03
       273  24  2.381795E+05  1.955112E+03  6.290430E+03  2.277072E+03  4.125390E+03  3.044305E+03
       273  25  1.919649E+05 -1.033447E+04 -3.300876E+03  2.180795E+03 -1.559153E+02  3.529558E+03
       273  26  1.935204E+05 -9.612348E+03 -2.393504E+03  2.620916E+03  1.602198E+03  3.342604E+03
       273  27  1.955677E+05 -7.838910E+03 -7.892760E+01  3.389357E+03  3.360298E+03  3.044306E+03
       274   1  2.804886E+05  1.209818E+04  1.446455E+04  2.058021E+03 -5.981998E+03 -2.864836E+03
       274   2  2.765461E+05  1.785273E+04  2.140285E+04 -6.952332E+03 -1.506491E+04 -2.116514E+03
       274   3  2.769002E+05  3.606615E+04  3.736757E+04 -1.557779E+04 -2.414802E+04 -5.905700E+02
       274   4  2.389511E+05  2.522601E+03  8.111679E+03  2.289768E+03 -5.204385E+03 -2.864829E+03
       274   5  2.369471E+05  8.551871E+03  1.448190E+04  2.096827E+03 -1.260725E+04 -2.116642E+03
       274   6  2.389482E+05  2.674856E+04  2.871236E+04  2.288936E+03 -2.001027E+04 -5.910687E+02
       274   7  1.974153E+05 -7.053059E+03  1.758773E+03  2.521499E+03 -4.426822E+03 -2.864820E+03
       274   8  1.973498E+05 -7.487664E+02  7.560952E+03  1.114539E+04 -1.014974E+04 -2.116698E+03
       274   9  2.009983E+05  1.743207E+04  2.005728E+04  2.015457E+04 -1.587277E+04 -5.913294E+02
       274  10  2.804886E+05  1.209816E+04  1.446447E+04  2.058007E+03 -2.939972E-11 -9.663411E-11
       274  11  2.765458E+05  1.785267E+04  2.140242E+04 -6.952358E+03 -6.239259E-11 -5.019292E-11
       274  12  2.768996E+05  3.606600E+04  3.736647E+04 -1.557781E+04 -1.152201E-10 -2.674487E-11
       274  13  2.389510E+05  2.522585E+03  8.111613E+03  2.289756E+03  6.312925E-12 -5.509492E-11
       274  14  2.369469E+05  8.551823E+03  1.448159E+04  2.096805E+03 -3.129341E-12 -6.666848E-11
       274  15  2.389478E+05  2.674845E+04  2.871160E+04  2.288927E+03  1.792242E-10  4.454672E-11
       274  16  1.974152E+05 -7.053073E+03  1.758721E+03  2.521488E+03  7.195190E-11 -3.462764E-12
       274  17  1.973497E+05 -7.487989E+02  7.560751E+03  1.114537E+04 -3.957403E-11 -8.844315E-11
       274  18  2.009980E+05  1.743200E+04  2.005681E+04  2.015456E+04  1.112431E-10 -3.231532E-14
       274  19  2.804886E+05  1.209818E+04  1.446455E+04  2.058021E+03  5.981998E+03  2.864836E+03
       274  20  2.765461E+05  1.785273E+04  2.140285E+04 -6.952332E+03  1.506491E+04  2.116514E+03
       274  21  2.769002E+05  3.606615E+04  3.736757E+04 -1.557779E+04  2.414802E+04  5.905700E+02
       274  22  2.389511E+05  2.522601E+03  8.111679E+03  2.289768E+03  5.204385E+03  2.864829E+03
       274  23  2.369471E+05  8.551871E+03  1.448190E+04  2.096827E+03  1.260725E+04  2.116642E+03
       274  24  2.389482E+05  2.674856E+04  2.871236E+04  2.288936E+03  2.001027E+04  5.910687E+02
       274  25  1.974153E+05 -7.053059E+03  1.758773E+03  2.521499E+03  4.426822E+03  2.864820E+03
       274  26  1.973498E+05 -7.487664E+02  7.560952E+03  1.114539E+04  1.014974E+04  2.116698E+03
       274  27  2.009983E+05  1.743207E+04  2.005728E+04  2.015457E+04  1.587277E+04  5.913294E+02
       275   1 -3.821001E+04 -8.710919E+04 -3.814711E+04  1.362966E+04 -1.208836E+03 -2.133497E+04
       275   2 -2.503691E+04 -8.384740E+04 -2.425068E+04  7.803878E+03 -4.207563E+03 -1.261367E+04
       275   3 -2.048106E+04 -8.387524E+04 -1.818670E+04  2.121774E+03 -5.422287E+03 -3.892159E+03
       275   4 -1.742228E+04 -2.600329E+03 -1.871770E+04  1.988311E+03 -1.208174E+03 -1.293175E+04
       275   5 -5.580329E+03 -1.290033E+03 -9.526438E+03  1.915991E+03 -4.207205E+03 -8.063116E+03
       275   6 -1.686211E+03 -2.600232E+03 -5.491638E+03  1.987481E+03 -5.422181E+03 -3.194422E+03
       275   7  3.365492E+03  8.191558E+04  7.115853E+02 -9.654638E+03 -1.207826E+03 -4.527397E+03
       275   8  1.387602E+04  8.127410E+04  5.197641E+03 -3.972702E+03 -4.206933E+03 -3.511979E+03
       275   9  1.710831E+04  7.868137E+04  7.203271E+03  1.853171E+03 -5.422076E+03 -2.496598E+03
       275  10 -3.821014E+04 -8.710968E+04 -3.814797E+04  1.362964E+04  1.542768E-11 -2.198513E-11
       275  11 -2.503697E+04 -8.384757E+04 -2.425101E+04  7.803835E+03 -3.479605E-12  8.554424E-12
       275  12 -2.048109E+04 -8.387526E+04 -1.818679E+04  2.121757E+03  4.638943E-11  1.131537E-10
       275  13 -1.742233E+04 -2.600509E+03 -1.871801E+04  1.988299E+03 -8.265918E-11 -2.259690E-12
       275  14 -5.580365E+03 -1.290108E+03 -9.526593E+03  1.915963E+03  1.370164E-10  4.983141E-11
       275  15 -1.686245E+03 -2.600251E+03 -5.491712E+03  1.987467E+03 -1.053683E-10  7.714839E-11
       275  16  3.365485E+03  8.191556E+04  7.115440E+02 -9.654643E+03 -5.120817E-12  2.288985E-11
       275  17  1.387599E+04  8.127408E+04  5.197585E+03 -3.972714E+03 -4.648747E-11 -2.565639E-11
       275  18  1.710828E+04  7.868135E+04  7.203204E+03  1.853160E+03  6.094031E-11 -1.070184E-10
       275  19 -3.821001E+04 -8.710919E+04 -3.814711E+04  1.362966E+04  1.208836E+03  2.133497E+04
       275  20 -2.503691E+04 -8.384740E+04 -2.425068E+04  7.803878E+03  4.207563E+03  1.261367E+04
       275  21 -2.048106E+04 -8.387524E+04 -1.818670E+04  2.121774E+03  5.422287E+03  3.892159E+03
       275  22 -1.742228E+04 -2.600329E+03 -1.871770E+04  1.988311E+03  1.208174E+03  1.293175E+04
       275  23 -5.580329E+03 -1.290033E+03 -9.526438E+03  1.915991E+03  4.207205E+03  8.063116E+03
       275  24 -1.686211E+03 -2.600232E+03 -5.491638E+03  1.987481E+03  5.422181E+03  3.194422E+03
       275  25  3.365492E+03  8.191558E+04  7.115853E+02 -9.654638E+03  1.207826E+03  4.527397E+03
       275  26  1.387602E+04  8.127410E+04  5.197641E+03 -3.972702E+03  4.206933E+03  3.511979E+03
       275  27  1.710831E+04  7.868137E+04  7.203271E+03  1.853171E+03  5.422076E+03  2.496598E+03
       276   1 -1.981256E+04 -8.229090E+04 -1.662721E+04  2.749774E+03 -5.547470E+03 -3.119739E+03
       276   2 -1.858378E+04 -8.038457E+04 -1.480857E+04  2.008372E+03 -5.658388E+03 -6.923659E+02
       276   3 -1.851560E+04 -7.908413E+04 -1.486042E+04  1.551027E+03 -5.373263E+03  1.734984E+03
       276   4 -1.328961E+03 -2.119517E+03 -4.384184E+03  2.018670E+03 -5.547356E+03 -2.452398E+03
       276   5 -5.507826E+02 -1.890792E+03 -3.141160E+03  1.876611E+03 -5.658331E+03 -8.801898E+02
       276   6 -7.846467E+02 -2.119434E+03 -3.174605E+03  2.018608E+03 -5.373283E+03  6.919883E+02
       276   7  1.715433E+04  7.805831E+04  7.858709E+03  1.287469E+03 -5.547245E+03 -1.784974E+03
       276   8  1.748192E+04  7.660918E+04  8.526139E+03  1.744832E+03 -5.658274E+03 -1.068037E+03
       276   9  1.694602E+04  7.485120E+04  8.511092E+03  2.486248E+03 -5.373305E+03 -3.511313E+02
       276  10 -1.981259E+04 -8.229092E+04 -1.662729E+04  2.749760E+03  3.583269E-12 -4.743085E-11
       276  11 -1.858381E+04 -8.038458E+04 -1.480863E+04  2.008369E+03 -1.431138E-10  2.698883E-11
       276  12 -1.851563E+04 -7.908414E+04 -1.486048E+04  1.551035E+03 -9.684421E-11  1.992927E-10
       276  13 -1.328996E+03 -2.119532E+03 -4.384254E+03  2.018660E+03  8.037737E-11  1.314049E-12
       276  14 -5.508172E+02 -1.890802E+03 -3.141221E+03  1.876607E+03 -2.073234E-11  7.815418E-11
       276  15 -7.846778E+02 -2.119442E+03 -3.174660E+03  2.018611E+03  8.650056E-11  1.460356E-10
       276  16  1.715429E+04  7.805829E+04  7.858645E+03  1.287461E+03  1.374555E-10  5.924435E-11
       276  17  1.748189E+04  7.660917E+04  8.526077E+03  1.744827E+03  1.328591E-10  4.289753E-12
       276  18  1.694599E+04  7.485120E+04  8.511038E+03  2.486247E+03  1.474805E-10 -1.985105E-10
       276  19 -1.981256E+04 -8.229090E+04 -1.662721E+04  2.749774E+03  5.547470E+03  3.119739E+03
       276  20 -1.858378E+04 -8.038457E+04 -1.480857E+04  2.008372E+03  5.658388E+03  6.923659E+02
       276  21 -1.851560E+04 -7.908413E+04 -1.486042E+04  1.551027E+03  5.373263E+03 -1.734984E+03
       276  22 -1.328961E+03 -2.119517E+03 -4.384184E+03  2.018670E+03  5.547356E+03  2.452398E+03
       276  23 -5.507826E+02 -1.890792E+03 -3.141160E+03  1.876611E+03  5.658331E+03  8.801898E+02
       276  24 -7.846467E+02 -2.119434E+03 -3.174605E+03  2.018608E+03  5.373283E+03 -6.919883E+02
       276  25  1.715433E+04  7.805831E+04  7.858709E+03  1.287469E+03  5.547245E+03  1.784974E+03
       276  26  1.748192E+04  7.660918E+04  8.526139E+03  1.744832E+03  5.658274E+03  1.068037E+03
       276  27  1.694602E+04  7.485120E+04  8.511092E+03  2.486248E+03  5.373305E+03  3.511313E+02
       277   1 -1.853514E+04 -7.838832E+04 -1.535871E+04  1.948684E+03 -5.136323E+03  2.281423E+03
       277   2 -2.051015E+04 -7.578081E+04 -1.855965E+04 -1.410790E+03 -3.877952E+03  8.366881E+03
       277   3 -2.743761E+04 -7.520367E+04 -2.696075E+04 -4.362242E+03 -1.094686E+03  1.445204E+04
       277   4 -9.672222E+02 -2.341862E+03 -3.569376E+03  2.046073E+03 -5.136357E+03  1.211611E+03
       277   5 -3.057319E+03 -1.612600E+03 -5.471093E+03  1.842461E+03 -3.878302E+03  4.003794E+03
       277   6 -9.527822E+03 -2.341780E+03 -1.028571E+04  2.046811E+03 -1.095372E+03  6.795745E+03
       277   7  1.660042E+04  7.371037E+04  8.219832E+03  2.143473E+03 -5.136392E+03  1.416731E+02
       277   8  1.439526E+04  7.256105E+04  7.617334E+03  5.096112E+03 -3.878697E+03 -3.597997E+02
       277   9  8.381784E+03  7.052524E+04  6.389219E+03  8.456624E+03 -1.096217E+03 -8.614408E+02
       277  10 -1.853517E+04 -7.838833E+04 -1.535877E+04  1.948693E+03  1.392292E-11  6.952434E-11
       277  11 -2.051018E+04 -7.578089E+04 -1.855981E+04 -1.410764E+03 -7.481891E-12 -2.572857E-11
       277  12 -2.743767E+04 -7.520390E+04 -2.696115E+04 -4.362230E+03 -7.791624E-11 -2.825661E-11
       277  13 -9.672509E+02 -2.341871E+03 -3.569428E+03  2.046078E+03  7.634671E-12 -5.663108E-12
       277  14 -3.057339E+03 -1.612621E+03 -5.471152E+03  1.842474E+03  2.705131E-11  1.040029E-10
       277  15 -9.527835E+03 -2.341830E+03 -1.028580E+04  2.046817E+03 -1.273456E-10  1.887908E-10
       277  16  1.660039E+04  7.371036E+04  8.219782E+03  2.143474E+03  1.077374E-10 -6.383030E-11
       277  17  1.439524E+04  7.256105E+04  7.617306E+03  5.096111E+03  1.699965E-11  5.279018E-11
       277  18  8.381783E+03  7.052524E+04  6.389215E+03  8.456623E+03 -1.904916E-11  1.578315E-11
       277  19 -1.853514E+04 -7.838832E+04 -1.535871E+04  1.948684E+03  5.136323E+03 -2.281423E+03
       277  20 -2.051015E+04 -7.578081E+04 -1.855965E+04 -1.410790E+03  3.877952E+03 -8.366881E+03
       277  21 -2.743761E+04 -7.520367E+04 -2.696075E+04 -4.362242E+03  1.094686E+03 -1.445204E+04
       277  22 -9.672222E+02 -2.341862E+03 -3.569376E+03  2.046073E+03  5.136357E+03 -1.211611E+03
       277  23 -3.057319E+03 -1.612600E+03 -5.471093E+03  1.842461E+03  3.878302E+03 -4.003794E+03
       277  24 -9.527822E+03 -2.341780E+03 -1.028571E+04  2.046811E+03  1.095372E+03 -6.795745E+03
       277  25  1.660042E+04  7.371037E+04  8.219832E+03  2.143473E+03  5.136392E+03 -1.416731E+02
       277  26  1.439526E+04  7.256105E+04  7.617334E+03  5.096112E+03  3.878697E+03  3.597997E+02
       277  27  8.381784E+03  7.052524E+04  6.389219E+03  8.456624E+03  1.096217E+03  8.614408E+02
       278   1  2.806817E+04 -1.609813E+04 -1.342358E+04  1.317533E+04 -5.710869E+03 -4.209205E+03
       278   2  3.382300E+04 -3.556218E+03 -6.351952E+03  1.496154E+04 -3.068654E+03 -2.284823E+03
       278   3  3.865776E+04  4.212379E+03 -2.461644E+03  1.761026E+04 -1.961667E+02 -6.675304E+02
       278   4  3.375981E+04 -2.244381E+03 -9.593945E+03  2.048795E+04 -5.458082E+03 -4.019716E+03
       278   5  3.560582E+04  2.662622E+03 -4.769390E+03  1.811238E+04 -3.479213E+03 -2.592738E+03
       278   6  3.667582E+04  2.940419E+03 -2.550322E+03  1.659935E+04 -1.270057E+03 -1.472870E+03
       278   7  3.945141E+04  1.160937E+04 -5.764401E+03  2.780053E+04 -5.205299E+03 -3.830221E+03
       278   8  3.738864E+04  8.881458E+03 -3.186844E+03  2.126320E+04 -3.889768E+03 -2.900656E+03
       278   9  3.469388E+04  1.668464E+03 -2.638991E+03  1.558844E+04 -2.343942E+03 -2.278206E+03
       278  10  2.806813E+04 -1.609815E+04 -1.342367E+04  1.317531E+04 -8.237456E-11 -4.343372E-11
       278  11  3.382299E+04 -3.556226E+03 -6.351979E+03  1.496154E+04 -3.064599E-11  1.788478E-11
       278  12  3.865776E+04  4.212378E+03 -2.461645E+03  1.761026E+04  8.165326E-11  2.928454E-11
       278  13  3.375978E+04 -2.244406E+03 -9.594032E+03  2.048793E+04  6.087768E-11  3.846765E-12
       278  14  3.560580E+04  2.662612E+03 -4.769425E+03  1.811237E+04  1.336115E-10 -3.793189E-11
       278  15  3.667581E+04  2.940416E+03 -2.550329E+03  1.659934E+04 -6.121321E-11  5.610715E-11
       278  16  3.945138E+04  1.160935E+04 -5.764479E+03  2.780052E+04  6.006774E-12  5.299976E-11
       278  17  3.738862E+04  8.881445E+03 -3.186888E+03  2.126319E+04  6.631805E-11  4.109437E-11
       278  18  3.469387E+04  1.668457E+03 -2.639011E+03  1.558844E+04 -1.236469E-11 -2.937846E-11
       278  19  2.806817E+04 -1.609813E+04 -1.342358E+04  1.317533E+04  5.710869E+03  4.209205E+03
       278  20  3.382300E+04 -3.556218E+03 -6.351952E+03  1.496154E+04  3.068654E+03  2.284823E+03
       278  21  3.865776E+04  4.212379E+03 -2.461644E+03  1.761026E+04  1.961667E+02  6.675304E+02
       278  22  3.375981E+04 -2.244381E+03 -9.593945E+03  2.048795E+04  5.458082E+03  4.019716E+03
       278  23  3.560582E+04  2.662622E+03 -4.769390E+03  1.811238E+04  3.479213E+03  2.592738E+03
       278  24  3.667582E+04  2.940419E+03 -2.550322E+03  1.659935E+04  1.270057E+03  1.472870E+03
       278  25  3.945141E+04  1.160937E+04 -5.764401E+03  2.780053E+04  5.205299E+03  3.830221E+03
       278  26  3.738864E+04  8.881458E+03 -3.186844E+03  2.126320E+04  3.889768E+03  2.900656E+03
       278  27  3.469388E+04  1.668464E+03 -2.638991E+03  1.558844E+04  2.343942E+03  2.278206E+03
       279   1  4.333920E+04  7.070034E+03 -8.831759E+02  1.968727E+04  2.956619E+02 -7.698024E+02
       279   2  4.921065E+04  1.303655E+04  1.449944E+03  2.317203E+04  1.131602E+03 -9.499159E+02
       279   3  5.642424E+04  1.715217E+04  3.330875E+03  2.628948E+04  1.993295E+03 -1.164323E+03
       279   4  3.691877E+04  3.150071E+03 -1.880275E+03  1.663457E+04 -7.830290E+02 -1.578747E+03
       279   5  3.635032E+04  4.264320E+03 -9.338756E+02  1.667060E+04 -2.120527E+01 -1.814457E+03
       279   6  3.713993E+04  3.543579E+03 -3.753811E+02  1.633919E+04  7.663523E+02 -2.084466E+03
       279   7  3.049825E+04 -7.699633E+02 -2.877415E+03  1.358184E+04 -1.861729E+03 -2.387701E+03
       279   8  2.349019E+04 -4.507806E+03 -3.317691E+03  1.016932E+04 -1.173981E+03 -2.678974E+03
       279   9  1.785652E+04 -1.006444E+04 -4.081482E+03  6.389489E+03 -4.605128E+02 -3.004551E+03
       279  10  4.333920E+04  7.070034E+03 -8.831772E+02  1.968727E+04  7.750491E-11  4.057064E-11
       279  11  4.921065E+04  1.303655E+04  1.449940E+03  2.317203E+04  2.672212E-11 -2.904875E-11
       279  12  5.642424E+04  1.715217E+04  3.330865E+03  2.628948E+04  1.365960E-10 -4.834376E-11
       279  13  3.691877E+04  3.150069E+03 -1.880281E+03  1.663457E+04  8.639001E-11 -3.918275E-11
       279  14  3.635032E+04  4.264317E+03 -9.338818E+02  1.667060E+04  1.758571E-10 -6.582573E-11
       279  15  3.713993E+04  3.543574E+03 -3.753904E+02  1.633919E+04  1.696670E-10 -3.202123E-11
       279  16  3.049824E+04 -7.699704E+02 -2.877433E+03  1.358183E+04 -9.642321E-11 -5.811701E-11
       279  17  2.349019E+04 -4.507814E+03 -3.317707E+03  1.016932E+04 -7.482817E-11 -1.829110E-11
       279  18  1.785652E+04 -1.006445E+04 -4.081500E+03  6.389488E+03  4.489617E-11  1.651496E-15
       279  19  4.333920E+04  7.070034E+03 -8.831759E+02  1.968727E+04 -2.956619E+02  7.698024E+02
       279  20  4.921065E+04  1.303655E+04  1.449944E+03  2.317203E+04 -1.131602E+03  9.499159E+02
       279  21  5.642424E+04  1.715217E+04  3.330875E+03  2.628948E+04 -1.993295E+03  1.164323E+03
       279  22  3.691877E+04  3.150071E+03 -1.880275E+03  1.663457E+04  7.830290E+02  1.578747E+03
       279  23  3.635032E+04  4.264320E+03 -9.338756E+02  1.667060E+04  2.120527E+01  1.814457E+03
       279  24  3.713993E+04  3.543579E+03 -3.753811E+02  1.633919E+04 -7.663523E+02  2.084466E+03
       279  25  3.049825E+04 -7.699633E+02 -2.877415E+03  1.358184E+04  1.861729E+03  2.387701E+03
       279  26  2.349019E+04 -4.507806E+03 -3.317691E+03  1.016932E+04  1.173981E+03  2.678974E+03
       279  27  1.785652E+04 -1.006444E+04 -4.081482E+03  6.389489E+03  4.605128E+02  3.004551E+03
       280   1  6.061723E+04  2.005509E+04  4.396451E+03  2.841739E+04  2.277751E+03 -1.471137E+03
       280   2  6.646235E+04  2.549883E+04  6.124312E+03  3.201520E+04  2.549139E+03 -2.139197E+03
       280   3  7.391316E+04  2.940688E+04  7.980979E+03  3.515323E+04  2.805199E+03 -2.786787E+03
       280   4  3.716701E+04  3.562051E+03 -1.580146E+02  1.635311E+04  1.050620E+03 -2.391428E+03
       280   5  3.638796E+04  4.368378E+03  2.590493E+02  1.655781E+04  1.366210E+03 -3.026365E+03
       280   6  3.720494E+04  3.629408E+03  7.665632E+02  1.630269E+04  1.666475E+03 -3.640833E+03
       280   7  1.371744E+04 -1.293065E+04 -4.712492E+03  4.289367E+03 -1.764508E+02 -3.311673E+03
       280   8  6.314292E+03 -1.676176E+04 -5.606357E+03  1.101124E+03  1.833424E+02 -3.913486E+03
       280   9  4.974728E+02 -2.214782E+04 -6.448185E+03 -2.546968E+03  5.278132E+02 -4.494832E+03
       280  10  6.061723E+04  2.005509E+04  4.396437E+03  2.841739E+04  1.352891E-10  1.590334E-11
       280  11  6.646234E+04  2.549883E+04  6.124291E+03  3.201520E+04  7.431254E-11 -3.315007E-11
       280  12  7.391315E+04  2.940687E+04  7.980950E+03  3.515324E+04 -1.383323E-10 -3.332306E-11
       280  13  3.716701E+04  3.562045E+03 -1.580274E+02  1.635312E+04  1.165764E-11 -3.635445E-11
       280  14  3.638796E+04  4.368368E+03  2.590286E+02  1.655782E+04  1.250920E-10 -3.908729E-11
       280  15  3.720494E+04  3.629393E+03  7.665331E+02  1.630270E+04  5.888627E-11  2.636308E-14
       280  16  1.371743E+04 -1.293066E+04 -4.712512E+03  4.289367E+03 -2.917077E-11 -7.062358E-11
       280  17  6.314288E+03 -1.676177E+04 -5.606386E+03  1.101124E+03  1.209835E-11 -5.883589E-11
       280  18  4.974671E+02 -2.214784E+04 -6.448224E+03 -2.546967E+03  1.556742E-10  4.806982E-11
       280  19  6.061723E+04  2.005509E+04  4.396451E+03  2.841739E+04 -2.277751E+03  1.471137E+03
       280  20  6.646235E+04  2.549883E+04  6.124312E+03  3.201520E+04 -2.549139E+03  2.139197E+03
       280  21  7.391316E+04  2.940688E+04  7.980979E+03  3.515323E+04 -2.805199E+03  2.786787E+03
       280  22  3.716701E+04  3.562051E+03 -1.580146E+02  1.635311E+04 -1.050620E+03  2.391428E+03
       280  23  3.638796E+04  4.368378E+03  2.590493E+02  1.655781E+04 -1.366210E+03  3.026365E+03
       280  24  3.720494E+04  3.629408E+03  7.665632E+02  1.630269E+04 -1.666475E+03  3.640833E+03
       280  25  1.371744E+04 -1.293065E+04 -4.712492E+03  4.289367E+03  1.764508E+02  3.311673E+03
       280  26  6.314292E+03 -1.676176E+04 -5.606357E+03  1.101124E+03 -1.833424E+02  3.913486E+03
       280  27  4.974728E+02 -2.214782E+04 -6.448185E+03 -2.546968E+03 -5.278132E+02  4.494832E+03
       281   1  7.805234E+04  3.242273E+04  9.195831E+03  3.731473E+04  2.911650E+03 -3.197873E+03
       281   2  8.427473E+04  3.759076E+04  1.171559E+04  4.057530E+04  1.952809E+03 -4.578014E+03
       281   3  9.258675E+04  4.184452E+04  1.546727E+04  4.320351E+04  8.400498E+02 -5.752891E+03
       281   4  3.724742E+04  3.667440E+03  1.096848E+03  1.632438E+04  1.776059E+03 -4.049585E+03
       281   5  3.647529E+04  4.571982E+03  2.079162E+03  1.634094E+04  1.260718E+03 -5.097135E+03
       281   6  3.769664E+04  4.466232E+03  3.908595E+03  1.572520E+04  5.914537E+02 -5.939415E+03
       281   7 -3.554505E+03 -2.508607E+04 -7.001838E+03 -4.663844E+03  6.405938E+02 -4.901204E+03
       281   8 -1.132081E+04 -2.844497E+04 -7.557138E+03 -7.890945E+03  5.687058E+02 -5.616197E+03
       281   9 -1.718984E+04 -3.291026E+04 -7.650187E+03 -1.175029E+04  3.428871E+02 -6.125918E+03
       281  10  7.805233E+04  3.242272E+04  9.195796E+03  3.731474E+04 -3.265816E-11  2.324182E-11
       281  11  8.427472E+04  3.759073E+04  1.171555E+04  4.057531E+04  4.539396E-11  8.406547E-11
       281  12  9.258674E+04  4.184448E+04  1.546720E+04  4.320352E+04 -1.167487E-10  1.341396E-11
       281  13  3.724741E+04  3.667421E+03  1.096811E+03  1.632439E+04  5.562008E-11  4.011506E-11
       281  14  3.647528E+04  4.571953E+03  2.079110E+03  1.634095E+04 -4.613469E-12  6.562150E-11
       281  15  3.769663E+04  4.466194E+03  3.908528E+03  1.572520E+04  7.342350E-11  1.957803E-11
       281  16 -3.554512E+03 -2.508609E+04 -7.001884E+03 -4.663841E+03  6.841129E-11  4.218930E-11
       281  17 -1.132082E+04 -2.844500E+04 -7.557198E+03 -7.890943E+03 -2.506206E-11  7.476551E-11
       281  18 -1.718985E+04 -3.291030E+04 -7.650257E+03 -1.175029E+04 -2.456220E-11  6.056434E-11
       281  19  7.805234E+04  3.242273E+04  9.195831E+03  3.731473E+04 -2.911650E+03  3.197873E+03
       281  20  8.427473E+04  3.759076E+04  1.171559E+04  4.057530E+04 -1.952809E+03  4.578014E+03
       281  21  9.258675E+04  4.184452E+04  1.546727E+04  4.320351E+04 -8.400498E+02  5.752891E+03
       281  22  3.724742E+04  3.667440E+03  1.096848E+03  1.632438E+04 -1.776059E+03  4.049585E+03
       281  23  3.647529E+04  4.571982E+03  2.079162E+03  1.634094E+04 -1.260718E+03  5.097135E+03
       281  24  3.769664E+04  4.466232E+03  3.908595E+03  1.572520E+04 -5.914537E+02  5.939415E+03
       281  25 -3.554505E+03 -2.508607E+04 -7.001838E+03 -4.663844E+03 -6.405938E+02  4.901204E+03
       281  26 -1.132081E+04 -2.844497E+04 -7.557138E+03 -7.890945E+03 -5.687058E+02  5.616197E+03
       281  27 -1.718984E+04 -3.291026E+04 -7.650187E+03 -1.175029E+04 -3.428871E+02  6.125918E+03
       282   1  9.673759E+04  4.589657E+04  1.803791E+04  4.558319E+04  3.672465E+02 -6.305148E+03
       282   2  1.088819E+05  4.773015E+04  2.599090E+04  4.455004E+04 -7.812482E+03 -1.127687E+04
       282   3  1.279214E+05  5.519187E+04  4.240220E+04  4.045275E+04 -1.726360E+04 -1.455436E+04
       282   4  3.814260E+04  4.934866E+03  5.235188E+03  1.580775E+04  1.453982E+02 -6.471618E+03
       282   5  3.804134E+04  7.761384E+03  9.681513E+03  1.340635E+04 -4.373301E+03 -8.697603E+03
       282   6  4.404100E+04  1.542208E+04  1.940889E+04  7.940684E+03 -1.016301E+04 -9.229147E+03
       282   7 -2.044969E+04 -3.602569E+04 -7.568160E+03 -1.396508E+04 -7.642716E+01 -6.638071E+03
       282   8 -3.279343E+04 -3.220559E+04 -6.628102E+03 -1.773364E+04 -9.346530E+02 -6.118626E+03
       282   9 -3.982954E+04 -2.434529E+04 -3.584144E+03 -2.456656E+04 -3.063919E+03 -3.904621E+03
       282  10  9.673758E+04  4.589653E+04  1.803783E+04  4.558319E+04  8.807538E-12  8.223319E-11
       282  11  1.088818E+05  4.772999E+04  2.599054E+04  4.454996E+04  2.645783E-11  2.516254E-11
       282  12  1.279210E+05  5.519156E+04  4.240124E+04  4.045255E+04  4.078303E-11 -9.596163E-12
       282  13  3.814259E+04  4.934821E+03  5.235109E+03  1.580775E+04  1.055927E-10  5.470532E-11
       282  14  3.804129E+04  7.761298E+03  9.681335E+03  1.340632E+04  2.995846E-11  6.666093E-11
       282  15  4.404087E+04  1.542196E+04  1.940854E+04  7.940608E+03 -1.052742E-10  6.231960E-11
       282  16 -2.044970E+04 -3.602573E+04 -7.568243E+03 -1.396508E+04 -2.724594E-11  2.176252E-11
       282  17 -3.279344E+04 -3.220563E+04 -6.628174E+03 -1.773364E+04 -1.210714E-10 -6.578940E-11
       282  18 -3.982955E+04 -2.434531E+04 -3.584190E+03 -2.456657E+04 -6.585102E-11 -7.858168E-11
       282  19  9.673759E+04  4.589657E+04  1.803791E+04  4.558319E+04 -3.672465E+02  6.305148E+03
       282  20  1.088819E+05  4.773015E+04  2.599090E+04  4.455004E+04  7.812482E+03  1.127687E+04
       282  21  1.279214E+05  5.519187E+04  4.240220E+04  4.045275E+04  1.726360E+04  1.455436E+04
       282  22  3.814260E+04  4.934866E+03  5.235188E+03  1.580775E+04 -1.453982E+02  6.471618E+03
       282  23  3.804134E+04  7.761384E+03  9.681513E+03  1.340635E+04  4.373301E+03  8.697603E+03
       282  24  4.404100E+04  1.542208E+04  1.940889E+04  7.940684E+03  1.016301E+04  9.229147E+03
       282  25 -2.044969E+04 -3.602569E+04 -7.568160E+03 -1.396508E+04  7.642716E+01  6.638071E+03
       282  26 -3.279343E+04 -3.220559E+04 -6.628102E+03 -1.773364E+04  9.346530E+02  6.118626E+03
       282  27 -3.982954E+04 -2.434529E+04 -3.584144E+03 -2.456656E+04  3.063919E+03  3.904621E+03
       283   1  4.584481E+05  7.621905E+04  7.733324E+04  3.003129E+04  4.684502E+04 -1.872568E+03
       283   2  4.544095E+05  4.431644E+04  4.649877E+04  1.537959E+04  2.885166E+04 -6.604965E+03
       283   3  4.580428E+05  3.373381E+04  3.270410E+04  5.427948E+02  1.085850E+04 -8.672007E+03
       283   4  3.302110E+05  4.469729E+04  4.792620E+04  2.084748E+02  3.373891E+04 -1.875517E+03
       283   5  3.268778E+05  1.430337E+04  2.392139E+04  3.029046E+02  2.150636E+04 -6.606296E+03
       283   6  3.302177E+05  4.231321E+03  1.295889E+04  2.120780E+02  9.273785E+03 -8.672323E+03
       283   7  2.019913E+05  1.317783E+04  1.851921E+04 -2.960814E+04  2.063548E+04 -1.877208E+03
       283   8  1.993626E+05 -1.570971E+04  1.343738E+03 -1.477060E+04  1.416253E+04 -6.607270E+03
       283   9  2.024089E+05 -2.527196E+04 -6.786677E+03 -1.185686E+02  7.689382E+03 -8.672637E+03
       283  10  4.584457E+05  7.621846E+04  7.732911E+04  3.003136E+04 -2.218409E-10 -3.023242E-11
       283  11  4.544086E+05  4.431617E+04  4.649712E+04  1.537974E+04  1.979946E-10  1.125772E-10
       283  12  4.580426E+05  3.373370E+04  3.270374E+04  5.428706E+02  1.209114E-10 -1.300453E-10
       283  13  3.302098E+05  4.469699E+04  4.792406E+04  2.085258E+02  1.423633E-10  1.371981E-10
       283  14  3.268773E+05  1.430320E+04  2.392044E+04  3.030190E+02  2.063935E-10  2.003297E-10
       283  15  3.302175E+05  4.231217E+03  1.295859E+04  2.121427E+02  1.497150E-10 -1.724182E-11
       283  16  2.019909E+05  1.317771E+04  1.851840E+04 -2.960810E+04  2.478989E-10  5.119565E-11
       283  17  1.993624E+05 -1.570981E+04  1.343279E+03 -1.477052E+04 -1.510672E-10  1.151986E-11
       283  18  2.024088E+05 -2.527206E+04 -6.786930E+03 -1.185149E+02 -1.870744E-10 -2.095534E-11
       283  19  4.584481E+05  7.621905E+04  7.733324E+04  3.003129E+04 -4.684502E+04  1.872568E+03
       283  20  4.544095E+05  4.431644E+04  4.649877E+04  1.537959E+04 -2.885166E+04  6.604965E+03
       283  21  4.580428E+05  3.373381E+04  3.270410E+04  5.427948E+02 -1.085850E+04  8.672007E+03
       283  22  3.302110E+05  4.469729E+04  4.792620E+04  2.084748E+02 -3.373891E+04  1.875517E+03
       283  23  3.268778E+05  1.430337E+04  2.392139E+04  3.029046E+02 -2.150636E+04  6.606296E+03
       283  24  3.302177E+05  4.231321E+03  1.295889E+04  2.120780E+02 -9.273785E+03  8.672323E+03
       283  25  2.019913E+05  1.317783E+04  1.851921E+04 -2.960814E+04 -2.063548E+04  1.877208E+03
       283  26  1.993626E+05 -1.570971E+04  1.343738E+03 -1.477060E+04 -1.416253E+04  6.607270E+03
       283  27  2.024089E+05 -2.527196E+04 -6.786677E+03 -1.185686E+02 -7.689382E+03  8.672637E+03
       284   1  4.564445E+05  3.262915E+04  2.891497E+04  2.029912E+03  9.138988E+03 -8.995313E+03
       284   2  4.558198E+05  3.003301E+04  2.362124E+04  1.040402E+03  5.748831E+03 -9.527960E+03
       284   3  4.560889E+05  2.924409E+04  2.098561E+04  5.845610E+01  2.358709E+03 -9.699104E+03
       284   4  3.289030E+05  3.288057E+03  9.695093E+03  2.547832E+02  7.596819E+03 -8.995671E+03
       284   5  3.285243E+05  9.033208E+02  5.211519E+03  2.512209E+02  4.988462E+03 -9.528250E+03
       284   6  3.289039E+05  1.903492E+02  2.843700E+03  2.552095E+02  2.380121E+03 -9.699298E+03
       284   7  2.013779E+05 -2.605379E+04 -9.525101E+03 -1.519967E+03  6.054954E+03 -8.996019E+03
       284   8  2.012451E+05 -2.822711E+04 -1.319846E+04 -5.377919E+02  4.228241E+03 -9.528538E+03
       284   9  2.017352E+05 -2.886412E+04 -1.529844E+04  4.519203E+02  2.401530E+03 -9.699493E+03
       284  10  4.564444E+05  3.262904E+04  2.891466E+04  2.029979E+03 -6.106468E-11 -2.935036E-11
       284  11  4.558197E+05  3.003291E+04  2.362101E+04  1.040446E+03 -2.681644E-10 -2.201600E-10
       284  12  4.560889E+05  2.924399E+04  2.098542E+04  5.847453E+01  1.367460E-10  2.296878E-12
       284  13  3.289030E+05  3.287955E+03  9.694832E+03  2.548383E+02  1.051932E-10 -6.404780E-11
       284  14  3.285242E+05  9.032166E+02  5.211301E+03  2.512592E+02 -1.621475E-12 -1.278300E-10
       284  15  3.289039E+05  1.902467E+02  2.843513E+03  2.552281E+02 -1.183662E-10 -7.212011E-11
       284  16  2.013778E+05 -2.605389E+04 -9.525322E+03 -1.519923E+03  1.587794E-10 -1.612869E-10
       284  17  2.012451E+05 -2.822721E+04 -1.319866E+04 -5.377595E+02 -2.283499E-10 -1.527797E-10
       284  18  2.017352E+05 -2.886423E+04 -1.529863E+04  4.519391E+02 -1.699649E-10  7.299565E-11
       284  19  4.564445E+05  3.262915E+04  2.891497E+04  2.029912E+03 -9.138988E+03  8.995313E+03
       284  20  4.558198E+05  3.003301E+04  2.362124E+04  1.040402E+03 -5.748831E+03  9.527960E+03
       284  21  4.560889E+05  2.924409E+04  2.098561E+04  5.845610E+01 -2.358709E+03  9.699104E+03
       284  22  3.289030E+05  3.288057E+03  9.695093E+03  2.547832E+02 -7.596819E+03  8.995671E+03
       284  23  3.285243E+05  9.033208E+02  5.211519E+03  2.512209E+02 -4.988462E+03  9.528250E+03
       284  24  3.289039E+05  1.903492E+02  2.843700E+03  2.552095E+02 -2.380121E+03  9.699298E+03
       284  25  2.013779E+05 -2.605379E+04 -9.525101E+03 -1.519967E+03 -6.054954E+03  8.996019E+03
       284  26  2.012451E+05 -2.822711E+04 -1.319846E+04 -5.377919E+02 -4.228241E+03  9.528538E+03
       284  27  2.017352E+05 -2.886412E+04 -1.529844E+04  4.519203E+02 -2.401530E+03  9.699493E+03
       285   1  4.558296E+05  2.916798E+04  2.019613E+04  2.252274E+02  1.930712E+03 -9.691846E+03
       285   2  4.555656E+05  2.897306E+04  1.928687E+04  2.376304E+02  6.895053E+02 -9.498716E+03
       285   3  4.555066E+05  2.894814E+04  1.922805E+04  3.028196E+02 -5.517917E+02 -8.947974E+03
       285   4  3.287511E+05  1.387599E+02  2.070565E+03  2.652294E+02  1.961775E+03 -9.692040E+03
       285   5  3.287158E+05 -5.341531E+01  9.465790E+02  2.388648E+02  1.493564E+03 -9.498777E+03
       285   6  3.287514E+05 -2.096989E+02  1.365671E+02  2.652870E+02  1.025275E+03 -8.947864E+03
       285   7  2.016890E+05 -2.889119E+04 -1.605524E+04  3.052223E+02  1.992831E+03 -9.692233E+03
       285   8  2.018822E+05 -2.908062E+04 -1.739396E+04  2.400983E+02  2.297466E+03 -9.498838E+03
       285   9  2.020123E+05 -2.936830E+04 -1.895523E+04  2.277618E+02  2.602032E+03 -8.947755E+03
       285  10  4.558296E+05  2.916788E+04  2.019595E+04  2.252425E+02  4.658620E-11  1.117636E-11
       285  11  4.555656E+05  2.897296E+04  1.928670E+04  2.376357E+02  3.329277E-10 -3.101981E-11
       285  12  4.555066E+05  2.894805E+04  1.922790E+04  3.028156E+02  3.856822E-10 -2.696347E-10
       285  13  3.287511E+05  1.386580E+02  2.070381E+03  2.652447E+02 -5.049129E-11 -5.838098E-12
       285  14  3.287158E+05 -5.351281E+01  9.464053E+02  2.388762E+02  8.934327E-11 -6.531167E-11
       285  15  3.287513E+05 -2.097852E+02  1.364146E+02  2.652944E+02  5.747894E-11 -1.929041E-10
       285  16  2.016889E+05 -2.889130E+04 -1.605543E+04  3.052379E+02  4.385555E-11  3.783771E-11
       285  17  2.018822E+05 -2.908072E+04 -1.739414E+04  2.401159E+02 -4.680610E-11  3.303103E-10
       285  18  2.020122E+05 -2.936839E+04 -1.895539E+04  2.277805E+02 -2.553720E-10  1.300445E-11
       285  19  4.558296E+05  2.916798E+04  2.019613E+04  2.252274E+02 -1.930712E+03  9.691846E+03
       285  20  4.555656E+05  2.897306E+04  1.928687E+04  2.376304E+02 -6.895053E+02  9.498716E+03
       285  21  4.555066E+05  2.894814E+04  1.922805E+04  3.028196E+02  5.517917E+02  8.947974E+03
       285  22  3.287511E+05  1.387599E+02  2.070565E+03  2.652294E+02 -1.961775E+03  9.692040E+03
       285  23  3.287158E+05 -5.341531E+01  9.465790E+02  2.388648E+02 -1.493564E+03  9.498777E+03
       285  24  3.287514E+05 -2.096989E+02  1.365671E+02  2.652870E+02 -1.025275E+03  8.947864E+03
       285  25  2.016890E+05 -2.889119E+04 -1.605524E+04  3.052223E+02 -1.992831E+03  9.692233E+03
       285  26  2.018822E+05 -2.908062E+04 -1.739396E+04  2.400983E+02 -2.297466E+03  9.498838E+03
       285  27  2.020123E+05 -2.936830E+04 -1.895523E+04  2.277618E+02 -2.602032E+03  8.947755E+03
       286   1  4.554793E+05  2.901007E+04  1.934367E+04  2.875483E+02 -6.042250E+02 -8.613801E+03
       286   2  4.550353E+05  2.886465E+04  2.119717E+04  1.015698E+03 -5.704187E+03 -6.551691E+03
       286   3  4.552155E+05  2.855842E+04  2.632909E+04  1.986650E+03 -1.080484E+04 -1.861422E+03
       286   4  3.286553E+05 -2.589426E+02 -2.349750E+02  3.074763E+02  1.014413E+03 -8.613658E+03
       286   5  3.288362E+05 -8.290346E+02 -1.126947E+03  1.862676E+02  1.594547E+03 -6.550263E+03
       286   6  3.286558E+05 -2.545655E+03 -2.683110E+03  3.079137E+02  2.174003E+03 -1.858451E+03
       286   7  2.018474E+05 -2.952873E+04 -1.981397E+04  3.273993E+02  2.632734E+03 -8.613514E+03
       286   8  2.026528E+05 -3.052356E+04 -2.345145E+04 -6.429905E+02  8.891841E+03 -6.548855E+03
       286   9  2.021113E+05 -3.365075E+04 -3.169574E+04 -1.370479E+03  1.515023E+04 -1.855550E+03
       286  10  4.554793E+05  2.900999E+04  1.934353E+04  2.875441E+02 -1.637594E-13 -4.571315E-10
       286  11  4.550352E+05  2.886460E+04  2.119702E+04  1.015668E+03 -4.201997E-10 -6.728879E-10
       286  12  4.552154E+05  2.855839E+04  2.632887E+04  1.986634E+03 -5.965013E-10 -1.863737E-10
       286  13  3.286553E+05 -2.590226E+02 -2.351164E+02  3.074833E+02 -3.862458E-10 -1.005393E-09
       286  14  3.288362E+05 -8.290814E+02 -1.127033E+03  1.862760E+02  3.010692E-10  2.954952E-10
       286  15  3.286558E+05 -2.545660E+03 -2.683126E+03  3.079169E+02  5.798124E-11 -6.885969E-11
       286  16  2.018474E+05 -2.952881E+04 -1.981413E+04  3.274175E+02 -5.225930E-11 -2.252153E-10
       286  17  2.026527E+05 -3.052363E+04 -2.345168E+04 -6.429436E+02  3.445826E-10  1.228604E-10
       286  18  2.021110E+05 -3.365081E+04 -3.169617E+04 -1.370456E+03  5.784594E-10 -2.635779E-10
       286  19  4.554793E+05  2.901007E+04  1.934367E+04  2.875483E+02  6.042250E+02  8.613801E+03
       286  20  4.550353E+05  2.886465E+04  2.119717E+04  1.015698E+03  5.704187E+03  6.551691E+03
       286  21  4.552155E+05  2.855842E+04  2.632909E+04  1.986650E+03  1.080484E+04  1.861422E+03
       286  22  3.286553E+05 -2.589426E+02 -2.349750E+02  3.074763E+02 -1.014413E+03  8.613658E+03
       286  23  3.288362E+05 -8.290346E+02 -1.126947E+03  1.862676E+02 -1.594547E+03  6.550263E+03
       286  24  3.286558E+05 -2.545655E+03 -2.683110E+03  3.079137E+02 -2.174003E+03  1.858451E+03
       286  25  2.018474E+05 -2.952873E+04 -1.981397E+04  3.273993E+02 -2.632734E+03  8.613514E+03
       286  26  2.026528E+05 -3.052356E+04 -2.345145E+04 -6.429905E+02 -8.891841E+03  6.548855E+03
       286  27  2.021113E+05 -3.365075E+04 -3.169574E+04 -1.370479E+03 -1.515023E+04  1.855550E+03
       287   1 -1.967468E+04 -1.260862E+04 -2.288646E+04  4.645996E+03  6.186412E+02 -2.188819E+04
       287   2 -2.040897E+02 -2.496390E+04 -9.856581E+03 -5.527415E+03  1.877078E+03 -1.525451E+04
       287   3  4.002537E+03 -4.199875E+04 -4.961408E+03 -1.821408E+04  1.795782E+03 -8.620961E+03
       287   4 -3.464814E+04 -7.320718E+04 -3.716741E+04 -1.846739E+04  6.197857E+02 -2.605142E+04
       287   5 -1.108780E+04 -7.061507E+04 -1.863142E+04 -1.720956E+04  1.877483E+03 -1.652529E+04
       287   6 -3.294781E+03 -7.320557E+04 -1.023948E+04 -1.846500E+04  1.795646E+03 -6.999054E+03
       287   7 -4.961985E+04 -1.338012E+05 -5.144826E+04 -4.157850E+04  6.212404E+02 -3.021425E+04
       287   8 -2.197113E+04 -1.162639E+05 -2.740627E+04 -2.889083E+04  1.877935E+03 -1.779598E+04
       287   9 -1.059215E+04 -1.044114E+05 -1.551756E+04 -1.871590E+04  1.795509E+03 -5.377226E+03
       287  10 -1.967480E+04 -1.260913E+04 -2.288736E+04  4.646007E+03  1.558795E-11 -5.598969E-11
       287  11 -2.041560E+02 -2.496415E+04 -9.857025E+03 -5.527392E+03 -1.476178E-10 -3.552016E-11
       287  12  4.002514E+03 -4.199883E+04 -4.961553E+03 -1.821407E+04  7.945393E-14  6.966225E-11
       287  13 -3.464833E+04 -7.320791E+04 -3.716868E+04 -1.846737E+04  1.091665E-11 -4.872517E-11
       287  14 -1.108788E+04 -7.061536E+04 -1.863194E+04 -1.720954E+04 -4.602379E-11  7.229744E-11
       287  15 -3.294798E+03 -7.320563E+04 -1.023957E+04 -1.846499E+04 -7.861849E-11 -1.360562E-10
       287  16 -4.962010E+04 -1.338022E+05 -5.144998E+04 -4.157849E+04 -1.504298E-11  8.273934E-11
       287  17 -2.197122E+04 -1.162643E+05 -2.740687E+04 -2.889080E+04  1.312727E-10 -8.157895E-11
       287  18 -1.059216E+04 -1.044115E+05 -1.551762E+04 -1.871590E+04 -7.746002E-11 -9.901628E-11
       287  19 -1.967468E+04 -1.260862E+04 -2.288646E+04  4.645996E+03 -6.186412E+02  2.188819E+04
       287  20 -2.040897E+02 -2.496390E+04 -9.856581E+03 -5.527415E+03 -1.877078E+03  1.525451E+04
       287  21  4.002537E+03 -4.199875E+04 -4.961408E+03 -1.821408E+04 -1.795782E+03  8.620961E+03
       287  22 -3.464814E+04 -7.320718E+04 -3.716741E+04 -1.846739E+04 -6.197857E+02  2.605142E+04
       287  23 -1.108780E+04 -7.061507E+04 -1.863142E+04 -1.720956E+04 -1.877483E+03  1.652529E+04
       287  24 -3.294781E+03 -7.320557E+04 -1.023948E+04 -1.846500E+04 -1.795646E+03  6.999054E+03
       287  25 -4.961985E+04 -1.338012E+05 -5.144826E+04 -4.157850E+04 -6.212404E+02  3.021425E+04
       287  26 -2.197113E+04 -1.162639E+05 -2.740627E+04 -2.889083E+04 -1.877935E+03  1.779598E+04
       287  27 -1.059215E+04 -1.044114E+05 -1.551756E+04 -1.871590E+04 -1.795509E+03  5.377226E+03
       288   1  2.549819E+03 -5.026301E+04 -4.126489E+03 -1.709826E+04  1.300941E+03 -7.301708E+03
       288   2  8.737753E+02 -6.462530E+04 -3.454654E+03 -1.666035E+04  5.227603E+02 -5.112570E+03
       288   3 -2.248582E+03 -7.963436E+04 -4.569767E+03 -1.882403E+04 -2.919649E+02 -2.923482E+03
       288   4 -2.568980E+03 -7.220068E+04 -7.782788E+03 -1.848476E+04  1.300808E+03 -5.660724E+03
       288   5 -7.905903E+02 -7.187023E+04 -4.531573E+03 -1.718387E+04  5.226046E+02 -3.392765E+03
       288   6 -4.722256E+02 -7.220050E+04 -3.122131E+03 -1.848458E+04 -2.921379E+02 -1.124807E+03
       288   7 -7.687795E+03 -9.413788E+04 -1.143909E+04 -1.987122E+04  1.300668E+03 -4.019796E+03
       288   8 -2.454956E+03 -7.911510E+04 -5.608481E+03 -1.770738E+04  5.224460E+02 -1.672979E+03
       288   9  1.304129E+03 -6.476657E+04 -1.674486E+03 -1.814513E+04 -2.923089E+02  6.738884E+02
       288  10  2.549803E+03 -5.026306E+04 -4.126592E+03 -1.709825E+04 -1.133771E-11 -5.398648E-11
       288  11  8.737680E+02 -6.462533E+04 -3.454704E+03 -1.666035E+04 -5.864478E-11  1.575823E-12
       288  12 -2.248584E+03 -7.963437E+04 -4.569784E+03 -1.882403E+04 -5.600224E-11  1.255995E-10
       288  13 -2.568990E+03 -7.220072E+04 -7.782852E+03 -1.848476E+04  4.391339E-11 -6.142312E-11
       288  14 -7.905937E+02 -7.187024E+04 -4.531595E+03 -1.718387E+04 -5.520222E-11  8.309230E-11
       288  15 -4.722261E+02 -7.220050E+04 -3.122134E+03 -1.848458E+04  7.957724E-11 -1.400276E-10
       288  16 -7.687801E+03 -9.413789E+04 -1.143913E+04 -1.987121E+04 -1.137539E-10  9.354529E-11
       288  17 -2.454957E+03 -7.911510E+04 -5.608487E+03 -1.770738E+04 -7.443507E-12 -1.550062E-10
       288  18  1.304129E+03 -6.476657E+04 -1.674487E+03 -1.814513E+04  1.048261E-10 -1.492534E-10
       288  19  2.549819E+03 -5.026301E+04 -4.126489E+03 -1.709826E+04 -1.300941E+03  7.301708E+03
       288  20  8.737753E+02 -6.462530E+04 -3.454654E+03 -1.666035E+04 -5.227603E+02  5.112570E+03
       288  21 -2.248582E+03 -7.963436E+04 -4.569767E+03 -1.882403E+04  2.919649E+02  2.923482E+03
       288  22 -2.568980E+03 -7.220068E+04 -7.782788E+03 -1.848476E+04 -1.300808E+03  5.660724E+03
       288  23 -7.905903E+02 -7.187023E+04 -4.531573E+03 -1.718387E+04 -5.226046E+02  3.392765E+03
       288  24 -4.722256E+02 -7.220050E+04 -3.122131E+03 -1.848458E+04  2.921379E+02  1.124807E+03
       288  25 -7.687795E+03 -9.413788E+04 -1.143909E+04 -1.987122E+04 -1.300668E+03  4.019796E+03
       288  26 -2.454956E+03 -7.911510E+04 -5.608481E+03 -1.770738E+04 -5.224460E+02  1.672979E+03
       288  27  1.304129E+03 -6.476657E+04 -1.674486E+03 -1.814513E+04  2.923089E+02 -6.738884E+02
       289   1 -4.466446E+03 -8.889588E+04 -5.850917E+03 -1.854776E+04 -8.201431E+02 -2.427975E+03
       289   2 -8.845947E+03 -1.030413E+05 -9.213464E+03 -1.870063E+04 -1.129844E+03  1.331161E+03
       289   3 -1.563373E+04 -1.182782E+05 -1.562572E+04 -2.139080E+04 -4.055440E+02  5.090200E+03
       289   4 -5.253839E+02 -7.221018E+04 -2.832762E+03 -1.847030E+04 -8.203101E+02 -6.432533E+02
       289   5 -1.367472E+03 -7.185832E+04 -3.005650E+03 -1.720177E+04 -1.129796E+03  8.827203E+02
       289   6 -4.230081E+03 -7.221059E+04 -4.677310E+03 -1.847059E+04 -4.052885E+02  2.408722E+03
       289   7  3.415665E+03 -5.552420E+04  1.853943E+02 -1.839284E+04 -8.204765E+02  1.141515E+03
       289   8  6.110951E+03 -4.067441E+04  3.202116E+03 -1.570284E+04 -1.129750E+03  4.342576E+02
       289   9  7.173448E+03 -2.614098E+04  6.270983E+03 -1.555016E+04 -4.050582E+02 -2.729549E+02
       289  10 -4.466449E+03 -8.889589E+04 -5.850929E+03 -1.854776E+04 -2.357287E-11 -3.150987E-11
       289  11 -8.845948E+03 -1.030413E+05 -9.213469E+03 -1.870063E+04  1.198876E-11 -2.930375E-11
       289  12 -1.563373E+04 -1.182782E+05 -1.562577E+04 -2.139079E+04 -3.381514E-11  1.675974E-11
       289  13 -5.253847E+02 -7.221018E+04 -2.832764E+03 -1.847030E+04  2.625645E-11 -5.566341E-11
       289  14 -1.367474E+03 -7.185832E+04 -3.005654E+03 -1.720177E+04 -3.980049E-11  6.783491E-11
       289  15 -4.230082E+03 -7.221060E+04 -4.677321E+03 -1.847059E+04  9.668962E-11 -1.161716E-10
       289  16  3.415664E+03 -5.552420E+04  1.853906E+02 -1.839284E+04  5.600901E-12  8.452371E-11
       289  17  6.110950E+03 -4.067441E+04  3.202114E+03 -1.570284E+04 -9.920897E-11 -1.181118E-10
       289  18  7.173448E+03 -2.614098E+04  6.270982E+03 -1.555016E+04 -4.633954E-11 -5.297606E-11
       289  19 -4.466446E+03 -8.889588E+04 -5.850917E+03 -1.854776E+04  8.201431E+02  2.427975E+03
       289  20 -8.845947E+03 -1.030413E+05 -9.213464E+03 -1.870063E+04  1.129844E+03 -1.331161E+03
       289  21 -1.563373E+04 -1.182782E+05 -1.562572E+04 -2.139080E+04  4.055440E+02 -5.090200E+03
       289  22 -5.253839E+02 -7.221018E+04 -2.832762E+03 -1.847030E+04  8.203101E+02  6.432533E+02
       289  23 -1.367472E+03 -7.185832E+04 -3.005650E+03 -1.720177E+04  1.129796E+03 -8.827203E+02
       289  24 -4.230081E+03 -7.221059E+04 -4.677310E+03 -1.847059E+04  4.052885E+02 -2.408722E+03
       289  25  3.415665E+03 -5.552420E+04  1.853943E+02 -1.839284E+04  8.204765E+02 -1.141515E+03
       289  26  6.110951E+03 -4.067441E+04  3.202116E+03 -1.570284E+04  1.129750E+03 -4.342576E+02
       289  27  7.173448E+03 -2.614098E+04  6.270983E+03 -1.555016E+04  4.050582E+02  2.729549E+02
       290   1  1.293082E+05  5.837011E+04  1.559632E+04  6.903730E+04  6.530506E+03  3.011511E+03
       290   2  1.343502E+05  6.677650E+04  1.472695E+04  7.205718E+04  6.794171E+03 -1.793786E+03
       290   3  1.405689E+05  7.252100E+04  1.523061E+04  7.527253E+04  5.957222E+03 -5.131664E+03
       290   4  5.984297E+04  1.424150E+04 -5.082400E+03  3.687753E+04 -1.971788E+03 -3.365563E+03
       290   5  6.037081E+04  1.728886E+04 -2.522657E+03  3.575035E+04  1.462215E+03 -5.793212E+03
       290   6  6.138731E+04  1.698626E+04 -1.341561E+03  3.481864E+04  3.795556E+03 -6.753288E+03
       290   7 -9.616902E+03 -2.988502E+04 -2.576125E+04  4.721673E+03 -1.047279E+04 -9.741800E+03
       290   8 -1.360306E+04 -3.219640E+04 -1.977275E+04 -5.519928E+02 -3.868952E+03 -9.792090E+03
       290   9 -1.778869E+04 -3.854587E+04 -1.791461E+04 -5.630135E+03  1.634207E+03 -8.374676E+03
       290  10  1.293081E+05  5.837009E+04  1.559622E+04  6.903728E+04 -2.154184E-08 -1.648516E-08
       290  11  1.343501E+05  6.677649E+04  1.472686E+04  7.205719E+04  2.286041E-08  1.528054E-08
       290  12  1.405689E+05  7.252096E+04  1.523050E+04  7.527255E+04  4.262381E-08  2.737667E-08
       290  13  5.984297E+04  1.424149E+04 -5.082429E+03  3.687753E+04  8.556820E-09  6.220984E-09
       290  14  6.037080E+04  1.728883E+04 -2.522724E+03  3.575035E+04  2.149509E-08  1.557581E-08
       290  15  6.138728E+04  1.698621E+04 -1.341674E+03  3.481866E+04  8.535432E-09  6.116792E-09
       290  16 -9.617045E+03 -2.988515E+04 -2.576163E+04  4.721591E+03  3.864036E-08  2.873660E-08
       290  17 -1.360310E+04 -3.219651E+04 -1.977296E+04 -5.520233E+02  1.990559E-08  1.566952E-08
       290  18 -1.778871E+04 -3.854595E+04 -1.791474E+04 -5.630124E+03 -2.544201E-08 -1.514793E-08
       290  19  1.293082E+05  5.837011E+04  1.559632E+04  6.903730E+04 -6.530506E+03 -3.011511E+03
       290  20  1.343502E+05  6.677650E+04  1.472695E+04  7.205718E+04 -6.794171E+03  1.793786E+03
       290  21  1.405689E+05  7.252100E+04  1.523061E+04  7.527253E+04 -5.957222E+03  5.131664E+03
       290  22  5.984297E+04  1.424150E+04 -5.082400E+03  3.687753E+04  1.971788E+03  3.365563E+03
       290  23  6.037081E+04  1.728886E+04 -2.522657E+03  3.575035E+04 -1.462215E+03  5.793212E+03
       290  24  6.138731E+04  1.698626E+04 -1.341561E+03  3.481864E+04 -3.795556E+03  6.753288E+03
       290  25 -9.616902E+03 -2.988502E+04 -2.576125E+04  4.721673E+03  1.047279E+04  9.741800E+03
       290  26 -1.360306E+04 -3.219640E+04 -1.977275E+04 -5.519928E+02  3.868952E+03  9.792090E+03
       290  27 -1.778869E+04 -3.854587E+04 -1.791461E+04 -5.630135E+03 -1.634207E+03  8.374676E+03
       291   1  1.448366E+05  7.531464E+04  1.606746E+04  7.736491E+04  6.464548E+03 -5.571374E+03
       291   2  1.505888E+05  8.092757E+04  1.727954E+04  8.095911E+04  6.929044E+03 -6.625919E+03
       291   3  1.579063E+05  8.489765E+04  1.863938E+04  8.413875E+04  7.255346E+03 -7.496156E+03
       291   4  6.148343E+04  1.712754E+04 -9.833750E+02  3.484601E+04  4.325894E+03 -7.175794E+03
       291   5  6.080222E+04  1.809555E+04 -4.713738E+02  3.497556E+04  5.188560E+03 -7.931754E+03
       291   6  6.159986E+04  1.733453E+04 -1.571129E+02  3.469062E+04  5.913018E+03 -8.503397E+03
       291   7 -2.185936E+04 -4.105377E+04 -1.803374E+04 -7.665216E+03  2.187672E+03 -8.779893E+03
       291   8 -2.897351E+04 -4.473051E+04 -1.822212E+04 -1.099962E+04  3.448430E+03 -9.237323E+03
       291   9 -3.469526E+04 -5.022254E+04 -1.895380E+04 -1.474842E+04  4.570966E+03 -9.510430E+03
       291  10  1.448365E+05  7.531459E+04  1.606733E+04  7.736494E+04  2.834284E-09 -1.860924E-09
       291  11  1.505887E+05  8.092751E+04  1.727937E+04  8.095915E+04  1.051640E-09  3.210526E-10
       291  12  1.579062E+05  8.489757E+04  1.863917E+04  8.413879E+04  4.764915E-10  8.741679E-10
       291  13  6.148340E+04  1.712748E+04 -9.835070E+02  3.484604E+04 -8.374974E-11  2.368503E-10
       291  14  6.080217E+04  1.809548E+04 -4.715426E+02  3.497559E+04 -2.341046E-10  7.447478E-10
       291  15  6.159981E+04  1.733444E+04 -1.573145E+02  3.469066E+04 -3.384351E-10  4.506174E-10
       291  16 -2.185938E+04 -4.105385E+04 -1.803390E+04 -7.665201E+03 -2.974400E-09  2.108086E-09
       291  17 -2.897354E+04 -4.473060E+04 -1.822230E+04 -1.099959E+04 -1.703268E-09  9.834559E-10
       291  18 -3.469530E+04 -5.022264E+04 -1.895401E+04 -1.474839E+04 -1.273262E-09  2.119874E-10
       291  19  1.448366E+05  7.531464E+04  1.606746E+04  7.736491E+04 -6.464548E+03  5.571374E+03
       291  20  1.505888E+05  8.092757E+04  1.727954E+04  8.095911E+04 -6.929044E+03  6.625919E+03
       291  21  1.579063E+05  8.489765E+04  1.863938E+04  8.413875E+04 -7.255346E+03  7.496156E+03
       291  22  6.148343E+04  1.712754E+04 -9.833750E+02  3.484601E+04 -4.325894E+03  7.175794E+03
       291  23  6.080222E+04  1.809555E+04 -4.713738E+02  3.497556E+04 -5.188560E+03  7.931754E+03
       291  24  6.159986E+04  1.733453E+04 -1.571129E+02  3.469062E+04 -5.913018E+03  8.503397E+03
       291  25 -2.185936E+04 -4.105377E+04 -1.803374E+04 -7.665216E+03 -2.187672E+03  8.779893E+03
       291  26 -2.897351E+04 -4.473051E+04 -1.822212E+04 -1.099962E+04 -3.448430E+03  9.237323E+03
       291  27 -3.469526E+04 -5.022254E+04 -1.895380E+04 -1.474842E+04 -4.570966E+03  9.510430E+03
       292   1  1.620506E+05  8.779412E+04  1.956944E+04  8.626326E+04  7.530703E+03 -7.846599E+03
       292   2  1.678701E+05  9.321434E+04  2.109295E+04  8.986816E+04  7.718423E+03 -8.617479E+03
       292   3  1.753171E+05  9.712296E+04  2.283500E+04  9.301496E+04  7.851654E+03 -9.315650E+03
       292   4  6.161111E+04  1.734935E+04 -2.814199E+01  3.470079E+04  6.191882E+03 -8.851261E+03
       292   5  6.082558E+04  1.814344E+04  2.342050E+02  3.491310E+04  6.536700E+03 -9.504377E+03
       292   6  6.163355E+04  1.739142E+04  5.787293E+02  3.466710E+04  6.827026E+03 -1.008476E+04
       292   7 -3.881846E+04 -5.309059E+04 -1.962678E+04 -1.685300E+04  4.853318E+03 -9.855729E+03
       292   8 -4.620507E+04 -5.692006E+04 -2.062483E+04 -2.003079E+04  5.355246E+03 -1.039107E+04
       292   9 -5.203175E+04 -6.232990E+04 -2.167697E+04 -2.366687E+04  5.802669E+03 -1.085367E+04
       292  10  1.620505E+05  8.779404E+04  1.956922E+04  8.626330E+04  5.732289E-10  8.815156E-10
       292  11  1.678700E+05  9.321425E+04  2.109270E+04  8.986822E+04  2.513589E-10  5.380650E-10
       292  12  1.753171E+05  9.712285E+04  2.283472E+04  9.301502E+04  9.512298E-11  5.120910E-13
       292  13  6.161105E+04  1.734925E+04 -2.836127E+01  3.470084E+04 -2.338395E-10  6.356855E-10
       292  14  6.082551E+04  1.814333E+04  2.339550E+02  3.491315E+04 -8.926962E-11  4.130565E-10
       292  15  6.163347E+04  1.739130E+04  5.784506E+02  3.466715E+04 -1.285134E-10  3.207754E-10
       292  16 -3.881851E+04 -5.309070E+04 -1.962701E+04 -1.685296E+04 -1.292367E-09 -5.149266E-11
       292  17 -4.620513E+04 -5.692018E+04 -2.062508E+04 -2.003075E+04 -7.885698E-10 -9.820080E-11
       292  18 -5.203181E+04 -6.233003E+04 -2.167725E+04 -2.366682E+04 -5.178001E-10  1.221256E-12
       292  19  1.620506E+05  8.779412E+04  1.956944E+04  8.626326E+04 -7.530703E+03  7.846599E+03
       292  20  1.678701E+05  9.321434E+04  2.109295E+04  8.986816E+04 -7.718423E+03  8.617479E+03
       292  21  1.753171E+05  9.712296E+04  2.283500E+04  9.301496E+04 -7.851654E+03  9.315650E+03
       292  22  6.161111E+04  1.734935E+04 -2.814199E+01  3.470079E+04 -6.191882E+03  8.851261E+03
       292  23  6.082558E+04  1.814344E+04  2.342050E+02  3.491310E+04 -6.536700E+03  9.504377E+03
       292  24  6.163355E+04  1.739142E+04  5.787293E+02  3.466710E+04 -6.827026E+03  1.008476E+04
       292  25 -3.881846E+04 -5.309059E+04 -1.962678E+04 -1.685300E+04 -4.853318E+03  9.855729E+03
       292  26 -4.620507E+04 -5.692006E+04 -2.062483E+04 -2.003079E+04 -5.355246E+03  1.039107E+04
       292  27 -5.203175E+04 -6.232990E+04 -2.167697E+04 -2.366687E+04 -5.802669E+03  1.085367E+04
       293   1  1.794621E+05  1.001304E+05  2.399539E+04  9.516773E+04  7.968267E+03 -9.681387E+03
       293   2  1.855613E+05  1.053717E+05  2.650433E+04  9.846979E+04  6.644097E+03 -1.108030E+04
       293   3  1.937104E+05  1.096734E+05  3.042189E+04  1.011979E+05  5.002160E+03 -1.205571E+04
       293   4  6.165882E+04  1.742483E+04  8.101394E+02  3.468484E+04  6.950518E+03 -1.044538E+04
       293   5  6.089488E+04  1.828092E+04  1.507709E+03  3.475649E+04  6.541650E+03 -1.115761E+04
       293   6  6.198207E+04  1.799897E+04  2.819603E+03  3.425416E+04  5.814985E+03 -1.144625E+04
       293   7 -5.612773E+04 -6.527191E+04 -2.237552E+04 -2.578458E+04  5.933024E+03 -1.120918E+04
       293   8 -6.375442E+04 -6.880115E+04 -2.348993E+04 -2.894257E+04  6.439230E+03 -1.123490E+04
       293   9 -6.972876E+04 -7.366695E+04 -2.478446E+04 -3.267455E+04  6.627599E+03 -1.083696E+04
       293  10  1.794620E+05  1.001303E+05  2.399509E+04  9.516779E+04  1.208863E-10  6.444039E-11
       293  11  1.855613E+05  1.053716E+05  2.650402E+04  9.846985E+04  3.089067E-11  1.578252E-10
       293  12  1.937104E+05  1.096732E+05  3.042157E+04  1.011979E+05 -1.918345E-10 -1.161913E-10
       293  13  6.165874E+04  1.742470E+04  8.098436E+02  3.468490E+04  6.537626E-11  8.721508E-11
       293  14  6.089480E+04  1.828077E+04  1.507395E+03  3.475655E+04 -1.233873E-10 -1.859415E-10
       293  15  6.198200E+04  1.799882E+04  2.819294E+03  3.425422E+04 -2.354625E-10 -4.360422E-10
       293  16 -5.612780E+04 -6.527205E+04 -2.237582E+04 -2.578452E+04 -1.655791E-10  8.457266E-11
       293  17 -6.375449E+04 -6.880130E+04 -2.349024E+04 -2.894251E+04 -1.528793E-10  2.609764E-10
       293  18 -6.972884E+04 -7.366709E+04 -2.478476E+04 -3.267449E+04  7.521323E-12  8.517379E-11
       293  19  1.794621E+05  1.001304E+05  2.399539E+04  9.516773E+04 -7.968267E+03  9.681387E+03
       293  20  1.855613E+05  1.053717E+05  2.650433E+04  9.846979E+04 -6.644097E+03  1.108030E+04
       293  21  1.937104E+05  1.096734E+05  3.042189E+04  1.011979E+05 -5.002160E+03  1.205571E+04
       293  22  6.165882E+04  1.742483E+04  8.101394E+02  3.468484E+04 -6.950518E+03  1.044538E+04
       293  23  6.089488E+04  1.828092E+04  1.507709E+03  3.475649E+04 -6.541650E+03  1.115761E+04
       293  24  6.198207E+04  1.799897E+04  2.819603E+03  3.425416E+04 -5.814985E+03  1.144625E+04
       293  25 -5.612773E+04 -6.527191E+04 -2.237552E+04 -2.578458E+04 -5.933024E+03  1.120918E+04
       293  26 -6.375442E+04 -6.880115E+04 -2.348993E+04 -2.894257E+04 -6.439230E+03  1.123490E+04
       293  27 -6.972876E+04 -7.366695E+04 -2.478446E+04 -3.267455E+04 -6.627599E+03  1.083696E+04
       294   1  1.979810E+05  1.136080E+05  3.304821E+04  1.035357E+05  4.484624E+03 -1.229200E+04
       294   2  2.083181E+05  1.164719E+05  4.209588E+04  1.032993E+05 -7.457571E+03 -1.791710E+04
       294   3  2.248935E+05  1.242199E+05  6.144637E+04  1.007939E+05 -2.200123E+04 -2.007613E+04
       294   4  6.225750E+04  1.837765E+04  3.771863E+03  3.432464E+04  5.352019E+03 -1.164158E+04
       294   5  6.207544E+04  2.052125E+04  6.969145E+03  3.262744E+04  9.003430E+02 -1.164570E+04
       294   6  6.650679E+04  2.592470E+04  1.396796E+04  2.866118E+04 -6.152976E+03 -8.183345E+03
       294   7 -7.344086E+04 -7.683883E+04 -2.550419E+04 -3.486714E+04  6.219141E+03 -1.099137E+04
       294   8 -8.414068E+04 -7.541727E+04 -2.815804E+04 -3.802489E+04  9.255505E+03 -5.376176E+03
       294   9 -9.185214E+04 -7.236031E+04 -3.351170E+04 -4.345181E+04  9.689719E+03  3.705961E+03
       294  10  1.979809E+05  1.136078E+05  3.304788E+04  1.035357E+05  1.288902E-10  5.314178E-10
       294  11  2.083180E+05  1.164715E+05  4.209517E+04  1.032992E+05  2.510691E-10  3.391302E-10
       294  12  2.248929E+05  1.242194E+05  6.144470E+04  1.007936E+05  2.485117E-10  1.947223E-10
       294  13  6.225743E+04  1.837749E+04  3.771555E+03  3.432469E+04  2.058977E-11 -7.571005E-11
       294  14  6.207540E+04  2.052110E+04  6.968889E+03  3.262745E+04  1.517967E-10  4.613247E-10
       294  15  6.650674E+04  2.592461E+04  1.396777E+04  2.866114E+04 -1.353064E-10  5.349125E-11
       294  16 -7.344094E+04 -7.683897E+04 -2.550449E+04 -3.486708E+04 -2.723470E-10 -2.429939E-10
       294  17 -8.414078E+04 -7.541733E+04 -2.815826E+04 -3.802485E+04 -3.374353E-10  5.046748E-10
       294  18 -9.185224E+04 -7.236035E+04 -3.351190E+04 -4.345184E+04 -1.805252E-11 -2.955898E-10
       294  19  1.979810E+05  1.136080E+05  3.304821E+04  1.035357E+05 -4.484624E+03  1.229200E+04
       294  20  2.083181E+05  1.164719E+05  4.209588E+04  1.032993E+05  7.457571E+03  1.791710E+04
       294  21  2.248935E+05  1.242199E+05  6.144637E+04  1.007939E+05  2.200123E+04  2.007613E+04
       294  22  6.225750E+04  1.837765E+04  3.771863E+03  3.432464E+04 -5.352019E+03  1.164158E+04
       294  23  6.207544E+04  2.052125E+04  6.969145E+03  3.262744E+04 -9.003430E+02  1.164570E+04
       294  24  6.650679E+04  2.592470E+04  1.396796E+04  2.866118E+04  6.152976E+03  8.183345E+03
       294  25 -7.344086E+04 -7.683883E+04 -2.550419E+04 -3.486714E+04 -6.219141E+03  1.099137E+04
       294  26 -8.414068E+04 -7.541727E+04 -2.815804E+04 -3.802489E+04 -9.255505E+03  5.376176E+03
       294  27 -9.185214E+04 -7.236031E+04 -3.351170E+04 -4.345181E+04 -9.689719E+03 -3.705961E+03
       295   1  1.246106E+06  2.145090E+05  2.064952E+05  1.289490E+05  8.810557E+04 -9.190765E+03
       295   2  1.155746E+06  1.641147E+05  1.369099E+05  1.111826E+05  4.471391E+04 -3.071590E+04
       295   3  1.076280E+06  1.346558E+05  1.007784E+05  1.072637E+05  1.327824E+03 -3.641827E+04
       295   4  5.087461E+05  3.293138E+04  3.531265E+04  1.066862E+05  2.445692E+04 -9.222357E+03
       295   5  5.062886E+05  1.053953E+04  1.792695E+04  9.977129E+04  1.530885E+04 -3.073481E+04
       295   6  5.087894E+05  3.156899E+03  1.025192E+04  1.067023E+05  6.158476E+03 -3.641840E+04
       295   7 -2.281025E+05 -1.486805E+05 -1.358910E+05  8.444991E+04 -3.911680E+04 -9.249416E+03
       295   8 -1.427574E+05 -1.430586E+05 -1.010699E+05  8.837212E+04 -1.406632E+04 -3.075266E+04
       295   9 -5.838146E+04 -1.283581E+05 -8.028286E+04  1.061413E+05  1.098488E+04 -3.641854E+04
       295  10  1.246097E+06  2.145068E+05  2.064805E+05  1.289497E+05  1.079669E-09 -2.562470E-10
       295  11  1.155743E+06  1.641132E+05  1.369044E+05  1.111837E+05  1.052327E-10 -1.369977E-09
       295  12  1.076280E+06  1.346544E+05  1.007759E+05  1.072638E+05 -2.795725E-10 -9.697568E-10
       295  13  5.087455E+05  3.293113E+04  3.531137E+04  1.066864E+05  1.640496E-10  1.079270E-10
       295  14  5.062880E+05  1.053845E+04  1.792473E+04  9.977167E+04 -2.845617E-12 -8.373697E-10
       295  15  5.087890E+05  3.155464E+03  1.024935E+04  1.067025E+05  2.623637E-10 -8.157851E-12
       295  16 -2.281042E+05 -1.486810E+05 -1.358941E+05  8.444962E+04 -1.258626E-09 -4.418091E-11
       295  17 -1.427579E+05 -1.430597E+05 -1.010720E+05  8.837177E+04 -4.956658E-10 -1.521670E-09
       295  18 -5.838194E+04 -1.283596E+05 -8.028558E+04  1.061416E+05  3.785028E-10 -1.536988E-09
       295  19  1.246106E+06  2.145090E+05  2.064952E+05  1.289490E+05 -8.810557E+04  9.190765E+03
       295  20  1.155746E+06  1.641147E+05  1.369099E+05  1.111826E+05 -4.471391E+04  3.071590E+04
       295  21  1.076280E+06  1.346558E+05  1.007784E+05  1.072637E+05 -1.327824E+03  3.641827E+04
       295  22  5.087461E+05  3.293138E+04  3.531265E+04  1.066862E+05 -2.445692E+04  9.222357E+03
       295  23  5.062886E+05  1.053953E+04  1.792695E+04  9.977129E+04 -1.530885E+04  3.073481E+04
       295  24  5.087894E+05  3.156899E+03  1.025192E+04  1.067023E+05 -6.158476E+03  3.641840E+04
       295  25 -2.281025E+05 -1.486805E+05 -1.358910E+05  8.444991E+04  3.911680E+04  9.249416E+03
       295  26 -1.427574E+05 -1.430586E+05 -1.010699E+05  8.837212E+04  1.406632E+04  3.075266E+04
       295  27 -5.838146E+04 -1.283581E+05 -8.028286E+04  1.061413E+05 -1.098488E+04  3.641854E+04
       296   1  1.021358E+06  1.210330E+05  8.786726E+04  1.086053E+05 -3.093971E+02 -3.449477E+04
       296   2  9.359067E+05  9.899452E+04  6.873631E+04  1.003390E+05 -7.181853E+03 -3.120808E+04
       296   3  8.518835E+05  7.909978E+04  5.460846E+04  1.070512E+05 -1.405568E+04 -2.603886E+04
       296   4  5.078571E+05  2.471753E+03  8.114695E+03  1.069535E+05  4.770715E+03 -3.449411E+04
       296   5  5.075113E+05  7.604894E+02  5.606703E+03  9.946466E+04  1.971567E+03 -3.120359E+04
       296   6  5.078821E+05  4.879886E+02  5.277742E+03  1.069549E+05 -8.297783E+02 -2.602987E+04
       296   7 -5.380647E+03 -1.161023E+05 -7.164391E+04  1.053029E+05  9.846788E+03 -3.449348E+04
       296   8  7.930052E+04 -9.748204E+04 -5.752588E+04  9.859088E+04  1.111894E+04 -3.119912E+04
       296   9  1.640006E+05 -7.812909E+04 -4.405412E+04  1.068587E+05  1.238911E+04 -2.602089E+04
       296  10  1.021357E+06  1.210317E+05  8.786503E+04  1.086053E+05 -2.253314E-09 -1.168527E-09
       296  11  9.359063E+05  9.899346E+04  6.873438E+04  1.003388E+05 -3.862172E-10  6.311556E-10
       296  12  8.518831E+05  7.909900E+04  5.460681E+04  1.070509E+05  2.253761E-10  7.268325E-10
       296  13  5.078567E+05  2.470469E+03  8.112416E+03  1.069536E+05  5.488055E-11 -7.219381E-10
       296  14  5.075110E+05  7.594426E+02  5.604866E+03  9.946471E+04  1.078167E-10  4.470812E-11
       296  15  5.078820E+05  4.872607E+02  5.276467E+03  1.069549E+05 -3.034612E-10 -6.742915E-10
       296  16 -5.381071E+03 -1.161036E+05 -7.164633E+04  1.053032E+05  2.018771E-09  7.505200E-11
       296  17  7.930012E+04 -9.748312E+04 -5.752794E+04  9.859116E+04  5.330327E-10  5.029522E-10
       296  18  1.640002E+05 -7.812986E+04 -4.405568E+04  1.068590E+05 -1.568412E-10  1.937705E-10
       296  19  1.021358E+06  1.210330E+05  8.786726E+04  1.086053E+05  3.093971E+02  3.449477E+04
       296  20  9.359067E+05  9.899452E+04  6.873631E+04  1.003390E+05  7.181853E+03  3.120808E+04
       296  21  8.518835E+05  7.909978E+04  5.460846E+04  1.070512E+05  1.405568E+04  2.603886E+04
       296  22  5.078571E+05  2.471753E+03  8.114695E+03  1.069535E+05 -4.770715E+03  3.449411E+04
       296  23  5.075113E+05  7.604894E+02  5.606703E+03  9.946466E+04 -1.971567E+03  3.120359E+04
       296  24  5.078821E+05  4.879886E+02  5.277742E+03  1.069549E+05  8.297783E+02  2.602987E+04
       296  25 -5.380647E+03 -1.161023E+05 -7.164391E+04  1.053029E+05 -9.846788E+03  3.449348E+04
       296  26  7.930052E+04 -9.748204E+04 -5.752588E+04  9.859088E+04 -1.111894E+04  3.119912E+04
       296  27  1.640006E+05 -7.812909E+04 -4.405412E+04  1.068587E+05 -1.238911E+04  2.602089E+04
       297   1  7.989253E+05  6.691664E+04  4.695615E+04  1.073993E+05 -1.502011E+04 -2.239342E+04
       297   2  7.137104E+05  4.834133E+04  3.682284E+04  9.843248E+04 -1.893622E+04 -1.631319E+04
       297   3  6.295913E+05  3.216617E+04  2.983105E+04  1.045497E+05 -2.285257E+04 -1.032140E+04
       297   4  5.079784E+05  5.293667E+02  5.748049E+03  1.069785E+05 -1.771255E+03 -2.238367E+04
       297   5  5.074228E+05  1.391831E+03  8.205757E+03  9.943486E+04 -5.878265E+03 -1.630283E+04
       297   6  5.079886E+05  4.688089E+03  1.393739E+04  1.069754E+05 -9.985992E+03 -1.031046E+04
       297   7  2.171175E+05 -6.586161E+04 -3.546058E+04  1.065578E+05  1.147166E+04 -2.237393E+04
       297   8  3.011787E+05 -4.555945E+04 -2.041119E+04  1.004369E+05  7.175550E+03 -1.629242E+04
       297   9  3.864015E+05 -2.279050E+04 -1.955727E+03  1.094005E+05  2.878187E+03 -1.029941E+04
       297  10  7.989249E+05  6.691604E+04  4.695479E+04  1.073990E+05 -8.894461E-10  1.033511E-09
       297  11  7.137099E+05  4.834095E+04  3.682167E+04  9.843223E+04  4.358011E-10  8.443403E-10
       297  12  6.295907E+05  3.216591E+04  2.982987E+04  1.045495E+05  1.574201E-09 -8.512572E-11
       297  13  5.079783E+05  5.288278E+02  5.747101E+03  1.069784E+05 -3.231489E-10 -1.033654E-09
       297  14  5.074227E+05  1.391536E+03  8.205193E+03  9.943479E+04  1.317729E-10  6.056822E-10
       297  15  5.079885E+05  4.687948E+03  1.393701E+04  1.069753E+05  1.567193E-10  1.310051E-09
       297  16  2.171172E+05 -6.586219E+04 -3.546177E+04  1.065580E+05  9.282388E-10  6.307313E-10
       297  17  3.011786E+05 -4.555975E+04 -2.041179E+04  1.004370E+05 -4.716472E-10  9.994456E-10
       297  18  3.864015E+05 -2.279061E+04 -1.955942E+03  1.094006E+05 -1.743575E-09 -3.307564E-10
       297  19  7.989253E+05  6.691664E+04  4.695615E+04  1.073993E+05  1.502011E+04  2.239342E+04
       297  20  7.137104E+05  4.834133E+04  3.682284E+04  9.843248E+04  1.893622E+04  1.631319E+04
       297  21  6.295913E+05  3.216617E+04  2.983105E+04  1.045497E+05  2.285257E+04  1.032140E+04
       297  22  5.079784E+05  5.293667E+02  5.748049E+03  1.069785E+05  1.771255E+03  2.238367E+04
       297  23  5.074228E+05  1.391831E+03  8.205757E+03  9.943486E+04  5.878265E+03  1.630283E+04
       297  24  5.079886E+05  4.688089E+03  1.393739E+04  1.069754E+05  9.985992E+03  1.031046E+04
       297  25  2.171175E+05 -6.586161E+04 -3.546058E+04  1.065578E+05 -1.147166E+04  2.237393E+04
       297  26  3.011787E+05 -4.555945E+04 -2.041119E+04  1.004369E+05 -7.175550E+03  1.629242E+04
       297  27  3.864015E+05 -2.279050E+04 -1.955727E+03  1.094005E+05 -2.878187E+03  1.029941E+04
       298   1  5.783222E+05  2.122400E+04  2.593841E+04  1.064869E+05 -2.521652E+04 -6.758172E+03
       298   2  4.895779E+05  1.534415E+04  2.631649E+04  7.863303E+04 -3.653840E+04 -2.139569E+03
       298   3  4.090615E+05  3.654085E+04  4.082557E+04  6.567728E+04 -4.785709E+04 -1.339399E+02
       298   4  5.097854E+05  5.996178E+03  1.828708E+04  1.069367E+05 -1.238995E+04 -6.746958E+03
       298   5  5.051800E+05  1.987889E+04  3.318723E+04  9.946695E+04 -2.936235E+04 -2.134521E+03
       298   6  5.097703E+05  6.181566E+04  6.613748E+04  1.068924E+05 -4.633295E+04 -1.357703E+02
       298   7  4.412538E+05 -9.231731E+03  1.063641E+04  1.073864E+05  4.352723E+02 -6.735725E+03
       298   8  5.207833E+05  2.441527E+04  4.005837E+04  1.203014E+05 -2.218611E+04 -2.128992E+03
       298   9  6.104920E+05  8.709608E+04  9.144953E+04  1.481142E+05 -4.480857E+04 -1.373982E+02
       298  10  5.783215E+05  2.122378E+04  2.593713E+04  1.064868E+05  7.003211E-11 -5.443529E-11
       298  11  4.895765E+05  1.534378E+04  2.631397E+04  7.863296E+04  7.804857E-10  1.668442E-09
       298  12  4.090590E+05  3.654024E+04  4.082127E+04  6.567727E+04  5.295192E-10  5.942472E-10
       298  13  5.097852E+05  5.996088E+03  1.828671E+04  1.069366E+05 -1.269085E-11 -4.675925E-11
       298  14  5.051791E+05  1.987866E+04  3.318560E+04  9.946690E+04  4.476351E-10  1.883616E-09
       298  15  5.097680E+05  6.181509E+04  6.613345E+04  1.068924E+05 -9.987271E-11 -2.644786E-10
       298  16  4.412538E+05 -9.231780E+03  1.063633E+04  1.073864E+05 -3.110510E-10 -1.613104E-10
       298  17  5.207828E+05  2.441513E+04  4.005743E+04  1.203013E+05 -5.489480E-10 -8.753110E-12
       298  18  6.104899E+05  8.709554E+04  9.144576E+04  1.481142E+05 -4.706516E-10 -3.691848E-10
       298  19  5.783222E+05  2.122400E+04  2.593841E+04  1.064869E+05  2.521652E+04  6.758172E+03
       298  20  4.895779E+05  1.534415E+04  2.631649E+04  7.863303E+04  3.653840E+04  2.139569E+03
       298  21  4.090615E+05  3.654085E+04  4.082557E+04  6.567728E+04  4.785709E+04  1.339399E+02
       298  22  5.097854E+05  5.996178E+03  1.828708E+04  1.069367E+05  1.238995E+04  6.746958E+03
       298  23  5.051800E+05  1.987889E+04  3.318723E+04  9.946695E+04  2.936235E+04  2.134521E+03
       298  24  5.097703E+05  6.181566E+04  6.613748E+04  1.068924E+05  4.633295E+04  1.357703E+02
       298  25  4.412538E+05 -9.231731E+03  1.063641E+04  1.073864E+05 -4.352723E+02  6.735725E+03
       298  26  5.207833E+05  2.441527E+04  4.005837E+04  1.203014E+05  2.218611E+04  2.128992E+03
       298  27  6.104920E+05  8.709608E+04  9.144953E+04  1.481142E+05  4.480857E+04  1.373982E+02
       299   1 -2.643053E+04  1.934657E+05 -3.026261E+04  3.443163E+04  9.370547E+02 -2.430643E+04
       299   2  1.677965E+03  2.023642E+05 -1.024778E+04  2.061428E+04  3.399101E+03 -1.606549E+04
       299   3  1.203181E+04  2.057530E+05 -3.490525E+01  7.984273E+03  4.710850E+03 -7.824645E+03
       299   4 -4.015631E+04  1.374479E+05 -4.294934E+04  7.735804E+03  9.395706E+02 -3.086851E+04
       299   5 -1.284308E+04  1.404174E+05 -2.095447E+04  7.146406E+03  3.400428E+03 -2.014386E+04
       299   6 -3.717229E+03  1.374451E+05 -1.048652E+04  7.744841E+03  4.711287E+03 -9.419273E+03
       299   7 -5.387961E+04  8.143474E+04 -5.563573E+04 -1.895759E+04  9.426509E+02 -3.742999E+04
       299   8 -2.736365E+04  7.847469E+04 -3.166114E+04 -6.320086E+03  3.401933E+03 -2.422184E+04
       299   9 -1.946649E+04  6.914193E+04 -2.093822E+04  7.505436E+03  4.711726E+03 -1.101373E+04
       299  10 -2.643069E+04  1.934650E+05 -3.026372E+04  3.443165E+04  4.258372E-11 -2.063811E-10
       299  11  1.677883E+03  2.023639E+05 -1.024828E+04  2.061433E+04 -1.127736E-10 -3.051260E-10
       299  12  1.203177E+04  2.057530E+05 -3.506197E+01  7.984302E+03  7.186547E-11  4.251994E-10
       299  13 -4.015657E+04  1.374469E+05 -4.295113E+04  7.735827E+03 -7.198061E-12  3.530884E-12
       299  14 -1.284320E+04  1.404169E+05 -2.095525E+04  7.146461E+03 -2.628814E-10  5.710480E-11
       299  15 -3.717276E+03  1.374450E+05 -1.048673E+04  7.744877E+03  1.401657E-11  6.911978E-10
       299  16 -5.387999E+04  8.143323E+04 -5.563836E+04 -1.895756E+04 -8.922787E-11  1.365329E-10
       299  17 -2.736382E+04  7.847406E+04 -3.166226E+04 -6.320019E+03 -3.384981E-13 -2.511184E-10
       299  18 -1.946655E+04  6.914179E+04 -2.093849E+04  7.505478E+03 -1.948220E-10 -2.109881E-10
       299  19 -2.643053E+04  1.934657E+05 -3.026261E+04  3.443163E+04 -9.370547E+02  2.430643E+04
       299  20  1.677965E+03  2.023642E+05 -1.024778E+04  2.061428E+04 -3.399101E+03  1.606549E+04
       299  21  1.203181E+04  2.057530E+05 -3.490525E+01  7.984273E+03 -4.710850E+03  7.824645E+03
       299  22 -4.015631E+04  1.374479E+05 -4.294934E+04  7.735804E+03 -9.395706E+02  3.086851E+04
       299  23 -1.284308E+04  1.404174E+05 -2.095447E+04  7.146406E+03 -3.400428E+03  2.014386E+04
       299  24 -3.717229E+03  1.374451E+05 -1.048652E+04  7.744841E+03 -4.711287E+03  9.419273E+03
       299  25 -5.387961E+04  8.143474E+04 -5.563573E+04 -1.895759E+04 -9.426509E+02  3.742999E+04
       299  26 -2.736365E+04  7.847469E+04 -3.166114E+04 -6.320086E+03 -3.401933E+03  2.422184E+04
       299  27 -1.946649E+04  6.914193E+04 -2.093822E+04  7.505436E+03 -4.711726E+03  1.101373E+04
       300   1  1.374052E+04  2.108101E+05  3.719248E+03  9.169095E+03  5.105387E+03 -6.572116E+03
       300   2  1.764157E+04  2.170291E+05  9.838035E+03  8.282226E+03  5.636669E+03 -6.532109E+03
       300   3  2.111597E+04  2.231375E+05  1.582445E+04  8.487075E+03  5.773593E+03 -6.492194E+03
       300   4 -2.845023E+03  1.387080E+05 -7.125284E+03  7.722781E+03  5.105848E+03 -8.145315E+03
       300   5 -3.168934E+02  1.388368E+05 -1.781651E+03  7.177510E+03  5.636936E+03 -7.253331E+03
       300   6  1.636682E+03  1.387071E+05  2.838087E+03  7.723969E+03  5.773641E+03 -6.361436E+03
       300   7 -1.943080E+04  6.661107E+04 -1.796991E+04  6.276642E+03  5.106317E+03 -9.718338E+03
       300   8 -1.827564E+04  6.065068E+04 -1.340145E+04  6.072939E+03  5.637207E+03 -7.974466E+03
       300   9 -1.784295E+04  5.428387E+04 -1.014843E+04  6.960972E+03  5.773689E+03 -6.230694E+03
       300  10  1.374048E+04  2.108101E+05  3.719118E+03  9.169122E+03  1.031948E-10 -3.384261E-10
       300  11  1.764153E+04  2.170291E+05  9.837895E+03  8.282255E+03  4.559147E-11 -3.982388E-10
       300  12  2.111592E+04  2.231374E+05  1.582430E+04  8.487105E+03  1.514406E-10  5.008156E-10
       300  13 -2.845069E+03  1.387079E+05 -7.125457E+03  7.722815E+03 -1.027127E-10 -2.113516E-12
       300  14 -3.169417E+02  1.388368E+05 -1.781809E+03  7.177543E+03 -8.773150E-11 -3.995871E-11
       300  15  1.636635E+03  1.387071E+05  2.837948E+03  7.723999E+03  1.329586E-10  6.935348E-10
       300  16 -1.943086E+04  6.661096E+04 -1.797013E+04  6.276682E+03 -6.601464E-11  1.376483E-10
       300  17 -1.827569E+04  6.065060E+04 -1.340163E+04  6.072975E+03 -4.380330E-10 -2.839927E-10
       300  18 -1.784299E+04  5.428382E+04 -1.014857E+04  6.961001E+03 -1.187243E-12 -3.900531E-10
       300  19  1.374052E+04  2.108101E+05  3.719248E+03  9.169095E+03 -5.105387E+03  6.572116E+03
       300  20  1.764157E+04  2.170291E+05  9.838035E+03  8.282226E+03 -5.636669E+03  6.532109E+03
       300  21  2.111597E+04  2.231375E+05  1.582445E+04  8.487075E+03 -5.773593E+03  6.492194E+03
       300  22 -2.845023E+03  1.387080E+05 -7.125284E+03  7.722781E+03 -5.105848E+03  8.145315E+03
       300  23 -3.168934E+02  1.388368E+05 -1.781651E+03  7.177510E+03 -5.636936E+03  7.253331E+03
       300  24  1.636682E+03  1.387071E+05  2.838087E+03  7.723969E+03 -5.773641E+03  6.361436E+03
       300  25 -1.943080E+04  6.661107E+04 -1.796991E+04  6.276642E+03 -5.106317E+03  9.718338E+03
       300  26 -1.827564E+04  6.065068E+04 -1.340145E+04  6.072939E+03 -5.637207E+03  7.974466E+03
       300  27 -1.784295E+04  5.428387E+04 -1.014843E+04  6.960972E+03 -5.773689E+03  6.230694E+03
       301   1  2.266747E+04  2.279816E+05  1.928040E+04  7.790467E+03  5.808046E+03 -7.086029E+03
       301   2  3.016324E+04  2.319508E+05  2.944352E+04  1.549934E+04  4.661658E+03 -1.810059E+04
       301   3  4.965824E+04  2.403545E+05  4.977597E+04  2.413972E+04  1.369858E+03 -2.911591E+04
       301   4  2.202664E+03  1.395713E+05  5.347425E+03  7.687729E+03  5.808080E+03 -6.919623E+03
       301   5  7.935023E+03  1.377550E+05  1.244914E+04  7.225172E+03  4.660567E+03 -1.329854E+04
       301   6  2.486276E+04  1.395693E+05  2.650224E+04  7.694120E+03  1.367783E+03 -1.967810E+04
       301   7 -1.826253E+04  5.116877E+04 -8.585746E+03  7.585006E+03  5.808114E+03 -6.753240E+03
       301   8 -1.429342E+04  4.356816E+04 -4.545454E+03 -1.047706E+03  4.659348E+03 -8.497208E+03
       301   9  6.762555E+01  3.879415E+04  3.228317E+03 -8.748788E+03  1.365207E+03 -1.024179E+04
       301  10  2.266742E+04  2.279815E+05  1.928025E+04  7.790500E+03  1.659229E-10 -1.509836E-10
       301  11  3.016313E+04  2.319504E+05  2.944286E+04  1.549941E+04  2.664388E-10 -5.855641E-10
       301  12  4.965801E+04  2.403536E+05  4.977438E+04  2.413975E+04  8.790597E-11  2.995317E-10
       301  13  2.202615E+03  1.395712E+05  5.347271E+03  7.687761E+03  2.970862E-10  1.951413E-11
       301  14  7.934952E+03  1.377549E+05  1.244877E+04  7.225222E+03  1.221360E-10  1.726948E-14
       301  15  2.486265E+04  1.395689E+05  2.650151E+04  7.694142E+03  3.273336E-11  7.918202E-10
       301  16 -1.826257E+04  5.116871E+04 -8.585896E+03  7.585038E+03 -1.573163E-10 -6.788657E-12
       301  17 -1.429347E+04  4.356807E+04 -4.545631E+03 -1.047674E+03  8.449428E-11 -2.946286E-10
       301  18  6.759540E+01  3.879404E+04  3.228117E+03 -8.748776E+03 -1.173093E-10 -1.119814E-10
       301  19  2.266747E+04  2.279816E+05  1.928040E+04  7.790467E+03 -5.808046E+03  7.086029E+03
       301  20  3.016324E+04  2.319508E+05  2.944352E+04  1.549934E+04 -4.661658E+03  1.810059E+04
       301  21  4.965824E+04  2.403545E+05  4.977597E+04  2.413972E+04 -1.369858E+03  2.911591E+04
       301  22  2.202664E+03  1.395713E+05  5.347425E+03  7.687729E+03 -5.808080E+03  6.919623E+03
       301  23  7.935023E+03  1.377550E+05  1.244914E+04  7.225172E+03 -4.660567E+03  1.329854E+04
       301  24  2.486276E+04  1.395693E+05  2.650224E+04  7.694120E+03 -1.367783E+03  1.967810E+04
       301  25 -1.826253E+04  5.116877E+04 -8.585746E+03  7.585006E+03 -5.808114E+03  6.753240E+03
       301  26 -1.429342E+04  4.356816E+04 -4.545454E+03 -1.047706E+03 -4.659348E+03  8.497208E+03
       301  27  6.762555E+01  3.879415E+04  3.228317E+03 -8.748788E+03 -1.365207E+03  1.024179E+04
       302   1  4.988183E+05  3.934815E+05  1.016097E+05  3.382192E+05  3.800975E+04  2.202853E+04
       302   2  4.772451E+05  3.648317E+05  7.083200E+04  3.300821E+05  2.884067E+04 -4.681861E+02
       302   3  4.570509E+05  3.472615E+05  5.555877E+04  3.217286E+05  1.468194E+04 -1.631311E+04
       302   4  2.200002E+05  1.840091E+05  1.101797E+04  1.944722E+05  9.221827E+03  4.228128E+02
       302   5  2.191936E+05  1.770530E+05  5.591143E+03  1.968154E+05  1.443516E+04 -1.128171E+04
       302   6  2.166495E+05  1.780586E+05  3.192966E+03  1.989417E+05  1.465687E+04 -1.633331E+04
       302   7 -5.873934E+04 -2.541808E+04 -7.958133E+04  5.079738E+04 -1.954920E+04 -2.116923E+04
       302   8 -3.878105E+04 -1.068240E+04 -5.965362E+04  6.361380E+04  3.766157E+01 -2.208897E+04
       302   9 -2.367783E+04  8.895823E+03 -4.917366E+04  7.621303E+04  1.463182E+04 -1.635350E+04
       302  10  4.988166E+05  3.934806E+05  1.016061E+05  3.382185E+05  2.036490E-10  3.113996E-10
       302  11  4.772442E+05  3.648314E+05  7.083044E+04  3.300821E+05  1.026626E-10 -1.197917E-10
       302  12  4.570506E+05  3.472612E+05  5.555787E+04  3.217288E+05  1.210222E-10  2.528009E-10
       302  13  2.200002E+05  1.840091E+05  1.101781E+04  1.944722E+05  1.065934E-10  7.292378E-10
       302  14  2.191934E+05  1.770528E+05  5.590513E+03  1.968156E+05  5.377083E-11  3.771486E-10
       302  15  2.166492E+05  1.780582E+05  3.192060E+03  1.989419E+05  1.299912E-10  2.330803E-10
       302  16 -5.873988E+04 -2.541867E+04 -7.958289E+04  5.079705E+04 -1.470181E-10 -2.102228E-11
       302  17 -3.878118E+04 -1.068292E+04 -5.965453E+04  6.361381E+04 -3.284805E-10 -5.971618E-10
       302  18 -2.367814E+04  8.895479E+03 -4.917457E+04  7.621323E+04 -1.616355E-10 -2.417066E-11
       302  19  4.988183E+05  3.934815E+05  1.016097E+05  3.382192E+05 -3.800975E+04 -2.202853E+04
       302  20  4.772451E+05  3.648317E+05  7.083200E+04  3.300821E+05 -2.884067E+04  4.681861E+02
       302  21  4.570509E+05  3.472615E+05  5.555877E+04  3.217286E+05 -1.468194E+04  1.631311E+04
       302  22  2.200002E+05  1.840091E+05  1.101797E+04  1.944722E+05 -9.221827E+03 -4.228128E+02
       302  23  2.191936E+05  1.770530E+05  5.591143E+03  1.968154E+05 -1.443516E+04  1.128171E+04
       302  24  2.166495E+05  1.780586E+05  3.192966E+03  1.989417E+05 -1.465687E+04  1.633331E+04
       302  25 -5.873934E+04 -2.541808E+04 -7.958133E+04  5.079738E+04  1.954920E+04  2.116923E+04
       302  26 -3.878105E+04 -1.068240E+04 -5.965362E+04  6.361380E+04 -3.766157E+01  2.208897E+04
       302  27 -2.367783E+04  8.895823E+03 -4.917366E+04  7.621303E+04 -1.463182E+04  1.635350E+04
       303   1  4.425041E+05  3.376568E+05  5.059522E+04  3.149442E+05  1.404084E+04 -1.639622E+04
       303   2  4.232938E+05  3.192289E+05  4.315787E+04  3.036065E+05  1.127265E+04 -1.778577E+04
       303   3  3.997638E+05  3.065012E+05  3.790047E+04  2.936307E+05  7.898138E+03 -1.836777E+04
       303   4  2.162579E+05  1.779417E+05  2.525031E+03  1.989433E+05  1.412015E+04 -1.633799E+04
       303   5  2.184818E+05  1.750550E+05  1.734512E+03  1.984349E+05  1.309821E+04 -1.641642E+04
       303   6  2.160063E+05  1.774898E+05  1.608941E+03  1.992880E+05  1.146968E+04 -1.568718E+04
       303   7 -9.927570E+03  1.825915E+04 -4.554738E+04  8.299195E+04  1.419943E+04 -1.627979E+04
       303   8  1.371760E+04  3.090614E+04 -3.969107E+04  9.330277E+04  1.492300E+04 -1.504765E+04
       303   9  3.228518E+04  4.849712E+04 -3.468498E+04  1.049761E+05  1.503991E+04 -1.300758E+04
       303  10  4.425038E+05  3.376565E+05  5.059434E+04  3.149444E+05 -1.323380E-10  5.806673E-11
       303  11  4.232936E+05  3.192286E+05  4.315704E+04  3.036066E+05  1.731066E-10  6.694901E-12
       303  12  3.997637E+05  3.065008E+05  3.789972E+04  2.936308E+05  9.693075E-11 -3.595525E-10
       303  13  2.162576E+05  1.779414E+05  2.524154E+03  1.989435E+05  5.763339E-12  1.262025E-11
       303  14  2.184815E+05  1.750546E+05  1.733683E+03  1.984350E+05  9.084713E-11 -4.853457E-10
       303  15  2.160061E+05  1.774895E+05  1.608231E+03  1.992882E+05 -4.053415E-11 -2.135163E-10
       303  16 -9.927858E+03  1.825881E+04 -4.554825E+04  8.299213E+04 -8.001104E-12 -1.988906E-10
       303  17  1.371730E+04  3.090584E+04 -3.969191E+04  9.330295E+04 -1.331962E-11  9.108183E-11
       303  18  3.228490E+04  4.849688E+04 -3.468573E+04  1.049762E+05 -3.255203E-10  7.306320E-11
       303  19  4.425041E+05  3.376568E+05  5.059522E+04  3.149442E+05 -1.404084E+04  1.639622E+04
       303  20  4.232938E+05  3.192289E+05  4.315787E+04  3.036065E+05 -1.127265E+04  1.778577E+04
       303  21  3.997638E+05  3.065012E+05  3.790047E+04  2.936307E+05 -7.898138E+03  1.836777E+04
       303  22  2.162579E+05  1.779417E+05  2.525031E+03  1.989433E+05 -1.412015E+04  1.633799E+04
       303  23  2.184818E+05  1.750550E+05  1.734512E+03  1.984349E+05 -1.309821E+04  1.641642E+04
       303  24  2.160063E+05  1.774898E+05  1.608941E+03  1.992880E+05 -1.146968E+04  1.568718E+04
       303  25 -9.927570E+03  1.825915E+04 -4.554738E+04  8.299195E+04 -1.419943E+04  1.627979E+04
       303  26  1.371760E+04  3.090614E+04 -3.969107E+04  9.330277E+04 -1.492300E+04  1.504765E+04
       303  27  3.228518E+04  4.849712E+04 -3.468498E+04  1.049761E+05 -1.503991E+04  1.300758E+04
       304   1  3.863054E+05  2.971939E+05  3.515987E+04  2.868402E+05  6.905737E+03 -1.756028E+04
       304   2  3.674821E+05  2.796395E+05  3.148593E+04  2.751268E+05  4.440350E+03 -1.674081E+04
       304   3  3.438909E+05  2.674230E+05  2.885028E+04  2.648670E+05  1.899140E+03 -1.582060E+04
       304   4  2.159858E+05  1.774939E+05  1.739128E+03  1.992989E+05  1.048902E+04 -1.487063E+04
       304   5  2.184436E+05  1.749346E+05  2.432903E+03  1.985101E+05  8.241629E+03 -1.388715E+04
       304   6  2.160850E+05  1.776654E+05  3.975559E+03  1.991743E+05  5.918325E+03 -1.280295E+04
       304   7  4.570547E+04  5.781554E+04 -3.168090E+04  1.117879E+05  1.407092E+04 -1.218202E+04
       304   8  6.943394E+04  7.024537E+04 -2.661996E+04  1.219160E+05  1.204165E+04 -1.103443E+04
       304   9  8.829899E+04  8.791856E+04 -2.089944E+04  1.334975E+05  9.936412E+03 -9.786125E+03
       304  10  3.863052E+05  2.971936E+05  3.515920E+04  2.868403E+05  1.631661E-09  1.047838E-09
       304  11  3.674820E+05  2.796392E+05  3.148536E+04  2.751269E+05  8.838706E-11 -1.181686E-09
       304  12  3.438909E+05  2.674227E+05  2.884981E+04  2.648671E+05 -1.598050E-09 -7.561756E-10
       304  13  2.159856E+05  1.774936E+05  1.738506E+03  1.992990E+05  3.654663E-10  6.475025E-10
       304  14  2.184435E+05  1.749343E+05  2.432413E+03  1.985102E+05  8.892031E-10  2.887765E-09
       304  15  2.160849E+05  1.776652E+05  3.975185E+03  1.991743E+05 -5.715779E-11  5.112496E-10
       304  16  4.570522E+04  5.781533E+04 -3.168155E+04  1.117880E+05 -1.318690E-09 -4.518211E-10
       304  17  6.943376E+04  7.024520E+04 -2.662046E+04  1.219161E+05  5.594128E-10  1.314595E-09
       304  18  8.829886E+04  8.791843E+04 -2.089981E+04  1.334976E+05  1.801171E-09  5.300601E-10
       304  19  3.863054E+05  2.971939E+05  3.515987E+04  2.868402E+05 -6.905737E+03  1.756028E+04
       304  20  3.674821E+05  2.796395E+05  3.148593E+04  2.751268E+05 -4.440350E+03  1.674081E+04
       304  21  3.438909E+05  2.674230E+05  2.885028E+04  2.648670E+05 -1.899140E+03  1.582060E+04
       304  22  2.159858E+05  1.774939E+05  1.739128E+03  1.992989E+05 -1.048902E+04  1.487063E+04
       304  23  2.184436E+05  1.749346E+05  2.432903E+03  1.985101E+05 -8.241629E+03  1.388715E+04
       304  24  2.160850E+05  1.776654E+05  3.975559E+03  1.991743E+05 -5.918325E+03  1.280295E+04
       304  25  4.570547E+04  5.781554E+04 -3.168090E+04  1.117879E+05 -1.407092E+04  1.218202E+04
       304  26  6.943394E+04  7.024537E+04 -2.661996E+04  1.219160E+05 -1.204165E+04  1.103443E+04
       304  27  8.829899E+04  8.791856E+04 -2.089944E+04  1.334975E+05 -9.936412E+03  9.786125E+03
       305   1  3.305015E+05  2.585044E+05  2.735096E+04  2.582057E+05  4.596900E+02 -1.520509E+04
       305   2  3.133921E+05  2.399958E+05  2.714688E+04  2.451897E+05 -4.644603E+03 -1.609977E+04
       305   3  2.931000E+05  2.288498E+05  3.066403E+04  2.329012E+05 -9.777802E+03 -1.695613E+04
       305   4  2.162685E+05  1.778090E+05  5.169319E+03  1.992494E+05  4.479985E+03 -1.218640E+04
       305   5  2.188124E+05  1.758106E+05  9.021830E+03  1.976287E+05 -5.409683E+02 -1.301828E+04
       305   6  2.181558E+05  1.811567E+05  1.652365E+04  1.967350E+05 -5.590873E+03 -1.381194E+04
       305   7  1.020486E+05  9.712029E+04 -1.701346E+04  1.403047E+05  8.499391E+03 -9.168392E+03
       305   8  1.242436E+05  1.116308E+05 -9.103339E+03  1.500760E+05  3.561836E+03 -9.937395E+03
       305   9  1.432203E+05  1.334677E+05  2.383806E+03  1.605745E+05 -1.404711E+03 -1.066826E+04
       305  10  3.305015E+05  2.585041E+05  2.735052E+04  2.582057E+05 -9.449286E-10 -1.664392E-10
       305  11  3.133920E+05  2.399955E+05  2.714636E+04  2.451897E+05 -1.059821E-11  4.582515E-10
       305  12  2.930998E+05  2.288494E+05  3.066331E+04  2.329011E+05  1.833714E-09  2.350610E-10
       305  13  2.162684E+05  1.778088E+05  5.169002E+03  1.992495E+05 -2.773506E-10  3.315846E-10
       305  14  2.188124E+05  1.758104E+05  9.021511E+03  1.976287E+05 -9.195670E-11  3.885028E-10
       305  15  2.181558E+05  1.811565E+05  1.652323E+04  1.967349E+05  5.813530E-11 -2.528564E-10
       305  16  1.020485E+05  9.712018E+04 -1.701375E+04  1.403047E+05  6.273387E-11  1.307295E-09
       305  17  1.242435E+05  1.116307E+05 -9.103549E+03  1.500760E+05 -7.330336E-10 -7.530749E-10
       305  18  1.432203E+05  1.334676E+05  2.383589E+03  1.605745E+05 -1.190879E-09 -1.113233E-09
       305  19  3.305015E+05  2.585044E+05  2.735096E+04  2.582057E+05 -4.596900E+02  1.520509E+04
       305  20  3.133921E+05  2.399958E+05  2.714688E+04  2.451897E+05  4.644603E+03  1.609977E+04
       305  21  2.931000E+05  2.288498E+05  3.066403E+04  2.329012E+05  9.777802E+03  1.695613E+04
       305  22  2.162685E+05  1.778090E+05  5.169319E+03  1.992494E+05 -4.479985E+03  1.218640E+04
       305  23  2.188124E+05  1.758106E+05  9.021830E+03  1.976287E+05  5.409683E+02  1.301828E+04
       305  24  2.181558E+05  1.811567E+05  1.652365E+04  1.967350E+05  5.590873E+03  1.381194E+04
       305  25  1.020486E+05  9.712029E+04 -1.701346E+04  1.403047E+05 -8.499391E+03  9.168392E+03
       305  26  1.242436E+05  1.116308E+05 -9.103339E+03  1.500760E+05 -3.561836E+03  9.937395E+03
       305  27  1.432203E+05  1.334677E+05  2.383806E+03  1.605745E+05  1.404711E+03  1.066826E+04
       306   1  2.794774E+05  2.237150E+05  3.353647E+04  2.270743E+05 -1.290600E+04 -1.755430E+04
       306   2  2.872654E+05  1.911816E+05  4.828903E+04  1.975047E+05 -3.150306E+04 -2.831335E+04
       306   3  3.097117E+05  1.899005E+05  8.555131E+04  1.583164E+05 -5.026789E+04 -3.884793E+04
       306   4  2.201501E+05  1.829855E+05  2.201956E+04  1.970361E+05 -8.716076E+03 -1.440768E+04
       306   5  2.252219E+05  1.893114E+05  4.053588E+04  1.853954E+05 -2.682980E+04 -2.480576E+04
       306   6  2.448460E+05  2.267830E+05  8.114289E+04  1.641349E+05 -4.511112E+04 -3.498135E+04
       306   7  1.608269E+05  1.422581E+05  1.050265E+04  1.670012E+05 -4.526679E+03 -1.126145E+04
       306   8  1.631834E+05  1.874421E+05  3.278299E+04  1.732863E+05 -2.215715E+04 -2.129803E+04
       306   9  1.799879E+05  2.636728E+05  7.673584E+04  1.699513E+05 -3.995504E+04 -3.111398E+04
       306  10  2.794772E+05  2.237146E+05  3.353558E+04  2.270741E+05 -9.407628E-10 -1.144593E-09
       306  11  2.872641E+05  1.911805E+05  4.828566E+04  1.975040E+05 -6.307470E-10 -4.492044E-10
       306  12  3.097086E+05  1.898982E+05  8.554373E+04  1.583148E+05  1.209207E-10 -8.789303E-11
       306  13  2.201499E+05  1.829853E+05  2.201903E+04  1.970360E+05  4.426472E-10 -2.687222E-10
       306  14  2.252210E+05  1.893106E+05  4.053337E+04  1.853949E+05 -3.465821E-10 -2.885103E-09
       306  15  2.448435E+05  2.267811E+05  8.113677E+04  1.641336E+05 -3.060158E-10  4.922527E-10
       306  16  1.608269E+05  1.422580E+05  1.050237E+04  1.670011E+05  1.625786E-09  1.129813E-09
       306  17  1.631827E+05  1.874415E+05  3.278122E+04  1.732859E+05  5.401155E-10  6.285847E-10
       306  18  1.799859E+05  2.636713E+05  7.673102E+04  1.699503E+05  1.567933E-10 -1.002941E-09
       306  19  2.794774E+05  2.237150E+05  3.353647E+04  2.270743E+05  1.290600E+04  1.755430E+04
       306  20  2.872654E+05  1.911816E+05  4.828903E+04  1.975047E+05  3.150306E+04  2.831335E+04
       306  21  3.097117E+05  1.899005E+05  8.555131E+04  1.583164E+05  5.026789E+04  3.884793E+04
       306  22  2.201501E+05  1.829855E+05  2.201956E+04  1.970361E+05  8.716076E+03  1.440768E+04
       306  23  2.252219E+05  1.893114E+05  4.053588E+04  1.853954E+05  2.682980E+04  2.480576E+04
       306  24  2.448460E+05  2.267830E+05  8.114289E+04  1.641349E+05  4.511112E+04  3.498135E+04
       306  25  1.608269E+05  1.422581E+05  1.050265E+04  1.670012E+05  4.526679E+03  1.126145E+04
       306  26  1.631834E+05  1.874421E+05  3.278299E+04  1.732863E+05  2.215715E+04  2.129803E+04
       306  27  1.799879E+05  2.636728E+05  7.673584E+04  1.699513E+05  3.995504E+04  3.111398E+04
       307   1  4.392591E+05  5.763269E+04  5.561016E+04  4.172670E+04  2.286571E+04 -2.343420E+03
       307   2  4.096325E+05  4.268306E+04  3.609488E+04  3.638287E+04  1.108392E+04 -7.717964E+03
       307   3  3.829707E+05  3.348440E+04  2.568523E+04  3.571300E+04 -7.003314E+02 -8.834933E+03
       307   4  2.426509E+05  9.152299E+03  9.794857E+03  3.550992E+04  6.668854E+03 -2.356120E+03
       307   5  2.419687E+05  2.949890E+03  5.059181E+03  3.317622E+04  4.089232E+03 -7.723716E+03
       307   6  2.426549E+05  9.025388E+02  3.042316E+03  3.551641E+04  1.506663E+03 -8.833321E+03
       307   7  4.607889E+04 -3.933054E+04 -3.602206E+04  2.929511E+04 -9.522911E+03 -2.368497E+03
       307   8  7.433229E+04 -3.678482E+04 -2.597750E+04  2.997045E+04 -2.903615E+03 -7.729397E+03
       307   9  1.023587E+05 -3.168031E+04 -1.960112E+04  3.531987E+04  3.713176E+03 -8.831711E+03
       307  10  4.392586E+05  5.763254E+04  5.560917E+04  4.172674E+04  2.592879E-09 -8.061180E-10
       307  11  4.096324E+05  4.268296E+04  3.609453E+04  3.638294E+04  7.521901E-10 -1.046977E-09
       307  12  3.829707E+05  3.348431E+04  2.568509E+04  3.571299E+04 -1.755044E-09 -1.133595E-09
       307  13  2.426508E+05  9.152281E+03  9.794763E+03  3.550993E+04  1.229697E-10  1.109313E-09
       307  14  2.419687E+05  2.949822E+03  5.059038E+03  3.317624E+04  1.118285E-10 -5.666707E-10
       307  15  2.426549E+05  9.024544E+02  3.042165E+03  3.551642E+04 -8.651515E-11 -9.626523E-10
       307  16  4.607879E+04 -3.933057E+04 -3.602224E+04  2.929509E+04 -2.785491E-09  3.510360E-10
       307  17  7.433227E+04 -3.678489E+04 -2.597763E+04  2.997043E+04 -9.215167E-10 -1.464265E-09
       307  18  1.023587E+05 -3.168040E+04 -1.960129E+04  3.531990E+04  1.619296E-09 -1.263485E-09
       307  19  4.392591E+05  5.763269E+04  5.561016E+04  4.172670E+04 -2.286571E+04  2.343420E+03
       307  20  4.096325E+05  4.268306E+04  3.609488E+04  3.638287E+04 -1.108392E+04  7.717964E+03
       307  21  3.829707E+05  3.348440E+04  2.568523E+04  3.571300E+04  7.003314E+02  8.834933E+03
       307  22  2.426509E+05  9.152299E+03  9.794857E+03  3.550992E+04 -6.668854E+03  2.356120E+03
       307  23  2.419687E+05  2.949890E+03  5.059181E+03  3.317622E+04 -4.089232E+03  7.723716E+03
       307  24  2.426549E+05  9.025388E+02  3.042316E+03  3.551641E+04 -1.506663E+03  8.833321E+03
       307  25  4.607889E+04 -3.933054E+04 -3.602206E+04  2.929511E+04  9.522911E+03  2.368497E+03
       307  26  7.433229E+04 -3.678482E+04 -2.597750E+04  2.997045E+04  2.903615E+03  7.729397E+03
       307  27  1.023587E+05 -3.168031E+04 -1.960112E+04  3.531987E+04 -3.713176E+03  8.831711E+03
       308   1  3.648801E+05  2.904731E+04  2.178448E+04  3.608364E+04 -1.194304E+03 -8.072431E+03
       308   2  3.365580E+05  2.189237E+04  1.609247E+04  3.336101E+04 -3.279847E+03 -6.777110E+03
       308   3  3.086581E+05  1.537444E+04  1.191450E+04  3.561787E+04 -5.365767E+03 -4.992004E+03
       308   4  2.424045E+05  7.083459E+02  2.526678E+03  3.558388E+04  1.079218E+03 -8.070703E+03
       308   5  2.422865E+05  2.372131E+02  2.058862E+03  3.309432E+04  5.219368E+01 -6.774420E+03
       308   6  2.424064E+05  2.194654E+02  2.370384E+03  3.558429E+04 -9.752961E+02 -4.988313E+03
       308   7  1.199439E+05 -2.763135E+04 -1.673147E+04  3.508423E+04  3.352309E+03 -8.068980E+03
       308   8  1.480240E+05 -2.141836E+04 -1.197487E+04  3.282767E+04  3.383749E+03 -6.771732E+03
       308   9  1.761591E+05 -1.493570E+04 -7.173732E+03  3.555071E+04  3.414726E+03 -4.984621E+03
       308  10  3.648801E+05  2.904724E+04  2.178436E+04  3.608363E+04  1.264465E-10  3.373769E-10
       308  11  3.365579E+05  2.189232E+04  1.609236E+04  3.336099E+04  7.262048E-11 -5.226323E-10
       308  12  3.086581E+05  1.537440E+04  1.191440E+04  3.561785E+04 -3.083738E-10  9.765286E-11
       308  13  2.424045E+05  7.082756E+02  2.526553E+03  3.558389E+04  2.273547E-12 -2.294701E-10
       308  14  2.422865E+05  2.371638E+02  2.058776E+03  3.309432E+04  1.072498E-10 -2.762746E-10
       308  15  2.424064E+05  2.194385E+02  2.370336E+03  3.558429E+04 -2.543475E-11  4.396417E-10
       308  16  1.199439E+05 -2.763142E+04 -1.673162E+04  3.508425E+04 -1.051014E-10  1.031513E-10
       308  17  1.480240E+05 -2.141841E+04 -1.197498E+04  3.282769E+04 -4.601428E-10 -2.313305E-09
       308  18  1.761590E+05 -1.493573E+04 -7.173800E+03  3.555073E+04  2.814369E-10 -3.692071E-10
       308  19  3.648801E+05  2.904731E+04  2.178448E+04  3.608364E+04  1.194304E+03  8.072431E+03
       308  20  3.365580E+05  2.189237E+04  1.609247E+04  3.336101E+04  3.279847E+03  6.777110E+03
       308  21  3.086581E+05  1.537444E+04  1.191450E+04  3.561787E+04  5.365767E+03  4.992004E+03
       308  22  2.424045E+05  7.083459E+02  2.526678E+03  3.558388E+04 -1.079218E+03  8.070703E+03
       308  23  2.422865E+05  2.372131E+02  2.058862E+03  3.309432E+04 -5.219368E+01  6.774420E+03
       308  24  2.424064E+05  2.194654E+02  2.370384E+03  3.558429E+04  9.752961E+02  4.988313E+03
       308  25  1.199439E+05 -2.763135E+04 -1.673147E+04  3.508423E+04 -3.352309E+03  8.068980E+03
       308  26  1.480240E+05 -2.141836E+04 -1.197487E+04  3.282767E+04 -3.383749E+03  6.771732E+03
       308  27  1.761591E+05 -1.493570E+04 -7.173732E+03  3.555071E+04 -3.414726E+03  4.984621E+03
       309   1  2.911377E+05  1.134468E+04  9.645031E+03  3.577498E+04 -5.811087E+03 -3.781587E+03
       309   2  2.627566E+05  5.396592E+03  6.992769E+03  3.247338E+04 -7.666201E+03 -1.831657E+03
       309   3  2.349323E+05  7.448177E+02  5.869174E+03  3.417101E+04 -9.521113E+03 -4.649442E+01
       309   4  2.424911E+05  2.485913E+02  2.797879E+03  3.558880E+04 -1.416276E+03 -3.777846E+03
       309   5  2.421824E+05  7.691698E+02  4.417439E+03  3.308820E+04 -3.627490E+03 -1.828203E+03
       309   6  2.424910E+05  2.647773E+03  7.812677E+03  3.558679E+04 -5.838574E+03 -4.333581E+01
       309   7  1.938469E+05 -1.084759E+04 -4.049231E+03  3.540264E+04  2.978206E+03 -3.774108E+03
       309   8  2.216086E+05 -3.858259E+03  1.842169E+03  3.370300E+04  4.110941E+02 -1.824741E+03
       309   9  2.500498E+05  4.550739E+03  9.756228E+03  3.700259E+04 -2.155990E+03 -4.016042E+01
       309  10  2.911376E+05  1.134466E+04  9.644941E+03  3.577496E+04 -1.298448E-08  1.535053E-09
       309  11  2.627565E+05  5.396572E+03  6.992653E+03  3.247337E+04  2.231068E-08  1.171578E-09
       309  12  2.349322E+05  7.447933E+02  5.869003E+03  3.417101E+04  5.610762E-08  3.370436E-09
       309  13  2.424910E+05  2.485755E+02  2.797849E+03  3.558880E+04 -1.082864E-11  8.914857E-10
       309  14  2.421824E+05  7.691627E+02  4.417408E+03  3.308820E+04  1.068603E-10  2.319731E-09
       309  15  2.424909E+05  2.647764E+03  7.812613E+03  3.558679E+04 -8.173284E-11  1.127467E-09
       309  16  1.938469E+05 -1.084761E+04 -4.049275E+03  3.540265E+04  1.290108E-08  1.104699E-09
       309  17  2.216086E+05 -3.858262E+03  1.842163E+03  3.370300E+04 -2.269148E-08  9.913872E-10
       309  18  2.500498E+05  4.550738E+03  9.756219E+03  3.700259E+04 -5.621075E-08 -7.624761E-10
       309  19  2.911377E+05  1.134468E+04  9.645031E+03  3.577498E+04  5.811087E+03  3.781587E+03
       309  20  2.627566E+05  5.396592E+03  6.992769E+03  3.247338E+04  7.666201E+03  1.831657E+03
       309  21  2.349323E+05  7.448177E+02  5.869174E+03  3.417101E+04  9.521113E+03  4.649442E+01
       309  22  2.424911E+05  2.485913E+02  2.797879E+03  3.558880E+04  1.416276E+03  3.777846E+03
       309  23  2.421824E+05  7.691698E+02  4.417439E+03  3.308820E+04  3.627490E+03  1.828203E+03
       309  24  2.424910E+05  2.647773E+03  7.812677E+03  3.558679E+04  5.838574E+03  4.333581E+01
       309  25  1.938469E+05 -1.084759E+04 -4.049231E+03  3.540264E+04 -2.978206E+03  3.774108E+03
       309  26  2.216086E+05 -3.858259E+03  1.842169E+03  3.370300E+04 -4.110941E+02  1.824741E+03
       309  27  2.500498E+05  4.550739E+03  9.756228E+03  3.700259E+04  2.155990E+03  4.016042E+01
       310   1  2.182810E+05 -2.629796E+03  5.467056E+03  3.527411E+04 -1.084141E+04  1.012473E+03
       310   2  1.879046E+05 -1.442027E+03  8.166819E+03  2.119511E+04 -1.648029E+04  1.766395E+03
       310   3  1.620855E+05  1.507376E+04  1.836681E+04  1.197697E+04 -2.211753E+04  6.548243E+02
       310   4  2.435217E+05  3.391945E+03  1.033865E+04  3.555801E+04 -7.187728E+03  1.015615E+03
       310   5  2.408916E+05  1.132567E+04  1.891175E+04  3.311443E+04 -1.685812E+04  1.765746E+03
       310   6  2.435169E+05  3.528589E+04  3.778347E+04  3.553143E+04 -2.652722E+04  6.502456E+02
       310   7  2.687631E+05  9.413655E+03  1.521026E+04  3.584193E+04 -3.533904E+03  1.018760E+03
       310   8  2.938815E+05  2.409372E+04  2.965662E+04  4.503479E+04 -1.723598E+04  1.765082E+03
       310   9  3.249556E+05  5.549964E+04  5.720003E+04  5.908900E+04 -3.093749E+04  6.453327E+02
       310  10  2.182809E+05 -2.629828E+03  5.466833E+03  3.527412E+04 -5.257433E-08  2.268857E-09
       310  11  1.879043E+05 -1.442103E+03  8.166303E+03  2.119513E+04 -2.132626E-08  4.389470E-10
       310  12  1.620850E+05  1.507363E+04  1.836589E+04  1.197698E+04  1.141265E-08 -4.396530E-10
       310  13  2.435217E+05  3.391930E+03  1.033855E+04  3.555802E+04  1.592528E-10  2.809134E-09
       310  14  2.408913E+05  1.132559E+04  1.891121E+04  3.311446E+04 -1.793187E-11 -2.162198E-09
       310  15  2.435161E+05  3.528570E+04  3.778214E+04  3.553145E+04  8.473076E-11  7.764163E-10
       310  16  2.687631E+05  9.413651E+03  1.521023E+04  3.584193E+04  5.263018E-08  8.968510E-10
       310  17  2.938812E+05  2.409364E+04  2.965606E+04  4.503482E+04  2.123575E-08  6.839334E-10
       310  18  3.249546E+05  5.549938E+04  5.719823E+04  5.908902E+04 -1.144025E-08 -3.643448E-10
       310  19  2.182810E+05 -2.629796E+03  5.467056E+03  3.527411E+04  1.084141E+04 -1.012473E+03
       310  20  1.879046E+05 -1.442027E+03  8.166819E+03  2.119511E+04  1.648029E+04 -1.766395E+03
       310  21  1.620855E+05  1.507376E+04  1.836681E+04  1.197697E+04  2.211753E+04 -6.548243E+02
       310  22  2.435217E+05  3.391945E+03  1.033865E+04  3.555801E+04  7.187728E+03 -1.015615E+03
       310  23  2.408916E+05  1.132567E+04  1.891175E+04  3.311443E+04  1.685812E+04 -1.765746E+03
       310  24  2.435169E+05  3.528589E+04  3.778347E+04  3.553143E+04  2.652722E+04 -6.502456E+02
       310  25  2.687631E+05  9.413655E+03  1.521026E+04  3.584193E+04  3.533904E+03 -1.018760E+03
       310  26  2.938815E+05  2.409372E+04  2.965662E+04  4.503479E+04  1.723598E+04 -1.765082E+03
       310  27  3.249556E+05  5.549964E+04  5.720003E+04  5.908900E+04  3.093749E+04 -6.453327E+02
       311   1 -1.494727E+05 -4.900838E+05 -1.517091E+05  1.241135E+05 -3.075127E+03 -8.005118E+04
       311   2 -7.920946E+04 -4.265729E+05 -8.601912E+04  9.314203E+04 -9.786664E+03 -4.449107E+04
       311   3 -4.748835E+04 -3.773108E+05 -5.312602E+04  7.171316E+04 -1.028916E+04 -8.922026E+03
       311   4 -7.944189E+04 -2.068790E+05 -8.524313E+04  7.097632E+04 -3.080364E+03 -5.890732E+04
       311   5 -2.549481E+04 -2.009112E+05 -4.336838E+04  6.622386E+04 -9.788682E+03 -3.674734E+04
       311   6 -7.756113E+03 -2.068631E+05 -2.497419E+04  7.101707E+04 -1.028600E+04 -1.458244E+04
       311   7 -9.406001E+03  7.640675E+04 -1.877949E+04  1.781470E+04 -3.089223E+03 -3.775387E+04
       311   8  2.821962E+04  2.480142E+04 -7.192909E+02  3.929567E+04 -9.791371E+03 -2.900086E+04
       311   9  3.197464E+04 -3.638668E+04  3.176908E+03  7.032079E+04 -1.028282E+04 -2.024436E+04
       311  10 -1.494744E+05 -4.900907E+05 -1.517211E+05  1.241133E+05 -6.671358E-11  9.560355E-11
       311  11 -7.921010E+04 -4.265750E+05 -8.602302E+04  9.314167E+04 -3.684347E-10 -2.791692E-10
       311  12 -4.748849E+04 -3.773109E+05 -5.312637E+04  7.171309E+04  3.386232E-11  7.970139E-10
       311  13 -7.944284E+04 -2.068827E+05 -8.524967E+04  7.097618E+04  1.093299E-10  2.861499E-10
       311  14 -2.549528E+04 -2.009126E+05 -4.337110E+04  6.622357E+04 -2.589639E-10  1.302321E-10
       311  15 -7.756284E+03 -2.068634E+05 -2.497478E+04  7.101695E+04 -3.285352E-11  2.804641E-10
       311  16 -9.406394E+03  7.640522E+04 -1.878218E+04  1.781461E+04 -5.237274E-11  4.483571E-10
       311  17  2.821929E+04  2.480049E+04 -7.210514E+02  3.929544E+04  2.931351E-10 -3.640628E-10
       311  18  3.197442E+04 -3.638715E+04  3.175939E+03  7.032062E+04 -1.589023E-10 -6.838461E-10
       311  19 -1.494727E+05 -4.900838E+05 -1.517091E+05  1.241135E+05  3.075127E+03  8.005118E+04
       311  20 -7.920946E+04 -4.265729E+05 -8.601912E+04  9.314203E+04  9.786664E+03  4.449107E+04
       311  21 -4.748835E+04 -3.773108E+05 -5.312602E+04  7.171316E+04  1.028916E+04  8.922026E+03
       311  22 -7.944189E+04 -2.068790E+05 -8.524313E+04  7.097632E+04  3.080364E+03  5.890732E+04
       311  23 -2.549481E+04 -2.009112E+05 -4.336838E+04  6.622386E+04  9.788682E+03  3.674734E+04
       311  24 -7.756113E+03 -2.068631E+05 -2.497419E+04  7.101707E+04  1.028600E+04  1.458244E+04
       311  25 -9.406001E+03  7.640675E+04 -1.877949E+04  1.781470E+04  3.089223E+03  3.775387E+04
       311  26  2.821962E+04  2.480142E+04 -7.192909E+02  3.929567E+04  9.791371E+03  2.900086E+04
       311  27  3.197464E+04 -3.638668E+04  3.176908E+03  7.032079E+04  1.028282E+04  2.024436E+04
       312   1 -3.744783E+04 -3.394690E+05 -4.166322E+04  7.450992E+04 -8.507254E+03 -5.459128E+03
       312   2 -2.056593E+04 -2.819824E+05 -2.586668E+04  6.678218E+04 -5.650449E+03  2.511629E+03
       312   3 -8.426790E+03 -2.267004E+05 -1.644276E+04  6.904324E+04 -2.398259E+03  1.048318E+04
       312   4 -6.126497E+03 -2.046703E+05 -1.991845E+04  7.111194E+04 -8.504183E+03 -1.121041E+04
       312   5 -2.562573E+03 -2.036390E+05 -1.421914E+04  6.611806E+04 -5.647136E+03 -4.092508E+03
       312   6 -3.592708E+03 -2.046669E+05 -1.429918E+04  7.111315E+04 -2.394662E+03  3.025515E+03
       312   7  2.519398E+04 -6.985341E+04  1.825953E+03  6.771319E+04 -8.501049E+03 -1.696290E+04
       312   8  1.544052E+04 -1.252893E+05 -2.571553E+03  6.545385E+04 -5.643808E+03 -1.069744E+04
       312   9  1.241403E+03 -1.826327E+05 -1.215539E+04  7.318315E+04 -2.391115E+03 -4.432397E+03
       312  10 -3.744791E+04 -3.394691E+05 -4.166341E+04  7.450989E+04 -9.720889E-11  1.052671E-10
       312  11 -2.056597E+04 -2.819824E+05 -2.586675E+04  6.678219E+04 -6.584961E-11 -4.598229E-10
       312  12 -8.426825E+03 -2.267005E+05 -1.644297E+04  6.904326E+04 -5.295924E-12  8.633202E-10
       312  13 -6.126608E+03 -2.046704E+05 -1.991882E+04  7.111186E+04 -1.922944E-10 -2.714084E-10
       312  14 -2.562611E+03 -2.036390E+05 -1.421923E+04  6.611804E+04 -1.523254E-10  7.622387E-11
       312  15 -3.592717E+03 -2.046669E+05 -1.429921E+04  7.111316E+04  4.034353E-11 -1.698515E-10
       312  16  2.519382E+04 -6.985374E+04  1.825277E+03  6.771307E+04 -4.185377E-10  4.671145E-10
       312  17  1.544046E+04 -1.252895E+05 -2.571828E+03  6.545380E+04 -1.818872E-10 -3.199509E-10
       312  18  1.241392E+03 -1.826328E+05 -1.215544E+04  7.318314E+04 -1.230425E-10 -8.559262E-10
       312  19 -3.744783E+04 -3.394690E+05 -4.166322E+04  7.450992E+04  8.507254E+03  5.459128E+03
       312  20 -2.056593E+04 -2.819824E+05 -2.586668E+04  6.678218E+04  5.650449E+03 -2.511629E+03
       312  21 -8.426790E+03 -2.267004E+05 -1.644276E+04  6.904324E+04  2.398259E+03 -1.048318E+04
       312  22 -6.126497E+03 -2.046703E+05 -1.991845E+04  7.111194E+04  8.504183E+03  1.121041E+04
       312  23 -2.562573E+03 -2.036390E+05 -1.421914E+04  6.611806E+04  5.647136E+03  4.092508E+03
       312  24 -3.592708E+03 -2.046669E+05 -1.429918E+04  7.111315E+04  2.394662E+03 -3.025515E+03
       312  25  2.519398E+04 -6.985341E+04  1.825953E+03  6.771319E+04  8.501049E+03  1.696290E+04
       312  26  1.544052E+04 -1.252893E+05 -2.571553E+03  6.545385E+04  5.643808E+03  1.069744E+04
       312  27  1.241403E+03 -1.826327E+05 -1.215539E+04  7.318315E+04  2.391115E+03  4.432397E+03
       313   1 -9.785689E+02 -1.922224E+05 -1.233521E+04  7.065815E+04 -2.543040E+02  1.278821E+04
       313   2  3.092443E+03 -1.331166E+05 -9.641687E+03  5.158109E+04  1.726284E+03  1.903218E+04
       313   3 -1.138134E+04 -7.944086E+04 -1.564599E+04  4.232352E+04  8.004281E+02  2.527478E+04
       313   4 -4.408754E+03 -2.056589E+05 -1.604446E+04  7.107718E+04 -2.507628E+02  5.365017E+03
       313   5 -1.376238E+04 -2.024000E+05 -2.452902E+04  6.615666E+04  1.727307E+03  1.788406E+04
       313   6 -4.275234E+04 -2.056653E+05 -4.607091E+04  7.105665E+04  7.990669E+02  3.040104E+04
       313   7 -7.838924E+03 -2.190950E+05 -1.975352E+04  7.149620E+04 -2.472315E+02 -2.058010E+03
       313   8 -3.061672E+04 -2.716785E+05 -3.941652E+04  8.073058E+04  1.728276E+03  1.673607E+04
       313   9 -7.412138E+04 -3.318733E+05 -7.649643E+04  9.978391E+04  7.981803E+02  3.552625E+04
       313  10 -9.786129E+02 -1.922226E+05 -1.233552E+04  7.065815E+04  1.178568E-10 -2.094611E-13
       313  11  3.092343E+03 -1.331170E+05 -9.642373E+03  5.158106E+04 -9.224480E-11 -4.377155E-10
       313  12 -1.138151E+04 -7.944155E+04 -1.564719E+04  4.232350E+04 -9.892694E-11  2.422234E-10
       313  13 -4.408762E+03 -2.056589E+05 -1.604452E+04  7.107718E+04  7.970315E-11 -2.537123E-10
       313  14 -1.376247E+04 -2.024004E+05 -2.452963E+04  6.615664E+04 -2.394561E-10  6.929220E-11
       313  15 -4.275259E+04 -2.056663E+05 -4.607265E+04  7.105663E+04 -1.244165E-11  2.363343E-10
       313  16 -7.838925E+03 -2.190951E+05 -1.975353E+04  7.149620E+04  5.560248E-11  4.605375E-10
       313  17 -3.061680E+04 -2.716788E+05 -3.941705E+04  8.073056E+04 -2.972647E-10 -1.059734E-10
       313  18 -7.412172E+04 -3.318747E+05 -7.649880E+04  9.978389E+04 -2.795442E-10 -2.502488E-10
       313  19 -9.785689E+02 -1.922224E+05 -1.233521E+04  7.065815E+04  2.543040E+02 -1.278821E+04
       313  20  3.092443E+03 -1.331166E+05 -9.641687E+03  5.158109E+04 -1.726284E+03 -1.903218E+04
       313  21 -1.138134E+04 -7.944086E+04 -1.564599E+04  4.232352E+04 -8.004281E+02 -2.527478E+04
       313  22 -4.408754E+03 -2.056589E+05 -1.604446E+04  7.107718E+04  2.507628E+02 -5.365017E+03
       313  23 -1.376238E+04 -2.024000E+05 -2.452902E+04  6.615666E+04 -1.727307E+03 -1.788406E+04
       313  24 -4.275234E+04 -2.056653E+05 -4.607091E+04  7.105665E+04 -7.990669E+02 -3.040104E+04
       313  25 -7.838924E+03 -2.190950E+05 -1.975352E+04  7.149620E+04  2.472315E+02  2.058010E+03
       313  26 -3.061672E+04 -2.716785E+05 -3.941652E+04  8.073058E+04 -1.728276E+03 -1.673607E+04
       313  27 -7.412138E+04 -3.318733E+05 -7.649643E+04  9.978391E+04 -7.981803E+02 -3.552625E+04
       314   1  1.392263E+05  7.103054E+04  1.951959E+03  9.848056E+04  3.329828E+03  2.832879E+03
       314   2  1.451059E+05  6.996577E+04  4.574836E+02  1.033925E+05  2.346409E+03  2.704715E+03
       314   3  1.542947E+05  7.006606E+04  3.972370E+02  1.066893E+05  1.757264E+03  2.051632E+03
       314   4  1.656119E+05  8.079139E+04  8.821542E+03  1.074235E+05  4.740344E+03  3.892230E+03
       314   5  1.624916E+05  7.770553E+04  4.464241E+03  1.100191E+05  2.622688E+03  2.912196E+03
       314   6  1.629266E+05  7.603083E+04  2.525966E+03  1.109997E+05  8.993187E+02  1.407266E+03
       314   7  1.919976E+05  9.055211E+04  1.569093E+04  1.163666E+05  6.150910E+03  4.951580E+03
       314   8  1.798774E+05  8.544525E+04  8.470920E+03  1.166459E+05  2.898974E+03  3.119679E+03
       314   9  1.715586E+05  8.199564E+04  4.654692E+03  1.153101E+05  4.135764E+01  7.628883E+02
       314  10  1.392263E+05  7.103052E+04  1.951923E+03  9.848055E+04 -5.711332E-10 -5.770537E-10
       314  11  1.451059E+05  6.996577E+04  4.574596E+02  1.033925E+05 -1.394536E-10  1.473286E-09
       314  12  1.542947E+05  7.006606E+04  3.972232E+02  1.066893E+05  3.936836E-10 -4.850934E-10
       314  13  1.656118E+05  8.079137E+04  8.821471E+03  1.074235E+05 -6.718034E-11 -5.920381E-11
       314  14  1.624916E+05  7.770552E+04  4.464212E+03  1.100191E+05  2.561162E-10  1.058275E-09
       314  15  1.629266E+05  7.603083E+04  2.525961E+03  1.109997E+05  1.467639E-10  3.352411E-10
       314  16  1.919976E+05  9.055207E+04  1.569081E+04  1.163665E+05  4.226438E-10  3.460539E-10
       314  17  1.798774E+05  8.544523E+04  8.470886E+03  1.166459E+05  1.750399E-10  1.936551E-09
       314  18  1.715586E+05  8.199564E+04  4.654691E+03  1.153101E+05 -6.242155E-10  9.534614E-11
       314  19  1.392263E+05  7.103054E+04  1.951959E+03  9.848056E+04 -3.329828E+03 -2.832879E+03
       314  20  1.451059E+05  6.996577E+04  4.574836E+02  1.033925E+05 -2.346409E+03 -2.704715E+03
       314  21  1.542947E+05  7.006606E+04  3.972370E+02  1.066893E+05 -1.757264E+03 -2.051632E+03
       314  22  1.656119E+05  8.079139E+04  8.821542E+03  1.074235E+05 -4.740344E+03 -3.892230E+03
       314  23  1.624916E+05  7.770553E+04  4.464241E+03  1.100191E+05 -2.622688E+03 -2.912196E+03
       314  24  1.629266E+05  7.603083E+04  2.525966E+03  1.109997E+05 -8.993187E+02 -1.407266E+03
       314  25  1.919976E+05  9.055211E+04  1.569093E+04  1.163666E+05 -6.150910E+03 -4.951580E+03
       314  26  1.798774E+05  8.544525E+04  8.470920E+03  1.166459E+05 -2.898974E+03 -3.119679E+03
       314  27  1.715586E+05  8.199564E+04  4.654692E+03  1.153101E+05 -4.135764E+01 -7.628883E+02
       315   1  1.577385E+05  7.287250E+04  7.576926E+02  1.087206E+05  1.683439E+03  1.602285E+03
       315   2  1.631648E+05  7.750739E+04  1.479918E+03  1.122307E+05  1.616668E+03  8.770669E+02
       315   3  1.702489E+05  8.090966E+04  2.592666E+03  1.152419E+05  1.596001E+03  9.044073E+01
       315   4  1.627217E+05  7.582271E+04  1.979267E+03  1.109675E+05  8.172439E+02  9.517211E+02
       315   5  1.617747E+05  7.624055E+04  1.312587E+03  1.113553E+05  6.177975E+02  1.268519E+02
       315   6  1.625140E+05  7.545444E+04  1.151550E+03  1.112442E+05  4.644652E+02 -7.594105E+02
       315   7  1.677052E+05  7.877300E+04  3.200881E+03  1.132145E+05 -4.897995E+01  3.011372E+02
       315   8  1.603846E+05  7.497371E+04  1.145263E+03  1.104800E+05 -3.810701E+02 -6.233601E+02
       315   9  1.547794E+05  6.999938E+04 -2.894974E+02  1.072466E+05 -6.670267E+02 -1.609229E+03
       315  10  1.577385E+05  7.287250E+04  7.576824E+02  1.087206E+05 -1.974783E-09 -2.524349E-09
       315  11  1.631648E+05  7.750739E+04  1.479911E+03  1.122307E+05 -5.961605E-10  9.974915E-11
       315  12  1.702489E+05  8.090966E+04  2.592661E+03  1.152419E+05  3.971756E-10  5.715325E-10
       315  13  1.627217E+05  7.582271E+04  1.979264E+03  1.109675E+05  9.402130E-11 -1.522094E-10
       315  14  1.617747E+05  7.624055E+04  1.312586E+03  1.113553E+05 -2.470909E-10  5.053744E-10
       315  15  1.625140E+05  7.545443E+04  1.151548E+03  1.112442E+05  8.960436E-11  8.597417E-10
       315  16  1.677052E+05  7.877300E+04  3.200881E+03  1.132145E+05  1.466805E-09  3.048179E-09
       315  17  1.603846E+05  7.497371E+04  1.145262E+03  1.104800E+05 -2.677176E-10  2.575504E-09
       315  18  1.547794E+05  6.999938E+04 -2.895031E+02  1.072466E+05 -1.401251E-09 -4.263474E-10
       315  19  1.577385E+05  7.287250E+04  7.576926E+02  1.087206E+05 -1.683439E+03 -1.602285E+03
       315  20  1.631648E+05  7.750739E+04  1.479918E+03  1.122307E+05 -1.616668E+03 -8.770669E+02
       315  21  1.702489E+05  8.090966E+04  2.592666E+03  1.152419E+05 -1.596001E+03 -9.044073E+01
       315  22  1.627217E+05  7.582271E+04  1.979267E+03  1.109675E+05 -8.172439E+02 -9.517211E+02
       315  23  1.617747E+05  7.624055E+04  1.312587E+03  1.113553E+05 -6.177975E+02 -1.268519E+02
       315  24  1.625140E+05  7.545444E+04  1.151550E+03  1.112442E+05 -4.644652E+02  7.594105E+02
       315  25  1.677052E+05  7.877300E+04  3.200881E+03  1.132145E+05  4.897995E+01 -3.011372E+02
       315  26  1.603846E+05  7.497371E+04  1.145263E+03  1.104800E+05  3.810701E+02  6.233601E+02
       315  27  1.547794E+05  6.999938E+04 -2.894974E+02  1.072466E+05  6.670267E+02  1.609229E+03
       316   1  1.740623E+05  8.367788E+04  3.453058E+03  1.172469E+05  1.662347E+03 -3.414604E+02
       316   2  1.794915E+05  8.870942E+04  5.105520E+03  1.205971E+05  1.377847E+03 -1.365313E+03
       316   3  1.865522E+05  9.243761E+04  7.349901E+03  1.235107E+05  1.084276E+03 -2.377084E+03
       316   4  1.625077E+05  7.544382E+04  1.212545E+03  1.112484E+05  5.301050E+02 -1.191843E+03
       316   5  1.617239E+05  7.614976E+04  1.632346E+03  1.114282E+05  2.717304E+02 -2.196089E+03
       316   6  1.625657E+05  7.554667E+04  2.621398E+03  1.111712E+05  4.288062E+00 -3.188255E+03
       316   7  1.509533E+05  6.720984E+04 -1.027968E+03  1.052500E+05 -6.021105E+02 -2.042206E+03
       316   8  1.439564E+05  6.359015E+04 -1.840905E+03  1.022594E+05 -8.343577E+02 -3.026844E+03
       316   9  1.385794E+05  5.865568E+04 -2.107313E+03  9.883197E+04 -1.075669E+03 -3.999403E+03
       316  10  1.740623E+05  8.367788E+04  3.453053E+03  1.172469E+05  6.116848E-10  6.978110E-10
       316  11  1.794915E+05  8.870942E+04  5.105513E+03  1.205972E+05  2.400409E-10 -6.547440E-10
       316  12  1.865522E+05  9.243761E+04  7.349889E+03  1.235107E+05  1.784591E-10 -1.552770E-09
       316  13  1.625077E+05  7.544382E+04  1.212541E+03  1.112484E+05  1.880984E-10  1.387711E-09
       316  14  1.617239E+05  7.614975E+04  1.632337E+03  1.114282E+05  5.971139E-10  3.512947E-10
       316  15  1.625657E+05  7.554666E+04  2.621379E+03  1.111712E+05  5.153754E-10 -3.417687E-10
       316  16  1.509533E+05  6.720983E+04 -1.027977E+03  1.052500E+05 -9.167598E-10 -7.392090E-10
       316  17  1.439564E+05  6.359014E+04 -1.840924E+03  1.022594E+05  2.455434E-11 -3.088650E-10
       316  18  1.385794E+05  5.865566E+04 -2.107345E+03  9.883196E+04  8.937043E-10 -1.226551E-10
       316  19  1.740623E+05  8.367788E+04  3.453058E+03  1.172469E+05 -1.662347E+03  3.414604E+02
       316  20  1.794915E+05  8.870942E+04  5.105520E+03  1.205971E+05 -1.377847E+03  1.365313E+03
       316  21  1.865522E+05  9.243761E+04  7.349901E+03  1.235107E+05 -1.084276E+03  2.377084E+03
       316  22  1.625077E+05  7.544382E+04  1.212545E+03  1.112484E+05 -5.301050E+02  1.191843E+03
       316  23  1.617239E+05  7.614976E+04  1.632346E+03  1.114282E+05 -2.717304E+02  2.196089E+03
       316  24  1.625657E+05  7.554667E+04  2.621398E+03  1.111712E+05 -4.288062E+00  3.188255E+03
       316  25  1.509533E+05  6.720984E+04 -1.027968E+03  1.052500E+05  6.021105E+02  2.042206E+03
       316  26  1.439564E+05  6.359015E+04 -1.840905E+03  1.022594E+05  8.343577E+02  3.026844E+03
       316  27  1.385794E+05  5.865568E+04 -2.107313E+03  9.883197E+04  1.075669E+03  3.999403E+03
       317   1  1.903724E+05  9.544281E+04  8.944903E+03  1.255987E+05  8.945389E+02 -2.984081E+03
       317   2  1.968808E+05  9.982348E+04  1.285532E+04  1.280769E+05 -1.505469E+03 -5.439671E+03
       317   3  2.061358E+05  1.043170E+05  1.945802E+04  1.296477E+05 -4.027554E+03 -7.732679E+03
       317   4  1.626819E+05  7.564049E+04  3.395034E+03  1.112203E+05 -1.830695E+02 -3.793475E+03
       317   5  1.619625E+05  7.671404E+04  5.903895E+03  1.108536E+05 -2.231651E+03 -5.985137E+03
       317   6  1.639135E+05  7.782432E+04  1.080013E+04  1.095795E+05 -4.402303E+03 -8.014223E+03
       317   7  1.349929E+05  5.583917E+04 -2.154620E+03  9.684307E+04 -1.260589E+03 -4.602801E+03
       317   8  1.270460E+05  5.360556E+04 -1.047422E+03  9.363167E+04 -2.957770E+03 -6.530559E+03
       317   9  1.216933E+05  5.133256E+04  2.142181E+03  8.951290E+04 -4.777018E+03 -8.295744E+03
       317  10  1.903724E+05  9.544280E+04  8.944885E+03  1.255987E+05  3.396770E-09  1.977062E-09
       317  11  1.968808E+05  9.982345E+04  1.285526E+04  1.280769E+05 -6.879841E-09 -5.523730E-09
       317  12  2.061358E+05  1.043169E+05  1.945787E+04  1.296477E+05 -2.064461E-08 -1.758990E-08
       317  13  1.626819E+05  7.564047E+04  3.395007E+03  1.112203E+05  1.118147E-09  8.790830E-11
       317  14  1.619624E+05  7.671400E+04  5.903818E+03  1.108536E+05  2.020426E-10 -9.161783E-10
       317  15  1.639135E+05  7.782424E+04  1.079997E+04  1.095795E+05 -4.886447E-09 -3.803237E-09
       317  16  1.349929E+05  5.583915E+04 -2.154663E+03  9.684307E+04 -1.345999E-09 -1.476922E-09
       317  17  1.270460E+05  5.360551E+04 -1.047518E+03  9.363166E+04  6.566413E-09  5.798080E-09
       317  18  1.216933E+05  5.133248E+04  2.142009E+03  8.951287E+04  1.088763E-08  9.574780E-09
       317  19  1.903724E+05  9.544281E+04  8.944903E+03  1.255987E+05 -8.945389E+02  2.984081E+03
       317  20  1.968808E+05  9.982348E+04  1.285532E+04  1.280769E+05  1.505469E+03  5.439671E+03
       317  21  2.061358E+05  1.043170E+05  1.945802E+04  1.296477E+05  4.027554E+03  7.732679E+03
       317  22  1.626819E+05  7.564049E+04  3.395034E+03  1.112203E+05  1.830695E+02  3.793475E+03
       317  23  1.619625E+05  7.671404E+04  5.903895E+03  1.108536E+05  2.231651E+03  5.985137E+03
       317  24  1.639135E+05  7.782432E+04  1.080013E+04  1.095795E+05  4.402303E+03  8.014223E+03
       317  25  1.349929E+05  5.583917E+04 -2.154620E+03  9.684307E+04  1.260589E+03  4.602801E+03
       317  26  1.270460E+05  5.360556E+04 -1.047422E+03  9.363167E+04  2.957770E+03  6.530559E+03
       317  27  1.216933E+05  5.133256E+04  2.142181E+03  8.951290E+04  4.777018E+03  8.295744E+03
       318   1  2.098512E+05  1.098834E+05  2.415328E+04  1.322925E+05 -5.430173E+03 -9.018183E+03
       318   2  2.326059E+05  1.051098E+05  3.921432E+04  1.237188E+05 -1.955043E+04 -1.882674E+04
       318   3  2.701606E+05  1.166570E+05  7.123472E+04  1.075071E+05 -3.468300E+04 -2.728895E+04
       318   4  1.651927E+05  7.904111E+04  1.438897E+04  1.097832E+05 -5.783514E+03 -9.283632E+03
       318   5  1.661779E+05  8.550142E+04  2.648330E+04  1.028546E+05 -1.699380E+04 -1.690733E+04
       318   6  1.813311E+05  1.076519E+05  5.301146E+04  8.828835E+04 -2.921531E+04 -2.318491E+04
       318   7  1.205355E+05  4.819934E+04  4.624219E+03  8.727530E+04 -6.136828E+03 -9.549062E+03
       318   8  9.975528E+04  6.589365E+04  1.375226E+04  8.199218E+04 -1.443755E+04 -1.498800E+04
       318   9  9.251409E+04  9.864827E+04  3.478900E+04  6.907098E+04 -2.374885E+04 -1.908089E+04
       318  10  2.098512E+05  1.098833E+05  2.415307E+04  1.322925E+05  1.256510E-08  6.996150E-09
       318  11  2.326054E+05  1.051093E+05  3.921294E+04  1.237185E+05  6.759017E-09  3.246397E-09
       318  12  2.701591E+05  1.166559E+05  7.123106E+04  1.075064E+05 -4.103227E-09 -4.037069E-09
       318  13  1.651927E+05  7.904101E+04  1.438875E+04  1.097832E+05 -4.394706E-09 -5.438564E-09
       318  14  1.661775E+05  8.550104E+04  2.648222E+04  1.028544E+05  1.077696E-09  1.060873E-09
       318  15  1.813300E+05  1.076511E+05  5.300885E+04  8.828781E+04  9.438166E-10  1.017507E-09
       318  16  1.205354E+05  4.819923E+04  4.623977E+03  8.727525E+04 -2.222687E-08 -1.662448E-08
       318  17  9.975500E+04  6.589336E+04  1.375144E+04  8.199200E+04 -6.001723E-09 -6.725922E-09
       318  18  9.251339E+04  9.864772E+04  3.478726E+04  6.907062E+04  5.818344E-09  3.407520E-09
       318  19  2.098512E+05  1.098834E+05  2.415328E+04  1.322925E+05  5.430173E+03  9.018183E+03
       318  20  2.326059E+05  1.051098E+05  3.921432E+04  1.237188E+05  1.955043E+04  1.882674E+04
       318  21  2.701606E+05  1.166570E+05  7.123472E+04  1.075071E+05  3.468300E+04  2.728895E+04
       318  22  1.651927E+05  7.904111E+04  1.438897E+04  1.097832E+05  5.783514E+03  9.283632E+03
       318  23  1.661779E+05  8.550142E+04  2.648330E+04  1.028546E+05  1.699380E+04  1.690733E+04
       318  24  1.813311E+05  1.076519E+05  5.301146E+04  8.828835E+04  2.921531E+04  2.318491E+04
       318  25  1.205355E+05  4.819934E+04  4.624219E+03  8.727530E+04  6.136828E+03  9.549062E+03
       318  26  9.975528E+04  6.589365E+04  1.375226E+04  8.199218E+04  1.443755E+04  1.498800E+04
       318  27  9.251409E+04  9.864827E+04  3.478900E+04  6.907098E+04  2.374885E+04  1.908089E+04
       319   1  2.056151E+05  3.377892E+04  3.254041E+04  2.956285E+04  1.243050E+04 -1.344012E+03
       319   2  1.837072E+05  2.457275E+04  2.069597E+04  2.634119E+04  5.569396E+03 -4.323688E+03
       319   3  1.634288E+05  1.833551E+04  1.405985E+04  2.667171E+04 -1.293468E+03 -4.700042E+03
       319   4  8.659104E+04  4.402764E+03  4.692722E+03  2.656490E+04  3.192740E+03 -1.351796E+03
       319   5  8.626530E+04  1.430279E+03  2.425505E+03  2.479049E+04  1.956526E+03 -4.326818E+03
       319   6  8.659255E+04  4.506597E+02  1.461423E+03  2.656822E+04  7.182911E+02 -4.698361E+03
       319   7 -3.241981E+04 -2.497432E+04 -2.315560E+04  2.356753E+04 -6.043261E+03 -1.359492E+03
       319   8 -1.116740E+04 -2.171273E+04 -1.584532E+04  2.324003E+04 -1.655792E+03 -4.329930E+03
       319   9  9.762170E+03 -1.743449E+04 -1.113715E+04  2.646475E+04  2.729810E+03 -4.696681E+03
       319  10  2.056150E+05  3.377888E+04  3.254011E+04  2.956286E+04 -2.050652E-09  9.493127E-11
       319  11  1.837072E+05  2.457272E+04  2.069587E+04  2.634121E+04  3.229787E-10  2.116345E-09
       319  12  1.634288E+05  1.833549E+04  1.405980E+04  2.667170E+04  1.883396E-09  7.482822E-10
       319  13  8.659103E+04  4.402759E+03  4.692699E+03  2.656490E+04 -9.608219E-11 -1.465644E-09
       319  14  8.626529E+04  1.430258E+03  2.425462E+03  2.479049E+04 -5.468220E-11 -3.260098E-09
       319  15  8.659255E+04  4.506359E+02  1.461381E+03  2.656823E+04 -1.245899E-11  2.972656E-11
       319  16 -3.241985E+04 -2.497433E+04 -2.315567E+04  2.356752E+04  1.774060E-09  4.632924E-11
       319  17 -1.116741E+04 -2.171275E+04 -1.584536E+04  2.324003E+04 -5.356350E-10  1.016634E-09
       319  18  9.762156E+03 -1.743452E+04 -1.113721E+04  2.646476E+04 -1.864567E-09 -6.976552E-10
       319  19  2.056151E+05  3.377892E+04  3.254041E+04  2.956285E+04 -1.243050E+04  1.344012E+03
       319  20  1.837072E+05  2.457275E+04  2.069597E+04  2.634119E+04 -5.569396E+03  4.323688E+03
       319  21  1.634288E+05  1.833551E+04  1.405985E+04  2.667171E+04  1.293468E+03  4.700042E+03
       319  22  8.659104E+04  4.402764E+03  4.692722E+03  2.656490E+04 -3.192740E+03  1.351796E+03
       319  23  8.626530E+04  1.430279E+03  2.425505E+03  2.479049E+04 -1.956526E+03  4.326818E+03
       319  24  8.659255E+04  4.506597E+02  1.461423E+03  2.656822E+04 -7.182911E+02  4.698361E+03
       319  25 -3.241981E+04 -2.497432E+04 -2.315560E+04  2.356753E+04  6.043261E+03  1.359492E+03
       319  26 -1.116740E+04 -2.171273E+04 -1.584532E+04  2.324003E+04  1.655792E+03  4.329930E+03
       319  27  9.762170E+03 -1.743449E+04 -1.113715E+04  2.646475E+04 -2.729810E+03  4.696681E+03
       320   1  1.499723E+05  1.509071E+04  1.138856E+04  2.685476E+04 -1.539814E+03 -4.054785E+03
       320   2  1.287860E+05  9.889306E+03  7.425006E+03  2.486792E+04 -2.657646E+03 -2.962203E+03
       320   3  1.078205E+05  5.016328E+03  4.269164E+03  2.662005E+04 -3.775692E+03 -1.582425E+03
       320   4  8.647273E+04  3.575562E+02  1.215924E+03  2.660950E+04  5.124436E+02 -4.053042E+03
       320   5  8.641690E+04  1.305654E+02  9.963241E+02  2.474011E+04  1.505160E+01 -2.959890E+03
       320   6  8.647333E+04  1.242442E+02  1.153555E+03  2.660971E+04 -4.825985E+02 -1.579532E+03
       320   7  2.297721E+04 -1.437579E+04 -8.956797E+03  2.636427E+04  2.564499E+03 -4.051300E+03
       320   8  4.404957E+04 -9.628257E+03 -5.432368E+03  2.461231E+04  2.687574E+03 -2.957578E+03
       320   9  6.512662E+04 -4.767855E+03 -1.962021E+03  2.659936E+04  2.810387E+03 -1.576638E+03
       320  10  1.499723E+05  1.509069E+04  1.138852E+04  2.685476E+04 -1.114661E-08 -5.790142E-10
       320  11  1.287860E+05  9.889295E+03  7.424976E+03  2.486791E+04  2.231234E-08  2.189626E-09
       320  12  1.078205E+05  5.016322E+03  4.269132E+03  2.662005E+04  5.338798E-08  4.104229E-09
       320  13  8.647272E+04  3.575385E+02  1.215893E+03  2.660951E+04  8.973827E-11  3.105938E-09
       320  14  8.641690E+04  1.305560E+02  9.963076E+02  2.474011E+04 -5.701898E-11 -3.607603E-09
       320  15  8.647333E+04  1.242415E+02  1.153550E+03  2.660970E+04 -5.828039E-11  4.636888E-09
       320  16  2.297719E+04 -1.437581E+04 -8.956840E+03  2.636428E+04  1.096295E-08 -2.093332E-09
       320  17  4.404956E+04 -9.628269E+03 -5.432398E+03  2.461232E+04 -2.248983E-08 -4.523190E-10
       320  18  6.512661E+04 -4.767860E+03 -1.962041E+03  2.659936E+04 -5.337346E-08  2.377195E-09
       320  19  1.499723E+05  1.509071E+04  1.138856E+04  2.685476E+04  1.539814E+03  4.054785E+03
       320  20  1.287860E+05  9.889306E+03  7.425006E+03  2.486792E+04  2.657646E+03  2.962203E+03
       320  21  1.078205E+05  5.016328E+03  4.269164E+03  2.662005E+04  3.775692E+03  1.582425E+03
       320  22  8.647273E+04  3.575562E+02  1.215924E+03  2.660950E+04 -5.124436E+02  4.053042E+03
       320  23  8.641690E+04  1.305654E+02  9.963241E+02  2.474011E+04 -1.505160E+01  2.959890E+03
       320  24  8.647333E+04  1.242442E+02  1.153555E+03  2.660971E+04  4.825985E+02  1.579532E+03
       320  25  2.297721E+04 -1.437579E+04 -8.956797E+03  2.636427E+04 -2.564499E+03  4.051300E+03
       320  26  4.404957E+04 -9.628257E+03 -5.432368E+03  2.461231E+04 -2.687574E+03  2.957578E+03
       320  27  6.512662E+04 -4.767855E+03 -1.962021E+03  2.659936E+04 -2.810387E+03  1.576638E+03
       321   1  9.466094E+04  1.986137E+03  2.457027E+03  2.669225E+04 -3.991926E+03 -6.744979E+02
       321   2  7.347554E+04 -2.619405E+03 -5.774385E+00  2.442271E+04 -4.632737E+03  7.480202E+02
       321   3  5.251340E+04 -6.634851E+03 -1.906278E+03  2.589739E+04 -5.273364E+03  1.966794E+03
       321   4  8.651502E+04  1.384115E+02  1.364268E+03  2.661094E+04 -6.977172E+02 -6.715947E+02
       321   5  8.636513E+04  3.918540E+02  2.158808E+03  2.473832E+04 -1.778710E+03  7.505225E+02
       321   6  8.651475E+04  1.311884E+03  3.821336E+03  2.660992E+04 -2.859544E+03  1.968897E+03
       321   7  7.836919E+04 -1.709311E+03  2.715492E+02  2.652963E+04  2.596450E+03 -6.686924E+02
       321   8  9.925491E+04  3.403108E+03  4.323415E+03  2.505395E+04  1.075376E+03  7.530277E+02
       321   9  1.205173E+05  9.258563E+03  9.548936E+03  2.732249E+04 -4.455956E+02  1.971005E+03
       321  10  9.466092E+04  1.986132E+03  2.456996E+03  2.669224E+04 -4.959867E-08  2.177735E-10
       321  11  7.347552E+04 -2.619411E+03 -5.815764E+00  2.442271E+04 -2.039177E-08 -8.810594E-10
       321  12  5.251337E+04 -6.634863E+03 -1.906338E+03  2.589740E+04  1.017098E-08 -1.719356E-09
       321  13  8.651502E+04  1.384109E+02  1.364266E+03  2.661094E+04 -7.065151E-11  1.453569E-09
       321  14  8.636513E+04  3.918525E+02  2.158801E+03  2.473832E+04  1.157246E-10 -9.047542E-10
       321  15  8.651474E+04  1.311878E+03  3.821314E+03  2.660992E+04 -4.040100E-11 -9.228622E-10
       321  16  7.836918E+04 -1.709313E+03  2.715357E+02  2.652963E+04  4.933890E-08  4.356296E-10
       321  17  9.925490E+04  3.403108E+03  4.323412E+03  2.505395E+04  2.029549E-08  1.368525E-09
       321  18  1.205173E+05  9.258559E+03  9.548929E+03  2.732249E+04 -1.006836E-08  9.884716E-10
       321  19  9.466094E+04  1.986137E+03  2.457027E+03  2.669225E+04  3.991926E+03  6.744979E+02
       321  20  7.347554E+04 -2.619405E+03 -5.774385E+00  2.442271E+04  4.632737E+03 -7.480202E+02
       321  21  5.251340E+04 -6.634851E+03 -1.906278E+03  2.589739E+04  5.273364E+03 -1.966794E+03
       321  22  8.651502E+04  1.384115E+02  1.364268E+03  2.661094E+04  6.977172E+02  6.715947E+02
       321  23  8.636513E+04  3.918540E+02  2.158808E+03  2.473832E+04  1.778710E+03 -7.505225E+02
       321  24  8.651475E+04  1.311884E+03  3.821336E+03  2.660992E+04  2.859544E+03 -1.968897E+03
       321  25  7.836919E+04 -1.709311E+03  2.715492E+02  2.652963E+04 -2.596450E+03  6.686924E+02
       321  26  9.925491E+04  3.403108E+03  4.323415E+03  2.505395E+04 -1.075376E+03 -7.530277E+02
       321  27  1.205173E+05  9.258563E+03  9.548936E+03  2.732249E+04  4.455956E+02 -1.971005E+03
       322   1  3.972150E+04 -9.390821E+03 -2.978509E+03  2.641710E+04 -5.902452E+03  2.688067E+03
       322   2  1.773053E+04 -1.066775E+04 -3.808733E+03  1.891316E+04 -6.336245E+03  2.796383E+03
       322   3 -2.435264E+03 -4.844441E+03 -2.582895E+03  1.500856E+04 -6.768409E+03  9.153306E+02
       322   4  8.701921E+04  1.675618E+03  5.057730E+03  2.657869E+04 -3.519497E+03  2.690131E+03
       322   5  8.573324E+04  5.556367E+03  9.253355E+03  2.477246E+04 -8.250779E+03  2.794646E+03
       322   6  8.701760E+04  1.728282E+04  1.848894E+04  2.656538E+04 -1.298047E+04  9.098850E+02
       322   7  1.343191E+05  1.274194E+04  1.309392E+04  2.674030E+04 -1.136366E+03  2.692195E+03
       322   8  1.537405E+05  2.178034E+04  2.231526E+04  3.063242E+04 -1.016552E+04  2.792872E+03
       322   9  1.764782E+05  3.941004E+04  3.956044E+04  3.812388E+04 -1.919343E+04  9.042085E+02
       322  10  3.972146E+04 -9.390838E+03 -2.978588E+03  2.641711E+04  4.274644E-09 -4.021888E-09
       322  11  1.773049E+04 -1.066777E+04 -3.808823E+03  1.891318E+04 -7.468686E-10 -1.949296E-09
       322  12 -2.435314E+03 -4.844454E+03 -2.582983E+03  1.500857E+04 -5.734797E-09 -9.138864E-10
       322  13  8.701920E+04  1.675606E+03  5.057694E+03  2.657870E+04  1.001712E-12 -1.236276E-09
       322  14  8.573316E+04  5.556340E+03  9.253212E+03  2.477248E+04  1.289557E-10 -4.649092E-09
       322  15  8.701742E+04  1.728278E+04  1.848862E+04  2.656539E+04 -6.988570E-11 -2.147642E-09
       322  16  1.343191E+05  1.274193E+04  1.309390E+04  2.674030E+04 -4.430045E-09 -2.154570E-09
       322  17  1.537404E+05  2.178031E+04  2.231505E+04  3.063244E+04  6.939602E-10 -1.532044E-09
       322  18  1.764778E+05  3.940994E+04  3.955974E+04  3.812389E+04  5.836956E-09 -5.134558E-10
       322  19  3.972150E+04 -9.390821E+03 -2.978509E+03  2.641710E+04  5.902452E+03 -2.688067E+03
       322  20  1.773053E+04 -1.066775E+04 -3.808733E+03  1.891316E+04  6.336245E+03 -2.796383E+03
       322  21 -2.435264E+03 -4.844441E+03 -2.582895E+03  1.500856E+04  6.768409E+03 -9.153306E+02
       322  22  8.701921E+04  1.675618E+03  5.057730E+03  2.657869E+04  3.519497E+03 -2.690131E+03
       322  23  8.573324E+04  5.556367E+03  9.253355E+03  2.477246E+04  8.250779E+03 -2.794646E+03
       322  24  8.701760E+04  1.728282E+04  1.848894E+04  2.656538E+04  1.298047E+04 -9.098850E+02
       322  25  1.343191E+05  1.274194E+04  1.309392E+04  2.674030E+04  1.136366E+03 -2.692195E+03
       322  26  1.537405E+05  2.178034E+04  2.231526E+04  3.063242E+04  1.016552E+04 -2.792872E+03
       322  27  1.764782E+05  3.941004E+04  3.956044E+04  3.812388E+04  1.919343E+04 -9.042085E+02
       323   1 -9.704023E+04 -3.828915E+05 -9.881022E+04  8.467459E+04 -1.838704E+03 -5.202717E+04
       323   2 -4.977296E+04 -3.393311E+05 -5.542363E+04  6.376210E+04 -5.779828E+03 -2.865335E+04
       323   3 -2.832147E+04 -3.052556E+05 -3.371354E+04  4.945083E+04 -5.836796E+03 -5.274349E+03
       323   4 -5.338536E+04 -2.064764E+05 -5.731131E+04  4.893240E+04 -1.844553E+03 -3.936119E+04
       323   5 -1.714362E+04 -2.024580E+05 -2.934202E+04  4.564792E+04 -5.781817E+03 -2.437197E+04
       323   6 -5.259005E+03 -2.064679E+05 -1.722170E+04  4.896615E+04 -5.833990E+03 -9.379391E+03
       323   7 -9.727843E+03 -3.002950E+04 -1.581325E+04  1.318000E+04 -1.851861E+03 -2.669163E+04
       323   8  1.548586E+04 -6.556597E+04 -3.261007E+03  2.752966E+04 -5.784055E+03 -2.008968E+04
       323   9  1.780296E+04 -1.076705E+05 -7.301026E+02  4.848138E+04 -5.831178E+03 -1.348506E+04
       323  10 -9.704096E+04 -3.828944E+05 -9.881532E+04  8.467451E+04 -2.128205E-10 -9.907292E-10
       323  11 -4.977322E+04 -3.393320E+05 -5.542523E+04  6.376197E+04 -7.813706E-10 -7.499222E-10
       323  12 -2.832152E+04 -3.052557E+05 -3.371366E+04  4.945081E+04  1.324596E-10 -8.096416E-12
       323  13 -5.338578E+04 -2.064780E+05 -5.731422E+04  4.893235E+04  4.346548E-11  2.237063E-09
       323  14 -1.714381E+04 -2.024586E+05 -2.934320E+04  4.564781E+04 -5.599030E-10 -5.904840E-12
       323  15 -5.259065E+03 -2.064680E+05 -1.722193E+04  4.896610E+04 -2.517622E-10 -1.238641E-10
       323  16 -9.728038E+03 -3.003026E+04 -1.581459E+04  1.317996E+04 -1.316794E-10  1.829086E-09
       323  17  1.548572E+04 -6.556641E+04 -3.261828E+03  2.752956E+04  9.708819E-11 -2.902447E-11
       323  18  1.780288E+04 -1.076707E+05 -7.305083E+02  4.848132E+04 -9.211243E-10 -4.826939E-10
       323  19 -9.704023E+04 -3.828915E+05 -9.881022E+04  8.467459E+04  1.838704E+03  5.202717E+04
       323  20 -4.977296E+04 -3.393311E+05 -5.542363E+04  6.376210E+04  5.779828E+03  2.865335E+04
       323  21 -2.832147E+04 -3.052556E+05 -3.371354E+04  4.945083E+04  5.836796E+03  5.274349E+03
       323  22 -5.338536E+04 -2.064764E+05 -5.731131E+04  4.893240E+04  1.844553E+03  3.936119E+04
       323  23 -1.714362E+04 -2.024580E+05 -2.934202E+04  4.564792E+04  5.781817E+03  2.437197E+04
       323  24 -5.259005E+03 -2.064679E+05 -1.722170E+04  4.896615E+04  5.833990E+03  9.379391E+03
       323  25 -9.727843E+03 -3.002950E+04 -1.581325E+04  1.318000E+04  1.851861E+03  2.669163E+04
       323  26  1.548586E+04 -6.556597E+04 -3.261007E+03  2.752966E+04  5.784055E+03  2.008968E+04
       323  27  1.780296E+04 -1.076705E+05 -7.301026E+02  4.848138E+04  5.831178E+03  1.348506E+04
       324   1 -2.146455E+04 -2.792896E+05 -2.613571E+04  5.135634E+04 -4.567660E+03 -2.863366E+03
       324   2 -1.006718E+04 -2.396640E+05 -1.592967E+04  4.586490E+04 -2.555127E+03  2.861239E+03
       324   3 -2.184013E+03 -2.016481E+05 -1.032675E+04  4.725044E+04 -3.639047E+02  8.586270E+03
       324   4 -4.174846E+03 -2.050264E+05 -1.398955E+04  4.902438E+04 -4.564875E+03 -7.024601E+03
       324   5 -1.930008E+03 -2.042538E+05 -1.066522E+04  4.558617E+04 -2.552149E+03 -1.685581E+03
       324   6 -3.132208E+03 -2.050253E+05 -1.167589E+04  4.902504E+04 -3.607021E+02  3.653533E+03
       324   7  1.311461E+04 -1.307576E+05 -1.843473E+03  4.669213E+04 -4.562059E+03 -1.118632E+04
       324   8  6.207114E+03 -1.688423E+05 -5.400718E+03  4.530743E+04 -2.549167E+03 -6.232649E+03
       324   9 -4.080379E+03 -2.084024E+05 -1.302494E+04  5.079964E+04 -3.575278E+02 -1.279175E+03
       324  10 -2.146458E+04 -2.792896E+05 -2.613577E+04  5.135633E+04  3.329021E-10 -1.588982E-10
       324  11 -1.006719E+04 -2.396641E+05 -1.592969E+04  4.586491E+04  2.600596E-10  6.659660E-11
       324  12 -2.184033E+03 -2.016482E+05 -1.032689E+04  4.725044E+04  5.909312E-10  2.273858E-10
       324  13 -4.174881E+03 -2.050264E+05 -1.398968E+04  4.902435E+04 -1.438053E-10  1.311712E-09
       324  14 -1.930016E+03 -2.042538E+05 -1.066524E+04  4.558617E+04  2.494571E-10  1.129581E-11
       324  15 -3.132211E+03 -2.050253E+05 -1.167592E+04  4.902505E+04  3.275245E-10 -3.572949E-11
       324  16  1.311455E+04 -1.307578E+05 -1.843748E+03  4.669209E+04 -4.962624E-10  5.752511E-10
       324  17  6.207097E+03 -1.688423E+05 -5.400803E+03  4.530741E+04 -3.382285E-10 -7.554364E-12
       324  18 -4.080379E+03 -2.084024E+05 -1.302494E+04  5.079964E+04 -3.044053E-11  7.116466E-10
       324  19 -2.146455E+04 -2.792896E+05 -2.613571E+04  5.135634E+04  4.567660E+03  2.863366E+03
       324  20 -1.006718E+04 -2.396640E+05 -1.592967E+04  4.586490E+04  2.555127E+03 -2.861239E+03
       324  21 -2.184013E+03 -2.016481E+05 -1.032675E+04  4.725044E+04  3.639047E+02 -8.586270E+03
       324  22 -4.174846E+03 -2.050264E+05 -1.398955E+04  4.902438E+04  4.564875E+03  7.024601E+03
       324  23 -1.930008E+03 -2.042538E+05 -1.066522E+04  4.558617E+04  2.552149E+03  1.685581E+03
       324  24 -3.132208E+03 -2.050253E+05 -1.167589E+04  4.902504E+04  3.607021E+02 -3.653533E+03
       324  25  1.311461E+04 -1.307576E+05 -1.843473E+03  4.669213E+04  4.562059E+03  1.118632E+04
       324  26  6.207114E+03 -1.688423E+05 -5.400718E+03  4.530743E+04  2.549167E+03  6.232649E+03
       324  27 -4.080379E+03 -2.084024E+05 -1.302494E+04  5.079964E+04  3.575278E+02  1.279175E+03
       325   1  2.773098E+03 -1.781514E+05 -8.100643E+03  4.863309E+04  1.068942E+03  1.048545E+04
       325   2  3.654744E+03 -1.368784E+05 -8.051936E+03  3.259527E+04  2.138791E+03  1.634295E+04
       325   3 -1.209879E+04 -1.005125E+05 -1.597288E+04  2.328375E+04  8.168587E+02  2.219895E+04
       325   4 -3.881697E+03 -2.059724E+05 -1.354497E+04  4.899339E+04  1.072117E+03  5.583212E+03
       325   5 -1.231430E+04 -2.030719E+05 -2.158505E+04  4.561816E+04  2.138979E+03  1.660466E+04
       325   6 -3.828036E+04 -2.059776E+05 -4.118231E+04  4.896978E+04  8.141805E+02  2.762412E+04
       325   7 -1.053652E+04 -2.337926E+05 -1.898924E+04  4.935366E+04  1.075286E+03  6.811918E+02
       325   8 -2.828297E+04 -2.692609E+05 -3.511831E+04  5.863965E+04  2.139177E+03  1.686635E+04
       325   9 -6.446025E+04 -3.114311E+05 -6.639206E+04  7.465143E+04  8.119512E+02  3.304837E+04
       325  10  2.773067E+03 -1.781515E+05 -8.100852E+03  4.863308E+04  6.157528E-10 -1.236368E-09
       325  11  3.654667E+03 -1.368787E+05 -8.052447E+03  3.259524E+04  2.758890E-10 -3.995156E-10
       325  12 -1.209893E+04 -1.005130E+05 -1.597381E+04  2.328374E+04 -1.769069E-10  4.680392E-10
       325  13 -3.881706E+03 -2.059724E+05 -1.354503E+04  4.899338E+04  3.682760E-10  1.846912E-09
       325  14 -1.231437E+04 -2.030722E+05 -2.158558E+04  4.561814E+04 -6.858481E-11  1.345810E-10
       325  15 -3.828057E+04 -2.059784E+05 -4.118375E+04  4.896976E+04  9.167057E-11 -1.614887E-10
       325  16 -1.053653E+04 -2.337926E+05 -1.898924E+04  4.935366E+04 -4.291316E-10  2.244121E-09
       325  17 -2.828306E+04 -2.692612E+05 -3.511886E+04  5.863962E+04  5.676365E-11  7.835104E-10
       325  18 -6.446054E+04 -3.114322E+05 -6.639411E+04  7.465141E+04 -2.634422E-10  4.458929E-10
       325  19  2.773098E+03 -1.781514E+05 -8.100643E+03  4.863309E+04 -1.068942E+03 -1.048545E+04
       325  20  3.654744E+03 -1.368784E+05 -8.051936E+03  3.259527E+04 -2.138791E+03 -1.634295E+04
       325  21 -1.209879E+04 -1.005125E+05 -1.597288E+04  2.328375E+04 -8.168587E+02 -2.219895E+04
       325  22 -3.881697E+03 -2.059724E+05 -1.354497E+04  4.899339E+04 -1.072117E+03 -5.583212E+03
       325  23 -1.231430E+04 -2.030719E+05 -2.158505E+04  4.561816E+04 -2.138979E+03 -1.660466E+04
       325  24 -3.828036E+04 -2.059776E+05 -4.118231E+04  4.896978E+04 -8.141805E+02 -2.762412E+04
       325  25 -1.053652E+04 -2.337926E+05 -1.898924E+04  4.935366E+04 -1.075286E+03 -6.811918E+02
       325  26 -2.828297E+04 -2.692609E+05 -3.511831E+04  5.863965E+04 -2.139177E+03 -1.686635E+04
       325  27 -6.446025E+04 -3.114311E+05 -6.639206E+04  7.465143E+04 -8.119512E+02 -3.304837E+04
       326   1  6.724429E+04  4.569634E+04  8.184895E+03  4.850107E+04  6.180317E+03  5.011405E+03
       326   2  7.063636E+04  3.827039E+04  3.167878E+03  5.282802E+04  3.849029E+03  4.070369E+03
       326   3  7.799172E+04  3.446959E+04  1.186654E+03  5.499910E+04  1.857128E+03  2.677465E+03
       326   4  9.455389E+04  5.058702E+04  1.422646E+04  5.537838E+04  7.787709E+03  6.218743E+03
       326   5  9.030031E+04  4.482964E+04  7.139465E+03  5.934043E+04  4.480151E+03  4.544420E+03
       326   6  9.022178E+04  4.290926E+04  3.935961E+03  6.114659E+04  1.512011E+03  2.418206E+03
       326   7  1.218650E+05  5.547788E+04  2.026817E+04  6.225597E+04  9.395233E+03  7.426110E+03
       326   8  1.099651E+05  5.138907E+04  1.111115E+04  6.585313E+04  5.111313E+03  5.018486E+03
       326   9  1.024523E+05  5.134920E+04  6.685343E+03  6.729434E+04  1.166878E+03  2.158935E+03
       326  10  6.724425E+04  4.569631E+04  8.184776E+03  4.850105E+04 -5.271422E-09 -3.469080E-09
       326  11  7.063634E+04  3.827037E+04  3.167819E+03  5.282801E+04  5.649660E-09  6.502291E-09
       326  12  7.799172E+04  3.446958E+04  1.186634E+03  5.499909E+04  2.120355E-08  1.555089E-08
       326  13  9.455381E+04  5.058696E+04  1.422628E+04  5.537834E+04 -7.978974E-10  1.141732E-11
       326  14  9.030029E+04  4.482961E+04  7.139389E+03  5.934042E+04 -1.637512E-10 -2.105513E-09
       326  15  9.022178E+04  4.290926E+04  3.935945E+03  6.114659E+04  4.968625E-09  7.948801E-09
       326  16  1.218648E+05  5.547780E+04  2.026790E+04  6.225591E+04  3.627360E-09  1.959070E-09
       326  17  1.099651E+05  5.138903E+04  1.111105E+04  6.585311E+04 -6.496996E-09 -4.139436E-09
       326  18  1.024523E+05  5.134919E+04  6.685331E+03  6.729434E+04 -1.179323E-08 -7.868483E-09
       326  19  6.724429E+04  4.569634E+04  8.184895E+03  4.850107E+04 -6.180317E+03 -5.011405E+03
       326  20  7.063636E+04  3.827039E+04  3.167878E+03  5.282802E+04 -3.849029E+03 -4.070369E+03
       326  21  7.799172E+04  3.446959E+04  1.186654E+03  5.499910E+04 -1.857128E+03 -2.677465E+03
       326  22  9.455389E+04  5.058702E+04  1.422646E+04  5.537838E+04 -7.787709E+03 -6.218743E+03
       326  23  9.030031E+04  4.482964E+04  7.139465E+03  5.934043E+04 -4.480151E+03 -4.544420E+03
       326  24  9.022178E+04  4.290926E+04  3.935961E+03  6.114659E+04 -1.512011E+03 -2.418206E+03
       326  25  1.218650E+05  5.547788E+04  2.026817E+04  6.225597E+04 -9.395233E+03 -7.426110E+03
       326  26  1.099651E+05  5.138907E+04  1.111115E+04  6.585313E+04 -5.111313E+03 -5.018486E+03
       326  27  1.024523E+05  5.134920E+04  6.685343E+03  6.729434E+04 -1.166878E+03 -2.158935E+03
       327   1  7.931211E+04  3.602212E+04  7.733771E+02  5.611650E+04  1.534076E+03  2.261471E+03
       327   2  8.215108E+04  3.795676E+04  3.437919E+02  5.810047E+04  1.085451E+03  1.627189E+03
       327   3  8.607206E+04  3.950340E+04  5.152117E+02  5.973469E+04  6.773463E+02  9.389810E+02
       327   4  8.988167E+04  4.258121E+04  3.001613E+03  6.109344E+04  1.181824E+03  1.996852E+03
       327   5  8.916185E+04  4.246814E+04  1.771707E+03  6.148946E+04  6.166723E+02  1.275041E+03
       327   6  8.954940E+04  4.199241E+04  1.244026E+03  6.153576E+04  9.204069E+01  4.993024E+02
       327   7  1.004511E+05  4.914019E+04  5.229762E+03  6.607037E+04  8.295724E+02  1.732234E+03
       327   8  9.617259E+04  4.697949E+04  3.199593E+03  6.487846E+04  1.478925E+02  9.228921E+02
       327   9  9.302675E+04  4.448142E+04  1.972840E+03  6.333683E+04 -4.932688E+02  5.962073E+01
       327  10  7.931210E+04  3.602211E+04  7.733631E+02  5.611649E+04 -1.186782E-08 -8.766747E-09
       327  11  8.215107E+04  3.795676E+04  3.437847E+02  5.810047E+04 -6.327733E-09 -4.052594E-09
       327  12  8.607206E+04  3.950340E+04  5.152092E+02  5.973469E+04  4.194159E-09  1.936556E-09
       327  13  8.988167E+04  4.258120E+04  3.001603E+03  6.109344E+04  4.898567E-09  5.244316E-09
       327  14  8.916185E+04  4.246814E+04  1.771704E+03  6.148946E+04  3.191028E-11  2.698790E-09
       327  15  8.954940E+04  4.199241E+04  1.244025E+03  6.153576E+04 -6.170410E-10 -1.146936E-09
       327  16  1.004511E+05  4.914018E+04  5.229755E+03  6.607037E+04  2.133885E-08  1.804239E-08
       327  17  9.617259E+04  4.697949E+04  3.199592E+03  6.487846E+04  5.907099E-09  8.219190E-09
       327  18  9.302675E+04  4.448142E+04  1.972840E+03  6.333683E+04 -5.047188E-09 -3.887338E-09
       327  19  7.931211E+04  3.602212E+04  7.733771E+02  5.611650E+04 -1.534076E+03 -2.261471E+03
       327  20  8.215108E+04  3.795676E+04  3.437919E+02  5.810047E+04 -1.085451E+03 -1.627189E+03
       327  21  8.607206E+04  3.950340E+04  5.152117E+02  5.973469E+04 -6.773463E+02 -9.389810E+02
       327  22  8.988167E+04  4.258121E+04  3.001613E+03  6.109344E+04 -1.181824E+03 -1.996852E+03
       327  23  8.916185E+04  4.246814E+04  1.771707E+03  6.148946E+04 -6.166723E+02 -1.275041E+03
       327  24  8.954940E+04  4.199241E+04  1.244026E+03  6.153576E+04 -9.204069E+01 -4.993024E+02
       327  25  1.004511E+05  4.914019E+04  5.229762E+03  6.607037E+04 -8.295724E+02 -1.732234E+03
       327  26  9.617259E+04  4.697949E+04  3.199593E+03  6.487846E+04 -1.478925E+02 -9.228921E+02
       327  27  9.302675E+04  4.448142E+04  1.972840E+03  6.333683E+04  4.932688E+02 -5.962073E+01
       328   1  8.803086E+04  4.098205E+04  8.415904E+02  6.079383E+04  6.329693E+02  6.551785E+02
       328   2  9.087989E+04  4.360893E+04  1.563111E+03  6.256582E+04  3.535885E+02  2.191510E+01
       328   3  9.462041E+04  4.558026E+04  2.709091E+03  6.410538E+04  7.327314E+01 -6.101329E+02
       328   4  8.952551E+04  4.197010E+04  1.144110E+03  6.152959E+04  4.693024E+01  2.149476E+02
       328   5  8.909152E+04  4.231846E+04  1.210466E+03  6.163058E+04 -2.298076E+02 -4.163334E+02
       328   6  8.954836E+04  4.201064E+04  1.698956E+03  6.149910E+04 -5.074683E+02 -1.046385E+03
       328   7  9.102020E+04  4.295817E+04  1.446644E+03  6.226537E+04 -5.391239E+02 -2.252944E+02
       328   8  8.730316E+04  4.102799E+04  8.578237E+02  6.069535E+04 -8.132016E+02 -8.545801E+02
       328   9  8.447646E+04  3.844112E+04  6.888621E+02  5.889290E+04 -1.088190E+03 -1.482624E+03
       328  10  8.803086E+04  4.098205E+04  8.415889E+02  6.079383E+04  5.952473E-10 -5.161664E-11
       328  11  9.087989E+04  4.360893E+04  1.563111E+03  6.256582E+04  1.431917E-09  2.158630E-09
       328  12  9.462041E+04  4.558025E+04  2.709090E+03  6.410538E+04  1.543429E-09  7.281886E-10
       328  13  8.952551E+04  4.197010E+04  1.144110E+03  6.152959E+04  5.003166E-10 -3.355601E-09
       328  14  8.909152E+04  4.231846E+04  1.210466E+03  6.163058E+04  4.875623E-10  1.821477E-09
       328  15  8.954836E+04  4.201063E+04  1.698953E+03  6.149909E+04  7.880046E-10 -1.318668E-09
       328  16  9.102020E+04  4.295817E+04  1.446643E+03  6.226537E+04  1.627810E-11 -2.978442E-09
       328  17  8.730316E+04  4.102799E+04  8.578210E+02  6.069535E+04 -7.795864E-10 -2.953799E-09
       328  18  8.447645E+04  3.844111E+04  6.888557E+02  5.889289E+04 -8.186576E-10 -3.418762E-09
       328  19  8.803086E+04  4.098205E+04  8.415904E+02  6.079383E+04 -6.329693E+02 -6.551785E+02
       328  20  9.087989E+04  4.360893E+04  1.563111E+03  6.256582E+04 -3.535885E+02 -2.191510E+01
       328  21  9.462041E+04  4.558026E+04  2.709091E+03  6.410538E+04 -7.327314E+01  6.101329E+02
       328  22  8.952551E+04  4.197010E+04  1.144110E+03  6.152959E+04 -4.693024E+01 -2.149476E+02
       328  23  8.909152E+04  4.231846E+04  1.210466E+03  6.163058E+04  2.298076E+02  4.163334E+02
       328  24  8.954836E+04  4.201064E+04  1.698956E+03  6.149910E+04  5.074683E+02  1.046385E+03
       328  25  9.102020E+04  4.295817E+04  1.446644E+03  6.226537E+04  5.391239E+02  2.252944E+02
       328  26  8.730316E+04  4.102799E+04  8.578237E+02  6.069535E+04  8.132016E+02  8.545801E+02
       328  27  8.447646E+04  3.844112E+04  6.888621E+02  5.889290E+04  1.088190E+03  1.482624E+03
       329   1  9.662258E+04  4.718556E+04  3.566205E+03  6.521211E+04 -6.996749E+01 -9.664499E+02
       329   2  1.001243E+05  4.944897E+04  5.730610E+03  6.646240E+04 -1.463156E+03 -2.382643E+03
       329   3  1.051537E+05  5.186592E+04  9.458906E+03  6.720134E+04 -2.904587E+03 -3.734639E+03
       329   4  8.961628E+04  4.206529E+04  2.127640E+03  6.152622E+04 -6.497953E+02 -1.402016E+03
       329   5  8.923534E+04  4.265554E+04  3.580015E+03  6.129209E+04 -1.904234E+03 -2.713987E+03
       329   6  9.035208E+04  4.336923E+04  6.475807E+03  6.054659E+04 -3.206918E+03 -3.961769E+03
       329   7  8.261002E+04  3.694504E+04  6.890734E+02  5.784038E+04 -1.229615E+03 -1.837575E+03
       329   8  7.834643E+04  3.586208E+04  1.429372E+03  5.612181E+04 -2.345307E+03 -3.045329E+03
       329   9  7.555033E+04  3.487242E+04  3.492588E+03  5.389186E+04 -3.509246E+03 -4.188899E+03
       329  10  9.662258E+04  4.718556E+04  3.566203E+03  6.521211E+04 -1.089023E-08 -9.637058E-09
       329  11  1.001243E+05  4.944896E+04  5.730596E+03  6.646240E+04  2.291906E-08  1.916626E-08
       329  12  1.051537E+05  5.186591E+04  9.458864E+03  6.720133E+04  5.034773E-08  4.141250E-08
       329  13  8.961627E+04  4.206528E+04  2.127636E+03  6.152622E+04  8.985876E-10 -1.648737E-09
       329  14  8.923534E+04  4.265553E+04  3.579994E+03  6.129208E+04 -4.259556E-10 -2.325629E-09
       329  15  9.035207E+04  4.336921E+04  6.475758E+03  6.054658E+04 -5.720065E-09  4.690492E-10
       329  16  8.261002E+04  3.694504E+04  6.890643E+02  5.784037E+04  1.239934E-08  8.656172E-09
       329  17  7.834642E+04  3.586206E+04  1.429344E+03  5.612181E+04 -2.425680E-08 -1.610312E-08
       329  18  7.555031E+04  3.487240E+04  3.492532E+03  5.389185E+04 -6.203728E-08 -4.074529E-08
       329  19  9.662258E+04  4.718556E+04  3.566205E+03  6.521211E+04  6.996749E+01  9.664499E+02
       329  20  1.001243E+05  4.944897E+04  5.730610E+03  6.646240E+04  1.463156E+03  2.382643E+03
       329  21  1.051537E+05  5.186592E+04  9.458906E+03  6.720134E+04  2.904587E+03  3.734639E+03
       329  22  8.961628E+04  4.206529E+04  2.127640E+03  6.152622E+04  6.497953E+02  1.402016E+03
       329  23  8.923534E+04  4.265554E+04  3.580015E+03  6.129209E+04  1.904234E+03  2.713987E+03
       329  24  9.035208E+04  4.336923E+04  6.475807E+03  6.054659E+04  3.206918E+03  3.961769E+03
       329  25  8.261002E+04  3.694504E+04  6.890734E+02  5.784038E+04  1.229615E+03  1.837575E+03
       329  26  7.834643E+04  3.586208E+04  1.429372E+03  5.612181E+04  2.345307E+03  3.045329E+03
       329  27  7.555033E+04  3.487242E+04  3.492588E+03  5.389186E+04  3.509246E+03  4.188899E+03
       330   1  1.070863E+05  5.497613E+04  1.213283E+04  6.863799E+04 -3.732049E+03 -4.513116E+03
       330   2  1.202873E+05  5.177288E+04  2.066928E+04  6.334803E+04 -1.145187E+04 -1.010632E+04
       330   3  1.421182E+05  5.825892E+04  3.882608E+04  5.352301E+04 -1.957384E+04 -1.516403E+04
       330   4  9.111966E+04  4.408989E+04  8.608252E+03  6.066591E+04 -4.025931E+03 -4.733892E+03
       330   5  9.174678E+04  4.790665E+04  1.581202E+04  5.652056E+04 -1.058913E+04 -9.458532E+03
       330   6  1.007527E+05  6.116153E+04  3.163199E+04  4.784018E+04 -1.755433E+04 -1.364791E+04
       330   7  7.515374E+04  3.320407E+04  5.083788E+03  5.269426E+04 -4.319796E+03 -4.954656E+03
       330   8  6.320769E+04  4.404059E+04  1.095487E+04  4.969332E+04 -9.726458E+03 -8.810746E+03
       330   9  5.938983E+04  6.406471E+04  2.443806E+04  4.215725E+04 -1.553501E+04 -1.213175E+04
       330  10  1.070863E+05  5.497610E+04  1.213277E+04  6.863797E+04 -6.064997E-08 -4.342519E-08
       330  11  1.202872E+05  5.177273E+04  2.066884E+04  6.334794E+04 -2.412879E-08 -1.837537E-08
       330  12  1.421178E+05  5.825857E+04  3.882493E+04  5.352277E+04  1.156891E-08  6.974187E-09
       330  13  9.111964E+04  4.408986E+04  8.608180E+03  6.066590E+04 -5.154433E-09  1.889508E-09
       330  14  9.174664E+04  4.790652E+04  1.581164E+04  5.652048E+04 -2.283015E-10  6.980367E-10
       330  15  1.007524E+05  6.116125E+04  3.163106E+04  4.783999E+04  7.807115E-10  1.345217E-09
       330  16  7.515371E+04  3.320404E+04  5.083706E+03  5.269424E+04  4.928941E-08  4.361142E-08
       330  17  6.320757E+04  4.404048E+04  1.095454E+04  4.969325E+04  2.352522E-08  2.065394E-08
       330  18  5.938953E+04  6.406448E+04  2.443733E+04  4.215710E+04 -1.004505E-08 -7.384597E-09
       330  19  1.070863E+05  5.497613E+04  1.213283E+04  6.863799E+04  3.732049E+03  4.513116E+03
       330  20  1.202873E+05  5.177288E+04  2.066928E+04  6.334803E+04  1.145187E+04  1.010632E+04
       330  21  1.421182E+05  5.825892E+04  3.882608E+04  5.352301E+04  1.957384E+04  1.516403E+04
       330  22  9.111966E+04  4.408989E+04  8.608252E+03  6.066591E+04  4.025931E+03  4.733892E+03
       330  23  9.174678E+04  4.790665E+04  1.581202E+04  5.652056E+04  1.058913E+04  9.458532E+03
       330  24  1.007527E+05  6.116153E+04  3.163199E+04  4.784018E+04  1.755433E+04  1.364791E+04
       330  25  7.515374E+04  3.320407E+04  5.083788E+03  5.269426E+04  4.319796E+03  4.954656E+03
       330  26  6.320769E+04  4.404059E+04  1.095487E+04  4.969332E+04  9.726458E+03  8.810746E+03
       330  27  5.938983E+04  6.406471E+04  2.443806E+04  4.215725E+04  1.553501E+04  1.213175E+04
       331   1  6.499137E+04  1.546695E+04  1.506866E+04  1.598325E+04  5.782294E+03 -5.294978E+02
       331   2  5.346296E+04  1.029710E+04  9.135580E+03  1.405452E+04  2.519407E+03 -1.647256E+03
       331   3  4.280040E+04  6.904919E+03  5.770878E+03  1.401522E+04 -7.442671E+02 -1.647772E+03
       331   4  1.452711E+04  2.997599E+03  3.203744E+03  1.395580E+04  2.166825E+03 -5.325314E+02
       331   5  1.430394E+04  9.694712E+02  1.665220E+03  1.301221E+04  1.317468E+03 -1.648275E+03
       331   6  1.452742E+04  3.000688E+02  1.019148E+03  1.395804E+04  4.672246E+02 -1.646756E+03
       331   7 -3.593477E+04 -9.471915E+03 -8.661295E+03  1.192851E+04 -1.448351E+03 -5.355415E+02
       331   8 -2.485360E+04 -8.358239E+03 -5.805202E+03  1.196998E+04  1.156030E+02 -1.649291E+03
       331   9 -1.374478E+04 -6.304822E+03 -3.732602E+03  1.390087E+04  1.678663E+03 -1.645741E+03
       331  10  6.499134E+04  1.546694E+04  1.506860E+04  1.598325E+04 -5.439705E-10  4.982016E-10
       331  11  5.346295E+04  1.029709E+04  9.135563E+03  1.405452E+04  1.971552E-10 -6.200012E-10
       331  12  4.280040E+04  6.904916E+03  5.770872E+03  1.401522E+04  5.418709E-10  5.583090E-11
       331  13  1.452711E+04  2.997597E+03  3.203734E+03  1.395580E+04  9.101201E-12  1.877176E-09
       331  14  1.430394E+04  9.694678E+02  1.665212E+03  1.301222E+04  1.434007E-10  2.063948E-09
       331  15  1.452741E+04  3.000658E+02  1.019142E+03  1.395805E+04 -3.211337E-13 -1.530831E-10
       331  16 -3.593477E+04 -9.471916E+03 -8.661300E+03  1.192851E+04  4.774109E-10  5.815859E-10
       331  17 -2.485360E+04 -8.358242E+03 -5.805207E+03  1.196998E+04 -4.140957E-10 -2.772356E-09
       331  18 -1.374478E+04 -6.304826E+03 -3.732612E+03  1.390087E+04 -4.601954E-10 -8.435947E-10
       331  19  6.499137E+04  1.546695E+04  1.506866E+04  1.598325E+04 -5.782294E+03  5.294978E+02
       331  20  5.346296E+04  1.029710E+04  9.135580E+03  1.405452E+04 -2.519407E+03  1.647256E+03
       331  21  4.280040E+04  6.904919E+03  5.770878E+03  1.401522E+04  7.442671E+02  1.647772E+03
       331  22  1.452711E+04  2.997599E+03  3.203744E+03  1.395580E+04 -2.166825E+03  5.325314E+02
       331  23  1.430394E+04  9.694712E+02  1.665220E+03  1.301221E+04 -1.317468E+03  1.648275E+03
       331  24  1.452742E+04  3.000688E+02  1.019148E+03  1.395804E+04 -4.672246E+02  1.646756E+03
       331  25 -3.593477E+04 -9.471915E+03 -8.661295E+03  1.192851E+04  1.448351E+03  5.355415E+02
       331  26 -2.485360E+04 -8.358239E+03 -5.805202E+03  1.196998E+04 -1.156030E+02  1.649291E+03
       331  27 -1.374478E+04 -6.304822E+03 -3.732602E+03  1.390087E+04 -1.678663E+03  1.645741E+03
       332   1  3.571818E+04  5.195278E+03  4.383236E+03  1.413194E+04 -9.066048E+02 -1.276807E+03
       332   2  2.456575E+04  2.440065E+03  2.362212E+03  1.306831E+04 -1.525231E+03 -6.500738E+02
       332   3  1.353949E+04 -1.161546E+02  7.924930E+02  1.397452E+04 -2.143955E+03  9.342754E+01
       332   4  1.444654E+04  2.360980E+02  8.598534E+02  1.397575E+04  3.221937E+02 -1.275771E+03
       332   5  1.440537E+04  8.234009E+01  7.344894E+02  1.299090E+04 -4.419692E+01 -6.488202E+02
       332   6  1.444662E+04  8.383616E+01  8.853203E+02  1.397588E+04 -4.106922E+02  9.489948E+01
       332   7 -6.824643E+03 -4.723105E+03 -2.663537E+03  1.381956E+04  1.550952E+03 -1.274735E+03
       332   8  4.245088E+03 -2.275389E+03 -8.932281E+02  1.291348E+04  1.436813E+03 -6.475670E+02
       332   9  1.535375E+04  2.838285E+02  9.781590E+02  1.397724E+04  1.322573E+03  9.637142E+01
       332  10  3.571817E+04  5.195276E+03  4.383232E+03  1.413194E+04 -3.566998E-09  4.381903E-10
       332  11  2.456575E+04  2.440064E+03  2.362207E+03  1.306831E+04 -3.872039E-10 -1.188092E-09
       332  12  1.353949E+04 -1.161558E+02  7.924843E+02  1.397452E+04  2.647026E-09 -1.206257E-09
       332  13  1.444654E+04  2.360963E+02  8.598502E+02  1.397575E+04 -2.707195E-13  1.713670E-10
       332  14  1.440537E+04  8.233963E+01  7.344886E+02  1.299090E+04  1.523457E-10  1.199099E-09
       332  15  1.444662E+04  8.383610E+01  8.853200E+02  1.397588E+04  2.855715E-11  9.365739E-10
       332  16 -6.824646E+03 -4.723107E+03 -2.663545E+03  1.381957E+04  3.509337E-09  1.975399E-09
       332  17  4.245085E+03 -2.275390E+03 -8.932327E+02  1.291348E+04  1.823816E-10 -8.723017E-10
       332  18  1.535375E+04  2.838280E+02  9.781557E+02  1.397724E+04 -2.555635E-09  6.331508E-10
       332  19  3.571818E+04  5.195278E+03  4.383236E+03  1.413194E+04  9.066048E+02  1.276807E+03
       332  20  2.456575E+04  2.440065E+03  2.362212E+03  1.306831E+04  1.525231E+03  6.500738E+02
       332  21  1.353949E+04 -1.161546E+02  7.924930E+02  1.397452E+04  2.143955E+03 -9.342754E+01
       332  22  1.444654E+04  2.360980E+02  8.598534E+02  1.397575E+04 -3.221937E+02  1.275771E+03
       332  23  1.440537E+04  8.234009E+01  7.344894E+02  1.299090E+04  4.419692E+01  6.488202E+02
       332  24  1.444662E+04  8.383616E+01  8.853203E+02  1.397588E+04  4.106922E+02 -9.489948E+01
       332  25 -6.824643E+03 -4.723105E+03 -2.663537E+03  1.381956E+04 -1.550952E+03  1.274735E+03
       332  26  4.245088E+03 -2.275389E+03 -8.932281E+02  1.291348E+04 -1.436813E+03  6.475670E+02
       332  27  1.535375E+04  2.838285E+02  9.781590E+02  1.397724E+04 -1.322573E+03 -9.637142E+01
       333   1  6.628048E+03 -1.706449E+03 -9.607947E+01  1.403137E+04 -2.309663E+03  5.711793E+02
       333   2 -4.553894E+03 -4.062628E+03 -1.189512E+03  1.273516E+04 -2.857202E+03  1.302202E+03
       333   3 -1.554987E+04 -5.944378E+03 -1.809048E+03  1.340700E+04 -3.404610E+03  1.891646E+03
       333   4  1.448138E+04  9.554244E+01  1.061219E+03  1.397554E+04 -5.767651E+02  5.726498E+02
       333   5  1.436185E+04  2.998859E+02  1.704871E+03  1.299112E+04 -1.430152E+03  1.303403E+03
       333   6  1.448123E+04  1.031747E+03  3.034786E+03  1.397475E+04 -2.283416E+03  1.892580E+03
       333   7  2.233478E+04  1.897533E+03  2.218528E+03  1.391971E+04  1.156153E+03  5.741200E+02
       333   8  3.327795E+04  4.662384E+03  4.599255E+03  1.324709E+04 -3.059225E+00  1.304606E+03
       333   9  4.451323E+04  8.007828E+03  7.878601E+03  1.454253E+04 -1.162169E+03  1.893516E+03
       333  10  6.628042E+03 -1.706451E+03 -9.609011E+01  1.403137E+04  1.256118E-09 -4.544715E-10
       333  11 -4.553904E+03 -4.062632E+03 -1.189531E+03  1.273516E+04  7.558772E-11  1.887483E-09
       333  12 -1.554989E+04 -5.944385E+03 -1.809077E+03  1.340700E+04 -1.381259E-09  5.939796E-10
       333  13  1.448138E+04  9.554200E+01  1.061218E+03  1.397554E+04 -8.927195E-12 -2.253464E-09
       333  14  1.436184E+04  2.998835E+02  1.704864E+03  1.299112E+04  1.330189E-10  3.145981E-09
       333  15  1.448123E+04  1.031742E+03  3.034770E+03  1.397475E+04 -2.239571E-11  2.323269E-09
       333  16  2.233478E+04  1.897532E+03  2.218525E+03  1.391971E+04 -1.268942E-09 -1.085876E-09
       333  17  3.327795E+04  4.662382E+03  4.599252E+03  1.324709E+04 -1.986413E-10 -1.934766E-09
       333  18  4.451323E+04  8.007824E+03  7.878591E+03  1.454253E+04  1.339318E-09  1.056410E-09
       333  19  6.628048E+03 -1.706449E+03 -9.607947E+01  1.403137E+04  2.309663E+03 -5.711793E+02
       333  20 -4.553894E+03 -4.062628E+03 -1.189512E+03  1.273516E+04  2.857202E+03 -1.302202E+03
       333  21 -1.554987E+04 -5.944378E+03 -1.809048E+03  1.340700E+04  3.404610E+03 -1.891646E+03
       333  22  1.448138E+04  9.554244E+01  1.061219E+03  1.397554E+04  5.767651E+02 -5.726498E+02
       333  23  1.436185E+04  2.998859E+02  1.704871E+03  1.299112E+04  1.430152E+03 -1.303403E+03
       333  24  1.448123E+04  1.031747E+03  3.034786E+03  1.397475E+04  2.283416E+03 -1.892580E+03
       333  25  2.233478E+04  1.897533E+03  2.218528E+03  1.391971E+04 -1.156153E+03 -5.741200E+02
       333  26  3.327795E+04  4.662384E+03  4.599255E+03  1.324709E+04  3.059225E+00 -1.304606E+03
       333  27  4.451323E+04  8.007828E+03  7.878601E+03  1.454253E+04  1.162169E+03 -1.893516E+03
       334   1 -2.216083E+04 -7.309091E+03 -2.085658E+03  1.382746E+04 -3.908360E+03  2.239654E+03
       334   2 -3.403181E+04 -6.978584E+03 -1.652644E+03  8.353414E+03 -4.866540E+03  2.098842E+03
       334   3 -4.434167E+04 -8.899421E+02  8.431746E+02  4.751699E+03 -5.823641E+03  6.583677E+02
       334   4  1.488318E+04  1.321372E+03  4.021276E+03  1.395424E+04 -2.807400E+03  2.240567E+03
       334   5  1.385895E+04  4.412410E+03  7.364938E+03  1.301299E+04 -6.572974E+03  2.097371E+03
       334   6  1.488274E+04  1.374860E+04  1.472080E+04  1.394394E+04 -1.033746E+04  6.545446E+02
       334   7  5.192854E+04  9.951766E+03  1.012817E+04  1.408103E+04 -1.706377E+03  2.241480E+03
       334   8  6.175197E+04  1.580335E+04  1.638244E+04  1.767294E+04 -8.279536E+03  2.095874E+03
       334   9  7.411060E+04  2.838722E+04  2.859832E+04  2.313705E+04 -1.485170E+04  6.505880E+02
       334  10 -2.216085E+04 -7.309101E+03 -2.085696E+03  1.382747E+04  1.762905E-09  4.636570E-11
       334  11 -3.403184E+04 -6.978595E+03 -1.652697E+03  8.353422E+03  2.377473E-09  8.710353E-10
       334  12 -4.434170E+04 -8.899517E+02  8.431101E+02  4.751702E+03  2.328923E-09  1.611381E-09
       334  13  1.488317E+04  1.321365E+03  4.021252E+03  1.395425E+04 -9.365482E-13  1.930640E-09
       334  14  1.385890E+04  4.412394E+03  7.364848E+03  1.301300E+04  6.653029E-11  1.004448E-09
       334  15  1.488262E+04  1.374857E+04  1.472060E+04  1.394394E+04 -3.470957E-11  2.729787E-09
       334  16  5.192854E+04  9.951760E+03  1.012816E+04  1.408104E+04 -1.870214E-09  1.578580E-09
       334  17  6.175190E+04  1.580333E+04  1.638230E+04  1.767295E+04 -2.642747E-09  2.526448E-09
       334  18  7.411037E+04  2.838716E+04  2.859790E+04  2.313706E+04 -2.371315E-09  8.954981E-10
       334  19 -2.216083E+04 -7.309091E+03 -2.085658E+03  1.382746E+04  3.908360E+03 -2.239654E+03
       334  20 -3.403181E+04 -6.978584E+03 -1.652644E+03  8.353414E+03  4.866540E+03 -2.098842E+03
       334  21 -4.434167E+04 -8.899421E+02  8.431746E+02  4.751699E+03  5.823641E+03 -6.583677E+02
       334  22  1.488318E+04  1.321372E+03  4.021276E+03  1.395424E+04  2.807400E+03 -2.240567E+03
       334  23  1.385895E+04  4.412410E+03  7.364938E+03  1.301299E+04  6.572974E+03 -2.097371E+03
       334  24  1.488274E+04  1.374860E+04  1.472080E+04  1.394394E+04  1.033746E+04 -6.545446E+02
       334  25  5.192854E+04  9.951766E+03  1.012817E+04  1.408103E+04  1.706377E+03 -2.241480E+03
       334  26  6.175197E+04  1.580335E+04  1.638244E+04  1.767294E+04  8.279536E+03 -2.095874E+03
       334  27  7.411060E+04  2.838722E+04  2.859832E+04  2.313705E+04  1.485170E+04 -6.505880E+02
       335   1 -5.733853E+04 -2.633806E+05 -5.826163E+04  5.298066E+04 -1.111240E+03 -2.974274E+04
       335   2 -2.959824E+04 -2.346693E+05 -3.267745E+04  4.081507E+04 -3.446715E+03 -1.598711E+04
       335   3 -1.653357E+04 -2.114092E+05 -1.971957E+04  3.308373E+04 -3.355308E+03 -2.228626E+03
       335   4 -3.014446E+04 -1.535085E+05 -3.237203E+04  3.277865E+04 -1.116001E+03 -2.210214E+04
       335   5 -9.688872E+03 -1.512361E+05 -1.667367E+04  3.057146E+04 -3.448193E+03 -1.358636E+04
       335   6 -2.998096E+03 -1.535050E+05 -9.960930E+03  3.279912E+04 -3.353212E+03 -5.068456E+03
       335   7 -2.949693E+03 -4.362433E+04 -6.482810E+03  1.257305E+04 -1.121259E+03 -1.446019E+04
       335   8  1.022048E+04 -6.779588E+04 -6.701382E+02  2.032644E+04 -3.449750E+03 -1.118529E+04
       335   9  1.053720E+04 -9.559745E+04 -2.023672E+02  3.251448E+04 -3.351114E+03 -7.908542E+03
       335  10 -5.733876E+04 -2.633816E+05 -5.826330E+04  5.298063E+04  2.960397E-10  4.171560E-10
       335  11 -2.959833E+04 -2.346696E+05 -3.267795E+04  4.081502E+04  2.475543E-10  8.326739E-10
       335  12 -1.653358E+04 -2.114093E+05 -1.971960E+04  3.308373E+04 -2.369437E-10 -1.908724E-09
       335  13 -3.014459E+04 -1.535090E+05 -3.237295E+04  3.277863E+04  3.530106E-10  1.208131E-09
       335  14 -9.688934E+03 -1.512363E+05 -1.667404E+04  3.057142E+04  1.989503E-10  5.385907E-09
       335  15 -2.998115E+03 -1.535050E+05 -9.961000E+03  3.279910E+04 -7.116590E-11  1.692025E-09
       335  16 -2.949750E+03 -4.362456E+04 -6.483206E+03  1.257304E+04 -5.931680E-12 -5.530614E-10
       335  17  1.022044E+04 -6.779601E+04 -6.703957E+02  2.032641E+04  5.977183E-10  1.532734E-09
       335  18  1.053718E+04 -9.559752E+04 -2.025058E+02  3.251445E+04 -9.715110E-11 -4.862728E-10
       335  19 -5.733853E+04 -2.633806E+05 -5.826163E+04  5.298066E+04  1.111240E+03  2.974274E+04
       335  20 -2.959824E+04 -2.346693E+05 -3.267745E+04  4.081507E+04  3.446715E+03  1.598711E+04
       335  21 -1.653357E+04 -2.114092E+05 -1.971957E+04  3.308373E+04  3.355308E+03  2.228626E+03
       335  22 -3.014446E+04 -1.535085E+05 -3.237203E+04  3.277865E+04  1.116001E+03  2.210214E+04
       335  23 -9.688872E+03 -1.512361E+05 -1.667367E+04  3.057146E+04  3.448193E+03  1.358636E+04
       335  24 -2.998096E+03 -1.535050E+05 -9.960930E+03  3.279912E+04  3.353212E+03  5.068456E+03
       335  25 -2.949693E+03 -4.362433E+04 -6.482810E+03  1.257305E+04  1.121259E+03  1.446019E+04
       335  26  1.022048E+04 -6.779588E+04 -6.701382E+02  2.032644E+04  3.449750E+03  1.118529E+04
       335  27  1.053720E+04 -9.559745E+04 -2.023672E+02  3.251448E+04  3.351114E+03  7.908542E+03
       336   1 -1.207083E+04 -1.942057E+05 -1.510451E+04  3.417884E+04 -2.486907E+03 -8.161493E+02
       336   2 -4.765753E+03 -1.677263E+05 -8.926176E+03  3.060018E+04 -1.119226E+03  2.668045E+03
       336   3  3.686583E+02 -1.422335E+05 -5.556853E+03  3.162468E+04  3.266478E+02  6.152423E+03
       336   4 -2.391614E+03 -1.527085E+05 -8.225586E+03  3.283496E+04 -2.484810E+03 -3.690798E+03
       336   5 -1.204934E+03 -1.522294E+05 -6.622402E+03  3.053343E+04 -1.117024E+03 -3.754084E+02
       336   6 -2.159544E+03 -1.527082E+05 -7.710904E+03  3.283512E+04  3.289695E+02  2.940030E+03
       336   7  7.287527E+03 -1.112095E+05 -1.346680E+03  3.149098E+04 -2.482702E+03 -6.565633E+03
       336   8  2.355879E+03 -1.367322E+05 -4.318598E+03  3.046668E+04 -1.114820E+03 -3.418935E+03
       336   9 -4.687742E+03 -1.631828E+05 -9.864922E+03  3.404554E+04  3.312787E+02 -2.723093E+02
       336  10 -1.207084E+04 -1.942057E+05 -1.510452E+04  3.417884E+04 -5.688440E-10  1.682787E-10
       336  11 -4.765756E+03 -1.677263E+05 -8.926192E+03  3.060018E+04  1.332285E-10  6.762826E-10
       336  12  3.686480E+02 -1.422335E+05 -5.556924E+03  3.162468E+04 -3.796756E-10 -1.529453E-09
       336  13 -2.391625E+03 -1.527085E+05 -8.225623E+03  3.283495E+04 -2.366305E-10  1.135498E-09
       336  14 -1.204935E+03 -1.522294E+05 -6.622405E+03  3.053343E+04  2.283846E-10  4.745628E-09
       336  15 -2.159546E+03 -1.527082E+05 -7.710921E+03  3.283512E+04  7.638078E-12  8.572416E-10
       336  16  7.287509E+03 -1.112096E+05 -1.346772E+03  3.149097E+04 -2.331102E-10 -5.561807E-11
       336  17  2.355875E+03 -1.367322E+05 -4.318622E+03  3.046668E+04 -3.742663E-10  2.053351E-09
       336  18 -4.687742E+03 -1.631828E+05 -9.864922E+03  3.404554E+04  4.491201E-10 -1.154486E-09
       336  19 -1.207083E+04 -1.942057E+05 -1.510451E+04  3.417884E+04  2.486907E+03  8.161493E+02
       336  20 -4.765753E+03 -1.677263E+05 -8.926176E+03  3.060018E+04  1.119226E+03 -2.668045E+03
       336  21  3.686583E+02 -1.422335E+05 -5.556853E+03  3.162468E+04 -3.266478E+02 -6.152423E+03
       336  22 -2.391614E+03 -1.527085E+05 -8.225586E+03  3.283496E+04  2.484810E+03  3.690798E+03
       336  23 -1.204934E+03 -1.522294E+05 -6.622402E+03  3.053343E+04  1.117024E+03  3.754084E+02
       336  24 -2.159544E+03 -1.527082E+05 -7.710904E+03  3.283512E+04 -3.289695E+02 -2.940030E+03
       336  25  7.287527E+03 -1.112095E+05 -1.346680E+03  3.149098E+04  2.482702E+03  6.565633E+03
       336  26  2.355879E+03 -1.367322E+05 -4.318598E+03  3.046668E+04  1.114820E+03  3.418935E+03
       336  27 -4.687742E+03 -1.631828E+05 -9.864922E+03  3.404554E+04 -3.312787E+02  2.723093E+02
       337   1  3.663859E+03 -1.265482E+05 -4.218909E+03  3.256350E+04  1.266649E+03  7.412048E+03
       337   2  4.005715E+03 -9.887331E+04 -4.435821E+03  2.145580E+04  1.853310E+03  1.121656E+04
       337   3 -7.233621E+03 -7.457941E+04 -1.002308E+04  1.483612E+04  6.661933E+02  1.501977E+04
       337   4 -2.691510E+03 -1.533947E+05 -9.143030E+03  3.281090E+04  1.268954E+03  4.223143E+03
       337   5 -8.614283E+03 -1.513725E+05 -1.494808E+04  3.055778E+04  1.853018E+03  1.185784E+04
       337   6 -2.678412E+04 -1.533974E+05 -2.878407E+04  3.279289E+04  6.633445E+02  1.949099E+04
       337   7 -9.046914E+03 -1.802404E+05 -1.406714E+04  3.305828E+04  1.271256E+03  1.034372E+03
       337   8 -2.123414E+04 -2.038689E+05 -2.546044E+04  3.965898E+04  1.852746E+03  1.249906E+04
       337   9 -4.633385E+04 -2.322090E+05 -4.754525E+04  5.074736E+04  6.607544E+02  2.396164E+04
       337  10  3.663843E+03 -1.265483E+05 -4.219015E+03  3.256349E+04 -5.809095E-10  2.874945E-10
       337  11  4.005678E+03 -9.887345E+04 -4.436064E+03  2.145579E+04  5.992127E-10  6.592049E-10
       337  12 -7.233682E+03 -7.457965E+04 -1.002350E+04  1.483612E+04  1.303062E-10 -4.447224E-10
       337  13 -2.691516E+03 -1.533947E+05 -9.143066E+03  3.281089E+04  1.498673E-10  1.142676E-09
       337  14 -8.614325E+03 -1.513727E+05 -1.494836E+04  3.055777E+04  1.756186E-10  3.975677E-09
       337  15 -2.678422E+04 -1.533978E+05 -2.878479E+04  3.279288E+04  1.632993E-10  1.164933E-09
       337  16 -9.046916E+03 -1.802404E+05 -1.406715E+04  3.305828E+04  1.124902E-10 -3.169166E-10
       337  17 -2.123419E+04 -2.038691E+05 -2.546074E+04  3.965896E+04  1.177707E-10  1.053698E-09
       337  18 -4.633400E+04 -2.322096E+05 -4.754633E+04  5.074735E+04  2.046123E-10 -1.763917E-09
       337  19  3.663859E+03 -1.265482E+05 -4.218909E+03  3.256350E+04 -1.266649E+03 -7.412048E+03
       337  20  4.005715E+03 -9.887331E+04 -4.435821E+03  2.145580E+04 -1.853310E+03 -1.121656E+04
       337  21 -7.233621E+03 -7.457941E+04 -1.002308E+04  1.483612E+04 -6.661933E+02 -1.501977E+04
       337  22 -2.691510E+03 -1.533947E+05 -9.143030E+03  3.281090E+04 -1.268954E+03 -4.223143E+03
       337  23 -8.614283E+03 -1.513725E+05 -1.494808E+04  3.055778E+04 -1.853018E+03 -1.185784E+04
       337  24 -2.678412E+04 -1.533974E+05 -2.878407E+04  3.279289E+04 -6.633445E+02 -1.949099E+04
       337  25 -9.046914E+03 -1.802404E+05 -1.406714E+04  3.305828E+04 -1.271256E+03 -1.034372E+03
       337  26 -2.123414E+04 -2.038689E+05 -2.546044E+04  3.965898E+04 -1.852746E+03 -1.249906E+04
       337  27 -4.633385E+04 -2.322090E+05 -4.754525E+04  5.074736E+04 -6.607544E+02 -2.396164E+04
       338   1  8.818046E+03  1.002621E+04  3.052281E+03  8.003251E+03  3.276092E+03  2.965355E+03
       338   2  1.108925E+04  4.523983E+03  2.955609E+01  1.090951E+04  1.745214E+03  3.012100E+03
       338   3  1.602906E+04  1.630857E+03 -1.190197E+03  1.228844E+04  6.126889E+02  2.528566E+03
       338   4  3.756641E+04  2.000268E+04  1.025294E+04  1.747264E+04  5.501609E+03  4.637231E+03
       338   5  3.454653E+04  1.580718E+04  5.141480E+03  2.031487E+04  2.825205E+03  3.823417E+03
       338   6  3.444377E+04  1.446942E+04  2.827822E+03  2.162979E+04  5.471745E+02  2.479340E+03
       338   7  6.631587E+04  2.997929E+04  1.745362E+04  2.694241E+04  7.727280E+03  6.309151E+03
       338   8  5.800429E+04  2.709043E+04  1.025333E+04  2.972050E+04  3.905245E+03  4.634752E+03
       338   9  5.285853E+04  2.730794E+04  6.845705E+03  3.097130E+04  4.816587E+02  2.430114E+03
       338  10  8.818032E+03  1.002620E+04  3.052244E+03  8.003243E+03 -1.426973E-09 -7.871148E-10
       338  11  1.108924E+04  4.523973E+03  2.953331E+01  1.090951E+04 -1.062741E-09 -1.313910E-09
       338  12  1.602906E+04  1.630850E+03 -1.190210E+03  1.228844E+04 -8.969230E-10 -3.194246E-09
       338  13  3.756637E+04  2.000265E+04  1.025285E+04  1.747262E+04 -2.356928E-10 -1.580554E-09
       338  14  3.454652E+04  1.580716E+04  5.141438E+03  2.031486E+04 -6.187150E-10  3.403080E-09
       338  15  3.444377E+04  1.446941E+04  2.827810E+03  2.162979E+04 -3.030161E-11 -3.963400E-10
       338  16  6.631579E+04  2.997923E+04  1.745344E+04  2.694237E+04  1.077986E-09  8.465946E-10
       338  17  5.800427E+04  2.709040E+04  1.025326E+04  2.972048E+04 -2.884770E-10  1.282423E-09
       338  18  5.285853E+04  2.730794E+04  6.845693E+03  3.097130E+04  4.163995E-11  1.016221E-09
       338  19  8.818046E+03  1.002621E+04  3.052281E+03  8.003251E+03 -3.276092E+03 -2.965355E+03
       338  20  1.108925E+04  4.523983E+03  2.955609E+01  1.090951E+04 -1.745214E+03 -3.012100E+03
       338  21  1.602906E+04  1.630857E+03 -1.190197E+03  1.228844E+04 -6.126889E+02 -2.528566E+03
       338  22  3.756641E+04  2.000268E+04  1.025294E+04  1.747264E+04 -5.501609E+03 -4.637231E+03
       338  23  3.454653E+04  1.580718E+04  5.141480E+03  2.031487E+04 -2.825205E+03 -3.823417E+03
       338  24  3.444377E+04  1.446942E+04  2.827822E+03  2.162979E+04 -5.471745E+02 -2.479340E+03
       338  25  6.631587E+04  2.997929E+04  1.745362E+04  2.694241E+04 -7.727280E+03 -6.309151E+03
       338  26  5.800429E+04  2.709043E+04  1.025333E+04  2.972050E+04 -3.905245E+03 -4.634752E+03
       338  27  5.285853E+04  2.730794E+04  6.845705E+03  3.097130E+04 -4.816587E+02 -2.430114E+03
       339   1  1.681101E+04  2.627243E+03 -1.479971E+03  1.299687E+04  3.535707E+02  2.273650E+03
       339   2  1.860383E+04  3.785364E+03 -1.778230E+03  1.425519E+04  4.072592E+01  1.934867E+03
       339   3  2.108910E+04  4.725173E+03 -1.698161E+03  1.528254E+04 -2.238615E+02  1.531842E+03
       339   4  3.420230E+04  1.422889E+04  2.151024E+03  2.158995E+04  2.797120E+02  2.218156E+03
       339   5  3.372136E+04  1.411101E+04  1.254827E+03  2.186468E+04 -1.719100E+02  1.775121E+03
       339   6  3.396302E+04  1.380491E+04  8.574806E+02  2.190843E+04 -5.752783E+02  1.267842E+03
       339   7  5.159397E+04  2.583071E+04  5.782012E+03  3.018331E+04  2.058505E+02  2.162660E+03
       339   8  4.883936E+04  2.443692E+04  4.287941E+03  2.947447E+04 -3.845553E+02  1.615369E+03
       339   9  4.683746E+04  2.288499E+04  3.413225E+03  2.853462E+04 -9.267130E+02  1.003827E+03
       339  10  1.681101E+04  2.627238E+03 -1.479981E+03  1.299687E+04 -3.472651E-08 -2.670890E-08
       339  11  1.860383E+04  3.785360E+03 -1.778237E+03  1.425519E+04  3.981559E-09  1.311235E-09
       339  12  2.108910E+04  4.725171E+03 -1.698166E+03  1.528254E+04  3.867757E-08  2.612786E-08
       339  13  3.420230E+04  1.422888E+04  2.151015E+03  2.158995E+04  1.301441E-09  3.119208E-09
       339  14  3.372136E+04  1.411100E+04  1.254821E+03  2.186468E+04  3.246940E-09  2.647604E-09
       339  15  3.396302E+04  1.380491E+04  8.574770E+02  2.190843E+04  1.127766E-09  1.833406E-09
       339  16  5.159396E+04  2.583071E+04  5.782003E+03  3.018331E+04  3.694301E-08  2.831802E-08
       339  17  4.883936E+04  2.443692E+04  4.287936E+03  2.947447E+04  2.229831E-09  1.233308E-09
       339  18  4.683745E+04  2.288499E+04  3.413222E+03  2.853462E+04 -3.607056E-08 -2.511054E-08
       339  19  1.681101E+04  2.627243E+03 -1.479971E+03  1.299687E+04 -3.535707E+02 -2.273650E+03
       339  20  1.860383E+04  3.785364E+03 -1.778230E+03  1.425519E+04 -4.072592E+01 -1.934867E+03
       339  21  2.108910E+04  4.725173E+03 -1.698161E+03  1.528254E+04  2.238615E+02 -1.531842E+03
       339  22  3.420230E+04  1.422889E+04  2.151024E+03  2.158995E+04 -2.797120E+02 -2.218156E+03
       339  23  3.372136E+04  1.411101E+04  1.254827E+03  2.186468E+04  1.719100E+02 -1.775121E+03
       339  24  3.396302E+04  1.380491E+04  8.574806E+02  2.190843E+04  5.752783E+02 -1.267842E+03
       339  25  5.159397E+04  2.583071E+04  5.782012E+03  3.018331E+04 -2.058505E+02 -2.162660E+03
       339  26  4.883936E+04  2.443692E+04  4.287941E+03  2.947447E+04  3.845553E+02 -1.615369E+03
       339  27  4.683746E+04  2.288499E+04  3.413225E+03  2.853462E+04  9.267130E+02 -1.003827E+03
       340   1  2.231491E+04  5.657097E+03 -1.508571E+03  1.594771E+04 -2.625034E+02  1.350660E+03
       340   2  2.410413E+04  7.305370E+03 -1.081228E+03  1.706222E+04 -4.335512E+02  9.618670E+02
       340   3  2.645189E+04  8.540624E+03 -3.933675E+02  1.803059E+04 -5.997207E+02  5.665854E+02
       340   4  3.394566E+04  1.378807E+04  7.729221E+02  2.190310E+04 -6.149158E+02  1.085913E+03
       340   5  3.367081E+04  1.400367E+04  7.818929E+02  2.196814E+04 -7.999901E+02  6.865874E+02
       340   6  3.395760E+04  1.380932E+04  1.063579E+03  2.188706E+04 -9.801874E+02  2.807709E+02
       340   7  4.557629E+04  2.191893E+04  3.054317E+03  2.785848E+04 -9.673287E+02  8.211660E+02
       340   8  4.323749E+04  2.070194E+04  2.644971E+03  2.687409E+04 -1.166432E+03  4.113055E+02
       340   9  4.146338E+04  1.907804E+04  2.520523E+03  2.574358E+04 -1.360660E+03 -5.047827E+00
       340  10  2.231491E+04  5.657095E+03 -1.508575E+03  1.594771E+04  4.868595E-10 -3.797550E-09
       340  11  2.410413E+04  7.305369E+03 -1.081230E+03  1.706222E+04 -1.040708E-09  2.675192E-10
       340  12  2.645189E+04  8.540624E+03 -3.933688E+02  1.803059E+04 -1.423468E-09  2.982539E-09
       340  13  3.394566E+04  1.378807E+04  7.729192E+02  2.190310E+04 -2.236921E-11  3.019243E-09
       340  14  3.367081E+04  1.400367E+04  7.818908E+02  2.196814E+04 -6.449922E-10 -4.870737E-09
       340  15  3.395760E+04  1.380932E+04  1.063577E+03  2.188706E+04 -1.294720E-09  1.613286E-09
       340  16  4.557629E+04  2.191893E+04  3.054314E+03  2.785848E+04 -9.261145E-10  8.775640E-10
       340  17  4.323749E+04  2.070194E+04  2.644968E+03  2.687409E+04 -1.057077E-09 -9.830048E-10
       340  18  4.146338E+04  1.907804E+04  2.520519E+03  2.574358E+04 -8.854696E-10 -1.822466E-09
       340  19  2.231491E+04  5.657097E+03 -1.508571E+03  1.594771E+04  2.625034E+02 -1.350660E+03
       340  20  2.410413E+04  7.305370E+03 -1.081228E+03  1.706222E+04  4.335512E+02 -9.618670E+02
       340  21  2.645189E+04  8.540624E+03 -3.933675E+02  1.803059E+04  5.997207E+02 -5.665854E+02
       340  22  3.394566E+04  1.378807E+04  7.729221E+02  2.190310E+04  6.149158E+02 -1.085913E+03
       340  23  3.367081E+04  1.400367E+04  7.818929E+02  2.196814E+04  7.999901E+02 -6.865874E+02
       340  24  3.395760E+04  1.380932E+04  1.063579E+03  2.188706E+04  9.801874E+02 -2.807709E+02
       340  25  4.557629E+04  2.191893E+04  3.054317E+03  2.785848E+04  9.673287E+02 -8.211660E+02
       340  26  4.323749E+04  2.070194E+04  2.644971E+03  2.687409E+04  1.166432E+03 -4.113055E+02
       340  27  4.146338E+04  1.907804E+04  2.520523E+03  2.574358E+04  1.360660E+03  5.047827E+00
       341   1  2.770778E+04  9.544536E+03  1.262749E+02  1.872427E+04 -6.854495E+02  3.407530E+02
       341   2  2.989719E+04  1.097303E+04  1.417074E+03  1.952447E+04 -1.459185E+03 -5.081812E+02
       341   3  3.302407E+04  1.246715E+04  3.613781E+03  2.000737E+04 -2.240438E+03 -1.347163E+03
       341   4  3.399943E+04  1.384197E+04  1.320415E+03  2.190308E+04 -1.065855E+03  5.498447E+01
       341   5  3.375845E+04  1.421087E+04  2.202180E+03  2.176173E+04 -1.818070E+03 -7.777840E+02
       341   6  3.445020E+04  1.464071E+04  3.971148E+03  2.130308E+04 -2.577778E+03 -1.600581E+03
       341   7  4.029128E+04  1.813952E+04  2.514604E+03  2.508200E+04 -1.446274E+03 -2.307942E+02
       341   8  3.761973E+04  1.744872E+04  2.987287E+03  2.399902E+04 -2.176957E+03 -1.047390E+03
       341   9  3.587630E+04  1.681422E+04  4.328498E+03  2.259877E+04 -2.915111E+03 -1.853996E+03
       341  10  2.770778E+04  9.544536E+03  1.262738E+02  1.872427E+04  2.127754E-08  2.072156E-08
       341  11  2.989719E+04  1.097303E+04  1.417070E+03  1.952447E+04  6.458305E-09  1.174655E-08
       341  12  3.302406E+04  1.246714E+04  3.613768E+03  2.000737E+04 -1.639669E-08 -1.242361E-08
       341  13  3.399943E+04  1.384197E+04  1.320413E+03  2.190308E+04  1.784368E-09  4.366450E-09
       341  14  3.375845E+04  1.421087E+04  2.202173E+03  2.176173E+04  6.164580E-09  9.898354E-09
       341  15  3.445019E+04  1.464070E+04  3.971130E+03  2.130308E+04  1.728104E-09  2.287407E-09
       341  16  4.029128E+04  1.813952E+04  2.514600E+03  2.508200E+04 -1.837228E-08 -1.167033E-08
       341  17  3.761972E+04  1.744872E+04  2.987276E+03  2.399902E+04  5.087441E-09  6.258360E-09
       341  18  3.587629E+04  1.681422E+04  4.328476E+03  2.259876E+04  2.000302E-08  1.698846E-08
       341  19  2.770778E+04  9.544536E+03  1.262749E+02  1.872427E+04  6.854495E+02 -3.407530E+02
       341  20  2.989719E+04  1.097303E+04  1.417074E+03  1.952447E+04  1.459185E+03  5.081812E+02
       341  21  3.302407E+04  1.246715E+04  3.613781E+03  2.000737E+04  2.240438E+03  1.347163E+03
       341  22  3.399943E+04  1.384197E+04  1.320415E+03  2.190308E+04  1.065855E+03 -5.498447E+01
       341  23  3.375845E+04  1.421087E+04  2.202180E+03  2.176173E+04  1.818070E+03  7.777840E+02
       341  24  3.445020E+04  1.464071E+04  3.971148E+03  2.130308E+04  2.577778E+03  1.600581E+03
       341  25  4.029128E+04  1.813952E+04  2.514604E+03  2.508200E+04  1.446274E+03  2.307942E+02
       341  26  3.761973E+04  1.744872E+04  2.987287E+03  2.399902E+04  2.176957E+03  1.047390E+03
       341  27  3.587630E+04  1.681422E+04  4.328498E+03  2.259877E+04  2.915111E+03  1.853996E+03
       342   1  3.422552E+04  1.437282E+04  5.198478E+03  2.090011E+04 -2.719485E+03 -1.854207E+03
       342   2  4.235795E+04  1.245115E+04  1.011890E+04  1.774278E+04 -6.789801E+03 -5.084852E+03
       342   3  5.569969E+04  1.631621E+04  2.048517E+04  1.179786E+04 -1.092764E+04 -8.225662E+03
       342   4  3.492486E+04  1.507752E+04  5.275598E+03  2.137482E+04 -3.055460E+03 -2.106597E+03
       342   5  3.529142E+04  1.743277E+04  9.685088E+03  1.884136E+04 -6.931748E+03 -5.191588E+03
       342   6  4.082508E+04  2.553267E+04  1.937193E+04  1.352030E+04 -1.087553E+04 -8.186844E+03
       342   7  3.562419E+04  1.578223E+04  5.352719E+03  2.184952E+04 -3.391437E+03 -2.358987E+03
       342   8  2.822492E+04  2.241456E+04  9.251285E+03  1.993992E+04 -7.073694E+03 -5.298329E+03
       342   9  2.595063E+04  3.474972E+04  1.825874E+04  1.524264E+04 -1.082341E+04 -8.148022E+03
       342  10  3.422551E+04  1.437281E+04  5.198458E+03  2.090011E+04  7.184563E-10  1.127580E-09
       342  11  4.235789E+04  1.245111E+04  1.011877E+04  1.774275E+04 -1.284127E-10 -1.981401E-10
       342  12  5.569954E+04  1.631611E+04  2.048482E+04  1.179779E+04 -3.815860E-10  5.622642E-10
       342  13  3.492484E+04  1.507752E+04  5.275572E+03  2.137481E+04 -1.534793E-10  1.286188E-10
       342  14  3.529136E+04  1.743273E+04  9.684947E+03  1.884133E+04 -5.421444E-11  1.301443E-10
       342  15  4.082494E+04  2.553256E+04  1.937159E+04  1.352022E+04  9.286488E-11  1.553794E-09
       342  16  3.562418E+04  1.578222E+04  5.352687E+03  2.184951E+04 -2.174343E-09 -3.672569E-10
       342  17  2.822486E+04  2.241452E+04  9.251138E+03  1.993989E+04 -6.110302E-10 -5.136330E-10
       342  18  2.595048E+04  3.474961E+04  1.825840E+04  1.524257E+04  7.622057E-10  1.097459E-10
       342  19  3.422552E+04  1.437282E+04  5.198478E+03  2.090011E+04  2.719485E+03  1.854207E+03
       342  20  4.235795E+04  1.245115E+04  1.011890E+04  1.774278E+04  6.789801E+03  5.084852E+03
       342  21  5.569969E+04  1.631621E+04  2.048517E+04  1.179786E+04  1.092764E+04  8.225662E+03
       342  22  3.492486E+04  1.507752E+04  5.275598E+03  2.137482E+04  3.055460E+03  2.106597E+03
       342  23  3.529142E+04  1.743277E+04  9.685088E+03  1.884136E+04  6.931748E+03  5.191588E+03
       342  24  4.082508E+04  2.553267E+04  1.937193E+04  1.352030E+04  1.087553E+04  8.186844E+03
       342  25  3.562419E+04  1.578223E+04  5.352719E+03  2.184952E+04  3.391437E+03  2.358987E+03
       342  26  2.822492E+04  2.241456E+04  9.251285E+03  1.993992E+04  7.073694E+03  5.298329E+03
       342  27  2.595063E+04  3.474972E+04  1.825874E+04  1.524264E+04  1.082341E+04  8.148022E+03
       343   1 -2.857419E+04 -1.848239E+05 -2.887893E+04  2.425970E+04 -6.375514E+02 -1.457290E+04
       343   2 -1.568599E+04 -1.717653E+05 -1.670046E+04  1.864682E+04 -2.036700E+03 -7.789284E+03
       343   3 -9.678396E+03 -1.613063E+05 -1.065937E+04  1.502470E+04 -2.142198E+03 -1.004372E+03
       343   4 -1.398203E+04 -1.258088E+05 -1.503106E+04  1.487196E+04 -6.407462E+02 -1.016608E+04
       343   5 -4.495710E+03 -1.247509E+05 -7.815439E+03  1.388136E+04 -2.037870E+03 -6.175948E+03
       343   6 -1.404713E+03 -1.258077E+05 -4.796701E+03  1.488170E+04 -2.141287E+03 -2.184708E+03
       343   7  6.102211E+02 -6.679029E+04 -1.183298E+03  5.483319E+03 -6.440742E+02 -5.758851E+03
       343   8  6.694524E+03 -7.773437E+04  1.069501E+03  9.115538E+03 -2.039064E+03 -4.562493E+03
       343   9  6.868906E+03 -9.030775E+04  1.065940E+03  1.473868E+04 -2.140375E+03 -3.365109E+03
       343  10 -2.857425E+04 -1.848241E+05 -2.887933E+04  2.425969E+04 -1.244152E-10 -1.024701E-09
       343  11 -1.568601E+04 -1.717654E+05 -1.670058E+04  1.864680E+04 -4.434324E-10  3.282791E-09
       343  12 -9.678401E+03 -1.613063E+05 -1.065939E+04  1.502470E+04  4.998203E-10  6.115140E-10
       343  13 -1.398206E+04 -1.258089E+05 -1.503125E+04  1.487195E+04  1.910941E-10 -1.713250E-09
       343  14 -4.495724E+03 -1.247510E+05 -7.815519E+03  1.388135E+04 -1.625026E-10 -1.350693E-09
       343  15 -1.404719E+03 -1.258077E+05 -4.796719E+03  1.488169E+04  2.026801E-10 -1.620109E-10
       343  16  6.102118E+02 -6.679033E+04 -1.183361E+03  5.483316E+03  3.938742E-11  4.406886E-10
       343  17  6.694514E+03 -7.773439E+04  1.069454E+03  9.115530E+03  6.773924E-10  2.021266E-09
       343  18  6.868898E+03 -9.030776E+04  1.065910E+03  1.473868E+04 -1.577548E-10  1.749631E-09
       343  19 -2.857419E+04 -1.848239E+05 -2.887893E+04  2.425970E+04  6.375514E+02  1.457290E+04
       343  20 -1.568599E+04 -1.717653E+05 -1.670046E+04  1.864682E+04  2.036700E+03  7.789284E+03
       343  21 -9.678396E+03 -1.613063E+05 -1.065937E+04  1.502470E+04  2.142198E+03  1.004372E+03
       343  22 -1.398203E+04 -1.258088E+05 -1.503106E+04  1.487196E+04  6.407462E+02  1.016608E+04
       343  23 -4.495710E+03 -1.247509E+05 -7.815439E+03  1.388136E+04  2.037870E+03  6.175948E+03
       343  24 -1.404713E+03 -1.258077E+05 -4.796701E+03  1.488170E+04  2.141287E+03  2.184708E+03
       343  25  6.102211E+02 -6.679029E+04 -1.183298E+03  5.483319E+03  6.440742E+02  5.758851E+03
       343  26  6.694524E+03 -7.773437E+04  1.069501E+03  9.115538E+03  2.039064E+03  4.562493E+03
       343  27  6.868906E+03 -9.030775E+04  1.065940E+03  1.473868E+04  2.140375E+03  3.365109E+03
       344   1 -7.647681E+03 -1.535149E+05 -8.584343E+03  1.554932E+04 -1.770775E+03 -3.106787E+02
       344   2 -4.379626E+03 -1.414873E+05 -5.936798E+03  1.383095E+04 -1.175722E+03  1.626486E+03
       344   3 -2.278453E+03 -1.299995E+05 -4.841235E+03  1.419525E+04 -4.984640E+02  3.563744E+03
       344   4 -1.127416E+03 -1.254508E+05 -4.057419E+03  1.490137E+04 -1.769856E+03 -1.510206E+03
       344   5 -6.366190E+02 -1.251963E+05 -3.515034E+03  1.385997E+04 -1.174675E+03  2.494654E+02
       344   6 -1.281860E+03 -1.254507E+05 -4.401324E+03  1.490125E+04 -4.972857E+02  2.009195E+03
       344   7  5.392810E+03 -9.738598E+04  4.694885E+02  1.425339E+04 -1.768935E+03 -2.709786E+03
       344   8  3.106376E+03 -1.089049E+05 -1.093269E+03  1.388899E+04 -1.173628E+03 -1.127590E+03
       344   9 -2.852653E+02 -1.209019E+05 -3.961404E+03  1.560725E+04 -4.961111E+02  4.546355E+02
       344  10 -7.647684E+03 -1.535149E+05 -8.584349E+03  1.554932E+04  3.923791E-10 -1.399293E-09
       344  11 -4.379628E+03 -1.414873E+05 -5.936805E+03  1.383095E+04  2.491527E-10  4.413905E-09
       344  12 -2.278456E+03 -1.299995E+05 -4.841259E+03  1.419525E+04  7.482295E-10  1.420920E-09
       344  13 -1.127420E+03 -1.254508E+05 -4.057430E+03  1.490137E+04  8.678610E-12 -1.686773E-09
       344  14 -6.366205E+02 -1.251963E+05 -3.515037E+03  1.385997E+04 -9.072421E-10 -1.117724E-09
       344  15 -1.281862E+03 -1.254507E+05 -4.401332E+03  1.490125E+04  1.086112E-10 -1.167269E-09
       344  16  5.392805E+03 -9.738599E+04  4.694688E+02  1.425339E+04 -5.994989E-10  2.685669E-10
       344  17  3.106374E+03 -1.089049E+05 -1.093274E+03  1.388899E+04 -1.007790E-09  1.196608E-09
       344  18 -2.852656E+02 -1.209019E+05 -3.961405E+03  1.560725E+04 -4.568806E-10  4.461234E-10
       344  19 -7.647681E+03 -1.535149E+05 -8.584343E+03  1.554932E+04  1.770775E+03  3.106787E+02
       344  20 -4.379626E+03 -1.414873E+05 -5.936798E+03  1.383095E+04  1.175722E+03 -1.626486E+03
       344  21 -2.278453E+03 -1.299995E+05 -4.841235E+03  1.419525E+04  4.984640E+02 -3.563744E+03
       344  22 -1.127416E+03 -1.254508E+05 -4.057419E+03  1.490137E+04  1.769856E+03  1.510206E+03
       344  23 -6.366190E+02 -1.251963E+05 -3.515034E+03  1.385997E+04  1.174675E+03 -2.494654E+02
       344  24 -1.281860E+03 -1.254507E+05 -4.401324E+03  1.490125E+04  4.972857E+02 -2.009195E+03
       344  25  5.392810E+03 -9.738598E+04  4.694885E+02  1.425339E+04  1.768935E+03  2.709786E+03
       344  26  3.106376E+03 -1.089049E+05 -1.093269E+03  1.388899E+04  1.173628E+03  1.127590E+03
       344  27 -2.852653E+02 -1.209019E+05 -3.961404E+03  1.560725E+04  4.961111E+02 -4.546355E+02
       345   1 -8.826165E+02 -1.230329E+05 -4.562647E+03  1.475735E+04 -5.189832E+01  4.294245E+03
       345   2 -1.681773E+03 -1.101707E+05 -5.856108E+03  8.367736E+03  3.585240E+02  7.565530E+03
       345   3 -9.663177E+03 -9.952595E+04 -1.107412E+04  4.023591E+03  1.620029E+02  1.083635E+04
       345   4 -1.608667E+03 -1.258809E+05 -5.343249E+03  1.489381E+04 -5.072926E+01  2.746974E+03
       345   5 -5.212346E+03 -1.246588E+05 -8.968454E+03  1.386547E+04  3.587709E+02  7.328877E+03
       345   6 -1.622602E+04 -1.258820E+05 -1.742854E+04  1.488259E+04  1.613775E+02  1.191023E+04
       345   7 -2.334718E+03 -1.287290E+05 -6.123842E+03  1.503027E+04 -4.956087E+01  1.199711E+03
       345   8 -8.742819E+03 -1.391467E+05 -1.208080E+04  1.936307E+04  3.590136E+02  7.092230E+03
       345   9 -2.278847E+04 -1.522371E+05 -2.378295E+04  2.574113E+04  1.607897E+02  1.298406E+04
       345  10 -8.826214E+02 -1.230329E+05 -4.562682E+03  1.475735E+04  8.658862E-10 -1.892881E-09
       345  11 -1.681788E+03 -1.101707E+05 -5.856216E+03  8.367734E+03  2.150909E-10  3.911274E-09
       345  12 -9.663208E+03 -9.952608E+04 -1.107434E+04  4.023590E+03 -8.207056E-12  9.984595E-10
       345  13 -1.608670E+03 -1.258809E+05 -5.343263E+03  1.489381E+04  3.624098E-10 -2.205849E-09
       345  14 -5.212360E+03 -1.246589E+05 -8.968556E+03  1.386547E+04  3.570241E-11 -2.691741E-10
       345  15 -1.622606E+04 -1.258821E+05 -1.742881E+04  1.488259E+04  1.274863E-10 -1.100481E-09
       345  16 -2.334718E+03 -1.287290E+05 -6.123845E+03  1.503027E+04  3.450916E-12  8.103381E-10
       345  17 -8.742833E+03 -1.391468E+05 -1.208089E+04  1.936307E+04  3.947707E-10  1.869461E-09
       345  18 -2.278852E+04 -1.522373E+05 -2.378327E+04  2.574113E+04  3.393395E-10  1.395654E-09
       345  19 -8.826165E+02 -1.230329E+05 -4.562647E+03  1.475735E+04  5.189832E+01 -4.294245E+03
       345  20 -1.681773E+03 -1.101707E+05 -5.856108E+03  8.367736E+03 -3.585240E+02 -7.565530E+03
       345  21 -9.663177E+03 -9.952595E+04 -1.107412E+04  4.023591E+03 -1.620029E+02 -1.083635E+04
       345  22 -1.608667E+03 -1.258809E+05 -5.343249E+03  1.489381E+04  5.072926E+01 -2.746974E+03
       345  23 -5.212346E+03 -1.246588E+05 -8.968454E+03  1.386547E+04 -3.587709E+02 -7.328877E+03
       345  24 -1.622602E+04 -1.258820E+05 -1.742854E+04  1.488259E+04 -1.613775E+02 -1.191023E+04
       345  25 -2.334718E+03 -1.287290E+05 -6.123842E+03  1.503027E+04  4.956087E+01 -1.199711E+03
       345  26 -8.742819E+03 -1.391467E+05 -1.208080E+04  1.936307E+04 -3.590136E+02 -7.092230E+03
       345  27 -2.278847E+04 -1.522371E+05 -2.378295E+04  2.574113E+04 -1.607897E+02 -1.298406E+04
       346   1  1.320136E+05  6.016817E+04  5.637244E+04  4.345692E+04  1.867015E+04 -3.134756E+03
       346   2  9.454654E+04  5.136024E+04  3.889895E+04  4.169077E+04  7.629608E+03 -1.025723E+04
       346   3  5.861236E+04  4.290146E+04  2.869985E+04  4.601570E+04 -3.408419E+03 -1.175443E+04
       346   4 -1.277519E+05 -3.893646E+03 -4.167176E+03  4.609901E+04 -2.797918E+03 -3.129633E+03
       346   5 -1.274603E+05 -1.258403E+03 -2.181711E+03  4.305380E+04 -1.685369E+03 -1.025557E+04
       346   6 -1.277463E+05 -3.836651E+02 -1.360929E+03  4.609975E+04 -5.708366E+02 -1.175526E+04
       346   7 -3.874541E+05 -6.795996E+04 -6.470963E+04  4.873999E+04 -2.425707E+04 -3.124692E+03
       346   8 -3.494191E+05 -5.387981E+04 -4.326411E+04  4.441633E+04 -1.099710E+04 -1.025395E+04
       346   9 -3.140705E+05 -4.367054E+04 -3.142262E+04  4.618378E+04  2.265924E+03 -1.175609E+04
       346  10  1.320132E+05  6.016806E+04  5.637177E+04  4.345697E+04  1.630225E-10 -1.065653E-11
       346  11  9.454645E+04  5.136011E+04  3.889865E+04  4.169084E+04 -1.439982E-10 -2.838920E-11
       346  12  5.861231E+04  4.290131E+04  2.869957E+04  4.601567E+04 -4.635806E-12 -6.286954E-11
       346  13 -1.277519E+05 -3.893659E+03 -4.167209E+03  4.609900E+04 -5.995128E-11 -1.525200E-11
       346  14 -1.274603E+05 -1.258516E+03 -2.181914E+03  4.305379E+04 -7.417217E-11 -4.732333E-11
       346  15 -1.277464E+05 -3.838136E+02 -1.361189E+03  4.609975E+04  4.684586E-11 -1.391746E-11
       346  16 -3.874547E+05 -6.796013E+04 -6.471075E+04  4.873993E+04 -1.557882E-10 -2.636031E-11
       346  17 -3.494193E+05 -5.387995E+04 -4.326454E+04  4.441624E+04 -3.373143E-11 -7.024245E-11
       346  18 -3.140705E+05 -4.367069E+04 -3.142289E+04  4.618381E+04  6.551499E-11  9.842740E-12
       346  19  1.320136E+05  6.016817E+04  5.637244E+04  4.345692E+04 -1.867015E+04  3.134756E+03
       346  20  9.454654E+04  5.136024E+04  3.889895E+04  4.169077E+04 -7.629608E+03  1.025723E+04
       346  21  5.861236E+04  4.290146E+04  2.869985E+04  4.601570E+04  3.408419E+03  1.175443E+04
       346  22 -1.277519E+05 -3.893646E+03 -4.167176E+03  4.609901E+04  2.797918E+03  3.129633E+03
       346  23 -1.274603E+05 -1.258403E+03 -2.181711E+03  4.305380E+04  1.685369E+03  1.025557E+04
       346  24 -1.277463E+05 -3.836651E+02 -1.360929E+03  4.609975E+04  5.708366E+02  1.175526E+04
       346  25 -3.874541E+05 -6.795996E+04 -6.470963E+04  4.873999E+04  2.425707E+04  3.124692E+03
       346  26 -3.494191E+05 -5.387981E+04 -4.326411E+04  4.441633E+04  1.099710E+04  1.025395E+04
       346  27 -3.140705E+05 -4.367054E+04 -3.142262E+04  4.618378E+04 -2.265924E+03  1.175609E+04
       347   1  3.544459E+04  3.744717E+04  2.446339E+04  4.597485E+04 -3.300322E+03 -1.076746E+04
       347   2 -1.288921E+03  2.892179E+04  1.774789E+04  4.282765E+04 -4.180206E+03 -9.088750E+03
       347   3 -3.789305E+04  2.043038E+04  1.161500E+04  4.617696E+04 -5.060044E+03 -6.761299E+03
       347   4 -1.276421E+05 -2.980026E+02 -1.167808E+03  4.618977E+04 -3.750229E+02 -1.076820E+04
       347   5 -1.275829E+05 -9.755845E+01 -1.045969E+03  4.294149E+04  1.462515E+02 -9.089562E+03
       347   6 -1.276390E+05 -1.063686E+02 -1.314647E+03  4.618980E+04  6.675233E+02 -6.762112E+03
       347   7 -2.907022E+05 -3.804449E+04 -2.679962E+04  4.640463E+04  2.549536E+03 -1.076894E+04
       347   8 -2.538608E+05 -2.911765E+04 -1.984006E+04  4.305530E+04  4.471865E+03 -9.090373E+03
       347   9 -2.173767E+05 -2.064347E+04 -1.424430E+04  4.620264E+04  6.394297E+03 -6.762925E+03
       347  10  3.544455E+04  3.744705E+04  2.446315E+04  4.597482E+04  2.399857E-10 -5.528500E-11
       347  11 -1.288962E+03  2.892170E+04  1.774771E+04  4.282762E+04  1.961988E-10  1.991294E-12
       347  12 -3.789309E+04  2.043033E+04  1.161487E+04  4.617694E+04  3.814697E-11  4.432373E-11
       347  13 -1.276421E+05 -2.981272E+02 -1.168026E+03  4.618977E+04  1.332849E-10  6.631356E-12
       347  14 -1.275829E+05 -9.764717E+01 -1.046125E+03  4.294149E+04 -8.338595E-11  1.435567E-11
       347  15 -1.276390E+05 -1.064178E+02 -1.314733E+03  4.618981E+04  2.019742E-10  9.228139E-13
       347  16 -2.907023E+05 -3.804461E+04 -2.679985E+04  4.640466E+04 -1.371356E-10  3.525303E-11
       347  17 -2.538609E+05 -2.911774E+04 -1.984026E+04  4.305533E+04 -3.034348E-11  1.506832E-11
       347  18 -2.173767E+05 -2.064353E+04 -1.424446E+04  4.620267E+04 -9.797016E-12 -1.675582E-11
       347  19  3.544459E+04  3.744717E+04  2.446339E+04  4.597485E+04  3.300322E+03  1.076746E+04
       347  20 -1.288921E+03  2.892179E+04  1.774789E+04  4.282765E+04  4.180206E+03  9.088750E+03
       347  21 -3.789305E+04  2.043038E+04  1.161500E+04  4.617696E+04  5.060044E+03  6.761299E+03
       347  22 -1.276421E+05 -2.980026E+02 -1.167808E+03  4.618977E+04  3.750229E+02  1.076820E+04
       347  23 -1.275829E+05 -9.755845E+01 -1.045969E+03  4.294149E+04 -1.462515E+02  9.089562E+03
       347  24 -1.276390E+05 -1.063686E+02 -1.314647E+03  4.618980E+04 -6.675233E+02  6.762112E+03
       347  25 -2.907022E+05 -3.804449E+04 -2.679962E+04  4.640463E+04 -2.549536E+03  1.076894E+04
       347  26 -2.538608E+05 -2.911765E+04 -1.984006E+04  4.305530E+04 -4.471865E+03  9.090373E+03
       347  27 -2.173767E+05 -2.064347E+04 -1.424430E+04  4.620264E+04 -6.394297E+03  6.762925E+03
       348   1 -6.091779E+04  1.511453E+04  7.812322E+03  4.609389E+04 -4.818295E+03 -5.181004E+03
       348   2 -9.736293E+04  6.356373E+03  1.236225E+03  4.330399E+04 -3.071341E+03 -2.629225E+03
       348   3 -1.342512E+05 -3.285882E+03 -6.697267E+03  4.703952E+04 -1.324605E+03 -2.829655E+02
       348   4 -1.276944E+05 -1.241255E+02 -1.597095E+03  4.619624E+04  9.155048E+02 -5.181740E+03
       348   5 -1.275102E+05 -4.417199E+02 -2.603698E+03  4.293339E+04  2.218327E+03 -2.629854E+03
       348   6 -1.276938E+05 -1.566414E+03 -4.659467E+03  4.619603E+04  3.521033E+03 -2.834952E+02
       348   7 -1.944665E+05 -1.536296E+04 -1.100645E+04  4.629857E+04  6.648714E+03 -5.182474E+03
       348   8 -1.576564E+05 -7.239835E+03 -6.443519E+03  4.256281E+04  7.507751E+03 -2.630490E+03
       348   9 -1.211364E+05  1.530652E+02 -2.621583E+03  4.535253E+04  8.366724E+03 -2.840381E+02
       348  10 -6.091782E+04  1.511449E+04  7.812228E+03  4.609387E+04  3.436398E-10  3.099881E-11
       348  11 -9.736294E+04  6.356363E+03  1.236194E+03  4.330399E+04  3.340505E-11 -7.851176E-11
       348  12 -1.342512E+05 -3.285883E+03 -6.697271E+03  4.703952E+04 -1.099042E-10  8.558152E-12
       348  13 -1.276944E+05 -1.241546E+02 -1.597147E+03  4.619624E+04  1.374828E-10  2.441918E-11
       348  14 -1.275102E+05 -4.417287E+02 -2.603720E+03  4.293340E+04 -8.487414E-11 -6.737803E-11
       348  15 -1.276938E+05 -1.566417E+03 -4.659491E+03  4.619603E+04  2.057942E-10 -9.282187E-12
       348  16 -1.944666E+05 -1.536300E+04 -1.100658E+04  4.629860E+04 -2.219779E-10  7.849721E-12
       348  17 -1.576565E+05 -7.239857E+03 -6.443637E+03  4.256283E+04  1.103634E-10 -1.167238E-11
       348  18 -1.211364E+05  1.530463E+02 -2.621715E+03  4.535253E+04  3.786144E-11 -8.089700E-11
       348  19 -6.091779E+04  1.511453E+04  7.812322E+03  4.609389E+04  4.818295E+03  5.181004E+03
       348  20 -9.736293E+04  6.356373E+03  1.236225E+03  4.330399E+04  3.071341E+03  2.629225E+03
       348  21 -1.342512E+05 -3.285882E+03 -6.697267E+03  4.703952E+04  1.324605E+03  2.829655E+02
       348  22 -1.276944E+05 -1.241255E+02 -1.597095E+03  4.619624E+04 -9.155048E+02  5.181740E+03
       348  23 -1.275102E+05 -4.417199E+02 -2.603698E+03  4.293339E+04 -2.218327E+03  2.629854E+03
       348  24 -1.276938E+05 -1.566414E+03 -4.659467E+03  4.619603E+04 -3.521033E+03  2.834952E+02
       348  25 -1.944665E+05 -1.536296E+04 -1.100645E+04  4.629857E+04 -6.648714E+03  5.182474E+03
       348  26 -1.576564E+05 -7.239835E+03 -6.443519E+03  4.256281E+04 -7.507751E+03  2.630490E+03
       348  27 -1.211364E+05  1.530652E+02 -2.621583E+03  4.535253E+04 -8.366724E+03  2.840381E+02
       349   1 -1.579353E+05 -9.107283E+03 -1.202762E+04  4.631964E+04 -4.844238E+02  1.109438E+03
       349   2 -1.925929E+05 -2.263687E+04 -2.477197E+04  5.010962E+04  1.042126E+04  2.151839E+03
       349   3 -2.312912E+05 -4.666437E+04 -4.724162E+04  6.025728E+04  2.132589E+04  8.273810E+02
       349   4 -1.283129E+05 -2.012436E+03 -6.180813E+03  4.615909E+04  4.325317E+03  1.108898E+03
       349   5 -1.267377E+05 -6.773194E+03 -1.133207E+04  4.297868E+04  1.011975E+04  2.151738E+03
       349   6 -1.283157E+05 -2.114357E+04 -2.265785E+04  4.615623E+04  1.591374E+04  8.275908E+02
       349   7 -9.868962E+04  5.082370E+03 -3.339667E+02  4.599853E+04  9.135282E+03  1.108357E+03
       349   8 -6.087821E+04  9.090399E+03  2.107631E+03  3.584696E+04  9.818219E+03  2.151645E+03
       349   9 -2.533003E+04  4.377222E+03  1.925398E+03  3.205284E+04  1.050070E+04  8.280465E+02
       349  10 -1.579353E+05 -9.107285E+03 -1.202762E+04  4.631964E+04  3.171084E-10  2.409228E-11
       349  11 -1.925930E+05 -2.263690E+04 -2.477219E+04  5.010960E+04  4.587267E-11 -5.254519E-11
       349  12 -2.312917E+05 -4.666450E+04 -4.724248E+04  6.025727E+04 -1.076433E-10  3.450716E-12
       349  13 -1.283129E+05 -2.012443E+03 -6.180851E+03  4.615908E+04  1.290463E-10 -3.367261E-11
       349  14 -1.267378E+05 -6.773226E+03 -1.133227E+04  4.297866E+04 -1.493933E-10 -1.524336E-11
       349  15 -1.283160E+05 -2.114364E+04 -2.265832E+04  4.615622E+04  6.677332E-11  1.168304E-11
       349  16 -9.868971E+04  5.082347E+03 -3.341259E+02  4.599852E+04 -1.283187E-10 -7.688466E-11
       349  17 -6.087831E+04  9.090368E+03  2.107441E+03  3.584695E+04 -4.270101E-13 -6.255295E-11
       349  18 -2.533014E+04  4.377192E+03  1.925189E+03  3.205283E+04  1.030358E-11 -3.047527E-11
       349  19 -1.579353E+05 -9.107283E+03 -1.202762E+04  4.631964E+04  4.844238E+02 -1.109438E+03
       349  20 -1.925929E+05 -2.263687E+04 -2.477197E+04  5.010962E+04 -1.042126E+04 -2.151839E+03
       349  21 -2.312912E+05 -4.666437E+04 -4.724162E+04  6.025728E+04 -2.132589E+04 -8.273810E+02
       349  22 -1.283129E+05 -2.012436E+03 -6.180813E+03  4.615909E+04 -4.325317E+03 -1.108898E+03
       349  23 -1.267377E+05 -6.773194E+03 -1.133207E+04  4.297868E+04 -1.011975E+04 -2.151738E+03
       349  24 -1.283157E+05 -2.114357E+04 -2.265785E+04  4.615623E+04 -1.591374E+04 -8.275908E+02
       349  25 -9.868962E+04  5.082370E+03 -3.339667E+02  4.599853E+04 -9.135282E+03 -1.108357E+03
       349  26 -6.087821E+04  9.090399E+03  2.107631E+03  3.584696E+04 -9.818219E+03 -2.151645E+03
       349  27 -2.533003E+04  4.377222E+03  1.925398E+03  3.205284E+04 -1.050070E+04 -8.280465E+02
       350   1 -9.752306E+04 -5.296464E+05 -9.631627E+04  1.201937E+05 -2.761680E+03 -3.833703E+04
       350   2 -5.761938E+04 -4.444464E+05 -5.381495E+04  1.046401E+05 -7.998870E+03 -1.754176E+04
       350   3 -3.182964E+04 -3.654874E+05 -2.839026E+04  1.032096E+05 -6.771199E+03  3.254868E+03
       350   4 -2.579292E+04 -2.396905E+05 -2.765409E+04  1.031169E+05 -2.751329E+03 -2.003438E+04
       350   5 -8.188235E+03 -2.377725E+05 -1.336273E+04  9.604922E+04 -7.996118E+03 -1.319170E+04
       350   6 -2.270958E+03 -2.396764E+05 -6.450956E+03  1.031056E+05 -6.776471E+03 -6.350807E+03
       350   7  4.593248E+04  5.034412E+04  4.100367E+04  8.603204E+04 -2.741988E+03 -1.723220E+03
       350   8  4.124062E+04 -3.105728E+04  2.708754E+04  8.745542E+04 -7.993487E+03 -8.840225E+03
       350   9  2.728692E+04 -1.138496E+05  1.548813E+04  1.030016E+05 -6.781739E+03 -1.595837E+04
       350  10 -9.752347E+04 -5.296479E+05 -9.631904E+04  1.201936E+05 -3.397193E-11 -1.990611E-12
       350  11 -5.761953E+04 -4.444468E+05 -5.381565E+04  1.046400E+05  6.275729E-11 -1.180204E-10
       350  12 -3.182970E+04 -3.654875E+05 -2.839036E+04  1.032096E+05 -2.912607E-10 -1.202029E-10
       350  13 -2.579303E+04 -2.396909E+05 -2.765486E+04  1.031168E+05 -2.421667E-10  2.958724E-11
       350  14 -8.188350E+03 -2.377727E+05 -1.336318E+04  9.604914E+04  4.910915E-10 -8.440595E-11
       350  15 -2.271018E+03 -2.396764E+05 -6.451118E+03  1.031056E+05 -1.939151E-10  1.581302E-11
       350  16  4.593247E+04  5.034411E+04  4.100365E+04  8.603204E+04  6.704089E-11 -1.318639E-13
       350  17  4.124054E+04 -3.105738E+04  2.708727E+04  8.745536E+04 -5.384818E-11  1.147658E-10
       350  18  2.728680E+04 -1.138498E+05  1.548757E+04  1.030015E+05 -8.072281E-11  1.876997E-10
       350  19 -9.752306E+04 -5.296464E+05 -9.631627E+04  1.201937E+05  2.761680E+03  3.833703E+04
       350  20 -5.761938E+04 -4.444464E+05 -5.381495E+04  1.046401E+05  7.998870E+03  1.754176E+04
       350  21 -3.182964E+04 -3.654874E+05 -2.839026E+04  1.032096E+05  6.771199E+03 -3.254868E+03
       350  22 -2.579292E+04 -2.396905E+05 -2.765409E+04  1.031169E+05  2.751329E+03  2.003438E+04
       350  23 -8.188235E+03 -2.377725E+05 -1.336273E+04  9.604922E+04  7.996118E+03  1.319170E+04
       350  24 -2.270958E+03 -2.396764E+05 -6.450956E+03  1.031056E+05  6.776471E+03  6.350807E+03
       350  25  4.593248E+04  5.034412E+04  4.100367E+04  8.603204E+04  2.741988E+03  1.723220E+03
       350  26  4.124062E+04 -3.105728E+04  2.708754E+04  8.745542E+04  7.993487E+03  8.840225E+03
       350  27  2.728692E+04 -1.138496E+05  1.548813E+04  1.030016E+05  6.781739E+03  1.595837E+04
       351   1 -1.913001E+04 -3.129262E+05 -1.721969E+04  1.040772E+05 -3.894208E+03  4.101274E+03
       351   2  1.853559E+03 -2.308552E+05  8.009840E+02  9.676647E+04  5.756275E+02  4.203422E+03
       351   3  2.274148E+04 -1.488281E+05  1.872669E+04  1.039924E+05  5.005188E+03  4.305618E+03
       351   4 -1.699647E+03 -2.388398E+05 -4.171873E+03  1.031981E+05 -3.899698E+03 -5.593831E+03
       351   5  2.518501E+01 -2.388070E+05 -3.815172E+02  9.592887E+04  5.702137E+02 -5.405056E+03
       351   6  1.639733E+03 -2.388395E+05  3.253942E+03  1.031964E+05  4.999843E+03 -5.216245E+03
       351   7  1.573047E+04 -1.647478E+05  8.876099E+03  1.023189E+05 -3.905161E+03 -1.529006E+04
       351   8 -1.803140E+03 -2.467585E+05 -1.563672E+03  9.509129E+04  5.648257E+02 -1.501342E+04
       351   9 -1.946240E+04 -3.288427E+05 -1.221874E+04  1.024005E+05  4.994522E+03 -1.473677E+04
       351  10 -1.913004E+04 -3.129262E+05 -1.721975E+04  1.040772E+05  2.079688E-11  2.554295E-10
       351  11  1.853554E+03 -2.308552E+05  8.009502E+02  9.676647E+04 -7.079649E-11  2.269576E-10
       351  12  2.274145E+04 -1.488282E+05  1.872661E+04  1.039924E+05  2.175807E-10  2.141436E-10
       351  13 -1.699672E+03 -2.388398E+05 -4.171961E+03  1.031981E+05 -1.454558E-10  2.122491E-12
       351  14  2.517681E+01 -2.388070E+05 -3.815727E+02  9.592888E+04 -3.224890E-10  8.998147E-11
       351  15  1.639698E+03 -2.388396E+05  3.253843E+03  1.031964E+05 -2.730503E-10  7.445123E-11
       351  16  1.573039E+04 -1.647480E+05  8.875631E+03  1.023188E+05 -1.248245E-10 -2.507438E-10
       351  17 -1.803201E+03 -2.467588E+05 -1.564096E+03  9.509130E+04  1.645577E-10 -2.143596E-10
       351  18 -1.946248E+04 -3.288430E+05 -1.221920E+04  1.024005E+05  2.791223E-10 -2.666653E-10
       351  19 -1.913001E+04 -3.129262E+05 -1.721969E+04  1.040772E+05  3.894208E+03 -4.101274E+03
       351  20  1.853559E+03 -2.308552E+05  8.009840E+02  9.676647E+04 -5.756275E+02 -4.203422E+03
       351  21  2.274148E+04 -1.488281E+05  1.872669E+04  1.039924E+05 -5.005188E+03 -4.305618E+03
       351  22 -1.699647E+03 -2.388398E+05 -4.171873E+03  1.031981E+05  3.899698E+03  5.593831E+03
       351  23  2.518501E+01 -2.388070E+05 -3.815172E+02  9.592887E+04 -5.702137E+02  5.405056E+03
       351  24  1.639733E+03 -2.388395E+05  3.253942E+03  1.031964E+05 -4.999843E+03  5.216245E+03
       351  25  1.573047E+04 -1.647478E+05  8.876099E+03  1.023189E+05  3.905161E+03  1.529006E+04
       351  26 -1.803140E+03 -2.467585E+05 -1.563672E+03  9.509129E+04 -5.648257E+02  1.501342E+04
       351  27 -1.946240E+04 -3.288427E+05 -1.221874E+04  1.024005E+05 -4.994522E+03  1.473677E+04
       352   1  3.538186E+04 -9.632425E+04  2.977022E+04  1.032770E+05  7.844128E+03  3.602065E+03
       352   2  6.048083E+04 -1.717312E+04  5.480295E+04  1.036843E+05  8.798611E+03 -1.698746E+04
       352   3  9.834551E+04  6.784708E+04  9.643039E+04  1.181853E+05  2.955019E+03 -3.757768E+04
       352   4  2.139209E+03 -2.380903E+05  5.350208E+03  1.030984E+05  7.839030E+03 -5.824131E+03
       352   5  7.296123E+03 -2.397532E+05  1.153474E+04  9.604704E+04  8.801814E+03 -1.172890E+04
       352   6  2.267218E+04 -2.380999E+05  2.411689E+04  1.030887E+05  2.965890E+03 -1.763166E+04
       352   7 -3.110448E+04 -3.798364E+05 -1.907016E+04  1.029200E+05  7.833936E+03 -1.524824E+04
       352   8 -4.589132E+04 -4.622856E+05 -3.173568E+04  8.841255E+04  8.804888E+03 -6.472183E+03
       352   9 -5.300680E+04 -5.439594E+05 -4.820147E+04  8.799954E+04  2.975794E+03  2.304584E+03
       352  10  3.538179E+04 -9.632428E+04  2.977008E+04  1.032769E+05  1.690226E-11 -2.688249E-10
       352  11  6.048067E+04 -1.717345E+04  5.480226E+04  1.036844E+05 -7.276175E-11 -1.872917E-10
       352  12  9.834512E+04  6.784556E+04  9.642772E+04  1.181854E+05  8.533163E-11  2.052822E-11
       352  13  2.139134E+03 -2.380904E+05  5.350028E+03  1.030985E+05  4.064374E-10 -4.826343E-11
       352  14  7.296003E+03 -2.397534E+05  1.153433E+04  9.604712E+04 -2.318879E-10  3.350463E-11
       352  15  2.267208E+04 -2.381002E+05  2.411629E+04  1.030887E+05  7.110114E-11 -3.701280E-11
       352  16 -3.110461E+04 -3.798367E+05 -1.907071E+04  1.029201E+05  5.004901E-11  3.147786E-10
       352  17 -4.589141E+04 -4.622856E+05 -3.173591E+04  8.841260E+04 -1.591793E-10  2.359418E-10
       352  18 -5.300681E+04 -5.439594E+05 -4.820149E+04  8.799954E+04  7.937090E-11 -6.643039E-11
       352  19  3.538186E+04 -9.632425E+04  2.977022E+04  1.032770E+05 -7.844128E+03 -3.602065E+03
       352  20  6.048083E+04 -1.717312E+04  5.480295E+04  1.036843E+05 -8.798611E+03  1.698746E+04
       352  21  9.834551E+04  6.784708E+04  9.643039E+04  1.181853E+05 -2.955019E+03  3.757768E+04
       352  22  2.139209E+03 -2.380903E+05  5.350208E+03  1.030984E+05 -7.839030E+03  5.824131E+03
       352  23  7.296123E+03 -2.397532E+05  1.153474E+04  9.604704E+04 -8.801814E+03  1.172890E+04
       352  24  2.267218E+04 -2.380999E+05  2.411689E+04  1.030887E+05 -2.965890E+03  1.763166E+04
       352  25 -3.110448E+04 -3.798364E+05 -1.907016E+04  1.029200E+05 -7.833936E+03  1.524824E+04
       352  26 -4.589132E+04 -4.622856E+05 -3.173568E+04  8.841255E+04 -8.804888E+03  6.472183E+03
       352  27 -5.300680E+04 -5.439594E+05 -4.820147E+04  8.799954E+04 -2.975794E+03 -2.304584E+03
       353   1  1.296192E+05  1.566681E+05  7.112352E+04  7.950771E+04  3.336244E+04  2.264566E+04
       353   2  1.237322E+05  1.221229E+05  4.297137E+04  8.367167E+04  2.303976E+04  9.181351E+03
       353   3  1.270255E+05  1.024458E+05  2.983651E+04  8.292317E+04  1.093871E+04 -1.908796E+03
       353   4  5.060468E+04  6.102105E+04  3.874751E+04  2.203764E+04  2.287571E+04  1.478348E+04
       353   5  4.068670E+04  4.367078E+04  1.941382E+04  3.234499E+04  1.768150E+04  5.164299E+03
       353   6  3.883769E+04  4.007678E+04  1.064836E+04  3.773945E+04  1.070863E+04 -2.081450E+03
       353   7 -2.840025E+04 -3.461085E+04  6.371960E+03 -3.542049E+04  1.239095E+04  6.924066E+03
       353   8 -4.234955E+04 -3.477192E+04 -4.143744E+03 -1.897198E+04  1.232426E+04  1.148327E+03
       353   9 -4.934081E+04 -2.228725E+04 -8.540118E+03 -7.436708E+03  1.047860E+04 -2.254072E+03
       353  10  1.296178E+05  1.566673E+05  7.112047E+04  7.950710E+04  7.381038E-11 -2.948539E-11
       353  11  1.237316E+05  1.221227E+05  4.297021E+04  8.367150E+04 -6.803888E-11 -5.015873E-13
       353  12  1.270254E+05  1.024458E+05  2.983628E+04  8.292318E+04 -2.198676E-11 -3.170075E-12
       353  13  5.060406E+04  6.102068E+04  3.874611E+04  2.203737E+04 -5.177582E-12  2.296506E-11
       353  14  4.068636E+04  4.367067E+04  1.941318E+04  3.234492E+04 -2.983828E-10  5.234976E-11
       353  15  3.883757E+04  4.007674E+04  1.064814E+04  3.773947E+04  8.107885E-11  1.773554E-11
       353  16 -2.840043E+04 -3.461094E+04  6.371581E+03 -3.542056E+04  7.342834E-11  4.928394E-11
       353  17 -4.234971E+04 -3.477196E+04 -4.144032E+03 -1.897199E+04  9.846335E-11  5.802584E-11
       353  18 -4.934093E+04 -2.228728E+04 -8.540334E+03 -7.436689E+03  1.473411E-10 -2.019983E-11
       353  19  1.296192E+05  1.566681E+05  7.112352E+04  7.950771E+04 -3.336244E+04 -2.264566E+04
       353  20  1.237322E+05  1.221229E+05  4.297137E+04  8.367167E+04 -2.303976E+04 -9.181351E+03
       353  21  1.270255E+05  1.024458E+05  2.983651E+04  8.292317E+04 -1.093871E+04  1.908796E+03
       353  22  5.060468E+04  6.102105E+04  3.874751E+04  2.203764E+04 -2.287571E+04 -1.478348E+04
       353  23  4.068670E+04  4.367078E+04  1.941382E+04  3.234499E+04 -1.768150E+04 -5.164299E+03
       353  24  3.883769E+04  4.007678E+04  1.064836E+04  3.773945E+04 -1.070863E+04  2.081450E+03
       353  25 -2.840025E+04 -3.461085E+04  6.371960E+03 -3.542049E+04 -1.239095E+04 -6.924066E+03
       353  26 -4.234955E+04 -3.477192E+04 -4.143744E+03 -1.897198E+04 -1.232426E+04 -1.148327E+03
       353  27 -4.934081E+04 -2.228725E+04 -8.540118E+03 -7.436708E+03 -1.047860E+04  2.254072E+03
       354   1  1.206952E+05  9.975925E+04  2.587842E+04  8.104519E+04  9.762994E+03 -2.740878E+03
       354   2  1.147356E+05  9.224533E+04  2.029930E+04  7.813585E+04  7.238317E+03 -4.546501E+03
       354   3  1.083133E+05  8.747628E+04  1.711580E+04  7.531900E+04  4.497017E+03 -6.063213E+03
       354   4  3.784104E+04  3.925311E+04  8.076200E+03  3.761313E+04  9.570591E+03 -2.885304E+03
       354   5  3.768932E+04  3.714694E+04  4.645974E+03  3.816748E+04  7.670448E+03 -4.222737E+03
       354   6  3.694000E+04  3.765020E+04  3.069695E+03  3.881429E+04  5.553688E+03 -5.271228E+03
       354   7 -4.500687E+04 -2.124970E+04 -9.726984E+03 -5.812991E+03  9.378219E+03 -3.029706E+03
       354   8 -3.934976E+04 -1.794748E+04 -1.100754E+04 -1.795001E+03  8.102508E+03 -3.899028E+03
       354   9 -3.442553E+04 -1.217146E+04 -1.097597E+04  2.315337E+03  6.610175E+03 -4.479380E+03
       354  10  1.206951E+05  9.975922E+04  2.587823E+04  8.104521E+04 -2.133304E-10 -4.055778E-11
       354  11  1.147355E+05  9.224529E+04  2.029916E+04  7.813587E+04 -1.929415E-10 -2.416183E-11
       354  12  1.083133E+05  8.747624E+04  1.711569E+04  7.531902E+04 -2.202776E-10  6.369512E-12
       354  13  3.784094E+04  3.925308E+04  8.076012E+03  3.761315E+04  7.422681E-11  4.428218E-12
       354  14  3.768925E+04  3.714690E+04  4.645830E+03  3.816751E+04 -1.378178E-10 -1.958136E-11
       354  15  3.693996E+04  3.765016E+04  3.069585E+03  3.881432E+04  6.189237E-12 -1.589356E-12
       354  16 -4.500697E+04 -2.124974E+04 -9.727167E+03 -5.812968E+03  1.046121E-10  1.784574E-11
       354  17 -3.934983E+04 -1.794752E+04 -1.100769E+04 -1.794975E+03  6.627224E-11 -8.266300E-12
       354  18 -3.442558E+04 -1.217150E+04 -1.097609E+04  2.315361E+03  1.011579E-10 -2.910332E-11
       354  19  1.206952E+05  9.975925E+04  2.587842E+04  8.104519E+04 -9.762994E+03  2.740878E+03
       354  20  1.147356E+05  9.224533E+04  2.029930E+04  7.813585E+04 -7.238317E+03  4.546501E+03
       354  21  1.083133E+05  8.747628E+04  1.711580E+04  7.531900E+04 -4.497017E+03  6.063213E+03
       354  22  3.784104E+04  3.925311E+04  8.076200E+03  3.761313E+04 -9.570591E+03  2.885304E+03
       354  23  3.768932E+04  3.714694E+04  4.645974E+03  3.816748E+04 -7.670448E+03  4.222737E+03
       354  24  3.694000E+04  3.765020E+04  3.069695E+03  3.881429E+04 -5.553688E+03  5.271228E+03
       354  25 -4.500687E+04 -2.124970E+04 -9.726984E+03 -5.812991E+03 -9.378219E+03  3.029706E+03
       354  26 -3.934976E+04 -1.794748E+04 -1.100754E+04 -1.795001E+03 -8.102508E+03  3.899028E+03
       354  27 -3.442553E+04 -1.217146E+04 -1.097597E+04  2.315337E+03 -6.610175E+03  4.479380E+03
       355   1  1.040279E+05  8.473674E+04  1.586204E+04  7.327980E+04  3.872836E+03 -6.069168E+03
       355   2  9.826280E+04  7.931018E+04  1.439377E+04  6.973741E+04  2.384570E+03 -6.385382E+03
       355   3  9.123349E+04  7.568383E+04  1.389542E+04  6.662563E+04  8.653728E+02 -6.660372E+03
       355   4  3.686051E+04  3.759526E+04  2.694804E+03  3.879332E+04  4.934077E+03 -5.273732E+03
       355   5  3.751560E+04  3.672799E+04  2.558460E+03  3.856095E+04  3.535022E+03 -5.523021E+03
       355   6  3.688701E+04  3.764170E+04  3.314691E+03  3.875920E+04  2.105005E+03 -5.731099E+03
       355   7 -3.030149E+04 -9.543356E+03 -1.047257E+04  4.311211E+03  5.995167E+03 -4.478409E+03
       355   8 -2.322789E+04 -5.852364E+03 -9.277196E+03  7.387715E+03  4.685339E+03 -4.660761E+03
       355   9 -1.745721E+04 -3.994723E+02 -7.266560E+03  1.089499E+04  3.344523E+03 -4.801912E+03
       355  10  1.040279E+05  8.473670E+04  1.586194E+04  7.327982E+04 -2.120939E-10 -1.964075E-11
       355  11  9.826279E+04  7.931013E+04  1.439368E+04  6.973742E+04 -9.083685E-12  5.160435E-11
       355  12  9.123348E+04  7.568379E+04  1.389534E+04  6.662564E+04  1.277969E-10  3.334470E-11
       355  13  3.686048E+04  3.759522E+04  2.694706E+03  3.879334E+04 -6.225666E-12 -2.863719E-12
       355  14  3.751558E+04  3.672795E+04  2.558379E+03  3.856097E+04  7.656710E-11  8.868723E-12
       355  15  3.688699E+04  3.764166E+04  3.314621E+03  3.875921E+04 -4.705984E-11 -1.343225E-11
       355  16 -3.030154E+04 -9.543387E+03 -1.047267E+04  4.311233E+03  1.470728E-10  3.162244E-11
       355  17 -2.322792E+04 -5.852393E+03 -9.277278E+03  7.387733E+03  9.712022E-11  3.870744E-11
       355  18 -1.745723E+04 -3.995001E+02 -7.266624E+03  1.089500E+04 -6.324350E-11 -5.620624E-11
       355  19  1.040279E+05  8.473674E+04  1.586204E+04  7.327980E+04 -3.872836E+03  6.069168E+03
       355  20  9.826280E+04  7.931018E+04  1.439377E+04  6.973741E+04 -2.384570E+03  6.385382E+03
       355  21  9.123349E+04  7.568383E+04  1.389542E+04  6.662563E+04 -8.653728E+02  6.660372E+03
       355  22  3.686051E+04  3.759526E+04  2.694804E+03  3.879332E+04 -4.934077E+03  5.273732E+03
       355  23  3.751560E+04  3.672799E+04  2.558460E+03  3.856095E+04 -3.535022E+03  5.523021E+03
       355  24  3.688701E+04  3.764170E+04  3.314691E+03  3.875920E+04 -2.105005E+03  5.731099E+03
       355  25 -3.030149E+04 -9.543356E+03 -1.047257E+04  4.311211E+03 -5.995167E+03  4.478409E+03
       355  26 -2.322789E+04 -5.852364E+03 -9.277196E+03  7.387715E+03 -4.685339E+03  4.660761E+03
       355  27 -1.745721E+04 -3.994723E+02 -7.266560E+03  1.089499E+04 -3.344523E+03  4.801912E+03
       356   1  8.712078E+04  7.317551E+04  1.383205E+04  6.467347E+04  1.084674E+02 -6.706961E+03
       356   2  8.258982E+04  6.714050E+04  1.526813E+04  6.016348E+04 -3.132013E+03 -8.195491E+03
       356   3  7.789144E+04  6.431525E+04  1.949100E+04  5.557434E+04 -6.414384E+03 -9.627987E+03
       356   4  3.700888E+04  3.773994E+04  4.056709E+03  3.880527E+04  1.349464E+03 -5.776639E+03
       356   5  3.778162E+04  3.735037E+04  6.665959E+03  3.794393E+04 -1.769899E+03 -7.174353E+03
       356   6  3.836049E+04  4.014422E+04  1.195694E+04  3.700331E+04 -4.931215E+03 -8.516090E+03
       356   7 -1.309875E+04  2.306904E+03 -5.718268E+03  1.294015E+04  2.590299E+03 -4.846440E+03
       356   8 -7.023590E+03  7.561769E+03 -1.936067E+03  1.572650E+04 -4.079316E+02 -6.153320E+03
       356   9 -1.168535E+03  1.597394E+04  4.422866E+03  1.843359E+04 -3.448174E+03 -7.404272E+03
       356  10  8.712076E+04  7.317546E+04  1.383196E+04  6.467347E+04  1.158843E-10 -6.104779E-11
       356  11  8.258979E+04  6.714042E+04  1.526799E+04  6.016346E+04  1.081119E-10 -4.494198E-11
       356  12  7.789137E+04  6.431514E+04  1.949075E+04  5.557429E+04  1.983576E-10 -6.549669E-11
       356  13  3.700887E+04  3.773991E+04  4.056643E+03  3.880528E+04  1.129576E-10  2.408199E-11
       356  14  3.778160E+04  3.735031E+04  6.665856E+03  3.794392E+04  3.856792E-13 -4.644507E-11
       356  15  3.836045E+04  4.014413E+04  1.195676E+04  3.700327E+04  1.036417E-11 -5.109907E-11
       356  16 -1.309876E+04  2.306877E+03 -5.718324E+03  1.294016E+04 -5.306396E-11  5.383712E-12
       356  17 -7.023601E+03  7.561729E+03 -1.936138E+03  1.572650E+04 -1.334343E-10 -5.909946E-12
       356  18 -1.168562E+03  1.597388E+04  4.422741E+03  1.843357E+04  1.220649E-11 -8.244803E-11
       356  19  8.712078E+04  7.317551E+04  1.383205E+04  6.467347E+04 -1.084674E+02  6.706961E+03
       356  20  8.258982E+04  6.714050E+04  1.526813E+04  6.016348E+04  3.132013E+03  8.195491E+03
       356  21  7.789144E+04  6.431525E+04  1.949100E+04  5.557434E+04  6.414384E+03  9.627987E+03
       356  22  3.700888E+04  3.773994E+04  4.056709E+03  3.880527E+04 -1.349464E+03  5.776639E+03
       356  23  3.778162E+04  3.735037E+04  6.665959E+03  3.794393E+04  1.769899E+03  7.174353E+03
       356  24  3.836049E+04  4.014422E+04  1.195694E+04  3.700331E+04  4.931215E+03  8.516090E+03
       356  25 -1.309875E+04  2.306904E+03 -5.718268E+03  1.294015E+04 -2.590299E+03  4.846440E+03
       356  26 -7.023590E+03  7.561769E+03 -1.936067E+03  1.572650E+04  4.079316E+02  6.153320E+03
       356  27 -1.168535E+03  1.597394E+04  4.422866E+03  1.843359E+04  3.448174E+03  7.404272E+03
       357   1  7.363398E+04  6.452655E+04  2.269408E+04  5.422526E+04 -8.361536E+03 -1.048702E+04
       357   2  8.693708E+04  4.845472E+04  3.526371E+04  3.776919E+04 -2.186661E+04 -1.920098E+04
       357   3  1.129355E+05  5.286551E+04  6.448908E+04  1.382115E+04 -3.569229E+04 -2.748747E+04
       357   4  3.978376E+04  4.145938E+04  1.586771E+04  3.721915E+04 -6.871569E+03 -9.369967E+03
       357   5  4.237517E+04  4.704353E+04  2.910207E+04  2.917463E+04 -1.945368E+04 -1.739296E+04
       357   6  5.746124E+04  7.290989E+04  5.819173E+04  1.363815E+04 -3.235582E+04 -2.498918E+04
       357   7  5.934281E+03  1.839245E+04  9.041094E+03  2.021381E+04 -5.381683E+03 -8.252971E+03
       357   8 -2.184184E+03  4.563276E+04  2.294052E+04  2.058014E+04 -1.704098E+04 -1.558488E+04
       357   9  1.992848E+03  9.295699E+04  5.189513E+04  1.345407E+04 -2.901981E+04 -2.249063E+04
       357  10  7.363387E+04  6.452642E+04  2.269374E+04  5.422519E+04 -5.277917E-11 -8.366066E-11
       357  11  8.693646E+04  4.845419E+04  3.526212E+04  3.776886E+04 -5.972033E-11 -3.779814E-11
       357  12  1.129340E+05  5.286436E+04  6.448527E+04  1.382036E+04 -2.567048E-12 -2.208474E-11
       357  13  3.978369E+04  4.145927E+04  1.586745E+04  3.721910E+04 -1.022671E-10 -7.749038E-11
       357  14  4.237469E+04  4.704310E+04  2.910079E+04  2.917436E+04  7.901510E-11  5.744463E-12
       357  15  5.745995E+04  7.290894E+04  5.818859E+04  1.363750E+04  5.264348E-11 -1.153012E-10
       357  16  5.934231E+03  1.839236E+04  9.040911E+03  2.021377E+04  1.293847E-10  3.889150E-12
       357  17 -2.184561E+03  4.563242E+04  2.293952E+04  2.057992E+04  3.342389E-11 -4.536071E-11
       357  18  1.991808E+03  9.295622E+04  5.189259E+04  1.345354E+04 -2.908645E-11  2.666394E-12
       357  19  7.363398E+04  6.452655E+04  2.269408E+04  5.422526E+04  8.361536E+03  1.048702E+04
       357  20  8.693708E+04  4.845472E+04  3.526371E+04  3.776919E+04  2.186661E+04  1.920098E+04
       357  21  1.129355E+05  5.286551E+04  6.448908E+04  1.382115E+04  3.569229E+04  2.748747E+04
       357  22  3.978376E+04  4.145938E+04  1.586771E+04  3.721915E+04  6.871569E+03  9.369967E+03
       357  23  4.237517E+04  4.704353E+04  2.910207E+04  2.917463E+04  1.945368E+04  1.739296E+04
       357  24  5.746124E+04  7.290989E+04  5.819173E+04  1.363815E+04  3.235582E+04  2.498918E+04
       357  25  5.934281E+03  1.839245E+04  9.041094E+03  2.021381E+04  5.381683E+03  8.252971E+03
       357  26 -2.184184E+03  4.563276E+04  2.294052E+04  2.058014E+04  1.704098E+04  1.558488E+04
       357  27  1.992848E+03  9.295699E+04  5.189513E+04  1.345407E+04  2.901981E+04  2.249063E+04
       358   1  1.753241E+05  5.290940E+04  4.784315E+04  4.568238E+04  9.686926E+03 -3.354157E+03
       358   2  1.296404E+05  5.113243E+04  3.496716E+04  4.770576E+04  1.145187E+03 -1.084876E+04
       358   3  8.364384E+04  4.361851E+04  2.621748E+04  5.740045E+04 -7.394480E+03 -1.210570E+04
       358   4 -1.112032E+05 -1.778024E+04 -1.907163E+04  5.757312E+04 -1.324128E+04 -3.351694E+03
       358   5 -1.098717E+05 -5.694681E+03 -9.654330E+03  5.373789E+04 -8.307256E+03 -1.084841E+04
       358   6 -1.111952E+05 -1.686890E+03 -5.468929E+03  5.757443E+04 -3.371759E+03 -1.210620E+04
       358   7 -3.976535E+05 -8.847489E+04 -8.598992E+04  6.945834E+04 -3.615898E+04 -3.350108E+03
       358   8 -3.493279E+05 -6.252491E+04 -5.427791E+04  5.976763E+04 -1.775615E+04 -1.084825E+04
       358   9 -3.059965E+05 -4.699422E+04 -3.715634E+04  5.774836E+04  6.497441E+02 -1.210670E+04
       358  10  1.753240E+05  5.290936E+04  4.784295E+04  4.568241E+04  1.937495E-10 -3.343979E-12
       358  11  1.296404E+05  5.113230E+04  3.496694E+04  4.770577E+04  5.785119E-11 -7.902172E-12
       358  12  8.364374E+04  4.361834E+04  2.621711E+04  5.740038E+04 -1.328834E-10  1.128115E-10
       358  13 -1.112034E+05 -1.778030E+04 -1.907198E+04  5.757308E+04  3.870542E-12  4.410582E-11
       358  14 -1.098718E+05 -5.694826E+03 -9.654681E+03  5.373782E+04 -3.793429E-11  2.543887E-11
       358  15 -1.111952E+05 -1.687050E+03 -5.469226E+03  5.757440E+04  3.525348E-11  8.818308E-11
       358  16 -3.976549E+05 -8.847525E+04 -8.599240E+04  6.945824E+04 -8.354540E-11 -4.481752E-11
       358  17 -3.493283E+05 -6.252512E+04 -5.427873E+04  5.976747E+04 -1.372340E-10  3.293019E-11
       358  18 -3.059965E+05 -4.699437E+04 -3.715662E+04  5.774836E+04  1.115923E-10  5.918297E-11
       358  19  1.753241E+05  5.290940E+04  4.784315E+04  4.568238E+04 -9.686926E+03  3.354157E+03
       358  20  1.296404E+05  5.113243E+04  3.496716E+04  4.770576E+04 -1.145187E+03  1.084876E+04
       358  21  8.364384E+04  4.361851E+04  2.621748E+04  5.740045E+04  7.394480E+03  1.210570E+04
       358  22 -1.112032E+05 -1.778024E+04 -1.907163E+04  5.757312E+04  1.324128E+04  3.351694E+03
       358  23 -1.098717E+05 -5.694681E+03 -9.654330E+03  5.373789E+04  8.307256E+03  1.084841E+04
       358  24 -1.111952E+05 -1.686890E+03 -5.468929E+03  5.757443E+04  3.371759E+03  1.210620E+04
       358  25 -3.976535E+05 -8.847489E+04 -8.598992E+04  6.945834E+04  3.615898E+04  3.350108E+03
       358  26 -3.493279E+05 -6.252491E+04 -5.427791E+04  5.976763E+04  1.775615E+04  1.084825E+04
       358  27 -3.059965E+05 -4.699422E+04 -3.715634E+04  5.774836E+04 -6.497441E+02  1.210670E+04
       359   1  5.513348E+04  3.711844E+04  2.201247E+04  5.691444E+04 -6.757604E+03 -1.077475E+04
       359   2  9.382659E+03  2.720769E+04  1.513043E+04  5.326125E+04 -6.845067E+03 -8.516444E+03
       359   3 -3.647163E+04  1.681232E+04  8.185231E+03  5.772917E+04 -6.932622E+03 -5.555082E+03
       359   4 -1.106855E+05 -1.307009E+03 -4.291371E+03  5.767408E+04 -2.638149E+03 -1.077512E+04
       359   5 -1.104986E+05 -3.689924E+02 -2.865347E+03  5.361347E+04 -1.207430E+03 -8.516646E+03
       359   6 -1.106817E+05 -1.793762E+02 -2.557224E+03  5.767410E+04  2.231670E+02 -5.555048E+03
       359   7 -2.764770E+05 -3.973382E+04 -3.059585E+04  5.843352E+04  1.480246E+03 -1.077547E+04
       359   8 -2.303654E+05 -2.794634E+04 -2.086128E+04  5.396562E+04  4.429161E+03 -8.516842E+03
       359   9 -1.848861E+05 -1.717130E+04 -1.329957E+04  5.761904E+04  7.378137E+03 -5.555016E+03
       359  10  5.513340E+04  3.711831E+04  2.201217E+04  5.691438E+04  2.710196E-10  7.254413E-11
       359  11  9.382589E+03  2.720760E+04  1.513020E+04  5.326120E+04  9.323437E-11  4.032525E-11
       359  12 -3.647169E+04  1.681227E+04  8.185083E+03  5.772914E+04  1.869573E-12  8.942775E-11
       359  13 -1.106855E+05 -1.307135E+03 -4.291602E+03  5.767406E+04  1.346262E-10  9.186263E-11
       359  14 -1.104986E+05 -3.690707E+02 -2.865486E+03  5.361346E+04  1.991276E-10  6.830441E-12
       359  15 -1.106817E+05 -1.794094E+02 -2.557282E+03  5.767410E+04  3.023869E-10 -6.958959E-11
       359  16 -2.764771E+05 -3.973395E+04 -3.059607E+04  5.843353E+04 -2.147758E-10  3.714915E-11
       359  17 -2.303654E+05 -2.794643E+04 -2.086146E+04  5.396565E+04  6.567084E-12 -4.965004E-11
       359  18 -1.848862E+05 -1.717135E+04 -1.329974E+04  5.761908E+04  2.180777E-10 -7.092056E-11
       359  19  5.513348E+04  3.711844E+04  2.201247E+04  5.691444E+04  6.757604E+03  1.077475E+04
       359  20  9.382659E+03  2.720769E+04  1.513043E+04  5.326125E+04  6.845067E+03  8.516444E+03
       359  21 -3.647163E+04  1.681232E+04  8.185231E+03  5.772917E+04  6.932622E+03  5.555082E+03
       359  22 -1.106855E+05 -1.307009E+03 -4.291371E+03  5.767408E+04  2.638149E+03  1.077512E+04
       359  23 -1.104986E+05 -3.689924E+02 -2.865347E+03  5.361347E+04  1.207430E+03  8.516646E+03
       359  24 -1.106817E+05 -1.793762E+02 -2.557224E+03  5.767410E+04 -2.231670E+02  5.555048E+03
       359  25 -2.764770E+05 -3.973382E+04 -3.059585E+04  5.843352E+04 -1.480246E+03  1.077547E+04
       359  26 -2.303654E+05 -2.794634E+04 -2.086128E+04  5.396562E+04 -4.429161E+03  8.516842E+03
       359  27 -1.848861E+05 -1.717130E+04 -1.329957E+04  5.761904E+04 -7.378137E+03  5.555016E+03
       360   1 -6.519377E+04  1.018477E+04  3.628496E+03  5.756731E+04 -6.488466E+03 -3.581102E+03
       360   2 -1.106686E+05 -7.402902E+02 -4.427580E+03  5.411176E+04 -3.830130E+03 -4.477257E+02
       360   3 -1.567918E+05 -1.288825E+04 -1.451996E+04  5.880012E+04 -1.171989E+03  2.321603E+03
       360   4 -1.107129E+05 -1.889911E+02 -2.716760E+03  5.767915E+04  6.719733E+02 -3.580995E+03
       360   5 -1.104563E+05 -5.613326E+02 -3.745000E+03  5.360716E+04  2.543865E+03 -4.476238E+02
       360   6 -1.107130E+05 -2.019748E+03 -6.263186E+03  5.767912E+04  4.415731E+03  2.321696E+03
       360   7 -1.562298E+05 -1.056282E+04 -9.061850E+03  5.779097E+04  7.831911E+03 -3.580886E+03
       360   8 -1.102441E+05 -3.823523E+02 -3.062267E+03  5.310256E+04  8.917864E+03 -4.475323E+02
       360   9 -6.463214E+04  8.848659E+03  1.993627E+03  5.655803E+04  1.000386E+04  2.321767E+03
       360  10 -6.519382E+04  1.018475E+04  3.628393E+03  5.756729E+04  8.626108E-11  6.114376E-11
       360  11 -1.106686E+05 -7.402944E+02 -4.427608E+03  5.411176E+04 -1.958030E-11 -9.045718E-11
       360  12 -1.567918E+05 -1.288826E+04 -1.451997E+04  5.880013E+04 -4.403954E-11 -1.155345E-10
       360  13 -1.107129E+05 -1.890050E+02 -2.716785E+03  5.767915E+04  1.476713E-10 -1.196518E-11
       360  14 -1.104564E+05 -5.613346E+02 -3.745013E+03  5.360716E+04 -9.281060E-11 -1.015304E-10
       360  15 -1.107131E+05 -2.019759E+03 -6.263232E+03  5.767911E+04 -3.650593E-12 -8.974330E-11
       360  16 -1.562299E+05 -1.056285E+04 -9.061989E+03  5.779099E+04 -5.888063E-11 -8.592002E-11
       360  17 -1.102441E+05 -3.823739E+02 -3.062417E+03  5.310257E+04  1.674389E-10  6.052531E-13
       360  18 -6.463225E+04  8.848627E+03  1.993429E+03  5.655801E+04  8.667290E-11 -5.564439E-11
       360  19 -6.519377E+04  1.018477E+04  3.628496E+03  5.756731E+04  6.488466E+03  3.581102E+03
       360  20 -1.106686E+05 -7.402902E+02 -4.427580E+03  5.411176E+04  3.830130E+03  4.477257E+02
       360  21 -1.567918E+05 -1.288825E+04 -1.451996E+04  5.880012E+04  1.171989E+03 -2.321603E+03
       360  22 -1.107129E+05 -1.889911E+02 -2.716760E+03  5.767915E+04 -6.719733E+02  3.580995E+03
       360  23 -1.104563E+05 -5.613326E+02 -3.745000E+03  5.360716E+04 -2.543865E+03  4.476238E+02
       360  24 -1.107130E+05 -2.019748E+03 -6.263186E+03  5.767912E+04 -4.415731E+03 -2.321696E+03
       360  25 -1.562298E+05 -1.056282E+04 -9.061850E+03  5.779097E+04 -7.831911E+03  3.580886E+03
       360  26 -1.102441E+05 -3.823523E+02 -3.062267E+03  5.310256E+04 -8.917864E+03  4.475323E+02
       360  27 -6.463214E+04  8.848659E+03  1.993627E+03  5.655803E+04 -1.000386E+04 -2.321767E+03
       361   1 -1.864491E+05 -2.022503E+04 -2.135545E+04  5.784250E+04 -3.757672E+01  3.962857E+03
       361   2 -2.295102E+05 -3.751481E+04 -3.830026E+04  6.297230E+04  1.562809E+04  4.650969E+03
       361   3 -2.780867E+05 -6.872217E+04 -6.892520E+04  7.597896E+04  3.129197E+04  1.593540E+03
       361   4 -1.115132E+05 -2.602369E+03 -8.190885E+03  5.762009E+04  5.492894E+03  3.962890E+03
       361   5 -1.094600E+05 -8.803906E+03 -1.482154E+04  5.368093E+04  1.307076E+04  4.650678E+03
       361   6 -1.115183E+05 -2.751712E+04 -2.951362E+04  5.761926E+04  2.064811E+04  1.592803E+03
       361   7 -3.657180E+04  1.502000E+04  4.973593E+03  5.739764E+04  1.102401E+04  3.962919E+03
       361   8  1.060431E+04  1.990646E+04  8.656552E+03  4.438773E+04  1.051295E+04  4.650464E+03
       361   9  5.507662E+04  1.368726E+04  9.896633E+03  3.925461E+04  1.000140E+04  1.592695E+03
       361  10 -1.864491E+05 -2.022505E+04 -2.135548E+04  5.784250E+04  2.557221E-10 -1.000525E-10
       361  11 -2.295105E+05 -3.751490E+04 -3.830076E+04  6.297224E+04  1.060666E-10 -4.555042E-11
       361  12 -2.780877E+05 -6.872243E+04 -6.892705E+04  7.597892E+04 -2.377686E-11  1.811757E-11
       361  13 -1.115133E+05 -2.602394E+03 -8.190971E+03  5.762007E+04 -6.626319E-11 -7.963862E-11
       361  14 -1.094602E+05 -8.803975E+03 -1.482190E+04  5.368089E+04  1.086709E-10 -6.684199E-11
       361  15 -1.115187E+05 -2.751724E+04 -2.951443E+04  5.761923E+04  1.684253E-11 -3.283681E-11
       361  16 -3.657193E+04  1.501995E+04  4.973335E+03  5.739761E+04 -1.739278E-10 -3.696548E-11
       361  17  1.060419E+04  1.990641E+04  8.656304E+03  4.438769E+04 -1.435523E-10 -1.055979E-10
       361  18  5.507651E+04  1.368723E+04  9.896440E+03  3.925459E+04  4.369527E-11  1.518726E-12
       361  19 -1.864491E+05 -2.022503E+04 -2.135545E+04  5.784250E+04  3.757672E+01 -3.962857E+03
       361  20 -2.295102E+05 -3.751481E+04 -3.830026E+04  6.297230E+04 -1.562809E+04 -4.650969E+03
       361  21 -2.780867E+05 -6.872217E+04 -6.892520E+04  7.597896E+04 -3.129197E+04 -1.593540E+03
       361  22 -1.115132E+05 -2.602369E+03 -8.190885E+03  5.762009E+04 -5.492894E+03 -3.962890E+03
       361  23 -1.094600E+05 -8.803906E+03 -1.482154E+04  5.368093E+04 -1.307076E+04 -4.650678E+03
       361  24 -1.115183E+05 -2.751712E+04 -2.951362E+04  5.761926E+04 -2.064811E+04 -1.592803E+03
       361  25 -3.657180E+04  1.502000E+04  4.973593E+03  5.739764E+04 -1.102401E+04 -3.962919E+03
       361  26  1.060431E+04  1.990646E+04  8.656552E+03  4.438773E+04 -1.051295E+04 -4.650464E+03
       361  27  5.507662E+04  1.368726E+04  9.896633E+03  3.925461E+04 -1.000140E+04 -1.592695E+03
       362   1 -6.418470E+04 -2.912431E+05 -6.274523E+04  9.470262E+04 -1.911339E+03 -2.098087E+04
       362   2 -3.845988E+04 -2.196603E+05 -3.426464E+04  8.527764E+04 -5.294120E+03 -7.857725E+03
       362   3 -1.920416E+04 -1.514039E+05 -1.594889E+04  8.793212E+04 -3.790334E+03  5.266268E+03
       362   4 -1.032068E+04 -7.366990E+04 -1.101832E+04  8.791729E+04 -1.906535E+03 -8.391653E+03
       362   5 -3.258862E+03 -7.291697E+04 -5.013568E+03  8.187589E+04 -5.293210E+03 -5.818820E+03
       362   6 -8.329888E+02 -7.366274E+04 -1.844216E+03  8.791416E+04 -3.793709E+03 -3.246831E+03
       362   7  4.354018E+04  1.439472E+05  4.070590E+04  8.112957E+04 -1.902008E+03  4.201954E+03
       362   8  3.194088E+04  7.384699E+04  2.423645E+04  7.847330E+04 -5.292323E+03 -3.779443E+03
       362   9  1.753789E+04  4.084425E+03  1.226049E+04  8.789619E+04 -3.797083E+03 -1.176097E+04
       362  10 -6.418482E+04 -2.912435E+05 -6.274606E+04  9.470259E+04  2.777954E-11 -4.756270E-11
       362  11 -3.845992E+04 -2.196604E+05 -3.426481E+04  8.527761E+04 -3.965148E-11 -9.902423E-11
       362  12 -1.920419E+04 -1.514039E+05 -1.594897E+04  8.793214E+04 -7.426662E-11 -1.779220E-10
       362  13 -1.032071E+04 -7.366997E+04 -1.101846E+04  8.791728E+04 -1.045995E-10 -4.281811E-11
       362  14 -3.258901E+03 -7.291701E+04 -5.013685E+03  8.187586E+04  1.293192E-10  7.429390E-11
       362  15 -8.330071E+02 -7.366276E+04 -1.844263E+03  8.791415E+04 -1.593696E-10 -3.609398E-11
       362  16  4.354017E+04  1.439472E+05  4.070586E+04  8.112957E+04 -3.844598E-11  4.153342E-11
       362  17  3.194085E+04  7.384697E+04  2.423637E+04  7.847329E+04 -1.454707E-10 -1.268947E-12
       362  18  1.753783E+04  4.084272E+03  1.226021E+04  8.789615E+04 -3.074395E-11  1.551739E-10
       362  19 -6.418470E+04 -2.912431E+05 -6.274523E+04  9.470262E+04  1.911339E+03  2.098087E+04
       362  20 -3.845988E+04 -2.196603E+05 -3.426464E+04  8.527764E+04  5.294120E+03  7.857725E+03
       362  21 -1.920416E+04 -1.514039E+05 -1.594889E+04  8.793212E+04  3.790334E+03 -5.266268E+03
       362  22 -1.032068E+04 -7.366990E+04 -1.101832E+04  8.791729E+04  1.906535E+03  8.391653E+03
       362  23 -3.258862E+03 -7.291697E+04 -5.013568E+03  8.187589E+04  5.293210E+03  5.818820E+03
       362  24 -8.329888E+02 -7.366274E+04 -1.844216E+03  8.791416E+04  3.793709E+03  3.246831E+03
       362  25  4.354018E+04  1.439472E+05  4.070590E+04  8.112957E+04  1.902008E+03 -4.201954E+03
       362  26  3.194088E+04  7.384699E+04  2.423645E+04  7.847330E+04  5.292323E+03  3.779443E+03
       362  27  1.753789E+04  4.084425E+03  1.226049E+04  8.789619E+04  3.797083E+03  1.176097E+04
       363   1 -8.656722E+03 -1.069848E+05 -7.290374E+03  8.825683E+04 -1.272696E+03  5.486026E+03
       363   2  8.658297E+03 -3.724551E+04  7.083670E+03  8.240927E+04  2.607663E+03  4.235221E+03
       363   3  2.659955E+04  3.281108E+04  2.242616E+04  8.894385E+04  6.305554E+03  2.984408E+03
       363   4 -5.871196E+02 -7.327452E+04 -6.548685E+02  8.798160E+04 -1.276176E+03 -3.092882E+03
       363   5  3.521160E+02 -7.339745E+04  1.709710E+03  8.179010E+04  2.604434E+03 -3.949868E+03
       363   6  1.849502E+03 -7.327607E+04  4.769344E+03  8.798073E+04  6.302567E+03 -4.806732E+03
       363   7  7.482454E+03 -3.956299E+04  5.980859E+03  8.770636E+04 -1.279648E+03 -1.167225E+04
       363   8 -7.954089E+03 -1.095479E+05 -3.664023E+03  8.117096E+04  2.601222E+03 -1.213450E+04
       363   9 -2.290110E+04 -1.793520E+05 -1.288759E+04  8.701778E+04  6.299603E+03 -1.259658E+04
       363  10 -8.656732E+03 -1.069848E+05 -7.290434E+03  8.825684E+04  1.418227E-11  1.355152E-10
       363  11  8.658285E+03 -3.724553E+04  7.083624E+03  8.240926E+04  3.272517E-11  9.860900E-11
       363  12  2.659951E+04  3.281106E+04  2.242607E+04  8.894383E+04  2.178645E-10  2.308753E-11
       363  13 -5.871239E+02 -7.327453E+04 -6.548895E+02  8.798160E+04 -6.066421E-11 -5.865064E-11
       363  14  3.521045E+02 -7.339746E+04  1.709668E+03  8.179010E+04 -3.352331E-10  1.217310E-10
       363  15  1.849453E+03 -7.327610E+04  4.769226E+03  8.798076E+04 -2.054243E-10  7.475539E-12
       363  16  7.482416E+03 -3.956314E+04  5.980599E+03  8.770635E+04 -6.308112E-11 -1.525744E-10
       363  17 -7.954136E+03 -1.095481E+05 -3.664312E+03  8.117098E+04  3.289198E-11 -1.334123E-10
       363  18 -2.290118E+04 -1.793521E+05 -1.288796E+04  8.701785E+04  1.351746E-10 -3.996181E-11
       363  19 -8.656722E+03 -1.069848E+05 -7.290374E+03  8.825683E+04  1.272696E+03 -5.486026E+03
       363  20  8.658297E+03 -3.724551E+04  7.083670E+03  8.240927E+04 -2.607663E+03 -4.235221E+03
       363  21  2.659955E+04  3.281108E+04  2.242616E+04  8.894385E+04 -6.305554E+03 -2.984408E+03
       363  22 -5.871196E+02 -7.327452E+04 -6.548685E+02  8.798160E+04  1.276176E+03  3.092882E+03
       363  23  3.521160E+02 -7.339745E+04  1.709710E+03  8.179010E+04 -2.604434E+03  3.949868E+03
       363  24  1.849502E+03 -7.327607E+04  4.769344E+03  8.798073E+04 -6.302567E+03  4.806732E+03
       363  25  7.482454E+03 -3.956299E+04  5.980859E+03  8.770636E+04  1.279648E+03  1.167225E+04
       363  26 -7.954089E+03 -1.095479E+05 -3.664023E+03  8.117096E+04 -2.601222E+03  1.213450E+04
       363  27 -2.290110E+04 -1.793520E+05 -1.288759E+04  8.701778E+04 -6.299603E+03  1.259658E+04
       364   1  3.750306E+04  7.770447E+04  3.215761E+04  8.808875E+04  8.655621E+03  2.048713E+03
       364   2  6.025223E+04  1.445802E+05  5.523183E+04  9.037059E+04  9.007667E+03 -1.853577E+04
       364   3  9.676735E+04  2.175780E+05  9.514659E+04  1.046094E+05  2.950816E+03 -3.912160E+04
       364   4  2.384675E+03 -7.250650E+04  6.776181E+03  8.788651E+04  8.652848E+03 -5.649938E+03
       364   5  8.045959E+03 -7.436951E+04  1.317258E+04  8.190477E+04  9.010326E+03 -1.238743E+04
       364   6  2.507250E+04 -7.251577E+04  2.679618E+04  8.787939E+04  2.958409E+03 -1.912393E+04
       364   7 -3.273487E+04 -2.226951E+05 -1.860574E+04  8.768431E+04  8.650081E+03 -1.334679E+04
       364   8 -4.416286E+04 -2.932729E+05 -2.888869E+04  7.344199E+04  9.012818E+03 -6.241207E+03
       364   9 -4.662710E+04 -3.625306E+05 -4.155838E+04  7.115724E+04  2.964926E+03  8.644471E+02
       364  10  3.750298E+04  7.770444E+04  3.215746E+04  8.808874E+04  6.251607E-11 -1.734600E-10
       364  11  6.025205E+04  1.445799E+05  5.523103E+04  9.037073E+04  2.272249E-11 -1.467400E-10
       364  12  9.676693E+04  2.175763E+05  9.514370E+04  1.046095E+05  7.166741E-11 -1.499015E-11
       364  13  2.384586E+03 -7.250656E+04  6.775980E+03  8.788655E+04  2.940023E-10 -8.091369E-11
       364  14  8.045830E+03 -7.436969E+04  1.317214E+04  8.190486E+04 -1.367215E-10  9.069773E-11
       364  15  2.507239E+04 -7.251617E+04  2.679548E+04  8.787943E+04  9.536485E-11 -7.819094E-11
       364  16 -3.273500E+04 -2.226953E+05 -1.860622E+04  8.768441E+04 -1.783769E-11  2.428177E-10
       364  17 -4.416296E+04 -2.932730E+05 -2.888891E+04  7.344203E+04 -1.776235E-10  1.273493E-10
       364  18 -4.662711E+04 -3.625306E+05 -4.155839E+04  7.115724E+04  8.069554E-11 -5.272878E-12
       364  19  3.750306E+04  7.770447E+04  3.215761E+04  8.808875E+04 -8.655621E+03 -2.048713E+03
       364  20  6.025223E+04  1.445802E+05  5.523183E+04  9.037059E+04 -9.007667E+03  1.853577E+04
       364  21  9.676735E+04  2.175780E+05  9.514659E+04  1.046094E+05 -2.950816E+03  3.912160E+04
       364  22  2.384675E+03 -7.250650E+04  6.776181E+03  8.788651E+04 -8.652848E+03  5.649938E+03
       364  23  8.045959E+03 -7.436951E+04  1.317258E+04  8.190477E+04 -9.010326E+03  1.238743E+04
       364  24  2.507250E+04 -7.251577E+04  2.679618E+04  8.787939E+04 -2.958409E+03  1.912393E+04
       364  25 -3.273487E+04 -2.226951E+05 -1.860574E+04  8.768431E+04 -8.650081E+03  1.334679E+04
       364  26 -4.416286E+04 -2.932729E+05 -2.888869E+04  7.344199E+04 -9.012818E+03  6.241207E+03
       364  27 -4.662710E+04 -3.625306E+05 -4.155838E+04  7.115724E+04 -2.964926E+03 -8.644471E+02
       365   1  1.581164E+05  1.660367E+05  6.252519E+04  1.047491E+05  2.802556E+04  1.866742E+04
       365   2  1.501434E+05  1.364950E+05  3.842481E+04  1.060613E+05  1.941912E+04  6.609725E+03
       365   3  1.486400E+05  1.193534E+05  2.692075E+04  1.038748E+05  8.988858E+03 -3.014314E+03
       365   4  7.157396E+04  7.450969E+04  2.945001E+04  4.792230E+04  1.764323E+04  1.088234E+04
       365   5  6.443630E+04  6.092170E+04  1.476133E+04  5.563928E+04  1.429488E+04  2.767332E+03
       365   6  6.262872E+04  5.859427E+04  8.107188E+03  5.985735E+04  9.122366E+03 -2.914391E+03
       365   7 -1.495995E+04 -1.700619E+04 -3.625754E+03 -8.893787E+03  7.262797E+03  3.099633E+03
       365   8 -2.126320E+04 -1.464491E+04 -8.903032E+03  5.225622E+03  9.171507E+03 -1.074170E+03
       365   9 -2.337586E+04 -2.161609E+03 -1.070743E+04  1.584603E+04  9.255852E+03 -2.814485E+03
       365  10  1.581155E+05  1.660361E+05  6.252306E+04  1.047487E+05 -1.133001E-11 -1.050374E-12
       365  11  1.501430E+05  1.364948E+05  3.842402E+04  1.060612E+05  1.987156E-10 -5.775070E-11
       365  12  1.486399E+05  1.193533E+05  2.692058E+04  1.038748E+05  1.254366E-10  4.273501E-11
       365  13  7.157359E+04  7.450948E+04  2.944920E+04  4.792215E+04 -2.925674E-12  2.207646E-11
       365  14  6.443608E+04  6.092164E+04  1.476093E+04  5.563925E+04  3.505034E-12  8.922827E-12
       365  15  6.262863E+04  5.859424E+04  8.107016E+03  5.985737E+04  1.650423E-10 -1.196865E-11
       365  16 -1.496001E+04 -1.700622E+04 -3.625871E+03 -8.893805E+03 -2.049846E-11 -8.222094E-12
       365  17 -2.126329E+04 -1.464494E+04 -8.903192E+03  5.225630E+03  1.482929E-10  8.366299E-12
       365  18 -2.337596E+04 -2.161641E+03 -1.070761E+04  1.584605E+04  4.976894E-11 -8.252187E-12
       365  19  1.581164E+05  1.660367E+05  6.252519E+04  1.047491E+05 -2.802556E+04 -1.866742E+04
       365  20  1.501434E+05  1.364950E+05  3.842481E+04  1.060613E+05 -1.941912E+04 -6.609725E+03
       365  21  1.486400E+05  1.193534E+05  2.692075E+04  1.038748E+05 -8.988858E+03  3.014314E+03
       365  22  7.157396E+04  7.450969E+04  2.945001E+04  4.792230E+04 -1.764323E+04 -1.088234E+04
       365  23  6.443630E+04  6.092170E+04  1.476133E+04  5.563928E+04 -1.429488E+04 -2.767332E+03
       365  24  6.262872E+04  5.859427E+04  8.107188E+03  5.985735E+04 -9.122366E+03  2.914391E+03
       365  25 -1.495995E+04 -1.700619E+04 -3.625754E+03 -8.893787E+03 -7.262797E+03 -3.099633E+03
       365  26 -2.126320E+04 -1.464491E+04 -8.903032E+03  5.225622E+03 -9.171507E+03  1.074170E+03
       365  27 -2.337586E+04 -2.161609E+03 -1.070743E+04  1.584603E+04 -9.255852E+03  2.814485E+03
       366   1  1.414927E+05  1.156837E+05  2.330690E+04  1.012799E+05  8.002409E+03 -3.548102E+03
       366   2  1.337148E+05  1.069521E+05  1.814080E+04  9.708877E+04  5.768072E+03 -4.868317E+03
       366   3  1.247648E+05  1.012015E+05  1.494828E+04  9.321905E+04  3.312468E+03 -5.893287E+03
       366   4  6.185807E+04  5.797917E+04  6.156878E+03  5.976403E+04  8.174274E+03 -3.419412E+03
       366   5  6.217165E+04  5.594923E+04  3.565193E+03  6.006048E+04  6.577955E+03 -4.261204E+03
       366   6  6.117437E+04  5.676181E+04  2.393576E+03  6.067817E+04  4.760285E+03 -4.807783E+03
       366   7 -1.776704E+04  2.803687E+02 -1.099276E+04  1.825547E+04  8.346106E+03 -3.290748E+03
       366   8 -9.364495E+03  4.950373E+03 -1.101027E+04  2.303769E+04  7.387704E+03 -3.654193E+03
       366   9 -2.411139E+03  1.232473E+04 -1.016121E+04  2.814124E+04  6.207903E+03 -3.722426E+03
       366  10  1.414926E+05  1.156836E+05  2.330676E+04  1.012799E+05 -6.000943E-11 -2.033039E-12
       366  11  1.337148E+05  1.069521E+05  1.814069E+04  9.708879E+04  2.132665E-10  1.611838E-11
       366  12  1.247648E+05  1.012015E+05  1.494819E+04  9.321907E+04  1.749144E-10  7.788194E-11
       366  13  6.185800E+04  5.797914E+04  6.156731E+03  5.976405E+04  6.873181E-11  6.902691E-11
       366  14  6.217159E+04  5.594919E+04  3.565078E+03  6.006050E+04  1.794396E-10 -6.931462E-11
       366  15  6.117434E+04  5.676178E+04  2.393490E+03  6.067819E+04 -1.195256E-10  3.274706E-11
       366  16 -1.776711E+04  2.803384E+02 -1.099291E+04  1.825550E+04 -1.283220E-10  1.235760E-10
       366  17 -9.364557E+03  4.950344E+03 -1.101040E+04  2.303771E+04 -6.232686E-11  1.333985E-10
       366  18 -2.411184E+03  1.232471E+04 -1.016131E+04  2.814126E+04 -8.139522E-11 -4.159745E-11
       366  19  1.414927E+05  1.156837E+05  2.330690E+04  1.012799E+05 -8.002409E+03  3.548102E+03
       366  20  1.337148E+05  1.069521E+05  1.814080E+04  9.708877E+04 -5.768072E+03  4.868317E+03
       366  21  1.247648E+05  1.012015E+05  1.494828E+04  9.321905E+04 -3.312468E+03  5.893287E+03
       366  22  6.185807E+04  5.797917E+04  6.156878E+03  5.976403E+04 -8.174274E+03  3.419412E+03
       366  23  6.217165E+04  5.594923E+04  3.565193E+03  6.006048E+04 -6.577955E+03  4.261204E+03
       366  24  6.117437E+04  5.676181E+04  2.393576E+03  6.067817E+04 -4.760285E+03  4.807783E+03
       366  25 -1.776704E+04  2.803687E+02 -1.099276E+04  1.825547E+04 -8.346106E+03  3.290748E+03
       366  26 -9.364495E+03  4.950373E+03 -1.101027E+04  2.303769E+04 -7.387704E+03  3.654193E+03
       366  27 -2.411139E+03  1.232473E+04 -1.016121E+04  2.814124E+04 -6.207903E+03  3.722426E+03
       367   1  1.192216E+05  9.752097E+04  1.353624E+04  9.050424E+04  2.694325E+03 -5.729265E+03
       367   2  1.116265E+05  9.040632E+04  1.174694E+04  8.581397E+04  1.277701E+03 -5.715061E+03
       367   3  1.022203E+05  8.553862E+04  1.074769E+04  8.170203E+04 -1.641984E+02 -5.667218E+03
       367   4  6.111399E+04  5.672195E+04  2.128096E+03  6.066383E+04  4.146663E+03 -4.640332E+03
       367   5  6.204063E+04  5.563012E+04  2.084458E+03  6.035673E+04  2.802809E+03 -4.571508E+03
       367   6  6.114055E+04  5.676945E+04  2.767826E+03  6.062795E+04  1.433689E+03 -4.469047E+03
       367   7  3.009176E+03  1.592414E+04 -9.280592E+03  3.082604E+04  5.598854E+03 -3.551510E+03
       367   8  1.245776E+04  2.085552E+04 -7.578074E+03  3.490188E+04  4.327756E+03 -3.428076E+03
       367   9  2.006385E+04  2.800206E+04 -5.211740E+03  3.955598E+04  3.031400E+03 -3.271007E+03
       367  10  1.192215E+05  9.752094E+04  1.353617E+04  9.050425E+04 -4.451273E-11 -2.054104E-11
       367  11  1.116265E+05  9.040629E+04  1.174688E+04  8.581397E+04 -9.271912E-11  4.624719E-11
       367  12  1.022202E+05  8.553858E+04  1.074763E+04  8.170202E+04  9.864413E-11  7.618608E-11
       367  13  6.111397E+04  5.672192E+04  2.128024E+03  6.066384E+04 -6.167047E-12 -3.246271E-11
       367  14  6.204062E+04  5.563010E+04  2.084404E+03  6.035674E+04  6.309813E-11  3.371978E-11
       367  15  6.114054E+04  5.676943E+04  2.767785E+03  6.062795E+04 -1.450374E-11 -5.096446E-11
       367  16  3.009139E+03  1.592412E+04 -9.280674E+03  3.082606E+04 -3.378140E-11  3.512530E-11
       367  17  1.245773E+04  2.085550E+04 -7.578131E+03  3.490190E+04 -6.468444E-12 -1.649120E-11
       367  18  2.006384E+04  2.800204E+04 -5.211777E+03  3.955599E+04 -1.279250E-10 -8.786343E-11
       367  19  1.192216E+05  9.752097E+04  1.353624E+04  9.050424E+04 -2.694325E+03  5.729265E+03
       367  20  1.116265E+05  9.040632E+04  1.174694E+04  8.581397E+04 -1.277701E+03  5.715061E+03
       367  21  1.022203E+05  8.553862E+04  1.074769E+04  8.170203E+04  1.641984E+02  5.667218E+03
       367  22  6.111399E+04  5.672195E+04  2.128096E+03  6.066383E+04 -4.146663E+03  4.640332E+03
       367  23  6.204063E+04  5.563012E+04  2.084458E+03  6.035673E+04 -2.802809E+03  4.571508E+03
       367  24  6.114055E+04  5.676945E+04  2.767826E+03  6.062795E+04 -1.433689E+03  4.469047E+03
       367  25  3.009176E+03  1.592414E+04 -9.280592E+03  3.082604E+04 -5.598854E+03  3.551510E+03
       367  26  1.245776E+04  2.085552E+04 -7.578074E+03  3.490188E+04 -4.327756E+03  3.428076E+03
       367  27  2.006385E+04  2.800206E+04 -5.211740E+03  3.955598E+04 -3.031400E+03  3.271007E+03
       368   1  9.680751E+04  8.205592E+04  1.030537E+04  7.906099E+04 -9.122953E+02 -5.552598E+03
       368   2  9.026197E+04  7.441370E+04  1.087773E+04  7.356163E+04 -3.693901E+03 -6.493527E+03
       368   3  8.282375E+04  7.019420E+04  1.369958E+04  6.820439E+04 -6.465284E+03 -7.448074E+03
       368   4  6.124712E+04  5.685313E+04  3.412638E+03  6.066835E+04  6.857627E+02 -4.354278E+03
       368   5  6.226542E+04  5.616120E+04  5.650699E+03  5.983051E+04 -2.125161E+03 -5.317174E+03
       368   6  6.239728E+04  5.889840E+04  1.016371E+04  5.913470E+04 -4.925923E+03 -6.293739E+03
       368   7  2.568825E+04  3.165115E+04 -3.480119E+03  4.227694E+04  2.283701E+03 -3.156050E+03
       368   8  3.426948E+04  3.790891E+04  4.235490E+02  4.609992E+04 -5.564962E+02 -4.140871E+03
       368   9  4.197083E+04  4.760249E+04  6.627695E+03  5.006511E+04 -3.386593E+03 -5.139414E+03
       368  10  9.680750E+04  8.205589E+04  1.030531E+04  7.906099E+04  7.760969E-11 -4.344748E-11
       368  11  9.026194E+04  7.441365E+04  1.087763E+04  7.356161E+04 -1.768932E-11 -4.743641E-12
       368  12  8.282369E+04  7.019413E+04  1.369940E+04  6.820435E+04  9.226871E-11  5.656281E-11
       368  13  6.124712E+04  5.685311E+04  3.412602E+03  6.066835E+04 -5.824931E-11 -8.231386E-12
       368  14  6.226541E+04  5.616117E+04  5.650638E+03  5.983050E+04 -3.248876E-11  8.323712E-11
       368  15  6.239724E+04  5.889835E+04  1.016359E+04  5.913467E+04  1.797341E-11 -4.105046E-11
       368  16  2.568824E+04  3.165114E+04 -3.480147E+03  4.227694E+04 -4.522954E-11 -3.083079E-11
       368  17  3.426947E+04  3.790889E+04  4.235162E+02  4.609992E+04 -8.240464E-11 -9.837137E-11
       368  18  4.197081E+04  4.760246E+04  6.627623E+03  5.006509E+04 -1.409856E-10 -7.421659E-11
       368  19  9.680751E+04  8.205592E+04  1.030537E+04  7.906099E+04  9.122953E+02  5.552598E+03
       368  20  9.026197E+04  7.441370E+04  1.087773E+04  7.356163E+04  3.693901E+03  6.493527E+03
       368  21  8.282375E+04  7.019420E+04  1.369958E+04  6.820439E+04  6.465284E+03  7.448074E+03
       368  22  6.124712E+04  5.685313E+04  3.412638E+03  6.066835E+04 -6.857627E+02  4.354278E+03
       368  23  6.226542E+04  5.616120E+04  5.650699E+03  5.983051E+04  2.125161E+03  5.317174E+03
       368  24  6.239728E+04  5.889840E+04  1.016371E+04  5.913470E+04  4.925923E+03  6.293739E+03
       368  25  2.568825E+04  3.165115E+04 -3.480119E+03  4.227694E+04 -2.283701E+03  3.156050E+03
       368  26  3.426948E+04  3.790891E+04  4.235490E+02  4.609992E+04  5.564962E+02  4.140871E+03
       368  27  4.197083E+04  4.760249E+04  6.627695E+03  5.006511E+04  3.386593E+03  5.139414E+03
       369   1  7.726306E+04  6.898888E+04  1.592088E+04  6.607103E+04 -8.182230E+03 -8.079472E+03
       369   2  8.590256E+04  5.279813E+04  2.536398E+04  5.050889E+04 -1.847321E+04 -1.479932E+04
       369   3  1.044319E+05  5.447599E+04  4.802373E+04  2.876745E+04 -2.865405E+04 -2.166550E+04
       369   4  6.361809E+04  6.000760E+04  1.349524E+04  5.931550E+04 -6.645072E+03 -6.926752E+03
       369   5  6.616273E+04  6.442038E+04  2.476318E+04  5.237047E+04 -1.725336E+04 -1.388529E+04
       369   6  7.866536E+04  8.676918E+04  4.952320E+04  3.924609E+04 -2.775131E+04 -2.099076E+04
       369   7  4.997363E+04  5.102662E+04  1.106970E+04  5.256026E+04 -5.107989E+03 -5.774086E+03
       369   8  4.642417E+04  7.604304E+04  2.416256E+04  5.423180E+04 -1.603360E+04 -1.297122E+04
       369   9  5.290166E+04  1.190650E+05  5.102316E+04  4.972388E+04 -2.684865E+04 -2.031595E+04
       369  10  7.726297E+04  6.898879E+04  1.592063E+04  6.607098E+04 -3.027630E-11 -1.821412E-11
       369  11  8.590213E+04  5.279780E+04  2.536292E+04  5.050867E+04 -3.088742E-11  3.468456E-11
       369  12  1.044309E+05  5.447526E+04  4.802131E+04  2.876695E+04  5.127423E-11  5.595301E-11
       369  13  6.361803E+04  6.000753E+04  1.349506E+04  5.931546E+04  3.267832E-12  6.589615E-11
       369  14  6.616236E+04  6.442010E+04  2.476226E+04  5.237028E+04  1.551867E-10 -6.533697E-11
       369  15  7.866441E+04  8.676850E+04  4.952093E+04  3.924562E+04  4.571588E-11 -1.915673E-11
       369  16  4.997359E+04  5.102657E+04  1.106959E+04  5.256024E+04 -8.794746E-11 -1.818581E-11
       369  17  4.642384E+04  7.604279E+04  2.416176E+04  5.423163E+04  8.350404E-11  5.370997E-11
       369  18  5.290078E+04  1.190644E+05  5.102103E+04  4.972344E+04 -3.205568E-11 -3.692002E-12
       369  19  7.726306E+04  6.898888E+04  1.592088E+04  6.607103E+04  8.182230E+03  8.079472E+03
       369  20  8.590256E+04  5.279813E+04  2.536398E+04  5.050889E+04  1.847321E+04  1.479932E+04
       369  21  1.044319E+05  5.447599E+04  4.802373E+04  2.876745E+04  2.865405E+04  2.166550E+04
       369  22  6.361809E+04  6.000760E+04  1.349524E+04  5.931550E+04  6.645072E+03  6.926752E+03
       369  23  6.616273E+04  6.442038E+04  2.476318E+04  5.237047E+04  1.725336E+04  1.388529E+04
       369  24  7.866536E+04  8.676918E+04  4.952320E+04  3.924609E+04  2.775131E+04  2.099076E+04
       369  25  4.997363E+04  5.102662E+04  1.106970E+04  5.256026E+04  5.107989E+03  5.774086E+03
       369  26  4.642417E+04  7.604304E+04  2.416256E+04  5.423180E+04  1.603360E+04  1.297122E+04
       369  27  5.290166E+04  1.190650E+05  5.102316E+04  4.972388E+04  2.684865E+04  2.031595E+04
       370   1  3.006947E+05  6.790507E+04  6.401760E+04  6.098727E+04  2.031322E+04 -3.274320E+03
       370   2  2.496775E+05  5.497124E+04  4.251642E+04  5.769472E+04  7.577673E+03 -1.048281E+04
       370   3  2.005978E+05  4.312290E+04  2.957584E+04  6.282314E+04 -5.155673E+03 -1.142938E+04
       370   4  1.416401E+04 -2.793440E+03 -2.998164E+03  6.285659E+04 -2.027736E+03 -3.274204E+03
       370   5  1.437481E+04 -8.967528E+02 -1.558414E+03  5.864599E+04 -1.231483E+03 -1.048334E+04
       370   6  1.417171E+04 -2.631490E+02 -9.526053E+02  6.285656E+04 -4.343258E+02 -1.142942E+04
       370   7 -2.722900E+05 -7.349749E+04 -7.001764E+04  6.472503E+04 -2.435845E+04 -3.274223E+03
       370   8 -2.208742E+05 -5.676790E+04 -4.563534E+04  5.959689E+04 -1.003739E+04 -1.048389E+04
       370   9 -1.722199E+05 -4.365097E+04 -3.148196E+04  6.288997E+04  4.285653E+03 -1.142945E+04
       370  10  3.006942E+05  6.790495E+04  6.401681E+04  6.098732E+04  3.206867E-11 -2.219909E-11
       370  11  2.496774E+05  5.497111E+04  4.251610E+04  5.769479E+04 -1.686737E-10 -8.590648E-11
       370  12  2.005977E+05  4.312275E+04  2.957554E+04  6.282309E+04 -2.774734E-10  8.235925E-11
       370  13  1.416400E+04 -2.793452E+03 -2.998192E+03  6.285658E+04  6.806862E-11 -4.240098E-11
       370  14  1.437478E+04 -8.968712E+02 -1.558623E+03  5.864598E+04 -5.468402E-11 -6.699641E-11
       370  15  1.417168E+04 -2.632893E+02 -9.528511E+02  6.285656E+04  2.224451E-10  1.072142E-10
       370  16 -2.722906E+05 -7.349766E+04 -7.001878E+04  6.472497E+04  1.444916E-10 -1.132278E-11
       370  17 -2.208743E+05 -5.676805E+04 -4.563574E+04  5.959681E+04  2.291672E-10  6.751858E-12
       370  18 -1.722199E+05 -4.365111E+04 -3.148224E+04  6.289001E+04  3.768537E-10  8.399284E-11
       370  19  3.006947E+05  6.790507E+04  6.401760E+04  6.098727E+04 -2.031322E+04  3.274320E+03
       370  20  2.496775E+05  5.497124E+04  4.251642E+04  5.769472E+04 -7.577673E+03  1.048281E+04
       370  21  2.005978E+05  4.312290E+04  2.957584E+04  6.282314E+04  5.155673E+03  1.142938E+04
       370  22  1.416401E+04 -2.793440E+03 -2.998164E+03  6.285659E+04  2.027736E+03  3.274204E+03
       370  23  1.437481E+04 -8.967528E+02 -1.558414E+03  5.864599E+04  1.231483E+03  1.048334E+04
       370  24  1.417171E+04 -2.631490E+02 -9.526053E+02  6.285656E+04  4.343258E+02  1.142942E+04
       370  25 -2.722900E+05 -7.349749E+04 -7.001764E+04  6.472503E+04  2.435845E+04  3.274223E+03
       370  26 -2.208742E+05 -5.676790E+04 -4.563534E+04  5.959689E+04  1.003739E+04  1.048389E+04
       370  27 -1.722199E+05 -4.365097E+04 -3.148196E+04  6.288997E+04 -4.285653E+03  1.142945E+04
       371   1  1.690257E+05  3.570303E+04  2.395289E+04  6.282729E+04 -5.118089E+03 -9.908682E+03
       371   2  1.189313E+05  2.404180E+04  1.516245E+04  5.845819E+04 -6.273174E+03 -7.331831E+03
       371   3  6.902018E+04  1.249856E+04  7.153555E+03  6.296007E+04 -7.428337E+03 -4.061929E+03
       371   4  1.424827E+04 -2.003325E+02 -8.037282E+02  6.295653E+04 -2.993832E+02 -9.908558E+03
       371   5  1.428918E+04 -5.469590E+01 -6.864372E+02  5.852098E+04  4.258746E+01 -7.331410E+03
       371   6  1.425180E+04 -5.065268E+01 -8.269615E+02  6.295652E+04  3.844142E+02 -4.061150E+03
       371   7 -1.405053E+05 -3.610488E+04 -2.556089E+04  6.308573E+04  4.518165E+03 -9.908431E+03
       371   8 -9.034186E+04 -2.415169E+04 -1.653540E+04  5.858376E+04  6.357326E+03 -7.330988E+03
       371   9 -4.051343E+04 -1.259997E+04 -8.807299E+03  6.295298E+04  8.196505E+03 -4.060371E+03
       371  10  1.690257E+05  3.570291E+04  2.395266E+04  6.282725E+04  2.501431E-10  1.137778E-10
       371  11  1.189312E+05  2.404173E+04  1.516228E+04  5.845815E+04 -9.548165E-11  4.791247E-11
       371  12  6.902012E+04  1.249853E+04  7.153421E+03  6.296004E+04 -2.011968E-10  5.755152E-11
       371  13  1.424824E+04 -2.004380E+02 -8.039128E+02  6.295653E+04  6.102381E-11  7.777218E-12
       371  14  1.428917E+04 -5.475362E+01 -6.865382E+02  5.852098E+04 -3.235342E-11  4.042242E-11
       371  15  1.425180E+04 -5.067043E+01 -8.269928E+02  6.295652E+04  6.305115E-13 -1.274030E-11
       371  16 -1.405054E+05 -3.610499E+04 -2.556111E+04  6.308577E+04 -1.424763E-10  2.961666E-11
       371  17 -9.034192E+04 -2.415176E+04 -1.653558E+04  5.858379E+04  1.050846E-11 -7.992066E-12
       371  18 -4.051351E+04 -1.260001E+04 -8.807456E+03  6.295300E+04  1.858898E-10  6.349242E-11
       371  19  1.690257E+05  3.570303E+04  2.395289E+04  6.282729E+04  5.118089E+03  9.908682E+03
       371  20  1.189313E+05  2.404180E+04  1.516245E+04  5.845819E+04  6.273174E+03  7.331831E+03
       371  21  6.902018E+04  1.249856E+04  7.153555E+03  6.296007E+04  7.428337E+03  4.061929E+03
       371  22  1.424827E+04 -2.003325E+02 -8.037282E+02  6.295653E+04  2.993832E+02  9.908558E+03
       371  23  1.428918E+04 -5.469590E+01 -6.864372E+02  5.852098E+04 -4.258746E+01  7.331410E+03
       371  24  1.425180E+04 -5.065268E+01 -8.269615E+02  6.295652E+04 -3.844142E+02  4.061150E+03
       371  25 -1.405053E+05 -3.610488E+04 -2.556089E+04  6.308573E+04 -4.518165E+03  9.908431E+03
       371  26 -9.034186E+04 -2.415169E+04 -1.653540E+04  5.858376E+04 -6.357326E+03  7.330988E+03
       371  27 -4.051343E+04 -1.259997E+04 -8.807299E+03  6.295298E+04 -8.196505E+03  4.060371E+03
       372   1  3.766891E+04  5.265050E+03  2.189794E+03  6.290358E+04 -7.276715E+03 -1.907298E+03
       372   2 -1.212841E+04 -6.454517E+03 -6.132929E+03  5.874377E+04 -5.460787E+03  1.475335E+03
       372   3 -6.232573E+04 -1.884078E+04 -1.580456E+04  6.346900E+04 -3.644974E+03  4.386276E+03
       372   4  1.421954E+04 -6.089079E+01 -9.914182E+02  6.295962E+04  5.389342E+02 -1.906466E+03
       372   5  1.433187E+04 -2.545855E+02 -1.593361E+03  5.851714E+04  1.335770E+03  1.476013E+03
       372   6  1.421866E+04 -9.379387E+02 -2.836584E+03  6.295968E+04  2.132627E+03  4.386808E+03
       372   7 -9.229137E+03 -5.386823E+03 -4.172407E+03  6.301565E+04  8.354302E+03 -1.905632E+03
       372   8  4.079295E+04  5.945333E+03  2.946356E+03  5.829049E+04  8.132607E+03  1.476685E+03
       372   9  9.076890E+04  1.696461E+04  1.013132E+04  6.245029E+04  7.910918E+03  4.387330E+03
       372  10  3.766885E+04  5.265032E+03  2.189688E+03  6.290357E+04  7.632064E-11 -2.164096E-11
       372  11 -1.212845E+04 -6.454527E+03 -6.132989E+03  5.874378E+04 -2.306799E-10 -1.004386E-10
       372  12 -6.232575E+04 -1.884080E+04 -1.580462E+04  6.346901E+04 -1.789136E-10  2.488317E-11
       372  13  1.421954E+04 -6.089477E+01 -9.914256E+02  6.295962E+04  1.343605E-10  2.199166E-11
       372  14  1.433187E+04 -2.545883E+02 -1.593369E+03  5.851713E+04  1.640169E-10 -7.450314E-11
       372  15  1.421865E+04 -9.379606E+02 -2.836628E+03  6.295967E+04  2.215027E-11 -5.261187E-11
       372  16 -9.229213E+03 -5.386846E+03 -4.172544E+03  6.301566E+04 -7.841212E-11  5.607108E-11
       372  17  4.079287E+04  5.945313E+03  2.946227E+03  5.829048E+04  2.847345E-11 -6.857361E-12
       372  18  9.076883E+04  1.696457E+04  1.013117E+04  6.245027E+04  2.751911E-10 -2.514167E-11
       372  19  3.766891E+04  5.265050E+03  2.189794E+03  6.290358E+04  7.276715E+03  1.907298E+03
       372  20 -1.212841E+04 -6.454517E+03 -6.132929E+03  5.874377E+04  5.460787E+03 -1.475335E+03
       372  21 -6.232573E+04 -1.884078E+04 -1.580456E+04  6.346900E+04  3.644974E+03 -4.386276E+03
       372  22  1.421954E+04 -6.089079E+01 -9.914182E+02  6.295962E+04 -5.389342E+02  1.906466E+03
       372  23  1.433187E+04 -2.545855E+02 -1.593361E+03  5.851714E+04 -1.335770E+03 -1.476013E+03
       372  24  1.421866E+04 -9.379387E+02 -2.836584E+03  6.295968E+04 -2.132627E+03 -4.386808E+03
       372  25 -9.229137E+03 -5.386823E+03 -4.172407E+03  6.301565E+04 -8.354302E+03  1.905632E+03
       372  26  4.079295E+04  5.945333E+03  2.946356E+03  5.829049E+04 -8.132607E+03 -1.476685E+03
       372  27  9.076890E+04  1.696461E+04  1.013132E+04  6.245029E+04 -7.910918E+03 -4.387330E+03
       373   1 -9.423776E+04 -2.651332E+04 -2.218791E+04  6.297843E+04 -3.084434E+03  6.109777E+03
       373   2 -1.424375E+05 -4.160757E+04 -3.714853E+04  6.293134E+04  1.044620E+04  6.435422E+03
       373   3 -1.942868E+05 -6.427327E+04 -6.281147E+04  7.143994E+04  2.397507E+04  2.126159E+03
       373   4  1.384241E+04 -1.210399E+03 -3.758753E+03  6.288659E+04  2.621771E+03  6.110207E+03
       373   5  1.479679E+04 -4.106148E+03 -6.885551E+03  5.860885E+04  6.143259E+03  6.434929E+03
       373   6  1.383730E+04 -1.283452E+04 -1.376282E+04  6.288707E+04  9.664312E+03  2.125100E+03
       373   7  1.219341E+05  2.409192E+04  1.467014E+04  6.279473E+04  8.328937E+03  6.110636E+03
       373   8  1.720550E+05  3.339388E+04  2.337636E+04  5.428523E+04  1.839255E+03  6.434496E+03
       373   9  2.220018E+05  3.860151E+04  3.528365E+04  5.433131E+04 -4.651215E+03  2.124436E+03
       373  10 -9.423778E+04 -2.651337E+04 -2.218800E+04  6.297844E+04 -2.034857E-11 -4.259492E-12
       373  11 -1.424376E+05 -4.160764E+04 -3.714881E+04  6.293129E+04 -6.475526E-11 -9.052552E-11
       373  12 -1.942874E+05 -6.427343E+04 -6.281256E+04  7.143990E+04 -1.386179E-10 -2.526463E-11
       373  13  1.384240E+04 -1.210440E+03 -3.758836E+03  6.288657E+04  1.384813E-10 -4.502879E-12
       373  14  1.479674E+04 -4.106202E+03 -6.885700E+03  5.860881E+04  5.383687E-11 -1.294162E-10
       373  15  1.383720E+04 -1.283455E+04 -1.376301E+04  6.288705E+04 -8.797116E-11 -3.805582E-11
       373  16  1.219341E+05  2.409186E+04  1.466994E+04  6.279469E+04 -9.628610E-12 -1.887242E-11
       373  17  1.720549E+05  3.339384E+04  2.337628E+04  5.428522E+04  2.493149E-11  2.671979E-11
       373  18  2.220018E+05  3.860150E+04  3.528360E+04  5.433132E+04 -2.392549E-11 -1.493659E-11
       373  19 -9.423776E+04 -2.651332E+04 -2.218791E+04  6.297843E+04  3.084434E+03 -6.109777E+03
       373  20 -1.424375E+05 -4.160757E+04 -3.714853E+04  6.293134E+04 -1.044620E+04 -6.435422E+03
       373  21 -1.942868E+05 -6.427327E+04 -6.281147E+04  7.143994E+04 -2.397507E+04 -2.126159E+03
       373  22  1.384241E+04 -1.210399E+03 -3.758753E+03  6.288659E+04 -2.621771E+03 -6.110207E+03
       373  23  1.479679E+04 -4.106148E+03 -6.885551E+03  5.860885E+04 -6.143259E+03 -6.434929E+03
       373  24  1.383730E+04 -1.283452E+04 -1.376282E+04  6.288707E+04 -9.664312E+03 -2.125100E+03
       373  25  1.219341E+05  2.409192E+04  1.467014E+04  6.279473E+04 -8.328937E+03 -6.110636E+03
       373  26  1.720550E+05  3.339388E+04  2.337636E+04  5.428523E+04 -1.839255E+03 -6.434496E+03
       373  27  2.220018E+05  3.860151E+04  3.528365E+04  5.433131E+04  4.651215E+03 -2.124436E+03
       374   1 -7.033057E+04 -2.786914E+05 -6.999838E+04  9.453298E+04 -1.711682E+03 -2.786951E+04
       374   2 -3.852619E+04 -2.125902E+05 -3.780863E+04  8.185259E+04 -4.718308E+03 -1.245631E+04
       374   3 -1.827042E+04 -1.513821E+05 -1.854445E+04  8.017204E+04 -3.318229E+03  2.958381E+03
       374   4 -2.178600E+04 -8.260416E+04 -2.336360E+04  8.004367E+04 -1.708094E+03 -1.661249E+04
       374   5 -6.948325E+03 -8.097896E+04 -1.153081E+04  7.454114E+04 -4.717606E+03 -1.071330E+04
       374   6 -2.005599E+03 -8.259779E+04 -6.013470E+03  8.003913E+04 -3.320490E+03 -4.814441E+03
       374   7  2.675667E+04  1.135191E+05  2.326909E+04  6.554975E+04 -1.705031E+03 -5.351920E+03
       374   8  2.462868E+04  5.064898E+04  1.474619E+04  6.722809E+04 -4.716946E+03 -8.969936E+03
       374   9  1.425899E+04 -1.380876E+04  6.517546E+03  7.990620E+04 -3.322748E+03 -1.258810E+04
       374  10 -7.033078E+04 -2.786922E+05 -6.999985E+04  9.453294E+04 -5.948266E-11 -1.653736E-10
       374  11 -3.852625E+04 -2.125904E+05 -3.780897E+04  8.185255E+04 -4.624376E-11 -8.452698E-11
       374  12 -1.827043E+04 -1.513821E+05 -1.854449E+04  8.017205E+04 -1.371544E-10  1.558685E-10
       374  13 -2.178607E+04 -8.260446E+04 -2.336412E+04  8.004364E+04 -7.237160E-11  1.169653E-10
       374  14 -6.948380E+03 -8.097909E+04 -1.153106E+04  7.454109E+04 -1.233273E-11 -1.577290E-10
       374  15 -2.005617E+03 -8.259782E+04 -6.013534E+03  8.003911E+04 -1.974219E-10  5.495779E-11
       374  16  2.675666E+04  1.135191E+05  2.326903E+04  6.554975E+04  1.075319E-10  2.057353E-10
       374  17  2.462863E+04  5.064889E+04  1.474600E+04  6.722806E+04  5.065437E-12  3.351998E-11
       374  18  1.425893E+04 -1.380893E+04  6.517228E+03  7.990617E+04 -4.026351E-11 -1.394729E-10
       374  19 -7.033057E+04 -2.786914E+05 -6.999838E+04  9.453298E+04  1.711682E+03  2.786951E+04
       374  20 -3.852619E+04 -2.125902E+05 -3.780863E+04  8.185259E+04  4.718308E+03  1.245631E+04
       374  21 -1.827042E+04 -1.513821E+05 -1.854445E+04  8.017204E+04  3.318229E+03 -2.958381E+03
       374  22 -2.178600E+04 -8.260416E+04 -2.336360E+04  8.004367E+04  1.708094E+03  1.661249E+04
       374  23 -6.948325E+03 -8.097896E+04 -1.153081E+04  7.454114E+04  4.717606E+03  1.071330E+04
       374  24 -2.005599E+03 -8.259779E+04 -6.013470E+03  8.003913E+04  3.320490E+03  4.814441E+03
       374  25  2.675667E+04  1.135191E+05  2.326909E+04  6.554975E+04  1.705031E+03  5.351920E+03
       374  26  2.462868E+04  5.064898E+04  1.474619E+04  6.722809E+04  4.716946E+03  8.969936E+03
       374  27  1.425899E+04 -1.380876E+04  6.517546E+03  7.990620E+04  3.322748E+03  1.258810E+04
       375   1 -8.426069E+03 -1.106357E+05 -1.004395E+04  8.092174E+04 -1.021432E+03  3.772061E+03
       375   2  7.741977E+03 -4.690721E+04  3.421919E+03  7.496013E+04  2.516870E+03  4.274715E+03
       375   3  2.341118E+04  1.663144E+04  1.643428E+04  8.027102E+04  5.879038E+03  4.777514E+03
       375   4 -1.537989E+03 -8.193394E+04 -4.305748E+03  8.009984E+04 -1.023776E+03 -4.059780E+03
       375   5 -2.758488E+02 -8.180474E+04 -1.765563E+03  7.446330E+04  2.514723E+03 -3.176966E+03
       375   6  4.216523E+02 -8.193531E+04  5.716938E+01  8.009935E+04  5.877079E+03 -2.294051E+03
       375   7  5.350076E+03 -5.323122E+04  1.432645E+03  7.927790E+04 -1.026099E+03 -1.189198E+04
       375   8 -8.293701E+03 -1.167009E+05 -6.952859E+03  7.396651E+04  2.512588E+03 -1.062824E+04
       375   9 -2.256835E+04 -1.804923E+05 -1.632005E+04  7.992771E+04  5.875123E+03 -9.364532E+03
       375  10 -8.426074E+03 -1.106358E+05 -1.004398E+04  8.092175E+04  4.534455E-11 -2.088723E-11
       375  11  7.741965E+03 -4.690723E+04  3.421872E+03  7.496012E+04 -1.914446E-10  1.364249E-10
       375  12  2.341113E+04  1.663140E+04  1.643417E+04  8.027100E+04 -8.049892E-13  2.011641E-10
       375  13 -1.537995E+03 -8.193396E+04 -4.305781E+03  8.009984E+04 -5.429797E-11  4.338684E-11
       375  14 -2.758583E+02 -8.180476E+04 -1.765594E+03  7.446331E+04 -1.373407E-10 -4.831530E-11
       375  15  4.216138E+02 -8.193532E+04  5.709458E+01  8.009936E+04 -1.619202E-10  1.427691E-10
       375  16  5.350037E+03 -5.323137E+04  1.432377E+03  7.927789E+04 -1.177347E-10  6.259046E-11
       375  17 -8.293738E+03 -1.167011E+05 -6.953084E+03  7.396653E+04 -1.060962E-10 -5.238730E-12
       375  18 -2.256841E+04 -1.804924E+05 -1.632028E+04  7.992775E+04  5.975169E-11 -2.458605E-10
       375  19 -8.426069E+03 -1.106357E+05 -1.004395E+04  8.092174E+04  1.021432E+03 -3.772061E+03
       375  20  7.741977E+03 -4.690721E+04  3.421919E+03  7.496013E+04 -2.516870E+03 -4.274715E+03
       375  21  2.341118E+04  1.663144E+04  1.643428E+04  8.027102E+04 -5.879038E+03 -4.777514E+03
       375  22 -1.537989E+03 -8.193394E+04 -4.305748E+03  8.009984E+04  1.023776E+03  4.059780E+03
       375  23 -2.758488E+02 -8.180474E+04 -1.765563E+03  7.446330E+04 -2.514723E+03  3.176966E+03
       375  24  4.216523E+02 -8.193531E+04  5.716938E+01  8.009935E+04 -5.877079E+03  2.294051E+03
       375  25  5.350076E+03 -5.323122E+04  1.432645E+03  7.927790E+04  1.026099E+03  1.189198E+04
       375  26 -8.293701E+03 -1.167009E+05 -6.952859E+03  7.396651E+04 -2.512588E+03  1.062824E+04
       375  27 -2.256835E+04 -1.804923E+05 -1.632005E+04  7.992771E+04 -5.875123E+03  9.364532E+03
       376   1  3.301322E+04  5.706978E+04  2.433677E+04  8.005431E+04  8.014287E+03  4.645538E+03
       376   2  5.013456E+04  1.191627E+05  4.173858E+04  7.680121E+04  8.306657E+03 -9.639574E+03
       376   3  7.243437E+04  1.844129E+05  6.973396E+04  8.443031E+04  2.722534E+03 -2.392571E+04
       376   4  5.821156E+02 -8.166797E+04  9.202613E+02  8.001269E+04  8.012500E+03 -2.341433E+03
       376   5  2.144153E+03 -8.214764E+04  3.096852E+03  7.457092E+04  8.308318E+03 -3.930729E+03
       376   6  6.681981E+03 -8.167615E+04  7.051696E+03  8.001137E+04  2.726864E+03 -5.519673E+03
       376   7 -3.184997E+04 -2.203866E+05 -2.249667E+04  7.997108E+04  8.010714E+03 -9.326892E+03
       376   8 -4.584862E+04 -2.834189E+05 -3.554661E+04  7.234137E+04  8.309940E+03  1.776308E+03
       376   9 -5.907521E+04 -3.476993E+05 -5.563416E+04  7.559433E+04  2.730934E+03  1.287852E+04
       376  10  3.301314E+04  5.706973E+04  2.433660E+04  8.005428E+04 -1.309730E-10 -2.202219E-10
       376  11  5.013446E+04  1.191626E+05  4.173828E+04  7.680127E+04 -1.519359E-10 -6.296622E-11
       376  12  7.243421E+04  1.844123E+05  6.973287E+04  8.443037E+04 -5.629391E-11  1.057542E-10
       376  13  5.820452E+02 -8.166799E+04  9.201304E+02  8.001271E+04  1.165421E-10 -1.047648E-10
       376  14  2.144075E+03 -8.214768E+04  3.096693E+03  7.457094E+04 -1.360607E-10 -8.248457E-11
       376  15  6.681965E+03 -8.167618E+04  7.051625E+03  8.001138E+04  2.236445E-11  4.427597E-12
       376  16 -3.185006E+04 -2.203868E+05 -2.249696E+04  7.997114E+04 -9.782929E-11  1.508731E-10
       376  17 -4.584869E+04 -2.834189E+05 -3.554675E+04  7.234135E+04 -1.822578E-10  9.426278E-11
       376  18 -5.907526E+04 -3.476995E+05 -5.563448E+04  7.559430E+04 -2.899446E-12 -1.234824E-10
       376  19  3.301322E+04  5.706978E+04  2.433677E+04  8.005431E+04 -8.014287E+03 -4.645538E+03
       376  20  5.013456E+04  1.191627E+05  4.173858E+04  7.680121E+04 -8.306657E+03  9.639574E+03
       376  21  7.243437E+04  1.844129E+05  6.973396E+04  8.443031E+04 -2.722534E+03  2.392571E+04
       376  22  5.821156E+02 -8.166797E+04  9.202613E+02  8.001269E+04 -8.012500E+03  2.341433E+03
       376  23  2.144153E+03 -8.214764E+04  3.096852E+03  7.457092E+04 -8.308318E+03  3.930729E+03
       376  24  6.681981E+03 -8.167615E+04  7.051696E+03  8.001137E+04 -2.726864E+03  5.519673E+03
       376  25 -3.184997E+04 -2.203866E+05 -2.249667E+04  7.997108E+04 -8.010714E+03  9.326892E+03
       376  26 -4.584862E+04 -2.834189E+05 -3.554661E+04  7.234137E+04 -8.309940E+03 -1.776308E+03
       376  27 -5.907521E+04 -3.476993E+05 -5.563416E+04  7.559433E+04 -2.730934E+03 -1.287852E+04
       377   1  1.696744E+05  1.603572E+05  5.419826E+04  1.150278E+05  2.626534E+04  1.818243E+04
       377   2  1.662356E+05  1.320343E+05  3.185954E+04  1.193894E+05  1.788784E+04  8.226243E+03
       377   3  1.708158E+05  1.159949E+05  2.150166E+04  1.194036E+05  8.374672E+03 -2.153994E+02
       377   4  1.244689E+05  9.401388E+04  3.352769E+04  7.679315E+04  1.954766E+04  1.314393E+04
       377   5  1.157208E+05  7.916783E+04  1.679049E+04  8.576059E+04  1.444241E+04  5.642191E+03
       377   6  1.142823E+05  7.589596E+04  9.194779E+03  9.038041E+04  8.201701E+03 -3.451869E+02
       377   7  7.926536E+04  2.767571E+04  1.285657E+04  3.856202E+04  1.283045E+04  8.106494E+03
       377   8  6.520918E+04  2.630537E+04  1.721293E+03  5.213558E+04  1.099733E+04  3.058594E+03
       377   9  5.775401E+04  3.580003E+04 -3.111799E+03  6.136097E+04  8.028754E+03 -4.749556E+02
       377  10  1.696736E+05  1.603567E+05  5.419635E+04  1.150274E+05 -2.043802E-11 -2.241665E-11
       377  11  1.662352E+05  1.320341E+05  3.185881E+04  1.193893E+05  1.793947E-11 -7.160558E-11
       377  12  1.708157E+05  1.159949E+05  2.150153E+04  1.194036E+05 -1.146063E-10  2.051797E-11
       377  13  1.244685E+05  9.401359E+04  3.352664E+04  7.679295E+04  1.247537E-10  2.309194E-11
       377  14  1.157206E+05  7.916774E+04  1.679003E+04  8.576053E+04  3.189863E-10  9.302866E-11
       377  15  1.142823E+05  7.589594E+04  9.194652E+03  9.038041E+04 -5.547711E-11  4.297261E-11
       377  16  7.926517E+04  2.767560E+04  1.285614E+04  3.856194E+04  1.216386E-10  1.027579E-11
       377  17  6.520905E+04  2.630532E+04  1.721048E+03  5.213555E+04 -8.445474E-11  1.807136E-10
       377  18  5.775394E+04  3.580001E+04 -3.111920E+03  6.136097E+04  1.229187E-10  1.908680E-10
       377  19  1.696744E+05  1.603572E+05  5.419826E+04  1.150278E+05 -2.626534E+04 -1.818243E+04
       377  20  1.662356E+05  1.320343E+05  3.185954E+04  1.193894E+05 -1.788784E+04 -8.226243E+03
       377  21  1.708158E+05  1.159949E+05  2.150166E+04  1.194036E+05 -8.374672E+03  2.153994E+02
       377  22  1.244689E+05  9.401388E+04  3.352769E+04  7.679315E+04 -1.954766E+04 -1.314393E+04
       377  23  1.157208E+05  7.916783E+04  1.679049E+04  8.576059E+04 -1.444241E+04 -5.642191E+03
       377  24  1.142823E+05  7.589596E+04  9.194779E+03  9.038041E+04 -8.201701E+03  3.451869E+02
       377  25  7.926536E+04  2.767571E+04  1.285657E+04  3.856202E+04 -1.283045E+04 -8.106494E+03
       377  26  6.520918E+04  2.630537E+04  1.721293E+03  5.213558E+04 -1.099733E+04 -3.058594E+03
       377  27  5.775401E+04  3.580003E+04 -3.111799E+03  6.136097E+04 -8.028754E+03  4.749556E+02
       378   1  1.663906E+05  1.143970E+05  1.840121E+04  1.182907E+05  7.380096E+03 -9.408396E+02
       378   2  1.626780E+05  1.092341E+05  1.406584E+04  1.166354E+05  5.375231E+03 -2.407788E+03
       378   3  1.589058E+05  1.060398E+05  1.166444E+04  1.149493E+05  3.232095E+03 -3.690322E+03
       378   4  1.134299E+05  7.517257E+04  6.961582E+03  9.026767E+04  7.231000E+03 -1.052732E+03
       378   5  1.131134E+05  7.353850E+04  3.971502E+03  9.080303E+04  5.624771E+03 -2.220734E+03
       378   6  1.126509E+05  7.378669E+04  2.569609E+03  9.130765E+04  3.880227E+03 -3.204338E+03
       378   7  6.047250E+04  3.595014E+04 -4.478183E+03  6.224748E+04  7.081922E+03 -1.164611E+03
       378   8  6.355118E+04  3.784410E+04 -6.123134E+03  6.497283E+04  5.874287E+03 -2.033698E+03
       378   9  6.639751E+04  4.153412E+04 -6.525657E+03  6.766752E+04  4.528311E+03 -2.718391E+03
       378  10  1.663905E+05  1.143970E+05  1.840111E+04  1.182907E+05  1.310307E-10  2.012753E-10
       378  11  1.626779E+05  1.092341E+05  1.406578E+04  1.166354E+05  1.492397E-10  2.994332E-11
       378  12  1.589058E+05  1.060398E+05  1.166439E+04  1.149493E+05  9.737410E-11 -6.376239E-11
       378  13  1.134298E+05  7.517255E+04  6.961481E+03  9.026767E+04 -1.608575E-10  3.223157E-11
       378  14  1.131134E+05  7.353848E+04  3.971433E+03  9.080304E+04  1.991934E-11 -1.427827E-10
       378  15  1.126509E+05  7.378667E+04  2.569561E+03  9.130766E+04 -1.061665E-11 -5.654294E-11
       378  16  6.047244E+04  3.595012E+04 -4.478280E+03  6.224749E+04 -1.919294E-10 -4.582189E-11
       378  17  6.355114E+04  3.784409E+04 -6.123207E+03  6.497284E+04 -4.093386E-11 -7.366249E-11
       378  18  6.639748E+04  4.153410E+04 -6.525709E+03  6.766753E+04  7.254768E-11 -1.307551E-10
       378  19  1.663906E+05  1.143970E+05  1.840121E+04  1.182907E+05 -7.380096E+03  9.408396E+02
       378  20  1.626780E+05  1.092341E+05  1.406584E+04  1.166354E+05 -5.375231E+03  2.407788E+03
       378  21  1.589058E+05  1.060398E+05  1.166444E+04  1.149493E+05 -3.232095E+03  3.690322E+03
       378  22  1.134299E+05  7.517257E+04  6.961582E+03  9.026767E+04 -7.231000E+03  1.052732E+03
       378  23  1.131134E+05  7.353850E+04  3.971502E+03  9.080303E+04 -5.624771E+03  2.220734E+03
       378  24  1.126509E+05  7.378669E+04  2.569609E+03  9.130765E+04 -3.880227E+03  3.204338E+03
       378  25  6.047250E+04  3.595014E+04 -4.478183E+03  6.224748E+04 -7.081922E+03  1.164611E+03
       378  26  6.355118E+04  3.784410E+04 -6.123134E+03  6.497283E+04 -5.874287E+03  2.033698E+03
       378  27  6.639751E+04  4.153412E+04 -6.525657E+03  6.766752E+04 -4.528311E+03  2.718391E+03
       379   1  1.562090E+05  1.043698E+05  1.076905E+04  1.136948E+05  2.763180E+03 -3.758179E+03
       379   2  1.526383E+05  1.009927E+05  9.741876E+03  1.115129E+05  1.670459E+03 -4.085856E+03
       379   3  1.483301E+05  9.876831E+04  9.466812E+03  1.095932E+05  5.575764E+02 -4.386608E+03
       379   4  1.125805E+05  7.373602E+04  2.216671E+03  9.128654E+04  3.414192E+03 -3.270026E+03
       379   5  1.129620E+05  7.317690E+04  2.012059E+03  9.114742E+04  2.379668E+03 -3.554045E+03
       379   6  1.125931E+05  7.375795E+04  2.509059E+03  9.127056E+04  1.324963E+03 -3.811151E+03
       379   7  6.895547E+04  4.310418E+04 -6.335394E+03  6.888061E+04  4.065127E+03 -2.781929E+03
       379   8  7.328812E+04  4.536250E+04 -5.717625E+03  7.078373E+04  3.088808E+03 -3.022286E+03
       379   9  7.685773E+04  4.874843E+04 -4.448713E+03  7.294914E+04  2.092290E+03 -3.235738E+03
       379  10  1.562089E+05  1.043698E+05  1.076901E+04  1.136948E+05 -2.141699E-10 -3.048230E-10
       379  11  1.526383E+05  1.009926E+05  9.741839E+03  1.115129E+05 -4.320009E-11 -5.227543E-11
       379  12  1.483301E+05  9.876829E+04  9.466775E+03  1.095932E+05 -1.564331E-12  1.756835E-10
       379  13  1.125805E+05  7.373601E+04  2.216629E+03  9.128655E+04  2.479482E-10 -1.142218E-10
       379  14  1.129620E+05  7.317688E+04  2.012024E+03  9.114742E+04  4.721873E-11  1.839346E-13
       379  15  1.125931E+05  7.375793E+04  2.509028E+03  9.127056E+04  1.065264E-10  6.845918E-11
       379  16  6.895545E+04  4.310417E+04 -6.335440E+03  6.888062E+04  4.454610E-10  8.831475E-11
       379  17  7.328810E+04  4.536249E+04 -5.717661E+03  7.078374E+04 -1.892360E-11  4.100563E-11
       379  18  7.685772E+04  4.874842E+04 -4.448741E+03  7.294914E+04  1.008589E-10 -8.970411E-11
       379  19  1.562090E+05  1.043698E+05  1.076905E+04  1.136948E+05 -2.763180E+03  3.758179E+03
       379  20  1.526383E+05  1.009927E+05  9.741876E+03  1.115129E+05 -1.670459E+03  4.085856E+03
       379  21  1.483301E+05  9.876831E+04  9.466812E+03  1.095932E+05 -5.575764E+02  4.386608E+03
       379  22  1.125805E+05  7.373602E+04  2.216671E+03  9.128654E+04 -3.414192E+03  3.270026E+03
       379  23  1.129620E+05  7.317690E+04  2.012059E+03  9.114742E+04 -2.379668E+03  3.554045E+03
       379  24  1.125931E+05  7.375795E+04  2.509059E+03  9.127056E+04 -1.324963E+03  3.811151E+03
       379  25  6.895547E+04  4.310418E+04 -6.335394E+03  6.888061E+04 -4.065127E+03  2.781929E+03
       379  26  7.328812E+04  4.536250E+04 -5.717625E+03  7.078373E+04 -3.088808E+03  3.022286E+03
       379  27  7.685773E+04  4.874843E+04 -4.448713E+03  7.294914E+04 -2.092290E+03  3.235738E+03
       380   1  1.457807E+05  9.725971E+04  9.497180E+03  1.084016E+05  2.142397E+01 -4.466509E+03
       380   2  1.431216E+05  9.345097E+04  1.067163E+04  1.055067E+05 -2.319151E+03 -5.634454E+03
       380   3  1.405208E+05  9.181906E+04  1.390097E+04  1.025015E+05 -4.690389E+03 -6.761605E+03
       380   4  1.126820E+05  7.382991E+04  3.035036E+03  9.130362E+04  7.896715E+02 -3.890393E+03
       380   5  1.131582E+05  7.363287E+04  4.924138E+03  9.069716E+04 -1.462619E+03 -4.992119E+03
       380   6  1.136736E+05  7.559355E+04  8.791636E+03  8.998042E+04 -3.745535E+03 -6.053036E+03
       380   7  7.958396E+04  5.040028E+04 -3.427398E+03  7.420638E+04  1.557882E+03 -3.314305E+03
       380   8  8.319586E+04  5.381528E+04 -8.233713E+02  7.588844E+04 -6.061417E+02 -4.349822E+03
       380   9  8.682788E+04  5.936875E+04  3.682489E+03  7.746016E+04 -2.800757E+03 -5.344516E+03
       380  10  1.457807E+05  9.725969E+04  9.497142E+03  1.084016E+05  1.006426E-11  1.353885E-10
       380  11  1.431216E+05  9.345094E+04  1.067156E+04  1.055067E+05  1.602061E-10 -2.453441E-12
       380  12  1.405207E+05  9.181901E+04  1.390084E+04  1.025015E+05  7.691502E-11 -8.806867E-11
       380  13  1.126820E+05  7.382989E+04  3.035006E+03  9.130362E+04  4.052170E-11  5.758754E-11
       380  14  1.131582E+05  7.363285E+04  4.924087E+03  9.069715E+04  1.070337E-10 -7.915227E-11
       380  15  1.136736E+05  7.559351E+04  8.791541E+03  8.998040E+04  4.167645E-11 -6.736388E-11
       380  16  7.958396E+04  5.040027E+04 -3.427423E+03  7.420639E+04 -1.690417E-10 -1.200429E-10
       380  17  8.319585E+04  5.381526E+04 -8.234075E+02  7.588844E+04  1.185788E-10 -3.391345E-11
       380  18  8.682787E+04  5.936872E+04  3.682420E+03  7.746015E+04  9.262910E-11 -4.359627E-11
       380  19  1.457807E+05  9.725971E+04  9.497180E+03  1.084016E+05 -2.142397E+01  4.466509E+03
       380  20  1.431216E+05  9.345097E+04  1.067163E+04  1.055067E+05  2.319151E+03  5.634454E+03
       380  21  1.405208E+05  9.181906E+04  1.390097E+04  1.025015E+05  4.690389E+03  6.761605E+03
       380  22  1.126820E+05  7.382991E+04  3.035036E+03  9.130362E+04 -7.896715E+02  3.890393E+03
       380  23  1.131582E+05  7.363287E+04  4.924138E+03  9.069716E+04  1.462619E+03  4.992119E+03
       380  24  1.136736E+05  7.559355E+04  8.791636E+03  8.998042E+04  3.745535E+03  6.053036E+03
       380  25  7.958396E+04  5.040028E+04 -3.427398E+03  7.420638E+04 -1.557882E+03  3.314305E+03
       380  26  8.319586E+04  5.381528E+04 -8.233713E+02  7.588844E+04  6.061417E+02  4.349822E+03
       380  27  8.682788E+04  5.936875E+04  3.682489E+03  7.746016E+04  2.800757E+03  5.344516E+03
       381   1  1.378694E+05  9.230559E+04  1.634180E+04  1.017528E+05 -6.092324E+03 -7.432555E+03
       381   2  1.483000E+05  8.112862E+04  2.570337E+04  9.009504E+04 -1.595715E+04 -1.389796E+04
       381   3  1.682265E+05  8.479860E+04  4.728931E+04  7.288759E+04 -2.605814E+04 -2.004844E+04
       381   4  1.147176E+05  7.655872E+04  1.165619E+04  9.013838E+04 -5.142608E+03 -6.720316E+03
       381   5  1.165308E+05  8.074389E+04  2.135920E+04  8.426121E+04 -1.432729E+04 -1.267617E+04
       381   6  1.276922E+05  9.962841E+04  4.269657E+04  7.283419E+04 -2.374798E+04 -1.831760E+04
       381   7  9.156649E+04  6.081215E+04  6.970550E+03  7.852448E+04 -4.192939E+03 -6.008109E+03
       381   8  8.476276E+04  8.035939E+04  1.701504E+04  7.842735E+04 -1.269752E+04 -1.145435E+04
       381   9  8.715998E+04  1.144601E+05  3.810408E+04  7.278019E+04 -2.143799E+04 -1.658658E+04
       381  10  1.378694E+05  9.230552E+04  1.634163E+04  1.017527E+05  2.077271E-11 -8.304627E-11
       381  11  1.482997E+05  8.112834E+04  2.570253E+04  9.009486E+04  7.036533E-11 -3.531272E-11
       381  12  1.682257E+05  8.479798E+04  4.728728E+04  7.288717E+04 -7.014350E-11  1.122763E-11
       381  13  1.147176E+05  7.655866E+04  1.165605E+04  9.013836E+04 -1.905941E-10 -5.653810E-11
       381  14  1.165306E+05  8.074366E+04  2.135851E+04  8.426107E+04 -1.394068E-10 -5.319232E-11
       381  15  1.276915E+05  9.962790E+04  4.269488E+04  7.283384E+04  7.966530E-11  7.763912E-11
       381  16  9.156646E+04  6.081211E+04  6.970449E+03  7.852446E+04  8.382368E-12 -3.280528E-11
       381  17  8.476255E+04  8.035921E+04  1.701449E+04  7.842724E+04  5.386437E-11  2.350488E-11
       381  18  8.715941E+04  1.144597E+05  3.810270E+04  7.277991E+04  7.871971E-13 -8.200717E-11
       381  19  1.378694E+05  9.230559E+04  1.634180E+04  1.017528E+05  6.092324E+03  7.432555E+03
       381  20  1.483000E+05  8.112862E+04  2.570337E+04  9.009504E+04  1.595715E+04  1.389796E+04
       381  21  1.682265E+05  8.479860E+04  4.728931E+04  7.288759E+04  2.605814E+04  2.004844E+04
       381  22  1.147176E+05  7.655872E+04  1.165619E+04  9.013838E+04  5.142608E+03  6.720316E+03
       381  23  1.165308E+05  8.074389E+04  2.135920E+04  8.426121E+04  1.432729E+04  1.267617E+04
       381  24  1.276922E+05  9.962841E+04  4.269657E+04  7.283419E+04  2.374798E+04  1.831760E+04
       381  25  9.156649E+04  6.081215E+04  6.970550E+03  7.852448E+04  4.192939E+03  6.008109E+03
       381  26  8.476276E+04  8.035939E+04  1.701504E+04  7.842735E+04  1.269752E+04  1.145435E+04
       381  27  8.715998E+04  1.144601E+05  3.810408E+04  7.278019E+04  2.143799E+04  1.658658E+04
       382   1  4.018609E+05  7.637982E+04  7.408322E+04  6.967086E+04  2.924390E+04 -2.870721E+03
       382   2  3.512180E+05  5.346582E+04  4.601948E+04  6.131828E+04  1.351084E+04 -9.097376E+03
       382   3  3.046199E+05  3.852221E+04  3.018710E+04  6.118496E+04 -2.220580E+03 -9.677575E+03
       382   4  1.444750E+05  1.286120E+04  1.379587E+04  6.107871E+04  9.687145E+03 -2.872117E+03
       382   5  1.435154E+05  4.113520E+03  6.903443E+03  5.696949E+04  6.157951E+03 -9.098261E+03
       382   6  1.444825E+05  1.220105E+03  3.772074E+03  6.107937E+04  2.629190E+03 -9.677293E+03
       382   7 -1.128489E+05 -5.066164E+04 -4.649453E+04  5.249014E+04 -9.861557E+03 -2.872973E+03
       382   8 -6.414534E+04 -4.524119E+04 -3.221428E+04  5.262218E+04 -1.192545E+03 -9.099044E+03
       382   9 -1.562946E+04 -3.608331E+04 -2.264362E+04  6.097381E+04  7.477752E+03 -9.677012E+03
       382  10  4.018600E+05  7.637959E+04  7.408160E+04  6.967092E+04 -8.270513E-11 -4.602482E-11
       382  11  3.512178E+05  5.346568E+04  4.601899E+04  6.131838E+04 -1.967260E-10 -4.420861E-11
       382  12  3.046198E+05  3.852211E+04  3.018691E+04  6.118494E+04 -1.045339E-11  4.760718E-11
       382  13  1.444749E+05  1.286117E+04  1.379568E+04  6.107873E+04 -1.052849E-12 -9.847602E-12
       382  14  1.435154E+05  4.113421E+03  6.903216E+03  5.696953E+04  6.536907E-11 -7.985672E-11
       382  15  1.444825E+05  1.220003E+03  3.771885E+03  6.107939E+04  1.018738E-10 -1.322637E-12
       382  16 -1.128490E+05 -5.066168E+04 -4.649473E+04  5.249011E+04  3.487734E-11 -7.468225E-11
       382  17 -6.414537E+04 -4.524128E+04 -3.221443E+04  5.262217E+04  3.345205E-10 -1.236829E-10
       382  18 -1.562954E+04 -3.608342E+04 -2.264390E+04  6.097387E+04  8.818219E-11 -1.304818E-10
       382  19  4.018609E+05  7.637982E+04  7.408322E+04  6.967086E+04 -2.924390E+04  2.870721E+03
       382  20  3.512180E+05  5.346582E+04  4.601948E+04  6.131828E+04 -1.351084E+04  9.097376E+03
       382  21  3.046199E+05  3.852221E+04  3.018710E+04  6.118496E+04  2.220580E+03  9.677575E+03
       382  22  1.444750E+05  1.286120E+04  1.379587E+04  6.107871E+04 -9.687145E+03  2.872117E+03
       382  23  1.435154E+05  4.113520E+03  6.903443E+03  5.696949E+04 -6.157951E+03  9.098261E+03
       382  24  1.444825E+05  1.220105E+03  3.772074E+03  6.107937E+04 -2.629190E+03  9.677293E+03
       382  25 -1.128489E+05 -5.066164E+04 -4.649453E+04  5.249014E+04  9.861557E+03  2.872973E+03
       382  26 -6.414534E+04 -4.524119E+04 -3.221428E+04  5.262218E+04  1.192545E+03  9.099044E+03
       382  27 -1.562946E+04 -3.608331E+04 -2.264362E+04  6.097381E+04 -7.477752E+03  9.677012E+03
       383   1  2.735273E+05  3.100711E+04  2.374012E+04  6.169115E+04 -2.800234E+03 -8.146399E+03
       383   2  2.247217E+05  1.888405E+04  1.397207E+04  5.709252E+04 -4.929340E+03 -5.554394E+03
       383   3  1.763768E+05  7.484188E+03  5.770493E+03  6.111453E+04 -7.058423E+03 -2.348463E+03
       383   4  1.441067E+05  9.507768E+02  2.848255E+03  6.116864E+04  2.137327E+03 -8.145974E+03
       383   5  1.439940E+05  2.683669E+02  1.604412E+03  5.685835E+04  1.334671E+03 -5.553673E+03
       383   6  1.441094E+05  7.908306E+01  1.006199E+03  6.116874E+04  5.318823E+02 -2.347406E+03
       383   7  1.470267E+04 -2.910639E+04 -1.804397E+04  6.064625E+04  7.073895E+03 -8.145557E+03
       383   8  6.327280E+04 -1.834761E+04 -1.076324E+04  5.662421E+04  7.597899E+03 -5.552956E+03
       383   9  1.118432E+05 -7.326039E+03 -3.757897E+03  6.122295E+04  8.121809E+03 -2.346347E+03
       383  10  2.735273E+05  3.100703E+04  2.373998E+04  6.169113E+04 -2.405087E-10 -2.820292E-11
       383  11  2.247217E+05  1.888401E+04  1.397197E+04  5.709250E+04 -1.496723E-11  1.944372E-11
       383  12  1.763767E+05  7.484168E+03  5.770389E+03  6.111451E+04  3.397088E-11 -6.389219E-12
       383  13  1.441066E+05  9.507043E+02  2.848122E+03  6.116866E+04  1.107795E-10 -8.742559E-11
       383  14  1.439940E+05  2.683333E+02  1.604351E+03  5.685835E+04  2.019379E-10  5.971674E-11
       383  15  1.441094E+05  7.907707E+01  1.006188E+03  6.116874E+04  1.245173E-10  8.953696E-11
       383  16  1.470260E+04 -2.910647E+04 -1.804419E+04  6.064630E+04  2.549504E-10 -1.523423E-10
       383  17  6.327273E+04 -1.834766E+04 -1.076341E+04  5.662424E+04  5.245453E-11 -1.045221E-10
       383  18  1.118431E+05 -7.326063E+03 -3.758031E+03  6.122296E+04  6.875346E-11 -6.274043E-12
       383  19  2.735273E+05  3.100711E+04  2.374012E+04  6.169115E+04  2.800234E+03  8.146399E+03
       383  20  2.247217E+05  1.888405E+04  1.397207E+04  5.709252E+04  4.929340E+03  5.554394E+03
       383  21  1.763768E+05  7.484188E+03  5.770493E+03  6.111453E+04  7.058423E+03  2.348463E+03
       383  22  1.441067E+05  9.507768E+02  2.848255E+03  6.116864E+04 -2.137327E+03  8.145974E+03
       383  23  1.439940E+05  2.683669E+02  1.604412E+03  5.685835E+04 -1.334671E+03  5.553673E+03
       383  24  1.441094E+05  7.908306E+01  1.006199E+03  6.116874E+04 -5.318823E+02  2.347406E+03
       383  25  1.470267E+04 -2.910639E+04 -1.804397E+04  6.064625E+04 -7.073895E+03  8.145557E+03
       383  26  6.327280E+04 -1.834761E+04 -1.076324E+04  5.662421E+04 -7.597899E+03  5.552956E+03
       383  27  1.118432E+05 -7.326039E+03 -3.757897E+03  6.122295E+04 -8.121809E+03  2.346347E+03
       384   1  1.459215E+05  4.578880E+02  9.476543E+02  6.117176E+04 -7.217470E+03 -2.557079E+02
       384   2  9.740504E+04 -1.074174E+04 -6.721891E+03  5.678313E+04 -6.455568E+03  2.999717E+03
       384   3  4.878185E+04 -2.198371E+04 -1.489798E+04  6.102144E+04 -5.693659E+03  5.737727E+03
       384   4  1.440776E+05  6.862786E+01  8.448264E+02  6.117011E+04  3.740163E+02 -2.546269E+02
       384   5  1.440348E+05  7.020749E+01  7.143214E+02  5.685667E+04  1.783787E+01  3.000551E+03
       384   6  1.440761E+05  2.234084E+02  8.532564E+02  6.117010E+04 -3.382598E+02  5.738336E+03
       384   7  1.422339E+05 -3.206014E+02  7.422152E+02  6.116846E+04  7.965481E+03 -2.535460E+02
       384   8  1.906667E+05  1.088207E+04  8.150635E+03  5.693021E+04  6.491713E+03  3.001387E+03
       384   9  2.393793E+05  2.243007E+04  1.660433E+04  6.131879E+04  5.017934E+03  5.738947E+03
       384  10  1.459214E+05  4.578739E+02  9.475563E+02  6.117176E+04 -5.749178E-11 -4.206906E-11
       384  11  9.740499E+04 -1.074176E+04 -6.721987E+03  5.678315E+04 -6.439389E-11  3.151887E-11
       384  12  4.878180E+04 -2.198375E+04 -1.489811E+04  6.102146E+04  1.063230E-10  1.582227E-11
       384  13  1.440776E+05  6.862775E+01  8.448260E+02  6.117011E+04  2.103682E-12 -5.226572E-12
       384  14  1.440347E+05  7.019782E+01  7.143045E+02  5.685667E+04  9.202958E-11 -1.584129E-10
       384  15  1.440761E+05  2.233731E+02  8.531943E+02  6.117010E+04  1.321781E-10 -1.032735E-12
       384  16  1.422338E+05 -3.206185E+02  7.420959E+02  6.116847E+04  1.192681E-10 -1.341262E-11
       384  17  1.906667E+05  1.088205E+04  8.150539E+03  5.693019E+04  8.935582E-11 -2.813670E-11
       384  18  2.393793E+05  2.243003E+04  1.660422E+04  6.131876E+04 -2.961972E-11 -1.015266E-10
       384  19  1.459215E+05  4.578880E+02  9.476543E+02  6.117176E+04  7.217470E+03  2.557079E+02
       384  20  9.740504E+04 -1.074174E+04 -6.721891E+03  5.678313E+04  6.455568E+03 -2.999717E+03
       384  21  4.878185E+04 -2.198371E+04 -1.489798E+04  6.102144E+04  5.693659E+03 -5.737727E+03
       384  22  1.440776E+05  6.862786E+01  8.448264E+02  6.117011E+04 -3.740163E+02  2.546269E+02
       384  23  1.440348E+05  7.020749E+01  7.143214E+02  5.685667E+04 -1.783787E+01 -3.000551E+03
       384  24  1.440761E+05  2.234084E+02  8.532564E+02  6.117010E+04  3.382598E+02 -5.738336E+03
       384  25  1.422339E+05 -3.206014E+02  7.422152E+02  6.116846E+04 -7.965481E+03  2.535460E+02
       384  26  1.906667E+05  1.088207E+04  8.150635E+03  5.693021E+04 -6.491713E+03 -3.001387E+03
       384  27  2.393793E+05  2.243007E+04  1.660433E+04  6.131879E+04 -5.017934E+03 -5.738947E+03
       385   1  1.819948E+04 -2.913108E+04 -2.012101E+04  6.104569E+04 -5.761160E+03  7.357465E+03
       385   2 -2.970732E+04 -4.038464E+04 -3.141786E+04  5.591909E+04  4.048843E+03  7.333715E+03
       385   3 -7.900735E+04 -5.211823E+04 -4.922109E+04  5.906783E+04  1.385791E+04  2.372248E+03
       385   4  1.441576E+05  2.862146E+02  1.018266E+03  6.109194E+04 -4.824638E+02  7.357960E+03
       385   5  1.439264E+05  9.589556E+02  1.675481E+03  5.695426E+04 -1.337250E+03  7.333057E+03
       385   6  1.441519E+05  3.003392E+03  3.232219E+03  6.109175E+04 -2.192333E+03  2.371105E+03
       385   7  2.701315E+05  2.970269E+04  2.215715E+04  6.113820E+04  4.797268E+03  7.358457E+03
       385   8  3.175892E+05  4.230080E+04  3.476757E+04  5.798973E+04 -6.724812E+03  7.332381E+03
       385   9  3.673575E+05  5.812162E+04  5.568308E+04  6.311639E+04 -1.824831E+04  2.369858E+03
       385  10  1.819943E+04 -2.913115E+04 -2.012118E+04  6.104572E+04  8.873079E-11  5.987133E-11
       385  11 -2.970735E+04 -4.038470E+04 -3.141799E+04  5.591907E+04  1.988088E-11 -7.344723E-11
       385  12 -7.900756E+04 -5.211829E+04 -4.922146E+04  5.906781E+04  1.047902E-10 -6.309590E-12
       385  13  1.441576E+05  2.861564E+02  1.018164E+03  6.109194E+04  1.128294E-10  7.438133E-11
       385  14  1.439264E+05  9.588974E+02  1.675377E+03  5.695427E+04  1.772187E-10  1.158625E-10
       385  15  1.441519E+05  3.003385E+03  3.232199E+03  6.109175E+04  5.221152E-11 -7.551117E-12
       385  16  2.701314E+05  2.970263E+04  2.215701E+04  6.113817E+04  9.820284E-12 -5.238008E-11
       385  17  3.175892E+05  4.230073E+04  3.476738E+04  5.798977E+04 -4.493224E-11  7.771180E-11
       385  18  3.673571E+05  5.812153E+04  5.568244E+04  6.311643E+04  1.937720E-12  3.360770E-11
       385  19  1.819948E+04 -2.913108E+04 -2.012101E+04  6.104569E+04  5.761160E+03 -7.357465E+03
       385  20 -2.970732E+04 -4.038464E+04 -3.141786E+04  5.591909E+04 -4.048843E+03 -7.333715E+03
       385  21 -7.900735E+04 -5.211823E+04 -4.922109E+04  5.906783E+04 -1.385791E+04 -2.372248E+03
       385  22  1.441576E+05  2.862146E+02  1.018266E+03  6.109194E+04  4.824638E+02 -7.357960E+03
       385  23  1.439264E+05  9.589556E+02  1.675481E+03  5.695426E+04  1.337250E+03 -7.333057E+03
       385  24  1.441519E+05  3.003392E+03  3.232219E+03  6.109175E+04  2.192333E+03 -2.371105E+03
       385  25  2.701315E+05  2.970269E+04  2.215715E+04  6.113820E+04 -4.797268E+03 -7.358457E+03
       385  26  3.175892E+05  4.230080E+04  3.476757E+04  5.798973E+04  6.724812E+03 -7.332381E+03
       385  27  3.673575E+05  5.812162E+04  5.568308E+04  6.311639E+04  1.824831E+04 -2.369858E+03
       386   1 -7.564946E+04 -2.675360E+05 -7.723212E+04  9.088753E+04 -1.216039E+03 -3.709214E+04
       386   2 -3.537359E+04 -2.125456E+05 -4.065558E+04  7.346916E+04 -3.221846E+03 -1.896153E+04
       386   3 -1.425994E+04 -1.647059E+05 -2.067716E+04  6.495419E+04 -1.910177E+03 -8.291877E+02
       386   4 -3.926759E+04 -1.206401E+05 -4.219991E+04  6.465644E+04 -1.213080E+03 -2.917297E+04
       386   5 -1.256415E+04 -1.176832E+05 -2.146115E+04  6.020150E+04 -3.221263E+03 -1.820495E+04
       386   6 -3.777662E+03 -1.206347E+05 -1.234338E+04  6.465124E+04 -1.911446E+03 -7.236883E+03
       386   7 -2.884651E+03  2.627730E+04 -7.168615E+03  3.841911E+04 -1.210792E+03 -2.125194E+04
       386   8  1.024539E+04 -2.281181E+04 -2.267095E+03  4.693178E+04 -3.220712E+03 -1.744826E+04
       386   9  6.704522E+03 -7.656158E+04 -4.009540E+03  6.434826E+04 -1.912709E+03 -1.364502E+04
       386  10 -7.564983E+04 -2.675375E+05 -7.723471E+04  9.088749E+04 -3.250814E-11 -1.806078E-10
       386  11 -3.537369E+04 -2.125460E+05 -4.065628E+04  7.346911E+04 -5.975025E-11  2.832021E-11
       386  12 -1.425994E+04 -1.647059E+05 -2.067717E+04  6.495419E+04 -5.415944E-11  2.298248E-10
       386  13 -3.926782E+04 -1.206410E+05 -4.220152E+04  6.465641E+04 -1.014803E-10  9.157876E-11
       386  14 -1.256425E+04 -1.176835E+05 -2.146180E+04  6.020146E+04  1.403528E-10 -8.991146E-12
       386  15 -3.777680E+03 -1.206348E+05 -1.234349E+04  6.465123E+04 -1.523048E-10  1.175932E-10
       386  16 -2.884774E+03  2.627681E+04 -7.169467E+03  3.841909E+04  3.309056E-12  2.264201E-10
       386  17  1.024530E+04 -2.281214E+04 -2.267687E+03  4.693173E+04 -2.903367E-10 -4.680514E-11
       386  18  6.704468E+03 -7.656178E+04 -4.009897E+03  6.434824E+04  3.739805E-13 -2.694644E-10
       386  19 -7.564946E+04 -2.675360E+05 -7.723212E+04  9.088753E+04  1.216039E+03  3.709214E+04
       386  20 -3.537359E+04 -2.125456E+05 -4.065558E+04  7.346916E+04  3.221846E+03  1.896153E+04
       386  21 -1.425994E+04 -1.647059E+05 -2.067716E+04  6.495419E+04  1.910177E+03  8.291877E+02
       386  22 -3.926759E+04 -1.206401E+05 -4.219991E+04  6.465644E+04  1.213080E+03  2.917297E+04
       386  23 -1.256415E+04 -1.176832E+05 -2.146115E+04  6.020150E+04  3.221263E+03  1.820495E+04
       386  24 -3.777662E+03 -1.206347E+05 -1.234338E+04  6.465124E+04  1.911446E+03  7.236883E+03
       386  25 -2.884651E+03  2.627730E+04 -7.168615E+03  3.841911E+04  1.210792E+03  2.125194E+04
       386  26  1.024539E+04 -2.281181E+04 -2.267095E+03  4.693178E+04  3.220712E+03  1.744826E+04
       386  27  6.704522E+03 -7.656158E+04 -4.009540E+03  6.434826E+04  1.912709E+03  1.364502E+04
       387   1 -5.890032E+03 -1.312569E+05 -1.272009E+04  6.634722E+04 -2.832246E+01  8.786640E+02
       387   2  7.903397E+03 -7.938858E+04 -1.093302E+03  6.046834E+04  2.859211E+03  3.943355E+03
       387   3  1.952200E+04 -2.846186E+04  7.993605E+03  6.369456E+04  5.546613E+03  7.008366E+03
       387   4 -2.971157E+03 -1.195480E+05 -9.832554E+03  6.469606E+04 -2.962965E+01 -5.572313E+03
       387   5 -1.206530E+03 -1.190390E+05 -6.987414E+03  6.014334E+04  2.858066E+03 -2.075666E+03
       387   6 -1.691664E+03 -1.195492E+05 -6.982161E+03  6.469588E+04  5.545633E+03  1.421068E+03
       387   7 -5.225975E+01 -1.078388E+05 -6.944867E+03  6.304487E+04 -3.090249E+01 -1.202341E+04
       387   8 -1.031651E+04 -1.586878E+05 -1.288142E+04  5.981837E+04  2.856927E+03 -8.094317E+03
       387   9 -2.290573E+04 -2.106283E+05 -2.195805E+04  6.569704E+04  5.544635E+03 -4.165437E+03
       387  10 -5.890032E+03 -1.312569E+05 -1.272009E+04  6.634722E+04 -2.006252E-11 -2.919950E-10
       387  11  7.903384E+03 -7.938860E+04 -1.093346E+03  6.046833E+04 -2.565129E-10  3.925910E-11
       387  12  1.952195E+04 -2.846192E+04  7.993455E+03  6.369453E+04 -6.484241E-11  2.152541E-10
       387  13 -2.971165E+03 -1.195480E+05 -9.832612E+03  6.469606E+04 -1.044665E-11  5.777892E-11
       387  14 -1.206540E+03 -1.190390E+05 -6.987438E+03  6.014335E+04 -3.502174E-10 -5.969286E-11
       387  15 -1.691698E+03 -1.195493E+05 -6.982223E+03  6.469587E+04 -2.279636E-10  2.360576E-10
       387  16 -5.229857E+01 -1.078390E+05 -6.945139E+03  6.304487E+04  5.845141E-11  2.438897E-10
       387  17 -1.031654E+04 -1.586879E+05 -1.288156E+04  5.981838E+04 -2.847414E-11 -5.608606E-11
       387  18 -2.290577E+04 -2.106284E+05 -2.195814E+04  6.569706E+04 -2.451430E-11 -2.588333E-10
       387  19 -5.890032E+03 -1.312569E+05 -1.272009E+04  6.634722E+04  2.832246E+01 -8.786640E+02
       387  20  7.903397E+03 -7.938858E+04 -1.093302E+03  6.046834E+04 -2.859211E+03 -3.943355E+03
       387  21  1.952200E+04 -2.846186E+04  7.993605E+03  6.369456E+04 -5.546613E+03 -7.008366E+03
       387  22 -2.971157E+03 -1.195480E+05 -9.832554E+03  6.469606E+04  2.962965E+01  5.572313E+03
       387  23 -1.206530E+03 -1.190390E+05 -6.987414E+03  6.014334E+04 -2.858066E+03  2.075666E+03
       387  24 -1.691664E+03 -1.195492E+05 -6.982161E+03  6.469588E+04 -5.545633E+03 -1.421068E+03
       387  25 -5.225975E+01 -1.078388E+05 -6.944867E+03  6.304487E+04  3.090249E+01  1.202341E+04
       387  26 -1.031651E+04 -1.586878E+05 -1.288142E+04  5.981837E+04 -2.856927E+03  8.094317E+03
       387  27 -2.290573E+04 -2.106283E+05 -2.195805E+04  6.569704E+04 -5.544635E+03  4.165437E+03
       388   1  2.676294E+04  3.519015E+03  1.288890E+04  6.443286E+04  7.245225E+03  8.076868E+03
       388   2  3.483055E+04  5.559525E+04  2.133825E+04  5.320189E+04  7.302827E+03  3.377056E+03
       388   3  3.526282E+04  1.063782E+05  3.093845E+04  5.074069E+04  2.371695E+03 -1.323042E+03
       388   4 -2.088284E+03 -1.200277E+05 -7.813403E+03  6.462140E+04  7.244356E+03  2.561676E+03
       388   5 -6.625472E+03 -1.184478E+05 -1.190476E+04  6.023745E+04  7.303844E+03  8.637600E+03
       388   6 -2.067004E+04 -1.200347E+05 -2.232916E+04  6.462380E+04  2.373847E+03  1.471342E+04
       388   7 -3.094029E+04 -2.435594E+05 -2.851606E+04  6.480991E+04  7.243484E+03 -2.952455E+03
       388   8 -4.808307E+04 -2.924615E+05 -4.514902E+04  6.727099E+04  7.304980E+03  1.389670E+04
       388   9 -7.660570E+04 -3.463995E+05 -7.559922E+04  7.850182E+04  2.376716E+03  3.074407E+04
       388  10  2.676287E+04  3.518931E+03  1.288867E+04  6.443281E+04 -3.886011E-11  1.742070E-10
       388  11  3.483049E+04  5.559522E+04  2.133813E+04  5.320187E+04 -9.132312E-11  8.620425E-11
       388  12  3.526281E+04  1.063782E+05  3.093843E+04  5.074069E+04  4.737361E-11 -1.727216E-10
       388  13 -2.088342E+03 -1.200278E+05 -7.813513E+03  6.462139E+04  7.583917E-11  1.983769E-11
       388  14 -6.625549E+03 -1.184479E+05 -1.190500E+04  6.023740E+04  7.151619E-11 -4.337533E-11
       388  15 -2.067010E+04 -1.200350E+05 -2.232958E+04  6.462377E+04  6.821482E-11 -4.476859E-11
       388  16 -3.094035E+04 -2.435594E+05 -2.851618E+04  6.480993E+04 -1.416856E-10 -1.799659E-10
       388  17 -4.808318E+04 -2.924617E+05 -4.514948E+04  6.727091E+04 -9.901009E-11 -2.533472E-11
       388  18 -7.660596E+04 -3.464006E+05 -7.560101E+04  7.850176E+04  9.363271E-11  1.504776E-10
       388  19  2.676294E+04  3.519015E+03  1.288890E+04  6.443286E+04 -7.245225E+03 -8.076868E+03
       388  20  3.483055E+04  5.559525E+04  2.133825E+04  5.320189E+04 -7.302827E+03 -3.377056E+03
       388  21  3.526282E+04  1.063782E+05  3.093845E+04  5.074069E+04 -2.371695E+03  1.323042E+03
       388  22 -2.088284E+03 -1.200277E+05 -7.813403E+03  6.462140E+04 -7.244356E+03 -2.561676E+03
       388  23 -6.625472E+03 -1.184478E+05 -1.190476E+04  6.023745E+04 -7.303844E+03 -8.637600E+03
       388  24 -2.067004E+04 -1.200347E+05 -2.232916E+04  6.462380E+04 -2.373847E+03 -1.471342E+04
       388  25 -3.094029E+04 -2.435594E+05 -2.851606E+04  6.480991E+04 -7.243484E+03  2.952455E+03
       388  26 -4.808307E+04 -2.924615E+05 -4.514902E+04  6.727099E+04 -7.304980E+03 -1.389670E+04
       388  27 -7.660570E+04 -3.463995E+05 -7.559922E+04  7.850182E+04 -2.376716E+03 -3.074407E+04
       389   1  1.680737E+05  1.388372E+05  4.027253E+04  1.157594E+05  2.231499E+04  1.630466E+04
       389   2  1.707171E+05  1.144795E+05  2.178929E+04  1.236916E+05  1.486770E+04  9.550263E+03
       389   3  1.827412E+05  1.012351E+05  1.365961E+04  1.265573E+05  7.189290E+03  3.104445E+03
       389   4  1.752762E+05  1.073200E+05  3.587569E+04  1.024302E+05  2.036568E+04  1.484163E+04
       389   5  1.652080E+05  9.214338E+04  1.794898E+04  1.122333E+05  1.358402E+04  8.587226E+03
       389   6  1.643762E+05  8.793516E+04  9.798057E+03  1.169701E+05  6.571365E+03  2.641050E+03
       389   7  1.824795E+05  7.580581E+04  3.147922E+04  8.910122E+04  1.841637E+04  1.337882E+04
       389   8  1.596993E+05  6.980848E+04  1.410879E+04  1.007755E+05  1.230036E+04  7.624281E+03
       389   9  1.460117E+05  7.463542E+04  5.936498E+03  1.073834E+05  5.953464E+03  2.177674E+03
       389  10  1.680731E+05  1.388368E+05  4.027109E+04  1.157591E+05 -1.357273E-10 -1.180384E-10
       389  11  1.707168E+05  1.144794E+05  2.178870E+04  1.236914E+05  2.427426E-11 -8.573485E-12
       389  12  1.827411E+05  1.012351E+05  1.365950E+04  1.265572E+05  7.344990E-11  5.167483E-11
       389  13  1.752757E+05  1.073196E+05  3.587449E+04  1.024299E+05 -6.172387E-11  1.845401E-11
       389  14  1.652078E+05  9.214325E+04  1.794849E+04  1.122332E+05 -3.857067E-11  1.214806E-10
       389  15  1.643762E+05  8.793514E+04  9.797963E+03  1.169701E+05  5.233036E-11  8.609557E-11
       389  16  1.824791E+05  7.580552E+04  3.147825E+04  8.910103E+04  2.052780E-10  1.249258E-10
       389  17  1.596992E+05  6.980838E+04  1.410840E+04  1.007755E+05 -1.281785E-10  1.257264E-10
       389  18  1.460116E+05  7.463540E+04  5.936422E+03  1.073834E+05 -1.175201E-10  1.150931E-10
       389  19  1.680737E+05  1.388372E+05  4.027253E+04  1.157594E+05 -2.231499E+04 -1.630466E+04
       389  20  1.707171E+05  1.144795E+05  2.178929E+04  1.236916E+05 -1.486770E+04 -9.550263E+03
       389  21  1.827412E+05  1.012351E+05  1.365961E+04  1.265573E+05 -7.189290E+03 -3.104445E+03
       389  22  1.752762E+05  1.073200E+05  3.587569E+04  1.024302E+05 -2.036568E+04 -1.484163E+04
       389  23  1.652080E+05  9.214338E+04  1.794898E+04  1.122333E+05 -1.358402E+04 -8.587226E+03
       389  24  1.643762E+05  8.793516E+04  9.798057E+03  1.169701E+05 -6.571365E+03 -2.641050E+03
       389  25  1.824795E+05  7.580581E+04  3.147922E+04  8.910122E+04 -1.841637E+04 -1.337882E+04
       389  26  1.596993E+05  6.980848E+04  1.410879E+04  1.007755E+05 -1.230036E+04 -7.624281E+03
       389  27  1.460117E+05  7.463542E+04  5.936498E+03  1.073834E+05 -5.953464E+03 -2.177674E+03
       390   1  1.821936E+05  1.024387E+05  1.146225E+04  1.274485E+05  6.278905E+03  2.180616E+03
       390   2  1.840272E+05  1.023107E+05  8.528070E+03  1.292025E+05  4.733002E+03  6.087335E+02
       390   3  1.872457E+05  1.026814E+05  7.332658E+03  1.304752E+05  3.157723E+03 -9.240586E+02
       390   4  1.634883E+05  8.713538E+04  7.392568E+03  1.168410E+05  5.665920E+03  1.720906E+03
       390   5  1.623883E+05  8.615406E+04  4.146851E+03  1.176375E+05  4.204582E+03  2.124424E+02
       390   6  1.626547E+05  8.565309E+04  2.566487E+03  1.179526E+05  2.713915E+03 -1.256897E+03
       390   7  1.447831E+05  7.183203E+04  3.322721E+03  1.062337E+05  5.052945E+03  1.261209E+03
       390   8  1.407499E+05  6.999781E+04 -2.343790E+02  1.060730E+05  3.676186E+03 -1.838288E+02
       390   9  1.380651E+05  6.862556E+04 -2.199503E+03  1.054309E+05  2.270140E+03 -1.589710E+03
       390  10  1.821935E+05  1.024387E+05  1.146216E+04  1.274485E+05 -1.687593E-10 -1.427037E-10
       390  11  1.840272E+05  1.023107E+05  8.528027E+03  1.292025E+05 -8.215621E-11 -2.825575E-11
       390  12  1.872457E+05  1.026814E+05  7.332638E+03  1.304752E+05 -4.027787E-10  2.343764E-11
       390  13  1.634883E+05  8.713536E+04  7.392503E+03  1.168410E+05 -5.882474E-11  2.455746E-11
       390  14  1.623883E+05  8.615406E+04  4.146818E+03  1.176375E+05 -8.369800E-11  2.537297E-11
       390  15  1.626547E+05  8.565309E+04  2.566470E+03  1.179526E+05 -1.582007E-10  1.363800E-10
       390  16  1.447831E+05  7.183202E+04  3.322670E+03  1.062337E+05 -5.290796E-11  1.970310E-10
       390  17  1.407499E+05  6.999780E+04 -2.344045E+02  1.060730E+05  1.105615E-10  2.228223E-10
       390  18  1.380650E+05  6.862555E+04 -2.199518E+03  1.054309E+05  2.558399E-10  1.599771E-10
       390  19  1.821936E+05  1.024387E+05  1.146225E+04  1.274485E+05 -6.278905E+03 -2.180616E+03
       390  20  1.840272E+05  1.023107E+05  8.528070E+03  1.292025E+05 -4.733002E+03 -6.087335E+02
       390  21  1.872457E+05  1.026814E+05  7.332658E+03  1.304752E+05 -3.157723E+03  9.240586E+02
       390  22  1.634883E+05  8.713538E+04  7.392568E+03  1.168410E+05 -5.665920E+03 -1.720906E+03
       390  23  1.623883E+05  8.615406E+04  4.146851E+03  1.176375E+05 -4.204582E+03 -2.124424E+02
       390  24  1.626547E+05  8.565309E+04  2.566487E+03  1.179526E+05 -2.713915E+03  1.256897E+03
       390  25  1.447831E+05  7.183203E+04  3.322721E+03  1.062337E+05 -5.052945E+03 -1.261209E+03
       390  26  1.407499E+05  6.999781E+04 -2.343790E+02  1.060730E+05 -3.676186E+03  1.838288E+02
       390  27  1.380651E+05  6.862556E+04 -2.199503E+03  1.054309E+05 -2.270140E+03  1.589710E+03
       391   1  1.884395E+05  1.037401E+05  7.173112E+03  1.312069E+05  2.923328E+03 -1.285101E+03
       391   2  1.903555E+05  1.054643E+05  7.205364E+03  1.324419E+05  2.342868E+03 -2.025868E+03
       391   3  1.929786E+05  1.068347E+05  7.876126E+03  1.335105E+05  1.748126E+03 -2.747587E+03
       391   4  1.625789E+05  8.559487E+04  2.129860E+03  1.179259E+05  2.480266E+03 -1.617383E+03
       391   5  1.622257E+05  8.576886E+04  1.728365E+03  1.180147E+05  1.941009E+03 -2.327260E+03
       391   6  1.625707E+05  8.558018E+04  1.929653E+03  1.179371E+05  1.387465E+03 -3.018091E+03
       391   7  1.367191E+05  6.745008E+04 -2.913416E+03  1.046456E+05  2.037229E+03 -1.949647E+03
       391   8  1.340966E+05  6.607369E+04 -3.748774E+03  1.035881E+05  1.539169E+03 -2.628637E+03
       391   9  1.321632E+05  6.432569E+04 -4.017095E+03  1.023643E+05  1.026820E+03 -3.288584E+03
       391  10  1.884395E+05  1.037401E+05  7.173093E+03  1.312069E+05  4.143091E-09  3.020317E-09
       391  11  1.903555E+05  1.054643E+05  7.205346E+03  1.324419E+05 -6.202371E-09 -6.020834E-09
       391  12  1.929786E+05  1.068347E+05  7.876106E+03  1.335105E+05 -2.175303E-08 -1.729335E-08
       391  13  1.625789E+05  8.559487E+04  2.129843E+03  1.179259E+05  5.321103E-10  5.667094E-10
       391  14  1.622257E+05  8.576885E+04  1.728348E+03  1.180147E+05  1.181392E-10 -1.524728E-11
       391  15  1.625707E+05  8.558017E+04  1.929632E+03  1.179371E+05 -5.062179E-09 -4.327732E-09
       391  16  1.367190E+05  6.745008E+04 -2.913431E+03  1.046456E+05 -3.031081E-09 -1.783197E-09
       391  17  1.340966E+05  6.607368E+04 -3.748791E+03  1.035881E+05  6.266270E-09  5.856270E-09
       391  18  1.321632E+05  6.432567E+04 -4.017117E+03  1.023643E+05  1.128348E-08  8.434630E-09
       391  19  1.884395E+05  1.037401E+05  7.173112E+03  1.312069E+05 -2.923328E+03  1.285101E+03
       391  20  1.903555E+05  1.054643E+05  7.205364E+03  1.324419E+05 -2.342868E+03  2.025868E+03
       391  21  1.929786E+05  1.068347E+05  7.876126E+03  1.335105E+05 -1.748126E+03  2.747587E+03
       391  22  1.625789E+05  8.559487E+04  2.129860E+03  1.179259E+05 -2.480266E+03  1.617383E+03
       391  23  1.622257E+05  8.576886E+04  1.728365E+03  1.180147E+05 -1.941009E+03  2.327260E+03
       391  24  1.625707E+05  8.558018E+04  1.929653E+03  1.179371E+05 -1.387465E+03  3.018091E+03
       391  25  1.367191E+05  6.745008E+04 -2.913416E+03  1.046456E+05 -2.037229E+03  1.949647E+03
       391  26  1.340966E+05  6.607369E+04 -3.748774E+03  1.035881E+05 -1.539169E+03  2.628637E+03
       391  27  1.321632E+05  6.432569E+04 -4.017095E+03  1.023643E+05 -1.026820E+03  3.288584E+03
       392   1  1.943360E+05  1.079956E+05  8.505573E+03  1.342864E+05  1.534415E+03 -3.065975E+03
       392   2  1.968923E+05  1.094564E+05  1.033874E+04  1.350001E+05 -4.451999E+01 -4.415453E+03
       392   3  2.007162E+05  1.112928E+05  1.379564E+04  1.352949E+05 -1.713787E+03 -5.644422E+03
       392   4  1.626271E+05  8.562974E+04  2.247533E+03  1.179570E+05  1.175615E+03 -3.335088E+03
       392   5  1.623656E+05  8.608187E+04  3.494189E+03  1.177076E+05 -1.428735E+02 -4.489250E+03
       392   6  1.633151E+05  8.685325E+04  6.138669E+03  1.170393E+05 -1.551707E+03 -5.522912E+03
       392   7  1.309202E+05  6.326504E+04 -4.010270E+03  1.016290E+05  8.168476E+02 -3.604176E+03
       392   8  1.278406E+05  6.270833E+04 -3.350256E+03  1.004164E+05 -2.412186E+02 -4.563041E+03
       392   9  1.259157E+05  6.241447E+04 -1.518344E+03  9.878497E+04 -1.389640E+03 -5.401411E+03
       392  10  1.943360E+05  1.079956E+05  8.505551E+03  1.342864E+05  1.149262E-08  8.521686E-09
       392  11  1.968923E+05  1.094564E+05  1.033871E+04  1.350001E+05  6.495854E-09  5.777658E-09
       392  12  2.007162E+05  1.112928E+05  1.379557E+04  1.352949E+05 -3.170815E-09 -1.850614E-09
       392  13  1.626271E+05  8.562973E+04  2.247510E+03  1.179570E+05 -5.148749E-09 -4.425652E-09
       392  14  1.623656E+05  8.608185E+04  3.494151E+03  1.177076E+05  1.219456E-10 -8.390645E-11
       392  15  1.633151E+05  8.685322E+04  6.138607E+03  1.170393E+05  6.406862E-10  6.441506E-10
       392  16  1.309202E+05  6.326503E+04 -4.010296E+03  1.016290E+05 -2.194020E-08 -1.740883E-08
       392  17  1.278406E+05  6.270831E+04 -3.350295E+03  1.004164E+05 -6.357296E-09 -6.090015E-09
       392  18  1.259157E+05  6.241444E+04 -1.518402E+03  9.878496E+04  4.624262E-09  3.032426E-09
       392  19  1.943360E+05  1.079956E+05  8.505573E+03  1.342864E+05 -1.534415E+03  3.065975E+03
       392  20  1.968923E+05  1.094564E+05  1.033874E+04  1.350001E+05  4.451999E+01  4.415453E+03
       392  21  2.007162E+05  1.112928E+05  1.379564E+04  1.352949E+05  1.713787E+03  5.644422E+03
       392  22  1.626271E+05  8.562974E+04  2.247533E+03  1.179570E+05 -1.175615E+03  3.335088E+03
       392  23  1.623656E+05  8.608187E+04  3.494189E+03  1.177076E+05  1.428735E+02  4.489250E+03
       392  24  1.633151E+05  8.685325E+04  6.138669E+03  1.170393E+05  1.551707E+03  5.522912E+03
       392  25  1.309202E+05  6.326504E+04 -4.010270E+03  1.016290E+05 -8.168476E+02  3.604176E+03
       392  26  1.278406E+05  6.270833E+04 -3.350256E+03  1.004164E+05  2.412186E+02  4.563041E+03
       392  27  1.259157E+05  6.241447E+04 -1.518344E+03  9.878497E+04  1.389640E+03  5.401411E+03
       393   1  2.020469E+05  1.138927E+05  1.629151E+04  1.363874E+05 -2.583517E+03 -6.282709E+03
       393   2  2.136719E+05  1.102535E+05  2.473646E+04  1.308749E+05 -1.121244E+04 -1.185395E+04
       393   3  2.333530E+05  1.161515E+05  4.310190E+04  1.211917E+05 -2.058264E+04 -1.643725E+04
       393   4  1.640237E+05  8.753690E+04  8.111886E+03  1.171523E+05 -2.405868E+03 -6.149514E+03
       393   5  1.647232E+05  9.099451E+04  1.481902E+04  1.132404E+05 -8.899644E+03 -1.011970E+04
       393   6  1.730159E+05  1.035265E+05  2.959426E+04  1.051577E+05 -1.613437E+04 -1.310201E+04
       393   7  1.260015E+05  6.118152E+04 -6.804578E+01  9.791821E+04 -2.228231E+03 -6.016327E+03
       393   8  1.157771E+05  7.173581E+04  4.901439E+03  9.560691E+04 -6.587087E+03 -8.385525E+03
       393   9  1.126836E+05  9.090205E+04  1.608675E+04  8.912466E+04 -1.168674E+04 -9.766838E+03
       393  10  2.020468E+05  1.138926E+05  1.629142E+04  1.363874E+05  1.184558E-10  2.588417E-10
       393  11  2.136717E+05  1.102533E+05  2.473596E+04  1.308748E+05  1.307650E-10  2.362034E-10
       393  12  2.333525E+05  1.161511E+05  4.310060E+04  1.211914E+05  2.126548E-10  1.958571E-10
       393  13  1.640236E+05  8.753686E+04  8.111804E+03  1.171523E+05 -3.057909E-11  2.482209E-10
       393  14  1.647231E+05  9.099438E+04  1.481868E+04  1.132403E+05 -1.101314E-11  2.252030E-10
       393  15  1.730155E+05  1.035263E+05  2.959345E+04  1.051575E+05 -2.509388E-11  9.588319E-12
       393  16  1.260014E+05  6.118148E+04 -6.812311E+01  9.791820E+04 -2.486916E-10  1.420384E-10
       393  17  1.157771E+05  7.173572E+04  4.901226E+03  9.560686E+04 -2.997674E-10  8.783630E-11
       393  18  1.126834E+05  9.090191E+04  1.608631E+04  8.912457E+04 -2.824132E-10 -1.394226E-10
       393  19  2.020469E+05  1.138927E+05  1.629151E+04  1.363874E+05  2.583517E+03  6.282709E+03
       393  20  2.136719E+05  1.102535E+05  2.473646E+04  1.308749E+05  1.121244E+04  1.185395E+04
       393  21  2.333530E+05  1.161515E+05  4.310190E+04  1.211917E+05  2.058264E+04  1.643725E+04
       393  22  1.640237E+05  8.753690E+04  8.111886E+03  1.171523E+05  2.405868E+03  6.149514E+03
       393  23  1.647232E+05  9.099451E+04  1.481902E+04  1.132404E+05  8.899644E+03  1.011970E+04
       393  24  1.730159E+05  1.035265E+05  2.959426E+04  1.051577E+05  1.613437E+04  1.310201E+04
       393  25  1.260015E+05  6.118152E+04 -6.804578E+01  9.791821E+04  2.228231E+03  6.016327E+03
       393  26  1.157771E+05  7.173581E+04  4.901439E+03  9.560691E+04  6.587087E+03  8.385525E+03
       393  27  1.126836E+05  9.090205E+04  1.608675E+04  8.912466E+04  1.168674E+04  9.766838E+03
       394   1  4.382751E+05  7.317007E+04  7.114569E+04  7.502630E+04  2.720022E+04 -2.609624E+03
       394   2  3.833291E+05  4.954659E+04  4.318551E+04  6.635106E+04  1.201860E+04 -8.088887E+03
       394   3  3.323083E+05  3.370187E+04  2.704932E+04  6.669264E+04 -3.161274E+03 -8.148742E+03
       394   4  1.930934E+05  1.263051E+04  1.354528E+04  6.658465E+04  9.504301E+03 -2.611482E+03
       394   5  1.921517E+05  4.042674E+03  6.783890E+03  6.207681E+04  6.036286E+03 -8.089797E+03
       394   6  1.931012E+05  1.202389E+03  3.716765E+03  6.658558E+04  2.568596E+03 -8.148138E+03
       394   7 -5.203216E+04 -4.791289E+04 -4.405805E+04  5.814635E+04 -8.184677E+03 -2.612859E+03
       394   8  1.009637E+03 -4.146330E+04 -2.961924E+04  5.780391E+04  5.576593E+01 -8.090625E+03
       394   9  5.391322E+04 -3.129808E+04 -1.961627E+04  6.647854E+04  8.297224E+03 -8.147536E+03
       394  10  4.382743E+05  7.316987E+04  7.114429E+04  7.502636E+04  5.551549E-11  6.634468E-12
       394  11  3.833289E+05  4.954649E+04  4.318512E+04  6.635114E+04 -2.132790E-10 -1.062891E-10
       394  12  3.323082E+05  3.370179E+04  2.704918E+04  6.669262E+04 -6.972442E-11 -3.551246E-11
       394  13  1.930933E+05  1.263048E+04  1.354509E+04  6.658467E+04  4.206683E-12 -1.682989E-11
       394  14  1.921516E+05  4.042594E+03  6.783699E+03  6.207685E+04 -1.036182E-10 -7.631593E-11
       394  15  1.931011E+05  1.202316E+03  3.716628E+03  6.658559E+04  3.714421E-11 -2.581301E-11
       394  16 -5.203224E+04 -4.791292E+04 -4.405819E+04  5.814633E+04  1.869365E-11  9.435137E-12
       394  17  1.009619E+03 -4.146337E+04 -2.961936E+04  5.780391E+04 -1.860755E-11  3.541606E-11
       394  18  5.391313E+04 -3.129817E+04 -1.961653E+04  6.647859E+04 -1.316427E-11  2.688190E-11
       394  19  4.382751E+05  7.317007E+04  7.114569E+04  7.502630E+04 -2.720022E+04  2.609624E+03
       394  20  3.833291E+05  4.954659E+04  4.318551E+04  6.635106E+04 -1.201860E+04  8.088887E+03
       394  21  3.323083E+05  3.370187E+04  2.704932E+04  6.669264E+04  3.161274E+03  8.148742E+03
       394  22  1.930934E+05  1.263051E+04  1.354528E+04  6.658465E+04 -9.504301E+03  2.611482E+03
       394  23  1.921517E+05  4.042674E+03  6.783890E+03  6.207681E+04 -6.036286E+03  8.089797E+03
       394  24  1.931012E+05  1.202389E+03  3.716765E+03  6.658558E+04 -2.568596E+03  8.148138E+03
       394  25 -5.203216E+04 -4.791289E+04 -4.405805E+04  5.814635E+04  8.184677E+03  2.612859E+03
       394  26  1.009637E+03 -4.146330E+04 -2.961924E+04  5.780391E+04 -5.576593E+01  8.090625E+03
       394  27  5.391322E+04 -3.129808E+04 -1.961627E+04  6.647854E+04 -8.297224E+03  8.147536E+03
       395   1  2.985111E+05  2.557823E+04  2.026830E+04  6.718672E+04 -3.731176E+03 -6.388827E+03
       395   2  2.453514E+05  1.248697E+04  9.988416E+03  6.220117E+04 -5.765692E+03 -3.413717E+03
       395   3  1.926351E+05  9.709225E+01  1.207927E+03  6.661665E+04 -7.800111E+03  1.306834E+02
       395   4  1.927327E+05  9.376926E+02  2.814740E+03  6.667102E+04  2.082731E+03 -6.388082E+03
       395   5  1.926205E+05  2.673583E+02  1.608297E+03  6.197054E+04  1.278124E+03 -3.412696E+03
       395   6  1.927347E+05  8.488951E+01  1.047188E+03  6.667112E+04  4.734329E+02  1.320054E+02
       395   7  8.696542E+04 -2.370340E+04 -1.463902E+04  6.615540E+04  7.895682E+03 -6.387347E+03
       395   8  1.398924E+05 -1.195236E+04 -6.771706E+03  6.173993E+04  8.321364E+03 -3.411680E+03
       395   9  1.928344E+05  7.272352E+01  8.867065E+02  6.672560E+04  8.746977E+03  1.333289E+02
       395  10  2.985111E+05  2.557818E+04  2.026820E+04  6.718670E+04 -8.106523E-11 -9.443254E-11
       395  11  2.453513E+05  1.248695E+04  9.988332E+03  6.220116E+04  5.673179E-11  5.811495E-11
       395  12  1.926351E+05  9.707591E+01  1.207813E+03  6.661665E+04 -8.076177E-11  1.242891E-11
       395  13  1.927327E+05  9.376476E+02  2.814655E+03  6.667103E+04  1.956372E-10 -1.085767E-11
       395  14  1.926204E+05  2.673453E+02  1.608272E+03  6.197055E+04 -1.884101E-10  8.079729E-12
       395  15  1.927347E+05  8.488943E+01  1.047188E+03  6.667112E+04 -9.559430E-11 -3.574485E-11
       395  16  8.696534E+04 -2.370346E+04 -1.463922E+04  6.615545E+04 -3.247892E-11  3.204398E-11
       395  17  1.398923E+05 -1.195240E+04 -6.771858E+03  6.173995E+04 -1.525876E-10 -1.305140E-10
       395  18  1.928343E+05  7.270297E+01  8.865628E+02  6.672560E+04  6.624146E-11  1.089463E-11
       395  19  2.985111E+05  2.557823E+04  2.026830E+04  6.718672E+04  3.731176E+03  6.388827E+03
       395  20  2.453514E+05  1.248697E+04  9.988416E+03  6.220117E+04  5.765692E+03  3.413717E+03
       395  21  1.926351E+05  9.709225E+01  1.207927E+03  6.661665E+04  7.800111E+03 -1.306834E+02
       395  22  1.927327E+05  9.376926E+02  2.814740E+03  6.667102E+04 -2.082731E+03  6.388082E+03
       395  23  1.926205E+05  2.673583E+02  1.608297E+03  6.197054E+04 -1.278124E+03  3.412696E+03
       395  24  1.927347E+05  8.488951E+01  1.047188E+03  6.667112E+04 -4.734329E+02 -1.320054E+02
       395  25  8.696542E+04 -2.370340E+04 -1.463902E+04  6.615540E+04 -7.895682E+03  6.387347E+03
       395  26  1.398924E+05 -1.195236E+04 -6.771706E+03  6.173993E+04 -8.321364E+03  3.411680E+03
       395  27  1.928344E+05  7.272352E+01  8.867065E+02  6.672560E+04 -8.746977E+03 -1.333289E+02
       396   1  1.594505E+05 -7.558638E+03 -4.011432E+03  6.667381E+04 -7.965458E+03  2.411425E+03
       396   2  1.065874E+05 -1.975727E+04 -1.236136E+04  6.187621E+04 -6.950934E+03  5.908799E+03
       396   3  5.358067E+04 -3.201157E+04 -2.138592E+04  6.647372E+04 -5.936319E+03  8.742436E+03
       396   4  1.927071E+05  7.528523E+01  9.081107E+02  6.666978E+04  3.066029E+02  2.412723E+03
       396   5  1.926539E+05  9.364157E+01  8.409170E+02  6.197226E+04 -1.129970E+02  5.909693E+03
       396   6  1.927040E+05  3.055691E+02  1.094936E+03  6.666975E+04 -5.324455E+02  8.742974E+03
       396   7  2.259650E+05  7.709193E+03  5.827891E+03  6.666574E+04  8.579089E+03  2.414021E+03
       396   8  2.787280E+05  1.994422E+04  1.404321E+04  6.206832E+04  6.725851E+03  5.910588E+03
       396   9  3.318466E+05  3.262174E+04  2.357538E+04  6.686582E+04  4.872596E+03  8.743516E+03
       396  10  1.594504E+05 -7.558661E+03 -4.011562E+03  6.667383E+04  1.470459E-10  8.813016E-11
       396  11  1.065873E+05 -1.975732E+04 -1.236152E+04  6.187624E+04 -1.282287E-10 -3.626745E-11
       396  12  5.358062E+04 -3.201166E+04 -2.138613E+04  6.647377E+04 -2.311768E-10 -7.921750E-11
       396  13  1.927071E+05  7.527895E+01  9.080996E+02  6.666978E+04  9.099619E-16  1.940072E-11
       396  14  1.926539E+05  9.360406E+01  8.408514E+02  6.197226E+04  8.030831E-11  2.280182E-11
       396  15  1.927040E+05  3.054869E+02  1.094791E+03  6.666976E+04 -1.389068E-10 -7.879530E-12
       396  16  2.259650E+05  7.709167E+03  5.827741E+03  6.666573E+04 -1.365635E-10 -1.357761E-11
       396  17  2.787279E+05  1.994417E+04  1.404306E+04  6.206828E+04  1.443523E-10 -7.716627E-12
       396  18  3.318466E+05  3.262165E+04  2.357519E+04  6.686579E+04  1.403764E-10 -8.271186E-11
       396  19  1.594505E+05 -7.558638E+03 -4.011432E+03  6.667381E+04  7.965458E+03 -2.411425E+03
       396  20  1.065874E+05 -1.975727E+04 -1.236136E+04  6.187621E+04  6.950934E+03 -5.908799E+03
       396  21  5.358067E+04 -3.201157E+04 -2.138592E+04  6.647372E+04  5.936319E+03 -8.742436E+03
       396  22  1.927071E+05  7.528523E+01  9.081107E+02  6.666978E+04 -3.066029E+02 -2.412723E+03
       396  23  1.926539E+05  9.364157E+01  8.409170E+02  6.197226E+04  1.129970E+02 -5.909693E+03
       396  24  1.927040E+05  3.055691E+02  1.094936E+03  6.666975E+04  5.324455E+02 -8.742974E+03
       396  25  2.259650E+05  7.709193E+03  5.827891E+03  6.666574E+04 -8.579089E+03 -2.414021E+03
       396  26  2.787280E+05  1.994422E+04  1.404321E+04  6.206832E+04 -6.725851E+03 -5.910588E+03
       396  27  3.318466E+05  3.262174E+04  2.357538E+04  6.686582E+04 -4.872596E+03 -8.743516E+03
       397   1  2.023013E+04 -3.982115E+04 -2.714993E+04  6.651632E+04 -6.027259E+03  1.041643E+04
       397   2 -3.191820E+04 -5.202329E+04 -4.001742E+04  6.067686E+04  6.019830E+03  9.817865E+03
       397   3 -8.573013E+04 -6.463318E+04 -6.082905E+04  6.379764E+04  1.806530E+04  3.103531E+03
       397   4  1.928185E+05  3.911477E+02  1.342940E+03  6.657307E+04 -7.185608E+02  1.041680E+04
       397   5  1.925010E+05  1.315977E+03  2.276960E+03  6.209295E+04 -1.880472E+03  9.816907E+03
       397   6  1.928103E+05  4.126217E+03  4.439113E+03  6.657282E+04 -3.042915E+03  3.102316E+03
       397   7  3.654363E+05  4.060192E+04  2.983504E+04  6.662983E+04  4.591563E+03  1.041717E+04
       397   8  4.169689E+05  5.465236E+04  4.456937E+04  6.350956E+04 -9.783558E+03  9.815914E+03
       397   9  4.714232E+05  7.288037E+04  6.970366E+04  6.934925E+04 -2.416054E+04  3.100912E+03
       397  10  2.023006E+04 -3.982128E+04 -2.715021E+04  6.651637E+04 -1.836448E-10 -4.313627E-11
       397  11 -3.191827E+04 -5.202340E+04 -4.001767E+04  6.067681E+04 -1.264211E-10 -3.835149E-11
       397  12 -8.573048E+04 -6.463328E+04 -6.082968E+04  6.379759E+04 -1.453833E-10 -7.072064E-12
       397  13  1.928184E+05  3.910310E+02  1.342735E+03  6.657308E+04 -7.141560E-11 -1.108854E-10
       397  14  1.925009E+05  1.315873E+03  2.276772E+03  6.209296E+04 -6.719080E-12 -3.106589E-11
       397  15  1.928103E+05  4.126204E+03  4.439078E+03  6.657283E+04  6.633314E-11 -2.702620E-11
       397  16  3.654363E+05  4.060180E+04  2.983479E+04  6.662979E+04  1.476434E-10  7.802035E-12
       397  17  4.169688E+05  5.465223E+04  4.456901E+04  6.350963E+04  1.539062E-10 -9.315204E-11
       397  18  4.714225E+05  7.288020E+04  6.970255E+04  6.934931E+04  2.677068E-10 -1.924604E-11
       397  19  2.023013E+04 -3.982115E+04 -2.714993E+04  6.651632E+04  6.027259E+03 -1.041643E+04
       397  20 -3.191820E+04 -5.202329E+04 -4.001742E+04  6.067686E+04 -6.019830E+03 -9.817865E+03
       397  21 -8.573013E+04 -6.463318E+04 -6.082905E+04  6.379764E+04 -1.806530E+04 -3.103531E+03
       397  22  1.928185E+05  3.911477E+02  1.342940E+03  6.657307E+04  7.185608E+02 -1.041680E+04
       397  23  1.925010E+05  1.315977E+03  2.276960E+03  6.209295E+04  1.880472E+03 -9.816907E+03
       397  24  1.928103E+05  4.126217E+03  4.439113E+03  6.657282E+04  3.042915E+03 -3.102316E+03
       397  25  3.654363E+05  4.060192E+04  2.983504E+04  6.662983E+04 -4.591563E+03 -1.041717E+04
       397  26  4.169689E+05  5.465236E+04  4.456937E+04  6.350956E+04  9.783558E+03 -9.815914E+03
       397  27  4.714232E+05  7.288037E+04  6.970366E+04  6.934925E+04  2.416054E+04 -3.100912E+03
       398   1 -7.927921E+04 -2.477529E+05 -8.254054E+04  8.614372E+04 -7.700784E+02 -4.457862E+04
       398   2 -3.218897E+04 -2.034997E+05 -4.275597E+04  6.483043E+04 -1.888633E+03 -2.425396E+04
       398   3 -1.068674E+04 -1.682902E+05 -2.260412E+04  5.041646E+04 -6.904533E+02 -3.927668E+03
       398   4 -5.404837E+04 -1.459503E+05 -5.815664E+04  4.996866E+04 -7.668688E+02 -3.965482E+04
       398   5 -1.731173E+04 -1.418599E+05 -2.999378E+04  4.651582E+04 -1.887913E+03 -2.433304E+04
       398   6 -5.293656E+03 -1.459451E+05 -1.798690E+04  4.996387E+04 -6.911587E+02 -9.011054E+03
       398   7 -2.881334E+04 -4.413531E+04 -3.377267E+04  1.378765E+04 -7.642336E+02 -3.473022E+04
       398   8 -2.433460E+03 -8.021577E+04 -1.723162E+04  2.819935E+04 -1.887188E+03 -2.441213E+04
       398   9  9.941201E+01 -1.235996E+05 -1.336961E+04  4.951127E+04 -6.918567E+02 -1.409462E+04
       398  10 -7.927975E+04 -2.477550E+05 -8.254427E+04  8.614369E+04 -8.612128E-12 -9.729155E-11
       398  11 -3.218913E+04 -2.035003E+05 -4.275709E+04  6.483039E+04  9.458676E-12 -1.183465E-10
       398  12 -1.068675E+04 -1.682902E+05 -2.260415E+04  5.041646E+04 -9.875497E-11 -5.669036E-11
       398  13 -5.404879E+04 -1.459520E+05 -5.815959E+04  4.996864E+04 -5.843665E-11  2.182015E-11
       398  14 -1.731189E+04 -1.418605E+05 -2.999490E+04  4.651578E+04  8.684992E-11 -1.013759E-10
       398  15 -5.293679E+03 -1.459452E+05 -1.798705E+04  4.996387E+04 -1.924941E-10  2.859931E-11
       398  16 -2.881366E+04 -4.413661E+04 -3.377494E+04  1.378763E+04  9.416567E-11  1.075278E-10
       398  17 -2.433624E+03 -8.021641E+04 -1.723275E+04  2.819932E+04 -5.823747E-11  1.346461E-10
       398  18  9.935815E+01 -1.235998E+05 -1.336998E+04  4.951126E+04 -1.275789E-10  1.280056E-10
       398  19 -7.927921E+04 -2.477529E+05 -8.254054E+04  8.614372E+04  7.700784E+02  4.457862E+04
       398  20 -3.218897E+04 -2.034997E+05 -4.275597E+04  6.483043E+04  1.888633E+03  2.425396E+04
       398  21 -1.068674E+04 -1.682902E+05 -2.260412E+04  5.041646E+04  6.904533E+02  3.927668E+03
       398  22 -5.404837E+04 -1.459503E+05 -5.815664E+04  4.996866E+04  7.668688E+02  3.965482E+04
       398  23 -1.731173E+04 -1.418599E+05 -2.999378E+04  4.651582E+04  1.887913E+03  2.433304E+04
       398  24 -5.293656E+03 -1.459451E+05 -1.798690E+04  4.996387E+04  6.911587E+02  9.011054E+03
       398  25 -2.881334E+04 -4.413531E+04 -3.377267E+04  1.378765E+04  7.642336E+02  3.473022E+04
       398  26 -2.433460E+03 -8.021577E+04 -1.723162E+04  2.819935E+04  1.887188E+03  2.441213E+04
       398  27  9.941201E+01 -1.235996E+05 -1.336961E+04  4.951127E+04  6.918567E+02  1.409462E+04
       399   1 -3.766099E+03 -1.418716E+05 -1.535465E+04  5.237619E+04  7.908690E+02 -1.406300E+03
       399   2  7.609385E+03 -1.013106E+05 -5.840573E+03  4.654817E+04  3.052133E+03  4.204572E+03
       399   3  1.515593E+04 -6.243642E+04 -9.373586E+02  4.775621E+04  5.099723E+03  9.815842E+03
       399   4 -4.206927E+03 -1.445214E+05 -1.490479E+04  4.999417E+04  7.901564E+02 -6.518774E+03
       399   5 -2.115628E+03 -1.436377E+05 -1.213265E+04  4.647606E+04  3.051541E+03 -4.468515E+02
       399   6 -3.933402E+03 -1.445225E+05 -1.429171E+04  4.999419E+04  5.099284E+03  5.625136E+03
       399   7 -4.647719E+03 -1.471711E+05 -1.445483E+04  4.761216E+04  7.894831E+02 -1.163123E+04
       399   8 -1.184071E+04 -1.859630E+05 -1.842468E+04  4.640395E+04  3.050949E+03 -5.097971E+03
       399   9 -2.302305E+04 -2.266019E+05 -2.764619E+04  5.223186E+04  5.098813E+03  1.434965E+03
       399  10 -3.766101E+03 -1.418716E+05 -1.535466E+04  5.237619E+04 -2.672438E-11  1.556423E-10
       399  11  7.609371E+03 -1.013106E+05 -5.840624E+03  4.654816E+04 -1.105818E-10  1.029808E-10
       399  12  1.515588E+04 -6.243653E+04 -9.375886E+02  4.775617E+04 -1.688757E-11  2.040726E-11
       399  13 -4.206939E+03 -1.445215E+05 -1.490487E+04  4.999417E+04 -1.399686E-10  3.470347E-11
       399  14 -2.115638E+03 -1.436377E+05 -1.213267E+04  4.647606E+04 -9.111036E-11  1.855152E-11
       399  15 -3.933438E+03 -1.445226E+05 -1.429182E+04  4.999416E+04 -1.951666E-10  9.679235E-11
       399  16 -4.647756E+03 -1.471713E+05 -1.445509E+04  4.761216E+04 -1.428492E-10 -1.148750E-10
       399  17 -1.184073E+04 -1.859630E+05 -1.842475E+04  4.640396E+04 -1.255296E-10 -6.376331E-11
       399  18 -2.302308E+04 -2.266019E+05 -2.764624E+04  5.223185E+04 -7.706344E-12  6.702457E-11
       399  19 -3.766099E+03 -1.418716E+05 -1.535465E+04  5.237619E+04 -7.908690E+02  1.406300E+03
       399  20  7.609385E+03 -1.013106E+05 -5.840573E+03  4.654817E+04 -3.052133E+03 -4.204572E+03
       399  21  1.515593E+04 -6.243642E+04 -9.373586E+02  4.775621E+04 -5.099723E+03 -9.815842E+03
       399  22 -4.206927E+03 -1.445214E+05 -1.490479E+04  4.999417E+04 -7.901564E+02  6.518774E+03
       399  23 -2.115628E+03 -1.436377E+05 -1.213265E+04  4.647606E+04 -3.051541E+03  4.468515E+02
       399  24 -3.933402E+03 -1.445225E+05 -1.429171E+04  4.999419E+04 -5.099284E+03 -5.625136E+03
       399  25 -4.647719E+03 -1.471711E+05 -1.445483E+04  4.761216E+04 -7.894831E+02  1.163123E+04
       399  26 -1.184071E+04 -1.859630E+05 -1.842468E+04  4.640395E+04 -3.050949E+03  5.097971E+03
       399  27 -2.302305E+04 -2.266019E+05 -2.764619E+04  5.223186E+04 -5.098813E+03 -1.434965E+03
       400   1  2.006988E+04 -3.863314E+04  8.085188E+02  4.950780E+04  6.385626E+03  1.213583E+04
       400   2  1.874488E+04  4.131438E+03 -1.787255E+02  2.958134E+04  6.246564E+03  1.754755E+04
       400   3 -3.946831E+03  4.085329E+04 -1.003047E+04  1.641128E+04  2.005058E+03  2.295958E+04
       400   4 -4.932831E+03 -1.458157E+05 -1.701247E+04  4.993212E+04  6.385239E+03  8.004719E+03
       400   5 -1.603801E+04 -1.420270E+05 -2.793841E+04  4.655541E+04  6.247625E+03  2.227485E+04
       400   6 -5.005183E+04 -1.458228E+05 -5.388268E+04  4.993573E+04  2.007410E+03  3.654465E+04
       400   7 -2.993613E+04 -2.529868E+05 -3.483375E+04  5.035636E+04  6.384845E+03  3.874301E+03
       400   8 -5.082106E+04 -2.881641E+05 -5.569881E+04  6.352538E+04  6.248945E+03  2.700107E+04
       400   9 -9.615498E+04 -3.324639E+05 -9.773598E+04  8.345004E+04  2.011231E+03  5.012565E+04
       400  10  2.006980E+04 -3.863331E+04  8.081654E+02  4.950774E+04 -5.342444E-11 -3.379392E-11
       400  11  1.874476E+04  4.131097E+03 -1.793774E+02  2.958125E+04 -5.275195E-11 -5.336058E-11
       400  12 -3.946977E+03  4.085272E+04 -1.003147E+04  1.641124E+04 -2.676184E-11  7.366328E-12
       400  13 -4.932892E+03 -1.458158E+05 -1.701267E+04  4.993208E+04  2.473028E-11  6.423669E-12
       400  14 -1.603819E+04 -1.420275E+05 -2.793942E+04  4.655530E+04 -1.443997E-10  1.681151E-11
       400  15 -5.005219E+04 -1.458242E+05 -5.388520E+04  4.993567E+04 -4.972793E-11 -3.645800E-11
       400  16 -2.993618E+04 -2.529868E+05 -3.483385E+04  5.035634E+04 -1.118735E-11  6.471528E-11
       400  17 -5.082130E+04 -2.881649E+05 -5.570026E+04  6.352525E+04 -1.111117E-10  6.957335E-11
       400  18 -9.615566E+04 -3.324666E+05 -9.774071E+04  8.344996E+04  1.474832E-11 -2.904780E-11
       400  19  2.006988E+04 -3.863314E+04  8.085188E+02  4.950780E+04 -6.385626E+03 -1.213583E+04
       400  20  1.874488E+04  4.131438E+03 -1.787255E+02  2.958134E+04 -6.246564E+03 -1.754755E+04
       400  21 -3.946831E+03  4.085329E+04 -1.003047E+04  1.641128E+04 -2.005058E+03 -2.295958E+04
       400  22 -4.932831E+03 -1.458157E+05 -1.701247E+04  4.993212E+04 -6.385239E+03 -8.004719E+03
       400  23 -1.603801E+04 -1.420270E+05 -2.793841E+04  4.655541E+04 -6.247625E+03 -2.227485E+04
       400  24 -5.005183E+04 -1.458228E+05 -5.388268E+04  4.993573E+04 -2.007410E+03 -3.654465E+04
       400  25 -2.993613E+04 -2.529868E+05 -3.483375E+04  5.035636E+04 -6.384845E+03 -3.874301E+03
       400  26 -5.082106E+04 -2.881641E+05 -5.569881E+04  6.352538E+04 -6.248945E+03 -2.700107E+04
       400  27 -9.615498E+04 -3.324639E+05 -9.773598E+04  8.345004E+04 -2.011231E+03 -5.012565E+04
       401   1  1.885250E+05  1.406395E+05  3.446618E+04  1.325367E+05  2.312640E+04  1.805392E+04
       401   2  1.977133E+05  1.139898E+05  1.560108E+04  1.458241E+05  1.484895E+04  1.331692E+04
       401   3  2.198376E+05  1.000772E+05  7.784132E+03  1.520861E+05  7.290600E+03  7.620678E+03
       401   4  2.561051E+05  1.404688E+05  4.717773E+04  1.438565E+05  2.620010E+04  2.035715E+04
       401   5  2.422470E+05  1.211304E+05  2.357693E+04  1.569297E+05  1.584831E+04  1.406572E+04
       401   6  2.417735E+05  1.149777E+05  1.282306E+04  1.629776E+05  6.215930E+03  6.814781E+03
       401   7  3.236917E+05  1.402992E+05  5.988960E+04  1.551764E+05  2.927430E+04  2.266028E+04
       401   8  2.867840E+05  1.282714E+05  3.155295E+04  1.680358E+05  1.684777E+04  1.481453E+04
       401   9  2.637105E+05  1.298788E+05  1.786214E+04  1.738698E+05  5.141184E+03  6.008830E+03
       401  10  1.885243E+05  1.406390E+05  3.446457E+04  1.325363E+05 -9.211486E-11 -4.726777E-11
       401  11  1.977130E+05  1.139896E+05  1.560033E+04  1.458239E+05 -6.447498E-11  1.859783E-12
       401  12  2.198375E+05  1.000772E+05  7.783923E+03  1.520860E+05 -9.471226E-11  3.232270E-11
       401  13  2.561042E+05  1.404682E+05  4.717566E+04  1.438561E+05  5.780822E-11  3.828091E-11
       401  14  2.422467E+05  1.211301E+05  2.357608E+04  1.569295E+05 -7.380449E-11  4.108259E-11
       401  15  2.417735E+05  1.149776E+05  1.282290E+04  1.629776E+05 -2.788225E-10  1.166825E-10
       401  16  3.236907E+05  1.402984E+05  5.988703E+04  1.551758E+05  3.685148E-11  9.930561E-11
       401  17  2.867836E+05  1.282711E+05  3.155200E+04  1.680356E+05 -3.207700E-11  1.661484E-10
       401  18  2.637105E+05  1.298787E+05  1.786203E+04  1.738698E+05 -6.920442E-11  2.063976E-10
       401  19  1.885250E+05  1.406395E+05  3.446618E+04  1.325367E+05 -2.312640E+04 -1.805392E+04
       401  20  1.977133E+05  1.139898E+05  1.560108E+04  1.458241E+05 -1.484895E+04 -1.331692E+04
       401  21  2.198376E+05  1.000772E+05  7.784132E+03  1.520861E+05 -7.290600E+03 -7.620678E+03
       401  22  2.561051E+05  1.404688E+05  4.717773E+04  1.438565E+05 -2.620010E+04 -2.035715E+04
       401  23  2.422470E+05  1.211304E+05  2.357693E+04  1.569297E+05 -1.584831E+04 -1.406572E+04
       401  24  2.417735E+05  1.149777E+05  1.282306E+04  1.629776E+05 -6.215930E+03 -6.814781E+03
       401  25  3.236917E+05  1.402992E+05  5.988960E+04  1.551764E+05 -2.927430E+04 -2.266028E+04
       401  26  2.867840E+05  1.282714E+05  3.155295E+04  1.680358E+05 -1.684777E+04 -1.481453E+04
       401  27  2.637105E+05  1.298788E+05  1.786214E+04  1.738698E+05 -5.141184E+03 -6.008830E+03
       402   1  2.228585E+05  1.042595E+05  5.928611E+03  1.551086E+05  6.219096E+03  6.305736E+03
       402   2  2.304439E+05  1.088956E+05  3.631986E+03  1.605411E+05  4.764945E+03  4.338431E+03
       402   3  2.411202E+05  1.127478E+05  3.260955E+03  1.649415E+05  3.395983E+03  2.257543E+03
       402   4  2.406310E+05  1.138999E+05  9.635805E+03  1.627987E+05  5.129180E+03  5.488391E+03
       402   5  2.385117E+05  1.132918E+05  5.297364E+03  1.640449E+05  3.429463E+03  3.336975E+03
       402   6  2.395366E+05  1.119532E+05  3.097590E+03  1.642590E+05  1.814956E+03  1.071981E+03
       402   7  2.584035E+05  1.235401E+05  1.334286E+04  1.704887E+05  4.039247E+03  4.671042E+03
       402   8  2.465795E+05  1.176880E+05  6.962719E+03  1.675487E+05  2.093973E+03  2.335518E+03
       402   9  2.379530E+05  1.111586E+05  2.934240E+03  1.635766E+05  2.339363E+02 -1.135778E+02
       402  10  2.228584E+05  1.042595E+05  5.928463E+03  1.551086E+05  5.822302E-11  1.330191E-10
       402  11  2.304439E+05  1.088955E+05  3.631908E+03  1.605411E+05  6.860522E-11  4.364870E-11
       402  12  2.411202E+05  1.127478E+05  3.260924E+03  1.649415E+05  1.158448E-10 -6.341637E-11
       402  13  2.406310E+05  1.138998E+05  9.635699E+03  1.627986E+05  1.193875E-10  1.417440E-10
       402  14  2.385117E+05  1.132918E+05  5.297321E+03  1.640449E+05 -2.919459E-10 -3.174146E-11
       402  15  2.395366E+05  1.119532E+05  3.097582E+03  1.642590E+05  2.888155E-11  8.768341E-12
       402  16  2.584034E+05  1.235401E+05  1.334279E+04  1.704887E+05 -3.057325E-10  2.898295E-11
       402  17  2.465795E+05  1.176880E+05  6.962700E+03  1.675487E+05  5.902101E-12  3.956197E-11
       402  18  2.379530E+05  1.111586E+05  2.934240E+03  1.635766E+05  8.685235E-11  9.023702E-12
       402  19  2.228585E+05  1.042595E+05  5.928611E+03  1.551086E+05 -6.219096E+03 -6.305736E+03
       402  20  2.304439E+05  1.088956E+05  3.631986E+03  1.605411E+05 -4.764945E+03 -4.338431E+03
       402  21  2.411202E+05  1.127478E+05  3.260955E+03  1.649415E+05 -3.395983E+03 -2.257543E+03
       402  22  2.406310E+05  1.138999E+05  9.635805E+03  1.627987E+05 -5.129180E+03 -5.488391E+03
       402  23  2.385117E+05  1.132918E+05  5.297364E+03  1.640449E+05 -3.429463E+03 -3.336975E+03
       402  24  2.395366E+05  1.119532E+05  3.097590E+03  1.642590E+05 -1.814956E+03 -1.071981E+03
       402  25  2.584035E+05  1.235401E+05  1.334286E+04  1.704887E+05 -4.039247E+03 -4.671042E+03
       402  26  2.465795E+05  1.176880E+05  6.962719E+03  1.675487E+05 -2.093973E+03 -2.335518E+03
       402  27  2.379530E+05  1.111586E+05  2.934240E+03  1.635766E+05 -2.339363E+02  1.135778E+02
       403   1  2.463209E+05  1.166640E+05  3.728860E+03  1.677431E+05  3.342739E+03  1.543855E+03
       403   2  2.539417E+05  1.236806E+05  4.667205E+03  1.725479E+05  3.218797E+03  3.150564E+02
       403   3  2.637938E+05  1.287920E+05  6.193304E+03  1.767385E+05  3.086929E+03 -9.032097E+02
       403   4  2.394338E+05  1.118709E+05  2.433454E+03  1.642170E+05  1.760227E+03  3.571703E+02
       403   5  2.382992E+05  1.127877E+05  1.628608E+03  1.645529E+05  1.659072E+03 -8.545620E+02
       403   6  2.393905E+05  1.117943E+05  1.391644E+03  1.642743E+05  1.550013E+03 -2.055733E+03
       403   7  2.325467E+05  1.070777E+05  1.138007E+03  1.606910E+05  1.777019E+02 -8.295237E+02
       403   8  2.226569E+05  1.018950E+05 -1.409981E+03  1.565581E+05  9.940012E+01 -2.024142E+03
       403   9  2.149886E+05  9.479728E+04 -3.409825E+03  1.518109E+05  1.321222E+01 -3.208172E+03
       403  10  2.463208E+05  1.166640E+05  3.728835E+03  1.677431E+05 -3.754165E-11 -1.022837E-10
       403  11  2.539417E+05  1.236806E+05  4.667186E+03  1.725479E+05 -2.529843E-11 -9.995111E-11
       403  12  2.637938E+05  1.287920E+05  6.193285E+03  1.767385E+05 -3.451982E-11 -6.253645E-11
       403  13  2.394338E+05  1.118709E+05  2.433448E+03  1.642170E+05  1.072833E-10  3.897624E-12
       403  14  2.382992E+05  1.127877E+05  1.628602E+03  1.645529E+05  9.477268E-11 -3.118516E-11
       403  15  2.393905E+05  1.117942E+05  1.391631E+03  1.642743E+05  7.326181E-12 -2.651166E-11
       403  16  2.325467E+05  1.070777E+05  1.138006E+03  1.606910E+05  1.276791E-10  6.496589E-11
       403  17  2.226569E+05  1.018950E+05 -1.409989E+03  1.565581E+05  4.589767E-11 -1.931398E-11
       403  18  2.149886E+05  9.479727E+04 -3.409845E+03  1.518109E+05  1.011434E-10 -4.147696E-11
       403  19  2.463209E+05  1.166640E+05  3.728860E+03  1.677431E+05 -3.342739E+03 -1.543855E+03
       403  20  2.539417E+05  1.236806E+05  4.667205E+03  1.725479E+05 -3.218797E+03 -3.150564E+02
       403  21  2.637938E+05  1.287920E+05  6.193304E+03  1.767385E+05 -3.086929E+03  9.032097E+02
       403  22  2.394338E+05  1.118709E+05  2.433454E+03  1.642170E+05 -1.760227E+03 -3.571703E+02
       403  23  2.382992E+05  1.127877E+05  1.628608E+03  1.645529E+05 -1.659072E+03  8.545620E+02
       403  24  2.393905E+05  1.117943E+05  1.391644E+03  1.642743E+05 -1.550013E+03  2.055733E+03
       403  25  2.325467E+05  1.070777E+05  1.138007E+03  1.606910E+05 -1.777019E+02  8.295237E+02
       403  26  2.226569E+05  1.018950E+05 -1.409981E+03  1.565581E+05 -9.940012E+01  2.024142E+03
       403  27  2.149886E+05  9.479728E+04 -3.409825E+03  1.518109E+05 -1.321222E+01  3.208172E+03
       404   1  2.692140E+05  1.327284E+05  7.391056E+03  1.795599E+05  3.203175E+03 -1.474768E+03
       404   2  2.771735E+05  1.397009E+05  9.795629E+03  1.840586E+05  2.462646E+03 -2.981211E+03
       404   3  2.876307E+05  1.451345E+05  1.332668E+04  1.878314E+05  1.570532E+03 -4.285532E+03
       404   4  2.394086E+05  1.118180E+05  1.438603E+03  1.642778E+05  1.669164E+03 -2.625125E+03
       404   5  2.383764E+05  1.129358E+05  1.902295E+03  1.644150E+05  1.365523E+03 -3.803985E+03
       404   6  2.397471E+05  1.124200E+05  3.113466E+03  1.638263E+05  9.103047E+02 -4.780704E+03
       404   7  2.096043E+05  9.090817E+04 -4.513872E+03  1.489966E+05  1.352497E+02 -3.775410E+03
       404   8  1.995807E+05  8.617131E+04 -5.991249E+03  1.447726E+05  2.684771E+02 -4.626702E+03
       404   9  1.918650E+05  7.970601E+04 -7.100234E+03  1.398227E+05  2.501295E+02 -5.275840E+03
       404  10  2.692140E+05  1.327284E+05  7.391033E+03  1.795600E+05 -3.883272E-11 -9.134065E-11
       404  11  2.771735E+05  1.397009E+05  9.795601E+03  1.840586E+05  5.617130E-11 -6.025878E-11
       404  12  2.876307E+05  1.451345E+05  1.332664E+04  1.878314E+05  8.714134E-11 -1.970136E-12
       404  13  2.394086E+05  1.118180E+05  1.438585E+03  1.642778E+05  2.349644E-11 -6.428955E-11
       404  14  2.383764E+05  1.129358E+05  1.902264E+03  1.644150E+05 -1.217160E-10 -4.590429E-11
       404  15  2.397471E+05  1.124199E+05  3.113421E+03  1.638263E+05 -6.803092E-12 -1.727676E-11
       404  16  2.096043E+05  9.090816E+04 -4.513899E+03  1.489966E+05  1.247897E-10  5.215790E-12
       404  17  1.995807E+05  8.617128E+04 -5.991290E+03  1.447726E+05 -6.891662E-11  4.106899E-12
       404  18  1.918650E+05  7.970598E+04 -7.100287E+03  1.398227E+05 -5.600182E-11  4.593989E-12
       404  19  2.692140E+05  1.327284E+05  7.391056E+03  1.795599E+05 -3.203175E+03  1.474768E+03
       404  20  2.771735E+05  1.397009E+05  9.795629E+03  1.840586E+05 -2.462646E+03  2.981211E+03
       404  21  2.876307E+05  1.451345E+05  1.332668E+04  1.878314E+05 -1.570532E+03  4.285532E+03
       404  22  2.394086E+05  1.118180E+05  1.438603E+03  1.642778E+05 -1.669164E+03  2.625125E+03
       404  23  2.383764E+05  1.129358E+05  1.902295E+03  1.644150E+05 -1.365523E+03  3.803985E+03
       404  24  2.397471E+05  1.124200E+05  3.113466E+03  1.638263E+05 -9.103047E+02  4.780704E+03
       404  25  2.096043E+05  9.090817E+04 -4.513872E+03  1.489966E+05 -1.352497E+02  3.775410E+03
       404  26  1.995807E+05  8.617131E+04 -5.991249E+03  1.447726E+05 -2.684771E+02  4.626702E+03
       404  27  1.918650E+05  7.970601E+04 -7.100234E+03  1.398227E+05 -2.501295E+02  5.275840E+03
       405   1  2.931178E+05  1.498636E+05  1.577155E+04  1.908258E+05  1.293206E+03 -4.863498E+03
       405   2  3.055170E+05  1.543485E+05  2.290576E+04  1.920367E+05 -5.728586E+03 -9.276267E+03
       405   3  3.241205E+05  1.623697E+05  3.715135E+04  1.907106E+05 -1.400954E+04 -1.201036E+04
       405   4  2.400696E+05  1.127770E+05  4.051358E+03  1.638859E+05  6.593616E+02 -5.338900E+03
       405   5  2.395635E+05  1.153201E+05  7.295848E+03  1.622150E+05 -2.734134E+03 -7.030758E+03
       405   6  2.444751E+05  1.206130E+05  1.450415E+04  1.580072E+05 -7.386650E+03 -7.043866E+03
       405   7  1.870257E+05  7.569296E+04 -7.668615E+03  1.369491E+05  2.560177E+01 -5.814239E+03
       405   8  1.736163E+05  7.629422E+04 -8.313881E+03  1.323973E+05  2.598300E+02 -4.785547E+03
       405   9  1.648383E+05  7.885884E+04 -8.142916E+03  1.253085E+05 -7.650622E+02 -2.078050E+03
       405  10  2.931178E+05  1.498636E+05  1.577151E+04  1.908259E+05 -1.868175E-11 -4.578973E-11
       405  11  3.055170E+05  1.543484E+05  2.290554E+04  1.920367E+05 -1.015990E-10  2.352191E-11
       405  12  3.241202E+05  1.623695E+05  3.715071E+04  1.907104E+05  1.482320E-10  1.228624E-10
       405  13  2.400696E+05  1.127770E+05  4.051304E+03  1.638859E+05  1.006535E-10  1.139227E-12
       405  14  2.395635E+05  1.153200E+05  7.295741E+03  1.622150E+05 -1.019327E-10 -3.320774E-11
       405  15  2.444750E+05  1.206130E+05  1.450395E+04  1.580071E+05  1.228579E-10  5.435884E-11
       405  16  1.870257E+05  7.569293E+04 -7.668679E+03  1.369491E+05 -3.100923E-11  3.430578E-11
       405  17  1.736163E+05  7.629420E+04 -8.313924E+03  1.323973E+05 -7.191504E-11 -2.964996E-12
       405  18  1.648383E+05  7.885884E+04 -8.142925E+03  1.253085E+05 -1.102348E-10 -3.449872E-11
       405  19  2.931178E+05  1.498636E+05  1.577155E+04  1.908258E+05 -1.293206E+03  4.863498E+03
       405  20  3.055170E+05  1.543485E+05  2.290576E+04  1.920367E+05  5.728586E+03  9.276267E+03
       405  21  3.241205E+05  1.623697E+05  3.715135E+04  1.907106E+05  1.400954E+04  1.201036E+04
       405  22  2.400696E+05  1.127770E+05  4.051358E+03  1.638859E+05 -6.593616E+02  5.338900E+03
       405  23  2.395635E+05  1.153201E+05  7.295848E+03  1.622150E+05  2.734134E+03  7.030758E+03
       405  24  2.444751E+05  1.206130E+05  1.450415E+04  1.580072E+05  7.386650E+03  7.043866E+03
       405  25  1.870257E+05  7.569296E+04 -7.668615E+03  1.369491E+05 -2.560177E+01  5.814239E+03
       405  26  1.736163E+05  7.629422E+04 -8.313881E+03  1.323973E+05 -2.598300E+02  4.785547E+03
       405  27  1.648383E+05  7.885884E+04 -8.142916E+03  1.253085E+05  7.650622E+02  2.078050E+03
       406   1  1.442850E+05  2.632752E+03 -1.858366E+03  2.430328E+04 -1.679708E+04 -1.619564E+03
       406   2  1.074904E+05  1.686394E+04  3.367924E+03  3.311887E+04 -1.436964E+04 -4.890702E+03
       406   3  6.653408E+04  1.569173E+04  3.163998E+03  4.858364E+04 -1.194219E+04 -4.604599E+03
       406   4 -1.533893E+04 -3.681554E+04 -3.948379E+04  4.886407E+04 -2.770139E+04 -1.620513E+03
       406   5 -1.258760E+04 -1.177801E+04 -1.977295E+04  4.553873E+04 -1.759107E+04 -4.891190E+03
       406   6 -1.533557E+04 -3.480162E+03 -1.082876E+04  4.886347E+04 -7.480604E+03 -4.604402E+03
       406   7 -1.749379E+05 -7.626332E+04 -7.711020E+04  7.341851E+04 -3.860291E+04 -1.622324E+03
       406   8 -1.326514E+05 -4.042023E+04 -4.291437E+04  5.795614E+04 -2.081189E+04 -4.891806E+03
       406   9 -9.719859E+04 -2.265240E+04 -2.482167E+04  4.914326E+04 -3.019585E+03 -4.604202E+03
       406  10  1.442847E+05  2.632673E+03 -1.858901E+03  2.430326E+04  3.726798E-11 -1.183723E-11
       406  11  1.074902E+05  1.686386E+04  3.367491E+03  3.311881E+04 -8.603274E-11 -3.399490E-11
       406  12  6.653392E+04  1.569167E+04  3.163690E+03  4.858360E+04 -5.302517E-11  3.354330E-11
       406  13 -1.533975E+04 -3.681575E+04 -3.948524E+04  4.886403E+04  2.268702E-12 -1.029045E-11
       406  14 -1.258794E+04 -1.177812E+04 -1.977357E+04  4.553866E+04  2.305144E-11 -4.091251E-11
       406  15 -1.533564E+04 -3.480200E+03 -1.082891E+04  4.886344E+04  7.485195E-11  5.800521E-11
       406  16 -1.749395E+05 -7.626372E+04 -7.711301E+04  7.341846E+04 -8.168717E-11 -2.677270E-11
       406  17 -1.326519E+05 -4.042037E+04 -4.291523E+04  5.795606E+04  1.463824E-10 -2.864788E-11
       406  18 -9.719861E+04 -2.265242E+04 -2.482173E+04  4.914324E+04  1.540183E-10  2.567427E-11
       406  19  1.442850E+05  2.632752E+03 -1.858366E+03  2.430328E+04  1.679708E+04  1.619564E+03
       406  20  1.074904E+05  1.686394E+04  3.367924E+03  3.311887E+04  1.436964E+04  4.890702E+03
       406  21  6.653408E+04  1.569173E+04  3.163998E+03  4.858364E+04  1.194219E+04  4.604599E+03
       406  22 -1.533893E+04 -3.681554E+04 -3.948379E+04  4.886407E+04  2.770139E+04  1.620513E+03
       406  23 -1.258760E+04 -1.177801E+04 -1.977295E+04  4.553873E+04  1.759107E+04  4.891190E+03
       406  24 -1.533557E+04 -3.480162E+03 -1.082876E+04  4.886347E+04  7.480604E+03  4.604402E+03
       406  25 -1.749379E+05 -7.626332E+04 -7.711020E+04  7.341851E+04  3.860291E+04  1.622324E+03
       406  26 -1.326514E+05 -4.042023E+04 -4.291437E+04  5.795614E+04  2.081189E+04  4.891806E+03
       406  27 -9.719859E+04 -2.265240E+04 -2.482167E+04  4.914326E+04  3.019585E+03  4.604202E+03
       407   1  4.310485E+04  1.072221E+04  1.558007E+03  4.744297E+04 -1.058290E+04 -3.259933E+03
       407   2  4.516915E+03  3.589201E+03 -1.460347E+03  4.480888E+04 -9.019810E+03 -9.890750E+02
       407   3 -3.459345E+04 -4.826315E+03 -5.816850E+03  4.907898E+04 -7.456786E+03  1.642267E+03
       407   4 -1.425929E+04 -2.701719E+03 -8.199586E+03  4.891985E+04 -6.066912E+03 -3.259699E+03
       407   5 -1.392972E+04 -7.443810E+02 -4.682055E+03  4.546767E+04 -3.725491E+03 -9.887522E+02
       407   6 -1.425879E+04 -2.045575E+02 -3.043275E+03  4.891974E+04 -1.384035E+03  1.642680E+03
       407   7 -7.162014E+04 -1.612580E+04 -1.795721E+04  5.039659E+04 -1.551328E+03 -3.259443E+03
       407   8 -3.237596E+04 -5.077964E+03 -7.903668E+03  4.612644E+04  1.568674E+03 -9.884181E+02
       407   9  6.076366E+03  4.417202E+03 -2.695651E+02  4.876050E+04  4.688905E+03  1.643091E+03
       407  10  4.310473E+04  1.072217E+04  1.557777E+03  4.744294E+04  1.264357E-10  1.686005E-11
       407  11  4.516828E+03  3.589178E+03 -1.460502E+03  4.480887E+04 -5.150049E-11  1.218330E-11
       407  12 -3.459351E+04 -4.826333E+03 -5.816960E+03  4.907899E+04 -9.622304E-11 -5.442701E-12
       407  13 -1.425933E+04 -2.701740E+03 -8.199675E+03  4.891983E+04  6.214515E-11  7.516133E-11
       407  14 -1.392973E+04 -7.443857E+02 -4.682083E+03  4.546767E+04 -1.036492E-11  3.792548E-11
       407  15 -1.425879E+04 -2.045609E+02 -3.043283E+03  4.891975E+04 -5.474012E-11  8.406392E-12
       407  16 -7.162014E+04 -1.612582E+04 -1.795723E+04  5.039659E+04 -9.910937E-11  8.843366E-12
       407  17 -3.237596E+04 -5.077966E+03 -7.903675E+03  4.612644E+04  1.369368E-10  3.953420E-11
       407  18  6.076342E+03  4.417193E+03 -2.696115E+02  4.876049E+04  1.031049E-10  5.527228E-11
       407  19  4.310485E+04  1.072221E+04  1.558007E+03  4.744297E+04  1.058290E+04  3.259933E+03
       407  20  4.516915E+03  3.589201E+03 -1.460347E+03  4.480888E+04  9.019810E+03  9.890750E+02
       407  21 -3.459345E+04 -4.826315E+03 -5.816850E+03  4.907898E+04  7.456786E+03 -1.642267E+03
       407  22 -1.425929E+04 -2.701719E+03 -8.199586E+03  4.891985E+04  6.066912E+03  3.259699E+03
       407  23 -1.392972E+04 -7.443810E+02 -4.682055E+03  4.546767E+04  3.725491E+03  9.887522E+02
       407  24 -1.425879E+04 -2.045575E+02 -3.043275E+03  4.891974E+04  1.384035E+03 -1.642680E+03
       407  25 -7.162014E+04 -1.612580E+04 -1.795721E+04  5.039659E+04  1.551328E+03  3.259443E+03
       407  26 -3.237596E+04 -5.077964E+03 -7.903668E+03  4.612644E+04 -1.568674E+03  9.884181E+02
       407  27  6.076366E+03  4.417202E+03 -2.695651E+02  4.876050E+04 -4.688905E+03 -1.643091E+03
       408   1 -5.884653E+04 -1.041247E+04 -9.138917E+03  4.889542E+04 -6.970838E+03  3.316600E+03
       408   2 -9.744493E+04 -1.945082E+04 -1.505677E+04  4.572874E+04 -4.580108E+03  5.854960E+03
       408   3 -1.365419E+05 -2.924923E+04 -2.272099E+04  4.945445E+04 -2.189434E+03  7.848687E+03
       408   4 -1.417846E+04 -1.778856E+02 -2.636087E+03  4.891710E+04 -9.008102E+02  3.316977E+03
       408   5 -1.403165E+04 -2.429023E+02 -2.435930E+03  4.547094E+04  3.136313E+02  5.855137E+03
       408   6 -1.418065E+04 -8.636416E+02 -3.165209E+03  4.891712E+04  1.528157E+03  7.848700E+03
       408   7  3.049171E+04  1.005663E+04  3.866847E+03  4.893878E+04  5.169637E+03  3.317354E+03
       408   8  6.938865E+04  1.896469E+04  1.018485E+04  4.521310E+04  5.208002E+03  5.855309E+03
       408   9  1.081955E+05  2.752120E+04  1.639023E+04  4.837968E+04  5.246454E+03  7.848706E+03
       408  10 -5.884659E+04 -1.041249E+04 -9.139029E+03  4.889544E+04  1.244990E-10  2.226813E-11
       408  11 -9.744496E+04 -1.945086E+04 -1.505687E+04  4.572876E+04 -1.653572E-11 -3.109684E-11
       408  12 -1.365419E+05 -2.924929E+04 -2.272112E+04  4.945447E+04  2.005064E-11 -3.076847E-11
       408  13 -1.417846E+04 -1.778976E+02 -2.636110E+03  4.891710E+04  1.518981E-12  2.066825E-11
       408  14 -1.403166E+04 -2.429391E+02 -2.435995E+03  4.547094E+04 -9.738282E-12 -1.885970E-11
       408  15 -1.418067E+04 -8.637084E+02 -3.165329E+03  4.891711E+04 -4.184521E-11 -5.999892E-11
       408  16  3.049168E+04  1.005661E+04  3.866776E+03  4.893877E+04 -1.075778E-10  3.424393E-11
       408  17  6.938861E+04  1.896465E+04  1.018474E+04  4.521307E+04  1.064298E-10 -4.297031E-11
       408  18  1.081955E+05  2.752113E+04  1.639007E+04  4.837965E+04  5.163040E-11 -8.850607E-11
       408  19 -5.884653E+04 -1.041247E+04 -9.138917E+03  4.889542E+04  6.970838E+03 -3.316600E+03
       408  20 -9.744493E+04 -1.945082E+04 -1.505677E+04  4.572874E+04  4.580108E+03 -5.854960E+03
       408  21 -1.365419E+05 -2.924923E+04 -2.272099E+04  4.945445E+04  2.189434E+03 -7.848687E+03
       408  22 -1.417846E+04 -1.778856E+02 -2.636087E+03  4.891710E+04  9.008102E+02 -3.316977E+03
       408  23 -1.403165E+04 -2.429023E+02 -2.435930E+03  4.547094E+04 -3.136313E+02 -5.855137E+03
       408  24 -1.418065E+04 -8.636416E+02 -3.165209E+03  4.891712E+04 -1.528157E+03 -7.848700E+03
       408  25  3.049171E+04  1.005663E+04  3.866847E+03  4.893878E+04 -5.169637E+03 -3.317354E+03
       408  26  6.938865E+04  1.896469E+04  1.018485E+04  4.521310E+04 -5.208002E+03 -5.855309E+03
       408  27  1.081955E+05  2.752120E+04  1.639023E+04  4.837968E+04 -5.246454E+03 -7.848706E+03
       409   1 -1.614610E+05 -3.532281E+04 -2.792862E+04  4.897214E+04 -1.576869E+03  9.025106E+03
       409   2 -1.985229E+05 -4.772300E+04 -4.120180E+04  4.962898E+04  1.239054E+04  8.255790E+03
       409   3 -2.392162E+05 -6.739317E+04 -6.538655E+04  5.682618E+04  2.635610E+04  2.575112E+03
       409   4 -1.451412E+04 -1.120509E+03 -3.879561E+03  4.883903E+04  2.064518E+03  9.025020E+03
       409   5 -1.362103E+04 -3.813388E+03 -6.579925E+03  4.556869E+04  5.426798E+03  8.255489E+03
       409   6 -1.451891E+04 -1.193374E+04 -1.282561E+04  4.883894E+04  8.788387E+03  2.575094E+03
       409   7  1.324542E+05  3.308069E+04  2.016893E+04  4.870588E+04  5.706738E+03  9.024933E+03
       409   8  1.713141E+05  4.009434E+04  2.804066E+04  4.150716E+04 -1.538965E+03  8.255279E+03
       409   9  2.102257E+05  4.352252E+04  3.973310E+04  4.084878E+04 -8.785649E+03  2.575529E+03
       409  10 -1.614611E+05 -3.532290E+04 -2.792878E+04  4.897215E+04 -3.907643E-11 -4.889912E-11
       409  11 -1.985231E+05 -4.772312E+04 -4.120221E+04  4.962890E+04 -9.302295E-11 -7.270965E-11
       409  12 -2.392169E+05 -6.739337E+04 -6.538787E+04  5.682612E+04 -1.418211E-10 -5.456350E-11
       409  13 -1.451414E+04 -1.120598E+03 -3.879722E+03  4.883901E+04  1.038323E-11 -3.969365E-11
       409  14 -1.362108E+04 -3.813469E+03 -6.580108E+03  4.556865E+04 -1.209171E-10 -4.822311E-11
       409  15 -1.451900E+04 -1.193377E+04 -1.282577E+04  4.883892E+04 -9.684663E-11  6.039459E-13
       409  16  1.324542E+05  3.308059E+04  2.016872E+04  4.870584E+04  7.070677E-11 -6.634767E-11
       409  17  1.713141E+05  4.009426E+04  2.804053E+04  4.150717E+04  9.906413E-11  1.029533E-11
       409  18  2.102256E+05  4.352249E+04  3.973294E+04  4.084880E+04  8.793783E-11 -5.202263E-11
       409  19 -1.614610E+05 -3.532281E+04 -2.792862E+04  4.897214E+04  1.576869E+03 -9.025106E+03
       409  20 -1.985229E+05 -4.772300E+04 -4.120180E+04  4.962898E+04 -1.239054E+04 -8.255790E+03
       409  21 -2.392162E+05 -6.739317E+04 -6.538655E+04  5.682618E+04 -2.635610E+04 -2.575112E+03
       409  22 -1.451412E+04 -1.120509E+03 -3.879561E+03  4.883903E+04 -2.064518E+03 -9.025020E+03
       409  23 -1.362103E+04 -3.813388E+03 -6.579925E+03  4.556869E+04 -5.426798E+03 -8.255489E+03
       409  24 -1.451891E+04 -1.193374E+04 -1.282561E+04  4.883894E+04 -8.788387E+03 -2.575094E+03
       409  25  1.324542E+05  3.308069E+04  2.016893E+04  4.870588E+04 -5.706738E+03 -9.024933E+03
       409  26  1.713141E+05  4.009434E+04  2.804066E+04  4.150716E+04  1.538965E+03 -8.255279E+03
       409  27  2.102257E+05  4.352252E+04  3.973310E+04  4.084878E+04  8.785649E+03 -2.575529E+03
       410   1 -9.995015E+04 -2.995398E+05 -1.038035E+05  1.129010E+05 -1.080390E+03 -5.379614E+04
       410   2 -4.154733E+04 -2.387519E+05 -5.434004E+04  8.668464E+04 -2.652648E+03 -2.817703E+04
       410   3 -1.404415E+04 -1.890249E+05 -2.928604E+04  7.006291E+04 -9.925758E+02 -2.555260E+03
       410   4 -6.474313E+04 -1.574714E+05 -6.977910E+04  6.949376E+04 -1.075367E+03 -4.689969E+04
       410   5 -2.074428E+04 -1.525425E+05 -3.650485E+04  6.469094E+04 -2.651636E+03 -2.825983E+04
       410   6 -6.431558E+03 -1.574637E+05 -2.278905E+04  6.948521E+04 -9.940140E+02 -9.619796E+03
       410   7 -2.953046E+04 -1.538037E+04 -3.575499E+04  2.607653E+04 -1.071309E+03 -4.000166E+04
       410   8  6.012123E+01 -6.632492E+04 -1.866981E+04  4.269412E+04 -2.650618E+03 -2.834264E+04
       410   9  1.181000E+03 -1.259014E+05 -1.629193E+04  6.890748E+04 -9.954391E+02 -1.668468E+04
       410  10 -9.995093E+04 -2.995429E+05 -1.038089E+05  1.129010E+05  4.586966E-12  5.118793E-11
       410  11 -4.154755E+04 -2.387528E+05 -5.434154E+04  8.668458E+04  7.754037E-11  1.572961E-10
       410  12 -1.404415E+04 -1.890249E+05 -2.928605E+04  7.006290E+04  8.271081E-11  6.747821E-11
       410  13 -6.474372E+04 -1.574738E+05 -6.978324E+04  6.949371E+04  3.246072E-12  1.065991E-10
       410  14 -2.074450E+04 -1.525433E+05 -3.650637E+04  6.469088E+04  1.914046E-10 -5.729677E-11
       410  15 -6.431584E+03 -1.574638E+05 -2.278923E+04  6.948520E+04  7.425363E-11  9.793663E-11
       410  16 -2.953090E+04 -1.538209E+04 -3.575800E+04  2.607649E+04  1.648406E-11 -7.486188E-12
       410  17  5.989801E+01 -6.632579E+04 -1.867134E+04  4.269406E+04  9.029283E-12 -4.091717E-11
       410  18  1.180925E+03 -1.259017E+05 -1.629246E+04  6.890747E+04  1.287751E-10 -1.190449E-10
       410  19 -9.995015E+04 -2.995398E+05 -1.038035E+05  1.129010E+05  1.080390E+03  5.379614E+04
       410  20 -4.154733E+04 -2.387519E+05 -5.434004E+04  8.668464E+04  2.652648E+03  2.817703E+04
       410  21 -1.404415E+04 -1.890249E+05 -2.928604E+04  7.006291E+04  9.925758E+02  2.555260E+03
       410  22 -6.474313E+04 -1.574714E+05 -6.977910E+04  6.949376E+04  1.075367E+03  4.689969E+04
       410  23 -2.074428E+04 -1.525425E+05 -3.650485E+04  6.469094E+04  2.651636E+03  2.825983E+04
       410  24 -6.431558E+03 -1.574637E+05 -2.278905E+04  6.948521E+04  9.940140E+02  9.619796E+03
       410  25 -2.953046E+04 -1.538037E+04 -3.575499E+04  2.607653E+04  1.071309E+03  4.000166E+04
       410  26  6.012123E+01 -6.632492E+04 -1.866981E+04  4.269412E+04  2.650618E+03  2.834264E+04
       410  27  1.181000E+03 -1.259014E+05 -1.629193E+04  6.890748E+04  9.954391E+02  1.668468E+04
       411   1 -4.655645E+03 -1.526457E+05 -2.025851E+04  7.251506E+04  1.066754E+03  7.203442E+02
       411   2  1.034066E+04 -9.617688E+04 -8.976490E+03  6.426266E+04  4.211072E+03  8.920457E+03
       411   3  1.975970E+04 -4.216818E+04 -4.428438E+03  6.579585E+04  7.060642E+03  1.712136E+04
       411   4 -5.157483E+03 -1.558468E+05 -1.955913E+04  6.952756E+04  1.065291E+03 -6.384822E+03
       411   5 -3.073424E+03 -1.545611E+05 -1.765548E+04  6.463476E+04  4.209866E+03  2.450919E+03
       411   6 -6.677212E+03 -1.558491E+05 -2.292765E+04  6.952791E+04  7.059763E+03  1.128677E+04
       411   7 -5.659260E+03 -1.590478E+05 -1.885956E+04  6.654008E+04  1.063895E+03 -1.348996E+04
       411   8 -1.648764E+04 -2.129417E+05 -2.633437E+04  6.500682E+04  4.208651E+03 -4.018034E+03
       411   9 -3.311472E+04 -2.695172E+05 -4.142710E+04  7.325926E+04  7.058814E+03  5.453219E+03
       411  10 -4.655647E+03 -1.526457E+05 -2.025851E+04  7.251506E+04  2.406129E-11 -9.532081E-11
       411  11  1.034061E+04 -9.617697E+04 -8.976673E+03  6.426263E+04 -9.496448E-11  1.462077E-10
       411  12  1.975957E+04 -4.216851E+04 -4.429082E+03  6.579575E+04  3.448427E-11  1.845749E-10
       411  13 -5.157495E+03 -1.558468E+05 -1.955921E+04  6.952757E+04  1.551211E-11  9.015783E-11
       411  14 -3.073445E+03 -1.545611E+05 -1.765552E+04  6.463475E+04  3.794996E-12 -6.374966E-11
       411  15 -6.677299E+03 -1.558493E+05 -2.292799E+04  6.952784E+04 -1.033871E-10  1.207145E-10
       411  16 -5.659310E+03 -1.590480E+05 -1.885991E+04  6.654010E+04  4.292607E-11  1.297313E-10
       411  17 -1.648766E+04 -2.129418E+05 -2.633444E+04  6.500683E+04 -7.101812E-11 -1.416832E-11
       411  18 -3.311478E+04 -2.695172E+05 -4.142725E+04  7.325923E+04 -2.778737E-11 -1.681008E-10
       411  19 -4.655645E+03 -1.526457E+05 -2.025851E+04  7.251506E+04 -1.066754E+03 -7.203442E+02
       411  20  1.034066E+04 -9.617688E+04 -8.976490E+03  6.426266E+04 -4.211072E+03 -8.920457E+03
       411  21  1.975970E+04 -4.216818E+04 -4.428438E+03  6.579585E+04 -7.060642E+03 -1.712136E+04
       411  22 -5.157483E+03 -1.558468E+05 -1.955913E+04  6.952756E+04 -1.065291E+03  6.384822E+03
       411  23 -3.073424E+03 -1.545611E+05 -1.765548E+04  6.463476E+04 -4.209866E+03 -2.450919E+03
       411  24 -6.677212E+03 -1.558491E+05 -2.292765E+04  6.952791E+04 -7.059763E+03 -1.128677E+04
       411  25 -5.659260E+03 -1.590478E+05 -1.885956E+04  6.654008E+04 -1.063895E+03  1.348996E+04
       411  26 -1.648764E+04 -2.129417E+05 -2.633437E+04  6.500682E+04 -4.208651E+03  4.018034E+03
       411  27 -3.311472E+04 -2.695172E+05 -4.142710E+04  7.325926E+04 -7.058814E+03 -5.453219E+03
       412   1  2.622173E+04 -9.600944E+03 -3.432399E+03  6.874940E+04  8.850557E+03  2.089348E+04
       412   2  2.047957E+04  5.114742E+04 -9.276389E+03  3.539530E+04  8.664635E+03  3.301957E+04
       412   3 -2.273696E+04  1.009566E+05 -3.238168E+04  1.143763E+04  2.781983E+03  4.514675E+04
       412   4 -8.439475E+03 -1.581859E+05 -2.814200E+04  6.944156E+04  8.849752E+03  1.514087E+04
       412   5 -2.777915E+04 -1.516510E+05 -4.779805E+04  6.474734E+04  8.667384E+03  3.956460E+04
       412   6 -8.673853E+04 -1.581996E+05 -9.326029E+04  6.945110E+04  2.788548E+03  6.398775E+04
       412   7 -4.310181E+04 -3.067490E+05 -5.285214E+04  7.013355E+04  8.848935E+03  9.389594E+03
       412   8 -7.603701E+04 -3.544077E+05 -8.632093E+04  9.408956E+04  8.670754E+03  4.610755E+04
       412   9 -1.507320E+05 -4.172859E+05 -1.541404E+05  1.274402E+05  2.798636E+03  8.282093E+04
       412  10  2.622153E+04 -9.601434E+03 -3.433366E+03  6.874925E+04 -4.213416E-11  2.001654E-11
       412  11  2.047920E+04  5.114623E+04 -9.278579E+03  3.539507E+04  3.370734E-11  4.666663E-11
       412  12 -2.273751E+04  1.009544E+05 -3.238552E+04  1.143753E+04 -1.237626E-11 -4.865453E-12
       412  13 -8.439621E+03 -1.581862E+05 -2.814258E+04  6.944145E+04 -2.666471E-11  2.577547E-11
       412  14 -2.777965E+04 -1.516527E+05 -4.780113E+04  6.474707E+04  2.690756E-11 -2.572352E-11
       412  15 -8.673964E+04 -1.582040E+05 -9.326800E+04  6.945096E+04  2.838482E-11 -1.769652E-11
       412  16 -4.310192E+04 -3.067491E+05 -5.285245E+04  7.013349E+04 -3.211425E-11  1.422680E-11
       412  17 -7.603767E+04 -3.544100E+05 -8.632507E+04  9.408924E+04 -7.084084E-11  8.541415E-11
       412  18 -1.507339E+05 -4.172933E+05 -1.541533E+05  1.274400E+05  4.804052E-11  8.561382E-13
       412  19  2.622173E+04 -9.600944E+03 -3.432399E+03  6.874940E+04 -8.850557E+03 -2.089348E+04
       412  20  2.047957E+04  5.114742E+04 -9.276389E+03  3.539530E+04 -8.664635E+03 -3.301957E+04
       412  21 -2.273696E+04  1.009566E+05 -3.238168E+04  1.143763E+04 -2.781983E+03 -4.514675E+04
       412  22 -8.439475E+03 -1.581859E+05 -2.814200E+04  6.944156E+04 -8.849752E+03 -1.514087E+04
       412  23 -2.777915E+04 -1.516510E+05 -4.779805E+04  6.474734E+04 -8.667384E+03 -3.956460E+04
       412  24 -8.673853E+04 -1.581996E+05 -9.326029E+04  6.945110E+04 -2.788548E+03 -6.398775E+04
       412  25 -4.310181E+04 -3.067490E+05 -5.285214E+04  7.013355E+04 -8.848935E+03 -9.389594E+03
       412  26 -7.603701E+04 -3.544077E+05 -8.632093E+04  9.408956E+04 -8.670754E+03 -4.610755E+04
       412  27 -1.507320E+05 -4.172859E+05 -1.541404E+05  1.274402E+05 -2.798636E+03 -8.282093E+04
       413   1  3.285558E+05  2.962827E+05  7.882713E+04  2.469983E+05  4.852598E+04  3.786732E+04
       413   2  3.355527E+05  2.287288E+05  3.494017E+04  2.675449E+05  2.974196E+04  2.731904E+04
       413   3  3.667949E+05  1.914231E+05  1.529319E+04  2.742535E+05  1.208051E+04  1.527247E+04
       413   4  4.522696E+05  2.827372E+05  9.926203E+04  2.616929E+05  5.505650E+04  4.275674E+04
       413   5  4.247282E+05  2.404508E+05  4.969342E+04  2.887277E+05  3.302644E+04  2.977937E+04
       413   6  4.221299E+05  2.291108E+05  2.717540E+04  3.019255E+05  1.212090E+04  1.530266E+04
       413   7  5.760096E+05  2.691974E+05  1.196992E+05  2.763861E+05  6.158907E+04  4.764567E+04
       413   8  5.139145E+05  2.521741E+05  6.444699E+04  3.099118E+05  3.631158E+04  3.223968E+04
       413   9  4.774672E+05  2.667994E+05  3.905705E+04  3.295997E+05  1.216129E+04  1.533285E+04
       413  10  3.285529E+05  2.962806E+05  7.882001E+04  2.469969E+05 -8.473355E-11 -1.347451E-11
       413  11  3.355516E+05  2.287277E+05  3.493711E+04  2.675443E+05 -3.935539E-11  1.372653E-11
       413  12  3.667946E+05  1.914228E+05  1.529247E+04  2.742534E+05 -8.390373E-11  4.552353E-11
       413  13  4.522658E+05  2.827345E+05  9.925290E+04  2.616910E+05  2.194504E-10  8.144995E-11
       413  14  4.247268E+05  2.404496E+05  4.968971E+04  2.887269E+05 -2.105790E-10 -4.353260E-11
       413  15  4.221297E+05  2.291105E+05  2.717469E+04  3.019254E+05 -8.038126E-12  9.390733E-11
       413  16  5.760049E+05  2.691939E+05  1.196878E+05  2.763838E+05 -1.867711E-10  6.225018E-12
       413  17  5.139128E+05  2.521726E+05  6.444257E+04  3.099108E+05  3.298067E-11  6.517112E-11
       413  18  4.774670E+05  2.667991E+05  3.905633E+04  3.295995E+05  1.884180E-11  1.188418E-10
       413  19  3.285558E+05  2.962827E+05  7.882713E+04  2.469983E+05 -4.852598E+04 -3.786732E+04
       413  20  3.355527E+05  2.287288E+05  3.494017E+04  2.675449E+05 -2.974196E+04 -2.731904E+04
       413  21  3.667949E+05  1.914231E+05  1.529319E+04  2.742535E+05 -1.208051E+04 -1.527247E+04
       413  22  4.522696E+05  2.827372E+05  9.926203E+04  2.616929E+05 -5.505650E+04 -4.275674E+04
       413  23  4.247282E+05  2.404508E+05  4.969342E+04  2.887277E+05 -3.302644E+04 -2.977937E+04
       413  24  4.221299E+05  2.291108E+05  2.717540E+04  3.019255E+05 -1.212090E+04 -1.530266E+04
       413  25  5.760096E+05  2.691974E+05  1.196992E+05  2.763861E+05 -6.158907E+04 -4.764567E+04
       413  26  5.139145E+05  2.521741E+05  6.444699E+04  3.099118E+05 -3.631158E+04 -3.223968E+04
       413  27  4.774672E+05  2.667994E+05  3.905705E+04  3.295997E+05 -1.216129E+04 -1.533285E+04
       414   1  3.645112E+05  1.941796E+05  9.606633E+03  2.762208E+05  9.302884E+03  1.311410E+04
       414   2  3.683019E+05  1.926604E+05  2.159688E+03  2.801395E+05  5.106184E+03  9.836011E+03
       414   3  3.753905E+05  1.927972E+05 -9.708592E+02  2.828475E+05  1.046040E+03  6.375745E+03
       414   4  4.197174E+05  2.268521E+05  2.054226E+04  3.015573E+05  9.319288E+03  1.312622E+04
       414   5  4.168732E+05  2.239299E+05  1.163025E+04  3.037020E+05  4.728318E+03  9.552585E+03
       414   6  4.174121E+05  2.227491E+05  7.376235E+03  3.046362E+05  2.739126E+02  5.796749E+03
       414   7  4.749273E+05  2.595260E+05  3.147780E+04  3.268962E+05  9.335694E+03  1.313834E+04
       414   8  4.654479E+05  2.552011E+05  2.110094E+04  3.272669E+05  4.350408E+03  9.269129E+03
       414   9  4.594368E+05  2.527028E+05  1.572363E+04  3.264271E+05 -4.983021E+02  5.217686E+03
       414  10  3.645111E+05  1.941794E+05  9.606148E+03  2.762207E+05  1.646304E-10  1.392678E-10
       414  11  3.683019E+05  1.926603E+05  2.159457E+03  2.801394E+05  4.083654E-10  9.753075E-11
       414  12  3.753905E+05  1.927972E+05 -9.709377E+02  2.828475E+05  3.338675E-10  1.428359E-10
       414  13  4.197173E+05  2.268519E+05  2.054177E+04  3.015572E+05 -1.470877E-10  1.068771E-10
       414  14  4.168731E+05  2.239298E+05  1.163003E+04  3.037020E+05 -4.618046E-10 -4.755124E-11
       414  15  4.174121E+05  2.227490E+05  7.376171E+03  3.046362E+05 -1.398194E-10 -8.772786E-11
       414  16  4.749272E+05  2.595258E+05  3.147731E+04  3.268961E+05 -3.479777E-10 -4.168183E-11
       414  17  4.654478E+05  2.552010E+05  2.110074E+04  3.272669E+05 -1.657784E-10 -4.823683E-11
       414  18  4.594368E+05  2.527028E+05  1.572358E+04  3.264271E+05  8.148898E-11 -1.972802E-10
       414  19  3.645112E+05  1.941796E+05  9.606633E+03  2.762208E+05 -9.302884E+03 -1.311410E+04
       414  20  3.683019E+05  1.926604E+05  2.159688E+03  2.801395E+05 -5.106184E+03 -9.836011E+03
       414  21  3.753905E+05  1.927972E+05 -9.708592E+02  2.828475E+05 -1.046040E+03 -6.375745E+03
       414  22  4.197174E+05  2.268521E+05  2.054226E+04  3.015573E+05 -9.319288E+03 -1.312622E+04
       414  23  4.168732E+05  2.239299E+05  1.163025E+04  3.037020E+05 -4.728318E+03 -9.552585E+03
       414  24  4.174121E+05  2.227491E+05  7.376235E+03  3.046362E+05 -2.739126E+02 -5.796749E+03
       414  25  4.749273E+05  2.595260E+05  3.147780E+04  3.268962E+05 -9.335694E+03 -1.313834E+04
       414  26  4.654479E+05  2.552011E+05  2.110094E+04  3.272669E+05 -4.350408E+03 -9.269129E+03
       414  27  4.594368E+05  2.527028E+05  1.572363E+04  3.264271E+05  4.983021E+02 -5.217686E+03
       415   1  3.777161E+05  1.950538E+05 -1.465482E+03  2.843717E+05  2.714399E+02  5.459037E+03
       415   2  3.816172E+05  1.985155E+05 -1.355512E+03  2.868902E+05 -1.550083E+03  3.514907E+03
       415   3  3.871182E+05  2.014053E+05  5.987151E+02  2.890550E+05 -3.354019E+03  1.547353E+03
       415   4  4.172140E+05  2.225850E+05  6.256101E+03  3.045666E+05 -5.033284E+02  4.878069E+03
       415   5  4.164128E+05  2.228732E+05  5.416473E+03  3.047376E+05 -2.375681E+03  2.895851E+03
       415   6  4.172227E+05  2.226005E+05  6.465135E+03  3.045548E+05 -4.230450E+03  8.902043E+02
       415   7  4.567129E+05  2.501165E+05  1.397732E+04  3.247626E+05 -1.278144E+03  4.297066E+03
       415   8  4.512095E+05  2.472314E+05  1.218828E+04  3.225859E+05 -3.201331E+03  2.276757E+03
       415   9  4.473282E+05  2.437964E+05  1.233153E+04  3.200555E+05 -5.106936E+03  2.330141E+02
       415  10  3.777161E+05  1.950538E+05 -1.465538E+03  2.843717E+05 -2.527391E-10 -1.295218E-10
       415  11  3.816172E+05  1.985155E+05 -1.355540E+03  2.868902E+05 -3.991802E-11  2.792205E-11
       415  12  3.871182E+05  2.014053E+05  5.986894E+02  2.890550E+05  6.065670E-10  3.962453E-11
       415  13  4.172140E+05  2.225850E+05  6.256056E+03  3.045666E+05  1.997216E-10 -5.518556E-11
       415  14  4.164128E+05  2.228732E+05  5.416446E+03  3.047376E+05  3.192184E-10 -2.623288E-11
       415  15  4.172226E+05  2.226005E+05  6.465100E+03  3.045548E+05  2.261289E-10 -1.464449E-10
       415  16  4.567129E+05  2.501165E+05  1.397728E+04  3.247626E+05  3.268177E-10 -1.247692E-11
       415  17  4.512095E+05  2.472314E+05  1.218825E+04  3.225859E+05 -2.351178E-10 -8.797930E-11
       415  18  4.473282E+05  2.437964E+05  1.233148E+04  3.200555E+05 -2.710123E-11 -3.793130E-10
       415  19  3.777161E+05  1.950538E+05 -1.465482E+03  2.843717E+05 -2.714399E+02 -5.459037E+03
       415  20  3.816172E+05  1.985155E+05 -1.355512E+03  2.868902E+05  1.550083E+03 -3.514907E+03
       415  21  3.871182E+05  2.014053E+05  5.987151E+02  2.890550E+05  3.354019E+03 -1.547353E+03
       415  22  4.172140E+05  2.225850E+05  6.256101E+03  3.045666E+05  5.033284E+02 -4.878069E+03
       415  23  4.164128E+05  2.228732E+05  5.416473E+03  3.047376E+05  2.375681E+03 -2.895851E+03
       415  24  4.172227E+05  2.226005E+05  6.465135E+03  3.045548E+05  4.230450E+03 -8.902043E+02
       415  25  4.567129E+05  2.501165E+05  1.397732E+04  3.247626E+05  1.278144E+03 -4.297066E+03
       415  26  4.512095E+05  2.472314E+05  1.218828E+04  3.225859E+05  3.201331E+03 -2.276757E+03
       415  27  4.473282E+05  2.437964E+05  1.233153E+04  3.200555E+05  5.106936E+03 -2.330141E+02
       416   1  3.898241E+05  2.040015E+05  2.425612E+03  2.907266E+05 -4.151410E+03  5.802965E+02
       416   2  3.959627E+05  2.064003E+05  7.899886E+03  2.914937E+05 -8.735931E+03 -3.502346E+03
       416   3  4.056407E+05  2.107007E+05  1.828295E+04  2.909844E+05 -1.330935E+04 -7.600189E+03
       416   4  4.174414E+05  2.227736E+05  7.709299E+03  3.046314E+05 -5.028141E+03 -7.706866E+01
       416   5  4.168971E+05  2.240061E+05  1.231172E+04  3.036288E+05 -9.645551E+03 -4.184395E+03
       416   6  4.198988E+05  2.271473E+05  2.185133E+04  3.013499E+05 -1.425169E+04 -8.306836E+03
       416   7  4.450603E+05  2.415466E+05  1.299319E+04  3.185372E+05 -5.904945E+03 -7.344858E+02
       416   8  4.378319E+05  2.416124E+05  1.672354E+04  3.157644E+05 -1.055521E+04 -4.866483E+03
       416   9  4.341570E+05  2.435940E+05  2.541957E+04  3.117155E+05 -1.519403E+04 -9.013506E+03
       416  10  3.898241E+05  2.040015E+05  2.425579E+03  2.907266E+05 -8.029823E-11 -4.701267E-10
       416  11  3.959626E+05  2.064003E+05  7.899720E+03  2.914936E+05  4.269151E-10 -1.924861E-10
       416  12  4.056405E+05  2.107005E+05  1.828251E+04  2.909843E+05  5.119504E-10 -4.650766E-11
       416  13  4.174414E+05  2.227736E+05  7.709251E+03  3.046314E+05  4.784673E-11 -2.154145E-10
       416  14  4.168970E+05  2.240061E+05  1.231151E+04  3.036288E+05 -5.515330E-11 -5.858698E-11
       416  15  4.198986E+05  2.271472E+05  2.185082E+04  3.013498E+05  7.514729E-11 -1.723442E-10
       416  16  4.450603E+05  2.415466E+05  1.299312E+04  3.185372E+05  2.710779E-10  8.684815E-11
       416  17  4.378318E+05  2.416123E+05  1.672329E+04  3.157644E+05  1.051602E-10  1.758169E-11
       416  18  4.341567E+05  2.435938E+05  2.541899E+04  3.117154E+05 -9.516015E-11 -3.050959E-10
       416  19  3.898241E+05  2.040015E+05  2.425612E+03  2.907266E+05  4.151410E+03 -5.802965E+02
       416  20  3.959627E+05  2.064003E+05  7.899886E+03  2.914937E+05  8.735931E+03  3.502346E+03
       416  21  4.056407E+05  2.107007E+05  1.828295E+04  2.909844E+05  1.330935E+04  7.600189E+03
       416  22  4.174414E+05  2.227736E+05  7.709299E+03  3.046314E+05  5.028141E+03  7.706866E+01
       416  23  4.168971E+05  2.240061E+05  1.231172E+04  3.036288E+05  9.645551E+03  4.184395E+03
       416  24  4.198988E+05  2.271473E+05  2.185133E+04  3.013499E+05  1.425169E+04  8.306836E+03
       416  25  4.450603E+05  2.415466E+05  1.299319E+04  3.185372E+05  5.904945E+03  7.344858E+02
       416  26  4.378319E+05  2.416124E+05  1.672354E+04  3.157644E+05  1.055521E+04  4.866483E+03
       416  27  4.341570E+05  2.435940E+05  2.541957E+04  3.117155E+05  1.519403E+04  9.013506E+03
       417   1  4.080517E+05  2.181583E+05  2.592252E+04  2.937401E+05 -1.613955E+04 -1.011293E+04
       417   2  4.466373E+05  2.022785E+05  5.069125E+04  2.729529E+05 -3.721835E+04 -2.667669E+04
       417   3  5.118539E+05  2.192565E+05  1.040989E+05  2.373875E+05 -5.822131E+04 -4.334217E+04
       417   4  4.225026E+05  2.295231E+05  2.893569E+04  3.017336E+05 -1.708369E+04 -1.082084E+04
       417   5  4.252286E+05  2.416575E+05  5.296118E+04  2.876779E+05 -3.838543E+04 -2.755478E+04
       417   6  4.546305E+05  2.866962E+05  1.058194E+05  2.588451E+05 -5.960972E+04 -4.439274E+04
       417   7  4.369537E+05  2.408880E+05  3.194887E+04  3.097273E+05 -1.802786E+04 -1.152877E+04
       417   8  4.038222E+05  2.810413E+05  5.523175E+04  3.024026E+05 -3.955246E+04 -2.843302E+04
       417   9  3.974168E+05  3.541520E+05  1.075424E+05  2.803001E+05 -6.099796E+04 -4.544364E+04
       417  10  4.080514E+05  2.181582E+05  2.592184E+04  2.937400E+05  3.312621E-10 -2.360269E-10
       417  11  4.466356E+05  2.022773E+05  5.068732E+04  2.729521E+05 -8.285839E-11 -9.302671E-11
       417  12  5.118497E+05  2.192536E+05  1.040890E+05  2.373855E+05 -1.852509E-10 -8.549335E-11
       417  13  4.225022E+05  2.295229E+05  2.893493E+04  3.017334E+05  3.213174E-10 -2.528608E-10
       417  14  4.252269E+05  2.416562E+05  5.295699E+04  2.876771E+05  5.256719E-10 -2.981912E-10
       417  15  4.546262E+05  2.866931E+05  1.058091E+05  2.588430E+05  1.279876E-10  3.015168E-12
       417  16  4.369533E+05  2.408878E+05  3.194801E+04  3.097271E+05  4.736017E-11 -2.503086E-10
       417  17  4.038203E+05  2.810400E+05  5.522729E+04  3.024017E+05  4.063436E-10 -1.847036E-10
       417  18  3.974123E+05  3.541488E+05  1.075315E+05  2.802979E+05  1.243124E-10  5.781966E-11
       417  19  4.080517E+05  2.181583E+05  2.592252E+04  2.937401E+05  1.613955E+04  1.011293E+04
       417  20  4.466373E+05  2.022785E+05  5.069125E+04  2.729529E+05  3.721835E+04  2.667669E+04
       417  21  5.118539E+05  2.192565E+05  1.040989E+05  2.373875E+05  5.822131E+04  4.334217E+04
       417  22  4.225026E+05  2.295231E+05  2.893569E+04  3.017336E+05  1.708369E+04  1.082084E+04
       417  23  4.252286E+05  2.416575E+05  5.296118E+04  2.876779E+05  3.838543E+04  2.755478E+04
       417  24  4.546305E+05  2.866962E+05  1.058194E+05  2.588451E+05  5.960972E+04  4.439274E+04
       417  25  4.369537E+05  2.408880E+05  3.194887E+04  3.097273E+05  1.802786E+04  1.152877E+04
       417  26  4.038222E+05  2.810413E+05  5.523175E+04  3.024026E+05  3.955246E+04  2.843302E+04
       417  27  3.974168E+05  3.541520E+05  1.075424E+05  2.803001E+05  6.099796E+04  4.544364E+04
       418   1  7.747981E+04  1.450058E+04  1.001188E+04 -3.506805E+03 -4.654636E+03 -2.253695E+03
       418   2  6.726423E+04  2.821928E+04  1.372023E+04  4.490131E+03 -4.970790E+03 -7.697087E+03
       418   3  5.436634E+04  3.103562E+04  1.490889E+04  1.425492E+04 -5.286555E+03 -9.572040E+03
       418   4 -9.074732E+04 -2.692692E+04 -2.887567E+04  1.446308E+04 -2.026410E+04 -2.252627E+03
       418   5 -8.873551E+04 -8.617635E+03 -1.445580E+04  1.357975E+04 -1.287301E+04 -7.696867E+03
       418   6 -9.074506E+04 -2.550647E+03 -7.908760E+03  1.446419E+04 -5.481320E+03 -9.572248E+03
       418   7 -2.589471E+05 -6.835507E+04 -6.776403E+04  3.242806E+04 -3.586937E+04 -2.252463E+03
       418   8 -2.447112E+05 -4.545557E+04 -4.263250E+04  2.266703E+04 -2.077329E+04 -7.696879E+03
       418   9 -2.358355E+05 -3.613795E+04 -3.072693E+04  1.467341E+04 -5.676042E+03 -9.572455E+03
       418  10  7.747979E+04  1.450057E+04  1.001183E+04 -3.506813E+03 -1.174698E-10  1.003453E-10
       418  11  6.726419E+04  2.821921E+04  1.372007E+04  4.490100E+03  1.321359E-10 -4.932569E-11
       418  12  5.436629E+04  3.103551E+04  1.490867E+04  1.425488E+04  3.616202E-10 -3.839015E-11
       418  13 -9.074776E+04 -2.692704E+04 -2.887646E+04  1.446304E+04  1.010571E-10 -7.156210E-11
       418  14 -8.873570E+04 -8.617743E+03 -1.445622E+04  1.357967E+04 -1.810962E-11  1.252798E-12
       418  15 -9.074512E+04 -2.550754E+03 -7.908989E+03  1.446415E+04  7.137563E-11  2.174947E-11
       418  16 -2.589485E+05 -6.835542E+04 -6.776646E+04  3.242799E+04 -3.495083E-11 -6.577786E-11
       418  17 -2.447117E+05 -4.545575E+04 -4.263343E+04  2.266690E+04 -1.647755E-10 -8.917461E-12
       418  18 -2.358355E+05 -3.613806E+04 -3.072716E+04  1.467337E+04 -4.377355E-10 -8.967992E-11
       418  19  7.747981E+04  1.450058E+04  1.001188E+04 -3.506805E+03  4.654636E+03  2.253695E+03
       418  20  6.726423E+04  2.821928E+04  1.372023E+04  4.490131E+03  4.970790E+03  7.697087E+03
       418  21  5.436634E+04  3.103562E+04  1.490889E+04  1.425492E+04  5.286555E+03  9.572040E+03
       418  22 -9.074732E+04 -2.692692E+04 -2.887567E+04  1.446308E+04  2.026410E+04  2.252627E+03
       418  23 -8.873551E+04 -8.617635E+03 -1.445580E+04  1.357975E+04  1.287301E+04  7.696867E+03
       418  24 -9.074506E+04 -2.550647E+03 -7.908760E+03  1.446419E+04  5.481320E+03  9.572248E+03
       418  25 -2.589471E+05 -6.835507E+04 -6.776403E+04  3.242806E+04  3.586937E+04  2.252463E+03
       418  26 -2.447112E+05 -4.545557E+04 -4.263250E+04  2.266703E+04  2.077329E+04  7.696879E+03
       418  27 -2.358355E+05 -3.613795E+04 -3.072693E+04  1.467341E+04  5.676042E+03  9.572455E+03
       419   1  4.771880E+04  2.977036E+04  1.509929E+04  1.343917E+04 -4.310936E+03 -9.485126E+03
       419   2  3.633639E+04  2.834226E+04  1.500299E+04  1.302550E+04 -3.580445E+03 -9.325420E+03
       419   3  2.464392E+04  2.604888E+04  1.421517E+04  1.463975E+04 -2.849992E+03 -8.717074E+03
       419   4 -8.995743E+04 -1.981729E+03 -5.981982E+03  1.452181E+04 -4.449751E+03 -9.485333E+03
       419   5 -8.971764E+04 -5.493048E+02 -3.397550E+03  1.350782E+04 -2.750463E+03 -9.325615E+03
       419   6 -8.995633E+04 -1.504850E+02 -2.177601E+03  1.452180E+04 -1.051198E+03 -8.717211E+03
       419   7 -2.276147E+05 -3.373473E+04 -2.706367E+04  1.560420E+04 -4.588535E+03 -9.485541E+03
       419   8 -2.157557E+05 -2.944161E+04 -2.179835E+04  1.399004E+04 -1.920642E+03 -9.325809E+03
       419   9 -2.045433E+05 -2.635044E+04 -1.857055E+04  1.440386E+04  7.472777E+02 -8.717349E+03
       419  10  4.771876E+04  2.977026E+04  1.509909E+04  1.343914E+04 -1.254009E-10 -1.838333E-11
       419  11  3.633635E+04  2.834217E+04  1.500280E+04  1.302547E+04 -6.655777E-11  8.357596E-11
       419  12  2.464389E+04  2.604879E+04  1.421501E+04  1.463973E+04 -6.735612E-11  8.069467E-11
       419  13 -8.995748E+04 -1.981831E+03 -5.982189E+03  1.452178E+04  3.411497E-11 -6.623280E-11
       419  14 -8.971767E+04 -5.494002E+02 -3.397728E+03  1.350780E+04 -1.233860E-10  3.420985E-11
       419  15 -8.995635E+04 -1.505669E+02 -2.177745E+03  1.452179E+04 -1.556909E-11  8.771797E-11
       419  16 -2.276147E+05 -3.373483E+04 -2.706388E+04  1.560417E+04  2.356404E-10 -3.503373E-11
       419  17 -2.157557E+05 -2.944170E+04 -2.179852E+04  1.399003E+04  5.033148E-11  5.981788E-11
       419  18 -2.045433E+05 -2.635052E+04 -1.857070E+04  1.440387E+04 -4.117463E-11  8.139545E-11
       419  19  4.771880E+04  2.977036E+04  1.509929E+04  1.343917E+04  4.310936E+03  9.485126E+03
       419  20  3.633639E+04  2.834226E+04  1.500299E+04  1.302550E+04  3.580445E+03  9.325420E+03
       419  21  2.464392E+04  2.604888E+04  1.421517E+04  1.463975E+04  2.849992E+03  8.717074E+03
       419  22 -8.995743E+04 -1.981729E+03 -5.981982E+03  1.452181E+04  4.449751E+03  9.485333E+03
       419  23 -8.971764E+04 -5.493048E+02 -3.397550E+03  1.350782E+04  2.750463E+03  9.325615E+03
       419  24 -8.995633E+04 -1.504850E+02 -2.177601E+03  1.452180E+04  1.051198E+03  8.717211E+03
       419  25 -2.276147E+05 -3.373473E+04 -2.706367E+04  1.560420E+04  4.588535E+03  9.485541E+03
       419  26 -2.157557E+05 -2.944161E+04 -2.179835E+04  1.399004E+04  1.920642E+03  9.325809E+03
       419  27 -2.045433E+05 -2.635044E+04 -1.857055E+04  1.440386E+04 -7.472777E+02  8.717349E+03
       420   1  1.747918E+04  2.440341E+04  1.342119E+04  1.452135E+04 -2.514866E+03 -8.219885E+03
       420   2  6.008915E+03  2.174148E+04  1.202809E+04  1.367085E+04 -2.071896E+03 -7.293154E+03
       420   3 -5.593793E+03  1.877696E+04  1.027119E+04  1.488901E+04 -1.628991E+03 -6.186571E+03
       420   4 -8.989419E+04 -1.291224E+02 -1.864099E+03  1.453083E+04 -7.072226E+02 -8.219987E+03
       420   5 -8.979371E+04 -1.590899E+02 -1.667793E+03  1.349650E+04  1.240929E+02 -7.293189E+03
       420   6 -8.989345E+04 -5.591404E+02 -2.105107E+03  1.453083E+04  9.553436E+02 -6.186524E+03
       420   7 -1.972559E+05 -2.466218E+04 -1.714954E+04  1.454032E+04  1.100122E+03 -8.220090E+03
       420   8 -1.855871E+05 -2.206007E+04 -1.536380E+04  1.332216E+04  2.319757E+03 -7.293225E+03
       420   9 -1.741859E+05 -1.989557E+04 -1.448151E+04  1.417271E+04  3.539342E+03 -6.186481E+03
       420  10  1.747916E+04  2.440334E+04  1.342105E+04  1.452133E+04  1.621940E-10  2.816975E-11
       420  11  6.008896E+03  2.174142E+04  1.202799E+04  1.367084E+04  4.999461E-11 -8.510542E-11
       420  12 -5.593806E+03  1.877692E+04  1.027112E+04  1.488900E+04 -1.513002E-10  1.659404E-11
       420  13 -8.989421E+04 -1.291951E+02 -1.864227E+03  1.453083E+04  3.126908E-11  2.037358E-11
       420  14 -8.979373E+04 -1.591470E+02 -1.667893E+03  1.349650E+04 -6.409338E-11 -5.449558E-11
       420  15 -8.989346E+04 -5.591817E+02 -2.105181E+03  1.453084E+04 -4.046516E-11 -9.796719E-11
       420  16 -1.972559E+05 -2.466225E+04 -1.714967E+04  1.454033E+04 -4.353275E-11  2.469671E-11
       420  17 -1.855871E+05 -2.206013E+04 -1.536391E+04  1.332218E+04  1.335794E-10 -6.861102E-11
       420  18 -1.741860E+05 -1.989561E+04 -1.448160E+04  1.417272E+04  7.278772E-11 -9.972232E-11
       420  19  1.747918E+04  2.440341E+04  1.342119E+04  1.452135E+04  2.514866E+03  8.219885E+03
       420  20  6.008915E+03  2.174148E+04  1.202809E+04  1.367085E+04  2.071896E+03  7.293154E+03
       420  21 -5.593793E+03  1.877696E+04  1.027119E+04  1.488901E+04  1.628991E+03  6.186571E+03
       420  22 -8.989419E+04 -1.291224E+02 -1.864099E+03  1.453083E+04  7.072226E+02  8.219987E+03
       420  23 -8.979371E+04 -1.590899E+02 -1.667793E+03  1.349650E+04 -1.240929E+02  7.293189E+03
       420  24 -8.989345E+04 -5.591404E+02 -2.105107E+03  1.453083E+04 -9.553436E+02  6.186524E+03
       420  25 -1.972559E+05 -2.466218E+04 -1.714954E+04  1.454032E+04 -1.100122E+03  8.220090E+03
       420  26 -1.855871E+05 -2.206007E+04 -1.536380E+04  1.332216E+04 -2.319757E+03  7.293225E+03
       420  27 -1.741859E+05 -1.989557E+04 -1.448151E+04  1.417271E+04 -3.539342E+03  6.186481E+03
       421   1 -1.295323E+04  1.701105E+04  8.963188E+03  1.464188E+04 -1.290153E+03 -5.524867E+03
       421   2 -2.409766E+04  1.281687E+04  6.727317E+03  1.612040E+04 -1.371691E+03 -3.793505E+03
       421   3 -3.601582E+04  5.485136E+03  3.760111E+03  1.974826E+04 -1.453305E+03 -1.008473E+03
       421   4 -9.010848E+04 -7.250116E+02 -2.557509E+03  1.454873E+04  1.311485E+03 -5.524787E+03
       421   5 -8.952393E+04 -2.474245E+03 -4.295863E+03  1.347420E+04  3.505686E+03 -3.793219E+03
       421   6 -9.010827E+04 -7.756294E+03 -8.346054E+03  1.454904E+04  5.699830E+03 -1.007929E+03
       421   7 -1.672577E+05 -1.846135E+04 -1.407829E+04  1.445560E+04  3.912813E+03 -5.524708E+03
       421   8 -1.549459E+05 -1.776554E+04 -1.531908E+04  1.082828E+04  8.382565E+03 -3.792974E+03
       421   9 -1.441978E+05 -2.099779E+04 -2.045220E+04  9.350279E+03  1.285235E+04 -1.007505E+03
       421  10 -1.295324E+04  1.701102E+04  8.963127E+03  1.464187E+04 -5.507380E-11  2.639070E-11
       421  11 -2.409767E+04  1.281685E+04  6.727286E+03  1.612040E+04 -7.121350E-11 -5.734145E-11
       421  12 -3.601582E+04  5.485134E+03  3.760105E+03  1.974825E+04  2.425611E-11 -7.072148E-11
       421  13 -9.010849E+04 -7.250448E+02 -2.557569E+03  1.454874E+04 -6.204997E-11 -1.638799E-11
       421  14 -8.952395E+04 -2.474264E+03 -4.295913E+03  1.347421E+04  9.449473E-11 -4.865183E-11
       421  15 -9.010830E+04 -7.756304E+03 -8.346117E+03  1.454904E+04 -4.933101E-11  7.294454E-11
       421  16 -1.672577E+05 -1.846139E+04 -1.407838E+04  1.445562E+04  1.479947E-11 -3.912721E-11
       421  17 -1.549460E+05 -1.776558E+04 -1.531924E+04  1.082830E+04  6.698940E-11 -5.767122E-11
       421  18 -1.441980E+05 -2.099784E+04 -2.045251E+04  9.350290E+03  7.309398E-11  3.029788E-11
       421  19 -1.295323E+04  1.701105E+04  8.963188E+03  1.464188E+04  1.290153E+03  5.524867E+03
       421  20 -2.409766E+04  1.281687E+04  6.727317E+03  1.612040E+04  1.371691E+03  3.793505E+03
       421  21 -3.601582E+04  5.485136E+03  3.760111E+03  1.974826E+04  1.453305E+03  1.008473E+03
       421  22 -9.010848E+04 -7.250116E+02 -2.557509E+03  1.454873E+04 -1.311485E+03  5.524787E+03
       421  23 -8.952393E+04 -2.474245E+03 -4.295863E+03  1.347420E+04 -3.505686E+03  3.793219E+03
       421  24 -9.010827E+04 -7.756294E+03 -8.346054E+03  1.454904E+04 -5.699830E+03  1.007929E+03
       421  25 -1.672577E+05 -1.846135E+04 -1.407829E+04  1.445560E+04 -3.912813E+03  5.524708E+03
       421  26 -1.549459E+05 -1.776554E+04 -1.531908E+04  1.082828E+04 -8.382565E+03  3.792974E+03
       421  27 -1.441978E+05 -2.099779E+04 -2.045220E+04  9.350279E+03 -1.285235E+04  1.007505E+03
       422   1 -1.425558E+05 -5.148264E+05 -1.344534E+05  1.981574E+05 -6.332705E+03 -3.071331E+04
       422   2 -1.073562E+05 -3.474546E+05 -8.298242E+04  1.890624E+05 -1.888148E+04 -4.275336E+03
       422   3 -7.042424E+04 -1.830590E+05 -4.830002E+04  2.084213E+05 -1.724632E+04  2.216954E+04
       422   4  1.553846E+04  1.244629E+05  1.652129E+04  2.086350E+05 -6.312700E+03  1.171934E+04
       422   5  5.053967E+03  1.233330E+05  8.182830E+03  1.944125E+05 -1.887409E+04  7.540888E+03
       422   6  1.618658E+03  1.245154E+05  4.324464E+03  2.086411E+05 -1.725696E+04  3.361738E+03
       422   7  1.736048E+05  7.641323E+05  1.674745E+05  2.191234E+05 -6.291278E+03  5.419545E+04
       422   8  1.174511E+05  5.943340E+05  9.933823E+04  1.997667E+05 -1.886651E+04  1.936587E+04
       422   9  7.365670E+04  4.321835E+05  5.694712E+04  2.088610E+05 -1.726760E+04 -1.545509E+04
       422  10 -1.425560E+05 -5.148274E+05 -1.344552E+05  1.981572E+05  5.564986E-11  2.600917E-10
       422  11 -1.073566E+05 -3.474547E+05 -8.298312E+04  1.890624E+05  4.985502E-11 -1.829945E-10
       422  12 -7.042469E+04 -1.830596E+05 -4.830150E+04  2.084216E+05 -1.552083E-10 -2.376373E-10
       422  13  1.553838E+04  1.244628E+05  1.652096E+04  2.086351E+05 -1.635532E-10 -3.076327E-11
       422  14  5.053569E+03  1.233329E+05  8.182054E+03  1.944126E+05  6.602222E-10  2.623909E-10
       422  15  1.618335E+03  1.245153E+05  4.323883E+03  2.086412E+05 -1.185188E-10  4.560900E-10
       422  16  1.736040E+05  7.641292E+05  1.674690E+05  2.191237E+05  5.435812E-11 -2.621823E-10
       422  17  1.174506E+05  5.943335E+05  9.933686E+04  1.997670E+05  4.008163E-11  2.350859E-10
       422  18  7.365632E+04  4.321831E+05  5.694612E+04  2.088608E+05  1.290554E-10  3.162474E-10
       422  19 -1.425558E+05 -5.148264E+05 -1.344534E+05  1.981574E+05  6.332705E+03  3.071331E+04
       422  20 -1.073562E+05 -3.474546E+05 -8.298242E+04  1.890624E+05  1.888148E+04  4.275336E+03
       422  21 -7.042424E+04 -1.830590E+05 -4.830002E+04  2.084213E+05  1.724632E+04 -2.216954E+04
       422  22  1.553846E+04  1.244629E+05  1.652129E+04  2.086350E+05  6.312700E+03 -1.171934E+04
       422  23  5.053967E+03  1.233330E+05  8.182830E+03  1.944125E+05  1.887409E+04 -7.540888E+03
       422  24  1.618658E+03  1.245154E+05  4.324464E+03  2.086411E+05  1.725696E+04 -3.361738E+03
       422  25  1.736048E+05  7.641323E+05  1.674745E+05  2.191234E+05  6.291278E+03 -5.419545E+04
       422  26  1.174511E+05  5.943340E+05  9.933823E+04  1.997667E+05  1.886651E+04 -1.936587E+04
       422  27  7.365670E+04  4.321835E+05  5.694712E+04  2.088610E+05  1.726760E+04  1.545509E+04
       423   1 -4.618660E+04 -7.892681E+04 -3.133157E+04  2.081779E+05 -1.155788E+04  2.181920E+04
       423   2 -8.105360E+03  8.683252E+04 -4.102856E+03  1.938221E+05 -2.662359E+03  2.151485E+04
       423   3  3.038149E+04  2.527456E+05  2.341954E+04  2.088409E+05  6.420567E+03  2.121019E+04
       423   4  1.304297E+03  1.240550E+05  3.139682E+03  2.088461E+05 -1.156946E+04  2.807922E+03
       423   5  4.230045E+02  1.239588E+05  1.414163E+03  1.941592E+05 -2.674406E+03  2.096019E+03
       423   6  1.898567E+01  1.240593E+05  2.641507E+02  2.088467E+05  6.408018E+03  1.383870E+03
       423   7  4.879320E+04  3.270782E+05  3.761095E+04  2.095144E+05 -1.158108E+04 -1.620937E+04
       423   8  8.951507E+03  1.610872E+05  6.932573E+03  1.944963E+05 -2.686473E+03 -1.732393E+04
       423   9 -3.034423E+04 -4.610002E+03 -2.289040E+04  2.088526E+05  6.395467E+03 -1.843845E+04
       423  10 -4.618687E+04 -7.892736E+04 -3.133272E+04  2.081781E+05 -2.060994E-10 -2.868374E-10
       423  11 -8.105492E+03  8.683202E+04 -4.103739E+03  1.938221E+05 -3.373614E-10  5.172091E-11
       423  12  3.038133E+04  2.527452E+05  2.341861E+04  2.088407E+05  2.739556E-11  7.408267E-10
       423  13  1.304152E+03  1.240550E+05  3.139415E+03  2.088461E+05 -1.994467E-10  7.357875E-12
       423  14  4.229957E+02  1.239588E+05  1.414141E+03  1.941592E+05 -5.534711E-10  2.992225E-10
       423  15  1.894106E+01  1.240593E+05  2.640700E+02  2.088467E+05 -3.060189E-10  4.798725E-10
       423  16  4.879299E+04  3.270779E+05  3.761020E+04  2.095143E+05 -6.637713E-11  2.941295E-10
       423  17  8.951419E+03  1.610869E+05  6.931995E+03  1.944963E+05 -5.054630E-11  4.357378E-11
       423  18 -3.034437E+04 -4.610378E+03 -2.289112E+04  2.088527E+05  4.484155E-11 -7.688503E-10
       423  19 -4.618660E+04 -7.892681E+04 -3.133157E+04  2.081779E+05  1.155788E+04 -2.181920E+04
       423  20 -8.105360E+03  8.683252E+04 -4.102856E+03  1.938221E+05  2.662359E+03 -2.151485E+04
       423  21  3.038149E+04  2.527456E+05  2.341954E+04  2.088409E+05 -6.420567E+03 -2.121019E+04
       423  22  1.304297E+03  1.240550E+05  3.139682E+03  2.088461E+05  1.156946E+04 -2.807922E+03
       423  23  4.230045E+02  1.239588E+05  1.414163E+03  1.941592E+05  2.674406E+03 -2.096019E+03
       423  24  1.898567E+01  1.240593E+05  2.641507E+02  2.088467E+05 -6.408018E+03 -1.383870E+03
       423  25  4.879320E+04  3.270782E+05  3.761095E+04  2.095144E+05  1.158108E+04  1.620937E+04
       423  26  8.951507E+03  1.610872E+05  6.932573E+03  1.944963E+05  2.686473E+03  1.732393E+04
       423  27 -3.034423E+04 -4.610002E+03 -2.289040E+04  2.088526E+05 -6.395467E+03  1.843845E+04
       424   1  5.476499E+04  3.571421E+05  4.079832E+04  2.087570E+05  1.227900E+04  2.101279E+04
       424   2  9.401201E+04  5.209544E+05  7.654487E+04  1.934316E+05  1.505101E+04 -5.489881E+03
       424   3  1.365501E+05  6.890616E+05  1.303568E+05  2.066803E+05  5.212226E+03 -3.199826E+04
       424   4 -7.758439E+01  1.239070E+05 -2.458258E+02  2.086691E+05  1.226715E+04  1.358817E+03
       424   5 -9.251420E+02  1.241141E+05 -1.457755E+03  1.943821E+05  1.505601E+04  2.113504E+03
       424   6 -3.209070E+03  1.238637E+05 -3.524116E+03  2.086705E+05  5.230249E+03  2.869274E+03
       424   7 -5.492292E+04 -1.092741E+05 -4.129050E+04  2.085813E+05  1.225531E+04 -1.828800E+04
       424   8 -9.587178E+04 -2.725753E+05 -7.946781E+04  1.953318E+05  1.506103E+04  9.712135E+03
       424   9 -1.429905E+05 -4.410383E+05 -1.374227E+05  2.106589E+05  5.248509E+03  3.770526E+04
       424  10  5.476471E+04  3.571416E+05  4.079721E+04  2.087568E+05 -4.746287E-11 -2.476683E-10
       424  11  9.401176E+04  5.209543E+05  7.654439E+04  1.934317E+05  4.139412E-11 -2.464405E-10
       424  12  1.365498E+05  6.890605E+05  1.303548E+05  2.066804E+05  1.078126E-10  7.374804E-11
       424  13 -7.774647E+01  1.239069E+05 -2.461120E+02  2.086691E+05  4.110511E-10  1.200723E-11
       424  14 -9.253866E+02  1.241140E+05 -1.458190E+03  1.943820E+05 -1.647103E-10  2.393808E-10
       424  15 -3.209101E+03  1.238637E+05 -3.524183E+03  2.086705E+05  8.378744E-11  3.085068E-10
       424  16 -5.492318E+04 -1.092745E+05 -4.129141E+04  2.085815E+05  1.311701E-10  2.281843E-10
       424  17 -9.587205E+04 -2.725755E+05 -7.946841E+04  1.953317E+05 -1.283702E-10  3.072489E-10
       424  18 -1.429909E+05 -4.410398E+05 -1.374254E+05  2.106587E+05  4.211554E-11 -7.889690E-11
       424  19  5.476499E+04  3.571421E+05  4.079832E+04  2.087570E+05 -1.227900E+04 -2.101279E+04
       424  20  9.401201E+04  5.209544E+05  7.654487E+04  1.934316E+05 -1.505101E+04  5.489881E+03
       424  21  1.365501E+05  6.890616E+05  1.303568E+05  2.066803E+05 -5.212226E+03  3.199826E+04
       424  22 -7.758439E+01  1.239070E+05 -2.458258E+02  2.086691E+05 -1.226715E+04 -1.358817E+03
       424  23 -9.251420E+02  1.241141E+05 -1.457755E+03  1.943821E+05 -1.505601E+04 -2.113504E+03
       424  24 -3.209070E+03  1.238637E+05 -3.524116E+03  2.086705E+05 -5.230249E+03 -2.869274E+03
       424  25 -5.492292E+04 -1.092741E+05 -4.129050E+04  2.085813E+05 -1.225531E+04  1.828800E+04
       424  26 -9.587178E+04 -2.725753E+05 -7.946781E+04  1.953318E+05 -1.506103E+04 -9.712135E+03
       424  27 -1.429905E+05 -4.410383E+05 -1.374227E+05  2.106589E+05 -5.248509E+03 -3.770526E+04
       425   1  1.099079E+05  9.151170E+04  2.877673E+04  7.044681E+04  1.033419E+04  5.731860E+03
       425   2  1.037569E+05  8.500011E+04  2.074306E+04  6.783139E+04  8.028384E+03 -8.705668E+02
       425   3  9.758206E+04  8.095557E+04  1.682590E+04  6.544619E+04  4.191623E+03 -5.430819E+03
       425   4  2.272529E+04  2.862075E+04  9.438649E+02  2.670971E+04  1.389091E+03 -9.758114E+02
       425   5  2.307311E+04  2.761146E+04  5.739306E+02  2.678589E+04  3.495213E+03 -4.270032E+03
       425   6  2.243985E+04  2.811209E+04  4.917716E+02  2.709221E+04  4.070093E+03 -5.522092E+03
       425   7 -6.444699E+04 -3.426430E+04 -2.688879E+04 -1.701933E+04 -7.554088E+03 -7.682018E+03
       425   8 -5.760212E+04 -2.977245E+04 -1.959522E+04 -1.425292E+04 -1.037114E+03 -7.668858E+03
       425   9 -5.269559E+04 -2.472780E+04 -1.584260E+04 -1.125631E+04  3.948582E+03 -5.613350E+03
       425  10  1.099078E+05  9.151164E+04  2.877647E+04  7.044676E+04  8.396061E-11  5.975565E-13
       425  11  1.037568E+05  8.500009E+04  2.074293E+04  6.783140E+04 -3.104441E-11  3.196572E-11
       425  12  9.758203E+04  8.095553E+04  1.682582E+04  6.544621E+04 -5.978616E-11  5.120601E-11
       425  13  2.272529E+04  2.862075E+04  9.438595E+02  2.670971E+04 -6.441362E-11  1.007089E-11
       425  14  2.307310E+04  2.761144E+04  5.738733E+02  2.678590E+04 -1.602932E-10  9.971106E-11
       425  15  2.243983E+04  2.811206E+04  4.916832E+02  2.709223E+04  7.087425E-11 -2.438818E-11
       425  16 -6.444707E+04 -3.426438E+04 -2.688901E+04 -1.701937E+04  9.299656E-13  1.797840E-11
       425  17 -5.760214E+04 -2.977252E+04 -1.959533E+04 -1.425292E+04  7.414269E-11  1.714629E-11
       425  18 -5.269561E+04 -2.472784E+04 -1.584269E+04 -1.125629E+04  6.209851E-11 -9.170834E-11
       425  19  1.099079E+05  9.151170E+04  2.877673E+04  7.044681E+04 -1.033419E+04 -5.731860E+03
       425  20  1.037569E+05  8.500011E+04  2.074306E+04  6.783139E+04 -8.028384E+03  8.705668E+02
       425  21  9.758206E+04  8.095557E+04  1.682590E+04  6.544619E+04 -4.191623E+03  5.430819E+03
       425  22  2.272529E+04  2.862075E+04  9.438649E+02  2.670971E+04 -1.389091E+03  9.758114E+02
       425  23  2.307311E+04  2.761146E+04  5.739306E+02  2.678589E+04 -3.495213E+03  4.270032E+03
       425  24  2.243985E+04  2.811209E+04  4.917716E+02  2.709221E+04 -4.070093E+03  5.522092E+03
       425  25 -6.444699E+04 -3.426430E+04 -2.688879E+04 -1.701933E+04  7.554088E+03  7.682018E+03
       425  26 -5.760212E+04 -2.977245E+04 -1.959522E+04 -1.425292E+04  1.037114E+03  7.668858E+03
       425  27 -5.269559E+04 -2.472780E+04 -1.584260E+04 -1.125631E+04 -3.948582E+03  5.613350E+03
       426   1  9.362170E+04  7.826303E+04  1.561019E+04  6.355327E+04  4.056393E+03 -5.458016E+03
       426   2  8.822857E+04  7.324192E+04  1.386327E+04  6.037306E+04  3.181733E+03 -5.984644E+03
       426   3  8.161893E+04  6.977597E+04  1.281883E+04  5.760192E+04  2.120767E+03 -6.262890E+03
       426   4  2.238160E+04  2.813100E+04  5.184272E+02  2.710650E+04  3.966955E+03 -5.525219E+03
       426   5  2.303455E+04  2.738813E+04  6.964174E+02  2.691938E+04  3.628969E+03 -5.649361E+03
       426   6  2.235483E+04  2.808391E+04  1.111183E+03  2.714132E+04  3.104674E+03 -5.525098E+03
       426   7 -4.885411E+04 -2.199899E+04 -1.457411E+04 -9.336180E+03  3.877528E+03 -5.592412E+03
       426   8 -4.215435E+04 -1.846292E+04 -1.247057E+04 -6.530168E+03  4.076143E+03 -5.314124E+03
       426   9 -3.690365E+04 -1.360489E+04 -1.059608E+04 -3.315173E+03  4.088435E+03 -4.787417E+03
       426  10  9.362167E+04  7.826299E+04  1.561010E+04  6.355329E+04  1.467949E-11  3.069505E-11
       426  11  8.822855E+04  7.324187E+04  1.386318E+04  6.037308E+04 -4.592967E-11  6.242023E-12
       426  12  8.161892E+04  6.977592E+04  1.281875E+04  5.760193E+04  6.136842E-11 -1.462066E-11
       426  13  2.238157E+04  2.813096E+04  5.183403E+02  2.710652E+04 -5.529440E-11 -5.010202E-11
       426  14  2.303453E+04  2.738809E+04  6.963327E+02  2.691940E+04 -1.061400E-10 -5.573201E-11
       426  15  2.235481E+04  2.808387E+04  1.111107E+03  2.714133E+04 -7.587558E-11  9.766475E-12
       426  16 -4.885413E+04 -2.199903E+04 -1.457420E+04 -9.336163E+03  5.578314E-11 -5.972814E-11
       426  17 -4.215437E+04 -1.846296E+04 -1.247065E+04 -6.530151E+03 -2.660280E-11  2.988851E-11
       426  18 -3.690367E+04 -1.360492E+04 -1.059616E+04 -3.315157E+03 -2.055904E-11  4.186690E-11
       426  19  9.362170E+04  7.826303E+04  1.561019E+04  6.355327E+04 -4.056393E+03  5.458016E+03
       426  20  8.822857E+04  7.324192E+04  1.386327E+04  6.037306E+04 -3.181733E+03  5.984644E+03
       426  21  8.161893E+04  6.977597E+04  1.281883E+04  5.760192E+04 -2.120767E+03  6.262890E+03
       426  22  2.238160E+04  2.813100E+04  5.184272E+02  2.710650E+04 -3.966955E+03  5.525219E+03
       426  23  2.303455E+04  2.738813E+04  6.964174E+02  2.691938E+04 -3.628969E+03  5.649361E+03
       426  24  2.235483E+04  2.808391E+04  1.111183E+03  2.714132E+04 -3.104674E+03  5.525098E+03
       426  25 -4.885411E+04 -2.199899E+04 -1.457411E+04 -9.336180E+03 -3.877528E+03  5.592412E+03
       426  26 -4.215435E+04 -1.846292E+04 -1.247057E+04 -6.530168E+03 -4.076143E+03  5.314124E+03
       426  27 -3.690365E+04 -1.360489E+04 -1.059608E+04 -3.315173E+03 -4.088435E+03  4.787417E+03
       427   1  7.785560E+04  6.721844E+04  1.233863E+04  5.573621E+04  1.729043E+03 -6.127558E+03
       427   2  7.258702E+04  6.229349E+04  1.214397E+04  5.240539E+04  3.217170E+02 -6.442329E+03
       427   3  6.616075E+04  5.903716E+04  1.287316E+04  4.947035E+04 -1.110906E+03 -6.723398E+03
       427   4  2.237129E+04  2.809735E+04  1.437515E+03  2.716456E+04  2.716843E+03 -5.386827E+03
       427   5  2.301858E+04  2.737815E+04  2.466942E+03  2.688650E+04  1.382439E+03 -5.646873E+03
       427   6  2.249222E+04  2.831182E+04  4.356952E+03  2.700421E+04  2.271112E+01 -5.873229E+03
       427   7 -3.310934E+04 -1.102176E+04 -9.463692E+03 -1.404099E+03  3.704527E+03 -4.646184E+03
       427   8 -2.654751E+04 -7.536027E+03 -7.210356E+03  1.369710E+03  2.443062E+03 -4.851492E+03
       427   9 -2.117505E+04 -2.413023E+03 -4.159662E+03  4.539421E+03  1.156249E+03 -5.023120E+03
       427  10  7.785559E+04  6.721840E+04  1.233855E+04  5.573622E+04  3.801070E-11 -3.855102E-11
       427  11  7.258701E+04  6.229345E+04  1.214389E+04  5.240539E+04 -1.248039E-11  4.475192E-11
       427  12  6.616073E+04  5.903711E+04  1.287308E+04  4.947035E+04  4.314136E-11  4.917409E-11
       427  13  2.237127E+04  2.809732E+04  1.437446E+03  2.716457E+04 -6.078989E-11  1.507675E-11
       427  14  2.301857E+04  2.737812E+04  2.466878E+03  2.688651E+04  1.631230E-10  1.992098E-11
       427  15  2.249221E+04  2.831179E+04  4.356888E+03  2.700421E+04 -2.251840E-11  3.062299E-13
       427  16 -3.310936E+04 -1.102179E+04 -9.463758E+03 -1.404085E+03 -5.257977E-11  7.266943E-11
       427  17 -2.654752E+04 -7.536054E+03 -7.210412E+03  1.369720E+03 -1.480503E-10  3.329380E-11
       427  18 -2.117506E+04 -2.413050E+03 -4.159712E+03  4.539425E+03 -7.166123E-11 -1.299952E-11
       427  19  7.785560E+04  6.721844E+04  1.233863E+04  5.573621E+04 -1.729043E+03  6.127558E+03
       427  20  7.258702E+04  6.229349E+04  1.214397E+04  5.240539E+04 -3.217170E+02  6.442329E+03
       427  21  6.616075E+04  5.903716E+04  1.287316E+04  4.947035E+04  1.110906E+03  6.723398E+03
       427  22  2.237129E+04  2.809735E+04  1.437515E+03  2.716456E+04 -2.716843E+03  5.386827E+03
       427  23  2.301858E+04  2.737815E+04  2.466942E+03  2.688650E+04 -1.382439E+03  5.646873E+03
       427  24  2.249222E+04  2.831182E+04  4.356952E+03  2.700421E+04 -2.271112E+01  5.873229E+03
       427  25 -3.310934E+04 -1.102176E+04 -9.463692E+03 -1.404099E+03 -3.704527E+03  4.646184E+03
       427  26 -2.654751E+04 -7.536027E+03 -7.210356E+03  1.369710E+03 -2.443062E+03  4.851492E+03
       427  27 -2.117505E+04 -2.413023E+03 -4.159662E+03  4.539421E+03 -1.156249E+03  5.023120E+03
       428   1  6.235453E+04  5.690466E+04  1.352999E+04  4.774791E+04 -2.030092E+03 -6.935503E+03
       428   2  5.897056E+04  5.081537E+04  1.687614E+04  4.294680E+04 -6.596937E+03 -9.513965E+03
       428   3  5.629999E+04  4.876082E+04  2.442211E+04  3.771078E+04 -1.118886E+04 -1.205876E+04
       428   4  2.270283E+04  2.847332E+04  5.760302E+03  2.709230E+04 -8.955004E+02 -6.084581E+03
       428   5  2.342731E+04  2.837166E+04  1.021096E+04  2.587920E+04 -5.389579E+03 -8.608488E+03
       428   6  2.484928E+04  3.228885E+04  1.879838E+04  2.423104E+04 -9.908814E+03 -1.109882E+04
       428   7 -1.694600E+04  4.374509E+01 -2.009084E+03  6.438737E+03  2.389695E+02 -5.233753E+03
       428   8 -1.211396E+04  5.928880E+03  3.545916E+03  8.812901E+03 -4.182327E+03 -7.703081E+03
       428   9 -6.600191E+03  1.581723E+04  1.317465E+04  1.075200E+04 -8.628858E+03 -1.013892E+04
       428  10  6.235451E+04  5.690461E+04  1.352989E+04  4.774790E+04 -7.979141E-11 -1.540346E-12
       428  11  5.897049E+04  5.081526E+04  1.687588E+04  4.294675E+04  1.151760E-10  4.242616E-11
       428  12  5.629981E+04  4.876063E+04  2.442161E+04  3.771067E+04  3.775101E-11  2.517580E-11
       428  13  2.270282E+04  2.847328E+04  5.760231E+03  2.709229E+04  1.270173E-10  3.130640E-11
       428  14  2.342726E+04  2.837157E+04  1.021077E+04  2.587916E+04 -4.752969E-11  1.482079E-11
       428  15  2.484914E+04  3.228869E+04  1.879796E+04  2.423095E+04  7.628711E-11 -1.609667E-11
       428  16 -1.694601E+04  4.371566E+01 -2.009135E+03  6.438738E+03  3.497094E-11  2.199659E-11
       428  17 -1.211400E+04  5.928811E+03  3.545771E+03  8.812875E+03  1.426870E-10  4.746849E-11
       428  18 -6.600299E+03  1.581710E+04  1.317431E+04  1.075193E+04  6.450377E-11  3.001312E-11
       428  19  6.235453E+04  5.690466E+04  1.352999E+04  4.774791E+04  2.030092E+03  6.935503E+03
       428  20  5.897056E+04  5.081537E+04  1.687614E+04  4.294680E+04  6.596937E+03  9.513965E+03
       428  21  5.629999E+04  4.876082E+04  2.442211E+04  3.771078E+04  1.118886E+04  1.205876E+04
       428  22  2.270283E+04  2.847332E+04  5.760302E+03  2.709230E+04  8.955004E+02  6.084581E+03
       428  23  2.342731E+04  2.837166E+04  1.021096E+04  2.587920E+04  5.389579E+03  8.608488E+03
       428  24  2.484928E+04  3.228885E+04  1.879838E+04  2.423104E+04  9.908814E+03  1.109882E+04
       428  25 -1.694600E+04  4.374509E+01 -2.009084E+03  6.438737E+03 -2.389695E+02  5.233753E+03
       428  26 -1.211396E+04  5.928880E+03  3.545916E+03  8.812901E+03  4.182327E+03  7.703081E+03
       428  27 -6.600191E+03  1.581723E+04  1.317465E+04  1.075200E+04  8.628858E+03  1.013892E+04
       429   1  5.220282E+04  5.093699E+04  3.001202E+04  3.693785E+04 -1.404447E+04 -1.367534E+04
       429   2  7.716811E+04  2.888014E+04  5.033784E+04  1.323442E+04 -3.401906E+04 -2.753309E+04
       429   3  1.231887E+05  3.812552E+04  9.631993E+04 -2.269927E+04 -5.418048E+04 -4.114199E+04
       429   4  2.712294E+04  3.437182E+04  2.507630E+04  2.457587E+04 -1.276045E+04 -1.271231E+04
       429   5  3.071635E+04  4.377738E+04  4.620844E+04  1.194072E+04 -3.219940E+04 -2.617083E+04
       429   6  5.524685E+04  8.436775E+04  9.253284E+04 -1.292424E+04 -5.182381E+04 -3.938224E+04
       429   7  2.043355E+03  1.780668E+04  2.014041E+04  1.221424E+04 -1.147648E+04 -1.174932E+04
       429   8 -1.573185E+04  5.867645E+04  4.207945E+04  1.064635E+04 -3.037992E+04 -2.480844E+04
       429   9 -1.268395E+04  1.306188E+05  8.874755E+04 -3.152111E+03 -4.946754E+04 -3.762211E+04
       429  10  5.220255E+04  5.093674E+04  3.001130E+04  3.693770E+04  1.441128E-10  3.893787E-11
       429  11  7.716667E+04  2.887901E+04  5.033424E+04  1.323366E+04  9.400858E-11  1.425428E-12
       429  12  1.231851E+05  3.812291E+04  9.631124E+04 -2.270107E+04 -1.078139E-10 -7.230408E-11
       429  13  2.712273E+04  3.437160E+04  2.507569E+04  2.457574E+04  1.489927E-10 -2.672196E-11
       429  14  3.071505E+04  4.377637E+04  4.620521E+04  1.194004E+04  1.335177E-10 -4.630085E-11
       429  15  5.524355E+04  8.436536E+04  9.252488E+04 -1.292588E+04 -3.433742E-11 -2.673280E-12
       429  16  2.043176E+03  1.780650E+04  2.013990E+04  1.221413E+04 -3.936532E-11 -9.238137E-11
       429  17 -1.573301E+04  5.867554E+04  4.207656E+04  1.064574E+04  1.155911E-10 -9.340308E-11
       429  18 -1.268696E+04  1.306167E+05  8.874029E+04 -3.153610E+03  2.269949E-10  7.352332E-12
       429  19  5.220282E+04  5.093699E+04  3.001202E+04  3.693785E+04  1.404447E+04  1.367534E+04
       429  20  7.716811E+04  2.888014E+04  5.033784E+04  1.323442E+04  3.401906E+04  2.753309E+04
       429  21  1.231887E+05  3.812552E+04  9.631993E+04 -2.269927E+04  5.418048E+04  4.114199E+04
       429  22  2.712294E+04  3.437182E+04  2.507630E+04  2.457587E+04  1.276045E+04  1.271231E+04
       429  23  3.071635E+04  4.377738E+04  4.620844E+04  1.194072E+04  3.219940E+04  2.617083E+04
       429  24  5.524685E+04  8.436775E+04  9.253284E+04 -1.292424E+04  5.182381E+04  3.938224E+04
       429  25  2.043355E+03  1.780668E+04  2.014041E+04  1.221424E+04  1.147648E+04  1.174932E+04
       429  26 -1.573185E+04  5.867645E+04  4.207945E+04  1.064635E+04  3.037992E+04  2.480844E+04
       429  27 -1.268395E+04  1.306188E+05  8.874755E+04 -3.152111E+03  4.946754E+04  3.762211E+04
       430   1  8.871682E+04  3.691858E+04  3.300083E+04 -3.949839E+03  1.158175E+04 -2.784857E+03
       430   2  8.619985E+04  4.130914E+04  2.793483E+04 -5.330076E+02  5.830823E+03 -9.757016E+03
       430   3  8.361192E+04  4.241105E+04  2.579149E+04  3.004244E+03  7.983871E+01 -1.270112E+04
       430   4 -1.043053E+05 -1.055261E+04 -1.133768E+04  3.093791E+03 -7.828438E+03 -2.786081E+03
       430   5 -1.035139E+05 -3.374357E+03 -5.772208E+03  3.033062E+03 -4.877892E+03 -9.758249E+03
       430   6 -1.043046E+05 -9.960967E+02 -3.327019E+03  3.092640E+03 -1.927427E+03 -1.270174E+04
       430   7 -2.972920E+05 -5.802603E+04 -5.567721E+04  1.013521E+04 -2.723264E+04 -2.787746E+03
       430   8 -2.931923E+05 -4.805973E+04 -3.948016E+04  6.598009E+03 -1.558343E+04 -9.759604E+03
       430   9 -2.921858E+05 -4.440496E+04 -3.244632E+04  3.181007E+03 -3.934108E+03 -1.270235E+04
       430  10  8.871667E+04  3.691854E+04  3.300056E+04 -3.949813E+03 -2.238615E-10  6.873693E-12
       430  11  8.619979E+04  4.130903E+04  2.793459E+04 -5.329618E+02 -1.323711E-10  1.421093E-10
       430  12  8.361187E+04  4.241087E+04  2.579119E+04  3.004245E+03  5.424937E-11 -1.768181E-10
       430  13 -1.043053E+05 -1.055264E+04 -1.133781E+04  3.093773E+03 -1.371352E-10  1.641894E-10
       430  14 -1.035140E+05 -3.374466E+03 -5.772432E+03  3.033023E+03  1.875018E-11  2.236412E-10
       430  15 -1.043046E+05 -9.962709E+02 -3.327329E+03  3.092620E+03  3.961224E-11 -2.111429E-11
       430  16 -2.972928E+05 -5.802623E+04 -5.567862E+04  1.013515E+04  2.974823E-11  9.866404E-11
       430  17 -2.931926E+05 -4.805990E+04 -3.948080E+04  6.597887E+03  8.142557E-11 -2.458109E-11
       430  18 -2.921858E+05 -4.440514E+04 -3.244666E+04  3.180967E+03 -2.164814E-10 -5.586570E-11
       430  19  8.871682E+04  3.691858E+04  3.300083E+04 -3.949839E+03 -1.158175E+04  2.784857E+03
       430  20  8.619985E+04  4.130914E+04  2.793483E+04 -5.330076E+02 -5.830823E+03  9.757016E+03
       430  21  8.361192E+04  4.241105E+04  2.579149E+04  3.004244E+03 -7.983871E+01  1.270112E+04
       430  22 -1.043053E+05 -1.055261E+04 -1.133768E+04  3.093791E+03  7.828438E+03  2.786081E+03
       430  23 -1.035139E+05 -3.374357E+03 -5.772208E+03  3.033062E+03  4.877892E+03  9.758249E+03
       430  24 -1.043046E+05 -9.960967E+02 -3.327019E+03  3.092640E+03  1.927427E+03  1.270174E+04
       430  25 -2.972920E+05 -5.802603E+04 -5.567721E+04  1.013521E+04  2.723264E+04  2.787746E+03
       430  26 -2.931923E+05 -4.805973E+04 -3.948016E+04  6.598009E+03  1.558343E+04  9.759604E+03
       430  27 -2.921858E+05 -4.440496E+04 -3.244632E+04  3.181007E+03  3.934108E+03  1.270235E+04
       431   1  8.207713E+04  4.206916E+04  2.546341E+04  2.718318E+03  4.683861E+02 -1.308563E+04
       431   2  7.956380E+04  4.178553E+04  2.468147E+04  2.757196E+03  2.478924E+02 -1.371555E+04
       431   3  7.701603E+04  4.124094E+04  2.397850E+04  3.211215E+03  2.732868E+01 -1.380575E+04
       431   4 -1.040056E+05 -7.713003E+02 -2.655870E+03  3.158198E+03 -1.474970E+03 -1.308628E+04
       431   5 -1.038870E+05 -2.199154E+02 -1.894115E+03  2.950558E+03 -5.297297E+02 -1.371607E+04
       431   6 -1.040052E+05 -1.319428E+02 -1.863002E+03  3.158070E+03  4.154225E+02 -1.380608E+04
       431   7 -2.900536E+05 -4.361341E+04 -3.077584E+04  3.597940E+03 -3.417766E+03 -1.308692E+04
       431   8 -2.873038E+05 -4.222691E+04 -2.847024E+04  3.143859E+03 -1.307132E+03 -1.371660E+04
       431   9 -2.849934E+05 -4.150631E+04 -2.770499E+04  3.104940E+03  8.034080E+02 -1.380641E+04
       431  10  8.207708E+04  4.206897E+04  2.546309E+04  2.718323E+03 -3.429919E-10 -6.286877E-12
       431  11  7.956375E+04  4.178533E+04  2.468112E+04  2.757198E+03 -1.048955E-10 -3.086676E-10
       431  12  7.701598E+04  4.124074E+04  2.397814E+04  3.211215E+03  3.003876E-10 -6.710867E-11
       431  13 -1.040056E+05 -7.714848E+02 -2.656195E+03  3.158183E+03 -2.097408E-12 -5.847963E-11
       431  14 -1.038870E+05 -2.201175E+02 -1.894469E+03  2.950552E+03  1.135176E-10 -1.203026E-10
       431  15 -1.040053E+05 -1.321475E+02 -1.863361E+03  3.158075E+03 -2.687994E-11 -1.231144E-10
       431  16 -2.900536E+05 -4.361359E+04 -3.077619E+04  3.597904E+03  5.565365E-10 -1.812651E-10
       431  17 -2.873038E+05 -4.222711E+04 -2.847060E+04  3.143845E+03  3.959820E-10 -1.162377E-10
       431  18 -2.849934E+05 -4.150652E+04 -2.770535E+04  3.104949E+03 -2.896715E-10  1.164476E-10
       431  19  8.207713E+04  4.206916E+04  2.546341E+04  2.718318E+03 -4.683861E+02  1.308563E+04
       431  20  7.956380E+04  4.178553E+04  2.468147E+04  2.757196E+03 -2.478924E+02  1.371555E+04
       431  21  7.701603E+04  4.124094E+04  2.397850E+04  3.211215E+03 -2.732868E+01  1.380575E+04
       431  22 -1.040056E+05 -7.713003E+02 -2.655870E+03  3.158198E+03  1.474970E+03  1.308628E+04
       431  23 -1.038870E+05 -2.199154E+02 -1.894115E+03  2.950558E+03  5.297297E+02  1.371607E+04
       431  24 -1.040052E+05 -1.319428E+02 -1.863002E+03  3.158070E+03 -4.154225E+02  1.380608E+04
       431  25 -2.900536E+05 -4.361341E+04 -3.077584E+04  3.597940E+03  3.417766E+03  1.308692E+04
       431  26 -2.873038E+05 -4.222691E+04 -2.847024E+04  3.143859E+03  1.307132E+03  1.371660E+04
       431  27 -2.849934E+05 -4.150631E+04 -2.770499E+04  3.104940E+03 -8.034080E+02  1.380641E+04
       432   1  7.539020E+04  4.086173E+04  2.352879E+04  3.103483E+03  3.476609E+02 -1.369666E+04
       432   2  7.298043E+04  3.999760E+04  2.250879E+04  3.382023E+03  8.268253E+02 -1.326975E+04
       432   3  7.032986E+04  3.841274E+04  2.099718E+04  4.144050E+03  1.305844E+03 -1.236204E+04
       432   4 -1.040461E+05 -1.455483E+02 -2.069819E+03  3.173228E+03  7.501990E+02 -1.369698E+04
       432   5 -1.038354E+05 -4.749554E+02 -3.035000E+03  2.931636E+03  2.267671E+03 -1.326980E+04
       432   6 -1.040459E+05 -1.705467E+03 -5.213004E+03  3.173535E+03  3.785013E+03 -1.236175E+04
       432   7 -2.834498E+05 -4.115429E+04 -2.766889E+04  3.242950E+03  1.152626E+03 -1.369729E+04
       432   8 -2.806197E+05 -4.094894E+04 -2.857928E+04  2.481381E+03  3.708124E+03 -1.326985E+04
       432   9 -2.783911E+05 -4.182511E+04 -3.142377E+04  2.203302E+03  6.263513E+03 -1.236146E+04
       432  10  7.539015E+04  4.086153E+04  2.352843E+04  3.103487E+03 -8.376610E-11 -4.747707E-11
       432  11  7.298039E+04  3.999741E+04  2.250846E+04  3.382032E+03  3.464764E-10 -1.070776E-10
       432  12  7.032982E+04  3.841258E+04  2.099689E+04  4.144063E+03  5.917338E-10 -5.388757E-10
       432  13 -1.040461E+05 -1.457499E+02 -2.070172E+03  3.173236E+03  2.040365E-10 -7.301542E-11
       432  14 -1.038355E+05 -4.751459E+02 -3.035341E+03  2.931660E+03  5.943392E-11 -1.574935E-10
       432  15 -1.040459E+05 -1.705635E+03 -5.213319E+03  3.173573E+03 -1.121724E-11 -2.624657E-10
       432  16 -2.834498E+05 -4.115449E+04 -2.766925E+04  3.242963E+03  9.785140E-11  3.865882E-11
       432  17 -2.806198E+05 -4.094913E+04 -2.857964E+04  2.481421E+03 -3.029925E-10  4.049254E-10
       432  18 -2.783912E+05 -4.182529E+04 -3.142413E+04  2.203364E+03 -6.002479E-10  1.397984E-10
       432  19  7.539020E+04  4.086173E+04  2.352879E+04  3.103483E+03 -3.476609E+02  1.369666E+04
       432  20  7.298043E+04  3.999760E+04  2.250879E+04  3.382023E+03 -8.268253E+02  1.326975E+04
       432  21  7.032986E+04  3.841274E+04  2.099718E+04  4.144050E+03 -1.305844E+03  1.236204E+04
       432  22 -1.040461E+05 -1.455483E+02 -2.069819E+03  3.173228E+03 -7.501990E+02  1.369698E+04
       432  23 -1.038354E+05 -4.749554E+02 -3.035000E+03  2.931636E+03 -2.267671E+03  1.326980E+04
       432  24 -1.040459E+05 -1.705467E+03 -5.213004E+03  3.173535E+03 -3.785013E+03  1.236175E+04
       432  25 -2.834498E+05 -4.115429E+04 -2.766889E+04  3.242950E+03 -1.152626E+03  1.369729E+04
       432  26 -2.806197E+05 -4.094894E+04 -2.857928E+04  2.481381E+03 -3.708124E+03  1.326985E+04
       432  27 -2.783911E+05 -4.182511E+04 -3.142377E+04  2.203302E+03 -6.263513E+03  1.236146E+04
       433   1  6.829032E+04  3.773615E+04  1.978426E+04  3.446692E+03  2.148406E+03 -1.181310E+04
       433   2  6.685489E+04  3.254347E+04  1.747164E+04  1.072738E+04  1.015480E+03 -8.901204E+03
       433   3  6.325823E+04  1.811024E+04  1.358630E+04  1.874916E+04 -1.185979E+02 -2.512346E+03
       433   4 -1.047223E+05 -2.195196E+03 -6.856741E+03  3.230288E+03  4.682814E+03 -1.181274E+04
       433   5 -1.029898E+05 -7.420665E+03 -1.247355E+04  2.862426E+03  1.105985E+04 -8.898481E+03
       433   6 -1.047231E+05 -2.319218E+04 -2.487907E+04  3.235857E+03  1.743565E+04 -2.506802E+03
       433   7 -2.777050E+05 -4.212799E+04 -3.349839E+04  3.013944E+03  7.216543E+03 -1.181237E+04
       433   8 -2.728059E+05 -4.738610E+04 -4.241939E+04 -5.000318E+03  2.110155E+04 -8.896012E+03
       433   9 -2.726770E+05 -6.449549E+04 -6.334500E+04 -1.227321E+04  3.498519E+04 -2.502135E+03
       433  10  6.829028E+04  3.773600E+04  1.978399E+04  3.446712E+03 -1.665268E-10 -7.845507E-10
       433  11  6.685487E+04  3.254339E+04  1.747149E+04  1.072739E+04 -3.250945E-10 -9.529373E-10
       433  12  6.325822E+04  1.811023E+04  1.358629E+04  1.874916E+04 -5.802483E-10 -2.247545E-10
       433  13 -1.047224E+05 -2.195352E+03 -6.857045E+03  3.230332E+03  4.237624E-11 -1.335033E-09
       433  14 -1.029899E+05 -7.420783E+03 -1.247393E+04  2.862505E+03  2.923205E-12  5.163145E-10
       433  15 -1.047234E+05 -2.319226E+04 -2.487965E+04  3.235892E+03 -5.029138E-11 -2.497894E-11
       433  16 -2.777051E+05 -4.212816E+04 -3.349875E+04  3.014013E+03 -9.042992E-11 -6.091269E-11
       433  17 -2.728064E+05 -4.738630E+04 -4.242038E+04 -5.000167E+03  4.028857E-10  4.376894E-10
       433  18 -2.726783E+05 -6.449582E+04 -6.334731E+04 -1.227314E+04  6.878962E-10 -2.897286E-10
       433  19  6.829032E+04  3.773615E+04  1.978426E+04  3.446692E+03 -2.148406E+03  1.181310E+04
       433  20  6.685489E+04  3.254347E+04  1.747164E+04  1.072738E+04 -1.015480E+03  8.901204E+03
       433  21  6.325823E+04  1.811024E+04  1.358630E+04  1.874916E+04  1.185979E+02  2.512346E+03
       433  22 -1.047223E+05 -2.195196E+03 -6.856741E+03  3.230288E+03 -4.682814E+03  1.181274E+04
       433  23 -1.029898E+05 -7.420665E+03 -1.247355E+04  2.862426E+03 -1.105985E+04  8.898481E+03
       433  24 -1.047231E+05 -2.319218E+04 -2.487907E+04  3.235857E+03 -1.743565E+04  2.506802E+03
       433  25 -2.777050E+05 -4.212799E+04 -3.349839E+04  3.013944E+03 -7.216543E+03  1.181237E+04
       433  26 -2.728059E+05 -4.738610E+04 -4.241939E+04 -5.000318E+03 -2.110155E+04  8.896012E+03
       433  27 -2.726770E+05 -6.449549E+04 -6.334500E+04 -1.227321E+04 -3.498519E+04  2.502135E+03
       434   1 -6.539345E+04 -3.102278E+05 -6.151673E+04  8.337396E+04 -2.891013E+03 -1.749794E+04
       434   2 -4.938199E+04 -2.404704E+05 -3.701286E+04  7.909283E+04 -8.769746E+03 -6.002434E+03
       434   3 -3.336103E+04 -1.721984E+05 -1.999306E+04  8.661800E+04 -8.373980E+03  5.495088E+03
       434   4  4.748709E+03 -2.646739E+04  5.373705E+03  8.676263E+04 -2.889113E+03  1.972403E+03
       434   5  1.554864E+03 -2.689354E+04  4.058263E+03  8.085986E+04 -8.768782E+03 -7.943983E+01
       434   6  7.230847E+02 -2.645769E+04  4.669147E+03  8.676296E+04 -8.375009E+03 -2.130806E+03
       434   7  7.488536E+04  2.573679E+05  7.226002E+04  9.015285E+04 -2.887001E+03  2.145160E+04
       434   8  5.248905E+04  1.867273E+05  4.512742E+04  8.262751E+04 -8.767785E+03  5.845545E+03
       434   9  3.480611E+04  1.193040E+05  2.933089E+04  8.690795E+04 -8.376042E+03 -9.758432E+03
       434  10 -6.539354E+04 -3.102281E+05 -6.151732E+04  8.337392E+04  9.249846E-12  9.360199E-11
       434  11 -4.938209E+04 -2.404704E+05 -3.701307E+04  7.909279E+04  2.746031E-11  9.230007E-11
       434  12 -3.336111E+04 -1.721984E+05 -1.999325E+04  8.661803E+04  1.376709E-10  1.203805E-10
       434  13  4.748699E+03 -2.646739E+04  5.373682E+03  8.676264E+04 -2.785093E-11 -3.240184E-11
       434  14  1.554781E+03 -2.689356E+04  4.058118E+03  8.085986E+04  2.342571E-10 -3.204630E-12
       434  15  7.230082E+02 -2.645771E+04  4.669007E+03  8.676294E+04  6.634768E-11  3.846977E-11
       434  16  7.488522E+04  2.573674E+05  7.225914E+04  9.015290E+04  6.455393E-12 -7.121971E-11
       434  17  5.248896E+04  1.867272E+05  4.512721E+04  8.262755E+04 -1.031497E-11 -1.016537E-10
       434  18  3.480601E+04  1.193039E+05  2.933058E+04  8.690789E+04 -3.012601E-11 -9.703755E-11
       434  19 -6.539345E+04 -3.102278E+05 -6.151673E+04  8.337396E+04  2.891013E+03  1.749794E+04
       434  20 -4.938199E+04 -2.404704E+05 -3.701286E+04  7.909283E+04  8.769746E+03  6.002434E+03
       434  21 -3.336103E+04 -1.721984E+05 -1.999306E+04  8.661800E+04  8.373980E+03 -5.495088E+03
       434  22  4.748709E+03 -2.646739E+04  5.373705E+03  8.676263E+04  2.889113E+03 -1.972403E+03
       434  23  1.554864E+03 -2.689354E+04  4.058263E+03  8.085986E+04  8.768782E+03  7.943983E+01
       434  24  7.230847E+02 -2.645769E+04  4.669147E+03  8.676296E+04  8.375009E+03  2.130806E+03
       434  25  7.488536E+04  2.573679E+05  7.226002E+04  9.015285E+04  2.887001E+03 -2.145160E+04
       434  26  5.248905E+04  1.867273E+05  4.512742E+04  8.262751E+04  8.767785E+03 -5.845545E+03
       434  27  3.480611E+04  1.193040E+05  2.933089E+04  8.690795E+04  8.376042E+03  9.758432E+03
       435   1 -2.315261E+04 -1.285663E+05 -1.149794E+04  8.630460E+04 -6.048347E+03  4.744595E+03
       435   2 -6.063329E+03 -6.019631E+04  3.898196E+03  8.188349E+04 -2.392631E+03  6.857740E+02
       435   3  1.381061E+04  9.403061E+03  2.263266E+04  8.968308E+04  1.430314E+03 -3.373559E+03
       435   4  6.999180E+02 -2.636108E+04  5.548994E+03  8.685513E+04 -6.049555E+03 -2.971689E+03
       435   5  1.561769E+03 -2.700413E+04  8.831880E+03  8.074461E+04 -2.393984E+03 -7.392299E+03
       435   6  5.271313E+03 -2.635937E+04  1.570445E+04  8.685457E+04  1.428829E+03 -1.181301E+04
       435   7  2.455193E+04  7.585459E+04  2.259584E+04  8.740575E+04 -6.050778E+03 -1.068920E+04
       435   8  9.186856E+03  6.189298E+03  1.376579E+04  7.960567E+04 -2.395307E+03 -1.547079E+04
       435   9 -3.267990E+03 -6.212040E+04  8.776449E+03  8.402623E+04  1.427421E+03 -2.025198E+04
       435  10 -2.315266E+04 -1.285663E+05 -1.149806E+04  8.630463E+04  1.453717E-10 -8.187631E-11
       435  11 -6.063336E+03 -6.019631E+04  3.898184E+03  8.188349E+04  3.223046E-11  3.725054E-11
       435  12  1.381060E+04  9.403048E+03  2.263264E+04  8.968308E+04  1.258724E-10  1.555134E-10
       435  13  6.998763E+02 -2.636109E+04  5.548909E+03  8.685511E+04  1.290735E-10  3.833638E-11
       435  14  1.561749E+03 -2.700419E+04  8.831766E+03  8.074460E+04  2.935206E-10 -4.606982E-11
       435  15  5.271273E+03 -2.635952E+04  1.570418E+04  8.685458E+04  2.088955E-11  1.127282E-10
       435  16  2.455186E+04  7.585445E+04  2.259555E+04  8.740569E+04  6.194109E-11  6.949972E-11
       435  17  9.186786E+03  6.189039E+03  1.376533E+04  7.960564E+04  8.290649E-11  6.194443E-11
       435  18 -3.268102E+03 -6.212084E+04  8.775674E+03  8.402625E+04  1.530031E-10 -1.192470E-10
       435  19 -2.315261E+04 -1.285663E+05 -1.149794E+04  8.630460E+04  6.048347E+03 -4.744595E+03
       435  20 -6.063329E+03 -6.019631E+04  3.898196E+03  8.188349E+04  2.392631E+03 -6.857740E+02
       435  21  1.381061E+04  9.403061E+03  2.263266E+04  8.968308E+04 -1.430314E+03  3.373559E+03
       435  22  6.999180E+02 -2.636108E+04  5.548994E+03  8.685513E+04  6.049555E+03  2.971689E+03
       435  23  1.561769E+03 -2.700413E+04  8.831880E+03  8.074461E+04  2.393984E+03  7.392299E+03
       435  24  5.271313E+03 -2.635937E+04  1.570445E+04  8.685457E+04 -1.428829E+03  1.181301E+04
       435  25  2.455193E+04  7.585459E+04  2.259584E+04  8.740575E+04  6.050778E+03  1.068920E+04
       435  26  9.186856E+03  6.189298E+03  1.376579E+04  7.960567E+04  2.395307E+03  1.547079E+04
       435  27 -3.267990E+03 -6.212040E+04  8.776449E+03  8.402623E+04 -1.427421E+03  2.025198E+04
       436   1  2.546884E+04  5.494036E+04  3.511654E+04  8.730857E+04  3.908342E+03 -6.148243E+03
       436   2  5.807490E+04  1.177332E+05  6.741693E+04  1.047817E+05  5.342350E+03 -3.616219E+04
       436   3  1.248182E+05  1.929721E+05  1.277911E+05  1.341756E+05  1.901155E+03 -6.617957E+04
       436   4  6.761829E+03 -2.428680E+04  2.080825E+04  8.678757E+04  3.906936E+03 -1.452098E+04
       436   5  2.274041E+04 -2.959881E+04  3.810827E+04  8.082504E+04  5.344165E+03 -3.400398E+04
       436   6  7.103170E+04 -2.429281E+04  7.617269E+04  8.678097E+04  1.907922E+03 -5.348697E+04
       436   7 -1.194550E+04 -1.035077E+05  6.499976E+03  8.626664E+04  3.905544E+03 -2.289269E+04
       436   8 -1.259324E+04 -1.769089E+05  8.798848E+03  5.687421E+04  5.345815E+03 -3.184628E+04
       436   9  1.725038E+04 -2.415093E+05  2.455284E+04  3.940296E+04  1.912753E+03 -4.079879E+04
       436  10  2.546882E+04  5.494031E+04  3.511644E+04  8.730859E+04  6.868685E-11 -1.872577E-10
       436  11  5.807452E+04  1.177318E+05  6.741442E+04  1.047818E+05 -1.510194E-11 -8.608426E-11
       436  12  1.248170E+05  1.929674E+05  1.277828E+05  1.341757E+05 -4.024705E-11 -8.942417E-13
       436  13  6.761756E+03 -2.428703E+04  2.080782E+04  8.678762E+04  1.804959E-10  3.390499E-11
       436  14  2.274007E+04 -2.960006E+04  3.810604E+04  8.082519E+04  2.081047E-10 -8.613063E-12
       436  15  7.103093E+04 -2.429588E+04  7.616731E+04  8.678105E+04 -1.483155E-10 -2.927432E-11
       436  16 -1.194566E+04 -1.035083E+05  6.498962E+03  8.626671E+04  6.991284E-11  1.740672E-10
       436  17 -1.259355E+04 -1.769100E+05  8.796888E+03  5.687435E+04 -3.403249E-11  1.520891E-10
       436  18  1.724992E+04 -2.415110E+05  2.454970E+04  3.940302E+04 -5.182154E-11 -4.660867E-12
       436  19  2.546884E+04  5.494036E+04  3.511654E+04  8.730857E+04 -3.908342E+03  6.148243E+03
       436  20  5.807490E+04  1.177332E+05  6.741693E+04  1.047817E+05 -5.342350E+03  3.616219E+04
       436  21  1.248182E+05  1.929721E+05  1.277911E+05  1.341756E+05 -1.901155E+03  6.617957E+04
       436  22  6.761829E+03 -2.428680E+04  2.080825E+04  8.678757E+04 -3.906936E+03  1.452098E+04
       436  23  2.274041E+04 -2.959881E+04  3.810827E+04  8.082504E+04 -5.344165E+03  3.400398E+04
       436  24  7.103170E+04 -2.429281E+04  7.617269E+04  8.678097E+04 -1.907922E+03  5.348697E+04
       436  25 -1.194550E+04 -1.035077E+05  6.499976E+03  8.626664E+04 -3.905544E+03  2.289269E+04
       436  26 -1.259324E+04 -1.769089E+05  8.798848E+03  5.687421E+04 -5.345815E+03  3.184628E+04
       436  27  1.725038E+04 -2.415093E+05  2.455284E+04  3.940296E+04 -1.912753E+03  4.079879E+04
       437   1  1.068527E+05  1.045213E+05  4.853955E+04  5.585302E+04  1.760288E+04  9.622296E+03
       437   2  9.790199E+04  9.593933E+04  3.563501E+04  5.211689E+04  1.408951E+04 -1.747307E+03
       437   3  8.901230E+04  9.068264E+04  2.942769E+04  4.884612E+04  7.918007E+03 -9.572415E+03
       437   4 -4.598563E+04 -4.178928E+03  1.026631E+02 -2.011567E+04  1.699661E+03 -2.307275E+03
       437   5 -4.520024E+04 -5.038382E+03  1.224568E+02 -2.032673E+04  5.844029E+03 -7.933208E+03
       437   6 -4.601552E+04 -4.233994E+03  1.927686E+02 -2.007246E+04  7.329656E+03 -1.001426E+04
       437   7 -1.987986E+05 -1.128661E+05 -4.833572E+04 -9.606307E+04 -1.419824E+04 -1.423285E+04
       437   8 -1.882806E+05 -1.060049E+05 -3.539181E+04 -9.275185E+04 -2.399005E+03 -1.411727E+04
       437   9 -1.810250E+05 -9.914151E+04 -2.904410E+04 -8.897513E+04  6.741461E+03 -1.045598E+04
       437  10  1.068524E+05  1.045211E+05  4.853880E+04  5.585288E+04 -2.082210E-11 -5.280293E-11
       437  11  9.790177E+04  9.593927E+04  3.563463E+04  5.211691E+04  9.435959E-11  2.074930E-10
       437  12  8.901221E+04  9.068252E+04  2.942740E+04  4.884618E+04  7.291889E-11  1.941331E-10
       437  13 -4.598564E+04 -4.178935E+03  1.026477E+02 -2.011566E+04 -4.053565E-11  7.963321E-11
       437  14 -4.520029E+04 -5.038459E+03  1.222743E+02 -2.032669E+04 -1.431932E-10  2.985604E-10
       437  15 -4.601560E+04 -4.234116E+03  1.924792E+02 -2.007240E+04 -8.934885E-12  3.843752E-11
       437  16 -1.987989E+05 -1.128663E+05 -4.833648E+04 -9.606324E+04  1.036490E-10  6.980957E-11
       437  17 -1.882806E+05 -1.060051E+05 -3.539220E+04 -9.275187E+04 -9.558936E-11  1.368877E-11
       437  18 -1.810250E+05 -9.914164E+04 -2.904439E+04 -8.897507E+04 -2.693132E-10 -1.397971E-10
       437  19  1.068527E+05  1.045213E+05  4.853955E+04  5.585302E+04 -1.760288E+04 -9.622296E+03
       437  20  9.790199E+04  9.593933E+04  3.563501E+04  5.211689E+04 -1.408951E+04  1.747307E+03
       437  21  8.901230E+04  9.068264E+04  2.942769E+04  4.884612E+04 -7.918007E+03  9.572415E+03
       437  22 -4.598563E+04 -4.178928E+03  1.026631E+02 -2.011567E+04 -1.699661E+03  2.307275E+03
       437  23 -4.520024E+04 -5.038382E+03  1.224568E+02 -2.032673E+04 -5.844029E+03  7.933208E+03
       437  24 -4.601552E+04 -4.233994E+03  1.927686E+02 -2.007246E+04 -7.329656E+03  1.001426E+04
       437  25 -1.987986E+05 -1.128661E+05 -4.833572E+04 -9.606307E+04  1.419824E+04  1.423285E+04
       437  26 -1.882806E+05 -1.060049E+05 -3.539181E+04 -9.275185E+04  2.399005E+03  1.411727E+04
       437  27 -1.810250E+05 -9.914151E+04 -2.904410E+04 -8.897513E+04 -6.741461E+03  1.045598E+04
       438   1  8.346544E+04  8.686085E+04  2.757804E+04  4.617936E+04  7.845321E+03 -9.657118E+03
       438   2  7.590018E+04  7.983819E+04  2.479100E+04  4.171710E+04  6.766580E+03 -1.051420E+04
       438   3  6.662695E+04  7.497555E+04  2.295514E+04  3.782773E+04  5.363554E+03 -1.093902E+04
       438   4 -4.608526E+04 -4.168617E+03  2.483225E+02 -2.005015E+04  7.312657E+03 -1.005718E+04
       438   5 -4.513133E+04 -5.151131E+03  4.243420E+02 -2.033271E+04  7.167804E+03 -1.021358E+04
       438   6 -4.608847E+04 -4.176292E+03  7.408333E+02 -2.004250E+04  6.698582E+03 -9.937700E+03
       438   7 -1.756128E+05 -9.518525E+04 -2.708101E+04 -8.626193E+04  6.780152E+03 -1.045713E+04
       438   8 -1.661437E+05 -9.012999E+04 -2.394226E+04 -8.236755E+04  7.568921E+03 -9.913051E+03
       438   9 -1.587884E+05 -8.331986E+04 -2.147378E+04 -7.790029E+04  8.033288E+03 -8.936624E+03
       438  10  8.346535E+04  8.686074E+04  2.757775E+04  4.617942E+04 -1.767643E-10  2.677126E-10
       438  11  7.590010E+04  7.983806E+04  2.479071E+04  4.171716E+04 -2.543509E-10  2.678318E-10
       438  12  6.662689E+04  7.497541E+04  2.295486E+04  3.782777E+04 -3.297419E-10 -1.248983E-12
       438  13 -4.608534E+04 -4.168740E+03  2.480320E+02 -2.005009E+04  8.925755E-11  2.000863E-10
       438  14 -4.513141E+04 -5.151257E+03  4.240494E+02 -2.033265E+04 -8.223771E-11  4.477964E-10
       438  15 -4.608854E+04 -4.176410E+03  7.405634E+02 -2.004244E+04  7.097700E-11 -2.737029E-12
       438  16 -1.756129E+05 -9.518538E+04 -2.708130E+04 -8.626187E+04  9.311710E-11 -1.760576E-10
       438  17 -1.661438E+05 -9.013011E+04 -2.394255E+04 -8.236749E+04 -7.264850E-11  3.355507E-10
       438  18 -1.587885E+05 -8.331996E+04 -2.147405E+04 -7.790023E+04 -6.368285E-11  2.366870E-10
       438  19  8.346544E+04  8.686085E+04  2.757804E+04  4.617936E+04 -7.845321E+03  9.657118E+03
       438  20  7.590018E+04  7.983819E+04  2.479100E+04  4.171710E+04 -6.766580E+03  1.051420E+04
       438  21  6.662695E+04  7.497555E+04  2.295514E+04  3.782773E+04 -5.363554E+03  1.093902E+04
       438  22 -4.608526E+04 -4.168617E+03  2.483225E+02 -2.005015E+04 -7.312657E+03  1.005718E+04
       438  23 -4.513133E+04 -5.151131E+03  4.243420E+02 -2.033271E+04 -7.167804E+03  1.021358E+04
       438  24 -4.608847E+04 -4.176292E+03  7.408333E+02 -2.004250E+04 -6.698582E+03  9.937700E+03
       438  25 -1.756128E+05 -9.518525E+04 -2.708101E+04 -8.626193E+04 -6.780152E+03  1.045713E+04
       438  26 -1.661437E+05 -9.012999E+04 -2.394226E+04 -8.236755E+04 -7.568921E+03  9.913051E+03
       438  27 -1.587884E+05 -8.331986E+04 -2.147378E+04 -7.790029E+04 -8.033288E+03  8.936624E+03
       439   1  6.136427E+04  7.134397E+04  2.204249E+04  3.518535E+04  4.951696E+03 -1.066040E+04
       439   2  5.398842E+04  6.446608E+04  2.103651E+04  3.057042E+04  3.637538E+03 -1.062294E+04
       439   3  4.483077E+04  5.976548E+04  2.075261E+04  2.652092E+04  2.272722E+03 -1.051810E+04
       439   4 -4.608045E+04 -4.159922E+03  9.771269E+02 -2.002406E+04  6.293785E+03 -9.653718E+03
       439   5 -4.513137E+04 -5.156869E+03  1.706740E+03 -2.036389E+04  5.125375E+03 -9.506804E+03
       439   6 -4.599534E+04 -4.008273E+03  3.032026E+03 -2.013834E+04  3.906311E+03 -9.292497E+03
       439   7 -1.535137E+05 -7.965813E+04 -2.008939E+04 -7.522344E+04  7.635597E+03 -8.647249E+03
       439   8 -1.442392E+05 -7.477345E+04 -1.762327E+04 -7.128861E+04  6.612898E+03 -8.390904E+03
       439   9 -1.368093E+05 -6.777517E+04 -1.468803E+04 -6.678850E+04  5.539546E+03 -8.067163E+03
       439  10  6.136422E+04  7.134384E+04  2.204223E+04  3.518539E+04  2.292270E-10  2.607814E-10
       439  11  5.398838E+04  6.446595E+04  2.103627E+04  3.057045E+04  2.203888E-10 -1.665167E-11
       439  12  4.483073E+04  5.976536E+04  2.075239E+04  2.652094E+04  4.812567E-11 -4.493503E-10
       439  13 -4.608051E+04 -4.160033E+03  9.768773E+02 -2.002401E+04 -2.881154E-10  3.568769E-10
       439  14 -4.513142E+04 -5.156973E+03  1.706521E+03 -2.036385E+04 -5.520809E-11  1.548300E-10
       439  15 -4.599538E+04 -4.008370E+03  3.031835E+03 -2.013831E+04 -8.082144E-12  2.048267E-10
       439  16 -1.535138E+05 -7.965822E+04 -2.008964E+04 -7.522339E+04 -3.582827E-10 -1.559551E-10
       439  17 -1.442393E+05 -7.477353E+04 -1.762348E+04 -7.128857E+04 -5.045846E-10 -6.497631E-11
       439  18 -1.368094E+05 -6.777525E+04 -1.468821E+04 -6.678846E+04 -1.140394E-10  6.619557E-11
       439  19  6.136427E+04  7.134397E+04  2.204249E+04  3.518535E+04 -4.951696E+03  1.066040E+04
       439  20  5.398842E+04  6.446608E+04  2.103651E+04  3.057042E+04 -3.637538E+03  1.062294E+04
       439  21  4.483077E+04  5.976548E+04  2.075261E+04  2.652092E+04 -2.272722E+03  1.051810E+04
       439  22 -4.608045E+04 -4.159922E+03  9.771269E+02 -2.002406E+04 -6.293785E+03  9.653718E+03
       439  23 -4.513137E+04 -5.156869E+03  1.706740E+03 -2.036389E+04 -5.125375E+03  9.506804E+03
       439  24 -4.599534E+04 -4.008273E+03  3.032026E+03 -2.013834E+04 -3.906311E+03  9.292497E+03
       439  25 -1.535137E+05 -7.965813E+04 -2.008939E+04 -7.522344E+04 -7.635597E+03  8.647249E+03
       439  26 -1.442392E+05 -7.477345E+04 -1.762327E+04 -7.128861E+04 -6.612898E+03  8.390904E+03
       439  27 -1.368093E+05 -6.777517E+04 -1.468803E+04 -6.678850E+04 -5.539546E+03  8.067163E+03
       440   1  3.956068E+04  5.644897E+04  2.070356E+04  2.397930E+04  1.461674E+03 -1.044257E+04
       440   2  3.350948E+04  4.876683E+04  2.236790E+04  1.831107E+04 -2.289685E+03 -1.197149E+04
       440   3  2.700213E+04  4.495714E+04  2.716446E+04  1.263167E+04 -6.139311E+03 -1.336949E+04
       440   4 -4.584971E+04 -3.891627E+03  4.013854E+03 -2.007529E+04  3.098082E+03 -9.214803E+03
       440   5 -4.484064E+04 -4.465616E+03  7.122735E+03 -2.106833E+04 -3.700419E+02 -1.053111E+04
       440   6 -4.434928E+04 -1.228389E+03  1.311813E+04 -2.207263E+04 -3.936518E+03 -1.171655E+04
       440   7 -1.312513E+05 -6.422748E+04 -1.267605E+04 -6.412274E+04  4.734194E+03 -7.987262E+03
       440   8 -1.231843E+05 -5.769507E+04 -8.122908E+03 -6.044243E+04  1.549302E+03 -9.090938E+03
       440   9 -1.156963E+05 -4.741235E+04 -9.288957E+02 -5.677321E+04 -1.734012E+03 -1.006380E+04
       440  10  3.956065E+04  5.644885E+04  2.070335E+04  2.397932E+04 -1.129881E-10 -2.435294E-10
       440  11  3.350944E+04  4.876668E+04  2.236762E+04  1.831105E+04  8.380640E-11  2.846167E-10
       440  12  2.700204E+04  4.495694E+04  2.716406E+04  1.263161E+04  1.763107E-10 -1.471508E-11
       440  13 -4.584974E+04 -3.891721E+03  4.013677E+03 -2.007526E+04  2.221888E-10 -3.309848E-11
       440  14 -4.484067E+04 -4.465735E+03  7.122527E+03 -2.106833E+04 -8.746048E-11 -3.127911E-10
       440  15 -4.434933E+04 -1.228541E+03  1.311785E+04 -2.207266E+04  3.104685E-10 -1.447476E-10
       440  16 -1.312514E+05 -6.422756E+04 -1.267621E+04 -6.412271E+04  3.202414E-10  1.936952E-10
       440  17 -1.231843E+05 -5.769515E+04 -8.123068E+03 -6.044242E+04  6.283590E-11  6.400314E-11
       440  18 -1.156963E+05 -4.741246E+04 -9.290917E+02 -5.677323E+04 -2.055326E-10 -5.226565E-10
       440  19  3.956068E+04  5.644897E+04  2.070356E+04  2.397930E+04 -1.461674E+03  1.044257E+04
       440  20  3.350948E+04  4.876683E+04  2.236790E+04  1.831107E+04  2.289685E+03  1.197149E+04
       440  21  2.700213E+04  4.495714E+04  2.716446E+04  1.263167E+04  6.139311E+03  1.336949E+04
       440  22 -4.584971E+04 -3.891627E+03  4.013854E+03 -2.007529E+04 -3.098082E+03  9.214803E+03
       440  23 -4.484064E+04 -4.465616E+03  7.122735E+03 -2.106833E+04  3.700419E+02  1.053111E+04
       440  24 -4.434928E+04 -1.228389E+03  1.311813E+04 -2.207263E+04  3.936518E+03  1.171655E+04
       440  25 -1.312513E+05 -6.422748E+04 -1.267605E+04 -6.412274E+04 -4.734194E+03  7.987262E+03
       440  26 -1.231843E+05 -5.769507E+04 -8.122908E+03 -6.044243E+04 -1.549302E+03  9.090938E+03
       440  27 -1.156963E+05 -4.741235E+04 -9.288957E+02 -5.677321E+04  1.734012E+03  1.006380E+04
       441   1  2.157320E+04  4.471756E+04  3.074583E+04  1.076219E+04 -8.387518E+03 -1.418526E+04
       441   2  3.530567E+04  2.589068E+04  4.526256E+04 -8.262544E+03 -2.495116E+04 -2.420691E+04
       441   3  6.305971E+04  3.038849E+04  7.928935E+04 -3.551101E+04 -4.228573E+04 -3.320074E+04
       441   4 -4.277982E+04  2.414806E+02  1.749989E+04 -2.182758E+04 -6.168168E+03 -1.251980E+04
       441   5 -3.972629E+04  6.262724E+03  3.224984E+04 -3.080425E+04 -2.051255E+04 -2.087723E+04
       441   6 -2.313301E+04  3.512626E+04  6.458390E+04 -4.800502E+04 -3.562731E+04 -2.820792E+04
       441   7 -1.071266E+05 -4.423115E+04  4.254274E+03 -5.441279E+04 -3.949166E+03 -1.085459E+04
       441   8 -1.147495E+05 -1.336408E+04  1.923765E+04 -5.334360E+04 -1.607477E+04 -1.754773E+04
       441   9 -1.093130E+05  3.986630E+04  4.987962E+04 -6.049912E+04 -2.897037E+04 -2.321486E+04
       441  10  2.157307E+04  4.471733E+04  3.074532E+04  1.076209E+04 -7.487543E-10 -1.989086E-10
       441  11  3.530484E+04  2.588988E+04  4.526029E+04 -8.263030E+03 -5.089172E-11  1.692053E-10
       441  12  6.305749E+04  3.038683E+04  7.928392E+04 -3.551214E+04  2.868993E-10  2.607729E-10
       441  13 -4.277991E+04  2.413021E+02  1.749953E+04 -2.182765E+04  2.447470E-10 -3.545490E-10
       441  14 -3.972686E+04  6.262143E+03  3.224823E+04 -3.080459E+04 -2.426904E-10  1.744271E-09
       441  15 -2.313459E+04  3.512507E+04  6.458002E+04 -4.800583E+04 -3.257592E-10  9.032025E-11
       441  16 -1.071266E+05 -4.423128E+04  4.254023E+03 -5.441283E+04  7.409208E-10 -1.128795E-11
       441  17 -1.147499E+05 -1.336448E+04  1.923659E+04 -5.334383E+04 -3.899403E-10  7.800575E-10
       441  18 -1.093141E+05  3.986550E+04  4.987703E+04 -6.049966E+04 -3.488035E-10 -3.445925E-10
       441  19  2.157320E+04  4.471756E+04  3.074583E+04  1.076219E+04  8.387518E+03  1.418526E+04
       441  20  3.530567E+04  2.589068E+04  4.526256E+04 -8.262544E+03  2.495116E+04  2.420691E+04
       441  21  6.305971E+04  3.038849E+04  7.928935E+04 -3.551101E+04  4.228573E+04  3.320074E+04
       441  22 -4.277982E+04  2.414806E+02  1.749989E+04 -2.182758E+04  6.168168E+03  1.251980E+04
       441  23 -3.972629E+04  6.262724E+03  3.224984E+04 -3.080425E+04  2.051255E+04  2.087723E+04
       441  24 -2.313301E+04  3.512626E+04  6.458390E+04 -4.800502E+04  3.562731E+04  2.820792E+04
       441  25 -1.071266E+05 -4.423115E+04  4.254274E+03 -5.441279E+04  3.949166E+03  1.085459E+04
       441  26 -1.147495E+05 -1.336408E+04  1.923765E+04 -5.334360E+04  1.607477E+04  1.754773E+04
       441  27 -1.093130E+05  3.986630E+04  4.987962E+04 -6.049912E+04  2.897037E+04  2.321486E+04
       442   1  2.686096E+05  7.192202E+04  6.311079E+04  3.609355E+04  1.142197E+04 -5.502828E+03
       442   2  2.219137E+05  8.006100E+04  5.151471E+04  4.389402E+04  1.029407E+03 -1.840000E+04
       442   3  1.734313E+05  7.561475E+04  4.354033E+04  5.941886E+04 -9.364900E+03 -2.195206E+04
       442   4 -1.669396E+05 -3.538582E+04 -3.802007E+04  5.960244E+04 -2.652093E+04 -5.519129E+03
       442   5 -1.642838E+05 -1.129523E+04 -1.915245E+04  5.573185E+04 -1.672314E+04 -1.840959E+04
       442   6 -1.669250E+05 -3.300125E+03 -1.068510E+04  5.958646E+04 -6.928026E+03 -2.195187E+04
       442   7 -6.023094E+05 -1.427042E+05 -1.391580E+05  8.309470E+04 -6.443741E+04 -5.538310E+03
       442   8 -5.503355E+05 -1.026592E+05 -8.982440E+04  6.756210E+04 -3.446494E+04 -1.841986E+04
       442   9 -5.071662E+05 -8.222078E+04 -6.491350E+04  5.975394E+04 -4.492439E+03 -2.195169E+04
       442  10  2.686094E+05  7.192195E+04  6.311049E+04  3.609360E+04  1.142382E-09 -2.157247E-10
       442  11  2.219136E+05  8.006063E+04  5.151407E+04  4.389404E+04  5.122387E-10 -1.193358E-09
       442  12  1.734311E+05  7.561420E+04  4.353926E+04  5.941869E+04  2.457307E-10 -9.864018E-10
       442  13 -1.669404E+05 -3.538605E+04 -3.802145E+04  5.960232E+04 -5.166775E-11  1.573212E-10
       442  14 -1.642842E+05 -1.129567E+04 -1.915361E+04  5.573160E+04  7.245231E-11 -9.364884E-10
       442  15 -1.669252E+05 -3.300656E+03 -1.068610E+04  5.958634E+04 -2.168661E-10 -2.327378E-10
       442  16 -6.023138E+05 -1.427053E+05 -1.391658E+05  8.309442E+04 -1.326027E-09 -2.462541E-11
       442  17 -5.503368E+05 -1.026599E+05 -8.982727E+04  6.756159E+04 -7.771357E-11 -1.744955E-09
       442  18 -5.071663E+05 -8.222131E+04 -6.491444E+04  5.975386E+04  1.517505E-10 -1.669444E-09
       442  19  2.686096E+05  7.192202E+04  6.311079E+04  3.609355E+04 -1.142197E+04  5.502828E+03
       442  20  2.219137E+05  8.006100E+04  5.151471E+04  4.389402E+04 -1.029407E+03  1.840000E+04
       442  21  1.734313E+05  7.561475E+04  4.354033E+04  5.941886E+04  9.364900E+03  2.195206E+04
       442  22 -1.669396E+05 -3.538582E+04 -3.802007E+04  5.960244E+04  2.652093E+04  5.519129E+03
       442  23 -1.642838E+05 -1.129523E+04 -1.915245E+04  5.573185E+04  1.672314E+04  1.840959E+04
       442  24 -1.669250E+05 -3.300125E+03 -1.068510E+04  5.958646E+04  6.928026E+03  2.195187E+04
       442  25 -6.023094E+05 -1.427042E+05 -1.391580E+05  8.309470E+04  6.443741E+04  5.538310E+03
       442  26 -5.503355E+05 -1.026592E+05 -8.982440E+04  6.756210E+04  3.446494E+04  1.841986E+04
       442  27 -5.071662E+05 -8.222078E+04 -6.491350E+04  5.975394E+04  4.492439E+03  2.195169E+04
       443   1  1.441630E+05  6.908450E+04  3.983920E+04  5.840071E+04 -8.095024E+03 -2.092764E+04
       443   2  9.677128E+04  5.951983E+04  3.346393E+04  5.498316E+04 -7.935436E+03 -1.917298E+04
       443   3  4.910415E+04  4.895296E+04  2.673280E+04  5.996846E+04 -7.776809E+03 -1.629812E+04
       443   4 -1.658994E+05 -2.544694E+03 -8.253682E+03  5.973797E+04 -5.512434E+03 -2.092718E+04
       443   5 -1.655464E+05 -6.696328E+02 -5.162484E+03  5.553568E+04 -2.933932E+03 -1.917075E+04
       443   6 -1.658907E+05 -2.168130E+02 -4.107348E+03  5.973653E+04 -3.563421E+02 -1.629388E+04
       443   7 -4.758657E+05 -7.417857E+04 -5.634875E+04  6.107452E+04 -2.931084E+03 -2.092672E+04
       443   8 -4.277948E+05 -6.086229E+04 -4.379003E+04  5.608795E+04  2.065545E+03 -1.916852E+04
       443   9 -3.808388E+05 -4.938866E+04 -3.494799E+04  5.950467E+04  7.061665E+03 -1.628965E+04
       443  10  1.441628E+05  6.908401E+04  3.983825E+04  5.840057E+04 -1.895896E-09 -1.095271E-09
       443  11  9.677111E+04  5.951942E+04  3.346312E+04  5.498304E+04 -4.178048E-10  4.612246E-10
       443  12  4.910402E+04  4.895266E+04  2.673219E+04  5.996836E+04  4.531452E-10  5.738920E-10
       443  13 -1.658995E+05 -2.545173E+03 -8.254562E+03  5.973787E+04  1.432873E-10 -7.649343E-10
       443  14 -1.655465E+05 -6.700297E+02 -5.163191E+03  5.553564E+04  1.689928E-10 -9.386074E-11
       443  15 -1.658908E+05 -2.170981E+02 -4.107847E+03  5.973652E+04 -1.266320E-10 -7.884052E-10
       443  16 -4.758659E+05 -7.417904E+04 -5.634959E+04  6.107447E+04  1.601255E-09 -7.898858E-11
       443  17 -4.277950E+05 -6.086269E+04 -4.379073E+04  5.608798E+04  7.552413E-10  3.726423E-10
       443  18 -3.808389E+05 -4.938896E+04 -3.494859E+04  5.950476E+04 -2.854354E-10 -8.911030E-11
       443  19  1.441630E+05  6.908450E+04  3.983920E+04  5.840071E+04  8.095024E+03  2.092764E+04
       443  20  9.677128E+04  5.951983E+04  3.346393E+04  5.498316E+04  7.935436E+03  1.917298E+04
       443  21  4.910415E+04  4.895296E+04  2.673280E+04  5.996846E+04  7.776809E+03  1.629812E+04
       443  22 -1.658994E+05 -2.544694E+03 -8.253682E+03  5.973797E+04  5.512434E+03  2.092718E+04
       443  23 -1.655464E+05 -6.696328E+02 -5.162484E+03  5.553568E+04  2.933932E+03  1.917075E+04
       443  24 -1.658907E+05 -2.168130E+02 -4.107348E+03  5.973653E+04  3.563421E+02  1.629388E+04
       443  25 -4.758657E+05 -7.417857E+04 -5.634875E+04  6.107452E+04  2.931084E+03  2.092672E+04
       443  26 -4.277948E+05 -6.086229E+04 -4.379003E+04  5.608795E+04 -2.065545E+03  1.916852E+04
       443  27 -3.808388E+05 -4.938866E+04 -3.494799E+04  5.950467E+04 -7.061665E+03  1.628965E+04
       444   1  1.933273E+04  4.208953E+04  2.217641E+04  5.971257E+04 -7.095445E+03 -1.424946E+04
       444   2 -2.785196E+04  3.074575E+04  1.411855E+04  5.624291E+04 -4.564235E+03 -1.079858E+04
       444   3 -7.572584E+04  1.799802E+04  4.058428E+03  6.125026E+04 -2.033497E+03 -7.334646E+03
       444   4 -1.658883E+05 -2.128496E+02 -4.101013E+03  5.975295E+04  3.409003E+02 -1.424495E+04
       444   5 -1.655380E+05 -6.443573E+02 -5.125881E+03  5.551507E+04  2.899513E+03 -1.079375E+04
       444   6 -1.658841E+05 -2.484674E+03 -8.172408E+03  5.975436E+04  5.457830E+03 -7.329483E+03
       444   7 -3.510744E+05 -4.251674E+04 -3.037871E+04  5.979331E+04  7.775123E+03 -1.424044E+04
       444   8 -3.032047E+05 -3.203528E+04 -2.437034E+04  5.478740E+04  1.036168E+04 -1.078892E+04
       444   9 -2.560339E+05 -2.296768E+04 -2.040311E+04  5.825870E+04  1.294812E+04 -7.324354E+03
       444  10  1.933262E+04  4.208930E+04  2.217594E+04  5.971249E+04 -1.187903E-09  9.523254E-10
       444  11 -2.785201E+04  3.074562E+04  1.411829E+04  5.624287E+04  8.490932E-11  9.993841E-10
       444  12 -7.572586E+04  1.799796E+04  4.058319E+03  6.125024E+04  1.407425E-09  7.804927E-12
       444  13 -1.658883E+05 -2.130675E+02 -4.101394E+03  5.975296E+04  2.430939E-10 -9.617283E-10
       444  14 -1.655381E+05 -6.444847E+02 -5.126115E+03  5.551510E+04  1.592247E-10  6.560456E-10
       444  15 -1.658841E+05 -2.484740E+03 -8.172565E+03  5.975440E+04 -1.081912E-10  1.444683E-09
       444  16 -3.510746E+05 -4.251698E+04 -3.037921E+04  5.979340E+04  1.061622E-09  2.374633E-10
       444  17 -3.032049E+05 -3.203543E+04 -2.437076E+04  5.478749E+04  4.603310E-11  9.764319E-10
       444  18 -2.560341E+05 -2.296779E+04 -2.040353E+04  5.825877E+04 -1.194119E-09  1.650358E-10
       444  19  1.933273E+04  4.208953E+04  2.217641E+04  5.971257E+04  7.095445E+03  1.424946E+04
       444  20 -2.785196E+04  3.074575E+04  1.411855E+04  5.624291E+04  4.564235E+03  1.079858E+04
       444  21 -7.572584E+04  1.799802E+04  4.058428E+03  6.125026E+04  2.033497E+03  7.334646E+03
       444  22 -1.658883E+05 -2.128496E+02 -4.101013E+03  5.975295E+04 -3.409003E+02  1.424495E+04
       444  23 -1.655380E+05 -6.443573E+02 -5.125881E+03  5.551507E+04 -2.899513E+03  1.079375E+04
       444  24 -1.658841E+05 -2.484674E+03 -8.172408E+03  5.975436E+04 -5.457830E+03  7.329483E+03
       444  25 -3.510744E+05 -4.251674E+04 -3.037871E+04  5.979331E+04 -7.775123E+03  1.424044E+04
       444  26 -3.032047E+05 -3.203528E+04 -2.437034E+04  5.478740E+04 -1.036168E+04  1.078892E+04
       444  27 -2.560339E+05 -2.296768E+04 -2.040311E+04  5.825870E+04 -1.294812E+04  7.324354E+03
       445   1 -1.065050E+05  1.039252E+04 -2.888272E+03  6.006873E+04 -6.189942E+02 -5.273280E+03
       445   2 -1.512390E+05 -8.496123E+03 -1.893518E+04  6.738861E+04  1.124878E+04 -2.308948E+03
       445   3 -2.016051E+05 -4.368807E+04 -4.678936E+04  8.312655E+04  2.311605E+04 -3.574706E+02
       445   4 -1.668960E+05 -3.225156E+03 -1.057358E+04  5.973988E+04  6.858503E+03 -5.268029E+03
       445   5 -1.642699E+05 -1.112344E+04 -1.893853E+04  5.554072E+04  1.653756E+04 -2.305425E+03
       445   6 -1.668983E+05 -3.494549E+04 -3.759060E+04  5.976079E+04  2.621698E+04 -3.561281E+02
       445   7 -2.272832E+05 -1.684295E+04 -1.825870E+04  5.941107E+04  1.433531E+04 -5.262785E+03
       445   8 -1.773003E+05 -1.375022E+04 -1.894168E+04  4.369311E+04  2.182624E+04 -2.302104E+03
       445   9 -1.321892E+05 -2.620094E+04 -2.839161E+04  3.639373E+04  2.931810E+04 -3.550190E+02
       445  10 -1.065050E+05  1.039249E+04 -2.888325E+03  6.006873E+04  2.618893E-10  9.826950E-11
       445  11 -1.512391E+05 -8.496163E+03 -1.893542E+04  6.738863E+04 -6.460073E-11  1.727492E-09
       445  12 -2.016056E+05 -4.368821E+04 -4.679036E+04  8.312656E+04  1.904655E-10  5.054494E-10
       445  13 -1.668961E+05 -3.225199E+03 -1.057372E+04  5.973991E+04  6.722474E-11  2.897270E-10
       445  14 -1.642702E+05 -1.112352E+04 -1.893905E+04  5.554075E+04 -1.538027E-10  1.690602E-09
       445  15 -1.668990E+05 -3.494567E+04 -3.759189E+04  5.976080E+04  3.785185E-12 -1.705174E-10
       445  16 -2.272834E+05 -1.684304E+04 -1.825914E+04  5.941113E+04 -2.654481E-10  2.575505E-10
       445  17 -1.773008E+05 -1.375036E+04 -1.894258E+04  4.369315E+04  6.035244E-11  5.950414E-10
       445  18 -1.321901E+05 -2.620117E+04 -2.839323E+04  3.639374E+04 -4.855018E-11 -8.595820E-11
       445  19 -1.065050E+05  1.039252E+04 -2.888272E+03  6.006873E+04  6.189942E+02  5.273280E+03
       445  20 -1.512390E+05 -8.496123E+03 -1.893518E+04  6.738861E+04 -1.124878E+04  2.308948E+03
       445  21 -2.016051E+05 -4.368807E+04 -4.678936E+04  8.312655E+04 -2.311605E+04  3.574706E+02
       445  22 -1.668960E+05 -3.225156E+03 -1.057358E+04  5.973988E+04 -6.858503E+03  5.268029E+03
       445  23 -1.642699E+05 -1.112344E+04 -1.893853E+04  5.554072E+04 -1.653756E+04  2.305425E+03
       445  24 -1.668983E+05 -3.494549E+04 -3.759060E+04  5.976079E+04 -2.621698E+04  3.561281E+02
       445  25 -2.272832E+05 -1.684295E+04 -1.825870E+04  5.941107E+04 -1.433531E+04  5.262785E+03
       445  26 -1.773003E+05 -1.375022E+04 -1.894168E+04  4.369311E+04 -2.182624E+04  2.302104E+03
       445  27 -1.321892E+05 -2.620094E+04 -2.839161E+04  3.639373E+04 -2.931810E+04  3.550190E+02
       446   1 -6.027986E+04 -2.240082E+05 -5.652809E+04  8.483246E+04 -2.623863E+03 -1.483566E+04
       446   2 -4.491128E+04 -1.525905E+05 -3.313221E+04  8.080043E+04 -7.809237E+03 -4.477645E+03
       446   3 -2.880032E+04 -8.231869E+04 -1.629505E+04  8.892694E+04 -7.041826E+03  5.883807E+03
       446   4  6.016285E+03  4.410974E+04  6.814400E+03  8.906565E+04 -2.626797E+03  2.786126E+03
       446   5  1.935809E+03  4.357412E+04  4.929251E+03  8.298614E+04 -7.809728E+03  2.898060E+02
       446   6  8.295595E+02  4.411900E+04  5.413374E+03  8.906467E+04 -7.040811E+03 -2.204487E+03
       446   7  7.230751E+04  3.122945E+05  7.015310E+04  9.330068E+04 -2.629491E+03  2.041548E+04
       446   8  4.878063E+04  2.397758E+05  4.298898E+04  8.517255E+04 -7.810186E+03  5.058730E+03
       446   9  3.045861E+04  1.705725E+05  2.712150E+04  8.920243E+04 -7.039799E+03 -1.029438E+04
       446  10 -6.027992E+04 -2.240085E+05 -5.652852E+04  8.483242E+04  1.208775E-11 -1.098637E-10
       446  11 -4.491135E+04 -1.525906E+05 -3.313236E+04  8.080040E+04  3.519478E-11 -2.463159E-10
       446  12 -2.880038E+04 -8.231874E+04 -1.629520E+04  8.892697E+04  1.456704E-10  6.083325E-10
       446  13  6.016276E+03  4.410973E+04  6.814373E+03  8.906566E+04  1.575727E-10 -8.914658E-12
       446  14  1.935743E+03  4.357411E+04  4.929136E+03  8.298614E+04 -3.549714E-10 -8.579126E-11
       446  15  8.295049E+02  4.411898E+04  5.413271E+03  8.906466E+04  1.353167E-10  5.630124E-10
       446  16  7.230739E+04  3.122941E+05  7.015230E+04  9.330073E+04 -8.903770E-11 -3.726630E-11
       446  17  4.878055E+04  2.397758E+05  4.298882E+04  8.517258E+04 -2.587726E-10 -4.579559E-10
       446  18  3.045853E+04  1.705724E+05  2.712121E+04  8.920237E+04  4.077996E-12 -4.770627E-10
       446  19 -6.027986E+04 -2.240082E+05 -5.652809E+04  8.483246E+04  2.623863E+03  1.483566E+04
       446  20 -4.491128E+04 -1.525905E+05 -3.313221E+04  8.080043E+04  7.809237E+03  4.477645E+03
       446  21 -2.880032E+04 -8.231869E+04 -1.629505E+04  8.892694E+04  7.041826E+03 -5.883807E+03
       446  22  6.016285E+03  4.410974E+04  6.814400E+03  8.906565E+04  2.626797E+03 -2.786126E+03
       446  23  1.935809E+03  4.357412E+04  4.929251E+03  8.298614E+04  7.809728E+03 -2.898060E+02
       446  24  8.295595E+02  4.411900E+04  5.413374E+03  8.906467E+04  7.040811E+03  2.204487E+03
       446  25  7.230751E+04  3.122945E+05  7.015310E+04  9.330068E+04  2.629491E+03 -2.041548E+04
       446  26  4.878063E+04  2.397758E+05  4.298898E+04  8.517255E+04  7.810186E+03 -5.058730E+03
       446  27  3.045861E+04  1.705725E+05  2.712150E+04  8.920243E+04  7.039799E+03  1.029438E+04
       447   1 -1.836313E+04 -3.757206E+04 -7.641103E+03  8.852781E+04 -4.601278E+03  5.005554E+03
       447   2 -8.125402E+02  3.252642E+04  8.270495E+03  8.413425E+04 -7.895774E+02  1.715087E+02
       447   3  1.990134E+04  1.040588E+05  2.812186E+04  9.228522E+04  3.077138E+03 -4.663082E+03
       447   4  7.864040E+02  4.420282E+04  6.332588E+03  8.915051E+04 -4.600396E+03 -3.167118E+03
       447   5  1.703581E+03  4.347801E+04  9.898191E+03  8.287873E+04 -7.887132E+02 -8.120516E+03
       447   6  5.805065E+03  4.420323E+04  1.748663E+04  8.915125E+04  3.078008E+03 -1.307395E+04
       447   7  1.993562E+04  1.259844E+05  2.030631E+04  8.977329E+04 -4.599530E+03 -1.134083E+04
       447   8  4.219738E+03  5.442986E+04  1.152614E+04  8.162319E+04 -7.878156E+02 -1.641268E+04
       447   9 -8.291334E+03 -1.564866E+04  6.851545E+03  8.601759E+04  3.078962E+03 -2.148403E+04
       447  10 -1.836316E+04 -3.757210E+04 -7.641190E+03  8.852783E+04  4.570701E-11 -3.682618E-10
       447  11 -8.125408E+02  3.252642E+04  8.270493E+03  8.413425E+04  2.183184E-11 -3.732827E-10
       447  12  1.990133E+04  1.040588E+05  2.812180E+04  9.228523E+04 -7.002561E-11  3.114008E-10
       447  13  7.863786E+02  4.420281E+04  6.332530E+03  8.915050E+04 -6.836070E-11 -6.519758E-11
       447  14  1.703562E+03  4.347793E+04  9.898066E+03  8.287873E+04  8.616921E-11  4.900955E-12
       447  15  5.805009E+03  4.420304E+04  1.748629E+04  8.915128E+04  1.193560E-10  5.793785E-10
       447  16  1.993556E+04  1.259843E+05  2.030603E+04  8.977325E+04  3.221502E-11  2.164978E-10
       447  17  4.219665E+03  5.442957E+04  1.152564E+04  8.162318E+04 -1.868451E-10 -1.474308E-10
       447  18 -8.291468E+03 -1.564916E+04  6.850660E+03  8.601764E+04 -8.909371E-11 -1.691676E-10
       447  19 -1.836313E+04 -3.757206E+04 -7.641103E+03  8.852781E+04  4.601278E+03 -5.005554E+03
       447  20 -8.125402E+02  3.252642E+04  8.270495E+03  8.413425E+04  7.895774E+02 -1.715087E+02
       447  21  1.990134E+04  1.040588E+05  2.812186E+04  9.228522E+04 -3.077138E+03  4.663082E+03
       447  22  7.864040E+02  4.420282E+04  6.332588E+03  8.915051E+04  4.600396E+03  3.167118E+03
       447  23  1.703581E+03  4.347801E+04  9.898191E+03  8.287873E+04  7.887132E+02  8.120516E+03
       447  24  5.805065E+03  4.420323E+04  1.748663E+04  8.915125E+04 -3.078008E+03  1.307395E+04
       447  25  1.993562E+04  1.259844E+05  2.030631E+04  8.977329E+04  4.599530E+03  1.134083E+04
       447  26  4.219738E+03  5.442986E+04  1.152614E+04  8.162319E+04  7.878156E+02  1.641268E+04
       447  27 -8.291334E+03 -1.564866E+04  6.851545E+03  8.601759E+04 -3.078962E+03  2.148403E+04
       448   1  3.201460E+04  1.510004E+05  4.143169E+04  8.963311E+04  5.568034E+03 -7.753818E+03
       448   2  6.688900E+04  2.149373E+05  7.650671E+04  1.095442E+05  6.684525E+03 -4.125637E+04
       448   3  1.396874E+05  2.927296E+05  1.428733E+05  1.416605E+05  2.309886E+03 -7.476454E+04
       448   4  7.458920E+03  4.650140E+04  2.313961E+04  8.907378E+04  5.568995E+03 -1.608744E+04
       448   5  2.519962E+04  4.059799E+04  4.232718E+04  8.297889E+04  6.685971E+03 -3.772694E+04
       448   6  7.880976E+04  4.649150E+04  8.457358E+04  8.908641E+04  2.313910E+03 -5.936803E+04
       448   7 -1.709732E+04 -5.798671E+04  4.847396E+03  8.851455E+04  5.569970E+03 -2.441971E+04
       448   8 -1.648894E+04 -1.337106E+05  8.146600E+03  5.642118E+04  6.687114E+03 -3.419848E+04
       448   9  1.793833E+04 -1.996845E+05  2.627206E+04  3.653326E+04  2.315328E+03 -4.397760E+04
       448  10  3.201455E+04  1.510003E+05  4.143151E+04  8.963314E+04 -1.590562E-11  1.349958E-11
       448  11  6.688850E+04  2.149355E+05  7.650343E+04  1.095444E+05 -2.041153E-10 -2.749352E-10
       448  12  1.396858E+05  2.927236E+05  1.428628E+05  1.416607E+05 -1.012045E-10  4.397865E-10
       448  13  7.458817E+03  4.650112E+04  2.313906E+04  8.907385E+04 -1.756693E-10  1.168280E-11
       448  14  2.519919E+04  4.059645E+04  4.232442E+04  8.297909E+04 -1.768395E-10 -5.696348E-11
       448  15  7.880881E+04  4.648772E+04  8.456694E+04  8.908652E+04  4.999517E-11  7.455626E-10
       448  16 -1.709751E+04 -5.798736E+04  4.846217E+03  8.851466E+04 -1.089992E-10 -5.980090E-11
       448  17 -1.648931E+04 -1.337119E+05  8.144317E+03  5.642137E+04 -4.189244E-11 -3.436831E-10
       448  18  1.793781E+04 -1.996865E+05  2.626841E+04  3.653335E+04 -7.486934E-11 -3.078108E-10
       448  19  3.201460E+04  1.510004E+05  4.143169E+04  8.963311E+04 -5.568034E+03  7.753818E+03
       448  20  6.688900E+04  2.149373E+05  7.650671E+04  1.095442E+05 -6.684525E+03  4.125637E+04
       448  21  1.396874E+05  2.927296E+05  1.428733E+05  1.416605E+05 -2.309886E+03  7.476454E+04
       448  22  7.458920E+03  4.650140E+04  2.313961E+04  8.907378E+04 -5.568995E+03  1.608744E+04
       448  23  2.519962E+04  4.059799E+04  4.232718E+04  8.297889E+04 -6.685971E+03  3.772694E+04
       448  24  7.880976E+04  4.649150E+04  8.457358E+04  8.908641E+04 -2.313910E+03  5.936803E+04
       448  25 -1.709732E+04 -5.798671E+04  4.847396E+03  8.851455E+04 -5.569970E+03  2.441971E+04
       448  26 -1.648894E+04 -1.337106E+05  8.146600E+03  5.642118E+04 -6.687114E+03  3.419848E+04
       448  27  1.793833E+04 -1.996845E+05  2.627206E+04  3.653326E+04 -2.315328E+03  4.397760E+04
       449   1  2.487974E+05  2.434076E+05  8.811577E+04  1.601262E+05  3.405483E+04  2.045554E+04
       449   2  2.305043E+05  2.140220E+05  5.966191E+04  1.542185E+05  2.514713E+04  1.558647E+03
       449   3  2.147485E+05  1.961839E+05  4.556334E+04  1.472269E+05  1.227101E+04 -1.204909E+04
       449   4  3.211795E+04  7.278763E+04  1.618587E+04  4.484394E+04  1.146083E+04  3.495510E+03
       449   5  2.962599E+04  6.388336E+04  8.171831E+03  4.866728E+04  1.398385E+04 -6.822132E+03
       449   6  2.719344E+04  6.404755E+04  4.592831E+03  5.140620E+04  1.253724E+04 -1.185007E+04
       449   7 -1.845151E+05 -9.780227E+04 -5.574920E+04 -7.039289E+04 -1.112302E+04 -1.345575E+04
       449   8 -1.712057E+05 -8.622729E+04 -4.332070E+04 -5.684327E+04  2.825390E+03 -1.519900E+04
       449   9 -1.603157E+05 -6.806364E+04 -3.637787E+04 -4.437855E+04  1.280336E+04 -1.165113E+04
       449  10  2.487960E+05  2.434068E+05  8.811281E+04  1.601257E+05  5.774901E-11  2.967624E-10
       449  11  2.305036E+05  2.140218E+05  5.966072E+04  1.542184E+05 -3.062340E-11 -2.692665E-10
       449  12  2.147483E+05  1.961837E+05  4.556278E+04  1.472270E+05  4.345815E-11  2.572642E-10
       449  13  3.211781E+04  7.278759E+04  1.618560E+04  4.484390E+04 -9.860292E-11  8.391767E-10
       449  14  2.962577E+04  6.388326E+04  8.171376E+03  4.866736E+04 -3.504682E-10  4.517633E-10
       449  15  2.719323E+04  6.404736E+04  4.592271E+03  5.140632E+04 -4.132327E-11  4.460281E-10
       449  16 -1.845153E+05 -9.780250E+04 -5.574977E+04 -7.039301E+04  1.899719E-11  9.953599E-11
       449  17 -1.712058E+05 -8.622754E+04 -4.332115E+04 -5.684323E+04  1.046261E-10 -4.868944E-10
       449  18 -1.603159E+05 -6.806383E+04 -3.637843E+04 -4.437843E+04 -1.971578E-10  3.118138E-10
       449  19  2.487974E+05  2.434076E+05  8.811577E+04  1.601262E+05 -3.405483E+04 -2.045554E+04
       449  20  2.305043E+05  2.140220E+05  5.966191E+04  1.542185E+05 -2.514713E+04 -1.558647E+03
       449  21  2.147485E+05  1.961839E+05  4.556334E+04  1.472269E+05 -1.227101E+04  1.204909E+04
       449  22  3.211795E+04  7.278763E+04  1.618587E+04  4.484394E+04 -1.146083E+04 -3.495510E+03
       449  23  2.962599E+04  6.388336E+04  8.171831E+03  4.866728E+04 -1.398385E+04  6.822132E+03
       449  24  2.719344E+04  6.404755E+04  4.592831E+03  5.140620E+04 -1.253724E+04  1.185007E+04
       449  25 -1.845151E+05 -9.780227E+04 -5.574920E+04 -7.039289E+04  1.112302E+04  1.345575E+04
       449  26 -1.712057E+05 -8.622729E+04 -4.332070E+04 -5.684327E+04 -2.825390E+03  1.519900E+04
       449  27 -1.603157E+05 -6.806364E+04 -3.637787E+04 -4.437855E+04 -1.280336E+04  1.165113E+04
       450   1  2.018525E+05  1.879410E+05  4.094111E+04  1.413920E+05  1.148728E+04 -1.220012E+04
       450   2  1.852288E+05  1.716536E+05  3.409790E+04  1.316635E+05  8.818768E+03 -1.344894E+04
       450   3  1.649870E+05  1.604684E+05  2.935344E+04  1.230554E+05  5.668505E+03 -1.405615E+04
       450   4  2.669890E+04  6.378859E+04  3.574214E+03  5.138134E+04  1.183677E+04 -1.193853E+04
       450   5  2.847151E+04  6.105395E+04  2.304115E+03  5.107385E+04  1.055509E+04 -1.214600E+04
       450   6  2.632451E+04  6.312073E+04  1.929077E+03  5.188641E+04  8.791466E+03 -1.171180E+04
       450   7 -1.484183E+05 -6.034419E+04 -3.379404E+04 -3.859951E+04  1.218613E+04 -1.167703E+04
       450   8 -1.282581E+05 -4.953125E+04 -2.949113E+04 -2.949285E+04  1.229085E+04 -1.084348E+04
       450   9 -1.123181E+05 -3.421690E+04 -2.549692E+04 -1.926549E+04  1.191357E+04 -9.368094E+03
       450  10  2.018523E+05  1.879408E+05  4.094058E+04  1.413921E+05  4.379377E-10  4.027288E-10
       450  11  1.852286E+05  1.716534E+05  3.409741E+04  1.316636E+05  4.027507E-10 -1.557925E-10
       450  12  1.649869E+05  1.604682E+05  2.935301E+04  1.230555E+05 -3.684558E-11 -7.792002E-10
       450  13  2.669871E+04  6.378840E+04  3.573683E+03  5.138145E+04  1.619008E-10  2.493475E-11
       450  14  2.847135E+04  6.105376E+04  2.303629E+03  5.107395E+04 -6.417155E-12 -6.185324E-10
       450  15  2.632439E+04  6.312057E+04  1.928674E+03  5.188650E+04  3.097065E-11 -4.988735E-10
       450  16 -1.484185E+05 -6.034438E+04 -3.379457E+04 -3.859939E+04 -4.849578E-10 -3.817527E-10
       450  17 -1.282583E+05 -4.953141E+04 -2.949164E+04 -2.949274E+04 -3.695921E-10 -4.866401E-11
       450  18 -1.123182E+05 -3.421703E+04 -2.549735E+04 -1.926540E+04  9.409926E-11  7.113125E-11
       450  19  2.018525E+05  1.879410E+05  4.094111E+04  1.413920E+05 -1.148728E+04  1.220012E+04
       450  20  1.852288E+05  1.716536E+05  3.409790E+04  1.316635E+05 -8.818768E+03  1.344894E+04
       450  21  1.649870E+05  1.604684E+05  2.935344E+04  1.230554E+05 -5.668505E+03  1.405615E+04
       450  22  2.669890E+04  6.378859E+04  3.574214E+03  5.138134E+04 -1.183677E+04  1.193853E+04
       450  23  2.847151E+04  6.105395E+04  2.304115E+03  5.107385E+04 -1.055509E+04  1.214600E+04
       450  24  2.632451E+04  6.312073E+04  1.929077E+03  5.188641E+04 -8.791466E+03  1.171180E+04
       450  25 -1.484183E+05 -6.034419E+04 -3.379404E+04 -3.859951E+04 -1.218613E+04  1.167703E+04
       450  26 -1.282581E+05 -4.953125E+04 -2.949113E+04 -2.949285E+04 -1.229085E+04  1.084348E+04
       450  27 -1.123181E+05 -3.421690E+04 -2.549692E+04 -1.926549E+04 -1.191357E+04  9.368094E+03
       451   1  1.532977E+05  1.524261E+05  2.693018E+04  1.171804E+05  4.734671E+03 -1.340240E+04
       451   2  1.369859E+05  1.371961E+05  2.374559E+04  1.070321E+05  2.440485E+03 -1.280024E+04
       451   3  1.165799E+05  1.266295E+05  2.159535E+04  9.813983E+04  9.089205E+01 -1.212439E+04
       451   4  2.629459E+04  6.311314E+04  1.980767E+03  5.189234E+04  7.867512E+03 -1.105047E+04
       451   5  2.840447E+04  6.087718E+04  2.567913E+03  5.120731E+04  5.732675E+03 -1.032845E+04
       451   6  2.638455E+04  6.326968E+04  4.050881E+03  5.177771E+04  3.542359E+03 -9.532769E+03
       451   7 -1.006859E+05 -2.618719E+04 -2.296796E+04 -1.337843E+04  1.099943E+04 -8.699238E+03
       451   8 -8.016127E+04 -1.543310E+04 -1.860953E+04 -4.605313E+03  9.024063E+03 -7.857269E+03
       451   9 -6.380078E+04 -8.477848E+01 -1.349369E+04  5.423578E+03  6.993159E+03 -6.941653E+03
       451  10  1.532976E+05  1.524259E+05  2.692980E+04  1.171804E+05  1.133090E-09  4.807791E-10
       451  11  1.369858E+05  1.371959E+05  2.374527E+04  1.070322E+05  2.758566E-10 -1.249308E-09
       451  12  1.165798E+05  1.266293E+05  2.159507E+04  9.813983E+04 -1.543382E-09 -7.648269E-10
       451  13  2.629449E+04  6.311299E+04  1.980422E+03  5.189241E+04  4.146955E-10  3.898540E-10
       451  14  2.840440E+04  6.087705E+04  2.567651E+03  5.120736E+04  6.695894E-10  2.667682E-09
       451  15  2.638452E+04  6.326958E+04  4.050687E+03  5.177773E+04 -1.493006E-11  4.697446E-10
       451  16 -1.006861E+05 -2.618730E+04 -2.296833E+04 -1.337835E+04 -3.771143E-10 -2.018889E-10
       451  17 -8.016137E+04 -1.543318E+04 -1.860980E+04 -4.605256E+03  1.704916E-10  1.311472E-09
       451  18 -6.380084E+04 -8.484336E+01 -1.349388E+04  5.423617E+03  1.708112E-09  4.894939E-10
       451  19  1.532977E+05  1.524261E+05  2.693018E+04  1.171804E+05 -4.734671E+03  1.340240E+04
       451  20  1.369859E+05  1.371961E+05  2.374559E+04  1.070321E+05 -2.440485E+03  1.280024E+04
       451  21  1.165799E+05  1.266295E+05  2.159535E+04  9.813983E+04 -9.089205E+01  1.212439E+04
       451  22  2.629459E+04  6.311314E+04  1.980767E+03  5.189234E+04 -7.867512E+03  1.105047E+04
       451  23  2.840447E+04  6.087718E+04  2.567913E+03  5.120731E+04 -5.732675E+03  1.032845E+04
       451  24  2.638455E+04  6.326968E+04  4.050881E+03  5.177771E+04 -3.542359E+03  9.532769E+03
       451  25 -1.006859E+05 -2.618719E+04 -2.296796E+04 -1.337843E+04 -1.099943E+04  8.699238E+03
       451  26 -8.016127E+04 -1.543310E+04 -1.860953E+04 -4.605313E+03 -9.024063E+03  7.857269E+03
       451  27 -6.380078E+04 -8.477848E+01 -1.349369E+04  5.423578E+03 -6.993159E+03  6.941653E+03
       452   1  1.049597E+05  1.189529E+05  2.042274E+04  9.238845E+04 -1.243840E+03 -1.166627E+04
       452   2  9.034558E+04  1.027676E+05  2.065678E+04  8.094329E+04 -6.001355E+03 -1.275996E+04
       452   3  7.319851E+04  9.323650E+04  2.450281E+04  7.002915E+04 -1.074022E+04 -1.387858E+04
       452   4  2.656694E+04  6.341095E+04  5.224898E+03  5.185149E+04  2.208136E+03 -9.074141E+03
       452   5  2.877058E+04  6.175051E+04  9.049980E+03  5.033019E+04 -2.602949E+03 -1.020796E+04
       452   6  2.845317E+04  6.675592E+04  1.653387E+04  4.933969E+04 -7.395405E+03 -1.136678E+04
       452   7 -5.182017E+04  7.871740E+03 -9.973652E+03  1.131969E+04  5.659612E+03 -6.482397E+03
       452   8 -3.279978E+04  2.073560E+04 -2.556834E+03  1.972060E+04  7.950100E+02 -7.656268E+03
       452   9 -1.628866E+04  4.027688E+04  8.565304E+03  2.865233E+04 -4.050988E+03 -8.855224E+03
       452  10  1.049597E+05  1.189528E+05  2.042248E+04  9.238844E+04 -9.795353E-10 -2.642867E-10
       452  11  9.034549E+04  1.027674E+05  2.065640E+04  8.094323E+04 -1.448485E-10  4.548494E-10
       452  12  7.319834E+04  9.323626E+04  2.450223E+04  7.002903E+04  1.477970E-09  6.564594E-10
       452  13  2.656691E+04  6.341086E+04  5.224734E+03  5.185150E+04  1.579894E-10  3.605069E-10
       452  14  2.877055E+04  6.175040E+04  9.049771E+03  5.033017E+04 -2.780196E-10  2.849221E-10
       452  15  2.845308E+04  6.675577E+04  1.653353E+04  4.933962E+04  1.467325E-10 -5.647102E-10
       452  16 -5.182021E+04  7.871687E+03 -9.973791E+03  1.131972E+04  6.481658E-10  1.442436E-09
       452  17 -3.279979E+04  2.073554E+04 -2.556945E+03  1.972061E+04 -2.982830E-10 -7.174412E-10
       452  18 -1.628870E+04  4.027679E+04  8.565126E+03  2.865230E+04 -1.230468E-09 -1.498868E-09
       452  19  1.049597E+05  1.189529E+05  2.042274E+04  9.238845E+04  1.243840E+03  1.166627E+04
       452  20  9.034558E+04  1.027676E+05  2.065678E+04  8.094329E+04  6.001355E+03  1.275996E+04
       452  21  7.319851E+04  9.323650E+04  2.450281E+04  7.002915E+04  1.074022E+04  1.387858E+04
       452  22  2.656694E+04  6.341095E+04  5.224898E+03  5.185149E+04 -2.208136E+03  9.074141E+03
       452  23  2.877058E+04  6.175051E+04  9.049980E+03  5.033019E+04  2.602949E+03  1.020796E+04
       452  24  2.845317E+04  6.675592E+04  1.653387E+04  4.933969E+04  7.395405E+03  1.136678E+04
       452  25 -5.182017E+04  7.871740E+03 -9.973652E+03  1.131969E+04 -5.659612E+03  6.482397E+03
       452  26 -3.279978E+04  2.073560E+04 -2.556834E+03  1.972060E+04 -7.950100E+02  7.656268E+03
       452  27 -1.628866E+04  4.027688E+04  8.565304E+03  2.865233E+04  4.050988E+03  8.855224E+03
       453   1  6.131463E+04  8.929697E+04  2.760146E+04  6.510402E+04 -1.370444E+04 -1.467987E+04
       453   2  7.158706E+04  5.908842E+04  4.221235E+04  3.721118E+04 -3.072306E+04 -2.526063E+04
       453   3  9.700008E+04  5.917100E+04  7.838627E+04 -5.071568E+02 -4.753125E+04 -3.612062E+04
       453   4  3.045524E+04  6.857345E+04  2.202239E+04  4.963832E+04 -1.036437E+04 -1.217151E+04
       453   5  3.516698E+04  7.525732E+04  4.052524E+04  3.810832E+04 -2.798839E+04 -2.320892E+04
       453   6  5.514896E+04  1.123613E+05  8.111698E+04  1.675209E+04 -4.540179E+04 -3.452741E+04
       453   7 -4.029815E+02  4.785050E+04  1.644336E+04  3.417350E+04 -7.024513E+03 -9.663303E+03
       453   8 -1.250892E+03  9.142790E+04  3.883848E+04  3.900491E+04 -2.525393E+04 -2.115701E+04
       453   9  1.330318E+04  1.655617E+05  8.384913E+04  3.401001E+04 -4.327251E+04 -3.293380E+04
       453  10  6.131437E+04  8.929668E+04  2.760070E+04  6.510386E+04 -9.234867E-10 -1.049631E-09
       453  11  7.158588E+04  5.908749E+04  4.220938E+04  3.721056E+04 -2.191106E-10 -8.349924E-10
       453  12  9.699730E+04  5.916899E+04  7.837958E+04 -5.085393E+02 -8.216650E-11 -3.419112E-10
       453  13  3.045509E+04  6.857326E+04  2.202191E+04  4.963821E+04  7.848905E-10 -2.636472E-10
       453  14  3.516599E+04  7.525654E+04  4.052276E+04  3.810779E+04  8.045055E-11 -2.773274E-10
       453  15  5.514643E+04  1.123595E+05  8.111087E+04  1.675083E+04 -9.897272E-11  5.831325E-11
       453  16 -4.030596E+02  4.785039E+04  1.644309E+04  3.417345E+04  1.759504E-09  7.231392E-10
       453  17 -1.251696E+03  9.142724E+04  3.883645E+04  3.900448E+04  1.464069E-11  1.595950E-10
       453  18  1.330088E+04  1.655600E+05  8.384357E+04  3.400886E+04  2.483872E-10  1.139190E-11
       453  19  6.131463E+04  8.929697E+04  2.760146E+04  6.510402E+04  1.370444E+04  1.467987E+04
       453  20  7.158706E+04  5.908842E+04  4.221235E+04  3.721118E+04  3.072306E+04  2.526063E+04
       453  21  9.700008E+04  5.917100E+04  7.838627E+04 -5.071568E+02  4.753125E+04  3.612062E+04
       453  22  3.045524E+04  6.857345E+04  2.202239E+04  4.963832E+04  1.036437E+04  1.217151E+04
       453  23  3.516698E+04  7.525732E+04  4.052524E+04  3.810832E+04  2.798839E+04  2.320892E+04
       453  24  5.514896E+04  1.123613E+05  8.111698E+04  1.675209E+04  4.540179E+04  3.452741E+04
       453  25 -4.029815E+02  4.785050E+04  1.644336E+04  3.417350E+04  7.024513E+03  9.663303E+03
       453  26 -1.250892E+03  9.142790E+04  3.883848E+04  3.900491E+04  2.525393E+04  2.115701E+04
       453  27  1.330318E+04  1.655617E+05  8.384913E+04  3.401001E+04  4.327251E+04  3.293380E+04
       454   1  2.926409E+05  7.365947E+04  6.753038E+04  5.909007E+04  1.728290E+04 -4.305753E+03
       454   2  2.367279E+05  6.778384E+04  4.831558E+04  5.981474E+04  4.687365E+03 -1.403971E+04
       454   3  1.813351E+05  5.745398E+04  3.618706E+04  6.982699E+04 -7.911815E+03 -1.585107E+04
       454   4 -7.212792E+04 -1.628670E+04 -1.757391E+04  6.981861E+04 -1.228481E+04 -4.327593E+03
       454   5 -7.089503E+04 -5.153815E+03 -8.831970E+03  6.516883E+04 -7.761476E+03 -1.405001E+04
       454   6 -7.211619E+04 -1.447921E+03 -4.890191E+03  6.980711E+04 -3.242672E+03 -1.584779E+04
       454   7 -4.367720E+05 -1.062414E+05 -1.026839E+05  8.054077E+04 -4.183528E+04 -4.350462E+03
       454   8 -3.784259E+05 -7.809671E+04 -6.598292E+04  7.052018E+04 -2.020431E+04 -1.406052E+04
       454   9 -3.255037E+05 -6.035308E+04 -4.596914E+04  6.978722E+04  1.424633E+03 -1.584452E+04
       454  10  2.926406E+05  7.365937E+04  6.752979E+04  5.909013E+04  2.626219E-09 -9.648465E-10
       454  11  2.367278E+05  6.778363E+04  4.831517E+04  5.981479E+04  2.504013E-11 -9.176561E-10
       454  12  1.813349E+05  5.745370E+04  3.618647E+04  6.982689E+04 -2.243166E-09 -9.619177E-10
       454  13 -7.212809E+04 -1.628676E+04 -1.757423E+04  6.981857E+04 -1.855785E-10  9.981283E-10
       454  14 -7.089515E+04 -5.154043E+03 -8.832454E+03  6.516874E+04  2.911117E-10 -7.028567E-10
       454  15 -7.211627E+04 -1.448194E+03 -4.890683E+03  6.980707E+04  5.431671E-11 -9.686229E-10
       454  16 -4.367739E+05 -1.062419E+05 -1.026872E+05  8.054062E+04 -3.057974E-09  1.461063E-10
       454  17 -3.784264E+05 -7.809704E+04 -6.598406E+04  7.051995E+04 -8.589096E-11 -1.533388E-09
       454  18 -3.255038E+05 -6.035335E+04 -4.596961E+04  6.978724E+04  2.642788E-09 -1.254431E-09
       454  19  2.926409E+05  7.365947E+04  6.753038E+04  5.909007E+04 -1.728290E+04  4.305753E+03
       454  20  2.367279E+05  6.778384E+04  4.831558E+04  5.981474E+04 -4.687365E+03  1.403971E+04
       454  21  1.813351E+05  5.745398E+04  3.618706E+04  6.982699E+04  7.911815E+03  1.585107E+04
       454  22 -7.212792E+04 -1.628670E+04 -1.757391E+04  6.981861E+04  1.228481E+04  4.327593E+03
       454  23 -7.089503E+04 -5.153815E+03 -8.831970E+03  6.516883E+04  7.761476E+03  1.405001E+04
       454  24 -7.211619E+04 -1.447921E+03 -4.890191E+03  6.980711E+04  3.242672E+03  1.584779E+04
       454  25 -4.367720E+05 -1.062414E+05 -1.026839E+05  8.054077E+04  4.183528E+04  4.350462E+03
       454  26 -3.784259E+05 -7.809671E+04 -6.598292E+04  7.052018E+04  2.020431E+04  1.406052E+04
       454  27 -3.255037E+05 -6.035308E+04 -4.596914E+04  6.978722E+04 -1.424633E+03  1.584452E+04
       455   1  1.465661E+05  4.943623E+04  3.072937E+04  6.939957E+04 -7.392045E+03 -1.427922E+04
       455   2  9.096282E+04  3.711327E+04  2.202610E+04  6.480666E+04 -8.208606E+03 -1.161146E+04
       455   3  3.537863E+04  2.449476E+04  1.377605E+04  7.006796E+04 -9.026063E+03 -8.042552E+03
       455   4 -7.163937E+04 -1.096867E+03 -3.747944E+03  6.993372E+04 -2.599936E+03 -1.427562E+04
       455   5 -7.147531E+04 -2.313216E+02 -2.264273E+03  6.500604E+04 -1.470232E+03 -1.160590E+04
       455   6 -7.163322E+04  8.122658E-01 -1.679139E+03  6.993277E+04 -3.414918E+02 -8.034898E+03
       455   7 -2.897974E+05 -5.163232E+04 -3.822636E+04  7.046766E+04  2.190551E+03 -1.427202E+04
       455   8 -2.338869E+05 -3.757713E+04 -2.655498E+04  6.520536E+04  5.266450E+03 -1.160034E+04
       455   9 -1.786334E+05 -2.449362E+04 -1.713423E+04  6.979761E+04  8.341646E+03 -8.027247E+03
       455  10  1.465660E+05  4.943600E+04  3.072888E+04  6.939948E+04 -8.821942E-10  5.691166E-10
       455  11  9.096271E+04  3.711311E+04  2.202572E+04  6.480658E+04 -1.124532E-09  3.831555E-10
       455  12  3.537853E+04  2.449467E+04  1.377578E+04  7.006790E+04 -8.823675E-10  8.219266E-10
       455  13 -7.163943E+04 -1.097087E+03 -3.748339E+03  6.993369E+04  2.682952E-10  1.274107E-10
       455  14 -7.147535E+04 -2.314668E+02 -2.264530E+03  6.500602E+04  1.693529E-10  2.944136E-11
       455  15 -7.163324E+04  7.429115E-01 -1.679260E+03  6.993277E+04 -1.371474E-10  6.599655E-10
       455  16 -2.897975E+05 -5.163254E+04 -3.822675E+04  7.046768E+04  7.546850E-10  4.689186E-10
       455  17 -2.338869E+05 -3.757729E+04 -2.655529E+04  6.520540E+04  1.420554E-09 -2.421445E-09
       455  18 -1.786334E+05 -2.449370E+04 -1.713448E+04  6.979767E+04  1.049049E-09 -1.819564E-10
       455  19  1.465661E+05  4.943623E+04  3.072937E+04  6.939957E+04  7.392045E+03  1.427922E+04
       455  20  9.096282E+04  3.711327E+04  2.202610E+04  6.480666E+04  8.208606E+03  1.161146E+04
       455  21  3.537863E+04  2.449476E+04  1.377605E+04  7.006796E+04  9.026063E+03  8.042552E+03
       455  22 -7.163937E+04 -1.096867E+03 -3.747944E+03  6.993372E+04  2.599936E+03  1.427562E+04
       455  23 -7.147531E+04 -2.313216E+02 -2.264273E+03  6.500604E+04  1.470232E+03  1.160590E+04
       455  24 -7.163322E+04  8.122658E-01 -1.679139E+03  6.993277E+04  3.414918E+02  8.034898E+03
       455  25 -2.897974E+05 -5.163232E+04 -3.822636E+04  7.046766E+04 -2.190551E+03  1.427202E+04
       455  26 -2.338869E+05 -3.757713E+04 -2.655498E+04  6.520536E+04 -5.266450E+03  1.160034E+04
       455  27 -1.786334E+05 -2.449362E+04 -1.713423E+04  6.979761E+04 -8.341646E+03  8.027247E+03
       456   1  5.723557E+02  1.646994E+04  8.514264E+03  6.994818E+04 -8.755683E+03 -5.646685E+03
       456   2 -5.481364E+04  3.529960E+03 -2.309931E+02  6.523657E+04 -6.982866E+03 -1.818139E+03
       456   3 -1.106016E+05 -1.003334E+04 -1.029191E+04  7.041221E+04 -5.209979E+03  1.616561E+03
       456   4 -7.161787E+04  7.633607E+00 -1.604621E+03  6.994009E+04 -6.419328E+01 -5.638889E+03
       456   5 -7.148849E+04 -1.299963E+02 -1.852303E+03  6.499678E+04  8.574913E+02 -1.811061E+03
       456   6 -7.161727E+04 -7.433001E+02 -2.824983E+03  6.994074E+04  1.779406E+03  1.622913E+03
       456   7 -1.438027E+05 -1.645487E+04 -1.172329E+04  6.993201E+04  8.626330E+03 -5.631094E+03
       456   8 -8.816291E+04 -3.789928E+03 -3.473377E+03  6.475700E+04  8.697650E+03 -1.803990E+03
       456   9 -3.263136E+04  8.546676E+03  4.642059E+03  6.946924E+04  8.769219E+03  1.629255E+03
       456  10  5.722648E+02  1.646989E+04  8.514060E+03  6.994814E+04 -2.344410E-09  1.912095E-09
       456  11 -5.481369E+04  3.529943E+03 -2.310910E+02  6.523656E+04  4.070537E-10  7.543808E-10
       456  12 -1.106016E+05 -1.003335E+04 -1.029197E+04  7.041221E+04  3.187898E-09  1.754790E-09
       456  13 -7.161788E+04  7.599462E+00 -1.604681E+03  6.994009E+04 -6.896898E-11  1.117166E-09
       456  14 -7.148849E+04 -1.300000E+02 -1.852311E+03  6.499678E+04  1.460759E-10  9.274153E-10
       456  15 -7.161727E+04 -7.433038E+02 -2.824994E+03  6.994074E+04 -2.399214E-10  4.091437E-10
       456  16 -1.438027E+05 -1.645492E+04 -1.172349E+04  6.993205E+04  2.019884E-09  7.816014E-10
       456  17 -8.816299E+04 -3.789952E+03 -3.473525E+03  6.475701E+04 -6.134539E-11  4.130720E-10
       456  18 -3.263144E+04  8.546652E+03  4.641910E+03  6.946923E+04 -3.217220E-09 -1.960794E-09
       456  19  5.723557E+02  1.646994E+04  8.514264E+03  6.994818E+04  8.755683E+03  5.646685E+03
       456  20 -5.481364E+04  3.529960E+03 -2.309931E+02  6.523657E+04  6.982866E+03  1.818139E+03
       456  21 -1.106016E+05 -1.003334E+04 -1.029191E+04  7.041221E+04  5.209979E+03 -1.616561E+03
       456  22 -7.161787E+04  7.633607E+00 -1.604621E+03  6.994009E+04  6.419328E+01  5.638889E+03
       456  23 -7.148849E+04 -1.299963E+02 -1.852303E+03  6.499678E+04 -8.574913E+02  1.811061E+03
       456  24 -7.161727E+04 -7.433001E+02 -2.824983E+03  6.994074E+04 -1.779406E+03 -1.622913E+03
       456  25 -1.438027E+05 -1.645487E+04 -1.172329E+04  6.993201E+04 -8.626330E+03  5.631094E+03
       456  26 -8.816291E+04 -3.789928E+03 -3.473377E+03  6.475700E+04 -8.697650E+03  1.803990E+03
       456  27 -3.263136E+04  8.546676E+03  4.642059E+03  6.946924E+04 -8.769219E+03 -1.629255E+03
       457   1 -1.459430E+05 -1.846539E+04 -1.697284E+04  6.993212E+04 -4.664127E+03  3.652737E+03
       457   2 -1.998808E+05 -3.452930E+04 -3.191594E+04  6.899844E+04  7.667575E+03  4.773950E+03
       457   3 -2.571727E+05 -5.752524E+04 -5.662639E+04  7.765786E+04  2.000135E+04  1.702169E+03
       457   4 -7.195690E+04 -9.952082E+02 -3.616591E+03  6.987475E+04  2.260993E+03  3.658965E+03
       457   5 -7.106780E+04 -3.670237E+03 -6.412887E+03  6.508266E+04  5.538346E+03  4.771941E+03
       457   6 -7.196203E+04 -1.170391E+04 -1.268698E+04  6.988382E+04  8.818792E+03  1.692173E+03
       457   7  2.034667E+03  1.647469E+04  9.739627E+03  6.981737E+04  9.186914E+03  3.665191E+03
       457   8  5.776108E+04  2.718788E+04  1.908937E+04  6.116604E+04  3.408684E+03  4.769960E+03
       457   9  1.132806E+05  3.411525E+04  3.125055E+04  6.210744E+04 -2.367085E+03  1.682458E+03
       457  10 -1.459431E+05 -1.846541E+04 -1.697291E+04  6.993214E+04 -1.327811E-09  1.695882E-09
       457  11 -1.998808E+05 -3.452934E+04 -3.191609E+04  6.899841E+04 -3.328228E-10 -9.090990E-10
       457  12 -2.571732E+05 -5.752535E+04 -5.662715E+04  7.765783E+04  4.677274E-10 -5.322551E-10
       457  13 -7.195691E+04 -9.952239E+02 -3.616625E+03  6.987474E+04 -4.971601E-11  1.777049E-09
       457  14 -7.106784E+04 -3.670270E+03 -6.412988E+03  6.508264E+04  2.145215E-11 -1.913451E-09
       457  15 -7.196211E+04 -1.170394E+04 -1.268713E+04  6.988381E+04 -3.277098E-10  6.868096E-10
       457  16  2.034573E+03  1.647465E+04  9.739443E+03  6.981734E+04  9.633502E-10  7.305611E-11
       457  17  5.776106E+04  2.718785E+04  1.908931E+04  6.116603E+04  5.310685E-10  5.214777E-10
       457  18  1.132806E+05  3.411525E+04  3.125054E+04  6.210744E+04 -2.899130E-10 -1.263671E-10
       457  19 -1.459430E+05 -1.846539E+04 -1.697284E+04  6.993212E+04  4.664127E+03 -3.652737E+03
       457  20 -1.998808E+05 -3.452930E+04 -3.191594E+04  6.899844E+04 -7.667575E+03 -4.773950E+03
       457  21 -2.571727E+05 -5.752524E+04 -5.662639E+04  7.765786E+04 -2.000135E+04 -1.702169E+03
       457  22 -7.195690E+04 -9.952082E+02 -3.616591E+03  6.987475E+04 -2.260993E+03 -3.658965E+03
       457  23 -7.106780E+04 -3.670237E+03 -6.412887E+03  6.508266E+04 -5.538346E+03 -4.771941E+03
       457  24 -7.196203E+04 -1.170391E+04 -1.268698E+04  6.988382E+04 -8.818792E+03 -1.692173E+03
       457  25  2.034667E+03  1.647469E+04  9.739627E+03  6.981737E+04 -9.186914E+03 -3.665191E+03
       457  26  5.776108E+04  2.718788E+04  1.908937E+04  6.116604E+04 -3.408684E+03 -4.769960E+03
       457  27  1.132806E+05  3.411525E+04  3.125055E+04  6.210744E+04  2.367085E+03 -1.682458E+03
       458   1 -1.162611E+05 -4.750166E+05 -1.126739E+05  1.453005E+05 -3.934415E+03 -3.978629E+04
       458   2 -7.578626E+04 -3.653028E+05 -6.504958E+04  1.307514E+05 -1.172905E+04 -1.644458E+04
       458   3 -4.597833E+04 -2.612531E+05 -3.529411E+04  1.345451E+05 -1.056046E+04  6.907642E+03
       458   4 -1.645146E+04 -7.151373E+04 -1.731701E+04  1.344294E+05 -3.943659E+03 -1.330659E+04
       458   5 -5.323135E+03 -7.034641E+04 -7.791844E+03  1.252608E+05 -1.173092E+04 -9.310895E+03
       458   6 -1.498262E+03 -7.149234E+04 -2.692311E+03  1.344354E+05 -1.055653E+04 -5.309250E+03
       458   7  8.334734E+04  3.321407E+05  7.803126E+04  1.235511E+05 -3.953830E+03  1.319024E+04
       458   8  6.513493E+04  2.246937E+05  4.946199E+04  1.197675E+05 -1.173292E+04 -2.173893E+03
       458   9  4.297996E+04  1.183042E+05  2.990884E+04  1.343257E+05 -1.055260E+04 -1.752976E+04
       458  10 -1.162616E+05 -4.750183E+05 -1.126769E+05  1.453004E+05  3.371543E-10 -6.263180E-08
       458  11 -7.578648E+04 -3.653031E+05 -6.505034E+04  1.307513E+05  7.498061E-10  1.479555E-09
       458  12 -4.597847E+04 -2.612532E+05 -3.529441E+04  1.345452E+05  3.419240E-10  6.753356E-08
       458  13 -1.645153E+04 -7.151392E+04 -1.731737E+04  1.344293E+05  6.903016E-10  1.427380E-10
       458  14 -5.323306E+03 -7.034654E+04 -7.792266E+03  1.252607E+05  2.379806E-10  3.033761E-11
       458  15 -1.498389E+03 -7.149240E+04 -2.692573E+03  1.344354E+05  4.908067E-10  3.479299E-10
       458  16  8.334728E+04  3.321405E+05  7.803091E+04  1.235512E+05  1.545006E-10  6.318494E-08
       458  17  6.513478E+04  2.246937E+05  4.946173E+04  1.197675E+05  4.865067E-10 -2.225328E-09
       458  18  4.297976E+04  1.183038E+05  2.990805E+04  1.343256E+05  1.944100E-10 -6.710640E-08
       458  19 -1.162611E+05 -4.750166E+05 -1.126739E+05  1.453005E+05  3.934415E+03  3.978629E+04
       458  20 -7.578626E+04 -3.653028E+05 -6.504958E+04  1.307514E+05  1.172905E+04  1.644458E+04
       458  21 -4.597833E+04 -2.612531E+05 -3.529411E+04  1.345451E+05  1.056046E+04 -6.907642E+03
       458  22 -1.645146E+04 -7.151373E+04 -1.731701E+04  1.344294E+05  3.943659E+03  1.330659E+04
       458  23 -5.323135E+03 -7.034641E+04 -7.791844E+03  1.252608E+05  1.173092E+04  9.310895E+03
       458  24 -1.498262E+03 -7.149234E+04 -2.692311E+03  1.344354E+05  1.055653E+04  5.309250E+03
       458  25  8.334734E+04  3.321407E+05  7.803126E+04  1.235511E+05  3.953830E+03 -1.319024E+04
       458  26  6.513493E+04  2.246937E+05  4.946199E+04  1.197675E+05  1.173292E+04  2.173893E+03
       458  27  4.297996E+04  1.183042E+05  2.990884E+04  1.343257E+05  1.055260E+04  1.752976E+04
       459   1 -2.976849E+04 -1.932373E+05 -2.167678E+04  1.350244E+05 -6.874932E+03  7.236674E+03
       459   2 -3.101648E+03 -8.662020E+04  9.079165E+02  1.261421E+05 -1.120061E+03  5.799999E+03
       459   3  2.455348E+04  2.046892E+04  2.468113E+04  1.361893E+05  4.712831E+03  4.363076E+03
       459   4 -1.103384E+03 -7.086541E+04 -7.439776E+02  1.345649E+05 -6.871300E+03 -5.106669E+03
       459   5  4.625601E+02 -7.111002E+04  3.213348E+03  1.251009E+05 -1.116437E+03 -6.712612E+03
       459   6  3.046825E+03 -7.086402E+04  8.477021E+03  1.345664E+05  4.716436E+03 -8.318575E+03
       459   7  2.756101E+04  5.152157E+04  2.018890E+04  1.341053E+05 -6.867650E+03 -1.745237E+04
       459   8  4.026845E+03 -5.559927E+04  5.519364E+03  1.240598E+05 -1.112771E+03 -1.922552E+04
       459   9 -1.846019E+04 -1.621885E+05 -7.726794E+03  1.329437E+05  4.720106E+03 -2.099841E+04
       459  10 -2.976855E+04 -1.932374E+05 -2.167697E+04  1.350244E+05 -3.275551E-10  1.230332E-09
       459  11 -3.101659E+03 -8.662024E+04  9.078509E+02  1.261421E+05 -1.110268E-09  1.407454E-09
       459  12  2.455345E+04  2.046890E+04  2.468105E+04  1.361893E+05 -1.230671E-09  3.242677E-09
       459  13 -1.103441E+03 -7.086545E+04 -7.441153E+02  1.345649E+05 -2.458905E-10 -3.304974E-12
       459  14  4.625467E+02 -7.111007E+04  3.213261E+03  1.251009E+05 -2.042763E-09 -3.544711E-11
       459  15  3.046783E+03 -7.086410E+04  8.476849E+03  1.345664E+05 -7.528288E-10  6.434796E-10
       459  16  2.756087E+04  5.152123E+04  2.018824E+04  1.341052E+05 -4.809585E-10 -8.250991E-10
       459  17  4.026745E+03 -5.559966E+04  5.518667E+03  1.240597E+05 -1.543812E-09 -1.918799E-09
       459  18 -1.846033E+04 -1.621889E+05 -7.727664E+03  1.329438E+05 -1.161771E-09 -2.927556E-09
       459  19 -2.976849E+04 -1.932373E+05 -2.167678E+04  1.350244E+05  6.874932E+03 -7.236674E+03
       459  20 -3.101648E+03 -8.662020E+04  9.079165E+02  1.261421E+05  1.120061E+03 -5.799999E+03
       459  21  2.455348E+04  2.046892E+04  2.468113E+04  1.361893E+05 -4.712831E+03 -4.363076E+03
       459  22 -1.103384E+03 -7.086541E+04 -7.439776E+02  1.345649E+05  6.871300E+03  5.106669E+03
       459  23  4.625601E+02 -7.111002E+04  3.213348E+03  1.251009E+05  1.116437E+03  6.712612E+03
       459  24  3.046825E+03 -7.086402E+04  8.477021E+03  1.345664E+05 -4.716436E+03  8.318575E+03
       459  25  2.756101E+04  5.152157E+04  2.018890E+04  1.341053E+05  6.867650E+03  1.745237E+04
       459  26  4.026845E+03 -5.559927E+04  5.519364E+03  1.240598E+05  1.112771E+03  1.922552E+04
       459  27 -1.846019E+04 -1.621885E+05 -7.726794E+03  1.329437E+05 -4.720106E+03  2.099841E+04
       460   1  4.127590E+04  8.917998E+04  3.972432E+04  1.346940E+05  8.469682E+03  2.754872E+03
       460   2  7.706231E+04  1.912754E+05  7.488244E+04  1.399225E+05  1.014345E+04 -2.701795E+04
       460   3  1.358507E+05  3.030366E+05  1.351776E+05  1.635604E+05  3.511245E+03 -5.680116E+04
       460   4  3.983799E+03 -6.952148E+04  1.196169E+04  1.344487E+05  8.473528E+03 -9.811119E+03
       460   5  1.391204E+04 -7.280308E+04  2.312445E+04  1.252528E+05  1.014264E+04 -2.163716E+04
       460   6  4.373302E+04 -6.953874E+04  4.696651E+04  1.344646E+05  3.505518E+03 -3.346837E+04
       460   7 -3.330959E+04 -2.281979E+05 -1.580125E+04  1.342034E+05  8.477385E+03 -2.237399E+04
       460   8 -4.924160E+04 -3.368142E+05 -2.863667E+04  1.105896E+05  1.014157E+04 -1.625862E+04
       460   9 -4.839110E+04 -4.419835E+05 -4.125171E+04  1.053864E+05  3.497605E+03 -1.014950E+04
       460  10  4.127582E+04  8.917995E+04  3.972417E+04  1.346940E+05 -7.554453E-10  1.713332E-09
       460  11  7.706201E+04  1.912746E+05  7.488088E+04  1.399227E+05 -7.515755E-10  4.283831E-10
       460  12  1.358498E+05  3.030331E+05  1.351715E+05  1.635605E+05 -2.392757E-10  1.550910E-09
       460  13  3.983696E+03 -6.952160E+04  1.196137E+04  1.344488E+05 -1.212331E-09  2.541734E-10
       460  14  1.391181E+04 -7.280361E+04  2.312338E+04  1.252530E+05 -9.546744E-10  5.232489E-11
       460  15  4.373271E+04 -6.953994E+04  4.696438E+04  1.344647E+05 -3.312390E-10  5.213497E-10
       460  16 -3.330980E+04 -2.281985E+05 -1.580232E+04  1.342036E+05 -8.599308E-10 -8.021841E-10
       460  17 -4.924178E+04 -3.368145E+05 -2.863736E+04  1.105897E+05 -4.236722E-10 -1.153955E-09
       460  18 -4.839114E+04 -4.419836E+05 -4.125192E+04  1.053864E+05 -2.539370E-10 -1.172979E-09
       460  19  4.127590E+04  8.917998E+04  3.972432E+04  1.346940E+05 -8.469682E+03 -2.754872E+03
       460  20  7.706231E+04  1.912754E+05  7.488244E+04  1.399225E+05 -1.014345E+04  2.701795E+04
       460  21  1.358507E+05  3.030366E+05  1.351776E+05  1.635604E+05 -3.511245E+03  5.680116E+04
       460  22  3.983799E+03 -6.952148E+04  1.196169E+04  1.344487E+05 -8.473528E+03  9.811119E+03
       460  23  1.391204E+04 -7.280308E+04  2.312445E+04  1.252528E+05 -1.014264E+04  2.163716E+04
       460  24  4.373302E+04 -6.953874E+04  4.696651E+04  1.344646E+05 -3.505518E+03  3.346837E+04
       460  25 -3.330959E+04 -2.281979E+05 -1.580125E+04  1.342034E+05 -8.477385E+03  2.237399E+04
       460  26 -4.924160E+04 -3.368142E+05 -2.863667E+04  1.105896E+05 -1.014157E+04  1.625862E+04
       460  27 -4.839110E+04 -4.419835E+05 -4.125171E+04  1.053864E+05 -3.497605E+03  1.014950E+04
       461   1  2.091050E+05  2.070377E+05  7.323950E+04  1.402159E+05  3.333617E+04  2.240895E+04
       461   2  2.008876E+05  1.720037E+05  4.472981E+04  1.427418E+05  2.304834E+04  8.372244E+03
       461   3  2.009269E+05  1.517983E+05  3.124332E+04  1.408161E+05  1.073477E+04 -2.965316E+03
       461   4  1.152546E+05  1.029417E+05  3.649691E+04  7.639176E+04  2.170178E+04  1.366946E+04
       461   5  1.062036E+05  8.631071E+04  1.831175E+04  8.601709E+04  1.724557E+04  4.013401E+03
       461   6  1.041449E+05  8.324346E+04  1.008796E+04  9.119039E+04  1.076315E+04 -2.944232E+03
       461   7  2.141684E+04 -1.137036E+03 -2.453806E+02  1.258249E+04  1.006997E+04  4.933240E+03
       461   8  1.153131E+04  6.286773E+02 -8.106431E+03  2.930427E+04  1.144403E+04 -3.441784E+02
       461   9  7.373984E+03  1.469459E+04 -1.106781E+04  4.157374E+04  1.079153E+04 -2.923152E+03
       461  10  2.091036E+05  2.070369E+05  7.323647E+04  1.402153E+05  4.645190E-10  5.110437E-11
       461  11  2.008870E+05  1.720034E+05  4.472869E+04  1.427417E+05  2.001927E-10  1.382706E-09
       461  12  2.009268E+05  1.517983E+05  3.124308E+04  1.408162E+05 -1.703271E-10 -8.601009E-10
       461  13  1.152541E+05  1.029414E+05  3.649567E+04  7.639152E+04 -2.562431E-11 -1.991763E-10
       461  14  1.062033E+05  8.631061E+04  1.831117E+04  8.601703E+04 -2.231187E-10  3.969829E-10
       461  15  1.041447E+05  8.324341E+04  1.008773E+04  9.119042E+04  2.733724E-11  2.290609E-10
       461  16  2.141672E+04 -1.137090E+03 -2.456169E+02  1.258245E+04 -4.886731E-10 -2.922988E-10
       461  17  1.153117E+04  6.286420E+02 -8.106677E+03  2.930427E+04 -1.259608E-10  1.744709E-09
       461  18  7.373857E+03  1.469455E+04 -1.106804E+04  4.157377E+04 -1.127730E-10  3.415099E-10
       461  19  2.091050E+05  2.070377E+05  7.323950E+04  1.402159E+05 -3.333617E+04 -2.240895E+04
       461  20  2.008876E+05  1.720037E+05  4.472981E+04  1.427418E+05 -2.304834E+04 -8.372244E+03
       461  21  2.009269E+05  1.517983E+05  3.124332E+04  1.408161E+05 -1.073477E+04  2.965316E+03
       461  22  1.152546E+05  1.029417E+05  3.649691E+04  7.639176E+04 -2.170178E+04 -1.366946E+04
       461  23  1.062036E+05  8.631071E+04  1.831175E+04  8.601709E+04 -1.724557E+04 -4.013401E+03
       461  24  1.041449E+05  8.324346E+04  1.008796E+04  9.119039E+04 -1.076315E+04  2.944232E+03
       461  25  2.141684E+04 -1.137036E+03 -2.453806E+02  1.258249E+04 -1.006997E+04 -4.933240E+03
       461  26  1.153131E+04  6.286773E+02 -8.106431E+03  2.930427E+04 -1.144403E+04  3.441784E+02
       461  27  7.373984E+03  1.469459E+04 -1.106781E+04  4.157374E+04 -1.079153E+04  2.923152E+03
       462   1  1.931835E+05  1.480208E+05  2.707391E+04  1.381529E+05  9.547349E+03 -3.678966E+03
       462   2  1.850890E+05  1.386328E+05  2.117144E+04  1.339022E+05  6.884638E+03 -5.370873E+03
       462   3  1.759369E+05  1.325186E+05  1.767732E+04  1.299293E+05  3.975801E+03 -6.735159E+03
       462   4  1.031986E+05  8.247632E+04  7.687186E+03  9.107538E+04  9.618455E+03 -3.625787E+03
       462   5  1.033783E+05  8.016160E+04  4.520827E+03  9.150329E+04  7.664019E+03 -4.785658E+03
       462   6  1.023470E+05  8.096702E+04  3.148147E+03  9.220891E+04  5.463450E+03 -5.617881E+03
       462   7  1.322127E+04  1.693586E+04 -1.170061E+04  4.400494E+04  9.689548E+03 -3.572617E+03
       462   8  2.167557E+04  2.169489E+04 -1.213000E+04  4.911096E+04  8.443265E+03 -4.200548E+03
       462   9  2.876534E+04  2.942016E+04 -1.138058E+04  5.449458E+04  6.950831E+03 -4.500804E+03
       462  10  1.931834E+05  1.480207E+05  2.707371E+04  1.381529E+05 -9.266940E-10 -1.729857E-09
       462  11  1.850890E+05  1.386327E+05  2.117130E+04  1.339023E+05 -2.591469E-10  3.157730E-10
       462  12  1.759368E+05  1.325185E+05  1.767720E+04  1.299294E+05  1.571198E-09  5.926300E-10
       462  13  1.031985E+05  8.247628E+04  7.686988E+03  9.107541E+04 -3.049535E-10  4.914986E-10
       462  14  1.033782E+05  8.016156E+04  4.520673E+03  9.150332E+04 -2.310667E-11  7.891965E-10
       462  15  1.023469E+05  8.096698E+04  3.148032E+03  9.220893E+04 -1.681139E-11  1.454186E-09
       462  16  1.322117E+04  1.693582E+04 -1.170081E+04  4.400497E+04  6.915182E-10  2.194255E-09
       462  17  2.167549E+04  2.169485E+04 -1.213017E+04  4.911099E+04 -4.878697E-10  2.202139E-09
       462  18  2.876528E+04  2.942012E+04 -1.138071E+04  5.449461E+04 -1.349363E-09 -1.191511E-09
       462  19  1.931835E+05  1.480208E+05  2.707391E+04  1.381529E+05 -9.547349E+03  3.678966E+03
       462  20  1.850890E+05  1.386328E+05  2.117144E+04  1.339022E+05 -6.884638E+03  5.370873E+03
       462  21  1.759369E+05  1.325186E+05  1.767732E+04  1.299293E+05 -3.975801E+03  6.735159E+03
       462  22  1.031986E+05  8.247632E+04  7.687186E+03  9.107538E+04 -9.618455E+03  3.625787E+03
       462  23  1.033783E+05  8.016160E+04  4.520827E+03  9.150329E+04 -7.664019E+03  4.785658E+03
       462  24  1.023470E+05  8.096702E+04  3.148147E+03  9.220891E+04 -5.463450E+03  5.617881E+03
       462  25  1.322127E+04  1.693586E+04 -1.170061E+04  4.400494E+04 -9.689548E+03  3.572617E+03
       462  26  2.167557E+04  2.169489E+04 -1.213000E+04  4.911096E+04 -8.443265E+03  4.200548E+03
       462  27  2.876534E+04  2.942016E+04 -1.138058E+04  5.449458E+04 -6.950831E+03  4.500804E+03
       463   1  1.701555E+05  1.287242E+05  1.621441E+04  1.271245E+05  3.243016E+03 -6.638728E+03
       463   2  1.622759E+05  1.213127E+05  1.452746E+04  1.222455E+05  1.430635E+03 -6.888215E+03
       463   3  1.526022E+05  1.163168E+05  1.396391E+04  1.179571E+05 -4.118578E+02 -7.097655E+03
       463   4  1.022770E+05  8.091863E+04  2.877963E+03  9.219487E+04  4.735648E+03 -5.517670E+03
       463   5  1.032110E+05  7.976844E+04  3.004974E+03  9.186369E+04  3.009956E+03 -5.701978E+03
       463   6  1.023319E+05  8.101516E+04  4.180184E+03  9.212309E+04  1.254110E+03 -5.846259E+03
       463   7  3.440401E+04  3.311599E+04 -1.045862E+04  5.726972E+04  6.228066E+03 -4.396775E+03
       463   8  4.414955E+04  3.822594E+04 -8.517837E+03  6.148494E+04  4.589097E+03 -4.515876E+03
       463   9  5.206337E+04  4.571432E+04 -5.604012E+03  6.629096E+04  2.919938E+03 -4.594967E+03
       463  10  1.701555E+05  1.287242E+05  1.621431E+04  1.271245E+05  1.071360E-09  3.211589E-10
       463  11  1.622759E+05  1.213126E+05  1.452736E+04  1.222455E+05  1.055159E-09 -7.979042E-10
       463  12  1.526022E+05  1.163167E+05  1.396382E+04  1.179571E+05  1.023499E-09 -1.208053E-09
       463  13  1.022770E+05  8.091859E+04  2.877863E+03  9.219489E+04  6.683662E-10  1.468370E-09
       463  14  1.032110E+05  7.976840E+04  3.004896E+03  9.186371E+04  9.985726E-10  3.897993E-10
       463  15  1.023319E+05  8.101512E+04  4.180116E+03  9.212309E+04  7.933608E-10 -8.446102E-10
       463  16  3.440396E+04  3.311596E+04 -1.045873E+04  5.726974E+04 -5.532854E-10 -9.824549E-10
       463  17  4.414952E+04  3.822591E+04 -8.517915E+03  6.148496E+04 -1.419210E-10 -8.122362E-10
       463  18  5.206336E+04  4.571430E+04 -5.604067E+03  6.629097E+04  2.415057E-10 -1.070522E-09
       463  19  1.701555E+05  1.287242E+05  1.621441E+04  1.271245E+05 -3.243016E+03  6.638728E+03
       463  20  1.622759E+05  1.213127E+05  1.452746E+04  1.222455E+05 -1.430635E+03  6.888215E+03
       463  21  1.526022E+05  1.163168E+05  1.396391E+04  1.179571E+05  4.118578E+02  7.097655E+03
       463  22  1.022770E+05  8.091863E+04  2.877963E+03  9.219487E+04 -4.735648E+03  5.517670E+03
       463  23  1.032110E+05  7.976844E+04  3.004974E+03  9.186369E+04 -3.009956E+03  5.701978E+03
       463  24  1.023319E+05  8.101516E+04  4.180184E+03  9.212309E+04 -1.254110E+03  5.846259E+03
       463  25  3.440401E+04  3.311599E+04 -1.045862E+04  5.726972E+04 -6.228066E+03  4.396775E+03
       463  26  4.414955E+04  3.822594E+04 -8.517837E+03  6.148494E+04 -4.589097E+03  4.515876E+03
       463  27  5.206337E+04  4.571432E+04 -5.604012E+03  6.629096E+04 -2.919938E+03  4.594967E+03
       464   1  1.469703E+05  1.128408E+05  1.388478E+04  1.152691E+05 -1.393858E+03 -7.131212E+03
       464   2  1.407161E+05  1.045697E+05  1.572962E+04  1.091344E+05 -5.499125E+03 -9.002463E+03
       464   3  1.341417E+05  1.005911E+05  2.112225E+04  1.029060E+05 -9.610206E+03 -1.086574E+04
       464   4  1.024992E+05  8.114624E+04  5.221814E+03  9.218778E+04  2.727112E+02 -5.879331E+03
       464   5  1.035612E+05  8.059666E+04  8.764586E+03  9.103688E+04 -3.815331E+03 -7.737644E+03
       464   6  1.042990E+05  8.433572E+04  1.584020E+04  8.979204E+04 -7.909280E+03 -9.588074E+03
       464   7  5.803157E+04  4.945377E+04 -3.440812E+03  6.910892E+04  1.939084E+03 -4.627601E+03
       464   8  6.640850E+04  5.662470E+04  1.799691E+03  7.294080E+04 -2.131693E+03 -6.472931E+03
       464   9  7.445748E+04  6.808069E+04  1.055817E+04  7.667880E+04 -6.208465E+03 -8.310466E+03
       464  10  1.469703E+05  1.128408E+05  1.388468E+04  1.152691E+05 -2.464447E-09 -2.999330E-09
       464  11  1.407161E+05  1.045696E+05  1.572941E+04  1.091344E+05  5.519700E-09  2.888648E-09
       464  12  1.341415E+05  1.005910E+05  2.112185E+04  1.029059E+05  6.142482E-09  4.416220E-09
       464  13  1.024992E+05  8.114620E+04  5.221749E+03  9.218778E+04  1.586488E-09  3.090487E-10
       464  14  1.035612E+05  8.059660E+04  8.764446E+03  9.103685E+04  4.156073E-10 -5.215754E-10
       464  15  1.042989E+05  8.433561E+04  1.583991E+04  8.979198E+04 -7.287671E-09 -5.047995E-09
       464  16  5.803156E+04  4.945375E+04 -3.440859E+03  6.910893E+04  5.354559E-09  3.137250E-09
       464  17  6.640849E+04  5.662465E+04  1.799604E+03  7.294079E+04 -4.552574E-09 -3.346816E-09
       464  18  7.445742E+04  6.808060E+04  1.055797E+04  7.667876E+04 -2.097679E-08 -1.390541E-08
       464  19  1.469703E+05  1.128408E+05  1.388478E+04  1.152691E+05  1.393858E+03  7.131212E+03
       464  20  1.407161E+05  1.045697E+05  1.572962E+04  1.091344E+05  5.499125E+03  9.002463E+03
       464  21  1.341417E+05  1.005911E+05  2.112225E+04  1.029060E+05  9.610206E+03  1.086574E+04
       464  22  1.024992E+05  8.114624E+04  5.221814E+03  9.218778E+04 -2.727112E+02  5.879331E+03
       464  23  1.035612E+05  8.059666E+04  8.764586E+03  9.103688E+04  3.815331E+03  7.737644E+03
       464  24  1.042990E+05  8.433572E+04  1.584020E+04  8.979204E+04  7.909280E+03  9.588074E+03
       464  25  5.803157E+04  4.945377E+04 -3.440812E+03  6.910892E+04 -1.939084E+03  4.627601E+03
       464  26  6.640850E+04  5.662470E+04  1.799691E+03  7.294080E+04  2.131693E+03  6.472931E+03
       464  27  7.445748E+04  6.808069E+04  1.055817E+04  7.667880E+04  6.208465E+03  8.310466E+03
       465   1  1.282805E+05  1.006932E+05  2.522771E+04  1.010086E+05 -1.214200E+04 -1.205235E+04
       465   2  1.457628E+05  7.904716E+04  4.118663E+04  7.913846E+04 -2.860815E+04 -2.316813E+04
       465   3  1.798689E+05  8.436723E+04  7.826319E+04  4.730427E+04 -4.509509E+04 -3.425620E+04
       465   4  1.062012E+05  8.607395E+04  2.105292E+04  9.007670E+04 -1.044068E+04 -1.077430E+04
       465   5  1.096723E+05  9.346780E+04  3.866492E+04  7.937850E+04 -2.684850E+04 -2.184803E+04
       465   6  1.297531E+05  1.278139E+05  7.734442E+04  5.871648E+04 -4.327628E+04 -3.289532E+04
       465   7  8.412205E+04  7.145467E+04  1.687800E+04  7.914503E+04 -8.739419E+03 -9.496293E+03
       465   8  7.358409E+04  1.078898E+05  3.614350E+04  7.961804E+04 -2.508900E+04 -2.052782E+04
       465   9  7.964433E+04  1.712674E+05  7.642690E+04  7.012674E+04 -4.145771E+04 -3.153418E+04
       465  10  1.282803E+05  1.006930E+05  2.522716E+04  1.010085E+05 -2.430713E-08 -1.752655E-08
       465  11  1.457618E+05  7.904637E+04  4.118409E+04  7.913793E+04 -7.461376E-09 -1.857159E-09
       465  12  1.798664E+05  8.436542E+04  7.825717E+04  4.730303E+04  6.240011E-09  6.004704E-09
       465  13  1.062010E+05  8.607380E+04  2.105250E+04  9.007661E+04 -7.069536E-09 -5.062130E-09
       465  14  1.096714E+05  9.346709E+04  3.866266E+04  7.937803E+04 -1.407303E-09  7.138807E-10
       465  15  1.297508E+05  1.278123E+05  7.733886E+04  5.871533E+04  1.276149E-10  1.088447E-09
       465  16  8.412194E+04  7.145456E+04  1.687769E+04  7.914496E+04  9.255723E-09  7.478986E-09
       465  17  7.358330E+04  1.078892E+05  3.614152E+04  7.961763E+04  4.673867E-09  2.933297E-09
       465  18  7.964222E+04  1.712659E+05  7.642181E+04  7.012569E+04 -5.966842E-09 -2.454963E-09
       465  19  1.282805E+05  1.006932E+05  2.522771E+04  1.010086E+05  1.214200E+04  1.205235E+04
       465  20  1.457628E+05  7.904716E+04  4.118663E+04  7.913846E+04  2.860815E+04  2.316813E+04
       465  21  1.798689E+05  8.436723E+04  7.826319E+04  4.730427E+04  4.509509E+04  3.425620E+04
       465  22  1.062012E+05  8.607395E+04  2.105292E+04  9.007670E+04  1.044068E+04  1.077430E+04
       465  23  1.096723E+05  9.346780E+04  3.866492E+04  7.937850E+04  2.684850E+04  2.184803E+04
       465  24  1.297531E+05  1.278139E+05  7.734442E+04  5.871648E+04  4.327628E+04  3.289532E+04
       465  25  8.412205E+04  7.145467E+04  1.687800E+04  7.914503E+04  8.739419E+03  9.496293E+03
       465  26  7.358409E+04  1.078898E+05  3.614350E+04  7.961804E+04  2.508900E+04  2.052782E+04
       465  27  7.964433E+04  1.712674E+05  7.642690E+04  7.012674E+04  4.145771E+04  3.153418E+04
       466   1  1.850093E+05  4.994384E+04  4.664161E+04  4.576351E+04  1.353330E+04 -2.531085E+03
       466   2  1.454292E+05  4.183642E+04  3.149819E+04  4.412790E+04  4.421044E+03 -8.132147E+03
       466   3  1.069091E+05  3.325736E+04  2.216879E+04  4.906607E+04 -4.694154E+03 -8.864472E+03
       466   4 -3.769823E+04 -5.006175E+03 -5.454108E+03  4.901656E+04 -3.809726E+03 -2.545570E+03
       466   5 -3.731209E+04 -1.554074E+03 -2.742306E+03  4.572763E+04 -2.402814E+03 -8.138200E+03
       466   6 -3.769346E+04 -3.997175E+02 -1.520516E+03  4.901265E+04 -9.994432E+02 -8.861383E+03
       466   7 -2.603594E+05 -5.995950E+04 -5.755207E+04  5.226842E+04 -2.114657E+04 -2.560241E+03
       466   8 -2.200210E+05 -4.494647E+04 -3.698406E+04  4.732687E+04 -9.224713E+03 -8.144290E+03
       466   9 -1.822753E+05 -3.405786E+04 -2.521037E+04  4.895924E+04  2.694437E+03 -8.858295E+03
       466  10  1.850091E+05  4.994378E+04  4.664126E+04  4.576353E+04 -3.784396E-09  4.832107E-11
       466  11  1.454292E+05  4.183634E+04  3.149802E+04  4.412793E+04 -6.958801E-10  2.436963E-09
       466  12  1.069091E+05  3.325727E+04  2.216860E+04  4.906604E+04  2.137257E-09  1.502529E-09
       466  13 -3.769825E+04 -5.006186E+03 -5.454147E+03  4.901655E+04  2.773502E-11 -1.509003E-09
       466  14 -3.731211E+04 -1.554146E+03 -2.742441E+03  4.572761E+04  3.108699E-10 -2.924539E-09
       466  15 -3.769348E+04 -3.998021E+02 -1.520666E+03  4.901264E+04 -2.584522E-10  5.069394E-10
       466  16 -2.603599E+05 -5.995963E+04 -5.755292E+04  5.226838E+04  3.459454E-09  2.652688E-10
       466  17 -2.200211E+05 -4.494656E+04 -3.698435E+04  4.732681E+04  9.087494E-10  1.866611E-09
       466  18 -1.822753E+05 -3.405794E+04 -2.521054E+04  4.895926E+04 -1.914631E-09 -2.773207E-10
       466  19  1.850093E+05  4.994384E+04  4.664161E+04  4.576351E+04 -1.353330E+04  2.531085E+03
       466  20  1.454292E+05  4.183642E+04  3.149819E+04  4.412790E+04 -4.421044E+03  8.132147E+03
       466  21  1.069091E+05  3.325736E+04  2.216879E+04  4.906607E+04  4.694154E+03  8.864472E+03
       466  22 -3.769823E+04 -5.006175E+03 -5.454108E+03  4.901656E+04  3.809726E+03  2.545570E+03
       466  23 -3.731209E+04 -1.554074E+03 -2.742306E+03  4.572763E+04  2.402814E+03  8.138200E+03
       466  24 -3.769346E+04 -3.997175E+02 -1.520516E+03  4.901265E+04  9.994432E+02  8.861383E+03
       466  25 -2.603594E+05 -5.995950E+04 -5.755207E+04  5.226842E+04  2.114657E+04  2.560241E+03
       466  26 -2.200210E+05 -4.494647E+04 -3.698406E+04  4.732687E+04  9.224713E+03  8.144290E+03
       466  27 -1.822753E+05 -3.405786E+04 -2.521037E+04  4.895924E+04 -2.694437E+03  8.858295E+03
       467   1  8.236651E+04  2.752887E+04  1.802202E+04  4.896188E+04 -4.570308E+03 -7.675503E+03
       467   2  4.330383E+04  1.858232E+04  1.153337E+04  4.558947E+04 -5.379932E+03 -5.661764E+03
       467   3  4.337774E+03  9.647310E+03  5.571003E+03  4.913855E+04 -6.190039E+03 -3.109613E+03
       467   4 -3.754557E+04 -2.902971E+02 -1.167205E+03  4.909017E+04 -8.000343E+02 -7.672254E+03
       467   5 -3.749081E+04 -2.506131E+01 -7.102147E+02  4.562924E+04 -4.467920E+02 -5.657358E+03
       467   6 -3.754344E+04  4.971968E+01 -5.347031E+02  4.908987E+04 -9.409735E+01 -3.104012E+03
       467   7 -1.574433E+05 -2.811018E+04 -2.035675E+04  4.921844E+04  2.969537E+03 -7.669003E+03
       467   8 -1.182788E+05 -1.863274E+04 -1.295384E+04  4.566901E+04  4.485731E+03 -5.652950E+03
       467   9 -7.942280E+04 -9.547932E+03 -6.640299E+03  4.904119E+04  6.001451E+03 -3.098411E+03
       467  10  8.236647E+04  2.752880E+04  1.802187E+04  4.896185E+04 -3.433559E-10  2.688143E-10
       467  11  4.330379E+04  1.858228E+04  1.153325E+04  4.558945E+04  3.646131E-10  1.971079E-09
       467  12  4.337730E+03  9.647290E+03  5.570913E+03  4.913854E+04  1.268177E-09  3.066053E-09
       467  13 -3.754559E+04 -2.903605E+02 -1.167317E+03  4.909017E+04 -2.312603E-10  2.941114E-09
       467  14 -3.749081E+04 -2.509573E+01 -7.102752E+02  4.562924E+04  2.054067E-10 -4.801571E-09
       467  15 -3.754344E+04  4.970934E+01 -5.347212E+02  4.908987E+04 -1.839917E-10  3.745163E-09
       467  16 -1.574434E+05 -2.811025E+04 -2.035688E+04  4.921846E+04  3.330210E-10 -1.953550E-09
       467  17 -1.182789E+05 -1.863278E+04 -1.295394E+04  4.566903E+04  1.096173E-11 -4.479778E-10
       467  18 -7.942284E+04 -9.547952E+03 -6.640385E+03  4.904120E+04 -1.158776E-09  2.537194E-09
       467  19  8.236651E+04  2.752887E+04  1.802202E+04  4.896188E+04  4.570308E+03  7.675503E+03
       467  20  4.330383E+04  1.858232E+04  1.153337E+04  4.558947E+04  5.379932E+03  5.661764E+03
       467  21  4.337774E+03  9.647310E+03  5.571003E+03  4.913855E+04  6.190039E+03  3.109613E+03
       467  22 -3.754557E+04 -2.902971E+02 -1.167205E+03  4.909017E+04  8.000343E+02  7.672254E+03
       467  23 -3.749081E+04 -2.506131E+01 -7.102147E+02  4.562924E+04  4.467920E+02  5.657358E+03
       467  24 -3.754344E+04  4.971968E+01 -5.347031E+02  4.908987E+04  9.409735E+01  3.104012E+03
       467  25 -1.574433E+05 -2.811018E+04 -2.035675E+04  4.921844E+04 -2.969537E+03  7.669003E+03
       467  26 -1.182788E+05 -1.863274E+04 -1.295384E+04  4.566901E+04 -4.485731E+03  5.652950E+03
       467  27 -7.942280E+04 -9.547932E+03 -6.640299E+03  4.904119E+04 -6.001451E+03  3.098411E+03
       468   1 -2.009612E+04  4.012285E+03  1.844468E+03  4.909072E+04 -6.104413E+03 -1.428246E+03
       468   2 -5.899244E+04 -5.032742E+03 -4.272744E+03  4.568731E+04 -5.003146E+03  1.210899E+03
       468   3 -9.811821E+04 -1.436795E+04 -1.118398E+04  4.921657E+04 -3.901602E+03  3.479545E+03
       468   4 -3.753961E+04  5.139399E+01 -5.160740E+02  4.909234E+04 -6.224699E+00 -1.422611E+03
       468   5 -3.749419E+04  1.065272E-01 -6.072413E+02  4.562613E+04  2.946968E+02  1.215764E+03
       468   6 -3.754018E+04 -2.021983E+02 -9.365033E+02  4.909257E+04  5.959489E+02  3.483647E+03
       468   7 -5.498272E+04 -3.909490E+03 -2.876479E+03  4.909396E+04  6.091800E+03 -1.416976E+03
       468   8 -1.599542E+04  5.032946E+03  3.058352E+03  4.556494E+04  5.592718E+03  1.220627E+03
       468   9  2.304150E+04  1.396337E+04  9.310936E+03  4.896855E+04  5.093925E+03  3.487746E+03
       468  10 -2.009616E+04  4.012273E+03  1.844394E+03  4.909072E+04  2.273371E-09 -1.071748E-09
       468  11 -5.899247E+04 -5.032750E+03 -4.272794E+03  4.568732E+04  1.253158E-09 -1.241065E-09
       468  12 -9.811823E+04 -1.436797E+04 -1.118404E+04  4.921659E+04  4.224719E-10 -2.205277E-09
       468  13 -3.753961E+04  5.139182E+01 -5.160778E+02  4.909234E+04  6.720337E-11  4.145518E-10
       468  14 -3.749419E+04  1.049167E-01 -6.072442E+02  4.562613E+04  2.747707E-10 -1.725266E-09
       468  15 -3.754019E+04 -2.022114E+02 -9.365268E+02  4.909257E+04 -9.808610E-11 -1.461343E-09
       468  16 -5.498276E+04 -3.909502E+03 -2.876553E+03  4.909397E+04 -2.298905E-09  4.051321E-10
       468  17 -1.599546E+04  5.032936E+03  3.058290E+03  4.556493E+04 -1.163794E-09  1.179281E-09
       468  18  2.304147E+04  1.396335E+04  9.310865E+03  4.896854E+04 -1.890147E-10  9.418840E-10
       468  19 -2.009612E+04  4.012285E+03  1.844468E+03  4.909072E+04  6.104413E+03  1.428246E+03
       468  20 -5.899244E+04 -5.032742E+03 -4.272744E+03  4.568731E+04  5.003146E+03 -1.210899E+03
       468  21 -9.811821E+04 -1.436795E+04 -1.118398E+04  4.921657E+04  3.901602E+03 -3.479545E+03
       468  22 -3.753961E+04  5.139399E+01 -5.160740E+02  4.909234E+04  6.224699E+00  1.422611E+03
       468  23 -3.749419E+04  1.065272E-01 -6.072413E+02  4.562613E+04 -2.946968E+02 -1.215764E+03
       468  24 -3.754018E+04 -2.021983E+02 -9.365033E+02  4.909257E+04 -5.959489E+02 -3.483647E+03
       468  25 -5.498272E+04 -3.909490E+03 -2.876479E+03  4.909396E+04 -6.091800E+03  1.416976E+03
       468  26 -1.599542E+04  5.032946E+03  3.058352E+03  4.556494E+04 -5.592718E+03 -1.220627E+03
       468  27  2.304150E+04  1.396337E+04  9.310936E+03  4.896855E+04 -5.093925E+03 -3.487746E+03
       469   1 -1.228393E+05 -2.022801E+04 -1.571438E+04  4.901249E+04 -3.686438E+03  4.822341E+03
       469   2 -1.608928E+05 -3.064417E+04 -2.590216E+04  4.695083E+04  5.254853E+03  5.069841E+03
       469   3 -2.009078E+05 -4.420412E+04 -4.270064E+04  5.156444E+04  1.419837E+04  1.682967E+03
       469   4 -3.765381E+04 -2.868786E+02 -1.202158E+03  4.903515E+04  7.550250E+02  4.826334E+03
       469   5 -3.735554E+04 -1.183638E+03 -2.137623E+03  4.569907E+04  1.847890E+03  5.066706E+03
       469   6 -3.765706E+04 -3.861022E+03 -4.232562E+03  4.903826E+04  2.943574E+03  1.673003E+03
       469   7  4.753883E+04  1.965388E+04  1.330990E+04  4.905780E+04  5.197078E+03  4.830326E+03
       469   8  8.619645E+04  2.827600E+04  2.162625E+04  4.444704E+04 -1.559736E+03  5.063586E+03
       469   9  1.256185E+05  3.648027E+04  3.423416E+04  4.651141E+04 -8.314162E+03  1.663132E+03
       469  10 -1.228393E+05 -2.022804E+04 -1.571445E+04  4.901251E+04  3.645349E-09 -3.620142E-09
       469  11 -1.608929E+05 -3.064421E+04 -2.590226E+04  4.695081E+04 -9.290172E-10 -1.546360E-09
       469  12 -2.009080E+05 -4.420418E+04 -4.270102E+04  5.156442E+04 -5.229946E-09 -1.015686E-09
       469  13 -3.765382E+04 -2.869038E+02 -1.202203E+03  4.903514E+04 -1.351207E-10 -1.356053E-09
       469  14 -3.735555E+04 -1.183667E+03 -2.137678E+03  4.569906E+04  3.826144E-10 -4.234647E-09
       469  15 -3.765707E+04 -3.861028E+03 -4.232583E+03  4.903826E+04 -1.937119E-10 -1.195206E-09
       469  16  4.753879E+04  1.965385E+04  1.330980E+04  4.905778E+04 -3.740010E-09 -1.607203E-09
       469  17  8.619644E+04  2.827597E+04  2.162620E+04  4.444705E+04  1.140097E-09 -6.073664E-10
       469  18  1.256184E+05  3.648025E+04  3.423402E+04  4.651142E+04  5.310957E-09 -2.828562E-10
       469  19 -1.228393E+05 -2.022801E+04 -1.571438E+04  4.901249E+04  3.686438E+03 -4.822341E+03
       469  20 -1.608928E+05 -3.064417E+04 -2.590216E+04  4.695083E+04 -5.254853E+03 -5.069841E+03
       469  21 -2.009078E+05 -4.420412E+04 -4.270064E+04  5.156444E+04 -1.419837E+04 -1.682967E+03
       469  22 -3.765381E+04 -2.868786E+02 -1.202158E+03  4.903515E+04 -7.550250E+02 -4.826334E+03
       469  23 -3.735554E+04 -1.183638E+03 -2.137623E+03  4.569907E+04 -1.847890E+03 -5.066706E+03
       469  24 -3.765706E+04 -3.861022E+03 -4.232562E+03  4.903826E+04 -2.943574E+03 -1.673003E+03
       469  25  4.753883E+04  1.965388E+04  1.330990E+04  4.905780E+04 -5.197078E+03 -4.830326E+03
       469  26  8.619645E+04  2.827600E+04  2.162625E+04  4.444704E+04  1.559736E+03 -5.063586E+03
       469  27  1.256185E+05  3.648027E+04  3.423416E+04  4.651141E+04  8.314162E+03 -1.663132E+03
       470   1 -9.539542E+04 -4.228744E+05 -9.408666E+04  1.209154E+05 -2.600861E+03 -3.678407E+04
       470   2 -5.578961E+04 -3.372669E+05 -5.243747E+04  1.054212E+05 -7.547975E+03 -1.632206E+04
       470   3 -3.007414E+04 -2.577630E+05 -2.758612E+04  1.041418E+05 -6.188635E+03  4.148067E+03
       470   4 -2.549947E+04 -1.405375E+05 -2.715939E+04  1.039079E+05 -2.609702E+03 -1.932374E+04
       470   5 -8.236845E+03 -1.386591E+05 -1.339523E+04  9.680681E+04 -7.549654E+03 -1.247429E+04
       470   6 -2.497531E+03 -1.405250E+05 -6.969439E+03  1.039216E+05 -6.183532E+03 -5.619806E+03
       470   7  4.439199E+04  1.418740E+05  3.976363E+04  8.689255E+04 -2.619499E+03 -1.855517E+03
       470   8  3.931382E+04  5.998671E+04  2.564520E+04  8.818963E+04 -7.551440E+03 -8.625311E+03
       470   9  2.507838E+04 -2.327331E+04  1.364710E+04  1.037013E+05 -6.178423E+03 -1.538947E+04
       470  10 -9.539579E+04 -4.228758E+05 -9.408921E+04  1.209153E+05 -2.407887E-10 -6.805895E-10
       470  11 -5.578974E+04 -3.372672E+05 -5.243807E+04  1.054211E+05 -7.756246E-10 -5.357200E-11
       470  12 -3.007419E+04 -2.577630E+05 -2.758623E+04  1.041418E+05  4.391663E-10  4.781229E-10
       470  13 -2.549958E+04 -1.405379E+05 -2.716011E+04  1.039078E+05  2.329937E-10  1.081054E-09
       470  14 -8.236948E+03 -1.386593E+05 -1.339562E+04  9.680674E+04 -7.476274E-10 -5.868415E-10
       470  15 -2.497581E+03 -1.405250E+05 -6.969570E+03  1.039215E+05 -7.299134E-11  2.052072E-10
       470  16  4.439198E+04  1.418740E+05  3.976361E+04  8.689254E+04 -3.803342E-11  1.070302E-09
       470  17  3.931373E+04  5.998662E+04  2.564495E+04  8.818957E+04 -4.415487E-11  5.566952E-11
       470  18  2.507827E+04 -2.327358E+04  1.364659E+04  1.037012E+05 -3.814659E-10 -4.387182E-10
       470  19 -9.539542E+04 -4.228744E+05 -9.408666E+04  1.209154E+05  2.600861E+03  3.678407E+04
       470  20 -5.578961E+04 -3.372669E+05 -5.243747E+04  1.054212E+05  7.547975E+03  1.632206E+04
       470  21 -3.007414E+04 -2.577630E+05 -2.758612E+04  1.041418E+05  6.188635E+03 -4.148067E+03
       470  22 -2.549947E+04 -1.405375E+05 -2.715939E+04  1.039079E+05  2.609702E+03  1.932374E+04
       470  23 -8.236845E+03 -1.386591E+05 -1.339523E+04  9.680681E+04  7.549654E+03  1.247429E+04
       470  24 -2.497531E+03 -1.405250E+05 -6.969439E+03  1.039216E+05  6.183532E+03  5.619806E+03
       470  25  4.439199E+04  1.418740E+05  3.976363E+04  8.689255E+04  2.619499E+03  1.855517E+03
       470  26  3.931382E+04  5.998671E+04  2.564520E+04  8.818963E+04  7.551440E+03  8.625311E+03
       470  27  2.507838E+04 -2.327331E+04  1.364710E+04  1.037013E+05  6.178423E+03  1.538947E+04
       471   1 -1.733974E+04 -2.049632E+05 -1.668237E+04  1.049986E+05 -3.274277E+03  5.109892E+03
       471   2  3.510950E+03 -1.223062E+05  5.731537E+02  9.727000E+04  1.244783E+03  5.925171E+03
       471   3  2.373067E+04 -3.987985E+04  1.714663E+04  1.041640E+05  5.676403E+03  6.740537E+03
       471   4 -1.952357E+03 -1.397512E+05 -4.976611E+03  1.040107E+05 -3.269286E+03 -4.744681E+03
       471   5 -4.655719E+02 -1.396166E+05 -2.000203E+03  9.669998E+04  1.249736E+03 -3.740968E+03
       471   6  3.578829E+02 -1.397519E+05  1.634089E+02  1.040120E+05  5.681310E+03 -2.737266E+03
       471   7  1.343485E+04 -7.453484E+04  6.729348E+03  1.030227E+05 -3.264264E+03 -1.460026E+04
       471   8 -4.442056E+03 -1.569265E+05 -4.573214E+03  9.612998E+04  1.254707E+03 -1.340685E+04
       471   9 -2.301538E+04 -2.396139E+05 -1.681980E+04  1.038600E+05  5.686222E+03 -1.221359E+04
       471  10 -1.733976E+04 -2.049632E+05 -1.668244E+04  1.049986E+05 -1.530059E-10 -3.453413E-10
       471  11  3.510939E+03 -1.223063E+05  5.730848E+02  9.726999E+04 -2.029453E-11  9.165834E-11
       471  12  2.373062E+04 -3.987991E+04  1.714648E+04  1.041640E+05 -8.546585E-11 -3.139911E-10
       471  13 -1.952374E+03 -1.397512E+05 -4.976673E+03  1.040107E+05  1.820692E-10  1.191151E-09
       471  14 -4.655774E+02 -1.396167E+05 -2.000233E+03  9.669998E+04  5.641846E-10  3.070880E-10
       471  15  3.578463E+02 -1.397519E+05  1.633342E+02  1.040120E+05  4.974946E-10 -3.270648E-10
       471  16  1.343478E+04 -7.453507E+04  6.728927E+03  1.030226E+05 -1.970290E-10  1.064733E-09
       471  17 -4.442106E+03 -1.569267E+05 -4.573555E+03  9.612999E+04 -4.923582E-11  3.507501E-10
       471  18 -2.301546E+04 -2.396141E+05 -1.682014E+04  1.038600E+05 -2.099196E-10  6.027085E-10
       471  19 -1.733974E+04 -2.049632E+05 -1.668237E+04  1.049986E+05  3.274277E+03 -5.109892E+03
       471  20  3.510950E+03 -1.223062E+05  5.731537E+02  9.727000E+04 -1.244783E+03 -5.925171E+03
       471  21  2.373067E+04 -3.987985E+04  1.714663E+04  1.041640E+05 -5.676403E+03 -6.740537E+03
       471  22 -1.952357E+03 -1.397512E+05 -4.976611E+03  1.040107E+05  3.269286E+03  4.744681E+03
       471  23 -4.655719E+02 -1.396166E+05 -2.000203E+03  9.669998E+04 -1.249736E+03  3.740968E+03
       471  24  3.578829E+02 -1.397519E+05  1.634089E+02  1.040120E+05 -5.681310E+03  2.737266E+03
       471  25  1.343485E+04 -7.453484E+04  6.729348E+03  1.030227E+05  3.264264E+03  1.460026E+04
       471  26 -4.442056E+03 -1.569265E+05 -4.573214E+03  9.612998E+04 -1.254707E+03  1.340685E+04
       471  27 -2.301538E+04 -2.396139E+05 -1.681980E+04  1.038600E+05 -5.686222E+03  1.221359E+04
       472   1  3.614823E+04  1.251955E+04  2.721534E+04  1.038652E+05  8.511025E+03  6.571355E+03
       472   2  5.815541E+04  9.319284E+04  4.901163E+04  9.942693E+04  9.344851E+03 -1.059307E+04
       472   3  8.643855E+04  1.777054E+05  8.355687E+04  1.091541E+05  3.144645E+03 -2.776528E+04
       472   4  5.533943E+02 -1.394284E+05  1.199198E+03  1.039098E+05  8.516088E+03 -2.807048E+03
       472   5  2.478495E+03 -1.400329E+05  3.837995E+03  9.682937E+04  9.341935E+03 -4.775315E+03
       472   6  8.043300E+03 -1.394405E+05  8.673980E+03  1.039144E+05  3.132676E+03 -6.749173E+03
       472   7 -3.504263E+04 -2.913534E+05 -2.481738E+04  1.039545E+05  8.521151E+03 -1.218323E+04
       472   8 -5.320162E+04 -3.732063E+05 -4.133806E+04  9.423280E+04  9.338970E+03  1.040309E+03
       472   9 -7.035881E+04 -4.564929E+05 -6.621419E+04  9.867729E+04  3.120350E+03  1.425626E+04
       472  10  3.614814E+04  1.251948E+04  2.721512E+04  1.038651E+05  2.154806E-10 -4.946114E-10
       472  11  5.815528E+04  9.319269E+04  4.901125E+04  9.942701E+04 -3.822595E-10  7.778594E-11
       472  12  8.643833E+04  1.777046E+05  8.355541E+04  1.091542E+05 -3.171204E-10  7.766224E-10
       472  13  5.533143E+02 -1.394284E+05  1.199047E+03  1.039099E+05 -6.144109E-10  1.733606E-09
       472  14  2.478395E+03 -1.400330E+05  3.837788E+03  9.682940E+04  2.899320E-10 -9.167888E-10
       472  15  8.043277E+03 -1.394406E+05  8.673876E+03  1.039144E+05 -1.913280E-10  1.585529E-10
       472  16 -3.504274E+04 -2.913536E+05 -2.481780E+04  1.039546E+05 -1.773396E-10  1.396982E-09
       472  17 -5.320171E+04 -3.732064E+05 -4.133822E+04  9.423279E+04 -3.250100E-11 -1.925342E-11
       472  18 -7.035887E+04 -4.564931E+05 -6.621459E+04  9.867725E+04 -1.701702E-11 -2.299281E-10
       472  19  3.614823E+04  1.251955E+04  2.721534E+04  1.038652E+05 -8.511025E+03 -6.571355E+03
       472  20  5.815541E+04  9.319284E+04  4.901163E+04  9.942693E+04 -9.344851E+03  1.059307E+04
       472  21  8.643855E+04  1.777054E+05  8.355687E+04  1.091541E+05 -3.144645E+03  2.776528E+04
       472  22  5.533943E+02 -1.394284E+05  1.199198E+03  1.039098E+05 -8.516088E+03  2.807048E+03
       472  23  2.478495E+03 -1.400329E+05  3.837995E+03  9.682937E+04 -9.341935E+03  4.775315E+03
       472  24  8.043300E+03 -1.394405E+05  8.673980E+03  1.039144E+05 -3.132676E+03  6.749173E+03
       472  25 -3.504263E+04 -2.913534E+05 -2.481738E+04  1.039545E+05 -8.521151E+03  1.218323E+04
       472  26 -5.320162E+04 -3.732063E+05 -4.133806E+04  9.423280E+04 -9.338970E+03 -1.040309E+03
       472  27 -7.035881E+04 -4.564929E+05 -6.621419E+04  9.867729E+04 -3.120350E+03 -1.425626E+04
       473   1  1.258496E+05  1.313821E+05  4.821500E+04  8.574983E+04  2.376569E+04  1.672365E+04
       473   2  1.228355E+05  1.042616E+05  2.761229E+04  9.004243E+04  1.592279E+04  8.113535E+03
       473   3  1.274737E+05  8.887377E+04  1.803658E+04  9.011256E+04  7.213283E+03  6.574261E+02
       473   4  9.577710E+04  7.674840E+04  3.249601E+04  5.551498E+04  1.876500E+04  1.296601E+04
       473   5  8.727366E+04  6.238384E+04  1.628033E+04  6.421426E+04  1.341485E+04  6.229174E+03
       473   6  8.588172E+04  5.921108E+04  8.927263E+03  6.869097E+04  7.198070E+03  6.459529E+02
       473   7  6.570625E+04  2.211943E+04  1.677706E+04  2.528264E+04  1.376461E+04  9.209108E+03
       473   8  5.171303E+04  2.050811E+04  4.948114E+03  3.838794E+04  1.090707E+04  4.345058E+03
       473   9  4.429083E+04  2.954880E+04 -1.824853E+02  4.727056E+04  7.182858E+03  6.344806E+02
       473  10  1.258489E+05  1.313817E+05  4.821341E+04  8.574951E+04  2.173728E-09  3.356120E-10
       473  11  1.228352E+05  1.042615E+05  2.761169E+04  9.004232E+04  1.285532E-09 -3.596516E-10
       473  12  1.274736E+05  8.887375E+04  1.803649E+04  9.011256E+04 -4.697534E-11 -3.898892E-09
       473  13  9.577667E+04  7.674813E+04  3.249503E+04  5.551478E+04  2.031806E-10 -5.383511E-10
       473  14  8.727346E+04  6.238375E+04  1.627992E+04  6.421419E+04  1.221653E-09  3.753060E-09
       473  15  8.588166E+04  5.921107E+04  8.927165E+03  6.869096E+04  4.383750E-10 -1.987012E-09
       473  16  6.570602E+04  2.211929E+04  1.677654E+04  2.528254E+04 -1.838820E-09 -1.732276E-09
       473  17  5.171290E+04  2.050806E+04  4.947855E+03  3.838791E+04 -3.157327E-10 -1.684661E-09
       473  18  4.429077E+04  2.954878E+04 -1.825830E+02  4.727056E+04  9.712278E-10  6.622925E-10
       473  19  1.258496E+05  1.313821E+05  4.821500E+04  8.574983E+04 -2.376569E+04 -1.672365E+04
       473  20  1.228355E+05  1.042616E+05  2.761229E+04  9.004243E+04 -1.592279E+04 -8.113535E+03
       473  21  1.274737E+05  8.887377E+04  1.803658E+04  9.011256E+04 -7.213283E+03 -6.574261E+02
       473  22  9.577710E+04  7.674840E+04  3.249601E+04  5.551498E+04 -1.876500E+04 -1.296601E+04
       473  23  8.727366E+04  6.238384E+04  1.628033E+04  6.421426E+04 -1.341485E+04 -6.229174E+03
       473  24  8.588172E+04  5.921108E+04  8.927263E+03  6.869097E+04 -7.198070E+03 -6.459529E+02
       473  25  6.570625E+04  2.211943E+04  1.677706E+04  2.528264E+04 -1.376461E+04 -9.209108E+03
       473  26  5.171303E+04  2.050811E+04  4.948114E+03  3.838794E+04 -1.090707E+04 -4.345058E+03
       473  27  4.429083E+04  2.954880E+04 -1.824853E+02  4.727056E+04 -7.182858E+03 -6.344806E+02
       474   1  1.233490E+05  8.743327E+04  1.514041E+04  8.910085E+04  6.230729E+03 -1.603085E+01
       474   2  1.199532E+05  8.261829E+04  1.111729E+04  8.760492E+04  4.319838E+03 -1.339596E+03
       474   3  1.165299E+05  7.964769E+04  8.908937E+03  8.606475E+04  2.303695E+03 -2.522934E+03
       474   4  8.506111E+04  5.850298E+04  6.768446E+03  6.857948E+04  6.233702E+03 -1.384905E+01
       474   5  8.472920E+04  5.694261E+04  3.887954E+03  6.910606E+04  4.625796E+03 -1.109790E+03
       474   6  8.430398E+04  5.716085E+04  2.559213E+03  6.958835E+04  2.912596E+03 -2.065531E+03
       474   7  4.677586E+04  2.957449E+04 -1.603256E+03  4.806013E+04  6.236675E+03 -1.166751E+01
       474   8  4.950714E+04  3.126812E+04 -3.341270E+03  5.060867E+04  4.931727E+03 -8.800041E+02
       474   9  5.207936E+04  3.467470E+04 -3.790527E+03  5.311297E+04  3.521455E+03 -1.608161E+03
       474  10  1.233490E+05  8.743326E+04  1.514034E+04  8.910085E+04 -1.160662E-08 -1.029366E-08
       474  11  1.199532E+05  8.261828E+04  1.111725E+04  8.760492E+04  2.377783E-08  1.795307E-08
       474  12  1.165299E+05  7.964768E+04  8.908915E+03  8.606476E+04  5.424341E-08  4.181961E-08
       474  13  8.506107E+04  5.850297E+04  6.768373E+03  6.857948E+04  1.295454E-09  5.980935E-10
       474  14  8.472918E+04  5.694260E+04  3.887912E+03  6.910606E+04 -1.241917E-10  2.614975E-09
       474  15  8.430396E+04  5.716085E+04  2.559190E+03  6.958836E+04 -4.268631E-09 -1.779043E-09
       474  16  4.677581E+04  2.957448E+04 -1.603329E+03  4.806013E+04  1.331341E-08  1.016756E-08
       474  17  4.950711E+04  3.126811E+04 -3.341317E+03  5.060868E+04 -2.475359E-08 -1.466410E-08
       474  18  5.207935E+04  3.467469E+04 -3.790555E+03  5.311297E+04 -6.402055E-08 -4.493427E-08
       474  19  1.233490E+05  8.743327E+04  1.514041E+04  8.910085E+04 -6.230729E+03  1.603085E+01
       474  20  1.199532E+05  8.261829E+04  1.111729E+04  8.760492E+04 -4.319838E+03  1.339596E+03
       474  21  1.165299E+05  7.964769E+04  8.908937E+03  8.606475E+04 -2.303695E+03  2.522934E+03
       474  22  8.506111E+04  5.850298E+04  6.768446E+03  6.857948E+04 -6.233702E+03  1.384905E+01
       474  23  8.472920E+04  5.694261E+04  3.887954E+03  6.910606E+04 -4.625796E+03  1.109790E+03
       474  24  8.430398E+04  5.716085E+04  2.559213E+03  6.958835E+04 -2.912596E+03  2.065531E+03
       474  25  4.677586E+04  2.957449E+04 -1.603256E+03  4.806013E+04 -6.236675E+03  1.166751E+01
       474  26  4.950714E+04  3.126812E+04 -3.341270E+03  5.060867E+04 -4.931727E+03  8.800041E+02
       474  27  5.207936E+04  3.467470E+04 -3.790527E+03  5.311297E+04 -3.521455E+03  1.608161E+03
       475   1  1.140497E+05  7.812332E+04  8.097651E+03  8.491719E+04  1.843274E+03 -2.603654E+03
       475   2  1.107783E+05  7.501741E+04  7.220717E+03  8.291165E+04  7.488988E+02 -2.969419E+03
       475   3  1.068523E+05  7.299172E+04  7.112939E+03  8.114336E+04 -3.588611E+02 -3.317409E+03
       475   4  8.423871E+04  5.711219E+04  2.239700E+03  6.956970E+04  2.454349E+03 -2.144610E+03
       475   5  8.457988E+04  5.659369E+04  2.109928E+03  6.943784E+04  1.398436E+03 -2.481467E+03
       475   6  8.425824E+04  5.714706E+04  2.715965E+03  6.954323E+04  3.291547E+02 -2.800541E+03
       475   7  5.442810E+04  3.610115E+04 -3.618511E+03  5.422273E+04  3.065398E+03 -1.685586E+03
       475   8  5.838227E+04  3.817042E+04 -3.000876E+03  5.596469E+04  2.047938E+03 -1.993541E+03
       475   9  6.166528E+04  4.130311E+04 -1.680839E+03  5.794387E+04  1.017122E+03 -2.283709E+03
       475  10  1.140497E+05  7.812331E+04  8.097632E+03  8.491720E+04 -6.182973E-08 -4.417431E-08
       475  11  1.107783E+05  7.501740E+04  7.220699E+03  8.291165E+04 -2.352493E-08 -1.412979E-08
       475  12  1.068523E+05  7.299171E+04  7.112918E+03  8.114336E+04  1.312288E-08  1.178571E-08
       475  13  8.423871E+04  5.711218E+04  2.239680E+03  6.956970E+04 -4.192351E-09 -3.655119E-09
       475  14  8.457988E+04  5.659368E+04  2.109913E+03  6.943784E+04 -4.436006E-10  3.781595E-09
       475  15  8.425823E+04  5.714705E+04  2.715950E+03  6.954323E+04  1.082182E-09 -8.448023E-10
       475  16  5.442809E+04  3.610114E+04 -3.618534E+03  5.422274E+04  5.303903E-08  4.025850E-08
       475  17  5.838227E+04  3.817042E+04 -3.000891E+03  5.596470E+04  2.348693E-08  1.655995E-08
       475  18  6.166528E+04  4.130310E+04 -1.680851E+03  5.794387E+04 -1.169522E-08 -1.324955E-08
       475  19  1.140497E+05  7.812332E+04  8.097651E+03  8.491719E+04 -1.843274E+03  2.603654E+03
       475  20  1.107783E+05  7.501741E+04  7.220717E+03  8.291165E+04 -7.488988E+02  2.969419E+03
       475  21  1.068523E+05  7.299172E+04  7.112939E+03  8.114336E+04  3.588611E+02  3.317409E+03
       475  22  8.423871E+04  5.711219E+04  2.239700E+03  6.956970E+04 -2.454349E+03  2.144610E+03
       475  23  8.457988E+04  5.659369E+04  2.109928E+03  6.943784E+04 -1.398436E+03  2.481467E+03
       475  24  8.425824E+04  5.714706E+04  2.715965E+03  6.954323E+04 -3.291547E+02  2.800541E+03
       475  25  5.442810E+04  3.610115E+04 -3.618511E+03  5.422273E+04 -3.065398E+03  1.685586E+03
       475  26  5.838227E+04  3.817042E+04 -3.000876E+03  5.596469E+04 -2.047938E+03  1.993541E+03
       475  27  6.166528E+04  4.130311E+04 -1.680839E+03  5.794387E+04 -1.017122E+03  2.283709E+03
       476   1  1.045065E+05  7.164738E+04  7.254490E+03  8.006572E+04 -9.123707E+02 -3.442651E+03
       476   2  1.022387E+05  6.804090E+04  8.685463E+03  7.728111E+04 -3.349432E+03 -4.768362E+03
       476   3  1.002039E+05  6.664774E+04  1.232090E+04  7.431723E+04 -5.792995E+03 -6.085416E+03
       476   4  8.435881E+04  5.722675E+04  3.317838E+03  6.958091E+04 -2.240472E+02 -2.925546E+03
       476   5  8.479654E+04  5.710042E+04  5.440443E+03  6.893551E+04 -2.642322E+03 -4.237145E+03
       476   6  8.546309E+04  5.918337E+04  9.751219E+03  6.811080E+04 -5.067137E+03 -5.540122E+03
       476   7  6.421165E+04  4.280638E+04 -6.188282E+02  5.909649E+04  4.642473E+02 -2.408464E+03
       476   8  6.735449E+04  4.615995E+04  2.195348E+03  6.059006E+04 -1.935231E+03 -3.705940E+03
       476   9  7.072214E+04  5.171889E+04  7.181430E+03  6.190438E+04 -4.341285E+03 -4.994827E+03
       476  10  1.045064E+05  7.164736E+04  7.254467E+03  8.006572E+04  2.355060E-08  1.779326E-08
       476  11  1.022387E+05  6.804087E+04  8.685399E+03  7.728110E+04  7.507989E-09  5.449316E-09
       476  12  1.002039E+05  6.664769E+04  1.232077E+04  7.431720E+04 -1.972667E-08 -1.578407E-08
       476  13  8.435881E+04  5.722674E+04  3.317822E+03  6.958091E+04  3.804173E-09 -6.421907E-10
       476  14  8.479653E+04  5.710040E+04  5.440396E+03  6.893550E+04  8.187887E-09  1.875180E-09
       476  15  8.546305E+04  5.918333E+04  9.751113E+03  6.811078E+04  2.736245E-09  2.359998E-09
       476  16  6.421164E+04  4.280638E+04 -6.188395E+02  5.909649E+04 -1.614611E-08 -1.584333E-08
       476  17  6.735449E+04  4.615994E+04  2.195315E+03  6.059006E+04  9.830655E-09  5.746416E-09
       476  18  7.072211E+04  5.171886E+04  7.181348E+03  6.190437E+04  2.486693E-08  2.063763E-08
       476  19  1.045065E+05  7.164738E+04  7.254490E+03  8.006572E+04  9.123707E+02  3.442651E+03
       476  20  1.022387E+05  6.804090E+04  8.685463E+03  7.728111E+04  3.349432E+03  4.768362E+03
       476  21  1.002039E+05  6.664774E+04  1.232090E+04  7.431723E+04  5.792995E+03  6.085416E+03
       476  22  8.435881E+04  5.722675E+04  3.317838E+03  6.958091E+04  2.240472E+02  2.925546E+03
       476  23  8.479654E+04  5.710042E+04  5.440443E+03  6.893551E+04  2.642322E+03  4.237145E+03
       476  24  8.546309E+04  5.918337E+04  9.751219E+03  6.811080E+04  5.067137E+03  5.540122E+03
       476  25  6.421165E+04  4.280638E+04 -6.188282E+02  5.909649E+04 -4.642473E+02  2.408464E+03
       476  26  6.735449E+04  4.615995E+04  2.195348E+03  6.059006E+04  1.935231E+03  3.705940E+03
       476  27  7.072214E+04  5.171889E+04  7.181430E+03  6.190438E+04  4.341285E+03  4.994827E+03
       477   1  9.772603E+04  6.749906E+04  1.506356E+04  7.372615E+04 -7.285631E+03 -6.903842E+03
       477   2  1.100193E+05  5.568731E+04  2.522890E+04  6.128338E+04 -1.737679E+04 -1.391548E+04
       477   3  1.329482E+05  6.001252E+04  4.842268E+04  4.260735E+04 -2.750930E+04 -2.087175E+04
       477   4  8.662834E+04  6.024994E+04  1.293840E+04  6.828491E+04 -6.558807E+03 -6.357796E+03
       477   5  8.854756E+04  6.499527E+04  2.372598E+04  6.178398E+04 -1.653129E+04 -1.328094E+04
       477   6  1.010761E+05  8.585082E+04  4.743910E+04  4.904992E+04 -2.654484E+04 -2.014922E+04
       477   7  7.553103E+04  5.300104E+04  1.081331E+04  6.284389E+04 -5.832015E+03 -5.811773E+03
       477   8  6.707716E+04  7.430356E+04  2.222323E+04  6.228439E+04 -1.568585E+04 -1.264637E+04
       477   9  6.920724E+04  1.116912E+05  4.645602E+04  5.549164E+04 -2.558047E+04 -1.942662E+04
       477  10  9.772596E+04  6.749900E+04  1.506337E+04  7.372611E+04  2.172975E-09  2.078356E-10
       477  11  1.100189E+05  5.568702E+04  2.522796E+04  6.128318E+04  1.218761E-09  7.103410E-10
       477  12  1.329473E+05  6.001185E+04  4.842044E+04  4.260688E+04 -1.972543E-09 -2.523817E-09
       477  13  8.662829E+04  6.024989E+04  1.293824E+04  6.828488E+04  2.001086E-10  1.785996E-09
       477  14  8.854722E+04  6.499501E+04  2.372513E+04  6.178381E+04  1.353275E-10 -2.218232E-09
       477  15  1.010752E+05  8.585020E+04  4.743701E+04  4.904949E+04  1.618262E-10 -2.604046E-09
       477  16  7.553098E+04  5.300099E+04  1.081318E+04  6.284387E+04 -2.038843E-09  1.439257E-09
       477  17  6.707685E+04  7.430332E+04  2.222247E+04  6.228423E+04  8.865730E-10 -5.284946E-10
       477  18  6.920644E+04  1.116906E+05  4.645408E+04  5.549124E+04  2.629471E-09  9.179928E-10
       477  19  9.772603E+04  6.749906E+04  1.506356E+04  7.372615E+04  7.285631E+03  6.903842E+03
       477  20  1.100193E+05  5.568731E+04  2.522890E+04  6.128338E+04  1.737679E+04  1.391548E+04
       477  21  1.329482E+05  6.001252E+04  4.842268E+04  4.260735E+04  2.750930E+04  2.087175E+04
       477  22  8.662834E+04  6.024994E+04  1.293840E+04  6.828491E+04  6.558807E+03  6.357796E+03
       477  23  8.854756E+04  6.499527E+04  2.372598E+04  6.178398E+04  1.653129E+04  1.328094E+04
       477  24  1.010761E+05  8.585082E+04  4.743910E+04  4.904992E+04  2.654484E+04  2.014922E+04
       477  25  7.553103E+04  5.300104E+04  1.081331E+04  6.284389E+04  5.832015E+03  5.811773E+03
       477  26  6.707716E+04  7.430356E+04  2.222323E+04  6.228439E+04  1.568585E+04  1.264637E+04
       477  27  6.920724E+04  1.116912E+05  4.645602E+04  5.549164E+04  2.558047E+04  1.942662E+04
       478   1  7.690498E+04  2.375815E+04  2.237945E+04  2.626645E+04  6.277173E+03 -1.090013E+03
       478   2  5.493878E+04  1.860059E+04  1.442992E+04  2.490409E+04  1.807263E+03 -3.402197E+03
       478   3  3.359237E+04  1.361807E+04  9.433827E+03  2.722434E+04 -2.664182E+03 -3.459732E+03
       478   4 -2.515981E+04 -1.447169E+03 -1.595360E+03  2.719350E+04 -1.144673E+03 -1.096246E+03
       478   5 -2.504598E+04 -4.369050E+02 -7.791909E+02  2.535160E+04 -7.439300E+02 -3.404400E+03
       478   6 -2.515865E+04 -9.720959E+01 -3.918329E+02  2.719237E+04 -3.449562E+02 -3.457762E+03
       478   7 -1.272149E+05 -2.665319E+04 -2.557067E+04  2.812039E+04 -8.565307E+03 -1.102501E+03
       478   8 -1.050246E+05 -1.947477E+04 -1.598857E+04  2.579906E+04 -3.294802E+03 -3.406605E+03
       478   9 -8.390626E+04 -1.381266E+04 -1.021758E+04  2.716039E+04  1.974057E+03 -3.455792E+03
       478  10  7.690493E+04  2.375814E+04  2.237937E+04  2.626646E+04 -6.562167E-10  9.733158E-10
       478  11  5.493877E+04  1.860058E+04  1.442990E+04  2.490410E+04 -1.149572E-09  1.163461E-09
       478  12  3.359236E+04  1.361805E+04  9.433791E+03  2.722433E+04 -1.799526E-09  5.465806E-10
       478  13 -2.515981E+04 -1.447171E+03 -1.595364E+03  2.719350E+04 -1.860520E-11  2.355140E-09
       478  14 -2.504599E+04 -4.369176E+02 -7.792137E+02  2.535160E+04  1.834737E-10  7.525219E-10
       478  15 -2.515866E+04 -9.722246E+01 -3.918556E+02  2.719237E+04 -1.863321E-10 -6.488642E-11
       478  16 -1.272150E+05 -2.665322E+04 -2.557081E+04  2.812038E+04  4.733993E-10  6.551504E-10
       478  17 -1.050246E+05 -1.947479E+04 -1.598861E+04  2.579905E+04  1.625998E-09 -1.798566E-09
       478  18 -8.390627E+04 -1.381268E+04 -1.021761E+04  2.716040E+04  2.072348E-09 -4.519067E-10
       478  19  7.690498E+04  2.375815E+04  2.237945E+04  2.626645E+04 -6.277173E+03  1.090013E+03
       478  20  5.493878E+04  1.860059E+04  1.442992E+04  2.490409E+04 -1.807263E+03  3.402197E+03
       478  21  3.359237E+04  1.361807E+04  9.433827E+03  2.722434E+04  2.664182E+03  3.459732E+03
       478  22 -2.515981E+04 -1.447169E+03 -1.595360E+03  2.719350E+04  1.144673E+03  1.096246E+03
       478  23 -2.504598E+04 -4.369050E+02 -7.791909E+02  2.535160E+04  7.439300E+02  3.404400E+03
       478  24 -2.515865E+04 -9.720959E+01 -3.918329E+02  2.719237E+04  3.449562E+02  3.457762E+03
       478  25 -1.272149E+05 -2.665319E+04 -2.557067E+04  2.812039E+04  8.565307E+03  1.102501E+03
       478  26 -1.050246E+05 -1.947477E+04 -1.598857E+04  2.579906E+04  3.294802E+03  3.406605E+03
       478  27 -8.390626E+04 -1.381266E+04 -1.021758E+04  2.716039E+04 -1.974057E+03  3.455792E+03
       479   1  1.997086E+04  1.043390E+04  7.146294E+03  2.720518E+04 -2.652358E+03 -2.744768E+03
       479   2 -1.702941E+03  5.431035E+03  3.619063E+03  2.530068E+04 -3.129892E+03 -1.536331E+03
       479   3 -2.330973E+04  4.784705E+02  4.130107E+02  2.723973E+04 -3.607627E+03 -8.990539E+01
       479   4 -2.511303E+04 -6.568228E+01 -2.680948E+02  2.722821E+04 -2.982243E+02 -2.742747E+03
       479   5 -2.510167E+04  1.262427E+01 -7.407408E+01  2.530638E+04 -2.617267E+02 -1.533845E+03
       479   6 -2.511269E+04  5.209413E+01  8.423172E+01  2.722811E+04 -2.254382E+02 -8.695159E+01
       479   7 -7.019490E+04 -1.056537E+04 -7.682522E+03  2.725124E+04  2.055745E+03 -2.740725E+03
       479   8 -4.849984E+04 -5.405809E+03 -3.767193E+03  2.531208E+04  2.606334E+03 -1.531360E+03
       479   9 -2.691562E+04 -3.742762E+02 -2.445044E+02  2.721649E+04  3.156741E+03 -8.399791E+01
       479  10  1.997085E+04  1.043389E+04  7.146267E+03  2.720518E+04  8.505683E-09  1.428028E-09
       479  11 -1.702952E+03  5.431029E+03  3.619040E+03  2.530068E+04 -2.194580E-08 -1.500138E-09
       479  12 -2.330974E+04  4.784670E+02  4.129862E+02  2.723973E+04 -5.062411E-08 -4.920467E-10
       479  13 -2.511304E+04 -6.569038E+01 -2.681091E+02  2.722821E+04  1.363214E-10  7.455112E-10
       479  14 -2.510167E+04  1.262172E+01 -7.407863E+01  2.530638E+04  8.724919E-11  9.342042E-10
       479  15 -2.511269E+04  5.209411E+01  8.423161E+01  2.722811E+04 -2.067022E-10  8.900579E-11
       479  16 -7.019491E+04 -1.056538E+04 -7.682544E+03  2.725124E+04 -8.825494E-09  2.427805E-09
       479  17 -4.849985E+04 -5.405813E+03 -3.767211E+03  2.531208E+04  2.230062E-08 -1.682986E-09
       479  18 -2.691563E+04 -3.742789E+02 -2.445231E+02  2.721649E+04  5.054999E-08  3.716763E-11
       479  19  1.997086E+04  1.043390E+04  7.146294E+03  2.720518E+04  2.652358E+03  2.744768E+03
       479  20 -1.702941E+03  5.431035E+03  3.619063E+03  2.530068E+04  3.129892E+03  1.536331E+03
       479  21 -2.330973E+04  4.784705E+02  4.130107E+02  2.723973E+04  3.607627E+03  8.990539E+01
       479  22 -2.511303E+04 -6.568228E+01 -2.680948E+02  2.722821E+04  2.982243E+02  2.742747E+03
       479  23 -2.510167E+04  1.262427E+01 -7.407408E+01  2.530638E+04  2.617267E+02  1.533845E+03
       479  24 -2.511269E+04  5.209413E+01  8.423172E+01  2.722811E+04  2.254382E+02  8.695159E+01
       479  25 -7.019490E+04 -1.056537E+04 -7.682522E+03  2.725124E+04 -2.055745E+03  2.740725E+03
       479  26 -4.849984E+04 -5.405809E+03 -3.767193E+03  2.531208E+04 -2.606334E+03  1.531360E+03
       479  27 -2.691562E+04 -3.742762E+02 -2.445044E+02  2.721649E+04 -3.156741E+03  8.399791E+01
       480   1 -3.684789E+04 -2.642468E+03 -1.580093E+03  2.723832E+04 -3.629507E+03  8.426887E+02
       480   2 -5.846405E+04 -7.578474E+03 -4.741119E+03  2.522323E+04 -3.251373E+03  2.275655E+03
       480   3 -8.012696E+04 -1.247490E+04 -8.140770E+03  2.704975E+04 -2.873011E+03  3.442441E+03
       480   4 -2.509605E+04  5.766701E+01  1.684577E+02  2.722770E+04 -2.477606E+02  8.456392E+02
       480   5 -2.512259E+04  1.166352E+02  3.905637E+02  2.530679E+04 -4.445945E+02  2.278075E+03
       480   6 -2.509653E+04  3.150217E+02  7.733179E+02  2.722748E+04 -6.411883E+02  3.444339E+03
       480   7 -1.334405E+04  2.757802E+03  1.917049E+03  2.721708E+04  3.134047E+03  8.485896E+02
       480   8  8.219992E+03  7.811694E+03  5.522251E+03  2.539036E+04  2.362329E+03  2.280496E+03
       480   9  2.993691E+04  1.310479E+04  9.687341E+03  2.740522E+04  1.590826E+03  3.446238E+03
       480  10 -3.684790E+04 -2.642473E+03 -1.580119E+03  2.723833E+04  5.471683E-08 -1.071122E-09
       480  11 -5.846407E+04 -7.578482E+03 -4.741149E+03  2.522324E+04  2.121343E-08  9.366231E-10
       480  12 -8.012697E+04 -1.247491E+04 -8.140808E+03  2.704976E+04 -1.424742E-08  3.175651E-10
       480  13 -2.509605E+04  5.766623E+01  1.684563E+02  2.722770E+04  4.206554E-12 -4.018708E-09
       480  14 -2.512260E+04  1.166296E+02  3.905535E+02  2.530679E+04  1.941539E-10  1.105795E-09
       480  15 -2.509654E+04  3.150088E+02  7.732948E+02  2.722748E+04 -4.004834E-10  7.127919E-11
       480  16 -1.334407E+04  2.757799E+03  1.917029E+03  2.721707E+04 -5.506988E-08 -2.347673E-09
       480  17  8.219985E+03  7.811687E+03  5.522231E+03  2.539035E+04 -2.098475E-08 -2.981357E-09
       480  18  2.993691E+04  1.310478E+04  9.687314E+03  2.740522E+04  1.431051E-08  1.535005E-09
       480  19 -3.684789E+04 -2.642468E+03 -1.580093E+03  2.723832E+04  3.629507E+03 -8.426887E+02
       480  20 -5.846405E+04 -7.578474E+03 -4.741119E+03  2.522323E+04  3.251373E+03 -2.275655E+03
       480  21 -8.012696E+04 -1.247490E+04 -8.140770E+03  2.704975E+04  2.873011E+03 -3.442441E+03
       480  22 -2.509605E+04  5.766701E+01  1.684577E+02  2.722770E+04  2.477606E+02 -8.456392E+02
       480  23 -2.512259E+04  1.166352E+02  3.905637E+02  2.530679E+04  4.445945E+02 -2.278075E+03
       480  24 -2.509653E+04  3.150217E+02  7.733179E+02  2.722748E+04  6.411883E+02 -3.444339E+03
       480  25 -1.334405E+04  2.757802E+03  1.917049E+03  2.721708E+04 -3.134047E+03 -8.485896E+02
       480  26  8.219992E+03  7.811695E+03  5.522251E+03  2.539036E+04 -2.362329E+03 -2.280496E+03
       480  27  2.993691E+04  1.310479E+04  9.687341E+03  2.740522E+04 -1.590826E+03 -3.446238E+03
       481   1 -9.369744E+04 -1.562435E+04 -1.031913E+04  2.711957E+04 -2.969497E+03  4.131599E+03
       481   2 -1.151591E+05 -2.016597E+04 -1.501647E+04  2.406653E+04  1.351060E+03  3.919972E+03
       481   3 -1.370028E+05 -2.396136E+04 -2.234158E+04  2.467867E+04  5.673304E+03  1.246234E+03
       481   4 -2.498843E+04  3.914784E+02  1.045671E+03  2.718847E+04 -7.758985E+02  4.133440E+03
       481   5 -2.525928E+04  1.211302E+03  1.949987E+03  2.535454E+04 -1.772747E+03  3.917291E+03
       481   6 -2.498967E+04  3.700456E+03  3.919363E+03  2.718570E+04 -2.767675E+03  1.239214E+03
       481   7  4.372524E+04  1.640706E+04  1.241035E+04  2.725737E+04  1.417934E+03  4.135280E+03
       481   8  6.464839E+04  2.258812E+04  1.891612E+04  2.664272E+04 -4.896995E+03  3.914597E+03
       481   9  8.703519E+04  3.136144E+04  3.017972E+04  2.969317E+04 -1.121017E+04  1.232125E+03
       481  10 -9.369745E+04 -1.562437E+04 -1.031918E+04  2.711958E+04  1.459324E-09  1.196820E-09
       481  11 -1.151591E+05 -2.016599E+04 -1.501650E+04  2.406653E+04  1.991029E-09  7.035359E-10
       481  12 -1.370028E+05 -2.396137E+04 -2.234165E+04  2.467867E+04  2.390587E-09  1.758229E-09
       481  13 -2.498844E+04  3.914599E+02  1.045638E+03  2.718847E+04 -6.822019E-11  9.267861E-10
       481  14 -2.525928E+04  1.211284E+03  1.949952E+03  2.535454E+04  3.492937E-10  1.105579E-09
       481  15 -2.498968E+04  3.700452E+03  3.919345E+03  2.718570E+04 -1.632664E-10  1.555934E-09
       481  16  4.372524E+04  1.640704E+04  1.241032E+04  2.725736E+04 -1.665125E-09  1.653691E-09
       481  17  6.464836E+04  2.258809E+04  1.891605E+04  2.664274E+04 -1.754023E-09  1.144917E-09
       481  18  8.703506E+04  3.136141E+04  3.017948E+04  2.969318E+04 -2.428591E-09 -1.097757E-10
       481  19 -9.369744E+04 -1.562435E+04 -1.031913E+04  2.711957E+04  2.969497E+03 -4.131599E+03
       481  20 -1.151591E+05 -2.016597E+04 -1.501647E+04  2.406653E+04 -1.351060E+03 -3.919972E+03
       481  21 -1.370028E+05 -2.396136E+04 -2.234158E+04  2.467867E+04 -5.673304E+03 -1.246234E+03
       481  22 -2.498843E+04  3.914784E+02  1.045671E+03  2.718847E+04  7.758985E+02 -4.133440E+03
       481  23 -2.525928E+04  1.211302E+03  1.949987E+03  2.535454E+04  1.772747E+03 -3.917291E+03
       481  24 -2.498967E+04  3.700456E+03  3.919363E+03  2.718570E+04  2.767675E+03 -1.239214E+03
       481  25  4.372524E+04  1.640706E+04  1.241035E+04  2.725737E+04 -1.417934E+03 -4.135280E+03
       481  26  6.464839E+04  2.258812E+04  1.891612E+04  2.664272E+04  4.896995E+03 -3.914597E+03
       481  27  8.703519E+04  3.136144E+04  3.017972E+04  2.969317E+04  1.121017E+04 -1.232125E+03
       482   1 -5.783269E+04 -2.694638E+05 -5.744080E+04  7.504401E+04 -1.413851E+03 -2.299571E+04
       482   2 -3.213802E+04 -2.174954E+05 -3.151690E+04  6.475015E+04 -4.015936E+03 -1.024391E+04
       482   3 -1.603529E+04 -1.695659E+05 -1.629347E+04  6.307404E+04 -3.027487E+03  2.512077E+03
       482   4 -1.816773E+04 -1.093166E+05 -1.940045E+04  6.289482E+04 -1.419854E+03 -1.352020E+04
       482   5 -5.871577E+03 -1.079670E+05 -9.784171E+03  5.859146E+04 -4.016935E+03 -8.520556E+03
       482   6 -1.820166E+03 -1.093121E+05 -5.482588E+03  6.290633E+04 -3.023528E+03 -3.517919E+03
       482   7  2.149598E+04  5.085471E+04  1.863853E+04  5.074249E+04 -1.426227E+03 -4.042264E+03
       482   8  2.039428E+04  1.573041E+03  1.194799E+04  5.243167E+04 -4.017968E+03 -6.796904E+03
       482   9  1.239477E+04 -4.905464E+04  5.328296E+03  6.273860E+04 -3.019567E+03 -9.548485E+03
       482  10 -5.783283E+04 -2.694644E+05 -5.744180E+04  7.504398E+04  5.496776E-11 -4.572605E-10
       482  11 -3.213806E+04 -2.174955E+05 -3.151713E+04  6.475012E+04  5.329298E-11  3.660615E-10
       482  12 -1.603530E+04 -1.695659E+05 -1.629350E+04  6.307404E+04  6.582983E-11 -3.867988E-11
       482  13 -1.816778E+04 -1.093168E+05 -1.940080E+04  6.289481E+04  4.450405E-10  1.014229E-10
       482  14 -5.871614E+03 -1.079670E+05 -9.784338E+03  5.859144E+04 -8.937053E-10  4.139721E-09
       482  15 -1.820179E+03 -1.093121E+05 -5.482628E+03  6.290632E+04  3.118691E-10  2.167301E-10
       482  16  2.149598E+04  5.085469E+04  1.863850E+04  5.074249E+04 -8.075305E-11  1.905652E-10
       482  17  2.039425E+04  1.572987E+03  1.194788E+04  5.243165E+04 -3.734098E-10  8.774171E-10
       482  18  1.239474E+04 -4.905474E+04  5.328108E+03  6.273858E+04  2.273035E-10 -3.337118E-09
       482  19 -5.783269E+04 -2.694638E+05 -5.744080E+04  7.504401E+04  1.413851E+03  2.299571E+04
       482  20 -3.213802E+04 -2.174954E+05 -3.151690E+04  6.475015E+04  4.015936E+03  1.024391E+04
       482  21 -1.603529E+04 -1.695659E+05 -1.629347E+04  6.307404E+04  3.027487E+03 -2.512077E+03
       482  22 -1.816773E+04 -1.093166E+05 -1.940045E+04  6.289482E+04  1.419854E+03  1.352020E+04
       482  23 -5.871577E+03 -1.079670E+05 -9.784171E+03  5.859146E+04  4.016935E+03  8.520556E+03
       482  24 -1.820166E+03 -1.093121E+05 -5.482588E+03  6.290633E+04  3.023528E+03  3.517919E+03
       482  25  2.149598E+04  5.085471E+04  1.863853E+04  5.074249E+04  1.426227E+03  4.042264E+03
       482  26  2.039428E+04  1.573041E+03  1.194799E+04  5.243167E+04  4.017968E+03  6.796904E+03
       482  27  1.239477E+04 -4.905464E+04  5.328296E+03  6.273860E+04  3.019567E+03  9.548485E+03
       483   1 -8.295041E+03 -1.375846E+05 -9.711439E+03  6.371054E+04 -1.239928E+03  3.288287E+03
       483   2  4.296115E+03 -8.747370E+04  4.208541E+02  5.874215E+04  1.520565E+03  4.421677E+03
       483   3  1.603740E+04 -3.770287E+04  9.607294E+03  6.262063E+04  4.174404E+03  5.555104E+03
       483   4 -1.444203E+03 -1.087978E+05 -4.254086E+03  6.295619E+04 -1.235985E+03 -2.790315E+03
       483   5 -5.589295E+02 -1.086068E+05 -2.720617E+03  5.853303E+04  1.524400E+03 -1.426763E+03
       483   6 -5.633801E+02 -1.087984E+05 -2.292850E+03  6.295680E+04  4.178129E+03 -6.325761E+01
       483   7  5.406608E+03 -8.001005E+04  1.203369E+03  6.220180E+04 -1.232028E+03 -8.869191E+03
       483   8 -5.413977E+03 -1.297395E+05 -5.861969E+03  5.832391E+04  1.528238E+03 -7.275012E+03
       483   9 -1.716441E+04 -1.798888E+05 -1.419303E+04  6.329293E+04  4.181847E+03 -5.680997E+03
       483  10 -8.295045E+03 -1.375846E+05 -9.711462E+03  6.371055E+04  7.978950E-11  1.739920E-10
       483  11  4.296107E+03 -8.747372E+04  4.208130E+02  5.874214E+04  4.641954E-10 -4.240776E-10
       483  12  1.603737E+04 -3.770291E+04  9.607203E+03  6.262061E+04 -7.392323E-11 -3.315392E-10
       483  13 -1.444207E+03 -1.087978E+05 -4.254104E+03  6.295619E+04  3.900585E-10  1.083926E-09
       483  14 -5.589325E+02 -1.086069E+05 -2.720626E+03  5.853303E+04  1.063149E-09  3.563388E-09
       483  15 -5.633988E+02 -1.087984E+05 -2.292882E+03  6.295680E+04  7.162067E-10  1.399488E-09
       483  16  5.406586E+03 -8.001013E+04  1.203218E+03  6.220179E+04  4.770548E-10 -3.143575E-10
       483  17 -5.413993E+03 -1.297395E+05 -5.862073E+03  5.832392E+04 -2.533235E-10  8.394295E-10
       483  18 -1.716444E+04 -1.798889E+05 -1.419313E+04  6.329295E+04  4.565612E-11 -1.655421E-09
       483  19 -8.295041E+03 -1.375846E+05 -9.711439E+03  6.371054E+04  1.239928E+03 -3.288287E+03
       483  20  4.296115E+03 -8.747370E+04  4.208541E+02  5.874215E+04 -1.520565E+03 -4.421677E+03
       483  21  1.603740E+04 -3.770287E+04  9.607294E+03  6.262063E+04 -4.174404E+03 -5.555104E+03
       483  22 -1.444203E+03 -1.087978E+05 -4.254086E+03  6.295619E+04  1.235985E+03  2.790315E+03
       483  23 -5.589295E+02 -1.086068E+05 -2.720617E+03  5.853303E+04 -1.524400E+03  1.426763E+03
       483  24 -5.633801E+02 -1.087984E+05 -2.292850E+03  6.295680E+04 -4.178129E+03  6.325761E+01
       483  25  5.406608E+03 -8.001005E+04  1.203369E+03  6.220180E+04  1.232028E+03  8.869191E+03
       483  26 -5.413977E+03 -1.297395E+05 -5.861969E+03  5.832391E+04 -1.528238E+03  7.275012E+03
       483  27 -1.716441E+04 -1.798888E+05 -1.419303E+04  6.329293E+04 -4.181847E+03  5.680997E+03
       484   1  2.334805E+04 -6.278733E+03  1.503730E+04  6.277329E+04  5.864616E+03  5.858154E+03
       484   2  3.441242E+04  4.325185E+04  2.601134E+04  5.671600E+04  6.200955E+03 -2.184749E+03
       484   3  4.469834E+04  9.365565E+04  4.203056E+04  5.920855E+04  2.056622E+03 -1.023193E+04
       484   4 -6.570394E+02 -1.088942E+05 -2.365709E+03  6.289104E+04  5.868381E+03  3.037369E+02
       484   5 -1.784496E+03 -1.084923E+05 -3.208693E+03  5.861432E+04  6.198240E+03  1.939699E+03
       484   6 -5.370678E+03 -1.088994E+05 -5.727969E+03  6.288768E+04  2.046876E+03  3.571897E+03
       484   7 -2.466267E+04 -2.114991E+05 -1.976894E+04  6.300877E+04  5.872144E+03 -5.249791E+03
       484   8 -3.798276E+04 -2.602143E+05 -3.242972E+04  6.051217E+04  6.195551E+03  6.063162E+03
       484   9 -5.544248E+04 -3.114163E+05 -5.348861E+04  6.656560E+04  2.037293E+03  1.737125E+04
       484  10  2.334800E+04 -6.278779E+03  1.503717E+04  6.277326E+04 -2.330899E-10 -8.168278E-10
       484  11  3.441238E+04  4.325184E+04  2.601126E+04  5.671601E+04 -1.225737E-10  6.834322E-10
       484  12  4.469831E+04  9.365553E+04  4.203036E+04  5.920857E+04 -2.866987E-10 -1.228131E-10
       484  13 -6.570764E+02 -1.088942E+05 -2.365774E+03  6.289104E+04 -4.076652E-10  2.165294E-09
       484  14 -1.784539E+03 -1.084923E+05 -3.208772E+03  5.861431E+04  6.869357E-11  5.104361E-09
       484  15 -5.370686E+03 -1.088994E+05 -5.728001E+03  6.288767E+04 -3.417058E-10  2.137791E-09
       484  16 -2.466271E+04 -2.114992E+05 -1.976906E+04  6.300879E+04  3.039130E-10  7.042853E-10
       484  17 -3.798281E+04 -2.602143E+05 -3.242986E+04  6.051214E+04  1.359901E-10  2.357289E-10
       484  18 -5.544257E+04 -3.114166E+05 -5.348918E+04  6.656557E+04 -1.489997E-10 -2.378300E-09
       484  19  2.334805E+04 -6.278733E+03  1.503730E+04  6.277329E+04 -5.864616E+03 -5.858154E+03
       484  20  3.441242E+04  4.325185E+04  2.601134E+04  5.671600E+04 -6.200955E+03  2.184749E+03
       484  21  4.469834E+04  9.365565E+04  4.203056E+04  5.920855E+04 -2.056622E+03  1.023193E+04
       484  22 -6.570394E+02 -1.088942E+05 -2.365709E+03  6.289104E+04 -5.868381E+03 -3.037369E+02
       484  23 -1.784496E+03 -1.084923E+05 -3.208693E+03  5.861432E+04 -6.198240E+03 -1.939699E+03
       484  24 -5.370678E+03 -1.088994E+05 -5.727969E+03  6.288768E+04 -2.046876E+03 -3.571897E+03
       484  25 -2.466267E+04 -2.114991E+05 -1.976894E+04  6.300877E+04 -5.872144E+03  5.249791E+03
       484  26 -3.798276E+04 -2.602143E+05 -3.242972E+04  6.051217E+04 -6.195551E+03 -6.063162E+03
       484  27 -5.544248E+04 -3.114163E+05 -5.348861E+04  6.656560E+04 -2.037293E+03 -1.737125E+04
       485   1  5.506103E+04  6.343069E+04  2.411128E+04  3.916918E+04  1.297784E+04  9.585681E+03
       485   2  5.473362E+04  4.692408E+04  1.254760E+04  4.278336E+04  8.337013E+03  5.714748E+03
       485   3  5.956283E+04  3.764953E+04  7.233636E+03  4.348331E+04  3.562078E+03  2.022143E+03
       485   4  6.045681E+04  4.508147E+04  2.169812E+04  3.164995E+04  1.225478E+04  9.042048E+03
       485   5  5.461619E+04  3.565213E+04  1.086200E+04  3.750589E+04  7.998971E+03  5.460656E+03
       485   6  5.384839E+04  3.337125E+04  5.941001E+03  4.044759E+04  3.609227E+03  2.057561E+03
       485   7  6.585305E+04  2.673266E+04  1.928499E+04  2.413053E+04  1.153169E+04  8.498443E+03
       485   8  5.449884E+04  2.438046E+04  9.176422E+03  3.222846E+04  7.660929E+03  5.206575E+03
       485   9  4.813412E+04  2.909309E+04  4.648412E+03  3.741197E+04  3.656375E+03  2.092979E+03
       485  10  5.506083E+04  6.343055E+04  2.411079E+04  3.916908E+04 -3.017238E-11 -9.601577E-10
       485  11  5.473354E+04  4.692403E+04  1.254741E+04  4.278332E+04  7.660377E-10 -1.987422E-09
       485  12  5.956281E+04  3.764952E+04  7.233604E+03  4.348330E+04  1.703988E-09 -2.012285E-09
       485  13  6.045663E+04  4.508134E+04  2.169768E+04  3.164986E+04  8.845485E-11 -2.254968E-09
       485  14  5.461611E+04  3.565209E+04  1.086183E+04  3.750586E+04 -1.037910E-09  1.766106E-10
       485  15  5.384837E+04  3.337124E+04  5.940969E+03  4.044758E+04  5.975706E-10  6.559843E-10
       485  16  6.585288E+04  2.673255E+04  1.928460E+04  2.413045E+04 -3.777189E-10  4.625482E-10
       485  17  5.449877E+04  2.438042E+04  9.176260E+03  3.222842E+04 -2.304343E-10  6.965468E-10
       485  18  4.813410E+04  2.909309E+04  4.648379E+03  3.741196E+04 -8.638024E-10 -2.730981E-09
       485  19  5.506103E+04  6.343069E+04  2.411128E+04  3.916918E+04 -1.297784E+04 -9.585681E+03
       485  20  5.473362E+04  4.692408E+04  1.254760E+04  4.278336E+04 -8.337013E+03 -5.714748E+03
       485  21  5.956283E+04  3.764953E+04  7.233636E+03  4.348331E+04 -3.562078E+03 -2.022143E+03
       485  22  6.045681E+04  4.508147E+04  2.169812E+04  3.164995E+04 -1.225478E+04 -9.042048E+03
       485  23  5.461619E+04  3.565213E+04  1.086200E+04  3.750589E+04 -7.998971E+03 -5.460656E+03
       485  24  5.384839E+04  3.337125E+04  5.941001E+03  4.044759E+04 -3.609227E+03 -2.057561E+03
       485  25  6.585305E+04  2.673266E+04  1.928499E+04  2.413053E+04 -1.153169E+04 -8.498443E+03
       485  26  5.449884E+04  2.438046E+04  9.176422E+03  3.222846E+04 -7.660929E+03 -5.206575E+03
       485  27  4.813412E+04  2.909309E+04  4.648412E+03  3.741197E+04 -3.656375E+03 -2.092979E+03
       486   1  5.786891E+04  3.742258E+04  5.637971E+03  4.332334E+04  2.924732E+03  1.574197E+03
       486   2  5.705339E+04  3.555934E+04  3.466059E+03  4.318941E+04  1.834640E+03  8.082812E+02
       486   3  5.655828E+04  3.451663E+04  2.354504E+03  4.291602E+04  7.283766E+02  6.389531E+01
       486   4  5.331183E+04  3.288741E+04  4.492109E+03  4.036966E+04  2.974659E+03  1.611699E+03
       486   5  5.290394E+04  3.203433E+04  2.546515E+03  4.077589E+04  1.931093E+03  8.807392E+02
       486   6  5.280637E+04  3.199169E+04  1.620889E+03  4.104266E+04  8.713425E+02  1.712987E+02
       486   7  4.875477E+04  2.835228E+04  3.346244E+03  3.741601E+04  3.024587E+03  1.649200E+03
       486   8  4.875446E+04  2.850929E+04  1.626951E+03  3.836235E+04  2.027546E+03  9.531973E+02
       486   9  4.905438E+04  2.946670E+04  8.872432E+02  3.916926E+04  1.014311E+03  2.787038E+02
       486  10  5.786890E+04  3.742257E+04  5.637951E+03  4.332333E+04 -9.021369E-10 -8.583297E-10
       486  11  5.705339E+04  3.555934E+04  3.466052E+03  4.318941E+04  7.053553E-10 -9.003367E-10
       486  12  5.655828E+04  3.451663E+04  2.354503E+03  4.291602E+04  2.388500E-09 -5.762600E-10
       486  13  5.331182E+04  3.288741E+04  4.492088E+03  4.036966E+04  8.241721E-10  3.579096E-09
       486  14  5.290394E+04  3.203433E+04  2.546507E+03  4.077588E+04  4.860142E-10  6.171708E-10
       486  15  5.280637E+04  3.199169E+04  1.620887E+03  4.104266E+04  4.898671E-10  1.652758E-09
       486  16  4.875476E+04  2.835227E+04  3.346222E+03  3.741600E+04  2.095332E-09  2.171051E-10
       486  17  4.875446E+04  2.850929E+04  1.626942E+03  3.836235E+04 -8.255319E-10 -5.210121E-10
       486  18  4.905438E+04  2.946670E+04  8.872411E+02  3.916926E+04 -1.793448E-09 -6.280138E-10
       486  19  5.786891E+04  3.742258E+04  5.637971E+03  4.332334E+04 -2.924732E+03 -1.574197E+03
       486  20  5.705339E+04  3.555934E+04  3.466059E+03  4.318941E+04 -1.834640E+03 -8.082812E+02
       486  21  5.655828E+04  3.451663E+04  2.354504E+03  4.291602E+04 -7.283766E+02 -6.389531E+01
       486  22  5.331183E+04  3.288741E+04  4.492109E+03  4.036966E+04 -2.974659E+03 -1.611699E+03
       486  23  5.290394E+04  3.203433E+04  2.546515E+03  4.077589E+04 -1.931093E+03 -8.807392E+02
       486  24  5.280637E+04  3.199169E+04  1.620889E+03  4.104266E+04 -8.713425E+02 -1.712987E+02
       486  25  4.875477E+04  2.835228E+04  3.346244E+03  3.741601E+04 -3.024587E+03 -1.649200E+03
       486  26  4.875446E+04  2.850929E+04  1.626951E+03  3.836235E+04 -2.027546E+03 -9.531973E+02
       486  27  4.905438E+04  2.946670E+04  8.872432E+02  3.916926E+04 -1.014311E+03 -2.787038E+02
       487   1  5.591546E+04  3.420346E+04  2.003869E+03  4.266215E+04  4.921222E+02 -5.194870E+01
       487   2  5.515127E+04  3.345512E+04  1.663094E+03  4.220943E+04 -3.959727E+01 -3.463872E+02
       487   3  5.430732E+04  3.302159E+04  1.745520E+03  4.180578E+04 -5.725047E+02 -6.392187E+02
       487   4  5.276207E+04  3.195684E+04  1.379071E+03  4.102782E+04  6.354106E+02  5.569718E+01
       487   5  5.280383E+04  3.180245E+04  1.204903E+03  4.100132E+04  1.071446E+02 -2.361477E+02
       487   6  5.276506E+04  3.196211E+04  1.450935E+03  4.102388E+04 -4.223160E+02 -5.263899E+02
       487   7  4.960876E+04  2.971028E+04  7.542991E+02  3.939353E+04  7.786948E+02  1.633398E+02
       487   8  5.045643E+04  3.014980E+04  7.467225E+02  3.979323E+04  2.538839E+02 -1.259101E+02
       487   9  5.122281E+04  3.090263E+04  1.156351E+03  4.024200E+04 -2.721279E+02 -4.135615E+02
       487  10  5.591546E+04  3.420346E+04  2.003868E+03  4.266215E+04 -1.148727E-09 -4.424100E-09
       487  11  5.515127E+04  3.345512E+04  1.663094E+03  4.220943E+04  6.254561E-09  3.278718E-09
       487  12  5.430732E+04  3.302159E+04  1.745519E+03  4.180578E+04  6.225262E-09  4.570759E-09
       487  13  5.276207E+04  3.195684E+04  1.379070E+03  4.102782E+04  8.481788E-10  2.265386E-09
       487  14  5.280383E+04  3.180245E+04  1.204903E+03  4.100132E+04 -1.088185E-09 -6.120736E-09
       487  15  5.276506E+04  3.196211E+04  1.450934E+03  4.102388E+04 -8.080217E-09 -3.778271E-09
       487  16  4.960876E+04  2.971028E+04  7.542979E+02  3.939353E+04  3.520317E-09  3.063487E-09
       487  17  5.045643E+04  3.014980E+04  7.467224E+02  3.979323E+04 -7.903983E-09 -4.927134E-09
       487  18  5.122281E+04  3.090263E+04  1.156350E+03  4.024200E+04 -2.279513E-08 -1.442804E-08
       487  19  5.591546E+04  3.420346E+04  2.003869E+03  4.266215E+04 -4.921222E+02  5.194870E+01
       487  20  5.515127E+04  3.345512E+04  1.663094E+03  4.220943E+04  3.959727E+01  3.463872E+02
       487  21  5.430732E+04  3.302159E+04  1.745520E+03  4.180578E+04  5.725047E+02  6.392187E+02
       487  22  5.276207E+04  3.195684E+04  1.379071E+03  4.102782E+04 -6.354106E+02 -5.569718E+01
       487  23  5.280383E+04  3.180245E+04  1.204903E+03  4.100132E+04 -1.071446E+02  2.361477E+02
       487  24  5.276506E+04  3.196211E+04  1.450935E+03  4.102388E+04  4.223160E+02  5.263899E+02
       487  25  4.960876E+04  2.971028E+04  7.542991E+02  3.939353E+04 -7.786948E+02 -1.633398E+02
       487  26  5.045643E+04  3.014980E+04  7.467225E+02  3.979323E+04 -2.538839E+02  1.259101E+02
       487  27  5.122281E+04  3.090263E+04  1.156351E+03  4.024200E+04  2.721279E+02  4.135615E+02
       488   1  5.375263E+04  3.278938E+04  1.923747E+03  4.158606E+04 -8.219367E+02 -7.626772E+02
       488   2  5.349878E+04  3.180188E+04  2.800105E+03  4.073892E+04 -1.965229E+03 -1.519291E+03
       488   3  5.360081E+04  3.168493E+04  4.777003E+03  3.973167E+04 -3.102396E+03 -2.284108E+03
       488   4  5.281477E+04  3.200136E+04  1.735316E+03  4.104147E+04 -6.718398E+02 -6.499166E+02
       488   5  5.291378E+04  3.205832E+04  2.780707E+03  4.075023E+04 -1.832829E+03 -1.419827E+03
       488   6  5.337252E+04  3.298971E+04  4.942022E+03  4.029890E+04 -2.987669E+03 -2.197926E+03
       488   7  5.187689E+04  3.121331E+04  1.546877E+03  4.049687E+04 -5.217398E+02 -5.371538E+02
       488   8  5.232877E+04  3.231476E+04  2.761308E+03  4.076154E+04 -1.700429E+03 -1.320363E+03
       488   9  5.314424E+04  3.429446E+04  5.107038E+03  4.086612E+04 -2.872944E+03 -2.111746E+03
       488  10  5.375263E+04  3.278938E+04  1.923745E+03  4.158606E+04 -1.141750E-08 -8.330029E-09
       488  11  5.349878E+04  3.180188E+04  2.800094E+03  4.073892E+04 -1.202865E-08 -4.093917E-09
       488  12  5.360080E+04  3.168493E+04  4.776975E+03  3.973167E+04 -1.233153E-08 -3.473515E-09
       488  13  5.281477E+04  3.200136E+04  1.735315E+03  4.104147E+04 -1.131607E-08 -6.777433E-09
       488  14  5.291377E+04  3.205832E+04  2.780697E+03  4.075023E+04 -1.228209E-08 -5.256655E-09
       488  15  5.337251E+04  3.298970E+04  4.941996E+03  4.029890E+04 -1.141954E-08 -8.434632E-09
       488  16  5.187689E+04  3.121331E+04  1.546876E+03  4.049687E+04 -1.156425E-08 -4.611763E-09
       488  17  5.232877E+04  3.231476E+04  2.761299E+03  4.076153E+04 -1.282744E-08 -8.370499E-09
       488  18  5.314422E+04  3.429445E+04  5.107014E+03  4.086611E+04 -1.140105E-08 -1.257119E-08
       488  19  5.375263E+04  3.278938E+04  1.923747E+03  4.158606E+04  8.219367E+02  7.626772E+02
       488  20  5.349878E+04  3.180188E+04  2.800105E+03  4.073892E+04  1.965229E+03  1.519291E+03
       488  21  5.360081E+04  3.168493E+04  4.777003E+03  3.973167E+04  3.102396E+03  2.284108E+03
       488  22  5.281477E+04  3.200136E+04  1.735316E+03  4.104147E+04  6.718398E+02  6.499166E+02
       488  23  5.291378E+04  3.205832E+04  2.780707E+03  4.075023E+04  1.832829E+03  1.419827E+03
       488  24  5.337252E+04  3.298971E+04  4.942022E+03  4.029890E+04  2.987669E+03  2.197926E+03
       488  25  5.187689E+04  3.121331E+04  1.546877E+03  4.049687E+04  5.217398E+02  5.371538E+02
       488  26  5.232877E+04  3.231476E+04  2.761308E+03  4.076154E+04  1.700429E+03  1.320363E+03
       488  27  5.314424E+04  3.429446E+04  5.107038E+03  4.086612E+04  2.872944E+03  2.111746E+03
       489   1  5.297667E+04  3.255129E+04  6.260535E+03  3.975652E+04 -3.808349E+03 -2.762257E+03
       489   2  6.007686E+04  2.741965E+04  1.145000E+04  3.405243E+04 -8.569984E+03 -6.311746E+03
       489   3  7.275205E+04  3.013862E+04  2.303625E+04  2.512874E+04 -1.327911E+04 -9.931120E+03
       489   4  5.396255E+04  3.352637E+04  6.546099E+03  4.038600E+04 -3.694779E+03 -2.676940E+03
       489   5  5.480634E+04  3.604792E+04  1.198520E+04  3.713989E+04 -8.607513E+03 -6.340101E+03
       489   6  6.125779E+04  4.645282E+04  2.395232E+04  3.067415E+04 -1.346772E+04 -1.007331E+04
       489   7  5.494842E+04  3.450145E+04  6.831664E+03  4.101547E+04 -3.581210E+03 -2.591622E+03
       489   8  4.953588E+04  4.467651E+04  1.252044E+04  4.022735E+04 -8.645042E+03 -6.368458E+03
       489   9  4.976379E+04  6.276819E+04  2.486853E+04  3.621956E+04 -1.365633E+04 -1.021551E+04
       489  10  5.297666E+04  3.255128E+04  6.260493E+03  3.975651E+04  2.250724E-09  8.603415E-09
       489  11  6.007677E+04  2.741959E+04  1.144979E+04  3.405238E+04  1.268969E-09  5.708126E-09
       489  12  7.275184E+04  3.013847E+04  2.303574E+04  2.512863E+04 -1.447909E-08 -8.055933E-09
       489  13  5.396253E+04  3.352636E+04  6.546060E+03  4.038599E+04 -4.680341E-09 -2.724445E-09
       489  14  5.480625E+04  3.604785E+04  1.198498E+04  3.713984E+04  8.221363E-09  6.532803E-09
       489  15  6.125757E+04  4.645266E+04  2.395179E+04  3.067404E+04  4.051358E-09  3.254088E-09
       489  16  5.494841E+04  3.450144E+04  6.831627E+03  4.101547E+04 -1.210990E-08 -1.357549E-08
       489  17  4.953579E+04  4.467644E+04  1.252022E+04  4.022731E+04  1.406849E-08  6.006981E-09
       489  18  4.976356E+04  6.276803E+04  2.486798E+04  3.621944E+04  2.327996E-08  1.463808E-08
       489  19  5.297667E+04  3.255129E+04  6.260535E+03  3.975652E+04  3.808349E+03  2.762257E+03
       489  20  6.007686E+04  2.741965E+04  1.145000E+04  3.405243E+04  8.569984E+03  6.311746E+03
       489  21  7.275205E+04  3.013862E+04  2.303625E+04  2.512874E+04  1.327911E+04  9.931120E+03
       489  22  5.396255E+04  3.352637E+04  6.546099E+03  4.038600E+04  3.694779E+03  2.676940E+03
       489  23  5.480634E+04  3.604792E+04  1.198520E+04  3.713989E+04  8.607513E+03  6.340101E+03
       489  24  6.125779E+04  4.645282E+04  2.395232E+04  3.067415E+04  1.346772E+04  1.007331E+04
       489  25  5.494842E+04  3.450145E+04  6.831664E+03  4.101547E+04  3.581210E+03  2.591622E+03
       489  26  4.953588E+04  4.467651E+04  1.252044E+04  4.022735E+04  8.645042E+03  6.368458E+03
       489  27  4.976379E+04  6.276819E+04  2.486853E+04  3.621956E+04  1.365633E+04  1.021551E+04
       490   1 -2.466557E+04 -1.490271E+05 -2.432374E+04  3.446821E+04 -6.590251E+02 -8.622922E+03
       490   2 -1.421253E+04 -1.240617E+05 -1.352798E+04  3.042790E+04 -1.851441E+03 -3.253572E+03
       490   3 -7.092323E+03 -1.006198E+05 -7.060667E+03  3.056708E+04 -1.343231E+03  2.117426E+03
       490   4 -5.905489E+03 -7.327733E+04 -6.317947E+03  3.049366E+04 -6.621869E+02 -4.220058E+03
       490   5 -1.921730E+03 -7.283358E+04 -3.325609E+03  2.840582E+04 -1.851949E+03 -2.523221E+03
       490   6 -6.330099E+02 -7.327632E+04 -2.110869E+03  3.049757E+04 -1.341116E+03 -8.250089E+02
       490   7  1.285425E+04  2.477745E+03  1.168753E+04  2.651862E+04 -6.654050E+02  1.833418E+02
       490   8  1.036892E+04 -2.160293E+04  6.876636E+03  2.638358E+04 -1.852461E+03 -1.792811E+03
       490   9  5.826266E+03 -4.593208E+04  2.838932E+03  3.042806E+04 -1.339000E+03 -3.767570E+03
       490  10 -2.466559E+04 -1.490271E+05 -2.432388E+04  3.446821E+04 -1.270797E-10 -3.903775E-11
       490  11 -1.421253E+04 -1.240617E+05 -1.352801E+04  3.042789E+04 -3.503593E-10  4.788955E-09
       490  12 -7.092326E+03 -1.006198E+05 -7.060679E+03  3.056709E+04  1.282044E-09  2.638111E-09
       490  13 -5.905495E+03 -7.327735E+04 -6.317982E+03  3.049366E+04  4.409907E-10 -2.211169E-09
       490  14 -1.921736E+03 -7.283358E+04 -3.325628E+03  2.840582E+04 -8.732869E-10 -5.648578E-10
       490  15 -6.330120E+02 -7.327632E+04 -2.110874E+03  3.049757E+04  3.200413E-10 -6.164342E-10
       490  16  1.285425E+04  2.477745E+03  1.168752E+04  2.651862E+04 -1.258879E-10  5.432764E-10
       490  17  1.036892E+04 -2.160293E+04  6.876623E+03  2.638357E+04 -3.768759E-10 -1.516387E-09
       490  18  5.826260E+03 -4.593209E+04  2.838902E+03  3.042805E+04 -6.619072E-10 -7.294869E-11
       490  19 -2.466557E+04 -1.490271E+05 -2.432374E+04  3.446821E+04  6.590251E+02  8.622922E+03
       490  20 -1.421253E+04 -1.240617E+05 -1.352798E+04  3.042790E+04  1.851441E+03  3.253572E+03
       490  21 -7.092323E+03 -1.006198E+05 -7.060667E+03  3.056708E+04  1.343231E+03 -2.117426E+03
       490  22 -5.905489E+03 -7.327733E+04 -6.317947E+03  3.049366E+04  6.621869E+02  4.220058E+03
       490  23 -1.921730E+03 -7.283358E+04 -3.325609E+03  2.840582E+04  1.851949E+03  2.523221E+03
       490  24 -6.330099E+02 -7.327632E+04 -2.110869E+03  3.049757E+04  1.341116E+03  8.250089E+02
       490  25  1.285425E+04  2.477745E+03  1.168753E+04  2.651862E+04  6.654050E+02 -1.833418E+02
       490  26  1.036892E+04 -2.160293E+04  6.876636E+03  2.638358E+04  1.852461E+03  1.792811E+03
       490  27  5.826266E+03 -4.593208E+04  2.838932E+03  3.042806E+04  1.339000E+03  3.767570E+03
       491   1 -3.411675E+03 -8.523224E+04 -4.199388E+03  3.080338E+04 -4.729002E+02  2.443562E+03
       491   2  2.433659E+03 -6.092441E+04  7.615095E+01  2.831839E+04  8.690616E+02  3.174035E+03
       491   3  7.740869E+03 -3.683714E+04  3.743863E+03  3.011983E+04  2.150042E+03  3.904498E+03
       491   4 -5.187080E+02 -7.313344E+04 -1.836874E+03  3.052104E+04 -4.707786E+02 -5.217959E+02
       491   5 -3.433909E+02 -7.301154E+04 -1.720576E+03  2.837775E+04  8.711011E+02  3.403280E+02
       491   6 -7.290413E+02 -7.313365E+04 -2.303561E+03  3.052089E+04  2.151998E+03  1.202414E+03
       491   7  2.374255E+03 -6.103448E+04  5.256660E+02  3.023870E+04 -4.686543E+02 -3.487210E+03
       491   8 -3.120444E+03 -8.509851E+04 -3.517276E+03  2.843710E+04  8.731400E+02 -2.493327E+03
       491   9 -9.199015E+03 -1.094288E+05 -8.350998E+03  3.092192E+04  2.153952E+03 -1.499517E+03
       491  10 -3.411677E+03 -8.523225E+04 -4.199400E+03  3.080338E+04  6.644904E-10 -1.601721E-09
       491  11  2.433656E+03 -6.092442E+04  7.613059E+01  2.831839E+04 -2.443251E-10  3.818213E-09
       491  12  7.740860E+03 -3.683716E+04  3.743825E+03  3.011982E+04  4.735769E-12  3.685505E-10
       491  13 -5.187083E+02 -7.313344E+04 -1.836875E+03  3.052104E+04  1.862656E-10 -1.110832E-09
       491  14 -3.433917E+02 -7.301154E+04 -1.720578E+03  2.837774E+04  6.028935E-11  2.878418E-10
       491  15 -7.290466E+02 -7.313366E+04 -2.303573E+03  3.052088E+04 -1.441637E-10 -1.956795E-10
       491  16  2.374252E+03 -6.103450E+04  5.256428E+02  3.023870E+04 -4.446454E-10  1.316927E-09
       491  17 -3.120446E+03 -8.509851E+04 -3.517290E+03  2.843710E+04 -5.960864E-10  1.698470E-09
       491  18 -9.199021E+03 -1.094289E+05 -8.351011E+03  3.092192E+04 -8.787882E-10  2.877317E-09
       491  19 -3.411675E+03 -8.523224E+04 -4.199388E+03  3.080338E+04  4.729002E+02 -2.443562E+03
       491  20  2.433659E+03 -6.092441E+04  7.615095E+01  2.831839E+04 -8.690616E+02 -3.174035E+03
       491  21  7.740869E+03 -3.683714E+04  3.743863E+03  3.011983E+04 -2.150042E+03 -3.904498E+03
       491  22 -5.187080E+02 -7.313344E+04 -1.836874E+03  3.052104E+04  4.707786E+02  5.217959E+02
       491  23 -3.433909E+02 -7.301154E+04 -1.720576E+03  2.837775E+04 -8.711011E+02 -3.403280E+02
       491  24 -7.290413E+02 -7.313365E+04 -2.303561E+03  3.052089E+04 -2.151998E+03 -1.202414E+03
       491  25  2.374255E+03 -6.103448E+04  5.256660E+02  3.023870E+04  4.686543E+02  3.487210E+03
       491  26 -3.120444E+03 -8.509851E+04 -3.517276E+03  2.843710E+04 -8.731400E+02  2.493327E+03
       491  27 -9.199015E+03 -1.094288E+05 -8.350998E+03  3.092192E+04 -2.153952E+03  1.499517E+03
       492   1  1.114798E+04 -2.180558E+04  5.867678E+03  3.038748E+04  2.964557E+03  4.261790E+03
       492   2  1.507986E+04  2.654135E+03  9.594743E+03  2.536024E+04  3.097414E+03  1.987350E+03
       492   3  1.576945E+04  2.660834E+04  1.399369E+04  2.447100E+04  1.020271E+03 -2.889189E+02
       492   4 -9.108770E+02 -7.337626E+04 -2.852509E+03  3.048839E+04  2.966509E+03  1.591374E+03
       492   5 -2.895892E+03 -7.270967E+04 -4.890297E+03  2.841634E+04  3.095909E+03  4.090452E+03
       492   6 -8.952138E+03 -7.337776E+04 -9.571316E+03  3.048238E+04  1.015162E+03  6.587709E+03
       492   7 -1.296987E+04 -1.249443E+05 -1.157275E+04  3.058929E+04  2.968462E+03 -1.078828E+03
       492   8 -2.087195E+04 -1.480680E+05 -1.937558E+04  3.147207E+04  3.094424E+03  6.193305E+03
       492   9 -3.367428E+04 -1.733545E+05 -3.313681E+04  3.649279E+04  1.010186E+03  1.346324E+04
       492  10  1.114797E+04 -2.180560E+04  5.867628E+03  3.038747E+04  4.050329E-10 -8.353267E-10
       492  11  1.507985E+04  2.654128E+03  9.594717E+03  2.536024E+04 -2.030377E-10  4.312296E-09
       492  12  1.576945E+04  2.660834E+04  1.399369E+04  2.447100E+04 -3.002253E-10  8.132103E-10
       492  13 -9.108872E+02 -7.337626E+04 -2.852530E+03  3.048839E+04 -8.161023E-10 -6.032403E-10
       492  14 -2.895906E+03 -7.270969E+04 -4.890346E+03  2.841633E+04 -2.499695E-10 -5.256524E-10
       492  15 -8.952151E+03 -7.337781E+04 -9.571400E+03  3.048237E+04 -6.221962E-10 -5.118882E-10
       492  16 -1.296988E+04 -1.249443E+05 -1.157277E+04  3.058930E+04 -8.682189E-10  1.376847E-11
       492  17 -2.087197E+04 -1.480680E+05 -1.937567E+04  3.147205E+04 -9.587939E-12  1.075414E-09
       492  18 -3.367433E+04 -1.733547E+05 -3.313716E+04  3.649278E+04 -2.365540E-10  1.892689E-09
       492  19  1.114798E+04 -2.180558E+04  5.867678E+03  3.038748E+04 -2.964557E+03 -4.261790E+03
       492  20  1.507986E+04  2.654135E+03  9.594743E+03  2.536024E+04 -3.097414E+03 -1.987350E+03
       492  21  1.576945E+04  2.660834E+04  1.399369E+04  2.447100E+04 -1.020271E+03  2.889189E+02
       492  22 -9.108770E+02 -7.337626E+04 -2.852509E+03  3.048839E+04 -2.966509E+03 -1.591374E+03
       492  23 -2.895892E+03 -7.270967E+04 -4.890297E+03  2.841634E+04 -3.095909E+03 -4.090452E+03
       492  24 -8.952138E+03 -7.337776E+04 -9.571316E+03  3.048238E+04 -1.015162E+03 -6.587709E+03
       492  25 -1.296987E+04 -1.249443E+05 -1.157275E+04  3.058929E+04 -2.968462E+03  1.078828E+03
       492  26 -2.087195E+04 -1.480680E+05 -1.937558E+04  3.147207E+04 -3.094424E+03 -6.193305E+03
       492  27 -3.367428E+04 -1.733545E+05 -3.313681E+04  3.649279E+04 -1.010186E+03 -1.346324E+04
       493   1 -1.529307E+05  5.516227E+04  4.912905E+04  3.995665E+04  9.166590E+03 -3.847495E+03
       493   2 -1.966363E+05  5.712610E+04  3.766242E+04  4.395297E+04  7.983275E+02 -1.261743E+04
       493   3 -2.412360E+05  5.110890E+04  2.965010E+04  5.526772E+04 -7.567134E+03 -1.450574E+04
       493   4 -4.707364E+05 -2.324415E+04 -2.494410E+04  5.552868E+04 -1.720240E+04 -3.841787E+03
       493   5 -4.689911E+05 -7.443024E+03 -1.270946E+04  5.187115E+04 -1.071011E+04 -1.261586E+04
       493   6 -4.707237E+05 -2.205981E+03 -7.344927E+03  5.553244E+04 -4.215330E+03 -1.450670E+04
       493   7 -7.884469E+05 -1.016564E+05 -9.902135E+04  7.109269E+04 -4.355798E+04 -3.837402E+03
       493   8 -7.412735E+05 -7.201609E+04 -6.308390E+04  5.978577E+04 -2.221362E+04 -1.261457E+04
       493   9 -7.001590E+05 -5.552352E+04 -4.434133E+04  5.579707E+04 -8.647217E+02 -1.450766E+04
       493  10 -1.529308E+05  5.516223E+04  4.912887E+04  3.995668E+04  7.335982E-11 -5.216388E-11
       493  11 -1.966363E+05  5.712593E+04  3.766212E+04  4.395298E+04  1.800683E-10 -9.858181E-11
       493  12 -2.412361E+05  5.110866E+04  2.964960E+04  5.526763E+04  2.853298E-11 -6.744484E-12
       493  13 -4.707367E+05 -2.324424E+04 -2.494469E+04  5.552863E+04 -1.595450E-10 -3.854540E-11
       493  14 -4.689912E+05 -7.443225E+03 -1.270997E+04  5.187104E+04 -3.622568E-11 -6.384171E-11
       493  15 -4.707237E+05 -2.206212E+03 -7.345355E+03  5.553239E+04 -4.746984E-11 -1.273963E-11
       493  16 -7.884489E+05 -1.016570E+05 -9.902495E+04  7.109255E+04 -2.312338E-10 -7.538010E-12
       493  17 -7.412741E+05 -7.201639E+04 -6.308513E+04  5.978554E+04 -1.660350E-10 -2.733197E-11
       493  18 -7.001590E+05 -5.552374E+04 -4.434173E+04  5.579706E+04  2.330354E-11 -4.839348E-11
       493  19 -1.529307E+05  5.516227E+04  4.912905E+04  3.995665E+04 -9.166590E+03  3.847495E+03
       493  20 -1.966363E+05  5.712610E+04  3.766242E+04  4.395297E+04 -7.983275E+02  1.261743E+04
       493  21 -2.412360E+05  5.110890E+04  2.965010E+04  5.526772E+04  7.567134E+03  1.450574E+04
       493  22 -4.707364E+05 -2.324415E+04 -2.494410E+04  5.552868E+04  1.720240E+04  3.841787E+03
       493  23 -4.689911E+05 -7.443024E+03 -1.270946E+04  5.187115E+04  1.071011E+04  1.261586E+04
       493  24 -4.707237E+05 -2.205981E+03 -7.344927E+03  5.553244E+04  4.215330E+03  1.450670E+04
       493  25 -7.884469E+05 -1.016564E+05 -9.902135E+04  7.109269E+04  4.355798E+04  3.837402E+03
       493  26 -7.412735E+05 -7.201609E+04 -6.308390E+04  5.978577E+04  2.221362E+04  1.261457E+04
       493  27 -7.001590E+05 -5.552352E+04 -4.434133E+04  5.579707E+04  8.647217E+02  1.450766E+04
       494   1 -2.685946E+05  4.493101E+04  2.576259E+04  5.460555E+04 -6.673775E+03 -1.333065E+04
       494   2 -3.126196E+05  3.563475E+04  1.914302E+04  5.123805E+04 -6.279386E+03 -1.133126E+04
       494   3 -3.568711E+05  2.560661E+04  1.208514E+04  5.569116E+04 -5.885091E+03 -8.535841E+03
       494   4 -4.700659E+05 -1.708651E+03 -5.879210E+03  5.564351E+04 -3.215012E+03 -1.333148E+04
       494   5 -4.697998E+05 -4.908046E+02 -4.234290E+03  5.173319E+04 -1.102483E+03 -1.133205E+04
       494   6 -4.700608E+05 -3.033431E+02 -4.221683E+03  5.564366E+04  1.009978E+03 -8.536492E+03
       494   7 -6.714967E+05 -4.835030E+04 -3.752195E+04  5.668113E+04  2.426700E+02 -1.333230E+04
       494   8 -6.269551E+05 -3.661750E+04 -2.761196E+04  5.222820E+04  4.073161E+03 -1.133283E+04
       494   9 -5.832375E+05 -2.621386E+04 -2.052853E+04  5.559616E+04  7.903842E+03 -8.537144E+03
       494  10 -2.685947E+05  4.493081E+04  2.576217E+04  5.460548E+04  1.686265E-10 -6.162575E-12
       494  11 -3.126196E+05  3.563460E+04  1.914270E+04  5.123799E+04  2.041808E-10 -6.483998E-11
       494  12 -3.568711E+05  2.560652E+04  1.208494E+04  5.569112E+04  1.117527E-10  4.570730E-12
       494  13 -4.700660E+05 -1.708844E+03 -5.879563E+03  5.564348E+04 -1.019694E-10 -3.047465E-11
       494  14 -4.697998E+05 -4.909428E+02 -4.234533E+03  5.173318E+04  5.792243E-12 -5.711780E-11
       494  15 -4.700609E+05 -3.034216E+02 -4.221822E+03  5.564366E+04 -5.118266E-12 -3.626523E-11
       494  16 -6.714967E+05 -4.835050E+04 -3.752228E+04  5.668113E+04 -3.314351E-10 -4.401374E-11
       494  17 -6.269552E+05 -3.661765E+04 -2.761223E+04  5.222824E+04 -1.932030E-10 -6.427059E-11
       494  18 -5.832376E+05 -2.621395E+04 -2.052878E+04  5.559621E+04 -7.452039E-11 -5.906206E-11
       494  19 -2.685946E+05  4.493101E+04  2.576259E+04  5.460555E+04  6.673775E+03  1.333065E+04
       494  20 -3.126196E+05  3.563475E+04  1.914302E+04  5.123805E+04  6.279386E+03  1.133126E+04
       494  21 -3.568711E+05  2.560661E+04  1.208514E+04  5.569116E+04  5.885091E+03  8.535841E+03
       494  22 -4.700659E+05 -1.708651E+03 -5.879210E+03  5.564351E+04  3.215012E+03  1.333148E+04
       494  23 -4.697998E+05 -4.908046E+02 -4.234290E+03  5.173319E+04  1.102483E+03  1.133205E+04
       494  24 -4.700608E+05 -3.033431E+02 -4.221683E+03  5.564366E+04 -1.009978E+03  8.536492E+03
       494  25 -6.714967E+05 -4.835030E+04 -3.752195E+04  5.668113E+04 -2.426700E+02  1.333230E+04
       494  26 -6.269551E+05 -3.661750E+04 -2.761196E+04  5.222820E+04 -4.073161E+03  1.133283E+04
       494  27 -5.832375E+05 -2.621386E+04 -2.052853E+04  5.559616E+04 -7.903842E+03  8.537144E+03
       495   1 -3.846230E+05  1.919413E+04  7.349207E+03  5.541869E+04 -5.132725E+03 -6.632584E+03
       495   2 -4.282413E+05  8.267890E+03 -1.601694E+03  5.268502E+04 -1.144641E+03 -3.551732E+03
       495   3 -4.729153E+05 -4.826100E+03 -1.369118E+04  5.781055E+04  2.842987E+03 -7.036725E+02
       495   4 -4.701584E+05 -3.347231E+02 -4.717717E+03  5.565224E+04  1.770604E+03 -6.633117E+03
       495   5 -4.696731E+05 -1.096278E+03 -6.970214E+03  5.172240E+04  5.255594E+03 -3.552144E+03
       495   6 -4.701585E+05 -3.938343E+03 -1.201206E+04  5.565189E+04  8.740396E+03 -7.039870E+02
       495   7 -5.556863E+05 -1.986388E+04 -1.678456E+04  5.588575E+04  8.673022E+03 -6.633645E+03
       495   8 -5.111029E+05 -1.046049E+04 -1.233859E+04  5.075985E+04  1.165542E+04 -3.552576E+03
       495   9 -4.674016E+05 -3.050551E+03 -1.033280E+04  5.349322E+04  1.463784E+04 -7.043426E+02
       495  10 -3.846230E+05  1.919408E+04  7.349075E+03  5.541866E+04  2.822858E-10  1.180863E-11
       495  11 -4.282413E+05  8.267876E+03 -1.601720E+03  5.268501E+04  1.660405E-10 -6.934812E-11
       495  12 -4.729153E+05 -4.826103E+03 -1.369120E+04  5.781055E+04 -4.890604E-11 -1.788847E-11
       495  13 -4.701584E+05 -3.347712E+02 -4.717805E+03  5.565225E+04 -2.677803E-11 -5.101831E-11
       495  14 -4.696731E+05 -1.096299E+03 -6.970290E+03  5.172241E+04 -3.179393E-11 -6.557953E-11
       495  15 -4.701586E+05 -3.938364E+03 -1.201220E+04  5.565189E+04 -3.945502E-11 -1.978552E-11
       495  16 -5.556864E+05 -1.986395E+04 -1.678478E+04  5.588580E+04 -3.371813E-10 -8.754502E-11
       495  17 -5.111031E+05 -1.046054E+04 -1.233887E+04  5.075988E+04 -1.622363E-10 -9.295413E-11
       495  18 -4.674018E+05 -3.050610E+03 -1.033321E+04  5.349323E+04  5.518257E-11 -7.163448E-11
       495  19 -3.846230E+05  1.919413E+04  7.349207E+03  5.541869E+04  5.132725E+03  6.632584E+03
       495  20 -4.282413E+05  8.267890E+03 -1.601694E+03  5.268502E+04  1.144641E+03  3.551732E+03
       495  21 -4.729153E+05 -4.826100E+03 -1.369118E+04  5.781055E+04 -2.842987E+03  7.036725E+02
       495  22 -4.701584E+05 -3.347231E+02 -4.717717E+03  5.565224E+04 -1.770604E+03  6.633117E+03
       495  23 -4.696731E+05 -1.096278E+03 -6.970214E+03  5.172240E+04 -5.255594E+03  3.552144E+03
       495  24 -4.701585E+05 -3.938343E+03 -1.201206E+04  5.565189E+04 -8.740396E+03  7.039870E+02
       495  25 -5.556863E+05 -1.986388E+04 -1.678456E+04  5.588575E+04 -8.673022E+03  6.633645E+03
       495  26 -5.111029E+05 -1.046049E+04 -1.233859E+04  5.075985E+04 -1.165542E+04  3.552576E+03
       495  27 -4.674016E+05 -3.050551E+03 -1.033280E+04  5.349322E+04 -1.463784E+04  7.043426E+02
       496   1 -5.022431E+05 -1.242579E+04 -2.205751E+04  5.602495E+04  4.952606E+03  9.869010E+02
       496   2 -5.418875E+05 -3.503198E+04 -4.406136E+04  6.983905E+04  2.559024E+04  2.326787E+03
       496   3 -5.905641E+05 -8.302235E+04 -8.585442E+04  9.131593E+04  4.622608E+04  9.231840E+02
       496   4 -4.717209E+05 -5.068595E+03 -1.581071E+04  5.560901E+04  1.080904E+04  9.865831E+02
       496   5 -4.677263E+05 -1.713242E+04 -2.878228E+04  5.177465E+04  2.552352E+04  2.326025E+03
       496   6 -4.717345E+05 -5.355032E+04 -5.742585E+04  5.560422E+04  4.023767E+04  9.209548E+02
       496   7 -4.411977E+05  2.288566E+03 -9.563838E+03  5.519305E+04  1.666575E+04  9.862574E+02
       496   8 -3.935591E+05  7.680195E+02 -1.350332E+04  3.370806E+04  2.545680E+04  2.325267E+03
       496   9 -3.528892E+05 -2.407450E+04 -2.899746E+04  1.988564E+04  3.424812E+04  9.194154E+02
       496  10 -5.022432E+05 -1.242580E+04 -2.205756E+04  5.602495E+04  9.177662E-11  2.413485E-11
       496  11 -5.418882E+05 -3.503217E+04 -4.406260E+04  6.983900E+04  4.747055E-11  2.551192E-11
       496  12 -5.905664E+05 -8.302292E+04 -8.585844E+04  9.131590E+04  1.461060E-11 -1.683460E-11
       496  13 -4.717210E+05 -5.068627E+03 -1.581093E+04  5.560900E+04 -1.364486E-10 -3.635665E-11
       496  14 -4.677270E+05 -1.713260E+04 -2.878352E+04  5.177460E+04 -1.683794E-11  3.908132E-11
       496  15 -4.717363E+05 -5.355075E+04 -5.742890E+04  5.560419E+04  1.089981E-11  3.102890E-11
       496  16 -4.411980E+05  2.288490E+03 -9.564362E+03  5.519304E+04 -1.403202E-10 -1.206554E-11
       496  17 -3.935598E+05  7.678396E+02 -1.350455E+04  3.370801E+04 -1.386516E-10 -4.638199E-11
       496  18 -3.528904E+05 -2.407482E+04 -2.899966E+04  1.988562E+04 -2.473645E-11 -2.666315E-11
       496  19 -5.022431E+05 -1.242579E+04 -2.205751E+04  5.602495E+04 -4.952606E+03 -9.869010E+02
       496  20 -5.418875E+05 -3.503198E+04 -4.406136E+04  6.983905E+04 -2.559024E+04 -2.326787E+03
       496  21 -5.905641E+05 -8.302235E+04 -8.585442E+04  9.131593E+04 -4.622608E+04 -9.231840E+02
       496  22 -4.717209E+05 -5.068595E+03 -1.581071E+04  5.560901E+04 -1.080904E+04 -9.865831E+02
       496  23 -4.677263E+05 -1.713242E+04 -2.878228E+04  5.177465E+04 -2.552352E+04 -2.326025E+03
       496  24 -4.717345E+05 -5.355032E+04 -5.742585E+04  5.560422E+04 -4.023767E+04 -9.209548E+02
       496  25 -4.411977E+05  2.288566E+03 -9.563838E+03  5.519305E+04 -1.666575E+04 -9.862574E+02
       496  26 -3.935591E+05  7.680195E+02 -1.350332E+04  3.370806E+04 -2.545680E+04 -2.325267E+03
       496  27 -3.528892E+05 -2.407450E+04 -2.899746E+04  1.988564E+04 -3.424812E+04 -9.194154E+02
       497   1 -1.363862E+05  2.224901E+04  1.765975E+04  1.740098E+04 -3.276176E+03 -2.365004E+03
       497   2 -1.629950E+05  3.139391E+04  1.681024E+04  2.372155E+04 -5.185894E+03 -7.748375E+03
       497   3 -1.919282E+05  3.022863E+04  1.462697E+04  3.465067E+04 -7.094803E+03 -8.878558E+03
       497   4 -3.326786E+05 -2.617723E+04 -2.810068E+04  3.490006E+04 -1.949150E+04 -2.363455E+03
       497   5 -3.307145E+05 -8.370332E+03 -1.423491E+04  3.259662E+04 -1.221713E+04 -7.748049E+03
       497   6 -3.326717E+05 -2.470461E+03 -8.083470E+03  3.490205E+04 -4.941958E+03 -8.878871E+03
       497   7 -5.289343E+05 -7.460491E+04 -7.386257E+04  5.239357E+04 -3.570174E+04 -2.362821E+03
       497   8 -4.984064E+05 -4.813587E+04 -4.528100E+04  4.146923E+04 -1.924652E+04 -7.747923E+03
       497   9 -4.733955E+05 -3.517055E+04 -3.079443E+04  3.515337E+04 -2.789583E+03 -8.879182E+03
       497  10 -1.363862E+05  2.224900E+04  1.765972E+04  1.740098E+04  1.392605E-11  1.705490E-11
       497  11 -1.629950E+05  3.139384E+04  1.681008E+04  2.372152E+04 -6.011486E-11 -8.244776E-11
       497  12 -1.919283E+05  3.022854E+04  1.462672E+04  3.465062E+04 -8.766132E-11  7.078064E-11
       497  13 -3.326791E+05 -2.617734E+04 -2.810141E+04  3.490002E+04 -7.868151E-11 -5.219624E-11
       497  14 -3.307147E+05 -8.370436E+03 -1.423530E+04  3.259655E+04 -5.603735E-11 -7.158728E-11
       497  15 -3.326717E+05 -2.470552E+03 -8.083664E+03  3.490202E+04  5.505936E-11  2.425077E-11
       497  16 -5.289357E+05 -7.460526E+04 -7.386498E+04  5.239350E+04 -9.878633E-11 -4.741384E-11
       497  17 -4.984068E+05 -4.813603E+04 -4.528181E+04  4.146911E+04  4.528153E-12  1.974271E-11
       497  18 -4.733955E+05 -3.517064E+04 -3.079459E+04  3.515335E+04  6.993556E-11  3.594312E-11
       497  19 -1.363862E+05  2.224901E+04  1.765975E+04  1.740098E+04  3.276176E+03  2.365004E+03
       497  20 -1.629950E+05  3.139391E+04  1.681024E+04  2.372155E+04  5.185894E+03  7.748375E+03
       497  21 -1.919282E+05  3.022863E+04  1.462697E+04  3.465067E+04  7.094803E+03  8.878558E+03
       497  22 -3.326786E+05 -2.617723E+04 -2.810068E+04  3.490006E+04  1.949150E+04  2.363455E+03
       497  23 -3.307145E+05 -8.370332E+03 -1.423491E+04  3.259662E+04  1.221713E+04  7.748049E+03
       497  24 -3.326717E+05 -2.470461E+03 -8.083470E+03  3.490205E+04  4.941958E+03  8.878871E+03
       497  25 -5.289343E+05 -7.460491E+04 -7.386257E+04  5.239357E+04  3.570174E+04  2.362821E+03
       497  26 -4.984064E+05 -4.813587E+04 -4.528100E+04  4.146923E+04  1.924652E+04  7.747923E+03
       497  27 -4.733955E+05 -3.517055E+04 -3.079443E+04  3.515337E+04  2.789583E+03  8.879182E+03
       498   1 -2.087934E+05  2.659147E+04  1.300015E+04  3.385189E+04 -6.074600E+03 -8.130378E+03
       498   2 -2.363659E+05  2.136168E+04  9.897498E+03  3.199153E+04 -4.993819E+03 -6.857968E+03
       498   3 -2.643073E+05  1.520723E+04  5.860500E+03  3.504926E+04 -3.913137E+03 -5.095162E+03
       498   4 -3.319227E+05 -1.913669E+03 -6.358048E+03  3.497050E+04 -3.855701E+03 -8.130643E+03
       498   5 -3.316446E+05 -5.368944E+02 -4.285747E+03  3.251144E+04 -1.716369E+03 -6.858186E+03
       498   6 -3.319205E+05 -2.688094E+02 -3.883481E+03  3.497056E+04  4.228942E+02 -5.095295E+03
       498   7 -4.550369E+05 -3.041955E+04 -2.571659E+04  3.608888E+04 -1.637226E+03 -8.130900E+03
       498   8 -4.269142E+05 -2.243589E+04 -1.846912E+04  3.303127E+04  1.560598E+03 -6.858398E+03
       498   9 -3.995292E+05 -1.574504E+04 -1.362746E+04  3.489187E+04  4.758473E+03 -5.095430E+03
       498  10 -2.087934E+05  2.659139E+04  1.299995E+04  3.385185E+04  6.305785E-11  8.180228E-11
       498  11 -2.363659E+05  2.136162E+04  9.897363E+03  3.199150E+04 -1.962118E-12 -7.795856E-12
       498  12 -2.643073E+05  1.520719E+04  5.860423E+03  3.504924E+04 -9.035615E-11  2.988413E-11
       498  13 -3.319227E+05 -1.913744E+03 -6.358201E+03  3.497048E+04 -1.358624E-10 -2.954911E-11
       498  14 -3.316446E+05 -5.369457E+02 -4.285841E+03  3.251143E+04 -3.712798E-11 -7.565567E-11
       498  15 -3.319205E+05 -2.688373E+02 -3.883530E+03  3.497056E+04 -9.238444E-11 -5.412048E-11
       498  16 -4.550369E+05 -3.041963E+04 -2.571672E+04  3.608887E+04 -1.166584E-10 -6.485244E-12
       498  17 -4.269142E+05 -2.243594E+04 -1.846922E+04  3.303128E+04 -4.556191E-12 -8.381843E-11
       498  18 -3.995292E+05 -1.574508E+04 -1.362755E+04  3.489189E+04  1.405120E-10 -5.017802E-11
       498  19 -2.087934E+05  2.659147E+04  1.300015E+04  3.385189E+04  6.074600E+03  8.130378E+03
       498  20 -2.363659E+05  2.136168E+04  9.897498E+03  3.199153E+04  4.993819E+03  6.857968E+03
       498  21 -2.643073E+05  1.520723E+04  5.860500E+03  3.504926E+04  3.913137E+03  5.095162E+03
       498  22 -3.319227E+05 -1.913669E+03 -6.358048E+03  3.497050E+04  3.855701E+03  8.130643E+03
       498  23 -3.316446E+05 -5.368944E+02 -4.285747E+03  3.251144E+04  1.716369E+03  6.858186E+03
       498  24 -3.319205E+05 -2.688094E+02 -3.883481E+03  3.497056E+04 -4.228942E+02  5.095295E+03
       498  25 -4.550369E+05 -3.041955E+04 -2.571659E+04  3.608888E+04  1.637226E+03  8.130900E+03
       498  26 -4.269142E+05 -2.243589E+04 -1.846912E+04  3.303127E+04 -1.560598E+03  6.858398E+03
       498  27 -3.995292E+05 -1.574504E+04 -1.362746E+04  3.489187E+04 -4.758473E+03  5.095430E+03
       499   1 -2.817508E+05  1.117747E+04  2.921799E+03  3.480003E+04 -3.233843E+03 -3.898444E+03
       499   2 -3.090828E+05  4.200845E+03 -2.930509E+03  3.328804E+04 -1.497978E+00 -1.966383E+03
       499   3 -3.372708E+05 -4.520790E+03 -1.132405E+04  3.671722E+04  3.230713E+03 -1.908484E+02
       499   4 -3.319743E+05 -2.863653E+02 -4.156289E+03  3.497568E+04  1.107005E+03 -3.898534E+03
       499   5 -3.315756E+05 -8.713532E+02 -5.790542E+03  3.250502E+04  4.001202E+03 -1.966438E+03
       499   6 -3.319746E+05 -3.142504E+03 -9.731033E+03  3.497558E+04  6.895393E+03 -1.908818E+02
       499   7 -3.821951E+05 -1.175030E+04 -1.123434E+04  3.515132E+04  5.447516E+03 -3.898621E+03
       499   8 -3.540679E+05 -5.943561E+03 -8.650517E+03  3.172204E+04  8.003764E+03 -1.966503E+03
       499   9 -3.266783E+05 -1.764202E+03 -8.137963E+03  3.323393E+04  1.056011E+04 -1.909357E+02
       499  10 -2.817509E+05  1.117745E+04  2.921751E+03  3.480002E+04 -3.374269E-11 -9.715335E-11
       499  11 -3.090828E+05  4.200841E+03 -2.930516E+03  3.328804E+04 -1.386871E-10 -1.696919E-10
       499  12 -3.372708E+05 -4.520793E+03 -1.132407E+04  3.671722E+04 -6.290022E-11  1.064175E-11
       499  13 -3.319743E+05 -2.863819E+02 -4.156320E+03  3.497569E+04 -8.820303E-11 -1.175229E-10
       499  14 -3.315757E+05 -8.713617E+02 -5.790580E+03  3.250503E+04  5.413719E-13 -1.133785E-10
       499  15 -3.319746E+05 -3.142517E+03 -9.731122E+03  3.497559E+04  3.931783E-11 -5.226899E-11
       499  16 -3.821951E+05 -1.175033E+04 -1.123443E+04  3.515133E+04 -2.752025E-11 -9.294359E-11
       499  17 -3.540680E+05 -5.943583E+03 -8.650645E+03  3.172205E+04  1.597138E-10  2.795480E-11
       499  18 -3.266784E+05 -1.764232E+03 -8.138173E+03  3.323393E+04  2.173983E-10 -2.095489E-11
       499  19 -2.817508E+05  1.117747E+04  2.921799E+03  3.480003E+04  3.233843E+03  3.898444E+03
       499  20 -3.090828E+05  4.200845E+03 -2.930509E+03  3.328804E+04  1.497978E+00  1.966383E+03
       499  21 -3.372708E+05 -4.520790E+03 -1.132405E+04  3.671722E+04 -3.230713E+03  1.908484E+02
       499  22 -3.319743E+05 -2.863653E+02 -4.156289E+03  3.497568E+04 -1.107005E+03  3.898534E+03
       499  23 -3.315756E+05 -8.713532E+02 -5.790542E+03  3.250502E+04 -4.001202E+03  1.966438E+03
       499  24 -3.319746E+05 -3.142504E+03 -9.731033E+03  3.497558E+04 -6.895393E+03  1.908818E+02
       499  25 -3.821951E+05 -1.175030E+04 -1.123434E+04  3.515132E+04 -5.447516E+03  3.898621E+03
       499  26 -3.540679E+05 -5.943561E+03 -8.650517E+03  3.172204E+04 -8.003764E+03  1.966503E+03
       499  27 -3.266783E+05 -1.764202E+03 -8.137963E+03  3.323393E+04 -1.056011E+04  1.909357E+02
       500   1 -3.559805E+05 -9.497320E+03 -1.721816E+04  3.528953E+04  4.931513E+03  8.628362E+02
       500   2 -3.802099E+05 -2.579242E+04 -3.331018E+04  4.700388E+04  2.061247E+04  1.647957E+03
       500   3 -4.115226E+05 -6.225222E+04 -6.465626E+04  6.353112E+04  3.629249E+04  6.341051E+02
       500   4 -3.332213E+05 -4.047964E+03 -1.273943E+04  3.494743E+04  8.569180E+03  8.628024E+02
       500   5 -3.300207E+05 -1.370282E+04 -2.307449E+04  3.253990E+04  2.036539E+04  1.647470E+03
       500   6 -3.332287E+05 -4.284727E+04 -4.596407E+04  3.494601E+04  3.216140E+04  6.325189E+02
       500   7 -3.104616E+05  1.401367E+03 -8.260682E+03  3.460532E+04  1.220698E+04  8.627646E+02
       500   8 -2.798287E+05 -1.612590E+03 -1.283881E+04  1.807474E+04  2.011828E+04  1.646995E+03
       500   9 -2.549273E+05 -2.343968E+04 -2.727181E+04  6.357284E+03  2.802979E+04  6.313135E+02
       500  10 -3.559805E+05 -9.497327E+03 -1.721821E+04  3.528953E+04  3.529462E-11  2.688444E-12
       500  11 -3.802104E+05 -2.579254E+04 -3.331099E+04  4.700385E+04 -1.035550E-12 -4.081843E-11
       500  12 -4.115240E+05 -6.225257E+04 -6.465874E+04  6.353110E+04  1.603586E-11  1.835220E-11
       500  13 -3.332214E+05 -4.047985E+03 -1.273957E+04  3.494742E+04  6.993478E-11  1.561752E-11
       500  14 -3.300212E+05 -1.370293E+04 -2.307527E+04  3.253988E+04  1.303260E-11 -5.012116E-11
       500  15 -3.332298E+05 -4.284755E+04 -4.596602E+04  3.494600E+04  1.392881E-11  4.461972E-11
       500  16 -3.104617E+05  1.401326E+03 -8.260964E+03  3.460531E+04  1.389906E-11 -4.654580E-12
       500  17 -2.798291E+05 -1.612701E+03 -1.283958E+04  1.807471E+04 -5.659211E-11 -3.727850E-11
       500  18 -2.549282E+05 -2.343989E+04 -2.727329E+04  6.357270E+03  2.753751E-12 -3.078671E-11
       500  19 -3.559805E+05 -9.497320E+03 -1.721816E+04  3.528953E+04 -4.931513E+03 -8.628362E+02
       500  20 -3.802099E+05 -2.579242E+04 -3.331018E+04  4.700388E+04 -2.061247E+04 -1.647957E+03
       500  21 -4.115226E+05 -6.225222E+04 -6.465626E+04  6.353112E+04 -3.629249E+04 -6.341051E+02
       500  22 -3.332213E+05 -4.047964E+03 -1.273943E+04  3.494743E+04 -8.569180E+03 -8.628024E+02
       500  23 -3.300207E+05 -1.370282E+04 -2.307449E+04  3.253990E+04 -2.036539E+04 -1.647470E+03
       500  24 -3.332287E+05 -4.284727E+04 -4.596407E+04  3.494601E+04 -3.216140E+04 -6.325189E+02
       500  25 -3.104616E+05  1.401367E+03 -8.260682E+03  3.460532E+04 -1.220698E+04 -8.627646E+02
       500  26 -2.798287E+05 -1.612590E+03 -1.283881E+04  1.807474E+04 -2.011828E+04 -1.646995E+03
       500  27 -2.549273E+05 -2.343968E+04 -2.727181E+04  6.357284E+03 -2.802979E+04 -6.313135E+02
       501   1  1.230597E+04  3.419924E+04  3.100293E+04  2.816397E+04  6.873369E+03 -2.140562E+03
       501   2 -1.568689E+04  3.282153E+04  2.256777E+04  2.929208E+04  1.321028E+03 -6.950664E+03
       501   3 -4.378215E+04  2.812841E+04  1.691886E+04  3.510313E+04 -4.230597E+03 -7.818218E+03
       501   4 -1.690371E+05 -1.053888E+04 -1.132695E+04  3.521759E+04 -7.773670E+03 -2.140272E+03
       501   5 -1.682440E+05 -3.366751E+03 -5.801052E+03  3.287602E+04 -4.809971E+03 -6.950816E+03
       501   6 -1.690335E+05 -9.892450E+02 -3.403516E+03  3.521761E+04 -1.845926E+03 -7.818304E+03
       501   7 -3.503492E+05 -5.527902E+04 -5.365823E+04  4.226914E+04 -2.241646E+04 -2.140314E+03
       501   8 -3.207785E+05 -3.955631E+04 -3.417072E+04  3.645906E+04 -1.093950E+04 -6.951039E+03
       501   9 -2.942692E+05 -3.010769E+04 -2.372631E+04  3.533206E+04  5.382818E+02 -7.818389E+03
       501  10  1.230592E+04  3.419922E+04  3.100283E+04  2.816398E+04  1.122598E-10 -7.652278E-11
       501  11 -1.568691E+04  3.282148E+04  2.256768E+04  2.929209E+04 -1.256274E-10 -9.261153E-11
       501  12 -4.378219E+04  2.812834E+04  1.691871E+04  3.510310E+04 -1.995741E-10 -6.574358E-11
       501  13 -1.690371E+05 -1.053890E+04 -1.132707E+04  3.521757E+04 -1.714787E-11 -2.110069E-11
       501  14 -1.682441E+05 -3.366809E+03 -5.801187E+03  3.287599E+04 -4.811200E-11 -9.824768E-12
       501  15 -1.690335E+05 -9.893115E+02 -3.403637E+03  3.521760E+04  1.388231E-10 -2.449522E-11
       501  16 -3.503497E+05 -5.527916E+04 -5.365918E+04  4.226910E+04 -1.260058E-10 -4.824529E-12
       501  17 -3.207787E+05 -3.955639E+04 -3.417103E+04  3.645900E+04  8.056067E-11 -4.728215E-11
       501  18 -2.942692E+05 -3.010776E+04 -2.372642E+04  3.533206E+04  1.763643E-10  9.285748E-12
       501  19  1.230597E+04  3.419924E+04  3.100293E+04  2.816397E+04 -6.873369E+03  2.140562E+03
       501  20 -1.568689E+04  3.282153E+04  2.256777E+04  2.929208E+04 -1.321028E+03  6.950664E+03
       501  21 -4.378215E+04  2.812841E+04  1.691886E+04  3.510313E+04  4.230597E+03  7.818218E+03
       501  22 -1.690371E+05 -1.053888E+04 -1.132695E+04  3.521759E+04  7.773670E+03  2.140272E+03
       501  23 -1.682440E+05 -3.366751E+03 -5.801052E+03  3.287602E+04  4.809971E+03  6.950816E+03
       501  24 -1.690335E+05 -9.892450E+02 -3.403516E+03  3.521761E+04  1.845926E+03  7.818304E+03
       501  25 -3.503492E+05 -5.527902E+04 -5.365823E+04  4.226914E+04  2.241646E+04  2.140314E+03
       501  26 -3.207785E+05 -3.955631E+04 -3.417072E+04  3.645906E+04  1.093950E+04  6.951039E+03
       501  27 -2.942692E+05 -3.010769E+04 -2.372631E+04  3.533206E+04 -5.382818E+02  7.818389E+03
       502   1 -6.124902E+04  2.413841E+04  1.424098E+04  3.481033E+04 -3.823115E+03 -7.019443E+03
       502   2 -8.922752E+04  1.804116E+04  9.790462E+03  3.257211E+04 -3.744896E+03 -5.663353E+03
       502   3 -1.172943E+05  1.162683E+04  5.209829E+03  3.530239E+04 -3.666744E+03 -3.859968E+03
       502   4 -1.687381E+05 -7.630779E+02 -2.763895E+03  3.528098E+04 -1.377060E+03 -7.019473E+03
       502   5 -1.686091E+05 -2.143196E+02 -2.094012E+03  3.279669E+04 -3.329412E+02 -5.663271E+03
       502   6 -1.687365E+05 -1.502537E+02 -2.225071E+03  3.528096E+04  7.111288E+02 -3.859743E+03
       502   7 -2.762156E+05 -2.566514E+04 -1.976903E+04  3.575154E+04  1.068587E+03 -7.019500E+03
       502   8 -2.479843E+05 -1.847009E+04 -1.397856E+04  3.302125E+04  3.078595E+03 -5.663186E+03
       502   9 -2.201760E+05 -1.192744E+04 -9.659941E+03  3.525953E+04  5.088654E+03 -3.859519E+03
       502  10 -6.124905E+04  2.413835E+04  1.424086E+04  3.481031E+04  3.454281E-11 -3.321509E-11
       502  11 -8.922755E+04  1.804112E+04  9.790375E+03  3.257209E+04 -1.871186E-10 -3.605799E-11
       502  12 -1.172944E+05  1.162681E+04  5.209775E+03  3.530238E+04  1.436768E-11 -2.256334E-11
       502  13 -1.687381E+05 -7.631313E+02 -2.763991E+03  3.528097E+04  2.223657E-10  5.409931E-11
       502  14 -1.686091E+05 -2.143541E+02 -2.094072E+03  3.279669E+04  7.088885E-11  1.861867E-11
       502  15 -1.687365E+05 -1.502699E+02 -2.225100E+03  3.528096E+04 -8.866026E-11  8.807867E-12
       502  16 -2.762156E+05 -2.566519E+04 -1.976913E+04  3.575155E+04 -2.660017E-11  1.937262E-11
       502  17 -2.479843E+05 -1.847013E+04 -1.397864E+04  3.302126E+04  7.722672E-11 -3.470892E-11
       502  18 -2.201760E+05 -1.192747E+04 -9.660018E+03  3.525954E+04  3.845944E-11  4.161394E-11
       502  19 -6.124902E+04  2.413841E+04  1.424098E+04  3.481033E+04  3.823115E+03  7.019443E+03
       502  20 -8.922752E+04  1.804116E+04  9.790462E+03  3.257211E+04  3.744896E+03  5.663353E+03
       502  21 -1.172943E+05  1.162683E+04  5.209829E+03  3.530239E+04  3.666744E+03  3.859968E+03
       502  22 -1.687381E+05 -7.630779E+02 -2.763895E+03  3.528098E+04  1.377060E+03  7.019473E+03
       502  23 -1.686091E+05 -2.143196E+02 -2.094012E+03  3.279669E+04  3.329412E+02  5.663271E+03
       502  24 -1.687365E+05 -1.502537E+02 -2.225071E+03  3.528096E+04 -7.111288E+02  3.859743E+03
       502  25 -2.762156E+05 -2.566514E+04 -1.976903E+04  3.575154E+04 -1.068587E+03  7.019500E+03
       502  26 -2.479843E+05 -1.847009E+04 -1.397856E+04  3.302125E+04 -3.078595E+03  5.663186E+03
       502  27 -2.201760E+05 -1.192744E+04 -9.659941E+03  3.525953E+04 -5.088654E+03  3.859519E+03
       503   1 -1.349123E+05  7.556211E+03  2.193419E+03  3.515391E+04 -3.263800E+03 -2.652093E+03
       503   2 -1.626230E+05  6.569393E+02 -3.436373E+03  3.333865E+04 -8.735367E+02 -7.260352E+02
       503   3 -1.909571E+05 -7.494027E+03 -1.093558E+04  3.650763E+04  1.516610E+03  9.943905E+02
       503   4 -1.688008E+05 -1.715196E+02 -2.550984E+03  3.528444E+04  1.117470E+03 -2.651835E+03
       503   5 -1.685274E+05 -6.153219E+02 -3.891829E+03  3.279236E+04  3.063544E+03 -7.257949E+02
       503   6 -1.688010E+05 -2.233652E+03 -6.793566E+03  3.528453E+04  5.009600E+03  9.946078E+02
       503   7 -2.026881E+05 -7.899291E+03 -7.295329E+03  3.541497E+04  5.498513E+03 -2.651576E+03
       503   8 -1.744317E+05 -1.887575E+03 -4.347226E+03  3.224607E+04  7.000589E+03 -7.255616E+02
       503   9 -1.466443E+05  3.026708E+03 -2.651530E+03  3.406139E+04  8.502711E+03  9.948112E+02
       503  10 -1.349123E+05  7.556200E+03  2.193386E+03  3.515390E+04  4.623468E-11 -1.160185E-11
       503  11 -1.626230E+05  6.569386E+02 -3.436375E+03  3.333865E+04 -1.173505E-10 -4.864572E-11
       503  12 -1.909571E+05 -7.494029E+03 -1.093558E+04  3.650763E+04 -9.240966E-11  5.563040E-12
       503  13 -1.688008E+05 -1.715275E+02 -2.550999E+03  3.528445E+04  1.477099E-11 -1.815900E-11
       503  14 -1.685274E+05 -6.153250E+02 -3.891848E+03  3.279236E+04 -7.113299E-12  3.047354E-12
       503  15 -1.688010E+05 -2.233659E+03 -6.793615E+03  3.528453E+04  1.593320E-10  3.836882E-11
       503  16 -2.026881E+05 -7.899306E+03 -7.295399E+03  3.541499E+04 -3.036666E-11  8.885297E-11
       503  17 -1.744317E+05 -1.887588E+03 -4.347319E+03  3.224607E+04  1.005222E-10  8.764535E-12
       503  18 -1.466443E+05  3.026687E+03 -2.651668E+03  3.406138E+04  6.366999E-11 -2.542012E-11
       503  19 -1.349123E+05  7.556211E+03  2.193419E+03  3.515391E+04  3.263800E+03  2.652093E+03
       503  20 -1.626230E+05  6.569393E+02 -3.436373E+03  3.333865E+04  8.735367E+02  7.260352E+02
       503  21 -1.909571E+05 -7.494027E+03 -1.093558E+04  3.650763E+04 -1.516610E+03 -9.943905E+02
       503  22 -1.688008E+05 -1.715196E+02 -2.550984E+03  3.528444E+04 -1.117470E+03  2.651835E+03
       503  23 -1.685274E+05 -6.153219E+02 -3.891829E+03  3.279236E+04 -3.063544E+03  7.257949E+02
       503  24 -1.688010E+05 -2.233652E+03 -6.793566E+03  3.528453E+04 -5.009600E+03 -9.946078E+02
       503  25 -2.026881E+05 -7.899291E+03 -7.295329E+03  3.541497E+04 -5.498513E+03  2.651576E+03
       503  26 -1.744317E+05 -1.887575E+03 -4.347226E+03  3.224607E+04 -7.000589E+03  7.255616E+02
       503  27 -1.466443E+05  3.026708E+03 -2.651530E+03  3.406139E+04 -8.502711E+03 -9.948112E+02
       504   1 -2.094961E+05 -1.226392E+04 -1.608694E+04  3.548237E+04  2.720386E+03  2.014352E+03
       504   2 -2.348496E+05 -2.588923E+04 -2.966110E+04  4.310776E+04  1.576304E+04  2.534288E+03
       504   3 -2.655668E+05 -5.417843E+04 -5.539444E+04  5.556346E+04  2.880478E+04  8.883082E+02
       504   4 -1.696911E+05 -2.877001E+03 -8.965867E+03  3.525047E+04  6.180435E+03  2.014552E+03
       504   5 -1.674169E+05 -9.740774E+03 -1.636135E+04  3.283544E+04  1.454585E+04  2.533945E+03
       504   6 -1.696947E+05 -3.045565E+04 -3.266667E+04  3.525136E+04  2.291107E+04  8.871076E+02
       504   7 -1.298844E+05  6.509834E+03 -1.844807E+03  3.501855E+04  9.640699E+03  2.014749E+03
       504   8 -9.997954E+04  6.407806E+03 -3.061748E+03  2.256198E+04  1.332854E+04  2.533641E+03
       504   9 -7.381308E+04 -6.731964E+03 -9.939186E+03  1.493611E+04  1.701646E+04  8.862929E+02
       504  10 -2.094962E+05 -1.226392E+04 -1.608696E+04  3.548237E+04  7.820855E-11 -1.369546E-11
       504  11 -2.348499E+05 -2.588931E+04 -2.966158E+04  4.310773E+04 -4.920923E-11  5.274907E-11
       504  12 -2.655677E+05 -5.417866E+04 -5.539600E+04  5.556344E+04 -1.113734E-10 -5.668793E-11
       504  13 -1.696911E+05 -2.877016E+03 -8.965947E+03  3.525046E+04  3.971596E-11  2.208980E-11
       504  14 -1.674171E+05 -9.740837E+03 -1.636176E+04  3.283541E+04  1.622067E-10  1.282609E-11
       504  15 -1.696952E+05 -3.045580E+04 -3.266766E+04  3.525135E+04  5.135381E-13 -4.725440E-11
       504  16 -1.298845E+05  6.509805E+03 -1.844989E+03  3.501853E+04  7.501576E-12 -5.973110E-11
       504  17 -9.997973E+04  6.407752E+03 -3.062094E+03  2.256196E+04  1.907491E-10 -1.079810E-10
       504  18 -7.381339E+04 -6.732043E+03 -9.939732E+03  1.493610E+04  1.305379E-10 -4.420157E-11
       504  19 -2.094961E+05 -1.226392E+04 -1.608694E+04  3.548237E+04 -2.720386E+03 -2.014352E+03
       504  20 -2.348496E+05 -2.588923E+04 -2.966110E+04  4.310776E+04 -1.576304E+04 -2.534288E+03
       504  21 -2.655668E+05 -5.417843E+04 -5.539444E+04  5.556346E+04 -2.880478E+04 -8.883082E+02
       504  22 -1.696911E+05 -2.877001E+03 -8.965867E+03  3.525047E+04 -6.180435E+03 -2.014552E+03
       504  23 -1.674169E+05 -9.740774E+03 -1.636135E+04  3.283544E+04 -1.454585E+04 -2.533945E+03
       504  24 -1.696947E+05 -3.045565E+04 -3.266667E+04  3.525136E+04 -2.291107E+04 -8.871076E+02
       504  25 -1.298844E+05  6.509834E+03 -1.844807E+03  3.501855E+04 -9.640699E+03 -2.014749E+03
       504  26 -9.997954E+04  6.407806E+03 -3.061748E+03  2.256198E+04 -1.332854E+04 -2.533641E+03
       504  27 -7.381308E+04 -6.731964E+03 -9.939186E+03  1.493611E+04 -1.701646E+04 -8.862929E+02
       505   1  1.878559E+05  4.732024E+04  4.617043E+04  4.000897E+04  1.966583E+04 -1.692308E+03
       505   2  1.602523E+05  3.233068E+04  2.845699E+04  3.428555E+04  9.764921E+03 -5.414352E+03
       505   3  1.354541E+05  2.340236E+04  1.870365E+04  3.297470E+04 -1.355441E+02 -5.887279E+03
       505   4  3.927020E+04  1.065456E+04  1.140989E+04  3.291063E+04  8.114880E+03 -1.693028E+03
       505   5  3.847785E+04  3.413185E+03  5.631663E+03  3.070462E+04  5.234253E+03 -5.414752E+03
       505   6  3.927248E+04  1.015231E+03  2.939747E+03  3.291110E+04  2.353689E+03 -5.887177E+03
       505   7 -1.092948E+05 -2.601242E+04 -2.335161E+04  2.581400E+04 -3.433321E+03 -1.693485E+03
       505   8 -8.328222E+04 -2.550511E+04 -1.719422E+04  2.712440E+04  7.044499E+02 -5.415099E+03
       505   9 -5.689995E+04 -2.137237E+04 -1.282440E+04  3.284752E+04  4.842549E+03 -5.887075E+03
       505  10  1.878555E+05  4.732013E+04  4.616969E+04  4.000900E+04  1.243711E-10 -6.134626E-11
       505  11  1.602522E+05  3.233062E+04  2.845675E+04  3.428559E+04 -7.281730E-11 -2.410413E-10
       505  12  1.354541E+05  2.340232E+04  1.870359E+04  3.297469E+04 -5.820662E-11 -1.648100E-11
       505  13  3.927013E+04  1.065454E+04  1.140976E+04  3.291064E+04 -8.156471E-12 -3.496112E-11
       505  14  3.847782E+04  3.413147E+03  5.631556E+03  3.070464E+04  5.172110E-11 -1.623744E-10
       505  15  3.927247E+04  1.015192E+03  2.939672E+03  3.291112E+04  9.342926E-11 -5.296806E-11
       505  16 -1.092948E+05 -2.601243E+04 -2.335164E+04  2.581399E+04 -2.215422E-10 -9.294196E-11
       505  17 -8.328223E+04 -2.550514E+04 -1.719428E+04  2.712440E+04  9.358972E-11 -1.578738E-10
       505  18 -5.689999E+04 -2.137241E+04 -1.282451E+04  3.284755E+04  1.096109E-10 -3.096871E-11
       505  19  1.878559E+05  4.732024E+04  4.617043E+04  4.000897E+04 -1.966583E+04  1.692308E+03
       505  20  1.602523E+05  3.233068E+04  2.845699E+04  3.428555E+04 -9.764921E+03  5.414352E+03
       505  21  1.354541E+05  2.340236E+04  1.870365E+04  3.297470E+04  1.355441E+02  5.887279E+03
       505  22  3.927020E+04  1.065456E+04  1.140989E+04  3.291063E+04 -8.114880E+03  1.693028E+03
       505  23  3.847785E+04  3.413185E+03  5.631663E+03  3.070462E+04 -5.234253E+03  5.414752E+03
       505  24  3.927248E+04  1.015231E+03  2.939747E+03  3.291110E+04 -2.353689E+03  5.887177E+03
       505  25 -1.092948E+05 -2.601242E+04 -2.335161E+04  2.581400E+04  3.433321E+03  1.693485E+03
       505  26 -8.328222E+04 -2.550511E+04 -1.719422E+04  2.712440E+04 -7.044499E+02  5.415099E+03
       505  27 -5.689995E+04 -2.137237E+04 -1.282440E+04  3.284752E+04 -4.842549E+03  5.887075E+03
       506   1  1.185687E+05  1.926393E+04  1.485464E+04  3.336311E+04 -5.543398E+02 -5.087484E+03
       506   2  9.224944E+04  1.251053E+04  8.966637E+03  3.081022E+04 -1.768575E+03 -3.732409E+03
       506   3  6.621251E+04  6.251867E+03  3.992661E+03  3.290177E+04 -2.982817E+03 -2.018476E+03
       506   4  3.895304E+04  7.926387E+02  2.106796E+03  3.296265E+04  1.985476E+03 -5.087336E+03
       506   5  3.887996E+04  2.188546E+02  8.737751E+02  3.064046E+04  1.546487E+03 -3.732147E+03
       506   6  3.895401E+04  5.289085E+00  1.651420E+01  3.296272E+04  1.107444E+03 -2.018084E+03
       506   7 -4.065632E+04 -1.767897E+04 -1.064119E+04  3.256225E+04  4.524977E+03 -5.087190E+03
       506   8 -1.448664E+04 -1.207295E+04 -7.219105E+03  3.047071E+04  4.861276E+03 -3.731886E+03
       506   9  1.169630E+04 -6.241314E+03 -3.959582E+03  3.302367E+04  5.197534E+03 -2.017693E+03
       506  10  1.185687E+05  1.926391E+04  1.485459E+04  3.336311E+04  2.034325E-11 -4.241900E-11
       506  11  9.224943E+04  1.251052E+04  8.966605E+03  3.081021E+04 -1.244750E-10 -1.043764E-11
       506  12  6.621250E+04  6.251860E+03  3.992636E+03  3.290176E+04  1.922377E-10 -6.407104E-11
       506  13  3.895303E+04  7.926098E+02  2.106740E+03  3.296266E+04  2.093491E-10  8.557032E-12
       506  14  3.887996E+04  2.188390E+02  8.737444E+02  3.064046E+04 -5.119656E-11  2.622428E-11
       506  15  3.895401E+04  5.284383E+00  1.650424E+01  3.296272E+04 -4.033426E-11  2.025345E-11
       506  16 -4.065635E+04 -1.767900E+04 -1.064128E+04  3.256227E+04  1.003723E-10  2.504253E-11
       506  17 -1.448667E+04 -1.207297E+04 -7.219176E+03  3.047073E+04  6.108787E-11  4.245349E-11
       506  18  1.169627E+04 -6.241326E+03 -3.959640E+03  3.302368E+04 -1.677263E-10  2.231156E-11
       506  19  1.185687E+05  1.926393E+04  1.485464E+04  3.336311E+04  5.543398E+02  5.087484E+03
       506  20  9.224944E+04  1.251053E+04  8.966637E+03  3.081022E+04  1.768575E+03  3.732409E+03
       506  21  6.621251E+04  6.251867E+03  3.992661E+03  3.290177E+04  2.982817E+03  2.018476E+03
       506  22  3.895304E+04  7.926387E+02  2.106796E+03  3.296265E+04 -1.985476E+03  5.087336E+03
       506  23  3.887996E+04  2.188546E+02  8.737751E+02  3.064046E+04 -1.546487E+03  3.732147E+03
       506  24  3.895401E+04  5.289085E+00  1.651420E+01  3.296272E+04 -1.107444E+03  2.018084E+03
       506  25 -4.065632E+04 -1.767897E+04 -1.064119E+04  3.256225E+04 -4.524977E+03  5.087190E+03
       506  26 -1.448664E+04 -1.207295E+04 -7.219105E+03  3.047071E+04 -4.861276E+03  3.731886E+03
       506  27  1.169630E+04 -6.241314E+03 -3.959582E+03  3.302367E+04 -5.197534E+03  2.017693E+03
       507   1  4.973691E+04  2.443763E+03  1.079824E+03  3.289058E+04 -2.953160E+03 -8.904558E+02
       507   2  2.371196E+04 -3.845047E+03 -3.915469E+03  3.086417E+04 -1.742180E+03  8.784135E+02
       507   3 -2.615181E+03 -1.071477E+04 -9.844435E+03  3.348917E+04 -5.312492E+02  2.396352E+03
       507   4  3.887496E+04 -2.120877E+01 -3.837433E+02  3.296426E+04  1.138583E+03 -8.900509E+02
       507   5  3.897942E+04 -2.754663E+02 -1.334245E+03  3.063859E+04  1.807452E+03  8.787508E+02
       507   6  3.887473E+04 -1.016591E+03 -2.842084E+03  3.296434E+04  2.476328E+03  2.396624E+03
       507   7  2.801317E+04 -2.486177E+03 -1.847248E+03  3.303793E+04  5.230258E+03 -8.896449E+02
       507   8  5.424713E+04  3.294109E+03  1.247018E+03  3.041301E+04  5.357168E+03  8.790856E+02
       507   9  8.036636E+04  8.681506E+03  4.160245E+03  3.243948E+04  5.484099E+03  2.396890E+03
       507  10  4.973690E+04  2.443760E+03  1.079806E+03  3.289058E+04 -3.189935E-11 -1.531881E-11
       507  11  2.371196E+04 -3.845048E+03 -3.915476E+03  3.086418E+04  1.970154E-11  1.138045E-11
       507  12 -2.615183E+03 -1.071478E+04 -9.844446E+03  3.348917E+04  1.001440E-11  9.719748E-12
       507  13  3.887496E+04 -2.120997E+01 -3.837472E+02  3.296426E+04 -4.354462E-11 -3.395836E-11
       507  14  3.897941E+04 -2.754680E+02 -1.334253E+03  3.063859E+04  9.779773E-11 -6.798385E-11
       507  15  3.887472E+04 -1.016599E+03 -2.842107E+03  3.296434E+04 -1.665134E-11 -3.769631E-11
       507  16  2.801314E+04 -2.486185E+03 -1.847301E+03  3.303793E+04 -1.123799E-12  3.508064E-11
       507  17  5.424710E+04  3.294100E+03  1.246963E+03  3.041300E+04  5.686655E-11 -6.712500E-11
       507  18  8.036632E+04  8.681491E+03  4.160178E+03  3.243947E+04 -1.030597E-10 -1.221304E-10
       507  19  4.973691E+04  2.443763E+03  1.079824E+03  3.289058E+04  2.953160E+03  8.904558E+02
       507  20  2.371196E+04 -3.845047E+03 -3.915469E+03  3.086417E+04  1.742180E+03 -8.784135E+02
       507  21 -2.615181E+03 -1.071477E+04 -9.844435E+03  3.348917E+04  5.312492E+02 -2.396352E+03
       507  22  3.887496E+04 -2.120877E+01 -3.837433E+02  3.296426E+04 -1.138583E+03  8.900509E+02
       507  23  3.897942E+04 -2.754663E+02 -1.334245E+03  3.063859E+04 -1.807452E+03 -8.787508E+02
       507  24  3.887473E+04 -1.016591E+03 -2.842084E+03  3.296434E+04 -2.476328E+03 -2.396624E+03
       507  25  2.801317E+04 -2.486177E+03 -1.847248E+03  3.303793E+04 -5.230258E+03  8.896449E+02
       507  26  5.424713E+04  3.294109E+03  1.247018E+03  3.041301E+04 -5.357168E+03 -8.790856E+02
       507  27  8.036636E+04  8.681506E+03  4.160245E+03  3.243948E+04 -5.484099E+03 -2.396890E+03
       508   1 -1.953963E+04 -1.488125E+04 -1.375857E+04  3.300870E+04  8.269484E-01  3.294988E+03
       508   2 -4.424280E+04 -2.438426E+04 -2.343092E+04  3.532610E+04  9.058014E+03  3.442690E+03
       508   3 -7.192408E+04 -4.108412E+04 -4.079924E+04  4.211994E+04  1.811491E+04  1.134598E+03
       508   4  3.846377E+04 -1.307253E+03 -3.891383E+03  3.292546E+04  2.970523E+03  3.295230E+03
       508   5  3.949172E+04 -4.419336E+03 -7.337434E+03  3.068759E+04  6.723690E+03  3.442404E+03
       508   6  3.846256E+04 -1.380678E+04 -1.479562E+04  3.292626E+04  1.047691E+04  1.133803E+03
       508   7  9.647049E+04  1.226657E+04  5.975728E+03  3.284221E+04  5.940488E+03  3.295471E+03
       508   8  1.232330E+05  1.554526E+04  8.755765E+03  2.604844E+04  4.389058E+03  3.442152E+03
       508   9  1.488607E+05  1.347004E+04  1.120742E+04  2.373094E+04  2.837557E+03  1.133235E+03
       508  10 -1.953964E+04 -1.488126E+04 -1.375859E+04  3.300870E+04  2.262713E-11  4.892040E-11
       508  11 -4.424289E+04 -2.438430E+04 -2.343110E+04  3.532607E+04 -3.717394E-11 -8.267650E-11
       508  12 -7.192444E+04 -4.108421E+04 -4.079986E+04  4.211992E+04 -1.713936E-11 -4.377894E-13
       508  13  3.846375E+04 -1.307267E+03 -3.891420E+03  3.292545E+04  2.802662E-11  6.629008E-11
       508  14  3.949166E+04 -4.419360E+03 -7.337542E+03  3.068757E+04 -1.691721E-10 -5.142611E-11
       508  15  3.846244E+04 -1.380681E+04 -1.479583E+04  3.292625E+04  5.014365E-11  4.030744E-11
       508  16  9.647045E+04  1.226655E+04  5.975641E+03  3.284219E+04  4.665985E-11 -8.404507E-11
       508  17  1.232330E+05  1.554524E+04  8.755707E+03  2.604843E+04  4.004837E-11 -4.502722E-11
       508  18  1.488607E+05  1.347004E+04  1.120741E+04  2.373093E+04 -1.769493E-11 -2.616917E-11
       508  19 -1.953963E+04 -1.488125E+04 -1.375857E+04  3.300870E+04 -8.269484E-01 -3.294988E+03
       508  20 -4.424280E+04 -2.438426E+04 -2.343092E+04  3.532610E+04 -9.058014E+03 -3.442690E+03
       508  21 -7.192408E+04 -4.108412E+04 -4.079924E+04  4.211994E+04 -1.811491E+04 -1.134598E+03
       508  22  3.846377E+04 -1.307253E+03 -3.891383E+03  3.292546E+04 -2.970523E+03 -3.295230E+03
       508  23  3.949172E+04 -4.419336E+03 -7.337434E+03  3.068759E+04 -6.723690E+03 -3.442404E+03
       508  24  3.846256E+04 -1.380678E+04 -1.479562E+04  3.292626E+04 -1.047691E+04 -1.133803E+03
       508  25  9.647049E+04  1.226657E+04  5.975728E+03  3.284221E+04 -5.940488E+03 -3.295471E+03
       508  26  1.232330E+05  1.554526E+04  8.755765E+03  2.604844E+04 -4.389058E+03 -3.442152E+03
       508  27  1.488607E+05  1.347004E+04  1.120742E+04  2.373094E+04 -2.837557E+03 -1.133235E+03
       509   1  4.206808E+05  6.797033E+04  6.893912E+04  5.831233E+04  3.639947E+04 -1.412394E+03
       509   2  3.899526E+05  3.595927E+04  3.864910E+04  4.425583E+04  2.040368E+04 -4.409536E+03
       509   3  3.656150E+05  2.118363E+04  2.307725E+04  3.487889E+04  4.408742E+03 -4.506606E+03
       509   4  2.892440E+05  3.551866E+04  3.808417E+04  3.461237E+04  2.679065E+04 -1.414481E+03
       509   5  2.865955E+05  1.136843E+04  1.902350E+04  3.227403E+04  1.706289E+04 -4.410269E+03
       509   6  2.892505E+05  3.367258E+03  1.033150E+04  3.461469E+04  7.335157E+03 -4.506366E+03
       509   7  1.578244E+05  3.067925E+03  7.228678E+03  1.091746E+04  1.718384E+04 -1.415836E+03
       509   8  1.832491E+05 -1.322248E+04 -6.024576E+02  2.029428E+04  1.372264E+04 -4.410874E+03
       509   9  2.128918E+05 -1.444941E+04 -2.414388E+03  3.435053E+04  1.026122E+04 -4.506128E+03
       509  10  4.206794E+05  6.796997E+04  6.893663E+04  5.831237E+04 -1.044459E-10  7.265272E-12
       509  11  3.899521E+05  3.595913E+04  3.864828E+04  4.425590E+04 -1.255517E-10 -2.950515E-11
       509  12  3.656150E+05  2.118360E+04  2.307718E+04  3.487891E+04  1.778044E-10 -1.771953E-11
       509  13  2.892432E+05  3.551847E+04  3.808281E+04  3.461240E+04  1.578882E-11 -1.801234E-11
       509  14  2.865952E+05  1.136834E+04  1.902292E+04  3.227409E+04 -2.780086E-10 -1.869948E-11
       509  15  2.892505E+05  3.367221E+03  1.033137E+04  3.461472E+04  1.286307E-10 -1.974142E-11
       509  16  1.578241E+05  3.067843E+03  7.228119E+03  1.091748E+04  1.039128E-10 -5.343636E-12
       509  17  1.832489E+05 -1.322255E+04 -6.028479E+02  2.029433E+04  4.974590E-11 -7.322561E-11
       509  18  2.128917E+05 -1.444946E+04 -2.414623E+03  3.435057E+04 -7.357754E-11 -1.223730E-10
       509  19  4.206808E+05  6.797033E+04  6.893912E+04  5.831233E+04 -3.639947E+04  1.412394E+03
       509  20  3.899526E+05  3.595927E+04  3.864910E+04  4.425583E+04 -2.040368E+04  4.409536E+03
       509  21  3.656150E+05  2.118363E+04  2.307725E+04  3.487889E+04 -4.408742E+03  4.506606E+03
       509  22  2.892440E+05  3.551866E+04  3.808417E+04  3.461237E+04 -2.679065E+04  1.414481E+03
       509  23  2.865955E+05  1.136843E+04  1.902350E+04  3.227403E+04 -1.706289E+04  4.410269E+03
       509  24  2.892505E+05  3.367258E+03  1.033150E+04  3.461469E+04 -7.335157E+03  4.506366E+03
       509  25  1.578244E+05  3.067925E+03  7.228678E+03  1.091746E+04 -1.718384E+04  1.415836E+03
       509  26  1.832491E+05 -1.322248E+04 -6.024576E+02  2.029428E+04 -1.372264E+04  4.410874E+03
       509  27  2.128918E+05 -1.444941E+04 -2.414388E+03  3.435053E+04 -1.026122E+04  4.506128E+03
       510   1  3.471950E+05  1.634667E+04  1.742568E+04  3.607214E+04  3.023534E+03 -3.602599E+03
       510   2  3.193216E+05  7.993811E+03  9.161731E+03  3.284227E+04  2.444131E+02 -2.073945E+03
       510   3  2.921737E+05  1.093904E+03  3.069456E+03  3.449694E+04 -2.534585E+03 -2.380850E+02
       510   4  2.882076E+05  2.618203E+03  7.750905E+03  3.466030E+04  5.995225E+03 -3.602323E+03
       510   5  2.879036E+05  7.252043E+02  4.226522E+03  3.221816E+04  3.880039E+03 -2.073562E+03
       510   6  2.882088E+05  1.699362E+02  2.412966E+03  3.466054E+04  1.764849E+03 -2.375926E+02
       510   7  2.292237E+05 -1.111043E+04 -1.923941E+03  3.324860E+04  8.966643E+03 -3.602061E+03
       510   8  2.564866E+05 -6.543442E+03 -7.086613E+02  3.159409E+04  7.515487E+03 -2.073186E+03
       510   9  2.842440E+05 -7.540225E+02  1.756545E+03  3.482414E+04  6.064258E+03 -2.370979E+02
       510  10  3.471950E+05  1.634665E+04  1.742564E+04  3.607215E+04  1.182817E-10 -9.724875E-11
       510  11  3.193216E+05  7.993806E+03  9.161723E+03  3.284227E+04 -2.702851E-11 -2.240604E-11
       510  12  2.921736E+05  1.093902E+03  3.069444E+03  3.449694E+04 -2.904612E-10 -1.127793E-10
       510  13  2.882076E+05  2.618179E+03  7.750813E+03  3.466032E+04  3.460468E-11 -8.605431E-11
       510  14  2.879036E+05  7.251956E+02  4.226486E+03  3.221817E+04  1.009947E-11 -7.339530E-11
       510  15  2.882088E+05  1.699353E+02  2.412960E+03  3.466054E+04 -7.840824E-11 -6.917813E-12
       510  16  2.292236E+05 -1.111046E+04 -1.924117E+03  3.324862E+04 -4.561690E-11 -1.024119E-10
       510  17  2.564865E+05 -6.543462E+03 -7.087755E+02  3.159410E+04  7.728043E-11 -1.904874E-10
       510  18  2.842439E+05 -7.540324E+02  1.756476E+03  3.482414E+04  2.745847E-10  5.155385E-11
       510  19  3.471950E+05  1.634667E+04  1.742568E+04  3.607214E+04 -3.023534E+03  3.602599E+03
       510  20  3.193216E+05  7.993811E+03  9.161731E+03  3.284227E+04 -2.444131E+02  2.073945E+03
       510  21  2.921737E+05  1.093904E+03  3.069456E+03  3.449694E+04  2.534585E+03  2.380850E+02
       510  22  2.882076E+05  2.618203E+03  7.750905E+03  3.466030E+04 -5.995225E+03  3.602323E+03
       510  23  2.879036E+05  7.252043E+02  4.226522E+03  3.221816E+04 -3.880039E+03  2.073562E+03
       510  24  2.882088E+05  1.699362E+02  2.412966E+03  3.466054E+04 -1.764849E+03  2.375926E+02
       510  25  2.292237E+05 -1.111043E+04 -1.923941E+03  3.324860E+04 -8.966643E+03  3.602061E+03
       510  26  2.564866E+05 -6.543442E+03 -7.086613E+02  3.159409E+04 -7.515487E+03  2.073186E+03
       510  27  2.842440E+05 -7.540225E+02  1.756545E+03  3.482414E+04 -6.064258E+03  2.370979E+02
       511   1  2.748310E+05 -2.916829E+03 -1.346088E+02  3.463026E+04 -2.897167E+03  9.469959E+02
       511   2  2.473293E+05 -9.369575E+03 -5.166019E+03  3.214905E+04 -2.729698E+03  2.769941E+03
       511   3  2.198103E+05 -1.580378E+04 -1.030207E+04  3.455074E+04 -2.562185E+03  4.259387E+03
       511   4  2.880973E+05  1.322341E+02  1.848690E+03  3.466016E+04  1.401892E+03  9.474853E+02
       511   5  2.880432E+05  2.668378E+01  1.113694E+03  3.221873E+04  8.487304E+02  2.770304E+03
       511   6  2.880966E+05  6.487891E+01  7.744452E+02  3.466017E+04  2.956104E+02  4.259636E+03
       511   7  3.013637E+05  3.181299E+03  3.832055E+03  3.469007E+04  5.701039E+03  9.479751E+02
       511   8  3.287587E+05  9.422869E+03  7.393417E+03  3.228841E+04  4.427384E+03  2.770668E+03
       511   9  3.563875E+05  1.593331E+04  1.185086E+04  3.476962E+04  3.153708E+03  4.259886E+03
       511  10  2.748310E+05 -2.916832E+03 -1.346262E+02  3.463026E+04  9.409455E-11  3.137732E-11
       511  11  2.473292E+05 -9.369585E+03 -5.166047E+03  3.214905E+04  4.154519E-11  7.109903E-12
       511  12  2.198103E+05 -1.580380E+04 -1.030211E+04  3.455075E+04 -4.906254E-11 -1.540583E-10
       511  13  2.880973E+05  1.322326E+02  1.848685E+03  3.466016E+04  2.240896E-11  5.105514E-11
       511  14  2.880432E+05  2.667534E+01  1.113678E+03  3.221872E+04  1.668249E-10  7.008197E-11
       511  15  2.880966E+05  6.485940E+01  7.744109E+02  3.466017E+04  4.362023E-11 -1.038310E-11
       511  16  3.013637E+05  3.181289E+03  3.831992E+03  3.469006E+04  8.242761E-12  9.314544E-11
       511  17  3.287587E+05  9.422855E+03  7.393366E+03  3.228840E+04 -4.788326E-12  1.603939E-11
       511  18  3.563875E+05  1.593329E+04  1.185080E+04  3.476960E+04 -7.046421E-11 -2.157350E-11
       511  19  2.748310E+05 -2.916829E+03 -1.346088E+02  3.463026E+04  2.897167E+03 -9.469959E+02
       511  20  2.473293E+05 -9.369575E+03 -5.166019E+03  3.214905E+04  2.729698E+03 -2.769941E+03
       511  21  2.198103E+05 -1.580378E+04 -1.030207E+04  3.455074E+04  2.562185E+03 -4.259387E+03
       511  22  2.880973E+05  1.322341E+02  1.848690E+03  3.466016E+04 -1.401892E+03 -9.474853E+02
       511  23  2.880432E+05  2.668378E+01  1.113694E+03  3.221873E+04 -8.487304E+02 -2.770304E+03
       511  24  2.880966E+05  6.487891E+01  7.744452E+02  3.466017E+04 -2.956104E+02 -4.259636E+03
       511  25  3.013637E+05  3.181299E+03  3.832055E+03  3.469007E+04 -5.701039E+03 -9.479751E+02
       511  26  3.287587E+05  9.422869E+03  7.393417E+03  3.228841E+04 -4.427384E+03 -2.770668E+03
       511  27  3.563875E+05  1.593331E+04  1.185086E+04  3.476962E+04 -3.153708E+03 -4.259886E+03
       512   1  2.024360E+05 -1.987748E+04 -1.348288E+04  3.455353E+04 -2.637986E+03  5.139582E+03
       512   2  1.753949E+05 -2.645069E+04 -2.052727E+04  3.188697E+04  3.670663E+03  4.893678E+03
       512   3  1.473637E+05 -3.370473E+04 -3.184796E+04  3.388368E+04  9.978984E+03  1.553758E+03
       512   4  2.881099E+05  8.948389E+01  7.017318E+02  3.461136E+04  1.717267E+02  5.139787E+03
       512   5  2.880241E+05  3.231561E+02  7.414107E+02  3.227972E+04 -2.039458E+02  4.893302E+03
       512   6  2.881077E+05  1.036250E+03  1.145487E+03  3.461130E+04 -5.796494E+02  1.553068E+03
       512   7  3.737910E+05  2.005607E+04  1.488615E+04  3.466920E+04  2.981814E+03  5.139992E+03
       512   8  4.006656E+05  2.709627E+04  2.200959E+04  3.267254E+04 -4.079241E+03  4.892922E+03
       512   9  4.288702E+05  3.577588E+04  3.413800E+04  3.533908E+04 -1.114066E+04  1.552353E+03
       512  10  2.024360E+05 -1.987751E+04 -1.348294E+04  3.455354E+04 -1.430308E-10 -1.094834E-10
       512  11  1.753948E+05 -2.645072E+04 -2.052734E+04  3.188695E+04 -4.814633E-11 -5.055517E-11
       512  12  1.473636E+05 -3.370476E+04 -3.184816E+04  3.388367E+04 -2.289294E-11 -2.018619E-11
       512  13  2.881099E+05  8.945551E+01  7.016821E+02  3.461136E+04  5.477791E-11  5.045982E-12
       512  14  2.880241E+05  3.231304E+02  7.413657E+02  3.227972E+04  9.612198E-11  2.531933E-11
       512  15  2.881077E+05  1.036247E+03  1.145482E+03  3.461130E+04  1.502327E-10  3.547566E-11
       512  16  3.737909E+05  2.005604E+04  1.488609E+04  3.466919E+04  1.719446E-10  1.000372E-10
       512  17  4.006656E+05  2.709624E+04  2.200952E+04  3.267256E+04 -1.484297E-10 -3.235376E-11
       512  18  4.288701E+05  3.577584E+04  3.413777E+04  3.533910E+04  6.230194E-11  1.531128E-11
       512  19  2.024360E+05 -1.987748E+04 -1.348288E+04  3.455353E+04  2.637986E+03 -5.139582E+03
       512  20  1.753949E+05 -2.645069E+04 -2.052727E+04  3.188697E+04 -3.670663E+03 -4.893678E+03
       512  21  1.473637E+05 -3.370473E+04 -3.184796E+04  3.388368E+04 -9.978984E+03 -1.553758E+03
       512  22  2.881099E+05  8.948389E+01  7.017318E+02  3.461136E+04 -1.717267E+02 -5.139787E+03
       512  23  2.880241E+05  3.231561E+02  7.414107E+02  3.227972E+04  2.039458E+02 -4.893302E+03
       512  24  2.881077E+05  1.036250E+03  1.145487E+03  3.461130E+04  5.796494E+02 -1.553068E+03
       512  25  3.737910E+05  2.005607E+04  1.488615E+04  3.466920E+04 -2.981814E+03 -5.139992E+03
       512  26  4.006656E+05  2.709627E+04  2.200959E+04  3.267254E+04  4.079241E+03 -4.892922E+03
       512  27  4.288702E+05  3.577588E+04  3.413800E+04  3.533908E+04  1.114066E+04 -1.552353E+03
       513   1  8.560547E+05  1.232812E+05  1.264262E+05  1.275366E+05  6.605692E+04 -1.867126E+03
       513   2  7.865529E+05  5.750970E+04  6.752930E+04  9.843544E+04  3.595326E+04 -5.294837E+03
       513   3  7.295645E+05  2.612531E+04  3.680892E+04  8.024496E+04  5.853514E+03 -4.004343E+03
       513   4  6.475765E+05  7.171893E+04  7.699538E+04  7.957665E+04  5.355382E+04 -1.874006E+03
       513   5  6.422184E+05  2.293780E+04  3.893054E+04  7.412654E+04  3.365346E+04 -5.296698E+03
       513   6  6.476035E+05  6.777436E+03  2.196781E+04  7.958414E+04  1.375355E+04 -4.002970E+03
       513   7  4.391435E+05  2.016229E+04  2.756334E+04  3.163289E+04  4.105488E+04 -1.878958E+03
       513   8  4.979051E+05 -1.163315E+04  1.033109E+04  4.982340E+04  3.135418E+04 -5.298380E+03
       513   9  5.656492E+05 -1.257078E+04  7.126669E+03  7.892341E+04  2.165257E+04 -4.001614E+03
       513  10  8.560500E+05  1.232800E+05  1.264180E+05  1.275367E+05 -2.614317E-11  1.842923E-11
       513  11  7.865515E+05  5.750932E+04  6.752682E+04  9.843560E+04  1.053900E-10  6.486107E-11
       513  12  7.295644E+05  2.612528E+04  3.680883E+04  8.024498E+04  1.956085E-10  8.976085E-11
       513  13  6.475735E+05  7.171816E+04  7.698999E+04  7.957673E+04 -2.440630E-10 -4.813963E-11
       513  14  6.422172E+05  2.293747E+04  3.892836E+04  7.412669E+04 -2.113931E-10 -6.881456E-11
       513  15  6.476033E+05  6.777368E+03  2.196743E+04  7.958419E+04  3.219223E-10  2.281620E-10
       513  16  4.391417E+05  2.016183E+04  2.756017E+04  3.163295E+04  4.795616E-11  6.995565E-12
       513  17  4.979041E+05 -1.163344E+04  1.032919E+04  4.982354E+04 -2.444144E-10 -5.563835E-11
       513  18  5.656487E+05 -1.257092E+04  7.125759E+03  7.892348E+04 -1.086739E-10  4.717879E-11
       513  19  8.560547E+05  1.232812E+05  1.264262E+05  1.275366E+05 -6.605692E+04  1.867126E+03
       513  20  7.865529E+05  5.750970E+04  6.752930E+04  9.843544E+04 -3.595326E+04  5.294837E+03
       513  21  7.295645E+05  2.612531E+04  3.680892E+04  8.024496E+04 -5.853514E+03  4.004343E+03
       513  22  6.475765E+05  7.171893E+04  7.699538E+04  7.957665E+04 -5.355382E+04  1.874006E+03
       513  23  6.422184E+05  2.293780E+04  3.893054E+04  7.412654E+04 -3.365346E+04  5.296698E+03
       513  24  6.476035E+05  6.777436E+03  2.196781E+04  7.958414E+04 -1.375355E+04  4.002970E+03
       513  25  4.391435E+05  2.016229E+04  2.756334E+04  3.163289E+04 -4.105488E+04  1.878958E+03
       513  26  4.979051E+05 -1.163315E+04  1.033109E+04  4.982340E+04 -3.135418E+04  5.298380E+03
       513  27  5.656492E+05 -1.257078E+04  7.126669E+03  7.892341E+04 -2.165257E+04  4.001614E+03
       514   1  6.877030E+05  1.531223E+04  2.532263E+04  8.268327E+04  2.838654E+03 -1.686938E+03
       514   2  6.236683E+05 -3.180826E+03  9.109030E+03  7.542848E+04 -3.742546E+03  2.221467E+03
       514   3  5.612802E+05 -1.852032E+04 -2.035623E+03  7.941194E+04 -1.032314E+04  6.571604E+03
       514   4  6.455447E+05  5.254005E+03  1.716421E+04  7.965736E+04  1.081252E+04 -1.685481E+03
       514   5  6.448061E+05  1.474219E+03  1.126464E+04  7.403860E+04  5.186059E+03  2.223056E+03
       514   6  6.455458E+05  6.828298E+02  9.771973E+03  7.965794E+04 -4.404044E+02  6.573284E+03
       514   7  6.033883E+05 -4.804253E+03  9.005954E+03  7.663166E+04  1.878587E+04 -1.684102E+03
       514   8  6.659446E+05  6.129298E+03  1.342055E+04  7.264867E+04  1.411495E+04  2.224605E+03
       514   9  7.298188E+05  1.988572E+04  2.157984E+04  7.990397E+04  9.443613E+03  6.574971E+03
       514  10  6.877030E+05  1.531222E+04  2.532261E+04  8.268328E+04 -3.126158E-10  6.659947E-12
       514  11  6.236682E+05 -3.180835E+03  9.108995E+03  7.542848E+04  1.850800E-10  1.886498E-10
       514  12  5.612801E+05 -1.852040E+04 -2.035905E+03  7.941199E+04  3.579672E-10  2.579418E-10
       514  13  6.455446E+05  5.253971E+03  1.716399E+04  7.965738E+04  2.698232E-10  2.265761E-10
       514  14  6.448061E+05  1.474206E+03  1.126458E+04  7.403859E+04 -5.663725E-10 -1.500225E-10
       514  15  6.455458E+05  6.827834E+02  9.771891E+03  7.965794E+04 -1.067304E-10  8.266356E-11
       514  16  6.033880E+05 -4.804350E+03  9.005286E+03  7.663168E+04 -1.100911E-12 -1.917434E-12
       514  17  6.659444E+05  6.129240E+03  1.342016E+04  7.264864E+04 -2.520296E-10  5.895425E-11
       514  18  7.298187E+05  1.988565E+04  2.157960E+04  7.990392E+04 -1.005334E-10  1.319595E-10
       514  19  6.877030E+05  1.531223E+04  2.532263E+04  8.268327E+04 -2.838654E+03  1.686938E+03
       514  20  6.236683E+05 -3.180826E+03  9.109030E+03  7.542848E+04  3.742546E+03 -2.221467E+03
       514  21  5.612802E+05 -1.852032E+04 -2.035623E+03  7.941194E+04  1.032314E+04 -6.571604E+03
       514  22  6.455447E+05  5.254005E+03  1.716421E+04  7.965736E+04 -1.081252E+04  1.685481E+03
       514  23  6.448061E+05  1.474219E+03  1.126464E+04  7.403860E+04 -5.186059E+03 -2.223056E+03
       514  24  6.455458E+05  6.828298E+02  9.771973E+03  7.965794E+04  4.404044E+02 -6.573284E+03
       514  25  6.033883E+05 -4.804253E+03  9.005954E+03  7.663166E+04 -1.878587E+04  1.684102E+03
       514  26  6.659446E+05  6.129298E+03  1.342055E+04  7.264867E+04 -1.411495E+04 -2.224605E+03
       514  27  7.298188E+05  1.988572E+04  2.157984E+04  7.990397E+04 -9.443613E+03 -6.574971E+03
       515   1  5.217790E+05 -2.761788E+04 -7.639103E+03  8.003424E+04 -1.201899E+04  9.293684E+03
       515   2  4.577939E+05 -4.090819E+04 -1.411989E+04  7.219181E+04 -1.668932E+04  1.334715E+04
       515   3  3.953175E+05 -5.062310E+04 -1.666707E+04  7.555393E+04 -2.135885E+04  1.637056E+04
       515   4  6.456358E+05  7.111243E+02  1.023185E+04  7.965035E+04 -2.144329E+03  9.295193E+03
       515   5  6.446851E+05  2.031372E+03  1.380028E+04  7.404787E+04 -9.043081E+03  1.334778E+04
       515   6  6.456247E+05  7.312948E+03  2.284740E+04  7.964949E+04 -1.594149E+04  1.637043E+04
       515   7  7.695083E+05  2.903948E+04  2.810292E+04  7.926638E+04  7.732220E+03  9.296690E+03
       515   8  8.316115E+05  4.496933E+04  4.171999E+04  7.590451E+04 -1.394634E+03  1.334845E+04
       515   9  8.959943E+05  6.524597E+04  6.236043E+04  8.374675E+04 -1.052202E+04  1.637038E+04
       515  10  5.217789E+05 -2.761801E+04 -7.639537E+03  8.003433E+04  5.194355E-10  1.908505E-10
       515  11  4.577935E+05 -4.090846E+04 -1.412075E+04  7.219199E+04  8.415157E-11 -1.459854E-10
       515  12  3.953169E+05 -5.062351E+04 -1.666844E+04  7.555421E+04 -9.571391E-11 -2.530270E-10
       515  13  6.456358E+05  7.110302E+02  1.023168E+04  7.965037E+04  8.867016E-11  5.312104E-11
       515  14  6.446849E+05  2.031159E+03  1.379979E+04  7.404797E+04  1.446009E-10 -5.035973E-11
       515  15  6.456243E+05  7.312592E+03  2.284642E+04  7.964970E+04 -8.977458E-11 -1.760403E-10
       515  16  7.695082E+05  2.903937E+04  2.810265E+04  7.926632E+04 -1.905879E-10 -8.494023E-12
       515  17  8.316114E+05  4.496914E+04  4.171965E+04  7.590453E+04  3.454892E-12 -7.433327E-11
       515  18  8.959941E+05  6.524565E+04  6.235972E+04  8.374689E+04  3.803825E-10 -3.000902E-11
       515  19  5.217790E+05 -2.761788E+04 -7.639103E+03  8.003424E+04  1.201899E+04 -9.293684E+03
       515  20  4.577939E+05 -4.090819E+04 -1.411989E+04  7.219181E+04  1.668932E+04 -1.334715E+04
       515  21  3.953175E+05 -5.062310E+04 -1.666707E+04  7.555393E+04  2.135885E+04 -1.637056E+04
       515  22  6.456358E+05  7.111243E+02  1.023185E+04  7.965035E+04  2.144329E+03 -9.295193E+03
       515  23  6.446851E+05  2.031372E+03  1.380028E+04  7.404787E+04  9.043081E+03 -1.334778E+04
       515  24  6.456247E+05  7.312948E+03  2.284740E+04  7.964949E+04  1.594149E+04 -1.637043E+04
       515  25  7.695083E+05  2.903948E+04  2.810292E+04  7.926638E+04 -7.732220E+03 -9.296690E+03
       515  26  8.316115E+05  4.496933E+04  4.171999E+04  7.590451E+04  1.394634E+03 -1.334845E+04
       515  27  8.959943E+05  6.524597E+04  6.236043E+04  8.374675E+04  1.052202E+04 -1.637038E+04
       516   1  3.581258E+05 -5.802979E+04 -1.721550E+04  7.867632E+04 -2.514641E+04  1.815073E+04
       516   2  2.890049E+05 -5.153557E+04 -1.153724E+04  4.049137E+04 -3.309845E+04  1.607164E+04
       516   3  2.314417E+05 -3.027991E+03  9.823291E+03  1.288015E+04 -4.105054E+04  4.944151E+03
       516   4  6.485209E+05  9.422484E+03  2.981289E+04  7.950791E+04 -1.987322E+04  1.815040E+04
       516   5  6.410311E+05  3.190458E+04  5.382252E+04  7.422108E+04 -4.738869E+04  1.606850E+04
       516   6  6.484770E+05  9.977632E+04  1.070845E+05  7.950503E+04 -7.490559E+04  4.939710E+03
       516   7  9.389996E+05  7.687050E+04  7.683907E+04  8.033991E+04 -1.459764E+04  1.815009E+04
       516   8  9.931800E+05  1.153420E+05  1.191784E+05  1.079704E+05 -6.168681E+04  1.606380E+04
       516   9  1.065684E+06  2.025856E+05  2.043406E+05  1.461749E+05 -1.087832E+05  4.928011E+03
       516  10  3.581250E+05 -5.803031E+04 -1.721731E+04  7.867668E+04  2.841624E-10 -3.504302E-10
       516  11  2.890036E+05 -5.153614E+04 -1.153979E+04  4.049179E+04  1.909534E-10 -3.911448E-10
       516  12  2.314399E+05 -3.028470E+03  9.820080E+03  1.288031E+04 -3.481912E-10 -1.809935E-10
       516  13  6.485204E+05  9.422025E+03  2.981153E+04  7.950820E+04 -1.120376E-11 -2.181965E-10
       516  14  6.410286E+05  3.190370E+04  5.381782E+04  7.422170E+04 -1.068721E-11 -3.167932E-10
       516  15  6.484709E+05  9.977479E+04  1.070739E+05  7.950533E+04 -9.318309E-11 -8.441170E-11
       516  16  9.389993E+05  7.687009E+04  7.683805E+04  8.034012E+04 -3.563605E-10 -1.327307E-10
       516  17  9.931759E+05  1.153407E+05  1.191708E+05  1.079712E+05 -4.103344E-10 -2.626413E-10
       516  18  1.065672E+06  2.025824E+05  2.043184E+05  1.461754E+05  3.219802E-10 -9.865937E-11
       516  19  3.581258E+05 -5.802979E+04 -1.721550E+04  7.867632E+04  2.514641E+04 -1.815073E+04
       516  20  2.890049E+05 -5.153557E+04 -1.153724E+04  4.049137E+04  3.309845E+04 -1.607164E+04
       516  21  2.314417E+05 -3.027991E+03  9.823291E+03  1.288015E+04  4.105054E+04 -4.944151E+03
       516  22  6.485209E+05  9.422484E+03  2.981289E+04  7.950791E+04  1.987322E+04 -1.815040E+04
       516  23  6.410311E+05  3.190458E+04  5.382252E+04  7.422108E+04  4.738869E+04 -1.606850E+04
       516  24  6.484770E+05  9.977632E+04  1.070845E+05  7.950503E+04  7.490559E+04 -4.939710E+03
       516  25  9.389996E+05  7.687050E+04  7.683907E+04  8.033991E+04  1.459764E+04 -1.815009E+04
       516  26  9.931800E+05  1.153420E+05  1.191784E+05  1.079704E+05  6.168681E+04 -1.606380E+04
       516  27  1.065684E+06  2.025856E+05  2.043406E+05  1.461749E+05  1.087832E+05 -4.928011E+03
       517   1 -6.803910E+05 -1.531176E+05 -1.699092E+05 -1.158614E+05 -1.307517E+05 -2.246391E+03
       517   2 -6.777970E+05 -2.499391E+04 -7.634252E+04 -5.240345E+04 -8.490774E+04 -7.808999E+03
       517   3 -7.030224E+05  1.573720E+04 -3.448704E+04  1.277672E+04 -3.906387E+04 -9.746071E+03
       517   4 -8.505960E+05 -1.951322E+05 -2.092823E+05  1.427863E+04 -1.465817E+05 -2.271951E+03
       517   5 -8.359629E+05 -6.239267E+04 -1.049153E+05  1.342669E+04 -9.294555E+04 -7.817385E+03
       517   6 -8.505194E+05 -1.842815E+04 -5.768544E+04  1.429384E+04 -3.930746E+04 -9.746368E+03
       517   7 -1.020737E+06 -2.370850E+05 -2.486473E+05  1.443827E+05 -1.624075E+05 -2.304161E+03
       517   8 -9.940949E+05 -9.977650E+04 -1.334865E+05  7.923958E+04 -1.009814E+05 -7.827480E+03
       517   9 -9.979946E+05 -5.259458E+04 -8.088438E+04  1.581059E+04 -3.955100E+04 -9.746666E+03
       517  10 -6.804093E+05 -1.531222E+05 -1.699413E+05 -1.158617E+05 -1.171158E-10 -7.763207E-11
       517  11 -6.778048E+05 -2.499591E+04 -7.635619E+04 -5.240398E+04  1.181472E-11 -2.136304E-10
       517  12 -7.030241E+05  1.573669E+04 -3.449009E+04  1.277641E+04  8.987334E-10 -2.663597E-10
       517  13 -8.506191E+05 -1.951380E+05 -2.093227E+05  1.427836E+04 -3.657014E-10 -1.406995E-10
       517  14 -8.359722E+05 -6.239506E+04 -1.049317E+05  1.342611E+04 -3.117639E-10 -2.236369E-10
       517  15 -8.505210E+05 -1.842867E+04 -5.768853E+04  1.429353E+04  3.208567E-10 -2.353261E-10
       517  16 -1.020766E+06 -2.370921E+05 -2.486969E+05  1.443824E+05 -3.998056E-10 -8.171400E-11
       517  17 -9.941059E+05 -9.977931E+04 -1.335058E+05  7.923894E+04 -7.105964E-10 -3.034931E-10
       517  18 -9.979963E+05 -5.259510E+04 -8.088750E+04  1.581028E+04 -1.246067E-09 -4.659788E-10
       517  19 -6.803910E+05 -1.531176E+05 -1.699092E+05 -1.158614E+05  1.307517E+05  2.246391E+03
       517  20 -6.777970E+05 -2.499391E+04 -7.634252E+04 -5.240345E+04  8.490774E+04  7.808999E+03
       517  21 -7.030224E+05  1.573720E+04 -3.448704E+04  1.277672E+04  3.906387E+04  9.746071E+03
       517  22 -8.505960E+05 -1.951322E+05 -2.092823E+05  1.427863E+04  1.465817E+05  2.271951E+03
       517  23 -8.359629E+05 -6.239267E+04 -1.049153E+05  1.342669E+04  9.294555E+04  7.817385E+03
       517  24 -8.505194E+05 -1.842815E+04 -5.768544E+04  1.429384E+04  3.930746E+04  9.746368E+03
       517  25 -1.020737E+06 -2.370850E+05 -2.486473E+05  1.443827E+05  1.624075E+05  2.304161E+03
       517  26 -9.940949E+05 -9.977650E+04 -1.334865E+05  7.923958E+04  1.009814E+05  7.827480E+03
       517  27 -9.979946E+05 -5.259458E+04 -8.088438E+04  1.581059E+04  3.955100E+04  9.746666E+03
       518   1 -7.046539E+05  1.804204E+04 -2.239920E+04  6.471819E+03 -3.156992E+04 -9.672365E+03
       518   2 -7.143175E+05  2.557131E+04 -6.773719E+03  9.822684E+03 -1.976814E+04 -9.535161E+03
       518   3 -7.273733E+05  2.567930E+04 -6.923956E+02  1.517074E+04 -7.966443E+03 -8.941898E+03
       518   4 -8.448278E+05 -1.431293E+04 -4.386971E+04  1.435363E+04 -3.175848E+04 -9.672965E+03
       518   5 -8.430411E+05 -3.956700E+03 -2.557379E+04  1.335517E+04 -1.897545E+04 -9.535506E+03
       518   6 -8.448183E+05 -1.193357E+03 -1.750567E+04  1.435403E+04 -6.192280E+03 -8.942105E+03
       518   7 -9.849818E+05 -4.666861E+04 -6.534062E+04  2.223359E+04 -3.194700E+04 -9.673570E+03
       518   8 -9.717480E+05 -3.348543E+04 -4.437412E+04  1.688690E+04 -1.818292E+04 -9.535842E+03
       518   9 -9.622492E+05 -2.806664E+04 -3.431914E+04  1.353749E+04 -4.418438E+03 -8.942316E+03
       518  10 -7.046550E+05  1.804167E+04 -2.240125E+04  6.471573E+03 -1.879774E-10 -3.324237E-10
       518  11 -7.143179E+05  2.557111E+04 -6.774625E+03  9.822532E+03 -1.656073E-10 -1.002935E-10
       518  12 -7.273734E+05  2.567920E+04 -6.926652E+02  1.517068E+04  6.014931E-10  1.332042E-10
       518  13 -8.448289E+05 -1.431330E+04 -4.387179E+04  1.435338E+04 -3.076377E-10 -4.073582E-10
       518  14 -8.430415E+05 -3.956895E+03 -2.557463E+04  1.335503E+04 -4.219787E-10 -1.338886E-10
       518  15 -8.448183E+05 -1.193453E+03 -1.750589E+04  1.435399E+04  3.029391E-10  5.891433E-11
       518  16 -9.849830E+05 -4.666898E+04 -6.534271E+04  2.223334E+04  2.201012E-10 -2.552650E-10
       518  17 -9.717484E+05 -3.348562E+04 -4.437492E+04  1.688676E+04 -2.857015E-10 -2.195241E-11
       518  18 -9.622493E+05 -2.806673E+04 -3.431933E+04  1.353745E+04 -5.043967E-10 -7.575918E-11
       518  19 -7.046539E+05  1.804204E+04 -2.239920E+04  6.471819E+03  3.156992E+04  9.672365E+03
       518  20 -7.143175E+05  2.557131E+04 -6.773719E+03  9.822684E+03  1.976814E+04  9.535161E+03
       518  21 -7.273733E+05  2.567930E+04 -6.923956E+02  1.517074E+04  7.966443E+03  8.941898E+03
       518  22 -8.448278E+05 -1.431293E+04 -4.386971E+04  1.435363E+04  3.175848E+04  9.672965E+03
       518  23 -8.430411E+05 -3.956700E+03 -2.557379E+04  1.335517E+04  1.897545E+04  9.535506E+03
       518  24 -8.448183E+05 -1.193357E+03 -1.750567E+04  1.435403E+04  6.192280E+03  8.942105E+03
       518  25 -9.849818E+05 -4.666861E+04 -6.534062E+04  2.223359E+04  3.194700E+04  9.673570E+03
       518  26 -9.717480E+05 -3.348543E+04 -4.437412E+04  1.688690E+04  1.818292E+04  9.535842E+03
       518  27 -9.622492E+05 -2.806664E+04 -3.431914E+04  1.353749E+04  4.418438E+03  8.942316E+03
       519   1 -7.341640E+05  2.414763E+04 -8.166322E+01  1.412525E+04 -5.143561E+03 -8.451141E+03
       519   2 -7.445661E+05  2.078070E+04 -2.014804E+03  1.519455E+04  2.513309E+03 -7.529672E+03
       519   3 -7.569438E+05  1.350071E+04 -9.915096E+03  1.830789E+04  1.016988E+04 -6.417712E+03
       519   4 -8.444809E+05 -1.079674E+03 -1.580169E+04  1.436434E+04 -3.359711E+03 -8.451324E+03
       519   5 -8.434583E+05 -1.847101E+03 -1.617201E+04  1.334218E+04  4.706920E+03 -7.529808E+03
       519   6 -8.444829E+05 -6.599236E+03 -2.279499E+04  1.436414E+04  1.277337E+04 -6.417836E+03
       519   7 -9.547856E+05 -2.630753E+04 -3.152188E+04  1.460338E+04 -1.576165E+03 -8.451506E+03
       519   8 -9.423405E+05 -2.447534E+04 -3.032933E+04  1.149011E+04  6.900195E+03 -7.529957E+03
       519   9 -9.320143E+05 -2.669948E+04 -3.567499E+04  1.042098E+04  1.537650E+04 -6.417994E+03
       519  10 -7.341640E+05  2.414755E+04 -8.184715E+01  1.412522E+04  5.489321E-10  7.317185E-11
       519  11 -7.445662E+05  2.078064E+04 -2.014922E+03  1.519457E+04  3.377163E-10  5.769894E-12
       519  12 -7.569439E+05  1.350064E+04 -9.915368E+03  1.830794E+04  4.403889E-10 -1.373657E-11
       519  13 -8.444810E+05 -1.079754E+03 -1.580185E+04  1.436431E+04  2.731626E-10 -1.411646E-11
       519  14 -8.434583E+05 -1.847168E+03 -1.617215E+04  1.334220E+04 -5.763431E-11 -2.868563E-11
       519  15 -8.444831E+05 -6.599325E+03 -2.279538E+04  1.436421E+04 -6.136419E-11 -9.765852E-11
       519  16 -9.547856E+05 -2.630761E+04 -3.152202E+04  1.460337E+04 -1.494335E-10 -9.756379E-11
       519  17 -9.423405E+05 -2.447541E+04 -3.032953E+04  1.149015E+04 -6.114822E-10 -7.910067E-11
       519  18 -9.320146E+05 -2.669959E+04 -3.567551E+04  1.042106E+04 -3.754598E-10 -1.843549E-10
       519  19 -7.341640E+05  2.414763E+04 -8.166322E+01  1.412525E+04  5.143561E+03  8.451141E+03
       519  20 -7.445661E+05  2.078070E+04 -2.014804E+03  1.519455E+04 -2.513309E+03  7.529672E+03
       519  21 -7.569438E+05  1.350071E+04 -9.915096E+03  1.830789E+04 -1.016988E+04  6.417712E+03
       519  22 -8.444809E+05 -1.079674E+03 -1.580169E+04  1.436434E+04  3.359711E+03  8.451324E+03
       519  23 -8.434583E+05 -1.847101E+03 -1.617201E+04  1.334218E+04 -4.706920E+03  7.529808E+03
       519  24 -8.444829E+05 -6.599236E+03 -2.279499E+04  1.436414E+04 -1.277337E+04  6.417836E+03
       519  25 -9.547856E+05 -2.630753E+04 -3.152188E+04  1.460338E+04  1.576165E+03  8.451506E+03
       519  26 -9.423405E+05 -2.447534E+04 -3.032933E+04  1.149011E+04 -6.900195E+03  7.529957E+03
       519  27 -9.320143E+05 -2.669948E+04 -3.567499E+04  1.042098E+04 -1.537650E+04  6.417994E+03
       520   1 -7.665773E+05  9.990689E+03 -1.654581E+04  1.528206E+04  1.403218E+04 -5.752517E+03
       520   2 -7.713776E+05 -1.290142E+04 -3.803663E+04  4.414032E+04  3.697707E+04 -3.968796E+03
       520   3 -7.894104E+05 -7.675253E+04 -8.471758E+04  7.513212E+04  5.992197E+04 -1.051543E+03
       520   4 -8.470617E+05 -8.531097E+03 -2.859585E+04  1.438404E+04  1.665436E+04 -5.752563E+03
       520   5 -8.402492E+05 -2.902153E+04 -4.968502E+04  1.331705E+04  4.203859E+04 -3.970536E+03
       520   6 -8.470957E+05 -9.090049E+04 -9.766131E+04  1.438449E+04  6.742307E+04 -1.057134E+03
       520   7 -9.275396E+05 -2.705318E+04 -4.064600E+04  1.348615E+04  1.927620E+04 -5.752615E+03
       520   8 -9.091141E+05 -4.513830E+04 -6.133295E+04 -1.750268E+04  4.709957E+04 -3.972779E+03
       520   9 -9.047699E+05 -1.050348E+05 -1.106031E+05 -4.635743E+04  7.492347E+04 -1.064196E+03
       520  10 -7.665775E+05  9.990601E+03 -1.654624E+04  1.528212E+04  5.121096E-10 -6.045300E-11
       520  11 -7.713791E+05 -1.290181E+04 -3.803923E+04  4.414044E+04  7.385721E-10 -2.042160E-10
       520  12 -7.894143E+05 -7.675350E+04 -8.472434E+04  7.513217E+04  2.353385E-10 -1.423799E-10
       520  13 -8.470620E+05 -8.531207E+03 -2.859644E+04  1.438412E+04  1.391127E-11 -1.681481E-10
       520  14 -8.402511E+05 -2.902202E+04 -4.968837E+04  1.331719E+04  8.292387E-11 -1.068512E-10
       520  15 -8.471006E+05 -9.090172E+04 -9.766987E+04  1.438455E+04 -3.071493E-10  1.143792E-11
       520  16 -9.275400E+05 -2.705332E+04 -4.064676E+04  1.348623E+04 -6.165663E-10 -1.827274E-10
       520  17 -9.091164E+05 -4.513891E+04 -6.133716E+04 -1.750253E+04 -1.140046E-09 -9.120325E-11
       520  18 -9.047759E+05 -1.050363E+05 -1.106136E+05 -4.635737E+04 -3.547730E-10 -1.999258E-11
       520  19 -7.665773E+05  9.990689E+03 -1.654581E+04  1.528206E+04 -1.403218E+04  5.752517E+03
       520  20 -7.713776E+05 -1.290142E+04 -3.803663E+04  4.414032E+04 -3.697707E+04  3.968796E+03
       520  21 -7.894104E+05 -7.675253E+04 -8.471758E+04  7.513212E+04 -5.992197E+04  1.051543E+03
       520  22 -8.470617E+05 -8.531097E+03 -2.859585E+04  1.438404E+04 -1.665436E+04  5.752563E+03
       520  23 -8.402492E+05 -2.902153E+04 -4.968502E+04  1.331705E+04 -4.203859E+04  3.970536E+03
       520  24 -8.470957E+05 -9.090049E+04 -9.766131E+04  1.438449E+04 -6.742307E+04  1.057134E+03
       520  25 -9.275396E+05 -2.705318E+04 -4.064600E+04  1.348615E+04 -1.927620E+04  5.752615E+03
       520  26 -9.091141E+05 -4.513830E+04 -6.133295E+04 -1.750268E+04 -4.709957E+04  3.972779E+03
       520  27 -9.047699E+05 -1.050348E+05 -1.106031E+05 -4.635743E+04 -7.492347E+04  1.064196E+03
       521   1 -4.265744E+05  6.798743E+03 -2.681407E+03 -1.869643E+04 -2.251942E+04 -4.033348E+03
       521   2 -4.437853E+05  4.436530E+04  1.395603E+04  1.904422E+03 -1.768198E+04 -1.376514E+04
       521   3 -4.686889E+05  5.366179E+04  2.037664E+04  2.573665E+04 -1.284497E+04 -1.709683E+04
       521   4 -7.278457E+05 -6.743017E+04 -7.237290E+04  2.629347E+04 -5.042048E+04 -4.037127E+03
       521   5 -7.227839E+05 -2.155413E+04 -3.648289E+04  2.467367E+04 -3.177281E+04 -1.376789E+04
       521   6 -7.278198E+05 -6.356674E+03 -2.041096E+04  2.628537E+04 -1.312496E+04 -1.709756E+04
       521   7 -1.029027E+06 -1.416574E+05 -1.420664E+05  7.126136E+04 -7.830808E+04 -4.044954E+03
       521   8 -1.001705E+06 -8.747587E+04 -8.692384E+04  4.743239E+04 -4.585748E+04 -1.377167E+04
       521   9 -9.868838E+05 -6.637846E+04 -6.120022E+04  2.683386E+04 -1.340482E+04 -1.709830E+04
       521  10 -4.265749E+05  6.798589E+03 -2.682391E+03 -1.869650E+04  1.236707E-10  6.458361E-12
       521  11 -4.437857E+05  4.436501E+04  1.395508E+04  1.904226E+03 -4.373367E-10  8.521179E-11
       521  12 -4.686892E+05  5.366143E+04  2.037578E+04  2.573648E+04 -4.219867E-10 -3.113435E-11
       521  13 -7.278485E+05 -6.743087E+04 -7.237771E+04  2.629331E+04 -4.902303E-10  2.898049E-11
       521  14 -7.227850E+05 -2.155461E+04 -3.648515E+04  2.467332E+04  4.316151E-10 -2.859654E-10
       521  15 -7.278201E+05 -6.357034E+03 -2.041184E+04  2.628519E+04  6.845253E-11  1.000521E-10
       521  16 -1.029034E+06 -1.416591E+05 -1.420780E+05  7.126110E+04 -5.965907E-10  3.092232E-11
       521  17 -1.001707E+06 -8.747664E+04 -8.692815E+04  4.743188E+04  2.834711E-10 -2.222859E-10
       521  18 -9.868840E+05 -6.637882E+04 -6.120110E+04  2.683367E+04  4.700881E-10  3.242324E-11
       521  19 -4.265744E+05  6.798743E+03 -2.681407E+03 -1.869643E+04  2.251942E+04  4.033348E+03
       521  20 -4.437853E+05  4.436530E+04  1.395603E+04  1.904422E+03  1.768198E+04  1.376514E+04
       521  21 -4.686889E+05  5.366179E+04  2.037664E+04  2.573665E+04  1.284497E+04  1.709683E+04
       521  22 -7.278457E+05 -6.743017E+04 -7.237290E+04  2.629347E+04  5.042048E+04  4.037127E+03
       521  23 -7.227839E+05 -2.155413E+04 -3.648289E+04  2.467367E+04  3.177281E+04  1.376789E+04
       521  24 -7.278198E+05 -6.356674E+03 -2.041096E+04  2.628537E+04  1.312496E+04  1.709756E+04
       521  25 -1.029027E+06 -1.416574E+05 -1.420664E+05  7.126136E+04  7.830808E+04  4.044954E+03
       521  26 -1.001705E+06 -8.747587E+04 -8.692384E+04  4.743239E+04  4.585748E+04  1.377167E+04
       521  27 -9.868838E+05 -6.637846E+04 -6.120022E+04  2.683386E+04  1.340482E+04  1.709830E+04
       522   1 -4.802999E+05  5.174673E+04  2.182918E+04  2.362285E+04 -1.023533E+04 -1.692236E+04
       522   2 -5.008527E+05  5.008855E+04  2.276500E+04  2.329257E+04 -6.968178E+03 -1.660459E+04
       522   3 -5.224394E+05  4.598741E+04  2.096265E+04  2.666757E+04 -3.701431E+03 -1.548288E+04
       522   4 -7.258725E+05 -4.928360E+03 -1.581171E+04  2.639081E+04 -1.041526E+04 -1.692309E+04
       522   5 -7.252016E+05 -1.367515E+03 -1.001347E+04  2.453759E+04 -5.414344E+03 -1.660488E+04
       522   6 -7.258670E+05 -5.515165E+02 -8.159297E+03  2.638980E+04 -4.137487E+02 -1.548261E+04
       522   7 -9.713847E+05 -6.160634E+04 -5.345390E+04  2.915762E+04 -1.059511E+04 -1.692381E+04
       522   8 -9.494996E+05 -5.282590E+04 -4.279278E+04  2.578213E+04 -3.861047E+03 -1.660517E+04
       522   9 -9.292527E+05 -4.709232E+04 -3.728182E+04  2.611212E+04  2.872902E+03 -1.548233E+04
       522  10 -4.803000E+05  5.174639E+04  2.182844E+04  2.362271E+04 -8.306090E-11 -1.885299E-11
       522  11 -5.008528E+05  5.008824E+04  2.276439E+04  2.329248E+04  8.537618E-11 -5.148698E-11
       522  12 -5.224394E+05  4.598715E+04  2.096217E+04  2.666752E+04  4.171402E-10 -2.100196E-10
       522  13 -7.258727E+05 -4.928696E+03 -1.581245E+04  2.639067E+04  4.431711E-11  1.206431E-10
       522  14 -7.252017E+05 -1.367819E+03 -1.001404E+04  2.453752E+04 -1.085244E-10  3.004624E-10
       522  15 -7.258671E+05 -5.517738E+02 -8.159747E+03  2.638979E+04 -6.847055E-12 -2.358935E-10
       522  16 -9.713849E+05 -6.160667E+04 -5.345465E+04  2.915748E+04  6.240445E-10  6.256197E-11
       522  17 -9.494997E+05 -5.282620E+04 -4.279333E+04  2.578208E+04  2.095844E-10  8.455530E-11
       522  18 -9.292528E+05 -4.709258E+04 -3.728228E+04  2.611216E+04 -2.880414E-10 -1.417616E-10
       522  19 -4.802999E+05  5.174673E+04  2.182918E+04  2.362285E+04  1.023533E+04  1.692236E+04
       522  20 -5.008527E+05  5.008855E+04  2.276500E+04  2.329257E+04  6.968178E+03  1.660459E+04
       522  21 -5.224394E+05  4.598741E+04  2.096265E+04  2.666757E+04  3.701431E+03  1.548288E+04
       522  22 -7.258725E+05 -4.928360E+03 -1.581171E+04  2.639081E+04  1.041526E+04  1.692309E+04
       522  23 -7.252016E+05 -1.367515E+03 -1.001347E+04  2.453759E+04  5.414344E+03  1.660488E+04
       522  24 -7.258670E+05 -5.515165E+02 -8.159297E+03  2.638980E+04  4.137487E+02  1.548261E+04
       522  25 -9.713847E+05 -6.160634E+04 -5.345390E+04  2.915762E+04  1.059511E+04  1.692381E+04
       522  26 -9.494996E+05 -5.282590E+04 -4.279278E+04  2.578213E+04  3.861047E+03  1.660517E+04
       522  27 -9.292527E+05 -4.709232E+04 -3.728182E+04  2.611212E+04 -2.872902E+03  1.548233E+04
       523   1 -5.356715E+05  4.293263E+04  1.883626E+04  2.616477E+04 -2.321956E+03 -1.457306E+04
       523   2 -5.561239E+05  3.718626E+04  1.360810E+04  2.592389E+04  2.282432E+03 -1.288476E+04
       523   3 -5.778866E+05  2.860025E+04  4.670239E+03  2.946977E+04  6.886498E+03 -1.088414E+04
       523   4 -7.258863E+05 -5.566273E+02 -8.259457E+03  2.640783E+04  9.826773E+02 -1.457267E+04
       523   5 -7.251726E+05 -1.483762E+03 -1.056536E+04  2.451495E+04  6.259894E+03 -1.288402E+04
       523   6 -7.258864E+05 -5.367798E+03 -1.704913E+04  2.640894E+04  1.153693E+04 -1.088302E+04
       523   7 -9.160644E+05 -4.404752E+04 -3.535565E+04  2.665081E+04  4.286340E+03 -1.457227E+04
       523   8 -8.941923E+05 -4.015507E+04 -3.473919E+04  2.310642E+04  1.023632E+04 -1.288329E+04
       523   9 -8.738642E+05 -3.933681E+04 -3.876880E+04  2.334887E+04  1.618631E+04 -1.088195E+04
       523  10 -5.356716E+05  4.293240E+04  1.883585E+04  2.616474E+04 -2.256817E-10 -1.065582E-10
       523  11 -5.561239E+05  3.718608E+04  1.360778E+04  2.592391E+04 -3.672183E-10 -5.631378E-11
       523  12 -5.778866E+05  2.860011E+04  4.669927E+03  2.946983E+04  4.893234E-10 -6.281685E-10
       523  13 -7.258863E+05 -5.568555E+02 -8.259858E+03  2.640784E+04  1.973105E-10 -2.203696E-10
       523  14 -7.251727E+05 -1.483951E+03 -1.056575E+04  2.451502E+04  5.475083E-11 -2.060413E-10
       523  15 -7.258866E+05 -5.367961E+03 -1.704961E+04  2.640904E+04 -1.203576E-10 -2.565286E-10
       523  16 -9.160645E+05 -4.404775E+04 -3.535609E+04  2.665086E+04  3.079943E-10 -1.760522E-10
       523  17 -8.941924E+05 -4.015527E+04 -3.473969E+04  2.310652E+04 -6.116022E-10  3.441013E-10
       523  18 -8.738645E+05 -3.933701E+04 -3.876952E+04  2.334901E+04 -7.131777E-10  2.450033E-10
       523  19 -5.356715E+05  4.293263E+04  1.883626E+04  2.616477E+04  2.321956E+03  1.457306E+04
       523  20 -5.561239E+05  3.718626E+04  1.360810E+04  2.592389E+04 -2.282432E+03  1.288476E+04
       523  21 -5.778866E+05  2.860025E+04  4.670239E+03  2.946977E+04 -6.886498E+03  1.088414E+04
       523  22 -7.258863E+05 -5.566273E+02 -8.259457E+03  2.640783E+04 -9.826773E+02  1.457267E+04
       523  23 -7.251726E+05 -1.483762E+03 -1.056536E+04  2.451495E+04 -6.259894E+03  1.288402E+04
       523  24 -7.258864E+05 -5.367798E+03 -1.704913E+04  2.640894E+04 -1.153693E+04  1.088302E+04
       523  25 -9.160644E+05 -4.404752E+04 -3.535565E+04  2.665081E+04 -4.286340E+03  1.457227E+04
       523  26 -8.941923E+05 -4.015507E+04 -3.473919E+04  2.310642E+04 -1.023632E+04  1.288329E+04
       523  27 -8.738642E+05 -3.933681E+04 -3.876880E+04  2.334887E+04 -1.618631E+04  1.088195E+04
       524   1 -5.931038E+05  2.410689E+04 -1.993341E+03  2.708250E+04  9.781496E+03 -9.687784E+03
       524   2 -6.090807E+05  3.045171E+03 -2.065382E+04  4.935454E+04  2.620372E+04 -6.612386E+03
       524   3 -6.353977E+05 -5.080229E+04 -5.821071E+04  7.555970E+04  4.262497E+04 -1.736138E+03
       524   4 -7.280158E+05 -6.921498E+03 -2.211934E+04  2.644007E+04  1.446185E+04 -9.686528E+03
       524   5 -7.225185E+05 -2.349439E+04 -3.972568E+04  2.448248E+04  3.476562E+04 -6.610727E+03
       524   6 -7.280384E+05 -7.353267E+04 -7.892763E+04  2.645945E+04  5.506868E+04 -1.735210E+03
       524   7 -8.629094E+05 -3.795074E+04 -4.224560E+04  2.579778E+04  1.914122E+04 -9.685280E+03
       524   8 -8.359422E+05 -5.003227E+04 -5.879734E+04 -3.848916E+02  4.332601E+04 -6.609754E+03
       524   9 -8.206655E+05 -9.625448E+04 -9.964322E+04 -2.263340E+04  6.751055E+04 -1.736252E+03
       524  10 -5.931040E+05  2.410677E+04 -1.993698E+03  2.708258E+04  1.334415E-10 -9.506082E-10
       524  11 -6.090815E+05  3.044939E+03 -2.065519E+04  4.935468E+04 -2.365600E-10 -9.646724E-10
       524  12 -6.353997E+05 -5.080278E+04 -5.821413E+04  7.555976E+04 -5.760682E-10 -2.502575E-10
       524  13 -7.280160E+05 -6.921655E+03 -2.211991E+04  2.644018E+04  9.997668E-10 -1.467936E-09
       524  14 -7.225199E+05 -2.349476E+04 -3.972804E+04  2.448266E+04 -1.020620E-09  6.406609E-10
       524  15 -7.280416E+05 -7.353349E+04 -7.893334E+04  2.645952E+04  1.920707E-10 -5.271225E-11
       524  16 -8.629098E+05 -3.795093E+04 -4.224647E+04  2.579793E+04 -1.305217E-10  1.057670E-10
       524  17 -8.359442E+05 -5.003282E+04 -5.880095E+04 -3.846609E+02 -5.105983E-11  5.457153E-10
       524  18 -8.206704E+05 -9.625571E+04 -9.965180E+04 -2.263331E+04  7.648667E-10 -2.379778E-10
       524  19 -5.931038E+05  2.410689E+04 -1.993341E+03  2.708250E+04 -9.781496E+03  9.687784E+03
       524  20 -6.090807E+05  3.045171E+03 -2.065382E+04  4.935454E+04 -2.620372E+04  6.612386E+03
       524  21 -6.353977E+05 -5.080229E+04 -5.821071E+04  7.555970E+04 -4.262497E+04  1.736138E+03
       524  22 -7.280158E+05 -6.921498E+03 -2.211934E+04  2.644007E+04 -1.446185E+04  9.686528E+03
       524  23 -7.225185E+05 -2.349439E+04 -3.972568E+04  2.448248E+04 -3.476562E+04  6.610727E+03
       524  24 -7.280384E+05 -7.353267E+04 -7.892763E+04  2.645945E+04 -5.506868E+04  1.735210E+03
       524  25 -8.629094E+05 -3.795074E+04 -4.224560E+04  2.579778E+04 -1.914122E+04  9.685280E+03
       524  26 -8.359422E+05 -5.003227E+04 -5.879734E+04 -3.848916E+02 -4.332601E+04  6.609754E+03
       524  27 -8.206655E+05 -9.625448E+04 -9.964322E+04 -2.263340E+04 -6.751055E+04  1.736252E+03
       525   1 -2.868290E+05  3.334215E+04  2.269857E+04  8.066146E+03 -1.392162E+04 -5.150977E+03
       525   2 -3.252404E+05  6.405939E+04  2.997808E+04  2.644857E+04 -1.429111E+04 -1.725627E+04
       525   3 -3.702972E+05  6.797671E+04  3.080224E+04  5.157179E+04 -1.466330E+04 -2.071409E+04
       525   4 -6.901039E+05 -6.604467E+04 -7.092819E+04  5.205491E+04 -4.937469E+04 -5.166691E+03
       525   5 -6.851404E+05 -2.109105E+04 -3.578511E+04  4.866981E+04 -3.107920E+04 -1.726532E+04
       525   6 -6.900737E+05 -6.190709E+03 -2.007178E+04  5.202671E+04 -1.278621E+04 -2.071416E+04
       525   7 -1.093222E+06 -1.654350E+05 -1.645601E+05  9.601487E+04 -8.480486E+04 -5.187437E+03
       525   8 -1.044913E+06 -1.062468E+05 -1.015522E+05  7.087780E+04 -4.785781E+04 -1.727558E+04
       525   9 -1.009748E+06 -8.036324E+04 -7.094840E+04  5.248137E+04 -1.091006E+04 -2.071422E+04
       525  10 -2.868292E+05  3.334207E+04  2.269815E+04  8.066088E+03  2.469867E-09 -3.509160E-10
       525  11 -3.252407E+05  6.405902E+04  2.997714E+04  2.644837E+04  7.715955E-10 -1.134871E-09
       525  12 -3.702976E+05  6.797620E+04  3.080103E+04  5.157154E+04  1.496521E-11 -3.590745E-10
       525  13 -6.901066E+05 -6.604535E+04 -7.093282E+04  5.205471E+04  9.003997E-11 -1.842660E-10
       525  14 -6.851415E+05 -2.109163E+04 -3.578748E+04  4.866938E+04  3.366842E-11 -1.237874E-09
       525  15 -6.900739E+05 -6.191214E+03 -2.007289E+04  5.202649E+04 -2.635397E-10  2.686673E-10
       525  16 -1.093229E+06 -1.654369E+05 -1.645737E+05  9.601452E+04 -2.509422E-09 -3.664005E-10
       525  17 -1.044915E+06 -1.062477E+05 -1.015571E+05  7.087714E+04 -2.949747E-10 -2.272510E-09
       525  18 -1.009748E+06 -8.036373E+04 -7.094943E+04  5.248119E+04  2.811999E-10 -1.098512E-09
       525  19 -2.868290E+05  3.334215E+04  2.269857E+04  8.066146E+03  1.392162E+04  5.150977E+03
       525  20 -3.252404E+05  6.405939E+04  2.997808E+04  2.644857E+04  1.429111E+04  1.725627E+04
       525  21 -3.702972E+05  6.797671E+04  3.080224E+04  5.157179E+04  1.466330E+04  2.071409E+04
       525  22 -6.901039E+05 -6.604467E+04 -7.092819E+04  5.205491E+04  4.937469E+04  5.166691E+03
       525  23 -6.851404E+05 -2.109105E+04 -3.578511E+04  4.866981E+04  3.107920E+04  1.726532E+04
       525  24 -6.900737E+05 -6.190709E+03 -2.007178E+04  5.202671E+04  1.278621E+04  2.071416E+04
       525  25 -1.093222E+06 -1.654350E+05 -1.645601E+05  9.601487E+04  8.480486E+04  5.187437E+03
       525  26 -1.044913E+06 -1.062468E+05 -1.015522E+05  7.087780E+04  4.785781E+04  1.727558E+04
       525  27 -1.009748E+06 -8.036324E+04 -7.094840E+04  5.248137E+04  1.091006E+04  2.071422E+04
       526   1 -3.950001E+05  6.295965E+04  2.981612E+04  4.952995E+04 -1.212779E+04 -1.986780E+04
       526   2 -4.362549E+05  5.637143E+04  2.697747E+04  4.732314E+04 -9.393569E+03 -1.841424E+04
       526   3 -4.784467E+05  4.747352E+04  2.177941E+04  5.249206E+04 -6.660297E+03 -1.591666E+04
       526   4 -6.881677E+05 -4.787561E+03 -1.559073E+04  5.216913E+04 -1.011627E+04 -1.986767E+04
       526   5 -6.874982E+05 -1.300226E+03 -9.986160E+03  4.847987E+04 -5.130133E+03 -1.841256E+04
       526   6 -6.881586E+05 -5.142723E+02 -8.306823E+03  5.216662E+04 -1.447391E+02 -1.591323E+04
       526   7 -9.812494E+05 -7.253894E+04 -6.099953E+04  5.480699E+04 -8.105653E+03 -1.986753E+04
       526   8 -9.386778E+05 -5.897481E+04 -4.695084E+04  4.963610E+04 -8.683523E+02 -1.841087E+04
       526   9 -8.978259E+05 -4.850404E+04 -3.839356E+04  5.184128E+04  6.368710E+03 -1.590979E+04
       526  10 -3.950004E+05  6.295918E+04  2.981510E+04  4.952976E+04  6.306656E-08  2.755153E-10
       526  11 -4.362551E+05  5.637104E+04  2.697667E+04  4.732300E+04 -1.123382E-09  2.464524E-09
       526  12 -4.784468E+05  4.747323E+04  2.177885E+04  5.249197E+04 -6.481206E-08  1.788555E-09
       526  13 -6.881679E+05 -4.788013E+03 -1.559167E+04  5.216896E+04  2.469609E-10  5.784329E-10
       526  14 -6.874983E+05 -1.300597E+03 -9.986846E+03  4.847979E+04 -3.577057E-13  1.865462E-09
       526  15 -6.881586E+05 -5.145442E+02 -8.307299E+03  5.216662E+04  6.417700E-10  7.667339E-10
       526  16 -9.812496E+05 -7.253938E+04 -6.100040E+04  5.480686E+04 -6.324716E-08  1.211726E-09
       526  17 -9.386779E+05 -5.897517E+04 -4.695147E+04  4.963609E+04  9.416300E-10  2.481268E-09
       526  18 -8.978260E+05 -4.850433E+04 -3.839412E+04  5.184136E+04  6.468779E-08  1.349005E-09
       526  19 -3.950001E+05  6.295965E+04  2.981612E+04  4.952995E+04  1.212779E+04  1.986780E+04
       526  20 -4.362549E+05  5.637143E+04  2.697747E+04  4.732314E+04  9.393569E+03  1.841424E+04
       526  21 -4.784467E+05  4.747352E+04  2.177941E+04  5.249206E+04  6.660297E+03  1.591666E+04
       526  22 -6.881677E+05 -4.787561E+03 -1.559073E+04  5.216913E+04  1.011627E+04  1.986767E+04
       526  23 -6.874982E+05 -1.300226E+03 -9.986160E+03  4.847987E+04  5.130133E+03  1.841256E+04
       526  24 -6.881586E+05 -5.142723E+02 -8.306823E+03  5.216662E+04  1.447391E+02  1.591323E+04
       526  25 -9.812494E+05 -7.253894E+04 -6.099953E+04  5.480699E+04  8.105653E+03  1.986753E+04
       526  26 -9.386778E+05 -5.897481E+04 -4.695084E+04  4.963610E+04  8.683523E+02  1.841087E+04
       526  27 -8.978259E+05 -4.850404E+04 -3.839356E+04  5.184128E+04 -6.368710E+03  1.590979E+04
       527   1 -5.046355E+05  4.142758E+04  1.756945E+04  5.196639E+04 -5.247963E+03 -1.411579E+04
       527   2 -5.456508E+05  3.083425E+04  8.844879E+03  4.998073E+04  1.375145E+02 -1.105078E+04
       527   3 -5.881498E+05  1.714298E+04 -4.165357E+03  5.544946E+04  5.522347E+03 -7.914654E+03
       527   4 -6.881971E+05 -5.245003E+02 -8.506767E+03  5.218398E+04  1.284314E+03 -1.411212E+04
       527   5 -6.874404E+05 -1.532442E+03 -1.108789E+04  4.845819E+04  6.821851E+03 -1.104673E+04
       527   6 -6.881957E+05 -5.665069E+03 -1.806098E+04  5.218701E+04  1.235907E+04 -7.910253E+03
       527   7 -8.717245E+05 -4.247808E+04 -3.458330E+04  5.240151E+04  7.814742E+03 -1.410845E+04
       527   8 -8.292095E+05 -3.390000E+04 -3.102076E+04  4.693601E+04  1.350473E+04 -1.104272E+04
       527   9 -7.882313E+05 -2.847350E+04 -3.195653E+04  4.892511E+04  1.919474E+04 -7.905923E+03
       527  10 -5.046356E+05  4.142736E+04  1.756902E+04  5.196633E+04 -1.893733E-09  1.463539E-09
       527  11 -5.456508E+05  3.083412E+04  8.844649E+03  4.998073E+04 -1.255370E-09  6.583972E-10
       527  12 -5.881499E+05  1.714290E+04 -4.165532E+03  5.544950E+04 -1.521915E-10 -8.454253E-10
       527  13 -6.881972E+05 -5.247145E+02 -8.507144E+03  5.218400E+04  1.029375E-09 -4.962750E-10
       527  14 -6.874405E+05 -1.532586E+03 -1.108821E+04  4.845825E+04  4.869643E-10  4.495656E-10
       527  15 -6.881959E+05 -5.665177E+03 -1.806138E+04  5.218709E+04 -3.802541E-11  7.114540E-10
       527  16 -8.717246E+05 -4.247831E+04 -3.458379E+04  5.240159E+04  2.011602E-09  7.413430E-10
       527  17 -8.292097E+05 -3.390018E+04 -3.102133E+04  4.693613E+04  1.377331E-09  4.537990E-10
       527  18 -7.882317E+05 -2.847366E+04 -3.195734E+04  4.892523E+04  6.198894E-10 -1.932083E-10
       527  19 -5.046355E+05  4.142758E+04  1.756945E+04  5.196639E+04  5.247963E+03  1.411579E+04
       527  20 -5.456508E+05  3.083425E+04  8.844879E+03  4.998073E+04 -1.375145E+02  1.105078E+04
       527  21 -5.881498E+05  1.714298E+04 -4.165357E+03  5.544946E+04 -5.522347E+03  7.914654E+03
       527  22 -6.881971E+05 -5.245003E+02 -8.506767E+03  5.218398E+04 -1.284314E+03  1.411212E+04
       527  23 -6.874404E+05 -1.532442E+03 -1.108789E+04  4.845819E+04 -6.821851E+03  1.104673E+04
       527  24 -6.881957E+05 -5.665069E+03 -1.806098E+04  5.218701E+04 -1.235907E+04  7.910253E+03
       527  25 -8.717245E+05 -4.247808E+04 -3.458330E+04  5.240151E+04 -7.814742E+03  1.410845E+04
       527  26 -8.292095E+05 -3.390000E+04 -3.102076E+04  4.693601E+04 -1.350473E+04  1.104272E+04
       527  27 -7.882313E+05 -2.847350E+04 -3.195653E+04  4.892511E+04 -1.919474E+04  7.905923E+03
       528   1 -6.165497E+05  9.472988E+03 -1.350107E+04  5.286208E+04  8.626045E+03 -6.047111E+03
       528   2 -6.524131E+05 -1.774023E+04 -3.857655E+04  7.493841E+04  3.121124E+04 -3.093244E+03
       528   3 -7.001780E+05 -8.073840E+04 -8.731623E+04  1.044580E+05  5.379488E+04 -5.944168E+02
       528   4 -6.904651E+05 -7.318473E+03 -2.348207E+04  5.218160E+04  1.545826E+04 -6.042587E+03
       528   5 -6.846107E+05 -2.496441E+04 -4.225819E+04  4.848095E+04  3.705636E+04 -3.090641E+03
       528   6 -6.904886E+05 -7.822682E+04 -8.401277E+04  5.222624E+04  5.865426E+04 -5.956257E+02
       528   7 -7.643748E+05 -2.411014E+04 -3.346295E+04  5.150121E+04  2.228970E+04 -6.038078E+03
       528   8 -7.168056E+05 -3.218597E+04 -4.593932E+04  2.202494E+04  4.290119E+04 -3.088537E+03
       528   9 -6.807933E+05 -7.570498E+04 -8.070777E+04 -6.288947E+00  6.351372E+04 -5.976531E+02
       528  10 -6.165498E+05  9.472929E+03 -1.350128E+04  5.286213E+04 -2.467886E-10 -8.154920E-10
       528  11 -6.524142E+05 -1.774051E+04 -3.857840E+04  7.493849E+04 -1.596160E-09  1.151710E-09
       528  12 -7.001811E+05 -8.073918E+04 -8.732168E+04  1.044580E+05 -1.062196E-09  3.588806E-10
       528  13 -6.904653E+05 -7.318576E+03 -2.348259E+04  5.218168E+04  2.995746E-10 -2.581833E-10
       528  14 -6.846122E+05 -2.496479E+04 -4.226079E+04  4.848104E+04 -4.605595E-10  7.402876E-10
       528  15 -6.904923E+05 -7.822775E+04 -8.401925E+04  5.222627E+04  2.653441E-10 -1.567190E-10
       528  16 -7.643753E+05 -2.411032E+04 -3.346395E+04  5.150132E+04  5.236590E-10 -8.295939E-11
       528  17 -7.168076E+05 -3.218647E+04 -4.594280E+04  2.202505E+04  8.174738E-10  4.008921E-11
       528  18 -6.807977E+05 -7.570607E+04 -8.071536E+04 -6.258365E+00  9.075223E-10 -3.153459E-10
       528  19 -6.165497E+05  9.472988E+03 -1.350107E+04  5.286208E+04 -8.626045E+03  6.047111E+03
       528  20 -6.524131E+05 -1.774023E+04 -3.857655E+04  7.493841E+04 -3.121124E+04  3.093244E+03
       528  21 -7.001780E+05 -8.073840E+04 -8.731623E+04  1.044580E+05 -5.379488E+04  5.944168E+02
       528  22 -6.904651E+05 -7.318473E+03 -2.348207E+04  5.218160E+04 -1.545826E+04  6.042587E+03
       528  23 -6.846107E+05 -2.496441E+04 -4.225819E+04  4.848095E+04 -3.705636E+04  3.090641E+03
       528  24 -6.904886E+05 -7.822682E+04 -8.401277E+04  5.222624E+04 -5.865426E+04  5.956257E+02
       528  25 -7.643748E+05 -2.411014E+04 -3.346295E+04  5.150121E+04 -2.228970E+04  6.038078E+03
       528  26 -7.168056E+05 -3.218597E+04 -4.593932E+04  2.202494E+04 -4.290119E+04  3.088537E+03
       528  27 -6.807933E+05 -7.570498E+04 -8.070777E+04 -6.288947E+00 -6.351372E+04  5.976531E+02
       529   1 -1.548672E+05  4.467947E+04  3.674049E+04  3.196039E+04 -2.050100E+03 -4.268417E+03
       529   2 -2.010934E+05  5.819319E+04  3.296196E+04  4.179760E+04 -6.788552E+03 -1.402846E+04
       529   3 -2.507679E+05  5.545969E+04  2.820990E+04  5.957766E+04 -1.153120E+04 -1.618625E+04
       529   4 -5.062141E+05 -4.194242E+04 -4.511796E+04  5.984053E+04 -3.131836E+04 -4.289448E+03
       529   5 -5.030524E+05 -1.335644E+04 -2.283204E+04  5.585453E+04 -1.964246E+04 -1.403883E+04
       529   6 -5.061951E+05 -3.873779E+03 -1.292545E+04  5.981205E+04 -7.970665E+03 -1.618405E+04
       529   7 -8.574435E+05 -1.285696E+05 -1.269811E+05  8.770476E+04 -6.057016E+04 -4.313115E+03
       529   8 -8.049222E+05 -8.491045E+04 -7.862910E+04  6.990441E+04 -3.249029E+04 -1.404979E+04
       529   9 -7.615573E+05 -6.321054E+04 -5.406251E+04  6.004633E+04 -4.411544E+03 -1.618184E+04
       529  10 -1.548673E+05  4.467944E+04  3.674044E+04  3.196038E+04  3.090912E-09 -7.098272E-10
       529  11 -2.010935E+05  5.819296E+04  3.296150E+04  4.179753E+04 -5.837851E-10 -8.240216E-10
       529  12 -2.507681E+05  5.545938E+04  2.820916E+04  5.957750E+04 -3.288514E-09 -7.182403E-10
       529  13 -5.062151E+05 -4.194270E+04 -4.511984E+04  5.984042E+04 -2.821336E-10  9.073506E-10
       529  14 -5.030529E+05 -1.335676E+04 -2.283313E+04  5.585430E+04 -2.734743E-12 -4.847927E-10
       529  15 -5.061952E+05 -3.874078E+03 -1.292606E+04  5.981195E+04  4.045300E-10 -8.110682E-10
       529  16 -8.574474E+05 -1.285706E+05 -1.269881E+05  8.770455E+04 -3.124612E-09  1.645743E-10
       529  17 -8.049234E+05 -8.491094E+04 -7.863146E+04  6.990405E+04  4.117635E-10 -1.093985E-09
       529  18 -7.615574E+05 -6.321083E+04 -5.406304E+04  6.004627E+04  3.567172E-09 -1.022480E-09
       529  19 -1.548672E+05  4.467947E+04  3.674049E+04  3.196039E+04  2.050100E+03  4.268417E+03
       529  20 -2.010934E+05  5.819319E+04  3.296196E+04  4.179760E+04  6.788552E+03  1.402846E+04
       529  21 -2.507679E+05  5.545969E+04  2.820990E+04  5.957766E+04  1.153120E+04  1.618625E+04
       529  22 -5.062141E+05 -4.194242E+04 -4.511796E+04  5.984053E+04  3.131836E+04  4.289448E+03
       529  23 -5.030524E+05 -1.335644E+04 -2.283204E+04  5.585453E+04  1.964246E+04  1.403883E+04
       529  24 -5.061951E+05 -3.873779E+03 -1.292545E+04  5.981205E+04  7.970665E+03  1.618405E+04
       529  25 -8.574435E+05 -1.285696E+05 -1.269811E+05  8.770476E+04  6.057016E+04  4.313115E+03
       529  26 -8.049222E+05 -8.491045E+04 -7.862910E+04  6.990441E+04  3.249029E+04  1.404979E+04
       529  27 -7.615573E+05 -6.321054E+04 -5.406251E+04  6.004633E+04  4.411544E+03  1.618184E+04
       530   1 -2.799816E+05  4.909946E+04  2.516365E+04  5.829284E+04 -9.917629E+03 -1.492544E+04
       530   2 -3.276192E+05  3.988710E+04  1.953938E+04  5.497660E+04 -8.453281E+03 -1.278051E+04
       530   3 -3.758138E+05  2.925388E+04  1.260276E+04  6.014970E+04 -6.989956E+03 -9.753556E+03
       530   4 -5.049896E+05 -2.978490E+03 -1.013550E+04  5.993524E+04 -6.239363E+03 -1.492298E+04
       530   5 -5.045412E+05 -7.701612E+02 -6.749402E+03  5.568933E+04 -2.871689E+03 -1.277620E+04
       530   6 -5.049830E+05 -3.135328E+02 -5.998665E+03  5.993302E+04  4.950709E+02 -9.747268E+03
       530   7 -7.299471E+05 -5.505892E+04 -4.543582E+04  6.157701E+04 -2.562380E+03 -1.492050E+04
       530   8 -6.814316E+05 -4.142887E+04 -3.303865E+04  5.640185E+04  2.708377E+03 -1.277188E+04
       530   9 -6.341353E+05 -2.988168E+04 -2.460014E+04  5.971637E+04  7.978605E+03 -9.740984E+03
       530  10 -2.799818E+05  4.909919E+04  2.516305E+04  5.829272E+04 -8.557288E-10  1.003007E-09
       530  11 -3.276193E+05  3.988690E+04  1.953893E+04  5.497651E+04 -1.403878E-09  1.111352E-09
       530  12 -3.758138E+05  2.925376E+04  1.260249E+04  6.014965E+04 -1.175367E-09  1.055360E-09
       530  13 -5.049897E+05 -2.978739E+03 -1.013599E+04  5.993516E+04  5.203398E-10  1.556735E-10
       530  14 -5.045413E+05 -7.703386E+02 -6.749724E+03  5.568930E+04  3.341157E-10  3.529905E-10
       530  15 -5.049830E+05 -3.136349E+02 -5.998844E+03  5.993302E+04  4.027354E-10  6.209396E-10
       530  16 -7.299471E+05 -5.505916E+04 -4.543625E+04  6.157697E+04  8.754143E-10  4.810340E-10
       530  17 -6.814317E+05 -4.142905E+04 -3.303897E+04  5.640188E+04  2.002351E-09 -2.453554E-09
       530  18 -6.341353E+05 -2.988180E+04 -2.460044E+04  5.971643E+04  1.272253E-09 -4.946778E-10
       530  19 -2.799816E+05  4.909946E+04  2.516365E+04  5.829284E+04  9.917629E+03  1.492544E+04
       530  20 -3.276192E+05  3.988710E+04  1.953938E+04  5.497660E+04  8.453281E+03  1.278051E+04
       530  21 -3.758138E+05  2.925388E+04  1.260276E+04  6.014970E+04  6.989956E+03  9.753556E+03
       530  22 -5.049896E+05 -2.978490E+03 -1.013550E+04  5.993524E+04  6.239363E+03  1.492298E+04
       530  23 -5.045412E+05 -7.701612E+02 -6.749402E+03  5.568933E+04  2.871689E+03  1.277620E+04
       530  24 -5.049830E+05 -3.135328E+02 -5.998665E+03  5.993302E+04 -4.950709E+02  9.747268E+03
       530  25 -7.299471E+05 -5.505892E+04 -4.543582E+04  6.157701E+04  2.562380E+03  1.492050E+04
       530  26 -6.814316E+05 -4.142887E+04 -3.303865E+04  5.640185E+04 -2.708377E+03  1.277188E+04
       530  27 -6.341353E+05 -2.988168E+04 -2.460014E+04  5.971637E+04 -7.978605E+03  9.740984E+03
       531   1 -4.059051E+05  2.230375E+04  7.638836E+03  5.974875E+04 -5.949899E+03 -7.686387E+03
       531   2 -4.531828E+05  1.040191E+04 -2.001872E+03  5.688629E+04 -1.077006E+03 -4.328147E+03
       531   3 -5.017600E+05 -4.103906E+03 -1.547254E+04  6.255821E+04  3.795520E+03 -1.204762E+03
       531   4 -5.050537E+05 -3.355071E+02 -6.359690E+03  5.994287E+04  1.544593E+03 -7.679945E+03
       531   5 -5.044466E+05 -1.206664E+03 -8.740277E+03  5.567738E+04  5.909764E+03 -4.322030E+03
       531   6 -5.050537E+05 -4.593784E+03 -1.459845E+04  5.994644E+04  1.027492E+04 -1.199004E+03
       531   7 -6.041923E+05 -2.297518E+04 -2.035814E+04  6.013696E+04  9.037940E+03 -7.673497E+03
       531   8 -5.557076E+05 -1.281531E+04 -1.547851E+04  5.446858E+04  1.289598E+04 -4.315941E+03
       531   9 -5.083473E+05 -5.083613E+03 -1.372419E+04  5.733469E+04  1.675429E+04 -1.193302E+03
       531  10 -4.059051E+05  2.230368E+04  7.638658E+03  5.974871E+04 -1.651224E-09  2.305650E-09
       531  11 -4.531828E+05  1.040188E+04 -2.001909E+03  5.688628E+04 -4.397271E-10  8.460903E-10
       531  12 -5.017600E+05 -4.103912E+03 -1.547257E+04  6.255822E+04  1.643725E-09  1.838684E-09
       531  13 -5.050537E+05 -3.355711E+02 -6.359805E+03  5.994288E+04  5.691921E-10  1.241448E-09
       531  14 -5.044466E+05 -1.206694E+03 -8.740378E+03  5.567740E+04  5.470059E-10  8.079515E-10
       531  15 -5.050538E+05 -4.593814E+03 -1.459865E+04  5.994645E+04  6.292625E-10 -1.121095E-10
       531  16 -6.041924E+05 -2.297526E+04 -2.035840E+04  6.013701E+04  2.196212E-09  4.352097E-10
       531  17 -5.557078E+05 -1.281538E+04 -1.547886E+04  5.446862E+04  7.350607E-10  7.914422E-11
       531  18 -5.083476E+05 -5.083690E+03 -1.372472E+04  5.733471E+04 -1.259362E-09 -1.870986E-09
       531  19 -4.059051E+05  2.230375E+04  7.638836E+03  5.974875E+04  5.949899E+03  7.686387E+03
       531  20 -4.531828E+05  1.040191E+04 -2.001872E+03  5.688629E+04  1.077006E+03  4.328147E+03
       531  21 -5.017600E+05 -4.103906E+03 -1.547254E+04  6.255821E+04 -3.795520E+03  1.204762E+03
       531  22 -5.050537E+05 -3.355071E+02 -6.359690E+03  5.994287E+04 -1.544593E+03  7.679945E+03
       531  23 -5.044466E+05 -1.206664E+03 -8.740277E+03  5.567738E+04 -5.909764E+03  4.322030E+03
       531  24 -5.050537E+05 -4.593784E+03 -1.459845E+04  5.994644E+04 -1.027492E+04  1.199004E+03
       531  25 -6.041923E+05 -2.297518E+04 -2.035814E+04  6.013696E+04 -9.037940E+03  7.673497E+03
       531  26 -5.557076E+05 -1.281531E+04 -1.547851E+04  5.446858E+04 -1.289598E+04  4.315941E+03
       531  27 -5.083473E+05 -5.083613E+03 -1.372419E+04  5.733469E+04 -1.675429E+04  1.193302E+03
       532   1 -5.337537E+05 -1.247895E+04 -2.489430E+04  6.039758E+04  6.346080E+03  6.492989E+02
       532   2 -5.763988E+05 -3.831124E+04 -5.000427E+04  7.733604E+04  3.014256E+04  2.228783E+03
       532   3 -6.297138E+05 -9.435323E+04 -9.817285E+04  1.026219E+05  5.393955E+04  9.611797E+02
       532   4 -5.069171E+05 -5.947995E+03 -1.908629E+04  5.990156E+04  1.278318E+04  6.550221E+02
       532   5 -5.021248E+05 -2.039756E+04 -3.452827E+04  5.575148E+04  3.043247E+04  2.227965E+03
       532   6 -5.069342E+05 -6.398779E+04 -6.875551E+04  5.995033E+04  4.808409E+04  9.523599E+02
       532   7 -4.800797E+05  5.829399E+02 -1.327818E+04  5.940553E+04  1.922056E+04  6.607349E+02
       532   8 -4.278447E+05 -2.482477E+03 -1.905232E+04  3.416429E+04  3.072241E+04  2.227128E+03
       532   9 -3.841368E+05 -3.361656E+04 -3.933813E+04  1.727029E+04  4.222747E+04  9.443469E+02
       532  10 -5.337537E+05 -1.247896E+04 -2.489437E+04  6.039757E+04 -1.180957E-09  1.711338E-09
       532  11 -5.763997E+05 -3.831149E+04 -5.000599E+04  7.733599E+04 -8.294617E-10 -3.918048E-11
       532  12 -6.297169E+05 -9.435401E+04 -9.817833E+04  1.026218E+05  9.845255E-12 -2.489194E-10
       532  13 -5.069173E+05 -5.948039E+03 -1.908660E+04  5.990156E+04  1.880371E-10  1.901543E-09
       532  14 -5.021258E+05 -2.039782E+04 -3.453002E+04  5.575143E+04  5.655780E-10 -2.397916E-09
       532  15 -5.069367E+05 -6.398841E+04 -6.875986E+04  5.995029E+04 -1.173797E-10  5.257274E-10
       532  16 -4.800801E+05  5.828402E+02 -1.327887E+04  5.940552E+04  9.843068E-10  5.222249E-10
       532  17 -4.278457E+05 -2.482736E+03 -1.905410E+04  3.416424E+04  8.538643E-10  2.979735E-10
       532  18 -3.841387E+05 -3.361704E+04 -3.934149E+04  1.727026E+04 -2.481309E-10 -4.007209E-10
       532  19 -5.337537E+05 -1.247895E+04 -2.489430E+04  6.039758E+04 -6.346080E+03 -6.492989E+02
       532  20 -5.763988E+05 -3.831124E+04 -5.000427E+04  7.733604E+04 -3.014256E+04 -2.228783E+03
       532  21 -6.297138E+05 -9.435323E+04 -9.817285E+04  1.026219E+05 -5.393955E+04 -9.611797E+02
       532  22 -5.069171E+05 -5.947995E+03 -1.908629E+04  5.990156E+04 -1.278318E+04 -6.550221E+02
       532  23 -5.021248E+05 -2.039756E+04 -3.452827E+04  5.575148E+04 -3.043247E+04 -2.227965E+03
       532  24 -5.069342E+05 -6.398779E+04 -6.875551E+04  5.995033E+04 -4.808409E+04 -9.523599E+02
       532  25 -4.800797E+05  5.829399E+02 -1.327818E+04  5.940553E+04 -1.922056E+04 -6.607349E+02
       532  26 -4.278447E+05 -2.482477E+03 -1.905232E+04  3.416429E+04 -3.072241E+04 -2.227128E+03
       532  27 -3.841368E+05 -3.361656E+04 -3.933813E+04  1.727029E+04 -4.222747E+04 -9.443469E+02
       533   1 -7.076482E+04  3.161266E+04  2.775521E+04  3.024120E+04  2.929541E+03 -2.264853E+03
       533   2 -1.034540E+05  3.322693E+04  2.112692E+04  3.300056E+04 -1.602000E+03 -7.291813E+03
       533   3 -1.370800E+05  2.876290E+04  1.593029E+04  4.133150E+04 -6.136542E+03 -8.030352E+03
       533   4 -2.672160E+05 -1.684848E+04 -1.817378E+04  4.142690E+04 -1.254822E+04 -2.277881E+03
       533   5 -2.659398E+05 -5.340346E+03 -9.248389E+03  3.863440E+04 -7.818136E+03 -7.297353E+03
       533   6 -2.672105E+05 -1.519806E+03 -5.324772E+03  4.141380E+04 -3.091262E+03 -8.027805E+03
       533   7 -4.636309E+05 -6.531176E+04 -6.410443E+04  5.260902E+04 -2.802111E+04 -2.291469E+03
       533   8 -4.283999E+05 -4.390901E+04 -3.962467E+04  4.426673E+04 -1.403268E+04 -7.303007E+03
       533   9 -3.973241E+05 -3.180337E+04 -2.658028E+04  4.149607E+04 -4.659723E+01 -8.025257E+03
       533  10 -7.076483E+04  3.161265E+04  2.775519E+04  3.024121E+04 -2.075084E-09  5.362615E-10
       533  11 -1.034540E+05  3.322687E+04  2.112681E+04  3.300055E+04 -1.387653E-09  2.506031E-09
       533  12 -1.370801E+05  2.876282E+04  1.593010E+04  4.133146E+04  8.422548E-10  4.253313E-10
       533  13 -2.672162E+05 -1.684853E+04 -1.817409E+04  4.142687E+04  4.744323E-10 -1.710929E-09
       533  14 -2.659399E+05 -5.340419E+03 -9.248604E+03  3.863436E+04  8.924797E-10 -2.915693E-09
       533  15 -2.672105E+05 -1.519878E+03 -5.324911E+03  4.141378E+04  1.697780E-10  8.315759E-11
       533  16 -4.636317E+05 -6.531197E+04 -6.410592E+04  5.260897E+04  2.709644E-09  2.213642E-10
       533  17 -4.284001E+05 -4.390912E+04 -3.962514E+04  4.426664E+04  7.254418E-10  1.337602E-09
       533  18 -3.973241E+05 -3.180344E+04 -2.658040E+04  4.149607E+04 -6.230665E-10  7.506240E-11
       533  19 -7.076482E+04  3.161266E+04  2.775521E+04  3.024120E+04 -2.929541E+03  2.264853E+03
       533  20 -1.034540E+05  3.322693E+04  2.112692E+04  3.300056E+04  1.602000E+03  7.291813E+03
       533  21 -1.370800E+05  2.876290E+04  1.593029E+04  4.133150E+04  6.136542E+03  8.030352E+03
       533  22 -2.672160E+05 -1.684848E+04 -1.817378E+04  4.142690E+04  1.254822E+04  2.277881E+03
       533  23 -2.659398E+05 -5.340346E+03 -9.248389E+03  3.863440E+04  7.818136E+03  7.297353E+03
       533  24 -2.672105E+05 -1.519806E+03 -5.324772E+03  4.141380E+04  3.091262E+03  8.027805E+03
       533  25 -4.636309E+05 -6.531176E+04 -6.410443E+04  5.260902E+04  2.802111E+04  2.291469E+03
       533  26 -4.283999E+05 -4.390901E+04 -3.962467E+04  4.426673E+04  1.403268E+04  7.303007E+03
       533  27 -3.973241E+05 -3.180337E+04 -2.658028E+04  4.149607E+04  4.659723E+01  8.025257E+03
       534   1 -1.575729E+05  2.415774E+04  1.315792E+04  4.082067E+04 -5.480684E+03 -7.038935E+03
       534   2 -1.905965E+05  1.720559E+04  8.443466E+03  3.824935E+04 -5.009435E+03 -5.358701E+03
       534   3 -2.238299E+05  9.700871E+03  3.280893E+03  4.155507E+04 -4.538696E+03 -3.200320E+03
       534   4 -2.667305E+05 -1.158301E+03 -4.246224E+03  4.148255E+04 -2.368968E+03 -7.036262E+03
       534   5 -2.665342E+05 -2.771734E+02 -3.016538E+03  3.854354E+04 -8.654551E+02 -5.355009E+03
       534   6 -2.667286E+05 -1.280337E+02 -2.952304E+03  4.148163E+04  6.375568E+02 -3.195578E+03
       534   7 -3.758761E+05 -2.647493E+04 -2.165064E+04  4.214431E+04  7.422202E+02 -7.033583E+03
       534   8 -3.424660E+05 -1.776020E+04 -1.447659E+04  3.883768E+04  3.278038E+03 -5.351313E+03
       534   9 -3.096254E+05 -9.957009E+03 -9.185430E+03  4.140819E+04  5.813467E+03 -3.190838E+03
       534  10 -1.575730E+05  2.415768E+04  1.315777E+04  4.082064E+04  1.134643E-10 -3.388618E-10
       534  11 -1.905965E+05  1.720555E+04  8.443365E+03  3.824933E+04 -8.633035E-10  2.511211E-09
       534  12 -2.238299E+05  9.700855E+03  3.280835E+03  4.155506E+04 -5.732424E-10  2.175853E-09
       534  13 -2.667305E+05 -1.158355E+03 -4.246327E+03  4.148254E+04  2.533026E-10  2.749531E-09
       534  14 -2.665342E+05 -2.772044E+02 -3.016593E+03  3.854353E+04  3.334418E-10 -5.319851E-09
       534  15 -2.667286E+05 -1.280448E+02 -2.952324E+03  4.148163E+04  3.668570E-10  2.178117E-09
       534  16 -3.758761E+05 -2.647498E+04 -2.165073E+04  4.214432E+04  9.682240E-10 -1.758713E-09
       534  17 -3.424660E+05 -1.776024E+04 -1.447667E+04  3.883769E+04  7.477178E-10 -1.078930E-09
       534  18 -3.096254E+05 -9.957029E+03 -9.185512E+03  4.140821E+04 -9.968143E-11  1.855036E-09
       534  19 -1.575729E+05  2.415774E+04  1.315792E+04  4.082067E+04  5.480684E+03  7.038935E+03
       534  20 -1.905965E+05  1.720559E+04  8.443466E+03  3.824935E+04  5.009435E+03  5.358701E+03
       534  21 -2.238299E+05  9.700871E+03  3.280893E+03  4.155507E+04  4.538696E+03  3.200320E+03
       534  22 -2.667305E+05 -1.158301E+03 -4.246224E+03  4.148255E+04  2.368968E+03  7.036262E+03
       534  23 -2.665342E+05 -2.771734E+02 -3.016538E+03  3.854354E+04  8.654551E+02  5.355009E+03
       534  24 -2.667286E+05 -1.280337E+02 -2.952304E+03  4.148163E+04 -6.375568E+02  3.195578E+03
       534  25 -3.758761E+05 -2.647493E+04 -2.165064E+04  4.214431E+04 -7.422202E+02  7.033583E+03
       534  26 -3.424660E+05 -1.776020E+04 -1.447659E+04  3.883768E+04 -3.278038E+03  5.351313E+03
       534  27 -3.096254E+05 -9.957009E+03 -9.185430E+03  4.140819E+04 -5.813467E+03  3.190838E+03
       535   1 -2.446457E+05  4.891601E+03 -2.211479E+02  4.134603E+04 -4.012888E+03 -1.771708E+03
       535   2 -2.773817E+05 -3.267301E+03 -6.838547E+03  3.919368E+04 -9.876681E+02  4.825103E+02
       535   3 -3.109041E+05 -1.294748E+04 -1.581033E+04  4.293137E+04  2.037693E+03  2.442845E+03
       535   4 -2.667919E+05 -1.489869E+02 -3.273039E+03  4.148439E+04  1.165969E+03 -1.766936E+03
       535   5 -2.664539E+05 -6.719653E+02 -4.785823E+03  3.854047E+04  3.556552E+03  4.866866E+02
       535   6 -2.667926E+05 -2.605796E+03 -8.211955E+03  4.148660E+04  5.947418E+03  2.446421E+03
       535   7 -2.889375E+05 -5.189582E+03 -6.324834E+03  4.162275E+04  6.344649E+03 -1.762161E+03
       535   8 -2.555260E+05  1.923377E+03 -2.733026E+03  3.788724E+04  8.100850E+03  4.908533E+02
       535   9 -2.226792E+05  7.735800E+03 -6.135834E+02  4.004173E+04  9.857413E+03  2.449978E+03
       535  10 -2.446457E+05  4.891593E+03 -2.211840E+02  4.134603E+04  2.173563E-09 -1.758169E-09
       535  11 -2.773817E+05 -3.267302E+03 -6.838549E+03  3.919368E+04 -7.017082E-10 -1.180302E-09
       535  12 -3.109041E+05 -1.294749E+04 -1.581035E+04  4.293136E+04 -1.528664E-09 -1.238838E-09
       535  13 -2.667919E+05 -1.489907E+02 -3.273047E+03  4.148440E+04  4.514555E-10 -3.794108E-12
       535  14 -2.664539E+05 -6.719689E+02 -4.785847E+03  3.854047E+04  3.219687E-10 -1.146254E-09
       535  15 -2.667927E+05 -2.605812E+03 -8.212032E+03  4.148659E+04  4.858352E-10 -8.501826E-10
       535  16 -2.889376E+05 -5.189596E+03 -6.324915E+03  4.162276E+04 -1.073117E-09 -2.835399E-10
       535  17 -2.555261E+05  1.923359E+03 -2.733150E+03  3.788724E+04  4.042935E-10  1.766306E-09
       535  18 -2.226793E+05  7.735767E+03 -6.137773E+02  4.004171E+04  1.577434E-09  1.750161E-09
       535  19 -2.446457E+05  4.891601E+03 -2.211479E+02  4.134603E+04  4.012888E+03  1.771708E+03
       535  20 -2.773817E+05 -3.267301E+03 -6.838547E+03  3.919368E+04  9.876681E+02 -4.825103E+02
       535  21 -3.109041E+05 -1.294748E+04 -1.581033E+04  4.293137E+04 -2.037693E+03 -2.442845E+03
       535  22 -2.667919E+05 -1.489869E+02 -3.273039E+03  4.148439E+04 -1.165969E+03  1.766936E+03
       535  23 -2.664539E+05 -6.719653E+02 -4.785823E+03  3.854047E+04 -3.556552E+03 -4.866866E+02
       535  24 -2.667926E+05 -2.605796E+03 -8.211955E+03  4.148660E+04 -5.947418E+03 -2.446421E+03
       535  25 -2.889375E+05 -5.189582E+03 -6.324834E+03  4.162275E+04 -6.344649E+03  1.762161E+03
       535  26 -2.555260E+05  1.923377E+03 -2.733026E+03  3.788724E+04 -8.100850E+03 -4.908533E+02
       535  27 -2.226792E+05  7.735800E+03 -6.135834E+02  4.004173E+04 -9.857413E+03 -2.449978E+03
       536   1 -3.328549E+05 -1.861944E+04 -2.199060E+04  4.168018E+04  3.495448E+03  3.603677E+03
       536   2 -3.627345E+05 -3.489383E+04 -3.853028E+04  5.086710E+04  1.987209E+04  3.941311E+03
       536   3 -3.991842E+05 -6.887055E+04 -7.016390E+04  6.574278E+04  3.625009E+04  1.344781E+03
       536   4 -2.678580E+05 -3.377820E+03 -1.079888E+04  4.143985E+04  7.360378E+03  3.607178E+03
       536   5 -2.651265E+05 -1.161381E+04 -1.964139E+04  3.860970E+04  1.740201E+04  3.938645E+03
       536   6 -2.678646E+05 -3.645066E+04 -3.917584E+04  4.146899E+04  2.744599E+04  1.335525E+03
       536   7 -2.028569E+05  1.186358E+04  3.927469E+02  4.119950E+04  1.122570E+04  3.610677E+03
       536   8 -1.675089E+05  1.166621E+04 -7.528397E+02  2.635033E+04  1.493156E+04  3.936077E+03
       536   9 -1.365277E+05 -4.029745E+03 -8.188368E+03  1.719004E+04  1.864003E+04  1.326960E+03
       536  10 -3.328550E+05 -1.861946E+04 -2.199064E+04  4.168017E+04  5.134802E-09 -2.891298E-09
       536  11 -3.627350E+05 -3.489395E+04 -3.853106E+04  5.086703E+04 -1.455902E-09 -1.264603E-09
       536  12 -3.991856E+05 -6.887090E+04 -7.016637E+04  6.574274E+04 -5.557489E-09 -1.189022E-09
       536  13 -2.678581E+05 -3.377849E+03 -1.079901E+04  4.143983E+04  7.234708E-10 -1.280553E-09
       536  14 -2.651268E+05 -1.161391E+04 -1.964199E+04  3.860964E+04  4.134984E-10 -3.478930E-09
       536  15 -2.678654E+05 -3.645087E+04 -3.917726E+04  4.146897E+04  3.968702E-10 -1.922821E-09
       536  16 -2.028570E+05  1.186354E+04  3.924856E+02  4.119947E+04 -4.154000E-09 -1.124442E-09
       536  17 -1.675092E+05  1.166613E+04 -7.532879E+02  2.635028E+04  1.378150E-09 -4.985818E-10
       536  18 -1.365280E+05 -4.029841E+03 -8.189024E+03  1.719002E+04  5.591941E-09 -9.909825E-10
       536  19 -3.328549E+05 -1.861944E+04 -2.199060E+04  4.168018E+04 -3.495448E+03 -3.603677E+03
       536  20 -3.627345E+05 -3.489383E+04 -3.853028E+04  5.086710E+04 -1.987209E+04 -3.941311E+03
       536  21 -3.991842E+05 -6.887055E+04 -7.016390E+04  6.574278E+04 -3.625009E+04 -1.344781E+03
       536  22 -2.678580E+05 -3.377820E+03 -1.079888E+04  4.143985E+04 -7.360378E+03 -3.607178E+03
       536  23 -2.651265E+05 -1.161381E+04 -1.964139E+04  3.860970E+04 -1.740201E+04 -3.938645E+03
       536  24 -2.678646E+05 -3.645066E+04 -3.917584E+04  4.146899E+04 -2.744599E+04 -1.335525E+03
       536  25 -2.028569E+05  1.186358E+04  3.927469E+02  4.119950E+04 -1.122570E+04 -3.610677E+03
       536  26 -1.675089E+05  1.166621E+04 -7.528397E+02  2.635033E+04 -1.493156E+04 -3.936077E+03
       536  27 -1.365277E+05 -4.029745E+03 -8.188368E+03  1.719004E+04 -1.864003E+04 -1.326960E+03
       537   1 -2.215265E+04  1.559532E+04  1.448155E+04  1.997962E+04  3.132156E+03 -7.648443E+02
       537   2 -3.967179E+04  1.263633E+04  9.292612E+03  1.940448E+04  3.684835E+02 -2.337656E+03
       537   3 -5.700039E+04  9.020632E+03  5.738492E+03  2.180613E+04 -2.396405E+03 -2.257417E+03
       537   4 -9.651652E+04 -2.777033E+03 -3.030540E+03  2.181996E+04 -2.045072E+03 -7.692581E+02
       537   5 -9.630115E+04 -8.625019E+02 -1.577631E+03  2.033046E+04 -1.238208E+03 -2.339054E+03
       537   6 -9.651575E+04 -2.246934E+02 -9.696409E+02  2.181779E+04 -4.326909E+02 -2.255723E+03
       537   7 -1.708752E+05 -2.114975E+04 -2.054291E+04  2.366008E+04 -7.221684E+03 -7.737028E+02
       537   8 -1.529274E+05 -1.436152E+04 -1.244801E+04  2.125634E+04 -2.844756E+03 -2.340458E+03
       537   9 -1.360296E+05 -9.470099E+03 -7.677810E+03  2.182945E+04  1.530902E+03 -2.254030E+03
       537  10 -2.215266E+04  1.559531E+04  1.448153E+04  1.997962E+04 -6.259074E-08 -2.952901E-11
       537  11 -3.967179E+04  1.263633E+04  9.292602E+03  1.940448E+04  4.305471E-10 -1.944268E-10
       537  12 -5.700039E+04  9.020624E+03  5.738472E+03  2.180613E+04  6.478092E-08 -3.085577E-11
       537  13 -9.651653E+04 -2.777035E+03 -3.030549E+03  2.181996E+04  6.344660E-10  2.380515E-09
       537  14 -9.630116E+04 -8.625082E+02 -1.577644E+03  2.033045E+04  6.741582E-11 -4.518887E-10
       537  15 -9.651575E+04 -2.246989E+02 -9.696508E+02  2.181779E+04  2.291069E-10 -9.164774E-11
       537  16 -1.708753E+05 -2.114977E+04 -2.054301E+04  2.366008E+04  6.287791E-08 -8.657503E-11
       537  17 -1.529274E+05 -1.436153E+04 -1.244804E+04  2.125634E+04 -2.648778E-10 -3.700600E-09
       537  18 -1.360296E+05 -9.470105E+03 -7.677824E+03  2.182945E+04 -6.481920E-08 -8.204037E-10
       537  19 -2.215265E+04  1.559532E+04  1.448155E+04  1.997962E+04 -3.132156E+03  7.648443E+02
       537  20 -3.967179E+04  1.263633E+04  9.292612E+03  1.940448E+04 -3.684835E+02  2.337656E+03
       537  21 -5.700039E+04  9.020632E+03  5.738492E+03  2.180613E+04  2.396405E+03  2.257417E+03
       537  22 -9.651652E+04 -2.777033E+03 -3.030540E+03  2.181996E+04  2.045072E+03  7.692581E+02
       537  23 -9.630115E+04 -8.625019E+02 -1.577631E+03  2.033046E+04  1.238208E+03  2.339054E+03
       537  24 -9.651575E+04 -2.246934E+02 -9.696409E+02  2.181779E+04  4.326909E+02  2.255723E+03
       537  25 -1.708752E+05 -2.114975E+04 -2.054291E+04  2.366008E+04  7.221684E+03  7.737028E+02
       537  26 -1.529274E+05 -1.436152E+04 -1.244801E+04  2.125634E+04  2.844756E+03  2.340458E+03
       537  27 -1.360296E+05 -9.470099E+03 -7.677810E+03  2.182945E+04 -1.530902E+03  2.254030E+03
       538   1 -6.791045E+04  6.501990E+03  3.977375E+03  2.172705E+04 -2.284372E+03 -1.661935E+03
       538   2 -8.531056E+04  2.564837E+03  1.142426E+03  2.023643E+04 -2.298212E+03 -6.561396E+02
       538   3 -1.027345E+05 -1.448841E+03 -1.704542E+03  2.183998E+04 -2.312197E+03  5.192350E+02
       538   4 -9.643949E+04 -1.638005E+02 -8.212136E+02  2.184402E+04 -2.951541E+02 -1.660207E+03
       538   5 -9.639572E+04 -2.262554E+01 -7.092571E+02  2.029687E+04  5.724074E+01 -6.540859E+02
       538   6 -9.643936E+04 -2.148730E+01 -8.636149E+02  2.184390E+04  4.094949E+02  5.216168E+02
       538   7 -1.249677E+05 -6.829632E+03 -5.619813E+03  2.196099E+04  1.693976E+03 -1.658479E+03
       538   8 -1.074808E+05 -2.610092E+03 -2.560923E+03  2.035732E+04  2.412653E+03 -6.520317E+02
       538   9 -9.014421E+04  1.405869E+03 -2.265984E+01  2.184783E+04  3.131214E+03  5.239985E+02
       538  10 -6.791045E+04  6.501986E+03  3.977360E+03  2.172705E+04 -9.395901E-10  5.913593E-10
       538  11 -8.531057E+04  2.564835E+03  1.142415E+03  2.023643E+04  3.999019E-10 -7.765796E-10
       538  12 -1.027345E+05 -1.448843E+03 -1.704553E+03  2.183998E+04  3.476170E-09  8.985460E-10
       538  13 -9.643950E+04 -1.638035E+02 -8.212189E+02  2.184402E+04  5.842953E-10  1.669391E-09
       538  14 -9.639572E+04 -2.262600E+01 -7.092579E+02  2.029687E+04 -4.602838E-11  2.333614E-09
       538  15 -9.643936E+04 -2.148763E+01 -8.636157E+02  2.184390E+04  4.587418E-10  1.590873E-09
       538  16 -1.249677E+05 -6.829636E+03 -5.619823E+03  2.196099E+04  1.181133E-09  3.247913E-09
       538  17 -1.074808E+05 -2.610094E+03 -2.560935E+03  2.035732E+04 -1.787532E-10  1.162687E-09
       538  18 -9.014422E+04  1.405866E+03 -2.267878E+01  2.184782E+04 -3.048381E-09  1.040812E-09
       538  19 -6.791045E+04  6.501990E+03  3.977375E+03  2.172705E+04  2.284372E+03  1.661935E+03
       538  20 -8.531056E+04  2.564837E+03  1.142426E+03  2.023643E+04  2.298212E+03  6.561396E+02
       538  21 -1.027345E+05 -1.448841E+03 -1.704542E+03  2.183998E+04  2.312197E+03 -5.192350E+02
       538  22 -9.643949E+04 -1.638005E+02 -8.212136E+02  2.184402E+04  2.951541E+02  1.660207E+03
       538  23 -9.639572E+04 -2.262554E+01 -7.092571E+02  2.029687E+04 -5.724074E+01  6.540859E+02
       538  24 -9.643936E+04 -2.148730E+01 -8.636149E+02  2.184390E+04 -4.094949E+02 -5.216168E+02
       538  25 -1.249677E+05 -6.829632E+03 -5.619813E+03  2.196099E+04 -1.693976E+03  1.658479E+03
       538  26 -1.074808E+05 -2.610092E+03 -2.560923E+03  2.035732E+04 -2.412653E+03  6.520317E+02
       538  27 -9.014421E+04  1.405869E+03 -2.265984E+01  2.184783E+04 -3.131214E+03 -5.239985E+02
       539   1 -1.136755E+05 -3.976588E+03 -3.551174E+03  2.177141E+04 -2.150011E+03  1.269849E+03
       539   2 -1.309219E+05 -8.203679E+03 -6.924236E+03  2.051538E+04 -8.033344E+02  2.412745E+03
       539   3 -1.484996E+05 -1.302980E+04 -1.132583E+04  2.234934E+04  5.435212E+02  3.319517E+03
       539   4 -9.647399E+04 -3.322527E+01 -1.038624E+03  2.184291E+04  5.707170E+02  1.272224E+03
       539   5 -9.635273E+04 -2.395181E+02 -1.674790E+03  2.029831E+04  1.407462E+03  2.414651E+03
       539   6 -9.647446E+04 -9.562620E+02 -2.985292E+03  2.184371E+04  2.244422E+03  3.320961E+03
       539   7 -7.927218E+04  3.910128E+03  1.473949E+03  2.191441E+04  3.291518E+03  1.274600E+03
       539   8 -6.178233E+04  7.724588E+03  3.574649E+03  2.008124E+04  3.618377E+03  2.416556E+03
       539   9 -4.444661E+04  1.111714E+04  5.355185E+03  2.133804E+04  3.945459E+03  3.322401E+03
       539  10 -1.136755E+05 -3.976591E+03 -3.551186E+03  2.177142E+04  4.192171E-09  2.162242E-10
       539  11 -1.309219E+05 -8.203686E+03 -6.924248E+03  2.051538E+04  4.351251E-10  1.457224E-09
       539  12 -1.484996E+05 -1.302981E+04 -1.132585E+04  2.234934E+04 -1.118828E-09  3.453308E-10
       539  13 -9.647399E+04 -3.322709E+01 -1.038628E+03  2.184291E+04  6.545692E-10 -1.890477E-09
       539  14 -9.635273E+04 -2.395249E+02 -1.674805E+03  2.029831E+04 -1.541932E-11  1.370192E-09
       539  15 -9.647447E+04 -9.562752E+02 -2.985323E+03  2.184370E+04  3.350507E-10  1.394581E-09
       539  16 -7.927220E+04  3.910123E+03  1.473925E+03  2.191441E+04 -3.515778E-09 -4.357403E-10
       539  17 -6.178235E+04  7.724579E+03  3.574613E+03  2.008123E+04 -4.591287E-10 -1.791212E-09
       539  18 -4.444663E+04  1.111712E+04  5.355135E+03  2.133802E+04  1.306170E-09  1.395241E-09
       539  19 -1.136755E+05 -3.976588E+03 -3.551174E+03  2.177141E+04  2.150011E+03 -1.269849E+03
       539  20 -1.309219E+05 -8.203679E+03 -6.924236E+03  2.051538E+04  8.033344E+02 -2.412745E+03
       539  21 -1.484996E+05 -1.302980E+04 -1.132583E+04  2.234934E+04 -5.435212E+02 -3.319517E+03
       539  22 -9.647399E+04 -3.322527E+01 -1.038624E+03  2.184291E+04 -5.707170E+02 -1.272224E+03
       539  23 -9.635273E+04 -2.395181E+02 -1.674790E+03  2.029831E+04 -1.407462E+03 -2.414651E+03
       539  24 -9.647446E+04 -9.562620E+02 -2.985292E+03  2.184371E+04 -2.244422E+03 -3.320961E+03
       539  25 -7.927218E+04  3.910128E+03  1.473949E+03  2.191441E+04 -3.291518E+03 -1.274600E+03
       539  26 -6.178233E+04  7.724588E+03  3.574649E+03  2.008124E+04 -3.618377E+03 -2.416556E+03
       539  27 -4.444661E+04  1.111714E+04  5.355185E+03  2.133804E+04 -3.945459E+03 -3.322401E+03
       540   1 -1.599106E+05 -1.592024E+04 -1.430004E+04  2.186977E+04  1.091336E+03  3.854566E+03
       540   2 -1.759289E+05 -2.330067E+04 -2.226906E+04  2.484981E+04  9.424908E+03  3.562571E+03
       540   3 -1.947735E+05 -3.762395E+04 -3.740114E+04  3.076926E+04  1.775977E+04  1.128035E+03
       540   4 -9.687024E+04 -1.241814E+03 -3.956767E+03  2.180951E+04  2.759041E+03  3.855963E+03
       540   5 -9.585948E+04 -4.289401E+03 -7.248959E+03  2.034486E+04  6.465900E+03  3.559957E+03
       540   6 -9.687176E+04 -1.347606E+04 -1.449045E+04  2.181981E+04  1.017439E+04  1.121418E+03
       540   7 -3.382596E+04  1.343641E+04  6.386406E+03  2.174924E+04  4.426910E+03  3.857359E+03
       540   8 -1.578376E+04  1.472158E+04  7.770912E+03  1.583931E+04  3.506519E+03  3.557386E+03
       540   9  1.039157E+03  1.067149E+04  8.419846E+03  1.286893E+04  2.587825E+03  1.115020E+03
       540  10 -1.599106E+05 -1.592026E+04 -1.430007E+04  2.186977E+04  1.660314E-09 -3.138672E-10
       540  11 -1.759290E+05 -2.330071E+04 -2.226926E+04  2.484978E+04  1.394177E-09  7.723533E-10
       540  12 -1.947739E+05 -3.762404E+04 -3.740174E+04  3.076925E+04  1.749840E-09  1.817016E-09
       540  13 -9.687025E+04 -1.241832E+03 -3.956809E+03  2.180950E+04  7.118161E-10  1.034544E-09
       540  14 -9.585952E+04 -4.289426E+03 -7.249062E+03  2.034484E+04  4.882067E-10  9.044698E-10
       540  15 -9.687187E+04 -1.347609E+04 -1.449065E+04  2.181980E+04  2.712810E-10  1.797576E-09
       540  16 -3.382599E+04  1.343639E+04  6.386341E+03  2.174923E+04 -8.002676E-10  1.492703E-09
       540  17 -1.578378E+04  1.472156E+04  7.770866E+03  1.583930E+04 -1.567334E-09  3.233602E-09
       540  18  1.039150E+03  1.067148E+04  8.419831E+03  1.286893E+04 -2.163024E-09  6.937675E-10
       540  19 -1.599106E+05 -1.592024E+04 -1.430004E+04  2.186977E+04 -1.091336E+03 -3.854566E+03
       540  20 -1.759289E+05 -2.330067E+04 -2.226906E+04  2.484981E+04 -9.424908E+03 -3.562571E+03
       540  21 -1.947735E+05 -3.762395E+04 -3.740114E+04  3.076926E+04 -1.775977E+04 -1.128035E+03
       540  22 -9.687024E+04 -1.241814E+03 -3.956767E+03  2.180951E+04 -2.759041E+03 -3.855963E+03
       540  23 -9.585948E+04 -4.289401E+03 -7.248959E+03  2.034486E+04 -6.465900E+03 -3.559957E+03
       540  24 -9.687176E+04 -1.347606E+04 -1.449045E+04  2.181981E+04 -1.017439E+04 -1.121418E+03
       540  25 -3.382596E+04  1.343641E+04  6.386406E+03  2.174924E+04 -4.426910E+03 -3.857359E+03
       540  26 -1.578376E+04  1.472158E+04  7.770912E+03  1.583931E+04 -3.506519E+03 -3.557386E+03
       540  27  1.039157E+03  1.067149E+04  8.419846E+03  1.286893E+04 -2.587825E+03 -1.115020E+03
