    1C
    1UUSER                                                              
    1UDATE              12.september.2022                               
    1UTIME              21:48:51                                        
    1UHOST                                                              
    1UPGM               CalculiX                                        
    1UVERSION           Version 2.19                             
    1UCOMPILETIME       Fri Dec 17 13:15:26 CET 2021                    
    1UDIR                                                               
    1UDBN                                                               
    1UMAT    1MESH_MATERIAL                                             
    2C                          1001                                     1
 -1         1 0.00000E+00 0.00000E+00 0.00000E+00
 -1         2 8.33333E-03 0.00000E+00 0.00000E+00
 -1         3 1.66667E-02 0.00000E+00 0.00000E+00
 -1         4 2.50000E-02 0.00000E+00 0.00000E+00
 -1         5 3.33333E-02 0.00000E+00 0.00000E+00
 -1         6 4.16667E-02 0.00000E+00 0.00000E+00
 -1         7 5.00000E-02 0.00000E+00 0.00000E+00
 -1         8 5.83333E-02 0.00000E+00 0.00000E+00
 -1         9 6.66667E-02 0.00000E+00 0.00000E+00
 -1        14 0.00000E+00 6.25000E-03 0.00000E+00
 -1        15 8.33333E-03 6.25000E-03 0.00000E+00
 -1        16 1.66667E-02 6.25000E-03 0.00000E+00
 -1        17 2.50000E-02 6.25000E-03 0.00000E+00
 -1        18 3.33333E-02 6.25000E-03 0.00000E+00
 -1        19 4.16667E-02 6.25000E-03 0.00000E+00
 -1        20 5.00000E-02 6.25000E-03 0.00000E+00
 -1        21 5.83333E-02 6.25000E-03 0.00000E+00
 -1        22 6.66667E-02 6.25000E-03 0.00000E+00
 -1        27 0.00000E+00 1.25000E-02 0.00000E+00
 -1        28 8.33333E-03 1.25000E-02 0.00000E+00
 -1        29 1.66667E-02 1.25000E-02 0.00000E+00
 -1        30 2.50000E-02 1.25000E-02 0.00000E+00
 -1        31 3.33333E-02 1.25000E-02 0.00000E+00
 -1        32 4.16667E-02 1.25000E-02 0.00000E+00
 -1        33 5.00000E-02 1.25000E-02 0.00000E+00
 -1        34 5.83333E-02 1.25000E-02 0.00000E+00
 -1        35 6.66667E-02 1.25000E-02 0.00000E+00
 -1        36 7.50000E-02 1.25000E-02 0.00000E+00
 -1        37 8.33333E-02 1.25000E-02 0.00000E+00
 -1        38 9.16667E-02 1.25000E-02 0.00000E+00
 -1        39 1.00000E-01 1.25000E-02 0.00000E+00
 -1        40 0.00000E+00 1.87500E-02 0.00000E+00
 -1        41 8.33333E-03 1.87500E-02 0.00000E+00
 -1        42 1.66667E-02 1.87500E-02 0.00000E+00
 -1        43 2.50000E-02 1.87500E-02 0.00000E+00
 -1        44 3.33333E-02 1.87500E-02 0.00000E+00
 -1        45 4.16667E-02 1.87500E-02 0.00000E+00
 -1        46 5.00000E-02 1.87500E-02 0.00000E+00
 -1        47 5.83333E-02 1.87500E-02 0.00000E+00
 -1        48 6.66667E-02 1.87500E-02 0.00000E+00
 -1        49 7.50000E-02 1.87500E-02 0.00000E+00
 -1        50 8.33333E-02 1.87500E-02 0.00000E+00
 -1        51 9.16667E-02 1.87500E-02 0.00000E+00
 -1        52 1.00000E-01 1.87500E-02 0.00000E+00
 -1        53 0.00000E+00 2.50000E-02 0.00000E+00
 -1        54 8.33333E-03 2.50000E-02 0.00000E+00
 -1        55 1.66667E-02 2.50000E-02 0.00000E+00
 -1        56 2.50000E-02 2.50000E-02 0.00000E+00
 -1        57 3.33333E-02 2.50000E-02 0.00000E+00
 -1        58 4.16667E-02 2.50000E-02 0.00000E+00
 -1        59 5.00000E-02 2.50000E-02 0.00000E+00
 -1        60 5.83333E-02 2.50000E-02 0.00000E+00
 -1        61 6.66667E-02 2.50000E-02 0.00000E+00
 -1        62 7.50000E-02 2.50000E-02 0.00000E+00
 -1        63 8.33333E-02 2.50000E-02 0.00000E+00
 -1        64 9.16667E-02 2.50000E-02 0.00000E+00
 -1        65 1.00000E-01 2.50000E-02 0.00000E+00
 -1        66 1.04167E-03 0.00000E+00 0.00000E+00
 -1        67 2.08333E-03 0.00000E+00 0.00000E+00
 -1        68 3.12500E-03 0.00000E+00 0.00000E+00
 -1        69 4.16667E-03 0.00000E+00 0.00000E+00
 -1        70 5.20833E-03 0.00000E+00 0.00000E+00
 -1        71 6.25000E-03 0.00000E+00 0.00000E+00
 -1        72 7.29167E-03 0.00000E+00 0.00000E+00
 -1        73 0.00000E+00 1.04167E-03 0.00000E+00
 -1        74 0.00000E+00 2.08333E-03 0.00000E+00
 -1        75 0.00000E+00 3.12500E-03 0.00000E+00
 -1        76 0.00000E+00 4.16667E-03 0.00000E+00
 -1        77 0.00000E+00 5.20833E-03 0.00000E+00
 -1        78 8.33330E-04 6.25000E-04 0.00000E+00
 -1        79 1.66667E-03 1.25000E-03 0.00000E+00
 -1        80 2.50000E-03 1.87500E-03 0.00000E+00
 -1        81 3.33333E-03 2.50000E-03 0.00000E+00
 -1        82 4.16667E-03 3.12500E-03 0.00000E+00
 -1        83 5.00000E-03 3.75000E-03 0.00000E+00
 -1        84 5.83333E-03 4.37500E-03 0.00000E+00
 -1        85 6.66667E-03 5.00000E-03 0.00000E+00
 -1        86 7.50000E-03 5.62500E-03 0.00000E+00
 -1        87 9.37500E-03 0.00000E+00 0.00000E+00
 -1        88 1.04167E-02 0.00000E+00 0.00000E+00
 -1        89 1.14583E-02 0.00000E+00 0.00000E+00
 -1        90 1.25000E-02 0.00000E+00 0.00000E+00
 -1        91 1.35417E-02 0.00000E+00 0.00000E+00
 -1        92 1.45833E-02 0.00000E+00 0.00000E+00
 -1        93 1.56250E-02 0.00000E+00 0.00000E+00
 -1        94 8.33333E-03 1.04167E-03 0.00000E+00
 -1        95 8.33333E-03 2.08333E-03 0.00000E+00
 -1        96 8.33333E-03 3.12500E-03 0.00000E+00
 -1        97 8.33333E-03 4.16667E-03 0.00000E+00
 -1        98 8.33333E-03 5.20833E-03 0.00000E+00
 -1        99 9.16667E-03 6.25000E-04 0.00000E+00
 -1       100 1.00000E-02 1.25000E-03 0.00000E+00
 -1       101 1.08333E-02 1.87500E-03 0.00000E+00
 -1       102 1.16667E-02 2.50000E-03 0.00000E+00
 -1       103 1.25000E-02 3.12500E-03 0.00000E+00
 -1       104 1.33333E-02 3.75000E-03 0.00000E+00
 -1       105 1.41667E-02 4.37500E-03 0.00000E+00
 -1       106 1.50000E-02 5.00000E-03 0.00000E+00
 -1       107 1.58333E-02 5.62500E-03 0.00000E+00
 -1       108 1.77083E-02 0.00000E+00 0.00000E+00
 -1       109 1.87500E-02 0.00000E+00 0.00000E+00
 -1       110 1.97917E-02 0.00000E+00 0.00000E+00
 -1       111 2.08333E-02 0.00000E+00 0.00000E+00
 -1       112 2.18750E-02 0.00000E+00 0.00000E+00
 -1       113 2.29167E-02 0.00000E+00 0.00000E+00
 -1       114 2.39583E-02 0.00000E+00 0.00000E+00
 -1       115 1.66667E-02 1.04167E-03 0.00000E+00
 -1       116 1.66667E-02 2.08333E-03 0.00000E+00
 -1       117 1.66667E-02 3.12500E-03 0.00000E+00
 -1       118 1.66667E-02 4.16667E-03 0.00000E+00
 -1       119 1.66667E-02 5.20833E-03 0.00000E+00
 -1       120 1.75000E-02 6.25000E-04 0.00000E+00
 -1       121 1.83333E-02 1.25000E-03 0.00000E+00
 -1       122 1.91667E-02 1.87500E-03 0.00000E+00
 -1       123 2.00000E-02 2.50000E-03 0.00000E+00
 -1       124 2.08333E-02 3.12500E-03 0.00000E+00
 -1       125 2.16667E-02 3.75000E-03 0.00000E+00
 -1       126 2.25000E-02 4.37500E-03 0.00000E+00
 -1       127 2.33333E-02 5.00000E-03 0.00000E+00
 -1       128 2.41667E-02 5.62500E-03 0.00000E+00
 -1       129 2.60417E-02 0.00000E+00 0.00000E+00
 -1       130 2.70833E-02 0.00000E+00 0.00000E+00
 -1       131 2.81250E-02 0.00000E+00 0.00000E+00
 -1       132 2.91667E-02 0.00000E+00 0.00000E+00
 -1       133 3.02083E-02 0.00000E+00 0.00000E+00
 -1       134 3.12500E-02 0.00000E+00 0.00000E+00
 -1       135 3.22917E-02 0.00000E+00 0.00000E+00
 -1       136 2.50000E-02 1.04167E-03 0.00000E+00
 -1       137 2.50000E-02 2.08333E-03 0.00000E+00
 -1       138 2.50000E-02 3.12500E-03 0.00000E+00
 -1       139 2.50000E-02 4.16667E-03 0.00000E+00
 -1       140 2.50000E-02 5.20833E-03 0.00000E+00
 -1       141 2.58333E-02 6.25000E-04 0.00000E+00
 -1       142 2.66667E-02 1.25000E-03 0.00000E+00
 -1       143 2.75000E-02 1.87500E-03 0.00000E+00
 -1       144 2.83333E-02 2.50000E-03 0.00000E+00
 -1       145 2.91667E-02 3.12500E-03 0.00000E+00
 -1       146 3.00000E-02 3.75000E-03 0.00000E+00
 -1       147 3.08333E-02 4.37500E-03 0.00000E+00
 -1       148 3.16667E-02 5.00000E-03 0.00000E+00
 -1       149 3.25000E-02 5.62500E-03 0.00000E+00
 -1       150 3.43750E-02 0.00000E+00 0.00000E+00
 -1       151 3.54167E-02 0.00000E+00 0.00000E+00
 -1       152 3.64583E-02 0.00000E+00 0.00000E+00
 -1       153 3.75000E-02 0.00000E+00 0.00000E+00
 -1       154 3.85417E-02 0.00000E+00 0.00000E+00
 -1       155 3.95833E-02 0.00000E+00 0.00000E+00
 -1       156 4.06250E-02 0.00000E+00 0.00000E+00
 -1       157 3.33333E-02 1.04167E-03 0.00000E+00
 -1       158 3.33333E-02 2.08333E-03 0.00000E+00
 -1       159 3.33333E-02 3.12500E-03 0.00000E+00
 -1       160 3.33333E-02 4.16667E-03 0.00000E+00
 -1       161 3.33333E-02 5.20833E-03 0.00000E+00
 -1       162 3.41667E-02 6.25000E-04 0.00000E+00
 -1       163 3.50000E-02 1.25000E-03 0.00000E+00
 -1       164 3.58333E-02 1.87500E-03 0.00000E+00
 -1       165 3.66667E-02 2.50000E-03 0.00000E+00
 -1       166 3.75000E-02 3.12500E-03 0.00000E+00
 -1       167 3.83333E-02 3.75000E-03 0.00000E+00
 -1       168 3.91667E-02 4.37500E-03 0.00000E+00
 -1       169 4.00000E-02 5.00000E-03 0.00000E+00
 -1       170 4.08333E-02 5.62500E-03 0.00000E+00
 -1       171 4.27083E-02 0.00000E+00 0.00000E+00
 -1       172 4.37500E-02 0.00000E+00 0.00000E+00
 -1       173 4.47917E-02 0.00000E+00 0.00000E+00
 -1       174 4.58333E-02 0.00000E+00 0.00000E+00
 -1       175 4.68750E-02 0.00000E+00 0.00000E+00
 -1       176 4.79167E-02 0.00000E+00 0.00000E+00
 -1       177 4.89583E-02 0.00000E+00 0.00000E+00
 -1       178 4.16667E-02 1.04167E-03 0.00000E+00
 -1       179 4.16667E-02 2.08333E-03 0.00000E+00
 -1       180 4.16667E-02 3.12500E-03 0.00000E+00
 -1       181 4.16667E-02 4.16667E-03 0.00000E+00
 -1       182 4.16667E-02 5.20833E-03 0.00000E+00
 -1       183 4.25000E-02 6.25000E-04 0.00000E+00
 -1       184 4.33333E-02 1.25000E-03 0.00000E+00
 -1       185 4.41667E-02 1.87500E-03 0.00000E+00
 -1       186 4.50000E-02 2.50000E-03 0.00000E+00
 -1       187 4.58333E-02 3.12500E-03 0.00000E+00
 -1       188 4.66667E-02 3.75000E-03 0.00000E+00
 -1       189 4.75000E-02 4.37500E-03 0.00000E+00
 -1       190 4.83333E-02 5.00000E-03 0.00000E+00
 -1       191 4.91667E-02 5.62500E-03 0.00000E+00
 -1       192 5.10417E-02 0.00000E+00 0.00000E+00
 -1       193 5.20833E-02 0.00000E+00 0.00000E+00
 -1       194 5.31250E-02 0.00000E+00 0.00000E+00
 -1       195 5.41667E-02 0.00000E+00 0.00000E+00
 -1       196 5.52083E-02 0.00000E+00 0.00000E+00
 -1       197 5.62500E-02 0.00000E+00 0.00000E+00
 -1       198 5.72917E-02 0.00000E+00 0.00000E+00
 -1       199 5.00000E-02 1.04167E-03 0.00000E+00
 -1       200 5.00000E-02 2.08333E-03 0.00000E+00
 -1       201 5.00000E-02 3.12500E-03 0.00000E+00
 -1       202 5.00000E-02 4.16667E-03 0.00000E+00
 -1       203 5.00000E-02 5.20833E-03 0.00000E+00
 -1       204 5.08333E-02 6.25000E-04 0.00000E+00
 -1       205 5.16667E-02 1.25000E-03 0.00000E+00
 -1       206 5.25000E-02 1.87500E-03 0.00000E+00
 -1       207 5.33333E-02 2.50000E-03 0.00000E+00
 -1       208 5.41667E-02 3.12500E-03 0.00000E+00
 -1       209 5.50000E-02 3.75000E-03 0.00000E+00
 -1       210 5.58333E-02 4.37500E-03 0.00000E+00
 -1       211 5.66667E-02 5.00000E-03 0.00000E+00
 -1       212 5.75000E-02 5.62500E-03 0.00000E+00
 -1       213 5.93750E-02 0.00000E+00 0.00000E+00
 -1       214 6.04167E-02 0.00000E+00 0.00000E+00
 -1       215 6.14583E-02 0.00000E+00 0.00000E+00
 -1       216 6.25000E-02 0.00000E+00 0.00000E+00
 -1       217 6.35417E-02 0.00000E+00 0.00000E+00
 -1       218 6.45833E-02 0.00000E+00 0.00000E+00
 -1       219 6.56250E-02 0.00000E+00 0.00000E+00
 -1       220 5.83333E-02 1.04167E-03 0.00000E+00
 -1       221 5.83333E-02 2.08333E-03 0.00000E+00
 -1       222 5.83333E-02 3.12500E-03 0.00000E+00
 -1       223 5.83333E-02 4.16667E-03 0.00000E+00
 -1       224 5.83333E-02 5.20833E-03 0.00000E+00
 -1       225 5.91667E-02 6.25000E-04 0.00000E+00
 -1       226 6.00000E-02 1.25000E-03 0.00000E+00
 -1       227 6.08333E-02 1.87500E-03 0.00000E+00
 -1       228 6.16667E-02 2.50000E-03 0.00000E+00
 -1       229 6.25000E-02 3.12500E-03 0.00000E+00
 -1       230 6.33333E-02 3.75000E-03 0.00000E+00
 -1       231 6.41667E-02 4.37500E-03 0.00000E+00
 -1       232 6.50000E-02 5.00000E-03 0.00000E+00
 -1       233 6.58333E-02 5.62500E-03 0.00000E+00
 -1       241 6.66667E-02 1.04167E-03 0.00000E+00
 -1       242 6.66667E-02 2.08333E-03 0.00000E+00
 -1       243 6.66667E-02 3.12500E-03 0.00000E+00
 -1       244 6.66667E-02 4.16667E-03 0.00000E+00
 -1       245 6.66667E-02 5.20833E-03 0.00000E+00
 -1       323 1.04167E-03 6.25000E-03 0.00000E+00
 -1       324 2.08333E-03 6.25000E-03 0.00000E+00
 -1       325 3.12500E-03 6.25000E-03 0.00000E+00
 -1       326 4.16667E-03 6.25000E-03 0.00000E+00
 -1       327 5.20833E-03 6.25000E-03 0.00000E+00
 -1       328 6.25000E-03 6.25000E-03 0.00000E+00
 -1       329 7.29167E-03 6.25000E-03 0.00000E+00
 -1       330 0.00000E+00 7.29167E-03 0.00000E+00
 -1       331 0.00000E+00 8.33333E-03 0.00000E+00
 -1       332 0.00000E+00 9.37500E-03 0.00000E+00
 -1       333 0.00000E+00 1.04167E-02 0.00000E+00
 -1       334 0.00000E+00 1.14583E-02 0.00000E+00
 -1       335 8.33330E-04 6.87500E-03 0.00000E+00
 -1       336 1.66667E-03 7.50000E-03 0.00000E+00
 -1       337 2.50000E-03 8.12500E-03 0.00000E+00
 -1       338 3.33333E-03 8.75000E-03 0.00000E+00
 -1       339 4.16667E-03 9.37500E-03 0.00000E+00
 -1       340 5.00000E-03 1.00000E-02 0.00000E+00
 -1       341 5.83333E-03 1.06250E-02 0.00000E+00
 -1       342 6.66667E-03 1.12500E-02 0.00000E+00
 -1       343 7.50000E-03 1.18750E-02 0.00000E+00
 -1       344 9.37500E-03 6.25000E-03 0.00000E+00
 -1       345 1.04167E-02 6.25000E-03 0.00000E+00
 -1       346 1.14583E-02 6.25000E-03 0.00000E+00
 -1       347 1.25000E-02 6.25000E-03 0.00000E+00
 -1       348 1.35417E-02 6.25000E-03 0.00000E+00
 -1       349 1.45833E-02 6.25000E-03 0.00000E+00
 -1       350 1.56250E-02 6.25000E-03 0.00000E+00
 -1       351 8.33333E-03 7.29167E-03 0.00000E+00
 -1       352 8.33333E-03 8.33333E-03 0.00000E+00
 -1       353 8.33333E-03 9.37500E-03 0.00000E+00
 -1       354 8.33333E-03 1.04167E-02 0.00000E+00
 -1       355 8.33333E-03 1.14583E-02 0.00000E+00
 -1       356 9.16667E-03 6.87500E-03 0.00000E+00
 -1       357 1.00000E-02 7.50000E-03 0.00000E+00
 -1       358 1.08333E-02 8.12500E-03 0.00000E+00
 -1       359 1.16667E-02 8.75000E-03 0.00000E+00
 -1       360 1.25000E-02 9.37500E-03 0.00000E+00
 -1       361 1.33333E-02 1.00000E-02 0.00000E+00
 -1       362 1.41667E-02 1.06250E-02 0.00000E+00
 -1       363 1.50000E-02 1.12500E-02 0.00000E+00
 -1       364 1.58333E-02 1.18750E-02 0.00000E+00
 -1       365 1.77083E-02 6.25000E-03 0.00000E+00
 -1       366 1.87500E-02 6.25000E-03 0.00000E+00
 -1       367 1.97917E-02 6.25000E-03 0.00000E+00
 -1       368 2.08333E-02 6.25000E-03 0.00000E+00
 -1       369 2.18750E-02 6.25000E-03 0.00000E+00
 -1       370 2.29167E-02 6.25000E-03 0.00000E+00
 -1       371 2.39583E-02 6.25000E-03 0.00000E+00
 -1       372 1.66667E-02 7.29167E-03 0.00000E+00
 -1       373 1.66667E-02 8.33333E-03 0.00000E+00
 -1       374 1.66667E-02 9.37500E-03 0.00000E+00
 -1       375 1.66667E-02 1.04167E-02 0.00000E+00
 -1       376 1.66667E-02 1.14583E-02 0.00000E+00
 -1       377 1.75000E-02 6.87500E-03 0.00000E+00
 -1       378 1.83333E-02 7.50000E-03 0.00000E+00
 -1       379 1.91667E-02 8.12500E-03 0.00000E+00
 -1       380 2.00000E-02 8.75000E-03 0.00000E+00
 -1       381 2.08333E-02 9.37500E-03 0.00000E+00
 -1       382 2.16667E-02 1.00000E-02 0.00000E+00
 -1       383 2.25000E-02 1.06250E-02 0.00000E+00
 -1       384 2.33333E-02 1.12500E-02 0.00000E+00
 -1       385 2.41667E-02 1.18750E-02 0.00000E+00
 -1       386 2.60417E-02 6.25000E-03 0.00000E+00
 -1       387 2.70833E-02 6.25000E-03 0.00000E+00
 -1       388 2.81250E-02 6.25000E-03 0.00000E+00
 -1       389 2.91667E-02 6.25000E-03 0.00000E+00
 -1       390 3.02083E-02 6.25000E-03 0.00000E+00
 -1       391 3.12500E-02 6.25000E-03 0.00000E+00
 -1       392 3.22917E-02 6.25000E-03 0.00000E+00
 -1       393 2.50000E-02 7.29167E-03 0.00000E+00
 -1       394 2.50000E-02 8.33333E-03 0.00000E+00
 -1       395 2.50000E-02 9.37500E-03 0.00000E+00
 -1       396 2.50000E-02 1.04167E-02 0.00000E+00
 -1       397 2.50000E-02 1.14583E-02 0.00000E+00
 -1       398 2.58333E-02 6.87500E-03 0.00000E+00
 -1       399 2.66667E-02 7.50000E-03 0.00000E+00
 -1       400 2.75000E-02 8.12500E-03 0.00000E+00
 -1       401 2.83333E-02 8.75000E-03 0.00000E+00
 -1       402 2.91667E-02 9.37500E-03 0.00000E+00
 -1       403 3.00000E-02 1.00000E-02 0.00000E+00
 -1       404 3.08333E-02 1.06250E-02 0.00000E+00
 -1       405 3.16667E-02 1.12500E-02 0.00000E+00
 -1       406 3.25000E-02 1.18750E-02 0.00000E+00
 -1       407 3.43750E-02 6.25000E-03 0.00000E+00
 -1       408 3.54167E-02 6.25000E-03 0.00000E+00
 -1       409 3.64583E-02 6.25000E-03 0.00000E+00
 -1       410 3.75000E-02 6.25000E-03 0.00000E+00
 -1       411 3.85417E-02 6.25000E-03 0.00000E+00
 -1       412 3.95833E-02 6.25000E-03 0.00000E+00
 -1       413 4.06250E-02 6.25000E-03 0.00000E+00
 -1       414 3.33333E-02 7.29167E-03 0.00000E+00
 -1       415 3.33333E-02 8.33333E-03 0.00000E+00
 -1       416 3.33333E-02 9.37500E-03 0.00000E+00
 -1       417 3.33333E-02 1.04167E-02 0.00000E+00
 -1       418 3.33333E-02 1.14583E-02 0.00000E+00
 -1       419 3.41667E-02 6.87500E-03 0.00000E+00
 -1       420 3.50000E-02 7.50000E-03 0.00000E+00
 -1       421 3.58333E-02 8.12500E-03 0.00000E+00
 -1       422 3.66667E-02 8.75000E-03 0.00000E+00
 -1       423 3.75000E-02 9.37500E-03 0.00000E+00
 -1       424 3.83333E-02 1.00000E-02 0.00000E+00
 -1       425 3.91667E-02 1.06250E-02 0.00000E+00
 -1       426 4.00000E-02 1.12500E-02 0.00000E+00
 -1       427 4.08333E-02 1.18750E-02 0.00000E+00
 -1       428 4.27083E-02 6.25000E-03 0.00000E+00
 -1       429 4.37500E-02 6.25000E-03 0.00000E+00
 -1       430 4.47917E-02 6.25000E-03 0.00000E+00
 -1       431 4.58333E-02 6.25000E-03 0.00000E+00
 -1       432 4.68750E-02 6.25000E-03 0.00000E+00
 -1       433 4.79167E-02 6.25000E-03 0.00000E+00
 -1       434 4.89583E-02 6.25000E-03 0.00000E+00
 -1       435 4.16667E-02 7.29167E-03 0.00000E+00
 -1       436 4.16667E-02 8.33333E-03 0.00000E+00
 -1       437 4.16667E-02 9.37500E-03 0.00000E+00
 -1       438 4.16667E-02 1.04167E-02 0.00000E+00
 -1       439 4.16667E-02 1.14583E-02 0.00000E+00
 -1       440 4.25000E-02 6.87500E-03 0.00000E+00
 -1       441 4.33333E-02 7.50000E-03 0.00000E+00
 -1       442 4.41667E-02 8.12500E-03 0.00000E+00
 -1       443 4.50000E-02 8.75000E-03 0.00000E+00
 -1       444 4.58333E-02 9.37500E-03 0.00000E+00
 -1       445 4.66667E-02 1.00000E-02 0.00000E+00
 -1       446 4.75000E-02 1.06250E-02 0.00000E+00
 -1       447 4.83333E-02 1.12500E-02 0.00000E+00
 -1       448 4.91667E-02 1.18750E-02 0.00000E+00
 -1       449 5.10417E-02 6.25000E-03 0.00000E+00
 -1       450 5.20833E-02 6.25000E-03 0.00000E+00
 -1       451 5.31250E-02 6.25000E-03 0.00000E+00
 -1       452 5.41667E-02 6.25000E-03 0.00000E+00
 -1       453 5.52083E-02 6.25000E-03 0.00000E+00
 -1       454 5.62500E-02 6.25000E-03 0.00000E+00
 -1       455 5.72917E-02 6.25000E-03 0.00000E+00
 -1       456 5.00000E-02 7.29167E-03 0.00000E+00
 -1       457 5.00000E-02 8.33333E-03 0.00000E+00
 -1       458 5.00000E-02 9.37500E-03 0.00000E+00
 -1       459 5.00000E-02 1.04167E-02 0.00000E+00
 -1       460 5.00000E-02 1.14583E-02 0.00000E+00
 -1       461 5.08333E-02 6.87500E-03 0.00000E+00
 -1       462 5.16667E-02 7.50000E-03 0.00000E+00
 -1       463 5.25000E-02 8.12500E-03 0.00000E+00
 -1       464 5.33333E-02 8.75000E-03 0.00000E+00
 -1       465 5.41667E-02 9.37500E-03 0.00000E+00
 -1       466 5.50000E-02 1.00000E-02 0.00000E+00
 -1       467 5.58333E-02 1.06250E-02 0.00000E+00
 -1       468 5.66667E-02 1.12500E-02 0.00000E+00
 -1       469 5.75000E-02 1.18750E-02 0.00000E+00
 -1       470 5.93750E-02 6.25000E-03 0.00000E+00
 -1       471 6.04167E-02 6.25000E-03 0.00000E+00
 -1       472 6.14583E-02 6.25000E-03 0.00000E+00
 -1       473 6.25000E-02 6.25000E-03 0.00000E+00
 -1       474 6.35417E-02 6.25000E-03 0.00000E+00
 -1       475 6.45833E-02 6.25000E-03 0.00000E+00
 -1       476 6.56250E-02 6.25000E-03 0.00000E+00
 -1       477 5.83333E-02 7.29167E-03 0.00000E+00
 -1       478 5.83333E-02 8.33333E-03 0.00000E+00
 -1       479 5.83333E-02 9.37500E-03 0.00000E+00
 -1       480 5.83333E-02 1.04167E-02 0.00000E+00
 -1       481 5.83333E-02 1.14583E-02 0.00000E+00
 -1       482 5.91667E-02 6.87500E-03 0.00000E+00
 -1       483 6.00000E-02 7.50000E-03 0.00000E+00
 -1       484 6.08333E-02 8.12500E-03 0.00000E+00
 -1       485 6.16667E-02 8.75000E-03 0.00000E+00
 -1       486 6.25000E-02 9.37500E-03 0.00000E+00
 -1       487 6.33333E-02 1.00000E-02 0.00000E+00
 -1       488 6.41667E-02 1.06250E-02 0.00000E+00
 -1       489 6.50000E-02 1.12500E-02 0.00000E+00
 -1       490 6.58333E-02 1.18750E-02 0.00000E+00
 -1       498 6.66667E-02 7.29167E-03 0.00000E+00
 -1       499 6.66667E-02 8.33333E-03 0.00000E+00
 -1       500 6.66667E-02 9.37500E-03 0.00000E+00
 -1       501 6.66667E-02 1.04167E-02 0.00000E+00
 -1       502 6.66667E-02 1.14583E-02 0.00000E+00
 -1       580 1.04167E-03 1.25000E-02 0.00000E+00
 -1       581 2.08333E-03 1.25000E-02 0.00000E+00
 -1       582 3.12500E-03 1.25000E-02 0.00000E+00
 -1       583 4.16667E-03 1.25000E-02 0.00000E+00
 -1       584 5.20833E-03 1.25000E-02 0.00000E+00
 -1       585 6.25000E-03 1.25000E-02 0.00000E+00
 -1       586 7.29167E-03 1.25000E-02 0.00000E+00
 -1       587 0.00000E+00 1.35417E-02 0.00000E+00
 -1       588 0.00000E+00 1.45833E-02 0.00000E+00
 -1       589 0.00000E+00 1.56250E-02 0.00000E+00
 -1       590 0.00000E+00 1.66667E-02 0.00000E+00
 -1       591 0.00000E+00 1.77083E-02 0.00000E+00
 -1       592 8.33330E-04 1.31250E-02 0.00000E+00
 -1       593 1.66667E-03 1.37500E-02 0.00000E+00
 -1       594 2.50000E-03 1.43750E-02 0.00000E+00
 -1       595 3.33333E-03 1.50000E-02 0.00000E+00
 -1       596 4.16667E-03 1.56250E-02 0.00000E+00
 -1       597 5.00000E-03 1.62500E-02 0.00000E+00
 -1       598 5.83333E-03 1.68750E-02 0.00000E+00
 -1       599 6.66667E-03 1.75000E-02 0.00000E+00
 -1       600 7.50000E-03 1.81250E-02 0.00000E+00
 -1       601 9.37500E-03 1.25000E-02 0.00000E+00
 -1       602 1.04167E-02 1.25000E-02 0.00000E+00
 -1       603 1.14583E-02 1.25000E-02 0.00000E+00
 -1       604 1.25000E-02 1.25000E-02 0.00000E+00
 -1       605 1.35417E-02 1.25000E-02 0.00000E+00
 -1       606 1.45833E-02 1.25000E-02 0.00000E+00
 -1       607 1.56250E-02 1.25000E-02 0.00000E+00
 -1       608 8.33333E-03 1.35417E-02 0.00000E+00
 -1       609 8.33333E-03 1.45833E-02 0.00000E+00
 -1       610 8.33333E-03 1.56250E-02 0.00000E+00
 -1       611 8.33333E-03 1.66667E-02 0.00000E+00
 -1       612 8.33333E-03 1.77083E-02 0.00000E+00
 -1       613 9.16667E-03 1.31250E-02 0.00000E+00
 -1       614 1.00000E-02 1.37500E-02 0.00000E+00
 -1       615 1.08333E-02 1.43750E-02 0.00000E+00
 -1       616 1.16667E-02 1.50000E-02 0.00000E+00
 -1       617 1.25000E-02 1.56250E-02 0.00000E+00
 -1       618 1.33333E-02 1.62500E-02 0.00000E+00
 -1       619 1.41667E-02 1.68750E-02 0.00000E+00
 -1       620 1.50000E-02 1.75000E-02 0.00000E+00
 -1       621 1.58333E-02 1.81250E-02 0.00000E+00
 -1       622 1.77083E-02 1.25000E-02 0.00000E+00
 -1       623 1.87500E-02 1.25000E-02 0.00000E+00
 -1       624 1.97917E-02 1.25000E-02 0.00000E+00
 -1       625 2.08333E-02 1.25000E-02 0.00000E+00
 -1       626 2.18750E-02 1.25000E-02 0.00000E+00
 -1       627 2.29167E-02 1.25000E-02 0.00000E+00
 -1       628 2.39583E-02 1.25000E-02 0.00000E+00
 -1       629 1.66667E-02 1.35417E-02 0.00000E+00
 -1       630 1.66667E-02 1.45833E-02 0.00000E+00
 -1       631 1.66667E-02 1.56250E-02 0.00000E+00
 -1       632 1.66667E-02 1.66667E-02 0.00000E+00
 -1       633 1.66667E-02 1.77083E-02 0.00000E+00
 -1       634 1.75000E-02 1.31250E-02 0.00000E+00
 -1       635 1.83333E-02 1.37500E-02 0.00000E+00
 -1       636 1.91667E-02 1.43750E-02 0.00000E+00
 -1       637 2.00000E-02 1.50000E-02 0.00000E+00
 -1       638 2.08333E-02 1.56250E-02 0.00000E+00
 -1       639 2.16667E-02 1.62500E-02 0.00000E+00
 -1       640 2.25000E-02 1.68750E-02 0.00000E+00
 -1       641 2.33333E-02 1.75000E-02 0.00000E+00
 -1       642 2.41667E-02 1.81250E-02 0.00000E+00
 -1       643 2.60417E-02 1.25000E-02 0.00000E+00
 -1       644 2.70833E-02 1.25000E-02 0.00000E+00
 -1       645 2.81250E-02 1.25000E-02 0.00000E+00
 -1       646 2.91667E-02 1.25000E-02 0.00000E+00
 -1       647 3.02083E-02 1.25000E-02 0.00000E+00
 -1       648 3.12500E-02 1.25000E-02 0.00000E+00
 -1       649 3.22917E-02 1.25000E-02 0.00000E+00
 -1       650 2.50000E-02 1.35417E-02 0.00000E+00
 -1       651 2.50000E-02 1.45833E-02 0.00000E+00
 -1       652 2.50000E-02 1.56250E-02 0.00000E+00
 -1       653 2.50000E-02 1.66667E-02 0.00000E+00
 -1       654 2.50000E-02 1.77083E-02 0.00000E+00
 -1       655 2.58333E-02 1.31250E-02 0.00000E+00
 -1       656 2.66667E-02 1.37500E-02 0.00000E+00
 -1       657 2.75000E-02 1.43750E-02 0.00000E+00
 -1       658 2.83333E-02 1.50000E-02 0.00000E+00
 -1       659 2.91667E-02 1.56250E-02 0.00000E+00
 -1       660 3.00000E-02 1.62500E-02 0.00000E+00
 -1       661 3.08333E-02 1.68750E-02 0.00000E+00
 -1       662 3.16667E-02 1.75000E-02 0.00000E+00
 -1       663 3.25000E-02 1.81250E-02 0.00000E+00
 -1       664 3.43750E-02 1.25000E-02 0.00000E+00
 -1       665 3.54167E-02 1.25000E-02 0.00000E+00
 -1       666 3.64583E-02 1.25000E-02 0.00000E+00
 -1       667 3.75000E-02 1.25000E-02 0.00000E+00
 -1       668 3.85417E-02 1.25000E-02 0.00000E+00
 -1       669 3.95833E-02 1.25000E-02 0.00000E+00
 -1       670 4.06250E-02 1.25000E-02 0.00000E+00
 -1       671 3.33333E-02 1.35417E-02 0.00000E+00
 -1       672 3.33333E-02 1.45833E-02 0.00000E+00
 -1       673 3.33333E-02 1.56250E-02 0.00000E+00
 -1       674 3.33333E-02 1.66667E-02 0.00000E+00
 -1       675 3.33333E-02 1.77083E-02 0.00000E+00
 -1       676 3.41667E-02 1.31250E-02 0.00000E+00
 -1       677 3.50000E-02 1.37500E-02 0.00000E+00
 -1       678 3.58333E-02 1.43750E-02 0.00000E+00
 -1       679 3.66667E-02 1.50000E-02 0.00000E+00
 -1       680 3.75000E-02 1.56250E-02 0.00000E+00
 -1       681 3.83333E-02 1.62500E-02 0.00000E+00
 -1       682 3.91667E-02 1.68750E-02 0.00000E+00
 -1       683 4.00000E-02 1.75000E-02 0.00000E+00
 -1       684 4.08333E-02 1.81250E-02 0.00000E+00
 -1       685 4.27083E-02 1.25000E-02 0.00000E+00
 -1       686 4.37500E-02 1.25000E-02 0.00000E+00
 -1       687 4.47917E-02 1.25000E-02 0.00000E+00
 -1       688 4.58333E-02 1.25000E-02 0.00000E+00
 -1       689 4.68750E-02 1.25000E-02 0.00000E+00
 -1       690 4.79167E-02 1.25000E-02 0.00000E+00
 -1       691 4.89583E-02 1.25000E-02 0.00000E+00
 -1       692 4.16667E-02 1.35417E-02 0.00000E+00
 -1       693 4.16667E-02 1.45833E-02 0.00000E+00
 -1       694 4.16667E-02 1.56250E-02 0.00000E+00
 -1       695 4.16667E-02 1.66667E-02 0.00000E+00
 -1       696 4.16667E-02 1.77083E-02 0.00000E+00
 -1       697 4.25000E-02 1.31250E-02 0.00000E+00
 -1       698 4.33333E-02 1.37500E-02 0.00000E+00
 -1       699 4.41667E-02 1.43750E-02 0.00000E+00
 -1       700 4.50000E-02 1.50000E-02 0.00000E+00
 -1       701 4.58333E-02 1.56250E-02 0.00000E+00
 -1       702 4.66667E-02 1.62500E-02 0.00000E+00
 -1       703 4.75000E-02 1.68750E-02 0.00000E+00
 -1       704 4.83333E-02 1.75000E-02 0.00000E+00
 -1       705 4.91667E-02 1.81250E-02 0.00000E+00
 -1       706 5.10417E-02 1.25000E-02 0.00000E+00
 -1       707 5.20833E-02 1.25000E-02 0.00000E+00
 -1       708 5.31250E-02 1.25000E-02 0.00000E+00
 -1       709 5.41667E-02 1.25000E-02 0.00000E+00
 -1       710 5.52083E-02 1.25000E-02 0.00000E+00
 -1       711 5.62500E-02 1.25000E-02 0.00000E+00
 -1       712 5.72917E-02 1.25000E-02 0.00000E+00
 -1       713 5.00000E-02 1.35417E-02 0.00000E+00
 -1       714 5.00000E-02 1.45833E-02 0.00000E+00
 -1       715 5.00000E-02 1.56250E-02 0.00000E+00
 -1       716 5.00000E-02 1.66667E-02 0.00000E+00
 -1       717 5.00000E-02 1.77083E-02 0.00000E+00
 -1       718 5.08333E-02 1.31250E-02 0.00000E+00
 -1       719 5.16667E-02 1.37500E-02 0.00000E+00
 -1       720 5.25000E-02 1.43750E-02 0.00000E+00
 -1       721 5.33333E-02 1.50000E-02 0.00000E+00
 -1       722 5.41667E-02 1.56250E-02 0.00000E+00
 -1       723 5.50000E-02 1.62500E-02 0.00000E+00
 -1       724 5.58333E-02 1.68750E-02 0.00000E+00
 -1       725 5.66667E-02 1.75000E-02 0.00000E+00
 -1       726 5.75000E-02 1.81250E-02 0.00000E+00
 -1       727 5.93750E-02 1.25000E-02 0.00000E+00
 -1       728 6.04167E-02 1.25000E-02 0.00000E+00
 -1       729 6.14583E-02 1.25000E-02 0.00000E+00
 -1       730 6.25000E-02 1.25000E-02 0.00000E+00
 -1       731 6.35417E-02 1.25000E-02 0.00000E+00
 -1       732 6.45833E-02 1.25000E-02 0.00000E+00
 -1       733 6.56250E-02 1.25000E-02 0.00000E+00
 -1       734 5.83333E-02 1.35417E-02 0.00000E+00
 -1       735 5.83333E-02 1.45833E-02 0.00000E+00
 -1       736 5.83333E-02 1.56250E-02 0.00000E+00
 -1       737 5.83333E-02 1.66667E-02 0.00000E+00
 -1       738 5.83333E-02 1.77083E-02 0.00000E+00
 -1       739 5.91667E-02 1.31250E-02 0.00000E+00
 -1       740 6.00000E-02 1.37500E-02 0.00000E+00
 -1       741 6.08333E-02 1.43750E-02 0.00000E+00
 -1       742 6.16667E-02 1.50000E-02 0.00000E+00
 -1       743 6.25000E-02 1.56250E-02 0.00000E+00
 -1       744 6.33333E-02 1.62500E-02 0.00000E+00
 -1       745 6.41667E-02 1.68750E-02 0.00000E+00
 -1       746 6.50000E-02 1.75000E-02 0.00000E+00
 -1       747 6.58333E-02 1.81250E-02 0.00000E+00
 -1       748 6.77083E-02 1.25000E-02 0.00000E+00
 -1       749 6.87500E-02 1.25000E-02 0.00000E+00
 -1       750 6.97917E-02 1.25000E-02 0.00000E+00
 -1       751 7.08333E-02 1.25000E-02 0.00000E+00
 -1       752 7.18750E-02 1.25000E-02 0.00000E+00
 -1       753 7.29167E-02 1.25000E-02 0.00000E+00
 -1       754 7.39583E-02 1.25000E-02 0.00000E+00
 -1       755 6.66667E-02 1.35417E-02 0.00000E+00
 -1       756 6.66667E-02 1.45833E-02 0.00000E+00
 -1       757 6.66667E-02 1.56250E-02 0.00000E+00
 -1       758 6.66667E-02 1.66667E-02 0.00000E+00
 -1       759 6.66667E-02 1.77083E-02 0.00000E+00
 -1       760 6.75000E-02 1.31250E-02 0.00000E+00
 -1       761 6.83333E-02 1.37500E-02 0.00000E+00
 -1       762 6.91667E-02 1.43750E-02 0.00000E+00
 -1       763 7.00000E-02 1.50000E-02 0.00000E+00
 -1       764 7.08333E-02 1.56250E-02 0.00000E+00
 -1       765 7.16667E-02 1.62500E-02 0.00000E+00
 -1       766 7.25000E-02 1.68750E-02 0.00000E+00
 -1       767 7.33333E-02 1.75000E-02 0.00000E+00
 -1       768 7.41667E-02 1.81250E-02 0.00000E+00
 -1       769 7.60417E-02 1.25000E-02 0.00000E+00
 -1       770 7.70833E-02 1.25000E-02 0.00000E+00
 -1       771 7.81250E-02 1.25000E-02 0.00000E+00
 -1       772 7.91667E-02 1.25000E-02 0.00000E+00
 -1       773 8.02083E-02 1.25000E-02 0.00000E+00
 -1       774 8.12500E-02 1.25000E-02 0.00000E+00
 -1       775 8.22917E-02 1.25000E-02 0.00000E+00
 -1       776 7.50000E-02 1.35417E-02 0.00000E+00
 -1       777 7.50000E-02 1.45833E-02 0.00000E+00
 -1       778 7.50000E-02 1.56250E-02 0.00000E+00
 -1       779 7.50000E-02 1.66667E-02 0.00000E+00
 -1       780 7.50000E-02 1.77083E-02 0.00000E+00
 -1       781 7.58333E-02 1.31250E-02 0.00000E+00
 -1       782 7.66667E-02 1.37500E-02 0.00000E+00
 -1       783 7.75000E-02 1.43750E-02 0.00000E+00
 -1       784 7.83333E-02 1.50000E-02 0.00000E+00
 -1       785 7.91667E-02 1.56250E-02 0.00000E+00
 -1       786 8.00000E-02 1.62500E-02 0.00000E+00
 -1       787 8.08333E-02 1.68750E-02 0.00000E+00
 -1       788 8.16667E-02 1.75000E-02 0.00000E+00
 -1       789 8.25000E-02 1.81250E-02 0.00000E+00
 -1       790 8.43750E-02 1.25000E-02 0.00000E+00
 -1       791 8.54167E-02 1.25000E-02 0.00000E+00
 -1       792 8.64583E-02 1.25000E-02 0.00000E+00
 -1       793 8.75000E-02 1.25000E-02 0.00000E+00
 -1       794 8.85417E-02 1.25000E-02 0.00000E+00
 -1       795 8.95833E-02 1.25000E-02 0.00000E+00
 -1       796 9.06250E-02 1.25000E-02 0.00000E+00
 -1       797 8.33333E-02 1.35417E-02 0.00000E+00
 -1       798 8.33333E-02 1.45833E-02 0.00000E+00
 -1       799 8.33333E-02 1.56250E-02 0.00000E+00
 -1       800 8.33333E-02 1.66667E-02 0.00000E+00
 -1       801 8.33333E-02 1.77083E-02 0.00000E+00
 -1       802 8.41667E-02 1.31250E-02 0.00000E+00
 -1       803 8.50000E-02 1.37500E-02 0.00000E+00
 -1       804 8.58333E-02 1.43750E-02 0.00000E+00
 -1       805 8.66667E-02 1.50000E-02 0.00000E+00
 -1       806 8.75000E-02 1.56250E-02 0.00000E+00
 -1       807 8.83333E-02 1.62500E-02 0.00000E+00
 -1       808 8.91667E-02 1.68750E-02 0.00000E+00
 -1       809 9.00000E-02 1.75000E-02 0.00000E+00
 -1       810 9.08333E-02 1.81250E-02 0.00000E+00
 -1       811 9.27083E-02 1.25000E-02 0.00000E+00
 -1       812 9.37500E-02 1.25000E-02 0.00000E+00
 -1       813 9.47917E-02 1.25000E-02 0.00000E+00
 -1       814 9.58333E-02 1.25000E-02 0.00000E+00
 -1       815 9.68750E-02 1.25000E-02 0.00000E+00
 -1       816 9.79167E-02 1.25000E-02 0.00000E+00
 -1       817 9.89583E-02 1.25000E-02 0.00000E+00
 -1       818 9.16667E-02 1.35417E-02 0.00000E+00
 -1       819 9.16667E-02 1.45833E-02 0.00000E+00
 -1       820 9.16667E-02 1.56250E-02 0.00000E+00
 -1       821 9.16667E-02 1.66667E-02 0.00000E+00
 -1       822 9.16667E-02 1.77083E-02 0.00000E+00
 -1       823 9.25000E-02 1.31250E-02 0.00000E+00
 -1       824 9.33333E-02 1.37500E-02 0.00000E+00
 -1       825 9.41667E-02 1.43750E-02 0.00000E+00
 -1       826 9.50000E-02 1.50000E-02 0.00000E+00
 -1       827 9.58333E-02 1.56250E-02 0.00000E+00
 -1       828 9.66667E-02 1.62500E-02 0.00000E+00
 -1       829 9.75000E-02 1.68750E-02 0.00000E+00
 -1       830 9.83333E-02 1.75000E-02 0.00000E+00
 -1       831 9.91667E-02 1.81250E-02 0.00000E+00
 -1       832 1.00000E-01 1.35417E-02 0.00000E+00
 -1       833 1.00000E-01 1.45833E-02 0.00000E+00
 -1       834 1.00000E-01 1.56250E-02 0.00000E+00
 -1       835 1.00000E-01 1.66667E-02 0.00000E+00
 -1       836 1.00000E-01 1.77083E-02 0.00000E+00
 -1       837 1.04167E-03 1.87500E-02 0.00000E+00
 -1       838 2.08333E-03 1.87500E-02 0.00000E+00
 -1       839 3.12500E-03 1.87500E-02 0.00000E+00
 -1       840 4.16667E-03 1.87500E-02 0.00000E+00
 -1       841 5.20833E-03 1.87500E-02 0.00000E+00
 -1       842 6.25000E-03 1.87500E-02 0.00000E+00
 -1       843 7.29167E-03 1.87500E-02 0.00000E+00
 -1       844 0.00000E+00 1.97917E-02 0.00000E+00
 -1       845 0.00000E+00 2.08333E-02 0.00000E+00
 -1       846 0.00000E+00 2.18750E-02 0.00000E+00
 -1       847 0.00000E+00 2.29167E-02 0.00000E+00
 -1       848 0.00000E+00 2.39583E-02 0.00000E+00
 -1       849 8.33330E-04 1.93750E-02 0.00000E+00
 -1       850 1.66667E-03 2.00000E-02 0.00000E+00
 -1       851 2.50000E-03 2.06250E-02 0.00000E+00
 -1       852 3.33333E-03 2.12500E-02 0.00000E+00
 -1       853 4.16667E-03 2.18750E-02 0.00000E+00
 -1       854 5.00000E-03 2.25000E-02 0.00000E+00
 -1       855 5.83333E-03 2.31250E-02 0.00000E+00
 -1       856 6.66667E-03 2.37500E-02 0.00000E+00
 -1       857 7.50000E-03 2.43750E-02 0.00000E+00
 -1       858 9.37500E-03 1.87500E-02 0.00000E+00
 -1       859 1.04167E-02 1.87500E-02 0.00000E+00
 -1       860 1.14583E-02 1.87500E-02 0.00000E+00
 -1       861 1.25000E-02 1.87500E-02 0.00000E+00
 -1       862 1.35417E-02 1.87500E-02 0.00000E+00
 -1       863 1.45833E-02 1.87500E-02 0.00000E+00
 -1       864 1.56250E-02 1.87500E-02 0.00000E+00
 -1       865 8.33333E-03 1.97917E-02 0.00000E+00
 -1       866 8.33333E-03 2.08333E-02 0.00000E+00
 -1       867 8.33333E-03 2.18750E-02 0.00000E+00
 -1       868 8.33333E-03 2.29167E-02 0.00000E+00
 -1       869 8.33333E-03 2.39583E-02 0.00000E+00
 -1       870 9.16667E-03 1.93750E-02 0.00000E+00
 -1       871 1.00000E-02 2.00000E-02 0.00000E+00
 -1       872 1.08333E-02 2.06250E-02 0.00000E+00
 -1       873 1.16667E-02 2.12500E-02 0.00000E+00
 -1       874 1.25000E-02 2.18750E-02 0.00000E+00
 -1       875 1.33333E-02 2.25000E-02 0.00000E+00
 -1       876 1.41667E-02 2.31250E-02 0.00000E+00
 -1       877 1.50000E-02 2.37500E-02 0.00000E+00
 -1       878 1.58333E-02 2.43750E-02 0.00000E+00
 -1       879 1.77083E-02 1.87500E-02 0.00000E+00
 -1       880 1.87500E-02 1.87500E-02 0.00000E+00
 -1       881 1.97917E-02 1.87500E-02 0.00000E+00
 -1       882 2.08333E-02 1.87500E-02 0.00000E+00
 -1       883 2.18750E-02 1.87500E-02 0.00000E+00
 -1       884 2.29167E-02 1.87500E-02 0.00000E+00
 -1       885 2.39583E-02 1.87500E-02 0.00000E+00
 -1       886 1.66667E-02 1.97917E-02 0.00000E+00
 -1       887 1.66667E-02 2.08333E-02 0.00000E+00
 -1       888 1.66667E-02 2.18750E-02 0.00000E+00
 -1       889 1.66667E-02 2.29167E-02 0.00000E+00
 -1       890 1.66667E-02 2.39583E-02 0.00000E+00
 -1       891 1.75000E-02 1.93750E-02 0.00000E+00
 -1       892 1.83333E-02 2.00000E-02 0.00000E+00
 -1       893 1.91667E-02 2.06250E-02 0.00000E+00
 -1       894 2.00000E-02 2.12500E-02 0.00000E+00
 -1       895 2.08333E-02 2.18750E-02 0.00000E+00
 -1       896 2.16667E-02 2.25000E-02 0.00000E+00
 -1       897 2.25000E-02 2.31250E-02 0.00000E+00
 -1       898 2.33333E-02 2.37500E-02 0.00000E+00
 -1       899 2.41667E-02 2.43750E-02 0.00000E+00
 -1       900 2.60417E-02 1.87500E-02 0.00000E+00
 -1       901 2.70833E-02 1.87500E-02 0.00000E+00
 -1       902 2.81250E-02 1.87500E-02 0.00000E+00
 -1       903 2.91667E-02 1.87500E-02 0.00000E+00
 -1       904 3.02083E-02 1.87500E-02 0.00000E+00
 -1       905 3.12500E-02 1.87500E-02 0.00000E+00
 -1       906 3.22917E-02 1.87500E-02 0.00000E+00
 -1       907 2.50000E-02 1.97917E-02 0.00000E+00
 -1       908 2.50000E-02 2.08333E-02 0.00000E+00
 -1       909 2.50000E-02 2.18750E-02 0.00000E+00
 -1       910 2.50000E-02 2.29167E-02 0.00000E+00
 -1       911 2.50000E-02 2.39583E-02 0.00000E+00
 -1       912 2.58333E-02 1.93750E-02 0.00000E+00
 -1       913 2.66667E-02 2.00000E-02 0.00000E+00
 -1       914 2.75000E-02 2.06250E-02 0.00000E+00
 -1       915 2.83333E-02 2.12500E-02 0.00000E+00
 -1       916 2.91667E-02 2.18750E-02 0.00000E+00
 -1       917 3.00000E-02 2.25000E-02 0.00000E+00
 -1       918 3.08333E-02 2.31250E-02 0.00000E+00
 -1       919 3.16667E-02 2.37500E-02 0.00000E+00
 -1       920 3.25000E-02 2.43750E-02 0.00000E+00
 -1       921 3.43750E-02 1.87500E-02 0.00000E+00
 -1       922 3.54167E-02 1.87500E-02 0.00000E+00
 -1       923 3.64583E-02 1.87500E-02 0.00000E+00
 -1       924 3.75000E-02 1.87500E-02 0.00000E+00
 -1       925 3.85417E-02 1.87500E-02 0.00000E+00
 -1       926 3.95833E-02 1.87500E-02 0.00000E+00
 -1       927 4.06250E-02 1.87500E-02 0.00000E+00
 -1       928 3.33333E-02 1.97917E-02 0.00000E+00
 -1       929 3.33333E-02 2.08333E-02 0.00000E+00
 -1       930 3.33333E-02 2.18750E-02 0.00000E+00
 -1       931 3.33333E-02 2.29167E-02 0.00000E+00
 -1       932 3.33333E-02 2.39583E-02 0.00000E+00
 -1       933 3.41667E-02 1.93750E-02 0.00000E+00
 -1       934 3.50000E-02 2.00000E-02 0.00000E+00
 -1       935 3.58333E-02 2.06250E-02 0.00000E+00
 -1       936 3.66667E-02 2.12500E-02 0.00000E+00
 -1       937 3.75000E-02 2.18750E-02 0.00000E+00
 -1       938 3.83333E-02 2.25000E-02 0.00000E+00
 -1       939 3.91667E-02 2.31250E-02 0.00000E+00
 -1       940 4.00000E-02 2.37500E-02 0.00000E+00
 -1       941 4.08333E-02 2.43750E-02 0.00000E+00
 -1       942 4.27083E-02 1.87500E-02 0.00000E+00
 -1       943 4.37500E-02 1.87500E-02 0.00000E+00
 -1       944 4.47917E-02 1.87500E-02 0.00000E+00
 -1       945 4.58333E-02 1.87500E-02 0.00000E+00
 -1       946 4.68750E-02 1.87500E-02 0.00000E+00
 -1       947 4.79167E-02 1.87500E-02 0.00000E+00
 -1       948 4.89583E-02 1.87500E-02 0.00000E+00
 -1       949 4.16667E-02 1.97917E-02 0.00000E+00
 -1       950 4.16667E-02 2.08333E-02 0.00000E+00
 -1       951 4.16667E-02 2.18750E-02 0.00000E+00
 -1       952 4.16667E-02 2.29167E-02 0.00000E+00
 -1       953 4.16667E-02 2.39583E-02 0.00000E+00
 -1       954 4.25000E-02 1.93750E-02 0.00000E+00
 -1       955 4.33333E-02 2.00000E-02 0.00000E+00
 -1       956 4.41667E-02 2.06250E-02 0.00000E+00
 -1       957 4.50000E-02 2.12500E-02 0.00000E+00
 -1       958 4.58333E-02 2.18750E-02 0.00000E+00
 -1       959 4.66667E-02 2.25000E-02 0.00000E+00
 -1       960 4.75000E-02 2.31250E-02 0.00000E+00
 -1       961 4.83333E-02 2.37500E-02 0.00000E+00
 -1       962 4.91667E-02 2.43750E-02 0.00000E+00
 -1       963 5.10417E-02 1.87500E-02 0.00000E+00
 -1       964 5.20833E-02 1.87500E-02 0.00000E+00
 -1       965 5.31250E-02 1.87500E-02 0.00000E+00
 -1       966 5.41667E-02 1.87500E-02 0.00000E+00
 -1       967 5.52083E-02 1.87500E-02 0.00000E+00
 -1       968 5.62500E-02 1.87500E-02 0.00000E+00
 -1       969 5.72917E-02 1.87500E-02 0.00000E+00
 -1       970 5.00000E-02 1.97917E-02 0.00000E+00
 -1       971 5.00000E-02 2.08333E-02 0.00000E+00
 -1       972 5.00000E-02 2.18750E-02 0.00000E+00
 -1       973 5.00000E-02 2.29167E-02 0.00000E+00
 -1       974 5.00000E-02 2.39583E-02 0.00000E+00
 -1       975 5.08333E-02 1.93750E-02 0.00000E+00
 -1       976 5.16667E-02 2.00000E-02 0.00000E+00
 -1       977 5.25000E-02 2.06250E-02 0.00000E+00
 -1       978 5.33333E-02 2.12500E-02 0.00000E+00
 -1       979 5.41667E-02 2.18750E-02 0.00000E+00
 -1       980 5.50000E-02 2.25000E-02 0.00000E+00
 -1       981 5.58333E-02 2.31250E-02 0.00000E+00
 -1       982 5.66667E-02 2.37500E-02 0.00000E+00
 -1       983 5.75000E-02 2.43750E-02 0.00000E+00
 -1       984 5.93750E-02 1.87500E-02 0.00000E+00
 -1       985 6.04167E-02 1.87500E-02 0.00000E+00
 -1       986 6.14583E-02 1.87500E-02 0.00000E+00
 -1       987 6.25000E-02 1.87500E-02 0.00000E+00
 -1       988 6.35417E-02 1.87500E-02 0.00000E+00
 -1       989 6.45833E-02 1.87500E-02 0.00000E+00
 -1       990 6.56250E-02 1.87500E-02 0.00000E+00
 -1       991 5.83333E-02 1.97917E-02 0.00000E+00
 -1       992 5.83333E-02 2.08333E-02 0.00000E+00
 -1       993 5.83333E-02 2.18750E-02 0.00000E+00
 -1       994 5.83333E-02 2.29167E-02 0.00000E+00
 -1       995 5.83333E-02 2.39583E-02 0.00000E+00
 -1       996 5.91667E-02 1.93750E-02 0.00000E+00
 -1       997 6.00000E-02 2.00000E-02 0.00000E+00
 -1       998 6.08333E-02 2.06250E-02 0.00000E+00
 -1       999 6.16667E-02 2.12500E-02 0.00000E+00
 -1      1000 6.25000E-02 2.18750E-02 0.00000E+00
 -1      1001 6.33333E-02 2.25000E-02 0.00000E+00
 -1      1002 6.41667E-02 2.31250E-02 0.00000E+00
 -1      1003 6.50000E-02 2.37500E-02 0.00000E+00
 -1      1004 6.58333E-02 2.43750E-02 0.00000E+00
 -1      1005 6.77083E-02 1.87500E-02 0.00000E+00
 -1      1006 6.87500E-02 1.87500E-02 0.00000E+00
 -1      1007 6.97917E-02 1.87500E-02 0.00000E+00
 -1      1008 7.08333E-02 1.87500E-02 0.00000E+00
 -1      1009 7.18750E-02 1.87500E-02 0.00000E+00
 -1      1010 7.29167E-02 1.87500E-02 0.00000E+00
 -1      1011 7.39583E-02 1.87500E-02 0.00000E+00
 -1      1012 6.66667E-02 1.97917E-02 0.00000E+00
 -1      1013 6.66667E-02 2.08333E-02 0.00000E+00
 -1      1014 6.66667E-02 2.18750E-02 0.00000E+00
 -1      1015 6.66667E-02 2.29167E-02 0.00000E+00
 -1      1016 6.66667E-02 2.39583E-02 0.00000E+00
 -1      1017 6.75000E-02 1.93750E-02 0.00000E+00
 -1      1018 6.83333E-02 2.00000E-02 0.00000E+00
 -1      1019 6.91667E-02 2.06250E-02 0.00000E+00
 -1      1020 7.00000E-02 2.12500E-02 0.00000E+00
 -1      1021 7.08333E-02 2.18750E-02 0.00000E+00
 -1      1022 7.16667E-02 2.25000E-02 0.00000E+00
 -1      1023 7.25000E-02 2.31250E-02 0.00000E+00
 -1      1024 7.33333E-02 2.37500E-02 0.00000E+00
 -1      1025 7.41667E-02 2.43750E-02 0.00000E+00
 -1      1026 7.60417E-02 1.87500E-02 0.00000E+00
 -1      1027 7.70833E-02 1.87500E-02 0.00000E+00
 -1      1028 7.81250E-02 1.87500E-02 0.00000E+00
 -1      1029 7.91667E-02 1.87500E-02 0.00000E+00
 -1      1030 8.02083E-02 1.87500E-02 0.00000E+00
 -1      1031 8.12500E-02 1.87500E-02 0.00000E+00
 -1      1032 8.22917E-02 1.87500E-02 0.00000E+00
 -1      1033 7.50000E-02 1.97917E-02 0.00000E+00
 -1      1034 7.50000E-02 2.08333E-02 0.00000E+00
 -1      1035 7.50000E-02 2.18750E-02 0.00000E+00
 -1      1036 7.50000E-02 2.29167E-02 0.00000E+00
 -1      1037 7.50000E-02 2.39583E-02 0.00000E+00
 -1      1038 7.58333E-02 1.93750E-02 0.00000E+00
 -1      1039 7.66667E-02 2.00000E-02 0.00000E+00
 -1      1040 7.75000E-02 2.06250E-02 0.00000E+00
 -1      1041 7.83333E-02 2.12500E-02 0.00000E+00
 -1      1042 7.91667E-02 2.18750E-02 0.00000E+00
 -1      1043 8.00000E-02 2.25000E-02 0.00000E+00
 -1      1044 8.08333E-02 2.31250E-02 0.00000E+00
 -1      1045 8.16667E-02 2.37500E-02 0.00000E+00
 -1      1046 8.25000E-02 2.43750E-02 0.00000E+00
 -1      1047 8.43750E-02 1.87500E-02 0.00000E+00
 -1      1048 8.54167E-02 1.87500E-02 0.00000E+00
 -1      1049 8.64583E-02 1.87500E-02 0.00000E+00
 -1      1050 8.75000E-02 1.87500E-02 0.00000E+00
 -1      1051 8.85417E-02 1.87500E-02 0.00000E+00
 -1      1052 8.95833E-02 1.87500E-02 0.00000E+00
 -1      1053 9.06250E-02 1.87500E-02 0.00000E+00
 -1      1054 8.33333E-02 1.97917E-02 0.00000E+00
 -1      1055 8.33333E-02 2.08333E-02 0.00000E+00
 -1      1056 8.33333E-02 2.18750E-02 0.00000E+00
 -1      1057 8.33333E-02 2.29167E-02 0.00000E+00
 -1      1058 8.33333E-02 2.39583E-02 0.00000E+00
 -1      1059 8.41667E-02 1.93750E-02 0.00000E+00
 -1      1060 8.50000E-02 2.00000E-02 0.00000E+00
 -1      1061 8.58333E-02 2.06250E-02 0.00000E+00
 -1      1062 8.66667E-02 2.12500E-02 0.00000E+00
 -1      1063 8.75000E-02 2.18750E-02 0.00000E+00
 -1      1064 8.83333E-02 2.25000E-02 0.00000E+00
 -1      1065 8.91667E-02 2.31250E-02 0.00000E+00
 -1      1066 9.00000E-02 2.37500E-02 0.00000E+00
 -1      1067 9.08333E-02 2.43750E-02 0.00000E+00
 -1      1068 9.27083E-02 1.87500E-02 0.00000E+00
 -1      1069 9.37500E-02 1.87500E-02 0.00000E+00
 -1      1070 9.47917E-02 1.87500E-02 0.00000E+00
 -1      1071 9.58333E-02 1.87500E-02 0.00000E+00
 -1      1072 9.68750E-02 1.87500E-02 0.00000E+00
 -1      1073 9.79167E-02 1.87500E-02 0.00000E+00
 -1      1074 9.89583E-02 1.87500E-02 0.00000E+00
 -1      1075 9.16667E-02 1.97917E-02 0.00000E+00
 -1      1076 9.16667E-02 2.08333E-02 0.00000E+00
 -1      1077 9.16667E-02 2.18750E-02 0.00000E+00
 -1      1078 9.16667E-02 2.29167E-02 0.00000E+00
 -1      1079 9.16667E-02 2.39583E-02 0.00000E+00
 -1      1080 9.25000E-02 1.93750E-02 0.00000E+00
 -1      1081 9.33333E-02 2.00000E-02 0.00000E+00
 -1      1082 9.41667E-02 2.06250E-02 0.00000E+00
 -1      1083 9.50000E-02 2.12500E-02 0.00000E+00
 -1      1084 9.58333E-02 2.18750E-02 0.00000E+00
 -1      1085 9.66667E-02 2.25000E-02 0.00000E+00
 -1      1086 9.75000E-02 2.31250E-02 0.00000E+00
 -1      1087 9.83333E-02 2.37500E-02 0.00000E+00
 -1      1088 9.91667E-02 2.43750E-02 0.00000E+00
 -1      1089 1.00000E-01 1.97917E-02 0.00000E+00
 -1      1090 1.00000E-01 2.08333E-02 0.00000E+00
 -1      1091 1.00000E-01 2.18750E-02 0.00000E+00
 -1      1092 1.00000E-01 2.29167E-02 0.00000E+00
 -1      1093 1.00000E-01 2.39583E-02 0.00000E+00
 -1      1094 1.04167E-03 2.50000E-02 0.00000E+00
 -1      1095 2.08333E-03 2.50000E-02 0.00000E+00
 -1      1096 3.12500E-03 2.50000E-02 0.00000E+00
 -1      1097 4.16667E-03 2.50000E-02 0.00000E+00
 -1      1098 5.20833E-03 2.50000E-02 0.00000E+00
 -1      1099 6.25000E-03 2.50000E-02 0.00000E+00
 -1      1100 7.29167E-03 2.50000E-02 0.00000E+00
 -1      1101 9.37500E-03 2.50000E-02 0.00000E+00
 -1      1102 1.04167E-02 2.50000E-02 0.00000E+00
 -1      1103 1.14583E-02 2.50000E-02 0.00000E+00
 -1      1104 1.25000E-02 2.50000E-02 0.00000E+00
 -1      1105 1.35417E-02 2.50000E-02 0.00000E+00
 -1      1106 1.45833E-02 2.50000E-02 0.00000E+00
 -1      1107 1.56250E-02 2.50000E-02 0.00000E+00
 -1      1108 1.77083E-02 2.50000E-02 0.00000E+00
 -1      1109 1.87500E-02 2.50000E-02 0.00000E+00
 -1      1110 1.97917E-02 2.50000E-02 0.00000E+00
 -1      1111 2.08333E-02 2.50000E-02 0.00000E+00
 -1      1112 2.18750E-02 2.50000E-02 0.00000E+00
 -1      1113 2.29167E-02 2.50000E-02 0.00000E+00
 -1      1114 2.39583E-02 2.50000E-02 0.00000E+00
 -1      1115 2.60417E-02 2.50000E-02 0.00000E+00
 -1      1116 2.70833E-02 2.50000E-02 0.00000E+00
 -1      1117 2.81250E-02 2.50000E-02 0.00000E+00
 -1      1118 2.91667E-02 2.50000E-02 0.00000E+00
 -1      1119 3.02083E-02 2.50000E-02 0.00000E+00
 -1      1120 3.12500E-02 2.50000E-02 0.00000E+00
 -1      1121 3.22917E-02 2.50000E-02 0.00000E+00
 -1      1122 3.43750E-02 2.50000E-02 0.00000E+00
 -1      1123 3.54167E-02 2.50000E-02 0.00000E+00
 -1      1124 3.64583E-02 2.50000E-02 0.00000E+00
 -1      1125 3.75000E-02 2.50000E-02 0.00000E+00
 -1      1126 3.85417E-02 2.50000E-02 0.00000E+00
 -1      1127 3.95833E-02 2.50000E-02 0.00000E+00
 -1      1128 4.06250E-02 2.50000E-02 0.00000E+00
 -1      1129 4.27083E-02 2.50000E-02 0.00000E+00
 -1      1130 4.37500E-02 2.50000E-02 0.00000E+00
 -1      1131 4.47917E-02 2.50000E-02 0.00000E+00
 -1      1132 4.58333E-02 2.50000E-02 0.00000E+00
 -1      1133 4.68750E-02 2.50000E-02 0.00000E+00
 -1      1134 4.79167E-02 2.50000E-02 0.00000E+00
 -1      1135 4.89583E-02 2.50000E-02 0.00000E+00
 -1      1136 5.10417E-02 2.50000E-02 0.00000E+00
 -1      1137 5.20833E-02 2.50000E-02 0.00000E+00
 -1      1138 5.31250E-02 2.50000E-02 0.00000E+00
 -1      1139 5.41667E-02 2.50000E-02 0.00000E+00
 -1      1140 5.52083E-02 2.50000E-02 0.00000E+00
 -1      1141 5.62500E-02 2.50000E-02 0.00000E+00
 -1      1142 5.72917E-02 2.50000E-02 0.00000E+00
 -1      1143 5.93750E-02 2.50000E-02 0.00000E+00
 -1      1144 6.04167E-02 2.50000E-02 0.00000E+00
 -1      1145 6.14583E-02 2.50000E-02 0.00000E+00
 -1      1146 6.25000E-02 2.50000E-02 0.00000E+00
 -1      1147 6.35417E-02 2.50000E-02 0.00000E+00
 -1      1148 6.45833E-02 2.50000E-02 0.00000E+00
 -1      1149 6.56250E-02 2.50000E-02 0.00000E+00
 -1      1150 6.77083E-02 2.50000E-02 0.00000E+00
 -1      1151 6.87500E-02 2.50000E-02 0.00000E+00
 -1      1152 6.97917E-02 2.50000E-02 0.00000E+00
 -1      1153 7.08333E-02 2.50000E-02 0.00000E+00
 -1      1154 7.18750E-02 2.50000E-02 0.00000E+00
 -1      1155 7.29167E-02 2.50000E-02 0.00000E+00
 -1      1156 7.39583E-02 2.50000E-02 0.00000E+00
 -1      1157 7.60417E-02 2.50000E-02 0.00000E+00
 -1      1158 7.70833E-02 2.50000E-02 0.00000E+00
 -1      1159 7.81250E-02 2.50000E-02 0.00000E+00
 -1      1160 7.91667E-02 2.50000E-02 0.00000E+00
 -1      1161 8.02083E-02 2.50000E-02 0.00000E+00
 -1      1162 8.12500E-02 2.50000E-02 0.00000E+00
 -1      1163 8.22917E-02 2.50000E-02 0.00000E+00
 -1      1164 8.43750E-02 2.50000E-02 0.00000E+00
 -1      1165 8.54167E-02 2.50000E-02 0.00000E+00
 -1      1166 8.64583E-02 2.50000E-02 0.00000E+00
 -1      1167 8.75000E-02 2.50000E-02 0.00000E+00
 -1      1168 8.85417E-02 2.50000E-02 0.00000E+00
 -1      1169 8.95833E-02 2.50000E-02 0.00000E+00
 -1      1170 9.06250E-02 2.50000E-02 0.00000E+00
 -1      1171 9.27083E-02 2.50000E-02 0.00000E+00
 -1      1172 9.37500E-02 2.50000E-02 0.00000E+00
 -1      1173 9.47917E-02 2.50000E-02 0.00000E+00
 -1      1174 9.58333E-02 2.50000E-02 0.00000E+00
 -1      1175 9.68750E-02 2.50000E-02 0.00000E+00
 -1      1176 9.79167E-02 2.50000E-02 0.00000E+00
 -1      1177 9.89583E-02 2.50000E-02 0.00000E+00
 -3
    3C                           540                                     1
 -1         1   12    0    1
 -2         1        67        66
 -1         2   12    0    1
 -2        67        69        68
 -1         3   12    0    1
 -2        69        71        70
 -1         4   12    0    1
 -2        71         2        72
 -1         5   12    0    1
 -2         1        74        73
 -1         6   12    0    1
 -2        74        76        75
 -1         7   12    0    1
 -2        76        14        77
 -1         8   12    0    1
 -2         1        79        78
 -1         9   12    0    1
 -2        79        81        80
 -1        10   12    0    1
 -2        81        83        82
 -1        11   12    0    1
 -2        83        85        84
 -1        12   12    0    1
 -2        85        15        86
 -1        13   12    0    1
 -2         2        88        87
 -1        14   12    0    1
 -2        88        90        89
 -1        15   12    0    1
 -2        90        92        91
 -1        16   12    0    1
 -2        92         3        93
 -1        17   12    0    1
 -2         2        95        94
 -1        18   12    0    1
 -2        95        97        96
 -1        19   12    0    1
 -2        97        15        98
 -1        20   12    0    1
 -2         2       100        99
 -1        21   12    0    1
 -2       100       102       101
 -1        22   12    0    1
 -2       102       104       103
 -1        23   12    0    1
 -2       104       106       105
 -1        24   12    0    1
 -2       106        16       107
 -1        25   12    0    1
 -2         3       109       108
 -1        26   12    0    1
 -2       109       111       110
 -1        27   12    0    1
 -2       111       113       112
 -1        28   12    0    1
 -2       113         4       114
 -1        29   12    0    1
 -2         3       116       115
 -1        30   12    0    1
 -2       116       118       117
 -1        31   12    0    1
 -2       118        16       119
 -1        32   12    0    1
 -2         3       121       120
 -1        33   12    0    1
 -2       121       123       122
 -1        34   12    0    1
 -2       123       125       124
 -1        35   12    0    1
 -2       125       127       126
 -1        36   12    0    1
 -2       127        17       128
 -1        37   12    0    1
 -2         4       130       129
 -1        38   12    0    1
 -2       130       132       131
 -1        39   12    0    1
 -2       132       134       133
 -1        40   12    0    1
 -2       134         5       135
 -1        41   12    0    1
 -2         4       137       136
 -1        42   12    0    1
 -2       137       139       138
 -1        43   12    0    1
 -2       139        17       140
 -1        44   12    0    1
 -2         4       142       141
 -1        45   12    0    1
 -2       142       144       143
 -1        46   12    0    1
 -2       144       146       145
 -1        47   12    0    1
 -2       146       148       147
 -1        48   12    0    1
 -2       148        18       149
 -1        49   12    0    1
 -2         5       151       150
 -1        50   12    0    1
 -2       151       153       152
 -1        51   12    0    1
 -2       153       155       154
 -1        52   12    0    1
 -2       155         6       156
 -1        53   12    0    1
 -2         5       158       157
 -1        54   12    0    1
 -2       158       160       159
 -1        55   12    0    1
 -2       160        18       161
 -1        56   12    0    1
 -2         5       163       162
 -1        57   12    0    1
 -2       163       165       164
 -1        58   12    0    1
 -2       165       167       166
 -1        59   12    0    1
 -2       167       169       168
 -1        60   12    0    1
 -2       169        19       170
 -1        61   12    0    1
 -2         6       172       171
 -1        62   12    0    1
 -2       172       174       173
 -1        63   12    0    1
 -2       174       176       175
 -1        64   12    0    1
 -2       176         7       177
 -1        65   12    0    1
 -2         6       179       178
 -1        66   12    0    1
 -2       179       181       180
 -1        67   12    0    1
 -2       181        19       182
 -1        68   12    0    1
 -2         6       184       183
 -1        69   12    0    1
 -2       184       186       185
 -1        70   12    0    1
 -2       186       188       187
 -1        71   12    0    1
 -2       188       190       189
 -1        72   12    0    1
 -2       190        20       191
 -1        73   12    0    1
 -2         7       193       192
 -1        74   12    0    1
 -2       193       195       194
 -1        75   12    0    1
 -2       195       197       196
 -1        76   12    0    1
 -2       197         8       198
 -1        77   12    0    1
 -2         7       200       199
 -1        78   12    0    1
 -2       200       202       201
 -1        79   12    0    1
 -2       202        20       203
 -1        80   12    0    1
 -2         7       205       204
 -1        81   12    0    1
 -2       205       207       206
 -1        82   12    0    1
 -2       207       209       208
 -1        83   12    0    1
 -2       209       211       210
 -1        84   12    0    1
 -2       211        21       212
 -1        85   12    0    1
 -2         8       214       213
 -1        86   12    0    1
 -2       214       216       215
 -1        87   12    0    1
 -2       216       218       217
 -1        88   12    0    1
 -2       218         9       219
 -1        89   12    0    1
 -2         8       221       220
 -1        90   12    0    1
 -2       221       223       222
 -1        91   12    0    1
 -2       223        21       224
 -1        92   12    0    1
 -2         8       226       225
 -1        93   12    0    1
 -2       226       228       227
 -1        94   12    0    1
 -2       228       230       229
 -1        95   12    0    1
 -2       230       232       231
 -1        96   12    0    1
 -2       232        22       233
 -1        97   12    0    1
 -2         9       242       241
 -1        98   12    0    1
 -2       242       244       243
 -1        99   12    0    1
 -2       244        22       245
 -1       100   12    0    1
 -2        14       324       323
 -1       101   12    0    1
 -2       324       326       325
 -1       102   12    0    1
 -2       326       328       327
 -1       103   12    0    1
 -2       328        15       329
 -1       104   12    0    1
 -2        14       331       330
 -1       105   12    0    1
 -2       331       333       332
 -1       106   12    0    1
 -2       333        27       334
 -1       107   12    0    1
 -2        14       336       335
 -1       108   12    0    1
 -2       336       338       337
 -1       109   12    0    1
 -2       338       340       339
 -1       110   12    0    1
 -2       340       342       341
 -1       111   12    0    1
 -2       342        28       343
 -1       112   12    0    1
 -2        15       345       344
 -1       113   12    0    1
 -2       345       347       346
 -1       114   12    0    1
 -2       347       349       348
 -1       115   12    0    1
 -2       349        16       350
 -1       116   12    0    1
 -2        15       352       351
 -1       117   12    0    1
 -2       352       354       353
 -1       118   12    0    1
 -2       354        28       355
 -1       119   12    0    1
 -2        15       357       356
 -1       120   12    0    1
 -2       357       359       358
 -1       121   12    0    1
 -2       359       361       360
 -1       122   12    0    1
 -2       361       363       362
 -1       123   12    0    1
 -2       363        29       364
 -1       124   12    0    1
 -2        16       366       365
 -1       125   12    0    1
 -2       366       368       367
 -1       126   12    0    1
 -2       368       370       369
 -1       127   12    0    1
 -2       370        17       371
 -1       128   12    0    1
 -2        16       373       372
 -1       129   12    0    1
 -2       373       375       374
 -1       130   12    0    1
 -2       375        29       376
 -1       131   12    0    1
 -2        16       378       377
 -1       132   12    0    1
 -2       378       380       379
 -1       133   12    0    1
 -2       380       382       381
 -1       134   12    0    1
 -2       382       384       383
 -1       135   12    0    1
 -2       384        30       385
 -1       136   12    0    1
 -2        17       387       386
 -1       137   12    0    1
 -2       387       389       388
 -1       138   12    0    1
 -2       389       391       390
 -1       139   12    0    1
 -2       391        18       392
 -1       140   12    0    1
 -2        17       394       393
 -1       141   12    0    1
 -2       394       396       395
 -1       142   12    0    1
 -2       396        30       397
 -1       143   12    0    1
 -2        17       399       398
 -1       144   12    0    1
 -2       399       401       400
 -1       145   12    0    1
 -2       401       403       402
 -1       146   12    0    1
 -2       403       405       404
 -1       147   12    0    1
 -2       405        31       406
 -1       148   12    0    1
 -2        18       408       407
 -1       149   12    0    1
 -2       408       410       409
 -1       150   12    0    1
 -2       410       412       411
 -1       151   12    0    1
 -2       412        19       413
 -1       152   12    0    1
 -2        18       415       414
 -1       153   12    0    1
 -2       415       417       416
 -1       154   12    0    1
 -2       417        31       418
 -1       155   12    0    1
 -2        18       420       419
 -1       156   12    0    1
 -2       420       422       421
 -1       157   12    0    1
 -2       422       424       423
 -1       158   12    0    1
 -2       424       426       425
 -1       159   12    0    1
 -2       426        32       427
 -1       160   12    0    1
 -2        19       429       428
 -1       161   12    0    1
 -2       429       431       430
 -1       162   12    0    1
 -2       431       433       432
 -1       163   12    0    1
 -2       433        20       434
 -1       164   12    0    1
 -2        19       436       435
 -1       165   12    0    1
 -2       436       438       437
 -1       166   12    0    1
 -2       438        32       439
 -1       167   12    0    1
 -2        19       441       440
 -1       168   12    0    1
 -2       441       443       442
 -1       169   12    0    1
 -2       443       445       444
 -1       170   12    0    1
 -2       445       447       446
 -1       171   12    0    1
 -2       447        33       448
 -1       172   12    0    1
 -2        20       450       449
 -1       173   12    0    1
 -2       450       452       451
 -1       174   12    0    1
 -2       452       454       453
 -1       175   12    0    1
 -2       454        21       455
 -1       176   12    0    1
 -2        20       457       456
 -1       177   12    0    1
 -2       457       459       458
 -1       178   12    0    1
 -2       459        33       460
 -1       179   12    0    1
 -2        20       462       461
 -1       180   12    0    1
 -2       462       464       463
 -1       181   12    0    1
 -2       464       466       465
 -1       182   12    0    1
 -2       466       468       467
 -1       183   12    0    1
 -2       468        34       469
 -1       184   12    0    1
 -2        21       471       470
 -1       185   12    0    1
 -2       471       473       472
 -1       186   12    0    1
 -2       473       475       474
 -1       187   12    0    1
 -2       475        22       476
 -1       188   12    0    1
 -2        21       478       477
 -1       189   12    0    1
 -2       478       480       479
 -1       190   12    0    1
 -2       480        34       481
 -1       191   12    0    1
 -2        21       483       482
 -1       192   12    0    1
 -2       483       485       484
 -1       193   12    0    1
 -2       485       487       486
 -1       194   12    0    1
 -2       487       489       488
 -1       195   12    0    1
 -2       489        35       490
 -1       196   12    0    1
 -2        22       499       498
 -1       197   12    0    1
 -2       499       501       500
 -1       198   12    0    1
 -2       501        35       502
 -1       199   12    0    1
 -2        27       581       580
 -1       200   12    0    1
 -2       581       583       582
 -1       201   12    0    1
 -2       583       585       584
 -1       202   12    0    1
 -2       585        28       586
 -1       203   12    0    1
 -2        27       588       587
 -1       204   12    0    1
 -2       588       590       589
 -1       205   12    0    1
 -2       590        40       591
 -1       206   12    0    1
 -2        27       593       592
 -1       207   12    0    1
 -2       593       595       594
 -1       208   12    0    1
 -2       595       597       596
 -1       209   12    0    1
 -2       597       599       598
 -1       210   12    0    1
 -2       599        41       600
 -1       211   12    0    1
 -2        28       602       601
 -1       212   12    0    1
 -2       602       604       603
 -1       213   12    0    1
 -2       604       606       605
 -1       214   12    0    1
 -2       606        29       607
 -1       215   12    0    1
 -2        28       609       608
 -1       216   12    0    1
 -2       609       611       610
 -1       217   12    0    1
 -2       611        41       612
 -1       218   12    0    1
 -2        28       614       613
 -1       219   12    0    1
 -2       614       616       615
 -1       220   12    0    1
 -2       616       618       617
 -1       221   12    0    1
 -2       618       620       619
 -1       222   12    0    1
 -2       620        42       621
 -1       223   12    0    1
 -2        29       623       622
 -1       224   12    0    1
 -2       623       625       624
 -1       225   12    0    1
 -2       625       627       626
 -1       226   12    0    1
 -2       627        30       628
 -1       227   12    0    1
 -2        29       630       629
 -1       228   12    0    1
 -2       630       632       631
 -1       229   12    0    1
 -2       632        42       633
 -1       230   12    0    1
 -2        29       635       634
 -1       231   12    0    1
 -2       635       637       636
 -1       232   12    0    1
 -2       637       639       638
 -1       233   12    0    1
 -2       639       641       640
 -1       234   12    0    1
 -2       641        43       642
 -1       235   12    0    1
 -2        30       644       643
 -1       236   12    0    1
 -2       644       646       645
 -1       237   12    0    1
 -2       646       648       647
 -1       238   12    0    1
 -2       648        31       649
 -1       239   12    0    1
 -2        30       651       650
 -1       240   12    0    1
 -2       651       653       652
 -1       241   12    0    1
 -2       653        43       654
 -1       242   12    0    1
 -2        30       656       655
 -1       243   12    0    1
 -2       656       658       657
 -1       244   12    0    1
 -2       658       660       659
 -1       245   12    0    1
 -2       660       662       661
 -1       246   12    0    1
 -2       662        44       663
 -1       247   12    0    1
 -2        31       665       664
 -1       248   12    0    1
 -2       665       667       666
 -1       249   12    0    1
 -2       667       669       668
 -1       250   12    0    1
 -2       669        32       670
 -1       251   12    0    1
 -2        31       672       671
 -1       252   12    0    1
 -2       672       674       673
 -1       253   12    0    1
 -2       674        44       675
 -1       254   12    0    1
 -2        31       677       676
 -1       255   12    0    1
 -2       677       679       678
 -1       256   12    0    1
 -2       679       681       680
 -1       257   12    0    1
 -2       681       683       682
 -1       258   12    0    1
 -2       683        45       684
 -1       259   12    0    1
 -2        32       686       685
 -1       260   12    0    1
 -2       686       688       687
 -1       261   12    0    1
 -2       688       690       689
 -1       262   12    0    1
 -2       690        33       691
 -1       263   12    0    1
 -2        32       693       692
 -1       264   12    0    1
 -2       693       695       694
 -1       265   12    0    1
 -2       695        45       696
 -1       266   12    0    1
 -2        32       698       697
 -1       267   12    0    1
 -2       698       700       699
 -1       268   12    0    1
 -2       700       702       701
 -1       269   12    0    1
 -2       702       704       703
 -1       270   12    0    1
 -2       704        46       705
 -1       271   12    0    1
 -2        33       707       706
 -1       272   12    0    1
 -2       707       709       708
 -1       273   12    0    1
 -2       709       711       710
 -1       274   12    0    1
 -2       711        34       712
 -1       275   12    0    1
 -2        33       714       713
 -1       276   12    0    1
 -2       714       716       715
 -1       277   12    0    1
 -2       716        46       717
 -1       278   12    0    1
 -2        33       719       718
 -1       279   12    0    1
 -2       719       721       720
 -1       280   12    0    1
 -2       721       723       722
 -1       281   12    0    1
 -2       723       725       724
 -1       282   12    0    1
 -2       725        47       726
 -1       283   12    0    1
 -2        34       728       727
 -1       284   12    0    1
 -2       728       730       729
 -1       285   12    0    1
 -2       730       732       731
 -1       286   12    0    1
 -2       732        35       733
 -1       287   12    0    1
 -2        34       735       734
 -1       288   12    0    1
 -2       735       737       736
 -1       289   12    0    1
 -2       737        47       738
 -1       290   12    0    1
 -2        34       740       739
 -1       291   12    0    1
 -2       740       742       741
 -1       292   12    0    1
 -2       742       744       743
 -1       293   12    0    1
 -2       744       746       745
 -1       294   12    0    1
 -2       746        48       747
 -1       295   12    0    1
 -2        35       749       748
 -1       296   12    0    1
 -2       749       751       750
 -1       297   12    0    1
 -2       751       753       752
 -1       298   12    0    1
 -2       753        36       754
 -1       299   12    0    1
 -2        35       756       755
 -1       300   12    0    1
 -2       756       758       757
 -1       301   12    0    1
 -2       758        48       759
 -1       302   12    0    1
 -2        35       761       760
 -1       303   12    0    1
 -2       761       763       762
 -1       304   12    0    1
 -2       763       765       764
 -1       305   12    0    1
 -2       765       767       766
 -1       306   12    0    1
 -2       767        49       768
 -1       307   12    0    1
 -2        36       770       769
 -1       308   12    0    1
 -2       770       772       771
 -1       309   12    0    1
 -2       772       774       773
 -1       310   12    0    1
 -2       774        37       775
 -1       311   12    0    1
 -2        36       777       776
 -1       312   12    0    1
 -2       777       779       778
 -1       313   12    0    1
 -2       779        49       780
 -1       314   12    0    1
 -2        36       782       781
 -1       315   12    0    1
 -2       782       784       783
 -1       316   12    0    1
 -2       784       786       785
 -1       317   12    0    1
 -2       786       788       787
 -1       318   12    0    1
 -2       788        50       789
 -1       319   12    0    1
 -2        37       791       790
 -1       320   12    0    1
 -2       791       793       792
 -1       321   12    0    1
 -2       793       795       794
 -1       322   12    0    1
 -2       795        38       796
 -1       323   12    0    1
 -2        37       798       797
 -1       324   12    0    1
 -2       798       800       799
 -1       325   12    0    1
 -2       800        50       801
 -1       326   12    0    1
 -2        37       803       802
 -1       327   12    0    1
 -2       803       805       804
 -1       328   12    0    1
 -2       805       807       806
 -1       329   12    0    1
 -2       807       809       808
 -1       330   12    0    1
 -2       809        51       810
 -1       331   12    0    1
 -2        38       812       811
 -1       332   12    0    1
 -2       812       814       813
 -1       333   12    0    1
 -2       814       816       815
 -1       334   12    0    1
 -2       816        39       817
 -1       335   12    0    1
 -2        38       819       818
 -1       336   12    0    1
 -2       819       821       820
 -1       337   12    0    1
 -2       821        51       822
 -1       338   12    0    1
 -2        38       824       823
 -1       339   12    0    1
 -2       824       826       825
 -1       340   12    0    1
 -2       826       828       827
 -1       341   12    0    1
 -2       828       830       829
 -1       342   12    0    1
 -2       830        52       831
 -1       343   12    0    1
 -2        39       833       832
 -1       344   12    0    1
 -2       833       835       834
 -1       345   12    0    1
 -2       835        52       836
 -1       346   12    0    1
 -2        40       838       837
 -1       347   12    0    1
 -2       838       840       839
 -1       348   12    0    1
 -2       840       842       841
 -1       349   12    0    1
 -2       842        41       843
 -1       350   12    0    1
 -2        40       845       844
 -1       351   12    0    1
 -2       845       847       846
 -1       352   12    0    1
 -2       847        53       848
 -1       353   12    0    1
 -2        40       850       849
 -1       354   12    0    1
 -2       850       852       851
 -1       355   12    0    1
 -2       852       854       853
 -1       356   12    0    1
 -2       854       856       855
 -1       357   12    0    1
 -2       856        54       857
 -1       358   12    0    1
 -2        41       859       858
 -1       359   12    0    1
 -2       859       861       860
 -1       360   12    0    1
 -2       861       863       862
 -1       361   12    0    1
 -2       863        42       864
 -1       362   12    0    1
 -2        41       866       865
 -1       363   12    0    1
 -2       866       868       867
 -1       364   12    0    1
 -2       868        54       869
 -1       365   12    0    1
 -2        41       871       870
 -1       366   12    0    1
 -2       871       873       872
 -1       367   12    0    1
 -2       873       875       874
 -1       368   12    0    1
 -2       875       877       876
 -1       369   12    0    1
 -2       877        55       878
 -1       370   12    0    1
 -2        42       880       879
 -1       371   12    0    1
 -2       880       882       881
 -1       372   12    0    1
 -2       882       884       883
 -1       373   12    0    1
 -2       884        43       885
 -1       374   12    0    1
 -2        42       887       886
 -1       375   12    0    1
 -2       887       889       888
 -1       376   12    0    1
 -2       889        55       890
 -1       377   12    0    1
 -2        42       892       891
 -1       378   12    0    1
 -2       892       894       893
 -1       379   12    0    1
 -2       894       896       895
 -1       380   12    0    1
 -2       896       898       897
 -1       381   12    0    1
 -2       898        56       899
 -1       382   12    0    1
 -2        43       901       900
 -1       383   12    0    1
 -2       901       903       902
 -1       384   12    0    1
 -2       903       905       904
 -1       385   12    0    1
 -2       905        44       906
 -1       386   12    0    1
 -2        43       908       907
 -1       387   12    0    1
 -2       908       910       909
 -1       388   12    0    1
 -2       910        56       911
 -1       389   12    0    1
 -2        43       913       912
 -1       390   12    0    1
 -2       913       915       914
 -1       391   12    0    1
 -2       915       917       916
 -1       392   12    0    1
 -2       917       919       918
 -1       393   12    0    1
 -2       919        57       920
 -1       394   12    0    1
 -2        44       922       921
 -1       395   12    0    1
 -2       922       924       923
 -1       396   12    0    1
 -2       924       926       925
 -1       397   12    0    1
 -2       926        45       927
 -1       398   12    0    1
 -2        44       929       928
 -1       399   12    0    1
 -2       929       931       930
 -1       400   12    0    1
 -2       931        57       932
 -1       401   12    0    1
 -2        44       934       933
 -1       402   12    0    1
 -2       934       936       935
 -1       403   12    0    1
 -2       936       938       937
 -1       404   12    0    1
 -2       938       940       939
 -1       405   12    0    1
 -2       940        58       941
 -1       406   12    0    1
 -2        45       943       942
 -1       407   12    0    1
 -2       943       945       944
 -1       408   12    0    1
 -2       945       947       946
 -1       409   12    0    1
 -2       947        46       948
 -1       410   12    0    1
 -2        45       950       949
 -1       411   12    0    1
 -2       950       952       951
 -1       412   12    0    1
 -2       952        58       953
 -1       413   12    0    1
 -2        45       955       954
 -1       414   12    0    1
 -2       955       957       956
 -1       415   12    0    1
 -2       957       959       958
 -1       416   12    0    1
 -2       959       961       960
 -1       417   12    0    1
 -2       961        59       962
 -1       418   12    0    1
 -2        46       964       963
 -1       419   12    0    1
 -2       964       966       965
 -1       420   12    0    1
 -2       966       968       967
 -1       421   12    0    1
 -2       968        47       969
 -1       422   12    0    1
 -2        46       971       970
 -1       423   12    0    1
 -2       971       973       972
 -1       424   12    0    1
 -2       973        59       974
 -1       425   12    0    1
 -2        46       976       975
 -1       426   12    0    1
 -2       976       978       977
 -1       427   12    0    1
 -2       978       980       979
 -1       428   12    0    1
 -2       980       982       981
 -1       429   12    0    1
 -2       982        60       983
 -1       430   12    0    1
 -2        47       985       984
 -1       431   12    0    1
 -2       985       987       986
 -1       432   12    0    1
 -2       987       989       988
 -1       433   12    0    1
 -2       989        48       990
 -1       434   12    0    1
 -2        47       992       991
 -1       435   12    0    1
 -2       992       994       993
 -1       436   12    0    1
 -2       994        60       995
 -1       437   12    0    1
 -2        47       997       996
 -1       438   12    0    1
 -2       997       999       998
 -1       439   12    0    1
 -2       999      1001      1000
 -1       440   12    0    1
 -2      1001      1003      1002
 -1       441   12    0    1
 -2      1003        61      1004
 -1       442   12    0    1
 -2        48      1006      1005
 -1       443   12    0    1
 -2      1006      1008      1007
 -1       444   12    0    1
 -2      1008      1010      1009
 -1       445   12    0    1
 -2      1010        49      1011
 -1       446   12    0    1
 -2        48      1013      1012
 -1       447   12    0    1
 -2      1013      1015      1014
 -1       448   12    0    1
 -2      1015        61      1016
 -1       449   12    0    1
 -2        48      1018      1017
 -1       450   12    0    1
 -2      1018      1020      1019
 -1       451   12    0    1
 -2      1020      1022      1021
 -1       452   12    0    1
 -2      1022      1024      1023
 -1       453   12    0    1
 -2      1024        62      1025
 -1       454   12    0    1
 -2        49      1027      1026
 -1       455   12    0    1
 -2      1027      1029      1028
 -1       456   12    0    1
 -2      1029      1031      1030
 -1       457   12    0    1
 -2      1031        50      1032
 -1       458   12    0    1
 -2        49      1034      1033
 -1       459   12    0    1
 -2      1034      1036      1035
 -1       460   12    0    1
 -2      1036        62      1037
 -1       461   12    0    1
 -2        49      1039      1038
 -1       462   12    0    1
 -2      1039      1041      1040
 -1       463   12    0    1
 -2      1041      1043      1042
 -1       464   12    0    1
 -2      1043      1045      1044
 -1       465   12    0    1
 -2      1045        63      1046
 -1       466   12    0    1
 -2        50      1048      1047
 -1       467   12    0    1
 -2      1048      1050      1049
 -1       468   12    0    1
 -2      1050      1052      1051
 -1       469   12    0    1
 -2      1052        51      1053
 -1       470   12    0    1
 -2        50      1055      1054
 -1       471   12    0    1
 -2      1055      1057      1056
 -1       472   12    0    1
 -2      1057        63      1058
 -1       473   12    0    1
 -2        50      1060      1059
 -1       474   12    0    1
 -2      1060      1062      1061
 -1       475   12    0    1
 -2      1062      1064      1063
 -1       476   12    0    1
 -2      1064      1066      1065
 -1       477   12    0    1
 -2      1066        64      1067
 -1       478   12    0    1
 -2        51      1069      1068
 -1       479   12    0    1
 -2      1069      1071      1070
 -1       480   12    0    1
 -2      1071      1073      1072
 -1       481   12    0    1
 -2      1073        52      1074
 -1       482   12    0    1
 -2        51      1076      1075
 -1       483   12    0    1
 -2      1076      1078      1077
 -1       484   12    0    1
 -2      1078        64      1079
 -1       485   12    0    1
 -2        51      1081      1080
 -1       486   12    0    1
 -2      1081      1083      1082
 -1       487   12    0    1
 -2      1083      1085      1084
 -1       488   12    0    1
 -2      1085      1087      1086
 -1       489   12    0    1
 -2      1087        65      1088
 -1       490   12    0    1
 -2        52      1090      1089
 -1       491   12    0    1
 -2      1090      1092      1091
 -1       492   12    0    1
 -2      1092        65      1093
 -1       493   12    0    1
 -2        53      1095      1094
 -1       494   12    0    1
 -2      1095      1097      1096
 -1       495   12    0    1
 -2      1097      1099      1098
 -1       496   12    0    1
 -2      1099        54      1100
 -1       497   12    0    1
 -2        54      1102      1101
 -1       498   12    0    1
 -2      1102      1104      1103
 -1       499   12    0    1
 -2      1104      1106      1105
 -1       500   12    0    1
 -2      1106        55      1107
 -1       501   12    0    1
 -2        55      1109      1108
 -1       502   12    0    1
 -2      1109      1111      1110
 -1       503   12    0    1
 -2      1111      1113      1112
 -1       504   12    0    1
 -2      1113        56      1114
 -1       505   12    0    1
 -2        56      1116      1115
 -1       506   12    0    1
 -2      1116      1118      1117
 -1       507   12    0    1
 -2      1118      1120      1119
 -1       508   12    0    1
 -2      1120        57      1121
 -1       509   12    0    1
 -2        57      1123      1122
 -1       510   12    0    1
 -2      1123      1125      1124
 -1       511   12    0    1
 -2      1125      1127      1126
 -1       512   12    0    1
 -2      1127        58      1128
 -1       513   12    0    1
 -2        58      1130      1129
 -1       514   12    0    1
 -2      1130      1132      1131
 -1       515   12    0    1
 -2      1132      1134      1133
 -1       516   12    0    1
 -2      1134        59      1135
 -1       517   12    0    1
 -2        59      1137      1136
 -1       518   12    0    1
 -2      1137      1139      1138
 -1       519   12    0    1
 -2      1139      1141      1140
 -1       520   12    0    1
 -2      1141        60      1142
 -1       521   12    0    1
 -2        60      1144      1143
 -1       522   12    0    1
 -2      1144      1146      1145
 -1       523   12    0    1
 -2      1146      1148      1147
 -1       524   12    0    1
 -2      1148        61      1149
 -1       525   12    0    1
 -2        61      1151      1150
 -1       526   12    0    1
 -2      1151      1153      1152
 -1       527   12    0    1
 -2      1153      1155      1154
 -1       528   12    0    1
 -2      1155        62      1156
 -1       529   12    0    1
 -2        62      1158      1157
 -1       530   12    0    1
 -2      1158      1160      1159
 -1       531   12    0    1
 -2      1160      1162      1161
 -1       532   12    0    1
 -2      1162        63      1163
 -1       533   12    0    1
 -2        63      1165      1164
 -1       534   12    0    1
 -2      1165      1167      1166
 -1       535   12    0    1
 -2      1167      1169      1168
 -1       536   12    0    1
 -2      1169        64      1170
 -1       537   12    0    1
 -2        64      1172      1171
 -1       538   12    0    1
 -2      1172      1174      1173
 -1       539   12    0    1
 -2      1174      1176      1175
 -1       540   12    0    1
 -2      1176        65      1177
 -3
    1PSTEP                         1           1           1          
  100CL  101 1.000000000        1001                     0    1           1
 -4  DISP        4    1
 -5  D1          1    2    1    0
 -5  D2          1    2    2    0
 -5  D3          1    2    3    0
 -5  ALL         1    2    0    0    1ALL
 -1         1-1.35351E-05 0.00000E+00 0.00000E+00
 -1         2-9.64872E-06 0.00000E+00 0.00000E+00
 -1         3-7.25430E-06 0.00000E+00 0.00000E+00
 -1         4-5.62601E-06 0.00000E+00 0.00000E+00
 -1         5-4.45602E-06 0.00000E+00 0.00000E+00
 -1         6-3.57547E-06 0.00000E+00 0.00000E+00
 -1         7-2.90554E-06 0.00000E+00 0.00000E+00
 -1         8-2.52782E-06 0.00000E+00 0.00000E+00
 -1         9-2.48148E-06 0.00000E+00 0.00000E+00
 -1        14-8.33614E-06 7.88053E-07 0.00000E+00
 -1        15-8.16487E-06-6.92080E-07 0.00000E+00
 -1        16-6.85699E-06-6.58921E-07 0.00000E+00
 -1        17-5.57647E-06-4.51476E-07 0.00000E+00
 -1        18-4.54564E-06-2.45108E-07 0.00000E+00
 -1        19-3.73144E-06-1.27304E-07 0.00000E+00
 -1        20-2.99586E-06-1.08974E-07 0.00000E+00
 -1        21-2.34128E-06 7.21383E-08 0.00000E+00
 -1        22-2.21877E-06 3.86348E-07 0.00000E+00
 -1        27-5.17375E-06 7.91186E-07 0.00000E+00
 -1        28-5.36194E-06-8.87927E-07 0.00000E+00
 -1        29-5.23010E-06-1.22261E-06 0.00000E+00
 -1        30-4.66360E-06-9.52772E-07 0.00000E+00
 -1        31-3.99641E-06-5.37204E-07 0.00000E+00
 -1        32-3.47914E-06-2.38718E-07 0.00000E+00
 -1        33-3.00961E-06-2.58051E-07 0.00000E+00
 -1        34-2.35403E-06-1.29644E-07 0.00000E+00
 -1        35-1.44246E-06 1.03762E-06 0.00000E+00
 -1        36-4.13691E-08 6.53154E-06 0.00000E+00
 -1        37 6.25851E-07 1.32646E-05 0.00000E+00
 -1        38 8.60912E-07 2.03089E-05 0.00000E+00
 -1        39 8.95500E-07 2.72287E-05 0.00000E+00
 -1        40-2.86986E-06 5.00907E-07 0.00000E+00
 -1        41-3.22254E-06-1.02829E-06 0.00000E+00
 -1        42-3.52392E-06-1.53577E-06 0.00000E+00
 -1        43-3.48129E-06-1.35541E-06 0.00000E+00
 -1        44-3.08130E-06-8.56548E-07 0.00000E+00
 -1        45-2.54552E-06-2.73132E-07 0.00000E+00
 -1        46-2.57641E-06-2.57597E-07 0.00000E+00
 -1        47-2.82157E-06-2.74000E-07 0.00000E+00
 -1        48-3.10650E-06 1.33106E-06 0.00000E+00
 -1        49-3.55883E-06 6.12330E-06 0.00000E+00
 -1        50-3.75643E-06 1.28496E-05 0.00000E+00
 -1        51-3.86262E-06 1.99971E-05 0.00000E+00
 -1        52-3.93601E-06 2.69692E-05 0.00000E+00
 -1        53 0.00000E+00 0.00000E+00 0.00000E+00
 -1        54-1.30117E-06-1.18487E-06 0.00000E+00
 -1        55-2.21707E-06-1.70495E-06 0.00000E+00
 -1        56-2.68160E-06-1.59526E-06 0.00000E+00
 -1        57-2.57221E-06-1.14071E-06 0.00000E+00
 -1        58-1.77325E-06-5.72430E-07 0.00000E+00
 -1        59 0.00000E+00 0.00000E+00 0.00000E+00
 -1        60-2.31107E-06-3.43132E-07 0.00000E+00
 -1        61-4.31632E-06 1.40805E-06 0.00000E+00
 -1        62-6.21637E-06 5.96876E-06 0.00000E+00
 -1        63-7.61208E-06 1.25581E-05 0.00000E+00
 -1        64-8.35136E-06 1.97714E-05 0.00000E+00
 -1        65-8.62101E-06 2.68166E-05 0.00000E+00
 -1        66-1.30537E-05 1.45584E-22 1.32349E-23
 -1        67-1.25658E-05 3.11020E-22 0.00000E+00
 -1        68-1.20763E-05 7.80858E-22 0.00000E+00
 -1        69-1.15861E-05 9.26442E-23 6.61744E-24
 -1        70-1.10962E-05-6.74979E-22 0.00000E+00
 -1        71-1.06077E-05-5.75718E-22-6.61744E-24
 -1        72-1.01222E-05-3.17637E-22 0.00000E+00
 -1        73-1.30296E-05 1.42112E-07 1.65436E-24
 -1        74-1.22667E-05 2.75178E-07-1.34417E-24
 -1        75-1.13300E-05 4.05736E-07-1.65436E-24
 -1        76-1.03055E-05 5.34754E-07 0.00000E+00
 -1        77-9.27914E-06 6.62725E-07-3.30872E-24
 -1        78-1.31408E-05 1.21106E-07 6.61744E-24
 -1        79-1.26816E-05 1.59494E-07 6.61744E-24
 -1        80-1.21702E-05 1.29261E-07-6.61744E-24
 -1        81-1.16188E-05 4.60661E-08 0.00000E+00
 -1        82-1.10395E-05-7.43396E-08-1.32349E-23
 -1        83-1.04445E-05-2.16101E-07 0.00000E+00
 -1        84-9.84600E-06-3.63410E-07 0.00000E+00
 -1        85-9.25677E-06-5.00982E-07 6.61744E-24
 -1        86-8.69009E-06-6.13879E-07 6.61744E-24
 -1        87-9.35174E-06 1.58819E-22 0.00000E+00
 -1        88-9.05100E-06 2.77933E-22 0.00000E+00
 -1        89-8.74933E-06-1.58819E-22-6.61744E-24
 -1        90-8.44733E-06-3.57342E-22 0.00000E+00
 -1        91-8.14550E-06-4.49986E-22 0.00000E+00
 -1        92-7.84458E-06-5.16161E-22 0.00000E+00
 -1        93-7.54563E-06-2.94476E-22 0.00000E+00
 -1        94-9.53890E-06-1.03042E-07 4.13590E-25
 -1        95-9.35269E-06-2.20429E-07 0.00000E+00
 -1        96-9.10578E-06-3.41206E-07 0.00000E+00
 -1        97-8.81454E-06-4.62612E-07 0.00000E+00
 -1        98-8.49541E-06-5.82091E-07 0.00000E+00
 -1        99-9.44607E-06 4.05880E-08 0.00000E+00
 -1       100-9.20627E-06 2.94998E-08 1.65436E-24
 -1       101-8.93607E-06-2.26873E-08 0.00000E+00
 -1       102-8.64321E-06-1.05420E-07 0.00000E+00
 -1       103-8.33547E-06-2.08149E-07 6.61744E-24
 -1       104-8.02080E-06-3.20357E-07-3.30872E-24
 -1       105-7.70715E-06-4.31550E-07 6.61744E-24
 -1       106-7.40273E-06-5.31458E-07 0.00000E+00
 -1       107-7.11588E-06-6.09956E-07 0.00000E+00
 -1       108-7.05341E-06 9.59530E-23 0.00000E+00
 -1       109-6.84907E-06 2.84550E-22 0.00000E+00
 -1       110-6.64387E-06 1.29040E-22 0.00000E+00
 -1       111-6.43834E-06-8.27181E-23-3.30872E-24
 -1       112-6.23287E-06 8.27181E-23 0.00000E+00
 -1       113-6.02800E-06 1.12497E-22 3.30872E-24
 -1       114-5.82444E-06 8.93355E-23 0.00000E+00
 -1       115-7.23875E-06-1.01504E-07 0.00000E+00
 -1       116-7.20159E-06-2.13233E-07 8.27181E-25
 -1       117-7.14371E-06-3.27327E-07 0.00000E+00
 -1       118-7.06622E-06-4.41696E-07 0.00000E+00
 -1       119-6.97023E-06-5.54347E-07 0.00000E+00
 -1       120-7.13253E-06 1.86072E-08 3.30872E-24
 -1       121-6.98716E-06 4.45130E-09 1.65436E-24
 -1       122-6.82273E-06-3.54716E-08 3.30872E-24
 -1       123-6.64436E-06-9.41600E-08 0.00000E+00
 -1       124-6.45723E-06-1.64617E-07-3.30872E-24
 -1       125-6.26660E-06-2.39856E-07 1.65436E-24
 -1       126-6.07773E-06-3.12903E-07 0.00000E+00
 -1       127-5.89599E-06-3.76892E-07 0.00000E+00
 -1       128-5.72681E-06-4.25026E-07 0.00000E+00
 -1       129-5.48188E-06 4.30134E-22 0.00000E+00
 -1       130-5.33514E-06 5.62483E-22-1.65436E-24
 -1       131-5.18773E-06 3.34181E-22 0.00000E+00
 -1       132-5.04006E-06 2.15067E-22 1.65436E-24
 -1       133-4.89244E-06 1.09188E-22-3.30872E-24
 -1       134-4.74520E-06-1.88597E-22 1.65436E-24
 -1       135-4.59887E-06-6.61744E-23 3.30872E-24
 -1       136-5.63739E-06-6.96166E-08 0.00000E+00
 -1       137-5.64497E-06-1.46275E-07 0.00000E+00
 -1       138-5.64568E-06-2.24551E-07 0.00000E+00
 -1       139-5.63649E-06-3.02980E-07 0.00000E+00
 -1       140-5.61438E-06-3.80151E-07 8.27181E-25
 -1       141-5.54547E-06 1.38664E-08-1.65436E-24
 -1       142-5.45027E-06 7.09331E-09 0.00000E+00
 -1       143-5.34324E-06-1.57215E-08-1.65436E-24
 -1       144-5.22771E-06-5.00359E-08 8.27181E-25
 -1       145-5.10700E-06-9.13140E-08-1.65436E-24
 -1       146-4.98451E-06-1.35030E-07 0.00000E+00
 -1       147-4.86363E-06-1.76666E-07 0.00000E+00
 -1       148-4.74782E-06-2.11760E-07 0.00000E+00
 -1       149-4.64055E-06-2.35885E-07-1.65436E-24
 -1       150-4.34752E-06-6.12114E-23 0.00000E+00
 -1       151-4.23711E-06-4.63221E-23 1.65436E-24
 -1       152-4.12621E-06 1.27386E-22 3.30872E-24
 -1       153-4.01512E-06 2.58080E-22-1.65436E-24
 -1       154-3.90405E-06 4.26825E-22 0.00000E+00
 -1       155-3.79327E-06 4.38406E-22-1.65436E-24
 -1       156-3.68312E-06 1.32349E-22-3.30872E-24
 -1       157-4.47646E-06-3.71352E-08 4.13590E-25
 -1       158-4.50035E-06-7.89401E-08 0.00000E+00
 -1       159-4.52347E-06-1.21815E-07 8.27181E-25
 -1       160-4.54154E-06-1.64786E-07-4.13590E-25
 -1       161-4.55032E-06-2.06909E-07 0.00000E+00
 -1       162-4.40056E-06 1.15194E-08 0.00000E+00
 -1       163-4.33593E-06 9.64811E-09 0.00000E+00
 -1       164-4.26383E-06-2.49866E-09 0.00000E+00
 -1       165-4.18637E-06-2.19475E-08 0.00000E+00
 -1       166-4.10570E-06-4.57347E-08 0.00000E+00
 -1       167-4.02401E-06-7.09152E-08 8.27181E-25
 -1       168-3.94351E-06-9.45479E-08 1.65436E-24
 -1       169-3.86641E-06-1.13718E-07-8.27181E-25
 -1       170-3.79495E-06-1.25530E-07 0.00000E+00
 -1       171-3.49279E-06-9.42986E-23-1.65436E-24
 -1       172-3.40877E-06-9.59530E-23 0.00000E+00
 -1       173-3.32441E-06-1.90252E-22 0.00000E+00
 -1       174-3.23991E-06-2.79587E-22-1.65436E-24
 -1       175-3.15544E-06-3.44107E-22-3.30872E-24
 -1       176-3.07118E-06-2.58080E-22 0.00000E+00
 -1       177-2.98741E-06-1.35658E-22 1.65436E-24
 -1       178-3.60049E-06-1.86560E-08 4.13590E-25
 -1       179-3.63240E-06-4.05464E-08 2.58494E-26
 -1       180-3.66637E-06-6.31767E-08 0.00000E+00
 -1       181-3.69746E-06-8.58683E-08 0.00000E+00
 -1       182-3.72075E-06-1.07964E-07-1.03398E-25
 -1       183-3.53064E-06 7.86575E-09-1.65436E-24
 -1       184-3.47820E-06 4.61135E-09 8.27181E-25
 -1       185-3.41963E-06-7.06537E-09 8.27181E-25
 -1       186-3.35678E-06-2.45805E-08 0.00000E+00
 -1       187-3.29151E-06-4.53595E-08-1.65436E-24
 -1       188-3.22574E-06-6.68412E-08-8.27181E-25
 -1       189-3.16137E-06-8.64669E-08 1.65436E-24
 -1       190-3.10032E-06-1.01696E-07-8.27181E-25
 -1       191-3.04452E-06-1.09997E-07-1.65436E-24
 -1       192-2.85844E-06 1.57164E-23 0.00000E+00
 -1       193-2.81104E-06 8.68540E-23 8.27181E-25
 -1       194-2.76358E-06 1.81980E-22 1.65436E-24
 -1       195-2.71609E-06 1.35658E-22 0.00000E+00
 -1       196-2.66863E-06 9.92617E-23-1.65436E-24
 -1       197-2.62127E-06 2.15894E-22 0.00000E+00
 -1       198-2.57413E-06 8.27181E-23 0.00000E+00
 -1       199-2.91963E-06-1.62137E-08 0.00000E+00
 -1       200-2.93775E-06-3.49789E-08 0.00000E+00
 -1       201-2.95719E-06-5.43198E-08 0.00000E+00
 -1       202-2.97518E-06-7.36823E-08-1.03398E-25
 -1       203-2.98897E-06-9.25196E-08-1.03398E-25
 -1       204-2.85824E-06 1.86996E-08-1.65436E-24
 -1       205-2.80540E-06 3.06510E-08-8.27181E-25
 -1       206-2.74843E-06 3.72746E-08 0.00000E+00
 -1       207-2.68862E-06 4.01961E-08 0.00000E+00
 -1       208-2.62725E-06 4.10547E-08 0.00000E+00
 -1       209-2.56558E-06 4.15108E-08-8.27181E-25
 -1       210-2.50486E-06 4.32249E-08 0.00000E+00
 -1       211-2.44637E-06 4.78410E-08 0.00000E+00
 -1       212-2.39138E-06 5.69917E-08 1.65436E-24
 -1       213-2.52122E-06-6.51405E-23-4.13590E-25
 -1       214-2.51561E-06-1.17770E-22 0.00000E+00
 -1       215-2.51024E-06-1.58715E-22 0.00000E+00
 -1       216-2.50498E-06-1.10842E-22-1.03398E-25
 -1       217-2.49970E-06-1.47962E-22 2.06795E-25
 -1       218-2.49427E-06-1.53545E-22 2.06795E-25
 -1       219-2.48852E-06-9.47122E-23 0.00000E+00
 -1       220-2.50556E-06 1.23188E-08-4.13590E-25
 -1       221-2.47440E-06 2.39458E-08-2.06795E-25
 -1       222-2.43833E-06 3.54427E-08 0.00000E+00
 -1       223-2.40142E-06 4.70206E-08-4.13590E-25
 -1       224-2.36774E-06 5.89177E-08 8.27181E-25
 -1       225-2.49988E-06 4.06247E-08 1.65436E-24
 -1       226-2.47530E-06 8.71605E-08 0.00000E+00
 -1       227-2.45293E-06 1.37020E-07 1.65436E-24
 -1       228-2.43116E-06 1.87873E-07 0.00000E+00
 -1       229-2.40836E-06 2.37407E-07 0.00000E+00
 -1       230-2.38281E-06 2.83342E-07 0.00000E+00
 -1       231-2.35283E-06 3.23405E-07-8.27181E-25
 -1       232-2.31668E-06 3.55358E-07 4.13590E-25
 -1       233-2.27262E-06 3.76983E-07-1.65436E-24
 -1       241-2.46149E-06 6.30747E-08 1.65436E-24
 -1       242-2.42803E-06 1.27433E-07 0.00000E+00
 -1       243-2.38400E-06 1.92118E-07 0.00000E+00
 -1       244-2.33242E-06 2.56939E-07 0.00000E+00
 -1       245-2.27633E-06 3.21752E-07 0.00000E+00
 -1       323-8.31314E-06 4.11189E-07 0.00000E+00
 -1       324-8.29237E-06 1.33221E-07 0.00000E+00
 -1       325-8.27213E-06-6.73202E-08 0.00000E+00
 -1       326-8.25209E-06-2.12783E-07 0.00000E+00
 -1       327-8.23198E-06-3.25573E-07 0.00000E+00
 -1       328-8.21145E-06-4.28159E-07-4.13590E-25
 -1       329-8.18998E-06-5.42982E-07 0.00000E+00
 -1       330-7.75962E-06 7.92102E-07 1.65436E-24
 -1       331-7.18645E-06 7.92985E-07 0.00000E+00
 -1       332-6.62899E-06 7.93035E-07 0.00000E+00
 -1       333-6.09958E-06 7.92650E-07 8.27181E-25
 -1       334-5.61055E-06 7.92074E-07 0.00000E+00
 -1       335-7.94538E-06 4.91780E-07 0.00000E+00
 -1       336-7.58317E-06 2.38368E-07 0.00000E+00
 -1       337-7.24778E-06 2.19761E-08 0.00000E+00
 -1       338-6.93583E-06-1.62544E-07 0.00000E+00
 -1       339-6.64385E-06-3.20288E-07-6.61744E-24
 -1       340-6.36821E-06-4.56297E-07 0.00000E+00
 -1       341-6.10530E-06-5.75625E-07 0.00000E+00
 -1       342-5.85172E-06-6.83498E-07 0.00000E+00
 -1       343-5.60424E-06-7.85256E-07 3.30872E-24
 -1       344-8.00342E-06-8.25063E-07 6.61744E-24
 -1       345-7.83935E-06-8.77740E-07 3.30872E-24
 -1       346-7.67463E-06-8.70208E-07 0.00000E+00
 -1       347-7.50965E-06-8.23293E-07 3.30872E-24
 -1       348-7.34471E-06-7.57863E-07 3.30872E-24
 -1       349-7.18022E-06-6.94819E-07 0.00000E+00
 -1       350-7.01670E-06-6.55033E-07 0.00000E+00
 -1       351-7.74223E-06-7.19146E-07-5.16988E-25
 -1       352-7.26265E-06-7.52212E-07 0.00000E+00
 -1       353-6.75522E-06-7.86746E-07 4.13590E-25
 -1       354-6.24961E-06-8.21702E-07 2.06795E-25
 -1       355-5.77549E-06-8.56171E-07 0.00000E+00
 -1       356-7.84653E-06-7.84664E-07-6.61744E-24
 -1       357-7.52923E-06-8.68616E-07 0.00000E+00
 -1       358-7.21621E-06-9.44994E-07-6.61744E-24
 -1       359-6.90856E-06-1.01332E-06 0.00000E+00
 -1       360-6.60723E-06-1.07299E-06-6.61744E-24
 -1       361-6.31299E-06-1.12330E-06-3.30872E-24
 -1       362-6.02663E-06-1.16353E-06 6.61744E-24
 -1       363-5.74926E-06-1.19323E-06 0.00000E+00
 -1       364-5.48222E-06-1.21215E-06 3.30872E-24
 -1       365-6.70003E-06-7.00834E-07 3.30872E-24
 -1       366-6.53941E-06-6.99282E-07-3.30872E-24
 -1       367-6.37786E-06-6.66052E-07 0.00000E+00
 -1       368-6.21593E-06-6.13330E-07 0.00000E+00
 -1       369-6.05403E-06-5.53325E-07-3.30872E-24
 -1       370-5.89262E-06-4.98260E-07 1.65436E-24
 -1       371-5.73234E-06-4.60340E-07 0.00000E+00
 -1       372-6.63124E-06-7.46893E-07 0.00000E+00
 -1       373-6.36125E-06-8.42295E-07 8.27181E-25
 -1       374-6.06636E-06-9.39409E-07 1.65436E-24
 -1       375-5.76640E-06-1.03670E-06 0.00000E+00
 -1       376-5.48116E-06-1.13269E-06 8.27181E-25
 -1       377-6.64726E-06-6.81048E-07 0.00000E+00
 -1       378-6.42610E-06-7.12483E-07 0.00000E+00
 -1       379-6.19819E-06-7.51372E-07-3.30872E-24
 -1       380-5.96659E-06-7.94451E-07-1.65436E-24
 -1       381-5.73422E-06-8.38362E-07 0.00000E+00
 -1       382-5.50387E-06-8.79620E-07 0.00000E+00
 -1       383-5.27835E-06-9.14742E-07 0.00000E+00
 -1       384-5.06065E-06-9.40435E-07 0.00000E+00
 -1       385-4.85394E-06-9.53539E-07 0.00000E+00
 -1       386-5.45024E-06-4.64585E-07 0.00000E+00
 -1       387-5.32097E-06-4.51704E-07 0.00000E+00
 -1       388-5.19094E-06-4.20116E-07 0.00000E+00
 -1       389-5.06058E-06-3.77348E-07 1.65436E-24
 -1       390-4.93025E-06-3.30941E-07 0.00000E+00
 -1       391-4.80030E-06-2.88439E-07 1.65436E-24
 -1       392-4.67123E-06-2.57379E-07-3.30872E-24
 -1       393-5.45366E-06-5.30248E-07 0.00000E+00
 -1       394-5.30397E-06-6.15245E-07 0.00000E+00
 -1       395-5.13864E-06-7.01649E-07 1.65436E-24
 -1       396-4.96916E-06-7.88116E-07 8.27181E-25
 -1       397-4.80704E-06-8.73317E-07 6.20385E-25
 -1       398-5.43212E-06-4.46242E-07 3.30872E-24
 -1       399-5.27712E-06-4.50696E-07 0.00000E+00
 -1       400-5.11525E-06-4.63157E-07 0.00000E+00
 -1       401-4.94902E-06-4.80859E-07 1.65436E-24
 -1       402-4.78088E-06-5.00958E-07 3.30872E-24
 -1       403-4.61316E-06-5.20510E-07 1.65436E-24
 -1       404-4.44820E-06-5.36571E-07 0.00000E+00
 -1       405-4.28847E-06-5.46321E-07-1.65436E-24
 -1       406-4.13654E-06-5.47026E-07-3.30872E-24
 -1       407-4.44584E-06-2.50328E-07 3.30872E-24
 -1       408-4.34376E-06-2.41740E-07 0.00000E+00
 -1       409-4.24109E-06-2.23317E-07-3.30872E-24
 -1       410-4.13819E-06-1.99160E-07-1.65436E-24
 -1       411-4.03530E-06-1.73381E-07 0.00000E+00
 -1       412-3.93270E-06-1.50092E-07 0.00000E+00
 -1       413-3.83076E-06-1.33399E-07 0.00000E+00
 -1       414-4.47520E-06-2.90627E-07 0.00000E+00
 -1       415-4.38686E-06-3.40418E-07-4.13590E-25
 -1       416-4.28765E-06-3.91162E-07 0.00000E+00
 -1       417-4.18473E-06-4.41906E-07-4.13590E-25
 -1       418-4.08529E-06-4.91695E-07 0.00000E+00
 -1       419-4.45182E-06-2.29910E-07 0.00000E+00
 -1       420-4.35085E-06-2.21620E-07-1.65436E-24
 -1       421-4.24486E-06-2.19335E-07 1.65436E-24
 -1       422-4.13528E-06-2.21511E-07 1.65436E-24
 -1       423-4.02348E-06-2.26556E-07-3.30872E-24
 -1       424-3.91078E-06-2.32819E-07 0.00000E+00
 -1       425-3.79848E-06-2.38650E-07 0.00000E+00
 -1       426-3.68799E-06-2.42471E-07-1.65436E-24
 -1       427-3.58077E-06-2.42757E-07 0.00000E+00
 -1       428-3.64139E-06-1.34410E-07 0.00000E+00
 -1       429-3.54917E-06-1.35624E-07 1.65436E-24
 -1       430-3.45639E-06-1.32514E-07 3.30872E-24
 -1       431-3.36339E-06-1.26704E-07 0.00000E+00
 -1       432-3.27039E-06-1.19820E-07-3.30872E-24
 -1       433-3.17766E-06-1.13493E-07-8.27181E-25
 -1       434-3.08555E-06-1.09348E-07 1.65436E-24
 -1       435-3.70365E-06-1.43917E-07-2.06795E-25
 -1       436-3.66814E-06-1.63176E-07 1.03398E-25
 -1       437-3.62638E-06-1.83024E-07 0.00000E+00
 -1       438-3.57993E-06-2.02871E-07 0.00000E+00
 -1       439-3.53033E-06-2.22124E-07 0.00000E+00
 -1       440-3.67096E-06-1.25134E-07 0.00000E+00
 -1       441-3.60340E-06-1.31843E-07-8.27181E-25
 -1       442-3.53051E-06-1.45518E-07-1.65436E-24
 -1       443-3.45394E-06-1.64041E-07 0.00000E+00
 -1       444-3.37532E-06-1.85283E-07 0.00000E+00
 -1       445-3.29628E-06-2.07096E-07 8.27181E-25
 -1       446-3.21847E-06-2.27334E-07 0.00000E+00
 -1       447-3.14356E-06-2.43892E-07 8.27181E-25
 -1       448-3.07325E-06-2.54694E-07 1.65436E-24
 -1       449-2.91589E-06-9.88923E-08 0.00000E+00
 -1       450-2.83395E-06-7.89855E-08-1.65436E-24
 -1       451-2.75150E-06-5.23131E-08 0.00000E+00
 -1       452-2.66883E-06-2.20290E-08-1.65436E-24
 -1       453-2.58615E-06 8.70720E-09 0.00000E+00
 -1       454-2.50366E-06 3.67361E-08 8.27181E-25
 -1       455-2.42160E-06 5.89025E-08 1.65436E-24
 -1       456-3.00024E-06-1.31733E-07 0.00000E+00
 -1       457-3.00731E-06-1.57170E-07 0.00000E+00
 -1       458-3.01444E-06-1.83215E-07 0.00000E+00
 -1       459-3.01896E-06-2.09299E-07 2.06795E-25
 -1       460-3.01821E-06-2.34864E-07 0.00000E+00
 -1       461-2.93428E-06-1.08544E-07 0.00000E+00
 -1       462-2.86406E-06-1.18658E-07 0.00000E+00
 -1       463-2.78838E-06-1.35805E-07 1.65436E-24
 -1       464-2.71020E-06-1.56155E-07 0.00000E+00
 -1       465-2.63248E-06-1.75856E-07-1.65436E-24
 -1       466-2.55817E-06-1.91024E-07 0.00000E+00
 -1       467-2.49019E-06-1.97778E-07 0.00000E+00
 -1       468-2.43150E-06-1.92275E-07 8.27181E-25
 -1       469-2.38507E-06-1.70702E-07 0.00000E+00
 -1       470-2.32509E-06 1.04971E-07-8.27181E-25
 -1       471-2.31009E-06 1.53298E-07-4.13590E-25
 -1       472-2.29540E-06 2.10391E-07-8.27181E-25
 -1       473-2.28081E-06 2.69359E-07 0.00000E+00
 -1       474-2.26620E-06 3.23300E-07 6.20385E-25
 -1       475-2.25136E-06 3.65324E-07 3.10193E-25
 -1       476-2.23603E-06 3.88554E-07 4.13590E-25
 -1       477-2.32589E-06 4.10513E-08 0.00000E+00
 -1       478-2.31385E-06 6.66366E-09 0.00000E+00
 -1       479-2.30791E-06-2.84711E-08-2.06795E-25
 -1       480-2.31082E-06-6.36424E-08-1.03398E-25
 -1       481-2.32532E-06-9.81515E-08 0.00000E+00
 -1       482-2.21585E-06 1.13582E-07-3.30872E-24
 -1       483-2.08368E-06 1.52392E-07-1.65436E-24
 -1       484-1.95163E-06 1.93032E-07-3.30872E-24
 -1       485-1.82479E-06 2.41435E-07-1.65436E-24
 -1       486-1.70809E-06 3.03639E-07 0.00000E+00
 -1       487-1.60631E-06 3.85837E-07 0.00000E+00
 -1       488-1.52415E-06 4.94236E-07-6.61744E-24
 -1       489-1.46634E-06 6.35001E-07 0.00000E+00
 -1       490-1.43756E-06 8.14264E-07 0.00000E+00
 -1       498-2.02285E-06 4.92372E-07 0.00000E+00
 -1       499-1.81038E-06 6.00568E-07-1.65436E-24
 -1       500-1.61367E-06 7.09353E-07-6.61744E-24
 -1       501-1.46529E-06 8.18478E-07 0.00000E+00
 -1       502-1.39772E-06 9.27809E-07 0.00000E+00
 -1       580-5.19704E-06 5.00487E-07 0.00000E+00
 -1       581-5.22109E-06 2.52955E-07 2.06795E-25
 -1       582-5.24532E-06 3.87984E-08-2.06795E-25
 -1       583-5.26959E-06-1.52154E-07 3.10193E-25
 -1       584-5.29379E-06-3.30102E-07 0.00000E+00
 -1       585-5.31770E-06-5.05272E-07 0.00000E+00
 -1       586-5.34100E-06-6.87876E-07 0.00000E+00
 -1       587-4.79046E-06 7.44654E-07-8.27181E-25
 -1       588-4.39997E-06 6.96277E-07 0.00000E+00
 -1       589-4.00745E-06 6.47433E-07 0.00000E+00
 -1       590-3.61812E-06 5.98410E-07 4.13590E-25
 -1       591-3.23722E-06 5.49436E-07 1.65436E-24
 -1       592-4.93571E-06 5.48062E-07 0.00000E+00
 -1       593-4.70883E-06 3.23714E-07 0.00000E+00
 -1       594-4.49342E-06 1.15682E-07 0.00000E+00
 -1       595-4.28856E-06-7.77936E-08-2.48154E-24
 -1       596-4.09323E-06-2.58420E-07 0.00000E+00
 -1       597-3.90630E-06-4.27835E-07 0.00000E+00
 -1       598-3.72665E-06-5.87685E-07 0.00000E+00
 -1       599-3.55324E-06-7.39702E-07 8.27181E-25
 -1       600-3.38514E-06-8.85675E-07-8.27181E-25
 -1       601-5.34511E-06-1.03536E-06-1.65436E-24
 -1       602-5.32889E-06-1.11914E-06 0.00000E+00
 -1       603-5.31281E-06-1.15563E-06 0.00000E+00
 -1       604-5.29677E-06-1.16179E-06 0.00000E+00
 -1       605-5.28071E-06-1.15460E-06 4.13590E-25
 -1       606-5.26449E-06-1.15107E-06-1.03398E-25
 -1       607-5.24794E-06-1.16821E-06 4.13590E-25
 -1       608-5.01887E-06-9.09000E-07 0.00000E+00
 -1       609-4.64761E-06-9.32432E-07-2.06795E-25
 -1       610-4.26512E-06-9.56454E-07 2.06795E-25
 -1       611-3.88867E-06-9.80690E-07 1.03398E-25
 -1       612-3.53552E-06-1.00483E-06 0.00000E+00
 -1       613-5.13820E-06-1.01143E-06 3.30872E-24
 -1       614-4.92462E-06-1.11567E-06 1.65436E-24
 -1       615-4.72200E-06-1.20380E-06 0.00000E+00
 -1       616-4.52941E-06-1.27784E-06 1.65436E-24
 -1       617-4.34579E-06-1.33975E-06-3.30872E-24
 -1       618-4.16990E-06-1.39137E-06 1.65436E-24
 -1       619-4.00052E-06-1.43457E-06 0.00000E+00
 -1       620-3.83664E-06-1.47135E-06 0.00000E+00
 -1       621-3.67737E-06-1.50385E-06-1.65436E-24
 -1       622-5.16032E-06-1.27235E-06 0.00000E+00
 -1       623-5.08944E-06-1.26668E-06-1.65436E-24
 -1       624-5.01828E-06-1.22106E-06 0.00000E+00
 -1       625-4.94700E-06-1.15145E-06 1.65436E-24
 -1       626-4.87571E-06-1.07385E-06 0.00000E+00
 -1       627-4.80452E-06-1.00428E-06 0.00000E+00
 -1       628-4.73358E-06-9.58723E-07-8.27181E-25
 -1       629-4.97144E-06-1.27108E-06-8.27181E-25
 -1       630-4.67467E-06-1.32383E-06 0.00000E+00
 -1       631-4.36048E-06-1.37761E-06 0.00000E+00
 -1       632-4.04997E-06-1.43158E-06 0.00000E+00
 -1       633-3.76424E-06-1.48502E-06-2.06795E-25
 -1       634-5.03866E-06-1.26406E-06-3.30872E-24
 -1       635-4.84729E-06-1.29911E-06 1.65436E-24
 -1       636-4.65870E-06-1.32881E-06 0.00000E+00
 -1       637-4.47377E-06-1.35285E-06-1.65436E-24
 -1       638-4.29323E-06-1.37083E-06 0.00000E+00
 -1       639-4.11765E-06-1.38222E-06 0.00000E+00
 -1       640-3.94760E-06-1.38650E-06 0.00000E+00
 -1       641-3.78388E-06-1.38332E-06-1.65436E-24
 -1       642-3.62740E-06-1.37246E-06-3.30872E-24
 -1       643-4.58158E-06-9.59354E-07 0.00000E+00
 -1       644-4.49805E-06-9.23846E-07 0.00000E+00
 -1       645-4.41413E-06-8.58681E-07 0.00000E+00
 -1       646-4.33005E-06-7.76690E-07-1.65436E-24
 -1       647-4.24597E-06-6.90728E-07 0.00000E+00
 -1       648-4.16204E-06-6.13655E-07-8.27181E-25
 -1       649-4.07849E-06-5.58313E-07-1.65436E-24
 -1       650-4.48767E-06-1.01581E-06-8.27181E-25
 -1       651-4.28024E-06-1.08390E-06 0.00000E+00
 -1       652-4.05846E-06-1.15315E-06 0.00000E+00
 -1       653-3.83980E-06-1.22253E-06-8.27181E-25
 -1       654-3.64171E-06-1.29102E-06-7.23783E-25
 -1       655-4.50373E-06-9.51454E-07 0.00000E+00
 -1       656-4.33860E-06-9.51043E-07 1.65436E-24
 -1       657-4.17162E-06-9.51518E-07-3.30872E-24
 -1       658-4.00444E-06-9.51491E-07 1.65436E-24
 -1       659-3.83860E-06-9.49477E-07-3.30872E-24
 -1       660-3.67546E-06-9.43866E-07-1.65436E-24
 -1       661-3.51639E-06-9.33046E-07 0.00000E+00
 -1       662-3.36293E-06-9.15550E-07 1.65436E-24
 -1       663-3.21674E-06-8.90012E-07-3.30872E-24
 -1       664-3.93225E-06-5.34992E-07 1.65436E-24
 -1       665-3.86744E-06-5.04546E-07 0.00000E+00
 -1       666-3.80247E-06-4.54801E-07-1.65436E-24
 -1       667-3.73744E-06-3.94958E-07 8.27181E-25
 -1       668-3.67242E-06-3.34240E-07 1.65436E-24
 -1       669-3.60751E-06-2.81866E-07 0.00000E+00
 -1       670-3.54284E-06-2.47043E-07-8.27181E-25
 -1       671-3.86357E-06-5.87035E-07 0.00000E+00
 -1       672-3.70276E-06-6.41344E-07 0.00000E+00
 -1       673-3.52892E-06-6.96662E-07 8.27181E-25
 -1       674-3.35729E-06-7.52007E-07 0.00000E+00
 -1       675-3.20311E-06-8.06409E-07 0.00000E+00
 -1       676-3.85988E-06-5.05625E-07 0.00000E+00
 -1       677-3.71828E-06-4.74822E-07 0.00000E+00
 -1       678-3.57407E-06-4.45930E-07 0.00000E+00
 -1       679-3.42801E-06-4.18747E-07 0.00000E+00
 -1       680-3.28072E-06-3.92980E-07 3.30872E-24
 -1       681-3.13268E-06-3.68209E-07 0.00000E+00
 -1       682-2.98435E-06-3.44006E-07 0.00000E+00
 -1       683-2.83631E-06-3.20057E-07 1.65436E-24
 -1       684-2.68930E-06-2.96125E-07-3.30872E-24
 -1       685-3.42094E-06-2.62360E-07-1.65436E-24
 -1       686-3.36202E-06-2.73124E-07 0.00000E+00
 -1       687-3.30294E-06-2.74341E-07-1.65436E-24
 -1       688-3.24378E-06-2.69461E-07 0.00000E+00
 -1       689-3.18465E-06-2.61940E-07 1.65436E-24
 -1       690-3.12567E-06-2.55240E-07 8.27181E-25
 -1       691-3.06701E-06-2.52818E-07 0.00000E+00
 -1       692-3.35537E-06-2.43165E-07-2.06795E-25
 -1       693-3.19996E-06-2.49706E-07 1.03398E-25
 -1       694-3.02695E-06-2.56686E-07 1.03398E-25
 -1       695-2.85069E-06-2.63568E-07 2.06795E-25
 -1       696-2.68552E-06-2.69782E-07 0.00000E+00
 -1       697-3.40140E-06-2.25576E-07-1.65436E-24
 -1       698-3.32319E-06-2.10969E-07-8.27181E-25
 -1       699-3.24408E-06-1.97016E-07 1.65436E-24
 -1       700-3.16303E-06-1.85395E-07-8.27181E-25
 -1       701-3.07895E-06-1.77755E-07 0.00000E+00
 -1       702-2.99071E-06-1.75709E-07 0.00000E+00
 -1       703-2.89718E-06-1.80875E-07 1.65436E-24
 -1       704-2.79736E-06-1.94948E-07 8.27181E-25
 -1       705-2.69032E-06-2.19679E-07 0.00000E+00
 -1       706-2.92979E-06-2.75109E-07 1.65436E-24
 -1       707-2.84770E-06-2.81869E-07 0.00000E+00
 -1       708-2.76502E-06-2.78696E-07-3.30872E-24
 -1       709-2.68209E-06-2.66032E-07 0.00000E+00
 -1       710-2.59916E-06-2.44324E-07 0.00000E+00
 -1       711-2.51643E-06-2.14036E-07 0.00000E+00
 -1       712-2.43422E-06-1.75636E-07 0.00000E+00
 -1       713-2.97583E-06-2.56792E-07-1.03398E-25
 -1       714-2.92623E-06-2.56842E-07-1.03398E-25
 -1       715-2.86107E-06-2.57207E-07 0.00000E+00
 -1       716-2.78075E-06-2.57652E-07 0.00000E+00
 -1       717-2.68569E-06-2.57969E-07 0.00000E+00
 -1       718-2.97647E-06-2.76819E-07 0.00000E+00
 -1       719-2.94315E-06-2.96962E-07 0.00000E+00
 -1       720-2.91063E-06-3.16340E-07 0.00000E+00
 -1       721-2.88024E-06-3.33042E-07 4.13590E-25
 -1       722-2.85332E-06-3.45175E-07 8.27181E-25
 -1       723-2.83128E-06-3.50883E-07 0.00000E+00
 -1       724-2.81554E-06-3.48316E-07 0.00000E+00
 -1       725-2.80756E-06-3.35698E-07 0.00000E+00
 -1       726-2.80886E-06-3.11297E-07 0.00000E+00
 -1       727-2.24416E-06-6.95449E-08 0.00000E+00
 -1       728-2.13090E-06 1.49879E-08 1.65436E-24
 -1       729-2.01674E-06 1.24123E-07-3.30872E-24
 -1       730-1.90214E-06 2.57852E-07-1.65436E-24
 -1       731-1.78739E-06 4.16153E-07 3.30872E-24
 -1       732-1.67254E-06 5.98960E-07 0.00000E+00
 -1       733-1.55760E-06 8.06199E-07 3.30872E-24
 -1       734-2.42235E-06-1.50938E-07 0.00000E+00
 -1       735-2.49938E-06-1.74861E-07 2.06795E-25
 -1       736-2.58152E-06-1.99463E-07 0.00000E+00
 -1       737-2.66505E-06-2.24369E-07 0.00000E+00
 -1       738-2.74628E-06-2.49310E-07 0.00000E+00
 -1       739-2.35981E-06-7.50328E-08 0.00000E+00
 -1       740-2.37740E-06-5.28724E-09 0.00000E+00
 -1       741-2.40807E-06 8.17333E-08 0.00000E+00
 -1       742-2.45319E-06 1.87939E-07 0.00000E+00
 -1       743-2.51416E-06 3.15218E-07-1.65436E-24
 -1       744-2.59237E-06 4.65429E-07 0.00000E+00
 -1       745-2.68923E-06 6.40420E-07-1.65436E-24
 -1       746-2.80618E-06 8.41964E-07 0.00000E+00
 -1       747-2.94468E-06 1.07180E-06 0.00000E+00
 -1       748-1.26883E-06 1.43619E-06 0.00000E+00
 -1       749-1.09275E-06 1.95893E-06 3.30872E-24
 -1       750-9.16102E-07 2.58561E-06 6.61744E-24
 -1       751-7.39281E-07 3.29495E-06 0.00000E+00
 -1       752-5.62589E-07 4.06563E-06 0.00000E+00
 -1       753-3.86479E-07 4.87622E-06 0.00000E+00
 -1       754-2.11587E-07 5.70527E-06 0.00000E+00
 -1       755-1.68478E-06 1.09058E-06 3.30872E-24
 -1       756-1.93897E-06 1.14044E-06 8.27181E-25
 -1       757-2.20671E-06 1.18940E-06 0.00000E+00
 -1       758-2.48953E-06 1.23771E-06 8.27181E-25
 -1       759-2.78900E-06 1.28537E-06 0.00000E+00
 -1       760-1.51952E-06 1.36750E-06 0.00000E+00
 -1       761-1.63739E-06 1.75305E-06 0.00000E+00
 -1       762-1.79244E-06 2.18847E-06 0.00000E+00
 -1       763-1.98035E-06 2.66777E-06 3.30872E-24
 -1       764-2.19675E-06 3.18499E-06-6.61744E-24
 -1       765-2.43722E-06 3.73411E-06-3.30872E-24
 -1       766-2.69739E-06 4.30905E-06 0.00000E+00
 -1       767-2.97318E-06 4.90354E-06-1.65436E-24
 -1       768-3.26069E-06 5.51114E-06 0.00000E+00
 -1       769 4.20299E-08 7.30979E-06 0.00000E+00
 -1       770 1.26082E-07 8.12009E-06 0.00000E+00
 -1       771 2.10273E-07 8.95567E-06-3.30872E-24
 -1       772 2.94478E-07 9.80944E-06 1.65436E-24
 -1       773 3.78588E-07 1.06743E-05 3.30872E-24
 -1       774 4.62361E-07 1.15432E-05 8.27181E-25
 -1       775 5.45441E-07 1.24090E-05 0.00000E+00
 -1       776-6.88809E-07 6.46885E-06 0.00000E+00
 -1       777-1.29310E-06 6.40024E-06 0.00000E+00
 -1       778-1.86805E-06 6.33022E-06 0.00000E+00
 -1       779-2.42787E-06 6.25983E-06-8.27181E-25
 -1       780-2.98677E-06 6.19003E-06-8.27181E-25
 -1       781-4.07705E-07 7.15661E-06 0.00000E+00
 -1       782-7.71225E-07 7.77898E-06 1.65436E-24
 -1       783-1.13358E-06 8.40004E-06 0.00000E+00
 -1       784-1.49614E-06 9.02148E-06 0.00000E+00
 -1       785-1.86026E-06 9.64501E-06 0.00000E+00
 -1       786-2.22731E-06 1.02723E-05 0.00000E+00
 -1       787-2.59867E-06 1.09051E-05-3.30872E-24
 -1       788-2.97588E-06 1.15448E-05 0.00000E+00
 -1       789-3.36066E-06 1.21930E-05-1.65436E-24
 -1       790 6.55240E-07 1.41167E-05 0.00000E+00
 -1       791 6.84939E-07 1.49874E-05 0.00000E+00
 -1       792 7.14700E-07 1.58716E-05 0.00000E+00
 -1       793 7.44469E-07 1.67640E-05-4.13590E-25
 -1       794 7.74193E-07 1.76593E-05-8.27181E-25
 -1       795 8.03755E-07 1.85520E-05-4.13590E-25
 -1       796 8.32983E-07 1.94370E-05 2.06795E-25
 -1       797-1.37751E-07 1.31988E-05 0.00000E+00
 -1       798-8.75185E-07 1.31290E-05-8.27181E-25
 -1       799-1.59600E-06 1.30582E-05-1.65436E-24
 -1       800-2.30998E-06 1.29874E-05 8.27181E-25
 -1       801-3.02690E-06 1.29171E-05 0.00000E+00
 -1       802 1.73622E-07 1.39411E-05 0.00000E+00
 -1       803-2.75370E-07 1.46150E-05 4.13590E-25
 -1       804-7.22384E-07 1.52867E-05 0.00000E+00
 -1       805-1.16822E-06 1.59571E-05 0.00000E+00
 -1       806-1.61363E-06 1.66269E-05-1.65436E-24
 -1       807-2.05936E-06 1.72970E-05 0.00000E+00
 -1       808-2.50614E-06 1.79685E-05 0.00000E+00
 -1       809-2.95482E-06 1.86419E-05-4.13590E-25
 -1       810-3.40632E-06 1.93182E-05 0.00000E+00
 -1       811 8.65273E-07 2.11671E-05 2.06795E-25
 -1       812 8.69848E-07 2.20328E-05-1.03398E-25
 -1       813 8.74469E-07 2.29032E-05 0.00000E+00
 -1       814 8.79094E-07 2.37756E-05 0.00000E+00
 -1       815 8.83684E-07 2.46471E-05 5.16988E-26
 -1       816 8.88146E-07 2.55150E-05 0.00000E+00
 -1       817 8.92341E-07 2.63764E-05 0.00000E+00
 -1       818 5.53668E-08 2.02587E-05 0.00000E+00
 -1       819-7.34230E-07 2.02062E-05 0.00000E+00
 -1       820-1.51429E-06 2.01533E-05 0.00000E+00
 -1       821-2.29136E-06 2.01003E-05 4.13590E-25
 -1       822-3.07198E-06 2.00477E-05 0.00000E+00
 -1       823 3.71271E-07 2.09872E-05 2.06795E-25
 -1       824-1.14558E-07 2.16617E-05 0.00000E+00
 -1       825-5.97408E-07 2.23324E-05-4.13590E-25
 -1       826-1.07778E-06 2.30001E-05 0.00000E+00
 -1       827-1.55617E-06 2.36651E-05 0.00000E+00
 -1       828-2.03304E-06 2.43280E-05 0.00000E+00
 -1       829-2.50884E-06 2.49895E-05 0.00000E+00
 -1       830-2.98410E-06 2.56499E-05 0.00000E+00
 -1       831-3.45941E-06 2.63098E-05-5.16988E-26
 -1       832 7.75083E-08 2.71861E-05 8.27181E-25
 -1       833-7.31488E-07 2.71426E-05 0.00000E+00
 -1       834-1.53438E-06 2.70988E-05-1.65436E-24
 -1       835-2.33413E-06 2.70550E-05 4.13590E-25
 -1       836-3.13369E-06 2.70115E-05 0.00000E+00
 -1       837-2.91408E-06 2.24793E-07-4.13590E-25
 -1       838-2.95857E-06-8.84753E-09 3.10193E-25
 -1       839-3.00312E-06-2.08870E-07-4.13590E-25
 -1       840-3.04766E-06-3.84502E-07 4.13590E-25
 -1       841-3.09215E-06-5.44996E-07 8.27181E-25
 -1       842-3.13642E-06-6.99636E-07 0.00000E+00
 -1       843-3.18028E-06-8.57694E-07 8.27181E-25
 -1       844-2.42192E-06 4.20229E-07 0.00000E+00
 -1       845-1.93455E-06 3.37521E-07 0.00000E+00
 -1       846-1.42803E-06 2.54211E-07-3.30872E-24
 -1       847-9.23043E-07 1.70416E-07 8.27181E-25
 -1       848-4.40280E-07 8.60887E-08-1.65436E-24
 -1       849-2.66310E-06 2.61668E-07 0.00000E+00
 -1       850-2.46915E-06 4.40932E-08 0.00000E+00
 -1       851-2.28842E-06-1.54651E-07 0.00000E+00
 -1       852-2.11989E-06-3.36569E-07 0.00000E+00
 -1       853-1.96241E-06-5.03605E-07 0.00000E+00
 -1       854-1.81472E-06-6.57633E-07 4.13590E-25
 -1       855-1.67555E-06-8.00538E-07 0.00000E+00
 -1       856-1.54386E-06-9.34361E-07 0.00000E+00
 -1       857-1.41871E-06-1.06124E-06 0.00000E+00
 -1       858-3.25923E-06-1.17231E-06 6.20385E-25
 -1       859-3.29724E-06-1.27052E-06-1.55096E-25
 -1       860-3.33558E-06-1.33405E-06-8.27181E-25
 -1       861-3.37405E-06-1.37444E-06 0.00000E+00
 -1       862-3.41249E-06-1.40325E-06 0.00000E+00
 -1       863-3.45068E-06-1.43207E-06 0.00000E+00
 -1       864-3.48834E-06-1.47247E-06 8.27181E-25
 -1       865-2.91405E-06-1.05281E-06 8.27181E-25
 -1       866-2.57760E-06-1.07818E-06-4.13590E-25
 -1       867-2.23050E-06-1.10384E-06-8.27181E-25
 -1       868-1.89039E-06-1.12986E-06 4.13590E-25
 -1       869-1.57488E-06-1.15640E-06-8.27181E-25
 -1       870-3.07696E-06-1.15899E-06-8.27181E-25
 -1       871-2.94470E-06-1.26845E-06 0.00000E+00
 -1       872-2.82533E-06-1.35982E-06-1.65436E-24
 -1       873-2.71731E-06-1.43562E-06 0.00000E+00
 -1       874-2.61902E-06-1.49836E-06 0.00000E+00
 -1       875-2.52872E-06-1.55048E-06 0.00000E+00
 -1       876-2.44471E-06-1.59445E-06 1.65436E-24
 -1       877-2.36542E-06-1.63285E-06 0.00000E+00
 -1       878-2.28945E-06-1.66837E-06 0.00000E+00
 -1       879-3.51863E-06-1.58349E-06 0.00000E+00
 -1       880-3.51353E-06-1.58624E-06 0.00000E+00
 -1       881-3.50849E-06-1.55619E-06 0.00000E+00
 -1       882-3.50344E-06-1.50595E-06 2.06795E-25
 -1       883-3.49837E-06-1.44815E-06 1.03398E-25
 -1       884-3.49317E-06-1.39543E-06-1.03398E-25
 -1       885-3.48771E-06-1.36041E-06 1.03398E-25
 -1       886-3.31584E-06-1.56196E-06 0.00000E+00
 -1       887-3.08269E-06-1.58983E-06 4.13590E-25
 -1       888-2.84023E-06-1.61816E-06 4.13590E-25
 -1       889-2.60452E-06-1.64677E-06-2.06795E-25
 -1       890-2.39157E-06-1.67559E-06 4.13590E-25
 -1       891-3.40791E-06-1.58786E-06-1.65436E-24
 -1       892-3.29961E-06-1.62571E-06 0.00000E+00
 -1       893-3.19967E-06-1.65137E-06 0.00000E+00
 -1       894-3.10754E-06-1.66613E-06-8.27181E-25
 -1       895-3.02257E-06-1.67123E-06 0.00000E+00
 -1       896-2.94398E-06-1.66783E-06 0.00000E+00
 -1       897-2.87102E-06-1.65710E-06-1.65436E-24
 -1       898-2.80308E-06-1.64034E-06-8.27181E-25
 -1       899-2.73962E-06-1.61889E-06 0.00000E+00
 -1       900-3.43239E-06-1.34719E-06-1.65436E-24
 -1       901-3.38251E-06-1.29929E-06-1.65436E-24
 -1       902-3.33237E-06-1.22358E-06-1.65436E-24
 -1       903-3.28211E-06-1.13230E-06 0.00000E+00
 -1       904-3.23182E-06-1.03772E-06-1.65436E-24
 -1       905-3.18154E-06-9.52122E-07 0.00000E+00
 -1       906-3.13131E-06-8.87754E-07 0.00000E+00
 -1       907-3.35035E-06-1.39270E-06 0.00000E+00
 -1       908-3.20136E-06-1.43294E-06 4.13590E-25
 -1       909-3.04706E-06-1.47390E-06-8.27181E-25
 -1       910-2.90042E-06-1.51503E-06-2.06795E-25
 -1       911-2.77439E-06-1.55589E-06-2.32645E-25
 -1       912-3.37507E-06-1.35882E-06 0.00000E+00
 -1       913-3.26942E-06-1.35724E-06 0.00000E+00
 -1       914-3.16633E-06-1.35114E-06 3.30872E-24
 -1       915-3.06655E-06-1.34008E-06 0.00000E+00
 -1       916-2.97074E-06-1.32358E-06-3.30872E-24
 -1       917-2.87945E-06-1.30104E-06 0.00000E+00
 -1       918-2.79320E-06-1.27189E-06 0.00000E+00
 -1       919-2.71263E-06-1.23561E-06 0.00000E+00
 -1       920-2.63841E-06-1.19176E-06 0.00000E+00
 -1       921-3.01538E-06-8.18857E-07 0.00000E+00
 -1       922-2.94850E-06-7.44661E-07 1.65436E-24
 -1       923-2.88137E-06-6.46959E-07 0.00000E+00
 -1       924-2.81412E-06-5.39104E-07 0.00000E+00
 -1       925-2.74684E-06-4.34473E-07 0.00000E+00
 -1       926-2.67958E-06-3.46438E-07 4.13590E-25
 -1       927-2.61240E-06-2.88344E-07-1.65436E-24
 -1       928-2.99264E-06-9.00828E-07 2.06795E-25
 -1       929-2.89227E-06-9.49120E-07-4.13590E-25
 -1       930-2.79005E-06-9.98320E-07 8.27181E-25
 -1       931-2.69601E-06-1.04756E-06-3.10193E-25
 -1       932-2.62015E-06-1.09598E-06 0.00000E+00
 -1       933-2.95333E-06-8.30897E-07 0.00000E+00
 -1       934-2.81790E-06-8.09612E-07 0.00000E+00
 -1       935-2.67878E-06-7.91798E-07 3.30872E-24
 -1       936-2.53815E-06-7.75280E-07-1.65436E-24
 -1       937-2.39807E-06-7.57788E-07 0.00000E+00
 -1       938-2.26047E-06-7.36923E-07 1.65436E-24
 -1       939-2.12722E-06-7.10270E-07 3.30872E-24
 -1       940-2.00023E-06-6.75454E-07 0.00000E+00
 -1       941-1.88146E-06-6.30128E-07 0.00000E+00
 -1       942-2.54632E-06-2.83398E-07 0.00000E+00
 -1       943-2.54992E-06-2.70742E-07-4.13590E-25
 -1       944-2.55423E-06-2.44738E-07-2.06795E-25
 -1       945-2.55890E-06-2.15197E-07 0.00000E+00
 -1       946-2.56364E-06-1.91941E-07 0.00000E+00
 -1       947-2.56833E-06-1.84782E-07 0.00000E+00
 -1       948-2.57281E-06-2.03513E-07 0.00000E+00
 -1       949-2.41175E-06-3.20085E-07 1.03398E-25
 -1       950-2.26158E-06-3.71789E-07 2.06795E-25
 -1       951-2.10876E-06-4.24488E-07 4.13590E-25
 -1       952-1.96721E-06-4.76965E-07 0.00000E+00
 -1       953-1.85086E-06-5.27933E-07-1.65436E-24
 -1       954-2.32744E-06-2.08880E-07 0.00000E+00
 -1       955-2.09437E-06-1.52904E-07 3.30872E-24
 -1       956-1.85134E-06-1.07145E-07 0.00000E+00
 -1       957-1.60009E-06-7.08921E-08-3.30872E-24
 -1       958-1.34208E-06-4.32445E-08 0.00000E+00
 -1       959-1.07850E-06-2.30541E-08 3.30872E-24
 -1       960-8.10509E-07-9.17388E-09-6.61744E-24
 -1       961-5.39639E-07-7.15755E-10 3.30872E-24
 -1       962-2.67662E-07 3.01655E-09-3.30872E-24
 -1       963-2.60480E-06-3.44595E-07 0.00000E+00
 -1       964-2.63523E-06-4.01715E-07 4.13590E-25
 -1       965-2.66619E-06-4.31596E-07-7.23783E-25
 -1       966-2.69740E-06-4.37115E-07 2.06795E-25
 -1       967-2.72868E-06-4.21170E-07 6.20385E-25
 -1       968-2.75993E-06-3.86695E-07 2.06795E-25
 -1       969-2.79104E-06-3.36633E-07 4.13590E-25
 -1       970-2.23396E-06-2.16033E-07 0.00000E+00
 -1       971-1.80165E-06-1.73297E-07 1.03398E-25
 -1       972-1.32039E-06-1.30250E-07-1.65436E-24
 -1       973-8.31967E-07-8.70165E-08 0.00000E+00
 -1       974-3.78160E-07-4.36569E-08 0.00000E+00
 -1       975-2.50546E-06-3.22969E-07-8.27181E-25
 -1       976-2.44731E-06-3.71195E-07 0.00000E+00
 -1       977-2.40085E-06-4.03811E-07-8.27181E-25
 -1       978-2.36489E-06-4.22474E-07 0.00000E+00
 -1       979-2.33820E-06-4.28854E-07 0.00000E+00
 -1       980-2.31963E-06-4.24674E-07 0.00000E+00
 -1       981-2.30801E-06-4.11684E-07 0.00000E+00
 -1       982-2.30256E-06-3.91901E-07 0.00000E+00
 -1       983-2.30271E-06-3.67517E-07 0.00000E+00
 -1       984-2.85672E-06-1.97078E-07 3.10193E-25
 -1       985-2.89267E-06-8.37946E-08 3.10193E-25
 -1       986-2.92882E-06 6.55382E-08 2.06795E-25
 -1       987-2.96504E-06 2.50336E-07 1.03398E-25
 -1       988-3.00122E-06 4.69990E-07-8.27181E-25
 -1       989-3.03719E-06 7.23826E-07 2.06795E-25
 -1       990-3.07272E-06 1.01116E-06-4.13590E-25
 -1       991-2.78120E-06-2.83903E-07 0.00000E+00
 -1       992-2.70004E-06-2.93590E-07 0.00000E+00
 -1       993-2.59510E-06-3.03426E-07 8.27181E-25
 -1       994-2.48374E-06-3.13927E-07-4.13590E-25
 -1       995-2.38337E-06-3.25829E-07 0.00000E+00
 -1       996-2.88820E-06-2.14461E-07 4.13590E-25
 -1       997-2.97753E-06-1.24663E-07 0.00000E+00
 -1       998-3.08802E-06-6.66356E-09 0.00000E+00
 -1       999-3.21798E-06 1.37240E-07 2.06795E-25
 -1      1000-3.36568E-06 3.04723E-07-4.13590E-25
 -1      1001-3.52942E-06 4.93410E-07 4.13590E-25
 -1      1002-3.70751E-06 7.00908E-07 6.20385E-25
 -1      1003-3.89853E-06 9.24615E-07 4.13590E-25
 -1      1004-4.10116E-06 1.16182E-06-1.65436E-24
 -1      1005-3.16054E-06 1.75345E-06 0.00000E+00
 -1      1006-3.21727E-06 2.24976E-06 4.13590E-25
 -1      1007-3.27472E-06 2.80868E-06 8.27181E-25
 -1      1008-3.33248E-06 3.41828E-06-5.16988E-26
 -1      1009-3.39027E-06 4.06659E-06 0.00000E+00
 -1      1010-3.44778E-06 4.74155E-06 0.00000E+00
 -1      1011-3.50463E-06 5.43111E-06-8.27181E-25
 -1      1012-3.34291E-06 1.34561E-06 0.00000E+00
 -1      1013-3.54189E-06 1.36048E-06 0.00000E+00
 -1      1014-3.72090E-06 1.37520E-06 0.00000E+00
 -1      1015-3.89781E-06 1.38919E-06-1.55096E-25
 -1      1016-4.09044E-06 1.40162E-06-1.65436E-24
 -1      1017-3.31601E-06 1.65949E-06-1.65436E-24
 -1      1018-3.55723E-06 2.03207E-06 0.00000E+00
 -1      1019-3.82728E-06 2.44355E-06 1.65436E-24
 -1      1020-4.12247E-06 2.88870E-06-8.27181E-25
 -1      1021-4.43902E-06 3.36232E-06 0.00000E+00
 -1      1022-4.77315E-06 3.85917E-06 0.00000E+00
 -1      1023-5.12108E-06 4.37399E-06 0.00000E+00
 -1      1024-5.47931E-06 4.90130E-06 0.00000E+00
 -1      1025-5.84457E-06 5.43546E-06 0.00000E+00
 -1      1026-3.58224E-06 6.85487E-06 0.00000E+00
 -1      1027-3.60692E-06 7.64526E-06 0.00000E+00
 -1      1028-3.63196E-06 8.48101E-06-4.13590E-25
 -1      1029-3.65716E-06 9.34813E-06 1.03398E-25
 -1      1030-3.68238E-06 1.02326E-05 4.13590E-25
 -1      1031-3.70752E-06 1.11203E-05 0.00000E+00
 -1      1032-3.73243E-06 1.19972E-05 8.27181E-25
 -1      1033-4.05375E-06 6.10011E-06 0.00000E+00
 -1      1034-4.49236E-06 6.07563E-06-1.65436E-24
 -1      1035-4.90105E-06 6.05069E-06 0.00000E+00
 -1      1036-5.30675E-06 6.02514E-06-4.13590E-25
 -1      1037-5.73638E-06 5.99865E-06-8.27181E-25
 -1      1038-3.91193E-06 6.69399E-06 0.00000E+00
 -1      1039-4.27973E-06 7.28857E-06 0.00000E+00
 -1      1040-4.66207E-06 7.90361E-06 0.00000E+00
 -1      1041-5.05739E-06 8.53645E-06 0.00000E+00
 -1      1042-5.46405E-06 9.18450E-06 0.00000E+00
 -1      1043-5.88028E-06 9.84516E-06-8.27181E-25
 -1      1044-6.30433E-06 1.05159E-05 0.00000E+00
 -1      1045-6.73472E-06 1.11939E-05 0.00000E+00
 -1      1046-7.17018E-06 1.18763E-05 0.00000E+00
 -1      1047-3.76929E-06 1.36887E-05 0.00000E+00
 -1      1048-3.78256E-06 1.45629E-05 2.06795E-25
 -1      1049-3.79595E-06 1.54624E-05-2.06795E-25
 -1      1050-3.80939E-06 1.63775E-05 0.00000E+00
 -1      1051-3.82285E-06 1.72984E-05 0.00000E+00
 -1      1052-3.83627E-06 1.82152E-05 0.00000E+00
 -1      1053-3.84960E-06 1.91179E-05 0.00000E+00
 -1      1054-4.42512E-06 1.28033E-05 0.00000E+00
 -1      1055-5.05591E-06 1.27551E-05-2.48154E-24
 -1      1056-5.66924E-06 1.27064E-05 1.65436E-24
 -1      1057-6.28592E-06 1.26574E-05-4.13590E-25
 -1      1058-6.92674E-06 1.26081E-05 0.00000E+00
 -1      1059-4.19409E-06 1.35092E-05 0.00000E+00
 -1      1060-4.63711E-06 1.41798E-05 0.00000E+00
 -1      1061-5.08617E-06 1.48594E-05 0.00000E+00
 -1      1062-5.54074E-06 1.55469E-05 0.00000E+00
 -1      1063-6.00025E-06 1.62410E-05 0.00000E+00
 -1      1064-6.46399E-06 1.69408E-05 0.00000E+00
 -1      1065-6.93130E-06 1.76450E-05-1.65436E-24
 -1      1066-7.40163E-06 1.83526E-05 4.13590E-25
 -1      1067-7.87458E-06 1.90622E-05 4.13590E-25
 -1      1068-3.87157E-06 2.08530E-05 1.03398E-25
 -1      1069-3.88064E-06 2.17241E-05 1.29247E-26
 -1      1070-3.88975E-06 2.26052E-05 2.06795E-25
 -1      1071-3.89889E-06 2.34908E-05 0.00000E+00
 -1      1072-3.90805E-06 2.43755E-05 0.00000E+00
 -1      1073-3.91724E-06 2.52537E-05 0.00000E+00
 -1      1074-3.92649E-06 2.61200E-05 0.00000E+00
 -1      1075-4.62139E-06 1.99608E-05 0.00000E+00
 -1      1076-5.35928E-06 1.99232E-05 0.00000E+00
 -1      1077-6.08866E-06 1.98852E-05 8.27181E-25
 -1      1078-6.82213E-06 1.98471E-05-4.13590E-25
 -1      1079-7.57226E-06 1.98091E-05 8.27181E-25
 -1      1080-4.33694E-06 2.06745E-05 0.00000E+00
 -1      1081-4.81110E-06 2.13542E-05 0.00000E+00
 -1      1082-5.28583E-06 2.20354E-05 0.00000E+00
 -1      1083-5.76113E-06 2.27177E-05 0.00000E+00
 -1      1084-6.23695E-06 2.34007E-05-8.27181E-25
 -1      1085-6.71314E-06 2.40842E-05 0.00000E+00
 -1      1086-7.18959E-06 2.47679E-05 0.00000E+00
 -1      1087-7.66624E-06 2.54516E-05 4.13590E-25
 -1      1088-8.14310E-06 2.61348E-05 4.13590E-25
 -1      1089-4.72112E-06 2.69440E-05-8.27181E-25
 -1      1090-5.49645E-06 2.69184E-05 4.13590E-25
 -1      1091-6.26803E-06 2.68927E-05 0.00000E+00
 -1      1092-7.04194E-06 2.68670E-05 2.06795E-25
 -1      1093-7.82427E-06 2.68415E-05-2.06795E-25
 -1      1094-1.61748E-07-2.53905E-07 0.00000E+00
 -1      1095-3.25224E-07-4.55678E-07 0.00000E+00
 -1      1096-4.89114E-07-6.15967E-07-6.61744E-24
 -1      1097-6.53137E-07-7.45884E-07 0.00000E+00
 -1      1098-8.17054E-07-8.56571E-07 3.30872E-24
 -1      1099-9.80479E-07-9.59213E-07 1.65436E-24
 -1      1100-1.14286E-06-1.06498E-06-3.30872E-24
 -1      1101-1.41424E-06-1.31399E-06 1.65436E-24
 -1      1102-1.52928E-06-1.41103E-06 0.00000E+00
 -1      1103-1.64480E-06-1.48266E-06 3.30872E-24
 -1      1104-1.76051E-06-1.53589E-06 0.00000E+00
 -1      1105-1.87617E-06-1.57771E-06 0.00000E+00
 -1      1106-1.99144E-06-1.61517E-06 0.00000E+00
 -1      1107-2.10588E-06-1.65528E-06 3.30872E-24
 -1      1108-2.27485E-06-1.74462E-06 0.00000E+00
 -1      1109-2.33342E-06-1.75510E-06-4.13590E-25
 -1      1110-2.39218E-06-1.74320E-06 0.00000E+00
 -1      1111-2.45099E-06-1.71597E-06 0.00000E+00
 -1      1112-2.50973E-06-1.68049E-06 0.00000E+00
 -1      1113-2.56819E-06-1.64385E-06-8.27181E-25
 -1      1114-2.62605E-06-1.61312E-06 0.00000E+00
 -1      1115-2.66919E-06-1.57428E-06 0.00000E+00
 -1      1116-2.65596E-06-1.53002E-06-4.13590E-25
 -1      1117-2.64251E-06-1.46886E-06 0.00000E+00
 -1      1118-2.62894E-06-1.39740E-06-2.06795E-25
 -1      1119-2.61528E-06-1.32226E-06 0.00000E+00
 -1      1120-2.60146E-06-1.25006E-06 0.00000E+00
 -1      1121-2.58737E-06-1.18739E-06 0.00000E+00
 -1      1122-2.47553E-06-1.09069E-06 0.00000E+00
 -1      1123-2.37614E-06-1.02094E-06 0.00000E+00
 -1      1124-2.27604E-06-9.38192E-07 3.30872E-24
 -1      1125-2.17560E-06-8.49395E-07 0.00000E+00
 -1      1126-2.07503E-06-7.61498E-07 3.30872E-24
 -1      1127-1.97442E-06-6.81448E-07 1.65436E-24
 -1      1128-1.87381E-06-6.16182E-07 3.30872E-24
 -1      1129-1.55588E-06-4.86253E-07 1.32349E-23
 -1      1130-1.33310E-06-3.72587E-07 3.30872E-24
 -1      1131-1.10896E-06-2.47088E-07 0.00000E+00
 -1      1132-8.84286E-07-1.25717E-07-3.30872E-24
 -1      1133-6.59699E-07-2.44503E-08 6.61744E-24
 -1      1134-4.35981E-07 4.07659E-08-1.65436E-24
 -1      1135-2.14205E-07 5.40214E-08-3.30872E-24
 -1      1136-2.73260E-07-1.29721E-07 3.30872E-24
 -1      1137-5.61330E-07-2.29116E-07 0.00000E+00
 -1      1138-8.53221E-07-3.00769E-07 0.00000E+00
 -1      1139-1.14689E-06-3.47515E-07 3.30872E-24
 -1      1140-1.44090E-06-3.72212E-07 6.61744E-24
 -1      1141-1.73435E-06-3.77760E-07 0.00000E+00
 -1      1142-2.02613E-06-3.67068E-07 0.00000E+00
 -1      1143-2.55723E-06-2.75531E-07 0.00000E+00
 -1      1144-2.80849E-06-1.54452E-07-3.30872E-24
 -1      1145-3.06104E-06 1.52845E-08 0.00000E+00
 -1      1146-3.31415E-06 2.28420E-07 0.00000E+00
 -1      1147-3.56724E-06 4.79657E-07 0.00000E+00
 -1      1148-3.81973E-06 7.63618E-07 0.00000E+00
 -1      1149-4.07080E-06 1.07492E-06-6.61744E-24
 -1      1150-4.54950E-06 1.80882E-06 3.30872E-24
 -1      1151-4.78770E-06 2.27854E-06 0.00000E+00
 -1      1152-5.02719E-06 2.80731E-06 6.61744E-24
 -1      1153-5.26721E-06 3.38466E-06 0.00000E+00
 -1      1154-5.50723E-06 4.00008E-06 6.61744E-24
 -1      1155-5.74659E-06 4.64297E-06 0.00000E+00
 -1      1156-5.98444E-06 5.30271E-06 6.61744E-24
 -1      1157-6.38837E-06 6.67333E-06 0.00000E+00
 -1      1158-6.56356E-06 7.43568E-06 1.65436E-24
 -1      1159-6.73958E-06 8.24430E-06 0.00000E+00
 -1      1160-6.91594E-06 9.08710E-06 1.65436E-24
 -1      1161-7.09223E-06 9.95199E-06 0.00000E+00
 -1      1162-7.26797E-06 1.08268E-05 0.00000E+00
 -1      1163-7.44246E-06 1.16995E-05 0.00000E+00
 -1      1164-7.70372E-06 1.34087E-05-3.30872E-24
 -1      1165-7.79666E-06 1.42904E-05-1.65436E-24
 -1      1166-7.88992E-06 1.51951E-05 1.65436E-24
 -1      1167-7.98331E-06 1.61145E-05-1.65436E-24
 -1      1168-8.07663E-06 1.70402E-05-3.30872E-24
 -1      1169-8.16962E-06 1.79637E-05 0.00000E+00
 -1      1170-8.26188E-06 1.88769E-05 1.65436E-24
 -1      1171-8.38510E-06 2.06446E-05 8.27181E-25
 -1      1172-8.41906E-06 2.15287E-05 0.00000E+00
 -1      1173-8.45307E-06 2.24194E-05 8.27181E-25
 -1      1174-8.48709E-06 2.33121E-05 4.13590E-25
 -1      1175-8.52107E-06 2.42026E-05 8.27181E-25
 -1      1176-8.55491E-06 2.50864E-05 8.27181E-25
 -1      1177-8.58848E-06 2.59592E-05 0.00000E+00
 -3
    1PSTEP                         2           1           1          
  100CL  101 1.000000000        1001                     0    1           1
 -4  STRESS      6    1
 -5  SXX         1    4    1    1
 -5  SYY         1    4    2    2
 -5  SZZ         1    4    3    3
 -5  SXY         1    4    1    2
 -5  SYZ         1    4    2    3
 -5  SZX         1    4    3    1
 -1         1 6.98657E+05 2.68098E+05 2.63378E+02 3.13412E+05-6.12393E-11 3.03165E-11
 -1         2 6.09647E+05 9.58648E+02-4.39034E+02 8.23401E+04-1.50067E-11-8.59472E-11
 -1         3 3.81690E+05-2.49992E+04-4.04482E+02 3.65936E+04 9.09495E-13-1.13687E-11
 -1         4 2.63858E+05-1.69476E+04-2.81007E+02 1.98627E+04 1.36424E-12-3.26281E-10
 -1         5 1.93263E+05-3.60729E+03-1.80409E+02 1.16804E+04 2.03499E-11-2.01226E-10
 -1         6 1.48494E+05 3.15274E+03-1.23049E+02 7.15600E+03-4.78622E-11 1.46656E-10
 -1         7 1.10113E+05 5.45291E+03-1.22167E+02 1.19487E+04-3.31966E-11-2.06626E-11
 -1         8 5.44445E+04 2.54737E+04-1.04559E+02 2.11956E+04 2.93312E-11 3.63002E-10
 -1         9 1.75118E+04 8.27852E+04-2.14995E+00 7.89705E+03 4.18368E-11-5.05977E-11
 -1        14 7.15801E+04 1.33727E+05-6.87892E+02 2.02369E+05-2.72848E-12-9.90440E-10
 -1        15 2.62069E+05 3.37429E+04-7.52692E+02 1.88182E+05 3.48640E-11-9.21621E-11
 -1        16 2.41940E+05-2.51259E+04-6.56422E+02 1.11099E+05-5.33570E-11 1.15809E-10
 -1        17 1.92239E+05-2.35936E+04-4.91933E+02 6.81436E+04 8.94336E-12 2.88613E-10
 -1        18 1.46503E+05-5.70674E+03-3.34569E+02 4.38083E+04-2.82322E-11 2.31087E-10
 -1        19 1.15632E+05 4.63797E+03-2.10310E+02 2.26383E+04-4.91885E-11 7.65491E-12
 -1        20 1.05207E+05-7.92126E+02-1.76945E+02 1.72164E+04-6.06330E-13 6.25657E-11
 -1        21 1.01170E+05 1.92548E+04-1.63086E+02 4.83595E+04 8.67810E-11 1.28390E-10
 -1        22 3.76049E+04 1.31693E+05 2.88075E+01 7.38638E+04 1.61094E-10 2.33326E-10
 -1        27-9.41378E+02-1.79355E+04-2.73776E+02 4.89428E+04-3.04681E-11-2.31921E-11
 -1        28 5.89773E+04 2.66736E+04-3.15865E+02 1.13229E+05 9.37537E-11 2.42532E-11
 -1        29 1.28977E+05 6.66182E+02-4.38692E+02 1.27984E+05-1.19068E-10 3.78956E-12
 -1        30 1.48269E+05-1.00755E+04-4.22778E+02 1.05243E+05 3.10744E-11 8.65536E-11
 -1        31 1.35768E+05 5.43236E+03-3.42695E+02 8.77107E+04-5.82835E-11-8.57957E-11
 -1        32 9.78642E+04 2.32757E+04-2.15123E+02 5.70795E+04-6.61278E-11 1.13914E-10
 -1        33 8.20038E+04 3.39501E+03-1.15955E+02 1.47116E+04-1.17476E-11 4.39589E-12
 -1        34 1.09379E+05-7.09527E+03-1.34011E+02 1.53693E+04-7.75344E-11 3.03165E-12
 -1        35 2.13669E+05 1.29341E+05 2.42347E+02 1.08001E+05-3.80169E-10-1.21531E-10
 -1        36 2.05301E+05-9.44750E+03-1.22885E+02 8.23519E+04-4.35068E-09-9.21546E-10
 -1        37 9.00384E+04-2.63057E+04-1.50140E+02 4.24581E+04 1.85986E-09-8.83347E-11
 -1        38 2.57168E+04-2.68085E+04-1.04927E+02 2.32390E+04 3.92220E-10-1.67802E-10
 -1        39-1.18772E+03-5.44336E+04-1.52026E+02 1.50498E+04 6.04359E-09-1.17313E-09
 -1        40-2.85670E+04-7.96350E+04-2.74965E+01 5.03294E+04-8.59472E-11 2.54204E-10
 -1        41-1.63694E+04-4.72003E+03-3.98716E+01 6.43684E+04-7.31385E-11 7.27596E-12
 -1        42 2.90219E+04-1.58116E+03-1.84865E+02 8.57625E+04-3.37271E-11 6.89700E-11
 -1        43 8.27392E+04-5.03666E+03-2.83606E+02 8.91601E+04 9.08737E-11 2.29344E-10
 -1        44 1.23255E+05 3.95131E+03-3.43961E+02 9.26585E+04-2.03878E-11-2.12594E-10
 -1        45 1.29591E+05 4.04778E+04-3.58400E+02 1.12978E+05 2.53143E-11-1.27329E-11
 -1        46 1.02036E+04 3.54764E+04-1.06454E+02 6.60884E+04 2.34953E-12-1.96223E-10
 -1        47-3.23613E+04-1.78495E+04 8.39179E+01 1.26014E+04-1.30891E-10 1.97057E-12
 -1        48-2.21949E+04 3.58904E+04 8.87497E+01 3.95725E+04-4.92416E-10 1.25624E-10
 -1        49 9.17972E+03 1.35398E+03-1.52999E+02 9.65368E+04-6.79393E-10 1.09139E-11
 -1        50 1.59565E+04-2.85042E+04-1.61601E+02 6.98202E+04 1.94818E-09-5.76847E-10
 -1        51 7.88819E+03-2.59682E+04-1.12354E+02 4.22636E+04 1.58123E-09 2.18279E-11
 -1        52-2.44667E+03-4.16375E+04-1.11730E+02 2.18251E+04 2.21706E-09-6.92722E-10
 -1        53-2.21367E+05-1.33368E+05-4.11126E+02 8.28730E+04 2.38458E-11 3.83807E-10
 -1        54-1.77987E+05-2.23170E+04-1.33933E+02 4.85387E+04 5.49640E-11 1.97360E-10
 -1        55-1.03036E+05-1.32920E+04-1.76886E+02 4.78054E+04-6.18536E-11 2.81943E-11
 -1        56-6.30793E+03-9.64306E+03-2.19025E+02 5.18105E+04 2.25331E-11 1.21872E-10
 -1        57 1.10351E+05-2.89396E+03-2.45928E+02 5.61966E+04-1.05924E-11 1.03682E-10
 -1        58 2.68734E+05 1.33892E+04-1.54356E+02 8.70629E+04-1.31539E-11-1.32786E-10
 -1        59 6.43452E+04 7.69146E+04 1.37285E+01 1.40934E+05-3.17769E-10-5.34783E-10
 -1        60-3.56306E+05-3.04661E+04-3.24583E+02 2.76892E+04-3.95826E-11 5.50244E-11
 -1        61-3.34877E+05-2.02104E+04-1.72793E+02 3.01687E+04 1.32964E-10 3.89718E-10
 -1        62-2.70646E+05-2.31526E+04-2.60073E+02 6.66228E+04-3.17305E-10 9.17225E-10
 -1        63-1.57265E+05-2.49645E+04-2.25387E+02 6.63686E+04 3.30704E-09-9.55424E-10
 -1        64-6.66192E+04-1.61384E+04-1.22261E+02 4.40197E+04 2.49817E-09-1.25283E-10
 -1        65-1.49424E+04-1.33842E+04-3.62357E+01 2.76147E+04 1.12027E-08 1.16870E-09
 -1        66 1.40284E+06 2.79605E+04 4.76711E+04-3.58341E-10 8.61022E-12-8.51287E-10
 -1        67 1.41054E+06 9.18892E+03 2.52992E+04-1.83570E-09-1.94313E-11 5.88898E-11
 -1        68 1.40598E+06 1.78084E+03 1.47310E+04 3.81988E-11 5.47403E-11-2.38742E-10
 -1        69 1.40771E+06 1.46361E+03 1.45359E+04-9.65798E-10 7.25904E-11-1.39437E-10
 -1        70 1.40569E+06 3.19177E+03 2.10151E+04 2.02920E-09 1.09402E-10 7.59428E-10
 -1        71 1.41369E+06 1.65313E+04 4.27928E+04 1.15733E-09 2.93477E-11-2.61480E-10
 -1        72 1.39995E+06 5.02626E+04 8.45745E+04-1.67347E-10 4.28311E-11-5.60249E-10
 -1        73-3.74909E+04 3.75519E+05-6.23905E+04 4.00806E+05 6.54836E-11-1.45519E-11
 -1        74-1.15856E+04 3.64754E+05-2.92727E+04 4.49815E+05 4.00178E-11-5.87534E-10
 -1        75-1.06266E+03 3.70085E+05-9.97549E+03 4.00133E+05-6.00267E-11 8.00355E-11
 -1        76 3.56587E+03 3.70285E+05 1.88920E+03 4.50222E+05-7.63976E-11-1.14596E-10
 -1        77 1.09024E+04 3.68394E+05 1.45934E+04 4.00407E+05-2.13731E-11-4.28827E-10
 -1        78 8.09684E+05 3.20165E+05 1.68078E+04 5.06775E+05-1.05501E-10-1.74623E-10
 -1        79 8.19624E+05 3.06210E+05 8.76343E+03 5.08104E+05-8.27640E-11 2.52840E-10
 -1        80 8.06735E+05 3.14846E+05 4.79138E+03 5.11801E+05 1.29148E-10 8.19682E-10
 -1        81 8.18005E+05 3.03528E+05 4.18503E+03 5.08876E+05 3.32875E-10-9.41327E-10
 -1        82 8.06501E+05 3.14526E+05 5.48885E+03 5.12045E+05 1.83718E-10-1.25965E-09
 -1        83 8.18681E+05 3.04259E+05 1.01459E+04 5.08742E+05-1.07320E-10-2.53749E-10
 -1        84 8.07282E+05 3.16385E+05 1.94575E+04 5.10147E+05 1.87811E-10-3.78918E-10
 -1        85 8.28557E+05 3.17145E+05 4.31922E+04 5.04214E+05 3.18323E-11-7.53232E-10
 -1        86 8.21168E+05 3.45299E+05 8.71281E+04 4.83849E+05 2.91038E-11-9.45874E-11
 -1        87 8.64166E+05 1.60362E+04 2.74038E+04 5.52973E-10 3.28476E-11-1.14596E-10
 -1        88 8.68587E+05 5.26933E+03 1.46531E+04 6.01347E-10-1.95529E-10 4.80895E-10
 -1        89 8.65956E+05 1.02121E+03 8.73771E+03-2.26350E-10-1.53949E-10-6.20730E-10
 -1        90 8.67009E+05 9.00999E+02 8.95148E+03-3.18451E-10-1.28305E-10 1.23521E-10
 -1        91 8.65752E+05 2.03987E+03 1.32766E+04-1.40972E-10 1.07535E-10-3.03316E-10
 -1        92 8.70866E+05 1.05731E+04 2.72903E+04 7.66249E-11 7.55826E-11-4.02906E-10
 -1        93 8.62080E+05 3.21430E+04 5.40599E+04 6.89397E-10 1.19242E-10-2.85581E-10
 -1        94-6.14466E+04-3.48474E+05-1.05433E+05 7.62903E+04-5.82077E-11 5.61158E-10
 -1        95-2.10026E+04-3.66066E+05-5.79544E+04 8.55073E+04 4.50200E-11-2.03272E-10
 -1        96-6.53546E+03-3.55058E+05-3.74950E+04 7.61047E+04 2.01226E-11-8.94943E-10
 -1        97-1.48218E+04-3.63584E+05-4.50537E+04 8.57214E+04 1.61890E-10-1.67347E-10
 -1        98-4.15891E+04-3.51110E+05-7.35854E+04 7.61049E+04-2.18279E-11 4.91582E-10
 -1        99 3.95399E+05 1.28347E+05-8.85687E+03 2.39411E+05 2.67846E-10-5.74801E-10
 -1       100 4.02763E+05 1.23048E+05-4.21665E+03 2.34900E+05 2.81943E-10 1.46429E-10
 -1       101 3.96614E+05 1.31464E+05-1.55347E+03 2.36735E+05 1.58252E-10-4.82487E-10
 -1       102 4.03979E+05 1.24192E+05-1.17922E+02 2.34373E+05-3.54703E-11-1.07264E-09
 -1       103 3.96654E+05 1.31679E+05 1.25687E+03 2.36500E+05 2.95586E-11-2.76486E-10
 -1       104 4.04381E+05 1.24622E+05 3.40060E+03 2.34303E+05 1.81899E-12 2.45109E-10
 -1       105 3.96948E+05 1.32371E+05 7.10523E+03 2.35776E+05 1.18575E-10 2.96041E-10
 -1       106 4.08046E+05 1.29526E+05 1.61157E+04 2.32637E+05 8.36735E-11-4.06999E-11
 -1       107 4.02217E+05 1.43160E+05 3.26603E+04 2.25902E+05 8.73115E-11-1.09139E-11
 -1       108 5.87766E+05 1.46151E+04 2.48390E+04-5.05679E-10 6.63680E-11 3.40151E-10
 -1       109 5.91788E+05 4.80422E+03 1.30248E+04-5.56668E-10 5.63342E-11 2.18961E-10
 -1       110 5.89410E+05 9.29299E+02 7.29030E+03 1.02148E-09-1.66370E-12-2.88537E-10
 -1       111 5.90239E+05 6.77356E+02 6.73067E+03-8.51372E-11-3.87834E-11-2.23736E-10
 -1       112 5.89321E+05 1.37188E+03 9.26275E+03 1.57797E-10-1.11603E-10-3.92447E-10
 -1       113 5.92779E+05 7.10924E+03 1.85170E+04-1.97815E-11-1.03402E-11-1.12414E-09
 -1       114 5.86861E+05 2.16143E+04 3.64234E+04-4.73847E-10 5.47369E-11-4.34738E-10
 -1       115-4.39674E+04-3.28901E+05-7.57897E+04 5.15285E+03-2.18279E-11-5.21823E-10
 -1       116-1.51438E+04-3.41553E+05-4.24087E+04 5.69451E+03-5.45697E-11 1.05933E-09
 -1       117-5.04135E+03-3.33494E+05-2.87948E+04 5.10255E+03 5.61613E-11 1.78761E-09
 -1       118-1.24197E+04-3.40431E+05-3.66985E+04 5.78980E+03 5.18412E-11 1.18962E-09
 -1       119-3.51977E+04-3.30028E+05-6.16927E+04 5.06762E+03 1.45519E-11-5.89807E-10
 -1       120 2.34784E+05 6.98654E+04-5.39487E+03 1.38006E+05 1.03455E-10 4.09273E-10
 -1       121 2.39661E+05 6.62476E+04-2.59598E+03 1.35151E+05 6.18456E-11 3.12980E-10
 -1       122 2.35525E+05 7.17720E+04-1.01267E+03 1.36388E+05 7.57882E-09 1.05949E-08
 -1       123 2.40406E+05 6.69341E+04-2.16681E+02 1.34831E+05-1.81899E-11 3.97790E-10
 -1       124 2.35552E+05 7.19007E+04 4.77754E+02 1.36253E+05 8.73115E-11 1.63709E-11
 -1       125 2.40600E+05 6.71400E+04 1.46462E+03 1.34799E+05 1.46656E-11 2.21917E-10
 -1       126 2.35685E+05 7.22049E+04 3.12403E+03 1.35932E+05 1.31593E-10-4.23825E-10
 -1       127 2.42192E+05 6.93425E+04 7.12028E+03 1.34074E+05 1.07093E-10-5.50017E-10
 -1       128 2.38044E+05 7.69461E+04 1.44437E+04 1.31556E+05 1.04592E-10 4.16549E-10
 -1       129 4.22174E+05 1.10937E+04 1.88254E+04-3.45608E-11 5.75667E-11-8.72205E-10
 -1       130 4.25223E+05 3.64719E+03 9.81601E+03 1.11072E-10-2.66069E-11-7.85803E-10
 -1       131 4.23423E+05 7.05040E+02 5.38908E+03 3.92816E-10 1.28823E-11 2.27374E-12
 -1       132 4.24023E+05 4.83220E+02 4.80209E+03-3.67599E-10 7.35663E-11 2.32063E-11
 -1       133 4.23377E+05 9.36571E+02 6.42109E+03 4.02451E-10 3.37157E-11-2.04636E-11
 -1       134 4.25742E+05 4.85321E+03 1.26897E+04-5.08066E-10 5.01778E-11-4.13365E-10
 -1       135 4.21700E+05 1.47560E+04 2.48870E+04-3.00133E-11 1.17366E-10 1.96451E-10
 -1       136-3.03164E+04-2.25743E+05-5.23342E+04-1.40517E+04-1.09139E-11-2.73360E-10
 -1       137-1.04624E+04-2.34486E+05-2.94431E+04-1.58358E+04-2.72848E-11-7.98650E-10
 -1       138-3.54997E+03-2.28892E+05-2.02772E+04-1.40576E+04-1.43245E-11-8.08996E-10
 -1       139-8.94659E+03-2.33858E+05-2.62623E+04-1.57877E+04-2.93312E-11 6.72571E-10
 -1       140-2.54335E+04-2.26365E+05-4.44810E+04-1.40962E+04-7.09406E-11 5.27507E-11
 -1       141 1.55882E+05 4.71937E+04-4.52898E+03 9.27497E+04-3.54703E-11-4.98858E-10
 -1       142 1.59083E+05 4.50550E+04-2.20645E+03 9.06235E+04-1.54614E-11-7.09917E-10
 -1       143 1.56529E+05 4.87715E+04-9.17789E+02 9.13939E+04 1.25056E-11 4.14843E-10
 -1       144 1.59681E+05 4.56491E+04-3.27033E+02 9.03633E+04-1.30967E-10 5.44532E-10
 -1       145 1.56557E+05 4.88771E+04 1.12899E+02 9.12884E+04-2.04636E-12 2.13618E-10
 -1       146 1.59791E+05 4.57657E+04 6.21699E+02 9.03461E+04-2.70575E-11 2.55341E-10
 -1       147 1.56620E+05 4.90161E+04 1.41629E+03 9.11381E+04-7.42375E-11 4.04725E-10
 -1       148 1.60509E+05 4.68006E+04 3.27472E+03 9.00175E+04 3.04112E-11 9.15179E-11
 -1       149 1.57725E+05 5.11885E+04 6.66457E+03 8.91134E+04-4.32010E-11 1.63709E-10
 -1       150 3.17588E+05 8.10537E+03 1.37503E+04 1.18234E-10 1.74110E-11 4.65207E-10
 -1       151 3.19814E+05 2.66481E+03 7.16133E+03 2.68898E-10 5.55575E-11 5.24551E-10
 -1       152 3.18501E+05 5.15034E+02 3.91569E+03 4.09955E-10-4.99418E-11 1.27102E-10
 -1       153 3.18934E+05 3.48395E+02 3.46251E+03-1.36282E-11 1.33361E-11 1.33696E-10
 -1       154 3.18470E+05 6.68563E+02 4.60006E+03 4.49830E-10 9.02924E-11 2.72735E-10
 -1       155 3.20158E+05 3.46460E+03 9.06709E+03-1.05612E-09 6.50952E-11-1.31763E-10
 -1       156 3.17274E+05 1.05338E+04 1.77699E+04-1.05501E-10-4.02242E-11 1.26420E-10
 -1       157-2.01101E+04-1.23880E+05-3.47283E+04-1.98313E+04 3.63798E-12 8.11852E-10
 -1       158-6.94252E+03-1.29685E+05-1.95647E+04-2.23049E+04 3.63798E-12-1.11112E-09
 -1       159-2.36658E+03-1.25967E+05-1.35227E+04-1.98191E+04 8.86757E-12-3.80805E-09
 -1       160-5.99860E+03-1.29294E+05-1.75837E+04-2.22804E+04-3.24007E-12-1.35020E-09
 -1       161-1.70689E+04-1.24267E+05-2.98369E+04-1.98546E+04 1.09139E-11 3.25826E-10
 -1       162 1.07524E+05 3.36616E+04-4.95497E+03 6.58509E+04-1.23237E-10 2.18733E-10
 -1       163 1.09681E+05 3.26657E+04-2.43973E+03 6.39240E+04-2.17369E-10 4.33147E-10
 -1       164 1.08261E+05 3.53553E+04-1.06525E+03 6.43644E+04 3.20142E-10-1.05729E-11
 -1       165 1.10301E+05 3.33459E+04-4.88321E+02 6.36498E+04-1.11572E-09-3.12798E-09
 -1       166 1.08299E+05 3.54672E+04-1.36430E+02 6.42546E+04 3.65731E-10-3.27191E-10
 -1       167 1.10373E+05 3.34220E+04 1.32132E+02 6.36386E+04-1.32673E-10-2.41016E-11
 -1       168 1.08321E+05 3.55151E+04 4.61540E+02 6.41975E+04-2.84672E-10-2.71712E-11
 -1       169 1.10614E+05 3.38097E+04 1.14612E+03 6.35291E+04-2.57643E-10-6.02540E-11
 -1       170 1.08730E+05 3.62726E+04 2.36672E+03 6.34726E+04-9.00400E-11 8.92442E-11
 -1       171 2.41574E+05 5.69810E+03 9.67708E+03 1.16188E-10 1.61711E-11 3.27418E-11
 -1       172 2.43139E+05 1.87322E+03 5.05941E+03 4.23626E-10 2.65486E-12 1.43473E-10
 -1       173 2.42215E+05 3.62115E+02 2.80353E+03 4.57405E-10 1.10810E-11 3.78577E-11
 -1       174 2.42528E+05 2.55769E+02 2.54204E+03-1.89267E-10 1.08533E-10 1.26022E-10
 -1       175 2.42186E+05 5.06781E+02 3.44844E+03-3.33358E-10-2.64256E-11 3.47768E-10
 -1       176 2.43463E+05 2.62693E+03 6.85535E+03-2.36810E-10-1.30261E-10 3.84148E-10
 -1       177 2.41278E+05 7.98642E+03 1.34648E+04 3.17414E-10-1.23187E-10-6.04814E-11
 -1       178-1.39340E+04-6.55976E+04-2.40730E+04-2.28866E+04 9.09495E-12 2.44597E-10
 -1       179-4.81222E+03-6.96254E+04-1.35823E+04-2.57260E+04 2.72848E-11 2.95003E-10
 -1       180-1.64856E+03-6.70426E+04-9.42466E+03-2.28655E+04 2.63753E-11 7.19069E-11
 -1       181-4.20496E+03-6.93737E+04-1.23078E+04-2.57121E+04 4.33147E-11-1.88777E-10
 -1       182-1.19773E+04-6.58465E+04-2.09259E+04-2.29000E+04-1.27329E-11-1.35515E-10
 -1       183 8.62610E+04 2.52722E+04-4.09084E+03 5.17443E+04 1.80762E-11 4.14275E-10
 -1       184 8.81319E+04 2.43612E+04-2.01960E+03 5.01285E+04-1.11868E-10 6.19821E-10
 -1       185 8.68705E+04 2.66720E+04-8.92477E+02 5.05186E+04 2.14868E-11 1.19456E-10
 -1       186 8.86434E+04 2.49215E+04-4.31745E+02 4.99017E+04-1.36424E-12 1.18121E-10
 -1       187 8.69017E+04 2.67636E+04-1.69489E+02 5.04289E+04 5.17275E-11 1.69393E-11
 -1       188 8.86918E+04 2.49733E+04-1.08547E+01 4.98943E+04-7.15090E-11-1.48702E-10
 -1       189 8.69114E+04 2.67800E+04 1.43110E+02 5.04054E+04 8.61178E-11-7.57154E-11
 -1       190 8.87640E+04 2.51394E+04 4.13136E+02 4.98617E+04 2.30216E-11 7.21911E-12
 -1       191 8.70813E+04 2.70421E+04 8.75942E+02 5.01309E+04 2.77396E-11-7.11680E-11
 -1       192 1.35868E+05 1.25445E+03 2.16210E+03 1.24032E-10 1.21811E-11 1.79170E-10
 -1       193 1.36211E+05 4.11951E+02 1.18954E+03-6.63007E-11 9.89728E-12-6.48015E-11
 -1       194 1.36006E+05 7.99552E+01 7.71447E+02 3.73454E-10 1.63768E-12 3.33721E-10
 -1       195 1.36102E+05 8.92433E+01 8.87030E+02 1.37090E-10-3.32434E-11 1.22760E-10
 -1       196 1.35977E+05 2.23216E+02 1.41015E+03 2.65032E-10 1.15589E-11 1.30569E-10
 -1       197 1.36532E+05 1.15841E+03 2.96824E+03 1.63126E-10 1.85552E-11 4.20641E-11
 -1       198 1.35575E+05 3.52082E+03 5.91356E+03 2.84217E-11-1.01791E-12 3.15367E-10
 -1       199-1.10179E+04-5.60555E+04-1.90895E+04-1.28192E+04-1.81899E-12-1.83576E-10
 -1       200-3.82189E+03-5.92547E+04-1.08889E+04-1.44088E+04 4.09273E-12 1.30115E-10
 -1       201-1.35882E+03-5.71863E+04-7.76449E+03-1.28070E+04-4.54747E-13 2.22826E-11
 -1       202-3.60827E+03-5.91662E+04-1.04406E+04-1.44018E+04-8.18545E-12-2.91038E-11
 -1       203-1.03296E+04-5.61431E+04-1.79826E+04-1.28260E+04-9.09495E-13-9.59517E-11
 -1       204 1.00604E+05 4.28288E+04 2.74311E+03 6.45754E+04 9.31095E-11 1.88720E-10
 -1       205 1.01609E+05 4.11635E+04 1.36851E+03 6.49851E+04 4.27463E-11 2.23892E-11
 -1       206 1.00149E+05 4.19375E+04 6.33097E+02 6.54078E+04-8.07177E-12-3.40009E-10
 -1       207 1.01319E+05 4.07389E+04 3.63673E+02 6.51224E+04 7.38964E-11-6.25278E-11
 -1       208 1.00122E+05 4.18812E+04 2.61198E+02 6.54659E+04 7.25890E-11 1.27557E-10
 -1       209 1.01314E+05 4.07330E+04 3.18402E+02 6.51231E+04 4.70664E-11 2.33172E-10
 -1       210 1.00145E+05 4.19262E+04 5.21655E+02 6.54199E+04-1.04592E-10 2.58069E-10
 -1       211 1.01544E+05 4.10762E+04 1.10650E+03 6.50125E+04 7.58610E-09 1.09656E-08
 -1       212 1.00513E+05 4.26414E+04 2.20862E+03 6.47498E+04-1.73941E-10 7.57154E-11
 -1       213 1.52235E+04-4.16170E+03-7.06087E+03 1.66892E-10 6.19146E-11-6.95763E-11
 -1       214 1.40645E+04-1.36832E+03-3.67779E+03-1.83903E-10 2.01940E-11 9.68043E-11
 -1       215 1.47552E+04-2.64367E+02-2.01152E+03 1.56319E-13 8.16379E-12-8.46967E-12
 -1       216 1.45168E+04-1.79078E+02-1.78009E+03-8.86260E-11-2.65475E-11-8.24230E-12
 -1       217 1.47711E+04-3.43992E+02-2.36655E+03 2.50253E-11-2.34738E-11-1.45064E-10
 -1       218 1.38859E+04-1.78326E+03-4.66652E+03 2.77737E-10-1.35954E-11-3.69255E-10
 -1       219 1.53863E+04-5.42138E+03-9.14606E+03 5.28644E-10 3.28552E-11 4.68390E-11
 -1       220-3.06789E+03 3.25443E+04-5.49503E+03 1.89310E+04 3.88809E-11 8.07177E-11
 -1       221-1.11534E+03 3.15984E+04-3.51498E+03 2.12627E+04 2.34195E-11-2.31068E-11
 -1       222-5.53851E+02 3.22645E+04-3.17081E+03 1.89057E+04 5.91172E-11-1.05530E-10
 -1       223-1.91648E+03 3.12678E+04-5.19519E+03 2.12667E+04 3.50155E-11 4.25473E-11
 -1       224-5.64878E+03 3.28744E+04-9.64436E+03 1.89269E+04 3.91083E-11-1.11129E-10
 -1       225 7.62674E+04 6.41860E+04 6.02071E+03 6.76369E+04 3.02407E-11-1.08457E-10
 -1       226 7.44681E+04 6.45432E+04 2.96207E+03 6.97172E+04 1.03796E-10 2.37122E-10
 -1       227 7.53385E+04 6.21568E+04 1.28832E+03 6.94487E+04 1.71212E-10 1.61037E-10
 -1       228 7.37471E+04 6.36826E+04 5.80872E+02 7.00379E+04-7.81029E-11-7.95808E-12
 -1       229 7.52888E+04 6.20248E+04 1.40453E+02 6.95828E+04-1.32260E-10-2.41243E-10
 -1       230 7.36586E+04 6.35810E+04-2.14112E+02 7.00512E+04-1.20508E-10-1.04592E-10
 -1       231 7.52582E+04 6.19562E+04-6.67283E+02 6.96641E+04-1.09594E-10-3.96767E-11
 -1       232 7.33086E+04 6.30430E+04-1.63121E+03 7.02136E+04 7.56017E-11-2.48292E-10
 -1       233 7.46902E+04 6.08714E+04-3.35869E+03 7.06930E+04 1.22782E-11-2.16005E-10
 -1       241 5.42638E+03 1.85228E+05 9.14197E+03 1.41256E+04 1.07548E-10 2.68301E-11
 -1       242 1.80746E+03 1.86716E+05 4.66332E+03 1.58287E+04 2.02817E-10 2.21803E-10
 -1       243 4.14751E+02 1.85836E+05 2.36344E+03 1.40898E+04 2.13277E-10 7.53744E-11
 -1       244 4.56586E+02 1.86158E+05 1.82882E+03 1.58650E+04 2.43745E-10 1.17666E-11
 -1       245 1.07314E+03 1.85783E+05 2.14166E+03 1.40890E+04 2.60229E-10-6.26983E-11
 -1       323 5.78656E+04-9.73330E+03-1.63844E+04 1.04177E+05 1.22964E-09 2.30102E-10
 -1       324 5.51325E+04-3.24380E+03-8.62383E+03 1.16763E+05 2.85308E-09-4.45652E-11
 -1       325 5.66771E+04-6.65574E+02-4.89974E+03 1.03923E+05 8.64929E-10 6.97582E-10
 -1       326 5.60413E+04-5.00721E+02-4.64157E+03 1.17042E+05-1.09412E-09-4.91127E-10
 -1       327 5.67001E+04-9.99885E+02-6.52236E+03 1.03906E+05-8.05812E-10 1.09594E-10
 -1       328 5.42020E+04-5.08415E+03-1.31464E+04 1.16939E+05-2.99053E-10 1.52795E-10
 -1       329 5.84677E+04-1.54173E+04-2.59169E+04 1.04021E+05-7.86713E-11 3.14685E-10
 -1       330-1.32203E+04 3.67423E+02-2.21447E+04 5.73258E+04 4.18368E-11-5.83896E-10
 -1       331-4.28552E+03-3.25688E+03-1.07824E+04 6.45356E+04-9.20863E-11-4.57021E-10
 -1       332-7.26702E+02-1.15936E+03-4.46342E+03 5.73151E+04-2.61480E-12 7.73070E-11
 -1       333 1.38452E+02-1.40045E+03-1.47771E+03 6.43986E+04-9.75433E-11 4.22915E-11
 -1       334 1.04932E+03-1.41798E+03 8.31666E+02 5.74529E+04 4.00178E-11-6.23459E-10
 -1       335 2.30700E+05 1.78087E+05 2.02080E+04 1.92750E+05-1.68257E-11 6.36646E-11
 -1       336 2.26676E+05 1.77301E+05 1.01641E+04 1.99130E+05-8.73115E-11 1.01863E-10
 -1       337 2.27635E+05 1.71227E+05 4.87035E+03 1.98778E+05-3.13776E-11-5.65706E-10
 -1       338 2.24240E+05 1.74507E+05 3.12454E+03 2.00236E+05-7.45786E-11 4.53952E-10
 -1       339 2.27452E+05 1.70783E+05 2.80827E+03 1.99173E+05-6.36646E-12 8.41283E-12
 -1       340 2.24343E+05 1.74655E+05 4.21109E+03 2.00212E+05 5.91172E-11-6.22890E-10
 -1       341 2.27748E+05 1.71492E+05 7.54588E+03 1.98465E+05-1.40972E-11 5.07043E-11
 -1       342 2.28140E+05 1.79460E+05 1.64463E+04 1.98457E+05-6.93490E-11 2.60570E-10
 -1       343 2.32938E+05 1.82517E+05 3.30364E+04 1.88510E+05 2.18279E-11 3.07409E-10
 -1       344 4.71900E+05 1.09446E+04 1.86722E+04 9.70292E+04 4.91127E-11-2.01908E-10
 -1       345 4.74885E+05 3.59318E+03 9.78857E+03 1.08799E+05-1.56433E-10-2.92857E-10
 -1       346 4.73056E+05 6.93455E+02 5.46440E+03 9.68066E+04 7.63976E-11 3.30147E-10
 -1       347 4.73652E+05 5.16486E+02 5.02359E+03 1.09026E+05 1.30967E-10 6.36646E-12
 -1       348 4.72966E+05 1.02790E+03 6.88536E+03 9.67972E+04-1.73813E-10-4.09273E-10
 -1       349 4.75539E+05 5.28343E+03 1.37434E+04 1.08897E+05-1.59844E-10-4.69299E-10
 -1       350 4.71173E+05 1.60256E+04 2.70165E+04 9.69381E+04-2.50111E-11-2.44654E-10
 -1       351-2.53946E+04-9.95289E+04-4.34189E+04 1.37932E+05-3.09228E-11-2.09639E-10
 -1       352-8.47590E+03-1.06776E+05-2.31362E+04 1.54966E+05 9.59517E-11 3.43789E-10
 -1       353-2.26043E+03-1.02354E+05-1.36624E+04 1.37764E+05 1.46429E-10 8.58677E-10
 -1       354-4.30910E+03-1.05053E+05-1.43946E+04 1.54956E+05 3.24690E-10 4.05635E-10
 -1       355-1.19720E+04-1.01242E+05-2.18345E+04 1.37938E+05 1.56206E-10-9.11314E-10
 -1       356 3.86328E+05 2.17974E+05 3.07487E+04 2.71126E+05 1.60071E-10-5.80258E-10
 -1       357 3.85714E+05 2.11282E+05 1.54574E+04 2.79237E+05 3.47427E-10-4.78394E-10
 -1       358 3.81505E+05 2.07717E+05 7.39008E+03 2.80373E+05-2.03499E-11 5.31145E-10
 -1       359 3.82201E+05 2.06839E+05 4.70607E+03 2.80884E+05 7.76049E-09 1.13182E-08
 -1       360 3.81218E+05 2.07061E+05 4.18002E+03 2.80998E+05-1.11413E-11 2.72166E-10
 -1       361 3.82368E+05 2.07033E+05 6.20919E+03 2.80861E+05 2.22371E-10-2.22741E-10
 -1       362 3.81659E+05 2.08095E+05 1.10872E+04 2.79968E+05 2.48747E-10-3.15140E-10
 -1       363 3.87893E+05 2.14133E+05 2.41400E+04 2.78309E+05 1.02318E-11-1.34150E-10
 -1       364 3.89331E+05 2.24224E+05 4.84808E+04 2.65350E+05-1.81899E-12 4.00178E-11
 -1       365 4.62821E+05 1.54806E+04 2.62503E+04 5.67583E+04 4.18368E-11 4.00178E-10
 -1       366 4.67072E+05 5.09137E+03 1.36214E+04 6.36599E+04-1.01863E-10-2.85610E-10
 -1       367 4.64544E+05 9.86267E+02 7.34999E+03 5.66347E+04-4.00178E-11-1.32559E-10
 -1       368 4.65349E+05 6.44347E+02 6.33364E+03 6.37834E+04-5.67297E-11 4.89308E-10
 -1       369 4.64499E+05 1.18621E+03 8.22513E+03 5.66311E+04-9.54401E-11-7.43967E-10
 -1       370 4.67498E+05 6.12092E+03 1.60578E+04 6.36987E+04-1.75078E-10-7.38510E-10
 -1       371 4.62402E+05 1.85948E+04 3.13898E+04 5.67215E+04-1.25056E-10-3.31056E-10
 -1       372-3.19165E+04-2.79584E+05-5.51309E+04 9.20233E+04 6.54836E-11-1.38243E-10
 -1       373-1.09629E+04-2.88812E+05-3.09532E+04 1.03364E+05-1.10163E-10 3.87445E-10
 -1       374-3.66143E+03-2.82941E+05-2.12111E+04 9.18977E+04 8.32188E-11 9.95556E-10
 -1       375-9.22542E+03-2.88105E+05-2.73180E+04 1.03388E+05-9.09495E-11 1.08241E-09
 -1       376-2.63269E+04-2.80312E+05-4.61553E+04 9.20003E+04 2.32831E-10-1.18234E-11
 -1       377 3.16713E+05 1.53656E+05 2.52352E+04 2.05546E+05-9.45874E-11 2.27374E-11
 -1       378 3.18119E+05 1.46249E+05 1.26548E+04 2.11646E+05 1.72804E-11 4.22915E-10
 -1       379 3.12699E+05 1.45289E+05 5.98918E+03 2.13150E+05 2.27374E-13 5.49107E-10
 -1       380 3.15284E+05 1.42544E+05 3.70006E+03 2.12976E+05-2.30443E-10 1.22327E-10
 -1       381 3.12460E+05 1.44755E+05 3.10761E+03 2.13670E+05-4.86978E-10 1.08935E-09
 -1       382 3.15364E+05 1.42634E+05 4.41476E+03 2.12966E+05-6.34770E-10 2.84331E-10
 -1       383 3.12772E+05 1.45470E+05 7.74784E+03 2.12960E+05 4.46107E-10-1.36214E-09
 -1       384 3.19169E+05 1.47595E+05 1.67854E+04 2.11203E+05-2.56455E-09-7.01004E-09
 -1       385 3.18131E+05 1.56639E+05 3.36695E+04 2.02803E+05 6.89397E-10-5.18412E-10
 -1       386 3.72502E+05 1.28509E+04 2.17688E+04 3.50415E+04 1.47793E-11 1.29148E-10
 -1       387 3.76033E+05 4.22677E+03 1.12696E+04 3.93080E+04-4.80895E-11-1.76442E-10
 -1       388 3.73944E+05 8.18115E+02 6.03170E+03 3.49679E+04-2.45564E-11-3.80965E-10
 -1       389 3.74601E+05 5.17959E+02 5.11324E+03 3.93818E+04-8.98410E-11-6.53017E-10
 -1       390 3.73919E+05 9.33955E+02 6.54312E+03 3.49660E+04-2.84217E-13-4.29281E-10
 -1       391 3.76286E+05 4.82651E+03 1.26935E+04 3.93271E+04 2.27374E-12-8.65384E-10
 -1       392 3.72262E+05 1.46687E+04 2.47727E+04 3.50236E+04 5.91172E-11-3.71074E-10
 -1       393-2.68512E+04-2.48875E+05-4.65250E+04 5.34656E+04-1.23691E-10-1.75305E-10
 -1       394-9.29686E+03-2.56669E+05-2.65010E+04 6.00478E+04-1.68427E-10-2.43290E-10
 -1       395-3.27941E+03-2.51646E+05-1.88311E+04 5.33901E+04-8.29914E-11-3.64366E-10
 -1       396-8.68967E+03-2.56423E+05-2.52316E+04 6.00679E+04-5.54792E-11-1.76897E-10
 -1       397-2.48985E+04-2.49131E+05-4.33906E+04 5.34468E+04-1.30967E-10 9.09495E-12
 -1       398 2.44446E+05 1.16365E+05 1.91173E+04 1.57378E+05-4.41105E-11 4.78394E-10
 -1       399 2.45703E+05 1.10560E+05 9.56997E+03 1.61944E+05-8.27640E-11-4.46221E-10
 -1       400 2.41397E+05 1.10033E+05 4.49494E+03 1.63142E+05 1.19826E-10 1.79853E-10
 -1       401 2.43559E+05 1.07741E+05 2.71248E+03 1.62947E+05-1.01863E-10 4.32465E-10
 -1       402 2.41216E+05 1.09629E+05 2.17417E+03 1.63539E+05-7.56017E-12 1.20053E-10
 -1       403 2.43588E+05 1.07773E+05 2.96511E+03 1.62943E+05 2.70717E-11 2.51362E-10
 -1       404 2.41423E+05 1.10098E+05 5.11647E+03 1.63075E+05-2.95586E-12-2.58268E-10
 -1       405 2.46076E+05 1.11032E+05 1.10292E+04 1.61786E+05-6.27551E-11 4.82601E-11
 -1       406 2.44945E+05 1.17422E+05 2.20979E+04 1.56409E+05-1.63709E-11-1.48248E-10
 -1       407 2.94054E+05 9.67350E+03 1.63840E+04 1.90949E+04 0.00000E+00 2.09184E-11
 -1       408 2.96713E+05 3.18117E+03 8.48069E+03 2.14219E+04-2.55795E-12-3.49587E-11
 -1       409 2.95144E+05 6.15027E+02 4.53728E+03 1.90557E+04 3.00133E-11 2.46160E-10
 -1       410 2.95638E+05 3.87773E+02 3.84340E+03 2.14613E+04 1.28807E-10 8.05130E-10
 -1       411 2.95127E+05 7.00047E+02 4.91507E+03 1.90548E+04-4.05294E-11 2.74213E-10
 -1       412 2.96902E+05 3.62318E+03 9.53269E+03 2.14306E+04-9.12905E-11 3.09228E-11
 -1       413 2.93880E+05 1.10148E+04 1.86029E+04 1.90868E+04-2.09184E-11 7.63976E-11
 -1       414-1.84779E+04-1.46428E+05-3.20972E+04 3.33992E+04 0.00000E+00-1.96906E-10
 -1       415-6.42763E+03-1.51815E+05-1.84708E+04 3.75040E+04-9.39053E-11-6.55291E-10
 -1       416-2.34880E+03-1.48314E+05-1.34537E+04 3.33495E+04 6.66205E-11 1.64562E-10
 -1       417-6.43489E+03-1.51820E+05-1.84881E+04 3.75219E+04 1.27329E-11 2.96680E-10
 -1       418-1.85027E+04-1.46428E+05-3.21400E+04 3.33822E+04-1.81899E-12-1.81103E-10
 -1       419 1.69655E+05 8.36823E+04 1.11728E+04 1.12476E+05-1.13687E-11-2.67619E-10
 -1       420 1.70330E+05 8.03448E+04 5.59487E+03 1.15159E+05 2.75122E-11-2.93369E-10
 -1       421 1.67869E+05 7.99847E+04 2.63169E+03 1.15845E+05 1.93268E-11-3.78236E-10
 -1       422 1.69082E+05 7.86944E+04 1.59580E+03 1.15744E+05 5.18412E-11-1.38925E-10
 -1       423 1.67763E+05 7.97494E+04 1.29163E+03 1.16077E+05 2.84217E-12 1.10333E-10
 -1       424 1.69103E+05 7.87161E+04 1.77726E+03 1.15740E+05 1.49029E-10-1.92301E-10
 -1       425 1.67886E+05 8.00321E+04 3.07834E+03 1.15796E+05-3.78577E-11 2.85652E-10
 -1       426 1.70608E+05 8.06741E+04 6.64376E+03 1.15041E+05 1.87583E-12 2.51958E-10
 -1       427 1.70003E+05 8.44511E+04 1.33147E+04 1.11781E+05-3.59250E-11 3.76076E-10
 -1       428 2.65739E+05 9.21665E+03 1.56047E+04 7.56052E+03 3.41061E-12 1.60981E-10
 -1       429 2.68273E+05 3.03056E+03 8.06835E+03 8.47962E+03 8.84484E-11-1.80080E-10
 -1       430 2.66780E+05 5.85382E+02 4.29975E+03 7.54395E+03 4.04157E-11-3.09683E-10
 -1       431 2.67246E+05 3.63633E+02 3.61300E+03 8.49640E+03-1.14682E-11-1.74339E-10
 -1       432 2.66767E+05 6.49691E+02 4.58611E+03 7.54341E+03-4.85016E-11-4.50200E-11
 -1       433 2.68417E+05 3.36537E+03 8.86580E+03 8.48540E+03-1.65230E-10 3.36513E-11
 -1       434 2.65607E+05 1.02328E+04 1.72865E+04 7.55512E+03-1.49385E-10 8.91305E-11
 -1       435-1.14450E+04-5.75741E+04-1.98790E+04 7.22093E+03-6.82121E-11 3.05818E-11
 -1       436-3.98467E+03-6.09113E+04-1.14451E+04 8.08832E+03-3.63798E-11-7.75344E-11
 -1       437-1.46055E+03-5.87391E+04-8.34588E+03 7.20081E+03-6.70184E-11 7.20775E-11
 -1       438-4.00173E+03-6.09190E+04-1.14815E+04 8.11105E+03-7.48059E-11 9.39053E-11
 -1       439-1.15004E+04-5.75679E+04-1.99687E+04 7.19895E+03-6.73026E-11-2.21888E-10
 -1       440 1.04282E+05 4.05288E+04 2.37483E+03 6.46566E+04 6.76437E-12-7.42375E-11
 -1       441 1.05631E+05 3.86076E+04 1.20567E+03 6.48678E+04-1.07775E-10-2.55188E-10
 -1       442 1.03878E+05 3.97683E+04 5.99954E+02 6.53771E+04 4.88853E-12-9.54117E-11
 -1       443 1.05395E+05 3.82329E+04 4.26181E+02 6.49856E+04 9.09495E-13 2.61480E-11
 -1       444 1.03851E+05 3.97212E+04 4.47661E+02 6.54235E+04 5.92877E-11 1.88152E-10
 -1       445 1.05432E+05 3.82718E+04 7.42899E+02 6.49799E+04 6.09646E-11-1.64619E-10
 -1       446 1.03909E+05 3.98496E+04 1.37923E+03 6.52920E+04 7.83871E-11-2.30159E-10
 -1       447 1.06107E+05 3.91930E+04 3.03632E+03 6.46670E+04 7.67386E-11 7.64544E-11
 -1       448 1.04898E+05 4.18609E+04 6.11232E+03 6.34425E+04 6.41194E-11 5.38876E-11
 -1       449 2.36138E+05 8.35173E+03 1.41055E+04 1.46730E+04 8.11724E-11-2.45564E-11
 -1       450 2.38428E+05 2.74730E+03 7.22832E+03 1.64657E+04 1.10447E-10-1.70644E-10
 -1       451 2.37083E+05 5.30844E+02 3.72718E+03 1.46449E+04 2.75122E-11 2.44427E-11
 -1       452 2.37469E+05 2.94300E+02 2.91515E+03 1.64938E+04-1.07761E-10 3.45267E-10
 -1       453 2.37096E+05 4.66999E+02 3.44231E+03 1.46446E+04 2.85354E-11 3.14913E-10
 -1       454 2.38285E+05 2.41447E+03 6.43500E+03 1.64680E+04 1.06525E-10 4.05066E-10
 -1       455 2.36269E+05 7.34114E+03 1.24324E+04 1.46708E+04 6.76437E-11 1.10049E-10
 -1       456-1.15488E+04-7.52443E+04-1.99767E+04-1.23662E+04-2.27374E-11-1.15364E-10
 -1       457-3.99689E+03-7.85869E+04-1.13262E+04-1.39058E+04-1.00044E-11-1.35604E-10
 -1       458-1.39274E+03-7.64359E+04-7.95635E+03-1.23574E+04-1.36424E-12-7.64544E-11
 -1       459-3.61767E+03-7.84299E+04-1.05304E+04-1.38932E+04 8.75389E-12-1.16358E-10
 -1       460-1.03270E+04-7.53999E+04-1.80117E+04-1.23785E+04 1.09139E-11-2.80920E-10
 -1       461 1.14576E+05 3.17406E+04 4.13118E+03 6.15611E+04 1.54955E-10-1.65187E-10
 -1       462 1.17056E+05 2.82720E+04 2.06642E+03 6.18988E+04 1.07775E-10-1.31763E-10
 -1       463 1.13886E+05 3.04032E+04 9.66563E+02 6.28144E+04 2.97860E-11-4.29736E-11
 -1       464 1.16625E+05 2.76287E+04 5.75830E+02 6.21045E+04-2.80124E-10 2.33285E-10
 -1       465 1.13844E+05 3.03185E+04 4.48940E+02 6.29016E+04-6.52861E-09-7.43103E-09
 -1       466 1.16625E+05 2.76343E+04 5.96861E+02 6.21067E+04-3.56579E-10 2.16005E-12
 -1       467 1.13893E+05 3.04058E+04 1.01840E+03 6.28109E+04 1.06184E-10-1.68029E-10
 -1       468 1.17060E+05 2.83398E+04 2.18758E+03 6.18983E+04 2.49202E-10-2.63753E-11
 -1       469 1.14648E+05 3.18027E+04 4.37947E+03 6.14782E+04-9.54969E-12-2.82171E-10
 -1       470 4.18804E+04-5.06121E+03-8.61650E+03 3.19892E+04-5.86624E-11-1.34150E-11
 -1       471 4.04609E+04-1.66061E+03-4.53825E+03 3.59324E+04 1.75135E-10 6.91216E-11
 -1       472 4.13095E+04-3.18426E+02-2.57846E+03 3.19415E+04-2.17199E-10-6.00267E-11
 -1       473 4.09884E+04-2.42051E+02-2.44461E+03 3.59776E+04-6.16751E-11 2.81716E-10
 -1       474 4.13502E+04-5.11829E+02-3.43451E+03 3.19442E+04-7.95808E-12 1.12550E-10
 -1       475 4.00357E+04-2.66381E+03-6.92215E+03 3.59052E+04-1.87924E-10-4.07852E-10
 -1       476 4.22798E+04-8.10203E+03-1.36442E+04 3.20130E+04-3.63798E-11 2.91038E-11
 -1       477-1.42437E+04-1.01434E+05-2.46613E+04 1.27255E+04-1.72804E-11-2.17710E-11
 -1       478-4.93652E+03-1.05562E+05-1.40305E+04 1.43409E+04 4.09273E-11-1.51431E-10
 -1       479-1.74059E+03-1.02898E+05-9.94065E+03 1.27308E+04-2.50679E-11-2.50111E-11
 -1       480-4.57819E+03-1.05412E+05-1.32772E+04 1.42981E+04-9.09495E-13-6.08225E-11
 -1       481-1.30883E+04-1.01579E+05-2.28013E+04 1.27667E+04-1.31877E-10-8.82210E-11
 -1       482 2.78699E+05 1.09681E+05 2.68480E+04 1.60921E+05 1.59162E-10 2.60115E-10
 -1       483 2.81946E+05 1.00037E+05 1.33012E+04 1.66919E+05 3.00133E-11-6.59384E-12
 -1       484 2.74440E+05 1.00756E+05 5.97363E+03 1.69028E+05 3.02407E-10 2.61025E-10
 -1       485 2.78882E+05 9.60837E+04 3.08082E+03 1.68327E+05 1.91278E-11-1.49157E-10
 -1       486 2.74204E+05 1.00181E+05 1.60306E+03 1.69618E+05-2.65118E-10-2.44654E-10
 -1       487 2.78652E+05 9.58529E+04 1.10625E+03 1.68376E+05-2.94676E-10-2.41926E-10
 -1       488 2.74267E+05 1.00236E+05 1.11202E+03 1.69575E+05-2.42835E-10-8.04903E-11
 -1       489 2.78896E+05 9.64959E+04 1.88672E+03 1.68235E+05 1.67802E-10 1.95541E-10
 -1       490 2.74970E+05 1.01279E+05 3.53858E+03 1.68501E+05 1.58252E-10-1.97360E-10
 -1       498 9.14169E+03 3.11373E+05 1.50719E+04 1.51269E+05 4.61114E-10 2.53380E-10
 -1       499 3.02659E+03 3.13797E+05 7.18169E+03 1.70175E+05 5.74801E-10 4.04498E-10
 -1       500 4.95075E+02 3.12478E+05 2.63860E+03 1.51200E+05 2.36469E-10 7.00311E-11
 -1       501-4.24963E+02 3.12522E+05 6.99758E+01 1.69944E+05-1.95541E-10 1.44610E-10
 -1       502-1.89375E+03 3.12977E+05-2.49972E+03 1.51500E+05-9.14952E-10 6.36646E-11
 -1       580-6.93622E+04-3.33846E+03-5.71062E+03 4.74241E+04 7.41238E-11 3.72438E-10
 -1       581-7.02999E+04-1.11378E+03-3.16247E+03 5.31585E+04-5.20686E-11 7.88532E-10
 -1       582-6.97457E+04-2.32585E+02-2.09067E+03 4.73100E+04-7.09406E-11 4.95675E-11
 -1       583-7.00401E+04-2.67031E+02-2.46011E+03 5.32812E+04-8.36735E-11-1.40062E-10
 -1       584-6.96710E+04-6.46713E+02-3.96121E+03 4.73031E+04-5.98561E-11-2.62617E-10
 -1       585-7.12618E+04-3.28987E+03-8.37267E+03 5.32288E+04-1.32786E-10-5.07043E-11
 -1       586-6.85306E+04-9.96228E+03-1.66979E+04 4.73591E+04-7.20775E-11 5.20231E-10
 -1       587-7.79167E+03-1.39764E+05-1.31925E+04 2.42860E+04-6.86668E-11-4.19448E-10
 -1       588-2.58978E+03-1.41931E+05-6.80485E+03 2.73031E+04 2.09724E-10-1.06411E-09
 -1       589-6.11406E+02-1.40634E+05-3.59613E+03 2.42610E+04 1.16415E-10-2.22371E-10
 -1       590-8.11326E+02-1.41196E+05-3.07404E+03 2.72872E+04-3.84262E-11-4.59863E-11
 -1       591-2.06181E+03-1.40495E+05-3.97907E+03 2.42993E+04-1.30001E-10 3.51520E-10
 -1       592 8.18760E+04 6.41876E+04 1.64821E+04 6.32715E+04 5.95719E-11 3.81988E-10
 -1       593 8.02198E+04 6.19324E+04 8.23875E+03 6.80176E+04-8.64020E-12 9.82254E-11
 -1       594 7.93307E+04 5.86410E+04 3.84736E+03 6.82162E+04 1.15961E-10 1.54159E-10
 -1       595 7.82790E+04 5.95927E+04 2.27977E+03 6.89071E+04-9.41327E-11-7.53744E-11
 -1       596 7.91841E+04 5.82825E+04 1.75712E+03 6.85560E+04 7.50333E-11 4.35080E-10
 -1       597 7.82732E+04 5.96036E+04 2.30986E+03 6.89069E+04 3.18323E-12-8.07319E-11
 -1       598 7.93402E+04 5.86415E+04 3.92226E+03 6.82030E+04 7.57154E-11-3.59933E-10
 -1       599 8.01894E+04 6.20623E+04 8.41434E+03 6.80154E+04 1.12095E-10 2.49202E-10
 -1       600 8.19995E+04 6.42461E+04 1.68401E+04 6.31296E+04 1.23237E-10 3.42880E-10
 -1       601 4.59944E+04-2.66842E+03-4.50558E+03 7.89257E+04-3.09228E-11 1.60071E-10
 -1       602 4.52288E+04-8.84485E+02-2.41171E+03 8.85154E+04 3.00133E-11-3.38332E-10
 -1       603 4.56506E+04-1.76972E+02-1.44899E+03 7.87526E+04 6.82121E-12 3.92447E-10
 -1       604 4.54456E+04-1.51118E+02-1.50061E+03 8.86967E+04-2.22826E-11 5.27507E-11
 -1       605 4.56708E+04-3.46354E+02-2.24507E+03 7.87456E+04-5.11875E-11-3.68800E-10
 -1       606 4.47929E+04-1.79750E+03-4.62987E+03 8.85879E+04 4.83169E-11-4.51109E-10
 -1       607 4.63154E+04-5.47040E+03-9.18210E+03 7.88602E+04-1.16415E-10-1.22782E-10
 -1       608-9.91936E+03-6.88802E+04-1.68746E+04 8.02324E+04-1.32786E-10-2.04636E-11
 -1       609-3.27562E+03-7.16785E+04-8.76977E+03 9.01653E+04 4.18368E-11-6.38011E-10
 -1       610-7.76814E+02-6.99968E+04-4.76454E+03 8.01461E+04 5.86624E-11-1.95996E-10
 -1       611-1.15678E+03-7.07951E+04-4.31829E+03 9.01355E+04 8.91305E-11 1.21418E-10
 -1       612-3.08851E+03-6.97419E+04-5.88211E+03 8.02599E+04-4.09273E-11 5.28416E-10
 -1       613 1.95563E+05 1.31706E+05 2.42001E+04 1.46133E+05-2.48292E-10-1.83718E-10
 -1       614 1.93468E+05 1.28058E+05 1.21263E+04 1.52997E+05 7.45786E-10-4.24507E-10
 -1       615 1.91804E+05 1.23591E+05 5.72016E+03 1.53400E+05 5.62852E-09 3.87854E-09
 -1       616 1.90649E+05 1.24598E+05 3.49817E+03 1.54299E+05 7.76481E-10-1.16233E-09
 -1       617 1.91584E+05 1.23069E+05 2.88123E+03 1.53895E+05-3.46063E-10 3.49019E-11
 -1       618 1.90703E+05 1.24671E+05 4.02599E+03 1.54290E+05-5.08862E-10 2.63299E-10
 -1       619 1.91861E+05 1.23719E+05 7.01765E+03 1.53253E+05-3.70619E-10 5.32964E-10
 -1       620 1.94184E+05 1.29103E+05 1.51740E+04 1.52679E+05-5.90262E-10-1.16415E-10
 -1       621 1.96656E+05 1.33857E+05 3.04246E+04 1.44087E+05-2.32831E-10 3.36513E-11
 -1       622 2.03793E+05 4.57556E+03 7.75477E+03 7.43209E+04-1.64619E-10 2.37378E-10
 -1       623 2.05026E+05 1.50824E+03 3.97720E+03 8.33716E+04-6.00267E-11 1.29148E-10
 -1       624 2.04273E+05 2.95604E+02 2.05213E+03 7.41652E+04 1.68257E-11 6.23004E-11
 -1       625 2.04470E+05 1.73958E+02 1.60847E+03 8.35299E+04-7.61702E-12-6.36646E-12
 -1       626 2.04271E+05 2.66839E+02 1.90086E+03 7.41612E+04-1.24146E-10 4.19277E-10
 -1       627 2.04930E+05 1.34128E+03 3.55532E+03 8.34149E+04-2.06683E-10 9.36780E-11
 -1       628 2.03838E+05 4.05149E+03 6.86575E+03 7.42808E+04-7.91260E-11 6.39261E-10
 -1       629-1.82655E+04-1.54616E+05-3.13786E+04 9.80242E+04 8.18545E-11 2.10093E-10
 -1       630-6.18530E+03-1.59854E+05-1.71541E+04 1.10144E+05 1.56888E-11-2.00089E-10
 -1       631-1.85741E+03-1.56589E+05-1.09381E+04 9.79112E+04 2.33285E-10-4.71289E-10
 -1       632-4.15658E+03-1.59010E+05-1.28938E+04 1.10126E+05-1.78261E-10 5.49790E-10
 -1       633-1.17272E+04-1.55444E+05-2.08590E+04 9.80409E+04 1.36424E-10 2.87400E-10
 -1       634 2.53018E+05 1.43979E+05 2.67291E+04 1.74282E+05-1.94632E-10-1.20963E-10
 -1       635 2.52401E+05 1.38248E+05 1.33868E+04 1.81367E+05 1.12777E-10 1.85537E-10
 -1       636 2.48819E+05 1.35063E+05 6.30167E+03 1.82325E+05 3.09228E-11 1.30512E-10
 -1       637 2.49339E+05 1.34376E+05 3.82955E+03 1.82791E+05-6.39830E-10-2.41016E-11
 -1       638 2.48573E+05 1.34492E+05 3.11387E+03 1.82877E+05-6.54381E-09-7.14931E-09
 -1       639 2.49388E+05 1.34439E+05 4.30157E+03 1.82785E+05-3.09228E-10 1.05388E-10
 -1       640 2.48870E+05 1.35180E+05 7.46345E+03 1.82197E+05 3.78350E-10 3.55840E-10
 -1       641 2.53063E+05 1.39168E+05 1.61150E+04 1.81082E+05 2.36014E-10-8.50378E-11
 -1       642 2.53984E+05 1.45920E+05 3.23005E+04 1.72461E+05 1.90994E-10-1.25510E-10
 -1       643 2.40330E+05 6.37811E+03 1.07925E+04 5.97068E+04 2.95586E-11-6.63931E-11
 -1       644 2.42065E+05 2.10277E+03 5.55275E+03 6.69909E+04-1.78488E-10-1.45292E-10
 -1       645 2.41028E+05 4.11634E+02 2.90299E+03 5.95875E+04-2.02135E-10 5.03860E-10
 -1       646 2.41324E+05 2.46856E+02 2.34243E+03 6.71110E+04 6.25278E-11 1.75987E-10
 -1       647 2.41027E+05 4.03197E+02 2.85617E+03 5.95854E+04 9.61791E-11-1.31422E-10
 -1       648 2.42033E+05 2.05197E+03 5.42213E+03 6.70118E+04-6.36646E-12-1.36652E-10
 -1       649 2.40341E+05 6.21721E+03 1.05175E+04 5.96875E+04-5.09317E-11 2.83080E-11
 -1       650-2.16943E+04-1.99337E+05-3.74704E+04 8.11535E+04-1.72804E-10-6.16410E-10
 -1       651-7.44971E+03-2.05606E+05-2.10266E+04 9.11894E+04-1.58252E-10 8.74024E-10
 -1       652-2.48571E+03-2.01614E+05-1.43910E+04 8.10608E+04-7.18501E-11 1.57524E-09
 -1       653-6.25031E+03-2.05106E+05-1.85073E+04 9.11741E+04-7.36691E-11-8.02629E-11
 -1       654-1.78286E+04-1.99825E+05-3.12498E+04 8.11677E+04-2.29193E-10-7.27596E-10
 -1       655 2.59278E+05 1.37907E+05 2.58810E+04 1.73100E+05 8.73115E-11 1.26420E-10
 -1       656 2.59401E+05 1.31633E+05 1.29409E+04 1.79750E+05 2.62503E-10-3.04681E-10
 -1       657 2.55190E+05 1.29295E+05 6.05016E+03 1.80896E+05 1.87356E-10-2.74895E-10
 -1       658 2.56455E+05 1.27858E+05 3.59703E+03 1.81120E+05 4.04157E-11 2.25953E-10
 -1       659 2.54951E+05 1.28744E+05 2.79379E+03 1.81435E+05 7.38396E-11 1.23237E-10
 -1       660 2.56465E+05 1.27872E+05 3.69881E+03 1.81120E+05-1.16643E-10 2.38515E-10
 -1       661 2.55203E+05 1.29319E+05 6.30074E+03 1.80869E+05 6.48015E-11 4.20982E-10
 -1       662 2.59530E+05 1.31845E+05 1.35291E+04 1.79694E+05 2.34650E-10 1.59105E-10
 -1       663 2.59501E+05 1.38312E+05 2.70824E+04 1.72705E+05-3.81988E-11-1.39153E-10
 -1       664 1.86009E+05 2.74769E+03 4.67345E+03 4.28058E+04-2.86491E-11-1.27784E-10
 -1       665 1.86753E+05 9.06390E+02 2.45120E+03 4.80393E+04-1.20963E-10-2.88765E-10
 -1       666 1.86307E+05 1.78429E+02 1.37150E+03 4.27249E+04-5.68434E-11-1.82581E-10
 -1       667 1.86454E+05 1.33160E+02 1.26595E+03 4.81202E+04 2.02618E-10 2.24190E-10
 -1       668 1.86289E+05 2.61654E+02 1.74107E+03 4.27245E+04 7.38964E-12 1.11413E-10
 -1       669 1.86937E+05 1.33893E+03 3.48034E+03 4.80439E+04 6.59384E-11-1.07320E-10
 -1       670 1.85838E+05 4.05986E+03 6.84406E+03 4.28016E+04 3.25144E-11 5.34328E-11
 -1       671-1.93273E+04-1.59495E+05-3.35361E+04 7.08207E+04-1.63709E-11-6.50289E-11
 -1       672-6.69098E+03-1.65123E+05-1.91724E+04 7.95753E+04-1.63709E-10-2.21007E-10
 -1       673-2.38389E+03-1.61488E+05-1.37485E+04 7.07391E+04 3.36513E-11-7.46923E-11
 -1       674-6.41747E+03-1.65007E+05-1.85962E+04 7.95646E+04-1.20053E-10 1.25056E-10
 -1       675-1.84446E+04-1.59604E+05-3.21135E+04 7.08308E+04 2.36469E-11-1.24146E-10
 -1       676 2.51439E+05 1.43742E+05 2.54032E+04 1.74341E+05 2.36469E-11-2.68301E-10
 -1       677 2.50745E+05 1.38394E+05 1.26807E+04 1.81107E+05 5.80940E-11-1.15961E-10
 -1       678 2.47428E+05 1.35285E+05 5.88613E+03 1.81994E+05-4.27463E-11-2.28283E-10
 -1       679 2.47846E+05 1.34689E+05 3.41824E+03 1.82450E+05-1.57570E-10-2.19472E-10
 -1       680 2.47195E+05 1.34743E+05 2.51863E+03 1.82528E+05-9.14611E-11-2.48818E-10
 -1       681 2.47816E+05 1.34656E+05 3.15883E+03 1.82455E+05-2.69829E-11-2.53721E-10
 -1       682 2.47402E+05 1.35220E+05 5.24800E+03 1.82064E+05 5.67297E-11 4.54747E-13
 -1       683 2.50365E+05 1.37906E+05 1.11820E+04 1.81268E+05-1.67120E-11 4.13820E-11
 -1       684 2.50924E+05 1.42660E+05 2.23426E+04 1.75337E+05 8.45830E-11-1.11868E-10
 -1       685 1.69181E+05 2.99468E+03 5.10764E+03 1.60615E+04-1.45519E-11 2.41016E-11
 -1       686 1.70003E+05 9.84050E+02 2.70724E+03 1.80128E+04-2.13163E-11-4.82487E-10
 -1       687 1.69514E+05 1.90334E+02 1.56983E+03 1.60259E+04-5.52518E-11-1.57797E-10
 -1       688 1.69696E+05 1.55138E+02 1.53990E+03 1.80494E+04-3.33387E-11 1.76669E-10
 -1       689 1.69484E+05 3.35938E+02 2.21731E+03 1.60245E+04-4.87290E-11 1.13914E-10
 -1       690 1.70327E+05 1.74148E+03 4.51034E+03 1.80270E+04-4.19504E-11 1.47566E-10
 -1       691 1.68882E+05 5.29306E+03 8.91055E+03 1.60485E+04-5.50244E-11-1.87811E-10
 -1       692-9.13664E+03-2.07273E+04-1.60927E+04 6.67151E+04-1.16415E-10 2.41016E-11
 -1       693-3.22078E+03-2.34654E+04-9.68718E+03 7.49319E+04-2.22826E-10-3.62434E-10
 -1       694-1.34330E+03-2.16338E+04-7.79671E+03 6.66255E+04-1.72349E-10-3.49303E-10
 -1       695-4.19338E+03-2.38708E+04-1.17304E+04 7.49478E+04-2.94676E-10-1.23066E-10
 -1       696-1.22719E+04-2.03314E+04-2.11379E+04 6.66999E+04-1.75532E-10 1.73259E-10
 -1       697 1.24473E+05 8.59800E+04 8.90831E+03 9.84814E+04 3.18323E-12-2.45564E-11
 -1       698 1.23017E+05 8.53176E+04 4.49278E+03 1.01200E+05 4.18652E-11 2.67889E-10
 -1       699 1.23076E+05 8.30085E+04 2.17655E+03 1.01158E+05 1.10276E-11-5.10738E-11
 -1       700 1.22000E+05 8.40349E+04 1.44025E+03 1.01679E+05-6.51994E-11-1.84173E-10
 -1       701 1.22991E+05 8.28190E+04 1.36406E+03 1.01336E+05 3.27418E-11-3.38105E-10
 -1       702 1.22083E+05 8.41162E+04 2.12237E+03 1.01668E+05-8.01776E-11-6.13909E-11
 -1       703 1.23140E+05 8.31866E+04 3.85444E+03 1.00977E+05 1.25056E-11-2.16005E-11
 -1       704 1.24070E+05 8.65481E+04 8.43353E+03 1.00762E+05-8.41736E-11 2.49202E-10
 -1       705 1.25777E+05 8.88763E+04 1.69560E+04 9.58792E+04-3.95630E-11 1.75532E-10
 -1       706 2.36822E+05 9.62819E+03 1.62639E+04 2.14168E+03 1.55751E-11 3.24690E-10
 -1       707 2.39467E+05 3.16612E+03 8.33725E+03 2.35387E+03 4.00178E-11-6.59384E-11
 -1       708 2.37913E+05 6.10710E+02 4.30479E+03 2.11758E+03-2.13731E-11 6.93490E-11
 -1       709 2.38363E+05 3.39428E+02 3.37738E+03 2.38193E+03-7.73070E-12 8.70415E-11
 -1       710 2.37926E+05 5.42857E+02 4.00156E+03 2.11301E+03 1.88720E-11 2.59206E-10
 -1       711 2.39314E+05 2.81206E+03 7.49281E+03 2.40232E+03 5.54792E-11 1.95996E-10
 -1       712 2.36961E+05 8.55275E+03 1.44830E+04 2.09646E+03 5.19549E-11-5.36602E-11
 -1       713-5.58082E+03-1.28439E+03-9.52695E+03 1.91542E+03 2.45564E-11 2.56250E-10
 -1       714-1.89578E+03-2.86734E+03-5.13567E+03 2.07430E+03-8.18545E-12 1.94404E-11
 -1       715-5.51041E+02-1.88572E+03-3.14139E+03 1.87670E+03 1.22213E-11-1.13459E-10
 -1       716-1.11240E+03-2.54498E+03-3.49349E+03 2.14753E+03-2.00089E-11 4.50200E-11
 -1       717-3.05770E+03-1.60813E+03-5.47144E+03 1.84288E+03 2.00089E-11 1.38925E-10
 -1       718 3.56076E+04 2.66272E+03-4.76964E+03 1.81133E+04 1.03455E-11-2.33058E-10
 -1       719 3.70888E+04 2.31629E+03-2.31114E+03 1.64373E+04-8.05755E-12-2.13163E-10
 -1       720 3.63524E+04 4.26465E+03-9.33899E+02 1.66716E+04-6.29257E-11 3.80851E-12
 -1       721 3.76584E+04 3.01345E+03-2.73942E+02 1.61903E+04-6.48015E-11 7.42375E-11
 -1       722 3.63904E+04 4.36885E+03 2.58948E+02 1.65592E+04-4.13820E-11-8.84484E-11
 -1       723 3.77946E+04 3.16997E+03 9.50633E+02 1.61720E+04 1.36424E-12-2.65345E-10
 -1       724 3.64799E+04 4.57373E+03 2.07941E+03 1.63438E+04 4.50200E-11 7.67386E-11
 -1       725 3.88730E+04 4.63394E+03 4.76603E+03 1.56807E+04 3.00133E-11-2.26805E-11
 -1       726 3.80484E+04 7.76337E+03 9.68203E+03 1.34101E+04-1.97360E-10 2.56023E-10
 -1       727 3.26909E+05 1.43047E+04 2.39234E+04 3.05518E+02-3.27418E-10-6.00267E-10
 -1       728 3.30800E+05 4.70554E+03 1.18069E+04 2.03815E+02 2.23736E-10 3.39469E-10
 -1       729 3.28554E+05 9.02832E+02 5.21173E+03 2.51349E+02-4.82487E-10-3.99496E-10
 -1       730 3.28966E+05 2.48591E+02 2.50414E+03 2.70234E+02-2.21917E-10-1.26931E-10
 -1       731 3.28746E+05-5.39721E+01 9.46523E+02 2.38869E+02-3.36513E-11-5.66160E-11
 -1       732 3.28655E+05-2.78967E+02-7.03473E+01 3.35592E+02-9.05857E-10-5.25162E-10
 -1       733 3.28866E+05-8.29776E+02-1.12726E+03 1.86419E+02 1.08685E-10 2.07365E-10
 -1       734-1.10880E+04-7.06163E+04-1.86320E+04-1.72096E+04-1.80080E-10 5.00222E-11
 -1       735-3.67446E+03-7.36736E+04-9.38835E+03-1.93266E+04-8.50378E-11 2.72848E-10
 -1       736-7.90644E+02-7.18737E+04-4.53179E+03-1.71847E+04-2.06910E-10-6.92353E-11
 -1       737-6.56774E+02-7.24299E+04-3.06077E+03-1.93332E+04-1.04933E-10-1.16856E-10
 -1       738-1.36761E+03-7.18611E+04-3.00585E+03-1.72026E+04-2.31182E-10-8.33893E-11
 -1       739 6.03784E+04 1.72917E+04-2.52314E+03 3.57559E+04 1.55211E-08 2.14009E-08
 -1       740 6.18714E+04 1.63979E+04-1.21319E+03 3.46612E+04 3.46745E-11-1.07320E-10
 -1       741 6.08144E+04 1.81014E+04-4.71155E+02 3.49843E+04 9.45192E-10-3.00133E-10
 -1       742 6.21304E+04 1.68117E+04-9.64393E+01 3.45471E+04 4.71118E-10-7.53971E-10
 -1       743 6.08403E+04 1.81506E+04 2.34162E+02 3.49242E+04-3.82443E-10-5.78893E-10
 -1       744 6.22110E+04 1.69297E+04 7.08885E+02 3.45430E+04-4.62933E-10-2.37605E-10
 -1       745 6.09123E+04 1.82892E+04 1.50712E+03 3.47701E+04-7.59428E-11-3.54703E-10
 -1       746 6.29268E+04 1.80435E+04 3.43551E+03 3.42092E+04 6.96673E-10 4.40195E-10
 -1       747 6.21008E+04 2.05325E+04 6.96937E+03 3.26453E+04 3.22871E-10 3.30147E-10
 -1       748 5.06659E+05 1.05210E+04 1.79180E+04 9.97869E+04-3.03044E-09-1.00044E-09
 -1       749 5.09490E+05 3.52308E+03 9.54354E+03 1.11628E+05-8.00355E-10-6.21185E-10
 -1       750 5.07693E+05 7.53944E+02 5.60553E+03 9.94703E+04 2.69392E-09 2.83762E-10
 -1       751 5.08299E+05 7.04077E+02 5.61950E+03 1.11973E+05-1.66438E-09-1.31877E-09
 -1       752 5.07487E+05 1.39056E+03 8.20675E+03 9.94398E+04-4.85852E-09-2.13277E-09
 -1       753 5.10592E+05 6.66412E+03 1.67804E+04 1.11951E+05-7.59974E-09-2.12458E-09
 -1       754 5.05210E+05 1.98821E+04 3.31909E+04 9.94734E+04-3.64037E-09-1.28239E-09
 -1       755-1.28432E+04 1.40428E+05-2.09549E+04 7.14786E+03-1.53705E-09-1.67802E-10
 -1       756-4.08315E+03 1.37042E+05-9.21044E+03 8.11391E+03-1.78125E-09 2.22485E-10
 -1       757-3.17122E+02 1.38849E+05-1.78174E+03 7.17798E+03-1.87856E-09 2.76941E-10
 -1       758 2.36679E+03 1.39702E+05 4.31613E+03 8.04223E+03-2.04273E-09 4.59295E-11
 -1       759 7.93547E+03 1.37770E+05 1.24500E+04 7.22662E+03-1.88084E-09-4.97948E-10
 -1       760 2.19269E+05 1.77098E+05 5.58866E+03 1.96880E+05-1.34719E-09-1.83718E-10
 -1       761 2.15204E+05 1.79838E+05 2.97152E+03 1.99470E+05-3.49928E-09-1.81444E-10
 -1       762 2.18533E+05 1.75085E+05 1.73326E+03 1.98478E+05 1.87538E-09 8.68567E-11
 -1       763 2.14407E+05 1.79225E+05 1.69671E+03 1.99814E+05 5.77074E-10-2.51816E-10
 -1       764 2.18479E+05 1.74957E+05 2.43352E+03 1.98539E+05 1.80989E-10 1.08457E-10
 -1       765 2.14715E+05 1.79612E+05 4.65800E+03 1.99752E+05-3.71256E-09-5.60071E-10
 -1       766 2.18832E+05 1.75824E+05 9.02241E+03 1.97646E+05-9.31323E-10-1.30740E-09
 -1       767 2.19381E+05 1.85538E+05 2.00853E+04 1.97610E+05-3.77440E-11 1.13687E-10
 -1       768 2.25239E+05 1.89324E+05 4.05407E+04 1.85405E+05 1.83354E-09-9.71340E-10
 -1       769 2.42004E+05 2.94877E+03 5.05874E+03 3.31787E+04-1.48339E-09-6.23004E-10
 -1       770 2.42802E+05 1.00820E+03 2.88724E+03 3.71581E+04 2.51634E-09-2.47837E-10
 -1       771 2.42306E+05 2.36902E+02 2.05891E+03 3.30961E+04-3.55976E-09-9.53605E-10
 -1       772 2.42584E+05 3.25708E+02 2.63368E+03 3.72485E+04-4.85215E-10-4.95675E-10
 -1       773 2.42195E+05 7.69213E+02 4.41776E+03 3.30899E+04 2.08843E-10-7.28960E-10
 -1       774 2.43976E+05 3.77108E+03 9.45569E+03 3.72159E+04 1.82195E-09-6.30735E-10
 -1       775 2.40907E+05 1.13269E+04 1.89132E+04 3.31172E+04 1.02898E-09-4.29281E-10
 -1       776-2.54956E+04-2.00876E+05-4.33696E+04 6.62182E+04 2.17005E-09-2.77396E-10
 -1       777-8.71142E+03-2.08070E+05-2.33465E+04 7.43214E+04 1.30967E-09 6.07542E-10
 -1       778-2.56298E+03-2.03643E+05-1.42198E+04 6.61213E+04 1.96906E-09 1.29148E-10
 -1       779-5.06488E+03-2.06586E+05-1.57171E+04 7.43959E+04 1.46611E-09 1.36993E-11
 -1       780-1.37626E+04-2.02405E+05-2.45299E+04 6.61583E+04 2.58933E-09-7.13271E-10
 -1       781 1.62500E+05 7.77094E+04 4.46444E+03 1.10025E+05 5.64000E-10-9.81117E-11
 -1       782 1.63511E+05 7.56387E+04 2.34216E+03 1.10867E+05-8.67090E-10-6.31758E-10
 -1       783 1.61783E+05 7.62444E+04 1.31268E+03 1.11361E+05-4.90451E-09-1.58343E-09
 -1       784 1.63037E+05 7.49931E+04 1.19846E+03 1.11112E+05-3.30246E-09-5.60021E-10
 -1       785 1.61732E+05 7.61536E+04 1.63237E+03 1.11434E+05 1.49521E-09-4.03702E-10
 -1       786 1.63249E+05 7.52275E+04 3.06460E+03 1.11082E+05 5.45356E-10-1.32161E-10
 -1       787 1.61972E+05 7.67187E+04 5.90436E+03 1.10860E+05-7.20775E-11-3.18551E-10
 -1       788 1.66269E+05 7.91285E+04 1.31259E+04 1.09699E+05-9.43237E-09-8.03345E-09
 -1       789 1.66192E+05 8.55068E+04 2.64858E+04 1.02861E+05 4.13547E-09 3.09228E-10
 -1       790 8.62774E+04 1.42991E+03 2.42536E+03 2.47920E+04-5.01586E-09-8.72205E-10
 -1       791 8.66607E+04 5.02274E+02 1.38799E+03 2.78032E+04-4.41685E-09-1.03989E-09
 -1       792 8.64229E+04 1.30504E+02 9.96377E+02 2.47414E+04-2.13151E-09-8.54698E-10
 -1       793 8.65594E+04 1.76852E+02 1.28306E+03 2.78566E+04 2.21087E-09-4.21551E-10
 -1       794 8.63698E+04 3.91872E+02 2.15895E+03 2.47396E+04 9.69266E-10-4.63160E-10
 -1       795 8.72431E+04 1.86216E+03 4.62553E+03 2.78180E+04-4.89968E-09-7.85803E-10
 -1       796 8.57415E+04 5.55664E+03 9.25384E+03 2.47743E+04-2.46393E-09-5.33419E-10
 -1       797-1.71441E+04-2.02451E+05-2.93430E+04 4.56465E+04-3.19960E-09-8.34916E-10
 -1       798-5.92555E+03-2.07328E+05-1.62207E+04 5.12428E+04 1.57621E-09-7.92397E-11
 -1       799-1.93019E+03-2.04262E+05-1.06657E+04 4.55885E+04-3.07227E-09 7.31688E-10
 -1       800-4.42502E+03-2.06716E+05-1.30795E+04 5.12766E+04 5.96174E-10 4.41446E-10
 -1       801-1.23146E+04-2.03078E+05-2.15859E+04 4.56191E+04-4.73665E-09-8.31164E-10
 -1       802 9.03056E+04 4.48321E+04 7.14001E+03 5.93436E+04-2.82557E-09-5.09317E-10
 -1       803 9.06376E+04 4.28069E+04 3.61207E+03 6.10876E+04 5.20498E-09 6.65477E-09
 -1       804 8.91663E+04 4.24702E+04 1.77178E+03 6.14925E+04 7.97627E-10-1.18519E-09
 -1       805 8.98411E+04 4.17640E+04 1.21317E+03 6.14676E+04-5.18548E-09 2.89504E-10
 -1       806 8.90960E+04 4.23206E+04 1.21054E+03 6.16337E+04 6.62382E-10 1.04166E-10
 -1       807 8.99250E+04 4.18556E+04 1.94817E+03 6.14553E+04 6.24027E-10 5.20203E-10
 -1       808 8.92398E+04 4.26576E+04 3.58018E+03 6.12952E+04 1.68302E-09-2.43233E-10
 -1       809 9.17311E+04 4.41743E+04 7.85948E+03 6.06249E+04-1.74384E-09-7.38072E-09
 -1       810 9.17529E+04 4.79095E+04 1.58133E+04 5.65236E+04 8.40373E-10-3.66526E-10
 -1       811 1.43059E+04 9.69459E+02 1.66526E+03 1.30129E+04 5.52234E-09-3.24007E-10
 -1       812 1.45750E+04 3.35194E+02 9.73432E+02 1.46097E+04 7.65758E-09-4.00405E-10
 -1       813 1.44062E+04 8.23410E+01 7.34534E+02 1.29916E+04 2.16374E-09-7.35781E-10
 -1       814 1.45170E+04 1.24290E+02 9.91911E+02 1.46315E+04-4.12462E-09-5.04656E-10
 -1       815 1.43629E+04 2.99893E+02 1.70497E+03 1.29918E+04 1.80705E-09-5.14092E-10
 -1       816 1.50637E+04 1.46917E+03 3.67606E+03 1.46046E+04-1.45064E-10-3.74939E-10
 -1       817 1.38616E+04 4.41268E+03 7.36536E+03 1.30140E+04 3.29612E-09-3.73575E-10
 -1       818-9.68936E+03-1.51237E+05-1.66745E+04 3.05717E+04-6.72571E-09 8.61746E-11
 -1       819-3.38769E+03-1.54015E+05-9.44604E+03 3.43237E+04-7.55873E-09 1.18166E-09
 -1       820-1.20503E+03-1.52237E+05-6.62272E+03 3.05350E+04-7.47241E-09 6.87066E-10
 -1       821-3.05373E+03-1.53879E+05-8.74726E+03 3.43384E+04-8.45102E-09 4.95248E-11
 -1       822-8.61461E+03-1.51377E+05-1.49487E+04 3.05586E+04-6.36146E-09-1.23191E-09
 -1       823 3.45487E+04 1.58081E+04 5.14175E+03 2.03161E+04 1.08719E-09 1.00044E-10
 -1       824 3.47186E+04 1.44218E+04 2.59257E+03 2.15954E+04-5.40581E-11 5.08976E-10
 -1       825 3.37234E+04 1.41119E+04 1.25494E+03 2.18660E+04-4.27485E-09 2.45369E-09
 -1       826 3.41489E+04 1.36639E+04 8.28503E+02 2.18665E+04 1.33764E-09 2.00494E-10
 -1       827 3.36725E+04 1.40043E+04 7.81898E+02 2.19693E+04 1.19013E-09-1.45181E-09
 -1       828 3.41944E+04 1.37104E+04 1.21358E+03 2.18595E+04-5.48106E-09-1.62719E-09
 -1       829 3.37602E+04 1.42116E+04 2.20231E+03 2.17628E+04 6.95096E-09 4.76166E-09
 -1       830 3.53063E+04 1.51235E+04 4.81783E+03 2.13484E+04-1.15347E-09-1.93421E-09
 -1       831 3.52933E+04 1.74339E+04 9.68577E+03 1.88423E+04-8.12224E-09-5.33873E-10
 -1       832-4.49600E+03-1.24755E+05-7.81586E+03 1.38817E+04 4.28145E-09 2.39766E-10
 -1       833-1.59496E+03-1.26061E+05-4.59485E+03 1.55706E+04 1.34357E-09 1.10072E-09
 -1       834-6.36672E+02-1.25202E+05-3.51522E+03 1.38607E+04 3.35592E-09-4.82601E-11
 -1       835-1.81727E+03-1.26153E+05-5.06174E+03 1.55858E+04 1.34378E-10-7.49175E-10
 -1       836-5.21255E+03-1.24665E+05-8.96885E+03 1.38660E+04 7.38055E-10-8.46356E-10
 -1       837-1.27426E+05-1.26084E+03-2.18315E+03 4.30556E+04-4.22915E-11 1.29603E-10
 -1       838-1.27780E+05-4.28751E+02-1.30907E+03 4.82410E+04-2.81943E-11-2.77623E-10
 -1       839-1.27575E+05-9.81535E+01-1.04614E+03 4.29437E+04 1.04592E-11 1.61890E-10
 -1       840-1.27737E+05-1.65911E+02-1.48353E+03 4.83616E+04-2.36469E-11-3.09228E-11
 -1       841-1.27515E+05-4.41778E+02-2.60373E+03 4.29356E+04-6.18456E-11 1.68257E-10
 -1       842-1.28585E+05-2.23848E+03-5.64778E+03 4.83233E+04-5.85061E-11 9.91349E-11
 -1       843-1.26740E+05-6.77365E+03-1.13327E+04 4.29801E+04-1.26988E-10 2.77396E-11
 -1       844-8.19076E+03-2.37748E+05-1.33648E+04 9.60514E+04-7.00311E-11 2.13731E-11
 -1       845-2.48325E+03-2.39890E+05-5.56431E+03 1.07924E+05-8.73115E-11-6.78710E-11
 -1       846 2.51272E+01-2.38816E+05-3.81247E+02 9.59338E+04 6.00267E-11-5.09630E-10
 -1       847 2.32292E+03-2.37905E+05 4.51738E+03 1.07915E+05 5.13865E-11-5.70367E-10
 -1       848 7.29418E+03-2.39723E+05 1.15338E+04 9.60546E+04 9.64064E-11-6.13454E-10
 -1       849 4.06969E+04 4.36813E+04 1.94155E+04 3.23548E+04 5.04770E-11 4.29281E-10
 -1       850 3.87989E+04 4.09865E+04 9.75144E+03 3.79318E+04-7.92397E-11 4.02906E-10
 -1       851 3.76972E+04 3.71521E+04 4.64614E+03 3.81743E+04 4.77485E-12 8.68567E-11
 -1       852 3.65236E+04 3.82362E+04 2.93082E+03 3.89836E+04 9.09495E-12 9.85665E-11
 -1       853 3.75206E+04 3.67314E+04 2.55837E+03 3.85656E+04 1.50067E-11 2.00203E-10
 -1       854 3.66065E+04 3.83466E+04 3.75153E+03 3.89700E+04 3.22871E-11 2.76614E-10
 -1       855 3.77861E+04 3.73536E+04 6.66653E+03 3.79476E+04-5.91172E-12 1.99407E-10
 -1       856 3.99335E+04 4.25980E+04 1.44964E+04 3.74333E+04-2.72848E-12 7.73070E-11
 -1       857 4.23802E+04 4.70471E+04 2.91050E+04 2.91762E+04 5.63887E-11 5.82077E-11
 -1       858-1.09830E+05-5.69767E+03-9.65635E+03 5.37386E+04-1.30967E-10-2.13731E-10
 -1       859-1.11414E+05-1.88020E+03-5.07516E+03 6.02545E+04-1.59162E-12-3.74257E-10
 -1       860-1.10491E+05-3.69560E+02-2.86557E+03 5.36162E+04-6.04814E-11-4.27917E-10
 -1       861-1.10838E+05-2.74723E+02-2.68714E+03 6.03852E+04-1.23919E-11 4.82032E-11
 -1       862-1.10461E+05-5.61377E+02-3.74506E+03 5.36099E+04-3.93356E-11 3.15140E-10
 -1       863-1.11877E+05-2.89785E+03-7.52526E+03 6.03179E+04 2.16005E-11-1.22327E-10
 -1       864-1.09453E+05-8.80485E+03-1.48226E+04 5.36820E+04 2.04636E-11 1.20963E-10
 -1       865-3.26026E+03-7.29019E+04-5.01471E+03 8.18793E+04-1.13687E-10 2.55795E-10
 -1       866-8.76585E+02-7.36738E+04-1.33310E+03 9.20214E+04 1.40972E-11 3.92788E-10
 -1       867 3.52051E+02-7.33983E+04 1.70999E+03 8.17943E+04-8.59472E-11-2.00544E-10
 -1       868 2.63030E+03-7.22162E+04 6.03091E+03 9.19867E+04 7.45786E-11-3.62206E-10
 -1       869 8.04429E+03-7.43329E+04 1.31719E+04 8.19118E+04 7.73070E-11-2.94222E-10
 -1       870 6.44461E+04 6.09307E+04 1.47618E+04 5.56491E+04 1.39607E-10 2.36469E-11
 -1       871 6.23166E+04 5.95689E+04 7.42822E+03 6.00860E+04 1.45064E-10 8.09450E-11
 -1       872 6.21807E+04 5.59555E+04 3.56559E+03 6.00681E+04 2.75122E-11 1.55978E-10
 -1       873 6.05701E+04 5.74946E+04 2.29794E+03 6.08902E+04 1.08685E-10-2.09639E-10
 -1       874 6.20462E+04 5.56342E+04 2.08454E+03 6.03617E+04-2.72848E-12-1.85992E-10
 -1       875 6.06594E+04 5.76082E+04 3.14597E+03 6.08762E+04-1.26420E-10 7.19638E-11
 -1       876 6.22691E+04 5.61643E+04 5.65097E+03 5.98340E+04-1.25965E-10-7.34417E-11
 -1       877 6.35059E+04 6.12131E+04 1.23266E+04 5.95653E+04-1.00044E-10-1.24601E-10
 -1       878 6.61677E+04 6.44247E+04 2.47656E+04 5.23730E+04 6.73026E-11 1.54614E-11
 -1       879 1.44210E+04-8.99544E+02-1.56014E+03 5.86487E+04 4.00178E-11-1.06411E-10
 -1       880 1.41508E+04-2.93627E+02-9.09928E+02 6.57862E+04 1.27557E-10 2.88310E-10
 -1       881 1.42999E+04-5.51243E+01-6.86491E+02 5.85240E+04 1.15051E-10 2.40561E-10
 -1       882 1.41850E+04-8.62395E+01-9.26208E+02 6.59150E+04 4.82032E-11-2.27374E-11
 -1       883 1.43341E+04-2.54646E+02-1.59332E+03 5.85201E+04-1.39323E-10-1.18234E-11
 -1       884 1.36796E+04-1.34616E+03-3.43589E+03 6.58276E+04 2.47951E-10-2.99224E-10
 -1       885 1.48182E+04-4.10763E+03-6.88674E+03 5.86108E+04 6.45741E-11 1.49612E-10
 -1       886-6.94952E+03-8.09678E+04-1.15320E+04 7.45434E+04-7.27596E-12 8.57199E-11
 -1       887-2.21837E+03-8.28459E+04-5.38641E+03 8.37785E+04-1.70530E-10 5.30861E-10
 -1       888-2.75947E+02-8.18064E+04-1.76550E+03 7.44671E+04 1.43700E-10-6.42785E-10
 -1       889 6.02102E+02-8.16728E+04 5.36811E+02 8.37453E+04-1.81899E-11-2.48974E-10
 -1       890 2.14218E+03-8.21180E+04 3.09563E+03 7.45754E+04-2.45564E-11-2.27374E-10
 -1       891 1.15730E+05 7.91754E+04 1.67917E+04 8.57680E+04-5.45697E-12-1.78261E-10
 -1       892 1.14365E+05 7.65586E+04 8.41540E+03 9.05064E+04 3.78719E-10-1.29376E-10
 -1       893 1.13121E+05 7.35432E+04 3.97152E+03 9.08094E+04-1.55751E-11-8.89031E-11
 -1       894 1.12406E+05 7.41608E+04 2.43383E+03 9.14105E+04-4.03588E-11 4.77485E-12
 -1       895 1.12970E+05 7.31817E+04 2.01231E+03 9.11535E+04-9.09495E-11 2.01226E-11
 -1       896 1.12444E+05 7.42142E+04 2.82087E+03 9.14046E+04 1.47793E-12-1.28814E-10
 -1       897 1.13165E+05 7.36370E+04 4.92442E+03 9.07024E+04-1.16643E-10 2.38742E-12
 -1       898 1.14885E+05 7.73328E+04 1.06527E+04 9.02758E+04-4.54747E-12 2.08274E-10
 -1       899 1.16538E+05 8.07487E+04 2.13610E+04 8.42655E+04 6.18456E-11 1.60071E-10
 -1       900 1.43558E+05 4.11171E+03 6.90257E+03 5.69738E+04-1.46429E-10-2.45564E-11
 -1       901 1.44665E+05 1.35902E+03 3.44895E+03 6.39281E+04-1.62345E-10 1.54614E-11
 -1       902 1.44007E+05 2.68124E+02 1.60453E+03 5.68613E+04-2.04864E-10-8.27640E-11
 -1       903 1.44139E+05 1.06698E+02 9.43574E+02 6.40416E+04-4.09273E-11 1.69166E-10
 -1       904 1.44045E+05 7.01121E+01 7.14450E+02 5.68596E+04-1.31877E-10 2.04182E-10
 -1       905 1.44211E+05 3.21874E+02 9.69989E+02 6.39456E+04-1.08685E-10 2.68301E-11
 -1       906 1.43959E+05 9.57469E+02 1.67457E+03 5.69575E+04-5.41149E-11-2.28056E-10
 -1       907-1.25647E+04-1.17680E+05-2.14621E+04 6.02025E+04 1.27329E-11 2.01226E-10
 -1       908-4.24639E+03-1.21241E+05-1.15327E+04 6.76728E+04-2.07820E-10 9.76570E-11
 -1       909-1.20669E+03-1.19043E+05-6.98769E+03 6.01464E+04-9.61791E-11-2.64549E-10
 -1       910-2.40474E+03-1.20473E+05-7.66287E+03 6.76354E+04-9.91349E-11 3.31397E-10
 -1       911-6.62724E+03-1.18428E+05-1.19063E+04 6.02387E+04-6.92353E-11-1.71894E-10
 -1       912 1.65217E+05 9.21494E+04 1.79505E+04 1.12239E+05 1.72804E-11 2.82853E-10
 -1       913 1.64961E+05 8.81372E+04 8.95544E+03 1.16953E+05-2.14868E-11 5.05906E-11
 -1       914 1.62397E+05 8.61587E+04 4.14710E+03 1.17644E+05-3.97051E-11-1.09594E-10
 -1       915 1.62895E+05 8.55340E+04 2.38964E+03 1.17907E+05 1.20735E-10-4.52303E-10
 -1       916 1.62234E+05 8.57734E+04 1.72835E+03 1.18021E+05-8.13998E-11-3.49019E-11
 -1       917 1.62861E+05 8.55048E+04 2.12426E+03 1.17913E+05-6.30962E-09-7.74935E-09
 -1       918 1.62375E+05 8.60870E+04 3.49449E+03 1.17715E+05-4.20641E-11 2.05688E-10
 -1       919 1.64527E+05 8.76833E+04 7.42253E+03 1.17133E+05 1.23009E-10-1.29177E-10
 -1       920 1.64734E+05 9.09995E+04 1.48200E+04 1.13247E+05 8.77662E-11-2.99224E-10
 -1       921 1.92192E+05 4.04114E+03 6.78312E+03 6.20812E+04-1.12323E-10 8.73115E-11
 -1       922 1.93274E+05 1.33931E+03 3.40226E+03 6.96952E+04-1.29603E-10 2.18279E-11
 -1       923 1.92633E+05 2.67250E+02 1.60849E+03 6.19738E+04-7.95808E-12 1.36424E-11
 -1       924 1.92768E+05 1.14942E+02 9.96772E+02 6.98005E+04 2.87855E-10 4.69299E-10
 -1       925 1.92671E+05 9.33497E+01 8.41001E+02 6.19755E+04-7.73070E-12 8.64020E-11
 -1       926 1.92895E+05 4.39033E+02 1.26516E+03 6.96779E+04-4.79758E-11-1.84627E-10
 -1       927 1.92552E+05 1.31355E+03 2.27553E+03 6.20966E+04 5.00222E-12 1.80989E-10
 -1       928-1.73115E+04-1.41862E+05-2.99944E+04 4.65163E+04 9.27685E-11-1.40517E-10
 -1       929-5.99421E+03-1.46885E+05-1.70818E+04 5.22999E+04-7.63691E-11-8.14140E-11
 -1       930-2.11584E+03-1.43643E+05-1.21332E+04 4.64784E+04 6.25278E-11-2.11230E-10
 -1       931-5.60041E+03-1.46715E+05-1.62495E+04 5.22603E+04-2.54659E-11 1.35515E-10
 -1       932-1.60388E+04-1.42015E+05-2.79396E+04 4.65541E+04 4.91127E-11-2.10548E-10
 -1       933 2.42262E+05 1.21137E+05 2.35791E+04 1.56938E+05 3.27418E-11-8.64020E-11
 -1       934 2.42984E+05 1.14797E+05 1.17026E+04 1.62824E+05 1.89175E-10-1.21190E-10
 -1       935 2.38524E+05 1.13297E+05 5.29766E+03 1.64053E+05 4.61569E-11-3.21052E-10
 -1       936 2.40294E+05 1.11331E+05 2.81657E+03 1.64059E+05-2.34195E-11 9.18590E-11
 -1       937 2.38311E+05 1.12794E+05 1.62873E+03 1.64561E+05-2.49827E-11-2.84217E-10
 -1       938 2.40135E+05 1.11162E+05 1.43676E+03 1.64084E+05-5.82077E-11-3.79259E-10
 -1       939 2.38389E+05 1.12942E+05 1.90223E+03 1.64424E+05-5.34328E-11-1.04933E-10
 -1       940 2.40908E+05 1.12255E+05 3.72870E+03 1.63703E+05 2.00771E-10 3.77440E-10
 -1       941 2.39581E+05 1.15328E+05 7.29650E+03 1.62226E+05 7.27596E-11-6.23004E-11
 -1       942-1.25756E+04-1.17788E+04-1.97739E+04 4.55388E+04 7.36691E-11 1.17325E-10
 -1       943-1.58197E+04-3.87355E+03-9.91172E+03 5.11491E+04 4.78622E-11-1.18234E-11
 -1       944-1.39296E+04-7.44450E+02-4.68220E+03 4.54700E+04-2.73417E-11 1.03228E-10
 -1       945-1.43767E+04-2.88488E+02-2.89380E+03 5.12159E+04 7.34417E-11-8.18545E-11
 -1       946-1.40260E+04-2.43188E+02-2.43607E+03 4.54732E+04 4.38831E-11-8.18545E-12
 -1       947-1.46800E+04-1.25301E+03-3.65587E+03 5.11151E+04-4.11546E-11-1.77351E-10
 -1       948-1.35936E+04-3.81524E+03-6.58124E+03 4.55699E+04 3.00133E-11-2.00089E-11
 -1       949-2.07438E+04-1.52541E+05-3.65055E+04 6.46911E+04-9.64064E-11 1.08457E-10
 -1       950-7.33705E+03-1.58721E+05-2.19651E+04 7.27341E+04-2.20439E-10 4.55564E-11
 -1       951-3.07376E+03-1.54565E+05-1.76562E+04 6.46380E+04-1.00954E-10-3.39242E-10
 -1       952-9.52424E+03-1.59608E+05-2.65387E+04 7.26798E+04-2.91038E-10 1.17552E-10
 -1       953-2.77789E+04-1.51621E+05-4.77988E+04 6.47418E+04-1.09139E-11-4.09273E-11
 -1       954 4.24761E+05 2.40466E+05 4.96999E+04 2.88743E+05 9.09495E-11-2.36469E-11
 -1       955 4.23604E+05 2.29818E+05 2.48549E+04 3.01927E+05 2.96495E-10 9.81345E-10
 -1       956 4.16897E+05 2.23943E+05 1.16312E+04 3.03719E+05 4.91127E-11 4.09045E-10
 -1       957 4.17962E+05 2.22556E+05 6.93377E+03 3.04555E+05-1.85196E-10 1.40190E-10
 -1       958 4.16435E+05 2.22885E+05 5.41664E+03 3.04754E+05-3.00133E-11-2.02363E-10
 -1       959 4.17998E+05 2.22586E+05 7.21087E+03 3.04548E+05-3.05022E-10 3.21506E-10
 -1       960 4.16919E+05 2.24018E+05 1.23126E+04 3.03644E+05-2.00089E-11-4.09273E-11
 -1       961 4.24061E+05 2.30286E+05 2.64552E+04 3.01736E+05-2.07592E-10 1.33696E-10
 -1       962 4.25254E+05 2.41676E+05 5.29685E+04 2.87692E+05-4.96584E-10-2.92857E-10
 -1       963-8.87197E+04-8.61890E+03-1.44568E+04 1.35785E+04-1.14596E-10 1.24487E-10
 -1       964-9.10809E+04-2.83920E+03-7.23623E+03 1.51253E+04 2.91038E-11 4.50655E-10
 -1       965-8.97087E+04-5.49899E+02-3.39785E+03 1.35084E+04 1.03682E-10 1.03000E-10
 -1       966-9.00244E+04-2.09626E+02-2.05949E+03 1.52085E+04 5.68434E-11 3.38105E-10
 -1       967-8.97904E+04-1.59411E+02-1.66792E+03 1.34972E+04 3.81988E-11 3.85398E-11
 -1       968-9.02201E+04-8.12467E+02-2.41854E+03 1.52422E+04 1.58479E-10 9.98170E-11
 -1       969-8.95248E+04-2.47454E+03-4.29608E+03 1.34751E+04 1.35515E-10-5.43423E-11
 -1       970 5.04251E+03 1.23525E+05 8.17521E+03 1.94426E+05 2.74667E-10-1.45519E-10
 -1       971 1.79508E+03 1.24744E+05 3.89681E+03 2.18373E+05 1.45519E-11 1.58252E-10
 -1       972 4.22725E+02 1.23976E+05 1.41527E+03 1.94169E+05 7.82165E-11 2.37605E-11
 -1       973-5.50673E+01 1.23953E+05-6.83912E+00 2.18408E+05 1.78261E-10-1.09139E-11
 -1       974-9.34004E+02 1.24254E+05-1.46414E+03 1.94391E+05-3.86535E-11-3.22871E-10
 -1       975 2.30814E+04 2.76168E+04 5.73994E+02 2.67928E+04-1.95257E-11 1.40972E-11
 -1       976 2.20097E+04 2.85804E+04 5.16017E+02 2.72339E+04-1.41881E-10 8.18545E-11
 -1       977 2.30399E+04 2.73918E+04 6.96375E+02 2.69242E+04-1.04137E-10-4.20641E-11
 -1       978 2.19378E+04 2.85881E+04 1.28816E+03 2.73032E+04-5.77529E-11-1.95428E-10
 -1       979 2.30217E+04 2.73806E+04 2.46690E+03 2.68896E+04 1.22782E-11-9.03526E-11
 -1       980 2.23716E+04 2.90757E+04 5.15507E+03 2.72385E+04-1.09139E-11-4.82032E-11
 -1       981 2.34302E+04 2.83740E+04 1.02118E+04 2.58816E+04 5.04770E-11 2.40107E-10
 -1       982 2.77006E+04 3.58359E+04 2.28647E+04 2.48124E+04-3.54703E-11 2.01680E-10
 -1       983 3.07229E+04 4.37831E+04 4.62143E+04 1.19410E+04-1.98270E-10 1.56433E-10
 -1       984-1.03490E+05-3.37609E+03-5.77308E+03 3.03229E+03-2.74213E-10 9.09495E-13
 -1       985-1.04425E+05-1.11336E+03-3.10841E+03 3.21454E+03 3.58341E-10 9.28537E-11
 -1       986-1.03864E+05-2.21096E+02-1.89445E+03 2.95066E+03-6.18456E-10 1.87299E-11
 -1       987-1.04104E+05-2.07223E+02-2.00400E+03 3.31525E+03-2.84672E-10 1.16771E-10
 -1       988-1.03814E+05-4.76063E+02-3.03536E+03 2.93188E+03-1.07320E-10-6.66489E-11
 -1       989-1.05002E+05-2.44503E+03-6.28600E+03 3.40540E+03-1.32422E-09 4.37751E-10
 -1       990-1.02971E+05-7.42209E+03-1.24744E+04 2.86437E+03 3.77440E-10-1.39380E-10
 -1       991 1.55257E+03-2.68568E+04 4.05687E+03 8.08646E+04-3.22871E-11-2.80579E-10
 -1       992 9.53853E+02-2.60388E+04 5.23804E+03 9.08101E+04 2.91038E-11-6.00267E-11
 -1       993 1.56181E+03-2.70028E+04 8.83262E+03 8.07488E+04 1.40972E-10 2.22826E-10
 -1       994 7.53243E+03-2.33369E+04 1.90253E+04 9.08404E+04 2.03784E-10 6.09930E-11
 -1       995 2.27434E+04-2.95789E+04 3.81117E+04 8.08349E+04 1.63709E-11-2.25782E-10
 -1       996-4.51842E+04-5.02928E+03 1.21193E+02-2.03123E+04-9.35074E-11 1.63709E-10
 -1       997-4.66184E+04-3.59177E+03 2.22643E+02-1.98709E+04-3.88809E-11-2.69210E-10
 -1       998-4.51175E+04-5.14254E+03 4.24593E+02-2.03212E+04 7.08951E-10-1.77351E-11
 -1       999-4.66990E+04-3.49015E+03 8.67383E+02-1.98248E+04 1.65301E-10-1.33923E-10
 -1      1000-4.51237E+04-5.15176E+03 1.70676E+03-2.03569E+04-6.52108E-10-8.00355E-11
 -1      1001-4.64031E+04-3.13457E+03 3.59064E+03-1.98697E+04-5.96629E-10 3.92788E-10
 -1      1002-4.48374E+04-4.46317E+03 7.12289E+03-2.10649E+04-3.41061E-10-1.92017E-10
 -1      1003-4.27091E+04 1.60652E+03 1.59565E+04-2.15590E+04 1.20144E-09-2.41585E-10
 -1      1004-3.97201E+04 6.26526E+03 3.22536E+04-3.08037E+04 3.31966E-10 2.03727E-10
 -1      1005-1.64170E+05-1.13023E+04-1.91566E+04 5.57282E+04-3.40970E-09 4.64979E-10
 -1      1006-1.67317E+05-3.68068E+03-9.85609E+03 6.23476E+04-1.07684E-09-4.10637E-10
 -1      1007-1.65496E+05-6.72147E+02-5.16331E+03 5.55383E+04 2.57114E-09-4.00632E-10
 -1      1008-1.66082E+05-3.53252E+02-4.18235E+03 6.25556E+04-9.04038E-10-1.13687E-10
 -1      1009-1.65529E+05-6.45019E+02-5.12600E+03 5.55180E+04-3.63752E-09-3.12411E-10
 -1      1010-1.67371E+05-3.60116E+03-9.75446E+03 6.25596E+04-6.67683E-09 6.81780E-10
 -1      1011-1.64277E+05-1.11235E+04-1.89389E+04 5.55435E+04-3.10183E-09-2.31921E-11
 -1      1012 1.93388E+03 4.36087E+04 4.92809E+03 8.29911E+04-1.70417E-09-1.27329E-11
 -1      1013 1.09161E+03 4.45883E+04 6.02470E+03 9.32210E+04-1.53887E-09-5.20686E-11
 -1      1014 1.70367E+03 4.34821E+04 9.89903E+03 8.28830E+04-1.65358E-09-3.56835E-10
 -1      1015 8.31383E+03 4.75620E+04 2.11675E+04 9.32316E+04-1.64147E-09 3.41970E-10
 -1      1016 2.52029E+04 4.06290E+04 4.23311E+04 8.29904E+04-1.92085E-09-3.41061E-11
 -1      1017 2.96663E+04 6.39100E+04 8.17057E+03 4.87036E+04-1.16097E-09-3.34694E-10
 -1      1018 2.60061E+04 6.56590E+04 4.24792E+03 5.18659E+04-3.20824E-09-5.12955E-10
 -1      1019 2.84962E+04 6.10694E+04 2.30332E+03 5.10956E+04 1.46883E-09-2.24190E-10
 -1      1020 2.49507E+04 6.46355E+04 1.98290E+03 5.23424E+04-1.85537E-10-7.34985E-10
 -1      1021 2.84192E+04 6.08877E+04 2.56844E+03 5.12202E+04-8.18545E-12 4.18481E-10
 -1      1022 2.52414E+04 6.49913E+04 4.72424E+03 5.22898E+04-3.74666E-09 7.12021E-10
 -1      1023 2.87759E+04 6.17556E+04 9.05058E+03 5.03357E+04-8.91305E-10-5.28416E-10
 -1      1024 2.99199E+04 7.09008E+04 2.00918E+04 5.01490E+04 2.13731E-11-2.36241E-10
 -1      1025 3.51720E+04 7.52647E+04 4.05301E+04 3.81102E+04 2.39015E-09 3.91083E-10
 -1      1026-7.08210E+04-5.15859E+03-8.83496E+03 6.51698E+04-1.68802E-09-5.53882E-10
 -1      1027-7.22922E+04-1.61793E+03-4.49711E+03 7.30576E+04 3.80851E-09-4.86580E-10
 -1      1028-7.14557E+04-2.32324E+02-2.26455E+03 6.50093E+04-2.96905E-09-2.76486E-10
 -1      1029-7.17136E+04-4.62827E+01-1.67283E+03 7.32239E+04-7.01220E-10 4.92037E-10
 -1      1030-7.14907E+04-1.30023E+02-1.85219E+03 6.50001E+04 2.69551E-10 7.68523E-11
 -1      1031-7.21228E+04-1.11713E+03-3.34985E+03 7.31513E+04 7.38339E-10 4.43379E-10
 -1      1032-7.10571E+04-3.67134E+03-6.41386E+03 6.50852E+04 2.02613E-09-2.89219E-10
 -1      1033-5.32803E+03-7.02767E+04-7.79539E+03 1.25265E+05 2.62025E-09 1.04365E-09
 -1      1034-1.56282E+03-7.14633E+04-1.84453E+03 1.40708E+05 1.45337E-09 6.67569E-10
 -1      1035 4.62490E+02-7.11093E+04 3.21401E+03 1.25107E+05 1.00363E-09-1.19707E-09
 -1      1036 4.40988E+03-6.90081E+04 1.06743E+04 1.40723E+05 1.63709E-10-9.45647E-10
 -1      1037 1.39101E+04-7.27465E+04 2.31239E+04 1.25265E+05 2.06819E-09-9.81800E-10
 -1      1038 1.06219E+05 8.63246E+04 1.83132E+04 8.60314E+04 4.44743E-09-2.46473E-10
 -1      1039 1.03892E+05 8.43173E+04 9.25446E+03 9.14342E+04 2.22713E-10 5.45697E-11
 -1      1040 1.03390E+05 8.01693E+04 4.52096E+03 9.15134E+04-4.77030E-09-3.97449E-10
 -1      1041 1.01744E+05 8.17457E+04 3.06189E+03 9.24351E+04-3.52566E-09 4.75211E-10
 -1      1042 1.03219E+05 7.97740E+04 3.00493E+03 9.18709E+04 7.90351E-10 5.03633E-10
 -1      1043 1.01930E+05 8.19679E+04 4.78646E+03 9.24054E+04-1.35515E-10 6.62794E-11
 -1      1044 1.03568E+05 8.06017E+04 8.76531E+03 9.10427E+04 1.64573E-09-3.17641E-10
 -1      1045 1.06377E+05 8.76031E+04 1.92224E+04 9.03623E+04-1.26397E-08-1.05165E-08
 -1      1046 1.09681E+05 9.34752E+04 3.86694E+04 7.93822E+04 2.72939E-09-2.01180E-09
 -1      1047-3.72865E+04-1.55581E+03-2.74344E+03 4.57295E+04-3.29783E-09-5.56611E-10
 -1      1048-3.77498E+04-4.49872E+02-1.39909E+03 5.12985E+04-4.11978E-09 8.86757E-12
 -1      1049-3.74867E+04-2.53177E+01-7.10262E+02 4.56316E+04-2.68665E-09-3.63798E-11
 -1      1050-3.75729E+04 3.68563E+01-5.35211E+02 5.13982E+04 1.94632E-10 5.96629E-10
 -1      1051-3.74951E+04 7.69539E-02-6.07198E+02 4.56285E+04-5.93445E-11-5.87534E-10
 -1      1052-3.77068E+04-3.25022E+02-1.11233E+03 5.13298E+04-4.91491E-09-1.40062E-10
 -1      1053-3.73447E+04-1.18451E+03-2.13827E+03 4.57012E+04-1.84673E-09-2.62617E-10
 -1      1054-8.23922E+03-1.38632E+05-1.33972E+04 9.68091E+04-3.76440E-09-5.36602E-11
 -1      1055-2.75060E+03-1.40797E+05-6.23605E+03 1.08770E+05 5.36147E-10-2.78760E-10
 -1      1056-4.65673E+02-1.39621E+05-2.00004E+03 9.67050E+04-2.90311E-09-6.27040E-10
 -1      1057 5.74463E+02-1.39419E+05 7.42266E+02 1.08754E+05-5.02496E-10-4.35875E-10
 -1      1058 2.47576E+03-1.39994E+05 3.83623E+03 9.68353E+04-3.32420E-09 5.91172E-11
 -1      1059 8.72793E+04 6.23891E+04 1.62814E+04 6.42190E+04-4.24279E-09 1.98270E-10
 -1      1060 8.59744E+04 5.98388E+04 8.17460E+03 6.88079E+04-3.28669E-09-2.36014E-10
 -1      1061 8.47351E+04 5.69465E+04 3.88829E+03 6.91108E+04 4.53724E-10-1.56660E-10
 -1      1062 8.40860E+04 5.75094E+04 2.43956E+03 6.96843E+04-7.76407E-09-6.71122E-09
 -1      1063 8.45848E+04 5.65969E+04 2.11003E+03 6.94419E+04 2.13470E-09 4.59949E-10
 -1      1064 8.41546E+04 5.75921E+04 3.07078E+03 6.96745E+04 3.35604E-09 9.83221E-10
 -1      1065 8.48009E+04 5.71033E+04 5.44072E+03 6.89391E+04 5.69275E-09 8.15521E-09
 -1      1066 8.68777E+04 6.10471E+04 1.18211E+04 6.84191E+04-1.55740E-09-1.27307E-09
 -1      1067 8.85537E+04 6.49994E+04 2.37282E+04 6.17870E+04 2.52021E-09 1.88174E-09
 -1      1068-2.50419E+04-4.37260E+02-7.79444E+02 2.53529E+04 8.06972E-09-4.26439E-10
 -1      1069-2.51742E+04-1.10111E+02-3.45463E+02 2.84635E+04 8.12679E-09-2.35787E-10
 -1      1070-2.51023E+04 1.26002E+01-7.40621E+01 2.53077E+04-2.14169E-09-5.73436E-10
 -1      1071-2.50985E+04 6.15020E+01 1.28833E+02 2.85077E+04-2.11567E-09 5.33873E-10
 -1      1072-2.51228E+04 1.16597E+02 3.90593E+02 2.53081E+04 1.87106E-09-6.63704E-10
 -1      1073-2.49396E+04 4.32536E+02 9.48625E+02 2.84582E+04 1.67245E-09-3.84034E-10
 -1      1074-2.52539E+04 1.21098E+03 1.94985E+03 2.53560E+04 5.01836E-09-6.93944E-10
 -1      1075-5.87246E+03-1.07962E+05-9.78507E+03 5.85934E+04-6.04314E-09-1.94404E-10
 -1      1076-2.02922E+03-1.09563E+05-5.06815E+03 6.58406E+04-6.75527E-09-6.29427E-10
 -1      1077-5.59005E+02-1.08611E+05-2.72067E+03 5.85360E+04-8.30232E-09 4.88740E-10
 -1      1078-7.61415E+02-1.09035E+05-2.40551E+03 6.58213E+04-5.84896E-09 1.21975E-09
 -1      1079-1.78581E+03-1.08479E+05-3.20968E+03 5.86169E+04-7.41443E-09 1.25283E-09
 -1      1080 5.46192E+04 3.56543E+04 1.08628E+04 3.75078E+04-1.43154E-09 1.90539E-10
 -1      1081 5.40312E+04 3.36677E+04 5.43464E+03 4.04893E+04-1.57718E-09 2.48690E-10
 -1      1082 5.29066E+04 3.20359E+04 2.54664E+03 4.07779E+04-7.35335E-09-5.01586E-10
 -1      1083 5.27834E+04 3.20949E+04 1.52581E+03 4.10678E+04 5.47487E-10 1.33639E-10
 -1      1084 5.28065E+04 3.18041E+04 1.20498E+03 4.10034E+04 1.91844E-09-5.03963E-10
 -1      1085 5.27940E+04 3.21070E+04 1.62099E+03 4.10663E+04-1.50018E-08-1.14759E-08
 -1      1086 5.29164E+04 3.20599E+04 2.78086E+03 4.07523E+04-1.07221E-08-1.24467E-08
 -1      1087 5.41697E+04 3.38477E+04 5.98466E+03 4.04301E+04-6.52199E-09-1.19085E-08
 -1      1088 5.48093E+04 3.60502E+04 1.19861E+04 3.71418E+04 3.62638E-09 9.41145E-09
 -1      1089-1.92199E+03-7.28349E+04-3.32589E+03 2.84071E+04 4.70231E-09-1.00999E-09
 -1      1090-7.19582E+02-7.33902E+04-2.04652E+03 3.19194E+04-4.12228E-10 5.86539E-10
 -1      1091-3.43424E+02-7.30149E+04-1.72065E+03 2.83792E+04 4.15866E-09-8.97614E-10
 -1      1092-1.02226E+03-7.35137E+04-2.68013E+03 3.19080E+04 1.00954E-09-1.98628E-09
 -1      1093-2.89633E+03-7.27085E+04-4.89073E+03 2.84175E+04 5.25887E-09 1.15051E-10
 -1      1094-4.68954E+05-7.44677E+03-1.27119E+04 5.18707E+04 0.00000E+00 5.28644E-10
 -1      1095-4.71005E+05-2.46289E+03-6.86965E+03 5.81096E+04 6.54836E-11 2.77396E-10
 -1      1096-4.69802E+05-4.91747E+02-4.23469E+03 5.17357E+04 1.40972E-11 4.17003E-10
 -1      1097-4.70333E+05-4.73327E+02-4.55501E+03 5.82592E+04-6.36646E-12 3.06500E-10
 -1      1098-4.69694E+05-1.09640E+03-6.97040E+03 5.17251E+04 1.09139E-11 3.48791E-10
 -1      1099-4.72416E+05-5.64402E+03-1.44906E+04 5.82162E+04 1.39867E-10 3.94607E-10
 -1      1100-4.67743E+05-1.71323E+04-2.87828E+04 5.17751E+04 1.18689E-10 2.58296E-10
 -1      1101-3.30708E+05-8.37185E+03-1.42361E+04 3.25962E+04 8.41283E-11 3.11047E-10
 -1      1102-3.33015E+05-2.75676E+03-7.50844E+03 3.65231E+04 2.89447E-10 2.51930E-10
 -1      1103-3.31653E+05-5.37265E+02-4.28603E+03 3.25130E+04 2.82853E-10 3.72211E-10
 -1      1104-3.32157E+05-4.15992E+02-4.09673E+03 3.66150E+04-4.43379E-11-1.34833E-10
 -1      1105-3.31592E+05-8.71423E+02-5.79077E+03 3.25067E+04-2.94449E-11 2.05091E-10
 -1      1106-3.33785E+05-4.50938E+03-1.16999E+04 3.65862E+04 3.49232E-11 4.74756E-10
 -1      1107-3.30034E+05-1.37028E+04-2.30751E+04 3.25404E+04-8.50378E-11 1.82808E-10
 -1      1108-1.68233E+05-3.36804E+03-5.80198E+03 3.28769E+04-1.16870E-10 2.96723E-11
 -1      1109-1.69174E+05-1.10627E+03-3.20136E+03 3.68566E+04 1.15961E-11-1.32559E-10
 -1      1110-1.68612E+05-2.14571E+02-2.09416E+03 3.27984E+04-7.27596E-12 4.70664E-11
 -1      1111-1.68894E+05-2.42827E+02-2.43362E+03 3.69401E+04 1.65073E-10 1.01863E-10
 -1      1112-1.68535E+05-6.15364E+02-3.89197E+03 3.27940E+04-2.76259E-11 9.47011E-11
 -1      1113-1.70088E+05-3.20306E+03-8.20880E+03 3.69021E+04-2.13277E-10 1.35714E-11
 -1      1114-1.67421E+05-9.74115E+03-1.63620E+04 3.28360E+04 1.65983E-11 8.00355E-11
 -1      1115 3.84920E+04 3.41273E+03 5.63159E+03 3.07068E+04-1.22100E-10-2.23736E-10
 -1      1116 3.94064E+04 1.12685E+03 2.63590E+03 3.44450E+04 9.75433E-11-5.82645E-11
 -1      1117 3.88845E+04 2.18759E+02 8.73823E+02 3.06420E+04-1.20053E-10-7.61702E-11
 -1      1118 3.89027E+04-1.39199E+01-1.87026E+02 3.45115E+04-1.22668E-10-4.84306E-11
 -1      1119 3.89818E+04-2.75498E+02-1.33428E+03 3.06402E+04-5.12159E-11-1.15051E-10
 -1      1120 3.82918E+04-1.45198E+03-3.51369E+03 3.44650E+04-8.89031E-11-3.20142E-10
 -1      1121 3.94996E+04-4.41988E+03-7.33800E+03 3.06886E+04 7.41238E-11 1.48248E-10
 -1      1122 2.86619E+05 1.13693E+04 1.90248E+04 3.22775E+04 4.09273E-11-1.10958E-10
 -1      1123 2.89707E+05 3.74567E+03 9.42313E+03 3.62300E+04-1.03569E-10-1.77977E-10
 -1      1124 2.87919E+05 7.25216E+02 4.22680E+03 3.22199E+04 1.82126E-10 6.29257E-11
 -1      1125 2.88261E+05 2.24787E+02 2.17169E+03 3.62869E+04 1.86027E-10-1.52340E-11
 -1      1126 2.88059E+05 2.66187E+01 1.11377E+03 3.22204E+04 7.00311E-11-1.29830E-10
 -1      1127 2.88143E+05 1.07060E+02 7.54240E+02 3.62254E+04-1.09026E-10-2.50111E-11
 -1      1128 2.88049E+05 3.22538E+02 7.41053E+02 3.22814E+04-1.59616E-10-2.46018E-10
 -1      1129 6.42271E+05 2.29409E+04 3.89341E+04 7.41359E+04 4.11546E-11 2.05546E-10
 -1      1130 6.48588E+05 7.55742E+03 2.03507E+04 8.33083E+04 1.21474E-10 1.31138E-10
 -1      1131 6.44840E+05 1.47432E+03 1.12656E+04 7.40424E+04-2.16460E-10-6.63022E-10
 -1      1132 6.46135E+05 1.04208E+03 1.01936E+04 8.33914E+04 2.11003E-10 4.99313E-10
 -1      1133 6.44748E+05 2.03025E+03 1.38010E+04 7.40522E+04 5.45697E-11 7.23958E-10
 -1      1134 6.49912E+05 1.04954E+04 2.74118E+04 8.32030E+04-1.02318E-10 3.12411E-10
 -1      1135 6.41170E+05 3.19061E+04 5.38265E+04 7.42421E+04-3.92902E-10-6.82121E-10
 -1      1136-8.35966E+05-6.23770E+04-1.04904E+05 1.34129E+04-1.11868E-10 3.96540E-10
 -1      1137-8.53079E+05-2.05334E+04-5.28938E+04 1.49450E+04 1.74623E-10 1.59434E-09
 -1      1138-8.43069E+05-3.95740E+03-2.55746E+04 1.33553E+04 1.00954E-10 4.72937E-11
 -1      1139-8.45539E+05-1.71039E+03-1.69730E+04 1.50324E+04 5.41149E-11-1.08685E-10
 -1      1140-8.43492E+05-1.84753E+03-1.61728E+04 1.33431E+04 8.50378E-11 9.09495E-13
 -1      1141-8.48349E+05-9.53666E+03-2.67021E+04 1.50698E+04 3.86535E-12-8.10360E-10
 -1      1142-8.40283E+05-2.90190E+04-4.96842E+04 1.33204E+04 1.48702E-10-4.18368E-10
 -1      1143-7.22754E+05-2.15566E+04-3.64845E+04 2.46661E+04 1.36424E-11 1.75532E-10
 -1      1144-7.28669E+05-7.09044E+03-1.88482E+04 2.74935E+04 6.00267E-10-1.28716E-09
 -1      1145-7.25195E+05-1.36937E+03-1.00143E+04 2.45385E+04-8.38554E-10 1.19871E-09
 -1      1146-7.26275E+05-8.37122E+02-8.36657E+03 2.76464E+04 4.43379E-10-6.75300E-11
 -1      1147-7.25184E+05-1.48481E+03-1.05659E+04 2.45165E+04 3.38332E-10-1.22236E-09
 -1      1148-7.28978E+05-7.71953E+03-2.03857E+04 2.77089E+04-1.40335E-09 4.92150E-10
 -1      1149-7.22541E+05-2.34934E+04-3.97255E+04 2.44873E+04 6.87578E-10-9.61336E-10
 -1      1150-6.85067E+05-2.10961E+04-3.57882E+04 4.86610E+04-3.39605E-09 8.78117E-10
 -1      1151-6.90885E+05-6.90785E+03-1.85543E+04 5.44482E+04 1.04137E-10-1.24419E-09
 -1      1152-6.87479E+05-1.30256E+03-9.98716E+03 4.84820E+04 4.22460E-09-2.14277E-09
 -1      1153-6.88592E+05-8.06679E+02-8.56758E+03 5.46447E+04-5.07498E-10-5.25233E-10
 -1      1154-6.87457E+05-1.53319E+03-1.10883E+04 4.84609E+04-3.92356E-09 1.13687E-11
 -1      1155-6.91503E+05-8.16400E+03-2.16237E+04 5.46629E+04-6.33167E-09 8.61519E-10
 -1      1156-6.84640E+05-2.49627E+04-4.22577E+04 4.84840E+04-3.82965E-09-1.09139E-10
 -1      1157-5.03002E+05-1.33607E+04-2.28349E+04 5.58513E+04-1.12141E-09-1.44883E-09
 -1      1158-5.06723E+05-4.32813E+03-1.19921E+04 6.26089E+04 3.81397E-09-2.89492E-09
 -1      1159-5.04539E+05-7.71361E+02-6.74997E+03 5.56920E+04-1.61890E-09-5.52973E-10
 -1      1160-5.05338E+05-5.32422E+02-6.29719E+03 6.27726E+04 2.12822E-10-8.71751E-10
 -1      1161-5.04469E+05-1.20682E+03-8.74051E+03 5.56803E+04-3.60615E-10-1.35128E-09
 -1      1162-5.07768E+05-6.63405E+03-1.75378E+04 6.27328E+04 1.91454E-09-1.98673E-09
 -1      1163-5.02143E+05-2.03970E+04-3.45286E+04 5.57516E+04 1.84662E-09-1.78261E-09
 -1      1164-2.65931E+05-5.34183E+03-9.24955E+03 3.86350E+04-4.64433E-09-1.29292E-09
 -1      1165-2.67438E+05-1.70246E+03-4.97265E+03 4.33540E+04-2.95859E-09-1.65437E-09
 -1      1166-2.66542E+05-2.77415E+02-3.01672E+03 3.85455E+04-1.85651E-09-1.91039E-09
 -1      1167-2.66927E+05-2.41931E+02-3.17209E+03 4.34424E+04 8.83972E-10-1.27579E-09
 -1      1168-2.66467E+05-6.72019E+02-4.78600E+03 3.85424E+04 5.03434E-10-1.72554E-09
 -1      1169-2.68337E+05-3.76628E+03-9.90068E+03 4.33898E+04-3.30471E-09-1.35810E-09
 -1      1170-2.65131E+05-1.16143E+04-1.96422E+04 3.86099E+04-1.19780E-09-2.42471E-09
 -1      1171-9.63033E+04-8.62722E+02-1.57783E+03 2.03314E+04 4.57942E-09-1.74691E-09
 -1      1172-9.65591E+04-2.55051E+02-9.27570E+02 2.28418E+04 3.47075E-09-1.91699E-09
 -1      1173-9.64003E+04-2.26349E+01-7.09281E+02 2.02979E+04 2.75031E-09-1.71030E-09
 -1      1174-9.65079E+04-5.82513E+01-9.69277E+02 2.28732E+04 1.61435E-11-5.06361E-10
 -1      1175-9.63564E+04-2.39581E+02-1.67488E+03 2.02993E+04 2.22008E-09-1.77096E-09
 -1      1176-9.70435E+04-1.38440E+03-3.61677E+03 2.28301E+04-1.47793E-09-1.75413E-09
 -1      1177-9.58589E+04-4.28990E+03-7.24947E+03 2.03454E+04 2.58046E-09-1.80808E-09
 -3
 9999
