    1C
    1UUSER                                                              
    1UDATE              21.september.2022                               
    1UTIME              09:27:33                                        
    1UHOST                                                              
    1UPGM               CalculiX                                        
    1UVERSION           Version 2.19                             
    1UCOMPILETIME       Fri Dec 17 13:15:26 CET 2021                    
    1UDIR                                                               
    1UDBN                                                               
    1UMAT    1MESH_MATERIAL                                             
    2C                           641                                     1
 -1         1 0.00000E+00 0.00000E+00 0.00000E+00
 -1         2 8.33333E-03 0.00000E+00 0.00000E+00
 -1         3 1.66667E-02 0.00000E+00 0.00000E+00
 -1         4 2.50000E-02 0.00000E+00 0.00000E+00
 -1         5 3.33333E-02 0.00000E+00 0.00000E+00
 -1         6 4.16667E-02 0.00000E+00 0.00000E+00
 -1         7 5.00000E-02 0.00000E+00 0.00000E+00
 -1         8 5.83333E-02 0.00000E+00 0.00000E+00
 -1         9 6.66667E-02 0.00000E+00 0.00000E+00
 -1        14 0.00000E+00 6.25000E-03 0.00000E+00
 -1        15 8.33333E-03 6.25000E-03 0.00000E+00
 -1        16 1.66667E-02 6.25000E-03 0.00000E+00
 -1        17 2.50000E-02 6.25000E-03 0.00000E+00
 -1        18 3.33333E-02 6.25000E-03 0.00000E+00
 -1        19 4.16667E-02 6.25000E-03 0.00000E+00
 -1        20 5.00000E-02 6.25000E-03 0.00000E+00
 -1        21 5.83333E-02 6.25000E-03 0.00000E+00
 -1        22 6.66667E-02 6.25000E-03 0.00000E+00
 -1        27 0.00000E+00 1.25000E-02 0.00000E+00
 -1        28 8.33333E-03 1.25000E-02 0.00000E+00
 -1        29 1.66667E-02 1.25000E-02 0.00000E+00
 -1        30 2.50000E-02 1.25000E-02 0.00000E+00
 -1        31 3.33333E-02 1.25000E-02 0.00000E+00
 -1        32 4.16667E-02 1.25000E-02 0.00000E+00
 -1        33 5.00000E-02 1.25000E-02 0.00000E+00
 -1        34 5.83333E-02 1.25000E-02 0.00000E+00
 -1        35 6.66667E-02 1.25000E-02 0.00000E+00
 -1        36 7.50000E-02 1.25000E-02 0.00000E+00
 -1        37 8.33333E-02 1.25000E-02 0.00000E+00
 -1        38 9.16667E-02 1.25000E-02 0.00000E+00
 -1        39 1.00000E-01 1.25000E-02 0.00000E+00
 -1        40 0.00000E+00 1.87500E-02 0.00000E+00
 -1        41 8.33333E-03 1.87500E-02 0.00000E+00
 -1        42 1.66667E-02 1.87500E-02 0.00000E+00
 -1        43 2.50000E-02 1.87500E-02 0.00000E+00
 -1        44 3.33333E-02 1.87500E-02 0.00000E+00
 -1        45 4.16667E-02 1.87500E-02 0.00000E+00
 -1        46 5.00000E-02 1.87500E-02 0.00000E+00
 -1        47 5.83333E-02 1.87500E-02 0.00000E+00
 -1        48 6.66667E-02 1.87500E-02 0.00000E+00
 -1        49 7.50000E-02 1.87500E-02 0.00000E+00
 -1        50 8.33333E-02 1.87500E-02 0.00000E+00
 -1        51 9.16667E-02 1.87500E-02 0.00000E+00
 -1        52 1.00000E-01 1.87500E-02 0.00000E+00
 -1        53 0.00000E+00 2.50000E-02 0.00000E+00
 -1        54 8.33333E-03 2.50000E-02 0.00000E+00
 -1        55 1.66667E-02 2.50000E-02 0.00000E+00
 -1        56 2.50000E-02 2.50000E-02 0.00000E+00
 -1        57 3.33333E-02 2.50000E-02 0.00000E+00
 -1        58 4.16667E-02 2.50000E-02 0.00000E+00
 -1        59 5.00000E-02 2.50000E-02 0.00000E+00
 -1        60 5.83333E-02 2.50000E-02 0.00000E+00
 -1        61 6.66667E-02 2.50000E-02 0.00000E+00
 -1        62 7.50000E-02 2.50000E-02 0.00000E+00
 -1        63 8.33333E-02 2.50000E-02 0.00000E+00
 -1        64 9.16667E-02 2.50000E-02 0.00000E+00
 -1        65 1.00000E-01 2.50000E-02 0.00000E+00
 -1        66 1.04167E-03 0.00000E+00 0.00000E+00
 -1        67 2.08333E-03 0.00000E+00 0.00000E+00
 -1        68 3.12500E-03 0.00000E+00 0.00000E+00
 -1        69 4.16667E-03 0.00000E+00 0.00000E+00
 -1        70 5.20833E-03 0.00000E+00 0.00000E+00
 -1        71 6.25000E-03 0.00000E+00 0.00000E+00
 -1        72 7.29167E-03 0.00000E+00 0.00000E+00
 -1        73 0.00000E+00 1.04167E-03 0.00000E+00
 -1        74 0.00000E+00 2.08333E-03 0.00000E+00
 -1        75 0.00000E+00 3.12500E-03 0.00000E+00
 -1        76 0.00000E+00 4.16667E-03 0.00000E+00
 -1        77 0.00000E+00 5.20833E-03 0.00000E+00
 -1        78 9.37500E-03 0.00000E+00 0.00000E+00
 -1        79 1.04167E-02 0.00000E+00 0.00000E+00
 -1        80 1.14583E-02 0.00000E+00 0.00000E+00
 -1        81 1.25000E-02 0.00000E+00 0.00000E+00
 -1        82 1.35417E-02 0.00000E+00 0.00000E+00
 -1        83 1.45833E-02 0.00000E+00 0.00000E+00
 -1        84 1.56250E-02 0.00000E+00 0.00000E+00
 -1        85 8.33333E-03 1.04167E-03 0.00000E+00
 -1        86 8.33333E-03 2.08333E-03 0.00000E+00
 -1        87 8.33333E-03 3.12500E-03 0.00000E+00
 -1        88 8.33333E-03 4.16667E-03 0.00000E+00
 -1        89 8.33333E-03 5.20833E-03 0.00000E+00
 -1        90 1.77083E-02 0.00000E+00 0.00000E+00
 -1        91 1.87500E-02 0.00000E+00 0.00000E+00
 -1        92 1.97917E-02 0.00000E+00 0.00000E+00
 -1        93 2.08333E-02 0.00000E+00 0.00000E+00
 -1        94 2.18750E-02 0.00000E+00 0.00000E+00
 -1        95 2.29167E-02 0.00000E+00 0.00000E+00
 -1        96 2.39583E-02 0.00000E+00 0.00000E+00
 -1        97 1.66667E-02 1.04167E-03 0.00000E+00
 -1        98 1.66667E-02 2.08333E-03 0.00000E+00
 -1        99 1.66667E-02 3.12500E-03 0.00000E+00
 -1       100 1.66667E-02 4.16667E-03 0.00000E+00
 -1       101 1.66667E-02 5.20833E-03 0.00000E+00
 -1       102 2.60417E-02 0.00000E+00 0.00000E+00
 -1       103 2.70833E-02 0.00000E+00 0.00000E+00
 -1       104 2.81250E-02 0.00000E+00 0.00000E+00
 -1       105 2.91667E-02 0.00000E+00 0.00000E+00
 -1       106 3.02083E-02 0.00000E+00 0.00000E+00
 -1       107 3.12500E-02 0.00000E+00 0.00000E+00
 -1       108 3.22917E-02 0.00000E+00 0.00000E+00
 -1       109 2.50000E-02 1.04167E-03 0.00000E+00
 -1       110 2.50000E-02 2.08333E-03 0.00000E+00
 -1       111 2.50000E-02 3.12500E-03 0.00000E+00
 -1       112 2.50000E-02 4.16667E-03 0.00000E+00
 -1       113 2.50000E-02 5.20833E-03 0.00000E+00
 -1       114 3.43750E-02 0.00000E+00 0.00000E+00
 -1       115 3.54167E-02 0.00000E+00 0.00000E+00
 -1       116 3.64583E-02 0.00000E+00 0.00000E+00
 -1       117 3.75000E-02 0.00000E+00 0.00000E+00
 -1       118 3.85417E-02 0.00000E+00 0.00000E+00
 -1       119 3.95833E-02 0.00000E+00 0.00000E+00
 -1       120 4.06250E-02 0.00000E+00 0.00000E+00
 -1       121 3.33333E-02 1.04167E-03 0.00000E+00
 -1       122 3.33333E-02 2.08333E-03 0.00000E+00
 -1       123 3.33333E-02 3.12500E-03 0.00000E+00
 -1       124 3.33333E-02 4.16667E-03 0.00000E+00
 -1       125 3.33333E-02 5.20833E-03 0.00000E+00
 -1       126 4.27083E-02 0.00000E+00 0.00000E+00
 -1       127 4.37500E-02 0.00000E+00 0.00000E+00
 -1       128 4.47917E-02 0.00000E+00 0.00000E+00
 -1       129 4.58333E-02 0.00000E+00 0.00000E+00
 -1       130 4.68750E-02 0.00000E+00 0.00000E+00
 -1       131 4.79167E-02 0.00000E+00 0.00000E+00
 -1       132 4.89583E-02 0.00000E+00 0.00000E+00
 -1       133 4.16667E-02 1.04167E-03 0.00000E+00
 -1       134 4.16667E-02 2.08333E-03 0.00000E+00
 -1       135 4.16667E-02 3.12500E-03 0.00000E+00
 -1       136 4.16667E-02 4.16667E-03 0.00000E+00
 -1       137 4.16667E-02 5.20833E-03 0.00000E+00
 -1       138 5.10417E-02 0.00000E+00 0.00000E+00
 -1       139 5.20833E-02 0.00000E+00 0.00000E+00
 -1       140 5.31250E-02 0.00000E+00 0.00000E+00
 -1       141 5.41667E-02 0.00000E+00 0.00000E+00
 -1       142 5.52083E-02 0.00000E+00 0.00000E+00
 -1       143 5.62500E-02 0.00000E+00 0.00000E+00
 -1       144 5.72917E-02 0.00000E+00 0.00000E+00
 -1       145 5.00000E-02 1.04167E-03 0.00000E+00
 -1       146 5.00000E-02 2.08333E-03 0.00000E+00
 -1       147 5.00000E-02 3.12500E-03 0.00000E+00
 -1       148 5.00000E-02 4.16667E-03 0.00000E+00
 -1       149 5.00000E-02 5.20833E-03 0.00000E+00
 -1       150 5.93750E-02 0.00000E+00 0.00000E+00
 -1       151 6.04167E-02 0.00000E+00 0.00000E+00
 -1       152 6.14583E-02 0.00000E+00 0.00000E+00
 -1       153 6.25000E-02 0.00000E+00 0.00000E+00
 -1       154 6.35417E-02 0.00000E+00 0.00000E+00
 -1       155 6.45833E-02 0.00000E+00 0.00000E+00
 -1       156 6.56250E-02 0.00000E+00 0.00000E+00
 -1       157 5.83333E-02 1.04167E-03 0.00000E+00
 -1       158 5.83333E-02 2.08333E-03 0.00000E+00
 -1       159 5.83333E-02 3.12500E-03 0.00000E+00
 -1       160 5.83333E-02 4.16667E-03 0.00000E+00
 -1       161 5.83333E-02 5.20833E-03 0.00000E+00
 -1       169 6.66667E-02 1.04167E-03 0.00000E+00
 -1       170 6.66667E-02 2.08333E-03 0.00000E+00
 -1       171 6.66667E-02 3.12500E-03 0.00000E+00
 -1       172 6.66667E-02 4.16667E-03 0.00000E+00
 -1       173 6.66667E-02 5.20833E-03 0.00000E+00
 -1       215 1.04167E-03 6.25000E-03 0.00000E+00
 -1       216 2.08333E-03 6.25000E-03 0.00000E+00
 -1       217 3.12500E-03 6.25000E-03 0.00000E+00
 -1       218 4.16667E-03 6.25000E-03 0.00000E+00
 -1       219 5.20833E-03 6.25000E-03 0.00000E+00
 -1       220 6.25000E-03 6.25000E-03 0.00000E+00
 -1       221 7.29167E-03 6.25000E-03 0.00000E+00
 -1       222 0.00000E+00 7.29167E-03 0.00000E+00
 -1       223 0.00000E+00 8.33333E-03 0.00000E+00
 -1       224 0.00000E+00 9.37500E-03 0.00000E+00
 -1       225 0.00000E+00 1.04167E-02 0.00000E+00
 -1       226 0.00000E+00 1.14583E-02 0.00000E+00
 -1       227 9.37500E-03 6.25000E-03 0.00000E+00
 -1       228 1.04167E-02 6.25000E-03 0.00000E+00
 -1       229 1.14583E-02 6.25000E-03 0.00000E+00
 -1       230 1.25000E-02 6.25000E-03 0.00000E+00
 -1       231 1.35417E-02 6.25000E-03 0.00000E+00
 -1       232 1.45833E-02 6.25000E-03 0.00000E+00
 -1       233 1.56250E-02 6.25000E-03 0.00000E+00
 -1       234 8.33333E-03 7.29167E-03 0.00000E+00
 -1       235 8.33333E-03 8.33333E-03 0.00000E+00
 -1       236 8.33333E-03 9.37500E-03 0.00000E+00
 -1       237 8.33333E-03 1.04167E-02 0.00000E+00
 -1       238 8.33333E-03 1.14583E-02 0.00000E+00
 -1       239 1.77083E-02 6.25000E-03 0.00000E+00
 -1       240 1.87500E-02 6.25000E-03 0.00000E+00
 -1       241 1.97917E-02 6.25000E-03 0.00000E+00
 -1       242 2.08333E-02 6.25000E-03 0.00000E+00
 -1       243 2.18750E-02 6.25000E-03 0.00000E+00
 -1       244 2.29167E-02 6.25000E-03 0.00000E+00
 -1       245 2.39583E-02 6.25000E-03 0.00000E+00
 -1       246 1.66667E-02 7.29167E-03 0.00000E+00
 -1       247 1.66667E-02 8.33333E-03 0.00000E+00
 -1       248 1.66667E-02 9.37500E-03 0.00000E+00
 -1       249 1.66667E-02 1.04167E-02 0.00000E+00
 -1       250 1.66667E-02 1.14583E-02 0.00000E+00
 -1       251 2.60417E-02 6.25000E-03 0.00000E+00
 -1       252 2.70833E-02 6.25000E-03 0.00000E+00
 -1       253 2.81250E-02 6.25000E-03 0.00000E+00
 -1       254 2.91667E-02 6.25000E-03 0.00000E+00
 -1       255 3.02083E-02 6.25000E-03 0.00000E+00
 -1       256 3.12500E-02 6.25000E-03 0.00000E+00
 -1       257 3.22917E-02 6.25000E-03 0.00000E+00
 -1       258 2.50000E-02 7.29167E-03 0.00000E+00
 -1       259 2.50000E-02 8.33333E-03 0.00000E+00
 -1       260 2.50000E-02 9.37500E-03 0.00000E+00
 -1       261 2.50000E-02 1.04167E-02 0.00000E+00
 -1       262 2.50000E-02 1.14583E-02 0.00000E+00
 -1       263 3.43750E-02 6.25000E-03 0.00000E+00
 -1       264 3.54167E-02 6.25000E-03 0.00000E+00
 -1       265 3.64583E-02 6.25000E-03 0.00000E+00
 -1       266 3.75000E-02 6.25000E-03 0.00000E+00
 -1       267 3.85417E-02 6.25000E-03 0.00000E+00
 -1       268 3.95833E-02 6.25000E-03 0.00000E+00
 -1       269 4.06250E-02 6.25000E-03 0.00000E+00
 -1       270 3.33333E-02 7.29167E-03 0.00000E+00
 -1       271 3.33333E-02 8.33333E-03 0.00000E+00
 -1       272 3.33333E-02 9.37500E-03 0.00000E+00
 -1       273 3.33333E-02 1.04167E-02 0.00000E+00
 -1       274 3.33333E-02 1.14583E-02 0.00000E+00
 -1       275 4.27083E-02 6.25000E-03 0.00000E+00
 -1       276 4.37500E-02 6.25000E-03 0.00000E+00
 -1       277 4.47917E-02 6.25000E-03 0.00000E+00
 -1       278 4.58333E-02 6.25000E-03 0.00000E+00
 -1       279 4.68750E-02 6.25000E-03 0.00000E+00
 -1       280 4.79167E-02 6.25000E-03 0.00000E+00
 -1       281 4.89583E-02 6.25000E-03 0.00000E+00
 -1       282 4.16667E-02 7.29167E-03 0.00000E+00
 -1       283 4.16667E-02 8.33333E-03 0.00000E+00
 -1       284 4.16667E-02 9.37500E-03 0.00000E+00
 -1       285 4.16667E-02 1.04167E-02 0.00000E+00
 -1       286 4.16667E-02 1.14583E-02 0.00000E+00
 -1       287 5.10417E-02 6.25000E-03 0.00000E+00
 -1       288 5.20833E-02 6.25000E-03 0.00000E+00
 -1       289 5.31250E-02 6.25000E-03 0.00000E+00
 -1       290 5.41667E-02 6.25000E-03 0.00000E+00
 -1       291 5.52083E-02 6.25000E-03 0.00000E+00
 -1       292 5.62500E-02 6.25000E-03 0.00000E+00
 -1       293 5.72917E-02 6.25000E-03 0.00000E+00
 -1       294 5.00000E-02 7.29167E-03 0.00000E+00
 -1       295 5.00000E-02 8.33333E-03 0.00000E+00
 -1       296 5.00000E-02 9.37500E-03 0.00000E+00
 -1       297 5.00000E-02 1.04167E-02 0.00000E+00
 -1       298 5.00000E-02 1.14583E-02 0.00000E+00
 -1       299 5.93750E-02 6.25000E-03 0.00000E+00
 -1       300 6.04167E-02 6.25000E-03 0.00000E+00
 -1       301 6.14583E-02 6.25000E-03 0.00000E+00
 -1       302 6.25000E-02 6.25000E-03 0.00000E+00
 -1       303 6.35417E-02 6.25000E-03 0.00000E+00
 -1       304 6.45833E-02 6.25000E-03 0.00000E+00
 -1       305 6.56250E-02 6.25000E-03 0.00000E+00
 -1       306 5.83333E-02 7.29167E-03 0.00000E+00
 -1       307 5.83333E-02 8.33333E-03 0.00000E+00
 -1       308 5.83333E-02 9.37500E-03 0.00000E+00
 -1       309 5.83333E-02 1.04167E-02 0.00000E+00
 -1       310 5.83333E-02 1.14583E-02 0.00000E+00
 -1       318 6.66667E-02 7.29167E-03 0.00000E+00
 -1       319 6.66667E-02 8.33333E-03 0.00000E+00
 -1       320 6.66667E-02 9.37500E-03 0.00000E+00
 -1       321 6.66667E-02 1.04167E-02 0.00000E+00
 -1       322 6.66667E-02 1.14583E-02 0.00000E+00
 -1       364 1.04167E-03 1.25000E-02 0.00000E+00
 -1       365 2.08333E-03 1.25000E-02 0.00000E+00
 -1       366 3.12500E-03 1.25000E-02 0.00000E+00
 -1       367 4.16667E-03 1.25000E-02 0.00000E+00
 -1       368 5.20833E-03 1.25000E-02 0.00000E+00
 -1       369 6.25000E-03 1.25000E-02 0.00000E+00
 -1       370 7.29167E-03 1.25000E-02 0.00000E+00
 -1       371 0.00000E+00 1.35417E-02 0.00000E+00
 -1       372 0.00000E+00 1.45833E-02 0.00000E+00
 -1       373 0.00000E+00 1.56250E-02 0.00000E+00
 -1       374 0.00000E+00 1.66667E-02 0.00000E+00
 -1       375 0.00000E+00 1.77083E-02 0.00000E+00
 -1       376 9.37500E-03 1.25000E-02 0.00000E+00
 -1       377 1.04167E-02 1.25000E-02 0.00000E+00
 -1       378 1.14583E-02 1.25000E-02 0.00000E+00
 -1       379 1.25000E-02 1.25000E-02 0.00000E+00
 -1       380 1.35417E-02 1.25000E-02 0.00000E+00
 -1       381 1.45833E-02 1.25000E-02 0.00000E+00
 -1       382 1.56250E-02 1.25000E-02 0.00000E+00
 -1       383 8.33333E-03 1.35417E-02 0.00000E+00
 -1       384 8.33333E-03 1.45833E-02 0.00000E+00
 -1       385 8.33333E-03 1.56250E-02 0.00000E+00
 -1       386 8.33333E-03 1.66667E-02 0.00000E+00
 -1       387 8.33333E-03 1.77083E-02 0.00000E+00
 -1       388 1.77083E-02 1.25000E-02 0.00000E+00
 -1       389 1.87500E-02 1.25000E-02 0.00000E+00
 -1       390 1.97917E-02 1.25000E-02 0.00000E+00
 -1       391 2.08333E-02 1.25000E-02 0.00000E+00
 -1       392 2.18750E-02 1.25000E-02 0.00000E+00
 -1       393 2.29167E-02 1.25000E-02 0.00000E+00
 -1       394 2.39583E-02 1.25000E-02 0.00000E+00
 -1       395 1.66667E-02 1.35417E-02 0.00000E+00
 -1       396 1.66667E-02 1.45833E-02 0.00000E+00
 -1       397 1.66667E-02 1.56250E-02 0.00000E+00
 -1       398 1.66667E-02 1.66667E-02 0.00000E+00
 -1       399 1.66667E-02 1.77083E-02 0.00000E+00
 -1       400 2.60417E-02 1.25000E-02 0.00000E+00
 -1       401 2.70833E-02 1.25000E-02 0.00000E+00
 -1       402 2.81250E-02 1.25000E-02 0.00000E+00
 -1       403 2.91667E-02 1.25000E-02 0.00000E+00
 -1       404 3.02083E-02 1.25000E-02 0.00000E+00
 -1       405 3.12500E-02 1.25000E-02 0.00000E+00
 -1       406 3.22917E-02 1.25000E-02 0.00000E+00
 -1       407 2.50000E-02 1.35417E-02 0.00000E+00
 -1       408 2.50000E-02 1.45833E-02 0.00000E+00
 -1       409 2.50000E-02 1.56250E-02 0.00000E+00
 -1       410 2.50000E-02 1.66667E-02 0.00000E+00
 -1       411 2.50000E-02 1.77083E-02 0.00000E+00
 -1       412 3.43750E-02 1.25000E-02 0.00000E+00
 -1       413 3.54167E-02 1.25000E-02 0.00000E+00
 -1       414 3.64583E-02 1.25000E-02 0.00000E+00
 -1       415 3.75000E-02 1.25000E-02 0.00000E+00
 -1       416 3.85417E-02 1.25000E-02 0.00000E+00
 -1       417 3.95833E-02 1.25000E-02 0.00000E+00
 -1       418 4.06250E-02 1.25000E-02 0.00000E+00
 -1       419 3.33333E-02 1.35417E-02 0.00000E+00
 -1       420 3.33333E-02 1.45833E-02 0.00000E+00
 -1       421 3.33333E-02 1.56250E-02 0.00000E+00
 -1       422 3.33333E-02 1.66667E-02 0.00000E+00
 -1       423 3.33333E-02 1.77083E-02 0.00000E+00
 -1       424 4.27083E-02 1.25000E-02 0.00000E+00
 -1       425 4.37500E-02 1.25000E-02 0.00000E+00
 -1       426 4.47917E-02 1.25000E-02 0.00000E+00
 -1       427 4.58333E-02 1.25000E-02 0.00000E+00
 -1       428 4.68750E-02 1.25000E-02 0.00000E+00
 -1       429 4.79167E-02 1.25000E-02 0.00000E+00
 -1       430 4.89583E-02 1.25000E-02 0.00000E+00
 -1       431 4.16667E-02 1.35417E-02 0.00000E+00
 -1       432 4.16667E-02 1.45833E-02 0.00000E+00
 -1       433 4.16667E-02 1.56250E-02 0.00000E+00
 -1       434 4.16667E-02 1.66667E-02 0.00000E+00
 -1       435 4.16667E-02 1.77083E-02 0.00000E+00
 -1       436 5.10417E-02 1.25000E-02 0.00000E+00
 -1       437 5.20833E-02 1.25000E-02 0.00000E+00
 -1       438 5.31250E-02 1.25000E-02 0.00000E+00
 -1       439 5.41667E-02 1.25000E-02 0.00000E+00
 -1       440 5.52083E-02 1.25000E-02 0.00000E+00
 -1       441 5.62500E-02 1.25000E-02 0.00000E+00
 -1       442 5.72917E-02 1.25000E-02 0.00000E+00
 -1       443 5.00000E-02 1.35417E-02 0.00000E+00
 -1       444 5.00000E-02 1.45833E-02 0.00000E+00
 -1       445 5.00000E-02 1.56250E-02 0.00000E+00
 -1       446 5.00000E-02 1.66667E-02 0.00000E+00
 -1       447 5.00000E-02 1.77083E-02 0.00000E+00
 -1       448 5.93750E-02 1.25000E-02 0.00000E+00
 -1       449 6.04167E-02 1.25000E-02 0.00000E+00
 -1       450 6.14583E-02 1.25000E-02 0.00000E+00
 -1       451 6.25000E-02 1.25000E-02 0.00000E+00
 -1       452 6.35417E-02 1.25000E-02 0.00000E+00
 -1       453 6.45833E-02 1.25000E-02 0.00000E+00
 -1       454 6.56250E-02 1.25000E-02 0.00000E+00
 -1       455 5.83333E-02 1.35417E-02 0.00000E+00
 -1       456 5.83333E-02 1.45833E-02 0.00000E+00
 -1       457 5.83333E-02 1.56250E-02 0.00000E+00
 -1       458 5.83333E-02 1.66667E-02 0.00000E+00
 -1       459 5.83333E-02 1.77083E-02 0.00000E+00
 -1       460 6.77083E-02 1.25000E-02 0.00000E+00
 -1       461 6.87500E-02 1.25000E-02 0.00000E+00
 -1       462 6.97917E-02 1.25000E-02 0.00000E+00
 -1       463 7.08333E-02 1.25000E-02 0.00000E+00
 -1       464 7.18750E-02 1.25000E-02 0.00000E+00
 -1       465 7.29167E-02 1.25000E-02 0.00000E+00
 -1       466 7.39583E-02 1.25000E-02 0.00000E+00
 -1       467 6.66667E-02 1.35417E-02 0.00000E+00
 -1       468 6.66667E-02 1.45833E-02 0.00000E+00
 -1       469 6.66667E-02 1.56250E-02 0.00000E+00
 -1       470 6.66667E-02 1.66667E-02 0.00000E+00
 -1       471 6.66667E-02 1.77083E-02 0.00000E+00
 -1       472 7.60417E-02 1.25000E-02 0.00000E+00
 -1       473 7.70833E-02 1.25000E-02 0.00000E+00
 -1       474 7.81250E-02 1.25000E-02 0.00000E+00
 -1       475 7.91667E-02 1.25000E-02 0.00000E+00
 -1       476 8.02083E-02 1.25000E-02 0.00000E+00
 -1       477 8.12500E-02 1.25000E-02 0.00000E+00
 -1       478 8.22917E-02 1.25000E-02 0.00000E+00
 -1       479 7.50000E-02 1.35417E-02 0.00000E+00
 -1       480 7.50000E-02 1.45833E-02 0.00000E+00
 -1       481 7.50000E-02 1.56250E-02 0.00000E+00
 -1       482 7.50000E-02 1.66667E-02 0.00000E+00
 -1       483 7.50000E-02 1.77083E-02 0.00000E+00
 -1       484 8.43750E-02 1.25000E-02 0.00000E+00
 -1       485 8.54167E-02 1.25000E-02 0.00000E+00
 -1       486 8.64583E-02 1.25000E-02 0.00000E+00
 -1       487 8.75000E-02 1.25000E-02 0.00000E+00
 -1       488 8.85417E-02 1.25000E-02 0.00000E+00
 -1       489 8.95833E-02 1.25000E-02 0.00000E+00
 -1       490 9.06250E-02 1.25000E-02 0.00000E+00
 -1       491 8.33333E-02 1.35417E-02 0.00000E+00
 -1       492 8.33333E-02 1.45833E-02 0.00000E+00
 -1       493 8.33333E-02 1.56250E-02 0.00000E+00
 -1       494 8.33333E-02 1.66667E-02 0.00000E+00
 -1       495 8.33333E-02 1.77083E-02 0.00000E+00
 -1       496 9.27083E-02 1.25000E-02 0.00000E+00
 -1       497 9.37500E-02 1.25000E-02 0.00000E+00
 -1       498 9.47917E-02 1.25000E-02 0.00000E+00
 -1       499 9.58333E-02 1.25000E-02 0.00000E+00
 -1       500 9.68750E-02 1.25000E-02 0.00000E+00
 -1       501 9.79167E-02 1.25000E-02 0.00000E+00
 -1       502 9.89583E-02 1.25000E-02 0.00000E+00
 -1       503 9.16667E-02 1.35417E-02 0.00000E+00
 -1       504 9.16667E-02 1.45833E-02 0.00000E+00
 -1       505 9.16667E-02 1.56250E-02 0.00000E+00
 -1       506 9.16667E-02 1.66667E-02 0.00000E+00
 -1       507 9.16667E-02 1.77083E-02 0.00000E+00
 -1       508 1.00000E-01 1.35417E-02 0.00000E+00
 -1       509 1.00000E-01 1.45833E-02 0.00000E+00
 -1       510 1.00000E-01 1.56250E-02 0.00000E+00
 -1       511 1.00000E-01 1.66667E-02 0.00000E+00
 -1       512 1.00000E-01 1.77083E-02 0.00000E+00
 -1       513 1.04167E-03 1.87500E-02 0.00000E+00
 -1       514 2.08333E-03 1.87500E-02 0.00000E+00
 -1       515 3.12500E-03 1.87500E-02 0.00000E+00
 -1       516 4.16667E-03 1.87500E-02 0.00000E+00
 -1       517 5.20833E-03 1.87500E-02 0.00000E+00
 -1       518 6.25000E-03 1.87500E-02 0.00000E+00
 -1       519 7.29167E-03 1.87500E-02 0.00000E+00
 -1       520 0.00000E+00 1.97917E-02 0.00000E+00
 -1       521 0.00000E+00 2.08333E-02 0.00000E+00
 -1       522 0.00000E+00 2.18750E-02 0.00000E+00
 -1       523 0.00000E+00 2.29167E-02 0.00000E+00
 -1       524 0.00000E+00 2.39583E-02 0.00000E+00
 -1       525 9.37500E-03 1.87500E-02 0.00000E+00
 -1       526 1.04167E-02 1.87500E-02 0.00000E+00
 -1       527 1.14583E-02 1.87500E-02 0.00000E+00
 -1       528 1.25000E-02 1.87500E-02 0.00000E+00
 -1       529 1.35417E-02 1.87500E-02 0.00000E+00
 -1       530 1.45833E-02 1.87500E-02 0.00000E+00
 -1       531 1.56250E-02 1.87500E-02 0.00000E+00
 -1       532 8.33333E-03 1.97917E-02 0.00000E+00
 -1       533 8.33333E-03 2.08333E-02 0.00000E+00
 -1       534 8.33333E-03 2.18750E-02 0.00000E+00
 -1       535 8.33333E-03 2.29167E-02 0.00000E+00
 -1       536 8.33333E-03 2.39583E-02 0.00000E+00
 -1       537 1.77083E-02 1.87500E-02 0.00000E+00
 -1       538 1.87500E-02 1.87500E-02 0.00000E+00
 -1       539 1.97917E-02 1.87500E-02 0.00000E+00
 -1       540 2.08333E-02 1.87500E-02 0.00000E+00
 -1       541 2.18750E-02 1.87500E-02 0.00000E+00
 -1       542 2.29167E-02 1.87500E-02 0.00000E+00
 -1       543 2.39583E-02 1.87500E-02 0.00000E+00
 -1       544 1.66667E-02 1.97917E-02 0.00000E+00
 -1       545 1.66667E-02 2.08333E-02 0.00000E+00
 -1       546 1.66667E-02 2.18750E-02 0.00000E+00
 -1       547 1.66667E-02 2.29167E-02 0.00000E+00
 -1       548 1.66667E-02 2.39583E-02 0.00000E+00
 -1       549 2.60417E-02 1.87500E-02 0.00000E+00
 -1       550 2.70833E-02 1.87500E-02 0.00000E+00
 -1       551 2.81250E-02 1.87500E-02 0.00000E+00
 -1       552 2.91667E-02 1.87500E-02 0.00000E+00
 -1       553 3.02083E-02 1.87500E-02 0.00000E+00
 -1       554 3.12500E-02 1.87500E-02 0.00000E+00
 -1       555 3.22917E-02 1.87500E-02 0.00000E+00
 -1       556 2.50000E-02 1.97917E-02 0.00000E+00
 -1       557 2.50000E-02 2.08333E-02 0.00000E+00
 -1       558 2.50000E-02 2.18750E-02 0.00000E+00
 -1       559 2.50000E-02 2.29167E-02 0.00000E+00
 -1       560 2.50000E-02 2.39583E-02 0.00000E+00
 -1       561 3.43750E-02 1.87500E-02 0.00000E+00
 -1       562 3.54167E-02 1.87500E-02 0.00000E+00
 -1       563 3.64583E-02 1.87500E-02 0.00000E+00
 -1       564 3.75000E-02 1.87500E-02 0.00000E+00
 -1       565 3.85417E-02 1.87500E-02 0.00000E+00
 -1       566 3.95833E-02 1.87500E-02 0.00000E+00
 -1       567 4.06250E-02 1.87500E-02 0.00000E+00
 -1       568 3.33333E-02 1.97917E-02 0.00000E+00
 -1       569 3.33333E-02 2.08333E-02 0.00000E+00
 -1       570 3.33333E-02 2.18750E-02 0.00000E+00
 -1       571 3.33333E-02 2.29167E-02 0.00000E+00
 -1       572 3.33333E-02 2.39583E-02 0.00000E+00
 -1       573 4.27083E-02 1.87500E-02 0.00000E+00
 -1       574 4.37500E-02 1.87500E-02 0.00000E+00
 -1       575 4.47917E-02 1.87500E-02 0.00000E+00
 -1       576 4.58333E-02 1.87500E-02 0.00000E+00
 -1       577 4.68750E-02 1.87500E-02 0.00000E+00
 -1       578 4.79167E-02 1.87500E-02 0.00000E+00
 -1       579 4.89583E-02 1.87500E-02 0.00000E+00
 -1       580 4.16667E-02 1.97917E-02 0.00000E+00
 -1       581 4.16667E-02 2.08333E-02 0.00000E+00
 -1       582 4.16667E-02 2.18750E-02 0.00000E+00
 -1       583 4.16667E-02 2.29167E-02 0.00000E+00
 -1       584 4.16667E-02 2.39583E-02 0.00000E+00
 -1       585 5.10417E-02 1.87500E-02 0.00000E+00
 -1       586 5.20833E-02 1.87500E-02 0.00000E+00
 -1       587 5.31250E-02 1.87500E-02 0.00000E+00
 -1       588 5.41667E-02 1.87500E-02 0.00000E+00
 -1       589 5.52083E-02 1.87500E-02 0.00000E+00
 -1       590 5.62500E-02 1.87500E-02 0.00000E+00
 -1       591 5.72917E-02 1.87500E-02 0.00000E+00
 -1       592 5.00000E-02 1.97917E-02 0.00000E+00
 -1       593 5.00000E-02 2.08333E-02 0.00000E+00
 -1       594 5.00000E-02 2.18750E-02 0.00000E+00
 -1       595 5.00000E-02 2.29167E-02 0.00000E+00
 -1       596 5.00000E-02 2.39583E-02 0.00000E+00
 -1       597 5.93750E-02 1.87500E-02 0.00000E+00
 -1       598 6.04167E-02 1.87500E-02 0.00000E+00
 -1       599 6.14583E-02 1.87500E-02 0.00000E+00
 -1       600 6.25000E-02 1.87500E-02 0.00000E+00
 -1       601 6.35417E-02 1.87500E-02 0.00000E+00
 -1       602 6.45833E-02 1.87500E-02 0.00000E+00
 -1       603 6.56250E-02 1.87500E-02 0.00000E+00
 -1       604 5.83333E-02 1.97917E-02 0.00000E+00
 -1       605 5.83333E-02 2.08333E-02 0.00000E+00
 -1       606 5.83333E-02 2.18750E-02 0.00000E+00
 -1       607 5.83333E-02 2.29167E-02 0.00000E+00
 -1       608 5.83333E-02 2.39583E-02 0.00000E+00
 -1       609 6.77083E-02 1.87500E-02 0.00000E+00
 -1       610 6.87500E-02 1.87500E-02 0.00000E+00
 -1       611 6.97917E-02 1.87500E-02 0.00000E+00
 -1       612 7.08333E-02 1.87500E-02 0.00000E+00
 -1       613 7.18750E-02 1.87500E-02 0.00000E+00
 -1       614 7.29167E-02 1.87500E-02 0.00000E+00
 -1       615 7.39583E-02 1.87500E-02 0.00000E+00
 -1       616 6.66667E-02 1.97917E-02 0.00000E+00
 -1       617 6.66667E-02 2.08333E-02 0.00000E+00
 -1       618 6.66667E-02 2.18750E-02 0.00000E+00
 -1       619 6.66667E-02 2.29167E-02 0.00000E+00
 -1       620 6.66667E-02 2.39583E-02 0.00000E+00
 -1       621 7.60417E-02 1.87500E-02 0.00000E+00
 -1       622 7.70833E-02 1.87500E-02 0.00000E+00
 -1       623 7.81250E-02 1.87500E-02 0.00000E+00
 -1       624 7.91667E-02 1.87500E-02 0.00000E+00
 -1       625 8.02083E-02 1.87500E-02 0.00000E+00
 -1       626 8.12500E-02 1.87500E-02 0.00000E+00
 -1       627 8.22917E-02 1.87500E-02 0.00000E+00
 -1       628 7.50000E-02 1.97917E-02 0.00000E+00
 -1       629 7.50000E-02 2.08333E-02 0.00000E+00
 -1       630 7.50000E-02 2.18750E-02 0.00000E+00
 -1       631 7.50000E-02 2.29167E-02 0.00000E+00
 -1       632 7.50000E-02 2.39583E-02 0.00000E+00
 -1       633 8.43750E-02 1.87500E-02 0.00000E+00
 -1       634 8.54167E-02 1.87500E-02 0.00000E+00
 -1       635 8.64583E-02 1.87500E-02 0.00000E+00
 -1       636 8.75000E-02 1.87500E-02 0.00000E+00
 -1       637 8.85417E-02 1.87500E-02 0.00000E+00
 -1       638 8.95833E-02 1.87500E-02 0.00000E+00
 -1       639 9.06250E-02 1.87500E-02 0.00000E+00
 -1       640 8.33333E-02 1.97917E-02 0.00000E+00
 -1       641 8.33333E-02 2.08333E-02 0.00000E+00
 -1       642 8.33333E-02 2.18750E-02 0.00000E+00
 -1       643 8.33333E-02 2.29167E-02 0.00000E+00
 -1       644 8.33333E-02 2.39583E-02 0.00000E+00
 -1       645 9.27083E-02 1.87500E-02 0.00000E+00
 -1       646 9.37500E-02 1.87500E-02 0.00000E+00
 -1       647 9.47917E-02 1.87500E-02 0.00000E+00
 -1       648 9.58333E-02 1.87500E-02 0.00000E+00
 -1       649 9.68750E-02 1.87500E-02 0.00000E+00
 -1       650 9.79167E-02 1.87500E-02 0.00000E+00
 -1       651 9.89583E-02 1.87500E-02 0.00000E+00
 -1       652 9.16667E-02 1.97917E-02 0.00000E+00
 -1       653 9.16667E-02 2.08333E-02 0.00000E+00
 -1       654 9.16667E-02 2.18750E-02 0.00000E+00
 -1       655 9.16667E-02 2.29167E-02 0.00000E+00
 -1       656 9.16667E-02 2.39583E-02 0.00000E+00
 -1       657 1.00000E-01 1.97917E-02 0.00000E+00
 -1       658 1.00000E-01 2.08333E-02 0.00000E+00
 -1       659 1.00000E-01 2.18750E-02 0.00000E+00
 -1       660 1.00000E-01 2.29167E-02 0.00000E+00
 -1       661 1.00000E-01 2.39583E-02 0.00000E+00
 -1       662 1.04167E-03 2.50000E-02 0.00000E+00
 -1       663 2.08333E-03 2.50000E-02 0.00000E+00
 -1       664 3.12500E-03 2.50000E-02 0.00000E+00
 -1       665 4.16667E-03 2.50000E-02 0.00000E+00
 -1       666 5.20833E-03 2.50000E-02 0.00000E+00
 -1       667 6.25000E-03 2.50000E-02 0.00000E+00
 -1       668 7.29167E-03 2.50000E-02 0.00000E+00
 -1       669 9.37500E-03 2.50000E-02 0.00000E+00
 -1       670 1.04167E-02 2.50000E-02 0.00000E+00
 -1       671 1.14583E-02 2.50000E-02 0.00000E+00
 -1       672 1.25000E-02 2.50000E-02 0.00000E+00
 -1       673 1.35417E-02 2.50000E-02 0.00000E+00
 -1       674 1.45833E-02 2.50000E-02 0.00000E+00
 -1       675 1.56250E-02 2.50000E-02 0.00000E+00
 -1       676 1.77083E-02 2.50000E-02 0.00000E+00
 -1       677 1.87500E-02 2.50000E-02 0.00000E+00
 -1       678 1.97917E-02 2.50000E-02 0.00000E+00
 -1       679 2.08333E-02 2.50000E-02 0.00000E+00
 -1       680 2.18750E-02 2.50000E-02 0.00000E+00
 -1       681 2.29167E-02 2.50000E-02 0.00000E+00
 -1       682 2.39583E-02 2.50000E-02 0.00000E+00
 -1       683 2.60417E-02 2.50000E-02 0.00000E+00
 -1       684 2.70833E-02 2.50000E-02 0.00000E+00
 -1       685 2.81250E-02 2.50000E-02 0.00000E+00
 -1       686 2.91667E-02 2.50000E-02 0.00000E+00
 -1       687 3.02083E-02 2.50000E-02 0.00000E+00
 -1       688 3.12500E-02 2.50000E-02 0.00000E+00
 -1       689 3.22917E-02 2.50000E-02 0.00000E+00
 -1       690 3.43750E-02 2.50000E-02 0.00000E+00
 -1       691 3.54167E-02 2.50000E-02 0.00000E+00
 -1       692 3.64583E-02 2.50000E-02 0.00000E+00
 -1       693 3.75000E-02 2.50000E-02 0.00000E+00
 -1       694 3.85417E-02 2.50000E-02 0.00000E+00
 -1       695 3.95833E-02 2.50000E-02 0.00000E+00
 -1       696 4.06250E-02 2.50000E-02 0.00000E+00
 -1       697 4.27083E-02 2.50000E-02 0.00000E+00
 -1       698 4.37500E-02 2.50000E-02 0.00000E+00
 -1       699 4.47917E-02 2.50000E-02 0.00000E+00
 -1       700 4.58333E-02 2.50000E-02 0.00000E+00
 -1       701 4.68750E-02 2.50000E-02 0.00000E+00
 -1       702 4.79167E-02 2.50000E-02 0.00000E+00
 -1       703 4.89583E-02 2.50000E-02 0.00000E+00
 -1       704 5.10417E-02 2.50000E-02 0.00000E+00
 -1       705 5.20833E-02 2.50000E-02 0.00000E+00
 -1       706 5.31250E-02 2.50000E-02 0.00000E+00
 -1       707 5.41667E-02 2.50000E-02 0.00000E+00
 -1       708 5.52083E-02 2.50000E-02 0.00000E+00
 -1       709 5.62500E-02 2.50000E-02 0.00000E+00
 -1       710 5.72917E-02 2.50000E-02 0.00000E+00
 -1       711 5.93750E-02 2.50000E-02 0.00000E+00
 -1       712 6.04167E-02 2.50000E-02 0.00000E+00
 -1       713 6.14583E-02 2.50000E-02 0.00000E+00
 -1       714 6.25000E-02 2.50000E-02 0.00000E+00
 -1       715 6.35417E-02 2.50000E-02 0.00000E+00
 -1       716 6.45833E-02 2.50000E-02 0.00000E+00
 -1       717 6.56250E-02 2.50000E-02 0.00000E+00
 -1       718 6.77083E-02 2.50000E-02 0.00000E+00
 -1       719 6.87500E-02 2.50000E-02 0.00000E+00
 -1       720 6.97917E-02 2.50000E-02 0.00000E+00
 -1       721 7.08333E-02 2.50000E-02 0.00000E+00
 -1       722 7.18750E-02 2.50000E-02 0.00000E+00
 -1       723 7.29167E-02 2.50000E-02 0.00000E+00
 -1       724 7.39583E-02 2.50000E-02 0.00000E+00
 -1       725 7.60417E-02 2.50000E-02 0.00000E+00
 -1       726 7.70833E-02 2.50000E-02 0.00000E+00
 -1       727 7.81250E-02 2.50000E-02 0.00000E+00
 -1       728 7.91667E-02 2.50000E-02 0.00000E+00
 -1       729 8.02083E-02 2.50000E-02 0.00000E+00
 -1       730 8.12500E-02 2.50000E-02 0.00000E+00
 -1       731 8.22917E-02 2.50000E-02 0.00000E+00
 -1       732 8.43750E-02 2.50000E-02 0.00000E+00
 -1       733 8.54167E-02 2.50000E-02 0.00000E+00
 -1       734 8.64583E-02 2.50000E-02 0.00000E+00
 -1       735 8.75000E-02 2.50000E-02 0.00000E+00
 -1       736 8.85417E-02 2.50000E-02 0.00000E+00
 -1       737 8.95833E-02 2.50000E-02 0.00000E+00
 -1       738 9.06250E-02 2.50000E-02 0.00000E+00
 -1       739 9.27083E-02 2.50000E-02 0.00000E+00
 -1       740 9.37500E-02 2.50000E-02 0.00000E+00
 -1       741 9.47917E-02 2.50000E-02 0.00000E+00
 -1       742 9.58333E-02 2.50000E-02 0.00000E+00
 -1       743 9.68750E-02 2.50000E-02 0.00000E+00
 -1       744 9.79167E-02 2.50000E-02 0.00000E+00
 -1       745 9.89583E-02 2.50000E-02 0.00000E+00
 -3
    3C                           340                                     1
 -1         1   12    0    1
 -2         1        67        66
 -1         2   12    0    1
 -2        67        69        68
 -1         3   12    0    1
 -2        69        71        70
 -1         4   12    0    1
 -2        71         2        72
 -1         5   12    0    1
 -2         1        74        73
 -1         6   12    0    1
 -2        74        76        75
 -1         7   12    0    1
 -2        76        14        77
 -1         8   12    0    1
 -2         2        79        78
 -1         9   12    0    1
 -2        79        81        80
 -1        10   12    0    1
 -2        81        83        82
 -1        11   12    0    1
 -2        83         3        84
 -1        12   12    0    1
 -2         2        86        85
 -1        13   12    0    1
 -2        86        88        87
 -1        14   12    0    1
 -2        88        15        89
 -1        15   12    0    1
 -2         3        91        90
 -1        16   12    0    1
 -2        91        93        92
 -1        17   12    0    1
 -2        93        95        94
 -1        18   12    0    1
 -2        95         4        96
 -1        19   12    0    1
 -2         3        98        97
 -1        20   12    0    1
 -2        98       100        99
 -1        21   12    0    1
 -2       100        16       101
 -1        22   12    0    1
 -2         4       103       102
 -1        23   12    0    1
 -2       103       105       104
 -1        24   12    0    1
 -2       105       107       106
 -1        25   12    0    1
 -2       107         5       108
 -1        26   12    0    1
 -2         4       110       109
 -1        27   12    0    1
 -2       110       112       111
 -1        28   12    0    1
 -2       112        17       113
 -1        29   12    0    1
 -2         5       115       114
 -1        30   12    0    1
 -2       115       117       116
 -1        31   12    0    1
 -2       117       119       118
 -1        32   12    0    1
 -2       119         6       120
 -1        33   12    0    1
 -2         5       122       121
 -1        34   12    0    1
 -2       122       124       123
 -1        35   12    0    1
 -2       124        18       125
 -1        36   12    0    1
 -2         6       127       126
 -1        37   12    0    1
 -2       127       129       128
 -1        38   12    0    1
 -2       129       131       130
 -1        39   12    0    1
 -2       131         7       132
 -1        40   12    0    1
 -2         6       134       133
 -1        41   12    0    1
 -2       134       136       135
 -1        42   12    0    1
 -2       136        19       137
 -1        43   12    0    1
 -2         7       139       138
 -1        44   12    0    1
 -2       139       141       140
 -1        45   12    0    1
 -2       141       143       142
 -1        46   12    0    1
 -2       143         8       144
 -1        47   12    0    1
 -2         7       146       145
 -1        48   12    0    1
 -2       146       148       147
 -1        49   12    0    1
 -2       148        20       149
 -1        50   12    0    1
 -2         8       151       150
 -1        51   12    0    1
 -2       151       153       152
 -1        52   12    0    1
 -2       153       155       154
 -1        53   12    0    1
 -2       155         9       156
 -1        54   12    0    1
 -2         8       158       157
 -1        55   12    0    1
 -2       158       160       159
 -1        56   12    0    1
 -2       160        21       161
 -1        57   12    0    1
 -2         9       170       169
 -1        58   12    0    1
 -2       170       172       171
 -1        59   12    0    1
 -2       172        22       173
 -1        60   12    0    1
 -2        14       216       215
 -1        61   12    0    1
 -2       216       218       217
 -1        62   12    0    1
 -2       218       220       219
 -1        63   12    0    1
 -2       220        15       221
 -1        64   12    0    1
 -2        14       223       222
 -1        65   12    0    1
 -2       223       225       224
 -1        66   12    0    1
 -2       225        27       226
 -1        67   12    0    1
 -2        15       228       227
 -1        68   12    0    1
 -2       228       230       229
 -1        69   12    0    1
 -2       230       232       231
 -1        70   12    0    1
 -2       232        16       233
 -1        71   12    0    1
 -2        15       235       234
 -1        72   12    0    1
 -2       235       237       236
 -1        73   12    0    1
 -2       237        28       238
 -1        74   12    0    1
 -2        16       240       239
 -1        75   12    0    1
 -2       240       242       241
 -1        76   12    0    1
 -2       242       244       243
 -1        77   12    0    1
 -2       244        17       245
 -1        78   12    0    1
 -2        16       247       246
 -1        79   12    0    1
 -2       247       249       248
 -1        80   12    0    1
 -2       249        29       250
 -1        81   12    0    1
 -2        17       252       251
 -1        82   12    0    1
 -2       252       254       253
 -1        83   12    0    1
 -2       254       256       255
 -1        84   12    0    1
 -2       256        18       257
 -1        85   12    0    1
 -2        17       259       258
 -1        86   12    0    1
 -2       259       261       260
 -1        87   12    0    1
 -2       261        30       262
 -1        88   12    0    1
 -2        18       264       263
 -1        89   12    0    1
 -2       264       266       265
 -1        90   12    0    1
 -2       266       268       267
 -1        91   12    0    1
 -2       268        19       269
 -1        92   12    0    1
 -2        18       271       270
 -1        93   12    0    1
 -2       271       273       272
 -1        94   12    0    1
 -2       273        31       274
 -1        95   12    0    1
 -2        19       276       275
 -1        96   12    0    1
 -2       276       278       277
 -1        97   12    0    1
 -2       278       280       279
 -1        98   12    0    1
 -2       280        20       281
 -1        99   12    0    1
 -2        19       283       282
 -1       100   12    0    1
 -2       283       285       284
 -1       101   12    0    1
 -2       285        32       286
 -1       102   12    0    1
 -2        20       288       287
 -1       103   12    0    1
 -2       288       290       289
 -1       104   12    0    1
 -2       290       292       291
 -1       105   12    0    1
 -2       292        21       293
 -1       106   12    0    1
 -2        20       295       294
 -1       107   12    0    1
 -2       295       297       296
 -1       108   12    0    1
 -2       297        33       298
 -1       109   12    0    1
 -2        21       300       299
 -1       110   12    0    1
 -2       300       302       301
 -1       111   12    0    1
 -2       302       304       303
 -1       112   12    0    1
 -2       304        22       305
 -1       113   12    0    1
 -2        21       307       306
 -1       114   12    0    1
 -2       307       309       308
 -1       115   12    0    1
 -2       309        34       310
 -1       116   12    0    1
 -2        22       319       318
 -1       117   12    0    1
 -2       319       321       320
 -1       118   12    0    1
 -2       321        35       322
 -1       119   12    0    1
 -2        27       365       364
 -1       120   12    0    1
 -2       365       367       366
 -1       121   12    0    1
 -2       367       369       368
 -1       122   12    0    1
 -2       369        28       370
 -1       123   12    0    1
 -2        27       372       371
 -1       124   12    0    1
 -2       372       374       373
 -1       125   12    0    1
 -2       374        40       375
 -1       126   12    0    1
 -2        28       377       376
 -1       127   12    0    1
 -2       377       379       378
 -1       128   12    0    1
 -2       379       381       380
 -1       129   12    0    1
 -2       381        29       382
 -1       130   12    0    1
 -2        28       384       383
 -1       131   12    0    1
 -2       384       386       385
 -1       132   12    0    1
 -2       386        41       387
 -1       133   12    0    1
 -2        29       389       388
 -1       134   12    0    1
 -2       389       391       390
 -1       135   12    0    1
 -2       391       393       392
 -1       136   12    0    1
 -2       393        30       394
 -1       137   12    0    1
 -2        29       396       395
 -1       138   12    0    1
 -2       396       398       397
 -1       139   12    0    1
 -2       398        42       399
 -1       140   12    0    1
 -2        30       401       400
 -1       141   12    0    1
 -2       401       403       402
 -1       142   12    0    1
 -2       403       405       404
 -1       143   12    0    1
 -2       405        31       406
 -1       144   12    0    1
 -2        30       408       407
 -1       145   12    0    1
 -2       408       410       409
 -1       146   12    0    1
 -2       410        43       411
 -1       147   12    0    1
 -2        31       413       412
 -1       148   12    0    1
 -2       413       415       414
 -1       149   12    0    1
 -2       415       417       416
 -1       150   12    0    1
 -2       417        32       418
 -1       151   12    0    1
 -2        31       420       419
 -1       152   12    0    1
 -2       420       422       421
 -1       153   12    0    1
 -2       422        44       423
 -1       154   12    0    1
 -2        32       425       424
 -1       155   12    0    1
 -2       425       427       426
 -1       156   12    0    1
 -2       427       429       428
 -1       157   12    0    1
 -2       429        33       430
 -1       158   12    0    1
 -2        32       432       431
 -1       159   12    0    1
 -2       432       434       433
 -1       160   12    0    1
 -2       434        45       435
 -1       161   12    0    1
 -2        33       437       436
 -1       162   12    0    1
 -2       437       439       438
 -1       163   12    0    1
 -2       439       441       440
 -1       164   12    0    1
 -2       441        34       442
 -1       165   12    0    1
 -2        33       444       443
 -1       166   12    0    1
 -2       444       446       445
 -1       167   12    0    1
 -2       446        46       447
 -1       168   12    0    1
 -2        34       449       448
 -1       169   12    0    1
 -2       449       451       450
 -1       170   12    0    1
 -2       451       453       452
 -1       171   12    0    1
 -2       453        35       454
 -1       172   12    0    1
 -2        34       456       455
 -1       173   12    0    1
 -2       456       458       457
 -1       174   12    0    1
 -2       458        47       459
 -1       175   12    0    1
 -2        35       461       460
 -1       176   12    0    1
 -2       461       463       462
 -1       177   12    0    1
 -2       463       465       464
 -1       178   12    0    1
 -2       465        36       466
 -1       179   12    0    1
 -2        35       468       467
 -1       180   12    0    1
 -2       468       470       469
 -1       181   12    0    1
 -2       470        48       471
 -1       182   12    0    1
 -2        36       473       472
 -1       183   12    0    1
 -2       473       475       474
 -1       184   12    0    1
 -2       475       477       476
 -1       185   12    0    1
 -2       477        37       478
 -1       186   12    0    1
 -2        36       480       479
 -1       187   12    0    1
 -2       480       482       481
 -1       188   12    0    1
 -2       482        49       483
 -1       189   12    0    1
 -2        37       485       484
 -1       190   12    0    1
 -2       485       487       486
 -1       191   12    0    1
 -2       487       489       488
 -1       192   12    0    1
 -2       489        38       490
 -1       193   12    0    1
 -2        37       492       491
 -1       194   12    0    1
 -2       492       494       493
 -1       195   12    0    1
 -2       494        50       495
 -1       196   12    0    1
 -2        38       497       496
 -1       197   12    0    1
 -2       497       499       498
 -1       198   12    0    1
 -2       499       501       500
 -1       199   12    0    1
 -2       501        39       502
 -1       200   12    0    1
 -2        38       504       503
 -1       201   12    0    1
 -2       504       506       505
 -1       202   12    0    1
 -2       506        51       507
 -1       203   12    0    1
 -2        39       509       508
 -1       204   12    0    1
 -2       509       511       510
 -1       205   12    0    1
 -2       511        52       512
 -1       206   12    0    1
 -2        40       514       513
 -1       207   12    0    1
 -2       514       516       515
 -1       208   12    0    1
 -2       516       518       517
 -1       209   12    0    1
 -2       518        41       519
 -1       210   12    0    1
 -2        40       521       520
 -1       211   12    0    1
 -2       521       523       522
 -1       212   12    0    1
 -2       523        53       524
 -1       213   12    0    1
 -2        41       526       525
 -1       214   12    0    1
 -2       526       528       527
 -1       215   12    0    1
 -2       528       530       529
 -1       216   12    0    1
 -2       530        42       531
 -1       217   12    0    1
 -2        41       533       532
 -1       218   12    0    1
 -2       533       535       534
 -1       219   12    0    1
 -2       535        54       536
 -1       220   12    0    1
 -2        42       538       537
 -1       221   12    0    1
 -2       538       540       539
 -1       222   12    0    1
 -2       540       542       541
 -1       223   12    0    1
 -2       542        43       543
 -1       224   12    0    1
 -2        42       545       544
 -1       225   12    0    1
 -2       545       547       546
 -1       226   12    0    1
 -2       547        55       548
 -1       227   12    0    1
 -2        43       550       549
 -1       228   12    0    1
 -2       550       552       551
 -1       229   12    0    1
 -2       552       554       553
 -1       230   12    0    1
 -2       554        44       555
 -1       231   12    0    1
 -2        43       557       556
 -1       232   12    0    1
 -2       557       559       558
 -1       233   12    0    1
 -2       559        56       560
 -1       234   12    0    1
 -2        44       562       561
 -1       235   12    0    1
 -2       562       564       563
 -1       236   12    0    1
 -2       564       566       565
 -1       237   12    0    1
 -2       566        45       567
 -1       238   12    0    1
 -2        44       569       568
 -1       239   12    0    1
 -2       569       571       570
 -1       240   12    0    1
 -2       571        57       572
 -1       241   12    0    1
 -2        45       574       573
 -1       242   12    0    1
 -2       574       576       575
 -1       243   12    0    1
 -2       576       578       577
 -1       244   12    0    1
 -2       578        46       579
 -1       245   12    0    1
 -2        45       581       580
 -1       246   12    0    1
 -2       581       583       582
 -1       247   12    0    1
 -2       583        58       584
 -1       248   12    0    1
 -2        46       586       585
 -1       249   12    0    1
 -2       586       588       587
 -1       250   12    0    1
 -2       588       590       589
 -1       251   12    0    1
 -2       590        47       591
 -1       252   12    0    1
 -2        46       593       592
 -1       253   12    0    1
 -2       593       595       594
 -1       254   12    0    1
 -2       595        59       596
 -1       255   12    0    1
 -2        47       598       597
 -1       256   12    0    1
 -2       598       600       599
 -1       257   12    0    1
 -2       600       602       601
 -1       258   12    0    1
 -2       602        48       603
 -1       259   12    0    1
 -2        47       605       604
 -1       260   12    0    1
 -2       605       607       606
 -1       261   12    0    1
 -2       607        60       608
 -1       262   12    0    1
 -2        48       610       609
 -1       263   12    0    1
 -2       610       612       611
 -1       264   12    0    1
 -2       612       614       613
 -1       265   12    0    1
 -2       614        49       615
 -1       266   12    0    1
 -2        48       617       616
 -1       267   12    0    1
 -2       617       619       618
 -1       268   12    0    1
 -2       619        61       620
 -1       269   12    0    1
 -2        49       622       621
 -1       270   12    0    1
 -2       622       624       623
 -1       271   12    0    1
 -2       624       626       625
 -1       272   12    0    1
 -2       626        50       627
 -1       273   12    0    1
 -2        49       629       628
 -1       274   12    0    1
 -2       629       631       630
 -1       275   12    0    1
 -2       631        62       632
 -1       276   12    0    1
 -2        50       634       633
 -1       277   12    0    1
 -2       634       636       635
 -1       278   12    0    1
 -2       636       638       637
 -1       279   12    0    1
 -2       638        51       639
 -1       280   12    0    1
 -2        50       641       640
 -1       281   12    0    1
 -2       641       643       642
 -1       282   12    0    1
 -2       643        63       644
 -1       283   12    0    1
 -2        51       646       645
 -1       284   12    0    1
 -2       646       648       647
 -1       285   12    0    1
 -2       648       650       649
 -1       286   12    0    1
 -2       650        52       651
 -1       287   12    0    1
 -2        51       653       652
 -1       288   12    0    1
 -2       653       655       654
 -1       289   12    0    1
 -2       655        64       656
 -1       290   12    0    1
 -2        52       658       657
 -1       291   12    0    1
 -2       658       660       659
 -1       292   12    0    1
 -2       660        65       661
 -1       293   12    0    1
 -2        53       663       662
 -1       294   12    0    1
 -2       663       665       664
 -1       295   12    0    1
 -2       665       667       666
 -1       296   12    0    1
 -2       667        54       668
 -1       297   12    0    1
 -2        54       670       669
 -1       298   12    0    1
 -2       670       672       671
 -1       299   12    0    1
 -2       672       674       673
 -1       300   12    0    1
 -2       674        55       675
 -1       301   12    0    1
 -2        55       677       676
 -1       302   12    0    1
 -2       677       679       678
 -1       303   12    0    1
 -2       679       681       680
 -1       304   12    0    1
 -2       681        56       682
 -1       305   12    0    1
 -2        56       684       683
 -1       306   12    0    1
 -2       684       686       685
 -1       307   12    0    1
 -2       686       688       687
 -1       308   12    0    1
 -2       688        57       689
 -1       309   12    0    1
 -2        57       691       690
 -1       310   12    0    1
 -2       691       693       692
 -1       311   12    0    1
 -2       693       695       694
 -1       312   12    0    1
 -2       695        58       696
 -1       313   12    0    1
 -2        58       698       697
 -1       314   12    0    1
 -2       698       700       699
 -1       315   12    0    1
 -2       700       702       701
 -1       316   12    0    1
 -2       702        59       703
 -1       317   12    0    1
 -2        59       705       704
 -1       318   12    0    1
 -2       705       707       706
 -1       319   12    0    1
 -2       707       709       708
 -1       320   12    0    1
 -2       709        60       710
 -1       321   12    0    1
 -2        60       712       711
 -1       322   12    0    1
 -2       712       714       713
 -1       323   12    0    1
 -2       714       716       715
 -1       324   12    0    1
 -2       716        61       717
 -1       325   12    0    1
 -2        61       719       718
 -1       326   12    0    1
 -2       719       721       720
 -1       327   12    0    1
 -2       721       723       722
 -1       328   12    0    1
 -2       723        62       724
 -1       329   12    0    1
 -2        62       726       725
 -1       330   12    0    1
 -2       726       728       727
 -1       331   12    0    1
 -2       728       730       729
 -1       332   12    0    1
 -2       730        63       731
 -1       333   12    0    1
 -2        63       733       732
 -1       334   12    0    1
 -2       733       735       734
 -1       335   12    0    1
 -2       735       737       736
 -1       336   12    0    1
 -2       737        64       738
 -1       337   12    0    1
 -2        64       740       739
 -1       338   12    0    1
 -2       740       742       741
 -1       339   12    0    1
 -2       742       744       743
 -1       340   12    0    1
 -2       744        65       745
 -3
    1PSTEP                         1           1           1          
  100CL  101 1.000000000         641                     0    1           1
 -4  DISP        4    1
 -5  D1          1    2    1    0
 -5  D2          1    2    2    0
 -5  D3          1    2    3    0
 -5  ALL         1    2    0    0    1ALL
 -1         1-3.18406E-05 0.00000E+00 0.00000E+00
 -1         2-2.63641E-05 0.00000E+00 0.00000E+00
 -1         3-2.23928E-05 0.00000E+00 0.00000E+00
 -1         4-1.94238E-05 0.00000E+00 0.00000E+00
 -1         5-1.71628E-05 0.00000E+00 0.00000E+00
 -1         6-1.54460E-05 0.00000E+00 0.00000E+00
 -1         7-1.41856E-05 0.00000E+00 0.00000E+00
 -1         8-1.33520E-05 0.00000E+00 0.00000E+00
 -1         9-1.29762E-05 0.00000E+00 0.00000E+00
 -1        14-2.12444E-05 1.04342E-06 0.00000E+00
 -1        15-1.97381E-05-3.16868E-07 0.00000E+00
 -1        16-1.79091E-05-2.73805E-07 0.00000E+00
 -1        17-1.61501E-05-1.66288E-07 0.00000E+00
 -1        18-1.45859E-05-7.46560E-08 0.00000E+00
 -1        19-1.32465E-05-1.80011E-08 0.00000E+00
 -1        20-1.21230E-05-4.32783E-08 0.00000E+00
 -1        21-1.12044E-05-2.05595E-08 0.00000E+00
 -1        22-1.05583E-05 2.21313E-07 0.00000E+00
 -1        27-1.25992E-05 1.25964E-06 0.00000E+00
 -1        28-1.23390E-05-4.45851E-07 0.00000E+00
 -1        29-1.17784E-05-4.38701E-07 0.00000E+00
 -1        30-1.10457E-05-2.66173E-07 0.00000E+00
 -1        31-1.02303E-05-1.07467E-07 0.00000E+00
 -1        32-9.38468E-06-7.47137E-09 0.00000E+00
 -1        33-8.50761E-06-8.43771E-08 0.00000E+00
 -1        34-7.46388E-06-1.60803E-07 0.00000E+00
 -1        35-6.07047E-06 8.24269E-07 0.00000E+00
 -1        36-4.12883E-06 7.22449E-06 0.00000E+00
 -1        37-2.99135E-06 1.49719E-05 0.00000E+00
 -1        38-2.45799E-06 2.21285E-05 0.00000E+00
 -1        39-2.29556E-06 2.81031E-05 0.00000E+00
 -1        40-6.09494E-06 8.75299E-07 0.00000E+00
 -1        41-6.31265E-06-5.69391E-07 0.00000E+00
 -1        42-6.40753E-06-5.28590E-07 0.00000E+00
 -1        43-6.26716E-06-3.09729E-07 0.00000E+00
 -1        44-5.90735E-06-9.81440E-08 0.00000E+00
 -1        45-5.41763E-06 4.93467E-08 0.00000E+00
 -1        46-4.99453E-06-8.39205E-08 0.00000E+00
 -1        47-5.02355E-06-2.94102E-07 0.00000E+00
 -1        48-5.15088E-06 1.20920E-06 0.00000E+00
 -1        49-5.33604E-06 7.18712E-06 0.00000E+00
 -1        50-5.39390E-06 1.47757E-05 0.00000E+00
 -1        51-5.41812E-06 2.19293E-05 0.00000E+00
 -1        52-5.42940E-06 2.78969E-05 0.00000E+00
 -1        53 0.00000E+00 0.00000E+00 0.00000E+00
 -1        54-1.70679E-06-6.83426E-07 0.00000E+00
 -1        55-2.64649E-06-5.68642E-07 0.00000E+00
 -1        56-2.91762E-06-3.22525E-07 0.00000E+00
 -1        57-2.58307E-06-7.80634E-08 0.00000E+00
 -1        58-1.63504E-06 1.09028E-07 0.00000E+00
 -1        59 0.00000E+00 0.00000E+00 0.00000E+00
 -1        60-2.75875E-06-3.76627E-07 0.00000E+00
 -1        61-5.04507E-06 1.34514E-06 0.00000E+00
 -1        62-6.81013E-06 7.16226E-06 0.00000E+00
 -1        63-7.90308E-06 1.46862E-05 0.00000E+00
 -1        64-8.42656E-06 2.18406E-05 0.00000E+00
 -1        65-8.59068E-06 2.78170E-05 0.00000E+00
 -1        66-3.11654E-05-5.29396E-22 0.00000E+00
 -1        67-3.04791E-05-1.94553E-21 1.32349E-23
 -1        68-2.97900E-05-2.64698E-21 0.00000E+00
 -1        69-2.90998E-05-3.59989E-21 1.32349E-23
 -1        70-2.84097E-05-2.05141E-21 2.64698E-23
 -1        71-2.77210E-05 5.29396E-23 0.00000E+00
 -1        72-2.70358E-05-3.83812E-22 0.00000E+00
 -1        73-3.08564E-05 1.87129E-07-3.30872E-24
 -1        74-2.93437E-05 3.62878E-07-1.65436E-24
 -1        75-2.74620E-05 5.35377E-07-5.79026E-24
 -1        76-2.53755E-05 7.05985E-07 1.65436E-24
 -1        77-2.32486E-05 8.75612E-07 0.00000E+00
 -1        78-2.58712E-05-3.63959E-22 0.00000E+00
 -1        79-2.53730E-05-8.86738E-22 6.61744E-24
 -1        80-2.48736E-05-1.82641E-21 0.00000E+00
 -1        81-2.43736E-05-1.79995E-21-6.61744E-24
 -1        82-2.38739E-05-1.15805E-21-1.32349E-23
 -1        83-2.33753E-05-1.66098E-21 6.61744E-24
 -1        84-2.28792E-05-8.73503E-22 0.00000E+00
 -1        85-2.57057E-05-3.43691E-08 0.00000E+00
 -1        86-2.47204E-05-8.75504E-08 0.00000E+00
 -1        87-2.35179E-05-1.45491E-07 0.00000E+00
 -1        88-2.22115E-05-2.05144E-07 4.13590E-25
 -1        89-2.09143E-05-2.63973E-07 0.00000E+00
 -1        90-2.20248E-05 3.44107E-22-1.32349E-23
 -1        91-2.16524E-05 9.06590E-22 6.61744E-24
 -1        92-2.12790E-05 1.18452E-21 0.00000E+00
 -1        93-2.09052E-05 3.44107E-22-6.61744E-24
 -1        94-2.05315E-05-2.91168E-22 0.00000E+00
 -1        95-2.01587E-05-9.92617E-22 6.61744E-24
 -1        96-1.97877E-05-3.11020E-22 0.00000E+00
 -1        97-2.19547E-05-3.24957E-08 1.65436E-24
 -1        98-2.12947E-05-7.89742E-08 0.00000E+00
 -1        99-2.04854E-05-1.28910E-07 0.00000E+00
 -1       100-1.96016E-05-1.79898E-07 0.00000E+00
 -1       101-1.87182E-05-2.29856E-07 0.00000E+00
 -1       102-1.91435E-05 1.15805E-21 6.61744E-24
 -1       103-1.88600E-05 9.79382E-22 3.30872E-24
 -1       104-1.85757E-05 5.22778E-22-6.61744E-24
 -1       105-1.82911E-05 2.11758E-22 0.00000E+00
 -1       106-1.80066E-05 1.45584E-22 0.00000E+00
 -1       107-1.77226E-05 1.12497E-22 0.00000E+00
 -1       108-1.74401E-05 3.20946E-22 6.61744E-24
 -1       109-1.91112E-05-1.82738E-08 2.48154E-24
 -1       110-1.86359E-05-4.68796E-08 0.00000E+00
 -1       111-1.80494E-05-7.80044E-08 0.00000E+00
 -1       112-1.74044E-05-1.09805E-07 0.00000E+00
 -1       113-1.67538E-05-1.40646E-07-1.65436E-24
 -1       114-1.69499E-05-6.94832E-23 0.00000E+00
 -1       115-1.67346E-05 6.61744E-24 3.30872E-24
 -1       116-1.65187E-05 4.93000E-22 0.00000E+00
 -1       117-1.63026E-05-2.64698E-23 0.00000E+00
 -1       118-1.60866E-05 3.77194E-22 0.00000E+00
 -1       119-1.58711E-05 6.65053E-22 3.30872E-24
 -1       120-1.56565E-05 1.81980E-22-6.61744E-24
 -1       121-1.69210E-05-5.65020E-09-1.65436E-24
 -1       122-1.65508E-05-1.89015E-08 0.00000E+00
 -1       123-1.60916E-05-3.39873E-08 0.00000E+00
 -1       124-1.55841E-05-4.95122E-08-7.75482E-26
 -1       125-1.50687E-05-6.42167E-08-1.65436E-24
 -1       126-1.52894E-05 1.38966E-22 0.00000E+00
 -1       127-1.51312E-05 1.65436E-22-1.65436E-24
 -1       128-1.49727E-05-5.95570E-23 0.00000E+00
 -1       129-1.48140E-05 3.37490E-22 0.00000E+00
 -1       130-1.46554E-05 4.26825E-22-3.30872E-24
 -1       131-1.44972E-05 6.81597E-22 0.00000E+00
 -1       132-1.43398E-05 2.15067E-22 3.30872E-24
 -1       133-1.52423E-05 1.79337E-09 8.27181E-25
 -1       134-1.49288E-05-1.91549E-09 0.00000E+00
 -1       135-1.45385E-05-6.93880E-09 0.00000E+00
 -1       136-1.41054E-05-1.22340E-08 3.61892E-25
 -1       137-1.36635E-05-1.68417E-08-1.65436E-24
 -1       138-1.40817E-05 3.07711E-22 0.00000E+00
 -1       139-1.39770E-05 9.71110E-22 0.00000E+00
 -1       140-1.38721E-05 9.31405E-22 0.00000E+00
 -1       141-1.37671E-05 7.75895E-22 0.00000E+00
 -1       142-1.36622E-05 5.45939E-22 0.00000E+00
 -1       143-1.35576E-05 7.42808E-22 0.00000E+00
 -1       144-1.34536E-05 4.71493E-22 3.30872E-24
 -1       145-1.39950E-05-3.85608E-09 8.27181E-25
 -1       146-1.37015E-05-1.17263E-08 0.00000E+00
 -1       147-1.33357E-05-2.05412E-08 0.00000E+00
 -1       148-1.29295E-05-2.95028E-08 0.00000E+00
 -1       149-1.25148E-05-3.78553E-08 8.27181E-25
 -1       150-1.33048E-05-2.07622E-22 0.00000E+00
 -1       151-1.32578E-05-7.46944E-22 8.27181E-25
 -1       152-1.32107E-05-1.27965E-21 0.00000E+00
 -1       153-1.31637E-05-9.74419E-22 8.27181E-25
 -1       154-1.31167E-05-7.82513E-22 0.00000E+00
 -1       155-1.30698E-05-7.31228E-22-8.27181E-25
 -1       156-1.30228E-05-3.77194E-22 0.00000E+00
 -1       157-1.31482E-05-1.61266E-09 0.00000E+00
 -1       158-1.28377E-05-5.51697E-09 0.00000E+00
 -1       159-1.24537E-05-9.95243E-09 0.00000E+00
 -1       160-1.20306E-05-1.44350E-08-1.03398E-25
 -1       161-1.16028E-05-1.84891E-08 0.00000E+00
 -1       169-1.27927E-05 3.65957E-08 1.65436E-24
 -1       170-1.24852E-05 7.29806E-08 8.27181E-25
 -1       171-1.20802E-05 1.09356E-07 8.27181E-25
 -1       172-1.16056E-05 1.45890E-07-6.20385E-25
 -1       173-1.10890E-05 1.82814E-07-8.27181E-25
 -1       215-2.10581E-05 3.29849E-07 0.00000E+00
 -1       216-2.08692E-05-6.98711E-08 0.00000E+00
 -1       217-2.06794E-05-2.33206E-07 0.00000E+00
 -1       218-2.04894E-05-2.40445E-07 0.00000E+00
 -1       219-2.02995E-05-1.72056E-07-6.61744E-24
 -1       220-2.01100E-05-1.08626E-07 1.65436E-24
 -1       221-1.99218E-05-1.30645E-07-1.65436E-24
 -1       222-1.97674E-05 1.08461E-06 3.30872E-24
 -1       223-1.82361E-05 1.12145E-06 0.00000E+00
 -1       224-1.67017E-05 1.15711E-06 0.00000E+00
 -1       225-1.52163E-05 1.19207E-06 0.00000E+00
 -1       226-1.38320E-05 1.22657E-06 0.00000E+00
 -1       227-1.95153E-05-5.88877E-07 6.61744E-24
 -1       228-1.92862E-05-6.67920E-07 0.00000E+00
 -1       229-1.90555E-05-6.09727E-07-6.61744E-24
 -1       230-1.88240E-05-4.71810E-07-3.30872E-24
 -1       231-1.85926E-05-3.11787E-07 6.61744E-24
 -1       232-1.83617E-05-1.87312E-07-3.30872E-24
 -1       233-1.81324E-05-1.55951E-07 1.65436E-24
 -1       234-1.86447E-05-3.33734E-07 0.00000E+00
 -1       235-1.73789E-05-3.55385E-07 0.00000E+00
 -1       236-1.60271E-05-3.78262E-07-1.03398E-25
 -1       237-1.46780E-05-4.01539E-07 0.00000E+00
 -1       238-1.34197E-05-4.24523E-07 0.00000E+00
 -1       239-1.76942E-05-4.54976E-07 6.61744E-24
 -1       240-1.74738E-05-4.93811E-07 0.00000E+00
 -1       241-1.72520E-05-4.32839E-07-6.61744E-24
 -1       242-1.70295E-05-3.15922E-07 3.30872E-24
 -1       243-1.68071E-05-1.86993E-07 6.61744E-24
 -1       244-1.65853E-05-9.00112E-08 1.65436E-24
 -1       245-1.63649E-05-6.88647E-08-6.61744E-24
 -1       246-1.70321E-05-2.96318E-07 0.00000E+00
 -1       247-1.59915E-05-3.24202E-07 0.00000E+00
 -1       248-1.48658E-05-3.53424E-07 0.00000E+00
 -1       249-1.37352E-05-3.83014E-07 0.00000E+00
 -1       250-1.26798E-05-4.12121E-07 0.00000E+00
 -1       251-1.59586E-05-3.04161E-07 0.00000E+00
 -1       252-1.57625E-05-3.29506E-07-3.30872E-24
 -1       253-1.55653E-05-2.76592E-07 6.61744E-24
 -1       254-1.53677E-05-1.80742E-07-3.30872E-24
 -1       255-1.51700E-05-7.73419E-08-3.30872E-24
 -1       256-1.49729E-05-1.79002E-09 1.65436E-24
 -1       257-1.47770E-05 1.05703E-08 0.00000E+00
 -1       258-1.54340E-05-1.78581E-07 0.00000E+00
 -1       259-1.45750E-05-1.95698E-07 0.00000E+00
 -1       260-1.36392E-05-2.14001E-07 0.00000E+00
 -1       261-1.26942E-05-2.32594E-07 0.00000E+00
 -1       262-1.18076E-05-2.50679E-07 3.30872E-24
 -1       263-1.44216E-05-1.86129E-07 0.00000E+00
 -1       264-1.42537E-05-2.04649E-07 0.00000E+00
 -1       265-1.40849E-05-1.59205E-07-6.61744E-24
 -1       266-1.39157E-05-7.96644E-08 0.00000E+00
 -1       267-1.37466E-05 4.05248E-09-3.30872E-24
 -1       268-1.35779E-05 6.20176E-08 0.00000E+00
 -1       269-1.34102E-05 6.43536E-08-1.65436E-24
 -1       270-1.39829E-05-7.65844E-08 0.00000E+00
 -1       271-1.32549E-05-8.25498E-08 0.00000E+00
 -1       272-1.24582E-05-8.94932E-08 1.03398E-25
 -1       273-1.16504E-05-9.66423E-08-8.27181E-25
 -1       274-1.08889E-05-1.03289E-07 0.00000E+00
 -1       275-1.31084E-05-1.18774E-07 6.61744E-24
 -1       276-1.29675E-05-1.39770E-07 0.00000E+00
 -1       277-1.28259E-05-1.06457E-07 0.00000E+00
 -1       278-1.26840E-05-4.50642E-08 1.65436E-24
 -1       279-1.25421E-05 1.81365E-08 3.30872E-24
 -1       280-1.24006E-05 5.68673E-08 8.27181E-25
 -1       281-1.22600E-05 4.48957E-08 3.30872E-24
 -1       282-1.27158E-05-1.34927E-08 0.00000E+00
 -1       283-1.20737E-05-1.22760E-08 4.13590E-25
 -1       284-1.13695E-05-1.18420E-08-3.10193E-25
 -1       285-1.06533E-05-1.15262E-08 0.00000E+00
 -1       286-9.97524E-06-1.07004E-08 0.00000E+00
 -1       287-1.20101E-05-1.33298E-07 0.00000E+00
 -1       288-1.18948E-05-1.45979E-07 1.65436E-24
 -1       289-1.17789E-05-1.06261E-07 3.30872E-24
 -1       290-1.16628E-05-3.98268E-08 0.00000E+00
 -1       291-1.15467E-05 2.75978E-08-3.30872E-24
 -1       292-1.14310E-05 7.02860E-08 8.27181E-25
 -1       293-1.13161E-05 6.25531E-08-8.27181E-25
 -1       294-1.16242E-05-4.79099E-08 0.00000E+00
 -1       295-1.10219E-05-5.54839E-08 0.00000E+00
 -1       296-1.03621E-05-6.37301E-08 0.00000E+00
 -1       297-9.69184E-06-7.19912E-08 0.00000E+00
 -1       298-9.05828E-06-7.96117E-08-1.65436E-24
 -1       299-1.11255E-05-4.24624E-08 0.00000E+00
 -1       300-1.10450E-05 2.58256E-08-3.30872E-24
 -1       301-1.09640E-05 1.47214E-07 0.00000E+00
 -1       302-1.08827E-05 2.83697E-07-8.27181E-25
 -1       303-1.08015E-05 3.97214E-07-3.30872E-24
 -1       304-1.07202E-05 4.49742E-07-1.03398E-24
 -1       305-1.06391E-05 4.03338E-07-8.27181E-25
 -1       306-1.06748E-05-4.21561E-08 0.00000E+00
 -1       307-1.00350E-05-6.66097E-08 0.00000E+00
 -1       308-9.33895E-06-9.16739E-08 0.00000E+00
 -1       309-8.64186E-06-1.16610E-07 0.00000E+00
 -1       310-7.99881E-06-1.40636E-07 0.00000E+00
 -1       318-9.76834E-06 3.19773E-07 0.00000E+00
 -1       319-8.89479E-06 4.19442E-07 1.65436E-24
 -1       320-8.01260E-06 5.19510E-07 0.00000E+00
 -1       321-7.19763E-06 6.20018E-07 0.00000E+00
 -1       322-6.52566E-06 7.21133E-07-6.61744E-24
 -1       364-1.25683E-05 6.97651E-07 0.00000E+00
 -1       365-1.25359E-05 3.52426E-07 0.00000E+00
 -1       366-1.25030E-05 1.66684E-07 0.00000E+00
 -1       367-1.24699E-05 8.11551E-08 0.00000E+00
 -1       368-1.24368E-05 3.64371E-08 0.00000E+00
 -1       369-1.24038E-05-2.69439E-08 0.00000E+00
 -1       370-1.23710E-05-1.68378E-07 0.00000E+00
 -1       371-1.15077E-05 1.19895E-06 0.00000E+00
 -1       372-1.03763E-05 1.13533E-06 0.00000E+00
 -1       373-9.23703E-06 1.07093E-06-8.27181E-25
 -1       374-8.12223E-06 1.00609E-06 4.13590E-25
 -1       375-7.06434E-06 9.41010E-07-1.65436E-24
 -1       376-1.22714E-05-7.03901E-07 0.00000E+00
 -1       377-1.22013E-05-7.73643E-07 0.00000E+00
 -1       378-1.21305E-05-7.11123E-07 0.00000E+00
 -1       379-1.20594E-05-5.74154E-07 0.00000E+00
 -1       380-1.19883E-05-4.20663E-07 1.65436E-24
 -1       381-1.19174E-05-3.08606E-07-8.27181E-25
 -1       382-1.18470E-05-2.95842E-07 1.65436E-24
 -1       383-1.13909E-05-4.64711E-07 0.00000E+00
 -1       384-1.03333E-05-4.85205E-07 8.27181E-25
 -1       385-9.23101E-06-5.06137E-07-2.06795E-25
 -1       386-8.14980E-06-5.27253E-07 0.00000E+00
 -1       387-7.15555E-06-5.48371E-07 0.00000E+00
 -1       388-1.16894E-05-6.19334E-07 6.61744E-24
 -1       389-1.15978E-05-6.44784E-07 0.00000E+00
 -1       390-1.15054E-05-5.62833E-07 0.00000E+00
 -1       391-1.14127E-05-4.22734E-07 0.00000E+00
 -1       392-1.13199E-05-2.73826E-07 3.30872E-24
 -1       393-1.12274E-05-1.65470E-07-8.78879E-25
 -1       394-1.11355E-05-1.46941E-07 0.00000E+00
 -1       395-1.09518E-05-4.51677E-07 0.00000E+00
 -1       396-1.00089E-05-4.66669E-07 0.00000E+00
 -1       397-9.01579E-06-4.82184E-07 0.00000E+00
 -1       398-8.03991E-06-4.97882E-07 0.00000E+00
 -1       399-7.14853E-06-5.13493E-07 0.00000E+00
 -1       400-1.09463E-05-4.16296E-07 0.00000E+00
 -1       401-1.08442E-05-4.33331E-07 0.00000E+00
 -1       402-1.07415E-05-3.58748E-07 0.00000E+00
 -1       403-1.06384E-05-2.35281E-07 1.65436E-24
 -1       404-1.05353E-05-1.05745E-07-1.65436E-24
 -1       405-1.04325E-05-1.29587E-08-8.27181E-25
 -1       406-1.03302E-05 3.25377E-10-1.03398E-24
 -1       407-1.03186E-05-2.71348E-07 0.00000E+00
 -1       408-9.48255E-06-2.78739E-07 0.00000E+00
 -1       409-8.59805E-06-2.86686E-07 0.00000E+00
 -1       410-7.72657E-06-2.94792E-07 0.00000E+00
 -1       411-6.92955E-06-3.02721E-07 0.00000E+00
 -1       412-1.01268E-05-2.39137E-07 0.00000E+00
 -1       413-1.00210E-05-2.54730E-07 0.00000E+00
 -1       414-9.91449E-06-1.90996E-07 0.00000E+00
 -1       415-9.80774E-06-8.57912E-08 0.00000E+00
 -1       416-9.70098E-06 2.29622E-08-3.30872E-24
 -1       417-9.59445E-06 9.73340E-08 4.13590E-25
 -1       418-9.48848E-06 9.94602E-08-2.27475E-24
 -1       419-9.58168E-06-1.03935E-07-8.27181E-25
 -1       420-8.83129E-06-1.02596E-07 0.00000E+00
 -1       421-8.03341E-06-1.01795E-07-4.13590E-25
 -1       422-7.24342E-06-1.01124E-07 0.00000E+00
 -1       423-6.51666E-06-1.00216E-07 0.00000E+00
 -1       424-9.27719E-06-1.41406E-07-3.30872E-24
 -1       425-9.16736E-06-1.75138E-07 0.00000E+00
 -1       426-9.05692E-06-1.40411E-07 3.30872E-24
 -1       427-8.94623E-06-6.99219E-08 1.65436E-24
 -1       428-8.83553E-06 3.57420E-09 3.30872E-24
 -1       429-8.72508E-06 4.73157E-08 0.00000E+00
 -1       430-8.61521E-06 2.85970E-08 8.27181E-25
 -1       431-8.80104E-06 3.90598E-09 8.27181E-25
 -1       432-8.12327E-06 1.31919E-08 4.13590E-25
 -1       433-7.39828E-06 2.19607E-08 4.13590E-25
 -1       434-6.67392E-06 3.05974E-08 0.00000E+00
 -1       435-5.99807E-06 3.94426E-08 0.00000E+00
 -1       436-8.38011E-06-2.19349E-07 0.00000E+00
 -1       437-8.24942E-06-2.63095E-07 3.30872E-24
 -1       438-8.11791E-06-2.42771E-07 6.61744E-24
 -1       439-7.98606E-06-1.86391E-07-1.65436E-24
 -1       440-7.85419E-06-1.22018E-07 0.00000E+00
 -1       441-7.72263E-06-7.77293E-08 8.27181E-25
 -1       442-7.59180E-06-8.15601E-08-1.65436E-24
 -1       443-8.01270E-06-8.17342E-08-8.27181E-25
 -1       444-7.43613E-06-8.16684E-08 0.00000E+00
 -1       445-6.81159E-06-8.22613E-08 0.00000E+00
 -1       446-6.17356E-06-8.31010E-08 0.00000E+00
 -1       447-5.55657E-06-8.38551E-08 0.00000E+00
 -1       448-7.29503E-06-2.29399E-07 0.00000E+00
 -1       449-7.12139E-06-1.90389E-07 0.00000E+00
 -1       450-6.94650E-06-6.95670E-08 0.00000E+00
 -1       451-6.77101E-06 1.06311E-07 3.30872E-24
 -1       452-6.59537E-06 3.10428E-07 0.00000E+00
 -1       453-6.41979E-06 5.15919E-07 0.00000E+00
 -1       454-6.24450E-06 6.95957E-07 3.30872E-24
 -1       455-7.07353E-06-1.78990E-07 2.06795E-25
 -1       456-6.63796E-06-2.01002E-07 0.00000E+00
 -1       457-6.18596E-06-2.24002E-07 1.03398E-25
 -1       458-5.74683E-06-2.47446E-07 0.00000E+00
 -1       459-5.34983E-06-2.70942E-07 0.00000E+00
 -1       460-5.83124E-06 1.13834E-06 1.32349E-23
 -1       461-5.58777E-06 1.68651E-06 0.00000E+00
 -1       462-5.34329E-06 2.42247E-06 0.00000E+00
 -1       463-5.09844E-06 3.29789E-06 6.61744E-24
 -1       464-4.85367E-06 4.26431E-06-6.61744E-24
 -1       465-4.60951E-06 5.27314E-06 0.00000E+00
 -1       466-4.36664E-06 6.27581E-06 0.00000E+00
 -1       467-5.88708E-06 8.93146E-07 3.30872E-24
 -1       468-5.66993E-06 9.58405E-07 0.00000E+00
 -1       469-5.45323E-06 1.02263E-06 0.00000E+00
 -1       470-5.27160E-06 1.08610E-06 0.00000E+00
 -1       471-5.15961E-06 1.14881E-06 0.00000E+00
 -1       472-3.98638E-06 8.08224E-06 0.00000E+00
 -1       473-3.84328E-06 9.02047E-06-3.30872E-24
 -1       474-3.70006E-06 1.00152E-05 0.00000E+00
 -1       475-3.55686E-06 1.10418E-05-1.65436E-24
 -1       476-3.41379E-06 1.20755E-05 0.00000E+00
 -1       477-3.27116E-06 1.30914E-05-1.65436E-24
 -1       478-3.12945E-06 1.40649E-05 1.65436E-24
 -1       479-4.50065E-06 7.22457E-06-1.65436E-24
 -1       480-4.72489E-06 7.21890E-06 0.00000E+00
 -1       481-4.86040E-06 7.21175E-06 0.00000E+00
 -1       482-4.96741E-06 7.20383E-06 0.00000E+00
 -1       483-5.10617E-06 7.19561E-06 0.00000E+00
 -1       484-2.92448E-06 1.58308E-05 0.00000E+00
 -1       485-2.85728E-06 1.67324E-05 0.00000E+00
 -1       486-2.79003E-06 1.76607E-05 1.65436E-24
 -1       487-2.72278E-06 1.85993E-05 0.00000E+00
 -1       488-2.65561E-06 1.95318E-05 8.27181E-25
 -1       489-2.58869E-06 2.04417E-05 8.27181E-25
 -1       490-2.52229E-06 2.13126E-05 4.13590E-25
 -1       491-3.50720E-06 1.49432E-05 0.00000E+00
 -1       492-3.91761E-06 1.49106E-05 0.00000E+00
 -1       493-4.26656E-06 1.48770E-05-1.65436E-24
 -1       494-4.59905E-06 1.48430E-05-5.16988E-26
 -1       495-4.96007E-06 1.48090E-05 0.00000E+00
 -1       496-2.43749E-06 2.28866E-05 0.00000E+00
 -1       497-2.41689E-06 2.36574E-05 0.00000E+00
 -1       498-2.39627E-06 2.44330E-05-8.27181E-25
 -1       499-2.37565E-06 2.52054E-05-1.03398E-25
 -1       500-2.35508E-06 2.59666E-05 2.06795E-25
 -1       501-2.33465E-06 2.67086E-05 0.00000E+00
 -1       502-2.31452E-06 2.74233E-05 0.00000E+00
 -1       503-3.02129E-06 2.20974E-05 0.00000E+00
 -1       504-3.52016E-06 2.20641E-05 0.00000E+00
 -1       505-3.98166E-06 2.20302E-05 0.00000E+00
 -1       506-4.43345E-06 2.19962E-05 4.13590E-25
 -1       507-4.90319E-06 2.19623E-05-5.16988E-25
 -1       508-2.85350E-06 2.80698E-05 0.00000E+00
 -1       509-3.38089E-06 2.80352E-05 0.00000E+00
 -1       510-3.88983E-06 2.80004E-05 0.00000E+00
 -1       511-4.39267E-06 2.79656E-05 0.00000E+00
 -1       512-4.90180E-06 2.79309E-05 0.00000E+00
 -1       513-6.12508E-06 3.93272E-07 0.00000E+00
 -1       514-6.15285E-06 9.25886E-08 0.00000E+00
 -1       515-6.17997E-06-7.32946E-08 0.00000E+00
 -1       516-6.20675E-06-1.52582E-07 2.06795E-25
 -1       517-6.23340E-06-1.93588E-07-8.27181E-25
 -1       518-6.25997E-06-2.44697E-07 0.00000E+00
 -1       519-6.28645E-06-3.54229E-07 0.00000E+00
 -1       520-5.07046E-06 7.33128E-07 0.00000E+00
 -1       521-3.98571E-06 5.87973E-07-1.65436E-24
 -1       522-2.88821E-06 4.41981E-07 0.00000E+00
 -1       523-1.82619E-06 2.95442E-07 8.27181E-25
 -1       524-8.47809E-07 1.48450E-07 3.30872E-24
 -1       525-6.32505E-06-7.71976E-07 0.00000E+00
 -1       526-6.33708E-06-8.24174E-07 0.00000E+00
 -1       527-6.34900E-06-7.70609E-07 0.00000E+00
 -1       528-6.36085E-06-6.57331E-07 1.03398E-25
 -1       529-6.37267E-06-5.30479E-07 0.00000E+00
 -1       530-6.38445E-06-4.36217E-07 0.00000E+00
 -1       531-6.39615E-06-4.20633E-07 0.00000E+00
 -1       532-5.54547E-06-5.86893E-07 1.65436E-24
 -1       533-4.70255E-06-6.04453E-07-4.13590E-25
 -1       534-3.84023E-06-6.22192E-07 0.00000E+00
 -1       535-3.01565E-06-6.40466E-07 0.00000E+00
 -1       536-2.28594E-06-6.59823E-07-8.27181E-25
 -1       537-6.39107E-06-6.61141E-07 0.00000E+00
 -1       538-6.37365E-06-6.68404E-07 0.00000E+00
 -1       539-6.35597E-06-5.89425E-07 0.00000E+00
 -1       540-6.33817E-06-4.64452E-07 4.13590E-25
 -1       541-6.32033E-06-3.33803E-07 4.13590E-25
 -1       542-6.30250E-06-2.37811E-07 0.00000E+00
 -1       543-6.28472E-06-2.16737E-07 0.00000E+00
 -1       544-5.78476E-06-5.34411E-07 1.65436E-24
 -1       545-5.09457E-06-5.40398E-07 0.00000E+00
 -1       546-4.38602E-06-5.46507E-07 0.00000E+00
 -1       547-3.70886E-06-5.52881E-07 0.00000E+00
 -1       548-3.11285E-06-5.59764E-07 0.00000E+00
 -1       549-6.22364E-06-4.19127E-07 0.00000E+00
 -1       550-6.17871E-06-4.16944E-07 0.00000E+00
 -1       551-6.13341E-06-3.38893E-07 0.00000E+00
 -1       552-6.08794E-06-2.21759E-07-8.27181E-25
 -1       553-6.04245E-06-1.02393E-07 1.03398E-24
 -1       554-5.99702E-06-1.76471E-08-4.13590E-25
 -1       555-5.95180E-06-4.31373E-09-8.27181E-25
 -1       556-5.71304E-06-3.11180E-07 0.00000E+00
 -1       557-5.09765E-06-3.13328E-07 0.00000E+00
 -1       558-4.46544E-06-3.15653E-07 0.00000E+00
 -1       559-3.86150E-06-3.18033E-07 0.00000E+00
 -1       560-3.33091E-06-3.20374E-07 0.00000E+00
 -1       561-5.84755E-06-1.97702E-07 0.00000E+00
 -1       562-5.78626E-06-1.92746E-07 1.65436E-24
 -1       563-5.72459E-06-1.18048E-07 0.00000E+00
 -1       564-5.66275E-06-9.38641E-09 0.00000E+00
 -1       565-5.60090E-06 9.73940E-08-1.24077E-24
 -1       566-5.53919E-06 1.66453E-07 4.13590E-25
 -1       567-5.47779E-06 1.62017E-07-8.27181E-25
 -1       568-5.36629E-06-9.44189E-08 0.00000E+00
 -1       569-4.75968E-06-9.17635E-08-5.16988E-26
 -1       570-4.13249E-06-8.93038E-08 1.65436E-24
 -1       571-3.53040E-06-8.66841E-08 0.00000E+00
 -1       572-2.99908E-06-8.35019E-08-3.30872E-24
 -1       573-5.36533E-06-6.63809E-08 0.00000E+00
 -1       574-5.31214E-06-8.24258E-08 0.00000E+00
 -1       575-5.25873E-06-3.38703E-08 0.00000E+00
 -1       576-5.20524E-06 4.32238E-08 0.00000E+00
 -1       577-5.15178E-06 1.12738E-07-5.16988E-26
 -1       578-5.09853E-06 1.38563E-07-4.13590E-25
 -1       579-5.04570E-06 8.46618E-08 0.00000E+00
 -1       580-4.82139E-06 5.88436E-08 8.27181E-25
 -1       581-4.14169E-06 6.73329E-08 3.87741E-25
 -1       582-3.43051E-06 7.57244E-08 1.65436E-24
 -1       583-2.74068E-06 8.45683E-08 0.00000E+00
 -1       584-2.12499E-06 9.45595E-08 0.00000E+00
 -1       585-4.99706E-06-2.98950E-07 0.00000E+00
 -1       586-5.00042E-06-4.07940E-07 0.00000E+00
 -1       587-5.00399E-06-4.36323E-07 0.00000E+00
 -1       588-5.00768E-06-4.10497E-07 0.00000E+00
 -1       589-5.01141E-06-3.56922E-07-2.58494E-26
 -1       590-5.01523E-06-3.02105E-07-4.13590E-25
 -1       591-5.01916E-06-2.72524E-07 0.00000E+00
 -1       592-4.24902E-06-6.89406E-08 0.00000E+00
 -1       593-3.37848E-06-5.41111E-08 0.00000E+00
 -1       594-2.45006E-06-3.94287E-08 0.00000E+00
 -1       595-1.53214E-06-2.50705E-08 0.00000E+00
 -1       596-6.93137E-07-1.13263E-08 0.00000E+00
 -1       597-5.03970E-06-3.26907E-07 0.00000E+00
 -1       598-5.05593E-06-2.60486E-07 0.00000E+00
 -1       599-5.07218E-06-1.12352E-07 0.00000E+00
 -1       600-5.08842E-06 9.91220E-08 0.00000E+00
 -1       601-5.10462E-06 3.55503E-07 0.00000E+00
 -1       602-5.12066E-06 6.38277E-07 0.00000E+00
 -1       603-5.13638E-06 9.28943E-07-1.03398E-25
 -1       604-4.67088E-06-3.04718E-07 0.00000E+00
 -1       605-4.25983E-06-3.15429E-07-4.13590E-25
 -1       606-3.82648E-06-3.26504E-07 0.00000E+00
 -1       607-3.40754E-06-3.38722E-07-4.13590E-25
 -1       608-3.03967E-06-3.53249E-07 0.00000E+00
 -1       609-5.17226E-06 1.66334E-06 0.00000E+00
 -1       610-5.19522E-06 2.28153E-06 0.00000E+00
 -1       611-5.21863E-06 3.02458E-06 0.00000E+00
 -1       612-5.24227E-06 3.85180E-06 0.00000E+00
 -1       613-5.26597E-06 4.72242E-06-8.27181E-25
 -1       614-5.28964E-06 5.59558E-06 0.00000E+00
 -1       615-5.31315E-06 6.43046E-06 0.00000E+00
 -1       616-5.14651E-06 1.23421E-06-4.13590E-25
 -1       617-5.08545E-06 1.25962E-06 1.03398E-25
 -1       618-5.00600E-06 1.28481E-06 0.00000E+00
 -1       619-4.94702E-06 1.30902E-06 0.00000E+00
 -1       620-4.94740E-06 1.33112E-06 5.16988E-25
 -1       621-5.34323E-06 7.95088E-06 0.00000E+00
 -1       622-5.35035E-06 8.84047E-06 0.00000E+00
 -1       623-5.35750E-06 9.82014E-06 0.00000E+00
 -1       624-5.36468E-06 1.08529E-05 0.00000E+00
 -1       625-5.37188E-06 1.19018E-05 0.00000E+00
 -1       626-5.37911E-06 1.29297E-05 0.00000E+00
 -1       627-5.38637E-06 1.38997E-05 0.00000E+00
 -1       628-5.61506E-06 7.18449E-06-1.65436E-24
 -1       629-5.81425E-06 7.18211E-06 4.13590E-25
 -1       630-5.98316E-06 7.17959E-06-2.06795E-25
 -1       631-6.17208E-06 7.17644E-06-4.13590E-25
 -1       632-6.43135E-06 7.17193E-06-8.27181E-25
 -1       633-5.39734E-06 1.55875E-05 0.00000E+00
 -1       634-5.40033E-06 1.64718E-05 0.00000E+00
 -1       635-5.40322E-06 1.74046E-05 0.00000E+00
 -1       636-5.40608E-06 1.83611E-05 0.00000E+00
 -1       637-5.40893E-06 1.93166E-05 0.00000E+00
 -1       638-5.41181E-06 2.02461E-05 0.00000E+00
 -1       639-5.41476E-06 2.11251E-05 0.00000E+00
 -1       640-5.84136E-06 1.47617E-05 0.00000E+00
 -1       641-6.22102E-06 1.47476E-05 0.00000E+00
 -1       642-6.57467E-06 1.47335E-05 7.23783E-25
 -1       643-6.94475E-06 1.47191E-05 0.00000E+00
 -1       644-7.37372E-06 1.47039E-05 0.00000E+00
 -1       645-5.41994E-06 2.26598E-05 0.00000E+00
 -1       646-5.42127E-06 2.34204E-05 0.00000E+00
 -1       647-5.42248E-06 2.41985E-05 5.16988E-26
 -1       648-5.42364E-06 2.49810E-05 0.00000E+00
 -1       649-5.42480E-06 2.57551E-05 0.00000E+00
 -1       650-5.42603E-06 2.65077E-05 0.00000E+00
 -1       651-5.42739E-06 2.72258E-05 0.00000E+00
 -1       652-5.93828E-06 2.19149E-05 0.00000E+00
 -1       653-6.41561E-06 2.19004E-05-4.13590E-25
 -1       654-6.87643E-06 2.18859E-05 1.03398E-25
 -1       655-7.34747E-06 2.18712E-05 0.00000E+00
 -1       656-7.85546E-06 2.18563E-05-8.27181E-25
 -1       657-5.95975E-06 2.78835E-05 0.00000E+00
 -1       658-6.47299E-06 2.78702E-05-2.06795E-25
 -1       659-6.98083E-06 2.78570E-05 0.00000E+00
 -1       660-7.49518E-06 2.78437E-05 0.00000E+00
 -1       661-8.02792E-06 2.78304E-05-2.06795E-25
 -1       662-2.12863E-07-3.47029E-07-3.30872E-24
 -1       663-4.27156E-07-5.50192E-07 3.30872E-24
 -1       664-6.41771E-07-6.43197E-07-3.30872E-24
 -1       665-8.56469E-07-6.61066E-07 0.00000E+00
 -1       666-1.07104E-06-6.38919E-07 0.00000E+00
 -1       667-1.28509E-06-6.11947E-07 3.30872E-24
 -1       668-1.49805E-06-6.15306E-07 0.00000E+00
 -1       669-1.82500E-06-7.86785E-07-3.30872E-24
 -1       670-1.94325E-06-8.07148E-07-8.27181E-25
 -1       671-2.06148E-06-7.68701E-07 0.00000E+00
 -1       672-2.17966E-06-6.96412E-07-1.65436E-24
 -1       673-2.29772E-06-6.15306E-07 0.00000E+00
 -1       674-2.41540E-06-5.50421E-07-4.96308E-24
 -1       675-2.53236E-06-5.26753E-07 6.61744E-24
 -1       676-2.68178E-06-6.24559E-07 4.13590E-25
 -1       677-2.71626E-06-6.13066E-07-3.10193E-25
 -1       678-2.75051E-06-5.55079E-07 6.20385E-25
 -1       679-2.78462E-06-4.72161E-07 0.00000E+00
 -1       680-2.81863E-06-3.85912E-07 0.00000E+00
 -1       681-2.85242E-06-3.17942E-07 0.00000E+00
 -1       682-2.88580E-06-2.89822E-07-1.65436E-24
 -1       683-2.87801E-06-3.61737E-07 0.00000E+00
 -1       684-2.83667E-06-3.41082E-07 0.00000E+00
 -1       685-2.79487E-06-2.80165E-07 0.00000E+00
 -1       686-2.75282E-06-1.99171E-07-8.27181E-25
 -1       687-2.71068E-06-1.18317E-07 0.00000E+00
 -1       688-2.66843E-06-5.78229E-08 3.10193E-25
 -1       689-2.62602E-06-3.78709E-08-1.44757E-24
 -1       690-2.46779E-06-1.13042E-07 0.00000E+00
 -1       691-2.34971E-06-8.88239E-08 1.65436E-24
 -1       692-2.23091E-06-2.63124E-08-3.30872E-24
 -1       693-2.11174E-06 5.30130E-08 1.65436E-24
 -1       694-1.99247E-06 1.27636E-07 0.00000E+00
 -1       695-1.87317E-06 1.76050E-07 0.00000E+00
 -1       696-1.75394E-06 1.76788E-07 0.00000E+00
 -1       697-1.43251E-06 5.89347E-08 6.61744E-24
 -1       698-1.22586E-06 7.11975E-08-3.30872E-24
 -1       699-1.01821E-06 1.20231E-07 0.00000E+00
 -1       700-8.10260E-07 1.79820E-07 3.30872E-24
 -1       701-6.02600E-07 2.23713E-07-3.30872E-24
 -1       702-3.96262E-07 2.25683E-07 0.00000E+00
 -1       703-1.92729E-07 1.59554E-07 0.00000E+00
 -1       704-3.30764E-07-2.10632E-07 3.30872E-24
 -1       705-6.74778E-07-3.42599E-07 0.00000E+00
 -1       706-1.02221E-06-4.11397E-07-1.32349E-23
 -1       707-1.37124E-06-4.33236E-07 0.00000E+00
 -1       708-1.72059E-06-4.24380E-07 6.61744E-24
 -1       709-2.06948E-06-4.01157E-07 0.00000E+00
 -1       710-2.41698E-06-3.79881E-07 0.00000E+00
 -1       711-3.04239E-06-3.69546E-07-6.61744E-24
 -1       712-3.32912E-06-2.83117E-07-3.30872E-24
 -1       713-3.61662E-06-1.26820E-07 0.00000E+00
 -1       714-3.90441E-06 8.91927E-08 0.00000E+00
 -1       715-4.19212E-06 3.54713E-07 6.61744E-24
 -1       716-4.47918E-06 6.59433E-07 3.30872E-24
 -1       717-4.76485E-06 9.93040E-07 0.00000E+00
 -1       718-5.26373E-06 1.83276E-06 0.00000E+00
 -1       719-5.48505E-06 2.43931E-06 3.30872E-24
 -1       720-5.70706E-06 3.14024E-06-6.61744E-24
 -1       721-5.92935E-06 3.90992E-06 0.00000E+00
 -1       722-6.15159E-06 4.72269E-06 0.00000E+00
 -1       723-6.37333E-06 5.55277E-06-3.30872E-24
 -1       724-6.59393E-06 6.37439E-06-6.61744E-24
 -1       725-6.94660E-06 7.97079E-06 0.00000E+00
 -1       726-7.08384E-06 8.86535E-06 0.00000E+00
 -1       727-7.22129E-06 9.82231E-06 0.00000E+00
 -1       728-7.35880E-06 1.08172E-05 0.00000E+00
 -1       729-7.49623E-06 1.18255E-05 0.00000E+00
 -1       730-7.63330E-06 1.28227E-05-1.65436E-24
 -1       731-7.76962E-06 1.37842E-05-3.30872E-24
 -1       732-7.96923E-06 1.55439E-05-1.65436E-24
 -1       733-8.03511E-06 1.64443E-05 0.00000E+00
 -1       734-8.10092E-06 1.73715E-05-1.65436E-24
 -1       735-8.16668E-06 1.83093E-05 0.00000E+00
 -1       736-8.23235E-06 1.92413E-05 0.00000E+00
 -1       737-8.29783E-06 2.01512E-05 1.65436E-24
 -1       738-8.36290E-06 2.10229E-05 3.30872E-24
 -1       739-8.44780E-06 2.26000E-05-8.27181E-25
 -1       740-8.46847E-06 2.33714E-05 0.00000E+00
 -1       741-8.48901E-06 2.41469E-05-8.27181E-25
 -1       742-8.50946E-06 2.49190E-05 4.13590E-25
 -1       743-8.52987E-06 2.56797E-05 0.00000E+00
 -1       744-8.55024E-06 2.64214E-05 1.65436E-24
 -1       745-8.57055E-06 2.71363E-05-1.65436E-24
 -3
    1PSTEP                         2           1           1          
  100CL  101 1.000000000         641                     0    1           1
 -4  STRESS      6    1
 -5  SXX         1    4    1    1
 -5  SYY         1    4    2    2
 -5  SZZ         1    4    3    3
 -5  SXY         1    4    1    2
 -5  SYZ         1    4    2    3
 -5  SZX         1    4    3    1
 -1         1 9.01988E+05 3.37680E+05-7.64852E+02 4.29014E+05-1.74623E-10-2.80374E-09
 -1         2 1.03873E+06 4.10973E+04-5.47422E+02 1.96425E+05 1.94026E-11-1.57646E-11
 -1         3 7.60903E+05 2.35684E+04-4.85567E+02 1.29891E+05 3.39545E-11-4.51564E-10
 -1         4 5.74244E+05 2.28026E+04-3.70524E+02 9.18380E+04 6.30583E-11 1.18166E-09
 -1         5 4.37905E+05 2.41875E+04-2.90525E+02 7.05516E+04 3.63798E-11 1.22172E-09
 -1         6 3.28641E+05 2.31284E+04-2.33447E+02 5.91041E+04-7.27596E-12-1.28466E-11
 -1         7 2.30351E+05 1.19670E+04-2.12669E+02 5.52382E+04-4.60811E-11 1.37311E-09
 -1         8 1.32793E+05 7.42333E+03-1.90674E+02 5.97299E+04-1.18841E-10 1.13232E-09
 -1         9 6.52758E+04 5.37478E+04-2.67286E+02 7.23444E+04 5.45697E-12 9.99876E-10
 -1        14 1.70092E+05 2.10225E+05-1.30111E+03 5.16912E+05-6.79089E-11 1.07858E-09
 -1        15 2.59515E+05-1.85481E+04-1.62040E+03 4.42798E+05 3.63798E-11-8.65853E-10
 -1        16 2.80060E+05-1.43078E+04-1.15981E+03 3.34429E+05-5.27507E-11-9.85445E-10
 -1        17 2.61120E+05 2.10415E+03-8.54737E+02 2.60472E+05 8.18545E-11 8.09267E-10
 -1        18 2.29744E+05 1.53565E+04-6.44214E+02 2.13093E+05-9.73159E-11-8.00112E-10
 -1        19 1.96000E+05 2.20429E+04-4.94674E+02 1.83030E+05-3.54703E-10-5.32896E-10
 -1        20 1.61452E+05 9.92462E+03-4.31685E+02 1.70575E+05-7.36691E-11-4.09026E-10
 -1        21 1.22051E+05-2.82555E+03-4.55177E+02 1.99773E+05-2.17369E-10-5.01288E-12
 -1        22 7.58872E+04 1.32245E+05-2.80182E+02 2.46516E+05 1.25086E-09-3.32538E-10
 -1        27 2.50016E+04-2.03150E+04-5.31456E+02 2.49770E+05-1.17628E-10 3.09453E-10
 -1        28 6.27125E+04-1.90912E+04-5.79913E+02 3.53866E+05 2.69210E-10-6.94470E-10
 -1        29 1.00116E+05-1.49906E+04-5.88459E+02 3.31969E+05-1.79170E-10-3.19289E-10
 -1        30 1.21725E+05-7.45128E+02-5.05710E+02 2.88284E+05 5.45697E-11 1.20757E-09
 -1        31 1.32188E+05 1.31374E+04-4.24796E+02 2.52343E+05-6.54836E-11 4.48885E-10
 -1        32 1.38259E+05 2.35444E+04-3.35228E+02 2.19886E+05-3.05590E-10 1.72886E-10
 -1        33 1.52571E+05 1.42763E+04-2.52540E+02 1.85530E+05-1.27329E-11-2.59135E-11
 -1        34 1.90155E+05-5.12419E+03-2.42029E+02 1.81549E+05-1.01863E-10-2.99938E-10
 -1        35 2.80292E+05 1.39731E+05 1.30818E+02 2.42284E+05 8.36735E-11-9.06654E-10
 -1        36 3.40884E+05 2.33065E+04 3.27784E+01 2.32303E+05-5.39634E-09-1.81835E-09
 -1        37 1.80520E+05-1.14096E+04-8.66328E+01 1.49908E+05 1.45277E-09-2.24645E-10
 -1        38 7.26178E+04-2.07070E+04-7.41242E+01 9.06373E+04 2.48959E-09-4.19542E-10
 -1        39 2.03529E+04-4.05394E+04-1.10372E+02 5.31422E+04 3.91628E-09-9.83633E-10
 -1        40-3.67858E+04-1.88924E+05-2.83190E+02 2.23744E+05-1.21266E-10-4.44160E-10
 -1        41-2.68809E+04-2.70316E+04 3.53985E+00 2.83308E+05 4.63842E-11 7.14863E-10
 -1        42 2.36133E+03-1.29177E+04-1.74679E+02 2.65187E+05-2.06455E-10 3.98618E-10
 -1        43 3.93498E+04-1.28500E+03-2.78302E+02 2.39386E+05-1.16415E-10-3.72843E-10
 -1        44 6.81843E+04 1.06987E+04-3.77657E+02 2.26364E+05-1.40972E-10 1.50663E-10
 -1        45 7.43370E+04 1.99564E+04-5.01432E+02 2.24956E+05-5.13865E-10 3.00354E-10
 -1        46 3.29419E+04 1.31736E+04-1.20976E+02 2.15624E+05-1.58252E-10-4.27210E-10
 -1        47-1.52352E+04-2.29503E+04 2.34645E+02 1.44464E+05-1.32786E-10-3.85182E-10
 -1        48-1.72103E+04 5.34006E+04 1.76191E+02 1.72918E+05-4.45652E-10-1.72847E-10
 -1        49-2.00151E+04-8.80874E+03-2.00857E+02 2.45549E+05-2.36014E-09-1.05089E-10
 -1        50-9.99711E+03-3.09781E+04-1.76291E+02 1.94552E+05 2.39606E-09-1.51406E-10
 -1        51-6.28086E+03-3.08140E+04-1.10348E+02 1.20154E+05-5.38876E-10-1.03816E-10
 -1        52-4.38745E+03-4.22983E+04-9.09156E+01 6.47558E+04 6.63128E-09-5.41559E-10
 -1        53-2.95539E+05-2.20798E+05-6.93751E+02 2.16606E+05 7.78755E-11 6.00267E-10
 -1        54-2.94976E+05-3.88596E+04-2.26273E+02 2.03601E+05-1.25842E-10 3.04378E-10
 -1        55-1.34560E+05-1.61003E+04-1.43928E+02 1.67300E+05-2.23944E-10 6.06330E-12
 -1        56 6.80277E+03-1.23859E+03-1.34250E+02 1.50878E+05 7.35933E-11 4.19580E-10
 -1        57 1.42302E+05 1.39846E+04-1.31251E+02 1.51770E+05 9.52885E-11 9.94381E-11
 -1        58 2.89626E+05 3.13950E+04 9.15156E+01 1.74696E+05-2.19766E-10 2.41319E-10
 -1        59-1.21628E+05 1.51918E+03-2.22459E+02 1.92632E+05-1.42582E-10-4.19580E-10
 -1        60-5.62040E+05-5.67079E+04-4.54477E+02 1.09668E+05 3.18276E-11-6.91216E-11
 -1        61-4.44264E+05-1.76950E+04-2.03508E+02 1.29744E+05-3.14261E-10-1.94026E-10
 -1        62-3.16140E+05-2.85407E+04-1.89601E+02 1.74369E+05-2.26653E-09-3.03165E-11
 -1        63-1.80114E+05-2.61771E+04-1.13170E+02 1.44431E+05 2.01677E-09-1.43579E-09
 -1        64-7.73296E+04-1.78516E+04-3.15671E+01 8.81275E+04 4.86481E-09-7.71858E-10
 -1        65-2.76218E+04-1.98242E+04 2.48642E+01 5.11584E+04 7.25699E-09 1.83718E-10
 -1        66 1.97532E+06 4.70923E+04 7.97823E+04 1.21145E-09 5.31033E-10 1.62254E-09
 -1        67 1.98825E+06 1.54824E+04 4.14178E+04-8.52879E-10 1.04652E-09 1.65892E-09
 -1        68 1.98066E+06 2.99708E+03 2.23924E+04-6.34827E-10 9.95997E-10 8.54925E-11
 -1        69 1.98309E+06 1.94889E+03 1.93485E+04 2.41812E-10 1.25307E-09 1.14437E-09
 -1        70 1.98054E+06 3.62456E+03 2.51858E+04 2.89629E-09 6.74367E-10 4.65661E-10
 -1        71 1.98965E+06 1.87459E+04 4.91928E+04 1.28944E-09-4.85027E-10-7.57609E-10
 -1        72 1.97403E+06 5.70070E+04 9.61855E+04-4.99494E-09-1.30288E-09-8.91305E-10
 -1        73-4.68135E+04 5.01414E+05-7.89948E+04 7.66240E+05 5.82077E-11-1.78261E-09
 -1        74-1.31784E+04 4.86225E+05-3.77577E+04 8.59744E+05 2.29193E-10 5.27507E-10
 -1        75 9.44493E+00 4.91978E+05-1.46772E+04 7.64887E+05-1.09139E-10 7.60338E-10
 -1        76 4.93685E+03 4.90524E+05-2.47499E+03 8.60684E+05-5.82077E-11 4.05271E-09
 -1        77 9.71652E+03 4.90083E+05 8.28718E+03 7.65320E+05-1.72804E-11 1.74168E-10
 -1        78 1.43107E+06 2.23398E+04 3.81033E+04 4.12365E-09 2.42964E-10 1.86810E-09
 -1        79 1.43720E+06 7.34174E+03 2.02510E+04 9.50990E-10 3.12976E-10 5.23869E-10
 -1        80 1.43358E+06 1.42307E+03 1.18457E+04-3.41277E-09-8.54340E-11-2.32603E-09
 -1        81 1.43495E+06 1.18559E+03 1.17746E+04-5.56381E-09-4.80093E-10-2.99508E-09
 -1        82 1.43334E+06 2.60504E+03 1.71097E+04-5.77870E-10 2.18658E-10-2.01771E-09
 -1        83 1.43984E+06 1.34926E+04 3.49050E+04-1.68279E-09-2.18025E-10 4.31100E-10
 -1        84 1.42864E+06 4.10200E+04 6.90138E+04 1.29330E-09 4.17310E-10 2.14641E-09
 -1        85-7.93919E+04-1.65272E+05-1.35159E+05 5.25984E+05-1.09139E-10-1.15324E-09
 -1        86-2.56858E+04-1.88587E+05-7.04312E+04 5.90486E+05 3.89264E-10-1.50430E-09
 -1        87-5.62568E+03-1.75673E+05-3.87728E+04 5.25162E+05-2.00089E-11 8.25821E-10
 -1        88-8.84165E+03-1.82745E+05-3.60584E+04 5.90971E+05 3.96540E-10 5.54462E-09
 -1        89-2.58019E+04-1.73574E+05-5.02568E+04 5.25564E+05 3.09228E-11 1.51158E-09
 -1        90 1.06964E+06 1.80858E+04 3.07921E+04 3.09228E-11-7.45070E-11 1.44428E-09
 -1        91 1.07460E+06 5.94443E+03 1.62563E+04-2.20211E-10-2.56995E-11 6.33690E-10
 -1        92 1.07167E+06 1.15110E+03 9.30604E+03 1.78426E-09 3.85098E-10 4.28599E-10
 -1        93 1.07273E+06 8.99089E+02 8.93122E+03-6.60989E-10 9.32558E-10-1.85139E-10
 -1        94 1.07152E+06 1.90347E+03 1.26578E+04 4.21551E-09 9.51134E-10 1.63618E-09
 -1        95 1.07628E+06 9.86117E+03 2.55880E+04-5.35920E-10 7.40699E-11-3.03226E-09
 -1        96 1.06810E+06 2.99795E+04 5.04748E+04 1.21690E-09-8.67002E-10-2.05546E-10
 -1        97-5.93385E+04-1.43761E+05-1.01232E+05 3.47834E+05 7.27596E-11-7.87622E-10
 -1        98-1.96209E+04-1.60976E+05-5.37282E+04 3.90442E+05-5.09317E-11 1.90994E-11
 -1        99-4.97884E+03-1.50969E+05-3.13808E+04 3.47266E+05 3.83807E-10-1.83718E-10
 -1       100-9.26758E+03-1.57230E+05-3.24672E+04 3.90795E+05-3.49246E-10 4.02451E-09
 -1       101-2.63054E+04-1.48673E+05-4.87201E+04 3.47520E+05 3.91083E-10 8.13088E-10
 -1       102 8.14286E+05 1.37647E+04 2.34281E+04-2.36469E-09 2.58722E-10-1.20144E-09
 -1       103 8.18058E+05 4.52440E+03 1.23521E+04-2.05279E-09 1.48656E-10-4.63808E-09
 -1       104 8.15832E+05 8.75764E+02 7.04007E+03 1.41551E-09 2.12753E-10-3.11047E-10
 -1       105 8.16628E+05 6.75123E+02 6.70749E+03-1.86105E-10 1.11909E-10-1.43245E-11
 -1       106 8.15723E+05 1.41785E+03 9.45552E+03 2.01624E-10-3.55548E-11 9.95897E-11
 -1       107 8.19270E+05 7.34705E+03 1.90775E+04-2.77748E-09 5.23293E-11-6.80529E-10
 -1       108 8.13175E+05 2.23363E+04 3.76137E+04 1.83172E-09 2.22125E-10-5.52973E-10
 -1       109-4.39848E+04-9.01847E+04-7.51654E+04 2.45958E+05-2.47383E-10-2.45018E-09
 -1       110-1.47039E+04-1.02892E+05-4.03476E+04 2.76044E+05-4.41560E-10-2.97678E-09
 -1       111-4.00975E+03-9.53266E+04-2.43990E+04 2.45536E+05-4.79304E-10-2.32831E-10
 -1       112-8.06347E+03-1.00444E+05-2.66721E+04 2.76323E+05-5.63887E-10 7.37828E-10
 -1       113-2.27692E+04-9.32790E+04-4.13878E+04 2.45703E+05-5.16593E-10-1.19576E-09
 -1       114 6.18199E+05 9.87941E+03 1.68313E+04 4.15503E-09 2.46566E-10 1.08321E-09
 -1       115 6.20905E+05 3.24708E+03 8.90247E+03 4.70948E-10-1.98183E-10 8.59018E-10
 -1       116 6.19306E+05 6.28551E+02 5.12763E+03 1.34190E-09-2.73249E-10 7.03608E-10
 -1       117 6.19891E+05 5.00483E+02 4.97308E+03 2.17788E-10-1.49334E-10-1.68222E-09
 -1       118 6.19217E+05 1.07177E+03 7.10284E+03 9.97943E-10-5.18789E-11-3.15595E-10
 -1       119 6.21897E+05 5.55534E+03 1.44023E+04-1.04552E-09-2.07855E-10-9.89530E-10
 -1       120 6.17291E+05 1.68883E+04 2.84316E+04 2.59206E-10 1.15805E-10-8.09450E-11
 -1       121-3.24277E+04-4.41896E+04-5.55093E+04 1.88965E+05 5.82077E-11 7.93079E-10
 -1       122-1.09051E+04-5.35576E+04-3.00545E+04 2.12055E+05-2.27828E-10 1.05501E-09
 -1       123-3.10857E+03-4.79077E+04-1.86488E+04 1.88629E+05 9.82254E-11-3.94721E-10
 -1       124-6.59293E+03-5.19642E+04-2.11704E+04 2.12286E+05-3.61979E-10-3.91992E-10
 -1       125-1.86469E+04-4.61937E+04-3.35643E+04 1.88749E+05 1.21872E-10-2.75804E-10
 -1       126 4.53956E+05 6.45211E+03 1.10352E+04-3.73075E-09 3.47572E-11-2.45564E-10
 -1       127 4.55726E+05 2.12000E+03 5.91583E+03-4.47397E-09-1.22752E-10 3.95630E-10
 -1       128 4.54675E+05 4.10743E+02 3.55591E+03-1.00329E-09-1.82602E-10-1.86583E-09
 -1       129 4.55098E+05 3.71085E+02 3.68766E+03-3.34681E-09-2.49144E-11 8.68567E-10
 -1       130 4.54587E+05 8.49924E+02 5.51341E+03-1.73549E-09-1.44130E-11 2.06501E-09
 -1       131 4.56710E+05 4.40767E+03 1.13667E+04-3.12531E-09-5.66626E-11 1.22304E-09
 -1       132 4.53058E+05 1.33980E+04 2.25317E+04 1.05683E-09-7.69938E-11-2.16460E-10
 -1       133-2.35194E+04-1.51976E+04-4.03520E+04 1.58314E+05-1.85537E-10-3.58341E-10
 -1       134-7.93964E+03-2.20173E+04-2.20553E+04 1.77642E+05-4.12911E-10-2.30557E-10
 -1       135-2.35224E+03-1.78731E+04-1.40675E+04 1.58024E+05-4.13820E-10-1.05683E-09
 -1       136-5.27529E+03-2.10556E+04-1.65853E+04 1.77847E+05-7.87622E-10-2.79215E-10
 -1       137-1.50170E+04-1.64631E+04-2.68385E+04 1.58119E+05-4.29281E-10-1.77317E-09
 -1       138 3.00416E+05 3.64414E+03 6.27882E+03 9.13133E-10-1.99938E-10 8.86075E-10
 -1       139 3.01420E+05 1.19674E+03 3.45125E+03 1.86981E-09-5.18192E-10-2.28420E-09
 -1       140 3.00817E+05 2.32303E+02 2.23236E+03 2.27857E-10-4.29188E-10-1.37388E-09
 -1       141 3.01101E+05 2.57411E+02 2.55826E+03 2.58105E-10 7.09702E-10-1.28625E-09
 -1       142 3.00735E+05 6.42169E+02 4.05943E+03 1.12558E-09 1.87466E-09 1.87924E-09
 -1       143 3.02338E+05 3.33199E+03 8.53913E+03-1.84673E-09 8.16775E-10 1.45883E-09
 -1       144 2.99578E+05 1.01274E+04 1.70099E+04 1.00272E-09-5.50004E-10 7.71252E-10
 -1       145-1.72036E+04-2.58635E+04-2.96328E+04 1.47957E+05 1.27329E-11-5.06589E-10
 -1       146-5.82656E+03-3.08954E+04-1.64311E+04 1.66016E+05-1.61890E-10-9.33142E-10
 -1       147-1.81353E+03-2.78224E+04-1.09115E+04 1.47683E+05 4.91127E-11-9.40418E-10
 -1       148-4.39867E+03-3.04273E+04-1.35399E+04 1.66210E+05-6.00267E-11-3.79600E-10
 -1       149-1.26737E+04-2.65989E+04-2.24873E+04 1.47770E+05 6.09361E-11-3.71074E-10
 -1       150 1.34562E+05-4.11882E+02-6.72758E+02 1.58394E-10-8.28171E-10 2.61139E-10
 -1       151 1.34439E+05-1.35797E+02-3.01672E+02-4.90894E-10-1.04446E-09-6.86924E-10
 -1       152 1.34513E+05-2.59681E+01-7.20534E+01-1.92903E-11-5.39453E-10-5.59695E-10
 -1       153 1.34505E+05 9.40164E+00 9.34484E+01-5.79524E-10 1.84317E-09-1.87266E-09
 -1       154 1.34496E+05 5.79075E+01 3.01885E+02-5.60929E-10 3.62663E-09-1.16817E-09
 -1       155 1.34627E+05 3.01234E+02 7.39694E+02 3.33621E-10 1.53577E-09-1.07889E-10
 -1       156 1.34390E+05 9.14951E+02 1.52352E+03-5.31827E-10-7.01167E-10-3.76588E-10
 -1       157-9.83916E+03-1.29720E+04-1.70606E+04 1.59952E+05 4.74756E-10-1.01772E-09
 -1       158-3.30990E+03-1.59240E+04-9.62975E+03 1.79494E+05 2.21007E-10 8.42192E-10
 -1       159-1.06381E+03-1.41544E+04-6.71085E+03 1.59664E+05 8.22183E-10-1.01045E-09
 -1       160-2.86377E+03-1.58662E+04-8.80183E+03 1.79683E+05 4.03816E-10 5.52063E-10
 -1       161-8.47437E+03-1.33088E+04-1.50095E+04 1.59768E+05 8.83119E-10 4.43833E-10
 -1       169-1.06150E+03 1.04139E+05-2.19914E+03 1.29410E+05 9.73159E-10 5.67525E-10
 -1       170-4.15209E+02 1.03637E+05-2.02360E+03 1.45017E+05 1.56524E-09 4.32919E-10
 -1       171-4.13090E+02 1.03934E+05-2.80490E+03 1.29084E+05 2.10548E-09-1.19508E-09
 -1       172-2.08242E+03 1.02768E+05-5.67477E+03 1.45354E+05 2.49929E-09-2.57205E-09
 -1       173-6.53652E+03 1.04606E+05-1.12063E+04 1.29079E+05 2.65572E-09-1.58934E-09
 -1       215 5.45559E+05 9.22188E+03 1.71165E+04 3.74084E+05-1.60071E-10 5.31145E-10
 -1       216 5.47798E+05 2.84591E+03 9.18305E+03 4.19458E+05-2.56478E-10-1.27511E-09
 -1       217 5.45473E+05 4.17735E+02 5.38887E+03 3.73220E+05 3.27418E-11 2.43745E-10
 -1       218 5.45810E+05 5.55059E+02 5.42226E+03 4.20339E+05-3.78350E-10 4.25644E-10
 -1       219 5.44947E+05 1.22053E+03 7.86929E+03 3.73183E+05-1.76556E-10-9.16771E-10
 -1       220 5.48094E+05 6.21229E+03 1.60603E+04 4.19853E+05 4.29736E-10-2.47383E-09
 -1       221 5.43236E+05 1.86332E+04 3.16633E+04 3.73723E+05 5.09317E-11-5.32509E-10
 -1       222-1.71321E+04 1.04758E+05-2.93959E+04 2.41884E+05-8.54925E-11-4.32465E-10
 -1       223-4.93775E+03 9.98467E+04-1.36211E+04 2.71943E+05 8.91305E-11-1.13016E-09
 -1       224-6.73885E+01 1.02624E+05-4.25599E+03 2.41683E+05 6.00267E-11-3.93811E-10
 -1       225 2.38373E+03 1.03104E+05 1.93606E+03 2.71700E+05-2.52840E-10 3.12866E-10
 -1       226 6.59072E+03 1.02026E+05 9.00999E+03 2.42094E+05 3.27418E-11-2.08456E-09
 -1       227 6.61903E+05 2.61306E+04 4.45696E+04 2.67799E+05-3.09228E-10 1.41881E-10
 -1       228 6.68907E+05 8.59946E+03 2.29324E+04 3.00420E+05-1.91903E-10-9.53150E-10
 -1       229 6.64390E+05 1.67938E+03 1.19435E+04 2.67233E+05 9.82254E-11-7.18501E-10
 -1       230 6.65550E+05 1.05450E+03 9.56225E+03 3.00967E+05 3.60160E-10 7.02130E-10
 -1       231 6.64322E+05 1.63945E+03 1.15359E+04 2.67222E+05 1.49157E-10-6.67569E-10
 -1       232 6.68504E+05 8.22112E+03 2.17915E+04 3.00536E+05-6.09361E-11-8.94943E-10
 -1       233 6.61842E+05 2.48117E+04 4.21713E+04 2.67683E+05 2.65572E-10-1.31422E-10
 -1       234-1.91025E+04-6.38948E+04-3.37550E+04 4.10957E+05-1.67347E-10 2.18279E-11
 -1       235-5.51469E+03-6.99211E+04-1.76061E+04 4.61690E+05 2.91038E-10-1.27329E-09
 -1       236-6.74313E+02-6.65702E+04-9.79182E+03 4.10452E+05 9.82254E-11-3.34921E-10
 -1       237-1.55375E+03-6.82669E+04-9.28246E+03 4.61674E+05 2.51021E-10-2.76486E-10
 -1       238-6.33269E+03-6.55033E+04-1.32022E+04 4.10965E+05 2.50111E-10-1.04410E-09
 -1       239 6.35975E+05 2.31566E+04 3.93736E+04 2.04179E+05-1.43700E-10 1.21508E-09
 -1       240 6.42235E+05 7.62643E+03 2.02994E+04 2.29078E+05-4.72937E-11-6.55746E-10
 -1       241 6.38332E+05 1.49023E+03 1.06704E+04 2.03759E+05 1.23691E-10-1.97360E-10
 -1       242 6.39419E+05 9.35426E+02 8.71365E+03 2.29484E+05 3.54703E-11-1.16233E-09
 -1       243 6.38293E+05 1.52669E+03 1.07377E+04 2.03754E+05-2.26919E-10-2.12822E-10
 -1       244 6.42187E+05 7.74571E+03 2.04844E+04 2.29142E+05-5.99357E-10-1.31331E-09
 -1       245 6.35841E+05 2.34480E+04 3.97668E+04 2.04115E+05-2.09184E-10-2.40561E-10
 -1       246-2.20380E+04-8.29046E+04-3.85251E+04 3.72723E+05 3.52884E-10-1.19326E-09
 -1       247-6.77525E+03-8.96662E+04-2.05218E+04 4.18705E+05-1.63709E-10-8.25366E-10
 -1       248-1.34800E+03-8.57923E+04-1.21911E+04 3.72251E+05 5.16593E-10 1.48464E-09
 -1       249-3.15382E+03-8.82100E+04-1.29597E+04 4.18726E+05-5.12955E-10-3.34694E-10
 -1       250-1.03956E+04-8.44435E+04-1.98505E+04 3.72699E+05 5.89353E-10-1.18052E-09
 -1       251 5.65139E+05 1.89334E+04 3.21684E+04 1.64406E+05 1.85537E-10 2.87400E-10
 -1       252 5.70275E+05 6.23544E+03 1.66156E+04 1.84473E+05 2.51021E-10-8.42192E-10
 -1       253 5.67113E+05 1.21694E+03 8.79925E+03 1.64077E+05 4.35648E-10 5.82077E-10
 -1       254 5.68027E+05 7.72963E+02 7.29961E+03 1.84793E+05 1.11982E-10-7.56700E-10
 -1       255 5.67080E+05 1.30398E+03 9.13903E+03 1.64074E+05-5.54792E-10 2.03727E-10
 -1       256 5.70403E+05 6.65299E+03 1.75604E+04 1.84512E+05-9.54969E-10-1.85901E-09
 -1       257 5.64931E+05 2.01662E+04 3.41634E+04 1.64369E+05-3.07409E-10-3.45153E-10
 -1       258-2.00200E+04-5.21222E+04-3.48595E+04 3.14322E+05-5.56611E-10 5.87534E-10
 -1       259-6.32320E+03-5.81874E+04-1.87686E+04 3.53071E+05-7.20320E-10 2.92448E-09
 -1       260-1.46186E+03-5.46501E+04-1.15039E+04 3.13913E+05-8.36735E-10 2.71712E-10
 -1       261-3.46598E+03-5.70678E+04-1.28272E+04 3.53113E+05-8.71296E-10-7.08951E-10
 -1       262-1.08511E+04-5.33718E+04-2.01856E+04 3.14279E+05-6.28006E-10-1.49521E-09
 -1       263 4.83662E+05 1.49766E+04 2.54460E+04 1.38976E+05-8.18545E-11-8.76753E-10
 -1       264 4.87730E+05 4.93241E+03 1.31693E+04 1.55953E+05-2.91038E-11-4.76575E-10
 -1       265 4.85239E+05 9.62192E+02 7.02607E+03 1.38705E+05 1.21872E-10 9.13133E-10
 -1       266 4.85978E+05 6.22411E+02 5.91911E+03 1.56218E+05 6.10328E-10-5.27507E-11
 -1       267 4.85208E+05 1.07835E+03 7.52126E+03 1.38703E+05 6.18456E-11 2.13731E-10
 -1       268 4.87959E+05 5.52069E+03 1.45476E+04 1.55975E+05-3.41061E-11-1.69166E-10
 -1       269 4.83411E+05 1.67463E+04 2.83540E+04 1.38956E+05-1.07320E-10-3.03771E-10
 -1       270-1.68565E+04-1.98505E+04-2.93436E+04 2.67596E+05 8.91305E-11-1.21872E-09
 -1       271-5.40464E+03-2.49399E+04-1.59786E+04 3.00564E+05-6.33008E-10 6.36192E-10
 -1       272-1.37082E+03-2.19305E+04-1.01183E+04 2.67241E+05 1.43700E-10-4.97039E-10
 -1       273-3.39315E+03-2.41710E+04-1.18123E+04 3.00617E+05-5.22050E-10 1.30285E-10
 -1       274-1.04124E+04-2.07536E+04-1.90525E+04 2.67544E+05 1.84855E-10-1.69166E-10
 -1       275 4.05761E+05 1.17881E+04 2.00554E+04 1.22006E+05 2.73758E-10-5.71163E-10
 -1       276 4.08967E+05 3.88116E+03 1.04329E+04 1.36922E+05 1.85537E-10-1.48066E-09
 -1       277 4.07004E+05 7.56156E+02 5.66900E+03 1.21773E+05-6.59384E-11 7.87622E-10
 -1       278 4.07616E+05 5.16768E+02 4.95438E+03 1.37151E+05-1.06581E-12 2.56478E-10
 -1       279 4.06963E+05 9.46309E+02 6.50802E+03 1.21772E+05-1.38243E-10 1.03591E-09
 -1       280 4.09381E+05 4.86534E+03 1.27690E+04 1.36933E+05-4.01997E-10 2.85581E-10
 -1       281 4.05367E+05 1.47700E+04 2.49830E+04 1.21998E+05-1.80080E-10-1.60139E-09
 -1       282-1.38093E+04 1.14015E+03-2.41164E+04 2.33454E+05-6.54836E-10 1.73804E-09
 -1       283-4.47538E+03-3.04669E+03-1.33576E+04 2.62202E+05-1.00044E-09 1.01772E-09
 -1       284-1.24326E+03-5.33737E+02-8.86757E+03 2.33138E+05-8.22183E-10-9.87029E-10
 -1       285-3.32715E+03-2.62993E+03-1.09983E+04 2.62259E+05-1.42245E-09-9.10859E-10
 -1       286-1.01434E+04 5.97783E+02-1.82872E+04 2.33397E+05-6.79847E-10-4.09273E-10
 -1       287 3.32052E+05 1.00839E+04 1.71730E+04 1.19444E+05 1.69166E-10 5.45697E-11
 -1       288 3.34794E+05 3.32203E+03 8.95959E+03 1.34054E+05 4.85215E-10-7.31234E-10
 -1       289 3.33105E+05 6.49263E+02 4.91712E+03 1.19219E+05 8.24002E-10-2.00089E-10
 -1       290 3.33644E+05 4.59787E+02 4.38048E+03 1.34275E+05 1.01390E-09-2.47383E-10
 -1       291 3.33062E+05 8.59312E+02 5.84886E+03 1.19218E+05-7.82620E-10-5.93900E-10
 -1       292 3.35258E+05 4.41283E+03 1.15540E+04 1.34058E+05-2.47064E-09-1.12050E-09
 -1       293 3.31620E+05 1.33929E+04 2.26456E+04 1.19442E+05-1.01682E-09-1.23691E-09
 -1       294-1.24335E+04-2.38576E+04-2.18953E+04 2.18913E+05 1.09139E-10-2.16642E-09
 -1       295-4.08973E+03-2.76717E+04-1.25304E+04 2.45876E+05-1.00044E-10 4.56112E-10
 -1       296-1.31106E+03-2.53192E+04-9.04023E+03 2.18619E+05 1.18234E-10 1.19053E-09
 -1       297-3.96135E+03-2.76648E+04-1.23004E+04 2.45926E+05-3.63798E-12-6.04132E-10
 -1       298-1.20464E+04-2.39663E+04-2.13252E+04 2.18864E+05 1.04592E-11-4.64752E-10
 -1       299 2.32074E+05 7.04263E+03 1.18522E+04 1.76534E+05 2.72848E-11-1.81899E-11
 -1       300 2.33916E+05 2.35779E+03 5.92667E+03 1.98261E+05 1.67347E-10 5.12955E-10
 -1       301 2.32755E+05 4.85992E+02 2.74918E+03 1.76256E+05-5.84805E-10-7.42148E-10
 -1       302 2.32992E+05 2.09670E+02 1.60182E+03 1.98523E+05-1.10504E-10-5.89353E-10
 -1       303 2.32885E+05 9.72866E+01 1.17380E+03 1.76268E+05-4.63842E-11 4.62023E-10
 -1       304 2.33261E+05 4.49548E+02 1.54383E+03 1.98138E+05-1.20053E-10-1.11686E-09
 -1       305 2.32967E+05 1.36531E+03 2.60250E+03 1.76643E+05-3.74712E-10-7.42148E-10
 -1       306-1.21460E+04-7.21363E+04-2.17707E+04 2.56335E+05 1.13505E-09-1.05501E-09
 -1       307-4.01378E+03-7.59877E+04-1.30616E+04 2.87968E+05 6.29370E-10-1.11231E-09
 -1       308-1.50192E+03-7.35397E+04-1.04812E+04 2.56017E+05 1.50067E-09-4.86409E-10
 -1       309-5.28267E+03-7.65165E+04-1.57271E+04 2.87974E+05 7.18501E-10 3.85626E-10
 -1       310-1.62361E+04-7.16196E+04-2.83523E+04 2.56330E+05 1.13232E-09-6.99401E-10
 -1       318 5.49308E+03 2.86781E+05 7.76219E+03 3.52827E+05 3.40196E-09 5.63887E-10
 -1       319 2.17617E+03 2.87797E+05 2.68778E+03 3.96679E+05 3.90719E-09 9.35870E-10
 -1       320 3.20358E+02 2.87429E+05-1.19463E+03 3.52557E+05 3.38150E-09-3.41970E-10
 -1       321-2.14109E+03 2.86497E+05-5.95661E+03 3.96360E+05 2.82671E-09-9.42237E-10
 -1       322-8.14046E+03 2.89144E+05-1.36110E+04 3.53147E+05 1.42427E-09-1.19144E-09
 -1       364 9.52564E+04 5.12492E+03 9.35710E+03 2.75922E+05-5.82077E-11 6.40284E-10
 -1       365 9.65177E+04 1.57362E+03 4.77429E+03 3.09469E+05-4.42014E-10-2.81943E-10
 -1       366 9.52878E+04 2.12935E+02 2.34812E+03 2.75318E+05-5.27507E-11 5.58430E-10
 -1       367 9.53892E+04 1.27053E+02 1.64860E+03 3.10086E+05-8.82210E-11 5.45697E-12
 -1       368 9.51536E+04 1.57930E+02 1.66574E+03 2.75297E+05 1.15961E-11-4.54747E-10
 -1       369 9.57961E+04 9.62277E+02 2.86217E+03 3.09688E+05 1.54614E-11 3.41970E-10
 -1       370 9.50981E+04 2.94610E+03 5.34048E+03 2.75719E+05 6.91216E-11 2.91948E-10
 -1       371-1.17422E+04-1.82758E+05-1.99941E+04 1.50511E+05-1.24601E-10-1.63709E-11
 -1       372-3.54662E+03-1.86060E+05-9.49183E+03 1.69224E+05 1.18234E-11-1.18177E-09
 -1       373-2.84091E+02-1.84191E+05-3.44434E+03 1.50374E+05-7.27596E-12-1.70576E-09
 -1       374 9.64290E+02-1.84125E+05 3.17345E+01 1.69102E+05 9.64064E-11 1.90994E-10
 -1       375 2.83233E+03-1.84526E+05 3.52124E+03 1.50617E+05-4.27463E-11 1.50976E-09
 -1       376 2.03481E+05 9.79149E+03 1.68998E+04 2.68983E+05-1.01863E-10 1.74623E-10
 -1       377 2.05992E+05 3.23368E+03 8.64644E+03 3.01803E+05-2.81943E-10 1.12777E-10
 -1       378 2.04132E+05 6.45966E+02 4.36876E+03 2.68442E+05 2.72848E-11-1.27329E-10
 -1       379 2.04484E+05 4.20394E+02 3.26669E+03 3.02342E+05-1.00954E-10-1.40426E-09
 -1       380 2.04100E+05 5.18447E+02 3.62776E+03 2.68433E+05-5.36602E-11-5.42059E-10
 -1       381 2.05470E+05 2.44123E+03 6.57831E+03 3.01892E+05 1.41881E-10-2.04636E-09
 -1       382 2.03635E+05 7.25780E+03 1.25441E+04 2.68897E+05 1.81899E-10-9.88621E-10
 -1       383-6.08714E+03-5.86162E+04-1.11013E+04 3.06136E+05-3.00133E-10-2.61025E-10
 -1       384-1.45708E+03-6.06537E+04-5.48853E+03 3.44026E+05 2.18279E-10-1.68075E-09
 -1       385 1.86791E+02-5.95576E+04-2.50253E+03 3.05806E+05-2.18279E-11-6.96673E-10
 -1       386 4.49069E+02-5.97372E+04-1.37985E+03 3.43922E+05 4.00178E-11 6.72117E-10
 -1       387 1.28315E+02-5.92438E+04-9.61446E+02 3.06235E+05-8.54925E-11 1.41699E-09
 -1       388 2.65162E+05 1.11806E+04 1.91098E+04 2.29121E+05-5.89353E-10-9.09495E-11
 -1       389 2.68099E+05 3.70015E+03 9.78688E+03 2.57103E+05-3.41061E-10-5.32964E-10
 -1       390 2.66110E+05 7.41149E+02 4.99089E+03 2.28669E+05 6.85759E-10 2.09184E-10
 -1       391 2.66563E+05 4.60941E+02 3.81068E+03 2.57548E+05 1.62356E-09 7.40329E-10
 -1       392 2.66109E+05 6.15828E+02 4.35390E+03 2.28665E+05 4.44743E-10 7.47605E-10
 -1       393 2.67711E+05 2.98913E+03 8.01094E+03 2.57151E+05-6.28461E-10-7.58519E-10
 -1       394 2.65369E+05 8.96355E+03 1.53667E+04 2.29073E+05-3.76531E-10 1.28966E-09
 -1       395-7.85922E+03-4.34738E+04-1.40785E+04 3.13058E+05 1.20053E-10 2.54659E-11
 -1       396-2.11526E+03-4.60226E+04-7.22186E+03 3.51781E+05-4.72937E-11-1.82126E-09
 -1       397-9.06109E+01-4.46149E+04-3.80316E+03 3.12711E+05 4.51109E-10-1.78034E-09
 -1       398-2.50719E+02-4.51452E+04-3.21927E+03 3.51696E+05-6.12999E-10-6.16637E-10
 -1       399-1.79068E+03-4.41110E+04-4.19960E+03 3.13139E+05 3.61979E-10 9.76797E-10
 -1       400 2.94686E+05 1.08375E+04 1.84758E+04 1.98793E+05-1.50976E-10-1.14051E-09
 -1       401 2.97561E+05 3.58343E+03 9.47919E+03 2.23084E+05-5.23869E-10-1.41517E-09
 -1       402 2.95677E+05 7.13368E+02 4.87659E+03 1.98408E+05-2.72848E-10-3.80169E-10
 -1       403 2.96139E+05 4.41203E+02 3.79889E+03 2.23464E+05 5.00222E-12-6.36646E-10
 -1       404 2.95679E+05 6.27270E+02 4.44595E+03 1.98405E+05 4.59295E-11-1.45519E-11
 -1       405 2.97303E+05 3.10010E+03 8.27869E+03 2.23115E+05-5.63887E-11-2.54659E-10
 -1       406 2.94833E+05 9.33547E+03 1.59457E+04 1.98763E+05-1.27329E-10 4.93856E-10
 -1       407-8.88081E+03-2.21593E+04-1.57411E+04 2.85849E+05-6.96673E-10-1.35515E-10
 -1       408-2.58072E+03-2.49604E+04-8.30129E+03 3.21190E+05-6.33008E-10-7.52152E-10
 -1       409-3.70238E+02-2.33591E+04-4.79099E+03 2.85526E+05-7.00311E-10-6.04132E-10
 -1       410-9.67556E+02-2.42203E+04-4.85454E+03 3.21126E+05-8.33097E-10-9.14497E-10
 -1       411-3.64143E+03-2.27337E+04-7.23333E+03 2.85910E+05-7.67614E-10-3.09228E-11
 -1       412 3.05236E+05 1.00029E+04 1.70323E+04 1.76083E+05-1.32786E-10-3.36513E-10
 -1       413 3.07902E+05 3.30493E+03 8.74888E+03 1.97607E+05-7.18501E-11-2.25555E-10
 -1       414 3.06187E+05 6.54655E+02 4.52583E+03 1.75746E+05-8.18545E-12 6.13909E-10
 -1       415 3.06626E+05 4.03587E+02 3.56951E+03 1.97940E+05 5.00222E-10 4.14730E-10
 -1       416 3.06191E+05 5.95305E+02 4.23702E+03 1.75744E+05 1.54614E-10 4.67480E-10
 -1       417 3.07736E+05 2.97775E+03 7.94398E+03 1.97626E+05-1.95996E-10-2.95586E-10
 -1       418 3.05342E+05 8.99151E+03 1.53355E+04 1.76065E+05-1.66438E-10 4.15184E-10
 -1       419-8.91811E+03 2.64821E+03-1.57423E+04 2.57455E+05 2.27374E-10-3.15595E-10
 -1       420-2.69183E+03-1.32077E+02-8.45648E+03 2.89265E+05-5.23869E-10-1.10958E-10
 -1       421-5.21590E+02 1.48835E+03-5.16146E+03 2.57156E+05 2.18279E-10-1.82467E-10
 -1       422-1.40256E+03 4.40393E+02-5.71801E+03 2.89226E+05-6.38465E-10-5.31600E-10
 -1       423-4.74163E+03 2.16603E+03-8.98188E+03 2.57492E+05-1.27329E-11-3.81988E-11
 -1       424 3.16489E+05 9.70971E+03 1.65250E+04 1.52087E+05 2.31921E-10-2.74667E-10
 -1       425 3.19097E+05 3.19975E+03 8.50849E+03 1.70679E+05 7.63976E-11-4.94765E-10
 -1       426 3.17453E+05 6.25616E+02 4.44639E+03 1.51795E+05-9.14042E-11-4.44743E-10
 -1       427 3.17896E+05 3.87306E+02 3.58632E+03 1.70966E+05 1.43530E-11 1.08230E-09
 -1       428 3.17450E+05 6.10627E+02 4.36182E+03 1.51794E+05 1.08230E-10 1.20963E-10
 -1       429 3.19039E+05 3.10850E+03 8.27252E+03 1.70696E+05-1.56433E-10 2.31012E-10
 -1       430 3.16508E+05 9.41931E+03 1.60278E+04 1.52071E+05-9.27685E-11-4.31100E-10
 -1       431-8.57067E+03 2.53543E+04-1.50168E+04 2.22599E+05-6.63931E-10-1.10595E-09
 -1       432-2.64409E+03 2.27257E+04-8.04323E+03 2.50068E+05-1.08957E-09-3.33239E-09
 -1       433-5.48250E+02 2.42595E+04-4.85736E+03 2.22326E+05-7.63976E-10-1.29506E-09
 -1       434-1.33556E+03 2.32680E+04-5.29691E+03 2.50064E+05-1.31513E-09-3.52884E-10
 -1       435-4.35401E+03 2.48180E+04-8.23492E+03 2.22602E+05-7.93989E-10 1.21872E-09
 -1       436 3.76843E+05 1.32726E+04 2.25194E+04 1.30352E+05-2.53749E-10 1.17871E-09
 -1       437 3.80445E+05 4.36599E+03 1.15637E+04 1.46257E+05-8.59472E-11-3.34694E-10
 -1       438 3.78239E+05 8.46151E+02 5.99429E+03 1.30089E+05-3.09228E-10-4.14730E-10
 -1       439 3.78844E+05 4.96387E+02 4.74699E+03 1.46517E+05-5.67354E-10-9.86802E-10
 -1       440 3.78238E+05 7.82820E+02 5.67157E+03 1.30085E+05 4.87034E-10 4.39286E-10
 -1       441 3.80247E+05 4.00605E+03 1.06639E+04 1.46298E+05 1.54068E-09-1.37334E-10
 -1       442 3.76947E+05 1.21500E+04 2.06233E+04 1.30312E+05 3.97449E-10 1.05570E-09
 -1       443-1.06837E+04-1.52773E+03-1.82964E+04 1.60463E+05 7.45786E-11-2.27374E-10
 -1       444-3.41711E+03-4.63294E+03-9.46222E+03 1.80194E+05 5.45697E-11-1.30967E-09
 -1       445-6.97466E+02-2.83570E+03-5.06592E+03 1.60232E+05 1.20053E-10-7.89214E-10
 -1       446-1.01010E+03-3.68430E+03-4.45220E+03 1.80258E+05 3.81988E-11-3.16504E-10
 -1       447-2.95546E+03-2.57339E+03-5.92189E+03 1.60397E+05-5.69571E-11 3.63343E-10
 -1       448 5.01130E+05 2.00607E+04 3.37455E+04 1.24774E+05-2.54659E-11-9.53150E-10
 -1       449 5.06551E+05 6.61152E+03 1.68859E+04 1.39873E+05-1.52795E-10 5.74346E-10
 -1       450 5.03294E+05 1.29111E+03 7.90390E+03 1.24474E+05-9.55879E-10-2.09184E-10
 -1       451 5.03953E+05 5.25858E+02 4.74377E+03 1.40176E+05-3.76076E-10-3.54703E-11
 -1       452 5.03429E+05 3.90679E+02 3.75413E+03 1.24460E+05-9.77707E-11 5.60249E-10
 -1       453 5.04347E+05 1.82026E+03 5.32704E+03 1.40023E+05-7.93989E-10-3.03771E-10
 -1       454 5.02888E+05 5.41112E+03 9.37060E+03 1.24627E+05-9.91349E-11-2.57955E-10
 -1       455-1.59833E+04-6.59151E+04-2.70092E+04 1.36091E+05 1.00226E-09-3.64253E-10
 -1       456-5.19575E+03-7.03880E+04-1.35801E+04 1.52953E+05 5.36602E-10-7.67386E-11
 -1       457-1.02661E+03-6.77693E+04-6.50795E+03 1.35952E+05 1.06866E-09-1.30967E-10
 -1       458-7.82879E+02-6.85332E+04-4.29642E+03 1.52889E+05 4.93856E-10 1.08230E-10
 -1       459-1.74880E+03-6.76921E+04-4.08546E+03 1.36151E+05 6.02540E-10-8.82210E-11
 -1       460 7.01825E+05 1.79447E+04 3.04787E+04 2.26185E+05-3.50337E-09-1.36424E-09
 -1       461 7.06497E+05 6.07102E+03 1.58433E+04 2.53300E+05-1.56979E-09-7.97627E-10
 -1       462 7.03285E+05 1.37128E+03 8.53964E+03 2.25563E+05 3.19778E-09 6.16637E-10
 -1       463 7.03989E+05 1.14871E+03 7.36530E+03 2.53953E+05-1.57161E-09-1.59162E-09
 -1       464 7.02939E+05 1.77449E+03 9.54097E+03 2.25520E+05-5.90990E-09-2.43017E-09
 -1       465 7.06310E+05 7.58124E+03 1.86100E+04 2.53776E+05-1.08030E-08-2.87764E-09
 -1       466 7.00507E+05 2.19389E+04 3.63438E+04 2.25721E+05-4.75711E-09-1.61162E-09
 -1       467-1.48850E+04 1.84104E+05-2.43808E+04 1.60877E+05 3.60160E-10 2.88310E-10
 -1       468-4.66313E+03 1.80136E+05-1.06987E+04 1.80904E+05 6.11180E-10 9.89075E-11
 -1       469-3.07588E+02 1.82266E+05-2.04492E+03 1.60764E+05 2.91038E-10 5.50244E-10
 -1       470 2.81749E+03 1.83332E+05 5.08411E+03 1.80734E+05-9.09495E-13 6.69388E-10
 -1       471 9.27758E+03 1.81154E+05 1.45898E+04 1.61050E+05-5.49335E-10 3.20142E-10
 -1       472 4.11347E+05 3.21771E+03 5.37123E+03 1.15358E+05-1.07593E-09-1.09230E-09
 -1       473 4.12123E+05 1.22714E+03 3.18691E+03 1.29396E+05 4.41196E-09-1.48248E-10
 -1       474 4.11582E+05 4.10589E+02 2.47345E+03 1.15135E+05-2.30557E-09-1.31331E-09
 -1       475 4.11894E+05 6.02007E+02 3.42568E+03 1.29625E+05-2.19927E-10-1.47975E-09
 -1       476 4.11414E+05 1.19643E+03 5.94470E+03 1.15130E+05-1.08935E-09-9.24956E-10
 -1       477 4.13840E+05 5.29736E+03 1.28523E+04 1.29430E+05 9.53150E-10-4.21096E-10
 -1       478 4.09720E+05 1.55528E+04 2.57582E+04 1.15317E+05 1.68257E-10-7.79437E-10
 -1       479-2.48200E+04-2.02181E+04-4.10706E+04 2.80268E+05 1.75714E-09-1.89175E-10
 -1       480-8.20804E+03-2.71291E+04-2.02014E+04 3.14737E+05 8.69477E-10 2.51021E-10
 -1       481-1.62746E+03-2.33876E+04-8.83171E+03 2.79881E+05 1.43336E-09-2.18279E-10
 -1       482-4.42097E+02-2.40883E+04-4.05426E+03 3.14874E+05 1.16415E-10-8.89031E-11
 -1       483 1.02150E+02-2.36177E+04-1.18888E+03 2.80158E+05 1.92449E-09-7.28505E-10
 -1       484 1.93652E+05 1.67803E+03 2.76493E+03 7.65427E+04-6.02313E-09-1.18371E-09
 -1       485 1.94057E+05 6.59053E+02 1.67615E+03 8.59257E+04-3.84557E-09-1.00727E-09
 -1       486 1.93787E+05 2.35236E+02 1.36235E+03 7.64169E+04-1.92631E-09-1.01136E-09
 -1       487 1.93974E+05 3.52075E+02 1.95962E+03 8.60494E+04 2.02454E-09-5.32054E-10
 -1       488 1.93700E+05 7.00372E+02 3.45418E+03 7.64196E+04 1.09185E-09-4.06544E-10
 -1       489 1.95125E+05 3.09591E+03 7.50195E+03 8.58911E+04-2.80056E-09-7.23048E-10
 -1       490 1.92712E+05 9.09058E+03 1.50516E+04 7.65682E+04-1.55705E-09-1.70758E-10
 -1       491-1.72259E+04-9.60697E+04-2.86572E+04 2.09325E+05-1.46611E-09 2.03727E-10
 -1       492-5.84154E+03-1.00869E+05-1.46521E+04 2.35087E+05 2.05546E-09-1.84809E-09
 -1       493-1.46155E+03-9.81502E+04-7.52257E+03 2.09045E+05-2.04273E-09-3.03885E-09
 -1       494-1.69217E+03-9.92271E+04-6.01018E+03 2.35167E+05-1.59707E-09-5.56838E-10
 -1       495-3.90002E+03-9.78651E+04-7.31303E+03 2.09260E+05-3.71392E-09 8.76753E-10
 -1       496 5.98371E+04 5.43518E+02 9.09582E+02 3.72646E+04 3.60001E-09-3.85171E-10
 -1       497 5.99727E+04 2.22195E+02 6.22250E+02 4.18822E+04 5.64296E-09-5.65478E-10
 -1       498 5.98821E+04 8.66994E+01 6.22620E+02 3.72209E+04 1.74691E-09-3.57431E-10
 -1       499 5.99848E+04 1.64612E+02 1.02851E+03 4.19205E+04-4.32556E-09-2.40107E-10
 -1       500 5.98307E+04 3.70948E+02 1.90617E+03 3.72265E+04-3.02862E-10-5.07953E-10
 -1       501 6.06326E+04 1.71529E+03 4.19726E+03 4.18210E+04-3.74985E-09-5.03405E-10
 -1       502 5.92661E+04 5.08907E+03 8.44901E+03 3.73168E+04 2.72030E-09-5.64455E-10
 -1       503-9.68172E+03-9.66778E+04-1.61934E+04 1.28728E+05-6.63567E-09-2.42835E-10
 -1       504-3.34734E+03-9.93751E+04-8.53956E+03 1.44567E+05-5.90080E-09 9.44965E-10
 -1       505-9.70724E+02-9.77878E+04-4.88465E+03 1.28554E+05-5.25233E-09 3.68118E-10
 -1       506-1.59095E+03-9.86759E+04-4.87783E+03 1.44614E+05-7.09042E-09-1.97360E-10
 -1       507-4.03820E+03-9.74325E+04-7.14939E+03 1.28687E+05-7.38851E-09-8.99036E-10
 -1       508-5.16738E+03-9.93926E+04-8.75431E+03 5.75906E+04 2.83035E-09-8.49468E-10
 -1       509-1.80963E+03-1.00844E+05-4.80462E+03 6.46637E+04-2.12231E-09 1.39607E-10
 -1       510-5.99035E+02-9.99486E+04-3.09907E+03 5.75084E+04 2.57933E-09 1.12516E-09
 -1       511-1.28409E+03-1.00635E+05-3.70851E+03 6.46934E+04-1.49885E-09 1.08651E-09
 -1       512-3.47834E+03-9.96179E+04-6.04701E+03 5.75627E+04 2.69597E-09 3.66072E-11
 -1       513-7.66398E+04 9.09206E+03 1.56983E+04 2.24436E+05-9.27685E-11-8.36735E-11
 -1       514-7.42405E+04 2.90905E+03 7.74502E+03 2.51684E+05-1.26420E-10-9.78616E-10
 -1       515-7.59728E+04 4.92305E+02 3.36393E+03 2.23926E+05-1.92813E-10-3.45608E-10
 -1       516-7.57846E+04 1.21011E+02 1.51328E+03 2.52202E+05-2.48292E-10-4.29281E-10
 -1       517-7.59626E+04-1.13110E+02 3.30758E+02 2.23906E+05-8.51514E-11-1.45519E-11
 -1       518-7.60554E+04-4.93812E+02-7.11335E+02 2.51892E+05-5.63887E-11-3.09228E-10
 -1       519-7.56100E+04-1.48603E+03-2.12517E+03 2.24235E+05-8.27640E-11 2.24645E-10
 -1       520-1.17475E+04-4.16095E+05-1.99833E+04 2.23506E+05-1.17325E-10 2.42835E-10
 -1       521-3.35811E+03-4.19392E+05-8.97848E+03 2.51316E+05-7.82165E-11 2.07677E-10
 -1       522 6.19078E+01-4.17608E+05-2.21062E+03 2.23306E+05 1.81899E-11-1.63982E-09
 -1       523 2.24500E+03-4.16919E+05 2.90957E+03 2.51138E+05 1.03682E-10-1.06775E-09
 -1       524 6.39523E+03-4.18206E+05 9.36782E+03 2.23669E+05 1.18234E-10-1.19508E-09
 -1       525-3.36158E+04 1.15455E+03 2.14740E+03 2.14168E+05-1.30967E-10 1.41881E-10
 -1       526-3.34143E+04 3.89721E+02 1.03301E+03 2.40308E+05-1.84627E-10-8.22183E-10
 -1       527-3.37740E+04 8.98355E+01 3.61686E+02 2.13742E+05-2.00089E-10-2.87400E-10
 -1       528-3.38172E+04 5.84426E+01-1.70072E+01 2.40739E+05 9.18590E-11-3.03771E-10
 -1       529-3.37812E+04-6.18281E+01-4.27451E+02 2.13735E+05 6.27551E-11 2.07365E-10
 -1       530-3.39091E+04-4.84465E+02-1.16775E+03 2.40382E+05-8.32188E-11-1.30967E-10
 -1       531-3.33758E+04-1.58297E+03-2.48999E+03 2.14099E+05-7.27596E-11 4.89308E-10
 -1       532 7.90998E+02-4.89725E+04 1.83974E+03 2.65562E+05-2.72848E-11 7.93989E-10
 -1       533 9.78393E+02-4.86631E+04 3.49483E+03 2.98531E+05 1.94632E-10 6.45571E-10
 -1       534 1.58664E+03-4.92282E+04 6.71523E+03 2.65325E+05-5.45697E-11-7.92170E-10
 -1       535 6.36199E+03-4.62410E+04 1.49577E+04 2.98344E+05 0.00000E+00-1.28603E-09
 -1       536 1.82530E+04-5.09447E+04 3.01414E+04 2.65747E+05-4.00178E-11-1.11322E-09
 -1       537 5.09785E+04 3.79898E+03 6.51955E+03 1.87147E+05-7.45786E-11-1.21872E-10
 -1       538 5.19286E+04 1.26962E+03 3.26756E+03 2.10018E+05 1.20690E-09 3.81988E-11
 -1       539 5.12025E+04 2.66223E+02 1.51315E+03 1.86786E+05 1.26875E-09 5.42059E-10
 -1       540 5.12990E+04 1.44336E+02 8.80076E+02 2.10379E+05-5.98789E-10-2.27374E-10
 -1       541 5.12264E+04 7.81056E+01 6.33172E+02 1.86783E+05-9.43601E-10-4.36557E-10
 -1       542 5.14502E+04 2.58743E+02 8.15777E+02 2.10051E+05 1.04592E-11-1.92813E-10
 -1       543 5.13374E+04 6.99302E+02 1.34997E+03 1.87115E+05-8.36735E-11-6.91216E-11
 -1       544-9.51412E+01-1.64813E+04-6.72266E+01 2.31302E+05 2.64208E-10 5.67525E-10
 -1       545 4.00562E+02-1.65263E+04 1.19064E+03 2.60006E+05-2.41926E-10 9.50251E-10
 -1       546 8.12046E+02-1.66896E+04 2.95998E+03 2.31092E+05 8.73115E-11-8.56289E-10
 -1       547 3.08478E+03-1.52730E+04 6.94476E+03 2.59853E+05-3.58341E-10-8.94033E-10
 -1       548 8.63681E+03-1.74098E+04 1.41364E+04 2.31455E+05 2.63753E-10-8.78572E-10
 -1       549 1.29993E+05 5.72422E+03 9.74906E+03 1.71043E+05 5.18412E-11-3.63798E-11
 -1       550 1.31486E+05 1.90226E+03 4.94426E+03 1.91964E+05-2.96495E-10-7.27596E-12
 -1       551 1.30475E+05 3.86767E+02 2.42519E+03 1.70721E+05-3.63798E-10 1.20963E-10
 -1       552 1.30681E+05 2.16038E+02 1.67755E+03 1.92284E+05-1.21844E-10 8.60382E-10
 -1       553 1.30503E+05 2.24181E+02 1.68550E+03 1.70720E+05 1.18234E-11 3.89264E-10
 -1       554 1.31101E+05 1.04409E+03 2.88392E+03 1.91975E+05 6.00267E-11-4.80213E-10
 -1       555 1.30316E+05 3.10778E+03 5.40417E+03 1.71032E+05 8.27640E-11-6.23004E-10
 -1       556-2.66108E+03-6.30249E+03-4.86780E+03 2.09602E+05-5.07498E-10 1.75078E-10
 -1       557-6.70895E+02-7.18575E+03-2.50172E+03 2.35611E+05-5.71163E-10 5.12159E-11
 -1       558 4.27855E+00-6.66862E+03-1.33183E+03 2.09411E+05-5.22050E-10-8.61746E-10
 -1       559-7.65320E+01-6.82107E+03-1.15323E+03 2.35474E+05-4.20187E-10 9.36780E-11
 -1       560-6.77730E+02-6.40257E+03-1.54383E+03 2.09738E+05-3.12866E-10-2.92857E-10
 -1       561 1.76840E+05 6.08221E+03 1.03683E+04 1.66353E+05-2.76486E-10-4.20187E-10
 -1       562 1.78439E+05 2.01986E+03 5.31620E+03 1.86721E+05-1.20053E-10 1.61890E-10
 -1       563 1.77378E+05 4.08762E+02 2.72483E+03 1.66048E+05 1.42336E-10 2.70120E-10
 -1       564 1.77635E+05 2.53861E+02 2.10480E+03 1.87021E+05 5.10411E-10-1.18234E-10
 -1       565 1.77395E+05 3.41580E+02 2.43747E+03 1.66049E+05 1.22782E-10-2.88310E-10
 -1       566 1.78305E+05 1.67885E+03 4.51628E+03 1.86711E+05-5.45697E-11-1.74623E-10
 -1       567 1.76985E+05 5.05580E+03 8.68069E+03 1.66362E+05-5.00222E-11 4.32010E-10
 -1       568-4.48125E+03 6.88805E+03-8.46851E+03 2.12334E+05 1.36424E-10-3.82897E-10
 -1       569-1.43313E+03 5.34297E+03-5.52018E+03 2.38663E+05-4.16549E-10 2.38288E-10
 -1       570-6.64709E+02 6.41581E+03-5.16824E+03 2.12133E+05 1.85537E-10-5.15683E-10
 -1       571-2.98075E+03 4.81259E+03-8.67356E+03 2.38543E+05-3.21961E-10 3.38332E-10
 -1       572-9.40466E+03 7.65684E+03-1.62614E+04 2.12453E+05 2.43745E-10-5.42059E-10
 -1       573 1.53165E+05 3.54192E+03 6.15094E+03 1.67592E+05 3.64707E-10 1.00044E-10
 -1       574 1.54080E+05 1.17902E+03 3.28612E+03 1.88143E+05 5.60249E-10-1.30058E-10
 -1       575 1.53418E+05 2.40984E+02 1.93244E+03 1.67297E+05 6.63476E-10-1.81899E-10
 -1       576 1.53637E+05 2.24982E+02 1.94115E+03 1.88432E+05 8.38043E-10-6.78483E-10
 -1       577 1.53397E+05 4.30591E+02 2.82710E+03 1.67301E+05 9.40418E-10-1.94632E-10
 -1       578 1.54572E+05 2.20358E+03 5.77891E+03 1.88103E+05-3.07409E-10 4.91127E-11
 -1       579 1.52808E+05 6.68908E+03 1.14067E+04 1.67630E+05-9.91349E-10-5.82986E-10
 -1       580-4.40653E+03 2.35053E+04-9.03786E+03 2.45601E+05-6.86668E-10-5.09317E-10
 -1       581-1.51450E+03 2.17567E+04-7.12007E+03 2.76015E+05-1.12959E-09-6.33236E-10
 -1       582-1.17730E+03 2.31113E+04-8.54420E+03 2.45351E+05-7.47605E-10-7.09406E-10
 -1       583-5.95785E+03 2.00309E+04-1.63468E+04 2.75915E+05-1.03137E-09-1.20963E-10
 -1       584-1.86576E+04 2.54671E+04-3.18277E+04 2.45702E+05-4.04725E-10-5.65706E-10
 -1       585-1.00117E+04-3.70004E+03-6.01641E+03 1.22952E+05-3.60160E-10 3.86535E-10
 -1       586-1.10541E+04-1.23488E+03-2.90590E+03 1.37855E+05-3.00133E-11 1.00135E-09
 -1       587-1.05650E+04-2.48061E+02-1.17081E+03 1.22668E+05 2.73758E-10 3.89264E-10
 -1       588-1.06793E+04-2.45797E+01-3.24052E+02 1.38156E+05 1.29148E-10 7.71252E-10
 -1       589-1.06837E+04 1.26165E+02 3.65354E+02 1.22654E+05 1.39437E-10 2.85581E-10
 -1       590-1.03959E+04 6.16921E+02 1.36874E+03 1.38005E+05 2.96495E-10-1.42791E-10
 -1       591-1.08585E+04 1.82418E+03 3.00392E+03 1.22820E+05 1.13687E-10-1.88493E-10
 -1       592 2.68052E+02 4.36165E+04 3.96022E+02 3.18109E+05 4.19277E-10 3.54703E-11
 -1       593 7.72658E+02 4.35100E+04 1.70304E+03 3.57411E+05 5.45697E-11 6.77574E-10
 -1       594 1.19985E+03 4.32129E+04 3.72439E+03 3.17741E+05 1.40062E-10 3.04681E-11
 -1       595 4.00261E+03 4.49089E+04 8.53393E+03 3.57358E+05 4.65661E-10-4.00178E-11
 -1       596 1.07129E+04 4.23669E+04 1.72634E+04 3.18159E+05-4.00178E-11-6.34827E-10
 -1       597-4.63516E+04-4.84426E+02-8.38049E+02 8.58080E+04 1.83718E-10-6.42103E-10
 -1       598-4.65233E+04-1.55788E+02-5.85196E+02 9.60664E+04 2.49202E-10 5.36602E-11
 -1       599-4.64880E+04-2.38738E+01-6.14438E+02 8.55520E+04-8.76753E-10-4.45652E-10
 -1       600-4.66320E+04-7.16120E+01-1.03685E+03 9.63468E+04-4.08818E-10-5.63887E-11
 -1       601-4.64849E+04-2.87894E+02-1.94112E+03 8.55279E+04-2.04182E-10 2.97860E-10
 -1       602-4.73203E+04-1.64257E+03-4.28402E+03 9.63117E+04-1.43746E-09 8.98581E-10
 -1       603-4.59045E+04-5.10902E+03-8.63343E+03 8.55886E+04 1.55481E-10-1.81899E-10
 -1       604 8.11535E+02-2.94497E+04 3.57203E+03 1.70567E+05 7.66704E-10-4.41560E-10
 -1       605 1.09299E+03-2.86451E+04 7.06980E+03 1.91690E+05 3.72893E-10-4.12911E-10
 -1       606 2.55044E+03-2.99077E+04 1.38039E+04 1.70390E+05 8.89486E-10 1.65983E-11
 -1       607 1.24120E+04-2.39286E+04 3.08504E+04 1.91616E+05 7.98991E-10 1.84627E-10
 -1       608 3.73145E+04-3.40491E+04 6.23114E+04 1.70642E+05 4.62023E-10-5.24778E-10
 -1       609-6.60570E+04-6.40845E+03-1.09070E+04 1.89439E+05-4.00178E-09 4.98403E-10
 -1       610-6.80112E+04-1.92182E+03-5.46018E+03 2.12397E+05-2.01635E-09 3.72893E-10
 -1       611-6.71195E+04-1.72353E+02-2.60311E+03 1.88995E+05 2.86309E-09-3.12866E-10
 -1       612-6.74883E+04 1.75203E+02-1.64549E+03 2.12864E+05-2.22644E-09 5.02041E-10
 -1       613-6.72907E+04 1.54645E+02-1.46407E+03 1.88972E+05-5.37011E-09-6.91216E-11
 -1       614-6.77147E+04-4.54214E+02-2.29648E+03 2.12634E+05-1.00335E-08 7.56700E-10
 -1       615-6.69227E+04-2.19012E+03-4.22293E+03 1.89227E+05-4.07272E-09-5.01132E-10
 -1       616 2.54139E+03 7.40439E+04 6.44173E+03 1.80764E+05-7.67386E-10-3.07864E-10
 -1       617 1.51145E+03 7.52998E+04 8.01928E+03 2.03173E+05-4.78394E-10-1.25056E-12
 -1       618 2.34164E+03 7.38473E+04 1.32794E+04 1.80590E+05-7.23048E-10 2.27374E-10
 -1       619 1.12280E+04 7.93797E+04 2.84599E+04 2.03073E+05-6.35737E-10 1.80535E-10
 -1       620 3.38942E+04 7.01324E+04 5.69287E+04 1.80882E+05-1.52431E-09 9.91349E-11
 -1       621-1.91042E+04 7.81067E+02 9.83213E+02 1.71884E+05-1.92449E-09-5.42059E-10
 -1       622-1.90812E+04 5.05112E+02 5.46675E+02 1.92839E+05 3.72165E-09-1.28512E-09
 -1       623-1.92520E+04 3.47795E+02 3.38015E+02 1.71532E+05-2.13186E-09-2.82853E-10
 -1       624-1.92895E+04 4.25543E+02 3.70080E+02 1.93199E+05 6.91898E-10 1.26420E-09
 -1       625-1.93022E+04 4.20908E+02 5.56656E+02 1.71524E+05-1.12823E-09-2.21917E-10
 -1       626-1.90644E+04 8.06574E+02 1.15270E+03 1.92925E+05-9.65883E-10-2.00089E-10
 -1       627-1.93201E+04 1.61633E+03 2.26537E+03 1.71806E+05 9.76797E-10-8.64020E-10
 -1       628 1.31983E+03-5.70026E+03 3.81271E+03 2.33989E+05 1.76442E-09-3.44698E-10
 -1       629 8.00404E+02-4.98437E+03 4.94994E+03 2.62964E+05 1.02409E-09-4.81350E-10
 -1       630 1.36890E+03-5.90935E+03 8.33699E+03 2.33748E+05 1.27238E-09-3.87445E-10
 -1       631 6.96353E+03-2.34908E+03 1.79552E+04 2.62867E+05 1.36970E-09 1.70530E-10
 -1       632 2.12314E+04-8.12410E+03 3.59301E+04 2.34107E+05 1.62618E-09-2.00089E-11
 -1       633-7.11537E+03 2.29496E+03 3.59626E+03 1.15077E+05-5.14501E-09-5.99357E-10
 -1       634-6.58982E+03 9.18532E+02 1.84938E+03 1.29171E+05-3.91901E-09 3.27418E-11
 -1       635-6.95042E+03 3.38489E+02 9.55484E+02 1.14868E+05-1.83672E-09-3.31056E-10
 -1       636-6.88038E+03 3.14800E+02 7.52251E+02 1.29380E+05-2.85354E-11-1.69166E-10
 -1       637-6.94556E+03 3.22222E+02 8.87799E+02 1.14869E+05-1.61526E-09-5.24778E-10
 -1       638-6.61967E+03 8.37352E+02 1.66101E+03 1.29165E+05-5.54837E-09 6.31189E-10
 -1       639-7.07913E+03 2.05211E+03 3.19879E+03 1.15083E+05-1.14778E-09 3.26509E-10
 -1       640-1.14856E+02-3.93676E+04 7.81188E+02 1.97432E+05-2.12140E-09 8.95852E-10
 -1       641 7.00615E+01-3.91970E+04 1.89791E+03 2.21877E+05-3.21961E-10 1.71610E-09
 -1       642 5.31874E+02-3.95677E+04 3.86239E+03 1.97228E+05-2.25191E-09 5.31145E-10
 -1       643 3.29418E+03-3.78024E+04 8.71474E+03 2.21798E+05 1.29512E-09-1.04092E-09
 -1       644 1.03095E+04-4.06164E+04 1.76140E+04 1.97523E+05-2.55386E-09-1.45519E-11
 -1       645-2.63235E+03 2.26006E+03 3.69344E+03 6.02556E+04 6.02449E-09-2.01453E-10
 -1       646-2.04623E+03 8.15522E+02 1.92342E+03 6.76789E+04 6.32929E-09 2.68301E-11
 -1       647-2.40161E+03 2.27823E+02 1.04884E+03 6.01642E+04 1.24487E-10-6.10271E-10
 -1       648-2.28835E+03 1.94173E+02 9.23085E+02 6.77674E+04-3.85842E-09 1.89175E-10
 -1       649-2.40175E+03 2.61643E+02 1.21953E+03 6.01687E+04 1.89448E-09-4.62023E-10
 -1       650-1.94303E+03 1.00646E+03 2.39931E+03 6.76331E+04-3.16732E-10-1.68257E-11
 -1       651-2.68918E+03 2.85470E+03 4.69637E+03 6.02969E+04 3.36559E-09-3.10592E-10
 -1       652-4.04937E+02-4.09223E+04-2.44814E+02 1.24353E+05-6.01494E-09-2.86036E-10
 -1       653-1.50001E+02-4.09419E+04 3.71100E+02 1.39749E+05-3.44335E-09-1.16563E-09
 -1       654 8.66074E+01-4.10268E+04 1.14582E+03 1.24225E+05-4.25098E-09 3.26736E-10
 -1       655 9.87186E+02-4.04475E+04 2.77756E+03 1.39699E+05-6.85213E-09 1.08685E-09
 -1       656 3.27300E+03-4.13598E+04 5.69711E+03 1.24406E+05-6.58110E-09 5.53882E-10
 -1       657 5.04665E+02-3.74436E+04 9.80204E+02 5.53311E+04 5.66449E-09-6.64500E-10
 -1       658 1.36709E+02-3.72720E+04 5.76492E+02 6.21896E+04 8.13998E-10 4.75211E-11
 -1       659 2.20114E+01-3.73916E+04 4.39507E+02 5.52783E+04 3.48973E-09-8.19568E-10
 -1       660 1.59823E+02-3.72552E+04 6.31078E+02 6.21581E+04 2.18233E-09-8.65725E-10
 -1       661 5.83126E+02-3.74443E+04 1.11463E+03 5.53627E+04 3.56749E-09 4.03816E-10
 -1       662-6.13605E+05-6.58841E+03-1.10579E+04 1.63110E+05-4.54747E-11 7.13044E-10
 -1       663-6.15465E+05-2.20888E+03-6.06276E+03 1.82856E+05 5.45697E-12 2.70120E-10
 -1       664-6.14553E+05-4.62082E+02-3.92311E+03 1.62724E+05 4.36557E-11 4.30191E-10
 -1       665-6.15109E+05-4.56804E+02-4.49225E+03 1.83271E+05 1.89175E-10 1.89175E-10
 -1       666-6.14505E+05-1.12664E+03-7.14121E+03 1.62702E+05 4.22915E-11 3.23780E-10
 -1       667-6.17306E+05-5.86238E+03-1.50335E+04 1.83080E+05 1.28239E-10 3.90173E-10
 -1       668-6.12407E+05-1.78668E+04-2.99678E+04 1.62909E+05 2.09184E-11 3.14685E-10
 -1       669-3.38192E+05-3.57882E+02-7.42243E+02 1.16097E+05 1.90994E-11 4.27463E-10
 -1       670-3.38331E+05-1.10775E+02-7.66346E+02 1.30261E+05 9.64064E-11 2.81943E-11
 -1       671-3.38301E+05-1.76305E+01-1.15532E+03 1.15863E+05-7.23048E-11 1.27329E-11
 -1       672-3.38529E+05-2.07421E+02-2.26569E+03 1.30500E+05 3.18323E-11-2.00089E-10
 -1       673-3.38170E+05-7.41678E+02-4.42434E+03 1.15858E+05 6.59384E-12 7.63976E-11
 -1       674-3.40012E+05-3.91457E+03-9.87232E+03 1.30310E+05-5.36602E-11 6.24368E-10
 -1       675-3.36739E+05-1.19352E+04-1.99456E+04 1.16049E+05-1.45519E-11 1.41881E-10
 -1       676-9.79161E+04 3.32545E+03 5.48503E+03 1.00242E+05-4.36557E-11 6.36646E-11
 -1       677-9.70433E+04 1.10404E+03 2.49467E+03 1.12492E+05 1.03682E-10-8.36735E-11
 -1       678-9.75843E+04 2.19816E+02 6.65303E+02 1.00047E+05 2.68301E-11 2.97860E-10
 -1       679-9.76066E+04-4.01014E+01-5.92392E+02 1.12687E+05 7.44649E-11-1.05501E-10
 -1       680-9.74642E+04-4.03589E+02-2.12751E+03 1.00046E+05-7.20775E-11-1.93268E-10
 -1       681-9.84600E+04-2.15454E+03-5.28381E+03 1.12511E+05-6.86668E-11-8.50378E-11
 -1       682-9.66505E+04-6.57717E+03-1.09197E+04 1.00221E+05-3.63798E-12 2.80124E-10
 -1       683 1.19772E+05 7.25374E+03 1.21233E+04 9.38391E+04-9.73159E-11 2.84672E-10
 -1       684 1.21719E+05 2.39653E+03 5.92357E+03 1.05324E+05-1.40062E-10-3.91083E-11
 -1       685 1.20559E+05 4.69519E+02 2.48736E+03 9.36647E+04-5.54792E-11-6.32099E-11
 -1       686 1.20728E+05 1.10975E+02 9.29261E+02 1.05496E+05-9.93676E-11-1.71894E-10
 -1       687 1.20680E+05-1.34809E+02-2.06427E+02 9.36648E+04 3.04681E-11 5.13865E-11
 -1       688 1.20364E+05-7.51981E+02-1.57832E+03 1.05323E+05 5.27507E-11 1.14596E-10
 -1       689 1.21008E+05-2.30506E+03-3.69876E+03 9.38373E+04 9.09495E-12 1.67347E-10
 -1       690 3.40254E+05 1.17073E+04 1.96377E+04 9.98670E+04 5.64796E-10 2.67391E-10
 -1       691 3.43412E+05 3.86304E+03 9.76537E+03 1.12110E+05 1.27716E-09-2.21462E-10
 -1       692 3.41546E+05 7.53585E+02 4.45088E+03 9.96906E+04 5.79803E-10 4.78849E-10
 -1       693 3.41910E+05 2.62515E+02 2.43302E+03 1.12281E+05-3.08773E-10 2.57387E-10
 -1       694 3.41684E+05 9.37209E+01 1.52774E+03 9.96931E+04-3.31511E-10 3.27418E-11
 -1       695 3.41958E+05 4.39082E+02 1.62586E+03 1.12086E+05-3.70619E-10 7.00311E-11
 -1       696 3.41615E+05 1.32490E+03 2.46982E+03 9.98865E+04-2.13731E-10 5.09317E-11
 -1       697 5.95184E+05 1.74988E+04 3.01242E+04 1.21827E+05 4.09273E-11 4.09273E-10
 -1       698 6.00038E+05 5.75970E+03 1.64563E+04 1.36814E+05 4.13820E-11 2.27374E-11
 -1       699 5.97057E+05 1.12666E+03 1.04509E+04 1.21632E+05-1.51203E-11-3.79259E-10
 -1       700 5.98440E+05 1.19138E+03 1.16990E+04 1.36995E+05 1.73372E-10 6.43013E-10
 -1       701 5.96732E+05 2.87417E+03 1.83135E+04 1.21639E+05 2.54659E-11 9.11314E-10
 -1       702 6.04053E+05 1.49154E+04 3.83506E+04 1.36731E+05-4.13365E-10 4.62933E-10
 -1       703 5.91657E+05 4.53610E+04 7.63085E+04 1.21923E+05-2.96495E-10-5.16593E-10
 -1       704-9.94408E+05-5.59151E+04-9.39364E+04 7.55837E+04-8.91305E-11 8.36735E-10
 -1       705-1.00973E+06-1.84191E+04-4.73017E+04 8.46952E+04 1.79625E-10 1.98816E-09
 -1       706-1.00083E+06-3.55917E+03-2.27603E+04 7.54059E+04 2.14641E-10 1.63709E-11
 -1       707-1.00300E+06-1.50306E+03-1.48933E+04 8.49233E+04 7.61702E-11 3.63798E-11
 -1       708-1.00126E+06-1.54799E+03-1.38761E+04 7.53882E+04 9.16316E-11-5.86624E-11
 -1       709-1.00532E+06-7.99451E+03-2.25537E+04 8.48693E+04 1.05899E-10-1.36208E-09
 -1       710-9.98568E+05-2.43482E+04-4.17529E+04 7.54578E+04 1.60298E-10-8.33097E-10
 -1       711-8.22435E+05-1.31559E+04-2.23914E+04 4.74782E+04 1.84627E-10 4.68390E-11
 -1       712-8.26042E+05-4.32751E+03-1.18564E+04 5.30352E+04 5.25688E-10-1.69780E-09
 -1       713-8.23940E+05-8.38678E+02-6.86022E+03 4.72829E+04-8.73115E-10 1.59071E-09
 -1       714-8.24745E+05-6.63220E+02-6.70540E+03 5.32641E+04 5.12955E-10-5.63432E-10
 -1       715-8.23851E+05-1.44033E+03-9.63606E+03 4.72539E+04 3.15595E-10-1.06957E-09
 -1       716-8.27521E+05-7.53304E+03-1.95913E+04 5.33171E+04-1.58320E-09 8.84484E-11
 -1       717-8.21265E+05-2.29543E+04-3.87003E+04 4.72412E+04 6.38465E-10-1.07502E-09
 -1       718-6.34495E+05-1.10032E+04-1.88560E+04 1.18936E+05-3.92902E-09 7.71252E-10
 -1       719-6.37608E+05-3.50918E+03-9.94840E+03 1.33308E+05-1.46974E-09-1.92358E-09
 -1       720-6.35882E+05-5.64767E+02-5.70138E+03 1.18617E+05 3.35058E-09-2.46109E-09
 -1       721-6.36601E+05-3.56591E+02-5.48170E+03 1.33651E+05-1.05729E-09-1.38243E-09
 -1       722-6.35864E+05-9.88319E+02-7.79044E+03 1.18593E+05-4.35466E-09-6.22094E-10
 -1       723-6.38834E+05-5.86563E+03-1.57729E+04 1.33552E+05-8.48864E-09 1.36765E-09
 -1       724-6.33754E+05-1.83050E+04-3.11317E+04 1.18730E+05-3.30328E-09-2.36469E-10
 -1       725-3.92119E+05-2.90147E+03-5.32717E+03 1.13422E+05-1.07684E-09-2.41289E-09
 -1       726-3.93029E+05-7.90822E+02-3.03106E+03 1.27276E+05 4.46971E-09-3.26418E-09
 -1       727-3.92545E+05 7.33739E+00-2.15888E+03 1.13181E+05-1.87993E-09-9.61336E-10
 -1       728-3.92882E+05-3.09813E+01-2.75613E+03 1.27523E+05 2.40482E-09-1.33332E-09
 -1       729-3.92458E+05-5.32716E+02-4.62685E+03 1.13174E+05 7.92852E-10-1.94086E-09
 -1       730-3.94323E+05-3.64999E+03-9.90665E+03 1.27351E+05-3.56977E-10-1.95178E-09
 -1       731-3.91054E+05-1.16259E+04-1.98259E+04 1.13363E+05 1.83445E-09-1.66801E-09
 -1       732-1.87229E+05 1.33075E+03 1.92160E+03 7.53960E+04-6.32190E-09-9.25866E-10
 -1       733-1.86930E+05 5.47049E+02 7.54783E+02 8.46774E+04-2.16210E-09-1.38198E-09
 -1       734-1.87107E+05 2.09402E+02-6.07023E+01 7.52698E+04-2.44768E-09-1.13050E-09
 -1       735-1.87182E+05 6.69807E+01-8.54176E+02 8.48015E+04 4.75438E-10-1.60526E-09
 -1       736-1.87012E+05-2.38927E+02-2.04315E+03 7.52735E+04 1.09048E-09-1.31558E-09
 -1       737-1.87913E+05-1.77717E+03-4.76606E+03 8.46472E+04-6.17001E-09-3.54703E-10
 -1       738-1.86303E+05-5.71290E+03-9.72291E+03 7.54290E+04 2.14959E-09-1.67529E-09
 -1       739-5.79317E+04 2.43414E+03 3.97425E+03 3.59257E+04 6.78972E-09-1.86969E-09
 -1       740-5.72842E+04 8.44323E+02 1.94493E+03 4.03919E+04 7.43313E-09-1.44109E-09
 -1       741-5.76593E+04 2.03841E+02 8.24537E+02 3.58858E+04 2.14709E-09-8.66748E-10
 -1       742-5.75947E+04 9.16650E+01 3.25175E+02 4.04280E+04-1.30524E-09-1.55455E-09
 -1       743-5.76153E+04 9.66192E+00-2.55493E+01 3.58919E+04 1.26238E-09-1.37425E-09
 -1       744-5.76982E+04-1.56016E+02-4.22146E+02 4.03311E+04-1.75010E-09-1.16506E-09
 -1       745-5.75253E+04-5.90989E+02-1.01875E+03 3.59833E+04 5.16138E-09-1.20690E-09
 -3
 9999
