    1C
    1UUSER                                                              
    1UDATE              11.october.2022                                 
    1UTIME              19:15:11                                        
    1UHOST                                                              
    1UPGM               CalculiX                                        
    1UVERSION           Version 2.20                             
    1UCOMPILETIME       Sun Jul 31 18:08:37 CEST 2022                    
    1UDIR                                                               
    1UDBN                                                               
    1UMAT    1MESH_MATERIAL                                             
    2C                           409                                     1
 -1         1 0.00000E+00 0.00000E+00 0.00000E+00
 -1         2 1.66667E-02 0.00000E+00 0.00000E+00
 -1         3 3.33333E-02 0.00000E+00 0.00000E+00
 -1         5 6.66667E-02 0.00000E+00 0.00000E+00
 -1         8 0.00000E+00 6.25000E-03 0.00000E+00
 -1         9 1.66667E-02 6.25000E-03 0.00000E+00
 -1        10 3.33333E-02 6.25000E-03 0.00000E+00
 -1        12 6.66667E-02 6.25000E-03 0.00000E+00
 -1        15 0.00000E+00 1.25000E-02 0.00000E+00
 -1        16 1.66667E-02 1.25000E-02 0.00000E+00
 -1        17 3.33333E-02 1.25000E-02 0.00000E+00
 -1        18 5.00000E-02 1.25000E-02 0.00000E+00
 -1        19 6.66667E-02 1.25000E-02 0.00000E+00
 -1        20 8.33333E-02 1.25000E-02 0.00000E+00
 -1        21 1.00000E-01 1.25000E-02 0.00000E+00
 -1        24 3.33333E-02 1.87500E-02 0.00000E+00
 -1        25 5.00000E-02 1.87500E-02 0.00000E+00
 -1        26 6.66667E-02 1.87500E-02 0.00000E+00
 -1        27 8.33333E-02 1.87500E-02 0.00000E+00
 -1        28 1.00000E-01 1.87500E-02 0.00000E+00
 -1        32 5.00000E-02 2.50000E-02 0.00000E+00
 -1        33 6.66667E-02 2.50000E-02 0.00000E+00
 -1        34 8.33333E-02 2.50000E-02 0.00000E+00
 -1        35 1.00000E-01 2.50000E-02 0.00000E+00
 -1        51 0.00000E+00 1.04167E-03 0.00000E+00
 -1        52 0.00000E+00 2.08333E-03 0.00000E+00
 -1        53 0.00000E+00 3.12500E-03 0.00000E+00
 -1        54 0.00000E+00 4.16667E-03 0.00000E+00
 -1        55 0.00000E+00 5.20833E-03 0.00000E+00
 -1        56 1.04167E-03 3.90630E-04 0.00000E+00
 -1        57 2.08333E-03 7.81250E-04 0.00000E+00
 -1        58 3.12500E-03 1.17188E-03 0.00000E+00
 -1        59 4.16667E-03 1.56250E-03 0.00000E+00
 -1        60 5.20833E-03 1.95312E-03 0.00000E+00
 -1        61 6.25000E-03 2.34375E-03 0.00000E+00
 -1        62 7.29167E-03 2.73438E-03 0.00000E+00
 -1        63 8.33333E-03 3.12500E-03 0.00000E+00
 -1        64 9.37500E-03 3.51563E-03 0.00000E+00
 -1        65 1.04167E-02 3.90625E-03 0.00000E+00
 -1        66 1.14583E-02 4.29688E-03 0.00000E+00
 -1        67 1.25000E-02 4.68750E-03 0.00000E+00
 -1        68 1.35417E-02 5.07813E-03 0.00000E+00
 -1        69 1.45833E-02 5.46875E-03 0.00000E+00
 -1        70 1.56250E-02 5.85938E-03 0.00000E+00
 -1        86 1.66667E-02 1.04167E-03 0.00000E+00
 -1        87 1.66667E-02 2.08333E-03 0.00000E+00
 -1        88 1.66667E-02 3.12500E-03 0.00000E+00
 -1        89 1.66667E-02 4.16667E-03 0.00000E+00
 -1        90 1.66667E-02 5.20833E-03 0.00000E+00
 -1       121 3.33333E-02 1.04167E-03 0.00000E+00
 -1       122 3.33333E-02 2.08333E-03 0.00000E+00
 -1       123 3.33333E-02 3.12500E-03 0.00000E+00
 -1       124 3.33333E-02 4.16667E-03 0.00000E+00
 -1       125 3.33333E-02 5.20833E-03 0.00000E+00
 -1       191 6.66667E-02 1.04167E-03 0.00000E+00
 -1       192 6.66667E-02 2.08333E-03 0.00000E+00
 -1       193 6.66667E-02 3.12500E-03 0.00000E+00
 -1       194 6.66667E-02 4.16667E-03 0.00000E+00
 -1       195 6.66667E-02 5.20833E-03 0.00000E+00
 -1       251 1.04167E-03 6.25000E-03 0.00000E+00
 -1       252 2.08333E-03 6.25000E-03 0.00000E+00
 -1       253 3.12500E-03 6.25000E-03 0.00000E+00
 -1       254 4.16667E-03 6.25000E-03 0.00000E+00
 -1       255 5.20833E-03 6.25000E-03 0.00000E+00
 -1       256 6.25000E-03 6.25000E-03 0.00000E+00
 -1       257 7.29167E-03 6.25000E-03 0.00000E+00
 -1       258 8.33333E-03 6.25000E-03 0.00000E+00
 -1       259 9.37500E-03 6.25000E-03 0.00000E+00
 -1       260 1.04167E-02 6.25000E-03 0.00000E+00
 -1       261 1.14583E-02 6.25000E-03 0.00000E+00
 -1       262 1.25000E-02 6.25000E-03 0.00000E+00
 -1       263 1.35417E-02 6.25000E-03 0.00000E+00
 -1       264 1.45833E-02 6.25000E-03 0.00000E+00
 -1       265 1.56250E-02 6.25000E-03 0.00000E+00
 -1       266 0.00000E+00 7.29167E-03 0.00000E+00
 -1       267 0.00000E+00 8.33333E-03 0.00000E+00
 -1       268 0.00000E+00 9.37500E-03 0.00000E+00
 -1       269 0.00000E+00 1.04167E-02 0.00000E+00
 -1       270 0.00000E+00 1.14583E-02 0.00000E+00
 -1       271 1.04167E-03 6.64063E-03 0.00000E+00
 -1       272 2.08333E-03 7.03125E-03 0.00000E+00
 -1       273 3.12500E-03 7.42188E-03 0.00000E+00
 -1       274 4.16667E-03 7.81250E-03 0.00000E+00
 -1       275 5.20833E-03 8.20313E-03 0.00000E+00
 -1       276 6.25000E-03 8.59375E-03 0.00000E+00
 -1       277 7.29167E-03 8.98438E-03 0.00000E+00
 -1       278 8.33333E-03 9.37500E-03 0.00000E+00
 -1       279 9.37500E-03 9.76562E-03 0.00000E+00
 -1       280 1.04167E-02 1.01562E-02 0.00000E+00
 -1       281 1.14583E-02 1.05469E-02 0.00000E+00
 -1       282 1.25000E-02 1.09375E-02 0.00000E+00
 -1       283 1.35417E-02 1.13281E-02 0.00000E+00
 -1       284 1.45833E-02 1.17188E-02 0.00000E+00
 -1       285 1.56250E-02 1.21094E-02 0.00000E+00
 -1       301 1.66667E-02 7.29167E-03 0.00000E+00
 -1       302 1.66667E-02 8.33333E-03 0.00000E+00
 -1       303 1.66667E-02 9.37500E-03 0.00000E+00
 -1       304 1.66667E-02 1.04167E-02 0.00000E+00
 -1       305 1.66667E-02 1.14583E-02 0.00000E+00
 -1       306 1.77083E-02 6.64063E-03 0.00000E+00
 -1       307 1.87500E-02 7.03125E-03 0.00000E+00
 -1       308 1.97917E-02 7.42188E-03 0.00000E+00
 -1       309 2.08333E-02 7.81250E-03 0.00000E+00
 -1       310 2.18750E-02 8.20313E-03 0.00000E+00
 -1       311 2.29167E-02 8.59375E-03 0.00000E+00
 -1       312 2.39583E-02 8.98438E-03 0.00000E+00
 -1       313 2.50000E-02 9.37500E-03 0.00000E+00
 -1       314 2.60417E-02 9.76562E-03 0.00000E+00
 -1       315 2.70833E-02 1.01562E-02 0.00000E+00
 -1       316 2.81250E-02 1.05469E-02 0.00000E+00
 -1       317 2.91667E-02 1.09375E-02 0.00000E+00
 -1       318 3.02083E-02 1.13281E-02 0.00000E+00
 -1       319 3.12500E-02 1.17188E-02 0.00000E+00
 -1       320 3.22917E-02 1.21094E-02 0.00000E+00
 -1       336 3.33333E-02 7.29167E-03 0.00000E+00
 -1       337 3.33333E-02 8.33333E-03 0.00000E+00
 -1       338 3.33333E-02 9.37500E-03 0.00000E+00
 -1       339 3.33333E-02 1.04167E-02 0.00000E+00
 -1       340 3.33333E-02 1.14583E-02 0.00000E+00
 -1       406 6.66667E-02 7.29167E-03 0.00000E+00
 -1       407 6.66667E-02 8.33333E-03 0.00000E+00
 -1       408 6.66667E-02 9.37500E-03 0.00000E+00
 -1       409 6.66667E-02 1.04167E-02 0.00000E+00
 -1       410 6.66667E-02 1.14583E-02 0.00000E+00
 -1       521 1.77083E-02 1.28906E-02 0.00000E+00
 -1       522 1.87500E-02 1.32813E-02 0.00000E+00
 -1       523 1.97917E-02 1.36719E-02 0.00000E+00
 -1       524 2.08333E-02 1.40625E-02 0.00000E+00
 -1       525 2.18750E-02 1.44531E-02 0.00000E+00
 -1       526 2.29167E-02 1.48437E-02 0.00000E+00
 -1       527 2.39583E-02 1.52344E-02 0.00000E+00
 -1       528 2.50000E-02 1.56250E-02 0.00000E+00
 -1       529 2.60417E-02 1.60156E-02 0.00000E+00
 -1       530 2.70833E-02 1.64062E-02 0.00000E+00
 -1       531 2.81250E-02 1.67969E-02 0.00000E+00
 -1       532 2.91667E-02 1.71875E-02 0.00000E+00
 -1       533 3.02083E-02 1.75781E-02 0.00000E+00
 -1       534 3.12500E-02 1.79687E-02 0.00000E+00
 -1       535 3.22917E-02 1.83594E-02 0.00000E+00
 -1       536 3.43750E-02 1.25000E-02 0.00000E+00
 -1       537 3.54167E-02 1.25000E-02 0.00000E+00
 -1       538 3.64583E-02 1.25000E-02 0.00000E+00
 -1       539 3.75000E-02 1.25000E-02 0.00000E+00
 -1       540 3.85417E-02 1.25000E-02 0.00000E+00
 -1       541 3.95833E-02 1.25000E-02 0.00000E+00
 -1       542 4.06250E-02 1.25000E-02 0.00000E+00
 -1       543 4.16667E-02 1.25000E-02 0.00000E+00
 -1       544 4.27083E-02 1.25000E-02 0.00000E+00
 -1       545 4.37500E-02 1.25000E-02 0.00000E+00
 -1       546 4.47917E-02 1.25000E-02 0.00000E+00
 -1       547 4.58333E-02 1.25000E-02 0.00000E+00
 -1       548 4.68750E-02 1.25000E-02 0.00000E+00
 -1       549 4.79167E-02 1.25000E-02 0.00000E+00
 -1       550 4.89583E-02 1.25000E-02 0.00000E+00
 -1       551 3.33333E-02 1.35417E-02 0.00000E+00
 -1       552 3.33333E-02 1.45833E-02 0.00000E+00
 -1       553 3.33333E-02 1.56250E-02 0.00000E+00
 -1       554 3.33333E-02 1.66667E-02 0.00000E+00
 -1       555 3.33333E-02 1.77083E-02 0.00000E+00
 -1       556 3.43750E-02 1.28906E-02 0.00000E+00
 -1       557 3.54167E-02 1.32813E-02 0.00000E+00
 -1       558 3.64583E-02 1.36719E-02 0.00000E+00
 -1       559 3.75000E-02 1.40625E-02 0.00000E+00
 -1       560 3.85417E-02 1.44531E-02 0.00000E+00
 -1       561 3.95833E-02 1.48437E-02 0.00000E+00
 -1       562 4.06250E-02 1.52344E-02 0.00000E+00
 -1       563 4.16667E-02 1.56250E-02 0.00000E+00
 -1       564 4.27083E-02 1.60156E-02 0.00000E+00
 -1       565 4.37500E-02 1.64062E-02 0.00000E+00
 -1       566 4.47917E-02 1.67969E-02 0.00000E+00
 -1       567 4.58333E-02 1.71875E-02 0.00000E+00
 -1       568 4.68750E-02 1.75781E-02 0.00000E+00
 -1       569 4.79167E-02 1.79687E-02 0.00000E+00
 -1       570 4.89583E-02 1.83594E-02 0.00000E+00
 -1       571 5.10417E-02 1.25000E-02 0.00000E+00
 -1       572 5.20833E-02 1.25000E-02 0.00000E+00
 -1       573 5.31250E-02 1.25000E-02 0.00000E+00
 -1       574 5.41667E-02 1.25000E-02 0.00000E+00
 -1       575 5.52083E-02 1.25000E-02 0.00000E+00
 -1       576 5.62500E-02 1.25000E-02 0.00000E+00
 -1       577 5.72917E-02 1.25000E-02 0.00000E+00
 -1       578 5.83333E-02 1.25000E-02 0.00000E+00
 -1       579 5.93750E-02 1.25000E-02 0.00000E+00
 -1       580 6.04167E-02 1.25000E-02 0.00000E+00
 -1       581 6.14583E-02 1.25000E-02 0.00000E+00
 -1       582 6.25000E-02 1.25000E-02 0.00000E+00
 -1       583 6.35417E-02 1.25000E-02 0.00000E+00
 -1       584 6.45833E-02 1.25000E-02 0.00000E+00
 -1       585 6.56250E-02 1.25000E-02 0.00000E+00
 -1       586 5.00000E-02 1.35417E-02 0.00000E+00
 -1       587 5.00000E-02 1.45833E-02 0.00000E+00
 -1       588 5.00000E-02 1.56250E-02 0.00000E+00
 -1       589 5.00000E-02 1.66667E-02 0.00000E+00
 -1       590 5.00000E-02 1.77083E-02 0.00000E+00
 -1       591 5.10417E-02 1.28906E-02 0.00000E+00
 -1       592 5.20833E-02 1.32813E-02 0.00000E+00
 -1       593 5.31250E-02 1.36719E-02 0.00000E+00
 -1       594 5.41667E-02 1.40625E-02 0.00000E+00
 -1       595 5.52083E-02 1.44531E-02 0.00000E+00
 -1       596 5.62500E-02 1.48437E-02 0.00000E+00
 -1       597 5.72917E-02 1.52344E-02 0.00000E+00
 -1       598 5.83333E-02 1.56250E-02 0.00000E+00
 -1       599 5.93750E-02 1.60156E-02 0.00000E+00
 -1       600 6.04167E-02 1.64062E-02 0.00000E+00
 -1       601 6.14583E-02 1.67969E-02 0.00000E+00
 -1       602 6.25000E-02 1.71875E-02 0.00000E+00
 -1       603 6.35417E-02 1.75781E-02 0.00000E+00
 -1       604 6.45833E-02 1.79687E-02 0.00000E+00
 -1       605 6.56250E-02 1.83594E-02 0.00000E+00
 -1       606 6.77083E-02 1.25000E-02 0.00000E+00
 -1       607 6.87500E-02 1.25000E-02 0.00000E+00
 -1       608 6.97917E-02 1.25000E-02 0.00000E+00
 -1       609 7.08333E-02 1.25000E-02 0.00000E+00
 -1       610 7.18750E-02 1.25000E-02 0.00000E+00
 -1       611 7.29167E-02 1.25000E-02 0.00000E+00
 -1       612 7.39583E-02 1.25000E-02 0.00000E+00
 -1       613 7.50000E-02 1.25000E-02 0.00000E+00
 -1       614 7.60417E-02 1.25000E-02 0.00000E+00
 -1       615 7.70833E-02 1.25000E-02 0.00000E+00
 -1       616 7.81250E-02 1.25000E-02 0.00000E+00
 -1       617 7.91667E-02 1.25000E-02 0.00000E+00
 -1       618 8.02083E-02 1.25000E-02 0.00000E+00
 -1       619 8.12500E-02 1.25000E-02 0.00000E+00
 -1       620 8.22917E-02 1.25000E-02 0.00000E+00
 -1       621 6.66667E-02 1.35417E-02 0.00000E+00
 -1       622 6.66667E-02 1.45833E-02 0.00000E+00
 -1       623 6.66667E-02 1.56250E-02 0.00000E+00
 -1       624 6.66667E-02 1.66667E-02 0.00000E+00
 -1       625 6.66667E-02 1.77083E-02 0.00000E+00
 -1       626 6.77083E-02 1.28906E-02 0.00000E+00
 -1       627 6.87500E-02 1.32813E-02 0.00000E+00
 -1       628 6.97917E-02 1.36719E-02 0.00000E+00
 -1       629 7.08333E-02 1.40625E-02 0.00000E+00
 -1       630 7.18750E-02 1.44531E-02 0.00000E+00
 -1       631 7.29167E-02 1.48437E-02 0.00000E+00
 -1       632 7.39583E-02 1.52344E-02 0.00000E+00
 -1       633 7.50000E-02 1.56250E-02 0.00000E+00
 -1       634 7.60417E-02 1.60156E-02 0.00000E+00
 -1       635 7.70833E-02 1.64062E-02 0.00000E+00
 -1       636 7.81250E-02 1.67969E-02 0.00000E+00
 -1       637 7.91667E-02 1.71875E-02 0.00000E+00
 -1       638 8.02083E-02 1.75781E-02 0.00000E+00
 -1       639 8.12500E-02 1.79687E-02 0.00000E+00
 -1       640 8.22917E-02 1.83594E-02 0.00000E+00
 -1       656 8.33333E-02 1.35417E-02 0.00000E+00
 -1       657 8.33333E-02 1.45833E-02 0.00000E+00
 -1       658 8.33333E-02 1.56250E-02 0.00000E+00
 -1       659 8.33333E-02 1.66667E-02 0.00000E+00
 -1       660 8.33333E-02 1.77083E-02 0.00000E+00
 -1       661 8.43750E-02 1.28906E-02 0.00000E+00
 -1       662 8.54167E-02 1.32813E-02 0.00000E+00
 -1       663 8.64583E-02 1.36719E-02 0.00000E+00
 -1       664 8.75000E-02 1.40625E-02 0.00000E+00
 -1       665 8.85417E-02 1.44531E-02 0.00000E+00
 -1       666 8.95833E-02 1.48437E-02 0.00000E+00
 -1       667 9.06250E-02 1.52344E-02 0.00000E+00
 -1       668 9.16667E-02 1.56250E-02 0.00000E+00
 -1       669 9.27083E-02 1.60156E-02 0.00000E+00
 -1       670 9.37500E-02 1.64062E-02 0.00000E+00
 -1       671 9.47917E-02 1.67969E-02 0.00000E+00
 -1       672 9.58333E-02 1.71875E-02 0.00000E+00
 -1       673 9.68750E-02 1.75781E-02 0.00000E+00
 -1       674 9.79167E-02 1.79687E-02 0.00000E+00
 -1       675 9.89583E-02 1.83594E-02 0.00000E+00
 -1       676 1.00000E-01 1.35417E-02 0.00000E+00
 -1       677 1.00000E-01 1.45833E-02 0.00000E+00
 -1       678 1.00000E-01 1.56250E-02 0.00000E+00
 -1       679 1.00000E-01 1.66667E-02 0.00000E+00
 -1       680 1.00000E-01 1.77083E-02 0.00000E+00
 -1       771 3.43750E-02 1.91406E-02 0.00000E+00
 -1       772 3.54167E-02 1.95312E-02 0.00000E+00
 -1       773 3.64583E-02 1.99219E-02 0.00000E+00
 -1       774 3.75000E-02 2.03125E-02 0.00000E+00
 -1       775 3.85417E-02 2.07031E-02 0.00000E+00
 -1       776 3.95833E-02 2.10938E-02 0.00000E+00
 -1       777 4.06250E-02 2.14844E-02 0.00000E+00
 -1       778 4.16667E-02 2.18750E-02 0.00000E+00
 -1       779 4.27083E-02 2.22656E-02 0.00000E+00
 -1       780 4.37500E-02 2.26563E-02 0.00000E+00
 -1       781 4.47917E-02 2.30469E-02 0.00000E+00
 -1       782 4.58333E-02 2.34375E-02 0.00000E+00
 -1       783 4.68750E-02 2.38281E-02 0.00000E+00
 -1       784 4.79167E-02 2.42187E-02 0.00000E+00
 -1       785 4.89583E-02 2.46094E-02 0.00000E+00
 -1       786 5.10417E-02 1.87500E-02 0.00000E+00
 -1       787 5.20833E-02 1.87500E-02 0.00000E+00
 -1       788 5.31250E-02 1.87500E-02 0.00000E+00
 -1       789 5.41667E-02 1.87500E-02 0.00000E+00
 -1       790 5.52083E-02 1.87500E-02 0.00000E+00
 -1       791 5.62500E-02 1.87500E-02 0.00000E+00
 -1       792 5.72917E-02 1.87500E-02 0.00000E+00
 -1       793 5.83333E-02 1.87500E-02 0.00000E+00
 -1       794 5.93750E-02 1.87500E-02 0.00000E+00
 -1       795 6.04167E-02 1.87500E-02 0.00000E+00
 -1       796 6.14583E-02 1.87500E-02 0.00000E+00
 -1       797 6.25000E-02 1.87500E-02 0.00000E+00
 -1       798 6.35417E-02 1.87500E-02 0.00000E+00
 -1       799 6.45833E-02 1.87500E-02 0.00000E+00
 -1       800 6.56250E-02 1.87500E-02 0.00000E+00
 -1       801 5.00000E-02 1.97917E-02 0.00000E+00
 -1       802 5.00000E-02 2.08333E-02 0.00000E+00
 -1       803 5.00000E-02 2.18750E-02 0.00000E+00
 -1       804 5.00000E-02 2.29167E-02 0.00000E+00
 -1       805 5.00000E-02 2.39583E-02 0.00000E+00
 -1       806 5.10417E-02 1.91406E-02 0.00000E+00
 -1       807 5.20833E-02 1.95312E-02 0.00000E+00
 -1       808 5.31250E-02 1.99219E-02 0.00000E+00
 -1       809 5.41667E-02 2.03125E-02 0.00000E+00
 -1       810 5.52083E-02 2.07031E-02 0.00000E+00
 -1       811 5.62500E-02 2.10938E-02 0.00000E+00
 -1       812 5.72917E-02 2.14844E-02 0.00000E+00
 -1       813 5.83333E-02 2.18750E-02 0.00000E+00
 -1       814 5.93750E-02 2.22656E-02 0.00000E+00
 -1       815 6.04167E-02 2.26563E-02 0.00000E+00
 -1       816 6.14583E-02 2.30469E-02 0.00000E+00
 -1       817 6.25000E-02 2.34375E-02 0.00000E+00
 -1       818 6.35417E-02 2.38281E-02 0.00000E+00
 -1       819 6.45833E-02 2.42187E-02 0.00000E+00
 -1       820 6.56250E-02 2.46094E-02 0.00000E+00
 -1       821 6.77083E-02 1.87500E-02 0.00000E+00
 -1       822 6.87500E-02 1.87500E-02 0.00000E+00
 -1       823 6.97917E-02 1.87500E-02 0.00000E+00
 -1       824 7.08333E-02 1.87500E-02 0.00000E+00
 -1       825 7.18750E-02 1.87500E-02 0.00000E+00
 -1       826 7.29167E-02 1.87500E-02 0.00000E+00
 -1       827 7.39583E-02 1.87500E-02 0.00000E+00
 -1       828 7.50000E-02 1.87500E-02 0.00000E+00
 -1       829 7.60417E-02 1.87500E-02 0.00000E+00
 -1       830 7.70833E-02 1.87500E-02 0.00000E+00
 -1       831 7.81250E-02 1.87500E-02 0.00000E+00
 -1       832 7.91667E-02 1.87500E-02 0.00000E+00
 -1       833 8.02083E-02 1.87500E-02 0.00000E+00
 -1       834 8.12500E-02 1.87500E-02 0.00000E+00
 -1       835 8.22917E-02 1.87500E-02 0.00000E+00
 -1       836 6.66667E-02 1.97917E-02 0.00000E+00
 -1       837 6.66667E-02 2.08333E-02 0.00000E+00
 -1       838 6.66667E-02 2.18750E-02 0.00000E+00
 -1       839 6.66667E-02 2.29167E-02 0.00000E+00
 -1       840 6.66667E-02 2.39583E-02 0.00000E+00
 -1       856 8.43750E-02 1.87500E-02 0.00000E+00
 -1       857 8.54167E-02 1.87500E-02 0.00000E+00
 -1       858 8.64583E-02 1.87500E-02 0.00000E+00
 -1       859 8.75000E-02 1.87500E-02 0.00000E+00
 -1       860 8.85417E-02 1.87500E-02 0.00000E+00
 -1       861 8.95833E-02 1.87500E-02 0.00000E+00
 -1       862 9.06250E-02 1.87500E-02 0.00000E+00
 -1       863 9.16667E-02 1.87500E-02 0.00000E+00
 -1       864 9.27083E-02 1.87500E-02 0.00000E+00
 -1       865 9.37500E-02 1.87500E-02 0.00000E+00
 -1       866 9.47917E-02 1.87500E-02 0.00000E+00
 -1       867 9.58333E-02 1.87500E-02 0.00000E+00
 -1       868 9.68750E-02 1.87500E-02 0.00000E+00
 -1       869 9.79167E-02 1.87500E-02 0.00000E+00
 -1       870 9.89583E-02 1.87500E-02 0.00000E+00
 -1       871 8.33333E-02 1.97917E-02 0.00000E+00
 -1       872 8.33333E-02 2.08333E-02 0.00000E+00
 -1       873 8.33333E-02 2.18750E-02 0.00000E+00
 -1       874 8.33333E-02 2.29167E-02 0.00000E+00
 -1       875 8.33333E-02 2.39583E-02 0.00000E+00
 -1       876 8.43750E-02 1.91406E-02 0.00000E+00
 -1       877 8.54167E-02 1.95312E-02 0.00000E+00
 -1       878 8.64583E-02 1.99219E-02 0.00000E+00
 -1       879 8.75000E-02 2.03125E-02 0.00000E+00
 -1       880 8.85417E-02 2.07031E-02 0.00000E+00
 -1       881 8.95833E-02 2.10938E-02 0.00000E+00
 -1       882 9.06250E-02 2.14844E-02 0.00000E+00
 -1       883 9.16667E-02 2.18750E-02 0.00000E+00
 -1       884 9.27083E-02 2.22656E-02 0.00000E+00
 -1       885 9.37500E-02 2.26563E-02 0.00000E+00
 -1       886 9.47917E-02 2.30469E-02 0.00000E+00
 -1       887 9.58333E-02 2.34375E-02 0.00000E+00
 -1       888 9.68750E-02 2.38281E-02 0.00000E+00
 -1       889 9.79167E-02 2.42187E-02 0.00000E+00
 -1       890 9.89583E-02 2.46094E-02 0.00000E+00
 -1       891 1.00000E-01 1.97917E-02 0.00000E+00
 -1       892 1.00000E-01 2.08333E-02 0.00000E+00
 -1       893 1.00000E-01 2.18750E-02 0.00000E+00
 -1       894 1.00000E-01 2.29167E-02 0.00000E+00
 -1       895 1.00000E-01 2.39583E-02 0.00000E+00
 -1       956 6.77083E-02 2.50000E-02 0.00000E+00
 -1       957 6.87500E-02 2.50000E-02 0.00000E+00
 -1       958 6.97917E-02 2.50000E-02 0.00000E+00
 -1       959 7.08333E-02 2.50000E-02 0.00000E+00
 -1       960 7.18750E-02 2.50000E-02 0.00000E+00
 -1       961 7.29167E-02 2.50000E-02 0.00000E+00
 -1       962 7.39583E-02 2.50000E-02 0.00000E+00
 -1       963 7.50000E-02 2.50000E-02 0.00000E+00
 -1       964 7.60417E-02 2.50000E-02 0.00000E+00
 -1       965 7.70833E-02 2.50000E-02 0.00000E+00
 -1       966 7.81250E-02 2.50000E-02 0.00000E+00
 -1       967 7.91667E-02 2.50000E-02 0.00000E+00
 -1       968 8.02083E-02 2.50000E-02 0.00000E+00
 -1       969 8.12500E-02 2.50000E-02 0.00000E+00
 -1       970 8.22917E-02 2.50000E-02 0.00000E+00
 -1       971 8.43750E-02 2.50000E-02 0.00000E+00
 -1       972 8.54167E-02 2.50000E-02 0.00000E+00
 -1       973 8.64583E-02 2.50000E-02 0.00000E+00
 -1       974 8.75000E-02 2.50000E-02 0.00000E+00
 -1       975 8.85417E-02 2.50000E-02 0.00000E+00
 -1       976 8.95833E-02 2.50000E-02 0.00000E+00
 -1       977 9.06250E-02 2.50000E-02 0.00000E+00
 -1       978 9.16667E-02 2.50000E-02 0.00000E+00
 -1       979 9.27083E-02 2.50000E-02 0.00000E+00
 -1       980 9.37500E-02 2.50000E-02 0.00000E+00
 -1       981 9.47917E-02 2.50000E-02 0.00000E+00
 -1       982 9.58333E-02 2.50000E-02 0.00000E+00
 -1       983 9.68750E-02 2.50000E-02 0.00000E+00
 -1       984 9.79167E-02 2.50000E-02 0.00000E+00
 -1       985 9.89583E-02 2.50000E-02 0.00000E+00
 -3
    3C                           211                                     1
 -1         1   12    0    1
 -2         1        52        51
 -1         2   12    0    1
 -2        52        54        53
 -1         3   12    0    1
 -2        54         8        55
 -1         4   12    0    1
 -2         1        57        56
 -1         5   12    0    1
 -2        57        59        58
 -1         6   12    0    1
 -2        59        61        60
 -1         7   12    0    1
 -2        61        63        62
 -1         8   12    0    1
 -2        63        65        64
 -1         9   12    0    1
 -2        65        67        66
 -1        10   12    0    1
 -2        67        69        68
 -1        11   12    0    1
 -2        69         9        70
 -1        12   12    0    1
 -2         2        87        86
 -1        13   12    0    1
 -2        87        89        88
 -1        14   12    0    1
 -2        89         9        90
 -1        15   12    0    1
 -2         3       122       121
 -1        16   12    0    1
 -2       122       124       123
 -1        17   12    0    1
 -2       124        10       125
 -1        18   12    0    1
 -2         5       192       191
 -1        19   12    0    1
 -2       192       194       193
 -1        20   12    0    1
 -2       194        12       195
 -1        21   12    0    1
 -2         8       252       251
 -1        22   12    0    1
 -2       252       254       253
 -1        23   12    0    1
 -2       254       256       255
 -1        24   12    0    1
 -2       256       258       257
 -1        25   12    0    1
 -2       258       260       259
 -1        26   12    0    1
 -2       260       262       261
 -1        27   12    0    1
 -2       262       264       263
 -1        28   12    0    1
 -2       264         9       265
 -1        29   12    0    1
 -2         8       267       266
 -1        30   12    0    1
 -2       267       269       268
 -1        31   12    0    1
 -2       269        15       270
 -1        32   12    0    1
 -2         8       272       271
 -1        33   12    0    1
 -2       272       274       273
 -1        34   12    0    1
 -2       274       276       275
 -1        35   12    0    1
 -2       276       278       277
 -1        36   12    0    1
 -2       278       280       279
 -1        37   12    0    1
 -2       280       282       281
 -1        38   12    0    1
 -2       282       284       283
 -1        39   12    0    1
 -2       284        16       285
 -1        40   12    0    1
 -2         9       302       301
 -1        41   12    0    1
 -2       302       304       303
 -1        42   12    0    1
 -2       304        16       305
 -1        43   12    0    1
 -2         9       307       306
 -1        44   12    0    1
 -2       307       309       308
 -1        45   12    0    1
 -2       309       311       310
 -1        46   12    0    1
 -2       311       313       312
 -1        47   12    0    1
 -2       313       315       314
 -1        48   12    0    1
 -2       315       317       316
 -1        49   12    0    1
 -2       317       319       318
 -1        50   12    0    1
 -2       319        17       320
 -1        51   12    0    1
 -2        10       337       336
 -1        52   12    0    1
 -2       337       339       338
 -1        53   12    0    1
 -2       339        17       340
 -1        54   12    0    1
 -2        12       407       406
 -1        55   12    0    1
 -2       407       409       408
 -1        56   12    0    1
 -2       409        19       410
 -1        57   12    0    1
 -2        16       522       521
 -1        58   12    0    1
 -2       522       524       523
 -1        59   12    0    1
 -2       524       526       525
 -1        60   12    0    1
 -2       526       528       527
 -1        61   12    0    1
 -2       528       530       529
 -1        62   12    0    1
 -2       530       532       531
 -1        63   12    0    1
 -2       532       534       533
 -1        64   12    0    1
 -2       534        24       535
 -1        65   12    0    1
 -2        17       537       536
 -1        66   12    0    1
 -2       537       539       538
 -1        67   12    0    1
 -2       539       541       540
 -1        68   12    0    1
 -2       541       543       542
 -1        69   12    0    1
 -2       543       545       544
 -1        70   12    0    1
 -2       545       547       546
 -1        71   12    0    1
 -2       547       549       548
 -1        72   12    0    1
 -2       549        18       550
 -1        73   12    0    1
 -2        17       552       551
 -1        74   12    0    1
 -2       552       554       553
 -1        75   12    0    1
 -2       554        24       555
 -1        76   12    0    1
 -2        17       557       556
 -1        77   12    0    1
 -2       557       559       558
 -1        78   12    0    1
 -2       559       561       560
 -1        79   12    0    1
 -2       561       563       562
 -1        80   12    0    1
 -2       563       565       564
 -1        81   12    0    1
 -2       565       567       566
 -1        82   12    0    1
 -2       567       569       568
 -1        83   12    0    1
 -2       569        25       570
 -1        84   12    0    1
 -2        18       572       571
 -1        85   12    0    1
 -2       572       574       573
 -1        86   12    0    1
 -2       574       576       575
 -1        87   12    0    1
 -2       576       578       577
 -1        88   12    0    1
 -2       578       580       579
 -1        89   12    0    1
 -2       580       582       581
 -1        90   12    0    1
 -2       582       584       583
 -1        91   12    0    1
 -2       584        19       585
 -1        92   12    0    1
 -2        18       587       586
 -1        93   12    0    1
 -2       587       589       588
 -1        94   12    0    1
 -2       589        25       590
 -1        95   12    0    1
 -2        18       592       591
 -1        96   12    0    1
 -2       592       594       593
 -1        97   12    0    1
 -2       594       596       595
 -1        98   12    0    1
 -2       596       598       597
 -1        99   12    0    1
 -2       598       600       599
 -1       100   12    0    1
 -2       600       602       601
 -1       101   12    0    1
 -2       602       604       603
 -1       102   12    0    1
 -2       604        26       605
 -1       103   12    0    1
 -2        19       607       606
 -1       104   12    0    1
 -2       607       609       608
 -1       105   12    0    1
 -2       609       611       610
 -1       106   12    0    1
 -2       611       613       612
 -1       107   12    0    1
 -2       613       615       614
 -1       108   12    0    1
 -2       615       617       616
 -1       109   12    0    1
 -2       617       619       618
 -1       110   12    0    1
 -2       619        20       620
 -1       111   12    0    1
 -2        19       622       621
 -1       112   12    0    1
 -2       622       624       623
 -1       113   12    0    1
 -2       624        26       625
 -1       114   12    0    1
 -2        19       627       626
 -1       115   12    0    1
 -2       627       629       628
 -1       116   12    0    1
 -2       629       631       630
 -1       117   12    0    1
 -2       631       633       632
 -1       118   12    0    1
 -2       633       635       634
 -1       119   12    0    1
 -2       635       637       636
 -1       120   12    0    1
 -2       637       639       638
 -1       121   12    0    1
 -2       639        27       640
 -1       122   12    0    1
 -2        20       657       656
 -1       123   12    0    1
 -2       657       659       658
 -1       124   12    0    1
 -2       659        27       660
 -1       125   12    0    1
 -2        20       662       661
 -1       126   12    0    1
 -2       662       664       663
 -1       127   12    0    1
 -2       664       666       665
 -1       128   12    0    1
 -2       666       668       667
 -1       129   12    0    1
 -2       668       670       669
 -1       130   12    0    1
 -2       670       672       671
 -1       131   12    0    1
 -2       672       674       673
 -1       132   12    0    1
 -2       674        28       675
 -1       133   12    0    1
 -2        21       677       676
 -1       134   12    0    1
 -2       677       679       678
 -1       135   12    0    1
 -2       679        28       680
 -1       136   12    0    1
 -2        24       772       771
 -1       137   12    0    1
 -2       772       774       773
 -1       138   12    0    1
 -2       774       776       775
 -1       139   12    0    1
 -2       776       778       777
 -1       140   12    0    1
 -2       778       780       779
 -1       141   12    0    1
 -2       780       782       781
 -1       142   12    0    1
 -2       782       784       783
 -1       143   12    0    1
 -2       784        32       785
 -1       144   12    0    1
 -2        25       787       786
 -1       145   12    0    1
 -2       787       789       788
 -1       146   12    0    1
 -2       789       791       790
 -1       147   12    0    1
 -2       791       793       792
 -1       148   12    0    1
 -2       793       795       794
 -1       149   12    0    1
 -2       795       797       796
 -1       150   12    0    1
 -2       797       799       798
 -1       151   12    0    1
 -2       799        26       800
 -1       152   12    0    1
 -2        25       802       801
 -1       153   12    0    1
 -2       802       804       803
 -1       154   12    0    1
 -2       804        32       805
 -1       155   12    0    1
 -2        25       807       806
 -1       156   12    0    1
 -2       807       809       808
 -1       157   12    0    1
 -2       809       811       810
 -1       158   12    0    1
 -2       811       813       812
 -1       159   12    0    1
 -2       813       815       814
 -1       160   12    0    1
 -2       815       817       816
 -1       161   12    0    1
 -2       817       819       818
 -1       162   12    0    1
 -2       819        33       820
 -1       163   12    0    1
 -2        26       822       821
 -1       164   12    0    1
 -2       822       824       823
 -1       165   12    0    1
 -2       824       826       825
 -1       166   12    0    1
 -2       826       828       827
 -1       167   12    0    1
 -2       828       830       829
 -1       168   12    0    1
 -2       830       832       831
 -1       169   12    0    1
 -2       832       834       833
 -1       170   12    0    1
 -2       834        27       835
 -1       171   12    0    1
 -2        26       837       836
 -1       172   12    0    1
 -2       837       839       838
 -1       173   12    0    1
 -2       839        33       840
 -1       174   12    0    1
 -2        27       857       856
 -1       175   12    0    1
 -2       857       859       858
 -1       176   12    0    1
 -2       859       861       860
 -1       177   12    0    1
 -2       861       863       862
 -1       178   12    0    1
 -2       863       865       864
 -1       179   12    0    1
 -2       865       867       866
 -1       180   12    0    1
 -2       867       869       868
 -1       181   12    0    1
 -2       869        28       870
 -1       182   12    0    1
 -2        27       872       871
 -1       183   12    0    1
 -2       872       874       873
 -1       184   12    0    1
 -2       874        34       875
 -1       185   12    0    1
 -2        27       877       876
 -1       186   12    0    1
 -2       877       879       878
 -1       187   12    0    1
 -2       879       881       880
 -1       188   12    0    1
 -2       881       883       882
 -1       189   12    0    1
 -2       883       885       884
 -1       190   12    0    1
 -2       885       887       886
 -1       191   12    0    1
 -2       887       889       888
 -1       192   12    0    1
 -2       889        35       890
 -1       193   12    0    1
 -2        28       892       891
 -1       194   12    0    1
 -2       892       894       893
 -1       195   12    0    1
 -2       894        35       895
 -1       196   12    0    1
 -2        33       957       956
 -1       197   12    0    1
 -2       957       959       958
 -1       198   12    0    1
 -2       959       961       960
 -1       199   12    0    1
 -2       961       963       962
 -1       200   12    0    1
 -2       963       965       964
 -1       201   12    0    1
 -2       965       967       966
 -1       202   12    0    1
 -2       967       969       968
 -1       203   12    0    1
 -2       969        34       970
 -1       204   12    0    1
 -2        34       972       971
 -1       205   12    0    1
 -2       972       974       973
 -1       206   12    0    1
 -2       974       976       975
 -1       207   12    0    1
 -2       976       978       977
 -1       208   12    0    1
 -2       978       980       979
 -1       209   12    0    1
 -2       980       982       981
 -1       210   12    0    1
 -2       982       984       983
 -1       211   12    0    1
 -2       984        35       985
 -3
    1PSTEP                         1           1           1          
  100CL  101 2.50000E-01         409                     0    1           1
 -4  DISP        4    1
 -5  D1          1    2    1    0
 -5  D2          1    2    2    0
 -5  D3          1    2    3    0
 -5  ALL         1    2    0    0    1ALL
 -1         1 6.52356E-05 0.00000E+00 0.00000E+00
 -1         2 6.02680E-05 2.10831E-29 0.00000E+00
 -1         3 5.54696E-05-2.08162E-27 0.00000E+00
 -1         5 4.00351E-05 5.06965E-26 0.00000E+00
 -1         8 5.20697E-05-4.68841E-07 0.00000E+00
 -1         9 5.28938E-05 3.09972E-07 0.00000E+00
 -1        10 5.14297E-05-7.59760E-07-1.65436E-24
 -1        12 3.97494E-05 2.72252E-07 0.00000E+00
 -1        15 3.64077E-05-5.01460E-07 0.00000E+00
 -1        16 3.76673E-05 2.49382E-07 0.00000E+00
 -1        17 3.83740E-05-1.59178E-06 0.00000E+00
 -1        18 3.83656E-05 7.25708E-08 0.00000E+00
 -1        19 3.88926E-05 5.43039E-07 0.00000E+00
 -1        20 3.89646E-05 8.12672E-06 0.00000E+00
 -1        21 3.86921E-05 1.53601E-05-8.27181E-25
 -1        24 9.81935E-06-2.11660E-06 0.00000E+00
 -1        25 3.74476E-05 1.34717E-07 0.00000E+00
 -1        26 3.79448E-05 7.57173E-07 0.00000E+00
 -1        27 3.71902E-05 6.92031E-06 0.00000E+00
 -1        28 3.69464E-05 1.51273E-05 0.00000E+00
 -1        32 0.00000E+00 0.00000E+00 0.00000E+00
 -1        33 3.63440E-05 1.01613E-06 0.00000E+00
 -1        34 3.56156E-05 6.90939E-06 0.00000E+00
 -1        35 3.49240E-05 1.50046E-05 0.00000E+00
 -1        51 6.43789E-05-7.81422E-08 0.00000E+00
 -1        52 6.27913E-05-1.53929E-07 0.00000E+00
 -1        53 6.06170E-05-2.29960E-07 0.00000E+00
 -1        54 5.80053E-05-3.06948E-07-1.65436E-24
 -1        55 5.51061E-05-3.85419E-07-2.89513E-24
 -1        56 6.46331E-05-3.64433E-07 0.00000E+00
 -1        57 6.40904E-05-9.55866E-07 6.61744E-24
 -1        58 6.36093E-05-1.70797E-06 0.00000E+00
 -1        59 6.31621E-05-2.56243E-06-1.32349E-23
 -1        60 6.27289E-05-3.45439E-06 0.00000E+00
 -1        61 6.22851E-05-4.32002E-06 0.00000E+00
 -1        62 6.18076E-05-5.09598E-06-2.64698E-23
 -1        63 6.12732E-05-5.72060E-06 0.00000E+00
 -1        64 6.06609E-05-6.13701E-06 0.00000E+00
 -1        65 5.99505E-05-6.29158E-06-1.32349E-23
 -1        66 5.91249E-05-6.13916E-06 2.64698E-23
 -1        67 5.81696E-05-5.63926E-06 0.00000E+00
 -1        68 5.70727E-05-4.76287E-06 0.00000E+00
 -1        69 5.58289E-05-3.48555E-06-6.61744E-24
 -1        70 5.44294E-05-1.79856E-06-1.32349E-23
 -1        86 6.00717E-05 5.52406E-08 1.65436E-24
 -1        87 5.94821E-05 1.10040E-07 0.00000E+00
 -1        88 5.84873E-05 1.64487E-07 0.00000E+00
 -1        89 5.70745E-05 2.16614E-07 5.16988E-26
 -1        90 5.52187E-05 2.68663E-07 0.00000E+00
 -1       121 5.53571E-05-1.26292E-07 0.00000E+00
 -1       122 5.50197E-05-2.52636E-07 1.65436E-24
 -1       123 5.44577E-05-3.79082E-07 0.00000E+00
 -1       124 5.36715E-05-5.05702E-07 0.00000E+00
 -1       125 5.26619E-05-6.32509E-07 0.00000E+00
 -1       191 4.00272E-05 4.53783E-08 0.00000E+00
 -1       192 4.00034E-05 9.07559E-08 0.00000E+00
 -1       193 3.99637E-05 1.36133E-07-1.65436E-24
 -1       194 3.99081E-05 1.81509E-07 0.00000E+00
 -1       195 3.98367E-05 2.26882E-07 0.00000E+00
 -1       251 5.21104E-05 1.69855E-06 1.65436E-24
 -1       252 5.21621E-05 2.99387E-06 0.00000E+00
 -1       253 5.22138E-05 3.56003E-06 0.00000E+00
 -1       254 5.22674E-05 3.53820E-06 8.27181E-25
 -1       255 5.23211E-05 3.05295E-06-1.65436E-24
 -1       256 5.23748E-05 2.22779E-06 0.00000E+00
 -1       257 5.24284E-05 1.17654E-06 0.00000E+00
 -1       258 5.24819E-05 1.25439E-08 0.00000E+00
 -1       259 5.25355E-05-1.15413E-06 0.00000E+00
 -1       260 5.25891E-05-2.21336E-06 0.00000E+00
 -1       261 5.26428E-05-3.05200E-06-1.65436E-24
 -1       262 5.26964E-05-3.55638E-06 0.00000E+00
 -1       263 5.27501E-05-3.60335E-06 0.00000E+00
 -1       264 5.28017E-05-3.06867E-06 0.00000E+00
 -1       265 5.28534E-05-1.81168E-06 0.00000E+00
 -1       266 4.94594E-05-4.80768E-07-3.30872E-24
 -1       267 4.68491E-05-4.85414E-07 0.00000E+00
 -1       268 4.42387E-05-4.90520E-07-8.27181E-25
 -1       269 4.16284E-05-4.94261E-07-2.06795E-25
 -1       270 3.90181E-05-4.97969E-07 0.00000E+00
 -1       271 5.04856E-05 1.47059E-06 0.00000E+00
 -1       272 4.91433E-05 2.69248E-06 1.32349E-23
 -1       273 4.80364E-05 3.29161E-06 0.00000E+00
 -1       274 4.71253E-05 3.35769E-06 1.32349E-23
 -1       275 4.63770E-05 2.98901E-06 0.00000E+00
 -1       276 4.57529E-05 2.28665E-06 1.32349E-23
 -1       277 4.52144E-05 1.35555E-06 0.00000E+00
 -1       278 4.47213E-05 3.02670E-07 1.32349E-23
 -1       279 4.42332E-05-7.63716E-07 0.00000E+00
 -1       280 4.37097E-05-1.73518E-06-1.32349E-23
 -1       281 4.31106E-05-2.50438E-06-2.64698E-23
 -1       282 4.23967E-05-2.96584E-06 1.32349E-23
 -1       283 4.15292E-05-3.01744E-06 2.64698E-23
 -1       284 4.04737E-05-2.56018E-06 0.00000E+00
 -1       285 3.91916E-05-1.50231E-06-1.32349E-23
 -1       301 5.03156E-05 2.96757E-07 0.00000E+00
 -1       302 4.77377E-05 2.91350E-07 0.00000E+00
 -1       303 4.51720E-05 2.86169E-07-1.65436E-24
 -1       304 4.26305E-05 2.80119E-07 0.00000E+00
 -1       305 4.01250E-05 2.72843E-07 6.61744E-24
 -1       306 5.12642E-05 2.18894E-06 0.00000E+00
 -1       307 4.98915E-05 3.30526E-06 0.00000E+00
 -1       308 4.87904E-05 3.70468E-06-2.64698E-23
 -1       309 4.79339E-05 3.43795E-06 0.00000E+00
 -1       310 4.72866E-05 2.61279E-06 2.64698E-23
 -1       311 4.68026E-05 1.34891E-06-1.32349E-23
 -1       312 4.64243E-05-1.98367E-07 2.64698E-23
 -1       313 4.60913E-05-1.86700E-06 0.00000E+00
 -1       314 4.57393E-05-3.48494E-06 0.00000E+00
 -1       315 4.53047E-05-4.88139E-06 1.32349E-23
 -1       316 4.47303E-05-5.90373E-06-2.64698E-23
 -1       317 4.39631E-05-6.40831E-06 0.00000E+00
 -1       318 4.29636E-05-6.29328E-06 2.64698E-23
 -1       319 4.17040E-05-5.47007E-06 0.00000E+00
 -1       320 4.01651E-05-3.91092E-06 0.00000E+00
 -1       336 4.99465E-05-8.97315E-07 3.30872E-24
 -1       337 4.81835E-05-1.03550E-06-1.65436E-24
 -1       338 4.61424E-05-1.17415E-06 0.00000E+00
 -1       339 4.38254E-05-1.31318E-06 0.00000E+00
 -1       340 4.12349E-05-1.45288E-06 3.30872E-24
 -1       406 3.96462E-05 3.17614E-07-1.65436E-24
 -1       407 3.95272E-05 3.62961E-07-8.27181E-25
 -1       408 3.93923E-05 4.08278E-07 0.00000E+00
 -1       409 3.92415E-05 4.53509E-07 0.00000E+00
 -1       410 3.90749E-05 4.98568E-07 0.00000E+00
 -1       521 3.54013E-05 1.64676E-06 0.00000E+00
 -1       522 3.34224E-05 2.13078E-06 2.64698E-23
 -1       523 3.17662E-05 1.76544E-06 5.29396E-23
 -1       524 3.03895E-05 6.27735E-07-2.64698E-23
 -1       525 2.92368E-05-1.10914E-06 0.00000E+00
 -1       526 2.82329E-05-3.24954E-06 2.64698E-23
 -1       527 2.72887E-05-5.55009E-06 0.00000E+00
 -1       528 2.63108E-05-7.76112E-06 2.64698E-23
 -1       529 2.52100E-05-9.64310E-06 5.29396E-23
 -1       530 2.39022E-05-1.09708E-05-2.64698E-23
 -1       531 2.23268E-05-1.15834E-05 5.29396E-23
 -1       532 2.04356E-05-1.13505E-05 2.64698E-23
 -1       533 1.82146E-05-1.02406E-05-5.29396E-23
 -1       534 1.56736E-05-8.25632E-06 2.64698E-23
 -1       535 1.28402E-05-5.50841E-06 0.00000E+00
 -1       536 3.83662E-05 1.07134E-06-1.65436E-24
 -1       537 3.83639E-05 3.07309E-06 0.00000E+00
 -1       538 3.83623E-05 4.48248E-06-4.13590E-25
 -1       539 3.83620E-05 5.36854E-06 0.00000E+00
 -1       540 3.83621E-05 5.79994E-06 1.03398E-25
 -1       541 3.83624E-05 5.84534E-06-1.29247E-26
 -1       542 3.83628E-05 5.57307E-06 0.00000E+00
 -1       543 3.83630E-05 5.05149E-06 0.00000E+00
 -1       544 3.83632E-05 4.34871E-06-1.29247E-26
 -1       545 3.83633E-05 3.53283E-06-6.46235E-27
 -1       546 3.83633E-05 2.67188E-06 0.00000E+00
 -1       547 3.83634E-05 1.83387E-06 2.58494E-26
 -1       548 3.83636E-05 1.08684E-06 0.00000E+00
 -1       549 3.83640E-05 4.98816E-07 0.00000E+00
 -1       550 3.83645E-05 1.37999E-07 0.00000E+00
 -1       551 3.45851E-05-1.67268E-06 0.00000E+00
 -1       552 3.00524E-05-1.75528E-06 4.13590E-25
 -1       553 2.50409E-05-1.84021E-06 1.65436E-24
 -1       554 1.98194E-05-1.92745E-06 3.30872E-24
 -1       555 1.46566E-05-2.01586E-06-6.61744E-24
 -1       556 3.73832E-05 9.81064E-07 0.00000E+00
 -1       557 3.66265E-05 2.94569E-06 0.00000E+00
 -1       558 3.60784E-05 4.35834E-06 0.00000E+00
 -1       559 3.57157E-05 5.27967E-06 0.00000E+00
 -1       560 3.55151E-05 5.77016E-06 0.00000E+00
 -1       561 3.54535E-05 5.89059E-06 0.00000E+00
 -1       562 3.55079E-05 5.70181E-06 0.00000E+00
 -1       563 3.56554E-05 5.26467E-06 0.00000E+00
 -1       564 3.58732E-05 4.64007E-06 0.00000E+00
 -1       565 3.61384E-05 3.88894E-06 0.00000E+00
 -1       566 3.64281E-05 3.07218E-06-4.13590E-25
 -1       567 3.67195E-05 2.25075E-06-1.03398E-25
 -1       568 3.69900E-05 1.48556E-06 0.00000E+00
 -1       569 3.72166E-05 8.37458E-07 0.00000E+00
 -1       570 3.73765E-05 3.67336E-07 0.00000E+00
 -1       571 3.83976E-05 1.23181E-07 4.13590E-25
 -1       572 3.84303E-05 1.52082E-07 3.10193E-25
 -1       573 3.84632E-05 1.63128E-07 4.13590E-25
 -1       574 3.84962E-05 1.60378E-07 4.13590E-25
 -1       575 3.85292E-05 1.47908E-07 0.00000E+00
 -1       576 3.85622E-05 1.29823E-07 4.13590E-25
 -1       577 3.85953E-05 1.10228E-07-8.27181E-25
 -1       578 3.86283E-05 9.32348E-08 0.00000E+00
 -1       579 3.86614E-05 8.29524E-08-1.65436E-24
 -1       580 3.86944E-05 8.34913E-08 0.00000E+00
 -1       581 3.87275E-05 9.89613E-08 0.00000E+00
 -1       582 3.87605E-05 1.33467E-07 0.00000E+00
 -1       583 3.87936E-05 1.91110E-07 0.00000E+00
 -1       584 3.88266E-05 2.75948E-07 0.00000E+00
 -1       585 3.88596E-05 3.92017E-07 0.00000E+00
 -1       586 3.82012E-05 8.35819E-08 0.00000E+00
 -1       587 3.80229E-05 9.43115E-08 2.06795E-25
 -1       588 3.78445E-05 1.04921E-07 0.00000E+00
 -1       589 3.76799E-05 1.15360E-07 0.00000E+00
 -1       590 3.75431E-05 1.25513E-07 0.00000E+00
 -1       591 3.83315E-05 1.39793E-07 7.75482E-26
 -1       592 3.83028E-05 1.88960E-07 0.00000E+00
 -1       593 3.82795E-05 2.23503E-07 0.00000E+00
 -1       594 3.82604E-05 2.46515E-07 0.00000E+00
 -1       595 3.82444E-05 2.61130E-07 0.00000E+00
 -1       596 3.82303E-05 2.70460E-07-1.03398E-25
 -1       597 3.82171E-05 2.77612E-07 0.00000E+00
 -1       598 3.82035E-05 2.85695E-07-1.03398E-25
 -1       599 3.81884E-05 2.97814E-07 2.06795E-25
 -1       600 3.81706E-05 3.17075E-07 0.00000E+00
 -1       601 3.81490E-05 3.46586E-07-2.06795E-25
 -1       602 3.81224E-05 3.89457E-07 5.16988E-26
 -1       603 3.80897E-05 4.48796E-07 1.29247E-25
 -1       604 3.80498E-05 5.27740E-07-5.16988E-26
 -1       605 3.80014E-05 6.29382E-07 0.00000E+00
 -1       606 3.88987E-05 7.69313E-07 0.00000E+00
 -1       607 3.89037E-05 1.04316E-06-8.27181E-25
 -1       608 3.89084E-05 1.36178E-06 0.00000E+00
 -1       609 3.89129E-05 1.72203E-06 0.00000E+00
 -1       610 3.89173E-05 2.12076E-06 0.00000E+00
 -1       611 3.89217E-05 2.55473E-06 0.00000E+00
 -1       612 3.89261E-05 3.02075E-06 0.00000E+00
 -1       613 3.89305E-05 3.51561E-06 0.00000E+00
 -1       614 3.89348E-05 4.03609E-06 0.00000E+00
 -1       615 3.89391E-05 4.57897E-06 0.00000E+00
 -1       616 3.89434E-05 5.14104E-06 0.00000E+00
 -1       617 3.89478E-05 5.71909E-06 0.00000E+00
 -1       618 3.89521E-05 6.30989E-06 4.13590E-25
 -1       619 3.89563E-05 6.91024E-06 0.00000E+00
 -1       620 3.89605E-05 7.51693E-06 0.00000E+00
 -1       621 3.87125E-05 5.78753E-07-8.27181E-25
 -1       622 3.85448E-05 6.14641E-07 0.00000E+00
 -1       623 3.83868E-05 6.50523E-07 0.00000E+00
 -1       624 3.82359E-05 6.86349E-07 0.00000E+00
 -1       625 3.80894E-05 7.22112E-07 8.27181E-25
 -1       626 3.88463E-05 7.80759E-07 0.00000E+00
 -1       627 3.87853E-05 1.05826E-06 1.65436E-24
 -1       628 3.87109E-05 1.37182E-06 0.00000E+00
 -1       629 3.86245E-05 1.71748E-06 0.00000E+00
 -1       630 3.85276E-05 2.09130E-06 0.00000E+00
 -1       631 3.84216E-05 2.48927E-06 0.00000E+00
 -1       632 3.83080E-05 2.90741E-06 0.00000E+00
 -1       633 3.81883E-05 3.34174E-06 0.00000E+00
 -1       634 3.80640E-05 3.78827E-06 0.00000E+00
 -1       635 3.79367E-05 4.24300E-06 8.27181E-25
 -1       636 3.78078E-05 4.70195E-06 0.00000E+00
 -1       637 3.76788E-05 5.16114E-06 4.13590E-25
 -1       638 3.75511E-05 5.61656E-06 8.27181E-25
 -1       639 3.74263E-05 6.06423E-06 0.00000E+00
 -1       640 3.73057E-05 6.50016E-06 8.27181E-25
 -1       656 3.84582E-05 7.93047E-06 0.00000E+00
 -1       657 3.81306E-05 7.72634E-06-1.65436E-24
 -1       658 3.79122E-05 7.52283E-06 0.00000E+00
 -1       659 3.77324E-05 7.31949E-06-1.65436E-24
 -1       660 3.75165E-05 7.11550E-06 3.30872E-24
 -1       661 3.87770E-05 8.72421E-06 4.13590E-25
 -1       662 3.86006E-05 9.29619E-06 0.00000E+00
 -1       663 3.84334E-05 9.84320E-06-8.27181E-25
 -1       664 3.82754E-05 1.03664E-05-4.13590E-25
 -1       665 3.81261E-05 1.08668E-05 0.00000E+00
 -1       666 3.79850E-05 1.13453E-05 0.00000E+00
 -1       667 3.78517E-05 1.18029E-05 0.00000E+00
 -1       668 3.77259E-05 1.22405E-05-4.13590E-25
 -1       669 3.76073E-05 1.26591E-05-8.27181E-25
 -1       670 3.74955E-05 1.30595E-05 0.00000E+00
 -1       671 3.73902E-05 1.34427E-05 8.27181E-25
 -1       672 3.72909E-05 1.38094E-05-4.13590E-25
 -1       673 3.71975E-05 1.41606E-05-8.27181E-25
 -1       674 3.71093E-05 1.44968E-05 0.00000E+00
 -1       675 3.70264E-05 1.48191E-05 0.00000E+00
 -1       676 3.84008E-05 1.53211E-05 8.27181E-25
 -1       677 3.81095E-05 1.52821E-05-4.13590E-25
 -1       678 3.78184E-05 1.52431E-05-8.27181E-25
 -1       679 3.75274E-05 1.52042E-05 4.13590E-25
 -1       680 3.72367E-05 1.51653E-05 0.00000E+00
 -1       771 7.87689E-06 1.55749E-06 1.32349E-23
 -1       772 6.18450E-06 4.55725E-06 0.00000E+00
 -1       773 4.73134E-06 6.92329E-06 0.00000E+00
 -1       774 3.50089E-06 8.69792E-06 0.00000E+00
 -1       775 2.47706E-06 9.92394E-06 2.64698E-23
 -1       776 1.64320E-06 1.06449E-05 6.61744E-24
 -1       777 9.82546E-07 1.09049E-05 0.00000E+00
 -1       778 4.78127E-07 1.07486E-05-6.61744E-24
 -1       779 1.12894E-07 1.02210E-05 0.00000E+00
 -1       780-1.30376E-07 9.36776E-06 0.00000E+00
 -1       781-2.68936E-07 8.23471E-06 0.00000E+00
 -1       782-3.20168E-07 6.86815E-06 0.00000E+00
 -1       783-3.01475E-07 5.31454E-06 0.00000E+00
 -1       784-2.30313E-07 3.62066E-06 0.00000E+00
 -1       785-1.24194E-07 1.83340E-06 0.00000E+00
 -1       786 3.74769E-05 1.35572E-07-4.13590E-25
 -1       787 3.75079E-05 1.36958E-07-4.13590E-25
 -1       788 3.75388E-05 1.39493E-07 8.27181E-25
 -1       789 3.75700E-05 1.43799E-07-4.13590E-25
 -1       790 3.76012E-05 1.50623E-07-8.27181E-25
 -1       791 3.76325E-05 1.60715E-07 0.00000E+00
 -1       792 3.76638E-05 1.75055E-07 0.00000E+00
 -1       793 3.76951E-05 1.94631E-07 0.00000E+00
 -1       794 3.77264E-05 2.20799E-07 0.00000E+00
 -1       795 3.77577E-05 2.54926E-07 0.00000E+00
 -1       796 3.77890E-05 2.98939E-07 0.00000E+00
 -1       797 3.78203E-05 3.54782E-07 0.00000E+00
 -1       798 3.78516E-05 4.25233E-07 8.27181E-25
 -1       799 3.78828E-05 5.13091E-07 0.00000E+00
 -1       800 3.79140E-05 6.22385E-07-8.27181E-25
 -1       801 3.49186E-05 1.37656E-07 4.13590E-25
 -1       802 2.73970E-05 1.16525E-07 0.00000E+00
 -1       803 1.75144E-05 7.65572E-08-1.65436E-24
 -1       804 7.90199E-06 3.55271E-08 0.00000E+00
 -1       805 1.18718E-06 1.71128E-08-6.61744E-24
 -1       806 3.74087E-05 1.14596E-07 0.00000E+00
 -1       807 3.73682E-05 9.46308E-08-4.13590E-25
 -1       808 3.73264E-05 7.72572E-08 8.27181E-25
 -1       809 3.72826E-05 6.45425E-08 4.13590E-25
 -1       810 3.72364E-05 5.85500E-08 0.00000E+00
 -1       811 3.71867E-05 6.13125E-08 4.13590E-25
 -1       812 3.71331E-05 7.48611E-08 8.27181E-25
 -1       813 3.70746E-05 1.01222E-07 4.13590E-25
 -1       814 3.70106E-05 1.42420E-07 8.27181E-25
 -1       815 3.69402E-05 2.00481E-07 8.27181E-25
 -1       816 3.68628E-05 2.77426E-07 8.27181E-25
 -1       817 3.67775E-05 3.75281E-07-4.13590E-25
 -1       818 3.66837E-05 4.96066E-07-1.65436E-24
 -1       819 3.65805E-05 6.41799E-07-4.13590E-25
 -1       820 3.64674E-05 8.14495E-07 0.00000E+00
 -1       821 3.79003E-05 9.21528E-07 0.00000E+00
 -1       822 3.78531E-05 1.11960E-06-4.13590E-25
 -1       823 3.78060E-05 1.35615E-06 0.00000E+00
 -1       824 3.77585E-05 1.63589E-06-8.27181E-25
 -1       825 3.77109E-05 1.95912E-06-1.65436E-24
 -1       826 3.76632E-05 2.32606E-06 8.27181E-25
 -1       827 3.76154E-05 2.73247E-06 0.00000E+00
 -1       828 3.75677E-05 3.17406E-06 8.27181E-25
 -1       829 3.75199E-05 3.64293E-06 0.00000E+00
 -1       830 3.74721E-05 4.13113E-06 8.27181E-25
 -1       831 3.74243E-05 4.62877E-06-1.65436E-24
 -1       832 3.73767E-05 5.12590E-06 0.00000E+00
 -1       833 3.73290E-05 5.61265E-06 0.00000E+00
 -1       834 3.72819E-05 6.07916E-06 0.00000E+00
 -1       835 3.72347E-05 6.51763E-06 0.00000E+00
 -1       836 3.77503E-05 8.00275E-07-8.27181E-25
 -1       837 3.74990E-05 8.44334E-07-4.13590E-25
 -1       838 3.72118E-05 8.88314E-07 0.00000E+00
 -1       839 3.69096E-05 9.32016E-07 4.13590E-25
 -1       840 3.66134E-05 9.75649E-07 2.06795E-25
 -1       856 3.71767E-05 7.33283E-06-1.03398E-25
 -1       857 3.71616E-05 7.79732E-06 0.00000E+00
 -1       858 3.71466E-05 8.30553E-06 0.00000E+00
 -1       859 3.71312E-05 8.84925E-06 0.00000E+00
 -1       860 3.71159E-05 9.42020E-06 4.13590E-25
 -1       861 3.71005E-05 1.00101E-05 0.00000E+00
 -1       862 3.70851E-05 1.06106E-05-4.13590E-25
 -1       863 3.70697E-05 1.12135E-05 2.06795E-25
 -1       864 3.70542E-05 1.18105E-05 0.00000E+00
 -1       865 3.70388E-05 1.23932E-05-2.06795E-25
 -1       866 3.70234E-05 1.29534E-05-4.13590E-25
 -1       867 3.70080E-05 1.34827E-05 0.00000E+00
 -1       868 3.69926E-05 1.39730E-05 0.00000E+00
 -1       869 3.69772E-05 1.44160E-05 2.06795E-25
 -1       870 3.69618E-05 1.48035E-05 0.00000E+00
 -1       871 3.68753E-05 6.91990E-06 0.00000E+00
 -1       872 3.66101E-05 6.91846E-06 0.00000E+00
 -1       873 3.63733E-05 6.91682E-06 0.00000E+00
 -1       874 3.61430E-05 6.91493E-06 0.00000E+00
 -1       875 3.58976E-05 6.91281E-06 1.03398E-25
 -1       876 3.70809E-05 7.33710E-06 0.00000E+00
 -1       877 3.69631E-05 7.77919E-06 0.00000E+00
 -1       878 3.68370E-05 8.24351E-06 0.00000E+00
 -1       879 3.67038E-05 8.72721E-06 0.00000E+00
 -1       880 3.65645E-05 9.22744E-06 1.65436E-24
 -1       881 3.64200E-05 9.74133E-06 0.00000E+00
 -1       882 3.62714E-05 1.02660E-05 0.00000E+00
 -1       883 3.61199E-05 1.07987E-05-8.27181E-25
 -1       884 3.59664E-05 1.13365E-05 1.65436E-24
 -1       885 3.58121E-05 1.18766E-05-8.27181E-25
 -1       886 3.56579E-05 1.24162E-05-1.65436E-24
 -1       887 3.55050E-05 1.29523E-05 0.00000E+00
 -1       888 3.53544E-05 1.34821E-05 0.00000E+00
 -1       889 3.52070E-05 1.40028E-05 0.00000E+00
 -1       890 3.50638E-05 1.45115E-05 0.00000E+00
 -1       891 3.66659E-05 1.51068E-05 4.13590E-25
 -1       892 3.63765E-05 1.50862E-05 0.00000E+00
 -1       893 3.60679E-05 1.50656E-05 0.00000E+00
 -1       894 3.57297E-05 1.50450E-05 0.00000E+00
 -1       895 3.53518E-05 1.50245E-05 2.06795E-25
 -1       956 3.62993E-05 1.27688E-06-8.27181E-25
 -1       957 3.62539E-05 1.56699E-06 4.13590E-25
 -1       958 3.62084E-05 1.88341E-06-8.27181E-25
 -1       959 3.61627E-05 2.22289E-06-8.27181E-25
 -1       960 3.61170E-05 2.58220E-06 8.27181E-25
 -1       961 3.60714E-05 2.95807E-06 4.13590E-25
 -1       962 3.60256E-05 3.34723E-06 0.00000E+00
 -1       963 3.59799E-05 3.74642E-06 0.00000E+00
 -1       964 3.59342E-05 4.15238E-06 0.00000E+00
 -1       965 3.58885E-05 4.56183E-06 8.27181E-25
 -1       966 3.58428E-05 4.97152E-06 0.00000E+00
 -1       967 3.57971E-05 5.37818E-06 8.27181E-25
 -1       968 3.57514E-05 5.77853E-06 1.65436E-24
 -1       969 3.57058E-05 6.16934E-06-8.27181E-25
 -1       970 3.56604E-05 6.54734E-06-1.65436E-24
 -1       971 3.55729E-05 7.28100E-06-8.27181E-25
 -1       972 3.55296E-05 7.69102E-06-4.13590E-25
 -1       973 3.54863E-05 8.13519E-06-8.27181E-25
 -1       974 3.54428E-05 8.60911E-06 0.00000E+00
 -1       975 3.53994E-05 9.10834E-06-8.27181E-25
 -1       976 3.53559E-05 9.62846E-06-4.13590E-25
 -1       977 3.53124E-05 1.01651E-05 0.00000E+00
 -1       978 3.52689E-05 1.07137E-05 0.00000E+00
 -1       979 3.52254E-05 1.12699E-05 0.00000E+00
 -1       980 3.51819E-05 1.18293E-05 0.00000E+00
 -1       981 3.51384E-05 1.23875E-05 0.00000E+00
 -1       982 3.50950E-05 1.29400E-05 0.00000E+00
 -1       983 3.50516E-05 1.34824E-05 1.65436E-24
 -1       984 3.50084E-05 1.40102E-05 0.00000E+00
 -1       985 3.49654E-05 1.45190E-05-8.27181E-25
 -3
    1PSTEP                         2           1           1          
  100CL  101 2.50000E-01         409                     0    1           1
 -4  STRESS      6    1
 -5  SXX         1    4    1    1
 -5  SYY         1    4    2    2
 -5  SZZ         1    4    3    3
 -5  SXY         1    4    1    2
 -5  SYZ         1    4    2    3
 -5  SZX         1    4    3    1
 -1         1-8.63909E+05-3.98586E+05-1.75234E+05-5.58306E+05 9.82254E-11-4.65661E-10
 -1         2 1.44472E+03 1.59909E+05 4.70695E+03 2.67219E+02-8.25651E-11 9.56936E-09
 -1         3-1.82458E+01-3.61016E+05 8.30032E+01-6.58675E+01-9.34097E-11-1.36879E-09
 -1         5-2.12954E+00 1.29831E+05 3.37898E+00-5.13368E-02 4.84547E-11 1.67029E-09
 -1         8-4.07009E+05-1.77336E+05-1.38787E+04-3.08514E+05 1.10049E-10 6.18456E-10
 -1         9-6.98533E+05-1.82667E+05-6.93977E+04-2.42748E+05 1.85828E-09 9.19681E-10
 -1        10-2.67823E+02-3.76107E+05-4.78217E+02-4.36357E+02-1.66688E-09-7.17615E-09
 -1        12-7.42468E-01 1.29838E+05 1.09526E+02-1.06718E-01 8.70131E-11 1.54353E-08
 -1        15 1.07553E+03 5.91056E+02 3.47661E+03 1.21404E+00-1.32323E-08-5.27581E-06
 -1        16-1.96248E+06-6.33008E+05-3.05148E+05-6.44100E+05 5.84502E-09-3.57007E-09
 -1        17-4.32368E+05-2.68017E+05-8.30964E+04-2.53406E+05-2.85436E-09-1.97469E-09
 -1        18 1.66575E+04 1.72018E+03-5.81514E+03-3.05396E+04 4.46221E-10 1.37106E-10
 -1        19 4.09210E+04 4.86317E+04-2.04484E+02 8.06061E+03 7.27596E-11 3.21597E-10
 -1        20-1.66616E+04-1.91653E+05-4.22453E+04 1.43874E+04 1.53091E-09 1.24752E-09
 -1        21-1.82300E+01-1.11628E+05-3.60574E+02-2.23078E+01-4.12981E-09-2.94719E-09
 -1        24-1.72164E+06-6.03024E+05-2.45940E+05-7.35749E+05-7.59731E-09-3.71559E-09
 -1        25 1.48245E+04-3.54237E+03 8.74350E+03-5.51555E+04 1.97451E-10 2.77432E-09
 -1        26-9.42957E+03 3.32497E+04-6.60679E+03-4.74313E+03 8.10178E-10-5.39885E-10
 -1        27-3.06259E+04-1.05200E+05-3.95403E+04 2.38789E+04 2.49793E-09-1.53887E-09
 -1        28 8.61792E+03-3.08389E+04 6.29904E+03 9.89705E+03 1.52117E-09 1.40008E-09
 -1        32-4.12910E+05-6.48232E+04 1.76769E+05-2.77042E+05-8.15635E-09 8.88926E-09
 -1        33-6.04169E+04 3.11470E+04 1.10294E+04-1.80039E+04 5.92555E-10 2.11003E-10
 -1        34-7.84350E+04-7.83793E+03 1.86989E+02 2.41730E+04 2.17756E-09 1.75078E-09
 -1        35-8.77350E+03-1.22642E+04-4.77777E+02 1.94365E+04 2.39759E-09 2.72848E-12
 -1        51 8.24143E+03-2.04642E+05 1.98530E+04-5.03528E+05 1.45519E-11 4.59841E-09
 -1        52 3.99437E+03-2.02591E+05 1.30354E+04-5.87268E+05 3.52884E-10-1.99725E-09
 -1        53 2.40204E+03-2.07358E+05 1.13525E+04-5.01824E+05 5.67525E-10-9.68430E-09
 -1        54 7.88658E+03-2.05268E+05 1.82958E+04-5.89085E+05-3.63798E-11-2.16532E-08
 -1        55 1.81377E+04-2.11867E+05 3.29158E+04-5.01615E+05 1.52795E-10-4.52928E-09
 -1        56-1.65950E+06-1.87756E+05-1.29608E+05-6.40156E+05 3.23780E-10 1.40426E-09
 -1        57-1.71218E+06-3.04315E+05-8.73499E+04-6.34465E+05 8.79936E-10-2.22644E-09
 -1        58-1.68526E+06-2.29058E+05-3.05155E+04-6.32357E+05-2.75122E-10-4.56566E-10
 -1        59-1.68238E+06-2.55896E+05-1.82173E+04-6.43838E+05 9.42748E-10 3.12320E-09
 -1        60-1.68905E+06-2.34794E+05-7.13390E+03-6.31281E+05-3.37195E-10-3.19301E-09
 -1        61-1.67828E+06-2.48902E+05-4.05758E+03-6.44767E+05-1.04035E-09-5.79053E-09
 -1        62-1.68932E+06-2.35878E+05-1.95511E+03-6.31483E+05-5.42286E-11 6.10243E-10
 -1        63-1.67860E+06-2.47158E+05-1.61164E+03-6.43823E+05-1.06979E-09 2.83396E-09
 -1        64-1.68870E+06-2.36533E+05-1.84670E+03-6.32216E+05 4.10978E-10-2.49122E-09
 -1        65-1.68061E+06-2.46312E+05-3.70629E+03-6.41869E+05-1.34582E-09-2.91948E-09
 -1        66-1.68728E+06-2.36760E+05-6.51017E+03-6.33410E+05 1.65267E-09-2.36196E-09
 -1        67-1.68654E+06-2.50402E+05-1.65341E+04-6.38407E+05-1.62956E-09 2.64845E-09
 -1        68-1.68278E+06-2.32621E+05-2.77416E+04-6.35605E+05 1.77351E-10-2.49020E-09
 -1        69-1.71552E+06-2.92462E+05-7.93200E+04-6.27712E+05 1.61708E-09-5.62250E-09
 -1        70-1.65853E+06-1.95955E+05-1.17748E+05-6.43649E+05-2.94676E-10-5.23869E-10
 -1        86-7.23810E+02 1.58509E+05 5.05318E+03-1.33617E+02 6.46423E-10-3.37687E-09
 -1        87 4.80648E+03 1.61545E+05 1.05282E+04 5.46792E+02 1.08412E-09-3.79201E-09
 -1        88-4.07566E+03 1.56874E+05 1.61343E+04-4.13189E+02 1.62527E-09 2.88065E-09
 -1        89 3.03759E+04 1.73441E+05 4.34886E+04 1.16541E+03 2.47564E-09-1.78619E-09
 -1        90-2.62093E+04 1.46618E+05 6.14520E+04-7.52059E+02 2.81580E-09-1.16660E-09
 -1       121-3.46417E+01-3.61133E+05 8.29811E+01 3.29144E+01 1.94305E-10-1.12959E-09
 -1       122 9.03646E+00-3.60998E+05 1.81873E+02-1.31883E+02-6.24738E-10-5.36602E-09
 -1       123-5.46906E+01-3.61153E+05 2.99056E+02 9.88549E+01 5.40354E-10 1.48975E-09
 -1       124 3.44677E+02-3.60790E+05 7.64492E+02-3.26943E+02-1.33639E-09-1.87424E-09
 -1       125-2.73410E+02-3.61343E+05 1.17700E+03 2.27997E+02 7.64430E-10-4.41469E-09
 -1       191-2.34788E+00 1.29842E+05 4.05482E+00 2.55098E-02 8.79902E-11 3.75394E-09
 -1       192-2.43965E+00 1.29831E+05 7.15403E+00 1.56631E-01 1.34628E-10 1.65164E-09
 -1       193-3.17270E+00 1.29842E+05 1.33205E+01-1.83254E-01 1.45345E-10 1.89721E-09
 -1       194-3.43782E+00 1.29833E+05 2.70600E+01 4.93359E-01 7.42015E-11-3.63798E-10
 -1       195-4.75827E+00 1.29841E+05 5.29478E+01-3.13213E-01 2.28596E-10 5.50108E-09
 -1       251 1.43049E+05-2.53680E+04 5.93089E+04 2.14998E+03 9.09495E-11 9.71340E-10
 -1       252 1.69608E+05 2.93644E+04 4.20024E+04-7.51023E+03 1.79995E-10-4.05225E-09
 -1       253 1.53157E+05-3.92917E+03 1.53538E+04 1.62181E+03 1.26079E-10 2.72848E-12
 -1       254 1.57743E+05 4.54270E+03 9.68350E+03-6.67106E+03-1.34989E-10 1.88004E-09
 -1       255 1.54882E+05-6.07477E+02 3.96730E+03 1.31093E+03 1.61378E-10 2.34604E-09
 -1       256 1.55693E+05 7.19749E+02 2.40753E+03-6.21024E+03 2.28596E-10 4.02972E-09
 -1       257 1.55191E+05-1.06553E+02 1.24104E+03 1.16098E+03 1.54415E-10 1.82925E-09
 -1       258 1.55379E+05 2.23295E+02 1.10068E+03-6.05845E+03-3.04099E-10-2.13105E-09
 -1       259 1.55190E+05-1.08816E+02 1.26244E+03 1.15915E+03-1.92614E-10 2.08945E-09
 -1       260 1.55701E+05 7.39589E+02 2.46842E+03-6.20341E+03 1.04080E-10-1.03262E-09
 -1       261 1.54874E+05-6.24835E+02 4.07853E+03 1.30594E+03 6.58758E-10 1.62436E-09
 -1       262 1.57802E+05 4.67366E+03 9.95814E+03-6.65631E+03-7.73525E-10 3.97097E-09
 -1       263 1.53104E+05-4.04201E+03 1.57966E+04 1.61206E+03-4.87489E-10 1.87902E-09
 -1       264 1.69994E+05 3.02093E+04 4.32055E+04-7.48662E+03-8.73200E-10 2.23736E-09
 -1       265 1.42715E+05-2.60962E+04 6.10201E+04 2.13612E+03-9.92600E-10 2.99406E-09
 -1       266-1.94708E+04-9.10516E+03 4.56810E+04-2.59757E+01-2.07674E-08-8.29746E-06
 -1       267 2.25718E+04 1.06113E+04 3.22881E+04 2.99724E+01-4.10514E-08-1.63890E-05
 -1       268-3.02684E+03-1.50290E+03 1.20013E+04-3.81888E+00-3.29455E-08-1.31473E-05
 -1       269 3.57380E+03 1.79860E+03 7.80071E+03 4.44854E+00-2.47828E-08-9.90683E-06
 -1       270-5.36432E+02-2.95526E+02 3.76551E+03-6.03675E-01-1.83355E-08-7.30051E-06
 -1       271-1.91281E+06-2.37682E+05-1.47079E+05-7.43900E+05 3.09228E-11 8.14907E-10
 -1       272-1.95253E+06-3.58184E+05-9.45787E+04-7.57829E+05 6.88374E-10-2.24918E-09
 -1       273-1.94046E+06-2.74335E+05-3.47394E+04-7.37394E+05 9.71568E-10 1.81899E-12
 -1       274-1.92037E+06-3.13121E+05-1.94644E+04-7.67740E+05 2.27146E-10 1.78261E-10
 -1       275-1.94455E+06-2.77861E+05-8.08115E+03-7.35961E+05 4.67935E-10 5.36147E-10
 -1       276-1.91556E+06-3.08935E+05-4.30272E+03-7.70030E+05-1.10504E-09-2.69256E-09
 -1       277-1.94541E+06-2.77906E+05-2.10397E+03-7.35434E+05 5.73209E-10 1.47634E-09
 -1       278-1.91474E+06-3.08805E+05-1.53159E+03-7.70663E+05 1.24641E-09 3.42959E-09
 -1       279-1.94545E+06-2.77898E+05-1.64246E+03-7.35404E+05-1.38880E-09-2.69210E-09
 -1       280-1.91530E+06-3.08810E+05-3.00974E+03-7.70179E+05 2.89901E-11-1.48793E-09
 -1       281-1.94478E+06-2.77969E+05-5.49659E+03-7.35860E+05-3.57886E-10 1.41335E-09
 -1       282-1.91880E+06-3.11318E+05-1.31355E+04-7.68240E+05 3.21961E-10 1.32786E-10
 -1       283-1.94180E+06-2.75841E+05-2.34287E+04-7.37079E+05 1.05956E-10-3.63798E-12
 -1       284-1.94096E+06-3.41100E+05-6.37139E+04-7.60834E+05 1.76556E-10-9.58607E-10
 -1       285-1.92281E+06-2.51543E+05-9.91382E+04-7.41868E+05 5.97538E-10-4.30737E-09
 -1       301 7.33936E+03-4.64646E+03 5.73880E+04-1.42745E+04-5.00222E-10-8.09365E-10
 -1       302 7.87882E+03 9.92620E+03 4.14459E+04-2.09905E+04 7.73070E-10 1.49612E-09
 -1       303 3.29867E+02 5.07501E+02 3.81583E+04-1.42959E+04-6.11180E-10 2.82944E-09
 -1       304 1.48776E+04 1.63791E+04 6.41947E+04-2.09353E+04 2.65572E-10 6.73595E-10
 -1       305 1.47494E+04-1.10694E+04 1.07724E+05-1.42994E+04-6.76664E-10 1.25192E-09
 -1       306-2.06385E+06-2.36047E+05-1.57195E+05-8.03071E+05 1.35697E-09-7.49424E-10
 -1       307-2.13864E+06-3.75288E+05-1.07205E+05-7.83199E+05 1.35333E-09-2.96313E-09
 -1       308-2.09864E+06-2.85769E+05-3.69782E+04-7.89353E+05-4.07454E-10-2.85218E-09
 -1       309-2.09629E+06-3.19521E+05-2.24328E+04-8.01772E+05 5.08749E-11 4.83124E-09
 -1       310-2.10604E+06-2.90859E+05-8.67605E+03-7.84850E+05-6.30308E-10-2.56478E-10
 -1       311-2.08689E+06-3.14523E+05-5.04262E+03-8.08145E+05 1.41878E-09-5.55815E-10
 -1       312-2.10807E+06-2.90590E+05-2.46346E+03-7.83070E+05-1.45945E-11 3.87462E-09
 -1       313-2.08513E+06-3.14532E+05-2.22284E+03-8.09655E+05-6.71427E-10 5.07129E-09
 -1       314-2.10782E+06-2.90819E+05-2.66814E+03-7.83361E+05-1.46568E-09-4.01337E-09
 -1       315-2.08790E+06-3.13792E+05-5.63895E+03-8.07014E+05 3.22075E-10 3.84887E-09
 -1       316-2.10526E+06-2.91376E+05-9.80054E+03-7.85674E+05 5.29056E-10-4.92946E-10
 -1       317-2.09878E+06-3.19259E+05-2.53867E+04-7.99583E+05 7.71905E-10-3.40833E-09
 -1       318-2.09691E+06-2.85548E+05-4.18629E+04-7.90695E+05-1.92767E-09 7.82711E-09
 -1       319-2.14640E+06-3.82830E+05-1.21402E+05-7.79073E+05-1.19326E-09-1.45519E-10
 -1       320-2.05784E+06-2.28871E+05-1.77968E+05-8.05801E+05 4.30737E-09 9.45874E-11
 -1       336 2.93886E+02-3.90951E+05-2.06933E+03 2.08187E+02-3.47961E-09 2.75486E-09
 -1       337-7.41780E+02-3.91552E+05-2.26797E+03-5.87321E+02-6.43462E-09-1.92358E-10
 -1       338 1.94827E+02-3.91013E+05-2.84198E+03 3.78327E+02-4.55248E-09 3.95630E-09
 -1       339-2.93773E+03-3.92892E+05-6.22912E+03-9.25189E+02-8.28550E-09 4.11137E-09
 -1       340 2.01019E+03-3.89621E+05-9.58886E+03 5.44326E+02-5.36238E-09 1.96724E-09
 -1       406 7.63676E+00 1.29836E+05 2.16253E+02 4.15360E-01 2.87741E-10 8.08268E-09
 -1       407 7.46493E+01 1.29876E+05 4.59598E+02-5.63840E+00 1.77067E-11-2.07910E-09
 -1       408 2.35839E+02 1.29803E+05 9.17953E+02 5.27143E+00 2.76714E-10-1.01563E-08
 -1       409 9.91859E+02 1.30170E+05 2.06664E+03-4.73065E+01 8.18545E-12-2.24198E-08
 -1       410 2.85113E+03 1.29542E+05 4.21902E+03 4.29379E+01 3.80169E-10-1.41431E-08
 -1       521-3.88766E+06-4.47696E+05-2.90905E+05-1.51036E+06 2.19370E-09-4.78758E-09
 -1       522-4.02702E+06-6.99863E+05-1.97742E+05-1.47275E+06-2.03909E-09-1.30967E-10
 -1       523-3.95240E+06-5.37708E+05-6.83939E+04-1.48459E+06-1.82808E-10 5.09317E-11
 -1       524-3.94825E+06-5.98665E+05-4.12840E+04-1.50752E+06 1.41154E-09-7.48514E-10
 -1       525-3.96594E+06-5.46693E+05-1.59843E+04-1.47634E+06 7.92738E-10-3.86535E-10
 -1       526-3.93213E+06-5.88663E+05-9.22041E+03-1.51781E+06 3.58789E-10 1.20963E-09
 -1       527-3.96851E+06-5.47332E+05-4.42577E+03-1.47447E+06 5.23983E-10 1.02114E-09
 -1       528-3.93218E+06-5.85198E+05-3.79483E+03-1.51644E+06 5.46947E-10-2.44071E-09
 -1       529-3.96584E+06-5.50146E+05-4.44460E+03-1.47769E+06-6.83713E-10 9.89303E-10
 -1       530-3.94187E+06-5.78423E+05-9.08484E+03-1.50584E+06-3.29123E-09 8.59472E-10
 -1       531-3.95867E+06-5.54246E+05-1.59369E+04-1.48495E+06 1.34150E-09 3.44789E-09
 -1       532-3.96508E+06-5.81215E+05-4.09093E+04-1.48755E+06-1.97591E-09-5.39103E-09
 -1       533-3.94267E+06-5.47710E+05-6.78868E+04-1.49583E+06 1.62800E-10-5.23141E-09
 -1       534-4.04565E+06-6.79777E+05-1.96243E+05-1.45130E+06 3.63070E-09 3.31056E-09
 -1       535-3.87881E+06-4.57723E+05-2.88600E+05-1.52062E+06-5.43514E-09 4.20550E-09
 -1       536-4.17994E+03-1.10695E+04 2.55190E+04 2.66388E+02-1.09891E-09 3.18869E-09
 -1       537 7.48285E+03 1.28093E+04 1.81558E+04-1.01021E+03-4.54584E-09-1.40994E-09
 -1       538 1.77455E+02-1.73472E+03 6.58725E+03 2.42974E+02-1.75049E-10 1.15233E-09
 -1       539 2.35527E+03 2.00336E+03 4.19015E+03-9.82664E+02 1.18787E-09 2.81966E-09
 -1       540 9.43191E+02-2.70014E+02 1.66614E+03 2.38845E+02 1.58380E-10 3.22098E-09
 -1       541 1.42601E+03 3.09458E+02 9.87548E+02-9.76637E+02-1.42967E-09 6.64309E-09
 -1       542 1.10406E+03-4.02283E+01 4.02077E+02 2.36943E+02-1.52365E-10 4.12621E-09
 -1       543 1.21609E+03 3.94654E+01 2.03003E+02-9.73729E+02-2.47280E-10-1.12372E-10
 -1       544 1.15144E+03 1.00291E+00 3.75100E+01 2.35936E+02 2.60570E-10-3.39502E-09
 -1       545 1.13942E+03-4.31952E+01-9.91217E+01-9.72502E+02-5.75886E-10-2.60967E-09
 -1       546 1.17997E+03 4.29283E+01-2.42842E+02 2.35717E+02 3.25432E-10 7.51740E-10
 -1       547 1.00945E+03-3.19526E+02-6.48925E+02-9.72800E+02-9.91654E-10-4.61810E-10
 -1       548 1.28156E+03 2.77023E+02-1.05440E+03 2.36234E+02-1.13579E-09-2.49941E-09
 -1       549 2.55975E+02-2.04285E+03-2.87985E+03-9.74069E+02-6.06889E-10 3.54015E-09
 -1       550 1.93456E+03 1.76413E+03-4.09901E+03 2.36985E+02 5.77671E-12 2.09388E-09
 -1       551 2.97863E+03-2.06461E+05 1.16050E+04-3.54337E+05-1.54560E-08 1.29876E-09
 -1       552 5.83896E+03-2.05795E+05 1.48396E+04-5.04114E+05-1.16779E-08 8.85302E-09
 -1       553 3.57780E+03-2.08514E+05 2.31335E+04-3.53228E+05-1.85028E-08 4.75302E-09
 -1       554 1.69033E+04-1.97805E+05 4.91089E+04-5.04593E+05-1.14160E-08 1.07821E-09
 -1       555 1.78836E+04-2.17988E+05 8.83662E+04-3.53736E+05-1.83245E-08-2.52476E-09
 -1       556 2.80183E+04-6.54650E+04 2.29914E+04-8.83120E+04-3.49974E-09 1.96451E-10
 -1       557 5.46635E+04-8.79891E+04 1.20058E+04-1.10219E+05-3.78350E-10 2.22599E-09
 -1       558 2.84926E+04-6.88511E+04 4.95465E+03-8.53620E+04-2.50293E-09 9.54060E-10
 -1       559 5.17053E+04-9.13419E+04 2.48122E+03-1.11368E+05 2.70484E-09-1.62981E-09
 -1       560 2.81384E+04-6.85970E+04 1.07791E+03-8.55465E+04 3.01952E-10 2.21098E-09
 -1       561 5.09950E+04-9.12544E+04 5.49015E+02-1.11807E+05-1.25146E-09 7.06223E-10
 -1       562 2.78196E+04-6.83679E+04 2.30449E+02-8.57811E+04 2.00089E-10-2.41675E-09
 -1       563 5.06026E+04-9.10890E+04 1.27154E+02-1.12057E+05-5.09317E-10-2.04693E-09
 -1       564 2.76202E+04-6.82346E+04 4.80753E+01-8.59253E+04 4.26189E-09 5.71390E-09
 -1       565 5.04017E+04-9.10051E+04 2.01637E+01-1.12181E+05 7.51697E-10 3.36013E-09
 -1       566 2.75533E+04-6.81872E+04-1.76943E+01-8.59757E+04-3.57431E-10-7.50333E-10
 -1       567 5.03693E+04-9.09887E+04-6.74620E+01-1.12169E+05 3.75439E-09-1.03228E-09
 -1       568 2.76361E+04-6.82436E+04-1.68303E+02-8.59485E+04-3.09228E-11 1.93177E-09
 -1       569 5.01670E+04-9.08762E+04-3.99056E+02-1.11730E+05-2.04318E-09-3.68527E-09
 -1       570 2.81499E+04-6.87627E+04-8.10130E+02-8.60411E+04 3.79441E-09 6.21549E-09
 -1       571 9.42219E+04 3.41766E+03 5.06106E+03-2.35603E+04 9.41327E-11 7.20775E-11
 -1       572 9.49767E+04 1.18898E+03 2.47934E+03-2.58260E+04 1.70530E-11-3.68982E-09
 -1       573 9.45288E+04 2.83497E+02 1.10140E+03-2.34988E+04 5.89125E-10-9.34506E-10
 -1       574 9.46194E+04 9.14298E+01 5.51661E+02-2.58952E+04-1.66438E-10-3.79737E-09
 -1       575 9.45651E+04 1.17105E+01 2.59947E+02-2.34906E+04 2.36923E-10 1.80967E-09
 -1       576 9.45717E+04 2.13107E+00 1.32191E+02-2.59044E+04-5.64100E-10 4.29009E-09
 -1       577 9.45704E+04-2.93376E+00 6.50140E+01-2.34895E+04-4.38945E-10 1.12095E-09
 -1       578 9.45659E+04-1.76046E+00 3.52303E+01-2.59055E+04 2.45564E-11-3.60842E-10
 -1       579 9.45738E+04-2.59328E+00 2.13060E+01-2.34895E+04-1.86446E-11-9.37916E-10
 -1       580 9.45694E+04-2.57000E+00 1.93902E+01-2.59040E+04-1.44837E-10 1.50771E-09
 -1       581 9.45788E+04-3.38973E+00 2.60000E+01-2.34910E+04 2.18279E-10 2.22417E-09
 -1       582 9.45804E+04 1.63598E+00 4.90354E+01-2.58899E+04 4.24961E-10-2.78283E-09
 -1       583 9.45835E+04 1.55242E+01 9.42757E+01-2.35036E+04-8.68567E-11-2.63094E-09
 -1       584 9.46207E+04 9.02414E+01 2.10958E+02-2.57850E+04-1.21327E-09-1.37305E-09
 -1       585 9.45667E+04 2.77626E+02 4.28970E+02-2.35960E+04-1.24601E-10-1.21236E-09
 -1       586-1.18808E+03 3.05759E+04-1.56037E+03-8.05909E+04 2.56023E-10-1.41767E-10
 -1       587-2.72681E+02 3.03695E+04-1.93549E+02-8.86839E+04 4.19277E-10-1.47281E-10
 -1       588 3.05343E+02 3.04090E+04 1.06448E+03-8.05418E+04 2.38288E-10 1.24558E-08
 -1       589 1.58684E+03 3.09887E+04 3.12637E+03-8.86102E+04 3.97904E-10 1.68739E-08
 -1       590 4.58972E+03 3.00062E+04 6.70634E+03-8.06647E+04 2.00998E-10 1.11754E-08
 -1       591-2.03758E+04-5.87152E+03-6.82850E+03-1.06091E+04-9.04095E-11-6.94445E-09
 -1       592-2.10090E+04-7.55496E+03-3.69860E+03-1.23972E+04-1.80353E-09-5.49858E-09
 -1       593-2.10660E+04-5.36842E+03-1.53975E+03-1.11019E+04 5.06418E-10 4.85113E-09
 -1       594-2.00569E+04-6.56270E+03-7.67974E+02-1.24443E+04 6.06065E-10 2.19141E-09
 -1       595-2.11186E+04-5.36629E+03-3.52943E+02-1.11244E+04-1.66801E-09-2.55858E-09
 -1       596-1.99923E+04-6.51729E+03-1.79947E+02-1.24374E+04 1.04217E-09 5.55708E-09
 -1       597-2.11253E+04-5.37070E+03-9.90999E+01-1.11252E+04 4.92977E-09 8.16570E-09
 -1       598-1.99862E+04-6.51554E+03-8.17046E+01-1.24356E+04-3.31895E-10 1.56538E-09
 -1       599-2.11249E+04-5.37063E+03-1.06879E+02-1.11251E+04 4.91525E-10 3.45148E-09
 -1       600-1.99934E+04-6.51780E+03-2.00604E+02-1.24375E+04-1.37334E-09-3.31227E-09
 -1       601-2.11168E+04-5.36564E+03-3.96738E+02-1.11239E+04-2.90811E-10-2.18813E-09
 -1       602-2.00664E+04-6.56881E+03-8.65329E+02-1.24447E+04-1.70348E-09-5.80923E-09
 -1       603-2.10570E+04-5.36871E+03-1.73553E+03-1.10988E+04-2.62617E-10 7.92284E-10
 -1       604-2.11432E+04-7.68345E+03-4.16927E+03-1.23868E+04 4.70209E-10 1.35208E-09
 -1       605-2.02746E+04-5.93903E+03-7.69729E+03-1.05472E+04 1.10958E-10 8.92214E-10
 -1       606 1.34842E+04-4.54414E+03-8.18765E+03 1.32949E+04 7.63202E-09 5.04770E-11
 -1       607 1.20823E+04-1.46564E+03-4.07723E+03 1.49243E+04 1.82667E-08-2.25737E-09
 -1       608 1.28833E+04-2.46174E+02-1.82525E+03 1.31888E+04 1.04774E-08 2.49315E-09
 -1       609 1.27269E+04-6.62241E+01-9.22128E+02 1.50418E+04 1.09139E-11-7.76595E-10
 -1       610 1.28155E+04 9.65582E+00-4.40056E+02 1.31770E+04 1.15961E-09 1.52625E-09
 -1       611 1.27880E+04 1.26777E+01-2.22120E+02 1.50546E+04-2.18870E-09-7.01903E-10
 -1       612 1.28008E+04 1.39035E+01-1.06055E+02 1.31758E+04-1.10413E-09 3.11763E-09
 -1       613 1.27919E+04 1.38915E+01-4.85225E+01 1.50562E+04-3.53521E-09 3.89582E-09
 -1       614 1.27940E+04 1.18413E+01-1.35690E+01 1.31754E+04-8.32188E-10-2.23667E-09
 -1       615 1.27901E+04 1.43077E+01 1.46831E+01 1.50565E+04 2.43540E-09-2.80943E-09
 -1       616 1.27888E+04 1.27358E+01 4.93140E+01 1.31755E+04-1.59935E-09-8.77208E-10
 -1       617 1.27958E+04 2.51843E+01 1.14383E+02 1.50563E+04-8.25480E-10-6.84736E-10
 -1       618 1.27785E+04 4.59903E+01 2.31356E+02 1.31756E+04 6.14364E-10 2.25316E-09
 -1       619 1.28774E+04 2.04393E+02 5.19991E+02 1.50560E+04 3.53054E-10 2.85218E-09
 -1       620 1.27014E+04 5.95294E+02 1.04535E+03 1.31753E+04 1.21543E-09 1.71326E-09
 -1       621 1.64732E+02 1.02793E+05 1.41895E+03 3.16007E+03-1.86695E-10-1.56933E-09
 -1       622 1.88256E+02 1.03144E+05 1.20372E+03 4.61089E+03-1.49100E-10-6.18138E-09
 -1       623 8.42868E+00 1.02894E+05 1.38358E+03 3.14507E+03-9.51275E-11 2.77453E-10
 -1       624 6.26547E+02 1.03547E+05 2.62675E+03 4.62570E+03-1.27045E-10 9.59147E-09
 -1       625 6.28693E+02 1.02389E+05 4.56620E+03 3.14536E+03-9.09495E-11 3.09069E-09
 -1       626 8.57556E+04 2.36562E+04 1.79255E+03 4.61810E+04 9.07721E-09-3.51793E-09
 -1       627 8.45771E+04 2.45247E+04 8.64847E+02 4.80918E+04 1.56851E-08-1.03505E-08
 -1       628 8.58283E+04 2.28222E+04 3.65779E+02 4.64528E+04 1.14046E-08-3.60967E-09
 -1       629 8.43260E+04 2.43198E+04 1.79128E+02 4.82074E+04 4.97039E-09 7.03676E-09
 -1       630 8.58365E+04 2.27820E+04 8.30013E+01 4.64622E+04 1.98361E-09-3.69704E-09
 -1       631 8.42990E+04 2.43139E+04 4.43826E+01 4.82108E+04-7.65112E-10-2.39034E-09
 -1       632 8.58351E+04 2.27837E+04 2.90870E+01 4.64600E+04-1.28875E-09-1.83999E-09
 -1       633 8.42950E+04 2.43156E+04 3.19726E+01 4.82091E+04 1.40972E-09-9.79185E-10
 -1       634 8.58319E+04 2.27832E+04 5.14480E+01 4.64588E+04 1.52318E-09-1.51329E-09
 -1       635 8.42981E+04 2.43158E+04 1.04046E+02 4.82098E+04 1.52482E-09-2.76145E-10
 -1       636 8.58269E+04 2.27822E+04 2.10105E+02 4.64577E+04 7.71325E-09-2.01112E-09
 -1       637 8.43404E+04 2.43478E+04 4.61422E+02 4.82081E+04 1.14841E-08-1.87623E-08
 -1       638 8.58077E+04 2.28804E+04 9.47901E+02 4.64119E+04 9.16913E-09-2.50270E-09
 -1       639 8.48358E+04 2.50301E+04 2.24152E+03 4.80655E+04 2.34672E-09-1.24214E-09
 -1       640 8.57313E+04 2.49085E+04 4.64416E+03 4.55477E+04-8.44921E-09-2.89285E-08
 -1       656 2.28673E+04-5.78758E+05-5.52194E+04-5.02372E+02-1.27329E-11-8.45517E-10
 -1       657-3.02165E+04-6.03706E+05-4.56694E+04 3.82510E+03 7.47605E-10 2.35184E-09
 -1       658 7.25118E+03-5.85878E+05-2.80327E+04-7.85721E+02 2.24986E-10-4.19298E-10
 -1       659-3.24060E+04-6.04734E+05-4.85449E+04 4.01179E+03-1.60071E-10 1.92537E-09
 -1       660 2.50507E+04-5.77731E+05-6.01723E+04-6.89055E+02-5.96629E-10-1.58218E-09
 -1       661 8.27157E+04 8.97655E+03 7.91960E+03 3.22774E+04 8.16271E-10 2.38833E-09
 -1       662 8.68161E+04 1.52124E+04 5.33646E+03 3.09273E+04 1.69780E-09-7.43341E-10
 -1       663 8.42640E+04 1.15241E+04 1.86674E+03 3.18339E+04 1.11481E-09 2.83433E-09
 -1       664 8.50271E+04 1.22276E+04 1.11597E+03 3.14635E+04-1.29205E-10 9.39167E-10
 -1       665 8.44930E+04 1.18776E+04 4.40270E+02 3.17726E+04-4.69527E-10-6.25818E-10
 -1       666 8.47609E+04 1.18185E+04 2.56652E+02 3.15397E+04-3.15120E-09 1.14332E-09
 -1       667 8.45287E+04 1.19226E+04 1.35373E+02 3.17617E+04-2.69637E-10-1.21477E-09
 -1       668 8.47253E+04 1.17795E+04 1.35508E+02 3.15538E+04 4.04151E-09-4.01656E-09
 -1       669 8.45284E+04 1.19156E+04 1.81647E+02 3.17589E+04 1.44517E-09-2.68500E-10
 -1       670 8.47763E+04 1.18703E+04 3.93646E+02 3.15475E+04 3.46079E-09 1.03262E-09
 -1       671 8.44779E+04 1.18338E+04 6.98458E+02 3.17673E+04-7.58249E-10 2.57813E-10
 -1       672 8.51885E+04 1.25446E+04 1.78649E+03 3.14433E+04-2.06490E-09 3.35478E-09
 -1       673 8.41185E+04 1.12583E+04 2.99376E+03 3.18566E+04-1.42649E-09-1.20940E-09
 -1       674 8.80435E+04 1.73496E+04 8.56189E+03 3.06003E+04-3.74797E-10-3.72540E-09
 -1       675 8.16415E+04 7.16321E+03 1.27080E+04 3.25598E+04 5.70481E-10-3.17277E-09
 -1       676 9.35395E+00-1.11598E+05-4.34581E+02 1.11542E+01-5.41306E-10-1.54772E-09
 -1       677-1.15358E+02-1.11703E+05-7.95293E+02-2.23073E+01-9.61663E-10-1.80224E-09
 -1       678 7.70128E+01-1.11523E+05-1.40585E+03 1.11454E+01 1.77238E-10-5.78621E-09
 -1       679-1.40597E+03-1.12551E+05-3.33941E+03-2.22645E+01-9.50422E-10-7.26588E-09
 -1       680 8.38991E+02-1.10749E+05-5.38207E+03 1.09832E+01-5.39103E-10-1.72881E-09
 -1       771-1.20096E+06-2.08274E+05-2.90874E+04-4.96862E+05-4.69663E-09-3.45608E-09
 -1       772-1.19331E+06-2.24803E+05-1.56586E+04-5.15264E+05-3.33785E-09 1.37607E-09
 -1       773-1.20469E+06-2.05394E+05-6.66734E+03-4.98491E+05-1.12050E-09 2.25373E-09
 -1       774-1.18901E+06-2.21227E+05-3.27111E+03-5.16617E+05 3.92902E-09-1.58252E-10
 -1       775-1.20534E+06-2.05025E+05-1.59352E+03-4.98583E+05-1.34605E-09 4.23825E-10
 -1       776-1.18884E+06-2.21170E+05-7.50789E+02-5.17182E+05-2.91038E-09 1.06093E-09
 -1       777-1.20573E+06-2.04764E+05-4.27297E+02-4.98614E+05 3.89264E-10 9.27685E-10
 -1       778-1.18892E+06-2.21239E+05-2.01329E+02-5.17642E+05 5.23869E-10 1.94086E-09
 -1       779-1.20603E+06-2.04539E+05-1.78408E+02-4.98640E+05-1.21145E-09-1.40790E-09
 -1       780-1.18902E+06-2.21305E+05-1.56568E+02-5.18015E+05-1.16415E-09 1.11186E-10
 -1       781-1.20624E+06-2.04357E+05-2.73541E+02-4.98656E+05-3.40151E-09-6.67114E-10
 -1       782-1.18913E+06-2.21383E+05-5.21560E+02-5.18291E+05-5.77984E-09-1.43064E-09
 -1       783-1.20636E+06-2.04241E+05-1.04101E+03-4.98655E+05-1.05956E-09-2.05449E-09
 -1       784-1.18980E+06-2.22080E+05-2.47577E+03-5.18431E+05-2.59342E-09 4.54747E-11
 -1       785-1.20598E+06-2.04510E+05-4.57517E+03-4.98325E+05-5.20004E-09 6.36646E-10
 -1       786 8.74360E+04-4.67365E+03 1.08118E+04 2.13945E+00 4.15636E-08 6.43013E-10
 -1       787 9.21211E+04 5.41059E+03 7.64932E+03-8.77063E+00 8.22793E-08 4.43947E-10
 -1       788 8.92436E+04-7.32643E+02 2.79833E+03 2.61954E+00 1.33719E-07 1.72975E-09
 -1       789 9.00154E+04 8.47709E+02 1.75822E+03-1.03025E+01 1.85563E-07 4.88524E-09
 -1       790 8.95419E+04-1.14450E+02 7.15398E+02 3.67137E+00 2.67211E-07-5.14839E-09
 -1       791 8.96673E+04 1.32976E+02 4.20039E+02-1.31262E+01 3.49158E-07 3.30215E-09
 -1       792 8.95918E+04-1.84457E+01 1.91716E+02 5.44331E+00 5.00691E-07-2.81371E-09
 -1       793 8.96110E+04 2.59138E+01 1.25663E+02-1.76508E+01 6.53369E-07 2.27544E-09
 -1       794 8.95982E+04-7.45758E+00 9.31391E+01 8.19597E+00 9.59376E-07-1.02612E-08
 -1       795 8.96166E+04 3.85005E+01 1.34803E+02-2.45332E+01 1.26371E-06 2.92749E-09
 -1       796 8.95863E+04-3.10237E+01 2.01981E+02 1.23259E+01 6.31715E-07-5.45619E-09
 -1       797 8.97082E+04 2.27416E+02 4.76276E+02-3.47659E+01 2.14664E-09 4.73466E-09
 -1       798 8.95066E+04-1.96234E+02 7.51840E+02 1.84288E+01-7.01195E-11-8.24400E-10
 -1       799 9.02719E+04 1.44888E+03 2.04960E+03-4.99247E+01-3.12676E-10 8.35456E-10
 -1       800 8.90224E+04-1.25150E+03 2.89540E+03 2.74848E+01 3.82534E-11 2.48076E-09
 -1       801-4.63797E+03 9.79123E+03 8.41244E+03 9.21225E+03 5.09522E-09-3.18641E-09
 -1       802 1.29007E+04 4.08578E+04 2.47292E+04-3.79362E+04 1.37204E-08-9.96067E-10
 -1       803-8.01008E+03 1.97409E+04 3.26227E+04 8.86716E+03 1.07993E-08 8.99474E-09
 -1       804 6.29426E+04 6.67185E+04 9.02137E+04-3.82634E+04 1.28048E-08 1.01979E-08
 -1       805-5.46838E+04-1.59787E+04 1.19512E+05 9.53887E+03 4.56930E-09 1.29220E-08
 -1       806-1.02779E+05-2.20382E+04-8.72585E+03-4.28299E+04 5.92411E-09 4.31100E-10
 -1       807-1.03288E+05-2.07932E+04-4.28678E+03-4.51489E+04 1.16659E-08-8.79928E-09
 -1       808-1.03027E+05-1.88856E+04-1.81852E+03-4.43102E+04 4.10535E-09-3.51270E-09
 -1       809-1.02374E+05-1.96029E+04-8.89047E+02-4.52728E+04-2.87537E-09-1.20070E-09
 -1       810-1.03066E+05-1.87742E+04-4.07075E+02-4.43757E+04-3.12468E-09-4.78417E-09
 -1       811-1.02304E+05-1.95558E+04-2.01901E+02-4.52628E+04 1.25362E-09-1.29944E-10
 -1       812-1.03074E+05-1.87821E+04-1.00714E+02-4.43758E+04 1.19917E-09 1.54046E-10
 -1       813-1.02295E+05-1.95568E+04-6.35762E+01-4.52580E+04 5.94923E-10-1.55075E-09
 -1       814-1.03073E+05-1.87847E+04-5.95655E+01-4.43748E+04-5.01814E-10 1.55433E-09
 -1       815-1.02297E+05-1.95577E+04-9.33981E+01-4.52574E+04 1.26420E-10 6.19650E-10
 -1       816-1.03068E+05-1.87833E+04-1.74919E+02-4.43741E+04-5.10909E-10 7.02585E-11
 -1       817-1.02328E+05-1.95742E+04-3.75327E+02-4.52552E+04 5.23119E-09 1.56847E-08
 -1       818-1.03047E+05-1.88353E+04-7.64777E+02-4.43497E+04 2.75259E-09 7.11407E-09
 -1       819-1.02752E+05-2.00329E+04-1.80038E+03-4.51540E+04-7.13726E-10-2.31057E-09
 -1       820-1.02902E+05-2.01964E+04-3.66385E+03-4.37702E+04 4.82487E-10-1.10384E-09
 -1       821-1.33030E+05 7.38769E+03-1.70877E+04-7.21771E-01-3.75945E-10 3.11684E-09
 -1       822-1.40434E+05-8.55250E+03-1.20913E+04-9.48087E+01-1.44737E-09 1.16211E-09
 -1       823-1.35887E+05 1.15813E+03-4.42579E+03-2.48918E+01 1.02001E-09-7.88305E-10
 -1       824-1.37105E+05-1.34048E+03-2.78529E+03-4.30888E+01-2.67335E-10 2.28340E-10
 -1       825-1.36358E+05 1.81351E+02-1.14409E+03-5.24434E+01-1.53223E-09 4.22307E-09
 -1       826-1.36558E+05-2.13887E+02-6.92213E+02 9.51723E+00-2.73702E-09 2.40042E-09
 -1       827-1.36435E+05 3.23594E+01-3.56967E+02-7.74990E+01-2.89253E-09-2.56357E-09
 -1       828-1.36482E+05-6.53977E+01-3.17099E+02 5.19118E+01 2.80951E-08 3.51954E-09
 -1       829-1.36434E+05 3.29765E+01-3.62381E+02-9.48387E+01 9.33377E-06-5.23931E-09
 -1       830-1.36562E+05-2.19138E+02-7.08399E+02 7.52710E+01 1.85764E-05-6.64168E-09
 -1       831-1.36355E+05 1.86006E+02-1.17255E+03-1.00859E+02-1.82291E-06-2.69893E-10
 -1       832-1.37124E+05-1.37504E+03-2.85714E+03 7.49054E+01-2.22133E-05 1.07037E-08
 -1       833-1.35872E+05 1.18804E+03-4.53982E+03-9.44727E+01-1.11562E-05 1.23237E-08
 -1       834-1.40538E+05-8.77348E+03-1.24039E+04 5.17477E+01-3.60212E-08 3.73302E-09
 -1       835-1.32942E+05 7.57861E+03-1.75294E+04-7.76984E+01 1.99660E-09 1.27056E-09
 -1       836-4.43763E+02 1.26194E+05 7.59227E+03-1.10219E+04 1.00954E-09 6.23595E-09
 -1       837 1.66539E+03 1.28548E+05 6.47795E+03-2.21572E+04 1.32400E-09 2.27431E-09
 -1       838-1.66223E+02 1.26852E+05 6.67615E+03-1.09829E+04 1.20599E-09 2.23957E-09
 -1       839 4.27701E+03 1.30501E+05 1.27044E+04-2.21721E+04 1.61072E-09 4.18230E-09
 -1       840-1.29141E+03 1.24232E+05 2.02893E+04-1.10066E+04 1.12959E-09-9.80435E-10
 -1       856-4.18542E+04 3.57342E+03-9.41566E+03-1.96834E+02-1.56831E-09 2.12094E-09
 -1       857-4.57447E+04-4.19204E+03-6.48289E+03 2.16126E+03-1.42377E-09 2.64436E-10
 -1       858-4.33913E+04 5.00926E+02-2.44359E+03-2.02642E+02-2.15712E-09 5.26370E-11
 -1       859-4.39785E+04-5.83795E+02-1.47609E+03 2.17027E+03 5.35834E-10 2.98684E-10
 -1       860-4.36214E+04 6.98335E+01-6.20651E+02-2.05880E+02-1.40233E-10-2.98215E-09
 -1       861-4.37130E+04-7.88146E+01-3.45890E+02 2.17462E+03-2.38939E-09 1.10046E-09
 -1       862-4.36572E+04 9.41526E+00-1.52643E+02-2.07005E+02 2.93090E-09-7.38304E-10
 -1       863-4.36707E+04-7.64585E+00-7.57181E+01 2.17513E+03 5.39146E-09-6.36770E-09
 -1       864-4.36637E+04 1.90611E-01-2.42177E+01-2.06392E+02 2.25194E-09 5.84322E-10
 -1       865-4.36591E+04 8.57078E+00 1.28427E+01 2.17191E+03 1.85282E-09-2.96771E-09
 -1       866-4.36684E+04-6.79655E+00 4.93912E+01-2.03784E+02 5.22405E-10-2.97747E-09
 -1       867-4.36310E+04 5.76707E+01 1.36014E+02 2.16488E+03 1.12450E-10 2.96410E-09
 -1       868-4.36910E+04-4.82023E+01 2.30243E+02-1.99357E+02 1.24604E-09-2.88337E-09
 -1       869-4.34600E+04 4.01425E+02 6.17366E+02 2.15252E+03-8.61974E-10-2.45558E-09
 -1       870-4.38383E+04-3.41458E+02 8.96426E+02-1.91430E+02 1.15310E-09 9.91690E-10
 -1       871-1.93253E+03-4.12927E+03-6.33579E+03 4.14117E+04 1.40699E-09 1.25920E-09
 -1       872-8.34028E+02-5.54305E+03-2.58476E+03 5.36866E+04 3.17232E-09-6.87692E-10
 -1       873-1.01204E+01-4.87007E+03 3.67482E+02 4.13196E+04 1.78329E-09-2.61878E-10
 -1       874 9.84384E+02-3.95399E+03 3.59179E+03 5.37057E+04 2.52112E-09-1.69439E-09
 -1       875 2.32042E+03-5.73092E+03 7.96916E+03 4.13948E+04 1.18916E-09-1.60571E-09
 -1       876 1.03551E+05 1.78321E+04 5.53200E+03 4.20009E+04-4.87017E-09-2.30602E-09
 -1       877 1.03860E+05 1.90535E+04 2.95411E+03 4.36466E+04-4.66343E-09-9.06994E-10
 -1       878 1.04070E+05 1.72188E+04 1.23772E+03 4.24547E+04-2.97939E-09-1.41847E-09
 -1       879 1.03108E+05 1.83046E+04 6.16499E+02 4.36874E+04-5.19680E-09 9.62308E-09
 -1       880 1.04108E+05 1.72112E+04 2.87077E+02 4.24732E+04-3.28566E-09 2.97621E-09
 -1       881 1.03058E+05 1.82730E+04 1.52876E+02 4.36807E+04 1.04438E-09-2.01579E-09
 -1       882 1.04113E+05 1.72153E+04 9.71651E+01 4.24737E+04 1.53022E-09 3.19535E-10
 -1       883 1.03054E+05 1.82716E+04 1.03370E+02 4.36791E+04 5.58543E-10 4.16719E-09
 -1       884 1.04111E+05 1.72139E+04 1.63501E+02 4.24738E+04 4.25587E-10 5.84407E-10
 -1       885 1.03067E+05 1.82740E+04 3.28150E+02 4.36834E+04-2.73765E-10-4.30771E-09
 -1       886 1.04098E+05 1.72043E+04 6.61144E+02 4.24725E+04 1.75494E-09 1.33593E-09
 -1       887 1.03184E+05 1.83501E+04 1.44415E+03 4.36998E+04-1.65795E-09 7.46923E-10
 -1       888 1.04007E+05 1.72207E+04 2.91009E+03 4.24263E+04-2.24190E-10 9.91122E-10
 -1       889 1.04918E+05 2.01504E+04 6.95234E+03 4.36440E+04 1.74198E-09 3.03089E-09
 -1       890 1.02820E+05 1.86300E+04 1.30208E+04 4.13173E+04 1.09299E-09-7.35326E-10
 -1       891-6.06924E+01-5.88969E+04-6.92220E+02 1.12046E+04 7.75856E-10-7.50163E-10
 -1       892-1.05986E+02-5.90660E+04-7.54566E+02 1.69609E+04-1.66779E-10-5.18042E-09
 -1       893-1.27680E+01-5.89210E+04-1.07928E+03 1.12065E+04-2.31921E-11-1.36538E-09
 -1       894-5.81472E+02-5.94871E+04-2.24256E+03 1.69012E+04-2.15982E-09-3.66435E-09
 -1       895-4.51973E+02-5.84597E+04-3.95102E+03 1.12638E+04-5.37511E-10-1.56888E-10
 -1       956-1.30112E+05-1.87857E+03-4.72858E+03 8.67214E+03-1.22100E-09-3.75451E-10
 -1       957-1.31045E+05-6.35178E+02-2.42767E+03 1.04371E+04-2.01635E-09-1.12482E-09
 -1       958-1.30529E+05-5.18975E+01-1.09354E+03 8.61622E+03-1.08002E-09-1.27181E-09
 -1       959-1.30602E+05-1.18468E+01-5.58667E+02 1.04976E+04-2.09263E-09 1.23350E-09
 -1       960-1.30564E+05 1.28411E+01-2.72208E+02 8.61119E+03-2.45768E-09-1.52340E-10
 -1       961-1.30568E+05 1.03612E+01-1.44381E+02 1.05032E+04-3.46870E-09-4.59863E-10
 -1       962-1.30570E+05 9.90573E+00-8.23883E+01 8.61060E+03-1.98202E-09 2.60491E-09
 -1       963-1.30565E+05 1.01630E+01-6.57673E+01 1.05040E+04-3.15890E-09 7.24697E-09
 -1       964-1.30571E+05 1.03319E+01-7.92884E+01 8.61040E+03-4.03440E-09 1.42921E-09
 -1       965-1.30569E+05 1.13632E+01-1.36554E+02 1.05039E+04-5.67184E-09 1.93097E-09
 -1       966-1.30567E+05 1.40699E+01-2.55995E+02 8.61065E+03-4.88984E-09-1.28398E-09
 -1       967-1.30604E+05-8.45117E+00-5.24875E+02 1.05008E+04-1.28875E-09 2.19472E-10
 -1       968-1.30536E+05-4.57468E+01-1.02695E+03 8.61356E+03-1.09651E-09-2.11811E-09
 -1       969-1.31022E+05-5.92971E+02-2.28007E+03 1.04654E+04-9.85892E-10 2.31907E-10
 -1       970-1.30145E+05-1.76072E+03-4.44084E+03 8.64684E+03 2.50111E-12 2.06637E-09
 -1       971-1.23612E+05-6.53321E+02-3.63274E+03 6.08828E+03-2.21416E-09-3.47328E-10
 -1       972-1.24495E+05-4.70766E+02-1.97874E+03 8.49057E+03-7.29983E-10-3.70301E-09
 -1       973-1.24013E+05-5.78596E+00-8.85653E+02 6.03902E+03-1.95405E-09 1.37447E-10
 -1       974-1.24073E+05-8.40008E+00-4.58975E+02 8.54326E+03-4.71118E-10-8.93181E-10
 -1       975-1.24042E+05 9.56584E+00-2.28691E+02 6.03525E+03 3.05590E-10 4.75495E-10
 -1       976-1.24045E+05 9.14008E+00-1.31053E+02 8.54752E+03-2.01635E-09-4.14354E-09
 -1       977-1.24047E+05 8.37273E+00-9.32575E+01 6.03473E+03 1.41119E-09-2.37662E-10
 -1       978-1.24045E+05 1.03895E+01-1.06752E+02 8.54824E+03 5.39794E-09-1.10668E-09
 -1       979-1.24046E+05 1.07391E+01-1.69339E+02 6.03453E+03 3.12963E-09-1.61816E-09
 -1       980-1.24057E+05 1.12009E+01-3.25609E+02 8.54828E+03 2.54255E-09 4.35648E-10
 -1       981-1.24036E+05 1.89171E+01-6.29811E+02 6.03468E+03 6.10896E-10 2.23963E-10
 -1       982-1.24144E+05-3.48730E+01-1.30134E+03 8.54609E+03-1.06866E-09-2.96659E-09
 -1       983-1.23957E+05-2.06878E+01-2.52808E+03 6.03677E+03 8.44693E-10-9.07789E-11
 -1       984-1.25362E+05-1.35393E+03-5.66110E+03 8.51261E+03-2.73303E-10 9.56220E-10
 -1       985-1.22814E+05-1.86980E+03-1.03955E+04 6.06954E+03 2.58592E-09 1.32559E-09
 -3
    1PSTEP                         3           2           1          
  100CL  102 3.12500E-01         409                     0    2           1
 -4  DISP        4    1
 -5  D1          1    2    1    0
 -5  D2          1    2    2    0
 -5  D3          1    2    3    0
 -5  ALL         1    2    0    0    1ALL
 -1         1 8.16619E-05 0.00000E+00 0.00000E+00
 -1         2 7.53875E-05 1.62133E-29 0.00000E+00
 -1         3 6.96194E-05 1.34733E-28-3.30872E-24
 -1         5 5.01376E-05 2.63490E-26 0.00000E+00
 -1         8 6.51886E-05-5.91542E-07 0.00000E+00
 -1         9 6.62401E-05 3.93715E-07 0.00000E+00
 -1        10 6.45249E-05-9.52259E-07 3.30872E-24
 -1        12 4.97837E-05 3.40552E-07 0.00000E+00
 -1        15 4.55885E-05-6.38522E-07 0.00000E+00
 -1        16 4.71602E-05 3.12463E-07 0.00000E+00
 -1        17 4.81095E-05-1.99910E-06 0.00000E+00
 -1        18 4.80636E-05 1.33170E-07 0.00000E+00
 -1        19 4.87225E-05 6.79255E-07 0.00000E+00
 -1        20 4.88120E-05 1.01217E-05 0.00000E+00
 -1        21 4.84731E-05 1.91246E-05 0.00000E+00
 -1        24 1.22977E-05-2.67571E-06 0.00000E+00
 -1        25 4.69293E-05 2.11031E-07 0.00000E+00
 -1        26 4.75526E-05 9.47073E-07 0.00000E+00
 -1        27 4.66083E-05 8.61315E-06 0.00000E+00
 -1        28 4.63032E-05 1.88335E-05 0.00000E+00
 -1        32 0.00000E+00 0.00000E+00 0.00000E+00
 -1        33 4.55655E-05 1.27082E-06 0.00000E+00
 -1        34 4.46546E-05 8.59941E-06 0.00000E+00
 -1        35 4.37895E-05 1.86800E-05 0.00000E+00
 -1        51 8.05902E-05-9.81362E-08 0.00000E+00
 -1        52 7.86041E-05-1.93468E-07 0.00000E+00
 -1        53 7.58836E-05-2.89321E-07 0.00000E+00
 -1        54 7.26158E-05-3.86607E-07 0.00000E+00
 -1        55 6.89881E-05-4.85928E-07 2.06795E-25
 -1        56 8.09131E-05-4.65317E-07 0.00000E+00
 -1        57 8.02462E-05-1.23339E-06 1.32349E-23
 -1        58 7.96618E-05-2.21714E-06-2.64698E-23
 -1        59 7.91235E-05-3.33842E-06-1.32349E-23
 -1        60 7.86036E-05-4.50951E-06-2.64698E-23
 -1        61 7.80689E-05-5.64373E-06-1.32349E-23
 -1        62 7.74883E-05-6.65545E-06 2.64698E-23
 -1        63 7.68306E-05-7.46176E-06 0.00000E+00
 -1        64 7.60680E-05-7.98791E-06 0.00000E+00
 -1        65 7.51745E-05-8.16461E-06-1.32349E-23
 -1        66 7.41292E-05-7.93669E-06 0.00000E+00
 -1        67 7.29148E-05-7.25665E-06 0.00000E+00
 -1        68 7.15196E-05-6.09557E-06-2.64698E-23
 -1        69 6.99400E-05-4.43221E-06-1.32349E-23
 -1        70 6.81701E-05-2.26904E-06 0.00000E+00
 -1        86 7.51467E-05 7.03885E-08 0.00000E+00
 -1        87 7.44236E-05 1.40187E-07 0.00000E+00
 -1        88 7.31994E-05 2.09461E-07 0.00000E+00
 -1        89 7.14541E-05 2.75688E-07-5.16988E-26
 -1        90 6.91480E-05 3.41598E-07 3.30872E-24
 -1       121 6.94774E-05-1.58196E-07-3.30872E-24
 -1       122 6.90517E-05-3.16473E-07-3.30872E-24
 -1       123 6.83427E-05-4.74911E-07-3.30872E-24
 -1       124 6.73511E-05-6.33615E-07 1.65436E-24
 -1       125 6.60780E-05-7.92619E-07-3.30872E-24
 -1       191 5.01277E-05 5.67628E-08 0.00000E+00
 -1       192 5.00982E-05 1.13525E-07 0.00000E+00
 -1       193 5.00491E-05 1.70286E-07 0.00000E+00
 -1       194 4.99803E-05 2.27045E-07 0.00000E+00
 -1       195 4.98918E-05 2.83801E-07 0.00000E+00
 -1       251 6.52402E-05 2.11594E-06 0.00000E+00
 -1       252 6.53061E-05 3.72338E-06 5.16988E-26
 -1       253 6.53722E-05 4.41718E-06 0.00000E+00
 -1       254 6.54408E-05 4.38100E-06 0.00000E+00
 -1       255 6.55093E-05 3.77205E-06 1.65436E-24
 -1       256 6.55779E-05 2.74587E-06 0.00000E+00
 -1       257 6.56463E-05 1.44279E-06 1.65436E-24
 -1       258 6.57145E-05 2.35648E-09-8.27181E-25
 -1       259 6.57828E-05-1.44096E-06 0.00000E+00
 -1       260 6.58512E-05-2.75265E-06 0.00000E+00
 -1       261 6.59198E-05-3.79340E-06 1.65436E-24
 -1       262 6.59882E-05-4.42314E-06 0.00000E+00
 -1       263 6.60568E-05-4.48677E-06-8.27181E-25
 -1       264 6.61229E-05-3.82758E-06 0.00000E+00
 -1       265 6.61887E-05-2.26262E-06 0.00000E+00
 -1       266 6.19219E-05-6.07487E-07 0.00000E+00
 -1       267 5.86553E-05-6.14328E-07 0.00000E+00
 -1       268 5.53886E-05-6.21745E-07 8.27181E-25
 -1       269 5.21219E-05-6.27454E-07 0.00000E+00
 -1       270 4.88552E-05-6.33124E-07 0.00000E+00
 -1       271 6.32036E-05 1.84010E-06 0.00000E+00
 -1       272 6.15198E-05 3.37868E-06-1.32349E-23
 -1       273 6.01311E-05 4.13758E-06 0.00000E+00
 -1       274 5.89889E-05 4.22575E-06-1.32349E-23
 -1       275 5.80523E-05 3.76466E-06 0.00000E+00
 -1       276 5.72732E-05 2.88070E-06 0.00000E+00
 -1       277 5.66027E-05 1.70620E-06 0.00000E+00
 -1       278 5.59899E-05 3.76847E-07 0.00000E+00
 -1       279 5.53836E-05-9.69653E-07 0.00000E+00
 -1       280 5.47321E-05-2.19533E-06 0.00000E+00
 -1       281 5.39846E-05-3.16391E-06 2.64698E-23
 -1       282 5.30914E-05-3.74215E-06 1.32349E-23
 -1       283 5.20042E-05-3.80206E-06-2.64698E-23
 -1       284 5.06798E-05-3.22089E-06-1.32349E-23
 -1       285 4.90711E-05-1.88670E-06 2.64698E-23
 -1       301 6.30079E-05 3.76263E-07-3.30872E-24
 -1       302 5.97770E-05 3.68556E-07-1.65436E-24
 -1       303 5.65621E-05 3.61142E-07 0.00000E+00
 -1       304 5.33779E-05 3.52659E-07-1.65436E-24
 -1       305 5.02391E-05 3.42668E-07 0.00000E+00
 -1       306 6.41934E-05 2.76902E-06 0.00000E+00
 -1       307 6.24604E-05 4.21213E-06 0.00000E+00
 -1       308 6.10708E-05 4.74947E-06 0.00000E+00
 -1       309 6.00002E-05 4.41955E-06 0.00000E+00
 -1       310 5.92059E-05 3.35150E-06 0.00000E+00
 -1       311 5.86305E-05 1.69504E-06 1.32349E-23
 -1       312 5.81968E-05-3.41035E-07 0.00000E+00
 -1       313 5.78224E-05-2.53654E-06 0.00000E+00
 -1       314 5.74192E-05-4.65506E-06-2.64698E-23
 -1       315 5.69002E-05-6.46259E-06-1.32349E-23
 -1       316 5.61893E-05-7.75658E-06 0.00000E+00
 -1       317 5.52176E-05-8.35003E-06 0.00000E+00
 -1       318 5.39392E-05-8.12599E-06-2.64698E-23
 -1       319 5.23256E-05-6.99022E-06 0.00000E+00
 -1       320 5.03658E-05-4.94411E-06 1.32349E-23
 -1       336 6.26562E-05-1.12492E-06-6.61744E-24
 -1       337 6.04363E-05-1.29850E-06-3.30872E-24
 -1       338 5.78680E-05-1.47283E-06 3.30872E-24
 -1       339 5.49547E-05-1.64783E-06 1.65436E-24
 -1       340 5.17004E-05-1.82387E-06-3.30872E-24
 -1       406 4.96559E-05 3.97293E-07 0.00000E+00
 -1       407 4.95085E-05 4.54014E-07 1.65436E-24
 -1       408 4.93414E-05 5.10698E-07 0.00000E+00
 -1       409 4.91546E-05 5.67274E-07-1.65436E-24
 -1       410 4.89482E-05 6.23632E-07 1.65436E-24
 -1       521 4.43440E-05 2.00747E-06-5.29396E-23
 -1       522 4.19359E-05 2.43117E-06 0.00000E+00
 -1       523 3.99839E-05 1.65205E-06 0.00000E+00
 -1       524 3.84308E-05-2.25917E-07 2.64698E-23
 -1       525 3.71868E-05-2.93246E-06 5.29396E-23
 -1       526 3.61335E-05-6.15672E-06 2.64698E-23
 -1       527 3.51288E-05-9.51211E-06 0.00000E+00
 -1       528 3.40262E-05-1.26057E-05 0.00000E+00
 -1       529 3.26935E-05-1.50821E-05-5.29396E-23
 -1       530 3.10103E-05-1.66194E-05 0.00000E+00
 -1       531 2.89054E-05-1.70310E-05-5.29396E-23
 -1       532 2.63320E-05-1.61907E-05 0.00000E+00
 -1       533 2.33071E-05-1.41533E-05 5.29396E-23
 -1       534 1.98848E-05-1.10336E-05 2.64698E-23
 -1       535 1.61532E-05-7.11052E-06 0.00000E+00
 -1       536 4.80966E-05 1.34732E-06-1.65436E-24
 -1       537 4.80911E-05 3.87499E-06 0.00000E+00
 -1       538 4.80867E-05 5.66495E-06-4.13590E-25
 -1       539 4.80842E-05 6.79833E-06-1.03398E-25
 -1       540 4.80822E-05 7.35865E-06-2.06795E-25
 -1       541 4.80806E-05 7.42949E-06 5.16988E-26
 -1       542 4.80790E-05 7.09609E-06 0.00000E+00
 -1       543 4.80772E-05 6.44375E-06 2.58494E-26
 -1       544 4.80753E-05 5.55885E-06-5.16988E-26
 -1       545 4.80732E-05 4.52778E-06 2.58494E-26
 -1       546 4.80711E-05 3.43743E-06-2.58494E-26
 -1       547 4.80691E-05 2.37470E-06 0.00000E+00
 -1       548 4.80672E-05 1.42638E-06-2.58494E-26
 -1       549 4.80656E-05 6.79266E-07-5.16988E-26
 -1       550 4.80641E-05 2.19498E-07 2.06795E-25
 -1       551 4.33594E-05-2.10248E-06-3.30872E-24
 -1       552 3.76776E-05-2.20881E-06 8.27181E-25
 -1       553 3.13949E-05-2.31868E-06 3.30872E-24
 -1       554 2.48474E-05-2.43177E-06 0.00000E+00
 -1       555 1.83706E-05-2.54624E-06 1.32349E-23
 -1       556 4.68652E-05 1.22902E-06 0.00000E+00
 -1       557 4.59146E-05 3.69536E-06 0.00000E+00
 -1       558 4.52256E-05 5.47027E-06 0.00000E+00
 -1       559 4.47692E-05 6.62961E-06 0.00000E+00
 -1       560 4.45160E-05 7.24903E-06 0.00000E+00
 -1       561 4.44372E-05 7.40460E-06 0.00000E+00
 -1       562 4.45038E-05 7.17244E-06 0.00000E+00
 -1       563 4.46872E-05 6.62874E-06 0.00000E+00
 -1       564 4.49588E-05 5.84971E-06 0.00000E+00
 -1       565 4.52899E-05 4.91161E-06 0.00000E+00
 -1       566 4.56520E-05 3.89069E-06 8.27181E-25
 -1       567 4.60165E-05 2.86325E-06-2.06795E-25
 -1       568 4.63550E-05 1.90554E-06 0.00000E+00
 -1       569 4.66388E-05 1.09375E-06 0.00000E+00
 -1       570 4.68395E-05 5.04072E-07 0.00000E+00
 -1       571 4.81036E-05 1.93892E-07 8.27181E-25
 -1       572 4.81445E-05 2.27409E-07-3.10193E-25
 -1       573 4.81856E-05 2.38551E-07 4.13590E-25
 -1       574 4.82269E-05 2.32404E-07 4.13590E-25
 -1       575 4.82681E-05 2.14075E-07 8.27181E-25
 -1       576 4.83095E-05 1.88707E-07-4.13590E-25
 -1       577 4.83508E-05 1.61446E-07 1.65436E-24
 -1       578 4.83921E-05 1.37441E-07 0.00000E+00
 -1       579 4.84334E-05 1.21842E-07-1.65436E-24
 -1       580 4.84747E-05 1.19799E-07 8.27181E-25
 -1       581 4.85161E-05 1.36462E-07-1.65436E-24
 -1       582 4.85574E-05 1.76975E-07 0.00000E+00
 -1       583 4.85987E-05 2.46475E-07 0.00000E+00
 -1       584 4.86400E-05 3.50050E-07 0.00000E+00
 -1       585 4.86813E-05 4.92755E-07 0.00000E+00
 -1       586 4.78604E-05 1.46962E-07 0.00000E+00
 -1       587 4.76398E-05 1.60403E-07 1.03398E-25
 -1       588 4.74190E-05 1.73694E-07-4.13590E-25
 -1       589 4.72154E-05 1.86773E-07 0.00000E+00
 -1       590 4.70465E-05 1.99494E-07 0.00000E+00
 -1       591 4.80218E-05 2.14716E-07 0.00000E+00
 -1       592 4.79869E-05 2.73650E-07 0.00000E+00
 -1       593 4.79587E-05 3.14266E-07 0.00000E+00
 -1       594 4.79357E-05 3.40437E-07 0.00000E+00
 -1       595 4.79166E-05 3.56086E-07 0.00000E+00
 -1       596 4.79000E-05 3.65105E-07 2.06795E-25
 -1       597 4.78844E-05 3.71388E-07 0.00000E+00
 -1       598 4.78684E-05 3.78822E-07 2.06795E-25
 -1       599 4.78505E-05 3.91296E-07 0.00000E+00
 -1       600 4.78292E-05 4.12699E-07 0.00000E+00
 -1       601 4.78032E-05 4.46919E-07-2.06795E-25
 -1       602 4.77709E-05 4.97849E-07-5.16988E-26
 -1       603 4.77309E-05 5.69382E-07 1.03398E-25
 -1       604 4.76820E-05 6.65440E-07 0.00000E+00
 -1       605 4.76225E-05 7.89898E-07 0.00000E+00
 -1       606 4.87302E-05 9.59922E-07 0.00000E+00
 -1       607 4.87364E-05 1.30003E-06 0.00000E+00
 -1       608 4.87422E-05 1.69607E-06 0.00000E+00
 -1       609 4.87478E-05 2.14413E-06 0.00000E+00
 -1       610 4.87533E-05 2.64026E-06 0.00000E+00
 -1       611 4.87588E-05 3.18043E-06 8.27181E-25
 -1       612 4.87642E-05 3.76064E-06 0.00000E+00
 -1       613 4.87696E-05 4.37688E-06 8.27181E-25
 -1       614 4.87750E-05 5.02513E-06 0.00000E+00
 -1       615 4.87804E-05 5.70136E-06 0.00000E+00
 -1       616 4.87858E-05 6.40158E-06 0.00000E+00
 -1       617 4.87911E-05 7.12175E-06 0.00000E+00
 -1       618 4.87964E-05 7.85786E-06 0.00000E+00
 -1       619 4.88017E-05 8.60590E-06 0.00000E+00
 -1       620 4.88069E-05 9.36185E-06 0.00000E+00
 -1       621 4.84997E-05 7.23922E-07 0.00000E+00
 -1       622 4.82924E-05 7.68807E-07 8.27181E-25
 -1       623 4.80974E-05 8.13685E-07-1.65436E-24
 -1       624 4.79113E-05 8.58492E-07 0.00000E+00
 -1       625 4.77308E-05 9.03222E-07 8.27181E-25
 -1       626 4.86654E-05 9.74230E-07-3.30872E-24
 -1       627 4.85900E-05 1.31889E-06 0.00000E+00
 -1       628 4.84979E-05 1.70860E-06 0.00000E+00
 -1       629 4.83907E-05 2.13841E-06 0.00000E+00
 -1       630 4.82704E-05 2.60338E-06 0.00000E+00
 -1       631 4.81387E-05 3.09852E-06-8.27181E-25
 -1       632 4.79976E-05 3.61885E-06-1.65436E-24
 -1       633 4.78488E-05 4.15938E-06-8.27181E-25
 -1       634 4.76944E-05 4.71515E-06-1.65436E-24
 -1       635 4.75361E-05 5.28115E-06 8.27181E-25
 -1       636 4.73758E-05 5.85242E-06-1.65436E-24
 -1       637 4.72154E-05 6.42396E-06 0.00000E+00
 -1       638 4.70568E-05 6.99080E-06-8.27181E-25
 -1       639 4.69016E-05 7.54795E-06 0.00000E+00
 -1       640 4.67518E-05 8.09042E-06-8.27181E-25
 -1       656 4.81809E-05 9.87627E-06 0.00000E+00
 -1       657 4.77731E-05 9.62102E-06 0.00000E+00
 -1       658 4.75021E-05 9.36655E-06 6.61744E-24
 -1       659 4.72803E-05 9.11229E-06 0.00000E+00
 -1       660 4.70136E-05 8.85723E-06 3.30872E-24
 -1       661 4.85784E-05 1.08661E-05 0.00000E+00
 -1       662 4.83587E-05 1.15784E-05-4.13590E-25
 -1       663 4.81507E-05 1.22595E-05 0.00000E+00
 -1       664 4.79542E-05 1.29108E-05-8.27181E-25
 -1       665 4.77685E-05 1.35336E-05 0.00000E+00
 -1       666 4.75930E-05 1.41291E-05 8.27181E-25
 -1       667 4.74274E-05 1.46985E-05 0.00000E+00
 -1       668 4.72711E-05 1.52431E-05-8.27181E-25
 -1       669 4.71237E-05 1.57639E-05 0.00000E+00
 -1       670 4.69848E-05 1.62621E-05 8.27181E-25
 -1       671 4.68539E-05 1.67388E-05 0.00000E+00
 -1       672 4.67307E-05 1.71950E-05 0.00000E+00
 -1       673 4.66147E-05 1.76317E-05 8.27181E-25
 -1       674 4.65052E-05 1.80498E-05 0.00000E+00
 -1       675 4.64025E-05 1.84505E-05 4.13590E-25
 -1       676 4.81108E-05 1.90758E-05 0.00000E+00
 -1       677 4.77487E-05 1.90270E-05-8.27181E-25
 -1       678 4.73868E-05 1.89783E-05 0.00000E+00
 -1       679 4.70251E-05 1.89297E-05-8.27181E-25
 -1       680 4.66639E-05 1.88811E-05-8.27181E-25
 -1       771 9.85635E-06 1.94443E-06 2.64698E-23
 -1       772 7.72896E-06 5.72024E-06 0.00000E+00
 -1       773 5.90221E-06 8.70139E-06 0.00000E+00
 -1       774 4.35561E-06 1.09400E-05-1.32349E-23
 -1       775 3.06911E-06 1.24888E-05 0.00000E+00
 -1       776 2.02193E-06 1.34020E-05 0.00000E+00
 -1       777 1.19311E-06 1.37344E-05 0.00000E+00
 -1       778 5.61373E-07 1.35418E-05 0.00000E+00
 -1       779 1.05303E-07 1.28806E-05 0.00000E+00
 -1       780-1.96767E-07 1.18080E-05 0.00000E+00
 -1       781-3.66563E-07 1.03817E-05 0.00000E+00
 -1       782-4.26011E-07 8.66017E-06 0.00000E+00
 -1       783-3.97072E-07 6.70198E-06 0.00000E+00
 -1       784-3.01799E-07 4.56627E-06 1.32349E-23
 -1       785-1.62324E-07 2.31235E-06 0.00000E+00
 -1       786 4.69660E-05 2.10212E-07-4.13590E-25
 -1       787 4.70048E-05 2.10708E-07 0.00000E+00
 -1       788 4.70436E-05 2.13039E-07 0.00000E+00
 -1       789 4.70827E-05 2.17725E-07-4.13590E-25
 -1       790 4.71218E-05 2.25497E-07-8.27181E-25
 -1       791 4.71611E-05 2.37093E-07 0.00000E+00
 -1       792 4.72003E-05 2.53588E-07 0.00000E+00
 -1       793 4.72395E-05 2.76070E-07 8.27181E-25
 -1       794 4.72788E-05 3.06158E-07-1.65436E-24
 -1       795 4.73180E-05 3.45484E-07 8.27181E-25
 -1       796 4.73573E-05 3.96504E-07 0.00000E+00
 -1       797 4.73965E-05 4.61697E-07-4.13590E-25
 -1       798 4.74357E-05 5.44801E-07 0.00000E+00
 -1       799 4.74749E-05 6.49588E-07-4.13590E-25
 -1       800 4.75140E-05 7.81762E-07-8.27181E-25
 -1       801 4.37597E-05 2.14176E-07 4.13590E-25
 -1       802 3.43292E-05 1.79546E-07 4.13590E-25
 -1       803 2.19392E-05 1.15373E-07-1.65436E-24
 -1       804 9.89031E-06 5.07186E-08-1.65436E-24
 -1       805 1.47751E-06 2.12288E-08 0.00000E+00
 -1       806 4.68815E-05 1.83587E-07 0.00000E+00
 -1       807 4.68317E-05 1.56245E-07-8.27181E-25
 -1       808 4.67804E-05 1.32062E-07-1.65436E-24
 -1       809 4.67267E-05 1.13631E-07 0.00000E+00
 -1       810 4.66698E-05 1.03542E-07-1.65436E-24
 -1       811 4.66088E-05 1.04347E-07 0.00000E+00
 -1       812 4.65427E-05 1.18595E-07-1.65436E-24
 -1       813 4.64707E-05 1.48828E-07 0.00000E+00
 -1       814 4.63916E-05 1.97589E-07-8.27181E-25
 -1       815 4.63047E-05 2.67419E-07 4.13590E-25
 -1       816 4.62089E-05 3.60855E-07 8.27181E-25
 -1       817 4.61034E-05 4.80436E-07-4.13590E-25
 -1       818 4.59871E-05 6.28700E-07-8.27181E-25
 -1       819 4.58592E-05 8.08175E-07 4.13590E-25
 -1       820 4.57187E-05 1.02139E-06 0.00000E+00
 -1       821 4.74969E-05 1.14496E-06 0.00000E+00
 -1       822 4.74379E-05 1.37505E-06 0.00000E+00
 -1       823 4.73790E-05 1.64778E-06-1.65436E-24
 -1       824 4.73195E-05 1.97348E-06-8.27181E-25
 -1       825 4.72600E-05 2.35582E-06 0.00000E+00
 -1       826 4.72003E-05 2.79828E-06-8.27181E-25
 -1       827 4.71406E-05 3.29679E-06-1.65436E-24
 -1       828 4.70808E-05 3.84713E-06 0.00000E+00
 -1       829 4.70210E-05 4.43853E-06-1.65436E-24
 -1       830 4.69612E-05 5.06011E-06 8.27181E-25
 -1       831 4.69014E-05 5.69722E-06 1.65436E-24
 -1       832 4.68417E-05 6.33511E-06 0.00000E+00
 -1       833 4.67821E-05 6.95897E-06 1.65436E-24
 -1       834 4.67231E-05 7.55402E-06-4.13590E-25
 -1       835 4.66640E-05 8.10910E-06 0.00000E+00
 -1       836 4.73118E-05 1.00096E-06 0.00000E+00
 -1       837 4.70000E-05 1.05605E-06 8.27181E-25
 -1       838 4.66432E-05 1.11103E-06-1.65436E-24
 -1       839 4.62677E-05 1.16567E-06-4.13590E-25
 -1       840 4.58998E-05 1.22021E-06 0.00000E+00
 -1       856 4.65914E-05 9.12637E-06 0.00000E+00
 -1       857 4.65725E-05 9.70452E-06-1.03398E-25
 -1       858 4.65537E-05 1.03374E-05-4.13590E-25
 -1       859 4.65346E-05 1.10146E-05-2.06795E-25
 -1       860 4.65154E-05 1.17259E-05 0.00000E+00
 -1       861 4.64961E-05 1.24608E-05 2.06795E-25
 -1       862 4.64768E-05 1.32091E-05-4.13590E-25
 -1       863 4.64575E-05 1.39604E-05-2.06795E-25
 -1       864 4.64381E-05 1.47042E-05 0.00000E+00
 -1       865 4.64188E-05 1.54302E-05 2.06795E-25
 -1       866 4.63995E-05 1.61280E-05 4.13590E-25
 -1       867 4.63802E-05 1.67873E-05-4.13590E-25
 -1       868 4.63610E-05 1.73978E-05 8.27181E-25
 -1       869 4.63417E-05 1.79491E-05 0.00000E+00
 -1       870 4.63225E-05 1.84311E-05 8.27181E-25
 -1       871 4.62171E-05 8.61263E-06 2.06795E-25
 -1       872 4.58881E-05 8.61080E-06 0.00000E+00
 -1       873 4.55945E-05 8.60874E-06 0.00000E+00
 -1       874 4.53090E-05 8.60637E-06 0.00000E+00
 -1       875 4.50047E-05 8.60371E-06-4.13590E-25
 -1       876 4.64725E-05 9.13172E-06-1.65436E-24
 -1       877 4.63262E-05 9.68191E-06 0.00000E+00
 -1       878 4.61695E-05 1.02599E-05-1.65436E-24
 -1       879 4.60039E-05 1.08621E-05 8.27181E-25
 -1       880 4.58305E-05 1.14850E-05 0.00000E+00
 -1       881 4.56508E-05 1.21249E-05-8.27181E-25
 -1       882 4.54660E-05 1.27784E-05 1.65436E-24
 -1       883 4.52774E-05 1.34419E-05 0.00000E+00
 -1       884 4.50864E-05 1.41117E-05 0.00000E+00
 -1       885 4.48944E-05 1.47844E-05 0.00000E+00
 -1       886 4.47025E-05 1.54565E-05 0.00000E+00
 -1       887 4.45123E-05 1.61242E-05 8.27181E-25
 -1       888 4.43249E-05 1.67841E-05 0.00000E+00
 -1       889 4.41414E-05 1.74325E-05 8.27181E-25
 -1       890 4.39633E-05 1.80660E-05 8.27181E-25
 -1       891 4.59550E-05 1.88079E-05-8.27181E-25
 -1       892 4.55955E-05 1.87821E-05-2.06795E-25
 -1       893 4.52121E-05 1.87563E-05-4.13590E-25
 -1       894 4.47918E-05 1.87306E-05-2.06795E-25
 -1       895 4.43218E-05 1.87050E-05-4.13590E-25
 -1       956 4.55096E-05 1.59422E-06-1.65436E-24
 -1       957 4.54529E-05 1.95436E-06 0.00000E+00
 -1       958 4.53959E-05 2.34742E-06 8.27181E-25
 -1       959 4.53388E-05 2.76934E-06 8.27181E-25
 -1       960 4.52817E-05 3.21607E-06 0.00000E+00
 -1       961 4.52245E-05 3.68353E-06 8.27181E-25
 -1       962 4.51674E-05 4.16763E-06 1.65436E-24
 -1       963 4.51102E-05 4.66428E-06 8.27181E-25
 -1       964 4.50530E-05 5.16941E-06 0.00000E+00
 -1       965 4.49959E-05 5.67891E-06 0.00000E+00
 -1       966 4.49387E-05 6.18871E-06 0.00000E+00
 -1       967 4.48816E-05 6.69473E-06 0.00000E+00
 -1       968 4.48244E-05 7.19286E-06 0.00000E+00
 -1       969 4.47674E-05 7.67904E-06 0.00000E+00
 -1       970 4.47106E-05 8.14920E-06 0.00000E+00
 -1       971 4.46012E-05 9.06154E-06 8.27181E-25
 -1       972 4.45471E-05 9.57167E-06-4.13590E-25
 -1       973 4.44928E-05 1.01245E-05 0.00000E+00
 -1       974 4.44385E-05 1.07145E-05 0.00000E+00
 -1       975 4.43841E-05 1.13361E-05 1.65436E-24
 -1       976 4.43298E-05 1.19839E-05 0.00000E+00
 -1       977 4.42753E-05 1.26522E-05-1.65436E-24
 -1       978 4.42209E-05 1.33356E-05 8.27181E-25
 -1       979 4.41665E-05 1.40285E-05 1.65436E-24
 -1       980 4.41121E-05 1.47254E-05 8.27181E-25
 -1       981 4.40577E-05 1.54207E-05 0.00000E+00
 -1       982 4.40033E-05 1.61088E-05 8.27181E-25
 -1       983 4.39491E-05 1.67844E-05 1.65436E-24
 -1       984 4.38950E-05 1.74418E-05-8.27181E-25
 -1       985 4.38412E-05 1.80755E-05 0.00000E+00
 -3
    1PSTEP                         4           2           1          
  100CL  102 3.12500E-01         409                     0    2           1
 -4  STRESS      6    1
 -5  SXX         1    4    1    1
 -5  SYY         1    4    2    2
 -5  SZZ         1    4    3    3
 -5  SXY         1    4    1    2
 -5  SYZ         1    4    2    3
 -5  SZX         1    4    3    1
 -1         1-1.07899E+06-4.96990E+05-2.19388E+05-6.97923E+05 7.27596E-12-4.62751E-09
 -1         2 1.81007E+03 2.03782E+05 5.90840E+03 4.17728E+02-1.06894E-10 8.36735E-09
 -1         3-3.09520E+01-4.52136E+05 1.04485E+02-1.03272E+02-1.22121E-10 1.25247E-08
 -1         5-3.16693E+00 1.62409E+05 4.22860E+00-2.27892E-02 6.44775E-11-1.24146E-09
 -1         8-5.08081E+05-2.21440E+05-1.71931E+04-3.85564E+05 1.09139E-11-1.65892E-09
 -1         9-8.72200E+05-2.25764E+05-8.63386E+04-3.01505E+05 2.40252E-09 3.95521E-09
 -1        10-3.43464E+02-4.71032E+05-6.01961E+02-6.89836E+02-2.04977E-09 7.30482E-09
 -1        12-1.43163E+00 1.62417E+05 1.37093E+02 1.11110E-01 9.79199E-11 4.23256E-08
 -1        15 1.34461E+03 7.38932E+02 4.34642E+03 1.89943E+00-2.17378E-09-6.70462E-07
 -1        16-2.45638E+06-7.89958E+05-3.81896E+05-8.02957E+05 7.27596E-09-1.07684E-09
 -1        17-5.41594E+05-3.34186E+05-1.04203E+05-3.15212E+05-3.62415E-09-1.85828E-09
 -1        18 1.93087E+04 1.78780E+03-7.64642E+03-3.82293E+04 4.92605E-10-4.46335E-10
 -1        19 5.11696E+04 6.08258E+04-2.56862E+02 1.00722E+04 1.17416E-10-4.14730E-09
 -1        20-2.08473E+04-2.39615E+05-5.28224E+04 1.79407E+04 8.97520E-10 5.80773E-09
 -1        21-2.27759E+01-1.39534E+05-4.50738E+02-3.46698E+01-6.80591E-09 1.51438E-09
 -1        24-2.15776E+06-7.49249E+05-3.07974E+05-9.13416E+05-1.02567E-08-5.19503E-09
 -1        25 1.91968E+04-2.32237E+03 1.14427E+04-6.90861E+04 2.41653E-10 3.13757E-09
 -1        26-1.17536E+04 4.15935E+04-8.24764E+03-5.95651E+03 1.00263E-09 2.23760E-09
 -1        27-3.83036E+04-1.31525E+05-4.94374E+04 2.98519E+04 3.57037E-09 5.19776E-10
 -1        28 1.07811E+04-3.85428E+04 7.87567E+03 1.23717E+04 3.22743E-09-1.19063E-09
 -1        32-5.14486E+05-7.49307E+04 2.22503E+05-3.46915E+05-1.00772E-08 9.55572E-09
 -1        33-7.55109E+04 3.89440E+04 1.37887E+04-2.25382E+04 7.06166E-10 5.31524E-09
 -1        34-9.80547E+04-9.79678E+03 2.32600E+02 3.02127E+04 2.08820E-09-8.16984E-09
 -1        35-1.09730E+04-1.53235E+04-5.98011E+02 2.42972E+04 2.97545E-09-1.83597E-09
 -1        51 9.89753E+03-2.54345E+05 2.43959E+04-6.29738E+05 1.45519E-11 3.33239E-09
 -1        52 5.22751E+03-2.52397E+05 1.61619E+04-7.34475E+05 1.89175E-10-2.83762E-10
 -1        53 3.43632E+03-2.59021E+05 1.41183E+04-6.27592E+05 1.60071E-10 1.85100E-08
 -1        54 1.07530E+04-2.56919E+05 2.28850E+04-7.36750E+05 2.11003E-10 3.53211E-08
 -1        55 2.35488E+04-2.65323E+05 4.11776E+04-6.27306E+05 2.32831E-10 1.72513E-08
 -1        56-2.07237E+06-2.34245E+05-1.61934E+05-7.99203E+05-4.91127E-10-3.64525E-09
 -1        57-2.13743E+06-3.80672E+05-1.09142E+05-7.92953E+05-1.06047E-09-3.01770E-09
 -1        58-2.10476E+06-2.85650E+05-3.81194E+04-7.89207E+05 5.64341E-10 6.15910E-09
 -1        59-2.09994E+06-3.20413E+05-2.27563E+04-8.04969E+05 6.51426E-11 4.41651E-09
 -1        60-2.10954E+06-2.92772E+05-8.90877E+03-7.87807E+05-9.88621E-10-4.32101E-09
 -1        61-2.09488E+06-3.11594E+05-5.06608E+03-8.06038E+05 1.64209E-09 8.73229E-09
 -1        62-2.10975E+06-2.94254E+05-2.44241E+03-7.88203E+05-9.59517E-11 7.72872E-10
 -1        63-2.09566E+06-3.09016E+05-2.00819E+03-8.04388E+05 1.69052E-10 6.63863E-09
 -1        64-2.10871E+06-2.95351E+05-2.31026E+03-7.89436E+05 4.77485E-11-3.26736E-10
 -1        65-2.09880E+06-3.07312E+05-4.62116E+03-8.01191E+05-9.45988E-10-8.90884E-09
 -1        66-2.10657E+06-2.96012E+05-8.13698E+03-7.91357E+05 5.86624E-11-3.19869E-09
 -1        67-2.10698E+06-3.11648E+05-2.06446E+04-7.95975E+05-1.47216E-09-3.99996E-09
 -1        68-2.10055E+06-2.91241E+05-3.46587E+04-7.94559E+05-1.74623E-10 1.45519E-11
 -1        69-2.14397E+06-3.63448E+05-9.90980E+04-7.81757E+05 6.36646E-10-4.73483E-09
 -1        70-2.06988E+06-2.45773E+05-1.47108E+05-8.05019E+05-1.72440E-09 7.36327E-09
 -1        86-9.07654E+02 2.01973E+05 6.33207E+03-2.08876E+02 8.01947E-10 4.73534E-10
 -1        87 6.02450E+03 2.05841E+05 1.32082E+04 8.58156E+02 1.33468E-09 2.01015E-09
 -1        88-5.11009E+03 1.99915E+05 2.02240E+04-6.49307E+02 2.02090E-09 2.04165E-09
 -1        89 3.80830E+04 2.20783E+05 5.45377E+04 1.84422E+03 3.10411E-09-2.26765E-09
 -1        90-3.28622E+04 1.87040E+05 7.70409E+04-1.19467E+03 3.49974E-09-2.35730E-10
 -1       121-5.42373E+01-4.52307E+05 9.90299E+01 5.15974E+01 2.37669E-10 4.32556E-09
 -1       122 3.40471E+00-4.52113E+05 2.28219E+02-2.06668E+02-8.03080E-10 9.38599E-10
 -1       123-7.91683E+01-4.52332E+05 3.69504E+02 1.54842E+02 7.09747E-10-4.13820E-10
 -1       124 4.24306E+02-4.51854E+05 9.57420E+02-4.92390E+02-1.60242E-09 4.51109E-10
 -1       125-3.52768E+02-4.52570E+05 1.46834E+03 3.37307E+02 1.11072E-09 1.98906E-09
 -1       191-3.46492E+00 1.62422E+05 5.04897E+00 1.11124E-02 1.08345E-10 2.53340E-09
 -1       192-3.55528E+00 1.62409E+05 8.95398E+00 2.75392E-01 1.53681E-10 2.99588E-09
 -1       193-4.49771E+00 1.62422E+05 1.66471E+01-2.88447E-01 1.87072E-10 2.63799E-09
 -1       194-4.80520E+00 1.62410E+05 3.38707E+01 7.73704E-01 1.37155E-10 1.55887E-09
 -1       195-6.48287E+00 1.62421E+05 6.62489E+01-4.90507E-01 2.72898E-10 1.96892E-08
 -1       251 1.82982E+05-3.18907E+04 7.45080E+04 2.93183E+03 5.14433E-10-1.41881E-10
 -1       252 2.16662E+05 3.69047E+04 5.28183E+04-9.77067E+03 4.84306E-11-1.37243E-09
 -1       253 1.95762E+05-4.93840E+03 1.92858E+04 2.08698E+03-3.75962E-10-3.73984E-09
 -1       254 2.01629E+05 5.70723E+03 1.21802E+04-8.43461E+03 5.86056E-11-8.32597E-09
 -1       255 1.97962E+05-7.63084E+02 4.98317E+03 1.59593E+03 2.44711E-11 8.59018E-10
 -1       256 1.99004E+05 9.05171E+02 3.02756E+03-7.70870E+03 1.27960E-09 9.08256E-09
 -1       257 1.98362E+05-1.33584E+02 1.55909E+03 1.36106E+03 1.51360E-10 3.35666E-09
 -1       258 1.98597E+05 2.81984E+02 1.38207E+03-7.47130E+03 1.37593E-10 4.23782E-10
 -1       259 1.98361E+05-1.36256E+02 1.58436E+03 1.35853E+03-3.32321E-10-1.99680E-09
 -1       260 1.99014E+05 9.28620E+02 3.09936E+03-7.69919E+03 1.21489E-10-1.01580E-08
 -1       261 1.97953E+05-7.83577E+02 5.11450E+03 1.58895E+03 7.46724E-10 1.02659E-09
 -1       262 2.01698E+05 5.86186E+03 1.25041E+04-8.41403E+03-4.81592E-10 6.07702E-09
 -1       263 1.95700E+05-5.07156E+03 1.98085E+04 2.07339E+03-4.89649E-10 1.38516E-09
 -1       264 2.17114E+05 3.79019E+04 5.42377E+04-9.73752E+03-1.56538E-09 2.52476E-09
 -1       265 1.82590E+05-3.27499E+04 7.65283E+04 2.91227E+03-1.09696E-09 6.42103E-09
 -1       266-2.43418E+04-1.13822E+04 5.71126E+04-4.06420E+01-3.28146E-09-1.04762E-06
 -1       267 2.82189E+04 1.32662E+04 4.03664E+04 4.68927E+01-6.44513E-09-2.07927E-06
 -1       268-3.78410E+03-1.87886E+03 1.50040E+04-5.97495E+00-5.22414E-09-1.66437E-06
 -1       269 4.46791E+03 2.24860E+03 9.75236E+03 6.95992E+00-3.97085E-09-1.25441E-06
 -1       270-6.70640E+02-3.69462E+02 4.70761E+03-9.44508E-01-2.87753E-09-9.24145E-07
 -1       271-2.39226E+06-2.97896E+05-1.84091E+05-9.31215E+05 5.31145E-10-2.93221E-09
 -1       272-2.44325E+06-4.47275E+05-1.18357E+05-9.46918E+05-1.71622E-09-1.51340E-09
 -1       273-2.42724E+06-3.43385E+05-4.34835E+04-9.22641E+05-2.47837E-10 1.68984E-09
 -1       274-2.40242E+06-3.91493E+05-2.43458E+04-9.60117E+05 9.18817E-10-9.54969E-10
 -1       275-2.43263E+06-3.47509E+05-1.01148E+04-9.20544E+05-1.11868E-10-3.21688E-09
 -1       276-2.39606E+06-3.86653E+05-5.37821E+03-9.63502E+05-1.44837E-10 6.15262E-09
 -1       277-2.43385E+06-3.47407E+05-2.63044E+03-9.19721E+05 3.86763E-10-3.92220E-11
 -1       278-2.39490E+06-3.86638E+05-1.91344E+03-9.64488E+05 1.05081E-09-2.69068E-09
 -1       279-2.43392E+06-3.47388E+05-2.05294E+03-9.19674E+05 7.27709E-10-1.14869E-09
 -1       280-2.39570E+06-3.86529E+05-3.76157E+03-9.63730E+05-8.29459E-10-1.31877E-10
 -1       281-2.43295E+06-3.47617E+05-6.88119E+03-9.20389E+05 3.09228E-10 3.72029E-09
 -1       282-2.40040E+06-3.89299E+05-1.64289E+04-9.60822E+05-5.23414E-10 5.85123E-09
 -1       283-2.42896E+06-3.45229E+05-2.93326E+04-9.22202E+05-3.68800E-10-5.12227E-09
 -1       284-2.42868E+06-4.25979E+05-7.97337E+04-9.50791E+05-1.86719E-09-7.13771E-09
 -1       285-2.40483E+06-3.15194E+05-1.24110E+05-9.28609E+05 2.81034E-10-3.63798E-10
 -1       301 9.18182E+03-5.60935E+03 7.16402E+04-1.76312E+04-6.83940E-10 5.11704E-10
 -1       302 9.86577E+03 1.25708E+04 5.17642E+04-2.59447E+04 8.86075E-10 2.00203E-10
 -1       303 4.32852E+02 8.20401E+02 4.77002E+04-1.76685E+04-4.11092E-10 2.76668E-09
 -1       304 1.86411E+04 2.06655E+04 8.02921E+04-2.58734E+04 4.87489E-10 9.62518E-09
 -1       305 1.84750E+04-1.36569E+04 1.34771E+05-1.76550E+04-6.98492E-10-2.80579E-10
 -1       306-2.57454E+06-2.96257E+05-1.96292E+05-1.00432E+06 1.88811E-09-4.11819E-09
 -1       307-2.67214E+06-4.65732E+05-1.33842E+05-9.74400E+05-7.27596E-12 3.14321E-09
 -1       308-2.61916E+06-3.57206E+05-4.61851E+04-9.85865E+05 3.86081E-10 1.82445E-09
 -1       309-2.61700E+06-3.98326E+05-2.79775E+04-1.00017E+06 7.90635E-10 6.06951E-09
 -1       310-2.62946E+06-3.62464E+05-1.08392E+04-9.78982E+05-1.55096E-09-1.11095E-09
 -1       311-2.60370E+06-3.93748E+05-6.28339E+03-1.01009E+06 2.47167E-09 6.43922E-10
 -1       312-2.63253E+06-3.61538E+05-3.07211E+03-9.76080E+05-7.30722E-11 2.87537E-09
 -1       313-2.60113E+06-3.94179E+05-2.76987E+03-1.01248E+06-1.61458E-09 3.65134E-09
 -1       314-2.63207E+06-3.61985E+05-3.33079E+03-9.76630E+05-1.08832E-09 1.34798E-09
 -1       315-2.60550E+06-3.92257E+05-7.01923E+03-1.00800E+06-9.37291E-10 4.02724E-09
 -1       316-2.62808E+06-3.63537E+05-1.22463E+04-9.80501E+05 1.68166E-09-1.79807E-09
 -1       317-2.62104E+06-3.97042E+05-3.16533E+04-9.96335E+05 1.78829E-10-2.47928E-09
 -1       318-2.61647E+06-3.57467E+05-5.22721E+04-9.88150E+05-2.32831E-09 4.13274E-09
 -1       319-2.68284E+06-4.74146E+05-1.51542E+05-9.68144E+05-3.70665E-09 1.84627E-09
 -1       320-2.56657E+06-2.87756E+05-2.22168E+05-1.00824E+06 4.44925E-09 5.82077E-10
 -1       336 3.54604E+02-4.89652E+05-2.60545E+03 3.52087E+02-4.33806E-09-7.69433E-10
 -1       337-9.38983E+02-4.90374E+05-2.85435E+03-9.49583E+02-7.89635E-09-5.25870E-09
 -1       338 2.33466E+02-4.89728E+05-3.59286E+03 5.95976E+02-5.76472E-09 2.76486E-10
 -1       339-3.71487E+03-4.92075E+05-7.86744E+03-1.43299E+03-1.05265E-08 3.78759E-09
 -1       340 2.52823E+03-4.87970E+05-1.21214E+04 8.32715E+02-7.08133E-09-1.72804E-10
 -1       406 9.03262E+00 1.62415E+05 2.70656E+02 3.71659E-01 3.47001E-10 1.82508E-08
 -1       407 9.29392E+01 1.62465E+05 5.75269E+02-6.66094E+00 2.83649E-11-7.03335E-09
 -1       408 2.94679E+02 1.62373E+05 1.14894E+03 6.36342E+00 4.49631E-10-1.05501E-09
 -1       409 1.24101E+03 1.62832E+05 2.58670E+03-5.81766E+01 3.67208E-11-1.43245E-09
 -1       410 3.56821E+03 1.62047E+05 5.28068E+03 5.32116E+01 4.58385E-10 1.86969E-09
 -1       521-4.86020E+06-5.61448E+05-3.63962E+05-1.89074E+06 4.46744E-09-3.05590E-09
 -1       522-5.03624E+06-8.74634E+05-2.47314E+05-1.84078E+06 6.75755E-10 1.09139E-09
 -1       523-4.94487E+06-6.70369E+05-8.55740E+04-1.85417E+06 1.22418E-09-1.47338E-09
 -1       524-4.93179E+06-7.54069E+05-5.15775E+04-1.89146E+06 3.25713E-10-3.49701E-09
 -1       525-4.96404E+06-6.79176E+05-1.99758E+04-1.84104E+06 2.76486E-10-2.39834E-09
 -1       526-4.90978E+06-7.43608E+05-1.15130E+04-1.90685E+06 1.16160E-10-5.42286E-10
 -1       527-4.96694E+06-6.80286E+05-5.52739E+03-1.83905E+06 3.02964E-09-8.29573E-10
 -1       528-4.91290E+06-7.35955E+05-4.69419E+03-1.90119E+06 6.50289E-10 1.12783E-09
 -1       529-4.96075E+06-6.86882E+05-5.61362E+03-1.84660E+06-2.25123E-09 3.19415E-09
 -1       530-4.93199E+06-7.20169E+05-1.12554E+04-1.87934E+06-9.89303E-10-1.24055E-09
 -1       531-4.94754E+06-6.96348E+05-2.00064E+04-1.86064E+06-8.18090E-10 3.77713E-09
 -1       532-4.96891E+06-7.15968E+05-5.10882E+04-1.84777E+06-4.15923E-10-2.71666E-09
 -1       533-4.92396E+06-6.91491E+05-8.49233E+04-1.87804E+06 2.21280E-09-3.50337E-09
 -1       534-5.07420E+06-8.35515E+05-2.45581E+05-1.79834E+06 3.53975E-09 4.13274E-09
 -1       535-4.84344E+06-5.79210E+05-3.61037E+05-1.90954E+06-6.00267E-09 6.38829E-09
 -1       536-1.10224E+04-1.36036E+04 3.13349E+04 2.99781E+02-1.07175E-09-6.65750E-10
 -1       537 3.48234E+03 1.57403E+04 2.23255E+04-1.20684E+03-4.91520E-09 1.46179E-09
 -1       538-5.64991E+03-2.13200E+03 8.08269E+03 2.83987E+02 3.22956E-10 2.66664E-09
 -1       539-2.85594E+03 2.46109E+03 5.16100E+03-1.20019E+03 2.20035E-09-1.87896E-09
 -1       540-4.69087E+03-3.31784E+02 2.04079E+03 2.93137E+02 2.63874E-10-1.62470E-09
 -1       541-4.03171E+03 3.79531E+02 1.21916E+03-1.21737E+03 1.07860E-10-3.17294E-09
 -1       542-4.47828E+03-4.91110E+01 4.89081E+02 3.01157E+02-7.80581E-10 1.80259E-09
 -1       543-4.31506E+03 4.69793E+01 2.46435E+02-1.23011E+03 1.06769E-09-7.58185E-10
 -1       544-4.41021E+03 2.47828E+00 3.55637E+01 3.05880E+02 1.01405E-10-4.38799E-09
 -1       545-4.42487E+03-6.06837E+01-1.44659E+02-1.23608E+03-4.15131E-10-1.21619E-09
 -1       546-4.36972E+03 5.93806E+01-3.38156E+02 3.07128E+02 4.43894E-10 1.82354E-10
 -1       547-4.60210E+03-4.39961E+02-8.94860E+02-1.23503E+03-8.83727E-10 3.35530E-09
 -1       548-4.23274E+03 3.81310E+02-1.45285E+03 3.04832E+02-1.48292E-09 2.85854E-09
 -1       549-5.62925E+03-2.81097E+03-3.96200E+03-1.22601E+03-9.59941E-10 1.06905E-09
 -1       550-3.34081E+03 2.42730E+03-5.64442E+03 2.98107E+02 3.77653E-11-1.45837E-09
 -1       551 4.25103E+03-2.57746E+05 1.43343E+04-4.42311E+05-1.92122E-08-9.24047E-10
 -1       552 8.66928E+03-2.57648E+05 1.85564E+04-6.29377E+05-1.47338E-08 1.41281E-08
 -1       553 5.52895E+03-2.61034E+05 2.89326E+04-4.40903E+05-2.36032E-08 5.32418E-09
 -1       554 2.27648E+04-2.48154E+05 6.14502E+04-6.29978E+05-1.45010E-08-1.33741E-09
 -1       555 2.33769E+04-2.72815E+05 1.10493E+05-4.41509E+05-2.38651E-08-2.85763E-09
 -1       556 3.57757E+04-8.22184E+04 2.85969E+04-1.10120E+05-3.84171E-09 2.37924E-09
 -1       557 6.91768E+04-1.10311E+05 1.49585E+04-1.37533E+05-1.09139E-11 3.03680E-09
 -1       558 3.61817E+04-8.63267E+04 6.13741E+03-1.06552E+05-2.56841E-09 3.55976E-09
 -1       559 6.52476E+04-1.14410E+05 3.08557E+03-1.39123E+05 2.16824E-09-8.58108E-10
 -1       560 3.55906E+04-8.59167E+04 1.32196E+03-1.06888E+05 8.62201E-10 1.77715E-09
 -1       561 6.41830E+04-1.14224E+05 6.81549E+02-1.39787E+05-3.29237E-10-2.13959E-10
 -1       562 3.50846E+04-8.55633E+04 2.78524E+02-1.07257E+05-2.94676E-10 1.72804E-11
 -1       563 6.35730E+04-1.13965E+05 1.59527E+02-1.40177E+05 4.91127E-11-4.44345E-09
 -1       564 3.47695E+04-8.53557E+04 5.92667E+01-1.07483E+05 4.75848E-09 7.61884E-09
 -1       565 6.32602E+04-1.13833E+05 2.81061E+01-1.40371E+05-2.19643E-10-6.33281E-09
 -1       566 3.46622E+04-8.52817E+04-2.00495E+01-1.07563E+05-8.36280E-10 1.95632E-09
 -1       567 6.32163E+04-1.13811E+05-8.15817E+01-1.40358E+05 3.75189E-09-6.87578E-09
 -1       568 3.47842E+04-8.53636E+04-2.11546E+02-1.07516E+05-1.03682E-10 2.49020E-09
 -1       569 6.30199E+04-1.13692E+05-4.99310E+02-1.39774E+05-2.37833E-09 2.39197E-10
 -1       570 3.54837E+04-8.60477E+04-1.02769E+03-1.07591E+05-3.12866E-10-8.87940E-09
 -1       571 1.17812E+05 4.27243E+03 6.32853E+03-2.95226E+04 2.45564E-11-5.49107E-10
 -1       572 1.18755E+05 1.48606E+03 3.10035E+03-3.23615E+04 3.28555E-10-5.50017E-09
 -1       573 1.18194E+05 3.54152E+02 1.37727E+03-2.94454E+04 9.29958E-10-2.39720E-09
 -1       574 1.18307E+05 1.14432E+02 6.89893E+02-3.24481E+04 6.18115E-10 2.68437E-09
 -1       575 1.18238E+05 1.49098E+01 3.25091E+02-2.94351E+04 5.13751E-10 1.66006E-09
 -1       576 1.18246E+05 3.13737E+00 1.65349E+02-3.24597E+04-2.15721E-10 2.82284E-09
 -1       577 1.18245E+05-3.30389E+00 8.13255E+01-2.94338E+04-1.42279E-10 3.30147E-09
 -1       578 1.18239E+05-1.90812E+00 4.40857E+01-3.24611E+04-3.76190E-10-2.84786E-09
 -1       579 1.18250E+05-3.33044E+00 2.66296E+01-2.94338E+04-1.28011E-10 2.89833E-09
 -1       580 1.18245E+05-3.66336E+00 2.42246E+01-3.24593E+04-7.69205E-10 4.73165E-10
 -1       581 1.18258E+05-5.33707E+00 3.23617E+01-2.94356E+04-7.14863E-10 8.32415E-10
 -1       582 1.18261E+05 2.66688E-01 6.10656E+01-3.24416E+04-5.45697E-10-1.46019E-09
 -1       583 1.18266E+05 1.66674E+01 1.17186E+02-2.94514E+04 6.25732E-10 2.70802E-09
 -1       584 1.18315E+05 1.08845E+02 2.62361E+02-3.23103E+04-7.02585E-10-8.31506E-10
 -1       585 1.18248E+05 3.41221E+02 5.33185E+02-2.95671E+04-2.31921E-10-4.07454E-10
 -1       586-1.47113E+03 3.83136E+04-1.94105E+03-1.00837E+05 3.38559E-10-7.31347E-09
 -1       587-3.29208E+02 3.80551E+04-2.37122E+02-1.10962E+05 5.23869E-10-3.07708E-09
 -1       588 3.89332E+02 3.81056E+04 1.33218E+03-1.00775E+05 2.98314E-10-5.40331E-09
 -1       589 1.98958E+03 3.88339E+04 3.90765E+03-1.10870E+05 4.65661E-10-2.59624E-08
 -1       590 5.73725E+03 3.76121E+04 8.37929E+03-1.00929E+05 2.20098E-10-1.00972E-08
 -1       591-2.55589E+04-7.35727E+03-8.54622E+03-1.33000E+04-2.36182E-09-5.30554E-09
 -1       592-2.63512E+04-9.46429E+03-4.62898E+03-1.55380E+04-1.67893E-09-3.06898E-09
 -1       593-2.64229E+04-6.72754E+03-1.92708E+03-1.39168E+04-6.39147E-10-5.34158E-09
 -1       594-2.51598E+04-8.22237E+03-9.61150E+02-1.55971E+04-1.33139E-09-1.18760E-09
 -1       595-2.64889E+04-6.72480E+03-4.41723E+02-1.39450E+04-1.53136E-09 2.00392E-09
 -1       596-2.50791E+04-8.16552E+03-2.25203E+02-1.55886E+04 9.88422E-10-9.26292E-10
 -1       597-2.64973E+04-6.73030E+03-1.24019E+02-1.39461E+04 3.61469E-09 5.82352E-09
 -1       598-2.50714E+04-8.16334E+03-1.02243E+02-1.55863E+04 5.76961E-11 6.14079E-10
 -1       599-2.64967E+04-6.73025E+03-1.33751E+02-1.39460E+04-2.26282E-09-7.56114E-09
 -1       600-2.50803E+04-8.16620E+03-2.51031E+02-1.55886E+04-1.18575E-09-2.46493E-09
 -1       601-2.64864E+04-6.72410E+03-4.96494E+02-1.39444E+04 1.70530E-10-3.33171E-09
 -1       602-2.51714E+04-8.23008E+03-1.08287E+03-1.55974E+04-1.21929E-09-7.19228E-09
 -1       603-2.64114E+04-6.72809E+03-2.17187E+03-1.39128E+04 6.07770E-10 2.40857E-09
 -1       604-2.65187E+04-9.62502E+03-5.21739E+03-1.55247E+04-2.49202E-10 3.68061E-09
 -1       605-2.54321E+04-7.44187E+03-9.63236E+03-1.32224E+04 1.90568E-09 8.77753E-09
 -1       606 1.68646E+04-5.68458E+03-1.02408E+04 1.66129E+04-1.94541E-09 1.90994E-10
 -1       607 1.51110E+04-1.83347E+03-5.09952E+03 1.86489E+04 1.45519E-10-3.20051E-09
 -1       608 1.61107E+04-3.08222E+02-2.28314E+03 1.64803E+04 1.95450E-09-1.20963E-10
 -1       609 1.59143E+04-8.18505E+01-1.15336E+03 1.87955E+04-2.10457E-09 1.92631E-09
 -1       610 1.60237E+04 1.31430E+01-5.50578E+02 1.64655E+04-4.15002E-09 1.12323E-09
 -1       611 1.59882E+04 1.81757E+01-2.77849E+02 1.88115E+04-5.09181E-09 7.85485E-09
 -1       612 1.60033E+04 1.96609E+01-1.32776E+02 1.64641E+04-1.89266E-09 1.95814E-09
 -1       613 1.59911E+04 2.08062E+01-6.07112E+01 1.88135E+04-2.14436E-09-9.94771E-09
 -1       614 1.59932E+04 1.80478E+01-1.70478E+01 1.64635E+04 2.15095E-10 3.14253E-09
 -1       615 1.59874E+04 2.21920E+01 1.83559E+01 1.88138E+04 3.68232E-09 1.65733E-09
 -1       616 1.59856E+04 1.98903E+01 6.16384E+01 1.64637E+04-2.89356E-09-1.74100E-09
 -1       617 1.59934E+04 3.64109E+01 1.43053E+02 1.88135E+04-3.15595E-10-1.81103E-09
 -1       618 1.59719E+04 6.19593E+01 2.89323E+02 1.64638E+04 2.51930E-10 4.47608E-09
 -1       619 1.60947E+04 2.60893E+02 6.50299E+02 1.88132E+04 3.54248E-10 4.73483E-09
 -1       620 1.58751E+04 7.49145E+02 1.30729E+03 1.64634E+04 1.16432E-09-1.12868E-09
 -1       621 2.05938E+02 1.28576E+05 1.77718E+03 3.98479E+03-2.13291E-10-8.33325E-11
 -1       622 2.35299E+02 1.29016E+05 1.50728E+03 5.81643E+03-2.37492E-10-1.87828E-09
 -1       623 1.02342E+01 1.28703E+05 1.73205E+03 3.96595E+03-1.09623E-10-4.66952E-09
 -1       624 7.83791E+02 1.29519E+05 3.28790E+03 5.83496E+03-1.32331E-10-1.50363E-08
 -1       625 7.86667E+02 1.28070E+05 5.71531E+03 3.96642E+03-1.03910E-10-5.91425E-09
 -1       626 1.07210E+05 2.95738E+04 2.23654E+03 5.77368E+04-1.16484E-09-3.36877E-09
 -1       627 1.05736E+05 3.06609E+04 1.07919E+03 6.01238E+04 1.44155E-09 1.02455E-08
 -1       628 1.07299E+05 2.85337E+04 4.56302E+02 5.80751E+04 6.57565E-10-7.20775E-11
 -1       629 1.05421E+05 3.04060E+04 2.23536E+02 6.02667E+04-8.91305E-11 2.61974E-09
 -1       630 1.07308E+05 2.84843E+04 1.03512E+02 5.80858E+04-5.12046E-10 2.72848E-11
 -1       631 1.05386E+05 3.03992E+04 5.54066E+01 6.02699E+04-3.07068E-09-3.73473E-09
 -1       632 1.07305E+05 2.84871E+04 3.63009E+01 5.80825E+04-2.91629E-09 1.59093E-09
 -1       633 1.05380E+05 3.04016E+04 3.99732E+01 6.02671E+04-4.59522E-10 1.91639E-09
 -1       634 1.07300E+05 2.84869E+04 6.43223E+01 5.80806E+04 2.26669E-09-2.67175E-09
 -1       635 1.05384E+05 3.04022E+04 1.30107E+02 6.02675E+04 2.38674E-09 6.46378E-09
 -1       636 1.07294E+05 2.84857E+04 2.62703E+02 5.80790E+04 7.66551E-09-8.16749E-09
 -1       637 1.05436E+05 3.04422E+04 5.76921E+02 6.02655E+04 1.59106E-08-1.51861E-08
 -1       638 1.07270E+05 2.86084E+04 1.18512E+03 5.80218E+04 1.15806E-08-5.06247E-09
 -1       639 1.06056E+05 3.12950E+04 2.80244E+03 6.00875E+04 8.61974E-09 1.58826E-08
 -1       640 1.07175E+05 3.11436E+04 5.80622E+03 5.69415E+04 1.06315E-08 1.68423E-08
 -1       656 2.85926E+04-7.23591E+05-6.90390E+04-5.15026E+02-8.51287E-10-1.58209E-10
 -1       657-3.77824E+04-7.54774E+05-5.70986E+04 4.77108E+03-6.34827E-10-9.52905E-10
 -1       658 9.06694E+03-7.32489E+05-3.50465E+04-9.58852E+02-8.52651E-12 2.08151E-09
 -1       659-4.05199E+04-7.56063E+05-6.06940E+04 5.06454E+03 4.47017E-10 3.36688E-09
 -1       660 3.13227E+04-7.22304E+05-7.52294E+04-8.08480E+02-2.36469E-10 2.93467E-09
 -1       661 1.03378E+05 1.12318E+04 9.89918E+03 4.03582E+04 1.35969E-09 5.91763E-09
 -1       662 1.08514E+05 1.90154E+04 6.67037E+03 3.86584E+04 1.53386E-09-2.70154E-09
 -1       663 1.05315E+05 1.44147E+04 2.33335E+03 3.98023E+04-4.65150E-10-2.36207E-09
 -1       664 1.06276E+05 1.52872E+04 1.39495E+03 3.93316E+04 1.06482E-10-5.86171E-09
 -1       665 1.05602E+05 1.48555E+04 5.50314E+02 3.97244E+04-1.44558E-09 1.69607E-10
 -1       666 1.05941E+05 1.47779E+04 3.20834E+02 3.94292E+04-4.90650E-09-3.53104E-09
 -1       667 1.05648E+05 1.49108E+04 1.69201E+02 3.97096E+04 3.85896E-10-2.47465E-09
 -1       668 1.05894E+05 1.47311E+04 1.69401E+02 3.94490E+04 2.42751E-09-3.37742E-09
 -1       669 1.05648E+05 1.49010E+04 2.27042E+02 3.97051E+04 7.22352E-10 1.70347E-09
 -1       670 1.05956E+05 1.48463E+04 4.92057E+02 3.94430E+04 1.67606E-09 3.51870E-09
 -1       671 1.05586E+05 1.47980E+04 8.73034E+02 3.97146E+04-1.71764E-09-2.29119E-09
 -1       672 1.06470E+05 1.56907E+04 2.23303E+03 3.93146E+04-1.93097E-09-1.02466E-09
 -1       673 1.05137E+05 1.40780E+04 3.74203E+03 3.98254E+04-1.80859E-09-4.78099E-09
 -1       674 1.10037E+05 2.16978E+04 1.07017E+04 3.82623E+04 9.50365E-10-5.21959E-09
 -1       675 1.02042E+05 8.95893E+03 1.58843E+04 4.07037E+04 3.61251E-09 2.48838E-09
 -1       676 1.16954E+01-1.39497E+05-5.43252E+02 1.73353E+01-1.78738E-09 3.34499E-09
 -1       677-1.44200E+02-1.39628E+05-9.94175E+02-3.46650E+01-1.32798E-09-4.04084E-09
 -1       678 9.62796E+01-1.39403E+05-1.75742E+03 1.73178E+01-1.81967E-09-2.58032E-09
 -1       679-1.75763E+03-1.40689E+05-4.17458E+03-3.45870E+01-3.17129E-09-4.67073E-10
 -1       680 1.04887E+03-1.38436E+05-6.72808E+03 1.70581E+01 8.81300E-10-1.81356E-09
 -1       771-1.50056E+06-2.60804E+05-3.64852E+04-6.21051E+05-5.74801E-09-4.99858E-09
 -1       772-1.49117E+06-2.81053E+05-1.96143E+04-6.43600E+05-3.74712E-09 1.71167E-09
 -1       773-1.50535E+06-2.57100E+05-8.39944E+03-6.23095E+05-1.79716E-09 2.60843E-09
 -1       774-1.48583E+06-2.76634E+05-4.10724E+03-6.45494E+05 5.82440E-09-9.80435E-10
 -1       775-1.50629E+06-2.56534E+05-2.03470E+03-6.23217E+05-3.96540E-10 4.78394E-10
 -1       776-1.48566E+06-2.76599E+05-9.49083E+02-6.46382E+05-1.18780E-09 1.33878E-09
 -1       777-1.50689E+06-2.56116E+05-5.62499E+02-6.23265E+05 6.65750E-10 9.48603E-10
 -1       778-1.48580E+06-2.76713E+05-2.57741E+02-6.47111E+05 1.06775E-09 2.21189E-09
 -1       779-1.50735E+06-2.55759E+05-2.40168E+02-6.23306E+05-1.48066E-09-1.73986E-09
 -1       780-1.48595E+06-2.76816E+05-1.98724E+02-6.47702E+05-5.58430E-10 2.49656E-10
 -1       781-1.50770E+06-2.55472E+05-3.50832E+02-6.23333E+05-4.87489E-09-7.35326E-10
 -1       782-1.48612E+06-2.76925E+05-6.53771E+02-6.48137E+05-6.89761E-09-1.73020E-09
 -1       783-1.50789E+06-2.55286E+05-1.30665E+03-6.23337E+05-1.49521E-09-2.49560E-09
 -1       784-1.48698E+06-2.77806E+05-3.10145E+03-6.48367E+05-3.21552E-09 2.45564E-11
 -1       785-1.50744E+06-2.55603E+05-5.73303E+03-6.22927E+05-6.31644E-09 7.12134E-10
 -1       786 1.09623E+05-5.85002E+03 1.35334E+04 1.52490E+00 9.26473E-08 7.69433E-10
 -1       787 1.15488E+05 6.77247E+03 9.57480E+03-7.33874E+00 1.83898E-07 3.59705E-10
 -1       788 1.11886E+05-9.17053E+02 3.50277E+03 2.49401E+00 2.64216E-07 1.86924E-09
 -1       789 1.12852E+05 1.06108E+03 2.20084E+03-9.92483E+00 3.44706E-07 5.61514E-09
 -1       790 1.12259E+05-1.43259E+02 8.95522E+02 4.11103E+00 4.71706E-07-3.91259E-09
 -1       791 1.12416E+05 1.66454E+02 5.25836E+02-1.41047E+01 5.99765E-07 7.41908E-09
 -1       792 1.12322E+05-2.30943E+01 2.40081E+02 6.67395E+00 8.38722E-07-8.00331E-09
 -1       793 1.12346E+05 3.24800E+01 1.57517E+02-2.06490E+01 1.07563E-06-4.65240E-10
 -1       794 1.12330E+05-9.37376E+00 1.16980E+02 1.06555E+01 5.38025E-07-3.38455E-09
 -1       795 1.12353E+05 4.84776E+01 1.69646E+02-3.07548E+01 1.89760E-09 2.23459E-09
 -1       796 1.12315E+05-3.90800E+01 2.54384E+02 1.67799E+01 1.63799E-10 8.30198E-11
 -1       797 1.12468E+05 2.86506E+02 6.00017E+02-4.62627E+01 1.03242E-10 2.96865E-09
 -1       798 1.12214E+05-2.47226E+02 9.47203E+02 2.61637E+01-8.09295E-11-1.77425E-09
 -1       799 1.13179E+05 1.82540E+03 2.58227E+03-7.01495E+01-4.41724E-10 1.50411E-09
 -1       800 1.11604E+05-1.57673E+03 3.64780E+03 4.06668E+01 9.95497E-11 3.69528E-09
 -1       801-6.34072E+03 1.07776E+04 9.90190E+03 1.15998E+04 6.44604E-09-7.28733E-10
 -1       802 1.65857E+04 5.73637E+04 3.18828E+04-4.77804E+04 1.72267E-08 1.93825E-09
 -1       803-9.84723E+03 2.73057E+04 4.09445E+04 1.10032E+04 1.35205E-08 9.84622E-09
 -1       804 7.92305E+04 9.06378E+04 1.13950E+05-4.83021E+04 1.58980E-08 1.38658E-08
 -1       805-6.90050E+04-2.23531E+04 1.48619E+05 1.21204E+04 5.60976E-09 1.56573E-08
 -1       806-1.28453E+05-2.75712E+04-1.09191E+04-5.35570E+04 3.25554E-09-3.80169E-10
 -1       807-1.29087E+05-2.60160E+04-5.36428E+03-5.64619E+04 4.26229E-09-1.34172E-08
 -1       808-1.28763E+05-2.36262E+04-2.27558E+03-5.54092E+04 3.96074E-09-5.03560E-09
 -1       809-1.27942E+05-2.45268E+04-1.11249E+03-5.66170E+04 8.07972E-09 2.12459E-08
 -1       810-1.28812E+05-2.34868E+04-5.09388E+02-5.54910E+04 1.24055E-09 5.36102E-09
 -1       811-1.27855E+05-2.44678E+04-2.52637E+02-5.66043E+04-5.33873E-10 4.40980E-09
 -1       812-1.28821E+05-2.34969E+04-1.26038E+02-5.54910E+04 9.34506E-11 1.86560E-10
 -1       813-1.27844E+05-2.44692E+04-7.95393E+01-5.65980E+04 1.75896E-09-1.33809E-09
 -1       814-1.28820E+05-2.35003E+04-7.45349E+01-5.54896E+04-4.86125E-10-4.14343E-09
 -1       815-1.27846E+05-2.44703E+04-1.16790E+02-5.65968E+04-4.34738E-10 3.21506E-10
 -1       816-1.28813E+05-2.34989E+04-2.18753E+02-5.54885E+04 1.84991E-09 1.03717E-08
 -1       817-1.27884E+05-2.44911E+04-4.69245E+02-5.65937E+04 8.99945E-10 4.12638E-09
 -1       818-1.28786E+05-2.35642E+04-9.56205E+02-5.54578E+04 3.12002E-09 5.99675E-09
 -1       819-1.28413E+05-2.50647E+04-2.25084E+03-5.64665E+04-1.00499E-09 1.63152E-09
 -1       820-1.28605E+05-2.52660E+04-4.58065E+03-5.47330E+04 4.97948E-10 3.62206E-10
 -1       821-1.66395E+05 9.23939E+03-2.13699E+04 9.60456E+00-7.42854E-10 6.27551E-10
 -1       822-1.75655E+05-1.06961E+04-1.51216E+04-1.86371E+02-1.78589E-09 1.08685E-09
 -1       823-1.69969E+05 1.44840E+03-5.53490E+03-2.37586E+01 7.20607E-10 2.84831E-09
 -1       824-1.71491E+05-1.67647E+03-3.48310E+03-1.08128E+02-2.19349E-11 6.09657E-09
 -1       825-1.70558E+05 2.26775E+02-1.43089E+03-6.86416E+01-2.81926E-09-5.45924E-10
 -1       826-1.70806E+05-2.67474E+02-8.65431E+02-1.87497E+01-4.56543E-09 2.29497E-09
 -1       827-1.70654E+05 4.04296E+01-4.46511E+02-1.13138E+02-2.47641E-09 1.41519E-09
 -1       828-1.70712E+05-8.17532E+01-3.96395E+02 5.83805E+01-2.98028E-09-2.00187E-09
 -1       829-1.70653E+05 4.12048E+01-4.53207E+02-1.45773E+02-1.05989E-10 2.44557E-09
 -1       830-1.70812E+05-2.74018E+02-8.85848E+02 1.03387E+02 1.04551E-09 4.12085E-09
 -1       831-1.70553E+05 2.32591E+02-1.46632E+03-1.58145E+02-1.50496E-09-1.42876E-09
 -1       832-1.71516E+05-1.71960E+03-3.57302E+03 1.04942E+02-7.35401E-10 3.61268E-09
 -1       833-1.69950E+05 1.48573E+03-5.67736E+03-1.47328E+02-3.82337E-10 1.88220E-09
 -1       834-1.75784E+05-1.09721E+04-1.55120E+04 6.39421E+01-8.82138E-10-1.44792E-09
 -1       835-1.66285E+05 9.47782E+03-2.19219E+04-1.17141E+02 2.53294E-09-5.89353E-10
 -1       836-5.54606E+02 1.57801E+05 9.49474E+03-1.38211E+04 1.16097E-09 5.18662E-09
 -1       837 2.08603E+03 1.60743E+05 8.10096E+03-2.77754E+04 1.63016E-09 6.59293E-09
 -1       838-2.05985E+02 1.58623E+05 8.34778E+03-1.37729E+04 1.52659E-09 4.16765E-09
 -1       839 5.35121E+03 1.63183E+05 1.58843E+04-2.77934E+04 1.93245E-09 3.16390E-09
 -1       840-1.61273E+03 1.55347E+05 2.53672E+04-1.38024E+04 1.34969E-09-2.85354E-10
 -1       856-5.22640E+04 4.46494E+03-1.17652E+04-2.51367E+02-1.47350E-09-1.51886E-09
 -1       857-5.71251E+04-5.23749E+03-8.10044E+03 2.69212E+03-1.91055E-09 8.86757E-10
 -1       858-5.41845E+04 6.25816E+02-3.05337E+03-2.59942E+02-3.40495E-09-1.71667E-10
 -1       859-5.49186E+04-7.28785E+02-1.84436E+03 2.70558E+03-2.63007E-09 2.15925E-09
 -1       860-5.44719E+04 8.71803E+01-7.75519E+02-2.64884E+02-1.09989E-09 7.28676E-10
 -1       861-5.45872E+04-9.77303E+01-4.32176E+02 2.71227E+03-4.01839E-09 3.19211E-09
 -1       862-5.45166E+04 1.16958E+01-1.90705E+02-2.66647E+02 4.04947E-09 3.86547E-09
 -1       863-5.45343E+04-8.78933E+00-9.45626E+01 2.71307E+03 6.62042E-09 9.02098E-10
 -1       864-5.45248E+04 1.59163E-01-3.01831E+01-2.65680E+02 3.39525E-09-1.91080E-09
 -1       865-5.45196E+04 1.14601E+01 1.62555E+01 2.70808E+03 3.92347E-09-5.69738E-09
 -1       866-5.45308E+04-8.62546E+00 6.20018E+01-2.61656E+02-1.92614E-10-2.99639E-09
 -1       867-5.44839E+04 7.29729E+01 1.70797E+02 2.69720E+03-3.85853E-10 4.09987E-09
 -1       868-5.45593E+04-6.06319E+01 2.88869E+02-2.54800E+02 7.03466E-10 6.26926E-10
 -1       869-5.42686E+04 5.04273E+02 7.74946E+02 2.67855E+03-1.12334E-09-4.41202E-09
 -1       870-5.47443E+04-4.28764E+02 1.12481E+03-2.43009E+02-1.89976E-09-1.77317E-09
 -1       871-2.42539E+03-5.16702E+03-7.92304E+03 5.17715E+04 2.17005E-09-5.03678E-09
 -1       872-1.05086E+03-6.93576E+03-3.23212E+03 6.71176E+04 3.00770E-09-1.82013E-09
 -1       873-1.83693E+01-6.09825E+03 4.58780E+02 5.16568E+04 9.07676E-10-1.14085E-09
 -1       874 1.22321E+03-4.95083E+03 4.48941E+03 6.71414E+04 1.85082E-09 2.51612E-09
 -1       875 2.89291E+03-7.17159E+03 9.96033E+03 5.17511E+04 7.53062E-10-9.54969E-10
 -1       876 1.29435E+05 2.23034E+04 6.91500E+03 5.25171E+04-6.79393E-10 4.67207E-09
 -1       877 1.29819E+05 2.38315E+04 3.69267E+03 5.45750E+04-2.71916E-09-1.40460E-09
 -1       878 1.30082E+05 2.15370E+04 1.54713E+03 5.30844E+04 4.62455E-09-1.10242E-09
 -1       879 1.28879E+05 2.28952E+04 7.70641E+02 5.46256E+04 3.27202E-09-1.12273E-08
 -1       880 1.30130E+05 2.15279E+04 3.58837E+02 5.31075E+04 9.65690E-09 6.96548E-09
 -1       881 1.28816E+05 2.28557E+04 1.91106E+02 5.46168E+04 4.02002E-09-2.50223E-09
 -1       882 1.30135E+05 2.15331E+04 1.21460E+02 5.31082E+04 5.05406E-09 1.94135E-09
 -1       883 1.28812E+05 2.28539E+04 1.29228E+02 5.46146E+04 1.55089E-09 4.99955E-09
 -1       884 1.30133E+05 2.15314E+04 2.04397E+02 5.31083E+04 1.94717E-10 4.71965E-09
 -1       885 1.28828E+05 2.28569E+04 4.10225E+02 5.46199E+04 3.87871E-09 2.87650E-09
 -1       886 1.30117E+05 2.15195E+04 8.26490E+02 5.31067E+04 1.91882E-09 4.54452E-09
 -1       887 1.28973E+05 2.29520E+04 1.80530E+03 5.46406E+04-2.21485E-09 2.66539E-10
 -1       888 1.30003E+05 2.15398E+04 3.63781E+03 5.30490E+04-7.08070E-10-2.32126E-09
 -1       889 1.31142E+05 2.52025E+04 8.69077E+03 5.45710E+04-3.87353E-09-7.66340E-09
 -1       890 1.28519E+05 2.33012E+04 1.62768E+04 5.16622E+04 1.12334E-09 2.09184E-10
 -1       891-7.78296E+01-7.36195E+04-8.65792E+02 1.40154E+04 7.28619E-10 2.38174E-10
 -1       892-1.35653E+02-7.38294E+04-9.43485E+02 2.12131E+04-1.28580E-09-1.56570E-09
 -1       893-1.85751E+01-7.36487E+04-1.34940E+03 1.40179E+04 4.77144E-10 2.31353E-09
 -1       894-7.31078E+02-7.43536E+04-2.80345E+03 2.11383E+04 4.22915E-11-1.30558E-09
 -1       895-5.69010E+02-7.30702E+04-4.93955E+03 1.40895E+04-1.01335E-09 2.56478E-10
 -1       956-1.62652E+05-2.34855E+03-5.91310E+03 1.08365E+04-1.75169E-09-3.43823E-09
 -1       957-1.63819E+05-7.93121E+02-3.03574E+03 1.30442E+04-2.62753E-09-7.15409E-09
 -1       958-1.63174E+05-6.38808E+01-1.36751E+03 1.07663E+04-8.34916E-10 7.36691E-10
 -1       959-1.63266E+05-1.30899E+01-6.98591E+02 1.31201E+04-1.99725E-09 1.58366E-09
 -1       960-1.63219E+05 1.75776E+01-3.40416E+02 1.07599E+04-1.84900E-09-1.82990E-09
 -1       961-1.63224E+05 1.51265E+01-1.80532E+02 1.31272E+04-3.48427E-09 2.46041E-09
 -1       962-1.63227E+05 1.42536E+01-1.03020E+02 1.07591E+04-9.57243E-10 8.36735E-11
 -1       963-1.63221E+05 1.51508E+01-8.22098E+01 1.31283E+04-2.32149E-09 2.02317E-09
 -1       964-1.63228E+05 1.49627E+01-9.91074E+01 1.07588E+04 2.64652E-09 2.17017E-09
 -1       965-1.63226E+05 1.67461E+01-1.70681E+02 1.31283E+04 7.38000E-09 2.82171E-09
 -1       966-1.63223E+05 1.96420E+01-3.19990E+02 1.07591E+04 1.59162E-09-6.05723E-10
 -1       967-1.63269E+05-8.10418E+00-6.56097E+02 1.31243E+04 1.53591E-09-9.04151E-10
 -1       968-1.63184E+05-5.52899E+01-1.28373E+03 1.07628E+04-3.50701E-09 8.28010E-10
 -1       969-1.63791E+05-7.39036E+02-2.85022E+03 1.30799E+04-8.77878E-09 7.59815E-09
 -1       970-1.62695E+05-2.19935E+03-5.55136E+03 1.08047E+04-4.80077E-09-1.83491E-09
 -1       971-1.54523E+05-8.16173E+02-4.54114E+03 7.59070E+03 3.56340E-09 6.04558E-10
 -1       972-1.55627E+05-5.86978E+02-2.47343E+03 1.05916E+04 8.12952E-09 3.89196E-09
 -1       973-1.55025E+05-6.21535E+00-1.10718E+03 7.52876E+03 3.15958E-09 6.17888E-10
 -1       974-1.55100E+05-8.43557E+00-5.73724E+02 1.06580E+04-1.84809E-09 6.43240E-10
 -1       975-1.55062E+05 1.34611E+01-2.85916E+02 7.52382E+03 2.72007E-09 2.50344E-09
 -1       976-1.55067E+05 1.39264E+01-1.63809E+02 1.06637E+04-2.37821E-09-2.08814E-09
 -1       977-1.55068E+05 1.22899E+01-1.16581E+02 7.52301E+03 1.44928E-09-2.45632E-09
 -1       978-1.55067E+05 1.57409E+01-1.33426E+02 1.06648E+04 7.00851E-09 1.21065E-09
 -1       979-1.55067E+05 1.53963E+01-2.11667E+02 7.52270E+03 4.25234E-09-2.03880E-09
 -1       980-1.55082E+05 1.68216E+01-4.07009E+02 1.06649E+04 5.19042E-09-2.46689E-09
 -1       981-1.55054E+05 2.55951E+01-7.87294E+02 7.52290E+03 1.03842E-09-1.46366E-09
 -1       982-1.55191E+05-4.08965E+01-1.62676E+03 1.06620E+04-8.50946E-10 3.48039E-09
 -1       983-1.54956E+05-2.41066E+01-3.16033E+03 7.52563E+03 1.56047E-09 9.21773E-10
 -1       984-1.56712E+05-1.69017E+03-7.07693E+03 1.06200E+04 1.08230E-10 2.55625E-10
 -1       985-1.53527E+05-2.33588E+03-1.29954E+04 7.56711E+03 3.83397E-09-7.31234E-10
 -3
    1PSTEP                         5           3           1          
  100CL  103 3.75000E-01         409                     0    3           1
 -4  DISP        4    1
 -5  D1          1    2    1    0
 -5  D2          1    2    2    0
 -5  D3          1    2    3    0
 -5  ALL         1    2    0    0    1ALL
 -1         1 9.81706E-05 0.00000E+00 0.00000E+00
 -1         2 9.05549E-05 8.11841E-30 1.65436E-24
 -1         3 8.39366E-05 5.14942E-28 0.00000E+00
 -1         5 6.03075E-05 1.84213E-26 0.00000E+00
 -1         8 7.83865E-05-7.16257E-07 0.00000E+00
 -1         9 7.96647E-05 4.79502E-07 0.00000E+00
 -1        10 7.77647E-05-1.14681E-06 0.00000E+00
 -1        12 5.98871E-05 4.08957E-07 0.00000E+00
 -1        15 5.48426E-05-7.80098E-07-2.06795E-25
 -1        16 5.67281E-05 3.75005E-07 0.00000E+00
 -1        17 5.79375E-05-2.41244E-06 0.00000E+00
 -1        18 5.78356E-05 2.15177E-07 0.00000E+00
 -1        19 5.86264E-05 8.15675E-07 0.00000E+00
 -1        20 5.87332E-05 1.20979E-05 0.00000E+00
 -1        21 5.83285E-05 2.28504E-05-1.65436E-24
 -1        24 1.47875E-05-3.24984E-06 0.00000E+00
 -1        25 5.64919E-05 3.08835E-07 0.00000E+00
 -1        26 5.72419E-05 1.13724E-06 0.00000E+00
 -1        27 5.61076E-05 1.02870E-05 0.00000E+00
 -1        28 5.57411E-05 2.25010E-05 0.00000E+00
 -1        32 0.00000E+00 0.00000E+00 0.00000E+00
 -1        33 5.48758E-05 1.52581E-06 0.00000E+00
 -1        34 5.37822E-05 1.02704E-05 0.00000E+00
 -1        35 5.27433E-05 2.23167E-05 0.00000E+00
 -1        51 9.68838E-05-1.18284E-07 0.00000E+00
 -1        52 9.44988E-05-2.33368E-07 0.00000E+00
 -1        53 9.12317E-05-3.49340E-07 0.00000E+00
 -1        54 8.73071E-05-4.67313E-07 0.00000E+00
 -1        55 8.29501E-05-5.87948E-07 4.85969E-24
 -1        56 9.72775E-05-5.71426E-07 0.00000E+00
 -1        57 9.64919E-05-1.53129E-06 0.00000E+00
 -1        58 9.58127E-05-2.76958E-06 0.00000E+00
 -1        59 9.51933E-05-4.18550E-06 0.00000E+00
 -1        60 9.45976E-05-5.66490E-06 0.00000E+00
 -1        61 9.39820E-05-7.09452E-06 0.00000E+00
 -1        62 9.33060E-05-8.36302E-06-2.64698E-23
 -1        63 9.25295E-05-9.36321E-06 1.32349E-23
 -1        64 9.16171E-05-1.00007E-05-2.64698E-23
 -1        65 9.05367E-05-1.01896E-05 0.00000E+00
 -1        66 8.92638E-05-9.86567E-06 0.00000E+00
 -1        67 8.77794E-05-8.97646E-06 1.32349E-23
 -1        68 8.60728E-05-7.49717E-06 2.64698E-23
 -1        69 8.41446E-05-5.41476E-06-1.32349E-23
 -1        70 8.19941E-05-2.74940E-06-2.64698E-23
 -1        86 9.02716E-05 8.59880E-08-1.65436E-24
 -1        87 8.94207E-05 1.71225E-07 8.27181E-25
 -1        88 8.79752E-05 2.55739E-07 0.00000E+00
 -1        89 8.59061E-05 3.36428E-07 5.16988E-26
 -1        90 8.31559E-05 4.16469E-07 3.30872E-24
 -1       121 8.37645E-05-1.90399E-07 0.00000E+00
 -1       122 8.32484E-05-3.80917E-07 3.30872E-24
 -1       123 8.23891E-05-5.71669E-07 0.00000E+00
 -1       124 8.11876E-05-7.62802E-07-3.30872E-24
 -1       125 7.96454E-05-9.54376E-07-6.61744E-24
 -1       191 6.02958E-05 6.81649E-08 0.00000E+00
 -1       192 6.02608E-05 1.36328E-07-1.65436E-24
 -1       193 6.02024E-05 2.04491E-07 0.00000E+00
 -1       194 6.01207E-05 2.72651E-07 1.65436E-24
 -1       195 6.00156E-05 3.40807E-07 0.00000E+00
 -1       251 7.84488E-05 2.53026E-06-3.30872E-24
 -1       252 7.85287E-05 4.44513E-06 5.16988E-26
 -1       253 7.86093E-05 5.26124E-06 1.65436E-24
 -1       254 7.86928E-05 5.20743E-06 0.00000E+00
 -1       255 7.87763E-05 4.47403E-06 1.65436E-24
 -1       256 7.88597E-05 3.24903E-06-1.65436E-24
 -1       257 7.89429E-05 1.69845E-06 0.00000E+00
 -1       258 7.90258E-05-1.27650E-08-1.65436E-24
 -1       259 7.91088E-05-1.72693E-06-3.30872E-24
 -1       260 7.91919E-05-3.28630E-06-1.65436E-24
 -1       261 7.92754E-05-4.52623E-06 0.00000E+00
 -1       262 7.93587E-05-5.28100E-06 0.00000E+00
 -1       263 7.94423E-05-5.36322E-06-1.65436E-24
 -1       264 7.95227E-05-4.58315E-06-1.03398E-25
 -1       265 7.96027E-05-2.71286E-06 3.30872E-24
 -1       266 7.44626E-05-7.36635E-07 0.00000E+00
 -1       267 7.05386E-05-7.46088E-07 0.00000E+00
 -1       268 6.66146E-05-7.56233E-07 8.27181E-25
 -1       269 6.26906E-05-7.64329E-07 0.00000E+00
 -1       270 5.87666E-05-7.72376E-07-4.13590E-25
 -1       271 7.59990E-05 2.21073E-06-2.64698E-23
 -1       272 7.39713E-05 4.07171E-06 1.32349E-23
 -1       273 7.22982E-05 4.99634E-06 0.00000E+00
 -1       274 7.09230E-05 5.11127E-06 1.32349E-23
 -1       275 6.97971E-05 4.56031E-06 0.00000E+00
 -1       276 6.88627E-05 3.49493E-06 0.00000E+00
 -1       277 6.80608E-05 2.07516E-06-2.64698E-23
 -1       278 6.73294E-05 4.65984E-07-1.32349E-23
 -1       279 6.66061E-05-1.16462E-06 0.00000E+00
 -1       280 6.58279E-05-2.64831E-06-1.32349E-23
 -1       281 6.49329E-05-3.81918E-06-2.64698E-23
 -1       282 6.38610E-05-4.51579E-06 1.32349E-23
 -1       283 6.25539E-05-4.58435E-06 0.00000E+00
 -1       284 6.09604E-05-3.87893E-06 0.00000E+00
 -1       285 5.90249E-05-2.26869E-06-2.64698E-23
 -1       301 7.57749E-05 4.57363E-07 0.00000E+00
 -1       302 7.18882E-05 4.46906E-07 0.00000E+00
 -1       303 6.80223E-05 4.36816E-07 3.30872E-24
 -1       304 6.41952E-05 4.25468E-07 3.30872E-24
 -1       305 6.04246E-05 4.12349E-07 0.00000E+00
 -1       306 7.71979E-05 3.36084E-06-2.64698E-23
 -1       307 7.50991E-05 5.14728E-06 0.00000E+00
 -1       308 7.34184E-05 5.83177E-06 0.00000E+00
 -1       309 7.21381E-05 5.42904E-06-1.32349E-23
 -1       310 7.12092E-05 4.08774E-06 2.64698E-23
 -1       311 7.05619E-05 1.98867E-06 0.00000E+00
 -1       312 7.00961E-05-5.96927E-07-5.29396E-23
 -1       313 6.97036E-05-3.38015E-06 2.64698E-23
 -1       314 6.92682E-05-6.04824E-06-5.29396E-23
 -1       315 6.86752E-05-8.29272E-06 0.00000E+00
 -1       316 6.78279E-05-9.85598E-06-2.64698E-23
 -1       317 6.66402E-05-1.05053E-05 1.32349E-23
 -1       318 6.50630E-05-1.01167E-05-2.64698E-23
 -1       319 6.30708E-05-8.60152E-06 1.32349E-23
 -1       320 6.06689E-05-6.01052E-06 0.00000E+00
 -1       336 7.55030E-05-1.35505E-06 0.00000E+00
 -1       337 7.28178E-05-1.56458E-06 0.00000E+00
 -1       338 6.97133E-05-1.77522E-06 0.00000E+00
 -1       339 6.61945E-05-1.98688E-06 0.00000E+00
 -1       340 6.22670E-05-2.20003E-06 0.00000E+00
 -1       406 5.97353E-05 4.77095E-07 0.00000E+00
 -1       407 5.95602E-05 5.45207E-07 0.00000E+00
 -1       408 5.93617E-05 6.13274E-07 0.00000E+00
 -1       409 5.91398E-05 6.81211E-07 0.00000E+00
 -1       410 5.88946E-05 7.48886E-07 3.30872E-24
 -1       521 5.34242E-05 2.19798E-06 0.00000E+00
 -1       522 5.07712E-05 2.06694E-06-2.64698E-23
 -1       523 4.88067E-05 1.13103E-07 0.00000E+00
 -1       524 4.74271E-05-3.44897E-06 2.64698E-23
 -1       525 4.64589E-05-8.11909E-06 5.29396E-23
 -1       526 4.56884E-05-1.33299E-05-2.64698E-23
 -1       527 4.48729E-05-1.84199E-05 5.29396E-23
 -1       528 4.37699E-05-2.27361E-05 2.64698E-23
 -1       529 4.21856E-05-2.57586E-05 0.00000E+00
 -1       530 3.99557E-05-2.70518E-05-2.64698E-23
 -1       531 3.70244E-05-2.64773E-05 0.00000E+00
 -1       532 3.33837E-05-2.40170E-05 0.00000E+00
 -1       533 2.91439E-05-1.99770E-05 0.00000E+00
 -1       534 2.44704E-05-1.47598E-05-2.64698E-23
 -1       535 1.95767E-05-8.97959E-06 0.00000E+00
 -1       536 5.79180E-05 1.63052E-06 0.00000E+00
 -1       537 5.79078E-05 4.70699E-06 8.27181E-25
 -1       538 5.78994E-05 6.90427E-06 0.00000E+00
 -1       539 5.78935E-05 8.30988E-06 0.00000E+00
 -1       540 5.78884E-05 9.01952E-06 0.00000E+00
 -1       541 5.78837E-05 9.12900E-06 0.00000E+00
 -1       542 5.78790E-05 8.74020E-06 0.00000E+00
 -1       543 5.78741E-05 7.95512E-06 0.00000E+00
 -1       544 5.78690E-05 6.87971E-06 0.00000E+00
 -1       545 5.78637E-05 5.61998E-06 0.00000E+00
 -1       546 5.78583E-05 4.28378E-06 0.00000E+00
 -1       547 5.78530E-05 2.97901E-06 5.16988E-26
 -1       548 5.78479E-05 1.81321E-06-2.58494E-26
 -1       549 5.78432E-05 8.93911E-07 5.16988E-26
 -1       550 5.78387E-05 3.26232E-07 0.00000E+00
 -1       551 5.22174E-05-2.53928E-06 3.30872E-24
 -1       552 4.53760E-05-2.67069E-06 1.65436E-24
 -1       553 3.78101E-05-2.80712E-06 3.30872E-24
 -1       554 2.99222E-05-2.94780E-06 0.00000E+00
 -1       555 2.21148E-05-3.09007E-06 0.00000E+00
 -1       556 5.64363E-05 1.47841E-06 0.00000E+00
 -1       557 5.52891E-05 4.45286E-06 0.00000E+00
 -1       558 5.44571E-05 6.59539E-06 0.00000E+00
 -1       559 5.39052E-05 7.99712E-06 0.00000E+00
 -1       560 5.35981E-05 8.74896E-06 0.00000E+00
 -1       561 5.35010E-05 8.94232E-06 0.00000E+00
 -1       562 5.35792E-05 8.66868E-06 0.00000E+00
 -1       563 5.37980E-05 8.01961E-06 0.00000E+00
 -1       564 5.41232E-05 7.08674E-06 0.00000E+00
 -1       565 5.45202E-05 5.96174E-06 0.00000E+00
 -1       566 5.49547E-05 4.73629E-06 0.00000E+00
 -1       567 5.53926E-05 3.50210E-06 0.00000E+00
 -1       568 5.57994E-05 2.35087E-06 0.00000E+00
 -1       569 5.61410E-05 1.37417E-06 0.00000E+00
 -1       570 5.63830E-05 6.63636E-07 0.00000E+00
 -1       571 5.78836E-05 2.84705E-07 2.06795E-25
 -1       572 5.79326E-05 3.21503E-07-8.27181E-25
 -1       573 5.79820E-05 3.31382E-07 1.24077E-24
 -1       574 5.80315E-05 3.20461E-07-8.27181E-25
 -1       575 5.80811E-05 2.94885E-07-8.27181E-25
 -1       576 5.81307E-05 2.60839E-07 0.00000E+00
 -1       577 5.81803E-05 2.24515E-07 1.65436E-24
 -1       578 5.82299E-05 1.92107E-07 8.27181E-25
 -1       579 5.82795E-05 1.69812E-07 0.00000E+00
 -1       580 5.83291E-05 1.63824E-07 0.00000E+00
 -1       581 5.83787E-05 1.80339E-07 0.00000E+00
 -1       582 5.84283E-05 2.25544E-07 3.30872E-24
 -1       583 5.84779E-05 3.05623E-07 3.30872E-24
 -1       584 5.85274E-05 4.26694E-07 0.00000E+00
 -1       585 5.85770E-05 5.94841E-07 0.00000E+00
 -1       586 5.75948E-05 2.31762E-07 8.27181E-25
 -1       587 5.73330E-05 2.47929E-07 0.00000E+00
 -1       588 5.70709E-05 2.63915E-07 0.00000E+00
 -1       589 5.68295E-05 2.79648E-07 0.00000E+00
 -1       590 5.66297E-05 2.94952E-07 0.00000E+00
 -1       591 5.77866E-05 3.09771E-07 0.00000E+00
 -1       592 5.77458E-05 3.77182E-07 4.13590E-25
 -1       593 5.77132E-05 4.22570E-07 4.13590E-25
 -1       594 5.76869E-05 4.50587E-07 0.00000E+00
 -1       595 5.76652E-05 4.65946E-07 0.00000E+00
 -1       596 5.76465E-05 4.73326E-07 0.00000E+00
 -1       597 5.76291E-05 4.77403E-07 0.00000E+00
 -1       598 5.76111E-05 4.82850E-07-2.06795E-25
 -1       599 5.75908E-05 4.94339E-07 0.00000E+00
 -1       600 5.75666E-05 5.16543E-07-2.06795E-25
 -1       601 5.75365E-05 5.54133E-07-4.13590E-25
 -1       602 5.74990E-05 6.11787E-07-1.03398E-25
 -1       603 5.74523E-05 6.94182E-07 0.00000E+00
 -1       604 5.73948E-05 8.06032E-07-5.16988E-26
 -1       605 5.73246E-05 9.51988E-07-4.13590E-25
 -1       606 5.86356E-05 1.14964E-06 1.65436E-24
 -1       607 5.86430E-05 1.55488E-06 0.00000E+00
 -1       608 5.86500E-05 2.02723E-06 0.00000E+00
 -1       609 5.86567E-05 2.56195E-06 0.00000E+00
 -1       610 5.86633E-05 3.15432E-06 0.00000E+00
 -1       611 5.86699E-05 3.79952E-06 0.00000E+00
 -1       612 5.86764E-05 4.49274E-06 0.00000E+00
 -1       613 5.86828E-05 5.22917E-06 8.27181E-25
 -1       614 5.86892E-05 6.00399E-06 0.00000E+00
 -1       615 5.86956E-05 6.81237E-06 0.00000E+00
 -1       616 5.87020E-05 7.64952E-06 0.00000E+00
 -1       617 5.87084E-05 8.51060E-06 0.00000E+00
 -1       618 5.87147E-05 9.39079E-06 0.00000E+00
 -1       619 5.87210E-05 1.02853E-05 2.06795E-25
 -1       620 5.87272E-05 1.11893E-05 0.00000E+00
 -1       621 5.83620E-05 8.69305E-07 1.65436E-24
 -1       622 5.81164E-05 9.23197E-07 0.00000E+00
 -1       623 5.78856E-05 9.77082E-07-1.65436E-24
 -1       624 5.76656E-05 1.03088E-06 0.00000E+00
 -1       625 5.74524E-05 1.08459E-06-1.65436E-24
 -1       626 5.85590E-05 1.16681E-06 0.00000E+00
 -1       627 5.84696E-05 1.57753E-06 0.00000E+00
 -1       628 5.83601E-05 2.04225E-06 0.00000E+00
 -1       629 5.82326E-05 2.55506E-06 0.00000E+00
 -1       630 5.80893E-05 3.11001E-06 0.00000E+00
 -1       631 5.79324E-05 3.70113E-06 0.00000E+00
 -1       632 5.77642E-05 4.32245E-06 3.30872E-24
 -1       633 5.75869E-05 4.96799E-06 0.00000E+00
 -1       634 5.74027E-05 5.63177E-06-1.65436E-24
 -1       635 5.72139E-05 6.30782E-06 0.00000E+00
 -1       636 5.70228E-05 6.99017E-06-1.65436E-24
 -1       637 5.68314E-05 7.67284E-06 0.00000E+00
 -1       638 5.66422E-05 8.34984E-06-1.65436E-24
 -1       639 5.64572E-05 9.01521E-06-4.13590E-25
 -1       640 5.62786E-05 9.66297E-06-1.65436E-24
 -1       656 5.79786E-05 1.18033E-05-3.30872E-24
 -1       657 5.74913E-05 1.14969E-05 3.30872E-24
 -1       658 5.71688E-05 1.11914E-05 0.00000E+00
 -1       659 5.69065E-05 1.08862E-05-3.30872E-24
 -1       660 5.65905E-05 1.05800E-05-3.30872E-24
 -1       661 5.84540E-05 1.29879E-05-8.27181E-25
 -1       662 5.81916E-05 1.38394E-05 0.00000E+00
 -1       663 5.79433E-05 1.46532E-05 0.00000E+00
 -1       664 5.77087E-05 1.54312E-05 0.00000E+00
 -1       665 5.74871E-05 1.61751E-05-1.65436E-24
 -1       666 5.72778E-05 1.68862E-05 0.00000E+00
 -1       667 5.70802E-05 1.75661E-05 1.65436E-24
 -1       668 5.68939E-05 1.82163E-05 8.27181E-25
 -1       669 5.67181E-05 1.88381E-05 1.65436E-24
 -1       670 5.65526E-05 1.94329E-05 8.27181E-25
 -1       671 5.63966E-05 2.00019E-05 0.00000E+00
 -1       672 5.62498E-05 2.05464E-05 8.27181E-25
 -1       673 5.61117E-05 2.10676E-05 1.65436E-24
 -1       674 5.59814E-05 2.15664E-05 0.00000E+00
 -1       675 5.58591E-05 2.20443E-05 0.00000E+00
 -1       676 5.78964E-05 2.27918E-05-1.65436E-24
 -1       677 5.74645E-05 2.27332E-05-8.27181E-25
 -1       678 5.70328E-05 2.26747E-05 0.00000E+00
 -1       679 5.66016E-05 2.26164E-05 8.27181E-25
 -1       680 5.61710E-05 2.25580E-05-1.65436E-24
 -1       771 1.18386E-05 2.33572E-06-2.64698E-23
 -1       772 9.26874E-06 6.90493E-06 1.32349E-23
 -1       773 7.06215E-06 1.05161E-05-2.64698E-23
 -1       774 5.19435E-06 1.32309E-05 1.32349E-23
 -1       775 3.64136E-06 1.51121E-05 2.64698E-23
 -1       776 2.37825E-06 1.62240E-05-3.97047E-23
 -1       777 1.37982E-06 1.66323E-05 0.00000E+00
 -1       778 6.20389E-07 1.64041E-05-1.32349E-23
 -1       779 7.41338E-08 1.56072E-05 0.00000E+00
 -1       780-2.85169E-07 1.43108E-05 0.00000E+00
 -1       781-4.83819E-07 1.25846E-05 0.00000E+00
 -1       782-5.48411E-07 1.04993E-05 0.00000E+00
 -1       783-5.05588E-07 8.12623E-06 0.00000E+00
 -1       784-3.82139E-07 5.53712E-06 0.00000E+00
 -1       785-2.04954E-07 2.80412E-06 2.64698E-23
 -1       786 5.65360E-05 3.05230E-07-4.13590E-25
 -1       787 5.65828E-05 3.03927E-07 4.13590E-25
 -1       788 5.66294E-05 3.05262E-07 1.65436E-24
 -1       789 5.66765E-05 3.09574E-07 0.00000E+00
 -1       790 5.67236E-05 3.17523E-07 0.00000E+00
 -1       791 5.67708E-05 3.29778E-07 0.00000E+00
 -1       792 5.68180E-05 3.47472E-07 0.00000E+00
 -1       793 5.68653E-05 3.71749E-07 8.27181E-25
 -1       794 5.69125E-05 4.04464E-07 1.65436E-24
 -1       795 5.69597E-05 4.47490E-07-8.27181E-25
 -1       796 5.70070E-05 5.03813E-07 1.65436E-24
 -1       797 5.70542E-05 5.76446E-07 8.27181E-25
 -1       798 5.71014E-05 6.70162E-07 1.65436E-24
 -1       799 5.71484E-05 7.89780E-07 8.27181E-25
 -1       800 5.71955E-05 9.42912E-07 0.00000E+00
 -1       801 5.26760E-05 3.11395E-07 0.00000E+00
 -1       802 4.13174E-05 2.59192E-07 4.13590E-25
 -1       803 2.63955E-05 1.64206E-07 3.30872E-24
 -1       804 1.18878E-05 6.96993E-08 0.00000E+00
 -1       805 1.76403E-06 2.58366E-08 0.00000E+00
 -1       806 5.64357E-05 2.72830E-07-1.65436E-24
 -1       807 5.63772E-05 2.36847E-07 8.27181E-25
 -1       808 5.63168E-05 2.04564E-07 0.00000E+00
 -1       809 5.62536E-05 1.79106E-07 0.00000E+00
 -1       810 5.61866E-05 1.63593E-07 0.00000E+00
 -1       811 5.61147E-05 1.61099E-07-8.27181E-25
 -1       812 5.60367E-05 1.74695E-07 1.65436E-24
 -1       813 5.59515E-05 2.07443E-07 0.00000E+00
 -1       814 5.58580E-05 2.62407E-07 0.00000E+00
 -1       815 5.57551E-05 3.42644E-07 0.00000E+00
 -1       816 5.56415E-05 4.51212E-07-1.65436E-24
 -1       817 5.55161E-05 5.91169E-07 0.00000E+00
 -1       818 5.53779E-05 7.65569E-07-8.27181E-25
 -1       819 5.52257E-05 9.77457E-07 0.00000E+00
 -1       820 5.50584E-05 1.22988E-06 8.27181E-25
 -1       821 5.71751E-05 1.36375E-06 0.00000E+00
 -1       822 5.71042E-05 1.61376E-06 8.27181E-25
 -1       823 5.70336E-05 1.90622E-06 0.00000E+00
 -1       824 5.69621E-05 2.25995E-06 0.00000E+00
 -1       825 5.68906E-05 2.68458E-06-1.65436E-24
 -1       826 5.68189E-05 3.18949E-06 0.00000E+00
 -1       827 5.67472E-05 3.77201E-06 0.00000E+00
 -1       828 5.66753E-05 4.42926E-06 8.27181E-25
 -1       829 5.66035E-05 5.14708E-06-1.65436E-24
 -1       830 5.65316E-05 5.91116E-06 0.00000E+00
 -1       831 5.64598E-05 6.70023E-06 0.00000E+00
 -1       832 5.63880E-05 7.49295E-06-8.27181E-25
 -1       833 5.63164E-05 8.26740E-06-1.65436E-24
 -1       834 5.62455E-05 9.00176E-06 0.00000E+00
 -1       835 5.61744E-05 9.68019E-06 0.00000E+00
 -1       836 5.69562E-05 1.20193E-06-1.65436E-24
 -1       837 5.65851E-05 1.26804E-06-8.27181E-25
 -1       838 5.61599E-05 1.33403E-06 0.00000E+00
 -1       839 5.57122E-05 1.39960E-06-4.13590E-25
 -1       840 5.52737E-05 1.46507E-06 4.13590E-25
 -1       856 5.60873E-05 1.08997E-05 0.00000E+00
 -1       857 5.60646E-05 1.15903E-05-1.03398E-25
 -1       858 5.60421E-05 1.23464E-05 4.13590E-25
 -1       859 5.60190E-05 1.31559E-05 0.00000E+00
 -1       860 5.59960E-05 1.40063E-05 8.27181E-25
 -1       861 5.59728E-05 1.48851E-05 0.00000E+00
 -1       862 5.59496E-05 1.57800E-05-8.27181E-25
 -1       863 5.59264E-05 1.66783E-05 4.13590E-25
 -1       864 5.59031E-05 1.75678E-05 8.27181E-25
 -1       865 5.58799E-05 1.84359E-05-4.13590E-25
 -1       866 5.58568E-05 1.92701E-05-8.27181E-25
 -1       867 5.58336E-05 2.00581E-05-4.13590E-25
 -1       868 5.58105E-05 2.07875E-05 8.27181E-25
 -1       869 5.57874E-05 2.14459E-05 0.00000E+00
 -1       870 5.57643E-05 2.20212E-05 0.00000E+00
 -1       871 5.56414E-05 1.02864E-05 4.13590E-25
 -1       872 5.52497E-05 1.02842E-05 0.00000E+00
 -1       873 5.49006E-05 1.02817E-05 0.00000E+00
 -1       874 5.45612E-05 1.02788E-05 2.06795E-25
 -1       875 5.41992E-05 1.02756E-05 8.27181E-25
 -1       876 5.59458E-05 1.09061E-05-1.65436E-24
 -1       877 5.57714E-05 1.15632E-05-8.27181E-25
 -1       878 5.55845E-05 1.22536E-05 0.00000E+00
 -1       879 5.53869E-05 1.29731E-05 0.00000E+00
 -1       880 5.51800E-05 1.37174E-05 0.00000E+00
 -1       881 5.49655E-05 1.44821E-05 0.00000E+00
 -1       882 5.47448E-05 1.52632E-05 0.00000E+00
 -1       883 5.45197E-05 1.60561E-05 0.00000E+00
 -1       884 5.42917E-05 1.68568E-05 0.00000E+00
 -1       885 5.40623E-05 1.76609E-05 0.00000E+00
 -1       886 5.38333E-05 1.84641E-05-1.65436E-24
 -1       887 5.36061E-05 1.92623E-05 8.27181E-25
 -1       888 5.33823E-05 2.00510E-05 0.00000E+00
 -1       889 5.31633E-05 2.08260E-05 8.27181E-25
 -1       890 5.29508E-05 2.15830E-05-8.27181E-25
 -1       891 5.53263E-05 2.24702E-05 0.00000E+00
 -1       892 5.48981E-05 2.24392E-05 4.13590E-25
 -1       893 5.44410E-05 2.24083E-05 4.13590E-25
 -1       894 5.39398E-05 2.23774E-05 0.00000E+00
 -1       895 5.33789E-05 2.23466E-05-6.20385E-25
 -1       956 5.48088E-05 1.91058E-06 8.27181E-25
 -1       957 5.47406E-05 2.33950E-06-8.27181E-25
 -1       958 5.46722E-05 2.80797E-06-1.65436E-24
 -1       959 5.46037E-05 3.31111E-06 0.00000E+00
 -1       960 5.45351E-05 3.84405E-06 1.65436E-24
 -1       961 5.44665E-05 4.40190E-06 0.00000E+00
 -1       962 5.43979E-05 4.97974E-06-1.65436E-24
 -1       963 5.43292E-05 5.57267E-06 0.00000E+00
 -1       964 5.42606E-05 6.17578E-06 0.00000E+00
 -1       965 5.41920E-05 6.78415E-06 8.27181E-25
 -1       966 5.41233E-05 7.39288E-06 1.65436E-24
 -1       967 5.40547E-05 7.99707E-06 0.00000E+00
 -1       968 5.39861E-05 8.59178E-06 0.00000E+00
 -1       969 5.39177E-05 9.17215E-06-8.27181E-25
 -1       970 5.38494E-05 9.73328E-06-1.65436E-24
 -1       971 5.37181E-05 1.08219E-05 1.65436E-24
 -1       972 5.36531E-05 1.14309E-05-8.27181E-25
 -1       973 5.35880E-05 1.20911E-05 0.00000E+00
 -1       974 5.35228E-05 1.27959E-05 0.00000E+00
 -1       975 5.34575E-05 1.35387E-05 0.00000E+00
 -1       976 5.33922E-05 1.43129E-05 8.27181E-25
 -1       977 5.33268E-05 1.51117E-05 0.00000E+00
 -1       978 5.32615E-05 1.59286E-05 8.27181E-25
 -1       979 5.31961E-05 1.67569E-05 1.65436E-24
 -1       980 5.31307E-05 1.75900E-05-8.27181E-25
 -1       981 5.30654E-05 1.84212E-05 0.00000E+00
 -1       982 5.30001E-05 1.92439E-05-8.27181E-25
 -1       983 5.29349E-05 2.00514E-05-1.65436E-24
 -1       984 5.28700E-05 2.08371E-05 0.00000E+00
 -1       985 5.28054E-05 2.15943E-05-1.65436E-24
 -3
    1PSTEP                         6           3           1          
  100CL  103 3.75000E-01         409                     0    3           1
 -4  STRESS      6    1
 -5  SXX         1    4    1    1
 -5  SYY         1    4    2    2
 -5  SZZ         1    4    3    3
 -5  SXY         1    4    1    2
 -5  SYZ         1    4    2    3
 -5  SZX         1    4    3    1
 -1         1-1.29410E+06-5.95023E+05-2.63784E+05-8.37618E+05-3.63798E-11-5.24597E-09
 -1         2 2.17682E+03 2.48969E+05 7.11876E+03 6.00565E+02-9.66907E-11 3.77230E-09
 -1         3-4.73416E+01-5.44076E+05 1.26363E+02-1.49853E+02-8.74198E-11-1.39971E-09
 -1         5-4.37643E+00 1.95039E+05 5.08039E+00 2.14584E-02 8.11976E-11 8.36189E-09
 -1         8-6.09135E+05-2.65455E+05-2.05300E+04-4.62461E+05 3.87445E-10 3.56886E-09
 -1         9-1.04585E+06-2.67894E+05-1.03158E+05-3.59560E+05 2.62080E-09 3.83880E-09
 -1        10-4.22874E+02-5.66813E+05-7.28981E+02-1.00610E+03-2.44563E-09-1.03409E-08
 -1        12-2.29269E+00 1.95049E+05 1.64739E+02 4.21351E-01 2.20041E-10-3.66185E-09
 -1        15 1.61342E+03 8.86661E+02 5.21535E+03 2.73777E+00-3.17129E-10-8.36030E-08
 -1        16-2.94997E+06-9.47536E+05-4.58766E+05-9.62438E+05 8.95913E-09 9.41024E-10
 -1        17-6.51330E+05-4.00024E+05-1.25443E+05-3.76216E+05-4.18950E-09 8.41101E-10
 -1        18 2.11715E+04 1.66608E+03-9.67415E+03-4.59476E+04 5.78325E-10 1.51545E-09
 -1        19 6.14272E+04 7.30357E+04-3.09843E+02 1.20825E+04 1.41699E-10 3.64453E-09
 -1        20-2.50461E+04-2.87604E+05-6.34079E+04 2.14744E+04 2.43532E-09-2.02544E-09
 -1        21-2.73134E+01-1.67440E+05-5.40905E+02-4.96243E+01-5.24659E-09-1.22146E-08
 -1        24-2.59865E+06-8.91582E+05-3.70288E+05-1.08617E+06-1.28130E-08-6.22337E-09
 -1        25 2.37695E+04-5.70739E+02 1.42734E+04-8.31021E+04 2.92494E-10 1.09703E-09
 -1        26-1.40670E+04 4.99498E+04-9.88463E+03-7.18048E+03 1.20599E-09 5.39858E-09
 -1        27-4.59884E+04-1.57862E+05-5.93403E+04 3.58279E+04 4.31055E-09-1.17780E-10
 -1        28 1.29477E+04-4.62450E+04 9.45305E+03 1.48458E+04 1.33733E-09 1.62565E-10
 -1        32-6.15537E+05-8.33609E+04 2.68692E+05-4.17138E+05-1.21872E-08 1.14024E-08
 -1        33-9.06037E+04 4.67457E+04 1.65491E+04-2.70840E+04 9.15350E-10 3.34345E-09
 -1        34-1.17681E+05-1.17559E+04 2.77783E+02 3.62526E+04 1.97703E-09-3.22825E-09
 -1        35-1.31749E+04-1.83802E+04-7.18570E+02 2.91585E+04 3.76571E-09-3.46093E-09
 -1        51 1.13958E+04-3.03368E+05 2.87806E+04-7.55954E+05-2.91038E-11 6.65023E-09
 -1        52 6.55571E+03-3.01767E+05 1.92401E+04-8.81691E+05 1.45519E-11 8.44011E-09
 -1        53 4.64425E+03-3.10518E+05 1.68557E+04-7.53359E+05 6.03904E-10 6.11180E-10
 -1        54 1.39774E+04-3.08611E+05 2.74776E+04-8.84424E+05 3.05590E-10-1.69530E-09
 -1        55 2.93082E+04-3.18879E+05 4.94453E+04-7.52984E+05 3.78350E-10 2.12822E-09
 -1        56-2.48524E+06-2.80616E+05-1.94307E+05-9.58133E+05 2.91038E-11-3.95812E-09
 -1        57-2.56230E+06-4.57353E+05-1.30965E+05-9.51763E+05-3.50155E-10 2.15368E-09
 -1        58-2.52439E+06-3.42026E+05-4.57314E+04-9.45795E+05-7.82165E-11-3.91810E-09
 -1        59-2.51697E+06-3.85374E+05-2.72997E+04-9.66597E+05-4.35307E-10-4.44970E-09
 -1        60-2.53019E+06-3.50511E+05-1.06843E+04-9.44041E+05-9.17453E-10-5.67070E-10
 -1        61-2.51100E+06-3.74674E+05-6.07418E+03-9.67743E+05-1.40125E-09 4.24444E-09
 -1        62-2.53027E+06-3.52468E+05-2.93089E+03-9.44721E+05 1.66983E-09-2.60319E-09
 -1        63-2.51246E+06-3.71029E+05-2.40183E+03-9.65111E+05 2.38492E-09-3.22302E-11
 -1        64-2.52865E+06-3.54168E+05-2.77711E+03-9.46636E+05-2.15095E-10-8.58699E-09
 -1        65-2.51707E+06-3.68113E+05-5.53157E+03-9.60259E+05 3.11729E-10-1.64562E-08
 -1        66-2.52559E+06-3.55460E+05-9.76825E+03-9.49510E+05-9.32232E-11 5.19412E-09
 -1        67-2.52788E+06-3.72317E+05-2.47533E+04-9.52861E+05-1.41381E-09-3.14412E-09
 -1        68-2.51786E+06-3.50237E+05-4.15822E+04-9.53924E+05 1.37470E-09-9.28230E-09
 -1        69-2.57322E+06-4.33582E+05-1.18896E+05-9.34800E+05 1.18462E-09-3.64525E-09
 -1        70-2.48066E+06-2.96058E+05-1.76494E+05-9.66924E+05-5.67525E-10-1.78261E-09
 -1        86-1.09244E+03 2.46731E+05 7.61746E+03-3.00301E+02 9.61109E-10 2.78237E-09
 -1        87 7.24853E+03 2.51457E+05 1.59065E+04 1.23895E+03 1.58616E-09 9.13809E-09
 -1        88-6.15034E+03 2.44245E+05 2.43357E+04-9.38695E+02 2.36832E-09 1.42040E-09
 -1        89 4.58338E+04 2.69480E+05 6.56570E+04 2.68545E+03 3.62343E-09-5.72649E-09
 -1        90-3.95543E+04 2.28723E+05 9.27169E+04-1.74643E+03 4.23461E-09 8.10093E-09
 -1       121-7.87928E+01-5.44314E+05 1.13030E+02 7.48574E+01 2.83556E-10 5.65160E-09
 -1       122-5.71204E+00-5.44049E+05 2.75117E+02-2.99766E+02-1.06028E-09-6.98947E-10
 -1       123-1.08522E+02-5.44344E+05 4.38284E+02 2.24500E+02 8.21274E-10 2.89583E-09
 -1       124 5.01609E+02-5.43740E+05 1.15186E+03-6.94462E+02-1.99088E-09 1.40517E-09
 -1       125-4.37255E+02-5.44631E+05 1.75943E+03 4.69466E+02 1.35287E-09 9.74978E-10
 -1       191-4.76265E+00 1.95055E+05 6.03705E+00-1.11808E-02 1.28643E-10 3.12730E-09
 -1       192-4.84337E+00 1.95039E+05 1.07589E+01 4.23961E-01 1.93712E-10-1.88834E-09
 -1       193-6.00423E+00 1.95055E+05 1.99744E+01-4.15844E-01 2.14325E-10 1.50339E-09
 -1       194-6.34609E+00 1.95040E+05 4.07008E+01 1.11258E+00 1.32039E-10-5.66979E-09
 -1       195-8.39049E+00 1.95053E+05 7.95794E+01-7.04811E-01 3.17591E-10-7.95626E-09
 -1       251 2.22954E+05-3.84171E+04 8.96934E+04 3.80974E+03 4.43833E-10 2.53203E-09
 -1       252 2.63885E+05 4.44447E+04 6.36470E+04-1.21782E+04-5.08976E-10-1.14687E-09
 -1       253 2.38443E+05-5.94740E+03 2.32137E+04 2.57310E+03 1.92074E-10-4.09909E-09
 -1       254 2.45630E+05 6.87067E+03 1.46803E+04-1.02317E+04-8.37019E-11 4.95584E-09
 -1       255 2.41131E+05-9.18392E+02 5.99817E+03 1.86345E+03 2.76941E-10-2.02135E-10
 -1       256 2.42412E+05 1.09069E+03 3.64813E+03-9.18554E+03 1.42398E-09-8.07745E-10
 -1       257 2.41627E+05-1.60442E+02 1.87707E+03 1.52692E+03 5.74829E-10 5.17616E-09
 -1       258 2.41907E+05 3.41146E+02 1.66327E+03-8.84587E+03-5.57879E-10-3.21191E-09
 -1       259 2.41626E+05-1.63507E+02 1.90604E+03 1.52379E+03 9.97602E-12-4.48631E-09
 -1       260 2.42423E+05 1.11759E+03 3.73037E+03-9.17363E+03-2.47240E-10-2.55056E-10
 -1       261 2.41121E+05-9.41885E+02 6.14868E+03 1.85468E+03 9.24132E-10-3.09501E-09
 -1       262 2.45709E+05 7.04792E+03 1.50513E+04-1.02058E+04 1.72463E-10 8.95398E-10
 -1       263 2.38373E+05-6.09999E+03 2.38129E+04 2.55596E+03-6.90704E-10-1.63709E-10
 -1       264 2.64401E+05 4.55872E+04 6.52729E+04-1.21362E+04-2.32697E-09-9.09495E-10
 -1       265 2.22506E+05-3.94015E+04 9.20089E+04 3.78486E+03-1.27363E-09 1.10595E-09
 -1       266-2.92078E+04-1.36567E+04 6.85339E+04-5.85829E+01-5.49335E-10-1.29013E-07
 -1       267 3.38603E+04 1.59185E+04 4.84366E+04 6.75890E+01-1.00226E-09-2.63896E-07
 -1       268-4.54059E+03-2.25442E+03 1.80038E+04-8.61224E+00-7.95808E-10-2.13199E-07
 -1       269 5.36112E+03 2.69815E+03 1.17021E+04 1.00317E+01-6.01062E-10-1.55537E-07
 -1       270-8.04711E+02-4.43324E+02 5.64875E+03-1.36139E+00-4.55202E-10-1.12142E-07
 -1       271-2.87142E+06-3.58328E+05-2.21134E+05-1.11876E+06 3.23780E-10-1.29512E-09
 -1       272-2.93426E+06-5.35967E+05-1.42148E+05-1.13547E+06 1.93711E-09 2.55386E-09
 -1       273-2.91389E+06-4.12511E+05-5.22367E+04-1.10794E+06 4.49290E-10 2.04454E-09
 -1       274-2.88452E+06-4.69713E+05-2.92245E+04-1.15228E+06 2.98223E-09 6.33372E-09
 -1       275-2.92069E+06-4.17112E+05-1.21507E+04-1.10505E+06 2.95768E-09-2.87673E-09
 -1       276-2.87646E+06-4.64389E+05-6.45153E+03-1.15699E+06-9.74978E-10-6.64625E-09
 -1       277-2.92234E+06-4.16793E+05-3.15616E+03-1.10386E+06-2.92630E-10 4.76768E-09
 -1       278-2.87491E+06-4.64555E+05-2.29389E+03-1.15841E+06-6.28887E-10 6.01938E-09
 -1       279-2.92243E+06-4.16757E+05-2.46221E+03-1.10379E+06 3.88582E-10-4.79122E-09
 -1       280-2.87599E+06-4.64285E+05-4.51079E+03-1.15732E+06-7.58519E-10-4.33852E-09
 -1       281-2.92111E+06-4.17203E+05-8.26605E+03-1.10483E+06 7.41238E-11-1.33969E-09
 -1       282-2.88202E+06-4.67162E+05-1.97158E+04-1.15324E+06-1.59616E-10 2.24964E-09
 -1       283-2.91601E+06-4.14669E+05-3.52374E+04-1.10736E+06 1.64255E-09 2.40107E-10
 -1       284-2.91664E+06-5.10494E+05-9.57409E+04-1.14028E+06 1.54614E-10-3.96540E-09
 -1       285-2.88660E+06-3.79049E+05-1.49078E+05-1.11554E+06 1.84809E-09-1.29512E-09
 -1       301 1.10308E+04-6.67147E+03 8.58576E+04-2.13695E+04-7.49424E-10-1.12832E-08
 -1       302 1.18644E+04 1.51016E+04 6.20649E+04-3.14671E+04 5.92081E-10-6.56655E-09
 -1       303 5.46687E+02 1.03004E+03 5.72392E+04-2.14272E+04-9.26775E-10-5.47334E-09
 -1       304 2.24233E+04 2.48476E+04 9.63986E+04-3.13760E+04 1.00044E-09 1.35105E-09
 -1       305 2.22152E+04-1.63471E+04 1.61846E+05-2.13923E+04-8.00355E-10 8.00401E-09
 -1       306-3.08213E+06-3.56913E+05-2.35196E+05-1.20547E+06 1.52795E-09 1.38243E-09
 -1       307-3.20435E+06-5.54486E+05-1.60336E+05-1.16325E+06 1.92858E-09 1.00008E-08
 -1       308-3.13709E+06-4.28532E+05-5.53570E+04-1.18171E+06-3.76076E-10-5.34783E-10
 -1       309-3.13535E+06-4.76591E+05-3.34746E+04-1.19744E+06-5.75739E-10-1.92222E-09
 -1       310-3.15082E+06-4.33369E+05-1.29979E+04-1.17178E+06-3.99581E-10 7.79437E-10
 -1       311-3.11735E+06-4.73320E+05-7.51011E+03-1.21194E+06 2.37492E-09 1.12816E-08
 -1       312-3.15521E+06-4.31473E+05-3.67574E+03-1.16740E+06 8.77947E-11 9.71795E-10
 -1       313-3.11382E+06-4.74329E+05-3.31047E+03-1.21540E+06-2.98502E-09 5.60988E-10
 -1       314-3.15441E+06-4.32290E+05-3.99247E+03-1.16838E+06-7.68978E-10-5.48425E-10
 -1       315-3.12041E+06-4.70543E+05-8.37765E+03-1.20826E+06-2.48519E-10 3.31238E-09
 -1       316-3.14848E+06-4.35382E+05-1.46926E+04-1.17443E+06 1.44098E-09 5.16957E-09
 -1       317-3.14172E+06-4.73470E+05-3.78666E+04-1.19101E+06-1.16364E-09-2.15732E-09
 -1       318-3.13300E+06-4.29712E+05-6.26396E+04-1.18543E+06-3.71529E-09-2.11003E-10
 -1       319-3.21875E+06-5.63039E+05-1.81535E+05-1.15406E+06-3.27327E-09 1.16597E-09
 -1       320-3.07189E+06-3.47372E+05-2.66147E+05-1.21088E+06 6.21367E-09 4.51109E-10
 -1       336 4.10352E+02-5.89254E+05-3.15390E+03 5.35736E+02-5.01382E-09 2.15550E-10
 -1       337-1.14201E+03-5.90087E+05-3.45566E+03-1.40488E+03-9.59449E-09-4.76621E-09
 -1       338 2.68934E+02-5.89344E+05-4.37129E+03 8.66572E+02-6.94706E-09-2.94858E-09
 -1       339-4.52050E+03-5.92168E+05-9.56513E+03-2.05935E+03-1.24896E-08 4.73437E-09
 -1       340 3.06183E+03-5.87207E+05-1.47499E+04 1.18610E+03-8.24002E-09 4.13274E-09
 -1       406 1.02543E+01 1.95046E+05 3.25204E+02 2.71534E-01 4.50314E-10 4.13456E-09
 -1       407 1.11112E+02 1.95106E+05 6.91265E+02-7.52933E+00-5.21965E-11 4.12751E-09
 -1       408 3.53510E+02 1.94996E+05 1.38057E+03 7.36244E+00 5.37170E-10 3.09319E-09
 -1       409 1.49070E+03 1.95547E+05 3.10820E+03-6.86176E+01 4.30873E-11 2.23667E-09
 -1       410 4.28714E+03 1.94604E+05 6.34526E+03 6.32500E+01 5.12046E-10 3.86672E-09
 -1       521-5.83616E+06-6.74144E+05-4.37396E+05-2.27028E+06 4.14730E-09-7.65431E-09
 -1       522-6.03932E+06-1.05637E+06-2.96841E+05-2.21683E+06-1.98634E-09 5.23869E-10
 -1       523-5.94541E+06-7.97118E+05-1.02877E+05-2.21722E+06 1.64255E-09-2.59752E-09
 -1       524-5.90364E+06-9.22695E+05-6.18337E+04-2.29128E+06 2.40016E-09-1.17507E-09
 -1       525-5.97143E+06-8.04100E+05-2.39418E+04-2.19728E+06 1.29398E-09-5.81167E-10
 -1       526-5.87731E+06-9.10372E+05-1.37787E+04-2.31030E+06 1.23828E-09 1.37084E-09
 -1       527-5.97193E+06-8.08676E+05-6.67734E+03-2.19861E+06 4.80350E-09 3.05278E-09
 -1       528-5.89151E+06-8.89590E+05-5.42691E+03-2.28951E+06-4.55884E-10 2.33069E-09
 -1       529-5.95655E+06-8.25267E+05-6.98349E+03-2.21762E+06 8.32188E-11-2.35877E-09
 -1       530-5.93158E+06-8.52813E+05-1.32032E+04-2.24247E+06-6.58110E-09-9.68839E-10
 -1       531-5.93122E+06-8.45980E+05-2.42260E+04-2.24514E+06-1.72076E-09 2.60297E-09
 -1       532-5.99139E+06-8.33451E+05-6.12096E+04-2.18895E+06-1.16671E-10-6.93308E-09
 -1       533-5.89739E+06-8.44809E+05-1.01951E+05-2.27133E+06-8.31278E-10-8.60018E-09
 -1       534-6.12102E+06-9.75244E+05-2.95092E+05-2.12813E+06-2.36923E-09 6.55200E-09
 -1       535-5.80362E+06-7.06764E+05-4.33650E+05-2.30571E+06-9.84437E-09 6.75209E-09
 -1       536-2.08781E+04-1.60186E+04 3.68691E+04 2.92198E+02-1.58622E-09 7.19228E-09
 -1       537-3.60363E+03 1.85333E+04 2.63049E+04-1.33619E+03-6.63213E-09 4.77803E-09
 -1       538-1.45408E+04-2.51109E+03 9.50224E+03 3.02052E+02 1.43288E-10 4.83124E-09
 -1       539-1.10990E+04 2.89748E+03 6.09291E+03-1.38455E+03 2.55235E-09-8.18318E-10
 -1       540-1.33920E+04-3.90892E+02 2.39394E+03 3.40552E+02 6.35595E-10-1.12186E-09
 -1       541-1.25235E+04 4.46206E+02 1.44375E+03-1.45292E+03 7.77167E-10 5.72558E-09
 -1       542-1.31221E+04-5.75051E+01 5.68861E+02 3.70409E+02-4.31896E-10 1.20480E-10
 -1       543-1.28919E+04 5.33712E+01 2.86570E+02-1.50031E+03 9.14198E-10 4.42697E-10
 -1       544-1.30277E+04 4.57813E+00 2.76314E+01 3.87942E+02 3.12536E-10 3.99893E-09
 -1       545-1.30438E+04-8.16676E+01-2.00918E+02-1.52252E+03-5.38628E-10 6.88959E-09
 -1       546-1.29721E+04 7.88375E+01-4.51511E+02 3.92620E+02-1.52559E-10-4.21352E-10
 -1       547-1.32764E+04-5.81565E+02-1.18447E+03-1.51886E+03-1.57020E-09 5.60078E-10
 -1       548-1.27948E+04 5.03873E+02-1.92174E+03 3.84279E+02-1.92843E-09-8.66180E-10
 -1       549-1.46212E+04-3.71345E+03-5.23312E+03-1.48786E+03-9.98318E-10 3.03953E-09
 -1       550-1.16247E+04 3.20641E+03-7.46177E+03 3.61615E+02 3.12639E-12 2.42153E-09
 -1       551 5.73210E+03-3.08985E+05 1.69883E+04-5.29885E+05-2.35777E-08-1.02300E-08
 -1       552 1.20525E+04-3.09753E+05 2.22735E+04-7.54107E+05-1.80662E-08-8.58563E-09
 -1       553 7.90847E+03-3.13808E+05 3.47374E+04-5.28165E+05-2.85218E-08 2.72848E-10
 -1       554 2.92969E+04-2.98972E+05 7.38195E+04-7.54831E+05-1.81753E-08 1.24760E-09
 -1       555 2.92978E+04-3.27888E+05 1.32641E+05-5.28855E+05-2.94021E-08-6.39920E-09
 -1       556 4.38837E+04-9.91716E+04 3.41491E+04-1.31862E+05-5.12955E-09-2.23372E-09
 -1       557 8.40955E+04-1.32821E+05 1.78938E+04-1.64806E+05 1.22236E-09 4.39877E-09
 -1       558 4.41444E+04-1.03952E+05 7.29807E+03-1.27725E+05-2.75759E-09-1.96087E-09
 -1       559 7.90992E+04-1.37629E+05 3.68387E+03-1.66903E+05 5.03496E-09 8.33097E-10
 -1       560 4.32549E+04-1.03348E+05 1.55558E+03-1.28256E+05 1.61526E-09 3.66799E-09
 -1       561 7.76068E+04-1.37313E+05 8.12204E+02-1.67840E+05 7.93079E-10 9.72250E-10
 -1       562 4.25168E+04-1.02842E+05 3.22583E+02-1.28791E+05-9.13133E-10 6.28188E-09
 -1       563 7.67291E+04-1.36938E+05 1.92136E+02-1.68401E+05-1.55524E-09 1.56410E-09
 -1       564 4.20584E+04-1.02543E+05 7.00649E+01-1.29118E+05 1.66438E-09-7.50788E-10
 -1       565 7.62781E+04-1.36746E+05 3.72601E+01-1.68683E+05 6.62112E-10 4.72028E-10
 -1       566 4.19004E+04-1.02436E+05-2.15070E+01-1.29234E+05-2.96586E-09-2.51475E-09
 -1       567 7.62205E+04-1.36717E+05-9.44577E+01-1.68670E+05 1.84014E-09-6.75936E-09
 -1       568 4.20685E+04-1.02548E+05-2.55005E+02-1.29162E+05-1.90630E-09 2.62844E-09
 -1       569 7.60525E+04-1.36601E+05-5.99263E+02-1.67928E+05-1.82081E-09 1.89175E-09
 -1       570 4.29769E+04-1.03411E+05-1.25038E+03-1.29205E+05-1.46611E-09-5.07907E-09
 -1       571 1.41421E+05 5.12782E+03 7.59749E+03-3.55186E+04-9.02673E-10 2.63776E-09
 -1       572 1.42553E+05 1.78330E+03 3.72212E+03-3.89338E+04-1.08935E-09-2.49747E-09
 -1       573 1.41878E+05 4.24841E+02 1.65349E+03-3.54255E+04 9.21318E-10 1.86765E-09
 -1       574 1.42012E+05 1.37606E+02 8.28320E+02-3.90380E+04 3.01497E-10 1.00817E-09
 -1       575 1.41930E+05 1.83150E+01 3.90329E+02-3.54132E+04 1.31308E-09 5.67979E-10
 -1       576 1.41939E+05 4.44096E+00 1.98567E+02-3.90519E+04-1.57172E-11-2.40561E-09
 -1       577 1.41937E+05-3.43253E+00 9.76689E+01-3.54116E+04 1.09742E-09-1.35060E-09
 -1       578 1.41931E+05-1.83418E+00 5.29659E+01-3.90536E+04-6.11180E-10 9.25593E-09
 -1       579 1.41944E+05-4.01327E+00 3.19569E+01-3.54116E+04-1.25419E-09 4.00451E-09
 -1       580 1.41940E+05-4.84246E+00 2.90609E+01-3.90514E+04-1.31422E-09 1.95041E-09
 -1       581 1.41956E+05-7.64753E+00 3.86791E+01-3.54137E+04-7.93079E-10 1.29853E-09
 -1       582 1.41962E+05-1.73309E+00 7.30280E+01-3.90303E+04-6.18456E-11 5.93536E-09
 -1       583 1.41969E+05 1.67834E+01 1.39876E+02-3.54327E+04 5.58430E-10-1.23237E-09
 -1       584 1.42030E+05 1.25970E+02 3.13330E+02-3.88724E+04-1.20053E-09-7.94478E-09
 -1       585 1.41952E+05 4.02670E+02 6.36393E+02-3.55719E+04 6.45741E-11-4.27553E-09
 -1       586-1.74847E+03 4.60941E+04-2.31735E+03-1.21140E+05 3.85853E-10-8.35030E-10
 -1       587-3.81180E+02 4.57835E+04-2.78335E+02-1.33303E+05 6.32099E-10 2.90083E-09
 -1       588 4.76261E+02 4.58453E+04 1.60096E+03-1.21065E+05 3.74712E-10-4.84351E-09
 -1       589 2.39483E+03 4.67238E+04 4.68960E+03-1.33193E+05 5.92081E-10-2.38524E-08
 -1       590 6.88558E+03 4.52650E+04 1.00523E+04-1.21250E+05 2.53749E-10-8.72569E-09
 -1       591-3.07805E+04-8.85024E+03-1.02684E+04-1.60069E+04-3.10081E-10 2.05819E-09
 -1       592-3.17325E+04-1.13818E+04-5.56180E+03-1.86959E+04-3.21734E-10-4.84863E-09
 -1       593-3.18188E+04-8.09352E+03-2.31543E+03-1.67481E+04-7.26914E-10-8.95852E-11
 -1       594-3.03011E+04-9.88956E+03-1.15483E+03-1.87671E+04-1.79438E-09 1.21346E-09
 -1       595-3.18982E+04-8.09013E+03-5.30732E+02-1.67821E+04-1.85412E-09 2.56751E-09
 -1       596-3.02042E+04-9.82122E+03-2.70573E+02-1.87570E+04 2.59388E-09 1.17393E-08
 -1       597-3.19083E+04-8.09672E+03-1.49000E+02-1.67834E+04 5.61809E-09 1.31243E-08
 -1       598-3.01950E+04-9.81861E+03-1.22830E+02-1.87542E+04-1.19948E-09-3.12139E-09
 -1       599-3.19076E+04-8.09669E+03-1.60689E+02-1.67832E+04-3.60842E-10-2.34746E-09
 -1       600-3.02055E+04-9.82208E+03-3.01575E+02-1.87569E+04-3.87217E-10-3.66754E-10
 -1       601-3.18951E+04-8.08943E+03-5.96490E+02-1.67812E+04 5.20799E-10 2.65231E-10
 -1       602-3.03148E+04-9.89889E+03-1.30091E+03-1.87672E+04 7.78527E-10 3.86353E-09
 -1       603-3.18047E+04-8.09439E+03-2.60925E+03-1.67432E+04 3.56522E-10 2.59706E-09
 -1       604-3.19330E+04-1.15748E+04-6.26796E+03-1.86795E+04-3.36900E-09 1.82899E-09
 -1       605-3.06280E+04-8.95201E+03-1.15719E+04-1.59135E+04 5.46265E-10-3.19051E-09
 -1       606 2.02474E+04-6.82708E+03-1.22968E+04 1.99272E+04-1.76897E-09-1.17871E-09
 -1       607 1.81415E+04-2.20200E+03-6.12325E+03 2.23693E+04 1.19098E-09-8.95500E-09
 -1       608 1.93395E+04-3.70523E+02-2.74177E+03 1.97682E+04 2.49020E-09 2.44950E-09
 -1       609 1.91026E+04-9.71562E+01-1.38493E+03 2.25449E+04-1.14778E-09 5.16775E-09
 -1       610 1.92323E+04 1.70180E+01-6.61329E+02 1.97504E+04-3.82079E-09-3.22166E-09
 -1       611 1.91884E+04 2.45541E+01-3.33671E+02 2.25642E+04-6.73390E-09-1.57638E-09
 -1       612 1.92055E+04 2.62857E+01-1.59586E+02 1.97487E+04-3.30056E-09 2.51953E-09
 -1       613 1.91895E+04 2.90430E+01-7.29255E+01 2.25665E+04-5.11136E-09-4.25393E-09
 -1       614 1.91915E+04 2.55041E+01-2.05607E+01 1.97480E+04-1.08139E-09 3.10865E-09
 -1       615 1.91832E+04 3.17414E+01 2.20324E+01 2.25669E+04 3.37241E-09 1.50249E-09
 -1       616 1.91809E+04 2.85819E+01 7.39682E+01 1.97482E+04-2.77487E-09-1.39926E-09
 -1       617 1.91891E+04 4.95512E+01 1.71767E+02 2.25665E+04 1.27238E-09-2.78351E-09
 -1       618 1.91636E+04 7.96682E+01 3.47373E+02 1.97483E+04 5.30235E-10-3.22666E-09
 -1       619 1.93100E+04 3.19519E+02 7.80801E+02 2.25660E+04-7.00311E-10-1.04274E-09
 -1       620 1.90469E+04 9.05029E+02 1.56961E+03 1.97477E+04 1.09173E-09 2.26009E-09
 -1       621 2.47122E+02 1.54394E+05 2.13661E+03 4.82772E+03-2.70362E-10 1.20781E-09
 -1       622 2.82309E+02 1.54923E+05 1.81182E+03 7.04933E+03-2.19700E-10 2.40561E-09
 -1       623 1.19215E+01 1.54547E+05 2.08153E+03 4.80498E+03-2.59917E-10-2.61741E-09
 -1       624 9.41307E+02 1.55528E+05 3.95090E+03 7.07160E+03-2.37321E-10-1.72190E-08
 -1       625 9.44990E+02 1.53786E+05 6.86761E+03 4.80567E+03-2.08502E-10 2.79610E-09
 -1       626 1.28676E+05 3.54927E+04 2.67899E+03 6.92976E+04-6.56200E-10-1.34150E-09
 -1       627 1.26907E+05 3.67989E+04 1.29284E+03 7.21600E+04-2.72394E-10-3.70119E-09
 -1       628 1.28780E+05 3.42474E+04 5.46485E+02 6.97017E+04 2.85581E-09-4.71346E-10
 -1       629 1.26527E+05 3.64944E+04 2.67807E+02 7.23297E+04 9.73159E-10-7.34912E-09
 -1       630 1.28789E+05 3.41893E+04 1.23933E+02 6.97135E+04-1.56069E-09-2.37259E-09
 -1       631 1.26483E+05 3.64869E+04 6.64052E+01 7.23322E+04-4.60204E-09-4.89514E-10
 -1       632 1.28784E+05 3.41933E+04 4.34937E+01 6.97086E+04-5.48016E-09 6.67342E-11
 -1       633 1.26475E+05 3.64903E+04 4.79785E+01 7.23280E+04 5.12955E-10-3.95289E-10
 -1       634 1.28778E+05 3.41935E+04 7.72043E+01 6.97059E+04 6.14136E-10-8.54016E-10
 -1       635 1.26478E+05 3.64912E+04 1.56192E+02 7.23281E+04 2.49088E-09 9.86461E-09
 -1       636 1.28770E+05 3.41923E+04 3.15340E+02 6.97039E+04-7.61702E-10 2.26714E-09
 -1       637 1.26542E+05 3.65392E+04 6.92500E+02 7.23256E+04-4.72667E-09-1.64031E-08
 -1       638 1.28741E+05 3.43394E+04 1.42248E+03 6.96353E+04 7.94421E-09-1.21322E-08
 -1       639 1.27286E+05 3.75626E+04 3.36369E+03 7.21124E+04 1.92385E-08-8.31460E-09
 -1       640 1.28629E+05 3.73817E+04 6.96893E+03 6.83388E+04 6.65614E-09-7.82268E-09
 -1       656 3.43219E+04-8.68501E+05-8.28663E+04-4.82962E+02 1.07320E-09-1.81566E-09
 -1       657-4.53538E+04-9.05919E+05-6.85340E+04 5.71130E+03 1.55660E-09 6.58015E-09
 -1       658 1.08841E+04-8.79176E+05-4.20635E+04-1.12369E+03 3.50951E-10 4.01628E-09
 -1       659-4.86398E+04-9.07470E+05-7.28498E+04 6.13650E+03-1.07775E-09 3.75642E-09
 -1       660 3.75993E+04-8.66953E+05-9.02943E+04-9.08154E+02-7.56700E-10-6.90790E-10
 -1       661 1.24025E+05 1.34905E+04 1.18781E+04 4.84402E+04 1.37697E-09 6.12545E-10
 -1       662 1.30202E+05 2.28168E+04 8.00382E+03 4.63860E+04 1.00329E-10-4.06999E-09
 -1       663 1.26351E+05 1.73080E+04 2.79980E+03 4.77714E+04-2.06910E-10-6.26414E-10
 -1       664 1.27513E+05 1.83463E+04 1.67385E+03 4.71971E+04-1.35134E-09-3.59501E-09
 -1       665 1.26697E+05 1.78356E+04 6.60316E+02 4.76764E+04-3.17979E-09-4.06573E-09
 -1       666 1.27108E+05 1.77378E+04 3.85003E+02 4.73172E+04-5.27204E-09 6.47841E-09
 -1       667 1.26753E+05 1.79007E+04 2.03014E+02 4.76573E+04 3.82343E-10 8.08349E-10
 -1       668 1.27050E+05 1.76840E+04 2.03290E+02 4.73434E+04 2.31915E-09-2.60883E-09
 -1       669 1.26755E+05 1.78879E+04 2.72421E+02 4.76506E+04 2.46644E-10 3.24972E-09
 -1       670 1.27123E+05 1.78243E+04 5.90444E+02 4.73386E+04 1.71572E-09 3.52568E-09
 -1       671 1.26681E+05 1.77633E+04 1.04756E+03 4.76609E+04-2.08006E-09-1.37192E-09
 -1       672 1.27737E+05 1.88393E+04 2.67942E+03 4.71867E+04 4.84157E-10-1.56265E-09
 -1       673 1.26144E+05 1.68985E+04 4.49005E+03 4.77928E+04-4.64638E-10-4.03838E-09
 -1       674 1.32016E+05 2.60486E+04 1.28409E+04 4.59258E+04-5.40467E-10 9.80208E-10
 -1       675 1.22430E+05 1.07556E+04 1.90595E+04 4.88459E+04 1.10822E-09-1.25692E-09
 -1       676 1.40383E+01-1.67395E+05-6.51927E+02 2.48128E+01-1.54199E-09-3.59527E-09
 -1       677-1.73036E+02-1.67553E+05-1.19307E+03-4.96120E+01-5.06712E-09-6.48753E-09
 -1       678 1.15551E+02-1.67283E+05-2.10901E+03 2.47821E+01 1.39721E-09-5.19515E-09
 -1       679-2.10932E+03-1.68826E+05-5.00983E+03-4.94837E+01-1.28011E-09-4.05743E-09
 -1       680 1.25879E+03-1.66123E+05-8.07421E+03 2.43998E+01-1.15324E-09 2.35308E-09
 -1       771-1.79985E+06-3.13599E+05-4.39273E+04-7.45318E+05-2.47019E-09-6.67205E-09
 -1       772-1.78878E+06-3.37424E+05-2.35826E+04-7.71857E+05 6.13363E-09 5.57884E-09
 -1       773-1.80575E+06-3.09030E+05-1.01583E+04-7.47778E+05 7.42148E-10 1.78989E-09
 -1       774-1.78241E+06-3.32189E+05-4.95065E+03-7.74375E+05 5.16957E-09-5.91172E-10
 -1       775-1.80703E+06-3.08224E+05-2.49489E+03-7.47932E+05-9.45874E-10 6.58474E-10
 -1       776-1.78225E+06-3.32194E+05-1.15213E+03-7.75664E+05-1.89175E-09 1.36060E-09
 -1       777-1.80790E+06-3.07610E+05-7.10775E+02-7.48000E+05 1.29512E-09 1.15324E-09
 -1       778-1.78246E+06-3.32364E+05-3.17002E+02-7.76731E+05 6.78483E-10 2.90402E-09
 -1       779-1.80857E+06-3.07087E+05-3.09945E+02-7.48060E+05-3.23780E-09-1.96633E-09
 -1       780-1.78269E+06-3.32510E+05-2.42210E+02-7.77594E+05-2.07183E-09-1.52795E-10
 -1       781-1.80908E+06-3.06668E+05-4.32081E+02-7.48104E+05-6.39920E-09-1.05956E-09
 -1       782-1.78292E+06-3.32657E+05-7.86227E+02-7.78230E+05-8.03811E-09-2.22474E-09
 -1       783-1.80938E+06-3.06395E+05-1.57355E+03-7.48116E+05-1.56251E-09-3.16828E-09
 -1       784-1.78398E+06-3.33725E+05-3.72716E+03-7.78575E+05-4.70209E-09-2.29420E-10
 -1       785-1.80887E+06-3.06750E+05-6.89168E+03-7.47629E+05-8.03811E-09 9.99535E-10
 -1       786 1.31933E+05-7.02955E+03 1.62625E+04 3.55979E-01 1.80954E-07 1.12414E-09
 -1       787 1.38979E+05 8.13801E+03 1.15055E+04-4.83704E+00 3.59797E-07 5.95219E-09
 -1       788 1.34651E+05-1.10196E+03 4.20915E+03 2.04411E+00 4.68818E-07-1.00431E-09
 -1       789 1.35812E+05 1.27503E+03 2.64467E+03-8.81949E+00 5.77836E-07 7.60963E-10
 -1       790 1.35100E+05-1.72146E+02 1.07615E+03 4.33846E+00 7.55311E-07-1.85418E-09
 -1       791 1.35289E+05 2.00024E+02 6.31944E+02-1.45378E+01 9.33273E-07 1.24966E-08
 -1       792 1.35175E+05-2.77576E+01 2.88616E+02 7.76250E+00 1.27964E-06-8.73970E-09
 -1       793 1.35204E+05 3.90802E+01 1.89539E+02-2.32780E+01 1.62294E-06 6.33190E-09
 -1       794 1.35185E+05-1.13083E+01 1.41031E+02 1.30789E+01 8.11824E-07-2.02824E-09
 -1       795 1.35213E+05 5.85858E+01 2.04914E+02-3.69742E+01 2.75368E-09-1.36000E-09
 -1       796 1.35166E+05-4.72488E+01 3.07497E+02 2.14589E+01-6.71612E-11-1.23936E-09
 -1       797 1.35352E+05 3.46426E+02 7.25495E+02-5.86493E+01-3.11656E-10 8.09294E-10
 -1       798 1.35045E+05-2.98936E+02 1.14532E+03 3.47544E+01-1.37992E-11 9.77820E-10
 -1       799 1.36212E+05 2.20723E+03 3.12247E+03-9.33009E+01-9.25829E-10 2.24236E-09
 -1       800 1.34307E+05-1.90655E+03 4.41082E+03 5.61107E+01-1.87675E-10 3.65435E-09
 -1       801-8.20838E+03 9.46253E+03 1.09733E+04 1.40464E+04 7.71570E-09-3.11911E-09
 -1       802 2.03802E+04 7.47931E+04 3.93215E+04-5.78254E+04 2.06342E-08-2.88765E-10
 -1       803-1.15930E+04 3.42869E+04 4.92624E+04 1.31310E+04 1.63091E-08 1.39425E-08
 -1       804 9.56719E+04 1.15900E+05 1.38070E+05-5.85864E+04 1.93049E-08 1.53120E-08
 -1       805-8.35416E+04-3.14358E+04 1.77243E+05 1.48056E+04 6.78119E-09 1.76677E-08
 -1       806-1.54123E+05-3.31127E+04-1.31166E+04-6.42920E+04 3.79578E-09 1.11504E-09
 -1       807-1.54882E+05-3.12476E+04-6.44389E+03-6.77850E+04 8.56954E-09-9.96778E-10
 -1       808-1.54496E+05-2.83737E+04-2.73353E+03-6.65166E+04 4.27735E-09 2.37201E-09
 -1       809-1.53506E+05-2.94588E+04-1.33636E+03-6.79713E+04 2.48940E-09-1.69825E-09
 -1       810-1.54554E+05-2.82064E+04-6.11898E+02-6.66149E+04 1.42336E-09-2.36605E-09
 -1       811-1.53401E+05-2.93880E+04-3.03468E+02-6.79558E+04 9.67930E-10-7.66249E-11
 -1       812-1.54564E+05-2.82186E+04-1.51415E+02-6.66148E+04 2.60570E-10-2.59206E-09
 -1       813-1.53388E+05-2.93898E+04-9.55283E+01-6.79479E+04 5.16820E-10 6.98810E-09
 -1       814-1.54563E+05-2.82230E+04-8.95354E+01-6.66129E+04-1.12641E-09-2.98473E-09
 -1       815-1.53390E+05-2.93913E+04-1.40200E+02-6.79460E+04-1.11959E-09-6.06724E-09
 -1       816-1.54554E+05-2.82217E+04-2.62632E+02-6.66112E+04-2.00589E-09-2.80488E-09
 -1       817-1.53435E+05-2.94163E+04-5.63209E+02-6.79416E+04 4.61569E-10 6.41421E-09
 -1       818-1.54521E+05-2.83004E+04-1.14775E+03-6.65741E+04 8.23547E-10-1.01613E-09
 -1       819-1.54070E+05-3.01048E+04-2.70149E+03-6.77882E+04-1.65710E-09-8.22638E-10
 -1       820-1.54303E+05-3.03432E+04-5.49790E+03-6.57039E+04-8.62201E-10-3.61638E-10
 -1       821-1.99804E+05 1.10930E+04-2.56561E+04 2.79463E+01-5.01065E-10-1.60435E-09
 -1       822-2.10922E+05-1.28420E+04-1.81549E+04-3.16543E+02-1.33115E-09-1.65710E-09
 -1       823-2.04095E+05 1.73899E+03-6.64507E+03-1.16667E+01 7.94298E-10-1.30922E-09
 -1       824-2.05922E+05-2.01283E+03-4.18149E+03-2.09443E+02 2.41041E-10 2.99019E-09
 -1       825-2.04804E+05 2.72229E+02-1.71806E+03-7.91570E+01-2.50230E-09-1.06695E-09
 -1       826-2.05098E+05-3.21098E+02-1.03856E+03-6.79605E+01-4.80311E-09-2.14550E-09
 -1       827-2.04919E+05 4.84678E+01-5.36276E+02-1.53152E+02-3.79021E-09 2.96700E-09
 -1       828-2.04985E+05-9.80875E+01-4.75558E+02 6.38366E+01-4.04588E-09 1.05527E-08
 -1       829-2.04917E+05 4.94095E+01-5.44178E+02-2.10957E+02 1.38495E-10 5.26894E-09
 -1       830-2.05107E+05-3.28921E+02-1.06341E+03 1.45549E+02 2.48080E-09 5.09115E-09
 -1       831-2.04797E+05 2.79202E+02-1.76036E+03-2.34866E+02-1.76862E-09 7.70910E-10
 -1       832-2.05952E+05-2.06447E+03-4.28957E+03 1.52521E+02-1.68595E-09-4.80628E-09
 -1       833-2.04072E+05 1.78370E+03-6.81604E+03-2.17928E+02-1.84559E-09-5.33191E-09
 -1       834-2.11076E+05-1.31729E+04-1.86231E+04 8.43895E+01-7.27180E-10 4.27508E-09
 -1       835-1.99674E+05 1.13789E+04-2.63187E+04-1.66728E+02 3.20167E-09 1.32786E-10
 -1       836-6.65458E+02 1.89433E+05 1.13991E+04-1.66359E+04 1.43837E-09 8.32642E-10
 -1       837 2.50837E+03 1.92964E+05 9.72553E+03-3.34215E+04 2.08797E-09-5.68946E-09
 -1       838-2.45059E+02 1.90418E+05 1.00206E+04-1.65787E+04 1.84173E-09-1.56115E-09
 -1       839 6.42744E+03 1.95889E+05 1.90658E+04-3.34422E+04 2.35650E-09 3.89487E-09
 -1       840-1.93348E+03 1.86487E+05 3.04477E+04-1.66140E+04 1.60617E-09 2.12549E-09
 -1       856-6.26450E+04 5.35556E+03-1.41125E+04-3.07930E+02-2.58450E-09 4.40195E-10
 -1       857-6.84755E+04-6.28174E+03-9.71643E+03 3.21929E+03-2.65614E-09-8.62019E-09
 -1       858-6.49485E+04 7.50544E+02-3.66258E+03-3.19794E+02-2.30301E-09-3.09706E-09
 -1       859-6.58294E+04-8.73373E+02-2.21226E+03 3.23807E+03 2.77623E-10 2.27575E-09
 -1       860-6.52930E+04 1.04477E+02-9.30239E+02-3.26798E+02 1.79891E-09-2.66391E-09
 -1       861-6.54322E+04-1.16336E+02-5.18369E+02 3.24760E+03-2.73539E-09 3.00709E-10
 -1       862-6.53467E+04 1.39446E+01-2.28716E+02-3.29343E+02 4.01982E-09-2.60815E-09
 -1       863-6.53688E+04-9.63326E+00-1.13363E+02 3.24874E+03 7.59761E-09-4.50038E-09
 -1       864-6.53565E+04 9.34225E-02-3.60988E+01-3.27940E+02 3.74402E-09-3.73267E-09
 -1       865-6.53509E+04 1.46449E+01 1.97772E+01 3.24159E+03 4.51664E-09-3.94861E-09
 -1       866-6.53638E+04-1.05132E+01 7.47662E+01-3.22197E+02-7.66448E-10-4.39941E-09
 -1       867-6.53074E+04 8.86636E+01 2.06008E+02 3.22604E+03 1.03358E-09-2.13037E-09
 -1       868-6.53983E+04-7.32526E+01 3.48110E+02-3.12386E+02 1.11714E-09-4.98488E-09
 -1       869-6.50470E+04 6.08432E+02 9.34325E+02 3.19983E+03-1.70549E-09-5.59180E-09
 -1       870-6.56215E+04-5.17123E+02 1.35562E+03-2.95988E+02-1.57542E-09-1.22509E-09
 -1       871-2.92210E+03-6.20816E+03-9.51195E+03 6.21368E+04 2.36651E-09 1.84809E-09
 -1       872-1.27087E+03-8.33257E+03-3.88011E+03 8.05559E+04 3.32011E-09-3.21506E-09
 -1       873-2.87612E+01-7.33194E+03 5.49804E+02 6.19996E+04 1.62640E-09-1.13687E-10
 -1       874 1.45934E+03-5.95228E+03 5.38696E+03 8.05844E+04 3.65935E-09 4.21949E-09
 -1       875 3.46255E+03-8.61669E+03 1.19512E+04 6.21133E+04 1.98816E-09-1.81126E-09
 -1       876 1.55319E+05 2.67802E+04 8.29805E+03 6.30404E+04-6.63613E-09-1.21918E-09
 -1       877 1.55779E+05 2.86155E+04 4.43127E+03 6.55109E+04-6.65955E-09-3.72040E-09
 -1       878 1.56095E+05 2.58609E+04 1.85655E+03 6.37214E+04-8.76526E-10 1.82695E-09
 -1       879 1.54650E+05 2.74919E+04 9.24795E+02 6.55711E+04-9.05652E-09 4.54423E-09
 -1       880 1.56152E+05 2.58502E+04 4.30596E+02 6.37491E+04-6.18820E-09-2.47229E-09
 -1       881 1.54575E+05 2.74443E+04 2.29342E+02 6.55601E+04 2.95523E-09 9.27047E-09
 -1       882 1.56158E+05 2.58567E+04 1.45757E+02 6.37499E+04 6.11203E-09 8.44933E-09
 -1       883 1.54570E+05 2.74422E+04 1.55095E+02 6.55572E+04 2.82398E-09 4.96107E-09
 -1       884 1.56156E+05 2.58548E+04 2.45305E+02 6.37500E+04 4.87660E-10 1.93671E-09
 -1       885 1.54589E+05 2.74457E+04 4.92323E+02 6.55635E+04 3.41120E-09 1.50510E-09
 -1       886 1.56137E+05 2.58404E+04 9.91874E+02 6.37481E+04-8.71125E-10 3.14913E-09
 -1       887 1.54764E+05 2.75599E+04 2.16653E+03 6.55884E+04-1.30289E-08-1.96468E-09
 -1       888 1.55999E+05 2.58647E+04 4.36566E+03 6.36788E+04-1.88706E-09-8.59745E-09
 -1       889 1.57366E+05 3.02606E+04 1.04295E+04 6.55051E+04 1.25147E-08 4.03361E-09
 -1       890 1.54220E+05 2.79782E+04 1.95333E+04 6.20141E+04 6.78369E-09-3.28782E-09
 -1       891-9.57165E+01-8.83423E+04-1.03959E+03 1.68296E+04 1.59889E-09 5.14206E-10
 -1       892-1.66535E+02-8.85925E+04-1.13253E+03 2.54694E+04 1.17018E-09-3.81988E-11
 -1       893-2.53900E+01-8.83762E+04-1.61965E+03 1.68327E+04 3.68482E-09-3.61797E-09
 -1       894-8.82333E+02-8.92188E+04-3.36447E+03 2.53794E+04-6.57906E-10 1.70076E-09
 -1       895-6.87635E+02-8.76798E+04-5.92848E+03 1.69186E+04-1.61572E-09 2.76623E-09
 -1       956-1.95200E+05-2.81873E+03-7.09865E+03 1.30005E+04-4.21323E-09 1.55580E-09
 -1       957-1.96602E+05-9.50773E+02-3.64432E+03 1.56515E+04-7.24867E-10-4.28327E-09
 -1       958-1.95828E+05-7.55009E+01-1.64173E+03 1.29158E+04 3.89218E-09-4.32578E-09
 -1       959-1.95939E+05-1.36822E+01-8.38629E+02 1.57429E+04-8.76980E-10 3.67618E-09
 -1       960-1.95883E+05 2.28951E+01-4.08692E+02 1.29080E+04-3.19960E-09 2.27033E-10
 -1       961-1.95889E+05 2.07281E+01-2.16707E+02 1.57517E+04-5.24676E-09-6.54836E-11
 -1       962-1.95893E+05 1.93225E+01-1.23668E+02 1.29070E+04-2.73167E-09-1.32945E-09
 -1       963-1.95886E+05 2.10852E+01-9.86543E+01 1.57531E+04-3.32489E-09 2.35400E-09
 -1       964-1.95895E+05 2.03860E+01-1.18928E+02 1.29066E+04-5.98004E-09 1.72349E-09
 -1       965-1.95894E+05 2.31144E+01-2.04807E+02 1.57531E+04-7.97947E-09-1.79807E-09
 -1       966-1.95889E+05 2.60094E+01-3.83994E+02 1.29069E+04-5.86027E-09-2.24770E-09
 -1       967-1.95945E+05-6.80606E+00-7.87341E+02 1.57483E+04-9.55538E-11-2.67846E-10
 -1       968-1.95841E+05-6.41052E+01-1.54058E+03 1.29114E+04 4.72619E-09 3.69397E-10
 -1       969-1.96571E+05-8.84287E+02-3.42049E+03 1.56949E+04 9.15770E-09 2.11588E-09
 -1       970-1.95255E+05-2.63745E+03-6.66218E+03 1.29620E+04 5.98084E-09 2.05137E-09
 -1       971-1.85439E+05-9.78853E+02-5.44958E+03 9.08533E+03 1.67256E-09 1.40190E-09
 -1       972-1.86764E+05-7.02629E+02-2.96810E+03 1.26840E+04 1.02364E-08 1.74168E-10
 -1       973-1.86043E+05-6.26493E+00-1.32874E+03 9.01058E+03 2.36787E-09 5.23062E-09
 -1       974-1.86134E+05-7.68218E+00-6.88470E+02 1.27642E+04-1.85310E-10 4.31174E-09
 -1       975-1.86088E+05 1.79302E+01-3.43159E+02 9.00437E+03 5.54792E-11 3.25326E-09
 -1       976-1.86095E+05 1.96760E+01-1.96563E+02 1.27715E+04-8.27640E-10 1.82297E-10
 -1       977-1.86096E+05 1.69087E+01-1.39908E+02 9.00322E+03 2.38106E-09 2.56250E-09
 -1       978-1.86095E+05 2.21567E+01-1.60095E+02 1.27731E+04 7.09093E-09 6.45173E-10
 -1       979-1.86095E+05 2.08143E+01-2.53996E+02 9.00276E+03 4.65383E-09 8.58165E-10
 -1       980-1.86114E+05 2.35335E+01-4.88414E+02 1.27733E+04 4.04022E-09 1.39642E-09
 -1       981-1.86080E+05 3.30249E+01-9.44803E+02 9.00302E+03-1.65983E-10 3.91995E-09
 -1       982-1.86244E+05-4.58801E+01-1.95224E+03 1.27698E+04-2.31853E-09 1.01510E-09
 -1       983-1.85961E+05-2.68526E+01-3.79273E+03 9.00642E+03 1.65483E-09-9.90894E-10
 -1       984-1.88069E+05-2.02559E+03-8.49309E+03 1.27191E+04-2.14754E-10 3.12548E-09
 -1       985-1.84246E+05-2.80149E+03-1.55960E+04 9.05681E+03 4.78281E-09 8.09450E-11
 -3
    1PSTEP                         7           4           1          
  100CL  104 4.68750E-01         409                     0    4           1
 -4  DISP        4    1
 -5  D1          1    2    1    0
 -5  D2          1    2    2    0
 -5  D3          1    2    3    0
 -5  ALL         1    2    0    0    1ALL
 -1         1 1.27097E-04 0.00000E+00 0.00000E+00
 -1         2 1.16519E-04 2.48299E-30 1.65436E-24
 -1         3 1.10137E-04 1.53112E-28 6.61744E-24
 -1         5 7.79863E-05 6.88526E-27 3.30872E-24
 -1         8 1.02690E-04-8.86053E-07 0.00000E+00
 -1         9 1.03384E-04 4.52908E-07 0.00000E+00
 -1        10 1.01913E-04-1.50241E-06 0.00000E+00
 -1        12 7.75000E-05 5.12360E-07 1.65436E-24
 -1        15 7.36250E-05-9.77557E-07 0.00000E+00
 -1        16 7.62669E-05 2.98159E-07 0.00000E+00
 -1        17 7.56358E-05-3.17283E-06 0.00000E+00
 -1        18 7.50495E-05 7.80993E-07 0.00000E+00
 -1        19 7.60414E-05 1.02191E-06 0.00000E+00
 -1        20 7.61733E-05 1.46545E-05 0.00000E+00
 -1        21 7.56692E-05 2.75773E-05-1.65436E-24
 -1        24 1.86444E-05-4.32007E-06 0.00000E+00
 -1        25 7.35652E-05 8.99196E-07 0.00000E+00
 -1        26 7.44964E-05 1.42414E-06 0.00000E+00
 -1        27 7.30741E-05 1.23856E-05 0.00000E+00
 -1        28 7.26203E-05 2.71406E-05 0.00000E+00
 -1        32 0.00000E+00 0.00000E+00 0.00000E+00
 -1        33 7.17333E-05 1.90995E-06 0.00000E+00
 -1        34 7.03630E-05 1.23645E-05 0.00000E+00
 -1        35 6.90620E-05 2.69098E-05 0.00000E+00
 -1        51 1.25510E-04-1.45655E-07 0.00000E+00
 -1        52 1.22569E-04-2.87395E-07 0.00000E+00
 -1        53 1.18539E-04-4.30624E-07 0.00000E+00
 -1        54 1.13697E-04-5.76778E-07 0.00000E+00
 -1        55 1.08321E-04-7.26583E-07 5.89366E-24
 -1        56 1.25953E-04-7.43480E-07-2.64698E-23
 -1        57 1.24956E-04-2.00579E-06 1.32349E-23
 -1        58 1.24100E-04-3.64113E-06 2.64698E-23
 -1        59 1.23324E-04-5.51278E-06 0.00000E+00
 -1        60 1.22578E-04-7.46328E-06 0.00000E+00
 -1        61 1.21801E-04-9.33590E-06 0.00000E+00
 -1        62 1.20937E-04-1.09781E-05 0.00000E+00
 -1        63 1.19933E-04-1.22447E-05-2.64698E-23
 -1        64 1.18743E-04-1.30136E-05 5.29396E-23
 -1        65 1.17326E-04-1.31777E-05 0.00000E+00
 -1        66 1.15655E-04-1.26672E-05 0.00000E+00
 -1        67 1.13713E-04-1.14322E-05 0.00000E+00
 -1        68 1.11497E-04-9.46828E-06 0.00000E+00
 -1        69 1.09018E-04-6.78998E-06 0.00000E+00
 -1        70 1.06290E-04-3.46124E-06-2.64698E-23
 -1        86 1.16177E-04 8.33938E-08 1.65436E-24
 -1        87 1.15149E-04 1.65797E-07 8.27181E-25
 -1        88 1.13403E-04 2.47161E-07 0.00000E+00
 -1        89 1.10905E-04 3.23605E-07 0.00000E+00
 -1        90 1.07589E-04 3.98897E-07 0.00000E+00
 -1       121 1.09908E-04-2.49133E-07 0.00000E+00
 -1       122 1.09219E-04-4.98474E-07 0.00000E+00
 -1       123 1.08073E-04-7.48228E-07 0.00000E+00
 -1       124 1.06472E-04-9.98638E-07 0.00000E+00
 -1       125 1.04417E-04-1.24983E-06 0.00000E+00
 -1       191 7.79727E-05 8.54005E-08 0.00000E+00
 -1       192 7.79322E-05 1.70799E-07 1.65436E-24
 -1       193 7.78647E-05 2.56197E-07 3.30872E-24
 -1       194 7.77702E-05 3.41591E-07 0.00000E+00
 -1       195 7.76486E-05 4.26980E-07 3.30872E-24
 -1       251 1.02712E-04 3.14224E-06 3.30872E-24
 -1       252 1.02756E-04 5.56395E-06 8.27181E-25
 -1       253 1.02800E-04 6.63846E-06-5.16988E-26
 -1       254 1.02848E-04 6.62210E-06 0.00000E+00
 -1       255 1.02896E-04 5.74365E-06 8.27181E-25
 -1       256 1.02944E-04 4.23005E-06 0.00000E+00
 -1       257 1.02991E-04 2.29200E-06 0.00000E+00
 -1       258 1.03037E-04 1.39309E-07-8.27181E-25
 -1       259 1.03084E-04-2.02378E-06 1.65436E-24
 -1       260 1.03131E-04-3.99298E-06 0.00000E+00
 -1       261 1.03178E-04-5.55902E-06-8.27181E-25
 -1       262 1.03226E-04-6.51188E-06-4.13590E-25
 -1       263 1.03274E-04-6.62574E-06-5.16988E-26
 -1       264 1.03318E-04-5.67307E-06-8.27181E-25
 -1       265 1.03362E-04-3.39932E-06-6.61744E-24
 -1       266 9.78456E-05-9.13253E-07-6.61744E-24
 -1       267 9.30015E-05-9.27047E-07 0.00000E+00
 -1       268 8.81574E-05-9.41690E-07-1.65436E-24
 -1       269 8.33132E-05-9.53819E-07 0.00000E+00
 -1       270 7.84691E-05-9.65888E-07 4.13590E-25
 -1       271 9.97412E-05 2.76630E-06 0.00000E+00
 -1       272 9.72189E-05 5.15482E-06 0.00000E+00
 -1       273 9.51230E-05 6.41908E-06 5.29396E-23
 -1       274 9.33897E-05 6.69833E-06 0.00000E+00
 -1       275 9.19643E-05 6.15615E-06-5.29396E-23
 -1       276 9.07794E-05 4.96822E-06 0.00000E+00
 -1       277 8.97652E-05 3.32324E-06 0.00000E+00
 -1       278 8.88481E-05 1.41778E-06 0.00000E+00
 -1       279 8.79530E-05-5.46538E-07 0.00000E+00
 -1       280 8.70042E-05-2.36700E-06-2.64698E-23
 -1       281 8.59272E-05-3.84379E-06-5.29396E-23
 -1       282 8.46499E-05-4.78311E-06-2.64698E-23
 -1       283 8.31027E-05-5.00174E-06 0.00000E+00
 -1       284 8.12255E-05-4.32771E-06 0.00000E+00
 -1       285 7.89535E-05-2.60974E-06 0.00000E+00
 -1       301 9.86852E-05 4.20118E-07-6.61744E-24
 -1       302 9.40085E-05 4.02506E-07 1.65436E-24
 -1       303 8.93910E-05 3.85582E-07 3.30872E-24
 -1       304 8.48700E-05 3.67443E-07 3.30872E-24
 -1       305 8.04831E-05 3.47471E-07 0.00000E+00
 -1       306 1.00340E-04 3.85345E-06 0.00000E+00
 -1       307 9.77738E-05 5.83769E-06 0.00000E+00
 -1       308 9.57668E-05 6.34895E-06 0.00000E+00
 -1       309 9.43068E-05 5.37602E-06 0.00000E+00
 -1       310 9.33205E-05 3.13598E-06 5.29396E-23
 -1       311 9.27024E-05-9.74363E-08-2.64698E-23
 -1       312 9.22963E-05-3.90095E-06 5.29396E-23
 -1       313 9.19345E-05-7.82478E-06 2.64698E-23
 -1       314 9.14433E-05-1.14005E-05 5.29396E-23
 -1       315 9.06549E-05-1.41764E-05 0.00000E+00
 -1       316 8.94443E-05-1.58213E-05 5.29396E-23
 -1       317 8.77080E-05-1.60570E-05 0.00000E+00
 -1       318 8.54167E-05-1.48167E-05-5.29396E-23
 -1       319 8.25789E-05-1.20995E-05 2.64698E-23
 -1       320 7.92630E-05-8.13220E-06 0.00000E+00
 -1       336 9.89041E-05-1.77602E-06-6.61744E-24
 -1       337 9.53361E-05-2.05176E-06 3.30872E-24
 -1       338 9.12159E-05-2.32945E-06 0.00000E+00
 -1       339 8.65523E-05-2.60902E-06 0.00000E+00
 -1       340 8.13552E-05-2.89116E-06-6.61744E-24
 -1       406 7.73244E-05 5.97726E-07 3.30872E-24
 -1       407 7.71217E-05 6.83059E-07-1.65436E-24
 -1       408 7.68921E-05 7.68335E-07 0.00000E+00
 -1       409 7.66354E-05 8.53448E-07 0.00000E+00
 -1       410 7.63518E-05 9.38232E-07 0.00000E+00
 -1       521 7.44531E-05-3.55837E-06 0.00000E+00
 -1       522 7.74201E-05-2.08107E-05 2.64698E-23
 -1       523 8.40933E-05-4.85527E-05 0.00000E+00
 -1       524 9.30592E-05-8.30376E-05 0.00000E+00
 -1       525 1.02549E-04-1.19066E-04-1.05879E-22
 -1       526 1.10751E-04-1.51312E-04-5.29396E-23
 -1       527 1.16076E-04-1.75266E-04 0.00000E+00
 -1       528 1.17079E-04-1.87110E-04 5.29396E-23
 -1       529 1.13133E-04-1.85607E-04 0.00000E+00
 -1       530 1.03985E-04-1.70601E-04 0.00000E+00
 -1       531 9.05206E-05-1.44750E-04 1.05879E-22
 -1       532 7.40560E-05-1.11556E-04 0.00000E+00
 -1       533 5.66266E-05-7.60265E-05 1.05879E-22
 -1       534 4.03928E-05-4.33376E-05 0.00000E+00
 -1       535 2.71893E-05-1.81049E-05 0.00000E+00
 -1       536 7.55803E-05 2.31334E-06 0.00000E+00
 -1       537 7.55360E-05 6.82086E-06 0.00000E+00
 -1       538 7.54951E-05 1.03182E-05 1.65436E-24
 -1       539 7.54584E-05 1.27754E-05 8.27181E-25
 -1       540 7.54237E-05 1.42374E-05-8.27181E-25
 -1       541 7.53901E-05 1.47507E-05-4.13590E-25
 -1       542 7.53566E-05 1.44296E-05 8.27181E-25
 -1       543 7.53227E-05 1.33901E-05 4.13590E-25
 -1       544 7.52881E-05 1.17995E-05 0.00000E+00
 -1       545 7.52529E-05 9.82602E-06 0.00000E+00
 -1       546 7.52174E-05 7.66527E-06 8.27181E-25
 -1       547 7.51820E-05 5.51326E-06-4.13590E-25
 -1       548 7.51470E-05 3.56528E-06 0.00000E+00
 -1       549 7.51132E-05 2.01639E-06 0.00000E+00
 -1       550 7.50798E-05 1.03309E-06 0.00000E+00
 -1       551 6.81188E-05-3.34380E-06 0.00000E+00
 -1       552 5.91295E-05-3.52330E-06-1.65436E-24
 -1       553 4.91741E-05-3.71134E-06 1.65436E-24
 -1       554 3.87663E-05-3.90598E-06 3.30872E-24
 -1       555 2.84197E-05-4.10272E-06 0.00000E+00
 -1       556 7.36491E-05 1.97159E-06 0.00000E+00
 -1       557 7.21259E-05 5.91953E-06 0.00000E+00
 -1       558 7.10158E-05 8.78030E-06 0.00000E+00
 -1       559 7.02728E-05 1.06719E-05 0.00000E+00
 -1       560 6.98510E-05 1.17121E-05 0.00000E+00
 -1       561 6.97050E-05 1.20193E-05 0.00000E+00
 -1       562 6.97896E-05 1.17121E-05 0.00000E+00
 -1       563 7.00600E-05 1.09091E-05-3.30872E-24
 -1       564 7.04714E-05 9.72925E-06 0.00000E+00
 -1       565 7.09794E-05 8.29129E-06 0.00000E+00
 -1       566 7.15394E-05 6.71416E-06-8.27181E-25
 -1       567 7.21069E-05 5.11680E-06 4.13590E-25
 -1       568 7.26376E-05 3.61809E-06 0.00000E+00
 -1       569 7.30870E-05 2.33682E-06 0.00000E+00
 -1       570 7.34107E-05 1.39180E-06 0.00000E+00
 -1       571 7.51097E-05 8.34363E-07-1.24077E-24
 -1       572 7.51713E-05 8.46625E-07 6.20385E-25
 -1       573 7.52332E-05 8.25129E-07 0.00000E+00
 -1       574 7.52953E-05 7.77615E-07 4.13590E-25
 -1       575 7.53574E-05 7.11856E-07-1.65436E-24
 -1       576 7.54196E-05 6.35673E-07 0.00000E+00
 -1       577 7.54818E-05 5.56896E-07 1.65436E-24
 -1       578 7.55440E-05 4.83359E-07 0.00000E+00
 -1       579 7.56063E-05 4.22898E-07 0.00000E+00
 -1       580 7.56685E-05 3.83348E-07 0.00000E+00
 -1       581 7.57307E-05 3.72545E-07 3.30872E-24
 -1       582 7.57929E-05 3.98313E-07 0.00000E+00
 -1       583 7.58551E-05 4.68472E-07-3.30872E-24
 -1       584 7.59173E-05 5.90762E-07 0.00000E+00
 -1       585 7.59794E-05 7.72874E-07 0.00000E+00
 -1       586 7.47798E-05 8.01913E-07 0.00000E+00
 -1       587 7.44838E-05 8.22316E-07 4.13590E-25
 -1       588 7.41879E-05 8.42497E-07 0.00000E+00
 -1       589 7.39186E-05 8.62358E-07 0.00000E+00
 -1       590 7.37024E-05 8.81678E-07 0.00000E+00
 -1       591 7.50005E-05 8.66461E-07-1.03398E-25
 -1       592 7.49616E-05 9.18277E-07 0.00000E+00
 -1       593 7.49327E-05 9.42849E-07 0.00000E+00
 -1       594 7.49116E-05 9.45950E-07 0.00000E+00
 -1       595 7.48963E-05 9.33426E-07 0.00000E+00
 -1       596 7.48846E-05 9.11082E-07-2.06795E-25
 -1       597 7.48745E-05 8.84720E-07 4.13590E-25
 -1       598 7.48636E-05 8.60138E-07 0.00000E+00
 -1       599 7.48499E-05 8.43131E-07-4.13590E-25
 -1       600 7.48312E-05 8.39497E-07 2.06795E-25
 -1       601 7.48054E-05 8.55032E-07 0.00000E+00
 -1       602 7.47702E-05 8.95537E-07 0.00000E+00
 -1       603 7.47236E-05 9.66816E-07 2.58494E-25
 -1       604 7.46635E-05 1.07472E-06 0.00000E+00
 -1       605 7.45877E-05 1.22501E-06 0.00000E+00
 -1       606 7.60529E-05 1.41294E-06 0.00000E+00
 -1       607 7.60621E-05 1.89250E-06 1.65436E-24
 -1       608 7.60707E-05 2.45541E-06 0.00000E+00
 -1       609 7.60791E-05 3.09579E-06 0.00000E+00
 -1       610 7.60872E-05 3.80777E-06 0.00000E+00
 -1       611 7.60953E-05 4.58536E-06 0.00000E+00
 -1       612 7.61033E-05 5.42259E-06 0.00000E+00
 -1       613 7.61113E-05 6.31349E-06 0.00000E+00
 -1       614 7.61192E-05 7.25207E-06-1.65436E-24
 -1       615 7.61271E-05 8.23233E-06 0.00000E+00
 -1       616 7.61350E-05 9.24832E-06 1.65436E-24
 -1       617 7.61428E-05 1.02940E-05 0.00000E+00
 -1       618 7.61506E-05 1.13635E-05 0.00000E+00
 -1       619 7.61583E-05 1.24507E-05 0.00000E+00
 -1       620 7.61659E-05 1.35497E-05 0.00000E+00
 -1       621 7.57384E-05 1.08899E-06 1.65436E-24
 -1       622 7.54608E-05 1.15640E-06-8.27181E-25
 -1       623 7.52032E-05 1.22380E-06 0.00000E+00
 -1       624 7.49602E-05 1.29110E-06-8.27181E-25
 -1       625 7.47264E-05 1.35828E-06 1.65436E-24
 -1       626 7.59672E-05 1.43452E-06 0.00000E+00
 -1       627 7.58658E-05 1.92102E-06-3.30872E-24
 -1       628 7.57394E-05 2.47447E-06 3.30872E-24
 -1       629 7.55907E-05 3.08748E-06 0.00000E+00
 -1       630 7.54225E-05 3.75267E-06-3.30872E-24
 -1       631 7.52374E-05 4.46259E-06 0.00000E+00
 -1       632 7.50383E-05 5.20980E-06-3.30872E-24
 -1       633 7.48280E-05 5.98687E-06 1.65436E-24
 -1       634 7.46093E-05 6.78636E-06 3.30872E-24
 -1       635 7.43850E-05 7.60083E-06-1.65436E-24
 -1       636 7.41578E-05 8.42285E-06 0.00000E+00
 -1       637 7.39305E-05 9.24497E-06 0.00000E+00
 -1       638 7.37060E-05 1.00598E-05 0.00000E+00
 -1       639 7.34868E-05 1.08598E-05 8.27181E-25
 -1       640 7.32756E-05 1.16375E-05-1.65436E-24
 -1       656 7.52598E-05 1.42853E-05 0.00000E+00
 -1       657 7.46788E-05 1.39014E-05 3.30872E-24
 -1       658 7.43046E-05 1.35187E-05 0.00000E+00
 -1       659 7.40081E-05 1.31363E-05-3.30872E-24
 -1       660 7.36455E-05 1.27527E-05 6.61744E-24
 -1       661 7.58356E-05 1.57356E-05 0.00000E+00
 -1       662 7.55192E-05 1.67678E-05 0.00000E+00
 -1       663 7.52204E-05 1.77526E-05 0.00000E+00
 -1       664 7.49391E-05 1.86924E-05 0.00000E+00
 -1       665 7.46739E-05 1.95892E-05 0.00000E+00
 -1       666 7.44243E-05 2.04451E-05 0.00000E+00
 -1       667 7.41893E-05 2.12619E-05-1.65436E-24
 -1       668 7.39682E-05 2.20417E-05 0.00000E+00
 -1       669 7.37604E-05 2.27861E-05-1.65436E-24
 -1       670 7.35653E-05 2.34970E-05-8.27181E-25
 -1       671 7.33821E-05 2.41758E-05 0.00000E+00
 -1       672 7.32102E-05 2.48242E-05-8.27181E-25
 -1       673 7.30492E-05 2.54437E-05 1.65436E-24
 -1       674 7.28978E-05 2.60354E-05-8.27181E-25
 -1       675 7.27564E-05 2.66011E-05 0.00000E+00
 -1       676 7.51598E-05 2.75041E-05-1.65436E-24
 -1       677 7.46506E-05 2.74309E-05 8.27181E-25
 -1       678 7.41419E-05 2.73577E-05 1.65436E-24
 -1       679 7.36337E-05 2.72848E-05 8.27181E-25
 -1       680 7.31265E-05 2.72119E-05 0.00000E+00
 -1       771 1.47364E-05 3.22058E-06 2.64698E-23
 -1       772 1.13404E-05 9.39736E-06 1.32349E-23
 -1       773 8.43546E-06 1.42854E-05 2.64698E-23
 -1       774 5.98886E-06 1.79650E-05-1.32349E-23
 -1       775 3.96868E-06 2.05185E-05 2.64698E-23
 -1       776 2.34148E-06 2.20313E-05-1.32349E-23
 -1       777 1.07340E-06 2.25904E-05 0.00000E+00
 -1       778 1.29866E-07 2.22855E-05 0.00000E+00
 -1       779-5.23996E-07 2.12077E-05-2.64698E-23
 -1       780-9.23682E-07 1.94502E-05-1.32349E-23
 -1       781-1.10482E-06 1.71073E-05 0.00000E+00
 -1       782-1.10352E-06 1.42750E-05 1.32349E-23
 -1       783-9.55988E-07 1.10500E-05 0.00000E+00
 -1       784-6.98671E-07 7.53013E-06 0.00000E+00
 -1       785-3.68155E-07 3.81372E-06 0.00000E+00
 -1       786 7.36200E-05 8.58706E-07 0.00000E+00
 -1       787 7.36780E-05 8.24176E-07 4.13590E-25
 -1       788 7.37359E-05 7.95150E-07 1.65436E-24
 -1       789 7.37943E-05 7.71187E-07 8.27181E-25
 -1       790 7.38528E-05 7.52531E-07 0.00000E+00
 -1       791 7.39114E-05 7.39438E-07-8.27181E-25
 -1       792 7.39700E-05 7.32915E-07 1.65436E-24
 -1       793 7.40287E-05 7.33990E-07-8.27181E-25
 -1       794 7.40873E-05 7.44713E-07 0.00000E+00
 -1       795 7.41460E-05 7.67163E-07 0.00000E+00
 -1       796 7.42046E-05 8.05002E-07 0.00000E+00
 -1       797 7.42632E-05 8.61933E-07 0.00000E+00
 -1       798 7.43218E-05 9.44237E-07 0.00000E+00
 -1       799 7.43803E-05 1.05826E-06 8.27181E-25
 -1       800 7.44388E-05 1.21465E-06 0.00000E+00
 -1       801 6.85952E-05 8.39625E-07 1.65436E-24
 -1       802 5.37164E-05 6.83638E-07-1.65436E-24
 -1       803 3.41869E-05 4.54883E-07 3.30872E-24
 -1       804 1.52752E-05 2.30804E-07 0.00000E+00
 -1       805 2.15641E-06 9.27166E-08 0.00000E+00
 -1       806 7.35086E-05 8.17269E-07-1.65436E-24
 -1       807 7.34487E-05 7.36351E-07 0.00000E+00
 -1       808 7.33861E-05 6.60980E-07 0.00000E+00
 -1       809 7.33197E-05 5.94996E-07 0.00000E+00
 -1       810 7.32483E-05 5.42230E-07 1.65436E-24
 -1       811 7.31704E-05 5.06455E-07 0.00000E+00
 -1       812 7.30848E-05 4.91442E-07 0.00000E+00
 -1       813 7.29899E-05 5.00951E-07 0.00000E+00
 -1       814 7.28844E-05 5.38739E-07 0.00000E+00
 -1       815 7.27669E-05 6.08562E-07-8.27181E-25
 -1       816 7.26360E-05 7.14169E-07 1.65436E-24
 -1       817 7.24903E-05 8.59311E-07-8.27181E-25
 -1       818 7.23284E-05 1.04774E-06 0.00000E+00
 -1       819 7.21489E-05 1.28318E-06 8.27181E-25
 -1       820 7.19507E-05 1.56937E-06-8.27181E-25
 -1       821 7.44127E-05 1.65384E-06 8.27181E-25
 -1       822 7.43238E-05 1.87161E-06-8.27181E-25
 -1       823 7.42353E-05 2.11750E-06 1.65436E-24
 -1       824 7.41458E-05 2.43151E-06 0.00000E+00
 -1       825 7.40562E-05 2.84094E-06 0.00000E+00
 -1       826 7.39664E-05 3.37270E-06 0.00000E+00
 -1       827 7.38765E-05 4.03099E-06 0.00000E+00
 -1       828 7.37864E-05 4.81949E-06 0.00000E+00
 -1       829 7.36963E-05 5.71768E-06 3.30872E-24
 -1       830 7.36061E-05 6.70461E-06-1.65436E-24
 -1       831 7.35159E-05 7.74283E-06 0.00000E+00
 -1       832 7.34259E-05 8.79469E-06 1.65436E-24
 -1       833 7.33359E-05 9.82000E-06-1.65436E-24
 -1       834 7.32470E-05 1.07787E-05 0.00000E+00
 -1       835 7.31579E-05 1.16430E-05 0.00000E+00
 -1       836 7.41723E-05 1.50502E-06 0.00000E+00
 -1       837 7.37417E-05 1.58768E-06 0.00000E+00
 -1       838 7.32434E-05 1.67019E-06-1.65436E-24
 -1       839 7.27165E-05 1.75217E-06 0.00000E+00
 -1       840 7.22002E-05 1.83402E-06 0.00000E+00
 -1       856 7.30490E-05 1.31192E-05 0.00000E+00
 -1       857 7.30209E-05 1.39502E-05 2.06795E-25
 -1       858 7.29930E-05 1.48632E-05 8.27181E-25
 -1       859 7.29645E-05 1.58428E-05 0.00000E+00
 -1       860 7.29359E-05 1.68735E-05-8.27181E-25
 -1       861 7.29072E-05 1.79399E-05-4.13590E-25
 -1       862 7.28784E-05 1.90263E-05 0.00000E+00
 -1       863 7.28497E-05 2.01171E-05 0.00000E+00
 -1       864 7.28209E-05 2.11969E-05 0.00000E+00
 -1       865 7.27921E-05 2.22499E-05-4.13590E-25
 -1       866 7.27634E-05 2.32607E-05 0.00000E+00
 -1       867 7.27347E-05 2.42137E-05 0.00000E+00
 -1       868 7.27061E-05 2.50936E-05-8.27181E-25
 -1       869 7.26775E-05 2.58848E-05-4.13590E-25
 -1       870 7.26490E-05 2.65722E-05 0.00000E+00
 -1       871 7.25239E-05 1.23847E-05 4.13590E-25
 -1       872 7.20671E-05 1.23819E-05 0.00000E+00
 -1       873 7.16635E-05 1.23787E-05 0.00000E+00
 -1       874 7.12722E-05 1.23751E-05-1.03398E-25
 -1       875 7.08521E-05 1.23710E-05-4.13590E-25
 -1       876 7.28840E-05 1.31274E-05-1.65436E-24
 -1       877 7.26780E-05 1.39166E-05 0.00000E+00
 -1       878 7.24566E-05 1.47475E-05-3.30872E-24
 -1       879 7.22217E-05 1.56148E-05-1.65436E-24
 -1       880 7.19752E-05 1.65130E-05 3.30872E-24
 -1       881 7.17191E-05 1.74369E-05-1.65436E-24
 -1       882 7.14554E-05 1.83810E-05 3.30872E-24
 -1       883 7.11860E-05 1.93401E-05 0.00000E+00
 -1       884 7.09131E-05 2.03089E-05 0.00000E+00
 -1       885 7.06385E-05 2.12819E-05 0.00000E+00
 -1       886 7.03643E-05 2.22539E-05 0.00000E+00
 -1       887 7.00924E-05 2.32195E-05-8.27181E-25
 -1       888 6.98247E-05 2.41735E-05 1.65436E-24
 -1       889 6.95630E-05 2.51103E-05 0.00000E+00
 -1       890 6.93093E-05 2.60246E-05 0.00000E+00
 -1       891 7.21331E-05 2.71020E-05 0.00000E+00
 -1       892 7.16291E-05 2.70632E-05 0.00000E+00
 -1       893 7.10892E-05 2.70245E-05-8.27181E-25
 -1       894 7.04942E-05 2.69859E-05 2.06795E-25
 -1       895 6.98247E-05 2.69473E-05 6.20385E-25
 -1       956 7.16492E-05 2.36158E-06 0.00000E+00
 -1       957 7.15638E-05 2.86848E-06 8.27181E-25
 -1       958 7.14781E-05 3.42488E-06 0.00000E+00
 -1       959 7.13923E-05 4.02466E-06 0.00000E+00
 -1       960 7.13064E-05 4.66170E-06 0.00000E+00
 -1       961 7.12204E-05 5.32983E-06 0.00000E+00
 -1       962 7.11345E-05 6.02288E-06 0.00000E+00
 -1       963 7.10485E-05 6.73470E-06 8.27181E-25
 -1       964 7.09625E-05 7.45911E-06 0.00000E+00
 -1       965 7.08764E-05 8.18993E-06 0.00000E+00
 -1       966 7.07904E-05 8.92100E-06 0.00000E+00
 -1       967 7.07045E-05 9.64615E-06-1.65436E-24
 -1       968 7.06186E-05 1.03592E-05 0.00000E+00
 -1       969 7.05328E-05 1.10540E-05-4.96308E-24
 -1       970 7.04473E-05 1.17244E-05 0.00000E+00
 -1       971 7.02828E-05 1.30220E-05 0.00000E+00
 -1       972 7.02014E-05 1.37515E-05 8.27181E-25
 -1       973 7.01199E-05 1.45448E-05-1.65436E-24
 -1       974 7.00382E-05 1.53939E-05-1.65436E-24
 -1       975 6.99565E-05 1.62904E-05 1.65436E-24
 -1       976 6.98747E-05 1.72259E-05 8.27181E-25
 -1       977 6.97928E-05 1.81924E-05-1.65436E-24
 -1       978 6.97110E-05 1.91814E-05 0.00000E+00
 -1       979 6.96291E-05 2.01846E-05-3.30872E-24
 -1       980 6.95472E-05 2.11938E-05 1.65436E-24
 -1       981 6.94654E-05 2.22007E-05 0.00000E+00
 -1       982 6.93836E-05 2.31969E-05 1.65436E-24
 -1       983 6.93020E-05 2.41742E-05-3.30872E-24
 -1       984 6.92207E-05 2.51243E-05 0.00000E+00
 -1       985 6.91398E-05 2.60388E-05 0.00000E+00
 -3
    1PSTEP                         8           4           1          
  100CL  104 4.68750E-01         409                     0    4           1
 -4  STRESS      6    1
 -5  SXX         1    4    1    1
 -5  SYY         1    4    2    2
 -5  SZZ         1    4    3    3
 -5  SXY         1    4    1    2
 -5  SYZ         1    4    2    3
 -5  SZX         1    4    3    1
 -1         1-1.66231E+06-7.54122E+05-3.41811E+05-1.05172E+06 5.09317E-10-4.61296E-09
 -1         2 2.65833E+03 2.42311E+05 8.71179E+03 7.05388E+02-1.62146E-10 1.54841E-10
 -1         3-8.82028E+01-7.11660E+05 1.66347E+02-2.59918E+02-9.71632E-11 5.50790E-09
 -1         5-5.81153E+00 2.44363E+05 6.36501E+00 1.09684E-01 1.18576E-10-8.82619E-09
 -1         8-7.84263E+05-3.32714E+05-3.40263E+04-5.65306E+05 3.74712E-10 5.95901E-09
 -1         9-1.37671E+06-3.63503E+05-1.40799E+05-4.61591E+05 3.63070E-09 2.96859E-10
 -1        10-5.77823E+02-7.41400E+05-9.84223E+02-1.75382E+03-3.23553E-09-5.29809E-09
 -1        12-3.20334E+00 2.44376E+05 2.06399E+02 9.93702E-01 1.19105E-10 7.97627E-10
 -1        15 1.97985E+03 1.08805E+03 6.39987E+03 4.14736E+00-1.77437E-10-1.93628E-10
 -1        16-3.52222E+06-1.21074E+06-5.55568E+05-1.24176E+06 1.14766E-08 5.04466E-10
 -1        17-8.48878E+05-5.15026E+05-1.64424E+05-4.75609E+05-5.39585E-09 5.23869E-11
 -1        18 6.16728E+03-2.84705E+03-1.71377E+04-5.81624E+04 7.35440E-10-2.10548E-10
 -1        19 7.69938E+04 9.14235E+04-4.02655E+02 1.51134E+04 1.71713E-10 1.13614E-09
 -1        20-3.18499E+04-3.60409E+05-7.95003E+04 2.65808E+04 3.93811E-09-6.87214E-09
 -1        21-3.40914E+01-2.09299E+05-6.75727E+02-7.31297E+01-3.18888E-09 8.63163E-09
 -1        24-3.25431E+06-1.02222E+06-4.49768E+05-1.25934E+06-2.04212E-08-1.16027E-08
 -1        25 2.30239E+04-3.26912E+04 1.02326E+04-1.05087E+05 3.42243E-10 8.48650E-09
 -1        26-1.80044E+04 6.23904E+04-1.24347E+04-8.80995E+03 1.56142E-09 3.44590E-09
 -1        27-5.74403E+04-1.97747E+05-7.43095E+04 4.48792E+04 5.13758E-09 4.52928E-10
 -1        28 1.61965E+04-5.78436E+04 1.18233E+04 1.84792E+04 4.14204E-09-3.78441E-09
 -1        32-7.84610E+05-1.81493E+05 3.19058E+05-5.24319E+05-1.66401E-08 1.28331E-08
 -1        33-1.13573E+05 5.84836E+04 2.07107E+04-3.36854E+04 1.06769E-09 1.02515E-09
 -1        34-1.47341E+05-1.47381E+04 3.47746E+02 4.54541E+04 2.57441E-09-7.30097E-09
 -1        35-1.64774E+04-2.29796E+04-9.00969E+02 3.64515E+04 3.80511E-09-4.76333E-09
 -1        51 1.40496E+04-3.66903E+05 3.63643E+04-9.31468E+05 4.36557E-11 6.03904E-09
 -1        52 8.82660E+03-3.65872E+05 2.43236E+04-1.08640E+06 3.34694E-10 4.07454E-10
 -1        53 6.64593E+03-3.78219E+05 2.10125E+04-9.28230E+05 1.38243E-10 2.76486E-10
 -1        54 1.90751E+04-3.76899E+05 3.40756E+04-1.08977E+06 2.98314E-10-2.96495E-09
 -1        55 3.79169E+04-3.89891E+05 6.10584E+04-9.27711E+05 1.20781E-09 3.03044E-09
 -1        56-3.19008E+06-3.59187E+05-2.51168E+05-1.22966E+06 3.89264E-10-2.08238E-08
 -1        57-3.28910E+06-5.88301E+05-1.69305E+05-1.22204E+06-1.14323E-09-7.47241E-09
 -1        58-3.24121E+06-4.38059E+05-5.90948E+04-1.21306E+06-7.09406E-10 1.84446E-09
 -1        59-3.22988E+06-4.95834E+05-3.52754E+04-1.24197E+06 1.57570E-09-1.20290E-08
 -1        60-3.24878E+06-4.48945E+05-1.37978E+04-1.21068E+06-1.00295E-09 1.03391E-08
 -1        61-3.22245E+06-4.81682E+05-7.83759E+03-1.24308E+06-1.54068E-09 1.89696E-08
 -1        62-3.24849E+06-4.51883E+05-3.78237E+03-1.21203E+06 7.38282E-10 7.37944E-09
 -1        63-3.22545E+06-4.75794E+05-3.07189E+03-1.23829E+06 2.11855E-09 4.07317E-09
 -1        64-3.24565E+06-4.54869E+05-3.56777E+03-1.21540E+06 3.21461E-09-1.30444E-09
 -1        65-3.23307E+06-4.70299E+05-7.04987E+03-1.23005E+06-4.60091E-10-1.39814E-08
 -1        66-3.24077E+06-4.57490E+05-1.24925E+04-1.22018E+06-1.88038E-09-2.80761E-09
 -1        67-3.24874E+06-4.73867E+05-3.16129E+04-1.21856E+06-1.76482E-09-6.65023E-09
 -1        68-3.23003E+06-4.51640E+05-5.31307E+04-1.22677E+06 1.81035E-09 6.33008E-09
 -1        69-3.30811E+06-5.50926E+05-1.51970E+05-1.19409E+06 1.77170E-09-3.35422E-09
 -1        70-3.18202E+06-3.82775E+05-2.25546E+05-1.24388E+06 9.56788E-10 1.45519E-09
 -1        86-1.33569E+03 2.39462E+05 9.30003E+03-3.52721E+02 1.14005E-09-5.95679E-09
 -1        87 8.85518E+03 2.45358E+05 1.94506E+04 1.45633E+03 1.92881E-09 5.60829E-09
 -1        88-7.51607E+03 2.36418E+05 2.97266E+04-1.10369E+03 2.87218E-09-7.95598E-09
 -1        89 5.60038E+04 2.67405E+05 8.02448E+04 3.17735E+03 4.38740E-09-6.91733E-09
 -1        90-4.83341E+04 2.17439E+05 1.13284E+05-2.07322E+03 4.99858E-09 4.09386E-09
 -1       121-1.38274E+02-7.12054E+05 1.31161E+02 1.29796E+02 4.05336E-10 7.27778E-09
 -1       122-3.28435E+01-7.11627E+05 3.59911E+02-5.19663E+02-1.39342E-09 7.44785E-09
 -1       123-1.76276E+02-7.12093E+05 5.54529E+02 3.88898E+02 1.07377E-09 6.19548E-09
 -1       124 6.33283E+02-7.11229E+05 1.50139E+03-1.16349E+03-2.67107E-09 1.08066E-08
 -1       125-6.04514E+02-7.12469E+05 2.27312E+03 7.73229E+02 1.84991E-09 5.04951E-09
 -1       191-6.31168E+00 2.44384E+05 7.54687E+00-5.55297E-02 1.39469E-10-6.22958E-09
 -1       192-6.39697E+00 2.44363E+05 1.34798E+01 6.59837E-01 2.21926E-10-2.15002E-08
 -1       193-7.86798E+00 2.44383E+05 2.50093E+01-6.08944E-01 2.40309E-10-1.28302E-08
 -1       194-8.28081E+00 2.44365E+05 5.09944E+01 1.62559E+00 1.25770E-10-2.21280E-09
 -1       195-1.08588E+01 2.44382E+05 9.96882E+01-1.02874E+00 3.59066E-10 1.51203E-09
 -1       251 1.19779E+05-4.12643E+04 9.61823E+04 3.90425E+03-2.63299E-10-1.59343E-09
 -1       252 1.64577E+05 4.77123E+04 6.84068E+04-1.37116E+04 1.33804E-09-5.60794E-09
 -1       253 1.36548E+05-6.39025E+03 2.48741E+04 2.96524E+03-5.25120E-10 1.78534E-09
 -1       254 1.44698E+05 7.37326E+03 1.58031E+04-1.22463E+04-6.87777E-10-5.82440E-09
 -1       255 1.39543E+05-9.87220E+02 6.42843E+03 2.43897E+03-6.16581E-10 1.77624E-09
 -1       256 1.41057E+05 1.17659E+03 3.93945E+03-1.14655E+04-5.89424E-10-8.43784E-10
 -1       257 1.40133E+05-1.73381E+02 2.03592E+03 2.18448E+03-2.30798E-10-6.99208E-09
 -1       258 1.40452E+05 3.83674E+02 1.83518E+03-1.12046E+04-1.24874E-09 1.75645E-09
 -1       259 1.40131E+05-1.83897E+02 2.13572E+03 2.17811E+03 9.34648E-11-3.83807E-10
 -1       260 1.41089E+05 1.26925E+03 4.22145E+03-1.14409E+04-9.77991E-10-1.45977E-08
 -1       261 1.39512E+05-1.06789E+03 6.94665E+03 2.42070E+03 1.64420E-09 5.57884E-09
 -1       262 1.44961E+05 7.98306E+03 1.70777E+04-1.21948E+04-7.53460E-11 9.91872E-09
 -1       263 1.36312E+05-6.91483E+03 2.69350E+04 2.93200E+03-7.36236E-10 2.51021E-09
 -1       264 1.66348E+05 5.16410E+04 7.39976E+04-1.36359E+04-1.21591E-09 6.63385E-09
 -1       265 1.18239E+05-4.46496E+04 1.04145E+05 3.86173E+03-1.67051E-09 4.96948E-09
 -1       266-3.58409E+04-1.67566E+04 8.41052E+04-8.87518E+01-1.20053E-10 3.43343E-09
 -1       267 4.15506E+04 1.95341E+04 5.94380E+04 1.02388E+02-9.45874E-11-1.97027E-08
 -1       268-5.57181E+03-2.76636E+03 2.20932E+04-1.30468E+01 1.32786E-10-1.40904E-08
 -1       269 6.57873E+03 3.31099E+03 1.43599E+04 1.51967E+01 4.86580E-11-1.16096E-08
 -1       270-9.87475E+02-5.44011E+02 6.93173E+03-2.06234E+00 5.16138E-11 6.63090E-09
 -1       271-3.50726E+06-4.38836E+05-2.69921E+05-1.36789E+06-1.25510E-09 7.88714E-09
 -1       272-3.58893E+06-6.50479E+05-1.73485E+05-1.38218E+06-8.14907E-10 8.60382E-10
 -1       273-3.55975E+06-5.04322E+05-6.37681E+04-1.35392E+06-1.18462E-09 9.45874E-09
 -1       274-3.52706E+06-5.70778E+05-3.56425E+04-1.40414E+06-7.12589E-10 3.30328E-09
 -1       275-3.56860E+06-5.09369E+05-1.48366E+04-1.34978E+06 2.60115E-10 2.70120E-09
 -1       276-3.51643E+06-5.65148E+05-7.85886E+03-1.41098E+06-1.15870E-09 3.06659E-09
 -1       277-3.57096E+06-5.08598E+05-3.84726E+03-1.34792E+06 1.81035E-09 7.98116E-09
 -1       278-3.51414E+06-5.65818E+05-2.78625E+03-1.41333E+06 3.75962E-09 7.19729E-09
 -1       279-3.57121E+06-5.08413E+05-2.98329E+03-1.34769E+06-1.55921E-09 2.61002E-09
 -1       280-3.51543E+06-5.65505E+05-5.46476E+03-1.41202E+06 2.64663E-10 5.84168E-09
 -1       281-3.56949E+06-5.09077E+05-1.00177E+04-1.34908E+06 1.18871E-09-2.81034E-09
 -1       282-3.52314E+06-5.68561E+05-2.38910E+04-1.40652E+06-2.37060E-09-2.65209E-09
 -1       283-3.56297E+06-5.06359E+05-4.27233E+04-1.35252E+06 5.41149E-10 1.10558E-08
 -1       284-3.56589E+06-6.20299E+05-1.16078E+05-1.38980E+06-1.62072E-09-2.88674E-09
 -1       285-3.52682E+06-4.63671E+05-1.80774E+05-1.36303E+06 5.45697E-10-2.76486E-10
 -1       301 1.44196E+04-1.74670E+04 1.10189E+05-4.48327E+04-7.16682E-10-5.11727E-09
 -1       302 1.55217E+04 1.04003E+04 7.88165E+04-6.60197E+04 1.61003E-09-6.79097E-09
 -1       303 8.64031E+02-7.43994E+03 7.14032E+04-4.49355E+04-8.05812E-10-5.49335E-09
 -1       304 2.78023E+04 2.18429E+04 1.18867E+05-6.57932E+04 1.04228E-09 7.03949E-10
 -1       305 2.74057E+04-2.86555E+04 1.98836E+05-4.49845E+04-1.38243E-09 3.08046E-09
 -1       306-3.92451E+06-4.58126E+05-2.98093E+05-1.53891E+06 3.10683E-09 2.91038E-09
 -1       307-4.08573E+06-7.01490E+05-2.03103E+05-1.47718E+06 2.09639E-09 4.23461E-09
 -1       308-3.99776E+06-5.45448E+05-7.02084E+04-1.50480E+06-4.54747E-12 4.92946E-09
 -1       309-3.99179E+06-6.09286E+05-4.23205E+04-1.52809E+06-4.51507E-10 4.91809E-09
 -1       310-4.01804E+06-5.48474E+05-1.64843E+04-1.48864E+06-8.66407E-10 1.47975E-09
 -1       311-3.96557E+06-6.08954E+05-9.49409E+03-1.55110E+06 7.24668E-09 5.66024E-09
 -1       312-4.02425E+06-5.45258E+05-4.64218E+03-1.48214E+06-4.11760E-11 7.93693E-09
 -1       313-3.96239E+06-6.08864E+05-4.16936E+03-1.55387E+06-2.94813E-09 6.21185E-09
 -1       314-4.02126E+06-5.48492E+05-5.11797E+03-1.48591E+06-2.76373E-09-2.71257E-10
 -1       315-3.97651E+06-5.97776E+05-1.05365E+04-1.53729E+06-1.84866E-09 6.92580E-09
 -1       316-4.00978E+06-5.56629E+05-1.88005E+04-1.49844E+06 1.90505E-09 6.95763E-10
 -1       317-4.01177E+06-5.93304E+05-4.80562E+04-1.50591E+06 6.77403E-10 5.61704E-09
 -1       318-3.98587E+06-5.53437E+05-7.97769E+04-1.51703E+06-4.16094E-09 5.73709E-09
 -1       319-4.11635E+06-7.01636E+05-2.31109E+05-1.45268E+06-4.06908E-09-1.43882E-08
 -1       320-3.90605E+06-4.50128E+05-3.38736E+05-1.55123E+06 6.91944E-09 4.36557E-10
 -1       336 4.96598E+02-7.70839E+05-4.20990E+03 9.78194E+02-6.97764E-09-1.44973E-09
 -1       337-1.53818E+03-7.71856E+05-4.65564E+03-2.48719E+03-1.29107E-08-2.70120E-09
 -1       338 3.34658E+02-7.70944E+05-5.98785E+03 1.50332E+03-9.43351E-09 2.69938E-09
 -1       339-6.21029E+03-7.74762E+05-1.31267E+04-3.52254E+03-1.67161E-08-6.53517E-09
 -1       340 4.18091E+03-7.68009E+05-2.02844E+04 2.00602E+03-1.10103E-08 4.66571E-09
 -1       406 1.25013E+01 2.44372E+05 4.07422E+02 1.71574E-02 4.99654E-10 6.92216E-09
 -1       407 1.38880E+02 2.44448E+05 8.66054E+02-8.03967E+00 4.46505E-11 3.99928E-09
 -1       408 4.42560E+02 2.44310E+05 1.72961E+03 8.17338E+00 5.69116E-10 8.50423E-09
 -1       409 1.86728E+03 2.45000E+05 3.89400E+03-7.85212E+01 1.08457E-10 1.23725E-08
 -1       410 5.37076E+03 2.43818E+05 7.94940E+03 7.32384E+01 5.56611E-10 3.28555E-09
 -1       521-7.36708E+06-7.74912E+05-5.67104E+05-2.72070E+06 4.51109E-10-6.40284E-10
 -1       522-7.08121E+06-1.58110E+06-3.49634E+05-3.07564E+06-2.68092E-08-5.36966E-09
 -1       523-7.58034E+06-7.77275E+05-1.31554E+05-2.48362E+06-2.58024E-09-1.41954E-08
 -1       524-6.87933E+06-1.54671E+06-7.24016E+04-3.37703E+06 2.38780E-08-2.16251E-08
 -1       525-7.60689E+06-7.76691E+05-2.94031E+04-2.44812E+06 2.05964E-08-1.22513E-08
 -1       526-6.89910E+06-1.42037E+06-4.18738E+03-3.23201E+06 1.38334E-08-7.01039E-09
 -1       527-7.53577E+06-9.20944E+05-2.66953E+04-2.61171E+06 1.24528E-08 6.33554E-09
 -1       528-7.12283E+06-1.09219E+06 2.03267E+04-2.79439E+06-5.61340E-09 3.58159E-09
 -1       529-7.34314E+06-1.13348E+06-3.21976E+04-2.85542E+06-6.46833E-09 8.40555E-09
 -1       530-7.56396E+06-7.08979E+05 2.82702E+03-2.38829E+06-3.59087E-08 1.53013E-08
 -1       531-7.11684E+06-1.28787E+06-3.49600E+04-3.03263E+06-4.88944E-08-2.83944E-09
 -1       532-7.90288E+06-5.19603E+05-7.10812E+04-2.20340E+06 2.77150E-08-3.50992E-08
 -1       533-7.04500E+06-1.29467E+06-1.24877E+05-3.07256E+06 9.13496E-09-4.74429E-08
 -1       534-7.89310E+06-8.11008E+05-3.52134E+05-2.23237E+06-8.27276E-09 3.72493E-08
 -1       535-7.11044E+06-1.01309E+06-5.54479E+05-2.98800E+06-1.10595E-08 2.54950E-08
 -1       536-1.03928E+05-1.75505E+04 4.04104E+04-6.28758E+02-3.74627E-10 1.44610E-08
 -1       537-8.48851E+04 2.03161E+04 2.88538E+04-7.23335E+00-9.62326E-09 1.31768E-08
 -1       538-9.72121E+04-2.76224E+03 1.03718E+04-2.39155E+02 1.66892E-10 5.27325E-09
 -1       539-9.28102E+04 3.18889E+03 6.75909E+03-8.33022E+02 4.61851E-09-2.29795E-09
 -1       540-9.60073E+04-4.37187E+02 2.56587E+03 1.97045E+02 9.65528E-10 5.26143E-09
 -1       541-9.43980E+04 4.94675E+02 1.64478E+03-1.63932E+03 2.77083E-10-9.48830E-10
 -1       542-9.56319E+04-6.48384E+01 5.56774E+02 5.67101E+02-3.77952E-10 3.96540E-10
 -1       543-9.50068E+04 4.47566E+01 2.80784E+02-2.25390E+03-1.24171E-10-4.71451E-09
 -1       544-9.54080E+04 1.94090E+01-1.14513E+02 8.11620E+02-9.71944E-10-1.21693E-09
 -1       545-9.53895E+04-1.90661E+02-5.23914E+02-2.58160E+03-1.04319E-09 1.55495E-09
 -1       546-9.52559E+04 1.75210E+02-1.02969E+03 8.94818E+02 2.54969E-10-1.33321E-09
 -1       547-9.59141E+04-1.27489E+03-2.61335E+03-2.57455E+03-3.26845E-09-2.04165E-09
 -1       548-9.48834E+04 1.10272E+03-4.21958E+03 8.04568E+02-3.44431E-09-4.30191E-10
 -1       549-9.88146E+04-8.12564E+03-1.14507E+04-2.22866E+03-1.73479E-09-3.86717E-09
 -1       550-9.23488E+04 7.01568E+03-1.63448E+04 5.48918E+02-7.66391E-11-7.74980E-09
 -1       551 8.69533E+03-3.98633E+05 2.08174E+04-6.75271E+05-3.07518E-08-5.06407E-09
 -1       552 1.91810E+04-4.01752E+05 2.77896E+04-9.61217E+05-2.22499E-08 7.38873E-09
 -1       553 1.30806E+04-4.06952E+05 4.31625E+04-6.72954E+05-3.75876E-08 7.66158E-09
 -1       554 4.15357E+04-3.90361E+05 9.17269E+04-9.62218E+05-2.40398E-08 3.57210E-09
 -1       555 3.97585E+04-4.24592E+05 1.64568E+05-6.73702E+05-3.72311E-08-5.38785E-09
 -1       556 6.10380E+04-1.29125E+05 4.36974E+04-1.68963E+05-6.86123E-09 2.05910E-09
 -1       557 1.13315E+05-1.72454E+05 2.29722E+04-2.11639E+05-8.73115E-11 8.05994E-09
 -1       558 6.08348E+04-1.34939E+05 9.26144E+03-1.63956E+05-4.56930E-09-3.94903E-09
 -1       559 1.06203E+05-1.78411E+05 4.71079E+03-2.14806E+05 6.14091E-09-7.89441E-09
 -1       560 5.92573E+04-1.33892E+05 1.93177E+03-1.64949E+05 7.71252E-10 3.03953E-09
 -1       561 1.03761E+05-1.77780E+05 1.03392E+03-2.16352E+05-5.78439E-09-5.96810E-09
 -1       562 5.79876E+04-1.33042E+05 3.85898E+02-1.65863E+05-7.71252E-10 3.00361E-10
 -1       563 1.02270E+05-1.77139E+05 2.49296E+02-2.17306E+05 3.52156E-09 3.60524E-09
 -1       564 5.71950E+04-1.32531E+05 8.73659E+01-1.66427E+05 1.08521E-08 1.26602E-09
 -1       565 1.01491E+05-1.76806E+05 5.91050E+01-2.17795E+05 1.37907E-08 2.76123E-09
 -1       566 5.69075E+04-1.32340E+05-1.53039E+01-1.66634E+05 2.55750E-09-1.44610E-09
 -1       567 1.01385E+05-1.76753E+05-9.90202E+01-2.17800E+05 4.51610E-09-2.40470E-09
 -1       568 5.71573E+04-1.32505E+05-3.00121E+02-1.66519E+05-1.02955E-09 1.06593E-08
 -1       569 1.01323E+05-1.76643E+05-7.02190E+02-2.16769E+05-4.96038E-09 9.72796E-09
 -1       570 5.84583E+04-1.33677E+05-1.51283E+03-1.66483E+05 4.36557E-11-1.12777E-10
 -1       571 1.77385E+05 6.45429E+03 9.56266E+03-4.49266E+04 4.94310E-10 2.21144E-09
 -1       572 1.78807E+05 2.24601E+03 4.68510E+03-4.92475E+04 1.93722E-10-1.81581E-09
 -1       573 1.77955E+05 5.36706E+02 2.08129E+03-4.48094E+04 9.54060E-10-1.63709E-11
 -1       574 1.78123E+05 1.76472E+02 1.04277E+03-4.93784E+04 3.71983E-10 3.59023E-09
 -1       575 1.78018E+05 2.63890E+01 4.91417E+02-4.47940E+04 7.11452E-10 2.77123E-09
 -1       576 1.78029E+05 9.63457E+00 2.50091E+02-4.93959E+04-1.63473E-09-3.33466E-09
 -1       577 1.78028E+05-8.68358E-01 1.23074E+02-4.47919E+04 1.73031E-10-7.04767E-09
 -1       578 1.78020E+05 1.17702E+00 6.68909E+01-4.93980E+04 5.22505E-10-1.83172E-09
 -1       579 1.78038E+05-2.82118E+00 4.04776E+01-4.47919E+04-1.31422E-10-2.20734E-09
 -1       580 1.78035E+05-4.51404E+00 3.71221E+01-4.93953E+04-1.06911E-09-2.16323E-09
 -1       581 1.78057E+05-9.89361E+00 4.94918E+01-4.47946E+04-8.11269E-10-1.96178E-09
 -1       582 1.78069E+05-3.52912E+00 9.38155E+01-4.93687E+04-8.35826E-10 2.58387E-09
 -1       583 1.78080E+05 1.80001E+01 1.79346E+02-4.48185E+04-9.97716E-10 2.10389E-09
 -1       584 1.78164E+05 1.56721E+02 4.02160E+02-4.91684E+04-1.57161E-09-5.80667E-09
 -1       585 1.78065E+05 5.10170E+02 8.16158E+02-4.49951E+04 5.12955E-10 4.49290E-10
 -1       586-2.13292E+03 5.81934E+04-2.82751E+03-1.53383E+05 3.59250E-10 8.03470E-09
 -1       587-4.45682E+02 5.78131E+04-3.00124E+02-1.68787E+05 7.08496E-10 1.86122E-08
 -1       588 6.15856E+02 5.78862E+04 2.04811E+03-1.53291E+05 3.91992E-10 1.01154E-08
 -1       589 3.03598E+03 5.90103E+04 5.94383E+03-1.68645E+05 5.80258E-10 2.36059E-09
 -1       590 8.70549E+03 5.71775E+04 1.27185E+04-1.53527E+05 2.62844E-10-2.88310E-10
 -1       591-3.88028E+04-1.10764E+04-1.28659E+04-2.00833E+04 1.36919E-09 1.33787E-09
 -1       592-4.00163E+04-1.42274E+04-6.96868E+03-2.34289E+04-1.42353E-09 1.93995E-09
 -1       593-4.01038E+04-1.01284E+04-2.90114E+03-2.10125E+04-4.40082E-10-1.33798E-09
 -1       594-3.82236E+04-1.23573E+04-1.44693E+03-2.35181E+04 5.87931E-10 3.06390E-09
 -1       595-4.02035E+04-1.01240E+04-6.64968E+02-2.10552E+04 1.26113E-09-3.19318E-10
 -1       596-3.81023E+04-1.22716E+04-3.38986E+02-2.35055E+04-1.17666E-11 1.96337E-10
 -1       597-4.02162E+04-1.01322E+04-1.86653E+02-2.10569E+04-4.16078E-09-8.42402E-09
 -1       598-3.80908E+04-1.22683E+04-1.53831E+02-2.35020E+04-2.01149E-09-5.87033E-09
 -1       599-4.02152E+04-1.01323E+04-2.01227E+02-2.10566E+04 1.19780E-09 2.86980E-09
 -1       600-3.81037E+04-1.22727E+04-3.77607E+02-2.35051E+04 3.30431E-10 2.37696E-09
 -1       601-4.01992E+04-1.01234E+04-7.46916E+02-2.10540E+04 3.11616E-10-1.98088E-09
 -1       602-3.82401E+04-1.23690E+04-1.62888E+03-2.35176E+04-1.02500E-09-1.25156E-08
 -1       603-4.00857E+04-1.01299E+04-3.26715E+03-2.10061E+04 8.68113E-10 7.83757E-10
 -1       604-4.02653E+04-1.44680E+04-7.84818E+03-2.34076E+04 5.14319E-10-6.26642E-10
 -1       605-3.86121E+04-1.12037E+04-1.44894E+04-1.99666E+04-2.21007E-10 6.36192E-10
 -1       606 2.52017E+04-8.56856E+03-1.54280E+04 2.47543E+04-1.96542E-09-3.38696E-09
 -1       607 2.25593E+04-2.76454E+03-7.68224E+03 2.77882E+04 1.03319E-09-1.41745E-08
 -1       608 2.40579E+04-4.66574E+02-3.44033E+03 2.45570E+04 3.98722E-09 3.72779E-09
 -1       609 2.37591E+04-1.21038E+02-1.73760E+03 2.80061E+04-8.15817E-10 1.11334E-09
 -1       610 2.39187E+04 2.25357E+01-8.30087E+02 2.45350E+04 4.55657E-09 4.52292E-09
 -1       611 2.38617E+04 3.44544E+01-4.18686E+02 2.80299E+04 6.11681E-09-2.44313E-09
 -1       612 2.38810E+04 3.66739E+01-2.00457E+02 2.45328E+04 1.47065E-09 3.98654E-09
 -1       613 2.38589E+04 4.24023E+01-9.14801E+01 2.80327E+04-4.49108E-09-3.97972E-09
 -1       614 2.38602E+04 3.77021E+01-2.58382E+01 2.45320E+04 1.72713E-09 1.72554E-09
 -1       615 2.38478E+04 4.75885E+01 2.78637E+01 2.80332E+04 7.79664E-09 4.00678E-09
 -1       616 2.38444E+04 4.30723E+01 9.31889E+01 2.45323E+04-2.62662E-09 2.53044E-09
 -1       617 2.38529E+04 7.12948E+01 2.16468E+02 2.80327E+04 1.28239E-10-3.01657E-09
 -1       618 2.38210E+04 1.08427E+02 4.37687E+02 2.45324E+04 7.03949E-10-1.83650E-09
 -1       619 2.40038E+04 4.12202E+02 9.83821E+02 2.80320E+04 1.53432E-09 1.37629E-09
 -1       620 2.36732E+04 1.14885E+03 1.97768E+03 2.45314E+04 1.55512E-09 2.21416E-09
 -1       621 3.04254E+02 1.93130E+05 2.64586E+03 6.50665E+03-2.90655E-10 1.84650E-09
 -1       622 3.48397E+02 1.93786E+05 2.25307E+03 9.50181E+03-3.24576E-10 1.71883E-09
 -1       623 1.42460E+01 1.93318E+05 2.60067E+03 6.47614E+03-2.77510E-10-2.15312E-09
 -1       624 1.17857E+03 1.94547E+05 4.94688E+03 9.53165E+03-3.18778E-10-1.76183E-08
 -1       625 1.18376E+03 1.92364E+05 8.60387E+03 6.47712E+03-1.31877E-10-7.72519E-09
 -1       626 1.61383E+05 4.43832E+04 3.36180E+03 8.67364E+04-2.20007E-09-7.41420E-09
 -1       627 1.59181E+05 4.60049E+04 1.62264E+03 9.03059E+04 3.30738E-09 6.02859E-09
 -1       628 1.61509E+05 4.28231E+04 6.85634E+02 8.72431E+04 5.05042E-09 7.56017E-10
 -1       629 1.58702E+05 4.56225E+04 3.36147E+02 9.05144E+04 3.20324E-09-3.70761E-09
 -1       630 1.61517E+05 4.27519E+04 1.55415E+02 8.72563E+04 5.03860E-10-1.66500E-09
 -1       631 1.58644E+05 4.56142E+04 8.33707E+01 9.05152E+04-2.41471E-09-1.56881E-09
 -1       632 1.61509E+05 4.27583E+04 5.45279E+01 8.72489E+04-5.09226E-09-4.34000E-09
 -1       633 1.58632E+05 4.56191E+04 6.02219E+01 9.05085E+04-1.46065E-09-6.12255E-09
 -1       634 1.61499E+05 4.27593E+04 9.68329E+01 8.72446E+04-7.50333E-09-1.34170E-08
 -1       635 1.58636E+05 4.56205E+04 1.95898E+02 9.05079E+04 5.33873E-10-6.94854E-10
 -1       636 1.61489E+05 4.27579E+04 3.95421E+02 8.72419E+04-2.78465E-09-5.32418E-09
 -1       637 1.58715E+05 4.56807E+04 8.68321E+02 9.05049E+04 2.22688E-09 2.76805E-09
 -1       638 1.61454E+05 4.29420E+04 1.78350E+03 8.71562E+04-2.96484E-09-3.01816E-09
 -1       639 1.59650E+05 4.69634E+04 4.21734E+03 9.02382E+04 7.04858E-11 6.43468E-11
 -1       640 1.61314E+05 4.67556E+04 8.73731E+03 8.55310E+04 2.44859E-09 4.97971E-09
 -1       656 4.29907E+04-1.08797E+06-1.03784E+05-3.71292E+02-2.07365E-10-2.90751E-09
 -1       657-5.68118E+04-1.13482E+06-8.58368E+04 7.06489E+03 7.10315E-10-2.19524E-09
 -1       658 1.36356E+04-1.10133E+06-5.26847E+04-1.37700E+03 6.44377E-10 8.89505E-09
 -1       659-6.09405E+04-1.13677E+06-9.12595E+04 7.73879E+03-9.06766E-10 5.63708E-10
 -1       660 4.71092E+04-1.08602E+06-1.13112E+05-1.04518E+03-7.63976E-10 2.65575E-09
 -1       661 1.54147E+05 1.67860E+04 1.47861E+04 6.02439E+04 1.95087E-09 7.72980E-09
 -1       662 1.61871E+05 2.83609E+04 9.96340E+03 5.76479E+04 1.88851E-09-9.64747E-10
 -1       663 1.57045E+05 2.15348E+04 3.48526E+03 5.94078E+04 1.18689E-09-1.64482E-09
 -1       664 1.58517E+05 2.28018E+04 2.08376E+03 5.86641E+04-1.66847E-09-1.05854E-09
 -1       665 1.57478E+05 2.21890E+04 8.21975E+02 5.92867E+04-4.10125E-09-5.34547E-09
 -1       666 1.58009E+05 2.20491E+04 4.79357E+02 5.88190E+04-1.05332E-08 2.93923E-09
 -1       667 1.57550E+05 2.22678E+04 2.52752E+02 5.92604E+04 8.78487E-10-5.36393E-09
 -1       668 1.57932E+05 2.19864E+04 2.53240E+02 5.88565E+04 1.21449E-09 5.22959E-11
 -1       669 1.57554E+05 2.22499E+04 3.39349E+02 5.92498E+04 1.92357E-09 1.22843E-09
 -1       670 1.58019E+05 2.21649E+04 7.35637E+02 5.88548E+04 6.30877E-09 5.64096E-09
 -1       671 1.57464E+05 2.20928E+04 1.30510E+03 5.92606E+04-1.08446E-09-2.09843E-09
 -1       672 1.58781E+05 2.34328E+04 3.33819E+03 5.86693E+04-2.08491E-09-8.44085E-09
 -1       673 1.56797E+05 2.10139E+04 5.59396E+03 5.94231E+04-2.67585E-09-3.74644E-09
 -1       674 1.64108E+05 3.24170E+04 1.59976E+04 5.71017E+04-2.06501E-09 1.39607E-09
 -1       675 1.52171E+05 1.33598E+04 2.37454E+04 6.07335E+04-1.38698E-10-1.04137E-09
 -1       676 1.75431E+01-2.09243E+05-8.14425E+02 3.65657E+01-1.09259E-09 1.40221E-09
 -1       677-2.16154E+02-2.09440E+05-1.49048E+03-7.30992E+01-6.39898E-09-4.28580E-09
 -1       678 1.44374E+02-2.09103E+05-2.63477E+03 3.65082E+01 6.72344E-10 4.41355E-09
 -1       679-2.63526E+03-2.11030E+05-6.25885E+03-7.28731E+01-2.39288E-09 2.39770E-09
 -1       680 1.57275E+03-2.07653E+05-1.00872E+04 3.59212E+01-7.17591E-10 6.44989E-09
 -1       771-2.24591E+06-3.98064E+05-5.57069E+04-9.36906E+05-6.00994E-09-9.29867E-09
 -1       772-2.23052E+06-4.28582E+05-2.98034E+04-9.71003E+05-2.86309E-09-3.97358E-09
 -1       773-2.25381E+06-3.91905E+05-1.30287E+04-9.40006E+05-4.51109E-10 2.88492E-09
 -1       774-2.22265E+06-4.22192E+05-6.29715E+03-9.74922E+05 9.25502E-09-1.53523E-09
 -1       775-2.25588E+06-3.90528E+05-3.30764E+03-9.40267E+05 1.15688E-09 7.82165E-10
 -1       776-2.22265E+06-4.22277E+05-1.49094E+03-9.77171E+05-2.04818E-09 1.67347E-09
 -1       777-2.25738E+06-3.89433E+05-1.00669E+03-9.40425E+05 2.69210E-09 1.65710E-09
 -1       778-2.22311E+06-4.22537E+05-4.19863E+02-9.79053E+05 2.19006E-09 3.86808E-09
 -1       779-2.25858E+06-3.88502E+05-4.52451E+02-9.40569E+05-2.56841E-09-2.77760E-09
 -1       780-2.22359E+06-4.22747E+05-3.01552E+02-9.80576E+05 1.65892E-09 4.75120E-09
 -1       781-2.25950E+06-3.87759E+05-5.48104E+02-9.40678E+05-7.02494E-09-1.31649E-09
 -1       782-2.22403E+06-4.22941E+05-9.26576E+02-9.81696E+05-1.15797E-08-6.41603E-09
 -1       783-2.26007E+06-3.87267E+05-1.86064E+03-9.40737E+05-2.40107E-09-4.15287E-09
 -1       784-2.22537E+06-4.24206E+05-4.37623E+03-9.82329E+05-5.38057E-09 1.87356E-10
 -1       785-2.25958E+06-3.87599E+05-8.09901E+03-9.40188E+05-1.08921E-08 1.47702E-09
 -1       786 1.63775E+05-8.77584E+03 2.03030E+04-9.14223E+00 9.42701E-07 1.06156E-08
 -1       787 1.72572E+05 1.01597E+04 1.43640E+04 1.66245E+00 1.87721E-06 1.16349E-08
 -1       788 1.67169E+05-1.37571E+03 5.25495E+03-4.62737E+00 1.98691E-06-5.62409E-09
 -1       789 1.68619E+05 1.59178E+03 3.30173E+03-7.02720E+00 2.09300E-06 8.25941E-09
 -1       790 1.67729E+05-2.14908E+02 1.34347E+03-4.52779E-01 2.32882E-06-1.08996E-08
 -1       791 1.67965E+05 2.49691E+02 7.88779E+02-1.63414E+01 2.56635E-06 6.69661E-09
 -1       792 1.67823E+05-3.46314E+01 3.59974E+02 4.68696E+00 3.14865E-06-9.97497E-09
 -1       793 1.67859E+05 4.86231E+01 2.35838E+02-2.90292E+01 3.72439E-06 1.13214E-08
 -1       794 1.67835E+05-1.39737E+01 1.74623E+02 1.22352E+01 1.86374E-06-1.20690E-08
 -1       795 1.67870E+05 7.20668E+01 2.52484E+02-4.86184E+01 6.18380E-09-9.65169E-10
 -1       796 1.67813E+05-5.80580E+01 3.78130E+02 2.42765E+01 3.68562E-10-5.95216E-09
 -1       797 1.68041E+05 4.25613E+02 8.91536E+02-8.05245E+01-5.57456E-11-7.46221E-09
 -1       798 1.67663E+05-3.67260E+02 1.40720E+03 4.41419E+01-1.86072E-10-2.90669E-09
 -1       799 1.69097E+05 2.71174E+03 3.83633E+03-1.33865E+02-6.83377E-10 9.54992E-09
 -1       800 1.66757E+05-2.34234E+03 5.41898E+03 7.76175E+01-1.47206E-10 6.04791E-09
 -1       801-4.97492E+03-1.73621E+05-5.24182E+03 1.88661E+04 1.01600E-08-1.33377E-09
 -1       802 1.77548E+04-7.34012E+04 3.86784E+04-7.27939E+04 2.71862E-08 2.04670E-09
 -1       803-1.19169E+04-1.31039E+05 5.40611E+04 2.11259E+04 2.14059E-08 2.14301E-08
 -1       804 1.12410E+05-1.89373E+04 1.63127E+05-7.31065E+04 2.52294E-08 1.96572E-08
 -1       805-9.97512E+04-2.27722E+05 2.02687E+05 1.91748E+04 8.84756E-09 2.12999E-08
 -1       806-1.93235E+05-4.13070E+04-1.63616E+04-8.03864E+04 1.07798E-09-1.87310E-09
 -1       807-1.94202E+05-3.89605E+04-8.03809E+03-8.47204E+04 2.30847E-09-2.47422E-09
 -1       808-1.93698E+05-3.53970E+04-3.40975E+03-8.31625E+04 5.13865E-11 4.61391E-10
 -1       809-1.92487E+05-3.67277E+04-1.66694E+03-8.49508E+04 1.72804E-11 1.45443E-08
 -1       810-1.93770E+05-3.51886E+04-7.63293E+02-8.32849E+04 5.47288E-10 3.82875E-09
 -1       811-1.92355E+05-3.66394E+04-3.78571E+02-8.49308E+04-3.55658E-09-6.84565E-09
 -1       812-1.93783E+05-3.52043E+04-1.89000E+02-8.32845E+04 2.15550E-10 9.04947E-11
 -1       813-1.92338E+05-3.66417E+04-1.19314E+02-8.49202E+04 5.02860E-09 4.53292E-09
 -1       814-1.93780E+05-3.52103E+04-1.12071E+02-8.32818E+04-9.09495E-11-7.75640E-09
 -1       815-1.92340E+05-3.66437E+04-1.75512E+02-8.49169E+04 1.72804E-10 5.03405E-10
 -1       816-1.93768E+05-3.52092E+04-3.28966E+02-8.32793E+04 4.22915E-09 4.62705E-09
 -1       817-1.92396E+05-3.66753E+04-7.05213E+02-8.49104E+04 4.56930E-09-1.18303E-08
 -1       818-1.93726E+05-3.53085E+04-1.43729E+03-8.32323E+04 3.95221E-09-1.77711E-08
 -1       819-1.93189E+05-3.75377E+04-3.38258E+03-8.47174E+04 8.95852E-10-4.26644E-09
 -1       820-1.93452E+05-3.78664E+04-6.88424E+03-8.21420E+04 1.88174E-09 6.93308E-09
 -1       821-2.50380E+05 1.38881E+04-3.21188E+04 8.74382E+01-3.04961E-10 4.87307E-09
 -1       822-2.64300E+05-1.60779E+04-2.27287E+04-6.12374E+02-2.35785E-09 1.08867E-09
 -1       823-2.55752E+05 2.17731E+03-8.31887E+03 5.55144E+01 6.63483E-10-2.76123E-09
 -1       824-2.58036E+05-2.52015E+03-5.23418E+03-4.66544E+02-9.13962E-11-1.95854E-09
 -1       825-2.56643E+05 3.40737E+02-2.15147E+03-5.83957E+01-3.50122E-09 3.31761E-09
 -1       826-2.56999E+05-4.01869E+02-1.29856E+03-2.01484E+02-5.77563E-09 2.15529E-09
 -1       827-2.56788E+05 6.04341E+01-6.72416E+02-2.09550E+02-3.84326E-09-4.97806E-11
 -1       828-2.56859E+05-1.22590E+02-5.94139E+02 8.07863E+01-4.83169E-09-3.35188E-09
 -1       829-2.56783E+05 6.17165E+01-6.82198E+02-3.40671E+02 4.29683E-11-1.18078E-09
 -1       830-2.57017E+05-4.11953E+02-1.33193E+03 2.73315E+02 2.48489E-09-4.39073E-09
 -1       831-2.56630E+05 3.49773E+02-2.20568E+03-4.02083E+02-2.38634E-09-1.98543E-09
 -1       832-2.58077E+05-2.58674E+03-5.37478E+03 3.03740E+02-2.33708E-09-1.13956E-08
 -1       833-2.55723E+05 2.23497E+03-8.54090E+03-3.71096E+02-1.77333E-09-2.61116E-09
 -1       834-2.64494E+05-1.65063E+04-2.33348E+04 1.62765E+02-9.39449E-10 7.74526E-09
 -1       835-2.50215E+05 1.42585E+04-3.29792E+04-2.61098E+02 5.44705E-09 6.69388E-09
 -1       836-8.33300E+02 2.36885E+05 1.42659E+04-2.06052E+04 1.70758E-09 2.30102E-09
 -1       837 3.14373E+03 2.41301E+05 1.21724E+04-4.13801E+04 2.51043E-09 2.79874E-09
 -1       838-3.04042E+02 2.38115E+05 1.25416E+04-2.05355E+04 2.09275E-09 4.60602E-09
 -1       839 8.04992E+03 2.44959E+05 2.38622E+04-4.14052E+04 2.72030E-09 3.55675E-09
 -1       840-2.41688E+03 2.33195E+05 3.81075E+04-2.05786E+04 1.88084E-09 1.02134E-08
 -1       856-7.73625E+04 6.67105E+03-1.75798E+04-3.93549E+02-3.00963E-09 6.36192E-09
 -1       857-8.46247E+04-7.82404E+03-1.21034E+04 4.00307E+03-2.10072E-09 5.33510E-09
 -1       858-8.02316E+04 9.34721E+02-4.56249E+03-4.11229E+02-2.13100E-09 1.63118E-09
 -1       859-8.13296E+04-1.08664E+03-2.75563E+03 4.03128E+03 1.07747E-10 3.47376E-09
 -1       860-8.06606E+04 1.29981E+02-1.15870E+03-4.21896E+02 1.52414E-09 2.74349E-09
 -1       861-8.08355E+04-1.43440E+02-6.45490E+02 4.04587E+03-3.53239E-09 8.37417E-10
 -1       862-8.07273E+04 1.72166E+01-2.84493E+02-4.25843E+02 4.90900E-09-7.94770E-10
 -1       863-8.07565E+04-1.04023E+01-1.40343E+02 4.04764E+03 1.19579E-08 4.34919E-09
 -1       864-8.07397E+04-1.36741E-01-4.33713E+01-4.23667E+02 5.04723E-09-1.42707E-09
 -1       865-8.07333E+04 2.04466E+01 2.82680E+01 4.03667E+03 2.53739E-09-1.00374E-09
 -1       866-8.07493E+04-1.40184E+01 9.94310E+01-4.14876E+02-2.93730E-09-2.95459E-09
 -1       867-8.06754E+04 1.17599E+02 2.71949E+02 4.01282E+03 1.16377E-09 3.47566E-09
 -1       868-8.07950E+04-9.66961E+01 4.58498E+02-3.99815E+02 7.50845E-10-1.50561E-09
 -1       869-8.03313E+04 8.01858E+02 1.23078E+03 3.97329E+03-2.46908E-09-1.05892E-08
 -1       870-8.10893E+04-6.81386E+02 1.78488E+03-3.75352E+02 2.08371E-09-7.62498E-09
 -1       871-3.68051E+03-7.86654E+03-1.19325E+04 7.79726E+04 1.66892E-09-3.78168E-09
 -1       872-1.60610E+03-1.05347E+04-4.86955E+03 1.01087E+05 3.72438E-09 5.62977E-09
 -1       873-4.45763E+01-9.28702E+03 6.81864E+02 7.78013E+04 2.02272E-09-2.34843E-09
 -1       874 1.81558E+03-7.55673E+03 6.73853E+03 1.01122E+05 3.98268E-09 6.12113E-09
 -1       875 4.32037E+03-1.08886E+04 1.49531E+04 7.79449E+04 4.60204E-10-4.58022E-09
 -1       876 1.94406E+05 3.35340E+04 1.03757E+04 7.89252E+04-6.09231E-09-2.82580E-09
 -1       877 1.94982E+05 3.58294E+04 5.54087E+03 8.20136E+04-4.30884E-09-1.38760E-08
 -1       878 1.95377E+05 3.23853E+04 2.32138E+03 7.97770E+04 8.34416E-09 1.21290E-08
 -1       879 1.93570E+05 3.44242E+04 1.15639E+03 8.20877E+04 4.59863E-10 4.26235E-09
 -1       880 1.95447E+05 3.23724E+04 5.38402E+02 7.98116E+04-2.36287E-09-7.48827E-09
 -1       881 1.93476E+05 3.43645E+04 2.86816E+02 8.20732E+04 5.65126E-09 2.06751E-09
 -1       882 1.95454E+05 3.23808E+04 1.82314E+02 7.98126E+04 7.00072E-09 1.71994E-09
 -1       883 1.93470E+05 3.43617E+04 1.94081E+02 8.20690E+04 2.53726E-09 5.02939E-09
 -1       884 1.95450E+05 3.23786E+04 3.07014E+02 7.98127E+04 1.95178E-09-1.31740E-09
 -1       885 1.93494E+05 3.43661E+04 6.16196E+02 8.20768E+04 1.38326E-08 2.48028E-09
 -1       886 1.95427E+05 3.23606E+04 1.24142E+03 7.98103E+04 3.44338E-09 1.57684E-09
 -1       887 1.93712E+05 3.45091E+04 2.71157E+03 8.21082E+04-6.77221E-09 9.21773E-09
 -1       888 1.95255E+05 3.23908E+04 5.46388E+03 7.97235E+04 4.05549E-10 2.99315E-09
 -1       889 1.96969E+05 3.78891E+04 1.30529E+04 8.20045E+04 2.80328E-09-8.59450E-09
 -1       890 1.93029E+05 3.50353E+04 2.44469E+04 7.76393E+04 2.03067E-09-1.10231E-09
 -1       891-1.23064E+02-1.10516E+05-1.30291E+03 2.10234E+04 1.47543E-09 7.07257E-09
 -1       892-2.13785E+02-1.10827E+05-1.41830E+03 3.18119E+04-2.28079E-09-2.79510E-09
 -1       893-3.63997E+01-1.10557E+05-2.02763E+03 2.10274E+04 1.41245E-09-4.24734E-10
 -1       894-1.11174E+03-1.11606E+05-4.21078E+03 3.16989E+04-7.59428E-10 4.84988E-10
 -1       895-8.68249E+02-1.09682E+05-7.42040E+03 2.11348E+04-2.53522E-10-4.03634E-09
 -1       956-2.44476E+05-3.52660E+03-8.88277E+03 1.63131E+04-4.50518E-09-7.75242E-09
 -1       957-2.46231E+05-1.18804E+03-4.56010E+03 1.96440E+04-2.02772E-09-3.38787E-11
 -1       958-2.45264E+05-9.29570E+01-2.05442E+03 1.62067E+04 3.95949E-09 2.49975E-09
 -1       959-2.45404E+05-1.41632E+01-1.04935E+03 1.97590E+04-6.37556E-10 3.29510E-09
 -1       960-2.45334E+05 3.13209E+01-5.11462E+02 1.61966E+04-3.45108E-09-2.86559E-09
 -1       961-2.45343E+05 2.99104E+01-2.71156E+02 1.97704E+04-5.46652E-09 9.55765E-10
 -1       962-2.45348E+05 2.76356E+01-1.54781E+02 1.61951E+04-1.40517E-09 5.44026E-09
 -1       963-2.45341E+05 3.09665E+01-1.23475E+02 1.97724E+04-6.38556E-09-1.08389E-09
 -1       964-2.45351E+05 2.93551E+01-1.48917E+02 1.61945E+04 2.08377E-09-2.04614E-09
 -1       965-2.45350E+05 3.37000E+01-2.56505E+02 1.97725E+04 8.83084E-09 4.70664E-09
 -1       966-2.45343E+05 3.63847E+01-4.81006E+02 1.61950E+04 1.53727E-09 1.62015E-09
 -1       967-2.45414E+05-4.00683E+00-9.86300E+02 1.97664E+04 3.76531E-10-3.60490E-09
 -1       968-2.45283E+05-7.69105E+01-1.92999E+03 1.62008E+04-1.86606E-09-3.04462E-09
 -1       969-2.46197E+05-1.10391E+03-4.28512E+03 1.96986E+04-6.11601E-09 1.84443E-09
 -1       970-2.44547E+05-3.30133E+03-8.34640E+03 1.62652E+04-2.93994E-09 7.50333E-10
 -1       971-2.32062E+05-1.22262E+03-6.80952E+03 1.13048E+04 1.18098E-09-2.83046E-09
 -1       972-2.33719E+05-8.75516E+02-3.70856E+03 1.57934E+04 7.22321E-09-3.47654E-09
 -1       973-2.32818E+05-6.20897E+00-1.66047E+03 1.12107E+04 3.91083E-10-5.96856E-09
 -1       974-2.32934E+05-5.91047E+00-8.60244E+02 1.58946E+04-9.62473E-10-6.42945E-09
 -1       975-2.32876E+05 2.51048E+01-4.28909E+02 1.12025E+04 2.29329E-09 8.85962E-10
 -1       976-2.32887E+05 2.92456E+01-2.45643E+02 1.59046E+04-4.18459E-09-1.41517E-09
 -1       977-2.32887E+05 2.45437E+01-1.74949E+02 1.12007E+04 3.14117E-09 3.26622E-09
 -1       978-2.32889E+05 3.29111E+01-2.00243E+02 1.59071E+04 1.29360E-08-5.06679E-09
 -1       979-2.32887E+05 2.97632E+01-3.17821E+02 1.12000E+04 4.00911E-09 4.02565E-09
 -1       980-2.32912E+05 3.47830E+01-6.11224E+02 1.59074E+04 2.95405E-09 5.79303E-09
 -1       981-2.32867E+05 4.49940E+01-1.18248E+03 1.12003E+04 4.31783E-10 2.51288E-09
 -1       982-2.33074E+05-5.23657E+01-2.44341E+03 1.59028E+04-3.55976E-09-4.12824E-09
 -1       983-2.32719E+05-3.03741E+01-4.74710E+03 1.12048E+04 2.43335E-09-2.15982E-09
 -1       984-2.35358E+05-2.53099E+03-1.06303E+04 1.58390E+04 4.56225E-10 5.10863E-09
 -1       985-2.30570E+05-3.50369E+03-1.95207E+04 1.12687E+04 3.72756E-09 1.52704E-09
 -3
    1PSTEP                         9           5           1          
  100CL  105 5.03906E-01         409                     0    5           1
 -4  DISP        4    1
 -5  D1          1    2    1    0
 -5  D2          1    2    2    0
 -5  D3          1    2    3    0
 -5  ALL         1    2    0    0    1ALL
 -1         1 1.52997E-04 0.00000E+00 0.00000E+00
 -1         2 1.37936E-04-1.06583E-30 4.13590E-25
 -1         3 1.35474E-04-5.15470E-28-6.61744E-24
 -1         5 9.22342E-05 9.96841E-27 3.30872E-24
 -1         8 1.28011E-04-8.82723E-07 0.00000E+00
 -1         9 1.25460E-04-6.63288E-08 0.00000E+00
 -1        10 1.25011E-04-1.83246E-06 6.61744E-24
 -1        12 9.18406E-05 5.52979E-07-1.65436E-24
 -1        15 9.82277E-05-9.77853E-07 0.00000E+00
 -1        16 1.02024E-04-2.43745E-07 0.00000E+00
 -1        17 9.17500E-05-3.88856E-06 0.00000E+00
 -1        18 8.95815E-05 2.53155E-06 0.00000E+00
 -1        19 9.06600E-05 1.10300E-06 0.00000E+00
 -1        20 9.07995E-05 1.41790E-05 0.00000E+00
 -1        21 9.02505E-05 2.63073E-05 0.00000E+00
 -1        24 2.04413E-05-5.36860E-06 0.00000E+00
 -1        25 8.86702E-05 2.66111E-06 0.00000E+00
 -1        26 8.96189E-05 1.53491E-06 0.00000E+00
 -1        27 8.80832E-05 1.17222E-05 0.00000E+00
 -1        28 8.76161E-05 2.58380E-05 0.00000E+00
 -1        32 0.00000E+00 0.00000E+00 0.00000E+00
 -1        33 8.73205E-05 2.05716E-06 0.00000E+00
 -1        34 8.58376E-05 1.16989E-05 0.00000E+00
 -1        35 8.44342E-05 2.55895E-05 0.00000E+00
 -1        51 1.51374E-04-1.45897E-07 0.00000E+00
 -1        52 1.48364E-04-2.86903E-07 0.00000E+00
 -1        53 1.44240E-04-4.29289E-07 0.00000E+00
 -1        54 1.39283E-04-5.74627E-07-3.30872E-24
 -1        55 1.33779E-04-7.23719E-07-5.06648E-24
 -1        56 1.51634E-04-8.02422E-07-2.64698E-23
 -1        57 1.50393E-04-2.08815E-06 1.32349E-23
 -1        58 1.49283E-04-3.71240E-06 0.00000E+00
 -1        59 1.48239E-04-5.54272E-06 2.64698E-23
 -1        60 1.47214E-04-7.42447E-06 5.29396E-23
 -1        61 1.46150E-04-9.20494E-06-2.64698E-23
 -1        62 1.44993E-04-1.07379E-05 5.29396E-23
 -1        63 1.43692E-04-1.18865E-05 0.00000E+00
 -1        64 1.42205E-04-1.25414E-05 0.00000E+00
 -1        65 1.40500E-04-1.26106E-05 0.00000E+00
 -1        66 1.38555E-04-1.20443E-05 0.00000E+00
 -1        67 1.36362E-04-1.08147E-05-2.64698E-23
 -1        68 1.33927E-04-8.94251E-06 0.00000E+00
 -1        69 1.31274E-04-6.46786E-06-2.64698E-23
 -1        70 1.28423E-04-3.48034E-06 0.00000E+00
 -1        86 1.37589E-04-3.57211E-09 8.27181E-25
 -1        87 1.36547E-04-8.14333E-09 4.13590E-25
 -1        88 1.34811E-04-1.37177E-08 0.00000E+00
 -1        89 1.32383E-04-2.40433E-08 0.00000E+00
 -1        90 1.29266E-04-3.50677E-08 0.00000E+00
 -1       121 1.35182E-04-3.03398E-07 0.00000E+00
 -1       122 1.34305E-04-6.07131E-07 0.00000E+00
 -1       123 1.32846E-04-9.11529E-07 0.00000E+00
 -1       124 1.30808E-04-1.21697E-06 0.00000E+00
 -1       125 1.28194E-04-1.52367E-06 6.61744E-24
 -1       191 9.22232E-05 9.21692E-08 3.30872E-24
 -1       192 9.21904E-05 1.84337E-07 0.00000E+00
 -1       193 9.21358E-05 2.76504E-07 3.30872E-24
 -1       194 9.20593E-05 3.68668E-07-1.65436E-24
 -1       195 9.19609E-05 4.60827E-07 0.00000E+00
 -1       251 1.27839E-04 3.39892E-06 0.00000E+00
 -1       252 1.27678E-04 6.31813E-06-3.30872E-24
 -1       253 1.27520E-04 7.94418E-06-6.61744E-24
 -1       254 1.27364E-04 8.35441E-06-3.30872E-24
 -1       255 1.27209E-04 7.72212E-06 0.00000E+00
 -1       256 1.27053E-04 6.22719E-06-3.30872E-24
 -1       257 1.26896E-04 4.11748E-06 0.00000E+00
 -1       258 1.26738E-04 1.64475E-06-3.30872E-24
 -1       259 1.26580E-04-9.10701E-07-6.61744E-24
 -1       260 1.26422E-04-3.26799E-06 0.00000E+00
 -1       261 1.26265E-04-5.16183E-06 0.00000E+00
 -1       262 1.26109E-04-6.32995E-06-3.30872E-24
 -1       263 1.25953E-04-6.56723E-06-6.61744E-24
 -1       264 1.25795E-04-5.67442E-06 0.00000E+00
 -1       265 1.25635E-04-3.54152E-06 0.00000E+00
 -1       266 1.23047E-04-9.10648E-07 0.00000E+00
 -1       267 1.18083E-04-9.25032E-07-1.65436E-24
 -1       268 1.13119E-04-9.40273E-07 0.00000E+00
 -1       269 1.08155E-04-9.52974E-07-4.13590E-25
 -1       270 1.03192E-04-9.65615E-07-4.13590E-25
 -1       271 1.25013E-04 2.93474E-06 0.00000E+00
 -1       272 1.22418E-04 5.55549E-06 0.00000E+00
 -1       273 1.20231E-04 7.09908E-06 0.00000E+00
 -1       274 1.18397E-04 7.68395E-06 2.64698E-23
 -1       275 1.16869E-04 7.45207E-06 0.00000E+00
 -1       276 1.15589E-04 6.55741E-06 0.00000E+00
 -1       277 1.14494E-04 5.16706E-06 0.00000E+00
 -1       278 1.13518E-04 3.45665E-06 2.64698E-23
 -1       279 1.12594E-04 1.60791E-06-5.29396E-23
 -1       280 1.11653E-04-1.94921E-07-2.64698E-23
 -1       281 1.10627E-04-1.76860E-06 0.00000E+00
 -1       282 1.09449E-04-2.93382E-06 0.00000E+00
 -1       283 1.08054E-04-3.51928E-06-5.29396E-23
 -1       284 1.06385E-04-3.36234E-06 2.64698E-23
 -1       285 1.04381E-04-2.31799E-06 0.00000E+00
 -1       301 1.21242E-04-1.06676E-07 6.61744E-24
 -1       302 1.17067E-04-1.28309E-07 3.30872E-24
 -1       303 1.12996E-04-1.48766E-07 0.00000E+00
 -1       304 1.09091E-04-1.69835E-07 0.00000E+00
 -1       305 1.05413E-04-1.92356E-07 1.32349E-23
 -1       306 1.22471E-04 2.24141E-06 0.00000E+00
 -1       307 1.20294E-04 2.20874E-06 0.00000E+00
 -1       308 1.18943E-04-1.86240E-08 5.29396E-23
 -1       309 1.18307E-04-4.19809E-06 2.64698E-23
 -1       310 1.18172E-04-9.73093E-06 0.00000E+00
 -1       311 1.18287E-04-1.59449E-05 2.64698E-23
 -1       312 1.18359E-04-2.20446E-05 0.00000E+00
 -1       313 1.18098E-04-2.72425E-05 2.64698E-23
 -1       314 1.17269E-04-3.09113E-05-5.29396E-23
 -1       315 1.15669E-04-3.25117E-05 0.00000E+00
 -1       316 1.13230E-04-3.18749E-05 0.00000E+00
 -1       317 1.09933E-04-2.89585E-05 0.00000E+00
 -1       318 1.05908E-04-2.41269E-05 0.00000E+00
 -1       319 1.01344E-04-1.78476E-05 0.00000E+00
 -1       320 9.65019E-05-1.08549E-05 0.00000E+00
 -1       336 1.21189E-04-2.16737E-06 1.32349E-23
 -1       337 1.16662E-04-2.50555E-06 0.00000E+00
 -1       338 1.11440E-04-2.84688E-06 1.32349E-23
 -1       339 1.05537E-04-3.19132E-06 0.00000E+00
 -1       340 9.89676E-05-3.53980E-06 0.00000E+00
 -1       406 9.16984E-05 6.45117E-07-3.30872E-24
 -1       407 9.15344E-05 7.37223E-07 1.65436E-24
 -1       408 9.13485E-05 8.29269E-07 0.00000E+00
 -1       409 9.11408E-05 9.21142E-07 1.65436E-24
 -1       410 9.09112E-05 1.01267E-06-3.30872E-24
 -1       521 1.03557E-04-1.34764E-05 0.00000E+00
 -1       522 1.15251E-04-5.63702E-05-5.29396E-23
 -1       523 1.34179E-04-1.21809E-04 1.05879E-22
 -1       524 1.57124E-04-2.00699E-04 5.29396E-23
 -1       525 1.80473E-04-2.80952E-04-1.05879E-22
 -1       526 2.00592E-04-3.50359E-04 0.00000E+00
 -1       527 2.14198E-04-3.99135E-04 1.05879E-22
 -1       528 2.18109E-04-4.19331E-04 0.00000E+00
 -1       529 2.10764E-04-4.09191E-04-1.05879E-22
 -1       530 1.91478E-04-3.69489E-04 0.00000E+00
 -1       531 1.62407E-04-3.07121E-04 0.00000E+00
 -1       532 1.26927E-04-2.30669E-04 0.00000E+00
 -1       533 9.02050E-05-1.51532E-04-1.05879E-22
 -1       534 5.76063E-05-8.12842E-05 0.00000E+00
 -1       535 3.32931E-05-2.97599E-05 0.00000E+00
 -1       536 9.16007E-05 4.53154E-06 0.00000E+00
 -1       537 9.14408E-05 1.47026E-05-1.65436E-24
 -1       538 9.12748E-05 2.54656E-05 3.30872E-24
 -1       539 9.11154E-05 3.56591E-05 1.65436E-24
 -1       540 9.09702E-05 4.42483E-05 0.00000E+00
 -1       541 9.08436E-05 5.02058E-05-1.65436E-24
 -1       542 9.07299E-05 5.30917E-05-3.30872E-24
 -1       543 9.06200E-05 5.24810E-05 1.65436E-24
 -1       544 9.05038E-05 4.87276E-05 0.00000E+00
 -1       545 9.03738E-05 4.22006E-05 0.00000E+00
 -1       546 9.02316E-05 3.38878E-05 0.00000E+00
 -1       547 9.00829E-05 2.47861E-05 0.00000E+00
 -1       548 8.99375E-05 1.60681E-05 0.00000E+00
 -1       549 8.98050E-05 8.90508E-06-8.27181E-25
 -1       550 8.96855E-05 4.12198E-06 0.00000E+00
 -1       551 8.23409E-05-4.10671E-06 0.00000E+00
 -1       552 7.11221E-05-4.33861E-06-3.30872E-24
 -1       553 5.87038E-05-4.58336E-06 0.00000E+00
 -1       554 4.57054E-05-4.83721E-06 6.61744E-24
 -1       555 3.27461E-05-5.09333E-06-1.32349E-23
 -1       556 8.92333E-05 2.62841E-06 0.00000E+00
 -1       557 8.72882E-05 7.67533E-06 0.00000E+00
 -1       558 8.58531E-05 1.13836E-05 0.00000E+00
 -1       559 8.48724E-05 1.38952E-05 0.00000E+00
 -1       560 8.42902E-05 1.53521E-05 0.00000E+00
 -1       561 8.40515E-05 1.58967E-05 0.00000E+00
 -1       562 8.41019E-05 1.56721E-05 0.00000E+00
 -1       563 8.43870E-05 1.48213E-05 0.00000E+00
 -1       564 8.48529E-05 1.34874E-05 0.00000E+00
 -1       565 8.54457E-05 1.18137E-05 0.00000E+00
 -1       566 8.61119E-05 9.94362E-06-1.65436E-24
 -1       567 8.67979E-05 8.02053E-06 4.13590E-25
 -1       568 8.74501E-05 6.18780E-06 0.00000E+00
 -1       569 8.80152E-05 4.58866E-06 0.00000E+00
 -1       570 8.84394E-05 3.36636E-06 0.00000E+00
 -1       571 8.96469E-05 2.47486E-06 4.13590E-25
 -1       572 8.97138E-05 2.37405E-06 2.06795E-25
 -1       573 8.97811E-05 2.23724E-06-1.65436E-24
 -1       574 8.98487E-05 2.07299E-06 4.13590E-25
 -1       575 8.99162E-05 1.88988E-06 0.00000E+00
 -1       576 8.99839E-05 1.69656E-06 0.00000E+00
 -1       577 9.00515E-05 1.50167E-06 0.00000E+00
 -1       578 9.01191E-05 1.31387E-06 1.65436E-24
 -1       579 9.01868E-05 1.14181E-06 0.00000E+00
 -1       580 9.02544E-05 9.94148E-07 0.00000E+00
 -1       581 9.03221E-05 8.79545E-07-3.30872E-24
 -1       582 9.03897E-05 8.06640E-07 0.00000E+00
 -1       583 9.04574E-05 7.84073E-07 0.00000E+00
 -1       584 9.05250E-05 8.20392E-07 0.00000E+00
 -1       585 9.05926E-05 9.24091E-07 0.00000E+00
 -1       586 8.93993E-05 2.55447E-06 0.00000E+00
 -1       587 8.91900E-05 2.57686E-06-4.13590E-25
 -1       588 8.89829E-05 2.59901E-06 0.00000E+00
 -1       589 8.88077E-05 2.62080E-06 0.00000E+00
 -1       590 8.86939E-05 2.64197E-06 0.00000E+00
 -1       591 8.95705E-05 2.51192E-06-1.55096E-25
 -1       592 8.95697E-05 2.45813E-06 0.00000E+00
 -1       593 8.95790E-05 2.37682E-06 8.27181E-25
 -1       594 8.95961E-05 2.27393E-06 0.00000E+00
 -1       595 8.96189E-05 2.15548E-06-8.27181E-25
 -1       596 8.96453E-05 2.02745E-06-2.06795E-25
 -1       597 8.96730E-05 1.89582E-06 4.13590E-25
 -1       598 8.96999E-05 1.76656E-06-2.06795E-25
 -1       599 8.97236E-05 1.64562E-06 0.00000E+00
 -1       600 8.97419E-05 1.53899E-06 2.06795E-25
 -1       601 8.97527E-05 1.45264E-06-4.13590E-25
 -1       602 8.97537E-05 1.39252E-06-1.03398E-25
 -1       603 8.97427E-05 1.36463E-06-4.13590E-25
 -1       604 8.97177E-05 1.37498E-06 1.03398E-25
 -1       605 8.96763E-05 1.42952E-06 0.00000E+00
 -1       606 9.06722E-05 1.43580E-06 0.00000E+00
 -1       607 9.06819E-05 1.86163E-06 0.00000E+00
 -1       608 9.06911E-05 2.37505E-06 0.00000E+00
 -1       609 9.06999E-05 2.96989E-06-1.65436E-24
 -1       610 9.07085E-05 3.63997E-06 0.00000E+00
 -1       611 9.07171E-05 4.37900E-06-1.65436E-24
 -1       612 9.07256E-05 5.18070E-06 0.00000E+00
 -1       613 9.07340E-05 6.03880E-06 0.00000E+00
 -1       614 9.07424E-05 6.94699E-06 0.00000E+00
 -1       615 9.07507E-05 7.89900E-06 0.00000E+00
 -1       616 9.07590E-05 8.88853E-06 0.00000E+00
 -1       617 9.07673E-05 9.90930E-06 0.00000E+00
 -1       618 9.07755E-05 1.09550E-05 0.00000E+00
 -1       619 9.07837E-05 1.20194E-05 0.00000E+00
 -1       620 9.07918E-05 1.30961E-05 0.00000E+00
 -1       621 9.04255E-05 1.17506E-06 0.00000E+00
 -1       622 9.02248E-05 1.24744E-06 0.00000E+00
 -1       623 9.00509E-05 1.31982E-06 0.00000E+00
 -1       624 8.98967E-05 1.39207E-06-8.27181E-25
 -1       625 8.97551E-05 1.46420E-06-1.65436E-24
 -1       626 9.06137E-05 1.45946E-06 0.00000E+00
 -1       627 9.05391E-05 1.89320E-06 0.00000E+00
 -1       628 9.04383E-05 2.39684E-06 0.00000E+00
 -1       629 9.03144E-05 2.96254E-06-1.65436E-24
 -1       630 9.01700E-05 3.58246E-06 3.30872E-24
 -1       631 9.00084E-05 4.24869E-06 0.00000E+00
 -1       632 8.98322E-05 4.95335E-06 0.00000E+00
 -1       633 8.96446E-05 5.68855E-06 0.00000E+00
 -1       634 8.94485E-05 6.44639E-06-3.30872E-24
 -1       635 8.92469E-05 7.21898E-06 0.00000E+00
 -1       636 8.90426E-05 7.99843E-06-1.65436E-24
 -1       637 8.88387E-05 8.77686E-06 8.27181E-25
 -1       638 8.86381E-05 9.54635E-06-1.65436E-24
 -1       639 8.84437E-05 1.02990E-05 0.00000E+00
 -1       640 8.82581E-05 1.10270E-05-1.65436E-24
 -1       656 8.99203E-05 1.37792E-05-6.61744E-24
 -1       657 8.93956E-05 1.33635E-05 0.00000E+00
 -1       658 8.90928E-05 1.29491E-05 0.00000E+00
 -1       659 8.88756E-05 1.25350E-05 0.00000E+00
 -1       660 8.85900E-05 1.21197E-05 0.00000E+00
 -1       661 9.04746E-05 1.52354E-05 0.00000E+00
 -1       662 9.01731E-05 1.62378E-05 8.27181E-25
 -1       663 8.98912E-05 1.71878E-05 0.00000E+00
 -1       664 8.96283E-05 1.80883E-05-8.27181E-25
 -1       665 8.93832E-05 1.89417E-05-1.65436E-24
 -1       666 8.91550E-05 1.97504E-05-8.27181E-25
 -1       667 8.89427E-05 2.05166E-05 1.65436E-24
 -1       668 8.87456E-05 2.12427E-05 8.27181E-25
 -1       669 8.85627E-05 2.19307E-05-1.65436E-24
 -1       670 8.83934E-05 2.25826E-05-8.27181E-25
 -1       671 8.82369E-05 2.32004E-05 0.00000E+00
 -1       672 8.80924E-05 2.37860E-05 0.00000E+00
 -1       673 8.79592E-05 2.43410E-05-1.65436E-24
 -1       674 8.78362E-05 2.48671E-05 0.00000E+00
 -1       675 8.77235E-05 2.53661E-05 0.00000E+00
 -1       676 8.98102E-05 2.62286E-05 1.65436E-24
 -1       677 8.93702E-05 2.61500E-05 0.00000E+00
 -1       678 8.89306E-05 2.60714E-05 0.00000E+00
 -1       679 8.84916E-05 2.59930E-05 8.27181E-25
 -1       680 8.80534E-05 2.59147E-05 0.00000E+00
 -1       771 1.56522E-05 4.24703E-06 0.00000E+00
 -1       772 1.15199E-05 1.21273E-05 0.00000E+00
 -1       773 8.01616E-06 1.83656E-05 0.00000E+00
 -1       774 5.09920E-06 2.30630E-05 0.00000E+00
 -1       775 2.72801E-06 2.63230E-05 5.29396E-23
 -1       776 8.59720E-07 2.82537E-05 0.00000E+00
 -1       777-5.49008E-07 2.89654E-05 0.00000E+00
 -1       778-1.54249E-06 2.85719E-05 2.64698E-23
 -1       779-2.16536E-06 2.71891E-05-2.64698E-23
 -1       780-2.46304E-06 2.49359E-05-1.32349E-23
 -1       781-2.48113E-06 2.19327E-05 0.00000E+00
 -1       782-2.26583E-06 1.83021E-05-1.32349E-23
 -1       783-1.86343E-06 1.41679E-05 0.00000E+00
 -1       784-1.32061E-06 9.65531E-06 0.00000E+00
 -1       785-6.84119E-07 4.89035E-06 2.64698E-23
 -1       786 8.87259E-05 2.48958E-06 0.00000E+00
 -1       787 8.87850E-05 2.33267E-06 4.13590E-25
 -1       788 8.88439E-05 2.18811E-06 0.00000E+00
 -1       789 8.89035E-05 2.05370E-06 0.00000E+00
 -1       790 8.89630E-05 1.92862E-06 1.65436E-24
 -1       791 8.90227E-05 1.81208E-06 8.27181E-25
 -1       792 8.90825E-05 1.70447E-06 1.65436E-24
 -1       793 8.91422E-05 1.60619E-06 8.27181E-25
 -1       794 8.92019E-05 1.51894E-06 1.65436E-24
 -1       795 8.92617E-05 1.44445E-06-8.27181E-25
 -1       796 8.93214E-05 1.38619E-06 0.00000E+00
 -1       797 8.93812E-05 1.34769E-06 0.00000E+00
 -1       798 8.94409E-05 1.33520E-06 1.65436E-24
 -1       799 8.95004E-05 1.35504E-06 0.00000E+00
 -1       800 8.95600E-05 1.41798E-06 0.00000E+00
 -1       801 8.26660E-05 2.35202E-06 0.00000E+00
 -1       802 6.43785E-05 1.88809E-06 0.00000E+00
 -1       803 4.04858E-05 1.31764E-06-1.32349E-23
 -1       804 1.77431E-05 7.65630E-07-6.61744E-24
 -1       805 2.24632E-06 3.40685E-07-2.64698E-23
 -1       806 8.86568E-05 2.44409E-06 0.00000E+00
 -1       807 8.86380E-05 2.23300E-06-8.27181E-25
 -1       808 8.86147E-05 2.03238E-06 1.65436E-24
 -1       809 8.85857E-05 1.84597E-06-8.27181E-25
 -1       810 8.85499E-05 1.67752E-06-1.65436E-24
 -1       811 8.85059E-05 1.53069E-06 8.27181E-25
 -1       812 8.84525E-05 1.40917E-06 0.00000E+00
 -1       813 8.83881E-05 1.31662E-06-8.27181E-25
 -1       814 8.83116E-05 1.25669E-06 3.30872E-24
 -1       815 8.82214E-05 1.23304E-06 0.00000E+00
 -1       816 8.81162E-05 1.24933E-06 1.65436E-24
 -1       817 8.79948E-05 1.30919E-06-8.27181E-25
 -1       818 8.78556E-05 1.41629E-06 1.65436E-24
 -1       819 8.76975E-05 1.57424E-06-8.27181E-25
 -1       820 8.75192E-05 1.78668E-06 1.65436E-24
 -1       821 8.95284E-05 1.65990E-06 8.27181E-25
 -1       822 8.94325E-05 1.74797E-06 0.00000E+00
 -1       823 8.93369E-05 1.85215E-06 3.30872E-24
 -1       824 8.92403E-05 2.02536E-06 0.00000E+00
 -1       825 8.91436E-05 2.30677E-06 0.00000E+00
 -1       826 8.90466E-05 2.73502E-06 1.65436E-24
 -1       827 8.89496E-05 3.31946E-06 0.00000E+00
 -1       828 8.88524E-05 4.06876E-06 1.65436E-24
 -1       829 8.87551E-05 4.95865E-06-3.30872E-24
 -1       830 8.86577E-05 5.96424E-06 0.00000E+00
 -1       831 8.85603E-05 7.03758E-06 0.00000E+00
 -1       832 8.84631E-05 8.13038E-06 1.65436E-24
 -1       833 8.83659E-05 9.19045E-06 0.00000E+00
 -1       834 8.82699E-05 1.01658E-05 0.00000E+00
 -1       835 8.81737E-05 1.10213E-05-8.27181E-25
 -1       836 8.93838E-05 1.62185E-06-1.65436E-24
 -1       837 8.90370E-05 1.71072E-06 0.00000E+00
 -1       838 8.86178E-05 1.79943E-06 1.65436E-24
 -1       839 8.81656E-05 1.88756E-06 0.00000E+00
 -1       840 8.77200E-05 1.97556E-06-4.13590E-25
 -1       856 8.80575E-05 1.24016E-05 0.00000E+00
 -1       857 8.80286E-05 1.31853E-05-2.06795E-25
 -1       858 8.79999E-05 1.40571E-05 0.00000E+00
 -1       859 8.79706E-05 1.50004E-05 0.00000E+00
 -1       860 8.79411E-05 1.59986E-05 8.27181E-25
 -1       861 8.79116E-05 1.70350E-05 0.00000E+00
 -1       862 8.78820E-05 1.80931E-05 0.00000E+00
 -1       863 8.78524E-05 1.91561E-05 4.13590E-25
 -1       864 8.78227E-05 2.02072E-05 0.00000E+00
 -1       865 8.77931E-05 2.12299E-05-4.13590E-25
 -1       866 8.77636E-05 2.22073E-05 8.27181E-25
 -1       867 8.77341E-05 2.31230E-05 0.00000E+00
 -1       868 8.77046E-05 2.39603E-05 8.27181E-25
 -1       869 8.76751E-05 2.47028E-05 4.13590E-25
 -1       870 8.76458E-05 2.53341E-05 0.00000E+00
 -1       871 8.76027E-05 1.17212E-05-4.13590E-25
 -1       872 8.72238E-05 1.17181E-05 0.00000E+00
 -1       873 8.69023E-05 1.17146E-05 0.00000E+00
 -1       874 8.65938E-05 1.17106E-05 1.55096E-25
 -1       875 8.62536E-05 1.17061E-05 6.20385E-25
 -1       876 8.79203E-05 1.24105E-05-3.30872E-24
 -1       877 8.77404E-05 1.31498E-05 0.00000E+00
 -1       878 8.75439E-05 1.39337E-05 3.30872E-24
 -1       879 8.73329E-05 1.47567E-05-1.65436E-24
 -1       880 8.71096E-05 1.56130E-05 0.00000E+00
 -1       881 8.68759E-05 1.64967E-05 1.65436E-24
 -1       882 8.66340E-05 1.74023E-05 0.00000E+00
 -1       883 8.63860E-05 1.83240E-05 1.65436E-24
 -1       884 8.61342E-05 1.92560E-05 0.00000E+00
 -1       885 8.58806E-05 2.01927E-05 0.00000E+00
 -1       886 8.56273E-05 2.11285E-05 0.00000E+00
 -1       887 8.53765E-05 2.20574E-05 0.00000E+00
 -1       888 8.51302E-05 2.29739E-05 1.65436E-24
 -1       889 8.48902E-05 2.38721E-05 0.00000E+00
 -1       890 8.46589E-05 2.47463E-05-1.65436E-24
 -1       891 8.71990E-05 2.57965E-05 8.27181E-25
 -1       892 8.67640E-05 2.57547E-05-4.13590E-25
 -1       893 8.62906E-05 2.57130E-05 8.27181E-25
 -1       894 8.57581E-05 2.56714E-05-4.13590E-25
 -1       895 8.51460E-05 2.56298E-05 0.00000E+00
 -1       956 8.72295E-05 2.44627E-06-1.65436E-24
 -1       957 8.71371E-05 2.89481E-06-8.27181E-25
 -1       958 8.70444E-05 3.39648E-06 0.00000E+00
 -1       959 8.69515E-05 3.94461E-06 0.00000E+00
 -1       960 8.68585E-05 4.53250E-06-3.30872E-24
 -1       961 8.67655E-05 5.15344E-06-8.27181E-25
 -1       962 8.66724E-05 5.80068E-06 0.00000E+00
 -1       963 8.65794E-05 6.46751E-06 0.00000E+00
 -1       964 8.64863E-05 7.14718E-06 0.00000E+00
 -1       965 8.63932E-05 7.83294E-06 0.00000E+00
 -1       966 8.63001E-05 8.51807E-06 0.00000E+00
 -1       967 8.62071E-05 9.19584E-06 0.00000E+00
 -1       968 8.61141E-05 9.85949E-06-3.30872E-24
 -1       969 8.60213E-05 1.05023E-05 0.00000E+00
 -1       970 8.59288E-05 1.11176E-05 0.00000E+00
 -1       971 8.57510E-05 1.22978E-05-1.65436E-24
 -1       972 8.56633E-05 1.29736E-05-8.27181E-25
 -1       973 8.55753E-05 1.37179E-05 1.65436E-24
 -1       974 8.54872E-05 1.45217E-05-8.27181E-25
 -1       975 8.53990E-05 1.53762E-05-3.30872E-24
 -1       976 8.53108E-05 1.62727E-05 0.00000E+00
 -1       977 8.52225E-05 1.72022E-05 3.30872E-24
 -1       978 8.51342E-05 1.81558E-05 1.65436E-24
 -1       979 8.50459E-05 1.91247E-05 3.30872E-24
 -1       980 8.49576E-05 2.01001E-05-1.65436E-24
 -1       981 8.48693E-05 2.10729E-05-3.30872E-24
 -1       982 8.47811E-05 2.20344E-05 1.65436E-24
 -1       983 8.46931E-05 2.29756E-05-3.30872E-24
 -1       984 8.46054E-05 2.38877E-05 0.00000E+00
 -1       985 8.45181E-05 2.47619E-05 1.65436E-24
 -3
    1PSTEP                        10           5           1          
  100CL  105 5.03906E-01         409                     0    5           1
 -4  STRESS      6    1
 -5  SXX         1    4    1    1
 -5  SYY         1    4    2    2
 -5  SZZ         1    4    3    3
 -5  SXY         1    4    1    2
 -5  SYZ         1    4    2    3
 -5  SZX         1    4    3    1
 -1         1-1.94898E+06-8.55089E+05-4.06924E+05-1.14604E+06 4.54747E-10 1.90630E-09
 -1         2 2.64709E+03-6.50786E+03 8.65553E+03-2.39244E+01-1.18263E-10-1.06199E-08
 -1         3-1.47462E+02-8.66319E+05 2.04849E+02-4.01605E+02-1.24732E-10-4.20550E-09
 -1         5-4.08568E+00 2.63726E+05 6.84175E+00 1.15750E-01 8.05326E-11 1.33564E-08
 -1         8-9.26666E+05-3.63490E+05-6.67373E+04-5.64438E+05 4.18368E-11-8.69477E-09
 -1         9-1.77023E+06-5.22842E+05-2.03603E+05-5.56404E+05 3.96103E-09 3.96394E-09
 -1        10-7.37208E+02-9.02523E+05-1.21971E+03-2.71552E+03-4.48472E-09 1.30333E-09
 -1        12-1.28085E+00 2.63740E+05 2.21701E+02 9.66343E-01 1.19826E-10 3.34467E-09
 -1        15 1.99991E+03 1.09907E+03 6.46471E+03 4.29295E+00-1.93552E-11 5.91972E-09
 -1        16-3.21325E+06-1.25162E+06-5.15983E+05-1.30615E+06 1.11904E-08-4.21035E-09
 -1        17-1.06756E+06-6.25655E+05-2.08871E+05-5.61889E+05-5.19503E-09 7.47968E-10
 -1        18-4.47706E+04-1.55607E+04-3.12521E+04-6.54813E+04 2.07160E-09 3.08000E-09
 -1        19 8.34680E+04 9.84327E+04-4.85579E+02 1.63497E+04 1.61344E-10 2.63171E-09
 -1        20-3.63355E+04-3.90791E+05-8.63302E+04 2.78535E+04 4.05680E-09 2.44593E-09
 -1        21-3.65888E+01-2.24996E+05-7.24547E+02-6.79360E+01-1.81117E-09-1.61237E-08
 -1        24-3.22550E+06-9.05676E+05-4.08908E+05-1.18629E+06-3.11702E-08-1.29512E-08
 -1        25-7.91630E+03-1.78369E+05-2.32604E+04-1.14306E+05 2.88583E-10 9.71832E-09
 -1        26-2.16384E+04 6.65329E+04-1.38661E+04-8.45196E+03 1.56870E-09-2.35383E-10
 -1        27-6.13016E+04-2.14093E+05-8.03216E+04 4.85966E+04 5.25104E-09-1.77048E-09
 -1        28 1.73877E+04-6.23882E+04 1.27235E+04 1.95336E+04 2.75756E-09-6.02132E-09
 -1        32-9.19717E+05-5.49362E+05 2.63142E+05-5.58649E+05-2.01981E-08 9.97210E-09
 -1        33-1.23536E+05 6.30058E+04 2.23529E+04-3.51315E+04 9.30906E-10-2.76729E-09
 -1        34-1.59307E+05-1.60260E+04 3.85717E+02 4.94701E+04 2.01939E-09 1.51628E-09
 -1        35-1.76974E+04-2.47799E+04-9.73379E+02 3.91865E+04 6.21530E-09 8.27701E-09
 -1        51 1.72829E+04-3.62516E+05 4.33947E+04-9.52233E+05 2.76486E-10 1.09285E-08
 -1        52 1.00473E+04-3.60456E+05 2.80265E+04-1.11058E+06 9.67702E-10 1.93686E-08
 -1        53 7.02397E+03-3.73925E+05 2.28997E+04-9.48902E+05 6.18456E-10 1.03028E-08
 -1        54 1.97842E+04-3.72592E+05 3.55823E+04-1.11404E+06-6.03904E-10-2.60115E-09
 -1        55 3.90457E+04-3.86013E+05 6.28093E+04-9.48361E+05 7.13044E-10 3.80169E-09
 -1        56-3.73276E+06-4.18891E+05-2.99230E+05-1.44036E+06 5.45697E-10 3.05590E-10
 -1        57-3.85642E+06-6.86473E+05-2.01752E+05-1.42490E+06 1.64800E-09 7.02858E-09
 -1        58-3.79342E+06-5.13212E+05-7.03864E+04-1.42089E+06-3.57613E-09-5.60249E-09
 -1        59-3.78624E+06-5.75764E+05-4.20180E+04-1.44806E+06 1.14824E-10-1.99361E-08
 -1        60-3.80224E+06-5.26391E+05-1.64246E+04-1.41829E+06 2.44654E-10-1.25201E-08
 -1        61-3.77767E+06-5.58606E+05-9.31900E+03-1.44905E+06 1.85901E-09-9.59972E-10
 -1        62-3.80180E+06-5.29978E+05-4.47224E+03-1.41999E+06-2.00453E-09-4.18385E-09
 -1        63-3.78129E+06-5.51576E+05-3.59986E+03-1.44338E+06 9.78730E-10 1.22905E-08
 -1        64-3.79849E+06-5.33444E+05-4.11112E+03-1.42389E+06-1.93882E-09 3.17391E-09
 -1        65-3.78996E+06-5.45394E+05-8.11709E+03-1.43413E+06 3.08319E-10-6.87464E-09
 -1        66-3.79305E+06-5.36260E+05-1.43097E+04-1.42916E+06-1.02023E-09-8.02083E-09
 -1        67-3.80735E+06-5.50171E+05-3.62946E+04-1.42178E+06-1.05544E-09-6.04086E-09
 -1        68-3.78123E+06-5.29027E+05-6.09130E+04-1.43614E+06 1.57706E-09-1.25874E-09
 -1        69-3.87413E+06-6.40030E+05-1.74412E+05-1.39530E+06 1.47702E-09-2.44472E-09
 -1        70-3.72704E+06-4.49084E+05-2.58747E+05-1.45479E+06-1.19326E-09 1.93540E-09
 -1        86-1.33043E+03-9.38440E+03 9.23283E+03 1.19409E+01 1.15688E-09-1.39450E-08
 -1        87 8.80634E+03-3.53266E+03 1.93126E+04-3.66228E+01 1.93540E-09-1.13016E-08
 -1        88-7.47002E+03-1.23586E+04 2.95312E+04 2.46339E+01 2.82125E-09-1.91920E-09
 -1        89 5.56429E+04 1.81884E+04 7.96669E+04 3.54115E+01 4.27826E-09-5.17034E-09
 -1        90-4.80067E+04-3.10864E+04 1.12562E+05-5.95916E+01 4.56930E-09 4.39064E-09
 -1       121-2.22056E+02-8.66923E+05 1.35119E+02 2.00466E+02 4.44516E-10-1.83718E-10
 -1       122-7.84964E+01-8.66281E+05 4.39788E+02-8.02678E+02-1.87575E-09-2.65209E-09
 -1       123-2.66814E+02-8.66972E+05 6.49493E+02 6.00210E+02 1.37089E-09-3.32511E-09
 -1       124 7.36912E+02-8.65807E+05 1.82571E+03-1.76011E+03-3.26895E-09 1.15288E-08
 -1       125-7.85233E+02-8.67431E+05 2.73608E+03 1.15685E+03 2.22644E-09-1.92449E-09
 -1       191-4.51671E+00 2.63748E+05 8.22145E+00-5.83015E-02 1.22828E-10 1.71867E-08
 -1       192-4.71395E+00 2.63726E+05 1.44838E+01 5.88268E-01 1.86081E-10 2.26544E-08
 -1       193-6.18730E+00 2.63748E+05 2.69783E+01-5.32967E-01 1.89671E-10 6.10498E-09
 -1       194-6.73585E+00 2.63728E+05 5.47788E+01 1.42406E+00 6.85638E-11 1.05024E-09
 -1       195-9.39786E+00 2.63746E+05 1.07192E+02-8.99549E-01 2.71946E-10 3.51474E-09
 -1       251-4.53026E+05-1.95868E+04 4.54603E+04-1.27516E+03 1.79625E-10-6.17365E-09
 -1       252-4.30725E+05 2.26327E+04 3.25381E+04-4.90343E+03-8.00924E-10-1.17338E-08
 -1       253-4.45231E+05-3.05861E+03 1.16841E+04 1.11218E+03-3.27532E-10-8.44511E-09
 -1       254-4.40177E+05 3.50714E+03 7.63133E+03-9.25784E+03-4.35023E-10-1.17741E-08
 -1       255-4.43640E+05-4.83857E+02 3.01214E+03 3.07908E+03-1.61037E-10 1.98690E-09
 -1       256-4.42329E+05 5.82118E+02 1.97659E+03-1.23878E+04 4.70891E-10 1.09103E-08
 -1       257-4.43150E+05-9.26027E+01 1.05687E+03 4.24216E+03-6.75129E-10 4.59153E-09
 -1       258-4.42877E+05 2.52163E+02 1.09867E+03-1.37069E+04-7.90749E-10-6.15618E-10
 -1       259-4.43128E+05-1.28678E+02 1.41924E+03 4.39823E+03-5.15215E-10-8.84040E-09
 -1       260-4.42315E+05 9.14571E+02 2.96392E+03-1.29874E+04-1.21148E-10-2.49679E-09
 -1       261-4.43692E+05-7.67886E+02 4.87304E+03 3.52266E+03 1.62009E-09-1.74616E-08
 -1       262-4.39312E+05 5.68182E+03 1.21637E+04-1.03565E+04 1.97690E-09-1.09851E-08
 -1       263-4.46064E+05-4.92721E+03 1.90368E+04 1.76727E+03-8.21956E-10-8.74752E-09
 -1       264-4.24262E+05 3.66511E+04 5.25129E+04-6.34053E+03-2.13242E-09-2.55022E-09
 -1       265-4.58656E+05-3.16798E+04 7.38349E+04-4.93370E+02-1.65767E-09 9.46602E-09
 -1       266-3.62039E+04-1.69263E+04 8.49576E+04-9.18678E+01 3.63798E-12 4.22787E-09
 -1       267 4.19715E+04 1.97321E+04 6.00402E+04 1.05982E+02 1.09139E-11 8.84592E-09
 -1       268-5.62825E+03-2.79439E+03 2.23171E+04-1.35048E+01 1.90994E-11 5.60490E-10
 -1       269 6.64538E+03 3.34454E+03 1.45054E+04 1.57302E+01-7.27596E-12 6.90549E-09
 -1       270-9.97479E+02-5.49523E+02 7.00196E+03-2.13474E+00-6.04814E-11 7.35358E-09
 -1       271-3.47702E+06-4.35056E+05-2.65960E+05-1.35543E+06 1.30967E-10-1.00408E-09
 -1       272-3.56276E+06-6.38515E+05-1.70969E+05-1.36366E+06 8.00583E-10-4.61296E-09
 -1       273-3.52861E+06-4.99769E+05-6.28339E+04-1.34181E+06 1.29785E-09 1.63709E-10
 -1       274-3.50179E+06-5.59863E+05-3.51256E+04-1.38506E+06 2.11730E-09 8.53561E-09
 -1       275-3.53732E+06-5.04763E+05-1.46283E+04-1.33772E+06 2.21553E-09-4.23006E-09
 -1       276-3.49111E+06-5.54475E+05-7.74175E+03-1.39193E+06-5.22505E-10-2.35787E-10
 -1       277-3.53980E+06-5.03862E+05-3.79819E+03-1.33573E+06 3.51520E-10 7.27596E-11
 -1       278-3.48847E+06-5.55545E+05-2.74047E+03-1.39475E+06 7.17478E-10-7.65087E-09
 -1       279-3.54031E+06-5.03386E+05-2.92528E+03-1.33520E+06 3.56835E-10-2.76123E-09
 -1       280-3.48921E+06-5.55865E+05-5.36412E+03-1.39429E+06 1.00044E-10-7.90351E-10
 -1       281-3.53902E+06-5.03622E+05-9.79392E+03-1.33613E+06-6.43013E-10 3.09501E-09
 -1       282-3.49609E+06-5.59662E+05-2.34248E+04-1.38996E+06-1.64164E-10 5.25324E-09
 -1       283-3.53309E+06-5.00456E+05-4.18104E+04-1.33900E+06 6.19821E-10 2.11367E-09
 -1       284-3.53716E+06-6.11317E+05-1.13753E+05-1.37479E+06-1.02050E-09-6.95763E-09
 -1       285-3.49820E+06-4.58065E+05-1.77034E+05-1.34872E+06 1.40062E-09-7.34144E-09
 -1       301 1.76962E+04-3.51542E+04 1.32234E+05-7.37212E+04-7.78527E-10 6.04223E-09
 -1       302 1.88200E+04-1.70871E+03 9.08649E+04-1.08504E+05 9.89530E-10 3.70846E-09
 -1       303 1.03393E+03-2.25376E+04 7.65282E+04-7.38435E+04-6.63931E-10-2.18279E-10
 -1       304 2.79751E+04 7.10471E+03 1.21030E+05-1.08118E+05 1.09139E-09 1.14651E-08
 -1       305 2.73008E+04-4.33390E+04 1.98977E+05-7.40985E+04-6.18456E-10 8.78936E-09
 -1       306-4.73070E+06-5.45004E+05-3.56693E+05-1.84314E+06 1.25874E-09-7.08678E-09
 -1       307-4.89327E+06-8.62332E+05-2.42409E+05-1.79930E+06 1.09230E-09 8.79663E-09
 -1       308-4.82552E+06-6.41135E+05-8.40212E+04-1.79279E+06-5.72982E-11 4.24552E-09
 -1       309-4.77418E+06-7.61014E+05-5.05389E+04-1.87164E+06 5.19140E-09 7.96808E-09
 -1       310-4.84992E+06-6.43603E+05-1.95661E+04-1.77204E+06-8.59131E-10-7.35326E-09
 -1       311-4.74969E+06-7.53999E+05-1.13530E+04-1.89175E+06 1.13671E-08 5.66251E-09
 -1       312-4.85039E+06-6.47461E+05-5.62371E+03-1.77314E+06 2.04636E-11 1.10032E-08
 -1       313-4.76401E+06-7.33365E+05-4.62302E+03-1.87020E+06-6.97764E-09 1.85821E-09
 -1       314-4.83486E+06-6.64704E+05-6.58694E+03-1.79306E+06-2.03363E-09-8.53788E-09
 -1       315-4.80516E+06-6.94708E+05-1.21082E+04-1.82066E+06-2.99769E-09-5.10136E-09
 -1       316-4.80845E+06-6.86732E+05-2.29526E+04-1.82207E+06-3.09183E-09-3.38150E-09
 -1       317-4.86726E+06-6.71965E+05-5.76122E+04-1.76441E+06 2.46148E-09-1.36060E-08
 -1       318-4.77338E+06-6.87496E+05-9.58669E+04-1.84955E+06-1.30976E-08-2.41562E-09
 -1       319-4.99447E+06-8.03307E+05-2.78282E+05-1.70272E+06-6.12999E-09-1.06957E-08
 -1       320-4.68308E+06-5.57078E+05-4.07406E+05-1.88383E+06 1.16852E-08-1.09867E-08
 -1       336 5.42659E+02-9.38492E+05-5.20334E+03 1.55336E+03-8.80073E-09-4.01451E-09
 -1       337-1.91439E+03-9.39607E+05-5.76411E+03-3.88233E+03-1.58905E-08 4.22006E-10
 -1       338 3.66570E+02-9.38612E+05-7.50107E+03 2.31796E+03-1.11868E-08-3.34694E-10
 -1       339-7.77468E+03-9.43303E+05-1.64280E+04-5.38487E+03-2.05191E-08 6.40284E-09
 -1       340 5.19416E+03-9.34941E+05-2.54324E+04 3.04393E+03-1.35733E-08 9.23865E-09
 -1       406 1.56942E+01 2.63736E+05 4.37735E+02-7.92475E-02 4.18453E-10-2.64436E-09
 -1       407 1.51320E+02 2.63816E+05 9.30246E+02-6.29251E+00 8.90168E-11-8.87417E-09
 -1       408 4.77596E+02 2.63669E+05 1.85794E+03 6.50701E+00 4.52133E-10-5.37511E-10
 -1       409 2.00765E+03 2.64410E+05 4.18265E+03-6.32801E+01-1.28694E-10-5.34965E-09
 -1       410 5.77062E+03 2.63141E+05 8.53875E+03 5.92910E+01 3.61069E-10-2.98587E-09
 -1       521-7.80673E+06-7.58579E+05-6.72465E+05-2.62921E+06-3.95812E-09-3.20142E-10
 -1       522-6.37752E+06-1.92450E+06-2.84356E+05-3.59808E+06-6.56582E-08-2.35232E-08
 -1       523-7.96709E+06-5.12395E+05-1.44113E+05-2.10672E+06-2.69210E-09-3.24362E-08
 -1       524-6.39524E+06-2.03067E+06-5.63114E+04-4.27683E+06 6.21430E-08-7.65681E-08
 -1       525-7.97656E+06-5.10944E+05-3.49586E+04-2.07165E+06 5.85933E-08-5.08098E-08
 -1       526-6.25413E+06-1.76295E+06 5.71611E+04-3.75866E+06 3.03371E-08-1.28493E-08
 -1       527-7.94924E+06-8.95369E+05-1.11362E+05-2.52525E+06 1.85682E-08-7.38146E-09
 -1       528-6.54739E+06-1.01153E+06 1.33834E+05-2.59424E+06 1.70476E-08 9.74978E-10
 -1       529-7.50228E+06-1.38999E+06-1.24525E+05-3.09168E+06-1.68511E-08-1.89830E-08
 -1       530-7.79090E+06-1.15267E+05 7.39148E+04-1.80548E+06-6.75827E-08 3.57759E-08
 -1       531-6.85524E+06-1.68250E+06-4.80417E+04-3.40886E+06-7.49060E-08-5.56611E-10
 -1       532-8.72659E+06 3.07749E+05-5.31027E+04-1.61065E+06 6.92080E-08-6.08288E-08
 -1       533-6.74660E+06-1.68908E+06-1.27347E+05-3.44357E+06 2.62226E-08-1.04912E-07
 -1       534-8.23325E+06-1.66847E+05-2.88840E+05-1.68197E+06-2.91511E-08 8.04430E-08
 -1       535-7.22909E+06-1.29476E+06-6.40583E+05-3.22806E+06-1.15542E-08 5.82659E-08
 -1       536-3.19985E+05-1.37617E+04 3.09786E+04-6.38486E+03-7.14294E-10 2.08547E-08
 -1       537-3.03645E+05 1.59107E+04 2.24339E+04 1.28994E+04-1.93121E-08 2.54195E-08
 -1       538-3.13314E+05-2.06262E+03 8.09346E+03-7.25733E+03 1.02330E-09 1.73550E-08
 -1       539-3.07880E+05 2.54651E+03 5.68930E+03 1.14713E+04 1.68005E-08-1.92313E-09
 -1       540-3.15702E+05-4.45958E+02 1.36932E+03-4.95600E+03-1.15608E-09 1.40425E-08
 -1       541-3.02864E+05 6.71724E+02 2.95447E+03 4.69551E+03-7.84212E-10 2.40375E-08
 -1       542-3.18177E+05-3.16360E+02-8.20531E+02-4.80548E+02 4.48046E-09-2.83791E-10
 -1       543-3.02669E+05 2.86790E+02 1.87111E+03-4.36952E+03 2.52089E-09-2.19465E-09
 -1       544-3.15890E+05-7.21194E+01-1.20065E+03 4.10762E+03-2.64095E-10 1.09915E-09
 -1       545-3.08767E+05-3.86671E+02-5.86341E+02-1.15397E+04 1.28762E-09 2.99065E-09
 -1       546-3.12230E+05 4.80583E+02-2.36125E+03 6.68989E+03 5.71609E-09-1.28705E-08
 -1       547-3.12586E+05-2.84435E+03-5.64596E+03-1.35717E+04-1.49080E-08-8.71239E-09
 -1       548-3.12139E+05 2.44209E+03-9.53390E+03 6.14046E+03-1.45079E-08-1.77411E-08
 -1       549-3.14630E+05-1.75338E+04-2.42378E+04-9.53032E+03-7.90055E-09-7.11316E-09
 -1       550-3.10065E+05 1.50559E+04-3.71325E+04 2.64725E+03 2.98144E-10-5.18412E-09
 -1       551 1.22563E+04-4.85787E+05 2.25452E+04-8.12996E+05-3.84534E-08-1.68802E-09
 -1       552 2.77075E+04-4.92498E+05 2.97462E+04-1.15756E+06-2.99478E-08 6.79574E-09
 -1       553 1.94218E+04-4.98209E+05 4.49523E+04-8.10061E+05-4.71628E-08 5.58066E-09
 -1       554 5.21443E+04-4.84275E+05 9.49212E+04-1.15881E+06-2.91184E-08 6.29689E-09
 -1       555 4.70455E+04-5.16556E+05 1.69559E+05-8.10877E+05-4.79195E-08-7.47968E-09
 -1       556 8.22738E+04-1.55733E+05 5.28813E+04-1.99960E+05-9.62609E-09-4.80941E-09
 -1       557 1.45682E+05-2.07636E+05 2.78875E+04-2.51191E+05 5.87897E-09 1.92717E-08
 -1       558 8.14376E+04-1.62443E+05 1.11082E+04-1.94228E+05 2.76486E-10 5.46061E-09
 -1       559 1.36255E+05-2.14622E+05 5.69252E+03-2.55566E+05 9.20409E-09-2.38742E-09
 -1       560 7.90272E+04-1.60864E+05 2.25723E+03-1.95792E+05 5.89353E-10-5.71163E-09
 -1       561 1.32675E+05-2.13594E+05 1.23979E+03-2.57844E+05 3.72529E-09-2.70484E-09
 -1       562 7.71027E+04-1.59595E+05 4.25141E+02-1.97177E+05 2.83035E-09-6.22003E-09
 -1       563 1.30415E+05-2.12618E+05 3.02634E+02-2.59289E+05-1.04774E-09 4.50507E-09
 -1       564 7.58752E+04-1.58810E+05 9.85296E+01-1.98047E+05 6.03904E-09 1.30331E-08
 -1       565 1.29187E+05-2.12089E+05 8.90940E+01-2.60064E+05 3.14867E-09 2.92857E-09
 -1       566 7.53815E+04-1.58488E+05 8.51311E+00-1.98399E+05-2.33740E-09-5.04588E-09
 -1       567 1.28946E+05-2.11974E+05-6.24050E+01-2.60145E+05 6.92103E-09 3.06136E-09
 -1       568 7.56569E+04-1.58670E+05-2.60685E+02-1.98275E+05-1.74441E-09 5.01677E-09
 -1       569 1.29014E+05-2.11835E+05-6.15722E+02-2.58898E+05-3.84534E-09-5.70435E-09
 -1       570 7.72676E+04-1.60038E+05-1.40837E+03-1.98184E+05 2.21189E-09-1.04046E-09
 -1       571 1.92894E+05 7.09525E+03 1.04972E+04-4.96466E+04 9.81345E-10 2.03727E-10
 -1       572 1.94453E+05 2.47726E+03 5.14306E+03-5.44279E+04-1.89175E-09-2.28420E-09
 -1       573 1.93518E+05 6.00120E+02 2.28478E+03-4.95209E+04 9.30822E-09 4.00769E-09
 -1       574 1.93701E+05 2.06108E+02 1.14480E+03-5.45692E+04 1.93156E-08 4.86671E-09
 -1       575 1.93587E+05 4.02052E+01 5.39586E+02-4.95043E+04 9.28026E-09-1.26147E-09
 -1       576 1.93598E+05 2.28793E+01 2.74765E+02-5.45881E+04-1.48816E-09-1.14833E-08
 -1       577 1.93598E+05 9.80581E+00 1.35461E+02-4.95021E+04 4.49290E-10-4.17458E-10
 -1       578 1.93590E+05 1.27164E+01 7.41392E+01-5.45903E+04 4.84533E-10-9.63610E-10
 -1       579 1.93612E+05 6.39741E+00 4.57054E+01-4.95021E+04 4.35648E-10 7.28551E-09
 -1       580 1.93609E+05 4.89577E+00 4.34330E+01-5.45874E+04-1.51340E-09 9.56652E-09
 -1       581 1.93635E+05-3.05988E+00 5.94386E+01-4.95050E+04 8.90395E-10 3.78623E-09
 -1       582 1.93651E+05 5.39254E+00 1.14022E+02-5.45576E+04 2.13367E-09 4.74120E-09
 -1       583 1.93664E+05 3.03566E+01 2.18562E+02-4.95319E+04 2.72848E-12-5.47288E-10
 -1       584 1.93768E+05 2.00394E+02 4.90609E+02-5.43331E+04-2.05455E-09-1.25962E-08
 -1       585 1.93647E+05 6.30693E+02 9.95753E+02-4.97299E+04-5.86624E-10-3.50883E-09
 -1       586-2.23947E+03 6.38420E+04-2.90010E+03-1.70973E+05 1.85537E-10-8.82665E-09
 -1       587-4.67379E+02 6.34611E+04-1.98264E+02-1.88156E+05 3.32875E-10-1.70727E-08
 -1       588 6.77077E+02 6.35191E+04 2.36844E+03-1.70875E+05-1.79170E-10-1.90812E-09
 -1       589 3.38585E+03 6.48036E+04 6.72495E+03-1.87986E+05-1.16415E-10-9.57834E-09
 -1       590 9.76491E+03 6.27414E+04 1.43364E+04-1.71146E+05 3.13776E-11-3.57977E-09
 -1       591-4.20292E+04-1.17443E+04-1.38635E+04-2.14288E+04 1.46821E-09-3.15777E-09
 -1       592-4.34363E+04-1.50404E+04-7.50909E+03-2.49210E+04 9.19044E-10 2.91038E-10
 -1       593-4.34296E+04-1.07242E+04-3.12608E+03-2.24317E+04-2.33399E-10-7.64885E-10
 -1       594-4.15062E+04-1.30235E+04-1.55912E+03-2.50151E+04-1.13755E-09 3.65412E-09
 -1       595-4.35369E+04-1.07196E+04-7.16492E+02-2.24777E+04-4.31726E-10 2.12489E-09
 -1       596-4.13755E+04-1.29311E+04-3.65209E+02-2.50014E+04 3.46245E-09-4.21096E-09
 -1       597-4.35506E+04-1.07285E+04-2.00990E+02-2.24795E+04-2.26321E-09-6.62044E-09
 -1       598-4.13630E+04-1.29276E+04-1.65464E+02-2.49976E+04-3.24428E-09 5.18560E-09
 -1       599-4.35495E+04-1.07286E+04-2.16226E+02-2.24792E+04-3.26168E-09 6.33543E-09
 -1       600-4.13768E+04-1.29323E+04-4.05570E+02-2.50009E+04-1.04752E-08-6.90613E-09
 -1       601-4.35323E+04-1.07191E+04-8.02150E+02-2.24763E+04-3.19915E-09 3.43209E-09
 -1       602-4.15232E+04-1.30358E+04-1.74927E+03-2.50143E+04-2.94096E-09-1.11941E-08
 -1       603-4.34104E+04-1.07260E+04-3.50860E+03-2.24249E+04 2.48929E-09 1.23237E-09
 -1       604-4.36968E+04-1.52912E+04-8.42816E+03-2.48976E+04-1.59571E-09 3.85808E-09
 -1       605-4.18290E+04-1.18781E+04-1.55601E+04-2.13074E+04 1.08071E-09 7.14863E-10
 -1       606 2.65592E+04-9.31254E+03-1.67602E+04 2.60152E+04-4.45198E-09-7.62520E-09
 -1       607 2.36892E+04-3.00772E+03-8.34558E+03 2.92047E+04-1.87720E-09-1.11668E-08
 -1       608 2.53162E+04-5.10808E+02-3.73743E+03 2.58086E+04 1.11868E-09-2.52930E-09
 -1       609 2.49920E+04-1.35718E+02-1.88763E+03 2.94337E+04 2.31194E-09 5.02882E-09
 -1       610 2.51644E+04 2.08188E+01-9.01770E+02 2.57854E+04-8.48740E-09 3.31897E-09
 -1       611 2.51029E+04 3.34655E+01-4.54782E+02 2.94586E+04-2.51516E-08 5.66843E-10
 -1       612 2.51231E+04 3.64146E+01-2.17666E+02 2.57832E+04-1.42509E-08 3.48973E-09
 -1       613 2.50995E+04 4.23140E+01-9.91264E+01 2.94616E+04-4.84215E-09 7.05882E-09
 -1       614 2.51002E+04 3.77052E+01-2.75788E+01 2.57824E+04-1.21236E-09 5.68730E-09
 -1       615 2.50872E+04 4.81122E+01 3.13050E+01 2.94620E+04 3.31420E-09 3.31147E-09
 -1       616 2.50828E+04 4.36869E+01 1.03268E+02 2.57827E+04 2.86036E-09-1.20212E-09
 -1       617 2.50929E+04 7.43347E+01 2.39432E+02 2.94615E+04 1.78795E-08-9.49262E-09
 -1       618 2.50570E+04 1.15945E+02 4.83929E+02 2.57828E+04 1.05701E-08 1.77351E-10
 -1       619 2.52597E+04 4.51211E+02 1.08765E+03 2.94608E+04 3.11957E-10-3.32329E-09
 -1       620 2.48936E+04 1.26615E+03 2.18636E+03 2.57817E+04 5.06066E-09 4.80213E-10
 -1       621 3.07171E+02 2.07328E+05 2.70559E+03 8.59256E+03-1.96053E-10 6.33463E-10
 -1       622 3.55775E+02 2.07997E+05 2.34605E+03 1.25340E+04-1.80989E-10-1.66870E-09
 -1       623 1.54321E+01 2.07512E+05 2.76268E+03 8.55209E+03-1.54898E-11 1.18027E-08
 -1       624 1.26757E+03 2.08830E+05 5.30257E+03 1.25741E+04-1.60838E-10 4.63024E-09
 -1       625 1.27376E+03 2.06485E+05 9.24488E+03 8.55263E+03-7.91260E-11 2.93863E-09
 -1       626 1.75602E+05 4.77636E+04 3.71442E+03 9.36324E+04-4.14093E-09 3.20506E-09
 -1       627 1.73281E+05 4.94453E+04 1.79293E+03 9.74510E+04-5.11909E-09-2.19177E-09
 -1       628 1.75736E+05 4.60466E+04 7.57602E+02 9.41998E+04-9.79526E-09-1.09399E-08
 -1       629 1.72758E+05 4.90154E+04 3.71383E+02 9.76730E+04-1.64696E-08-8.70318E-09
 -1       630 1.75743E+05 4.59686E+04 1.71667E+02 9.42150E+04-2.54113E-09 1.11010E-09
 -1       631 1.72696E+05 4.90055E+04 9.19859E+01 9.76731E+04-2.83762E-10-9.19628E-09
 -1       632 1.75734E+05 4.59756E+04 5.98871E+01 9.42070E+04-8.39555E-09-9.48580E-09
 -1       633 1.72682E+05 4.90108E+04 6.57638E+01 9.76657E+04-4.37649E-09 7.33826E-09
 -1       634 1.75724E+05 4.59767E+04 1.05376E+02 9.42025E+04 5.88443E-10-1.62340E-08
 -1       635 1.72686E+05 4.90122E+04 2.12916E+02 9.76652E+04 1.96460E-08-4.37694E-10
 -1       636 1.75713E+05 4.59750E+04 4.29642E+02 9.41997E+04 9.81709E-09-8.53811E-09
 -1       637 1.72773E+05 4.90774E+04 9.43417E+02 9.76622E+04 3.52813E-09-1.03137E-08
 -1       638 1.75676E+05 4.61749E+04 1.93764E+03 9.41069E+04-1.85287E-09-1.87852E-08
 -1       639 1.73790E+05 5.04705E+04 4.58185E+03 9.73725E+04 1.83991E-09-5.92536E-09
 -1       640 1.75524E+05 5.03182E+04 9.49238E+03 9.23422E+04-1.01234E-08-1.46865E-08
 -1       656 4.65103E+04-1.17809E+06-1.12279E+05-3.88570E+02 4.94765E-10-1.88322E-09
 -1       657-6.14703E+04-1.22878E+06-9.28773E+04 7.38449E+03-7.27596E-12-1.33366E-09
 -1       658 1.47601E+04-1.19254E+06-5.70255E+04-1.55562E+03 8.47422E-10 7.32528E-09
 -1       659-6.59919E+04-1.23092E+06-9.88164E+04 8.18093E+03-1.14414E-09-3.58557E-09
 -1       660 5.10212E+04-1.17596E+06-1.22493E+05-1.18500E+03-4.51109E-10-7.14881E-09
 -1       661 1.62132E+05 1.76262E+04 1.56392E+04 6.33785E+04 1.45610E-09-2.24918E-09
 -1       662 1.70355E+05 2.98163E+04 1.05384E+04 6.05726E+04 3.08671E-09-5.05372E-09
 -1       663 1.65198E+05 2.26478E+04 3.68635E+03 6.24926E+04-1.61151E-09 9.88166E-10
 -1       664 1.66805E+05 2.39389E+04 2.20407E+03 6.16502E+04 1.94689E-10-1.63357E-09
 -1       665 1.65658E+05 2.33385E+04 8.69436E+02 6.23632E+04-2.74838E-09-1.96803E-09
 -1       666 1.66265E+05 2.31450E+04 5.07177E+02 6.18164E+04-5.62565E-09 1.58203E-09
 -1       667 1.65735E+05 2.34209E+04 2.67560E+02 6.23342E+04-5.44918E-09 2.02915E-09
 -1       668 1.66182E+05 2.30805E+04 2.68437E+02 6.18581E+04 2.34002E-09-7.29750E-09
 -1       669 1.65740E+05 2.34011E+04 3.59983E+02 6.23221E+04-1.13776E-09 7.66755E-09
 -1       670 1.66273E+05 2.32713E+04 7.80658E+02 6.18577E+04 7.76909E-09-6.81632E-09
 -1       671 1.65645E+05 2.32339E+04 1.38504E+03 6.23330E+04-3.35449E-09 1.86418E-09
 -1       672 1.67080E+05 2.46179E+04 3.54275E+03 6.16620E+04-2.51264E-09-3.20620E-09
 -1       673 1.64937E+05 2.20884E+04 5.93675E+03 6.25050E+04-3.62127E-09-7.39419E-09
 -1       674 1.72733E+05 3.41535E+04 1.69778E+04 5.99993E+04-5.44389E-10 4.32101E-09
 -1       675 1.60029E+05 1.39650E+04 2.52005E+04 6.38952E+04 1.53705E-10 5.31327E-09
 -1       676 1.88073E+01-2.24936E+05-8.73265E+02 3.39688E+01-1.47563E-09-2.82434E-09
 -1       677-2.31812E+02-2.25147E+05-1.59817E+03-6.79033E+01-6.69488E-09 2.56402E-09
 -1       678 1.54808E+02-2.24785E+05-2.82515E+03 3.39111E+01-8.65157E-11 7.11838E-09
 -1       679-2.82577E+03-2.26852E+05-6.71115E+03-6.76796E+01 4.41332E-10 1.11487E-08
 -1       680 1.68645E+03-2.23231E+05-1.08161E+04 3.33575E+01 4.25189E-10-4.52403E-09
 -1       771-2.40608E+06-4.43676E+05-6.31964E+04-1.02260E+06-7.62520E-09-1.35333E-08
 -1       772-2.38412E+06-4.81076E+05-3.36387E+04-1.06466E+06 2.67755E-09 4.74392E-09
 -1       773-2.41571E+06-4.36125E+05-1.50210E+04-1.02617E+06-2.18279E-10 2.87400E-09
 -1       774-2.37571E+06-4.74082E+05-7.17480E+03-1.07014E+06 7.65431E-09-9.16771E-10
 -1       775-2.41870E+06-4.34072E+05-3.98487E+03-1.02668E+06-2.35741E-09 8.94943E-10
 -1       776-2.37623E+06-4.74131E+05-1.73773E+03-1.07350E+06-2.18279E-09 2.14459E-09
 -1       777-2.42097E+06-4.32396E+05-1.30766E+03-1.02708E+06-2.11003E-10 2.47564E-09
 -1       778-2.37724E+06-4.74348E+05-4.95662E+02-1.07632E+06 1.71713E-09 4.92037E-09
 -1       779-2.42283E+06-4.30972E+05-5.90071E+02-1.02743E+06-1.48793E-08 1.20417E-09
 -1       780-2.37818E+06-4.74512E+05-2.92772E+02-1.07861E+06-3.05008E-08 6.91671E-09
 -1       781-2.42426E+06-4.29839E+05-5.39723E+02-1.02769E+06-2.54513E-08 3.34421E-09
 -1       782-2.37897E+06-4.74652E+05-7.56985E+02-1.08029E+06-1.74405E-08-2.53658E-09
 -1       783-2.42519E+06-4.29082E+05-1.53027E+03-1.02787E+06-4.92219E-09-5.10090E-09
 -1       784-2.38032E+06-4.75653E+05-3.52474E+03-1.08127E+06-7.51970E-09 3.31056E-10
 -1       785-2.42504E+06-4.29167E+05-6.53877E+03-1.02750E+06-1.37370E-08 1.98634E-09
 -1       786 1.66706E+05-9.26157E+03 2.14269E+04-3.87486E+01 5.71765E-06 2.63917E-08
 -1       787 1.75991E+05 1.07220E+04 1.51590E+04 8.74548E+00 1.13909E-05 2.10018E-08
 -1       788 1.70288E+05-1.45185E+03 5.54565E+03-2.80610E+01 1.05295E-05-1.20519E-08
 -1       789 1.71818E+05 1.67986E+03 3.48412E+03-9.48325E+00 9.64473E-06 1.40365E-08
 -1       790 1.70879E+05-2.26774E+02 1.41711E+03-2.05211E+01 9.09234E-06-1.69803E-08
 -1       791 1.71128E+05 2.63310E+02 8.30895E+02-2.41445E+01 8.53292E-06 1.19822E-08
 -1       792 1.70978E+05-3.63738E+01 3.76988E+02-1.33997E+01 4.27012E-06-1.19910E-08
 -1       793 1.71016E+05 4.99997E+01 2.42494E+02-4.00571E+01 1.34231E-08 4.64478E-09
 -1       794 1.70992E+05-1.36021E+01 1.72683E+02-4.60823E+00 1.31017E-09 4.32441E-09
 -1       795 1.71023E+05 6.75316E+01 2.39745E+02-6.17891E+01-1.10848E-09 5.80057E-09
 -1       796 1.70971E+05-5.38895E+01 3.53042E+02 8.33277E+00 1.08148E-09 7.86292E-09
 -1       797 1.71182E+05 3.94442E+02 8.27412E+02-9.54596E+01-4.05837E-10-1.35226E-09
 -1       798 1.70833E+05-3.40274E+02 1.30439E+03 2.90628E+01 3.31378E-10 4.46221E-11
 -1       799 1.72160E+05 2.51238E+03 3.55461E+03-1.50768E+02-1.81710E-10 2.02874E-10
 -1       800 1.69993E+05-2.17013E+03 5.02059E+03 6.36415E+01 7.89981E-11 5.36306E-09
 -1       801 1.98291E+04-9.11674E+05-7.61420E+04 2.47880E+04 1.23764E-08-9.37916E-09
 -1       802-1.50869E+04-7.89725E+05-7.42058E+03-7.16968E+04 3.30656E-08 3.02452E-09
 -1       803-4.25346E+03-8.51685E+05 2.68580E+04 4.64353E+04 2.62444E-08 2.35098E-08
 -1       804 8.75273E+04-7.29951E+05 1.27798E+05-6.63547E+04 3.01588E-08 2.82937E-08
 -1       805-8.30992E+04-9.70927E+05 1.49452E+05 1.94402E+04 1.10231E-08 2.42662E-08
 -1       806-2.10432E+05-4.38529E+04-1.73268E+04-8.63648E+04 1.69621E-10 1.57343E-09
 -1       807-2.11562E+05-4.12602E+04-8.51234E+03-9.08312E+04 2.67221E-09 7.87728E-09
 -1       808-2.10916E+05-3.76003E+04-3.61095E+03-8.93108E+04 4.52019E-10 1.95269E-09
 -1       809-2.09753E+05-3.88887E+04-1.76538E+03-9.10664E+04-4.18822E-10 3.75218E-09
 -1       810-2.10991E+05-3.73805E+04-8.08467E+02-8.94408E+04-1.60162E-09-2.54499E-09
 -1       811-2.09614E+05-3.87946E+04-4.01145E+02-9.10440E+04 3.17186E-09 2.25555E-09
 -1       812-2.11004E+05-3.73975E+04-2.00651E+02-8.94404E+04 4.46107E-10-1.95837E-09
 -1       813-2.09596E+05-3.87969E+04-1.27211E+02-9.10323E+04 1.62299E-09-1.54205E-09
 -1       814-2.11001E+05-3.74040E+04-1.20471E+02-8.94375E+04 3.11456E-09-1.38471E-10
 -1       815-2.09598E+05-3.87989E+04-1.89517E+02-9.10285E+04 5.68480E-09-2.87728E-08
 -1       816-2.10988E+05-3.74029E+04-3.55827E+02-8.94349E+04 9.93305E-09 2.22599E-09
 -1       817-2.09659E+05-3.88330E+04-7.62939E+02-9.10215E+04 1.26406E-08 4.48381E-10
 -1       818-2.10942E+05-3.75102E+04-1.55512E+03-8.93841E+04 1.00636E-08-5.30690E-10
 -1       819-2.10515E+05-3.97675E+04-3.65975E+03-9.08146E+04 5.67525E-10-8.35098E-09
 -1       820-2.10648E+05-4.02762E+04-7.44841E+03-8.82032E+04 3.26054E-09 5.63023E-09
 -1       821-2.70432E+05 1.49667E+04-3.46128E+04 1.53747E+02 1.90460E-10-6.51926E-09
 -1       822-2.85431E+05-1.73265E+04-2.44936E+04-7.59892E+02-2.07678E-09 1.99134E-09
 -1       823-2.76220E+05 2.34653E+03-8.96473E+03 1.34545E+02 5.09271E-10 1.08548E-08
 -1       824-2.78678E+05-2.71589E+03-5.64018E+03-6.01068E+02-1.42091E-11 5.70185E-09
 -1       825-2.77182E+05 3.67158E+02-2.31913E+03-5.08095E+00-1.95337E-09-1.50965E-09
 -1       826-2.77557E+05-4.32926E+02-1.39826E+03-2.59908E+02-4.32590E-09 6.46986E-09
 -1       827-2.77341E+05 6.49819E+01-7.25996E+02-2.06621E+02-3.92878E-09 4.43933E-09
 -1       828-2.77406E+05-1.32120E+02-6.40076E+02 1.23108E+02-5.44895E-09 9.11015E-09
 -1       829-2.77333E+05 6.66369E+01-7.37690E+02-3.88104E+02-6.39211E-10 7.25930E-09
 -1       830-2.77582E+05-4.45385E+02-1.43969E+03 3.92127E+02 1.53402E-09 1.51033E-09
 -1       831-2.77165E+05 3.78311E+02-2.38514E+03-4.75645E+02-3.84925E-09-4.12456E-09
 -1       832-2.78730E+05-2.79736E+03-5.81225E+03 4.38223E+02-1.43394E-09-4.51291E-09
 -1       833-2.76186E+05 2.41698E+03-9.23662E+03-4.34200E+02-1.42333E-09 4.75529E-09
 -1       834-2.85665E+05-1.78505E+04-2.52343E+04 2.44252E+02-7.54660E-10 1.71235E-08
 -1       835-2.70232E+05 1.54196E+04-3.56658E+04-2.81662E+02 5.50020E-09 2.07001E-09
 -1       836-9.02043E+02 2.54570E+05 1.53662E+04-2.08410E+04 1.19235E-09 9.13315E-09
 -1       837 3.37718E+03 2.59331E+05 1.31190E+04-4.18613E+04 2.00021E-09 9.26548E-09
 -1       838-3.32546E+02 2.55893E+05 1.35276E+04-2.07691E+04 1.66438E-09 5.09942E-09
 -1       839 8.67836E+03 2.63282E+05 2.57485E+04-4.18898E+04 2.39379E-09 1.00929E-08
 -1       840-2.61153E+03 2.50582E+05 4.11252E+04-2.08110E+04 1.58070E-09-7.84871E-09
 -1       856-7.96533E+04 7.08872E+03-1.86807E+04-4.14826E+02-3.35700E-09 1.30603E-09
 -1       857-8.73692E+04-8.31432E+03-1.28612E+04 4.29451E+03-2.75554E-09 9.51286E-09
 -1       858-8.27020E+04 9.93237E+02-4.84815E+03-4.34538E+02-6.36476E-09-4.27349E-09
 -1       859-8.38683E+04-1.15492E+03-2.92796E+03 4.32592E+03-1.54472E-09-8.56289E-10
 -1       860-8.31577E+04 1.38129E+02-1.23089E+03-4.46355E+02 1.63169E-10 9.47239E-10
 -1       861-8.33434E+04-1.52542E+02-6.85108E+02 4.34210E+03-4.99514E-09-7.10159E-10
 -1       862-8.32286E+04 1.82695E+01-3.00785E+02-4.50745E+02 4.58317E-09-2.35090E-10
 -1       863-8.32593E+04-1.07867E+01-1.45875E+02 4.34410E+03 9.17267E-09-8.71449E-09
 -1       864-8.32420E+04-5.02284E-01-4.00153E+01-4.48361E+02 7.07169E-09-3.49242E-09
 -1       865-8.32328E+04 2.46785E+01 4.35768E+01 4.33203E+03 1.07689E-08-2.28296E-09
 -1       866-8.32537E+04-1.76204E+01 1.29770E+02-4.38679E+02 6.17405E-10 1.04023E-09
 -1       867-8.31605E+04 1.47431E+02 3.46419E+02 4.30574E+03-1.47838E-09 1.38674E-08
 -1       868-8.33113E+04-1.22272E+02 5.82056E+02-4.22070E+02 1.30228E-10-1.38428E-09
 -1       869-8.27255E+04 1.01462E+03 1.55988E+03 4.26225E+03-5.59115E-09-2.67090E-09
 -1       870-8.36840E+04-8.63055E+02 2.26227E+03-3.95188E+02 1.92006E-09 2.12299E-09
 -1       871-3.99119E+03-8.84275E+03-1.29770E+04 8.50285E+04 2.34286E-09-1.77533E-09
 -1       872-1.72982E+03-1.17511E+04-5.30580E+03 1.10236E+05 3.68209E-09 1.19612E-08
 -1       873-3.59845E+01-1.03913E+04 7.15660E+02 8.48422E+04 1.22691E-09 2.76077E-09
 -1       874 1.97701E+03-8.52671E+03 7.26754E+03 1.10273E+05 3.47700E-09 1.90084E-09
 -1       875 4.67614E+03-1.21178E+04 1.61443E+04 8.49990E+04 1.84264E-09 1.54068E-09
 -1       876 2.10110E+05 3.61827E+04 1.11668E+04 8.52322E+04-3.34649E-09-1.22327E-09
 -1       877 2.10739E+05 3.86437E+04 5.96333E+03 8.85457E+04-3.56431E-09-3.82988E-09
 -1       878 2.11154E+05 3.49466E+04 2.49836E+03 8.61489E+04 3.78532E-09-5.25870E-09
 -1       879 2.09219E+05 3.71311E+04 1.24460E+03 8.86248E+04 9.46795E-09 6.21975E-09
 -1       880 2.11230E+05 3.49330E+04 5.79495E+02 8.61862E+04 9.94487E-09 6.08594E-09
 -1       881 2.09119E+05 3.70668E+04 3.08805E+02 8.86089E+04 6.01403E-09 7.50526E-09
 -1       882 2.11237E+05 3.49422E+04 1.96449E+02 8.61873E+04 6.69593E-09-1.42343E-10
 -1       883 2.09111E+05 3.70638E+04 2.09391E+02 8.86042E+04 3.06227E-09-2.49116E-09
 -1       884 2.11233E+05 3.49398E+04 3.31467E+02 8.61874E+04-2.32689E-09-6.58724E-09
 -1       885 2.09138E+05 3.70685E+04 6.65420E+02 8.86126E+04 5.11966E-09 1.07769E-08
 -1       886 2.11207E+05 3.49204E+04 1.34065E+03 8.61848E+04 2.64205E-09 4.49359E-09
 -1       887 2.09373E+05 3.72229E+04 2.92833E+03 8.86465E+04-2.19498E-09-9.49422E-09
 -1       888 2.11022E+05 3.49530E+04 5.90066E+03 8.60910E+04-5.08237E-10-4.21096E-10
 -1       889 2.12890E+05 4.08734E+04 1.40962E+04 8.85350E+04-9.16072E-09-9.43351E-09
 -1       890 2.08618E+05 3.78088E+04 2.64011E+04 8.38401E+04-1.74509E-09 1.90812E-09
 -1       891-1.30136E+02-1.19191E+05-1.41065E+03 2.24614E+04 1.10617E-10 2.17995E-09
 -1       892-2.26730E+02-1.19529E+05-1.53339E+03 3.39917E+04-8.50605E-10-7.15886E-10
 -1       893-3.66342E+01-1.19235E+05-2.19003E+03 2.24658E+04 7.99901E-10 7.32643E-09
 -1       894-1.19638E+03-1.20368E+05-4.54633E+03 3.38705E+04-1.71030E-09 2.48451E-09
 -1       895-9.35630E+02-1.18289E+05-8.01134E+03 2.25809E+04-3.28669E-10 1.39971E-09
 -1       956-2.64713E+05-3.79996E+03-9.56494E+03 1.78188E+04-2.47110E-09-4.52883E-09
 -1       957-2.66602E+05-1.28187E+03-4.91023E+03 2.14582E+04-2.62298E-09-6.07247E-09
 -1       958-2.65562E+05-1.02131E+02-2.21222E+03 1.77044E+04 4.51655E-09 1.15779E-09
 -1       959-2.65713E+05-1.72785E+01-1.12993E+03 2.15823E+04 7.38646E-09 8.19182E-09
 -1       960-2.65638E+05 3.21956E+01-5.50789E+02 1.76935E+04 1.34651E-09 6.95150E-09
 -1       961-2.65648E+05 3.05968E+01-2.92061E+02 2.15947E+04-5.32918E-09 7.41329E-09
 -1       962-2.65654E+05 2.85285E+01-1.66862E+02 1.76918E+04-1.85742E-09-5.55633E-09
 -1       963-2.65646E+05 3.19343E+01-1.33366E+02 2.15969E+04-3.52520E-09 8.09928E-09
 -1       964-2.65657E+05 3.04809E+01-1.61190E+02 1.76912E+04-9.84869E-10 1.81717E-09
 -1       965-2.65656E+05 3.48613E+01-2.77937E+02 2.15970E+04 2.22731E-09 4.66650E-09
 -1       966-2.65649E+05 3.79605E+01-5.21395E+02 1.76918E+04-3.11991E-09 1.92085E-09
 -1       967-2.65724E+05-6.27493E+00-1.06921E+03 2.15901E+04-2.78226E-09-1.12144E-08
 -1       968-2.65583E+05-8.52122E+01-2.09234E+03 1.76983E+04-1.20576E-08-1.14001E-08
 -1       969-2.66573E+05-1.19914E+03-4.64557E+03 2.15143E+04-2.06937E-08-1.01352E-08
 -1       970-2.64784E+05-3.58130E+03-9.04859E+03 1.77699E+04-9.11541E-09-2.35377E-09
 -1       971-2.50509E+05-1.31429E+03-7.30861E+03 1.21024E+04-3.15276E-09-1.04562E-08
 -1       972-2.52287E+05-9.41937E+02-3.98030E+03 1.69033E+04-3.78782E-09-8.62883E-10
 -1       973-2.51322E+05-8.30695E+00-1.78225E+03 1.20016E+04-5.41786E-09 8.09609E-09
 -1       974-2.51445E+05-8.16568E+00-9.23338E+02 1.70121E+04 5.63205E-10-1.51954E-09
 -1       975-2.51385E+05 2.56975E+01-4.60499E+02 1.19925E+04 4.01542E-09 2.92823E-09
 -1       976-2.51395E+05 2.99205E+01-2.63886E+02 1.70232E+04-8.89031E-11-1.24039E-08
 -1       977-2.51396E+05 2.53648E+01-1.88267E+02 1.19905E+04 2.30557E-09-3.35672E-09
 -1       978-2.51398E+05 3.40696E+01-2.15908E+02 1.70260E+04 1.02077E-08 7.30984E-09
 -1       979-2.51396E+05 3.11258E+01-3.43081E+02 1.19896E+04 4.81072E-09 5.23630E-09
 -1       980-2.51423E+05 3.61462E+01-6.60055E+02 1.70265E+04 3.67463E-09-9.46716E-09
 -1       981-2.51375E+05 4.75647E+01-1.27710E+03 1.19900E+04 2.66255E-09-1.64891E-09
 -1       982-2.51598E+05-5.80653E+01-2.63902E+03 1.70214E+04 1.24817E-09-5.90178E-09
 -1       983-2.51215E+05-3.39745E+01-5.12721E+03 1.19949E+04 3.09046E-09-4.59033E-09
 -1       984-2.54064E+05-2.73540E+03-1.14816E+04 1.69530E+04-2.04818E-09-5.03974E-10
 -1       985-2.48894E+05-3.78557E+03-2.10839E+04 1.20631E+04 4.48654E-09 6.31280E-09
 -3
    1PSTEP                        11           6           1          
  100CL  106 5.39062E-01         409                     0    6           1
 -4  DISP        4    1
 -5  D1          1    2    1    0
 -5  D2          1    2    2    0
 -5  D3          1    2    3    0
 -5  ALL         1    2    0    0    1ALL
 -1         1 1.83156E-04 0.00000E+00 0.00000E+00
 -1         2 1.62687E-04 7.54473E-32 3.30872E-24
 -1         3 1.63616E-04-3.65637E-28-1.32349E-23
 -1         5 1.07188E-04 4.09234E-26 3.30872E-24
 -1         8 1.57745E-04-8.71086E-07 0.00000E+00
 -1         9 1.51552E-04-6.44679E-07 0.00000E+00
 -1        10 1.50554E-04-2.19925E-06-1.32349E-23
 -1        12 1.06926E-04 5.92449E-07-3.30872E-24
 -1        15 1.27426E-04-9.68855E-07 0.00000E+00
 -1        16 1.32470E-04-8.44143E-07 0.00000E+00
 -1        17 1.09266E-04-4.69360E-06 0.00000E+00
 -1        18 1.04971E-04 4.79363E-06 0.00000E+00
 -1        19 1.06141E-04 1.18182E-06 0.00000E+00
 -1        20 1.06287E-04 1.31859E-05 0.00000E+00
 -1        21 1.05689E-04 2.39136E-05 0.00000E+00
 -1        24 2.23271E-05-6.57133E-06 0.00000E+00
 -1        25 1.04894E-04 4.93333E-06 0.00000E+00
 -1        26 1.05800E-04 1.64227E-06 0.00000E+00
 -1        27 1.04158E-04 1.05332E-05 0.00000E+00
 -1        28 1.03688E-04 2.34118E-05 0.00000E+00
 -1        32 0.00000E+00 0.00000E+00 0.00000E+00
 -1        33 1.04210E-04 2.20138E-06 0.00000E+00
 -1        34 1.02609E-04 1.05074E-05 0.00000E+00
 -1        35 1.01101E-04 2.31451E-05 0.00000E+00
 -1        51 1.81507E-04-1.44911E-07 0.00000E+00
 -1        52 1.78448E-04-2.83859E-07 0.00000E+00
 -1        53 1.74254E-04-4.24035E-07 0.00000E+00
 -1        54 1.69213E-04-5.67142E-07 3.30872E-24
 -1        55 1.63614E-04-7.14070E-07-5.99706E-24
 -1        56 1.81552E-04-8.48030E-07 2.64698E-23
 -1        57 1.80034E-04-2.10836E-06 2.64698E-23
 -1        58 1.78622E-04-3.64283E-06 0.00000E+00
 -1        59 1.77256E-04-5.33062E-06 0.00000E+00
 -1        60 1.75893E-04-7.02965E-06 0.00000E+00
 -1        61 1.74481E-04-8.60168E-06 0.00000E+00
 -1        62 1.72973E-04-9.91819E-06-5.29396E-23
 -1        63 1.71325E-04-1.08617E-05 0.00000E+00
 -1        64 1.69505E-04-1.13455E-05 0.00000E+00
 -1        65 1.67487E-04-1.13016E-05-2.64698E-23
 -1        66 1.65261E-04-1.07058E-05 0.00000E+00
 -1        67 1.62829E-04-9.55595E-06-2.64698E-23
 -1        68 1.60204E-04-7.89655E-06 5.29396E-23
 -1        69 1.57421E-04-5.78935E-06 0.00000E+00
 -1        70 1.54504E-04-3.34023E-06 0.00000E+00
 -1        86 1.62353E-04-1.00656E-07 3.30872E-24
 -1        87 1.61353E-04-2.02266E-07 0.00000E+00
 -1        88 1.59723E-04-3.04746E-07 0.00000E+00
 -1        89 1.57499E-04-4.11644E-07 0.00000E+00
 -1        90 1.54752E-04-5.18662E-07 0.00000E+00
 -1       121 1.63251E-04-3.63455E-07 0.00000E+00
 -1       122 1.62155E-04-7.27430E-07 6.61744E-24
 -1       123 1.60332E-04-1.09244E-06 0.00000E+00
 -1       124 1.57787E-04-1.45904E-06 6.61744E-24
 -1       125 1.54525E-04-1.82762E-06-1.32349E-23
 -1       191 1.07180E-04 9.87462E-08 3.30872E-24
 -1       192 1.07159E-04 1.97491E-07 0.00000E+00
 -1       193 1.07122E-04 2.96236E-07 3.30872E-24
 -1       194 1.07071E-04 3.94978E-07 1.65436E-24
 -1       195 1.07006E-04 4.93717E-07-6.61744E-24
 -1       251 1.57353E-04 3.86194E-06 0.00000E+00
 -1       252 1.56962E-04 7.92269E-06 0.00000E+00
 -1       253 1.56575E-04 1.10107E-05 0.00000E+00
 -1       254 1.56190E-04 1.28405E-05 6.61744E-24
 -1       255 1.55807E-04 1.33632E-05 0.00000E+00
 -1       256 1.55423E-04 1.25500E-05 0.00000E+00
 -1       257 1.55039E-04 1.06232E-05-1.32349E-23
 -1       258 1.54652E-04 7.82255E-06-6.61744E-24
 -1       259 1.54263E-04 4.55171E-06 1.32349E-23
 -1       260 1.53875E-04 1.22186E-06 0.00000E+00
 -1       261 1.53487E-04-1.74475E-06 1.32349E-23
 -1       262 1.53101E-04-3.93165E-06 6.61744E-24
 -1       263 1.52717E-04-5.06874E-06 0.00000E+00
 -1       264 1.52332E-04-4.90237E-06 6.61744E-24
 -1       265 1.51947E-04-3.42376E-06 0.00000E+00
 -1       266 1.52692E-04-8.99484E-07 0.00000E+00
 -1       267 1.47639E-04-9.14304E-07-1.65436E-24
 -1       268 1.42586E-04-9.29983E-07 1.65436E-24
 -1       269 1.37532E-04-9.43115E-07 4.13590E-25
 -1       270 1.32479E-04-9.56187E-07-4.13590E-25
 -1       271 1.54723E-04 3.08638E-06 2.64698E-23
 -1       272 1.52078E-04 5.91587E-06 1.32349E-23
 -1       273 1.49824E-04 7.71762E-06 0.00000E+00
 -1       274 1.47912E-04 8.58998E-06 0.00000E+00
 -1       275 1.46304E-04 8.65380E-06 0.00000E+00
 -1       276 1.44948E-04 8.04154E-06 2.64698E-23
 -1       277 1.43791E-04 6.89881E-06 0.00000E+00
 -1       278 1.42774E-04 5.38016E-06-2.64698E-23
 -1       279 1.41837E-04 3.64717E-06 5.29396E-23
 -1       280 1.40919E-04 1.86522E-06 0.00000E+00
 -1       281 1.39957E-04 2.00477E-07-5.29396E-23
 -1       282 1.38890E-04-1.18280E-06 0.00000E+00
 -1       283 1.37659E-04-2.12584E-06 5.29396E-23
 -1       284 1.36212E-04-2.47591E-06-1.32349E-23
 -1       285 1.34488E-04-2.09481E-06-2.64698E-23
 -1       301 1.48019E-04-6.92387E-07 6.61744E-24
 -1       302 1.44514E-04-7.17671E-07 0.00000E+00
 -1       303 1.41122E-04-7.41438E-07 0.00000E+00
 -1       304 1.37928E-04-7.65362E-07 0.00000E+00
 -1       305 1.35017E-04-7.90574E-07-1.32349E-23
 -1       306 1.49633E-04-2.24856E-06 0.00000E+00
 -1       307 1.50683E-04-1.21077E-05 0.00000E+00
 -1       308 1.54124E-04-2.85567E-05-5.29396E-23
 -1       309 1.59150E-04-4.95032E-05 2.64698E-23
 -1       310 1.64687E-04-7.18943E-05-5.29396E-23
 -1       311 1.69619E-04-9.25800E-05 0.00000E+00
 -1       312 1.72949E-04-1.08772E-04 0.00000E+00
 -1       313 1.73756E-04-1.17998E-04 0.00000E+00
 -1       314 1.71612E-04-1.19257E-04 0.00000E+00
 -1       315 1.66274E-04-1.12091E-04 0.00000E+00
 -1       316 1.58178E-04-9.78056E-05 5.29396E-23
 -1       317 1.47976E-04-7.81755E-05 2.64698E-23
 -1       318 1.36793E-04-5.60831E-05 0.00000E+00
 -1       319 1.25856E-04-3.45627E-05 0.00000E+00
 -1       320 1.16304E-04-1.65467E-05-5.29396E-23
 -1       336 1.45792E-04-2.60293E-06-1.32349E-23
 -1       337 1.40157E-04-3.01149E-06 0.00000E+00
 -1       338 1.33665E-04-3.42491E-06-1.32349E-23
 -1       339 1.26337E-04-3.84323E-06 0.00000E+00
 -1       340 1.18196E-04-4.26765E-06 6.61744E-24
 -1       406 1.06832E-04 6.91168E-07-3.30872E-24
 -1       407 1.06723E-04 7.89855E-07-1.65436E-24
 -1       408 1.06599E-04 8.88481E-07-3.30872E-24
 -1       409 1.06461E-04 9.86927E-07 0.00000E+00
 -1       410 1.06308E-04 1.08500E-06 3.30872E-24
 -1       521 1.36465E-04-2.11476E-05 5.29396E-23
 -1       522 1.54166E-04-8.29845E-05 5.29396E-23
 -1       523 1.81201E-04-1.76186E-04 0.00000E+00
 -1       524 2.13160E-04-2.87712E-04 5.29396E-23
 -1       525 2.45417E-04-4.00372E-04-1.05879E-22
 -1       526 2.73349E-04-4.96870E-04 0.00000E+00
 -1       527 2.92541E-04-5.63589E-04 0.00000E+00
 -1       528 2.98446E-04-5.89653E-04 5.29396E-23
 -1       529 2.88497E-04-5.73029E-04 0.00000E+00
 -1       530 2.61378E-04-5.15322E-04-5.29396E-23
 -1       531 2.20045E-04-4.26511E-04 1.05879E-22
 -1       532 1.69450E-04-3.18808E-04 0.00000E+00
 -1       533 1.17350E-04-2.08091E-04 1.05879E-22
 -1       534 7.17612E-05-1.10417E-04 1.05879E-22
 -1       535 3.86748E-05-3.93567E-05 0.00000E+00
 -1       536 1.09054E-04 7.98170E-06 0.00000E+00
 -1       537 1.08745E-04 2.73395E-05 0.00000E+00
 -1       538 1.08358E-04 5.05603E-05 3.30872E-24
 -1       539 1.07949E-04 7.48043E-05 0.00000E+00
 -1       540 1.07586E-04 9.69639E-05 0.00000E+00
 -1       541 1.07320E-04 1.13943E-04 0.00000E+00
 -1       542 1.07142E-04 1.23975E-04 3.30872E-24
 -1       543 1.07012E-04 1.25333E-04 0.00000E+00
 -1       544 1.06861E-04 1.18485E-04-3.30872E-24
 -1       545 1.06630E-04 1.03946E-04 0.00000E+00
 -1       546 1.06317E-04 8.41870E-05 3.30872E-24
 -1       547 1.05948E-04 6.17082E-05-1.65436E-24
 -1       548 1.05589E-04 3.97115E-05 0.00000E+00
 -1       549 1.05303E-04 2.13966E-05 1.65436E-24
 -1       550 1.05102E-04 9.01755E-06 1.65436E-24
 -1       551 9.77248E-05-4.96763E-06 6.61744E-24
 -1       552 8.40295E-05-5.26228E-06 3.30872E-24
 -1       553 6.89059E-05-5.57530E-06-1.65436E-24
 -1       554 5.30907E-05-5.90038E-06 0.00000E+00
 -1       555 3.73205E-05-6.22760E-06 0.00000E+00
 -1       556 1.06139E-04 3.39301E-06 0.00000E+00
 -1       557 1.03704E-04 9.70504E-06 1.32349E-23
 -1       558 1.01887E-04 1.43978E-05 0.00000E+00
 -1       559 1.00624E-04 1.76394E-05 0.00000E+00
 -1       560 9.98460E-05 1.95978E-05 0.00000E+00
 -1       561 9.94884E-05 2.04421E-05 0.00000E+00
 -1       562 9.94859E-05 2.03415E-05 1.32349E-23
 -1       563 9.97742E-05 1.94656E-05 0.00000E+00
 -1       564 1.00289E-04 1.79841E-05 0.00000E+00
 -1       565 1.00967E-04 1.60670E-05 0.00000E+00
 -1       566 1.01743E-04 1.38842E-05 0.00000E+00
 -1       567 1.02556E-04 1.16059E-05-3.10193E-25
 -1       568 1.03341E-04 9.40209E-06 0.00000E+00
 -1       569 1.04034E-04 7.44269E-06 0.00000E+00
 -1       570 1.04573E-04 5.89763E-06 0.00000E+00
 -1       571 1.05042E-04 4.58775E-06 1.24077E-24
 -1       572 1.05115E-04 4.33580E-06 6.20385E-25
 -1       573 1.05188E-04 4.04669E-06 0.00000E+00
 -1       574 1.05261E-04 3.72973E-06-8.27181E-25
 -1       575 1.05335E-04 3.39431E-06 1.65436E-24
 -1       576 1.05408E-04 3.04984E-06 8.27181E-25
 -1       577 1.05481E-04 2.70576E-06 0.00000E+00
 -1       578 1.05555E-04 2.37151E-06 0.00000E+00
 -1       579 1.05628E-04 2.05654E-06 0.00000E+00
 -1       580 1.05701E-04 1.77027E-06 0.00000E+00
 -1       581 1.05775E-04 1.52217E-06 3.30872E-24
 -1       582 1.05848E-04 1.32164E-06-6.61744E-24
 -1       583 1.05922E-04 1.17812E-06 0.00000E+00
 -1       584 1.05995E-04 1.10092E-06 0.00000E+00
 -1       585 1.06068E-04 1.09932E-06 3.30872E-24
 -1       586 1.04919E-04 4.81841E-06 0.00000E+00
 -1       587 1.04839E-04 4.84260E-06-2.06795E-25
 -1       588 1.04765E-04 4.86653E-06-8.27181E-25
 -1       589 1.04728E-04 4.89004E-06 0.00000E+00
 -1       590 1.04761E-04 4.91285E-06 0.00000E+00
 -1       591 1.05013E-04 4.63049E-06 1.55096E-25
 -1       592 1.05065E-04 4.43466E-06 2.06795E-25
 -1       593 1.05126E-04 4.21274E-06-4.13590E-25
 -1       594 1.05194E-04 3.97062E-06 0.00000E+00
 -1       595 1.05267E-04 3.71425E-06 8.27181E-25
 -1       596 1.05344E-04 3.44953E-06 0.00000E+00
 -1       597 1.05421E-04 3.18238E-06-4.13590E-25
 -1       598 1.05497E-04 2.91868E-06-4.13590E-25
 -1       599 1.05570E-04 2.66433E-06 4.13590E-25
 -1       600 1.05637E-04 2.42524E-06-2.06795E-25
 -1       601 1.05696E-04 2.20729E-06 0.00000E+00
 -1       602 1.05745E-04 2.01638E-06-1.03398E-25
 -1       603 1.05782E-04 1.85843E-06 0.00000E+00
 -1       604 1.05804E-04 1.73939E-06 0.00000E+00
 -1       605 1.05810E-04 1.66512E-06 0.00000E+00
 -1       606 1.06154E-04 1.42946E-06 0.00000E+00
 -1       607 1.06164E-04 1.77364E-06 0.00000E+00
 -1       608 1.06174E-04 2.20868E-06 0.00000E+00
 -1       609 1.06183E-04 2.72820E-06 0.00000E+00
 -1       610 1.06192E-04 3.32578E-06 3.30872E-24
 -1       611 1.06201E-04 3.99490E-06 0.00000E+00
 -1       612 1.06210E-04 4.72905E-06 0.00000E+00
 -1       613 1.06219E-04 5.52170E-06 0.00000E+00
 -1       614 1.06228E-04 6.36632E-06 0.00000E+00
 -1       615 1.06236E-04 7.25639E-06-8.27181E-25
 -1       616 1.06245E-04 8.18540E-06 0.00000E+00
 -1       617 1.06254E-04 9.14680E-06 0.00000E+00
 -1       618 1.06262E-04 1.01341E-05 0.00000E+00
 -1       619 1.06271E-04 1.11407E-05 0.00000E+00
 -1       620 1.06279E-04 1.21602E-05 0.00000E+00
 -1       621 1.06003E-04 1.25868E-06 1.65436E-24
 -1       622 1.05910E-04 1.33584E-06-8.27181E-25
 -1       623 1.05852E-04 1.41299E-06 0.00000E+00
 -1       624 1.05821E-04 1.49001E-06 8.27181E-25
 -1       625 1.05806E-04 1.56690E-06-1.65436E-24
 -1       626 1.06133E-04 1.45545E-06 0.00000E+00
 -1       627 1.06096E-04 1.80874E-06-1.65436E-24
 -1       628 1.06032E-04 2.23390E-06 0.00000E+00
 -1       629 1.05945E-04 2.72269E-06 0.00000E+00
 -1       630 1.05836E-04 3.26686E-06 3.30872E-24
 -1       631 1.05710E-04 3.85810E-06 0.00000E+00
 -1       632 1.05569E-04 4.48810E-06 0.00000E+00
 -1       633 1.05417E-04 5.14859E-06-1.65436E-24
 -1       634 1.05257E-04 5.83124E-06 0.00000E+00
 -1       635 1.05091E-04 6.52775E-06-1.65436E-24
 -1       636 1.04923E-04 7.22985E-06-3.30872E-24
 -1       637 1.04756E-04 7.92921E-06 1.65436E-24
 -1       638 1.04593E-04 8.61755E-06-1.65436E-24
 -1       639 1.04438E-04 9.28654E-06 8.27181E-25
 -1       640 1.04292E-04 9.92789E-06 1.65436E-24
 -1       656 1.05476E-04 1.27543E-05-6.61744E-24
 -1       657 1.05041E-04 1.23054E-05-6.61744E-24
 -1       658 1.04842E-04 1.18579E-05-1.32349E-23
 -1       659 1.04738E-04 1.14108E-05 0.00000E+00
 -1       660 1.04564E-04 1.09623E-05 0.00000E+00
 -1       661 1.05988E-04 1.41822E-05 8.27181E-25
 -1       662 1.05714E-04 1.51185E-05 8.27181E-25
 -1       663 1.05462E-04 1.59967E-05 0.00000E+00
 -1       664 1.05231E-04 1.68204E-05 8.27181E-25
 -1       665 1.05019E-04 1.75923E-05 0.00000E+00
 -1       666 1.04826E-04 1.83154E-05-8.27181E-25
 -1       667 1.04650E-04 1.89924E-05 1.65436E-24
 -1       668 1.04491E-04 1.96259E-05 0.00000E+00
 -1       669 1.04347E-04 2.02185E-05 0.00000E+00
 -1       670 1.04217E-04 2.07726E-05 8.27181E-25
 -1       671 1.04101E-04 2.12906E-05-1.65436E-24
 -1       672 1.03997E-04 2.17746E-05 0.00000E+00
 -1       673 1.03906E-04 2.22269E-05 0.00000E+00
 -1       674 1.03824E-04 2.26493E-05-8.27181E-25
 -1       675 1.03754E-04 2.30442E-05 0.00000E+00
 -1       676 1.05354E-04 2.38295E-05 0.00000E+00
 -1       677 1.05020E-04 2.37454E-05-1.65436E-24
 -1       678 1.04686E-04 2.36613E-05 0.00000E+00
 -1       679 1.04353E-04 2.35775E-05 0.00000E+00
 -1       680 1.04020E-04 2.34937E-05 0.00000E+00
 -1       771 1.66086E-05 5.22947E-06 5.29396E-23
 -1       772 1.16999E-05 1.49069E-05 0.00000E+00
 -1       773 7.56500E-06 2.25729E-05 0.00000E+00
 -1       774 4.15245E-06 2.83495E-05 0.00000E+00
 -1       775 1.41166E-06 3.23621E-05 5.29396E-23
 -1       776-7.10220E-07 3.47418E-05 0.00000E+00
 -1       777-2.26657E-06 3.56231E-05-5.29396E-23
 -1       778-3.31200E-06 3.51450E-05-2.64698E-23
 -1       779-3.90142E-06 3.34494E-05 0.00000E+00
 -1       780-4.09081E-06 3.06818E-05 2.64698E-23
 -1       781-3.93622E-06 2.69901E-05 0.00000E+00
 -1       782-3.49453E-06 2.25249E-05 0.00000E+00
 -1       783-2.82264E-06 1.74386E-05 0.00000E+00
 -1       784-1.97801E-06 1.18853E-05 0.00000E+00
 -1       785-1.01807E-06 6.02038E-06 0.00000E+00
 -1       786 1.04947E-04 4.59010E-06 0.00000E+00
 -1       787 1.05004E-04 4.27265E-06 4.13590E-25
 -1       788 1.05060E-04 3.97653E-06 1.65436E-24
 -1       789 1.05117E-04 3.69739E-06 8.27181E-25
 -1       790 1.05173E-04 3.43309E-06 1.65436E-24
 -1       791 1.05230E-04 3.18150E-06 0.00000E+00
 -1       792 1.05287E-04 2.94221E-06-1.65436E-24
 -1       793 1.05344E-04 2.71481E-06 8.27181E-25
 -1       794 1.05401E-04 2.50044E-06 0.00000E+00
 -1       795 1.05458E-04 2.30031E-06 0.00000E+00
 -1       796 1.05515E-04 2.11747E-06 0.00000E+00
 -1       797 1.05572E-04 1.95502E-06 8.27181E-25
 -1       798 1.05629E-04 1.81873E-06 1.65436E-24
 -1       799 1.05686E-04 1.71447E-06 0.00000E+00
 -1       800 1.05743E-04 1.65226E-06 0.00000E+00
 -1       801 9.76355E-05 4.30149E-06 0.00000E+00
 -1       802 7.51581E-05 3.42849E-06-6.61744E-24
 -1       803 4.61959E-05 2.40650E-06 0.00000E+00
 -1       804 1.96683E-05 1.44139E-06-1.32349E-23
 -1       805 2.15777E-06 6.57937E-07 2.64698E-23
 -1       806 1.04939E-04 4.54057E-06 0.00000E+00
 -1       807 1.04975E-04 4.16067E-06-8.27181E-25
 -1       808 1.05004E-04 3.79796E-06 1.65436E-24
 -1       809 1.05025E-04 3.45591E-06 8.27181E-25
 -1       810 1.05037E-04 3.13800E-06-3.30872E-24
 -1       811 1.05039E-04 2.84763E-06-8.27181E-25
 -1       812 1.05028E-04 2.58818E-06 3.30872E-24
 -1       813 1.05006E-04 2.36305E-06-8.27181E-25
 -1       814 1.04968E-04 2.17560E-06 1.65436E-24
 -1       815 1.04916E-04 2.02921E-06-1.65436E-24
 -1       816 1.04847E-04 1.92725E-06-1.65436E-24
 -1       817 1.04760E-04 1.87309E-06 0.00000E+00
 -1       818 1.04654E-04 1.87008E-06 1.65436E-24
 -1       819 1.04527E-04 1.92157E-06-8.27181E-25
 -1       820 1.04379E-04 2.03092E-06-3.30872E-24
 -1       821 1.05703E-04 1.62235E-06 8.27181E-25
 -1       822 1.05600E-04 1.53159E-06-8.27181E-25
 -1       823 1.05498E-04 1.43921E-06 0.00000E+00
 -1       824 1.05395E-04 1.41446E-06 0.00000E+00
 -1       825 1.05292E-04 1.51217E-06 0.00000E+00
 -1       826 1.05188E-04 1.78661E-06 0.00000E+00
 -1       827 1.05084E-04 2.25446E-06 0.00000E+00
 -1       828 1.04980E-04 2.93152E-06-1.65436E-24
 -1       829 1.04876E-04 3.78911E-06-3.30872E-24
 -1       830 1.04772E-04 4.79771E-06 0.00000E+00
 -1       831 1.04668E-04 5.89571E-06 3.30872E-24
 -1       832 1.04564E-04 7.02106E-06-1.65436E-24
 -1       833 1.04460E-04 8.10590E-06 0.00000E+00
 -1       834 1.04358E-04 9.08258E-06 0.00000E+00
 -1       835 1.04255E-04 9.90634E-06-8.27181E-25
 -1       836 1.05693E-04 1.73533E-06 0.00000E+00
 -1       837 1.05473E-04 1.83048E-06 0.00000E+00
 -1       838 1.05176E-04 1.92547E-06 0.00000E+00
 -1       839 1.04842E-04 2.01984E-06 0.00000E+00
 -1       840 1.04507E-04 2.11405E-06 4.13590E-25
 -1       856 1.04132E-04 1.11209E-05-2.06795E-25
 -1       857 1.04103E-04 1.18199E-05 0.00000E+00
 -1       858 1.04074E-04 1.26129E-05-8.27181E-25
 -1       859 1.04045E-04 1.34821E-05 0.00000E+00
 -1       860 1.04015E-04 1.44100E-05 0.00000E+00
 -1       861 1.03986E-04 1.53789E-05-4.13590E-25
 -1       862 1.03956E-04 1.63709E-05 8.27181E-25
 -1       863 1.03926E-04 1.73682E-05-4.13590E-25
 -1       864 1.03896E-04 1.83531E-05 0.00000E+00
 -1       865 1.03866E-04 1.93078E-05 0.00000E+00
 -1       866 1.03837E-04 2.02145E-05 0.00000E+00
 -1       867 1.03807E-04 2.10555E-05-4.13590E-25
 -1       868 1.03777E-04 2.18133E-05 8.27181E-25
 -1       869 1.03748E-04 2.24702E-05 4.13590E-25
 -1       870 1.03718E-04 2.30088E-05 0.00000E+00
 -1       871 1.03786E-04 1.05320E-05 0.00000E+00
 -1       872 1.03523E-04 1.05285E-05 0.00000E+00
 -1       873 1.03323E-04 1.05246E-05-4.13590E-25
 -1       874 1.03136E-04 1.05202E-05 1.03398E-25
 -1       875 1.02914E-04 1.05152E-05-6.20385E-25
 -1       876 1.04037E-04 1.11308E-05 0.00000E+00
 -1       877 1.03897E-04 1.17827E-05 0.00000E+00
 -1       878 1.03740E-04 1.24823E-05 0.00000E+00
 -1       879 1.03567E-04 1.32235E-05-1.65436E-24
 -1       880 1.03381E-04 1.40003E-05 3.30872E-24
 -1       881 1.03184E-04 1.48064E-05 0.00000E+00
 -1       882 1.02979E-04 1.56359E-05 0.00000E+00
 -1       883 1.02766E-04 1.64826E-05 0.00000E+00
 -1       884 1.02550E-04 1.73404E-05 0.00000E+00
 -1       885 1.02332E-04 1.82033E-05 0.00000E+00
 -1       886 1.02114E-04 1.90653E-05 3.30872E-24
 -1       887 1.01898E-04 1.99201E-05-1.65436E-24
 -1       888 1.01688E-04 2.07619E-05 1.65436E-24
 -1       889 1.01484E-04 2.15842E-05-8.27181E-25
 -1       890 1.01289E-04 2.23811E-05 8.27181E-25
 -1       891 1.03377E-04 2.33672E-05-8.27181E-25
 -1       892 1.03047E-04 2.33224E-05 0.00000E+00
 -1       893 1.02677E-04 2.32776E-05 8.27181E-25
 -1       894 1.02243E-04 2.32330E-05-4.13590E-25
 -1       895 1.01725E-04 2.31884E-05-8.27181E-25
 -1       956 1.04112E-04 2.49749E-06-1.65436E-24
 -1       957 1.04012E-04 2.85710E-06-8.27181E-25
 -1       958 1.03912E-04 3.27333E-06 3.30872E-24
 -1       959 1.03812E-04 3.73891E-06 1.65436E-24
 -1       960 1.03711E-04 4.24654E-06 3.30872E-24
 -1       961 1.03611E-04 4.78889E-06 1.65436E-24
 -1       962 1.03510E-04 5.35861E-06 3.30872E-24
 -1       963 1.03410E-04 5.94839E-06 1.65436E-24
 -1       964 1.03309E-04 6.55087E-06 3.30872E-24
 -1       965 1.03209E-04 7.15870E-06-1.65436E-24
 -1       966 1.03109E-04 7.76454E-06 0.00000E+00
 -1       967 1.03008E-04 8.36105E-06 1.65436E-24
 -1       968 1.02908E-04 8.94087E-06 0.00000E+00
 -1       969 1.02808E-04 9.49672E-06-1.65436E-24
 -1       970 1.02708E-04 1.00213E-05 0.00000E+00
 -1       971 1.02516E-04 1.10107E-05 0.00000E+00
 -1       972 1.02422E-04 1.15959E-05-1.65436E-24
 -1       973 1.02327E-04 1.22537E-05-1.65436E-24
 -1       974 1.02233E-04 1.29750E-05 0.00000E+00
 -1       975 1.02138E-04 1.37503E-05-3.30872E-24
 -1       976 1.02043E-04 1.45702E-05 1.65436E-24
 -1       977 1.01948E-04 1.54252E-05 0.00000E+00
 -1       978 1.01853E-04 1.63059E-05 1.65436E-24
 -1       979 1.01758E-04 1.72029E-05 0.00000E+00
 -1       980 1.01663E-04 1.81067E-05 0.00000E+00
 -1       981 1.01569E-04 1.90079E-05 3.30872E-24
 -1       982 1.01474E-04 1.98971E-05-1.65436E-24
 -1       983 1.01379E-04 2.07649E-05 3.30872E-24
 -1       984 1.01285E-04 2.16017E-05 0.00000E+00
 -1       985 1.01191E-04 2.23981E-05-1.65436E-24
 -3
    1PSTEP                        12           6           1          
  100CL  106 5.39062E-01         409                     0    6           1
 -4  STRESS      6    1
 -5  SXX         1    4    1    1
 -5  SYY         1    4    2    2
 -5  SZZ         1    4    3    3
 -5  SXY         1    4    1    2
 -5  SYZ         1    4    2    3
 -5  SZX         1    4    3    1
 -1         1-2.25488E+06-9.61381E+05-4.76660E+05-1.24200E+06-2.18279E-10 6.83940E-10
 -1         2 2.61631E+03-2.84277E+05 8.52813E+03-8.14890E+02-8.44693E-11-6.59367E-09
 -1         3-2.35112E+02-1.03730E+06 2.48919E+02-5.99542E+02-3.38950E-10 5.54428E-09
 -1         5-2.24631E+00 2.82539E+05 7.25532E+00 9.43572E-02 2.82636E-11 4.07636E-09
 -1         8-1.07864E+06-3.95311E+05-1.02985E+05-5.57652E+05 7.27596E-12-1.33368E-08
 -1         9-2.17559E+06-7.10355E+05-2.71151E+05-6.72819E+05 4.97967E-09-1.32713E-09
 -1        10-9.26777E+02-1.08066E+06-1.48296E+03-4.05711E+03-5.63523E-09-1.12277E-08
 -1        12 7.30265E-01 2.82554E+05 2.34950E+02 7.47058E-01 1.57083E-10 1.11868E-10
 -1        15 2.00530E+03 1.10204E+03 6.48212E+03 4.38187E+00-2.83620E-10-3.50644E-08
 -1        16-2.84384E+06-1.24724E+06-4.62597E+05-1.32291E+06 1.17482E-08 5.16108E-09
 -1        17-1.27165E+06-7.17064E+05-2.45230E+05-6.36635E+05-5.77129E-09-2.12458E-09
 -1        18-4.02911E+04-1.46838E+04-3.18635E+04-7.35128E+04 5.17207E-09-3.13457E-09
 -1        19 9.02058E+04 1.05266E+05-5.88679E+02 1.77353E+04 1.41335E-10-1.33223E-09
 -1        20-4.18429E+04-4.22733E+05-9.35658E+04 2.87838E+04 2.46246E-09 2.00149E-09
 -1        21-3.90516E+01-2.40693E+05-7.72423E+02-5.52004E+01-3.72578E-09 3.76004E-09
 -1        24-3.10120E+06-7.88148E+05-3.53308E+05-1.12243E+06-3.91349E-08-1.86750E-08
 -1        25-5.11496E+04-3.62635E+05-6.62521E+04-1.20101E+05-5.31145E-11 2.47001E-09
 -1        26-2.71250E+04 7.02165E+04-1.57906E+04-7.38062E+03 1.55342E-09 3.96741E-09
 -1        27-6.45902E+04-2.31050E+05-8.64556E+04 5.24908E+04 5.91490E-09 2.25555E-10
 -1        28 1.85641E+04-6.70384E+04 1.36298E+04 2.04210E+04 3.78435E-10-4.72865E-09
 -1        32-1.07943E+06-1.02183E+06 1.82848E+05-5.74739E+05-2.40252E-08 5.25893E-09
 -1        33-1.34281E+05 6.76533E+04 2.40592E+04-3.57670E+04 6.76588E-10 4.19429E-09
 -1        34-1.71727E+05-1.73970E+04 4.30034E+02 5.37842E+04 2.10490E-09-4.63994E-10
 -1        35-1.89069E+04-2.66220E+04-1.04796E+03 4.19218E+04 3.30856E-09 4.85306E-09
 -1        51 2.08109E+04-3.54721E+05 5.09685E+04-9.67208E+05 8.73115E-11-5.48607E-09
 -1        52 1.13127E+04-3.51463E+05 3.19617E+04-1.12801E+06 5.96629E-10-2.08383E-08
 -1        53 7.34838E+03-3.66013E+05 2.48302E+04-9.63803E+05 5.09317E-10-4.80213E-09
 -1        54 2.03252E+04-3.64629E+05 3.69646E+04-1.13153E+06 1.23691E-10-1.36570E-08
 -1        55 3.98909E+04-3.78399E+05 6.42255E+04-9.63245E+05 1.60071E-10-4.00905E-09
 -1        56-4.31098E+06-4.82607E+05-3.50710E+05-1.66519E+06-2.01544E-09-6.47560E-09
 -1        57-4.46208E+06-7.90419E+05-2.36521E+05-1.64015E+06 2.88856E-09-2.14532E-08
 -1        58-4.38154E+06-5.93794E+05-8.24760E+04-1.64300E+06-1.69166E-09-2.01326E-08
 -1        59-4.38058E+06-6.59706E+05-4.92379E+04-1.66626E+06 3.81442E-09-2.26792E-08
 -1        60-4.39156E+06-6.09579E+05-1.92355E+04-1.64032E+06-2.43290E-10-4.88672E-09
 -1        61-4.37089E+06-6.39222E+05-1.09044E+04-1.66701E+06 6.75300E-10 1.05344E-08
 -1        62-4.39100E+06-6.13816E+05-5.20644E+03-1.64234E+06-1.96246E-09-6.27773E-09
 -1        63-4.37490E+06-6.31258E+05-4.16543E+03-1.66075E+06-1.54807E-09-6.07042E-09
 -1        64-4.38743E+06-6.17544E+05-4.68013E+03-1.64653E+06 2.77396E-10-5.90626E-09
 -1        65-4.38406E+06-6.25008E+05-9.25039E+03-1.65120E+06-6.03723E-09-8.30096E-09
 -1        66-4.38182E+06-6.20145E+05-1.62210E+04-1.65184E+06 1.53432E-09 1.66647E-08
 -1        67-4.40230E+06-6.32008E+05-4.12417E+04-1.63899E+06-4.89592E-09 8.92442E-09
 -1        68-4.36937E+06-6.10935E+05-6.91290E+04-1.65865E+06 8.61291E-10 5.02041E-09
 -1        69-4.47583E+06-7.36440E+05-1.98121E+05-1.61153E+06-1.05956E-09-2.23044E-08
 -1        70-4.30920E+06-5.18774E+05-2.93831E+05-1.67835E+06-4.80213E-10 1.67347E-09
 -1        86-1.31437E+03-2.87094E+05 9.10397E+03 4.07432E+02 1.11095E-09-9.04691E-09
 -1        87 8.69257E+03-2.81391E+05 1.90275E+04-1.57477E+03 1.82831E-09-7.13055E-09
 -1        88-7.36797E+03-2.89981E+05 2.91280E+04 1.16733E+03 2.59206E-09-1.30035E-08
 -1        89 5.48808E+04-2.60096E+05 7.85199E+04-2.88970E+03 3.93629E-09-1.59437E-08
 -1        90-4.73363E+04-3.08370E+05 1.11026E+05 1.72279E+03 3.76167E-09-4.69089E-09
 -1       121-3.44374E+02-1.03821E+06 1.26212E+02 2.99116E+02 6.48370E-10-9.74796E-09
 -1       122-1.49760E+02-1.03726E+06 5.29519E+02-1.19796E+03-2.04889E-09-7.38783E-09
 -1       123-3.95338E+02-1.03827E+06 7.41577E+02 8.94938E+02 1.75567E-09 3.52156E-09
 -1       124 8.34608E+02-1.03671E+06 2.18528E+03-2.58406E+03-4.14911E-09 1.36179E-08
 -1       125-1.01108E+03-1.03882E+06 3.23548E+03 1.68284E+03 2.92584E-09-6.32463E-09
 -1       191-2.60049E+00 2.82564E+05 8.82396E+00-4.73693E-02 7.65246E-11 8.89895E-09
 -1       192-2.91149E+00 2.82540E+05 1.53540E+01 4.26039E-01 1.22601E-10 6.42103E-10
 -1       193-4.36967E+00 2.82564E+05 2.87015E+01-3.80122E-01 1.18947E-10 4.09864E-09
 -1       194-5.05235E+00 2.82542E+05 5.80563E+01 1.01656E+00 4.70584E-11-3.73097E-09
 -1       195-7.76976E+00 2.82562E+05 1.13708E+02-6.41071E-01 2.07478E-10-3.31829E-09
 -1       251-1.09319E+06 5.00862E+03-1.19306E+04-9.27025E+03-1.09048E-09-9.57698E-10
 -1       252-1.09717E+06-5.76599E+03-8.18928E+03 1.14341E+04-8.74934E-10-8.89486E-10
 -1       253-1.09574E+06 7.17986E+02-3.22657E+03-4.71865E+03-6.18570E-10-3.98586E-10
 -1       254-1.09412E+06-8.54244E+02-1.58103E+03 7.79906E+02 6.51937E-10 2.80184E-09
 -1       255-1.09617E+06 5.93672E+01-9.23809E+02 1.38405E+03-7.84212E-10 7.71269E-09
 -1       256-1.09417E+06-8.00785E+01-1.28157E+02-1.05215E+04 4.32465E-10 9.41623E-09
 -1       257-1.09573E+06-2.12321E+01-1.06980E+02 6.58258E+03-7.17876E-10 3.11324E-09
 -1       258-1.09504E+06 1.21096E+02 3.07980E+02-1.79122E+04-2.37958E-09 1.13733E-08
 -1       259-1.09539E+06-6.93210E+01 6.10092E+02 8.77512E+03-2.84416E-10-1.53441E-08
 -1       260-1.09490E+06 5.34639E+02 1.51062E+03-1.84109E+04 1.54068E-09-1.34278E-08
 -1       261-1.09587E+06-4.26817E+02 2.51560E+03 7.08129E+03 2.29318E-09-5.55190E-09
 -1       262-1.09272E+06 3.06268E+03 6.55732E+03-1.18202E+04 3.05675E-10-2.49884E-09
 -1       263-1.09748E+06-2.65822E+03 9.97866E+03 2.18414E+03-3.43789E-10 8.63247E-09
 -1       264-1.08450E+06 1.95046E+04 2.80216E+04-8.37946E+02 3.88013E-10-7.94398E-09
 -1       265-1.10402E+06-1.68582E+04 3.90793E+04-3.90089E+03-2.36867E-09-4.98403E-10
 -1       266-3.63014E+04-1.69718E+04 8.51865E+04-9.37708E+01-1.70985E-10-2.23584E-08
 -1       267 4.20846E+04 1.97852E+04 6.02020E+04 1.08177E+02-2.42835E-10-5.57260E-08
 -1       268-5.64341E+03-2.80191E+03 2.23772E+04-1.37845E+01-1.95541E-10-4.30989E-08
 -1       269 6.66328E+03 3.35355E+03 1.45444E+04 1.60560E+01-2.16232E-10-3.72831E-08
 -1       270-1.00016E+03-5.51002E+02 7.02082E+03-2.17895E+00-1.77806E-10-1.03241E-08
 -1       271-3.41254E+06-4.27056E+05-2.59171E+05-1.32960E+06 1.41154E-09 6.78119E-09
 -1       272-3.50088E+06-6.20708E+05-1.66629E+05-1.33233E+06-3.35694E-09 7.13408E-09
 -1       273-3.46268E+06-4.90298E+05-6.12323E+04-1.31648E+06 2.98223E-09-1.82263E-09
 -1       274-3.44148E+06-5.43934E+05-3.42347E+04-1.35293E+06 3.31875E-09 1.90312E-08
 -1       275-3.47116E+06-4.95194E+05-1.42646E+04-1.31250E+06 2.99588E-09 3.33694E-09
 -1       276-3.43088E+06-5.38821E+05-7.54227E+03-1.35974E+06-1.54250E-09 1.10540E-08
 -1       277-3.47370E+06-4.94189E+05-3.71040E+03-1.31040E+06-2.01544E-09-2.19438E-09
 -1       278-3.42795E+06-5.40249E+05-2.66600E+03-1.36294E+06 4.72937E-09-3.81002E-09
 -1       279-3.47447E+06-4.93450E+05-2.84344E+03-1.30959E+06-2.14982E-09-8.76139E-09
 -1       280-3.42813E+06-5.41167E+05-5.21192E+03-1.36328E+06-2.78965E-09-1.02222E-08
 -1       281-3.47359E+06-4.93281E+05-9.48916E+03-1.31009E+06-8.03311E-10 2.91857E-09
 -1       282-3.43413E+06-5.45641E+05-2.27435E+04-1.36011E+06-2.91971E-09 3.88445E-09
 -1       283-3.46829E+06-4.89718E+05-4.05322E+04-1.31237E+06-1.34173E-09 4.39650E-09
 -1       284-3.47316E+06-5.96714E+05-1.10396E+05-1.34658E+06-4.94765E-10-3.51974E-09
 -1       285-3.43496E+06-4.48029E+05-1.71714E+05-1.32123E+06-2.32831E-10-1.17871E-09
 -1       301 2.11558E+04-5.27017E+04 1.56161E+05-1.01346E+05-4.29281E-10 3.35331E-09
 -1       302 2.22476E+04-1.31739E+04 1.03754E+05-1.49008E+05 1.38607E-09 1.62709E-08
 -1       303 1.12107E+03-3.72740E+04 8.16334E+04-1.01436E+05-4.96584E-10-3.04681E-09
 -1       304 2.77426E+04-7.48764E+03 1.22289E+05-1.48548E+05 9.60426E-10 1.40071E-08
 -1       305 2.68099E+04-5.73947E+04 1.97134E+05-1.01848E+05-6.83940E-10 1.43100E-08
 -1       306-5.67781E+06-6.12459E+05-4.29733E+05-2.14090E+06 4.51109E-10-2.09548E-09
 -1       307-5.63040E+06-1.15371E+06-2.79599E+05-2.28988E+06-2.49238E-08 4.66753E-09
 -1       308-5.82741E+06-6.63137E+05-1.00779E+05-2.00882E+06-6.46969E-09 6.55564E-09
 -1       309-5.46820E+06-1.09103E+06-5.84301E+04-2.45913E+06 2.40698E-09 7.51606E-09
 -1       310-5.85146E+06-6.63726E+05-2.27552E+04-1.98125E+06 2.84581E-09-8.52560E-09
 -1       311-5.47596E+06-1.02832E+06-9.34906E+03-2.40963E+06 3.79168E-08-3.78441E-09
 -1       312-5.81394E+06-7.29441E+05-1.23318E+04-2.05446E+06 1.64437E-09 1.78916E-08
 -1       313-5.59534E+06-8.64965E+05 4.33471E+03-2.20346E+06 1.29603E-09 1.59707E-09
 -1       314-5.71901E+06-8.36363E+05-1.60874E+04-2.17771E+06 7.28323E-09-1.06229E-09
 -1       315-5.80872E+06-6.68377E+05-6.73035E+03-1.98092E+06-1.17861E-08 1.05210E-08
 -1       316-5.60447E+06-9.23233E+05-2.96372E+04-2.27949E+06-2.91766E-08-2.42580E-08
 -1       317-5.99626E+06-5.66313E+05-6.68242E+04-1.85208E+06 3.07857E-08-1.46711E-08
 -1       318-5.54506E+06-9.29372E+05-1.12878E+05-2.31680E+06-2.79942E-08 1.03682E-08
 -1       319-6.08799E+06-7.70423E+05-3.27016E+05-1.82999E+06-9.70613E-09 5.00950E-09
 -1       320-5.51207E+06-7.23211E+05-4.88671E+05-2.29939E+06 1.43045E-08 4.07454E-10
 -1       336 5.61887E+02-1.12392E+06-6.32545E+03 2.36351E+03-1.10881E-08-6.56109E-09
 -1       337-2.33647E+03-1.12508E+06-7.00330E+03-5.83164E+03-1.98468E-08-1.41736E-08
 -1       338 3.78307E+02-1.12406E+06-9.21625E+03 3.44789E+03-1.40990E-08-3.88900E-09
 -1       339-9.52493E+03-1.12970E+06-2.01479E+04-7.95438E+03-2.60261E-08 9.68066E-09
 -1       340 6.31914E+03-1.11956E+06-3.12482E+04 4.46814E+03-1.69075E-08 1.72295E-08
 -1       406 1.88226E+01 2.82551E+05 4.64000E+02-1.12774E-01 2.28255E-10-1.29194E-09
 -1       407 1.62436E+02 2.82636E+05 9.85824E+02-4.04378E+00-5.53655E-11-3.63571E-09
 -1       408 5.08291E+02 2.82480E+05 1.96907E+03 4.25445E+00 3.27418E-10-7.65590E-09
 -1       409 2.12950E+03 2.83265E+05 4.43258E+03-4.18855E+01-7.27596E-11 6.79711E-09
 -1       410 6.11711E+03 2.81921E+05 9.04904E+03 3.94079E+01 2.71029E-10-4.49018E-09
 -1       521-8.17522E+06-7.90965E+05-7.90800E+05-2.55327E+06-9.35688E-09 2.01107E-08
 -1       522-5.66686E+06-2.10003E+06-2.02617E+05-3.95279E+06-8.28768E-08-2.54440E-08
 -1       523-8.17380E+06-3.38021E+05-1.55707E+05-1.79653E+06 1.75351E-09-5.84550E-08
 -1       524-6.03671E+06-2.27804E+06-3.55530E+04-4.96022E+06 1.01308E-07-9.21568E-08
 -1       525-8.17371E+06-3.37557E+05-4.32105E+04-1.76555E+06 9.07021E-08-6.87596E-08
 -1       526-5.58130E+06-1.94438E+06 1.34045E+05-4.10027E+06-1.03100E-08-2.10930E-08
 -1       527-8.29500E+06-9.17229E+05-2.15753E+05-2.46079E+06 2.85218E-09 1.38607E-08
 -1       528-5.75613E+06-8.97563E+05 2.71600E+05-2.31237E+06 1.98634E-09 2.56114E-09
 -1       529-7.65719E+06-1.62415E+06-2.34808E+05-3.26902E+06 1.43336E-08-1.89102E-08
 -1       530-7.76729E+06 4.03118E+05 1.58548E+05-1.32088E+06-7.07005E-08 5.09353E-08
 -1       531-6.59812E+06-1.98663E+06-6.21052E+04-3.64356E+06-1.29352E-07 1.60435E-09
 -1       532-9.30344E+06 9.99591E+05-3.02393E+04-1.23151E+06 9.65083E-08-1.06161E-07
 -1       533-6.45601E+06-1.99226E+06-1.30214E+05-3.67157E+06 1.51776E-08-1.54876E-07
 -1       534-8.31139E+06 4.04986E+05-2.06124E+05-1.23352E+06-4.42378E-08 1.09819E-07
 -1       535-7.34901E+06-1.55976E+06-7.40018E+05-3.40713E+06-6.43195E-09 7.52043E-08
 -1       536-3.90307E+05-1.90801E+04 3.32610E+04-1.33665E+04-4.05328E-09 2.18097E-08
 -1       537-3.31362E+05 2.14000E+04 3.13207E+04 3.20394E+04-3.82742E-08 3.21270E-08
 -1       538-3.61661E+05-2.06857E+03 9.95897E+03-1.95364E+04 7.89159E-09 3.08901E-08
 -1       539-3.48617E+05 3.04959E+03 8.20600E+03 3.49316E+04 4.90279E-08 4.11555E-08
 -1       540-3.73285E+05-5.38371E+02 4.15883E+01-1.62656E+04 5.43957E-09 2.77176E-08
 -1       541-3.12209E+05 1.98688E+03 1.10331E+04 1.99743E+04-1.55017E-08 2.20097E-08
 -1       542-3.97090E+05-1.82011E+03-6.87669E+03-4.55927E+03 1.38598E-08 1.56847E-08
 -1       543-2.96000E+05 2.21829E+03 1.29837E+04-5.98206E+03 1.81149E-09-1.59515E-09
 -1       544-3.89077E+05-1.13349E+03-6.22310E+03 9.67158E+03-2.61946E-09-1.60498E-08
 -1       545-3.30716E+05 1.13391E+02 4.49906E+03-2.87966E+04-4.68594E-09-2.81914E-08
 -1       546-3.63270E+05 1.02842E+03-3.10208E+03 1.82514E+04 1.47924E-09-4.11019E-08
 -1       547-3.55086E+05-3.39319E+03-5.29786E+03-3.66067E+04-3.03781E-08-3.31634E-08
 -1       548-3.65302E+05 2.87999E+03-1.17438E+04 1.74965E+04-3.36026E-08-2.13313E-08
 -1       549-3.32174E+05-1.72245E+04-2.09504E+04-2.59034E+04-2.00880E-08-1.37866E-08
 -1       550-3.85407E+05 1.41979E+04-4.80222E+04 7.53025E+03 2.12208E-09-1.54123E-08
 -1       551 1.72605E+04-5.80200E+05 2.43847E+04-9.65344E+05-4.80431E-08-6.38829E-09
 -1       552 3.91990E+04-5.91813E+05 3.18109E+04-1.37495E+06-3.68163E-08 1.60362E-08
 -1       553 2.79381E+04-5.97768E+05 4.65823E+04-9.61709E+05-5.75892E-08 7.70524E-09
 -1       554 6.58415E+04-5.87575E+05 9.75954E+04-1.37639E+06-3.73839E-08-8.73115E-10
 -1       555 5.61189E+04-6.16420E+05 1.73348E+05-9.62653E+05-5.74000E-08-1.03682E-08
 -1       556 1.00527E+05-1.86150E+05 6.21345E+04-2.35263E+05-7.39237E-09-6.75209E-09
 -1       557 1.76084E+05-2.47215E+05 3.28911E+04-2.95819E+05 1.60071E-09-1.32404E-08
 -1       558 9.87055E+04-1.93566E+05 1.29076E+04-2.28971E+05-6.81030E-09-4.26007E-09
 -1       559 1.63874E+05-2.55137E+05 6.67529E+03-3.01749E+05 6.80302E-09 3.70164E-09
 -1       560 9.51669E+04-1.91272E+05 2.53409E+03-2.31322E+05-1.99361E-09 7.06859E-09
 -1       561 1.58791E+05-2.53560E+05 1.43812E+03-3.05006E+05-2.91038E-09 5.23596E-09
 -1       562 9.23547E+04-1.89439E+05 4.35072E+02-2.33343E+05-4.42378E-09 5.52700E-09
 -1       563 1.55488E+05-2.52130E+05 3.52082E+02-3.07123E+05-2.96859E-09 6.63226E-09
 -1       564 9.05266E+04-1.88276E+05 9.58759E+01-2.34636E+05 4.48927E-09 1.57347E-08
 -1       565 1.53627E+05-2.51326E+05 1.13757E+02-3.08299E+05 3.49246E-09 9.17044E-09
 -1       566 8.97305E+04-1.87762E+05 1.66133E+01-2.35200E+05-2.13186E-09 1.22964E-09
 -1       567 1.53165E+05-2.51112E+05-5.81904E+01-3.08512E+05 1.03793E-08 4.73847E-09
 -1       568 9.00064E+04-1.87946E+05-2.94073E+02-2.35086E+05-3.97267E-09 8.51287E-10
 -1       569 1.53330E+05-2.50991E+05-7.07361E+02-3.07039E+05-4.94765E-09 1.10213E-08
 -1       570 9.19938E+04-1.89601E+05-1.66142E+03-2.34872E+05 1.71713E-09-1.89175E-09
 -1       571 2.09307E+05 7.71140E+03 1.13856E+04-5.41756E+04 1.01727E-09 3.15981E-09
 -1       572 2.10996E+05 2.70452E+03 5.57841E+03-5.94037E+04-1.05456E-09-8.20910E-09
 -1       573 2.09983E+05 6.67094E+02 2.47825E+03-5.40444E+04 9.55424E-10 8.77662E-11
 -1       574 2.10179E+05 2.41424E+02 1.24184E+03-5.95525E+04 1.81012E-09 7.37873E-09
 -1       575 2.10057E+05 5.96170E+01 5.85456E+02-5.40271E+04 8.83347E-10 3.95312E-09
 -1       576 2.10069E+05 4.21147E+01 2.98368E+02-5.95724E+04-1.03810E-09 9.06493E-09
 -1       577 2.10071E+05 2.56558E+01 1.47504E+02-5.40248E+04-9.14724E-10 5.68207E-09
 -1       578 2.10062E+05 2.96727E+01 8.15907E+01-5.95748E+04-2.74304E-09 1.39562E-09
 -1       579 2.10089E+05 2.01341E+01 5.17356E+01-5.40247E+04 4.10182E-10 2.05364E-09
 -1       580 2.10087E+05 1.91039E+01 5.16781E+01-5.95717E+04-1.77033E-09 1.96451E-09
 -1       581 2.10119E+05 7.82983E+00 7.32602E+01-5.40279E+04 4.68390E-10 9.69976E-10
 -1       582 2.10140E+05 1.97670E+01 1.42613E+02-5.95385E+04-1.98952E-09-4.08181E-09
 -1       583 2.10155E+05 5.02201E+01 2.74450E+02-5.40578E+04-5.38421E-10-4.11978E-09
 -1       584 2.10286E+05 2.65584E+02 6.16739E+02-5.92882E+04-1.49521E-09-1.48184E-08
 -1       585 2.10130E+05 8.06043E+02 1.25216E+03-5.42787E+04 1.98270E-10-1.34823E-08
 -1       586-2.50290E+03 6.89837E+04-3.16172E+03-1.86648E+05-2.87400E-10 1.22575E-08
 -1       587-5.54944E+02 6.85790E+04-1.61548E+02-2.05423E+05-7.69433E-10 2.18201E-08
 -1       588 7.22482E+02 6.86327E+04 2.71538E+03-1.86550E+05-2.20098E-10 1.47793E-08
 -1       589 3.78308E+03 7.01066E+04 7.64460E+03-2.05224E+05 5.38421E-10-1.99725E-09
 -1       590 1.10203E+04 6.77664E+04 1.62723E+04-1.86854E+05-8.64020E-11-1.63891E-09
 -1       591-4.43852E+04-1.20980E+04-1.48753E+04-2.21912E+04-1.46326E-09 3.25599E-09
 -1       592-4.60767E+04-1.54535E+04-8.05723E+03-2.57317E+04 2.26237E-09-5.60806E-09
 -1       593-4.58849E+04-1.10064E+04-3.35420E+03-2.32701E+04-7.70001E-10 5.54337E-10
 -1       594-4.40086E+04-1.32864E+04-1.67290E+03-2.58288E+04-4.57567E-09 6.17575E-09
 -1       595-4.59998E+04-1.10017E+04-7.68678E+02-2.33195E+04-3.09893E-09 5.77667E-09
 -1       596-4.38682E+04-1.31872E+04-3.91676E+02-2.58138E+04-2.24213E-09 1.09216E-08
 -1       597-4.60143E+04-1.10114E+04-2.15249E+02-2.33215E+04 1.34652E-09-3.94647E-09
 -1       598-4.38547E+04-1.31834E+04-1.76650E+02-2.58095E+04 2.57637E-09-9.85335E-09
 -1       599-4.60131E+04-1.10115E+04-2.30169E+02-2.33211E+04 9.08585E-10-8.73047E-09
 -1       600-4.38694E+04-1.31884E+04-4.31188E+02-2.58130E+04 8.76526E-10 1.98270E-09
 -1       601-4.59950E+04-1.10014E+04-8.52542E+02-2.33181E+04-2.25396E-09-3.58887E-09
 -1       602-4.40250E+04-1.32984E+04-1.85900E+03-2.58275E+04-2.91834E-09-5.85635E-09
 -1       603-4.58656E+04-1.10086E+04-3.72862E+03-2.32635E+04-1.23464E-10 3.28396E-09
 -1       604-4.63329E+04-1.56973E+04-8.95668E+03-2.57061E+04 2.18154E-09 1.78527E-08
 -1       605-4.41870E+04-1.22311E+04-1.65358E+04-2.20740E+04-6.99174E-10 2.23645E-09
 -1       606 2.76419E+04-1.00848E+04-1.81412E+04 2.69931E+04-1.65710E-09 1.07666E-08
 -1       607 2.45361E+04-3.26120E+03-9.03328E+03 3.03040E+04-4.26553E-10-1.13487E-08
 -1       608 2.62966E+04-5.57867E+02-4.04538E+03 2.67798E+04 2.38470E-09 3.89286E-09
 -1       609 2.59465E+04-1.52662E+02-2.04315E+03 3.05416E+04-7.82165E-10 4.31646E-09
 -1       610 2.61325E+04 1.74717E+01-9.76018E+02 2.67558E+04 6.26278E-09 9.81686E-09
 -1       611 2.60668E+04 3.03580E+01-4.92158E+02 3.05675E+04 1.16029E-08-2.61480E-10
 -1       612 2.60879E+04 3.42565E+01-2.35401E+02 2.67535E+04 4.47835E-09-1.48475E-10
 -1       613 2.60632E+04 3.98404E+01-1.06902E+02 3.05705E+04-5.85396E-09 8.69704E-10
 -1       614 2.60632E+04 3.55515E+01-2.90767E+01 2.67527E+04 1.52522E-09 1.02409E-09
 -1       615 2.60501E+04 4.60386E+01 3.54618E+01 3.05710E+04 8.79209E-09 8.36280E-10
 -1       616 2.60444E+04 4.19770E+01 1.14883E+02 2.67529E+04 3.33330E-10 7.04176E-10
 -1       617 2.60568E+04 7.49023E+01 2.65661E+02 3.05705E+04 1.05501E-10 6.34964E-09
 -1       618 2.60160E+04 1.21925E+02 5.36661E+02 2.67531E+04-3.29737E-09 8.03539E-10
 -1       619 2.62420E+04 4.92634E+02 1.20600E+03 3.05697E+04 6.54154E-10 3.42652E-09
 -1       620 2.58350E+04 1.39715E+03 2.42420E+03 2.67519E+04 4.53520E-09 7.23639E-09
 -1       621 3.00410E+02 2.20983E+05 2.68944E+03 1.11758E+04-1.64846E-10 5.21368E-10
 -1       622 3.54246E+02 2.21645E+05 2.39090E+03 1.62854E+04-7.53744E-11 4.77576E-09
 -1       623 1.74392E+01 2.21156E+05 2.89037E+03 1.11227E+04-8.85620E-11-5.67752E-10
 -1       624 1.34863E+03 2.22551E+05 5.61156E+03 1.63389E+04-9.27969E-11-1.72981E-08
 -1       625 1.35556E+03 2.20062E+05 9.81333E+03 1.11222E+04 5.68434E-11-1.30191E-08
 -1       626 1.90831E+05 5.11909E+04 4.14989E+03 1.00716E+05 1.08280E-08 8.53652E-09
 -1       627 1.88414E+05 5.28942E+04 2.00319E+03 1.04783E+05 2.16664E-08 1.24327E-08
 -1       628 1.90971E+05 4.92828E+04 8.46527E+02 1.01362E+05 9.95260E-09-7.07905E-09
 -1       629 1.87842E+05 5.24022E+04 4.14854E+02 1.05018E+05-1.32468E-09-1.83539E-08
 -1       630 1.90979E+05 4.91962E+04 1.91704E+02 1.01381E+05-3.99814E-09-1.03238E-08
 -1       631 1.87774E+05 5.23898E+04 1.02486E+02 1.05018E+05-6.66523E-09-1.79945E-08
 -1       632 1.90970E+05 4.92037E+04 6.62099E+01 1.01372E+05-3.52384E-09-3.36769E-09
 -1       633 1.87760E+05 5.23952E+04 7.19473E+01 1.05010E+05 1.15028E-09 6.26642E-10
 -1       634 1.90959E+05 4.92048E+04 1.14579E+02 1.01368E+05-5.02905E-09-4.86284E-09
 -1       635 1.87765E+05 5.23966E+04 2.31010E+02 1.05010E+05 1.64846E-09-4.81782E-09
 -1       636 1.90948E+05 4.92027E+04 4.65920E+02 1.01365E+05 3.87917E-09 3.34944E-09
 -1       637 1.87860E+05 5.24670E+04 1.02299E+03 1.05007E+05 5.15695E-09 1.39812E-08
 -1       638 1.90908E+05 4.94190E+04 2.10092E+03 1.01265E+05 1.77533E-09 1.15842E-08
 -1       639 1.88963E+05 5.39767E+04 4.96797E+03 1.04693E+05-1.95166E-09-5.50153E-09
 -1       640 1.90743E+05 5.39121E+04 1.02922E+04 9.93527E+04 2.31921E-11-4.83396E-09
 -1       656 5.01637E+04-1.27214E+06-1.21097E+05-4.37883E+02 8.94943E-10-3.04132E-09
 -1       657-6.63092E+04-1.32681E+06-1.00193E+05 7.60143E+03 1.01500E-09 1.25947E-08
 -1       658 1.59313E+04-1.28771E+06-6.15461E+04-1.78026E+03 2.96268E-10 6.21392E-09
 -1       659-7.12656E+04-1.32916E+06-1.06704E+05 8.53910E+03-3.63798E-12 3.80769E-09
 -1       660 5.51086E+04-1.26980E+06-1.32292E+05-1.37554E+03 6.18456E-10 3.31411E-09
 -1       661 1.68322E+05 1.82530E+04 1.63629E+04 6.58136E+04 1.95814E-09-3.53339E-09
 -1       662 1.77000E+05 3.09343E+04 1.10262E+04 6.27946E+04 2.92403E-10-7.01539E-09
 -1       663 1.71532E+05 2.35055E+04 3.85691E+03 6.48851E+04-6.97810E-10-2.23281E-10
 -1       664 1.73283E+05 2.47876E+04 2.30619E+03 6.39251E+04-8.55209E-11 8.14089E-09
 -1       665 1.72015E+05 2.42269E+04 9.09719E+02 6.47482E+04-1.35742E-09-1.05304E-08
 -1       666 1.72716E+05 2.39593E+04 5.30876E+02 6.41016E+04-5.53796E-09-6.84430E-09
 -1       667 1.72096E+05 2.43120E+04 2.80276E+02 6.47167E+04-6.26557E-10-3.94385E-09
 -1       668 1.72627E+05 2.38939E+04 2.81714E+02 6.41473E+04 8.10557E-09-1.01510E-08
 -1       669 1.72103E+05 2.42904E+04 3.78197E+02 6.47032E+04 2.17915E-09 9.88553E-09
 -1       670 1.72721E+05 2.40958E+04 8.20570E+02 6.41483E+04 4.99056E-09 1.65687E-09
 -1       671 1.72003E+05 2.41141E+04 1.45597E+03 6.47140E+04-2.14323E-09-6.76101E-09
 -1       672 1.73569E+05 2.55123E+04 3.72428E+03 6.39435E+04-3.43748E-09-3.47512E-09
 -1       673 1.71259E+05 2.29096E+04 6.24099E+03 6.48944E+04-2.13686E-09-4.11274E-09
 -1       674 1.79511E+05 3.55371E+04 1.78478E+04 6.21964E+04-1.66892E-10 4.15798E-09
 -1       675 1.66100E+05 1.43696E+04 2.64920E+04 6.63554E+04-2.03090E-09-3.37786E-09
 -1       676 2.00462E+01-2.40629E+05-9.30970E+02 2.76009E+01 2.17085E-10-4.05443E-09
 -1       677-2.47182E+02-2.40854E+05-1.70379E+03-5.51703E+01-2.89648E-09 7.60327E-09
 -1       678 1.65040E+02-2.40468E+05-3.01186E+03 2.75505E+01-2.40402E-09-8.57992E-09
 -1       679-3.01263E+03-2.42672E+05-7.15474E+03-5.49770E+01-2.97950E-09-5.51015E-09
 -1       680 1.79796E+03-2.38811E+05-1.15310E+04 2.70940E+01-1.61435E-10 2.50639E-09
 -1       771-2.56521E+06-4.90844E+05-7.15226E+04-1.10885E+06-9.36416E-09-1.49594E-08
 -1       772-2.53630E+06-5.35127E+05-3.78628E+04-1.15891E+06 8.07631E-10 5.47516E-09
 -1       773-2.57682E+06-4.81700E+05-1.72976E+04-1.11302E+06-8.14907E-10 3.82715E-09
 -1       774-2.52748E+06-5.27435E+05-8.16028E+03-1.16625E+06 9.77889E-09-9.60426E-10
 -1       775-2.58095E+06-4.78812E+05-4.79882E+03-1.11391E+06-2.37196E-09 7.85803E-10
 -1       776-2.52875E+06-5.27391E+05-2.02538E+03-1.17100E+06-4.67116E-09 1.79898E-09
 -1       777-2.58421E+06-4.76406E+05-1.68687E+03-1.11464E+06 3.07045E-09 1.43336E-09
 -1       778-2.53051E+06-5.27507E+05-5.87236E+02-1.17501E+06 2.30284E-09 4.72755E-09
 -1       779-2.58691E+06-4.74356E+05-7.66599E+02-1.11528E+06-8.38190E-09-8.95670E-09
 -1       780-2.53211E+06-5.27569E+05-2.76438E+02-1.17825E+06-3.32875E-09 3.53066E-09
 -1       781-2.58899E+06-4.72728E+05-5.21423E+02-1.11579E+06-1.28566E-08-1.76806E-09
 -1       782-2.53339E+06-5.27606E+05-5.17567E+02-1.18063E+06-1.53959E-08-4.21323E-09
 -1       783-2.59039E+06-4.71631E+05-1.06332E+03-1.11613E+06-1.96815E-09-6.92307E-09
 -1       784-2.53475E+06-5.28220E+05-2.32615E+03-1.18205E+06-8.72024E-09 2.87173E-10
 -1       785-2.59069E+06-4.71384E+05-4.34114E+03-1.11600E+06-1.62818E-08 2.05091E-09
 -1       786 1.58852E+05-9.46718E+03 2.19024E+04-7.41004E+01 1.33236E-09 2.36469E-10
 -1       787 1.68345E+05 1.09601E+04 1.54954E+04 1.79507E+01 2.26506E-09 8.59654E-09
 -1       788 1.62514E+05-1.48406E+03 5.66833E+03-5.61836E+01 1.05489E-09 1.31004E-08
 -1       789 1.64080E+05 1.71708E+03 3.56066E+03-1.14624E+01-1.40013E-10-3.88997E-09
 -1       790 1.63119E+05-2.31741E+02 1.44700E+03-4.46896E+01-1.99381E-11-1.08339E-08
 -1       791 1.63374E+05 2.68728E+02 8.46035E+02-3.23273E+01-4.08206E-10 9.47807E-09
 -1       792 1.63220E+05-3.67987E+01 3.79147E+02-3.53187E+01-4.73861E-10-4.79687E-10
 -1       793 1.63258E+05 4.83047E+01 2.34236E+02-5.16235E+01-6.48791E-10-7.06595E-09
 -1       794 1.63235E+05-1.14608E+01 1.51776E+02-2.53932E+01 4.62866E-10 9.37644E-09
 -1       795 1.63257E+05 5.08574E+01 1.88131E+02-7.47016E+01-5.55141E-10 3.37439E-09
 -1       796 1.63221E+05-3.93462E+01 2.62802E+02-1.22401E+01 4.49254E-10 1.43329E-09
 -1       797 1.63371E+05 2.86553E+02 6.03949E+02-1.07748E+02 5.43788E-10 3.71437E-09
 -1       798 1.63121E+05-2.46985E+02 9.48220E+02 7.65336E+00 7.46225E-11 5.10266E-09
 -1       799 1.64081E+05 1.82341E+03 2.58055E+03-1.59716E+02 6.03894E-10-1.48134E-09
 -1       800 1.62511E+05-1.57497E+03 3.64380E+03 3.97289E+01 5.71836E-11 4.83419E-09
 -1       801 5.10275E+04-1.86700E+06-1.68861E+05 3.41837E+04 1.52941E-08 6.34827E-10
 -1       802-5.68425E+04-1.70281E+06-6.56531E+04-6.17458E+04 4.08163E-08-1.05019E-08
 -1       803 5.15379E+03-1.77932E+06-9.74174E+03 8.71602E+04 3.18105E-08 3.14909E-08
 -1       804 5.22400E+04-1.64897E+06 7.79971E+04-4.18878E+04 3.42698E-08 3.28503E-08
 -1       805-5.87747E+04-1.92022E+06 7.71254E+04 1.43177E+04 1.29294E-08 2.20248E-08
 -1       806-2.29239E+05-4.61465E+04-1.80818E+04-9.24490E+04-1.86128E-09 2.39334E-09
 -1       807-2.30566E+05-4.32925E+04-8.88329E+03-9.69400E+04-3.20938E-09-2.58342E-09
 -1       808-2.29736E+05-3.96299E+04-3.76839E+03-9.55319E+04-1.53159E-09 1.73799E-09
 -1       809-2.28688E+05-4.08081E+04-1.84247E+03-9.71737E+04-1.59616E-09 5.73664E-10
 -1       810-2.29813E+05-3.94015E+04-8.43955E+02-9.56683E+04 1.76942E-09 9.22705E-09
 -1       811-2.28543E+05-4.07088E+04-4.19041E+02-9.71488E+04 1.64664E-09 8.97842E-09
 -1       812-2.29826E+05-3.94197E+04-2.10258E+02-9.56680E+04 7.14863E-10-3.45813E-09
 -1       813-2.28524E+05-4.07108E+04-1.34282E+02-9.71360E+04-3.32648E-10-9.04822E-09
 -1       814-2.29823E+05-3.94265E+04-1.28882E+02-9.56651E+04 4.81305E-09-4.46721E-09
 -1       815-2.28527E+05-4.07128E+04-2.04306E+02-9.71319E+04 7.38009E-09 7.37964E-09
 -1       816-2.29809E+05-3.94252E+04-3.84666E+02-9.56626E+04 5.35783E-09-1.06229E-09
 -1       817-2.28593E+05-4.07495E+04-8.25144E+02-9.71247E+04-9.84528E-10 2.84081E-09
 -1       818-2.29760E+05-3.95408E+04-1.68218E+03-9.56078E+04 1.37425E-09 4.75302E-09
 -1       819-2.29518E+05-4.17629E+04-3.95876E+03-9.69047E+04-3.51974E-09-1.73209E-08
 -1       820-2.29445E+05-4.25298E+04-8.05701E+03-9.43280E+04 1.29603E-09 4.63388E-09
 -1       821-2.89175E+05 1.60002E+04-3.70032E+04 2.45477E+02 9.86752E-10 8.09632E-09
 -1       822-3.05208E+05-1.85230E+04-2.61849E+04-9.32748E+02-1.26541E-09-4.86580E-09
 -1       823-2.95362E+05 2.50877E+03-9.58367E+03 2.48987E+02-2.44501E-10-3.80123E-09
 -1       824-2.97987E+05-2.90345E+03-6.02907E+03-7.67078E+02 7.94046E-10 4.89797E-09
 -1       825-2.96394E+05 3.92443E+02-2.48018E+03 7.98043E+01-1.40369E-09-3.38514E-09
 -1       826-2.96780E+05-4.62536E+02-1.49293E+03-3.31015E+02-2.44056E-09 6.73651E-09
 -1       827-2.96567E+05 6.92077E+01-7.78193E+02-1.87084E+02-3.56217E-09-1.58491E-09
 -1       828-2.96619E+05-1.41170E+02-6.83453E+02 1.85037E+02-5.42185E-09 7.97255E-09
 -1       829-2.96555E+05 7.13797E+01-7.92002E+02-4.36257E+02-3.21570E-10 6.22055E-09
 -1       830-2.96815E+05-4.77962E+02-1.54429E+03 5.57685E+02 9.40972E-10-6.26221E-09
 -1       831-2.96372E+05 4.06220E+02-2.56005E+03-5.59739E+02-2.90383E-09-3.59455E-09
 -1       832-2.98049E+05-3.00272E+03-6.23859E+03 6.26040E+02-9.69822E-10 3.41299E-09
 -1       833-2.95322E+05 2.59444E+03-9.91507E+03-5.04612E+02-1.97543E-09-7.55654E-09
 -1       834-3.05487E+05-1.91607E+04-2.70855E+04 3.60980E+02 4.69408E-10-1.26311E-08
 -1       835-2.88935E+05 1.65513E+04-3.82857E+04-2.94667E+02 4.81195E-09-1.67347E-10
 -1       836-9.72446E+02 2.72456E+05 1.64765E+04-1.99513E+04 6.75755E-10 1.09139E-08
 -1       837 3.60820E+03 2.77569E+05 1.40820E+04-4.00868E+04 1.39244E-09 1.08425E-08
 -1       838-3.64398E+02 2.73873E+05 1.45425E+04-1.98800E+04 1.17689E-09 5.21300E-09
 -1       839 9.32495E+03 2.81828E+05 2.77012E+04-4.01194E+04 1.87902E-09-7.73397E-09
 -1       840-2.81515E+03 2.68155E+05 4.42546E+04-1.99173E+04 1.24419E-09 3.75803E-09
 -1       856-8.01951E+04 7.46573E+03-1.96745E+04-4.31008E+02-1.66040E-09 6.56019E-09
 -1       857-8.83200E+04-8.75724E+03-1.35451E+04 4.58360E+03-2.27186E-09-4.55361E-09
 -1       858-8.34058E+04 1.04608E+03-5.10596E+03-4.52532E+02-1.89709E-09-5.57498E-09
 -1       859-8.46334E+04-1.21691E+03-3.08338E+03 4.61777E+03-1.00846E-09 1.12954E-09
 -1       860-8.38857E+04 1.45515E+02-1.29583E+03-4.65296E+02 3.24096E-09-9.02457E-09
 -1       861-8.40809E+04-1.61072E+02-7.20396E+02 4.63526E+03-6.52815E-09-1.51496E-08
 -1       862-8.39604E+04 1.92282E+01-3.14585E+02-4.70048E+02 5.38390E-09-2.99647E-09
 -1       863-8.39919E+04-1.12218E+01-1.48930E+02 4.63748E+03 9.10421E-09 3.46975E-09
 -1       864-8.39749E+04-1.01976E+00-3.33668E+01-4.67517E+02 4.14317E-09 1.98295E-09
 -1       865-8.39615E+04 3.00276E+01 6.54520E+01 4.62458E+03 3.60166E-09-4.18447E-09
 -1       866-8.39893E+04-2.24622E+01 1.71535E+02-4.57148E+02-5.63517E-10-6.85776E-09
 -1       867-8.38699E+04 1.87551E+02 4.47834E+02 4.59640E+03-6.48242E-10-1.27487E-08
 -1       868-8.40630E+04-1.56942E+02 7.50127E+02-4.39334E+02 1.38186E-09-8.68323E-09
 -1       869-8.33118E+04 1.30335E+03 2.00705E+03 4.54978E+03-2.52186E-09-1.34308E-08
 -1       870-8.45420E+04-1.10977E+03 2.91109E+03-4.10537E+02 8.66294E-10-1.31155E-08
 -1       871-4.31491E+03-9.97989E+03-1.40934E+04 9.26890E+04 1.79080E-09-1.07284E-08
 -1       872-1.85120E+03-1.31480E+04-5.77596E+03 1.20170E+05 1.74623E-09-8.48036E-09
 -1       873-1.87321E+01-1.16658E+04 7.41957E+02 9.24862E+04 4.34284E-10 5.44537E-09
 -1       874 2.15478E+03-9.66515E+03 7.80993E+03 1.20208E+05 2.49020E-09 6.84850E-09
 -1       875 5.05157E+03-1.35204E+04 1.73732E+04 9.26574E+04 1.60708E-09 2.65845E-09
 -1       876 2.26381E+05 3.88922E+04 1.19633E+04 9.17265E+04-1.29626E-09 7.27596E-12
 -1       877 2.27070E+05 4.15143E+04 6.38874E+03 9.52607E+04-1.83127E-09-1.16916E-09
 -1       878 2.27499E+05 3.75682E+04 2.67658E+03 9.27087E+04 2.30034E-09 4.93742E-09
 -1       879 2.25442E+05 3.98935E+04 1.33343E+03 9.53447E+04 3.97836E-09 9.01969E-09
 -1       880 2.27580E+05 3.75538E+04 6.20901E+02 9.27487E+04-2.08183E-09-2.38737E-09
 -1       881 2.25334E+05 3.98246E+04 3.31008E+02 9.53273E+04 3.19801E-09 1.05665E-08
 -1       882 2.27588E+05 3.75638E+04 2.10804E+02 9.27498E+04 5.26006E-09 5.48441E-09
 -1       883 2.25326E+05 3.98212E+04 2.25069E+02 9.53221E+04 1.52880E-09 2.65032E-09
 -1       884 2.27583E+05 3.75614E+04 3.56627E+02 9.27500E+04 7.35781E-10 1.38749E-09
 -1       885 2.25354E+05 3.98263E+04 7.16143E+02 9.53310E+04 3.41896E-09-8.50378E-10
 -1       886 2.27556E+05 3.75404E+04 1.44294E+03 9.27471E+04 9.24615E-10-1.27815E-08
 -1       887 2.25608E+05 3.99925E+04 3.15179E+03 9.53676E+04-3.80112E-09 9.50877E-09
 -1       888 2.27357E+05 3.75754E+04 6.35093E+03 9.26462E+04 1.98463E-09 1.43127E-08
 -1       889 2.29392E+05 4.39219E+04 1.51717E+04 9.52483E+04-1.01011E-09 2.25327E-10
 -1       890 2.24769E+05 4.06492E+04 2.84156E+04 9.02235E+04-2.40880E-09 1.41517E-09
 -1       891-1.35572E+02-1.28061E+05-1.52328E+03 2.38262E+04-4.27690E-10 8.38509E-09
 -1       892-2.37217E+02-1.28428E+05-1.65277E+03 3.60636E+04-4.16094E-10 5.01814E-10
 -1       893-3.48326E+01-1.28108E+05-2.35752E+03 2.38311E+04 1.38448E-09-9.68612E-10
 -1       894-1.28037E+03-1.29328E+05-4.89171E+03 3.59346E+04-9.74978E-10-1.18434E-08
 -1       895-1.00286E+03-1.27089E+05-8.61929E+03 2.39537E+04-1.07900E-09 3.18960E-09
 -1       956-2.85902E+05-4.07394E+03-1.02450E+04 1.94445E+04-1.06775E-09-5.11830E-09
 -1       957-2.87925E+05-1.37709E+03-5.25926E+03 2.34168E+04-4.01997E-10 5.32964E-10
 -1       958-2.86813E+05-1.12630E+02-2.36952E+03 1.93224E+04 2.53294E-09-8.15703E-09
 -1       959-2.86974E+05-2.19801E+01-1.21026E+03 2.35498E+04-1.31331E-09-5.07498E-09
 -1       960-2.86896E+05 3.17915E+01-5.90015E+02 1.93106E+04-2.46837E-09-4.90650E-09
 -1       961-2.86906E+05 2.97325E+01-3.12963E+02 2.35633E+04-5.00268E-09-6.99629E-09
 -1       962-2.86913E+05 2.81612E+01-1.79037E+02 1.93088E+04-1.92176E-09 1.85764E-10
 -1       963-2.86903E+05 3.13376E+01-1.43514E+02 2.35657E+04-5.07407E-09-1.91972E-09
 -1       964-2.86916E+05 3.03136E+01-1.74000E+02 1.93081E+04-9.71170E-10-7.74185E-09
 -1       965-2.86914E+05 3.43865E+01-3.00491E+02 2.35657E+04 2.57330E-09-7.06223E-10
 -1       966-2.86907E+05 3.81664E+01-5.64010E+02 1.93088E+04-1.90641E-09-7.09917E-09
 -1       967-2.86987E+05-1.05007E+01-1.15674E+03 2.35578E+04-8.02174E-10 5.91626E-10
 -1       968-2.86835E+05-9.55824E+01-2.26377E+03 1.93161E+04-2.47246E-09-1.12280E-09
 -1       969-2.87904E+05-1.30167E+03-5.02618E+03 2.34726E+04-2.28511E-10 7.33507E-09
 -1       970-2.85970E+05-3.87868E+03-9.79008E+03 1.93960E+04 1.78943E-09-5.34965E-09
 -1       971-2.69478E+05-1.40625E+03-7.80286E+03 1.28841E+04-3.57795E-09 7.14118E-09
 -1       972-2.71375E+05-1.00931E+03-4.24940E+03 1.79868E+04-2.27556E-09 6.92216E-09
 -1       973-2.70346E+05-1.15202E+01-1.90286E+03 1.27768E+04-3.06864E-09 1.19871E-09
 -1       974-2.70477E+05-1.19630E+01-9.85846E+02 1.81031E+04 2.55568E-10-1.92324E-09
 -1       975-2.70414E+05 2.51851E+01-4.91843E+02 1.27669E+04-8.63110E-10 1.51363E-09
 -1       976-2.70424E+05 2.90564E+01-2.82071E+02 1.81152E+04-2.40175E-09-1.13038E-08
 -1       977-2.70427E+05 2.51072E+01-2.01696E+02 1.27646E+04 3.18437E-09-7.15113E-09
 -1       978-2.70427E+05 3.37083E+01-2.31911E+02 1.81185E+04 8.82642E-09 4.91809E-09
 -1       979-2.70427E+05 3.14347E+01-3.69062E+02 1.27636E+04 5.58811E-09-1.57286E-09
 -1       980-2.70455E+05 3.59995E+01-7.10392E+02 1.81190E+04 4.10796E-09-2.66232E-09
 -1       981-2.70404E+05 4.91235E+01-1.37469E+03 1.27640E+04-2.15084E-09 2.75122E-11
 -1       982-2.70643E+05-6.54955E+01-2.84081E+03 1.81135E+04-9.36780E-10-3.79428E-09
 -1       983-2.70231E+05-3.87796E+01-5.51935E+03 1.27693E+04-1.62800E-10 1.73850E-09
 -1       984-2.73298E+05-2.94785E+03-1.23598E+04 1.80406E+04-1.75896E-09 1.20149E-08
 -1       985-2.67732E+05-4.07744E+03-2.26966E+04 1.28415E+04 3.57068E-09-5.68434E-09
 -3
    1PSTEP                        13           7           1          
  100CL  107 5.74219E-01         409                     0    7           1
 -4  DISP        4    1
 -5  D1          1    2    1    0
 -5  D2          1    2    2    0
 -5  D3          1    2    3    0
 -5  ALL         1    2    0    0    1ALL
 -1         1 5.32955E-04 0.00000E+00 0.00000E+00
 -1         2 4.92086E-04-6.33516E-30 0.00000E+00
 -1         3 2.15168E-04-2.21522E-27 1.32349E-23
 -1         5 1.29510E-04-9.57238E-27 3.30872E-24
 -1         8 5.10120E-04-7.45291E-07 0.00000E+00
 -1         9 4.92254E-04-1.89144E-06 0.00000E+00
 -1        10 1.96686E-04-2.81379E-06 0.00000E+00
 -1        12 1.29682E-04 6.38346E-07 1.65436E-24
 -1        15 4.82827E-04-8.26203E-07-2.06795E-25
 -1        16 4.89062E-04-2.33000E-06 0.00000E+00
 -1        17 1.38808E-04-6.08434E-06 0.00000E+00
 -1        18 1.28911E-04 1.10146E-05 0.00000E+00
 -1        19 1.30199E-04 1.27347E-06 0.00000E+00
 -1        20 1.30346E-04 8.50029E-06 0.00000E+00
 -1        21 1.29674E-04 1.36954E-05-3.30872E-24
 -1        24 2.47556E-05-8.58381E-06 0.00000E+00
 -1        25 1.31281E-04 1.11691E-05 0.00000E+00
 -1        26 1.32004E-04 1.76514E-06 0.00000E+00
 -1        27 1.30247E-04 5.60809E-06 0.00000E+00
 -1        28 1.29821E-04 1.31612E-05 0.00000E+00
 -1        32 0.00000E+00 0.00000E+00 0.00000E+00
 -1        33 1.32703E-04 2.36685E-06 0.00000E+00
 -1        34 1.30961E-04 5.57745E-06 0.00000E+00
 -1        35 1.29336E-04 1.28747E-05 0.00000E+00
 -1        51 5.31476E-04-1.27994E-07 0.00000E+00
 -1        52 5.28728E-04-2.47128E-07 0.00000E+00
 -1        53 5.24961E-04-3.66402E-07 0.00000E+00
 -1        54 5.20432E-04-4.87663E-07-3.30872E-24
 -1        55 5.15398E-04-6.12034E-07-4.96308E-24
 -1        56 5.30729E-04-7.27196E-07 0.00000E+00
 -1        57 5.28348E-04-1.28338E-06-2.64698E-23
 -1        58 5.25890E-04-1.62494E-06-5.29396E-23
 -1        59 5.23339E-04-1.75845E-06-2.64698E-23
 -1        60 5.20716E-04-1.70109E-06 5.29396E-23
 -1        61 5.18030E-04-1.48600E-06 0.00000E+00
 -1        62 5.15304E-04-1.16211E-06 0.00000E+00
 -1        63 5.12556E-04-7.84953E-07 0.00000E+00
 -1        64 5.09812E-04-4.15468E-07 0.00000E+00
 -1        65 5.07093E-04-1.14170E-07-2.64698E-23
 -1        66 5.04421E-04 6.56006E-08 0.00000E+00
 -1        67 5.01814E-04 7.76158E-08 0.00000E+00
 -1        68 4.99282E-04-1.07546E-07 0.00000E+00
 -1        69 4.96842E-04-5.03995E-07 0.00000E+00
 -1        70 4.94477E-04-1.11292E-06-5.29396E-23
 -1        86 4.92092E-04-3.11625E-07 0.00000E+00
 -1        87 4.92110E-04-6.23651E-07 0.00000E+00
 -1        88 4.92137E-04-9.35739E-07 0.00000E+00
 -1        89 4.92173E-04-1.25037E-06-6.61744E-24
 -1        90 4.92213E-04-1.56413E-06-1.32349E-23
 -1       121 2.14650E-04-4.62909E-07 0.00000E+00
 -1       122 2.13097E-04-9.26856E-07 0.00000E+00
 -1       123 2.10515E-04-1.39286E-06 0.00000E+00
 -1       124 2.06911E-04-1.86200E-06 6.61744E-24
 -1       125 2.02296E-04-2.33509E-06 0.00000E+00
 -1       191 1.29515E-04 1.06395E-07 0.00000E+00
 -1       192 1.29529E-04 2.12789E-07-1.65436E-24
 -1       193 1.29553E-04 3.19183E-07-3.30872E-24
 -1       194 1.29586E-04 4.25575E-07 1.65436E-24
 -1       195 1.29629E-04 5.31964E-07 0.00000E+00
 -1       251 5.09514E-04-5.40224E-06 1.32349E-23
 -1       252 5.08657E-04-2.83081E-05 0.00000E+00
 -1       253 5.07423E-04-6.48470E-05-1.32349E-23
 -1       254 5.05845E-04-1.10068E-04 0.00000E+00
 -1       255 5.04213E-04-1.56560E-04 0.00000E+00
 -1       256 5.02838E-04-1.96884E-04 6.61744E-24
 -1       257 5.01842E-04-2.25352E-04-1.32349E-23
 -1       258 5.01175E-04-2.36566E-04 0.00000E+00
 -1       259 5.00547E-04-2.29950E-04-1.32349E-23
 -1       260 4.99649E-04-2.05373E-04 0.00000E+00
 -1       261 4.98373E-04-1.67720E-04-1.32349E-23
 -1       262 4.96781E-04-1.22190E-04 0.00000E+00
 -1       263 4.95171E-04-7.62227E-05 0.00000E+00
 -1       264 4.93847E-04-3.72645E-05-6.61744E-24
 -1       265 4.92903E-04-1.07696E-05 2.64698E-23
 -1       266 5.05571E-04-7.69425E-07 3.30872E-24
 -1       267 5.01022E-04-7.81613E-07 8.27181E-25
 -1       268 4.96474E-04-7.94557E-07 0.00000E+00
 -1       269 4.91925E-04-8.05260E-07-2.06795E-25
 -1       270 4.87376E-04-8.15910E-07-4.13590E-25
 -1       271 5.07389E-04 3.02218E-06-2.64698E-23
 -1       272 5.04882E-04 6.08794E-06 0.00000E+00
 -1       273 5.02633E-04 8.47416E-06-2.64698E-23
 -1       274 5.00629E-04 1.01960E-05 0.00000E+00
 -1       275 4.98863E-04 1.12838E-05 2.64698E-23
 -1       276 4.97320E-04 1.17750E-05 0.00000E+00
 -1       277 4.95984E-04 1.17170E-05 0.00000E+00
 -1       278 4.94832E-04 1.11654E-05 0.00000E+00
 -1       279 4.93842E-04 1.01832E-05-2.64698E-23
 -1       280 4.92987E-04 8.84027E-06 0.00000E+00
 -1       281 4.92239E-04 7.21181E-06 0.00000E+00
 -1       282 4.91568E-04 5.37754E-06-1.32349E-23
 -1       283 4.90944E-04 3.42022E-06 0.00000E+00
 -1       284 4.90337E-04 1.42579E-06 0.00000E+00
 -1       285 4.89713E-04-5.22108E-07 2.64698E-23
 -1       301 4.91687E-04-1.98179E-06 0.00000E+00
 -1       302 4.90752E-04-2.04702E-06 0.00000E+00
 -1       303 4.89734E-04-2.11071E-06-6.61744E-24
 -1       304 4.88922E-04-2.17428E-06 0.00000E+00
 -1       305 4.88603E-04-2.23941E-06 0.00000E+00
 -1       306 5.06584E-04-5.28585E-05-5.29396E-23
 -1       307 5.47366E-04-2.00950E-04 0.00000E+00
 -1       308 6.02392E-04-4.21670E-04 0.00000E+00
 -1       309 6.63004E-04-6.83292E-04 0.00000E+00
 -1       310 7.23416E-04-9.43362E-04-5.29396E-23
 -1       311 7.77703E-04-1.15957E-03-5.29396E-23
 -1       312 8.16939E-04-1.30105E-03 0.00000E+00
 -1       313 8.28730E-04-1.34445E-03 2.64698E-23
 -1       314 8.02490E-04-1.28869E-03-1.05879E-22
 -1       315 7.31146E-04-1.14182E-03 2.64698E-23
 -1       316 6.21247E-04-9.29660E-04-5.29396E-23
 -1       317 4.86892E-04-6.81211E-04 0.00000E+00
 -1       318 3.51965E-04-4.31931E-04 5.29396E-23
 -1       319 2.40485E-04-2.17281E-04 0.00000E+00
 -1       320 1.67056E-04-6.65811E-05 5.29396E-23
 -1       336 1.89967E-04-3.33566E-06-1.32349E-23
 -1       337 1.82032E-04-3.86669E-06 0.00000E+00
 -1       338 1.72910E-04-4.40720E-06 0.00000E+00
 -1       339 1.62638E-04-4.95728E-06 0.00000E+00
 -1       340 1.51256E-04-5.51897E-06 0.00000E+00
 -1       406 1.29744E-04 7.44715E-07 0.00000E+00
 -1       407 1.29816E-04 8.51051E-07 1.65436E-24
 -1       408 1.29897E-04 9.57323E-07-3.30872E-24
 -1       409 1.29988E-04 1.06341E-06 0.00000E+00
 -1       410 1.30089E-04 1.16910E-06 0.00000E+00
 -1       521 5.05396E-04-6.23676E-05 0.00000E+00
 -1       522 5.50276E-04-2.33573E-04-5.29396E-23
 -1       523 6.09408E-04-4.88275E-04 0.00000E+00
 -1       524 6.73335E-04-7.89385E-04 0.00000E+00
 -1       525 7.37042E-04-1.08818E-03 0.00000E+00
 -1       526 7.95276E-04-1.33619E-03-5.29396E-23
 -1       527 8.38058E-04-1.49758E-03 1.05879E-22
 -1       528 8.50713E-04-1.54639E-03 5.29396E-23
 -1       529 8.19297E-04-1.48112E-03 0.00000E+00
 -1       530 7.34625E-04-1.31251E-03 5.29396E-23
 -1       531 6.03486E-04-1.06983E-03-1.05879E-22
 -1       532 4.42723E-04-7.86433E-04 5.29396E-23
 -1       533 2.81039E-04-5.01804E-04 0.00000E+00
 -1       534 1.47362E-04-2.55426E-04-5.29396E-23
 -1       535 5.93575E-05-8.10353E-05 0.00000E+00
 -1       536 1.38472E-04 1.37059E-05 0.00000E+00
 -1       537 1.37797E-04 4.70791E-05 3.30872E-24
 -1       538 1.36824E-04 8.88860E-05-3.30872E-24
 -1       539 1.35718E-04 1.33932E-04 0.00000E+00
 -1       540 1.34728E-04 1.76119E-04 0.00000E+00
 -1       541 1.34063E-04 2.09364E-04 1.65436E-24
 -1       542 1.33715E-04 2.30012E-04 0.00000E+00
 -1       543 1.33563E-04 2.34481E-04 1.65436E-24
 -1       544 1.33364E-04 2.23367E-04-3.30872E-24
 -1       545 1.32898E-04 1.97364E-04 0.00000E+00
 -1       546 1.32133E-04 1.61052E-04-3.30872E-24
 -1       547 1.31154E-04 1.19073E-04-1.65436E-24
 -1       548 1.30196E-04 7.76255E-05 0.00000E+00
 -1       549 1.29486E-04 4.29063E-05-1.65436E-24
 -1       550 1.29078E-04 1.92729E-05 0.00000E+00
 -1       551 1.23327E-04-6.44099E-06 0.00000E+00
 -1       552 1.05353E-04-6.83170E-06 0.00000E+00
 -1       553 8.56920E-05-7.25091E-06 1.65436E-24
 -1       554 6.51613E-05-7.68836E-06 0.00000E+00
 -1       555 4.45784E-05-8.12950E-06-2.64698E-23
 -1       556 1.34413E-04 5.24812E-06-2.64698E-23
 -1       557 1.30945E-04 1.42152E-05 0.00000E+00
 -1       558 1.28311E-04 2.10162E-05 0.00000E+00
 -1       559 1.26423E-04 2.58672E-05 0.00000E+00
 -1       560 1.25194E-04 2.89838E-05 0.00000E+00
 -1       561 1.24539E-04 3.05831E-05 0.00000E+00
 -1       562 1.24374E-04 3.08829E-05 0.00000E+00
 -1       563 1.24615E-04 3.01013E-05 0.00000E+00
 -1       564 1.25179E-04 2.84568E-05 0.00000E+00
 -1       565 1.25983E-04 2.61681E-05-3.30872E-24
 -1       566 1.26946E-04 2.34542E-05 0.00000E+00
 -1       567 1.27985E-04 2.05342E-05 0.00000E+00
 -1       568 1.29020E-04 1.76271E-05-1.65436E-24
 -1       569 1.29968E-04 1.49520E-05 0.00000E+00
 -1       570 1.30748E-04 1.27277E-05 0.00000E+00
 -1       571 1.28989E-04 1.03911E-05 0.00000E+00
 -1       572 1.29069E-04 9.72010E-06 0.00000E+00
 -1       573 1.29149E-04 9.01187E-06-1.65436E-24
 -1       574 1.29230E-04 8.27697E-06 0.00000E+00
 -1       575 1.29310E-04 7.52606E-06-3.30872E-24
 -1       576 1.29391E-04 6.76986E-06 1.65436E-24
 -1       577 1.29472E-04 6.01908E-06 0.00000E+00
 -1       578 1.29553E-04 5.28445E-06-1.65436E-24
 -1       579 1.29633E-04 4.57671E-06 3.30872E-24
 -1       580 1.29714E-04 3.90657E-06 0.00000E+00
 -1       581 1.29795E-04 3.28478E-06 6.61744E-24
 -1       582 1.29876E-04 2.72204E-06-6.61744E-24
 -1       583 1.29957E-04 2.22907E-06-6.61744E-24
 -1       584 1.30037E-04 1.81645E-06 0.00000E+00
 -1       585 1.30118E-04 1.49471E-06 0.00000E+00
 -1       586 1.29251E-04 1.10421E-05 0.00000E+00
 -1       587 1.29566E-04 1.10690E-05-2.06795E-25
 -1       588 1.29890E-04 1.10955E-05 0.00000E+00
 -1       589 1.30261E-04 1.11216E-05 0.00000E+00
 -1       590 1.30713E-04 1.11468E-05 0.00000E+00
 -1       591 1.29104E-04 1.04453E-05 0.00000E+00
 -1       592 1.29304E-04 9.84995E-06 0.00000E+00
 -1       593 1.29511E-04 9.23456E-06 0.00000E+00
 -1       594 1.29723E-04 8.60425E-06 4.13590E-25
 -1       595 1.29939E-04 7.96426E-06 0.00000E+00
 -1       596 1.30157E-04 7.31976E-06 0.00000E+00
 -1       597 1.30374E-04 6.67593E-06 0.00000E+00
 -1       598 1.30589E-04 6.03794E-06 0.00000E+00
 -1       599 1.30800E-04 5.41094E-06 8.27181E-25
 -1       600 1.31005E-04 4.80010E-06-4.13590E-25
 -1       601 1.31202E-04 4.21060E-06-4.13590E-25
 -1       602 1.31389E-04 3.64760E-06 2.06795E-25
 -1       603 1.31564E-04 3.11628E-06-4.13590E-25
 -1       604 1.31726E-04 2.62187E-06 1.03398E-25
 -1       605 1.31872E-04 2.16949E-06 0.00000E+00
 -1       606 1.30212E-04 1.23110E-06 0.00000E+00
 -1       607 1.30222E-04 1.28364E-06 1.65436E-24
 -1       608 1.30232E-04 1.42552E-06-3.30872E-24
 -1       609 1.30241E-04 1.65043E-06 0.00000E+00
 -1       610 1.30250E-04 1.95208E-06 0.00000E+00
 -1       611 1.30259E-04 2.32405E-06 0.00000E+00
 -1       612 1.30268E-04 2.75993E-06 0.00000E+00
 -1       613 1.30277E-04 3.25331E-06 0.00000E+00
 -1       614 1.30286E-04 3.79778E-06 0.00000E+00
 -1       615 1.30294E-04 4.38690E-06 8.27181E-25
 -1       616 1.30303E-04 5.01428E-06 0.00000E+00
 -1       617 1.30312E-04 5.67349E-06 0.00000E+00
 -1       618 1.30321E-04 6.35811E-06-8.27181E-25
 -1       619 1.30329E-04 7.06173E-06 4.13590E-25
 -1       620 1.30338E-04 7.77793E-06 0.00000E+00
 -1       621 1.30370E-04 1.35562E-06 1.65436E-24
 -1       622 1.30612E-04 1.43804E-06 1.65436E-24
 -1       623 1.30911E-04 1.52042E-06 0.00000E+00
 -1       624 1.31253E-04 1.60263E-06 0.00000E+00
 -1       625 1.31622E-04 1.68470E-06-1.65436E-24
 -1       626 1.30307E-04 1.26040E-06 0.00000E+00
 -1       627 1.30388E-04 1.32414E-06 1.65436E-24
 -1       628 1.30443E-04 1.45672E-06 0.00000E+00
 -1       629 1.30476E-04 1.64974E-06 1.65436E-24
 -1       630 1.30489E-04 1.89479E-06 0.00000E+00
 -1       631 1.30486E-04 2.18342E-06 1.65436E-24
 -1       632 1.30469E-04 2.50718E-06 3.30872E-24
 -1       633 1.30443E-04 2.85763E-06 0.00000E+00
 -1       634 1.30410E-04 3.22632E-06-3.30872E-24
 -1       635 1.30373E-04 3.60479E-06 0.00000E+00
 -1       636 1.30335E-04 3.98462E-06-3.30872E-24
 -1       637 1.30300E-04 4.35735E-06 1.65436E-24
 -1       638 1.30271E-04 4.71453E-06-3.30872E-24
 -1       639 1.30251E-04 5.04770E-06-8.27181E-25
 -1       640 1.30242E-04 5.34841E-06 0.00000E+00
 -1       656 1.29845E-04 8.02980E-06-6.61744E-24
 -1       657 1.29735E-04 7.54046E-06 6.61744E-24
 -1       658 1.29875E-04 7.05254E-06 0.00000E+00
 -1       659 1.30120E-04 6.56500E-06 0.00000E+00
 -1       660 1.30300E-04 6.07594E-06-6.61744E-24
 -1       661 1.30161E-04 9.18842E-06 0.00000E+00
 -1       662 1.30006E-04 9.80706E-06 0.00000E+00
 -1       663 1.29876E-04 1.03592E-05 1.65436E-24
 -1       664 1.29769E-04 1.08493E-05 0.00000E+00
 -1       665 1.29684E-04 1.12809E-05 1.65436E-24
 -1       666 1.29620E-04 1.16579E-05-8.27181E-25
 -1       667 1.29575E-04 1.19839E-05 1.65436E-24
 -1       668 1.29548E-04 1.22623E-05 0.00000E+00
 -1       669 1.29537E-04 1.24965E-05 0.00000E+00
 -1       670 1.29542E-04 1.26899E-05 8.27181E-25
 -1       671 1.29561E-04 1.28456E-05 0.00000E+00
 -1       672 1.29593E-04 1.29666E-05 8.27181E-25
 -1       673 1.29636E-04 1.30560E-05 0.00000E+00
 -1       674 1.29690E-04 1.31165E-05 0.00000E+00
 -1       675 1.29753E-04 1.31512E-05 0.00000E+00
 -1       676 1.29699E-04 1.36059E-05 3.30872E-24
 -1       677 1.29723E-04 1.35163E-05-1.65436E-24
 -1       678 1.29748E-04 1.34269E-05-3.30872E-24
 -1       679 1.29772E-04 1.33377E-05 1.65436E-24
 -1       680 1.29797E-04 1.32485E-05 1.65436E-24
 -1       771 1.72959E-05 7.44498E-06 0.00000E+00
 -1       772 1.09477E-05 2.05980E-05-2.64698E-23
 -1       773 5.65879E-06 3.10224E-05 5.29396E-23
 -1       774 1.35837E-06 3.88809E-05 0.00000E+00
 -1       775-2.02362E-06 4.43407E-05 0.00000E+00
 -1       776-4.56005E-06 4.75779E-05-5.29396E-23
 -1       777-6.32427E-06 4.87732E-05-5.29396E-23
 -1       778-7.39126E-06 4.81144E-05 2.64698E-23
 -1       779-7.83616E-06 4.57932E-05-5.29396E-23
 -1       780-7.73552E-06 4.20070E-05 2.64698E-23
 -1       781-7.16579E-06 3.69566E-05 0.00000E+00
 -1       782-6.20452E-06 3.08471E-05 0.00000E+00
 -1       783-4.92912E-06 2.38856E-05 0.00000E+00
 -1       784-3.41780E-06 1.62825E-05 0.00000E+00
 -1       785-1.74852E-06 8.24968E-06 2.64698E-23
 -1       786 1.31322E-04 1.03759E-05 0.00000E+00
 -1       787 1.31367E-04 9.62814E-06 0.00000E+00
 -1       788 1.31412E-04 8.91822E-06-8.27181E-25
 -1       789 1.31457E-04 8.23862E-06-8.27181E-25
 -1       790 1.31502E-04 7.58500E-06 0.00000E+00
 -1       791 1.31548E-04 6.95305E-06 8.27181E-25
 -1       792 1.31593E-04 6.34072E-06 1.65436E-24
 -1       793 1.31639E-04 5.74603E-06 8.27181E-25
 -1       794 1.31684E-04 5.16880E-06 1.65436E-24
 -1       795 1.31730E-04 4.60890E-06 0.00000E+00
 -1       796 1.31776E-04 4.06803E-06-1.65436E-24
 -1       797 1.31821E-04 3.54791E-06 8.27181E-25
 -1       798 1.31867E-04 3.05242E-06 1.65436E-24
 -1       799 1.31912E-04 2.58550E-06 0.00000E+00
 -1       800 1.31958E-04 2.15408E-06 0.00000E+00
 -1       801 1.13742E-04 9.69494E-06 2.64698E-23
 -1       802 5.98168E-05 6.93004E-06 0.00000E+00
 -1       803 6.16922E-06 4.17909E-06 0.00000E+00
 -1       804-1.05265E-05 2.66406E-06-1.32349E-23
 -1       805-6.69028E-06 1.33998E-06 0.00000E+00
 -1       806 1.31484E-04 1.03220E-05 1.65436E-24
 -1       807 1.31675E-04 9.50124E-06-8.27181E-25
 -1       808 1.31854E-04 8.71055E-06-1.65436E-24
 -1       809 1.32020E-04 7.95263E-06 1.65436E-24
 -1       810 1.32173E-04 7.23019E-06 1.65436E-24
 -1       811 1.32312E-04 6.54582E-06 8.27181E-25
 -1       812 1.32435E-04 5.90214E-06-1.65436E-24
 -1       813 1.32542E-04 5.30176E-06 1.65436E-24
 -1       814 1.32632E-04 4.74726E-06 1.65436E-24
 -1       815 1.32704E-04 4.24122E-06 0.00000E+00
 -1       816 1.32757E-04 3.78623E-06 1.65436E-24
 -1       817 1.32789E-04 3.38486E-06 1.65436E-24
 -1       818 1.32801E-04 3.03969E-06-1.65436E-24
 -1       819 1.32791E-04 2.75327E-06-1.65436E-24
 -1       820 1.32758E-04 2.52816E-06 0.00000E+00
 -1       821 1.31900E-04 1.33459E-06 0.00000E+00
 -1       822 1.31790E-04 7.79982E-07-8.27181E-25
 -1       823 1.31681E-04 1.95587E-07 0.00000E+00
 -1       824 1.31570E-04-3.24167E-07 0.00000E+00
 -1       825 1.31459E-04-6.99569E-07-3.30872E-24
 -1       826 1.31348E-04-8.51610E-07 0.00000E+00
 -1       827 1.31237E-04-7.51893E-07 0.00000E+00
 -1       828 1.31126E-04-3.73271E-07 0.00000E+00
 -1       829 1.31015E-04 2.48207E-07-3.30872E-24
 -1       830 1.30903E-04 1.07529E-06-1.65436E-24
 -1       831 1.30792E-04 2.02415E-06 0.00000E+00
 -1       832 1.30681E-04 3.01035E-06 1.65436E-24
 -1       833 1.30570E-04 3.94097E-06 3.30872E-24
 -1       834 1.30460E-04 4.72340E-06 0.00000E+00
 -1       835 1.30350E-04 5.29847E-06 0.00000E+00
 -1       836 1.32290E-04 1.86524E-06 0.00000E+00
 -1       837 1.32467E-04 1.96764E-06-4.96308E-24
 -1       838 1.32565E-04 2.06989E-06 0.00000E+00
 -1       839 1.32617E-04 2.17148E-06 8.27181E-25
 -1       840 1.32653E-04 2.27291E-06-4.13590E-25
 -1       856 1.30224E-04 5.84777E-06 0.00000E+00
 -1       857 1.30198E-04 6.20540E-06 0.00000E+00
 -1       858 1.30172E-04 6.66251E-06 0.00000E+00
 -1       859 1.30145E-04 7.20057E-06 0.00000E+00
 -1       860 1.30118E-04 7.80093E-06-8.27181E-25
 -1       861 1.30091E-04 8.44488E-06-4.13590E-25
 -1       862 1.30064E-04 9.11368E-06 0.00000E+00
 -1       863 1.30037E-04 9.78858E-06 0.00000E+00
 -1       864 1.30010E-04 1.04508E-05 0.00000E+00
 -1       865 1.29983E-04 1.10815E-05 0.00000E+00
 -1       866 1.29956E-04 1.16621E-05 0.00000E+00
 -1       867 1.29929E-04 1.21738E-05 0.00000E+00
 -1       868 1.29903E-04 1.25980E-05 8.27181E-25
 -1       869 1.29876E-04 1.29163E-05-4.13590E-25
 -1       870 1.29849E-04 1.31101E-05 8.27181E-25
 -1       871 1.30243E-04 5.60645E-06-4.13590E-25
 -1       872 1.30359E-04 5.60222E-06 0.00000E+00
 -1       873 1.30544E-04 5.59751E-06 0.00000E+00
 -1       874 1.30741E-04 5.59220E-06 1.55096E-25
 -1       875 1.30898E-04 5.58635E-06-6.20385E-25
 -1       876 1.30264E-04 5.85907E-06-6.61744E-24
 -1       877 1.30262E-04 6.16759E-06 4.96308E-24
 -1       878 1.30241E-04 6.52673E-06 0.00000E+00
 -1       879 1.30204E-04 6.93006E-06 0.00000E+00
 -1       880 1.30153E-04 7.37110E-06 0.00000E+00
 -1       881 1.30090E-04 7.84343E-06 0.00000E+00
 -1       882 1.30018E-04 8.34062E-06-3.30872E-24
 -1       883 1.29939E-04 8.85628E-06 1.65436E-24
 -1       884 1.29856E-04 9.38399E-06 3.30872E-24
 -1       885 1.29770E-04 9.91735E-06 0.00000E+00
 -1       886 1.29684E-04 1.04500E-05-3.30872E-24
 -1       887 1.29601E-04 1.09754E-05 1.65436E-24
 -1       888 1.29523E-04 1.14872E-05 0.00000E+00
 -1       889 1.29452E-04 1.19789E-05 0.00000E+00
 -1       890 1.29391E-04 1.24441E-05 1.65436E-24
 -1       891 1.29867E-04 1.31132E-05 0.00000E+00
 -1       892 1.29892E-04 1.30651E-05-4.13590E-25
 -1       893 1.29875E-04 1.30170E-05 8.27181E-25
 -1       894 1.29791E-04 1.29690E-05-4.13590E-25
 -1       895 1.29619E-04 1.29212E-05-4.13590E-25
 -1       956 1.32595E-04 2.33859E-06 1.65436E-24
 -1       957 1.32487E-04 2.37883E-06 8.27181E-25
 -1       958 1.32378E-04 2.47984E-06 1.65436E-24
 -1       959 1.32269E-04 2.63341E-06 0.00000E+00
 -1       960 1.32159E-04 2.83136E-06 3.30872E-24
 -1       961 1.32050E-04 3.06544E-06 0.00000E+00
 -1       962 1.31941E-04 3.32738E-06-3.30872E-24
 -1       963 1.31832E-04 3.60895E-06 0.00000E+00
 -1       964 1.31722E-04 3.90188E-06 0.00000E+00
 -1       965 1.31613E-04 4.19791E-06 0.00000E+00
 -1       966 1.31504E-04 4.48878E-06 3.30872E-24
 -1       967 1.31394E-04 4.76624E-06-1.65436E-24
 -1       968 1.31285E-04 5.02202E-06 3.30872E-24
 -1       969 1.31176E-04 5.24791E-06 0.00000E+00
 -1       970 1.31068E-04 5.43569E-06 0.00000E+00
 -1       971 1.30860E-04 5.73274E-06-3.30872E-24
 -1       972 1.30758E-04 5.97383E-06-8.27181E-25
 -1       973 1.30657E-04 6.29125E-06 1.65436E-24
 -1       974 1.30555E-04 6.67517E-06 0.00000E+00
 -1       975 1.30453E-04 7.11573E-06-3.30872E-24
 -1       976 1.30350E-04 7.60308E-06 0.00000E+00
 -1       977 1.30248E-04 8.12733E-06 3.30872E-24
 -1       978 1.30146E-04 8.67860E-06 0.00000E+00
 -1       979 1.30044E-04 9.24699E-06 0.00000E+00
 -1       980 1.29942E-04 9.82263E-06 0.00000E+00
 -1       981 1.29840E-04 1.03956E-05 0.00000E+00
 -1       982 1.29738E-04 1.09560E-05-1.65436E-24
 -1       983 1.29636E-04 1.14940E-05 0.00000E+00
 -1       984 1.29534E-04 1.19997E-05 0.00000E+00
 -1       985 1.29433E-04 1.24631E-05 1.65436E-24
 -3
    1PSTEP                        14           7           1          
  100CL  107 5.74219E-01         409                     0    7           1
 -4  STRESS      6    1
 -5  SXX         1    4    1    1
 -5  SYY         1    4    2    2
 -5  SZZ         1    4    3    3
 -5  SXY         1    4    1    2
 -5  SYZ         1    4    2    3
 -5  SZX         1    4    3    1
 -1         1-2.94130E+06-1.18348E+06-6.35033E+05-1.37274E+06 2.18279E-10-1.37079E-08
 -1         2 1.99790E+03-8.88684E+05 6.44984E+03 4.48877E+01 8.94715E-11-6.63032E-08
 -1         3-4.84007E+02-1.31968E+06 3.16814E+02-1.07910E+03-2.98613E-10 1.50430E-08
 -1         5-1.44633E+00 3.04426E+05 7.67949E+00-7.54540E-02-4.89178E-11 1.88447E-09
 -1         8-1.03730E+06-3.59083E+05-1.11394E+05-5.12759E+05 4.82032E-10 5.22050E-09
 -1         9-5.27410E+05-8.22118E+05-7.08741E+01-7.79362E+05 1.68686E-08 3.92320E-09
 -1        10-1.33729E+03-1.37493E+06-2.33412E+03-7.29906E+03-7.92170E-09-2.53881E-08
 -1        12 1.70554E+00 3.04442E+05 2.48612E+02-5.71737E-01-5.48965E-11 1.16324E-08
 -1        15 1.76437E+03 9.69625E+02 5.70331E+03 3.47066E+00-1.03086E-10 2.70172E-08
 -1        16 1.17015E+06-9.40764E+05 1.44883E+05-1.20796E+06 1.40572E-08 4.18319E-08
 -1        17-7.82755E+03 8.65042E+04 8.21280E+04 2.05024E+05-7.39237E-10 2.17871E-08
 -1        18 2.13782E+03-4.08550E+03-2.37078E+04-8.51811E+04 8.45546E-09-3.45517E-09
 -1        19 9.86595E+04 1.12954E+05-7.63458E+02 1.93892E+04 1.89175E-11 7.78091E-09
 -1        20-5.22982E+04-4.62842E+05-1.02896E+05 2.80793E+04 2.11124E-09 1.61890E-10
 -1        21-4.13155E+01-2.56389E+05-8.15911E+02 4.31000E+00-1.37887E-09-7.76159E-09
 -1        24-5.37656E+05 8.12626E+05 2.61465E+05 4.77374E+05-7.24152E-08-2.97538E-08
 -1        25-1.02644E+05-5.77981E+05-1.15854E+05-1.83255E+05-3.47791E-10 8.27476E-09
 -1        26-3.81670E+04 7.34141E+04-1.90619E+04-3.93163E+03 1.27475E-09 2.57450E-10
 -1        27-6.67013E+04-2.51731E+05-9.35932E+04 5.71646E+04 5.34161E-09-5.43423E-09
 -1        28 1.96565E+04-7.21818E+04 1.45617E+04 2.05386E+04-7.92681E-11 6.68742E-10
 -1        32-1.39701E+06-2.20926E+06-6.25876E+04-3.83906E+05-2.89820E-08-5.15135E-09
 -1        33-1.47962E+05 7.32927E+04 2.61158E+04-3.42698E+04-2.36222E-10 1.86492E-08
 -1        34-1.86257E+05-1.92774E+04 5.03335E+02 5.96036E+04 6.75868E-10 1.45260E-08
 -1        35-2.00651E+04-2.86547E+04-1.13222E+03 4.46523E+04 1.91936E-09 2.92736E-09
 -1        51 3.00829E+04-3.03828E+05 6.90655E+04-8.67113E+05 1.60071E-10 2.36905E-08
 -1        52 1.34046E+04-2.96028E+05 4.03441E+04-1.01118E+06 8.80391E-10-1.74696E-08
 -1        53 6.56306E+03-3.10767E+05 2.74947E+04-8.64031E+05 7.27596E-12 2.20025E-08
 -1        54 1.74144E+04-3.08563E+05 3.56938E+04-1.01437E+06 2.54659E-10-3.34076E-08
 -1        55 3.48971E+04-3.21028E+05 5.86820E+04-8.63556E+05 5.31145E-10 2.45927E-08
 -1        56-5.59813E+06-6.26500E+05-4.68333E+05-2.17042E+06-8.22183E-10-2.22062E-08
 -1        57-5.82664E+06-1.01170E+06-3.15999E+05-2.10656E+06-7.93261E-09 2.89292E-08
 -1        58-5.68729E+06-7.80364E+05-1.10092E+05-2.14662E+06 8.09814E-09 3.10683E-09
 -1        59-5.72478E+06-8.29680E+05-6.57266E+04-2.13311E+06-2.30284E-09-4.66389E-09
 -1        60-5.69856E+06-8.03560E+05-2.56597E+04-2.14541E+06-2.17960E-09 1.66701E-08
 -1        61-5.71242E+06-8.01778E+05-1.45594E+04-2.13362E+06-3.38207E-09 9.09267E-10
 -1        62-5.69935E+06-8.07603E+05-6.92149E+03-2.14627E+06-5.59226E-10-2.70961E-09
 -1        63-5.71145E+06-7.97679E+05-5.60939E+03-2.13289E+06 3.11027E-09 7.03182E-10
 -1        64-5.69948E+06-8.07580E+05-6.21992E+03-2.14616E+06-4.70152E-09-2.88649E-08
 -1        65-5.71170E+06-8.01459E+05-1.24739E+04-2.13404E+06-8.79311E-09-1.78921E-08
 -1        66-5.69913E+06-8.03888E+05-2.17332E+04-2.14510E+06 2.36878E-09-2.91748E-08
 -1        67-5.72143E+06-8.25645E+05-5.54857E+04-2.13437E+06-8.74934E-10-7.53062E-09
 -1        68-5.69000E+06-7.83957E+05-9.28976E+04-2.14569E+06 1.70076E-09-1.70585E-08
 -1        69-5.80664E+06-9.79898E+05-2.66575E+05-2.11280E+06-1.23400E-08-7.39601E-09
 -1        70-5.61518E+06-6.53837E+05-3.95206E+05-2.16539E+06-2.89583E-09 2.09693E-08
 -1        86-9.96479E+02-8.90410E+05 6.98546E+03-2.24445E+01-6.82121E-13-3.48962E-08
 -1        87 6.63883E+03-8.86440E+05 1.44783E+04 8.22064E+01-8.64020E-11 6.21014E-08
 -1        88-5.62272E+03-8.92649E+05 2.22770E+04-5.97655E+01 4.82032E-11 3.71831E-08
 -1        89 4.19310E+04-8.70062E+05 5.99584E+04 1.36407E+02-9.45874E-11-1.46614E-09
 -1        90-3.61691E+04-9.06748E+05 8.48499E+04-7.66511E+01 2.18279E-11 2.43357E-08
 -1       121-6.85923E+02-1.32141E+06 3.42908E+01 5.37690E+02 9.12351E-10 7.85440E-09
 -1       122-3.65697E+02-1.31965E+06 6.58692E+02-2.15580E+03-3.12576E-09 1.03246E-08
 -1       123-7.41020E+02-1.32149E+06 7.84457E+02 1.60704E+03 2.72132E-09 8.26549E-09
 -1       124 9.12760E+02-1.31901E+06 2.68508E+03-4.56385E+03-6.04905E-09-1.66256E-08
 -1       125-1.50391E+03-1.32221E+06 3.80937E+03 2.93798E+03 3.70801E-09-2.41052E-08
 -1       191-1.77527E+00 3.04452E+05 9.38692E+00 3.78280E-02-4.57430E-11 1.80542E-08
 -1       192-2.14988E+00 3.04426E+05 1.62491E+01-3.07194E-01-6.18829E-11 7.57177E-09
 -1       193-3.64674E+00 3.04452E+05 3.04203E+01 2.70184E-01-1.28372E-10 3.73893E-09
 -1       194-4.41434E+00 3.04428E+05 6.14344E+01-7.22642E-01-1.00883E-10-1.64110E-08
 -1       195-7.24334E+00 3.04450E+05 1.20369E+02 4.55298E-01-1.73536E-10-2.00218E-08
 -1       251-1.83481E+06 9.55391E+03-1.11702E+05 5.11849E+04-4.32919E-10-4.32919E-09
 -1       252-1.52056E+06-1.22519E+04-1.24003E+04-2.00137E+05-2.87037E-09 2.30616E-08
 -1       253-1.71461E+06-1.83344E+03-2.58857E+04 1.49013E+05 4.59386E-09 5.43150E-09
 -1       254-1.67412E+06 1.42292E+04-4.43782E+03-3.05836E+05 1.59736E-09-1.94852E-08
 -1       255-1.69740E+06-3.63179E+03-7.00139E+03 1.57575E+05 5.17730E-09 3.19351E-08
 -1       256-1.54835E+06 1.47797E+04 2.73201E+04-2.31381E+05 3.62479E-09 1.16088E-08
 -1       257-1.82818E+06-1.23500E+04-3.16166E+04 7.39699E+04-3.58341E-09-6.06747E-10
 -1       258-1.38936E+06 1.15959E+04 5.87768E+04-1.48404E+04-6.46514E-09-1.45211E-08
 -1       259-1.84076E+06-1.32059E+04-3.32271E+04-5.86827E+04 1.36442E-08 1.51517E-08
 -1       260-1.52049E+06 1.50698E+04 3.55123E+04 2.11387E+05 1.03792E-08-4.16821E-08
 -1       261-1.70999E+06-5.25158E+03-3.88540E+03-1.51765E+05-1.93713E-08-4.20948E-08
 -1       262-1.67187E+06 2.09182E+04 9.61349E+03 3.06737E+05 1.00006E-08-8.11940E-09
 -1       263-1.70438E+06-6.78049E+03-1.07013E+02-1.54697E+05-1.25274E-08 4.00266E-08
 -1       264-1.52713E+06 3.22008E+04 4.50986E+04 2.22181E+05-6.81985E-08 7.96581E-08
 -1       265-1.84110E+06-2.76250E+04-2.06003E+04-6.65782E+04-2.41926E-08 9.06766E-10
 -1       266-3.19403E+04-1.49338E+04 7.49482E+04-7.42675E+01 1.45519E-10 2.24761E-08
 -1       267 3.70283E+04 1.74080E+04 5.29686E+04 8.56822E+01 2.61025E-10 1.54260E-08
 -1       268-4.96539E+03-2.46532E+03 1.96884E+04-1.09178E+01 1.38243E-10 7.98186E-09
 -1       269 5.86271E+03 2.95061E+03 1.27969E+04 1.27172E+01 9.36780E-11 1.85842E-08
 -1       270-8.79998E+02-4.84801E+02 6.17728E+03-1.72583E+00 3.56977E-11 2.00768E-08
 -1       271-2.92714E+06-3.63420E+05-2.19965E+05-1.13592E+06 8.03993E-10-3.62343E-09
 -1       272-3.02093E+06-5.09820E+05-1.41541E+05-1.11778E+06 5.36602E-11 7.75435E-09
 -1       273-2.96871E+06-4.18237E+05-5.19510E+04-1.12590E+06-1.49066E-09 3.07955E-08
 -1       274-2.97155E+06-4.43224E+05-2.90953E+04-1.13331E+06 7.63521E-10 2.16764E-08
 -1       275-2.97543E+06-4.22969E+05-1.21110E+04-1.12303E+06-1.22054E-09 1.15251E-08
 -1       276-2.96261E+06-4.38551E+05-6.39276E+03-1.13841E+06-1.80080E-09 2.19243E-08
 -1       277-2.97766E+06-4.22099E+05-3.15387E+03-1.12116E+06-4.62296E-09-6.97855E-09
 -1       278-2.95928E+06-4.40499E+05-2.19052E+03-1.14187E+06 1.12100E-08-1.64055E-08
 -1       279-2.97894E+06-4.20842E+05-2.31196E+03-1.11974E+06-1.51931E-09-4.54843E-08
 -1       280-2.95772E+06-4.43000E+05-4.11691E+03-1.14429E+06-3.99973E-09 2.02593E-08
 -1       281-2.97940E+06-4.19523E+05-7.46916E+03-1.11884E+06 5.35829E-09 4.12251E-08
 -1       282-2.96008E+06-4.49109E+05-1.78883E+04-1.14505E+06-1.48361E-09 5.64978E-08
 -1       283-2.97678E+06-4.15097E+05-3.17897E+04-1.11891E+06 3.28237E-09-2.37014E-08
 -1       284-2.98775E+06-4.92563E+05-8.67466E+04-1.13861E+06 2.20780E-09 1.13878E-08
 -1       285-2.95248E+06-3.80361E+05-1.34741E+05-1.12375E+06-4.95857E-09-2.70811E-08
 -1       301 2.31871E+04-1.82028E+05 1.72476E+05-3.46473E+05 3.63798E-11 2.61625E-08
 -1       302 2.46376E+04-1.38744E+05 1.10418E+05-5.07308E+05 4.63842E-11 3.63661E-09
 -1       303 1.04252E+03-1.64910E+05 7.95358E+04-3.45817E+05-1.78261E-10 5.91135E-08
 -1       304 2.37324E+04-1.37372E+05 1.09862E+05-5.06821E+05 3.63798E-10-2.56041E-08
 -1       305 2.15912E+04-1.79968E+05 1.71017E+05-3.47028E+05-5.09317E-11-5.83932E-08
 -1       306-9.95280E+06-1.29556E+06-1.64828E+06-2.03689E+06-3.25381E-08 6.69388E-09
 -1       307 1.78593E+05-1.88272E+06 6.17685E+05-4.78540E+06-3.22005E-07 3.84898E-09
 -1       308-7.60171E+06 2.26211E+05-2.12811E+05-2.61864E+04-5.08735E-08 6.84013E-08
 -1       309-3.74037E+06-2.09372E+06 1.73334E+05-7.44143E+06 1.50224E-07-2.59133E-08
 -1       310-7.68491E+06 1.97699E+05-1.47969E+05-6.86065E+04 1.50612E-08 1.59198E-08
 -1       311 3.84005E+05-1.88887E+06 8.91643E+05-4.58402E+06 2.14335E-07-2.35214E-08
 -1       312-9.97909E+06-1.33358E+06-1.13307E+06-2.14188E+06 5.03496E-09 4.00250E-08
 -1       313 2.16779E+06 5.17309E+05 1.55407E+06 7.64721E+05-8.74716E-08-1.61817E-08
 -1       314-8.22804E+06-3.06805E+06-1.12934E+06-4.07234E+06 1.55967E-07-5.19212E-08
 -1       315-5.24387E+06 3.69567E+06 8.82781E+05 1.61378E+06-1.31113E-07 4.96220E-09
 -1       316-4.21802E+06-3.24650E+06-1.46806E+05-3.90730E+06-2.75177E-07-2.11629E-07
 -1       317-1.04087E+07 4.56480E+06 1.61394E+05-1.39410E+04 2.57613E-07-2.38477E-07
 -1       318-4.15132E+06-3.23716E+06-2.37769E+05-3.89307E+06-3.35102E-07 4.30373E-08
 -1       319-5.46263E+06 3.74198E+06 5.67662E+05 1.56115E+06-6.60730E-08 7.58155E-08
 -1       320-8.12454E+06-3.09068E+06-1.73687E+06-4.08405E+06 7.79401E-08-3.93266E-08
 -1       336 4.70525E+02-1.43048E+06-9.08286E+03 4.32955E+03-1.56915E-08 1.67347E-08
 -1       337-3.42093E+03-1.43174E+06-1.08679E+04-1.05394E+04-2.88359E-08 1.60890E-08
 -1       338 5.48501E+02-1.43046E+06-1.54201E+04 6.15703E+03-2.00071E-08 2.31485E-08
 -1       339-1.62399E+04-1.44015E+06-3.44212E+04-1.41058E+04-3.64453E-08 3.02098E-08
 -1       340 1.08438E+04-1.42271E+06-5.37055E+04 7.85405E+03-2.36942E-08 2.63572E-08
 -1       406 2.08964E+01 3.04439E+05 4.91027E+02 1.20587E-01-1.70161E-10 5.41559E-09
 -1       407 1.72808E+02 3.04528E+05 1.04314E+03 2.55625E+00-1.51132E-10-6.89670E-09
 -1       408 5.38809E+02 3.04364E+05 2.08360E+03-2.74581E+00-2.54147E-10 5.61590E-09
 -1       409 2.25414E+03 3.05193E+05 4.69025E+03 2.74410E+01-1.06752E-10 2.13436E-08
 -1       410 6.47346E+03 3.03772E+05 9.57509E+03-2.59339E+01-4.82487E-10 1.67466E-08
 -1       521-1.21713E+07-1.76268E+06-2.23646E+06-2.28169E+06-4.37722E-08 1.68220E-08
 -1       522 6.54722E+05-2.20498E+06 7.61970E+05-6.29498E+06-2.38011E-07-1.32695E-07
 -1       523-9.18252E+06 2.39594E+05-2.71901E+05 2.05275E+05 1.19471E-08-6.26314E-08
 -1       524-4.88756E+06-2.07260E+06 2.42168E+05-9.71653E+06 3.00141E-07-2.70380E-07
 -1       525-9.31900E+06 1.87741E+05-1.98649E+05 1.39765E+05 1.49914E-07-1.73397E-07
 -1       526 1.04218E+06-2.22744E+06 1.14048E+06-5.95346E+06 7.17118E-08-5.91699E-08
 -1       527-1.22197E+07-1.84134E+06-1.55933E+06-2.44977E+06 1.06229E-07 3.26836E-08
 -1       528 3.62560E+06 7.20088E+05 1.95916E+06 1.35550E+06 1.56724E-07 7.81874E-08
 -1       529-9.94329E+06-4.08883E+06-1.55062E+06-4.92888E+06 6.01285E-08 5.54719E-08
 -1       530-6.44832E+06 5.19286E+06 1.13155E+06 2.19389E+06-2.09635E-07 9.97970E-08
 -1       531-4.87024E+06-4.22774E+06-1.86600E+05-4.73798E+06-3.32206E-07 2.24099E-08
 -1       532-1.32884E+07 6.33135E+06 2.48614E+05-4.36671E+05 2.73983E-07-2.44196E-07
 -1       533-4.76452E+06-4.21484E+06-2.69716E+05-4.71311E+06 3.51720E-08-3.91956E-07
 -1       534-6.79127E+06 5.34632E+06 8.04725E+05 2.07009E+06-3.58559E-08 2.77520E-07
 -1       535-9.80667E+06-4.18760E+06-2.19753E+06-4.94071E+06 1.26311E-08 1.89917E-07
 -1       536-4.73967E+05-2.91222E+04 2.31818E+04-2.47683E+04-5.66706E-09 3.47209E-08
 -1       537-2.75190E+05 3.08937E+04 4.94446E+04 6.09179E+04-6.49167E-08 4.67771E-08
 -1       538-3.78013E+05-1.28166E+03 1.08586E+04-3.75225E+04 1.10338E-08 4.91677E-08
 -1       539-3.39680E+05 3.32464E+03 1.32653E+04 6.97121E+04 9.75637E-08 5.81317E-08
 -1       540-4.10894E+05-4.19874E+02-4.25915E+03-3.36375E+04-1.53000E-09 7.10914E-08
 -1       541-2.13508E+05 5.48034E+03 3.37058E+04 4.40401E+04-1.84627E-10 4.91041E-08
 -1       542-5.00803E+05-6.20671E+03-2.49814E+04-1.17147E+04 1.18616E-08 3.27072E-08
 -1       543-1.41546E+05 8.14523E+03 4.68586E+04-8.36274E+03-6.96036E-09-1.31480E-08
 -1       544-4.80948E+05-4.64228E+03-2.19735E+04 1.86512E+04-9.70704E-09-2.53627E-08
 -1       545-2.58578E+05 2.06622E+03 2.14734E+04-5.56457E+04-1.92350E-08-3.52599E-08
 -1       546-3.86863E+05 2.39538E+03-4.93743E+03 3.55248E+04 9.13678E-09-5.07928E-08
 -1       547-3.49297E+05-4.01887E+03-1.97421E+03-7.16828E+04-6.52045E-08-6.31544E-08
 -1       548-3.92607E+05 3.38615E+03-1.48904E+04 3.47951E+04-6.41937E-08-5.83113E-08
 -1       549-2.50665E+05-9.86979E+03-2.14486E+03-5.23628E+04-3.26730E-08-4.08932E-08
 -1       550-4.82748E+05 5.98979E+03-6.80116E+04 1.60874E+04 3.06636E-09-1.33477E-08
 -1       551 2.46667E+04-6.71203E+05 2.06645E+04-1.06810E+06-6.25223E-08-5.07862E-09
 -1       552 5.48148E+04-6.90337E+05 3.03571E+04-1.52211E+06-4.34375E-08 2.28465E-08
 -1       553 3.99060E+04-6.94749E+05 4.56731E+04-1.06367E+06-7.29851E-08 2.19079E-08
 -1       554 8.44173E+04-6.91471E+05 9.69232E+04-1.52380E+06-4.53583E-08 1.05038E-08
 -1       555 6.89553E+04-7.14717E+05 1.72156E+05-1.06438E+06-7.73289E-08-5.24233E-09
 -1       556 1.36251E+05-2.46747E+05 6.30297E+04-2.96928E+05-1.44355E-08-1.26602E-08
 -1       557 2.31445E+05-3.23370E+05 3.38601E+04-3.76228E+05 1.32422E-09 2.76032E-09
 -1       558 1.30820E+05-2.52131E+05 1.25248E+04-2.91923E+05-9.40054E-09-5.14774E-09
 -1       559 2.15016E+05-3.30690E+05 6.72014E+03-3.85789E+05 1.03464E-08 2.20462E-09
 -1       560 1.24451E+05-2.48060E+05 2.10304E+03-2.96291E+05 2.96859E-09 1.84809E-09
 -1       561 2.06450E+05-3.27676E+05 1.38334E+03-3.91401E+05-8.14907E-10-1.45519E-09
 -1       562 1.19441E+05-2.44863E+05 1.81077E+02-2.99885E+05-1.13505E-09-5.43332E-09
 -1       563 2.00567E+05-3.25116E+05 3.38021E+02-3.95192E+05-7.02858E-09-7.81188E-09
 -1       564 1.16078E+05-2.42744E+05 4.83762E+00-3.02260E+05 5.04224E-09-2.13413E-09
 -1       565 1.97044E+05-3.23586E+05 1.30728E+02-3.97427E+05 2.95404E-09 7.10133E-09
 -1       566 1.14426E+05-2.41689E+05-2.49468E-01-3.03420E+05-5.25688E-09-3.87445E-09
 -1       567 1.95851E+05-3.23055E+05-8.33063E+01-3.98088E+05 8.81391E-09-4.14002E-09
 -1       568 1.14537E+05-2.41772E+05-4.21038E+02-3.03435E+05-7.16682E-10 1.99361E-09
 -1       569 1.96044E+05-3.22983E+05-1.04889E+03-3.96324E+05-2.39925E-09 1.81135E-08
 -1       570 1.17180E+05-2.43975E+05-2.46935E+03-3.02948E+05-6.54836E-10-1.07411E-08
 -1       571 2.30844E+05 8.48966E+03 1.24594E+04-6.16390E+04 3.26054E-10 7.67136E-09
 -1       572 2.32686E+05 3.01619E+03 6.10473E+03-6.76117E+04 5.83441E-10 5.30076E-09
 -1       573 2.31583E+05 7.81629E+02 2.71224E+03-6.15049E+04 2.84535E-09-1.62436E-09
 -1       574 2.31793E+05 3.20787E+02 1.35928E+03-6.77685E+04 3.27987E-09 6.34827E-10
 -1       575 2.31666E+05 1.15814E+02 6.41113E+02-6.14870E+04 1.37891E-09 1.28102E-08
 -1       576 2.31675E+05 1.00729E+02 3.27270E+02-6.77894E+04-2.19990E-09 1.76415E-08
 -1       577 2.31686E+05 7.57704E+01 1.62661E+02-6.14846E+04 7.08269E-09 5.29872E-09
 -1       578 2.31675E+05 8.32617E+01 9.18649E+01-6.77920E+04 1.65535E-08 1.78943E-09
 -1       579 2.31713E+05 6.49816E+01 6.13090E+01-6.14844E+04 9.97079E-09-1.82581E-09
 -1       580 2.31713E+05 6.63478E+01 6.65666E+01-6.77885E+04-4.66798E-09 1.89266E-09
 -1       581 2.31756E+05 4.62559E+01 9.93665E+01-6.14882E+04 7.11225E-10 9.13178E-09
 -1       582 2.31788E+05 6.65425E+01 1.97569E+02-6.77494E+04 2.56114E-09 9.92759E-09
 -1       583 2.31805E+05 1.05349E+02 3.82143E+02-6.15236E+04 1.56069E-09-2.49224E-09
 -1       584 2.31990E+05 4.09973E+02 8.60207E+02-6.74518E+04 3.83807E-09-4.57385E-09
 -1       585 2.31770E+05 1.16149E+03 1.74711E+03-6.17860E+04 2.11185E-09-6.25005E-09
 -1       586-2.93102E+03 7.69230E+04-3.45699E+03-2.06329E+05-1.46611E-09-1.70871E-09
 -1       587-7.63777E+02 7.65107E+04-3.60337E+01-2.27112E+05-9.53150E-10 3.46245E-09
 -1       588 7.16971E+02 7.65369E+04 3.31360E+03-2.06233E+05-3.14685E-10 1.41918E-08
 -1       589 4.34176E+03 7.83315E+04 9.16802E+03-2.26870E+05-2.44836E-09-1.41736E-08
 -1       590 1.29965E+04 7.55219E+04 1.94563E+04-2.06589E+05-1.82445E-09 8.97853E-09
 -1       591-4.75409E+04-1.20680E+04-1.62448E+04-2.25416E+04-2.67403E-09-6.36192E-09
 -1       592-4.98439E+04-1.52780E+04-8.79917E+03-2.58894E+04-9.65201E-11 3.33785E-10
 -1       593-4.91717E+04-1.08829E+04-3.66290E+03-2.37267E+04-7.98593E-10-6.24436E-09
 -1       594-4.75922E+04-1.29038E+04-1.82687E+03-2.59859E+04 4.98517E-10-6.75529E-09
 -1       595-4.92963E+04-1.08784E+04-8.39165E+02-2.37808E+04 3.29948E-09 1.74372E-08
 -1       596-4.74387E+04-1.27952E+04-4.27218E+02-2.59686E+04 3.21091E-09 2.74792E-09
 -1       597-4.93119E+04-1.08893E+04-2.33936E+02-2.37828E+04-8.15618E-10 6.70900E-09
 -1       598-4.74237E+04-1.27910E+04-1.90451E+02-2.59637E+04-2.87196E-09 6.32960E-09
 -1       599-4.93108E+04-1.08895E+04-2.46261E+02-2.37824E+04 7.70115E-10-9.12485E-09
 -1       600-4.74395E+04-1.27962E+04-4.59853E+02-2.59675E+04 2.51521E-09-7.80256E-09
 -1       601-4.92918E+04-1.08786E+04-9.08424E+02-2.37795E+04-5.70344E-09-2.96779E-09
 -1       602-4.76055E+04-1.29135E+04-1.98046E+03-2.59837E+04-1.87231E-09 1.13505E-09
 -1       603-4.91547E+04-1.08857E+04-3.97198E+03-2.37213E+04-8.62133E-09-1.33150E-09
 -1       604-5.00594E+04-1.54743E+04-9.54141E+03-2.58614E+04-1.39129E-08 9.76956E-09
 -1       605-4.73716E+04-1.21832E+04-1.76151E+04-2.24497E+04-9.60614E-09 1.56833E-08
 -1       606 2.74686E+04-1.11095E+04-1.99638E+04 2.65344E+04-6.75755E-10 7.24003E-09
 -1       607 2.40527E+04-3.60317E+03-9.94111E+03 2.97938E+04-1.02955E-09-5.51790E-09
 -1       608 2.59918E+04-6.26455E+02-4.45147E+03 2.63282E+04-8.16726E-10-3.72984E-09
 -1       609 2.56102E+04-1.84684E+02-2.24838E+03 3.00278E+04-9.32232E-10-3.69596E-09
 -1       610 2.58152E+04 4.24155E+00-1.07366E+03 2.63048E+04-3.42698E-09 8.86530E-10
 -1       611 2.57469E+04 1.43246E+01-5.41323E+02 3.00533E+04-2.54659E-09-1.86210E-08
 -1       612 2.57696E+04 2.05473E+01-2.58371E+02 2.63025E+04-7.25777E-10-3.34217E-09
 -1       613 2.57466E+04 2.27456E+01-1.16674E+02 3.00563E+04 1.48975E-09-5.27120E-09
 -1       614 2.57452E+04 2.01775E+01-3.00333E+01 2.63017E+04 2.16642E-09 6.72389E-09
 -1       615 2.57350E+04 2.79916E+01 4.27917E+01 3.00567E+04 3.73575E-09 8.50196E-09
 -1       616 2.57264E+04 2.59689E+01 1.33880E+02 2.63020E+04 6.51289E-09 1.68029E-10
 -1       617 2.57456E+04 5.99104E+01 3.07837E+02 3.00562E+04 1.73168E-08-5.04383E-09
 -1       618 2.56956E+04 1.17313E+02 6.21246E+02 2.63021E+04 1.02091E-08-4.84511E-09
 -1       619 2.59616E+04 5.42393E+02 1.39565E+03 3.00554E+04 5.69798E-10-4.73574E-09
 -1       620 2.54871E+04 1.59240E+03 2.80531E+03 2.63013E+04 1.88106E-09 4.85898E-09
 -1       621 2.77454E+02 2.36093E+05 2.52959E+03 1.75357E+04 2.75122E-11 8.30823E-09
 -1       622 3.44455E+02 2.36708E+05 2.36416E+03 2.55113E+04 3.00361E-10 3.53953E-09
 -1       623 2.76746E+01 2.36232E+05 3.00009E+03 1.74521E+04 1.82354E-10-1.83036E-09
 -1       624 1.45379E+03 2.37706E+05 5.94333E+03 2.55966E+04 1.95513E-10 8.65703E-09
 -1       625 1.45815E+03 2.35059E+05 1.04478E+04 1.74493E+04 1.03682E-10-3.26474E-09
 -1       626 2.10960E+05 5.46287E+04 4.77648E+03 1.08595E+05 1.97451E-09 6.06633E-09
 -1       627 2.08557E+05 5.62127E+04 2.30563E+03 1.12850E+05-2.22735E-09 1.23582E-08
 -1       628 2.11105E+05 5.24541E+04 9.74704E+02 1.09366E+05-6.22367E-09-9.09858E-09
 -1       629 2.07928E+05 5.56197E+04 4.77334E+02 1.13096E+05-1.08867E-09 1.75135E-08
 -1       630 2.11116E+05 5.23545E+04 2.20621E+02 1.09392E+05-1.18962E-09 8.33950E-09
 -1       631 2.07857E+05 5.56017E+04 1.17509E+02 1.13095E+05-2.05091E-09 1.24186E-08
 -1       632 2.11107E+05 5.23616E+04 7.50848E+01 1.09384E+05-1.89084E-09 2.12860E-08
 -1       633 2.07843E+05 5.56064E+04 8.02654E+01 1.13088E+05-1.91221E-10-6.35578E-09
 -1       634 2.11099E+05 5.23619E+04 1.26653E+02 1.09381E+05-8.60291E-09-1.07307E-08
 -1       635 2.07851E+05 5.56069E+04 2.54457E+02 1.13089E+05-1.71744E-08 1.13744E-08
 -1       636 2.11087E+05 5.23585E+04 5.12847E+02 1.09379E+05-8.81407E-09-7.89851E-09
 -1       637 2.07957E+05 5.56839E+04 1.12593E+03 1.13087E+05-1.18234E-09-1.50781E-08
 -1       638 2.11044E+05 5.25960E+04 2.31211E+03 1.09269E+05-9.51786E-10 3.17868E-09
 -1       639 2.09173E+05 5.73442E+04 5.46751E+03 1.12742E+05-2.02067E-09 1.71731E-08
 -1       640 2.10861E+05 5.75430E+04 1.13270E+04 1.07168E+05-1.06229E-09-5.38512E-09
 -1       656 5.45394E+04-1.38709E+06-1.31662E+05-7.62756E+02 1.81899E-10-1.32816E-08
 -1       657-7.21172E+04-1.44654E+06-1.08989E+05 7.26519E+03-3.20142E-10 5.80334E-09
 -1       658 1.73484E+04-1.40401E+06-6.70199E+04-2.30109E+03 3.31966E-10 2.33013E-09
 -1       659-7.76979E+04-1.44919E+06-1.16320E+05 8.39851E+03-1.14596E-09-6.05238E-09
 -1       660 6.01073E+04-1.38445E+06-1.44267E+05-1.89605E+03-5.38421E-10-4.42714E-09
 -1       661 1.66245E+05 1.78829E+04 1.64972E+04 6.50128E+04 3.37695E-09-1.50976E-10
 -1       662 1.75167E+05 3.04976E+04 1.11170E+04 6.17728E+04 4.14389E-09 5.17957E-10
 -1       663 1.69483E+05 2.31772E+04 3.88852E+03 6.40749E+04 3.43448E-09-1.26731E-08
 -1       664 1.71417E+05 2.43035E+04 2.32538E+03 6.29161E+04 2.15485E-09 1.07582E-09
 -1       665 1.69971E+05 2.39030E+04 9.17320E+02 6.39350E+04-4.06999E-10 1.33738E-08
 -1       666 1.70841E+05 2.34713E+04 5.35784E+02 6.30971E+04-3.08299E-09 6.31082E-09
 -1       667 1.70055E+05 2.39876E+04 2.83438E+02 6.39018E+04 1.02099E-09 1.21635E-08
 -1       668 1.70750E+05 2.34076E+04 2.86176E+02 6.31453E+04 4.09386E-10-5.40754E-09
 -1       669 1.70062E+05 2.39648E+04 3.85275E+02 6.38873E+04 3.33235E-09-1.75373E-09
 -1       670 1.70845E+05 2.36146E+04 8.36934E+02 6.31471E+04 1.30346E-09-2.70069E-09
 -1       671 1.69960E+05 2.37847E+04 1.48535E+03 6.38983E+04-1.16245E-11-2.39550E-09
 -1       672 1.71710E+05 2.50597E+04 3.79971E+03 6.29379E+04-8.82878E-10 1.75846E-08
 -1       673 1.69201E+05 2.25561E+04 6.36749E+03 6.40826E+04-8.83347E-11-1.10233E-08
 -1       674 1.77772E+05 3.52879E+04 1.82096E+04 6.11556E+04-1.48879E-09-3.13412E-09
 -1       675 1.63938E+05 1.38427E+04 2.70292E+04 6.55729E+04-9.52241E-10 1.41881E-10
 -1       676 2.11680E+01-2.56321E+05-9.83385E+02-2.15505E+00-8.74479E-10-9.64573E-09
 -1       677-2.61172E+02-2.56559E+05-1.79973E+03 4.30736E+00-5.98675E-10 9.89210E-10
 -1       678 1.74332E+02-2.56152E+05-3.18146E+03-2.15085E+00-3.69482E-11 5.74365E-09
 -1       679-3.18240E+03-2.58479E+05-7.55769E+03 4.29126E+00-1.30058E-09 5.51002E-09
 -1       680 1.89927E+03-2.54402E+05-1.21804E+04-2.11469E+00-1.02864E-09 5.60946E-09
 -1       771-2.71155E+06-5.60853E+05-8.79886E+04-1.21402E+06-1.86556E-08-1.63564E-08
 -1       772-2.66795E+06-6.18117E+05-4.60656E+04-1.27936E+06-1.34460E-08 6.57928E-09
 -1       773-2.72734E+06-5.48377E+05-2.20238E+04-1.21978E+06-8.25094E-09 3.41242E-09
 -1       774-2.65919E+06-6.08875E+05-1.01422E+04-1.29084E+06 1.59416E-08-7.17046E-09
 -1       775-2.73412E+06-5.43573E+05-6.62695E+03-1.22179E+06-4.80213E-10 4.51109E-10
 -1       776-2.66265E+06-6.08354E+05-2.64107E+03-1.29876E+06-3.78350E-10-4.38376E-10
 -1       777-2.73972E+06-5.39466E+05-2.59644E+03-1.22355E+06 8.10542E-09 1.05501E-09
 -1       778-2.66656E+06-6.07985E+05-7.96099E+02-1.30549E+06 3.25963E-09 1.18962E-09
 -1       779-2.74441E+06-5.35948E+05-1.20483E+03-1.22506E+06-3.92902E-09-5.29690E-09
 -1       780-2.67002E+06-6.07598E+05-2.32645E+02-1.31094E+06-2.84126E-09-1.21690E-09
 -1       781-2.74808E+06-5.33149E+05-4.78563E+02-1.22624E+06-1.77824E-08-1.03137E-09
 -1       782-2.67267E+06-6.07232E+05 8.16216E+01-1.31495E+06-2.14786E-08-4.02724E-09
 -1       783-2.75063E+06-5.31238E+05 1.03249E+02-1.22708E+06-2.69210E-09-1.09519E-08
 -1       784-2.67417E+06-6.06791E+05 6.74120E+02-1.31739E+06-7.66704E-09-7.37077E-09
 -1       785-2.75204E+06-5.30172E+05 1.16049E+03-1.22759E+06-1.80808E-08 2.68392E-09
 -1       786 1.26696E+05-9.07790E+03 2.10013E+04-1.34500E+02 7.15502E-10 1.06711E-08
 -1       787 1.35803E+05 1.05094E+04 1.48578E+04 2.24796E+01 3.41989E-09-1.19780E-08
 -1       788 1.30208E+05-1.42296E+03 5.43417E+03-1.07828E+02 1.14184E-09 7.68364E-09
 -1       789 1.31712E+05 1.64630E+03 3.41237E+03-2.05096E+01-7.06006E-10 3.03436E-09
 -1       790 1.30787E+05-2.22027E+02 1.38381E+03-9.15163E+01-1.37047E-09 1.33550E-08
 -1       791 1.31034E+05 2.56677E+02 8.03557E+02-4.88475E+01-1.73047E-09-3.18289E-09
 -1       792 1.30885E+05-3.43743E+01 3.49100E+02-7.94907E+01-1.49405E-09-6.26615E-09
 -1       793 1.30919E+05 3.97974E+01 1.92885E+02-7.15355E+01-1.35597E-10 5.07247E-09
 -1       794 1.30902E+05-5.28534E+00 8.79989E+01-6.88280E+01 1.20731E-09-3.40024E-09
 -1       795 1.30900E+05 6.51093E+00 4.79919E+01-9.38043E+01-8.37771E-10 7.16091E-09
 -1       796 1.30905E+05-1.10443E+00 2.39235E+01-5.72215E+01 1.15438E-09 3.72009E-09
 -1       797 1.30897E+05 3.51665E+00 1.67400E+01-1.20426E+02 6.51181E-10-1.45909E-08
 -1       798 1.30905E+05-2.29477E+00 1.36474E+01-4.22063E+01 2.77224E-10-4.81343E-09
 -1       799 1.30903E+05 1.64854E+01 2.57609E+01-1.57088E+02 8.45178E-10 1.50977E-09
 -1       800 1.30899E+05-1.40731E+01 3.31417E+01-2.05579E+01 2.94550E-10 9.50087E-09
 -1       801 7.58698E+04-4.34636E+06-4.61275E+05 2.21373E+05 3.66563E-08-1.99943E-08
 -1       802-5.35032E+04-2.56283E+06 3.84961E+04-2.08374E+05 9.90185E-08-1.71881E-08
 -1       803-2.46213E+04-4.41218E+06-2.28474E+05 2.21134E+05 4.50527E-08 2.96886E-08
 -1       804-2.49754E+04-3.14908E+06 5.06064E+04 1.71297E+05-6.82530E-09-5.27848E-10
 -1       805 3.81671E+04-3.76533E+06-5.58724E+04-1.58077E+05-3.23780E-09 1.79753E-09
 -1       806-2.53863E+05-4.79934E+04-1.84931E+04-9.92584E+04-6.13545E-09 1.78443E-09
 -1       807-2.55508E+05-4.47841E+04-9.08545E+03-1.03519E+05 9.28139E-09 1.57770E-08
 -1       808-2.54355E+05-4.13442E+04-3.85444E+03-1.02428E+05-1.47520E-09 3.17073E-10
 -1       809-2.53606E+05-4.22238E+04-1.88476E+03-1.03735E+05-4.56180E-09 5.65831E-09
 -1       810-2.54432E+05-4.11125E+04-8.63775E+02-1.02569E+05 4.57931E-10 8.59109E-09
 -1       811-2.53460E+05-4.21200E+04-4.29472E+02-1.03707E+05 3.25576E-09 2.45290E-08
 -1       812-2.54445E+05-4.11317E+04-2.16889E+02-1.02569E+05-2.99087E-09 1.09389E-09
 -1       813-2.53442E+05-4.21211E+04-1.40569E+02-1.03693E+05-1.87765E-09-8.98467E-10
 -1       814-2.54442E+05-4.11383E+04-1.38486E+02-1.02567E+05-5.17593E-09-9.08130E-09
 -1       815-2.53447E+05-4.21223E+04-2.22758E+02-1.03689E+05-6.75209E-09 7.85349E-09
 -1       816-2.54427E+05-4.11362E+04-4.21581E+02-1.02565E+05-6.63840E-09-8.97808E-09
 -1       817-2.53520E+05-4.21621E+04-9.05172E+02-1.03682E+05-3.16277E-09 2.00748E-09
 -1       818-2.54375E+05-4.12620E+04-1.84584E+03-1.02506E+05-5.73164E-09 3.01088E-09
 -1       819-2.54531E+05-4.32792E+04-4.34401E+03-1.03449E+05-1.89339E-08-5.32964E-09
 -1       820-2.54036E+05-4.45364E+04-8.84115E+03-1.01098E+05-6.17911E-09 1.03137E-09
 -1       821-3.09726E+05 1.71305E+04-3.96193E+04 4.53238E+02 4.75325E-07-2.22699E-08
 -1       822-3.26884E+05-1.98313E+04-2.80348E+04-1.13343E+03 9.56215E-07 8.62929E-09
 -1       823-3.16344E+05 2.68622E+03-1.02608E+04 4.96577E+02 4.74302E-07 3.89718E-10
 -1       824-3.19149E+05-3.10821E+03-6.45398E+03-9.62705E+02 6.00409E-10 8.51014E-09
 -1       825-3.17458E+05 4.19890E+02-2.65728E+03 2.82512E+02 1.67470E-09 1.15568E-08
 -1       826-3.17841E+05-4.94410E+02-1.59451E+03-3.76524E+02 3.86398E-10 1.03945E-08
 -1       827-3.17650E+05 7.35349E+01-8.37412E+02-8.96133E+01-1.34538E-09-9.96710E-09
 -1       828-3.17668E+05-1.51057E+02-7.29736E+02 3.54575E+02-3.50409E-09 3.14334E-09
 -1       829-3.17631E+05 7.68467E+01-8.54530E+02-4.48600E+02 1.57893E-10 7.03159E-09
 -1       830-3.17895E+05-5.15586E+02-1.66310E+03 8.93618E+02 2.18773E-09 2.90613E-08
 -1       831-3.17425E+05 4.38622E+02-2.76026E+03-6.28667E+02-2.65271E-09-3.01566E-09
 -1       832-3.19230E+05-3.23840E+03-6.72654E+03 9.92033E+02-1.72097E-09-1.04137E-09
 -1       833-3.16297E+05 2.79792E+03-1.06927E+04-5.47016E+02-2.07032E-09 2.68938E-09
 -1       834-3.27236E+05-2.06612E+04-2.92042E+04 6.01325E+02-1.33835E-09 1.19917E-08
 -1       835-3.09420E+05 1.78473E+04-4.12886E+04-2.37946E+02 5.47946E-09-1.30149E-08
 -1       836-1.06310E+03 2.93196E+05 1.78234E+04-1.61938E+04-9.54060E-10 1.04096E-08
 -1       837 3.87277E+03 2.98744E+05 1.52460E+04-3.26074E+04-7.09065E-10 3.39060E-09
 -1       838-4.11052E+02 2.94730E+05 1.57644E+04-1.61290E+04-5.72072E-10 5.57179E-09
 -1       839 1.00852E+04 3.03375E+05 3.00482E+04-3.26476E+04-2.32831E-10 4.49535E-09
 -1       840-3.06696E+03 2.88522E+05 4.80146E+04-1.61533E+04-5.27507E-10 1.30677E-09
 -1       856-7.27439E+04 7.65237E+03-2.01663E+04-4.21229E+02-9.38201E-10-2.13367E-09
 -1       857-8.10680E+04-8.97902E+03-1.38833E+04 4.87260E+03-9.06454E-10-9.57129E-09
 -1       858-7.60346E+04 1.07243E+03-5.23331E+03-4.43383E+02-6.52676E-10-3.84944E-10
 -1       859-7.72900E+04-1.25017E+03-3.15967E+03 4.90728E+03-1.28421E-09 3.83443E-09
 -1       860-7.65265E+04 1.49390E+02-1.32684E+03-4.55950E+02 1.37089E-09-3.69920E-09
 -1       861-7.67239E+04-1.67685E+02-7.35442E+02 4.92450E+03-4.46812E-09 1.15472E-09
 -1       862-7.66032E+04 1.98019E+01-3.16792E+02-4.60615E+02 2.14546E-09-5.80148E-09
 -1       863-7.66318E+04-1.26713E+01-1.40550E+02 4.92681E+03 1.85475E-09 6.66904E-09
 -1       864-7.66188E+04-2.17344E+00-1.15966E+01-4.58268E+02 5.10767E-10 3.51434E-11
 -1       865-7.65943E+04 3.97195E+01 1.17403E+02 4.91454E+03 4.72751E-09 5.03974E-09
 -1       866-7.66389E+04-3.29106E+01 2.65637E+02-4.48342E+02-1.23606E-09 6.39601E-09
 -1       867-7.64615E+04 2.74043E+02 6.72592E+02 4.88752E+03 9.99819E-10 2.75936E-08
 -1       868-7.67478E+04-2.33156E+02 1.12204E+03-4.31252E+02 4.81691E-10-3.58142E-09
 -1       869-7.56330E+04 1.93923E+03 2.99468E+03 4.84260E+03-1.89496E-09-1.90929E-08
 -1       870-7.74613E+04-1.65416E+03 4.34483E+03-4.03417E+02-4.93287E-10 2.59979E-09
 -1       871-4.68963E+03-1.22887E+04-1.55675E+04 1.03149E+05 3.09228E-10-3.93356E-09
 -1       872-1.94609E+03-1.58152E+04-6.41920E+03 1.33736E+05-1.15506E-10-1.61622E-08
 -1       873 5.24190E+01-1.41536E+04 7.21064E+02 1.02924E+05-4.29281E-10-2.59456E-09
 -1       874 2.42260E+03-1.20175E+04 8.39620E+03 1.33773E+05-7.04858E-10-6.37556E-10
 -1       875 5.52471E+03-1.61499E+04 1.87468E+04 1.03115E+05-2.21917E-10-3.69710E-09
 -1       876 2.45273E+05 4.18868E+04 1.28007E+04 9.90895E+04-1.45553E-09-6.92580E-09
 -1       877 2.46045E+05 4.46568E+04 6.83599E+03 1.02834E+05-1.83149E-09-1.46773E-08
 -1       878 2.46470E+05 4.04700E+04 2.86397E+03 1.00140E+05 8.12634E-10-6.88101E-09
 -1       879 2.44304E+05 4.29218E+04 1.42688E+03 1.02923E+05 2.46041E-09 4.82635E-09
 -1       880 2.46556E+05 4.04548E+04 6.64536E+02 1.00183E+05-5.05042E-09 2.48440E-09
 -1       881 2.44189E+05 4.28478E+04 3.54572E+02 1.02904E+05-9.42055E-09-8.80334E-10
 -1       882 2.46564E+05 4.04656E+04 2.26350E+02 1.00184E+05-4.04839E-09 5.75637E-09
 -1       883 2.44180E+05 4.28442E+04 2.42529E+02 1.02898E+05-1.10995E-08 1.27358E-08
 -1       884 2.46559E+05 4.04631E+04 3.85087E+02 1.00184E+05-5.65342E-09 7.20962E-09
 -1       885 2.44211E+05 4.28496E+04 7.73793E+02 1.02907E+05 8.05414E-10-4.62762E-09
 -1       886 2.46529E+05 4.04404E+04 1.55935E+03 1.00181E+05 3.30513E-09 2.58296E-10
 -1       887 2.44485E+05 4.30293E+04 3.40614E+03 1.02947E+05 4.30617E-10-1.01409E-10
 -1       888 2.46314E+05 4.04783E+04 6.86348E+03 1.00072E+05-3.25144E-11 1.33605E-09
 -1       889 2.48573E+05 4.72768E+04 1.63960E+04 1.02819E+05 2.18320E-09 9.99376E-09
 -1       890 2.43517E+05 4.38010E+04 3.07088E+04 9.74549E+04 5.47880E-09-6.38465E-10
 -1       891-1.30355E+02-1.37832E+05-1.65764E+03 2.48385E+04-6.05496E-10 2.21030E-09
 -1       892-2.31593E+02-1.38240E+05-1.79158E+03 3.76200E+04 1.10708E-09-1.39426E-09
 -1       893-2.03335E+01-1.37884E+05-2.54833E+03 2.48440E+04 1.11754E-09 6.73253E-09
 -1       894-1.35630E+03-1.39209E+05-5.28253E+03 3.74843E+04 1.37561E-09 6.28415E-09
 -1       895-1.06555E+03-1.36783E+05-9.30584E+03 2.49731E+04 3.65389E-10-6.83576E-09
 -1       956-3.11480E+05-4.38744E+03-1.09983E+04 2.19577E+04-6.06633E-10 3.15526E-09
 -1       957-3.13649E+05-1.49425E+03-5.64587E+03 2.64375E+04-2.47564E-09-2.49020E-09
 -1       958-3.12460E+05-1.33755E+02-2.54377E+03 2.18270E+04-2.14641E-09-3.50155E-09
 -1       959-3.12630E+05-3.85203E+01-1.29925E+03 2.65820E+04-3.93811E-10 5.78120E-09
 -1       960-3.12549E+05 2.21632E+01-6.33505E+02 2.18141E+04-1.94314E-09 7.37055E-09
 -1       961-3.12558E+05 1.76357E+01-3.36236E+02 2.65968E+04 1.76101E-09-8.46080E-09
 -1       962-3.12568E+05 1.86536E+01-1.92790E+02 2.18121E+04 3.97677E-10 6.13750E-09
 -1       963-3.12555E+05 1.94954E+01-1.55351E+02 2.65994E+04-2.55909E-09 1.36035E-08
 -1       964-3.12572E+05 2.08933E+01-1.89404E+02 2.18115E+04-2.49514E-09-5.12591E-09
 -1       965-3.12566E+05 2.24049E+01-3.27988E+02 2.65991E+04-9.27145E-10-2.58683E-09
 -1       966-3.12561E+05 2.88260E+01-6.16212E+02 2.18124E+04-1.64914E-09 3.87490E-09
 -1       967-3.12645E+05-2.75732E+01-1.26404E+03 2.65895E+04 2.01464E-09 2.22303E-09
 -1       968-3.12480E+05-1.18464E+02-2.47404E+03 2.18212E+04 1.48702E-09-3.93305E-09
 -1       969-3.13644E+05-1.43990E+03-5.49291E+03 2.64879E+04 9.04038E-10-3.55033E-09
 -1       970-3.11533E+05-4.25415E+03-1.06995E+04 2.19142E+04-1.15324E-09 1.16488E-08
 -1       971-2.90846E+05-1.49835E+03-8.26038E+03 1.35869E+04-1.62163E-09 1.67693E-08
 -1       972-2.92849E+05-1.08151E+03-4.49853E+03 1.89327E+04-2.81580E-09-1.11090E-08
 -1       973-2.91766E+05-2.14886E+01-2.01458E+03 1.34748E+04-2.59979E-09-7.79573E-09
 -1       974-2.91900E+05-2.54459E+01-1.04387E+03 1.90553E+04 4.45152E-09-5.29724E-09
 -1       975-2.91838E+05 1.76719E+01-5.21173E+02 1.34642E+04 3.20142E-10-6.27642E-09
 -1       976-2.91844E+05 1.82404E+01-2.99563E+02 1.90684E+04-9.45874E-10-6.98640E-09
 -1       977-2.91852E+05 1.78218E+01-2.15423E+02 1.34616E+04 5.74346E-10 2.29306E-10
 -1       978-2.91848E+05 2.33548E+01-2.49372E+02 1.90721E+04 9.32732E-09 2.49258E-09
 -1       979-2.91851E+05 2.47585E+01-3.98324E+02 1.34605E+04 4.43441E-09 1.96133E-09
 -1       980-2.91878E+05 2.58707E+01-7.67649E+02 1.90728E+04-3.55271E-13 2.57762E-09
 -1       981-2.91827E+05 4.38978E+01-1.48599E+03 1.34609E+04-1.87697E-10-1.25280E-08
 -1       982-2.92082E+05-8.38707E+01-3.07107E+03 1.90670E+04-7.86827E-10-4.50289E-09
 -1       983-2.91640E+05-5.11696E+01-5.96688E+03 1.34665E+04 1.92813E-09-8.44011E-10
 -1       984-2.94951E+05-3.20004E+03-1.33622E+04 1.89903E+04-6.98492E-10 7.97638E-09
 -1       985-2.88939E+05-4.41734E+03-2.45372E+04 1.35400E+04 2.48519E-09 4.10000E-09
 -3
    1PSTEP                        15           8           1          
  100CL  108 6.09375E-01         409                     0    8           1
 -4  DISP        4    1
 -5  D1          1    2    1    0
 -5  D2          1    2    2    0
 -5  D3          1    2    3    0
 -5  ALL         1    2    0    0    1ALL
 -1         1 1.30194E-03 0.00000E+00 0.00000E+00
 -1         2 1.22689E-03-2.15336E-27 1.32349E-23
 -1         3 2.69059E-04-4.65693E-27 0.00000E+00
 -1         5 1.49511E-04-8.51787E-27 0.00000E+00
 -1         8 1.28242E-03-6.15931E-07 0.00000E+00
 -1         9 1.25090E-03-3.71104E-06 0.00000E+00
 -1        10 2.44804E-04-3.24201E-06 0.00000E+00
 -1        12 1.50379E-04 7.07285E-07-8.27181E-25
 -1        15 1.25899E-03-6.77739E-07 0.00000E+00
 -1        16 1.26582E-03-4.51202E-06 0.00000E+00
 -1        17 1.69325E-04-7.13602E-06 0.00000E+00
 -1        18 1.51570E-04 2.07131E-05 0.00000E+00
 -1        19 1.52985E-04 1.41048E-06 0.00000E+00
 -1        20 1.53131E-04 8.48565E-07 0.00000E+00
 -1        21 1.52374E-04-2.59970E-06-3.30872E-24
 -1        24 2.71928E-05-1.03269E-05 0.00000E+00
 -1        25 1.57439E-04 2.08979E-05 0.00000E+00
 -1        26 1.58139E-04 1.95535E-06 0.00000E+00
 -1        27 1.56208E-04-2.30840E-06 0.00000E+00
 -1        28 1.55832E-04-3.16759E-06 0.00000E+00
 -1        32 0.00000E+00 0.00000E+00 0.00000E+00
 -1        33 1.62239E-04 2.61999E-06 0.00000E+00
 -1        34 1.60348E-04-2.34848E-06 0.00000E+00
 -1        35 1.58603E-04-3.47529E-06 0.00000E+00
 -1        51 1.30068E-03-1.11078E-07 0.00000E+00
 -1        52 1.29834E-03-2.10006E-07 0.00000E+00
 -1        53 1.29512E-03-3.07835E-07 0.00000E+00
 -1        54 1.29125E-03-4.06566E-07 0.00000E+00
 -1        55 1.28694E-03-5.07568E-07 4.13590E-25
 -1        56 1.29892E-03-3.60705E-07 5.29396E-23
 -1        57 1.29530E-03 5.62342E-07 0.00000E+00
 -1        58 1.29125E-03 2.61540E-06 1.05879E-22
 -1        59 1.28687E-03 5.51828E-06-5.29396E-23
 -1        60 1.28230E-03 8.89209E-06 0.00000E+00
 -1        61 1.27771E-03 1.23191E-05 5.29396E-23
 -1        62 1.27326E-03 1.53757E-05 0.00000E+00
 -1        63 1.26910E-03 1.76621E-05 5.29396E-23
 -1        64 1.26535E-03 1.88820E-05-1.05879E-22
 -1        65 1.26208E-03 1.88104E-05-5.29396E-23
 -1        66 1.25932E-03 1.73960E-05 0.00000E+00
 -1        67 1.25705E-03 1.46780E-05 0.00000E+00
 -1        68 1.25518E-03 1.08701E-05 0.00000E+00
 -1        69 1.25363E-03 6.26540E-06 2.64698E-23
 -1        70 1.25222E-03 1.25214E-06 0.00000E+00
 -1        86 1.22796E-03-6.09230E-07 0.00000E+00
 -1        87 1.23113E-03-1.22286E-06-6.61744E-24
 -1        88 1.23576E-03-1.84185E-06 0.00000E+00
 -1        89 1.24120E-03-2.46553E-06-1.32349E-23
 -1        90 1.24655E-03-3.08844E-06 2.64698E-23
 -1       121 2.68378E-04-5.30027E-07 0.00000E+00
 -1       122 2.66338E-04-1.06184E-06 0.00000E+00
 -1       123 2.62946E-04-1.59718E-06-1.32349E-23
 -1       124 2.58214E-04-2.13786E-06 0.00000E+00
 -1       125 2.52159E-04-2.68535E-06 1.32349E-23
 -1       191 1.49535E-04 1.17898E-07 0.00000E+00
 -1       192 1.49607E-04 2.35793E-07-8.27181E-25
 -1       193 1.49728E-04 3.53683E-07 1.65436E-24
 -1       194 1.49897E-04 4.71565E-07 8.27181E-25
 -1       195 1.50114E-04 5.89434E-07 0.00000E+00
 -1       251 1.28174E-03-1.14176E-05 0.00000E+00
 -1       252 1.28034E-03-5.13077E-05-6.61744E-24
 -1       253 1.27794E-03-1.12447E-04 0.00000E+00
 -1       254 1.27471E-03-1.86469E-04 6.61744E-24
 -1       255 1.27142E-03-2.61279E-04 0.00000E+00
 -1       256 1.26888E-03-3.24766E-04 6.61744E-24
 -1       257 1.26734E-03-3.68104E-04 0.00000E+00
 -1       258 1.26660E-03-3.82961E-04 6.61744E-24
 -1       259 1.26587E-03-3.68928E-04 0.00000E+00
 -1       260 1.26437E-03-3.26346E-04 0.00000E+00
 -1       261 1.26187E-03-2.63496E-04 0.00000E+00
 -1       262 1.25861E-03-1.89156E-04 0.00000E+00
 -1       263 1.25539E-03-1.15438E-04 0.00000E+00
 -1       264 1.25300E-03-5.44395E-05-1.32349E-23
 -1       265 1.25160E-03-1.45670E-05 0.00000E+00
 -1       266 1.27851E-03-6.35178E-07 3.30872E-24
 -1       267 1.27461E-03-6.44389E-07 8.27181E-25
 -1       268 1.27070E-03-6.54236E-07 0.00000E+00
 -1       269 1.26680E-03-6.62200E-07 2.06795E-25
 -1       270 1.26290E-03-6.70119E-07-2.06795E-25
 -1       271 1.28001E-03 2.86725E-06 2.64698E-23
 -1       272 1.27765E-03 6.15169E-06-1.32349E-23
 -1       273 1.27539E-03 9.16547E-06-2.64698E-23
 -1       274 1.27326E-03 1.18255E-05 0.00000E+00
 -1       275 1.27129E-03 1.40572E-05 2.64698E-23
 -1       276 1.26951E-03 1.57895E-05 0.00000E+00
 -1       277 1.26794E-03 1.69580E-05-2.64698E-23
 -1       278 1.26661E-03 1.75054E-05 0.00000E+00
 -1       279 1.26552E-03 1.73822E-05 0.00000E+00
 -1       280 1.26470E-03 1.65474E-05 1.32349E-23
 -1       281 1.26417E-03 1.49690E-05 0.00000E+00
 -1       282 1.26391E-03 1.26245E-05-1.32349E-23
 -1       283 1.26395E-03 9.50124E-06 2.64698E-23
 -1       284 1.26428E-03 5.59713E-06 1.32349E-23
 -1       285 1.26490E-03 9.18017E-07-2.64698E-23
 -1       301 1.25357E-03-3.86442E-06 0.00000E+00
 -1       302 1.25548E-03-3.98967E-06 3.30872E-24
 -1       303 1.25715E-03-4.11244E-06 0.00000E+00
 -1       304 1.25908E-03-4.23516E-06 0.00000E+00
 -1       305 1.26180E-03-4.36134E-06 0.00000E+00
 -1       306 1.27731E-03-1.00715E-04 0.00000E+00
 -1       307 1.33743E-03-3.74762E-04-5.29396E-23
 -1       308 1.40519E-03-7.81833E-04 1.05879E-22
 -1       309 1.46961E-03-1.26157E-03 0.00000E+00
 -1       310 1.53455E-03-1.73234E-03 0.00000E+00
 -1       311 1.60219E-03-2.11341E-03 5.29396E-23
 -1       312 1.65738E-03-2.34936E-03 1.05879E-22
 -1       313 1.67103E-03-2.40369E-03 5.29396E-23
 -1       314 1.60960E-03-2.27843E-03 1.05879E-22
 -1       315 1.45066E-03-1.99967E-03-5.29396E-23
 -1       316 1.20405E-03-1.61642E-03 1.05879E-22
 -1       317 9.02147E-04-1.17998E-03 0.00000E+00
 -1       318 6.03793E-04-7.46844E-04-1.05879E-22
 -1       319 3.66866E-04-3.73814E-04 5.29396E-23
 -1       320 2.20104E-04-1.11434E-04-1.05879E-22
 -1       336 2.36003E-04-3.85179E-06-1.32349E-23
 -1       337 2.25623E-04-4.47673E-06 0.00000E+00
 -1       338 2.13708E-04-5.11776E-06 1.32349E-23
 -1       339 2.00312E-04-5.77505E-06 0.00000E+00
 -1       340 1.85495E-04-6.45169E-06 1.32349E-23
 -1       406 1.50693E-04 8.25110E-07 1.65436E-24
 -1       407 1.51055E-04 9.42881E-07 1.65436E-24
 -1       408 1.51465E-04 1.06056E-06 1.65436E-24
 -1       409 1.51924E-04 1.17801E-06-8.27181E-25
 -1       410 1.52431E-04 1.29501E-06 1.65436E-24
 -1       521 1.29346E-03-1.09979E-04 0.00000E+00
 -1       522 1.35453E-03-4.03485E-04-5.29396E-23
 -1       523 1.42090E-03-8.38429E-04-1.05879E-22
 -1       524 1.48183E-03-1.34911E-03-5.29396E-23
 -1       525 1.54361E-03-1.84959E-03 0.00000E+00
 -1       526 1.61051E-03-2.25496E-03-5.29396E-23
 -1       527 1.66657E-03-2.50495E-03 0.00000E+00
 -1       528 1.67982E-03-2.56163E-03-5.29396E-23
 -1       529 1.61189E-03-2.42642E-03 0.00000E+00
 -1       530 1.43783E-03-2.12976E-03 0.00000E+00
 -1       531 1.16735E-03-1.72364E-03-1.05879E-22
 -1       532 8.36434E-04-1.26288E-03 0.00000E+00
 -1       533 5.08894E-04-8.05075E-04-1.05879E-22
 -1       534 2.47607E-04-4.08095E-04-5.29396E-23
 -1       535 8.50925E-05-1.26275E-04-2.11758E-22
 -1       536 1.68824E-04 1.95672E-05 0.00000E+00
 -1       537 1.67640E-04 6.59277E-05-3.30872E-24
 -1       538 1.65842E-04 1.24748E-04 0.00000E+00
 -1       539 1.63739E-04 1.88766E-04 1.65436E-24
 -1       540 1.61844E-04 2.49187E-04 3.30872E-24
 -1       541 1.60596E-04 2.97235E-04 1.65436E-24
 -1       542 1.59996E-04 3.27633E-04 3.30872E-24
 -1       543 1.59813E-04 3.35213E-04 0.00000E+00
 -1       544 1.59559E-04 3.20651E-04-3.30872E-24
 -1       545 1.58788E-04 2.84775E-04 1.65436E-24
 -1       546 1.57413E-04 2.33974E-04 0.00000E+00
 -1       547 1.55590E-04 1.74726E-04 1.65436E-24
 -1       548 1.53794E-04 1.15949E-04 3.30872E-24
 -1       549 1.52487E-04 6.65578E-05 0.00000E+00
 -1       550 1.51787E-04 3.27717E-05 1.65436E-24
 -1       551 1.49746E-04-7.58033E-06 0.00000E+00
 -1       552 1.27368E-04-8.07603E-06-3.30872E-24
 -1       553 1.03050E-04-8.61276E-06-4.51718E-24
 -1       554 7.76660E-05-9.17607E-06-6.61744E-24
 -1       555 5.20906E-05-9.74640E-06 2.64698E-23
 -1       556 1.63561E-04 7.67628E-06 0.00000E+00
 -1       557 1.58952E-04 1.95618E-05 0.00000E+00
 -1       558 1.55386E-04 2.87574E-05 0.00000E+00
 -1       559 1.52757E-04 3.55189E-05 0.00000E+00
 -1       560 1.50960E-04 4.01022E-05 0.00000E+00
 -1       561 1.49892E-04 4.27652E-05 0.00000E+00
 -1       562 1.49453E-04 4.37665E-05 0.00000E+00
 -1       563 1.49540E-04 4.33652E-05 0.00000E+00
 -1       564 1.50055E-04 4.18213E-05 0.00000E+00
 -1       565 1.50900E-04 3.93949E-05 0.00000E+00
 -1       566 1.51977E-04 3.63466E-05 0.00000E+00
 -1       567 1.53188E-04 3.29370E-05-3.30872E-24
 -1       568 1.54437E-04 2.94271E-05 1.24077E-24
 -1       569 1.55626E-04 2.60774E-05 0.00000E+00
 -1       570 1.56659E-04 2.31489E-05 0.00000E+00
 -1       571 1.51656E-04 1.94651E-05-1.65436E-24
 -1       572 1.51744E-04 1.81623E-05-4.13590E-25
 -1       573 1.51832E-04 1.68173E-05 1.65436E-24
 -1       574 1.51920E-04 1.54428E-05 0.00000E+00
 -1       575 1.52009E-04 1.40520E-05 3.30872E-24
 -1       576 1.52097E-04 1.26578E-05 0.00000E+00
 -1       577 1.52186E-04 1.12735E-05 0.00000E+00
 -1       578 1.52274E-04 9.91197E-06 1.65436E-24
 -1       579 1.52363E-04 8.58643E-06 0.00000E+00
 -1       580 1.52452E-04 7.30994E-06 0.00000E+00
 -1       581 1.52541E-04 6.09561E-06 0.00000E+00
 -1       582 1.52629E-04 4.95647E-06 0.00000E+00
 -1       583 1.52718E-04 3.90562E-06 0.00000E+00
 -1       584 1.52807E-04 2.95598E-06 0.00000E+00
 -1       585 1.52896E-04 2.12035E-06-6.61744E-24
 -1       586 1.52499E-04 2.07458E-05 0.00000E+00
 -1       587 1.53396E-04 2.07779E-05-2.06795E-25
 -1       588 1.54299E-04 2.08097E-05-8.27181E-25
 -1       589 1.55249E-04 2.08408E-05 0.00000E+00
 -1       590 1.56283E-04 2.08710E-05 0.00000E+00
 -1       591 1.51986E-04 1.95356E-05 1.03398E-25
 -1       592 1.52407E-04 1.83350E-05 2.06795E-25
 -1       593 1.52835E-04 1.71170E-05 0.00000E+00
 -1       594 1.53266E-04 1.58867E-05 0.00000E+00
 -1       595 1.53701E-04 1.46489E-05 0.00000E+00
 -1       596 1.54136E-04 1.34086E-05 4.13590E-25
 -1       597 1.54570E-04 1.21709E-05 0.00000E+00
 -1       598 1.55002E-04 1.09405E-05 0.00000E+00
 -1       599 1.55429E-04 9.72235E-06 0.00000E+00
 -1       600 1.55849E-04 8.52148E-06 4.13590E-25
 -1       601 1.56261E-04 7.34278E-06-8.27181E-25
 -1       602 1.56663E-04 6.19115E-06-4.13590E-25
 -1       603 1.57054E-04 5.07154E-06 0.00000E+00
 -1       604 1.57431E-04 3.98896E-06-1.03398E-25
 -1       605 1.57792E-04 2.94826E-06 0.00000E+00
 -1       606 1.52998E-04 9.01610E-07 0.00000E+00
 -1       607 1.53008E-04 4.83761E-07 0.00000E+00
 -1       608 1.53018E-04 1.51589E-07 3.30872E-24
 -1       609 1.53027E-04-1.00933E-07 0.00000E+00
 -1       610 1.53036E-04-2.79875E-07 3.30872E-24
 -1       611 1.53045E-04-3.91380E-07 0.00000E+00
 -1       612 1.53053E-04-4.41594E-07 0.00000E+00
 -1       613 1.53062E-04-4.36676E-07 0.00000E+00
 -1       614 1.53071E-04-3.82783E-07-1.65436E-24
 -1       615 1.53080E-04-2.86072E-07-8.27181E-25
 -1       616 1.53089E-04-1.52700E-07 1.65436E-24
 -1       617 1.53097E-04 1.11748E-08 0.00000E+00
 -1       618 1.53106E-04 1.99394E-07 0.00000E+00
 -1       619 1.53115E-04 4.05804E-07 4.13590E-25
 -1       620 1.53123E-04 6.24247E-07 0.00000E+00
 -1       621 1.53650E-04 1.50160E-06-1.65436E-24
 -1       622 1.54422E-04 1.59301E-06 0.00000E+00
 -1       623 1.55279E-04 1.68432E-06 3.30872E-24
 -1       624 1.56200E-04 1.77541E-06 1.65436E-24
 -1       625 1.57160E-04 1.86631E-06 0.00000E+00
 -1       626 1.53277E-04 9.34053E-07 0.00000E+00
 -1       627 1.53543E-04 5.28973E-07 0.00000E+00
 -1       628 1.53786E-04 1.87248E-07-3.30872E-24
 -1       629 1.54008E-04-9.94816E-08 0.00000E+00
 -1       630 1.54213E-04-3.39595E-07 0.00000E+00
 -1       631 1.54403E-04-5.41497E-07 0.00000E+00
 -1       632 1.54582E-04-7.13592E-07 3.30872E-24
 -1       633 1.54753E-04-8.64288E-07 1.65436E-24
 -1       634 1.54920E-04-1.00199E-06 0.00000E+00
 -1       635 1.55084E-04-1.13510E-06 1.65436E-24
 -1       636 1.55250E-04-1.27203E-06 3.30872E-24
 -1       637 1.55421E-04-1.42118E-06 1.65436E-24
 -1       638 1.55599E-04-1.59096E-06 0.00000E+00
 -1       639 1.55788E-04-1.78979E-06 8.27181E-25
 -1       640 1.55990E-04-2.02609E-06 1.65436E-24
 -1       656 1.53133E-04 3.35202E-07 0.00000E+00
 -1       657 1.53537E-04-1.98869E-07 6.61744E-24
 -1       658 1.54204E-04-7.31530E-07 0.00000E+00
 -1       659 1.54988E-04-1.26382E-06 0.00000E+00
 -1       660 1.55714E-04-1.79774E-06 0.00000E+00
 -1       661 1.53134E-04 1.03401E-06 0.00000E+00
 -1       662 1.53169E-04 1.14037E-06 0.00000E+00
 -1       663 1.53232E-04 1.17167E-06 0.00000E+00
 -1       664 1.53322E-04 1.13316E-06 0.00000E+00
 -1       665 1.53436E-04 1.02947E-06 0.00000E+00
 -1       666 1.53574E-04 8.65329E-07 0.00000E+00
 -1       667 1.53732E-04 6.45201E-07 1.65436E-24
 -1       668 1.53909E-04 3.73512E-07 8.27181E-25
 -1       669 1.54104E-04 5.45153E-08-1.65436E-24
 -1       670 1.54316E-04-3.07620E-07-8.27181E-25
 -1       671 1.54542E-04-7.08843E-07 0.00000E+00
 -1       672 1.54781E-04-1.14522E-06 8.27181E-25
 -1       673 1.55031E-04-1.61283E-06 1.65436E-24
 -1       674 1.55291E-04-2.10814E-06 0.00000E+00
 -1       675 1.55560E-04-2.62701E-06 0.00000E+00
 -1       676 1.52953E-04-2.69491E-06 0.00000E+00
 -1       677 1.53530E-04-2.79007E-06 0.00000E+00
 -1       678 1.54108E-04-2.88518E-06 0.00000E+00
 -1       679 1.54684E-04-2.98001E-06 1.65436E-24
 -1       680 1.55259E-04-3.07483E-06 1.65436E-24
 -1       771 1.78606E-05 1.02107E-05 0.00000E+00
 -1       772 9.96681E-06 2.70709E-05 0.00000E+00
 -1       773 3.44279E-06 4.04374E-05 0.00000E+00
 -1       774-1.80426E-06 5.05141E-05 0.00000E+00
 -1       775-5.86566E-06 5.75121E-05 5.29396E-23
 -1       776-8.83639E-06 6.16540E-05 0.00000E+00
 -1       777-1.08117E-05 6.31694E-05 5.29396E-23
 -1       778-1.18888E-05 6.22973E-05 2.64698E-23
 -1       779-1.21649E-05 5.92826E-05 0.00000E+00
 -1       780-1.17388E-05 5.43780E-05 0.00000E+00
 -1       781-1.07091E-05 4.78409E-05 0.00000E+00
 -1       782-9.17553E-06 3.99346E-05 0.00000E+00
 -1       783-7.23750E-06 3.09256E-05-5.29396E-23
 -1       784-4.99544E-06 2.10847E-05-2.64698E-23
 -1       785-2.54923E-06 1.06847E-05 0.00000E+00
 -1       786 1.57479E-04 1.94979E-05 0.00000E+00
 -1       787 1.57522E-04 1.81456E-05 4.13590E-25
 -1       788 1.57565E-04 1.68332E-05 0.00000E+00
 -1       789 1.57609E-04 1.55528E-05-8.27181E-25
 -1       790 1.57653E-04 1.42998E-05 0.00000E+00
 -1       791 1.57697E-04 1.30697E-05 0.00000E+00
 -1       792 1.57741E-04 1.18604E-05 0.00000E+00
 -1       793 1.57785E-04 1.06698E-05 0.00000E+00
 -1       794 1.57829E-04 9.49753E-06 1.65436E-24
 -1       795 1.57873E-04 8.34355E-06 0.00000E+00
 -1       796 1.57918E-04 7.20950E-06 0.00000E+00
 -1       797 1.57962E-04 6.09709E-06-8.27181E-25
 -1       798 1.58006E-04 5.01027E-06 1.65436E-24
 -1       799 1.58051E-04 3.95303E-06 8.27181E-25
 -1       800 1.58095E-04 2.93236E-06 0.00000E+00
 -1       801 1.24885E-04 1.85563E-05 2.64698E-23
 -1       802 2.59809E-05 1.20008E-05 1.32349E-23
 -1       803-6.11112E-05 6.33777E-06-5.29396E-23
 -1       804-5.92207E-05 4.29954E-06 0.00000E+00
 -1       805-2.03992E-05 1.89875E-06 0.00000E+00
 -1       806 1.57862E-04 1.94380E-05-1.65436E-24
 -1       807 1.58271E-04 1.80048E-05 0.00000E+00
 -1       808 1.58668E-04 1.66025E-05 0.00000E+00
 -1       809 1.59052E-04 1.52343E-05 0.00000E+00
 -1       810 1.59422E-04 1.39034E-05 3.30872E-24
 -1       811 1.59777E-04 1.26131E-05-8.27181E-25
 -1       812 1.60115E-04 1.13663E-05 1.65436E-24
 -1       813 1.60436E-04 1.01663E-05-8.27181E-25
 -1       814 1.60738E-04 9.01615E-06-1.65436E-24
 -1       815 1.61021E-04 7.91892E-06 0.00000E+00
 -1       816 1.61282E-04 6.87773E-06 0.00000E+00
 -1       817 1.61522E-04 5.89565E-06 8.27181E-25
 -1       818 1.61738E-04 4.97578E-06 0.00000E+00
 -1       819 1.61930E-04 4.12119E-06-1.65436E-24
 -1       820 1.62097E-04 3.33492E-06-1.65436E-24
 -1       821 1.58025E-04 8.57536E-07-8.27181E-25
 -1       822 1.57904E-04-5.23157E-07 0.00000E+00
 -1       823 1.57783E-04-2.03289E-06 0.00000E+00
 -1       824 1.57660E-04-3.51707E-06 0.00000E+00
 -1       825 1.57538E-04-4.82761E-06-3.30872E-24
 -1       826 1.57415E-04-5.81728E-06 1.65436E-24
 -1       827 1.57293E-04-6.41811E-06 3.30872E-24
 -1       828 1.57172E-04-6.56425E-06 0.00000E+00
 -1       829 1.57050E-04-6.30207E-06-3.30872E-24
 -1       830 1.56928E-04-5.68018E-06 0.00000E+00
 -1       831 1.56806E-04-4.83597E-06 0.00000E+00
 -1       832 1.56684E-04-3.90805E-06 0.00000E+00
 -1       833 1.56562E-04-3.05574E-06-3.30872E-24
 -1       834 1.56442E-04-2.43789E-06 1.65436E-24
 -1       835 1.56321E-04-2.15567E-06-8.27181E-25
 -1       836 1.59009E-04 2.06577E-06-3.30872E-24
 -1       837 1.59764E-04 2.17882E-06 0.00000E+00
 -1       838 1.60433E-04 2.29176E-06 0.00000E+00
 -1       839 1.61048E-04 2.40402E-06 0.00000E+00
 -1       840 1.61640E-04 2.51611E-06-4.13590E-25
 -1       856 1.56188E-04-2.61221E-06 0.00000E+00
 -1       857 1.56165E-04-2.79088E-06 0.00000E+00
 -1       858 1.56142E-04-2.86391E-06 4.13590E-25
 -1       859 1.56119E-04-2.85090E-06 0.00000E+00
 -1       860 1.56095E-04-2.77151E-06-8.27181E-25
 -1       861 1.56071E-04-2.64548E-06 4.13590E-25
 -1       862 1.56048E-04-2.49258E-06-8.27181E-25
 -1       863 1.56024E-04-2.33260E-06 4.13590E-25
 -1       864 1.56000E-04-2.18536E-06-8.27181E-25
 -1       865 1.55976E-04-2.07063E-06 0.00000E+00
 -1       866 1.55953E-04-2.00818E-06 0.00000E+00
 -1       867 1.55929E-04-2.01773E-06 4.13590E-25
 -1       868 1.55905E-04-2.11892E-06-8.27181E-25
 -1       869 1.55881E-04-2.33134E-06 4.13590E-25
 -1       870 1.55857E-04-2.67444E-06-8.27181E-25
 -1       871 1.56768E-04-2.31122E-06 4.13590E-25
 -1       872 1.57460E-04-2.31696E-06 0.00000E+00
 -1       873 1.58223E-04-2.32326E-06 0.00000E+00
 -1       874 1.58999E-04-2.33023E-06 3.61892E-25
 -1       875 1.59727E-04-2.33774E-06-1.24077E-24
 -1       876 1.56437E-04-2.59949E-06-6.61744E-24
 -1       877 1.56646E-04-2.82918E-06 0.00000E+00
 -1       878 1.56835E-04-3.00485E-06-3.30872E-24
 -1       879 1.57006E-04-3.13330E-06 0.00000E+00
 -1       880 1.57162E-04-3.22140E-06 0.00000E+00
 -1       881 1.57306E-04-3.27597E-06-1.65436E-24
 -1       882 1.57440E-04-3.30381E-06 0.00000E+00
 -1       883 1.57566E-04-3.31172E-06 0.00000E+00
 -1       884 1.57688E-04-3.30650E-06-3.30872E-24
 -1       885 1.57807E-04-3.29492E-06 1.65436E-24
 -1       886 1.57926E-04-3.28378E-06 0.00000E+00
 -1       887 1.58048E-04-3.27989E-06 1.65436E-24
 -1       888 1.58174E-04-3.29006E-06 3.30872E-24
 -1       889 1.58308E-04-3.32121E-06 0.00000E+00
 -1       890 1.58452E-04-3.38011E-06-1.65436E-24
 -1       891 1.56427E-04-3.21920E-06 1.65436E-24
 -1       892 1.57000E-04-3.27096E-06-8.27181E-25
 -1       893 1.57528E-04-3.32266E-06-8.27181E-25
 -1       894 1.57986E-04-3.37418E-06-4.13590E-25
 -1       895 1.58353E-04-3.42553E-06 4.13590E-25
 -1       956 1.62122E-04 2.05501E-06 1.65436E-24
 -1       957 1.62004E-04 1.56806E-06 8.27181E-25
 -1       958 1.61886E-04 1.15012E-06 3.30872E-24
 -1       959 1.61767E-04 7.91713E-07 0.00000E+00
 -1       960 1.61649E-04 4.83297E-07 0.00000E+00
 -1       961 1.61530E-04 2.15309E-07 1.65436E-24
 -1       962 1.61412E-04-2.18258E-08 0.00000E+00
 -1       963 1.61293E-04-2.37695E-07 0.00000E+00
 -1       964 1.61175E-04-4.41881E-07 3.30872E-24
 -1       965 1.61056E-04-6.43971E-07 0.00000E+00
 -1       966 1.60937E-04-8.53556E-07-3.30872E-24
 -1       967 1.60819E-04-1.08022E-06 0.00000E+00
 -1       968 1.60700E-04-1.33353E-06 0.00000E+00
 -1       969 1.60582E-04-1.62306E-06 0.00000E+00
 -1       970 1.60464E-04-1.95832E-06 0.00000E+00
 -1       971 1.60240E-04-2.73092E-06 1.65436E-24
 -1       972 1.60131E-04-3.02434E-06 0.00000E+00
 -1       973 1.60021E-04-3.23857E-06-3.30872E-24
 -1       974 1.59912E-04-3.38382E-06 0.00000E+00
 -1       975 1.59802E-04-3.47030E-06-3.30872E-24
 -1       976 1.59692E-04-3.50825E-06 0.00000E+00
 -1       977 1.59583E-04-3.50792E-06 0.00000E+00
 -1       978 1.59473E-04-3.47956E-06 0.00000E+00
 -1       979 1.59363E-04-3.43344E-06 3.30872E-24
 -1       980 1.59254E-04-3.37983E-06-1.65436E-24
 -1       981 1.59144E-04-3.32899E-06 0.00000E+00
 -1       982 1.59034E-04-3.29119E-06 0.00000E+00
 -1       983 1.58925E-04-3.27670E-06-3.30872E-24
 -1       984 1.58816E-04-3.29576E-06 0.00000E+00
 -1       985 1.58708E-04-3.35863E-06-1.65436E-24
 -3
    1PSTEP                        16           8           1          
  100CL  108 6.09375E-01         409                     0    8           1
 -4  STRESS      6    1
 -5  SXX         1    4    1    1
 -5  SYY         1    4    2    2
 -5  SZZ         1    4    3    3
 -5  SXY         1    4    1    2
 -5  SYZ         1    4    2    3
 -5  SZX         1    4    3    1
 -1         1-3.72521E+06-1.43763E+06-8.15162E+05-1.51053E+06 4.43833E-10 5.06407E-09
 -1         2 8.06574E+02-1.73369E+06 2.89044E+03 1.57456E+04 5.48852E-10-7.24516E-08
 -1         3-8.47273E+02-1.50888E+06 3.67475E+02-1.62120E+03-3.62142E-10-1.71713E-08
 -1         5-1.73192E+01 3.37408E+05 8.61428E+00-4.81649E-01-2.45290E-10-2.80670E-09
 -1         8-8.02285E+05-2.74648E+05-7.58868E+04-4.52415E+05-2.85581E-10 4.61259E-08
 -1         9 3.70829E+06-6.98725E+05 6.82262E+05-7.94426E+05 2.46277E-08 3.70434E-08
 -1        10-1.76069E+03-1.57221E+06-3.20895E+03-1.09582E+04-1.02191E-08-3.38778E-08
 -1        12-1.38132E+01 3.37426E+05 2.79941E+02-3.47071E+00-3.57687E-10 4.63979E-09
 -1        15 1.48223E+03 8.14566E+02 4.79128E+03 2.50245E+00-3.27617E-10-1.97103E-07
 -1        16 9.32623E+06-3.93390E+05 1.34351E+06-1.07998E+06 1.10789E-08 2.06443E-08
 -1        17 3.21881E+06 2.11674E+06 8.83535E+05 2.18429E+06 7.42148E-09 3.10189E-08
 -1        18 6.19060E+04 1.18741E+04-1.16920E+04-9.94856E+04 1.34432E-08 7.37828E-09
 -1        19 1.08504E+05 1.24601E+05-8.14775E+02 2.05214E+04 3.94721E-11-6.25732E-11
 -1        20-6.43759E+04-5.07145E+05-1.13236E+05 2.68117E+04 1.93722E-10 7.93443E-09
 -1        21-4.32657E+01-2.72086E+05-8.58389E+02 1.07896E+02 6.45509E-09-2.50992E-08
 -1        24 5.02676E+06 4.51408E+06 1.58548E+06 4.11896E+06-1.06544E-07-3.81648E-08
 -1        25-8.22393E+03-2.23037E+05-2.55177E+04-3.69169E+05-2.46291E-10 1.16564E-08
 -1        26-4.60934E+04 8.08495E+04-2.15386E+04-1.56320E+03 8.68749E-10 5.10554E-09
 -1        27-7.04730E+04-2.75065E+05-1.01596E+05 6.19254E+04 4.64615E-09-5.02102E-09
 -1        28 2.06865E+04-7.74380E+04 1.54910E+04 2.05047E+04-9.80606E-10 4.81488E-09
 -1        32-1.53443E+06-2.69089E+06-1.39269E+05-3.17947E+04-3.34039E-08-9.33790E-09
 -1        33-1.60254E+05 8.13090E+04 2.86538E+04-3.57656E+04-9.73387E-10 7.06829E-09
 -1        34-2.01252E+05-2.16366E+04 5.79384E+02 6.61179E+04-1.74872E-09-1.50912E-08
 -1        35-2.12056E+04-3.07162E+04-1.21863E+03 4.73638E+04-8.49241E-11 9.96806E-10
 -1        51 4.06033E+04-2.52542E+05 8.95617E+04-7.37811E+05 1.30967E-10 1.10595E-08
 -1        52 1.57748E+04-2.39606E+05 4.97394E+04-8.60296E+05-1.70985E-10-9.03092E-08
 -1        53 5.65497E+03-2.54553E+05 3.02717E+04-7.35154E+05 4.43833E-10-3.58705E-08
 -1        54 1.39527E+04-2.51542E+05 3.36942E+04-8.63050E+05 1.74623E-10-2.24099E-09
 -1        55 2.87095E+04-2.62326E+05 5.12819E+04-7.34770E+05 6.69388E-10 6.22749E-08
 -1        56-7.06198E+06-7.95321E+05-6.02297E+05-2.75156E+06 4.52565E-09 1.77824E-08
 -1        57-7.39302E+06-1.25197E+06-4.06194E+05-2.62485E+06-7.18865E-09-5.61995E-08
 -1        58-7.16428E+06-1.00516E+06-1.41528E+05-2.73438E+06 1.58252E-09 7.42148E-09
 -1        59-7.27858E+06-1.00201E+06-8.44028E+04-2.64187E+06-6.53199E-09-1.09671E-07
 -1        60-7.17489E+06-1.03853E+06-3.29198E+04-2.73683E+06-2.25737E-09 3.08319E-08
 -1        61-7.26003E+06-9.68787E+05-1.86644E+04-2.64564E+06-4.92172E-09 1.82403E-07
 -1        62-7.18242E+06-1.03751E+06-8.99076E+03-2.73081E+06 9.37689E-10 3.26841E-08
 -1        63-7.23749E+06-9.83811E+05-7.11807E+03-2.66707E+06-1.01836E-08-7.94228E-09
 -1        64-7.19679E+06-1.02378E+06-8.41139E+03-2.71501E+06-1.21663E-08 4.65045E-08
 -1        65-7.20745E+06-1.01860E+06-1.62232E+04-2.70212E+06-6.00039E-09 3.97278E-08
 -1        66-7.21216E+06-1.00305E+06-2.90014E+04-2.69548E+06 3.85535E-09-2.78078E-08
 -1        67-7.19382E+06-1.07793E+06-7.33510E+04-2.73424E+06-3.17050E-08-9.21136E-09
 -1        68-7.21117E+06-9.64962E+05-1.23176E+05-2.68298E+06 1.43918E-08 3.34549E-08
 -1        69-7.29411E+06-1.29663E+06-3.53572E+05-2.72240E+06-1.46829E-08-5.75237E-08
 -1        70-7.11430E+06-7.89544E+05-5.24018E+05-2.70614E+06 1.76806E-09-5.49189E-08
 -1        86-5.02086E+02-1.74071E+06 1.75854E+03-7.87255E+03-3.50320E-09 3.65569E-08
 -1        87 2.33783E+03-1.73507E+06 5.05002E+03 2.66074E+04-6.16910E-09-1.56683E-08
 -1        88-1.85838E+03-1.73953E+06 7.01542E+03-1.87347E+04-6.23277E-09-6.95481E-08
 -1        89 1.36685E+04-1.73175E+06 1.91440E+04 3.67421E+04-9.58516E-09-5.80774E-08
 -1        90-1.16407E+04-1.74420E+06 2.67914E+04-1.80086E+04-5.40604E-09 5.65332E-08
 -1       121-1.17819E+03-1.51178E+06-1.55288E+02 8.06390E+02 1.10579E-09-1.38934E-08
 -1       122-6.95841E+02-1.50889E+06 7.40125E+02-3.24002E+03-4.02362E-09 2.16532E-08
 -1       123-1.22521E+03-1.51189E+06 6.64840E+02 2.40857E+03 3.50599E-09-1.27184E-08
 -1       124 8.09950E+02-1.50827E+06 2.96013E+03-6.79643E+03-7.61793E-09-7.63248E-09
 -1       125-2.06462E+03-1.51272E+06 3.94881E+03 4.34396E+03 5.02041E-09-2.65209E-09
 -1       191-1.84629E+01 3.37435E+05 9.73521E+00 2.44145E-01-2.50112E-10-1.08912E-08
 -1       192-1.81180E+01 3.37409E+05 1.82657E+01-1.74577E+00-3.20783E-10-1.09012E-08
 -1       193-2.05827E+01 3.37434E+05 3.34229E+01 1.52281E+00-5.13467E-10 1.11686E-09
 -1       194-2.06867E+01 3.37412E+05 6.91535E+01-4.03716E+00-2.40791E-10-1.62036E-08
 -1       195-2.46550E+01 3.37432E+05 1.34718E+02 2.56357E+00-7.80972E-10-3.76258E-09
 -1       251-2.08204E+06-2.07393E+04-1.81039E+05 1.00076E+05-3.96176E-09-8.52015E-09
 -1       252-1.25760E+06 2.29790E+04 3.83688E+04-3.50766E+05 4.57612E-09-1.61088E-07
 -1       253-1.74613E+06-1.13487E+04-3.62624E+04 2.49832E+05 6.80120E-09 2.12049E-08
 -1       254-1.65090E+06 4.66082E+04 5.72251E+03-5.02410E+05 6.27733E-09 5.92877E-10
 -1       255-1.72822E+06-1.18790E+04-1.43350E+04 2.54584E+05-5.49335E-09 1.66949E-07
 -1       256-1.28958E+06 3.96837E+04 8.18703E+04-3.70160E+05-3.82388E-08-2.81395E-08
 -1       257-2.07192E+06-3.35970E+04-8.44878E+04 1.14890E+05-1.74587E-08 4.88897E-08
 -1       258-9.05874E+05 3.05480E+04 1.55068E+05-1.33388E+03-4.56312E-08-4.95311E-09
 -1       259-2.07404E+06-3.37788E+04-8.34432E+04-1.12612E+05 3.26872E-08-1.49369E-08
 -1       260-1.28428E+06 4.06459E+04 8.68792E+04 3.68656E+05 1.36824E-08-8.87642E-08
 -1       261-1.73097E+06-1.30033E+04-7.11387E+03-2.53391E+05-4.51573E-08-2.64142E-08
 -1       262-1.64622E+06 5.52255E+04 2.46790E+04 5.02913E+05 2.34699E-08 1.87238E-08
 -1       263-1.74806E+06-1.87976E+04-5.33151E+03-2.49557E+05-2.41143E-08 1.02644E-07
 -1       264-1.23466E+06 8.11481E+04 1.20652E+05 3.54255E+05-9.86402E-08 2.66229E-07
 -1       265-2.10342E+06-7.09168E+04-6.26594E+04-1.01915E+05-3.16595E-08-2.69029E-09
 -1       266-2.68330E+04-1.25467E+04 6.29598E+04-5.35462E+01 1.16415E-10 2.47727E-08
 -1       267 3.11071E+04 1.46241E+04 4.44981E+04 6.17797E+01 8.04903E-11-4.88015E-08
 -1       268-4.17140E+03-2.07115E+03 1.65398E+04-7.87192E+00 1.55524E-10-2.15234E-08
 -1       269 4.92521E+03 2.47876E+03 1.07505E+04 9.16949E+00-2.16460E-10-5.46138E-09
 -1       270-7.39280E+02-4.07278E+02 5.18945E+03-1.24437E+00-3.52429E-12 5.52982E-08
 -1       271-2.44000E+06-2.98280E+05-1.82328E+05-9.40451E+05 1.73168E-09 1.16197E-08
 -1       272-2.54425E+06-3.93677E+05-1.17394E+05-8.96056E+05 2.19188E-09 2.66518E-08
 -1       273-2.47344E+06-3.44799E+05-4.30374E+04-9.33303E+05 6.48538E-09 1.15997E-08
 -1       274-2.50458E+06-3.36991E+05-2.41441E+04-9.07051E+05-4.34557E-09-3.67500E-08
 -1       275-2.47852E+06-3.49284E+05-1.00328E+04-9.31464E+05 1.54137E-08 2.95977E-08
 -1       276-2.49727E+06-3.32749E+05-5.28550E+03-9.10572E+05-7.81483E-09 9.04158E-08
 -1       277-2.48040E+06-3.48599E+05-2.63243E+03-9.29826E+05 1.53432E-09-9.83437E-09
 -1       278-2.49351E+06-3.35080E+05-1.74081E+03-9.13948E+05 6.58110E-09-8.02565E-08
 -1       279-2.48204E+06-3.47045E+05-1.90097E+03-9.27945E+05 2.57951E-08 8.79209E-09
 -1       280-2.49018E+06-3.38885E+05-3.14570E+03-9.17738E+05-9.70067E-09-4.32731E-08
 -1       281-2.48356E+06-3.44929E+05-5.88540E+03-9.25905E+05 1.79880E-08-6.81591E-08
 -1       282-2.48905E+06-3.46397E+05-1.37403E+04-9.21426E+05-9.43783E-09 2.02947E-07
 -1       283-2.48315E+06-3.39926E+05-2.46463E+04-9.24080E+05 1.22782E-09-8.83501E-08
 -1       284-2.50667E+06-3.83559E+05-6.68204E+04-9.20740E+05 2.28192E-09-1.09615E-07
 -1       285-2.46649E+06-3.11090E+05-1.04025E+05-9.25411E+05 6.80302E-10 1.97251E-08
 -1       301 1.94562E+04-3.44781E+05 1.73021E+05-6.24651E+05 9.89530E-10-7.59755E-08
 -1       302 2.09342E+04-3.01153E+05 1.07672E+05-9.13711E+05-1.01500E-09 6.90197E-08
 -1       303-1.88976E+03-3.28736E+05 7.12176E+04-6.23199E+05 7.63976E-11-6.61039E-08
 -1       304 1.36719E+04-3.02637E+05 8.97012E+04-9.13053E+05 4.07454E-10 1.17871E-09
 -1       305 1.02500E+04-3.35215E+05 1.32701E+05-6.25288E+05 2.18279E-11-7.84567E-08
 -1       306-1.78556E+07-3.25726E+06-4.32291E+06-1.85240E+06-4.98840E-08-5.71017E-08
 -1       307 1.10093E+07-5.64733E+05 2.59293E+06-8.08118E+06-5.50877E-07-1.51340E-09
 -1       308-8.17364E+06 1.07124E+05-4.05668E+05 2.38453E+06-7.57573E-08 2.83668E-07
 -1       309-3.22523E+06 8.15672E+05 8.27084E+05-1.32071E+07 3.40646E-07 9.07476E-08
 -1       310-9.17982E+06-5.52197E+04-6.04186E+05 2.19446E+06-9.77016E-08-1.05236E-07
 -1       311 1.33027E+07-1.25845E+06 3.09355E+06-6.50169E+06 2.39845E-07 1.31040E-08
 -1       312-1.80945E+07-3.23758E+06-3.78777E+06-2.79145E+06 2.17929E-07 5.32600E-08
 -1       313 2.00116E+07 4.42683E+06 5.02786E+06 8.37989E+06-2.53902E-07-2.91038E-08
 -1       314-1.28040E+07-7.79151E+06-3.59154E+06-7.33349E+06 1.82423E-07 5.13683E-08
 -1       315-2.25070E+06 1.24084E+07 2.79923E+06 6.61154E+06-2.46808E-07 4.83997E-08
 -1       316-1.97661E+06-6.26758E+06-3.49801E+05-4.35096E+06-5.20449E-07-3.04513E-07
 -1       317-1.45300E+07 1.20740E+07 8.06984E+05-1.42933E+06 6.84133E-07-4.62704E-07
 -1       318-2.46898E+06-6.54464E+06-6.81633E+05-4.54712E+06-5.21250E-07 7.03731E-08
 -1       319-5.28411E+05 1.27905E+07 2.81411E+06 7.16226E+06-8.15198E-08 1.22353E-07
 -1       320-1.37298E+07-8.09452E+06-4.63617E+06-7.20426E+06 1.51515E-07-4.83196E-08
 -1       336 1.41162E+02-1.63655E+06-1.16919E+04 6.54179E+03-2.00507E-08-1.16088E-08
 -1       337-4.46304E+03-1.63754E+06-1.47933E+04-1.58434E+04-3.80328E-08-5.12227E-09
 -1       338 6.26773E+02-1.63630E+06-2.21541E+04 9.18876E+03-2.72430E-08-3.94357E-09
 -1       339-2.35262E+04-1.65033E+06-5.00109E+04-2.10066E+04-4.79422E-08 1.58470E-08
 -1       340 1.57359E+04-1.62500E+06-7.83618E+04 1.16280E+04-3.17596E-08 1.35151E-08
 -1       406 7.02374E+00 3.37419E+05 5.52090E+02 9.80379E-01-8.63821E-10 8.15726E-09
 -1       407 1.78949E+02 3.37523E+05 1.17460E+03 1.21130E+01-1.92124E-10-4.07817E-09
 -1       408 5.90450E+02 3.37335E+05 2.34514E+03-1.34191E+01-1.27807E-09-4.41014E-09
 -1       409 2.52372E+03 3.38272E+05 5.28066E+03 1.37379E+02-3.07409E-10-1.26329E-08
 -1       410 7.27575E+03 3.36666E+05 1.07797E+04-1.30917E+02-1.45428E-09 8.58654E-09
 -1       521-1.98472E+07-4.07268E+06-5.22995E+06-1.80225E+06-6.78701E-08-1.19908E-08
 -1       522 1.17705E+07-5.10394E+05 2.71875E+06-1.03390E+07-3.80183E-07-1.22745E-07
 -1       523-9.39084E+06-3.89559E+04-4.57111E+05 2.78949E+06 6.25732E-08-1.35824E-07
 -1       524-5.25971E+06 1.98338E+06 9.44042E+05-1.59681E+07 4.39086E-07-5.43807E-07
 -1       525-1.05425E+07-2.84125E+05-6.96612E+05 2.57496E+06 3.78874E-07-3.64715E-07
 -1       526 1.48265E+07-1.42108E+06 3.39043E+06-8.39678E+06-5.64614E-09-8.56526E-08
 -1       527-2.01756E+07-4.16119E+06-4.50691E+06-2.88380E+06-2.74624E-07-1.09605E-07
 -1       528 2.26882E+07 4.90645E+06 5.45622E+06 9.77336E+06-2.93046E-07-9.28994E-08
 -1       529-1.42036E+07-9.30007E+06-4.26664E+06-7.96035E+06-7.49715E-08 1.76369E-07
 -1       530-3.87317E+06 1.51171E+07 3.08117E+06 7.15419E+06-9.27248E-08 3.57279E-07
 -1       531-2.28927E+06-7.44177E+06-3.84746E+05-4.89763E+06-6.07106E-07 8.42556E-08
 -1       532-1.77618E+07 1.44371E+07 9.45116E+05-3.13514E+06 2.06084E-07-4.10189E-07
 -1       533-2.76236E+06-7.71992E+06-7.37071E+05-5.06531E+06-1.18016E-07-7.04284E-07
 -1       534-2.09478E+06 1.55628E+07 3.07249E+06 7.76015E+06-6.32062E-08 4.72384E-07
 -1       535-1.51597E+07-9.68334E+06-5.42193E+06-7.80795E+06 2.53785E-08 3.04601E-07
 -1       536-5.77227E+05-3.83867E+04-3.58508E+03-3.76276E+04-5.33464E-09 4.18568E-08
 -1       537-1.80293E+05 3.86923E+04 6.73234E+04 8.98887E+04-8.56289E-08 7.89264E-08
 -1       538-3.87516E+05 4.69881E+02 8.69555E+03-5.43448E+04 2.10415E-08 8.70891E-08
 -1       539-3.12434E+05 3.11023E+03 1.86061E+04 1.02818E+05 1.05725E-07 9.51334E-08
 -1       540-4.48263E+05-2.04988E+02-1.09431E+04-5.07958E+04 2.57273E-09 7.58713E-08
 -1       541-6.28565E+04 1.02599E+04 6.46219E+04 6.89068E+04-4.25543E-08 6.34363E-08
 -1       542-6.30398E+05-1.22129E+04-5.02895E+04-2.00396E+04 1.23605E-08 3.71477E-08
 -1       543 9.05383E+04 1.64298E+04 9.44567E+04-1.05217E+04-5.18185E-09 1.53409E-09
 -1       544-5.97572E+05-9.73381E+03-4.45643E+04 2.83216E+04 1.45915E-08-2.62315E-08
 -1       545-1.38330E+05 5.12528E+03 4.62543E+04-8.25209E+04 1.94941E-08-4.69460E-08
 -1       546-4.07625E+05 4.10366E+03-7.88689E+03 5.18124E+04 1.29289E-08-6.53611E-08
 -1       547-3.25338E+05-4.52354E+03 3.20879E+03-1.05206E+05-9.86113E-08-1.04195E-07
 -1       548-4.15537E+05 4.02511E+03-1.87637E+04 5.13197E+04-9.25095E-08-7.97618E-08
 -1       549-1.23776E+05 1.14575E+03 2.47870E+04-7.96540E+04-5.38530E-08-7.11052E-08
 -1       550-6.03751E+05-6.06155E+03-9.43709E+04 2.59290E+04 3.13003E-09-2.99606E-08
 -1       551 3.11249E+04-7.30306E+05 7.45881E+03-1.13870E+06-7.95335E-08 8.17818E-09
 -1       552 6.98173E+04-7.59208E+05 2.29774E+04-1.62341E+06-5.57193E-08 3.31784E-08
 -1       553 5.22465E+04-7.60574E+05 4.07014E+04-1.13343E+06-9.33724E-08 2.10857E-08
 -1       554 1.02863E+05-7.66039E+05 9.10648E+04-1.62530E+06-5.88116E-08 1.35478E-08
 -1       555 8.16004E+04-7.81976E+05 1.63197E+05-1.13378E+06-9.65156E-08-1.38316E-08
 -1       556 1.70932E+05-3.02669E+05 5.20452E+04-3.45384E+05-2.18279E-08-1.60362E-08
 -1       557 2.81443E+05-3.91394E+05 2.87631E+04-4.41541E+05 2.79397E-09 1.37170E-08
 -1       558 1.60794E+05-3.03759E+05 9.37628E+03-3.43424E+05-2.10712E-08 5.31145E-10
 -1       559 2.61516E+05-3.96425E+05 5.44497E+03-4.55201E+05 7.59610E-09 1.56615E-08
 -1       560 1.51100E+05-2.97621E+05 9.21485E+02-3.50228E+05 7.97445E-09 1.05683E-08
 -1       561 2.48961E+05-3.91678E+05 9.93422E+02-4.63587E+05 8.55653E-09 9.82254E-09
 -1       562 1.43460E+05-2.92814E+05-3.30670E+02-3.55725E+05-2.19734E-09 6.50653E-09
 -1       563 2.39937E+05-3.87743E+05 2.20159E+02-4.69437E+05-2.91038E-10 2.50930E-09
 -1       564 1.38155E+05-2.89492E+05-2.00702E+02-3.59474E+05-8.87667E-10-1.64164E-09
 -1       565 2.34213E+05-3.85253E+05 9.55065E+01-4.73081E+05 2.32831E-09-7.12134E-10
 -1       566 1.35272E+05-2.87661E+05-9.38557E+01-3.61493E+05-1.45519E-08-1.56870E-08
 -1       567 2.31788E+05-3.84193E+05-2.03203E+02-4.74512E+05 2.07365E-10-1.42354E-08
 -1       568 1.34874E+05-2.87427E+05-7.18799E+02-3.61867E+05-1.15133E-08-1.00845E-08
 -1       569 2.31525E+05-3.84166E+05-1.81312E+03-4.72827E+05-3.62616E-09 1.82990E-08
 -1       570 1.37866E+05-2.90084E+05-4.05457E+03-3.61133E+05 3.78350E-09-1.46520E-09
 -1       571 2.55034E+05 9.28489E+03 1.34817E+04-7.53290E+04 1.05802E-08 9.62882E-09
 -1       572 2.57012E+05 3.37534E+03 6.60618E+03-8.26385E+04 2.14391E-08-2.66846E-09
 -1       573 2.55825E+05 9.48711E+02 2.93515E+03-7.51775E+04 1.16479E-08 1.23437E-08
 -1       574 2.56038E+05 4.62261E+02 1.47137E+03-8.28224E+04-7.00311E-11 1.74273E-08
 -1       575 2.55912E+05 2.29490E+02 6.94169E+02-7.51570E+04 4.21039E-10-5.70253E-10
 -1       576 2.55913E+05 2.23124E+02 3.54771E+02-8.28469E+04-1.69791E-09 2.80943E-09
 -1       577 2.55939E+05 1.82752E+02 1.76651E+02-7.51543E+04 1.84627E-10 4.85579E-09
 -1       578 2.55924E+05 1.98328E+02 1.00685E+02-8.28501E+04-4.83851E-10-2.96495E-10
 -1       579 2.55982E+05 1.62853E+02 6.80313E+01-7.51540E+04 2.32103E-09 6.34918E-09
 -1       580 2.55984E+05 1.69372E+02 7.59898E+01-8.28460E+04-8.80937E-09 1.54614E-09
 -1       581 2.56050E+05 1.30076E+02 1.14089E+02-7.51587E+04 3.87809E-09-4.86216E-09
 -1       582 2.56095E+05 1.56624E+02 2.29027E+02-8.27975E+04 2.37924E-09 1.45155E-09
 -1       583 2.56132E+05 1.84413E+02 4.41601E+02-7.52028E+04 1.73350E-09-6.61089E-09
 -1       584 2.56360E+05 5.39806E+02 9.96256E+02-8.24264E+04 3.58705E-09-1.37788E-09
 -1       585 2.56117E+05 1.39701E+03 2.02090E+03-7.55296E+04-1.32604E-09 4.33647E-09
 -1       586-3.10407E+03 9.31849E+04-3.22897E+03-2.24340E+05-4.55702E-09 1.09121E-08
 -1       587-9.70473E+02 9.28394E+04 3.00575E+02-2.46921E+05-3.83625E-09 6.64716E-09
 -1       588 6.13147E+02 9.27777E+04 3.91396E+03-2.24228E+05-2.56114E-09 1.25501E-08
 -1       589 4.68095E+03 9.48507E+04 1.04855E+04-2.46682E+05-4.61296E-09 6.86123E-09
 -1       590 1.45236E+04 9.16293E+04 2.21266E+04-2.24613E+05-2.29011E-09 1.35697E-08
 -1       591-5.87095E+04-1.36271E+04-1.87967E+04-2.63355E+04 2.37969E-09-2.53294E-09
 -1       592-6.17542E+04-1.69619E+04-1.01816E+04-2.97775E+04-1.79898E-09-4.65161E-09
 -1       593-6.05924E+04-1.22600E+04-4.23824E+03-2.77108E+04 2.31577E-09 3.45131E-09
 -1       594-5.91539E+04-1.42092E+04-2.11377E+03-2.98823E+04-8.54357E-11 3.31127E-09
 -1       595-6.07361E+04-1.22552E+04-9.70695E+02-2.77733E+04-3.23705E-09 4.50788E-09
 -1       596-5.89762E+04-1.40833E+04-4.93736E+02-2.98617E+04 4.30349E-09 1.00570E-08
 -1       597-6.07541E+04-1.22679E+04-2.69430E+02-2.77757E+04 8.27333E-09 7.21155E-09
 -1       598-5.89588E+04-1.40784E+04-2.17651E+02-2.98559E+04 1.40497E-09 5.77057E-09
 -1       599-6.07530E+04-1.22682E+04-2.79343E+02-2.77753E+04 2.09445E-09-1.11386E-08
 -1       600-5.89767E+04-1.40841E+04-5.19982E+02-2.98602E+04-2.10582E-09-1.68608E-08
 -1       601-6.07317E+04-1.22558E+04-1.02635E+03-2.77722E+04-2.58115E-09-3.72052E-09
 -1       602-5.91644E+04-1.42166E+04-2.23712E+03-2.98789E+04-2.72644E-09 1.88072E-09
 -1       603-6.05773E+04-1.22634E+04-4.48648E+03-2.77065E+04 8.03539E-10 3.01725E-09
 -1       604-6.19315E+04-1.71143E+04-1.07775E+04-2.97472E+04-2.81614E-09 1.93404E-09
 -1       605-5.85670E+04-1.37254E+04-1.98968E+04-2.62669E+04 3.92771E-09 1.07084E-08
 -1       606 2.70640E+04-1.24302E+04-2.23089E+04 2.54417E+04 4.49927E-09-9.58926E-09
 -1       607 2.32496E+04-4.04603E+03-1.11093E+04 2.85755E+04 1.03137E-09-9.10427E-09
 -1       608 2.54190E+04-7.17186E+02-4.97393E+03 2.52505E+04-4.70391E-09-1.26875E-10
 -1       609 2.49975E+04-2.29322E+02-2.51248E+03 2.88008E+04-3.89446E-09-7.66613E-09
 -1       610 2.52274E+04-1.58828E+01-1.19927E+03 2.52284E+04-4.05635E-10-7.60474E-09
 -1       611 2.51565E+04-1.03487E+01-6.04669E+02 2.88252E+04 1.26920E-09 6.30735E-09
 -1       612 2.51813E+04-7.31066E-01-2.88062E+02 2.52263E+04-2.24554E-09 6.38624E-09
 -1       613 2.51612E+04-3.78495E+00-1.29629E+02 2.88281E+04 1.34378E-09-1.24874E-08
 -1       614 2.51579E+04-3.65004E+00-3.19954E+01 2.52255E+04-8.73206E-09 4.66093E-09
 -1       615 2.51524E+04-1.42636E-01 5.06572E+01 2.88286E+04-1.43755E-08 1.48784E-08
 -1       616 2.51398E+04 9.93043E-01 1.55254E+02 2.52258E+04-1.67001E-08 9.74114E-09
 -1       617 2.51678E+04 3.49048E+01 3.55639E+02 2.88281E+04-1.97178E-08-8.04903E-09
 -1       618 2.51066E+04 1.05023E+02 7.17304E+02 2.52260E+04-1.32736E-08 1.41836E-09
 -1       619 2.54192E+04 5.90764E+02 1.61112E+03 2.88273E+04-3.70153E-09 1.95816E-08
 -1       620 2.48671E+04 1.80709E+03 3.23836E+03 2.52260E+04-2.28783E-09 6.64204E-09
 -1       621 3.60741E+02 2.62568E+05 3.06409E+03 2.72310E+04 5.57748E-10-5.49971E-09
 -1       622 4.59577E+02 2.63300E+05 2.79487E+03 3.95727E+04 6.33690E-10-3.55612E-08
 -1       623 6.18294E+01 2.62732E+05 3.46027E+03 2.71047E+04 7.33507E-10-5.17957E-09
 -1       624 1.70669E+03 2.64395E+05 6.78914E+03 3.96990E+04 6.25789E-10 8.14453E-09
 -1       625 1.69566E+03 2.61391E+05 1.19035E+04 2.71019E+04 8.65384E-10 1.90698E-09
 -1       626 2.32493E+05 5.75330E+04 5.03953E+03 1.16331E+05 1.76715E-09-7.26322E-09
 -1       627 2.30124E+05 5.90379E+04 2.43259E+03 1.20636E+05 9.82254E-10 4.61864E-09
 -1       628 2.32635E+05 5.52520E+04 1.02878E+03 1.17161E+05-1.21436E-08-1.92358E-08
 -1       629 2.29479E+05 5.83948E+04 5.03745E+02 1.20880E+05-1.93390E-08 9.40142E-09
 -1       630 2.32648E+05 5.51465E+04 2.33258E+02 1.17192E+05-7.73889E-09 1.01467E-08
 -1       631 2.29409E+05 5.83732E+04 1.24678E+02 1.20880E+05 1.60435E-09-8.37983E-09
 -1       632 2.32642E+05 5.51525E+04 8.04866E+01 1.17186E+05 3.95994E-09 7.94330E-09
 -1       633 2.29398E+05 5.83766E+04 8.72727E+01 1.20874E+05-3.51611E-09 1.00638E-08
 -1       634 2.32635E+05 5.51514E+04 1.38901E+02 1.17184E+05 3.29692E-10-6.65796E-09
 -1       635 2.29408E+05 5.83761E+04 2.79701E+02 1.20877E+05 2.44671E-09-5.42263E-09
 -1       636 2.32625E+05 5.51466E+04 5.64120E+02 1.17183E+05 1.07682E-08-1.17279E-09
 -1       637 2.29527E+05 5.84602E+04 1.23886E+03 1.20877E+05 9.72159E-09-2.18220E-08
 -1       638 2.32579E+05 5.54073E+04 2.54396E+03 1.17064E+05 5.72618E-09-2.03231E-08
 -1       639 2.30865E+05 6.02873E+04 6.01608E+03 1.20497E+05 3.59887E-09 2.83239E-09
 -1       640 2.32376E+05 6.08529E+04 1.24634E+04 1.14755E+05 5.38466E-09 9.55583E-09
 -1       656 5.93406E+04-1.51361E+06-1.43251E+05-1.42150E+03-7.27596E-12-5.77950E-09
 -1       657-7.84838E+04-1.57831E+06-1.18629E+05 6.48139E+03-6.18456E-11 9.28630E-09
 -1       658 1.88971E+04-1.53200E+06-7.30064E+04-3.17085E+03 2.77851E-10 5.03468E-09
 -1       659-8.47169E+04-1.58127E+06-1.26818E+05 7.84560E+03-1.05956E-09-7.76451E-10
 -1       660 6.55595E+04-1.51066E+06-1.57331E+05-2.78568E+03-1.13505E-09-1.13474E-09
 -1       661 1.62513E+05 1.72880E+04 1.65326E+04 6.35419E+04 3.66072E-10-5.76620E-09
 -1       662 1.71636E+05 2.97512E+04 1.11413E+04 6.00886E+04 4.56737E-10 1.86662E-09
 -1       663 1.65759E+05 2.25928E+04 3.89680E+03 6.26008E+04 6.72003E-10 6.84850E-10
 -1       664 1.67874E+05 2.35461E+04 2.33065E+03 6.12369E+04-3.44016E-10-2.89447E-10
 -1       665 1.66250E+05 2.33188E+04 9.19417E+02 6.24590E+04 4.51394E-10-8.36113E-09
 -1       666 1.67295E+05 2.27147E+04 5.37508E+02 6.14211E+04 1.89000E-09 1.73923E-08
 -1       667 1.66335E+05 2.34025E+04 2.84929E+02 6.24245E+04 7.23958E-10 6.42532E-09
 -1       668 1.67202E+05 2.26529E+04 2.89004E+02 6.14712E+04 2.30317E-09-1.26794E-08
 -1       669 1.66342E+05 2.33787E+04 3.90187E+02 6.24093E+04-5.64313E-10 5.51751E-10
 -1       670 1.67297E+05 2.28635E+04 8.48630E+02 6.14735E+04-1.60847E-09 1.05967E-08
 -1       671 1.66239E+05 2.31961E+04 1.50647E+03 6.24204E+04-3.06116E-10 3.25554E-09
 -1       672 1.68175E+05 2.43291E+04 3.85399E+03 6.12610E+04 2.71626E-09 1.12561E-09
 -1       673 1.65469E+05 2.19502E+04 6.45856E+03 6.26076E+04 1.73031E-09-2.47769E-09
 -1       674 1.74323E+05 3.47042E+04 1.84701E+04 5.94538E+04-1.58002E-09-1.25078E-08
 -1       675 1.60131E+05 1.31114E+04 2.74159E+04 6.41184E+04-3.23462E-09-1.23309E-08
 -1       676 2.22942E+01-2.72014E+05-1.03458E+03-5.39495E+01 2.96467E-10-9.58509E-09
 -1       677-2.74578E+02-2.72264E+05-1.89345E+03 1.07823E+02 3.63079E-09-1.52112E-08
 -1       678 1.83439E+02-2.71836E+05-3.34713E+03-5.38376E+01 3.92106E-10-2.26052E-09
 -1       679-3.34799E+03-2.74285E+05-7.95130E+03 1.07395E+02 3.52350E-09 8.59850E-09
 -1       680 1.99826E+03-2.69995E+05-1.28148E+04-5.29193E+01 2.75577E-10-2.72318E-09
 -1       771-2.85125E+06-6.36244E+05-1.15584E+05-1.31825E+06-3.39642E-08-2.30502E-08
 -1       772-2.79316E+06-7.07167E+05-6.00198E+04-1.39971E+06-3.22325E-08 5.49699E-09
 -1       773-2.87290E+06-6.19212E+05-2.96786E+04-1.32697E+06-1.71131E-08 1.16197E-08
 -1       774-2.78413E+06-6.94749E+05-1.34362E+04-1.41653E+06 1.42754E-08-2.09548E-09
 -1       775-2.88326E+06-6.11895E+05-9.44093E+03-1.33073E+06-7.71252E-09 2.48838E-09
 -1       776-2.79077E+06-6.93364E+05-3.63111E+03-1.42869E+06-8.67294E-09 3.42698E-09
 -1       777-2.89202E+06-6.05513E+05-3.95562E+03-1.33404E+06 8.14907E-10 3.77986E-09
 -1       778-2.79785E+06-6.92163E+05-1.15360E+03-1.43906E+06 2.56114E-09 6.71571E-09
 -1       779-2.89946E+06-6.00003E+05-1.91089E+03-1.33688E+06-9.03674E-09-2.51384E-09
 -1       780-2.80408E+06-6.91004E+05-3.25830E+02-1.44749E+06-1.42609E-09-1.04137E-09
 -1       781-2.90531E+06-5.95596E+05-7.26048E+02-1.33909E+06-2.03727E-08-2.29193E-10
 -1       782-2.80884E+06-6.89998E+05 2.66384E+02-1.45370E+06-2.96968E-08-3.89173E-09
 -1       783-2.90941E+06-5.92562E+05 4.23152E+02-1.34065E+06-9.12405E-09-1.06415E-08
 -1       784-2.81143E+06-6.88862E+05 1.72389E+03-1.45751E+06-2.15077E-08 4.19459E-09
 -1       785-2.91182E+06-5.90767E+05 3.04480E+03-1.34166E+06-2.89619E-08 1.23146E-08
 -1       786 1.23910E+05-9.31466E+03 2.15494E+04-2.11415E+02 3.53955E-09-1.04228E-09
 -1       787 1.33256E+05 1.07837E+04 1.52455E+04-4.19624E+01 6.23507E-09-3.82624E-09
 -1       788 1.27514E+05-1.45993E+03 5.57567E+03-1.81438E+02 3.51681E-09 1.95405E-09
 -1       789 1.29058E+05 1.68927E+03 3.50074E+03-8.91976E+01 1.02489E-09 5.31736E-09
 -1       790 1.28109E+05-2.27630E+02 1.41858E+03-1.64190E+02-1.53356E-09 1.69558E-09
 -1       791 1.28362E+05 2.63094E+02 8.21671E+02-1.18963E+02-4.65672E-09-2.87289E-09
 -1       792 1.28209E+05-3.48185E+01 3.52841E+02-1.51674E+02-2.36862E-09-7.67520E-09
 -1       793 1.28243E+05 3.85175E+01 1.86113E+02-1.42506E+02-4.10218E-10-5.35786E-09
 -1       794 1.28228E+05-3.19509E+00 6.88842E+01-1.40647E+02 2.30084E-09-1.22508E-08
 -1       795 1.28216E+05-8.92077E+00-3.64518E-02-1.65449E+02-2.91092E-09 1.89536E-08
 -1       796 1.28237E+05 1.25944E+01-6.03431E+01-1.28731E+02 2.08653E-09-1.67893E-08
 -1       797 1.28172E+05-9.72097E+01-1.92138E+02-1.92676E+02 2.71032E-09-7.63806E-09
 -1       798 1.28272E+05 8.50269E+01-3.19354E+02-1.13420E+02 8.38225E-10 8.13347E-09
 -1       799 1.27927E+05-6.27562E+02-8.84972E+02-2.30050E+02 3.10719E-09 2.82746E-09
 -1       800 1.28481E+05 5.42508E+02-1.25420E+03-9.13562E+01 1.01872E-10 1.60084E-08
 -1       801-1.39606E+04-6.79948E+06-8.60050E+05 6.96782E+05 6.61530E-08-3.96321E-08
 -1       802 2.63203E+05 9.78137E+05 9.34349E+05-7.96088E+05 1.84460E-07-2.54054E-08
 -1       803-2.43215E+05-8.58958E+06-9.24762E+05 4.60284E+05 6.01249E-08 1.64709E-08
 -1       804 9.59099E+04-9.34828E+05 6.56198E+05 4.18925E+05-7.31761E-08-5.92731E-08
 -1       805 1.17724E+05-4.90006E+06-1.46773E+05-5.15764E+05-3.05081E-08-3.85298E-08
 -1       806-2.76118E+05-5.27053E+04-2.02074E+04-1.08588E+05-2.16323E-09-2.75259E-09
 -1       807-2.77824E+05-4.92911E+04-9.92765E+03-1.13353E+05 3.19415E-09-1.49616E-08
 -1       808-2.76663E+05-4.54329E+04-4.21171E+03-1.12043E+05-4.52928E-10 1.82251E-09
 -1       809-2.75742E+05-4.64967E+04-2.05945E+03-1.13592E+05-1.19953E-08 7.60792E-10
 -1       810-2.76747E+05-4.51796E+04-9.43911E+02-1.12196E+05-2.38470E-09 4.86466E-09
 -1       811-2.75582E+05-4.63838E+04-4.69394E+02-1.13561E+05-1.52663E-08-4.99563E-09
 -1       812-2.76761E+05-4.52009E+04-2.37298E+02-1.12196E+05-6.45105E-09 8.67567E-09
 -1       813-2.75561E+05-4.63853E+04-1.54147E+02-1.13545E+05 9.98625E-10-9.55924E-09
 -1       814-2.76756E+05-4.52087E+04-1.52517E+02-1.12193E+05 4.69299E-10-3.59978E-09
 -1       815-2.75565E+05-4.63869E+04-2.45763E+02-1.13540E+05 1.65528E-09-6.17820E-09
 -1       816-2.76739E+05-4.52070E+04-4.65570E+02-1.12191E+05 9.64064E-10 1.81485E-08
 -1       817-2.75645E+05-4.64309E+04-9.99514E+02-1.13531E+05-5.65660E-09 8.13270E-09
 -1       818-2.76680E+05-4.53468E+04-2.03844E+03-1.12125E+05-7.76163E-09 2.02135E-09
 -1       819-2.76762E+05-4.76636E+04-4.79689E+03-1.13271E+05-1.46506E-08-1.72097E-08
 -1       820-2.76301E+05-4.89659E+04-9.76310E+03-1.10573E+05-6.05087E-09 1.86487E-08
 -1       821-3.39953E+05 1.87639E+04-4.34129E+04 8.69938E+02 6.64075E-09-1.15324E-09
 -1       822-3.58697E+05-2.17227E+04-3.07091E+04-1.64877E+03 2.29595E-10-8.23457E-09
 -1       823-3.47169E+05 2.94329E+03-1.12407E+04 1.07621E+03-3.44177E-09-2.86491E-10
 -1       824-3.50230E+05-3.40404E+03-7.06750E+03-1.57167E+03-4.08193E-10-1.03907E-08
 -1       825-3.48416E+05 4.59032E+02-2.91558E+03 7.92854E+02 5.44834E-09 2.83444E-09
 -1       826-3.48733E+05-5.38448E+02-1.73051E+03-6.57536E+02 5.44864E-09 4.30759E-10
 -1       827-3.48663E+05 7.75559E+01-9.29002E+02 1.62060E+02 2.07674E-09-2.63080E-09
 -1       828-3.48525E+05-1.62454E+02-7.79001E+02 6.35578E+02-2.83984E-09 7.39832E-09
 -1       829-3.48624E+05 8.30071E+01-9.42933E+02-5.00281E+02 5.10880E-11 1.26952E-08
 -1       830-3.48831E+05-5.64719E+02-1.81152E+03 1.65849E+03 2.41393E-10 6.19571E-09
 -1       831-3.48360E+05 4.81689E+02-3.01935E+03-8.60869E+02-2.14651E-09 8.19682E-11
 -1       832-3.50318E+05-3.54405E+03-7.35528E+03 1.89650E+03-1.29475E-09 2.33584E-08
 -1       833-3.47139E+05 3.06099E+03-1.16988E+04-7.38298E+02-2.09694E-09 1.05410E-08
 -1       834-3.59021E+05-2.25958E+04-3.19305E+04 1.21925E+03-1.37127E-09-2.62662E-09
 -1       835-3.39657E+05 1.95170E+04-4.51748E+04-1.83604E+02 5.08903E-09-1.21563E-08
 -1       836-1.20571E+03 3.24454E+05 1.98933E+04-1.59565E+04-3.46790E-09 1.53077E-08
 -1       837 4.28427E+03 3.30664E+05 1.69267E+04-3.23052E+04-3.54703E-09 4.21073E-09
 -1       838-4.70724E+02 3.26184E+05 1.73773E+04-1.58895E+04-2.77896E-09 7.30074E-09
 -1       839 1.10312E+04 3.35692E+05 3.30015E+04-3.23509E+04-2.84081E-09 1.45974E-09
 -1       840-3.38026E+03 3.19377E+05 5.26813E+04-1.59129E+04-2.51021E-09-7.88367E-09
 -1       856-6.38887E+04 7.79090E+03-2.05311E+04-4.04224E+02 1.99867E-09-7.03039E-09
 -1       857-7.23569E+04-9.14651E+03-1.41340E+04 5.18431E+03 2.37901E-09 5.54519E-09
 -1       858-6.72387E+04 1.09216E+03-5.32769E+03-4.27217E+02-5.69003E-11 1.58245E-08
 -1       859-6.85114E+04-1.27780E+03-3.21595E+03 5.21956E+03-1.42336E-09 2.65815E-08
 -1       860-6.77393E+04 1.52482E+02-1.34932E+03-4.39386E+02 7.19268E-10-2.09343E-09
 -1       861-6.79353E+04-1.75451E+02-7.45487E+02 5.23621E+03-1.97875E-09-1.95747E-09
 -1       862-6.78175E+04 2.03960E+01-3.16302E+02-4.43870E+02 4.08523E-10 1.02028E-09
 -1       863-6.78406E+04-1.60676E+01-1.29778E+02 5.23862E+03-1.38525E-09-1.35117E-08
 -1       864-6.78344E+04-3.31937E+00 1.30609E+01-4.41799E+02-1.92458E-10-4.88257E-09
 -1       865-6.77956E+04 4.83948E+01 1.74874E+02 5.22736E+03-3.62107E-10 4.12476E-09
 -1       866-6.78606E+04-4.42503E+01 3.69242E+02-4.32606E+02-6.15898E-10 2.56460E-09
 -1       867-6.76174E+04 3.67105E+02 9.19688E+02 5.20232E+03 1.42964E-09 1.39581E-08
 -1       868-6.80083E+04-3.16770E+02 1.53081E+03-4.16761E+02-9.91349E-10 8.56119E-09
 -1       869-6.64919E+04 2.63606E+03 4.08010E+03 5.16064E+03 1.00749E-09-8.60206E-09
 -1       870-6.89795E+04-2.25230E+03 5.92053E+03-3.90896E+02-1.46588E-09 1.01757E-08
 -1       871-5.04818E+03-1.61145E+04-1.71928E+04 1.14216E+05-1.96269E-09 5.98266E-09
 -1       872-1.98309E+03-2.00514E+04-7.14646E+03 1.48092E+05-4.50291E-09-2.71939E-09
 -1       873 1.81075E+02-1.81736E+04 6.53437E+02 1.13967E+05-2.32285E-09-8.15021E-10
 -1       874 2.75894E+03-1.59262E+04 8.93846E+03 1.48125E+05-4.95129E-09 2.02699E-08
 -1       875 6.03935E+03-2.03035E+04 2.00617E+04 1.14178E+05-2.16642E-09-7.00675E-09
 -1       876 2.64703E+05 4.49562E+04 1.36945E+04 1.06647E+05 6.03609E-09 4.06999E-09
 -1       877 2.65555E+05 4.78939E+04 7.31332E+03 1.10629E+05 1.17834E-08 8.95284E-09
 -1       878 2.65984E+05 4.34398E+04 3.06394E+03 1.07770E+05-4.43379E-10 3.03339E-09
 -1       879 2.63693E+05 4.60372E+04 1.52658E+03 1.10723E+05 3.12048E-09 3.84523E-09
 -1       880 2.66076E+05 4.34238E+04 7.11041E+02 1.07816E+05 1.24555E-09 2.17779E-09
 -1       881 2.63569E+05 4.59580E+04 3.79598E+02 1.10702E+05 3.44471E-10 2.69912E-08
 -1       882 2.66084E+05 4.34356E+04 2.42686E+02 1.07817E+05 8.20228E-09 1.59318E-08
 -1       883 2.63560E+05 4.59540E+04 2.60621E+02 1.10696E+05 3.18613E-09 7.00264E-09
 -1       884 2.66078E+05 4.34329E+04 4.14349E+02 1.07817E+05-4.60545E-09 1.40682E-09
 -1       885 2.63593E+05 4.59598E+04 8.32926E+02 1.10706E+05 3.99098E-09 3.62627E-09
 -1       886 2.66046E+05 4.34086E+04 1.67867E+03 1.07814E+05 3.04030E-09 2.56273E-09
 -1       887 2.63888E+05 4.61532E+04 3.66682E+03 1.10748E+05 9.06925E-09-7.74958E-09
 -1       888 2.65814E+05 4.34493E+04 7.38877E+03 1.07696E+05 8.57045E-09 1.02018E-08
 -1       889 2.68288E+05 5.07266E+04 1.76507E+04 1.10612E+05 9.47324E-09-4.82032E-09
 -1       890 2.62801E+05 4.70286E+04 3.30590E+04 1.04881E+05 2.12299E-09-1.20035E-08
 -1       891-1.14451E+02-1.47791E+05-1.79431E+03 2.57359E+04-6.96218E-10 4.35671E-09
 -1       892-2.09842E+02-1.48247E+05-1.93330E+03 3.90201E+04 8.62428E-10 9.99444E-09
 -1       893 4.97530E+00-1.47848E+05-2.74371E+03 2.57421E+04-2.53067E-10-3.42652E-09
 -1       894-1.41833E+03-1.49287E+05-5.68310E+03 3.88779E+04 1.05229E-09-1.34951E-08
 -1       895-1.11926E+03-1.46664E+05-1.00097E+04 2.58782E+04-2.03613E-10 2.96131E-09
 -1       956-3.37931E+05-4.80970E+03-1.19843E+04 2.56494E+04 5.03860E-09-1.22370E-08
 -1       957-3.40289E+05-1.66109E+03-6.15174E+03 3.08571E+04-5.65706E-10-1.66438E-10
 -1       958-3.39002E+05-1.72533E+02-2.77189E+03 2.55030E+04-3.56977E-09-1.14960E-09
 -1       959-3.39184E+05-7.27689E+01-1.41560E+03 3.10226E+04-1.41517E-09-6.95309E-09
 -1       960-3.39103E+05-6.42403E-01-6.90263E+02 2.54884E+04-6.36192E-10 1.25124E-09
 -1       961-3.39108E+05-9.97251E+00-3.66191E+02 3.10396E+04 3.23416E-09 1.27454E-08
 -1       962-3.39125E+05-3.33497E+00-2.09820E+02 2.54860E+04 1.07548E-09 1.75296E-08
 -1       963-3.39107E+05-7.23997E+00-1.68784E+02 3.10427E+04 2.24190E-09 2.25828E-09
 -1       964-3.39130E+05-6.72016E-01-2.05532E+02 2.54853E+04 1.83317E-09 1.07561E-08
 -1       965-3.39118E+05-4.29596E+00-3.55714E+02 3.10422E+04-4.25473E-10 9.41372E-09
 -1       966-3.39116E+05 7.27470E+00-6.68319E+02 2.54865E+04-5.21368E-10 5.37534E-09
 -1       967-3.39201E+05-5.96248E+01-1.37083E+03 3.10306E+04-7.68750E-10-3.37036E-09
 -1       968-3.39027E+05-1.54005E+02-2.68328E+03 2.54969E+04 2.10321E-09 6.84452E-09
 -1       969-3.40282E+05-1.59311E+03-5.95718E+03 3.09094E+04 4.60204E-10 1.47900E-08
 -1       970-3.37996E+05-4.64128E+03-1.16043E+04 2.56046E+04-1.87811E-09 2.73694E-08
 -1       971-3.12676E+05-1.58731E+03-8.66820E+03 1.42505E+04 3.17777E-09-1.22903E-08
 -1       972-3.14771E+05-1.15548E+03-4.72064E+03 1.97970E+04 1.60799E-09 2.47746E-09
 -1       973-3.13641E+05-3.72314E+01-2.11420E+03 1.41352E+04 1.07866E-09 2.59979E-09
 -1       974-3.13775E+05-4.71655E+01-1.09570E+03 1.99249E+04-1.99248E-09-3.75201E-09
 -1       975-3.13716E+05 4.09539E+00-5.47535E+02 1.41240E+04 1.25237E-09 9.67339E-09
 -1       976-3.13717E+05-1.13460E+00-3.15616E+02 1.99391E+04-2.28647E-09-2.19529E-10
 -1       977-3.13731E+05 4.44340E+00-2.28570E+02 1.41211E+04-3.42015E-09 4.83885E-09
 -1       978-3.13722E+05 4.38546E+00-2.66802E+02 1.99432E+04-1.02864E-09 1.17486E-08
 -1       979-3.13731E+05 1.19760E+01-4.28082E+02 1.41198E+04 2.90163E-09-2.21542E-09
 -1       980-3.13754E+05 7.10766E+00-8.26206E+02 1.99440E+04 1.00249E-09-6.02392E-09
 -1       981-3.13705E+05 3.26002E+01-1.59997E+03 1.41203E+04 5.37489E-09 2.01948E-09
 -1       982-3.13973E+05-1.11065E+02-3.30699E+03 1.99379E+04 1.11754E-10-8.70800E-09
 -1       983-3.13503E+05-6.97742E+01-6.42544E+03 1.41260E+04-2.31739E-09 7.46172E-09
 -1       984-3.17063E+05-3.46674E+03-1.43893E+04 1.98578E+04 1.38175E-09-1.10931E-08
 -1       985-3.10594E+05-4.77147E+03-2.64233E+04 1.41987E+04-4.40650E-10-3.19233E-09
 -3
    1PSTEP                        17           9           1          
  100CL  109 6.44531E-01         409                     0    9           1
 -4  DISP        4    1
 -5  D1          1    2    1    0
 -5  D2          1    2    2    0
 -5  D3          1    2    3    0
 -5  ALL         1    2    0    0    1ALL
 -1         1 2.12513E-03 0.00000E+00 0.00000E+00
 -1         2 1.84192E-03-1.62322E-26 0.00000E+00
 -1         3 3.16013E-04 1.06362E-26 0.00000E+00
 -1         5 1.67193E-04-3.38261E-27 3.10193E-25
 -1         8 2.10825E-03-5.15371E-07 0.00000E+00
 -1         9 2.06652E-03-1.07423E-05 0.00000E+00
 -1        10 2.86763E-04-3.50921E-06-6.61744E-24
 -1        12 1.68663E-04 7.72801E-07 2.06795E-25
 -1        15 2.08795E-03-5.63571E-07-2.06795E-25
 -1        16 2.09731E-03-1.19351E-05 0.00000E+00
 -1        17 1.96082E-04-7.86632E-06 0.00000E+00
 -1        18 1.71544E-04 2.91713E-05 0.00000E+00
 -1        19 1.73074E-04 1.54022E-06 0.00000E+00
 -1        20 1.73218E-04-5.66816E-06 0.00000E+00
 -1        21 1.72375E-04-1.65057E-05 0.00000E+00
 -1        24 2.95077E-05-1.17352E-05 0.00000E+00
 -1        25 1.80435E-04 2.93825E-05 0.00000E+00
 -1        26 1.81130E-04 2.13460E-06 0.00000E+00
 -1        27 1.79027E-04-9.07842E-06 0.00000E+00
 -1        28 1.78687E-04-1.71086E-05 0.00000E+00
 -1        32 0.00000E+00 0.00000E+00 0.00000E+00
 -1        33 1.88156E-04 2.85794E-06 0.00000E+00
 -1        34 1.86120E-04-9.12845E-06 0.00000E+00
 -1        35 1.84255E-04-1.74383E-05 0.00000E+00
 -1        51 2.12405E-03-9.81698E-08 6.61744E-24
 -1        52 2.12202E-03-1.81345E-07 0.00000E+00
 -1        53 2.11924E-03-2.62439E-07 0.00000E+00
 -1        54 2.11589E-03-3.43602E-07 0.00000E+00
 -1        55 2.11217E-03-4.26402E-07-4.13590E-25
 -1        56 2.12116E-03 5.92752E-07-5.29396E-23
 -1        57 2.11574E-03 4.64689E-06 5.29396E-23
 -1        58 2.10925E-03 1.15228E-05-1.05879E-22
 -1        59 2.10200E-03 2.02955E-05 0.00000E+00
 -1        60 2.09449E-03 2.97606E-05 0.00000E+00
 -1        61 2.08719E-03 3.86506E-05 5.29396E-23
 -1        62 2.08057E-03 4.57903E-05 0.00000E+00
 -1        63 2.07501E-03 5.01397E-05 5.29396E-23
 -1        64 2.07074E-03 5.11006E-05-1.05879E-22
 -1        65 2.06786E-03 4.83416E-05-5.29396E-23
 -1        66 2.06627E-03 4.21225E-05 0.00000E+00
 -1        67 2.06576E-03 3.29794E-05-5.29396E-23
 -1        68 2.06596E-03 2.19139E-05 0.00000E+00
 -1        69 2.06645E-03 1.00897E-05 5.29396E-23
 -1        70 2.06675E-03-1.22233E-06 0.00000E+00
 -1        86 1.85520E-03-1.09380E-06 0.00000E+00
 -1        87 1.89448E-03-2.84494E-06 0.00000E+00
 -1        88 1.94793E-03-5.19441E-06 0.00000E+00
 -1        89 2.00314E-03-7.63514E-06 0.00000E+00
 -1        90 2.04692E-03-9.55898E-06 0.00000E+00
 -1       121 3.15191E-04-5.69967E-07 0.00000E+00
 -1       122 3.12730E-04-1.14253E-06-6.61744E-24
 -1       123 3.08637E-04-1.72023E-06 1.32349E-23
 -1       124 3.02930E-04-2.30563E-06 0.00000E+00
 -1       125 2.95628E-04-2.90092E-06 0.00000E+00
 -1       191 1.67234E-04 1.28842E-07-1.03398E-24
 -1       192 1.67356E-04 2.57676E-07 1.49926E-24
 -1       193 1.67560E-04 3.86498E-07 2.68834E-24
 -1       194 1.67846E-04 5.15299E-07 6.20385E-25
 -1       195 1.68214E-04 6.44070E-07-2.06795E-24
 -1       251 2.10751E-03-1.48888E-05 0.00000E+00
 -1       252 2.10568E-03-6.43577E-05 6.61744E-24
 -1       253 2.10237E-03-1.39312E-04 0.00000E+00
 -1       254 2.09785E-03-2.29502E-04 0.00000E+00
 -1       255 2.09328E-03-3.20186E-04-1.32349E-23
 -1       256 2.08987E-03-3.96617E-04 0.00000E+00
 -1       257 2.08793E-03-4.48251E-04 0.00000E+00
 -1       258 2.08713E-03-4.65167E-04 0.00000E+00
 -1       259 2.08632E-03-4.47081E-04 0.00000E+00
 -1       260 2.08434E-03-3.94658E-04-6.61744E-24
 -1       261 2.08092E-03-3.18114E-04 0.00000E+00
 -1       262 2.07643E-03-2.28263E-04 6.61744E-24
 -1       263 2.07205E-03-1.39854E-04 0.00000E+00
 -1       264 2.06893E-03-6.76077E-05 0.00000E+00
 -1       265 2.06725E-03-2.14698E-05 0.00000E+00
 -1       266 2.10487E-03-5.31001E-07 0.00000E+00
 -1       267 2.10149E-03-5.38109E-07-8.27181E-25
 -1       268 2.09810E-03-5.45756E-07 0.00000E+00
 -1       269 2.09472E-03-5.51804E-07 0.00000E+00
 -1       270 2.09133E-03-5.57814E-07 2.06795E-25
 -1       271 2.10613E-03 2.68644E-06 0.00000E+00
 -1       272 2.10394E-03 5.99722E-06-1.32349E-23
 -1       273 2.10176E-03 9.27753E-06-2.64698E-23
 -1       274 2.09965E-03 1.23759E-05 1.32349E-23
 -1       275 2.09766E-03 1.51462E-05 0.00000E+00
 -1       276 2.09585E-03 1.74441E-05-1.32349E-23
 -1       277 2.09426E-03 1.91306E-05 0.00000E+00
 -1       278 2.09296E-03 2.00730E-05-1.32349E-23
 -1       279 2.09198E-03 2.01465E-05 0.00000E+00
 -1       280 2.09138E-03 1.92354E-05-1.32349E-23
 -1       281 2.09118E-03 1.72345E-05 0.00000E+00
 -1       282 2.09142E-03 1.40500E-05 0.00000E+00
 -1       283 2.09213E-03 9.60074E-06 2.64698E-23
 -1       284 2.09334E-03 3.81966E-06 0.00000E+00
 -1       285 2.09505E-03-3.34791E-06 0.00000E+00
 -1       301 2.07208E-03-1.09648E-05-1.32349E-23
 -1       302 2.07652E-03-1.11542E-05 0.00000E+00
 -1       303 2.08055E-03-1.13394E-05 0.00000E+00
 -1       304 2.08488E-03-1.15248E-05 0.00000E+00
 -1       305 2.09023E-03-1.17167E-05 0.00000E+00
 -1       306 2.10006E-03-1.41999E-04 1.05879E-22
 -1       307 2.16464E-03-5.05697E-04 5.29396E-23
 -1       308 2.22242E-03-1.04406E-03 1.05879E-22
 -1       309 2.26401E-03-1.67505E-03 0.00000E+00
 -1       310 2.30889E-03-2.28837E-03 1.05879E-22
 -1       311 2.37185E-03-2.77536E-03 0.00000E+00
 -1       312 2.43144E-03-3.06314E-03 0.00000E+00
 -1       313 2.44100E-03-3.11052E-03-5.29396E-23
 -1       314 2.34241E-03-2.92312E-03-1.05879E-22
 -1       315 2.09945E-03-2.54815E-03 0.00000E+00
 -1       316 1.72424E-03-2.05204E-03 0.00000E+00
 -1       317 1.26714E-03-1.49961E-03 0.00000E+00
 -1       318 8.20447E-04-9.54084E-04-1.05879E-22
 -1       319 4.73409E-04-4.80322E-04-5.29396E-23
 -1       320 2.65373E-04-1.43766E-04 1.05879E-22
 -1       336 2.76163E-04-4.17879E-06-1.32349E-23
 -1       337 2.63669E-04-4.86994E-06 0.00000E+00
 -1       338 2.49340E-04-5.58429E-06-1.32349E-23
 -1       339 2.33246E-04-6.32224E-06-6.61744E-24
 -1       340 2.15465E-04-7.08774E-06 0.00000E+00
 -1       406 1.69194E-04 9.01479E-07 2.79173E-24
 -1       407 1.69807E-04 1.03007E-06-1.60266E-24
 -1       408 1.70501E-04 1.15853E-06-3.10193E-24
 -1       409 1.71278E-04 1.28670E-06 1.44757E-24
 -1       410 1.72136E-04 1.41432E-06-3.30872E-24
 -1       521 2.13170E-03-1.52015E-04 1.05879E-22
 -1       522 2.19551E-03-5.34731E-04 0.00000E+00
 -1       523 2.24882E-03-1.09942E-03 0.00000E+00
 -1       524 2.28338E-03-1.75806E-03 5.29396E-23
 -1       525 2.32201E-03-2.39739E-03-1.05879E-22
 -1       526 2.38213E-03-2.90600E-03 0.00000E+00
 -1       527 2.44151E-03-3.20530E-03 0.00000E+00
 -1       528 2.44977E-03-3.25297E-03 0.00000E+00
 -1       529 2.34255E-03-3.05407E-03-1.05879E-22
 -1       530 2.08111E-03-2.66187E-03 0.00000E+00
 -1       531 1.67775E-03-2.14607E-03 1.05879E-22
 -1       532 1.18774E-03-1.57464E-03-5.29396E-23
 -1       533 7.08215E-04-1.00968E-03 0.00000E+00
 -1       534 3.33203E-04-5.15035E-04-5.29396E-23
 -1       535 1.07081E-04-1.59973E-04 0.00000E+00
 -1       536 1.95425E-04 2.41220E-05 0.00000E+00
 -1       537 1.93785E-04 7.96545E-05 0.00000E+00
 -1       538 1.91258E-04 1.50172E-04 3.30872E-24
 -1       539 1.88282E-04 2.27038E-04 1.65436E-24
 -1       540 1.85602E-04 2.99674E-04 0.00000E+00
 -1       541 1.83852E-04 3.57522E-04 0.00000E+00
 -1       542 1.83035E-04 3.94315E-04 0.00000E+00
 -1       543 1.82826E-04 4.03918E-04-1.65436E-24
 -1       544 1.82528E-04 3.87071E-04 0.00000E+00
 -1       545 1.81504E-04 3.44707E-04 1.65436E-24
 -1       546 1.79617E-04 2.84372E-04 0.00000E+00
 -1       547 1.77079E-04 2.13718E-04 0.00000E+00
 -1       548 1.74569E-04 1.43476E-04 0.00000E+00
 -1       549 1.72754E-04 8.43763E-05 0.00000E+00
 -1       550 1.71804E-04 4.38401E-05 0.00000E+00
 -1       551 1.72949E-04-8.39516E-06 0.00000E+00
 -1       552 1.46734E-04-8.99305E-06 0.00000E+00
 -1       553 1.18352E-04-9.64483E-06 6.61744E-24
 -1       554 8.87339E-05-1.03319E-05 3.30872E-24
 -1       555 5.88106E-05-1.10297E-05 2.64698E-23
 -1       556 1.89130E-04 9.94308E-06 0.00000E+00
 -1       557 1.83531E-04 2.43414E-05 0.00000E+00
 -1       558 1.79157E-04 3.55977E-05 0.00000E+00
 -1       559 1.75887E-04 4.40021E-05 0.00000E+00
 -1       560 1.73600E-04 4.98454E-05 0.00000E+00
 -1       561 1.72177E-04 5.34202E-05 0.00000E+00
 -1       562 1.71501E-04 5.50207E-05 0.00000E+00
 -1       563 1.71458E-04 5.49415E-05 0.00000E+00
 -1       564 1.71934E-04 5.34781E-05 0.00000E+00
 -1       565 1.72817E-04 5.09266E-05 0.00000E+00
 -1       566 1.73994E-04 4.75836E-05-6.61744E-24
 -1       567 1.75356E-04 4.37458E-05 0.00000E+00
 -1       568 1.76791E-04 3.97103E-05 0.00000E+00
 -1       569 1.78189E-04 3.57740E-05 0.00000E+00
 -1       570 1.79440E-04 3.22339E-05 0.00000E+00
 -1       571 1.71636E-04 2.73807E-05 0.00000E+00
 -1       572 1.71731E-04 2.55283E-05-4.13590E-25
 -1       573 1.71827E-04 2.36286E-05-3.30872E-24
 -1       574 1.71922E-04 2.16967E-05 0.00000E+00
 -1       575 1.72018E-04 1.97478E-05 0.00000E+00
 -1       576 1.72113E-04 1.77971E-05 0.00000E+00
 -1       577 1.72209E-04 1.58599E-05 3.30872E-24
 -1       578 1.72305E-04 1.39513E-05 0.00000E+00
 -1       579 1.72401E-04 1.20866E-05-6.61744E-24
 -1       580 1.72497E-04 1.02811E-05 0.00000E+00
 -1       581 1.72593E-04 8.55006E-06 0.00000E+00
 -1       582 1.72689E-04 6.90862E-06 0.00000E+00
 -1       583 1.72785E-04 5.37204E-06 0.00000E+00
 -1       584 1.72881E-04 3.95538E-06 3.30872E-24
 -1       585 1.72978E-04 2.67356E-06 0.00000E+00
 -1       586 1.72981E-04 2.92086E-05 0.00000E+00
 -1       587 1.74381E-04 2.92452E-05-4.13590E-25
 -1       588 1.75785E-04 2.92815E-05 0.00000E+00
 -1       589 1.77234E-04 2.93172E-05 0.00000E+00
 -1       590 1.78771E-04 2.93517E-05 0.00000E+00
 -1       591 1.72153E-04 2.74657E-05-1.03398E-25
 -1       592 1.72766E-04 2.57387E-05-2.06795E-25
 -1       593 1.73384E-04 2.39963E-05 0.00000E+00
 -1       594 1.74007E-04 2.22432E-05 4.13590E-25
 -1       595 1.74631E-04 2.04844E-05 8.27181E-25
 -1       596 1.75255E-04 1.87246E-05 0.00000E+00
 -1       597 1.75878E-04 1.69687E-05 0.00000E+00
 -1       598 1.76498E-04 1.52215E-05-4.13590E-25
 -1       599 1.77113E-04 1.34878E-05 0.00000E+00
 -1       600 1.77720E-04 1.17723E-05-4.13590E-25
 -1       601 1.78320E-04 1.00800E-05-8.27181E-25
 -1       602 1.78909E-04 8.41558E-06-2.06795E-25
 -1       603 1.79485E-04 6.78388E-06 0.00000E+00
 -1       604 1.80049E-04 5.18980E-06 1.42172E-25
 -1       605 1.80596E-04 3.63807E-06 4.13590E-25
 -1       606 1.73088E-04 6.28775E-07 0.00000E+00
 -1       607 1.73098E-04-1.94105E-07 1.65436E-24
 -1       608 1.73107E-04-9.33616E-07 0.00000E+00
 -1       609 1.73115E-04-1.59562E-06 0.00000E+00
 -1       610 1.73124E-04-2.18603E-06 0.00000E+00
 -1       611 1.73133E-04-2.71083E-06 0.00000E+00
 -1       612 1.73141E-04-3.17599E-06 0.00000E+00
 -1       613 1.73150E-04-3.58753E-06 0.00000E+00
 -1       614 1.73159E-04-3.95142E-06 0.00000E+00
 -1       615 1.73167E-04-4.27366E-06 0.00000E+00
 -1       616 1.73176E-04-4.56025E-06 0.00000E+00
 -1       617 1.73184E-04-4.81718E-06 0.00000E+00
 -1       618 1.73193E-04-5.05044E-06 8.27181E-25
 -1       619 1.73202E-04-5.26603E-06-2.06795E-25
 -1       620 1.73210E-04-5.46994E-06 0.00000E+00
 -1       621 1.74166E-04 1.63974E-06-1.65436E-24
 -1       622 1.75397E-04 1.73953E-06 8.27181E-25
 -1       623 1.76738E-04 1.83915E-06-1.65436E-24
 -1       624 1.78160E-04 1.93850E-06 0.00000E+00
 -1       625 1.79634E-04 2.03759E-06 0.00000E+00
 -1       626 1.73525E-04 6.64071E-07 3.30872E-24
 -1       627 1.73951E-04-1.44718E-07 3.30872E-24
 -1       628 1.74356E-04-8.94212E-07 6.61744E-24
 -1       629 1.74741E-04-1.59281E-06 0.00000E+00
 -1       630 1.75111E-04-2.24894E-06-3.30872E-24
 -1       631 1.75468E-04-2.87104E-06 0.00000E+00
 -1       632 1.75815E-04-3.46755E-06 0.00000E+00
 -1       633 1.76156E-04-4.04692E-06 1.65436E-24
 -1       634 1.76494E-04-4.61760E-06 0.00000E+00
 -1       635 1.76831E-04-5.18802E-06 0.00000E+00
 -1       636 1.77172E-04-5.76662E-06 3.30872E-24
 -1       637 1.77519E-04-6.36187E-06 0.00000E+00
 -1       638 1.77875E-04-6.98219E-06-1.65436E-24
 -1       639 1.78243E-04-7.63606E-06 8.27181E-25
 -1       640 1.78627E-04-8.33195E-06 0.00000E+00
 -1       656 1.73648E-04-6.22253E-06-6.61744E-24
 -1       657 1.74494E-04-6.79939E-06-6.61744E-24
 -1       658 1.75615E-04-7.37484E-06 0.00000E+00
 -1       659 1.76866E-04-7.94993E-06 6.61744E-24
 -1       660 1.78064E-04-8.52677E-06 0.00000E+00
 -1       661 1.73380E-04-5.90956E-06 0.00000E+00
 -1       662 1.73577E-04-6.23877E-06 8.27181E-25
 -1       663 1.73806E-04-6.65094E-06-1.65436E-24
 -1       664 1.74064E-04-7.13997E-06-8.27181E-25
 -1       665 1.74349E-04-7.70043E-06-1.65436E-24
 -1       666 1.74658E-04-8.32676E-06 0.00000E+00
 -1       667 1.74990E-04-9.01372E-06 0.00000E+00
 -1       668 1.75343E-04-9.75608E-06 0.00000E+00
 -1       669 1.75715E-04-1.05488E-05 1.65436E-24
 -1       670 1.76104E-04-1.13870E-05 8.27181E-25
 -1       671 1.76508E-04-1.22658E-05 0.00000E+00
 -1       672 1.76925E-04-1.31805E-05 8.27181E-25
 -1       673 1.77354E-04-1.41264E-05-1.65436E-24
 -1       674 1.77792E-04-1.50993E-05 0.00000E+00
 -1       675 1.78238E-04-1.60942E-05 4.13590E-25
 -1       676 1.73431E-04-1.66068E-05 0.00000E+00
 -1       677 1.74486E-04-1.67078E-05 0.00000E+00
 -1       678 1.75539E-04-1.68088E-05 0.00000E+00
 -1       679 1.76591E-04-1.69094E-05-1.65436E-24
 -1       680 1.77640E-04-1.70101E-05 0.00000E+00
 -1       771 1.85306E-05 1.26930E-05 0.00000E+00
 -1       772 9.27737E-06 3.27565E-05-2.64698E-23
 -1       773 1.66557E-06 4.86684E-05-5.29396E-23
 -1       774-4.41711E-06 6.06667E-05 2.64698E-23
 -1       775-9.08077E-06 6.89984E-05 0.00000E+00
 -1       776-1.24400E-05 7.39254E-05 0.00000E+00
 -1       777-1.46092E-05 7.57185E-05 0.00000E+00
 -1       778-1.57055E-05 7.46606E-05 2.64698E-23
 -1       779-1.58452E-05 7.10420E-05 5.29396E-23
 -1       780-1.51469E-05 6.51632E-05 0.00000E+00
 -1       781-1.37282E-05 5.73304E-05 0.00000E+00
 -1       782-1.17085E-05 4.78578E-05 0.00000E+00
 -1       783-9.20631E-06 3.70636E-05 1.05879E-22
 -1       784-6.34128E-06 2.52713E-05 0.00000E+00
 -1       785-3.23234E-06 1.28073E-05-5.29396E-23
 -1       786 1.80474E-04 2.74566E-05 0.00000E+00
 -1       787 1.80517E-04 2.55798E-05 0.00000E+00
 -1       788 1.80560E-04 2.37440E-05 0.00000E+00
 -1       789 1.80603E-04 2.19410E-05-8.27181E-25
 -1       790 1.80647E-04 2.01662E-05 0.00000E+00
 -1       791 1.80690E-04 1.84150E-05 8.27181E-25
 -1       792 1.80734E-04 1.66851E-05-1.65436E-24
 -1       793 1.80778E-04 1.49745E-05 8.27181E-25
 -1       794 1.80822E-04 1.32829E-05 0.00000E+00
 -1       795 1.80866E-04 1.16103E-05 8.27181E-25
 -1       796 1.80910E-04 9.95834E-06 1.65436E-24
 -1       797 1.80954E-04 8.32899E-06 0.00000E+00
 -1       798 1.80998E-04 6.72641E-06 0.00000E+00
 -1       799 1.81042E-04 5.15486E-06 0.00000E+00
 -1       800 1.81086E-04 3.62175E-06 1.65436E-24
 -1       801 1.39214E-04 2.63244E-05 0.00000E+00
 -1       802 1.43825E-05 1.65814E-05 2.64698E-23
 -1       803-9.30414E-05 8.47512E-06 0.00000E+00
 -1       804-8.38971E-05 5.85641E-06 0.00000E+00
 -1       805-2.78957E-05 2.38272E-06 0.00000E+00
 -1       806 1.81047E-04 2.73909E-05-1.65436E-24
 -1       807 1.81645E-04 2.54255E-05 0.00000E+00
 -1       808 1.82231E-04 2.34911E-05 0.00000E+00
 -1       809 1.82803E-04 2.15916E-05 0.00000E+00
 -1       810 1.83361E-04 1.97307E-05-3.30872E-24
 -1       811 1.83903E-04 1.79121E-05 0.00000E+00
 -1       812 1.84427E-04 1.61395E-05 3.30872E-24
 -1       813 1.84934E-04 1.44166E-05 1.65436E-24
 -1       814 1.85420E-04 1.27470E-05 1.65436E-24
 -1       815 1.85885E-04 1.11344E-05 0.00000E+00
 -1       816 1.86327E-04 9.58232E-06-1.65436E-24
 -1       817 1.86746E-04 8.09451E-06-8.27181E-25
 -1       818 1.87139E-04 6.67456E-06 0.00000E+00
 -1       819 1.87505E-04 5.32611E-06-8.27181E-25
 -1       820 1.87844E-04 4.05272E-06-1.65436E-24
 -1       821 1.81006E-04 3.26219E-07 0.00000E+00
 -1       822 1.80873E-04-2.16673E-06 0.00000E+00
 -1       823 1.80739E-04-5.05987E-06 0.00000E+00
 -1       824 1.80604E-04-8.06639E-06 1.65436E-24
 -1       825 1.80469E-04-1.08698E-05-3.30872E-24
 -1       826 1.80335E-04-1.31549E-05 1.65436E-24
 -1       827 1.80202E-04-1.47435E-05 0.00000E+00
 -1       828 1.80070E-04-1.54617E-05 0.00000E+00
 -1       829 1.79939E-04-1.53662E-05 0.00000E+00
 -1       830 1.79807E-04-1.45181E-05 0.00000E+00
 -1       831 1.79675E-04-1.31780E-05 0.00000E+00
 -1       832 1.79542E-04-1.16095E-05 0.00000E+00
 -1       833 1.79410E-04-1.01364E-05 3.30872E-24
 -1       834 1.79280E-04-9.08226E-06-1.65436E-24
 -1       835 1.79150E-04-8.65991E-06 8.27181E-25
 -1       836 1.82505E-04 2.25463E-06 0.00000E+00
 -1       837 1.83756E-04 2.37762E-06 1.65436E-24
 -1       838 1.84915E-04 2.50053E-06-3.30872E-24
 -1       839 1.86014E-04 2.62275E-06 8.27181E-25
 -1       840 1.87084E-04 2.74479E-06 8.27181E-25
 -1       856 1.79010E-04-9.84770E-06 0.00000E+00
 -1       857 1.78989E-04-1.04846E-05 6.46235E-27
 -1       858 1.78968E-04-1.10097E-05-4.13590E-25
 -1       859 1.78947E-04-1.14436E-05-2.06795E-25
 -1       860 1.78925E-04-1.18071E-05 4.13590E-25
 -1       861 1.78904E-04-1.21209E-05 0.00000E+00
 -1       862 1.78883E-04-1.24059E-05 0.00000E+00
 -1       863 1.78861E-04-1.26830E-05-4.13590E-25
 -1       864 1.78840E-04-1.29729E-05 8.27181E-25
 -1       865 1.78818E-04-1.32966E-05 4.13590E-25
 -1       866 1.78797E-04-1.36748E-05 8.27181E-25
 -1       867 1.78775E-04-1.41283E-05 0.00000E+00
 -1       868 1.78754E-04-1.46778E-05 0.00000E+00
 -1       869 1.78732E-04-1.53441E-05-4.13590E-25
 -1       870 1.78710E-04-1.61475E-05 0.00000E+00
 -1       871 1.80073E-04-9.08252E-06 8.27181E-25
 -1       872 1.81260E-04-9.08986E-06 0.00000E+00
 -1       873 1.82523E-04-9.09784E-06 0.00000E+00
 -1       874 1.83798E-04-9.10655E-06-3.87741E-25
 -1       875 1.85018E-04-9.11581E-06-8.27181E-25
 -1       876 1.79439E-04-9.83376E-06 3.30872E-24
 -1       877 1.79828E-04-1.05239E-05 0.00000E+00
 -1       878 1.80197E-04-1.11566E-05 0.00000E+00
 -1       879 1.80547E-04-1.17391E-05 0.00000E+00
 -1       880 1.80881E-04-1.22786E-05 3.30872E-24
 -1       881 1.81202E-04-1.27824E-05 0.00000E+00
 -1       882 1.81512E-04-1.32576E-05 0.00000E+00
 -1       883 1.81814E-04-1.37115E-05-1.65436E-24
 -1       884 1.82111E-04-1.41512E-05 0.00000E+00
 -1       885 1.82405E-04-1.45839E-05 0.00000E+00
 -1       886 1.82699E-04-1.50168E-05 3.30872E-24
 -1       887 1.82996E-04-1.54570E-05 0.00000E+00
 -1       888 1.83298E-04-1.59119E-05 3.30872E-24
 -1       889 1.83608E-04-1.63886E-05-1.65436E-24
 -1       890 1.83928E-04-1.68944E-05 0.00000E+00
 -1       891 1.79754E-04-1.71639E-05 1.65436E-24
 -1       892 1.80798E-04-1.72194E-05 0.00000E+00
 -1       893 1.81795E-04-1.72749E-05 1.65436E-24
 -1       894 1.82720E-04-1.73301E-05 0.00000E+00
 -1       895 1.83548E-04-1.73851E-05-8.27181E-25
 -1       956 1.88031E-04 1.82936E-06 3.30872E-24
 -1       957 1.87903E-04 8.87747E-07-8.27181E-25
 -1       958 1.87776E-04 2.29720E-08 0.00000E+00
 -1       959 1.87648E-04-7.75679E-07-1.65436E-24
 -1       960 1.87521E-04-1.51896E-06 0.00000E+00
 -1       961 1.87393E-04-2.21765E-06 0.00000E+00
 -1       962 1.87265E-04-2.88254E-06 3.30872E-24
 -1       963 1.87138E-04-3.52445E-06 0.00000E+00
 -1       964 1.87010E-04-4.15419E-06 0.00000E+00
 -1       965 1.86882E-04-4.78256E-06 0.00000E+00
 -1       966 1.86755E-04-5.42038E-06 3.30872E-24
 -1       967 1.86627E-04-6.07846E-06 0.00000E+00
 -1       968 1.86500E-04-6.76758E-06-3.30872E-24
 -1       969 1.86372E-04-7.49853E-06 1.65436E-24
 -1       970 1.86245E-04-8.28205E-06-3.30872E-24
 -1       971 1.86004E-04-9.97202E-06 0.00000E+00
 -1       972 1.85887E-04-1.07231E-05 1.65436E-24
 -1       973 1.85770E-04-1.13918E-05 3.30872E-24
 -1       974 1.85653E-04-1.19889E-05-1.65436E-24
 -1       975 1.85536E-04-1.25249E-05 0.00000E+00
 -1       976 1.85419E-04-1.30105E-05 0.00000E+00
 -1       977 1.85301E-04-1.34563E-05 0.00000E+00
 -1       978 1.85184E-04-1.38729E-05-1.65436E-24
 -1       979 1.85067E-04-1.42712E-05 0.00000E+00
 -1       980 1.84950E-04-1.46616E-05-1.65436E-24
 -1       981 1.84833E-04-1.50550E-05-3.30872E-24
 -1       982 1.84716E-04-1.54619E-05 0.00000E+00
 -1       983 1.84599E-04-1.58930E-05 0.00000E+00
 -1       984 1.84482E-04-1.63591E-05-1.65436E-24
 -1       985 1.84367E-04-1.68707E-05 3.30872E-24
 -3
    1PSTEP                        18           9           1          
  100CL  109 6.44531E-01         409                     0    9           1
 -4  STRESS      6    1
 -5  SXX         1    4    1    1
 -5  SYY         1    4    2    2
 -5  SZZ         1    4    3    3
 -5  SXY         1    4    1    2
 -5  SYZ         1    4    2    3
 -5  SZX         1    4    3    1
 -1         1-4.42962E+06-1.65127E+06-9.74362E+05-1.62388E+06 5.82077E-10-4.31901E-08
 -1         2 3.01974E+04-2.13494E+06 1.25886E+05 3.29439E+05 5.00586E-09-1.30749E-08
 -1         3-1.24261E+03-1.62026E+06 4.06078E+02-2.10248E+03-5.57439E-10-2.16096E-09
 -1         5-4.80458E+01 3.68852E+05 9.47233E+00-9.78219E-01-3.35197E-10-6.67205E-09
 -1         8-6.21586E+05-2.09497E+05-4.91773E+04-4.00597E+05 5.72072E-10 7.75217E-08
 -1         9 8.09546E+06-6.71752E+05 1.35485E+06-1.01666E+06 2.66591E-08 1.14087E-08
 -1        10-2.13267E+03-1.68842E+06-3.86915E+03-1.42073E+04-1.25001E-08-1.39863E-08
 -1        12-4.42615E+01 3.68872E+05 3.09795E+02-6.79328E+00-4.70578E-10-1.22682E-08
 -1        15 1.25876E+03 6.91755E+02 4.06892E+03 1.84231E+00 2.71115E-10-6.03773E-08
 -1        16 1.75964E+07-1.51073E+05 2.47683E+06-1.43395E+06 1.27669E-08 5.25421E-08
 -1        17 6.31879E+06 4.50812E+06 1.70240E+06 4.42718E+06 1.60973E-08 3.41097E-08
 -1        18 1.12850E+05 2.55266E+04-1.67464E+03-1.12211E+05 1.21800E-08-1.57252E-09
 -1        19 1.17819E+05 1.35751E+05-8.61376E+02 2.16263E+04-7.45786E-11-7.73798E-10
 -1        20-7.51350E+04-5.49102E+05-1.22983E+05 2.59406E+04-7.76102E-10 4.80031E-09
 -1        21-4.49594E+01-2.87782E+05-9.01944E+02 2.08329E+02 1.18048E-08-5.62794E-09
 -1        24 1.03403E+07 8.81588E+06 2.92709E+06 8.20056E+06-1.43026E-07-4.83706E-08
 -1        25 7.41670E+04 8.05908E+04 5.22142E+04-5.36272E+05 2.20225E-09 7.62266E-09
 -1        26-5.24014E+04 8.82122E+04-2.36363E+04 2.17356E+02 2.61934E-10 4.54231E-09
 -1        27-7.39883E+04-2.97178E+05-1.09184E+05 6.65533E+04 5.32630E-09 6.43013E-10
 -1        28 2.17242E+04-8.25715E+04 1.64116E+04 2.06648E+04-2.29767E-09-1.68015E-09
 -1        32-1.62980E+06-2.99587E+06-1.74391E+05 2.62101E+05-3.81260E-08-1.09093E-08
 -1        33-1.71935E+05 8.89208E+04 3.10729E+04-3.75545E+04-2.49289E-09 2.75607E-09
 -1        34-2.15691E+05-2.38474E+04 6.47651E+02 7.22310E+04-3.80318E-09-1.59707E-08
 -1        35-2.23522E+04-3.27350E+04-1.30270E+03 5.00736E+04-1.34821E-09 2.28380E-08
 -1        51 4.97306E+04-2.11642E+05 1.07545E+05-6.34966E+05 5.82077E-11 9.44419E-08
 -1        52 1.80157E+04-1.94472E+05 5.80826E+04-7.40303E+05 5.56611E-10 1.79221E-07
 -1        53 5.10289E+03-2.09956E+05 3.28694E+04-6.32651E+05 3.74712E-10-3.98431E-08
 -1        54 1.14770E+04-2.06411E+05 3.23186E+04-7.42702E+05-1.60071E-10-2.86345E-08
 -1        55 2.40536E+04-2.15915E+05 4.55109E+04-6.32334E+05 7.13044E-10-2.07147E-08
 -1        56-8.35201E+06-9.59369E+05-7.22397E+05-3.28204E+06-9.12405E-09-7.63102E-08
 -1        57-8.82284E+06-1.41977E+06-4.85230E+05-3.03449E+06 1.77570E-08 2.30502E-08
 -1        58-8.44552E+06-1.23574E+06-1.69595E+05-3.29028E+06-1.48284E-08-5.71381E-08
 -1        59-8.72213E+06-1.09010E+06-1.00711E+05-3.02494E+06 4.04107E-08 1.11904E-07
 -1        60-8.45394E+06-1.27871E+06-3.92517E+04-3.29670E+06-4.35834E-08 1.75205E-08
 -1        61-8.67886E+06-1.06877E+06-2.17337E+04-3.04840E+06-3.95858E-09 6.50348E-08
 -1        62-8.48678E+06-1.25698E+06-1.17368E+04-3.26594E+06-2.80852E-08-6.67123E-08
 -1        63-8.58680E+06-1.14498E+06-7.09422E+03-3.13494E+06-3.80314E-08 9.13351E-08
 -1        64-8.54137E+06-1.20547E+06-1.18909E+04-3.20682E+06-2.74649E-08 2.72149E-07
 -1        65-8.48343E+06-1.25452E+06-1.82618E+04-3.25489E+06-3.46445E-08 4.22892E-08
 -1        66-8.58997E+06-1.14774E+06-3.60800E+04-3.14586E+06 2.11530E-08-4.91455E-08
 -1        67-8.43126E+06-1.36945E+06-8.86317E+04-3.34903E+06-1.94714E-08-1.15630E-07
 -1        68-8.59857E+06-1.08840E+06-1.49506E+05-3.11579E+06 7.48332E-09-3.45608E-09
 -1        69-8.55763E+06-1.63313E+06-4.29726E+05-3.33378E+06 2.29011E-09-1.41998E-07
 -1        70-8.46795E+06-8.89565E+05-6.37514E+05-3.16061E+06-7.62520E-09 1.11759E-08
 -1        86-3.10271E+04-3.09773E+06-7.37294E+04-1.64002E+05-4.32426E-08-1.96100E-07
 -1        87 3.75639E+04-2.51613E+06 5.14100E+04 4.89010E+05-7.18742E-08 5.73068E-08
 -1        88-1.38254E+03-2.75719E+06-7.80098E+03-3.24525E+05-6.85868E-08 7.61702E-10
 -1        89 3.62838E+04-2.57019E+06 2.03820E+04 5.21249E+05-9.46166E-08-4.36899E-08
 -1        90-2.46432E+04-3.04933E+06-1.13889E+05-1.96509E+05-2.76195E-08 8.38991E-08
 -1       121-1.71134E+03-1.62441E+06-3.80158E+02 1.04384E+03 1.31485E-09 1.52941E-08
 -1       122-1.06106E+03-1.62030E+06 7.91958E+02-4.20455E+03-4.89311E-09-1.75987E-08
 -1       123-1.74337E+03-1.62454E+06 4.73815E+02 3.11673E+03 4.06862E-09 5.89353E-09
 -1       124 6.08352E+02-1.61976E+06 3.09994E+03-8.77879E+03-9.55470E-09 1.96960E-08
 -1       125-2.60767E+03-1.62546E+06 3.86951E+03 5.58389E+03 5.86442E-09-8.65839E-10
 -1       191-5.07351E+01 3.68875E+05 9.23722E+00 5.03895E-01-4.19063E-10-6.33190E-09
 -1       192-4.89437E+01 3.68853E+05 2.01564E+01-3.26257E+00-6.03428E-10 2.67682E-08
 -1       193-5.31073E+01 3.68874E+05 3.54574E+01 2.84991E+00-8.67553E-10 5.84441E-09
 -1       194-5.18262E+01 3.68856E+05 7.64862E+01-7.44824E+00-4.40537E-10-9.56425E-09
 -1       195-5.76622E+01 3.68872E+05 1.47574E+02 4.79375E+00-1.18003E-09-6.01358E-09
 -1       251-2.27309E+06-4.33704E+04-2.34163E+05 1.31199E+05 4.69299E-10 7.60847E-08
 -1       252-1.06784E+06 4.99261E+04 7.56306E+04-4.39997E+05-1.56888E-09-1.55091E-07
 -1       253-1.77391E+06-1.88506E+04-4.40956E+04 3.08649E+05-3.66890E-09 9.47630E-08
 -1       254-1.63755E+06 7.21942E+04 1.37501E+04-6.15114E+05 6.82820E-09 6.27631E-09
 -1       255-1.76011E+06-1.87949E+04-2.06914E+04 3.11393E+05-2.48019E-09-1.34801E-07
 -1       256-1.09291E+06 5.90452E+04 1.24438E+05-4.52216E+05-2.50293E-08 2.03599E-07
 -1       257-2.26480E+06-5.00359E+04-1.25163E+05 1.40839E+05-4.92873E-08 2.83935E-08
 -1       258-5.47063E+05 4.50014E+04 2.27702E+05 9.34033E+03 4.19068E-08 1.09625E-07
 -1       259-2.25194E+06-4.91511E+04-1.20492E+05-1.47042E+05 6.08306E-08 5.27871E-09
 -1       260-1.12029E+06 6.03449E+04 1.24195E+05 4.64617E+05-1.80580E-08-2.58173E-07
 -1       261-1.74849E+06-1.85854E+04-8.46663E+03-3.11636E+05-6.82139E-08 1.10304E-07
 -1       262-1.62896E+06 8.16607E+04 3.72771E+04 6.16475E+05 7.37050E-08-9.94366E-08
 -1       263-1.79394E+06-2.86196E+04-1.00032E+04-3.03521E+05-2.07456E-08 1.47102E-08
 -1       264-1.00487E+06 1.19425E+05 1.82572E+05 4.30926E+05-8.89486E-08 2.43959E-07
 -1       265-2.31308E+06-1.05243E+05-9.22645E+04-1.21037E+05-4.17422E-08 8.08304E-08
 -1       266-2.27877E+04-1.06558E+04 5.34654E+04-3.94191E+01 8.00355E-11 1.27309E-07
 -1       267 2.64172E+04 1.24192E+04 3.77891E+04 4.54826E+01 3.15595E-10 8.26995E-09
 -1       268-3.54251E+03-1.75892E+03 1.40460E+04-5.79523E+00 1.82808E-10-1.03510E-08
 -1       269 4.18265E+03 2.10503E+03 9.12971E+03 6.75062E+00 1.54614E-10 2.13125E-07
 -1       270-6.27822E+02-3.45875E+02 4.40704E+03-9.16105E-01-1.47793E-12-1.12512E-07
 -1       271-2.05174E+06-2.46687E+05-1.52385E+05-7.84897E+05-8.62565E-09 1.76697E-07
 -1       272-2.16179E+06-3.03523E+05-9.81086E+04-7.22012E+05 1.03887E-08-2.97605E-08
 -1       273-2.07917E+06-2.86052E+05-3.59559E+04-7.79534E+05 5.78302E-09-6.50234E-08
 -1       274-2.12936E+06-2.55443E+05-2.01790E+04-7.30358E+05 1.30285E-09 4.37299E-08
 -1       275-2.08321E+06-2.90032E+05-8.38097E+03-7.78216E+05 1.20745E-08-9.44210E-08
 -1       276-2.12309E+06-2.51858E+05-4.39130E+03-7.33048E+05-2.22299E-08-2.39919E-07
 -1       277-2.08489E+06-2.89430E+05-2.22043E+03-7.76695E+05 1.93641E-08 4.71914E-08
 -1       278-2.11899E+06-2.54421E+05-1.36397E+03-7.36217E+05 2.24227E-08-1.05465E-08
 -1       279-2.08666E+06-2.87832E+05-1.59490E+03-7.74603E+05-2.17078E-08-2.53613E-08
 -1       280-2.11450E+06-2.58812E+05-2.32786E+03-7.40369E+05 3.50774E-08 1.18584E-07
 -1       281-2.08865E+06-2.85517E+05-4.67117E+03-7.72023E+05-2.69993E-08 1.23425E-07
 -1       282-2.11105E+06-2.66629E+05-1.03225E+04-7.45151E+05 6.85759E-09 3.43268E-08
 -1       283-2.08946E+06-2.80710E+05-1.89916E+04-7.69252E+05 7.44330E-09 2.88253E-08
 -1       284-2.12126E+06-2.97511E+05-5.05869E+04-7.47432E+05 1.33923E-08-1.04781E-08
 -1       285-2.07829E+06-2.57512E+05-7.93715E+04-7.68477E+05 2.06710E-08-5.65269E-08
 -1       301 1.30141E+04-4.97631E+05 1.73749E+05-8.63596E+05 1.79716E-09-9.16480E-08
 -1       302 1.42533E+04-4.53146E+05 1.05707E+05-1.26237E+06-1.86992E-09 3.33530E-08
 -1       303-6.80876E+03-4.83661E+05 6.42807E+04-8.61439E+05 5.09317E-11 7.43457E-08
 -1       304 1.36525E+03-4.56915E+05 7.25907E+04-1.26160E+06-9.82254E-10 1.68075E-07
 -1       305-2.99023E+03-4.81290E+05 9.96086E+04-8.64140E+05 2.01908E-10 3.74130E-08
 -1       306-2.56807E+07-5.17943E+06-7.03794E+06-1.27220E+06-3.98140E-08-5.55883E-08
 -1       307 2.08626E+07 1.59320E+06 4.52352E+06-1.20485E+07-7.50108E-07-1.59824E-07
 -1       308-7.89510E+06-6.23152E+05-5.56770E+05 4.28134E+06-1.82423E-07 1.96174E-07
 -1       309-3.57573E+06 5.59902E+06 1.65516E+06-1.78926E+07 3.40482E-07-5.25324E-09
 -1       310-1.06951E+07-1.04640E+06-1.28011E+06 4.14138E+06 1.82190E-08-1.53668E-07
 -1       311 2.73277E+07-3.15012E+05 5.48528E+06-8.55324E+06 4.14671E-07-1.33630E-07
 -1       312-2.64887E+07-5.19175E+06-6.59298E+06-3.63006E+06 1.53552E-07 3.79805E-08
 -1       313 3.69209E+07 9.58152E+06 8.50242E+06 1.69526E+07-8.09960E-08-1.99798E-08
 -1       314-1.64433E+07-1.33303E+07-6.07567E+06-1.06300E+07 3.79921E-07 1.52562E-07
 -1       315-7.38052E+05 2.25074E+07 4.67842E+06 1.02777E+07-6.98812E-07-5.80621E-08
 -1       316-2.61853E+04-8.78637E+06-5.15067E+05-3.70934E+06-1.00027E-06-2.41009E-07
 -1       317-1.68264E+07 1.87526E+07 1.62509E+06-5.15998E+06 7.21840E-07-5.49509E-07
 -1       318-1.36889E+06-9.98193E+06-1.33723E+06-4.48163E+06-7.32718E-07 5.89062E-08
 -1       319 4.06073E+06 2.35910E+07 5.24686E+06 1.27294E+07-8.68749E-08 2.20491E-07
 -1       320-1.91327E+07-1.36762E+07-7.71921E+06-1.05256E+07 1.61119E-07-4.16767E-08
 -1       336-3.07717E+02-1.75849E+06-1.36624E+04 8.49555E+03-2.40925E-08-1.35733E-08
 -1       337-5.24208E+03-1.75891E+06-1.77450E+04-2.05472E+04-4.43940E-08-2.57933E-09
 -1       338 5.53415E+02-1.75805E+06-2.74248E+04 1.18604E+04-3.21115E-08-1.25110E-08
 -1       339-2.91227E+04-1.77529E+06-6.21152E+04-2.71127E+04-5.76874E-08-2.34850E-08
 -1       340 1.94409E+04-1.74400E+06-9.76000E+04 1.49489E+04-3.79914E-08 1.42136E-08
 -1       406-2.26292E+01 3.68858E+05 6.09471E+02 2.29167E+00-1.66465E-09-5.08226E-09
 -1       407 1.69229E+02 3.68980E+05 1.29990E+03 1.92897E+01-5.30918E-10-5.96810E-09
 -1       408 6.23465E+02 3.68764E+05 2.59341E+03-2.19862E+01-1.83297E-09-1.88465E-08
 -1       409 2.76625E+03 3.69808E+05 5.84280E+03 2.30986E+02-5.00620E-10-1.40990E-08
 -1       410 8.02705E+03 3.68020E+05 1.19259E+04-2.21792E+02-2.53203E-09-1.63000E-08
 -1       521-2.73151E+07-6.36282E+06-8.24363E+06-9.97150E+05-9.05711E-08-5.44242E-08
 -1       522 2.16494E+07 2.14522E+06 4.60933E+06-1.50111E+07-4.65428E-07-2.62167E-07
 -1       523-8.71333E+06-8.90384E+05-5.80851E+05 4.72776E+06 5.42786E-08-3.52913E-07
 -1       524-6.55974E+06 7.89233E+06 1.80265E+06-2.08044E+07 8.26680E-07-5.97036E-07
 -1       525-1.17115E+07-1.49262E+06-1.41362E+06 4.57551E+06 5.58735E-07-3.10072E-07
 -1       526 2.96854E+07-3.44601E+05 5.79402E+06-1.09537E+07 2.42813E-07-6.98492E-08
 -1       527-2.83108E+07-6.54300E+06-7.60696E+06-3.55111E+06 1.77650E-07-6.86559E-08
 -1       528 4.05040E+07 1.04971E+07 8.90828E+06 1.92363E+07-3.44880E-07-1.22440E-07
 -1       529-1.75266E+07-1.52077E+07-6.98521E+06-1.09002E+07-2.25904E-07-1.89757E-07
 -1       530-2.87704E+06 2.63728E+07 4.96576E+06 1.04107E+07-4.03597E-07 4.55591E-07
 -1       531-1.29989E+05-9.94230E+06-5.24795E+05-3.91845E+06-9.34524E-07 1.78086E-07
 -1       532-1.98715E+07 2.10801E+07 1.79509E+06-8.30420E+06 4.64759E-07-5.22981E-07
 -1       533-1.46899E+06-1.11499E+07-1.41446E+06-4.61583E+06-1.21014E-07-9.11881E-07
 -1       534 2.16407E+06 2.75534E+07 5.49264E+06 1.32609E+07-7.51752E-08 6.44242E-07
 -1       535-2.03193E+07-1.56686E+07-8.83643E+06-1.07789E+07 5.42495E-08 4.04281E-07
 -1       536-6.59892E+05-4.50015E+04-2.87559E+04-4.83508E+04-1.16052E-09 4.48035E-08
 -1       537-9.99920E+04 4.39947E+04 8.00967E+04 1.11656E+05-9.15327E-08 7.36836E-08
 -1       538-3.92368E+05 2.08645E+03 6.21157E+03-6.60003E+04 3.02826E-08 9.10263E-08
 -1       539-2.85485E+05 3.08994E+03 2.30055E+04 1.26128E+05 1.14865E-07 1.00469E-07
 -1       540-4.78990E+05-2.93663E+02-1.71823E+04-6.32402E+04-2.42321E-08 9.18624E-08
 -1       541 6.88141E+04 1.44781E+04 9.10177E+04 8.74854E+04 6.67114E-09 6.50884E-08
 -1       542-7.37136E+05-1.72359E+04-7.16949E+04-2.66764E+04 6.12536E-08 3.56768E-08
 -1       543 2.89305E+05 2.33443E+04 1.34636E+05-1.23171E+04 4.20550E-09-3.36208E-08
 -1       544-6.93582E+05-1.40370E+04-6.36888E+04 3.60365E+04 3.30283E-09-3.48383E-08
 -1       545-3.30032E+04 7.84564E+03 6.74256E+04-1.02496E+05 2.79661E-08-6.00157E-08
 -1       546-4.23458E+05 5.40149E+03-1.05827E+04 6.32369E+04 4.40550E-08-7.76889E-08
 -1       547-3.01622E+05-4.68249E+03 7.81499E+03-1.28839E+05-1.15542E-07-9.93028E-08
 -1       548-4.32158E+05 4.48876E+03-2.19992E+04 6.29182E+04-1.08158E-07-7.90869E-08
 -1       549-1.50903E+04 1.05510E+04 4.73990E+04-1.00074E+05-5.11365E-08-4.92801E-08
 -1       550-7.02313E+05-1.62282E+04-1.16311E+05 3.39102E+04 7.29597E-09-3.31383E-08
 -1       551 3.73316E+04-7.69132E+05-6.28783E+03-1.20996E+06-9.52859E-08 1.04774E-09
 -1       552 8.46321E+04-8.07940E+05 1.53701E+04-1.72546E+06-6.75645E-08 2.91329E-08
 -1       553 6.44867E+04-8.06273E+05 3.57182E+04-1.20383E+06-1.10987E-07 2.71248E-08
 -1       554 1.21233E+05-8.20305E+05 8.54192E+04-1.72742E+06-6.96455E-08 1.07684E-08
 -1       555 9.41245E+04-8.29026E+05 1.54676E+05-1.20387E+06-1.13403E-07-1.39771E-08
 -1       556 2.03342E+05-3.52836E+05 3.88900E+04-3.85276E+05-1.62254E-08-1.04774E-08
 -1       557 3.27008E+05-4.51640E+05 2.25571E+04-4.96343E+05 9.31323E-10 7.23958E-10
 -1       558 1.88441E+05-3.49359E+05 5.71684E+03-3.86817E+05-1.67929E-08 2.08820E-09
 -1       559 3.03681E+05-4.54033E+05 3.92593E+03-5.14122E+05 2.44763E-08-1.52213E-08
 -1       560 1.75362E+05-3.41130E+05-4.04908E+02-3.96157E+05 1.23109E-08 2.14568E-08
 -1       561 2.87065E+05-4.47512E+05 5.39466E+02-5.25365E+05 5.47152E-09 2.28938E-08
 -1       562 1.65026E+05-3.34680E+05-8.97103E+02-4.03623E+05 5.48607E-09 6.95582E-09
 -1       563 2.74807E+05-4.42168E+05 8.15250E+01-5.33349E+05-6.39557E-09-1.68338E-08
 -1       564 1.57712E+05-3.30115E+05-4.31764E+02-4.08800E+05-6.57747E-09 1.96919E-08
 -1       565 2.66790E+05-4.38677E+05 5.60540E+01-5.38465E+05-1.75824E-08-3.81806E-09
 -1       566 1.53530E+05-3.27465E+05-1.92154E+02-4.11727E+05-7.09406E-09-1.60198E-08
 -1       567 2.63045E+05-4.37046E+05-3.03519E+02-5.40723E+05 2.99369E-08 1.11140E-08
 -1       568 1.52558E+05-3.26874E+05-9.74894E+02-4.12503E+05-9.36780E-11 9.17498E-09
 -1       569 2.62275E+05-4.37005E+05-2.46386E+03-5.39177E+05-1.05301E-08-9.13133E-09
 -1       570 1.55819E+05-3.29903E+05-5.41734E+03-4.11580E+05 7.86531E-09-2.01089E-09
 -1       571 2.77746E+05 1.00611E+04 1.44545E+04-8.78478E+04 1.39335E-09 1.02009E-08
 -1       572 2.79851E+05 3.73903E+03 7.08347E+03-9.63761E+04 3.18323E-09-1.39844E-08
 -1       573 2.78583E+05 1.12785E+03 3.14733E+03-8.76800E+04 7.05768E-10-1.48884E-09
 -1       574 2.78799E+05 6.19362E+02 1.57811E+03-9.65857E+04 4.18004E-09-1.28166E-08
 -1       575 2.78675E+05 3.58010E+02 7.44687E+02-8.76572E+04-9.11376E-09-6.67114E-09
 -1       576 2.78666E+05 3.61917E+02 3.80965E+02-9.66136E+04-2.75377E-08 6.69388E-09
 -1       577 2.78709E+05 3.04371E+02 1.89902E+02-8.76541E+04-1.40608E-08 1.16888E-08
 -1       578 2.78688E+05 3.29214E+02 1.08954E+02-9.66175E+04-4.28417E-09 6.61748E-09
 -1       579 2.78770E+05 2.74502E+02 7.40464E+01-8.76538E+04 7.93807E-09-1.52413E-08
 -1       580 2.78773E+05 2.87055E+02 8.42502E+01-9.66129E+04-5.17321E-09-3.78077E-09
 -1       581 2.78865E+05 2.26186E+02 1.26496E+02-8.76592E+04 1.30112E-08-1.28330E-09
 -1       582 2.78922E+05 2.58971E+02 2.55773E+02-9.65561E+04 2.08638E-08-1.99698E-08
 -1       583 2.78982E+05 2.71646E+02 4.91425E+02-8.77111E+04 8.38736E-09 9.17612E-09
 -1       584 2.79252E+05 6.70552E+02 1.11087E+03-9.61188E+04 4.27826E-09 2.31191E-08
 -1       585 2.78994E+05 1.61227E+03 2.25061E+03-8.80960E+04 4.67480E-10 1.23509E-08
 -1       586-3.29974E+03 1.08155E+05-3.04228E+03-2.41265E+05-5.76529E-09 6.48765E-09
 -1       587-1.18996E+03 1.07867E+05 5.94521E+02-2.65536E+05-3.03589E-09 3.63925E-08
 -1       588 4.92146E+02 1.07725E+05 4.44997E+03-2.41136E+05-3.33785E-09 1.19153E-08
 -1       589 4.95620E+03 1.10051E+05 1.16684E+04-2.65301E+05-7.67432E-09-2.68774E-08
 -1       590 1.58687E+04 1.06459E+05 2.45265E+04-2.41551E+05-2.95950E-09 1.72586E-08
 -1       591-6.90297E+04-1.51441E+04-2.11725E+04-2.99392E+04-4.26689E-09-1.35606E-08
 -1       592-7.27271E+04-1.86329E+04-1.14686E+04-3.35119E+04 7.01046E-09-1.71144E-09
 -1       593-7.11483E+04-1.36065E+04-4.77388E+03-3.14906E+04 3.24074E-09 4.03043E-09
 -1       594-6.98018E+04-1.55283E+04-2.38088E+03-3.36252E+04-4.05109E-09-7.72795E-09
 -1       595-7.13099E+04-1.36013E+04-1.09317E+03-3.15611E+04-3.11272E-09 1.92658E-08
 -1       596-6.96016E+04-1.53863E+04-5.55713E+02-3.36017E+04 5.34317E-09-3.83997E-09
 -1       597-7.13302E+04-1.36157E+04-3.02583E+02-3.15637E+04 3.65571E-09 7.36253E-09
 -1       598-6.95819E+04-1.53807E+04-2.43209E+02-3.35950E+04-4.62319E-09 1.78159E-08
 -1       599-7.13290E+04-1.36162E+04-3.10628E+02-3.15634E+04-2.97734E-09-1.53947E-08
 -1       600-6.96018E+04-1.53870E+04-5.77011E+02-3.35998E+04-1.59446E-09 1.23592E-08
 -1       601-7.13055E+04-1.36024E+04-1.13830E+03-3.15600E+04-5.50540E-09-9.14633E-09
 -1       602-6.98101E+04-1.55339E+04-2.48079E+03-3.36207E+04-6.01813E-09-4.32567E-09
 -1       603-7.11345E+04-1.36106E+04-4.97501E+03-3.14872E+04-6.66887E-10-5.27962E-09
 -1       604-7.28751E+04-1.87509E+04-1.19511E+04-3.34793E+04 3.79441E-09 1.16415E-09
 -1       605-6.89078E+04-1.52296E+04-2.20633E+04-2.98888E+04 2.42369E-09 2.28802E-08
 -1       606 2.69710E+04-1.36666E+04-2.45077E+04 2.47492E+04 6.77119E-09-6.09543E-09
 -1       607 2.27825E+04-4.45887E+03-1.22046E+04 2.78066E+04 4.98676E-09-1.16743E-08
 -1       608 2.51676E+04-8.00154E+02-5.46388E+03 2.45701E+04 4.32556E-09-1.59002E-08
 -1       609 2.47082E+04-2.68325E+02-2.76011E+03 2.80267E+04 1.45847E-08-5.44799E-09
 -1       610 2.49612E+04-3.21839E+01-1.31712E+03 2.45491E+04 1.13596E-08 3.23257E-09
 -1       611 2.48872E+04-3.01787E+01-6.64095E+02 2.80505E+04 7.44876E-09-5.34419E-09
 -1       612 2.49140E+04-1.77063E+01-3.15984E+02 2.45470E+04 4.04179E-09 6.84918E-09
 -1       613 2.48960E+04-2.49783E+01-1.41864E+02 2.80533E+04 4.86943E-09 1.85305E-08
 -1       614 2.48911E+04-2.26832E+01-3.40185E+01 2.45463E+04 2.74395E-09 1.46865E-08
 -1       615 2.48891E+04-2.25449E+01 5.77059E+01 2.80538E+04-2.41198E-09 9.71795E-09
 -1       616 2.48732E+04-1.88736E+01 1.74644E+02 2.45466E+04-1.53523E-09-3.93720E-09
 -1       617 2.49087E+04 1.55357E+01 3.99124E+02 2.80533E+04 2.58251E-09-8.70614E-09
 -1       618 2.48375E+04 9.68486E+01 8.04719E+02 2.45468E+04 6.16637E-10 4.80873E-09
 -1       619 2.51920E+04 6.38294E+02 1.80723E+03 2.80526E+04-2.47474E-09-1.24232E-08
 -1       620 2.45697E+04 2.00558E+03 3.63250E+03 2.45477E+04 1.37072E-09 1.78434E-08
 -1       621 4.51228E+02 2.87843E+05 3.58120E+03 3.57834E+04 8.14907E-10 1.59953E-08
 -1       622 5.88988E+02 2.88681E+05 3.20874E+03 5.19668E+04 1.03410E-09 1.10667E-08
 -1       623 1.07534E+02 2.88027E+05 3.89727E+03 3.56202E+04 1.01841E-09 1.81917E-08
 -1       624 1.96681E+03 2.89860E+05 7.58810E+03 5.21282E+04 7.62157E-10-2.27863E-08
 -1       625 1.93464E+03 2.86525E+05 1.32761E+04 3.56172E+04 1.18780E-09 9.90940E-09
 -1       626 2.52705E+05 6.04588E+04 5.28016E+03 1.23861E+05 4.22597E-09 2.71120E-08
 -1       627 2.50340E+05 6.19171E+04 2.54876E+03 1.28242E+05-3.48655E-09 1.95671E-08
 -1       628 2.52847E+05 5.80789E+04 1.07821E+03 1.24744E+05-1.98379E-08 7.22457E-09
 -1       629 2.49680E+05 6.12300E+04 5.27918E+02 1.28486E+05-9.47011E-09 2.60056E-08
 -1       630 2.52861E+05 5.79680E+04 2.44796E+02 1.24780E+05-4.97494E-09 1.77709E-08
 -1       631 2.49610E+05 6.12054E+04 1.31258E+02 1.28486E+05 3.51520E-09-5.03599E-09
 -1       632 2.52857E+05 5.79732E+04 8.54689E+01 1.24775E+05 1.43018E-09 6.46196E-09
 -1       633 2.49600E+05 6.12079E+04 9.38183E+01 1.28481E+05-5.12955E-10 1.67727E-08
 -1       634 2.52851E+05 5.79711E+04 1.50370E+02 1.24773E+05-6.88601E-10-3.19733E-09
 -1       635 2.49613E+05 6.12065E+04 3.03412E+02 1.28486E+05 1.34425E-09-8.38099E-10
 -1       636 2.52841E+05 5.79649E+04 6.12276E+02 1.24773E+05 8.66066E-10-1.06843E-08
 -1       637 2.49744E+05 6.12975E+04 1.34495E+03 1.28487E+05 4.57840E-09-7.07269E-09
 -1       638 2.52792E+05 5.82474E+04 2.76177E+03 1.24644E+05 5.64387E-09 1.02523E-08
 -1       639 2.51197E+05 6.32813E+04 6.53142E+03 1.28076E+05 2.99883E-09 4.08295E-09
 -1       640 2.52570E+05 6.41617E+04 1.35310E+04 1.22140E+05-1.56342E-09-2.41589E-08
 -1       656 6.39290E+04-1.63403E+06-1.54324E+05-2.09143E+03-2.32831E-10-1.29933E-08
 -1       657-8.45673E+04-1.70375E+06-1.27835E+05 5.73723E+03-8.84029E-10-2.72143E-08
 -1       658 2.03739E+04-1.65383E+06-7.87158E+04-4.06245E+03 2.28738E-10-1.69644E-08
 -1       659-9.14046E+04-1.70700E+06-1.36819E+05 7.34130E+03-1.87720E-09-1.61837E-08
 -1       660 7.07510E+04-1.63079E+06-1.69771E+05-3.69550E+03-1.36788E-09 5.66993E-09
 -1       661 1.60880E+05 1.69489E+04 1.67161E+04 6.28955E+04-3.56385E-09 5.33510E-09
 -1       662 1.70256E+05 2.94018E+04 1.12653E+04 5.92313E+04-4.12257E-09-1.54561E-08
 -1       663 1.64163E+05 2.23118E+04 3.93998E+03 6.19428E+04-1.85753E-09 8.14339E-09
 -1       664 1.66450E+05 2.31300E+04 2.35677E+03 6.03947E+04-2.96097E-09 1.19421E-08
 -1       665 1.64661E+05 2.30446E+04 9.29719E+02 6.17979E+04 2.00976E-09-8.81963E-09
 -1       666 1.65861E+05 2.22916E+04 5.43965E+02 6.05835E+04 2.10173E-09-1.28195E-08
 -1       667 1.64748E+05 2.31282E+04 2.88822E+02 6.17619E+04 2.13328E-09-7.89561E-09
 -1       668 1.65765E+05 2.22311E+04 2.94067E+02 6.06359E+04-3.11134E-09 1.28458E-08
 -1       669 1.64756E+05 2.31034E+04 3.97928E+02 6.17458E+04 2.66994E-10 7.79571E-09
 -1       670 1.65862E+05 2.24470E+04 8.66325E+02 6.06388E+04-1.73748E-09-1.63836E-08
 -1       671 1.64651E+05 2.29169E+04 1.53816E+03 6.17570E+04 3.70022E-09-4.51411E-09
 -1       672 1.66758E+05 2.39435E+04 3.93530E+03 6.04218E+04 6.69873E-09-1.72679E-09
 -1       673 1.63864E+05 2.16447E+04 6.59492E+03 6.19483E+04 2.49202E-09-4.93719E-09
 -1       674 1.73035E+05 3.45385E+04 1.88601E+04 5.85773E+04-9.46329E-10 1.60117E-09
 -1       675 1.58415E+05 1.26185E+04 2.79949E+04 6.34901E+04-3.30374E-09 8.29459E-10
 -1       676 2.34852E+01-2.87707E+05-1.08708E+03-1.04167E+02 5.46123E-10 2.37579E-09
 -1       677-2.88019E+02-2.87970E+05-1.98954E+03 2.08174E+02 7.39800E-09 8.85524E-09
 -1       678 1.92813E+02-2.87520E+05-3.51700E+03-1.03938E+02 3.21279E-10-1.04652E-08
 -1       679-3.51748E+03-2.90093E+05-8.35491E+03 2.07300E+02 7.06393E-09-1.02056E-08
 -1       680 2.09980E+03-2.85585E+05-1.34653E+04-1.02140E+02 4.98403E-10 3.05266E-09
 -1       771-2.99237E+06-7.06351E+05-1.44445E+05-1.41457E+06-3.12575E-08-2.41562E-08
 -1       772-2.92209E+06-7.88446E+05-7.46149E+04-1.50928E+06-2.14641E-08 1.05174E-08
 -1       773-3.01986E+06-6.84831E+05-3.77162E+04-1.42659E+06-1.37661E-08 9.66247E-09
 -1       774-2.91288E+06-7.72599E+05-1.68936E+04-1.53149E+06 2.46655E-08-3.02680E-09
 -1       775-3.03387E+06-6.74966E+05-1.24213E+04-1.43228E+06-6.05360E-09 1.95723E-09
 -1       776-2.92290E+06-7.70266E+05-4.67961E+03-1.54805E+06-1.05356E-08 3.12866E-09
 -1       777-3.04593E+06-6.66231E+05-5.41024E+03-1.43730E+06 1.74623E-09 3.97267E-09
 -1       778-2.93341E+06-7.68128E+05-1.54104E+03-1.56224E+06 3.05590E-09 7.47241E-09
 -1       779-3.05625E+06-6.58632E+05-2.67917E+03-1.44158E+06-6.97037E-09-8.36371E-09
 -1       780-2.94265E+06-7.66085E+05-4.46268E+02-1.57380E+06-2.77942E-09-2.26828E-09
 -1       781-3.06443E+06-6.52525E+05-1.03319E+03-1.44494E+06-1.76369E-08 3.76349E-09
 -1       782-2.94976E+06-7.64340E+05 3.78164E+02-1.58232E+06-3.40588E-08-3.76440E-09
 -1       783-3.07018E+06-6.48295E+05 5.92926E+02-1.44730E+06-1.36060E-08-1.17516E-08
 -1       784-2.95367E+06-7.62534E+05 2.43511E+03-1.58757E+06-2.37196E-08 8.77526E-09
 -1       785-3.07357E+06-6.45777E+05 4.30019E+03-1.44880E+06-3.95739E-08 4.68390E-09
 -1       786 1.24866E+05-9.64975E+03 2.23252E+04-2.82102E+02 1.96194E-09 1.68548E-08
 -1       787 1.34548E+05 1.11720E+04 1.57942E+04-1.01606E+02 6.61937E-09 8.77185E-09
 -1       788 1.28599E+05-1.51227E+03 5.77618E+03-2.48784E+02 2.05899E-09 1.45785E-08
 -1       789 1.30199E+05 1.75017E+03 3.62631E+03-1.53149E+02-7.31958E-10 1.83381E-08
 -1       790 1.29216E+05-2.35598E+02 1.46874E+03-2.30574E+02-3.91105E-09-7.38390E-09
 -1       791 1.29478E+05 2.72461E+02 8.49307E+02-1.84402E+02-4.67225E-09-4.60437E-09
 -1       792 1.29320E+05-3.56719E+01 3.61892E+02-2.17532E+02-2.14399E-09-1.18082E-09
 -1       793 1.29354E+05 3.84200E+01 1.84780E+02-2.08949E+02-9.36955E-10-4.64162E-09
 -1       794 1.29340E+05-1.70507E+00 5.67977E+01-2.06027E+02 3.86164E-09 7.61882E-09
 -1       795 1.29321E+05-1.97572E+01-3.35656E+01-2.32966E+02-4.21893E-09 1.92976E-08
 -1       796 1.29353E+05 2.24732E+01-1.20272E+02-1.93515E+02 3.22816E-09-2.66268E-08
 -1       797 1.29247E+05-1.69194E+02-3.41459E+02-2.61694E+02 4.73087E-09-1.68640E-08
 -1       798 1.29414E+05 1.47619E+02-5.57653E+02-1.77299E+02 1.87265E-09 4.77939E-09
 -1       799 1.28823E+05-1.08850E+03-1.53689E+03-3.01653E+02 4.85117E-09-8.11747E-09
 -1       800 1.29777E+05 9.41027E+02-2.17579E+03-1.53557E+02 1.91429E-10-7.26880E-09
 -1       801-1.06158E+05-8.78684E+06-1.18996E+06 1.12806E+06 8.48959E-08-4.93783E-08
 -1       802 5.51938E+05 4.05876E+06 1.70632E+06-1.36201E+06 2.32787E-07-2.75559E-08
 -1       803-4.26636E+05-1.21123E+07-1.52278E+06 7.18308E+05 7.09842E-08 1.78188E-08
 -1       804 2.14530E+05 1.12700E+06 1.20262E+06 5.82414E+05-1.05185E-07-8.46580E-08
 -1       805 1.64478E+05-5.87024E+06-2.32462E+05-8.11749E+05-4.35321E-08-5.53300E-08
 -1       806-2.97147E+05-5.73085E+04-2.19097E+04-1.17554E+05 1.47293E-09-1.61663E-08
 -1       807-2.98900E+05-5.37024E+04-1.07640E+04-1.22834E+05 3.06318E-08-1.23085E-08
 -1       808-2.97745E+05-4.94161E+04-4.56646E+03-1.21291E+05 5.55428E-09-1.37881E-08
 -1       809-2.96639E+05-5.06765E+04-2.23290E+03-1.23097E+05-6.81484E-09 1.90049E-08
 -1       810-2.97836E+05-4.91412E+04-1.02345E+03-1.21456E+05 3.97631E-09 7.89828E-09
 -1       811-2.96464E+05-5.05547E+04-5.08973E+02-1.23063E+05 9.65110E-09-4.09091E-09
 -1       812-2.97850E+05-4.91647E+04-2.57438E+02-1.21456E+05-2.22553E-09-4.98676E-09
 -1       813-2.96440E+05-5.05567E+04-1.67389E+02-1.23045E+05 1.39698E-09 6.05587E-09
 -1       814-2.97843E+05-4.91738E+04-1.65965E+02-1.21452E+05-2.50384E-09-1.19981E-08
 -1       815-2.96444E+05-5.05587E+04-2.67567E+02-1.23038E+05 1.73486E-09 4.38672E-09
 -1       816-2.97824E+05-4.91726E+04-5.07144E+02-1.21449E+05 3.27418E-09 2.04886E-08
 -1       817-2.96531E+05-5.06070E+04-1.08856E+03-1.23028E+05-1.13287E-08 2.70156E-08
 -1       818-2.97758E+05-4.93259E+04-2.22023E+03-1.21377E+05-1.92995E-09-1.29453E-08
 -1       819-2.97746E+05-5.19484E+04-5.22423E+03-1.22741E+05 9.86802E-10-2.11321E-08
 -1       820-2.97341E+05-5.32709E+04-1.06331E+04-1.19690E+05 1.53705E-10 4.80554E-09
 -1       821-3.67192E+05 2.02421E+04-4.69257E+04 1.51961E+03 1.04587E-08-4.30919E-09
 -1       822-3.87070E+05-2.34388E+04-3.31267E+04-2.95929E+03 2.91055E-09 1.11504E-08
 -1       823-3.74796E+05 3.18048E+03-1.21391E+04 2.21916E+03-8.33170E-09-7.43512E-10
 -1       824-3.78047E+05-3.67377E+03-7.62124E+03-3.30034E+03 1.27293E-09-3.21506E-09
 -1       825-3.76214E+05 4.94298E+02-3.16244E+03 1.86071E+03 1.52150E-08 1.41663E-08
 -1       826-3.76163E+05-5.69331E+02-1.80342E+03-1.72242E+03 1.76091E-08 1.70669E-08
 -1       827-3.76669E+05 7.01663E+01-1.05514E+03 6.41180E+02 9.15382E-09 6.82633E-10
 -1       828-3.75799E+05-1.59511E+02-7.47377E+02 9.22472E+02-2.59243E-09-3.08173E-09
 -1       829-3.76575E+05 8.15176E+01-1.05824E+03-7.84215E+02-3.23510E-10 9.77838E-09
 -1       830-3.76376E+05-6.07998E+02-1.91127E+03 3.20915E+03-7.70513E-11 7.48517E-09
 -1       831-3.76102E+05 5.26030E+02-3.25810E+03-1.64552E+03-3.77278E-09-3.09228E-11
 -1       832-3.78135E+05-3.82718E+03-7.92085E+03 3.90321E+03-7.48954E-10-2.98223E-09
 -1       833-3.74822E+05 3.30265E+03-1.26252E+04-1.47829E+03-1.66391E-09 2.82762E-09
 -1       834-3.87282E+05-2.43441E+04-3.43693E+04 2.60708E+03-3.08235E-09 6.05041E-09
 -1       835-3.66949E+05 2.10203E+04-4.87659E+04-3.49356E+02 5.45378E-09-2.85218E-09
 -1       836-1.34010E+03 3.54287E+05 2.18503E+04-1.61407E+04-5.69162E-09-1.16920E-08
 -1       837 4.67487E+03 3.61122E+05 1.85195E+04-3.28594E+04-5.92286E-09-6.60202E-09
 -1       838-5.26515E+02 3.56200E+05 1.89114E+04-1.60706E+04-4.85124E-09 1.99097E-08
 -1       839 1.19352E+04 3.66530E+05 3.58162E+04-3.29095E+04-5.13319E-09-6.96809E-09
 -1       840-3.67808E+03 3.48822E+05 5.71317E+04-1.60948E+04-4.69663E-09-2.52609E-09
 -1       856-5.71197E+04 7.98067E+03-2.10310E+04-3.99955E+02 2.66073E-09 7.70979E-09
 -1       857-6.57879E+04-9.37398E+03-1.44778E+04 5.48971E+03 4.76095E-09 3.67527E-09
 -1       858-6.05511E+04 1.11903E+03-5.45719E+03-4.23940E+02 6.82803E-10 1.06138E-09
 -1       859-6.18497E+04-1.31362E+03-3.29353E+03 5.52583E+03-2.54019E-10 7.44240E-09
 -1       860-6.10638E+04 1.56529E+02-1.38093E+03-4.35876E+02 1.53713E-09 1.62939E-08
 -1       861-6.12599E+04-1.84170E+02-7.60961E+02 5.54213E+03-2.52931E-09 8.58378E-10
 -1       862-6.11439E+04 2.11038E+01-3.18900E+02-4.40230E+02 4.11049E-12 9.27520E-09
 -1       863-6.11621E+04-1.96192E+01-1.22020E+02 5.54461E+03-8.21970E-10 1.94206E-10
 -1       864-6.11620E+04-4.29058E+00 3.37696E+01-4.38354E+02-2.16056E-09-9.20153E-10
 -1       865-6.11103E+04 5.55215E+01 2.24523E+02 5.53405E+03-4.39434E-09 4.36864E-09
 -1       866-6.11936E+04-5.41259E+01 4.59238E+02-4.29676E+02-4.42867E-10-1.16732E-08
 -1       867-6.08924E+04 4.47682E+02 1.13474E+03 5.51044E+03-5.93673E-10-9.25377E-09
 -1       868-6.13751E+04-3.89585E+02 1.88661E+03-4.14740E+02-8.54698E-10-7.09690E-09
 -1       869-5.95079E+04 3.24222E+03 5.02508E+03 5.47134E+03-1.50135E-09-1.37977E-08
 -1       870-6.25707E+04-2.77308E+03 7.29223E+03-3.90503E+02-4.40969E-09-7.24867E-10
 -1       871-5.37520E+03-1.95631E+04-1.87203E+04 1.24564E+05-3.08864E-09 3.36149E-09
 -1       872-2.00302E+03-2.38902E+04-7.82540E+03 1.61514E+05-8.57654E-09 1.48416E-08
 -1       873 3.13785E+02-2.18068E+04 6.00793E+02 1.24291E+05-4.64070E-09 6.43456E-09
 -1       874 3.09598E+03-1.94517E+04 9.47347E+03 1.61544E+05-1.00954E-08-4.90945E-09
 -1       875 6.54728E+03-2.40656E+04 2.13456E+04 1.24521E+05-3.72347E-09-4.33829E-10
 -1       876 2.83479E+05 4.79376E+04 1.45748E+04 1.13966E+05 3.13480E-09-5.55065E-09
 -1       877 2.84405E+05 5.10442E+04 7.78351E+03 1.18187E+05 6.43377E-09-9.31732E-09
 -1       878 2.84842E+05 4.63231E+04 3.26091E+03 1.15160E+05 2.02090E-09-1.02302E-08
 -1       879 2.82424E+05 4.90678E+04 1.62479E+03 1.18286E+05 1.46476E-08 2.29704E-10
 -1       880 2.84940E+05 4.63063E+04 7.56826E+02 1.15209E+05 4.06749E-09 1.23811E-09
 -1       881 2.82292E+05 4.89833E+04 4.04205E+02 1.18263E+05-2.86491E-09 1.74527E-08
 -1       882 2.84949E+05 4.63190E+04 2.58685E+02 1.15211E+05-1.34332E-09 2.66680E-09
 -1       883 2.82283E+05 4.89789E+04 2.78244E+02 1.18256E+05-3.55305E-09-9.62382E-09
 -1       884 2.84942E+05 4.63163E+04 4.42762E+02 1.15211E+05-2.25020E-09-6.27716E-09
 -1       885 2.82318E+05 4.89851E+04 8.90286E+02 1.18267E+05-9.25169E-09-4.22642E-09
 -1       886 2.84908E+05 4.62903E+04 1.79438E+03 1.15207E+05-4.32090E-09 5.10681E-10
 -1       887 2.82633E+05 4.91918E+04 3.91961E+03 1.18313E+05 9.20613E-09 2.93051E-09
 -1       888 2.84660E+05 4.63339E+04 7.89815E+03 1.15082E+05 3.34882E-09 1.91812E-09
 -1       889 2.87336E+05 5.40812E+04 1.88673E+04 1.18168E+05-1.54659E-09-7.90169E-09
 -1       890 2.81437E+05 5.01620E+04 3.53379E+04 1.12075E+05-2.30057E-09 1.85155E-08
 -1       891-9.97711E+01-1.57522E+05-1.92488E+03 2.67100E+04-6.71889E-10 2.21762E-08
 -1       892-1.89938E+02-1.58023E+05-2.06976E+03 4.05356E+04 2.23508E-09 6.71184E-09
 -1       893 2.84066E+01-1.57583E+05-2.93306E+03 2.67170E+04-2.79351E-09-1.21281E-09
 -1       894-1.48037E+03-1.59132E+05-6.07213E+03 4.03865E+04 2.85581E-10 2.20898E-08
 -1       895-1.17289E+03-1.56318E+05-1.06937E+04 2.68602E+04-5.75028E-10 1.56024E-08
 -1       956-3.63251E+05-5.22156E+03-1.29366E+04 2.90629E+04 4.18095E-09-1.20599E-08
 -1       957-3.65792E+05-1.82682E+03-6.64028E+03 3.49405E+04-4.06635E-09-3.56249E-09
 -1       958-3.64411E+05-2.13768E+02-2.99222E+03 2.89021E+04-3.09956E-09-4.22779E-09
 -1       959-3.64603E+05-1.10182E+02-1.52795E+03 3.51259E+04 9.13860E-09-1.46815E-08
 -1       960-3.64523E+05-2.61941E+01-7.45080E+02 2.88857E+04 3.20142E-10 4.10364E-09
 -1       961-3.64525E+05-4.07593E+01-3.95096E+02 3.51452E+04-2.89947E-09 1.91308E-08
 -1       962-3.64549E+05-2.79410E+01-2.26233E+02 2.88830E+04-3.20779E-09 2.08433E-09
 -1       963-3.64524E+05-3.70766E+01-1.81683E+02 3.51486E+04 4.12047E-09 4.62455E-09
 -1       964-3.64554E+05-2.48205E+01-2.20977E+02 2.88823E+04-1.92946E-09 6.06201E-09
 -1       965-3.64536E+05-3.41020E+01-3.82228E+02 3.51480E+04-6.53631E-09-1.19057E-08
 -1       966-3.64539E+05-1.69211E+01-7.18144E+02 2.88837E+04 2.22485E-09-2.42699E-09
 -1       967-3.64624E+05-9.46657E+01-1.47293E+03 3.51346E+04 4.45334E-09 1.99191E-08
 -1       968-3.64440E+05-1.91751E+02-2.88334E+03 2.88956E+04 2.09775E-09 6.52324E-09
 -1       969-3.65781E+05-1.74420E+03-6.40107E+03 3.49956E+04 1.56024E-09-1.72958E-08
 -1       970-3.63329E+05-5.01542E+03-1.24694E+04 2.90163E+04-1.95314E-09-4.30373E-09
 -1       971-3.33886E+05-1.67774E+03-9.08842E+03 1.49565E+04 5.70253E-09-1.09223E-08
 -1       972-3.36078E+05-1.22983E+03-4.94947E+03 2.07213E+04 3.46336E-09-9.31504E-09
 -1       973-3.34899E+05-5.21652E+01-2.21683E+03 1.48375E+04 7.95808E-10 8.64361E-09
 -1       974-3.35034E+05-6.75968E+01-1.14905E+03 2.08550E+04-1.00408E-09 7.45399E-09
 -1       975-3.34979E+05-8.55008E+00-5.74598E+02 1.48256E+04 4.01087E-10-2.18282E-08
 -1       976-3.34974E+05-1.90992E+01-3.31937E+02 2.08701E+04 4.56384E-09-4.23654E-09
 -1       977-3.34994E+05-7.96760E+00-2.41684E+02 1.48223E+04-7.45104E-10 3.44357E-09
 -1       978-3.34979E+05-1.31392E+01-2.83878E+02 2.08747E+04 4.78917E-09 3.42902E-09
 -1       979-3.34994E+05 1.64218E-01-4.57006E+02 1.48210E+04 2.89378E-09 8.50798E-09
 -1       980-3.35013E+05-1.02064E+01-8.82988E+02 2.08756E+04-2.70033E-09 1.85173E-09
 -1       981-3.34966E+05 2.22203E+01-1.71044E+03 1.48215E+04 2.20257E-09-7.36645E-09
 -1       982-3.35248E+05-1.36573E+02-3.53560E+03 2.08692E+04 4.66241E-09-6.53466E-09
 -1       983-3.34751E+05-8.72734E+01-6.86977E+03 1.48274E+04-7.18546E-09-2.34581E-09
 -1       984-3.38552E+05-3.72440E+03-1.53845E+04 2.07855E+04-1.62047E-08-1.53216E-09
 -1       985-3.31640E+05-5.11412E+03-2.82508E+04 1.48996E+04-7.27732E-09 4.27463E-10
 -3
    1PSTEP                        19          10           1          
  100CL  110 6.53320E-01         409                     0   10           1
 -4  DISP        4    1
 -5  D1          1    2    1    0
 -5  D2          1    2    2    0
 -5  D3          1    2    3    0
 -5  ALL         1    2    0    0    1ALL
 -1         1 2.38248E-03 0.00000E+00 0.00000E+00
 -1         2 1.43631E-03 4.78925E-27 0.00000E+00
 -1         3 3.28362E-04 5.08537E-28-1.32349E-23
 -1         5 1.71793E-04-5.87729E-27-3.10193E-24
 -1         8 2.36752E-03-4.76028E-07 0.00000E+00
 -1         9 2.34909E-03-9.02439E-05 0.00000E+00
 -1        10 2.97846E-04-3.47710E-06 1.32349E-23
 -1        12 1.73434E-04 7.89938E-07-4.13590E-25
 -1        15 2.34984E-03-5.15091E-07 2.06795E-25
 -1        16 2.38778E-03-9.16175E-05 0.00000E+00
 -1        17 2.03183E-04-7.85170E-06 0.00000E+00
 -1        18 1.76800E-04 3.15649E-05 0.00000E+00
 -1        19 1.78360E-04 1.57405E-06 0.00000E+00
 -1        20 1.78503E-04-7.55209E-06 0.00000E+00
 -1        21 1.77636E-04-2.05183E-05 0.00000E+00
 -1        24 3.00357E-05-1.18863E-05 0.00000E+00
 -1        25 1.86554E-04 3.17829E-05 0.00000E+00
 -1        26 1.87243E-04 2.18105E-06 0.00000E+00
 -1        27 1.85094E-04-1.10287E-05 0.00000E+00
 -1        28 1.84764E-04-2.11302E-05 0.00000E+00
 -1        32 0.00000E+00 0.00000E+00 0.00000E+00
 -1        33 1.95106E-04 2.91945E-06 0.00000E+00
 -1        34 1.93031E-04-1.10817E-05 0.00000E+00
 -1        35 1.91135E-04-2.14658E-05 0.00000E+00
 -1        51 2.38150E-03-9.33777E-08-6.61744E-24
 -1        52 2.37969E-03-1.70596E-07 0.00000E+00
 -1        53 2.37722E-03-2.45242E-07 0.00000E+00
 -1        54 2.37425E-03-3.19496E-07 0.00000E+00
 -1        55 2.37096E-03-3.95001E-07-1.65436E-24
 -1        56 2.37805E-03 1.20269E-06-5.29396E-23
 -1        57 2.37176E-03 6.90964E-06-5.29396E-23
 -1        58 2.36431E-03 1.56558E-05 1.05879E-22
 -1        59 2.35635E-03 2.56560E-05 0.00000E+00
 -1        60 2.34867E-03 3.49382E-05-1.05879E-22
 -1        61 2.34200E-03 4.15801E-05 5.29396E-23
 -1        62 2.33690E-03 4.40999E-05-1.05879E-22
 -1        63 2.33377E-03 4.13560E-05 5.29396E-23
 -1        64 2.33270E-03 3.30892E-05-1.05879E-22
 -1        65 2.33356E-03 1.95043E-05-5.29396E-23
 -1        66 2.33595E-03 1.70507E-06 1.05879E-22
 -1        67 2.33931E-03-1.88454E-05 5.29396E-23
 -1        68 2.34297E-03-4.02171E-05-1.05879E-22
 -1        69 2.34622E-03-6.04017E-05 0.00000E+00
 -1        70 2.34841E-03-7.76068E-05 0.00000E+00
 -1        86 1.49328E-03-3.30375E-06 5.29396E-23
 -1        87 1.66007E-03-1.85126E-05 0.00000E+00
 -1        88 1.88435E-03-4.41045E-05 0.00000E+00
 -1        89 2.11113E-03-7.02613E-05 1.32349E-23
 -1        90 2.28408E-03-8.64450E-05 2.64698E-23
 -1       121 3.27505E-04-5.63320E-07 0.00000E+00
 -1       122 3.24937E-04-1.12946E-06 0.00000E+00
 -1       123 3.20668E-04-1.70119E-06 1.32349E-23
 -1       124 3.14714E-04-2.28130E-06 6.61744E-24
 -1       125 3.07096E-04-2.87217E-06-1.32349E-23
 -1       191 1.71838E-04 1.31708E-07-6.20385E-25
 -1       192 1.71975E-04 2.63406E-07 1.24077E-24
 -1       193 1.72203E-04 3.95089E-07 1.86116E-24
 -1       194 1.72522E-04 5.26745E-07-1.55096E-24
 -1       195 1.72933E-04 6.58365E-07-3.10193E-24
 -1       251 2.36688E-03-7.14438E-06 0.00000E+00
 -1       252 2.36593E-03-3.29255E-05-6.61744E-24
 -1       253 2.36452E-03-7.33754E-05-1.32349E-23
 -1       254 2.36268E-03-1.23671E-04 0.00000E+00
 -1       255 2.36074E-03-1.76080E-04-1.32349E-23
 -1       256 2.35907E-03-2.22823E-04 0.00000E+00
 -1       257 2.35784E-03-2.57798E-04-2.64698E-23
 -1       258 2.35706E-03-2.75204E-04 6.61744E-24
 -1       259 2.35643E-03-2.74370E-04 0.00000E+00
 -1       260 2.35561E-03-2.55096E-04 1.32349E-23
 -1       261 2.35448E-03-2.22560E-04 0.00000E+00
 -1       262 2.35308E-03-1.82278E-04-1.32349E-23
 -1       263 2.35167E-03-1.42063E-04 0.00000E+00
 -1       264 2.35055E-03-1.09729E-04 0.00000E+00
 -1       265 2.34974E-03-9.07450E-05 0.00000E+00
 -1       266 2.36458E-03-4.89560E-07 0.00000E+00
 -1       267 2.36163E-03-4.95215E-07 0.00000E+00
 -1       268 2.35868E-03-5.01368E-07 0.00000E+00
 -1       269 2.35574E-03-5.06044E-07-2.06795E-25
 -1       270 2.35279E-03-5.10685E-07 2.06795E-25
 -1       271 2.36593E-03 1.58845E-06 0.00000E+00
 -1       272 2.36477E-03 2.42007E-06 0.00000E+00
 -1       273 2.36407E-03 2.03305E-06-2.64698E-23
 -1       274 2.36382E-03 4.43080E-07-1.32349E-23
 -1       275 2.36401E-03-2.31961E-06 0.00000E+00
 -1       276 2.36461E-03-6.21521E-06 0.00000E+00
 -1       277 2.36562E-03-1.11923E-05 2.64698E-23
 -1       278 2.36700E-03-1.71895E-05 1.32349E-23
 -1       279 2.36873E-03-2.41356E-05 0.00000E+00
 -1       280 2.37078E-03-3.19500E-05-1.32349E-23
 -1       281 2.37312E-03-4.05437E-05 2.64698E-23
 -1       282 2.37571E-03-4.98207E-05 1.32349E-23
 -1       283 2.37850E-03-5.96778E-05-2.64698E-23
 -1       284 2.38148E-03-7.00059E-05 0.00000E+00
 -1       285 2.38458E-03-8.06927E-05 0.00000E+00
 -1       301 2.35610E-03-9.04983E-05 6.61744E-24
 -1       302 2.36181E-03-9.07170E-05 3.30872E-24
 -1       303 2.36703E-03-9.09303E-05 0.00000E+00
 -1       304 2.37257E-03-9.11441E-05 0.00000E+00
 -1       305 2.37922E-03-9.13663E-05 0.00000E+00
 -1       306 2.38439E-03-2.30947E-04 0.00000E+00
 -1       307 2.44891E-03-6.17156E-04 0.00000E+00
 -1       308 2.50206E-03-1.18652E-03 1.05879E-22
 -1       309 2.53579E-03-1.85061E-03 0.00000E+00
 -1       310 2.57444E-03-2.49174E-03 0.00000E+00
 -1       311 2.63571E-03-2.99431E-03-5.29396E-23
 -1       312 2.69471E-03-3.28166E-03 0.00000E+00
 -1       313 2.69851E-03-3.31360E-03 0.00000E+00
 -1       314 2.58176E-03-3.09838E-03 0.00000E+00
 -1       315 2.30569E-03-2.69085E-03 0.00000E+00
 -1       316 1.88492E-03-2.16229E-03 0.00000E+00
 -1       317 1.37670E-03-1.58003E-03 0.00000E+00
 -1       318 8.83484E-04-1.00667E-03 0.00000E+00
 -1       319 5.03326E-04-5.07567E-04 5.29396E-23
 -1       320 2.77713E-04-1.52105E-04 0.00000E+00
 -1       336 2.86786E-04-4.14425E-06 0.00000E+00
 -1       337 2.73747E-04-4.83484E-06-6.61744E-24
 -1       338 2.58791E-04-5.55075E-06-1.32349E-23
 -1       339 2.41991E-04-6.29255E-06 0.00000E+00
 -1       340 2.23425E-04-7.06443E-06 0.00000E+00
 -1       406 1.74027E-04 9.21448E-07-1.44757E-24
 -1       407 1.74712E-04 1.05286E-06 1.34417E-24
 -1       408 1.75487E-04 1.18413E-06-6.20385E-25
 -1       409 1.76354E-04 1.31508E-06-7.49632E-25
 -1       410 1.77312E-04 1.44546E-06-2.48154E-24
 -1       521 2.42385E-03-2.41365E-04 0.00000E+00
 -1       522 2.48719E-03-6.46767E-04 0.00000E+00
 -1       523 2.53512E-03-1.24242E-03 1.05879E-22
 -1       524 2.56107E-03-1.93368E-03 5.29396E-23
 -1       525 2.59290E-03-2.60018E-03 0.00000E+00
 -1       526 2.65106E-03-3.12387E-03 0.00000E+00
 -1       527 2.70973E-03-3.42203E-03 2.11758E-22
 -1       528 2.71187E-03-3.45344E-03-1.05879E-22
 -1       529 2.58537E-03-3.22595E-03-2.11758E-22
 -1       530 2.28914E-03-2.80114E-03-5.29396E-23
 -1       531 1.83820E-03-2.25367E-03 0.00000E+00
 -1       532 1.29524E-03-1.65372E-03 5.29396E-23
 -1       533 7.67553E-04-1.06218E-03 0.00000E+00
 -1       534 3.57899E-04-5.42751E-04 0.00000E+00
 -1       535 1.13260E-04-1.68771E-04-1.05879E-22
 -1       536 2.02482E-04 2.55001E-05 6.61744E-24
 -1       537 2.00714E-04 8.33247E-05-3.30872E-24
 -1       538 1.97988E-04 1.56731E-04 3.30872E-24
 -1       539 1.94774E-04 2.36747E-04 0.00000E+00
 -1       540 1.91880E-04 3.12361E-04 0.00000E+00
 -1       541 1.89994E-04 3.72582E-04 1.65436E-24
 -1       542 1.89119E-04 4.10912E-04 0.00000E+00
 -1       543 1.88903E-04 4.20995E-04 1.65436E-24
 -1       544 1.88594E-04 4.03586E-04-3.30872E-24
 -1       545 1.87501E-04 3.59646E-04-1.65436E-24
 -1       546 1.85477E-04 2.96995E-04 0.00000E+00
 -1       547 1.82747E-04 2.23567E-04 1.65436E-24
 -1       548 1.80043E-04 1.50534E-04-3.30872E-24
 -1       549 1.78091E-04 8.90709E-05 1.65436E-24
 -1       550 1.77072E-04 4.68856E-05 0.00000E+00
 -1       551 1.79095E-04-8.39976E-06 0.00000E+00
 -1       552 1.51851E-04-9.02203E-06 0.00000E+00
 -1       553 1.22378E-04-9.70193E-06-6.61744E-24
 -1       554 9.16223E-05-1.04197E-05 3.30872E-24
 -1       555 6.05282E-05-1.11495E-05 0.00000E+00
 -1       556 1.95910E-04 1.07631E-05 0.00000E+00
 -1       557 1.90044E-04 2.58357E-05 0.00000E+00
 -1       558 1.85453E-04 3.76436E-05 0.00000E+00
 -1       559 1.82012E-04 4.64865E-05 0.00000E+00
 -1       560 1.79594E-04 5.26643E-05 0.00000E+00
 -1       561 1.78077E-04 5.64794E-05 0.00000E+00
 -1       562 1.77340E-04 5.82354E-05 0.00000E+00
 -1       563 1.77264E-04 5.82365E-05 1.32349E-23
 -1       564 1.77732E-04 5.67879E-05 0.00000E+00
 -1       565 1.78628E-04 5.41955E-05 0.00000E+00
 -1       566 1.79835E-04 5.07655E-05 0.00000E+00
 -1       567 1.81240E-04 4.68046E-05 0.00000E+00
 -1       568 1.82727E-04 4.26195E-05-8.27181E-25
 -1       569 1.84185E-04 3.85171E-05 0.00000E+00
 -1       570 1.85498E-04 3.48041E-05 0.00000E+00
 -1       571 1.76895E-04 2.96202E-05 0.00000E+00
 -1       572 1.76992E-04 2.76119E-05 0.00000E+00
 -1       573 1.77089E-04 2.55551E-05-3.30872E-24
 -1       574 1.77186E-04 2.34654E-05 0.00000E+00
 -1       575 1.77283E-04 2.13586E-05 0.00000E+00
 -1       576 1.77381E-04 1.92504E-05 0.00000E+00
 -1       577 1.77478E-04 1.71568E-05 3.30872E-24
 -1       578 1.77576E-04 1.50934E-05 0.00000E+00
 -1       579 1.77674E-04 1.30763E-05 0.00000E+00
 -1       580 1.77771E-04 1.11211E-05 0.00000E+00
 -1       581 1.77869E-04 9.24372E-06 0.00000E+00
 -1       582 1.77967E-04 7.46000E-06 0.00000E+00
 -1       583 1.78065E-04 5.78573E-06 0.00000E+00
 -1       584 1.78164E-04 4.23654E-06 0.00000E+00
 -1       585 1.78262E-04 2.82792E-06 0.00000E+00
 -1       586 1.78383E-04 3.16033E-05 0.00000E+00
 -1       587 1.79927E-04 3.16411E-05 0.00000E+00
 -1       588 1.81473E-04 3.16786E-05-8.27181E-25
 -1       589 1.83065E-04 3.17155E-05 0.00000E+00
 -1       590 1.84745E-04 3.17511E-05 0.00000E+00
 -1       591 1.77464E-04 2.97092E-05 0.00000E+00
 -1       592 1.78132E-04 2.78329E-05-2.06795E-25
 -1       593 1.78805E-04 2.59417E-05 0.00000E+00
 -1       594 1.79481E-04 2.40406E-05-4.13590E-25
 -1       595 1.80159E-04 2.21342E-05-8.27181E-25
 -1       596 1.80837E-04 2.02273E-05 0.00000E+00
 -1       597 1.81513E-04 1.83248E-05 8.27181E-25
 -1       598 1.82186E-04 1.64313E-05-4.13590E-25
 -1       599 1.82854E-04 1.45516E-05-8.27181E-25
 -1       600 1.83515E-04 1.26905E-05 4.13590E-25
 -1       601 1.84167E-04 1.08527E-05-8.27181E-25
 -1       602 1.84809E-04 9.04291E-06 0.00000E+00
 -1       603 1.85439E-04 7.26597E-06 8.27181E-25
 -1       604 1.86055E-04 5.52670E-06-1.80946E-25
 -1       605 1.86656E-04 3.82976E-06 0.00000E+00
 -1       606 1.78374E-04 5.47597E-07 0.00000E+00
 -1       607 1.78384E-04-3.91220E-07-1.65436E-24
 -1       608 1.78393E-04-1.24754E-06 0.00000E+00
 -1       609 1.78401E-04-2.02717E-06 0.00000E+00
 -1       610 1.78410E-04-2.73596E-06 0.00000E+00
 -1       611 1.78418E-04-3.37982E-06 0.00000E+00
 -1       612 1.78427E-04-3.96468E-06 0.00000E+00
 -1       613 1.78435E-04-4.49647E-06 0.00000E+00
 -1       614 1.78444E-04-4.98112E-06 1.65436E-24
 -1       615 1.78452E-04-5.42457E-06 8.27181E-25
 -1       616 1.78461E-04-5.83274E-06 0.00000E+00
 -1       617 1.78469E-04-6.21157E-06 4.13590E-25
 -1       618 1.78478E-04-6.56699E-06 8.27181E-25
 -1       619 1.78486E-04-6.90493E-06 0.00000E+00
 -1       620 1.78495E-04-7.23132E-06 0.00000E+00
 -1       621 1.79574E-04 1.67573E-06 1.65436E-24
 -1       622 1.80936E-04 1.77765E-06 8.27181E-25
 -1       623 1.82414E-04 1.87940E-06 3.30872E-24
 -1       624 1.83980E-04 1.98084E-06-8.27181E-25
 -1       625 1.85599E-04 2.08201E-06 3.30872E-24
 -1       626 1.78856E-04 5.83643E-07 0.00000E+00
 -1       627 1.79328E-04-3.40724E-07 0.00000E+00
 -1       628 1.79779E-04-1.20712E-06 6.61744E-24
 -1       629 1.80211E-04-2.02395E-06 0.00000E+00
 -1       630 1.80628E-04-2.79962E-06-3.30872E-24
 -1       631 1.81032E-04-3.54256E-06-1.65436E-24
 -1       632 1.81428E-04-4.26122E-06 0.00000E+00
 -1       633 1.81817E-04-4.96403E-06 1.65436E-24
 -1       634 1.82204E-04-5.65943E-06 0.00000E+00
 -1       635 1.82591E-04-6.35584E-06 1.65436E-24
 -1       636 1.82982E-04-7.06172E-06 0.00000E+00
 -1       637 1.83379E-04-7.78550E-06-1.65436E-24
 -1       638 1.83786E-04-8.53561E-06-1.65436E-24
 -1       639 1.84206E-04-9.32053E-06-8.27181E-25
 -1       640 1.84642E-04-1.01487E-05 0.00000E+00
 -1       656 1.79056E-04-8.11720E-06 6.61744E-24
 -1       657 1.80029E-04-8.70525E-06-6.61744E-24
 -1       658 1.81280E-04-9.29191E-06-1.32349E-23
 -1       659 1.82664E-04-9.87822E-06-6.61744E-24
 -1       660 1.83996E-04-1.04663E-05-6.61744E-24
 -1       661 1.78710E-04-7.91723E-06 8.27181E-25
 -1       662 1.78955E-04-8.37255E-06 8.27181E-25
 -1       663 1.79231E-04-8.91296E-06 1.65436E-24
 -1       664 1.79537E-04-9.53214E-06-8.27181E-25
 -1       665 1.79871E-04-1.02244E-05-1.65436E-24
 -1       666 1.80230E-04-1.09840E-05 0.00000E+00
 -1       667 1.80612E-04-1.18055E-05 1.65436E-24
 -1       668 1.81015E-04-1.26834E-05 0.00000E+00
 -1       669 1.81438E-04-1.36124E-05 0.00000E+00
 -1       670 1.81877E-04-1.45875E-05-8.27181E-25
 -1       671 1.82332E-04-1.56035E-05 1.65436E-24
 -1       672 1.82800E-04-1.66556E-05 8.27181E-25
 -1       673 1.83280E-04-1.77388E-05 1.65436E-24
 -1       674 1.83769E-04-1.88487E-05 0.00000E+00
 -1       675 1.84266E-04-1.99801E-05-4.13590E-25
 -1       676 1.78828E-04-2.06209E-05 3.30872E-24
 -1       677 1.80019E-04-2.07234E-05 1.65436E-24
 -1       678 1.81210E-04-2.08259E-05 3.30872E-24
 -1       679 1.82398E-04-2.09281E-05-1.65436E-24
 -1       680 1.83583E-04-2.10302E-05 1.65436E-24
 -1       771 1.86124E-05 1.35941E-05-5.29396E-23
 -1       772 8.99185E-06 3.45220E-05 0.00000E+00
 -1       773 1.08769E-06 5.11183E-05 0.00000E+00
 -1       774-5.21778E-06 6.36300E-05-2.64698E-23
 -1       775-1.00399E-05 7.23139E-05 5.29396E-23
 -1       776-1.34988E-05 7.74426E-05 0.00000E+00
 -1       777-1.57141E-05 7.92980E-05 0.00000E+00
 -1       778-1.68085E-05 7.81750E-05 0.00000E+00
 -1       779-1.69037E-05 7.43763E-05 0.00000E+00
 -1       780-1.61235E-05 6.82155E-05 0.00000E+00
 -1       781-1.45911E-05 6.00122E-05 0.00000E+00
 -1       782-1.24310E-05 5.00947E-05 2.64698E-23
 -1       783-9.76708E-06 3.87952E-05 5.29396E-23
 -1       784-6.72422E-06 2.64518E-05 0.00000E+00
 -1       785-3.42660E-06 1.34057E-05 0.00000E+00
 -1       786 1.86593E-04 2.97075E-05 0.00000E+00
 -1       787 1.86635E-04 2.76817E-05 4.13590E-25
 -1       788 1.86677E-04 2.56973E-05-8.27181E-25
 -1       789 1.86721E-04 2.37461E-05-8.27181E-25
 -1       790 1.86764E-04 2.18235E-05 1.65436E-24
 -1       791 1.86807E-04 1.99246E-05-8.27181E-25
 -1       792 1.86850E-04 1.80474E-05 1.65436E-24
 -1       793 1.86894E-04 1.61897E-05 8.27181E-25
 -1       794 1.86937E-04 1.43512E-05 1.65436E-24
 -1       795 1.86980E-04 1.25318E-05 0.00000E+00
 -1       796 1.87024E-04 1.07334E-05 0.00000E+00
 -1       797 1.87068E-04 8.95776E-06 8.27181E-25
 -1       798 1.87111E-04 7.20915E-06-1.65436E-24
 -1       799 1.87155E-04 5.49185E-06-8.27181E-25
 -1       800 1.87199E-04 3.81329E-06 0.00000E+00
 -1       801 1.43191E-04 2.85234E-05 0.00000E+00
 -1       802 1.19706E-05 1.78812E-05 2.64698E-23
 -1       803-1.00524E-04 9.08648E-06 5.29396E-23
 -1       804-8.98205E-05 6.30128E-06 0.00000E+00
 -1       805-2.97544E-05 2.52030E-06-5.29396E-23
 -1       806 1.87220E-04 2.96403E-05 1.65436E-24
 -1       807 1.87871E-04 2.75238E-05 0.00000E+00
 -1       808 1.88511E-04 2.54386E-05 3.30872E-24
 -1       809 1.89137E-04 2.33885E-05 0.00000E+00
 -1       810 1.89748E-04 2.13774E-05-3.30872E-24
 -1       811 1.90343E-04 1.94092E-05 0.00000E+00
 -1       812 1.90920E-04 1.74877E-05 0.00000E+00
 -1       813 1.91479E-04 1.56167E-05 0.00000E+00
 -1       814 1.92018E-04 1.38000E-05 3.30872E-24
 -1       815 1.92535E-04 1.20413E-05 8.27181E-25
 -1       816 1.93029E-04 1.03445E-05 1.65436E-24
 -1       817 1.93498E-04 8.71332E-06 1.65436E-24
 -1       818 1.93941E-04 7.15146E-06 1.65436E-24
 -1       819 1.94358E-04 5.66274E-06-8.27181E-25
 -1       820 1.94746E-04 4.25084E-06-3.30872E-24
 -1       821 1.87116E-04 1.30024E-07 0.00000E+00
 -1       822 1.86980E-04-2.80034E-06-1.65436E-24
 -1       823 1.86842E-04-6.26533E-06-3.30872E-24
 -1       824 1.86703E-04-9.91691E-06 0.00000E+00
 -1       825 1.86564E-04-1.33574E-05-3.30872E-24
 -1       826 1.86426E-04-1.61903E-05 1.65436E-24
 -1       827 1.86291E-04-1.81824E-05 3.30872E-24
 -1       828 1.86156E-04-1.91056E-05 0.00000E+00
 -1       829 1.86023E-04-1.90190E-05-3.30872E-24
 -1       830 1.85889E-04-1.79875E-05 1.65436E-24
 -1       831 1.85754E-04-1.63301E-05 0.00000E+00
 -1       832 1.85619E-04-1.43696E-05-1.65436E-24
 -1       833 1.85484E-04-1.25102E-05 0.00000E+00
 -1       834 1.85351E-04-1.11554E-05 0.00000E+00
 -1       835 1.85219E-04-1.05736E-05 8.27181E-25
 -1       836 1.88762E-04 2.30354E-06-3.30872E-24
 -1       837 1.90155E-04 2.42908E-06 1.65436E-24
 -1       838 1.91455E-04 2.55455E-06 0.00000E+00
 -1       839 1.92692E-04 2.67932E-06-8.27181E-25
 -1       840 1.93899E-04 2.80392E-06 0.00000E+00
 -1       856 1.85077E-04-1.19318E-05 8.27181E-25
 -1       857 1.85057E-04-1.27008E-05 0.00000E+00
 -1       858 1.85037E-04-1.33564E-05 0.00000E+00
 -1       859 1.85016E-04-1.39195E-05-2.06795E-25
 -1       860 1.84996E-04-1.44112E-05-4.13590E-25
 -1       861 1.84975E-04-1.48526E-05 0.00000E+00
 -1       862 1.84954E-04-1.52645E-05 0.00000E+00
 -1       863 1.84934E-04-1.56683E-05 4.13590E-25
 -1       864 1.84913E-04-1.60850E-05-8.27181E-25
 -1       865 1.84892E-04-1.65357E-05 0.00000E+00
 -1       866 1.84871E-04-1.70414E-05 8.27181E-25
 -1       867 1.84851E-04-1.76233E-05 0.00000E+00
 -1       868 1.84830E-04-1.83023E-05-8.27181E-25
 -1       869 1.84808E-04-1.90992E-05 4.13590E-25
 -1       870 1.84787E-04-2.00350E-05-8.27181E-25
 -1       871 1.86279E-04-1.10332E-05 0.00000E+00
 -1       872 1.87608E-04-1.10410E-05 0.00000E+00
 -1       873 1.89014E-04-1.10495E-05 0.00000E+00
 -1       874 1.90431E-04-1.10587E-05-3.61892E-25
 -1       875 1.91792E-04-1.10685E-05 8.27181E-25
 -1       876 1.85558E-04-1.19176E-05 0.00000E+00
 -1       877 1.85999E-04-1.27403E-05 0.00000E+00
 -1       878 1.86419E-04-1.35047E-05 0.00000E+00
 -1       879 1.86821E-04-1.42182E-05-1.65436E-24
 -1       880 1.87206E-04-1.48881E-05 3.30872E-24
 -1       881 1.87577E-04-1.55216E-05 1.65436E-24
 -1       882 1.87938E-04-1.61262E-05 0.00000E+00
 -1       883 1.88291E-04-1.67090E-05 0.00000E+00
 -1       884 1.88638E-04-1.72774E-05 0.00000E+00
 -1       885 1.88983E-04-1.78386E-05 0.00000E+00
 -1       886 1.89327E-04-1.83999E-05 0.00000E+00
 -1       887 1.89674E-04-1.89686E-05-1.65436E-24
 -1       888 1.90027E-04-1.95520E-05 0.00000E+00
 -1       889 1.90387E-04-2.01576E-05 0.00000E+00
 -1       890 1.90757E-04-2.07924E-05 0.00000E+00
 -1       891 1.85967E-04-2.11866E-05 1.65436E-24
 -1       892 1.87146E-04-2.12431E-05 8.27181E-25
 -1       893 1.88277E-04-2.12995E-05 8.27181E-25
 -1       894 1.89336E-04-2.13557E-05 4.13590E-25
 -1       895 1.90296E-04-2.14117E-05 4.13590E-25
 -1       956 1.94978E-04 1.75853E-06-1.65436E-24
 -1       957 1.94849E-04 6.86957E-07 8.27181E-25
 -1       958 1.94719E-04-3.05712E-07 0.00000E+00
 -1       959 1.94589E-04-1.23052E-06 0.00000E+00
 -1       960 1.94459E-04-2.09855E-06 0.00000E+00
 -1       961 1.94329E-04-2.92091E-06 0.00000E+00
 -1       962 1.94198E-04-3.70872E-06 0.00000E+00
 -1       963 1.94068E-04-4.47314E-06-1.65436E-24
 -1       964 1.93938E-04-5.22529E-06 0.00000E+00
 -1       965 1.93808E-04-5.97632E-06 0.00000E+00
 -1       966 1.93678E-04-6.73737E-06 3.30872E-24
 -1       967 1.93548E-04-7.51958E-06 0.00000E+00
 -1       968 1.93418E-04-8.33408E-06-3.30872E-24
 -1       969 1.93289E-04-9.19196E-06 1.65436E-24
 -1       970 1.93159E-04-1.01043E-05 0.00000E+00
 -1       971 1.92914E-04-1.20578E-05 0.00000E+00
 -1       972 1.92795E-04-1.29405E-05-1.65436E-24
 -1       973 1.92676E-04-1.37402E-05 0.00000E+00
 -1       974 1.92557E-04-1.44676E-05 0.00000E+00
 -1       975 1.92437E-04-1.51334E-05 3.30872E-24
 -1       976 1.92318E-04-1.57483E-05-1.65436E-24
 -1       977 1.92199E-04-1.63230E-05 0.00000E+00
 -1       978 1.92080E-04-1.68684E-05-1.65436E-24
 -1       979 1.91961E-04-1.73952E-05 0.00000E+00
 -1       980 1.91842E-04-1.79142E-05 0.00000E+00
 -1       981 1.91722E-04-1.84361E-05 0.00000E+00
 -1       982 1.91603E-04-1.89717E-05 1.65436E-24
 -1       983 1.91485E-04-1.95317E-05-3.30872E-24
 -1       984 1.91366E-04-2.01270E-05 0.00000E+00
 -1       985 1.91248E-04-2.07682E-05 0.00000E+00
 -3
    1PSTEP                        20          10           1          
  100CL  110 6.53320E-01         409                     0   10           1
 -4  STRESS      6    1
 -5  SXX         1    4    1    1
 -5  SYY         1    4    2    2
 -5  SZZ         1    4    3    3
 -5  SXY         1    4    1    2
 -5  SYZ         1    4    2    3
 -5  SZX         1    4    3    1
 -1         1-4.75554E+06-1.68005E+06-1.03578E+06-1.59452E+06 1.26602E-09 1.89670E-07
 -1         2 6.12869E+05 8.39907E+06 2.31379E+06 2.77135E+06 2.13913E-08-9.15461E-08
 -1         3-1.35472E+03-1.60055E+06 4.07555E+02-2.16784E+03-3.44283E-10-2.95004E-08
 -1         5-5.96957E+01 3.77100E+05 9.68964E+00-1.14002E+00-4.62352E-10 6.84304E-09
 -1         8-7.90490E+05-2.55855E+05-9.89800E+04-3.33073E+05-1.28239E-10-1.01521E-07
 -1         9 9.58179E+06 1.32212E+06 1.96284E+06-7.20335E+05 6.28643E-10 1.61026E-07
 -1        10-2.21340E+03-1.66789E+06-3.92479E+03-1.46564E+04-1.33896E-08-3.62422E-08
 -1        12-5.58535E+01 3.77120E+05 3.17618E+02-7.84737E+00-7.51704E-10 3.13958E-09
 -1        15 1.16351E+03 6.39408E+02 3.76101E+03 1.48252E+00 1.94305E-10 1.67330E-07
 -1        16 1.99742E+07-2.08455E+05 2.77120E+06-1.73640E+06 3.88051E-10 2.07995E-08
 -1        17 7.26153E+06 5.29492E+06 1.95670E+06 5.13547E+06 2.18482E-08 2.86149E-08
 -1        18 1.26463E+05 2.92045E+04 1.00877E+03-1.15611E+05 1.52775E-08-1.71494E-08
 -1        19 1.20263E+05 1.38660E+05-8.75526E+02 2.19079E+04-7.09406E-11-7.48914E-09
 -1        20-7.81275E+04-5.60097E+05-1.25549E+05 2.56164E+04-1.21387E-09-7.15469E-11
 -1        21-4.52870E+01-2.91706E+05-9.12560E+02 2.38527E+02 1.42719E-08 2.44273E-09
 -1        24 1.19807E+07 1.02238E+07 3.34844E+06 9.49722E+06-1.59741E-07-4.34035E-08
 -1        25 9.73408E+04 1.65903E+05 7.40498E+04-5.85735E+05 7.78527E-10 6.10598E-09
 -1        26-5.39307E+04 9.01746E+04-2.41519E+04 7.38797E+02-3.92902E-11 1.12376E-09
 -1        27-7.46011E+04-3.02894E+05-1.11093E+05 6.77817E+04 4.81123E-09 2.22432E-09
 -1        28 2.19750E+04-8.38852E+04 1.66428E+04 2.06583E+04-3.31102E-09 5.73923E-09
 -1        32-1.65372E+06-3.08010E+06-1.84627E+05 3.50106E+05-4.01051E-08-1.15091E-08
 -1        33-1.74992E+05 9.09234E+04 3.17061E+04-3.79456E+04-2.61521E-09 1.64764E-08
 -1        34-2.19426E+05-2.44393E+04 6.66350E+02 7.38597E+04-4.43842E-09-1.32918E-08
 -1        35-2.26345E+04-3.32519E+04-1.32431E+03 5.07498E+04-4.19988E-09 9.67460E-09
 -1        51 5.34962E+04-1.97562E+05 1.14641E+05-5.77729E+05-1.01863E-10 6.40866E-08
 -1        52 1.89140E+04-1.78600E+05 6.13087E+04-6.73657E+05 3.20142E-10-3.46336E-09
 -1        53 4.83276E+03-1.94010E+05 3.37915E+04-5.75668E+05 2.58296E-10 2.37924E-09
 -1        54 1.02104E+04-1.90123E+05 3.15148E+04-6.75751E+05 3.34694E-10-2.46640E-07
 -1        55 2.17238E+04-1.98889E+05 4.27241E+04-5.75440E+05 1.45519E-10-6.52290E-09
 -1        56-8.84163E+06-1.03603E+06-7.69615E+05-3.50178E+06-1.16852E-08 1.43133E-07
 -1        57-9.48408E+06-1.37811E+06-5.15711E+05-3.07583E+06 3.95448E-09 9.26084E-08
 -1        58-8.93422E+06-1.33168E+06-1.79809E+05-3.51373E+06-7.19592E-09 4.81814E-08
 -1        59-9.35774E+06-1.04758E+06-1.06740E+05-3.08828E+06-1.12923E-08-2.78520E-07
 -1        60-8.96954E+06-1.35532E+06-4.25595E+04-3.49501E+06-7.13680E-09-1.44559E-07
 -1        61-9.23518E+06-1.08852E+06-2.10998E+04-3.17665E+06-5.71163E-09 6.30498E-08
 -1        62-9.04731E+06-1.29566E+06-1.53449E+04-3.41897E+06 2.84963E-08-1.36897E-08
 -1        63-9.06074E+06-1.24206E+06-5.05185E+03-3.35133E+06-2.29611E-08-1.88909E-07
 -1        64-9.13662E+06-1.20667E+06-1.46108E+04-3.31520E+06-2.05800E-08-2.39506E-08
 -1        65-8.92125E+06-1.40070E+06-1.86613E+04-3.54083E+06-2.14786E-08-1.25925E-07
 -1        66-9.19371E+06-1.13244E+06-3.81969E+04-3.23454E+06 3.09319E-08 2.94531E-08
 -1        67-8.88224E+06-1.51447E+06-9.50905E+04-3.63893E+06-3.44226E-08-3.12502E-09
 -1        68-9.18545E+06-1.08750E+06-1.60268E+05-3.22342E+06-4.45652E-10-9.10077E-08
 -1        69-9.06196E+06-1.74166E+06-4.59570E+05-3.54910E+06-6.36646E-09-3.19596E-07
 -1        70-9.01234E+06-9.15593E+05-6.86553E+05-3.31939E+06-1.51922E-08-2.16241E-08
 -1        86-6.22417E+05-8.75316E+06-1.26195E+06-1.32805E+06-1.84897E-07-1.18380E-08
 -1        87 8.96450E+05 1.44207E+06 1.04824E+06 2.93263E+06-3.14147E-07-1.16158E-07
 -1        88-1.27295E+05-2.59930E+06 8.38282E+04-1.57608E+06-2.71366E-07-1.80307E-09
 -1        89 1.21465E+06 1.31002E+06 1.05066E+06 3.00804E+06-3.94872E-07-3.17790E-07
 -1        90-9.07335E+05-8.65163E+06-1.38940E+06-1.41007E+06-9.28994E-08-3.73257E-08
 -1       121-1.86101E+03-1.60504E+06-4.54698E+02 1.07552E+03 1.54726E-09 2.01544E-09
 -1       122-1.17013E+03-1.60060E+06 7.85288E+02-4.33705E+03-5.20963E-09-1.13578E-08
 -1       123-1.88748E+03-1.60517E+06 3.82772E+02 3.21159E+03 4.21392E-09-5.20595E-09
 -1       124 4.93399E+02-1.60010E+06 3.04666E+03-9.06148E+03-9.63246E-09 2.23026E-08
 -1       125-2.73081E+03-1.60609E+06 3.70636E+03 5.76060E+03 6.65750E-09-6.23550E-09
 -1       191-6.29675E+01 3.77120E+05 8.91532E+00 5.90396E-01-4.88061E-10 2.67155E-08
 -1       192-6.06217E+01 3.77100E+05 2.06447E+01-3.73082E+00-7.16240E-10 2.64808E-08
 -1       193-6.54098E+01 3.77120E+05 3.57998E+01 3.26570E+00-1.00835E-09 3.13885E-08
 -1       194-6.35924E+01 3.77104E+05 7.84022E+01-8.49235E+00-4.74500E-10-9.44419E-09
 -1       195-7.00984E+01 3.77118E+05 1.50754E+02 5.49205E+00-1.41672E-09-1.01500E-09
 -1       251-1.92505E+06 2.15149E+04-1.47909E+05 5.15074E+04-2.46291E-09-9.41800E-08
 -1       252-1.58363E+06-2.53266E+04-2.99275E+04-1.84935E+05-5.50199E-09 9.84355E-08
 -1       253-1.80311E+06-1.60305E+03-3.63584E+04 1.62018E+05 1.32777E-08 1.67203E-07
 -1       254-1.75348E+06 1.66049E+04-8.10019E+03-3.09330E+05-1.27028E-09-1.87003E-07
 -1       255-1.77281E+06-4.44034E+03-8.11903E+03 1.76792E+05-1.52850E-08 2.79806E-09
 -1       256-1.63212E+06 1.82972E+04 2.65320E+04-2.38651E+05-4.53438E-08 1.28459E-07
 -1       257-1.91367E+06-1.38115E+04-3.31228E+04 9.06789E+04-9.14042E-09 1.28014E-07
 -1       258-1.45759E+06 1.25876E+04 6.14934E+04-1.03006E+04-2.02040E-08-7.76090E-08
 -1       259-1.93096E+06-1.33581E+04-3.46103E+04-5.14538E+04 2.06328E-08 4.38683E-08
 -1       260-1.59285E+06 1.43090E+04 3.81424E+04 2.32090E+05-1.65983E-08-1.64638E-07
 -1       261-1.79109E+06-3.18559E+03-1.25022E+03-1.51036E+05-1.64482E-09 5.63102E-08
 -1       262-1.74445E+06 2.14541E+04 1.57745E+04 3.30650E+05 1.20186E-08 7.30911E-08
 -1       263-1.79391E+06-7.03920E+03 6.85926E+03-1.50522E+05 1.45596E-08 1.07880E-07
 -1       264-1.57634E+06 4.63689E+04 7.15243E+04 2.30798E+05-6.62112E-08-6.41339E-08
 -1       265-1.94458E+06-4.18051E+04 7.02091E+03-5.06779E+04-2.42435E-08 8.01447E-09
 -1       266-2.10634E+04-9.84973E+03 4.94186E+04-3.17202E+01-1.23691E-10 6.66169E-08
 -1       267 2.44182E+04 1.14794E+04 3.49295E+04 3.66001E+01 6.77574E-11 1.59829E-07
 -1       268-3.27444E+03-1.62583E+03 1.29831E+04-4.66342E+00-2.20552E-10-2.04164E-07
 -1       269 3.86615E+03 1.94573E+03 8.43884E+03 5.43227E+00 4.04725E-11-6.79474E-08
 -1       270-5.80312E+02-3.19700E+02 4.07355E+03-7.37193E-01-2.87628E-11 1.01297E-07
 -1       271-1.83306E+06-2.25464E+05-1.35237E+05-7.06474E+05-9.88985E-09 1.04912E-07
 -1       272-1.88842E+06-3.15295E+05-8.66884E+04-6.95499E+05-9.59290E-09 1.22234E-07
 -1       273-1.85960E+06-2.57951E+05-3.21266E+04-6.99140E+05-2.19188E-09 6.85759E-08
 -1       274-1.85626E+06-2.76535E+05-1.77342E+04-7.07457E+05-1.82117E-08 9.33883E-08
 -1       275-1.86472E+06-2.59820E+05-7.63834E+03-6.96248E+05-4.04725E-09 1.54880E-07
 -1       276-1.84906E+06-2.75581E+05-3.79369E+03-7.13026E+05 8.98672E-09 1.64682E-08
 -1       277-1.86706E+06-2.58256E+05-2.05491E+03-6.93976E+05 8.71114E-09-8.56044E-08
 -1       278-1.84545E+06-2.78592E+05-1.13486E+03-7.17580E+05 1.49303E-08 4.73274E-08
 -1       279-1.86878E+06-2.56486E+05-1.28954E+03-6.92029E+05 2.34650E-09 2.27652E-07
 -1       280-1.84298E+06-2.81757E+05-1.87488E+03-7.21438E+05-2.65163E-08 1.81419E-07
 -1       281-1.87002E+06-2.54796E+05-3.53432E+03-6.90460E+05 1.27193E-08 1.38501E-07
 -1       282-1.84256E+06-2.86339E+05-8.16982E+03-7.24239E+05-1.66492E-08 1.35021E-07
 -1       283-1.86970E+06-2.51817E+05-1.46147E+04-6.89479E+05-7.54608E-09-1.62564E-07
 -1       284-1.85391E+06-3.07787E+05-3.97120E+04-7.23418E+05-1.03319E-09 3.95435E-08
 -1       285-1.85933E+06-2.35114E+05-6.17299E+04-6.90820E+05 4.00723E-09 1.02085E-07
 -1       301 8.34249E+03-5.57906E+05 1.70848E+05-9.73016E+05-1.40426E-09 2.93076E-08
 -1       302 9.35619E+03-5.13633E+05 1.03410E+05-1.42190E+06-1.18816E-08 4.39468E-09
 -1       303-9.98335E+03-5.45735E+05 6.11079E+04-9.70539E+05-3.36149E-09 4.97093E-08
 -1       304-5.21533E+03-5.17711E+05 6.61672E+04-1.42110E+06-7.50879E-09 2.64874E-07
 -1       305-9.80358E+03-5.39326E+05 8.74484E+04-9.73478E+05 1.18471E-08 5.30563E-08
 -1       306-2.77930E+07-5.67688E+06-7.78110E+06-9.85689E+05-3.84171E-08-1.06083E-07
 -1       307 2.31479E+07 2.30413E+06 5.00434E+06-1.34384E+07-7.39921E-07-3.93571E-07
 -1       308-7.55217E+06-8.14325E+05-5.30378E+05 4.73316E+06-5.67525E-08 2.04949E-07
 -1       309-3.47063E+06 7.02433E+06 1.93559E+06-1.91955E+07 3.44531E-07 2.68297E-07
 -1       310-1.14660E+07-1.43059E+06-1.59374E+06 4.63762E+06-1.06113E-07-9.22300E-08
 -1       311 3.22337E+07-1.48941E+05 6.28482E+06-8.77193E+06 7.33184E-07 1.16270E-07
 -1       312-2.89946E+07-5.88921E+06-7.47485E+06-4.20181E+06-9.93023E-08 3.32337E-07
 -1       313 4.10709E+07 1.18598E+07 9.50467E+06 1.99973E+07-3.21219E-07 1.47847E-08
 -1       314-1.69370E+07-1.53041E+07-6.75411E+06-1.15517E+07 3.11818E-07-1.65135E-07
 -1       315-1.10985E+06 2.57987E+07 5.15075E+06 1.06086E+07-5.94446E-07-2.43890E-08
 -1       316 6.41027E+05-9.34475E+06-4.94572E+05-3.23181E+06-1.02070E-06-1.86497E-07
 -1       317-1.70880E+07 2.05127E+07 1.90022E+06-6.75223E+06 9.59641E-07-6.66540E-07
 -1       318-1.20429E+06-1.12237E+07-1.63858E+06-4.39687E+06-9.15839E-07 9.25502E-08
 -1       319 5.54018E+06 2.72880E+07 6.05466E+06 1.45030E+07-1.52475E-07 2.02650E-07
 -1       320-2.07436E+07-1.54665E+07-8.69104E+06-1.15676E+07 1.64961E-07-8.01519E-08
 -1       336-4.96744E+02-1.73752E+06-1.38105E+04 8.74957E+03-2.54749E-08 2.07365E-08
 -1       337-5.33473E+03-1.73758E+06-1.79841E+04-2.11958E+04-4.65768E-08 3.50337E-09
 -1       338 4.41852E+02-1.73704E+06-2.80309E+04 1.22289E+04-3.25954E-08 6.80666E-09
 -1       339-2.97537E+04-1.75443E+06-6.34404E+04-2.79949E+04-5.88507E-08-1.85810E-08
 -1       340 1.97602E+04-1.72270E+06-9.97906E+04 1.54280E+04-3.91883E-08 5.14738E-08
 -1       406-3.41916E+01 3.77104E+05 6.24321E+02 2.75234E+00-1.78870E-09 6.85577E-09
 -1       407 1.63087E+02 3.77230E+05 1.33274E+03 2.11956E+01-4.72554E-10 7.05131E-09
 -1       408 6.28377E+02 3.77007E+05 2.65824E+03-2.43285E+01-2.20280E-09-4.36557E-09
 -1       409 2.82648E+03 3.78079E+05 5.98999E+03 2.57500E+02-3.01611E-10-8.94306E-09
 -1       410 8.22085E+03 3.76243E+05 1.22259E+04-2.47720E+02-2.66118E-09-7.24140E-09
 -1       521-2.93244E+07-6.96755E+06-9.07276E+06-6.56525E+05-8.28877E-08 1.00932E-07
 -1       522 2.38996E+07 3.03582E+06 5.08296E+06-1.66181E+07-5.79981E-07-4.06493E-07
 -1       523-8.25999E+06-1.09743E+06-5.38701E+05 5.17219E+06 1.51165E-07-5.99481E-07
 -1       524-6.68915E+06 9.61732E+06 2.09284E+06-2.21457E+07 8.20815E-07-6.87709E-07
 -1       525-1.23776E+07-1.94839E+06-1.75002E+06 5.06773E+06 4.21889E-07-1.57946E-07
 -1       526 3.49789E+07-2.03906E+05 6.59877E+06-1.12726E+07 9.63919E-08 8.53324E-08
 -1       527-3.07591E+07-7.38054E+06-8.59302E+06-4.08810E+06 5.71599E-08-1.48764E-07
 -1       528 4.48319E+07 1.30441E+07 9.90804E+06 2.26357E+07 5.28526E-08 1.22032E-07
 -1       529-1.79312E+07-1.72854E+07-7.73091E+06-1.16973E+07-2.54833E-07-1.29279E-07
 -1       530-3.41799E+06 3.00065E+07 5.44244E+06 1.04611E+07-3.65049E-07 5.55825E-07
 -1       531 5.80951E+05-1.04601E+07-4.88037E+05-3.33400E+06-8.10265E-07 3.17727E-07
 -1       532-1.99345E+07 2.26898E+07 2.07927E+06-1.03714E+07 3.65937E-07-6.06837E-07
 -1       533-1.27392E+06-1.23644E+07-1.73158E+06-4.39329E+06-1.49128E-07-9.33302E-07
 -1       534 3.56835E+06 3.16559E+07 6.29881E+06 1.50172E+07-7.50588E-08 6.81379E-07
 -1       535-2.18834E+07-1.75903E+07-9.92564E+06-1.17119E+07 1.08615E-07 4.13798E-07
 -1       536-6.81316E+05-4.59639E+04-3.73416E+04-5.12595E+04 1.17279E-09 6.34482E-08
 -1       537-7.90905E+04 4.44933E+04 8.21307E+04 1.17308E+05-9.63627E-08 9.94169E-08
 -1       538-3.93360E+05 2.64274E+03 5.07823E+03-6.89020E+04 2.62803E-08 1.20740E-07
 -1       539-2.77966E+05 2.99573E+03 2.39346E+04 1.32007E+05 1.63541E-07 9.98900E-08
 -1       540-4.87397E+05-3.47532E+02-1.90508E+04-6.64294E+04 5.97265E-09 1.04842E-07
 -1       541 1.04610E+05 1.56233E+04 9.81004E+04 9.23181E+04-1.10963E-08 8.84025E-08
 -1       542-7.65636E+05-1.85746E+04-7.74705E+04-2.84445E+04 4.94033E-08 4.77321E-08
 -1       543 3.42776E+05 2.51832E+04 1.45396E+05-1.28008E+04-1.40153E-09-3.32375E-08
 -1       544-7.19184E+05-1.51895E+04-6.88255E+04 3.80991E+04-2.24386E-08-4.04229E-08
 -1       545-4.49019E+03 8.59527E+03 7.31272E+04-1.07659E+05-1.23816E-08-1.08335E-07
 -1       546-4.27681E+05 5.72737E+03-1.13344E+04 6.61114E+04 3.28580E-08-1.00580E-07
 -1       547-2.94993E+05-4.68144E+03 9.08383E+03-1.34786E+05-1.12843E-07-8.99499E-08
 -1       548-4.36476E+05 4.59872E+03-2.28672E+04 6.58336E+04-1.06738E-07-9.96706E-08
 -1       549 1.40752E+04 1.30923E+04 5.34497E+04-1.05364E+05-6.94818E-08-7.40849E-08
 -1       550-7.28475E+05-1.89544E+04-1.22156E+05 3.60583E+04 4.95129E-09-3.07773E-08
 -1       551 3.89750E+04-7.63961E+05-1.05883E+04-1.22808E+06-9.89239E-08-1.74914E-08
 -1       552 8.86672E+04-8.05611E+05 1.29557E+04-1.75125E+06-7.15227E-08 3.77768E-08
 -1       553 6.78705E+04-8.03046E+05 3.41253E+04-1.22172E+06-1.11118E-07 3.72238E-08
 -1       554 1.26281E+05-8.19535E+05 8.35863E+04-1.75320E+06-7.11152E-08 1.17070E-08
 -1       555 9.75663E+04-8.26191E+05 1.51912E+05-1.22166E+06-1.20592E-07-1.00772E-08
 -1       556 2.12636E+05-3.66982E+05 3.32470E+04-3.95568E+05-2.24682E-08-2.31084E-08
 -1       557 3.39555E+05-4.68383E+05 1.98139E+04-5.10918E+05-1.16415E-09-6.74481E-09
 -1       558 1.96241E+05-3.61865E+05 4.24825E+03-3.98379E+05-1.79862E-08-1.46974E-09
 -1       559 3.15427E+05-4.69764E+05 3.28658E+03-5.29908E+05 1.12923E-08-3.36295E-08
 -1       560 1.82154E+05-3.53015E+05-8.86988E+02-4.08481E+05 8.06176E-09-1.86046E-08
 -1       561 2.97623E+05-4.62711E+05 3.61762E+02-5.41998E+05 4.19095E-09-4.92946E-09
 -1       562 1.71018E+05-3.46080E+05-1.08730E+03-4.16534E+05 7.66886E-09-1.68984E-08
 -1       563 2.84408E+05-4.56949E+05 2.98940E+01-5.50617E+05 8.26549E-09-6.92307E-09
 -1       564 1.63107E+05-3.41146E+05-5.06823E+02-4.22137E+05 8.22183E-09 1.58575E-08
 -1       565 2.75706E+05-4.53160E+05 4.20114E+01-5.56173E+05 8.40737E-09 4.53292E-09
 -1       566 1.58534E+05-3.38252E+05-2.22553E+02-4.25336E+05-6.70116E-09-3.34694E-10
 -1       567 2.71561E+05-4.51356E+05-3.30787E+02-5.58681E+05 3.19415E-09-1.55669E-08
 -1       568 1.57385E+05-3.37550E+05-1.04465E+03-4.26236E+05-4.85124E-09 1.05501E-10
 -1       569 2.70635E+05-4.51303E+05-2.63965E+03-5.57184E+05-2.85036E-09-1.01354E-08
 -1       570 1.60714E+05-3.40676E+05-5.78720E+03-4.25267E+05 7.76345E-09-8.67112E-09
 -1       571 2.83740E+05 1.02699E+04 1.47074E+04-9.12619E+04 9.78162E-09-3.40970E-09
 -1       572 2.85877E+05 3.84144E+03 7.20758E+03-1.00123E+05 2.22440E-08-2.37469E-09
 -1       573 2.84590E+05 1.18162E+03 3.20251E+03-9.10901E+04 1.22536E-08 1.87356E-10
 -1       574 2.84805E+05 6.68183E+02 1.60589E+03-1.00339E+05 1.40062E-09 3.43061E-09
 -1       575 2.84682E+05 3.98612E+02 7.57841E+02-9.10666E+04 1.09171E-09 6.84122E-09
 -1       576 2.84670E+05 4.05850E+02 3.87805E+02-1.00368E+05-4.46107E-09 6.54018E-09
 -1       577 2.84719E+05 3.42931E+02 1.93374E+02-9.10634E+04-4.50655E-09 9.71522E-09
 -1       578 2.84696E+05 3.70717E+02 1.11163E+02-1.00372E+05-4.15776E-09 1.40335E-09
 -1       579 2.84785E+05 3.09978E+02 7.56821E+01-9.10631E+04 7.79983E-09-1.86210E-08
 -1       580 2.84789E+05 3.24509E+02 8.65802E+01-1.00367E+05-3.32875E-09-1.90194E-08
 -1       581 2.84889E+05 2.56912E+02 1.30011E+02-9.10687E+04-4.40195E-10-5.69162E-09
 -1       582 2.84950E+05 2.91694E+02 2.63422E+02-1.00308E+05-1.81899E-08-3.39969E-09
 -1       583 2.85017E+05 2.99470E+02 5.05636E+02-9.11228E+04-1.43336E-09 3.83284E-09
 -1       584 2.85298E+05 7.11021E+02 1.14363E+03-9.98527E+04 2.10075E-08-3.95926E-09
 -1       585 2.85037E+05 1.67645E+03 2.31621E+03-9.15237E+04 6.77028E-09-6.38829E-09
 -1       586-3.35803E+03 1.12212E+05-2.98682E+03-2.45722E+05-4.91264E-09-6.43354E-09
 -1       587-1.25787E+03 1.11942E+05 6.76043E+02-2.70438E+05-4.70027E-09 1.59241E-09
 -1       588 4.50660E+02 1.11776E+05 4.59497E+03-2.45588E+05-1.32059E-09-8.38645E-09
 -1       589 5.01992E+03 1.14172E+05 1.19864E+04-2.70203E+05-4.01815E-09-2.65572E-09
 -1       590 1.62203E+04 1.10478E+05 2.51708E+04-2.46011E+05-3.01043E-09 4.36557E-10
 -1       591-7.17824E+04-1.55280E+04-2.18045E+04-3.08730E+04-2.96723E-09-8.36008E-09
 -1       592-7.56620E+04-1.90492E+04-1.18110E+04-3.44705E+04-4.42697E-10-2.37095E-08
 -1       593-7.39637E+04-1.39451E+04-4.91638E+03-3.24712E+04-8.47148E-10-2.54372E-08
 -1       594-7.26504E+04-1.58508E+04-2.45194E+03-3.45859E+04-2.18276E-09-1.53389E-08
 -1       595-7.41300E+04-1.39399E+04-1.12575E+03-3.25438E+04-2.19413E-09 8.59541E-09
 -1       596-7.24443E+04-1.57045E+04-5.72193E+02-3.45616E+04 7.41977E-09 1.30353E-08
 -1       597-7.41509E+04-1.39547E+04-3.11386E+02-3.25466E+04 4.25007E-09 1.54793E-08
 -1       598-7.24240E+04-1.56987E+04-2.49971E+02-3.45547E+04-1.48611E-09 3.39458E-09
 -1       599-7.41496E+04-1.39552E+04-3.18874E+02-3.25462E+04 1.05580E-08-1.06252E-09
 -1       600-7.24444E+04-1.57051E+04-5.92016E+02-3.45595E+04 1.28290E-08-1.00376E-08
 -1       601-7.41256E+04-1.39411E+04-1.16774E+03-3.25428E+04 4.88944E-09-9.54583E-09
 -1       602-7.26581E+04-1.58558E+04-2.54487E+03-3.45811E+04 2.34741E-09-1.21872E-09
 -1       603-7.39503E+04-1.39494E+04-5.10346E+03-3.24682E+04 1.28239E-10 1.78261E-09
 -1       604-7.58014E+04-1.91569E+04-1.22597E+04-3.44373E+04 4.28798E-09 3.20347E-09
 -1       605-7.16666E+04-1.56096E+04-2.26329E+04-3.08280E+04 3.35791E-09 1.06493E-08
 -1       606 2.68713E+04-1.39945E+04-2.50911E+04 2.44876E+04 4.27099E-09 2.40561E-09
 -1       607 2.25836E+04-4.56832E+03-1.24952E+04 2.75154E+04 2.70666E-09-8.16203E-09
 -1       608 2.50261E+04-8.22089E+02-5.59385E+03 2.43126E+04-3.60524E-09 1.09821E-09
 -1       609 2.45566E+04-2.78674E+02-2.82581E+03 2.77335E+04 4.82760E-09 1.21308E-08
 -1       610 2.48159E+04-3.65230E+01-1.34837E+03 2.42919E+04 3.03407E-09 1.73104E-08
 -1       611 2.47412E+04-3.55298E+01-6.79856E+02 2.77570E+04 3.79077E-09 3.39514E-09
 -1       612 2.47685E+04-2.23051E+01-3.23375E+02 2.42898E+04-7.46695E-10 5.40558E-09
 -1       613 2.47511E+04-3.07660E+01-1.45090E+02 2.77598E+04 7.68523E-11 1.02996E-08
 -1       614 2.47458E+04-2.78940E+01-3.45142E+01 2.42891E+04 2.13549E-09 1.53250E-10
 -1       615 2.47449E+04-2.87117E+01 5.96504E+01 2.77603E+04 9.99535E-10 9.88712E-09
 -1       616 2.47281E+04-2.43535E+01 1.79937E+02 2.42894E+04 3.74484E-09-1.39539E-09
 -1       617 2.47657E+04 1.01573E+01 4.10966E+02 2.77598E+04 1.71508E-09 1.14319E-08
 -1       618 2.46918E+04 9.45219E+01 8.28517E+02 2.42897E+04-1.17370E-09 8.12292E-09
 -1       619 2.50577E+04 6.51103E+02 1.86061E+03 2.77591E+04-3.80385E-09-2.29784E-08
 -1       620 2.44163E+04 2.05949E+03 3.73979E+03 2.42909E+04-3.92220E-11 3.76713E-09
 -1       621 4.77304E+02 2.94446E+05 3.71499E+03 3.82012E+04 8.84029E-10 1.76988E-09
 -1       622 6.27753E+02 2.95310E+05 3.31640E+03 5.54691E+04 8.42647E-10 3.84716E-10
 -1       623 1.23114E+02 2.94634E+05 4.01128E+03 3.80277E+04 1.09571E-09-4.62023E-10
 -1       624 2.04079E+03 2.96509E+05 7.79710E+03 5.56404E+04 1.18189E-09-3.41743E-08
 -1       625 2.00132E+03 2.93089E+05 1.36353E+04 3.80246E+04 1.39653E-09-9.52059E-09
 -1       626 2.58037E+05 6.11782E+04 5.34277E+03 1.25779E+05 3.27418E-09 1.21199E-08
 -1       627 2.55680E+05 6.26186E+04 2.57899E+03 1.30173E+05-2.60252E-09 3.08683E-08
 -1       628 2.58178E+05 5.87729E+04 1.09108E+03 1.26677E+05-4.47108E-09 1.45221E-08
 -1       629 2.55015E+05 6.19196E+04 5.34206E+02 1.30416E+05 4.49745E-10-1.83582E-09
 -1       630 2.58193E+05 5.86607E+04 2.47800E+02 1.26713E+05 3.59523E-09 1.35361E-08
 -1       631 2.54946E+05 6.18941E+04 1.32973E+02 1.30417E+05 7.47150E-09-2.30948E-08
 -1       632 2.58189E+05 5.86656E+04 8.67666E+01 1.26708E+05 2.88037E-09-9.69885E-09
 -1       633 2.54937E+05 6.18963E+04 9.55292E+01 1.30413E+05-6.25164E-09 1.67418E-08
 -1       634 2.58184E+05 5.86631E+04 1.53369E+02 1.26707E+05-4.59045E-09 2.66573E-09
 -1       635 2.54951E+05 6.18946E+04 3.09618E+02 1.30418E+05-6.65713E-09-2.10639E-09
 -1       636 2.58175E+05 5.86565E+04 6.24881E+02 1.26707E+05-1.10631E-08-9.03219E-09
 -1       637 2.55084E+05 6.19874E+04 1.37273E+03 1.30419E+05-1.19005E-08-1.12068E-08
 -1       638 2.58125E+05 5.89448E+04 2.81881E+03 1.26576E+05-1.64528E-08-1.41204E-08
 -1       639 2.56567E+05 6.40123E+04 6.66639E+03 1.30000E+05-8.18545E-09-9.70681E-09
 -1       640 2.57897E+05 6.49820E+04 1.38106E+04 1.24021E+05-2.38924E-09-8.63906E-09
 -1       656 6.51211E+04-1.66543E+06-1.57202E+05-2.29902E+03-1.23691E-10-4.27877E-09
 -1       657-8.61489E+04-1.73646E+06-1.30228E+05 5.49190E+03 4.83851E-10 1.75675E-09
 -1       658 2.07581E+04-1.68560E+06-8.02021E+04-4.32783E+03-3.41515E-10-2.61845E-09
 -1       659-9.31482E+04-1.73979E+06-1.39426E+05 7.16235E+03-1.41245E-09-1.31316E-08
 -1       660 7.21049E+04-1.66212E+06-1.73015E+05-3.96946E+03-1.15688E-09 6.39074E-09
 -1       661 1.59973E+05 1.68045E+04 1.67266E+04 6.25394E+04 7.36236E-10 7.01766E-09
 -1       662 1.69399E+05 2.92220E+04 1.12725E+04 5.88226E+04 3.69363E-09-2.50101E-08
 -1       663 1.63259E+05 2.21706E+04 3.94245E+03 6.15859E+04-1.49214E-09-9.59812E-09
 -1       664 1.65590E+05 2.29467E+04 2.35833E+03 5.99873E+04-1.71408E-09 1.12341E-08
 -1       665 1.63757E+05 2.29036E+04 9.30334E+02 6.14405E+04 5.08294E-10-1.66139E-09
 -1       666 1.65000E+05 2.21084E+04 5.44453E+02 6.01768E+04 5.37455E-09 3.18895E-09
 -1       667 1.63845E+05 2.29870E+04 2.89222E+02 6.14042E+04-2.13967E-09 4.40366E-10
 -1       668 1.64904E+05 2.20483E+04 2.94804E+02 6.02297E+04-5.14849E-09 3.29885E-09
 -1       669 1.63853E+05 2.29619E+04 3.99194E+02 6.13880E+04-5.77006E-09 5.10906E-09
 -1       670 1.65001E+05 2.22651E+04 8.69333E+02 6.02327E+04-9.61145E-09 2.91749E-09
 -1       671 1.63747E+05 2.27747E+04 1.54359E+03 6.13992E+04 2.17796E-09-4.46249E-09
 -1       672 1.65900E+05 2.37669E+04 3.94925E+03 6.00149E+04 5.94298E-09 2.61775E-09
 -1       673 1.62958E+05 2.14981E+04 6.61833E+03 6.15912E+04 2.12810E-09 2.20325E-09
 -1       674 1.72199E+05 3.43997E+04 1.89270E+04 5.81640E+04-2.32376E-10 1.37541E-08
 -1       675 1.57489E+05 1.24397E+04 2.80943E+04 6.31383E+04-3.10411E-09 1.42900E-08
 -1       676 2.37855E+01-2.91630E+05-1.09988E+03-1.19267E+02 3.66799E-09-2.28830E-08
 -1       677-2.91210E+02-2.91896E+05-2.01296E+03 2.38346E+02 7.87992E-09-1.38784E-08
 -1       678 1.95107E+02-2.91441E+05-3.55841E+03-1.19001E+02 1.73577E-09 6.46693E-10
 -1       679-3.55871E+03-2.94044E+05-8.45328E+03 2.37332E+02 9.13496E-09 1.61118E-08
 -1       680 2.12456E+03-2.89483E+05-1.36238E+04-1.16934E+02 1.04137E-09 7.14479E-09
 -1       771-3.02642E+06-7.25257E+05-1.53885E+05-1.43891E+06-3.28437E-08-2.98605E-08
 -1       772-2.95299E+06-8.10428E+05-7.94146E+04-1.53727E+06-2.31230E-08 9.83709E-09
 -1       773-3.05570E+06-7.02378E+05-4.03115E+04-1.45203E+06-1.48430E-08 9.50240E-09
 -1       774-2.94365E+06-7.93414E+05-1.80205E+04-1.56107E+06 2.81580E-08-2.17915E-09
 -1       775-3.07080E+06-6.91761E+05-1.33637E+04-1.45832E+06-1.13505E-09 1.14960E-09
 -1       776-2.95470E+06-7.90773E+05-5.01595E+03-1.57895E+06-1.37370E-08-5.96992E-09
 -1       777-3.08385E+06-6.82324E+05-5.86245E+03-1.46387E+06 6.40284E-09 2.36469E-09
 -1       778-2.96627E+06-7.88334E+05-1.66350E+03-1.59429E+06 1.14378E-08 6.50471E-09
 -1       779-3.09504E+06-6.74098E+05-2.91632E+03-1.46861E+06-1.14815E-08-7.22139E-09
 -1       780-2.97645E+06-7.86006E+05-4.84533E+02-1.60678E+06-8.12724E-09-1.57524E-09
 -1       781-3.10393E+06-6.67476E+05-1.12861E+03-1.47233E+06-2.14204E-08 2.32831E-10
 -1       782-2.98428E+06-7.84023E+05 4.10461E+02-1.61600E+06-2.63753E-08-7.03585E-09
 -1       783-3.11017E+06-6.62884E+05 6.41409E+02-1.47493E+06-5.05679E-09-1.55173E-08
 -1       784-2.98861E+06-7.82006E+05 2.64493E+03-1.62168E+06-1.99470E-08-1.20508E-10
 -1       785-3.11387E+06-6.60147E+05 4.67006E+03-1.47658E+06-3.67763E-08 6.73026E-09
 -1       786 1.24423E+05-9.71127E+03 2.24677E+04-3.00937E+02-1.70341E-09-3.60887E-09
 -1       787 1.34167E+05 1.12433E+04 1.58950E+04-1.17314E+02 4.55424E-09 1.08660E-08
 -1       788 1.28180E+05-1.52185E+03 5.81298E+03-2.66742E+02 4.41099E-09 1.91703E-08
 -1       789 1.29790E+05 1.76137E+03 3.64930E+03-1.69975E+02-1.83236E-09 1.40653E-08
 -1       790 1.28800E+05-2.37027E+02 1.47782E+03-2.48292E+02-7.33264E-09 8.71381E-09
 -1       791 1.29065E+05 2.74167E+02 8.54087E+02-2.01590E+02-8.46077E-09 7.58234E-09
 -1       792 1.28905E+05-3.57664E+01 3.62998E+02-2.35129E+02-3.70311E-09 2.31262E-09
 -1       793 1.28939E+05 3.81768E+01 1.83313E+02-2.26354E+02 1.31978E-09 1.74458E-09
 -1       794 1.28926E+05-1.18534E+00 5.23608E+01-2.23528E+02 4.10042E-09 7.39142E-09
 -1       795 1.28904E+05-2.33482E+01-4.48265E+01-2.50559E+02-3.31602E-09 1.11130E-08
 -1       796 1.28940E+05 2.57244E+01-1.40068E+02-2.10923E+02 3.06112E-09-1.30302E-08
 -1       797 1.28821E+05-1.92839E+02-3.90557E+02-2.79500E+02 3.11329E-09 1.20284E-08
 -1       798 1.29009E+05 1.68178E+02-6.35937E+02-1.94587E+02 1.07817E-09 1.08940E-08
 -1       799 1.28338E+05-1.23988E+03-1.75100E+03-3.19837E+02 6.00836E-09 1.14896E-08
 -1       800 1.29424E+05 1.07191E+03-2.47844E+03-1.70586E+02-2.56415E-10 2.24464E-08
 -1       801-1.34997E+05-9.33952E+06-1.28259E+06 1.25689E+06 8.87958E-08-5.00477E-08
 -1       802 6.35996E+05 4.92120E+06 1.92292E+06-1.53408E+06 2.45971E-07-3.88209E-08
 -1       803-4.77036E+05-1.30954E+07-1.69040E+06 7.98330E+05 7.36291E-08 1.89084E-08
 -1       804 2.47753E+05 1.70559E+06 1.35543E+06 6.26006E+05-1.13720E-07-7.62454E-08
 -1       805 1.76113E+05-6.13879E+06-2.56938E+05-8.98073E+05-4.69081E-08-6.15710E-08
 -1       806-3.02681E+05-5.84907E+04-2.23541E+04-1.19878E+05 4.35648E-10 8.29141E-09
 -1       807-3.04451E+05-5.48311E+04-1.09824E+04-1.25288E+05 1.32623E-08 1.04365E-08
 -1       808-3.03293E+05-5.04364E+04-4.65908E+03-1.23688E+05-4.59158E-09 1.99681E-08
 -1       809-3.02143E+05-5.17446E+04-2.27818E+03-1.25557E+05-1.24430E-08 3.58737E-08
 -1       810-3.03386E+05-5.01560E+04-1.04421E+03-1.23857E+05 4.27463E-09 3.63116E-09
 -1       811-3.01964E+05-5.16205E+04-5.19309E+02-1.25523E+05 2.30193E-09-1.10431E-08
 -1       812-3.03400E+05-5.01800E+04-2.62706E+02-1.23856E+05-3.74348E-09-1.12859E-08
 -1       813-3.01940E+05-5.16226E+04-1.70860E+02-1.25505E+05-4.79122E-09-1.01022E-08
 -1       814-3.03393E+05-5.01894E+04-1.69506E+02-1.23852E+05-8.59291E-09-5.49517E-09
 -1       815-3.01943E+05-5.16247E+04-2.73315E+02-1.25497E+05 1.78943E-09-5.27325E-09
 -1       816-3.03373E+05-5.01884E+04-5.18113E+02-1.23849E+05-3.52884E-10 1.57879E-08
 -1       817-3.02031E+05-5.16741E+04-1.11205E+03-1.25486E+05-2.06310E-08 2.94494E-09
 -1       818-3.03306E+05-5.03452E+04-2.26818E+03-1.23775E+05-8.46285E-09 3.35012E-09
 -1       819-3.03273E+05-5.30442E+04-5.33696E+03-1.25192E+05 4.07272E-09 1.99609E-08
 -1       820-3.02878E+05-5.43763E+04-1.08626E+04-1.22052E+05-1.67438E-09 2.99337E-09
 -1       821-3.73292E+05 2.05730E+04-4.77637E+04 1.78211E+03 1.22484E-08 3.96176E-09
 -1       822-3.93219E+05-2.38258E+04-3.36646E+04-3.58952E+03 3.39930E-09 1.55414E-08
 -1       823-3.80886E+05 3.23636E+03-1.23487E+04 2.73399E+03-9.18828E-09 8.64702E-09
 -1       824-3.84148E+05-3.73581E+03-7.74447E+03-4.16248E+03 2.38636E-09-2.68722E-09
 -1       825-3.82365E+05 5.02702E+02-3.22491E+03 2.35514E+03 1.68757E-08-8.94556E-09
 -1       826-3.82053E+05-5.71281E+02-1.79050E+03-2.28765E+03 1.97820E-08 7.95868E-09
 -1       827-3.82965E+05 6.19965E+01-1.10953E+03 8.59076E+02 9.23822E-09-8.20611E-09
 -1       828-3.81568E+05-1.50517E+02-6.93224E+02 1.00616E+03-3.20627E-09-2.01286E-08
 -1       829-3.82843E+05 7.65053E+01-1.10684E+03-9.38697E+02 1.65005E-09 4.73520E-09
 -1       830-3.82323E+05-6.16525E+02-1.91147E+03 3.91737E+03-1.44936E-09 2.30431E-08
 -1       831-3.82224E+05 5.39174E+02-3.31548E+03-2.05217E+03-6.43310E-09-1.03694E-09
 -1       832-3.84234E+05-3.89530E+03-8.04727E+03 4.85112E+03-3.61784E-09 1.05535E-09
 -1       833-3.80942E+05 3.35990E+03-1.28451E+04-1.87247E+03-3.54314E-09 3.64435E-09
 -1       834-3.93371E+05-2.47399E+04-3.49069E+04 3.26794E+03-2.78314E-09 1.38216E-08
 -1       835-3.73078E+05 2.13573E+04-4.96279E+04-4.68939E+02 3.70068E-09 9.36052E-09
 -1       836-1.37558E+03 3.62100E+05 2.23640E+04-1.61019E+04-6.43286E-09 1.28421E-09
 -1       837 4.77683E+03 3.69100E+05 1.89372E+04-3.28380E+04-7.03028E-09 2.27374E-09
 -1       838-5.41415E+02 3.64062E+05 1.93132E+04-1.60312E+04-5.77757E-09 5.87966E-09
 -1       839 1.21711E+04 3.74608E+05 3.65529E+04-3.28893E+04-5.96992E-09-1.33381E-08
 -1       840-3.75625E+03 3.56535E+05 5.82963E+04-1.60555E+04-5.38421E-09-1.72300E-09
 -1       856-5.49601E+04 8.01678E+03-2.11260E+04-3.99068E+02 2.88617E-09 1.49084E-08
 -1       857-6.36657E+04-9.41779E+03-1.45431E+04 5.56487E+03 5.85962E-09-1.60517E-08
 -1       858-5.84070E+04 1.12418E+03-5.48179E+03-4.23198E+02 2.97905E-09-4.24666E-09
 -1       859-5.97099E+04-1.32097E+03-3.30821E+03 5.60101E+03-5.08180E-09 1.01454E-08
 -1       860-5.89219E+04 1.57335E+02-1.38682E+03-4.34979E+02 1.29322E-09 2.64521E-09
 -1       861-5.91175E+04-1.86349E+02-7.63626E+02 5.61709E+03 2.92297E-09 6.59566E-09
 -1       862-5.90025E+04 2.12608E+01-3.18862E+02-4.39259E+02 1.85524E-09 3.99638E-09
 -1       863-5.90191E+04-2.06805E+01-1.19404E+02 5.61956E+03-3.65029E-09 4.85741E-09
 -1       864-5.90209E+04-4.56758E+00 3.98375E+01-4.37450E+02-4.07225E-09 7.39945E-09
 -1       865-5.89654E+04 5.74436E+01 2.38705E+02 5.60928E+03-1.33718E-09 1.03475E-08
 -1       866-5.90540E+04-5.69210E+01 4.84814E+02-4.28984E+02-1.95922E-09-9.26482E-09
 -1       867-5.87363E+04 4.70436E+02 1.19575E+03 5.58626E+03 6.59429E-09-6.45900E-09
 -1       868-5.92451E+04-4.10227E+02 1.98754E+03-4.14426E+02-1.39539E-09 6.82849E-09
 -1       869-5.72784E+04 3.41405E+03 5.29310E+03 5.54823E+03-5.42798E-10-1.94862E-08
 -1       870-6.05043E+04-2.92077E+03 7.68130E+03-3.90863E+02-3.59921E-09-1.32341E-08
 -1       871-5.45586E+03-2.05217E+04-1.91250E+04 1.27321E+05-5.37875E-09 3.99814E-09
 -1       872-2.00058E+03-2.49539E+04-8.00631E+03 1.65091E+05-1.11004E-08 2.48110E-09
 -1       873 3.54774E+02-2.28143E+04 5.84189E+02 1.27042E+05-5.61749E-09 1.10905E-08
 -1       874 3.19138E+03-2.04337E+04 9.60898E+03 1.65120E+05-1.12223E-08 2.75413E-08
 -1       875 6.68409E+03-2.51056E+04 2.16736E+04 1.27276E+05-4.38013E-09 2.69938E-09
 -1       876 2.88334E+05 4.86979E+04 1.47983E+04 1.15846E+05 5.20754E-09 1.50239E-08
 -1       877 2.89280E+05 5.18461E+04 7.90291E+03 1.20126E+05 6.04132E-09 2.19403E-08
 -1       878 2.89718E+05 4.70584E+04 3.31093E+03 1.17058E+05-5.93673E-09-1.79050E-08
 -1       879 2.87268E+05 4.98393E+04 1.64973E+03 1.20227E+05 9.89530E-10-2.11913E-08
 -1       880 2.89817E+05 4.70415E+04 7.68457E+02 1.17108E+05-6.33963E-09 3.78060E-09
 -1       881 2.87134E+05 4.97535E+04 4.10464E+02 1.20203E+05-1.04033E-08-1.31574E-08
 -1       882 2.89826E+05 4.70545E+04 2.62767E+02 1.17109E+05-7.73957E-09 6.54659E-09
 -1       883 2.87125E+05 4.97490E+04 2.82763E+02 1.20196E+05-1.56615E-09-3.18281E-09
 -1       884 2.89819E+05 4.70517E+04 4.50066E+02 1.17109E+05 4.55918E-09-2.14459E-09
 -1       885 2.87161E+05 4.97553E+04 9.05045E+02 1.20207E+05-5.61613E-10 3.17141E-09
 -1       886 2.89784E+05 4.70253E+04 1.82416E+03 1.17106E+05-4.73155E-09 1.40994E-09
 -1       887 2.87481E+05 4.99655E+04 3.98467E+03 1.20253E+05 1.57365E-09-1.42586E-08
 -1       888 2.89532E+05 4.70696E+04 8.02924E+03 1.16978E+05-6.57101E-09-3.93266E-09
 -1       889 2.92262E+05 5.49361E+04 1.91804E+04 1.20106E+05-2.77459E-09-1.48721E-08
 -1       890 2.86256E+05 5.09619E+04 3.59244E+04 1.13922E+05-3.46881E-09-5.44242E-09
 -1       891-9.50803E+01-1.60009E+05-1.95868E+03 2.69290E+04 3.65389E-10 2.63938E-08
 -1       892-1.83413E+02-1.60523E+05-2.10498E+03 4.08794E+04 4.84306E-10-8.07245E-09
 -1       893 3.53887E+01-1.60072E+05-2.98178E+03 2.69361E+04-1.67529E-09-1.11463E-08
 -1       894-1.49485E+03-1.61650E+05-6.17214E+03 4.07287E+04 1.86446E-10 9.00855E-10
 -1       895-1.18568E+03-1.58786E+05-1.08695E+04 2.70812E+04-2.23963E-11-5.48516E-09
 -1       956-3.69844E+05-5.33023E+03-1.31836E+04 2.99915E+04 4.95675E-09-1.54209E-08
 -1       957-3.72433E+05-1.87194E+03-6.76699E+03 3.60504E+04-4.38240E-09-2.51571E-08
 -1       958-3.71028E+05-2.26208E+02-3.04937E+03 2.98269E+04-2.56114E-09-8.02856E-09
 -1       959-3.71223E+05-1.21934E+02-1.55709E+03 3.62411E+04 3.58750E-09 2.04541E-08
 -1       960-3.71143E+05-3.44887E+01-7.59299E+02 2.98101E+04 5.13592E-09 2.24893E-08
 -1       961-3.71143E+05-5.07351E+01-4.02592E+02 3.62609E+04 7.85076E-09-1.47490E-08
 -1       962-3.71170E+05-3.59525E+01-2.30492E+02 2.98073E+04 5.33419E-10-6.06633E-09
 -1       963-3.71143E+05-4.67877E+01-1.85035E+02 3.62645E+04 6.86919E-09 2.98337E-09
 -1       964-3.71175E+05-3.27149E+01-2.25000E+02 2.98065E+04 3.33891E-09 1.02493E-08
 -1       965-3.71155E+05-4.38277E+01-3.89143E+02 3.62638E+04-2.67391E-10 7.68523E-10
 -1       966-3.71160E+05-2.48686E+01-7.31149E+02 2.98080E+04 7.34622E-09-9.78503E-09
 -1       967-3.71244E+05-1.05818E+02-1.49957E+03 3.62499E+04 4.77553E-09 1.28125E-08
 -1       968-3.71058E+05-2.03313E+02-2.93557E+03 2.98203E+04 1.63709E-10 2.04297E-08
 -1       969-3.72421E+05-1.78573E+03-6.51695E+03 3.61060E+04 1.42018E-09 6.52699E-09
 -1       970-3.69926E+05-5.11489E+03-1.26953E+04 2.99445E+04-2.65118E-09 9.59335E-09
 -1       971-3.39332E+05-1.70045E+03-9.19044E+03 1.51314E+04 6.45741E-09-5.94319E-09
 -1       972-3.41547E+05-1.24892E+03-5.00503E+03 2.09468E+04 1.83627E-09 3.56931E-09
 -1       973-3.40356E+05-5.65381E+01-2.24175E+03 1.50116E+04 5.65797E-09-1.61981E-09
 -1       974-3.40491E+05-7.36036E+01-1.16201E+03 2.10819E+04 8.99877E-09-9.11905E-09
 -1       975-3.40437E+05-1.23699E+01-5.81192E+02 1.49995E+04 2.78351E-09-3.87968E-09
 -1       976-3.40430E+05-2.45106E+01-3.35950E+02 2.10973E+04 6.81462E-09-1.25988E-09
 -1       977-3.40453E+05-1.17307E+01-2.44968E+02 1.49962E+04 1.89084E-09-1.62365E-08
 -1       978-3.40436E+05-1.84440E+01-2.88228E+02 2.11020E+04-4.82612E-09-1.83525E-08
 -1       979-3.40453E+05-3.44685E+00-4.64430E+02 1.49948E+04-3.86171E-09-8.17545E-09
 -1       980-3.40470E+05-1.54584E+01-8.97597E+02 2.11029E+04-3.53901E-09 3.28600E-09
 -1       981-3.40424E+05 1.89790E+01-1.73887E+03 1.49953E+04 6.83144E-10 6.64556E-09
 -1       982-3.40709E+05-1.43931E+02-3.59446E+03 2.10964E+04 4.54565E-09-8.62908E-09
 -1       983-3.40205E+05-9.23423E+01-6.98418E+03 1.50013E+04 1.34969E-09-4.44743E-10
 -1       984-3.44068E+05-3.79152E+03-1.56408E+04 2.10119E+04 4.43833E-10-5.98527E-09
 -1       985-3.37043E+05-5.20290E+03-2.87214E+04 1.50731E+04-4.28054E-09-5.57884E-09
 -3
    1PSTEP                        21          11           1          
  100CL  111 6.62109E-01         409                     0   11           1
 -4  DISP        4    1
 -5  D1          1    2    1    0
 -5  D2          1    2    2    0
 -5  D3          1    2    3    0
 -5  ALL         1    2    0    0    1ALL
 -1         1 2.73512E-03 0.00000E+00 0.00000E+00
 -1         2 1.26382E-03-9.53977E-28 5.29396E-23
 -1         3 3.42244E-04-2.43959E-27-1.32349E-23
 -1         5 1.76920E-04 1.59582E-26-3.30872E-24
 -1         8 2.72485E-03-3.91019E-07 0.00000E+00
 -1         9 2.71753E-03-2.21660E-04 0.00000E+00
 -1        10 3.10354E-04-3.36605E-06 6.61744E-24
 -1        12 1.78768E-04 8.08391E-07 0.00000E+00
 -1        15 2.71324E-03-4.12648E-07 1.03398E-25
 -1        16 2.79609E-03-2.23663E-04 0.00000E+00
 -1        17 2.11240E-04-7.68254E-06 0.00000E+00
 -1        18 1.82719E-04 3.44058E-05 0.00000E+00
 -1        19 1.84311E-04 1.61039E-06 0.00000E+00
 -1        20 1.84450E-04-9.84322E-06 0.00000E+00
 -1        21 1.83556E-04-2.53865E-05-3.30872E-24
 -1        24 3.05436E-05-1.18889E-05 0.00000E+00
 -1        25 1.93505E-04 3.46313E-05 0.00000E+00
 -1        26 1.94181E-04 2.23069E-06 0.00000E+00
 -1        27 1.91982E-04-1.33908E-05 0.00000E+00
 -1        28 1.91667E-04-2.60078E-05 0.00000E+00
 -1        32 0.00000E+00 0.00000E+00 0.00000E+00
 -1        33 2.03050E-04 2.98504E-06 0.00000E+00
 -1        34 2.00934E-04-1.34475E-05 0.00000E+00
 -1        35 1.99004E-04-2.63499E-05 0.00000E+00
 -1        51 2.73442E-03-8.29329E-08 4.96308E-24
 -1        52 2.73315E-03-1.47274E-07 0.00000E+00
 -1        53 2.73144E-03-2.08049E-07-3.30872E-24
 -1        54 2.72940E-03-2.67486E-07 0.00000E+00
 -1        55 2.72716E-03-3.27353E-07-2.48154E-24
 -1        56 2.72614E-03 1.16179E-05 0.00000E+00
 -1        57 2.70734E-03 4.72239E-05 5.29396E-23
 -1        58 2.68153E-03 9.93826E-05 0.00000E+00
 -1        59 2.65237E-03 1.59115E-04 5.29396E-23
 -1        60 2.62439E-03 2.16145E-04 1.05879E-22
 -1        61 2.60194E-03 2.60412E-04 0.00000E+00
 -1        62 2.58798E-03 2.84122E-04 1.05879E-22
 -1        63 2.58430E-03 2.81299E-04 5.29396E-23
 -1        64 2.59054E-03 2.50857E-04 1.05879E-22
 -1        65 2.60538E-03 1.94358E-04-5.29396E-23
 -1        66 2.62624E-03 1.18377E-04 1.05879E-22
 -1        67 2.65028E-03 3.14483E-05 0.00000E+00
 -1        68 2.67440E-03-5.57311E-05 0.00000E+00
 -1        69 2.69550E-03-1.32432E-04 5.29396E-23
 -1        70 2.71070E-03-1.89995E-04 5.29396E-23
 -1        86 1.35531E-03-6.87913E-06 0.00000E+00
 -1        87 1.61913E-03-4.37727E-05 2.64698E-23
 -1        88 1.97398E-03-1.07433E-04-5.29396E-23
 -1        89 2.33406E-03-1.73030E-04 0.00000E+00
 -1        90 2.61051E-03-2.13211E-04 0.00000E+00
 -1       121 3.41349E-04-5.43343E-07 0.00000E+00
 -1       122 3.38666E-04-1.08976E-06 0.00000E+00
 -1       123 3.34206E-04-1.64228E-06 1.32349E-23
 -1       124 3.27984E-04-2.20393E-06 0.00000E+00
 -1       125 3.20024E-04-2.77736E-06 0.00000E+00
 -1       191 1.76972E-04 1.34796E-07-8.27181E-25
 -1       192 1.77126E-04 2.69580E-07 0.00000E+00
 -1       193 1.77382E-04 4.04344E-07-2.48154E-24
 -1       194 1.77741E-04 5.39076E-07 4.13590E-25
 -1       195 1.78203E-04 6.73762E-07-1.65436E-24
 -1       251 2.72454E-03 1.61128E-06 0.00000E+00
 -1       252 2.72423E-03 3.63992E-06 3.30872E-24
 -1       253 2.72392E-03 4.53329E-06 0.00000E+00
 -1       254 2.72361E-03 3.14419E-06-3.30872E-24
 -1       255 2.72328E-03-1.32114E-06-6.61744E-24
 -1       256 2.72294E-03-9.61714E-06-6.61744E-24
 -1       257 2.72255E-03-2.19056E-05-1.32349E-23
 -1       258 2.72211E-03-3.82972E-05 0.00000E+00
 -1       259 2.72161E-03-5.82685E-05-1.32349E-23
 -1       260 2.72104E-03-8.12497E-05 6.61744E-24
 -1       261 2.72043E-03-1.06206E-04 1.32349E-23
 -1       262 2.71979E-03-1.32076E-04 6.61744E-24
 -1       263 2.71917E-03-1.57660E-04 0.00000E+00
 -1       264 2.71857E-03-1.81758E-04 0.00000E+00
 -1       265 2.71803E-03-2.03403E-04 0.00000E+00
 -1       266 2.72291E-03-4.00040E-07 1.65436E-24
 -1       267 2.72098E-03-4.02984E-07 0.00000E+00
 -1       268 2.71904E-03-4.06314E-07 0.00000E+00
 -1       269 2.71711E-03-4.08503E-07 0.00000E+00
 -1       270 2.71517E-03-4.10666E-07 0.00000E+00
 -1       271 2.72415E-03-2.26016E-07-1.32349E-23
 -1       272 2.72455E-03-3.05346E-06 6.61744E-24
 -1       273 2.72600E-03-8.68671E-06 1.32349E-23
 -1       274 2.72839E-03-1.69246E-05 0.00000E+00
 -1       275 2.73166E-03-2.75436E-05 0.00000E+00
 -1       276 2.73570E-03-4.03038E-05 0.00000E+00
 -1       277 2.74042E-03-5.49476E-05 0.00000E+00
 -1       278 2.74572E-03-7.12038E-05 0.00000E+00
 -1       279 2.75149E-03-8.87885E-05-1.32349E-23
 -1       280 2.75763E-03-1.07408E-04-6.61744E-24
 -1       281 2.76403E-03-1.26759E-04 1.32349E-23
 -1       282 2.77058E-03-1.46535E-04 6.61744E-24
 -1       283 2.77718E-03-1.66424E-04 0.00000E+00
 -1       284 2.78370E-03-1.86115E-04 6.61744E-24
 -1       285 2.79004E-03-2.05297E-04 0.00000E+00
 -1       301 2.73178E-03-2.22033E-04 0.00000E+00
 -1       302 2.74430E-03-2.22354E-04-3.30872E-24
 -1       303 2.75604E-03-2.22663E-04 0.00000E+00
 -1       304 2.76794E-03-2.22972E-04 0.00000E+00
 -1       305 2.78098E-03-2.23297E-04 0.00000E+00
 -1       306 2.75596E-03-3.78600E-04 0.00000E+00
 -1       307 2.81983E-03-7.94414E-04-5.29396E-23
 -1       308 2.86648E-03-1.40005E-03 0.00000E+00
 -1       309 2.89081E-03-2.09901E-03 0.00000E+00
 -1       310 2.92299E-03-2.76556E-03-1.05879E-22
 -1       311 2.98301E-03-3.27682E-03-5.29396E-23
 -1       312 3.04020E-03-3.55275E-03 0.00000E+00
 -1       313 3.03318E-03-3.55654E-03 5.29396E-23
 -1       314 2.88822E-03-3.30115E-03-1.05879E-22
 -1       315 2.56516E-03-2.85164E-03 0.00000E+00
 -1       316 2.08341E-03-2.28469E-03 0.00000E+00
 -1       317 1.50976E-03-1.66926E-03 5.29396E-23
 -1       318 9.58787E-04-1.06549E-03 1.05879E-22
 -1       319 5.38380E-04-5.38184E-04 0.00000E+00
 -1       320 2.91940E-04-1.61483E-04 1.05879E-22
 -1       336 2.98789E-04-4.01706E-06 0.00000E+00
 -1       337 2.85150E-04-4.69368E-06-6.61744E-24
 -1       338 2.69498E-04-5.39813E-06-1.32349E-23
 -1       339 2.51908E-04-6.13129E-06 6.61744E-24
 -1       340 2.32458E-04-6.89760E-06 1.32349E-23
 -1       406 1.79435E-04 9.42943E-07 0.00000E+00
 -1       407 1.80205E-04 1.07738E-06 8.27181E-25
 -1       408 1.81078E-04 1.21165E-06 2.48154E-24
 -1       409 1.82053E-04 1.34559E-06-1.44757E-24
 -1       410 1.83131E-04 1.47892E-06 8.27181E-25
 -1       521 2.83509E-03-3.89969E-04 0.00000E+00
 -1       522 2.89710E-03-8.26802E-04 0.00000E+00
 -1       523 2.93699E-03-1.46156E-03-1.05879E-22
 -1       524 2.95163E-03-2.19078E-03 0.00000E+00
 -1       525 2.97553E-03-2.88550E-03 0.00000E+00
 -1       526 3.03193E-03-3.41994E-03 0.00000E+00
 -1       527 3.08877E-03-3.70689E-03 0.00000E+00
 -1       528 3.07928E-03-3.70861E-03-1.05879E-22
 -1       529 2.92148E-03-3.43819E-03 0.00000E+00
 -1       530 2.57285E-03-2.96909E-03-5.29396E-23
 -1       531 2.05372E-03-2.38196E-03 1.05879E-22
 -1       532 1.43766E-03-1.74839E-03 5.29396E-23
 -1       533 8.45121E-04-1.12580E-03 1.05879E-22
 -1       534 3.89621E-04-5.76590E-04-5.29396E-23
 -1       535 1.21020E-04-1.79503E-04 2.11758E-22
 -1       536 2.10487E-04 2.72089E-05 0.00000E+00
 -1       537 2.08572E-04 8.75993E-05 0.00000E+00
 -1       538 2.05612E-04 1.64228E-04-3.30872E-24
 -1       539 2.02121E-04 2.47752E-04-1.65436E-24
 -1       540 1.98980E-04 3.26676E-04-3.30872E-24
 -1       541 1.96938E-04 3.89528E-04 0.00000E+00
 -1       542 1.95996E-04 4.29560E-04 3.30872E-24
 -1       543 1.95771E-04 4.40171E-04 1.65436E-24
 -1       544 1.95449E-04 4.22135E-04-3.30872E-24
 -1       545 1.94278E-04 3.76446E-04 0.00000E+00
 -1       546 1.92096E-04 3.11224E-04 0.00000E+00
 -1       547 1.89141E-04 2.34712E-04 0.00000E+00
 -1       548 1.86215E-04 1.58576E-04-3.30872E-24
 -1       549 1.84103E-04 9.44839E-05 1.65436E-24
 -1       550 1.83006E-04 5.04608E-05 1.65436E-24
 -1       551 1.86067E-04-8.24893E-06 0.00000E+00
 -1       552 1.57651E-04-8.89564E-06 0.00000E+00
 -1       553 1.26933E-04-9.60453E-06 6.61744E-24
 -1       554 9.48716E-05-1.03546E-05 0.00000E+00
 -1       555 6.24241E-05-1.11184E-05 0.00000E+00
 -1       556 2.03601E-04 1.18518E-05-5.29396E-23
 -1       557 1.97429E-04 2.76937E-05 0.00000E+00
 -1       558 1.92591E-04 4.01310E-05 0.00000E+00
 -1       559 1.88953E-04 4.94738E-05 2.64698E-23
 -1       560 1.86386E-04 5.60327E-05 0.00000E+00
 -1       561 1.84762E-04 6.01208E-05 0.00000E+00
 -1       562 1.83956E-04 6.20526E-05 0.00000E+00
 -1       563 1.83844E-04 6.21433E-05 0.00000E+00
 -1       564 1.84304E-04 6.07090E-05 0.00000E+00
 -1       565 1.85215E-04 5.80667E-05-6.61744E-24
 -1       566 1.86457E-04 5.45338E-05 0.00000E+00
 -1       567 1.87913E-04 5.04280E-05 0.00000E+00
 -1       568 1.89463E-04 4.60674E-05 0.00000E+00
 -1       569 1.90991E-04 4.17698E-05 0.00000E+00
 -1       570 1.92376E-04 3.78533E-05 0.00000E+00
 -1       571 1.82816E-04 3.22778E-05-2.48154E-24
 -1       572 1.82915E-04 3.00842E-05-8.27181E-25
 -1       573 1.83014E-04 2.78407E-05-1.65436E-24
 -1       574 1.83113E-04 2.55636E-05 0.00000E+00
 -1       575 1.83212E-04 2.32693E-05 0.00000E+00
 -1       576 1.83311E-04 2.09743E-05 1.65436E-24
 -1       577 1.83411E-04 1.86951E-05-3.30872E-24
 -1       578 1.83510E-04 1.64482E-05 0.00000E+00
 -1       579 1.83610E-04 1.42500E-05 0.00000E+00
 -1       580 1.83710E-04 1.21172E-05 0.00000E+00
 -1       581 1.83809E-04 1.00661E-05 0.00000E+00
 -1       582 1.83909E-04 8.11331E-06 0.00000E+00
 -1       583 1.84010E-04 6.27523E-06 0.00000E+00
 -1       584 1.84110E-04 4.56819E-06 3.30872E-24
 -1       585 1.84210E-04 3.00832E-06 0.00000E+00
 -1       586 1.84476E-04 3.44455E-05-1.65436E-24
 -1       587 1.86191E-04 3.44846E-05 4.13590E-25
 -1       588 1.87908E-04 3.45234E-05 0.00000E+00
 -1       589 1.89671E-04 3.45615E-05 0.00000E+00
 -1       590 1.91522E-04 3.45983E-05 0.00000E+00
 -1       591 1.83449E-04 3.23714E-05 0.00000E+00
 -1       592 1.84181E-04 3.03174E-05 2.06795E-25
 -1       593 1.84919E-04 2.82494E-05 8.27181E-25
 -1       594 1.85659E-04 2.61722E-05-4.13590E-25
 -1       595 1.86401E-04 2.40905E-05 0.00000E+00
 -1       596 1.87143E-04 2.20090E-05-4.13590E-25
 -1       597 1.87883E-04 1.99323E-05 0.00000E+00
 -1       598 1.88619E-04 1.78652E-05 0.00000E+00
 -1       599 1.89350E-04 1.58122E-05 8.27181E-25
 -1       600 1.90074E-04 1.37780E-05 0.00000E+00
 -1       601 1.90790E-04 1.17673E-05 0.00000E+00
 -1       602 1.91495E-04 9.78477E-06 0.00000E+00
 -1       603 1.92187E-04 7.83501E-06 4.13590E-25
 -1       604 1.92867E-04 5.92283E-06 7.75482E-26
 -1       605 1.93531E-04 4.05278E-06 0.00000E+00
 -1       606 1.84324E-04 4.45905E-07-3.30872E-24
 -1       607 1.84334E-04-6.32364E-07 0.00000E+00
 -1       608 1.84343E-04-1.62948E-06 0.00000E+00
 -1       609 1.84351E-04-2.55114E-06 0.00000E+00
 -1       610 1.84359E-04-3.40312E-06 3.30872E-24
 -1       611 1.84368E-04-4.19124E-06 0.00000E+00
 -1       612 1.84376E-04-4.92131E-06 0.00000E+00
 -1       613 1.84384E-04-5.59918E-06 0.00000E+00
 -1       614 1.84393E-04-6.23069E-06 1.65436E-24
 -1       615 1.84401E-04-6.82166E-06-8.27181E-25
 -1       616 1.84409E-04-7.37795E-06 0.00000E+00
 -1       617 1.84418E-04-7.90537E-06 4.13590E-25
 -1       618 1.84426E-04-8.40978E-06 8.27181E-25
 -1       619 1.84434E-04-8.89700E-06 0.00000E+00
 -1       620 1.84443E-04-9.37287E-06 2.06795E-25
 -1       621 1.85670E-04 1.71434E-06 1.65436E-24
 -1       622 1.87188E-04 1.81854E-06 8.27181E-25
 -1       623 1.88832E-04 1.92252E-06 1.65436E-24
 -1       624 1.90567E-04 2.02617E-06-8.27181E-25
 -1       625 1.92362E-04 2.12954E-06-1.65436E-24
 -1       626 1.84860E-04 4.82766E-07-3.30872E-24
 -1       627 1.85387E-04-5.80651E-07 0.00000E+00
 -1       628 1.85893E-04-1.58792E-06 0.00000E+00
 -1       629 1.86381E-04-2.54739E-06 0.00000E+00
 -1       630 1.86854E-04-3.46746E-06 3.30872E-24
 -1       631 1.87316E-04-4.35653E-06 1.65436E-24
 -1       632 1.87769E-04-5.22299E-06-3.30872E-24
 -1       633 1.88217E-04-6.07526E-06-1.65436E-24
 -1       634 1.88663E-04-6.92172E-06 3.30872E-24
 -1       635 1.89110E-04-7.77078E-06 1.65436E-24
 -1       636 1.89561E-04-8.63085E-06 0.00000E+00
 -1       637 1.90019E-04-9.51033E-06 0.00000E+00
 -1       638 1.90488E-04-1.04176E-05 1.65436E-24
 -1       639 1.90969E-04-1.13612E-05 0.00000E+00
 -1       640 1.91467E-04-1.23494E-05 1.65436E-24
 -1       656 1.85154E-04-1.04198E-05 0.00000E+00
 -1       657 1.86279E-04-1.10198E-05-6.61744E-24
 -1       658 1.87686E-04-1.16185E-05 0.00000E+00
 -1       659 1.89229E-04-1.22168E-05 6.61744E-24
 -1       660 1.90722E-04-1.28169E-05-6.61744E-24
 -1       661 1.84713E-04-1.03593E-05 8.27181E-25
 -1       662 1.85015E-04-1.09682E-05 0.00000E+00
 -1       663 1.85349E-04-1.16646E-05 0.00000E+00
 -1       664 1.85713E-04-1.24418E-05 8.27181E-25
 -1       665 1.86106E-04-1.32940E-05 1.65436E-24
 -1       666 1.86525E-04-1.42152E-05 8.27181E-25
 -1       667 1.86967E-04-1.51995E-05-1.65436E-24
 -1       668 1.87431E-04-1.62413E-05 0.00000E+00
 -1       669 1.87914E-04-1.73351E-05 1.65436E-24
 -1       670 1.88414E-04-1.84755E-05-8.27181E-25
 -1       671 1.88930E-04-1.96572E-05-1.65436E-24
 -1       672 1.89460E-04-2.08749E-05 0.00000E+00
 -1       673 1.90001E-04-2.21237E-05-1.65436E-24
 -1       674 1.90550E-04-2.33986E-05-4.13590E-25
 -1       675 1.91108E-04-2.46943E-05-2.06795E-25
 -1       676 1.84912E-04-2.54907E-05 0.00000E+00
 -1       677 1.86268E-04-2.55948E-05 1.65436E-24
 -1       678 1.87622E-04-2.56988E-05-3.30872E-24
 -1       679 1.88974E-04-2.58026E-05 0.00000E+00
 -1       680 1.90323E-04-2.59063E-05 0.00000E+00
 -1       771 1.85976E-05 1.48293E-05 5.29396E-23
 -1       772 8.54814E-06 3.67718E-05 0.00000E+00
 -1       773 3.04446E-07 5.41688E-05 0.00000E+00
 -1       774-6.25780E-06 6.72786E-05 2.64698E-23
 -1       775-1.12602E-05 7.63692E-05 5.29396E-23
 -1       776-1.48295E-05 8.17261E-05 0.00000E+00
 -1       777-1.70918E-05 8.36443E-05 5.29396E-23
 -1       778-1.81761E-05 8.24329E-05 0.00000E+00
 -1       779-1.82107E-05 7.84095E-05 5.29396E-23
 -1       780-1.73259E-05 7.19030E-05 0.00000E+00
 -1       781-1.56510E-05 6.32492E-05 0.00000E+00
 -1       782-1.33170E-05 5.27927E-05-2.64698E-23
 -1       783-1.04538E-05 4.08826E-05 0.00000E+00
 -1       784-7.19281E-06 2.78744E-05 0.00000E+00
 -1       785-3.66419E-06 1.41266E-05 0.00000E+00
 -1       786 1.93543E-04 3.23779E-05 6.46235E-27
 -1       787 1.93584E-04 3.01748E-05-4.13590E-25
 -1       788 1.93626E-04 2.80137E-05-8.27181E-25
 -1       789 1.93668E-04 2.58862E-05 0.00000E+00
 -1       790 1.93710E-04 2.37878E-05 0.00000E+00
 -1       791 1.93753E-04 2.17136E-05 8.27181E-25
 -1       792 1.93795E-04 1.96614E-05 0.00000E+00
 -1       793 1.93838E-04 1.76289E-05 0.00000E+00
 -1       794 1.93880E-04 1.56160E-05 0.00000E+00
 -1       795 1.93923E-04 1.36224E-05 8.27181E-25
 -1       796 1.93966E-04 1.16501E-05-1.65436E-24
 -1       797 1.94009E-04 9.70072E-06 0.00000E+00
 -1       798 1.94051E-04 7.77858E-06-1.65436E-24
 -1       799 1.94094E-04 5.88791E-06-8.27181E-25
 -1       800 1.94138E-04 4.03610E-06 1.65436E-24
 -1       801 1.47728E-04 3.11333E-05 0.00000E+00
 -1       802 9.31926E-06 1.94254E-05-2.64698E-23
 -1       803-1.08890E-04 9.81620E-06-5.29396E-23
 -1       804-9.64927E-05 6.83292E-06 0.00000E+00
 -1       805-3.18789E-05 2.68454E-06 5.29396E-23
 -1       806 1.94234E-04 3.23090E-05 3.30872E-24
 -1       807 1.94950E-04 3.00131E-05 1.65436E-24
 -1       808 1.95654E-04 2.77486E-05 0.00000E+00
 -1       809 1.96343E-04 2.55196E-05-1.65436E-24
 -1       810 1.97018E-04 2.33302E-05-3.30872E-24
 -1       811 1.97677E-04 2.11843E-05 0.00000E+00
 -1       812 1.98318E-04 1.90860E-05 0.00000E+00
 -1       813 1.98939E-04 1.70391E-05-1.65436E-24
 -1       814 1.99540E-04 1.50475E-05 0.00000E+00
 -1       815 2.00119E-04 1.31152E-05-8.27181E-25
 -1       816 2.00674E-04 1.12462E-05 3.30872E-24
 -1       817 2.01205E-04 9.44422E-06 1.65436E-24
 -1       818 2.01708E-04 7.71325E-06 0.00000E+00
 -1       819 2.02185E-04 6.05718E-06 0.00000E+00
 -1       820 2.02632E-04 4.47985E-06 0.00000E+00
 -1       821 1.94052E-04-1.24998E-07 0.00000E+00
 -1       822 1.93912E-04-3.62222E-06 0.00000E+00
 -1       823 1.93770E-04-7.83606E-06 3.30872E-24
 -1       824 1.93625E-04-1.23371E-05 0.00000E+00
 -1       825 1.93481E-04-1.66183E-05-3.30872E-24
 -1       826 1.93339E-04-2.01740E-05 0.00000E+00
 -1       827 1.93200E-04-2.26959E-05-3.30872E-24
 -1       828 1.93064E-04-2.38823E-05-1.65436E-24
 -1       829 1.92929E-04-2.37946E-05 3.30872E-24
 -1       830 1.92792E-04-2.25024E-05 1.65436E-24
 -1       831 1.92655E-04-2.04026E-05 0.00000E+00
 -1       832 1.92516E-04-1.78976E-05-1.65436E-24
 -1       833 1.92378E-04-1.54998E-05-3.30872E-24
 -1       834 1.92243E-04-1.37211E-05 0.00000E+00
 -1       835 1.92109E-04-1.29055E-05 8.27181E-25
 -1       836 1.95872E-04 2.35578E-06 3.30872E-24
 -1       837 1.97436E-04 2.48402E-06 0.00000E+00
 -1       838 1.98905E-04 2.61220E-06-3.30872E-24
 -1       839 2.00309E-04 2.73968E-06 0.00000E+00
 -1       840 2.01680E-04 2.86699E-06 0.00000E+00
 -1       856 1.91966E-04-1.44557E-05 0.00000E+00
 -1       857 1.91947E-04-1.53846E-05 2.58494E-26
 -1       858 1.91928E-04-1.61986E-05-2.06795E-25
 -1       859 1.91908E-04-1.69189E-05 0.00000E+00
 -1       860 1.91888E-04-1.75668E-05 4.13590E-25
 -1       861 1.91869E-04-1.81635E-05 2.06795E-25
 -1       862 1.91849E-04-1.87304E-05 0.00000E+00
 -1       863 1.91829E-04-1.92887E-05 4.13590E-25
 -1       864 1.91809E-04-1.98600E-05 8.27181E-25
 -1       865 1.91790E-04-2.04655E-05 0.00000E+00
 -1       866 1.91770E-04-2.11265E-05-8.27181E-25
 -1       867 1.91750E-04-2.18644E-05 4.13590E-25
 -1       868 1.91730E-04-2.27004E-05-8.27181E-25
 -1       869 1.91709E-04-2.36556E-05 0.00000E+00
 -1       870 1.91689E-04-2.47511E-05-8.27181E-25
 -1       871 1.93335E-04-1.33958E-05-8.27181E-25
 -1       872 1.94833E-04-1.34042E-05 0.00000E+00
 -1       873 1.96411E-04-1.34133E-05 0.00000E+00
 -1       874 1.97999E-04-1.34232E-05-3.87741E-25
 -1       875 1.99529E-04-1.34336E-05-8.27181E-25
 -1       876 1.92509E-04-1.44411E-05 0.00000E+00
 -1       877 1.93013E-04-1.54243E-05-1.65436E-24
 -1       878 1.93495E-04-1.63483E-05 3.30872E-24
 -1       879 1.93958E-04-1.72206E-05-1.65436E-24
 -1       880 1.94405E-04-1.80487E-05-3.30872E-24
 -1       881 1.94837E-04-1.88398E-05-1.65436E-24
 -1       882 1.95259E-04-1.96016E-05 3.30872E-24
 -1       883 1.95673E-04-2.03412E-05 1.65436E-24
 -1       884 1.96081E-04-2.10660E-05 3.30872E-24
 -1       885 1.96486E-04-2.17835E-05-1.65436E-24
 -1       886 1.96892E-04-2.25010E-05 3.30872E-24
 -1       887 1.97300E-04-2.32259E-05 0.00000E+00
 -1       888 1.97713E-04-2.39656E-05 0.00000E+00
 -1       889 1.98134E-04-2.47276E-05 0.00000E+00
 -1       890 1.98565E-04-2.55193E-05 1.65436E-24
 -1       891 1.93032E-04-2.60653E-05 0.00000E+00
 -1       892 1.94373E-04-2.61229E-05-8.27181E-25
 -1       893 1.95666E-04-2.61804E-05-8.27181E-25
 -1       894 1.96886E-04-2.62377E-05-8.27181E-25
 -1       895 1.98007E-04-2.62947E-05-8.27181E-25
 -1       956 2.02920E-04 1.66538E-06 0.00000E+00
 -1       957 2.02787E-04 4.37675E-07-8.27181E-25
 -1       958 2.02655E-04-7.08867E-07-3.30872E-24
 -1       959 2.02522E-04-1.78565E-06 0.00000E+00
 -1       960 2.02390E-04-2.80413E-06 3.30872E-24
 -1       961 2.02257E-04-3.77578E-06 1.65436E-24
 -1       962 2.02124E-04-4.71211E-06 3.30872E-24
 -1       963 2.01992E-04-5.62462E-06 0.00000E+00
 -1       964 2.01859E-04-6.52483E-06 0.00000E+00
 -1       965 2.01726E-04-7.42423E-06 0.00000E+00
 -1       966 2.01594E-04-8.33436E-06 0.00000E+00
 -1       967 2.01461E-04-9.26672E-06 0.00000E+00
 -1       968 2.01329E-04-1.02328E-05 6.61744E-24
 -1       969 2.01196E-04-1.12441E-05 3.30872E-24
 -1       970 2.01064E-04-1.23120E-05 3.30872E-24
 -1       971 2.00814E-04-1.45834E-05 3.30872E-24
 -1       972 2.00693E-04-1.56253E-05 0.00000E+00
 -1       973 2.00572E-04-1.65835E-05 0.00000E+00
 -1       974 2.00451E-04-1.74689E-05 0.00000E+00
 -1       975 2.00329E-04-1.82922E-05 0.00000E+00
 -1       976 2.00208E-04-1.90642E-05-1.65436E-24
 -1       977 2.00087E-04-1.97958E-05 3.30872E-24
 -1       978 1.99965E-04-2.04978E-05 0.00000E+00
 -1       979 1.99844E-04-2.11810E-05 0.00000E+00
 -1       980 1.99723E-04-2.18564E-05 0.00000E+00
 -1       981 1.99602E-04-2.25347E-05 0.00000E+00
 -1       982 1.99481E-04-2.32268E-05 0.00000E+00
 -1       983 1.99360E-04-2.39436E-05-3.30872E-24
 -1       984 1.99239E-04-2.46958E-05 0.00000E+00
 -1       985 1.99119E-04-2.54944E-05 0.00000E+00
 -3
    1PSTEP                        22          11           1          
  100CL  111 6.62109E-01         409                     0   11           1
 -4  STRESS      6    1
 -5  SXX         1    4    1    1
 -5  SYY         1    4    2    2
 -5  SZZ         1    4    3    3
 -5  SXY         1    4    1    2
 -5  SYZ         1    4    2    3
 -5  SZX         1    4    3    1
 -1         1-5.34089E+06-1.49696E+06-1.12537E+06-1.22996E+06-2.00816E-09-7.02858E-08
 -1         2 1.72235E+06 2.50251E+07 5.74922E+06 7.65613E+06 2.89874E-08-5.71163E-08
 -1         3-1.48181E+03-1.54268E+06 4.02463E+02-2.18511E+03-5.74818E-10-4.62678E-08
 -1         5-7.53380E+01 3.86000E+05 9.91897E+00-1.34051E+00-5.41062E-10-2.53203E-08
 -1         8-5.44073E+05-1.98764E+05-6.31895E+04-2.34574E+05 1.94632E-10 1.00863E-07
 -1         9 1.19345E+07 4.40969E+06 2.92937E+06-1.62856E+05-2.62749E-08-2.34460E-08
 -1        10-2.29458E+03-1.60758E+06-3.90675E+03-1.47883E+04-1.36115E-08-4.82244E-08
 -1        12-7.14453E+01 3.86021E+05 3.26100E+02-9.13969E+00-7.59027E-10 5.14601E-08
 -1        15 8.97420E+02 4.93177E+02 2.90088E+03 7.51019E-01 1.47310E-10-1.00908E-07
 -1        16 2.29171E+07-3.60133E+05 3.11200E+06-2.36770E+06 1.50176E-08 1.64456E-07
 -1        17 8.40602E+06 6.28609E+06 2.26864E+06 6.00966E+06 2.39059E-08 1.55880E-08
 -1        18 1.42063E+05 3.34474E+04 4.12178E+03-1.19413E+05 1.19528E-08-5.25642E-09
 -1        19 1.22892E+05 1.41778E+05-8.92126E+02 2.21942E+04-2.15914E-10 5.31400E-09
 -1        20-8.15878E+04-5.71895E+05-1.28319E+05 2.51337E+04-1.69196E-09-4.46259E-09
 -1        21-4.55146E+01-2.95631E+05-9.22765E+02 2.75072E+02 1.44704E-08-7.28227E-09
 -1        24 1.41530E+07 1.21587E+07 3.91270E+06 1.12554E+07-1.67803E-07-5.12615E-08
 -1        25 1.24657E+05 2.66681E+05 9.98034E+04-6.45613E+05-9.95624E-10-1.02906E-08
 -1        26-5.55059E+04 9.23155E+04-2.46808E+04 1.39684E+03 6.18456E-11-1.36066E-09
 -1        27-7.49348E+04-3.08944E+05-1.13055E+05 6.90968E+04 4.85746E-09-2.29041E-09
 -1        28 2.22148E+04-8.52446E+04 1.68758E+04 2.05812E+04-3.18613E-09 8.12389E-09
 -1        32-1.67871E+06-3.17963E+06-1.97791E+05 4.58394E+05-4.18950E-08-1.00538E-08
 -1        33-1.78248E+05 9.30911E+04 3.23851E+04-3.82697E+04-3.14587E-09 9.28655E-09
 -1        34-2.23355E+05-2.50919E+04 6.87587E+02 7.56416E+04-5.76293E-09 2.50717E-10
 -1        35-2.29111E+04-3.37864E+04-1.34681E+03 5.14246E+04-1.93026E-09 1.17046E-08
 -1        51 6.12659E+04-1.66442E+05 1.29380E+05-4.21052E+05 1.01863E-10-1.19770E-07
 -1        52 2.06503E+04-1.43718E+05 6.77255E+04-4.91106E+05 5.85715E-10-4.71613E-07
 -1        53 4.09519E+03-1.59014E+05 3.50016E+04-4.19624E+05 3.07409E-10-2.16103E-07
 -1        54 7.00869E+03-1.54788E+05 2.82261E+04-4.92490E+05-9.45874E-11-3.79267E-07
 -1        55 1.53139E+04-1.61544E+05 3.37052E+04-4.19556E+05 3.81988E-10 1.42427E-09
 -1        56-9.87097E+06-1.48333E+06-9.60501E+05-4.18602E+06-1.58034E-08-2.00729E-07
 -1        57-1.12914E+07-5.52924E+05-5.32104E+05-2.48718E+06 3.91738E-08 5.17466E-08
 -1        58-9.53298E+06-1.98974E+06-2.03722E+05-4.43530E+06-2.20462E-09 1.04847E-08
 -1        59-1.16485E+07 5.64567E+04-1.01969E+05-2.40657E+06-5.02891E-08-1.36650E-07
 -1        60-9.64670E+06-1.99107E+06-6.35657E+04-4.38338E+06-1.46683E-08-3.22616E-08
 -1        61-1.07409E+07-3.90263E+05 4.11400E+04-2.66493E+06 3.26545E-08-6.00267E-10
 -1        62-1.02261E+07-1.68834E+06-1.15560E+05-4.00219E+06 6.08270E-09 9.84728E-08
 -1        63-9.50828E+06-1.31993E+06 9.42088E+04-3.53118E+06-2.87546E-08 2.36909E-07
 -1        64-1.06990E+07-1.19082E+06-1.06771E+05-3.40643E+06 1.09721E-08-1.73277E-08
 -1        65-9.11350E+06-2.07938E+06 3.56304E+04-4.74643E+06-7.78455E-08-1.05181E-07
 -1        66-1.08231E+07-7.88352E+05-5.02917E+04-2.94143E+06 3.22980E-08-5.08426E-08
 -1        67-9.21477E+06-2.37551E+06-9.12816E+04-5.33611E+06-1.38141E-07 1.74496E-08
 -1        68-1.08030E+07-7.48699E+05-1.91503E+05-2.94004E+06-5.03387E-08 1.20068E-07
 -1        69-9.30758E+06-2.41560E+06-4.68624E+05-4.71717E+06-4.34084E-08 1.24564E-08
 -1        70-1.05363E+07-8.97947E+05-8.88106E+05-3.43989E+06 2.70957E-08-4.16767E-08
 -1        86-1.75834E+06-1.71932E+07-3.15136E+06-3.58458E+06-2.84381E-07-2.08704E-07
 -1        87 2.80873E+06 7.37978E+06 2.61917E+06 6.43813E+06-4.80162E-07-1.27115E-07
 -1        88-5.50955E+05-1.76067E+06 2.53038E+05-2.76700E+06-4.40643E-07-1.19188E-07
 -1        89 3.75668E+06 7.01512E+06 2.68784E+06 6.67052E+06-6.13058E-07-3.22260E-07
 -1        90-2.58979E+06-1.69201E+07-3.39500E+06-3.85576E+06-1.59511E-07 2.13535E-07
 -1       121-2.02960E+03-1.54756E+06-5.46946E+02 1.08298E+03 1.42278E-09-5.60249E-09
 -1       122-1.29821E+03-1.54274E+06 7.62388E+02-4.37456E+03-5.12711E-09 7.64703E-09
 -1       123-2.04944E+03-1.54769E+06 2.52671E+02 3.23457E+03 4.49484E-09 1.50030E-08
 -1       124 3.20553E+02-1.54230E+06 2.91957E+03-9.15968E+03-1.04083E-08 5.22341E-08
 -1       125-2.85059E+03-1.54858E+06 3.41865E+03 5.82233E+03 6.76300E-09 1.87974E-08
 -1       191-7.93899E+01 3.86018E+05 8.40617E+00 6.99043E-01-6.09825E-10-2.18388E-08
 -1       192-7.62960E+01 3.86001E+05 2.11682E+01-4.30169E+00-8.25431E-10 2.33649E-09
 -1       193-8.19113E+01 3.86018E+05 3.60116E+01 3.77888E+00-1.04025E-09-1.88502E-08
 -1       194-7.93674E+01 3.86004E+05 8.04755E+01-9.76296E+00-4.86327E-10-3.64716E-08
 -1       195-8.67510E+01 3.86015E+05 1.54045E+02 6.35378E+00-1.43731E-09-2.28647E-09
 -1       251-8.84312E+05 1.75256E+04-4.08916E+04-1.63425E+04 8.39883E-09-1.75289E-07
 -1       252-8.99706E+05-2.02885E+04-2.84364E+04 5.88754E+04-1.87742E-08-2.39274E-07
 -1       253-8.93572E+05 2.71054E+03-1.10434E+04-1.20120E+04 6.44081E-09 1.11900E-08
 -1       254-8.84123E+05-3.30171E+03-4.72006E+03 4.27929E+04-1.11227E-08-5.38657E-08
 -1       255-8.99123E+05 1.36855E+01-4.03977E+03-2.65008E+02 2.78692E-09-2.93699E-09
 -1       256-8.77033E+05-2.96093E+02 1.70920E+03 1.57756E+04 7.92090E-09 1.33137E-07
 -1       257-9.00056E+05-7.46260E+02-1.84201E+03 1.49886E+04-5.08544E-09-2.36195E-08
 -1       258-8.80433E+05 1.09860E+03 3.24331E+03-1.30703E+04-4.29782E-09-1.10409E-07
 -1       259-8.96010E+05-1.15485E+03 1.12048E+03 2.85763E+04-6.01835E-09-1.86912E-07
 -1       260-8.88960E+05 3.32813E+03 5.73925E+03-3.40559E+04 2.67640E-08 1.47035E-07
 -1       261-8.92351E+05-2.33615E+03 8.57810E+03 3.59976E+04 2.45359E-08 7.34176E-08
 -1       262-8.88656E+05 1.22030E+04 2.13777E+04-4.03105E+04-1.40098E-08-3.07935E-07
 -1       263-8.96653E+05-9.73085E+03 3.37638E+04 3.48451E+04-1.07361E-08 1.20061E-07
 -1       264-8.56899E+05 6.70123E+04 9.39142E+04-2.96565E+04 3.85851E-08 1.93149E-07
 -1       265-9.23486E+05-5.73783E+04 1.30027E+05 2.53251E+04 6.43558E-09 1.57364E-07
 -1       266-1.62465E+04-7.59772E+03 3.81148E+04-1.60680E+01 6.91216E-11 3.57899E-08
 -1       267 1.88339E+04 8.85398E+03 2.69411E+04 1.85411E+01 4.91127E-11-2.55693E-07
 -1       268-2.52560E+03-1.25404E+03 1.00138E+04-2.36236E+00 2.15095E-10-8.17855E-08
 -1       269 2.98198E+03 1.50074E+03 6.50889E+03 2.75190E+00 9.72022E-11-1.05009E-07
 -1       270-4.47595E+02-2.46583E+02 3.14193E+03-3.73448E-01 1.92244E-10 1.62715E-07
 -1       271-1.41546E+06-1.82184E+05-1.06905E+05-5.52152E+05 1.62945E-08 3.72376E-07
 -1       272-1.39881E+06-2.99726E+05-6.66271E+04-5.99940E+05 1.42791E-09 1.85123E-07
 -1       273-1.43836E+06-2.04048E+05-2.61197E+04-5.44065E+05 6.38465E-09 1.05279E-07
 -1       274-1.37346E+06-2.73170E+05-1.32887E+04-6.15850E+05 4.32919E-09 1.02772E-07
 -1       275-1.44403E+06-2.03114E+05-6.61831E+03-5.40168E+05-4.74756E-09-3.09756E-08
 -1       276-1.36841E+06-2.74403E+05-2.62474E+03-6.25208E+05-1.88720E-08-2.97739E-07
 -1       277-1.44697E+06-2.00216E+05-1.86202E+03-5.37350E+05 4.38340E-08 3.27144E-07
 -1       278-1.36666E+06-2.77642E+05-6.10498E+02-6.32060E+05-3.05845E-08 9.46586E-08
 -1       279-1.44883E+06-1.97922E+05-7.94598E+02-5.35404E+05-3.14503E-09-8.18363E-08
 -1       280-1.36594E+06-2.79976E+05-8.01369E+02-6.36471E+05 1.60308E-08 2.20091E-07
 -1       281-1.44979E+06-1.96554E+05-1.49372E+03-5.34348E+05-1.25501E-08 1.18024E-09
 -1       282-1.36632E+06-2.81838E+05-3.45683E+03-6.38168E+05-3.18041E-08-3.74436E-07
 -1       283-1.44936E+06-1.95577E+05-6.16454E+03-5.34277E+05 2.16919E-08-3.18415E-07
 -1       284-1.37189E+06-2.89664E+05-1.67697E+04-6.35937E+05 1.36595E-08-1.04933E-08
 -1       285-1.44392E+06-1.89833E+05-2.62955E+04-5.36004E+05-2.50739E-08 2.25118E-08
 -1       301-1.25495E+04-6.57439E+05 1.65944E+05-1.16235E+06-4.46744E-09 1.37108E-07
 -1       302-1.57572E+04-6.09272E+05 9.98861E+04-1.69582E+06-1.03246E-08 1.09314E-07
 -1       303-2.61877E+04-6.51223E+05 5.61511E+04-1.15908E+06-2.18279E-10-2.99824E-08
 -1       304-3.13145E+04-6.17441E+05 5.60042E+04-1.69535E+06-1.47411E-08-3.19618E-07
 -1       305-3.08054E+04-6.39741E+05 6.81863E+04-1.16215E+06 5.73709E-09-2.07438E-07
 -1       306-3.00125E+07-6.18142E+06-8.56688E+06-4.45709E+05-1.50059E-07-1.19646E-07
 -1       307 2.50028E+07 3.28814E+06 5.46421E+06-1.53244E+07-8.32151E-07-1.82277E-07
 -1       308-6.83480E+06-9.75150E+05-4.05571E+05 5.19056E+06-9.36270E-08 2.92042E-07
 -1       309-3.07406E+06 8.64391E+06 2.29555E+06-2.06954E+07 5.83517E-07 1.19202E-07
 -1       310-1.27795E+07-1.95677E+06-2.09802E+06 5.18876E+06 4.51109E-08-7.09551E-08
 -1       311 3.88901E+07-4.61871E+04 7.33991E+06-8.51939E+06 6.07542E-07-6.79865E-08
 -1       312-3.19546E+07-6.86900E+06-8.57322E+06-5.21662E+06 1.01165E-07-5.46861E-08
 -1       313 4.51384E+07 1.53664E+07 1.06772E+07 2.40409E+07-2.25758E-07-3.92902E-09
 -1       314-1.70061E+07-1.79061E+07-7.49980E+06-1.25037E+07 3.13274E-07 2.77068E-08
 -1       315-2.11619E+06 2.97901E+07 5.63346E+06 1.02636E+07-2.54833E-07-9.72068E-08
 -1       316 1.47726E+06-9.77583E+06-4.04498E+05-2.44607E+06-1.16020E-06-1.55414E-07
 -1       317-1.70459E+07 2.23980E+07 2.24624E+06-8.92124E+06 7.54473E-07-6.81437E-07
 -1       318-1.12177E+06-1.29001E+07-2.08834E+06-4.25689E+06-1.03266E-06 1.99943E-07
 -1       319 7.38736E+06 3.21125E+07 7.08742E+06 1.67418E+07-1.81608E-08 1.85042E-07
 -1       320-2.26588E+07-1.76824E+07-9.88612E+06-1.28405E+07 1.93017E-07-4.91855E-08
 -1       336-7.57128E+02-1.67529E+06-1.37161E+04 8.79693E+03-2.66336E-08-6.41739E-09
 -1       337-5.37139E+03-1.67478E+06-1.78851E+04-2.13834E+04-4.88380E-08 4.23825E-10
 -1       338 2.52799E+02-1.67478E+06-2.81863E+04 1.23362E+04-3.43316E-08 7.81074E-09
 -1       339-2.99176E+04-1.69184E+06-6.36809E+04-2.83201E+04-6.27379E-08 2.02635E-08
 -1       340 1.96736E+04-1.66038E+06-1.00330E+05 1.56033E+04-4.17349E-08 1.07502E-08
 -1       406-4.99008E+01 3.86001E+05 6.40267E+02 3.33931E+00-1.87487E-09 5.69344E-10
 -1       407 1.53421E+02 3.86134E+05 1.36835E+03 2.34399E+01-4.56609E-10-1.98661E-08
 -1       408 6.30577E+02 3.85901E+05 2.72835E+03-2.70932E+01-2.51885E-09 8.35644E-09
 -1       409 2.88902E+03 3.87006E+05 6.14951E+03 2.89213E+02-4.81577E-10 2.59024E-08
 -1       410 8.42846E+03 3.85116E+05 1.25509E+04-2.78780E+02-2.99224E-09 4.52383E-09
 -1       521-3.16775E+07-7.67294E+06-1.00640E+07-4.45981E+04-1.22585E-07 1.47440E-07
 -1       522 2.59957E+07 4.37954E+06 5.60463E+06-1.89146E+07-5.16651E-07 3.15165E-07
 -1       523-7.40466E+06-1.29785E+06-3.97080E+05 5.66092E+06 1.69966E-07 1.25685E-07
 -1       524-6.57278E+06 1.17994E+07 2.49922E+06-2.38463E+07 9.69128E-07-5.44587E-07
 -1       525-1.35934E+07-2.62367E+06-2.31970E+06 5.67082E+06 5.81844E-07-1.98081E-07
 -1       526 4.27217E+07-1.58093E+05 7.73850E+06-1.11848E+07 4.30271E-07 1.62807E-07
 -1       527-3.39366E+07-8.61015E+06-9.93367E+06-5.09578E+06 1.70199E-07 2.84694E-07
 -1       528 4.95099E+07 1.72684E+07 1.11910E+07 2.74989E+07 2.26893E-07 1.73692E-07
 -1       529-1.79780E+07-2.02254E+07-8.64330E+06-1.25664E+07 9.22009E-08 1.05822E-07
 -1       530-4.61012E+06 3.47742E+07 5.99464E+06 9.67183E+06-1.23648E-07 5.77013E-07
 -1       531 1.50223E+06-1.08709E+07-3.74900E+05-2.36213E+06-8.57195E-07 1.11177E-07
 -1       532-1.95260E+07 2.44637E+07 2.47112E+06-1.33484E+07 4.51517E-07-8.37332E-07
 -1       533-1.15587E+06-1.41125E+07-2.24050E+06-4.03632E+06-1.53901E-07-9.66596E-07
 -1       534 5.43561E+06 3.74946E+07 7.41559E+06 1.74103E+07 2.95986E-08 7.81321E-07
 -1       535-2.39203E+07-2.01889E+07-1.13943E+07-1.29570E+07 9.12696E-08 4.91564E-07
 -1       536-7.05626E+05-4.64506E+04-4.86785E+04-5.46308E+04-1.95678E-09 6.34336E-08
 -1       537-5.54133E+04 4.43539E+04 8.34300E+04 1.23759E+05-1.13904E-07 8.58417E-08
 -1       538-3.94384E+05 3.37966E+03 3.40331E+03-7.21596E+04 2.78417E-08 1.13695E-07
 -1       539-2.69217E+05 2.80263E+03 2.47961E+04 1.38653E+05 1.62331E-07 1.33646E-07
 -1       540-4.97196E+05-4.18385E+02-2.13328E+04-7.00591E+04 2.25737E-08 9.65068E-08
 -1       541 1.46052E+05 1.69435E+04 1.06243E+05 9.78555E+04-4.37385E-08 7.34717E-08
 -1       542-7.98464E+05-2.01124E+04-8.41536E+04-3.04885E+04 5.22668E-08 4.82002E-08
 -1       543 4.04469E+05 2.72950E+04 1.57791E+05-1.33535E+04-8.21319E-09-7.23730E-09
 -1       544-7.48682E+05-1.65187E+04-7.47560E+04 4.04815E+04 4.98176E-09-2.79614E-08
 -1       545 2.84957E+04 9.47159E+03 7.97164E+04-1.13544E+05-5.07539E-08-8.03416E-08
 -1       546-4.32588E+05 6.09068E+03-1.22170E+04 6.93563E+04-9.77707E-12-8.05722E-08
 -1       547-2.87251E+05-4.65579E+03 1.05667E+04-1.41495E+05-9.28833E-08-9.08781E-08
 -1       548-4.41424E+05 4.71721E+03-2.38648E+04 6.91227E+04-9.76236E-08-8.45666E-08
 -1       549 4.76719E+04 1.60388E+04 6.04280E+04-1.11403E+05-7.37567E-08-6.13925E-08
 -1       550-7.58549E+05-2.21034E+04-1.28862E+05 3.85494E+04 7.92170E-10-2.92293E-08
 -1       551 4.06239E+04-7.44949E+05-1.59569E+04-1.24502E+06-1.01863E-07-1.70257E-08
 -1       552 9.29596E+04-7.89819E+05 9.83824E+03-1.77517E+06-7.08096E-08 2.92057E-08
 -1       553 7.15474E+04-7.86261E+05 3.19317E+04-1.23838E+06-1.18831E-07 2.11585E-08
 -1       554 1.31698E+05-8.05714E+05 8.08447E+04-1.77712E+06-7.67468E-08 1.51049E-08
 -1       555 1.01256E+05-8.09908E+05 1.47671E+05-1.23821E+06-1.21203E-07-1.91958E-08
 -1       556 2.23544E+05-3.83470E+05 2.51659E+04-4.06909E+05-2.60188E-08-4.39468E-09
 -1       557 3.53891E+05-4.87727E+05 1.58407E+04-5.27328E+05-3.49246E-09-4.79486E-09
 -1       558 2.05305E+05-3.76174E+05 2.20066E+03-4.11406E+05-1.56870E-08 1.73168E-09
 -1       559 3.28980E+05-4.87727E+05 2.37770E+03-5.47753E+05 1.60508E-08-8.16362E-09
 -1       560 1.90018E+05-3.66587E+05-1.52963E+03-4.22421E+05 1.26893E-08-6.18456E-09
 -1       561 3.09781E+05-4.80039E+05 1.16605E+02-5.60846E+05-4.07454E-09 8.78936E-09
 -1       562 1.77933E+05-3.59080E+05-1.33069E+03-4.31171E+05-7.56700E-10-1.35697E-08
 -1       563 2.95429E+05-4.73781E+05-3.97882E+01-5.70220E+05 1.06738E-08 1.55960E-08
 -1       564 1.69309E+05-3.53707E+05-6.01170E+02-4.37282E+05 6.44650E-09 8.12133E-09
 -1       565 2.85909E+05-4.69635E+05 2.31866E+01-5.76302E+05 4.83124E-09 1.68629E-08
 -1       566 1.64268E+05-3.50518E+05-2.60129E+02-4.40808E+05-1.18453E-08 1.79352E-09
 -1       567 2.81284E+05-4.67623E+05-3.62638E+02-5.79111E+05 1.99507E-08 5.74073E-09
 -1       568 1.62902E+05-3.49681E+05-1.12531E+03-4.41859E+05-8.15453E-09-1.19326E-09
 -1       569 2.80164E+05-4.67550E+05-2.84189E+03-5.77681E+05-7.26959E-09 2.09366E-08
 -1       570 1.66301E+05-3.52914E+05-6.21259E+03-4.40840E+05 1.29512E-08 2.01762E-08
 -1       571 2.90238E+05 1.04979E+04 1.49750E+04-9.51442E+04 2.57414E-08 6.55928E-09
 -1       572 2.92408E+05 3.95756E+03 7.33895E+03-1.04383E+05 4.56680E-08 3.59250E-10
 -1       573 2.91100E+05 1.24560E+03 3.26093E+03-9.49680E+04 2.33422E-08 8.99308E-09
 -1       574 2.91314E+05 7.27675E+02 1.63531E+03-1.04607E+05-2.93221E-09-1.01745E-08
 -1       575 2.91194E+05 4.48629E+02 7.71784E+02-9.49439E+04-4.35801E-09-1.18253E-08
 -1       576 2.91178E+05 4.60036E+02 3.95077E+02-1.04637E+05-3.19415E-09 2.25282E-09
 -1       577 2.91234E+05 3.90538E+02 1.97081E+02-9.49406E+04-3.16413E-09-7.96899E-09
 -1       578 2.91209E+05 4.21961E+02 1.13572E+02-1.04641E+05-1.24555E-09-1.31613E-08
 -1       579 2.91306E+05 3.53840E+02 7.75054E+01-9.49402E+04 1.16161E-08 3.18505E-09
 -1       580 2.91311E+05 3.70869E+02 8.92700E+01-1.04637E+05-9.45965E-09 4.32010E-09
 -1       581 2.91420E+05 2.95063E+02 1.34105E+02-9.49462E+04 1.51067E-08-1.98233E-08
 -1       582 2.91485E+05 3.32360E+02 2.72391E+02-1.04575E+05 2.20125E-08-2.54677E-08
 -1       583 2.91561E+05 3.34078E+02 5.22294E+02-9.50027E+04 1.01609E-08-5.08658E-09
 -1       584 2.91856E+05 7.60639E+02 1.18207E+03-1.04099E+05 4.87671E-09-7.16204E-09
 -1       585 2.91591E+05 1.75367E+03 2.39315E+03-9.54219E+04 1.09139E-11 8.35280E-09
 -1       586-3.42355E+03 1.16797E+05-2.91393E+03-2.50512E+05-7.17637E-09-2.42280E-08
 -1       587-1.33974E+03 1.16549E+05 7.72346E+02-2.75707E+05-6.01722E-09-1.39964E-08
 -1       588 3.97143E+02 1.16356E+05 4.75907E+03-2.50374E+05-3.55794E-09-6.60839E-09
 -1       589 5.08260E+03 1.18829E+05 1.23422E+04-2.75474E+05-6.98674E-09-9.06493E-09
 -1       590 1.66048E+04 1.15022E+05 2.58898E+04-2.50806E+05-3.48700E-09 3.68527E-09
 -1       591-7.48607E+04-1.59321E+04-2.25034E+04-3.18848E+04-6.86009E-09 1.00445E-08
 -1       592-7.89528E+04-1.94782E+04-1.21896E+04-3.54973E+04-1.35122E-08 7.17512E-09
 -1       593-7.71112E+04-1.42993E+04-5.07394E+03-3.35349E+04-4.69562E-10-8.35303E-09
 -1       594-7.58458E+04-1.61760E+04-2.53051E+03-3.56148E+04 5.51893E-09 9.40247E-10
 -1       595-7.72827E+04-1.42939E+04-1.16177E+03-3.36099E+04 2.00195E-09 2.86179E-08
 -1       596-7.56331E+04-1.60249E+04-5.90404E+02-3.55895E+04 1.18850E-08 2.26378E-08
 -1       597-7.73043E+04-1.43093E+04-3.21095E+02-3.36127E+04 1.05792E-08-4.98767E-09
 -1       598-7.56121E+04-1.60190E+04-2.57393E+02-3.55823E+04-6.27057E-09-3.88857E-09
 -1       599-7.73030E+04-1.43098E+04-3.27878E+02-3.36124E+04 3.74598E-09-7.06757E-09
 -1       600-7.56332E+04-1.60255E+04-6.08362E+02-3.55873E+04 1.19180E-08-9.65133E-09
 -1       601-7.72784E+04-1.42953E+04-1.19979E+03-3.36089E+04 7.42557E-09-7.35236E-09
 -1       602-7.58528E+04-1.61803E+04-2.61462E+03-3.56096E+04 1.31013E-09-1.73197E-08
 -1       603-7.70984E+04-1.43037E+04-5.24328E+03-3.35323E+04-1.79625E-10-1.19467E-08
 -1       604-7.90810E+04-1.95731E+04-1.25956E+04-3.54634E+04 2.29238E-09 2.78669E-08
 -1       605-7.47529E+04-1.60087E+04-2.32530E+04-3.18466E+04 2.70734E-09 6.78028E-09
 -1       606 2.66565E+04-1.43529E+04-2.57290E+04 2.40868E+04 8.21092E-09 2.70188E-09
 -1       607 2.22604E+04-4.68798E+03-1.28130E+04 2.70685E+04 6.13909E-10-1.29228E-08
 -1       608 2.47657E+04-8.46057E+02-5.73595E+03 2.39174E+04-6.00267E-10-6.76050E-09
 -1       609 2.42854E+04-2.90104E+02-2.89765E+03 2.72834E+04 8.26549E-09 4.56475E-09
 -1       610 2.45516E+04-4.13879E+01-1.38253E+03 2.38973E+04 6.99401E-09-4.17776E-09
 -1       611 2.44762E+04-4.16267E+01-6.97079E+02 2.73067E+04 8.13907E-09 8.57153E-09
 -1       612 2.45043E+04-2.75727E+01-3.31431E+02 2.38953E+04 1.09712E-08 9.69749E-09
 -1       613 2.44876E+04-3.74502E+01-1.48591E+02 2.73094E+04 1.88020E-08 9.42941E-09
 -1       614 2.44820E+04-3.39275E+01-3.50011E+01 2.38946E+04 6.60566E-09 2.32376E-09
 -1       615 2.44822E+04-3.58962E+01 6.18753E+01 2.73098E+04-4.90036E-09-1.14960E-09
 -1       616 2.44645E+04-3.07520E+01 1.85920E+02 2.38948E+04-3.40833E-09-2.77214E-09
 -1       617 2.45045E+04 3.80725E+00 4.24319E+02 2.73093E+04-2.12208E-09 2.95745E-09
 -1       618 2.44276E+04 9.16346E+01 8.55340E+02 2.38951E+04-1.82054E-08-1.09449E-08
 -1       619 2.48064E+04 6.65216E+02 1.92077E+03 2.73087E+04-3.97831E-08-8.56289E-10
 -1       620 2.41434E+04 2.11996E+03 3.86070E+03 2.38967E+04-1.79592E-08-3.36559E-09
 -1       621 5.07853E+02 3.01557E+05 3.86043E+03 4.10590E+04 8.43102E-10 8.12179E-09
 -1       622 6.74217E+02 3.02447E+05 3.43355E+03 5.96078E+04 1.26784E-09 1.64664E-09
 -1       623 1.43116E+02 3.01748E+05 4.13521E+03 4.08732E+04 1.37993E-09 1.09894E-08
 -1       624 2.12620E+03 3.03667E+05 8.02429E+03 5.97907E+04 1.27659E-09 1.46101E-08
 -1       625 2.07729E+03 3.00156E+05 1.40257E+04 4.08699E+04 1.60253E-09 6.26915E-09
 -1       626 2.63807E+05 6.18782E+04 5.40733E+03 1.27753E+05 6.32599E-09-8.96944E-09
 -1       627 2.61467E+05 6.32911E+04 2.61015E+03 1.32151E+05 1.66006E-08-2.93403E-09
 -1       628 2.63948E+05 5.94474E+04 1.10436E+03 1.28666E+05 9.93168E-10-1.66146E-08
 -1       629 2.60800E+05 6.25789E+04 5.40690E+02 1.32392E+05-1.14142E-09-2.27628E-09
 -1       630 2.63964E+05 5.93337E+04 2.50911E+02 1.28704E+05-4.29054E-09-2.39165E-08
 -1       631 2.60731E+05 6.25524E+04 1.34757E+02 1.32393E+05 4.60022E-09-2.00489E-08
 -1       632 2.63961E+05 5.93382E+04 8.81314E+01 1.28700E+05 1.23705E-08 7.62088E-09
 -1       633 2.60722E+05 6.25542E+04 9.73530E+01 1.32390E+05-1.49521E-09-9.11132E-09
 -1       634 2.63956E+05 5.93353E+04 1.56582E+02 1.28699E+05 2.94818E-09 9.20977E-09
 -1       635 2.60737E+05 6.25523E+04 3.16282E+02 1.32395E+05-2.45780E-09 1.81890E-08
 -1       636 2.63947E+05 5.93283E+04 6.38422E+02 1.28699E+05-7.67614E-10 6.98356E-09
 -1       637 2.60874E+05 6.26470E+04 1.40259E+03 1.32397E+05-3.60569E-09-2.21598E-08
 -1       638 2.63896E+05 5.96226E+04 2.88011E+03 1.28565E+05-8.73115E-11-2.73985E-09
 -1       639 2.62389E+05 6.47159E+04 6.81145E+03 1.31969E+05-5.53814E-09-1.33400E-08
 -1       640 2.63663E+05 6.57921E+04 1.41111E+04 1.25956E+05 2.99724E-09 2.05887E-09
 -1       656 6.63855E+04-1.69891E+06-1.60254E+05-2.55516E+03-3.71074E-10-9.62990E-09
 -1       657-8.78274E+04-1.77133E+06-1.32769E+05 5.17180E+03 0.00000E+00 3.51472E-09
 -1       658 2.11664E+04-1.71947E+06-8.17826E+04-4.64315E+03-2.76259E-10-1.03530E-08
 -1       659-9.50056E+04-1.77474E+06-1.42203E+05 6.91509E+03-1.80444E-09-2.90314E-09
 -1       660 7.35477E+04-1.69551E+06-1.76472E+05-4.29843E+03-2.83762E-09 9.45758E-09
 -1       661 1.58309E+05 1.65692E+04 1.66837E+04 6.18878E+04-3.47882E-10 4.06271E-09
 -1       662 1.67765E+05 2.89015E+04 1.12437E+04 5.81184E+04 4.76120E-10 2.00396E-09
 -1       663 1.61586E+05 2.19214E+04 3.93230E+03 6.09365E+04-8.46399E-10-9.27912E-09
 -1       664 1.63964E+05 2.26427E+04 2.35237E+03 5.92806E+04-1.64610E-09-1.43700E-09
 -1       665 1.62084E+05 2.26522E+04 9.27983E+02 6.07911E+04 4.16730E-09 5.44725E-09
 -1       666 1.63376E+05 2.18072E+04 5.43237E+02 5.94702E+04 6.30189E-09 6.19532E-09
 -1       667 1.62171E+05 2.27352E+04 2.88754E+02 6.07546E+04-1.47764E-09-4.07189E-09
 -1       668 1.63279E+05 2.17477E+04 2.94738E+02 5.95234E+04-7.62994E-09-2.44168E-08
 -1       669 1.62179E+05 2.27100E+04 3.99444E+02 6.07383E+04-1.20275E-09 7.20482E-09
 -1       670 1.63376E+05 2.19648E+04 8.70190E+02 5.95264E+04-1.26750E-08-1.08544E-09
 -1       671 1.62074E+05 2.25226E+04 1.54522E+03 6.07496E+04-2.46239E-10-1.14752E-08
 -1       672 1.64277E+05 2.34681E+04 3.95351E+03 5.93081E+04 6.19802E-09-2.50523E-08
 -1       673 1.61283E+05 2.12447E+04 6.62549E+03 6.09419E+04 3.95971E-10-9.66020E-09
 -1       674 1.70583E+05 3.41126E+04 1.89475E+04 5.74555E+04 3.71392E-09-4.18004E-09
 -1       675 1.55809E+05 1.21763E+04 2.81248E+04 6.24904E+04-3.37241E-09 1.39407E-08
 -1       676 2.40844E+01-2.95553E+05-1.11218E+03-1.37540E+02 2.07137E-10 1.01403E-08
 -1       677-2.94191E+02-2.95822E+05-2.03547E+03 2.74859E+02 9.06542E-09-8.68732E-09
 -1       678 1.97323E+02-2.95362E+05-3.59821E+03-1.37229E+02 1.13937E-09 7.33061E-09
 -1       679-3.59826E+03-2.97995E+05-8.54785E+03 2.73673E+02 8.53288E-09 5.15070E-09
 -1       680 2.14837E+03-2.93382E+05-1.37762E+04-1.34838E+02 1.22600E-09 1.37267E-08
 -1       771-3.05851E+06-7.46737E+05-1.66388E+05-1.46445E+06-2.89001E-08-3.00352E-08
 -1       772-2.98149E+06-8.35663E+05-8.57984E+04-1.56725E+06-1.45810E-08 1.14342E-08
 -1       773-3.09005E+06-7.22151E+05-4.37107E+04-1.47904E+06-1.19617E-08 8.90577E-09
 -1       774-2.97191E+06-8.17055E+05-1.95075E+04-1.59302E+06 2.56114E-08-7.82165E-10
 -1       775-3.10650E+06-7.10613E+05-1.45742E+04-1.48610E+06-7.04313E-09 2.28465E-09
 -1       776-2.98426E+06-8.14008E+05-5.45315E+03-1.61251E+06-2.83762E-09 3.34330E-09
 -1       777-3.12077E+06-7.00316E+05-6.43335E+03-1.49232E+06 2.40689E-08 1.49157E-08
 -1       778-2.99716E+06-8.11178E+05-1.82002E+03-1.62925E+06 8.10542E-09 5.74437E-09
 -1       779-3.13304E+06-6.91318E+05-3.21301E+03-1.49764E+06-9.41509E-09-2.00089E-10
 -1       780-3.00852E+06-8.08481E+05-5.32927E+02-1.64289E+06-7.15954E-09 1.00044E-10
 -1       781-3.14279E+06-6.84065E+05-1.24735E+03-1.50180E+06-3.16068E-08-7.07223E-09
 -1       782-3.01727E+06-8.06192E+05 4.51142E+02-1.65296E+06-3.44880E-08-7.92261E-09
 -1       783-3.14966E+06-6.79025E+05 7.03103E+02-1.50471E+06-5.27507E-09-1.10981E-08
 -1       784-3.02212E+06-8.03903E+05 2.90940E+03-1.65917E+06-1.92776E-08 3.83761E-09
 -1       785-3.15372E+06-6.76018E+05 5.13669E+03-1.50656E+06-3.78132E-08 1.09976E-08
 -1       786 1.23103E+05-9.74569E+03 2.25476E+04-3.21343E+02 2.36003E-10 7.24322E-09
 -1       787 1.32882E+05 1.12833E+04 1.59515E+04-1.34408E+02 6.86786E-09 8.97762E-09
 -1       788 1.26874E+05-1.52717E+03 5.83353E+03-2.86258E+02 2.66753E-09 6.06792E-09
 -1       789 1.28490E+05 1.76766E+03 3.66206E+03-1.88172E+02 2.33224E-09 1.32764E-08
 -1       790 1.27496E+05-2.37773E+02 1.48266E+03-2.67595E+02-3.11445E-09 3.61445E-09
 -1       791 1.27762E+05 2.75092E+02 8.56257E+02-2.20097E+02-1.10719E-08 1.22036E-08
 -1       792 1.27602E+05-3.57190E+01 3.62662E+02-2.54335E+02-5.64673E-09 4.66864E-09
 -1       793 1.27636E+05 3.76466E+01 1.80391E+02-2.45015E+02 2.59946E-10 6.27445E-11
 -1       794 1.27622E+05-4.77933E-01 4.60660E+01-2.42678E+02 4.92183E-09 7.00950E-09
 -1       795 1.27598E+05-2.81173E+01-5.99017E+01-2.69296E+02-6.21211E-09 4.24443E-08
 -1       796 1.27639E+05 3.00080E+01-1.66260E+02-2.30054E+02 3.32096E-09 9.45235E-09
 -1       797 1.27502E+05-2.24004E+02-4.55300E+02-2.98236E+02 4.63828E-09-1.04831E-08
 -1       798 1.27719E+05 1.95262E+02-7.39095E+02-2.13738E+02 2.37059E-09-5.29610E-10
 -1       799 1.26941E+05-1.43932E+03-2.03309E+03-3.38600E+02 5.90154E-09 1.40531E-08
 -1       800 1.28200E+05 1.24433E+03-2.87715E+03-1.89691E+02 1.19346E-10-8.59268E-09
 -1       801-1.70706E+05-9.99044E+06-1.39219E+06 1.41374E+06 9.50240E-08-5.05534E-08
 -1       802 7.37103E+05 5.94012E+06 2.17908E+06-1.74499E+06 2.60123E-07-2.45109E-08
 -1       803-5.36055E+05-1.42563E+07-1.88886E+06 8.96733E+05 7.79946E-08 2.56696E-08
 -1       804 2.86797E+05 2.38967E+06 1.53556E+06 6.76946E+05-1.20581E-07-1.02405E-07
 -1       805 1.89280E+05-6.45409E+06-2.86523E+05-1.00253E+06-4.99786E-08-6.82930E-08
 -1       806-3.08618E+05-5.97369E+04-2.28256E+04-1.22345E+05-1.22200E-08 5.75437E-09
 -1       807-3.10406E+05-5.60187E+04-1.12140E+04-1.27893E+05 2.39265E-09 1.92537E-09
 -1       808-3.09245E+05-5.15108E+04-4.75734E+03-1.26234E+05 3.41970E-10-1.60293E-08
 -1       809-3.08048E+05-5.28677E+04-2.32623E+03-1.28168E+05-1.69439E-09-1.61980E-08
 -1       810-3.09339E+05-5.12244E+04-1.06625E+03-1.26406E+05 1.30003E-08 4.54247E-09
 -1       811-3.07866E+05-5.27412E+04-5.30284E+02-1.28133E+05 1.26238E-09-1.24060E-08
 -1       812-3.09353E+05-5.12491E+04-2.68313E+02-1.26405E+05-5.86169E-09-7.90351E-09
 -1       813-3.07841E+05-5.27433E+04-1.74570E+02-1.28114E+05 1.24965E-09 8.46353E-09
 -1       814-3.09346E+05-5.12588E+04-1.73321E+02-1.26401E+05-4.82032E-10-1.45174E-08
 -1       815-3.07844E+05-5.27456E+04-2.79531E+02-1.28106E+05 3.40378E-09 1.43441E-08
 -1       816-3.09325E+05-5.12580E+04-5.29991E+02-1.26397E+05 3.31420E-09 8.98035E-09
 -1       817-3.07934E+05-5.27962E+04-1.13749E+03-1.28095E+05-1.35933E-08-1.12359E-08
 -1       818-3.09256E+05-5.14186E+04-2.32012E+03-1.26322E+05-3.86171E-09-2.59206E-09
 -1       819-3.09204E+05-5.41975E+04-5.45905E+03-1.27793E+05 4.96220E-09-2.06028E-08
 -1       820-3.08818E+05-5.55429E+04-1.11112E+04-1.24561E+05-3.94266E-09-1.48111E-08
 -1       821-3.78869E+05 2.08742E+04-4.85861E+04 2.12105E+03 1.41878E-08 1.79534E-08
 -1       822-3.98601E+05-2.41813E+04-3.41495E+04-4.43295E+03 5.46474E-09-2.36696E-09
 -1       823-3.86345E+05 3.29025E+03-1.25498E+04 3.41738E+03-1.23062E-08 8.13770E-09
 -1       824-3.89578E+05-3.79433E+03-7.85588E+03-5.32883E+03-3.60757E-10-6.50789E-09
 -1       825-3.87898E+05 5.11214E+02-3.28936E+03 3.01705E+03 2.05029E-08 5.91376E-09
 -1       826-3.87156E+05-5.67789E+02-1.74682E+03-3.06324E+03 2.91803E-08 4.22688E-10
 -1       827-3.88743E+05 4.73788E+01-1.18808E+03 1.15164E+03 1.36998E-08-1.06018E-08
 -1       828-3.86461E+05-1.32898E+02-5.90919E+02 1.10313E+03-1.19434E-09 2.63622E-09
 -1       829-3.88581E+05 6.64823E+01-1.17715E+03-1.14935E+03 3.30289E-09-1.12408E-08
 -1       830-3.87507E+05-6.22725E+02-1.88597E+03 4.86109E+03 6.44938E-10 1.38351E-09
 -1       831-3.87719E+05 5.54635E+02-3.37243E+03-2.60634E+03-7.29625E-09 5.85032E-09
 -1       832-3.89660E+05-3.96255E+03-8.16205E+03 6.12478E+03-4.78869E-09 2.18174E-08
 -1       833-3.86444E+05 3.41562E+03-1.30592E+04-2.41309E+03-1.83435E-09 1.96605E-08
 -1       834-3.98665E+05-2.51052E+04-3.53871E+04 4.15873E+03-3.39722E-09 9.51832E-09
 -1       835-3.78697E+05 2.16646E+04-5.04775E+04-6.40203E+02 5.78751E-09 1.76369E-08
 -1       836-1.41417E+03 3.70517E+05 2.29203E+04-1.59566E+04-7.02312E-09-4.15321E-09
 -1       837 4.88670E+03 3.77695E+05 1.93884E+04-3.26148E+04-7.78800E-09 3.39242E-09
 -1       838-5.57738E+02 3.72531E+05 1.97453E+04-1.58854E+04-6.53108E-09-1.94427E-09
 -1       839 1.24234E+04 3.83308E+05 3.73432E+04-3.26675E+04-6.77483E-09-8.58302E-09
 -1       840-3.84033E+03 3.64844E+05 5.95449E+04-1.59096E+04-6.03541E-09-1.79228E-08
 -1       856-5.20818E+04 8.03529E+03-2.11747E+04-3.97714E+02 4.13968E-09-6.55109E-09
 -1       857-6.08052E+04-9.44127E+03-1.45765E+04 5.63895E+03 2.98144E-09-1.21665E-08
 -1       858-5.55365E+04 1.12687E+03-5.49434E+03-4.21852E+02 3.71381E-09-1.41970E-08
 -1       859-5.68406E+04-1.32578E+03-3.31557E+03 5.67485E+03-2.81081E-09-7.06905E-10
 -1       860-5.60526E+04 1.57818E+02-1.38956E+03-4.33349E+02-4.47784E-10-2.54767E-09
 -1       861-5.62469E+04-1.88452E+02-7.64423E+02 5.69052E+03 2.20109E-09-2.28157E-08
 -1       862-5.61334E+04 2.13844E+01-3.17760E+02-4.37499E+02-3.22989E-09-1.13516E-10
 -1       863-5.61480E+04-2.19389E+01-1.15747E+02 5.69296E+03-6.19664E-09 1.75191E-10
 -1       864-5.61521E+04-4.89945E+00 4.72746E+01-4.35787E+02-6.32315E-09-2.78906E-09
 -1       865-5.60921E+04 5.96507E+01 2.55602E+02 5.68311E+03 2.94662E-10-4.42110E-09
 -1       866-5.61870E+04-6.02186E+01 5.15115E+02-4.27647E+02-5.17275E-10-3.94974E-09
 -1       867-5.58499E+04 4.97266E+02 1.26790E+03 5.66100E+03 2.38379E-09-1.94458E-09
 -1       868-5.63894E+04-4.34613E+02 2.10687E+03-4.13674E+02-3.21336E-09-1.26108E-08
 -1       869-5.43053E+04 3.61709E+03 5.60988E+03 5.62459E+03 6.49879E-09-8.53186E-09
 -1       870-5.77238E+04-3.09531E+03 8.14120E+03-3.91135E+02-3.82079E-09-2.23827E-08
 -1       871-5.53754E+03-2.16331E+04-1.95649E+04 1.30337E+05-5.04406E-09-4.89945E-09
 -1       872-1.99036E+03-2.61816E+04-8.20463E+03 1.69004E+05-1.37279E-08-2.58692E-08
 -1       873 4.05000E+02-2.39787E+04 5.62060E+02 1.30051E+05-5.91990E-09 4.64502E-09
 -1       874 3.30025E+03-2.15742E+04 9.74676E+03 1.69031E+05-1.04856E-08 2.11785E-08
 -1       875 6.83322E+03-2.63033E+04 2.20121E+04 1.30291E+05-4.84579E-09-7.46877E-09
 -1       876 2.93430E+05 4.94832E+04 1.50274E+04 1.17804E+05 6.56428E-09 7.98536E-10
 -1       877 2.94399E+05 5.26724E+04 8.02524E+03 1.22143E+05 9.95055E-09-1.50412E-08
 -1       878 2.94836E+05 4.78181E+04 3.36218E+03 1.19035E+05-1.16429E-08-4.07931E-09
 -1       879 2.92356E+05 5.06344E+04 1.67528E+03 1.22245E+05 8.08723E-09 1.22824E-08
 -1       880 2.94937E+05 4.78009E+04 7.80381E+02 1.19085E+05-7.45786E-11 8.85967E-09
 -1       881 2.92220E+05 5.05472E+04 4.16891E+02 1.22222E+05-6.79165E-09-4.61500E-09
 -1       882 2.94946E+05 4.78141E+04 2.66979E+02 1.19086E+05-4.94470E-09-1.30256E-08
 -1       883 2.92211E+05 5.05427E+04 2.87454E+02 1.22214E+05-2.80306E-09 6.50573E-09
 -1       884 2.94939E+05 4.78113E+04 4.57678E+02 1.19087E+05-3.26168E-10 4.99995E-10
 -1       885 2.92247E+05 5.05490E+04 9.20441E+02 1.22225E+05-3.96312E-09-4.31510E-09
 -1       886 2.94903E+05 4.77845E+04 1.85523E+03 1.19083E+05-6.52056E-09-1.60549E-09
 -1       887 2.92573E+05 5.07628E+04 4.05256E+03 1.22272E+05 4.96470E-09-1.23105E-08
 -1       888 2.94647E+05 4.78296E+04 8.16604E+03 1.18953E+05-4.50862E-09-8.61382E-09
 -1       889 2.97435E+05 5.58184E+04 1.95072E+04 1.22123E+05-5.11694E-09 7.86440E-09
 -1       890 2.91314E+05 5.17890E+04 3.65365E+04 1.15846E+05-1.77761E-09 1.33059E-08
 -1       891-8.90928E+01-1.62579E+05-1.99434E+03 2.71127E+04-3.37423E-10-1.62368E-09
 -1       892-1.74920E+02-1.63106E+05-2.14190E+03 4.11725E+04 4.30146E-09-1.53188E-08
 -1       893 4.38450E+01-1.62643E+05-3.03262E+03 2.71200E+04-2.44745E-09 1.42250E-08
 -1       894-1.50812E+03-1.64252E+05-6.27633E+03 4.10201E+04 1.76510E-09 4.33233E-08
 -1       895-1.19772E+03-1.61336E+05-1.10525E+04 2.72669E+04 1.21884E-09 1.65883E-08
 -1       956-3.76840E+05-5.44719E+03-1.34453E+04 3.10378E+04 6.16274E-09-1.07752E-09
 -1       957-3.79478E+05-1.92186E+03-6.90125E+03 3.73004E+04-3.69255E-09-4.56839E-09
 -1       958-3.78048E+05-2.41122E+02-3.10994E+03 3.08693E+04-4.90400E-09-2.72848E-10
 -1       959-3.78245E+05-1.36435E+02-1.58797E+03 3.74969E+04 3.42880E-09-8.14362E-09
 -1       960-3.78166E+05-4.49463E+01-7.74365E+02 3.08519E+04 3.60524E-09 1.26518E-08
 -1       961-3.78165E+05-6.33059E+01-4.10533E+02 3.75174E+04 1.00536E-08 8.09314E-09
 -1       962-3.78194E+05-4.60801E+01-2.35004E+02 3.08490E+04 3.67481E-09-1.21981E-08
 -1       963-3.78165E+05-5.90658E+01-1.88588E+02 3.75211E+04 1.22475E-09-1.62281E-08
 -1       964-3.78200E+05-4.27244E+01-2.29270E+02 3.08483E+04 1.31648E-09-3.22621E-09
 -1       965-3.78177E+05-5.61458E+01-3.96488E+02 3.75204E+04-4.47460E-09 5.35965E-09
 -1       966-3.78183E+05-3.49757E+01-7.44972E+02 3.08498E+04 7.33871E-09 7.57086E-09
 -1       967-3.78266E+05-1.19713E+02-1.52790E+03 3.75059E+04-1.09185E-09 8.53697E-09
 -1       968-3.78079E+05-2.17338E+02-2.99109E+03 3.08625E+04 1.89630E-09-1.65010E-08
 -1       969-3.79465E+05-1.83199E+03-6.64010E+03 3.73564E+04 2.35241E-09-2.79265E-08
 -1       970-3.76925E+05-5.22245E+03-1.29354E+04 3.09907E+04-7.69433E-10 1.82627E-08
 -1       971-3.44996E+05-1.72309E+03-9.28759E+03 1.53008E+04-2.40743E-09-3.07108E-09
 -1       972-3.47232E+05-1.26853E+03-5.05795E+03 2.11605E+04-9.66611E-09-5.68116E-09
 -1       973-3.46031E+05-6.17297E+01-2.26549E+03 1.51804E+04-9.10404E-10 2.50520E-09
 -1       974-3.46166E+05-8.07751E+01-1.17438E+03 2.12968E+04 6.02768E-10 4.71573E-10
 -1       975-3.46113E+05-1.70444E+01-5.87510E+02 1.51681E+04-6.10771E-09-5.61442E-09
 -1       976-3.46104E+05-3.11253E+01-3.39853E+02 2.13125E+04-5.37148E-09 4.05203E-09
 -1       977-3.46129E+05-1.63550E+01-2.48256E+02 1.51647E+04-4.48472E-09-1.70616E-08
 -1       978-3.46110E+05-2.49603E+01-2.92700E+02 2.13173E+04 2.95870E-09 1.47140E-08
 -1       979-3.46129E+05-7.91762E+00-4.72149E+02 1.51633E+04 5.61442E-10-6.48765E-09
 -1       980-3.46145E+05-2.19225E+01-9.12835E+02 2.13183E+04-4.85097E-09-1.45269E-09
 -1       981-3.46100E+05 1.48963E+01-1.76856E+03 1.51638E+04 3.99314E-09-6.84099E-09
 -1       982-3.46388E+05-1.52588E+02-3.65592E+03 2.13117E+04 6.05189E-09-9.67885E-09
 -1       983-3.45877E+05-9.83232E+01-7.10364E+03 1.51698E+04-1.96496E-09-5.44424E-09
 -1       984-3.49805E+05-3.86257E+03-1.59084E+04 2.12264E+04-5.07316E-09-6.64818E-09
 -1       985-3.42661E+05-5.29628E+03-2.92127E+04 1.52409E+04-5.16002E-09-7.41238E-09
 -3
    1PSTEP                        23          12           1          
  100CL  112 6.62659E-01         409                     0   12           1
 -4  DISP        4    1
 -5  D1          1    2    1    0
 -5  D2          1    2    2    0
 -5  D3          1    2    3    0
 -5  ALL         1    2    0    0    1ALL
 -1         1 2.73120E-03 0.00000E+00 0.00000E+00
 -1         2 1.30383E-03 7.63080E-27 5.29396E-23
 -1         3 3.42609E-04-3.60894E-28-1.32349E-23
 -1         5 1.77074E-04-2.87534E-27 3.30872E-24
 -1         8 2.72068E-03-3.97030E-07 0.00000E+00
 -1         9 2.71374E-03-2.08703E-04 0.00000E+00
 -1        10 3.10672E-04-3.38359E-06 0.00000E+00
 -1        12 1.78923E-04 8.09121E-07 8.27181E-25
 -1        15 2.70873E-03-4.19482E-07-1.03398E-25
 -1        16 2.78703E-03-2.10627E-04 0.00000E+00
 -1        17 2.11438E-04-7.72050E-06 0.00000E+00
 -1        18 1.82879E-04 3.44382E-05 0.00000E+00
 -1        19 1.84471E-04 1.61184E-06 0.00000E+00
 -1        20 1.84611E-04-9.85411E-06 0.00000E+00
 -1        21 1.83715E-04-2.54128E-05 0.00000E+00
 -1        24 3.05842E-05-1.19376E-05 0.00000E+00
 -1        25 1.93673E-04 3.46639E-05 0.00000E+00
 -1        26 1.94351E-04 2.23272E-06 0.00000E+00
 -1        27 1.92150E-04-1.34046E-05 0.00000E+00
 -1        28 1.91835E-04-2.60346E-05 0.00000E+00
 -1        32 0.00000E+00 0.00000E+00 0.00000E+00
 -1        33 2.03228E-04 2.98775E-06 0.00000E+00
 -1        34 2.01110E-04-1.34614E-05 0.00000E+00
 -1        35 1.99179E-04-2.63769E-05 0.00000E+00
 -1        51 2.73049E-03-8.38116E-08-3.30872E-24
 -1        52 2.72919E-03-1.49098E-07 3.30872E-24
 -1        53 2.72744E-03-2.10851E-07 0.00000E+00
 -1        54 2.72535E-03-2.71306E-07 8.27181E-25
 -1        55 2.72305E-03-3.32227E-07-3.30872E-24
 -1        56 2.72275E-03 1.03252E-05 0.00000E+00
 -1        57 2.70550E-03 4.22452E-05 0.00000E+00
 -1        58 2.68203E-03 8.90345E-05 0.00000E+00
 -1        59 2.65562E-03 1.42567E-04 5.29396E-23
 -1        60 2.63030E-03 1.93561E-04 0.00000E+00
 -1        61 2.60994E-03 2.32937E-04 0.00000E+00
 -1        62 2.59719E-03 2.53686E-04-1.05879E-22
 -1        63 2.59370E-03 2.50454E-04 0.00000E+00
 -1        64 2.59917E-03 2.22301E-04 0.00000E+00
 -1        65 2.61248E-03 1.70667E-04-5.29396E-23
 -1        66 2.63132E-03 1.01488E-04-1.05879E-22
 -1        67 2.65309E-03 2.24471E-05-5.29396E-23
 -1        68 2.67495E-03-5.68353E-05 0.00000E+00
 -1        69 2.69402E-03-1.26708E-04-5.29396E-23
 -1        70 2.70769E-03-1.79370E-04-1.05879E-22
 -1        86 1.39253E-03-6.52975E-06 0.00000E+00
 -1        87 1.64868E-03-4.13320E-05 0.00000E+00
 -1        88 1.99316E-03-1.01280E-04 5.29396E-23
 -1        89 2.34252E-03-1.62974E-04-1.32349E-23
 -1        90 2.61046E-03-2.00747E-04 5.29396E-23
 -1       121 3.41712E-04-5.46214E-07 1.32349E-23
 -1       122 3.39025E-04-1.09551E-06 0.00000E+00
 -1       123 3.34558E-04-1.65093E-06 0.00000E+00
 -1       124 3.28327E-04-2.21551E-06 0.00000E+00
 -1       125 3.20355E-04-2.79190E-06-1.32349E-23
 -1       191 1.77125E-04 1.34917E-07-1.65436E-24
 -1       192 1.77279E-04 2.69823E-07-8.27181E-25
 -1       193 1.77536E-04 4.04709E-07-1.65436E-24
 -1       194 1.77895E-04 5.39563E-07-4.13590E-25
 -1       195 1.78358E-04 6.74371E-07 8.27181E-25
 -1       251 2.72038E-03 1.58681E-06-6.61744E-24
 -1       252 2.72007E-03 3.45484E-06 0.00000E+00
 -1       253 2.71977E-03 4.15301E-06 6.61744E-24
 -1       254 2.71946E-03 2.64180E-06 0.00000E+00
 -1       255 2.71915E-03-1.78322E-06 6.61744E-24
 -1       256 2.71881E-03-9.79006E-06 0.00000E+00
 -1       257 2.71844E-03-2.15039E-05 0.00000E+00
 -1       258 2.71802E-03-3.70035E-05 0.00000E+00
 -1       259 2.71754E-03-5.57945E-05 6.61744E-24
 -1       260 2.71701E-03-7.73410E-05 0.00000E+00
 -1       261 2.71645E-03-1.00689E-04 0.00000E+00
 -1       262 2.71586E-03-1.24864E-04 0.00000E+00
 -1       263 2.71528E-03-1.48764E-04 0.00000E+00
 -1       264 2.71472E-03-1.71291E-04 0.00000E+00
 -1       265 2.71422E-03-1.91558E-04 0.00000E+00
 -1       266 2.71869E-03-4.06276E-07 0.00000E+00
 -1       267 2.71670E-03-4.09347E-07-4.13590E-25
 -1       268 2.71470E-03-4.12810E-07-4.13590E-25
 -1       269 2.71271E-03-4.15113E-07 0.00000E+00
 -1       270 2.71072E-03-4.17390E-07 0.00000E+00
 -1       271 2.71992E-03-9.18478E-08 1.32349E-23
 -1       272 2.72019E-03-2.61533E-06 0.00000E+00
 -1       273 2.72145E-03-7.79466E-06 0.00000E+00
 -1       274 2.72362E-03-1.54435E-05 6.61744E-24
 -1       275 2.72661E-03-2.53539E-05 0.00000E+00
 -1       276 2.73035E-03-3.73019E-05 0.00000E+00
 -1       277 2.73473E-03-5.10466E-05-1.32349E-23
 -1       278 2.73967E-03-6.63338E-05 0.00000E+00
 -1       279 2.74506E-03-8.28970E-05-1.32349E-23
 -1       280 2.75081E-03-1.00460E-04 6.61744E-24
 -1       281 2.75682E-03-1.18737E-04 1.32349E-23
 -1       282 2.76297E-03-1.37439E-04 6.61744E-24
 -1       283 2.76918E-03-1.56273E-04-1.32349E-23
 -1       284 2.77532E-03-1.74944E-04 6.61744E-24
 -1       285 2.78131E-03-1.93159E-04-1.32349E-23
 -1       301 2.72705E-03-2.09061E-04-6.61744E-24
 -1       302 2.73866E-03-2.09369E-04 0.00000E+00
 -1       303 2.74952E-03-2.09666E-04-1.32349E-23
 -1       304 2.76057E-03-2.09964E-04 0.00000E+00
 -1       305 2.77276E-03-2.10276E-04 0.00000E+00
 -1       306 2.75198E-03-3.64851E-04 0.00000E+00
 -1       307 2.81584E-03-7.80320E-04 0.00000E+00
 -1       308 2.86241E-03-1.38631E-03 0.00000E+00
 -1       309 2.88640E-03-2.08642E-03-5.29396E-23
 -1       310 2.91812E-03-2.75479E-03 1.05879E-22
 -1       311 2.97789E-03-3.26835E-03 0.00000E+00
 -1       312 3.03534E-03-3.54678E-03 1.05879E-22
 -1       313 3.02916E-03-3.55287E-03 0.00000E+00
 -1       314 2.88548E-03-3.29927E-03-1.05879E-22
 -1       315 2.56378E-03-2.85095E-03 0.00000E+00
 -1       316 2.08312E-03-2.28466E-03-1.05879E-22
 -1       317 1.51007E-03-1.66951E-03-5.29396E-23
 -1       318 9.59260E-04-1.06582E-03 1.05879E-22
 -1       319 5.38772E-04-5.38449E-04-5.29396E-23
 -1       320 2.92194E-04-1.61610E-04 0.00000E+00
 -1       336 2.99090E-04-4.03788E-06-1.32349E-23
 -1       337 2.85433E-04-4.71784E-06 6.61744E-24
 -1       338 2.69761E-04-5.42570E-06 0.00000E+00
 -1       339 2.52149E-04-6.16230E-06 6.61744E-24
 -1       340 2.32678E-04-6.93212E-06-1.32349E-23
 -1       406 1.79591E-04 9.43794E-07 8.27181E-25
 -1       407 1.80361E-04 1.07835E-06 8.27181E-25
 -1       408 1.81235E-04 1.21275E-06-2.48154E-24
 -1       409 1.82212E-04 1.34680E-06-1.65436E-24
 -1       410 1.83291E-04 1.48025E-06-4.13590E-25
 -1       521 2.82585E-03-3.76103E-04-1.05879E-22
 -1       522 2.88787E-03-8.12291E-04 0.00000E+00
 -1       523 2.92779E-03-1.44690E-03 0.00000E+00
 -1       524 2.94225E-03-2.17662E-03 0.00000E+00
 -1       525 2.96582E-03-2.87254E-03 0.00000E+00
 -1       526 3.02199E-03-3.40884E-03 5.29396E-23
 -1       527 3.07905E-03-3.69811E-03-2.11758E-22
 -1       528 3.07047E-03-3.70223E-03 5.29396E-23
 -1       529 2.91425E-03-3.43393E-03 0.00000E+00
 -1       530 2.56757E-03-2.96641E-03-5.29396E-23
 -1       531 2.05036E-03-2.38033E-03 1.05879E-22
 -1       532 1.43585E-03-1.74741E-03 0.00000E+00
 -1       533 8.44365E-04-1.12527E-03-1.05879E-22
 -1       534 3.89426E-04-5.76407E-04 0.00000E+00
 -1       535 1.21022E-04-1.79502E-04 0.00000E+00
 -1       536 2.10683E-04 2.72015E-05-6.61744E-24
 -1       537 2.08765E-04 8.76396E-05-1.65436E-24
 -1       538 2.05801E-04 1.64327E-04 0.00000E+00
 -1       539 2.02306E-04 2.47913E-04-1.65436E-24
 -1       540 1.99160E-04 3.26896E-04 3.30872E-24
 -1       541 1.97115E-04 3.89794E-04 0.00000E+00
 -1       542 1.96172E-04 4.29856E-04 0.00000E+00
 -1       543 1.95947E-04 4.40477E-04-1.65436E-24
 -1       544 1.95624E-04 4.22431E-04-3.30872E-24
 -1       545 1.94452E-04 3.76712E-04 0.00000E+00
 -1       546 1.92267E-04 3.11447E-04 0.00000E+00
 -1       547 1.89309E-04 2.34883E-04 1.65436E-24
 -1       548 1.86378E-04 1.58694E-04 0.00000E+00
 -1       549 1.84264E-04 9.45582E-05 1.65436E-24
 -1       550 1.83165E-04 5.05046E-05 0.00000E+00
 -1       551 1.86240E-04-8.28852E-06 0.00000E+00
 -1       552 1.57797E-04-8.93699E-06 0.00000E+00
 -1       553 1.27052E-04-9.64771E-06 6.61744E-24
 -1       554 9.49628E-05-1.03996E-05 0.00000E+00
 -1       555 6.24889E-05-1.11653E-05 0.00000E+00
 -1       556 2.03790E-04 1.18335E-05 0.00000E+00
 -1       557 1.97612E-04 2.76921E-05 0.00000E+00
 -1       558 1.92768E-04 4.01430E-05 0.00000E+00
 -1       559 1.89126E-04 4.94968E-05 0.00000E+00
 -1       560 1.86556E-04 5.60642E-05 0.00000E+00
 -1       561 1.84930E-04 6.01587E-05 0.00000E+00
 -1       562 1.84122E-04 6.20948E-05 0.00000E+00
 -1       563 1.84008E-04 6.21880E-05 0.00000E+00
 -1       564 1.84468E-04 6.07549E-05 0.00000E+00
 -1       565 1.85379E-04 5.81125E-05 0.00000E+00
 -1       566 1.86622E-04 5.45784E-05 0.00000E+00
 -1       567 1.88078E-04 5.04708E-05 0.00000E+00
 -1       568 1.89629E-04 4.61077E-05 1.65436E-24
 -1       569 1.91157E-04 4.18075E-05-8.27181E-25
 -1       570 1.92544E-04 3.78883E-05 0.00000E+00
 -1       571 1.82975E-04 3.23083E-05-3.30872E-24
 -1       572 1.83074E-04 3.01127E-05 8.27181E-25
 -1       573 1.83173E-04 2.78671E-05 0.00000E+00
 -1       574 1.83272E-04 2.55878E-05 8.27181E-25
 -1       575 1.83372E-04 2.32914E-05 3.30872E-24
 -1       576 1.83471E-04 2.09943E-05 0.00000E+00
 -1       577 1.83571E-04 1.87129E-05 0.00000E+00
 -1       578 1.83670E-04 1.64639E-05 0.00000E+00
 -1       579 1.83770E-04 1.42637E-05 0.00000E+00
 -1       580 1.83870E-04 1.21288E-05 3.30872E-24
 -1       581 1.83970E-04 1.00758E-05-6.61744E-24
 -1       582 1.84070E-04 8.12107E-06 0.00000E+00
 -1       583 1.84170E-04 6.28123E-06-6.61744E-24
 -1       584 1.84270E-04 4.57253E-06-3.30872E-24
 -1       585 1.84371E-04 3.01114E-06 6.61744E-24
 -1       586 1.84637E-04 3.44779E-05 0.00000E+00
 -1       587 1.86353E-04 3.45171E-05 4.13590E-25
 -1       588 1.88072E-04 3.45559E-05 0.00000E+00
 -1       589 1.89836E-04 3.45941E-05 0.00000E+00
 -1       590 1.91689E-04 3.46309E-05 0.00000E+00
 -1       591 1.83609E-04 3.24020E-05-1.03398E-25
 -1       592 1.84342E-04 3.03460E-05-2.06795E-25
 -1       593 1.85080E-04 2.82762E-05 0.00000E+00
 -1       594 1.85821E-04 2.61970E-05 4.13590E-25
 -1       595 1.86564E-04 2.41134E-05 0.00000E+00
 -1       596 1.87306E-04 2.20299E-05-4.13590E-25
 -1       597 1.88047E-04 1.99512E-05 8.27181E-25
 -1       598 1.88784E-04 1.78821E-05-4.13590E-25
 -1       599 1.89516E-04 1.58271E-05 0.00000E+00
 -1       600 1.90240E-04 1.37910E-05 0.00000E+00
 -1       601 1.90956E-04 1.17784E-05 8.27181E-25
 -1       602 1.91662E-04 9.79395E-06-2.06795E-25
 -1       603 1.92355E-04 7.84234E-06-8.27181E-25
 -1       604 1.93035E-04 5.92833E-06 5.16988E-26
 -1       605 1.93700E-04 4.05652E-06-4.13590E-25
 -1       606 1.84485E-04 4.46203E-07 0.00000E+00
 -1       607 1.84494E-04-6.33147E-07 0.00000E+00
 -1       608 1.84503E-04-1.63127E-06 0.00000E+00
 -1       609 1.84511E-04-2.55388E-06 0.00000E+00
 -1       610 1.84520E-04-3.40675E-06-3.30872E-24
 -1       611 1.84528E-04-4.19570E-06 0.00000E+00
 -1       612 1.84536E-04-4.92655E-06 0.00000E+00
 -1       613 1.84545E-04-5.60517E-06 0.00000E+00
 -1       614 1.84553E-04-6.23738E-06 0.00000E+00
 -1       615 1.84561E-04-6.82901E-06 0.00000E+00
 -1       616 1.84570E-04-7.38593E-06 0.00000E+00
 -1       617 1.84578E-04-7.91397E-06 0.00000E+00
 -1       618 1.84587E-04-8.41896E-06 0.00000E+00
 -1       619 1.84595E-04-8.90676E-06 0.00000E+00
 -1       620 1.84603E-04-9.38320E-06 2.06795E-25
 -1       621 1.85832E-04 1.71589E-06 1.65436E-24
 -1       622 1.87351E-04 1.82018E-06 8.27181E-25
 -1       623 1.88996E-04 1.92426E-06 3.30872E-24
 -1       624 1.90734E-04 2.02801E-06 8.27181E-25
 -1       625 1.92530E-04 2.13147E-06 1.65436E-24
 -1       626 1.85021E-04 4.83092E-07 0.00000E+00
 -1       627 1.85549E-04-5.81396E-07-3.30872E-24
 -1       628 1.86055E-04-1.58968E-06 0.00000E+00
 -1       629 1.86543E-04-2.55014E-06 0.00000E+00
 -1       630 1.87017E-04-3.47116E-06 3.30872E-24
 -1       631 1.87479E-04-4.36115E-06 1.65436E-24
 -1       632 1.87933E-04-5.22851E-06 0.00000E+00
 -1       633 1.88382E-04-6.08166E-06-1.65436E-24
 -1       634 1.88828E-04-6.92900E-06-3.30872E-24
 -1       635 1.89275E-04-7.77894E-06 1.65436E-24
 -1       636 1.89727E-04-8.63990E-06-3.30872E-24
 -1       637 1.90185E-04-9.52028E-06 0.00000E+00
 -1       638 1.90654E-04-1.04285E-05 0.00000E+00
 -1       639 1.91136E-04-1.13730E-05 1.65436E-24
 -1       640 1.91635E-04-1.23622E-05-1.65436E-24
 -1       656 1.85316E-04-1.04312E-05 6.61744E-24
 -1       657 1.86442E-04-1.10317E-05 0.00000E+00
 -1       658 1.87850E-04-1.16308E-05 1.32349E-23
 -1       659 1.89394E-04-1.22296E-05 0.00000E+00
 -1       660 1.90889E-04-1.28303E-05-6.61744E-24
 -1       661 1.84874E-04-1.03708E-05 8.27181E-25
 -1       662 1.85176E-04-1.09803E-05 0.00000E+00
 -1       663 1.85510E-04-1.16775E-05 0.00000E+00
 -1       664 1.85875E-04-1.24555E-05 8.27181E-25
 -1       665 1.86268E-04-1.33086E-05-1.65436E-24
 -1       666 1.86687E-04-1.42306E-05 0.00000E+00
 -1       667 1.87130E-04-1.52159E-05 0.00000E+00
 -1       668 1.87594E-04-1.62588E-05 0.00000E+00
 -1       669 1.88078E-04-1.73536E-05 1.65436E-24
 -1       670 1.88579E-04-1.84951E-05 8.27181E-25
 -1       671 1.89095E-04-1.96779E-05 0.00000E+00
 -1       672 1.89625E-04-2.08968E-05-8.27181E-25
 -1       673 1.90167E-04-2.21468E-05-1.65436E-24
 -1       674 1.90717E-04-2.34229E-05-4.13590E-25
 -1       675 1.91275E-04-2.47199E-05-2.06795E-25
 -1       676 1.85073E-04-2.55170E-05 0.00000E+00
 -1       677 1.86430E-04-2.56212E-05 0.00000E+00
 -1       678 1.87786E-04-2.57253E-05-3.30872E-24
 -1       679 1.89139E-04-2.58292E-05 0.00000E+00
 -1       680 1.90489E-04-2.59330E-05 0.00000E+00
 -1       771 1.86292E-05 1.47998E-05 0.00000E+00
 -1       772 8.57179E-06 3.67587E-05 5.29396E-23
 -1       773 3.21373E-07 5.41696E-05 5.29396E-23
 -1       774-6.24650E-06 6.72904E-05 0.00000E+00
 -1       775-1.12536E-05 7.63897E-05 0.00000E+00
 -1       776-1.48265E-05 8.17528E-05-2.64698E-23
 -1       777-1.70916E-05 8.36751E-05-5.29396E-23
 -1       778-1.81779E-05 8.24657E-05 2.64698E-23
 -1       779-1.82138E-05 7.84424E-05 0.00000E+00
 -1       780-1.73297E-05 7.19344E-05 0.00000E+00
 -1       781-1.56550E-05 6.32777E-05 0.00000E+00
 -1       782-1.33207E-05 5.28170E-05 0.00000E+00
 -1       783-1.04570E-05 4.09017E-05 0.00000E+00
 -1       784-7.19505E-06 2.78876E-05 2.64698E-23
 -1       785-3.66535E-06 1.41333E-05 0.00000E+00
 -1       786 1.93711E-04 3.24087E-05 0.00000E+00
 -1       787 1.93753E-04 3.02037E-05 4.13590E-25
 -1       788 1.93794E-04 2.80407E-05 0.00000E+00
 -1       789 1.93837E-04 2.59114E-05 0.00000E+00
 -1       790 1.93879E-04 2.38110E-05 0.00000E+00
 -1       791 1.93922E-04 2.17348E-05 8.27181E-25
 -1       792 1.93964E-04 1.96806E-05 0.00000E+00
 -1       793 1.94007E-04 1.76462E-05 8.27181E-25
 -1       794 1.94050E-04 1.56313E-05 0.00000E+00
 -1       795 1.94093E-04 1.36358E-05 0.00000E+00
 -1       796 1.94135E-04 1.16614E-05 0.00000E+00
 -1       797 1.94178E-04 9.71011E-06 0.00000E+00
 -1       798 1.94221E-04 7.78603E-06 1.65436E-24
 -1       799 1.94264E-04 5.89347E-06 0.00000E+00
 -1       800 1.94307E-04 4.03985E-06 1.65436E-24
 -1       801 1.47868E-04 3.11632E-05 0.00000E+00
 -1       802 9.37079E-06 1.94420E-05-2.64698E-23
 -1       803-1.08919E-04 9.82188E-06 0.00000E+00
 -1       804-9.65310E-05 6.83688E-06 0.00000E+00
 -1       805-3.18927E-05 2.68601E-06 0.00000E+00
 -1       806 1.94404E-04 3.23398E-05-3.30872E-24
 -1       807 1.95120E-04 3.00418E-05 0.00000E+00
 -1       808 1.95824E-04 2.77753E-05 0.00000E+00
 -1       809 1.96515E-04 2.55443E-05-1.65436E-24
 -1       810 1.97190E-04 2.33529E-05 0.00000E+00
 -1       811 1.97849E-04 2.12051E-05 0.00000E+00
 -1       812 1.98491E-04 1.91047E-05 0.00000E+00
 -1       813 1.99113E-04 1.70559E-05 0.00000E+00
 -1       814 1.99714E-04 1.50624E-05 0.00000E+00
 -1       815 2.00294E-04 1.31282E-05 8.27181E-25
 -1       816 2.00850E-04 1.12573E-05 1.65436E-24
 -1       817 2.01380E-04 9.45350E-06-1.65436E-24
 -1       818 2.01885E-04 7.72078E-06-1.65436E-24
 -1       819 2.02362E-04 6.06302E-06 8.27181E-25
 -1       820 2.02809E-04 4.48408E-06-1.65436E-24
 -1       821 1.94222E-04-1.30856E-07 0.00000E+00
 -1       822 1.94082E-04-3.64836E-06 1.65436E-24
 -1       823 1.93939E-04-7.89114E-06 0.00000E+00
 -1       824 1.93794E-04-1.24260E-05 1.65436E-24
 -1       825 1.93650E-04-1.67408E-05 0.00000E+00
 -1       826 1.93508E-04-2.03246E-05 1.65436E-24
 -1       827 1.93369E-04-2.28658E-05-3.30872E-24
 -1       828 1.93233E-04-2.40588E-05 0.00000E+00
 -1       829 1.93097E-04-2.39654E-05 3.30872E-24
 -1       830 1.92961E-04-2.26551E-05 0.00000E+00
 -1       831 1.92823E-04-2.05286E-05 3.30872E-24
 -1       832 1.92685E-04-1.79919E-05 0.00000E+00
 -1       833 1.92547E-04-1.55625E-05-3.30872E-24
 -1       834 1.92411E-04-1.37576E-05 0.00000E+00
 -1       835 1.92277E-04-1.29244E-05 8.27181E-25
 -1       836 1.96044E-04 2.35792E-06 3.30872E-24
 -1       837 1.97609E-04 2.48628E-06 0.00000E+00
 -1       838 1.99079E-04 2.61457E-06 0.00000E+00
 -1       839 2.00484E-04 2.74216E-06 8.27181E-25
 -1       840 2.01857E-04 2.86960E-06 0.00000E+00
 -1       856 1.92134E-04-1.44705E-05 0.00000E+00
 -1       857 1.92115E-04-1.54004E-05 0.00000E+00
 -1       858 1.92096E-04-1.62153E-05 2.06795E-25
 -1       859 1.92076E-04-1.69363E-05 0.00000E+00
 -1       860 1.92056E-04-1.75849E-05 0.00000E+00
 -1       861 1.92037E-04-1.81822E-05 0.00000E+00
 -1       862 1.92017E-04-1.87497E-05 0.00000E+00
 -1       863 1.91997E-04-1.93087E-05 0.00000E+00
 -1       864 1.91977E-04-1.98806E-05 0.00000E+00
 -1       865 1.91957E-04-2.04867E-05-4.13590E-25
 -1       866 1.91937E-04-2.11484E-05 0.00000E+00
 -1       867 1.91917E-04-2.18871E-05 4.13590E-25
 -1       868 1.91897E-04-2.27239E-05 0.00000E+00
 -1       869 1.91877E-04-2.36801E-05 4.13590E-25
 -1       870 1.91857E-04-2.47766E-05-8.27181E-25
 -1       871 1.93504E-04-1.34096E-05 0.00000E+00
 -1       872 1.95004E-04-1.34180E-05 0.00000E+00
 -1       873 1.96583E-04-1.34272E-05 4.13590E-25
 -1       874 1.98173E-04-1.34371E-05 2.58494E-26
 -1       875 1.99704E-04-1.34475E-05-6.20385E-25
 -1       876 1.92677E-04-1.44559E-05 0.00000E+00
 -1       877 1.93182E-04-1.54401E-05-1.65436E-24
 -1       878 1.93664E-04-1.63651E-05 0.00000E+00
 -1       879 1.94128E-04-1.72383E-05 0.00000E+00
 -1       880 1.94575E-04-1.80672E-05 0.00000E+00
 -1       881 1.95008E-04-1.88591E-05-1.65436E-24
 -1       882 1.95430E-04-1.96216E-05 0.00000E+00
 -1       883 1.95844E-04-2.03620E-05 0.00000E+00
 -1       884 1.96253E-04-2.10876E-05 0.00000E+00
 -1       885 1.96659E-04-2.18059E-05 0.00000E+00
 -1       886 1.97064E-04-2.25241E-05-3.30872E-24
 -1       887 1.97473E-04-2.32498E-05 0.00000E+00
 -1       888 1.97886E-04-2.39902E-05 3.30872E-24
 -1       889 1.98307E-04-2.47530E-05-1.65436E-24
 -1       890 1.98739E-04-2.55455E-05 0.00000E+00
 -1       891 1.93201E-04-2.60921E-05-1.65436E-24
 -1       892 1.94544E-04-2.61498E-05 0.00000E+00
 -1       893 1.95838E-04-2.62073E-05 8.27181E-25
 -1       894 1.97058E-04-2.62646E-05 4.13590E-25
 -1       895 1.98180E-04-2.63217E-05-4.13590E-25
 -1       956 2.03097E-04 1.66674E-06 1.65436E-24
 -1       957 2.02965E-04 4.37776E-07-1.65436E-24
 -1       958 2.02832E-04-7.09945E-07 0.00000E+00
 -1       959 2.02700E-04-1.78784E-06 0.00000E+00
 -1       960 2.02567E-04-2.80737E-06 3.30872E-24
 -1       961 2.02434E-04-3.78003E-06 1.65436E-24
 -1       962 2.02301E-04-4.71731E-06-3.30872E-24
 -1       963 2.02169E-04-5.63076E-06 1.65436E-24
 -1       964 2.02036E-04-6.53189E-06 3.30872E-24
 -1       965 2.01903E-04-7.43221E-06 1.65436E-24
 -1       966 2.01770E-04-8.34325E-06-3.30872E-24
 -1       967 2.01638E-04-9.27654E-06 0.00000E+00
 -1       968 2.01505E-04-1.02436E-05 0.00000E+00
 -1       969 2.01373E-04-1.12558E-05 3.30872E-24
 -1       970 2.01240E-04-1.23248E-05 3.30872E-24
 -1       971 2.00990E-04-1.45984E-05 0.00000E+00
 -1       972 2.00869E-04-1.56413E-05 0.00000E+00
 -1       973 2.00748E-04-1.66005E-05 3.30872E-24
 -1       974 2.00626E-04-1.74867E-05 0.00000E+00
 -1       975 2.00505E-04-1.83108E-05 0.00000E+00
 -1       976 2.00384E-04-1.90836E-05-1.65436E-24
 -1       977 2.00262E-04-1.98160E-05 0.00000E+00
 -1       978 2.00141E-04-2.05187E-05 0.00000E+00
 -1       979 2.00020E-04-2.12027E-05-3.30872E-24
 -1       980 1.99898E-04-2.18788E-05 0.00000E+00
 -1       981 1.99777E-04-2.25578E-05 0.00000E+00
 -1       982 1.99656E-04-2.32506E-05 0.00000E+00
 -1       983 1.99535E-04-2.39682E-05 3.30872E-24
 -1       984 1.99414E-04-2.47212E-05 0.00000E+00
 -1       985 1.99294E-04-2.55206E-05 3.30872E-24
 -3
    1PSTEP                        24          12           1          
  100CL  112 6.62659E-01         409                     0   12           1
 -4  STRESS      6    1
 -5  SXX         1    4    1    1
 -5  SYY         1    4    2    2
 -5  SZZ         1    4    3    3
 -5  SXY         1    4    1    2
 -5  SYZ         1    4    2    3
 -5  SZX         1    4    3    1
 -1         1-5.34835E+06-1.54300E+06-1.13039E+06-1.28828E+06 5.52973E-10-1.63855E-08
 -1         2 1.60629E+06 2.34565E+07 5.42343E+06 7.12964E+06 2.94240E-08 1.02344E-07
 -1         3-1.48628E+03-1.55085E+06 4.04270E+02-2.19991E+03-5.72822E-10 2.69938E-09
 -1         5-7.54851E+01 3.86349E+05 9.92873E+00-1.34411E+00-5.91378E-10-8.88031E-09
 -1         8-5.47859E+05-1.99329E+05-6.25884E+04-2.39327E+05 1.37334E-10-9.17498E-09
 -1         9 1.18672E+07 4.12454E+06 2.86299E+06-2.49522E+05 2.27010E-09 1.09198E-07
 -1        10-2.30079E+03-1.61609E+06-3.92820E+03-1.48872E+04-1.37261E-08-3.37874E-08
 -1        12-7.15890E+01 3.86371E+05 3.26426E+02-9.16197E+00-5.37796E-10 2.24736E-09
 -1        15 9.12109E+02 5.01250E+02 2.94836E+03 7.85845E-01-1.98241E-11 7.34281E-08
 -1        16 2.29354E+07-3.45409E+05 3.11804E+06-2.32691E+06 3.44395E-08-4.79631E-08
 -1        17 8.40417E+06 6.29316E+06 2.26936E+06 6.01817E+06 2.19559E-08 1.93249E-08
 -1        18 1.42360E+05 3.35225E+04 4.16900E+03-1.19519E+05 1.54766E-08-5.10227E-09
 -1        19 1.22995E+05 1.41906E+05-8.92394E+02 2.22108E+04-1.60617E-10-7.34690E-09
 -1        20-8.16528E+04-5.72367E+05-1.28425E+05 2.51538E+04-1.65195E-09-1.27608E-08
 -1        21-4.55502E+01-2.95876E+05-9.23532E+02 2.75564E+02 1.63284E-08-3.27257E-09
 -1        24 1.41170E+07 1.21447E+07 3.90536E+06 1.12433E+07-1.65591E-07-5.13780E-08
 -1        25 1.25084E+05 2.68074E+05 1.00178E+05-6.46328E+05-1.92958E-09 4.44816E-09
 -1        26-5.54961E+04 9.24154E+04-2.46881E+04 1.38655E+03-1.85537E-11 8.52509E-09
 -1        27-7.49733E+04-3.09194E+05-1.13142E+05 6.91565E+04 4.44379E-09-7.83621E-09
 -1        28 2.22329E+04-8.53151E+04 1.68897E+04 2.05988E+04-6.62578E-09-2.94909E-09
 -1        32-1.67986E+06-3.18122E+06-1.97718E+05 4.59132E+05-4.28845E-08-9.93987E-09
 -1        33-1.78387E+05 9.31746E+04 3.24130E+04-3.83149E+04-2.88154E-09 1.91203E-08
 -1        34-2.23538E+05-2.51135E+04 6.88100E+02 7.57046E+04-4.98519E-09 1.53483E-08
 -1        35-2.29300E+04-3.38143E+04-1.34794E+03 5.14672E+04-5.56753E-10 5.32236E-09
 -1        51 6.10580E+04-1.68869E+05 1.29016E+05-4.28471E+05-4.36557E-11-5.76401E-08
 -1        52 2.06141E+04-1.46255E+05 6.75895E+04-4.99742E+05 1.05501E-10 2.82307E-08
 -1        53 4.13055E+03-1.61587E+05 3.50203E+04-4.27009E+05 3.00133E-10 6.89688E-08
 -1        54 7.15366E+03-1.57366E+05 2.84218E+04-5.01166E+05 2.21917E-10-2.63390E-08
 -1        55 1.56132E+04-1.64223E+05 3.41550E+04-4.26930E+05 3.92902E-10 2.49100E-07
 -1        56-9.83763E+06-1.43136E+06-9.39489E+05-4.14160E+06-4.44998E-08-6.11180E-08
 -1        57-1.11984E+07-6.81349E+05-5.40266E+05-2.59576E+06 2.96277E-08 4.35684E-08
 -1        58-9.56915E+06-1.91989E+06-2.02702E+05-4.36442E+06-1.57597E-08 1.38658E-07
 -1        59-1.14690E+07-1.06356E+05-1.05161E+05-2.51664E+06-2.94194E-08-2.03327E-07
 -1        60-9.67354E+06-1.92243E+06-6.06699E+04-4.31421E+06-4.88217E-08-2.67901E-08
 -1        61-1.06828E+07-5.02130E+05 2.88304E+04-2.77424E+06-3.07882E-08 1.98972E-07
 -1        62-1.01790E+07-1.64356E+06-9.66156E+04-3.96485E+06-1.52068E-08 5.18266E-08
 -1        63-9.60511E+06-1.33257E+06 7.48747E+04-3.56773E+06-6.86705E-08 7.02275E-08
 -1        64-1.06059E+07-1.19592E+06-8.90901E+04-3.43023E+06-1.05792E-08 4.86907E-08
 -1        65-9.21312E+06-2.02368E+06 2.45305E+04-4.64111E+06-4.25498E-08 4.86652E-08
 -1        66-1.07363E+07-8.37632E+05-4.87869E+04-3.01705E+06-1.41154E-09 2.36776E-07
 -1        67-9.26902E+06-2.30388E+06-9.44136E+04-5.15693E+06-4.16730E-08-7.85076E-09
 -1        68-1.07163E+07-7.98070E+05-1.89390E+05-3.01607E+06-4.00287E-08-1.16313E-07
 -1        69-9.40682E+06-2.36181E+06-4.78179E+05-4.60986E+06-3.90992E-08 3.08355E-08
 -1        70-1.04425E+07-9.01826E+05-8.65875E+05-3.46465E+06 2.77323E-08 3.70201E-08
 -1        86-1.63938E+06-1.64035E+07-2.97072E+06-3.34334E+06-2.80168E-07-1.07248E-08
 -1        87 2.59799E+06 6.84276E+06 2.47001E+06 6.09139E+06-4.69692E-07-1.95090E-07
 -1        88-4.99527E+05-1.85819E+06 2.36114E+05-2.66672E+06-4.21929E-07-1.28681E-07
 -1        89 3.47671E+06 6.51289E+06 2.53316E+06 6.30350E+06-6.47095E-07-1.13214E-07
 -1        90-2.41311E+06-1.61573E+07-3.20366E+06-3.58919E+06-1.63807E-07 9.66538E-08
 -1       121-2.03582E+03-1.55574E+06-5.47910E+02 1.09034E+03 1.45786E-09 5.69707E-09
 -1       122-1.30148E+03-1.55091E+06 7.66072E+02-4.40405E+03-5.14662E-09-2.00962E-08
 -1       123-2.05558E+03-1.55588E+06 2.55957E+02 3.25645E+03 4.35352E-09-2.67828E-08
 -1       124 3.26507E+02-1.55046E+06 2.93456E+03-9.21839E+03-1.03582E-08-2.93130E-08
 -1       125-2.86062E+03-1.55677E+06 3.43858E+03 5.85876E+03 6.52653E-09-1.94777E-08
 -1       191-7.95445E+01 3.86367E+05 8.41076E+00 7.00925E-01-6.14047E-10-7.97445E-09
 -1       192-7.64441E+01 3.86350E+05 2.11892E+01-4.31037E+00-8.40036E-10 4.03816E-09
 -1       193-8.20687E+01 3.86367E+05 3.60438E+01 3.78619E+00-1.07678E-09-3.89264E-09
 -1       194-7.95187E+01 3.86353E+05 8.05558E+01-9.78144E+00-5.49214E-10-1.24492E-08
 -1       195-8.69134E+01 3.86364E+05 1.54195E+02 6.36602E+00-1.62533E-09 3.13594E-09
 -1       251-8.65602E+05 1.65291E+04-3.85738E+04-1.49995E+04-4.07328E-09 6.08816E-09
 -1       252-8.80086E+05-1.91351E+04-2.68169E+04 5.34752E+04 4.24205E-09-1.91285E-08
 -1       253-8.74321E+05 2.53997E+03-1.04166E+04-1.06308E+04-5.92308E-10 2.57792E-08
 -1       254-8.65922E+05-3.09325E+03-4.53957E+03 3.82175E+04 2.60536E-09-4.92373E-08
 -1       255-8.79091E+05 3.44240E+01-3.69975E+03 2.53827E+02-3.03248E-09-2.48069E-07
 -1       256-8.60012E+05-2.76490E+02 1.38897E+03 1.34677E+04 1.16447E-08 3.84346E-07
 -1       257-8.79739E+05-6.41931E+02-1.54263E+03 1.41057E+04-2.17710E-09 6.08689E-08
 -1       258-8.63113E+05 9.86526E+02 2.90290E+03-1.26134E+04-1.20338E-09 2.30991E-07
 -1       259-8.76260E+05-1.02080E+03 1.29715E+03 2.63320E+04-5.11977E-09-1.14199E-07
 -1       260-8.70264E+05 3.09625E+03 5.65578E+03-3.14550E+04 1.16781E-08-4.52516E-07
 -1       261-8.73291E+05-2.21006E+03 8.67428E+03 3.29661E+04 1.75247E-08-4.73001E-08
 -1       262-8.69267E+05 1.19983E+04 2.15684E+04-3.69966E+04 8.27759E-09 7.73564E-08
 -1       263-8.77539E+05-9.67109E+03 3.41388E+04 3.18848E+04 1.24477E-08 1.35757E-07
 -1       264-8.38185E+05 6.73762E+04 9.46601E+04-2.73176E+04 1.35436E-08 1.97555E-07
 -1       265-9.03832E+05-5.77534E+04 1.31567E+05 2.32727E+04-6.56428E-10 1.80291E-07
 -1       266-1.65124E+04-7.72205E+03 3.87388E+04-1.68131E+01-8.54925E-11 1.61698E-07
 -1       267 1.91422E+04 8.99892E+03 2.73821E+04 1.94007E+01-5.82077E-11-2.18307E-07
 -1       268-2.56694E+03-1.27456E+03 1.01777E+04-2.47189E+00 2.07820E-10-5.53451E-08
 -1       269 3.03079E+03 1.52531E+03 6.61543E+03 2.87950E+00 1.81899E-11-2.20762E-07
 -1       270-4.54922E+02-2.50620E+02 3.19336E+03-3.90765E-01-1.27443E-10-1.65717E-07
 -1       271-1.44632E+06-1.85090E+05-1.09097E+05-5.63483E+05 3.43025E-08 2.52199E-07
 -1       272-1.43585E+06-3.00557E+05-6.82714E+04-6.06615E+05-1.74696E-08-2.13313E-08
 -1       273-1.46953E+06-2.07846E+05-2.65506E+04-5.55431E+05 1.45737E-08-2.48947E-08
 -1       274-1.40978E+06-2.73050E+05-1.36682E+04-6.22128E+05 1.43045E-08-5.89089E-08
 -1       275-1.47516E+06-2.07170E+05-6.66867E+03-5.51604E+05 2.71029E-09 2.02103E-07
 -1       276-1.40443E+06-2.74127E+05-2.73319E+03-6.31092E+05-2.49238E-08 2.48145E-07
 -1       277-1.47803E+06-2.04415E+05-1.86064E+03-5.48836E+05 9.24592E-09 2.30363E-07
 -1       278-1.40246E+06-2.77342E+05-6.61206E+02-6.37666E+05-4.17003E-09-2.35787E-09
 -1       279-1.47985E+06-2.02202E+05-8.27567E+02-5.46910E+05-3.23871E-08 2.24545E-08
 -1       280-1.40160E+06-2.79705E+05-8.93281E+02-6.41936E+05 2.01690E-08 2.81399E-07
 -1       281-1.48081E+06-2.00848E+05-1.65635E+03-5.45848E+05-1.62099E-08 3.32044E-08
 -1       282-1.40197E+06-2.81716E+05-3.84327E+03-6.43625E+05 3.05142E-08 4.31037E-08
 -1       283-1.48034E+06-1.99750E+05-6.84601E+03-5.45754E+05-1.84345E-08-3.12757E-08
 -1       284-1.40814E+06-2.90549E+05-1.86374E+04-6.41416E+05-3.01523E-08-4.81364E-07
 -1       285-1.47445E+06-1.93154E+05-2.91579E+04-5.47513E+05-2.60961E-08-3.66101E-07
 -1       301-9.93561E+03-6.53058E+05 1.66432E+05-1.15114E+06 1.02591E-08-1.95854E-07
 -1       302-1.24271E+04-6.05574E+05 1.00166E+05-1.67982E+06-1.38243E-10-1.69257E-07
 -1       303-2.40418E+04-6.46248E+05 5.64279E+04-1.14793E+06-5.83532E-09-1.15779E-08
 -1       304-2.81389E+04-6.13227E+05 5.64928E+04-1.67929E+06 3.24508E-09 4.37634E-07
 -1       305-2.85482E+04-6.34849E+05 6.90690E+04-1.15102E+06 1.23182E-08-8.48668E-08
 -1       306-3.00974E+07-6.20587E+06-8.59736E+06-4.69124E+05-7.69505E-08-1.65019E-07
 -1       307 2.51840E+07 3.29435E+06 5.49308E+06-1.53067E+07-8.39631E-07 1.95490E-07
 -1       308-6.88063E+06-9.99236E+05-4.23482E+05 5.20545E+06-2.93978E-07-1.60071E-08
 -1       309-3.14282E+06 8.71380E+06 2.29729E+06-2.07115E+07 4.44066E-07-1.26231E-07
 -1       310-1.27106E+07-1.95934E+06-2.07968E+06 5.21077E+06 1.20141E-07 6.15692E-08
 -1       311 3.87989E+07-1.90341E+04 7.33083E+06-8.64155E+06 4.78001E-07-3.26545E-08
 -1       312-3.19926E+07-6.84354E+06-8.57587E+06-5.15639E+06 2.37837E-07 2.49653E-07
 -1       313 4.53302E+07 1.52747E+07 1.06931E+07 2.40030E+07-1.92929E-07 3.07627E-08
 -1       314-1.71012E+07-1.78981E+07-7.52286E+06-1.25322E+07 5.97560E-07 1.15018E-07
 -1       315-2.01093E+06 2.98326E+07 5.65680E+06 1.03788E+07-9.87056E-08 3.18978E-08
 -1       316 1.45661E+06-9.81021E+06-4.18175E+05-2.46920E+06-1.25302E-06-4.80417E-07
 -1       317-1.70750E+07 2.24385E+07 2.24954E+06-8.91552E+06 5.99044E-07-7.51606E-07
 -1       318-1.10027E+06-1.28802E+07-2.07668E+06-4.24748E+06-9.74891E-07 1.96276E-07
 -1       319 7.34351E+06 3.21304E+07 7.08405E+06 1.67262E+07-1.17754E-07 2.81812E-07
 -1       320-2.26638E+07-1.77008E+07-9.89230E+06-1.28501E+07 1.79163E-07-6.04196E-08
 -1       336-7.53443E+02-1.68414E+06-1.37859E+04 8.85877E+03-2.61916E-08-2.12676E-08
 -1       337-5.39219E+03-1.68366E+06-1.79826E+04-2.15268E+04-4.86546E-08-3.33785E-08
 -1       338 2.62831E+02-1.68363E+06-2.83353E+04 1.24170E+04-3.42889E-08-1.75569E-08
 -1       339-3.00720E+04-1.70081E+06-6.40286E+04-2.84991E+04-6.32272E-08 1.64982E-09
 -1       340 1.97908E+04-1.66916E+06-1.00871E+05 1.57003E+04-4.17567E-08 2.28538E-08
 -1       406-5.00266E+01 3.86350E+05 6.40903E+02 3.35093E+00-1.84912E-09-4.47471E-09
 -1       407 1.53503E+02 3.86484E+05 1.36972E+03 2.34453E+01-5.35380E-10 2.64845E-09
 -1       408 6.31132E+02 3.86250E+05 2.73107E+03-2.71102E+01-2.38992E-09 8.70568E-09
 -1       409 2.89184E+03 3.87356E+05 6.15565E+03 2.89474E+02-4.06089E-10-1.36215E-08
 -1       410 8.43681E+03 3.85464E+05 1.25634E+04-2.79057E+02-2.99769E-09-2.09893E-08
 -1       521-3.17166E+07-7.68731E+06-1.00788E+07-7.04445E+04-1.24332E-07-7.98609E-08
 -1       522 2.61291E+07 4.36488E+06 5.62137E+06-1.88704E+07-4.90109E-07 5.12227E-08
 -1       523-7.45077E+06-1.31862E+06-4.14884E+05 5.66731E+06 6.06815E-08-4.40254E-07
 -1       524-6.64814E+06 1.18402E+07 2.49487E+06-2.38292E+07 6.05331E-07-3.48271E-07
 -1       525-1.35161E+07-2.61568E+06-2.29431E+06 5.68119E+06 3.45754E-07-3.55765E-07
 -1       526 4.25206E+07-1.23626E+05 7.71515E+06-1.13037E+07 1.61992E-07-1.18744E-07
 -1       527-3.39238E+07-8.57124E+06-9.91712E+06-5.02800E+06 1.17347E-07 8.45466E-08
 -1       528 4.96339E+07 1.71120E+07 1.11866E+07 2.73947E+07-1.66881E-07 2.91038E-08
 -1       529-1.80608E+07-2.01784E+07-8.65278E+06-1.25800E+07-1.57335E-07-1.68453E-07
 -1       530-4.50339E+06 3.47529E+07 6.00681E+06 9.80063E+06 7.73580E-08 3.62576E-07
 -1       531 1.47246E+06-1.08959E+07-3.89244E+05-2.39499E+06-8.05288E-07 3.14729E-07
 -1       532-1.95640E+07 2.44788E+07 2.46833E+06-1.33029E+07 4.59622E-07-6.52362E-07
 -1       533-1.13770E+06-1.40685E+07-2.22161E+06-4.03448E+06-2.88273E-07-9.90229E-07
 -1       534 5.36783E+06 3.74272E+07 7.39677E+06 1.73587E+07-8.46048E-08 7.83941E-07
 -1       535-2.38943E+07-2.01682E+07-1.13789E+07-1.29465E+07 1.14203E-07 4.72879E-07
 -1       536-7.06110E+05-4.66184E+04-4.85048E+04-5.46940E+04 1.40062E-10 5.31209E-08
 -1       537-5.49264E+04 4.45363E+04 8.37107E+04 1.23873E+05-1.04548E-07 9.92213E-08
 -1       538-3.94406E+05 3.36758E+03 3.47052E+03-7.22157E+04 4.55341E-08 1.11664E-07
 -1       539-2.69041E+05 2.82914E+03 2.48723E+04 1.38767E+05 1.62032E-07 1.14779E-07
 -1       540-4.97375E+05-4.24558E+02-2.13503E+04-7.01227E+04 4.08727E-09 1.04781E-07
 -1       541 1.46800E+05 1.69722E+04 1.06403E+05 9.79511E+04 7.87418E-09 8.61710E-08
 -1       542-7.99042E+05-2.01402E+04-8.42657E+04-3.05244E+04 6.08457E-08 4.06062E-08
 -1       543 4.05560E+05 2.73327E+04 1.58012E+05-1.33646E+04 3.23914E-08-2.17751E-08
 -1       544-7.49194E+05-1.65418E+04-7.48583E+04 4.05231E+04-8.15498E-09-5.15096E-08
 -1       545 2.90759E+04 9.48661E+03 7.98321E+04-1.13647E+05-1.82240E-08-5.83516E-08
 -1       546-4.32670E+05 6.09729E+03-1.22322E+04 6.94120E+04 2.44584E-08-9.75540E-08
 -1       547-2.87111E+05-4.65583E+03 1.05922E+04-1.41612E+05-1.22552E-07-1.01369E-07
 -1       548-4.41509E+05 4.71960E+03-2.38839E+04 6.91790E+04-1.14872E-07-8.87826E-08
 -1       549 4.82671E+04 1.60881E+04 6.05475E+04-1.11508E+05-6.32608E-08-7.43885E-08
 -1       550-7.59073E+05-2.21565E+04-1.28985E+05 3.85922E+04 7.25504E-09-3.58596E-08
 -1       551 4.07293E+04-7.47931E+05-1.59534E+04-1.24633E+06-1.05021E-07-1.71713E-09
 -1       552 9.31617E+04-7.92886E+05 9.86504E+03-1.77706E+06-7.51606E-08 5.16520E-08
 -1       553 7.16957E+04-7.89303E+05 3.19783E+04-1.23968E+06-1.19573E-07 3.62197E-08
 -1       554 1.31941E+05-8.08798E+05 8.09471E+04-1.77901E+06-7.60774E-08 1.55778E-08
 -1       555 1.01426E+05-8.12958E+05 1.47848E+05-1.23951E+06-1.25641E-07-1.45446E-08
 -1       556 2.23750E+05-3.83756E+05 2.54115E+04-4.07215E+05-2.63390E-08-1.54541E-08
 -1       557 3.54257E+05-4.88098E+05 1.59726E+04-5.27694E+05-1.74623E-09-5.49699E-09
 -1       558 2.05497E+05-3.76489E+05 2.24855E+03-4.11698E+05-2.59606E-08-1.00335E-08
 -1       559 3.29278E+05-4.88122E+05 2.40346E+03-5.48149E+05 1.63418E-08-1.73604E-08
 -1       560 1.90186E+05-3.66888E+05-1.52259E+03-4.22731E+05 1.29512E-08-3.68891E-09
 -1       561 3.10045E+05-4.80422E+05 1.21508E+02-5.61264E+05 6.75209E-09-2.27774E-08
 -1       562 1.78081E+05-3.59368E+05-1.33106E+03-4.31497E+05 2.48838E-09 1.54505E-08
 -1       563 2.95668E+05-4.74154E+05-3.89182E+01-5.70654E+05-1.74623E-09 1.67965E-08
 -1       564 1.69442E+05-3.53985E+05-6.01969E+02-4.37618E+05-2.86673E-09 1.77192E-08
 -1       565 2.86131E+05-4.70000E+05 2.34005E+01-5.76747E+05-1.52068E-08 9.86802E-10
 -1       566 1.64392E+05-3.50791E+05-2.60525E+02-4.41151E+05-9.66247E-09 1.30785E-09
 -1       567 2.81496E+05-4.67984E+05-3.62991E+02-5.79563E+05 2.14459E-08 6.10089E-09
 -1       568 1.63021E+05-3.49951E+05-1.12662E+03-4.42205E+05-2.28192E-09 2.70666E-09
 -1       569 2.80373E+05-4.67911E+05-2.84535E+03-5.78133E+05-7.59610E-09 1.01172E-08
 -1       570 1.66423E+05-3.53187E+05-6.22020E+03-4.41184E+05 1.00263E-08 4.86580E-10
 -1       571 2.90478E+05 1.05064E+04 1.49866E+04-9.52376E+04 1.77715E-09 1.18598E-08
 -1       572 2.92649E+05 3.96111E+03 7.34464E+03-1.04486E+05 2.18324E-09-1.00517E-08
 -1       573 2.91340E+05 1.24701E+03 3.26345E+03-9.50612E+04 2.80579E-09-1.24455E-08
 -1       574 2.91554E+05 7.28754E+02 1.63658E+03-1.04710E+05 3.41606E-09-1.19580E-08
 -1       575 2.91434E+05 4.49450E+02 7.72383E+02-9.50370E+04-3.67835E-09 6.74299E-09
 -1       576 2.91418E+05 4.60917E+02 3.95385E+02-1.04740E+05-6.96377E-09 2.05964E-08
 -1       577 2.91474E+05 3.91306E+02 1.97233E+02-9.50337E+04-6.55473E-09 1.57252E-08
 -1       578 2.91449E+05 4.22788E+02 1.13656E+02-1.04744E+05-7.14090E-09-3.09774E-09
 -1       579 2.91546E+05 3.54539E+02 7.75536E+01-9.50334E+04 2.94676E-09 2.72757E-09
 -1       580 2.91550E+05 3.71597E+02 8.93161E+01-1.04739E+05-1.08976E-08 1.90712E-08
 -1       581 2.91660E+05 2.95640E+02 1.34156E+02-9.50393E+04 5.65342E-09-1.17598E-09
 -1       582 2.91725E+05 3.32950E+02 2.72496E+02-1.04677E+05 4.09091E-09-2.04154E-08
 -1       583 2.91801E+05 3.34529E+02 5.22472E+02-9.50959E+04 1.12414E-09 1.50112E-09
 -1       584 2.92097E+05 7.61233E+02 1.18249E+03-1.04201E+05 6.60657E-09-2.74076E-08
 -1       585 2.91832E+05 1.75450E+03 2.39397E+03-9.55154E+04 4.40195E-10-8.49468E-09
 -1       586-3.42612E+03 1.16915E+05-2.91494E+03-2.50702E+05-5.56747E-09-2.19188E-10
 -1       587-1.34127E+03 1.16667E+05 7.73587E+02-2.75916E+05-6.81757E-09 2.17260E-08
 -1       588 3.96817E+02 1.16473E+05 4.76307E+03-2.50564E+05-4.48381E-09 3.46517E-08
 -1       589 5.08581E+03 1.18948E+05 1.23520E+04-2.75683E+05-5.09863E-09-1.15415E-09
 -1       590 1.66171E+04 1.15139E+05 2.59101E+04-2.50996E+05-3.48336E-09 1.23146E-09
 -1       591-7.49427E+04-1.59501E+04-2.25249E+04-3.19210E+04-2.39947E-09 2.45082E-08
 -1       592-7.90380E+04-1.95003E+04-1.22013E+04-3.55377E+04-1.30798E-09 9.35518E-09
 -1       593-7.71953E+04-1.43158E+04-5.07879E+03-3.35727E+04 5.74273E-09-4.98812E-09
 -1       594-7.59280E+04-1.61949E+04-2.53293E+03-3.56553E+04 1.64912E-09-5.67437E-09
 -1       595-7.73670E+04-1.43104E+04-1.16288E+03-3.36478E+04-6.38190E-09 8.05576E-09
 -1       596-7.57151E+04-1.60438E+04-5.90969E+02-3.56300E+04-6.04716E-09 1.35529E-09
 -1       597-7.73886E+04-1.43258E+04-3.21403E+02-3.36506E+04 8.84495E-09 1.21408E-08
 -1       598-7.56941E+04-1.60378E+04-2.57642E+02-3.56229E+04-5.63472E-09 6.67356E-09
 -1       599-7.73873E+04-1.43263E+04-3.28199E+02-3.36503E+04-1.03682E-09-2.50711E-08
 -1       600-7.57152E+04-1.60443E+04-6.08959E+02-3.56279E+04 3.82727E-09-1.40526E-08
 -1       601-7.73627E+04-1.43118E+04-1.20097E+03-3.36468E+04 1.82240E-09-8.07472E-09
 -1       602-7.59351E+04-1.61993E+04-2.61718E+03-3.56502E+04-1.56888E-10-1.20735E-09
 -1       603-7.71825E+04-1.43202E+04-5.24843E+03-3.35701E+04-2.99178E-09-8.56608E-09
 -1       604-7.91664E+04-1.95954E+04-1.26080E+04-3.55038E+04 3.04988E-09 1.42807E-08
 -1       605-7.48347E+04-1.60269E+04-2.32759E+04-3.18827E+04 7.39658E-09 8.11997E-09
 -1       606 2.66797E+04-1.43654E+04-2.57512E+04 2.41073E+04 5.56338E-09-1.52254E-08
 -1       607 2.22798E+04-4.69211E+03-1.28240E+04 2.70916E+04-4.12547E-09 7.00447E-09
 -1       608 2.47872E+04-8.46858E+02-5.74090E+03 2.39378E+04-5.84987E-09 1.30622E-08
 -1       609 2.43065E+04-2.90423E+02-2.90015E+03 2.73067E+04 3.37513E-09 4.39422E-09
 -1       610 2.45729E+04-4.14819E+01-1.38372E+03 2.39177E+04 7.94716E-09 5.40876E-09
 -1       611 2.44974E+04-4.17193E+01-6.97681E+02 2.73299E+04 1.21399E-08 1.84475E-08
 -1       612 2.45255E+04-2.76440E+01-3.31719E+02 2.39156E+04 1.53550E-08-6.39761E-09
 -1       613 2.45089E+04-3.75292E+01-1.48721E+02 2.73327E+04 2.23545E-08-2.18540E-08
 -1       614 2.45032E+04-3.39954E+01-3.50346E+01 2.39149E+04 8.59745E-09-1.20078E-08
 -1       615 2.45035E+04-3.59661E+01 6.19231E+01 2.73331E+04-2.05637E-09-5.87715E-09
 -1       616 2.44857E+04-3.08108E+01 1.86070E+02 2.39152E+04 4.41560E-10 4.00973E-09
 -1       617 2.45257E+04 3.77528E+00 4.24663E+02 2.73326E+04-3.78554E-09 6.75072E-10
 -1       618 2.44487E+04 9.16795E+01 8.56033E+02 2.39155E+04-9.61791E-10 6.86668E-11
 -1       619 2.48278E+04 6.65724E+02 1.92232E+03 2.73320E+04 9.48376E-10 9.29072E-09
 -1       620 2.41644E+04 2.12165E+03 3.86383E+03 2.39171E+04 2.43767E-09 3.76758E-09
 -1       621 5.08683E+02 3.01840E+05 3.86606E+03 4.10984E+04 8.55835E-10 1.93450E-09
 -1       622 6.75287E+02 3.02731E+05 3.43793E+03 5.96648E+04 1.31331E-09-3.71983E-09
 -1       623 1.43370E+02 3.02032E+05 4.13967E+03 4.09124E+04 1.38198E-09-8.57472E-09
 -1       624 2.12845E+03 3.03952E+05 8.03228E+03 5.98479E+04 1.44962E-09 1.66142E-09
 -1       625 2.07943E+03 3.00438E+05 1.40393E+04 4.09091E+04 1.44610E-09-2.17801E-09
 -1       626 2.64021E+05 6.19276E+04 5.41024E+03 1.27857E+05 3.74848E-09 5.73891E-09
 -1       627 2.61678E+05 6.33421E+04 2.61156E+03 1.32258E+05-6.29734E-09 3.75235E-09
 -1       628 2.64161E+05 5.94955E+04 1.10496E+03 1.28770E+05-8.17272E-09-1.44339E-08
 -1       629 2.61010E+05 6.26296E+04 5.40983E+02 1.32500E+05-5.78984E-09-1.81011E-09
 -1       630 2.64177E+05 5.93817E+04 2.51048E+02 1.28808E+05-1.30512E-10-2.13275E-08
 -1       631 2.60942E+05 6.26031E+04 1.34835E+02 1.32501E+05 6.56723E-09 2.79846E-09
 -1       632 2.64174E+05 5.93862E+04 8.81880E+01 1.28804E+05 1.29239E-08 1.67392E-08
 -1       633 2.60933E+05 6.26049E+04 9.74247E+01 1.32497E+05-3.76713E-09 3.23143E-09
 -1       634 2.64170E+05 5.93834E+04 1.56706E+02 1.28803E+05-7.74418E-09-8.14703E-09
 -1       635 2.60948E+05 6.26029E+04 3.16535E+02 1.32503E+05-4.52061E-09 4.01888E-08
 -1       636 2.64160E+05 5.93763E+04 6.38936E+02 1.28804E+05 6.13909E-10 6.00448E-09
 -1       637 2.61085E+05 6.26977E+04 1.40372E+03 1.32504E+05 4.67480E-10-6.66478E-09
 -1       638 2.64109E+05 5.96709E+04 2.88243E+03 1.28669E+05 1.11004E-09 2.09393E-08
 -1       639 2.62601E+05 6.47684E+04 6.81694E+03 1.32076E+05-9.89530E-10 7.72525E-09
 -1       640 2.63876E+05 6.58454E+04 1.41225E+04 1.26058E+05-1.54796E-09 1.49225E-09
 -1       656 6.64405E+04-1.70032E+06-1.60386E+05-2.55803E+03-5.82077E-10-9.20994E-09
 -1       657-8.79001E+04-1.77279E+06-1.32879E+05 5.17293E+03-1.18689E-09 7.14068E-09
 -1       658 2.11839E+04-1.72089E+06-8.18502E+04-4.64954E+03-2.34195E-10 5.78693E-09
 -1       659-9.50841E+04-1.77620E+06-1.42320E+05 6.91919E+03-6.63931E-10-3.06736E-09
 -1       660 7.36085E+04-1.69691E+06-1.76618E+05-4.30427E+03-1.91358E-09 1.58136E-08
 -1       661 1.58447E+05 1.65835E+04 1.66980E+04 6.19415E+04-3.40333E-09 8.05903E-09
 -1       662 1.67910E+05 2.89265E+04 1.12533E+04 5.81688E+04 1.09839E-09-5.56565E-09
 -1       663 1.61727E+05 2.19403E+04 3.93568E+03 6.09893E+04 1.50078E-09-8.87530E-09
 -1       664 1.64107E+05 2.26624E+04 2.35439E+03 5.93321E+04 7.14749E-10 1.41864E-08
 -1       665 1.62225E+05 2.26718E+04 9.28780E+02 6.08438E+04-1.10003E-09 6.91148E-09
 -1       666 1.63518E+05 2.18261E+04 5.43703E+02 5.95219E+04 1.09755E-08 4.66424E-09
 -1       667 1.62312E+05 2.27548E+04 2.89001E+02 6.08073E+04-1.23492E-10 1.05873E-09
 -1       668 1.63421E+05 2.17666E+04 2.94990E+02 5.95751E+04-5.03297E-09-1.82068E-08
 -1       669 1.62320E+05 2.27296E+04 3.99784E+02 6.07909E+04-1.64027E-09 4.72895E-09
 -1       670 1.63518E+05 2.19839E+04 8.70931E+02 5.95782E+04-1.02624E-08-1.18405E-08
 -1       671 1.62215E+05 2.25420E+04 1.54653E+03 6.08022E+04 9.99201E-10-6.38033E-09
 -1       672 1.64420E+05 2.34885E+04 3.95687E+03 5.93598E+04 2.95455E-09 1.14890E-08
 -1       673 1.61423E+05 2.12631E+04 6.63112E+03 6.09947E+04 4.65252E-09-8.79118E-09
 -1       674 1.70731E+05 3.41421E+04 1.89636E+04 5.75055E+04-1.69450E-09-1.65528E-08
 -1       675 1.55944E+05 1.21869E+04 2.81487E+04 6.25445E+04-2.70302E-09 8.09450E-10
 -1       676 2.41047E+01-2.95798E+05-1.11310E+03-1.37786E+02 1.11882E-09-1.30901E-09
 -1       677-2.94434E+02-2.96068E+05-2.03717E+03 2.75350E+02 8.10928E-09-9.60602E-09
 -1       678 1.97487E+02-2.95607E+05-3.60120E+03-1.37474E+02 7.78073E-10-1.38109E-09
 -1       679-3.60125E+03-2.98242E+05-8.55497E+03 2.74161E+02 9.83596E-09 1.92301E-08
 -1       680 2.15016E+03-2.93626E+05-1.37877E+04-1.35078E+02 3.96540E-10 1.14817E-08
 -1       771-3.06108E+06-7.47304E+05-1.66264E+05-1.46561E+06-3.90282E-08-2.25555E-08
 -1       772-2.98395E+06-8.36235E+05-8.57261E+04-1.56842E+06-3.53321E-08 1.58689E-08
 -1       773-3.09261E+06-7.22714E+05-4.36906E+04-1.48019E+06-1.87429E-08 1.35624E-08
 -1       774-2.97440E+06-8.17654E+05-1.94949E+04-1.59422E+06 2.65718E-08-6.33008E-10
 -1       775-3.10908E+06-7.11163E+05-1.45758E+04-1.48726E+06-6.83940E-09 7.09406E-09
 -1       776-2.98677E+06-8.14608E+05-5.45191E+03-1.61373E+06-1.41590E-08 1.22236E-09
 -1       777-3.12337E+06-7.00853E+05-6.43792E+03-1.49349E+06 5.96629E-09 3.78350E-10
 -1       778-2.99968E+06-8.11777E+05-1.82065E+03-1.63050E+06 4.54020E-09 5.47152E-09
 -1       779-3.13565E+06-6.91844E+05-3.21654E+03-1.49881E+06-1.34896E-08-8.28732E-09
 -1       780-3.01105E+06-8.09076E+05-5.33501E+02-1.64416E+06-1.20490E-08-6.85759E-10
 -1       781-3.14541E+06-6.84581E+05-1.24936E+03-1.50298E+06-2.50584E-08 2.08820E-09
 -1       782-3.01982E+06-8.06784E+05 4.50728E+02-1.65424E+06-3.37022E-08-7.97991E-09
 -1       783-3.15229E+06-6.79534E+05 7.01876E+02-1.50589E+06-4.29281E-09-1.11340E-08
 -1       784-3.02467E+06-8.04495E+05 2.90804E+03-1.66046E+06-1.86847E-08-7.17591E-10
 -1       785-3.15636E+06-6.76523E+05 5.13385E+03-1.50774E+06-3.53939E-08 1.18762E-08
 -1       786 1.23339E+05-9.75776E+03 2.25755E+04-3.22138E+02 5.31379E-10-1.13050E-09
 -1       787 1.33131E+05 1.12973E+04 1.59713E+04-1.35052E+02 8.00442E-09-4.19800E-09
 -1       788 1.27114E+05-1.52906E+03 5.84076E+03-2.86996E+02 1.45419E-09 2.50998E-08
 -1       789 1.28733E+05 1.76985E+03 3.66660E+03-1.88897E+02-2.39975E-09 1.85087E-08
 -1       790 1.27738E+05-2.38067E+02 1.48451E+03-2.68311E+02-2.42891E-09 1.25185E-08
 -1       791 1.28004E+05 2.75438E+02 8.57344E+02-2.20860E+02-6.94404E-09 2.16452E-08
 -1       792 1.27843E+05-3.57651E+01 3.63162E+02-2.55036E+02-4.86878E-09 1.65829E-08
 -1       793 1.27877E+05 3.77175E+01 1.80724E+02-2.45809E+02-1.01837E-09-1.44541E-08
 -1       794 1.27864E+05-4.97029E-01 4.63224E+01-2.43361E+02 4.00397E-09 2.62325E-09
 -1       795 1.27840E+05-2.80039E+01-5.95173E+01-2.70134E+02-5.33239E-09 1.51515E-08
 -1       796 1.27881E+05 2.99195E+01-1.65676E+02-2.30710E+02 2.87006E-09 2.30406E-09
 -1       797 1.27744E+05-2.23340E+02-4.53916E+02-2.99150E+02 5.35532E-09-7.13354E-09
 -1       798 1.27960E+05 1.94692E+02-7.36908E+02-2.14345E+02 1.80822E-09-8.36684E-09
 -1       799 1.27185E+05-1.43510E+03-2.02712E+03-3.39649E+02 6.76419E-09-6.66375E-09
 -1       800 1.28440E+05 1.24069E+03-2.86872E+03-1.90213E+02 1.04595E-09 2.63299E-10
 -1       801-1.71229E+05-9.99809E+06-1.39351E+06 1.41551E+06 9.06875E-08-5.16084E-08
 -1       802 7.38319E+05 5.95109E+06 2.18188E+06-1.74742E+06 2.61141E-07-2.46473E-08
 -1       803-5.36683E+05-1.42678E+07-1.89076E+06 8.98153E+05 7.59464E-08 2.05655E-08
 -1       804 2.87219E+05 2.39589E+06 1.53739E+06 6.77283E+05-1.19693E-07-9.59949E-08
 -1       805 1.89377E+05-6.45700E+06-2.86521E+05-1.00353E+06-4.97384E-08-6.61339E-08
 -1       806-3.08858E+05-5.97954E+04-2.28469E+04-1.22454E+05-9.39508E-09 1.46288E-08
 -1       807-3.10646E+05-5.60754E+04-1.12244E+04-1.28009E+05 1.60935E-08 9.60399E-09
 -1       808-3.09485E+05-5.15615E+04-4.76176E+03-1.26347E+05-1.74850E-09 4.64263E-09
 -1       809-3.08286E+05-5.29216E+04-2.32839E+03-1.28284E+05-1.64564E-08 1.09246E-08
 -1       810-3.09580E+05-5.12749E+04-1.06724E+03-1.26519E+05 3.79760E-09 2.74952E-08
 -1       811-3.08103E+05-5.27949E+04-5.30775E+02-1.28249E+05 4.41059E-09-1.38471E-08
 -1       812-3.09594E+05-5.12996E+04-2.68560E+02-1.26518E+05-8.34007E-09-1.25283E-09
 -1       813-3.08078E+05-5.27971E+04-1.74728E+02-1.28230E+05-6.86259E-09-1.70166E-08
 -1       814-3.09587E+05-5.13094E+04-1.73473E+02-1.26514E+05 4.13002E-09-4.33647E-09
 -1       815-3.08082E+05-5.27994E+04-2.79770E+02-1.28223E+05 1.28421E-09 1.24101E-08
 -1       816-3.09566E+05-5.13085E+04-5.30442E+02-1.26510E+05 7.14044E-09 4.44152E-09
 -1       817-3.08172E+05-5.28499E+04-1.13845E+03-1.28211E+05-8.27140E-09 2.37594E-08
 -1       818-3.09496E+05-5.14693E+04-2.32209E+03-1.26434E+05 1.21108E-08 9.76252E-09
 -1       819-3.09443E+05-5.42525E+04-5.46366E+03-1.27909E+05 1.64282E-08 4.56475E-09
 -1       820-3.09058E+05-5.55971E+04-1.11206E+04-1.24672E+05 4.40286E-09 5.95469E-09
 -1       821-3.79078E+05 2.08859E+04-4.86198E+04 2.13427E+03 1.41471E-08-8.95307E-09
 -1       822-3.98795E+05-2.41952E+04-3.41682E+04-4.47432E+03 5.05805E-09-9.42237E-09
 -1       823-3.86546E+05 3.29246E+03-1.25579E+04 3.44709E+03-1.24865E-08 1.19840E-08
 -1       824-3.89778E+05-3.79672E+03-7.86018E+03-5.38600E+03 2.06965E-09 1.96630E-08
 -1       825-3.88103E+05 5.11613E+02-3.29207E+03 3.04607E+03 2.08666E-08-1.56792E-08
 -1       826-3.87339E+05-5.67538E+02-1.74419E+03-3.10256E+03 2.57793E-08-1.47359E-08
 -1       827-3.88960E+05 4.66119E+01-1.19199E+03 1.16350E+03 1.29682E-08-8.81982E-10
 -1       828-3.86632E+05-1.31912E+02-5.85331E+02 1.10469E+03-2.49693E-09-8.61503E-09
 -1       829-3.88797E+05 6.59050E+01-1.18068E+03-1.16120E+03 8.61718E-10-8.47632E-09
 -1       830-3.87693E+05-6.22843E+02-1.88414E+03 4.90275E+03 5.21872E-10 1.56277E-08
 -1       831-3.87922E+05 5.55297E+02-3.37474E+03-2.63458E+03-6.96411E-09-1.53400E-08
 -1       832-3.89859E+05-3.96519E+03-8.16638E+03 6.18252E+03-2.99537E-09-7.98536E-09
 -1       833-3.86647E+05 3.41782E+03-1.30677E+04-2.44102E+03-1.97595E-09 1.17316E-08
 -1       834-3.98855E+05-2.51191E+04-3.54050E+04 4.19903E+03-2.75747E-09 1.19908E-08
 -1       835-3.78908E+05 2.16762E+04-5.05117E+04-6.51007E+02 4.25223E-09-3.71801E-09
 -1       836-1.41557E+03 3.70855E+05 2.29410E+04-1.59860E+04-6.99674E-09 1.13037E-08
 -1       837 4.89092E+03 3.78040E+05 1.94056E+04-3.26751E+04-7.46286E-09 7.44785E-09
 -1       838-5.58309E+02 3.72870E+05 1.97625E+04-1.59148E+04-6.45832E-09 2.97837E-08
 -1       839 1.24340E+04 3.83657E+05 3.73756E+04-3.27279E+04-7.05768E-09 5.32464E-09
 -1       840-3.84372E+03 3.65177E+05 5.95963E+04-1.59391E+04-6.17365E-09-2.92211E-09
 -1       856-5.21328E+04 8.04210E+03-2.11927E+04-3.97981E+02 5.50642E-09-4.52110E-09
 -1       857-6.08636E+04-9.44929E+03-1.45888E+04 5.64372E+03 7.89669E-09 4.06544E-09
 -1       858-5.55905E+04 1.12783E+03-5.49900E+03-4.22159E+02 4.51888E-09-1.06002E-09
 -1       859-5.68956E+04-1.32691E+03-3.31839E+03 5.67969E+03-2.82104E-09 1.01961E-08
 -1       860-5.61070E+04 1.57952E+02-1.39074E+03-4.33676E+02 1.55038E-09 4.31749E-09
 -1       861-5.63015E+04-1.88619E+02-7.65073E+02 5.69539E+03 6.03526E-09-1.64308E-08
 -1       862-5.61878E+04 2.14033E+01-3.18033E+02-4.37834E+02-8.00252E-10-2.22214E-08
 -1       863-5.62024E+04-2.19656E+01-1.15853E+02 5.69783E+03-4.31750E-09-1.53344E-08
 -1       864-5.62066E+04-4.90217E+00 4.72999E+01-4.36118E+02-1.73846E-09 2.64891E-08
 -1       865-5.61466E+04 5.96858E+01 2.55787E+02 5.68796E+03-4.55985E-09 9.66221E-09
 -1       866-5.62415E+04-6.02630E+01 5.15492E+02-4.27964E+02-5.27677E-10 4.57536E-09
 -1       867-5.59041E+04 4.97623E+02 1.26883E+03 5.66581E+03 3.39625E-09 2.99758E-09
 -1       868-5.64441E+04-4.34936E+02 2.10843E+03-4.13966E+02-1.76396E-09 1.64403E-09
 -1       869-5.43583E+04 3.61975E+03 5.61403E+03 5.62934E+03 6.01938E-09 2.63367E-09
 -1       870-5.77795E+04-3.09760E+03 8.14721E+03-3.91390E+02-8.44011E-10-1.37597E-08
 -1       871-5.54183E+03-2.16542E+04-1.95811E+04 1.30444E+05-4.82578E-09-7.92170E-10
 -1       872-1.99155E+03-2.62066E+04-8.21144E+03 1.69142E+05-1.01463E-08 1.42973E-08
 -1       873 4.05692E+02-2.40019E+04 5.62453E+02 1.30157E+05-5.99221E-09 1.15309E-08
 -1       874 3.30340E+03-2.15955E+04 9.75466E+03 1.69169E+05-1.38089E-08 4.78485E-09
 -1       875 6.83908E+03-2.63283E+04 2.20299E+04 1.30397E+05-5.00222E-09-9.11041E-09
 -1       876 2.93672E+05 4.95239E+04 1.50400E+04 1.17901E+05 4.78360E-09-7.66431E-09
 -1       877 2.94642E+05 5.27159E+04 8.03197E+03 1.22244E+05 3.47063E-09 2.86655E-08
 -1       878 2.95079E+05 4.78574E+04 3.36500E+03 1.19133E+05-2.88037E-09 9.77434E-09
 -1       879 2.92597E+05 5.06761E+04 1.67669E+03 1.22346E+05 8.92555E-09-7.79897E-09
 -1       880 2.95180E+05 4.78402E+04 7.81034E+02 1.19183E+05-1.71440E-10-5.31929E-09
 -1       881 2.92461E+05 5.05889E+04 4.17240E+02 1.22322E+05-3.26747E-09 1.73108E-09
 -1       882 2.95189E+05 4.78535E+04 2.67202E+02 1.19184E+05-1.54000E-09 3.41674E-09
 -1       883 2.92451E+05 5.05844E+04 2.87693E+02 1.22315E+05-1.85440E-09 2.55056E-08
 -1       884 2.95182E+05 4.78507E+04 4.58056E+02 1.19185E+05 9.48489E-10 7.69279E-09
 -1       885 2.92488E+05 5.05907E+04 9.21200E+02 1.22326E+05-5.71994E-09-1.39723E-08
 -1       886 2.95146E+05 4.78238E+04 1.85676E+03 1.19181E+05-4.81230E-09-1.05636E-08
 -1       887 2.92814E+05 5.08046E+04 4.05590E+03 1.22373E+05 5.49016E-09-1.86568E-08
 -1       888 2.94890E+05 4.78690E+04 8.17277E+03 1.19051E+05 2.43483E-09 6.32417E-09
 -1       889 2.97680E+05 5.58644E+04 1.95232E+04 1.22224E+05-6.57253E-09-8.52742E-09
 -1       890 2.91554E+05 5.18317E+04 3.65666E+04 1.15941E+05 3.01861E-09-1.21490E-08
 -1       891-8.90970E+01-1.62713E+05-1.99596E+03 2.71351E+04-1.05729E-09-3.10729E-09
 -1       892-1.74963E+02-1.63241E+05-2.14365E+03 4.12066E+04 4.28918E-09 5.13023E-09
 -1       893 4.39356E+01-1.62777E+05-3.03511E+03 2.71424E+04-2.27351E-09 1.07229E-09
 -1       894-1.50929E+03-1.64387E+05-6.28151E+03 4.10541E+04 4.00496E-09 3.76622E-09
 -1       895-1.19868E+03-1.61469E+05-1.10617E+04 2.72894E+04-2.58490E-09-4.73756E-09
 -1       956-3.77149E+05-5.45210E+03-1.34572E+04 3.10662E+04 5.83987E-09 1.97360E-09
 -1       957-3.79789E+05-1.92367E+03-6.90733E+03 3.73344E+04-4.88853E-10-7.05973E-09
 -1       958-3.78359E+05-2.41424E+02-3.11268E+03 3.08975E+04-4.20278E-09-2.25100E-09
 -1       959-3.78555E+05-1.36648E+02-1.58937E+03 3.75311E+04-5.77529E-11 1.55951E-08
 -1       960-3.78477E+05-4.50583E+01-7.75047E+02 3.08801E+04 5.88625E-09 7.64658E-10
 -1       961-3.78475E+05-6.34395E+01-4.10892E+02 3.75517E+04 1.43446E-08-2.64799E-09
 -1       962-3.78505E+05-4.61819E+01-2.35208E+02 3.08772E+04 2.75122E-09-1.29376E-10
 -1       963-3.78476E+05-5.91873E+01-1.88747E+02 3.75554E+04 3.85307E-09 1.72602E-08
 -1       964-3.78510E+05-4.28184E+01-2.29459E+02 3.08765E+04-1.41813E-09 1.15128E-08
 -1       965-3.78488E+05-5.62630E+01-3.96810E+02 3.75546E+04-9.93623E-10-7.76458E-09
 -1       966-3.78494E+05-3.50649E+01-7.45577E+02 3.08780E+04 6.37783E-09-8.96534E-10
 -1       967-3.78577E+05-1.19886E+02-1.52914E+03 3.75401E+04-3.82352E-09-2.24527E-08
 -1       968-3.78390E+05-2.17583E+02-2.99352E+03 3.08908E+04-2.56659E-09-4.95794E-09
 -1       969-3.79776E+05-1.83356E+03-6.64549E+03 3.73905E+04 8.19091E-09-1.56118E-08
 -1       970-3.77234E+05-5.22677E+03-1.29459E+04 3.10191E+04-1.94723E-09 9.93805E-09
 -1       971-3.45281E+05-1.72454E+03-9.29520E+03 1.53137E+04 2.12094E-09 7.06540E-09
 -1       972-3.47518E+05-1.26961E+03-5.06209E+03 2.11782E+04 7.95262E-09-1.13823E-08
 -1       973-3.46316E+05-6.18166E+01-2.26735E+03 1.51931E+04 6.32645E-09 4.58817E-09
 -1       974-3.46451E+05-8.08826E+01-1.17534E+03 2.13146E+04-4.36262E-09-2.87980E-09
 -1       975-3.46398E+05-1.70871E+01-5.87992E+02 1.51809E+04 1.36743E-09 4.63842E-11
 -1       976-3.46390E+05-3.11853E+01-3.40131E+02 2.13303E+04 1.06984E-08-2.84535E-09
 -1       977-3.46414E+05-1.63920E+01-2.48460E+02 1.51775E+04-4.97016E-09-1.36290E-08
 -1       978-3.46395E+05-2.50112E+01-2.92940E+02 2.13351E+04-1.08976E-08-3.80726E-09
 -1       979-3.46414E+05-7.94529E+00-4.72537E+02 1.51761E+04-4.93020E-09 3.13321E-10
 -1       980-3.46430E+05-2.19699E+01-9.13586E+02 2.13361E+04-3.47359E-09-4.00621E-09
 -1       981-3.46385E+05 1.48870E+01-1.77002E+03 1.51766E+04-3.89446E-09-1.25559E-08
 -1       982-3.46673E+05-1.52745E+02-3.65893E+03 2.13295E+04-2.34149E-09-1.36895E-08
 -1       983-3.46162E+05-9.84288E+01-7.10949E+03 1.51826E+04-7.00493E-09 2.80147E-09
 -1       984-3.50093E+05-3.86579E+03-1.59215E+04 2.12442E+04-4.27167E-09 1.64175E-08
 -1       985-3.42943E+05-5.30067E+03-2.92368E+04 1.52537E+04-4.93674E-09 1.18325E-08
 -3
