    1C
    1UUSER                                                              
    1UDATE              11.october.2022                                 
    1UTIME              17:44:12                                        
    1UHOST                                                              
    1UPGM               CalculiX                                        
    1UVERSION           Version 2.20                             
    1UCOMPILETIME       Sun Jul 31 18:08:37 CEST 2022                    
    1UDIR                                                               
    1UDBN                                                               
    1UMAT    1MESH_MATERIAL                                             
    2C                           841                                     1
 -1         1 0.00000E+00 0.00000E+00 0.00000E+00
 -1         2 1.66667E-02 0.00000E+00 0.00000E+00
 -1         3 3.33333E-02 0.00000E+00 0.00000E+00
 -1         4 5.00000E-02 0.00000E+00 0.00000E+00
 -1         5 6.66667E-02 0.00000E+00 0.00000E+00
 -1         8 0.00000E+00 6.25000E-03 0.00000E+00
 -1         9 1.66667E-02 6.25000E-03 0.00000E+00
 -1        10 3.33333E-02 6.25000E-03 0.00000E+00
 -1        11 5.00000E-02 6.25000E-03 0.00000E+00
 -1        12 6.66667E-02 6.25000E-03 0.00000E+00
 -1        15 0.00000E+00 1.25000E-02 0.00000E+00
 -1        16 1.66667E-02 1.25000E-02 0.00000E+00
 -1        17 3.33333E-02 1.25000E-02 0.00000E+00
 -1        18 5.00000E-02 1.25000E-02 0.00000E+00
 -1        19 6.66667E-02 1.25000E-02 0.00000E+00
 -1        20 8.33333E-02 1.25000E-02 0.00000E+00
 -1        21 1.00000E-01 1.25000E-02 0.00000E+00
 -1        22 0.00000E+00 1.87500E-02 0.00000E+00
 -1        23 1.66667E-02 1.87500E-02 0.00000E+00
 -1        24 3.33333E-02 1.87500E-02 0.00000E+00
 -1        25 5.00000E-02 1.87500E-02 0.00000E+00
 -1        26 6.66667E-02 1.87500E-02 0.00000E+00
 -1        27 8.33333E-02 1.87500E-02 0.00000E+00
 -1        28 1.00000E-01 1.87500E-02 0.00000E+00
 -1        29 0.00000E+00 2.50000E-02 0.00000E+00
 -1        30 1.66667E-02 2.50000E-02 0.00000E+00
 -1        31 3.33333E-02 2.50000E-02 0.00000E+00
 -1        32 5.00000E-02 2.50000E-02 0.00000E+00
 -1        33 6.66667E-02 2.50000E-02 0.00000E+00
 -1        34 8.33333E-02 2.50000E-02 0.00000E+00
 -1        35 1.00000E-01 2.50000E-02 0.00000E+00
 -1        36 1.04167E-03 0.00000E+00 0.00000E+00
 -1        37 2.08333E-03 0.00000E+00 0.00000E+00
 -1        38 3.12500E-03 0.00000E+00 0.00000E+00
 -1        39 4.16667E-03 0.00000E+00 0.00000E+00
 -1        40 5.20833E-03 0.00000E+00 0.00000E+00
 -1        41 6.25000E-03 0.00000E+00 0.00000E+00
 -1        42 7.29167E-03 0.00000E+00 0.00000E+00
 -1        43 8.33333E-03 0.00000E+00 0.00000E+00
 -1        44 9.37500E-03 0.00000E+00 0.00000E+00
 -1        45 1.04167E-02 0.00000E+00 0.00000E+00
 -1        46 1.14583E-02 0.00000E+00 0.00000E+00
 -1        47 1.25000E-02 0.00000E+00 0.00000E+00
 -1        48 1.35417E-02 0.00000E+00 0.00000E+00
 -1        49 1.45833E-02 0.00000E+00 0.00000E+00
 -1        50 1.56250E-02 0.00000E+00 0.00000E+00
 -1        51 0.00000E+00 1.04167E-03 0.00000E+00
 -1        52 0.00000E+00 2.08333E-03 0.00000E+00
 -1        53 0.00000E+00 3.12500E-03 0.00000E+00
 -1        54 0.00000E+00 4.16667E-03 0.00000E+00
 -1        55 0.00000E+00 5.20833E-03 0.00000E+00
 -1        56 1.04167E-03 3.90630E-04 0.00000E+00
 -1        57 2.08333E-03 7.81250E-04 0.00000E+00
 -1        58 3.12500E-03 1.17188E-03 0.00000E+00
 -1        59 4.16667E-03 1.56250E-03 0.00000E+00
 -1        60 5.20833E-03 1.95312E-03 0.00000E+00
 -1        61 6.25000E-03 2.34375E-03 0.00000E+00
 -1        62 7.29167E-03 2.73438E-03 0.00000E+00
 -1        63 8.33333E-03 3.12500E-03 0.00000E+00
 -1        64 9.37500E-03 3.51563E-03 0.00000E+00
 -1        65 1.04167E-02 3.90625E-03 0.00000E+00
 -1        66 1.14583E-02 4.29688E-03 0.00000E+00
 -1        67 1.25000E-02 4.68750E-03 0.00000E+00
 -1        68 1.35417E-02 5.07813E-03 0.00000E+00
 -1        69 1.45833E-02 5.46875E-03 0.00000E+00
 -1        70 1.56250E-02 5.85938E-03 0.00000E+00
 -1        71 1.77083E-02 0.00000E+00 0.00000E+00
 -1        72 1.87500E-02 0.00000E+00 0.00000E+00
 -1        73 1.97917E-02 0.00000E+00 0.00000E+00
 -1        74 2.08333E-02 0.00000E+00 0.00000E+00
 -1        75 2.18750E-02 0.00000E+00 0.00000E+00
 -1        76 2.29167E-02 0.00000E+00 0.00000E+00
 -1        77 2.39583E-02 0.00000E+00 0.00000E+00
 -1        78 2.50000E-02 0.00000E+00 0.00000E+00
 -1        79 2.60417E-02 0.00000E+00 0.00000E+00
 -1        80 2.70833E-02 0.00000E+00 0.00000E+00
 -1        81 2.81250E-02 0.00000E+00 0.00000E+00
 -1        82 2.91667E-02 0.00000E+00 0.00000E+00
 -1        83 3.02083E-02 0.00000E+00 0.00000E+00
 -1        84 3.12500E-02 0.00000E+00 0.00000E+00
 -1        85 3.22917E-02 0.00000E+00 0.00000E+00
 -1        86 1.66667E-02 1.04167E-03 0.00000E+00
 -1        87 1.66667E-02 2.08333E-03 0.00000E+00
 -1        88 1.66667E-02 3.12500E-03 0.00000E+00
 -1        89 1.66667E-02 4.16667E-03 0.00000E+00
 -1        90 1.66667E-02 5.20833E-03 0.00000E+00
 -1        91 1.77083E-02 3.90630E-04 0.00000E+00
 -1        92 1.87500E-02 7.81250E-04 0.00000E+00
 -1        93 1.97917E-02 1.17188E-03 0.00000E+00
 -1        94 2.08333E-02 1.56250E-03 0.00000E+00
 -1        95 2.18750E-02 1.95312E-03 0.00000E+00
 -1        96 2.29167E-02 2.34375E-03 0.00000E+00
 -1        97 2.39583E-02 2.73438E-03 0.00000E+00
 -1        98 2.50000E-02 3.12500E-03 0.00000E+00
 -1        99 2.60417E-02 3.51563E-03 0.00000E+00
 -1       100 2.70833E-02 3.90625E-03 0.00000E+00
 -1       101 2.81250E-02 4.29688E-03 0.00000E+00
 -1       102 2.91667E-02 4.68750E-03 0.00000E+00
 -1       103 3.02083E-02 5.07813E-03 0.00000E+00
 -1       104 3.12500E-02 5.46875E-03 0.00000E+00
 -1       105 3.22917E-02 5.85938E-03 0.00000E+00
 -1       106 3.43750E-02 0.00000E+00 0.00000E+00
 -1       107 3.54167E-02 0.00000E+00 0.00000E+00
 -1       108 3.64583E-02 0.00000E+00 0.00000E+00
 -1       109 3.75000E-02 0.00000E+00 0.00000E+00
 -1       110 3.85417E-02 0.00000E+00 0.00000E+00
 -1       111 3.95833E-02 0.00000E+00 0.00000E+00
 -1       112 4.06250E-02 0.00000E+00 0.00000E+00
 -1       113 4.16667E-02 0.00000E+00 0.00000E+00
 -1       114 4.27083E-02 0.00000E+00 0.00000E+00
 -1       115 4.37500E-02 0.00000E+00 0.00000E+00
 -1       116 4.47917E-02 0.00000E+00 0.00000E+00
 -1       117 4.58333E-02 0.00000E+00 0.00000E+00
 -1       118 4.68750E-02 0.00000E+00 0.00000E+00
 -1       119 4.79167E-02 0.00000E+00 0.00000E+00
 -1       120 4.89583E-02 0.00000E+00 0.00000E+00
 -1       121 3.33333E-02 1.04167E-03 0.00000E+00
 -1       122 3.33333E-02 2.08333E-03 0.00000E+00
 -1       123 3.33333E-02 3.12500E-03 0.00000E+00
 -1       124 3.33333E-02 4.16667E-03 0.00000E+00
 -1       125 3.33333E-02 5.20833E-03 0.00000E+00
 -1       126 3.43750E-02 3.90630E-04 0.00000E+00
 -1       127 3.54167E-02 7.81250E-04 0.00000E+00
 -1       128 3.64583E-02 1.17188E-03 0.00000E+00
 -1       129 3.75000E-02 1.56250E-03 0.00000E+00
 -1       130 3.85417E-02 1.95312E-03 0.00000E+00
 -1       131 3.95833E-02 2.34375E-03 0.00000E+00
 -1       132 4.06250E-02 2.73438E-03 0.00000E+00
 -1       133 4.16667E-02 3.12500E-03 0.00000E+00
 -1       134 4.27083E-02 3.51563E-03 0.00000E+00
 -1       135 4.37500E-02 3.90625E-03 0.00000E+00
 -1       136 4.47917E-02 4.29688E-03 0.00000E+00
 -1       137 4.58333E-02 4.68750E-03 0.00000E+00
 -1       138 4.68750E-02 5.07813E-03 0.00000E+00
 -1       139 4.79167E-02 5.46875E-03 0.00000E+00
 -1       140 4.89583E-02 5.85938E-03 0.00000E+00
 -1       141 5.10417E-02 0.00000E+00 0.00000E+00
 -1       142 5.20833E-02 0.00000E+00 0.00000E+00
 -1       143 5.31250E-02 0.00000E+00 0.00000E+00
 -1       144 5.41667E-02 0.00000E+00 0.00000E+00
 -1       145 5.52083E-02 0.00000E+00 0.00000E+00
 -1       146 5.62500E-02 0.00000E+00 0.00000E+00
 -1       147 5.72917E-02 0.00000E+00 0.00000E+00
 -1       148 5.83333E-02 0.00000E+00 0.00000E+00
 -1       149 5.93750E-02 0.00000E+00 0.00000E+00
 -1       150 6.04167E-02 0.00000E+00 0.00000E+00
 -1       151 6.14583E-02 0.00000E+00 0.00000E+00
 -1       152 6.25000E-02 0.00000E+00 0.00000E+00
 -1       153 6.35417E-02 0.00000E+00 0.00000E+00
 -1       154 6.45833E-02 0.00000E+00 0.00000E+00
 -1       155 6.56250E-02 0.00000E+00 0.00000E+00
 -1       156 5.00000E-02 1.04167E-03 0.00000E+00
 -1       157 5.00000E-02 2.08333E-03 0.00000E+00
 -1       158 5.00000E-02 3.12500E-03 0.00000E+00
 -1       159 5.00000E-02 4.16667E-03 0.00000E+00
 -1       160 5.00000E-02 5.20833E-03 0.00000E+00
 -1       161 5.10417E-02 3.90630E-04 0.00000E+00
 -1       162 5.20833E-02 7.81250E-04 0.00000E+00
 -1       163 5.31250E-02 1.17188E-03 0.00000E+00
 -1       164 5.41667E-02 1.56250E-03 0.00000E+00
 -1       165 5.52083E-02 1.95312E-03 0.00000E+00
 -1       166 5.62500E-02 2.34375E-03 0.00000E+00
 -1       167 5.72917E-02 2.73438E-03 0.00000E+00
 -1       168 5.83333E-02 3.12500E-03 0.00000E+00
 -1       169 5.93750E-02 3.51563E-03 0.00000E+00
 -1       170 6.04167E-02 3.90625E-03 0.00000E+00
 -1       171 6.14583E-02 4.29688E-03 0.00000E+00
 -1       172 6.25000E-02 4.68750E-03 0.00000E+00
 -1       173 6.35417E-02 5.07813E-03 0.00000E+00
 -1       174 6.45833E-02 5.46875E-03 0.00000E+00
 -1       175 6.56250E-02 5.85938E-03 0.00000E+00
 -1       191 6.66667E-02 1.04167E-03 0.00000E+00
 -1       192 6.66667E-02 2.08333E-03 0.00000E+00
 -1       193 6.66667E-02 3.12500E-03 0.00000E+00
 -1       194 6.66667E-02 4.16667E-03 0.00000E+00
 -1       195 6.66667E-02 5.20833E-03 0.00000E+00
 -1       251 1.04167E-03 6.25000E-03 0.00000E+00
 -1       252 2.08333E-03 6.25000E-03 0.00000E+00
 -1       253 3.12500E-03 6.25000E-03 0.00000E+00
 -1       254 4.16667E-03 6.25000E-03 0.00000E+00
 -1       255 5.20833E-03 6.25000E-03 0.00000E+00
 -1       256 6.25000E-03 6.25000E-03 0.00000E+00
 -1       257 7.29167E-03 6.25000E-03 0.00000E+00
 -1       258 8.33333E-03 6.25000E-03 0.00000E+00
 -1       259 9.37500E-03 6.25000E-03 0.00000E+00
 -1       260 1.04167E-02 6.25000E-03 0.00000E+00
 -1       261 1.14583E-02 6.25000E-03 0.00000E+00
 -1       262 1.25000E-02 6.25000E-03 0.00000E+00
 -1       263 1.35417E-02 6.25000E-03 0.00000E+00
 -1       264 1.45833E-02 6.25000E-03 0.00000E+00
 -1       265 1.56250E-02 6.25000E-03 0.00000E+00
 -1       266 0.00000E+00 7.29167E-03 0.00000E+00
 -1       267 0.00000E+00 8.33333E-03 0.00000E+00
 -1       268 0.00000E+00 9.37500E-03 0.00000E+00
 -1       269 0.00000E+00 1.04167E-02 0.00000E+00
 -1       270 0.00000E+00 1.14583E-02 0.00000E+00
 -1       271 1.04167E-03 6.64063E-03 0.00000E+00
 -1       272 2.08333E-03 7.03125E-03 0.00000E+00
 -1       273 3.12500E-03 7.42188E-03 0.00000E+00
 -1       274 4.16667E-03 7.81250E-03 0.00000E+00
 -1       275 5.20833E-03 8.20313E-03 0.00000E+00
 -1       276 6.25000E-03 8.59375E-03 0.00000E+00
 -1       277 7.29167E-03 8.98438E-03 0.00000E+00
 -1       278 8.33333E-03 9.37500E-03 0.00000E+00
 -1       279 9.37500E-03 9.76562E-03 0.00000E+00
 -1       280 1.04167E-02 1.01562E-02 0.00000E+00
 -1       281 1.14583E-02 1.05469E-02 0.00000E+00
 -1       282 1.25000E-02 1.09375E-02 0.00000E+00
 -1       283 1.35417E-02 1.13281E-02 0.00000E+00
 -1       284 1.45833E-02 1.17188E-02 0.00000E+00
 -1       285 1.56250E-02 1.21094E-02 0.00000E+00
 -1       286 1.77083E-02 6.25000E-03 0.00000E+00
 -1       287 1.87500E-02 6.25000E-03 0.00000E+00
 -1       288 1.97917E-02 6.25000E-03 0.00000E+00
 -1       289 2.08333E-02 6.25000E-03 0.00000E+00
 -1       290 2.18750E-02 6.25000E-03 0.00000E+00
 -1       291 2.29167E-02 6.25000E-03 0.00000E+00
 -1       292 2.39583E-02 6.25000E-03 0.00000E+00
 -1       293 2.50000E-02 6.25000E-03 0.00000E+00
 -1       294 2.60417E-02 6.25000E-03 0.00000E+00
 -1       295 2.70833E-02 6.25000E-03 0.00000E+00
 -1       296 2.81250E-02 6.25000E-03 0.00000E+00
 -1       297 2.91667E-02 6.25000E-03 0.00000E+00
 -1       298 3.02083E-02 6.25000E-03 0.00000E+00
 -1       299 3.12500E-02 6.25000E-03 0.00000E+00
 -1       300 3.22917E-02 6.25000E-03 0.00000E+00
 -1       301 1.66667E-02 7.29167E-03 0.00000E+00
 -1       302 1.66667E-02 8.33333E-03 0.00000E+00
 -1       303 1.66667E-02 9.37500E-03 0.00000E+00
 -1       304 1.66667E-02 1.04167E-02 0.00000E+00
 -1       305 1.66667E-02 1.14583E-02 0.00000E+00
 -1       306 1.77083E-02 6.64063E-03 0.00000E+00
 -1       307 1.87500E-02 7.03125E-03 0.00000E+00
 -1       308 1.97917E-02 7.42188E-03 0.00000E+00
 -1       309 2.08333E-02 7.81250E-03 0.00000E+00
 -1       310 2.18750E-02 8.20313E-03 0.00000E+00
 -1       311 2.29167E-02 8.59375E-03 0.00000E+00
 -1       312 2.39583E-02 8.98438E-03 0.00000E+00
 -1       313 2.50000E-02 9.37500E-03 0.00000E+00
 -1       314 2.60417E-02 9.76562E-03 0.00000E+00
 -1       315 2.70833E-02 1.01562E-02 0.00000E+00
 -1       316 2.81250E-02 1.05469E-02 0.00000E+00
 -1       317 2.91667E-02 1.09375E-02 0.00000E+00
 -1       318 3.02083E-02 1.13281E-02 0.00000E+00
 -1       319 3.12500E-02 1.17188E-02 0.00000E+00
 -1       320 3.22917E-02 1.21094E-02 0.00000E+00
 -1       321 3.43750E-02 6.25000E-03 0.00000E+00
 -1       322 3.54167E-02 6.25000E-03 0.00000E+00
 -1       323 3.64583E-02 6.25000E-03 0.00000E+00
 -1       324 3.75000E-02 6.25000E-03 0.00000E+00
 -1       325 3.85417E-02 6.25000E-03 0.00000E+00
 -1       326 3.95833E-02 6.25000E-03 0.00000E+00
 -1       327 4.06250E-02 6.25000E-03 0.00000E+00
 -1       328 4.16667E-02 6.25000E-03 0.00000E+00
 -1       329 4.27083E-02 6.25000E-03 0.00000E+00
 -1       330 4.37500E-02 6.25000E-03 0.00000E+00
 -1       331 4.47917E-02 6.25000E-03 0.00000E+00
 -1       332 4.58333E-02 6.25000E-03 0.00000E+00
 -1       333 4.68750E-02 6.25000E-03 0.00000E+00
 -1       334 4.79167E-02 6.25000E-03 0.00000E+00
 -1       335 4.89583E-02 6.25000E-03 0.00000E+00
 -1       336 3.33333E-02 7.29167E-03 0.00000E+00
 -1       337 3.33333E-02 8.33333E-03 0.00000E+00
 -1       338 3.33333E-02 9.37500E-03 0.00000E+00
 -1       339 3.33333E-02 1.04167E-02 0.00000E+00
 -1       340 3.33333E-02 1.14583E-02 0.00000E+00
 -1       341 3.43750E-02 6.64063E-03 0.00000E+00
 -1       342 3.54167E-02 7.03125E-03 0.00000E+00
 -1       343 3.64583E-02 7.42188E-03 0.00000E+00
 -1       344 3.75000E-02 7.81250E-03 0.00000E+00
 -1       345 3.85417E-02 8.20313E-03 0.00000E+00
 -1       346 3.95833E-02 8.59375E-03 0.00000E+00
 -1       347 4.06250E-02 8.98438E-03 0.00000E+00
 -1       348 4.16667E-02 9.37500E-03 0.00000E+00
 -1       349 4.27083E-02 9.76562E-03 0.00000E+00
 -1       350 4.37500E-02 1.01562E-02 0.00000E+00
 -1       351 4.47917E-02 1.05469E-02 0.00000E+00
 -1       352 4.58333E-02 1.09375E-02 0.00000E+00
 -1       353 4.68750E-02 1.13281E-02 0.00000E+00
 -1       354 4.79167E-02 1.17188E-02 0.00000E+00
 -1       355 4.89583E-02 1.21094E-02 0.00000E+00
 -1       356 5.10417E-02 6.25000E-03 0.00000E+00
 -1       357 5.20833E-02 6.25000E-03 0.00000E+00
 -1       358 5.31250E-02 6.25000E-03 0.00000E+00
 -1       359 5.41667E-02 6.25000E-03 0.00000E+00
 -1       360 5.52083E-02 6.25000E-03 0.00000E+00
 -1       361 5.62500E-02 6.25000E-03 0.00000E+00
 -1       362 5.72917E-02 6.25000E-03 0.00000E+00
 -1       363 5.83333E-02 6.25000E-03 0.00000E+00
 -1       364 5.93750E-02 6.25000E-03 0.00000E+00
 -1       365 6.04167E-02 6.25000E-03 0.00000E+00
 -1       366 6.14583E-02 6.25000E-03 0.00000E+00
 -1       367 6.25000E-02 6.25000E-03 0.00000E+00
 -1       368 6.35417E-02 6.25000E-03 0.00000E+00
 -1       369 6.45833E-02 6.25000E-03 0.00000E+00
 -1       370 6.56250E-02 6.25000E-03 0.00000E+00
 -1       371 5.00000E-02 7.29167E-03 0.00000E+00
 -1       372 5.00000E-02 8.33333E-03 0.00000E+00
 -1       373 5.00000E-02 9.37500E-03 0.00000E+00
 -1       374 5.00000E-02 1.04167E-02 0.00000E+00
 -1       375 5.00000E-02 1.14583E-02 0.00000E+00
 -1       376 5.10417E-02 6.64063E-03 0.00000E+00
 -1       377 5.20833E-02 7.03125E-03 0.00000E+00
 -1       378 5.31250E-02 7.42188E-03 0.00000E+00
 -1       379 5.41667E-02 7.81250E-03 0.00000E+00
 -1       380 5.52083E-02 8.20313E-03 0.00000E+00
 -1       381 5.62500E-02 8.59375E-03 0.00000E+00
 -1       382 5.72917E-02 8.98438E-03 0.00000E+00
 -1       383 5.83333E-02 9.37500E-03 0.00000E+00
 -1       384 5.93750E-02 9.76562E-03 0.00000E+00
 -1       385 6.04167E-02 1.01562E-02 0.00000E+00
 -1       386 6.14583E-02 1.05469E-02 0.00000E+00
 -1       387 6.25000E-02 1.09375E-02 0.00000E+00
 -1       388 6.35417E-02 1.13281E-02 0.00000E+00
 -1       389 6.45833E-02 1.17188E-02 0.00000E+00
 -1       390 6.56250E-02 1.21094E-02 0.00000E+00
 -1       406 6.66667E-02 7.29167E-03 0.00000E+00
 -1       407 6.66667E-02 8.33333E-03 0.00000E+00
 -1       408 6.66667E-02 9.37500E-03 0.00000E+00
 -1       409 6.66667E-02 1.04167E-02 0.00000E+00
 -1       410 6.66667E-02 1.14583E-02 0.00000E+00
 -1       466 1.04167E-03 1.25000E-02 0.00000E+00
 -1       467 2.08333E-03 1.25000E-02 0.00000E+00
 -1       468 3.12500E-03 1.25000E-02 0.00000E+00
 -1       469 4.16667E-03 1.25000E-02 0.00000E+00
 -1       470 5.20833E-03 1.25000E-02 0.00000E+00
 -1       471 6.25000E-03 1.25000E-02 0.00000E+00
 -1       472 7.29167E-03 1.25000E-02 0.00000E+00
 -1       473 8.33333E-03 1.25000E-02 0.00000E+00
 -1       474 9.37500E-03 1.25000E-02 0.00000E+00
 -1       475 1.04167E-02 1.25000E-02 0.00000E+00
 -1       476 1.14583E-02 1.25000E-02 0.00000E+00
 -1       477 1.25000E-02 1.25000E-02 0.00000E+00
 -1       478 1.35417E-02 1.25000E-02 0.00000E+00
 -1       479 1.45833E-02 1.25000E-02 0.00000E+00
 -1       480 1.56250E-02 1.25000E-02 0.00000E+00
 -1       481 0.00000E+00 1.35417E-02 0.00000E+00
 -1       482 0.00000E+00 1.45833E-02 0.00000E+00
 -1       483 0.00000E+00 1.56250E-02 0.00000E+00
 -1       484 0.00000E+00 1.66667E-02 0.00000E+00
 -1       485 0.00000E+00 1.77083E-02 0.00000E+00
 -1       486 1.04167E-03 1.28906E-02 0.00000E+00
 -1       487 2.08333E-03 1.32813E-02 0.00000E+00
 -1       488 3.12500E-03 1.36719E-02 0.00000E+00
 -1       489 4.16667E-03 1.40625E-02 0.00000E+00
 -1       490 5.20833E-03 1.44531E-02 0.00000E+00
 -1       491 6.25000E-03 1.48437E-02 0.00000E+00
 -1       492 7.29167E-03 1.52344E-02 0.00000E+00
 -1       493 8.33333E-03 1.56250E-02 0.00000E+00
 -1       494 9.37500E-03 1.60156E-02 0.00000E+00
 -1       495 1.04167E-02 1.64062E-02 0.00000E+00
 -1       496 1.14583E-02 1.67969E-02 0.00000E+00
 -1       497 1.25000E-02 1.71875E-02 0.00000E+00
 -1       498 1.35417E-02 1.75781E-02 0.00000E+00
 -1       499 1.45833E-02 1.79687E-02 0.00000E+00
 -1       500 1.56250E-02 1.83594E-02 0.00000E+00
 -1       501 1.77083E-02 1.25000E-02 0.00000E+00
 -1       502 1.87500E-02 1.25000E-02 0.00000E+00
 -1       503 1.97917E-02 1.25000E-02 0.00000E+00
 -1       504 2.08333E-02 1.25000E-02 0.00000E+00
 -1       505 2.18750E-02 1.25000E-02 0.00000E+00
 -1       506 2.29167E-02 1.25000E-02 0.00000E+00
 -1       507 2.39583E-02 1.25000E-02 0.00000E+00
 -1       508 2.50000E-02 1.25000E-02 0.00000E+00
 -1       509 2.60417E-02 1.25000E-02 0.00000E+00
 -1       510 2.70833E-02 1.25000E-02 0.00000E+00
 -1       511 2.81250E-02 1.25000E-02 0.00000E+00
 -1       512 2.91667E-02 1.25000E-02 0.00000E+00
 -1       513 3.02083E-02 1.25000E-02 0.00000E+00
 -1       514 3.12500E-02 1.25000E-02 0.00000E+00
 -1       515 3.22917E-02 1.25000E-02 0.00000E+00
 -1       516 1.66667E-02 1.35417E-02 0.00000E+00
 -1       517 1.66667E-02 1.45833E-02 0.00000E+00
 -1       518 1.66667E-02 1.56250E-02 0.00000E+00
 -1       519 1.66667E-02 1.66667E-02 0.00000E+00
 -1       520 1.66667E-02 1.77083E-02 0.00000E+00
 -1       521 1.77083E-02 1.28906E-02 0.00000E+00
 -1       522 1.87500E-02 1.32813E-02 0.00000E+00
 -1       523 1.97917E-02 1.36719E-02 0.00000E+00
 -1       524 2.08333E-02 1.40625E-02 0.00000E+00
 -1       525 2.18750E-02 1.44531E-02 0.00000E+00
 -1       526 2.29167E-02 1.48437E-02 0.00000E+00
 -1       527 2.39583E-02 1.52344E-02 0.00000E+00
 -1       528 2.50000E-02 1.56250E-02 0.00000E+00
 -1       529 2.60417E-02 1.60156E-02 0.00000E+00
 -1       530 2.70833E-02 1.64062E-02 0.00000E+00
 -1       531 2.81250E-02 1.67969E-02 0.00000E+00
 -1       532 2.91667E-02 1.71875E-02 0.00000E+00
 -1       533 3.02083E-02 1.75781E-02 0.00000E+00
 -1       534 3.12500E-02 1.79687E-02 0.00000E+00
 -1       535 3.22917E-02 1.83594E-02 0.00000E+00
 -1       536 3.43750E-02 1.25000E-02 0.00000E+00
 -1       537 3.54167E-02 1.25000E-02 0.00000E+00
 -1       538 3.64583E-02 1.25000E-02 0.00000E+00
 -1       539 3.75000E-02 1.25000E-02 0.00000E+00
 -1       540 3.85417E-02 1.25000E-02 0.00000E+00
 -1       541 3.95833E-02 1.25000E-02 0.00000E+00
 -1       542 4.06250E-02 1.25000E-02 0.00000E+00
 -1       543 4.16667E-02 1.25000E-02 0.00000E+00
 -1       544 4.27083E-02 1.25000E-02 0.00000E+00
 -1       545 4.37500E-02 1.25000E-02 0.00000E+00
 -1       546 4.47917E-02 1.25000E-02 0.00000E+00
 -1       547 4.58333E-02 1.25000E-02 0.00000E+00
 -1       548 4.68750E-02 1.25000E-02 0.00000E+00
 -1       549 4.79167E-02 1.25000E-02 0.00000E+00
 -1       550 4.89583E-02 1.25000E-02 0.00000E+00
 -1       551 3.33333E-02 1.35417E-02 0.00000E+00
 -1       552 3.33333E-02 1.45833E-02 0.00000E+00
 -1       553 3.33333E-02 1.56250E-02 0.00000E+00
 -1       554 3.33333E-02 1.66667E-02 0.00000E+00
 -1       555 3.33333E-02 1.77083E-02 0.00000E+00
 -1       556 3.43750E-02 1.28906E-02 0.00000E+00
 -1       557 3.54167E-02 1.32813E-02 0.00000E+00
 -1       558 3.64583E-02 1.36719E-02 0.00000E+00
 -1       559 3.75000E-02 1.40625E-02 0.00000E+00
 -1       560 3.85417E-02 1.44531E-02 0.00000E+00
 -1       561 3.95833E-02 1.48437E-02 0.00000E+00
 -1       562 4.06250E-02 1.52344E-02 0.00000E+00
 -1       563 4.16667E-02 1.56250E-02 0.00000E+00
 -1       564 4.27083E-02 1.60156E-02 0.00000E+00
 -1       565 4.37500E-02 1.64062E-02 0.00000E+00
 -1       566 4.47917E-02 1.67969E-02 0.00000E+00
 -1       567 4.58333E-02 1.71875E-02 0.00000E+00
 -1       568 4.68750E-02 1.75781E-02 0.00000E+00
 -1       569 4.79167E-02 1.79687E-02 0.00000E+00
 -1       570 4.89583E-02 1.83594E-02 0.00000E+00
 -1       571 5.10417E-02 1.25000E-02 0.00000E+00
 -1       572 5.20833E-02 1.25000E-02 0.00000E+00
 -1       573 5.31250E-02 1.25000E-02 0.00000E+00
 -1       574 5.41667E-02 1.25000E-02 0.00000E+00
 -1       575 5.52083E-02 1.25000E-02 0.00000E+00
 -1       576 5.62500E-02 1.25000E-02 0.00000E+00
 -1       577 5.72917E-02 1.25000E-02 0.00000E+00
 -1       578 5.83333E-02 1.25000E-02 0.00000E+00
 -1       579 5.93750E-02 1.25000E-02 0.00000E+00
 -1       580 6.04167E-02 1.25000E-02 0.00000E+00
 -1       581 6.14583E-02 1.25000E-02 0.00000E+00
 -1       582 6.25000E-02 1.25000E-02 0.00000E+00
 -1       583 6.35417E-02 1.25000E-02 0.00000E+00
 -1       584 6.45833E-02 1.25000E-02 0.00000E+00
 -1       585 6.56250E-02 1.25000E-02 0.00000E+00
 -1       586 5.00000E-02 1.35417E-02 0.00000E+00
 -1       587 5.00000E-02 1.45833E-02 0.00000E+00
 -1       588 5.00000E-02 1.56250E-02 0.00000E+00
 -1       589 5.00000E-02 1.66667E-02 0.00000E+00
 -1       590 5.00000E-02 1.77083E-02 0.00000E+00
 -1       591 5.10417E-02 1.28906E-02 0.00000E+00
 -1       592 5.20833E-02 1.32813E-02 0.00000E+00
 -1       593 5.31250E-02 1.36719E-02 0.00000E+00
 -1       594 5.41667E-02 1.40625E-02 0.00000E+00
 -1       595 5.52083E-02 1.44531E-02 0.00000E+00
 -1       596 5.62500E-02 1.48437E-02 0.00000E+00
 -1       597 5.72917E-02 1.52344E-02 0.00000E+00
 -1       598 5.83333E-02 1.56250E-02 0.00000E+00
 -1       599 5.93750E-02 1.60156E-02 0.00000E+00
 -1       600 6.04167E-02 1.64062E-02 0.00000E+00
 -1       601 6.14583E-02 1.67969E-02 0.00000E+00
 -1       602 6.25000E-02 1.71875E-02 0.00000E+00
 -1       603 6.35417E-02 1.75781E-02 0.00000E+00
 -1       604 6.45833E-02 1.79687E-02 0.00000E+00
 -1       605 6.56250E-02 1.83594E-02 0.00000E+00
 -1       606 6.77083E-02 1.25000E-02 0.00000E+00
 -1       607 6.87500E-02 1.25000E-02 0.00000E+00
 -1       608 6.97917E-02 1.25000E-02 0.00000E+00
 -1       609 7.08333E-02 1.25000E-02 0.00000E+00
 -1       610 7.18750E-02 1.25000E-02 0.00000E+00
 -1       611 7.29167E-02 1.25000E-02 0.00000E+00
 -1       612 7.39583E-02 1.25000E-02 0.00000E+00
 -1       613 7.50000E-02 1.25000E-02 0.00000E+00
 -1       614 7.60417E-02 1.25000E-02 0.00000E+00
 -1       615 7.70833E-02 1.25000E-02 0.00000E+00
 -1       616 7.81250E-02 1.25000E-02 0.00000E+00
 -1       617 7.91667E-02 1.25000E-02 0.00000E+00
 -1       618 8.02083E-02 1.25000E-02 0.00000E+00
 -1       619 8.12500E-02 1.25000E-02 0.00000E+00
 -1       620 8.22917E-02 1.25000E-02 0.00000E+00
 -1       621 6.66667E-02 1.35417E-02 0.00000E+00
 -1       622 6.66667E-02 1.45833E-02 0.00000E+00
 -1       623 6.66667E-02 1.56250E-02 0.00000E+00
 -1       624 6.66667E-02 1.66667E-02 0.00000E+00
 -1       625 6.66667E-02 1.77083E-02 0.00000E+00
 -1       626 6.77083E-02 1.28906E-02 0.00000E+00
 -1       627 6.87500E-02 1.32813E-02 0.00000E+00
 -1       628 6.97917E-02 1.36719E-02 0.00000E+00
 -1       629 7.08333E-02 1.40625E-02 0.00000E+00
 -1       630 7.18750E-02 1.44531E-02 0.00000E+00
 -1       631 7.29167E-02 1.48437E-02 0.00000E+00
 -1       632 7.39583E-02 1.52344E-02 0.00000E+00
 -1       633 7.50000E-02 1.56250E-02 0.00000E+00
 -1       634 7.60417E-02 1.60156E-02 0.00000E+00
 -1       635 7.70833E-02 1.64062E-02 0.00000E+00
 -1       636 7.81250E-02 1.67969E-02 0.00000E+00
 -1       637 7.91667E-02 1.71875E-02 0.00000E+00
 -1       638 8.02083E-02 1.75781E-02 0.00000E+00
 -1       639 8.12500E-02 1.79687E-02 0.00000E+00
 -1       640 8.22917E-02 1.83594E-02 0.00000E+00
 -1       641 8.43750E-02 1.25000E-02 0.00000E+00
 -1       642 8.54167E-02 1.25000E-02 0.00000E+00
 -1       643 8.64583E-02 1.25000E-02 0.00000E+00
 -1       644 8.75000E-02 1.25000E-02 0.00000E+00
 -1       645 8.85417E-02 1.25000E-02 0.00000E+00
 -1       646 8.95833E-02 1.25000E-02 0.00000E+00
 -1       647 9.06250E-02 1.25000E-02 0.00000E+00
 -1       648 9.16667E-02 1.25000E-02 0.00000E+00
 -1       649 9.27083E-02 1.25000E-02 0.00000E+00
 -1       650 9.37500E-02 1.25000E-02 0.00000E+00
 -1       651 9.47917E-02 1.25000E-02 0.00000E+00
 -1       652 9.58333E-02 1.25000E-02 0.00000E+00
 -1       653 9.68750E-02 1.25000E-02 0.00000E+00
 -1       654 9.79167E-02 1.25000E-02 0.00000E+00
 -1       655 9.89583E-02 1.25000E-02 0.00000E+00
 -1       656 8.33333E-02 1.35417E-02 0.00000E+00
 -1       657 8.33333E-02 1.45833E-02 0.00000E+00
 -1       658 8.33333E-02 1.56250E-02 0.00000E+00
 -1       659 8.33333E-02 1.66667E-02 0.00000E+00
 -1       660 8.33333E-02 1.77083E-02 0.00000E+00
 -1       661 8.43750E-02 1.28906E-02 0.00000E+00
 -1       662 8.54167E-02 1.32813E-02 0.00000E+00
 -1       663 8.64583E-02 1.36719E-02 0.00000E+00
 -1       664 8.75000E-02 1.40625E-02 0.00000E+00
 -1       665 8.85417E-02 1.44531E-02 0.00000E+00
 -1       666 8.95833E-02 1.48437E-02 0.00000E+00
 -1       667 9.06250E-02 1.52344E-02 0.00000E+00
 -1       668 9.16667E-02 1.56250E-02 0.00000E+00
 -1       669 9.27083E-02 1.60156E-02 0.00000E+00
 -1       670 9.37500E-02 1.64062E-02 0.00000E+00
 -1       671 9.47917E-02 1.67969E-02 0.00000E+00
 -1       672 9.58333E-02 1.71875E-02 0.00000E+00
 -1       673 9.68750E-02 1.75781E-02 0.00000E+00
 -1       674 9.79167E-02 1.79687E-02 0.00000E+00
 -1       675 9.89583E-02 1.83594E-02 0.00000E+00
 -1       676 1.00000E-01 1.35417E-02 0.00000E+00
 -1       677 1.00000E-01 1.45833E-02 0.00000E+00
 -1       678 1.00000E-01 1.56250E-02 0.00000E+00
 -1       679 1.00000E-01 1.66667E-02 0.00000E+00
 -1       680 1.00000E-01 1.77083E-02 0.00000E+00
 -1       681 1.04167E-03 1.87500E-02 0.00000E+00
 -1       682 2.08333E-03 1.87500E-02 0.00000E+00
 -1       683 3.12500E-03 1.87500E-02 0.00000E+00
 -1       684 4.16667E-03 1.87500E-02 0.00000E+00
 -1       685 5.20833E-03 1.87500E-02 0.00000E+00
 -1       686 6.25000E-03 1.87500E-02 0.00000E+00
 -1       687 7.29167E-03 1.87500E-02 0.00000E+00
 -1       688 8.33333E-03 1.87500E-02 0.00000E+00
 -1       689 9.37500E-03 1.87500E-02 0.00000E+00
 -1       690 1.04167E-02 1.87500E-02 0.00000E+00
 -1       691 1.14583E-02 1.87500E-02 0.00000E+00
 -1       692 1.25000E-02 1.87500E-02 0.00000E+00
 -1       693 1.35417E-02 1.87500E-02 0.00000E+00
 -1       694 1.45833E-02 1.87500E-02 0.00000E+00
 -1       695 1.56250E-02 1.87500E-02 0.00000E+00
 -1       696 0.00000E+00 1.97917E-02 0.00000E+00
 -1       697 0.00000E+00 2.08333E-02 0.00000E+00
 -1       698 0.00000E+00 2.18750E-02 0.00000E+00
 -1       699 0.00000E+00 2.29167E-02 0.00000E+00
 -1       700 0.00000E+00 2.39583E-02 0.00000E+00
 -1       701 1.04167E-03 1.91406E-02 0.00000E+00
 -1       702 2.08333E-03 1.95312E-02 0.00000E+00
 -1       703 3.12500E-03 1.99219E-02 0.00000E+00
 -1       704 4.16667E-03 2.03125E-02 0.00000E+00
 -1       705 5.20833E-03 2.07031E-02 0.00000E+00
 -1       706 6.25000E-03 2.10938E-02 0.00000E+00
 -1       707 7.29167E-03 2.14844E-02 0.00000E+00
 -1       708 8.33333E-03 2.18750E-02 0.00000E+00
 -1       709 9.37500E-03 2.22656E-02 0.00000E+00
 -1       710 1.04167E-02 2.26563E-02 0.00000E+00
 -1       711 1.14583E-02 2.30469E-02 0.00000E+00
 -1       712 1.25000E-02 2.34375E-02 0.00000E+00
 -1       713 1.35417E-02 2.38281E-02 0.00000E+00
 -1       714 1.45833E-02 2.42187E-02 0.00000E+00
 -1       715 1.56250E-02 2.46094E-02 0.00000E+00
 -1       716 1.77083E-02 1.87500E-02 0.00000E+00
 -1       717 1.87500E-02 1.87500E-02 0.00000E+00
 -1       718 1.97917E-02 1.87500E-02 0.00000E+00
 -1       719 2.08333E-02 1.87500E-02 0.00000E+00
 -1       720 2.18750E-02 1.87500E-02 0.00000E+00
 -1       721 2.29167E-02 1.87500E-02 0.00000E+00
 -1       722 2.39583E-02 1.87500E-02 0.00000E+00
 -1       723 2.50000E-02 1.87500E-02 0.00000E+00
 -1       724 2.60417E-02 1.87500E-02 0.00000E+00
 -1       725 2.70833E-02 1.87500E-02 0.00000E+00
 -1       726 2.81250E-02 1.87500E-02 0.00000E+00
 -1       727 2.91667E-02 1.87500E-02 0.00000E+00
 -1       728 3.02083E-02 1.87500E-02 0.00000E+00
 -1       729 3.12500E-02 1.87500E-02 0.00000E+00
 -1       730 3.22917E-02 1.87500E-02 0.00000E+00
 -1       731 1.66667E-02 1.97917E-02 0.00000E+00
 -1       732 1.66667E-02 2.08333E-02 0.00000E+00
 -1       733 1.66667E-02 2.18750E-02 0.00000E+00
 -1       734 1.66667E-02 2.29167E-02 0.00000E+00
 -1       735 1.66667E-02 2.39583E-02 0.00000E+00
 -1       736 1.77083E-02 1.91406E-02 0.00000E+00
 -1       737 1.87500E-02 1.95312E-02 0.00000E+00
 -1       738 1.97917E-02 1.99219E-02 0.00000E+00
 -1       739 2.08333E-02 2.03125E-02 0.00000E+00
 -1       740 2.18750E-02 2.07031E-02 0.00000E+00
 -1       741 2.29167E-02 2.10938E-02 0.00000E+00
 -1       742 2.39583E-02 2.14844E-02 0.00000E+00
 -1       743 2.50000E-02 2.18750E-02 0.00000E+00
 -1       744 2.60417E-02 2.22656E-02 0.00000E+00
 -1       745 2.70833E-02 2.26563E-02 0.00000E+00
 -1       746 2.81250E-02 2.30469E-02 0.00000E+00
 -1       747 2.91667E-02 2.34375E-02 0.00000E+00
 -1       748 3.02083E-02 2.38281E-02 0.00000E+00
 -1       749 3.12500E-02 2.42187E-02 0.00000E+00
 -1       750 3.22917E-02 2.46094E-02 0.00000E+00
 -1       751 3.43750E-02 1.87500E-02 0.00000E+00
 -1       752 3.54167E-02 1.87500E-02 0.00000E+00
 -1       753 3.64583E-02 1.87500E-02 0.00000E+00
 -1       754 3.75000E-02 1.87500E-02 0.00000E+00
 -1       755 3.85417E-02 1.87500E-02 0.00000E+00
 -1       756 3.95833E-02 1.87500E-02 0.00000E+00
 -1       757 4.06250E-02 1.87500E-02 0.00000E+00
 -1       758 4.16667E-02 1.87500E-02 0.00000E+00
 -1       759 4.27083E-02 1.87500E-02 0.00000E+00
 -1       760 4.37500E-02 1.87500E-02 0.00000E+00
 -1       761 4.47917E-02 1.87500E-02 0.00000E+00
 -1       762 4.58333E-02 1.87500E-02 0.00000E+00
 -1       763 4.68750E-02 1.87500E-02 0.00000E+00
 -1       764 4.79167E-02 1.87500E-02 0.00000E+00
 -1       765 4.89583E-02 1.87500E-02 0.00000E+00
 -1       766 3.33333E-02 1.97917E-02 0.00000E+00
 -1       767 3.33333E-02 2.08333E-02 0.00000E+00
 -1       768 3.33333E-02 2.18750E-02 0.00000E+00
 -1       769 3.33333E-02 2.29167E-02 0.00000E+00
 -1       770 3.33333E-02 2.39583E-02 0.00000E+00
 -1       771 3.43750E-02 1.91406E-02 0.00000E+00
 -1       772 3.54167E-02 1.95312E-02 0.00000E+00
 -1       773 3.64583E-02 1.99219E-02 0.00000E+00
 -1       774 3.75000E-02 2.03125E-02 0.00000E+00
 -1       775 3.85417E-02 2.07031E-02 0.00000E+00
 -1       776 3.95833E-02 2.10938E-02 0.00000E+00
 -1       777 4.06250E-02 2.14844E-02 0.00000E+00
 -1       778 4.16667E-02 2.18750E-02 0.00000E+00
 -1       779 4.27083E-02 2.22656E-02 0.00000E+00
 -1       780 4.37500E-02 2.26563E-02 0.00000E+00
 -1       781 4.47917E-02 2.30469E-02 0.00000E+00
 -1       782 4.58333E-02 2.34375E-02 0.00000E+00
 -1       783 4.68750E-02 2.38281E-02 0.00000E+00
 -1       784 4.79167E-02 2.42187E-02 0.00000E+00
 -1       785 4.89583E-02 2.46094E-02 0.00000E+00
 -1       786 5.10417E-02 1.87500E-02 0.00000E+00
 -1       787 5.20833E-02 1.87500E-02 0.00000E+00
 -1       788 5.31250E-02 1.87500E-02 0.00000E+00
 -1       789 5.41667E-02 1.87500E-02 0.00000E+00
 -1       790 5.52083E-02 1.87500E-02 0.00000E+00
 -1       791 5.62500E-02 1.87500E-02 0.00000E+00
 -1       792 5.72917E-02 1.87500E-02 0.00000E+00
 -1       793 5.83333E-02 1.87500E-02 0.00000E+00
 -1       794 5.93750E-02 1.87500E-02 0.00000E+00
 -1       795 6.04167E-02 1.87500E-02 0.00000E+00
 -1       796 6.14583E-02 1.87500E-02 0.00000E+00
 -1       797 6.25000E-02 1.87500E-02 0.00000E+00
 -1       798 6.35417E-02 1.87500E-02 0.00000E+00
 -1       799 6.45833E-02 1.87500E-02 0.00000E+00
 -1       800 6.56250E-02 1.87500E-02 0.00000E+00
 -1       801 5.00000E-02 1.97917E-02 0.00000E+00
 -1       802 5.00000E-02 2.08333E-02 0.00000E+00
 -1       803 5.00000E-02 2.18750E-02 0.00000E+00
 -1       804 5.00000E-02 2.29167E-02 0.00000E+00
 -1       805 5.00000E-02 2.39583E-02 0.00000E+00
 -1       806 5.10417E-02 1.91406E-02 0.00000E+00
 -1       807 5.20833E-02 1.95312E-02 0.00000E+00
 -1       808 5.31250E-02 1.99219E-02 0.00000E+00
 -1       809 5.41667E-02 2.03125E-02 0.00000E+00
 -1       810 5.52083E-02 2.07031E-02 0.00000E+00
 -1       811 5.62500E-02 2.10938E-02 0.00000E+00
 -1       812 5.72917E-02 2.14844E-02 0.00000E+00
 -1       813 5.83333E-02 2.18750E-02 0.00000E+00
 -1       814 5.93750E-02 2.22656E-02 0.00000E+00
 -1       815 6.04167E-02 2.26563E-02 0.00000E+00
 -1       816 6.14583E-02 2.30469E-02 0.00000E+00
 -1       817 6.25000E-02 2.34375E-02 0.00000E+00
 -1       818 6.35417E-02 2.38281E-02 0.00000E+00
 -1       819 6.45833E-02 2.42187E-02 0.00000E+00
 -1       820 6.56250E-02 2.46094E-02 0.00000E+00
 -1       821 6.77083E-02 1.87500E-02 0.00000E+00
 -1       822 6.87500E-02 1.87500E-02 0.00000E+00
 -1       823 6.97917E-02 1.87500E-02 0.00000E+00
 -1       824 7.08333E-02 1.87500E-02 0.00000E+00
 -1       825 7.18750E-02 1.87500E-02 0.00000E+00
 -1       826 7.29167E-02 1.87500E-02 0.00000E+00
 -1       827 7.39583E-02 1.87500E-02 0.00000E+00
 -1       828 7.50000E-02 1.87500E-02 0.00000E+00
 -1       829 7.60417E-02 1.87500E-02 0.00000E+00
 -1       830 7.70833E-02 1.87500E-02 0.00000E+00
 -1       831 7.81250E-02 1.87500E-02 0.00000E+00
 -1       832 7.91667E-02 1.87500E-02 0.00000E+00
 -1       833 8.02083E-02 1.87500E-02 0.00000E+00
 -1       834 8.12500E-02 1.87500E-02 0.00000E+00
 -1       835 8.22917E-02 1.87500E-02 0.00000E+00
 -1       836 6.66667E-02 1.97917E-02 0.00000E+00
 -1       837 6.66667E-02 2.08333E-02 0.00000E+00
 -1       838 6.66667E-02 2.18750E-02 0.00000E+00
 -1       839 6.66667E-02 2.29167E-02 0.00000E+00
 -1       840 6.66667E-02 2.39583E-02 0.00000E+00
 -1       841 6.77083E-02 1.91406E-02 0.00000E+00
 -1       842 6.87500E-02 1.95312E-02 0.00000E+00
 -1       843 6.97917E-02 1.99219E-02 0.00000E+00
 -1       844 7.08333E-02 2.03125E-02 0.00000E+00
 -1       845 7.18750E-02 2.07031E-02 0.00000E+00
 -1       846 7.29167E-02 2.10938E-02 0.00000E+00
 -1       847 7.39583E-02 2.14844E-02 0.00000E+00
 -1       848 7.50000E-02 2.18750E-02 0.00000E+00
 -1       849 7.60417E-02 2.22656E-02 0.00000E+00
 -1       850 7.70833E-02 2.26563E-02 0.00000E+00
 -1       851 7.81250E-02 2.30469E-02 0.00000E+00
 -1       852 7.91667E-02 2.34375E-02 0.00000E+00
 -1       853 8.02083E-02 2.38281E-02 0.00000E+00
 -1       854 8.12500E-02 2.42187E-02 0.00000E+00
 -1       855 8.22917E-02 2.46094E-02 0.00000E+00
 -1       856 8.43750E-02 1.87500E-02 0.00000E+00
 -1       857 8.54167E-02 1.87500E-02 0.00000E+00
 -1       858 8.64583E-02 1.87500E-02 0.00000E+00
 -1       859 8.75000E-02 1.87500E-02 0.00000E+00
 -1       860 8.85417E-02 1.87500E-02 0.00000E+00
 -1       861 8.95833E-02 1.87500E-02 0.00000E+00
 -1       862 9.06250E-02 1.87500E-02 0.00000E+00
 -1       863 9.16667E-02 1.87500E-02 0.00000E+00
 -1       864 9.27083E-02 1.87500E-02 0.00000E+00
 -1       865 9.37500E-02 1.87500E-02 0.00000E+00
 -1       866 9.47917E-02 1.87500E-02 0.00000E+00
 -1       867 9.58333E-02 1.87500E-02 0.00000E+00
 -1       868 9.68750E-02 1.87500E-02 0.00000E+00
 -1       869 9.79167E-02 1.87500E-02 0.00000E+00
 -1       870 9.89583E-02 1.87500E-02 0.00000E+00
 -1       871 8.33333E-02 1.97917E-02 0.00000E+00
 -1       872 8.33333E-02 2.08333E-02 0.00000E+00
 -1       873 8.33333E-02 2.18750E-02 0.00000E+00
 -1       874 8.33333E-02 2.29167E-02 0.00000E+00
 -1       875 8.33333E-02 2.39583E-02 0.00000E+00
 -1       876 8.43750E-02 1.91406E-02 0.00000E+00
 -1       877 8.54167E-02 1.95312E-02 0.00000E+00
 -1       878 8.64583E-02 1.99219E-02 0.00000E+00
 -1       879 8.75000E-02 2.03125E-02 0.00000E+00
 -1       880 8.85417E-02 2.07031E-02 0.00000E+00
 -1       881 8.95833E-02 2.10938E-02 0.00000E+00
 -1       882 9.06250E-02 2.14844E-02 0.00000E+00
 -1       883 9.16667E-02 2.18750E-02 0.00000E+00
 -1       884 9.27083E-02 2.22656E-02 0.00000E+00
 -1       885 9.37500E-02 2.26563E-02 0.00000E+00
 -1       886 9.47917E-02 2.30469E-02 0.00000E+00
 -1       887 9.58333E-02 2.34375E-02 0.00000E+00
 -1       888 9.68750E-02 2.38281E-02 0.00000E+00
 -1       889 9.79167E-02 2.42187E-02 0.00000E+00
 -1       890 9.89583E-02 2.46094E-02 0.00000E+00
 -1       891 1.00000E-01 1.97917E-02 0.00000E+00
 -1       892 1.00000E-01 2.08333E-02 0.00000E+00
 -1       893 1.00000E-01 2.18750E-02 0.00000E+00
 -1       894 1.00000E-01 2.29167E-02 0.00000E+00
 -1       895 1.00000E-01 2.39583E-02 0.00000E+00
 -1       896 1.04167E-03 2.50000E-02 0.00000E+00
 -1       897 2.08333E-03 2.50000E-02 0.00000E+00
 -1       898 3.12500E-03 2.50000E-02 0.00000E+00
 -1       899 4.16667E-03 2.50000E-02 0.00000E+00
 -1       900 5.20833E-03 2.50000E-02 0.00000E+00
 -1       901 6.25000E-03 2.50000E-02 0.00000E+00
 -1       902 7.29167E-03 2.50000E-02 0.00000E+00
 -1       903 8.33333E-03 2.50000E-02 0.00000E+00
 -1       904 9.37500E-03 2.50000E-02 0.00000E+00
 -1       905 1.04167E-02 2.50000E-02 0.00000E+00
 -1       906 1.14583E-02 2.50000E-02 0.00000E+00
 -1       907 1.25000E-02 2.50000E-02 0.00000E+00
 -1       908 1.35417E-02 2.50000E-02 0.00000E+00
 -1       909 1.45833E-02 2.50000E-02 0.00000E+00
 -1       910 1.56250E-02 2.50000E-02 0.00000E+00
 -1       911 1.77083E-02 2.50000E-02 0.00000E+00
 -1       912 1.87500E-02 2.50000E-02 0.00000E+00
 -1       913 1.97917E-02 2.50000E-02 0.00000E+00
 -1       914 2.08333E-02 2.50000E-02 0.00000E+00
 -1       915 2.18750E-02 2.50000E-02 0.00000E+00
 -1       916 2.29167E-02 2.50000E-02 0.00000E+00
 -1       917 2.39583E-02 2.50000E-02 0.00000E+00
 -1       918 2.50000E-02 2.50000E-02 0.00000E+00
 -1       919 2.60417E-02 2.50000E-02 0.00000E+00
 -1       920 2.70833E-02 2.50000E-02 0.00000E+00
 -1       921 2.81250E-02 2.50000E-02 0.00000E+00
 -1       922 2.91667E-02 2.50000E-02 0.00000E+00
 -1       923 3.02083E-02 2.50000E-02 0.00000E+00
 -1       924 3.12500E-02 2.50000E-02 0.00000E+00
 -1       925 3.22917E-02 2.50000E-02 0.00000E+00
 -1       926 3.43750E-02 2.50000E-02 0.00000E+00
 -1       927 3.54167E-02 2.50000E-02 0.00000E+00
 -1       928 3.64583E-02 2.50000E-02 0.00000E+00
 -1       929 3.75000E-02 2.50000E-02 0.00000E+00
 -1       930 3.85417E-02 2.50000E-02 0.00000E+00
 -1       931 3.95833E-02 2.50000E-02 0.00000E+00
 -1       932 4.06250E-02 2.50000E-02 0.00000E+00
 -1       933 4.16667E-02 2.50000E-02 0.00000E+00
 -1       934 4.27083E-02 2.50000E-02 0.00000E+00
 -1       935 4.37500E-02 2.50000E-02 0.00000E+00
 -1       936 4.47917E-02 2.50000E-02 0.00000E+00
 -1       937 4.58333E-02 2.50000E-02 0.00000E+00
 -1       938 4.68750E-02 2.50000E-02 0.00000E+00
 -1       939 4.79167E-02 2.50000E-02 0.00000E+00
 -1       940 4.89583E-02 2.50000E-02 0.00000E+00
 -1       941 5.10417E-02 2.50000E-02 0.00000E+00
 -1       942 5.20833E-02 2.50000E-02 0.00000E+00
 -1       943 5.31250E-02 2.50000E-02 0.00000E+00
 -1       944 5.41667E-02 2.50000E-02 0.00000E+00
 -1       945 5.52083E-02 2.50000E-02 0.00000E+00
 -1       946 5.62500E-02 2.50000E-02 0.00000E+00
 -1       947 5.72917E-02 2.50000E-02 0.00000E+00
 -1       948 5.83333E-02 2.50000E-02 0.00000E+00
 -1       949 5.93750E-02 2.50000E-02 0.00000E+00
 -1       950 6.04167E-02 2.50000E-02 0.00000E+00
 -1       951 6.14583E-02 2.50000E-02 0.00000E+00
 -1       952 6.25000E-02 2.50000E-02 0.00000E+00
 -1       953 6.35417E-02 2.50000E-02 0.00000E+00
 -1       954 6.45833E-02 2.50000E-02 0.00000E+00
 -1       955 6.56250E-02 2.50000E-02 0.00000E+00
 -1       956 6.77083E-02 2.50000E-02 0.00000E+00
 -1       957 6.87500E-02 2.50000E-02 0.00000E+00
 -1       958 6.97917E-02 2.50000E-02 0.00000E+00
 -1       959 7.08333E-02 2.50000E-02 0.00000E+00
 -1       960 7.18750E-02 2.50000E-02 0.00000E+00
 -1       961 7.29167E-02 2.50000E-02 0.00000E+00
 -1       962 7.39583E-02 2.50000E-02 0.00000E+00
 -1       963 7.50000E-02 2.50000E-02 0.00000E+00
 -1       964 7.60417E-02 2.50000E-02 0.00000E+00
 -1       965 7.70833E-02 2.50000E-02 0.00000E+00
 -1       966 7.81250E-02 2.50000E-02 0.00000E+00
 -1       967 7.91667E-02 2.50000E-02 0.00000E+00
 -1       968 8.02083E-02 2.50000E-02 0.00000E+00
 -1       969 8.12500E-02 2.50000E-02 0.00000E+00
 -1       970 8.22917E-02 2.50000E-02 0.00000E+00
 -1       971 8.43750E-02 2.50000E-02 0.00000E+00
 -1       972 8.54167E-02 2.50000E-02 0.00000E+00
 -1       973 8.64583E-02 2.50000E-02 0.00000E+00
 -1       974 8.75000E-02 2.50000E-02 0.00000E+00
 -1       975 8.85417E-02 2.50000E-02 0.00000E+00
 -1       976 8.95833E-02 2.50000E-02 0.00000E+00
 -1       977 9.06250E-02 2.50000E-02 0.00000E+00
 -1       978 9.16667E-02 2.50000E-02 0.00000E+00
 -1       979 9.27083E-02 2.50000E-02 0.00000E+00
 -1       980 9.37500E-02 2.50000E-02 0.00000E+00
 -1       981 9.47917E-02 2.50000E-02 0.00000E+00
 -1       982 9.58333E-02 2.50000E-02 0.00000E+00
 -1       983 9.68750E-02 2.50000E-02 0.00000E+00
 -1       984 9.79167E-02 2.50000E-02 0.00000E+00
 -1       985 9.89583E-02 2.50000E-02 0.00000E+00
 -3
    3C                           440                                     1
 -1         1   12    0    1
 -2         1        37        36
 -1         2   12    0    1
 -2        37        39        38
 -1         3   12    0    1
 -2        39        41        40
 -1         4   12    0    1
 -2        41        43        42
 -1         5   12    0    1
 -2        43        45        44
 -1         6   12    0    1
 -2        45        47        46
 -1         7   12    0    1
 -2        47        49        48
 -1         8   12    0    1
 -2        49         2        50
 -1         9   12    0    1
 -2         1        52        51
 -1        10   12    0    1
 -2        52        54        53
 -1        11   12    0    1
 -2        54         8        55
 -1        12   12    0    1
 -2         1        57        56
 -1        13   12    0    1
 -2        57        59        58
 -1        14   12    0    1
 -2        59        61        60
 -1        15   12    0    1
 -2        61        63        62
 -1        16   12    0    1
 -2        63        65        64
 -1        17   12    0    1
 -2        65        67        66
 -1        18   12    0    1
 -2        67        69        68
 -1        19   12    0    1
 -2        69         9        70
 -1        20   12    0    1
 -2         2        72        71
 -1        21   12    0    1
 -2        72        74        73
 -1        22   12    0    1
 -2        74        76        75
 -1        23   12    0    1
 -2        76        78        77
 -1        24   12    0    1
 -2        78        80        79
 -1        25   12    0    1
 -2        80        82        81
 -1        26   12    0    1
 -2        82        84        83
 -1        27   12    0    1
 -2        84         3        85
 -1        28   12    0    1
 -2         2        87        86
 -1        29   12    0    1
 -2        87        89        88
 -1        30   12    0    1
 -2        89         9        90
 -1        31   12    0    1
 -2         2        92        91
 -1        32   12    0    1
 -2        92        94        93
 -1        33   12    0    1
 -2        94        96        95
 -1        34   12    0    1
 -2        96        98        97
 -1        35   12    0    1
 -2        98       100        99
 -1        36   12    0    1
 -2       100       102       101
 -1        37   12    0    1
 -2       102       104       103
 -1        38   12    0    1
 -2       104        10       105
 -1        39   12    0    1
 -2         3       107       106
 -1        40   12    0    1
 -2       107       109       108
 -1        41   12    0    1
 -2       109       111       110
 -1        42   12    0    1
 -2       111       113       112
 -1        43   12    0    1
 -2       113       115       114
 -1        44   12    0    1
 -2       115       117       116
 -1        45   12    0    1
 -2       117       119       118
 -1        46   12    0    1
 -2       119         4       120
 -1        47   12    0    1
 -2         3       122       121
 -1        48   12    0    1
 -2       122       124       123
 -1        49   12    0    1
 -2       124        10       125
 -1        50   12    0    1
 -2         3       127       126
 -1        51   12    0    1
 -2       127       129       128
 -1        52   12    0    1
 -2       129       131       130
 -1        53   12    0    1
 -2       131       133       132
 -1        54   12    0    1
 -2       133       135       134
 -1        55   12    0    1
 -2       135       137       136
 -1        56   12    0    1
 -2       137       139       138
 -1        57   12    0    1
 -2       139        11       140
 -1        58   12    0    1
 -2         4       142       141
 -1        59   12    0    1
 -2       142       144       143
 -1        60   12    0    1
 -2       144       146       145
 -1        61   12    0    1
 -2       146       148       147
 -1        62   12    0    1
 -2       148       150       149
 -1        63   12    0    1
 -2       150       152       151
 -1        64   12    0    1
 -2       152       154       153
 -1        65   12    0    1
 -2       154         5       155
 -1        66   12    0    1
 -2         4       157       156
 -1        67   12    0    1
 -2       157       159       158
 -1        68   12    0    1
 -2       159        11       160
 -1        69   12    0    1
 -2         4       162       161
 -1        70   12    0    1
 -2       162       164       163
 -1        71   12    0    1
 -2       164       166       165
 -1        72   12    0    1
 -2       166       168       167
 -1        73   12    0    1
 -2       168       170       169
 -1        74   12    0    1
 -2       170       172       171
 -1        75   12    0    1
 -2       172       174       173
 -1        76   12    0    1
 -2       174        12       175
 -1        77   12    0    1
 -2         5       192       191
 -1        78   12    0    1
 -2       192       194       193
 -1        79   12    0    1
 -2       194        12       195
 -1        80   12    0    1
 -2         8       252       251
 -1        81   12    0    1
 -2       252       254       253
 -1        82   12    0    1
 -2       254       256       255
 -1        83   12    0    1
 -2       256       258       257
 -1        84   12    0    1
 -2       258       260       259
 -1        85   12    0    1
 -2       260       262       261
 -1        86   12    0    1
 -2       262       264       263
 -1        87   12    0    1
 -2       264         9       265
 -1        88   12    0    1
 -2         8       267       266
 -1        89   12    0    1
 -2       267       269       268
 -1        90   12    0    1
 -2       269        15       270
 -1        91   12    0    1
 -2         8       272       271
 -1        92   12    0    1
 -2       272       274       273
 -1        93   12    0    1
 -2       274       276       275
 -1        94   12    0    1
 -2       276       278       277
 -1        95   12    0    1
 -2       278       280       279
 -1        96   12    0    1
 -2       280       282       281
 -1        97   12    0    1
 -2       282       284       283
 -1        98   12    0    1
 -2       284        16       285
 -1        99   12    0    1
 -2         9       287       286
 -1       100   12    0    1
 -2       287       289       288
 -1       101   12    0    1
 -2       289       291       290
 -1       102   12    0    1
 -2       291       293       292
 -1       103   12    0    1
 -2       293       295       294
 -1       104   12    0    1
 -2       295       297       296
 -1       105   12    0    1
 -2       297       299       298
 -1       106   12    0    1
 -2       299        10       300
 -1       107   12    0    1
 -2         9       302       301
 -1       108   12    0    1
 -2       302       304       303
 -1       109   12    0    1
 -2       304        16       305
 -1       110   12    0    1
 -2         9       307       306
 -1       111   12    0    1
 -2       307       309       308
 -1       112   12    0    1
 -2       309       311       310
 -1       113   12    0    1
 -2       311       313       312
 -1       114   12    0    1
 -2       313       315       314
 -1       115   12    0    1
 -2       315       317       316
 -1       116   12    0    1
 -2       317       319       318
 -1       117   12    0    1
 -2       319        17       320
 -1       118   12    0    1
 -2        10       322       321
 -1       119   12    0    1
 -2       322       324       323
 -1       120   12    0    1
 -2       324       326       325
 -1       121   12    0    1
 -2       326       328       327
 -1       122   12    0    1
 -2       328       330       329
 -1       123   12    0    1
 -2       330       332       331
 -1       124   12    0    1
 -2       332       334       333
 -1       125   12    0    1
 -2       334        11       335
 -1       126   12    0    1
 -2        10       337       336
 -1       127   12    0    1
 -2       337       339       338
 -1       128   12    0    1
 -2       339        17       340
 -1       129   12    0    1
 -2        10       342       341
 -1       130   12    0    1
 -2       342       344       343
 -1       131   12    0    1
 -2       344       346       345
 -1       132   12    0    1
 -2       346       348       347
 -1       133   12    0    1
 -2       348       350       349
 -1       134   12    0    1
 -2       350       352       351
 -1       135   12    0    1
 -2       352       354       353
 -1       136   12    0    1
 -2       354        18       355
 -1       137   12    0    1
 -2        11       357       356
 -1       138   12    0    1
 -2       357       359       358
 -1       139   12    0    1
 -2       359       361       360
 -1       140   12    0    1
 -2       361       363       362
 -1       141   12    0    1
 -2       363       365       364
 -1       142   12    0    1
 -2       365       367       366
 -1       143   12    0    1
 -2       367       369       368
 -1       144   12    0    1
 -2       369        12       370
 -1       145   12    0    1
 -2        11       372       371
 -1       146   12    0    1
 -2       372       374       373
 -1       147   12    0    1
 -2       374        18       375
 -1       148   12    0    1
 -2        11       377       376
 -1       149   12    0    1
 -2       377       379       378
 -1       150   12    0    1
 -2       379       381       380
 -1       151   12    0    1
 -2       381       383       382
 -1       152   12    0    1
 -2       383       385       384
 -1       153   12    0    1
 -2       385       387       386
 -1       154   12    0    1
 -2       387       389       388
 -1       155   12    0    1
 -2       389        19       390
 -1       156   12    0    1
 -2        12       407       406
 -1       157   12    0    1
 -2       407       409       408
 -1       158   12    0    1
 -2       409        19       410
 -1       159   12    0    1
 -2        15       467       466
 -1       160   12    0    1
 -2       467       469       468
 -1       161   12    0    1
 -2       469       471       470
 -1       162   12    0    1
 -2       471       473       472
 -1       163   12    0    1
 -2       473       475       474
 -1       164   12    0    1
 -2       475       477       476
 -1       165   12    0    1
 -2       477       479       478
 -1       166   12    0    1
 -2       479        16       480
 -1       167   12    0    1
 -2        15       482       481
 -1       168   12    0    1
 -2       482       484       483
 -1       169   12    0    1
 -2       484        22       485
 -1       170   12    0    1
 -2        15       487       486
 -1       171   12    0    1
 -2       487       489       488
 -1       172   12    0    1
 -2       489       491       490
 -1       173   12    0    1
 -2       491       493       492
 -1       174   12    0    1
 -2       493       495       494
 -1       175   12    0    1
 -2       495       497       496
 -1       176   12    0    1
 -2       497       499       498
 -1       177   12    0    1
 -2       499        23       500
 -1       178   12    0    1
 -2        16       502       501
 -1       179   12    0    1
 -2       502       504       503
 -1       180   12    0    1
 -2       504       506       505
 -1       181   12    0    1
 -2       506       508       507
 -1       182   12    0    1
 -2       508       510       509
 -1       183   12    0    1
 -2       510       512       511
 -1       184   12    0    1
 -2       512       514       513
 -1       185   12    0    1
 -2       514        17       515
 -1       186   12    0    1
 -2        16       517       516
 -1       187   12    0    1
 -2       517       519       518
 -1       188   12    0    1
 -2       519        23       520
 -1       189   12    0    1
 -2        16       522       521
 -1       190   12    0    1
 -2       522       524       523
 -1       191   12    0    1
 -2       524       526       525
 -1       192   12    0    1
 -2       526       528       527
 -1       193   12    0    1
 -2       528       530       529
 -1       194   12    0    1
 -2       530       532       531
 -1       195   12    0    1
 -2       532       534       533
 -1       196   12    0    1
 -2       534        24       535
 -1       197   12    0    1
 -2        17       537       536
 -1       198   12    0    1
 -2       537       539       538
 -1       199   12    0    1
 -2       539       541       540
 -1       200   12    0    1
 -2       541       543       542
 -1       201   12    0    1
 -2       543       545       544
 -1       202   12    0    1
 -2       545       547       546
 -1       203   12    0    1
 -2       547       549       548
 -1       204   12    0    1
 -2       549        18       550
 -1       205   12    0    1
 -2        17       552       551
 -1       206   12    0    1
 -2       552       554       553
 -1       207   12    0    1
 -2       554        24       555
 -1       208   12    0    1
 -2        17       557       556
 -1       209   12    0    1
 -2       557       559       558
 -1       210   12    0    1
 -2       559       561       560
 -1       211   12    0    1
 -2       561       563       562
 -1       212   12    0    1
 -2       563       565       564
 -1       213   12    0    1
 -2       565       567       566
 -1       214   12    0    1
 -2       567       569       568
 -1       215   12    0    1
 -2       569        25       570
 -1       216   12    0    1
 -2        18       572       571
 -1       217   12    0    1
 -2       572       574       573
 -1       218   12    0    1
 -2       574       576       575
 -1       219   12    0    1
 -2       576       578       577
 -1       220   12    0    1
 -2       578       580       579
 -1       221   12    0    1
 -2       580       582       581
 -1       222   12    0    1
 -2       582       584       583
 -1       223   12    0    1
 -2       584        19       585
 -1       224   12    0    1
 -2        18       587       586
 -1       225   12    0    1
 -2       587       589       588
 -1       226   12    0    1
 -2       589        25       590
 -1       227   12    0    1
 -2        18       592       591
 -1       228   12    0    1
 -2       592       594       593
 -1       229   12    0    1
 -2       594       596       595
 -1       230   12    0    1
 -2       596       598       597
 -1       231   12    0    1
 -2       598       600       599
 -1       232   12    0    1
 -2       600       602       601
 -1       233   12    0    1
 -2       602       604       603
 -1       234   12    0    1
 -2       604        26       605
 -1       235   12    0    1
 -2        19       607       606
 -1       236   12    0    1
 -2       607       609       608
 -1       237   12    0    1
 -2       609       611       610
 -1       238   12    0    1
 -2       611       613       612
 -1       239   12    0    1
 -2       613       615       614
 -1       240   12    0    1
 -2       615       617       616
 -1       241   12    0    1
 -2       617       619       618
 -1       242   12    0    1
 -2       619        20       620
 -1       243   12    0    1
 -2        19       622       621
 -1       244   12    0    1
 -2       622       624       623
 -1       245   12    0    1
 -2       624        26       625
 -1       246   12    0    1
 -2        19       627       626
 -1       247   12    0    1
 -2       627       629       628
 -1       248   12    0    1
 -2       629       631       630
 -1       249   12    0    1
 -2       631       633       632
 -1       250   12    0    1
 -2       633       635       634
 -1       251   12    0    1
 -2       635       637       636
 -1       252   12    0    1
 -2       637       639       638
 -1       253   12    0    1
 -2       639        27       640
 -1       254   12    0    1
 -2        20       642       641
 -1       255   12    0    1
 -2       642       644       643
 -1       256   12    0    1
 -2       644       646       645
 -1       257   12    0    1
 -2       646       648       647
 -1       258   12    0    1
 -2       648       650       649
 -1       259   12    0    1
 -2       650       652       651
 -1       260   12    0    1
 -2       652       654       653
 -1       261   12    0    1
 -2       654        21       655
 -1       262   12    0    1
 -2        20       657       656
 -1       263   12    0    1
 -2       657       659       658
 -1       264   12    0    1
 -2       659        27       660
 -1       265   12    0    1
 -2        20       662       661
 -1       266   12    0    1
 -2       662       664       663
 -1       267   12    0    1
 -2       664       666       665
 -1       268   12    0    1
 -2       666       668       667
 -1       269   12    0    1
 -2       668       670       669
 -1       270   12    0    1
 -2       670       672       671
 -1       271   12    0    1
 -2       672       674       673
 -1       272   12    0    1
 -2       674        28       675
 -1       273   12    0    1
 -2        21       677       676
 -1       274   12    0    1
 -2       677       679       678
 -1       275   12    0    1
 -2       679        28       680
 -1       276   12    0    1
 -2        22       682       681
 -1       277   12    0    1
 -2       682       684       683
 -1       278   12    0    1
 -2       684       686       685
 -1       279   12    0    1
 -2       686       688       687
 -1       280   12    0    1
 -2       688       690       689
 -1       281   12    0    1
 -2       690       692       691
 -1       282   12    0    1
 -2       692       694       693
 -1       283   12    0    1
 -2       694        23       695
 -1       284   12    0    1
 -2        22       697       696
 -1       285   12    0    1
 -2       697       699       698
 -1       286   12    0    1
 -2       699        29       700
 -1       287   12    0    1
 -2        22       702       701
 -1       288   12    0    1
 -2       702       704       703
 -1       289   12    0    1
 -2       704       706       705
 -1       290   12    0    1
 -2       706       708       707
 -1       291   12    0    1
 -2       708       710       709
 -1       292   12    0    1
 -2       710       712       711
 -1       293   12    0    1
 -2       712       714       713
 -1       294   12    0    1
 -2       714        30       715
 -1       295   12    0    1
 -2        23       717       716
 -1       296   12    0    1
 -2       717       719       718
 -1       297   12    0    1
 -2       719       721       720
 -1       298   12    0    1
 -2       721       723       722
 -1       299   12    0    1
 -2       723       725       724
 -1       300   12    0    1
 -2       725       727       726
 -1       301   12    0    1
 -2       727       729       728
 -1       302   12    0    1
 -2       729        24       730
 -1       303   12    0    1
 -2        23       732       731
 -1       304   12    0    1
 -2       732       734       733
 -1       305   12    0    1
 -2       734        30       735
 -1       306   12    0    1
 -2        23       737       736
 -1       307   12    0    1
 -2       737       739       738
 -1       308   12    0    1
 -2       739       741       740
 -1       309   12    0    1
 -2       741       743       742
 -1       310   12    0    1
 -2       743       745       744
 -1       311   12    0    1
 -2       745       747       746
 -1       312   12    0    1
 -2       747       749       748
 -1       313   12    0    1
 -2       749        31       750
 -1       314   12    0    1
 -2        24       752       751
 -1       315   12    0    1
 -2       752       754       753
 -1       316   12    0    1
 -2       754       756       755
 -1       317   12    0    1
 -2       756       758       757
 -1       318   12    0    1
 -2       758       760       759
 -1       319   12    0    1
 -2       760       762       761
 -1       320   12    0    1
 -2       762       764       763
 -1       321   12    0    1
 -2       764        25       765
 -1       322   12    0    1
 -2        24       767       766
 -1       323   12    0    1
 -2       767       769       768
 -1       324   12    0    1
 -2       769        31       770
 -1       325   12    0    1
 -2        24       772       771
 -1       326   12    0    1
 -2       772       774       773
 -1       327   12    0    1
 -2       774       776       775
 -1       328   12    0    1
 -2       776       778       777
 -1       329   12    0    1
 -2       778       780       779
 -1       330   12    0    1
 -2       780       782       781
 -1       331   12    0    1
 -2       782       784       783
 -1       332   12    0    1
 -2       784        32       785
 -1       333   12    0    1
 -2        25       787       786
 -1       334   12    0    1
 -2       787       789       788
 -1       335   12    0    1
 -2       789       791       790
 -1       336   12    0    1
 -2       791       793       792
 -1       337   12    0    1
 -2       793       795       794
 -1       338   12    0    1
 -2       795       797       796
 -1       339   12    0    1
 -2       797       799       798
 -1       340   12    0    1
 -2       799        26       800
 -1       341   12    0    1
 -2        25       802       801
 -1       342   12    0    1
 -2       802       804       803
 -1       343   12    0    1
 -2       804        32       805
 -1       344   12    0    1
 -2        25       807       806
 -1       345   12    0    1
 -2       807       809       808
 -1       346   12    0    1
 -2       809       811       810
 -1       347   12    0    1
 -2       811       813       812
 -1       348   12    0    1
 -2       813       815       814
 -1       349   12    0    1
 -2       815       817       816
 -1       350   12    0    1
 -2       817       819       818
 -1       351   12    0    1
 -2       819        33       820
 -1       352   12    0    1
 -2        26       822       821
 -1       353   12    0    1
 -2       822       824       823
 -1       354   12    0    1
 -2       824       826       825
 -1       355   12    0    1
 -2       826       828       827
 -1       356   12    0    1
 -2       828       830       829
 -1       357   12    0    1
 -2       830       832       831
 -1       358   12    0    1
 -2       832       834       833
 -1       359   12    0    1
 -2       834        27       835
 -1       360   12    0    1
 -2        26       837       836
 -1       361   12    0    1
 -2       837       839       838
 -1       362   12    0    1
 -2       839        33       840
 -1       363   12    0    1
 -2        26       842       841
 -1       364   12    0    1
 -2       842       844       843
 -1       365   12    0    1
 -2       844       846       845
 -1       366   12    0    1
 -2       846       848       847
 -1       367   12    0    1
 -2       848       850       849
 -1       368   12    0    1
 -2       850       852       851
 -1       369   12    0    1
 -2       852       854       853
 -1       370   12    0    1
 -2       854        34       855
 -1       371   12    0    1
 -2        27       857       856
 -1       372   12    0    1
 -2       857       859       858
 -1       373   12    0    1
 -2       859       861       860
 -1       374   12    0    1
 -2       861       863       862
 -1       375   12    0    1
 -2       863       865       864
 -1       376   12    0    1
 -2       865       867       866
 -1       377   12    0    1
 -2       867       869       868
 -1       378   12    0    1
 -2       869        28       870
 -1       379   12    0    1
 -2        27       872       871
 -1       380   12    0    1
 -2       872       874       873
 -1       381   12    0    1
 -2       874        34       875
 -1       382   12    0    1
 -2        27       877       876
 -1       383   12    0    1
 -2       877       879       878
 -1       384   12    0    1
 -2       879       881       880
 -1       385   12    0    1
 -2       881       883       882
 -1       386   12    0    1
 -2       883       885       884
 -1       387   12    0    1
 -2       885       887       886
 -1       388   12    0    1
 -2       887       889       888
 -1       389   12    0    1
 -2       889        35       890
 -1       390   12    0    1
 -2        28       892       891
 -1       391   12    0    1
 -2       892       894       893
 -1       392   12    0    1
 -2       894        35       895
 -1       393   12    0    1
 -2        29       897       896
 -1       394   12    0    1
 -2       897       899       898
 -1       395   12    0    1
 -2       899       901       900
 -1       396   12    0    1
 -2       901       903       902
 -1       397   12    0    1
 -2       903       905       904
 -1       398   12    0    1
 -2       905       907       906
 -1       399   12    0    1
 -2       907       909       908
 -1       400   12    0    1
 -2       909        30       910
 -1       401   12    0    1
 -2        30       912       911
 -1       402   12    0    1
 -2       912       914       913
 -1       403   12    0    1
 -2       914       916       915
 -1       404   12    0    1
 -2       916       918       917
 -1       405   12    0    1
 -2       918       920       919
 -1       406   12    0    1
 -2       920       922       921
 -1       407   12    0    1
 -2       922       924       923
 -1       408   12    0    1
 -2       924        31       925
 -1       409   12    0    1
 -2        31       927       926
 -1       410   12    0    1
 -2       927       929       928
 -1       411   12    0    1
 -2       929       931       930
 -1       412   12    0    1
 -2       931       933       932
 -1       413   12    0    1
 -2       933       935       934
 -1       414   12    0    1
 -2       935       937       936
 -1       415   12    0    1
 -2       937       939       938
 -1       416   12    0    1
 -2       939        32       940
 -1       417   12    0    1
 -2        32       942       941
 -1       418   12    0    1
 -2       942       944       943
 -1       419   12    0    1
 -2       944       946       945
 -1       420   12    0    1
 -2       946       948       947
 -1       421   12    0    1
 -2       948       950       949
 -1       422   12    0    1
 -2       950       952       951
 -1       423   12    0    1
 -2       952       954       953
 -1       424   12    0    1
 -2       954        33       955
 -1       425   12    0    1
 -2        33       957       956
 -1       426   12    0    1
 -2       957       959       958
 -1       427   12    0    1
 -2       959       961       960
 -1       428   12    0    1
 -2       961       963       962
 -1       429   12    0    1
 -2       963       965       964
 -1       430   12    0    1
 -2       965       967       966
 -1       431   12    0    1
 -2       967       969       968
 -1       432   12    0    1
 -2       969        34       970
 -1       433   12    0    1
 -2        34       972       971
 -1       434   12    0    1
 -2       972       974       973
 -1       435   12    0    1
 -2       974       976       975
 -1       436   12    0    1
 -2       976       978       977
 -1       437   12    0    1
 -2       978       980       979
 -1       438   12    0    1
 -2       980       982       981
 -1       439   12    0    1
 -2       982       984       983
 -1       440   12    0    1
 -2       984        35       985
 -3
    1PSTEP                         1           1           1          
  100CL  101 1.000000000         841                     0    1           1
 -4  DISP        4    1
 -5  D1          1    2    1    0
 -5  D2          1    2    2    0
 -5  D3          1    2    3    0
 -5  ALL         1    2    0    0    1ALL
 -1         1 1.17907E-04 0.00000E+00 0.00000E+00
 -1         2 8.81167E-05 0.00000E+00 0.00000E+00
 -1         3 7.44356E-05 0.00000E+00 0.00000E+00
 -1         4 6.78326E-05 0.00000E+00 0.00000E+00
 -1         5 6.54298E-05 0.00000E+00 0.00000E+00
 -1         8 9.10114E-05-1.16931E-06 0.00000E+00
 -1         9 7.55571E-05 1.53492E-06 0.00000E+00
 -1        10 6.99539E-05-4.27821E-06 0.00000E+00
 -1        11 6.54485E-05-9.63684E-07 0.00000E+00
 -1        12 6.20185E-05 2.04493E-06 0.00000E+00
 -1        15 3.62227E-05-2.42326E-06 0.00000E+00
 -1        16 4.94314E-05 1.64489E-06 0.00000E+00
 -1        17 4.72370E-05-8.58751E-06 0.00000E+00
 -1        18 4.97545E-05-1.80272E-06 0.00000E+00
 -1        19 5.31974E-05 4.02833E-06 0.00000E+00
 -1        20 5.40859E-05 4.21924E-05 0.00000E+00
 -1        21 5.40047E-05 1.02303E-04 0.00000E+00
 -1        22 1.34815E-05-1.54087E-06 0.00000E+00
 -1        23 1.78065E-05 2.49430E-06 0.00000E+00
 -1        24 1.92371E-05-9.68115E-06 0.00000E+00
 -1        25 4.05223E-05-1.39290E-06 0.00000E+00
 -1        26 4.49059E-05 5.27272E-06 0.00000E+00
 -1        27 4.13626E-05 4.07267E-05 0.00000E+00
 -1        28 3.72237E-05 1.00917E-04 0.00000E+00
 -1        29 0.00000E+00 0.00000E+00 0.00000E+00
 -1        30 6.52276E-06 3.07425E-06 0.00000E+00
 -1        31 8.66761E-06-8.25302E-06 0.00000E+00
 -1        32 0.00000E+00 0.00000E+00 0.00000E+00
 -1        33 3.17630E-05 8.99000E-06 0.00000E+00
 -1        34 2.99322E-05 4.06186E-05 0.00000E+00
 -1        35 2.47618E-05 1.00190E-04 0.00000E+00
 -1        36 1.16104E-04 2.69462E-20 0.00000E+00
 -1        37 1.14242E-04 2.56679E-19 0.00000E+00
 -1        38 1.12383E-04 5.84009E-19-5.29396E-23
 -1        39 1.10514E-04 1.04335E-18-2.64698E-23
 -1        40 1.08644E-04 1.47107E-18 5.29396E-23
 -1        41 1.06773E-04 1.83363E-18 2.64698E-23
 -1        42 1.04901E-04 2.10970E-18 5.29396E-23
 -1        43 1.03028E-04 2.29942E-18-2.64698E-23
 -1        44 1.01156E-04 2.24450E-18 5.29396E-23
 -1        45 9.92833E-05 1.98811E-18 0.00000E+00
 -1        46 9.74112E-05 1.65208E-18 0.00000E+00
 -1        47 9.55405E-05 1.18144E-18 0.00000E+00
 -1        48 9.36702E-05 6.59418E-19 0.00000E+00
 -1        49 9.18072E-05 2.86540E-19 0.00000E+00
 -1        50 8.99419E-05 6.83450E-20-5.29396E-23
 -1        51 1.15942E-04-1.98270E-07 0.00000E+00
 -1        52 1.12609E-04-3.86683E-07 0.00000E+00
 -1        53 1.08172E-04-5.74773E-07 0.00000E+00
 -1        54 1.02909E-04-7.65451E-07 0.00000E+00
 -1        55 9.70957E-05-9.60876E-07-1.07533E-23
 -1        56 1.15803E-04-1.11799E-06 0.00000E+00
 -1        57 1.13812E-04-2.77552E-06 2.64698E-23
 -1        58 1.11955E-04-4.77994E-06 0.00000E+00
 -1        59 1.10149E-04-6.95803E-06 2.64698E-23
 -1        60 1.08333E-04-9.11029E-06 0.00000E+00
 -1        61 1.06432E-04-1.10440E-05-2.64698E-23
 -1        62 1.04383E-04-1.25848E-05 0.00000E+00
 -1        63 1.02130E-04-1.35786E-05-2.64698E-23
 -1        64 9.96314E-05-1.39197E-05 5.29396E-23
 -1        65 9.68604E-05-1.35347E-05 2.64698E-23
 -1        66 9.38129E-05-1.24150E-05 0.00000E+00
 -1        67 9.05007E-05-1.05872E-05 2.64698E-23
 -1        68 8.69557E-05-8.14245E-06 5.29396E-23
 -1        69 8.32360E-05-5.19654E-06 2.64698E-23
 -1        70 7.93862E-05-1.92078E-06 0.00000E+00
 -1        71 8.72593E-05-1.74949E-21 2.64698E-23
 -1        72 8.64032E-05-1.14234E-21 0.00000E+00
 -1        73 8.55470E-05 5.32986E-20 0.00000E+00
 -1        74 8.46911E-05 6.76005E-20 0.00000E+00
 -1        75 8.38352E-05 1.53624E-20 0.00000E+00
 -1        76 8.29793E-05-5.65469E-20 0.00000E+00
 -1        77 8.21235E-05-1.06381E-19 0.00000E+00
 -1        78 8.12676E-05-1.19629E-19-1.32349E-23
 -1        79 8.04118E-05-1.69618E-19 0.00000E+00
 -1        80 7.95561E-05-1.84312E-19 0.00000E+00
 -1        81 7.87004E-05-1.35496E-19 0.00000E+00
 -1        82 7.78450E-05-1.15147E-19 0.00000E+00
 -1        83 7.69897E-05-7.71842E-20 0.00000E+00
 -1        84 7.61359E-05-3.34901E-20 0.00000E+00
 -1        85 7.52816E-05-5.96397E-21-2.64698E-23
 -1        86 8.77735E-05 2.24164E-07 1.32349E-23
 -1        87 8.67475E-05 4.93979E-07 8.27181E-25
 -1        88 8.50354E-05 7.59840E-07 0.00000E+00
 -1        89 8.26271E-05 1.02783E-06 0.00000E+00
 -1        90 7.94832E-05 1.29599E-06-3.30872E-24
 -1        91 8.72112E-05-8.52785E-07-2.64698E-23
 -1        92 8.66254E-05-2.58461E-06 1.32349E-23
 -1        93 8.62892E-05-4.98368E-06-2.64698E-23
 -1        94 8.61132E-05-7.81702E-06 0.00000E+00
 -1        95 8.59826E-05-1.07724E-05 0.00000E+00
 -1        96 8.57793E-05-1.35334E-05-1.32349E-23
 -1        97 8.53989E-05-1.58191E-05-2.64698E-23
 -1        98 8.47428E-05-1.73667E-05 1.32349E-23
 -1        99 8.37615E-05-1.80454E-05 0.00000E+00
 -1       100 8.24174E-05-1.77567E-05 0.00000E+00
 -1       101 8.07378E-05-1.65761E-05 2.64698E-23
 -1       102 7.87632E-05-1.46120E-05-1.32349E-23
 -1       103 7.65867E-05-1.21134E-05 0.00000E+00
 -1       104 7.43125E-05-9.34808E-06 0.00000E+00
 -1       105 7.20564E-05-6.63364E-06-2.64698E-23
 -1       106 7.40118E-05-2.63490E-20 0.00000E+00
 -1       107 7.35976E-05-6.38993E-20 0.00000E+00
 -1       108 7.31829E-05-1.13787E-19 1.32349E-23
 -1       109 7.27699E-05-1.75164E-19 6.61744E-24
 -1       110 7.23571E-05-2.55812E-19 0.00000E+00
 -1       111 7.19446E-05-3.21114E-19-6.61744E-24
 -1       112 7.15321E-05-2.98517E-19 1.32349E-23
 -1       113 7.11198E-05-2.78815E-19 0.00000E+00
 -1       114 7.07074E-05-2.36780E-19 0.00000E+00
 -1       115 7.02952E-05-1.61049E-19 0.00000E+00
 -1       116 6.98829E-05-1.28012E-19 1.32349E-23
 -1       117 6.94710E-05-1.15206E-19 6.61744E-24
 -1       118 6.90590E-05-5.69944E-20 1.32349E-23
 -1       119 6.86483E-05-1.29950E-20 6.61744E-24
 -1       120 6.82372E-05 2.80580E-21 1.32349E-23
 -1       121 7.44701E-05-7.10199E-07 0.00000E+00
 -1       122 7.44225E-05-1.42299E-06 0.00000E+00
 -1       123 7.41179E-05-2.13576E-06 2.64698E-23
 -1       124 7.33833E-05-2.84912E-06 1.32349E-23
 -1       125 7.20498E-05-3.56318E-06 0.00000E+00
 -1       126 7.39457E-05-2.72088E-07-1.32349E-23
 -1       127 7.35171E-05-6.90555E-07 0.00000E+00
 -1       128 7.31296E-05-1.21949E-06 1.32349E-23
 -1       129 7.27693E-05-1.81829E-06 6.61744E-24
 -1       130 7.24180E-05-2.44087E-06-1.32349E-23
 -1       131 7.20582E-05-3.04028E-06 6.61744E-24
 -1       132 7.16731E-05-3.57211E-06 0.00000E+00
 -1       133 7.12465E-05-3.99302E-06 6.61744E-24
 -1       134 7.07657E-05-4.26923E-06 0.00000E+00
 -1       135 7.02189E-05-4.36955E-06 0.00000E+00
 -1       136 6.96003E-05-4.27808E-06-1.32349E-23
 -1       137 6.89052E-05-3.98223E-06 6.61744E-24
 -1       138 6.81355E-05-3.48747E-06 0.00000E+00
 -1       139 6.72958E-05-2.80217E-06 6.61744E-24
 -1       140 6.63937E-05-1.95254E-06 1.32349E-23
 -1       141 6.76760E-05-3.45224E-21-6.61744E-24
 -1       142 6.75234E-05-3.78497E-21 0.00000E+00
 -1       143 6.73706E-05-1.20371E-20 6.61744E-24
 -1       144 6.72185E-05 1.68017E-20 0.00000E+00
 -1       145 6.70664E-05 5.63691E-20 3.30872E-24
 -1       146 6.69145E-05 9.79522E-20 1.65436E-24
 -1       147 6.67626E-05 7.64633E-20 0.00000E+00
 -1       148 6.66108E-05 3.86089E-20 0.00000E+00
 -1       149 6.64590E-05 1.08255E-20 0.00000E+00
 -1       150 6.63074E-05-1.04121E-20 0.00000E+00
 -1       151 6.61559E-05 1.12660E-20-3.30872E-24
 -1       152 6.60051E-05 1.65327E-20 1.65436E-24
 -1       153 6.58544E-05-3.07568E-20 0.00000E+00
 -1       154 6.57073E-05-5.19340E-20-4.13590E-25
 -1       155 6.55591E-05-1.75106E-20 0.00000E+00
 -1       156 6.78205E-05-1.62094E-07-6.61744E-24
 -1       157 6.77642E-05-3.20664E-07-3.30872E-24
 -1       158 6.75798E-05-4.79537E-07 0.00000E+00
 -1       159 6.71844E-05-6.38939E-07 3.30872E-24
 -1       160 6.64995E-05-7.98087E-07-6.61744E-24
 -1       161 6.75664E-05-1.34878E-07-6.61744E-24
 -1       162 6.73204E-05-3.27400E-07 3.30872E-24
 -1       163 6.70879E-05-5.55547E-07-6.61744E-24
 -1       164 6.68603E-05-7.97505E-07 0.00000E+00
 -1       165 6.66294E-05-1.03053E-06 6.61744E-24
 -1       166 6.63867E-05-1.23207E-06 0.00000E+00
 -1       167 6.61243E-05-1.38119E-06 0.00000E+00
 -1       168 6.58346E-05-1.45749E-06 3.30872E-24
 -1       169 6.55112E-05-1.44400E-06 0.00000E+00
 -1       170 6.51483E-05-1.32459E-06-3.30872E-24
 -1       171 6.47416E-05-1.08827E-06 0.00000E+00
 -1       172 6.42882E-05-7.24925E-07 0.00000E+00
 -1       173 6.37857E-05-2.31029E-07 0.00000E+00
 -1       174 6.32376E-05 3.97530E-07 1.65436E-24
 -1       175 6.26394E-05 1.15469E-06 0.00000E+00
 -1       191 6.53081E-05 3.40353E-07 0.00000E+00
 -1       192 6.50004E-05 6.81731E-07-6.61744E-24
 -1       193 6.45113E-05 1.02328E-06 1.32349E-23
 -1       194 6.38468E-05 1.36468E-06 0.00000E+00
 -1       195 6.30134E-05 1.70561E-06-1.32349E-23
 -1       251 9.00589E-05 3.24407E-06 2.64698E-23
 -1       252 8.90896E-05 6.57885E-06-1.32349E-23
 -1       253 8.81247E-05 8.70438E-06 0.00000E+00
 -1       254 8.71578E-05 9.52900E-06 0.00000E+00
 -1       255 8.61910E-05 9.14240E-06-2.64698E-23
 -1       256 8.52225E-05 7.67331E-06 0.00000E+00
 -1       257 8.42525E-05 5.40146E-06 0.00000E+00
 -1       258 8.32812E-05 2.63246E-06-1.32349E-23
 -1       259 8.23096E-05-2.58815E-07 0.00000E+00
 -1       260 8.13388E-05-2.89345E-06 0.00000E+00
 -1       261 8.03694E-05-4.92835E-06 0.00000E+00
 -1       262 7.94021E-05-6.03979E-06 0.00000E+00
 -1       263 7.84356E-05-6.03283E-06-2.64698E-23
 -1       264 7.74724E-05-4.74855E-06 0.00000E+00
 -1       265 7.65056E-05-2.20603E-06-2.64698E-23
 -1       266 8.45500E-05-1.36949E-06 6.61744E-24
 -1       267 7.53121E-05-1.57845E-06-3.30872E-24
 -1       268 6.45741E-05-1.80201E-06 6.61744E-24
 -1       269 5.36207E-05-2.02453E-06-1.65436E-24
 -1       270 4.37422E-05-2.23682E-06-3.30872E-24
 -1       271 8.72262E-05 2.36672E-06 5.29396E-23
 -1       272 8.37897E-05 4.75776E-06 0.00000E+00
 -1       273 8.07507E-05 6.10591E-06-5.29396E-23
 -1       274 7.80540E-05 6.51064E-06-2.64698E-23
 -1       275 7.56581E-05 6.11241E-06 0.00000E+00
 -1       276 7.35010E-05 5.07145E-06-2.64698E-23
 -1       277 7.15157E-05 3.57074E-06 0.00000E+00
 -1       278 6.96287E-05 1.80657E-06 0.00000E+00
 -1       279 6.77634E-05-1.57345E-08 5.29396E-23
 -1       280 6.58428E-05-1.68905E-06-2.64698E-23
 -1       281 6.37912E-05-3.01156E-06 0.00000E+00
 -1       282 6.15386E-05-3.79149E-06 0.00000E+00
 -1       283 5.90186E-05-3.85629E-06-5.29396E-23
 -1       284 5.61845E-05-3.05048E-06 2.64698E-23
 -1       285 5.29743E-05-1.25729E-06-5.29396E-23
 -1       286 7.52002E-05 5.24113E-06 0.00000E+00
 -1       287 7.48501E-05 7.72315E-06 0.00000E+00
 -1       288 7.45020E-05 9.05547E-06 1.32349E-23
 -1       289 7.41553E-05 9.32587E-06 6.61744E-24
 -1       290 7.38085E-05 8.67664E-06 0.00000E+00
 -1       291 7.34610E-05 7.26071E-06 0.00000E+00
 -1       292 7.31126E-05 5.27034E-06 1.32349E-23
 -1       293 7.27635E-05 2.90440E-06-6.61744E-24
 -1       294 7.24139E-05 3.81040E-07 1.32349E-23
 -1       295 7.20644E-05-2.07973E-06 0.00000E+00
 -1       296 7.17155E-05-4.26120E-06 1.32349E-23
 -1       297 7.13669E-05-5.94981E-06-6.61744E-24
 -1       298 7.10191E-05-6.95731E-06-1.32349E-23
 -1       299 7.06690E-05-7.10334E-06 0.00000E+00
 -1       300 7.03194E-05-6.25185E-06 0.00000E+00
 -1       301 7.11991E-05 1.53868E-06-6.61744E-24
 -1       302 6.68318E-05 1.56226E-06 0.00000E+00
 -1       303 6.24632E-05 1.58972E-06 1.65436E-24
 -1       304 5.81015E-05 1.61721E-06 0.00000E+00
 -1       305 5.37550E-05 1.64090E-06 6.61744E-24
 -1       306 7.24642E-05 4.57836E-06-2.64698E-23
 -1       307 6.97725E-05 6.39089E-06 0.00000E+00
 -1       308 6.75036E-05 7.08875E-06-5.29396E-23
 -1       309 6.55997E-05 6.78944E-06-2.64698E-23
 -1       310 6.40122E-05 5.64396E-06 0.00000E+00
 -1       311 6.26767E-05 3.82028E-06 2.64698E-23
 -1       312 6.15244E-05 1.50538E-06 0.00000E+00
 -1       313 6.04812E-05-1.10255E-06 0.00000E+00
 -1       314 5.94703E-05-3.79719E-06 5.29396E-23
 -1       315 5.84143E-05-6.37013E-06-2.64698E-23
 -1       316 5.72369E-05-8.61659E-06 5.29396E-23
 -1       317 5.58655E-05-1.03390E-05 2.64698E-23
 -1       318 5.42304E-05-1.13546E-05-5.29396E-23
 -1       319 5.22777E-05-1.14941E-05 2.64698E-23
 -1       320 4.99405E-05-1.06190E-05 0.00000E+00
 -1       321 6.96519E-05-2.02368E-06 0.00000E+00
 -1       322 6.93681E-05-3.45528E-07 0.00000E+00
 -1       323 6.90841E-05 7.93394E-07 1.32349E-23
 -1       324 6.88037E-05 1.43526E-06-3.30872E-24
 -1       325 6.85237E-05 1.64290E-06 0.00000E+00
 -1       326 6.82443E-05 1.48317E-06 0.00000E+00
 -1       327 6.79648E-05 1.03817E-06 0.00000E+00
 -1       328 6.76855E-05 3.92661E-07 0.00000E+00
 -1       329 6.74060E-05-3.60285E-07 6.61744E-24
 -1       330 6.71266E-05-1.12661E-06 0.00000E+00
 -1       331 6.68472E-05-1.81168E-06 0.00000E+00
 -1       332 6.65679E-05-2.32163E-06 3.30872E-24
 -1       333 6.62887E-05-2.56985E-06 6.61744E-24
 -1       334 6.60093E-05-2.47217E-06 0.00000E+00
 -1       335 6.57298E-05-1.95877E-06 6.61744E-24
 -1       336 6.69474E-05-4.99812E-06 0.00000E+00
 -1       337 6.32522E-05-5.72012E-06 0.00000E+00
 -1       338 5.91489E-05-6.44324E-06 2.64698E-23
 -1       339 5.49218E-05-7.16421E-06 6.61744E-24
 -1       340 5.08566E-05-7.88505E-06 0.00000E+00
 -1       341 6.79203E-05-2.04099E-06 2.64698E-23
 -1       342 6.58237E-05 3.18694E-07 0.00000E+00
 -1       343 6.37617E-05 2.58969E-06-2.64698E-23
 -1       344 6.18115E-05 4.55686E-06-1.32349E-23
 -1       345 6.00361E-05 6.06063E-06-2.64698E-23
 -1       346 5.84889E-05 6.95719E-06 0.00000E+00
 -1       347 5.71839E-05 7.20967E-06-2.64698E-23
 -1       348 5.61257E-05 6.80456E-06 1.32349E-23
 -1       349 5.52755E-05 5.84440E-06 0.00000E+00
 -1       350 5.45873E-05 4.45208E-06 0.00000E+00
 -1       351 5.39867E-05 2.82596E-06 0.00000E+00
 -1       352 5.33976E-05 1.17358E-06 0.00000E+00
 -1       353 5.27394E-05-2.93683E-07 0.00000E+00
 -1       354 5.19434E-05-1.36764E-06 1.32349E-23
 -1       355 5.09470E-05-1.91573E-06-1.32349E-23
 -1       356 6.52271E-05 1.19465E-07-6.61744E-24
 -1       357 6.50099E-05 8.90253E-07 0.00000E+00
 -1       358 6.47926E-05 1.38006E-06 6.61744E-24
 -1       359 6.45761E-05 1.62227E-06-3.30872E-24
 -1       360 6.43597E-05 1.65827E-06 0.00000E+00
 -1       361 6.41435E-05 1.53091E-06 3.30872E-24
 -1       362 6.39272E-05 1.28832E-06 0.00000E+00
 -1       363 6.37110E-05 9.79464E-07 3.30872E-24
 -1       364 6.34949E-05 6.55411E-07 0.00000E+00
 -1       365 6.32789E-05 3.67367E-07 0.00000E+00
 -1       366 6.30631E-05 1.65374E-07-6.61744E-24
 -1       367 6.28481E-05 9.88439E-08 0.00000E+00
 -1       368 6.26332E-05 2.12840E-07 0.00000E+00
 -1       369 6.24222E-05 5.51114E-07-1.65436E-24
 -1       370 6.22098E-05 1.15026E-06 1.65436E-24
 -1       371 6.36062E-05-1.11020E-06-6.61744E-24
 -1       372 6.06941E-05-1.25164E-06 3.30872E-24
 -1       373 5.72817E-05-1.39489E-06-3.30872E-24
 -1       374 5.39410E-05-1.53517E-06-1.65436E-24
 -1       375 5.12428E-05-1.67403E-06 0.00000E+00
 -1       376 6.44682E-05-5.58911E-08-1.32349E-23
 -1       377 6.35704E-05 6.00083E-07-6.61744E-24
 -1       378 6.27616E-05 1.02112E-06 1.32349E-23
 -1       379 6.20328E-05 1.22353E-06-6.61744E-24
 -1       380 6.13714E-05 1.24651E-06 1.32349E-23
 -1       381 6.07611E-05 1.13198E-06 0.00000E+00
 -1       382 6.01816E-05 9.35507E-07-1.32349E-23
 -1       383 5.96113E-05 7.14180E-07 0.00000E+00
 -1       384 5.90280E-05 5.27629E-07-1.32349E-23
 -1       385 5.84098E-05 4.34861E-07 0.00000E+00
 -1       386 5.77379E-05 4.85320E-07 0.00000E+00
 -1       387 5.69957E-05 7.25977E-07 6.61744E-24
 -1       388 5.61717E-05 1.18486E-06-1.32349E-23
 -1       389 5.52621E-05 1.88804E-06 0.00000E+00
 -1       390 5.42593E-05 2.83323E-06 0.00000E+00
 -1       406 6.07869E-05 2.37706E-06 1.32349E-23
 -1       407 5.94261E-05 2.71004E-06 6.61744E-24
 -1       408 5.79608E-05 3.04290E-06-1.32349E-23
 -1       409 5.64169E-05 3.37490E-06 0.00000E+00
 -1       410 5.48204E-05 3.70503E-06-6.61744E-24
 -1       466 3.70057E-05 2.66741E-06 0.00000E+00
 -1       467 3.78317E-05 5.68759E-06 1.32349E-23
 -1       468 3.86593E-05 7.12310E-06-2.64698E-23
 -1       469 3.94943E-05 7.41449E-06 0.00000E+00
 -1       470 4.03294E-05 6.85360E-06 2.64698E-23
 -1       471 4.11654E-05 5.70820E-06 0.00000E+00
 -1       472 4.20011E-05 4.16983E-06-2.64698E-23
 -1       473 4.28365E-05 2.41891E-06-1.32349E-23
 -1       474 4.36719E-05 6.08094E-07 0.00000E+00
 -1       475 4.45071E-05-1.11161E-06-1.32349E-23
 -1       476 4.53424E-05-2.57730E-06 2.64698E-23
 -1       477 4.61763E-05-3.61896E-06 0.00000E+00
 -1       478 4.70103E-05-4.01124E-06-2.64698E-23
 -1       479 4.78347E-05-3.51041E-06 6.61744E-24
 -1       480 4.86607E-05-1.75688E-06 0.00000E+00
 -1       481 3.04920E-05-2.29033E-06 0.00000E+00
 -1       482 2.56652E-05-2.14552E-06-1.65436E-24
 -1       483 2.16409E-05-1.99774E-06 3.30872E-24
 -1       484 1.83219E-05-1.84653E-06 0.00000E+00
 -1       485 1.56279E-05-1.69330E-06 0.00000E+00
 -1       486 3.30520E-05 3.33789E-06 1.32349E-23
 -1       487 2.99532E-05 8.80215E-06 1.32349E-23
 -1       488 2.71110E-05 1.35999E-05 2.64698E-23
 -1       489 2.46542E-05 1.73641E-05-1.32349E-23
 -1       490 2.26664E-05 1.98897E-05 0.00000E+00
 -1       491 2.12084E-05 2.10077E-05 0.00000E+00
 -1       492 2.02623E-05 2.07635E-05 0.00000E+00
 -1       493 1.97932E-05 1.92450E-05 1.32349E-23
 -1       494 1.96944E-05 1.67340E-05 0.00000E+00
 -1       495 1.98487E-05 1.35436E-05 0.00000E+00
 -1       496 2.01008E-05 1.00907E-05 0.00000E+00
 -1       497 2.02936E-05 6.80034E-06 0.00000E+00
 -1       498 2.02770E-05 4.07272E-06-2.64698E-23
 -1       499 1.99133E-05 2.29231E-06-1.32349E-23
 -1       500 1.91048E-05 1.69512E-06-1.32349E-23
 -1       501 4.92785E-05 5.16901E-06-6.61744E-24
 -1       502 4.91413E-05 7.21294E-06 3.30872E-24
 -1       503 4.90053E-05 7.94674E-06 0.00000E+00
 -1       504 4.88716E-05 7.54622E-06 0.00000E+00
 -1       505 4.87373E-05 6.20982E-06 0.00000E+00
 -1       506 4.86023E-05 4.14015E-06 0.00000E+00
 -1       507 4.84661E-05 1.55441E-06-3.30872E-24
 -1       508 4.83293E-05-1.32799E-06 1.65436E-24
 -1       509 4.81923E-05-4.28169E-06 3.30872E-24
 -1       510 4.80556E-05-7.08099E-06 0.00000E+00
 -1       511 4.79199E-05-9.50335E-06 3.30872E-24
 -1       512 4.77851E-05-1.13278E-05-1.65436E-24
 -1       513 4.76513E-05-1.23453E-05-3.30872E-24
 -1       514 4.75167E-05-1.23504E-05 3.30872E-24
 -1       515 4.73818E-05-1.11578E-05-6.61744E-24
 -1       516 4.44662E-05 1.77101E-06-3.30872E-24
 -1       517 3.83236E-05 1.91428E-06 2.58494E-26
 -1       518 3.17939E-05 2.05370E-06 1.65436E-24
 -1       519 2.56647E-05 2.19750E-06 0.00000E+00
 -1       520 2.07340E-05 2.34847E-06 0.00000E+00
 -1       521 4.62407E-05 4.58140E-06 0.00000E+00
 -1       522 4.34603E-05 6.24609E-06 0.00000E+00
 -1       523 4.11161E-05 6.76137E-06-5.29396E-23
 -1       524 3.91461E-05 6.25122E-06 2.64698E-23
 -1       525 3.74994E-05 4.87655E-06 0.00000E+00
 -1       526 3.61068E-05 2.81683E-06 0.00000E+00
 -1       527 3.48951E-05 2.72097E-07-5.29396E-23
 -1       528 3.37848E-05-2.54574E-06-2.64698E-23
 -1       529 3.26944E-05-5.41673E-06 0.00000E+00
 -1       530 3.15415E-05-8.11954E-06-2.64698E-23
 -1       531 3.02455E-05-1.04379E-05 5.29396E-23
 -1       532 2.87303E-05-1.21648E-05 0.00000E+00
 -1       533 2.69237E-05-1.31111E-05 0.00000E+00
 -1       534 2.47697E-05-1.31043E-05 2.64698E-23
 -1       535 2.22023E-05-1.20064E-05-2.64698E-23
 -1       536 4.73698E-05-5.68833E-06 0.00000E+00
 -1       537 4.75241E-05-3.47967E-06-8.27181E-25
 -1       538 4.76790E-05-1.88177E-06 0.00000E+00
 -1       539 4.78377E-05-8.15716E-07 0.00000E+00
 -1       540 4.79972E-05-2.03764E-07 3.30872E-24
 -1       541 4.81575E-05 3.09684E-08-1.65436E-24
 -1       542 4.83179E-05-3.54043E-08 3.30872E-24
 -1       543 4.84784E-05-3.27365E-07 0.00000E+00
 -1       544 4.86389E-05-7.69852E-07 0.00000E+00
 -1       545 4.87994E-05-1.28811E-06-3.30872E-24
 -1       546 4.89598E-05-1.80753E-06 0.00000E+00
 -1       547 4.91201E-05-2.25351E-06 0.00000E+00
 -1       548 4.92804E-05-2.55128E-06 3.30872E-24
 -1       549 4.94400E-05-2.62583E-06-1.65436E-24
 -1       550 4.95997E-05-2.40162E-06 0.00000E+00
 -1       551 4.30455E-05-8.76948E-06 8.53030E-25
 -1       552 3.84109E-05-8.94680E-06 2.48154E-24
 -1       553 3.35213E-05-9.12420E-06 0.00000E+00
 -1       554 2.85683E-05-9.30300E-06 0.00000E+00
 -1       555 2.37439E-05-9.48474E-06 1.32349E-23
 -1       556 4.59663E-05-5.89826E-06 0.00000E+00
 -1       557 4.49253E-05-3.80402E-06 0.00000E+00
 -1       558 4.40878E-05-2.24656E-06 0.00000E+00
 -1       559 4.34290E-05-1.16186E-06 0.00000E+00
 -1       560 4.29241E-05-4.85647E-07 1.32349E-23
 -1       561 4.25485E-05-1.53025E-07 0.00000E+00
 -1       562 4.22775E-05-9.89809E-08 1.32349E-23
 -1       563 4.20867E-05-2.58385E-07 6.61744E-24
 -1       564 4.19515E-05-5.66050E-07 0.00000E+00
 -1       565 4.18475E-05-9.56748E-07 0.00000E+00
 -1       566 4.17502E-05-1.36523E-06 6.61744E-24
 -1       567 4.16352E-05-1.72622E-06 1.65436E-24
 -1       568 4.14782E-05-1.97450E-06 4.96308E-24
 -1       569 4.12553E-05-2.04492E-06 4.13590E-25
 -1       570 4.09427E-05-1.87245E-06 3.30872E-24
 -1       571 4.99600E-05-1.21626E-06-7.23783E-25
 -1       572 5.01730E-05-8.04426E-07 2.48154E-24
 -1       573 5.03880E-05-5.37545E-07 1.65436E-24
 -1       574 5.06041E-05-3.84419E-07 1.65436E-24
 -1       575 5.08205E-05-3.13742E-07-3.30872E-24
 -1       576 5.10371E-05-2.94025E-07 0.00000E+00
 -1       577 5.12537E-05-2.93770E-07 0.00000E+00
 -1       578 5.14704E-05-2.81458E-07 0.00000E+00
 -1       579 5.16871E-05-2.25565E-07 0.00000E+00
 -1       580 5.19037E-05-9.45651E-08 0.00000E+00
 -1       581 5.21203E-05 1.43071E-07 0.00000E+00
 -1       582 5.23368E-05 5.18862E-07 0.00000E+00
 -1       583 5.25531E-05 1.06431E-06-1.32349E-23
 -1       584 5.27690E-05 1.81065E-06 0.00000E+00
 -1       585 5.29843E-05 2.78901E-06 0.00000E+00
 -1       586 4.84089E-05-1.73312E-06-6.61744E-24
 -1       587 4.68650E-05-1.66276E-06 0.00000E+00
 -1       588 4.52127E-05-1.59249E-06-3.30872E-24
 -1       589 4.35438E-05-1.52292E-06 4.13590E-25
 -1       590 4.19503E-05-1.45491E-06 0.00000E+00
 -1       591 4.93780E-05-1.13998E-06 0.00000E+00
 -1       592 4.90364E-05-5.92922E-07 0.00000E+00
 -1       593 4.87293E-05-1.42145E-07 6.61744E-24
 -1       594 4.84505E-05 2.30685E-07 0.00000E+00
 -1       595 4.81938E-05 5.43890E-07 6.61744E-24
 -1       596 4.79525E-05 8.15727E-07-1.65436E-24
 -1       597 4.77198E-05 1.06443E-06-3.30872E-24
 -1       598 4.74889E-05 1.30824E-06 0.00000E+00
 -1       599 4.72531E-05 1.56539E-06 3.30872E-24
 -1       600 4.70054E-05 1.85410E-06 8.27181E-25
 -1       601 4.67390E-05 2.19261E-06-1.65436E-24
 -1       602 4.64474E-05 2.59915E-06-1.24077E-24
 -1       603 4.61236E-05 3.09198E-06 1.65436E-24
 -1       604 4.57616E-05 3.68940E-06 1.24077E-24
 -1       605 4.53555E-05 4.40979E-06 0.00000E+00
 -1       606 5.32613E-05 5.66078E-06 6.61744E-24
 -1       607 5.33198E-05 7.43807E-06 0.00000E+00
 -1       608 5.33768E-05 9.35174E-06 0.00000E+00
 -1       609 5.34329E-05 1.13922E-05 3.30872E-24
 -1       610 5.34885E-05 1.35497E-05 0.00000E+00
 -1       611 5.35437E-05 1.58145E-05 0.00000E+00
 -1       612 5.35987E-05 1.81766E-05 0.00000E+00
 -1       613 5.36535E-05 2.06263E-05 3.30872E-24
 -1       614 5.37081E-05 2.31537E-05 0.00000E+00
 -1       615 5.37625E-05 2.57489E-05 0.00000E+00
 -1       616 5.38168E-05 2.84020E-05-3.30872E-24
 -1       617 5.38709E-05 3.11033E-05 1.65436E-24
 -1       618 5.39250E-05 3.38428E-05-3.30872E-24
 -1       619 5.39789E-05 3.66108E-05 3.30872E-24
 -1       620 5.40326E-05 3.93972E-05 0.00000E+00
 -1       621 5.16424E-05 4.23593E-06 0.00000E+00
 -1       622 5.01334E-05 4.44497E-06-1.65436E-24
 -1       623 4.86881E-05 4.65421E-06 0.00000E+00
 -1       624 4.73236E-05 4.86303E-06-1.65436E-24
 -1       625 4.60574E-05 5.07068E-06 1.65436E-24
 -1       626 5.26875E-05 5.72576E-06 0.00000E+00
 -1       627 5.21174E-05 7.57434E-06 0.00000E+00
 -1       628 5.14945E-05 9.56052E-06 0.00000E+00
 -1       629 5.08253E-05 1.16687E-05 0.00000E+00
 -1       630 5.01157E-05 1.38834E-05-6.61744E-24
 -1       631 4.93720E-05 1.61886E-05 0.00000E+00
 -1       632 4.86000E-05 1.85684E-05 6.61744E-24
 -1       633 4.78058E-05 2.10071E-05 0.00000E+00
 -1       634 4.69954E-05 2.34887E-05 3.30872E-24
 -1       635 4.61747E-05 2.59973E-05-1.65436E-24
 -1       636 4.53498E-05 2.85171E-05-3.30872E-24
 -1       637 4.45266E-05 3.10322E-05-1.65436E-24
 -1       638 4.37110E-05 3.35267E-05-1.65436E-24
 -1       639 4.29087E-05 3.59846E-05 1.24077E-24
 -1       640 4.21250E-05 3.83901E-05-1.24077E-24
 -1       641 5.40864E-05 4.51138E-05 0.00000E+00
 -1       642 5.40840E-05 4.83597E-05 2.06795E-25
 -1       643 5.40809E-05 5.18843E-05 0.00000E+00
 -1       644 5.40766E-05 5.56419E-05 0.00000E+00
 -1       645 5.40715E-05 5.95868E-05 0.00000E+00
 -1       646 5.40659E-05 6.36734E-05 0.00000E+00
 -1       647 5.40598E-05 6.78562E-05-1.03398E-25
 -1       648 5.40536E-05 7.20894E-05 2.58494E-26
 -1       649 5.40473E-05 7.63275E-05-2.58494E-26
 -1       650 5.40411E-05 8.05251E-05 3.23117E-27
 -1       651 5.40352E-05 8.46364E-05-1.03398E-25
 -1       652 5.40295E-05 8.86159E-05-1.03398E-25
 -1       653 5.40245E-05 9.24180E-05 0.00000E+00
 -1       654 5.40190E-05 9.59969E-05 0.00000E+00
 -1       655 5.40148E-05 9.93071E-05-3.30872E-24
 -1       656 5.15426E-05 4.19553E-05-3.30872E-24
 -1       657 4.93215E-05 4.17070E-05-3.30872E-24
 -1       658 4.73083E-05 4.14597E-05 0.00000E+00
 -1       659 4.53877E-05 4.12124E-05 0.00000E+00
 -1       660 4.34443E-05 4.09644E-05 0.00000E+00
 -1       661 5.32730E-05 4.51983E-05 6.61744E-24
 -1       662 5.23705E-05 4.84718E-05 0.00000E+00
 -1       663 5.13826E-05 5.19695E-05 0.00000E+00
 -1       664 5.03260E-05 5.56536E-05 0.00000E+00
 -1       665 4.92134E-05 5.94859E-05 0.00000E+00
 -1       666 4.80591E-05 6.34290E-05 0.00000E+00
 -1       667 4.68766E-05 6.74465E-05 0.00000E+00
 -1       668 4.56798E-05 7.15019E-05 3.30872E-24
 -1       669 4.44823E-05 7.55588E-05-6.61744E-24
 -1       670 4.32979E-05 7.95813E-05 0.00000E+00
 -1       671 4.21403E-05 8.35329E-05 0.00000E+00
 -1       672 4.10230E-05 8.73767E-05 0.00000E+00
 -1       673 3.99604E-05 9.10759E-05 6.61744E-24
 -1       674 3.89644E-05 9.45919E-05 3.30872E-24
 -1       675 3.80525E-05 9.78873E-05 0.00000E+00
 -1       676 5.11811E-05 1.02072E-04-6.61744E-24
 -1       677 4.83724E-05 1.01839E-04 0.00000E+00
 -1       678 4.55756E-05 1.01607E-04 0.00000E+00
 -1       679 4.27873E-05 1.01375E-04 3.30872E-24
 -1       680 4.00044E-05 1.01143E-04 3.30872E-24
 -1       681 1.37452E-05 4.66053E-08-6.61744E-24
 -1       682 1.40167E-05 1.07416E-06-3.30872E-24
 -1       683 1.42882E-05 1.64177E-06 0.00000E+00
 -1       684 1.45611E-05 1.84516E-06 0.00000E+00
 -1       685 1.48341E-05 1.76493E-06-6.61744E-24
 -1       686 1.51073E-05 1.47911E-06 3.30872E-24
 -1       687 1.53805E-05 1.05717E-06 6.61744E-24
 -1       688 1.56536E-05 5.67345E-07 3.30872E-24
 -1       689 1.59268E-05 7.50211E-08 6.61744E-24
 -1       690 1.61998E-05-3.54414E-07 0.00000E+00
 -1       691 1.64728E-05-6.52965E-07 0.00000E+00
 -1       692 1.67452E-05-7.51442E-07 0.00000E+00
 -1       693 1.70175E-05-5.72345E-07 6.61744E-24
 -1       694 1.72862E-05-3.56185E-08-3.30872E-24
 -1       695 1.75557E-05 9.53582E-07 1.65436E-24
 -1       696 1.14326E-05-1.29037E-06 6.61744E-24
 -1       697 9.08650E-06-1.03379E-06 0.00000E+00
 -1       698 6.60691E-06-7.77882E-07-6.61744E-24
 -1       699 4.15648E-06-5.20116E-07 0.00000E+00
 -1       700 1.89904E-06-2.62034E-07 6.61744E-24
 -1       701 1.25597E-05 8.85639E-08 0.00000E+00
 -1       702 1.17338E-05 1.41518E-06-3.30872E-24
 -1       703 1.10187E-05 2.45057E-06 0.00000E+00
 -1       704 1.04074E-05 3.20145E-06 0.00000E+00
 -1       705 9.89418E-06 3.69114E-06 0.00000E+00
 -1       706 9.46916E-06 3.94437E-06 0.00000E+00
 -1       707 9.11898E-06 3.99804E-06-6.61744E-24
 -1       708 8.82906E-06 3.89084E-06-3.30872E-24
 -1       709 8.58191E-06 3.66954E-06-6.61744E-24
 -1       710 8.35966E-06 3.38204E-06 3.30872E-24
 -1       711 8.14309E-06 3.07953E-06 6.61744E-24
 -1       712 7.91343E-06 2.81351E-06-3.30872E-24
 -1       713 7.65162E-06 2.63334E-06 0.00000E+00
 -1       714 7.34212E-06 2.58875E-06 3.30872E-24
 -1       715 6.96540E-06 2.72027E-06 0.00000E+00
 -1       716 1.78878E-05 3.77507E-06 0.00000E+00
 -1       717 1.79807E-05 4.00250E-06 4.13590E-25
 -1       718 1.80728E-05 3.35512E-06 0.00000E+00
 -1       719 1.81662E-05 2.00856E-06 0.00000E+00
 -1       720 1.82590E-05 1.28521E-07-3.30872E-24
 -1       721 1.83514E-05-2.12096E-06 1.65436E-24
 -1       722 1.84433E-05-4.58112E-06 0.00000E+00
 -1       723 1.85352E-05-7.09395E-06 0.00000E+00
 -1       724 1.86273E-05-9.50212E-06-3.30872E-24
 -1       725 1.87198E-05-1.16480E-05 1.65436E-24
 -1       726 1.88129E-05-1.33701E-05 1.65436E-24
 -1       727 1.89059E-05-1.45058E-05 0.00000E+00
 -1       728 1.89993E-05-1.48839E-05-4.13590E-25
 -1       729 1.90878E-05-1.43309E-05 0.00000E+00
 -1       730 1.91766E-05-1.26601E-05-6.61744E-24
 -1       731 1.58095E-05 2.58106E-06-8.27181E-25
 -1       732 1.35342E-05 2.67832E-06 0.00000E+00
 -1       733 1.12234E-05 2.77484E-06 0.00000E+00
 -1       734 9.12028E-06 2.87377E-06-1.65436E-24
 -1       735 7.47084E-06 2.97364E-06 0.00000E+00
 -1       736 1.64605E-05 3.95296E-06-1.32349E-23
 -1       737 1.51814E-05 5.16531E-06 0.00000E+00
 -1       738 1.40294E-05 6.04443E-06 2.64698E-23
 -1       739 1.30319E-05 6.50058E-06 0.00000E+00
 -1       740 1.22061E-05 6.49902E-06 0.00000E+00
 -1       741 1.15606E-05 6.01470E-06 1.32349E-23
 -1       742 1.10829E-05 5.08208E-06 0.00000E+00
 -1       743 1.07558E-05 3.74654E-06 1.32349E-23
 -1       744 1.05438E-05 2.10294E-06-2.64698E-23
 -1       745 1.04086E-05 2.53828E-07-1.32349E-23
 -1       746 1.03026E-05-1.67322E-06-2.64698E-23
 -1       747 1.01780E-05-3.54836E-06 1.32349E-23
 -1       748 9.98812E-06-5.24854E-06 0.00000E+00
 -1       749 9.69215E-06-6.65359E-06-6.61744E-24
 -1       750 9.25393E-06-7.68231E-06 0.00000E+00
 -1       751 2.04878E-05-6.59042E-06 1.32349E-23
 -1       752 2.18171E-05-4.54532E-06 0.00000E+00
 -1       753 2.31431E-05-3.26011E-06 2.64698E-23
 -1       754 2.44838E-05-2.48414E-06-1.32349E-23
 -1       755 2.58253E-05-2.07548E-06 0.00000E+00
 -1       756 2.71696E-05-1.90896E-06 2.64698E-23
 -1       757 2.85143E-05-1.91133E-06 0.00000E+00
 -1       758 2.98595E-05-2.01706E-06 0.00000E+00
 -1       759 3.12047E-05-2.18281E-06 5.29396E-23
 -1       760 3.25496E-05-2.36795E-06 0.00000E+00
 -1       761 3.38942E-05-2.53605E-06 0.00000E+00
 -1       762 3.52367E-05-2.64988E-06 0.00000E+00
 -1       763 3.65789E-05-2.66056E-06-2.64698E-23
 -1       764 3.79103E-05-2.51454E-06 1.32349E-23
 -1       765 3.92451E-05-2.12476E-06-2.64698E-23
 -1       766 1.59108E-05-9.46949E-06 0.00000E+00
 -1       767 1.32362E-05-9.22498E-06 0.00000E+00
 -1       768 1.11862E-05-8.98110E-06 0.00000E+00
 -1       769 9.73952E-06-8.73389E-06 1.65436E-24
 -1       770 8.89768E-06-8.48457E-06 0.00000E+00
 -1       771 1.71591E-05-6.70517E-06 0.00000E+00
 -1       772 1.52519E-05-4.22410E-06-1.32349E-23
 -1       773 1.35142E-05-2.20044E-06 2.64698E-23
 -1       774 1.19332E-05-5.96366E-07 1.32349E-23
 -1       775 1.04954E-05 6.26101E-07 0.00000E+00
 -1       776 9.18667E-06 1.50534E-06 1.32349E-23
 -1       777 7.99246E-06 2.07990E-06 5.29396E-23
 -1       778 6.89819E-06 2.38860E-06 0.00000E+00
 -1       779 5.88918E-06 2.47040E-06-2.64698E-23
 -1       780 4.95070E-06 2.36446E-06 1.32349E-23
 -1       781 4.06805E-06 2.11006E-06 0.00000E+00
 -1       782 3.22659E-06 1.74666E-06-1.32349E-23
 -1       783 2.41170E-06 1.31376E-06 0.00000E+00
 -1       784 1.60966E-06 8.51229E-07 0.00000E+00
 -1       785 8.06962E-07 3.98998E-07 0.00000E+00
 -1       786 4.07812E-05-5.74826E-07 0.00000E+00
 -1       787 4.10547E-05 6.72819E-08-3.30872E-24
 -1       788 4.13279E-05 5.60563E-07 6.61744E-24
 -1       789 4.16035E-05 9.31729E-07 0.00000E+00
 -1       790 4.18794E-05 1.20705E-06-6.61744E-24
 -1       791 4.21557E-05 1.41248E-06 0.00000E+00
 -1       792 4.24321E-05 1.57372E-06 6.61744E-24
 -1       793 4.27087E-05 1.71633E-06 0.00000E+00
 -1       794 4.29852E-05 1.86581E-06 0.00000E+00
 -1       795 4.32617E-05 2.04766E-06 3.30872E-24
 -1       796 4.35382E-05 2.28751E-06-6.61744E-24
 -1       797 4.38143E-05 2.61119E-06 3.30872E-24
 -1       798 4.40903E-05 3.04483E-06-6.61744E-24
 -1       799 4.43649E-05 3.61489E-06 3.30872E-24
 -1       800 4.46396E-05 4.34837E-06 0.00000E+00
 -1       801 3.67813E-05-1.14755E-06 6.61744E-24
 -1       802 2.91408E-05-9.08546E-07 0.00000E+00
 -1       803 1.96232E-05-6.84419E-07 0.00000E+00
 -1       804 1.02471E-05-4.62277E-07 6.20385E-25
 -1       805 3.03129E-06-2.23626E-07 0.00000E+00
 -1       806 3.99549E-05-6.60475E-07-6.61744E-24
 -1       807 3.94056E-05-2.35363E-09 0.00000E+00
 -1       808 3.88763E-05 5.96269E-07 0.00000E+00
 -1       809 3.83632E-05 1.14879E-06 3.30872E-24
 -1       810 3.78620E-05 1.66853E-06 0.00000E+00
 -1       811 3.73679E-05 2.16868E-06 3.30872E-24
 -1       812 3.68763E-05 2.66242E-06 6.61744E-24
 -1       813 3.63820E-05 3.16290E-06-3.30872E-24
 -1       814 3.58803E-05 3.68329E-06 6.61744E-24
 -1       815 3.53662E-05 4.23673E-06 3.30872E-24
 -1       816 3.48348E-05 4.83636E-06 0.00000E+00
 -1       817 3.42813E-05 5.49535E-06-3.30872E-24
 -1       818 3.37008E-05 6.22685E-06 0.00000E+00
 -1       819 3.30892E-05 7.04409E-06 0.00000E+00
 -1       820 3.24427E-05 7.96038E-06 0.00000E+00
 -1       821 4.46987E-05 6.44728E-06 0.00000E+00
 -1       822 4.44787E-05 7.88709E-06 1.65436E-24
 -1       823 4.42587E-05 9.56675E-06 0.00000E+00
 -1       824 4.40363E-05 1.14600E-05-3.30872E-24
 -1       825 4.38134E-05 1.35401E-05 0.00000E+00
 -1       826 4.35897E-05 1.57797E-05-3.30872E-24
 -1       827 4.33657E-05 1.81511E-05-6.61744E-24
 -1       828 4.31413E-05 2.06262E-05 0.00000E+00
 -1       829 4.29168E-05 2.31765E-05 6.61744E-24
 -1       830 4.26922E-05 2.57735E-05 0.00000E+00
 -1       831 4.24676E-05 2.83884E-05-6.61744E-24
 -1       832 4.22433E-05 3.09924E-05 0.00000E+00
 -1       833 4.20193E-05 3.35568E-05-6.61744E-24
 -1       834 4.17971E-05 3.60529E-05-3.30872E-24
 -1       835 4.15748E-05 3.84522E-05 0.00000E+00
 -1       836 4.33671E-05 5.88073E-06 0.00000E+00
 -1       837 4.11129E-05 6.50971E-06-6.61744E-24
 -1       838 3.84858E-05 7.13657E-06-1.32349E-23
 -1       839 3.58251E-05 7.76229E-06 0.00000E+00
 -1       840 3.34704E-05 8.39005E-06 6.61744E-24
 -1       841 4.43796E-05 6.41775E-06 0.00000E+00
 -1       842 4.37386E-05 7.84612E-06 0.00000E+00
 -1       843 4.30001E-05 9.53492E-06-1.65436E-24
 -1       844 4.21722E-05 1.14569E-05 0.00000E+00
 -1       845 4.12675E-05 1.35822E-05 3.30872E-24
 -1       846 4.02976E-05 1.58798E-05 0.00000E+00
 -1       847 3.92753E-05 1.83161E-05 0.00000E+00
 -1       848 3.82135E-05 2.08568E-05 0.00000E+00
 -1       849 3.71257E-05 2.34662E-05-3.30872E-24
 -1       850 3.60256E-05 2.61081E-05-1.65436E-24
 -1       851 3.49271E-05 2.87460E-05 0.00000E+00
 -1       852 3.38439E-05 3.13433E-05-1.65436E-24
 -1       853 3.27895E-05 3.38641E-05 0.00000E+00
 -1       854 3.17777E-05 3.62728E-05-1.65436E-24
 -1       855 3.08209E-05 3.85354E-05 3.30872E-24
 -1       856 4.11194E-05 4.31739E-05 0.00000E+00
 -1       857 4.08638E-05 4.60686E-05 3.30872E-24
 -1       858 4.06073E-05 4.93554E-05 0.00000E+00
 -1       859 4.03480E-05 5.29771E-05 0.00000E+00
 -1       860 4.00874E-05 5.68757E-05 0.00000E+00
 -1       861 3.98257E-05 6.09921E-05 0.00000E+00
 -1       862 3.95633E-05 6.52667E-05 6.61744E-24
 -1       863 3.93004E-05 6.96395E-05-3.30872E-24
 -1       864 3.90374E-05 7.40497E-05-6.61744E-24
 -1       865 3.87744E-05 7.84370E-05 3.30872E-24
 -1       866 3.85119E-05 8.27407E-05-6.61744E-24
 -1       867 3.82502E-05 8.69005E-05-3.30872E-24
 -1       868 3.79893E-05 9.08568E-05 0.00000E+00
 -1       869 3.77307E-05 9.45503E-05 0.00000E+00
 -1       870 3.74729E-05 9.79227E-05 0.00000E+00
 -1       871 3.93295E-05 4.07110E-05 0.00000E+00
 -1       872 3.73914E-05 4.06940E-05-8.27181E-25
 -1       873 3.55157E-05 4.06766E-05 0.00000E+00
 -1       874 3.36694E-05 4.06588E-05 0.00000E+00
 -1       875 3.18192E-05 4.06403E-05 8.27181E-25
 -1       876 4.07587E-05 4.32605E-05 6.61744E-24
 -1       877 4.00191E-05 4.61924E-05 0.00000E+00
 -1       878 3.91506E-05 4.94634E-05 6.61744E-24
 -1       879 3.81755E-05 5.30222E-05 3.30872E-24
 -1       880 3.71110E-05 5.68172E-05 0.00000E+00
 -1       881 3.59764E-05 6.07985E-05 0.00000E+00
 -1       882 3.47897E-05 6.49169E-05 0.00000E+00
 -1       883 3.35695E-05 6.91241E-05 0.00000E+00
 -1       884 3.23338E-05 7.33719E-05 0.00000E+00
 -1       885 3.11008E-05 7.76127E-05-6.61744E-24
 -1       886 2.98885E-05 8.17985E-05 1.32349E-23
 -1       887 2.87149E-05 8.58811E-05 0.00000E+00
 -1       888 2.75986E-05 8.98121E-05 0.00000E+00
 -1       889 2.65561E-05 9.35413E-05 0.00000E+00
 -1       890 2.56092E-05 9.70197E-05 3.30872E-24
 -1       891 3.47825E-05 1.00796E-04 0.00000E+00
 -1       892 3.28127E-05 1.00674E-04-1.65436E-24
 -1       893 3.10704E-05 1.00552E-04 0.00000E+00
 -1       894 2.93108E-05 1.00431E-04 0.00000E+00
 -1       895 2.72892E-05 1.00310E-04 1.65436E-24
 -1       896 4.04867E-07 1.47161E-06 0.00000E+00
 -1       897 8.13366E-07 2.50845E-06 6.61744E-24
 -1       898 1.22198E-06 3.18994E-06-1.32349E-23
 -1       899 1.63132E-06 3.59058E-06 0.00000E+00
 -1       900 2.04074E-06 3.76726E-06 0.00000E+00
 -1       901 2.45030E-06 3.77385E-06-6.61744E-24
 -1       902 2.85985E-06 3.65352E-06 1.32349E-23
 -1       903 3.26939E-06 3.44769E-06 0.00000E+00
 -1       904 3.67890E-06 3.19246E-06 0.00000E+00
 -1       905 4.08832E-06 2.92321E-06-6.61744E-24
 -1       906 4.49767E-06 2.67446E-06 0.00000E+00
 -1       907 4.90655E-06 2.48102E-06 6.61744E-24
 -1       908 5.31534E-06 2.38115E-06 0.00000E+00
 -1       909 5.72170E-06 2.41440E-06 6.61744E-24
 -1       910 6.12882E-06 2.62864E-06 0.00000E+00
 -1       911 6.65655E-06 3.45011E-06 3.30872E-24
 -1       912 6.79242E-06 3.45566E-06-1.65436E-24
 -1       913 6.92812E-06 3.14619E-06 3.30872E-24
 -1       914 7.06409E-06 2.57552E-06 1.65436E-24
 -1       915 7.19993E-06 1.79212E-06 0.00000E+00
 -1       916 7.33571E-06 8.43489E-07 0.00000E+00
 -1       917 7.47137E-06-2.26272E-07-3.30872E-24
 -1       918 7.60695E-06-1.37364E-06 0.00000E+00
 -1       919 7.74246E-06-2.55667E-06 0.00000E+00
 -1       920 7.87786E-06-3.73355E-06 1.65436E-24
 -1       921 8.01324E-06-4.86242E-06-3.30872E-24
 -1       922 8.14818E-06-5.90113E-06-1.65436E-24
 -1       923 8.28312E-06-6.80570E-06 0.00000E+00
 -1       924 8.41548E-06-7.53154E-06 8.27181E-25
 -1       925 8.54884E-06-8.03042E-06 0.00000E+00
 -1       926 8.13992E-06-8.25489E-06 0.00000E+00
 -1       927 7.59935E-06-8.10281E-06 6.61744E-24
 -1       928 7.05952E-06-7.79993E-06 1.32349E-23
 -1       929 6.51724E-06-7.35214E-06 6.61744E-24
 -1       930 5.97479E-06-6.77689E-06 0.00000E+00
 -1       931 5.43182E-06-6.09392E-06 6.61744E-24
 -1       932 4.88871E-06-5.33156E-06 1.32349E-23
 -1       933 4.34547E-06-4.51956E-06 0.00000E+00
 -1       934 3.80220E-06-3.69167E-06-1.32349E-23
 -1       935 3.25891E-06-2.88187E-06-6.61744E-24
 -1       936 2.71566E-06-2.12274E-06 0.00000E+00
 -1       937 2.17245E-06-1.44594E-06 0.00000E+00
 -1       938 1.62930E-06-8.76540E-07 0.00000E+00
 -1       939 1.08619E-06-4.37692E-07-6.61744E-24
 -1       940 5.43146E-07-1.42134E-07 0.00000E+00
 -1       941 1.88340E-06 1.39756E-07 0.00000E+00
 -1       942 3.87006E-06 4.13520E-07-2.64698E-23
 -1       943 5.85062E-06 7.79415E-07 5.29396E-23
 -1       944 7.85037E-06 1.20201E-06 0.00000E+00
 -1       945 9.85090E-06 1.66444E-06 0.00000E+00
 -1       946 1.18552E-05 2.15261E-06 2.64698E-23
 -1       947 1.38600E-05 2.66087E-06 0.00000E+00
 -1       948 1.58655E-05 3.18498E-06-2.64698E-23
 -1       949 1.78709E-05 3.72590E-06 0.00000E+00
 -1       950 1.98759E-05 4.28577E-06 0.00000E+00
 -1       951 2.18805E-05 4.87294E-06 0.00000E+00
 -1       952 2.38820E-05 5.49768E-06 2.64698E-23
 -1       953 2.58828E-05 6.18260E-06-5.29396E-23
 -1       954 2.78678E-05 6.95445E-06 0.00000E+00
 -1       955 2.98577E-05 7.86855E-06 0.00000E+00
 -1       956 3.16513E-05 1.03483E-05-2.63664E-24
 -1       957 3.15379E-05 1.18539E-05-1.24077E-24
 -1       958 3.14240E-05 1.34938E-05 6.20385E-25
 -1       959 3.13097E-05 1.52542E-05-4.13590E-25
 -1       960 3.11952E-05 1.71209E-05-8.27181E-25
 -1       961 3.10805E-05 1.90799E-05-1.24077E-24
 -1       962 3.09657E-05 2.11168E-05-1.65436E-24
 -1       963 3.08507E-05 2.32177E-05-1.65436E-24
 -1       964 3.07356E-05 2.53681E-05 3.30872E-24
 -1       965 3.06204E-05 2.75540E-05 0.00000E+00
 -1       966 3.05052E-05 2.97611E-05 3.30872E-24
 -1       967 3.03901E-05 3.19752E-05 0.00000E+00
 -1       968 3.02750E-05 3.41821E-05 0.00000E+00
 -1       969 3.01600E-05 3.63676E-05 0.00000E+00
 -1       970 3.00455E-05 3.85177E-05-3.30872E-24
 -1       971 2.96226E-05 4.28971E-05 0.00000E+00
 -1       972 2.93022E-05 4.56377E-05-3.30872E-24
 -1       973 2.89810E-05 4.87863E-05 6.61744E-24
 -1       974 2.86571E-05 5.22870E-05 3.30872E-24
 -1       975 2.83319E-05 5.60824E-05-6.61744E-24
 -1       976 2.80056E-05 6.01140E-05 6.61744E-24
 -1       977 2.76785E-05 6.43225E-05 0.00000E+00
 -1       978 2.73509E-05 6.86476E-05 0.00000E+00
 -1       979 2.70231E-05 7.30288E-05-1.32349E-23
 -1       980 2.66954E-05 7.74052E-05 6.61744E-24
 -1       981 2.63680E-05 8.17161E-05 0.00000E+00
 -1       982 2.60414E-05 8.59007E-05 0.00000E+00
 -1       983 2.57159E-05 8.98993E-05-6.61744E-24
 -1       984 2.53931E-05 9.36523E-05-3.30872E-24
 -1       985 2.50710E-05 9.71015E-05 6.61744E-24
 -3
    1PSTEP                         2           1           1          
  100CL  101 1.000000000         841                     0    1           1
 -4  STRESS      6    1
 -5  SXX         1    4    1    1
 -5  SYY         1    4    2    2
 -5  SZZ         1    4    3    3
 -5  SXY         1    4    1    2
 -5  SYZ         1    4    2    3
 -5  SZX         1    4    3    1
 -1         1-3.78686E+06-1.19278E+06-7.53793E+05-1.10721E+06-7.27596E-11 2.77457E-09
 -1         2-2.43836E+06-7.62581E+04 3.46883E+03-2.47125E+05 1.53250E-10-1.27420E-09
 -1         3-1.23058E+06-5.27641E+05 2.02719E+04-1.05904E+05-6.00267E-11-2.80124E-09
 -1         4-5.63176E+05-1.51226E+05 8.08567E+02-6.16569E+04-8.49809E-11-1.73691E-09
 -1         5-2.31365E+05 3.17121E+05-1.64083E+05-1.71065E+04 3.84171E-09-2.49327E-09
 -1         8-2.05847E+06-8.24416E+05-3.16891E+05-8.57919E+05-1.81899E-11 1.84809E-09
 -1         9-2.27856E+06-4.81028E+05-3.09241E+05-5.27965E+05-3.12624E-09 4.66631E-09
 -1        10-1.20973E+06-7.86399E+05 2.47644E+03-3.15462E+05-8.75010E-10-1.53174E-09
 -1        11-6.59879E+05-2.32433E+05 4.93565E+02-1.66827E+05-6.92883E-10 2.80033E-09
 -1        12-3.57656E+05 2.66840E+05-1.93997E+05-8.09210E+04 3.86694E-09 1.89820E-09
 -1        15 1.45307E+04-6.35555E+04 4.10703E+03-2.18102E+05 2.60115E-10 1.85901E-09
 -1        16-1.31201E+06-3.08617E+05-8.22373E+04-5.80862E+05-1.25632E-09-7.85803E-10
 -1        17-8.41797E+05-6.43401E+05-1.18604E+05-4.71318E+05-2.71636E-10 9.60426E-10
 -1        18-3.58550E+05-2.16769E+05-1.42141E+05-2.82752E+05-5.96204E-09 3.18808E-09
 -1        19-7.23179E+04 1.43706E+05-8.65531E+04-9.07845E+04-1.65801E-09-3.99571E-10
 -1        20 1.76854E+05-1.22308E+05-1.68589E+04 8.97817E+04 4.91582E-10-7.61793E-09
 -1        21-1.18395E+04-2.69430E+05 3.86427E+04 4.66900E+03 2.49320E-08-1.17539E-09
 -1        22 4.21962E+04 2.47211E+05 1.49388E+03-5.53448E+04 4.00178E-10-1.50430E-09
 -1        23-4.57473E+05-1.16634E+04 4.17138E+03-2.42475E+05 2.05910E-09 1.13626E-09
 -1        24-3.00272E+05-1.34579E+03 2.41916E+05-5.44017E+05-6.21124E-09 2.61449E-09
 -1        25 6.86675E+05 2.93072E+05 2.35260E+05-3.66237E+05-3.74833E-09-6.59687E-10
 -1        26 1.77576E+04 3.42207E+05 2.71526E+04-7.11820E+04 1.05198E-09 3.75500E-09
 -1        27-9.15175E+04-1.11787E+05-4.92124E+04 1.06751E+05 4.68147E-09-9.41024E-10
 -1        28-2.67990E+04-1.97900E+05-1.46153E+03 9.18566E+04 2.29525E-08-1.07692E-09
 -1        29 5.63507E+05 3.97480E+05 1.61217E+03-1.82669E+04 1.85914E-10 7.99446E-10
 -1        30 2.05273E+05 5.39968E+04 2.26489E+03-6.18621E+04 1.03808E-09-6.36646E-11
 -1        31-6.76255E+05 5.58874E+04 4.94369E+03-1.47725E+05 1.97584E-09 1.88084E-09
 -1        32 7.43245E+05 5.43974E+05 5.67331E+05-4.70630E+05 3.74833E-09 4.19823E-09
 -1        33 1.37881E+06 7.88085E+05 4.78079E+05-9.65572E+04-8.54031E-09 1.64891E-09
 -1        34-3.60557E+05-6.69515E+04-3.67603E+04 3.64649E+04 3.64324E-09-1.62709E-09
 -1        35-4.92710E+04-6.37155E+04-1.32004E+03 1.32738E+05 2.64875E-08-4.46501E-09
 -1        36-5.26829E+06 1.50286E+05-3.63937E+05-1.29448E-08-1.48284E-09 9.92441E-09
 -1        37-5.42308E+06-1.74584E+05-2.54961E+05-2.33263E-07 4.12362E-10 1.46756E-08
 -1        38-5.32848E+06 2.25424E+04-9.41936E+04-2.76216E-08-7.95458E-10 1.03319E-09
 -1        39-5.35282E+06-2.61589E+04-5.83102E+04-7.49062E-08-1.83940E-09-1.45883E-09
 -1        40-5.33798E+06 3.37450E+03-2.41549E+04 7.84451E-09 7.47770E-11 4.82305E-09
 -1        41-5.34164E+06-3.95393E+03-1.41981E+04-1.70586E-07 1.66229E-09 1.15497E-08
 -1        42-5.33949E+06 5.49718E+02-7.03312E+03-1.86534E-07 1.86616E-10 1.60571E-09
 -1        43-5.34002E+06-9.70032E+02-5.50724E+03 6.93665E-09-4.20907E-10-2.21269E-09
 -1        44-5.33957E+06 4.15687E+02-5.61670E+03-6.58066E-08-1.08358E-09-8.06608E-09
 -1        45-5.34096E+06-2.75521E+03-1.01538E+04-1.81601E-07 9.41913E-10 4.54145E-09
 -1        46-5.33856E+06 2.31914E+03-1.67587E+04 7.72478E-08-1.82105E-10 9.48603E-09
 -1        47-5.34860E+06-1.79409E+04-4.00805E+04 1.69089E-07-2.06170E-09 2.33513E-09
 -1        48-5.33206E+06 1.54553E+04-6.46358E+04 9.41520E-08 4.06027E-10-6.17729E-09
 -1        49-5.39676E+06-1.19697E+05-1.74834E+05 1.21436E-08-3.30087E-10-1.78079E-09
 -1        50-5.29083E+06 1.03024E+05-2.49651E+05 1.34209E-07-1.41477E-09-2.66300E-09
 -1        51 4.60743E+04-4.78246E+05 7.91577E+04-1.37695E+06 2.32831E-10 1.52504E-08
 -1        52 2.26769E+04-4.74651E+05 4.72942E+04-1.53135E+06 4.58385E-10 2.81725E-08
 -1        53 1.53718E+04-4.94467E+05 3.54671E+04-1.37291E+06 2.91038E-10 1.20926E-08
 -1        54 3.38355E+04-4.92933E+05 5.10949E+04-1.53545E+06-8.44011E-10-2.40470E-08
 -1        55 6.88848E+04-5.10705E+05 8.97220E+04-1.37203E+06-1.60071E-10-4.94765E-09
 -1        56-5.65355E+06-6.39256E+05-4.51272E+05-2.18062E+06 4.58385E-10 5.47152E-09
 -1        57-5.84027E+06-1.03308E+06-3.02922E+05-2.15665E+06 2.04818E-09 1.50612E-09
 -1        58-5.74413E+06-7.79014E+05-1.06127E+05-2.15235E+06 5.14774E-10-1.57888E-09
 -1        59-5.73606E+06-8.67713E+05-6.29255E+04-2.18962E+06-4.00405E-09-8.61110E-09
 -1        60-5.75632E+06-7.98915E+05-2.47747E+04-2.14951E+06-2.19325E-09 2.28283E-09
 -1        61-5.72538E+06-8.40693E+05-1.40144E+04-2.18860E+06-2.52476E-09 1.35113E-08
 -1        62-5.75439E+06-8.05374E+05-6.91374E+03-2.15348E+06 2.71484E-10 1.96729E-09
 -1        63-5.73329E+06-8.27970E+05-5.78279E+03-2.17733E+06-3.16504E-10 3.23280E-09
 -1        64-5.74818E+06-8.11680E+05-6.97060E+03-2.16066E+06-2.02454E-09-9.83619E-10
 -1        65-5.74836E+06-8.17360E+05-1.40289E+04-2.16163E+06-9.56788E-10-1.15642E-08
 -1        66-5.73929E+06-8.16112E+05-2.49625E+04-2.16912E+06-5.23301E-10 4.82942E-09
 -1        67-5.77624E+06-8.27367E+05-6.31848E+04-2.14312E+06-8.51742E-10 1.49148E-08
 -1        68-5.72073E+06-8.02332E+05-1.06679E+05-2.17906E+06 1.00226E-09-2.03727E-09
 -1        69-5.88772E+06-9.87202E+05-3.04406E+05-2.10313E+06 3.71074E-09-9.47330E-09
 -1        70-5.62954E+06-6.61832E+05-4.53434E+05-2.20741E+06-2.34286E-09 3.40515E-09
 -1        71-2.44628E+06-3.26213E+03 7.92129E+03-7.52731E-08 4.98643E-11 5.96947E-09
 -1        72-2.44269E+06 3.79091E+03 5.53755E+03 5.54974E-08-2.87095E-10 3.69209E-09
 -1        73-2.44497E+06-4.89207E+02 2.03722E+03-7.88961E-08 7.24120E-10-5.19822E-09
 -1        74-2.44421E+06 5.66181E+02 1.23928E+03-9.65957E-08 3.62804E-10-5.34575E-09
 -1        75-2.44476E+06-7.16186E+01 4.67624E+02-5.98580E-08-1.11222E-09 3.60441E-09
 -1        76-2.44446E+06 7.26825E+01 1.84149E+02 1.23563E-07 1.15733E-09 6.12946E-09
 -1        77-2.44472E+06-4.09027E-01-8.42074E+01 4.04227E-08 3.51668E-10 9.30385E-10
 -1        78-2.44455E+06-6.95406E+01-3.97251E+02 5.61409E-08-5.18944E-11-3.34239E-11
 -1        79-2.44468E+06 6.96187E+01-8.28306E+02 5.63206E-08-6.82209E-10 5.09590E-09
 -1        80-2.44482E+06-5.53674E+02-1.93812E+03 5.53770E-08-6.00510E-10-4.90616E-10
 -1        81-2.44445E+06 4.79788E+02-3.41381E+03 2.69170E-08 1.54089E-11-4.92264E-10
 -1        82-2.44641E+06-3.72780E+03-8.31355E+03-3.19892E-08 5.77369E-10-2.09377E-09
 -1        83-2.44309E+06 3.21305E+03-1.34579E+04-9.95496E-08-4.86053E-11 6.34464E-09
 -1        84-2.45642E+06-2.48887E+04-3.63944E+04-1.73290E-07-1.61934E-09 9.53332E-09
 -1        85-2.43449E+06 2.14174E+04-5.20057E+04-1.11586E-07-1.13507E-10 2.04818E-09
 -1        86-1.23276E+05 7.44132E+05 3.05287E+05-2.31275E+02-1.60071E-10-4.56566E-10
 -1        87 1.54132E+05 8.77969E+05 2.34038E+05-1.34637E+02-8.67658E-10-1.32523E-08
 -1        88-2.92787E+04 7.88332E+05 1.21358E+05-2.20854E+03-1.03319E-09 1.12777E-10
 -1        89 1.06447E+05 8.55536E+05 1.70129E+05 4.06621E+03-1.72440E-09 5.47760E-09
 -1        90-7.61362E+04 7.66539E+05 1.93983E+05-4.42874E+03-1.74623E-09 9.91372E-09
 -1        91-2.70489E+06-3.58364E+05-4.72307E+04-1.01626E+06-2.05546E-10 1.14233E-09
 -1        92-2.71008E+06-4.17989E+05-3.23042E+04-1.02916E+06-3.95312E-09-2.27556E-09
 -1        93-2.71895E+06-3.69822E+05-1.10782E+04-1.00757E+06-1.40631E-10-2.55159E-09
 -1        94-2.69373E+06-4.04735E+05-6.80232E+03-1.03944E+06 1.91778E-09-5.30326E-09
 -1        95-2.72125E+06-3.71392E+05-2.61270E+03-1.00608E+06-3.03089E-10 4.16776E-09
 -1        96-2.69440E+06-3.99307E+05-1.54045E+03-1.03691E+06 5.17275E-10-2.74235E-09
 -1        97-2.71822E+06-3.75254E+05-9.01854E+02-1.01007E+06 2.03045E-10-6.44320E-10
 -1        98-2.70353E+06-3.89201E+05-7.96360E+02-1.02553E+06-2.16181E-09 2.39834E-09
 -1        99-2.71203E+06-3.81567E+05-1.37332E+03-1.01739E+06-1.14187E-09-2.34786E-09
 -1       100-2.71681E+06-3.77143E+05-2.74449E+03-1.01070E+06-2.28908E-10 1.79404E-09
 -1       101-2.70494E+06-3.87323E+05-5.04520E+03-1.02489E+06 1.10578E-09-1.16165E-09
 -1       102-2.73103E+06-3.72298E+05-1.31061E+04-9.98031E+05 1.02364E-09 8.86348E-09
 -1       103-2.69793E+06-3.86391E+05-2.14052E+04-1.03013E+06 1.79352E-09 1.04010E-08
 -1       104-2.75616E+06-4.05605E+05-6.27221E+04-9.87281E+05 4.15639E-10 4.42378E-09
 -1       105-2.67999E+06-3.54303E+05-9.12872E+04-1.03560E+06 4.48199E-09 5.67525E-10
 -1       106-1.19069E+06-2.48958E+04 6.05135E+04-1.45413E-07-1.54402E-09 2.25555E-09
 -1       107-1.16483E+06 2.89346E+04 4.23322E+04-1.23969E-07 6.94133E-10-5.99812E-10
 -1       108-1.18068E+06-3.73497E+03 1.56575E+04-1.68401E-07 5.73314E-11-8.94943E-10
 -1       109-1.17646E+06 4.33273E+03 9.65991E+03 2.67223E-08 5.10135E-11 1.41836E-09
 -1       110-1.17909E+06-5.56856E+02 3.94342E+03 1.45231E-08 1.13530E-10 2.88583E-09
 -1       111-1.17832E+06 6.36413E+02 2.18810E+03-1.75053E-07-5.45338E-10 6.25135E-10
 -1       112-1.17883E+06-7.45850E+01 8.33927E+02-1.94241E-08 4.80919E-10-3.94476E-09
 -1       113-1.17866E+06 3.09386E+01 1.77205E+02 1.10308E-08 3.82756E-10 1.92448E-09
 -1       114-1.17876E+06 4.37951E+01-4.26858E+02-6.65912E-08-2.73371E-10 1.67142E-09
 -1       115-1.17891E+06-4.22420E+02-1.40617E+03-2.08422E-09 5.32524E-10-2.40811E-09
 -1       116-1.17857E+06 3.75268E+02-2.63011E+03 8.51916E-09-9.14656E-11 1.25397E-09
 -1       117-1.18018E+06-2.92615E+03-6.50858E+03-3.46586E-08 3.22520E-10-3.42970E-09
 -1       118-1.17750E+06 2.52333E+03-1.05688E+04-1.04800E-07-2.39806E-10-6.62567E-09
 -1       119-1.18803E+06-1.95480E+04-2.85946E+04-7.21890E-08-8.09970E-11 5.67525E-09
 -1       120-1.17073E+06 1.68215E+04-4.08634E+04-1.63924E-07 1.43512E-10-1.26602E-09
 -1       121 4.66386E+03-2.03523E+06-1.63378E+04 1.29641E+04 4.72937E-11 4.52803E-09
 -1       122-5.98627E+03-2.04112E+06-1.09866E+04 8.91002E+04-3.10934E-10 4.23847E-09
 -1       123 5.47204E+02-2.03768E+06-4.85001E+03 1.36286E+04-2.69438E-11 5.51154E-10
 -1       124-1.82197E+03-2.03814E+06-3.95003E+03 8.67561E+04 2.98087E-10-5.81622E-10
 -1       125 5.36475E+02-2.03756E+06-3.57487E+03 1.53065E+04-1.16370E-09 1.81353E-09
 -1       126-1.29248E+06-1.93538E+05 3.32606E+04-4.78255E+05-1.81899E-10 1.74259E-09
 -1       127-1.27166E+06-1.67621E+05 2.28556E+04-4.87636E+05-1.42575E-09-3.98131E-10
 -1       128-1.28617E+06-1.81596E+05 7.79496E+03-4.79948E+05 7.87168E-10-6.03450E-10
 -1       129-1.27898E+06-1.81513E+05 4.77873E+03-4.85697E+05-1.04814E-09-6.45366E-09
 -1       130-1.28520E+06-1.79762E+05 1.77536E+03-4.80159E+05 1.04194E-10 6.67228E-10
 -1       131-1.28035E+06-1.83404E+05 9.56838E+02-4.85170E+05-7.70150E-10 2.67320E-10
 -1       132-1.28480E+06-1.79722E+05 2.77272E+02-4.80469E+05 1.11555E-09 1.27923E-09
 -1       133-1.28131E+06-1.83041E+05-9.51916E+01-4.84264E+05 6.76067E-10 5.84127E-09
 -1       134-1.28424E+06-1.80130E+05-5.05532E+02-4.81063E+05 3.06414E-10-2.20706E-09
 -1       135-1.28277E+06-1.82359E+05-1.42385E+03-4.82842E+05-2.86207E-10-6.00286E-09
 -1       136-1.28334E+06-1.80410E+05-2.58445E+03-4.81888E+05 4.96335E-10-2.90902E-09
 -1       137-1.28588E+06-1.83936E+05-6.88725E+03-4.80782E+05 1.40415E-09-1.50158E-09
 -1       138-1.28114E+06-1.78577E+05-1.12359E+04-4.83116E+05-1.39676E-09-6.98037E-10
 -1       139-1.29834E+06-2.02007E+05-3.29123E+04-4.75773E+05-1.58855E-09-6.81985E-09
 -1       140-1.27092E+06-1.62505E+05-4.78946E+04-4.86844E+05-2.16824E-09-3.02498E-09
 -1       141-4.39274E+05-1.03813E+04 2.52305E+04-1.74531E-08 4.71326E-10 1.20235E-09
 -1       142-4.28491E+05 1.20646E+04 1.76446E+04-1.60220E-07-2.00442E-10 3.10979E-09
 -1       143-4.35096E+05-1.55701E+03 6.50710E+03-1.58946E-07 1.42398E-10-2.10548E-10
 -1       144-4.33341E+05 1.80335E+03 3.97623E+03-4.67243E-08 3.82791E-10 9.42691E-10
 -1       145-4.34429E+05-2.29261E+02 1.54049E+03 3.54270E-08-5.10280E-11 2.53749E-10
 -1       146-4.34132E+05 2.42020E+02 6.89674E+02-1.05619E-08 7.02680E-10-4.19118E-09
 -1       147-4.34305E+05-1.06763E+01-7.53996E+01-3.93045E-08-3.99970E-10 4.17572E-10
 -1       148-4.34362E+05-1.47630E+02-8.46917E+02-1.09635E-07 3.64917E-10 3.29260E-09
 -1       149-4.34201E+05 1.57605E+02-1.87007E+03-1.49688E-07-2.16332E-10 3.05909E-09
 -1       150-4.34981E+05-1.26314E+03-4.42524E+03-1.47517E-07 1.53994E-10-7.75429E-09
 -1       151-4.33687E+05 1.09580E+03-7.81377E+03 1.00640E-07-6.61583E-11-2.17233E-09
 -1       152-4.38628E+05-8.51539E+03-1.90240E+04 1.31025E-07-2.68735E-10-1.17780E-10
 -1       153-4.30558E+05 7.33973E+03-3.07956E+04-6.28168E-08 1.25479E-09 7.45786E-10
 -1       154-4.61466E+05-5.68555E+04-8.32098E+04-3.05586E-08 1.44564E-10 2.17369E-10
 -1       155-4.10847E+05 4.89279E+04-1.18848E+05-4.35530E-08 2.54416E-09-8.80391E-10
 -1       156-1.00952E+04-4.55440E+05 2.57185E+04-2.05910E+03 5.18412E-11-2.68805E-10
 -1       157 1.41279E+04-4.43672E+05 2.25640E+04 1.15797E+04-2.19529E-10 7.70227E-09
 -1       158-3.89170E+03-4.52583E+05 1.61212E+04-1.85897E+03 4.04725E-10-4.01502E-09
 -1       159 2.05153E+04-4.40569E+05 3.11431E+04 1.09349E+04-5.93900E-10-1.25733E-08
 -1       160-1.64288E+04-4.58518E+05 4.05894E+04-1.41411E+03 9.71340E-10-5.39353E-09
 -1       161-6.98455E+05-9.53175E+04-6.69471E+03-2.62501E+05 3.84489E-10 1.80762E-09
 -1       162-6.99779E+05-1.03287E+05-4.60758E+03-2.63755E+05 7.53388E-10 1.64096E-09
 -1       163-6.99867E+05-9.75726E+04-1.59073E+03-2.61994E+05-1.14710E-10-7.42773E-10
 -1       164-6.98173E+05-1.00642E+05-1.01088E+03-2.64311E+05 1.43871E-10-1.19059E-08
 -1       165-7.00056E+05-9.79391E+04-4.55155E+02-2.61953E+05-8.63196E-10 4.57902E-10
 -1       166-6.98065E+05-1.00145E+05-4.14938E+02-2.64244E+05-1.57498E-09-2.61623E-09
 -1       167-6.99973E+05-9.80664E+04-4.85782E+02-2.62062E+05-8.67409E-10-5.39814E-10
 -1       168-6.98422E+05-1.00011E+05-9.91701E+02-2.63919E+05-7.70015E-10-7.63134E-09
 -1       169-6.99698E+05-9.80748E+04-1.77938E+03-2.62278E+05-2.08935E-10-7.51970E-09
 -1       170-6.99622E+05-1.00907E+05-4.36266E+03-2.63262E+05-8.79155E-10-2.13595E-09
 -1       171-6.98775E+05-9.71805E+04-7.66608E+03-2.62715E+05-1.14142E-09 3.39833E-09
 -1       172-7.05245E+05-1.09030E+05-2.03225E+04-2.61218E+05 7.78641E-10 3.30351E-09
 -1       173-6.94092E+05-9.00206E+04-3.30749E+04-2.64299E+05 1.36288E-09-2.11367E-09
 -1       174-7.38630E+05-1.65403E+05-9.68549E+04-2.50151E+05 5.42059E-10-3.43152E-09
 -1       175-6.65469E+05-4.12887E+04-1.40855E+05-2.73606E+05 1.50976E-09 3.57250E-09
 -1       191 4.67173E+03 9.79253E+05 8.14347E+03-3.19440E+04-5.67525E-10-6.72480E-09
 -1       192 1.59742E+03 9.80559E+05 4.91165E+03-3.46638E+04 2.91948E-10-8.65657E-09
 -1       193 6.36943E+02 9.79628E+05 3.96690E+03-3.14792E+04-1.27420E-09-5.75528E-09
 -1       194 2.20246E+03 9.80680E+05 6.02659E+03-3.55136E+04-6.41194E-11-2.50111E-09
 -1       195 6.53735E+03 9.78888E+05 1.09105E+04-3.10792E+04-2.35741E-09 3.78350E-09
 -1       251-2.73878E+06 5.32600E+04-1.29826E+05-1.56830E+04-1.22282E-09 2.46655E-09
 -1       252-2.79196E+06-6.19830E+04-9.05324E+04 7.99364E+03 2.14266E-09 1.64528E-09
 -1       253-2.76051E+06 7.89111E+03-3.37962E+04-3.96116E+03-5.46606E-10 3.06864E-09
 -1       254-2.76694E+06-9.29092E+03-2.05587E+04-1.53428E+04 7.89896E-10 8.24275E-09
 -1       255-2.76368E+06 1.11883E+03-8.80553E+03 7.65089E+03-8.38099E-10-4.73847E-10
 -1       256-2.76387E+06-1.30547E+03-5.05438E+03-3.46445E+04 2.39197E-10 7.85104E-09
 -1       257-2.76378E+06 1.56355E+02-2.73414E+03 1.53406E+04-5.06930E-10 2.56318E-09
 -1       258-2.76403E+06-2.15428E+02-2.38755E+03-4.35032E+04-4.80441E-10 7.34033E-10
 -1       259-2.76369E+06 1.70829E+02-2.80677E+03 1.65102E+04-1.82030E-09 2.33956E-09
 -1       260-2.76423E+06-1.34301E+03-5.37120E+03-3.89322E+04-2.71029E-10 1.11577E-08
 -1       261-2.76349E+06 1.20166E+03-9.26049E+03 1.07692E+04 8.91987E-10 5.33873E-10
 -1       262-2.76745E+06-9.81526E+03-2.18093E+04-2.24655E+04 2.02454E-09-5.67525E-10
 -1       263-2.76026E+06 8.37340E+03-3.57601E+04 4.30241E+01-2.05318E-10 8.08359E-09
 -1       264-2.79354E+06-6.56704E+04-9.58453E+04 4.51868E+02-3.50337E-09 8.60200E-09
 -1       265-2.73742E+06 5.64018E+04-1.37479E+05-1.21457E+04-3.82579E-09 3.51429E-09
 -1       266-3.12557E+04-4.90901E+05 7.09950E+04 3.40725E+04 7.27596E-11 8.26731E-10
 -1       267 3.60755E+04-4.57413E+05 4.67810E+04-1.72108E+05 2.54659E-11 3.42425E-09
 -1       268-2.78058E+03-4.74131E+05 9.77861E+03 3.65760E+04 5.82077E-11-1.34116E-09
 -1       269-8.50500E+03-4.79843E+05-1.32860E+04-1.72876E+05 4.12001E-10-1.46883E-09
 -1       270 1.30833E+04-4.68824E+05-3.27471E+04 3.48428E+04-7.27596E-12 7.68705E-09
 -1       271-5.47360E+06-6.69720E+05-4.35265E+05-2.13125E+06 1.09867E-09-3.02680E-09
 -1       272-5.64608E+06-9.85832E+05-2.82000E+05-2.11069E+06 3.79259E-10 5.87534E-09
 -1       273-5.55899E+06-7.80300E+05-1.02698E+05-2.10749E+06 2.37378E-10 3.28146E-09
 -1       274-5.54425E+06-8.53419E+05-5.80089E+04-2.14639E+06-1.71963E-09 1.76078E-09
 -1       275-5.57362E+06-7.89398E+05-2.39557E+04-2.10041E+06 1.17507E-09-8.32915E-09
 -1       276-5.52592E+06-8.43757E+05-1.29708E+04-2.15754E+06 5.21368E-10 5.67525E-10
 -1       277-5.57758E+06-7.88253E+05-6.62030E+03-2.09721E+06 5.29781E-10 5.83896E-10
 -1       278-5.52188E+06-8.44956E+05-5.46129E+03-2.16137E+06-1.21440E-09 4.32442E-09
 -1       279-5.57792E+06-7.87891E+05-6.68453E+03-2.09682E+06-2.77578E-09-3.26963E-10
 -1       280-5.52477E+06-8.45093E+05-1.31914E+04-2.15912E+06-1.09139E-11 2.84854E-09
 -1       281-5.57456E+06-7.88342E+05-2.43417E+04-2.09930E+06-1.44428E-09 1.75714E-09
 -1       282-5.54224E+06-8.56191E+05-5.90536E+04-2.14929E+06-9.86802E-10 3.71438E-09
 -1       283-5.56026E+06-7.78485E+05-1.04486E+05-2.10584E+06-2.61934E-10-2.49565E-09
 -1       284-5.64478E+06-9.92037E+05-2.87022E+05-2.11414E+06-2.39925E-09-4.68208E-09
 -1       285-5.47383E+06-6.65474E+05-4.42953E+05-2.12949E+06-1.24419E-09 1.25146E-09
 -1       286-9.95040E+05-8.47374E+03 2.00786E+04-1.86384E+03 3.04613E-09 1.18234E-11
 -1       287-9.84274E+05 9.68464E+03 1.44326E+04-1.29804E+04 2.25941E-09 5.57225E-09
 -1       288-9.91523E+05-1.31631E+03 5.14212E+03 2.09061E+03-2.23281E-10 6.69002E-09
 -1       289-9.88708E+05 1.45048E+03 3.44178E+03-2.01033E+04 3.41402E-10-1.54478E-09
 -1       290-9.90755E+05-2.26012E+02 1.36556E+03 5.25853E+03 8.01947E-10-1.25590E-09
 -1       291-9.89906E+05 3.00831E+02 1.02204E+03-2.52505E+04 2.26925E-09 7.96231E-09
 -1       292-9.90478E+05-6.84386E+01 7.00750E+02 7.23776E+03 2.90231E-09 2.34281E-09
 -1       293-9.90284E+05 2.86291E+02 1.00852E+03-2.77723E+04 1.11208E-09 5.54724E-09
 -1       294-9.90467E+05-1.47036E+02 1.59069E+03 7.78058E+03 2.27134E-09 2.37708E-09
 -1       295-9.89783E+05 1.07479E+03 3.47077E+03-2.73524E+04 1.89013E-09-1.42398E-09
 -1       296-9.90961E+05-8.61698E+02 5.96302E+03 6.81782E+03 2.10252E-09-7.86940E-10
 -1       297-9.86564E+05 6.53584E+03 1.45858E+04-2.40457E+04 2.63623E-09-1.88425E-09
 -1       298-9.93564E+05-5.63676E+03 2.33708E+04 4.47376E+03 6.18002E-10 2.05910E-09
 -1       299-9.68547E+05 4.33177E+04 6.35465E+04-1.83138E+04-1.65426E-09 1.56524E-09
 -1       300-1.00877E+06-3.73622E+04 9.04131E+04 1.08532E+03 5.13410E-10-5.32236E-09
 -1       301 7.29084E+04 1.08719E+05 1.45889E+05-3.05450E+04 1.70257E-09-3.63332E-09
 -1       302 2.45487E+04 1.34948E+05 8.49749E+04-3.55424E+04 2.32831E-09-3.33817E-09
 -1       303 7.14845E+03 1.18300E+05 6.19679E+04-3.08283E+04 6.61203E-10-1.64515E-08
 -1       304 2.44761E+04 1.34915E+05 8.48005E+04-3.55120E+04 1.65073E-09-1.58097E-08
 -1       305 7.26747E+04 1.08761E+05 1.45462E+05-3.05831E+04 1.81171E-09-4.27258E-09
 -1       306-4.34531E+06-5.35229E+05-3.29449E+05-1.68826E+06-1.24783E-09 4.19095E-09
 -1       307-4.46414E+06-7.84868E+05-2.13238E+05-1.68513E+06 2.62276E-09-1.27693E-09
 -1       308-4.41045E+06-6.18111E+05-7.77997E+04-1.66969E+06-1.83962E-09-4.71846E-09
 -1       309-4.38656E+06-6.85719E+05-4.38880E+04-1.71339E+06-1.22009E-09-3.69346E-09
 -1       310-4.42190E+06-6.24550E+05-1.81847E+04-1.66393E+06 1.09867E-09 2.12276E-09
 -1       311-4.37233E+06-6.78986E+05-9.84383E+03-1.72266E+06 7.52789E-09 7.04404E-09
 -1       312-4.42514E+06-6.23413E+05-5.08356E+03-1.66125E+06 1.99907E-09-3.97904E-10
 -1       313-4.36904E+06-6.80257E+05-4.27148E+03-1.72607E+06-3.43164E-09-6.32497E-09
 -1       314-4.42552E+06-6.22976E+05-5.33252E+03-1.66079E+06-6.69570E-09-9.52377E-09
 -1       315-4.37110E+06-6.80649E+05-1.06069E+04-1.72456E+06 1.04933E-09 1.26488E-09
 -1       316-4.42296E+06-6.23204E+05-1.96233E+04-1.66262E+06 1.49021E-09 3.68436E-09
 -1       317-4.38479E+06-6.89848E+05-4.75762E+04-1.71684E+06 2.11912E-10-1.67074E-09
 -1       318-4.41152E+06-6.15214E+05-8.42348E+04-1.66776E+06 8.41283E-12 7.85803E-10
 -1       319-4.46699E+06-7.99238E+05-2.31120E+05-1.68844E+06-1.31149E-09 3.23416E-09
 -1       320-4.34186E+06-5.24426E+05-3.56903E+05-1.68682E+06-3.35785E-09 6.51926E-09
 -1       321-8.19402E+05-4.43053E+04 1.07623E+05-8.20779E+02-2.10628E-09-4.59113E-09
 -1       322-7.73062E+05 5.14527E+04 7.53662E+04-6.61287E+03-3.25213E-09 5.31145E-10
 -1       323-8.01568E+05-6.65608E+03 2.78507E+04 6.19949E+02-2.06001E-10 1.68984E-09
 -1       324-7.93853E+05 7.69821E+03 1.72637E+04-9.25573E+03 9.10916E-10-1.41245E-09
 -1       325-7.98693E+05-9.98958E+02 7.08702E+03 1.82303E+03 4.57931E-10 9.02673E-10
 -1       326-7.97271E+05 1.15264E+03 4.08688E+03-1.12506E+04-6.30934E-10-5.94645E-09
 -1       327-7.98191E+05-1.51604E+02 1.81842E+03 2.61484E+03-4.19277E-10-2.96575E-09
 -1       328-7.97885E+05 1.95427E+02 1.05267E+03-1.23409E+04-1.73500E-10 3.28058E-10
 -1       329-7.98102E+05-3.47711E+01 5.90900E+02 2.91333E+03 3.62803E-10-3.11134E-09
 -1       330-7.97940E+05 1.29691E+02 5.62080E+02-1.24133E+04 1.35846E-09 5.55954E-09
 -1       331-7.98138E+05-8.49830E+01 6.75961E+02 2.68725E+03 4.27974E-10-2.55926E-09
 -1       332-7.97622E+05 6.25248E+02 1.44793E+03-1.14600E+04 3.49559E-10-6.16528E-09
 -1       333-7.98401E+05-5.38487E+02 2.24312E+03 1.95996E+03-2.75691E-10 2.61616E-09
 -1       334-7.95849E+05 4.11637E+03 6.06889E+03-9.57776E+03 3.02521E-10-9.38030E-10
 -1       335-7.99877E+05-3.56113E+03 8.58239E+03 8.05003E+02-7.23730E-10-2.32012E-09
 -1       336 1.25129E+03-2.04566E+06-8.64358E+03-1.40242E+04-2.52248E-09-2.89856E-09
 -1       337-4.37185E+03-2.05030E+06-1.67828E+04-1.36393E+05 5.82986E-10-5.85737E-09
 -1       338 3.69622E+03-2.04413E+06-2.75172E+04-1.28343E+04-3.08137E-09 1.80967E-09
 -1       339-3.65477E+04-2.06838E+06-6.88921E+04-1.37123E+05 1.42245E-09 2.38344E-09
 -1       340 3.00189E+04-2.02795E+06-1.04521E+05-1.33029E+04-2.35013E-09 3.89537E-09
 -1       341-2.62725E+06-3.46817E+05-8.59193E+04-1.01220E+06-3.50155E-09-3.27054E-09
 -1       342-2.69186E+06-4.02285E+05-5.90605E+04-9.74818E+05 1.98952E-09-1.30149E-09
 -1       343-2.64519E+06-3.76057E+05-2.01876E+04-1.00595E+06 2.52066E-09-1.29330E-09
 -1       344-2.66762E+06-3.71554E+05-1.24201E+04-9.85662E+05-2.61451E-10 3.58227E-09
 -1       345-2.65132E+06-3.77272E+05-4.87163E+03-1.00140E+06-2.25589E-09 7.37145E-10
 -1       346-2.65640E+06-3.74292E+05-2.96565E+03-9.95550E+05 3.43903E-10-1.09316E-09
 -1       347-2.65636E+06-3.73302E+05-1.87324E+03-9.96042E+05 5.82531E-10 3.00815E-10
 -1       348-2.64768E+06-3.82441E+05-2.30274E+03-1.00546E+06-4.43947E-10 2.85394E-09
 -1       349-2.66006E+06-3.69105E+05-3.57204E+03-9.91507E+05 6.68479E-11 6.94627E-11
 -1       350-2.64376E+06-3.90405E+05-8.31554E+03-1.01163E+06-7.59428E-10-2.76782E-09
 -1       351-2.66034E+06-3.65322E+05-1.44817E+04-9.89912E+05-6.00039E-10-2.64390E-09
 -1       352-2.65316E+06-4.06992E+05-3.83479E+04-1.00921E+06-7.33939E-09-4.16549E-09
 -1       353-2.65073E+06-3.52650E+05-6.23990E+04-9.93904E+05-1.09685E-09 1.70621E-09
 -1       354-2.72025E+06-5.09379E+05-1.82851E+05-9.83443E+05 6.30553E-09 3.25963E-09
 -1       355-2.59351E+06-2.63885E+05-2.65935E+05-1.01538E+06-2.90311E-09 7.40692E-09
 -1       356-6.23146E+05-1.01179E+04 2.45556E+04 1.04658E+02-9.75433E-11 5.14956E-09
 -1       357-6.12498E+05 1.17456E+04 1.71941E+04-4.84448E+03-5.58714E-10-2.81034E-09
 -1       358-6.19062E+05-1.51916E+03 6.32454E+03 7.04451E+02-3.04794E-10-6.34373E-10
 -1       359-6.17264E+05 1.75301E+03 3.87002E+03-5.88772E+03-2.21235E-10-2.33672E-09
 -1       360-6.18398E+05-2.23840E+02 1.47935E+03 1.14802E+03-2.46928E-10 1.62379E-09
 -1       361-6.18071E+05 2.32721E+02 6.36503E+02-6.57981E+03-6.32667E-10-8.39577E-11
 -1       362-6.18266E+05-7.22217E+00-1.44529E+02 1.39655E+03 1.88436E-10 2.90129E-10
 -1       363-6.18324E+05-1.67841E+02-9.78471E+02-6.86095E+03 1.09014E-09-6.79705E-10
 -1       364-6.18150E+05 1.76679E+02-2.10373E+03 1.42917E+03 1.40982E-09-1.05183E-09
 -1       365-6.19006E+05-1.41041E+03-4.94970E+03-6.70835E+03-5.06887E-10-2.77294E-09
 -1       366-6.17584E+05 1.22375E+03-8.73403E+03 1.24393E+03-1.74538E-10 7.49424E-10
 -1       367-6.23051E+05-9.51618E+03-2.12489E+04-6.13103E+03 3.85612E-10-4.79622E-09
 -1       368-6.14104E+05 8.19877E+03-3.44101E+04 8.51845E+02 7.21911E-10-3.47245E-09
 -1       369-6.48530E+05-6.35304E+04-9.29549E+04-5.14278E+03-1.37720E-09 1.10304E-08
 -1       370-5.92099E+05 5.46637E+04-1.32790E+05 2.56228E+02 3.12934E-09-5.23869E-10
 -1       371-1.82464E+04-3.98990E+05 4.23776E+04 1.46043E+04 2.88492E-09-1.88561E-09
 -1       372 1.86290E+04-3.81190E+05 2.43655E+04-7.76303E+04-2.00043E-09-4.27568E-09
 -1       373 6.07532E+01-3.89769E+05-4.05775E+02 1.52930E+04 2.72848E-09-1.79514E-09
 -1       374-1.86362E+04-3.98618E+05-2.55368E+04-7.74389E+04-2.74667E-10 1.50169E-09
 -1       375 1.85892E+04-3.81527E+05-4.44263E+04 1.44123E+04 5.96629E-10 5.56111E-09
 -1       376-1.41938E+06-1.77305E+05-6.24263E+04-5.44081E+05 1.35515E-09 4.63842E-09
 -1       377-1.45040E+06-2.33477E+05-4.29030E+04-5.35005E+05 1.93654E-09 2.13731E-09
 -1       378-1.43284E+06-1.98080E+05-1.46749E+04-5.39024E+05-8.29232E-10 5.25779E-09
 -1       379-1.43423E+06-2.09899E+05-9.04985E+03-5.41507E+05-5.64711E-10 2.62128E-09
 -1       380-1.43548E+06-2.00662E+05-3.50847E+03-5.37651E+05-6.83968E-10 2.89538E-09
 -1       381-1.43099E+06-2.07138E+05-2.19116E+03-5.43335E+05 1.11419E-10 2.42665E-09
 -1       382-1.43608E+06-2.00806E+05-1.28999E+03-5.37208E+05-2.02165E-10-6.51141E-11
 -1       383-1.43062E+06-2.06998E+05-1.62707E+03-5.43608E+05-4.10221E-10 2.85496E-11
 -1       384-1.43586E+06-2.00798E+05-2.42158E+03-5.37379E+05 3.93712E-10 5.26256E-09
 -1       385-1.43228E+06-2.07878E+05-5.64357E+03-5.42559E+05 5.43125E-10 2.69654E-09
 -1       386-1.43442E+06-1.99941E+05-9.81521E+03-5.38252E+05-1.18962E-09 3.04226E-09
 -1       387-1.44024E+06-2.17438E+05-2.59491E+04-5.39021E+05-4.63842E-10 4.16640E-09
 -1       388-1.42792E+06-1.91331E+05-4.22215E+04-5.40888E+05 1.24692E-09 4.87489E-10
 -1       389-1.48405E+06-2.88267E+05-1.23660E+05-5.23546E+05-2.03727E-10-6.41739E-09
 -1       390-1.39075E+06-1.29730E+05-1.79830E+05-5.53518E+05 2.32467E-09-1.52795E-09
 -1       406 5.52227E+03 9.57507E+05 1.02742E+04-1.30754E+05-2.39015E-09 5.83896E-10
 -1       407 2.73043E+03 9.59184E+05 9.15777E+03-1.45279E+05-2.54659E-10 2.97405E-10
 -1       408 2.79440E+03 9.57502E+05 1.23012E+04-1.30412E+05-2.95677E-09 1.41226E-08
 -1       409 1.06037E+04 9.61980E+05 2.46628E+04-1.45653E+05-4.11092E-10 3.84753E-08
 -1       410 3.05195E+04 9.54240E+05 4.86921E+04-1.30321E+05-3.25235E-09 2.34627E-08
 -1       466 2.35386E+06-9.02092E+04 2.18629E+05 2.42941E+04-3.99268E-10-4.61296E-09
 -1       467 2.45209E+06 1.04365E+05 1.53848E+05-6.07125E+04 5.91058E-10-3.12866E-10
 -1       468 2.39161E+06-1.35163E+04 5.67740E+04 1.06416E+04 7.96945E-10-2.22281E-09
 -1       469 2.40771E+06 1.55981E+04 3.54185E+04-3.98629E+04 2.07035E-09-5.24324E-10
 -1       470 2.39780E+06-2.02494E+03 1.47884E+04 3.44853E+03-6.63590E-10 2.42289E-09
 -1       471 2.40036E+06 2.43475E+03 9.01072E+03-2.93622E+04-1.70257E-09 1.40608E-09
 -1       472 2.39882E+06-3.59682E+02 4.99407E+03 1.40660E+02-4.41673E-11 2.87082E-09
 -1       473 2.39936E+06 9.06467E+02 4.90009E+03-2.55498E+04 6.00465E-10-3.30068E-09
 -1       474 2.39876E+06-4.77735E+02 6.26609E+03-3.63948E+02 2.46501E-10 4.12683E-10
 -1       475 2.40085E+06 3.51343E+03 1.26084E+04-2.71840E+04-9.85438E-10 1.71212E-10
 -1       476 2.39734E+06-2.95752E+03 2.14101E+04 1.77496E+03-3.67322E-10-3.81988E-09
 -1       477 2.41104E+06 2.29235E+04 5.15867E+04-3.48033E+04 8.65384E-10 5.67979E-09
 -1       478 2.38862E+06-1.97729E+04 8.31481E+04 7.25550E+03-5.93445E-10 3.41970E-10
 -1       479 2.47399E+06 1.52977E+05 2.24693E+05-5.11703E+04-8.73229E-10-2.31375E-09
 -1       480 2.33461E+06-1.31828E+05 3.20540E+05 1.81358E+04 5.32964E-10 1.89175E-10
 -1       481-1.91992E+04 4.41292E+05 4.69269E+04-5.06619E+03 8.91305E-11 1.88470E-09
 -1       482 2.30845E+04 4.62753E+05 3.47104E+04 1.19655E+04-3.63798E-11 9.29066E-09
 -1       483-3.77735E+03 4.48729E+05 1.55858E+04-3.75086E+03-1.60981E-10 4.76098E-09
 -1       484 1.03465E+04 4.56387E+05 1.75388E+04 9.66673E+03-1.61236E-10 1.03637E-09
 -1       485-6.54326E+03 4.47584E+05 1.72389E+04-2.76772E+03 1.36879E-10-3.37491E-09
 -1       486-2.21142E+06-2.49844E+05-2.12479E+05-8.89104E+05-5.09317E-11-3.30328E-09
 -1       487-2.35840E+06-4.00007E+05-1.46039E+05-8.11733E+05-3.22416E-10-8.22547E-09
 -1       488-2.25889E+06-3.19596E+05-4.99872E+04-8.70760E+05-4.07454E-10 2.59206E-09
 -1       489-2.29577E+06-3.26062E+05-3.04098E+04-8.40670E+05-1.36652E-10-1.85491E-09
 -1       490-2.27361E+06-3.23202E+05-1.18735E+04-8.60233E+05-1.93370E-09-4.09818E-09
 -1       491-2.27168E+06-3.29147E+05-6.48697E+03-8.61057E+05-9.58494E-10 1.39312E-09
 -1       492-2.28286E+06-3.16447E+05-3.33039E+03-8.50351E+05 7.41011E-10-1.18825E-09
 -1       493-2.25697E+06-3.41918E+05-2.43038E+03-8.78209E+05 1.26965E-09-6.66518E-10
 -1       494-2.28848E+06-3.10302E+05-2.85425E+03-8.43208E+05 1.93495E-10-2.60485E-09
 -1       495-2.25097E+06-3.50963E+05-5.75132E+03-8.87159E+05 8.23036E-10 4.71118E-10
 -1       496-2.28904E+06-3.07290E+05-9.74889E+03-8.41529E+05-1.83456E-09-1.57024E-09
 -1       497-2.25905E+06-3.59895E+05-2.55487E+04-8.83067E+05-9.71625E-10 3.15413E-09
 -1       498-2.28040E+06-3.01492E+05-4.17061E+04-8.47246E+05-1.73577E-09 2.89219E-10
 -1       499-2.31023E+06-4.20690E+05-1.21645E+05-8.57117E+05-1.41199E-09-1.47338E-09
 -1       500-2.23786E+06-2.47256E+05-1.77498E+05-8.67144E+05 4.43833E-10-3.78350E-10
 -1       501-3.95283E+05-3.06664E+04 7.38548E+04 2.86991E+03 2.34695E-09-2.93585E-09
 -1       502-3.60861E+05 3.54177E+04 5.21913E+04-2.44777E+04 3.00247E-10 4.30737E-09
 -1       503-3.82600E+05-4.64407E+03 1.90676E+04 4.54226E+03-8.95625E-10 3.32602E-09
 -1       504-3.76093E+05 5.32838E+03 1.20470E+04-2.73836E+04-3.11957E-10 1.11186E-10
 -1       505-3.80322E+05-7.20262E+02 4.87859E+03 5.77593E+03 1.37379E-09 2.18256E-09
 -1       506-3.79067E+05 9.03475E+02 2.94277E+03-2.92997E+04 3.66998E-09 1.48566E-09
 -1       507-3.79812E+05-1.32542E+02 1.41751E+03 6.45840E+03 2.96666E-09 2.10883E-09
 -1       508-3.79704E+05 3.32097E+02 1.08930E+03-3.00764E+04 1.18544E-09 6.04859E-09
 -1       509-3.79763E+05-9.80371E+01 1.07405E+03 6.55293E+03 2.82481E-09 6.13991E-09
 -1       510-3.79377E+05 6.29369E+02 1.92207E+03-2.96724E+04 2.31574E-09 5.61678E-09
 -1       511-3.80098E+05-4.56323E+02 3.07133E+03 6.05426E+03 3.32716E-09 2.45450E-10
 -1       512-3.77386E+05 3.34611E+03 7.51494E+03-2.81082E+04 4.33465E-09-1.76931E-09
 -1       513-3.81600E+05-2.89663E+03 1.18093E+04 4.98841E+03 4.61796E-10 1.51431E-10
 -1       514-3.67628E+05 2.19855E+04 3.24390E+04-2.54817E+04-6.00608E-10-1.49157E-10
 -1       515-3.89611E+05-1.90635E+04 4.57227E+04 3.42783E+03-4.67480E-10-2.53203E-09
 -1       516-6.26998E+04 4.46550E+05 1.54151E+05 1.68614E+04-2.23372E-09 5.75483E-10
 -1       517 7.90029E+04 5.13629E+05 1.17859E+05-1.12466E+05-4.15184E-09 1.10715E-08
 -1       518-1.46313E+04 4.69681E+05 6.02153E+04 1.62866E+04-3.85262E-09 4.46107E-09
 -1       519 5.27514E+04 5.02810E+05 8.30005E+04-1.13918E+05-2.56478E-09 2.88105E-09
 -1       520-3.70082E+04 4.57751E+05 9.27343E+04 1.83085E+04-2.43381E-09-1.58298E-09
 -1       521-4.65580E+06-5.70773E+05-3.60960E+05-1.80928E+06-1.74623E-09 1.39698E-09
 -1       522-4.78748E+06-8.43027E+05-2.33669E+05-1.80429E+06 3.13139E-09-7.53062E-10
 -1       523-4.72721E+06-6.61594E+05-8.52195E+04-1.78888E+06 7.01391E-10-1.41881E-10
 -1       524-4.70242E+06-7.34378E+05-4.80693E+04-1.83530E+06-5.23869E-10 1.11322E-09
 -1       525-4.73975E+06-6.68662E+05-1.98762E+04-1.78256E+06 2.98314E-10 1.38243E-09
 -1       526-4.68689E+06-7.26902E+05-1.07074E+04-1.84534E+06 3.99450E-09-2.73121E-09
 -1       527-4.74321E+06-6.67510E+05-5.40540E+03-1.77972E+06-1.28694E-09 1.72577E-10
 -1       528-4.68348E+06-7.28009E+05-4.32873E+03-1.84876E+06-2.91334E-09 1.49680E-09
 -1       529-4.74348E+06-6.67244E+05-5.14833E+03-1.77942E+06-6.55268E-09-9.74069E-10
 -1       530-4.68591E+06-7.27766E+05-1.00194E+04-1.84661E+06-8.85620E-10 1.64300E-09
 -1       531-4.74059E+06-6.67974E+05-1.84661E+04-1.78169E+06 1.82354E-09 3.56522E-10
 -1       532-4.69991E+06-7.35143E+05-4.46599E+04-1.83780E+06 6.81030E-09 1.81626E-09
 -1       533-4.72906E+06-6.61304E+05-7.91170E+04-1.78742E+06 2.71444E-09-3.49246E-10
 -1       534-4.77881E+06-8.36054E+05-2.16974E+05-1.80897E+06-1.61481E-09-2.10639E-09
 -1       535-4.66266E+06-5.77110E+05-3.35185E+05-1.80650E+06-2.13913E-09 3.68163E-09
 -1       536 4.37869E+05-3.54668E+04 1.23111E+05-4.92826E+03 1.95541E-10 2.24827E-09
 -1       537 4.85284E+05 4.40010E+04 8.10336E+04-3.97733E+04-4.13820E-09-2.54295E-09
 -1       538 4.57026E+05-4.16725E+03 3.19413E+04-5.20644E+03-1.79170E-10 7.63976E-11
 -1       539 4.63353E+05 4.87485E+03 1.83377E+04-3.92266E+04 2.32103E-09 3.50883E-09
 -1       540 4.59424E+05-5.25277E+02 8.10695E+03-5.46170E+03 7.32143E-11 2.46700E-09
 -1       541 4.60380E+05 5.28630E+02 4.41215E+03-3.87942E+04 1.09139E-10-1.85355E-09
 -1       542 4.59744E+05-7.24775E+01 2.14408E+03-5.63922E+03 1.81899E-11-1.28125E-09
 -1       543 4.59875E+05 9.47805E+01 1.31153E+03-3.85283E+04-1.08321E-09 3.34342E-09
 -1       544 4.59778E+05-1.59487E+01 9.94583E+02-5.72790E+03 4.95902E-10 4.71891E-09
 -1       545 4.59860E+05 1.75865E+02 1.30211E+03-3.84385E+04-5.62951E-10 8.06500E-09
 -1       546 4.59708E+05-1.09497E+02 2.07082E+03-5.72901E+03 1.27670E-10-1.67211E-09
 -1       547 4.60551E+05 1.21782E+03 4.45808E+03-3.85193E+04 4.11660E-10 1.37459E-09
 -1       548 4.59135E+05-9.87410E+02 7.69575E+03-5.64699E+03-3.85171E-10 5.49471E-09
 -1       549 4.65865E+05 1.05868E+04 1.94549E+04-3.87167E+04-2.19870E-10 2.52294E-09
 -1       550 4.54540E+05-8.51860E+03 2.95214E+04-5.53255E+03-7.18956E-10 2.28283E-09
 -1       551 2.84403E+04-4.74301E+05 4.90512E+04-7.14466E+05-5.29690E-09-2.33558E-09
 -1       552 1.56622E+04-4.67662E+05 3.42480E+04-8.24022E+05-6.14091E-09 2.40107E-09
 -1       553 1.04579E+04-4.74214E+05 3.42684E+04-7.13318E+05-4.85306E-09-4.18368E-11
 -1       554 2.63413E+04-4.63033E+05 5.96960E+04-8.24269E+05-4.13274E-09 7.91533E-09
 -1       555 6.27843E+04-4.80932E+05 1.11277E+05-7.14039E+05-5.65706E-09-2.13913E-09
 -1       556-4.08669E+05-2.07369E+05 2.60342E+04-3.69089E+05-1.29876E-09-2.42289E-09
 -1       557-3.82353E+05-2.36724E+05 1.27546E+04-3.90642E+05 3.12139E-09-3.20142E-10
 -1       558-4.10336E+05-2.16455E+05 5.29325E+03-3.63927E+05 5.82077E-10 1.56979E-09
 -1       559-3.85439E+05-2.41044E+05 2.62408E+03-3.92168E+05 3.24508E-09-4.91900E-09
 -1       560-4.11316E+05-2.16250E+05 1.12972E+03-3.64237E+05-9.31323E-10-4.00701E-09
 -1       561-3.86552E+05-2.40893E+05 5.43429E+02-3.92974E+05-1.89175E-10 1.84912E-09
 -1       562-4.12004E+05-2.15840E+05 1.62112E+02-3.64679E+05 1.27329E-09 4.23279E-09
 -1       563-3.87180E+05-2.40622E+05-6.02180E+01-3.93420E+05 1.53523E-09 5.92991E-10
 -1       564-4.12364E+05-2.15606E+05-3.60924E+02-3.64926E+05 3.09228E-11 4.05635E-10
 -1       565-3.87472E+05-2.40507E+05-8.80641E+02-3.93603E+05 1.37061E-09 1.85355E-09
 -1       566-4.12363E+05-2.15553E+05-1.88425E+03-3.64956E+05 2.51464E-09-2.78123E-09
 -1       567-3.87730E+05-2.40781E+05-4.17574E+03-3.93485E+05-1.78716E-10-5.07498E-09
 -1       568-4.11864E+05-2.16457E+05-8.62790E+03-3.64448E+05 4.43106E-09-8.33097E-10
 -1       569-3.92029E+05-2.46533E+05-2.03678E+04-3.91732E+05 1.05210E-08 6.07542E-09
 -1       570-4.10043E+05-2.34001E+05-4.19760E+04-3.56965E+05 6.35191E-09-9.54060E-10
 -1       571 6.16931E+05 3.18727E+04 5.16803E+04-1.55989E+05 7.93079E-10-2.85763E-09
 -1       572 6.25032E+05 1.05314E+04 2.54984E+04-1.73351E+05 4.39286E-10-1.64982E-09
 -1       573 6.20065E+05 2.07815E+03 1.13673E+04-1.55488E+05-6.53017E-10 1.59162E-09
 -1       574 6.20915E+05 5.95691E+02 5.73142E+03-1.73861E+05-5.45697E-10 2.67391E-10
 -1       575 6.20272E+05-8.51814E+00 2.72579E+03-1.55433E+05 3.71074E-10-1.26965E-09
 -1       576 6.20332E+05-2.08519E+01 1.40393E+03-1.73922E+05 1.63618E-09 2.80488E-09
 -1       577 6.20284E+05-5.29423E+01 7.14161E+02-1.55427E+05 1.41881E-09-8.51287E-10
 -1       578 6.20300E+05-4.68271E+01 4.29286E+02-1.73930E+05 5.30690E-10 3.97813E-09
 -1       579 6.20393E+05-9.44005E+01 3.29706E+02-1.55425E+05-2.74486E-09-1.68438E-09
 -1       580 6.20498E+05-1.39785E+02 4.20438E+02-1.73927E+05-1.67984E-09-4.28554E-09
 -1       581 6.20630E+05-2.17512E+02 6.85962E+02-1.55429E+05-1.33150E-09-3.62525E-09
 -1       582 6.20962E+05-1.66740E+02 1.39243E+03-1.73845E+05-9.96806E-10-2.46109E-09
 -1       583 6.20925E+05 7.85008E+01 2.70604E+03-1.55506E+05 6.25732E-10-2.63981E-09
 -1       584 6.22391E+05 1.98827E+03 6.08238E+03-1.73123E+05-1.93540E-09-2.10230E-09
 -1       585 6.20582E+05 6.99612E+03 1.22793E+04-1.56169E+05 2.17187E-09-1.67347E-10
 -1       586 5.92399E+03 2.05968E+05 9.37509E+03-4.57631E+05 1.76442E-10-1.32786E-09
 -1       587 3.74463E+03 2.07074E+05 8.38410E+03-5.10305E+05-6.09725E-09 1.06320E-09
 -1       588 3.66009E+03 2.05457E+05 1.11772E+04-4.57048E+05 2.18279E-11 1.74691E-08
 -1       589 1.08249E+04 2.09625E+05 2.23568E+04-5.10379E+05-5.90444E-09 2.58765E-08
 -1       590 2.84249E+04 2.03079E+05 4.39960E+04-4.57532E+05 2.43745E-10 9.98443E-09
 -1       591-2.66360E+05-1.02003E+05-4.77565E+04-1.50254E+05 2.00623E-09 4.75120E-09
 -1       592-2.66185E+05-9.58952E+04-2.32151E+04-1.66131E+05 2.10093E-09 2.90993E-09
 -1       593-2.67454E+05-8.26550E+04-9.83853E+03-1.58854E+05 8.14907E-10 2.22826E-09
 -1       594-2.61196E+05-8.91227E+04-4.80198E+03-1.67303E+05-5.10681E-10 3.97473E-09
 -1       595-2.67706E+05-8.18093E+04-2.20898E+03-1.59298E+05-1.19508E-09-4.50655E-09
 -1       596-2.60824E+05-8.88192E+04-1.12540E+03-1.67313E+05-8.23320E-10-4.81714E-09
 -1       597-2.67764E+05-8.18237E+04-6.25250E+02-1.59312E+05-2.08229E-09-3.27873E-10
 -1       598-2.60790E+05-8.88191E+04-5.23993E+02-1.67302E+05-4.23422E-09 1.57643E-08
 -1       599-2.67752E+05-8.18253E+04-6.96246E+02-1.59307E+05-7.22730E-09-2.11912E-09
 -1       600-2.60815E+05-8.88262E+04-1.31290E+03-1.67303E+05-4.41105E-11 3.90264E-09
 -1       601-2.67664E+05-8.18133E+04-2.60806E+03-1.59280E+05-8.82210E-10 2.66937E-09
 -1       602-2.61245E+05-8.91908E+04-5.68758E+03-1.67281E+05 6.54381E-10 3.20733E-09
 -1       603-2.67356E+05-8.28238E+04-1.16590E+04-1.58749E+05 1.42700E-09-1.54432E-09
 -1       604-2.67151E+05-9.72144E+04-2.75115E+04-1.65881E+05-2.70938E-09 3.08046E-09
 -1       605-2.66048E+05-1.05742E+05-5.65916E+04-1.48550E+05 2.26373E-09 1.07830E-08
 -1       606 1.67832E+05-2.23772E+04-3.60665E+04 4.94024E+04-1.12232E-08-4.54747E-11
 -1       607 1.62032E+05-7.40885E+03-1.77814E+04 5.43410E+04-1.78989E-09-7.56017E-10
 -1       608 1.65353E+05-1.46821E+03-7.93195E+03 4.90339E+04 1.73550E-08 3.20597E-10
 -1       609 1.64597E+05-3.31268E+02-3.98552E+03 5.47206E+04 1.48502E-08 4.17231E-09
 -1       610 1.64995E+05 1.12830E+02-1.89226E+03 4.89894E+04-3.89809E-09 7.04495E-09
 -1       611 1.64825E+05 1.94872E+02-9.54372E+02 5.47650E+04-2.30384E-08 5.79212E-09
 -1       612 1.64884E+05 2.03160E+02-4.60031E+02 4.89851E+04-8.18545E-09 2.22371E-10
 -1       613 1.64801E+05 2.37089E+02-2.18740E+02 5.47693E+04-1.20863E-08 2.13595E-09
 -1       614 1.64820E+05 2.17568E+02-8.18536E+01 4.89843E+04-2.20825E-09-1.64619E-10
 -1       615 1.64759E+05 2.58240E+02 1.55019E+01 5.47687E+04 1.42227E-08 3.81260E-09
 -1       616 1.64773E+05 2.39514E+02 1.17036E+02 4.89851E+04-6.90761E-09 1.51022E-09
 -1       617 1.64746E+05 3.13724E+02 2.95402E+02 5.47666E+04-1.70212E-09 4.22006E-09
 -1       618 1.64723E+05 3.73346E+02 6.08541E+02 4.89856E+04-6.01176E-10-1.64255E-09
 -1       619 1.64931E+05 8.71708E+02 1.37829E+03 5.47620E+04-5.90489E-10-6.22913E-09
 -1       620 1.64524E+05 2.00340E+03 2.79997E+03 4.89832E+04 2.79670E-11-3.35422E-09
 -1       621 5.60743E+03 6.02813E+05 1.21183E+04-6.54094E+04 6.89033E-09-5.83896E-10
 -1       622 2.22100E+03 6.05040E+05 9.49802E+03-7.56892E+04 9.92804E-09 1.60253E-09
 -1       623 1.38047E+03 6.03375E+05 1.11231E+04-6.54987E+04 6.39920E-09 3.65253E-09
 -1       624 6.82112E+03 6.07569E+05 2.09821E+04-7.53412E+04 8.84938E-09-1.36060E-09
 -1       625 2.07085E+04 6.00513E+05 4.01565E+04-6.57475E+04 4.94174E-09 2.71393E-09
 -1       626 2.25967E+05 7.39726E+04-1.94996E+04 1.58521E+05-1.60580E-08-1.16052E-09
 -1       627 2.18238E+05 8.59834E+04-9.29346E+03 1.61054E+05-7.00220E-09 6.76891E-10
 -1       628 2.26156E+05 8.31749E+04-3.91767E+03 1.54058E+05 8.94761E-09 9.52332E-09
 -1       629 2.19739E+05 8.96647E+04-1.88593E+03 1.60664E+05 8.17363E-09 7.50720E-09
 -1       630 2.26048E+05 8.37669E+04-8.42015E+02 1.53697E+05 7.63612E-09-3.24019E-09
 -1       631 2.19801E+05 8.99280E+04-3.85942E+02 1.60631E+05 1.62891E-09 4.07078E-09
 -1       632 2.25971E+05 8.37994E+04-1.31817E+02 1.53646E+05-5.15320E-09-3.36058E-10
 -1       633 2.19772E+05 8.99519E+04 3.66196E+01 1.60610E+05 4.62796E-09-3.00224E-09
 -1       634 2.25924E+05 8.37964E+04 2.21752E+02 1.53627E+05 3.64707E-10 5.45288E-09
 -1       635 2.19780E+05 8.99603E+04 5.52867E+02 1.60606E+05-1.07746E-08-9.27685E-11
 -1       636 2.25890E+05 8.38089E+04 1.16727E+03 1.53610E+05 8.07859E-10-5.39148E-09
 -1       637 2.20046E+05 9.02210E+04 2.60670E+03 1.60577E+05 1.24372E-08 2.28556E-09
 -1       638 2.25823E+05 8.46043E+04 5.39028E+03 1.53258E+05-5.22050E-10-1.01227E-09
 -1       639 2.22828E+05 9.46877E+04 1.28013E+04 1.59551E+05 6.49652E-09-7.44876E-10
 -1       640 2.25813E+05 9.76971E+04 2.68450E+04 1.47752E+05 3.56886E-09 4.14320E-09
 -1       641 8.97230E+03 4.80040E+03-1.17197E+04-1.10259E+03-1.35469E-08-1.52295E-09
 -1       642 4.06589E+03-5.55397E+03-8.17447E+03 6.36433E+03-9.03904E-09-1.04137E-09
 -1       643 7.05557E+03 7.11910E+02-3.02931E+03-1.09301E+03-6.88630E-09-1.04637E-09
 -1       644 6.26380E+03-7.91682E+02-1.84590E+03 6.35015E+03 3.29351E-10 1.54037E-09
 -1       645 6.76125E+03 9.77631E+01-7.30077E+02-1.08861E+03 2.48664E-09 1.63254E-09
 -1       646 6.59862E+03-6.63326E+01-3.45841E+02 6.34308E+03-1.93441E-08-8.10964E-10
 -1       647 6.71291E+03-9.43370E-01-1.69040E+01-1.08602E+03 1.73485E-08-4.77036E-09
 -1       648 6.68347E+03 9.90400E+01 2.80554E+02 6.34031E+03 3.74139E-08 6.99937E-09
 -1       649 6.67361E+03-6.44349E+01 6.61132E+02-1.08586E+03 2.35574E-08 1.65005E-09
 -1       650 6.91684E+03 5.02057E+02 1.58568E+03 6.34134E+03 1.95927E-08-7.68603E-09
 -1       651 6.48178E+03-4.02275E+02 2.80329E+03-1.08704E+03-4.43436E-10-8.18670E-09
 -1       652 8.25439E+03 3.10358E+03 6.83857E+03 6.34312E+03 8.43779E-09-2.78533E-09
 -1       653 5.34344E+03-2.64576E+03 1.10583E+04-1.08769E+03 2.48428E-09 1.67802E-10
 -1       654 1.65037E+04 2.04599E+04 2.99008E+04 6.32919E+03-1.13663E-08-2.37424E-09
 -1       655-1.75270E+03-1.75821E+04 4.27002E+04-1.07354E+03 4.56424E-09-4.52019E-09
 -1       656 2.22688E+04-6.97706E+05-8.05083E+04 1.01264E+04-2.41926E-09-2.79988E-09
 -1       657-3.07117E+04-7.28603E+05-6.01725E+04 6.00863E+04-8.64202E-09-1.61674E-09
 -1       658 4.75601E+03-7.08370E+05-3.72146E+04 9.86725E+03-3.04141E-09-3.83454E-09
 -1       659-2.78992E+04-7.27153E+05-5.56742E+04 6.02870E+04-5.86124E-09-1.94869E-09
 -1       660 1.98359E+04-6.99251E+05-7.21946E+04 9.92831E+03-1.93540E-09-4.95038E-09
 -1       661 7.16201E+05 8.77712E+04 5.96795E+04 2.80302E+05-2.84945E-09-1.72440E-09
 -1       662 7.31998E+05 1.39026E+05 3.86639E+04 2.86737E+05 7.84760E-09-6.66159E-09
 -1       663 7.26920E+05 1.03879E+05 1.41041E+04 2.78222E+05 1.28504E-08 5.01768E-09
 -1       664 7.19741E+05 1.19226E+05 8.00279E+03 2.89542E+05 8.62519E-09-4.31874E-09
 -1       665 7.28184E+05 1.05900E+05 3.31575E+03 2.78113E+05 2.49016E-08-4.19232E-09
 -1       666 7.18310E+05 1.16761E+05 1.84026E+03 2.89659E+05 8.70415E-09-6.25761E-09
 -1       667 7.28304E+05 1.06185E+05 1.00256E+03 2.78155E+05 8.48365E-09-5.76392E-10
 -1       668 7.18196E+05 1.16480E+05 9.46779E+02 2.89613E+05 1.44643E-08 5.98391E-10
 -1       669 7.28288E+05 1.06172E+05 1.29763E+03 2.78157E+05-6.42709E-09 1.37788E-10
 -1       670 7.18442E+05 1.16911E+05 2.67510E+03 2.89637E+05 4.93492E-09 6.59338E-09
 -1       671 7.28068E+05 1.05771E+05 4.96638E+03 2.78128E+05-1.07866E-08 3.13435E-09
 -1       672 7.20692E+05 1.20557E+05 1.20794E+04 2.89353E+05-2.09115E-08-9.35256E-09
 -1       673 7.26095E+05 1.02775E+05 2.13240E+04 2.78357E+05-6.77073E-09-6.71207E-09
 -1       674 7.39351E+05 1.50371E+05 5.84725E+04 2.84943E+05-1.18416E-08 2.05546E-09
 -1       675 7.09805E+05 7.85005E+04 9.02801E+04 2.81591E+05 1.26111E-08 1.13505E-09
 -1       676 4.88592E+03-6.54288E+05-1.85557E+04 2.01647E+03 1.08666E-08-1.12328E-09
 -1       677-7.57423E+03-6.61647E+05-1.64694E+04 3.38008E+03 1.79612E-08 5.40706E-09
 -1       678 1.85287E+03-6.56075E+05-1.44400E+04 2.00079E+03 1.57002E-08 3.43536E-09
 -1       679-1.50111E+04-6.65746E+05-2.84843E+04 3.38811E+03 6.20821E-09 1.09928E-09
 -1       680 1.14854E+04-6.50192E+05-4.06893E+04 2.00625E+03 9.50240E-09-2.14771E-09
 -1       681 7.73603E+05-1.82819E+04 4.43811E+04 3.69366E+03 4.38831E-11 6.80302E-10
 -1       682 7.92843E+05 2.12092E+04 3.11373E+04-1.30650E+04-4.84306E-11 6.40284E-10
 -1       683 7.81050E+05-2.74423E+03 1.15273E+04 2.41950E+03 2.33285E-10-7.11225E-10
 -1       684 7.84160E+05 3.17612E+03 7.19033E+03-1.10138E+04-4.79758E-11-1.03091E-09
 -1       685 7.82257E+05-4.13479E+02 3.04541E+03 1.64276E+03 2.47383E-10-5.69230E-10
 -1       686 7.82744E+05 5.02242E+02 1.92783E+03-9.86525E+03 3.45608E-11-4.85244E-10
 -1       687 7.82449E+05-8.33739E+01 1.21015E+03 1.27092E+03 5.10596E-11-7.27127E-10
 -1       688 7.82596E+05 2.53669E+02 1.42594E+03-9.48649E+03-6.27054E-13-7.36009E-10
 -1       689 7.82399E+05-1.63368E+02 2.06541E+03 1.26400E+03 2.30500E-11 4.49063E-10
 -1       690 7.83146E+05 1.21812E+03 4.36381E+03-9.83788E+03 2.49088E-10 7.59883E-10
 -1       691 7.81903E+05-1.04342E+03 7.50119E+03 1.62232E+03 4.12115E-11-1.38743E-09
 -1       692 7.86667E+05 8.08274E+03 1.81384E+04-1.09572E+04-1.87811E-10-1.96178E-09
 -1       693 7.78889E+05-6.97362E+03 2.92878E+04 2.38334E+03-3.98927E-10-1.67347E-10
 -1       694 8.08505E+05 5.39783E+04 7.91181E+04-1.30017E+04-7.63066E-10 1.66528E-09
 -1       695 7.60089E+05-4.64723E+04 1.12988E+05 3.66597E+03-2.97064E-10-4.07454E-10
 -1       696-1.67725E+04 7.37031E+05 4.01422E+04 2.51082E+03 4.91127E-11-1.53591E-09
 -1       697 1.84454E+04 7.53679E+05 2.58951E+04-2.44561E+04 2.34650E-10-1.29252E-09
 -1       698-1.40333E+03 7.44387E+05 5.78294E+03 2.17739E+03-2.57387E-10 1.66676E-09
 -1       699-5.82056E+03 7.42230E+05-6.63695E+03-2.46301E+04-4.39741E-10 4.45976E-09
 -1       700 7.23111E+03 7.48502E+05-1.64005E+04 2.68428E+03-3.37423E-10 2.15584E-09
 -1       701-7.02663E+05-6.47709E+04-9.32376E+04-2.80151E+05 2.07365E-10-1.01500E-09
 -1       702-7.50245E+05-1.47570E+05-6.40826E+04-2.65381E+05-8.66294E-11-2.90129E-09
 -1       703-7.22020E+05-9.65851E+04-2.19074E+04-2.73504E+05-4.72482E-10-5.09317E-10
 -1       704-7.27395E+05-1.11049E+05-1.34644E+04-2.73596E+05-1.33184E-10 2.11048E-09
 -1       705-7.25457E+05-1.00970E+05-5.13398E+03-2.72054E+05-7.79323E-11 5.79348E-10
 -1       706-7.23120E+05-1.06286E+05-3.00753E+03-2.75636E+05-1.05395E-10-1.27784E-09
 -1       707-7.26288E+05-1.01299E+05-1.42459E+03-2.71482E+05 2.11983E-10 2.59831E-10
 -1       708-7.22073E+05-1.06172E+05-1.23248E+03-2.76475E+05 3.60956E-10 3.54834E-10
 -1       709-7.26507E+05-1.01075E+05-1.39465E+03-2.71221E+05 3.79941E-10 2.86633E-10
 -1       710-7.22272E+05-1.07128E+05-2.93099E+03-2.76655E+05 2.34550E-10 5.50017E-10
 -1       711-7.26095E+05-1.00346E+05-4.97380E+03-2.71303E+05-5.99698E-10-8.24457E-10
 -1       712-7.25699E+05-1.12482E+05-1.30649E+04-2.75529E+05-2.66937E-10 1.45747E-10
 -1       713-7.23090E+05-9.57661E+04-2.12297E+04-2.72331E+05-4.26098E-10-6.18456E-10
 -1       714-7.47283E+05-1.48443E+05-6.21291E+04-2.68198E+05-4.83851E-10 8.36735E-11
 -1       715-7.04564E+05-6.46994E+04-9.03767E+04-2.78519E+05-8.54925E-11-6.54836E-11
 -1       716 2.58108E+05-2.79355E+04 6.75782E+04 4.74946E+03 9.88848E-10-2.40107E-10
 -1       717 2.88219E+05 3.23903E+04 4.75455E+04-2.46775E+04-5.32737E-10 4.54747E-12
 -1       718 2.69607E+05-4.20806E+03 1.75316E+04 3.89397E+03-5.97993E-10-6.59384E-10
 -1       719 2.74644E+05 4.90573E+03 1.09797E+04-2.33142E+04-6.11522E-10-2.23008E-09
 -1       720 2.71538E+05-6.42620E+02 4.61908E+03 3.38656E+03 1.95371E-09-8.77435E-10
 -1       721 2.72315E+05 8.42816E+02 2.91057E+03-2.26069E+04 3.33841E-09-3.10578E-09
 -1       722 2.71865E+05-1.33678E+02 1.78886E+03 3.18675E+03 2.69347E-09 3.34069E-10
 -1       723 2.72072E+05 4.45226E+02 2.05162E+03-2.25061E+04 9.91164E-10-1.67272E-09
 -1       724 2.71771E+05-2.41694E+02 2.91540E+03 3.28579E+03 2.87906E-09 1.01068E-10
 -1       725 2.73007E+05 1.77089E+03 6.16393E+03-2.30078E+04 7.29244E-10 3.14571E-10
 -1       726 2.70981E+05-1.48426E+03 1.05040E+04 3.68840E+03-3.50155E-11-2.42380E-10
 -1       727 2.78316E+05 1.13707E+04 2.55499E+04-2.41382E+04 1.01375E-09-1.92813E-10
 -1       728 2.66579E+05-9.83177E+03 4.10433E+04 4.41615E+03-1.83263E-10 8.49468E-10
 -1       729 3.09597E+05 7.58111E+04 1.11285E+05-2.60578E+04-9.72250E-10-1.05138E-09
 -1       730 2.39926E+05-6.53729E+04 1.58538E+05 5.60629E+03 2.21462E-10 1.39698E-09
 -1       731-2.86094E+04 2.77780E+05 6.95733E+04 5.33906E+03-1.05138E-09-9.24672E-10
 -1       732 3.35821E+04 3.07375E+05 4.90419E+04-3.43542E+04-1.15051E-09 6.62865E-10
 -1       733-4.52491E+03 2.89204E+05 1.86972E+04 5.32296E+03-1.04228E-09 1.83496E-09
 -1       734 6.84504E+03 2.94984E+05 1.32511E+04-3.48009E+04-1.05820E-09 5.98618E-09
 -1       735-2.20170E+03 2.90234E+05 7.24168E+03 5.78504E+03-7.96149E-10 2.65163E-09
 -1       736-1.78157E+06-2.04912E+05-1.33007E+05-6.95826E+05 2.62662E-09-1.81899E-09
 -1       737-1.85948E+06-3.13064E+05-9.14275E+04-6.63259E+05 1.44109E-09 1.79170E-10
 -1       738-1.81004E+06-2.49525E+05-3.12394E+04-6.85410E+05-1.99361E-09 2.17551E-09
 -1       739-1.82440E+06-2.63251E+05-1.91745E+04-6.77599E+05-2.81364E-09-8.69477E-10
 -1       740-1.81649E+06-2.54275E+05-7.32598E+03-6.81614E+05-3.17499E-10 1.06684E-09
 -1       741-1.81512E+06-2.59593E+05-4.24529E+03-6.84102E+05 4.55657E-10 3.74433E-09
 -1       742-1.81930E+06-2.53116E+05-2.01716E+03-6.78925E+05-7.01277E-10 4.13252E-10
 -1       743-1.81087E+06-2.62231E+05-1.67982E+03-6.88557E+05-1.53187E-09-2.47823E-09
 -1       744-1.82076E+06-2.51615E+05-1.87741E+03-6.77176E+05 1.49953E-09 3.86791E-10
 -1       745-1.80964E+06-2.65044E+05-3.89755E+03-6.90614E+05 2.08018E-09 2.54545E-09
 -1       746-1.82055E+06-2.50297E+05-6.60063E+03-6.76880E+05 1.69166E-10 1.89220E-09
 -1       747-1.81447E+06-2.71871E+05-1.73358E+04-6.88786E+05-2.95557E-09 3.77440E-09
 -1       748-1.81596E+06-2.44851E+05-2.81792E+04-6.78985E+05-1.31649E-09-6.40284E-10
 -1       749-1.84509E+06-3.17635E+05-8.24826E+04-6.76708E+05-7.63976E-11-1.43245E-09
 -1       750-1.79003E+06-2.04967E+05-1.20027E+05-6.88815E+05-1.34969E-09-5.82077E-11
 -1       751 3.76489E+06-1.95607E+05 4.77199E+05 1.90987E+04-9.34824E-09 5.23869E-10
 -1       752 3.96861E+06 2.27310E+05 3.33730E+05-3.26886E+04-5.48266E-09-3.92902E-10
 -1       753 3.84427E+06-2.93395E+04 1.23832E+05 8.37015E+03-1.29876E-09 9.89530E-10
 -1       754 3.87676E+06 3.40295E+04 7.66875E+04-1.69332E+04 4.57419E-10 6.02722E-09
 -1       755 3.85697E+06-4.39069E+03 3.19335E+04 3.35270E+03-9.05516E-10-2.20643E-09
 -1       756 3.86215E+06 5.14631E+03 1.88420E+04-9.61749E+03-2.51362E-10-1.03819E-09
 -1       757 3.85902E+06-7.21181E+02 9.47858E+03 1.05472E+03-1.06769E-09 2.47201E-09
 -1       758 3.86004E+06 1.31439E+03 7.61784E+03-6.50353E+03-9.72761E-10 1.55326E-09
 -1       759 3.85911E+06-5.86413E+02 8.02100E+03 2.38668E+02 3.76396E-10-1.31195E-09
 -1       760 3.86143E+06 3.94455E+03 1.46886E+04-5.91915E+03-1.99376E-09 7.06905E-10
 -1       761 3.85760E+06-3.32715E+03 2.43485E+04 4.70334E+02-7.28832E-10-5.62977E-10
 -1       762 3.87235E+06 2.57546E+04 5.80457E+04-7.55658E+03 2.30575E-09 2.53931E-09
 -1       763 3.84807E+06-2.21819E+04 9.36358E+04 1.87612E+03 2.02692E-09 3.33966E-09
 -1       764 3.94132E+06 1.71848E+05 2.52126E+05-1.23588E+04 1.19837E-09 4.02724E-09
 -1       765 3.78830E+06-1.47819E+05 3.60528E+05 5.27062E+03-2.02954E-09 1.28057E-09
 -1       766-8.28977E+04 6.89725E+05 2.05218E+05-3.22497E+03 1.06957E-09-9.80890E-10
 -1       767 1.03715E+05 7.79919E+05 1.57563E+05 1.92343E+03 2.33376E-09-5.46265E-11
 -1       768-1.97736E+04 7.19471E+05 8.19324E+04-1.48387E+03 5.00222E-10 7.06109E-10
 -1       769 7.22494E+04 7.64993E+05 1.15346E+05-1.39071E+03 8.53106E-10 9.30186E-10
 -1       770-5.17717E+04 7.04628E+05 1.31784E+05 8.60527E+01-3.63798E-10 2.40505E-09
 -1       771-2.05906E+06-4.26030E+05-9.27479E+04-8.82823E+05-2.65572E-09-1.54250E-09
 -1       772-2.05823E+06-4.14209E+05-4.50278E+04-9.13662E+05 2.59024E-09 4.34738E-10
 -1       773-2.06189E+06-3.88065E+05-1.91451E+04-8.99389E+05 1.88447E-09 1.89902E-09
 -1       774-2.04862E+06-4.01412E+05-9.30939E+03-9.16906E+05 5.95173E-09-3.06954E-09
 -1       775-2.06292E+06-3.86074E+05-4.31928E+03-9.00445E+05-6.69388E-10-2.23463E-09
 -1       776-2.04827E+06-4.00748E+05-2.16499E+03-9.17436E+05 8.00355E-10-1.60708E-09
 -1       777-2.06351E+06-3.85829E+05-1.19353E+03-9.00692E+05 1.95723E-09-1.09731E-09
 -1       778-2.04855E+06-4.00633E+05-9.05842E+02-9.17810E+05-3.94721E-10 4.18822E-10
 -1       779-2.06389E+06-3.85611E+05-1.13754E+03-9.00873E+05-5.45697E-11-5.44640E-09
 -1       780-2.04890E+06-4.00551E+05-2.05159E+03-9.18127E+05 9.45147E-09 2.51862E-09
 -1       781-2.06406E+06-3.85414E+05-4.05145E+03-9.00980E+05 4.86398E-09-1.37697E-09
 -1       782-2.04978E+06-4.01059E+05-8.81873E+03-9.18347E+05 8.03993E-10 4.34738E-10
 -1       783-2.06382E+06-3.86838E+05-1.80785E+04-9.00252E+05-1.32241E-09-7.16864E-09
 -1       784-2.05891E+06-4.13693E+05-4.27095E+04-9.16583E+05-5.45697E-12-1.47520E-09
 -1       785-2.06212E+06-4.22196E+05-8.78708E+04-8.84315E+05 1.54614E-10-1.96087E-09
 -1       786 7.75699E+05-2.58788E+04 9.04028E+04-1.50273E+03 5.79575E-10-2.71029E-09
 -1       787 8.09999E+05 3.24177E+04 5.94378E+04-1.33598E+04-6.54040E-10-4.05998E-09
 -1       788 7.89774E+05-2.98075E+03 2.34887E+04-1.63068E+03 2.52385E-11 2.60388E-09
 -1       789 7.94140E+05 3.64886E+03 1.34584E+04-1.31337E+04 5.05338E-11 2.09479E-09
 -1       790 7.91546E+05-3.49355E+02 6.00025E+03-1.72582E+03 2.29875E-10-2.07820E-10
 -1       791 7.92118E+05 4.06495E+02 3.29364E+03-1.29944E+04 1.28881E-09-5.09431E-09
 -1       792 7.91786E+05-4.49852E+01 1.70290E+03-1.76992E+03-2.80608E-10-4.79758E-10
 -1       793 7.91858E+05 6.64661E+01 1.21542E+03-1.29572E+04 1.13770E-09-4.15213E-09
 -1       794 7.91802E+05-2.96890E+01 1.22195E+03-1.76304E+03-7.95580E-10-4.58132E-09
 -1       795 7.91980E+05 2.31637E+02 2.00707E+03-1.30228E+04 1.22407E-09 1.18385E-09
 -1       796 7.91671E+05-2.01639E+02 3.48353E+03-1.70431E+03-1.03216E-09-1.18484E-09
 -1       797 7.93137E+05 2.07457E+03 7.70778E+03-1.31894E+04 1.48134E-10 2.40925E-09
 -1       798 7.90662E+05-1.70446E+03 1.34085E+04-1.59647E+03-5.60476E-10 1.53523E-09
 -1       799 8.02196E+05 1.84769E+04 3.39060E+04-1.34378E+04-3.62650E-09-3.53975E-09
 -1       800 7.82633E+05-1.47686E+04 5.15472E+04-1.45783E+03-2.31012E-10 1.30240E-09
 -1       801-3.03779E+04 7.64281E+05 9.56631E+04-1.55321E+05 2.15732E-08-9.38599E-09
 -1       802 5.71898E+04 7.98275E+05 8.97942E+04-1.04109E+06 2.68483E-09-7.42875E-09
 -1       803-6.35497E+03 7.72793E+05 7.77474E+04-1.56358E+05 3.05590E-08 7.25754E-09
 -1       804 9.57561E+04 8.22267E+05 1.53402E+05-1.04125E+06 9.92441E-09 1.14305E-08
 -1       805-6.62759E+04 7.42876E+05 2.12186E+05-1.55183E+05 1.13068E-08 9.41509E-09
 -1       806-6.35718E+05-1.61401E+05-5.66731E+04-2.82719E+05 3.17277E-09 7.98173E-09
 -1       807-6.37056E+05-1.47407E+05-2.70219E+04-2.99044E+05 3.04863E-09 7.52607E-10
 -1       808-6.35728E+05-1.33839E+05-1.13841E+04-2.94541E+05 5.65888E-09 1.09817E-08
 -1       809-6.31443E+05-1.37777E+05-5.51683E+03-3.01095E+05 2.58797E-09-9.67020E-10
 -1       810-6.35910E+05-1.32140E+05-2.50762E+03-2.95333E+05-3.76986E-10 4.71346E-10
 -1       811-6.30927E+05-1.37197E+05-1.26576E+03-3.01157E+05-6.60293E-10-2.48747E-10
 -1       812-6.35960E+05-1.32110E+05-6.79777E+02-2.95364E+05 9.69561E-09-2.83399E-09
 -1       813-6.30870E+05-1.37187E+05-5.32912E+02-3.01138E+05 1.31349E-08-1.57752E-08
 -1       814-6.35946E+05-1.32118E+05-6.63073E+02-2.95356E+05 7.71070E-09-2.28010E-09
 -1       815-6.30900E+05-1.37208E+05-1.22119E+03-3.01132E+05 3.50155E-10 3.51884E-09
 -1       816-6.35867E+05-1.32163E+05-2.41113E+03-2.95310E+05-1.00772E-09 1.40608E-09
 -1       817-6.31376E+05-1.37767E+05-5.30029E+03-3.01039E+05 1.16779E-09-3.41470E-09
 -1       818-6.35659E+05-1.33819E+05-1.09364E+04-2.94542E+05 2.16733E-09 2.11367E-09
 -1       819-6.36810E+05-1.46950E+05-2.59531E+04-2.98963E+05 1.39744E-09 3.56522E-09
 -1       820-6.35561E+05-1.60349E+05-5.44317E+04-2.83237E+05 4.25644E-10 1.70803E-09
 -1       821-6.19551E+05 2.22666E+04-7.77822E+04 1.09516E+03-6.43558E-09 1.71349E-09
 -1       822-6.48992E+05-2.79120E+04-5.11438E+04 1.22475E+04-3.00247E-09-2.18279E-09
 -1       823-6.31662E+05 2.55216E+03-2.02144E+04 8.69957E+02 5.27962E-09-5.66160E-09
 -1       824-6.35399E+05-3.11109E+03-1.15774E+04 1.26222E+04-1.46372E-09-1.40494E-09
 -1       825-6.33185E+05 2.96232E+02-5.17915E+03 7.17834E+02-1.22027E-08 3.37877E-10
 -1       826-6.33706E+05-3.00222E+02-2.86303E+03 1.28798E+04-2.07415E-08 2.06114E-09
 -1       827-6.33390E+05 4.21037E+01-1.53354E+03 6.11685E+02-1.31085E-08-1.38567E-09
 -1       828-6.33518E+05-4.25240E+00-1.18740E+03 1.30472E+04-1.76966E-08 1.07775E-10
 -1       829-6.33398E+05 3.88080E+01-1.32870E+03 5.50253E+02-2.68756E-09-3.01138E-09
 -1       830-6.33681E+05-2.13013E+02-2.32095E+03 1.31229E+04 1.02849E-08-4.63842E-10
 -1       831-6.33239E+05 2.43081E+02-4.11053E+03 5.35991E+02-9.65905E-09-5.21800E-09
 -1       832-6.35040E+05-2.41879E+03-9.14860E+03 1.31056E+04-2.81943E-09-2.59809E-09
 -1       833-6.32040E+05 2.02672E+03-1.59437E+04 5.68100E+02-4.55316E-10-1.76715E-09
 -1       834-6.45781E+05-2.19728E+04-4.03438E+04 1.29919E+04-9.53833E-10-2.54113E-09
 -1       835-6.22490E+05 1.75795E+04-6.13418E+04 6.54275E+02 2.34081E-09-3.99086E-09
 -1       836-4.22586E+04 1.79923E+06 1.54268E+05-2.90561E+04 3.05590E-10 4.90945E-09
 -1       837 6.03416E+04 1.85905E+06 1.21363E+05-1.79075E+05-5.44060E-09-5.15683E-10
 -1       838-1.07144E+04 1.81811E+06 8.48063E+04-2.97617E+04-1.43700E-09 2.66823E-10
 -1       839 7.33938E+04 1.86613E+06 1.42428E+05-1.78914E+05-7.63248E-09 3.32511E-09
 -1       840-5.37587E+04 1.79204E+06 1.93168E+05-2.92143E+04-2.51748E-09 2.67755E-09
 -1       841-2.21491E+05-1.64026E+04-4.10110E+04-9.06656E+04-1.18962E-09 1.29694E-09
 -1       842-2.44980E+05-5.01955E+04-2.81722E+04-8.12049E+04-7.68739E-09-5.40240E-10
 -1       843-2.29568E+05-3.08118E+04-9.63285E+03-8.82281E+04-1.32718E-09 1.83854E-09
 -1       844-2.35733E+05-3.33619E+04-5.90892E+03-8.39355E+04 5.52967E-09 3.91555E-09
 -1       845-2.30722E+05-3.30918E+04-2.23430E+03-8.79915E+04-9.91463E-10 1.74452E-09
 -1       846-2.34470E+05-3.06478E+04-1.26752E+03-8.41381E+04-6.51153E-09 2.21526E-09
 -1       847-2.30832E+05-3.35032E+04-5.18106E+02-8.80360E+04-1.38820E-09 3.49341E-09
 -1       848-2.34378E+05-3.01421E+04-2.87035E+02-8.40550E+04 5.79840E-09 5.11915E-09
 -1       849-2.30818E+05-3.35929E+04-1.38528E+02-8.80776E+04 4.87737E-09 1.82379E-09
 -1       850-2.34393E+05-3.00610E+04-1.13924E+02-8.40161E+04 4.01287E-09 3.69498E-09
 -1       851-2.30818E+05-3.35835E+04-1.20394E+02-8.80757E+04 3.20925E-09-7.36735E-09
 -1       852-2.34391E+05-3.02079E+04-2.60350E+02-8.40535E+04 1.12846E-08-7.03326E-09
 -1       853-2.30818E+05-3.34476E+04-4.11724E+02-8.80390E+04 5.33743E-09 2.70909E-09
 -1       854-2.34635E+05-3.10400E+04-1.18141E+03-8.40788E+04 4.82588E-09 6.89251E-09
 -1       855-2.30573E+05-3.27594E+04-1.72684E+03-8.80459E+04-3.41015E-09 6.16660E-09
 -1       856-7.13306E+05 1.99223E+04-6.97662E+04 2.25742E+03-1.11913E-08-4.66389E-09
 -1       857-7.39646E+05-2.49114E+04-4.58372E+04 2.66359E+04-8.31369E-09-5.43878E-09
 -1       858-7.24165E+05 2.27913E+03-1.81338E+04 1.84583E+03-1.19348E-08-6.45105E-09
 -1       859-7.27578E+05-2.63899E+03-1.03683E+04 2.73040E+04 1.13096E-09-7.50515E-09
 -1       860-7.25533E+05 2.75461E+02-4.63759E+03 1.58363E+03-6.84850E-10-5.78211E-09
 -1       861-7.26133E+05-9.10358E+01-2.54566E+03 2.77105E+04-1.41079E-08 1.18098E-09
 -1       862-7.25720E+05 5.68797E+01-1.33700E+03 1.43771E+03 1.89642E-08-5.78609E-09
 -1       863-7.25987E+05 1.88539E+02-9.87636E+02 2.78908E+04 4.14333E-08-4.65036E-09
 -1       864-7.25731E+05 5.09195E+01-1.04341E+03 1.40289E+03 1.82381E-08-8.61687E-09
 -1       865-7.26084E+05 2.90542E+01-1.76632E+03 2.78474E+04 2.26208E-08-9.31755E-09
 -1       866-7.25611E+05 1.95434E+02-3.10449E+03 1.48123E+03-3.99564E-09-6.74868E-09
 -1       867-7.27035E+05-1.65448E+03-6.87796E+03 2.75790E+04 1.73827E-09-3.53475E-09
 -1       868-7.24706E+05 1.51812E+03-1.20018E+04 1.67246E+03 5.63341E-09-6.81939E-09
 -1       869-7.34993E+05-1.63922E+04-3.03197E+04 2.70516E+04-8.70159E-10-2.53431E-09
 -1       870-7.17526E+05 1.31794E+04-4.61500E+04 2.01352E+03 4.76575E-10-3.45972E-09
 -1       871-5.25244E+03-4.34355E+04-8.28309E+03 1.24357E+05 5.76620E-09-4.44743E-10
 -1       872-1.90205E+03-4.48190E+04-2.32895E+03 1.43278E+05-2.78396E-09-4.32237E-09
 -1       873-1.61745E+02-4.43916E+04 2.59309E+03 1.24130E+05 1.56797E-09-7.74435E-10
 -1       874 2.88735E+03-4.23813E+04 9.43592E+03 1.43409E+05 3.28328E-10 2.85387E-09
 -1       875 1.03526E+04-4.60353E+04 2.04494E+04 1.24267E+05 3.01407E-09-3.43789E-10
 -1       876 7.87663E+05 9.40195E+04 7.52740E+04 3.09650E+05-6.95582E-09-2.25191E-09
 -1       877 8.06559E+05 1.59809E+05 4.87786E+04 3.19068E+05 9.51115E-09-4.43924E-09
 -1       878 8.01120E+05 1.14416E+05 1.77821E+04 3.07099E+05 1.09991E-08 4.44106E-09
 -1       879 7.91183E+05 1.34713E+05 1.00910E+04 3.22446E+05 3.29237E-09 1.81444E-09
 -1       880 8.02657E+05 1.17028E+05 4.16323E+03 3.07022E+05 2.41264E-08 1.99861E-10
 -1       881 7.89452E+05 1.31506E+05 2.28693E+03 3.22464E+05 4.81180E-09-1.14259E-08
 -1       882 8.02767E+05 1.17438E+05 1.19082E+03 3.07125E+05 9.27241E-09 4.15412E-09
 -1       883 7.89356E+05 1.31063E+05 1.03211E+03 3.22310E+05 1.76720E-08 7.68332E-09
 -1       884 8.02725E+05 1.17470E+05 1.31580E+03 3.07164E+05-1.32963E-08 3.49894E-09
 -1       885 7.89623E+05 1.31435E+05 2.63527E+03 3.22285E+05 4.60432E-10 2.28192E-09
 -1       886 8.02504E+05 1.17086E+05 4.85926E+03 3.07143E+05-1.18949E-08-6.21094E-09
 -1       887 7.91812E+05 1.35004E+05 1.17965E+04 3.22026E+05-1.59237E-08-4.68071E-09
 -1       888 8.00598E+05 1.14140E+05 2.08150E+04 3.07345E+05 3.87558E-09 6.37192E-09
 -1       889 8.09984E+05 1.64160E+05 5.70749E+04 3.17801E+05-4.02679E-09 5.14319E-09
 -1       890 7.84736E+05 9.03994E+04 8.81099E+04 3.10457E+05 1.61899E-08 3.92538E-09
 -1       891 3.21301E+03-3.42547E+05-1.26438E+04 1.88444E+04 2.37378E-10-1.08139E-09
 -1       892-5.45707E+03-3.46992E+05-1.05588E+04 1.25551E+05 7.00152E-09 7.06416E-09
 -1       893 1.03889E+03-3.43928E+05-8.45621E+03 1.86543E+04 6.28233E-09 9.79952E-10
 -1       894-8.67767E+03-3.48727E+05-1.57444E+04 1.25528E+05 1.31608E-08 7.62839E-10
 -1       895 6.04554E+03-3.40775E+05-2.22096E+04 1.88666E+04 7.24958E-09 4.99313E-10
 -1       896 1.16883E+06-8.02153E+03 1.94655E+04 3.64938E+03-1.79625E-11-4.35648E-10
 -1       897 1.17727E+06 9.29714E+03 1.36729E+04-9.80341E+03-4.95675E-10 4.99313E-10
 -1       898 1.17211E+06-1.20355E+03 5.06479E+03 2.18652E+03 3.44869E-10-2.33740E-10
 -1       899 1.17344E+06 1.38974E+03 3.17563E+03-7.42126E+03-7.95808E-11 4.08249E-10
 -1       900 1.17265E+06-1.82180E+02 1.36952E+03 1.26730E+03 3.17414E-10 1.49498E-11
 -1       901 1.17281E+06 2.25095E+02 9.19145E+02-5.98170E+03 4.27292E-10 3.25429E-12
 -1       902 1.17273E+06-4.30981E+01 6.66194E+02 7.46937E+02 4.38305E-10-1.66338E-11
 -1       903 1.17277E+06 1.61014E+02 9.20679E+02-5.25846E+03 8.10587E-11-1.12280E-10
 -1       904 1.17269E+06-1.15974E+02 1.44736E+03 5.44047E+02 3.32356E-11 3.28725E-10
 -1       905 1.17316E+06 8.80817E+02 3.13947E+03-5.13973E+03 5.83960E-10-3.92902E-10
 -1       906 1.17234E+06-7.56486E+02 5.43772E+03 6.28204E+02-2.20226E-10-2.73985E-10
 -1       907 1.17567E+06 5.87194E+03 1.31568E+04-5.60780E+03-6.01688E-11 3.01043E-10
 -1       908 1.17017E+06-5.06011E+03 2.12729E+04 1.01214E+03 3.87757E-10-2.81034E-10
 -1       909 1.19144E+06 3.91940E+04 5.74196E+04-6.74495E+03 6.42615E-11-1.42609E-09
 -1       910 1.15655E+06-3.37260E+04 8.20428E+04 1.76514E+03 1.40801E-10-6.62112E-10
 -1       911 3.87372E+05-5.19833E+03 1.25978E+04 1.50503E+03 1.24714E-10 5.91172E-11
 -1       912 3.92873E+05 6.03276E+03 8.85614E+03-7.63907E+03-2.87429E-10-2.93312E-10
 -1       913 3.89493E+05-7.82801E+02 3.28431E+03 1.07762E+03-3.45892E-10-6.59384E-12
 -1       914 3.90389E+05 9.12581E+02 2.07741E+03-6.92195E+03-3.39014E-10 3.28214E-10
 -1       915 3.89841E+05-1.21197E+02 9.24905E+02 7.87932E+02 9.64405E-10 7.41011E-10
 -1       916 3.89982E+05 1.66052E+02 6.80444E+02-6.46727E+03 1.41370E-09-3.87899E-10
 -1       917 3.89892E+05-3.71458E+01 5.92148E+02 6.22933E+02 1.05928E-09 4.93479E-10
 -1       918 3.89982E+05 1.76955E+02 9.46470E+02-6.25379E+03 6.19149E-10-1.03078E-09
 -1       919 3.89836E+05-1.29458E+02 1.58116E+03 5.74459E+02 1.61170E-09 9.13474E-11
 -1       920 3.90434E+05 9.95483E+02 3.49432E+03-6.27042E+03 8.85386E-10-4.77485E-10
 -1       921 3.89439E+05-8.49120E+02 6.07715E+03 6.39566E+02 1.22535E-09 7.66022E-10
 -1       922 3.93263E+05 6.59049E+03 1.47306E+04-6.51714E+03 1.53175E-09-1.76442E-10
 -1       923 3.87010E+05-5.67322E+03 2.38203E+04 8.21234E+02 1.35623E-09-2.91038E-10
 -1       924 4.10942E+05 4.39354E+04 6.43307E+04-7.00880E+03 4.59025E-10-1.04774E-09
 -1       925 3.71769E+05-3.78004E+04 9.19241E+04 1.13124E+03 1.03751E-09-6.18456E-11
 -1       926-1.53607E+06 3.31309E+04-8.04693E+04-3.31775E+01 2.57734E-09 2.91038E-11
 -1       927-1.57018E+06-3.85017E+04-5.63201E+04 2.74553E+02 2.68628E-10 7.13044E-10
 -1       928-1.54939E+06 4.96874E+03-2.08407E+04-8.50562E+02 1.80904E-10-5.73891E-10
 -1       929-1.55471E+06-5.76511E+03-1.28750E+04 1.77974E+03 6.83031E-10-1.04478E-09
 -1       930-1.55150E+06 7.40674E+02-5.30101E+03-1.53838E+03-2.34905E-10-8.29914E-11
 -1       931-1.55226E+06-8.54750E+02-3.02624E+03 2.89543E+03 3.34126E-10 1.00317E-09
 -1       932-1.55184E+06 1.08016E+02-1.33142E+03-1.96629E+03 5.88230E-10-7.08553E-10
 -1       933-1.55186E+06-1.19856E+02-7.19104E+02 3.40910E+03 1.57744E-10 6.48726E-11
 -1       934-1.55189E+06 1.30640E+01-3.20874E+02-2.05207E+03-1.45061E-10-1.58025E-10
 -1       935-1.55178E+06-4.80472E+00-1.46284E+02 3.22145E+03 6.44455E-10 5.79732E-11
 -1       936-1.55191E+06-6.85987E+00-3.22611E+01-1.77864E+03-2.10505E-10-2.98925E-11
 -1       937-1.55173E+06 5.67959E+01 8.45162E+01 2.36880E+03 1.09772E-09-5.96202E-10
 -1       938-1.55194E+06-4.99648E+01 1.80640E+02-1.19940E+03 6.57849E-10-1.39677E-09
 -1       939-1.55157E+06 3.76302E+02 5.42427E+02 1.01620E+03 1.63212E-10 3.20455E-12
 -1       940-1.55207E+06-3.24909E+02 7.77205E+02-4.26014E+02 3.83693E-11 6.73850E-10
 -1       941 5.63280E+06-2.65985E+05 6.50202E+05-2.92416E+02 1.12600E-08 5.90808E-09
 -1       942 5.90813E+06 3.09344E+05 4.54205E+05 7.37911E+03 7.52805E-09-5.01313E-09
 -1       943 5.74037E+06-3.99215E+04 1.68808E+05 1.59561E+03 1.57611E-09 0.00000E+00
 -1       944 5.78418E+06 4.63538E+04 1.04498E+05 4.68283E+03 8.95866E-10-2.32831E-09
 -1       945 5.75758E+06-5.97901E+03 4.36087E+04 2.40383E+03 2.09701E-09 3.57431E-09
 -1       946 5.76453E+06 7.02664E+03 2.57895E+04 3.46599E+03 3.02097E-09 7.49424E-09
 -1       947 5.76035E+06-9.89543E+02 1.31129E+04 2.81274E+03 1.67958E-09 6.17047E-09
 -1       948 5.76174E+06 1.85382E+03 1.07678E+04 2.71419E+03 2.31660E-09 5.11204E-09
 -1       949 5.76044E+06-8.51182E+02 1.16245E+04 3.15570E+03-5.49743E-10-7.72161E-09
 -1       950 5.76384E+06 5.79046E+03 2.15572E+04 1.81293E+03 1.79266E-10 5.42263E-09
 -1       951 5.75820E+06-4.89126E+03 3.58668E+04 3.71398E+03-1.07961E-09-9.01491E-09
 -1       952 5.77987E+06 3.78861E+04 8.55221E+04 1.51241E+01-1.30890E-09-4.78758E-09
 -1       953 5.74413E+06-3.26259E+04 1.38005E+05 4.95312E+03-4.91519E-09-6.25732E-10
 -1       954 5.88119E+06 2.52814E+05 3.71231E+05-4.26410E+03-5.50695E-09-3.25235E-09
 -1       955 5.65612E+06-2.17406E+05 5.31144E+05 7.98911E+03-1.00085E-08-7.27596E-10
 -1       956-3.21927E+05-5.16786E+03-1.00934E+04 5.23726E+04-7.87441E-09 2.42289E-09
 -1       957-3.23718E+05-1.56657E+03-5.05312E+03 5.98777E+04-3.48336E-10 5.30690E-10
 -1       958-3.22780E+05-1.47580E+02-2.27317E+03 5.20419E+04 1.48557E-08-3.32557E-09
 -1       959-3.22989E+05 8.99216E+01-1.15130E+03 6.02394E+04 1.09731E-08-2.33422E-09
 -1       960-3.22934E+05 1.60519E+02-5.59999E+02 5.20040E+04-3.87990E-09-1.68211E-09
 -1       961-3.22989E+05 2.11827E+02-2.93437E+02 6.02820E+04-1.63091E-08 1.12777E-10
 -1       962-3.23005E+05 1.96402E+02-1.65679E+02 5.19981E+04-8.07358E-09-3.37513E-09
 -1       963-3.23036E+05 2.42368E+02-1.25526E+02 6.02899E+04-1.22091E-08-2.27874E-09
 -1       964-3.23044E+05 2.19687E+02-1.45574E+02 5.19956E+04-2.75031E-09-3.71665E-09
 -1       965-3.23076E+05 2.60651E+02-2.44949E+02 6.02912E+04 1.15488E-08-2.41062E-09
 -1       966-3.23052E+05 2.31339E+02-4.57593E+02 5.19965E+04-1.42791E-10-1.22191E-09
 -1       967-3.23149E+05 2.01679E+02-9.43005E+02 6.02766E+04-1.33832E-09-4.06044E-09
 -1       968-3.22987E+05 1.68752E+01-1.85679E+03 5.20108E+04 1.29148E-09-6.84395E-10
 -1       969-3.23816E+05-1.12186E+03-4.13849E+03 6.01369E+04 2.66414E-09 3.61979E-09
 -1       970-3.22336E+05-4.07564E+03-8.26129E+03 5.21469E+04-1.74578E-09-2.36469E-10
 -1       971-9.00433E+05 1.72959E+04-6.06306E+04 1.80194E+03-8.92669E-09-8.76753E-10
 -1       972-9.23250E+05-2.16439E+04-3.98263E+04 2.55306E+04-1.08230E-08-3.26327E-09
 -1       973-9.09864E+05 1.97107E+03-1.57681E+04 1.27409E+03-1.65414E-08-6.97582E-10
 -1       974-9.12792E+05-2.28150E+03-9.02246E+03 2.64029E+04 3.05795E-09 4.46107E-10
 -1       975-9.11052E+05 2.34539E+02-4.06501E+03 9.25046E+02 1.03864E-09-3.62456E-09
 -1       976-9.11562E+05-5.99565E+01-2.27927E+03 2.69553E+04-1.37965E-08-2.22326E-09
 -1       977-9.11212E+05 4.95938E+01-1.29724E+03 7.20184E+02 2.46628E-08-5.49585E-09
 -1       978-9.11467E+05 1.74692E+02-1.13875E+03 2.72248E+04 3.58341E-08-7.62867E-09
 -1       979-9.11208E+05 5.97799E+01-1.44806E+03 6.55078E+02 1.50951E-08-8.04680E-09
 -1       980-9.11663E+05-9.40697E+01-2.69318E+03 2.72130E+04 2.92524E-08-5.16690E-09
 -1       981-9.11016E+05 2.97543E+02-4.86115E+03 7.32039E+02 1.98952E-10-5.95037E-10
 -1       982-9.13223E+05-2.74435E+03-1.08673E+04 2.69196E+04 4.61944E-09-1.76829E-09
 -1       983-9.09586E+05 2.40598E+03-1.89786E+04 9.50024E+02 6.31235E-09-3.92265E-09
 -1       984-9.25910E+05-2.60569E+04-4.80088E+04 2.63240E+04-1.08012E-08-4.23825E-09
 -1       985-8.98218E+05 2.08969E+04-7.30395E+04 1.33527E+03 4.24734E-09-3.62343E-09
 -3
 9999
