
 stresses (elem, integ.pnt.,sxx,syy,szz,sxy,sxz,syz) for set ELALL and time  0.1000000E+01

         1   1 -5.398915E+06 -6.550952E+05 -8.532467E+05 -7.551827E+04 -5.803886E+05  7.118465E+01
         1   2 -5.268157E+06  1.502500E+05 -3.641497E+05 -1.929848E+04 -3.815140E+05  1.195636E+01
         1   3 -5.397193E+06  2.263971E+04 -2.384439E+05  3.693210E+04 -1.826485E+05 -1.095652E+01
         1   4 -5.398921E+06 -6.551060E+05 -8.532483E+05 -5.130083E-08 -5.803886E+05 -8.284736E-11
         1   5 -5.268157E+06  1.502493E+05 -3.641498E+05 -1.228289E-07 -3.815140E+05 -1.086195E-09
         1   6 -5.397195E+06  2.263713E+04 -2.384443E+05  3.568701E-08 -1.826485E+05 -2.319589E-09
         1   7 -5.398915E+06 -6.550952E+05 -8.532467E+05  7.551827E+04 -5.803886E+05 -7.118465E+01
         1   8 -5.268157E+06  1.502500E+05 -3.641497E+05  1.929848E+04 -3.815140E+05 -1.195636E+01
         1   9 -5.397193E+06  2.263971E+04 -2.384439E+05 -3.693210E+04 -1.826485E+05  1.095652E+01
         1  10 -5.399280E+06 -6.551866E+05 -8.538852E+05 -7.551825E+04 -1.054580E-09  4.667606E-11
         1  11 -5.268314E+06  1.502105E+05 -3.644256E+05 -1.929848E+04 -1.027302E-09 -2.212491E-10
         1  12 -5.397229E+06  2.263066E+04 -2.385071E+05  3.693210E+04  1.433158E-09  2.172540E-10
         1  13 -5.399286E+06 -6.551974E+05 -8.538868E+05 -3.411107E-08  4.263173E-09 -1.345352E-10
         1  14 -5.268315E+06  1.502098E+05 -3.644257E+05 -1.963310E-08 -1.120587E-09 -2.687568E-10
         1  15 -5.397231E+06  2.262808E+04 -2.385075E+05 -1.374238E-08  3.370425E-10 -1.338515E-10
         1  16 -5.399280E+06 -6.551866E+05 -8.538852E+05  7.551825E+04 -2.171483E-09 -4.762123E-11
         1  17 -5.268314E+06  1.502105E+05 -3.644256E+05  1.929848E+04  1.573538E-09 -4.528998E-10
         1  18 -5.397229E+06  2.263066E+04 -2.385071E+05 -3.693210E+04  3.354973E-09  4.924613E-10
         1  19 -5.398915E+06 -6.550952E+05 -8.532467E+05 -7.551827E+04  5.803886E+05 -7.118465E+01
         1  20 -5.268157E+06  1.502500E+05 -3.641497E+05 -1.929848E+04  3.815140E+05 -1.195636E+01
         1  21 -5.397193E+06  2.263971E+04 -2.384439E+05  3.693210E+04  1.826485E+05  1.095652E+01
         1  22 -5.398921E+06 -6.551060E+05 -8.532483E+05 -1.690801E-08  5.803886E+05 -1.868835E-10
         1  23 -5.268157E+06  1.502493E+05 -3.641498E+05  6.636876E-08  3.815140E+05  6.913022E-11
         1  24 -5.397195E+06  2.263713E+04 -2.384443E+05  4.858528E-08  1.826485E+05  2.130596E-09
         1  25 -5.398915E+06 -6.550952E+05 -8.532467E+05  7.551827E+04  5.803886E+05  7.118465E+01
         1  26 -5.268157E+06  1.502500E+05 -3.641497E+05  1.929848E+04  3.815140E+05  1.195636E+01
         1  27 -5.397193E+06  2.263971E+04 -2.384439E+05 -3.693210E+04  1.826485E+05 -1.095652E+01
         2   1 -5.349148E+06 -9.806826E+04 -1.971924E+05 -1.077495E+04 -1.435048E+05  2.511303E+00
         2   2 -5.328227E+06  2.254056E+04 -9.420250E+04 -2.560787E+03 -9.418739E+04  3.917206E-01
         2   3 -5.348813E+06  3.301828E+03 -5.847850E+04  5.653410E+03 -4.486885E+04 -4.119838E-01
         2   4 -5.349149E+06 -9.806848E+04 -1.971925E+05 -3.279288E-08 -1.435048E+05 -2.200638E-09
         2   5 -5.328227E+06  2.254055E+04 -9.420250E+04  7.136668E-08 -9.418739E+04 -6.483227E-10
         2   6 -5.348813E+06  3.301767E+03 -5.847851E+04  1.003059E-07 -4.486885E+04 -1.138316E-09
         2   7 -5.349148E+06 -9.806826E+04 -1.971924E+05  1.077495E+04 -1.435048E+05 -2.511303E+00
         2   8 -5.328227E+06  2.254056E+04 -9.420250E+04  2.560787E+03 -9.418739E+04 -3.917206E-01
         2   9 -5.348813E+06  3.301828E+03 -5.847850E+04 -5.653410E+03 -4.486885E+04  4.119838E-01
         2  10 -5.349171E+06 -9.807385E+04 -1.972315E+05 -1.077495E+04 -7.729372E-10 -2.735333E-10
         2  11 -5.328236E+06  2.253816E+04 -9.421931E+04 -2.560787E+03 -2.461098E-09 -1.239578E-09
         2  12 -5.348816E+06  3.301282E+03 -5.848231E+04  5.653410E+03 -1.031844E-09 -4.380492E-10
         2  13 -5.349171E+06 -9.807407E+04 -1.972315E+05 -1.359614E-07  1.201616E-10 -1.892653E-10
         2  14 -5.328236E+06  2.253814E+04 -9.421931E+04  1.229551E-07  1.374982E-09 -7.561842E-10
         2  15 -5.348816E+06  3.301221E+03 -5.848232E+04  1.411394E-07 -4.679691E-09 -2.422320E-10
         2  16 -5.349171E+06 -9.807385E+04 -1.972315E+05  1.077495E+04  4.063499E-09 -1.885672E-09
         2  17 -5.328236E+06  2.253816E+04 -9.421931E+04  2.560787E+03  1.254814E-09 -9.203634E-10
         2  18 -5.348816E+06  3.301282E+03 -5.848231E+04 -5.653410E+03  5.581066E-10 -1.045798E-09
         2  19 -5.349148E+06 -9.806826E+04 -1.971924E+05 -1.077495E+04  1.435048E+05 -2.511303E+00
         2  20 -5.328227E+06  2.254056E+04 -9.420250E+04 -2.560787E+03  9.418739E+04 -3.917206E-01
         2  21 -5.348813E+06  3.301828E+03 -5.847850E+04  5.653410E+03  4.486885E+04  4.119838E-01
         2  22 -5.349149E+06 -9.806848E+04 -1.971925E+05  1.878277E-08  1.435048E+05  1.134585E-09
         2  23 -5.328227E+06  2.254055E+04 -9.420250E+04  5.417108E-08  9.418739E+04 -1.039357E-09
         2  24 -5.348813E+06  3.301767E+03 -5.847851E+04  4.658677E-08  4.486885E+04  9.807896E-10
         2  25 -5.349148E+06 -9.806826E+04 -1.971924E+05  1.077495E+04  1.435048E+05  2.511303E+00
         2  26 -5.328227E+06  2.254056E+04 -9.420250E+04  2.560787E+03  9.418739E+04  3.917206E-01
         2  27 -5.348813E+06  3.301828E+03 -5.847850E+04 -5.653410E+03  4.486885E+04 -4.119838E-01
         3   1 -5.341177E+06 -1.459753E+04 -4.681321E+04 -1.474059E+03 -3.539201E+04  8.473044E-02
         3   2 -5.337715E+06  3.374419E+03 -2.415445E+04 -3.004561E+02 -2.305587E+04  1.125073E-02
         3   3 -5.341110E+06  4.414671E+02 -1.480443E+04  8.731242E+02 -1.071978E+04 -1.520136E-02
         3   4 -5.341177E+06 -1.459753E+04 -4.681321E+04  4.744721E-08 -3.539201E+04  2.482098E-10
         3   5 -5.337715E+06  3.374419E+03 -2.415445E+04 -8.124330E-08 -2.305587E+04  2.750990E-09
         3   6 -5.341110E+06  4.414657E+02 -1.480443E+04 -2.506628E-08 -1.071978E+04 -4.697465E-10
         3   7 -5.341177E+06 -1.459753E+04 -4.681321E+04  1.474059E+03 -3.539201E+04 -8.473044E-02
         3   8 -5.337715E+06  3.374419E+03 -2.415445E+04  3.004561E+02 -2.305587E+04 -1.125073E-02
         3   9 -5.341110E+06  4.414671E+02 -1.480443E+04 -8.731242E+02 -1.071978E+04  1.520136E-02
         3  10 -5.341178E+06 -1.459787E+04 -4.681558E+04 -1.474059E+03 -3.530411E-09 -8.198678E-11
         3  11 -5.337716E+06  3.374275E+03 -2.415546E+04 -3.004561E+02 -5.791115E-10  2.356260E-10
         3  12 -5.341110E+06  4.414360E+02 -1.480465E+04  8.731242E+02 -3.135602E-09  1.104678E-09
         3  13 -5.341178E+06 -1.459787E+04 -4.681558E+04  1.162160E-07 -4.378907E-09  2.881799E-10
         3  14 -5.337716E+06  3.374275E+03 -2.415546E+04 -1.246986E-08 -1.074630E-09  1.965144E-10
         3  15 -5.341110E+06  4.414345E+02 -1.480465E+04  4.797066E-08  1.074638E-09 -1.459182E-10
         3  16 -5.341178E+06 -1.459787E+04 -4.681558E+04  1.474059E+03 -6.273466E-10 -8.573863E-11
         3  17 -5.337716E+06  3.374275E+03 -2.415546E+04  3.004561E+02  5.264172E-09  9.000940E-11
         3  18 -5.341110E+06  4.414360E+02 -1.480465E+04 -8.731242E+02  1.754072E-09 -9.587058E-10
         3  19 -5.341177E+06 -1.459753E+04 -4.681321E+04 -1.474059E+03  3.539201E+04 -8.473043E-02
         3  20 -5.337715E+06  3.374419E+03 -2.415445E+04 -3.004561E+02  2.305587E+04 -1.125073E-02
         3  21 -5.341110E+06  4.414671E+02 -1.480443E+04  8.731242E+02  1.071978E+04  1.520137E-02
         3  22 -5.341177E+06 -1.459753E+04 -4.681321E+04  1.304875E-08  3.539201E+04  1.035685E-09
         3  23 -5.337715E+06  3.374419E+03 -2.415445E+04  1.594725E-07  2.305587E+04 -1.128030E-09
         3  24 -5.341110E+06  4.414657E+02 -1.480443E+04  1.081651E-07  1.071978E+04  1.000144E-09
         3  25 -5.341177E+06 -1.459753E+04 -4.681321E+04  1.474059E+03  3.539201E+04  8.473043E-02
         3  26 -5.337715E+06  3.374419E+03 -2.415445E+04  3.004561E+02  2.305587E+04  1.125073E-02
         3  27 -5.341110E+06  4.414671E+02 -1.480443E+04 -8.731242E+02  1.071978E+04 -1.520137E-02
         4   1 -5.339887E+06 -2.146801E+03 -1.182491E+04 -1.987116E+02 -8.320766E+03  2.685388E-03
         4   2 -5.339223E+06  5.497178E+02 -7.032786E+03 -2.483396E+01 -4.784429E+03  1.929713E-04
         4   3 -5.339875E+06 -1.496204E+02 -5.406863E+03  1.490459E+02 -1.248029E+03 -3.021052E-04
         4   4 -5.339887E+06 -2.146801E+03 -1.182491E+04 -5.282378E-09 -8.320766E+03 -1.621351E-09
         4   5 -5.339223E+06  5.497178E+02 -7.032786E+03 -1.589546E-08 -4.784429E+03  1.861732E-09
         4   6 -5.339875E+06 -1.496204E+02 -5.406863E+03  1.089045E-07 -1.248029E+03  4.268282E-10
         4   7 -5.339887E+06 -2.146801E+03 -1.182491E+04  1.987116E+02 -8.320766E+03 -2.685386E-03
         4   8 -5.339223E+06  5.497178E+02 -7.032786E+03  2.483396E+01 -4.784429E+03 -1.929736E-04
         4   9 -5.339875E+06 -1.496204E+02 -5.406863E+03 -1.490459E+02 -1.248029E+03  3.021105E-04
         4  10 -5.339887E+06 -2.146820E+03 -1.182504E+04 -1.987116E+02 -1.311052E-09 -4.400600E-10
         4  11 -5.339223E+06  5.497116E+02 -7.032830E+03 -2.483396E+01  6.638114E-10 -2.620199E-09
         4  12 -5.339875E+06 -1.496208E+02 -5.406866E+03  1.490459E+02  2.554065E-09  2.270794E-10
         4  13 -5.339887E+06 -2.146820E+03 -1.182504E+04  1.191523E-08 -2.725829E-09 -5.342907E-10
         4  14 -5.339223E+06  5.497116E+02 -7.032830E+03  3.569535E-08 -1.907848E-09 -3.744780E-10
         4  15 -5.339875E+06 -1.496208E+02 -5.406866E+03 -2.651131E-08  2.727836E-10  8.331209E-11
         4  16 -5.339887E+06 -2.146820E+03 -1.182504E+04  1.987116E+02  1.304184E-09 -1.979782E-09
         4  17 -5.339223E+06  5.497116E+02 -7.032830E+03  2.483396E+01 -1.267419E-09  2.497987E-10
         4  18 -5.339875E+06 -1.496208E+02 -5.406866E+03 -1.490459E+02  4.211924E-10  8.206820E-10
         4  19 -5.339887E+06 -2.146801E+03 -1.182491E+04 -1.987116E+02  8.320766E+03 -2.685383E-03
         4  20 -5.339223E+06  5.497178E+02 -7.032786E+03 -2.483396E+01  4.784429E+03 -1.929685E-04
         4  21 -5.339875E+06 -1.496204E+02 -5.406863E+03  1.490459E+02  1.248029E+03  3.021096E-04
         4  22 -5.339887E+06 -2.146801E+03 -1.182491E+04  1.666917E-07  8.320766E+03  1.362870E-09
         4  23 -5.339223E+06  5.497178E+02 -7.032786E+03  7.008327E-08  4.784429E+03 -1.838597E-09
         4  24 -5.339875E+06 -1.496204E+02 -5.406863E+03  1.282409E-07  1.248029E+03 -3.068309E-10
         4  25 -5.339887E+06 -2.146801E+03 -1.182491E+04  1.987116E+02  8.320766E+03  2.685387E-03
         4  26 -5.339223E+06  5.497178E+02 -7.032786E+03  2.483396E+01  4.784429E+03  1.929672E-04
         4  27 -5.339875E+06 -1.496204E+02 -5.406863E+03 -1.490459E+02  1.248029E+03 -3.021127E-04
         5   1 -5.339808E+06 -2.679982E+02 -5.153512E+03 -1.118515E+02 -2.962819E+02  5.382504E-05
         5   2 -5.339305E+06  4.156895E+02 -5.616417E+03  1.796772E+01  2.524902E+03  7.367580E-05
         5   3 -5.339815E+06 -1.467610E+03 -8.569676E+03  1.477870E+02  5.346082E+03  1.283201E-03
         5   4 -5.339808E+06 -2.679982E+02 -5.153512E+03  3.486225E-08 -2.962819E+02  5.606159E-10
         5   5 -5.339305E+06  4.156895E+02 -5.616417E+03 -4.193240E-09  2.524902E+03  1.532880E-09
         5   6 -5.339815E+06 -1.467610E+03 -8.569676E+03  1.351447E-07  5.346082E+03 -1.842897E-09
         5   7 -5.339808E+06 -2.679982E+02 -5.153512E+03  1.118515E+02 -2.962819E+02 -5.382517E-05
         5   8 -5.339305E+06  4.156895E+02 -5.616417E+03 -1.796772E+01  2.524902E+03 -7.368206E-05
         5   9 -5.339815E+06 -1.467610E+03 -8.569676E+03 -1.477870E+02  5.346082E+03 -1.283192E-03
         5  10 -5.339808E+06 -2.679982E+02 -5.153512E+03 -1.118515E+02  3.031770E-11  9.859558E-10
         5  11 -5.339305E+06  4.156878E+02 -5.616429E+03  1.796772E+01 -4.399849E-10  5.477552E-10
         5  12 -5.339815E+06 -1.467617E+03 -8.569731E+03  1.477870E+02  1.839381E-09 -1.524156E-10
         5  13 -5.339808E+06 -2.679982E+02 -5.153512E+03  6.926374E-08  2.431150E-09  1.014234E-10
         5  14 -5.339305E+06  4.156878E+02 -5.616429E+03  9.037428E-08  1.316106E-09 -2.111100E-10
         5  15 -5.339815E+06 -1.467617E+03 -8.569731E+03  4.269824E-08 -2.972841E-09 -1.075148E-09
         5  16 -5.339808E+06 -2.679982E+02 -5.153512E+03  1.118515E+02 -1.175369E-10 -2.445604E-10
         5  17 -5.339305E+06  4.156878E+02 -5.616429E+03 -1.796772E+01 -2.219778E-09 -9.680892E-10
         5  18 -5.339815E+06 -1.467617E+03 -8.569731E+03 -1.477870E+02 -3.484570E-09 -1.980645E-09
         5  19 -5.339808E+06 -2.679982E+02 -5.153512E+03 -1.118515E+02  2.962819E+02 -5.381855E-05
         5  20 -5.339305E+06  4.156895E+02 -5.616417E+03  1.796772E+01 -2.524902E+03 -7.367704E-05
         5  21 -5.339815E+06 -1.467610E+03 -8.569676E+03  1.477870E+02 -5.346082E+03 -1.283194E-03
         5  22 -5.339808E+06 -2.679982E+02 -5.153512E+03  1.769293E-08  2.962819E+02 -4.644970E-10
         5  23 -5.339305E+06  4.156895E+02 -5.616417E+03  4.738076E-08 -2.524902E+03 -1.306827E-09
         5  24 -5.339815E+06 -1.467610E+03 -8.569676E+03  7.061412E-08 -5.346082E+03 -3.160022E-10
         5  25 -5.339808E+06 -2.679982E+02 -5.153512E+03  1.118515E+02  2.962819E+02  5.381842E-05
         5  26 -5.339305E+06  4.156895E+02 -5.616417E+03 -1.796772E+01 -2.524902E+03  7.367429E-05
         5  27 -5.339815E+06 -1.467610E+03 -8.569676E+03 -1.477870E+02 -5.346082E+03  1.283190E-03
         6   1 -5.340633E+06  2.793672E+02 -1.050404E+04 -5.988401E+02  7.064353E+03 -6.870742E-03
         6   2 -5.338295E+06  2.319110E+03 -1.675819E+04  2.068366E+02  1.562024E+04  5.247278E-03
         6   3 -5.340679E+06 -1.000772E+04 -3.221002E+04  1.012504E+03  2.417593E+04  3.975571E-02
         6   4 -5.340633E+06  2.793666E+02 -1.050404E+04  1.092981E-07  7.064353E+03 -2.085132E-09
         6   5 -5.338295E+06  2.319110E+03 -1.675819E+04  2.735913E-09  1.562024E+04  1.283146E-09
         6   6 -5.340679E+06 -1.000772E+04 -3.221002E+04  1.197166E-07  2.417593E+04  1.024996E-09
         6   7 -5.340633E+06  2.793672E+02 -1.050404E+04  5.988401E+02  7.064353E+03  6.870741E-03
         6   8 -5.338295E+06  2.319110E+03 -1.675819E+04 -2.068366E+02  1.562024E+04 -5.247279E-03
         6   9 -5.340679E+06 -1.000772E+04 -3.221002E+04 -1.012504E+03  2.417593E+04 -3.975571E-02
         6  10 -5.340633E+06  2.793537E+02 -1.050414E+04 -5.988401E+02 -2.754253E-09  6.696668E-10
         6  11 -5.338295E+06  2.319044E+03 -1.675865E+04  2.068366E+02 -2.285096E-09  3.295019E-09
         6  12 -5.340680E+06 -1.000788E+04 -3.221113E+04  1.012504E+03  5.299040E-09 -1.145627E-09
         6  13 -5.340633E+06  2.793530E+02 -1.050414E+04  5.771982E-08 -4.714207E-09 -8.831909E-10
         6  14 -5.338295E+06  2.319044E+03 -1.675865E+04  2.741133E-09 -3.706564E-09  1.567690E-09
         6  15 -5.340680E+06 -1.000788E+04 -3.221113E+04  1.654224E-08 -3.625603E-10 -2.747188E-11
         6  16 -5.340633E+06  2.793537E+02 -1.050414E+04  5.988401E+02  1.572321E-09 -1.356970E-09
         6  17 -5.338295E+06  2.319044E+03 -1.675865E+04 -2.068366E+02 -1.421468E-09  3.845630E-10
         6  18 -5.340680E+06 -1.000788E+04 -3.221113E+04 -1.012504E+03 -3.399689E-09  9.528258E-10
         6  19 -5.340633E+06  2.793672E+02 -1.050404E+04 -5.988401E+02 -7.064353E+03  6.870747E-03
         6  20 -5.338295E+06  2.319110E+03 -1.675819E+04  2.068366E+02 -1.562024E+04 -5.247274E-03
         6  21 -5.340679E+06 -1.000772E+04 -3.221002E+04  1.012504E+03 -2.417593E+04 -3.975571E-02
         6  22 -5.340633E+06  2.793666E+02 -1.050404E+04  1.265177E-07 -7.064353E+03  5.163621E-10
         6  23 -5.338295E+06  2.319110E+03 -1.675819E+04 -2.304656E-08 -1.562024E+04 -4.647264E-11
         6  24 -5.340679E+06 -1.000772E+04 -3.221002E+04  2.942557E-08 -2.417593E+04 -1.133720E-09
         6  25 -5.340633E+06  2.793672E+02 -1.050404E+04  5.988401E+02 -7.064353E+03 -6.870746E-03
         6  26 -5.338295E+06  2.319110E+03 -1.675819E+04 -2.068366E+02 -1.562024E+04  5.247273E-03
         6  27 -5.340679E+06 -1.000772E+04 -3.221002E+04 -1.012504E+03 -2.417593E+04  3.975570E-02
         7   1 -5.345911E+06  2.260685E+03 -4.018112E+04 -3.875729E+03  3.069214E+04 -1.931985E-01
         7   2 -5.331795E+06  1.545444E+04 -6.463879E+04  1.756000E+03  6.452835E+04  1.840298E-01
         7   3 -5.346142E+06 -6.723689E+04 -1.352332E+05  7.387793E+03  9.836450E+04  1.180244E+00
         7   4 -5.345911E+06  2.260657E+03 -4.018112E+04  1.399641E-07  3.069214E+04  8.459391E-10
         7   5 -5.331795E+06  1.545443E+04 -6.463879E+04  7.074325E-08  6.452835E+04  2.269302E-10
         7   6 -5.346142E+06 -6.723700E+04 -1.352333E+05  1.154103E-07  9.836450E+04 -2.232712E-09
         7   7 -5.345911E+06  2.260685E+03 -4.018112E+04  3.875729E+03  3.069214E+04  1.931985E-01
         7   8 -5.331795E+06  1.545444E+04 -6.463879E+04 -1.756000E+03  6.452835E+04 -1.840298E-01
         7   9 -5.346142E+06 -6.723689E+04 -1.352332E+05 -7.387793E+03  9.836450E+04 -1.180244E+00
         7  10 -5.345912E+06  2.260430E+03 -4.018290E+04 -3.875729E+03  7.730284E-10 -7.881120E-10
         7  11 -5.331799E+06  1.545331E+04 -6.464668E+04  1.756000E+03 -1.883552E-09  1.021381E-09
         7  12 -5.346153E+06 -6.723952E+04 -1.352516E+05  7.387793E+03  1.204907E-09  2.160871E-09
         7  13 -5.345912E+06  2.260401E+03 -4.018291E+04 -1.477872E-08  4.712851E-09 -7.869920E-11
         7  14 -5.331799E+06  1.545330E+04 -6.464668E+04  1.223234E-07  8.338867E-10  5.447072E-10
         7  15 -5.346153E+06 -6.723962E+04 -1.352516E+05 -2.799941E-09 -2.049868E-09 -6.730998E-11
         7  16 -5.345912E+06  2.260430E+03 -4.018290E+04  3.875729E+03  3.015885E-10  3.599962E-10
         7  17 -5.331799E+06  1.545331E+04 -6.464668E+04 -1.756000E+03  4.097206E-09  7.111531E-10
         7  18 -5.346153E+06 -6.723952E+04 -1.352516E+05 -7.387793E+03 -2.135857E-09 -5.626074E-10
         7  19 -5.345911E+06  2.260685E+03 -4.018112E+04 -3.875729E+03 -3.069214E+04  1.931985E-01
         7  20 -5.331795E+06  1.545444E+04 -6.463879E+04  1.756000E+03 -6.452835E+04 -1.840298E-01
         7  21 -5.346142E+06 -6.723689E+04 -1.352332E+05  7.387793E+03 -9.836450E+04 -1.180244E+00
         7  22 -5.345911E+06  2.260657E+03 -4.018112E+04  5.398019E-08 -3.069214E+04 -1.276854E-09
         7  23 -5.331795E+06  1.545443E+04 -6.463879E+04  1.137279E-07 -6.452835E+04  2.044574E-09
         7  24 -5.346142E+06 -6.723700E+04 -1.352333E+05  4.662749E-08 -9.836450E+04  1.891478E-09
         7  25 -5.345911E+06  2.260685E+03 -4.018112E+04  3.875729E+03 -3.069214E+04 -1.931985E-01
         7  26 -5.331795E+06  1.545444E+04 -6.463879E+04 -1.756000E+03 -6.452835E+04  1.840298E-01
         7  27 -5.346142E+06 -6.723689E+04 -1.352332E+05 -7.387793E+03 -9.836450E+04  1.180244E+00
         8   1 -5.379084E+06  1.551863E+04 -1.635174E+05 -2.532019E+04  1.252133E+05 -5.149439E+00
         8   2 -5.290624E+06  1.030079E+05 -2.497467E+05  1.322948E+04  2.615526E+05  5.619328E+00
         8   3 -5.380292E+06 -4.491394E+05 -5.851497E+05  5.177447E+04  3.978976E+05  3.345830E+01
         8   4 -5.379085E+06  1.551741E+04 -1.635176E+05  1.220585E-07  1.252133E+05 -6.853732E-10
         8   5 -5.290625E+06  1.030076E+05 -2.497468E+05  6.210311E-08  2.615526E+05  1.744704E-09
         8   6 -5.380295E+06 -4.491445E+05 -5.851505E+05  2.791230E-08  3.978976E+05  4.874400E-10
         8   7 -5.379084E+06  1.551863E+04 -1.635174E+05  2.532019E+04  1.252133E+05  5.149439E+00
         8   8 -5.290624E+06  1.030079E+05 -2.497467E+05 -1.322948E+04  2.615526E+05 -5.619328E+00
         8   9 -5.380292E+06 -4.491394E+05 -5.851497E+05 -5.177447E+04  3.978976E+05 -3.345830E+01
         8  10 -5.379101E+06  1.551437E+04 -1.635471E+05 -2.532019E+04  3.793573E-09 -7.430671E-10
         8  11 -5.290698E+06  1.029893E+05 -2.498764E+05  1.322948E+04  3.514709E-09  2.123925E-09
         8  12 -5.380463E+06 -4.491823E+05 -5.854498E+05  5.177446E+04  2.368527E-09  7.711266E-10
         8  13 -5.379102E+06  1.551316E+04 -1.635473E+05 -6.707096E-08  1.947931E-09  3.158330E-10
         8  14 -5.290699E+06  1.029890E+05 -2.498764E+05  1.916279E-09  2.386736E-09  1.361619E-09
         8  15 -5.380466E+06 -4.491874E+05 -5.854506E+05 -7.524703E-08 -1.469390E-09  3.981178E-10
         8  16 -5.379101E+06  1.551437E+04 -1.635471E+05  2.532019E+04 -7.358834E-09  4.882174E-10
         8  17 -5.290698E+06  1.029893E+05 -2.498764E+05 -1.322948E+04  5.728999E-10  2.518552E-09
         8  18 -5.380463E+06 -4.491823E+05 -5.854498E+05 -5.177446E+04  1.458219E-09 -1.411649E-10
         8  19 -5.379084E+06  1.551863E+04 -1.635174E+05 -2.532019E+04 -1.252133E+05  5.149439E+00
         8  20 -5.290624E+06  1.030079E+05 -2.497467E+05  1.322948E+04 -2.615526E+05 -5.619328E+00
         8  21 -5.380292E+06 -4.491394E+05 -5.851497E+05  5.177447E+04 -3.978976E+05 -3.345830E+01
         8  22 -5.379085E+06  1.551741E+04 -1.635176E+05 -1.547197E-08 -1.252133E+05  7.671920E-10
         8  23 -5.290625E+06  1.030076E+05 -2.497468E+05  1.051091E-08 -2.615526E+05  6.867417E-10
         8  24 -5.380295E+06 -4.491445E+05 -5.851505E+05 -6.498231E-09 -3.978976E+05  7.856949E-10
         8  25 -5.379084E+06  1.551863E+04 -1.635174E+05  2.532019E+04 -1.252133E+05 -5.149439E+00
         8  26 -5.290624E+06  1.030079E+05 -2.497467E+05 -1.322948E+04 -2.615526E+05  5.619328E+00
         8  27 -5.380292E+06 -4.491394E+05 -5.851497E+05 -5.177447E+04 -3.978976E+05  3.345830E+01
         9   1  2.252768E+06  8.067350E+06  2.141611E+06 -1.584501E+06  1.005941E+05  8.418352E+05
         9   2  1.793753E+06  6.879524E+06  1.430376E+06 -1.445763E+06  3.383538E+05  3.936475E+05
         9   3  1.474323E+06  5.788254E+06  1.044193E+06 -1.488456E+06  3.955502E+05 -5.343169E+04
         9   4  1.469967E+05 -5.127506E+05  1.550788E+05 -1.466684E+06  1.028172E+05  1.048536E+05
         9   5  4.863682E+04 -5.228363E+05  8.050377E+04 -1.376235E+06  3.399296E+05  6.507682E+04
         9   6  2.030777E+04 -5.073150E+05  4.979207E+04 -1.467167E+06  3.955535E+05  2.546502E+04
         9   7 -1.963604E+06 -9.024207E+06 -1.834363E+06 -1.350373E+06  1.047880E+05 -6.221231E+05
         9   8 -1.699495E+06 -7.872074E+06 -1.271180E+06 -1.307453E+06  3.414463E+05 -2.597170E+05
         9   9 -1.435666E+06 -6.763628E+06 -9.455816E+05 -1.446015E+06  3.955621E+05  1.035957E+05
         9  10  2.252569E+06  8.066594E+06  2.140276E+06 -1.584570E+06  3.260387E-10  2.989560E-08
         9  11  1.793588E+06  6.879328E+06  1.429871E+06 -1.445870E+06  2.096438E-09 -1.408345E-08
         9  12  1.474155E+06  5.788209E+06  1.043894E+06 -1.488440E+06  4.648690E-09 -5.949323E-08
         9  13  1.469823E+05 -5.127653E+05  1.550381E+05 -1.466692E+06  4.130638E-10 -3.250830E-11
         9  14  4.851157E+04 -5.228719E+05  8.027850E+04 -1.376252E+06 -3.954488E-09 -6.993851E-11
         9  15  2.013960E+04 -5.073577E+05  4.949680E+04 -1.467175E+06 -1.648422E-08 -1.389527E-10
         9  16 -1.963721E+06 -9.024630E+06 -1.835121E+06 -1.350320E+06  4.807434E-09 -2.963661E-08
         9  17 -1.699639E+06 -7.872178E+06 -1.271527E+06 -1.307381E+06  1.000218E-08  1.379702E-08
         9  18 -1.435837E+06 -6.763682E+06 -9.458963E+05 -1.446048E+06  7.090560E-09  5.876523E-08
         9  19  2.252768E+06  8.067350E+06  2.141611E+06 -1.584501E+06 -1.005941E+05 -8.418352E+05
         9  20  1.793753E+06  6.879524E+06  1.430376E+06 -1.445763E+06 -3.383538E+05 -3.936475E+05
         9  21  1.474323E+06  5.788254E+06  1.044193E+06 -1.488456E+06 -3.955502E+05  5.343169E+04
         9  22  1.469967E+05 -5.127506E+05  1.550788E+05 -1.466684E+06 -1.028172E+05 -1.048536E+05
         9  23  4.863682E+04 -5.228363E+05  8.050377E+04 -1.376235E+06 -3.399296E+05 -6.507682E+04
         9  24  2.030777E+04 -5.073150E+05  4.979207E+04 -1.467167E+06 -3.955535E+05 -2.546502E+04
         9  25 -1.963604E+06 -9.024207E+06 -1.834363E+06 -1.350373E+06 -1.047880E+05  6.221231E+05
         9  26 -1.699495E+06 -7.872074E+06 -1.271180E+06 -1.307453E+06 -3.414463E+05  2.597170E+05
         9  27 -1.435666E+06 -6.763628E+06 -9.455816E+05 -1.446015E+06 -3.955621E+05 -1.035957E+05
        10   1  1.301988E+06  5.063336E+06  8.975682E+05 -1.495730E+06  3.676328E+05 -6.707940E+04
        10   2  1.028595E+06  3.917350E+06  6.785009E+05 -1.388754E+06  3.186890E+05 -1.357351E+05
        10   3  7.778580E+05  2.787027E+06  5.095156E+05 -1.476389E+06  2.471609E+05 -2.044991E+05
        10   4  1.907851E+04 -5.102027E+05  4.175618E+04 -1.470122E+06  3.675024E+05  1.823848E+04
        10   5  1.607290E+04 -5.113283E+05  3.557813E+04 -1.372775E+06  3.181297E+05  3.765659E+02
        10   6  2.705576E+04 -5.068068E+05  4.441134E+04 -1.470117E+06  2.460891E+05 -1.771168E+04
        10   7 -1.265326E+06 -6.052810E+06 -8.147185E+05 -1.444682E+06  3.673780E+05  1.028240E+05
        10   8 -9.973406E+05 -4.920262E+06 -6.075992E+05 -1.356869E+06  3.175743E+05  1.355624E+05
        10   9 -7.242144E+05 -3.789610E+06 -4.207113E+05 -1.463851E+06  2.450170E+05  1.681313E+05
        10  10  1.301842E+06  5.063295E+06  8.973061E+05 -1.495710E+06  1.114378E-09  5.112992E-08
        10  11  1.028481E+06  3.917303E+06  6.782761E+05 -1.388720E+06 -4.747465E-10 -5.807346E-08
        10  12  7.777814E+05  2.786966E+06  5.093231E+05 -1.476349E+06 -2.824919E-09 -1.612686E-07
        10  13  1.893341E+04 -5.102394E+05  4.150175E+04 -1.470128E+06 -1.550019E-08 -1.972808E-11
        10  14  1.596425E+04 -5.113555E+05  3.538799E+04 -1.372775E+06  7.016179E-09  5.887868E-13
        10  15  2.699069E+04 -5.068234E+05  4.429703E+04 -1.470113E+06  9.639763E-09 -2.578108E-10
        10  16 -1.265474E+06 -6.052858E+06 -8.149924E+05 -1.444712E+06  4.977499E-09 -5.091953E-08
        10  17 -9.974540E+05 -4.920309E+06 -6.078239E+05 -1.356903E+06  1.574083E-09  5.772870E-08
        10  18 -7.242867E+05 -3.789656E+06 -4.208779E+05 -1.463884E+06 -8.730221E-09  1.605570E-07
        10  19  1.301988E+06  5.063336E+06  8.975682E+05 -1.495730E+06 -3.676328E+05  6.707940E+04
        10  20  1.028595E+06  3.917350E+06  6.785009E+05 -1.388754E+06 -3.186890E+05  1.357351E+05
        10  21  7.778580E+05  2.787027E+06  5.095156E+05 -1.476389E+06 -2.471609E+05  2.044991E+05
        10  22  1.907851E+04 -5.102027E+05  4.175618E+04 -1.470122E+06 -3.675024E+05 -1.823848E+04
        10  23  1.607290E+04 -5.113283E+05  3.557813E+04 -1.372775E+06 -3.181297E+05 -3.765659E+02
        10  24  2.705576E+04 -5.068068E+05  4.441134E+04 -1.470117E+06 -2.460891E+05  1.771168E+04
        10  25 -1.265326E+06 -6.052810E+06 -8.147185E+05 -1.444682E+06 -3.673780E+05 -1.028240E+05
        10  26 -9.973406E+05 -4.920262E+06 -6.075992E+05 -1.356869E+06 -3.175743E+05 -1.355624E+05
        10  27 -7.242144E+05 -3.789610E+06 -4.207113E+05 -1.463851E+06 -2.450170E+05 -1.681313E+05
        11   1  6.205013E+05  2.081695E+06  4.138339E+05 -1.478846E+06  1.977235E+05 -2.129164E+05
        11   2  3.971747E+05  9.336818E+05  2.888108E+05 -1.322366E+06  1.134582E+05 -2.625454E+05
        11   3  2.477669E+05 -1.897499E+05  2.140660E+05 -1.362087E+06  2.758170E+04 -3.121721E+05
        11   4  3.218401E+04 -5.022700E+05  5.366697E+04 -1.470487E+06  1.965526E+05 -2.544614E+04
        11   5  6.893115E+04 -5.129708E+05  8.958549E+04 -1.372030E+06  1.122068E+05 -7.158656E+04
        11   6  1.790650E+05 -5.011105E+05  1.732587E+05 -1.469696E+06  2.625789E+04 -1.178017E+05
        11   7 -5.564106E+05 -3.079400E+06 -3.064513E+05 -1.462146E+06  1.953832E+05  1.612804E+05
        11   8 -2.593741E+05 -1.957414E+06 -1.095248E+05 -1.421569E+06  1.109228E+05  1.189479E+05
        11   9  1.104235E+05 -8.122653E+05  1.325991E+05 -1.577250E+06  2.486620E+04  7.647581E+04
        11  10  6.204474E+05  2.081636E+06  4.136760E+05 -1.478812E+06 -3.513690E-09  5.439753E-08
        11  11  3.971426E+05  9.336045E+05  2.886576E+05 -1.322342E+06 -9.065782E-10  5.624740E-08
        11  12  2.477400E+05 -1.898547E+05  2.138815E+05 -1.362080E+06 -2.112551E-10  5.173739E-08
        11  13  3.214238E+04 -5.022811E+05  5.359323E+04 -1.470483E+06  1.287115E-08 -1.873063E-10
        11  14  6.891629E+04 -5.129797E+05  8.955229E+04 -1.372024E+06  8.380868E-09 -1.323511E-10
        11  15  1.790605E+05 -5.011256E+05  1.732313E+05 -1.469694E+06  1.549918E-09 -3.058263E-11
        11  16 -5.564587E+05 -3.079438E+06 -3.065724E+05 -1.462172E+06 -5.217482E-09 -5.487718E-08
        11  17 -2.593912E+05 -1.957432E+06 -1.095747E+05 -1.421580E+06 -1.657841E-09 -5.644596E-08
        11  18  1.104213E+05 -8.122718E+05  1.325869E+05 -1.577251E+06 -1.062939E-09 -5.191972E-08
        11  19  6.205013E+05  2.081695E+06  4.138339E+05 -1.478846E+06 -1.977235E+05  2.129164E+05
        11  20  3.971747E+05  9.336818E+05  2.888108E+05 -1.322366E+06 -1.134582E+05  2.625454E+05
        11  21  2.477669E+05 -1.897499E+05  2.140660E+05 -1.362087E+06 -2.758170E+04  3.121721E+05
        11  22  3.218401E+04 -5.022700E+05  5.366697E+04 -1.470487E+06 -1.965526E+05  2.544614E+04
        11  23  6.893115E+04 -5.129708E+05  8.958549E+04 -1.372030E+06 -1.122068E+05  7.158656E+04
        11  24  1.790650E+05 -5.011105E+05  1.732587E+05 -1.469696E+06 -2.625789E+04  1.178017E+05
        11  25 -5.564106E+05 -3.079400E+06 -3.064513E+05 -1.462146E+06 -1.953832E+05 -1.612804E+05
        11  26 -2.593741E+05 -1.957414E+06 -1.095248E+05 -1.421569E+06 -1.109228E+05 -1.189479E+05
        11  27  1.104235E+05 -8.122653E+05  1.325991E+05 -1.577250E+06 -2.486620E+04 -7.647581E+04
        12   1 -6.168536E+06 -1.834993E+06 -1.203264E+06 -2.140568E+06 -6.991606E+05 -2.586896E+05
        12   2 -5.954144E+06 -7.928341E+05 -5.413932E+05 -2.303192E+06 -4.501415E+05 -1.597081E+05
        12   3 -6.141285E+06 -8.600139E+05 -3.616175E+05 -2.228272E+06 -1.984286E+05 -6.788980E+04
        12   4 -5.910345E+06 -1.586165E+06 -1.101771E+06 -1.915316E+06 -6.968594E+05 -2.580432E+05
        12   5 -5.653551E+06 -6.393313E+05 -4.516183E+05 -2.180617E+06 -4.498562E+05 -1.596382E+05
        12   6 -5.797676E+06 -8.011628E+05 -2.817813E+05 -2.208450E+06 -2.001398E+05 -6.850132E+04
        12   7 -5.652031E+06 -1.337158E+06 -1.000276E+06 -1.689942E+06 -6.945571E+05 -2.573949E+05
        12   8 -5.352864E+06 -4.857982E+05 -3.618522E+05 -2.057981E+06 -4.495706E+05 -1.595682E+05
        12   9 -5.453942E+06 -7.423117E+05 -2.019494E+05 -2.188628E+06 -2.018520E+05 -6.911273E+04
        12  10 -6.169084E+06 -1.835199E+06 -1.204320E+06 -2.140715E+06 -1.100755E-09  4.203137E-10
        12  11 -5.954371E+06 -7.929169E+05 -5.418268E+05 -2.303250E+06  5.808062E-09  8.025155E-10
        12  12 -6.141329E+06 -8.600296E+05 -3.617011E+05 -2.228283E+06  5.537871E-09  1.092119E-09
        12  13 -5.910889E+06 -1.586369E+06 -1.102820E+06 -1.915461E+06  2.114058E-09  3.214986E-10
        12  14 -5.653777E+06 -6.394139E+05 -4.520510E+05 -2.180675E+06  6.805540E-10  4.846994E-10
        12  15 -5.797721E+06 -8.011788E+05 -2.818663E+05 -2.208461E+06  6.710336E-10  1.185327E-09
        12  16 -5.652571E+06 -1.337361E+06 -1.001318E+06 -1.690087E+06  7.899370E-10  2.788794E-10
        12  17 -5.353090E+06 -4.858807E+05 -3.622842E+05 -2.058039E+06 -3.497981E-09  7.071269E-10
        12  18 -5.453988E+06 -7.423279E+05 -2.020359E+05 -2.188640E+06 -1.548290E-10  1.399114E-09
        12  19 -6.168536E+06 -1.834993E+06 -1.203264E+06 -2.140568E+06  6.991606E+05  2.586896E+05
        12  20 -5.954144E+06 -7.928341E+05 -5.413932E+05 -2.303192E+06  4.501415E+05  1.597081E+05
        12  21 -6.141285E+06 -8.600139E+05 -3.616175E+05 -2.228272E+06  1.984286E+05  6.788980E+04
        12  22 -5.910345E+06 -1.586165E+06 -1.101771E+06 -1.915316E+06  6.968594E+05  2.580432E+05
        12  23 -5.653551E+06 -6.393313E+05 -4.516183E+05 -2.180617E+06  4.498562E+05  1.596382E+05
        12  24 -5.797676E+06 -8.011628E+05 -2.817813E+05 -2.208450E+06  2.001398E+05  6.850132E+04
        12  25 -5.652031E+06 -1.337158E+06 -1.000276E+06 -1.689942E+06  6.945571E+05  2.573949E+05
        12  26 -5.352864E+06 -4.857982E+05 -3.618522E+05 -2.057981E+06  4.495706E+05  1.595682E+05
        12  27 -5.453942E+06 -7.423117E+05 -2.019494E+05 -2.188628E+06  2.018520E+05  6.911273E+04
        13   1 -5.904693E+06 -1.003907E+06 -2.749435E+05 -2.200818E+06 -1.575151E+05 -5.491172E+04
        13   2 -5.849364E+06 -8.235861E+05 -1.358444E+05 -2.185728E+06 -1.007893E+05 -3.494574E+04
        13   3 -5.808994E+06 -8.375309E+05 -7.901619E+04 -2.188509E+06 -4.369054E+04 -1.595786E+04
        13   4 -5.758980E+06 -9.294471E+05 -2.313642E+05 -2.141334E+06 -1.577100E+05 -5.499089E+04
        13   5 -5.743865E+06 -7.789786E+05 -1.061394E+05 -2.152253E+06 -1.012559E+05 -3.512107E+04
        13   6 -5.743641E+06 -8.227038E+05 -6.295080E+04 -2.181046E+06 -4.443273E+04 -1.623416E+04
        13   7 -5.613246E+06 -8.549800E+05 -1.877870E+05 -2.081836E+06 -1.579050E+05 -5.507009E+04
        13   8 -5.638355E+06 -7.343697E+05 -7.643551E+04 -2.118773E+06 -1.017225E+05 -3.529644E+04
        13   9 -5.678283E+06 -8.078768E+05 -4.688570E+04 -2.173582E+06 -4.517500E+04 -1.651047E+04
        13  10 -5.904720E+06 -1.003917E+06 -2.749963E+05 -2.200825E+06  5.598445E-09  2.917502E-09
        13  11 -5.849376E+06 -8.235902E+05 -1.358660E+05 -2.185731E+06 -1.219058E-09  3.956104E-10
        13  12 -5.808996E+06 -8.375317E+05 -7.902030E+04 -2.188510E+06 -2.838086E-09 -1.949925E-09
        13  13 -5.759008E+06 -9.294571E+05 -2.314171E+05 -2.141341E+06  4.338889E-09  1.896939E-09
        13  14 -5.743877E+06 -7.789827E+05 -1.061612E+05 -2.152256E+06 -3.930197E-09  1.516847E-09
        13  15 -5.743643E+06 -8.227046E+05 -6.295505E+04 -2.181046E+06 -2.130647E-09 -3.130157E-11
        13  16 -5.613274E+06 -8.549900E+05 -1.878401E+05 -2.081843E+06 -1.438556E-09  1.150754E-09
        13  17 -5.638367E+06 -7.343739E+05 -7.645752E+04 -2.118775E+06  1.471365E-09  4.956362E-10
        13  18 -5.678285E+06 -8.078776E+05 -4.689009E+04 -2.173582E+06 -2.670949E-09 -1.271865E-09
        13  19 -5.904693E+06 -1.003907E+06 -2.749435E+05 -2.200818E+06  1.575151E+05  5.491172E+04
        13  20 -5.849364E+06 -8.235861E+05 -1.358444E+05 -2.185728E+06  1.007893E+05  3.494574E+04
        13  21 -5.808994E+06 -8.375309E+05 -7.901619E+04 -2.188509E+06  4.369054E+04  1.595786E+04
        13  22 -5.758980E+06 -9.294471E+05 -2.313642E+05 -2.141334E+06  1.577100E+05  5.499089E+04
        13  23 -5.743865E+06 -7.789786E+05 -1.061394E+05 -2.152253E+06  1.012559E+05  3.512107E+04
        13  24 -5.743641E+06 -8.227038E+05 -6.295080E+04 -2.181046E+06  4.443273E+04  1.623416E+04
        13  25 -5.613246E+06 -8.549800E+05 -1.877870E+05 -2.081836E+06  1.579050E+05  5.507009E+04
        13  26 -5.638355E+06 -7.343697E+05 -7.643551E+04 -2.118773E+06  1.017225E+05  3.529644E+04
        13  27 -5.678283E+06 -8.078768E+05 -4.688570E+04 -2.173582E+06  4.517500E+04  1.651047E+04
        14   1 -5.644718E+06 -8.063507E+05 -2.467266E+04 -2.148322E+06 -3.411932E+04 -1.393841E+04
        14   2 -5.613946E+06 -7.457458E+05  1.388482E+04 -2.111504E+06 -2.068728E+04 -1.110329E+04
        14   3 -5.545740E+06 -7.517003E+05  3.748796E+04 -2.123449E+06 -7.306063E+03 -8.126005E+03
        14   4 -5.738376E+06 -8.393149E+05 -4.992652E+04 -2.171141E+06 -3.468971E+04 -1.415162E+04
        14   5 -5.756051E+06 -7.988751E+05 -2.477264E+04 -2.149414E+06 -2.121837E+04 -1.130184E+04
        14   6 -5.736300E+06 -8.250056E+05 -1.460483E+04 -2.176452E+06 -7.798975E+03 -8.310384E+03
        14   7 -5.832027E+06 -8.722791E+05 -7.518125E+04 -2.193957E+06 -3.526001E+04 -1.436480E+04
        14   8 -5.898137E+06 -8.520035E+05 -6.343204E+04 -2.187316E+06 -2.174934E+04 -1.150034E+04
        14   9 -5.926826E+06 -8.983087E+05 -6.670105E+04 -2.229439E+06 -8.291720E+03 -8.494697E+03
        14  10 -5.644719E+06 -8.063512E+05 -2.467524E+04 -2.148322E+06 -1.194796E-10 -2.981231E-09
        14  11 -5.613947E+06 -7.457461E+05  1.388378E+04 -2.111504E+06 -8.614683E-09 -1.520730E-09
        14  12 -5.545740E+06 -7.517004E+05  3.748773E+04 -2.123450E+06 -3.462068E-09  3.951383E-10
        14  13 -5.738378E+06 -8.393155E+05 -4.992919E+04 -2.171141E+06 -3.200601E-10 -4.974545E-11
        14  14 -5.756052E+06 -7.988754E+05 -2.477374E+04 -2.149414E+06 -1.363914E-09  1.536529E-09
        14  15 -5.736300E+06 -8.250057E+05 -1.460508E+04 -2.176452E+06 -3.003252E-09 -2.650465E-10
        14  16 -5.832028E+06 -8.722796E+05 -7.518400E+04 -2.193958E+06 -9.984811E-10 -2.042594E-09
        14  17 -5.898138E+06 -8.520038E+05 -6.343319E+04 -2.187316E+06  7.432247E-10 -3.196762E-09
        14  18 -5.926826E+06 -8.983088E+05 -6.670132E+04 -2.229439E+06  1.473318E-09 -1.283383E-09
        14  19 -5.644718E+06 -8.063507E+05 -2.467266E+04 -2.148322E+06  3.411932E+04  1.393841E+04
        14  20 -5.613946E+06 -7.457458E+05  1.388482E+04 -2.111504E+06  2.068728E+04  1.110329E+04
        14  21 -5.545740E+06 -7.517003E+05  3.748796E+04 -2.123449E+06  7.306063E+03  8.126005E+03
        14  22 -5.738376E+06 -8.393149E+05 -4.992652E+04 -2.171141E+06  3.468971E+04  1.415162E+04
        14  23 -5.756051E+06 -7.988751E+05 -2.477264E+04 -2.149414E+06  2.121837E+04  1.130184E+04
        14  24 -5.736300E+06 -8.250056E+05 -1.460483E+04 -2.176452E+06  7.798975E+03  8.310384E+03
        14  25 -5.832027E+06 -8.722791E+05 -7.518125E+04 -2.193957E+06  3.526001E+04  1.436480E+04
        14  26 -5.898137E+06 -8.520035E+05 -6.343204E+04 -2.187316E+06  2.174934E+04  1.150034E+04
        14  27 -5.926826E+06 -8.983087E+05 -6.670105E+04 -2.229439E+06  8.291720E+03  8.494697E+03
        15   1 -5.420027E+06 -7.041697E+05  7.538204E+04 -2.085808E+06 -4.707895E+03 -8.368282E+03
        15   2 -5.400815E+06 -6.718117E+05  8.949147E+04 -2.057668E+06 -7.772132E+02 -8.732915E+03
        15   3 -5.349712E+06 -6.754085E+05  1.004005E+05 -2.066602E+06  2.945128E+03 -8.535503E+03
        15   4 -5.738394E+06 -8.241200E+05 -1.157451E+04 -2.171659E+06 -5.252897E+03 -8.572399E+03
        15   5 -5.754205E+06 -8.053400E+05 -6.904053E+03 -2.153412E+06 -1.161087E+03 -8.877044E+03
        15   6 -5.738160E+06 -8.225494E+05 -5.563795E+03 -2.172240E+06  2.722126E+03 -8.619563E+03
        15   7 -6.056662E+06 -9.440643E+05 -9.854000E+04 -2.257470E+06 -5.797585E+03 -8.776399E+03
        15   8 -6.107474E+06 -9.388610E+05 -1.033108E+05 -2.249105E+06 -1.544717E+03 -9.021082E+03
        15   9 -6.126461E+06 -9.696816E+05 -1.115419E+05 -2.277817E+06  2.499278E+03 -8.703566E+03
        15  10 -5.420028E+06 -7.041698E+05  7.538186E+04 -2.085808E+06 -1.716263E-09  1.180234E-09
        15  11 -5.400815E+06 -6.718118E+05  8.949133E+04 -2.057668E+06  1.099803E-10 -7.530267E-10
        15  12 -5.349712E+06 -6.754086E+05  1.004003E+05 -2.066602E+06  3.562662E-09  1.107189E-09
        15  13 -5.738394E+06 -8.241200E+05 -1.157470E+04 -2.171659E+06  6.437462E-10 -5.920483E-10
        15  14 -5.754205E+06 -8.053401E+05 -6.904204E+03 -2.153412E+06  6.141494E-10 -1.361409E-09
        15  15 -5.738160E+06 -8.225494E+05 -5.563948E+03 -2.172240E+06  2.786772E-10 -2.411803E-10
        15  16 -6.056662E+06 -9.440644E+05 -9.854021E+04 -2.257470E+06 -4.697844E-10 -6.354530E-10
        15  17 -6.107474E+06 -9.388611E+05 -1.033110E+05 -2.249106E+06 -1.895420E-09  2.582698E-10
        15  18 -6.126461E+06 -9.696817E+05 -1.115420E+05 -2.277817E+06 -2.967584E-09 -7.098348E-10
        15  19 -5.420027E+06 -7.041697E+05  7.538204E+04 -2.085808E+06  4.707895E+03  8.368282E+03
        15  20 -5.400815E+06 -6.718117E+05  8.949147E+04 -2.057668E+06  7.772132E+02  8.732915E+03
        15  21 -5.349712E+06 -6.754085E+05  1.004005E+05 -2.066602E+06 -2.945128E+03  8.535503E+03
        15  22 -5.738394E+06 -8.241200E+05 -1.157451E+04 -2.171659E+06  5.252897E+03  8.572399E+03
        15  23 -5.754205E+06 -8.053400E+05 -6.904053E+03 -2.153412E+06  1.161087E+03  8.877044E+03
        15  24 -5.738160E+06 -8.225494E+05 -5.563795E+03 -2.172240E+06 -2.722126E+03  8.619563E+03
        15  25 -6.056662E+06 -9.440643E+05 -9.854000E+04 -2.257470E+06  5.797585E+03  8.776399E+03
        15  26 -6.107474E+06 -9.388610E+05 -1.033108E+05 -2.249105E+06  1.544717E+03  9.021082E+03
        15  27 -6.126461E+06 -9.696816E+05 -1.115419E+05 -2.277817E+06 -2.499278E+03  8.703566E+03
        16   1 -5.285192E+06 -6.444156E+05  1.194852E+05 -2.042392E+06  4.186559E+03 -8.725915E+03
        16   2 -5.279323E+06 -6.340229E+05  1.210020E+05 -2.033090E+06  7.775206E+03 -8.289709E+03
        16   3 -5.263702E+06 -6.369795E+05  1.194424E+05 -2.034879E+06  1.107928E+04 -7.094311E+03
        16   4 -5.743095E+06 -8.174896E+05 -5.540077E+03 -2.166489E+06  3.844898E+03 -8.854700E+03
        16   5 -5.748075E+06 -8.116496E+05 -6.953716E+03 -2.160624E+06  7.651174E+03 -8.336949E+03
        16   6 -5.743348E+06 -8.192044E+05 -1.161932E+04 -2.165848E+06  1.117272E+04 -7.059754E+03
        16   7 -6.200793E+06 -9.905515E+05 -1.305842E+05 -2.290504E+06  3.503518E+03 -8.983380E+03
        16   8 -6.216614E+06 -9.892636E+05 -1.349294E+05 -2.288070E+06  7.527246E+03 -8.384152E+03
        16   9 -6.222773E+06 -1.001416E+06 -1.427022E+05 -2.296726E+06  1.126607E+04 -7.025230E+03
        16  10 -5.285193E+06 -6.444156E+05  1.194850E+05 -2.042392E+06  1.639035E-09  4.703123E-10
        16  11 -5.279323E+06 -6.340230E+05  1.210017E+05 -2.033090E+06 -4.857827E-09 -4.152514E-10
        16  12 -5.263702E+06 -6.369796E+05  1.194420E+05 -2.034878E+06  1.314790E-09 -6.097810E-10
        16  13 -5.743095E+06 -8.174897E+05 -5.540252E+03 -2.166489E+06  1.504574E-11 -1.672562E-10
        16  14 -5.748075E+06 -8.116497E+05 -6.953956E+03 -2.160624E+06  4.900633E-10 -2.106063E-09
        16  15 -5.743349E+06 -8.192045E+05 -1.161965E+04 -2.165848E+06 -3.341975E-09 -6.336640E-10
        16  16 -6.200794E+06 -9.905516E+05 -1.305844E+05 -2.290504E+06 -4.467830E-09 -1.313318E-09
        16  17 -6.216614E+06 -9.892636E+05 -1.349296E+05 -2.288070E+06  2.307588E-10 -4.890685E-10
        16  18 -6.222773E+06 -1.001416E+06 -1.427025E+05 -2.296726E+06  1.095979E-09 -8.085467E-10
        16  19 -5.285192E+06 -6.444156E+05  1.194852E+05 -2.042392E+06 -4.186559E+03  8.725915E+03
        16  20 -5.279323E+06 -6.340229E+05  1.210020E+05 -2.033090E+06 -7.775206E+03  8.289709E+03
        16  21 -5.263702E+06 -6.369795E+05  1.194424E+05 -2.034879E+06 -1.107928E+04  7.094311E+03
        16  22 -5.743095E+06 -8.174896E+05 -5.540077E+03 -2.166489E+06 -3.844898E+03  8.854700E+03
        16  23 -5.748075E+06 -8.116496E+05 -6.953716E+03 -2.160624E+06 -7.651174E+03  8.336949E+03
        16  24 -5.743348E+06 -8.192044E+05 -1.161932E+04 -2.165848E+06 -1.117272E+04  7.059754E+03
        16  25 -6.200793E+06 -9.905515E+05 -1.305842E+05 -2.290504E+06 -3.503518E+03  8.983380E+03
        16  26 -6.216614E+06 -9.892636E+05 -1.349294E+05 -2.288070E+06 -7.527246E+03  8.384152E+03
        16  27 -6.222773E+06 -1.001416E+06 -1.427022E+05 -2.296726E+06 -1.126607E+04  7.025230E+03
        17   1 -5.276202E+06 -6.330016E+05  1.144533E+05 -2.033014E+06  1.333758E+04 -6.171846E+03
        17   2 -5.283034E+06 -6.422829E+05  9.975695E+04 -2.044007E+06  2.585565E+04 -1.171320E+03
        17   3 -5.313333E+06 -6.563866E+05  7.034920E+04 -2.032883E+06  3.809114E+04  4.572935E+03
        17   4 -5.749870E+06 -8.113502E+05 -1.463981E+04 -2.160714E+06  1.329590E+04 -6.188143E+03
        17   5 -5.739176E+06 -8.160822E+05 -2.494648E+04 -2.169081E+06  2.602066E+04 -1.109619E+03
        17   6 -5.751998E+06 -8.256870E+05 -5.013774E+04 -2.155329E+06  3.846311E+04  4.712934E+03
        17   7 -6.223321E+06 -9.896866E+05 -1.437532E+05 -2.288325E+06  1.325425E+04 -6.204428E+03
        17   8 -6.195117E+06 -9.898688E+05 -1.496688E+05 -2.294071E+06  2.618553E+04 -1.047972E+03
        17   9 -6.190476E+06 -9.949741E+05 -1.706422E+05 -2.277695E+06  3.883478E+04  4.852815E+03
        17  10 -5.276202E+06 -6.330017E+05  1.144529E+05 -2.033014E+06 -1.439209E-10  5.860402E-10
        17  11 -5.283035E+06 -6.422831E+05  9.975569E+04 -2.044007E+06 -6.228542E-09  9.555312E-10
        17  12 -5.313335E+06 -6.563871E+05  7.034641E+04 -2.032884E+06 -2.727638E-09 -4.585147E-11
        17  13 -5.749870E+06 -8.113503E+05 -1.464022E+04 -2.160714E+06 -1.817364E-09  2.077024E-10
        17  14 -5.739177E+06 -8.160824E+05 -2.494777E+04 -2.169081E+06  1.815776E-09  1.064681E-09
        17  15 -5.752000E+06 -8.256874E+05 -5.014059E+04 -2.155329E+06 -7.552190E-10 -6.698770E-10
        17  16 -6.223321E+06 -9.896867E+05 -1.437536E+05 -2.288325E+06 -1.325731E-09 -7.651664E-10
        17  17 -6.195117E+06 -9.898689E+05 -1.496701E+05 -2.294071E+06  5.156157E-09  8.473596E-10
        17  18 -6.190478E+06 -9.949745E+05 -1.706451E+05 -2.277695E+06 -1.523611E-09  2.575494E-09
        17  19 -5.276202E+06 -6.330016E+05  1.144533E+05 -2.033014E+06 -1.333758E+04  6.171846E+03
        17  20 -5.283034E+06 -6.422829E+05  9.975695E+04 -2.044007E+06 -2.585565E+04  1.171320E+03
        17  21 -5.313333E+06 -6.563866E+05  7.034920E+04 -2.032883E+06 -3.809114E+04 -4.572935E+03
        17  22 -5.749870E+06 -8.113502E+05 -1.463981E+04 -2.160714E+06 -1.329590E+04  6.188143E+03
        17  23 -5.739176E+06 -8.160822E+05 -2.494648E+04 -2.169081E+06 -2.602066E+04  1.109619E+03
        17  24 -5.751998E+06 -8.256870E+05 -5.013774E+04 -2.155329E+06 -3.846311E+04 -4.712934E+03
        17  25 -6.223321E+06 -9.896866E+05 -1.437532E+05 -2.288325E+06 -1.325425E+04  6.204428E+03
        17  26 -6.195117E+06 -9.898688E+05 -1.496688E+05 -2.294071E+06 -2.618553E+04  1.047972E+03
        17  27 -6.190476E+06 -9.949741E+05 -1.706422E+05 -2.277695E+06 -3.883478E+04 -4.852815E+03
        18   1 -5.395913E+06 -6.747844E+05  3.480344E+04 -2.069697E+06  4.718812E+04  8.806081E+03
        18   2 -5.403824E+06 -6.768238E+05 -1.913976E+04 -2.087271E+06  1.028418E+05  3.129416E+04
        18   3 -5.510935E+06 -7.892183E+05 -1.553105E+05 -2.026067E+06  1.582945E+05  5.429362E+04
        18   4 -5.762266E+06 -8.041389E+05 -6.325348E+04 -2.159742E+06  4.745648E+04  8.908180E+03
        18   5 -5.720532E+06 -8.023015E+05 -1.066844E+05 -2.178990E+06  1.032306E+05  3.144023E+04
        18   6 -5.778051E+06 -9.108874E+05 -2.324680E+05 -2.119449E+06  1.588088E+05  5.448222E+04
        18   7 -6.128490E+06 -9.334902E+05 -1.613223E+05 -2.249742E+06  4.772465E+04  9.010222E+03
        18   8 -6.037143E+06 -9.277710E+05 -1.942385E+05 -2.270665E+06  1.036193E+05  3.158620E+04
        18   9 -6.045097E+06 -1.032543E+06 -3.096324E+05 -2.212792E+06  1.593228E+05  5.467069E+04
        18  10 -5.395916E+06 -6.747851E+05  3.479907E+04 -2.069698E+06  1.685919E-09  1.809862E-09
        18  11 -5.403835E+06 -6.768277E+05 -1.916169E+04 -2.087273E+06 -2.785555E-09  8.347815E-10
        18  12 -5.510963E+06 -7.892283E+05 -1.553637E+05 -2.026074E+06  1.857212E-10 -2.201689E-09
        18  13 -5.762269E+06 -8.041396E+05 -6.325790E+04 -2.159743E+06 -9.401607E-10 -2.036083E-09
        18  14 -5.720544E+06 -8.023054E+05 -1.067066E+05 -2.178992E+06  7.266379E-09 -8.590116E-10
        18  15 -5.778079E+06 -9.108975E+05 -2.325215E+05 -2.119456E+06  1.544837E-09 -1.441783E-09
        18  16 -6.128493E+06 -9.334909E+05 -1.613267E+05 -2.249742E+06 -2.798990E-09 -1.957380E-11
        18  17 -6.037155E+06 -9.277750E+05 -1.942608E+05 -2.270668E+06 -9.352229E-10  1.652536E-10
        18  18 -6.045125E+06 -1.032553E+06 -3.096863E+05 -2.212799E+06 -2.264782E-09  1.691219E-09
        18  19 -5.395913E+06 -6.747844E+05  3.480344E+04 -2.069697E+06 -4.718812E+04 -8.806081E+03
        18  20 -5.403824E+06 -6.768238E+05 -1.913976E+04 -2.087271E+06 -1.028418E+05 -3.129416E+04
        18  21 -5.510935E+06 -7.892183E+05 -1.553105E+05 -2.026067E+06 -1.582945E+05 -5.429362E+04
        18  22 -5.762266E+06 -8.041389E+05 -6.325348E+04 -2.159742E+06 -4.745648E+04 -8.908180E+03
        18  23 -5.720532E+06 -8.023015E+05 -1.066844E+05 -2.178990E+06 -1.032306E+05 -3.144023E+04
        18  24 -5.778051E+06 -9.108874E+05 -2.324680E+05 -2.119449E+06 -1.588088E+05 -5.448222E+04
        18  25 -6.128490E+06 -9.334902E+05 -1.613223E+05 -2.249742E+06 -4.772465E+04 -9.010222E+03
        18  26 -6.037143E+06 -9.277710E+05 -1.942385E+05 -2.270665E+06 -1.036193E+05 -3.158620E+04
        18  27 -6.045097E+06 -1.032543E+06 -3.096324E+05 -2.212792E+06 -1.593228E+05 -5.467069E+04
        19   1 -5.615876E+06 -7.788085E+05 -2.428532E+05 -2.206328E+06  1.995874E+05  7.130190E+04
        19   2 -5.561852E+06 -5.954396E+05 -4.272316E+05 -2.147541E+06  4.486643E+05  1.680915E+05
        19   3 -5.997092E+06 -1.440176E+06 -1.094415E+06 -1.752522E+06  6.977769E+05  2.647593E+05
        19   4 -5.816257E+06 -7.829022E+05 -2.831863E+05 -2.187938E+06  2.001387E+05  7.154015E+04
        19   5 -5.629478E+06 -6.618899E+05 -4.537908E+05 -2.207361E+06  4.491383E+05  1.682344E+05
        19   6 -5.932035E+06 -1.569077E+06 -1.107166E+06 -1.890489E+06  6.982335E+05  2.647151E+05
        19   7 -6.016588E+06 -7.869861E+05 -3.235181E+05 -2.169559E+06  2.006898E+05  7.177848E+04
        19   8 -5.697094E+06 -7.283272E+05 -4.803498E+05 -2.267172E+06  4.496122E+05  1.683772E+05
        19   9 -5.866919E+06 -1.697867E+06 -1.119902E+06 -2.028460E+06  6.986902E+05  2.646706E+05
        19  10 -5.615921E+06 -7.788249E+05 -2.429385E+05 -2.206340E+06 -1.148117E-09 -7.883540E-10
        19  11 -5.562078E+06 -5.955250E+05 -4.276675E+05 -2.147602E+06 -5.095326E-10  3.547795E-09
        19  12 -5.997638E+06 -1.440384E+06 -1.095473E+06 -1.752672E+06  7.545972E-10  9.539208E-10
        19  13 -5.816302E+06 -7.829186E+05 -2.832722E+05 -2.187950E+06 -2.147529E-10  6.912385E-10
        19  14 -5.629704E+06 -6.619754E+05 -4.542277E+05 -2.207422E+06 -7.496100E-09  6.737944E-09
        19  15 -5.932582E+06 -1.569285E+06 -1.108225E+06 -1.890639E+06 -1.675715E-10 -1.574199E-10
        19  16 -6.016633E+06 -7.870026E+05 -3.236044E+05 -2.169570E+06  3.470845E-11  2.399988E-09
        19  17 -5.697321E+06 -7.284129E+05 -4.807877E+05 -2.267233E+06 -2.996171E-09  1.008852E-09
        19  18 -5.867466E+06 -1.698075E+06 -1.120962E+06 -2.028610E+06 -3.833649E-10  8.896373E-11
        19  19 -5.615876E+06 -7.788085E+05 -2.428532E+05 -2.206328E+06 -1.995874E+05 -7.130190E+04
        19  20 -5.561852E+06 -5.954396E+05 -4.272316E+05 -2.147541E+06 -4.486643E+05 -1.680915E+05
        19  21 -5.997092E+06 -1.440176E+06 -1.094415E+06 -1.752522E+06 -6.977769E+05 -2.647593E+05
        19  22 -5.816257E+06 -7.829022E+05 -2.831863E+05 -2.187938E+06 -2.001387E+05 -7.154015E+04
        19  23 -5.629478E+06 -6.618899E+05 -4.537908E+05 -2.207361E+06 -4.491383E+05 -1.682344E+05
        19  24 -5.932035E+06 -1.569077E+06 -1.107166E+06 -1.890489E+06 -6.982335E+05 -2.647151E+05
        19  25 -6.016588E+06 -7.869861E+05 -3.235181E+05 -2.169559E+06 -2.006898E+05 -7.177848E+04
        19  26 -5.697094E+06 -7.283272E+05 -4.803498E+05 -2.267172E+06 -4.496122E+05 -1.683772E+05
        19  27 -5.866919E+06 -1.697867E+06 -1.119902E+06 -2.028460E+06 -6.986902E+05 -2.646706E+05
        20   1 -2.443329E+06  1.422767E+04  1.854861E+04  1.645736E+03  1.263899E+04  3.363099E-02
        20   2 -2.446156E+06 -3.262189E+03  7.920703E+03  4.204031E+02  8.314187E+03  5.651375E-03
        20   3 -2.443348E+06 -4.919018E+02  5.181808E+03 -8.049064E+02  3.989441E+03 -5.191865E-03
        20   4 -2.443329E+06  1.422766E+04  1.854861E+04  1.435646E-08  1.263899E+04  1.413389E-10
        20   5 -2.446156E+06 -3.262189E+03  7.920703E+03 -9.536092E-08  8.314187E+03  7.647952E-10
        20   6 -2.443348E+06 -4.919030E+02  5.181807E+03 -3.509044E-08  3.989441E+03  4.720157E-10
        20   7 -2.443329E+06  1.422767E+04  1.854861E+04 -1.645736E+03  1.263899E+04 -3.363099E-02
        20   8 -2.446156E+06 -3.262189E+03  7.920703E+03 -4.204031E+02  8.314187E+03 -5.651373E-03
        20   9 -2.443348E+06 -4.919018E+02  5.181808E+03  8.049064E+02  3.989441E+03  5.191867E-03
        20  10 -2.443329E+06  1.422762E+04  1.854831E+04  1.645736E+03 -2.439602E-09  4.484970E-10
        20  11 -2.446156E+06 -3.262207E+03  7.920573E+03  4.204031E+02 -7.749982E-10 -6.780855E-11
        20  12 -2.443348E+06 -4.919061E+02  5.181778E+03 -8.049064E+02  8.004436E-10  1.189826E-10
        20  13 -2.443329E+06  1.422762E+04  1.854831E+04  3.157009E-08  2.212262E-10  3.621590E-10
        20  14 -2.446156E+06 -3.262208E+03  7.920573E+03  3.374461E-08 -3.227761E-09  8.197928E-10
        20  15 -2.443348E+06 -4.919073E+02  5.181777E+03  1.009150E-08 -3.856902E-09  1.023712E-10
        20  16 -2.443329E+06  1.422762E+04  1.854831E+04 -1.645736E+03  2.131507E-09 -5.332097E-10
        20  17 -2.446156E+06 -3.262207E+03  7.920573E+03 -4.204031E+02  3.424592E-09  7.716973E-10
        20  18 -2.443348E+06 -4.919061E+02  5.181778E+03  8.049064E+02  7.549506E-10  6.955553E-10
        20  19 -2.443329E+06  1.422767E+04  1.854861E+04  1.645736E+03 -1.263899E+04 -3.363099E-02
        20  20 -2.446156E+06 -3.262189E+03  7.920703E+03  4.204031E+02 -8.314187E+03 -5.651373E-03
        20  21 -2.443348E+06 -4.919018E+02  5.181808E+03 -8.049064E+02 -3.989441E+03  5.191867E-03
        20  22 -2.443329E+06  1.422766E+04  1.854861E+04  6.601203E-08 -1.263899E+04  4.643295E-10
        20  23 -2.446156E+06 -3.262189E+03  7.920703E+03  1.112109E-07 -8.314187E+03  4.646581E-10
        20  24 -2.443348E+06 -4.919030E+02  5.181807E+03  6.819277E-08 -3.989441E+03 -3.524840E-10
        20  25 -2.443329E+06  1.422767E+04  1.854861E+04 -1.645736E+03 -1.263899E+04  3.363099E-02
        20  26 -2.446156E+06 -3.262189E+03  7.920703E+03 -4.204031E+02 -8.314187E+03  5.651372E-03
        20  27 -2.443348E+06 -4.919018E+02  5.181808E+03  8.049064E+02 -3.989441E+03 -5.191870E-03
        21   1 -2.444395E+06  2.129856E+03  4.282213E+03  2.346904E+02  3.136529E+03  1.190177E-03
        21   2 -2.444847E+06 -4.892143E+02  2.037101E+03  5.569024E+01  2.068952E+03  1.862948E-04
        21   3 -2.444399E+06 -7.267209E+01  1.248011E+03 -1.233125E+02  1.001361E+03 -1.996456E-04
        21   4 -2.444395E+06  2.129856E+03  4.282213E+03  7.788841E-08  3.136529E+03 -7.734844E-11
        21   5 -2.444847E+06 -4.892143E+02  2.037101E+03 -2.149607E-09  2.068952E+03  2.058182E-10
        21   6 -2.444399E+06 -7.267212E+01  1.248011E+03 -6.496781E-08  1.001361E+03  7.988299E-10
        21   7 -2.444395E+06  2.129856E+03  4.282213E+03 -2.346904E+02  3.136529E+03 -1.190178E-03
        21   8 -2.444847E+06 -4.892143E+02  2.037101E+03 -5.569024E+01  2.068952E+03 -1.862932E-04
        21   9 -2.444399E+06 -7.267209E+01  1.248011E+03  1.233125E+02  1.001361E+03  1.996473E-04
        21  10 -2.444395E+06  2.129853E+03  4.282194E+03  2.346904E+02  1.566690E-09 -7.494373E-10
        21  11 -2.444847E+06 -4.892155E+02  2.037093E+03  5.569024E+01  8.125607E-10  7.815216E-10
        21  12 -2.444399E+06 -7.267236E+01  1.248009E+03 -1.233125E+02 -3.122201E-09  8.136837E-10
        21  13 -2.444395E+06  2.129853E+03  4.282194E+03  9.022124E-09 -1.676149E-09 -3.422606E-10
        21  14 -2.444847E+06 -4.892155E+02  2.037093E+03 -2.796570E-08  3.419466E-09  1.049360E-10
        21  15 -2.444399E+06 -7.267239E+01  1.248009E+03  3.402922E-08 -2.970679E-09  8.310342E-10
        21  16 -2.444395E+06  2.129853E+03  4.282194E+03 -2.346904E+02  5.347574E-10 -2.038230E-10
        21  17 -2.444847E+06 -4.892155E+02  2.037093E+03 -5.569024E+01 -4.316614E-09  5.076992E-10
        21  18 -2.444399E+06 -7.267236E+01  1.248009E+03  1.233125E+02  1.788079E-09  9.040920E-10
        21  19 -2.444395E+06  2.129856E+03  4.282213E+03  2.346904E+02 -3.136529E+03 -1.190175E-03
        21  20 -2.444847E+06 -4.892143E+02  2.037101E+03  5.569024E+01 -2.068952E+03 -1.862912E-04
        21  21 -2.444399E+06 -7.267209E+01  1.248011E+03 -1.233125E+02 -1.001361E+03  1.996501E-04
        21  22 -2.444395E+06  2.129856E+03  4.282213E+03  4.344346E-08 -3.136529E+03 -6.901063E-10
        21  23 -2.444847E+06 -4.892143E+02  2.037101E+03 -1.054282E-07 -2.068952E+03  9.048239E-11
        21  24 -2.444399E+06 -7.267212E+01  1.248011E+03  2.113245E-08 -1.001361E+03  9.465251E-10
        21  25 -2.444395E+06  2.129856E+03  4.282213E+03 -2.346904E+02 -3.136529E+03  1.190177E-03
        21  26 -2.444847E+06 -4.892143E+02  2.037101E+03 -5.569024E+01 -2.068952E+03  1.862910E-04
        21  27 -2.444399E+06 -7.267209E+01  1.248011E+03  1.233125E+02 -1.001361E+03 -1.996472E-04
        22   1 -2.444566E+06  3.171484E+02  9.857556E+02  3.153772E+01  7.998197E+02  4.078331E-05
        22   2 -2.444638E+06 -7.161957E+01  4.675972E+02  6.279638E+00  5.599644E+02  5.685090E-06
        22   3 -2.444567E+06 -1.651123E+01  2.170271E+02 -1.897845E+01  3.201091E+02 -9.819517E-06
        22   4 -2.444566E+06  3.171484E+02  9.857556E+02  1.316711E-08  7.998197E+02  2.694649E-10
        22   5 -2.444638E+06 -7.161957E+01  4.675972E+02  7.248050E-08  5.599644E+02 -2.006953E-10
        22   6 -2.444567E+06 -1.651123E+01  2.170271E+02  1.253369E-07  3.201091E+02  3.713363E-11
        22   7 -2.444566E+06  3.171484E+02  9.857556E+02 -3.153772E+01  7.998197E+02 -4.078430E-05
        22   8 -2.444638E+06 -7.161957E+01  4.675972E+02 -6.279638E+00  5.599644E+02 -5.686950E-06
        22   9 -2.444567E+06 -1.651123E+01  2.170271E+02  1.897845E+01  3.201091E+02  9.821040E-06
        22  10 -2.444566E+06  3.171482E+02  9.857544E+02  3.153772E+01 -1.808877E-09 -1.150974E-10
        22  11 -2.444638E+06 -7.161965E+01  4.675966E+02  6.279638E+00 -3.765696E-09 -1.331889E-09
        22  12 -2.444567E+06 -1.651126E+01  2.170269E+02 -1.897845E+01 -1.204766E-09  2.275992E-10
        22  13 -2.444566E+06  3.171482E+02  9.857544E+02  1.314140E-08 -1.007674E-10  3.872434E-10
        22  14 -2.444638E+06 -7.161965E+01  4.675966E+02  2.944715E-08  3.890762E-09 -5.961826E-10
        22  15 -2.444567E+06 -1.651126E+01  2.170269E+02  5.865443E-08 -3.866280E-09  4.551456E-10
        22  16 -2.444566E+06  3.171482E+02  9.857544E+02 -3.153772E+01  2.757492E-09  2.158828E-10
        22  17 -2.444638E+06 -7.161965E+01  4.675966E+02 -6.279638E+00 -5.396360E-09 -9.987740E-10
        22  18 -2.444567E+06 -1.651126E+01  2.170269E+02  1.897845E+01 -1.582366E-09  1.417968E-10
        22  19 -2.444566E+06  3.171484E+02  9.857556E+02  3.153772E+01 -7.998197E+02 -4.078476E-05
        22  20 -2.444638E+06 -7.161957E+01  4.675972E+02  6.279638E+00 -5.599644E+02 -5.682029E-06
        22  21 -2.444567E+06 -1.651123E+01  2.170271E+02 -1.897845E+01 -3.201091E+02  9.823415E-06
        22  22 -2.444566E+06  3.171484E+02  9.857556E+02  6.476368E-08 -7.998197E+02  3.970562E-10
        22  23 -2.444638E+06 -7.161957E+01  4.675972E+02  3.805393E-08 -5.599644E+02 -1.491593E-09
        22  24 -2.444567E+06 -1.651123E+01  2.170271E+02  5.868014E-08 -3.201091E+02  5.538768E-10
        22  25 -2.444566E+06  3.171484E+02  9.857556E+02 -3.153772E+01 -7.998197E+02  4.078350E-05
        22  26 -2.444638E+06 -7.161957E+01  4.675972E+02 -6.279638E+00 -5.599644E+02  5.680776E-06
        22  27 -2.444567E+06 -1.651123E+01  2.170271E+02  1.897845E+01 -3.201091E+02 -9.822515E-06
        23   1 -2.444600E+06  4.788646E+01  1.195954E+02  8.746263E-01  2.897274E+02  4.106817E-07
        23   2 -2.444598E+06 -4.090548E-01 -8.420302E+01  2.443452E-01  3.312192E+02  1.321791E-07
        23   3 -2.444600E+06 -4.589594E+01 -3.143936E+02 -3.859265E-01  3.727103E+02 -2.310447E-07
        23   4 -2.444600E+06  4.788646E+01  1.195954E+02  1.008998E-07  2.897274E+02  8.122345E-10
        23   5 -2.444598E+06 -4.090548E-01 -8.420302E+01 -1.169820E-08  3.312192E+02 -5.702822E-11
        23   6 -2.444600E+06 -4.589594E+01 -3.143936E+02  8.226957E-08  3.727103E+02 -1.165157E-09
        23   7 -2.444600E+06  4.788646E+01  1.195954E+02 -8.746262E-01  2.897274E+02 -4.109903E-07
        23   8 -2.444598E+06 -4.090548E-01 -8.420302E+01 -2.443450E-01  3.312192E+02 -1.326131E-07
        23   9 -2.444600E+06 -4.589594E+01 -3.143936E+02  3.859262E-01  3.727103E+02  2.330880E-07
        23  10 -2.444600E+06  4.788644E+01  1.195952E+02  8.746263E-01 -6.229907E-10  8.724010E-10
        23  11 -2.444598E+06 -4.090844E-01 -8.420323E+01  2.443453E-01  2.080654E-10 -3.339951E-10
        23  12 -2.444600E+06 -4.589598E+01 -3.143939E+02 -3.859266E-01  7.615818E-10 -7.113099E-10
        23  13 -2.444600E+06  4.788644E+01  1.195952E+02 -2.378883E-09 -4.755832E-10  7.589744E-10
        23  14 -2.444598E+06 -4.090844E-01 -8.420323E+01 -5.473996E-08  1.517903E-09 -2.617811E-11
        23  15 -2.444600E+06 -4.589598E+01 -3.143939E+02  2.630794E-08 -1.645257E-09 -4.209552E-10
        23  16 -2.444600E+06  4.788644E+01  1.195952E+02 -8.746263E-01  1.738122E-10  1.048296E-09
        23  17 -2.444598E+06 -4.090844E-01 -8.420323E+01 -2.443451E-01 -1.934694E-09 -5.284492E-10
        23  18 -2.444600E+06 -4.589598E+01 -3.143939E+02  3.859264E-01 -2.516169E-09  2.974083E-10
        23  19 -2.444600E+06  4.788646E+01  1.195954E+02  8.746261E-01 -2.897274E+02 -4.072616E-07
        23  20 -2.444598E+06 -4.090548E-01 -8.420302E+01  2.443454E-01 -3.312192E+02 -1.284467E-07
        23  21 -2.444600E+06 -4.589594E+01 -3.143936E+02 -3.859263E-01 -3.727103E+02  2.328566E-07
        23  22 -2.444600E+06  4.788646E+01  1.195954E+02  6.647795E-08 -2.897274E+02  8.408218E-10
        23  23 -2.444598E+06 -4.090548E-01 -8.420302E+01 -2.031600E-08 -3.312192E+02 -1.705813E-10
        23  24 -2.444600E+06 -4.589594E+01 -3.143936E+02  1.770536E-08 -3.727103E+02  4.480956E-10
        23  25 -2.444600E+06  4.788646E+01  1.195954E+02 -8.746260E-01 -2.897274E+02  4.091062E-07
        23  26 -2.444598E+06 -4.090548E-01 -8.420302E+01 -2.443453E-01 -3.312192E+02  1.309063E-07
        23  27 -2.444600E+06 -4.589594E+01 -3.143936E+02  3.859262E-01 -3.727103E+02 -2.349057E-07
        24   1 -2.444635E+06  1.596172E+01 -4.475716E+02 -1.915706E+01  4.415564E+02 -1.367714E-05
        24   2 -2.444554E+06  6.961938E+01 -8.282622E+02  3.305521E+00  8.590929E+02  4.591611E-06
        24   3 -2.444636E+06 -3.070325E+02 -1.589165E+03  2.576844E+01  1.276635E+03  5.319056E-05
        24   4 -2.444635E+06  1.596172E+01 -4.475716E+02 -2.154781E-09  4.415564E+02 -6.828545E-10
        24   5 -2.444554E+06  6.961938E+01 -8.282622E+02  2.177582E-08  8.590929E+02  1.123189E-09
        24   6 -2.444636E+06 -3.070325E+02 -1.589165E+03 -2.961274E-08  1.276635E+03  6.109885E-10
        24   7 -2.444635E+06  1.596172E+01 -4.475716E+02  1.915706E+01  4.415564E+02  1.367569E-05
        24   8 -2.444554E+06  6.961938E+01 -8.282622E+02 -3.305521E+00  8.590929E+02 -4.591600E-06
        24   9 -2.444636E+06 -3.070325E+02 -1.589165E+03 -2.576844E+01  1.276635E+03 -5.319025E-05
        24  10 -2.444635E+06  1.596167E+01 -4.475720E+02 -1.915706E+01  3.753146E-09 -4.534995E-10
        24  11 -2.444554E+06  6.961918E+01 -8.282636E+02  3.305521E+00  1.389883E-09 -7.936978E-11
        24  12 -2.444636E+06 -3.070329E+02 -1.589168E+03  2.576844E+01  1.864944E-10  3.494687E-10
        24  13 -2.444635E+06  1.596167E+01 -4.475720E+02 -7.099168E-08 -1.983879E-09 -2.236994E-10
        24  14 -2.444554E+06  6.961918E+01 -8.282636E+02 -2.125860E-08 -1.738849E-09 -2.519073E-11
        24  15 -2.444636E+06 -3.070329E+02 -1.589168E+03  1.556773E-08  3.434040E-10  3.192175E-10
        24  16 -2.444635E+06  1.596167E+01 -4.475720E+02  1.915706E+01 -1.898858E-09 -1.296565E-10
        24  17 -2.444554E+06  6.961918E+01 -8.282636E+02 -3.305521E+00 -3.066159E-09  3.527732E-10
        24  18 -2.444636E+06 -3.070329E+02 -1.589168E+03 -2.576844E+01 -1.029403E-09  3.021594E-10
        24  19 -2.444635E+06  1.596172E+01 -4.475716E+02 -1.915706E+01 -4.415564E+02  1.367860E-05
        24  20 -2.444554E+06  6.961938E+01 -8.282622E+02  3.305521E+00 -8.590929E+02 -4.590154E-06
        24  21 -2.444636E+06 -3.070325E+02 -1.589165E+03  2.576844E+01 -1.276635E+03 -5.318954E-05
        24  22 -2.444635E+06  1.596172E+01 -4.475716E+02 -8.820209E-08 -4.415564E+02  6.752847E-11
        24  23 -2.444554E+06  6.961938E+01 -8.282622E+02 -5.568572E-08 -8.590929E+02 -1.024799E-09
        24  24 -2.444636E+06 -3.070325E+02 -1.589165E+03 -3.177979E-08 -1.276635E+03  5.166355E-11
        24  25 -2.444635E+06  1.596172E+01 -4.475716E+02  1.915706E+01 -4.415564E+02 -1.367991E-05
        24  26 -2.444554E+06  6.961938E+01 -8.282622E+02 -3.305521E+00 -8.590929E+02  4.590156E-06
        24  27 -2.444636E+06 -3.070325E+02 -1.589165E+03 -2.576844E+01 -1.276635E+03  5.318586E-05
        25   1 -2.444815E+06  6.823021E+01 -2.040376E+03 -1.249247E+02  1.604388E+03 -3.240585E-04
        25   2 -2.444332E+06  4.797906E+02 -3.413639E+03  4.270988E+01  3.349935E+03  2.313290E-04
        25   3 -2.444820E+06 -2.081353E+03 -6.669854E+03  2.103446E+02  5.095480E+03  1.732941E-03
        25   4 -2.444815E+06  6.823018E+01 -2.040376E+03  1.573179E-08  1.604388E+03  3.702959E-11
        25   5 -2.444332E+06  4.797906E+02 -3.413639E+03  3.253261E-08  3.349935E+03 -1.951643E-10
        25   6 -2.444820E+06 -2.081353E+03 -6.669854E+03 -1.602146E-10  5.095480E+03 -1.017086E-10
        25   7 -2.444815E+06  6.823021E+01 -2.040376E+03  1.249247E+02  1.604388E+03  3.240594E-04
        25   8 -2.444332E+06  4.797906E+02 -3.413639E+03 -4.270988E+01  3.349935E+03 -2.313306E-04
        25   9 -2.444820E+06 -2.081353E+03 -6.669854E+03 -2.103446E+02  5.095480E+03 -1.732940E-03
        25  10 -2.444815E+06  6.822951E+01 -2.040381E+03 -1.249247E+02  1.540977E-10  3.848926E-10
        25  11 -2.444332E+06  4.797876E+02 -3.413660E+03  4.270988E+01 -6.240225E-10 -1.866015E-10
        25  12 -2.444820E+06 -2.081360E+03 -6.669903E+03  2.103446E+02 -5.494764E-10 -5.249950E-11
        25  13 -2.444815E+06  6.822949E+01 -2.040381E+03 -1.487023E-09 -1.743572E-09  1.987848E-10
        25  14 -2.444332E+06  4.797876E+02 -3.413660E+03  5.834984E-08 -4.418380E-10 -1.071957E-10
        25  15 -2.444820E+06 -2.081360E+03 -6.669903E+03 -4.534911E-08  6.940771E-10 -5.337574E-11
        25  16 -2.444815E+06  6.822951E+01 -2.040381E+03  1.249247E+02  4.846249E-10 -2.573463E-10
        25  17 -2.444332E+06  4.797876E+02 -3.413660E+03 -4.270988E+01  4.317890E-10 -5.166283E-10
        25  18 -2.444820E+06 -2.081360E+03 -6.669903E+03 -2.103446E+02  3.707080E-10 -2.009901E-10
        25  19 -2.444815E+06  6.823021E+01 -2.040376E+03 -1.249247E+02 -1.604388E+03  3.240608E-04
        25  20 -2.444332E+06  4.797906E+02 -3.413639E+03  4.270988E+01 -3.349935E+03 -2.313271E-04
        25  21 -2.444820E+06 -2.081353E+03 -6.669854E+03  2.103446E+02 -5.095480E+03 -1.732940E-03
        25  22 -2.444815E+06  6.823018E+01 -2.040376E+03 -1.870794E-08 -1.604388E+03  1.768148E-10
        25  23 -2.444332E+06  4.797906E+02 -3.413639E+03  2.392215E-08 -3.349935E+03  7.396879E-11
        25  24 -2.444820E+06 -2.081353E+03 -6.669854E+03  3.212244E-08 -5.095480E+03 -8.006224E-11
        25  25 -2.444815E+06  6.823021E+01 -2.040376E+03  1.249247E+02 -1.604388E+03 -3.240606E-04
        25  26 -2.444332E+06  4.797906E+02 -3.413639E+03 -4.270988E+01 -3.349935E+03  2.313283E-04
        25  27 -2.444820E+06 -2.081353E+03 -6.669854E+03 -2.103446E+02 -5.095480E+03  1.732940E-03
        26   1 -2.445913E+06  4.717635E+02 -8.343919E+03 -8.090531E+02  6.450136E+03 -8.437496E-03
        26   2 -2.442969E+06  3.213043E+03 -1.345737E+04  3.661479E+02  1.350067E+04  7.992409E-03
        26   3 -2.445935E+06 -1.398247E+04 -2.815859E+04  1.541331E+03  2.055108E+04  5.121501E-02
        26   4 -2.445913E+06  4.717622E+02 -8.343919E+03  4.328390E-08  6.450136E+03 -1.823879E-10
        26   5 -2.442969E+06  3.213042E+03 -1.345737E+04  4.857447E-08  1.350067E+04  2.798104E-11
        26   6 -2.445935E+06 -1.398247E+04 -2.815859E+04  5.601117E-08  2.055108E+04 -8.885680E-10
        26   7 -2.445913E+06  4.717635E+02 -8.343919E+03  8.090531E+02  6.450136E+03  8.437497E-03
        26   8 -2.442969E+06  3.213043E+03 -1.345737E+04 -3.661479E+02  1.350067E+04 -7.992409E-03
        26   9 -2.445935E+06 -1.398247E+04 -2.815859E+04 -1.541331E+03  2.055108E+04 -5.121501E-02
        26  10 -2.445913E+06  4.717522E+02 -8.343997E+03 -8.090531E+02  2.699694E-09 -1.072413E-11
        26  11 -2.442969E+06  3.212993E+03 -1.345772E+04  3.661479E+02 -6.207972E-10  4.833934E-10
        26  12 -2.445936E+06 -1.398258E+04 -2.815939E+04  1.541331E+03  1.116883E-09  1.734564E-10
        26  13 -2.445913E+06  4.717510E+02 -8.343997E+03  4.329334E-08 -6.717794E-11  1.600136E-10
        26  14 -2.442969E+06  3.212993E+03 -1.345772E+04  3.135972E-08 -1.269156E-09  4.867430E-10
        26  15 -2.445936E+06 -1.398259E+04 -2.815939E+04  4.094737E-08  2.903543E-09 -1.753919E-10
        26  16 -2.445913E+06  4.717522E+02 -8.343997E+03  8.090531E+02  7.804653E-10 -7.327736E-11
        26  17 -2.442969E+06  3.212993E+03 -1.345772E+04 -3.661479E+02  3.076184E-09  2.218789E-10
        26  18 -2.445936E+06 -1.398258E+04 -2.815939E+04 -1.541331E+03  1.231853E-09 -2.344742E-10
        26  19 -2.445913E+06  4.717635E+02 -8.343919E+03 -8.090531E+02 -6.450136E+03  8.437499E-03
        26  20 -2.442969E+06  3.213043E+03 -1.345737E+04  3.661479E+02 -1.350067E+04 -7.992407E-03
        26  21 -2.445935E+06 -1.398247E+04 -2.815859E+04  1.541331E+03 -2.055108E+04 -5.121501E-02
        26  22 -2.445913E+06  4.717622E+02 -8.343919E+03  2.608866E-08 -6.450136E+03  1.424408E-10
        26  23 -2.442969E+06  3.213042E+03 -1.345737E+04  4.857288E-08 -1.350067E+04  7.327933E-10
        26  24 -2.445935E+06 -1.398247E+04 -2.815859E+04  9.258169E-08 -2.055108E+04  7.771417E-10
        26  25 -2.445913E+06  4.717635E+02 -8.343919E+03  8.090531E+02 -6.450136E+03 -8.437497E-03
        26  26 -2.442969E+06  3.213043E+03 -1.345737E+04 -3.661479E+02 -1.350067E+04  7.992406E-03
        26  27 -2.445935E+06 -1.398247E+04 -2.815859E+04 -1.541331E+03 -2.055108E+04  5.121501E-02
        27   1 -2.452813E+06  3.228986E+03 -3.405084E+04 -5.284014E+03  2.615702E+04 -2.234724E-01
        27   2 -2.434374E+06  2.141685E+04 -5.200738E+04  2.760332E+03  5.455778E+04  2.434878E-01
        27   3 -2.452931E+06 -9.340446E+04 -1.217576E+05  1.080459E+04  8.295921E+04  1.449237E+00
        27   4 -2.452813E+06  3.228933E+03 -3.405085E+04  2.256395E-08  2.615702E+04 -2.092199E-10
        27   5 -2.434374E+06  2.141683E+04 -5.200738E+04  1.131203E-08  5.455778E+04  1.410575E-09
        27   6 -2.452932E+06 -9.340468E+04 -1.217576E+05  1.511639E-08  8.295921E+04 -1.281731E-11
        27   7 -2.452813E+06  3.228986E+03 -3.405084E+04  5.284014E+03  2.615702E+04  2.234724E-01
        27   8 -2.434374E+06  2.141685E+04 -5.200738E+04 -2.760332E+03  5.455778E+04 -2.434878E-01
        27   9 -2.452931E+06 -9.340446E+04 -1.217576E+05 -1.080459E+04  8.295921E+04 -1.449237E+00
        27  10 -2.452814E+06  3.228801E+03 -3.405214E+04 -5.284014E+03  6.976271E-10 -4.871512E-10
        27  11 -2.434378E+06  2.141605E+04 -5.201299E+04  2.760332E+03  4.640830E-10  9.019994E-10
        27  12 -2.452939E+06 -9.340632E+04 -1.217706E+05  1.080459E+04  1.819458E-09 -1.554477E-10
        27  13 -2.452814E+06  3.228749E+03 -3.405214E+04 -2.907160E-08  1.206546E-09 -1.990442E-10
        27  14 -2.434378E+06  2.141603E+04 -5.201299E+04  3.713654E-08  1.910548E-09  5.462625E-10
        27  15 -2.452939E+06 -9.340654E+04 -1.217706E+05  4.350758E-09  2.799362E-09  9.321638E-11
        27  16 -2.452814E+06  3.228801E+03 -3.405214E+04  5.284014E+03 -1.801721E-09 -1.794141E-10
        27  17 -2.434378E+06  2.141605E+04 -5.201299E+04 -2.760332E+03  7.625962E-10  3.410924E-10
        27  18 -2.452939E+06 -9.340632E+04 -1.217706E+05 -1.080459E+04  8.597589E-10  7.458571E-10
        27  19 -2.452813E+06  3.228986E+03 -3.405084E+04 -5.284014E+03 -2.615702E+04  2.234724E-01
        27  20 -2.434374E+06  2.141685E+04 -5.200738E+04  2.760332E+03 -5.455778E+04 -2.434878E-01
        27  21 -2.452931E+06 -9.340446E+04 -1.217576E+05  1.080459E+04 -8.295921E+04 -1.449237E+00
        27  22 -2.452813E+06  3.228933E+03 -3.405085E+04  2.258443E-08 -2.615702E+04 -3.189188E-10
        27  23 -2.434374E+06  2.141683E+04 -5.200738E+04  1.131463E-08 -5.455778E+04 -8.840439E-10
        27  24 -2.452932E+06 -9.340468E+04 -1.217576E+05 -2.109271E-09 -8.295921E+04  3.178221E-10
        27  25 -2.452813E+06  3.228986E+03 -3.405084E+04  5.284014E+03 -2.615702E+04 -2.234724E-01
        27  26 -2.434374E+06  2.141685E+04 -5.200738E+04 -2.760332E+03 -5.455778E+04  2.434878E-01
        27  27 -2.452931E+06 -9.340446E+04 -1.217576E+05 -1.080459E+04 -8.295921E+04  1.449237E+00
        28   1  6.012176E+05  1.134511E+06  7.658673E+05 -6.345073E+04  1.048948E+03  4.644941E+05
        28   2 -5.274697E+04  1.026613E+06  3.753412E+05 -1.597640E+04  3.265087E+03  2.976422E+05
        28   3  5.893761E+04  1.132558E+06  2.849750E+05  2.915854E+04  2.995036E+03  1.307789E+05
        28   4  5.303800E+05  8.508009E+05  6.951604E+05 -1.340136E+03  1.095458E+03  4.637795E+05
        28   5 -1.232970E+05  7.439470E+05  3.051277E+05 -2.254941E+02  3.272813E+03  2.974085E+05
        28   6 -1.123213E+04  8.509411E+05  2.150166E+05 -1.444089E+03  2.988351E+03  1.310254E+05
        28   7  4.595508E+05  5.671718E+05  6.244495E+05  6.074211E+04  1.141844E+03  4.630653E+05
        28   8 -1.938521E+05  4.613539E+05  2.349084E+05  1.551826E+04  3.280530E+03  2.971748E+05
        28   9 -8.140427E+04  5.693978E+05  1.450528E+05 -3.203283E+04  2.981639E+03  1.312719E+05
        28  10  6.011598E+05  1.134280E+06  7.654626E+05 -6.345113E+04  3.553162E-10  2.702048E-10
        28  11 -5.277071E+04  1.026518E+06  3.751750E+05 -1.597718E+04 -1.997108E-09 -6.019185E-10
        28  12  5.893302E+04  1.132540E+06  2.849429E+05  2.915823E+04 -2.602342E-09 -2.190770E-10
        28  13  5.303223E+05  8.505703E+05  6.947567E+05 -1.340545E+03 -1.627937E-09 -7.796587E-11
        28  14 -1.233207E+05  7.438522E+05  3.049617E+05 -2.262776E+02 -4.335721E-09 -2.899121E-11
        28  15 -1.123674E+04  8.509227E+05  2.149844E+05 -1.444404E+03 -1.833405E-09  5.038395E-10
        28  16  4.594933E+05  5.669418E+05  6.240469E+05  6.074169E+04  8.908116E-10 -2.118489E-10
        28  17 -1.938758E+05  4.612592E+05  2.347426E+05  1.551747E+04 -1.980059E-09  1.489758E-10
        28  18 -8.140890E+04  5.693793E+05  1.450204E+05 -3.203315E+04 -3.260875E-09  5.293276E-10
        28  19  6.012176E+05  1.134511E+06  7.658673E+05 -6.345073E+04 -1.048948E+03 -4.644941E+05
        28  20 -5.274697E+04  1.026613E+06  3.753412E+05 -1.597640E+04 -3.265087E+03 -2.976422E+05
        28  21  5.893761E+04  1.132558E+06  2.849750E+05  2.915854E+04 -2.995036E+03 -1.307789E+05
        28  22  5.303800E+05  8.508009E+05  6.951604E+05 -1.340136E+03 -1.095458E+03 -4.637795E+05
        28  23 -1.232970E+05  7.439470E+05  3.051277E+05 -2.254941E+02 -3.272813E+03 -2.974085E+05
        28  24 -1.123213E+04  8.509411E+05  2.150166E+05 -1.444089E+03 -2.988351E+03 -1.310254E+05
        28  25  4.595508E+05  5.671718E+05  6.244495E+05  6.074211E+04 -1.141844E+03 -4.630653E+05
        28  26 -1.938521E+05  4.613539E+05  2.349084E+05  1.551826E+04 -3.280530E+03 -2.971748E+05
        28  27 -8.140427E+04  5.693978E+05  1.450528E+05 -3.203283E+04 -2.981639E+03 -1.312719E+05
        29   1  1.492324E+05  1.101586E+06  2.585818E+05 -1.159082E+04  2.678224E+03  9.479121E+04
        29   2  4.265432E+04  1.076504E+06  1.929867E+05 -3.460949E+03  3.186073E+03  3.095632E+04
        29   3  1.176398E+05  1.105952E+06  2.144740E+05  9.662943E+03  3.004774E+03 -3.287958E+04
        29   4  7.780424E+04  8.154821E+05  1.874378E+05  2.908079E+02  2.680299E+03  9.463386E+04
        29   5 -2.927495E+04  7.882251E+05  1.213501E+05 -2.208079E+03  3.186240E+03  3.094030E+04
        29   6  4.522954E+04  8.154967E+05  1.422744E+05  2.872125E+02  3.005071E+03 -3.275405E+04
        29   7  6.370447E+03  5.294527E+05  1.162877E+05  1.216699E+04  2.682368E+03  9.447659E+04
        29   8 -1.012104E+05  5.000216E+05  4.970725E+04 -9.557521E+02  3.186407E+03  3.092429E+04
        29   9 -2.718670E+04  5.251184E+05  7.006860E+04 -9.084089E+03  3.005365E+03 -3.262857E+04
        29  10  1.492300E+05  1.101576E+06  2.585649E+05 -1.159103E+04 -6.252461E-10  3.195180E-10
        29  11  4.265405E+04  1.076503E+06  1.929849E+05 -3.461028E+03  9.694211E-10 -1.732933E-09
        29  12  1.176395E+05  1.105950E+06  2.144720E+05  9.663023E+03 -2.139382E-09  7.027001E-11
        29  13  7.780183E+04  8.154724E+05  1.874210E+05  2.906037E+02 -1.546199E-09 -8.094693E-10
        29  14 -2.927521E+04  7.882241E+05  1.213483E+05 -2.208158E+03  2.107480E-09 -1.259888E-10
        29  15  4.522924E+04  8.154955E+05  1.422724E+05  2.872917E+02 -2.283011E-09  9.726051E-10
        29  16  6.368045E+03  5.294431E+05  1.162709E+05  1.216679E+04 -4.360453E-09  8.622283E-11
        29  17 -1.012107E+05  5.000205E+05  4.970543E+04 -9.558314E+02 -2.364725E-09  3.352101E-10
        29  18 -2.718700E+04  5.251172E+05  7.006658E+04 -9.084011E+03 -2.563496E-09  5.899936E-10
        29  19  1.492324E+05  1.101586E+06  2.585818E+05 -1.159082E+04 -2.678224E+03 -9.479121E+04
        29  20  4.265432E+04  1.076504E+06  1.929867E+05 -3.460949E+03 -3.186073E+03 -3.095632E+04
        29  21  1.176398E+05  1.105952E+06  2.144740E+05  9.662943E+03 -3.004774E+03  3.287958E+04
        29  22  7.780424E+04  8.154821E+05  1.874378E+05  2.908079E+02 -2.680299E+03 -9.463386E+04
        29  23 -2.927495E+04  7.882251E+05  1.213501E+05 -2.208079E+03 -3.186240E+03 -3.094030E+04
        29  24  4.522954E+04  8.154967E+05  1.422744E+05  2.872125E+02 -3.005071E+03  3.275405E+04
        29  25  6.370447E+03  5.294527E+05  1.162877E+05  1.216699E+04 -2.682368E+03 -9.447659E+04
        29  26 -1.012104E+05  5.000216E+05  4.970725E+04 -9.557521E+02 -3.186407E+03 -3.092429E+04
        29  27 -2.718670E+04  5.251184E+05  7.006860E+04 -9.084089E+03 -3.005365E+03  3.262857E+04
        30   1  8.023865E+04  1.151137E+06  2.316108E+05 -1.823728E+04  3.615108E+03 -5.906634E+04
        30   2  4.597019E+03  1.090313E+06  2.743668E+05  4.031239E+03  4.559003E+03 -1.651391E+05
        30   3  4.017217E+05  1.162584E+06  5.045457E+05  4.002362E+04  2.426562E+03 -2.712193E+05
        30   4  7.213655E+02  8.329678E+05  1.525114E+05  1.798025E+03  3.614351E+03 -5.941243E+04
        30   5 -7.613869E+04  7.663917E+05  1.939299E+05 -4.432249E+03  4.560862E+03 -1.649211E+05
        30   6  3.197973E+05  8.328772E+05  4.224486E+05  3.059499E+03  2.440047E+03 -2.704362E+05
        30   7 -7.880205E+04  5.148909E+05  7.340460E+04  2.182313E+04  3.613572E+03 -5.975834E+04
        30   8 -1.568820E+05  4.425654E+05  1.134852E+05 -1.289124E+04  4.562715E+03 -1.647032E+05
        30   9  2.378700E+05  5.032717E+05  3.403440E+05 -3.388493E+04  2.453446E+03 -2.696534E+05
        30  10  8.023770E+04  1.151133E+06  2.316043E+05 -1.823710E+04  1.682807E-12  4.743932E-10
        30  11  4.589694E+03  1.090284E+06  2.743156E+05  4.031845E+03  8.692562E-10 -2.744566E-09
        30  12  4.017020E+05  1.162505E+06  5.044077E+05  4.002415E+04 -2.117830E-09 -1.255079E-11
        30  13  7.204056E+02  8.329640E+05  1.525048E+05  1.798198E+03 -5.780285E-11 -1.590054E-09
        30  14 -7.614600E+04  7.663626E+05  1.938788E+05 -4.431643E+03  2.556100E-09 -6.128032E-11
        30  15  3.197777E+05  8.327987E+05  4.223113E+05  3.060030E+03  7.052042E-10  1.577027E-09
        30  16 -7.880302E+04  5.148870E+05  7.339787E+04  2.182330E+04  1.947525E-09  1.804988E-10
        30  17 -1.568893E+05  4.425363E+05  1.134342E+05 -1.289064E+04  3.613954E-09  5.566912E-10
        30  18  2.378505E+05  5.031937E+05  3.402074E+05 -3.388440E+04  2.195996E-09  1.238404E-09
        30  19  8.023865E+04  1.151137E+06  2.316108E+05 -1.823728E+04 -3.615108E+03  5.906634E+04
        30  20  4.597019E+03  1.090313E+06  2.743668E+05  4.031239E+03 -4.559003E+03  1.651391E+05
        30  21  4.017217E+05  1.162584E+06  5.045457E+05  4.002362E+04 -2.426562E+03  2.712193E+05
        30  22  7.213655E+02  8.329678E+05  1.525114E+05  1.798025E+03 -3.614351E+03  5.941243E+04
        30  23 -7.613869E+04  7.663917E+05  1.939299E+05 -4.432249E+03 -4.560862E+03  1.649211E+05
        30  24  3.197973E+05  8.328772E+05  4.224486E+05  3.059499E+03 -2.440047E+03  2.704362E+05
        30  25 -7.880205E+04  5.148909E+05  7.340460E+04  2.182313E+04 -3.613572E+03  5.975834E+04
        30  26 -1.568820E+05  4.425654E+05  1.134852E+05 -1.289124E+04 -4.562715E+03  1.647032E+05
        30  27  2.378700E+05  5.032717E+05  3.403440E+05 -3.388493E+04 -2.453446E+03  2.696534E+05
        31   1 -3.034810E+06 -5.904075E+05 -2.027379E+05 -1.087814E+06 -7.440460E+04 -2.624904E+04
        31   2 -3.009606E+06 -4.755632E+05 -1.314204E+05 -1.101062E+06 -4.872139E+04 -1.365134E+04
        31   3 -3.014523E+06 -4.926903E+05 -1.115908E+05 -1.102032E+06 -2.166276E+04 -4.728171E+03
        31   4 -2.725569E+06 -4.647822E+05 -1.156674E+05 -9.949475E+05 -7.373585E+04 -2.599979E+04
        31   5 -2.704828E+06 -3.583508E+05 -4.722466E+04 -1.016240E+06 -4.861556E+04 -1.361213E+04
        31   6 -2.714073E+06 -3.837435E+05 -2.980191E+04 -1.025262E+06 -2.212035E+04 -4.898910E+03
        31   7 -2.416237E+06 -3.391479E+05 -2.860630E+04 -9.020377E+05 -7.306674E+04 -2.575037E+04
        31   8 -2.399961E+06 -2.411325E+05  3.696236E+04 -9.313814E+05 -4.850966E+04 -1.357289E+04
        31   9 -2.413538E+06 -2.747935E+05  5.197884E+04 -9.484592E+05 -2.257819E+04 -5.069732E+03
        31  10 -3.034816E+06 -5.904098E+05 -2.027496E+05 -1.087816E+06  1.176345E-09  5.970885E-10
        31  11 -3.009609E+06 -4.755641E+05 -1.314253E+05 -1.101062E+06 -2.755540E-09 -1.594628E-10
        31  12 -3.014523E+06 -4.926904E+05 -1.115917E+05 -1.102032E+06  2.196820E-09 -2.882427E-10
        31  13 -2.725575E+06 -4.647844E+05 -1.156789E+05 -9.949491E+05 -2.354117E-10  3.118583E-10
        31  14 -2.704831E+06 -3.583516E+05 -4.722947E+04 -1.016241E+06 -1.272701E-09  1.661333E-09
        31  15 -2.714074E+06 -3.837437E+05 -2.980288E+04 -1.025262E+06 -1.781585E-09  2.205774E-10
        31  16 -2.416243E+06 -3.391501E+05 -2.861763E+04 -9.020392E+05 -1.348718E-10  5.558734E-10
        31  17 -2.399964E+06 -2.411333E+05  3.695757E+04 -9.313819E+05  1.490392E-09  1.826112E-09
        31  18 -2.413538E+06 -2.747936E+05  5.197783E+04 -9.484593E+05 -3.294990E-09  1.823455E-10
        31  19 -3.034810E+06 -5.904075E+05 -2.027379E+05 -1.087814E+06  7.440460E+04  2.624904E+04
        31  20 -3.009606E+06 -4.755632E+05 -1.314204E+05 -1.101062E+06  4.872139E+04  1.365134E+04
        31  21 -3.014523E+06 -4.926903E+05 -1.115908E+05 -1.102032E+06  2.166276E+04  4.728171E+03
        31  22 -2.725569E+06 -4.647822E+05 -1.156674E+05 -9.949475E+05  7.373585E+04  2.599979E+04
        31  23 -2.704828E+06 -3.583508E+05 -4.722466E+04 -1.016240E+06  4.861556E+04  1.361213E+04
        31  24 -2.714073E+06 -3.837435E+05 -2.980191E+04 -1.025262E+06  2.212035E+04  4.898910E+03
        31  25 -2.416237E+06 -3.391479E+05 -2.860630E+04 -9.020377E+05  7.306674E+04  2.575037E+04
        31  26 -2.399961E+06 -2.411325E+05  3.696236E+04 -9.313814E+05  4.850966E+04  1.357289E+04
        31  27 -2.413538E+06 -2.747935E+05  5.197884E+04 -9.484592E+05  2.257819E+04  5.069732E+03
        32   1 -2.876731E+06 -4.667210E+05 -7.163076E+04 -1.069471E+06 -1.729287E+04 -4.121502E+03
        32   2 -2.870368E+06 -4.271402E+05 -5.276335E+04 -1.048727E+06 -1.118684E+04 -2.081045E+03
        32   3 -2.837796E+06 -4.384660E+05 -4.314579E+04 -1.061923E+06 -4.780482E+03 -8.472427E+02
        32   4 -2.706577E+06 -4.013758E+05 -2.462536E+04 -1.022211E+06 -1.726550E+04 -4.111383E+03
        32   5 -2.718833E+06 -3.698043E+05 -1.107600E+04 -1.007524E+06 -1.128424E+04 -2.117374E+03
        32   6 -2.704856E+06 -3.891110E+05 -6.675366E+03 -1.026778E+06 -5.002888E+03 -9.300278E+02
        32   7 -2.536394E+06 -3.360287E+05  2.237744E+04 -9.749382E+05 -1.723812E+04 -4.101260E+03
        32   8 -2.567276E+06 -3.124670E+05  3.060922E+04 -9.663125E+05 -1.138166E+04 -2.153714E+03
        32   9 -2.571899E+06 -3.397553E+05  2.979336E+04 -9.916260E+05 -5.225347E+03 -1.012832E+03
        32  10 -2.876732E+06 -4.667211E+05 -7.163136E+04 -1.069471E+06  1.517848E-09 -9.202322E-10
        32  11 -2.870368E+06 -4.271402E+05 -5.276360E+04 -1.048727E+06 -8.421525E-10  6.174977E-10
        32  12 -2.837796E+06 -4.384660E+05 -4.314584E+04 -1.061923E+06  2.732612E-10  1.374273E-09
        32  13 -2.706577E+06 -4.013759E+05 -2.462595E+04 -1.022211E+06  1.185681E-10 -9.324788E-11
        32  14 -2.718833E+06 -3.698043E+05 -1.107625E+04 -1.007524E+06  3.474472E-10  9.625985E-10
        32  15 -2.704856E+06 -3.891110E+05 -6.675415E+03 -1.026778E+06 -3.764893E-10  1.211280E-09
        32  16 -2.536395E+06 -3.360288E+05  2.237684E+04 -9.749382E+05 -1.759424E-09 -1.492501E-10
        32  17 -2.567276E+06 -3.124671E+05  3.060897E+04 -9.663125E+05 -4.970656E-09 -2.581008E-09
        32  18 -2.571899E+06 -3.397553E+05  2.979330E+04 -9.916260E+05 -2.936007E-09  5.263467E-11
        32  19 -2.876731E+06 -4.667210E+05 -7.163076E+04 -1.069471E+06  1.729287E+04  4.121502E+03
        32  20 -2.870368E+06 -4.271402E+05 -5.276335E+04 -1.048727E+06  1.118684E+04  2.081045E+03
        32  21 -2.837796E+06 -4.384660E+05 -4.314579E+04 -1.061923E+06  4.780482E+03  8.472427E+02
        32  22 -2.706577E+06 -4.013758E+05 -2.462536E+04 -1.022211E+06  1.726550E+04  4.111383E+03
        32  23 -2.718833E+06 -3.698043E+05 -1.107600E+04 -1.007524E+06  1.128424E+04  2.117374E+03
        32  24 -2.704856E+06 -3.891110E+05 -6.675366E+03 -1.026778E+06  5.002888E+03  9.300278E+02
        32  25 -2.536394E+06 -3.360287E+05  2.237744E+04 -9.749382E+05  1.723812E+04  4.101260E+03
        32  26 -2.567276E+06 -3.124670E+05  3.060922E+04 -9.663125E+05  1.138166E+04  2.153714E+03
        32  27 -2.571899E+06 -3.397553E+05  2.979336E+04 -9.916260E+05  5.225347E+03  1.012832E+03
        33   1 -2.656599E+06 -3.743856E+05  7.578016E+03 -1.014002E+06 -3.592457E+03 -1.223255E+03
        33   2 -2.653060E+06 -3.458090E+05  1.607639E+04 -9.877217E+05 -1.918021E+03 -1.602246E+03
        33   3 -2.614170E+06 -3.564657E+05  2.283541E+04 -1.002958E+06 -2.767056E+02 -1.891170E+03
        33   4 -2.703573E+06 -3.918782E+05 -5.361735E+03 -1.026466E+06 -3.737201E+03 -1.277118E+03
        33   5 -2.721120E+06 -3.713736E+05 -2.612160E+03 -1.006036E+06 -2.048753E+03 -1.650927E+03
        33   6 -2.703320E+06 -3.901056E+05 -1.613057E+03 -1.027122E+06 -3.934779E+02 -1.934682E+03
        33   7 -2.750546E+06 -4.093706E+05 -1.830170E+04 -1.038929E+06 -3.881932E+03 -1.330977E+03
        33   8 -2.789177E+06 -3.969380E+05 -2.130117E+04 -1.024348E+06 -2.179470E+03 -1.699603E+03
        33   9 -2.792462E+06 -4.237452E+05 -2.606233E+04 -1.051283E+06 -5.102321E+02 -1.978188E+03
        33  10 -2.656599E+06 -3.743856E+05  7.577989E+03 -1.014002E+06 -3.531068E-09  1.537861E-09
        33  11 -2.653060E+06 -3.458090E+05  1.607638E+04 -9.877217E+05 -2.035644E-09  1.210101E-09
        33  12 -2.614170E+06 -3.564658E+05  2.283541E+04 -1.002958E+06 -2.071095E-09  9.781790E-10
        33  13 -2.703573E+06 -3.918782E+05 -5.361764E+03 -1.026466E+06  7.533109E-11  2.982055E-09
        33  14 -2.721120E+06 -3.713736E+05 -2.612173E+03 -1.006036E+06 -6.743492E-09  9.915232E-10
        33  15 -2.703320E+06 -3.901056E+05 -1.613064E+03 -1.027122E+06 -2.497829E-09  2.400576E-09
        33  16 -2.750546E+06 -4.093706E+05 -1.830173E+04 -1.038929E+06  7.057750E-10  1.851011E-10
        33  17 -2.789177E+06 -3.969380E+05 -2.130119E+04 -1.024348E+06 -1.612250E-09  4.727241E-10
        33  18 -2.792462E+06 -4.237452E+05 -2.606233E+04 -1.051283E+06 -1.367312E-10 -5.390522E-10
        33  19 -2.656599E+06 -3.743856E+05  7.578016E+03 -1.014002E+06  3.592457E+03  1.223255E+03
        33  20 -2.653060E+06 -3.458090E+05  1.607639E+04 -9.877217E+05  1.918021E+03  1.602246E+03
        33  21 -2.614170E+06 -3.564657E+05  2.283541E+04 -1.002958E+06  2.767056E+02  1.891170E+03
        33  22 -2.703573E+06 -3.918782E+05 -5.361735E+03 -1.026466E+06  3.737201E+03  1.277118E+03
        33  23 -2.721120E+06 -3.713736E+05 -2.612160E+03 -1.006036E+06  2.048753E+03  1.650927E+03
        33  24 -2.703320E+06 -3.901056E+05 -1.613057E+03 -1.027122E+06  3.934779E+02  1.934682E+03
        33  25 -2.750546E+06 -4.093706E+05 -1.830170E+04 -1.038929E+06  3.881932E+03  1.330977E+03
        33  26 -2.789177E+06 -3.969380E+05 -2.130117E+04 -1.024348E+06  2.179470E+03  1.699603E+03
        33  27 -2.792462E+06 -4.237452E+05 -2.606233E+04 -1.051283E+06  5.102321E+02  1.978188E+03
        34   1 -2.461382E+06 -2.955664E+05  6.594993E+04 -9.578036E+05  2.326986E+02 -2.353272E+03
        34   2 -2.459842E+06 -2.779124E+05  7.007755E+04 -9.402093E+05  9.034061E+02 -3.079590E+03
        34   3 -2.433594E+06 -2.847451E+05  7.399981E+04 -9.500308E+05  1.356712E+03 -3.221229E+03
        34   4 -2.705805E+06 -3.875388E+05 -1.265471E+03 -1.023734E+06  5.274726E+01 -2.420409E+03
        34   5 -2.718138E+06 -3.752385E+05 -8.968081E+02 -1.010041E+06  8.149536E+02 -3.112713E+03
        34   6 -2.705782E+06 -3.874437E+05 -8.062619E+02 -1.023765E+06  1.359706E+03 -3.220224E+03
        34   7 -2.950170E+06 -4.795078E+05 -6.848617E+04 -1.089640E+06 -1.271253E+02 -2.487518E+03
        34   8 -2.976370E+06 -4.725608E+05 -7.187717E+04 -1.079847E+06  7.265419E+02 -3.145821E+03
        34   9 -2.977899E+06 -4.901382E+05 -7.561909E+04 -1.097470E+06  1.362698E+03 -3.219220E+03
        34  10 -2.461382E+06 -2.955664E+05  6.594992E+04 -9.578036E+05 -2.343332E-09  8.861045E-10
        34  11 -2.459842E+06 -2.779124E+05  7.007753E+04 -9.402093E+05 -6.055307E-10 -5.232460E-11
        34  12 -2.433594E+06 -2.847451E+05  7.399978E+04 -9.500308E+05  4.746243E-09 -2.138908E-10
        34  13 -2.705805E+06 -3.875388E+05 -1.265482E+03 -1.023734E+06 -2.738244E-09  2.762757E-10
        34  14 -2.718138E+06 -3.752385E+05 -8.968275E+02 -1.010041E+06  4.887212E-09  1.560802E-09
        34  15 -2.705782E+06 -3.874437E+05 -8.062848E+02 -1.023765E+06 -2.729729E-10  1.104211E-09
        34  16 -2.950170E+06 -4.795078E+05 -6.848618E+04 -1.089640E+06  3.992581E-09  2.318521E-09
        34  17 -2.976370E+06 -4.725608E+05 -7.187719E+04 -1.079847E+06  9.355008E-10 -1.961742E-09
        34  18 -2.977899E+06 -4.901382E+05 -7.561911E+04 -1.097470E+06 -5.123713E-09 -2.381349E-09
        34  19 -2.461382E+06 -2.955664E+05  6.594993E+04 -9.578036E+05 -2.326986E+02  2.353272E+03
        34  20 -2.459842E+06 -2.779124E+05  7.007755E+04 -9.402093E+05 -9.034061E+02  3.079590E+03
        34  21 -2.433594E+06 -2.847451E+05  7.399981E+04 -9.500308E+05 -1.356712E+03  3.221229E+03
        34  22 -2.705805E+06 -3.875388E+05 -1.265471E+03 -1.023734E+06 -5.274726E+01  2.420409E+03
        34  23 -2.718138E+06 -3.752385E+05 -8.968081E+02 -1.010041E+06 -8.149536E+02  3.112713E+03
        34  24 -2.705782E+06 -3.874437E+05 -8.062619E+02 -1.023765E+06 -1.359706E+03  3.220224E+03
        34  25 -2.950170E+06 -4.795078E+05 -6.848617E+04 -1.089640E+06  1.271253E+02  2.487518E+03
        34  26 -2.976370E+06 -4.725608E+05 -7.187717E+04 -1.079847E+06 -7.265419E+02  3.145821E+03
        34  27 -2.977899E+06 -4.901382E+05 -7.561909E+04 -1.097470E+06 -1.362698E+03  3.219220E+03
        35   1 -2.373009E+06 -2.548347E+05  9.204144E+04 -9.264609E+05  1.696546E+03 -3.365444E+03
        35   2 -2.373630E+06 -2.536413E+05  9.168730E+04 -9.254604E+05  2.402528E+03 -3.582518E+03
        35   3 -2.371756E+06 -2.543506E+05  9.106314E+04 -9.254260E+05  2.817986E+03 -3.025114E+03
        35   4 -2.710711E+06 -3.822712E+05 -8.321556E+02 -1.017951E+06  1.569566E+03 -3.413139E+03
        35   5 -2.711982E+06 -3.815534E+05 -1.364482E+03 -1.017376E+06  2.396672E+03 -3.584887E+03
        35   6 -2.710781E+06 -3.827633E+05 -2.263414E+03 -1.017767E+06  2.933178E+03 -2.981951E+03
        35   7 -3.048304E+06 -5.097015E+05 -9.371629E+04 -1.109397E+06  1.442662E+03 -3.460804E+03
        35   8 -3.050224E+06 -5.094592E+05 -9.442681E+04 -1.109246E+06  2.390819E+03 -3.587254E+03
        35   9 -3.049696E+06 -5.111694E+05 -9.560053E+04 -1.110062E+06  3.048301E+03 -2.938815E+03
        35  10 -2.373009E+06 -2.548347E+05  9.204141E+04 -9.264609E+05  1.622952E-09  5.745480E-10
        35  11 -2.373630E+06 -2.536413E+05  9.168727E+04 -9.254604E+05 -3.061577E-10 -2.594745E-09
        35  12 -2.371756E+06 -2.543506E+05  9.106311E+04 -9.254260E+05  2.961419E-09 -4.974703E-10
        35  13 -2.710711E+06 -3.822712E+05 -8.321820E+02 -1.017951E+06 -4.421000E-09 -1.039861E-09
        35  14 -2.711982E+06 -3.815534E+05 -1.364517E+03 -1.017376E+06 -1.186870E-09  6.752490E-10
        35  15 -2.710781E+06 -3.827633E+05 -2.263446E+03 -1.017767E+06  2.957292E-10  1.112037E-09
        35  16 -3.048304E+06 -5.097015E+05 -9.371632E+04 -1.109397E+06 -2.392613E-09 -1.629386E-09
        35  17 -3.050224E+06 -5.094592E+05 -9.442685E+04 -1.109246E+06 -1.450578E-09  5.698273E-10
        35  18 -3.049697E+06 -5.111694E+05 -9.560056E+04 -1.110062E+06 -3.145341E-09  4.523646E-10
        35  19 -2.373009E+06 -2.548347E+05  9.204144E+04 -9.264609E+05 -1.696546E+03  3.365444E+03
        35  20 -2.373630E+06 -2.536413E+05  9.168730E+04 -9.254604E+05 -2.402528E+03  3.582518E+03
        35  21 -2.371756E+06 -2.543506E+05  9.106314E+04 -9.254260E+05 -2.817986E+03  3.025114E+03
        35  22 -2.710711E+06 -3.822712E+05 -8.321556E+02 -1.017951E+06 -1.569566E+03  3.413139E+03
        35  23 -2.711982E+06 -3.815534E+05 -1.364482E+03 -1.017376E+06 -2.396672E+03  3.584887E+03
        35  24 -2.710781E+06 -3.827633E+05 -2.263414E+03 -1.017767E+06 -2.933178E+03  2.981951E+03
        35  25 -3.048304E+06 -5.097015E+05 -9.371629E+04 -1.109397E+06 -1.442662E+03  3.460804E+03
        35  26 -3.050224E+06 -5.094592E+05 -9.442681E+04 -1.109246E+06 -2.390819E+03  3.587254E+03
        35  27 -3.049696E+06 -5.111694E+05 -9.560053E+04 -1.110062E+06 -3.048301E+03  2.938815E+03
        36   1 -2.429460E+06 -2.685799E+05  7.597479E+04 -9.342383E+05  3.287264E+03 -2.623607E+03
        36   2 -2.430973E+06 -2.833474E+05  7.037126E+04 -9.500380E+05  5.720339E+03 -1.471822E+03
        36   3 -2.455850E+06 -2.809982E+05  6.172401E+04 -9.391980E+05  7.930021E+03  2.698940E+02
        36   4 -2.716303E+06 -3.770469E+05 -2.913340E+03 -1.012188E+06  3.272719E+03 -2.629207E+03
        36   5 -2.704863E+06 -3.873073E+05 -5.039214E+03 -1.024866E+06  5.797222E+03 -1.442937E+03
        36   6 -2.716807E+06 -3.804698E+05 -1.028259E+04 -1.010902E+06  8.098342E+03  3.334092E+02
        36   7 -3.003066E+06 -4.855093E+05 -8.180894E+04 -1.090105E+06  3.258181E+03 -2.634805E+03
        36   8 -2.978682E+06 -4.912628E+05 -8.045658E+04 -1.099663E+06  5.874066E+03 -1.414067E+03
        36   9 -2.977700E+06 -4.799374E+05 -8.229554E+04 -1.082579E+06  8.266585E+03  3.968943E+02
        36  10 -2.429460E+06 -2.685799E+05  7.597475E+04 -9.342383E+05  2.517398E-09  3.764677E-10
        36  11 -2.430973E+06 -2.833475E+05  7.037119E+04 -9.500380E+05 -2.157684E-10 -1.679636E-10
        36  12 -2.455850E+06 -2.809982E+05  6.172389E+04 -9.391980E+05 -4.350770E-10  1.795000E-09
        36  13 -2.716303E+06 -3.770469E+05 -2.913373E+03 -1.012188E+06  3.630360E-10  2.578513E-10
        36  14 -2.704864E+06 -3.873073E+05 -5.039281E+03 -1.024866E+06 -3.091561E-10  6.191756E-12
        36  15 -2.716808E+06 -3.804698E+05 -1.028271E+04 -1.010902E+06 -3.821148E-11  1.468861E-09
        36  16 -3.003066E+06 -4.855093E+05 -8.180897E+04 -1.090105E+06 -2.033829E-09 -1.409384E-09
        36  17 -2.978682E+06 -4.912629E+05 -8.045665E+04 -1.099663E+06 -5.574707E-09 -3.289100E-10
        36  18 -2.977700E+06 -4.799374E+05 -8.229567E+04 -1.082579E+06 -1.799558E-09  2.711035E-09
        36  19 -2.429460E+06 -2.685799E+05  7.597479E+04 -9.342383E+05 -3.287264E+03  2.623607E+03
        36  20 -2.430973E+06 -2.833474E+05  7.037126E+04 -9.500380E+05 -5.720339E+03  1.471822E+03
        36  21 -2.455850E+06 -2.809982E+05  6.172401E+04 -9.391980E+05 -7.930021E+03 -2.698940E+02
        36  22 -2.716303E+06 -3.770469E+05 -2.913340E+03 -1.012188E+06 -3.272719E+03  2.629207E+03
        36  23 -2.704863E+06 -3.873073E+05 -5.039214E+03 -1.024866E+06 -5.797222E+03  1.442937E+03
        36  24 -2.716807E+06 -3.804698E+05 -1.028259E+04 -1.010902E+06 -8.098342E+03 -3.334092E+02
        36  25 -3.003066E+06 -4.855093E+05 -8.180894E+04 -1.090105E+06 -3.258181E+03  2.634805E+03
        36  26 -2.978682E+06 -4.912628E+05 -8.045658E+04 -1.099663E+06 -5.874066E+03  1.414067E+03
        36  27 -2.977700E+06 -4.799374E+05 -8.229554E+04 -1.082579E+06 -8.266585E+03 -3.968943E+02
        37   1 -2.606743E+06 -3.312784E+05  1.831523E+04 -9.795929E+05  9.671811E+03  1.593752E+03
        37   2 -2.605330E+06 -3.506299E+05  4.192444E+03 -1.004165E+06  2.079252E+04  6.683785E+03
        37   3 -2.654386E+06 -3.677579E+05 -2.775074E+04 -9.789756E+05  3.194203E+04  1.169487E+04
        37   4 -2.721331E+06 -3.735202E+05 -1.293273E+04 -1.009632E+06  9.798260E+03  1.641563E+03
        37   5 -2.697803E+06 -3.863727E+05 -2.140403E+04 -1.030079E+06  2.090501E+04  6.726309E+03
        37   6 -2.724744E+06 -3.970016E+05 -4.768633E+04 -1.000764E+06  3.204101E+04  1.173218E+04
        37   7 -2.835906E+06 -4.157614E+05 -4.418188E+04 -1.039666E+06  9.924683E+03  1.689365E+03
        37   8 -2.790268E+06 -4.221149E+05 -4.700129E+04 -1.055990E+06  2.101749E+04  6.768825E+03
        37   9 -2.795097E+06 -4.262446E+05 -6.762237E+04 -1.022551E+06  3.213999E+04  1.176948E+04
        37  10 -2.606743E+06 -3.312784E+05  1.831504E+04 -9.795929E+05 -1.484620E-09  9.706308E-10
        37  11 -2.605331E+06 -3.506301E+05  4.191543E+03 -1.004165E+06 -1.302640E-09  2.583940E-09
        37  12 -2.654387E+06 -3.677583E+05 -2.775292E+04 -9.789759E+05 -9.483616E-10 -4.997408E-10
        37  13 -2.721331E+06 -3.735202E+05 -1.293292E+04 -1.009632E+06 -1.429133E-09  6.911742E-10
        37  14 -2.697804E+06 -3.863729E+05 -2.140494E+04 -1.030079E+06 -4.684286E-09 -1.619637E-10
        37  15 -2.724745E+06 -3.970020E+05 -4.768853E+04 -1.000765E+06 -2.884422E-09  3.051839E-10
        37  16 -2.835906E+06 -4.157614E+05 -4.418207E+04 -1.039666E+06 -1.295028E-09  9.124717E-10
        37  17 -2.790268E+06 -4.221151E+05 -4.700221E+04 -1.055990E+06  3.253069E-09 -6.748990E-10
        37  18 -2.795098E+06 -4.262451E+05 -6.762459E+04 -1.022551E+06  1.522323E-10 -1.374873E-09
        37  19 -2.606743E+06 -3.312784E+05  1.831523E+04 -9.795929E+05 -9.671811E+03 -1.593752E+03
        37  20 -2.605330E+06 -3.506299E+05  4.192444E+03 -1.004165E+06 -2.079252E+04 -6.683785E+03
        37  21 -2.654386E+06 -3.677579E+05 -2.775074E+04 -9.789756E+05 -3.194203E+04 -1.169487E+04
        37  22 -2.721331E+06 -3.735202E+05 -1.293273E+04 -1.009632E+06 -9.798260E+03 -1.641563E+03
        37  23 -2.697803E+06 -3.863727E+05 -2.140403E+04 -1.030079E+06 -2.090501E+04 -6.726309E+03
        37  24 -2.724744E+06 -3.970016E+05 -4.768633E+04 -1.000764E+06 -3.204101E+04 -1.173218E+04
        37  25 -2.835906E+06 -4.157614E+05 -4.418188E+04 -1.039666E+06 -9.924683E+03 -1.689365E+03
        37  26 -2.790268E+06 -4.221149E+05 -4.700129E+04 -1.055990E+06 -2.101749E+04 -6.768825E+03
        37  27 -2.795097E+06 -4.262446E+05 -6.762237E+04 -1.022551E+06 -3.213999E+04 -1.176948E+04
        38   1 -2.833220E+06 -4.180120E+05 -8.756074E+04 -1.052281E+06  4.008282E+04  1.585811E+04
        38   2 -2.810568E+06 -3.996055E+05 -1.263991E+05 -1.066887E+06  9.043932E+04  3.624204E+04
        38   3 -2.914256E+06 -5.713818E+05 -2.649101E+05 -9.831559E+05  1.416492E+05  5.436906E+04
        38   4 -2.731695E+06 -3.709990E+05 -5.783592E+04 -1.015940E+06  4.044668E+04  1.599652E+04
        38   5 -2.679873E+06 -3.542865E+05 -9.129609E+04 -1.035553E+06  9.045994E+04  3.624900E+04
        38   6 -2.754304E+06 -5.276596E+05 -2.241377E+05 -9.568334E+05  1.413292E+05  5.424318E+04
        38   7 -2.630160E+06 -3.239838E+05 -2.811210E+04 -9.795924E+05  4.081060E+04  1.613498E+04
        38   8 -2.549162E+06 -3.089671E+05 -5.619453E+04 -1.004213E+06  9.048055E+04  3.625597E+04
        38   9 -2.594328E+06 -4.839383E+05 -1.833671E+05 -9.305062E+05  1.410090E+05  5.411729E+04
        38  10 -2.833222E+06 -4.180127E+05 -8.756425E+04 -1.052282E+06 -7.468533E-11 -2.461175E-09
        38  11 -2.810577E+06 -3.996091E+05 -1.264170E+05 -1.066890E+06 -2.994873E-09  1.499487E-09
        38  12 -2.914279E+06 -5.713904E+05 -2.649536E+05 -9.831621E+05 -3.140986E-09  7.295672E-10
        38  13 -2.731697E+06 -3.709997E+05 -5.783950E+04 -1.015940E+06 -3.229043E-09 -3.148046E-09
        38  14 -2.679882E+06 -3.542901E+05 -9.131402E+04 -1.035556E+06  1.522778E-09 -4.018608E-10
        38  15 -2.754327E+06 -5.276682E+05 -2.241810E+05 -9.568396E+05  7.402554E-11  1.114517E-09
        38  16 -2.630162E+06 -3.239845E+05 -2.811574E+04 -9.795930E+05  1.335316E-09 -6.097114E-10
        38  17 -2.549171E+06 -3.089707E+05 -5.621247E+04 -1.004216E+06 -2.912203E-10  3.106123E-09
        38  18 -2.594350E+06 -4.839468E+05 -1.834102E+05 -9.305123E+05  9.792450E-10 -1.287415E-09
        38  19 -2.833220E+06 -4.180120E+05 -8.756074E+04 -1.052281E+06 -4.008282E+04 -1.585811E+04
        38  20 -2.810568E+06 -3.996055E+05 -1.263991E+05 -1.066887E+06 -9.043932E+04 -3.624204E+04
        38  21 -2.914256E+06 -5.713818E+05 -2.649101E+05 -9.831559E+05 -1.416492E+05 -5.436906E+04
        38  22 -2.731695E+06 -3.709990E+05 -5.783592E+04 -1.015940E+06 -4.044668E+04 -1.599652E+04
        38  23 -2.679873E+06 -3.542865E+05 -9.129609E+04 -1.035553E+06 -9.045994E+04 -3.624900E+04
        38  24 -2.754304E+06 -5.276596E+05 -2.241377E+05 -9.568334E+05 -1.413292E+05 -5.424318E+04
        38  25 -2.630160E+06 -3.239838E+05 -2.811210E+04 -9.795924E+05 -4.081060E+04 -1.613498E+04
        38  26 -2.549162E+06 -3.089671E+05 -5.619453E+04 -1.004213E+06 -9.048055E+04 -3.625597E+04
        38  27 -2.594328E+06 -4.839383E+05 -1.833671E+05 -9.305062E+05 -1.410090E+05 -5.411729E+04
        39   1 -1.169104E+06  1.085934E+05  1.416002E+05  1.258030E+04  9.655503E+04  1.960120E+00
        39   2 -1.190634E+06 -2.489714E+04  6.050347E+04  3.213694E+03  6.351212E+04  3.293716E-01
        39   3 -1.169175E+06 -3.754523E+03  3.961272E+04 -6.152640E+03  3.046887E+04 -3.025022E-01
        39   4 -1.169104E+06  1.085931E+05  1.416001E+05 -2.772451E-08  9.655503E+04 -3.927790E-11
        39   5 -1.190634E+06 -2.489716E+04  6.050346E+04 -2.082539E-08  6.351212E+04  1.471019E-09
        39   6 -1.169175E+06 -3.754595E+03  3.961271E+04  3.343567E-08  3.046887E+04  3.192828E-10
        39   7 -1.169104E+06  1.085934E+05  1.416002E+05 -1.258030E+04  9.655503E+04 -1.960120E+00
        39   8 -1.190634E+06 -2.489714E+04  6.050347E+04 -3.213694E+03  6.351212E+04 -3.293716E-01
        39   9 -1.169175E+06 -3.754523E+03  3.961272E+04  6.152640E+03  3.046887E+04  3.025022E-01
        39  10 -1.169114E+06  1.085909E+05  1.415826E+05  1.258030E+04 -1.790539E-09  4.871912E-11
        39  11 -1.190638E+06 -2.489823E+04  6.049587E+04  3.213694E+03  4.553813E-09  9.719157E-10
        39  12 -1.169176E+06 -3.754773E+03  3.961097E+04 -6.152640E+03 -1.652303E-10  7.778142E-11
        39  13 -1.169114E+06  1.085906E+05  1.415826E+05 -2.771610E-08 -2.237145E-09  1.726729E-10
        39  14 -1.190638E+06 -2.489825E+04  6.049587E+04 -3.804750E-08 -1.503511E-09  5.983902E-10
        39  15 -1.169176E+06 -3.754844E+03  3.961096E+04  2.051095E-08  7.298773E-10  4.839568E-10
        39  16 -1.169114E+06  1.085909E+05  1.415826E+05 -1.258030E+04  1.193426E-09  3.722486E-11
        39  17 -1.190638E+06 -2.489823E+04  6.049587E+04 -3.213694E+03  2.392460E-09  7.502323E-10
        39  18 -1.169176E+06 -3.754773E+03  3.961097E+04  6.152640E+03  1.356894E-09  5.245241E-10
        39  19 -1.169104E+06  1.085934E+05  1.416002E+05  1.258030E+04 -9.655503E+04 -1.960120E+00
        39  20 -1.190634E+06 -2.489714E+04  6.050347E+04  3.213694E+03 -6.351212E+04 -3.293716E-01
        39  21 -1.169175E+06 -3.754523E+03  3.961272E+04 -6.152640E+03 -3.046887E+04  3.025022E-01
        39  22 -1.169104E+06  1.085931E+05  1.416001E+05 -2.771036E-08 -9.655503E+04  4.817656E-10
        39  23 -1.190634E+06 -2.489716E+04  6.050346E+04 -2.943568E-08 -6.351212E+04 -3.055102E-10
        39  24 -1.169175E+06 -3.754595E+03  3.961271E+04  3.342356E-08 -3.046887E+04  7.106544E-10
        39  25 -1.169104E+06  1.085934E+05  1.416002E+05 -1.258030E+04 -9.655503E+04  1.960120E+00
        39  26 -1.190634E+06 -2.489714E+04  6.050347E+04 -3.213694E+03 -6.351212E+04  3.293716E-01
        39  27 -1.169175E+06 -3.754523E+03  3.961272E+04  6.152640E+03 -3.046887E+04 -3.025022E-01
        40   1 -1.177185E+06  1.625637E+04  3.275724E+04  1.794572E+03  2.393996E+04  6.932671E-02
        40   2 -1.180625E+06 -3.735074E+03  1.565617E+04  4.262055E+02  1.573467E+04  1.082167E-02
        40   3 -1.177198E+06 -5.491451E+02  9.699243E+03 -9.421392E+02  7.529536E+03 -1.144718E-02
        40   4 -1.177185E+06  1.625636E+04  3.275724E+04 -3.976846E-09  2.393996E+04  2.556697E-10
        40   5 -1.180625E+06 -3.735074E+03  1.565617E+04 -1.093062E-07  1.573467E+04  1.019054E-10
        40   6 -1.177198E+06 -5.491468E+02  9.699243E+03 -3.594345E-08  7.529536E+03 -7.252602E-10
        40   7 -1.177185E+06  1.625637E+04  3.275724E+04 -1.794572E+03  2.393996E+04 -6.932671E-02
        40   8 -1.180625E+06 -3.735074E+03  1.565617E+04 -4.262055E+02  1.573467E+04 -1.082167E-02
        40   9 -1.177198E+06 -5.491451E+02  9.699243E+03  9.421392E+02  7.529536E+03  1.144718E-02
        40  10 -1.177186E+06  1.625621E+04  3.275616E+04  1.794572E+03 -3.526686E-10 -1.627640E-11
        40  11 -1.180626E+06 -3.735141E+03  1.565570E+04  4.262055E+02 -1.898840E-09 -4.072958E-11
        40  12 -1.177198E+06 -5.491604E+02  9.699136E+03 -9.421392E+02  5.433451E-10 -3.721832E-10
        40  13 -1.177186E+06  1.625621E+04  3.275616E+04 -2.120394E-08 -3.362375E-11  1.776128E-10
        40  14 -1.180626E+06 -3.735141E+03  1.565570E+04 -3.180221E-08  4.305908E-09 -1.836609E-10
        40  15 -1.177198E+06 -5.491620E+02  9.699136E+03 -6.823300E-08 -4.560066E-10 -2.319115E-10
        40  16 -1.177186E+06  1.625621E+04  3.275616E+04 -1.794572E+03  1.397889E-09 -1.683031E-10
        40  17 -1.180626E+06 -3.735141E+03  1.565570E+04 -4.262055E+02  3.620472E-09 -8.489981E-10
        40  18 -1.177198E+06 -5.491604E+02  9.699136E+03  9.421392E+02 -9.964361E-10 -3.144932E-10
        40  19 -1.177185E+06  1.625637E+04  3.275724E+04  1.794572E+03 -2.393996E+04 -6.932671E-02
        40  20 -1.180625E+06 -3.735074E+03  1.565617E+04  4.262055E+02 -1.573467E+04 -1.082167E-02
        40  21 -1.177198E+06 -5.491451E+02  9.699243E+03 -9.421392E+02 -7.529536E+03  1.144718E-02
        40  22 -1.177185E+06  1.625636E+04  3.275724E+04  3.045947E-08 -2.393996E+04 -3.965983E-11
        40  23 -1.180625E+06 -3.735074E+03  1.565617E+04  4.570048E-08 -1.573467E+04 -5.006406E-10
        40  24 -1.177198E+06 -5.491468E+02  9.699243E+03 -1.871590E-08 -7.529536E+03  1.435483E-10
        40  25 -1.177185E+06  1.625637E+04  3.275724E+04 -1.794572E+03 -2.393996E+04  6.932671E-02
        40  26 -1.180625E+06 -3.735074E+03  1.565617E+04 -4.262055E+02 -1.573467E+04  1.082167E-02
        40  27 -1.177198E+06 -5.491451E+02  9.699243E+03  9.421392E+02 -7.529536E+03 -1.144718E-02
        41   1 -1.178472E+06  2.419867E+03  7.746068E+03  2.445450E+02  5.953688E+03  2.349420E-03
        41   2 -1.179036E+06 -5.568662E+02  3.943172E+03  4.954578E+01  3.936158E+03  3.146993E-04
        41   3 -1.178474E+06 -8.315794E+01  2.318308E+03 -1.454565E+02  1.918602E+03 -4.503325E-04
        41   4 -1.178472E+06  2.419867E+03  7.746068E+03 -3.216978E-08  5.953688E+03 -1.832144E-10
        41   5 -1.179036E+06 -5.568662E+02  3.943172E+03  3.366201E-08  3.936158E+03  7.182057E-10
        41   6 -1.178474E+06 -8.315798E+01  2.318308E+03  1.983714E-08  1.918602E+03 -1.185979E-09
        41   7 -1.178472E+06  2.419867E+03  7.746068E+03 -2.445450E+02  5.953688E+03 -2.349422E-03
        41   8 -1.179036E+06 -5.568662E+02  3.943172E+03 -4.954578E+01  3.936158E+03 -3.146991E-04
        41   9 -1.178474E+06 -8.315794E+01  2.318308E+03  1.454565E+02  1.918602E+03  4.503324E-04
        41  10 -1.178472E+06  2.419858E+03  7.746001E+03  2.445450E+02 -3.913589E-10  1.523348E-10
        41  11 -1.179036E+06 -5.568704E+02  3.943143E+03  4.954578E+01  8.561835E-10  2.954587E-10
        41  12 -1.178474E+06 -8.315893E+01  2.318301E+03 -1.454565E+02  1.450218E-10 -6.358726E-10
        41  13 -1.178472E+06  2.419858E+03  7.746001E+03 -6.661156E-08  5.043534E-11  9.794533E-11
        41  14 -1.179036E+06 -5.568704E+02  3.943143E+03 -1.800940E-08 -2.382979E-09  2.866448E-10
        41  15 -1.178474E+06 -8.315897E+01  2.318301E+03  4.781201E-08 -2.007243E-09 -4.711534E-10
        41  16 -1.178472E+06  2.419858E+03  7.746001E+03 -2.445450E+02  1.529078E-10  1.111745E-10
        41  17 -1.179036E+06 -5.568704E+02  3.943143E+03 -4.954578E+01  1.190132E-09  5.990420E-10
        41  18 -1.178474E+06 -8.315893E+01  2.318301E+03  1.454565E+02  8.092288E-10 -6.378313E-10
        41  19 -1.178472E+06  2.419867E+03  7.746068E+03  2.445450E+02 -5.953688E+03 -2.349420E-03
        41  20 -1.179036E+06 -5.568662E+02  3.943172E+03  4.954578E+01 -3.936158E+03 -3.146979E-04
        41  21 -1.178474E+06 -8.315794E+01  2.318308E+03 -1.454565E+02 -1.918602E+03  4.503323E-04
        41  22 -1.178472E+06  2.419867E+03  7.746068E+03 -6.660526E-08 -5.953688E+03  3.707990E-10
        41  23 -1.179036E+06 -5.568662E+02  3.943172E+03  1.643497E-08 -3.936158E+03  1.788030E-10
        41  24 -1.178474E+06 -8.315798E+01  2.318308E+03  7.148655E-08 -1.918602E+03  3.198356E-10
        41  25 -1.178472E+06  2.419867E+03  7.746068E+03 -2.445450E+02 -5.953688E+03  2.349421E-03
        41  26 -1.179036E+06 -5.568662E+02  3.943172E+03 -4.954578E+01 -3.936158E+03  3.146980E-04
        41  27 -1.178474E+06 -8.315794E+01  2.318308E+03  1.454565E+02 -1.918602E+03 -4.503331E-04
        42   1 -1.178686E+06  3.576463E+02  1.774804E+03  2.807396E+01  1.548608E+03  7.015537E-05
        42   2 -1.178772E+06 -7.458616E+01  8.338799E+02  3.666523E+00  1.127468E+03  6.670850E-06
        42   3 -1.178687E+06 -4.562607E+01  2.828263E+02 -2.074092E+01  7.063280E+02 -2.363789E-05
        42   4 -1.178686E+06  3.576463E+02  1.774804E+03  1.139656E-07  1.548608E+03 -1.224840E-09
        42   5 -1.178772E+06 -7.458616E+01  8.338799E+02 -1.787582E-08  1.127468E+03  6.242915E-10
        42   6 -1.178687E+06 -4.562607E+01  2.828263E+02 -5.498624E-08  7.063280E+02  1.265008E-09
        42   7 -1.178686E+06  3.576463E+02  1.774804E+03 -2.807396E+01  1.548608E+03 -7.015688E-05
        42   8 -1.178772E+06 -7.458616E+01  8.338799E+02 -3.666523E+00  1.127468E+03 -6.670234E-06
        42   9 -1.178687E+06 -4.562607E+01  2.828263E+02  2.074092E+01  7.063280E+02  2.364074E-05
        42  10 -1.178686E+06  3.576456E+02  1.774800E+03  2.807396E+01  4.416366E-10 -6.809970E-10
        42  11 -1.178772E+06 -7.458650E+01  8.338775E+02  3.666523E+00  2.011443E-09  4.060213E-10
        42  12 -1.178687E+06 -4.562620E+01  2.828254E+02 -2.074092E+01 -2.051994E-09  5.377269E-10
        42  13 -1.178686E+06  3.576456E+02  1.774800E+03  2.785704E-08  4.093708E-10 -4.557079E-10
        42  14 -1.178772E+06 -7.458650E+01  8.338775E+02 -9.260712E-09 -1.962794E-10  4.593625E-10
        42  15 -1.178687E+06 -4.562620E+01  2.828254E+02 -1.623753E-08 -1.239119E-09  4.977416E-10
        42  16 -1.178686E+06  3.576456E+02  1.774800E+03 -2.807396E+01 -1.846143E-09 -6.350323E-10
        42  17 -1.178772E+06 -7.458650E+01  8.338775E+02 -3.666523E+00  1.913245E-09  3.783946E-10
        42  18 -1.178687E+06 -4.562620E+01  2.828254E+02  2.074092E+01  3.163488E-09  3.907093E-10
        42  19 -1.178686E+06  3.576463E+02  1.774804E+03  2.807396E+01 -1.548608E+03 -7.015504E-05
        42  20 -1.178772E+06 -7.458616E+01  8.338799E+02  3.666523E+00 -1.127468E+03 -6.668961E-06
        42  21 -1.178687E+06 -4.562607E+01  2.828263E+02 -2.074092E+01 -7.063280E+02  2.363948E-05
        42  22 -1.178686E+06  3.576463E+02  1.774804E+03  9.675929E-08 -1.548608E+03  2.137423E-10
        42  23 -1.178772E+06 -7.458616E+01  8.338799E+02 -1.039844E-07 -1.127468E+03  2.630768E-10
        42  24 -1.178687E+06 -4.562607E+01  2.828263E+02 -5.470803E-09 -7.063280E+02 -2.962116E-10
        42  25 -1.178686E+06  3.576463E+02  1.774804E+03 -2.807396E+01 -1.548608E+03  7.015495E-05
        42  26 -1.178772E+06 -7.458616E+01  8.338799E+02 -3.666523E+00 -1.127468E+03  6.670082E-06
        42  27 -1.178687E+06 -4.562607E+01  2.828263E+02  2.074092E+01 -7.063280E+02 -2.364037E-05
        43   1 -1.178746E+06  5.894373E+01  5.711168E+01 -1.237666E+01  6.755817E+02 -1.349193E-05
        43   2 -1.178698E+06  4.379546E+01 -4.268352E+02  2.306150E+00  8.918705E+02  3.318331E-06
        43   3 -1.178746E+06 -2.423490E+02 -1.119548E+03  1.698874E+01  1.108156E+03  3.038044E-05
        43   4 -1.178746E+06  5.894373E+01  5.711168E+01 -8.152092E-08  6.755817E+02  6.622801E-10
        43   5 -1.178698E+06  4.379546E+01 -4.268352E+02 -4.183088E-08  8.918705E+02 -6.577750E-10
        43   6 -1.178746E+06 -2.423490E+02 -1.119548E+03  6.890731E-08  1.108156E+03  8.450286E-11
        43   7 -1.178746E+06  5.894373E+01  5.711168E+01  1.237666E+01  6.755817E+02  1.349270E-05
        43   8 -1.178698E+06  4.379546E+01 -4.268352E+02 -2.306150E+00  8.918705E+02 -3.319817E-06
        43   9 -1.178746E+06 -2.423490E+02 -1.119548E+03 -1.698874E+01  1.108156E+03 -3.037989E-05
        43  10 -1.178746E+06  5.894361E+01  5.711082E+01 -1.237666E+01 -8.018263E-10  6.704550E-11
        43  11 -1.178698E+06  4.379524E+01 -4.268367E+02  2.306150E+00 -2.853753E-09 -1.231468E-10
        43  12 -1.178746E+06 -2.423493E+02 -1.119550E+03  1.698874E+01 -1.930714E-09  4.678768E-10
        43  13 -1.178746E+06  5.894361E+01  5.711082E+01 -9.874878E-08 -1.726849E-09  1.406069E-10
        43  14 -1.178698E+06  4.379524E+01 -4.268367E+02 -3.322023E-08  2.578997E-09 -3.654433E-10
        43  15 -1.178746E+06 -2.423493E+02 -1.119550E+03  4.522591E-08 -4.171228E-09  1.402276E-10
        43  16 -1.178746E+06  5.894361E+01  5.711082E+01  1.237666E+01  4.056432E-09  1.460266E-10
        43  17 -1.178698E+06  4.379524E+01 -4.268367E+02 -2.306150E+00  2.797674E-09 -6.072800E-10
        43  18 -1.178746E+06 -2.423493E+02 -1.119550E+03 -1.698874E+01 -3.503474E-09  2.844091E-10
        43  19 -1.178746E+06  5.894373E+01  5.711168E+01 -1.237666E+01 -6.755817E+02  1.349330E-05
        43  20 -1.178698E+06  4.379546E+01 -4.268352E+02  2.306150E+00 -8.918705E+02 -3.318658E-06
        43  21 -1.178746E+06 -2.423490E+02 -1.119548E+03  1.698874E+01 -1.108156E+03 -3.037908E-05
        43  22 -1.178746E+06  5.894373E+01  5.711168E+01 -2.986253E-08 -6.755817E+02 -6.835561E-10
        43  23 -1.178698E+06  4.379546E+01 -4.268352E+02 -7.627901E-08 -8.918705E+02 -1.190482E-10
        43  24 -1.178746E+06 -2.423490E+02 -1.119548E+03 -2.135831E-09 -1.108156E+03  1.425387E-11
        43  25 -1.178746E+06  5.894373E+01  5.711168E+01  1.237666E+01 -6.755817E+02 -1.349354E-05
        43  26 -1.178698E+06  4.379546E+01 -4.268352E+02 -2.306150E+00 -8.918705E+02  3.318958E-06
        43  27 -1.178746E+06 -2.423490E+02 -1.119548E+03 -1.698874E+01 -1.108156E+03  3.037938E-05
        44   1 -1.178893E+06  6.014136E+01 -1.505370E+03 -9.823815E+01  1.345440E+03 -2.132846E-04
        44   2 -1.178515E+06  3.752704E+02 -2.629973E+03  3.332614E+01  2.691576E+03  1.447468E-04
        44   3 -1.178895E+06 -1.634942E+03 -5.213530E+03  1.648925E+02  4.037730E+03  1.074371E-03
        44   4 -1.178893E+06  6.014134E+01 -1.505370E+03  8.040542E-08  1.345440E+03  1.918292E-10
        44   5 -1.178515E+06  3.752704E+02 -2.629973E+03 -1.576099E-08  2.691576E+03 -2.358650E-10
        44   6 -1.178895E+06 -1.634942E+03 -5.213530E+03 -3.442491E-08  4.037730E+03  8.814255E-10
        44   7 -1.178893E+06  6.014136E+01 -1.505370E+03  9.823815E+01  1.345440E+03  2.132852E-04
        44   8 -1.178515E+06  3.752704E+02 -2.629973E+03 -3.332614E+01  2.691576E+03 -1.447477E-04
        44   9 -1.178895E+06 -1.634942E+03 -5.213530E+03 -1.648925E+02  4.037730E+03 -1.074370E-03
        44  10 -1.178893E+06  6.014087E+01 -1.505374E+03 -9.823815E+01  2.030359E-09  3.113633E-10
        44  11 -1.178515E+06  3.752684E+02 -2.629986E+03  3.332614E+01 -2.084532E-09  1.030744E-10
        44  12 -1.178895E+06 -1.634947E+03 -5.213561E+03  1.648925E+02  6.610728E-10  6.201025E-10
        44  13 -1.178893E+06  6.014085E+01 -1.505374E+03  4.596017E-08 -4.258674E-10  3.213883E-10
        44  14 -1.178515E+06  3.752684E+02 -2.629986E+03 -4.159508E-08 -1.715266E-09  9.240277E-11
        44  15 -1.178895E+06 -1.634947E+03 -5.213561E+03 -6.886885E-08  2.548111E-09  1.389291E-10
        44  16 -1.178893E+06  6.014087E+01 -1.505374E+03  9.823815E+01 -3.501140E-10  3.991274E-10
        44  17 -1.178515E+06  3.752684E+02 -2.629986E+03 -3.332614E+01 -1.621006E-09 -4.816304E-10
        44  18 -1.178895E+06 -1.634947E+03 -5.213561E+03 -1.648925E+02 -3.736742E-10  5.057459E-10
        44  19 -1.178893E+06  6.014136E+01 -1.505370E+03 -9.823815E+01 -1.345440E+03  2.132857E-04
        44  20 -1.178515E+06  3.752704E+02 -2.629973E+03  3.332614E+01 -2.691576E+03 -1.447448E-04
        44  21 -1.178895E+06 -1.634942E+03 -5.213530E+03  1.648925E+02 -4.037730E+03 -1.074371E-03
        44  22 -1.178893E+06  6.014134E+01 -1.505370E+03  2.873859E-08 -1.345440E+03  2.998235E-10
        44  23 -1.178515E+06  3.752704E+02 -2.629973E+03 -9.326642E-08 -2.691576E+03  4.006676E-10
        44  24 -1.178895E+06 -1.634942E+03 -5.213530E+03 -6.672144E-08 -4.037730E+03 -5.396025E-10
        44  25 -1.178893E+06  6.014136E+01 -1.505370E+03  9.823815E+01 -1.345440E+03 -2.132854E-04
        44  26 -1.178515E+06  3.752704E+02 -2.629973E+03 -3.332614E+01 -2.691576E+03  1.447462E-04
        44  27 -1.178895E+06 -1.634942E+03 -5.213530E+03 -1.648925E+02 -4.037730E+03  1.074369E-03
        45   1 -1.179756E+06  3.715229E+02 -6.537713E+03 -6.365615E+02  5.099134E+03 -5.237850E-03
        45   2 -1.177441E+06  2.523335E+03 -1.056833E+04  2.878912E+02  1.063854E+04  4.942252E-03
        45   3 -1.179764E+06 -1.098273E+04 -2.212478E+04  1.212343E+03  1.617792E+04  3.164930E-02
        45   4 -1.179756E+06  3.715221E+02 -6.537713E+03  3.952386E-08  5.099134E+03  7.582457E-10
        45   5 -1.177441E+06  2.523335E+03 -1.056833E+04 -5.970366E-08  1.063854E+04 -5.258037E-10
        45   6 -1.179764E+06 -1.098273E+04 -2.212478E+04 -8.222642E-09  1.617792E+04 -1.284972E-10
        45   7 -1.179756E+06  3.715229E+02 -6.537713E+03  6.365615E+02  5.099134E+03  5.237853E-03
        45   8 -1.177441E+06  2.523335E+03 -1.056833E+04 -2.878912E+02  1.063854E+04 -4.942255E-03
        45   9 -1.179764E+06 -1.098273E+04 -2.212478E+04 -1.212343E+03  1.617792E+04 -3.164929E-02
        45  10 -1.179756E+06  3.715159E+02 -6.537762E+03 -6.365615E+02 -2.221374E-10  3.858644E-11
        45  11 -1.177441E+06  2.523305E+03 -1.056854E+04  2.878912E+02 -1.634638E-09 -2.971712E-11
        45  12 -1.179765E+06 -1.098280E+04 -2.212527E+04  1.212343E+03  1.887436E-10 -7.144778E-10
        45  13 -1.179756E+06  3.715151E+02 -6.537762E+03 -6.381944E-08  1.026021E-09  1.583202E-10
        45  14 -1.177441E+06  2.523305E+03 -1.056854E+04 -7.692980E-08 -1.288983E-09 -2.678979E-11
        45  15 -1.179765E+06 -1.098280E+04 -2.212528E+04 -7.281721E-08 -4.124507E-10 -2.680995E-10
        45  16 -1.179756E+06  3.715159E+02 -6.537762E+03  6.365615E+02 -2.376851E-09 -5.929306E-11
        45  17 -1.177441E+06  2.523305E+03 -1.056854E+04 -2.878912E+02 -2.491547E-10  2.455645E-10
        45  18 -1.179765E+06 -1.098280E+04 -2.212527E+04 -1.212343E+03  5.751821E-10  2.557121E-10
        45  19 -1.179756E+06  3.715229E+02 -6.537713E+03 -6.365615E+02 -5.099134E+03  5.237852E-03
        45  20 -1.177441E+06  2.523335E+03 -1.056833E+04  2.878912E+02 -1.063854E+04 -4.942253E-03
        45  21 -1.179764E+06 -1.098273E+04 -2.212478E+04  1.212343E+03 -1.617792E+04 -3.164930E-02
        45  22 -1.179756E+06  3.715221E+02 -6.537713E+03  5.072241E-09 -5.099134E+03 -3.038752E-10
        45  23 -1.177441E+06  2.523335E+03 -1.056833E+04 -7.693243E-08 -1.063854E+04  3.668770E-10
        45  24 -1.179764E+06 -1.098273E+04 -2.212478E+04 -1.038475E-08 -1.617792E+04 -3.971862E-10
        45  25 -1.179756E+06  3.715229E+02 -6.537713E+03  6.365615E+02 -5.099134E+03 -5.237852E-03
        45  26 -1.177441E+06  2.523335E+03 -1.056833E+04 -2.878912E+02 -1.063854E+04  4.942254E-03
        45  27 -1.179764E+06 -1.098273E+04 -2.212478E+04 -1.212343E+03 -1.617792E+04  3.164929E-02
        46   1 -1.185176E+06  2.537060E+03 -2.675628E+04 -4.156846E+03  2.058706E+04 -1.380950E-01
        46   2 -1.170677E+06  1.682121E+04 -4.086394E+04  2.171421E+03  4.291163E+04  1.503588E-01
        46   3 -1.185220E+06 -7.336562E+04 -9.564243E+04  8.499469E+03  6.523602E+04  8.947354E-01
        46   4 -1.185176E+06  2.537027E+03 -2.675628E+04 -2.677185E-08  2.058706E+04  2.771715E-10
        46   5 -1.170677E+06  1.682120E+04 -4.086395E+04  7.737048E-09  4.291163E+04  7.637118E-11
        46   6 -1.185220E+06 -7.336575E+04 -9.564245E+04  2.933030E-08  6.523602E+04 -2.881594E-10
        46   7 -1.185176E+06  2.537060E+03 -2.675628E+04  4.156846E+03  2.058706E+04  1.380950E-01
        46   8 -1.170677E+06  1.682121E+04 -4.086394E+04 -2.171421E+03  4.291163E+04 -1.503588E-01
        46   9 -1.185220E+06 -7.336562E+04 -9.564243E+04 -8.499469E+03  6.523602E+04 -8.947354E-01
        46  10 -1.185176E+06  2.536946E+03 -2.675708E+04 -4.156846E+03  1.652959E-10 -4.007772E-10
        46  11 -1.170679E+06  1.682071E+04 -4.086741E+04  2.171421E+03  1.964685E-09  1.063913E-10
        46  12 -1.185225E+06 -7.336676E+04 -9.565044E+04  8.499469E+03  6.710843E-10  4.778725E-11
        46  13 -1.185176E+06  2.536913E+03 -2.675708E+04 -4.399281E-08 -2.335336E-10 -1.323772E-10
        46  14 -1.170679E+06  1.682071E+04 -4.086741E+04 -4.393199E-08 -1.076423E-09  5.091595E-11
        46  15 -1.185225E+06 -7.336690E+04 -9.565046E+04  1.210416E-08  1.924013E-09  9.820551E-11
        46  16 -1.185176E+06  2.536946E+03 -2.675708E+04  4.156846E+03  1.151287E-09  3.315416E-12
        46  17 -1.170679E+06  1.682071E+04 -4.086741E+04 -2.171421E+03  5.042438E-10  5.693449E-11
        46  18 -1.185225E+06 -7.336676E+04 -9.565044E+04 -8.499469E+03  3.601088E-10  3.697326E-10
        46  19 -1.185176E+06  2.537060E+03 -2.675628E+04 -4.156846E+03 -2.058706E+04  1.380950E-01
        46  20 -1.170677E+06  1.682121E+04 -4.086394E+04  2.171421E+03 -4.291163E+04 -1.503588E-01
        46  21 -1.185220E+06 -7.336562E+04 -9.564243E+04  8.499469E+03 -6.523602E+04 -8.947354E-01
        46  22 -1.185176E+06  2.537027E+03 -2.675628E+04 -2.676318E-08 -2.058706E+04 -5.623395E-10
        46  23 -1.170677E+06  1.682120E+04 -4.086395E+04 -7.837889E-08 -4.291163E+04  6.170713E-11
        46  24 -1.185220E+06 -7.336575E+04 -9.564245E+04  2.717269E-08 -6.523602E+04  4.588957E-10
        46  25 -1.185176E+06  2.537060E+03 -2.675628E+04  4.156846E+03 -2.058706E+04 -1.380950E-01
        46  26 -1.170677E+06  1.682121E+04 -4.086394E+04 -2.171421E+03 -4.291163E+04  1.503588E-01
        46  27 -1.185220E+06 -7.336562E+04 -9.564243E+04 -8.499469E+03 -6.523602E+04  8.947354E-01
        47   1 -3.435212E+04 -2.060544E+06 -4.239224E+04  6.753995E+04  2.823234E+02 -2.472334E+04
        47   2  2.746002E+04 -1.943561E+06  5.859547E+03  1.535834E+04  2.523540E+03 -1.500966E+04
        47   3  5.184725E+04 -1.837176E+06  3.841669E+04  5.534129E+04  6.711633E+03 -5.293164E+03
        47   4 -2.928492E+04 -2.040381E+06 -3.725538E+04  5.904627E+04  2.826033E+02 -2.529859E+04
        47   5  4.664674E+03 -2.035139E+06 -1.633654E+04  1.296259E+04  2.523617E+03 -1.647017E+04
        47   6  1.341844E+03 -2.040353E+06 -1.049478E+04  5.904555E+04  6.711793E+03 -7.640677E+03
        47   7 -2.421747E+04 -2.020218E+06 -3.211851E+04  5.055231E+04  2.828990E+02 -2.587386E+04
        47   8 -1.813127E+04 -2.126710E+06 -3.853322E+04  1.056719E+04  2.523704E+03 -1.793047E+04
        47   9 -4.916652E+04 -2.243492E+06 -5.940917E+04  6.274859E+04  6.711926E+03 -9.987423E+03
        47  10 -3.435229E+04 -2.060544E+06 -4.239339E+04  6.753996E+04  2.250773E-09  7.570165E-10
        47  11  2.745995E+04 -1.943561E+06  5.859110E+03  1.535837E+04  2.754022E-09 -3.047678E-10
        47  12  5.184719E+04 -1.837176E+06  3.841655E+04  5.534132E+04 -4.583204E-10 -1.628341E-09
        47  13 -2.928509E+04 -2.040382E+06 -3.725659E+04  5.904627E+04  5.017077E-10  5.882713E-11
        47  14  4.664594E+03 -2.035140E+06 -1.633706E+04  1.296262E+04 -3.470451E-09 -1.203918E-11
        47  15  1.341780E+03 -2.040353E+06 -1.049498E+04  5.904559E+04 -3.384374E-10 -1.227016E-10
        47  16 -2.421765E+04 -2.020219E+06 -3.211978E+04  5.055231E+04 -4.768157E-10 -7.933172E-10
        47  17 -1.813136E+04 -2.126710E+06 -3.853383E+04  1.056723E+04 -3.438082E-09  3.271984E-10
        47  18 -4.916660E+04 -2.243492E+06 -5.940945E+04  6.274865E+04  7.505417E-10  1.684964E-09
        47  19 -3.435212E+04 -2.060544E+06 -4.239224E+04  6.753995E+04 -2.823234E+02  2.472334E+04
        47  20  2.746002E+04 -1.943561E+06  5.859547E+03  1.535834E+04 -2.523540E+03  1.500966E+04
        47  21  5.184725E+04 -1.837176E+06  3.841669E+04  5.534129E+04 -6.711633E+03  5.293164E+03
        47  22 -2.928492E+04 -2.040381E+06 -3.725538E+04  5.904627E+04 -2.826033E+02  2.529859E+04
        47  23  4.664674E+03 -2.035139E+06 -1.633654E+04  1.296259E+04 -2.523617E+03  1.647017E+04
        47  24  1.341844E+03 -2.040353E+06 -1.049478E+04  5.904555E+04 -6.711793E+03  7.640677E+03
        47  25 -2.421747E+04 -2.020218E+06 -3.211851E+04  5.055231E+04 -2.828990E+02  2.587386E+04
        47  26 -1.813127E+04 -2.126710E+06 -3.853322E+04  1.056719E+04 -2.523704E+03  1.793047E+04
        47  27 -4.916652E+04 -2.243492E+06 -5.940917E+04  6.274859E+04 -6.711926E+03  9.987423E+03
        48   1  8.920198E+04 -1.666807E+06  8.146598E+04  5.942665E+04  9.794451E+03 -3.755506E+03
        48   2  1.200324E+05 -1.557524E+06  1.113365E+05  1.361390E+04  1.389076E+04 -2.012018E+03
        48   3  1.460152E+05 -1.449231E+06  1.389458E+05  5.756873E+04  1.635697E+04 -2.650905E+02
        48   4 -3.283475E+03 -2.038316E+06 -8.693840E+03  5.851284E+04  9.795137E+03 -5.988052E+03
        48   5  5.615068E+02 -2.037756E+06 -4.835868E+03  1.362708E+04  1.389220E+04 -3.504002E+03
        48   6 -5.710332E+02 -2.038328E+06 -3.754734E+03  5.851339E+04  1.635857E+04 -1.016812E+03
        48   7 -9.577909E+04 -2.409699E+06 -9.886362E+04  5.759959E+04  9.795829E+03 -8.219263E+03
        48   8 -1.189263E+05 -2.517777E+06 -1.210248E+05  1.364028E+04  1.389364E+04 -4.994833E+03
        48   9 -1.471828E+05 -2.627106E+06 -1.464803E+05  5.945719E+04  1.636017E+04 -1.767821E+03
        48  10  8.920187E+04 -1.666807E+06  8.146577E+04  5.942668E+04  9.537409E-10  9.876590E-10
        48  11  1.200322E+05 -1.557524E+06  1.113361E+05  1.361393E+04  3.571788E-09  2.038508E-09
        48  12  1.460149E+05 -1.449231E+06  1.389453E+05  5.756873E+04  2.426365E-09  1.855763E-09
        48  13 -3.283588E+03 -2.038316E+06 -8.694088E+03  5.851289E+04 -5.929135E-10  1.466975E-10
        48  14  5.612965E+02 -2.037756E+06 -4.836254E+03  1.362712E+04 -2.221532E-10 -3.624193E-10
        48  15 -5.713205E+02 -2.038328E+06 -3.755238E+03  5.851340E+04 -1.954997E-09 -1.071873E-09
        48  16 -9.577921E+04 -2.409699E+06 -9.886393E+04  5.759965E+04  6.597454E-10 -8.359241E-10
        48  17 -1.189265E+05 -2.517777E+06 -1.210252E+05  1.364033E+04  9.455219E-10 -2.958078E-09
        48  18 -1.471831E+05 -2.627106E+06 -1.464808E+05  5.945721E+04  1.656929E-09 -2.165006E-09
        48  19  8.920198E+04 -1.666807E+06  8.146598E+04  5.942665E+04 -9.794451E+03  3.755506E+03
        48  20  1.200324E+05 -1.557524E+06  1.113365E+05  1.361390E+04 -1.389076E+04  2.012018E+03
        48  21  1.460152E+05 -1.449231E+06  1.389458E+05  5.756873E+04 -1.635697E+04  2.650905E+02
        48  22 -3.283475E+03 -2.038316E+06 -8.693840E+03  5.851284E+04 -9.795137E+03  5.988052E+03
        48  23  5.615068E+02 -2.037756E+06 -4.835868E+03  1.362708E+04 -1.389220E+04  3.504002E+03
        48  24 -5.710332E+02 -2.038328E+06 -3.754734E+03  5.851339E+04 -1.635857E+04  1.016812E+03
        48  25 -9.577909E+04 -2.409699E+06 -9.886362E+04  5.759959E+04 -9.795829E+03  8.219263E+03
        48  26 -1.189263E+05 -2.517777E+06 -1.210248E+05  1.364028E+04 -1.389364E+04  4.994833E+03
        48  27 -1.471828E+05 -2.627106E+06 -1.464803E+05  5.945719E+04 -1.636017E+04  1.767821E+03
        49   1  1.862990E+05 -1.288078E+06  1.779848E+05  5.725563E+04  2.176488E+04  6.064830E+03
        49   2  2.123344E+05 -1.186425E+06  2.021359E+05  1.386441E+04  2.561767E+04 -1.478913E+03
        49   3  2.335661E+05 -1.083629E+06  2.302836E+05  5.418496E+04  8.801857E+03 -9.063521E+03
        49   4 -2.908262E+02 -2.038250E+06 -3.435561E+03  5.717072E+04  2.177329E+04 -3.909537E+02
        49   5  5.811547E+02 -2.038013E+06 -3.531091E+03  1.530644E+04  2.561515E+04  1.476530E+03
        49   6 -4.990585E+03 -2.038281E+06 -6.178041E+03  5.716120E+04  8.775835E+03  3.304239E+03
        49   7 -1.869220E+05 -2.787906E+06 -1.848962E+05  5.708602E+04  2.178171E+04 -6.838948E+03
        49   8 -2.112252E+05 -2.888936E+06 -2.092501E+05  1.674675E+04  2.561264E+04  4.427925E+03
        49   9 -2.436155E+05 -2.992103E+06 -2.427071E+05  6.013326E+04  8.749912E+03  1.565297E+04
        49  10  1.862985E+05 -1.288079E+06  1.779838E+05  5.725552E+04  1.853634E-09 -2.448371E-09
        49  11  2.123337E+05 -1.186425E+06  2.021347E+05  1.386444E+04  3.492699E-10 -5.206263E-09
        49  12  2.335660E+05 -1.083629E+06  2.302833E+05  5.418503E+04 -1.400372E-09 -3.342124E-09
        49  13 -2.913349E+02 -2.038251E+06 -3.436452E+03  5.717072E+04  1.222883E-09  8.587890E-11
        49  14  5.804502E+02 -2.038013E+06 -3.532327E+03  1.530641E+04  3.038154E-09 -1.604784E-09
        49  15 -4.990671E+03 -2.038281E+06 -6.178206E+03  5.716118E+04  1.167849E-10 -2.521857E-09
        49  16 -1.869225E+05 -2.787907E+06 -1.848972E+05  5.708614E+04  2.792025E-09  2.774119E-09
        49  17 -2.112259E+05 -2.888936E+06 -2.092514E+05  1.674666E+04  3.819107E-09  1.980847E-09
        49  18 -2.436157E+05 -2.992103E+06 -2.427077E+05  6.013315E+04  1.972897E-09  1.945279E-09
        49  19  1.862990E+05 -1.288078E+06  1.779848E+05  5.725563E+04 -2.176488E+04 -6.064830E+03
        49  20  2.123344E+05 -1.186425E+06  2.021359E+05  1.386441E+04 -2.561767E+04  1.478913E+03
        49  21  2.335661E+05 -1.083629E+06  2.302836E+05  5.418496E+04 -8.801857E+03  9.063521E+03
        49  22 -2.908262E+02 -2.038250E+06 -3.435561E+03  5.717072E+04 -2.177329E+04  3.909537E+02
        49  23  5.811547E+02 -2.038013E+06 -3.531091E+03  1.530644E+04 -2.561515E+04 -1.476530E+03
        49  24 -4.990585E+03 -2.038281E+06 -6.178041E+03  5.716120E+04 -8.775835E+03 -3.304239E+03
        49  25 -1.869220E+05 -2.787906E+06 -1.848962E+05  5.708602E+04 -2.178171E+04  6.838948E+03
        49  26 -2.112252E+05 -2.888936E+06 -2.092501E+05  1.674675E+04 -2.561264E+04 -4.427925E+03
        49  27 -2.436155E+05 -2.992103E+06 -2.427071E+05  6.013326E+04 -8.749912E+03 -1.565297E+04
        50   1 -1.328598E+06 -1.418618E+05  6.669043E+04 -5.113465E+05  5.146378E+04  1.957668E+04
        50   2 -1.345622E+06 -2.120374E+05  1.897151E+04 -4.910608E+05  3.299606E+04  1.314521E+04
        50   3 -1.325594E+06 -2.040088E+05  7.376754E+03 -4.964024E+05  1.476098E+04  6.092561E+03
        50   4 -1.269843E+06 -1.258514E+05  8.163546E+04 -5.017471E+05  5.158411E+04  1.962115E+04
        50   5 -1.292416E+06 -1.935298E+05  3.325676E+04 -4.782314E+05  3.301708E+04  1.315298E+04
        50   6 -1.277920E+06 -1.829888E+05  2.107842E+04 -4.803424E+05  1.468284E+04  6.063370E+03
        50   7 -1.211085E+06 -1.098411E+05  9.658020E+04 -4.921471E+05  5.170444E+04  1.966562E+04
        50   8 -1.239208E+06 -1.750222E+05  4.754175E+04 -4.654011E+05  3.303811E+04  1.316075E+04
        50   9 -1.230243E+06 -1.619684E+05  3.477989E+04 -4.642811E+05  1.460469E+04  6.034176E+03
        50  10 -1.328601E+06 -1.418629E+05  6.668472E+04 -5.113473E+05 -2.028116E-09  2.563362E-10
        50  11 -1.345624E+06 -2.120379E+05  1.896913E+04 -4.910612E+05 -3.808663E-09 -2.106641E-10
        50  12 -1.325594E+06 -2.040089E+05  7.376273E+03 -4.964025E+05 -8.824936E-10  2.670311E-12
        50  13 -1.269846E+06 -1.258525E+05  8.162972E+04 -5.017479E+05 -2.149719E-10 -8.751224E-11
        50  14 -1.292418E+06 -1.935303E+05  3.325438E+04 -4.782318E+05 -2.997702E-10  4.034168E-10
        50  15 -1.277920E+06 -1.829889E+05  2.107795E+04 -4.803425E+05  4.880630E-10 -2.541340E-10
        50  16 -1.211088E+06 -1.098423E+05  9.657444E+04 -4.921479E+05  4.984245E-10  1.113078E-10
        50  17 -1.239209E+06 -1.750227E+05  4.753937E+04 -4.654014E+05  2.001831E-09  2.765445E-10
        50  18 -1.230243E+06 -1.619685E+05  3.477942E+04 -4.642812E+05  1.109378E-09  4.790407E-10
        50  19 -1.328598E+06 -1.418618E+05  6.669043E+04 -5.113465E+05 -5.146378E+04 -1.957668E+04
        50  20 -1.345622E+06 -2.120374E+05  1.897151E+04 -4.910608E+05 -3.299606E+04 -1.314521E+04
        50  21 -1.325594E+06 -2.040088E+05  7.376754E+03 -4.964024E+05 -1.476098E+04 -6.092561E+03
        50  22 -1.269843E+06 -1.258514E+05  8.163546E+04 -5.017471E+05 -5.158411E+04 -1.962115E+04
        50  23 -1.292416E+06 -1.935298E+05  3.325676E+04 -4.782314E+05 -3.301708E+04 -1.315298E+04
        50  24 -1.277920E+06 -1.829888E+05  2.107842E+04 -4.803424E+05 -1.468284E+04 -6.063370E+03
        50  25 -1.211085E+06 -1.098411E+05  9.658020E+04 -4.921471E+05 -5.170444E+04 -1.966562E+04
        50  26 -1.239208E+06 -1.750222E+05  4.754175E+04 -4.654011E+05 -3.303811E+04 -1.316075E+04
        50  27 -1.230243E+06 -1.619684E+05  3.477989E+04 -4.642811E+05 -1.460469E+04 -6.034176E+03
        51   1 -1.308581E+06 -1.834517E+05  9.795952E+03 -4.928069E+05  1.153539E+04  4.699583E+03
        51   2 -1.310886E+06 -1.907205E+05  1.035439E+03 -4.864272E+05  7.409600E+03  3.111826E+03
        51   3 -1.302843E+06 -1.907757E+05 -1.256924E+03 -4.890989E+05  3.327336E+03  1.407868E+03
        51   4 -1.280321E+06 -1.736829E+05  1.737443E+04 -4.860568E+05  1.153912E+04  4.700957E+03
        51   5 -1.286104E+06 -1.815867E+05  7.794454E+03 -4.799237E+05  7.394884E+03  3.106309E+03
        51   6 -1.281535E+06 -1.822735E+05  4.697019E+03 -4.828418E+05  3.294209E+03  1.395464E+03
        51   7 -1.252061E+06 -1.639142E+05  2.495284E+04 -4.793065E+05  1.154284E+04  4.702331E+03
        51   8 -1.261321E+06 -1.724529E+05  1.455340E+04 -4.734200E+05  7.380166E+03  3.100792E+03
        51   9 -1.260226E+06 -1.737712E+05  1.065090E+04 -4.765846E+05  3.261081E+03  1.383059E+03
        51  10 -1.308581E+06 -1.834518E+05  9.795660E+03 -4.928069E+05 -8.176159E-11  3.485119E-10
        51  11 -1.310886E+06 -1.907205E+05  1.035317E+03 -4.864272E+05 -5.734290E-10  2.348478E-10
        51  12 -1.302843E+06 -1.907757E+05 -1.256948E+03 -4.890989E+05  2.722928E-10 -3.186839E-10
        51  13 -1.280321E+06 -1.736830E+05  1.737414E+04 -4.860569E+05  4.429286E-10  5.816863E-10
        51  14 -1.286104E+06 -1.815867E+05  7.794333E+03 -4.799237E+05 -1.668511E-09  1.372262E-09
        51  15 -1.281535E+06 -1.822735E+05  4.696995E+03 -4.828418E+05  3.329821E-10 -1.792100E-10
        51  16 -1.252061E+06 -1.639142E+05  2.495255E+04 -4.793065E+05  4.628993E-10  5.927275E-10
        51  17 -1.261321E+06 -1.724529E+05  1.455328E+04 -4.734200E+05  6.512924E-10  6.210113E-10
        51  18 -1.260226E+06 -1.737712E+05  1.065087E+04 -4.765846E+05  1.450729E-09 -7.878825E-10
        51  19 -1.308581E+06 -1.834517E+05  9.795952E+03 -4.928069E+05 -1.153539E+04 -4.699583E+03
        51  20 -1.310886E+06 -1.907205E+05  1.035439E+03 -4.864272E+05 -7.409600E+03 -3.111826E+03
        51  21 -1.302843E+06 -1.907757E+05 -1.256924E+03 -4.890989E+05 -3.327336E+03 -1.407868E+03
        51  22 -1.280321E+06 -1.736829E+05  1.737443E+04 -4.860568E+05 -1.153912E+04 -4.700957E+03
        51  23 -1.286104E+06 -1.815867E+05  7.794454E+03 -4.799237E+05 -7.394884E+03 -3.106309E+03
        51  24 -1.281535E+06 -1.822735E+05  4.697019E+03 -4.828418E+05 -3.294209E+03 -1.395464E+03
        51  25 -1.252061E+06 -1.639142E+05  2.495284E+04 -4.793065E+05 -1.154284E+04 -4.702331E+03
        51  26 -1.261321E+06 -1.724529E+05  1.455340E+04 -4.734200E+05 -7.380166E+03 -3.100792E+03
        51  27 -1.260226E+06 -1.737712E+05  1.065090E+04 -4.765846E+05 -3.261081E+03 -1.383059E+03
        52   1 -1.277062E+06 -1.789536E+05  5.113940E+03 -4.822894E+05  2.649961E+03  1.036187E+03
        52   2 -1.277062E+06 -1.766801E+05  3.997652E+03 -4.779161E+05  1.773714E+03  5.609953E+02
        52   3 -1.270793E+06 -1.780110E+05  4.074377E+03 -4.802553E+05  8.985307E+02  8.295366E+01
        52   4 -1.281912E+06 -1.809096E+05  3.746844E+03 -4.837331E+05  2.629917E+03  1.028680E+03
        52   5 -1.285137E+06 -1.797534E+05  1.775259E+03 -4.801352E+05  1.753230E+03  5.533229E+02
        52   6 -1.282094E+06 -1.822016E+05  9.970331E+02 -4.832498E+05  8.776117E+02  7.511790E+01
        52   7 -1.286761E+06 -1.828656E+05  2.379742E+03 -4.851768E+05  2.609873E+03  1.021173E+03
        52   8 -1.293212E+06 -1.828268E+05 -4.471448E+02 -4.823543E+05  1.732746E+03  5.456505E+02
        52   9 -1.293395E+06 -1.863922E+05 -2.080328E+03 -4.862442E+05  8.566931E+02  6.728227E+01
        52  10 -1.277062E+06 -1.789536E+05  5.113924E+03 -4.822894E+05 -1.511955E-09 -3.500352E-10
        52  11 -1.277062E+06 -1.766801E+05  3.997646E+03 -4.779161E+05  2.532545E-09  9.850446E-11
        52  12 -1.270793E+06 -1.780110E+05  4.074375E+03 -4.802553E+05  1.637877E-09 -2.051678E-10
        52  13 -1.281912E+06 -1.809096E+05  3.746829E+03 -4.837331E+05  5.188240E-10  3.982810E-10
        52  14 -1.285137E+06 -1.797534E+05  1.775253E+03 -4.801352E+05  2.701003E-09 -2.913471E-10
        52  15 -1.282094E+06 -1.822016E+05  9.970316E+02 -4.832498E+05 -4.912991E-10 -8.415089E-10
        52  16 -1.286761E+06 -1.828656E+05  2.379727E+03 -4.851768E+05  4.271830E-10 -2.456792E-10
        52  17 -1.293212E+06 -1.828268E+05 -4.471511E+02 -4.823543E+05  1.262728E-09 -4.059653E-10
        52  18 -1.293395E+06 -1.863922E+05 -2.080330E+03 -4.862442E+05  1.036926E-09 -3.497814E-10
        52  19 -1.277062E+06 -1.789536E+05  5.113940E+03 -4.822894E+05 -2.649961E+03 -1.036187E+03
        52  20 -1.277062E+06 -1.766801E+05  3.997652E+03 -4.779161E+05 -1.773714E+03 -5.609953E+02
        52  21 -1.270793E+06 -1.780110E+05  4.074377E+03 -4.802553E+05 -8.985307E+02 -8.295366E+01
        52  22 -1.281912E+06 -1.809096E+05  3.746844E+03 -4.837331E+05 -2.629917E+03 -1.028680E+03
        52  23 -1.285137E+06 -1.797534E+05  1.775259E+03 -4.801352E+05 -1.753230E+03 -5.533229E+02
        52  24 -1.282094E+06 -1.822016E+05  9.970331E+02 -4.832498E+05 -8.776117E+02 -7.511790E+01
        52  25 -1.286761E+06 -1.828656E+05  2.379742E+03 -4.851768E+05 -2.609873E+03 -1.021173E+03
        52  26 -1.293212E+06 -1.828268E+05 -4.471448E+02 -4.823543E+05 -1.732746E+03 -5.456505E+02
        52  27 -1.293395E+06 -1.863922E+05 -2.080328E+03 -4.862442E+05 -8.566931E+02 -6.728227E+01
        53   1 -1.246149E+06 -1.681244E+05  1.070344E+04 -4.733272E+05  7.891434E+02 -5.645752E+01
        53   2 -1.245856E+06 -1.650389E+05  1.095272E+04 -4.698884E+05  6.898441E+02 -2.478546E+02
        53   3 -1.240821E+06 -1.663569E+05  1.137678E+04 -4.718006E+05  5.743904E+02 -3.960730E+02
        53   4 -1.282353E+06 -1.817979E+05  7.498240E+02 -4.831652E+05  7.644897E+02 -6.569423E+01
        53   5 -1.284739E+06 -1.797128E+05  2.773621E+02 -4.804457E+05  6.719783E+02 -2.545510E+02
        53   6 -1.282386E+06 -1.820325E+05 -2.568993E+01 -4.830773E+05  5.633123E+02 -4.002277E+02
        53   7 -1.318555E+06 -1.954714E+05 -9.203875E+03 -4.930026E+05  7.398376E+02 -7.493032E+01
        53   8 -1.323621E+06 -1.943867E+05 -1.039812E+04 -4.910025E+05  6.541136E+02 -2.612468E+02
        53   9 -1.323948E+06 -1.977080E+05 -1.142834E+04 -4.943533E+05  5.522350E+02 -4.043821E+02
        53  10 -1.246149E+06 -1.681244E+05  1.070344E+04 -4.733272E+05  5.581985E-10  1.713569E-10
        53  11 -1.245856E+06 -1.650389E+05  1.095271E+04 -4.698884E+05  3.357882E-09  6.317904E-10
        53  12 -1.240821E+06 -1.663569E+05  1.137678E+04 -4.718006E+05 -1.592050E-10  3.085755E-10
        53  13 -1.282353E+06 -1.817979E+05  7.498229E+02 -4.831652E+05 -8.011744E-11 -1.993230E-12
        53  14 -1.284739E+06 -1.797128E+05  2.773611E+02 -4.804457E+05 -3.427468E-09  1.220299E-09
        53  15 -1.282386E+06 -1.820325E+05 -2.569083E+01 -4.830773E+05 -3.857144E-09  3.321464E-11
        53  16 -1.318555E+06 -1.954714E+05 -9.203876E+03 -4.930026E+05  1.180011E-10 -3.158070E-10
        53  17 -1.323621E+06 -1.943867E+05 -1.039812E+04 -4.910025E+05 -3.155670E-09  1.677048E-09
        53  18 -1.323948E+06 -1.977080E+05 -1.142834E+04 -4.943533E+05  4.661134E-10  4.199445E-10
        53  19 -1.246149E+06 -1.681244E+05  1.070344E+04 -4.733272E+05 -7.891434E+02  5.645752E+01
        53  20 -1.245856E+06 -1.650389E+05  1.095272E+04 -4.698884E+05 -6.898441E+02  2.478546E+02
        53  21 -1.240821E+06 -1.663569E+05  1.137678E+04 -4.718006E+05 -5.743904E+02  3.960730E+02
        53  22 -1.282353E+06 -1.817979E+05  7.498240E+02 -4.831652E+05 -7.644897E+02  6.569423E+01
        53  23 -1.284739E+06 -1.797128E+05  2.773621E+02 -4.804457E+05 -6.719783E+02  2.545510E+02
        53  24 -1.282386E+06 -1.820325E+05 -2.568993E+01 -4.830773E+05 -5.633123E+02  4.002277E+02
        53  25 -1.318555E+06 -1.954714E+05 -9.203875E+03 -4.930026E+05 -7.398376E+02  7.493032E+01
        53  26 -1.323621E+06 -1.943867E+05 -1.039812E+04 -4.910025E+05 -6.541136E+02  2.612468E+02
        53  27 -1.323948E+06 -1.977080E+05 -1.142834E+04 -4.943533E+05 -5.522350E+02  4.043821E+02
        54   1 -1.222754E+06 -1.588973E+05  1.633998E+04 -4.663671E+05  6.240631E+02 -4.494019E+02
        54   2 -1.222513E+06 -1.568377E+05  1.642718E+04 -4.642842E+05  9.108830E+02 -4.623533E+02
        54   3 -1.219582E+06 -1.579425E+05  1.624297E+04 -4.653277E+05  1.170406E+03 -4.024532E+02
        54   4 -1.282813E+06 -1.815517E+05 -1.566589E+02 -4.826604E+05  6.017292E+02 -4.577784E+02
        54   5 -1.284179E+06 -1.801212E+05 -5.052220E+02 -4.810398E+05  8.999651E+02 -4.664531E+02
        54   6 -1.282857E+06 -1.818576E+05 -1.134261E+03 -4.825457E+05  1.170902E+03 -4.022732E+02
        54   7 -1.342870E+06 -2.042059E+05 -1.665363E+04 -4.989522E+05  5.793976E+02 -4.661541E+02
        54   8 -1.345841E+06 -2.034046E+05 -1.743796E+04 -4.977939E+05  8.890484E+02 -4.705525E+02
        54   9 -1.346127E+06 -2.057724E+05 -1.851184E+04 -4.997621E+05  1.171398E+03 -4.020931E+02
        54  10 -1.222754E+06 -1.588973E+05  1.633998E+04 -4.663671E+05 -2.416443E-09 -8.622426E-11
        54  11 -1.222513E+06 -1.568377E+05  1.642717E+04 -4.642842E+05  1.342102E-10  1.969680E-10
        54  12 -1.219582E+06 -1.579425E+05  1.624297E+04 -4.653277E+05 -5.275648E-10  7.893739E-11
        54  13 -1.282813E+06 -1.815517E+05 -1.566600E+02 -4.826604E+05  1.718184E-10 -4.915209E-10
        54  14 -1.284179E+06 -1.801212E+05 -5.052240E+02 -4.810398E+05  2.916054E-10  2.836443E-10
        54  15 -1.282857E+06 -1.818576E+05 -1.134264E+03 -4.825457E+05  2.300525E-09  5.562284E-10
        54  16 -1.342870E+06 -2.042059E+05 -1.665363E+04 -4.989522E+05  4.110884E-09 -4.875601E-10
        54  17 -1.345841E+06 -2.034046E+05 -1.743796E+04 -4.977939E+05  2.236011E-09  3.867832E-10
        54  18 -1.346127E+06 -2.057724E+05 -1.851185E+04 -4.997621E+05 -1.252517E-09  6.549747E-11
        54  19 -1.222754E+06 -1.588973E+05  1.633998E+04 -4.663671E+05 -6.240631E+02  4.494019E+02
        54  20 -1.222513E+06 -1.568377E+05  1.642718E+04 -4.642842E+05 -9.108830E+02  4.623533E+02
        54  21 -1.219582E+06 -1.579425E+05  1.624297E+04 -4.653277E+05 -1.170406E+03  4.024532E+02
        54  22 -1.282813E+06 -1.815517E+05 -1.566589E+02 -4.826604E+05 -6.017292E+02  4.577784E+02
        54  23 -1.284179E+06 -1.801212E+05 -5.052220E+02 -4.810398E+05 -8.999651E+02  4.664531E+02
        54  24 -1.282857E+06 -1.818576E+05 -1.134261E+03 -4.825457E+05 -1.170902E+03  4.022732E+02
        54  25 -1.342870E+06 -2.042059E+05 -1.665363E+04 -4.989522E+05 -5.793976E+02  4.661541E+02
        54  26 -1.345841E+06 -2.034046E+05 -1.743796E+04 -4.977939E+05 -8.890484E+02  4.705525E+02
        54  27 -1.346127E+06 -2.057724E+05 -1.851184E+04 -4.997621E+05 -1.171398E+03  4.020931E+02
        55   1 -1.212036E+06 -1.541324E+05  1.812995E+04 -4.628012E+05  1.413744E+03 -3.436992E+02
        55   2 -1.211686E+06 -1.533164E+05  1.708427E+04 -4.623579E+05  2.763773E+03  1.024123E+02
        55   3 -1.212027E+06 -1.555823E+05  1.433440E+04 -4.617216E+05  4.079368E+03  6.403288E+02
        55   4 -1.283492E+06 -1.810165E+05 -1.477008E+03 -4.821170E+05  1.398115E+03 -3.495708E+02
        55   5 -1.283277E+06 -1.804012E+05 -2.583917E+03 -4.818657E+05  2.762411E+03  1.018931E+02
        55   6 -1.283756E+06 -1.828707E+05 -5.406478E+03 -4.814215E+05  4.092269E+03  6.451660E+02
        55   7 -1.354943E+06 -2.079004E+05 -2.108445E+04 -5.014308E+05  1.382487E+03 -3.554416E+02
        55   8 -1.354863E+06 -2.074857E+05 -2.225258E+04 -5.013715E+05  2.761049E+03  1.013740E+02
        55   9 -1.355480E+06 -2.101589E+05 -2.514783E+04 -5.011193E+05  4.105169E+03  6.500026E+02
        55  10 -1.212036E+06 -1.541324E+05  1.812995E+04 -4.628012E+05  2.319838E-09  1.076538E-09
        55  11 -1.211686E+06 -1.533164E+05  1.708425E+04 -4.623579E+05  2.473219E-09  2.214188E-11
        55  12 -1.212027E+06 -1.555823E+05  1.433437E+04 -4.617216E+05  1.531291E-09  1.968269E-12
        55  13 -1.283492E+06 -1.810165E+05 -1.477012E+03 -4.821170E+05  1.949726E-09  5.158723E-10
        55  14 -1.283277E+06 -1.804012E+05 -2.583932E+03 -4.818657E+05  1.208680E-09  4.169816E-10
        55  15 -1.283756E+06 -1.828708E+05 -5.406510E+03 -4.814215E+05  3.002126E-09  2.788039E-10
        55  16 -1.354943E+06 -2.079004E+05 -2.108446E+04 -5.014308E+05  1.458926E-09 -3.769217E-10
        55  17 -1.354863E+06 -2.074857E+05 -2.225259E+04 -5.013715E+05  4.925413E-09  2.507505E-10
        55  18 -1.355480E+06 -2.101589E+05 -2.514786E+04 -5.011193E+05  1.145843E-09  1.889397E-10
        55  19 -1.212036E+06 -1.541324E+05  1.812995E+04 -4.628012E+05 -1.413744E+03  3.436992E+02
        55  20 -1.211686E+06 -1.533164E+05  1.708427E+04 -4.623579E+05 -2.763773E+03 -1.024123E+02
        55  21 -1.212027E+06 -1.555823E+05  1.433440E+04 -4.617216E+05 -4.079368E+03 -6.403288E+02
        55  22 -1.283492E+06 -1.810165E+05 -1.477008E+03 -4.821170E+05 -1.398115E+03  3.495708E+02
        55  23 -1.283277E+06 -1.804012E+05 -2.583917E+03 -4.818657E+05 -2.762411E+03 -1.018931E+02
        55  24 -1.283756E+06 -1.828707E+05 -5.406478E+03 -4.814215E+05 -4.092269E+03 -6.451660E+02
        55  25 -1.354943E+06 -2.079004E+05 -2.108445E+04 -5.014308E+05 -1.382487E+03  3.554416E+02
        55  26 -1.354863E+06 -2.074857E+05 -2.225258E+04 -5.013715E+05 -2.761049E+03 -1.013740E+02
        55  27 -1.355480E+06 -2.101589E+05 -2.514783E+04 -5.011193E+05 -4.105169E+03 -6.500026E+02
        56   1 -1.216654E+06 -1.551256E+05  1.185002E+04 -4.640765E+05  5.111542E+03  1.035782E+03
        56   2 -1.214695E+06 -1.531607E+05  7.060521E+03 -4.647033E+05  1.107937E+04  3.286948E+03
        56   3 -1.222209E+06 -1.669449E+05 -7.037310E+03 -4.584407E+05  1.699910E+04  5.666013E+03
        56   4 -1.284940E+06 -1.802650E+05 -6.771722E+03 -4.819699E+05  5.102357E+03  1.032331E+03
        56   5 -1.281080E+06 -1.785686E+05 -1.123512E+04 -4.830932E+05  1.108965E+04  3.290798E+03
        56   6 -1.286698E+06 -1.926264E+05 -2.502306E+04 -4.773268E+05  1.702886E+04  5.677157E+03
        56   7 -1.353221E+06 -2.054041E+05 -2.539386E+04 -4.998615E+05  5.093173E+03  1.028880E+03
        56   8 -1.347460E+06 -2.039763E+05 -2.953117E+04 -5.014812E+05  1.109993E+04  3.294648E+03
        56   9 -1.351183E+06 -2.183075E+05 -4.300921E+04 -4.962110E+05  1.705863E+04  5.688299E+03
        56  10 -1.216654E+06 -1.551256E+05  1.184996E+04 -4.640765E+05  4.628798E-10  1.915133E-10
        56  11 -1.214695E+06 -1.531608E+05  7.060269E+03 -4.647034E+05  9.269597E-10  1.114239E-09
        56  12 -1.222209E+06 -1.669451E+05 -7.037915E+03 -4.584408E+05 -1.249966E-09  7.512917E-10
        56  13 -1.284940E+06 -1.802650E+05 -6.771773E+03 -4.819699E+05  5.546788E-09 -3.750560E-10
        56  14 -1.281080E+06 -1.785687E+05 -1.123537E+04 -4.830932E+05  3.338709E-09 -6.669918E-10
        56  15 -1.286699E+06 -1.926265E+05 -2.502366E+04 -4.773268E+05  3.149545E-09  4.418072E-10
        56  16 -1.353221E+06 -2.054041E+05 -2.539391E+04 -4.998615E+05  1.105909E-09 -1.009651E-09
        56  17 -1.347461E+06 -2.039763E+05 -2.953142E+04 -5.014813E+05  4.513899E-11 -5.386697E-10
        56  18 -1.351184E+06 -2.183076E+05 -4.300982E+04 -4.962111E+05  2.473296E-09  8.264347E-10
        56  19 -1.216654E+06 -1.551256E+05  1.185002E+04 -4.640765E+05 -5.111542E+03 -1.035782E+03
        56  20 -1.214695E+06 -1.531607E+05  7.060521E+03 -4.647033E+05 -1.107937E+04 -3.286948E+03
        56  21 -1.222209E+06 -1.669449E+05 -7.037310E+03 -4.584407E+05 -1.699910E+04 -5.666013E+03
        56  22 -1.284940E+06 -1.802650E+05 -6.771722E+03 -4.819699E+05 -5.102357E+03 -1.032331E+03
        56  23 -1.281080E+06 -1.785686E+05 -1.123512E+04 -4.830932E+05 -1.108965E+04 -3.290798E+03
        56  24 -1.286698E+06 -1.926264E+05 -2.502306E+04 -4.773268E+05 -1.702886E+04 -5.677157E+03
        56  25 -1.353221E+06 -2.054041E+05 -2.539386E+04 -4.998615E+05 -5.093173E+03 -1.028880E+03
        56  26 -1.347460E+06 -2.039763E+05 -2.953117E+04 -5.014812E+05 -1.109993E+04 -3.294648E+03
        56  27 -1.351183E+06 -2.183075E+05 -4.300921E+04 -4.962110E+05 -1.705863E+04 -5.688299E+03
        57   1 -1.237745E+06 -1.625717E+05 -1.659642E+04 -4.745310E+05  2.166156E+04  7.425711E+03
        57   2 -1.224788E+06 -1.427962E+05 -3.479023E+04 -4.719387E+05  4.808986E+04  1.741505E+04
        57   3 -1.263853E+06 -2.369155E+05 -1.050512E+05 -4.338947E+05  7.437731E+04  2.777817E+04
        57   4 -1.291031E+06 -1.783443E+05 -3.035506E+04 -4.845520E+05  2.163769E+04  7.416920E+03
        57   5 -1.270863E+06 -1.624967E+05 -4.789585E+04 -4.868218E+05  4.812278E+04  1.742722E+04
        57   6 -1.302733E+06 -2.605605E+05 -1.175518E+05 -4.536386E+05  7.446736E+04  2.781071E+04
        57   7 -1.344314E+06 -1.941169E+05 -4.411392E+04 -4.945724E+05  2.161383E+04  7.408129E+03
        57   8 -1.316937E+06 -1.821969E+05 -6.100167E+04 -5.017038E+05  4.815571E+04  1.743938E+04
        57   9 -1.341612E+06 -2.842046E+05 -1.300526E+05 -4.733812E+05  7.455740E+04  2.784325E+04
        57  10 -1.237746E+06 -1.625719E+05 -1.659740E+04 -4.745311E+05 -1.489503E-09  5.337551E-10
        57  11 -1.224790E+06 -1.427971E+05 -3.479516E+04 -4.719394E+05  1.663407E-09 -1.944528E-09
        57  12 -1.263859E+06 -2.369178E+05 -1.050631E+05 -4.338964E+05  7.352054E-10  2.267825E-10
        57  13 -1.291031E+06 -1.783445E+05 -3.035604E+04 -4.845521E+05  1.453827E-09 -5.455278E-10
        57  14 -1.270866E+06 -1.624976E+05 -4.790078E+04 -4.868225E+05  3.967414E-09 -1.167398E-10
        57  15 -1.302739E+06 -2.605629E+05 -1.175637E+05 -4.536403E+05 -1.140626E-09  1.240416E-10
        57  16 -1.344314E+06 -1.941170E+05 -4.411490E+04 -4.945725E+05  2.000724E-09 -4.796130E-10
        57  17 -1.316940E+06 -1.821978E+05 -6.100661E+04 -5.017045E+05  6.076303E-10 -2.253562E-09
        57  18 -1.341618E+06 -2.842069E+05 -1.300645E+05 -4.733828E+05 -3.357328E-09  1.222221E-09
        57  19 -1.237745E+06 -1.625717E+05 -1.659642E+04 -4.745310E+05 -2.166156E+04 -7.425711E+03
        57  20 -1.224788E+06 -1.427962E+05 -3.479023E+04 -4.719387E+05 -4.808986E+04 -1.741505E+04
        57  21 -1.263853E+06 -2.369155E+05 -1.050512E+05 -4.338947E+05 -7.437731E+04 -2.777817E+04
        57  22 -1.291031E+06 -1.783443E+05 -3.035506E+04 -4.845520E+05 -2.163769E+04 -7.416920E+03
        57  23 -1.270863E+06 -1.624967E+05 -4.789585E+04 -4.868218E+05 -4.812278E+04 -1.742722E+04
        57  24 -1.302733E+06 -2.605605E+05 -1.175518E+05 -4.536386E+05 -7.446736E+04 -2.781071E+04
        57  25 -1.344314E+06 -1.941169E+05 -4.411392E+04 -4.945724E+05 -2.161383E+04 -7.408129E+03
        57  26 -1.316937E+06 -1.821969E+05 -6.100167E+04 -5.017038E+05 -4.815571E+04 -1.743938E+04
        57  27 -1.341612E+06 -2.842046E+05 -1.300526E+05 -4.733812E+05 -7.455740E+04 -2.784325E+04
        58   1 -4.302879E+05  4.528224E+04  5.904166E+04  5.250570E+03  4.029428E+04  3.410095E-01
        58   2 -4.392529E+05 -1.038159E+04  2.522786E+04  1.341293E+03  2.651146E+04  5.731616E-02
        58   3 -4.302989E+05 -1.566195E+03  1.651277E+04 -2.567996E+03  1.272837E+04 -5.268427E-02
        58   4 -4.302879E+05  4.528218E+04  5.904165E+04 -3.959422E-08  4.029428E+04 -5.126048E-10
        58   5 -4.392529E+05 -1.038159E+04  2.522786E+04 -1.400781E-07  2.651146E+04 -2.114335E-10
        58   6 -4.302989E+05 -1.566207E+03  1.651276E+04 -3.813231E-08  1.272837E+04 -6.432639E-11
        58   7 -4.302879E+05  4.528224E+04  5.904166E+04 -5.250570E+03  4.029428E+04 -3.410095E-01
        58   8 -4.392529E+05 -1.038159E+04  2.522786E+04 -1.341293E+03  2.651146E+04 -5.731616E-02
        58   9 -4.302989E+05 -1.566195E+03  1.651277E+04  2.567996E+03  1.272837E+04  5.268427E-02
        58  10 -4.302897E+05  4.528180E+04  5.903861E+04  5.250570E+03 -1.658870E-09  7.093304E-12
        58  11 -4.392537E+05 -1.038178E+04  2.522653E+04  1.341293E+03 -3.421327E-09  3.375196E-10
        58  12 -4.302991E+05 -1.566238E+03  1.651246E+04 -2.567996E+03 -1.225125E-09 -4.862521E-10
        58  13 -4.302897E+05  4.528175E+04  5.903860E+04 -5.133276E-09  3.045384E-09  1.344218E-10
        58  14 -4.392537E+05 -1.038178E+04  2.522653E+04 -2.254084E-09  9.169696E-10  1.296304E-10
        58  15 -4.302991E+05 -1.566251E+03  1.651246E+04  6.250338E-10  5.836215E-10 -4.733497E-10
        58  16 -4.302897E+05  4.528180E+04  5.903861E+04 -5.250570E+03  9.816628E-10  2.209962E-10
        58  17 -4.392537E+05 -1.038178E+04  2.522653E+04 -1.341293E+03  4.098536E-09  2.587043E-10
        58  18 -4.302991E+05 -1.566238E+03  1.651246E+04  2.567996E+03  1.407570E-09 -2.570584E-10
        58  19 -4.302879E+05  4.528224E+04  5.904166E+04  5.250570E+03 -4.029428E+04 -3.410095E-01
        58  20 -4.392529E+05 -1.038159E+04  2.522786E+04  1.341293E+03 -2.651146E+04 -5.731617E-02
        58  21 -4.302989E+05 -1.566195E+03  1.651277E+04 -2.567996E+03 -1.272837E+04  5.268427E-02
        58  22 -4.302879E+05  4.528218E+04  5.904165E+04 -5.130932E-09 -4.029428E+04  6.587061E-10
        58  23 -4.392529E+05 -1.038159E+04  2.522786E+04  6.665654E-08 -2.651146E+04  5.892965E-10
        58  24 -4.302989E+05 -1.566207E+03  1.651276E+04  4.584319E-08 -1.272837E+04 -8.579896E-10
        58  25 -4.302879E+05  4.528224E+04  5.904166E+04 -5.250570E+03 -4.029428E+04  3.410095E-01
        58  26 -4.392529E+05 -1.038159E+04  2.522786E+04 -1.341293E+03 -2.651146E+04  5.731617E-02
        58  27 -4.302989E+05 -1.566195E+03  1.651277E+04  2.567996E+03 -1.272837E+04 -5.268427E-02
        59   1 -4.336427E+05  6.778671E+03  1.365006E+04  7.487689E+02  1.000574E+04  1.207574E-02
        59   2 -4.350739E+05 -1.557035E+03  6.506661E+03  1.776941E+02  6.594050E+03  1.888608E-03
        59   3 -4.336447E+05 -2.306473E+02  4.001173E+03 -3.933805E+02  3.182362E+03 -2.017801E-03
        59   4 -4.336427E+05  6.778670E+03  1.365006E+04  1.248250E-08  1.000574E+04 -1.639973E-10
        59   5 -4.350739E+05 -1.557035E+03  6.506661E+03  1.226097E-08  6.594050E+03 -2.269256E-11
        59   6 -4.336447E+05 -2.306476E+02  4.001173E+03  1.634659E-08  3.182362E+03  9.185822E-11
        59   7 -4.336427E+05  6.778671E+03  1.365006E+04 -7.487689E+02  1.000574E+04 -1.207574E-02
        59   8 -4.350739E+05 -1.557035E+03  6.506661E+03 -1.776941E+02  6.594050E+03 -1.888609E-03
        59   9 -4.336447E+05 -2.306473E+02  4.001173E+03  3.933805E+02  3.182362E+03  2.017801E-03
        59  10 -4.336428E+05  6.778644E+03  1.364987E+04  7.487689E+02  1.017321E-09 -4.500406E-10
        59  11 -4.350740E+05 -1.557046E+03  6.506579E+03  1.776941E+02  5.705805E-10  5.992129E-11
        59  12 -4.336447E+05 -2.306500E+02  4.001154E+03 -3.933805E+02  1.077189E-09  2.419738E-10
        59  13 -4.336428E+05  6.778643E+03  1.364987E+04 -2.197058E-08 -1.407896E-10 -5.137485E-10
        59  14 -4.350740E+05 -1.557047E+03  6.506579E+03 -4.964642E-09 -2.364165E-10  2.731612E-11
        59  15 -4.336447E+05 -2.306503E+02  4.001154E+03 -2.241632E-08  1.234400E-09  4.168997E-10
        59  16 -4.336428E+05  6.778644E+03  1.364987E+04 -7.487689E+02  6.724713E-10 -5.109028E-10
        59  17 -4.350740E+05 -1.557046E+03  6.506579E+03 -1.776941E+02 -2.962683E-09  6.199178E-11
        59  18 -4.336447E+05 -2.306500E+02  4.001154E+03  3.933805E+02 -5.961294E-10  3.056210E-10
        59  19 -4.336427E+05  6.778671E+03  1.365006E+04  7.487689E+02 -1.000574E+04 -1.207574E-02
        59  20 -4.350739E+05 -1.557035E+03  6.506661E+03  1.776941E+02 -6.594050E+03 -1.888609E-03
        59  21 -4.336447E+05 -2.306473E+02  4.001173E+03 -3.933805E+02 -3.182362E+03  2.017801E-03
        59  22 -4.336427E+05  6.778670E+03  1.365006E+04 -2.196624E-08 -1.000574E+04 -9.912298E-10
        59  23 -4.350739E+05 -1.557035E+03  6.506661E+03 -7.387470E-08 -6.594050E+03  2.808514E-10
        59  24 -4.336447E+05 -2.306476E+02  4.001173E+03  1.850502E-08 -3.182362E+03  7.537830E-10
        59  25 -4.336427E+05  6.778671E+03  1.365006E+04 -7.487689E+02 -1.000574E+04  1.207573E-02
        59  26 -4.350739E+05 -1.557035E+03  6.506661E+03 -1.776941E+02 -6.594050E+03  1.888609E-03
        59  27 -4.336447E+05 -2.306473E+02  4.001173E+03  3.933805E+02 -3.182362E+03 -2.017800E-03
        60   1 -4.341782E+05  1.009277E+03  3.171589E+03  1.010388E+02  2.534105E+03  4.126942E-04
        60   2 -4.344075E+05 -2.292647E+02  1.540396E+03  2.020896E+01  1.744236E+03  5.681519E-05
        60   3 -4.341786E+05 -4.693608E+01  7.789175E+02 -6.061972E+01  9.543796E+02 -9.324897E-05
        60   4 -4.341782E+05  1.009277E+03  3.171589E+03  2.926682E-08  2.534105E+03 -1.352471E-10
        60   5 -4.344075E+05 -2.292647E+02  1.540396E+03  5.277410E-09  1.744236E+03 -2.899846E-10
        60   6 -4.341786E+05 -4.693609E+01  7.789175E+02  5.881680E-08  9.543796E+02  1.199725E-09
        60   7 -4.341782E+05  1.009277E+03  3.171589E+03 -1.010388E+02  2.534105E+03 -4.126948E-04
        60   8 -4.344075E+05 -2.292647E+02  1.540396E+03 -2.020896E+01  1.744236E+03 -5.681580E-05
        60   9 -4.341786E+05 -4.693608E+01  7.789175E+02  6.061972E+01  9.543796E+02  9.325178E-05
        60  10 -4.341782E+05  1.009275E+03  3.171577E+03  1.010388E+02  2.353074E-10  1.496866E-10
        60  11 -4.344075E+05 -2.292655E+02  1.540390E+03  2.020896E+01  1.077370E-09 -2.357767E-10
        60  12 -4.341786E+05 -4.693633E+01  7.789158E+02 -6.061972E+01 -1.210911E-09  2.829438E-10
        60  13 -4.341782E+05  1.009275E+03  3.171577E+03 -5.688324E-08  1.823403E-10  1.891292E-10
        60  14 -4.344075E+05 -2.292655E+02  1.540390E+03  3.112025E-08 -2.157780E-09 -2.264559E-10
        60  15 -4.341786E+05 -4.693633E+01  7.789158E+02 -2.732038E-08  4.501331E-11  2.192304E-10
        60  16 -4.341782E+05  1.009275E+03  3.171577E+03 -1.010388E+02 -4.875746E-10  2.623833E-10
        60  17 -4.344075E+05 -2.292655E+02  1.540390E+03 -2.020896E+01 -1.109373E-09 -5.784603E-11
        60  18 -4.341786E+05 -4.693633E+01  7.789158E+02  6.061972E+01 -9.538508E-10  1.260646E-10
        60  19 -4.341782E+05  1.009277E+03  3.171589E+03  1.010388E+02 -2.534105E+03 -4.126940E-04
        60  20 -4.344075E+05 -2.292647E+02  1.540396E+03  2.020896E+01 -1.744236E+03 -5.681473E-05
        60  21 -4.341786E+05 -4.693608E+01  7.789175E+02 -6.061972E+01 -9.543796E+02  9.325006E-05
        60  22 -4.341782E+05  1.009277E+03  3.171589E+03 -2.243268E-08 -2.534105E+03  5.129337E-10
        60  23 -4.344075E+05 -2.292647E+02  1.540396E+03 -6.363735E-08 -1.744236E+03  1.374435E-11
        60  24 -4.341786E+05 -4.693609E+01  7.789175E+02  2.437202E-08 -9.543796E+02 -6.960118E-10
        60  25 -4.341782E+05  1.009277E+03  3.171589E+03 -1.010388E+02 -2.534105E+03  4.126954E-04
        60  26 -4.344075E+05 -2.292647E+02  1.540396E+03 -2.020896E+01 -1.744236E+03  5.681485E-05
        60  27 -4.341786E+05 -4.693608E+01  7.789175E+02  6.061972E+01 -9.543796E+02 -9.325136E-05
        61   1 -4.342777E+05  1.513715E+02  4.942263E+02  5.576983E+00  8.392487E+02  7.545370E-06
        61   2 -4.342838E+05 -1.067661E+01 -7.539668E+01  9.895730E-01  8.751074E+02  1.395171E-06
        61   3 -4.342778E+05 -1.060970E+02 -6.517157E+02 -3.597907E+00  9.109666E+02 -5.282278E-06
        61   4 -4.342777E+05  1.513715E+02  4.942263E+02  3.144248E-08  8.392487E+02  8.859847E-10
        61   5 -4.342838E+05 -1.067661E+01 -7.539668E+01  5.940186E-08  8.751074E+02 -8.163079E-10
        61   6 -4.342778E+05 -1.060970E+02 -6.517157E+02  2.706045E-08  9.109666E+02  5.255140E-10
        61   7 -4.342777E+05  1.513715E+02  4.942263E+02 -5.576983E+00  8.392487E+02 -7.543375E-06
        61   8 -4.342838E+05 -1.067661E+01 -7.539668E+01 -9.895726E-01  8.751074E+02 -1.396913E-06
        61   9 -4.342778E+05 -1.060970E+02 -6.517157E+02  3.597907E+00  9.109666E+02  5.283300E-06
        61  10 -4.342777E+05  1.513713E+02  4.942250E+02  5.576983E+00 -9.068657E-10  2.757275E-10
        61  11 -4.342838E+05 -1.067682E+01 -7.539812E+01  9.895728E-01 -1.392605E-10 -2.891149E-10
        61  12 -4.342778E+05 -1.060973E+02 -6.517172E+02 -3.597907E+00  3.304505E-10 -2.361587E-10
        61  13 -4.342777E+05  1.513713E+02  4.942250E+02  1.420734E-08 -1.072581E-09  1.758217E-10
        61  14 -4.342838E+05 -1.067682E+01 -7.539812E+01  1.633043E-08 -3.151877E-09 -3.626616E-10
        61  15 -4.342778E+05 -1.060973E+02 -6.517172E+02  5.531560E-09 -2.199759E-09  3.799873E-11
        61  16 -4.342777E+05  1.513713E+02  4.942250E+02 -5.576983E+00 -1.339905E-09  1.770156E-10
        61  17 -4.342838E+05 -1.067682E+01 -7.539812E+01 -9.895727E-01 -1.586052E-09 -5.500211E-10
        61  18 -4.342778E+05 -1.060973E+02 -6.517172E+02  3.597907E+00 -8.029709E-10  3.554539E-10
        61  19 -4.342777E+05  1.513715E+02  4.942263E+02  5.576983E+00 -8.392487E+02 -7.544639E-06
        61  20 -4.342838E+05 -1.067661E+01 -7.539668E+01  9.895726E-01 -8.751074E+02 -1.395339E-06
        61  21 -4.342778E+05 -1.060970E+02 -6.517157E+02 -3.597907E+00 -9.109666E+02  5.282357E-06
        61  22 -4.342777E+05  1.513715E+02  4.942263E+02  1.420063E-08 -8.392487E+02 -4.917217E-10
        61  23 -4.342838E+05 -1.067661E+01 -7.539668E+01  7.715745E-09 -8.751074E+02  1.685516E-10
        61  24 -4.342778E+05 -1.060970E+02 -6.517157E+02 -2.676518E-08 -9.109666E+02 -4.333826E-10
        61  25 -4.342777E+05  1.513715E+02  4.942263E+02 -5.576983E+00 -8.392487E+02  7.543555E-06
        61  26 -4.342838E+05 -1.067661E+01 -7.539668E+01 -9.895729E-01 -8.751074E+02  1.395407E-06
        61  27 -4.342778E+05 -1.060970E+02 -6.517157E+02  3.597907E+00 -9.109666E+02 -5.283204E-06
        62   1 -4.343619E+05  4.255367E+01 -9.730656E+02 -4.354713E+01  1.058012E+03 -7.426161E-05
        62   2 -4.341789E+05  1.576060E+02 -1.869979E+03  7.476987E+00  2.001446E+03  2.411987E-05
        62   3 -4.343623E+05 -7.015532E+02 -3.624978E+03  5.850114E+01  2.944878E+03  2.776820E-04
        62   4 -4.343619E+05  4.255367E+01 -9.730656E+02  8.535541E-08  1.058012E+03  6.024221E-10
        62   5 -4.341789E+05  1.576060E+02 -1.869979E+03 -3.782058E-08  2.001446E+03 -7.820564E-10
        62   6 -4.343623E+05 -7.015532E+02 -3.624978E+03 -1.455361E-08  2.944878E+03 -3.987725E-10
        62   7 -4.343619E+05  4.255367E+01 -9.730656E+02  4.354713E+01  1.058012E+03  7.426301E-05
        62   8 -4.341789E+05  1.576060E+02 -1.869979E+03 -7.476987E+00  2.001446E+03 -2.412150E-05
        62   9 -4.343623E+05 -7.015532E+02 -3.624978E+03 -5.850115E+01  2.944878E+03 -2.776825E-04
        62  10 -4.343619E+05  4.255337E+01 -9.730677E+02 -4.354713E+01  2.481731E-10  5.105640E-11
        62  11 -4.341789E+05  1.576049E+02 -1.869986E+03  7.476987E+00 -2.456809E-09 -5.472254E-11
        62  12 -4.343623E+05 -7.015555E+02 -3.624994E+03  5.850115E+01  1.765330E-09  2.470145E-10
        62  13 -4.343619E+05  4.255336E+01 -9.730677E+02 -7.916943E-10 -2.441946E-09  1.722876E-10
        62  14 -4.341789E+05  1.576049E+02 -1.869986E+03  5.250240E-09 -1.390393E-09 -9.411890E-11
        62  15 -4.343623E+05 -7.015555E+02 -3.624994E+03 -8.777195E-08 -1.379548E-09  1.321823E-10
        62  16 -4.343619E+05  4.255337E+01 -9.730677E+02  4.354713E+01 -3.014332E-09  4.618922E-10
        62  17 -4.341789E+05  1.576049E+02 -1.869986E+03 -7.476987E+00 -1.386132E-09 -4.124415E-10
        62  18 -4.343623E+05 -7.015555E+02 -3.624994E+03 -5.850115E+01 -1.570579E-09  1.339994E-10
        62  19 -4.343619E+05  4.255367E+01 -9.730656E+02 -4.354713E+01 -1.058012E+03  7.426151E-05
        62  20 -4.341789E+05  1.576060E+02 -1.869979E+03  7.476987E+00 -2.001446E+03 -2.411927E-05
        62  21 -4.343623E+05 -7.015532E+02 -3.624978E+03  5.850114E+01 -2.944878E+03 -2.776815E-04
        62  22 -4.343619E+05  4.255367E+01 -9.730656E+02  1.643307E-08 -1.058012E+03 -3.005977E-10
        62  23 -4.341789E+05  1.576060E+02 -1.869979E+03 -3.782123E-08 -2.001446E+03  4.245611E-10
        62  24 -4.343623E+05 -7.015532E+02 -3.624978E+03 -7.700119E-08 -2.944878E+03  5.936273E-10
        62  25 -4.343619E+05  4.255367E+01 -9.730656E+02  4.354713E+01 -1.058012E+03 -7.426233E-05
        62  26 -4.341789E+05  1.576060E+02 -1.869979E+03 -7.476987E+00 -2.001446E+03  2.412046E-05
        62  27 -4.343623E+05 -7.015532E+02 -3.624978E+03 -5.850115E+01 -2.944878E+03  2.776820E-04
        63   1 -4.347737E+05  1.568043E+02 -4.662886E+03 -2.861593E+02  3.694537E+03 -1.704058E-03
        63   2 -4.336652E+05  1.095802E+03 -7.813435E+03  9.764135E+01  7.692557E+03  1.210654E-03
        63   3 -4.347754E+05 -4.754902E+03 -1.526558E+04  4.814369E+02  1.169050E+04  9.071696E-03
        63   4 -4.347737E+05  1.568041E+02 -4.662886E+03 -3.255678E-09  3.694537E+03  1.546237E-10
        63   5 -4.336652E+05  1.095802E+03 -7.813435E+03 -1.173058E-09  7.692557E+03  1.654272E-10
        63   6 -4.347754E+05 -4.754902E+03 -1.526558E+04  6.766976E-08  1.169050E+04 -5.071100E-10
        63   7 -4.347737E+05  1.568043E+02 -4.662886E+03  2.861593E+02  3.694537E+03  1.704058E-03
        63   8 -4.336652E+05  1.095802E+03 -7.813435E+03 -9.764135E+01  7.692557E+03 -1.210655E-03
        63   9 -4.347754E+05 -4.754902E+03 -1.526558E+04 -4.814369E+02  1.169050E+04 -9.071697E-03
        63  10 -4.347737E+05  1.568006E+02 -4.662911E+03 -2.861593E+02  2.086849E-09  6.904529E-11
        63  11 -4.336653E+05  1.095786E+03 -7.813547E+03  9.764135E+01  2.582948E-09  9.783487E-11
        63  12 -4.347756E+05 -4.754939E+03 -1.526584E+04  4.814369E+02  1.133701E-09  4.522241E-11
        63  13 -4.347737E+05  1.568005E+02 -4.662911E+03 -7.217075E-08  4.205449E-12  2.607503E-10
        63  14 -4.336653E+05  1.095786E+03 -7.813547E+03 -5.286044E-08  1.562560E-10  1.604303E-10
        63  15 -4.347756E+05 -4.754939E+03 -1.526584E+04  2.244099E-08 -4.686710E-10 -1.802285E-10
        63  16 -4.347737E+05  1.568006E+02 -4.662911E+03  2.861593E+02 -2.545008E-09  3.007104E-10
        63  17 -4.336653E+05  1.095786E+03 -7.813547E+03 -9.764135E+01 -3.458050E-09  2.390632E-10
        63  18 -4.347756E+05 -4.754939E+03 -1.526584E+04 -4.814369E+02 -1.026754E-09 -4.659013E-10
        63  19 -4.347737E+05  1.568043E+02 -4.662886E+03 -2.861593E+02 -3.694537E+03  1.704058E-03
        63  20 -4.336652E+05  1.095802E+03 -7.813435E+03  9.764135E+01 -7.692557E+03 -1.210653E-03
        63  21 -4.347754E+05 -4.754902E+03 -1.526558E+04  4.814369E+02 -1.169050E+04 -9.071696E-03
        63  22 -4.347737E+05  1.568041E+02 -4.662886E+03 -7.216944E-08 -3.694537E+03  3.417089E-10
        63  23 -4.336652E+05  1.095802E+03 -7.813435E+03 -7.009067E-08 -7.692557E+03  4.556557E-11
        63  24 -4.347754E+05 -4.754902E+03 -1.526558E+04  9.517822E-09 -1.169050E+04  2.803011E-10
        63  25 -4.347737E+05  1.568043E+02 -4.662886E+03  2.861593E+02 -3.694537E+03 -1.704058E-03
        63  26 -4.336652E+05  1.095802E+03 -7.813435E+03 -9.764135E+01 -7.692557E+03  1.210653E-03
        63  27 -4.347754E+05 -4.754902E+03 -1.526558E+04 -4.814369E+02 -1.169050E+04  9.071696E-03
        64   1 -4.372787E+05  1.078462E+03 -1.909788E+04 -1.852955E+03  1.479638E+04 -4.419143E-02
        64   2 -4.305373E+05  7.339591E+03 -3.079541E+04  8.382709E+02  3.094108E+04  4.180544E-02
        64   3 -4.372870E+05 -3.194383E+04 -6.439395E+04  3.529533E+03  4.708589E+04  2.678696E-01
        64   4 -4.372787E+05  1.078456E+03 -1.909788E+04  2.124922E-08  1.479638E+04 -1.511374E-10
        64   5 -4.305373E+05  7.339590E+03 -3.079541E+04  2.278803E-09  3.094108E+04  8.212653E-10
        64   6 -4.372870E+05 -3.194385E+04 -6.439396E+04  2.853339E-08  4.708589E+04 -1.370844E-09
        64   7 -4.372787E+05  1.078462E+03 -1.909788E+04  1.852955E+03  1.479638E+04  4.419143E-02
        64   8 -4.305373E+05  7.339591E+03 -3.079541E+04 -8.382709E+02  3.094108E+04 -4.180544E-02
        64   9 -4.372870E+05 -3.194383E+04 -6.439395E+04 -3.529533E+03  4.708589E+04 -2.678696E-01
        64  10 -4.372790E+05  1.078403E+03 -1.909829E+04 -1.852955E+03  1.014556E-09 -2.164765E-10
        64  11 -4.305383E+05  7.339334E+03 -3.079721E+04  8.382709E+02  6.753376E-10 -3.424798E-10
        64  12 -4.372894E+05 -3.194442E+04 -6.439812E+04  3.529533E+03 -5.215546E-10 -1.829949E-10
        64  13 -4.372790E+05  1.078397E+03 -1.909829E+04 -3.043583E-08  4.205414E-12 -3.069008E-10
        64  14 -4.305383E+05  7.339332E+03 -3.079721E+04 -4.079265E-08 -4.307030E-09 -3.212808E-10
        64  15 -4.372894E+05 -3.194445E+04 -6.439813E+04 -1.071405E-07  3.394392E-10 -1.063464E-10
        64  16 -4.372790E+05  1.078403E+03 -1.909829E+04  1.852955E+03 -2.164074E-09 -4.930312E-10
        64  17 -4.305383E+05  7.339334E+03 -3.079721E+04 -8.382709E+02  1.664032E-11 -2.000059E-10
        64  18 -4.372894E+05 -3.194442E+04 -6.439812E+04 -3.529533E+03 -2.999461E-10 -6.722927E-11
        64  19 -4.372787E+05  1.078462E+03 -1.909788E+04 -1.852955E+03 -1.479638E+04  4.419143E-02
        64  20 -4.305373E+05  7.339591E+03 -3.079541E+04  8.382709E+02 -3.094108E+04 -4.180544E-02
        64  21 -4.372870E+05 -3.194383E+04 -6.439395E+04  3.529533E+03 -4.708589E+04 -2.678696E-01
        64  22 -4.372787E+05  1.078456E+03 -1.909788E+04 -6.489329E-08 -1.479638E+04 -5.210676E-10
        64  23 -4.305373E+05  7.339590E+03 -3.079541E+04 -6.663513E-08 -3.094108E+04 -1.405338E-09
        64  24 -4.372870E+05 -3.194385E+04 -6.439396E+04  2.853649E-08 -4.708589E+04  1.174111E-09
        64  25 -4.372787E+05  1.078462E+03 -1.909788E+04  1.852955E+03 -1.479638E+04 -4.419143E-02
        64  26 -4.305373E+05  7.339591E+03 -3.079541E+04 -8.382709E+02 -3.094108E+04  4.180544E-02
        64  27 -4.372870E+05 -3.194383E+04 -6.439395E+04 -3.529533E+03 -4.708589E+04  2.678696E-01
        65   1 -4.530399E+05  7.380787E+03 -7.785835E+04 -1.210107E+04  5.992364E+04 -1.168823E+00
        65   2 -4.108396E+05  4.892447E+04 -1.188656E+05  6.322024E+03  1.248925E+05  1.272597E+00
        65   3 -4.530754E+05 -2.133872E+05 -2.781395E+05  2.474407E+04  1.898627E+05  7.572253E+00
        65   4 -4.530401E+05  7.380512E+03 -7.785839E+04  1.209760E-08  5.992364E+04 -1.891824E-10
        65   5 -4.108397E+05  4.892440E+04 -1.188656E+05 -3.797647E-08  1.248925E+05  4.075369E-09
        65   6 -4.530761E+05 -2.133883E+05 -2.781397E+05 -1.900566E-09  1.898627E+05 -2.481550E-09
        65   7 -4.530399E+05  7.380787E+03 -7.785835E+04  1.210107E+04  5.992364E+04  1.168823E+00
        65   8 -4.108396E+05  4.892447E+04 -1.188656E+05 -6.322024E+03  1.248925E+05 -1.272597E+00
        65   9 -4.530754E+05 -2.133872E+05 -2.781395E+05 -2.474407E+04  1.898627E+05 -7.572253E+00
        65  10 -4.530438E+05  7.379822E+03 -7.786510E+04 -1.210107E+04 -1.526698E-09 -1.630551E-10
        65  11 -4.108564E+05  4.892028E+04 -1.188949E+05  6.322023E+03 -9.299944E-11 -6.038590E-10
        65  12 -4.531142E+05 -2.133969E+05 -2.782073E+05  2.474406E+04 -1.531723E-09 -9.851556E-11
        65  13 -4.530440E+05  7.379547E+03 -7.786514E+04  1.209374E-08 -6.369700E-10 -1.726329E-10
        65  14 -4.108564E+05  4.892020E+04 -1.188949E+05 -1.068978E-07 -4.355175E-10 -4.105965E-10
        65  15 -4.531148E+05 -2.133980E+05 -2.782075E+05 -1.895849E-09  1.974360E-09 -1.593541E-10
        65  16 -4.530438E+05  7.379822E+03 -7.786510E+04  1.210107E+04  3.898430E-10 -2.107625E-10
        65  17 -4.108564E+05  4.892028E+04 -1.188949E+05 -6.322023E+03 -2.206919E-09 -4.330609E-10
        65  18 -4.531142E+05 -2.133969E+05 -2.782073E+05 -2.474406E+04  1.045824E-09 -9.533392E-11
        65  19 -4.530399E+05  7.380787E+03 -7.785835E+04 -1.210107E+04 -5.992364E+04  1.168823E+00
        65  20 -4.108396E+05  4.892447E+04 -1.188656E+05  6.322024E+03 -1.248925E+05 -1.272597E+00
        65  21 -4.530754E+05 -2.133872E+05 -2.781395E+05  2.474407E+04 -1.898627E+05 -7.572253E+00
        65  22 -4.530401E+05  7.380512E+03 -7.785839E+04  6.377824E-08 -5.992364E+04 -1.584117E-10
        65  23 -4.108397E+05  4.892440E+04 -1.188656E+05 -7.243667E-08 -1.248925E+05 -4.848521E-09
        65  24 -4.530761E+05 -2.133883E+05 -2.781397E+05  2.394820E-08 -1.898627E+05  1.557616E-10
        65  25 -4.530399E+05  7.380787E+03 -7.785835E+04  1.210107E+04 -5.992364E+04 -1.168823E+00
        65  26 -4.108396E+05  4.892447E+04 -1.188656E+05 -6.322024E+03 -1.248925E+05  1.272597E+00
        65  27 -4.530754E+05 -2.133872E+05 -2.781395E+05 -2.474407E+04 -1.898627E+05  7.572253E+00
        66   1  4.510904E+04 -4.358571E+05  5.869733E+04  1.219786E+03  2.381965E+01  3.584198E+04
        66   2 -5.537654E+03 -4.371810E+05  3.025797E+04 -3.289329E+03  1.802680E+02  2.187397E+04
        66   3  6.508783E+03 -4.210033E+05  2.659244E+04  8.808096E+03  4.537916E+02  7.905538E+03
        66   4  4.240729E+04 -4.466611E+05  5.599768E+04  6.244173E+03  2.410986E+01  3.582503E+04
        66   5 -1.009543E+04 -4.554184E+05  2.571619E+04 -2.059150E+03  1.803129E+02  2.183752E+04
        66   6  9.917161E+01 -4.466707E+05  2.022233E+04  6.244043E+03  4.537635E+02  7.849763E+03
        66   7  3.970563E+04 -4.574649E+05  5.329804E+04  1.126847E+04  2.439980E+01  3.580807E+04
        66   8 -1.465322E+04 -4.736556E+05  2.117438E+04 -8.290067E+02  1.803577E+02  2.180107E+04
        66   9 -6.310465E+03 -4.723376E+05  1.385217E+04  3.680095E+03  4.537358E+02  7.793991E+03
        66  10  4.510869E+04 -4.358585E+05  5.869492E+04  1.219786E+03  8.506338E-10  5.481418E-10
        66  11 -5.537783E+03 -4.371815E+05  3.025707E+04 -3.289333E+03  4.986929E-09  9.905510E-10
        66  12  6.508766E+03 -4.210034E+05  2.659233E+04  8.808093E+03  3.517834E-09  1.211282E-09
        66  13  4.240695E+04 -4.466625E+05  5.599527E+04  6.244173E+03  1.770377E-09  4.218721E-12
        66  14 -1.009556E+04 -4.554189E+05  2.571529E+04 -2.059153E+03  5.457272E-09  1.610363E-11
        66  15  9.915483E+01 -4.466708E+05  2.022221E+04  6.244040E+03  3.232585E-09  4.455210E-11
        66  16  3.970529E+04 -4.574663E+05  5.329563E+04  1.126847E+04 -7.653851E-10 -5.231012E-10
        66  17 -1.465335E+04 -4.736561E+05  2.117349E+04 -8.290099E+02 -1.050255E-09 -9.416800E-10
        66  18 -6.310481E+03 -4.723376E+05  1.385205E+04  3.680093E+03  4.488509E-09 -1.085316E-09
        66  19  4.510904E+04 -4.358571E+05  5.869733E+04  1.219786E+03 -2.381965E+01 -3.584198E+04
        66  20 -5.537654E+03 -4.371810E+05  3.025797E+04 -3.289329E+03 -1.802680E+02 -2.187397E+04
        66  21  6.508783E+03 -4.210033E+05  2.659244E+04  8.808096E+03 -4.537916E+02 -7.905538E+03
        66  22  4.240729E+04 -4.466611E+05  5.599768E+04  6.244173E+03 -2.410986E+01 -3.582503E+04
        66  23 -1.009543E+04 -4.554184E+05  2.571619E+04 -2.059150E+03 -1.803129E+02 -2.183752E+04
        66  24  9.917161E+01 -4.466707E+05  2.022233E+04  6.244043E+03 -4.537635E+02 -7.849763E+03
        66  25  3.970563E+04 -4.574649E+05  5.329804E+04  1.126847E+04 -2.439980E+01 -3.580807E+04
        66  26 -1.465322E+04 -4.736556E+05  2.117438E+04 -8.290067E+02 -1.803577E+02 -2.180107E+04
        66  27 -6.310465E+03 -4.723376E+05  1.385217E+04  3.680095E+03 -4.537358E+02 -7.793991E+03
        67   1  2.603692E+04 -3.687924E+05  3.885178E+04  4.760797E+03  6.891651E+02  4.390403E+03
        67   2  1.791432E+04 -3.652966E+05  3.783964E+04 -1.767529E+03  9.895038E+02 -4.110446E+03
        67   3  3.393296E+04 -3.545693E+05  4.841749E+04  7.594099E+03  1.040910E+03 -1.261139E+04
        67   4  6.001948E+03 -4.489553E+05  1.887758E+04  6.084155E+03  6.891883E+02  4.318852E+03
        67   5 -3.891282E+03 -4.525664E+05  1.612063E+04 -1.859050E+03  9.895213E+02 -4.139190E+03
        67   6  1.035110E+04 -4.489527E+05  2.492507E+04  6.087821E+03  1.040945E+03 -1.259723E+04
        67   7 -1.403350E+04 -5.291123E+05 -1.097112E+03  7.407343E+03  6.892113E+02  4.247311E+03
        67   8 -2.569746E+04 -5.398294E+05 -5.598943E+03 -1.950558E+03  9.895388E+02 -4.167930E+03
        67   9 -1.323142E+04 -5.433280E+05  1.431988E+03  4.581773E+03  1.040980E+03 -1.258308E+04
        67  10  2.603691E+04 -3.687925E+05  3.885175E+04  4.760794E+03  1.040057E-09 -8.416251E-10
        67  11  1.791432E+04 -3.652966E+05  3.783960E+04 -1.767526E+03 -4.627795E-09 -9.906282E-10
        67  12  3.393292E+04 -3.545695E+05  4.841719E+04  7.594109E+03 -1.489639E-09 -1.722885E-10
        67  13  6.001942E+03 -4.489553E+05  1.887754E+04  6.084153E+03  3.248465E-09 -1.169472E-12
        67  14 -3.891288E+03 -4.525665E+05  1.612060E+04 -1.859047E+03 -1.032525E-09  1.891550E-10
        67  15  1.035106E+04 -4.489529E+05  2.492477E+04  6.087831E+03  4.186993E-10  6.176082E-11
        67  16 -1.403350E+04 -5.291123E+05 -1.097147E+03  7.407341E+03  4.944675E-09  9.749105E-10
        67  17 -2.569747E+04 -5.398294E+05 -5.598977E+03 -1.950555E+03  4.245313E-09  1.266373E-09
        67  18 -1.323146E+04 -5.433282E+05  1.431688E+03  4.581784E+03  2.628809E-09  6.267973E-10
        67  19  2.603692E+04 -3.687924E+05  3.885178E+04  4.760797E+03 -6.891651E+02 -4.390403E+03
        67  20  1.791432E+04 -3.652966E+05  3.783964E+04 -1.767529E+03 -9.895038E+02  4.110446E+03
        67  21  3.393296E+04 -3.545693E+05  4.841749E+04  7.594099E+03 -1.040910E+03  1.261139E+04
        67  22  6.001948E+03 -4.489553E+05  1.887758E+04  6.084155E+03 -6.891883E+02 -4.318852E+03
        67  23 -3.891282E+03 -4.525664E+05  1.612063E+04 -1.859050E+03 -9.895213E+02  4.139190E+03
        67  24  1.035110E+04 -4.489527E+05  2.492507E+04  6.087821E+03 -1.040945E+03  1.259723E+04
        67  25 -1.403350E+04 -5.291123E+05 -1.097112E+03  7.407343E+03 -6.892113E+02 -4.247311E+03
        67  26 -2.569746E+04 -5.398294E+05 -5.598943E+03 -1.950558E+03 -9.895388E+02  4.167930E+03
        67  27 -1.323142E+04 -5.433280E+05  1.431988E+03  4.581773E+03 -1.040980E+03  1.258308E+04
        68   1  3.471487E+04 -2.993023E+05  6.469054E+04  1.555115E+03  1.458774E+03 -1.721688E+04
        68   2  2.136267E+04 -3.072326E+05  7.821263E+04  5.670339E+02  1.934022E+03 -3.964276E+04
        68   3  1.100412E+05 -2.864713E+05  1.319012E+05  1.392018E+04  7.405491E+02 -6.206996E+04
        68   4 -1.498285E+03 -4.441998E+05  2.860926E+04  5.717001E+03  1.458801E+03 -1.743182E+04
        68   5 -1.642797E+04 -4.585144E+05  4.058583E+04 -1.414588E+03  1.934126E+03 -3.957277E+04
        68   6  7.063672E+04 -4.441799E+05  9.253799E+04  5.795182E+03  7.409944E+02 -6.171482E+04
        68   7 -3.771296E+04 -5.890782E+05 -7.473591E+03  9.877917E+03  1.458826E+03 -1.764671E+04
        68   8 -5.422032E+04 -6.097753E+05  2.957306E+03 -3.395721E+03  1.934229E+03 -3.950280E+04
        68   9  3.123061E+04 -6.018658E+05  5.317291E+04 -2.327747E+03  7.414305E+02 -6.135976E+04
        68  10  3.471479E+04 -2.993026E+05  6.468998E+04  1.555135E+03  4.376068E-10 -1.088412E-10
        68  11  2.136224E+04 -3.072343E+05  7.820967E+04  5.670956E+02  7.349544E-10  1.277974E-09
        68  12  1.100402E+05 -2.864754E+05  1.318940E+05  1.392022E+04  3.520898E-09  1.147550E-09
        68  13 -1.498369E+03 -4.442001E+05  2.860868E+04  5.717021E+03  4.194857E-10  4.373618E-11
        68  14 -1.642840E+04 -4.585160E+05  4.058287E+04 -1.414526E+03  1.906468E-09  4.594633E-10
        68  15  7.063570E+04 -4.441840E+05  9.253083E+04  5.795219E+03 -1.284490E-09  1.529723E-10
        68  16 -3.771305E+04 -5.890785E+05 -7.474181E+03  9.877938E+03  1.592984E-09  7.683656E-10
        68  17 -5.422074E+04 -6.097770E+05  2.954363E+03 -3.395660E+03 -3.788173E-10 -3.629758E-10
        68  18  3.122960E+04 -6.018699E+05  5.316582E+04 -2.327710E+03 -2.430926E-10  6.753529E-11
        68  19  3.471487E+04 -2.993023E+05  6.469054E+04  1.555115E+03 -1.458774E+03  1.721688E+04
        68  20  2.136267E+04 -3.072326E+05  7.821263E+04  5.670339E+02 -1.934022E+03  3.964276E+04
        68  21  1.100412E+05 -2.864713E+05  1.319012E+05  1.392018E+04 -7.405491E+02  6.206996E+04
        68  22 -1.498285E+03 -4.441998E+05  2.860926E+04  5.717001E+03 -1.458801E+03  1.743182E+04
        68  23 -1.642797E+04 -4.585144E+05  4.058583E+04 -1.414588E+03 -1.934126E+03  3.957277E+04
        68  24  7.063672E+04 -4.441799E+05  9.253799E+04  5.795182E+03 -7.409944E+02  6.171482E+04
        68  25 -3.771296E+04 -5.890782E+05 -7.473591E+03  9.877917E+03 -1.458826E+03  1.764671E+04
        68  26 -5.422032E+04 -6.097753E+05  2.957306E+03 -3.395721E+03 -1.934229E+03  3.950280E+04
        68  27  3.123061E+04 -6.018658E+05  5.317291E+04 -2.327747E+03 -7.414305E+02  6.135976E+04
        69   1 -7.219376E+05 -1.195017E+05 -2.232425E+04 -2.664253E+05 -1.047973E+04 -3.817600E+03
        69   2 -7.182698E+05 -1.031176E+05 -1.219945E+04 -2.682067E+05 -6.795984E+03 -2.244603E+03
        69   3 -7.189012E+05 -1.056197E+05 -9.385046E+03 -2.684394E+05 -3.013235E+03 -9.354512E+02
        69   4 -7.013756E+05 -1.104969E+05 -1.641763E+04 -2.595605E+05 -1.043284E+04 -3.800045E+03
        69   5 -6.984201E+05 -9.531256E+04 -6.694348E+03 -2.624883E+05 -6.790448E+03 -2.242532E+03
        69   6 -6.997553E+05 -9.900594E+04 -4.248495E+03 -2.638674E+05 -3.049052E+03 -9.488752E+02
        69   7 -6.808132E+05 -1.014921E+05 -1.051107E+04 -2.526954E+05 -1.038595E+04 -3.782489E+03
        69   8 -6.785700E+05 -8.750753E+04 -1.189290E+03 -2.567697E+05 -6.784912E+03 -2.240462E+03
        69   9 -6.806090E+05 -9.239220E+04  8.880260E+02 -2.592953E+05 -3.084870E+03 -9.622995E+02
        69  10 -7.219377E+05 -1.195017E+05 -2.232448E+04 -2.664253E+05  1.147433E-09  5.248556E-10
        69  11 -7.182699E+05 -1.031176E+05 -1.219954E+04 -2.682067E+05  2.525194E-09  2.319829E-10
        69  12 -7.189012E+05 -1.056197E+05 -9.385064E+03 -2.684394E+05  1.577056E-09  4.115538E-11
        69  13 -7.013757E+05 -1.104970E+05 -1.641786E+04 -2.595605E+05 -1.121489E-09  1.756737E-10
        69  14 -6.984202E+05 -9.531258E+04 -6.694445E+03 -2.624883E+05  2.173878E-09  3.185400E-10
        69  15 -6.997553E+05 -9.900594E+04 -4.248515E+03 -2.638674E+05 -1.320242E-09  2.678277E-10
        69  16 -6.808134E+05 -1.014922E+05 -1.051130E+04 -2.526955E+05 -6.568141E-10  3.702981E-12
        69  17 -6.785701E+05 -8.750755E+04 -1.189386E+03 -2.567697E+05  2.472381E-09  5.490573E-10
        69  18 -6.806090E+05 -9.239220E+04  8.880063E+02 -2.592953E+05 -1.690413E-09 -4.021905E-10
        69  19 -7.219376E+05 -1.195017E+05 -2.232425E+04 -2.664253E+05  1.047973E+04  3.817600E+03
        69  20 -7.182698E+05 -1.031176E+05 -1.219945E+04 -2.682067E+05  6.795984E+03  2.244603E+03
        69  21 -7.189012E+05 -1.056197E+05 -9.385046E+03 -2.684394E+05  3.013235E+03  9.354512E+02
        69  22 -7.013756E+05 -1.104969E+05 -1.641763E+04 -2.595605E+05  1.043284E+04  3.800045E+03
        69  23 -6.984201E+05 -9.531256E+04 -6.694348E+03 -2.624883E+05  6.790448E+03  2.242532E+03
        69  24 -6.997553E+05 -9.900594E+04 -4.248495E+03 -2.638674E+05  3.049052E+03  9.488752E+02
        69  25 -6.808132E+05 -1.014921E+05 -1.051107E+04 -2.526954E+05  1.038595E+04  3.782489E+03
        69  26 -6.785700E+05 -8.750753E+04 -1.189290E+03 -2.567697E+05  6.784912E+03  2.240462E+03
        69  27 -6.806090E+05 -9.239220E+04  8.880260E+02 -2.592953E+05  3.084870E+03  9.622995E+02
        70   1 -7.053718E+05 -1.035182E+05 -5.245816E+03 -2.647248E+05 -2.371525E+03 -7.844230E+02
        70   2 -7.046202E+05 -9.941735E+04 -2.912370E+03 -2.633258E+05 -1.505349E+03 -4.951704E+02
        70   3 -7.022802E+05 -1.004460E+05 -1.896834E+03 -2.643155E+05 -6.234195E+02 -2.479256E+02
        70   4 -6.991587E+05 -1.009946E+05 -3.507501E+03 -2.628516E+05 -2.373125E+03 -7.850236E+02
        70   5 -6.998319E+05 -9.756771E+04 -1.590636E+03 -2.619805E+05 -1.513541E+03 -4.982415E+02
        70   6 -6.989154E+05 -9.926901E+04 -9.864441E+02 -2.634981E+05 -6.382073E+02 -2.534685E+02
        70   7 -6.929455E+05 -9.847090E+04 -1.769191E+03 -2.609784E+05 -2.374724E+03 -7.856242E+02
        70   8 -6.950436E+05 -9.571807E+04 -2.689056E+02 -2.606352E+05 -1.521733E+03 -5.013126E+02
        70   9 -6.955506E+05 -9.809206E+04 -7.605672E+01 -2.626808E+05 -6.529952E+02 -2.590115E+02
        70  10 -7.053718E+05 -1.035182E+05 -5.245828E+03 -2.647248E+05  2.967227E-09 -2.794464E-10
        70  11 -7.046202E+05 -9.941735E+04 -2.912375E+03 -2.633258E+05  9.764323E-10 -3.421911E-10
        70  12 -7.022802E+05 -1.004460E+05 -1.896835E+03 -2.643155E+05  1.957665E-09  3.244065E-10
        70  13 -6.991587E+05 -1.009946E+05 -3.507513E+03 -2.628516E+05  1.218794E-10 -3.441887E-10
        70  14 -6.998319E+05 -9.756771E+04 -1.590641E+03 -2.619805E+05  3.747283E-09  5.409436E-11
        70  15 -6.989154E+05 -9.926901E+04 -9.864450E+02 -2.634981E+05  1.032796E-09 -1.227539E-10
        70  16 -6.929456E+05 -9.847091E+04 -1.769203E+03 -2.609784E+05 -2.312144E-09 -3.824322E-10
        70  17 -6.950436E+05 -9.571807E+04 -2.689104E+02 -2.606352E+05 -2.602988E-09 -3.653495E-10
        70  18 -6.955506E+05 -9.809206E+04 -7.605764E+01 -2.626808E+05 -1.014577E-09 -3.619803E-10
        70  19 -7.053718E+05 -1.035182E+05 -5.245816E+03 -2.647248E+05  2.371525E+03  7.844230E+02
        70  20 -7.046202E+05 -9.941735E+04 -2.912370E+03 -2.633258E+05  1.505349E+03  4.951704E+02
        70  21 -7.022802E+05 -1.004460E+05 -1.896834E+03 -2.643155E+05  6.234195E+02  2.479256E+02
        70  22 -6.991587E+05 -1.009946E+05 -3.507501E+03 -2.628516E+05  2.373125E+03  7.850236E+02
        70  23 -6.998319E+05 -9.756771E+04 -1.590636E+03 -2.619805E+05  1.513541E+03  4.982415E+02
        70  24 -6.989154E+05 -9.926901E+04 -9.864441E+02 -2.634981E+05  6.382073E+02  2.534685E+02
        70  25 -6.929455E+05 -9.847090E+04 -1.769191E+03 -2.609784E+05  2.374724E+03  7.856242E+02
        70  26 -6.950436E+05 -9.571807E+04 -2.689056E+02 -2.606352E+05  1.521733E+03  5.013126E+02
        70  27 -6.955506E+05 -9.809206E+04 -7.605672E+01 -2.626808E+05  6.529952E+02  2.590115E+02
        71   1 -6.892526E+05 -9.594687E+04  1.823077E+03 -2.607420E+05 -4.605219E+02 -2.417339E+02
        71   2 -6.889615E+05 -9.376739E+04  2.578360E+03 -2.589420E+05 -2.013859E+02 -2.175457E+02
        71   3 -6.862800E+05 -9.455713E+04  3.050113E+03 -2.599898E+05  5.706820E+01 -1.915362E+02
        71   4 -6.988430E+05 -9.953918E+04 -8.085295E+02 -2.633191E+05 -4.707105E+02 -2.455531E+02
        71   5 -7.000213E+05 -9.793416E+04 -4.551162E+02 -2.619403E+05 -2.112918E+02 -2.212594E+02
        71   6 -6.988090E+05 -9.929843E+04 -3.854520E+02 -2.634092E+05  4.744431E+01 -1.951446E+02
        71   7 -7.084334E+05 -1.031315E+05 -3.440150E+03 -2.658961E+05 -4.808991E+02 -2.493723E+02
        71   8 -7.110809E+05 -1.021009E+05 -3.488608E+03 -2.649386E+05 -2.211975E+02 -2.249731E+02
        71   9 -7.113380E+05 -1.040397E+05 -3.821036E+03 -2.668287E+05  3.782063E+01 -1.987529E+02
        71  10 -6.892526E+05 -9.594687E+04  1.823077E+03 -2.607420E+05  2.103929E-10  8.560307E-11
        71  11 -6.889615E+05 -9.376739E+04  2.578360E+03 -2.589420E+05 -4.853214E-10 -9.355875E-10
        71  12 -6.862800E+05 -9.455713E+04  3.050113E+03 -2.599898E+05  6.144355E-10 -8.501568E-10
        71  13 -6.988430E+05 -9.953918E+04 -8.085300E+02 -2.633191E+05 -9.648574E-10 -2.040350E-10
        71  14 -7.000213E+05 -9.793416E+04 -4.551163E+02 -2.619403E+05 -2.456361E-10 -1.600135E-09
        71  15 -6.988090E+05 -9.929843E+04 -3.854521E+02 -2.634092E+05 -4.638951E-10 -1.244027E-09
        71  16 -7.084334E+05 -1.031315E+05 -3.440151E+03 -2.658961E+05 -2.401250E-09 -6.847870E-10
        71  17 -7.110809E+05 -1.021009E+05 -3.488609E+03 -2.649386E+05 -9.870741E-11 -2.982429E-10
        71  18 -7.113380E+05 -1.040397E+05 -3.821036E+03 -2.668287E+05  1.309250E-09 -1.111911E-09
        71  19 -6.892526E+05 -9.594687E+04  1.823077E+03 -2.607420E+05  4.605219E+02  2.417339E+02
        71  20 -6.889615E+05 -9.376739E+04  2.578360E+03 -2.589420E+05  2.013859E+02  2.175457E+02
        71  21 -6.862800E+05 -9.455713E+04  3.050113E+03 -2.599898E+05 -5.706820E+01  1.915362E+02
        71  22 -6.988430E+05 -9.953918E+04 -8.085295E+02 -2.633191E+05  4.707105E+02  2.455531E+02
        71  23 -7.000213E+05 -9.793416E+04 -4.551162E+02 -2.619403E+05  2.112918E+02  2.212594E+02
        71  24 -6.988090E+05 -9.929843E+04 -3.854520E+02 -2.634092E+05 -4.744431E+01  1.951446E+02
        71  25 -7.084334E+05 -1.031315E+05 -3.440150E+03 -2.658961E+05  4.808991E+02  2.493723E+02
        71  26 -7.110809E+05 -1.021009E+05 -3.488608E+03 -2.649386E+05  2.211975E+02  2.249731E+02
        71  27 -7.113380E+05 -1.040397E+05 -3.821036E+03 -2.668287E+05 -3.782063E+01  1.987529E+02
        72   1 -6.745958E+05 -9.008914E+04  6.274641E+03 -2.567192E+05  1.381188E+02 -2.059584E+02
        72   2 -6.743818E+05 -8.841803E+04  6.526694E+03 -2.551048E+05  4.062143E+02 -1.781249E+02
        72   3 -6.720663E+05 -8.918952E+04  6.536310E+03 -2.559732E+05  6.683323E+02 -1.343157E+02
        72   4 -6.988821E+05 -9.924243E+04 -3.925822E+02 -2.633054E+05  1.268478E+02 -2.101850E+02
        72   5 -6.999383E+05 -9.806153E+04 -4.857088E+02 -2.620488E+05  3.974437E+02 -1.814148E+02
        72   6 -6.988935E+05 -9.932372E+04 -8.232677E+02 -2.632749E+05  6.620619E+02 -1.366686E+02
        72   7 -7.231678E+05 -1.083957E+05 -7.059847E+03 -2.698913E+05  1.155774E+02 -2.144114E+02
        72   8 -7.254942E+05 -1.077050E+05 -7.498167E+03 -2.689925E+05  3.886736E+02 -1.847044E+02
        72   9 -7.257201E+05 -1.094579E+05 -8.182916E+03 -2.705763E+05  6.557917E+02 -1.390214E+02
        72  10 -6.745958E+05 -9.008914E+04  6.274640E+03 -2.567192E+05  2.715447E-09 -5.013411E-10
        72  11 -6.743818E+05 -8.841803E+04  6.526693E+03 -2.551048E+05  6.301619E-11 -8.801232E-10
        72  12 -6.720663E+05 -8.918952E+04  6.536309E+03 -2.559732E+05 -1.281629E-09 -5.712704E-10
        72  13 -6.988821E+05 -9.924243E+04 -3.925823E+02 -2.633054E+05  5.054810E-10 -5.549791E-10
        72  14 -6.999383E+05 -9.806153E+04 -4.857092E+02 -2.620488E+05  6.715450E-10 -1.813874E-10
        72  15 -6.988935E+05 -9.932372E+04 -8.232686E+02 -2.632749E+05 -1.114891E-09 -7.785857E-10
        72  16 -7.231678E+05 -1.083957E+05 -7.059848E+03 -2.698913E+05  1.443913E-09 -1.184584E-09
        72  17 -7.254942E+05 -1.077050E+05 -7.498167E+03 -2.689925E+05 -1.111808E-09 -8.137437E-11
        72  18 -7.257201E+05 -1.094579E+05 -8.182917E+03 -2.705763E+05 -9.472665E-10 -7.786862E-10
        72  19 -6.745958E+05 -9.008914E+04  6.274641E+03 -2.567192E+05 -1.381188E+02  2.059584E+02
        72  20 -6.743818E+05 -8.841803E+04  6.526694E+03 -2.551048E+05 -4.062143E+02  1.781249E+02
        72  21 -6.720663E+05 -8.918952E+04  6.536310E+03 -2.559732E+05 -6.683323E+02  1.343157E+02
        72  22 -6.988821E+05 -9.924243E+04 -3.925822E+02 -2.633054E+05 -1.268478E+02  2.101850E+02
        72  23 -6.999383E+05 -9.806153E+04 -4.857088E+02 -2.620488E+05 -3.974437E+02  1.814148E+02
        72  24 -6.988935E+05 -9.932372E+04 -8.232677E+02 -2.632749E+05 -6.620619E+02  1.366686E+02
        72  25 -7.231678E+05 -1.083957E+05 -7.059847E+03 -2.698913E+05 -1.155774E+02  2.144114E+02
        72  26 -7.254942E+05 -1.077050E+05 -7.498167E+03 -2.689925E+05 -3.886736E+02  1.847044E+02
        72  27 -7.257201E+05 -1.094579E+05 -8.182916E+03 -2.705763E+05 -6.557917E+02  1.390214E+02
        73   1 -6.628144E+05 -8.542581E+04  8.903165E+03 -2.533899E+05  8.391911E+02 -1.057173E+02
        73   2 -6.625178E+05 -8.403601E+04  8.416728E+03 -2.521545E+05  1.766609E+03  1.818778E+02
        73   3 -6.611600E+05 -8.543925E+04  6.936352E+03 -2.524806E+05  2.684380E+03  4.952196E+02
        73   4 -6.990776E+05 -9.906527E+04 -1.042904E+03 -2.631965E+05  8.288334E+02 -1.096041E+02
        73   5 -6.996646E+05 -9.806989E+04 -1.779177E+03 -2.622651E+05  1.760244E+03  1.794877E+02
        73   6 -6.991912E+05 -9.986836E+04 -3.512601E+03 -2.628953E+05  2.682008E+03  4.943266E+02
        73   7 -7.353395E+05 -1.127047E+05 -1.098908E+04 -2.730026E+05  8.184763E+02 -1.134907E+02
        73   8 -7.368101E+05 -1.121037E+05 -1.197521E+04 -2.723753E+05  1.753880E+03  1.770978E+02
        73   9 -7.372211E+05 -1.142974E+05 -1.396170E+04 -2.733095E+05  2.679635E+03  4.934336E+02
        73  10 -6.628144E+05 -8.542581E+04  8.903163E+03 -2.533899E+05 -2.757851E-10 -7.615634E-10
        73  11 -6.625178E+05 -8.403601E+04  8.416722E+03 -2.521545E+05 -1.998574E-09 -9.129908E-10
        73  12 -6.611600E+05 -8.543925E+04  6.936338E+03 -2.524806E+05 -6.696823E-10 -5.824667E-10
        73  13 -6.990776E+05 -9.906528E+04 -1.042906E+03 -2.631965E+05 -1.109153E-09 -8.658037E-10
        73  14 -6.996646E+05 -9.806989E+04 -1.779183E+03 -2.622651E+05 -4.938944E-10 -8.033177E-10
        73  15 -6.991912E+05 -9.986836E+04 -3.512615E+03 -2.628953E+05 -2.206898E-09 -8.841445E-10
        73  16 -7.353395E+05 -1.127047E+05 -1.098909E+04 -2.730026E+05 -1.292059E-09 -9.283786E-10
        73  17 -7.368101E+05 -1.121037E+05 -1.197521E+04 -2.723753E+05 -5.446596E-10 -5.623884E-10
        73  18 -7.372211E+05 -1.142974E+05 -1.396171E+04 -2.733095E+05 -1.000390E-09 -8.631699E-10
        73  19 -6.628144E+05 -8.542581E+04  8.903165E+03 -2.533899E+05 -8.391911E+02  1.057173E+02
        73  20 -6.625178E+05 -8.403601E+04  8.416728E+03 -2.521545E+05 -1.766609E+03 -1.818778E+02
        73  21 -6.611600E+05 -8.543925E+04  6.936352E+03 -2.524806E+05 -2.684380E+03 -4.952196E+02
        73  22 -6.990776E+05 -9.906527E+04 -1.042904E+03 -2.631965E+05 -8.288334E+02  1.096041E+02
        73  23 -6.996646E+05 -9.806989E+04 -1.779177E+03 -2.622651E+05 -1.760244E+03 -1.794877E+02
        73  24 -6.991912E+05 -9.986836E+04 -3.512601E+03 -2.628953E+05 -2.682008E+03 -4.943266E+02
        73  25 -7.353395E+05 -1.127047E+05 -1.098908E+04 -2.730026E+05 -8.184763E+02  1.134907E+02
        73  26 -7.368101E+05 -1.121037E+05 -1.197521E+04 -2.723753E+05 -1.753880E+03 -1.770978E+02
        73  27 -7.372211E+05 -1.142974E+05 -1.396170E+04 -2.733095E+05 -2.679635E+03 -4.934336E+02
        74   1 -6.554463E+05 -8.240109E+04  7.596329E+03 -2.514978E+05  3.363926E+03  7.267084E+02
        74   2 -6.543499E+05 -8.029613E+04  4.540336E+03 -2.505078E+05  7.362672E+03  2.187180E+03
        74   3 -6.558978E+05 -8.687904E+04 -3.625856E+03 -2.485033E+05  1.134686E+04  3.686325E+03
        74   4 -6.996792E+05 -9.880014E+04 -4.485719E+03 -2.632157E+05  3.355147E+03  7.234126E+02
        74   5 -6.987416E+05 -9.717565E+04 -7.665598E+03 -2.627021E+05  7.359699E+03  2.186059E+03
        74   6 -7.004496E+05 -1.042405E+05 -1.596056E+04 -2.611740E+05  1.134969E+04  3.687372E+03
        74   7 -7.439103E+05 -1.151991E+05 -1.656794E+04 -2.749328E+05  3.346369E+03  7.201171E+02
        74   8 -7.431314E+05 -1.140550E+05 -1.987171E+04 -2.748956E+05  7.356727E+03  2.184939E+03
        74   9 -7.449995E+05 -1.216019E+05 -2.829543E+04 -2.738438E+05  1.135251E+04  3.688420E+03
        74  10 -6.554463E+05 -8.240109E+04  7.596307E+03 -2.514978E+05 -1.193553E-09 -1.044691E-09
        74  11 -6.543500E+05 -8.029615E+04  4.540225E+03 -2.505078E+05  1.498265E-09 -7.702771E-10
        74  12 -6.558979E+05 -8.687909E+04 -3.626124E+03 -2.485033E+05 -7.553144E-10 -5.601582E-10
        74  13 -6.996792E+05 -9.880014E+04 -4.485742E+03 -2.632157E+05 -3.181242E-09 -5.610158E-10
        74  14 -6.987417E+05 -9.717567E+04 -7.665709E+03 -2.627021E+05 -3.276146E-09 -5.126077E-11
        74  15 -7.004497E+05 -1.042406E+05 -1.596082E+04 -2.611740E+05 -1.183247E-09 -5.913476E-10
        74  16 -7.439103E+05 -1.151991E+05 -1.656797E+04 -2.749328E+05 -1.426180E-09 -9.187025E-10
        74  17 -7.431315E+05 -1.140551E+05 -1.987182E+04 -2.748956E+05  3.234997E-10 -5.927708E-10
        74  18 -7.449996E+05 -1.216019E+05 -2.829570E+04 -2.738439E+05 -7.834566E-11 -7.219998E-10
        74  19 -6.554463E+05 -8.240109E+04  7.596329E+03 -2.514978E+05 -3.363926E+03 -7.267084E+02
        74  20 -6.543499E+05 -8.029613E+04  4.540336E+03 -2.505078E+05 -7.362672E+03 -2.187180E+03
        74  21 -6.558978E+05 -8.687904E+04 -3.625856E+03 -2.485033E+05 -1.134686E+04 -3.686325E+03
        74  22 -6.996792E+05 -9.880014E+04 -4.485719E+03 -2.632157E+05 -3.355147E+03 -7.234126E+02
        74  23 -6.987416E+05 -9.717565E+04 -7.665598E+03 -2.627021E+05 -7.359699E+03 -2.186059E+03
        74  24 -7.004496E+05 -1.042405E+05 -1.596056E+04 -2.611740E+05 -1.134969E+04 -3.687372E+03
        74  25 -7.439103E+05 -1.151991E+05 -1.656794E+04 -2.749328E+05 -3.346369E+03 -7.201171E+02
        74  26 -7.431314E+05 -1.140550E+05 -1.987171E+04 -2.748956E+05 -7.356727E+03 -2.184939E+03
        74  27 -7.449995E+05 -1.216019E+05 -2.829543E+04 -2.738438E+05 -1.135251E+04 -3.688420E+03
        75   1 -6.543321E+05 -8.176262E+04 -7.135809E+03 -2.533193E+05  1.435699E+04  4.800884E+03
        75   2 -6.480299E+05 -7.171173E+04 -2.025939E+04 -2.508188E+05  3.199154E+04  1.140571E+04
        75   3 -6.637717E+05 -1.139763E+05 -6.083279E+04 -2.348950E+05  4.959177E+04  1.810239E+04
        75   4 -7.025067E+05 -9.799146E+04 -1.996729E+04 -2.644060E+05  1.434634E+04  4.796936E+03
        75   5 -6.940596E+05 -9.001607E+04 -3.307472E+04 -2.642870E+05  3.199404E+04  1.140658E+04
        75   6 -7.076605E+05 -1.343612E+05 -7.364395E+04 -2.507443E+05  4.960748E+04  1.810791E+04
        75   7 -7.506792E+05 -1.142203E+05 -3.279898E+04 -2.754919E+05  1.433569E+04  4.792988E+03
        75   8 -7.400872E+05 -1.083202E+05 -4.589024E+04 -2.777542E+05  3.199654E+04  1.140746E+04
        75   9 -7.515474E+05 -1.547457E+05 -8.645529E+04 -2.665926E+05  4.962319E+04  1.811344E+04
        75  10 -6.543323E+05 -8.176270E+04 -7.136241E+03 -2.533194E+05  6.172410E-10 -6.087180E-10
        75  11 -6.480310E+05 -7.171215E+04 -2.026156E+04 -2.508191E+05  2.110059E-09 -9.340547E-10
        75  12 -6.637744E+05 -1.139773E+05 -6.083804E+04 -2.348957E+05  1.133391E-09 -6.611067E-10
        75  13 -7.025069E+05 -9.799154E+04 -1.996772E+04 -2.644060E+05  1.872913E-09 -1.743082E-09
        75  14 -6.940607E+05 -9.001649E+04 -3.307689E+04 -2.642873E+05  2.617548E-09 -1.448747E-09
        75  15 -7.076632E+05 -1.343622E+05 -7.364919E+04 -2.507451E+05  2.807036E-09 -5.278989E-10
        75  16 -7.506794E+05 -1.142204E+05 -3.279941E+04 -2.754920E+05  1.584885E-09 -8.191356E-10
        75  17 -7.400884E+05 -1.083206E+05 -4.589241E+04 -2.777545E+05  2.539805E-10 -3.949070E-10
        75  18 -7.515501E+05 -1.547468E+05 -8.646054E+04 -2.665933E+05  1.436057E-09  9.867749E-10
        75  19 -6.543321E+05 -8.176262E+04 -7.135809E+03 -2.533193E+05 -1.435699E+04 -4.800884E+03
        75  20 -6.480299E+05 -7.171173E+04 -2.025939E+04 -2.508188E+05 -3.199154E+04 -1.140571E+04
        75  21 -6.637717E+05 -1.139763E+05 -6.083279E+04 -2.348950E+05 -4.959177E+04 -1.810239E+04
        75  22 -7.025067E+05 -9.799146E+04 -1.996729E+04 -2.644060E+05 -1.434634E+04 -4.796936E+03
        75  23 -6.940596E+05 -9.001607E+04 -3.307472E+04 -2.642870E+05 -3.199404E+04 -1.140658E+04
        75  24 -7.076605E+05 -1.343612E+05 -7.364395E+04 -2.507443E+05 -4.960748E+04 -1.810791E+04
        75  25 -7.506792E+05 -1.142203E+05 -3.279898E+04 -2.754919E+05 -1.433569E+04 -4.792988E+03
        75  26 -7.400872E+05 -1.083202E+05 -4.589024E+04 -2.777542E+05 -3.199654E+04 -1.140746E+04
        75  27 -7.515474E+05 -1.547457E+05 -8.645529E+04 -2.665926E+05 -4.962319E+04 -1.811344E+04
        76   1 -6.658019E+05 -8.617623E+04 -7.721595E+04 -2.719853E+05  6.324110E+04  2.317928E+04
        76   2 -6.267799E+05 -1.999087E+04 -1.289411E+05 -2.562050E+05  1.411850E+05  5.245999E+04
        76   3 -7.296218E+05 -3.000529E+05 -3.338822E+05 -1.489199E+05  2.189728E+05  8.216100E+04
        76   4 -7.192518E+05 -9.348964E+04 -8.931941E+04 -2.733119E+05  6.320151E+04  2.316604E+04
        76   5 -6.654557E+05 -4.129160E+04 -1.408832E+05 -2.735989E+05  1.412065E+05  5.246616E+04
        76   6 -7.535460E+05 -3.353678E+05 -3.457190E+05 -1.823774E+05  2.190574E+05  8.218117E+04
        76   7 -7.726986E+05 -1.008030E+05 -1.014229E+05 -2.746386E+05  6.316192E+04  2.315280E+04
        76   8 -7.041299E+05 -6.259163E+04 -1.528255E+05 -2.909916E+05  1.412280E+05  5.247233E+04
        76   9 -7.774679E+05 -3.706781E+05 -3.575555E+05 -2.158329E+05  2.191420E+05  8.220132E+04
        76  10 -6.658064E+05 -8.617788E+04 -7.722448E+04 -2.719865E+05  3.695376E-10 -7.169954E-11
        76  11 -6.268020E+05 -1.999919E+04 -1.289838E+05 -2.562110E+05  1.082965E-09 -1.547889E-10
        76  12 -7.296751E+05 -3.000731E+05 -3.339852E+05 -1.489344E+05  3.994737E-10 -1.703683E-09
        76  13 -7.192563E+05 -9.349129E+04 -8.932794E+04 -2.733130E+05  1.237458E-10 -4.556778E-10
        76  14 -6.654779E+05 -4.129993E+04 -1.409259E+05 -2.736048E+05 -2.682614E-09  5.062538E-09
        76  15 -7.535994E+05 -3.353880E+05 -3.458220E+05 -1.823920E+05  2.124017E-09  1.613882E-09
        76  16 -7.727031E+05 -1.008046E+05 -1.014315E+05 -2.746398E+05 -2.388527E-09  1.304079E-09
        76  17 -7.041521E+05 -6.259996E+04 -1.528682E+05 -2.909976E+05 -1.341933E-09  2.351751E-09
        76  18 -7.775213E+05 -3.706983E+05 -3.576586E+05 -2.158475E+05 -3.370534E-10 -3.540979E-10
        76  19 -6.658019E+05 -8.617623E+04 -7.721595E+04 -2.719853E+05 -6.324110E+04 -2.317928E+04
        76  20 -6.267799E+05 -1.999087E+04 -1.289411E+05 -2.562050E+05 -1.411850E+05 -5.245999E+04
        76  21 -7.296218E+05 -3.000529E+05 -3.338822E+05 -1.489199E+05 -2.189728E+05 -8.216100E+04
        76  22 -7.192518E+05 -9.348964E+04 -8.931941E+04 -2.733119E+05 -6.320151E+04 -2.316604E+04
        76  23 -6.654557E+05 -4.129160E+04 -1.408832E+05 -2.735989E+05 -1.412065E+05 -5.246616E+04
        76  24 -7.535460E+05 -3.353678E+05 -3.457190E+05 -1.823774E+05 -2.190574E+05 -8.218117E+04
        76  25 -7.726986E+05 -1.008030E+05 -1.014229E+05 -2.746386E+05 -6.316192E+04 -2.315280E+04
        76  26 -7.041299E+05 -6.259163E+04 -1.528255E+05 -2.909916E+05 -1.412280E+05 -5.247233E+04
        76  27 -7.774679E+05 -3.706781E+05 -3.575555E+05 -2.158329E+05 -2.191420E+05 -8.220132E+04
        77   1  2.685149E+05  2.014339E+06  2.527654E+05 -4.327213E+04  1.448819E+04  1.149245E+05
        77   2  2.408003E+05  1.983121E+06  1.855607E+05 -3.719019E+04  5.046896E+04  6.279439E+04
        77   3  2.278818E+05  1.962428E+06  1.559419E+05 -3.383072E+04  6.501171E+04  1.067172E+04
        77   4  1.445650E+04  9.794777E+05  1.554529E+04 -3.329277E+04  1.450156E+04  1.043807E+04
        77   5  4.715447E+03  9.783780E+05  8.159560E+03 -3.193519E+04  5.048972E+04  6.294860E+03
        77   6  1.466169E+03  9.794985E+05  5.106607E+03 -3.329751E+04  6.502474E+04  2.155088E+03
        77   7 -2.396701E+05 -5.437119E+04 -2.217042E+05 -2.333009E+04  1.451160E+04 -9.387611E+04
        77   8 -2.314229E+05 -2.537427E+04 -1.692668E+05 -2.668884E+04  5.050956E+04 -5.011615E+04
        77   9 -2.249960E+05 -2.467486E+03 -1.457497E+05 -3.276506E+04  6.503778E+04 -6.348619E+03
        77  10  2.685111E+05  2.014325E+06  2.527402E+05 -4.327347E+04 -2.934803E-10  2.196969E-08
        77  11  2.407965E+05  1.983116E+06  1.855486E+05 -3.719274E+04 -6.893893E-10 -8.120460E-08
        77  12  2.278772E+05  1.962427E+06  1.559337E+05 -3.383128E+04 -3.555823E-09 -1.751472E-07
        77  13  1.445624E+04  9.794776E+05  1.554469E+04 -3.329289E+04  8.282835E-10 -1.506296E-11
        77  14  4.712697E+03  9.783772E+05  8.154693E+03 -3.193544E+04  4.532778E-09  1.478854E-11
        77  15  1.461626E+03  9.794974E+05  5.098649E+03 -3.329762E+04  1.321951E-08 -7.090939E-11
        77  16 -2.396727E+05 -5.438071E+04 -2.217212E+05 -2.332899E+04 -1.954431E-09 -2.190663E-08
        77  17 -2.314263E+05 -2.537765E+04 -1.692763E+05 -2.668680E+04 -3.512790E-09  8.050695E-08
        77  18 -2.250005E+05 -2.468666E+03 -1.457577E+05 -3.276473E+04 -2.773739E-09  1.751266E-07
        77  19  2.685149E+05  2.014339E+06  2.527654E+05 -4.327213E+04 -1.448819E+04 -1.149245E+05
        77  20  2.408003E+05  1.983121E+06  1.855607E+05 -3.719019E+04 -5.046896E+04 -6.279439E+04
        77  21  2.278818E+05  1.962428E+06  1.559419E+05 -3.383072E+04 -6.501171E+04 -1.067172E+04
        77  22  1.445650E+04  9.794777E+05  1.554529E+04 -3.329277E+04 -1.450156E+04 -1.043807E+04
        77  23  4.715447E+03  9.783780E+05  8.159560E+03 -3.193519E+04 -5.048972E+04 -6.294860E+03
        77  24  1.466169E+03  9.794985E+05  5.106607E+03 -3.329751E+04 -6.502474E+04 -2.155088E+03
        77  25 -2.396701E+05 -5.437119E+04 -2.217042E+05 -2.333009E+04 -1.451160E+04  9.387611E+04
        77  26 -2.314229E+05 -2.537427E+04 -1.692668E+05 -2.668884E+04 -5.050956E+04  5.011615E+04
        77  27 -2.249960E+05 -2.467486E+03 -1.457497E+05 -3.276506E+04 -6.503778E+04  6.348619E+03
        78   1  2.228357E+05  1.944826E+06  1.488738E+05 -3.470864E+04  6.641663E+04  9.131766E+03
        78   2  2.154577E+05  1.918010E+06  1.403431E+05 -3.177402E+04  6.746135E+04 -3.609717E+03
        78   3  2.112952E+05  1.893701E+06  1.409081E+05 -3.321673E+04  6.370075E+04 -1.635395E+04
        78   4  1.132560E+03  9.791537E+05  4.384839E+03 -3.366605E+04  6.643016E+04  1.430285E+03
        78   5  6.679330E+02  9.788393E+05  3.974072E+03 -3.147726E+04  6.746967E+04 -5.539873E+02
        78   6  1.556845E+03  9.791696E+05  5.206483E+03 -3.366621E+04  6.370012E+04 -2.541498E+03
        78   7 -2.206145E+05  1.441499E+04 -1.401221E+05 -3.262501E+04  6.644367E+04 -6.259729E+03
        78   8 -2.141624E+05  4.055518E+04 -1.324094E+05 -3.118082E+04  6.747799E+04  2.497326E+03
        78   9 -2.082205E+05  6.547685E+04 -1.305100E+05 -3.411483E+04  6.369948E+04  1.125149E+04
        78  10  2.228309E+05  1.944825E+06  1.488653E+05 -3.470913E+04 -3.644025E-09  1.809553E-07
        78  11  2.154529E+05  1.918009E+06  1.403345E+05 -3.177383E+04 -2.899911E-09  8.116642E-08
        78  12  2.112908E+05  1.893700E+06  1.409000E+05 -3.321589E+04 -2.184292E-09 -2.271793E-08
        78  13  1.127819E+03  9.791526E+05  4.376539E+03 -3.366612E+04  1.590019E-08 -4.223280E-10
        78  14  6.630425E+02  9.788381E+05  3.965513E+03 -3.147723E+04  9.103545E-09 -8.119875E-12
        78  15  1.552484E+03  9.791685E+05  5.198843E+03 -3.366608E+04 -5.168341E-10 -7.804414E-11
        78  16 -2.206193E+05  1.441376E+04 -1.401305E+05 -3.262468E+04 -4.630136E-09 -1.805988E-07
        78  17 -2.141673E+05  4.055395E+04 -1.324180E+05 -3.118096E+04 -2.927488E-09 -8.280304E-08
        78  18 -2.082249E+05  6.547562E+04 -1.305179E+05 -3.411541E+04 -3.176044E-09  2.311005E-08
        78  19  2.228357E+05  1.944826E+06  1.488738E+05 -3.470864E+04 -6.641663E+04 -9.131766E+03
        78  20  2.154577E+05  1.918010E+06  1.403431E+05 -3.177402E+04 -6.746135E+04  3.609717E+03
        78  21  2.112952E+05  1.893701E+06  1.409081E+05 -3.321673E+04 -6.370075E+04  1.635395E+04
        78  22  1.132560E+03  9.791537E+05  4.384839E+03 -3.366605E+04 -6.643016E+04 -1.430285E+03
        78  23  6.679330E+02  9.788393E+05  3.974072E+03 -3.147726E+04 -6.746967E+04  5.539873E+02
        78  24  1.556845E+03  9.791696E+05  5.206483E+03 -3.366621E+04 -6.370012E+04  2.541498E+03
        78  25 -2.206145E+05  1.441499E+04 -1.401221E+05 -3.262501E+04 -6.644367E+04  6.259729E+03
        78  26 -2.141624E+05  4.055518E+04 -1.324094E+05 -3.118082E+04 -6.747799E+04 -2.497326E+03
        78  27 -2.082205E+05  6.547685E+04 -1.305100E+05 -3.411483E+04 -6.369948E+04 -1.125149E+04
        79   1  2.090005E+05  1.879362E+06  1.429845E+05 -3.415119E+04  6.055364E+04 -1.792142E+04
        79   2  2.107916E+05  1.849316E+06  1.624368E+05 -2.475526E+04  4.540882E+04 -6.243358E+04
        79   3  2.281345E+05  1.828972E+06  2.147078E+05 -2.112805E+04  1.286358E+04 -1.069660E+05
        79   4  2.052133E+03  9.796897E+05  6.412481E+03 -3.397716E+04  6.055075E+04 -3.420379E+03
        79   5  6.568870E+03  9.782143E+05  1.091925E+04 -3.108505E+04  4.536698E+04 -8.994010E+03
        79   6  1.989844E+04  9.796980E+05  2.125644E+04 -3.396398E+04  1.277254E+04 -1.458807E+04
        79   7 -2.049348E+05  8.082669E+04 -1.301757E+05 -3.380321E+04  6.054786E+04  1.106053E+04
        79   8 -1.976932E+05  1.078605E+05 -1.406143E+05 -3.740553E+04  4.532402E+04  4.437304E+04
        79   9 -1.883822E+05  1.311102E+05 -1.722098E+05 -4.678208E+04  1.267762E+04  7.766491E+04
        79  10  2.089964E+05  1.879361E+06  1.429770E+05 -3.415032E+04 -1.257383E-09  8.553483E-09
        79  11  2.107884E+05  1.849311E+06  1.624257E+05 -2.475298E+04 -8.929349E-10  1.815129E-09
        79  12  2.281313E+05  1.828959E+06  2.146861E+05 -2.112694E+04  4.706049E-11  5.707736E-10
        79  13  2.048191E+03  9.796887E+05  6.405566E+03 -3.397699E+04 -3.933114E-09 -8.760225E-10
        79  14  6.566637E+03  9.782137E+05  1.091522E+04 -3.108472E+04 -1.517242E-09 -5.084156E-11
        79  15  1.989821E+04  9.796977E+05  2.125573E+04 -3.396383E+04 -1.972863E-09 -4.146513E-12
        79  16 -2.049387E+05  8.082558E+04 -1.301828E+05 -3.380375E+04 -2.438851E-09 -8.638331E-09
        79  17 -1.976959E+05  1.078579E+05 -1.406219E+05 -3.740715E+04 -2.321822E-09 -4.583268E-09
        79  18 -1.883840E+05  1.311037E+05 -1.722214E+05 -4.678287E+04 -1.022159E-09  2.277667E-10
        79  19  2.090005E+05  1.879362E+06  1.429845E+05 -3.415119E+04 -6.055364E+04  1.792142E+04
        79  20  2.107916E+05  1.849316E+06  1.624368E+05 -2.475526E+04 -4.540882E+04  6.243358E+04
        79  21  2.281345E+05  1.828972E+06  2.147078E+05 -2.112805E+04 -1.286358E+04  1.069660E+05
        79  22  2.052133E+03  9.796897E+05  6.412481E+03 -3.397716E+04 -6.055075E+04  3.420379E+03
        79  23  6.568870E+03  9.782143E+05  1.091925E+04 -3.108505E+04 -4.536698E+04  8.994010E+03
        79  24  1.989844E+04  9.796980E+05  2.125644E+04 -3.396398E+04 -1.277254E+04  1.458807E+04
        79  25 -2.049348E+05  8.082669E+04 -1.301757E+05 -3.380321E+04 -6.054786E+04 -1.106053E+04
        79  26 -1.976932E+05  1.078605E+05 -1.406143E+05 -3.740553E+04 -4.532402E+04 -4.437304E+04
        79  27 -1.883822E+05  1.311102E+05 -1.722098E+05 -4.678208E+04 -1.267762E+04 -7.766491E+04
        80   1 -3.209373E+06 -3.396349E+05 -4.100763E+05 -2.194774E+04 -2.077719E+05  8.185599E+02
        80   2 -3.182759E+06 -5.803715E+04 -2.406199E+05 -2.379502E+04 -1.363267E+05  4.901540E+03
        80   3 -3.246878E+06 -1.078942E+05 -2.003972E+05  1.755338E+04 -6.486688E+04  5.195537E+03
        80   4 -2.784264E+06 -2.327169E+05 -3.035593E+05  6.442276E+03 -2.069241E+05  8.132722E+02
        80   5 -2.738806E+06  5.326815E+04 -1.298351E+05 -1.568700E+04 -1.360714E+05  4.900728E+03
        80   6 -2.783918E+06  8.025413E+03 -8.486983E+04  5.376365E+03 -6.520207E+04  5.195685E+03
        80   7 -2.358989E+06 -1.258097E+05 -1.970555E+05  3.485164E+04 -2.060756E+05  8.080667E+02
        80   8 -2.294673E+06  1.645588E+05 -1.906518E+04 -7.573313E+03 -1.358159E+05  4.899923E+03
        80   9 -2.320762E+06  1.239294E+05  3.064142E+04 -6.809925E+03 -6.553749E+04  5.195846E+03
        80  10 -3.209420E+06 -3.396466E+05 -4.101579E+05 -2.194760E+04  3.279328E-10 -4.145339E-10
        80  11 -3.182779E+06 -5.804220E+04 -2.406551E+05 -2.379449E+04  1.805521E-10 -1.425728E-09
        80  12 -3.246882E+06 -1.078953E+05 -2.004052E+05  1.755366E+04  2.085853E-09 -1.119890E-10
        80  13 -2.784311E+06 -2.327285E+05 -3.036401E+05  6.442412E+03  5.396422E-10 -5.124551E-10
        80  14 -2.738826E+06  5.326313E+04 -1.298701E+05 -1.568646E+04 -3.239411E-09 -6.850621E-10
        80  15 -2.783923E+06  8.024236E+03 -8.487790E+04  5.376638E+03 -5.810861E-10  2.873078E-10
        80  16 -2.359035E+06 -1.258212E+05 -1.971356E+05  3.485177E+04  1.032326E-10 -4.800566E-10
        80  17 -2.294693E+06  1.645538E+05 -1.910002E+04 -7.572776E+03 -4.802345E-09 -8.202214E-10
        80  18 -2.320767E+06  1.239282E+05  3.063327E+04 -6.809651E+03 -2.980616E-09  5.446374E-10
        80  19 -3.209373E+06 -3.396349E+05 -4.100763E+05 -2.194774E+04  2.077719E+05 -8.185599E+02
        80  20 -3.182759E+06 -5.803715E+04 -2.406199E+05 -2.379502E+04  1.363267E+05 -4.901540E+03
        80  21 -3.246878E+06 -1.078942E+05 -2.003972E+05  1.755338E+04  6.486688E+04 -5.195537E+03
        80  22 -2.784264E+06 -2.327169E+05 -3.035593E+05  6.442276E+03  2.069241E+05 -8.132722E+02
        80  23 -2.738806E+06  5.326815E+04 -1.298351E+05 -1.568700E+04  1.360714E+05 -4.900728E+03
        80  24 -2.783918E+06  8.025413E+03 -8.486983E+04  5.376365E+03  6.520207E+04 -5.195685E+03
        80  25 -2.358989E+06 -1.258097E+05 -1.970555E+05  3.485164E+04  2.060756E+05 -8.080667E+02
        80  26 -2.294673E+06  1.645588E+05 -1.906518E+04 -7.573313E+03  1.358159E+05 -4.899923E+03
        80  27 -2.320762E+06  1.239294E+05  3.064142E+04 -6.809925E+03  6.553749E+04 -5.195846E+03
        81   1 -3.301992E+06 -1.690831E+05 -2.038793E+05 -8.581246E+03 -5.150623E+04  5.075351E+03
        81   2 -3.296152E+06 -1.263067E+05 -1.674628E+05 -5.443013E+03 -3.364779E+04  6.009408E+03
        81   3 -3.302161E+06 -1.330677E+05 -1.545206E+05 -1.962759E+03 -1.578694E+04  5.540200E+03
        81   4 -2.766523E+06 -3.484614E+04 -7.011612E+04 -3.749933E+03 -5.127016E+04  5.075307E+03
        81   5 -2.760593E+06  7.909020E+03 -3.377811E+04 -3.961861E+03 -3.363314E+04  6.009047E+03
        81   6 -2.766461E+06  1.189622E+03 -2.074570E+04 -3.831796E+03 -1.599370E+04  5.539857E+03
        81   7 -2.230793E+06  9.936912E+04  6.362543E+04  1.085414E+03 -5.103387E+04  5.075268E+03
        81   8 -2.224773E+06  1.421030E+05  9.988488E+04 -2.479517E+03 -3.361846E+04  6.008687E+03
        81   9 -2.230499E+06  1.354252E+05  1.130075E+05 -5.702481E+03 -1.620063E+04  5.539514E+03
        81  10 -3.301995E+06 -1.690838E+05 -2.038844E+05 -8.581035E+03 -7.737653E-10  2.465746E-11
        81  11 -3.296153E+06 -1.263071E+05 -1.674650E+05 -5.442849E+03 -7.153896E-11 -1.335126E-09
        81  12 -3.302162E+06 -1.330678E+05 -1.545211E+05 -1.962689E+03  1.897525E-09  1.701807E-10
        81  13 -2.766526E+06 -3.484688E+04 -7.012113E+04 -3.749723E+03  2.432098E-09  7.776632E-10
        81  14 -2.760595E+06  7.908676E+03 -3.378031E+04 -3.961698E+03  1.552317E-10 -1.981536E-10
        81  15 -2.766461E+06  1.189520E+03 -2.074625E+04 -3.831724E+03  1.142827E-09  5.424315E-10
        81  16 -2.230796E+06  9.936839E+04  6.362047E+04  1.085622E+03  1.158571E-09  1.236942E-09
        81  17 -2.224774E+06  1.421027E+05  9.988268E+04 -2.479354E+03 -5.016966E-10 -7.921214E-10
        81  18 -2.230499E+06  1.354251E+05  1.130069E+05 -5.702409E+03 -1.825639E-09  2.875141E-10
        81  19 -3.301992E+06 -1.690831E+05 -2.038793E+05 -8.581246E+03  5.150623E+04 -5.075351E+03
        81  20 -3.296152E+06 -1.263067E+05 -1.674628E+05 -5.443013E+03  3.364779E+04 -6.009408E+03
        81  21 -3.302161E+06 -1.330677E+05 -1.545206E+05 -1.962759E+03  1.578694E+04 -5.540200E+03
        81  22 -2.766523E+06 -3.484614E+04 -7.011612E+04 -3.749933E+03  5.127016E+04 -5.075307E+03
        81  23 -2.760593E+06  7.909020E+03 -3.377811E+04 -3.961861E+03  3.363314E+04 -6.009047E+03
        81  24 -2.766461E+06  1.189622E+03 -2.074570E+04 -3.831796E+03  1.599370E+04 -5.539857E+03
        81  25 -2.230793E+06  9.936912E+04  6.362543E+04  1.085414E+03  5.103387E+04 -5.075268E+03
        81  26 -2.224773E+06  1.421030E+05  9.988488E+04 -2.479517E+03  3.361846E+04 -6.008687E+03
        81  27 -2.230499E+06  1.354252E+05  1.130075E+05 -5.702481E+03  1.620063E+04 -5.539514E+03
        82   1 -3.228164E+06 -1.215986E+05 -1.325289E+05 -1.363286E+04 -1.267463E+04  5.231895E+03
        82   2 -3.209356E+06 -1.105478E+05 -1.200353E+05  7.833791E+03 -8.077939E+03  5.001480E+03
        82   3 -3.191065E+06 -1.067841E+05 -1.119817E+05 -1.222714E+04 -3.483292E+03  3.924894E+03
        82   4 -2.763936E+06 -5.266323E+03 -1.665365E+04 -1.311243E+04 -1.264872E+04  5.231633E+03
        82   5 -2.763694E+06  1.131360E+03 -8.792674E+03  7.651009E+03 -8.190666E+03  5.001351E+03
        82   6 -2.763940E+06  2.699496E+02 -5.272458E+03 -1.311126E+04 -3.734785E+03  3.925156E+03
        82   7 -2.299512E+06  1.110496E+05  9.920529E+04 -1.259160E+04 -1.262280E+04  5.231371E+03
        82   8 -2.317850E+06  1.127955E+05  1.024349E+05  7.468135E+03 -8.303473E+03  5.001222E+03
        82   9 -2.336650E+06  1.073101E+05  1.014230E+05 -1.399593E+04 -3.986451E+03  3.925418E+03
        82  10 -3.228164E+06 -1.215986E+05 -1.325292E+05 -1.363280E+04  2.405017E-09 -8.941302E-10
        82  11 -3.209357E+06 -1.105479E+05 -1.200354E+05  7.833824E+03  3.094152E-10  2.264551E-10
        82  12 -3.191065E+06 -1.067841E+05 -1.119818E+05 -1.222713E+04 -4.518944E-11  7.490391E-10
        82  13 -2.763936E+06 -5.266395E+03 -1.665400E+04 -1.311237E+04  4.256182E-09  3.031367E-12
        82  14 -2.763694E+06  1.131315E+03 -8.792848E+03  7.651042E+03  2.151391E-09  2.451394E-10
        82  15 -2.763940E+06  2.699293E+02 -5.272513E+03 -1.311125E+04 -3.279233E-09  7.326156E-11
        82  16 -2.299512E+06  1.110495E+05  9.920493E+04 -1.259155E+04 -1.725978E-09  7.305562E-10
        82  17 -2.317850E+06  1.127955E+05  1.024347E+05  7.468169E+03 -2.733657E-09 -3.615106E-10
        82  18 -2.336650E+06  1.073101E+05  1.014230E+05 -1.399592E+04 -1.089001E-09  6.722292E-10
        82  19 -3.228164E+06 -1.215986E+05 -1.325289E+05 -1.363286E+04  1.267463E+04 -5.231895E+03
        82  20 -3.209356E+06 -1.105478E+05 -1.200353E+05  7.833791E+03  8.077939E+03 -5.001480E+03
        82  21 -3.191065E+06 -1.067841E+05 -1.119817E+05 -1.222714E+04  3.483292E+03 -3.924894E+03
        82  22 -2.763936E+06 -5.266323E+03 -1.665365E+04 -1.311243E+04  1.264872E+04 -5.231633E+03
        82  23 -2.763694E+06  1.131360E+03 -8.792674E+03  7.651009E+03  8.190666E+03 -5.001351E+03
        82  24 -2.763940E+06  2.699496E+02 -5.272458E+03 -1.311126E+04  3.734785E+03 -3.925156E+03
        82  25 -2.299512E+06  1.110496E+05  9.920529E+04 -1.259160E+04  1.262280E+04 -5.231371E+03
        82  26 -2.317850E+06  1.127955E+05  1.024349E+05  7.468135E+03  8.303473E+03 -5.001222E+03
        82  27 -2.336650E+06  1.073101E+05  1.014230E+05 -1.399593E+04  3.986451E+03 -3.925418E+03
        83   1 -2.999509E+06 -5.980383E+04 -6.308451E+04 -1.898992E+04 -2.753335E+03  3.245882E+03
        83   2 -2.968388E+06 -5.113390E+04 -5.382308E+04  1.569707E+04 -1.324949E+03  2.293610E+03
        83   3 -2.937715E+06 -4.353470E+04 -4.576231E+04 -1.882797E+04  1.015747E+02  9.772409E+02
        83   4 -2.763889E+06 -7.796216E+02 -4.344117E+03 -1.926557E+04 -2.882484E+03  3.246071E+03
        83   5 -2.763675E+06  1.590205E+02 -2.731342E+03  1.534058E+04 -1.514592E+03  2.294020E+03
        83   6 -2.763900E+06  3.776732E+01 -2.276757E+03 -1.926389E+04 -1.486342E+02  9.779276E+02
        83   7 -2.528218E+06  5.824038E+04  5.439209E+04 -1.954129E+04 -3.011682E+03  3.246260E+03
        83   8 -2.558923E+06  5.144876E+04  4.835724E+04  1.498399E+04 -1.704298E+03  2.294430E+03
        83   9 -2.590056E+06  4.360794E+04  4.120651E+04 -1.969990E+04 -3.989135E+02  9.786146E+02
        83  10 -2.999509E+06 -5.980384E+04 -6.308454E+04 -1.898992E+04 -6.484794E-10  4.776435E-10
        83  11 -2.968388E+06 -5.113390E+04 -5.382310E+04  1.569707E+04 -8.467609E-11  3.976687E-10
        83  12 -2.937715E+06 -4.353470E+04 -4.576231E+04 -1.882797E+04  1.312387E-09 -1.398291E-10
        83  13 -2.763889E+06 -7.796351E+02 -4.344152E+03 -1.926556E+04 -2.647428E-09  1.004762E-10
        83  14 -2.763675E+06  1.590143E+02 -2.731356E+03  1.534058E+04  2.277047E-09  2.054907E-10
        83  15 -2.763900E+06  3.776629E+01 -2.276759E+03 -1.926389E+04  9.166813E-10  2.485993E-11
        83  16 -2.528218E+06  5.824037E+04  5.439205E+04 -1.954128E+04 -1.072671E-09  8.143123E-10
        83  17 -2.558923E+06  5.144876E+04  4.835722E+04  1.498399E+04 -2.878997E-09  5.878798E-11
        83  18 -2.590056E+06  4.360794E+04  4.120650E+04 -1.969990E+04 -6.966685E-10 -5.149134E-10
        83  19 -2.999509E+06 -5.980383E+04 -6.308451E+04 -1.898992E+04  2.753335E+03 -3.245882E+03
        83  20 -2.968388E+06 -5.113390E+04 -5.382308E+04  1.569707E+04  1.324949E+03 -2.293610E+03
        83  21 -2.937715E+06 -4.353470E+04 -4.576231E+04 -1.882797E+04 -1.015747E+02 -9.772409E+02
        83  22 -2.763889E+06 -7.796216E+02 -4.344117E+03 -1.926557E+04  2.882484E+03 -3.246071E+03
        83  23 -2.763675E+06  1.590205E+02 -2.731342E+03  1.534058E+04  1.514592E+03 -2.294020E+03
        83  24 -2.763900E+06  3.776732E+01 -2.276757E+03 -1.926389E+04  1.486342E+02 -9.779276E+02
        83  25 -2.528218E+06  5.824038E+04  5.439209E+04 -1.954129E+04  3.011682E+03 -3.246260E+03
        83  26 -2.558923E+06  5.144876E+04  4.835724E+04  1.498399E+04  1.704298E+03 -2.294430E+03
        83  27 -2.590056E+06  4.360794E+04  4.120651E+04 -1.969990E+04  3.989135E+02 -9.786146E+02
        84   1 -2.691088E+06  1.830128E+04  1.597583E+04 -2.042654E+04  4.930240E+02  1.120883E+02
        84   2 -2.657875E+06  2.664693E+04  2.356549E+04  1.631265E+04  1.870335E+03 -1.188170E+03
        84   3 -2.625490E+06  3.389197E+04  2.990324E+04 -2.036877E+04  3.248822E+03 -2.294087E+03
        84   4 -2.763979E+06  1.964441E+01 -2.314899E+03 -2.019957E+04  2.596393E+02  1.127587E+02
        84   5 -2.763560E+06  1.715606E+02 -2.805894E+03  1.651015E+04  1.669288E+03 -1.187650E+03
        84   6 -2.763975E+06 -7.828636E+02 -4.571434E+03 -2.020153E+04  3.080039E+03 -2.293701E+03
        84   7 -2.836866E+06 -1.826239E+04 -2.060603E+04 -1.997261E+04  2.628205E+01  1.134289E+02
        84   8 -2.869234E+06 -2.630466E+04 -2.917812E+04  1.670762E+04  1.468275E+03 -1.187131E+03
        84   9 -2.902441E+06 -3.545914E+04 -3.904755E+04 -2.003432E+04  2.911294E+03 -2.293314E+03
        84  10 -2.691088E+06  1.830128E+04  1.597583E+04 -2.042654E+04  6.378214E-10  1.156872E-09
        84  11 -2.657875E+06  2.664693E+04  2.356548E+04  1.631265E+04 -1.604300E-09 -7.383808E-10
        84  12 -2.625490E+06  3.389196E+04  2.990321E+04 -2.036876E+04  1.881371E-09 -2.227599E-10
        84  13 -2.763979E+06  1.964438E+01 -2.314899E+03 -2.019957E+04 -1.942712E-10  5.450427E-10
        84  14 -2.763560E+06  1.715583E+02 -2.805902E+03  1.651015E+04  3.352849E-09  4.814585E-10
        84  15 -2.763975E+06 -7.828718E+02 -4.571461E+03 -2.020153E+04 -1.259447E-09  2.105631E-10
        84  16 -2.836866E+06 -1.826239E+04 -2.060603E+04 -1.997261E+04 -5.735618E-10 -7.752071E-10
        84  17 -2.869234E+06 -2.630466E+04 -2.917813E+04  1.670762E+04  1.090061E-09 -1.741026E-10
        84  18 -2.902441E+06 -3.545915E+04 -3.904757E+04 -2.003432E+04 -5.131584E-10 -7.848195E-10
        84  19 -2.691088E+06  1.830128E+04  1.597583E+04 -2.042654E+04 -4.930240E+02 -1.120883E+02
        84  20 -2.657875E+06  2.664693E+04  2.356549E+04  1.631265E+04 -1.870335E+03  1.188170E+03
        84  21 -2.625490E+06  3.389197E+04  2.990324E+04 -2.036877E+04 -3.248822E+03  2.294087E+03
        84  22 -2.763979E+06  1.964441E+01 -2.314899E+03 -2.019957E+04 -2.596393E+02 -1.127587E+02
        84  23 -2.763560E+06  1.715606E+02 -2.805894E+03  1.651015E+04 -1.669288E+03  1.187650E+03
        84  24 -2.763975E+06 -7.828636E+02 -4.571434E+03 -2.020153E+04 -3.080039E+03  2.293701E+03
        84  25 -2.836866E+06 -1.826239E+04 -2.060603E+04 -1.997261E+04 -2.628205E+01 -1.134289E+02
        84  26 -2.869234E+06 -2.630466E+04 -2.917812E+04  1.670762E+04 -1.468275E+03  1.187131E+03
        84  27 -2.902441E+06 -3.545914E+04 -3.904755E+04 -2.003432E+04 -2.911294E+03  2.293314E+03
        85   1 -2.407320E+06  8.968873E+04  8.353224E+04 -1.654842E+04  4.250182E+03 -3.069279E+03
        85   2 -2.383127E+06  9.647266E+04  8.563791E+04  1.046029E+04  8.828062E+03 -4.277283E+03
        85   3 -2.360190E+06  9.559228E+04  8.309118E+04 -1.528306E+04  1.340864E+04 -4.739223E+03
        85   4 -2.764108E+06  3.004478E+02 -5.585653E+03 -1.560504E+04  3.985362E+03 -3.068801E+03
        85   5 -2.763465E+06  1.210779E+03 -9.251006E+03  1.076929E+04  8.685681E+03 -4.277236E+03
        85   6 -2.764103E+06 -5.567512E+03 -1.765618E+04 -1.561047E+04  1.338853E+04 -4.739414E+03
        85   7 -3.120779E+06 -8.909747E+04 -9.471317E+04 -1.466214E+04  3.720694E+03 -3.068324E+03
        85   8 -3.143672E+06 -9.406205E+04 -1.041508E+05  1.107816E+04  8.543387E+03 -4.277189E+03
        85   9 -3.167867E+06 -1.067396E+05 -1.184158E+05 -1.593763E+04  1.336842E+04 -4.739605E+03
        85  10 -2.407320E+06  8.968871E+04  8.353219E+04 -1.654841E+04 -1.282684E-09 -2.336021E-10
        85  11 -2.383127E+06  9.647262E+04  8.563773E+04  1.046032E+04 -5.251024E-09  4.817889E-10
        85  12 -2.360190E+06  9.559221E+04  8.309080E+04 -1.528300E+04  2.022020E-09 -8.083857E-10
        85  13 -2.764108E+06  3.004335E+02 -5.585700E+03 -1.560503E+04 -3.746594E-10 -9.896437E-10
        85  14 -2.763465E+06  1.210739E+03 -9.251183E+03  1.076932E+04 -2.502938E-10 -5.950957E-10
        85  15 -2.764103E+06 -5.567585E+03 -1.765656E+04 -1.561042E+04  6.826785E-09  3.248711E-10
        85  16 -3.120779E+06 -8.909749E+04 -9.471321E+04 -1.466213E+04 -1.201799E-09 -1.664349E-10
        85  17 -3.143672E+06 -9.406209E+04 -1.041510E+05  1.107818E+04  3.990982E-10 -9.314602E-10
        85  18 -3.167867E+06 -1.067397E+05 -1.184162E+05 -1.593758E+04  3.305476E-10  6.909091E-10
        85  19 -2.407320E+06  8.968873E+04  8.353224E+04 -1.654842E+04 -4.250182E+03  3.069279E+03
        85  20 -2.383127E+06  9.647266E+04  8.563791E+04  1.046029E+04 -8.828062E+03  4.277283E+03
        85  21 -2.360190E+06  9.559228E+04  8.309118E+04 -1.528306E+04 -1.340864E+04  4.739223E+03
        85  22 -2.764108E+06  3.004478E+02 -5.585653E+03 -1.560504E+04 -3.985362E+03  3.068801E+03
        85  23 -2.763465E+06  1.210779E+03 -9.251006E+03  1.076929E+04 -8.685681E+03  4.277236E+03
        85  24 -2.764103E+06 -5.567512E+03 -1.765618E+04 -1.561047E+04 -1.338853E+04  4.739414E+03
        85  25 -3.120779E+06 -8.909747E+04 -9.471317E+04 -1.466214E+04 -3.720694E+03  3.068324E+03
        85  26 -3.143672E+06 -9.406205E+04 -1.041508E+05  1.107816E+04 -8.543387E+03  4.277189E+03
        85  27 -3.167867E+06 -1.067396E+05 -1.184158E+05 -1.593763E+04 -1.336842E+04  4.739605E+03
        86   1 -2.246879E+06  1.314890E+05  1.077746E+05 -9.327720E+03  1.719121E+04 -5.219616E+03
        86   2 -2.234222E+06  1.401498E+05  9.549577E+04  1.256942E+03  3.562675E+04 -5.940174E+03
        86   3 -2.234262E+06  9.645022E+04  5.866233E+04 -2.245243E+03  5.406189E+04 -5.177828E+03
        86   4 -2.766675E+06  1.293454E+03 -2.196451E+04 -7.029336E+03  1.693742E+04 -5.219747E+03
        86   5 -2.760328E+06  8.390634E+03 -3.574271E+04  4.242152E+01  3.560747E+04 -5.940562E+03
        86   6 -2.766734E+06 -3.693854E+04 -7.425403E+04 -6.973510E+03  5.427693E+04 -5.178135E+03
        86   7 -3.286225E+06 -1.289225E+05 -1.517240E+05 -4.732861E+03  1.668383E+04 -5.219880E+03
        86   8 -3.286183E+06 -1.233895E+05 -1.670021E+05 -1.171104E+03  3.558820E+04 -5.940950E+03
        86   9 -3.298948E+06 -1.703487E+05 -2.071918E+05 -1.169781E+04  5.449178E+04 -5.178446E+03
        86  10 -2.246879E+06  1.314889E+05  1.077740E+05 -9.327648E+03  1.919537E-09  9.276589E-10
        86  11 -2.234223E+06  1.401494E+05  9.549331E+04  1.257112E+03 -3.420535E-09 -5.994543E-10
        86  12 -2.234265E+06  9.644940E+04  5.865677E+04 -2.245017E+03 -6.451965E-09  1.014856E-09
        86  13 -2.766675E+06  1.293348E+03 -2.196510E+04 -7.029264E+03  2.324019E-09  2.093905E-10
        86  14 -2.760330E+06  8.390254E+03 -3.574517E+04  4.259204E+01  4.178798E-09 -6.806130E-10
        86  15 -2.766737E+06 -3.693936E+04 -7.425964E+04 -6.973283E+03 -2.279234E-09 -5.586848E-10
        86  16 -3.286225E+06 -1.289226E+05 -1.517246E+05 -4.732791E+03  1.399413E-09 -8.289883E-11
        86  17 -3.286184E+06 -1.233898E+05 -1.670045E+05 -1.170934E+03  3.002269E-09 -7.662796E-11
        86  18 -3.298951E+06 -1.703495E+05 -2.071974E+05 -1.169758E+04  6.243216E-10  1.543017E-10
        86  19 -2.246879E+06  1.314890E+05  1.077746E+05 -9.327720E+03 -1.719121E+04  5.219616E+03
        86  20 -2.234222E+06  1.401498E+05  9.549577E+04  1.256942E+03 -3.562675E+04  5.940174E+03
        86  21 -2.234262E+06  9.645022E+04  5.866233E+04 -2.245243E+03 -5.406189E+04  5.177828E+03
        86  22 -2.766675E+06  1.293454E+03 -2.196451E+04 -7.029336E+03 -1.693742E+04  5.219747E+03
        86  23 -2.760328E+06  8.390634E+03 -3.574271E+04  4.242152E+01 -3.560747E+04  5.940562E+03
        86  24 -2.766734E+06 -3.693854E+04 -7.425403E+04 -6.973510E+03 -5.427693E+04  5.178135E+03
        86  25 -3.286225E+06 -1.289225E+05 -1.517240E+05 -4.732861E+03 -1.668383E+04  5.219880E+03
        86  26 -3.286183E+06 -1.233895E+05 -1.670021E+05 -1.171104E+03 -3.558820E+04  5.940950E+03
        86  27 -3.298948E+06 -1.703487E+05 -2.071918E+05 -1.169781E+04 -5.449178E+04  5.178446E+03
        87   1 -2.278139E+06  1.353656E+05  3.659927E+04 -1.059466E+04  6.948041E+04 -5.565756E+03
        87   2 -2.243971E+06  1.800546E+05 -1.441383E+04 -3.753348E+03  1.438144E+05 -5.619016E+03
        87   3 -2.304972E+06 -1.257473E+05 -2.010952E+05  3.350599E+04  2.181317E+05 -1.137708E+03
        87   4 -2.784993E+06  8.496296E+03 -8.983305E+04  2.575210E+03  6.902690E+04 -5.565450E+03
        87   5 -2.737489E+06  5.641234E+04 -1.374886E+05 -1.215054E+04  1.440676E+05 -5.620250E+03
        87   6 -2.785352E+06 -2.464353E+05 -3.213801E+05  3.545283E+03  2.190930E+05 -1.144102E+03
        87   7 -3.291611E+06 -1.183918E+05 -2.162846E+05  1.573416E+04  6.857374E+04 -5.565162E+03
        87   8 -3.230786E+06 -6.724806E+04 -2.605817E+05 -2.054120E+04  1.443205E+05 -5.621492E+03
        87   9 -3.265521E+06 -3.671376E+05 -4.416821E+05 -2.639236E+04  2.200536E+05 -1.150594E+03
        87  10 -2.278145E+06  1.353643E+05  3.659011E+04 -1.059434E+04 -1.761330E-09  1.171038E-09
        87  11 -2.243993E+06  1.800490E+05 -1.445290E+04 -3.752697E+03 -3.277757E-09  1.739582E-09
        87  12 -2.305023E+06 -1.257601E+05 -2.011850E+05  3.350619E+04 -9.710268E-12 -5.098378E-12
        87  13 -2.784998E+06  8.494977E+03 -8.984210E+04  2.575520E+03  2.493204E-10  3.798078E-10
        87  14 -2.737512E+06  5.640671E+04 -1.375278E+05 -1.214989E+04  3.347069E-09  7.405315E-10
        87  15 -2.785404E+06 -2.464483E+05 -3.214707E+05  3.545485E+03 -7.763098E-10  4.779729E-10
        87  16 -3.291617E+06 -1.183931E+05 -2.162936E+05  1.573447E+04  1.222480E-09  1.001727E-09
        87  17 -3.230808E+06 -6.725372E+04 -2.606211E+05 -2.054054E+04 -1.723567E-09  1.387317E-09
        87  18 -3.265573E+06 -3.671507E+05 -4.417736E+05 -2.639215E+04 -1.894828E-09  9.140595E-11
        87  19 -2.278139E+06  1.353656E+05  3.659927E+04 -1.059466E+04 -6.948041E+04  5.565756E+03
        87  20 -2.243971E+06  1.800546E+05 -1.441383E+04 -3.753348E+03 -1.438144E+05  5.619016E+03
        87  21 -2.304972E+06 -1.257473E+05 -2.010952E+05  3.350599E+04 -2.181317E+05  1.137708E+03
        87  22 -2.784993E+06  8.496296E+03 -8.983305E+04  2.575210E+03 -6.902690E+04  5.565450E+03
        87  23 -2.737489E+06  5.641234E+04 -1.374886E+05 -1.215054E+04 -1.440676E+05  5.620250E+03
        87  24 -2.785352E+06 -2.464353E+05 -3.213801E+05  3.545283E+03 -2.190930E+05  1.144102E+03
        87  25 -3.291611E+06 -1.183918E+05 -2.162846E+05  1.573416E+04 -6.857374E+04  5.565162E+03
        87  26 -3.230786E+06 -6.724806E+04 -2.605817E+05 -2.054120E+04 -1.443205E+05  5.621492E+03
        87  27 -3.265521E+06 -3.671376E+05 -4.416821E+05 -2.639236E+04 -2.200536E+05  1.150594E+03
        88   1  4.484537E+05  7.967692E+05  4.866164E+05 -1.080794E+05  4.847828E+03  1.225955E+05
        88   2  2.555325E+05  6.558573E+05  3.563585E+05  2.368965E+04  1.416683E+04  8.089195E+04
        88   3  2.554997E+05  5.772256E+05  3.032097E+05 -8.865919E+04  8.525125E+03  3.908601E+04
        88   4  1.340363E+05 -4.607785E+05  1.728854E+05 -8.759388E+04  4.867867E+03  1.196498E+05
        88   5 -3.117496E+04 -4.918820E+05  7.106327E+04  3.408776E+04  1.417175E+04  8.053425E+04
        88   6 -3.766650E+03 -4.610739E+05  4.466049E+04 -8.837407E+04  8.504095E+03  4.130868E+04
        88   7 -1.804991E+05 -1.716892E+06 -1.409645E+05 -6.714772E+04  4.887735E+03  1.167100E+05
        88   8 -3.179812E+05 -1.638426E+06 -2.143306E+05  4.446885E+04  1.417667E+04  8.017710E+04
        88   9 -2.631141E+05 -1.498396E+06 -2.139696E+05 -8.808700E+04  8.483050E+03  4.352759E+04
        88  10  4.484497E+05  7.967530E+05  4.865882E+05 -1.080799E+05  1.991898E-09  2.107314E-10
        88  11  2.555305E+05  6.558503E+05  3.563458E+05  2.368873E+04  3.556421E-09 -8.651095E-10
        88  12  2.554992E+05  5.772239E+05  3.032067E+05 -8.865945E+04 -6.796278E-10 -8.503685E-10
        88  13  1.340324E+05 -4.607939E+05  1.728585E+05 -8.759435E+04  1.412725E-10  1.344554E-11
        88  14 -3.117692E+04 -4.918891E+05  7.105069E+04  3.408684E+04  5.622706E-09 -5.341198E-12
        88  15 -3.767186E+03 -4.610758E+05  4.465715E+04 -8.837435E+04  4.745872E-09  1.098768E-11
        88  16 -1.805028E+05 -1.716907E+06 -1.409902E+05 -6.714818E+04 -4.253082E-10 -2.199071E-10
        88  17 -3.179831E+05 -1.638433E+06 -2.143431E+05  4.446793E+04  4.289731E-10  7.536891E-10
        88  18 -2.631147E+05 -1.498398E+06 -2.139733E+05 -8.808730E+04  2.472709E-09  7.864774E-10
        88  19  4.484537E+05  7.967692E+05  4.866164E+05 -1.080794E+05 -4.847828E+03 -1.225955E+05
        88  20  2.555325E+05  6.558573E+05  3.563585E+05  2.368965E+04 -1.416683E+04 -8.089195E+04
        88  21  2.554997E+05  5.772256E+05  3.032097E+05 -8.865919E+04 -8.525125E+03 -3.908601E+04
        88  22  1.340363E+05 -4.607785E+05  1.728854E+05 -8.759388E+04 -4.867867E+03 -1.196498E+05
        88  23 -3.117496E+04 -4.918820E+05  7.106327E+04  3.408776E+04 -1.417175E+04 -8.053425E+04
        88  24 -3.766650E+03 -4.610739E+05  4.466049E+04 -8.837407E+04 -8.504095E+03 -4.130868E+04
        88  25 -1.804991E+05 -1.716892E+06 -1.409645E+05 -6.714772E+04 -4.887735E+03 -1.167100E+05
        88  26 -3.179812E+05 -1.638426E+06 -2.143306E+05  4.446885E+04 -1.417667E+04 -8.017710E+04
        88  27 -2.631141E+05 -1.498396E+06 -2.139696E+05 -8.808700E+04 -8.483050E+03 -4.352759E+04
        89   1  7.200271E+04 -2.723129E+05  8.440687E+04 -9.303440E+04  3.290882E+03  3.363884E+04
        89   2  1.948618E+04 -3.851223E+05  3.193246E+04  3.512081E+04  7.129431E+02  2.847284E+04
        89   3 -1.491813E+04 -4.992173E+05 -1.397311E+04 -9.008551E+04 -2.129184E+03  2.330382E+04
        89   4  2.139326E+04 -4.747519E+05  3.416368E+04 -8.994839E+04  3.286760E+03  3.405302E+04
        89   5 -2.779968E+03 -4.741176E+05  9.777780E+03  3.657691E+04  7.081953E+02  2.893412E+04
        89   6 -8.845770E+03 -4.747849E+05 -8.066960E+03 -9.026133E+04 -2.134583E+03  2.381126E+04
        89   7 -2.921923E+04 -6.771537E+05 -1.608257E+04 -8.686329E+04  3.282642E+03  3.446706E+04
        89   8 -2.504670E+04 -5.631058E+05 -1.237749E+04  3.803282E+04  7.034493E+02  2.939533E+04
        89   9 -2.773452E+03 -4.503520E+05 -2.160847E+03 -9.043716E+04 -2.139982E+03  2.431872E+04
        89  10  7.200239E+04 -2.723141E+05  8.440472E+04 -9.303449E+04 -7.836651E-10  8.782925E-10
        89  11  1.948596E+04 -3.851231E+05  3.193094E+04  3.512079E+04  2.663414E-09  6.562244E-10
        89  12 -1.491828E+04 -4.992179E+05 -1.397414E+04 -9.008547E+04  2.400376E-09  1.516861E-10
        89  13  2.139294E+04 -4.747532E+05  3.416148E+04 -8.994848E+04  1.991191E-09  7.446592E-11
        89  14 -2.780194E+03 -4.741185E+05  9.776205E+03  3.657689E+04  4.470732E-09  4.844683E-12
        89  15 -8.845928E+03 -4.747855E+05 -8.068034E+03 -9.026129E+04  2.629606E-09  3.709682E-11
        89  16 -2.921956E+04 -6.771549E+05 -1.608482E+04 -8.686339E+04 -1.475555E-09 -8.845016E-10
        89  17 -2.504694E+04 -5.631067E+05 -1.237912E+04  3.803281E+04  1.468277E-09 -6.251286E-10
        89  18 -2.773616E+03 -4.503526E+05 -2.161967E+03 -9.043712E+04 -2.401190E-09 -2.568830E-10
        89  19  7.200271E+04 -2.723129E+05  8.440687E+04 -9.303440E+04 -3.290882E+03 -3.363884E+04
        89  20  1.948618E+04 -3.851223E+05  3.193246E+04  3.512081E+04 -7.129431E+02 -2.847284E+04
        89  21 -1.491813E+04 -4.992173E+05 -1.397311E+04 -9.008551E+04  2.129184E+03 -2.330382E+04
        89  22  2.139326E+04 -4.747519E+05  3.416368E+04 -8.994839E+04 -3.286760E+03 -3.405302E+04
        89  23 -2.779968E+03 -4.741176E+05  9.777780E+03  3.657691E+04 -7.081953E+02 -2.893412E+04
        89  24 -8.845770E+03 -4.747849E+05 -8.066960E+03 -9.026133E+04  2.134583E+03 -2.381126E+04
        89  25 -2.921923E+04 -6.771537E+05 -1.608257E+04 -8.686329E+04 -3.282642E+03 -3.446706E+04
        89  26 -2.504670E+04 -5.631058E+05 -1.237749E+04  3.803282E+04 -7.034493E+02 -2.939533E+04
        89  27 -2.773452E+03 -4.503520E+05 -2.160847E+03 -9.043716E+04  2.139982E+03 -2.431872E+04
        90   1 -2.088751E+05 -1.342763E+06 -2.295391E+05 -7.852872E+04 -7.210260E+03  2.357753E+04
        90   2 -2.304505E+05 -1.443842E+06 -2.751605E+05  3.894730E+04 -1.302721E+04  4.354662E+04
        90   3 -3.346161E+05 -1.563787E+06 -3.536059E+05 -9.097658E+04 -5.248737E+03  6.362492E+04
        90   4  7.351442E+03 -4.788416E+05 -1.405835E+04 -8.859536E+04 -7.231251E+03  2.568599E+04
        90   5  1.314287E+04 -4.695250E+05 -3.268819E+04  3.484722E+04 -1.302460E+04  4.340075E+04
        90   6 -6.318361E+04 -4.786451E+05 -8.253238E+04 -8.908694E+04 -5.231462E+03  6.122831E+04
        90   7  2.235219E+05  3.857575E+05  2.013662E+05 -9.867427E+04 -7.252295E+03  2.779737E+04
        90   8  2.566649E+05  5.056547E+05  2.097129E+05  3.074245E+04 -1.302199E+04  4.325460E+04
        90   9  2.081600E+05  6.075667E+05  1.884523E+05 -8.719213E+04 -5.214217E+03  5.882743E+04
        90  10 -2.088753E+05 -1.342763E+06 -2.295402E+05 -7.852859E+04 -1.666377E-09 -1.821807E-10
        90  11 -2.304512E+05 -1.443844E+06 -2.751644E+05  3.894776E+04 -1.764528E-09 -1.541607E-10
        90  12 -3.346172E+05 -1.563792E+06 -3.536135E+05 -9.097631E+04  1.720140E-10  8.838372E-11
        90  13  7.351209E+03 -4.788424E+05 -1.405969E+04 -8.859521E+04 -4.390215E-09 -3.846012E-11
        90  14  1.314218E+04 -4.695271E+05 -3.269205E+04  3.484767E+04 -4.006692E-09 -2.255722E-10
        90  15 -6.318465E+04 -4.786491E+05 -8.253948E+04 -8.908668E+04 -2.009178E-09  3.931284E-11
        90  16  2.235216E+05  3.857566E+05  2.013647E+05 -9.867411E+04 -6.605942E-10  1.302549E-10
        90  17  2.566642E+05  5.056527E+05  2.097091E+05  3.074290E+04 -5.331521E-10  1.705703E-10
        90  18  2.081591E+05  6.075630E+05  1.884458E+05 -8.719189E+04  1.932784E-09 -1.658348E-10
        90  19 -2.088751E+05 -1.342763E+06 -2.295391E+05 -7.852872E+04  7.210260E+03 -2.357753E+04
        90  20 -2.304505E+05 -1.443842E+06 -2.751605E+05  3.894730E+04  1.302721E+04 -4.354662E+04
        90  21 -3.346161E+05 -1.563787E+06 -3.536059E+05 -9.097658E+04  5.248737E+03 -6.362492E+04
        90  22  7.351442E+03 -4.788416E+05 -1.405835E+04 -8.859536E+04  7.231251E+03 -2.568599E+04
        90  23  1.314287E+04 -4.695250E+05 -3.268819E+04  3.484722E+04  1.302460E+04 -4.340075E+04
        90  24 -6.318361E+04 -4.786451E+05 -8.253238E+04 -8.908694E+04  5.231462E+03 -6.122831E+04
        90  25  2.235219E+05  3.857575E+05  2.013662E+05 -9.867427E+04  7.252295E+03 -2.779737E+04
        90  26  2.566649E+05  5.056547E+05  2.097129E+05  3.074245E+04  1.302199E+04 -4.325460E+04
        90  27  2.081600E+05  6.075667E+05  1.884523E+05 -8.719213E+04  5.214217E+03 -5.882743E+04
        91   1 -6.652391E+06 -2.108990E+06 -1.348093E+06 -2.335418E+06 -6.812269E+05 -2.461606E+05
        91   2 -6.484072E+06 -1.111425E+06 -7.175250E+05 -2.467358E+06 -4.415902E+05 -1.295411E+05
        91   3 -6.699260E+06 -1.108048E+06 -5.408999E+05 -2.364104E+06 -1.927659E+05 -3.706850E+04
        91   4 -5.720883E+06 -1.546225E+06 -1.050582E+06 -1.870066E+06 -6.673498E+05 -2.411720E+05
        91   5 -5.474364E+06 -6.699105E+05 -4.355078E+05 -2.131635E+06 -4.376454E+05 -1.281005E+05
        91   6 -5.608784E+06 -7.849164E+05 -2.659106E+05 -2.158204E+06 -1.987293E+05 -3.929461E+04
        91   7 -4.788418E+06 -9.829168E+05 -7.531521E+05 -1.403945E+06 -6.534490E+05 -2.361622E+05
        91   8 -4.463649E+06 -2.282334E+05 -1.535868E+05 -1.795379E+06 -4.336930E+05 -1.266560E+05
        91   9 -4.517137E+06 -4.618052E+05  8.991565E+03 -1.952024E+06 -2.047041E+05 -4.152288E+04
        91  10 -6.652911E+06 -2.109182E+06 -1.349091E+06 -2.335554E+06  8.020157E-10  1.019105E-10
        91  11 -6.484288E+06 -1.111497E+06 -7.179279E+05 -2.467404E+06 -1.531179E-09  1.326361E-09
        91  12 -6.699301E+06 -1.108060E+06 -5.409732E+05 -2.364110E+06  3.111499E-09  1.836019E-10
        91  13 -5.721381E+06 -1.546409E+06 -1.051538E+06 -1.870197E+06 -2.947876E-09  3.612071E-10
        91  14 -5.474576E+06 -6.699803E+05 -4.359026E+05 -2.131681E+06 -2.225168E-09  1.218656E-09
        91  15 -5.608827E+06 -7.849288E+05 -2.659885E+05 -2.158211E+06  3.385298E-09 -1.337816E-10
        91  16 -4.788895E+06 -9.830929E+05 -7.540670E+05 -1.404070E+06 -5.402424E-10  5.443054E-10
        91  17 -4.463856E+06 -2.283018E+05 -1.539736E+05 -1.795424E+06 -3.124081E-09  9.571043E-10
        91  18 -4.517183E+06 -4.618185E+05  8.908897E+03 -1.952031E+06 -7.201359E-10 -2.524127E-10
        91  19 -6.652391E+06 -2.108990E+06 -1.348093E+06 -2.335418E+06  6.812269E+05  2.461606E+05
        91  20 -6.484072E+06 -1.111425E+06 -7.175250E+05 -2.467358E+06  4.415902E+05  1.295411E+05
        91  21 -6.699260E+06 -1.108048E+06 -5.408999E+05 -2.364104E+06  1.927659E+05  3.706850E+04
        91  22 -5.720883E+06 -1.546225E+06 -1.050582E+06 -1.870066E+06  6.673498E+05  2.411720E+05
        91  23 -5.474364E+06 -6.699105E+05 -4.355078E+05 -2.131635E+06  4.376454E+05  1.281005E+05
        91  24 -5.608784E+06 -7.849164E+05 -2.659106E+05 -2.158204E+06  1.987293E+05  3.929461E+04
        91  25 -4.788418E+06 -9.829168E+05 -7.531521E+05 -1.403945E+06  6.534490E+05  2.361622E+05
        91  26 -4.463649E+06 -2.282334E+05 -1.535868E+05 -1.795379E+06  4.336930E+05  1.266560E+05
        91  27 -4.517137E+06 -4.618052E+05  8.991565E+03 -1.952024E+06  2.047041E+05  4.152288E+04
        92   1 -6.501191E+06 -1.278040E+06 -4.717694E+05 -2.376751E+06 -1.593585E+05 -2.952275E+04
        92   2 -6.439871E+06 -1.119480E+06 -3.400155E+05 -2.353715E+06 -1.046788E+05 -9.096331E+03
        92   3 -6.387291E+06 -1.116293E+06 -2.803494E+05 -2.347750E+06 -4.895151E+04  8.561396E+03
        92   4 -5.570124E+06 -9.024593E+05 -2.169622E+05 -2.099436E+06 -1.590189E+05 -2.940476E+04
        92   5 -5.559348E+06 -7.803086E+05 -1.026523E+05 -2.107652E+06 -1.054330E+05 -9.384829E+03
        92   6 -5.557026E+06 -8.132040E+05 -5.947053E+04 -2.132952E+06 -5.080487E+04  7.862731E+03
        92   7 -4.638211E+06 -5.267952E+05  3.776472E+04 -1.821730E+06 -1.586787E+05 -2.928646E+04
        92   8 -4.678070E+06 -4.410832E+05  1.346415E+05 -1.861268E+06 -1.061882E+05 -9.673753E+03
        92   9 -4.726088E+06 -5.100855E+05  1.613490E+05 -1.917897E+06 -5.266095E+04  7.163127E+03
        92  10 -6.501218E+06 -1.278048E+06 -4.718193E+05 -2.376755E+06 -2.234941E-10 -9.428529E-12
        92  11 -6.439883E+06 -1.119483E+06 -3.400365E+05 -2.353716E+06 -2.364940E-09  5.094697E-11
        92  12 -6.387294E+06 -1.116293E+06 -2.803541E+05 -2.347750E+06  7.543774E-10  2.988681E-10
        92  13 -5.570151E+06 -9.024671E+05 -2.170119E+05 -2.099440E+06  4.657717E-09  2.607812E-10
        92  14 -5.559360E+06 -7.803117E+05 -1.026736E+05 -2.107653E+06 -3.092886E-09  9.401070E-10
        92  15 -5.557029E+06 -8.132048E+05 -5.947554E+04 -2.132952E+06  1.323567E-09 -7.242909E-10
        92  16 -4.638239E+06 -5.268029E+05  3.771539E+04 -1.821734E+06  4.623886E-09  4.632248E-10
        92  17 -4.678082E+06 -4.410864E+05  1.346200E+05 -1.861268E+06  2.860863E-09  1.191756E-09
        92  18 -4.726091E+06 -5.100863E+05  1.613436E+05 -1.917897E+06 -2.514531E-09 -2.177397E-09
        92  19 -6.501191E+06 -1.278040E+06 -4.717694E+05 -2.376751E+06  1.593585E+05  2.952275E+04
        92  20 -6.439871E+06 -1.119480E+06 -3.400155E+05 -2.353715E+06  1.046788E+05  9.096331E+03
        92  21 -6.387291E+06 -1.116293E+06 -2.803494E+05 -2.347750E+06  4.895151E+04 -8.561396E+03
        92  22 -5.570124E+06 -9.024593E+05 -2.169622E+05 -2.099436E+06  1.590189E+05  2.940476E+04
        92  23 -5.559348E+06 -7.803086E+05 -1.026523E+05 -2.107652E+06  1.054330E+05  9.384829E+03
        92  24 -5.557026E+06 -8.132040E+05 -5.947053E+04 -2.132952E+06  5.080487E+04 -7.862731E+03
        92  25 -4.638211E+06 -5.267952E+05  3.776472E+04 -1.821730E+06  1.586787E+05  2.928646E+04
        92  26 -4.678070E+06 -4.410832E+05  1.346415E+05 -1.861268E+06  1.061882E+05  9.673753E+03
        92  27 -4.726088E+06 -5.100855E+05  1.613490E+05 -1.917897E+06  5.266095E+04 -7.163127E+03
        93   1 -6.241264E+06 -1.093851E+06 -2.325996E+05 -2.320284E+06 -4.012128E+04  9.359317E+03
        93   2 -6.178365E+06 -1.018147E+06 -1.861321E+05 -2.265185E+06 -2.644719E+04  1.070269E+04
        93   3 -6.064279E+06 -1.013171E+06 -1.525012E+05 -2.272370E+06 -1.254323E+04  1.142130E+04
        93   4 -5.548805E+06 -8.299662E+05 -4.668043E+04 -2.129613E+06 -4.142265E+04  8.868323E+03
        93   5 -5.573642E+06 -7.893762E+05 -2.392831E+04 -2.100429E+06 -2.799925E+04  1.011898E+04
        93   6 -5.547242E+06 -8.194503E+05 -1.379993E+04 -2.133527E+06 -1.434805E+04  1.074438E+04
        93   7 -4.855879E+06 -5.660502E+05  1.391961E+05 -1.938748E+06 -4.272561E+04  8.376721E+03
        93   8 -4.968562E+06 -5.605837E+05  1.382429E+05 -1.935526E+06 -2.955298E+04  9.534649E+03
        93   9 -5.029947E+06 -6.257158E+05  1.248774E+05 -1.994578E+06 -1.615454E+04  1.006685E+04
        93  10 -6.241265E+06 -1.093852E+06 -2.326028E+05 -2.320284E+06  2.829720E-10 -7.308678E-10
        93  11 -6.178366E+06 -1.018147E+06 -1.861336E+05 -2.265185E+06  4.340640E-09 -2.743368E-10
        93  12 -6.064279E+06 -1.013171E+06 -1.525018E+05 -2.272370E+06  2.578905E-09 -8.028597E-10
        93  13 -5.548807E+06 -8.299667E+05 -4.668382E+04 -2.129613E+06  2.446484E-09 -1.034677E-09
        93  14 -5.573642E+06 -7.893766E+05 -2.392999E+04 -2.100428E+06  3.848651E-09  6.945010E-11
        93  15 -5.547243E+06 -8.194505E+05 -1.380053E+04 -2.133526E+06 -2.561597E-09  1.334821E-11
        93  16 -4.855881E+06 -5.660508E+05  1.391925E+05 -1.938747E+06 -1.398733E-09 -1.253312E-09
        93  17 -4.968563E+06 -5.605840E+05  1.382410E+05 -1.935525E+06  2.528148E-09  1.549329E-10
        93  18 -5.029947E+06 -6.257159E+05  1.248767E+05 -1.994578E+06 -5.749365E-10 -8.852228E-10
        93  19 -6.241264E+06 -1.093851E+06 -2.325996E+05 -2.320284E+06  4.012128E+04 -9.359317E+03
        93  20 -6.178365E+06 -1.018147E+06 -1.861321E+05 -2.265185E+06  2.644719E+04 -1.070269E+04
        93  21 -6.064279E+06 -1.013171E+06 -1.525012E+05 -2.272370E+06  1.254323E+04 -1.142130E+04
        93  22 -5.548805E+06 -8.299662E+05 -4.668043E+04 -2.129613E+06  4.142265E+04 -8.868323E+03
        93  23 -5.573642E+06 -7.893762E+05 -2.392831E+04 -2.100429E+06  2.799925E+04 -1.011898E+04
        93  24 -5.547242E+06 -8.194503E+05 -1.379993E+04 -2.133527E+06  1.434805E+04 -1.074438E+04
        93  25 -4.855879E+06 -5.660502E+05  1.391961E+05 -1.938748E+06  4.272561E+04 -8.376721E+03
        93  26 -4.968562E+06 -5.605837E+05  1.382429E+05 -1.935526E+06  2.955298E+04 -9.534649E+03
        93  27 -5.029947E+06 -6.257158E+05  1.248774E+05 -1.994578E+06  1.615454E+04 -1.006685E+04
        94   1 -5.896970E+06 -9.560968E+05 -1.050015E+05 -2.230908E+06 -9.646867E+03  9.694144E+03
        94   2 -5.825622E+06 -8.817986E+05 -7.312992E+04 -2.164436E+06 -4.648210E+03  6.710032E+03
        94   3 -5.688487E+06 -8.761126E+05 -4.427297E+04 -2.174350E+06  4.200294E+02  3.533223E+03
        94   4 -5.544548E+06 -8.230886E+05 -1.089313E+04 -2.135108E+06 -1.141218E+04  9.032834E+03
        94   5 -5.577353E+06 -7.882162E+05 -6.615204E+03 -2.097124E+06 -6.493315E+03  6.019494E+03
        94   6 -5.544370E+06 -8.219386E+05 -5.286692E+03 -2.135531E+06 -1.505548E+03  2.813304E+03
        94   7 -5.192004E+06 -6.900724E+05  8.320471E+04 -2.039258E+06 -1.317861E+04  8.371105E+03
        94   8 -5.329024E+06 -6.946304E+05  5.989398E+04 -2.029789E+06 -8.339233E+03  5.328652E+03
        94   9 -5.400233E+06 -7.677639E+05  3.369746E+04 -2.096703E+06 -3.431607E+03  2.093207E+03
        94  10 -5.896970E+06 -9.560969E+05 -1.050018E+05 -2.230908E+06 -1.082632E-09 -1.475821E-09
        94  11 -5.825622E+06 -8.817987E+05 -7.313005E+04 -2.164435E+06 -2.965318E-09  8.860373E-11
        94  12 -5.688487E+06 -8.761126E+05 -4.427299E+04 -2.174350E+06  2.101091E-10  9.390750E-10
        94  13 -5.544549E+06 -8.230887E+05 -1.089353E+04 -2.135108E+06  4.423947E-09 -3.395767E-10
        94  14 -5.577353E+06 -7.882163E+05 -6.615352E+03 -2.097124E+06 -2.113545E-09 -3.249953E-10
        94  15 -5.544370E+06 -8.219387E+05 -5.286711E+03 -2.135531E+06  2.461315E-09  2.647625E-10
        94  16 -5.192004E+06 -6.900725E+05  8.320425E+04 -2.039257E+06  1.845680E-09  5.487238E-10
        94  17 -5.329024E+06 -6.946304E+05  5.989379E+04 -2.029789E+06  3.132801E-10  5.682212E-10
        94  18 -5.400233E+06 -7.677639E+05  3.369743E+04 -2.096703E+06  8.215404E-10 -3.766174E-10
        94  19 -5.896970E+06 -9.560968E+05 -1.050015E+05 -2.230908E+06  9.646867E+03 -9.694144E+03
        94  20 -5.825622E+06 -8.817986E+05 -7.312992E+04 -2.164436E+06  4.648210E+03 -6.710032E+03
        94  21 -5.688487E+06 -8.761126E+05 -4.427297E+04 -2.174350E+06 -4.200294E+02 -3.533223E+03
        94  22 -5.544548E+06 -8.230886E+05 -1.089313E+04 -2.135108E+06  1.141218E+04 -9.032834E+03
        94  23 -5.577353E+06 -7.882162E+05 -6.615204E+03 -2.097124E+06  6.493315E+03 -6.019494E+03
        94  24 -5.544370E+06 -8.219386E+05 -5.286692E+03 -2.135531E+06  1.505548E+03 -2.813304E+03
        94  25 -5.192004E+06 -6.900724E+05  8.320471E+04 -2.039258E+06  1.317861E+04 -8.371105E+03
        94  26 -5.329024E+06 -6.946304E+05  5.989398E+04 -2.029789E+06  8.339233E+03 -5.328652E+03
        94  27 -5.400233E+06 -7.677639E+05  3.369746E+04 -2.096703E+06  3.431607E+03 -2.093207E+03
        95   1 -5.509881E+06 -8.094431E+05  4.241223E+03 -2.126802E+06  2.285675E+03  1.198647E+03
        95   2 -5.437283E+06 -7.349573E+05  3.091445E+04 -2.058670E+06  7.275419E+03 -2.055469E+03
        95   3 -5.297747E+06 -7.303183E+05  5.462433E+04 -2.068376E+06  1.222340E+04 -5.190879E+03
        95   4 -5.544113E+06 -8.222187E+05 -5.305466E+03 -2.135852E+06  3.572847E+02  4.777976E+02
        95   5 -5.577657E+06 -7.878520E+05 -6.682291E+03 -2.096722E+06  5.396280E+03 -2.758329E+03
        95   6 -5.544284E+06 -8.233441E+05 -1.106127E+04 -2.135437E+06  1.039287E+04 -5.875930E+03
        95   7 -5.578344E+06 -8.349943E+05 -1.485228E+04 -2.144901E+06 -1.570994E+03 -2.430114E+02
        95   8 -5.718013E+06 -8.407459E+05 -4.428097E+04 -2.134767E+06  3.517600E+03 -3.461017E+03
        95   9 -5.790763E+06 -9.163670E+05 -7.675273E+04 -2.202474E+06  8.563141E+03 -6.560685E+03
        95  10 -5.509881E+06 -8.094431E+05  4.241210E+03 -2.126802E+06  1.000643E-10  1.941496E-10
        95  11 -5.437283E+06 -7.349574E+05  3.091434E+04 -2.058670E+06 -2.207449E-10 -1.215481E-09
        95  12 -5.297747E+06 -7.303183E+05  5.462400E+04 -2.068376E+06  2.333450E-10  1.097891E-10
        95  13 -5.544113E+06 -8.222187E+05 -5.305467E+03 -2.135852E+06  1.268905E-09 -4.309907E-10
        95  14 -5.577657E+06 -7.878521E+05 -6.682360E+03 -2.096722E+06  2.753861E-09 -4.367301E-10
        95  15 -5.544284E+06 -8.233441E+05 -1.106154E+04 -2.135437E+06  1.154631E-09  2.558106E-09
        95  16 -5.578344E+06 -8.349943E+05 -1.485228E+04 -2.144901E+06 -2.809776E-09 -2.160476E-09
        95  17 -5.718013E+06 -8.407459E+05 -4.428102E+04 -2.134767E+06 -2.194498E-10 -7.553695E-10
        95  18 -5.790763E+06 -9.163670E+05 -7.675295E+04 -2.202474E+06  5.194965E-09  1.410087E-09
        95  19 -5.509881E+06 -8.094431E+05  4.241223E+03 -2.126802E+06 -2.285675E+03 -1.198647E+03
        95  20 -5.437283E+06 -7.349573E+05  3.091445E+04 -2.058670E+06 -7.275419E+03  2.055469E+03
        95  21 -5.297747E+06 -7.303183E+05  5.462433E+04 -2.068376E+06 -1.222340E+04  5.190879E+03
        95  22 -5.544113E+06 -8.222187E+05 -5.305466E+03 -2.135852E+06 -3.572847E+02 -4.777976E+02
        95  23 -5.577657E+06 -7.878520E+05 -6.682291E+03 -2.096722E+06 -5.396280E+03  2.758329E+03
        95  24 -5.544284E+06 -8.233441E+05 -1.106127E+04 -2.135437E+06 -1.039287E+04  5.875930E+03
        95  25 -5.578344E+06 -8.349943E+05 -1.485228E+04 -2.144901E+06  1.570994E+03  2.430114E+02
        95  26 -5.718013E+06 -8.407459E+05 -4.428097E+04 -2.134767E+06 -3.517600E+03  3.461017E+03
        95  27 -5.790763E+06 -9.163670E+05 -7.675273E+04 -2.202474E+06 -8.563141E+03  6.560685E+03
        96   1 -5.129198E+06 -6.642501E+05  9.786133E+04 -2.022748E+06  1.526928E+04 -6.964342E+03
        96   2 -5.063870E+06 -5.952818E+05  1.125312E+05 -1.960180E+06  2.897579E+04 -6.542320E+03
        96   3 -4.944113E+06 -6.007070E+05  1.144834E+05 -1.963985E+06  4.248361E+04 -5.568942E+03
        96   4 -5.546517E+06 -8.202035E+05 -1.403820E+04 -2.134461E+06  1.339680E+04 -7.665726E+03
        96   5 -5.574493E+06 -7.883165E+05 -2.432259E+04 -2.099287E+06  2.732619E+04 -7.161590E+03
        96   6 -5.548098E+06 -8.308790E+05 -4.751058E+04 -2.130492E+06  4.105484E+04 -6.106686E+03
        96   7 -5.963664E+06 -9.761464E+05 -1.259523E+05 -2.246106E+06  1.152572E+04 -8.366595E+03
        96   8 -6.084861E+06 -9.813347E+05 -1.611989E+05 -2.238289E+06  2.567810E+04 -7.780295E+03
        96   9 -6.151727E+06 -1.061027E+06 -2.095367E+05 -2.296850E+06  3.962760E+04 -6.643846E+03
        96  10 -5.129199E+06 -6.642502E+05  9.786080E+04 -2.022747E+06  6.251131E-09  1.043433E-09
        96  11 -5.063870E+06 -5.952820E+05  1.125295E+05 -1.960180E+06  3.964683E-09 -7.097988E-10
        96  12 -4.944115E+06 -6.007075E+05  1.144799E+05 -1.963985E+06  5.622261E-10 -7.304700E-10
        96  13 -5.546517E+06 -8.202036E+05 -1.403865E+04 -2.134461E+06  4.982762E-09  2.603115E-09
        96  14 -5.574494E+06 -7.883167E+05 -2.432410E+04 -2.099287E+06 -1.548142E-09 -1.937718E-10
        96  15 -5.548100E+06 -8.308795E+05 -4.751384E+04 -2.130492E+06 -2.778741E-09 -5.075549E-10
        96  16 -5.963664E+06 -9.761466E+05 -1.259527E+05 -2.246106E+06  1.171927E-09 -3.940006E-11
        96  17 -6.084862E+06 -9.813349E+05 -1.612002E+05 -2.238289E+06 -2.280752E-09 -8.174659E-10
        96  18 -6.151729E+06 -1.061028E+06 -2.095398E+05 -2.296850E+06 -1.457941E-09 -4.443091E-10
        96  19 -5.129198E+06 -6.642501E+05  9.786133E+04 -2.022748E+06 -1.526928E+04  6.964342E+03
        96  20 -5.063870E+06 -5.952818E+05  1.125312E+05 -1.960180E+06 -2.897579E+04  6.542320E+03
        96  21 -4.944113E+06 -6.007070E+05  1.144834E+05 -1.963985E+06 -4.248361E+04  5.568942E+03
        96  22 -5.546517E+06 -8.202035E+05 -1.403820E+04 -2.134461E+06 -1.339680E+04  7.665726E+03
        96  23 -5.574493E+06 -7.883165E+05 -2.432259E+04 -2.099287E+06 -2.732619E+04  7.161590E+03
        96  24 -5.548098E+06 -8.308790E+05 -4.751058E+04 -2.130492E+06 -4.105484E+04  6.106686E+03
        96  25 -5.963664E+06 -9.761464E+05 -1.259523E+05 -2.246106E+06 -1.152572E+04  8.366595E+03
        96  26 -6.084861E+06 -9.813347E+05 -1.611989E+05 -2.238289E+06 -2.567810E+04  7.780295E+03
        96  27 -6.151727E+06 -1.061027E+06 -2.095367E+05 -2.296850E+06 -3.962760E+04  6.643846E+03
        97   1 -4.802028E+06 -5.406725E+05  1.396168E+05 -1.940785E+06  5.263353E+04 -4.475908E+03
        97   2 -4.747985E+06 -4.654757E+05  1.143892E+05 -1.878549E+06  1.072635E+05  1.237355E+04
        97   3 -4.697908E+06 -5.524486E+05  1.763842E+04 -1.839153E+06  1.608913E+05  3.191822E+04
        97   4 -5.556002E+06 -8.142917E+05 -6.053157E+04 -2.134419E+06  5.065784E+04 -5.218978E+03
        97   5 -5.560526E+06 -7.784866E+05 -1.044490E+05 -2.105963E+06  1.063584E+05  1.202910E+04
        97   6 -5.569299E+06 -9.051736E+05 -2.208208E+05 -2.100346E+06  1.610506E+05  3.196824E+04
        97   7 -6.309426E+06 -1.087889E+06 -2.607297E+05 -2.327843E+06  4.868478E+04 -5.961153E+03
        97   8 -6.372424E+06 -1.091451E+06 -3.233465E+05 -2.333105E+06  1.054546E+05  1.168513E+04
        97   9 -6.439949E+06 -1.257822E+06 -4.593496E+05 -2.361193E+06  1.612095E+05  3.201810E+04
        97  10 -4.802031E+06 -5.406732E+05  1.396115E+05 -1.940785E+06 -1.684362E-09  2.530552E-10
        97  11 -4.747998E+06 -4.654790E+05  1.143671E+05 -1.878550E+06 -5.522070E-09 -2.339639E-10
        97  12 -4.697936E+06 -5.524567E+05  1.758744E+04 -1.839158E+06 -4.669898E-09 -9.112846E-10
        97  13 -5.556005E+06 -8.142925E+05 -6.053648E+04 -2.134418E+06 -1.886055E-09 -7.410774E-10
        97  14 -5.560538E+06 -7.784898E+05 -1.044708E+05 -2.105964E+06 -1.778348E-09 -6.828245E-10
        97  15 -5.569328E+06 -9.051818E+05 -2.208719E+05 -2.100350E+06  1.985552E-09 -1.236708E-09
        97  16 -6.309429E+06 -1.087890E+06 -2.607342E+05 -2.327843E+06 -2.253209E-10 -1.313571E-09
        97  17 -6.372436E+06 -1.091455E+06 -3.233679E+05 -2.333106E+06 -4.955708E-10 -6.829380E-10
        97  18 -6.439977E+06 -1.257831E+06 -4.594010E+05 -2.361197E+06  4.600275E-10 -7.470292E-10
        97  19 -4.802028E+06 -5.406725E+05  1.396168E+05 -1.940785E+06 -5.263353E+04  4.475908E+03
        97  20 -4.747985E+06 -4.654757E+05  1.143892E+05 -1.878549E+06 -1.072635E+05 -1.237355E+04
        97  21 -4.697908E+06 -5.524486E+05  1.763842E+04 -1.839153E+06 -1.608913E+05 -3.191822E+04
        97  22 -5.556002E+06 -8.142917E+05 -6.053157E+04 -2.134419E+06 -5.065784E+04  5.218978E+03
        97  23 -5.560526E+06 -7.784866E+05 -1.044490E+05 -2.105963E+06 -1.063584E+05 -1.202910E+04
        97  24 -5.569299E+06 -9.051736E+05 -2.208208E+05 -2.100346E+06 -1.610506E+05 -3.196824E+04
        97  25 -6.309426E+06 -1.087889E+06 -2.607297E+05 -2.327843E+06 -4.868478E+04  5.961153E+03
        97  26 -6.372424E+06 -1.091451E+06 -3.233465E+05 -2.333105E+06 -1.054546E+05 -1.168513E+04
        97  27 -6.439949E+06 -1.257822E+06 -4.593496E+05 -2.361193E+06 -1.612095E+05 -3.201810E+04
        98   1 -4.560169E+06 -4.811086E+05 -7.715352E+03 -1.968333E+06  2.075886E+05  4.416311E+04
        98   2 -4.498777E+06 -2.367716E+05 -1.705614E+05 -1.802582E+06  4.411572E+05  1.304021E+05
        98   3 -4.816069E+06 -1.004972E+06 -7.784726E+05 -1.405415E+06  6.656550E+05  2.406658E+05
        98   4 -5.608339E+06 -7.858304E+05 -2.706328E+05 -2.160476E+06  2.015164E+05  4.190360E+04
        98   5 -5.474541E+06 -6.656640E+05 -4.432127E+05 -2.129851E+06  4.448667E+05  1.317504E+05
        98   6 -5.722076E+06 -1.561065E+06 -1.069225E+06 -1.867611E+06  6.791651E+05  2.455073E+05
        98   7 -6.655427E+06 -1.090574E+06 -5.336290E+05 -2.352372E+06  1.954552E+05  3.964607E+04
        98   8 -6.449365E+06 -1.094399E+06 -7.159534E+05 -2.456618E+06  4.485692E+05  1.330952E+05
        98   9 -6.627167E+06 -2.116612E+06 -1.360052E+06 -2.329059E+06  6.926529E+05  2.503285E+05
        98  10 -4.560216E+06 -4.811224E+05 -7.800712E+03 -1.968340E+06 -2.790687E-10  1.355485E-10
        98  11 -4.498991E+06 -2.368428E+05 -1.709624E+05 -1.802628E+06  5.591177E-10  2.494633E-09
        98  12 -4.816564E+06 -1.005155E+06 -7.794221E+05 -1.405545E+06  1.099094E-09  4.420588E-10
        98  13 -5.608383E+06 -7.858433E+05 -2.707132E+05 -2.160483E+06 -1.107250E-09  2.353320E-10
        98  14 -5.474760E+06 -6.657366E+05 -4.436214E+05 -2.129899E+06 -1.917815E-09  3.692902E-09
        98  15 -5.722592E+06 -1.561255E+06 -1.070215E+06 -1.867746E+06  4.940001E-09 -1.483955E-10
        98  16 -6.655469E+06 -1.090586E+06 -5.337046E+05 -2.352379E+06  2.839018E-10  3.635643E-11
        98  17 -6.449588E+06 -1.094473E+06 -7.163698E+05 -2.456666E+06  1.244029E-09  3.092241E-10
        98  18 -6.627704E+06 -2.116811E+06 -1.361084E+06 -2.329200E+06  1.885990E-09  1.657437E-10
        98  19 -4.560169E+06 -4.811086E+05 -7.715352E+03 -1.968333E+06 -2.075886E+05 -4.416311E+04
        98  20 -4.498777E+06 -2.367716E+05 -1.705614E+05 -1.802582E+06 -4.411572E+05 -1.304021E+05
        98  21 -4.816069E+06 -1.004972E+06 -7.784726E+05 -1.405415E+06 -6.656550E+05 -2.406658E+05
        98  22 -5.608339E+06 -7.858304E+05 -2.706328E+05 -2.160476E+06 -2.015164E+05 -4.190360E+04
        98  23 -5.474541E+06 -6.656640E+05 -4.432127E+05 -2.129851E+06 -4.448667E+05 -1.317504E+05
        98  24 -5.722076E+06 -1.561065E+06 -1.069225E+06 -1.867611E+06 -6.791651E+05 -2.455073E+05
        98  25 -6.655427E+06 -1.090574E+06 -5.336290E+05 -2.352372E+06 -1.954552E+05 -3.964607E+04
        98  26 -6.449365E+06 -1.094399E+06 -7.159534E+05 -2.456618E+06 -4.485692E+05 -1.330952E+05
        98  27 -6.627167E+06 -2.116612E+06 -1.360052E+06 -2.329059E+06 -6.926529E+05 -2.503285E+05
        99   1 -1.495933E+06 -9.092278E+04 -7.971377E+04 -3.562414E+03  3.116565E+04  2.252200E+03
        99   2 -1.500529E+06 -1.348321E+05 -1.057357E+05 -1.908400E+03  2.095353E+04  6.318956E+03
        99   3 -1.488148E+06 -1.267247E+05 -1.115702E+05 -8.949527E+03  1.075907E+04  5.451095E+03
        99   4 -9.866157E+05  3.650300E+04  4.755197E+04 -6.282447E+03  3.228626E+04  2.256227E+03
        99   5 -9.951838E+05 -8.457916E+03  2.009268E+04 -1.863571E+03  2.123876E+04  6.319445E+03
        99   6 -9.866396E+05 -1.278460E+03  1.339022E+04 -6.139421E+03  1.020901E+04  5.449722E+03
        99   7 -4.770631E+05  1.639092E+05  1.747981E+05 -9.004944E+03  3.340779E+04  2.260243E+03
        99   8 -4.896065E+05  1.178970E+05  1.459018E+05 -1.818878E+03  2.152422E+04  6.319934E+03
        99   9 -4.849025E+05  1.241488E+05  1.383318E+05 -3.327156E+03  9.658505E+03  5.448344E+03
        99  10 -1.495934E+06 -9.092304E+04 -7.971561E+04 -3.562471E+03  1.488846E-09 -9.596928E-11
        99  11 -1.500529E+06 -1.348322E+05 -1.057366E+05 -1.908507E+03 -1.420204E-09 -2.332057E-09
        99  12 -1.488148E+06 -1.267248E+05 -1.115705E+05 -8.949574E+03 -3.619220E-10  4.668221E-10
        99  13 -9.866169E+05  3.650271E+04  4.754999E+04 -6.282506E+03  2.752135E-09 -1.352495E-09
        99  14 -9.951843E+05 -8.458081E+03  2.009176E+04 -1.863680E+03 -1.073837E-09 -9.348782E-10
        99  15 -9.866398E+05 -1.278520E+03  1.338997E+04 -6.139466E+03 -3.178034E-10 -2.964763E-10
        99  16 -4.770643E+05  1.639089E+05  1.747960E+05 -9.005005E+03  5.098072E-10  1.510265E-09
        99  17 -4.896070E+05  1.178968E+05  1.459009E+05 -1.818988E+03  4.935780E-09 -1.536438E-09
        99  18 -4.849026E+05  1.241488E+05  1.383315E+05 -3.327198E+03  2.618233E-09 -5.108495E-10
        99  19 -1.495933E+06 -9.092278E+04 -7.971377E+04 -3.562414E+03 -3.116565E+04 -2.252200E+03
        99  20 -1.500529E+06 -1.348321E+05 -1.057357E+05 -1.908400E+03 -2.095353E+04 -6.318956E+03
        99  21 -1.488148E+06 -1.267247E+05 -1.115702E+05 -8.949527E+03 -1.075907E+04 -5.451095E+03
        99  22 -9.866157E+05  3.650300E+04  4.755197E+04 -6.282447E+03 -3.228626E+04 -2.256227E+03
        99  23 -9.951838E+05 -8.457916E+03  2.009268E+04 -1.863571E+03 -2.123876E+04 -6.319445E+03
        99  24 -9.866396E+05 -1.278460E+03  1.339022E+04 -6.139421E+03 -1.020901E+04 -5.449722E+03
        99  25 -4.770631E+05  1.639092E+05  1.747981E+05 -9.004944E+03 -3.340779E+04 -2.260243E+03
        99  26 -4.896065E+05  1.178970E+05  1.459018E+05 -1.818878E+03 -2.152422E+04 -6.319934E+03
        99  27 -4.849025E+05  1.241488E+05  1.383318E+05 -3.327156E+03 -9.658505E+03 -5.448344E+03
       100   1 -1.438052E+06 -1.068217E+05 -1.007414E+05 -9.280214E+03  7.828759E+03  4.565409E+03
       100   2 -1.429987E+06 -1.109381E+05 -1.040485E+05  1.976496E+03  5.259559E+03  4.932166E+03
       100   3 -1.417656E+06 -1.072437E+05 -1.033291E+05 -9.606113E+03  2.690690E+03  4.310593E+03
       100   4 -9.894661E+05  5.377233E+03  1.105978E+04 -9.332621E+03  7.977749E+03  4.565425E+03
       100   5 -9.916194E+05 -1.304266E+03  5.153795E+03  2.090683E+03  5.241073E+03  4.931930E+03
       100   6 -9.894786E+05 -1.482595E+02  3.389013E+03 -9.324325E+03  2.504767E+03  4.310412E+03
       100   7 -5.406976E+05  1.175610E+05  1.228459E+05 -9.385135E+03  8.126846E+03  4.565442E+03
       100   8 -5.530770E+05  1.083151E+05  1.143417E+05  2.204916E+03  5.222573E+03  4.931695E+03
       100   9 -5.611341E+05  1.069333E+05  1.100933E+05 -9.042340E+03  2.318716E+03  4.310231E+03
       100  10 -1.438052E+06 -1.068217E+05 -1.007416E+05 -9.280242E+03  1.252658E-09  4.707719E-10
       100  11 -1.429987E+06 -1.109381E+05 -1.040486E+05  1.976475E+03  4.112197E-09 -6.171629E-11
       100  12 -1.417656E+06 -1.072437E+05 -1.033291E+05 -9.606123E+03  3.660317E-10  2.775653E-10
       100  13 -9.894661E+05  5.377194E+03  1.105962E+04 -9.332650E+03  2.560295E-09 -3.859685E-10
       100  14 -9.916194E+05 -1.304300E+03  5.153698E+03  2.090662E+03 -1.435753E-09  1.096552E-09
       100  15 -9.894786E+05 -1.482811E+02  3.388966E+03 -9.324334E+03 -2.154327E-10  3.298240E-10
       100  16 -5.406977E+05  1.175609E+05  1.228457E+05 -9.385165E+03  4.184343E-11  4.705275E-10
       100  17 -5.530770E+05  1.083150E+05  1.143416E+05  2.204896E+03 -1.928095E-09  3.376033E-10
       100  18 -5.611341E+05  1.069333E+05  1.100933E+05 -9.042348E+03 -1.543025E-09 -2.474719E-10
       100  19 -1.438052E+06 -1.068217E+05 -1.007414E+05 -9.280214E+03 -7.828759E+03 -4.565409E+03
       100  20 -1.429987E+06 -1.109381E+05 -1.040485E+05  1.976496E+03 -5.259559E+03 -4.932166E+03
       100  21 -1.417656E+06 -1.072437E+05 -1.033291E+05 -9.606113E+03 -2.690690E+03 -4.310593E+03
       100  22 -9.894661E+05  5.377233E+03  1.105978E+04 -9.332621E+03 -7.977749E+03 -4.565425E+03
       100  23 -9.916194E+05 -1.304266E+03  5.153795E+03  2.090683E+03 -5.241073E+03 -4.931930E+03
       100  24 -9.894786E+05 -1.482595E+02  3.389013E+03 -9.324325E+03 -2.504767E+03 -4.310412E+03
       100  25 -5.406976E+05  1.175610E+05  1.228459E+05 -9.385135E+03 -8.126846E+03 -4.565442E+03
       100  26 -5.530770E+05  1.083151E+05  1.143417E+05  2.204916E+03 -5.222573E+03 -4.931695E+03
       100  27 -5.611341E+05  1.069333E+05  1.100933E+05 -9.042340E+03 -2.318716E+03 -4.310231E+03
       101   1 -1.321942E+06 -8.223545E+04 -7.995434E+04 -1.168771E+04  1.977224E+03  3.888915E+03
       101   2 -1.307300E+06 -7.937549E+04 -7.747768E+04  5.505663E+03  1.313313E+03  3.496258E+03
       101   3 -1.291340E+06 -7.528142E+04 -7.407353E+04 -1.153827E+04  6.482618E+02  2.788496E+03
       101   4 -9.901122E+05  7.449189E+02  2.685507E+03 -1.185930E+04  1.938441E+03  3.888800E+03
       101   5 -9.907812E+05 -2.197229E+02  1.371752E+03  5.258693E+03  1.221341E+03  3.496236E+03
       101   6 -9.901225E+05  5.890842E+01  1.022224E+03 -1.185953E+04  5.031175E+02  2.788639E+03
       101   7 -6.581819E+05  8.371699E+04  8.531708E+04 -1.203097E+04  1.899637E+03  3.888686E+03
       101   8 -6.741709E+05  7.892850E+04  8.021365E+04  5.011618E+03  1.129322E+03  3.496214E+03
       101   9 -6.888228E+05  7.539239E+04  7.611115E+04 -1.218091E+04  3.579026E+02  2.788782E+03
       101  10 -1.321942E+06 -8.223547E+04 -7.995437E+04 -1.168771E+04  1.628217E-09  1.780467E-10
       101  11 -1.307300E+06 -7.937551E+04 -7.747770E+04  5.505660E+03 -1.737836E-09 -3.359468E-10
       101  12 -1.291340E+06 -7.528142E+04 -7.407355E+04 -1.153827E+04  3.106435E-09 -1.197991E-09
       101  13 -9.901122E+05  7.449016E+02  2.685472E+03 -1.185930E+04 -8.769657E-11  1.387802E-10
       101  14 -9.907812E+05 -2.197364E+02  1.371726E+03  5.258690E+03  2.404963E-09  4.057845E-10
       101  15 -9.901225E+05  5.890000E+01  1.022209E+03 -1.185953E+04 -2.487313E-10  7.920308E-10
       101  16 -6.581819E+05  8.371697E+04  8.531704E+04 -1.203098E+04  9.344331E-10 -9.240094E-11
       101  17 -6.741709E+05  7.892848E+04  8.021362E+04  5.011615E+03 -7.333392E-11 -2.214739E-10
       101  18 -6.888228E+05  7.539238E+04  7.611114E+04 -1.218091E+04 -1.482952E-09 -3.067447E-10
       101  19 -1.321942E+06 -8.223545E+04 -7.995434E+04 -1.168771E+04 -1.977224E+03 -3.888915E+03
       101  20 -1.307300E+06 -7.937549E+04 -7.747768E+04  5.505663E+03 -1.313313E+03 -3.496258E+03
       101  21 -1.291340E+06 -7.528142E+04 -7.407353E+04 -1.153827E+04 -6.482618E+02 -2.788496E+03
       101  22 -9.901122E+05  7.449189E+02  2.685507E+03 -1.185930E+04 -1.938441E+03 -3.888800E+03
       101  23 -9.907812E+05 -2.197229E+02  1.371752E+03  5.258693E+03 -1.221341E+03 -3.496236E+03
       101  24 -9.901225E+05  5.890842E+01  1.022224E+03 -1.185953E+04 -5.031175E+02 -2.788639E+03
       101  25 -6.581819E+05  8.371699E+04  8.531708E+04 -1.203097E+04 -1.899637E+03 -3.888686E+03
       101  26 -6.741709E+05  7.892850E+04  8.021365E+04  5.011618E+03 -1.129322E+03 -3.496214E+03
       101  27 -6.888228E+05  7.539239E+04  7.611115E+04 -1.218091E+04 -3.579026E+02 -2.788782E+03
       102   1 -1.163913E+06 -4.327991E+04 -4.233785E+04 -1.319868E+04  4.250790E+02  2.356216E+03
       102   2 -1.145503E+06 -3.884039E+04 -3.792133E+04  7.479549E+03  8.855269E+01  1.707271E+03
       102   3 -1.126925E+06 -3.400938E+04 -3.318289E+04 -1.320386E+04 -2.487275E+02  9.420467E+02
       102   4 -9.903588E+05  1.099937E+02  8.453490E+02 -1.344271E+04  3.259197E+02  2.356355E+03
       102   5 -9.904473E+05 -6.692305E+01  7.022218E+02  7.237854E+03 -3.019702E+01  1.707492E+03
       102   6 -9.903645E+05  1.511429E+02  8.946949E+02 -1.344257E+04 -3.870573E+02  9.423634E+02
       102   7 -8.167768E+05  4.349763E+04  4.402628E+04 -1.368680E+04  2.267325E+02  2.356494E+03
       102   8 -8.353696E+05  3.870474E+04  3.932397E+04  6.996110E+03 -1.489764E+02  1.707713E+03
       102   9 -8.537872E+05  3.431026E+04  3.497087E+04 -1.368132E+04 -5.254175E+02  9.426802E+02
       102  10 -1.163913E+06 -4.327992E+04 -4.233786E+04 -1.319868E+04  4.170953E-10 -4.119034E-10
       102  11 -1.145503E+06 -3.884040E+04 -3.792134E+04  7.479549E+03 -5.875977E-10  4.206299E-10
       102  12 -1.126925E+06 -3.400938E+04 -3.318289E+04 -1.320386E+04  1.717373E-09 -9.467478E-10
       102  13 -9.903588E+05  1.099877E+02  8.453384E+02 -1.344271E+04  1.781613E-09 -1.668514E-09
       102  14 -9.904473E+05 -6.692618E+01  7.022163E+02  7.237854E+03 -1.973390E-09  1.009195E-09
       102  15 -9.903645E+05  1.511419E+02  8.946930E+02 -1.344257E+04  1.287225E-09 -1.634649E-09
       102  16 -8.167768E+05  4.349762E+04  4.402627E+04 -1.368680E+04  1.673546E-09  1.938072E-10
       102  17 -8.353696E+05  3.870473E+04  3.932396E+04  6.996110E+03  3.361655E-10 -1.297751E-11
       102  18 -8.537872E+05  3.431026E+04  3.497087E+04 -1.368132E+04 -2.893640E-09 -2.407267E-09
       102  19 -1.163913E+06 -4.327991E+04 -4.233785E+04 -1.319868E+04 -4.250790E+02 -2.356216E+03
       102  20 -1.145503E+06 -3.884039E+04 -3.792133E+04  7.479549E+03 -8.855269E+01 -1.707271E+03
       102  21 -1.126925E+06 -3.400938E+04 -3.318289E+04 -1.320386E+04  2.487275E+02 -9.420467E+02
       102  22 -9.903588E+05  1.099937E+02  8.453490E+02 -1.344271E+04 -3.259197E+02 -2.356355E+03
       102  23 -9.904473E+05 -6.692305E+01  7.022218E+02  7.237854E+03  3.019702E+01 -1.707492E+03
       102  24 -9.903645E+05  1.511429E+02  8.946949E+02 -1.344257E+04  3.870573E+02 -9.423634E+02
       102  25 -8.167768E+05  4.349763E+04  4.402628E+04 -1.368680E+04 -2.267325E+02 -2.356494E+03
       102  26 -8.353696E+05  3.870474E+04  3.932397E+04  6.996110E+03  1.489764E+02 -1.707713E+03
       102  27 -8.537872E+05  3.431026E+04  3.497087E+04 -1.368132E+04  5.254175E+02 -9.426802E+02
       103   1 -9.839165E+05  1.681041E+03  2.703204E+03 -1.385890E+04 -4.349546E+02  4.718142E+02
       103   2 -9.645866E+05  6.311876E+03  8.024344E+03  7.728911E+03 -1.241937E+03 -2.831064E+02
       103   3 -9.451726E+05  1.186285E+04  1.404986E+04 -1.399759E+04 -2.048796E+03 -1.007780E+03
       103   4 -9.903779E+05  5.377207E+01  1.034628E+03 -1.387720E+04 -5.644849E+02  4.721323E+02
       103   5 -9.904184E+05 -1.469876E+02  1.590653E+03  7.780622E+03 -1.366364E+03 -2.828099E+02
       103   6 -9.903763E+05  5.714891E+02  2.847497E+03 -1.387598E+04 -2.168095E+03 -1.007503E+03
       103   7 -9.968393E+05 -1.573500E+03 -6.339524E+02 -1.389550E+04 -6.940139E+02  4.724503E+02
       103   8 -1.016250E+06 -6.605901E+03 -4.843087E+03  7.832331E+03 -1.490786E+03 -2.825135E+02
       103   9 -1.035578E+06 -1.072003E+04 -8.355021E+03 -1.375438E+04 -2.287386E+03 -1.007227E+03
       103  10 -9.839165E+05  1.681040E+03  2.703204E+03 -1.385890E+04 -3.370786E-09  9.219483E-10
       103  11 -9.645866E+05  6.311875E+03  8.024341E+03  7.728911E+03 -4.330521E-09  4.030250E-09
       103  12 -9.451726E+05  1.186285E+04  1.404985E+04 -1.399760E+04  2.892444E-11 -3.245483E-09
       103  13 -9.903779E+05  5.377175E+01  1.034627E+03 -1.387720E+04 -3.422741E-10 -1.322196E-10
       103  14 -9.904184E+05 -1.469882E+02  1.590650E+03  7.780622E+03 -4.573448E-09 -4.414367E-10
       103  15 -9.903763E+05  5.714867E+02  2.847486E+03 -1.387599E+04 -1.517865E-09 -4.943315E-10
       103  16 -9.968393E+05 -1.573500E+03 -6.339537E+02 -1.389550E+04  5.677105E-10  9.797853E-12
       103  17 -1.016250E+06 -6.605902E+03 -4.843092E+03  7.832331E+03 -9.727591E-12  1.435889E-10
       103  18 -1.035578E+06 -1.072003E+04 -8.355033E+03 -1.375438E+04 -2.425352E-09 -2.206631E-10
       103  19 -9.839165E+05  1.681041E+03  2.703204E+03 -1.385890E+04  4.349546E+02 -4.718142E+02
       103  20 -9.645866E+05  6.311876E+03  8.024344E+03  7.728911E+03  1.241937E+03  2.831064E+02
       103  21 -9.451726E+05  1.186285E+04  1.404986E+04 -1.399759E+04  2.048796E+03  1.007780E+03
       103  22 -9.903779E+05  5.377207E+01  1.034628E+03 -1.387720E+04  5.644849E+02 -4.721323E+02
       103  23 -9.904184E+05 -1.469876E+02  1.590653E+03  7.780622E+03  1.366364E+03  2.828099E+02
       103  24 -9.903763E+05  5.714891E+02  2.847497E+03 -1.387598E+04  2.168095E+03  1.007503E+03
       103  25 -9.968393E+05 -1.573500E+03 -6.339524E+02 -1.389550E+04  6.940139E+02 -4.724503E+02
       103  26 -1.016250E+06 -6.605901E+03 -4.843087E+03  7.832331E+03  1.490786E+03  2.825135E+02
       103  27 -1.035578E+06 -1.072003E+04 -8.355021E+03 -1.375438E+04  2.287386E+03  1.007227E+03
       104   1 -8.042789E+05  4.640249E+04  4.995008E+04 -1.321027E+04 -2.610596E+03 -1.480293E+03
       104   2 -7.874287E+05  5.002084E+04  5.664708E+04  6.463849E+03 -5.709746E+03 -2.242744E+03
       104   3 -7.686201E+05  5.892788E+04  6.673155E+04 -1.370809E+04 -8.807944E+03 -2.770117E+03
       104   4 -9.899723E+05 -3.383275E+01  3.643629E+03 -1.310824E+04 -2.758843E+03 -1.479988E+03
       104   5 -9.909430E+05 -8.591111E+02  5.965235E+03  6.817953E+03 -5.817648E+03 -2.242592E+03
       104   6 -9.899619E+05  3.598222E+03  1.164707E+04 -1.310272E+04 -8.875414E+03 -2.770083E+03
       104   7 -1.175634E+06 -4.647275E+04 -4.266542E+04 -1.300622E+04 -2.907045E+03 -1.479684E+03
       104   8 -1.194420E+06 -5.174218E+04 -4.471973E+04  7.171958E+03 -5.925515E+03 -2.242439E+03
       104   9 -1.211259E+06 -5.173513E+04 -4.344110E+04 -1.249756E+04 -8.942859E+03 -2.770050E+03
       104  10 -8.042789E+05  4.640248E+04  4.995006E+04 -1.321028E+04 -9.815445E-10 -3.174008E-09
       104  11 -7.874288E+05  5.002082E+04  5.664701E+04  6.463839E+03 -2.241089E-09  7.281407E-10
       104  12 -7.686202E+05  5.892785E+04  6.673139E+04 -1.370811E+04 -3.697289E-09  6.568586E-10
       104  13 -9.899724E+05 -3.383714E+01  3.643610E+03 -1.310824E+04 -4.443034E-09 -5.217704E-10
       104  14 -9.909430E+05 -8.591256E+02  5.965161E+03  6.817943E+03 -3.408682E-09 -5.267087E-10
       104  15 -9.899620E+05  3.598193E+03  1.164690E+04 -1.310274E+04 -4.847716E-09 -5.365999E-10
       104  16 -1.175634E+06 -4.647276E+04 -4.266544E+04 -1.300622E+04 -9.134478E-10 -4.853821E-10
       104  17 -1.194420E+06 -5.174219E+04 -4.471980E+04  7.171947E+03 -3.753682E-10  2.568792E-09
       104  18 -1.211259E+06 -5.173516E+04 -4.344126E+04 -1.249758E+04  2.471722E-09  4.318614E-10
       104  19 -8.042789E+05  4.640249E+04  4.995008E+04 -1.321027E+04  2.610596E+03  1.480293E+03
       104  20 -7.874287E+05  5.002084E+04  5.664708E+04  6.463849E+03  5.709746E+03  2.242744E+03
       104  21 -7.686201E+05  5.892788E+04  6.673155E+04 -1.370809E+04  8.807944E+03  2.770117E+03
       104  22 -9.899723E+05 -3.383275E+01  3.643629E+03 -1.310824E+04  2.758843E+03  1.479988E+03
       104  23 -9.909430E+05 -8.591111E+02  5.965235E+03  6.817953E+03  5.817648E+03  2.242592E+03
       104  24 -9.899619E+05  3.598222E+03  1.164707E+04 -1.310272E+04  8.875414E+03  2.770083E+03
       104  25 -1.175634E+06 -4.647275E+04 -4.266542E+04 -1.300622E+04  2.907045E+03  1.479684E+03
       104  26 -1.194420E+06 -5.174218E+04 -4.471973E+04  7.171958E+03  5.925515E+03  2.242439E+03
       104  27 -1.211259E+06 -5.173513E+04 -4.344110E+04 -1.249756E+04  8.942859E+03  2.770050E+03
       105   1 -6.461494E+05  8.467283E+04  9.976184E+04 -1.015022E+04 -1.106220E+04 -3.264882E+03
       105   2 -6.378606E+05  8.330073E+04  1.119532E+05  3.692955E+03 -2.349427E+04 -4.000465E+03
       105   3 -6.180229E+05  1.167202E+05  1.411895E+05 -1.388232E+04 -3.592548E+04 -3.839842E+03
       105   4 -9.878601E+05 -7.553647E+02  1.461804E+04 -1.123531E+04 -1.125902E+04 -3.264734E+03
       105   5 -9.936105E+05 -5.629015E+03  2.337646E+04  4.474176E+03 -2.353443E+04 -4.000612E+03
       105   6 -9.878337E+05  2.427226E+04  4.907785E+04 -1.123590E+04 -3.580871E+04 -3.840132E+03
       105   7 -1.329465E+06 -8.619236E+04 -7.053453E+04 -1.231976E+04 -1.145573E+04 -3.264585E+03
       105   8 -1.349245E+06 -9.456829E+04 -6.520978E+04  5.254964E+03 -2.357457E+04 -4.000759E+03
       105   9 -1.357520E+06 -6.818597E+04 -4.304410E+04 -8.591056E+03 -3.569200E+04 -3.840421E+03
       105  10 -6.461496E+05  8.467279E+04  9.976159E+04 -1.015025E+04 -5.806322E-09  5.915400E-10
       105  11 -6.378612E+05  8.330056E+04  1.119521E+05  3.692879E+03 -3.493928E-09 -4.019438E-10
       105  12 -6.180243E+05  1.167198E+05  1.411871E+05 -1.388243E+04 -9.937023E-12 -6.736544E-10
       105  13 -9.878602E+05 -7.554102E+02  1.461779E+04 -1.123534E+04 -2.378466E-09  1.685810E-10
       105  14 -9.936111E+05 -5.629181E+03  2.337539E+04  4.474100E+03 -1.809445E-09  2.864821E-10
       105  15 -9.878351E+05  2.427190E+04  4.907540E+04 -1.123601E+04  8.049745E-10 -1.141364E-10
       105  16 -1.329465E+06 -8.619240E+04 -7.053480E+04 -1.231979E+04  3.364413E-09 -3.124544E-10
       105  17 -1.349246E+06 -9.456846E+04 -6.521085E+04  5.254888E+03  1.787312E-09 -4.182369E-10
       105  18 -1.357522E+06 -6.818633E+04 -4.304653E+04 -8.591166E+03 -1.916821E-09  4.002402E-10
       105  19 -6.461494E+05  8.467283E+04  9.976184E+04 -1.015022E+04  1.106220E+04  3.264882E+03
       105  20 -6.378606E+05  8.330073E+04  1.119532E+05  3.692955E+03  2.349427E+04  4.000465E+03
       105  21 -6.180229E+05  1.167202E+05  1.411895E+05 -1.388232E+04  3.592548E+04  3.839842E+03
       105  22 -9.878601E+05 -7.553647E+02  1.461804E+04 -1.123531E+04  1.125902E+04  3.264734E+03
       105  23 -9.936105E+05 -5.629015E+03  2.337646E+04  4.474176E+03  2.353443E+04  4.000612E+03
       105  24 -9.878337E+05  2.427226E+04  4.907785E+04 -1.123590E+04  3.580871E+04  3.840132E+03
       105  25 -1.329465E+06 -8.619236E+04 -7.053453E+04 -1.231976E+04  1.145573E+04  3.264585E+03
       105  26 -1.349245E+06 -9.456829E+04 -6.520978E+04  5.254964E+03  2.357457E+04  4.000759E+03
       105  27 -1.357520E+06 -6.818597E+04 -4.304410E+04 -8.591056E+03  3.569200E+04  3.840421E+03
       106   1 -5.208076E+05  1.081019E+05  1.726661E+05  8.888114E+02 -4.507161E+04 -4.814068E+03
       106   2 -5.454615E+05  7.846418E+04  2.057243E+05 -3.254342E+03 -9.530673E+04 -5.893523E+03
       106   3 -5.033998E+05  2.805710E+05  3.298958E+05 -2.688825E+04 -1.455512E+05 -2.304553E+03
       106   4 -9.756362E+05 -5.604622E+03  5.939155E+04 -8.480427E+03 -4.561707E+04 -4.813902E+03
       106   5 -1.008895E+06 -3.735151E+04  9.040664E+04  1.088132E+03 -9.503625E+04 -5.894167E+03
       106   6 -9.755347E+05  1.625949E+05  2.120157E+05 -8.834000E+03 -1.444640E+05 -2.306689E+03
       106   7 -1.430277E+06 -1.193264E+05 -5.389854E+04 -1.784282E+04 -4.616213E+04 -4.813720E+03
       106   8 -1.472133E+06 -1.531833E+05 -2.492716E+04  5.427294E+03 -9.476594E+04 -5.894808E+03
       106   9 -1.447467E+06  4.460323E+04  9.411897E+04  9.206395E+03 -1.433776E+05 -2.308764E+03
       106  10 -5.208098E+05  1.081013E+05  1.726623E+05  8.886366E+02 -1.090936E-09 -1.446291E-10
       106  11 -5.454712E+05  7.846170E+04  2.057072E+05 -3.254795E+03 -3.729623E-09  1.675621E-09
       106  12 -5.034225E+05  2.805653E+05  3.298560E+05 -2.688852E+04 -1.759561E-09 -1.509389E-10
       106  13 -9.756384E+05 -5.605206E+03  5.938759E+04 -8.480604E+03 -2.383740E-09  1.081393E-09
       106  14 -1.008905E+06 -3.735397E+04  9.038957E+04  1.087681E+03  5.219268E-10  2.255960E-09
       106  15 -9.755572E+05  1.625893E+05  2.119764E+05 -8.834269E+03  2.960180E-09 -2.819989E-10
       106  16 -1.430279E+06 -1.193270E+05 -5.390260E+04 -1.784300E+04 -1.095187E-09  6.951431E-10
       106  17 -1.472143E+06 -1.531857E+05 -2.494414E+04  5.426844E+03 -4.524308E-10  8.508545E-11
       106  18 -1.447489E+06  4.459769E+04  9.408024E+04  9.206128E+03 -1.290974E-09  2.506829E-10
       106  19 -5.208076E+05  1.081019E+05  1.726661E+05  8.888114E+02  4.507161E+04  4.814068E+03
       106  20 -5.454615E+05  7.846418E+04  2.057243E+05 -3.254342E+03  9.530673E+04  5.893523E+03
       106  21 -5.033998E+05  2.805710E+05  3.298958E+05 -2.688825E+04  1.455512E+05  2.304553E+03
       106  22 -9.756362E+05 -5.604622E+03  5.939155E+04 -8.480427E+03  4.561707E+04  4.813902E+03
       106  23 -1.008895E+06 -3.735151E+04  9.040664E+04  1.088132E+03  9.503625E+04  5.894167E+03
       106  24 -9.755347E+05  1.625949E+05  2.120157E+05 -8.834000E+03  1.444640E+05  2.306689E+03
       106  25 -1.430277E+06 -1.193264E+05 -5.389854E+04 -1.784282E+04  4.616213E+04  4.813720E+03
       106  26 -1.472133E+06 -1.531833E+05 -2.492716E+04  5.427294E+03  9.476594E+04  5.894808E+03
       106  27 -1.447467E+06  4.460323E+04  9.411897E+04  9.206395E+03  1.433776E+05  2.308764E+03
       107   1  2.809847E+05  2.019709E+05  3.026926E+05 -2.034043E+05 -3.022643E+02  1.963397E+05
       107   2  8.418352E+04  1.518626E+05  1.550178E+05 -1.133768E+05  9.087276E+02  1.181404E+05
       107   3  2.150560E+04  1.454204E+05  9.178481E+04 -2.858072E+04  3.307051E+02  3.993663E+04
       107   4  2.613567E+05  1.302027E+05  2.851308E+05 -3.263787E+04 -2.341562E+02  1.929688E+05
       107   5  7.286893E+04  1.086796E+05  1.458520E+05 -3.053712E+04  9.241633E+02  1.182130E+05
       107   6  1.788485E+04  1.302151E+05  8.862684E+04 -3.365876E+04  3.155483E+02  4.344895E+04
       107   7  2.418378E+05  5.850169E+04  2.675843E+05  1.381085E+05 -1.678958E+02  1.895983E+05
       107   8  6.157998E+04  6.551300E+04  1.366897E+05  5.229669E+04  9.396194E+02  1.182855E+05
       107   9  1.426419E+04  1.150101E+05  8.546893E+04 -3.873667E+04  3.003339E+02  4.696117E+04
       107  10  2.809744E+05  2.019295E+05  3.026202E+05 -2.034042E+05  1.172765E-09 -1.606933E-09
       107  11  8.417977E+04  1.518477E+05  1.549916E+05 -1.133769E+05 -4.970950E-10 -7.954742E-10
       107  12  2.150518E+04  1.454187E+05  9.178181E+04 -2.858074E+04  1.020821E-10 -1.623809E-09
       107  13  2.613467E+05  1.301627E+05  2.850608E+05 -3.263783E+04 -2.862790E-09  1.136436E-09
       107  14  7.286518E+04  1.086646E+05  1.458257E+05 -3.053720E+04  1.186781E-09 -1.719860E-10
       107  15  1.788435E+04  1.302131E+05  8.862330E+04 -3.365877E+04  2.983446E-09  3.863946E-10
       107  16  2.418281E+05  5.846309E+04  2.675167E+05  1.381086E+05  6.431652E-10  8.796585E-10
       107  17  6.157622E+04  6.549798E+04  1.366634E+05  5.229660E+04 -1.009793E-09  1.513224E-09
       107  18  1.426360E+04  1.150077E+05  8.546479E+04 -3.873669E+04 -3.530290E-10  8.145580E-10
       107  19  2.809847E+05  2.019709E+05  3.026926E+05 -2.034043E+05  3.022643E+02 -1.963397E+05
       107  20  8.418352E+04  1.518626E+05  1.550178E+05 -1.133768E+05 -9.087276E+02 -1.181404E+05
       107  21  2.150560E+04  1.454204E+05  9.178481E+04 -2.858072E+04 -3.307051E+02 -3.993663E+04
       107  22  2.613567E+05  1.302027E+05  2.851308E+05 -3.263787E+04  2.341562E+02 -1.929688E+05
       107  23  7.286893E+04  1.086796E+05  1.458520E+05 -3.053712E+04 -9.241633E+02 -1.182130E+05
       107  24  1.788485E+04  1.302151E+05  8.862684E+04 -3.365876E+04 -3.155483E+02 -4.344895E+04
       107  25  2.418378E+05  5.850169E+04  2.675843E+05  1.381085E+05  1.678958E+02 -1.895983E+05
       107  26  6.157998E+04  6.551300E+04  1.366897E+05  5.229669E+04 -9.396194E+02 -1.182855E+05
       107  27  1.426419E+04  1.150101E+05  8.546893E+04 -3.873667E+04 -3.003339E+02 -4.696117E+04
       108   1  1.555366E+04  1.190934E+05  7.430152E+04 -4.280030E+04 -7.416213E+02  2.761154E+04
       108   2 -3.439860E+02  8.597072E+04  5.682502E+04 -3.073138E+04 -2.310694E+03 -3.070217E+03
       108   3  1.677689E+03  6.126515E+04  6.378890E+04 -2.432124E+04 -3.728705E+03 -3.374997E+04
       108   4  1.615710E+04  1.225259E+05  7.435019E+04 -3.365573E+04 -7.557864E+02  3.106294E+04
       108   5  7.147681E+03  1.182920E+05  6.196332E+04 -3.082660E+04 -2.323981E+03  8.485252E+01
       108   6  1.610830E+04  1.225253E+05  7.422222E+04 -3.365578E+04 -3.740210E+03 -3.089256E+04
       108   7  1.676085E+04  1.259587E+05  7.439895E+04 -2.451111E+04 -7.698499E+02  3.451436E+04
       108   8  1.463930E+04  1.506143E+05  6.710164E+04 -3.092182E+04 -2.337269E+03  3.240081E+03
       108   9  3.053904E+04  1.837893E+05  8.465550E+04 -4.299127E+04 -3.751799E+03 -2.803489E+04
       108  10  1.555346E+04  1.190925E+05  7.430008E+04 -4.280028E+04 -1.128326E-09 -1.917771E-08
       108  11 -3.439943E+02  8.597071E+04  5.682499E+04 -3.073139E+04 -4.666235E-09  6.067738E-09
       108  12  1.677368E+03  6.126392E+04  6.378673E+04 -2.432134E+04 -5.513749E-09  3.055602E-08
       108  13  1.615684E+04  1.225249E+05  7.434837E+04 -3.365571E+04  4.232040E-09  1.243960E-09
       108  14  7.147675E+03  1.182920E+05  6.196331E+04 -3.082660E+04  7.510497E-09  5.017008E-12
       108  15  1.610803E+04  1.225243E+05  7.422040E+04 -3.365587E+04  1.226710E-08  1.167308E-10
       108  16  1.676053E+04  1.259574E+05  7.439671E+04 -2.451109E+04  6.109647E-11  1.887104E-08
       108  17  1.463929E+04  1.506143E+05  6.710161E+04 -3.092182E+04 -4.452915E-09 -5.072793E-09
       108  18  3.053881E+04  1.837885E+05  8.465399E+04 -4.299135E+04 -7.608700E-09 -3.176031E-08
       108  19  1.555366E+04  1.190934E+05  7.430152E+04 -4.280030E+04  7.416213E+02 -2.761154E+04
       108  20 -3.439860E+02  8.597072E+04  5.682502E+04 -3.073138E+04  2.310694E+03  3.070217E+03
       108  21  1.677689E+03  6.126515E+04  6.378890E+04 -2.432124E+04  3.728705E+03  3.374997E+04
       108  22  1.615710E+04  1.225259E+05  7.435019E+04 -3.365573E+04  7.557864E+02 -3.106294E+04
       108  23  7.147681E+03  1.182920E+05  6.196332E+04 -3.082660E+04  2.323981E+03 -8.485252E+01
       108  24  1.610830E+04  1.225253E+05  7.422222E+04 -3.365578E+04  3.740210E+03  3.089256E+04
       108  25  1.676085E+04  1.259587E+05  7.439895E+04 -2.451111E+04  7.698499E+02 -3.451436E+04
       108  26  1.463930E+04  1.506143E+05  6.710164E+04 -3.092182E+04  2.337269E+03 -3.240081E+03
       108  27  3.053904E+04  1.837893E+05  8.465550E+04 -4.299127E+04  3.751799E+03  2.803489E+04
       109   1 -8.743461E+02  5.021537E+04  7.461494E+04 -3.848438E+04 -4.679435E+03 -4.623846E+04
       109   2  4.607766E+04  1.007412E+03  1.244200E+05  5.220866E+04 -4.347249E+03 -1.145545E+05
       109   3  2.250759E+05 -6.326370E+03  2.517210E+05  1.377826E+05 -8.375841E+02 -1.828529E+05
       109   4  1.782993E+04  1.301849E+05  8.842459E+04 -3.363487E+04 -4.692306E+03 -4.325484E+04
       109   5  7.263586E+04  1.087144E+05  1.454259E+05 -3.056809E+04 -4.318404E+03 -1.177956E+05
       109   6  2.605260E+05  1.301712E+05  2.842336E+05 -3.262141E+04 -7.479980E+02 -1.923224E+05
       109   7  3.653397E+04  2.101607E+05  1.022341E+05 -2.878471E+04 -4.705130E+03 -4.027086E+04
       109   8  9.921904E+04  2.164471E+05  1.664349E+05 -1.133596E+05 -4.288699E+03 -1.210372E+05
       109   9  2.960837E+05  2.667482E+05  3.167607E+05 -2.030633E+05 -6.532276E+02 -2.017939E+05
       109  10 -8.749435E+02  5.021307E+04  7.461088E+04 -3.848455E+04 -6.934897E-09 -3.400358E-08
       109  11  4.607412E+04  9.933175E+02  1.243953E+05  5.220826E+04 -9.764678E-10 -4.790481E-09
       109  12  2.250669E+05 -6.362267E+03  2.516582E+05  1.377825E+05  1.038264E-09  2.066962E-08
       109  13  1.782941E+04  1.301828E+05  8.842103E+04 -3.363503E+04  8.772559E-09  1.101559E-09
       109  14  7.263212E+04  1.086995E+05  1.453998E+05 -3.056850E+04  6.222922E-09  2.765872E-10
       109  15  2.605161E+05  1.301315E+05  2.841641E+05 -3.262153E+04  7.332595E-10  2.562283E-10
       109  16  3.653351E+04  2.101589E+05  1.022310E+05 -2.878486E+04 -6.147121E-09  3.333660E-08
       109  17  9.921508E+04  2.164314E+05  1.664074E+05 -1.133600E+05 -5.932858E-09  6.303720E-09
       109  18  2.960728E+05  2.667045E+05  3.166842E+05 -2.030634E+05 -1.756621E-09 -2.116963E-08
       109  19 -8.743461E+02  5.021537E+04  7.461494E+04 -3.848438E+04  4.679435E+03  4.623846E+04
       109  20  4.607766E+04  1.007412E+03  1.244200E+05  5.220866E+04  4.347249E+03  1.145545E+05
       109  21  2.250759E+05 -6.326370E+03  2.517210E+05  1.377826E+05  8.375841E+02  1.828529E+05
       109  22  1.782993E+04  1.301849E+05  8.842459E+04 -3.363487E+04  4.692306E+03  4.325484E+04
       109  23  7.263586E+04  1.087144E+05  1.454259E+05 -3.056809E+04  4.318404E+03  1.177956E+05
       109  24  2.605260E+05  1.301712E+05  2.842336E+05 -3.262141E+04  7.479980E+02  1.923224E+05
       109  25  3.653397E+04  2.101607E+05  1.022341E+05 -2.878471E+04  4.705130E+03  4.027086E+04
       109  26  9.921904E+04  2.164471E+05  1.664349E+05 -1.133596E+05  4.288699E+03  1.210372E+05
       109  27  2.960837E+05  2.667482E+05  3.167607E+05 -2.030633E+05  6.532276E+02  2.017939E+05
       110   1 -5.595819E+06 -1.768437E+06 -1.119476E+06 -1.950375E+06 -5.217716E+05 -1.842104E+05
       110   2 -5.455920E+06 -9.998979E+05 -6.350960E+05 -2.037220E+06 -3.397232E+05 -8.751926E+04
       110   3 -5.592964E+06 -9.958775E+05 -4.963232E+05 -1.960380E+06 -1.476411E+05 -1.725878E+04
       110   4 -4.525399E+06 -1.204024E+06 -7.943621E+05 -1.498116E+06 -5.065440E+05 -1.785990E+05
       110   5 -4.346210E+06 -5.353771E+05 -3.295322E+05 -1.688702E+06 -3.354238E+05 -8.592694E+04
       110   6 -4.441287E+06 -6.283033E+05 -2.011301E+05 -1.715754E+06 -1.542680E+05 -1.974539E+04
       110   7 -3.453807E+06 -6.391877E+05 -4.693628E+05 -1.045043E+06 -4.912868E+05 -1.729665E+05
       110   8 -3.235297E+06 -7.070464E+04 -2.408354E+04 -1.339589E+06 -3.311155E+05 -8.433040E+04
       110   9 -3.288317E+06 -2.607333E+05  9.395882E+04 -1.470757E+06 -1.609083E+05 -2.223524E+04
       110  10 -5.596123E+06 -1.768547E+06 -1.120057E+06 -1.950453E+06  1.411437E-09 -5.289954E-10
       110  11 -5.456047E+06 -9.999376E+05 -6.353296E+05 -2.037245E+06  2.491768E-10 -6.321998E-10
       110  12 -5.592988E+06 -9.958837E+05 -4.963651E+05 -1.960382E+06 -8.596431E-10  8.072951E-10
       110  13 -4.525685E+06 -1.204128E+06 -7.949086E+05 -1.498189E+06 -4.473862E-09 -1.169317E-09
       110  14 -4.346333E+06 -5.354156E+05 -3.297593E+05 -1.688725E+06 -4.214630E-10 -2.682578E-09
       110  15 -4.441312E+06 -6.283102E+05 -2.011759E+05 -1.715757E+06 -1.391689E-09  6.951957E-11
       110  16 -3.454075E+06 -6.392853E+05 -4.698757E+05 -1.045112E+06 -1.110642E-09 -4.342638E-10
       110  17 -3.235417E+06 -7.074198E+04 -2.430427E+04 -1.339612E+06 -1.196363E-09 -1.450616E-09
       110  18 -3.288345E+06 -2.607408E+05  9.390894E+04 -1.470760E+06 -4.560354E-10 -9.490432E-11
       110  19 -5.595819E+06 -1.768437E+06 -1.119476E+06 -1.950375E+06  5.217716E+05  1.842104E+05
       110  20 -5.455920E+06 -9.998979E+05 -6.350960E+05 -2.037220E+06  3.397232E+05  8.751926E+04
       110  21 -5.592964E+06 -9.958775E+05 -4.963232E+05 -1.960380E+06  1.476411E+05  1.725878E+04
       110  22 -4.525399E+06 -1.204024E+06 -7.943621E+05 -1.498116E+06  5.065440E+05  1.785990E+05
       110  23 -4.346210E+06 -5.353771E+05 -3.295322E+05 -1.688702E+06  3.354238E+05  8.592694E+04
       110  24 -4.441287E+06 -6.283033E+05 -2.011301E+05 -1.715754E+06  1.542680E+05  1.974539E+04
       110  25 -3.453807E+06 -6.391877E+05 -4.693628E+05 -1.045043E+06  4.912868E+05  1.729665E+05
       110  26 -3.235297E+06 -7.070464E+04 -2.408354E+04 -1.339589E+06  3.311155E+05  8.433040E+04
       110  27 -3.288317E+06 -2.607333E+05  9.395882E+04 -1.470757E+06  1.609083E+05  2.223524E+04
       111   1 -5.407486E+06 -1.111543E+06 -4.348226E+05 -1.961048E+06 -1.238764E+05 -1.408680E+04
       111   2 -5.346079E+06 -9.757253E+05 -3.290266E+05 -1.929023E+06 -8.204639E+04  1.273325E+03
       111   3 -5.276289E+06 -9.718180E+05 -2.778677E+05 -1.926451E+06 -3.913446E+04  1.376066E+04
       111   4 -4.411526E+06 -7.177170E+05 -1.641273E+05 -1.671972E+06 -1.235483E+05 -1.397095E+04
       111   5 -4.410947E+06 -6.181300E+05 -7.774154E+04 -1.669910E+06 -8.287197E+04  9.587697E+02
       111   6 -4.401704E+06 -6.501341E+05 -4.500309E+04 -1.697311E+06 -4.111915E+04  1.301388E+04
       111   7 -3.414597E+06 -3.238054E+05  1.064787E+05 -1.382462E+06 -1.232195E+05 -1.385480E+04
       111   8 -3.474963E+06 -2.604760E+05  1.734662E+05 -1.410439E+06 -8.369886E+04  6.437158E+02
       111   9 -3.526377E+06 -3.284146E+05  1.877949E+05 -1.467881E+06 -4.310690E+04  1.226602E+04
       111  10 -5.407503E+06 -1.111547E+06 -4.348520E+05 -1.961050E+06 -1.941456E-10  2.036255E-10
       111  11 -5.346086E+06 -9.757271E+05 -3.290394E+05 -1.929023E+06  9.906389E-10 -1.363443E-09
       111  12 -5.276291E+06 -9.718186E+05 -2.778709E+05 -1.926450E+06 -2.818711E-09 -1.096789E-09
       111  13 -4.411542E+06 -7.177214E+05 -1.641566E+05 -1.671973E+06 -1.255229E-09 -9.949713E-10
       111  14 -4.410954E+06 -6.181319E+05 -7.775454E+04 -1.669910E+06 -4.942691E-09 -2.034147E-09
       111  15 -4.401706E+06 -6.501348E+05 -4.500660E+04 -1.697310E+06 -3.140590E-09 -1.250199E-09
       111  16 -3.414613E+06 -3.238097E+05  1.064496E+05 -1.382464E+06 -2.326186E-09 -1.330846E-09
       111  17 -3.474971E+06 -2.604779E+05  1.734530E+05 -1.410439E+06 -1.596516E-09 -1.966288E-09
       111  18 -3.526379E+06 -3.284153E+05  1.877911E+05 -1.467881E+06  1.841314E-09 -3.645282E-10
       111  19 -5.407486E+06 -1.111543E+06 -4.348226E+05 -1.961048E+06  1.238764E+05  1.408680E+04
       111  20 -5.346079E+06 -9.757253E+05 -3.290266E+05 -1.929023E+06  8.204639E+04 -1.273325E+03
       111  21 -5.276289E+06 -9.718180E+05 -2.778677E+05 -1.926451E+06  3.913446E+04 -1.376066E+04
       111  22 -4.411526E+06 -7.177170E+05 -1.641273E+05 -1.671972E+06  1.235483E+05  1.397095E+04
       111  23 -4.410947E+06 -6.181300E+05 -7.774154E+04 -1.669910E+06  8.287197E+04 -9.587697E+02
       111  24 -4.401704E+06 -6.501341E+05 -4.500309E+04 -1.697311E+06  4.111915E+04 -1.301388E+04
       111  25 -3.414597E+06 -3.238054E+05  1.064787E+05 -1.382462E+06  1.232195E+05  1.385480E+04
       111  26 -3.474963E+06 -2.604760E+05  1.734662E+05 -1.410439E+06  8.369886E+04 -6.437158E+02
       111  27 -3.526377E+06 -3.284146E+05  1.877949E+05 -1.467881E+06  4.310690E+04 -1.226602E+04
       112   1 -5.126137E+06 -9.403065E+05 -2.310860E+05 -1.895370E+06 -3.238211E+04  1.359823E+04
       112   2 -5.061739E+06 -8.657804E+05 -1.893975E+05 -1.837796E+06 -2.160859E+04  1.367455E+04
       112   3 -4.942619E+06 -8.604967E+05 -1.574062E+05 -1.845573E+06 -1.062634E+04  1.317814E+04
       112   4 -4.395227E+06 -6.631484E+05 -3.534489E+04 -1.695167E+06 -3.375397E+04  1.308198E+04
       112   5 -4.422019E+06 -6.245391E+05 -1.815438E+04 -1.663984E+06 -2.321216E+04  1.307302E+04
       112   6 -4.394047E+06 -6.551150E+05 -1.046654E+04 -1.698151E+06 -1.246324E+04  1.249101E+04
       112   7 -3.663801E+06 -3.859575E+05  1.603486E+05 -1.494749E+06 -3.512760E+04  1.256507E+04
       112   8 -3.781901E+06 -3.832735E+05  1.530527E+05 -1.490008E+06 -2.481755E+04  1.247081E+04
       112   9 -3.845181E+06 -4.497162E+05  1.364470E+05 -1.550611E+06 -1.430195E+04  1.180322E+04
       112  10 -5.126138E+06 -9.403070E+05 -2.310884E+05 -1.895369E+06 -4.583598E-10 -9.571124E-10
       112  11 -5.061739E+06 -8.657807E+05 -1.893987E+05 -1.837796E+06  1.009276E-09 -2.375868E-10
       112  12 -4.942619E+06 -8.604969E+05 -1.574068E+05 -1.845573E+06  2.133712E-09  8.126730E-10
       112  13 -4.395229E+06 -6.631488E+05 -3.534736E+04 -1.695166E+06  1.430824E-09 -6.951460E-10
       112  14 -4.422019E+06 -6.245394E+05 -1.815571E+04 -1.663984E+06  1.420835E-10  1.432947E-10
       112  15 -4.394047E+06 -6.551152E+05 -1.046713E+04 -1.698151E+06 -4.516842E-10 -3.031995E-10
       112  16 -3.663802E+06 -3.859580E+05  1.603460E+05 -1.494749E+06 -6.254800E-10 -2.308682E-10
       112  17 -3.781901E+06 -3.832738E+05  1.530512E+05 -1.490008E+06  8.811384E-10  1.313902E-10
       112  18 -3.845181E+06 -4.497164E+05  1.364463E+05 -1.550611E+06  1.993133E-09 -1.038795E-10
       112  19 -5.126137E+06 -9.403065E+05 -2.310860E+05 -1.895370E+06  3.238211E+04 -1.359823E+04
       112  20 -5.061739E+06 -8.657804E+05 -1.893975E+05 -1.837796E+06  2.160859E+04 -1.367455E+04
       112  21 -4.942619E+06 -8.604967E+05 -1.574062E+05 -1.845573E+06  1.062634E+04 -1.317814E+04
       112  22 -4.395227E+06 -6.631484E+05 -3.534489E+04 -1.695167E+06  3.375397E+04 -1.308198E+04
       112  23 -4.422019E+06 -6.245391E+05 -1.815438E+04 -1.663984E+06  2.321216E+04 -1.307302E+04
       112  24 -4.394047E+06 -6.551150E+05 -1.046654E+04 -1.698151E+06  1.246324E+04 -1.249101E+04
       112  25 -3.663801E+06 -3.859575E+05  1.603486E+05 -1.494749E+06  3.512760E+04 -1.256507E+04
       112  26 -3.781901E+06 -3.832735E+05  1.530527E+05 -1.490008E+06  2.481755E+04 -1.247081E+04
       112  27 -3.845181E+06 -4.497162E+05  1.364470E+05 -1.550611E+06  1.430195E+04 -1.180322E+04
       113   1 -4.773634E+06 -8.017169E+05 -1.100513E+05 -1.803077E+06 -8.210518E+03  1.123066E+04
       113   2 -4.701705E+06 -7.274015E+05 -7.907348E+04 -1.736049E+06 -3.978480E+03  7.908626E+03
       113   3 -4.563390E+06 -7.215826E+05 -5.040387E+04 -1.746131E+06  3.156642E+02  4.411453E+03
       113   4 -4.391856E+06 -6.580781E+05 -8.287432E+03 -1.699578E+06 -1.000045E+04  1.056196E+04
       113   5 -4.424980E+06 -6.233846E+05 -5.077299E+03 -1.661189E+06 -5.841101E+03  7.213522E+03
       113   6 -4.391715E+06 -6.571702E+05 -4.115505E+03 -1.699911E+06 -1.620186E+03  3.689846E+03
       113   7 -4.009935E+06 -5.144306E+05  9.346386E+04 -1.596022E+06 -1.179159E+04  9.892811E+03
       113   8 -4.148181E+06 -5.193637E+05  6.891185E+04 -1.586299E+06 -7.704632E+03  6.518079E+03
       113   9 -4.220014E+06 -5.927567E+05  4.216979E+04 -1.653680E+06 -3.556610E+03  2.968026E+03
       113  10 -4.773634E+06 -8.017170E+05 -1.100517E+05 -1.803077E+06 -8.470230E-10  8.778553E-10
       113  11 -4.701705E+06 -7.274016E+05 -7.907363E+04 -1.736049E+06 -8.787248E-11  2.485932E-09
       113  12 -4.563390E+06 -7.215826E+05 -5.040390E+04 -1.746131E+06  1.280721E-09 -5.829313E-10
       113  13 -4.391856E+06 -6.580783E+05 -8.287829E+03 -1.699578E+06 -7.548116E-11 -4.285215E-10
       113  14 -4.424980E+06 -6.233847E+05 -5.077460E+03 -1.661189E+06 -4.755582E-10 -5.048334E-10
       113  15 -4.391715E+06 -6.571702E+05 -4.115535E+03 -1.699911E+06  5.457254E-10 -5.442820E-10
       113  16 -4.009935E+06 -5.144307E+05  9.346342E+04 -1.596021E+06  2.940874E-09  1.756721E-09
       113  17 -4.148181E+06 -5.193637E+05  6.891166E+04 -1.586299E+06  5.245497E-10  1.886283E-09
       113  18 -4.220014E+06 -5.927567E+05  4.216975E+04 -1.653680E+06  4.289199E-10 -1.803527E-09
       113  19 -4.773634E+06 -8.017169E+05 -1.100513E+05 -1.803077E+06  8.210518E+03 -1.123066E+04
       113  20 -4.701705E+06 -7.274015E+05 -7.907348E+04 -1.736049E+06  3.978480E+03 -7.908626E+03
       113  21 -4.563390E+06 -7.215826E+05 -5.040387E+04 -1.746131E+06 -3.156642E+02 -4.411453E+03
       113  22 -4.391856E+06 -6.580781E+05 -8.287432E+03 -1.699578E+06  1.000045E+04 -1.056196E+04
       113  23 -4.424980E+06 -6.233846E+05 -5.077299E+03 -1.661189E+06  5.841101E+03 -7.213522E+03
       113  24 -4.391715E+06 -6.571702E+05 -4.115505E+03 -1.699911E+06  1.620186E+03 -3.689846E+03
       113  25 -4.009935E+06 -5.144306E+05  9.346386E+04 -1.596022E+06  1.179159E+04 -9.892811E+03
       113  26 -4.148181E+06 -5.193637E+05  6.891185E+04 -1.586299E+06  7.704632E+03 -6.518079E+03
       113  27 -4.220014E+06 -5.927567E+05  4.216979E+04 -1.653680E+06  3.556610E+03 -2.968026E+03
       114   1 -4.383931E+06 -6.547636E+05 -1.781297E+03 -1.698456E+06  1.992051E+03  1.997958E+03
       114   2 -4.310442E+06 -5.797858E+05  2.537527E+04 -1.629650E+06  6.326402E+03 -1.539808E+03
       114   3 -4.169297E+06 -5.748136E+05  5.015959E+04 -1.639656E+06  1.063147E+04 -4.992992E+03
       114   4 -4.391427E+06 -6.574951E+05 -4.171144E+03 -1.700293E+06  5.389773E+01  1.275667E+03
       114   5 -4.425314E+06 -6.229445E+05 -5.330841E+03 -1.660715E+06  4.423356E+03 -2.249378E+03
       114   6 -4.391563E+06 -6.584095E+05 -8.890568E+03 -1.699956E+06  8.763000E+03 -5.689974E+03
       114   7 -4.398923E+06 -6.602265E+05 -6.560998E+03 -1.702130E+06 -1.884245E+03  5.533794E+02
       114   8 -4.540174E+06 -6.661028E+05 -3.603831E+04 -1.691775E+06  2.520685E+03 -2.958807E+03
       114   9 -4.613782E+06 -7.420030E+05 -6.794536E+04 -1.760236E+06  6.895261E+03 -6.386684E+03
       114  10 -4.383931E+06 -6.547636E+05 -1.781312E+03 -1.698456E+06  9.827967E-10  9.607374E-10
       114  11 -4.310442E+06 -5.797858E+05  2.537519E+04 -1.629650E+06  1.722733E-09  4.043699E-09
       114  12 -4.169297E+06 -5.748137E+05  5.015933E+04 -1.639656E+06  9.659924E-10  2.385206E-09
       114  13 -4.391427E+06 -6.574951E+05 -4.171147E+03 -1.700293E+06  1.480102E-09 -1.581950E-09
       114  14 -4.425314E+06 -6.229445E+05 -5.330888E+03 -1.660715E+06  1.474969E-10  3.276219E-09
       114  15 -4.391563E+06 -6.584096E+05 -8.890774E+03 -1.699956E+06 -3.702916E-09  1.450399E-09
       114  16 -4.398923E+06 -6.602265E+05 -6.561005E+03 -1.702130E+06  7.014906E-11 -4.820557E-10
       114  17 -4.540174E+06 -6.661029E+05 -3.603834E+04 -1.691775E+06 -1.240911E-09 -1.949197E-09
       114  18 -4.613782E+06 -7.420030E+05 -6.794553E+04 -1.760236E+06 -3.203189E-10  2.403724E-09
       114  19 -4.383931E+06 -6.547636E+05 -1.781297E+03 -1.698456E+06 -1.992051E+03 -1.997958E+03
       114  20 -4.310442E+06 -5.797858E+05  2.537527E+04 -1.629650E+06 -6.326402E+03  1.539808E+03
       114  21 -4.169297E+06 -5.748136E+05  5.015959E+04 -1.639656E+06 -1.063147E+04  4.992992E+03
       114  22 -4.391427E+06 -6.574951E+05 -4.171144E+03 -1.700293E+06 -5.389773E+01 -1.275667E+03
       114  23 -4.425314E+06 -6.229445E+05 -5.330841E+03 -1.660715E+06 -4.423356E+03  2.249378E+03
       114  24 -4.391563E+06 -6.584095E+05 -8.890568E+03 -1.699956E+06 -8.763000E+03  5.689974E+03
       114  25 -4.398923E+06 -6.602265E+05 -6.560998E+03 -1.702130E+06  1.884245E+03 -5.533794E+02
       114  26 -4.540174E+06 -6.661028E+05 -3.603831E+04 -1.691775E+06 -2.520685E+03  2.958807E+03
       114  27 -4.613782E+06 -7.420030E+05 -6.794536E+04 -1.760236E+06 -6.895261E+03  6.386684E+03
       115   1 -3.996653E+06 -5.080235E+05  9.489850E+04 -1.593199E+06  1.330198E+04 -6.967575E+03
       115   2 -3.928532E+06 -4.369090E+05  1.126257E+05 -1.528337E+06  2.468778E+04 -7.580307E+03
       115   3 -3.802213E+06 -4.399916E+05  1.201392E+05 -1.533610E+06  3.590190E+04 -7.712439E+03
       115   4 -4.393233E+06 -6.559872E+05 -1.129432E+04 -1.699297E+06  1.138458E+04 -7.683410E+03
       115   5 -4.422938E+06 -6.231853E+05 -1.960518E+04 -1.662623E+06  2.296578E+04 -8.224539E+03
       115   6 -4.394496E+06 -6.646289E+05 -3.829159E+04 -1.696090E+06  3.437360E+04 -8.285528E+03
       115   7 -4.789658E+06 -8.039411E+05 -1.174999E+05 -1.805333E+06  9.468557E+03 -8.398743E+03
       115   8 -4.917105E+06 -8.094466E+05 -1.518572E+05 -1.796811E+06  2.124530E+04 -8.868203E+03
       115   9 -4.986440E+06 -8.892450E+05 -1.967539E+05 -1.858429E+06  3.284689E+04 -8.858010E+03
       115  10 -3.996653E+06 -5.080236E+05  9.489808E+04 -1.593199E+06  4.729172E-10  1.435374E-09
       115  11 -3.928532E+06 -4.369093E+05  1.126244E+05 -1.528337E+06  1.897084E-09  1.513192E-09
       115  12 -3.802214E+06 -4.399920E+05  1.201367E+05 -1.533610E+06 -2.668774E-10  8.049029E-10
       115  13 -4.393234E+06 -6.559873E+05 -1.129467E+04 -1.699297E+06 -3.879758E-09  2.145051E-09
       115  14 -4.422938E+06 -6.231855E+05 -1.960630E+04 -1.662623E+06 -1.473722E-09 -1.002361E-09
       115  15 -4.394497E+06 -6.646293E+05 -3.829395E+04 -1.696090E+06 -6.910005E-10  4.738364E-10
       115  16 -4.789658E+06 -8.039412E+05 -1.175002E+05 -1.805333E+06 -2.041601E-09 -8.688131E-11
       115  17 -4.917106E+06 -8.094468E+05 -1.518582E+05 -1.796811E+06 -2.058796E-09  1.407262E-09
       115  18 -4.986442E+06 -8.892454E+05 -1.967561E+05 -1.858429E+06 -1.551842E-09 -7.790209E-10
       115  19 -3.996653E+06 -5.080235E+05  9.489850E+04 -1.593199E+06 -1.330198E+04  6.967575E+03
       115  20 -3.928532E+06 -4.369090E+05  1.126257E+05 -1.528337E+06 -2.468778E+04  7.580307E+03
       115  21 -3.802213E+06 -4.399916E+05  1.201392E+05 -1.533610E+06 -3.590190E+04  7.712439E+03
       115  22 -4.393233E+06 -6.559872E+05 -1.129432E+04 -1.699297E+06 -1.138458E+04  7.683410E+03
       115  23 -4.422938E+06 -6.231853E+05 -1.960518E+04 -1.662623E+06 -2.296578E+04  8.224539E+03
       115  24 -4.394496E+06 -6.646289E+05 -3.829159E+04 -1.696090E+06 -3.437360E+04  8.285528E+03
       115  25 -4.789658E+06 -8.039411E+05 -1.174999E+05 -1.805333E+06 -9.468557E+03  8.398743E+03
       115  26 -4.917105E+06 -8.094466E+05 -1.518572E+05 -1.796811E+06 -2.124530E+04  8.868203E+03
       115  27 -4.986440E+06 -8.892450E+05 -1.967539E+05 -1.858429E+06 -3.284689E+04  8.858010E+03
       116   1 -3.649850E+06 -3.775206E+05  1.505947E+05 -1.504800E+06  4.447966E+04 -7.419624E+03
       116   2 -3.590699E+06 -3.010224E+05  1.362889E+05 -1.439845E+06  8.866971E+04  5.068724E+03
       116   3 -3.519695E+06 -3.696743E+05  6.465642E+04 -1.410275E+06  1.318519E+05  2.027526E+04
       116   4 -4.400769E+06 -6.513205E+05 -4.877473E+04 -1.699303E+06  4.235910E+04 -8.214795E+03
       116   5 -4.411854E+06 -6.152228E+05 -8.419264E+04 -1.667911E+06  8.764511E+04  4.680919E+03
       116   6 -4.411364E+06 -7.245825E+05 -1.778720E+05 -1.671901E+06  1.319172E+05  2.029212E+04
       116   7 -5.151143E+06 -9.250962E+05 -2.481930E+05 -1.893597E+06  4.024135E+04 -9.008994E+03
       116   8 -5.232354E+06 -9.293774E+05 -3.047337E+05 -1.895699E+06  8.662193E+04  4.293667E+03
       116   9 -5.302256E+06 -1.079418E+06 -4.204719E+05 -1.933177E+06  1.319822E+05  2.030888E+04
       116  10 -3.649852E+06 -3.775212E+05  1.505909E+05 -1.504800E+06 -2.617440E-09 -5.018712E-10
       116  11 -3.590707E+06 -3.010246E+05  1.362740E+05 -1.439846E+06 -1.694753E-09 -8.727610E-10
       116  12 -3.519714E+06 -3.696794E+05  6.462277E+04 -1.410277E+06 -6.805125E-11 -5.907824E-10
       116  13 -4.400771E+06 -6.513210E+05 -4.877825E+04 -1.699303E+06 -2.117289E-10 -3.240862E-10
       116  14 -4.411863E+06 -6.152249E+05 -8.420722E+04 -1.667911E+06  6.284716E-10  5.777888E-10
       116  15 -4.411382E+06 -7.245876E+05 -1.779057E+05 -1.671903E+06  3.957759E-09  3.373203E-10
       116  16 -5.151144E+06 -9.250967E+05 -2.481962E+05 -1.893596E+06  2.185064E-09  7.186660E-11
       116  17 -5.232363E+06 -9.293795E+05 -3.047480E+05 -1.895700E+06  1.897843E-09 -4.236558E-10
       116  18 -5.302275E+06 -1.079423E+06 -4.205057E+05 -1.933179E+06  1.931923E-09  1.667163E-10
       116  19 -3.649850E+06 -3.775206E+05  1.505947E+05 -1.504800E+06 -4.447966E+04  7.419624E+03
       116  20 -3.590699E+06 -3.010224E+05  1.362889E+05 -1.439845E+06 -8.866971E+04 -5.068724E+03
       116  21 -3.519695E+06 -3.696743E+05  6.465642E+04 -1.410275E+06 -1.318519E+05 -2.027526E+04
       116  22 -4.400769E+06 -6.513205E+05 -4.877473E+04 -1.699303E+06 -4.235910E+04  8.214795E+03
       116  23 -4.411854E+06 -6.152228E+05 -8.419264E+04 -1.667911E+06 -8.764511E+04 -4.680919E+03
       116  24 -4.411364E+06 -7.245825E+05 -1.778720E+05 -1.671901E+06 -1.319172E+05 -2.029212E+04
       116  25 -5.151143E+06 -9.250962E+05 -2.481930E+05 -1.893597E+06 -4.024135E+04  9.008994E+03
       116  26 -5.232354E+06 -9.293774E+05 -3.047337E+05 -1.895699E+06 -8.662193E+04 -4.293667E+03
       116  27 -5.302256E+06 -1.079418E+06 -4.204719E+05 -1.933177E+06 -1.319822E+05 -2.030888E+04
       117   1 -3.370796E+06 -2.975855E+05  5.434887E+04 -1.503814E+06  1.717458E+05  2.928687E+04
       117   2 -3.306228E+06 -8.534323E+04 -7.095719E+04 -1.355535E+06  3.577419E+05  9.658573E+04
       117   3 -3.530326E+06 -7.020544E+05 -5.521365E+05 -1.037787E+06  5.341373E+05  1.893880E+05
       117   4 -4.442965E+06 -6.283371E+05 -2.179702E+05 -1.720076E+06  1.651115E+05  2.681032E+04
       117   5 -4.342649E+06 -5.245801E+05 -3.570330E+05 -1.687209E+06  3.616048E+05  9.800533E+04
       117   6 -4.533661E+06 -1.252774E+06 -8.608092E+05 -1.484725E+06  5.484965E+05  1.946358E+05
       117   7 -5.514018E+06 -9.591018E+05 -4.903778E+05 -1.936041E+06  1.584897E+05  2.433647E+04
       117   8 -5.378016E+06 -9.636712E+05 -6.432080E+05 -2.018351E+06  3.654602E+05  9.942125E+04
       117   9 -5.535936E+06 -1.803046E+06 -1.169577E+06 -1.930893E+06  5.628294E+05  1.998634E+05
       117  10 -3.370828E+06 -2.975945E+05  5.429148E+04 -1.503818E+06 -6.854045E-10  7.688123E-10
       117  11 -3.306369E+06 -8.538794E+04 -7.121684E+04 -1.355563E+06 -4.928307E-10  2.621254E-09
       117  12 -3.530643E+06 -7.021703E+05 -5.527439E+05 -1.037869E+06  7.130142E-10  6.263936E-10
       117  13 -4.442995E+06 -6.283452E+05 -2.180232E+05 -1.720080E+06 -8.242681E-10  1.022351E-09
       117  14 -4.342793E+06 -5.246259E+05 -3.572989E+05 -1.687238E+06  3.853628E-09 -1.159936E-09
       117  15 -4.533997E+06 -1.252897E+06 -8.614510E+05 -1.484812E+06 -1.040327E-09  4.415896E-10
       117  16 -5.514045E+06 -9.591092E+05 -4.904266E+05 -1.936044E+06  9.464430E-10 -1.918004E-10
       117  17 -5.378163E+06 -9.637183E+05 -6.434803E+05 -2.018380E+06 -1.782943E-10  8.021455E-10
       117  18 -5.536290E+06 -1.803175E+06 -1.170254E+06 -1.930984E+06  7.097225E-10  4.321187E-10
       117  19 -3.370796E+06 -2.975855E+05  5.434887E+04 -1.503814E+06 -1.717458E+05 -2.928687E+04
       117  20 -3.306228E+06 -8.534323E+04 -7.095719E+04 -1.355535E+06 -3.577419E+05 -9.658573E+04
       117  21 -3.530326E+06 -7.020544E+05 -5.521365E+05 -1.037787E+06 -5.341373E+05 -1.893880E+05
       117  22 -4.442965E+06 -6.283371E+05 -2.179702E+05 -1.720076E+06 -1.651115E+05 -2.681032E+04
       117  23 -4.342649E+06 -5.245801E+05 -3.570330E+05 -1.687209E+06 -3.616048E+05 -9.800533E+04
       117  24 -4.533661E+06 -1.252774E+06 -8.608092E+05 -1.484725E+06 -5.484965E+05 -1.946358E+05
       117  25 -5.514018E+06 -9.591018E+05 -4.903778E+05 -1.936041E+06 -1.584897E+05 -2.433647E+04
       117  26 -5.378016E+06 -9.636712E+05 -6.432080E+05 -2.018351E+06 -3.654602E+05 -9.942125E+04
       117  27 -5.535936E+06 -1.803046E+06 -1.169577E+06 -1.930893E+06 -5.628294E+05 -1.998634E+05
       118   1 -1.021266E+06  1.331511E+05  1.918781E+05  1.815056E+04  1.712114E+05  1.407020E+03
       118   2 -1.057468E+06 -1.037915E+05  4.835378E+04  4.561901E+03  1.128370E+05  3.160088E+03
       118   3 -1.016655E+06 -6.565953E+04  1.178595E+04 -1.455424E+04  5.446617E+04  2.628636E+03
       118   4 -7.808411E+05  1.931623E+05  2.519038E+05 -3.809898E+03  1.717667E+05  1.402100E+03
       118   5 -8.194167E+05 -4.430561E+04  1.075993E+05 -8.190226E+02  1.129884E+05  3.159262E+03
       118   6 -7.809355E+05 -6.685743E+03  7.050262E+04 -3.356269E+03  5.421396E+04  2.629169E+03
       118   7 -5.403623E+05  2.531710E+05  3.119254E+05 -2.577890E+04  1.723221E+05  1.397142E+03
       118   8 -5.813137E+05  1.517612E+04  1.668405E+05 -6.202038E+03  1.131398E+05  3.158433E+03
       118   9 -5.451656E+05  5.228432E+04  1.292152E+05  7.845949E+03  5.396165E+04  2.629692E+03
       118  10 -1.021298E+06  1.331432E+05  1.918229E+05  1.815037E+04 -4.498978E-11  1.611417E-09
       118  11 -1.057482E+06 -1.037949E+05  4.832979E+04  4.561614E+03  6.225116E-10 -1.057970E-10
       118  12 -1.016658E+06 -6.566034E+04  1.178036E+04 -1.455436E+04  1.157572E-09 -2.536368E-10
       118  13 -7.808728E+05  1.931544E+05  2.518483E+05 -3.810092E+03 -8.327701E-10  3.366067E-10
       118  14 -8.194304E+05 -4.430906E+04  1.075752E+05 -8.193102E+02 -6.244328E-10 -2.099765E-09
       118  15 -7.809387E+05 -6.686540E+03  7.049708E+04 -3.356383E+03  8.006717E-10  5.710994E-11
       118  16 -5.403942E+05  2.531631E+05  3.118695E+05 -2.577910E+04  9.596225E-10 -1.386718E-10
       118  17 -5.813274E+05  1.517267E+04  1.668164E+05 -6.202326E+03 -8.744528E-10 -6.200348E-11
       118  18 -5.451688E+05  5.228353E+04  1.292097E+05  7.845835E+03 -3.037700E-11 -6.009382E-10
       118  19 -1.021266E+06  1.331511E+05  1.918781E+05  1.815056E+04 -1.712114E+05 -1.407020E+03
       118  20 -1.057468E+06 -1.037915E+05  4.835378E+04  4.561901E+03 -1.128370E+05 -3.160088E+03
       118  21 -1.016655E+06 -6.565953E+04  1.178595E+04 -1.455424E+04 -5.446617E+04 -2.628636E+03
       118  22 -7.808411E+05  1.931623E+05  2.519038E+05 -3.809898E+03 -1.717667E+05 -1.402100E+03
       118  23 -8.194167E+05 -4.430561E+04  1.075993E+05 -8.190226E+02 -1.129884E+05 -3.159262E+03
       118  24 -7.809355E+05 -6.685743E+03  7.050262E+04 -3.356269E+03 -5.421396E+04 -2.629169E+03
       118  25 -5.403623E+05  2.531710E+05  3.119254E+05 -2.577890E+04 -1.723221E+05 -1.397142E+03
       118  26 -5.813137E+05  1.517612E+04  1.668405E+05 -6.202038E+03 -1.131398E+05 -3.158433E+03
       118  27 -5.451656E+05  5.228432E+04  1.292152E+05  7.845949E+03 -5.396165E+04 -2.629692E+03
       119   1 -1.005163E+06 -2.358813E+04  5.999329E+03 -1.619750E+03  4.251028E+04  2.182630E+03
       119   2 -1.006836E+06 -5.797272E+04 -2.326737E+04  1.245995E+03  2.798291E+04  2.328003E+03
       119   3 -9.958579E+05 -5.113557E+04 -3.266823E+04 -6.321911E+03  1.345606E+04  2.037373E+03
       119   4 -7.952215E+05  2.889343E+04  5.830142E+04 -4.614250E+03  4.258410E+04  2.182456E+03
       119   5 -8.015607E+05 -6.653706E+03  2.785051E+04  6.201752E+02  2.797920E+04  2.327918E+03
       119   6 -7.952394E+05 -9.729711E+02  1.731464E+04 -4.578852E+03  1.337492E+04  2.037328E+03
       119   7 -5.852404E+05  8.137170E+04  1.106002E+05 -7.609776E+03  4.265794E+04  2.182282E+03
       119   8 -5.962474E+05  4.466213E+04  7.896521E+04 -5.859562E+00  2.797548E+04  2.327832E+03
       119   9 -5.945843E+05  4.918661E+04  6.729449E+04 -2.835234E+03  1.329375E+04  2.037284E+03
       119  10 -1.005165E+06 -2.358862E+04  5.995919E+03 -1.619825E+03 -1.034923E-09 -1.115809E-09
       119  11 -1.006837E+06 -5.797293E+04 -2.326885E+04  1.245942E+03 -1.206164E-09  5.482122E-10
       119  12 -9.958581E+05 -5.113562E+04 -3.266858E+04 -6.321933E+03  1.569421E-09 -2.786254E-10
       119  13 -7.952235E+05  2.889294E+04  5.829800E+04 -4.614324E+03  1.324768E-10 -4.097051E-10
       119  14 -8.015616E+05 -6.653922E+03  2.784902E+04  6.201228E+02  1.059833E-09 -7.600655E-14
       119  15 -7.952396E+05 -9.730237E+02  1.731430E+04 -4.578874E+03  9.110488E-10 -3.208996E-10
       119  16 -5.852423E+05  8.137121E+04  1.105968E+05 -7.609851E+03 -4.233156E-10  3.999658E-10
       119  17 -5.962483E+05  4.466192E+04  7.896373E+04 -5.912014E+00  5.204329E-10 -1.074378E-09
       119  18 -5.945845E+05  4.918656E+04  6.729415E+04 -2.835255E+03  5.120442E-10  1.332560E-10
       119  19 -1.005163E+06 -2.358813E+04  5.999329E+03 -1.619750E+03 -4.251028E+04 -2.182630E+03
       119  20 -1.006836E+06 -5.797272E+04 -2.326737E+04  1.245995E+03 -2.798291E+04 -2.328003E+03
       119  21 -9.958579E+05 -5.113557E+04 -3.266823E+04 -6.321911E+03 -1.345606E+04 -2.037373E+03
       119  22 -7.952215E+05  2.889343E+04  5.830142E+04 -4.614250E+03 -4.258410E+04 -2.182456E+03
       119  23 -8.015607E+05 -6.653706E+03  2.785051E+04  6.201752E+02 -2.797920E+04 -2.327918E+03
       119  24 -7.952394E+05 -9.729711E+02  1.731464E+04 -4.578852E+03 -1.337492E+04 -2.037328E+03
       119  25 -5.852404E+05  8.137170E+04  1.106002E+05 -7.609776E+03 -4.265794E+04 -2.182282E+03
       119  26 -5.962474E+05  4.466213E+04  7.896521E+04 -5.859562E+00 -2.797548E+04 -2.327832E+03
       119  27 -5.945843E+05  4.918661E+04  6.729449E+04 -2.835234E+03 -1.329375E+04 -2.037284E+03
       120   1 -9.558532E+05 -3.529056E+04 -2.557589E+04 -5.150380E+03  1.057219E+04  1.846109E+03
       120   2 -9.503883E+05 -3.892744E+04 -3.069540E+04  1.907821E+03  6.965396E+03  1.673278E+03
       120   3 -9.426828E+05 -3.641602E+04 -3.187994E+04 -5.773924E+03  3.358359E+03  1.369772E+03
       120   4 -7.975462E+05  4.284316E+03  1.383782E+04 -5.547351E+03  1.055615E+04  1.846067E+03
       120   5 -7.986707E+05 -9.975368E+02  7.087990E+03  1.823098E+03  6.926608E+03  1.673251E+03
       120   6 -7.975512E+05 -1.279804E+02  4.288225E+03 -5.546165E+03  3.296860E+03  1.369769E+03
       120   7 -6.392163E+05  4.385731E+04  5.324964E+04 -5.944426E+03  1.054011E+04  1.846025E+03
       120   8 -6.469321E+05  3.693063E+04  4.486965E+04  1.738355E+03  6.887809E+03  1.673223E+03
       120   9 -6.524005E+05  3.615847E+04  4.045480E+04 -5.318352E+03  3.235346E+03  1.369766E+03
       120  10 -9.558533E+05 -3.529060E+04 -2.557610E+04 -5.150396E+03 -2.103215E-10  1.187076E-10
       120  11 -9.503884E+05 -3.892746E+04 -3.069549E+04  1.907811E+03 -3.474146E-09  3.770578E-10
       120  12 -9.426828E+05 -3.641602E+04 -3.187996E+04 -5.773928E+03 -7.820783E-10 -3.299924E-10
       120  13 -7.975463E+05  4.284282E+03  1.383760E+04 -5.547367E+03 -1.094541E-09  6.894691E-11
       120  14 -7.986707E+05 -9.975528E+02  7.087894E+03  1.823089E+03 -3.366068E-09  3.139979E-10
       120  15 -7.975512E+05 -1.279853E+02  4.288201E+03 -5.546169E+03  2.037606E-09 -2.364117E-10
       120  16 -6.392165E+05  4.385728E+04  5.324942E+04 -5.944441E+03 -4.226649E-10  5.582772E-11
       120  17 -6.469322E+05  3.693062E+04  4.486955E+04  1.738345E+03  4.600943E-10  2.258297E-10
       120  18 -6.524005E+05  3.615846E+04  4.045478E+04 -5.318355E+03  3.442001E-10 -6.463701E-11
       120  19 -9.558532E+05 -3.529056E+04 -2.557589E+04 -5.150380E+03 -1.057219E+04 -1.846109E+03
       120  20 -9.503883E+05 -3.892744E+04 -3.069540E+04  1.907821E+03 -6.965396E+03 -1.673278E+03
       120  21 -9.426828E+05 -3.641602E+04 -3.187994E+04 -5.773924E+03 -3.358359E+03 -1.369772E+03
       120  22 -7.975462E+05  4.284316E+03  1.383782E+04 -5.547351E+03 -1.055615E+04 -1.846067E+03
       120  23 -7.986707E+05 -9.975368E+02  7.087990E+03  1.823098E+03 -6.926608E+03 -1.673251E+03
       120  24 -7.975512E+05 -1.279804E+02  4.288225E+03 -5.546165E+03 -3.296860E+03 -1.369769E+03
       120  25 -6.392163E+05  4.385731E+04  5.324964E+04 -5.944426E+03 -1.054011E+04 -1.846025E+03
       120  26 -6.469321E+05  3.693063E+04  4.486965E+04  1.738355E+03 -6.887809E+03 -1.673223E+03
       120  27 -6.524005E+05  3.615847E+04  4.045480E+04 -5.318352E+03 -3.235346E+03 -1.369766E+03
       121   1 -8.886335E+05 -2.203851E+04 -1.920503E+04 -6.100876E+03  2.645742E+03  1.185774E+03
       121   2 -8.809667E+05 -2.085320E+04 -1.880361E+04  2.653580E+03  1.736567E+03  9.090897E+02
       121   3 -8.729035E+05 -1.874093E+04 -1.756867E+04 -6.180951E+03  8.272391E+02  5.814442E+02
       121   4 -7.979567E+05  6.260837E+02  3.355644E+03 -6.179406E+03  2.603779E+03  1.185779E+03
       121   5 -7.981566E+05 -1.511755E+02  1.818749E+03  2.614893E+03  1.685931E+03  9.091085E+02
       121   6 -7.979586E+05 -4.599262E-02  1.121315E+03 -6.179647E+03  7.679432E+02  5.814801E+02
       121   7 -7.072725E+05  2.329006E+04  2.591570E+04 -6.257947E+03  2.561809E+03  1.185784E+03
       121   8 -7.153402E+05  2.055033E+04  2.244059E+04  2.576202E+03  1.635289E+03  9.091272E+02
       121   9 -7.230086E+05  1.874042E+04  1.981087E+04 -6.178343E+03  7.086400E+02  5.815159E+02
       121  10 -8.886335E+05 -2.203852E+04 -1.920505E+04 -6.100879E+03  1.038194E-09  1.431030E-10
       121  11 -8.809667E+05 -2.085320E+04 -1.880361E+04  2.653579E+03  1.883220E-09  7.642383E-10
       121  12 -8.729035E+05 -1.874093E+04 -1.756867E+04 -6.180951E+03 -4.663877E-10  4.489298E-10
       121  13 -7.979567E+05  6.260804E+02  3.355628E+03 -6.179409E+03  1.349870E-09  1.415614E-10
       121  14 -7.981566E+05 -1.511771E+02  1.818742E+03  2.614892E+03 -1.443650E-10 -2.518250E-10
       121  15 -7.979586E+05 -4.651416E-02  1.121313E+03 -6.179648E+03 -1.740842E-09 -5.261027E-11
       121  16 -7.072725E+05  2.329006E+04  2.591569E+04 -6.257949E+03  2.859141E-10 -5.113511E-10
       121  17 -7.153402E+05  2.055033E+04  2.244058E+04  2.576201E+03 -3.582321E-09  6.532206E-13
       121  18 -7.230086E+05  1.874042E+04  1.981087E+04 -6.178343E+03 -1.086273E-09  2.967631E-10
       121  19 -8.886335E+05 -2.203851E+04 -1.920503E+04 -6.100876E+03 -2.645742E+03 -1.185774E+03
       121  20 -8.809667E+05 -2.085320E+04 -1.880361E+04  2.653580E+03 -1.736567E+03 -9.090897E+02
       121  21 -8.729035E+05 -1.874093E+04 -1.756867E+04 -6.180951E+03 -8.272391E+02 -5.814442E+02
       121  22 -7.979567E+05  6.260837E+02  3.355644E+03 -6.179406E+03 -2.603779E+03 -1.185779E+03
       121  23 -7.981566E+05 -1.511755E+02  1.818749E+03  2.614893E+03 -1.685931E+03 -9.091085E+02
       121  24 -7.979586E+05 -4.599256E-02  1.121315E+03 -6.179647E+03 -7.679432E+02 -5.814801E+02
       121  25 -7.072725E+05  2.329006E+04  2.591570E+04 -6.257947E+03 -2.561809E+03 -1.185784E+03
       121  26 -7.153402E+05  2.055033E+04  2.244059E+04  2.576202E+03 -1.635289E+03 -9.091272E+02
       121  27 -7.230086E+05  1.874042E+04  1.981087E+04 -6.178343E+03 -7.086400E+02 -5.815159E+02
       122   1 -8.119018E+05 -3.367823E+03 -2.532875E+03 -6.403170E+03  6.392383E+02  3.820330E+02
       122   2 -8.035844E+05 -1.415349E+03 -7.844808E+02  2.915219E+03  3.428891E+02  5.949810E+01
       122   3 -7.952075E+05  7.549316E+02  1.204568E+03 -6.429811E+03  4.653422E+01 -2.602379E+02
       122   4 -7.980319E+05  9.440015E+01  8.958619E+02 -6.418319E+03  5.848407E+02  3.820719E+02
       122   5 -7.980617E+05 -3.476802E+01  5.908711E+02  2.913370E+03  2.889559E+02  5.953731E+01
       122   6 -7.980321E+05  5.382361E+01  5.262434E+02 -6.418348E+03 -6.930696E+00 -2.601982E+02
       122   7 -7.841619E+05  3.556609E+03  4.324584E+03 -6.433469E+03  5.304420E+02  3.821108E+02
       122   8 -7.925391E+05  1.345810E+03  1.966221E+03  2.911522E+03  2.350222E+02  5.957651E+01
       122   9 -8.008567E+05 -6.472850E+02 -1.520813E+02 -6.406885E+03 -6.039537E+01 -2.601584E+02
       122  10 -8.119018E+05 -3.367823E+03 -2.532876E+03 -6.403170E+03 -5.621871E-10 -4.549642E-10
       122  11 -8.035844E+05 -1.415349E+03 -7.844811E+02  2.915219E+03  2.368359E-09 -1.820654E-10
       122  12 -7.952075E+05  7.549315E+02  1.204567E+03 -6.429811E+03  4.452211E-10  7.903087E-10
       122  13 -7.980319E+05  9.439990E+01  8.958610E+02 -6.418319E+03  3.474024E-09  7.618302E-10
       122  14 -7.980617E+05 -3.476804E+01  5.908709E+02  2.913370E+03 -1.864313E-09 -5.970636E-11
       122  15 -7.980321E+05  5.382354E+01  5.262433E+02 -6.418348E+03 -1.901741E-09 -1.435302E-09
       122  16 -7.841619E+05  3.556608E+03  4.324583E+03 -6.433469E+03  3.544179E-10  2.463754E-10
       122  17 -7.925391E+05  1.345810E+03  1.966221E+03  2.911522E+03 -4.521911E-09  3.400195E-10
       122  18 -8.008567E+05 -6.472850E+02 -1.520815E+02 -6.406885E+03 -2.654955E-09  6.298698E-10
       122  19 -8.119018E+05 -3.367823E+03 -2.532875E+03 -6.403170E+03 -6.392383E+02 -3.820330E+02
       122  20 -8.035844E+05 -1.415349E+03 -7.844808E+02  2.915219E+03 -3.428891E+02 -5.949810E+01
       122  21 -7.952075E+05  7.549316E+02  1.204568E+03 -6.429811E+03 -4.653422E+01  2.602379E+02
       122  22 -7.980319E+05  9.440015E+01  8.958619E+02 -6.418319E+03 -5.848407E+02 -3.820719E+02
       122  23 -7.980617E+05 -3.476802E+01  5.908711E+02  2.913370E+03 -2.889559E+02 -5.953731E+01
       122  24 -7.980321E+05  5.382361E+01  5.262434E+02 -6.418348E+03  6.930696E+00  2.601982E+02
       122  25 -7.841619E+05  3.556609E+03  4.324584E+03 -6.433469E+03 -5.304420E+02 -3.821108E+02
       122  26 -7.925391E+05  1.345810E+03  1.966221E+03  2.911522E+03 -2.350222E+02 -5.957651E+01
       122  27 -8.008567E+05 -6.472850E+02 -1.520813E+02 -6.406885E+03  6.039537E+01  2.601584E+02
       123   1 -7.336570E+05  1.610257E+04  1.659181E+04 -6.252289E+03 -4.091554E+01 -4.659981E+02
       123   2 -7.257730E+05  1.799540E+04  1.868621E+04  2.649262E+03 -4.003236E+02 -8.005184E+02
       123   3 -7.176841E+05  2.041127E+04  2.115089E+04 -6.298567E+03 -7.595951E+02 -1.050767E+03
       123   4 -7.980018E+05  1.293807E+01  5.429591E+02 -6.237534E+03 -1.041717E+02 -4.659563E+02
       123   5 -7.981023E+05 -8.465456E+01  6.762516E+02  2.687293E+03 -4.494002E+02 -8.004962E+02
       123   6 -7.980005E+05  3.383329E+02  1.169976E+03 -6.237390E+03 -7.944873E+02 -1.050760E+03
       123   7 -8.623429E+05 -1.607700E+04 -1.550620E+04 -6.222780E+03 -1.674213E+02 -4.659144E+02
       123   8 -8.704268E+05 -1.816510E+04 -1.733410E+04  2.725319E+03 -4.984711E+02 -8.004740E+02
       123   9 -8.783109E+05 -1.973509E+04 -1.881142E+04 -6.176221E+03 -8.293751E+02 -1.050753E+03
       123  10 -7.336570E+05  1.610256E+04  1.659181E+04 -6.252289E+03  1.145308E-09  1.014061E-09
       123  11 -7.257730E+05  1.799540E+04  1.868620E+04  2.649262E+03 -3.488303E-09 -3.073105E-10
       123  12 -7.176841E+05  2.041127E+04  2.115088E+04 -6.298567E+03 -3.558550E-10  1.559981E-10
       123  13 -7.980018E+05  1.293783E+01  5.429587E+02 -6.237534E+03 -2.577156E-09 -7.190514E-10
       123  14 -7.981023E+05 -8.465530E+01  6.762501E+02  2.687292E+03 -4.328072E-10 -1.499329E-09
       123  15 -7.980005E+05  3.383315E+02  1.169973E+03 -6.237391E+03  9.057896E-10  1.244211E-10
       123  16 -8.623429E+05 -1.607700E+04 -1.550620E+04 -6.222780E+03 -2.544472E-09  1.743238E-09
       123  17 -8.704268E+05 -1.816510E+04 -1.733410E+04  2.725319E+03 -1.723593E-09 -6.337213E-10
       123  18 -8.783109E+05 -1.973509E+04 -1.881142E+04 -6.176222E+03 -9.274937E-11  2.259790E-10
       123  19 -7.336570E+05  1.610257E+04  1.659181E+04 -6.252289E+03  4.091554E+01  4.659981E+02
       123  20 -7.257730E+05  1.799540E+04  1.868621E+04  2.649262E+03  4.003236E+02  8.005184E+02
       123  21 -7.176841E+05  2.041127E+04  2.115089E+04 -6.298567E+03  7.595951E+02  1.050767E+03
       123  22 -7.980018E+05  1.293807E+01  5.429591E+02 -6.237534E+03  1.041717E+02  4.659563E+02
       123  23 -7.981023E+05 -8.465456E+01  6.762516E+02  2.687293E+03  4.494002E+02  8.004962E+02
       123  24 -7.980005E+05  3.383329E+02  1.169976E+03 -6.237390E+03  7.944873E+02  1.050760E+03
       123  25 -8.623429E+05 -1.607700E+04 -1.550620E+04 -6.222780E+03  1.674213E+02  4.659144E+02
       123  26 -8.704268E+05 -1.816510E+04 -1.733410E+04  2.725319E+03  4.984711E+02  8.004740E+02
       123  27 -8.783109E+05 -1.973509E+04 -1.881142E+04 -6.176221E+03  8.293751E+02  1.050753E+03
       124   1 -6.617290E+05  3.394802E+04  3.534428E+04 -5.558735E+03 -9.441362E+02 -1.276596E+03
       124   2 -6.555082E+05  3.517323E+04  3.781348E+04  1.892389E+03 -2.186969E+03 -1.613291E+03
       124   3 -6.480931E+05  3.971712E+04  4.196279E+04 -5.888201E+03 -3.429677E+03 -1.573293E+03
       124   4 -7.977868E+05 -6.570212E+01  1.442241E+03 -5.655747E+03 -1.032180E+03 -1.276584E+03
       124   5 -7.983769E+05 -5.372132E+02  2.244261E+03  1.960028E+03 -2.211537E+03 -1.613313E+03
       124   6 -7.977836E+05  2.299321E+03  4.682548E+03 -5.656128E+03 -3.390756E+03 -1.573311E+03
       124   7 -9.338277E+05 -3.408081E+04 -3.246119E+04 -5.752735E+03 -1.120205E+03 -1.276572E+03
       124   8 -9.412271E+05 -3.624919E+04 -3.332649E+04  2.027652E+03 -2.236100E+03 -1.613335E+03
       124   9 -9.474537E+05 -3.512016E+04 -3.259938E+04 -5.424113E+03 -3.351844E+03 -1.573329E+03
       124  10 -6.617290E+05  3.394801E+04  3.534428E+04 -5.558736E+03  9.856710E-10 -9.010854E-11
       124  11 -6.555082E+05  3.517322E+04  3.781346E+04  1.892386E+03 -4.441402E-09  1.521065E-10
       124  12 -6.480931E+05  3.971711E+04  4.196276E+04 -5.888205E+03 -6.082106E-10 -3.580659E-10
       124  13 -7.977868E+05 -6.570415E+01  1.442236E+03 -5.655748E+03  2.420838E-11  3.828890E-10
       124  14 -7.983769E+05 -5.372173E+02  2.244247E+03  1.960025E+03 -1.220992E-09 -1.000212E-10
       124  15 -7.977836E+05  2.299315E+03  4.682522E+03 -5.656133E+03  2.565446E-09 -2.004206E-10
       124  16 -9.338277E+05 -3.408082E+04 -3.246120E+04 -5.752736E+03 -2.490732E-10  2.298211E-10
       124  17 -9.412271E+05 -3.624920E+04 -3.332650E+04  2.027649E+03  6.093036E-10  1.693444E-10
       124  18 -9.474537E+05 -3.512017E+04 -3.259940E+04 -5.424117E+03  9.044147E-10  2.614792E-10
       124  19 -6.617290E+05  3.394802E+04  3.534428E+04 -5.558735E+03  9.441362E+02  1.276596E+03
       124  20 -6.555082E+05  3.517323E+04  3.781348E+04  1.892389E+03  2.186969E+03  1.613291E+03
       124  21 -6.480931E+05  3.971712E+04  4.196279E+04 -5.888201E+03  3.429677E+03  1.573293E+03
       124  22 -7.977868E+05 -6.570212E+01  1.442241E+03 -5.655747E+03  1.032180E+03  1.276584E+03
       124  23 -7.983769E+05 -5.372132E+02  2.244261E+03  1.960028E+03  2.211537E+03  1.613313E+03
       124  24 -7.977836E+05  2.299321E+03  4.682548E+03 -5.656128E+03  3.390756E+03  1.573311E+03
       124  25 -9.338277E+05 -3.408081E+04 -3.246119E+04 -5.752735E+03  1.120205E+03  1.276572E+03
       124  26 -9.412271E+05 -3.624919E+04 -3.332649E+04  2.027652E+03  2.236100E+03  1.613335E+03
       124  27 -9.474537E+05 -3.512016E+04 -3.259938E+04 -5.424113E+03  3.351844E+03  1.573329E+03
       125   1 -6.025914E+05  4.796447E+04  5.398437E+04 -3.804594E+03 -4.075609E+03 -2.018436E+03
       125   2 -6.009172E+05  4.616189E+04  5.808796E+04  4.555246E+02 -9.124290E+03 -2.488934E+03
       125   3 -5.926401E+05  6.646257E+04  7.109075E+04 -6.370365E+03 -1.417482E+04 -8.781366E+02
       125   4 -7.965993E+05 -5.313729E+02  5.665794E+03 -4.729590E+03 -4.328042E+03 -2.018561E+03
       125   5 -7.998669E+05 -3.558711E+03  8.584223E+03  8.051707E+02 -9.025976E+03 -2.488920E+03
       125   6 -7.965907E+05  1.545999E+04  2.016008E+04 -4.746302E+03 -1.372573E+04 -8.777105E+02
       125   7 -9.905730E+05 -4.903004E+04 -4.265561E+04 -5.654300E+03 -4.580396E+03 -2.018686E+03
       125   8 -9.987806E+05 -5.328229E+04 -4.092248E+04  1.154698E+03 -8.927693E+03 -2.488905E+03
       125   9 -1.000503E+06 -3.554572E+04 -3.077373E+04 -3.122782E+03 -1.327677E+04 -8.772821E+02
       125  10 -6.025914E+05  4.796446E+04  5.398433E+04 -3.804600E+03 -1.029374E-09 -3.927640E-10
       125  11 -6.009173E+05  4.616186E+04  5.808779E+04  4.555063E+02  1.009259E-09  1.001083E-10
       125  12 -5.926403E+05  6.646251E+04  7.109038E+04 -6.370375E+03 -5.943675E-10  5.203731E-10
       125  13 -7.965993E+05 -5.313823E+02  5.665751E+03 -4.729597E+03  6.044365E-10 -6.745740E-10
       125  14 -7.998670E+05 -3.558739E+03  8.584058E+03  8.051526E+02  2.152981E-09  3.697671E-10
       125  15 -7.965909E+05  1.545994E+04  2.015972E+04 -4.746311E+03  2.789351E-09 -3.587066E-10
       125  16 -9.905730E+05 -4.903005E+04 -4.265566E+04 -5.654307E+03 -4.818908E-10  2.664681E-10
       125  17 -9.987807E+05 -5.328232E+04 -4.092265E+04  1.154680E+03  1.255521E-09 -1.678464E-10
       125  18 -1.000504E+06 -3.554577E+04 -3.077407E+04 -3.122792E+03  4.980311E-10  9.541507E-10
       125  19 -6.025914E+05  4.796447E+04  5.398437E+04 -3.804594E+03  4.075609E+03  2.018436E+03
       125  20 -6.009172E+05  4.616189E+04  5.808796E+04  4.555246E+02  9.124290E+03  2.488934E+03
       125  21 -5.926401E+05  6.646257E+04  7.109075E+04 -6.370365E+03  1.417482E+04  8.781366E+02
       125  22 -7.965993E+05 -5.313729E+02  5.665794E+03 -4.729590E+03  4.328042E+03  2.018561E+03
       125  23 -7.998669E+05 -3.558711E+03  8.584223E+03  8.051707E+02  9.025976E+03  2.488920E+03
       125  24 -7.965907E+05  1.545999E+04  2.016008E+04 -4.746302E+03  1.372573E+04  8.777105E+02
       125  25 -9.905730E+05 -4.903004E+04 -4.265561E+04 -5.654300E+03  4.580396E+03  2.018686E+03
       125  26 -9.987806E+05 -5.328229E+04 -4.092248E+04  1.154698E+03  8.927693E+03  2.488905E+03
       125  27 -1.000503E+06 -3.554572E+04 -3.077373E+04 -3.122782E+03  1.327677E+04  8.772821E+02
       126   1  2.313283E+05 -1.100523E+06  2.259860E+05 -8.661558E+04  8.355239E+03  1.198118E+04
       126   2  1.925697E+05 -1.276765E+06  1.771384E+05 -1.541740E+04  2.327898E+04  6.665047E+03
       126   3  1.462076E+05 -1.454514E+06  1.298158E+05 -8.964467E+04  1.664938E+04  1.283021E+03
       126   4 -5.352877E+03 -2.047657E+06 -8.709640E+03 -8.674450E+04  8.388541E+03  2.851035E+02
       126   5  1.288386E+03 -2.046015E+06 -8.606919E+03 -1.402112E+04  2.328697E+04  4.781007E+03
       126   6 -1.383432E+03 -2.047616E+06 -1.380481E+04 -8.673480E+04  1.662024E+04  9.209547E+03
       126   7 -2.421013E+05 -2.993974E+06 -2.434717E+05 -8.687261E+04  8.421875E+03 -1.139311E+04
       126   8 -1.900363E+05 -2.814722E+06 -1.943947E+05 -1.262613E+04  2.329497E+04  2.899295E+03
       126   9 -1.490003E+05 -2.640395E+06 -1.574506E+05 -8.382740E+04  1.659117E+04  1.712851E+04
       126  10  2.313282E+05 -1.100524E+06  2.259856E+05 -8.661566E+04 -2.175674E-10 -2.135457E-09
       126  11  1.925691E+05 -1.276765E+06  1.771373E+05 -1.541753E+04 -3.118340E-10 -8.159139E-09
       126  12  1.462074E+05 -1.454514E+06  1.298153E+05 -8.964469E+04 -2.444215E-09 -3.957097E-09
       126  13 -5.352952E+03 -2.047657E+06 -8.709772E+03 -8.674451E+04  5.342704E-10 -2.616820E-11
       126  14  1.287798E+03 -2.046015E+06 -8.607981E+03 -1.402121E+04  5.328775E-09 -3.252931E-09
       126  15 -1.383752E+03 -2.047616E+06 -1.380549E+04 -8.673492E+04  9.329380E-10 -4.047116E-09
       126  16 -2.421014E+05 -2.993974E+06 -2.434721E+05 -8.687253E+04 -7.865928E-10  2.920964E-09
       126  17 -1.900368E+05 -2.814722E+06 -1.943957E+05 -1.262619E+04  7.806448E-10  1.819118E-09
       126  18 -1.490007E+05 -2.640396E+06 -1.574516E+05 -8.382762E+04 -2.419363E-09  1.854976E-09
       126  19  2.313283E+05 -1.100523E+06  2.259860E+05 -8.661558E+04 -8.355239E+03 -1.198118E+04
       126  20  1.925697E+05 -1.276765E+06  1.771384E+05 -1.541740E+04 -2.327898E+04 -6.665047E+03
       126  21  1.462076E+05 -1.454514E+06  1.298158E+05 -8.964467E+04 -1.664938E+04 -1.283021E+03
       126  22 -5.352877E+03 -2.047657E+06 -8.709640E+03 -8.674450E+04 -8.388541E+03 -2.851035E+02
       126  23  1.288386E+03 -2.046015E+06 -8.606919E+03 -1.402112E+04 -2.328697E+04 -4.781007E+03
       126  24 -1.383432E+03 -2.047616E+06 -1.380481E+04 -8.673480E+04 -1.662024E+04 -9.209547E+03
       126  25 -2.421013E+05 -2.993974E+06 -2.434717E+05 -8.687261E+04 -8.421875E+03  1.139311E+04
       126  26 -1.900363E+05 -2.814722E+06 -1.943947E+05 -1.262613E+04 -2.329497E+04 -2.899295E+03
       126  27 -1.490003E+05 -2.640395E+06 -1.574506E+05 -8.382740E+04 -1.659117E+04 -1.712851E+04
       127   1  8.049887E+04 -1.729468E+06  6.012796E+04 -8.559830E+04  9.196769E+03  9.630292E+03
       127   2  3.809242E+04 -1.905891E+06  5.917849E+03 -1.458380E+04  3.902917E+03  2.355249E+04
       127   3 -3.111039E+04 -2.092254E+06 -6.438585E+04 -9.332854E+04 -1.866618E+03  3.746671E+04
       127   4  1.011632E+03 -2.049044E+06 -1.718681E+04 -8.766982E+04  9.187974E+03  1.190337E+04
       127   5  3.698053E+03 -2.044053E+06 -2.751496E+04 -1.283222E+04  3.893033E+03  2.603921E+04
       127   6 -2.044873E+04 -2.049068E+06 -5.408271E+04 -8.775710E+04 -1.877544E+03  4.017110E+04
       127   7 -7.848308E+04 -2.368526E+06 -9.450891E+04 -8.974017E+04  9.179160E+03  1.417528E+04
       127   8 -3.069770E+04 -2.182197E+06 -6.094911E+04 -1.108102E+04  3.883163E+03  2.852538E+04
       127   9 -9.787085E+03 -2.005880E+06 -4.377967E+04 -8.218527E+04 -1.888421E+03  4.287568E+04
       127  10  8.049876E+04 -1.729468E+06  6.012762E+04 -8.559838E+04 -1.216964E-09  2.065782E-09
       127  11  3.809225E+04 -1.905891E+06  5.916774E+03 -1.458388E+04  1.949156E-09 -3.948470E-09
       127  12 -3.111078E+04 -2.092256E+06 -6.438850E+04 -9.332848E+04  2.020868E-09  8.309128E-10
       127  13  1.011504E+03 -2.049044E+06 -1.718724E+04 -8.766991E+04  3.638451E-09 -3.456122E-11
       127  14  3.697854E+03 -2.044054E+06 -2.751626E+04 -1.283230E+04  1.936458E-09 -4.501214E-09
       127  15 -2.044917E+04 -2.049070E+06 -5.408576E+04 -8.775704E+04  3.359702E-09 -4.610425E-09
       127  16 -7.848323E+04 -2.368526E+06 -9.450944E+04 -8.974027E+04 -6.994003E-10 -1.568423E-09
       127  17 -3.069794E+04 -2.182198E+06 -6.095068E+04 -1.108111E+04  5.433550E-10 -3.455855E-09
       127  18 -9.787585E+03 -2.005882E+06 -4.378314E+04 -8.218521E+04 -2.268441E-09 -3.061148E-09
       127  19  8.049887E+04 -1.729468E+06  6.012796E+04 -8.559830E+04 -9.196769E+03 -9.630292E+03
       127  20  3.809242E+04 -1.905891E+06  5.917849E+03 -1.458380E+04 -3.902917E+03 -2.355249E+04
       127  21 -3.111039E+04 -2.092254E+06 -6.438585E+04 -9.332854E+04  1.866618E+03 -3.746671E+04
       127  22  1.011632E+03 -2.049044E+06 -1.718681E+04 -8.766982E+04 -9.187974E+03 -1.190337E+04
       127  23  3.698053E+03 -2.044053E+06 -2.751496E+04 -1.283222E+04 -3.893033E+03 -2.603921E+04
       127  24 -2.044873E+04 -2.049068E+06 -5.408271E+04 -8.775710E+04  1.877544E+03 -4.017110E+04
       127  25 -7.848308E+04 -2.368526E+06 -9.450891E+04 -8.974017E+04 -9.179160E+03 -1.417528E+04
       127  26 -3.069770E+04 -2.182197E+06 -6.094911E+04 -1.108102E+04 -3.883163E+03 -2.852538E+04
       127  27 -9.787085E+03 -2.005880E+06 -4.377967E+04 -8.218527E+04  1.888421E+03 -4.287568E+04
       128   1 -6.958126E+04 -2.380440E+06 -1.433521E+05 -6.250490E+04 -8.639476E+03  4.372483E+04
       128   2 -9.366657E+04 -2.525740E+06 -2.247197E+05 -2.740251E+04 -1.561226E+04  1.075387E+05
       128   3 -3.572961E+05 -2.740323E+06 -4.078724E+05 -1.406978E+05 -6.385138E+03  1.713935E+05
       128   4  9.987087E+03 -2.061930E+06 -6.598712E+04 -8.717310E+04 -8.668582E+03  5.048489E+04
       128   5  3.003055E+04 -2.028059E+06 -1.045180E+05 -1.331375E+04 -1.560666E+04  1.069722E+05
       128   6 -1.880887E+05 -2.062155E+06 -2.396648E+05 -8.785856E+04 -6.342545E+03  1.635197E+05
       128   7  8.955019E+04 -1.743325E+06  1.137094E+04 -1.118539E+05 -8.698220E+03  5.724842E+04
       128   8  1.537103E+05 -1.530150E+06  1.566605E+04  7.865944E+02 -1.560109E+04  1.064053E+05
       128   9 -1.890490E+04 -1.383562E+06 -7.148970E+04 -3.496092E+04 -6.301326E+03  1.556371E+05
       128  10 -6.958185E+04 -2.380442E+06 -1.433558E+05 -6.250460E+04  9.662719E-10  2.259371E-09
       128  11 -9.366995E+04 -2.525752E+06 -2.247420E+05 -2.740115E+04 -1.869070E-09 -6.345616E-09
       128  12 -3.573041E+05 -2.740354E+06 -4.079279E+05 -1.406969E+05 -1.655989E-09 -3.897677E-09
       128  13  9.986319E+03 -2.061933E+06 -6.599207E+04 -8.717275E+04 -3.332977E-09 -1.842685E-10
       128  14  3.002721E+04 -2.028071E+06 -1.045400E+05 -1.331240E+04 -2.197832E-10 -4.164174E-09
       128  15 -1.880959E+05 -2.062184E+06 -2.397153E+05 -8.785772E+04 -1.486862E-09 -3.980504E-09
       128  16  8.954922E+04 -1.743329E+06  1.136462E+04 -1.118535E+05 -1.899836E-09 -1.462431E-09
       128  17  1.537070E+05 -1.530162E+06  1.564427E+04  7.879319E+02 -1.592624E-09 -4.791452E-10
       128  18 -1.891146E+04 -1.383588E+06 -7.153539E+04 -3.496013E+04  4.784924E-10  2.308432E-09
       128  19 -6.958126E+04 -2.380440E+06 -1.433521E+05 -6.250490E+04  8.639476E+03 -4.372483E+04
       128  20 -9.366657E+04 -2.525740E+06 -2.247197E+05 -2.740251E+04  1.561226E+04 -1.075387E+05
       128  21 -3.572961E+05 -2.740323E+06 -4.078724E+05 -1.406978E+05  6.385138E+03 -1.713935E+05
       128  22  9.987087E+03 -2.061930E+06 -6.598712E+04 -8.717310E+04  8.668582E+03 -5.048489E+04
       128  23  3.003055E+04 -2.028059E+06 -1.045180E+05 -1.331375E+04  1.560666E+04 -1.069722E+05
       128  24 -1.880887E+05 -2.062155E+06 -2.396648E+05 -8.785856E+04  6.342545E+03 -1.635197E+05
       128  25  8.955019E+04 -1.743325E+06  1.137094E+04 -1.118539E+05  8.698220E+03 -5.724842E+04
       128  26  1.537103E+05 -1.530150E+06  1.566605E+04  7.865944E+02  1.560109E+04 -1.064053E+05
       128  27 -1.890490E+04 -1.383562E+06 -7.148970E+04 -3.496092E+04  6.301326E+03 -1.556371E+05
       129   1 -2.622589E+06 -5.028012E+05 -1.945952E+05 -9.392486E+05 -1.330320E+05 -5.062394E+04
       129   2 -2.579411E+06 -3.327688E+05 -7.362122E+04 -1.003271E+06 -8.556392E+04 -3.311128E+04
       129   3 -2.647814E+06 -3.490581E+05 -4.609395E+04 -9.831458E+05 -3.852468E+04 -1.446878E+04
       129   4 -2.693572E+06 -5.137090E+05 -2.109830E+05 -9.422669E+05 -1.331680E+05 -5.067964E+04
       129   5 -2.627125E+06 -3.468011E+05 -8.592782E+04 -1.012150E+06 -8.552886E+04 -3.309874E+04
       129   6 -2.672302E+06 -3.662601E+05 -5.446388E+04 -9.978849E+05 -3.831659E+04 -1.438949E+04
       129   7 -2.764550E+06 -5.246167E+05 -2.273709E+05 -9.452855E+05 -1.333039E+05 -5.073535E+04
       129   8 -2.674837E+06 -3.608334E+05 -9.823460E+04 -1.021029E+06 -8.549379E+04 -3.308620E+04
       129   9 -2.696788E+06 -3.834614E+05 -6.283386E+04 -1.012623E+06 -3.810850E+04 -1.431021E+04
       129  10 -2.622609E+06 -5.028087E+05 -1.946335E+05 -9.392540E+05 -4.232205E-10  7.088946E-10
       129  11 -2.579419E+06 -3.327720E+05 -7.363711E+04 -1.003273E+06 -4.443814E-09  2.238451E-09
       129  12 -2.647816E+06 -3.490588E+05 -4.609715E+04 -9.831462E+05 -7.945273E-10  1.592784E-09
       129  13 -2.693592E+06 -5.137165E+05 -2.110213E+05 -9.422724E+05 -1.941428E-09  1.277061E-09
       129  14 -2.627133E+06 -3.468042E+05 -8.594371E+04 -1.012153E+06 -1.747057E-09  2.089823E-09
       129  15 -2.672303E+06 -3.662607E+05 -5.446705E+04 -9.978853E+05  2.217749E-10  2.154899E-09
       129  16 -2.764570E+06 -5.246243E+05 -2.274093E+05 -9.452909E+05  2.788496E-10 -3.186106E-10
       129  17 -2.674845E+06 -3.608366E+05 -9.825047E+04 -1.021031E+06  2.620482E-10  5.533029E-10
       129  18 -2.696790E+06 -3.834620E+05 -6.283699E+04 -1.012624E+06  3.445973E-10 -8.509900E-10
       129  19 -2.622589E+06 -5.028012E+05 -1.945952E+05 -9.392486E+05  1.330320E+05  5.062394E+04
       129  20 -2.579411E+06 -3.327688E+05 -7.362122E+04 -1.003271E+06  8.556392E+04  3.311128E+04
       129  21 -2.647814E+06 -3.490581E+05 -4.609395E+04 -9.831458E+05  3.852468E+04  1.446878E+04
       129  22 -2.693572E+06 -5.137090E+05 -2.109830E+05 -9.422669E+05  1.331680E+05  5.067964E+04
       129  23 -2.627125E+06 -3.468011E+05 -8.592782E+04 -1.012150E+06  8.552886E+04  3.309874E+04
       129  24 -2.672302E+06 -3.662601E+05 -5.446388E+04 -9.978849E+05  3.831659E+04  1.438949E+04
       129  25 -2.764550E+06 -5.246167E+05 -2.273709E+05 -9.452855E+05  1.333039E+05  5.073535E+04
       129  26 -2.674837E+06 -3.608334E+05 -9.823460E+04 -1.021029E+06  8.549379E+04  3.308620E+04
       129  27 -2.696788E+06 -3.834614E+05 -6.283386E+04 -1.012623E+06  3.810850E+04  1.431021E+04
       130   1 -2.755840E+06 -4.283993E+05 -7.045741E+04 -1.011739E+06 -3.037494E+04 -1.069985E+04
       130   2 -2.750560E+06 -4.166561E+05 -4.935327E+04 -1.035305E+06 -1.981353E+04 -6.105899E+03
       130   3 -2.781742E+06 -4.137473E+05 -4.501252E+04 -1.024396E+06 -9.218514E+03 -1.600886E+03
       130   4 -2.664899E+06 -3.915128E+05 -4.489822E+04 -9.844960E+05 -3.028908E+04 -1.066754E+04
       130   5 -2.645069E+06 -3.760387E+05 -2.018629E+04 -1.005903E+06 -1.974013E+04 -6.078212E+03
       130   6 -2.661695E+06 -3.693937E+05 -1.222608E+04 -9.928376E+05 -9.157311E+03 -1.577785E+03
       130   7 -2.573950E+06 -3.546256E+05 -1.933982E+04 -9.572487E+05 -3.020321E+04 -1.063523E+04
       130   8 -2.539566E+06 -3.354207E+05  8.979643E+03 -9.764973E+05 -1.966672E+04 -6.050519E+03
       130   9 -2.541635E+06 -3.250394E+05  2.055902E+04 -9.612735E+05 -9.096094E+03 -1.554679E+03
       130  10 -2.755841E+06 -4.283996E+05 -7.045937E+04 -1.011740E+06  7.899920E-10  2.961684E-09
       130  11 -2.750561E+06 -4.166562E+05 -4.935408E+04 -1.035305E+06  2.551409E-09  1.219698E-09
       130  12 -2.781742E+06 -4.137474E+05 -4.501269E+04 -1.024396E+06 -3.184226E-10 -3.886274E-10
       130  13 -2.664900E+06 -3.915132E+05 -4.490017E+04 -9.844962E+05  3.547366E-09 -9.593936E-10
       130  14 -2.645069E+06 -3.760389E+05 -2.018710E+04 -1.005904E+06  2.017354E-09 -2.572841E-09
       130  15 -2.661695E+06 -3.693937E+05 -1.222625E+04 -9.928376E+05  1.464121E-09  8.155088E-10
       130  16 -2.573951E+06 -3.546260E+05 -1.934176E+04 -9.572490E+05  9.301421E-11  7.687171E-10
       130  17 -2.539567E+06 -3.354208E+05  8.978843E+03 -9.764974E+05 -2.795889E-09  1.037688E-09
       130  18 -2.541635E+06 -3.250394E+05  2.055886E+04 -9.612735E+05 -1.223655E-09  2.452701E-10
       130  19 -2.755840E+06 -4.283993E+05 -7.045741E+04 -1.011739E+06  3.037494E+04  1.069985E+04
       130  20 -2.750560E+06 -4.166561E+05 -4.935327E+04 -1.035305E+06  1.981353E+04  6.105899E+03
       130  21 -2.781742E+06 -4.137473E+05 -4.501252E+04 -1.024396E+06  9.218514E+03  1.600886E+03
       130  22 -2.664899E+06 -3.915128E+05 -4.489822E+04 -9.844960E+05  3.028908E+04  1.066754E+04
       130  23 -2.645069E+06 -3.760387E+05 -2.018629E+04 -1.005903E+06  1.974013E+04  6.078212E+03
       130  24 -2.661695E+06 -3.693937E+05 -1.222608E+04 -9.928376E+05  9.157311E+03  1.577785E+03
       130  25 -2.573950E+06 -3.546256E+05 -1.933982E+04 -9.572487E+05  3.020321E+04  1.063523E+04
       130  26 -2.539566E+06 -3.354207E+05  8.979643E+03 -9.764973E+05  1.966672E+04  6.050519E+03
       130  27 -2.541635E+06 -3.250394E+05  2.055902E+04 -9.612735E+05  9.096094E+03  1.554679E+03
       131   1 -2.863394E+06 -4.540269E+05 -6.649921E+04 -1.050186E+06 -7.572853E+03 -5.925527E+02
       131   2 -2.863440E+06 -4.577729E+05 -6.330272E+04 -1.059297E+06 -5.166654E+03  8.657324E+02
       131   3 -2.876208E+06 -4.551397E+05 -6.322647E+04 -1.054343E+06 -2.586923E+03  1.864365E+03
       131   4 -2.657815E+06 -3.756807E+05 -9.777066E+03 -9.937277E+05 -7.463037E+03 -5.511791E+02
       131   5 -2.651226E+06 -3.772550E+05 -4.867972E+03 -1.001370E+06 -5.128044E+03  8.802111E+02
       131   6 -2.657343E+06 -3.724350E+05 -3.021626E+03 -9.949474E+05 -2.619518E+03  1.852031E+03
       131   7 -2.452195E+06 -2.973318E+05  4.694124E+04 -9.372529E+05 -7.353180E+03 -5.097900E+02
       131   8 -2.438968E+06 -2.967345E+05  5.356266E+04 -9.434251E+05 -5.089418E+03  8.946954E+02
       131   9 -2.438431E+06 -2.897276E+05  5.717882E+04 -9.355329E+05 -2.652126E+03  1.839694E+03
       131  10 -2.863394E+06 -4.540269E+05 -6.649932E+04 -1.050186E+06  6.622819E-10  7.007488E-10
       131  11 -2.863440E+06 -4.577729E+05 -6.330277E+04 -1.059297E+06 -3.732422E-09 -1.447174E-09
       131  12 -2.876208E+06 -4.551397E+05 -6.322649E+04 -1.054343E+06 -1.231079E-10 -2.446476E-10
       131  13 -2.657815E+06 -3.756807E+05 -9.777172E+03 -9.937277E+05  3.238004E-09 -5.848096E-10
       131  14 -2.651226E+06 -3.772550E+05 -4.868023E+03 -1.001370E+06 -1.117695E-09  2.409941E-09
       131  15 -2.657343E+06 -3.724350E+05 -3.021645E+03 -9.949474E+05 -1.122600E-09  1.615136E-09
       131  16 -2.452195E+06 -2.973318E+05  4.694113E+04 -9.372529E+05  1.443086E-09 -4.826184E-11
       131  17 -2.438968E+06 -2.967345E+05  5.356261E+04 -9.434251E+05 -4.681567E-10  2.227069E-09
       131  18 -2.438431E+06 -2.897276E+05  5.717880E+04 -9.355329E+05  1.565368E-10  1.436462E-09
       131  19 -2.863394E+06 -4.540269E+05 -6.649921E+04 -1.050186E+06  7.572853E+03  5.925527E+02
       131  20 -2.863440E+06 -4.577729E+05 -6.330272E+04 -1.059297E+06  5.166654E+03 -8.657324E+02
       131  21 -2.876208E+06 -4.551397E+05 -6.322647E+04 -1.054343E+06  2.586923E+03 -1.864365E+03
       131  22 -2.657815E+06 -3.756807E+05 -9.777066E+03 -9.937277E+05  7.463037E+03  5.511791E+02
       131  23 -2.651226E+06 -3.772550E+05 -4.867972E+03 -1.001370E+06  5.128044E+03 -8.802111E+02
       131  24 -2.657343E+06 -3.724350E+05 -3.021626E+03 -9.949474E+05  2.619518E+03 -1.852031E+03
       131  25 -2.452195E+06 -2.973318E+05  4.694124E+04 -9.372529E+05  7.353180E+03  5.097900E+02
       131  26 -2.438968E+06 -2.967345E+05  5.356266E+04 -9.434251E+05  5.089418E+03 -8.946954E+02
       131  27 -2.438431E+06 -2.897276E+05  5.717882E+04 -9.355329E+05  2.652126E+03 -1.839694E+03
       132   1 -2.886498E+06 -4.649025E+05 -6.668235E+04 -1.062323E+06 -2.249619E+03  2.055085E+03
       132   2 -2.886244E+06 -4.602634E+05 -6.513967E+04 -1.058497E+06 -1.278130E+03  2.567798E+03
       132   3 -2.880350E+06 -4.620214E+05 -6.447709E+04 -1.060477E+06 -1.119568E+02  2.561383E+03
       132   4 -2.653457E+06 -3.766194E+05 -2.521166E+03 -9.988573E+05 -2.189038E+03  2.077781E+03
       132   5 -2.656265E+06 -3.732853E+05 -1.869052E+03 -9.960090E+05 -1.298517E+03  2.560066E+03
       132   6 -2.653417E+06 -3.763315E+05 -2.032344E+03 -9.989663E+05 -2.133533E+02  2.523315E+03
       132   7 -2.420363E+06 -2.883333E+05  6.163501E+04 -9.353698E+05 -2.128432E+03  2.100487E+03
       132   8 -2.426235E+06 -2.863043E+05  6.139665E+04 -9.335000E+05 -1.318912E+03  2.552332E+03
       132   9 -2.426435E+06 -2.906389E+05  6.040756E+04 -9.374355E+05 -3.147908E+02  2.485231E+03
       132  10 -2.886498E+06 -4.649025E+05 -6.668237E+04 -1.062323E+06  6.849823E-10 -4.125930E-11
       132  11 -2.886244E+06 -4.602634E+05 -6.513969E+04 -1.058497E+06  3.856770E-10 -9.635517E-10
       132  12 -2.880350E+06 -4.620214E+05 -6.447710E+04 -1.060477E+06  8.794101E-10 -1.152307E-10
       132  13 -2.653457E+06 -3.766194E+05 -2.521183E+03 -9.988573E+05  3.961982E-09  2.795210E-10
       132  14 -2.656265E+06 -3.732853E+05 -1.869068E+03 -9.960090E+05  1.484090E-09  1.300874E-09
       132  15 -2.653417E+06 -3.763315E+05 -2.032356E+03 -9.989663E+05  1.927684E-09  6.709013E-10
       132  16 -2.420363E+06 -2.883333E+05  6.163499E+04 -9.353698E+05  2.227498E-09  5.360433E-10
       132  17 -2.426235E+06 -2.863043E+05  6.139664E+04 -9.335000E+05  3.522757E-09 -6.604432E-10
       132  18 -2.426435E+06 -2.906389E+05  6.040755E+04 -9.374355E+05  9.389091E-10  2.294863E-10
       132  19 -2.886498E+06 -4.649025E+05 -6.668235E+04 -1.062323E+06  2.249619E+03 -2.055085E+03
       132  20 -2.886244E+06 -4.602634E+05 -6.513967E+04 -1.058497E+06  1.278130E+03 -2.567798E+03
       132  21 -2.880350E+06 -4.620214E+05 -6.447709E+04 -1.060477E+06  1.119568E+02 -2.561383E+03
       132  22 -2.653457E+06 -3.766194E+05 -2.521166E+03 -9.988573E+05  2.189038E+03 -2.077781E+03
       132  23 -2.656265E+06 -3.732853E+05 -1.869052E+03 -9.960090E+05  1.298517E+03 -2.560066E+03
       132  24 -2.653417E+06 -3.763315E+05 -2.032344E+03 -9.989663E+05  2.133533E+02 -2.523315E+03
       132  25 -2.420363E+06 -2.883333E+05  6.163501E+04 -9.353698E+05  2.128432E+03 -2.100487E+03
       132  26 -2.426235E+06 -2.863043E+05  6.139665E+04 -9.335000E+05  1.318912E+03 -2.552332E+03
       132  27 -2.426435E+06 -2.906389E+05  6.040756E+04 -9.374355E+05  3.147908E+02 -2.485231E+03
       133   1 -2.812921E+06 -4.408312E+05 -4.704307E+04 -1.046872E+06  2.518675E+02  2.431017E+03
       133   2 -2.811170E+06 -4.261349E+05 -4.514415E+04 -1.032406E+06  2.237492E+03  2.837666E+03
       133   3 -2.790589E+06 -4.334349E+05 -4.521918E+04 -1.039917E+06  4.348041E+03  2.909303E+03
       133   4 -2.650420E+06 -3.793760E+05 -2.356856E+03 -1.002714E+06  2.319931E+02  2.423531E+03
       133   5 -2.659942E+06 -3.690876E+05 -3.570171E+03 -9.914645E+05  2.165571E+03  2.810722E+03
       133   6 -2.650624E+06 -3.807844E+05 -6.715646E+03 -1.002191E+06  4.224021E+03  2.862926E+03
       133   7 -2.487893E+06 -3.179191E+05  4.232702E+04 -9.585457E+05  2.121129E+02  2.416044E+03
       133   8 -2.508692E+06 -3.120389E+05  3.800178E+04 -9.505136E+05  2.093631E+03  2.783772E+03
       133   9 -2.510641E+06 -3.281327E+05  3.178614E+04 -9.644577E+05  4.099971E+03  2.816537E+03
       133  10 -2.812921E+06 -4.408312E+05 -4.704308E+04 -1.046872E+06  1.627932E-09 -4.932032E-10
       133  11 -2.811170E+06 -4.261349E+05 -4.514418E+04 -1.032406E+06 -2.520108E-09 -1.703570E-09
       133  12 -2.790589E+06 -4.334349E+05 -4.521923E+04 -1.039917E+06 -1.990676E-09 -3.750342E-10
       133  13 -2.650420E+06 -3.793760E+05 -2.356867E+03 -1.002714E+06  1.140530E-09  5.990057E-11
       133  14 -2.659942E+06 -3.690876E+05 -3.570194E+03 -9.914645E+05  2.403490E-09  2.151791E-10
       133  15 -2.650624E+06 -3.807844E+05 -6.715695E+03 -1.002191E+06  2.482978E-09  2.082355E-10
       133  16 -2.487893E+06 -3.179191E+05  4.232701E+04 -9.585457E+05  1.935821E-09  7.987538E-10
       133  17 -2.508692E+06 -3.120389E+05  3.800176E+04 -9.505136E+05  2.979390E-09  2.629962E-09
       133  18 -2.510641E+06 -3.281328E+05  3.178609E+04 -9.644577E+05 -5.950194E-12 -1.438806E-10
       133  19 -2.812921E+06 -4.408312E+05 -4.704307E+04 -1.046872E+06 -2.518675E+02 -2.431017E+03
       133  20 -2.811170E+06 -4.261349E+05 -4.514415E+04 -1.032406E+06 -2.237492E+03 -2.837666E+03
       133  21 -2.790589E+06 -4.334349E+05 -4.521918E+04 -1.039917E+06 -4.348041E+03 -2.909303E+03
       133  22 -2.650420E+06 -3.793760E+05 -2.356856E+03 -1.002714E+06 -2.319931E+02 -2.423531E+03
       133  23 -2.659942E+06 -3.690876E+05 -3.570171E+03 -9.914645E+05 -2.165571E+03 -2.810722E+03
       133  24 -2.650624E+06 -3.807844E+05 -6.715646E+03 -1.002191E+06 -4.224021E+03 -2.862926E+03
       133  25 -2.487893E+06 -3.179191E+05  4.232702E+04 -9.585457E+05 -2.121129E+02 -2.416044E+03
       133  26 -2.508692E+06 -3.120389E+05  3.800178E+04 -9.505136E+05 -2.093631E+03 -2.783772E+03
       133  27 -2.510641E+06 -3.281327E+05  3.178614E+04 -9.644577E+05 -4.099971E+03 -2.816537E+03
       134   1 -2.673772E+06 -3.900223E+05 -1.515697E+04 -1.011757E+06  5.744792E+03  2.946134E+03
       134   2 -2.669759E+06 -3.686867E+05 -1.706418E+04 -9.922213E+05  1.350533E+04  5.162136E+03
       134   3 -2.646676E+06 -3.879795E+05 -2.867136E+04 -9.985647E+05  2.125635E+04  7.404313E+03
       134   4 -2.649942E+06 -3.804760E+05 -8.542162E+03 -1.004717E+06  5.648800E+03  2.910271E+03
       134   5 -2.660206E+06 -3.653030E+05 -1.448119E+04 -9.898620E+05  1.341352E+04  5.127825E+03
       134   6 -2.651401E+06 -3.907592E+05 -3.012359E+04 -1.000886E+06  2.116854E+04  7.371463E+03
       134   7 -2.626111E+06 -3.709297E+05 -1.927418E+03 -9.976780E+05  5.552805E+03  2.874407E+03
       134   8 -2.650653E+06 -3.619193E+05 -1.189820E+04 -9.875027E+05  1.332171E+04  5.093514E+03
       134   9 -2.656126E+06 -3.935389E+05 -3.157582E+04 -1.003206E+06  2.108073E+04  7.338614E+03
       134  10 -2.673772E+06 -3.900223E+05 -1.515705E+04 -1.011757E+06  5.183753E-10  2.225454E-09
       134  11 -2.669760E+06 -3.686868E+05 -1.706458E+04 -9.922213E+05  1.085779E-09  6.283029E-10
       134  12 -2.646676E+06 -3.879797E+05 -2.867232E+04 -9.985648E+05 -1.253001E-09  2.575582E-10
       134  13 -2.649942E+06 -3.804760E+05 -8.542239E+03 -1.004717E+06 -7.158423E-10 -3.872016E-11
       134  14 -2.660206E+06 -3.653031E+05 -1.448158E+04 -9.898621E+05 -2.123985E-09 -3.893091E-09
       134  15 -2.651401E+06 -3.907594E+05 -3.012454E+04 -1.000886E+06  1.391020E-09  2.180134E-09
       134  16 -2.626111E+06 -3.709297E+05 -1.927492E+03 -9.976780E+05 -2.552962E-09 -1.681134E-09
       134  17 -2.650653E+06 -3.619193E+05 -1.189859E+04 -9.875028E+05 -8.705188E-10  2.834915E-09
       134  18 -2.656127E+06 -3.935391E+05 -3.157676E+04 -1.003206E+06 -5.958552E-10  9.649041E-10
       134  19 -2.673772E+06 -3.900223E+05 -1.515697E+04 -1.011757E+06 -5.744792E+03 -2.946134E+03
       134  20 -2.669759E+06 -3.686867E+05 -1.706418E+04 -9.922213E+05 -1.350533E+04 -5.162136E+03
       134  21 -2.646676E+06 -3.879795E+05 -2.867136E+04 -9.985647E+05 -2.125635E+04 -7.404313E+03
       134  22 -2.649942E+06 -3.804760E+05 -8.542162E+03 -1.004717E+06 -5.648800E+03 -2.910271E+03
       134  23 -2.660206E+06 -3.653030E+05 -1.448119E+04 -9.898620E+05 -1.341352E+04 -5.127825E+03
       134  24 -2.651401E+06 -3.907592E+05 -3.012359E+04 -1.000886E+06 -2.116854E+04 -7.371463E+03
       134  25 -2.626111E+06 -3.709297E+05 -1.927418E+03 -9.976780E+05 -5.552805E+03 -2.874407E+03
       134  26 -2.650653E+06 -3.619193E+05 -1.189820E+04 -9.875027E+05 -1.332171E+04 -5.093514E+03
       134  27 -2.656126E+06 -3.935389E+05 -3.157582E+04 -1.003206E+06 -2.108073E+04 -7.338614E+03
       135   1 -2.528772E+06 -3.339714E+05 -3.391606E+03 -9.755870E+05  2.713943E+04  9.059343E+03
       135   2 -2.515325E+06 -2.998756E+05 -2.487427E+04 -9.554481E+05  6.057715E+04  2.079576E+04
       135   3 -2.522226E+06 -3.857863E+05 -9.814564E+04 -9.342018E+05  9.377470E+04  3.317623E+04
       135   4 -2.655923E+06 -3.782231E+05 -3.765642E+04 -1.006170E+06  2.698009E+04  8.999983E+03
       135   5 -2.650618E+06 -3.526332E+05 -6.240069E+04 -9.938621E+05  6.051163E+04  2.077101E+04
       135   6 -2.665690E+06 -4.470826E+05 -1.390175E+05 -9.804449E+05  9.380252E+04  3.318525E+04
       135   7 -2.783058E+06 -4.224744E+05 -7.192261E+04 -1.036748E+06  2.682078E+04  8.940634E+03
       135   8 -2.785895E+06 -4.053894E+05 -9.992882E+04 -1.032268E+06  6.044611E+04  2.074627E+04
       135   9 -2.809135E+06 -5.083762E+05 -1.798913E+05 -1.026678E+06  9.383033E+04  3.319428E+04
       135  10 -2.528773E+06 -3.339717E+05 -3.393152E+03 -9.755872E+05  1.213667E-09  1.267897E-10
       135  11 -2.515329E+06 -2.998770E+05 -2.488201E+04 -9.554492E+05  2.362287E-10 -2.485056E-11
       135  12 -2.522235E+06 -3.857898E+05 -9.816432E+04 -9.342043E+05 -4.420529E-10 -9.342441E-10
       135  13 -2.655924E+06 -3.782234E+05 -3.765794E+04 -1.006171E+06 -7.391741E-10  1.150465E-09
       135  14 -2.650623E+06 -3.526346E+05 -6.240842E+04 -9.938632E+05 -6.554682E-10  1.772220E-09
       135  15 -2.665700E+06 -4.470862E+05 -1.390362E+05 -9.804474E+05 -9.984032E-10 -4.113119E-11
       135  16 -2.783059E+06 -4.224746E+05 -7.192412E+04 -1.036748E+06  1.279965E-09  7.722087E-10
       135  17 -2.785899E+06 -4.053908E+05 -9.993654E+04 -1.032269E+06  1.031099E-09  1.037225E-09
       135  18 -2.809145E+06 -5.083798E+05 -1.799100E+05 -1.026680E+06 -4.677063E-10 -6.848465E-10
       135  19 -2.528772E+06 -3.339714E+05 -3.391606E+03 -9.755870E+05 -2.713943E+04 -9.059343E+03
       135  20 -2.515325E+06 -2.998756E+05 -2.487427E+04 -9.554481E+05 -6.057715E+04 -2.079576E+04
       135  21 -2.522226E+06 -3.857863E+05 -9.814564E+04 -9.342018E+05 -9.377470E+04 -3.317623E+04
       135  22 -2.655923E+06 -3.782231E+05 -3.765642E+04 -1.006170E+06 -2.698009E+04 -8.999983E+03
       135  23 -2.650618E+06 -3.526332E+05 -6.240069E+04 -9.938621E+05 -6.051163E+04 -2.077101E+04
       135  24 -2.665690E+06 -4.470826E+05 -1.390175E+05 -9.804449E+05 -9.380252E+04 -3.318525E+04
       135  25 -2.783058E+06 -4.224744E+05 -7.192261E+04 -1.036748E+06 -2.682078E+04 -8.940634E+03
       135  26 -2.785895E+06 -4.053894E+05 -9.992882E+04 -1.032268E+06 -6.044611E+04 -2.074627E+04
       135  27 -2.809135E+06 -5.083762E+05 -1.798913E+05 -1.026678E+06 -9.383033E+04 -3.319428E+04
       136   1 -2.451339E+06 -3.010510E+05 -1.077174E+05 -9.800429E+05  1.199143E+05  4.233114E+04
       136   2 -2.377318E+06 -1.696205E+05 -2.041239E+05 -9.437165E+05  2.670342E+05  9.684832E+04
       136   3 -2.561682E+06 -7.015711E+05 -5.898130E+05 -7.448759E+05  4.131383E+05  1.540871E+05
       136   4 -2.690170E+06 -3.670171E+05 -1.685863E+05 -1.019864E+06  1.195837E+05  4.221310E+04
       136   5 -2.593487E+06 -2.638991E+05 -2.660484E+05 -1.015366E+06  2.670796E+05  9.685847E+04
       136   6 -2.755356E+06 -8.243828E+05 -6.531719E+05 -8.483257E+05  4.135654E+05  1.542059E+05
       136   7 -2.928947E+06 -4.329850E+05 -2.294592E+05 -1.059675E+06  1.192533E+05  4.209508E+04
       136   8 -2.809610E+06 -3.581703E+05 -3.279774E+05 -1.086992E+06  2.671250E+05  9.686861E+04
       136   9 -2.948986E+06 -9.471658E+05 -7.165340E+05 -9.517392E+05  4.139922E+05  1.543246E+05
       136  10 -2.451355E+06 -3.010568E+05 -1.077480E+05 -9.800470E+05 -1.543421E-09 -4.533558E-10
       136  11 -2.377398E+06 -1.696499E+05 -2.042763E+05 -9.437374E+05 -9.412661E-10  8.773854E-10
       136  12 -2.561872E+06 -7.016428E+05 -5.901800E+05 -7.449274E+05 -2.268489E-10  6.616452E-10
       136  13 -2.690186E+06 -3.670229E+05 -1.686166E+05 -1.019869E+06  1.246292E-09  3.188835E-10
       136  14 -2.593566E+06 -2.639285E+05 -2.662009E+05 -1.015387E+06 -1.143574E-09 -2.484774E-12
       136  15 -2.755547E+06 -8.244547E+05 -6.535398E+05 -8.483773E+05 -1.156826E-10  3.010770E-10
       136  16 -2.928963E+06 -4.329907E+05 -2.294894E+05 -1.059679E+06  1.522265E-09 -3.439027E-10
       136  17 -2.809689E+06 -3.581997E+05 -3.281299E+05 -1.087013E+06 -2.393188E-10  2.954164E-10
       136  18 -2.949177E+06 -9.472378E+05 -7.169028E+05 -9.517908E+05 -1.887051E-09 -3.183127E-11
       136  19 -2.451339E+06 -3.010510E+05 -1.077174E+05 -9.800429E+05 -1.199143E+05 -4.233114E+04
       136  20 -2.377318E+06 -1.696205E+05 -2.041239E+05 -9.437165E+05 -2.670342E+05 -9.684832E+04
       136  21 -2.561682E+06 -7.015711E+05 -5.898130E+05 -7.448759E+05 -4.131383E+05 -1.540871E+05
       136  22 -2.690170E+06 -3.670171E+05 -1.685863E+05 -1.019864E+06 -1.195837E+05 -4.221310E+04
       136  23 -2.593487E+06 -2.638991E+05 -2.660484E+05 -1.015366E+06 -2.670796E+05 -9.685847E+04
       136  24 -2.755356E+06 -8.243828E+05 -6.531719E+05 -8.483257E+05 -4.135654E+05 -1.542059E+05
       136  25 -2.928947E+06 -4.329850E+05 -2.294592E+05 -1.059675E+06 -1.192533E+05 -4.209508E+04
       136  26 -2.809610E+06 -3.581703E+05 -3.279774E+05 -1.086992E+06 -2.671250E+05 -9.686861E+04
       136  27 -2.948986E+06 -9.471658E+05 -7.165340E+05 -9.517392E+05 -4.139922E+05 -1.543246E+05
       137   1 -7.456980E+05  1.125583E+04  2.469482E+04  2.453360E+03  3.894063E+04  5.957605E+02
       137   2 -7.521608E+05 -4.236221E+04 -7.552542E+03  1.324719E+03  2.574291E+04  1.626209E+03
       137   3 -7.410238E+05 -3.320178E+04 -1.546843E+04 -5.057791E+03  1.254621E+04  1.354353E+03
       137   4 -6.143035E+05  4.410257E+04  5.750451E+04 -2.547009E+03  3.923109E+04  5.957578E+02
       137   5 -6.231287E+05 -1.011712E+04  2.455407E+04  1.049133E+02  2.581226E+04  1.626196E+03
       137   6 -6.143192E+05 -1.526901E+03  1.608511E+04 -2.496938E+03  1.239451E+04  1.354287E+03
       137   7 -4.828933E+05  7.694810E+04  9.031291E+04 -7.548443E+03  3.952162E+04  5.957505E+02
       137   8 -4.940814E+05  2.212673E+04  5.665943E+04 -1.115150E+03  2.588163E+04  1.626182E+03
       137   9 -4.876000E+05  3.014679E+04  4.763745E+04  6.443664E+01  1.224277E+04  1.354219E+03
       137  10 -7.456997E+05  1.125542E+04  2.469196E+04  2.453342E+03  1.113455E-09 -1.644055E-09
       137  11 -7.521615E+05 -4.236239E+04 -7.553794E+03  1.324685E+03  2.439521E-10 -7.593368E-10
       137  12 -7.410240E+05 -3.320182E+04 -1.546873E+04 -5.057805E+03  1.385265E-09 -6.523511E-10
       137  13 -6.143052E+05  4.410215E+04  5.750161E+04 -2.547028E+03 -2.211048E-09  4.215036E-10
       137  14 -6.231294E+05 -1.011730E+04  2.455281E+04  1.048795E+02  8.599055E-10 -7.332608E-10
       137  15 -6.143193E+05 -1.526945E+03  1.608482E+04 -2.496951E+03  1.968940E-09 -6.738572E-10
       137  16 -4.828950E+05  7.694768E+04  9.030998E+04 -7.548462E+03 -5.015643E-10  4.659022E-10
       137  17 -4.940821E+05  2.212655E+04  5.665817E+04 -1.115184E+03 -6.484061E-10 -3.176986E-10
       137  18 -4.876001E+05  3.014675E+04  4.763717E+04  6.442329E+01  1.630402E-10  1.414570E-09
       137  19 -7.456980E+05  1.125583E+04  2.469482E+04  2.453360E+03 -3.894063E+04 -5.957605E+02
       137  20 -7.521608E+05 -4.236221E+04 -7.552542E+03  1.324719E+03 -2.574291E+04 -1.626209E+03
       137  21 -7.410238E+05 -3.320178E+04 -1.546843E+04 -5.057791E+03 -1.254621E+04 -1.354353E+03
       137  22 -6.143035E+05  4.410257E+04  5.750451E+04 -2.547009E+03 -3.923109E+04 -5.957578E+02
       137  23 -6.231287E+05 -1.011712E+04  2.455407E+04  1.049133E+02 -2.581226E+04 -1.626196E+03
       137  24 -6.143192E+05 -1.526901E+03  1.608511E+04 -2.496938E+03 -1.239451E+04 -1.354287E+03
       137  25 -4.828933E+05  7.694810E+04  9.031291E+04 -7.548443E+03 -3.952162E+04 -5.957505E+02
       137  26 -4.940814E+05  2.212673E+04  5.665943E+04 -1.115150E+03 -2.588163E+04 -1.626182E+03
       137  27 -4.876000E+05  3.014679E+04  4.763745E+04  6.443664E+01 -1.224277E+04 -1.354219E+03
       138   1 -7.231755E+05 -1.979699E+04 -1.300429E+04 -2.302684E+03  9.710825E+03  1.092683E+03
       138   2 -7.213203E+05 -2.708271E+04 -1.913887E+04  8.501889E+02  6.432132E+03  1.151733E+03
       138   3 -7.165747E+05 -2.496623E+04 -2.076388E+04 -3.378152E+03  3.153477E+03  9.784361E+02
       138   4 -6.175890E+05  6.594605E+03  1.329283E+04 -2.987820E+03  9.741658E+03  1.092676E+03
       138   5 -6.190391E+05 -1.518537E+03  6.324762E+03  7.045073E+02  6.423466E+03  1.151716E+03
       138   6 -6.175924E+05 -2.234410E+02  3.893165E+03 -2.984301E+03  3.105329E+03  9.784202E+02
       138   7 -5.119923E+05  3.298536E+04  3.958912E+04 -3.673073E+03  9.772496E+03  1.092669E+03
       138   8 -5.167483E+05  2.404485E+04  3.178761E+04  5.588008E+02  6.414798E+03  1.151700E+03
       138   9 -5.186012E+05  2.451861E+04  2.854948E+04 -2.590387E+03  3.057173E+03  9.784043E+02
       138  10 -7.231756E+05 -1.979702E+04 -1.300447E+04 -2.302692E+03  2.017948E-09  2.248459E-10
       138  11 -7.213204E+05 -2.708273E+04 -1.913895E+04  8.501829E+02 -4.392668E-09  3.242888E-10
       138  12 -7.165747E+05 -2.496623E+04 -2.076390E+04 -3.378155E+03 -1.001785E-09 -6.149127E-10
       138  13 -6.175891E+05  6.594578E+03  1.329265E+04 -2.987828E+03 -3.407332E-09  1.353502E-09
       138  14 -6.190391E+05 -1.518549E+03  6.324682E+03  7.045013E+02 -1.412915E-09  5.009651E-10
       138  15 -6.175924E+05 -2.234446E+02  3.893145E+03 -2.984304E+03  7.979995E-10 -6.935584E-10
       138  16 -5.119924E+05  3.298534E+04  3.958894E+04 -3.673082E+03 -1.258257E-09  1.137703E-09
       138  17 -5.167484E+05  2.404484E+04  3.178753E+04  5.587949E+02 -1.275986E-09  3.397981E-11
       138  18 -5.186012E+05  2.451860E+04  2.854946E+04 -2.590390E+03  1.984209E-09 -1.907989E-10
       138  19 -7.231755E+05 -1.979699E+04 -1.300429E+04 -2.302684E+03 -9.710825E+03 -1.092683E+03
       138  20 -7.213203E+05 -2.708271E+04 -1.913887E+04  8.501889E+02 -6.432132E+03 -1.151733E+03
       138  21 -7.165747E+05 -2.496623E+04 -2.076388E+04 -3.378152E+03 -3.153477E+03 -9.784361E+02
       138  22 -6.175890E+05  6.594605E+03  1.329283E+04 -2.987820E+03 -9.741658E+03 -1.092676E+03
       138  23 -6.190391E+05 -1.518537E+03  6.324762E+03  7.045073E+02 -6.423466E+03 -1.151716E+03
       138  24 -6.175924E+05 -2.234410E+02  3.893165E+03 -2.984301E+03 -3.105329E+03 -9.784202E+02
       138  25 -5.119923E+05  3.298536E+04  3.958912E+04 -3.673073E+03 -9.772496E+03 -1.092669E+03
       138  26 -5.167483E+05  2.404485E+04  3.178761E+04  5.588008E+02 -6.414798E+03 -1.151700E+03
       138  27 -5.186012E+05  2.451861E+04  2.854948E+04 -2.590387E+03 -3.057173E+03 -9.784043E+02
       139   1 -6.896261E+05 -1.689168E+04 -1.471518E+04 -3.246479E+03  2.489136E+03  8.609954E+02
       139   2 -6.858540E+05 -1.709046E+04 -1.532227E+04  1.169563E+03  1.739174E+03  7.436805E+02
       139   3 -6.815948E+05 -1.591094E+04 -1.508710E+04 -3.389865E+03  9.891711E+02  5.693656E+02
       139   4 -6.181254E+05  9.776649E+02  3.078838E+03 -3.339678E+03  2.474428E+03  8.609877E+02
       139   5 -6.183704E+05 -2.235573E+02  1.479546E+03  1.148058E+03  1.714820E+03  7.436764E+02
       139   6 -6.181265E+05 -4.485440E+01  7.291594E+02 -3.339615E+03  9.551757E+02  5.693677E+02
       139   7 -5.466201E+05  1.884662E+04  2.087247E+04 -3.432887E+03  2.459718E+03  8.609799E+02
       139   8 -5.508826E+05  1.664301E+04  1.828102E+04  1.126552E+03  1.690463E+03  7.436723E+02
       139   9 -5.546545E+05  1.582092E+04  1.654512E+04 -3.289359E+03  9.211769E+02  5.693699E+02
       139  10 -6.896261E+05 -1.689168E+04 -1.471519E+04 -3.246481E+03  1.075888E-09 -3.685078E-10
       139  11 -6.858540E+05 -1.709047E+04 -1.532228E+04  1.169562E+03  3.852783E-10  2.650973E-10
       139  12 -6.815948E+05 -1.591094E+04 -1.508710E+04 -3.389866E+03 -1.088486E-09  2.194725E-10
       139  13 -6.181254E+05  9.776625E+02  3.078825E+03 -3.339680E+03  2.421819E-09 -3.813401E-10
       139  14 -6.183704E+05 -2.235587E+02  1.479539E+03  1.148057E+03  1.076711E-09  4.657170E-11
       139  15 -6.181265E+05 -4.485499E+01  7.291571E+02 -3.339615E+03 -5.517987E-11  4.209982E-10
       139  16 -5.466201E+05  1.884662E+04  2.087246E+04 -3.432889E+03 -7.697928E-10 -1.596821E-10
       139  17 -5.508826E+05  1.664301E+04  1.828101E+04  1.126551E+03 -1.818573E-09  2.280820E-10
       139  18 -5.546545E+05  1.582092E+04  1.654512E+04 -3.289359E+03  1.021635E-09 -1.713922E-10
       139  19 -6.896261E+05 -1.689168E+04 -1.471518E+04 -3.246479E+03 -2.489136E+03 -8.609954E+02
       139  20 -6.858540E+05 -1.709046E+04 -1.532227E+04  1.169563E+03 -1.739174E+03 -7.436805E+02
       139  21 -6.815948E+05 -1.591094E+04 -1.508710E+04 -3.389865E+03 -9.891711E+02 -5.693656E+02
       139  22 -6.181254E+05  9.776649E+02  3.078838E+03 -3.339678E+03 -2.474428E+03 -8.609877E+02
       139  23 -6.183704E+05 -2.235573E+02  1.479546E+03  1.148058E+03 -1.714820E+03 -7.436764E+02
       139  24 -6.181265E+05 -4.485440E+01  7.291594E+02 -3.339615E+03 -9.551757E+02 -5.693677E+02
       139  25 -5.466201E+05  1.884662E+04  2.087247E+04 -3.432887E+03 -2.459718E+03 -8.609799E+02
       139  26 -5.508826E+05  1.664301E+04  1.828102E+04  1.126552E+03 -1.690463E+03 -7.436723E+02
       139  27 -5.546545E+05  1.582092E+04  1.654512E+04 -3.289359E+03 -9.211769E+02 -5.693699E+02
       140   1 -6.500278E+05 -7.797778E+03 -7.463898E+03 -3.529210E+03  8.752146E+02  4.633415E+02
       140   2 -6.456153E+05 -6.850446E+03 -6.961446E+03  1.402745E+03  9.481426E+02  3.003068E+02
       140   3 -6.412000E+05 -5.858531E+03 -6.495155E+03 -3.535316E+03  1.021047E+03  1.220111E+02
       140   4 -6.182333E+05  1.463025E+02  4.396198E+02 -3.538383E+03  8.491575E+02  4.633457E+02
       140   5 -6.182351E+05 -7.174972E+00 -1.444748E+02  1.396576E+03  9.195244E+02  3.003135E+02
       140   6 -6.182338E+05 -1.156407E+02 -7.629676E+02 -3.538452E+03  9.898668E+02  1.220207E+02
       140   7 -5.864380E+05  8.090307E+03  8.343062E+03 -3.547557E+03  8.230992E+02  4.633498E+02
       140   8 -5.908543E+05  6.836040E+03  6.672440E+03  1.390408E+03  8.909049E+02  3.003202E+02
       140   9 -5.952671E+05  5.627210E+03  4.969180E+03 -3.541588E+03  9.586857E+02  1.220303E+02
       140  10 -6.500278E+05 -7.797779E+03 -7.463900E+03 -3.529210E+03 -2.674880E-10  4.653053E-10
       140  11 -6.456153E+05 -6.850447E+03 -6.961448E+03  1.402744E+03 -3.340363E-09  5.309792E-10
       140  12 -6.412000E+05 -5.858531E+03 -6.495157E+03 -3.535316E+03 -2.202866E-09  1.165991E-09
       140  13 -6.182333E+05  1.463021E+02  4.396181E+02 -3.538383E+03  5.500584E-12  5.848066E-11
       140  14 -6.182351E+05 -7.175297E+00 -1.444766E+02  1.396576E+03  1.120295E-10  2.362257E-10
       140  15 -6.182338E+05 -1.156410E+02 -7.629694E+02 -3.538452E+03 -1.563246E-09 -7.423002E-10
       140  16 -5.864380E+05  8.090307E+03  8.343060E+03 -3.547557E+03  6.201094E-10  5.332068E-11
       140  17 -5.908543E+05  6.836040E+03  6.672439E+03  1.390408E+03 -5.210849E-10  8.428557E-10
       140  18 -5.952671E+05  5.627209E+03  4.969178E+03 -3.541588E+03  1.281920E-09  7.709891E-10
       140  19 -6.500278E+05 -7.797778E+03 -7.463898E+03 -3.529210E+03 -8.752146E+02 -4.633415E+02
       140  20 -6.456153E+05 -6.850446E+03 -6.961446E+03  1.402745E+03 -9.481426E+02 -3.003068E+02
       140  21 -6.412000E+05 -5.858531E+03 -6.495155E+03 -3.535316E+03 -1.021047E+03 -1.220111E+02
       140  22 -6.182333E+05  1.463025E+02  4.396198E+02 -3.538383E+03 -8.491575E+02 -4.633457E+02
       140  23 -6.182351E+05 -7.174972E+00 -1.444748E+02  1.396576E+03 -9.195244E+02 -3.003135E+02
       140  24 -6.182338E+05 -1.156407E+02 -7.629676E+02 -3.538452E+03 -9.898668E+02 -1.220207E+02
       140  25 -5.864380E+05  8.090307E+03  8.343062E+03 -3.547557E+03 -8.230992E+02 -4.633498E+02
       140  26 -5.908543E+05  6.836040E+03  6.672440E+03  1.390408E+03 -8.909049E+02 -3.003202E+02
       140  27 -5.952671E+05  5.627210E+03  4.969180E+03 -3.541588E+03 -9.586857E+02 -1.220303E+02
       141   1 -6.079177E+05  2.650499E+03  1.491389E+03 -3.616088E+03  1.190266E+03  1.370513E+01
       141   2 -6.032425E+05  3.894720E+03  1.600118E+03  1.434375E+03  2.249813E+03 -1.641809E+02
       141   3 -5.989834E+05  4.047767E+03  7.446928E+02 -3.502677E+03  3.309382E+03 -3.322615E+02
       141   4 -6.183268E+05  4.610834E+01 -1.114203E+03 -3.564455E+03  1.159620E+03  1.371516E+01
       141   5 -6.181189E+05  1.766939E+02 -2.103608E+03  1.429198E+03  2.220790E+03 -1.641727E+02
       141   6 -6.183273E+05 -7.841932E+02 -4.058314E+03 -3.564681E+03  3.281973E+03 -3.322551E+02
       141   7 -6.287358E+05 -2.558290E+03 -3.719803E+03 -3.512823E+03  1.128974E+03  1.372518E+01
       141   8 -6.329951E+05 -3.541349E+03 -5.807350E+03  1.424020E+03  2.191766E+03 -1.641645E+02
       141   9 -6.376709E+05 -5.616182E+03 -8.861349E+03 -3.626683E+03  3.254565E+03 -3.322487E+02
       141  10 -6.079177E+05  2.650498E+03  1.491386E+03 -3.616088E+03 -1.005535E-09  8.021438E-10
       141  11 -6.032426E+05  3.894719E+03  1.600109E+03  1.434376E+03 -2.333289E-09 -4.150177E-10
       141  12 -5.989834E+05  4.047764E+03  7.446720E+02 -3.502676E+03  6.793259E-10 -2.465307E-11
       141  13 -6.183268E+05  4.610798E+01 -1.114205E+03 -3.564455E+03  5.875837E-10 -1.328417E-09
       141  14 -6.181189E+05  1.766925E+02 -2.103617E+03  1.429198E+03 -4.465500E-10 -1.277400E-09
       141  15 -6.183273E+05 -7.841962E+02 -4.058335E+03 -3.564680E+03 -3.105524E-10 -3.661466E-11
       141  16 -6.287358E+05 -2.558291E+03 -3.719805E+03 -3.512823E+03  2.503752E-10 -1.490781E-10
       141  17 -6.329951E+05 -3.541350E+03 -5.807359E+03  1.424020E+03 -2.950787E-09 -2.005046E-10
       141  18 -6.376710E+05 -5.616185E+03 -8.861369E+03 -3.626682E+03 -8.595410E-10  1.013208E-09
       141  19 -6.079177E+05  2.650499E+03  1.491389E+03 -3.616088E+03 -1.190266E+03 -1.370513E+01
       141  20 -6.032425E+05  3.894720E+03  1.600118E+03  1.434375E+03 -2.249813E+03  1.641809E+02
       141  21 -5.989834E+05  4.047767E+03  7.446928E+02 -3.502677E+03 -3.309382E+03  3.322615E+02
       141  22 -6.183268E+05  4.610834E+01 -1.114203E+03 -3.564455E+03 -1.159620E+03 -1.371516E+01
       141  23 -6.181189E+05  1.766939E+02 -2.103608E+03  1.429198E+03 -2.220790E+03  1.641727E+02
       141  24 -6.183273E+05 -7.841932E+02 -4.058314E+03 -3.564681E+03 -3.281973E+03  3.322551E+02
       141  25 -6.287358E+05 -2.558290E+03 -3.719803E+03 -3.512823E+03 -1.128974E+03 -1.372518E+01
       141  26 -6.329951E+05 -3.541349E+03 -5.807350E+03  1.424020E+03 -2.191766E+03  1.641645E+02
       141  27 -6.376709E+05 -5.616182E+03 -8.861349E+03 -3.626683E+03 -3.254565E+03  3.322487E+02
       142   1 -5.669819E+05  1.312627E+04  7.696389E+03 -3.745435E+03  4.154560E+03 -4.406409E+02
       142   2 -5.615899E+05  1.521091E+04  5.199577E+03  1.347924E+03  8.614170E+03 -6.184460E+02
       142   3 -5.586474E+05  9.710269E+03 -2.093107E+03 -2.879083E+03  1.307377E+04 -7.443189E+02
       142   4 -6.187799E+05  1.777058E+02 -5.213581E+03 -3.416147E+03  4.120271E+03 -4.406331E+02
       142   5 -6.175556E+05  1.223941E+03 -8.733463E+03  1.243953E+03  8.588243E+03 -6.184477E+02
       142   6 -6.187823E+05 -5.316938E+03 -1.705533E+04 -3.416363E+03  1.305618E+04 -7.443343E+02
       142   7 -6.705756E+05 -1.277106E+04 -1.812375E+04 -3.086886E+03  4.085985E+03 -4.406254E+02
       142   8 -6.735184E+05 -1.276327E+04 -2.266674E+04  1.139992E+03  8.562318E+03 -6.184494E+02
       142   9 -6.789139E+05 -2.034442E+04 -3.201782E+04 -3.953591E+03  1.303858E+04 -7.443496E+02
       142  10 -5.669819E+05  1.312626E+04  7.696356E+03 -3.745434E+03 -4.630395E-10 -3.336525E-10
       142  11 -5.615900E+05  1.521089E+04  5.199436E+03  1.347929E+03 -2.719563E-09  3.798281E-10
       142  12 -5.586476E+05  9.710222E+03 -2.093430E+03 -2.879075E+03 -7.683756E-10 -8.595903E-11
       142  13 -6.187800E+05  1.777010E+02 -5.213614E+03 -3.416145E+03 -3.251831E-09  2.127051E-10
       142  14 -6.175556E+05  1.223920E+03 -8.733602E+03  1.243958E+03 -1.930762E-09 -2.246915E-10
       142  15 -6.187825E+05 -5.316984E+03 -1.705565E+04 -3.416355E+03  8.642928E-11 -4.920096E-11
       142  16 -6.705756E+05 -1.277106E+04 -1.812379E+04 -3.086884E+03 -1.005589E-09  8.299567E-10
       142  17 -6.735184E+05 -1.276329E+04 -2.266688E+04  1.139996E+03  3.864300E-09 -6.509903E-10
       142  18 -6.789141E+05 -2.034446E+04 -3.201814E+04 -3.953583E+03 -1.163202E-09  1.485912E-10
       142  19 -5.669819E+05  1.312627E+04  7.696389E+03 -3.745435E+03 -4.154560E+03  4.406409E+02
       142  20 -5.615899E+05  1.521091E+04  5.199577E+03  1.347924E+03 -8.614170E+03  6.184460E+02
       142  21 -5.586474E+05  9.710269E+03 -2.093107E+03 -2.879083E+03 -1.307377E+04  7.443189E+02
       142  22 -6.187799E+05  1.777058E+02 -5.213581E+03 -3.416147E+03 -4.120271E+03  4.406331E+02
       142  23 -6.175556E+05  1.223941E+03 -8.733463E+03  1.243953E+03 -8.588243E+03  6.184477E+02
       142  24 -6.187823E+05 -5.316938E+03 -1.705533E+04 -3.416363E+03 -1.305618E+04  7.443343E+02
       142  25 -6.705756E+05 -1.277106E+04 -1.812375E+04 -3.086886E+03 -4.085985E+03  4.406254E+02
       142  26 -6.735184E+05 -1.276327E+04 -2.266674E+04  1.139992E+03 -8.562318E+03  6.184494E+02
       142  27 -6.789139E+05 -2.034442E+04 -3.201782E+04 -3.953591E+03 -1.303858E+04  7.443496E+02
       143   1 -5.324452E+05  2.348223E+04  8.677559E+02 -5.172054E+03  1.657425E+04 -8.639363E+02
       143   2 -5.214207E+05  3.135609E+04 -1.134381E+04  1.803726E+03  3.457540E+04 -1.035318E+03
       143   3 -5.253728E+05 -1.164941E+04 -4.798179E+04  8.815412E+02  5.257677E+04 -9.790024E+02
       143   4 -6.215664E+05  1.206944E+03 -2.133227E+04 -3.104030E+03  1.652453E+04 -8.638912E+02
       143   5 -6.140802E+05  8.199120E+03 -3.440951E+04  8.517749E+02  3.456151E+04 -1.035383E+03
       143   6 -6.215792E+05 -3.569846E+04 -7.194069E+04 -3.090517E+03  5.259860E+04 -9.793381E+02
       143   7 -7.106804E+05 -2.106893E+04 -4.353290E+04 -1.036302E+03  1.647481E+04 -8.638463E+02
       143   8 -7.067319E+05 -1.495849E+04 -5.747586E+04 -1.000343E+02  3.454762E+04 -1.035448E+03
       143   9 -7.177771E+05 -5.974815E+04 -9.590029E+04 -7.061960E+03  5.262042E+04 -9.796742E+02
       143  10 -5.324455E+05  2.348216E+04  8.672378E+02 -5.172043E+03  1.207196E-09 -6.231834E-10
       143  11 -5.214220E+05  3.135577E+04 -1.134606E+04  1.803755E+03  1.520607E-09 -6.138379E-10
       143  12 -5.253758E+05 -1.165015E+04 -4.798699E+04  8.815827E+02 -3.123740E-10  2.456960E-11
       143  13 -6.215667E+05  1.206870E+03 -2.133279E+04 -3.104018E+03  1.075680E-09 -2.161191E-10
       143  14 -6.140815E+05  8.198797E+03 -3.441176E+04  8.518037E+02 -3.238258E-09 -8.076657E-10
       143  15 -6.215821E+05 -3.569920E+04 -7.194590E+04 -3.090476E+03  3.132432E-10 -4.301302E-11
       143  16 -7.106807E+05 -2.106900E+04 -4.353341E+04 -1.036291E+03 -1.826621E-09  7.053394E-11
       143  17 -7.067332E+05 -1.495881E+04 -5.747811E+04 -1.000055E+02 -2.324852E-09 -4.892784E-10
       143  18 -7.177800E+05 -5.974889E+04 -9.590550E+04 -7.061918E+03  3.668529E-10  1.628563E-10
       143  19 -5.324452E+05  2.348223E+04  8.677559E+02 -5.172054E+03 -1.657425E+04  8.639363E+02
       143  20 -5.214207E+05  3.135609E+04 -1.134381E+04  1.803726E+03 -3.457540E+04  1.035318E+03
       143  21 -5.253728E+05 -1.164941E+04 -4.798179E+04  8.815412E+02 -5.257677E+04  9.790024E+02
       143  22 -6.215664E+05  1.206944E+03 -2.133227E+04 -3.104030E+03 -1.652453E+04  8.638912E+02
       143  23 -6.140802E+05  8.199120E+03 -3.440951E+04  8.517749E+02 -3.456151E+04  1.035383E+03
       143  24 -6.215792E+05 -3.569846E+04 -7.194069E+04 -3.090517E+03 -5.259860E+04  9.793381E+02
       143  25 -7.106804E+05 -2.106893E+04 -4.353290E+04 -1.036302E+03 -1.647481E+04  8.638463E+02
       143  26 -7.067319E+05 -1.495849E+04 -5.747586E+04 -1.000343E+02 -3.454762E+04  1.035448E+03
       143  27 -7.177771E+05 -5.974815E+04 -9.590029E+04 -7.061960E+03 -5.262042E+04  9.796742E+02
       144   1 -5.196569E+05  3.809673E+04 -5.722440E+04 -1.613678E+04  6.709298E+04 -1.225989E+03
       144   2 -4.700243E+05  8.517521E+04 -1.024387E+05  7.383802E+03  1.394766E+05 -1.418729E+03
       144   3 -5.145268E+05 -2.071737E+05 -2.796069E+05  2.529746E+04  2.118612E+05 -3.179164E+02
       144   4 -6.391619E+05  8.245545E+03 -8.697980E+04 -2.660414E+03  6.693687E+04 -1.224619E+03
       144   5 -5.920978E+05  5.466019E+04 -1.328127E+05  2.551156E+02  1.395244E+05 -1.420302E+03
       144   6 -6.392232E+05 -2.384251E+05 -3.107600E+05 -2.435107E+03  2.121125E+05 -3.271292E+02
       144   7 -7.586535E+05 -2.160603E+04 -1.167362E+05  1.081335E+04  6.678079E+04 -1.223256E+03
       144   8 -7.141576E+05  2.414423E+04 -1.631878E+05 -6.872170E+03  1.395721E+05 -1.421876E+03
       144   9 -7.639038E+05 -2.696747E+05 -3.419138E+05 -3.016210E+04  2.123637E+05 -3.363661E+02
       144  10 -5.196618E+05  3.809552E+04 -5.723287E+04 -1.613671E+04  2.093490E-09 -8.564681E-10
       144  11 -4.700452E+05  8.516998E+04 -1.024753E+05  7.383962E+03  1.441669E-09 -3.222217E-09
       144  12 -5.145751E+05 -2.071858E+05 -2.796913E+05  2.529752E+04  8.277063E-10 -1.026677E-09
       144  13 -6.391667E+05  8.244339E+03 -8.698824E+04 -2.660348E+03  1.787062E-09 -2.291387E-09
       144  14 -5.921187E+05  5.465495E+04 -1.328493E+05  2.552753E+02 -1.175279E-09  2.779625E-10
       144  15 -6.392716E+05 -2.384372E+05 -3.108446E+05 -2.435051E+03 -1.625075E-09 -5.324059E-10
       144  16 -7.586583E+05 -2.160723E+04 -1.167446E+05  1.081342E+04 -1.603621E-09 -3.012824E-10
       144  17 -7.141785E+05  2.413899E+04 -1.632245E+05 -6.872010E+03 -2.716502E-11 -5.924306E-11
       144  18 -7.639523E+05 -2.696868E+05 -3.419987E+05 -3.016205E+04 -1.599667E-09 -1.229633E-09
       144  19 -5.196569E+05  3.809673E+04 -5.722440E+04 -1.613678E+04 -6.709298E+04  1.225989E+03
       144  20 -4.700243E+05  8.517521E+04 -1.024387E+05  7.383802E+03 -1.394766E+05  1.418729E+03
       144  21 -5.145268E+05 -2.071737E+05 -2.796069E+05  2.529746E+04 -2.118612E+05  3.179164E+02
       144  22 -6.391619E+05  8.245545E+03 -8.697980E+04 -2.660414E+03 -6.693687E+04  1.224619E+03
       144  23 -5.920978E+05  5.466019E+04 -1.328127E+05  2.551156E+02 -1.395244E+05  1.420302E+03
       144  24 -6.392232E+05 -2.384251E+05 -3.107600E+05 -2.435107E+03 -2.121125E+05  3.271292E+02
       144  25 -7.586535E+05 -2.160603E+04 -1.167362E+05  1.081335E+04 -6.678079E+04  1.223256E+03
       144  26 -7.141576E+05  2.414423E+04 -1.631878E+05 -6.872170E+03 -1.395721E+05  1.421876E+03
       144  27 -7.639038E+05 -2.696747E+05 -3.419138E+05 -3.016210E+04 -2.123637E+05  3.363661E+02
       145   1  2.038570E+05  1.087573E+05  2.272606E+05 -5.003588E+04  2.063800E+03  7.531156E+04
       145   2  9.222786E+04  4.308730E+04  1.523290E+05  1.143213E+04  5.618656E+03  5.101044E+04
       145   3  9.384808E+04  1.023253E+04  1.218002E+05 -3.691741E+04  3.114162E+03  2.669716E+04
       145   4  8.097749E+04 -3.827609E+05  1.046018E+05 -4.023655E+04  2.066759E+03  7.417308E+04
       145   5 -1.823495E+04 -3.991213E+05  4.238340E+04  1.460653E+04  5.619347E+03  5.090683E+04
       145   6 -4.334356E+03 -3.828240E+05  2.387444E+04 -4.037221E+04  3.111209E+03  2.762647E+04
       145   7 -4.191987E+04 -8.740598E+05 -1.807517E+04 -3.044489E+04  2.069683E+03  7.303549E+04
       145   8 -1.287124E+05 -8.411524E+05 -6.757683E+04  1.777877E+04  5.620039E+03  5.080329E+04
       145   9 -1.025284E+05 -7.757404E+05 -7.406296E+04 -4.382471E+04  3.108245E+03  2.855520E+04
       145  10  2.038554E+05  1.087513E+05  2.272499E+05 -5.003601E+04  2.044843E-09  1.702959E-09
       145  11  9.222712E+04  4.308450E+04  1.523240E+05  1.143190E+04  2.092538E-09  4.099748E-09
       145  12  9.384788E+04  1.023176E+04  1.217989E+05 -3.691747E+04  8.512812E-10  3.623011E-09
       145  13  8.097601E+04 -3.827668E+05  1.045914E+05 -4.023667E+04 -2.394557E-09  2.519228E-11
       145  14 -1.823568E+04 -3.991241E+05  4.237847E+04  1.460630E+04  3.725713E-09  1.269641E-09
       145  15 -4.334571E+03 -3.828248E+05  2.387299E+04 -4.037228E+04  1.729061E-11  4.207633E-10
       145  16 -4.192131E+04 -8.740656E+05 -1.808522E+04 -3.044501E+04 -1.075831E-10 -1.209149E-10
       145  17 -1.287132E+05 -8.411552E+05 -6.758175E+04  1.777854E+04 -8.959229E-10 -1.629892E-09
       145  18 -1.025286E+05 -7.757413E+05 -7.406451E+04 -4.382479E+04  3.010204E-10 -3.923513E-10
       145  19  2.038570E+05  1.087573E+05  2.272606E+05 -5.003588E+04 -2.063800E+03 -7.531156E+04
       145  20  9.222786E+04  4.308730E+04  1.523290E+05  1.143213E+04 -5.618656E+03 -5.101044E+04
       145  21  9.384808E+04  1.023253E+04  1.218002E+05 -3.691741E+04 -3.114162E+03 -2.669716E+04
       145  22  8.097749E+04 -3.827609E+05  1.046018E+05 -4.023655E+04 -2.066759E+03 -7.417308E+04
       145  23 -1.823495E+04 -3.991213E+05  4.238340E+04  1.460653E+04 -5.619347E+03 -5.090683E+04
       145  24 -4.334356E+03 -3.828240E+05  2.387444E+04 -4.037221E+04 -3.111209E+03 -2.762647E+04
       145  25 -4.191987E+04 -8.740598E+05 -1.807517E+04 -3.044489E+04 -2.069683E+03 -7.303549E+04
       145  26 -1.287124E+05 -8.411524E+05 -6.757683E+04  1.777877E+04 -5.620039E+03 -5.080329E+04
       145  27 -1.025284E+05 -7.757404E+05 -7.406296E+04 -4.382471E+04 -3.108245E+03 -2.855520E+04
       146   1  1.782416E+04 -3.696235E+05  2.209505E+04 -4.146946E+04  8.511523E+02  2.369444E+04
       146   2 -7.344481E+03 -4.194080E+05 -7.786196E+03  1.472056E+04 -4.129306E+02  2.392441E+04
       146   3 -3.275609E+04 -4.701792E+05 -3.806195E+04 -4.142533E+04 -1.595224E+03  2.415481E+04
       146   4  1.268263E+04 -3.902422E+05  1.703900E+04 -4.083319E+04  8.504469E+02  2.391362E+04
       146   5  6.076409E+01 -3.897513E+05 -4.063656E+02  1.529338E+04 -4.135704E+02  2.413047E+04
       146   6 -1.280110E+04 -3.902458E+05 -1.823576E+04 -4.091564E+04 -1.595806E+03  2.434776E+04
       146   7  7.541075E+03 -4.108605E+05  1.198291E+04 -4.019694E+04  8.497419E+02  2.413280E+04
       146   8  7.465944E+03 -3.600938E+05  6.973399E+03  1.586622E+04 -4.142098E+02  2.433653E+04
       146   9  7.153416E+03 -3.103067E+05  1.589956E+03 -4.040588E+04 -1.596388E+03  2.454074E+04
       146  10  1.782401E+04 -3.696241E+05  2.209400E+04 -4.146948E+04 -9.186796E-10  6.025148E-09
       146  11 -7.344635E+03 -4.194087E+05 -7.787273E+03  1.472057E+04  1.901130E-09  6.115596E-09
       146  12 -3.275625E+04 -4.701798E+05 -3.806305E+04 -4.142530E+04  1.677032E-09  3.581597E-09
       146  13  1.268248E+04 -3.902428E+05  1.703792E+04 -4.083321E+04  5.422128E-10  9.442989E-11
       146  14  6.060748E+01 -3.897520E+05 -4.074608E+02  1.529339E+04  1.855436E-09  1.772787E-09
       146  15 -1.280126E+04 -3.902465E+05 -1.823688E+04 -4.091561E+04  5.411802E-09  4.379805E-10
       146  16  7.540918E+03 -4.108611E+05  1.198182E+04 -4.019696E+04 -3.823156E-09 -2.447210E-09
       146  17  7.465785E+03 -3.600945E+05  6.972285E+03  1.586623E+04 -5.697510E-10 -2.670720E-09
       146  18  7.153252E+03 -3.103073E+05  1.588818E+03 -4.040584E+04  1.913463E-10 -1.549569E-10
       146  19  1.782416E+04 -3.696235E+05  2.209505E+04 -4.146946E+04 -8.511523E+02 -2.369444E+04
       146  20 -7.344481E+03 -4.194080E+05 -7.786196E+03  1.472056E+04  4.129306E+02 -2.392441E+04
       146  21 -3.275609E+04 -4.701792E+05 -3.806195E+04 -4.142533E+04  1.595224E+03 -2.415481E+04
       146  22  1.268263E+04 -3.902422E+05  1.703900E+04 -4.083319E+04 -8.504469E+02 -2.391362E+04
       146  23  6.076409E+01 -3.897513E+05 -4.063656E+02  1.529338E+04  4.135704E+02 -2.413047E+04
       146  24 -1.280110E+04 -3.902458E+05 -1.823576E+04 -4.091564E+04  1.595806E+03 -2.434776E+04
       146  25  7.541075E+03 -4.108605E+05  1.198291E+04 -4.019694E+04 -8.497419E+02 -2.413280E+04
       146  26  7.465944E+03 -3.600938E+05  6.973399E+03  1.586622E+04  4.142098E+02 -2.433653E+04
       146  27  7.153416E+03 -3.103067E+05  1.589956E+03 -4.040588E+04  1.596388E+03 -2.454074E+04
       147   1 -1.077914E+05 -8.479281E+05 -1.373624E+05 -3.453782E+04 -3.927716E+03  2.721317E+04
       147   2 -1.063105E+05 -8.816074E+05 -1.687746E+05  1.264498E+04 -6.553767E+03  5.259525E+04
       147   3 -2.208533E+05 -9.456494E+05 -2.453466E+05 -4.935773E+04 -2.508337E+03  7.798799E+04
       147   4  5.026706E+03 -3.967886E+05 -2.490947E+04 -4.012432E+04 -3.930694E+03  2.821644E+04
       147   5  1.860444E+04 -3.816996E+05 -4.441212E+04  1.441129E+04 -6.553028E+03  5.249641E+04
       147   6 -8.359886E+04 -3.967557E+05 -1.082811E+05 -4.023393E+04 -2.505625E+03  7.678910E+04
       147   7  1.178296E+05  5.453567E+04  8.752818E+04 -4.571475E+04 -3.933689E+03  2.922043E+04
       147   8  1.435006E+05  1.184353E+05  7.993158E+04  1.617913E+04 -6.552291E+03  5.239748E+04
       147   9  5.363319E+04  1.524117E+05  2.876175E+04 -3.110196E+04 -2.502950E+03  7.558912E+04
       147  10 -1.077916E+05 -8.479289E+05 -1.373638E+05 -3.453773E+04  3.011468E-10  4.554123E-09
       147  11 -1.063113E+05 -8.816104E+05 -1.687798E+05  1.264526E+04 -3.823675E-09  3.511217E-09
       147  12 -2.208550E+05 -9.456560E+05 -2.453580E+05 -4.935758E+04 -1.706084E-09  5.204721E-10
       147  13  5.026475E+03 -3.967895E+05 -2.491100E+04 -4.012423E+04 -1.957190E-10 -9.666585E-11
       147  14  1.860365E+04 -3.817026E+05 -4.441739E+04  1.441156E+04 -2.295927E-09  1.087339E-09
       147  15 -8.360045E+04 -3.967620E+05 -1.082922E+05 -4.023378E+04 -1.379574E-09  6.930429E-11
       147  16  1.178293E+05  5.453475E+04  8.752655E+04 -4.571466E+04 -1.380262E-09 -1.436362E-09
       147  17  1.434998E+05  1.184323E+05  7.992634E+04  1.617940E+04  1.321272E-09 -1.386010E-09
       147  18  5.363165E+04  1.524055E+05  2.875101E+04 -3.110181E+04 -8.502220E-10  7.170108E-10
       147  19 -1.077914E+05 -8.479281E+05 -1.373624E+05 -3.453782E+04  3.927716E+03 -2.721317E+04
       147  20 -1.063105E+05 -8.816074E+05 -1.687746E+05  1.264498E+04  6.553767E+03 -5.259525E+04
       147  21 -2.208533E+05 -9.456494E+05 -2.453466E+05 -4.935773E+04  2.508337E+03 -7.798799E+04
       147  22  5.026706E+03 -3.967886E+05 -2.490947E+04 -4.012432E+04  3.930694E+03 -2.821644E+04
       147  23  1.860444E+04 -3.816996E+05 -4.441212E+04  1.441129E+04  6.553028E+03 -5.249641E+04
       147  24 -8.359886E+04 -3.967557E+05 -1.082811E+05 -4.023393E+04  2.505625E+03 -7.678910E+04
       147  25  1.178296E+05  5.453567E+04  8.752818E+04 -4.571475E+04  3.933689E+03 -2.922043E+04
       147  26  1.435006E+05  1.184353E+05  7.993158E+04  1.617913E+04  6.552291E+03 -5.239748E+04
       147  27  5.363319E+04  1.524117E+05  2.876175E+04 -3.110196E+04  2.502950E+03 -7.558912E+04
       148   1 -1.536558E+06 -3.491446E+05 -1.771521E+05 -5.371938E+05 -9.726632E+04 -3.616692E+04
       148   2 -1.504010E+06 -2.122908E+05 -8.627856E+04 -5.701601E+05 -6.287268E+04 -2.237627E+04
       148   3 -1.533821E+06 -2.293510E+05 -6.342951E+04 -5.630912E+05 -2.814376E+04 -9.475653E+03
       148   4 -1.458106E+06 -3.078137E+05 -1.532007E+05 -5.038999E+05 -9.708902E+04 -3.610250E+04
       148   5 -1.419315E+06 -1.772967E+05 -6.242922E+04 -5.440582E+05 -6.283122E+04 -2.236107E+04
       148   6 -1.442849E+06 -2.006546E+05 -3.956764E+04 -5.441839E+05 -2.823778E+04 -9.510682E+03
       148   7 -1.379648E+06 -2.664805E+05 -1.292498E+05 -4.706016E+05 -9.691170E+04 -3.603806E+04
       148   8 -1.334613E+06 -1.423018E+05 -3.858055E+04 -5.179530E+05 -6.278975E+04 -2.234586E+04
       148   9 -1.351868E+06 -1.719582E+05 -1.570643E+04 -5.252744E+05 -2.833181E+04 -9.545715E+03
       148  10 -1.536569E+06 -3.491486E+05 -1.771724E+05 -5.371967E+05 -2.036169E-10  1.517831E-10
       148  11 -1.504014E+06 -2.122924E+05 -8.628695E+04 -5.701612E+05 -2.021483E-09 -8.197251E-10
       148  12 -1.533822E+06 -2.293513E+05 -6.343118E+04 -5.630914E+05 -1.065284E-09  1.746335E-09
       148  13 -1.458117E+06 -3.078177E+05 -1.532209E+05 -5.039027E+05 -1.121918E-09 -3.265204E-10
       148  14 -1.419319E+06 -1.772983E+05 -6.243760E+04 -5.440594E+05  2.046697E-09 -9.432922E-10
       148  15 -1.442850E+06 -2.006549E+05 -3.956931E+04 -5.441841E+05  3.568238E-10 -6.311745E-10
       148  16 -1.379659E+06 -2.664844E+05 -1.292699E+05 -4.706044E+05  4.569968E-10  2.670017E-10
       148  17 -1.334618E+06 -1.423034E+05 -3.858892E+04 -5.179541E+05  5.864161E-10 -2.975942E-09
       148  18 -1.351869E+06 -1.719585E+05 -1.570811E+04 -5.252746E+05  2.296457E-09 -2.694574E-10
       148  19 -1.536558E+06 -3.491446E+05 -1.771521E+05 -5.371938E+05  9.726632E+04  3.616692E+04
       148  20 -1.504010E+06 -2.122908E+05 -8.627856E+04 -5.701601E+05  6.287268E+04  2.237627E+04
       148  21 -1.533821E+06 -2.293510E+05 -6.342951E+04 -5.630912E+05  2.814376E+04  9.475653E+03
       148  22 -1.458106E+06 -3.078137E+05 -1.532007E+05 -5.038999E+05  9.708902E+04  3.610250E+04
       148  23 -1.419315E+06 -1.772967E+05 -6.242922E+04 -5.440582E+05  6.283122E+04  2.236107E+04
       148  24 -1.442849E+06 -2.006546E+05 -3.956764E+04 -5.441839E+05  2.823778E+04  9.510682E+03
       148  25 -1.379648E+06 -2.664805E+05 -1.292498E+05 -4.706016E+05  9.691170E+04  3.603806E+04
       148  26 -1.334613E+06 -1.423018E+05 -3.858055E+04 -5.179530E+05  6.278975E+04  2.234586E+04
       148  27 -1.351868E+06 -1.719582E+05 -1.570643E+04 -5.252744E+05  2.833181E+04  9.545715E+03
       149   1 -1.514163E+06 -2.502411E+05 -5.415061E+04 -5.576332E+05 -2.220081E+04 -7.405124E+03
       149   2 -1.508855E+06 -2.272272E+05 -3.565228E+04 -5.601074E+05 -1.437306E+04 -4.379636E+03
       149   3 -1.509864E+06 -2.307920E+05 -2.934515E+04 -5.604942E+05 -6.462762E+03 -1.573726E+03
       149   4 -1.437078E+06 -2.194142E+05 -3.262771E+04 -5.349303E+05 -2.217404E+04 -7.395146E+03
       149   5 -1.432777E+06 -1.980700E+05 -1.467395E+04 -5.389986E+05 -1.437982E+04 -4.382196E+03
       149   6 -1.434787E+06 -2.032962E+05 -8.883600E+03 -5.409799E+05 -6.503076E+03 -1.588855E+03
       149   7 -1.359987E+06 -1.885869E+05 -1.110539E+04 -5.122248E+05 -2.214726E+04 -7.385166E+03
       149   8 -1.356695E+06 -1.689125E+05  6.303850E+03 -5.178874E+05 -1.438659E+04 -4.384757E+03
       149   9 -1.359705E+06 -1.758001E+05  1.157747E+04 -5.214634E+05 -6.543395E+03 -1.603987E+03
       149  10 -1.514164E+06 -2.502413E+05 -5.415165E+04 -5.576334E+05 -2.659428E-09  6.156798E-10
       149  11 -1.508855E+06 -2.272272E+05 -3.565270E+04 -5.601074E+05 -3.180684E-09 -6.645373E-10
       149  12 -1.509864E+06 -2.307920E+05 -2.934524E+04 -5.604942E+05  6.239138E-10 -4.279283E-10
       149  13 -1.437079E+06 -2.194144E+05 -3.262874E+04 -5.349305E+05 -2.215250E-09  5.985002E-10
       149  14 -1.432778E+06 -1.980701E+05 -1.467437E+04 -5.389986E+05 -2.196234E-09 -5.658107E-10
       149  15 -1.434787E+06 -2.032962E+05 -8.883684E+03 -5.409799E+05 -2.511078E-09 -3.436927E-10
       149  16 -1.359988E+06 -1.885871E+05 -1.110642E+04 -5.122250E+05  1.567918E-09  1.111969E-10
       149  17 -1.356695E+06 -1.689126E+05  6.303424E+03 -5.178875E+05  2.840279E-09  1.611118E-10
       149  18 -1.359705E+06 -1.758002E+05  1.157738E+04 -5.214634E+05 -1.277692E-09 -7.020300E-10
       149  19 -1.514163E+06 -2.502411E+05 -5.415061E+04 -5.576332E+05  2.220081E+04  7.405124E+03
       149  20 -1.508855E+06 -2.272272E+05 -3.565228E+04 -5.601074E+05  1.437306E+04  4.379636E+03
       149  21 -1.509864E+06 -2.307920E+05 -2.934515E+04 -5.604942E+05  6.462762E+03  1.573726E+03
       149  22 -1.437078E+06 -2.194142E+05 -3.262771E+04 -5.349303E+05  2.217404E+04  7.395146E+03
       149  23 -1.432777E+06 -1.980700E+05 -1.467395E+04 -5.389986E+05  1.437982E+04  4.382196E+03
       149  24 -1.434787E+06 -2.032962E+05 -8.883600E+03 -5.409799E+05  6.503076E+03  1.588855E+03
       149  25 -1.359987E+06 -1.885869E+05 -1.110539E+04 -5.122248E+05  2.214726E+04  7.385166E+03
       149  26 -1.356695E+06 -1.689125E+05  6.303850E+03 -5.178874E+05  1.438659E+04  4.384757E+03
       149  27 -1.359705E+06 -1.758001E+05  1.157747E+04 -5.214634E+05  6.543395E+03  1.603987E+03
       150   1 -1.484779E+06 -2.261720E+05 -2.127562E+04 -5.542912E+05 -5.126569E+03 -1.181351E+03
       150   2 -1.483532E+06 -2.188770E+05 -1.673419E+04 -5.507533E+05 -3.254017E+03 -5.886478E+02
       150   3 -1.477965E+06 -2.209545E+05 -1.451519E+04 -5.530363E+05 -1.351023E+03 -7.719948E+01
       150   4 -1.433423E+06 -2.065344E+05 -7.128722E+03 -5.400862E+05 -5.135635E+03 -1.184760E+03
       150   5 -1.435414E+06 -2.006520E+05 -3.508110E+03 -5.376246E+05 -3.275689E+03 -5.967825E+02
       150   6 -1.433083E+06 -2.041394E+05 -2.199772E+03 -5.409840E+05 -1.385313E+03 -9.006216E+01
       150   7 -1.382064E+06 -1.868967E+05  7.017930E+03 -5.258801E+05 -5.144703E+03 -1.188170E+03
       150   8 -1.387293E+06 -1.824270E+05  9.717748E+03 -5.244951E+05 -3.297363E+03 -6.049180E+02
       150   9 -1.388199E+06 -1.873242E+05  1.011546E+04 -5.289309E+05 -1.419606E+03 -1.029258E+02
       150  10 -1.484779E+06 -2.261720E+05 -2.127567E+04 -5.542912E+05  1.815148E-09 -4.257270E-10
       150  11 -1.483532E+06 -2.188770E+05 -1.673421E+04 -5.507533E+05  3.741220E-09 -7.952449E-10
       150  12 -1.477965E+06 -2.209545E+05 -1.451520E+04 -5.530363E+05 -1.211685E-09 -8.585728E-10
       150  13 -1.433423E+06 -2.065344E+05 -7.128774E+03 -5.400862E+05 -3.149556E-09 -4.237919E-10
       150  14 -1.435414E+06 -2.006521E+05 -3.508130E+03 -5.376246E+05 -4.184850E-09 -9.103915E-10
       150  15 -1.433083E+06 -2.041394E+05 -2.199775E+03 -5.409840E+05  9.634643E-12 -8.965485E-10
       150  16 -1.382064E+06 -1.868967E+05  7.017878E+03 -5.258801E+05 -1.429032E-09 -9.186706E-10
       150  17 -1.387293E+06 -1.824270E+05  9.717727E+03 -5.244951E+05 -7.618411E-10 -3.148568E-10
       150  18 -1.388199E+06 -1.873242E+05  1.011545E+04 -5.289309E+05 -1.264945E-09 -6.729866E-10
       150  19 -1.484779E+06 -2.261720E+05 -2.127562E+04 -5.542912E+05  5.126569E+03  1.181351E+03
       150  20 -1.483532E+06 -2.188770E+05 -1.673419E+04 -5.507533E+05  3.254017E+03  5.886478E+02
       150  21 -1.477965E+06 -2.209545E+05 -1.451519E+04 -5.530363E+05  1.351023E+03  7.719948E+01
       150  22 -1.433423E+06 -2.065344E+05 -7.128722E+03 -5.400862E+05  5.135635E+03  1.184760E+03
       150  23 -1.435414E+06 -2.006520E+05 -3.508110E+03 -5.376246E+05  3.275689E+03  5.967825E+02
       150  24 -1.433083E+06 -2.041394E+05 -2.199772E+03 -5.409840E+05  1.385313E+03  9.006216E+01
       150  25 -1.382064E+06 -1.868967E+05  7.017930E+03 -5.258801E+05  5.144703E+03  1.188170E+03
       150  26 -1.387293E+06 -1.824270E+05  9.717748E+03 -5.244951E+05  3.297363E+03  6.049180E+02
       150  27 -1.388199E+06 -1.873242E+05  1.011546E+04 -5.289309E+05  1.419606E+03  1.029258E+02
       151   1 -1.445425E+06 -2.096079E+05 -5.325085E+03 -5.445561E+05 -9.829836E+02 -6.698224E+01
       151   2 -1.444713E+06 -2.040875E+05 -3.681684E+03 -5.395501E+05 -2.607881E+02  1.641166E+01
       151   3 -1.437380E+06 -2.063053E+05 -2.733435E+03 -5.423792E+05  4.666724E+02  8.579208E+01
       151   4 -1.432711E+06 -2.047687E+05 -1.838980E+03 -5.410593E+05 -1.007695E+03 -7.625008E+01
       151   5 -1.436008E+06 -2.007959E+05 -1.289914E+03 -5.371806E+05 -2.876878E+02  6.323923E+00
       151   6 -1.432682E+06 -2.045609E+05 -1.434272E+03 -5.411371E+05  4.375782E+02  7.488243E+01
       151   7 -1.419997E+06 -1.999294E+05  1.647116E+03 -5.375624E+05 -1.032407E+03 -8.551815E+01
       151   8 -1.427302E+06 -1.975043E+05  1.101849E+03 -5.348112E+05 -3.145879E+02 -3.763963E+00
       151   9 -1.427984E+06 -2.028166E+05 -1.351153E+02 -5.398951E+05  4.084837E+02  6.397272E+01
       151  10 -1.445425E+06 -2.096079E+05 -5.325087E+03 -5.445561E+05  1.037150E-09 -6.851815E-10
       151  11 -1.444713E+06 -2.040875E+05 -3.681684E+03 -5.395501E+05  4.476904E-10  5.819004E-10
       151  12 -1.437380E+06 -2.063053E+05 -2.733435E+03 -5.423792E+05 -8.225497E-10 -6.543791E-10
       151  13 -1.432711E+06 -2.047687E+05 -1.838982E+03 -5.410593E+05 -2.627685E-09 -5.112109E-11
       151  14 -1.436008E+06 -2.007959E+05 -1.289914E+03 -5.371806E+05  1.289319E-09  1.077505E-09
       151  15 -1.432682E+06 -2.045609E+05 -1.434273E+03 -5.411371E+05  3.082462E-09  3.709398E-10
       151  16 -1.419997E+06 -1.999294E+05  1.647114E+03 -5.375624E+05 -6.849001E-10 -1.423321E-10
       151  17 -1.427302E+06 -1.975043E+05  1.101849E+03 -5.348112E+05  2.632180E-09  1.045020E-09
       151  18 -1.427984E+06 -2.028166E+05 -1.351157E+02 -5.398951E+05  1.456018E-09  8.973407E-10
       151  19 -1.445425E+06 -2.096079E+05 -5.325085E+03 -5.445561E+05  9.829836E+02  6.698224E+01
       151  20 -1.444713E+06 -2.040875E+05 -3.681684E+03 -5.395501E+05  2.607881E+02 -1.641166E+01
       151  21 -1.437380E+06 -2.063053E+05 -2.733435E+03 -5.423792E+05 -4.666724E+02 -8.579208E+01
       151  22 -1.432711E+06 -2.047687E+05 -1.838980E+03 -5.410593E+05  1.007695E+03  7.625008E+01
       151  23 -1.436008E+06 -2.007959E+05 -1.289914E+03 -5.371806E+05  2.876878E+02 -6.323923E+00
       151  24 -1.432682E+06 -2.045609E+05 -1.434272E+03 -5.411371E+05 -4.375782E+02 -7.488243E+01
       151  25 -1.419997E+06 -1.999294E+05  1.647116E+03 -5.375624E+05  1.032407E+03  8.551815E+01
       151  26 -1.427302E+06 -1.975043E+05  1.101849E+03 -5.348112E+05  3.145879E+02  3.763963E+00
       151  27 -1.427984E+06 -2.028166E+05 -1.351153E+02 -5.398951E+05 -4.084837E+02 -6.397272E+01
       152   1 -1.403693E+06 -1.934072E+05  6.379026E+03 -5.332355E+05  7.675774E+02  6.613744E+01
       152   2 -1.402949E+06 -1.883728E+05  6.599942E+03 -5.284156E+05  2.068400E+03  3.462417E+02
       152   3 -1.396427E+06 -1.914368E+05  5.476489E+03 -5.306867E+05  3.351990E+03  6.723779E+02
       152   4 -1.432828E+06 -2.043464E+05 -1.625667E+03 -5.410825E+05  7.353510E+02  5.405217E+01
       152   5 -1.435786E+06 -2.007880E+05 -2.421359E+03 -5.373528E+05  2.043335E+03  3.368386E+02
       152   6 -1.432968E+06 -2.053296E+05 -4.567151E+03 -5.407142E+05  3.334079E+03  6.656552E+02
       152   7 -1.461963E+06 -2.152855E+05 -9.630447E+03 -5.489293E+05  7.031263E+02  4.196750E+01
       152   8 -1.468623E+06 -2.132032E+05 -1.144278E+04 -5.462897E+05  2.018271E+03  3.274361E+02
       152   9 -1.469507E+06 -2.192224E+05 -1.461094E+04 -5.507411E+05  3.316169E+03  6.589329E+02
       152  10 -1.403693E+06 -1.934072E+05  6.379025E+03 -5.332355E+05  1.595349E-09 -1.139279E-10
       152  11 -1.402949E+06 -1.883728E+05  6.599933E+03 -5.284156E+05  4.092233E-10  3.596852E-10
       152  12 -1.396427E+06 -1.914368E+05  5.476467E+03 -5.306867E+05 -6.609045E-11  6.861030E-12
       152  13 -1.432828E+06 -2.043464E+05 -1.625669E+03 -5.410825E+05  4.803487E-10 -4.361518E-10
       152  14 -1.435786E+06 -2.007880E+05 -2.421367E+03 -5.373528E+05  9.738477E-10  7.442864E-11
       152  15 -1.432968E+06 -2.053296E+05 -4.567173E+03 -5.407142E+05  2.695388E-09  2.885753E-10
       152  16 -1.461963E+06 -2.152855E+05 -9.630448E+03 -5.489293E+05  1.253586E-09  4.066415E-10
       152  17 -1.468623E+06 -2.132032E+05 -1.144278E+04 -5.462897E+05 -1.321012E-09 -8.904627E-10
       152  18 -1.469507E+06 -2.192224E+05 -1.461096E+04 -5.507411E+05 -8.579873E-10  2.523823E-10
       152  19 -1.403693E+06 -1.934072E+05  6.379026E+03 -5.332355E+05 -7.675774E+02 -6.613744E+01
       152  20 -1.402949E+06 -1.883728E+05  6.599942E+03 -5.284156E+05 -2.068400E+03 -3.462417E+02
       152  21 -1.396427E+06 -1.914368E+05  5.476489E+03 -5.306867E+05 -3.351990E+03 -6.723779E+02
       152  22 -1.432828E+06 -2.043464E+05 -1.625667E+03 -5.410825E+05 -7.353510E+02 -5.405217E+01
       152  23 -1.435786E+06 -2.007880E+05 -2.421359E+03 -5.373528E+05 -2.043335E+03 -3.368386E+02
       152  24 -1.432968E+06 -2.053296E+05 -4.567151E+03 -5.407142E+05 -3.334079E+03 -6.656552E+02
       152  25 -1.461963E+06 -2.152855E+05 -9.630447E+03 -5.489293E+05 -7.031263E+02 -4.196750E+01
       152  26 -1.468623E+06 -2.132032E+05 -1.144278E+04 -5.462897E+05 -2.018271E+03 -3.274361E+02
       152  27 -1.469507E+06 -2.192224E+05 -1.461094E+04 -5.507411E+05 -3.316169E+03 -6.589329E+02
       153   1 -1.369581E+06 -1.798776E+05  1.178915E+04 -5.238117E+05  4.262991E+03  9.054474E+02
       153   2 -1.367926E+06 -1.746867E+05  8.459784E+03 -5.200136E+05  9.413335E+03  2.661824E+03
       153   3 -1.366151E+06 -1.840768E+05 -1.398655E+03 -5.188915E+05  1.452488E+04  4.521526E+03
       153   4 -1.433800E+06 -2.037494E+05 -5.785705E+03 -5.408671E+05  4.230303E+03  8.931800E+02
       153   5 -1.434352E+06 -1.999308E+05 -9.814498E+03 -5.382264E+05  9.396344E+03  2.655436E+03
       153   6 -1.434788E+06 -2.106970E+05 -2.038535E+04 -5.382615E+05  1.452357E+04  4.521006E+03
       153   7 -1.498014E+06 -2.276209E+05 -2.336089E+04 -5.579209E+05  4.197620E+03  8.809140E+02
       153   8 -1.500773E+06 -2.251746E+05 -2.808916E+04 -5.564375E+05  9.379355E+03  2.649049E+03
       153   9 -1.503419E+06 -2.373169E+05 -3.937248E+04 -5.576296E+05  1.452226E+04  4.520487E+03
       153  10 -1.369581E+06 -1.798776E+05  1.178912E+04 -5.238117E+05 -1.325136E-09  4.454331E-10
       153  11 -1.367926E+06 -1.746867E+05  8.459604E+03 -5.200137E+05 -5.208636E-09 -6.985172E-10
       153  12 -1.366152E+06 -1.840769E+05 -1.399091E+03 -5.188915E+05 -1.413200E-09 -1.290128E-10
       153  13 -1.433800E+06 -2.037494E+05 -5.785740E+03 -5.408671E+05 -2.833521E-09  2.823091E-10
       153  14 -1.434352E+06 -1.999309E+05 -9.814678E+03 -5.382265E+05  1.050698E-09 -1.437176E-10
       153  15 -1.434788E+06 -2.106971E+05 -2.038579E+04 -5.382616E+05  1.515791E-09  1.694757E-10
       153  16 -1.498014E+06 -2.276209E+05 -2.336093E+04 -5.579209E+05 -1.689847E-09  2.882436E-10
       153  17 -1.500773E+06 -2.251747E+05 -2.808934E+04 -5.564375E+05  1.918368E-09  6.215454E-10
       153  18 -1.503420E+06 -2.373170E+05 -3.937292E+04 -5.576297E+05 -3.303743E-10 -2.084298E-10
       153  19 -1.369581E+06 -1.798776E+05  1.178915E+04 -5.238117E+05 -4.262991E+03 -9.054474E+02
       153  20 -1.367926E+06 -1.746867E+05  8.459784E+03 -5.200136E+05 -9.413335E+03 -2.661824E+03
       153  21 -1.366151E+06 -1.840768E+05 -1.398655E+03 -5.188915E+05 -1.452488E+04 -4.521526E+03
       153  22 -1.433800E+06 -2.037494E+05 -5.785705E+03 -5.408671E+05 -4.230303E+03 -8.931800E+02
       153  23 -1.434352E+06 -1.999308E+05 -9.814498E+03 -5.382264E+05 -9.396344E+03 -2.655436E+03
       153  24 -1.434788E+06 -2.106970E+05 -2.038535E+04 -5.382615E+05 -1.452357E+04 -4.521006E+03
       153  25 -1.498014E+06 -2.276209E+05 -2.336089E+04 -5.579209E+05 -4.197620E+03 -8.809140E+02
       153  26 -1.500773E+06 -2.251746E+05 -2.808916E+04 -5.564375E+05 -9.379355E+03 -2.649049E+03
       153  27 -1.503419E+06 -2.373169E+05 -3.937248E+04 -5.576296E+05 -1.452226E+04 -4.520487E+03
       154   1 -1.351929E+06 -1.723316E+05 -2.386564E+03 -5.211129E+05  1.839889E+04  5.901692E+03
       154   2 -1.343800E+06 -1.583717E+05 -1.889720E+04 -5.167846E+05  4.091630E+04  1.425117E+04
       154   3 -1.362210E+06 -2.127804E+05 -7.044365E+04 -4.970819E+05  6.334973E+04  2.282476E+04
       154   4 -1.437828E+06 -2.022874E+05 -2.549115E+04 -5.419012E+05  1.836434E+04  5.888795E+03
       154   5 -1.427859E+06 -1.913222E+05 -4.222162E+04 -5.408644E+05  4.091395E+04  1.425019E+04
       154   6 -1.444441E+06 -2.487378E+05 -9.401713E+04 -5.244525E+05  6.337965E+04  2.283539E+04
       154   7 -1.523719E+06 -2.322431E+05 -4.859640E+04 -5.626869E+05  1.832979E+04  5.875900E+03
       154   8 -1.511912E+06 -2.242722E+05 -6.554670E+04 -5.649413E+05  4.091161E+04  1.424920E+04
       154   9 -1.526665E+06 -2.846941E+05 -1.175913E+05 -5.518197E+05  6.340958E+04  2.284601E+04
       154  10 -1.351929E+06 -1.723318E+05 -2.387267E+03 -5.211130E+05  9.256646E-10 -8.646408E-10
       154  11 -1.343802E+06 -1.583724E+05 -1.890074E+04 -5.167851E+05 -4.661875E-10 -1.035161E-09
       154  12 -1.362214E+06 -2.127820E+05 -7.045219E+04 -4.970830E+05  2.130492E-10 -1.248035E-09
       154  13 -1.437828E+06 -2.022875E+05 -2.549185E+04 -5.419012E+05 -9.224493E-10 -1.656425E-09
       154  14 -1.427861E+06 -1.913229E+05 -4.222515E+04 -5.408649E+05 -2.160044E-09 -1.931005E-09
       154  15 -1.444445E+06 -2.487394E+05 -9.402568E+04 -5.244537E+05  1.793794E-09 -1.795262E-09
       154  16 -1.523720E+06 -2.322432E+05 -4.859710E+04 -5.626870E+05 -7.796427E-10 -3.713660E-10
       154  17 -1.511914E+06 -2.242729E+05 -6.555024E+04 -5.649418E+05 -1.142188E-09 -6.973843E-10
       154  18 -1.526669E+06 -2.846958E+05 -1.175998E+05 -5.518208E+05 -3.478498E-10 -3.022085E-10
       154  19 -1.351929E+06 -1.723316E+05 -2.386564E+03 -5.211129E+05 -1.839889E+04 -5.901692E+03
       154  20 -1.343800E+06 -1.583717E+05 -1.889720E+04 -5.167846E+05 -4.091630E+04 -1.425117E+04
       154  21 -1.362210E+06 -2.127804E+05 -7.044365E+04 -4.970819E+05 -6.334973E+04 -2.282476E+04
       154  22 -1.437828E+06 -2.022874E+05 -2.549115E+04 -5.419012E+05 -1.836434E+04 -5.888795E+03
       154  23 -1.427859E+06 -1.913222E+05 -4.222162E+04 -5.408644E+05 -4.091395E+04 -1.425019E+04
       154  24 -1.444441E+06 -2.487378E+05 -9.401713E+04 -5.244525E+05 -6.337965E+04 -2.283539E+04
       154  25 -1.523719E+06 -2.322431E+05 -4.859640E+04 -5.626869E+05 -1.832979E+04 -5.875900E+03
       154  26 -1.511912E+06 -2.242722E+05 -6.554670E+04 -5.649413E+05 -4.091161E+04 -1.424920E+04
       154  27 -1.526665E+06 -2.846941E+05 -1.175913E+05 -5.518197E+05 -6.340958E+04 -2.284601E+04
       155   1 -1.363084E+06 -1.759430E+05 -9.075989E+04 -5.432595E+05  8.081343E+04  2.928424E+04
       155   2 -1.313371E+06 -9.192782E+04 -1.569352E+05 -5.236711E+05  1.802767E+05  6.664666E+04
       155   3 -1.445631E+06 -4.493239E+05 -4.187783E+05 -3.862908E+05  2.794279E+05  1.048457E+05
       155   4 -1.459712E+06 -1.960422E+05 -1.140303E+05 -5.527058E+05  8.073090E+04  2.925586E+04
       155   5 -1.390715E+06 -1.297330E+05 -1.798793E+05 -5.535031E+05  1.803130E+05  6.665723E+04
       155   6 -1.503738E+06 -5.048948E+05 -4.415096E+05 -4.365002E+05  2.795866E+05  1.048865E+05
       155   7 -1.556331E+06 -2.161417E+05 -1.373012E+05 -5.621515E+05  8.064838E+04  2.922749E+04
       155   8 -1.468052E+06 -1.675365E+05 -2.028240E+05 -5.833312E+05  1.803494E+05  6.666779E+04
       155   9 -1.561839E+06 -5.604567E+05 -4.642406E+05 -4.867034E+05  2.797452E+05  1.049272E+05
       155  10 -1.363091E+06 -1.759457E+05 -9.077381E+04 -5.432614E+05 -1.623463E-09 -1.496219E-09
       155  11 -1.313407E+06 -9.194135E+04 -1.570048E+05 -5.236808E+05 -1.059823E-10 -7.175965E-10
       155  12 -1.445718E+06 -4.493567E+05 -4.189461E+05 -3.863144E+05  7.915099E-10 -2.232692E-09
       155  13 -1.459719E+06 -1.960449E+05 -1.140442E+05 -5.527077E+05 -2.539522E-10 -1.623374E-09
       155  14 -1.390751E+06 -1.297465E+05 -1.799490E+05 -5.535128E+05 -3.900732E-09  6.509723E-09
       155  15 -1.503825E+06 -5.049277E+05 -4.416776E+05 -4.365238E+05 -2.670948E-10  2.269595E-09
       155  16 -1.556338E+06 -2.161444E+05 -1.373151E+05 -5.621534E+05 -1.054984E-09  9.921389E-10
       155  17 -1.468088E+06 -1.675500E+05 -2.028937E+05 -5.833409E+05 -1.417469E-09  3.349783E-09
       155  18 -1.561926E+06 -5.604897E+05 -4.644088E+05 -4.867271E+05  1.567905E-09 -3.170794E-10
       155  19 -1.363084E+06 -1.759430E+05 -9.075989E+04 -5.432595E+05 -8.081343E+04 -2.928424E+04
       155  20 -1.313371E+06 -9.192782E+04 -1.569352E+05 -5.236711E+05 -1.802767E+05 -6.664666E+04
       155  21 -1.445631E+06 -4.493239E+05 -4.187783E+05 -3.862908E+05 -2.794279E+05 -1.048457E+05
       155  22 -1.459712E+06 -1.960422E+05 -1.140303E+05 -5.527058E+05 -8.073090E+04 -2.925586E+04
       155  23 -1.390715E+06 -1.297330E+05 -1.798793E+05 -5.535031E+05 -1.803130E+05 -6.665723E+04
       155  24 -1.503738E+06 -5.048948E+05 -4.415096E+05 -4.365002E+05 -2.795866E+05 -1.048865E+05
       155  25 -1.556331E+06 -2.161417E+05 -1.373012E+05 -5.621515E+05 -8.064838E+04 -2.922749E+04
       155  26 -1.468052E+06 -1.675365E+05 -2.028240E+05 -5.833312E+05 -1.803494E+05 -6.666779E+04
       155  27 -1.561839E+06 -5.604567E+05 -4.642406E+05 -4.867034E+05 -2.797452E+05 -1.049272E+05
       156   1  2.151258E+05  1.767404E+06  2.048881E+05 -1.508188E+05  9.647525E+03  7.910769E+04
       156   2  1.706865E+05  1.656018E+06  1.379984E+05 -1.370104E+05  3.213637E+04  3.557855E+04
       156   3  1.401056E+05  1.553742E+06  1.028697E+05 -1.402316E+05  3.749285E+04 -7.958281E+03
       156   4  1.595593E+04  9.582662E+05  1.706940E+04 -1.392467E+05  9.737068E+03  9.765083E+03
       156   5  5.544816E+03  9.570599E+05  1.028564E+04 -1.307413E+05  3.218160E+04  4.570792E+03
       156   6  2.357676E+03  9.583205E+05  8.695836E+03 -1.392651E+05  3.748561E+04 -6.393079E+02
       156   7 -1.832570E+05  1.497420E+05 -1.707752E+05 -1.276894E+05  9.824100E+03 -5.948800E+04
       156   8 -1.596238E+05  2.585773E+05 -1.174433E+05 -1.244792E+05  3.222623E+04 -2.640308E+04
       156   9 -1.354078E+05  3.632508E+05 -8.548674E+04 -1.382994E+05  3.747840E+04  6.672918E+03
       156  10  2.151241E+05  1.767397E+06  2.048762E+05 -1.508195E+05 -9.469877E-10  3.077959E-09
       156  11  1.706851E+05  1.656016E+06  1.379941E+05 -1.370113E+05  1.981698E-10 -2.349309E-09
       156  12  1.401040E+05  1.553742E+06  1.028669E+05 -1.402314E+05 -8.778733E-10 -3.567361E-10
       156  13  1.595580E+04  9.582661E+05  1.706905E+04 -1.392467E+05  3.675499E-09 -1.077162E-09
       156  14  5.543698E+03  9.570596E+05  1.028365E+04 -1.307414E+05  2.351848E-09 -1.093164E-10
       156  15  2.356166E+03  9.583201E+05  8.693194E+03 -1.392651E+05 -1.715244E-10 -2.136762E-10
       156  16 -1.832580E+05  1.497382E+05 -1.707820E+05 -1.276889E+05  4.445248E-10 -3.088768E-09
       156  17 -1.596251E+05  2.585763E+05 -1.174466E+05 -1.244786E+05  2.089790E-09 -1.501826E-09
       156  18 -1.354093E+05  3.632504E+05 -8.548947E+04 -1.382996E+05 -2.162869E-10  1.378697E-09
       156  19  2.151258E+05  1.767404E+06  2.048881E+05 -1.508188E+05 -9.647525E+03 -7.910769E+04
       156  20  1.706865E+05  1.656018E+06  1.379984E+05 -1.370104E+05 -3.213637E+04 -3.557855E+04
       156  21  1.401056E+05  1.553742E+06  1.028697E+05 -1.402316E+05 -3.749285E+04  7.958281E+03
       156  22  1.595593E+04  9.582662E+05  1.706940E+04 -1.392467E+05 -9.737068E+03 -9.765083E+03
       156  23  5.544816E+03  9.570599E+05  1.028564E+04 -1.307413E+05 -3.218160E+04 -4.570792E+03
       156  24  2.357676E+03  9.583205E+05  8.695836E+03 -1.392651E+05 -3.748561E+04  6.393079E+02
       156  25 -1.832570E+05  1.497420E+05 -1.707752E+05 -1.276894E+05 -9.824100E+03  5.948800E+04
       156  26 -1.596238E+05  2.585773E+05 -1.174433E+05 -1.244792E+05 -3.222623E+04  2.640308E+04
       156  27 -1.354078E+05  3.632508E+05 -8.548674E+04 -1.382994E+05 -3.747840E+04 -6.672918E+03
       157   1  1.237853E+05  1.486120E+06  9.023712E+04 -1.411710E+05  3.487896E+04 -9.985368E+03
       157   2  9.909421E+04  1.378225E+06  7.343983E+04 -1.294005E+05  3.027696E+04 -2.097274E+04
       157   3  7.938687E+04  1.272966E+06  6.501814E+04 -1.358867E+05  2.352041E+04 -3.196261E+04
       157   4  2.115861E+03  9.581838E+05  9.101288E+03 -1.395378E+05  3.486993E+04 -2.065835E+03
       157   5  2.800529E+03  9.573013E+05  1.230147E+04 -1.304054E+05  3.025932E+04 -8.232488E+03
       157   6  7.635287E+03  9.582098E+05  2.053628E+04 -1.395302E+05  2.349348E+04 -1.440336E+04
       157   7 -1.195670E+05  4.305261E+05 -7.204050E+04 -1.379058E+05  3.486094E+04  5.847235E+03
       157   8 -9.350119E+04  5.365566E+05 -4.883921E+04 -1.314096E+05  3.024163E+04  4.499510E+03
       157   9 -6.412052E+04  6.435540E+05 -2.394578E+04 -1.431718E+05  2.346634E+04  3.147395E+03
       157  10  1.237839E+05  1.486119E+06  9.023464E+04 -1.411708E+05 -6.939093E-10  2.989092E-08
       157  11  9.909310E+04  1.378224E+06  7.343728E+04 -1.294000E+05  1.684303E-09  2.569726E-08
       157  12  7.938601E+04  1.272965E+06  6.501518E+04 -1.358860E+05  7.411244E-09  2.444387E-08
       157  13  2.114554E+03  9.581835E+05  9.098994E+03 -1.395377E+05 -7.603732E-10 -1.417126E-09
       157  14  2.799527E+03  9.573010E+05  1.229962E+04 -1.304052E+05 -1.411783E-08 -2.258867E-10
       157  15  7.634639E+03  9.582094E+05  2.053485E+04 -1.395299E+05 -2.464143E-08 -3.212072E-10
       157  16 -1.195683E+05  4.305257E+05 -7.204285E+04 -1.379060E+05 -2.311305E-10 -2.998512E-08
       157  17 -9.350218E+04  5.365564E+05 -4.884097E+04 -1.314097E+05  2.220327E-09 -3.026282E-08
       157  18 -6.412112E+04  6.435538E+05 -2.394683E+04 -1.431718E+05  1.299221E-08 -2.341236E-08
       157  19  1.237853E+05  1.486120E+06  9.023712E+04 -1.411710E+05 -3.487896E+04  9.985368E+03
       157  20  9.909421E+04  1.378225E+06  7.343983E+04 -1.294005E+05 -3.027696E+04  2.097274E+04
       157  21  7.938687E+04  1.272966E+06  6.501814E+04 -1.358867E+05 -2.352041E+04  3.196261E+04
       157  22  2.115861E+03  9.581838E+05  9.101288E+03 -1.395378E+05 -3.486993E+04  2.065835E+03
       157  23  2.800529E+03  9.573013E+05  1.230147E+04 -1.304054E+05 -3.025932E+04  8.232488E+03
       157  24  7.635287E+03  9.582098E+05  2.053628E+04 -1.395302E+05 -2.349348E+04  1.440336E+04
       157  25 -1.195670E+05  4.305261E+05 -7.204050E+04 -1.379058E+05 -3.486094E+04 -5.847235E+03
       157  26 -9.350119E+04  5.365566E+05 -4.883921E+04 -1.314096E+05 -3.024163E+04 -4.499510E+03
       157  27 -6.412052E+04  6.435540E+05 -2.394578E+04 -1.431718E+05 -2.346634E+04 -3.147395E+03
       158   1  6.646146E+04  1.209088E+06  6.156872E+04 -1.383222E+05  1.886752E+04 -3.557852E+04
       158   2  6.269120E+04  1.096073E+06  6.843184E+04 -9.931465E+04  1.087948E+04 -6.108686E+04
       158   3  9.876341E+04  9.962861E+05  1.018279E+05 -7.867856E+04  2.608148E+03 -8.659229E+04
       158   4  9.922397E+03  9.607315E+05  2.689022E+04 -1.395632E+05  1.883952E+04 -1.794693E+04
       158   5  3.051368E+04  9.541664E+05  4.868467E+04 -1.303185E+05  1.085269E+04 -4.282546E+04
       158   6  9.083798E+04  9.607029E+05  9.657318E+04 -1.394403E+05  2.584981E+03 -6.770474E+04
       158   7 -4.661923E+04  7.124378E+05 -7.787894E+03 -1.408036E+05  1.881144E+04 -3.220655E+02
       158   8 -1.660927E+03  8.122834E+05  2.893902E+04 -1.613149E+05  1.082407E+04 -2.456803E+04
       158   9  8.292654E+04  9.251297E+05  9.132176E+04 -2.001984E+05  2.558122E+03 -4.881822E+04
       158  10  6.646074E+04  1.209087E+06  6.156568E+04 -1.383216E+05  8.678637E-09 -1.570902E-07
       158  11  6.269007E+04  1.096069E+06  6.842461E+04 -9.931412E+04  7.625620E-09 -3.510857E-08
       158  12  9.876140E+04  9.962780E+05  1.018138E+05 -7.867838E+04  1.878248E-09  1.005432E-07
       158  13  9.921929E+03  9.607310E+05  2.688895E+04 -1.395629E+05 -2.470234E-08 -1.523565E-09
       158  14  3.051306E+04  9.541644E+05  4.868101E+04 -1.303181E+05 -1.115740E-08  2.059012E-10
       158  15  9.083674E+04  9.606980E+05  9.656457E+04 -1.394401E+05 -3.158164E-09 -4.485525E-11
       158  16 -4.661961E+04  7.124377E+05 -7.788559E+03 -1.408036E+05  1.025221E-08  1.571930E-07
       158  17 -1.661214E+03  8.122827E+05  2.893767E+04 -1.613147E+05  7.789199E-09  3.053242E-08
       158  18  8.292589E+04  9.251272E+05  9.131728E+04 -2.001983E+05  2.403324E-09 -9.936543E-08
       158  19  6.646146E+04  1.209088E+06  6.156872E+04 -1.383222E+05 -1.886752E+04  3.557852E+04
       158  20  6.269120E+04  1.096073E+06  6.843184E+04 -9.931465E+04 -1.087948E+04  6.108686E+04
       158  21  9.876341E+04  9.962861E+05  1.018279E+05 -7.867856E+04 -2.608148E+03  8.659229E+04
       158  22  9.922397E+03  9.607315E+05  2.689022E+04 -1.395632E+05 -1.883952E+04  1.794693E+04
       158  23  3.051368E+04  9.541664E+05  4.868467E+04 -1.303185E+05 -1.085269E+04  4.282546E+04
       158  24  9.083798E+04  9.607029E+05  9.657318E+04 -1.394403E+05 -2.584981E+03  6.770474E+04
       158  25 -4.661923E+04  7.124378E+05 -7.787894E+03 -1.408036E+05 -1.881144E+04  3.220655E+02
       158  26 -1.660927E+03  8.122834E+05  2.893902E+04 -1.613149E+05 -1.082407E+04  2.456803E+04
       158  27  8.292654E+04  9.251297E+05  9.132176E+04 -2.001984E+05 -2.558122E+03  4.881822E+04
       159   1  1.522674E+06  1.655979E+05  2.855286E+05  5.177751E+03  3.477337E+05  5.739615E+03
       159   2  1.494109E+06 -3.041566E+05  5.487358E+03  3.344247E+04  2.298145E+05  1.168460E+04
       159   3  1.629233E+06 -2.145504E+05 -5.628670E+04 -5.825858E+04  1.119207E+05  8.313097E+03
       159   4  2.434838E+06  3.924363E+05  5.124975E+05 -3.674472E+04  3.499733E+05  5.725850E+03
       159   5  2.353131E+06 -9.017794E+04  2.185773E+05  2.430533E+04  2.303284E+05  1.168136E+04
       159   6  2.435191E+06 -1.354714E+04  1.438926E+05 -3.459993E+04  1.107192E+05  8.313661E+03
       159   7  3.347758E+06  6.192196E+05  7.394054E+05 -7.872965E+04  3.522158E+05  5.711807E+03
       159   8  3.212821E+06  1.237460E+05  4.316123E+05  1.515491E+04  2.308428E+05  1.167812E+04
       159   9  3.241738E+06  1.874095E+05  3.440236E+05 -1.091094E+04  1.095162E+05  8.314132E+03
       159  10  1.522545E+06  1.655655E+05  2.853018E+05  5.176146E+03 -9.707932E-10  1.052429E-11
       159  11  1.494052E+06 -3.041709E+05  5.388104E+03  3.344031E+04 -2.897795E-10 -3.694176E-11
       159  12  1.629220E+06 -2.145538E+05 -5.631030E+04 -5.825933E+04 -1.354430E-10 -3.317328E-10
       159  13  2.434707E+06  3.924036E+05  5.122682E+05 -3.674634E+04 -1.053599E-09 -2.475854E-11
       159  14  2.353074E+06 -9.019226E+04  2.184777E+05  2.430317E+04 -1.019974E-09  5.046519E-10
       159  15  2.435178E+06 -1.355049E+04  1.438695E+05 -3.460067E+04  9.782930E-10  1.086745E-10
       159  16  3.347626E+06  6.191864E+05  7.391735E+05 -7.873127E+04  2.120707E-10 -1.675006E-10
       159  17  3.212764E+06  1.237317E+05  4.315124E+05  1.515274E+04  3.943515E-11  5.737721E-11
       159  18  3.241725E+06  1.874062E+05  3.440011E+05 -1.091168E+04  1.127149E-09  3.334325E-10
       159  19  1.522674E+06  1.655979E+05  2.855286E+05  5.177751E+03 -3.477337E+05 -5.739615E+03
       159  20  1.494109E+06 -3.041566E+05  5.487358E+03  3.344247E+04 -2.298145E+05 -1.168460E+04
       159  21  1.629233E+06 -2.145504E+05 -5.628670E+04 -5.825858E+04 -1.119207E+05 -8.313097E+03
       159  22  2.434838E+06  3.924363E+05  5.124975E+05 -3.674472E+04 -3.499733E+05 -5.725850E+03
       159  23  2.353131E+06 -9.017794E+04  2.185773E+05  2.430533E+04 -2.303284E+05 -1.168136E+04
       159  24  2.435191E+06 -1.354714E+04  1.438926E+05 -3.459993E+04 -1.107192E+05 -8.313661E+03
       159  25  3.347758E+06  6.192196E+05  7.394054E+05 -7.872965E+04 -3.522158E+05 -5.711807E+03
       159  26  3.212821E+06  1.237460E+05  4.316123E+05  1.515491E+04 -2.308428E+05 -1.167812E+04
       159  27  3.241738E+06  1.874095E+05  3.440236E+05 -1.091094E+04 -1.095162E+05 -8.314132E+03
       160   1  1.899092E+06 -6.760489E+04 -6.772055E+03 -1.823822E+04  8.683250E+04  5.677534E+03
       160   2  1.916596E+06 -1.317855E+05 -6.103961E+04  1.187592E+04  5.716956E+04  5.329195E+03
       160   3  1.961220E+06 -1.124586E+05 -7.467307E+04 -2.733284E+04  2.750458E+04  4.187194E+03
       160   4  2.404848E+06  5.838729E+04  1.187533E+05 -2.406538E+04  8.689632E+04  5.676458E+03
       160   5  2.391315E+06 -1.350314E+04  5.677955E+04  1.064245E+04  5.707813E+04  5.328726E+03
       160   6  2.404908E+06 -1.893556E+03  3.552411E+04 -2.396911E+04  2.725937E+04  4.187167E+03
       160   7  2.910836E+06  1.843605E+05  2.442597E+05 -2.989736E+04  8.696018E+04  5.675381E+03
       160   8  2.866237E+06  1.047624E+05  1.745819E+05  9.407995E+03  5.698661E+04  5.328257E+03
       160   9  2.848773E+06  1.086568E+05  1.457066E+05 -2.060298E+04  2.701397E+04  4.187137E+03
       160  10  1.899083E+06 -6.760694E+04 -6.786241E+03 -1.823862E+04 -4.823042E-10 -2.036810E-10
       160  11  1.916593E+06 -1.317864E+05 -6.104579E+04  1.187568E+04  1.459119E-09 -5.498632E-10
       160  12  1.961220E+06 -1.124588E+05 -7.467452E+04 -2.733293E+04  1.119000E-10 -7.192291E-11
       160  13  2.404840E+06  5.838524E+04  1.187391E+05 -2.406577E+04 -5.364413E-11 -2.612508E-10
       160  14  2.391311E+06 -1.350405E+04  5.677340E+04  1.064221E+04  5.216968E-10 -5.905381E-11
       160  15  2.404907E+06 -1.893773E+03  3.552268E+04 -2.396920E+04 -3.544117E-10  7.691419E-10
       160  16  2.910828E+06  1.843585E+05  2.442455E+05 -2.989776E+04 -3.725483E-10  1.717438E-11
       160  17  2.866234E+06  1.047615E+05  1.745758E+05  9.407750E+03 -2.444201E-10 -9.153442E-11
       160  18  2.848772E+06  1.086566E+05  1.457052E+05 -2.060307E+04  7.525383E-10  1.410581E-09
       160  19  1.899092E+06 -6.760489E+04 -6.772055E+03 -1.823822E+04 -8.683250E+04 -5.677534E+03
       160  20  1.916596E+06 -1.317855E+05 -6.103961E+04  1.187592E+04 -5.716956E+04 -5.329195E+03
       160  21  1.961220E+06 -1.124586E+05 -7.467307E+04 -2.733284E+04 -2.750458E+04 -4.187194E+03
       160  22  2.404848E+06  5.838729E+04  1.187533E+05 -2.406538E+04 -8.689632E+04 -5.676458E+03
       160  23  2.391315E+06 -1.350314E+04  5.677955E+04  1.064245E+04 -5.707813E+04 -5.328726E+03
       160  24  2.404908E+06 -1.893556E+03  3.552411E+04 -2.396911E+04 -2.725937E+04 -4.187167E+03
       160  25  2.910836E+06  1.843605E+05  2.442597E+05 -2.989736E+04 -8.696018E+04 -5.675381E+03
       160  26  2.866237E+06  1.047624E+05  1.745819E+05  9.407995E+03 -5.698661E+04 -5.328257E+03
       160  27  2.848773E+06  1.086568E+05  1.457066E+05 -2.060298E+04 -2.701397E+04 -4.187137E+03
       161   1  2.137958E+06 -5.664808E+04 -3.656815E+04 -1.727446E+04  2.160269E+04  3.427257E+03
       161   2  2.155088E+06 -6.245019E+04 -4.540914E+04  3.771630E+03  1.399746E+04  2.594028E+03
       161   3  2.176825E+06 -5.576856E+04 -4.609003E+04 -1.852618E+04  6.391497E+03  1.952662E+03
       161   4  2.399932E+06  8.607693E+03  2.838572E+04 -1.822069E+04  2.145168E+04  3.427196E+03
       161   5  2.397636E+06 -2.021339E+03  1.479091E+04  3.448866E+03  1.387593E+04  2.594060E+03
       161   6  2.399940E+06 -1.743272E+02  9.333457E+03 -1.822441E+04  6.299672E+03  1.952739E+03
       161   7  2.661968E+06  7.385834E+04  9.333450E+04 -1.916731E+04  2.130061E+04  3.427136E+03
       161   8  2.640237E+06  5.840312E+04  7.498658E+04  3.125988E+03  1.375435E+04  2.594091E+03
       161   9  2.623100E+06  5.541619E+04  6.475323E+04 -1.792252E+04  6.207813E+03  1.952816E+03
       161  10  2.137957E+06 -5.664821E+04 -3.656905E+04 -1.727452E+04 -1.364618E-10 -4.833624E-10
       161  11  2.155088E+06 -6.245025E+04 -4.540952E+04  3.771601E+03 -5.526566E-10 -1.023123E-09
       161  12  2.176825E+06 -5.576858E+04 -4.609011E+04 -1.852619E+04 -1.103578E-09  4.416487E-10
       161  13  2.399931E+06  8.607558E+03  2.838484E+04 -1.822075E+04 -2.021545E-11  2.298289E-10
       161  14  2.397636E+06 -2.021397E+03  1.479054E+04  3.448837E+03  2.048617E-09 -5.914498E-10
       161  15  2.399940E+06 -1.743419E+02  9.333376E+03 -1.822442E+04 -2.958403E-10 -9.908712E-11
       161  16  2.661967E+06  7.385821E+04  9.333362E+04 -1.916737E+04 -1.013544E-09  2.900798E-10
       161  17  2.640237E+06  5.840306E+04  7.498622E+04  3.125959E+03  3.641719E-09 -1.419509E-09
       161  18  2.623100E+06  5.541617E+04  6.475315E+04 -1.792253E+04  1.333882E-09 -3.604558E-10
       161  19  2.137958E+06 -5.664808E+04 -3.656815E+04 -1.727446E+04 -2.160269E+04 -3.427257E+03
       161  20  2.155088E+06 -6.245019E+04 -4.540914E+04  3.771630E+03 -1.399746E+04 -2.594028E+03
       161  21  2.176825E+06 -5.576856E+04 -4.609003E+04 -1.852618E+04 -6.391497E+03 -1.952662E+03
       161  22  2.399932E+06  8.607693E+03  2.838572E+04 -1.822069E+04 -2.145168E+04 -3.427196E+03
       161  23  2.397636E+06 -2.021339E+03  1.479091E+04  3.448866E+03 -1.387593E+04 -2.594060E+03
       161  24  2.399940E+06 -1.743272E+02  9.333457E+03 -1.822441E+04 -6.299672E+03 -1.952739E+03
       161  25  2.661968E+06  7.385834E+04  9.333450E+04 -1.916731E+04 -2.130061E+04 -3.427136E+03
       161  26  2.640237E+06  5.840312E+04  7.498658E+04  3.125988E+03 -1.375435E+04 -2.594091E+03
       161  27  2.623100E+06  5.541619E+04  6.475323E+04 -1.792252E+04 -6.207813E+03 -1.952816E+03
       162   1  2.296823E+06 -2.420595E+04 -1.774681E+04 -1.534296E+04  4.881329E+03  1.586520E+03
       162   2  2.310484E+06 -2.233442E+04 -1.689858E+04  2.588458E+02  2.344730E+03  9.347758E+02
       162   3  2.324996E+06 -1.819130E+04 -1.384525E+04 -1.557333E+04 -1.919962E+02  4.110908E+02
       162   4  2.399118E+06  1.267388E+03  7.586521E+03 -1.557520E+04  4.760643E+03  1.586675E+03
       162   5  2.398695E+06 -3.592008E+02  4.994269E+03  1.409778E+02  2.245259E+03  9.349241E+02
       162   6  2.399118E+06  2.818989E+02  4.592131E+03 -1.557654E+04 -2.701945E+02  4.112242E+02
       162   7  2.501423E+06  2.673995E+04  3.291908E+04 -1.580748E+04  4.639938E+03  1.586830E+03
       162   8  2.486913E+06  2.161544E+04  2.688654E+04  2.309580E+01  2.145774E+03  9.350723E+02
       162   9  2.473246E+06  1.875469E+04  2.302910E+04 -1.557975E+04 -3.484022E+02  4.113575E+02
       162  10  2.296823E+06 -2.420596E+04 -1.774686E+04 -1.534297E+04 -1.740936E-09 -4.560068E-10
       162  11  2.310484E+06 -2.233442E+04 -1.689859E+04  2.588440E+02  3.255661E-09  7.205787E-10
       162  12  2.324996E+06 -1.819130E+04 -1.384525E+04 -1.557333E+04  2.615177E-09  2.269983E-10
       162  13  2.399118E+06  1.267380E+03  7.586474E+03 -1.557521E+04 -1.002878E-09 -7.017721E-11
       162  14  2.398695E+06 -3.592031E+02  4.994258E+03  1.409761E+02  7.612423E-10  7.473088E-11
       162  15  2.399118E+06  2.818987E+02  4.592130E+03 -1.557654E+04  2.875825E-12 -5.935826E-10
       162  16  2.501423E+06  2.673994E+04  3.291903E+04 -1.580749E+04  8.078850E-10 -6.368367E-10
       162  17  2.486913E+06  2.161544E+04  2.688653E+04  2.309419E+01  1.150825E-09  5.834674E-10
       162  18  2.473246E+06  1.875469E+04  2.302910E+04 -1.557975E+04 -1.518268E-09  3.332302E-10
       162  19  2.296823E+06 -2.420595E+04 -1.774681E+04 -1.534296E+04 -4.881329E+03 -1.586520E+03
       162  20  2.310484E+06 -2.233442E+04 -1.689858E+04  2.588458E+02 -2.344730E+03 -9.347758E+02
       162  21  2.324996E+06 -1.819130E+04 -1.384525E+04 -1.557333E+04  1.919962E+02 -4.110908E+02
       162  22  2.399118E+06  1.267388E+03  7.586521E+03 -1.557520E+04 -4.760643E+03 -1.586675E+03
       162  23  2.398695E+06 -3.592008E+02  4.994269E+03  1.409778E+02 -2.245259E+03 -9.349241E+02
       162  24  2.399118E+06  2.818989E+02  4.592131E+03 -1.557654E+04  2.701945E+02 -4.112242E+02
       162  25  2.501423E+06  2.673995E+04  3.291908E+04 -1.580748E+04 -4.639938E+03 -1.586830E+03
       162  26  2.486913E+06  2.161544E+04  2.688654E+04  2.309580E+01 -2.145774E+03 -9.350723E+02
       162  27  2.473246E+06  1.875469E+04  2.302910E+04 -1.557975E+04  3.484022E+02 -4.113575E+02
       163   1  2.423703E+06  6.285833E+03  1.094684E+04 -1.507756E+04 -1.037957E+03  1.349054E+02
       163   2  2.436451E+06  8.941687E+03  1.564962E+04 -4.323793E+02 -4.189015E+03 -3.968147E+02
       163   3  2.450250E+06  1.461048E+04  2.312831E+04 -1.540351E+04 -7.340128E+03 -9.726041E+02
       163   4  2.399166E+06  1.655312E+02  4.814510E+03 -1.517325E+04 -1.124723E+03  1.350595E+02
       163   5  2.398638E+06 -4.776536E+02  6.265801E+03 -3.636318E+02 -4.283045E+03 -3.966574E+02
       163   6  2.399162E+06  1.893491E+03  1.049818E+04 -1.517043E+04 -7.441354E+03 -9.724457E+02
       163   7  2.374629E+06 -5.954816E+03 -1.317865E+03 -1.526893E+04 -1.211485E+03  1.352137E+02
       163   8  2.360826E+06 -9.897101E+03 -3.118126E+03 -2.948880E+02 -4.377068E+03 -3.965002E+02
       163   9  2.348076E+06 -1.082370E+04 -2.132147E+03 -1.493738E+04 -7.542571E+03 -9.722874E+02
       163  10  2.423703E+06  6.285832E+03  1.094684E+04 -1.507756E+04  1.003651E-09  5.768867E-10
       163  11  2.436451E+06  8.941682E+03  1.564959E+04 -4.323807E+02  5.105284E-10  3.248439E-10
       163  12  2.450250E+06  1.461047E+04  2.312821E+04 -1.540351E+04 -3.510371E-11 -5.116306E-10
       163  13  2.399166E+06  1.655308E+02  4.814508E+03 -1.517325E+04  9.622697E-10 -4.087599E-10
       163  14  2.398638E+06 -4.776587E+02  6.265767E+03 -3.636332E+02  1.727036E-10 -1.049306E-11
       163  15  2.399162E+06  1.893475E+03  1.049807E+04 -1.517044E+04 -4.846407E-10  3.035675E-10
       163  16  2.374629E+06 -5.954816E+03 -1.317867E+03 -1.526893E+04 -1.770573E-10  1.979086E-10
       163  17  2.360826E+06 -9.897106E+03 -3.118162E+03 -2.948894E+02  1.491046E-09  6.591643E-10
       163  18  2.348076E+06 -1.082371E+04 -2.132255E+03 -1.493738E+04 -9.851279E-10 -7.928660E-10
       163  19  2.423703E+06  6.285833E+03  1.094684E+04 -1.507756E+04  1.037957E+03 -1.349054E+02
       163  20  2.436451E+06  8.941687E+03  1.564962E+04 -4.323793E+02  4.189015E+03  3.968147E+02
       163  21  2.450250E+06  1.461048E+04  2.312831E+04 -1.540351E+04  7.340128E+03  9.726041E+02
       163  22  2.399166E+06  1.655312E+02  4.814510E+03 -1.517325E+04  1.124723E+03 -1.350595E+02
       163  23  2.398638E+06 -4.776536E+02  6.265801E+03 -3.636318E+02  4.283045E+03  3.966574E+02
       163  24  2.399162E+06  1.893491E+03  1.049818E+04 -1.517043E+04  7.441354E+03  9.724457E+02
       163  25  2.374629E+06 -5.954816E+03 -1.317865E+03 -1.526893E+04  1.211485E+03 -1.352137E+02
       163  26  2.360826E+06 -9.897101E+03 -3.118126E+03 -2.948880E+02  4.377068E+03  3.965002E+02
       163  27  2.348076E+06 -1.082370E+04 -2.132147E+03 -1.493738E+04  7.542571E+03  9.722874E+02
       164   1  2.559566E+06  3.934942E+04  5.272635E+04 -1.630541E+04 -9.502072E+03 -1.295303E+03
       164   2  2.573187E+06  4.088165E+04  6.508064E+04  1.356631E+03 -2.044793E+04 -1.868442E+03
       164   3  2.592999E+06  6.072511E+04  8.915647E+04 -1.829403E+04 -3.139365E+04 -2.563227E+03
       164   4  2.400300E+06 -3.266674E+02  1.316304E+04 -1.688737E+04 -9.589394E+03 -1.295179E+03
       164   5  2.397192E+06 -2.955717E+03  2.141016E+04  1.775320E+03 -2.055301E+04 -1.868358E+03
       164   6  2.400280E+06  1.273253E+04  4.139366E+04 -1.687534E+04 -3.151621E+04 -2.563232E+03
       164   7  2.241056E+06 -4.000465E+04 -2.640217E+04 -1.746917E+04 -9.676693E+03 -1.295055E+03
       164   8  2.221225E+06 -4.679539E+04 -2.226262E+04  2.193899E+03 -2.065807E+04 -1.868274E+03
       164   9  2.207594E+06 -3.526282E+04 -6.371919E+03 -1.545708E+04 -3.163874E+04 -2.563238E+03
       164  10  2.559566E+06  3.934939E+04  5.272618E+04 -1.630542E+04 -1.079238E-11 -6.662526E-10
       164  11  2.573187E+06  4.088153E+04  6.507985E+04  1.356600E+03 -2.528373E-09 -9.336462E-10
       164  12  2.592998E+06  6.072484E+04  8.915461E+04 -1.829409E+04 -1.018460E-09 -7.710413E-10
       164  13  2.400300E+06 -3.266938E+02  1.316286E+04 -1.688738E+04  1.327392E-09 -6.936613E-10
       164  14  2.397192E+06 -2.955834E+03  2.140936E+04  1.775289E+03 -4.832113E-10 -1.210068E-09
       164  15  2.400279E+06  1.273225E+04  4.139178E+04 -1.687540E+04  1.235207E-09 -4.456518E-10
       164  16  2.241056E+06 -4.000467E+04 -2.640234E+04 -1.746918E+04 -1.638340E-13 -1.480883E-10
       164  17  2.221224E+06 -4.679551E+04 -2.226343E+04  2.193868E+03  1.595604E-09 -8.162820E-10
       164  18  2.207593E+06 -3.526309E+04 -6.373806E+03 -1.545714E+04 -4.521487E-10  4.015189E-10
       164  19  2.559566E+06  3.934942E+04  5.272635E+04 -1.630541E+04  9.502072E+03  1.295303E+03
       164  20  2.573187E+06  4.088165E+04  6.508064E+04  1.356631E+03  2.044793E+04  1.868442E+03
       164  21  2.592999E+06  6.072511E+04  8.915647E+04 -1.829403E+04  3.139365E+04  2.563227E+03
       164  22  2.400300E+06 -3.266674E+02  1.316304E+04 -1.688737E+04  9.589394E+03  1.295179E+03
       164  23  2.397192E+06 -2.955717E+03  2.141016E+04  1.775320E+03  2.055301E+04  1.868358E+03
       164  24  2.400280E+06  1.273253E+04  4.139366E+04 -1.687534E+04  3.151621E+04  2.563232E+03
       164  25  2.241056E+06 -4.000465E+04 -2.640217E+04 -1.746917E+04  9.676693E+03  1.295055E+03
       164  26  2.221225E+06 -4.679539E+04 -2.226262E+04  2.193899E+03  2.065807E+04  1.868274E+03
       164  27  2.207594E+06 -3.526282E+04 -6.371919E+03 -1.545708E+04  3.163874E+04  2.563238E+03
       165   1  2.752374E+06  8.313221E+04  1.374529E+05 -1.645137E+04 -3.976741E+04 -3.187641E+03
       165   2  2.759096E+06  7.255613E+04  1.750984E+05  5.018172E+03 -8.352873E+04 -4.131506E+03
       165   3  2.803460E+06  1.844597E+05  2.720429E+05 -3.062216E+04 -1.272923E+05 -4.438397E+03
       165   4  2.407263E+06 -2.820814E+03  5.177678E+04 -2.127028E+04 -3.996869E+04 -3.187308E+03
       165   5  2.388387E+06 -1.976622E+04  8.314077E+04  7.256730E+03 -8.359985E+04 -4.131966E+03
       165   6  2.407152E+06  8.578475E+04  1.737393E+05 -2.132783E+04 -1.272315E+05 -4.440468E+03
       165   7  2.062259E+06 -8.878265E+04 -3.390822E+04 -2.608651E+04 -4.016985E+04 -3.186972E+03
       165   8  2.017803E+06 -1.120988E+05 -8.827082E+03  9.493954E+03 -8.367091E+04 -4.132427E+03
       165   9  2.010987E+06 -1.290157E+04  7.542404E+04 -1.203943E+04 -1.271707E+05 -4.442538E+03
       165  10  2.752373E+06  8.313178E+04  1.374499E+05 -1.645147E+04 -6.337169E-10 -5.011215E-10
       165  11  2.759089E+06  7.255425E+04  1.750853E+05  5.017894E+03  1.370767E-09  1.105455E-09
       165  12  2.803442E+06  1.844553E+05  2.720126E+05 -3.062262E+04 -3.073394E-11  3.952638E-10
       165  13  2.407261E+06 -2.821252E+03  5.177377E+04 -2.127039E+04 -2.336791E-09  2.452683E-10
       165  14  2.388380E+06 -1.976811E+04  8.312765E+04  7.256453E+03 -4.766471E-09  5.406240E-10
       165  15  2.407135E+06  8.578040E+04  1.737090E+05 -2.132828E+04 -2.179993E-09  2.032838E-10
       165  16  2.062257E+06 -8.878309E+04 -3.391127E+04 -2.608661E+04 -1.376626E-09  2.591545E-10
       165  17  2.017795E+06 -1.121007E+05 -8.840227E+03  9.493676E+03 -3.146472E-09 -3.193912E-10
       165  18  2.010970E+06 -1.290592E+04  7.539371E+04 -1.203988E+04 -1.361689E-09  2.689515E-10
       165  19  2.752374E+06  8.313221E+04  1.374529E+05 -1.645137E+04  3.976741E+04  3.187641E+03
       165  20  2.759096E+06  7.255613E+04  1.750984E+05  5.018172E+03  8.352873E+04  4.131506E+03
       165  21  2.803460E+06  1.844597E+05  2.720429E+05 -3.062216E+04  1.272923E+05  4.438397E+03
       165  22  2.407263E+06 -2.820814E+03  5.177678E+04 -2.127028E+04  3.996869E+04  3.187308E+03
       165  23  2.388387E+06 -1.976622E+04  8.314077E+04  7.256730E+03  8.359985E+04  4.131966E+03
       165  24  2.407152E+06  8.578475E+04  1.737393E+05 -2.132783E+04  1.272315E+05  4.440468E+03
       165  25  2.062259E+06 -8.878265E+04 -3.390822E+04 -2.608651E+04  4.016985E+04  3.186972E+03
       165  26  2.017803E+06 -1.120988E+05 -8.827082E+03  9.493954E+03  8.367091E+04  4.132427E+03
       165  27  2.010987E+06 -1.290157E+04  7.542404E+04 -1.203943E+04  1.271707E+05  4.442538E+03
       166   1  3.091631E+06  1.399303E+05  3.693579E+05  3.548921E+03 -1.610838E+05 -6.585469E+03
       166   2  3.018368E+06  3.846324E+04  4.899609E+05  2.348936E+03 -3.376168E+05 -9.414028E+03
       166   3  3.177526E+06  7.550730E+05  9.307294E+05 -9.668990E+04 -5.141743E+05 -4.892051E+03
       166   4  2.450528E+06 -1.981517E+04  2.102683E+05 -2.970311E+04 -1.620238E+05 -6.578591E+03
       166   5  2.334030E+06 -1.318298E+05  3.203689E+05  1.815076E+04 -3.371520E+05 -9.422712E+03
       166   6  2.449958E+06  5.744593E+05  7.499180E+05 -3.183022E+04 -5.122922E+05 -4.940481E+03
       166   7  1.809798E+06 -1.795873E+05  5.114860E+04 -6.292104E+04 -1.629627E+05 -6.571606E+03
       166   8  1.650117E+06 -3.021568E+05  1.507422E+05  3.393496E+04 -3.366875E+05 -9.431381E+03
       166   9  1.722877E+06  3.938222E+05  5.690694E+05  3.295335E+04 -5.104119E+05 -4.988571E+03
       166  10  3.091603E+06  1.399234E+05  3.693093E+05  3.548068E+03 -1.369974E-09  4.000373E-10
       166  11  3.018246E+06  3.843274E+04  4.897476E+05  2.346381E+03  1.640887E-09 -4.896910E-10
       166  12  3.177243E+06  7.550025E+05  9.302350E+05 -9.669193E+04 -7.952076E-10 -7.397700E-10
       166  13  2.450500E+06 -1.982223E+04  2.102190E+05 -2.970397E+04 -2.120932E-09  5.577341E-12
       166  14  2.333909E+06 -1.318602E+05  3.201559E+05  1.814820E+04 -3.011007E-10 -5.892592E-10
       166  15  2.449677E+06  5.743892E+05  7.494266E+05 -3.183226E+04  5.562484E-10  6.298304E-12
       166  16  1.809769E+06 -1.795945E+05  5.109877E+04 -6.292191E+04  8.990665E-10 -3.547921E-10
       166  17  1.649995E+06 -3.021872E+05  1.505296E+05  3.393240E+04 -2.247143E-09  6.535034E-10
       166  18  1.722598E+06  3.937525E+05  5.685811E+05  3.295131E+04  1.046150E-09 -3.250085E-10
       166  19  3.091631E+06  1.399303E+05  3.693579E+05  3.548921E+03  1.610838E+05  6.585469E+03
       166  20  3.018368E+06  3.846324E+04  4.899609E+05  2.348936E+03  3.376168E+05  9.414028E+03
       166  21  3.177526E+06  7.550730E+05  9.307294E+05 -9.668990E+04  5.141743E+05  4.892051E+03
       166  22  2.450528E+06 -1.981517E+04  2.102683E+05 -2.970311E+04  1.620238E+05  6.578591E+03
       166  23  2.334030E+06 -1.318298E+05  3.203689E+05  1.815076E+04  3.371520E+05  9.422712E+03
       166  24  2.449958E+06  5.744593E+05  7.499180E+05 -3.183022E+04  5.122922E+05  4.940481E+03
       166  25  1.809798E+06 -1.795873E+05  5.114860E+04 -6.292104E+04  1.629627E+05  6.571606E+03
       166  26  1.650117E+06 -3.021568E+05  1.507422E+05  3.393496E+04  3.366875E+05  9.431381E+03
       166  27  1.722877E+06  3.938222E+05  5.690694E+05  3.295335E+04  5.104119E+05  4.988571E+03
       167   1 -1.280340E+04  7.462811E+04  1.279956E+04 -1.674140E+03 -2.024340E+03  7.230824E+04
       167   2 -1.125417E+05  6.716967E+04 -4.602950E+04 -6.095683E+03 -4.890807E+03  4.729376E+04
       167   3 -9.331374E+04  9.439553E+04 -5.849899E+04  1.181213E+04 -3.940379E+03  2.229902E+04
       167   4  8.298471E+04  4.585476E+05  1.085476E+05  6.339632E+03 -2.028067E+03  7.316553E+04
       167   5 -1.919125E+04  4.411620E+05  4.692916E+04 -5.066790E+03 -4.891468E+03  4.749575E+04
       167   6 -2.325276E+03  4.585550E+05  3.210495E+04  5.855186E+03 -3.938421E+03  2.184613E+04
       167   7  1.787620E+05  8.426007E+05  2.042846E+05  1.435855E+04 -2.031770E+03  7.402334E+04
       167   8  7.414871E+04  8.152812E+05  1.398774E+05 -4.037115E+03 -4.892128E+03  4.769786E+04
       167   9  8.865334E+04  8.228349E+05  1.226990E+05 -1.051206E+02 -3.936454E+03  2.139297E+04
       167  10 -1.280481E+04  7.462250E+04  1.278973E+04 -1.674022E+03  9.766541E-10  5.545864E-10
       167  11 -1.125423E+05  6.716726E+04 -4.603374E+04 -6.095496E+03  1.612647E-09 -2.929666E-10
       167  12 -9.331389E+04  9.439499E+04 -5.849996E+04  1.181220E+04  6.272840E-10 -6.035475E-10
       167  13  8.298327E+04  4.585418E+05  1.085375E+05  6.339752E+03  2.626231E-09 -1.390635E-11
       167  14 -1.919188E+04  4.411596E+05  4.692488E+04 -5.066603E+03  5.277559E-10  6.276919E-11
       167  15 -2.325421E+03  4.585545E+05  3.210403E+04  5.855256E+03  4.355938E-10 -9.279893E-12
       167  16  1.787605E+05  8.425949E+05  2.042743E+05  1.435867E+04  7.480481E-10 -5.311684E-10
       167  17  7.414808E+04  8.152788E+05  1.398730E+05 -4.036928E+03  4.254855E-09  1.353840E-10
       167  18  8.865320E+04  8.228344E+05  1.226981E+05 -1.050528E+02  1.426903E-09  6.028858E-10
       167  19 -1.280340E+04  7.462811E+04  1.279956E+04 -1.674140E+03  2.024340E+03 -7.230824E+04
       167  20 -1.125417E+05  6.716967E+04 -4.602950E+04 -6.095683E+03  4.890807E+03 -4.729376E+04
       167  21 -9.331374E+04  9.439553E+04 -5.849899E+04  1.181213E+04  3.940379E+03 -2.229902E+04
       167  22  8.298471E+04  4.585476E+05  1.085476E+05  6.339632E+03  2.028067E+03 -7.316553E+04
       167  23 -1.919125E+04  4.411620E+05  4.692916E+04 -5.066790E+03  4.891468E+03 -4.749575E+04
       167  24 -2.325276E+03  4.585550E+05  3.210495E+04  5.855186E+03  3.938421E+03 -2.184613E+04
       167  25  1.787620E+05  8.426007E+05  2.042846E+05  1.435855E+04  2.031770E+03 -7.402334E+04
       167  26  7.414871E+04  8.152812E+05  1.398774E+05 -4.037115E+03  4.892128E+03 -4.769786E+04
       167  27  8.865334E+04  8.228349E+05  1.226990E+05 -1.051206E+02  3.936454E+03 -2.139297E+04
       168   1 -6.257548E+04  1.530304E+05 -4.721323E+04  4.244796E+03 -3.156814E+03  1.636420E+04
       168   2 -7.663243E+04  1.568255E+05 -5.698037E+04 -3.197257E+03 -3.323027E+03  8.301244E+03
       168   3 -6.739885E+04  1.685001E+05 -5.547391E+04  6.680909E+03 -2.714009E+03  2.406570E+02
       168   4  1.221177E+04  4.525932E+05  2.731234E+04  4.928402E+03 -3.157099E+03  1.646816E+04
       168   5 -3.772097E+03  4.486422E+05  1.559001E+04 -3.750681E+03 -3.322822E+03  8.271490E+03
       168   6  3.552013E+03  4.525909E+05  1.523039E+04  4.889925E+03 -2.713443E+03  7.728693E+01
       168   7  8.699227E+04  7.522375E+05  1.018312E+05  5.612420E+03 -3.157383E+03  1.657217E+04
       168   8  6.908184E+04  7.405362E+05  8.815400E+04 -4.304296E+03 -3.322617E+03  8.241721E+03
       168   9  7.449682E+04  7.367549E+05  8.592864E+04  3.098176E+03 -2.712875E+03 -8.615790E+01
       168  10 -6.257556E+04  1.530301E+05 -4.721375E+04  4.244838E+03 -1.165604E-09  8.720072E-10
       168  11 -7.663246E+04  1.568254E+05 -5.698052E+04 -3.197235E+03  1.475885E-10 -2.941305E-10
       168  12 -6.739886E+04  1.685001E+05 -5.547393E+04  6.680909E+03 -7.855389E-10 -1.136963E-09
       168  13  1.221168E+04  4.525929E+05  2.731181E+04  4.928444E+03 -2.318002E-09 -2.592702E-11
       168  14 -3.772127E+03  4.486421E+05  1.558986E+04 -3.750659E+03 -2.046692E-09  8.796214E-11
       168  15  3.552005E+03  4.525909E+05  1.523037E+04  4.889925E+03 -1.397691E-09  8.477362E-11
       168  16  8.699219E+04  7.522372E+05  1.018307E+05  5.612462E+03 -6.219760E-10 -7.548784E-10
       168  17  6.908181E+04  7.405361E+05  8.815385E+04 -4.304274E+03 -2.867122E-09  4.682043E-10
       168  18  7.449681E+04  7.367549E+05  8.592862E+04  3.098176E+03 -1.275673E-09  1.119603E-09
       168  19 -6.257548E+04  1.530304E+05 -4.721323E+04  4.244796E+03  3.156814E+03 -1.636420E+04
       168  20 -7.663243E+04  1.568255E+05 -5.698037E+04 -3.197257E+03  3.323027E+03 -8.301244E+03
       168  21 -6.739885E+04  1.685001E+05 -5.547391E+04  6.680909E+03  2.714009E+03 -2.406570E+02
       168  22  1.221177E+04  4.525932E+05  2.731234E+04  4.928402E+03  3.157099E+03 -1.646816E+04
       168  23 -3.772097E+03  4.486422E+05  1.559001E+04 -3.750681E+03  3.322822E+03 -8.271490E+03
       168  24  3.552013E+03  4.525909E+05  1.523039E+04  4.889925E+03  2.713443E+03 -7.728693E+01
       168  25  8.699227E+04  7.522375E+05  1.018312E+05  5.612420E+03  3.157383E+03 -1.657217E+04
       168  26  6.908184E+04  7.405362E+05  8.815400E+04 -4.304296E+03  3.322617E+03 -8.241721E+03
       168  27  7.449682E+04  7.367549E+05  8.592864E+04  3.098176E+03  2.712875E+03  8.615790E+01
       169   1 -5.723683E+04  2.207189E+05 -4.255479E+04  2.879531E+03 -2.738422E+03 -2.847322E+03
       169   2 -6.312130E+04  2.208990E+05 -3.909498E+04 -1.612483E+03 -2.718939E+03 -1.189309E+04
       169   3 -2.849978E+04  2.329780E+05 -1.950055E+04  7.666227E+03 -8.494718E+02 -2.093529E+04
       169   4  8.676981E+02  4.535011E+05  1.531702E+04  4.093222E+03 -2.738789E+03 -2.691671E+03
       169   5 -6.540175E+03  4.475222E+05  1.724082E+04 -2.767410E+03 -2.718494E+03 -1.205131E+04
       169   6  2.660468E+04  4.534931E+05  3.551307E+04  4.142349E+03 -8.484415E+02 -2.140730E+04
       169   7  5.896816E+04  6.863326E+05  7.318477E+04  5.307402E+03 -2.739156E+03 -2.535962E+03
       169   8  5.003709E+04  6.741921E+05  7.357278E+04 -3.922732E+03 -2.718048E+03 -1.220959E+04
       169   9  8.170552E+04  6.740522E+05  9.052303E+04  6.172402E+02 -8.474061E+02 -2.187946E+04
       169  10 -5.723684E+04  2.207189E+05 -4.255482E+04  2.879525E+03 -1.127332E-09  1.452201E-11
       169  11 -6.312134E+04  2.208988E+05 -3.909526E+04 -1.612509E+03  1.988239E-09  1.691212E-10
       169  12 -2.849990E+04  2.329776E+05 -1.950138E+04  7.666213E+03  8.668681E-10 -1.057773E-10
       169  13  8.676881E+02  4.535011E+05  1.531699E+04  4.093216E+03  5.687615E-10 -6.638250E-11
       169  14 -6.540222E+03  4.475221E+05  1.724053E+04 -2.767437E+03  1.188768E-09  6.462348E-11
       169  15  2.660455E+04  4.534926E+05  3.551221E+04  4.142334E+03  2.670982E-10  1.459538E-11
       169  16  5.896815E+04  6.863326E+05  7.318475E+04  5.307396E+03 -1.616847E-09  5.794575E-11
       169  17  5.003705E+04  6.741919E+05  7.357249E+04 -3.922759E+03  1.125977E-09 -3.125414E-10
       169  18  8.170539E+04  6.740517E+05  9.052213E+04  6.172252E+02  6.673500E-10  5.630785E-11
       169  19 -5.723683E+04  2.207189E+05 -4.255479E+04  2.879531E+03  2.738422E+03  2.847322E+03
       169  20 -6.312130E+04  2.208990E+05 -3.909498E+04 -1.612483E+03  2.718939E+03  1.189309E+04
       169  21 -2.849978E+04  2.329780E+05 -1.950055E+04  7.666227E+03  8.494718E+02  2.093529E+04
       169  22  8.676981E+02  4.535011E+05  1.531702E+04  4.093222E+03  2.738789E+03  2.691671E+03
       169  23 -6.540175E+03  4.475222E+05  1.724082E+04 -2.767410E+03  2.718494E+03  1.205131E+04
       169  24  2.660468E+04  4.534931E+05  3.551307E+04  4.142349E+03  8.484415E+02  2.140730E+04
       169  25  5.896816E+04  6.863326E+05  7.318477E+04  5.307402E+03  2.739156E+03  2.535962E+03
       169  26  5.003709E+04  6.741921E+05  7.357278E+04 -3.922732E+03  2.718048E+03  1.220959E+04
       169  27  8.170552E+04  6.740522E+05  9.052303E+04  6.172402E+02  8.474061E+02  2.187946E+04
       170   1 -2.411686E+06 -7.240617E+05 -5.413420E+05 -7.744882E+05 -3.296793E+05 -1.256139E+05
       170   2 -2.302940E+06 -2.950448E+05 -2.398513E+05 -9.246489E+05 -2.126604E+05 -7.989840E+04
       170   3 -2.458668E+06 -3.388320E+05 -1.698472E+05 -8.804438E+05 -9.572864E+04 -3.397437E+04
       170   4 -2.370318E+06 -6.680978E+05 -5.218490E+05 -7.225743E+05 -3.295747E+05 -1.256006E+05
       170   5 -2.211359E+06 -2.498463E+05 -2.125503E+05 -8.890777E+05 -2.125204E+05 -7.984933E+04
       170   6 -2.316863E+06 -3.043675E+05 -1.347543E+05 -8.612287E+05 -9.554226E+04 -3.389957E+04
       170   7 -2.328944E+06 -6.121233E+05 -5.023556E+05 -6.706554E+05 -3.294702E+05 -1.255872E+05
       170   8 -2.119770E+06 -2.046455E+05 -1.852501E+05 -8.535013E+05 -2.123803E+05 -7.980024E+04
       170   9 -2.175038E+06 -2.699035E+05 -9.966258E+04 -8.420110E+05 -9.535582E+04 -3.382477E+04
       170  10 -2.411808E+06 -7.241080E+05 -5.415769E+05 -7.745216E+05 -3.162858E-10  1.355282E-11
       170  11 -2.302990E+06 -2.950639E+05 -2.399487E+05 -9.246626E+05 -1.661008E-09  3.085519E-10
       170  12 -2.458679E+06 -3.388357E+05 -1.698667E+05 -8.804464E+05  2.728270E-10  2.881246E-10
       170  13 -2.370439E+06 -6.681441E+05 -5.220838E+05 -7.226077E+05  1.653253E-09  1.709117E-10
       170  14 -2.211410E+06 -2.498654E+05 -2.126475E+05 -8.890914E+05  5.648504E-09  7.546429E-10
       170  15 -2.316874E+06 -3.043712E+05 -1.347737E+05 -8.612313E+05  3.437555E-09 -1.844711E-10
       170  16 -2.329066E+06 -6.121695E+05 -5.025902E+05 -6.706888E+05 -1.398710E-09  2.263337E-10
       170  17 -2.119821E+06 -2.046646E+05 -1.853472E+05 -8.535150E+05 -9.161500E-11  6.164329E-10
       170  18 -2.175049E+06 -2.699072E+05 -9.968190E+04 -8.420136E+05 -3.429339E-09 -7.325743E-10
       170  19 -2.411686E+06 -7.240617E+05 -5.413420E+05 -7.744882E+05  3.296793E+05  1.256139E+05
       170  20 -2.302940E+06 -2.950448E+05 -2.398513E+05 -9.246489E+05  2.126604E+05  7.989840E+04
       170  21 -2.458668E+06 -3.388320E+05 -1.698472E+05 -8.804438E+05  9.572864E+04  3.397437E+04
       170  22 -2.370318E+06 -6.680978E+05 -5.218490E+05 -7.225743E+05  3.295747E+05  1.256006E+05
       170  23 -2.211359E+06 -2.498463E+05 -2.125503E+05 -8.890777E+05  2.125204E+05  7.984933E+04
       170  24 -2.316863E+06 -3.043675E+05 -1.347543E+05 -8.612287E+05  9.554226E+04  3.389957E+04
       170  25 -2.328944E+06 -6.121233E+05 -5.023556E+05 -6.706554E+05  3.294702E+05  1.255872E+05
       170  26 -2.119770E+06 -2.046455E+05 -1.852501E+05 -8.535013E+05  2.123803E+05  7.980024E+04
       170  27 -2.175038E+06 -2.699035E+05 -9.966258E+04 -8.420110E+05  9.535582E+04  3.382477E+04
       171   1 -2.632560E+06 -5.027799E+05 -2.049659E+05 -9.286418E+05 -7.568312E+04 -2.535267E+04
       171   2 -2.618464E+06 -4.580439E+05 -1.493704E+05 -9.710159E+05 -4.946807E+04 -1.403521E+04
       171   3 -2.671363E+06 -4.568341E+05 -1.349766E+05 -9.528617E+05 -2.299077E+04 -3.404729E+03
       171   4 -2.296361E+06 -3.685849E+05 -1.109900E+05 -8.301418E+05 -7.547867E+04 -2.527578E+04
       171   5 -2.258878E+06 -3.195873E+05 -4.997859E+04 -8.707613E+05 -4.935760E+04 -1.399355E+04
       171   6 -2.288352E+06 -3.140708E+05 -3.007715E+04 -8.508594E+05 -2.297321E+04 -3.398170E+03
       171   7 -1.960054E+06 -2.343804E+05 -1.702482E+04 -7.315926E+05 -7.527407E+04 -2.519884E+04
       171   8 -1.899168E+06 -1.811223E+05  4.940127E+04 -7.704541E+05 -4.924704E+04 -1.395185E+04
       171   9 -1.905201E+06 -1.713003E+05  7.480908E+04 -7.488009E+05 -2.295564E+04 -3.391605E+03
       171  10 -2.632566E+06 -5.027821E+05 -2.049779E+05 -9.286434E+05  2.664934E-10 -9.346190E-10
       171  11 -2.618467E+06 -4.580448E+05 -1.493754E+05 -9.710165E+05 -2.511198E-09  1.235234E-10
       171  12 -2.671364E+06 -4.568342E+05 -1.349776E+05 -9.528618E+05  1.606467E-10 -4.144639E-10
       171  13 -2.296367E+06 -3.685872E+05 -1.110019E+05 -8.301434E+05 -1.646806E-09 -5.267459E-10
       171  14 -2.258881E+06 -3.195882E+05 -4.998356E+04 -8.707619E+05 -6.933273E-10 -3.808090E-11
       171  15 -2.288353E+06 -3.140710E+05 -3.007817E+04 -8.508595E+05  5.759453E-10  7.583153E-10
       171  16 -1.960061E+06 -2.343826E+05 -1.703671E+04 -7.315942E+05 -1.315612E-09 -2.507407E-10
       171  17 -1.899170E+06 -1.811232E+05  4.939632E+04 -7.704546E+05  1.823953E-09  4.772937E-10
       171  18 -1.905201E+06 -1.713005E+05  7.480806E+04 -7.488009E+05  1.361338E-09  1.366299E-09
       171  19 -2.632560E+06 -5.027799E+05 -2.049659E+05 -9.286418E+05  7.568312E+04  2.535267E+04
       171  20 -2.618464E+06 -4.580439E+05 -1.493704E+05 -9.710159E+05  4.946807E+04  1.403521E+04
       171  21 -2.671363E+06 -4.568341E+05 -1.349766E+05 -9.528617E+05  2.299077E+04  3.404729E+03
       171  22 -2.296361E+06 -3.685849E+05 -1.109900E+05 -8.301418E+05  7.547867E+04  2.527578E+04
       171  23 -2.258878E+06 -3.195873E+05 -4.997859E+04 -8.707613E+05  4.935760E+04  1.399355E+04
       171  24 -2.288352E+06 -3.140708E+05 -3.007715E+04 -8.508594E+05  2.297321E+04  3.398170E+03
       171  25 -1.960054E+06 -2.343804E+05 -1.702482E+04 -7.315926E+05  7.527407E+04  2.519884E+04
       171  26 -1.899168E+06 -1.811223E+05  4.940127E+04 -7.704541E+05  4.924704E+04  1.395185E+04
       171  27 -1.905201E+06 -1.713003E+05  7.480908E+04 -7.488009E+05  2.295564E+04  3.391605E+03
       172   1 -2.766217E+06 -5.151773E+05 -1.583573E+05 -9.867280E+05 -1.884375E+04 -1.374437E+03
       172   2 -2.765836E+06 -5.101068E+05 -1.473771E+05 -9.948408E+05 -1.285139E+04  1.657041E+03
       172   3 -2.775182E+06 -5.087920E+05 -1.435590E+05 -9.904018E+05 -6.489583E+03  3.710665E+03
       172   4 -2.279126E+06 -3.291142E+05 -2.394448E+04 -8.524643E+05 -1.867255E+04 -1.309969E+03
       172   5 -2.273689E+06 -3.231972E+05 -1.185450E+04 -8.602705E+05 -1.282871E+04  1.665236E+03
       172   6 -2.277943E+06 -3.209994E+05 -6.803772E+03 -8.555259E+05 -6.615511E+03  3.662954E+03
       172   7 -1.791807E+06 -1.430367E+05  1.104464E+05 -7.181052E+05 -1.850119E+04 -1.245442E+03
       172   8 -1.781310E+06 -1.362736E+05  1.236457E+05 -7.256040E+05 -1.280601E+04  1.673439E+03
       172   9 -1.780468E+06 -1.331933E+05  1.299286E+05 -7.205529E+05 -6.741549E+03  3.615202E+03
       172  10 -2.766217E+06 -5.151774E+05 -1.583580E+05 -9.867280E+05  4.012891E-10  6.854526E-10
       172  11 -2.765837E+06 -5.101068E+05 -1.473774E+05 -9.948408E+05 -1.769729E-09  4.812950E-10
       172  12 -2.775182E+06 -5.087920E+05 -1.435591E+05 -9.904018E+05 -1.029455E-09  1.743291E-09
       172  13 -2.279126E+06 -3.291143E+05 -2.394514E+04 -8.524643E+05  2.820606E-09  6.433592E-10
       172  14 -2.273690E+06 -3.231973E+05 -1.185481E+04 -8.602705E+05  5.616536E-10  1.053856E-09
       172  15 -2.277943E+06 -3.209995E+05 -6.803880E+03 -8.555259E+05 -1.028256E-09 -5.440973E-10
       172  16 -1.791808E+06 -1.430368E+05  1.104458E+05 -7.181052E+05  1.348238E-09 -4.258579E-10
       172  17 -1.781310E+06 -1.362737E+05  1.236454E+05 -7.256040E+05 -1.599761E-09 -6.904816E-10
       172  18 -1.780468E+06 -1.331934E+05  1.299285E+05 -7.205529E+05 -3.638249E-10 -1.217507E-09
       172  19 -2.766217E+06 -5.151773E+05 -1.583573E+05 -9.867280E+05  1.884375E+04  1.374437E+03
       172  20 -2.765836E+06 -5.101068E+05 -1.473771E+05 -9.948408E+05  1.285139E+04 -1.657041E+03
       172  21 -2.775182E+06 -5.087920E+05 -1.435590E+05 -9.904018E+05  6.489583E+03 -3.710665E+03
       172  22 -2.279126E+06 -3.291142E+05 -2.394448E+04 -8.524643E+05  1.867255E+04  1.309969E+03
       172  23 -2.273689E+06 -3.231972E+05 -1.185450E+04 -8.602705E+05  1.282871E+04 -1.665236E+03
       172  24 -2.277943E+06 -3.209994E+05 -6.803772E+03 -8.555259E+05  6.615511E+03 -3.662954E+03
       172  25 -1.791807E+06 -1.430367E+05  1.104464E+05 -7.181052E+05  1.850119E+04  1.245442E+03
       172  26 -1.781310E+06 -1.362736E+05  1.236457E+05 -7.256040E+05  1.280601E+04 -1.673439E+03
       172  27 -1.780468E+06 -1.331933E+05  1.299286E+05 -7.205529E+05  6.741549E+03 -3.615202E+03
       173   1 -2.729588E+06 -5.026903E+05 -1.316323E+05 -9.872395E+05 -5.638707E+03  3.879285E+03
       173   2 -2.728850E+06 -4.847983E+05 -1.259108E+05 -9.712849E+05 -3.819886E+03  4.451066E+03
       173   3 -2.704025E+06 -4.909880E+05 -1.214581E+05 -9.799034E+05 -1.671835E+03  4.139807E+03
       173   4 -2.270929E+06 -3.290857E+05 -5.445564E+03 -8.624244E+05 -5.586746E+03  3.898484E+03
       173   5 -2.282905E+06 -3.164404E+05 -3.315117E+03 -8.503735E+05 -3.905030E+03  4.418891E+03
       173   6 -2.270766E+06 -3.278465E+05 -2.343343E+03 -8.628946E+05 -1.894242E+03  4.056547E+03
       173   7 -1.812069E+06 -1.554691E+05  1.207219E+05 -7.375259E+05 -5.534742E+03  3.917700E+03
       173   8 -1.836770E+06 -1.480714E+05  1.192624E+05 -7.293839E+05 -3.990242E+03  4.386692E+03
       173   9 -1.837328E+06 -1.646949E+05  1.167542E+05 -7.458123E+05 -2.116821E+03  3.973223E+03
       173  10 -2.729588E+06 -5.026903E+05 -1.316323E+05 -9.872395E+05  1.704091E-10  7.307492E-10
       173  11 -2.728850E+06 -4.847983E+05 -1.259109E+05 -9.712849E+05 -7.827606E-10 -6.864139E-11
       173  12 -2.704025E+06 -4.909880E+05 -1.214581E+05 -9.799034E+05 -1.971886E-09  6.309595E-11
       173  13 -2.270929E+06 -3.290857E+05 -5.445651E+03 -8.624243E+05 -7.548504E-10  1.840039E-10
       173  14 -2.282905E+06 -3.164405E+05 -3.315183E+03 -8.503735E+05 -1.458596E-09  8.781402E-10
       173  15 -2.270766E+06 -3.278466E+05 -2.343381E+03 -8.628946E+05 -1.932353E-09  7.369677E-10
       173  16 -1.812069E+06 -1.554691E+05  1.207219E+05 -7.375259E+05 -4.337711E-10 -2.430415E-10
       173  17 -1.836770E+06 -1.480715E+05  1.192624E+05 -7.293839E+05 -5.994420E-10  1.175006E-09
       173  18 -1.837328E+06 -1.646949E+05  1.167542E+05 -7.458123E+05 -1.165311E-09  7.162854E-10
       173  19 -2.729588E+06 -5.026903E+05 -1.316323E+05 -9.872395E+05  5.638707E+03 -3.879285E+03
       173  20 -2.728850E+06 -4.847983E+05 -1.259108E+05 -9.712849E+05  3.819886E+03 -4.451066E+03
       173  21 -2.704025E+06 -4.909880E+05 -1.214581E+05 -9.799034E+05  1.671835E+03 -4.139807E+03
       173  22 -2.270929E+06 -3.290857E+05 -5.445564E+03 -8.624244E+05  5.586746E+03 -3.898484E+03
       173  23 -2.282905E+06 -3.164404E+05 -3.315117E+03 -8.503735E+05  3.905030E+03 -4.418891E+03
       173  24 -2.270766E+06 -3.278465E+05 -2.343343E+03 -8.628946E+05  1.894242E+03 -4.056547E+03
       173  25 -1.812069E+06 -1.554691E+05  1.207219E+05 -7.375259E+05  5.534742E+03 -3.917700E+03
       173  26 -1.836770E+06 -1.480714E+05  1.192624E+05 -7.293839E+05  3.990242E+03 -4.386692E+03
       173  27 -1.837328E+06 -1.646949E+05  1.167542E+05 -7.458123E+05  2.116821E+03 -3.973223E+03
       174   1 -2.529766E+06 -4.321943E+05 -7.473493E+04 -9.397791E+05 -1.200800E+03  3.625374E+03
       174   2 -2.526286E+06 -3.997293E+05 -6.816436E+04 -9.073148E+05  6.264170E+02  3.361905E+03
       174   3 -2.478749E+06 -4.132737E+05 -6.306801E+04 -9.253465E+05  2.622270E+03  2.641497E+03
       174   4 -2.266324E+06 -3.329550E+05 -2.421558E+03 -8.685499E+05 -1.295002E+03  3.590134E+03
       174   5 -2.288413E+06 -3.102882E+05 -2.849776E+03 -8.431833E+05  4.611821E+02  3.300311E+03
       174   6 -2.266432E+06 -3.336151E+05 -4.695347E+03 -8.683121E+05  2.385902E+03  2.553609E+03
       174   7 -2.002817E+06 -2.337120E+05  6.988541E+04 -7.972934E+05 -1.389248E+03  3.554878E+03
       174   8 -2.050487E+06 -2.208441E+05  6.245964E+04 -7.790298E+05  2.958773E+02  3.238691E+03
       174   9 -2.054072E+06 -2.539541E+05  5.367324E+04 -8.112601E+05  2.149445E+03  2.465689E+03
       174  10 -2.529766E+06 -4.321943E+05 -7.473495E+04 -9.397791E+05 -6.981079E-10 -4.027912E-10
       174  11 -2.526286E+06 -3.997294E+05 -6.816438E+04 -9.073148E+05  9.479326E-10  1.154944E-09
       174  12 -2.478749E+06 -4.132737E+05 -6.306803E+04 -9.253465E+05  1.244783E-09 -8.729280E-10
       174  13 -2.266324E+06 -3.329550E+05 -2.421585E+03 -8.685499E+05 -6.371525E-10  9.451553E-10
       174  14 -2.288413E+06 -3.102883E+05 -2.849797E+03 -8.431833E+05  3.577134E-10  3.979973E-10
       174  15 -2.266432E+06 -3.336151E+05 -4.695370E+03 -8.683121E+05  4.845199E-10 -2.834589E-10
       174  16 -2.002817E+06 -2.337120E+05  6.988538E+04 -7.972934E+05 -2.159065E-09  8.421586E-11
       174  17 -2.050487E+06 -2.208441E+05  6.245962E+04 -7.790298E+05 -7.758626E-10  1.109470E-10
       174  18 -2.054072E+06 -2.539542E+05  5.367322E+04 -8.112601E+05 -1.219185E-09 -2.035560E-10
       174  19 -2.529766E+06 -4.321943E+05 -7.473493E+04 -9.397791E+05  1.200800E+03 -3.625374E+03
       174  20 -2.526286E+06 -3.997293E+05 -6.816436E+04 -9.073148E+05 -6.264170E+02 -3.361905E+03
       174  21 -2.478749E+06 -4.132737E+05 -6.306801E+04 -9.253465E+05 -2.622270E+03 -2.641497E+03
       174  22 -2.266324E+06 -3.329550E+05 -2.421558E+03 -8.685499E+05  1.295002E+03 -3.590134E+03
       174  23 -2.288413E+06 -3.102882E+05 -2.849776E+03 -8.431833E+05 -4.611821E+02 -3.300311E+03
       174  24 -2.266432E+06 -3.336151E+05 -4.695347E+03 -8.683121E+05 -2.385902E+03 -2.553609E+03
       174  25 -2.002817E+06 -2.337120E+05  6.988541E+04 -7.972934E+05  1.389248E+03 -3.554878E+03
       174  26 -2.050487E+06 -2.208441E+05  6.245964E+04 -7.790298E+05 -2.958773E+02 -3.238691E+03
       174  27 -2.054072E+06 -2.539541E+05  5.367324E+04 -8.112601E+05 -2.149445E+03 -2.465689E+03
       175   1 -2.237626E+06 -3.237083E+05  1.840927E+03 -8.633121E+05  3.799503E+03  2.089594E+03
       175   2 -2.232196E+06 -2.858175E+05  5.850228E+03 -8.260582E+05  9.318778E+03  2.697794E+03
       175   3 -2.181264E+06 -3.080160E+05  3.336444E+03 -8.441875E+05  1.475796E+04  3.523097E+03
       175   4 -2.265702E+06 -3.338803E+05 -5.892988E+03 -8.704573E+05  3.583490E+03  2.009346E+03
       175   5 -2.288930E+06 -3.072742E+05 -9.748229E+03 -8.414875E+05  9.136329E+03  2.629972E+03
       175   6 -2.266663E+06 -3.407650E+05 -2.015370E+04 -8.679014E+05  1.460881E+04  3.467607E+03
       175   7 -2.293778E+06 -3.440523E+05 -1.362697E+04 -8.776022E+05  3.367488E+03  1.929102E+03
       175   8 -2.345660E+06 -3.287306E+05 -2.534697E+04 -8.569154E+05  8.953900E+03  2.562156E+03
       175   9 -2.352055E+06 -3.735134E+05 -4.364449E+04 -8.916123E+05  1.445969E+04  3.412125E+03
       175  10 -2.237626E+06 -3.237083E+05  1.840892E+03 -8.633121E+05  7.292950E-10 -9.510358E-10
       175  11 -2.232196E+06 -2.858175E+05  5.850050E+03 -8.260582E+05  6.497087E-10 -1.121973E-09
       175  12 -2.181264E+06 -3.080161E+05  3.336009E+03 -8.441876E+05 -5.926335E-10  4.173097E-10
       175  13 -2.265702E+06 -3.338803E+05 -5.893020E+03 -8.704573E+05 -4.399587E-10 -5.908751E-10
       175  14 -2.288930E+06 -3.072742E+05 -9.748400E+03 -8.414875E+05 -1.566376E-09 -2.211413E-09
       175  15 -2.266663E+06 -3.407650E+05 -2.015412E+04 -8.679015E+05 -1.743317E-09 -6.281100E-10
       175  16 -2.293778E+06 -3.440523E+05 -1.362700E+04 -8.776022E+05 -1.370658E-09 -1.279552E-10
       175  17 -2.345661E+06 -3.287306E+05 -2.534714E+04 -8.569154E+05 -3.885445E-09  1.020535E-09
       175  18 -2.352056E+06 -3.735135E+05 -4.364490E+04 -8.916124E+05 -1.275481E-09  2.180130E-10
       175  19 -2.237626E+06 -3.237083E+05  1.840927E+03 -8.633121E+05 -3.799503E+03 -2.089594E+03
       175  20 -2.232196E+06 -2.858175E+05  5.850228E+03 -8.260582E+05 -9.318778E+03 -2.697794E+03
       175  21 -2.181264E+06 -3.080160E+05  3.336444E+03 -8.441875E+05 -1.475796E+04 -3.523097E+03
       175  22 -2.265702E+06 -3.338803E+05 -5.892988E+03 -8.704573E+05 -3.583490E+03 -2.009346E+03
       175  23 -2.288930E+06 -3.072742E+05 -9.748229E+03 -8.414875E+05 -9.136329E+03 -2.629972E+03
       175  24 -2.266663E+06 -3.407650E+05 -2.015370E+04 -8.679014E+05 -1.460881E+04 -3.467607E+03
       175  25 -2.293778E+06 -3.440523E+05 -1.362697E+04 -8.776022E+05 -3.367488E+03 -1.929102E+03
       175  26 -2.345660E+06 -3.287306E+05 -2.534697E+04 -8.569154E+05 -8.953900E+03 -2.562156E+03
       175  27 -2.352055E+06 -3.735134E+05 -4.364449E+04 -8.916123E+05 -1.445969E+04 -3.412125E+03
       176   1 -1.960398E+06 -2.157587E+05  5.991906E+04 -7.877016E+05  1.900945E+04  4.088118E+03
       176   2 -1.950218E+06 -1.760752E+05  4.916896E+04 -7.568700E+05  4.151157E+04  1.100348E+04
       176   3 -1.928636E+06 -2.398454E+05  4.289195E+03 -7.523322E+05  6.350857E+04  1.928035E+04
       176   4 -2.271457E+06 -3.302144E+05 -2.507388E+04 -8.689778E+05  1.869478E+04  3.971023E+03
       176   5 -2.280371E+06 -3.014821E+05 -4.169827E+04 -8.472395E+05  4.139895E+04  1.096123E+04
       176   6 -2.277938E+06 -3.762679E+05 -9.262754E+04 -8.517940E+05  6.359713E+04  1.931266E+04
       176   7 -2.582423E+06 -4.446661E+05 -1.100757E+05 -9.502180E+05  1.838029E+04  3.853989E+03
       176   8 -2.610420E+06 -4.268826E+05 -1.325756E+05 -9.375657E+05  4.128640E+04  1.091899E+04
       176   9 -2.627123E+06 -5.126813E+05 -1.895557E+05 -9.512045E+05  6.368563E+04  1.934495E+04
       176  10 -1.960398E+06 -2.157588E+05  5.991835E+04 -7.877017E+05 -1.157760E-09  1.084338E-09
       176  11 -1.950220E+06 -1.760758E+05  4.916548E+04 -7.568704E+05 -1.407566E-09  7.737069E-10
       176  12 -1.928641E+06 -2.398469E+05  4.280888E+03 -7.523332E+05 -1.487292E-10 -2.201955E-10
       176  13 -2.271457E+06 -3.302145E+05 -2.507457E+04 -8.689779E+05 -7.018624E-10  3.596549E-10
       176  14 -2.280373E+06 -3.014827E+05 -4.170173E+04 -8.472399E+05 -2.493999E-09  1.221492E-10
       176  15 -2.277943E+06 -3.762694E+05 -9.263588E+04 -8.517950E+05  4.571394E-10  6.174826E-10
       176  16 -2.582424E+06 -4.446662E+05 -1.100763E+05 -9.502180E+05  1.063616E-09 -1.506072E-10
       176  17 -2.610422E+06 -4.268832E+05 -1.325790E+05 -9.375660E+05 -3.522933E-10 -2.101718E-10
       176  18 -2.627127E+06 -5.126828E+05 -1.895640E+05 -9.512055E+05 -2.656328E-11 -1.411434E-10
       176  19 -1.960398E+06 -2.157587E+05  5.991906E+04 -7.877016E+05 -1.900945E+04 -4.088118E+03
       176  20 -1.950218E+06 -1.760752E+05  4.916896E+04 -7.568700E+05 -4.151157E+04 -1.100348E+04
       176  21 -1.928636E+06 -2.398454E+05  4.289195E+03 -7.523322E+05 -6.350857E+04 -1.928035E+04
       176  22 -2.271457E+06 -3.302144E+05 -2.507388E+04 -8.689778E+05 -1.869478E+04 -3.971023E+03
       176  23 -2.280371E+06 -3.014821E+05 -4.169827E+04 -8.472395E+05 -4.139895E+04 -1.096123E+04
       176  24 -2.277938E+06 -3.762679E+05 -9.262754E+04 -8.517940E+05 -6.359713E+04 -1.931266E+04
       176  25 -2.582423E+06 -4.446661E+05 -1.100757E+05 -9.502180E+05 -1.838029E+04 -3.853989E+03
       176  26 -2.610420E+06 -4.268826E+05 -1.325756E+05 -9.375657E+05 -4.128640E+04 -1.091899E+04
       176  27 -2.627123E+06 -5.126813E+05 -1.895557E+05 -9.512045E+05 -6.368563E+04 -1.934495E+04
       177   1 -1.807460E+06 -1.501280E+05  1.930674E+04 -7.573464E+05  8.167327E+04  2.484078E+04
       177   2 -1.759205E+06 -5.791248E+04 -4.433156E+04 -7.284079E+05  1.794969E+05  6.023221E+04
       177   3 -1.873838E+06 -4.131841E+05 -2.995708E+05 -5.978107E+05  2.752350E+05  1.011821E+05
       177   4 -2.297778E+06 -3.189560E+05 -1.122400E+05 -8.735866E+05  8.102096E+04  2.459895E+04
       177   5 -2.237958E+06 -2.472667E+05 -1.775286E+05 -8.671918E+05  1.796432E+05  6.028374E+04
       177   6 -2.341312E+06 -6.234324E+05 -4.351690E+05 -7.591013E+05  2.761812E+05  1.015200E+05
       177   7 -2.787867E+06 -4.877801E+05 -2.438074E+05 -9.897483E+05  8.036921E+04  2.435728E+04
       177   8 -2.716490E+06 -4.366020E+05 -3.107471E+05 -1.005877E+06  1.797894E+05  6.033520E+04
       177   9 -2.808573E+06 -8.336415E+05 -5.707889E+05 -9.202734E+05  2.771266E+05  1.018573E+05
       177  10 -1.807467E+06 -1.501305E+05  1.929299E+04 -7.573480E+05 -1.541201E-10  6.124685E-10
       177  11 -1.759241E+06 -5.792507E+04 -4.439915E+04 -7.284167E+05 -3.056113E-10  2.707728E-10
       177  12 -1.873922E+06 -4.132155E+05 -2.997329E+05 -5.978332E+05 -1.024101E-10 -4.590825E-10
       177  13 -2.297786E+06 -3.189584E+05 -1.122535E+05 -8.735882E+05 -5.007413E-10 -3.255358E-10
       177  14 -2.237994E+06 -2.472793E+05 -1.775963E+05 -8.672005E+05 -1.842442E-10  1.090957E-10
       177  15 -2.341397E+06 -6.234641E+05 -4.353324E+05 -7.591240E+05  3.739701E-10 -4.752004E-10
       177  16 -2.787874E+06 -4.877824E+05 -2.438207E+05 -9.897499E+05  2.966724E-11 -4.848391E-10
       177  17 -2.716526E+06 -4.366147E+05 -3.108150E+05 -1.005886E+06  1.931353E-10 -9.361572E-11
       177  18 -2.808659E+06 -8.336734E+05 -5.709535E+05 -9.202962E+05 -6.384581E-10  6.404759E-11
       177  19 -1.807460E+06 -1.501280E+05  1.930674E+04 -7.573464E+05 -8.167327E+04 -2.484078E+04
       177  20 -1.759205E+06 -5.791248E+04 -4.433156E+04 -7.284079E+05 -1.794969E+05 -6.023221E+04
       177  21 -1.873838E+06 -4.131841E+05 -2.995708E+05 -5.978107E+05 -2.752350E+05 -1.011821E+05
       177  22 -2.297778E+06 -3.189560E+05 -1.122400E+05 -8.735866E+05 -8.102096E+04 -2.459895E+04
       177  23 -2.237958E+06 -2.472667E+05 -1.775286E+05 -8.671918E+05 -1.796432E+05 -6.028374E+04
       177  24 -2.341312E+06 -6.234324E+05 -4.351690E+05 -7.591013E+05 -2.761812E+05 -1.015200E+05
       177  25 -2.787867E+06 -4.877801E+05 -2.438074E+05 -9.897483E+05 -8.036921E+04 -2.435728E+04
       177  26 -2.716490E+06 -4.366020E+05 -3.107471E+05 -1.005877E+06 -1.797894E+05 -6.033520E+04
       177  27 -2.808573E+06 -8.336415E+05 -5.707889E+05 -9.202734E+05 -2.771266E+05 -1.018573E+05
       178   1 -9.926785E+05 -2.317786E+04  1.743427E+04  6.630822E+02  1.168281E+05  3.071538E+03
       178   2 -1.007129E+06 -1.834758E+05 -7.831246E+04  5.586907E+03  7.745351E+04  7.816672E+03
       178   3 -9.650215E+05 -1.540538E+05 -1.001623E+05 -2.067083E+04  3.809850E+04  6.371633E+03
       178   4 -3.671794E+05  1.331167E+05  1.736064E+05 -1.296947E+04  1.182503E+05  3.073824E+03
       178   5 -3.955527E+05 -3.064491E+04  7.386406E+04  2.872421E+03  7.780099E+04  7.816636E+03
       178   6 -3.672298E+05 -4.598123E+03  4.871321E+04 -1.246558E+04  3.737224E+04  6.370576E+03
       178   7  2.586754E+05  2.893825E+05  3.297493E+05 -2.661610E+04  1.196739E+05  3.076048E+03
       178   8  2.163636E+05  1.221579E+05  2.260125E+05  1.550268E+02  7.814879E+04  7.816597E+03
       178   9  2.308866E+05  1.448309E+05  1.975619E+05 -4.252537E+03  3.664527E+04  6.369501E+03
       178  10 -9.926932E+05 -2.318154E+04  1.740856E+04  6.627931E+02 -1.404950E-09  2.514864E-10
       178  11 -1.007136E+06 -1.834775E+05 -7.832387E+04  5.586420E+03 -7.737871E-10 -1.524178E-09
       178  12 -9.650231E+05 -1.540542E+05 -1.001651E+05 -2.067103E+04 -1.277880E-09 -9.622923E-10
       178  13 -3.671944E+05  1.331129E+05  1.735801E+05 -1.296976E+04  1.116130E-09 -1.209075E-09
       178  14 -3.955593E+05 -3.064660E+04  7.385256E+04  2.871931E+03  9.210559E-10 -5.290204E-10
       178  15 -3.672313E+05 -4.598542E+03  4.871051E+04 -1.246577E+04 -1.243603E-09  2.025457E-10
       178  16  2.586601E+05  2.893786E+05  3.297224E+05 -2.661640E+04  3.599392E-10  1.076822E-09
       178  17  2.163570E+05  1.221562E+05  2.260009E+05  1.545350E+02  6.065517E-11 -1.762034E-09
       178  18  2.308851E+05  1.448305E+05  1.975593E+05 -4.252725E+03  2.750371E-09 -1.199617E-09
       178  19 -9.926785E+05 -2.317786E+04  1.743427E+04  6.630822E+02 -1.168281E+05 -3.071538E+03
       178  20 -1.007129E+06 -1.834758E+05 -7.831246E+04  5.586907E+03 -7.745351E+04 -7.816672E+03
       178  21 -9.650215E+05 -1.540538E+05 -1.001623E+05 -2.067083E+04 -3.809850E+04 -6.371633E+03
       178  22 -3.671794E+05  1.331167E+05  1.736064E+05 -1.296947E+04 -1.182503E+05 -3.073824E+03
       178  23 -3.955527E+05 -3.064491E+04  7.386406E+04  2.872421E+03 -7.780099E+04 -7.816636E+03
       178  24 -3.672298E+05 -4.598123E+03  4.871321E+04 -1.246558E+04 -3.737224E+04 -6.370576E+03
       178  25  2.586754E+05  2.893825E+05  3.297493E+05 -2.661610E+04 -1.196739E+05 -3.076048E+03
       178  26  2.163636E+05  1.221579E+05  2.260125E+05  1.550268E+02 -7.814879E+04 -7.816597E+03
       178  27  2.308866E+05  1.448309E+05  1.975619E+05 -4.252537E+03 -3.664527E+04 -6.369501E+03
       179   1 -8.625826E+05 -1.014730E+05 -8.060603E+04 -1.208822E+04  2.916909E+04  5.053047E+03
       179   2 -8.514339E+05 -1.217699E+05 -9.759827E+04  5.001124E+03  1.930904E+04  5.267228E+03
       179   3 -8.296650E+05 -1.136350E+05 -1.006076E+05 -1.476195E+04  9.448056E+03  4.445046E+03
       179   4 -3.774141E+05  1.978964E+04  4.021997E+04 -1.389209E+04  2.930919E+04  5.052837E+03
       179   5 -3.827473E+05 -4.630441E+03  1.907959E+04  4.542658E+03  1.926829E+04  5.266955E+03
       179   6 -3.774349E+05 -5.983750E+02  1.204035E+04 -1.387323E+04  9.226710E+03  4.445013E+03
       179   7  1.079681E+05  1.410346E+05  1.610283E+05 -1.569742E+04  2.944940E+04  5.052626E+03
       179   8  8.613874E+04  1.124925E+05  1.357410E+05  4.083837E+03  1.922751E+04  5.266682E+03
       179   9  7.498086E+04  1.124229E+05  1.246729E+05 -1.298383E+04  9.005200E+03  4.444979E+03
       179  10 -8.625835E+05 -1.014733E+05 -8.060767E+04 -1.208834E+04 -1.805358E-09 -3.693549E-10
       179  11 -8.514343E+05 -1.217700E+05 -9.759902E+04  5.001042E+03  1.168936E-09  3.260529E-10
       179  12 -8.296651E+05 -1.136351E+05 -1.006078E+05 -1.476198E+04  1.209465E-09  2.729232E-10
       179  13 -3.774150E+05  1.978938E+04  4.021831E+04 -1.389221E+04  6.272664E-11 -1.567082E-10
       179  14 -3.827477E+05 -4.630571E+03  1.907884E+04  4.542577E+03 -2.268548E-09  4.323157E-10
       179  15 -3.774350E+05 -5.984191E+02  1.204015E+04 -1.387327E+04 -1.979414E-09  3.970908E-10
       179  16  1.079672E+05  1.410343E+05  1.610266E+05 -1.569754E+04 -4.599059E-10 -6.426769E-10
       179  17  8.613833E+04  1.124923E+05  1.357402E+05  4.083756E+03 -2.372492E-09 -1.366751E-10
       179  18  7.498077E+04  1.124228E+05  1.246727E+05 -1.298386E+04  6.427794E-10  4.772709E-10
       179  19 -8.625826E+05 -1.014730E+05 -8.060603E+04 -1.208822E+04 -2.916909E+04 -5.053047E+03
       179  20 -8.514339E+05 -1.217699E+05 -9.759827E+04  5.001124E+03 -1.930904E+04 -5.267228E+03
       179  21 -8.296650E+05 -1.136350E+05 -1.006076E+05 -1.476195E+04 -9.448056E+03 -4.445046E+03
       179  22 -3.774141E+05  1.978964E+04  4.021997E+04 -1.389209E+04 -2.930919E+04 -5.052837E+03
       179  23 -3.827473E+05 -4.630441E+03  1.907959E+04  4.542658E+03 -1.926829E+04 -5.266955E+03
       179  24 -3.774349E+05 -5.983750E+02  1.204035E+04 -1.387323E+04 -9.226710E+03 -4.445013E+03
       179  25  1.079681E+05  1.410346E+05  1.610283E+05 -1.569742E+04 -2.944940E+04 -5.052626E+03
       179  26  8.613874E+04  1.124925E+05  1.357410E+05  4.083837E+03 -1.922751E+04 -5.266682E+03
       179  27  7.498086E+04  1.124229E+05  1.246729E+05 -1.298383E+04 -9.005200E+03 -4.444979E+03
       180   1 -7.007437E+05 -7.743731E+04 -7.041782E+04 -1.431224E+04  7.328165E+03  3.887178E+03
       180   2 -6.833698E+05 -7.643775E+04 -7.054659E+04  6.202212E+03  4.852838E+03  3.325454E+03
       180   3 -6.638359E+05 -7.110899E+04 -6.782837E+04 -1.455588E+04  2.376143E+03  2.546503E+03
       180   4 -3.792835E+05  2.892982E+03  9.570506E+03 -1.485785E+04  7.254168E+03  3.887129E+03
       180   5 -3.803725E+05 -7.145161E+02  4.884016E+03  5.776192E+03  4.741222E+03  3.325533E+03
       180   6 -3.792957E+05  1.276971E+01  3.069712E+03 -1.486105E+04  2.226981E+03  2.546757E+03
       180   7 -5.772945E+04  8.321550E+04  8.955108E+04 -1.540371E+04  7.180132E+03  3.887080E+03
       180   8 -7.729180E+04  7.500181E+04  8.030773E+04  5.349997E+03  4.629551E+03  3.325613E+03
       180   9 -9.468205E+04  7.112843E+04  7.396171E+04 -1.516633E+04  2.077751E+03  2.547012E+03
       180  10 -7.007437E+05 -7.743734E+04 -7.041795E+04 -1.431226E+04 -1.803036E-09 -2.148592E-11
       180  11 -6.833698E+05 -7.643777E+04 -7.054665E+04  6.202199E+03 -1.245284E-09  3.386693E-10
       180  12 -6.638359E+05 -7.110900E+04 -6.782839E+04 -1.455588E+04  1.064693E-10 -1.263070E-09
       180  13 -3.792836E+05  2.892952E+03  9.570379E+03 -1.485787E+04 -1.059641E-09  1.954205E-10
       180  14 -3.803725E+05 -7.145340E+02  4.883953E+03  5.776179E+03 -1.190074E-09  5.177545E-10
       180  15 -3.792957E+05  1.276141E+01  3.069690E+03 -1.486106E+04 -7.400001E-10  1.626347E-09
       180  16 -5.772951E+04  8.321547E+04  8.955096E+04 -1.540373E+04  3.280803E-10  4.649236E-10
       180  17 -7.729183E+04  7.500179E+04  8.030767E+04  5.349984E+03  2.703064E-09 -8.565564E-10
       180  18 -9.468206E+04  7.112842E+04  7.396169E+04 -1.516633E+04  9.339294E-12 -1.596059E-10
       180  19 -7.007437E+05 -7.743731E+04 -7.041782E+04 -1.431224E+04 -7.328165E+03 -3.887178E+03
       180  20 -6.833698E+05 -7.643775E+04 -7.054659E+04  6.202212E+03 -4.852838E+03 -3.325454E+03
       180  21 -6.638359E+05 -7.110899E+04 -6.782837E+04 -1.455588E+04 -2.376143E+03 -2.546503E+03
       180  22 -3.792835E+05  2.892982E+03  9.570506E+03 -1.485785E+04 -7.254168E+03 -3.887129E+03
       180  23 -3.803725E+05 -7.145161E+02  4.884016E+03  5.776192E+03 -4.741222E+03 -3.325533E+03
       180  24 -3.792957E+05  1.276971E+01  3.069712E+03 -1.486105E+04 -2.226981E+03 -2.546757E+03
       180  25 -5.772945E+04  8.321550E+04  8.955108E+04 -1.540371E+04 -7.180132E+03 -3.887080E+03
       180  26 -7.729180E+04  7.500181E+04  8.030773E+04  5.349997E+03 -4.629551E+03 -3.325613E+03
       180  27 -9.468205E+04  7.112843E+04  7.396171E+04 -1.516633E+04 -2.077751E+03 -2.547012E+03
       181   1 -5.218701E+05 -3.506166E+04 -3.292567E+04 -1.511632E+04  1.843301E+03  2.073862E+03
       181   2 -5.023909E+05 -3.076484E+04 -2.909672E+04  6.701942E+03  1.135040E+03  1.339689E+03
       181   3 -4.827476E+05 -2.563978E+04 -2.462749E+04 -1.520874E+04  4.262074E+02  5.555098E+02
       181   4 -3.797191E+05  4.496033E+02  2.402929E+03 -1.540527E+04  1.724202E+03  2.074120E+03
       181   5 -3.798043E+05 -1.315941E+02  1.418373E+03  6.458547E+03  1.007399E+03  1.340007E+03
       181   6 -3.797241E+05  1.169552E+02  1.080023E+03 -1.540604E+04  2.900478E+02  5.558933E+02
       181   7 -2.375498E+05  3.595934E+04  3.773002E+04 -1.569427E+04  1.605076E+03  2.074378E+03
       181   8 -2.572042E+05  3.050052E+04  3.193234E+04  6.215114E+03  8.797336E+02  1.340325E+03
       181   9 -2.766911E+05  2.587289E+04  2.678674E+04 -1.560337E+04  1.538655E+02  5.562768E+02
       181  10 -5.218701E+05 -3.506166E+04 -3.292569E+04 -1.511632E+04  9.913369E-10  7.619431E-11
       181  11 -5.023909E+05 -3.076484E+04 -2.909673E+04  6.701941E+03  1.398926E-09  4.070486E-10
       181  12 -4.827476E+05 -2.563978E+04 -2.462750E+04 -1.520874E+04  6.725838E-10 -1.131266E-09
       181  13 -3.797192E+05  4.495978E+02  2.402915E+03 -1.540527E+04 -2.237053E-09 -1.533628E-09
       181  14 -3.798043E+05 -1.315963E+02  1.418367E+03  6.458546E+03 -5.126837E-09  6.764882E-10
       181  15 -3.797241E+05  1.169549E+02  1.080022E+03 -1.540604E+04  6.010692E-11 -2.122451E-09
       181  16 -2.375498E+05  3.595934E+04  3.773001E+04 -1.569427E+04 -1.648847E-09  8.814250E-10
       181  17 -2.572042E+05  3.050051E+04  3.193233E+04  6.215113E+03  2.464198E-10 -3.349048E-10
       181  18 -2.766911E+05  2.587289E+04  2.678674E+04 -1.560337E+04 -1.964077E-09 -3.305026E-09
       181  19 -5.218701E+05 -3.506166E+04 -3.292567E+04 -1.511632E+04 -1.843301E+03 -2.073862E+03
       181  20 -5.023909E+05 -3.076484E+04 -2.909672E+04  6.701942E+03 -1.135040E+03 -1.339689E+03
       181  21 -4.827476E+05 -2.563978E+04 -2.462749E+04 -1.520874E+04 -4.262074E+02 -5.555098E+02
       181  22 -3.797191E+05  4.496033E+02  2.402929E+03 -1.540527E+04 -1.724202E+03 -2.074120E+03
       181  23 -3.798043E+05 -1.315941E+02  1.418373E+03  6.458547E+03 -1.007399E+03 -1.340007E+03
       181  24 -3.797241E+05  1.169552E+02  1.080023E+03 -1.540604E+04 -2.900478E+02 -5.558933E+02
       181  25 -2.375498E+05  3.595934E+04  3.773002E+04 -1.569427E+04 -1.605076E+03 -2.074378E+03
       181  26 -2.572042E+05  3.050052E+04  3.193234E+04  6.215114E+03 -8.797336E+02 -1.340325E+03
       181  27 -2.766911E+05  2.587289E+04  2.678674E+04 -1.560337E+04 -1.538655E+02 -5.562768E+02
       182   1 -3.356845E+05  1.115972E+04  1.204315E+04 -1.556172E+04  2.326063E+02  8.346642E+01
       182   2 -3.159493E+05  1.584299E+04  1.695340E+04  6.419089E+03 -3.144976E+02 -6.989510E+02
       182   3 -2.962458E+05  2.116309E+04  2.232512E+04 -1.566856E+04 -8.613098E+02 -1.447888E+03
       182   4 -3.797653E+05  1.331117E+02  1.009374E+03 -1.548154E+04  9.813429E+01  8.385541E+01
       182   5 -3.797473E+05 -9.777465E+01  1.074251E+03  6.553048E+03 -4.433055E+02 -6.986003E+02
       182   6 -3.797627E+05  3.071665E+02  1.596655E+03 -1.548110E+04 -9.844361E+02 -1.447573E+03
       182   7 -4.238443E+05 -1.089364E+04 -1.002455E+04 -1.540138E+04 -3.632820E+01  8.424437E+01
       182   8 -4.435416E+05 -1.603884E+04 -1.480520E+04  6.686996E+03 -5.721001E+02 -6.982497E+02
       182   9 -4.632733E+05 -2.054928E+04 -1.913233E+04 -1.529365E+04 -1.107546E+03 -1.447258E+03
       182  10 -3.356845E+05  1.115972E+04  1.204315E+04 -1.556172E+04 -3.671191E-10  1.556597E-09
       182  11 -3.159493E+05  1.584299E+04  1.695340E+04  6.419089E+03  6.821167E-10  5.123072E-09
       182  12 -2.962458E+05  2.116309E+04  2.232512E+04 -1.566856E+04  3.975950E-09 -3.222943E-09
       182  13 -3.797653E+05  1.331117E+02  1.009374E+03 -1.548154E+04 -1.068877E-09 -2.693028E-10
       182  14 -3.797473E+05 -9.777523E+01  1.074250E+03  6.553048E+03 -1.007864E-09 -5.459460E-10
       182  15 -3.797627E+05  3.071640E+02  1.596649E+03 -1.548110E+04  1.240865E-10 -5.475370E-10
       182  16 -4.238443E+05 -1.089364E+04 -1.002455E+04 -1.540138E+04  7.933419E-10 -3.778072E-10
       182  17 -4.435416E+05 -1.603885E+04 -1.480520E+04  6.686996E+03  2.085462E-09 -3.331551E-10
       182  18 -4.632733E+05 -2.054928E+04 -1.913234E+04 -1.529365E+04 -1.944811E-09 -8.644479E-10
       182  19 -3.356845E+05  1.115972E+04  1.204315E+04 -1.556172E+04 -2.326063E+02 -8.346642E+01
       182  20 -3.159493E+05  1.584299E+04  1.695340E+04  6.419089E+03  3.144976E+02  6.989510E+02
       182  21 -2.962458E+05  2.116309E+04  2.232512E+04 -1.566856E+04  8.613098E+02  1.447888E+03
       182  22 -3.797653E+05  1.331117E+02  1.009374E+03 -1.548154E+04 -9.813429E+01 -8.385541E+01
       182  23 -3.797473E+05 -9.777465E+01  1.074251E+03  6.553048E+03  4.433055E+02  6.986003E+02
       182  24 -3.797627E+05  3.071665E+02  1.596655E+03 -1.548110E+04  9.844361E+02  1.447573E+03
       182  25 -4.238443E+05 -1.089364E+04 -1.002455E+04 -1.540138E+04  3.632820E+01 -8.424437E+01
       182  26 -4.435416E+05 -1.603884E+04 -1.480520E+04  6.686996E+03  5.721001E+02  6.982497E+02
       182  27 -4.632733E+05 -2.054928E+04 -1.913233E+04 -1.529365E+04  1.107546E+03  1.447258E+03
       183   1 -1.512788E+05  5.707903E+04  5.884721E+04 -1.541168E+04 -1.165185E+03 -1.926540E+03
       183   2 -1.330059E+05  6.128577E+04  6.457420E+04  5.644014E+03 -2.781757E+03 -2.714890E+03
       183   3 -1.134335E+05  6.825296E+04  7.212294E+04 -1.557225E+04 -4.397187E+03 -3.307377E+03
       183   4 -3.794835E+05  5.323139E+01  1.990860E+03 -1.508341E+04 -1.314377E+03 -1.926212E+03
       183   5 -3.801252E+05 -4.524982E+02  3.074964E+03  6.054487E+03 -2.897494E+03 -2.714723E+03
       183   6 -3.794735E+05  1.796916E+03  5.958084E+03 -1.508062E+04 -4.479418E+03 -3.307336E+03
       183   7 -6.076409E+05 -5.697649E+04 -5.486940E+04 -1.475523E+04 -1.463515E+03 -1.925884E+03
       183   8 -6.271892E+05 -6.219536E+04 -5.842885E+04  6.464825E+03 -3.013184E+03 -2.714556E+03
       183   9 -6.454492E+05 -6.466445E+04 -6.021207E+04 -1.458917E+04 -4.561614E+03 -3.307294E+03
       183  10 -1.512788E+05  5.707902E+04  5.884720E+04 -1.541168E+04  1.718636E-09 -3.849048E-09
       183  11 -1.330059E+05  6.128576E+04  6.457417E+04  5.644008E+03  1.599662E-09  9.263350E-10
       183  12 -1.134336E+05  6.825295E+04  7.212288E+04 -1.557226E+04 -1.556713E-09  6.866792E-10
       183  13 -3.794835E+05  5.322694E+01  1.990850E+03 -1.508341E+04  1.137034E-09 -9.933401E-10
       183  14 -3.801252E+05 -4.525084E+02  3.074934E+03  6.054481E+03  1.275514E-09 -1.526156E-10
       183  15 -3.794735E+05  1.796899E+03  5.958026E+03 -1.508063E+04  7.442970E-10 -1.750736E-10
       183  16 -6.076409E+05 -5.697649E+04 -5.486942E+04 -1.475524E+04 -7.981037E-10 -6.501866E-10
       183  17 -6.271892E+05 -6.219537E+04 -5.842888E+04  6.464819E+03  1.070160E-09  2.642111E-09
       183  18 -6.454492E+05 -6.466447E+04 -6.021213E+04 -1.458918E+04 -1.581833E-09  1.008113E-09
       183  19 -1.512788E+05  5.707903E+04  5.884721E+04 -1.541168E+04  1.165185E+03  1.926540E+03
       183  20 -1.330059E+05  6.128577E+04  6.457420E+04  5.644014E+03  2.781757E+03  2.714890E+03
       183  21 -1.134335E+05  6.825296E+04  7.212294E+04 -1.557225E+04  4.397187E+03  3.307377E+03
       183  22 -3.794835E+05  5.323139E+01  1.990860E+03 -1.508341E+04  1.314377E+03  1.926212E+03
       183  23 -3.801252E+05 -4.524982E+02  3.074964E+03  6.054487E+03  2.897494E+03  2.714723E+03
       183  24 -3.794735E+05  1.796916E+03  5.958084E+03 -1.508062E+04  4.479418E+03  3.307336E+03
       183  25 -6.076409E+05 -5.697649E+04 -5.486940E+04 -1.475523E+04  1.463515E+03  1.925884E+03
       183  26 -6.271892E+05 -6.219536E+04 -5.842885E+04  6.464825E+03  3.013184E+03  2.714556E+03
       183  27 -6.454492E+05 -6.466445E+04 -6.021207E+04 -1.458917E+04  4.561614E+03  3.307294E+03
       184   1  2.304513E+04  9.992546E+04  1.074240E+05 -1.391772E+04 -5.491332E+03 -3.869792E+03
       184   2  3.676943E+04  1.016505E+05  1.159428E+05  4.517621E+03 -1.188717E+04 -4.699413E+03
       184   3  5.746733E+04  1.210914E+05  1.333980E+05 -1.548901E+04 -1.828187E+04 -4.551225E+03
       184   4 -3.782488E+05 -3.293851E+02  7.507385E+03 -1.423178E+04 -5.711579E+03 -3.869667E+03
       184   5 -3.817136E+05 -2.885720E+03  1.181930E+04  4.988770E+03 -1.193942E+04 -4.699594E+03
       184   6 -3.782311E+05  1.225066E+04  2.495499E+04 -1.423425E+04 -1.816594E+04 -4.551436E+03
       184   7 -7.793966E+05 -1.005963E+05 -9.242128E+04 -1.454559E+04 -5.931682E+03 -3.869542E+03
       184   8 -8.000378E+05 -1.074351E+05 -9.231736E+04  5.459620E+03 -1.199163E+04 -4.699774E+03
       184   9 -8.137574E+05 -9.660440E+04 -8.350229E+04 -1.298039E+04 -1.805010E+04 -4.551647E+03
       184  10  2.304510E+04  9.992543E+04  1.074239E+05 -1.391774E+04 -7.653082E-10  7.294169E-10
       184  11  3.676927E+04  1.016505E+05  1.159425E+05  4.517576E+03  1.048556E-09 -2.267739E-10
       184  12  5.746697E+04  1.210913E+05  1.333974E+05 -1.548908E+04  4.281491E-10  5.144758E-11
       184  13 -3.782488E+05 -3.294100E+02  7.507296E+03 -1.423180E+04  1.052041E-09  3.751504E-10
       184  14 -3.817138E+05 -2.885782E+03  1.181899E+04  4.988725E+03  7.553219E-11 -1.764184E-10
       184  15 -3.782315E+05  1.225055E+04  2.495433E+04 -1.423432E+04 -1.103436E-09 -1.990721E-10
       184  16 -7.793966E+05 -1.005964E+05 -9.242137E+04 -1.454561E+04 -2.059393E-10 -9.248178E-12
       184  17 -8.000379E+05 -1.074352E+05 -9.231768E+04  5.459575E+03  3.413205E-09 -6.854699E-10
       184  18 -8.137577E+05 -9.660451E+04 -8.350294E+04 -1.298045E+04 -3.255515E-10 -5.075971E-11
       184  19  2.304513E+04  9.992546E+04  1.074240E+05 -1.391772E+04  5.491332E+03  3.869792E+03
       184  20  3.676943E+04  1.016505E+05  1.159428E+05  4.517621E+03  1.188717E+04  4.699413E+03
       184  21  5.746733E+04  1.210914E+05  1.333980E+05 -1.548901E+04  1.828187E+04  4.551225E+03
       184  22 -3.782488E+05 -3.293851E+02  7.507385E+03 -1.423178E+04  5.711579E+03  3.869667E+03
       184  23 -3.817136E+05 -2.885720E+03  1.181930E+04  4.988770E+03  1.193942E+04  4.699594E+03
       184  24 -3.782311E+05  1.225066E+04  2.495499E+04 -1.423425E+04  1.816594E+04  4.551436E+03
       184  25 -7.793966E+05 -1.005963E+05 -9.242128E+04 -1.454559E+04  5.931682E+03  3.869542E+03
       184  26 -8.000378E+05 -1.074351E+05 -9.231736E+04  5.459620E+03  1.199163E+04  4.699774E+03
       184  27 -8.137574E+05 -9.660440E+04 -8.350229E+04 -1.298039E+04  1.805010E+04  4.551647E+03
       185   1  1.830483E+05  1.357747E+05  1.683400E+05 -7.982430E+03 -2.247537E+04 -5.820956E+03
       185   2  1.796910E+05  1.231878E+05  1.873512E+05  1.755381E+03 -4.853897E+04 -7.182026E+03
       185   3  2.126165E+05  2.285563E+05  2.535002E+05 -2.150403E+04 -7.461727E+04 -2.670693E+03
       185   4 -3.717899E+05 -2.828036E+03  3.025443E+04 -1.295362E+04 -2.317953E+04 -5.821658E+03
       185   5 -3.898396E+05 -1.904396E+04  4.573648E+04  3.429343E+03 -4.823607E+04 -7.182080E+03
       185   6 -3.717540E+05  8.257673E+04  1.076869E+05 -1.318643E+04 -7.330664E+04 -2.668288E+03
       185   7 -9.263487E+05 -1.414539E+05 -1.078543E+05 -1.792042E+04 -2.388307E+04 -5.822348E+03
       185   8 -9.590758E+05 -1.613001E+05 -9.590255E+04  5.101634E+03 -4.793344E+04 -7.182131E+03
       185   9 -9.558146E+05 -6.342826E+04 -3.815204E+04 -4.876871E+03 -7.199722E+04 -2.665848E+03
       185  10  1.830478E+05  1.357746E+05  1.683390E+05 -7.982535E+03  3.858515E-10  7.082347E-10
       185  11  1.796884E+05  1.231871E+05  1.873467E+05  1.755101E+03  2.407531E-10  3.631357E-10
       185  12  2.126105E+05  2.285548E+05  2.534897E+05 -2.150419E+04 -1.071980E-09 -1.762490E-10
       185  13 -3.717905E+05 -2.828216E+03  3.025335E+04 -1.295373E+04  3.085724E-09  1.120016E-09
       185  14 -3.898421E+05 -1.904464E+04  4.573201E+04  3.429064E+03  2.711604E-09  3.297137E-09
       185  15 -3.717598E+05  8.257528E+04  1.076768E+05 -1.318659E+04  3.590924E-10 -1.196484E-11
       185  16 -9.263493E+05 -1.414541E+05 -1.078554E+05 -1.792053E+04  4.405340E-10  6.531578E-10
       185  17 -9.590783E+05 -1.613008E+05 -9.590697E+04  5.101356E+03 -3.100076E-10  3.961907E-10
       185  18 -9.558202E+05 -6.342966E+04 -3.816181E+04 -4.877026E+03  1.823121E-09 -8.023005E-10
       185  19  1.830483E+05  1.357747E+05  1.683400E+05 -7.982430E+03  2.247537E+04  5.820956E+03
       185  20  1.796910E+05  1.231878E+05  1.873512E+05  1.755381E+03  4.853897E+04  7.182026E+03
       185  21  2.126165E+05  2.285563E+05  2.535002E+05 -2.150403E+04  7.461727E+04  2.670693E+03
       185  22 -3.717899E+05 -2.828036E+03  3.025443E+04 -1.295362E+04  2.317953E+04  5.821658E+03
       185  23 -3.898396E+05 -1.904396E+04  4.573648E+04  3.429343E+03  4.823607E+04  7.182080E+03
       185  24 -3.717540E+05  8.257673E+04  1.076869E+05 -1.318643E+04  7.330664E+04  2.668288E+03
       185  25 -9.263487E+05 -1.414539E+05 -1.078543E+05 -1.792042E+04  2.388307E+04  5.822348E+03
       185  26 -9.590758E+05 -1.613001E+05 -9.590255E+04  5.101634E+03  4.793344E+04  7.182131E+03
       185  27 -9.558146E+05 -6.342826E+04 -3.815204E+04 -4.876871E+03  7.199722E+04  2.665848E+03
       186   1  4.087089E+05  1.057781E+06  4.909854E+05 -9.345860E+04  1.423161E+03  2.365090E+05
       186   2  5.897831E+04  9.334636E+05  2.751249E+05  7.021399E+03  5.589948E+03  1.511472E+05
       186   3  9.884526E+04  9.179104E+05  2.122540E+05 -4.777555E+04  2.610810E+03  6.575325E+04
       186   4  2.692570E+05  5.006553E+05  3.520490E+05 -6.015193E+04  1.441428E+03  2.351370E+05
       186   5 -6.269187E+04  4.463244E+05  1.541195E+05  1.686903E+04  5.592733E+03  1.510443E+05
       186   6 -5.098599E+03  5.006272E+05  1.083973E+05 -6.139021E+04  2.602058E+03  6.690966E+04
       186   7  1.297856E+05 -5.618704E+04  2.130898E+05 -2.687479E+04  1.459561E+03  2.337662E+05
       186   8 -1.843795E+05 -4.059963E+04  3.309635E+04  2.670922E+04  5.595517E+03  1.509414E+05
       186   9 -1.090547E+05  8.350218E+04  4.527768E+03 -7.499547E+04  2.593252E+03  6.806529E+04
       186  10  4.086939E+05  1.057721E+06  4.908805E+05 -9.345888E+04  1.643845E-09  1.141030E-09
       186  11  5.897216E+04  9.334391E+05  2.750820E+05  7.020719E+03  6.868618E-10 -3.578687E-09
       186  12  9.884410E+04  9.179058E+05  2.122458E+05 -4.777569E+04  4.059078E-10 -1.639981E-10
       186  13  2.692421E+05  5.005960E+05  3.519452E+05 -6.015221E+04  3.681325E-09 -2.365018E-09
       186  14 -6.269802E+04  4.462999E+05  1.540766E+05  1.686835E+04  2.928319E-09  3.119303E-11
       186  15 -5.099806E+03  5.006224E+05  1.083889E+05 -6.139035E+04  2.287947E-09  2.429573E-09
       186  16  1.297709E+05 -5.624571E+04  2.129871E+05 -2.687507E+04  5.720556E-10  4.510472E-11
       186  17 -1.843857E+05 -4.062411E+04  3.305348E+04  2.670854E+04  7.244670E-09  2.033597E-10
       186  18 -1.090560E+05  8.349721E+04  4.519051E+03 -7.499561E+04 -1.042174E-09  2.003810E-09
       186  19  4.087089E+05  1.057781E+06  4.909854E+05 -9.345860E+04 -1.423161E+03 -2.365090E+05
       186  20  5.897831E+04  9.334636E+05  2.751249E+05  7.021399E+03 -5.589948E+03 -1.511472E+05
       186  21  9.884526E+04  9.179104E+05  2.122540E+05 -4.777555E+04 -2.610810E+03 -6.575325E+04
       186  22  2.692570E+05  5.006553E+05  3.520490E+05 -6.015193E+04 -1.441428E+03 -2.351370E+05
       186  23 -6.269187E+04  4.463244E+05  1.541195E+05  1.686903E+04 -5.592733E+03 -1.510443E+05
       186  24 -5.098599E+03  5.006272E+05  1.083973E+05 -6.139021E+04 -2.602058E+03 -6.690966E+04
       186  25  1.297856E+05 -5.618704E+04  2.130898E+05 -2.687479E+04 -1.459561E+03 -2.337662E+05
       186  26 -1.843795E+05 -4.059963E+04  3.309635E+04  2.670922E+04 -5.595517E+03 -1.509414E+05
       186  27 -1.090547E+05  8.350218E+04  4.527768E+03 -7.499547E+04 -2.593252E+03 -6.806529E+04
       187   1  1.599380E+04  3.851831E+05  6.993289E+04 -6.571677E+04 -2.751114E+02  4.821091E+04
       187   2 -5.600947E+04  3.038780E+05  1.899630E+04  1.657806E+04 -1.971359E+03  1.669011E+04
       187   3 -3.673188E+04  2.474464E+05  1.097668E+04 -5.471646E+04 -3.245607E+03 -1.482309E+04
       187   4  4.011349E+04  4.820592E+05  9.412593E+04 -6.044162E+04 -2.769851E+02  4.857216E+04
       187   5 -1.462987E+04  4.696339E+05  6.021207E+04  1.628754E+04 -1.973044E+03  1.697527E+04
       187   6  2.190903E+04  4.820858E+05  6.926274E+04 -6.056950E+04 -3.246610E+03 -1.461748E+04
       187   7  6.423259E+04  5.789439E+05  1.183183E+05 -5.516564E+04 -2.788525E+02  4.893346E+04
       187   8  2.674768E+04  6.354148E+05  1.014258E+05  1.599699E+04 -1.974728E+03  1.726052E+04
       187   9  8.054592E+04  7.167752E+05  1.275447E+05 -6.642467E+04 -3.247617E+03 -1.441180E+04
       187  10  1.599318E+04  3.851806E+05  6.992852E+04 -6.571676E+04 -3.281406E-09  7.527826E-10
       187  11 -5.600955E+04  3.038777E+05  1.899577E+04  1.657808E+04 -4.144512E-09 -4.221534E-09
       187  12 -3.673196E+04  2.474461E+05  1.097625E+04 -5.471650E+04 -9.250157E-10  7.729908E-10
       187  13  4.011286E+04  4.820566E+05  9.412150E+04 -6.044161E+04 -1.098765E-09 -3.435845E-09
       187  14 -1.462995E+04  4.696336E+05  6.021152E+04  1.628757E+04  3.888256E-10 -6.248073E-11
       187  15  2.190896E+04  4.820855E+05  6.926232E+04 -6.056953E+04 -2.097728E-09  2.240763E-09
       187  16  6.423195E+04  5.789413E+05  1.183138E+05 -5.516563E+04 -2.744428E-09  1.060967E-09
       187  17  2.674759E+04  6.354145E+05  1.014252E+05  1.599702E+04 -3.159059E-09  2.954270E-10
       187  18  8.054586E+04  7.167750E+05  1.275443E+05 -6.642471E+04 -1.879154E-09  8.088020E-10
       187  19  1.599380E+04  3.851831E+05  6.993289E+04 -6.571677E+04  2.751114E+02 -4.821091E+04
       187  20 -5.600947E+04  3.038780E+05  1.899630E+04  1.657806E+04  1.971359E+03 -1.669011E+04
       187  21 -3.673188E+04  2.474464E+05  1.097668E+04 -5.471646E+04  3.245607E+03  1.482309E+04
       187  22  4.011349E+04  4.820592E+05  9.412593E+04 -6.044162E+04  2.769851E+02 -4.857216E+04
       187  23 -1.462987E+04  4.696339E+05  6.021207E+04  1.628754E+04  1.973044E+03 -1.697527E+04
       187  24  2.190903E+04  4.820858E+05  6.926274E+04 -6.056950E+04  3.246610E+03  1.461748E+04
       187  25  6.423259E+04  5.789439E+05  1.183183E+05 -5.516564E+04  2.788525E+02 -4.893346E+04
       187  26  2.674768E+04  6.354148E+05  1.014258E+05  1.599699E+04  1.974728E+03 -1.726052E+04
       187  27  8.054592E+04  7.167752E+05  1.275447E+05 -6.642467E+04  3.247617E+03  1.441180E+04
       188   1 -1.872379E+05 -2.646880E+05 -1.140213E+05 -6.856798E+04 -6.612122E+03 -2.916908E+04
       188   2 -2.439204E+05 -3.713222E+05 -1.132114E+05  2.506980E+04 -1.031341E+04 -7.798999E+04
       188   3 -7.171588E+04 -4.089587E+05 -2.228712E+04 -4.229318E+04 -3.630453E+03 -1.267672E+05
       188   4  1.608498E+03  4.917658E+05  7.430938E+04 -6.235178E+04 -6.620063E+03 -2.765736E+04
       188   5 -3.696741E+04  4.572003E+05  9.276077E+04  1.831650E+04 -1.031087E+04 -7.828111E+04
       188   6  1.534970E+05  4.918570E+05  2.024912E+05 -6.200180E+04 -3.621500E+03 -1.288669E+05
       188   7  1.904121E+05  1.248739E+06  2.625972E+05 -5.612728E+04 -6.627970E+03 -2.614378E+04
       188   8  1.699341E+05  1.286346E+06  2.986816E+05  1.155476E+04 -1.030833E+04 -7.857257E+04
       188   9  3.786502E+05  1.393409E+06  4.272087E+05 -8.173858E+04 -3.612423E+03 -1.309696E+05
       188  10 -1.872382E+05 -2.646890E+05 -1.140230E+05 -6.856814E+04 -1.312454E-09  1.020610E-09
       188  11 -2.439221E+05 -3.713288E+05 -1.132230E+05  2.506915E+04  2.152192E-09 -2.391747E-09
       188  12 -7.172021E+04 -4.089759E+05 -2.231736E+04 -4.229355E+04  8.161077E-11  1.302653E-10
       188  13  1.608246E+03  4.917650E+05  7.430786E+04 -6.235192E+04  2.419088E-10 -2.900379E-09
       188  14 -3.696916E+04  4.571937E+05  9.274907E+04  1.831585E+04 -4.419924E-11  3.974543E-11
       188  15  1.534926E+05  4.918392E+05  2.024600E+05 -6.200218E+04  6.371048E-10  8.870847E-10
       188  16  1.904119E+05  1.248738E+06  2.625958E+05 -5.612742E+04 -4.446324E-09  4.900525E-10
       188  17  1.699324E+05  1.286339E+06  2.986698E+05  1.155411E+04  1.209544E-09 -1.910218E-10
       188  18  3.786456E+05  1.393391E+06  4.271765E+05 -8.173896E+04  1.050905E-10  4.072919E-10
       188  19 -1.872379E+05 -2.646880E+05 -1.140213E+05 -6.856798E+04  6.612122E+03  2.916908E+04
       188  20 -2.439204E+05 -3.713222E+05 -1.132114E+05  2.506980E+04  1.031341E+04  7.798999E+04
       188  21 -7.171588E+04 -4.089587E+05 -2.228712E+04 -4.229318E+04  3.630453E+03  1.267672E+05
       188  22  1.608498E+03  4.917658E+05  7.430938E+04 -6.235178E+04  6.620063E+03  2.765736E+04
       188  23 -3.696741E+04  4.572003E+05  9.276077E+04  1.831650E+04  1.031087E+04  7.828111E+04
       188  24  1.534970E+05  4.918570E+05  2.024912E+05 -6.200180E+04  3.621500E+03  1.288669E+05
       188  25  1.904121E+05  1.248739E+06  2.625972E+05 -5.612728E+04  6.627970E+03  2.614378E+04
       188  26  1.699341E+05  1.286346E+06  2.986816E+05  1.155476E+04  1.030833E+04  7.857257E+04
       188  27  3.786502E+05  1.393409E+06  4.272087E+05 -8.173858E+04  3.612423E+03  1.309696E+05
       189   1 -5.951058E+06 -1.892462E+06 -1.206028E+06 -2.074569E+06 -5.703763E+05 -2.021434E+05
       189   2 -5.799509E+06 -1.052186E+06 -6.764068E+05 -2.171448E+06 -3.710281E+05 -9.800943E+04
       189   3 -5.953178E+06 -1.048031E+06 -5.250535E+05 -2.087037E+06 -1.613101E+05 -2.119052E+04
       189   4 -4.854104E+06 -1.302958E+06 -8.705244E+05 -1.599976E+06 -5.547097E+05 -1.963992E+05
       189   5 -4.656767E+06 -5.709448E+05 -3.610763E+05 -1.809758E+06 -3.666290E+05 -9.638591E+04
       189   6 -4.761840E+06 -6.719472E+05 -2.203858E+05 -1.838420E+06 -1.681750E+05 -2.376254E+04
       189   7 -3.755897E+06 -7.129677E+05 -5.351373E+05 -1.124495E+06 -5.390116E+05 -1.906319E+05
       189   8 -3.512743E+06 -8.953553E+04 -4.586717E+04 -1.447428E+06 -3.622204E+05 -9.475785E+04
       189   9 -3.569121E+06 -2.958719E+05  8.417085E+04 -1.589415E+06 -1.750542E+05 -2.633791E+04
       189  10 -5.951421E+06 -1.892595E+06 -1.206724E+06 -2.074662E+06 -6.701464E-10 -5.001569E-10
       189  11 -5.799661E+06 -1.052233E+06 -6.766865E+05 -2.171478E+06  2.064617E-09  2.531576E-10
       189  12 -5.953206E+06 -1.048039E+06 -5.251038E+05 -2.087040E+06  1.429475E-09  1.458374E-09
       189  13 -4.854447E+06 -1.303084E+06 -8.711809E+05 -1.600064E+06  2.378504E-09 -4.656223E-10
       189  14 -4.656914E+06 -5.709913E+05 -3.613487E+05 -1.809786E+06  1.446925E-09 -4.764046E-10
       189  15 -4.761871E+06 -6.719555E+05 -2.204404E+05 -1.838423E+06  2.178779E-09  1.163576E-09
       189  16 -3.756221E+06 -7.130856E+05 -5.357557E+05 -1.124579E+06  1.064447E-09  8.725620E-10
       189  17 -3.512887E+06 -8.958075E+04 -4.613235E+04 -1.447456E+06  9.006228E-10  7.667350E-10
       189  18 -3.569154E+06 -2.958810E+05  8.411158E+04 -1.589419E+06  1.347859E-09  1.455126E-09
       189  19 -5.951058E+06 -1.892462E+06 -1.206028E+06 -2.074569E+06  5.703763E+05  2.021434E+05
       189  20 -5.799509E+06 -1.052186E+06 -6.764068E+05 -2.171448E+06  3.710281E+05  9.800943E+04
       189  21 -5.953178E+06 -1.048031E+06 -5.250535E+05 -2.087037E+06  1.613101E+05  2.119052E+04
       189  22 -4.854104E+06 -1.302958E+06 -8.705244E+05 -1.599976E+06  5.547097E+05  1.963992E+05
       189  23 -4.656767E+06 -5.709448E+05 -3.610763E+05 -1.809758E+06  3.666290E+05  9.638591E+04
       189  24 -4.761840E+06 -6.719472E+05 -2.203858E+05 -1.838420E+06  1.681750E+05  2.376254E+04
       189  25 -3.755897E+06 -7.129677E+05 -5.351373E+05 -1.124495E+06  5.390116E+05  1.906319E+05
       189  26 -3.512743E+06 -8.953553E+04 -4.586717E+04 -1.447428E+06  3.622204E+05  9.475785E+04
       189  27 -3.569121E+06 -2.958719E+05  8.417085E+04 -1.589415E+06  1.750542E+05  2.633791E+04
       190   1 -5.754113E+06 -1.176379E+06 -4.587144E+05 -2.088980E+06 -1.349473E+05 -1.724464E+04
       190   2 -5.688427E+06 -1.029263E+06 -3.434542E+05 -2.055451E+06 -8.917423E+04 -4.928525E+02
       190   3 -5.615190E+06 -1.025147E+06 -2.880381E+05 -2.052449E+06 -4.226997E+04  1.325564E+04
       190   4 -4.729197E+06 -7.699843E+05 -1.798369E+05 -1.790494E+06 -1.346410E+05 -1.713805E+04
       190   5 -4.727734E+06 -6.616145E+05 -8.515929E+04 -1.789103E+06 -9.006826E+04 -8.333204E+02
       190   6 -4.718423E+06 -6.959048E+05 -4.928950E+04 -1.818250E+06 -4.437056E+04  1.246575E+04
       190   7 -3.703256E+06 -3.634970E+05  9.894590E+04 -1.491547E+06 -1.343339E+05 -1.703115E+04
       190   8 -3.766142E+06 -2.939038E+05  1.730539E+05 -1.522377E+06 -9.096373E+04 -1.174342E+03
       190   9 -3.820875E+06 -3.666263E+05  1.893891E+05 -1.583747E+06 -4.647447E+04  1.167469E+04
       190  10 -5.754132E+06 -1.176384E+06 -4.587496E+05 -2.088982E+06  6.006509E-10  1.491400E-09
       190  11 -5.688435E+06 -1.029265E+06 -3.434693E+05 -2.055451E+06  4.912357E-10 -1.269644E-10
       190  12 -5.615192E+06 -1.025147E+06 -2.880418E+05 -2.052449E+06 -3.834425E-10 -1.845446E-10
       190  13 -4.729217E+06 -7.699895E+05 -1.798718E+05 -1.790495E+06  3.419619E-10  4.412283E-10
       190  14 -4.727743E+06 -6.616167E+05 -8.517464E+04 -1.789103E+06 -2.137440E-09  8.705042E-10
       190  15 -4.718425E+06 -6.959055E+05 -4.929351E+04 -1.818249E+06 -6.898807E-10  1.874874E-10
       190  16 -3.703275E+06 -3.635022E+05  9.891122E+04 -1.491549E+06 -7.876144E-10  9.881843E-10
       190  17 -3.766151E+06 -2.939061E+05  1.730383E+05 -1.522377E+06 -3.236168E-09  7.968310E-10
       190  18 -3.820878E+06 -3.666271E+05  1.893848E+05 -1.583747E+06 -1.899929E-09 -3.204804E-10
       190  19 -5.754113E+06 -1.176379E+06 -4.587144E+05 -2.088980E+06  1.349473E+05  1.724464E+04
       190  20 -5.688427E+06 -1.029263E+06 -3.434542E+05 -2.055451E+06  8.917423E+04  4.928525E+02
       190  21 -5.615190E+06 -1.025147E+06 -2.880381E+05 -2.052449E+06  4.226997E+04 -1.325564E+04
       190  22 -4.729197E+06 -7.699843E+05 -1.798369E+05 -1.790494E+06  1.346410E+05  1.713805E+04
       190  23 -4.727734E+06 -6.616145E+05 -8.515929E+04 -1.789103E+06  9.006826E+04  8.333204E+02
       190  24 -4.718423E+06 -6.959048E+05 -4.928950E+04 -1.818250E+06  4.437056E+04 -1.246575E+04
       190  25 -3.703256E+06 -3.634970E+05  9.894590E+04 -1.491547E+06  1.343339E+05  1.703115E+04
       190  26 -3.766142E+06 -2.939038E+05  1.730539E+05 -1.522377E+06  9.096373E+04  1.174342E+03
       190  27 -3.820875E+06 -3.666263E+05  1.893891E+05 -1.583747E+06  4.647447E+04 -1.167469E+04
       191   1 -5.454585E+06 -9.921048E+05 -2.378235E+05 -2.019488E+06 -3.486637E+04  1.316882E+04
       191   2 -5.385654E+06 -9.121833E+05 -1.927714E+05 -1.957989E+06 -2.312632E+04  1.332644E+04
       191   3 -5.258411E+06 -9.065504E+05 -1.583394E+05 -1.966330E+06 -1.116434E+04  1.287494E+04
       191   4 -4.711328E+06 -7.101639E+05 -3.870290E+04 -1.815899E+06 -3.633596E+04  1.261616E+04
       191   5 -4.739858E+06 -6.686486E+05 -1.984531E+04 -1.782612E+06 -2.484172E+04  1.268339E+04
       191   6 -4.710033E+06 -7.013609E+05 -1.140056E+04 -1.819166E+06 -1.312742E+04  1.214111E+04
       191   7 -3.967536E+06 -4.281891E+05  1.603683E+05 -1.612087E+06 -3.780749E+04  1.206276E+04
       191   8 -4.093657E+06 -4.250893E+05  1.530440E+05 -1.607069E+06 -2.655908E+04  1.203960E+04
       191   9 -4.161361E+06 -4.961543E+05  1.355121E+05 -1.671884E+06 -1.509242E+04  1.140658E+04
       191  10 -5.454587E+06 -9.921053E+05 -2.378261E+05 -2.019488E+06 -1.073678E-09 -2.224361E-11
       191  11 -5.385655E+06 -9.121836E+05 -1.927728E+05 -1.957988E+06  2.016831E-09  4.052084E-11
       191  12 -5.258411E+06 -9.065506E+05 -1.583399E+05 -1.966330E+06  3.236103E-11  1.168754E-09
       191  13 -4.711330E+06 -7.101644E+05 -3.870569E+04 -1.815898E+06 -4.600311E-10 -7.417037E-10
       191  14 -4.739859E+06 -6.686490E+05 -1.984678E+04 -1.782612E+06  1.690217E-09 -9.432281E-10
       191  15 -4.710033E+06 -7.013611E+05 -1.140116E+04 -1.819166E+06  6.945432E-10 -9.555749E-10
       191  16 -3.967537E+06 -4.281896E+05  1.603654E+05 -1.612087E+06 -5.106333E-10 -7.307951E-10
       191  17 -4.093658E+06 -4.250896E+05  1.530424E+05 -1.607069E+06 -1.113885E-09 -9.872413E-10
       191  18 -4.161362E+06 -4.961545E+05  1.355114E+05 -1.671883E+06  9.571102E-10 -8.037138E-10
       191  19 -5.454585E+06 -9.921048E+05 -2.378235E+05 -2.019488E+06  3.486637E+04 -1.316882E+04
       191  20 -5.385654E+06 -9.121833E+05 -1.927714E+05 -1.957989E+06  2.312632E+04 -1.332644E+04
       191  21 -5.258411E+06 -9.065504E+05 -1.583394E+05 -1.966330E+06  1.116434E+04 -1.287494E+04
       191  22 -4.711328E+06 -7.101639E+05 -3.870290E+04 -1.815899E+06  3.633596E+04 -1.261616E+04
       191  23 -4.739858E+06 -6.686486E+05 -1.984531E+04 -1.782612E+06  2.484172E+04 -1.268339E+04
       191  24 -4.710033E+06 -7.013609E+05 -1.140056E+04 -1.819166E+06  1.312742E+04 -1.214111E+04
       191  25 -3.967536E+06 -4.281891E+05  1.603683E+05 -1.612087E+06  3.780749E+04 -1.206276E+04
       191  26 -4.093657E+06 -4.250893E+05  1.530440E+05 -1.607069E+06  2.655908E+04 -1.203960E+04
       191  27 -4.161361E+06 -4.961543E+05  1.355121E+05 -1.671884E+06  1.509242E+04 -1.140658E+04
       192   1 -5.077617E+06 -8.437086E+05 -1.075875E+05 -1.920886E+06 -8.551351E+03  1.080168E+04
       192   2 -5.000792E+06 -7.643591E+05 -7.434507E+04 -1.849337E+06 -4.047000E+03  7.243050E+03
       192   3 -4.853142E+06 -7.581455E+05 -4.356945E+04 -1.860149E+06  5.190705E+02  3.510436E+03
       192   4 -4.707694E+06 -7.045377E+05 -8.990230E+03 -1.820649E+06 -1.046669E+04  1.008662E+04
       192   5 -4.743030E+06 -6.674791E+05 -5.399951E+03 -1.779650E+06 -6.034487E+03  6.501786E+03
       192   6 -4.707540E+06 -7.035395E+05 -4.216616E+03 -1.821014E+06 -1.541155E+03  2.742851E+03
       192   7 -4.337638E+06 -5.653589E+05  8.959503E+04 -1.720357E+06 -1.238329E+04  9.371080E+03
       192   8 -4.485203E+06 -5.705954E+05  6.353924E+04 -1.709937E+06 -8.022884E+03  5.760182E+03
       192   9 -4.561917E+06 -6.489325E+05  3.513423E+04 -1.781871E+06 -3.601909E+03  1.975069E+03
       192  10 -5.077617E+06 -8.437087E+05 -1.075878E+05 -1.920886E+06  1.047908E-09  1.019198E-09
       192  11 -5.000792E+06 -7.643592E+05 -7.434520E+04 -1.849337E+06  3.709099E-09  3.843647E-09
       192  12 -4.853142E+06 -7.581455E+05 -4.356947E+04 -1.860149E+06  2.363288E-10 -1.222149E-09
       192  13 -4.707694E+06 -7.045379E+05 -8.990627E+03 -1.820649E+06  8.711420E-10 -8.581675E-10
       192  14 -4.743030E+06 -6.674792E+05 -5.400099E+03 -1.779650E+06  1.986216E-09  1.467977E-09
       192  15 -4.707540E+06 -7.035395E+05 -4.216634E+03 -1.821014E+06  1.152108E-09  2.010033E-09
       192  16 -4.337638E+06 -5.653590E+05  8.959457E+04 -1.720357E+06  9.998239E-10  3.820596E-10
       192  17 -4.485203E+06 -5.705954E+05  6.353906E+04 -1.709937E+06  2.349452E-09  1.975883E-10
       192  18 -4.561917E+06 -6.489325E+05  3.513420E+04 -1.781871E+06 -2.263399E-10 -1.857270E-09
       192  19 -5.077617E+06 -8.437086E+05 -1.075875E+05 -1.920886E+06  8.551351E+03 -1.080168E+04
       192  20 -5.000792E+06 -7.643591E+05 -7.434507E+04 -1.849337E+06  4.047000E+03 -7.243050E+03
       192  21 -4.853142E+06 -7.581455E+05 -4.356945E+04 -1.860149E+06 -5.190705E+02 -3.510436E+03
       192  22 -4.707694E+06 -7.045377E+05 -8.990230E+03 -1.820649E+06  1.046669E+04 -1.008662E+04
       192  23 -4.743030E+06 -6.674791E+05 -5.399951E+03 -1.779650E+06  6.034487E+03 -6.501786E+03
       192  24 -4.707540E+06 -7.035395E+05 -4.216616E+03 -1.821014E+06  1.541155E+03 -2.742851E+03
       192  25 -4.337638E+06 -5.653589E+05  8.959503E+04 -1.720357E+06  1.238329E+04 -9.371080E+03
       192  26 -4.485203E+06 -5.705954E+05  6.353924E+04 -1.709937E+06  8.022884E+03 -5.760182E+03
       192  27 -4.561917E+06 -6.489325E+05  3.513423E+04 -1.781871E+06  3.601909E+03 -1.975069E+03
       193   1 -4.662330E+06 -6.869366E+05  8.270212E+03 -1.809279E+06  2.267049E+03  9.274980E+02
       193   2 -4.584543E+06 -6.075746E+05  3.729516E+04 -1.736432E+06  6.598702E+03 -2.928498E+03
       193   3 -4.435016E+06 -6.021871E+05  6.404537E+04 -1.747090E+06  1.089082E+04 -6.670706E+03
       193   4 -4.707341E+06 -7.037691E+05 -4.180156E+03 -1.821254E+06  2.053803E+02  1.594877E+02
       193   5 -4.743266E+06 -6.672109E+05 -5.145890E+03 -1.779337E+06  4.584306E+03 -3.679396E+03
       193   6 -4.707474E+06 -7.046401E+05 -8.424137E+03 -1.820934E+06  8.923158E+03 -7.404618E+03
       193   7 -4.752351E+06 -7.206016E+05 -1.663072E+04 -1.833228E+06 -1.856128E+03 -6.084640E+02
       193   8 -4.901964E+06 -7.268459E+05 -4.758920E+04 -1.822233E+06  2.570477E+03 -4.430084E+03
       193   9 -4.979859E+06 -8.070888E+05 -8.090011E+04 -1.894749E+06  6.956450E+03 -8.138173E+03
       193  10 -4.662330E+06 -6.869366E+05  8.270200E+03 -1.809279E+06 -3.474240E-09  2.198040E-10
       193  11 -4.584543E+06 -6.075746E+05  3.729506E+04 -1.736432E+06 -4.789372E-10 -1.883200E-09
       193  12 -4.435016E+06 -6.021871E+05  6.404506E+04 -1.747090E+06  4.118868E-09  1.215135E-09
       193  13 -4.707341E+06 -7.037691E+05 -4.180156E+03 -1.821254E+06 -1.578848E-09 -1.585087E-09
       193  14 -4.743266E+06 -6.672109E+05 -5.145955E+03 -1.779337E+06  1.806918E-10  3.707408E-09
       193  15 -4.707474E+06 -7.046402E+05 -8.424389E+03 -1.820934E+06  6.377253E-10  5.993859E-10
       193  16 -4.752351E+06 -7.206016E+05 -1.663073E+04 -1.833228E+06  1.717084E-09  8.747634E-10
       193  17 -4.901964E+06 -7.268459E+05 -4.758925E+04 -1.822233E+06 -9.450113E-10 -5.749581E-10
       193  18 -4.979859E+06 -8.070889E+05 -8.090033E+04 -1.894749E+06 -5.180662E-09 -8.482220E-10
       193  19 -4.662330E+06 -6.869366E+05  8.270212E+03 -1.809279E+06 -2.267049E+03 -9.274980E+02
       193  20 -4.584543E+06 -6.075746E+05  3.729516E+04 -1.736432E+06 -6.598702E+03  2.928498E+03
       193  21 -4.435016E+06 -6.021871E+05  6.404537E+04 -1.747090E+06 -1.089082E+04  6.670706E+03
       193  22 -4.707341E+06 -7.037691E+05 -4.180156E+03 -1.821254E+06 -2.053803E+02 -1.594877E+02
       193  23 -4.743266E+06 -6.672109E+05 -5.145890E+03 -1.779337E+06 -4.584306E+03  3.679396E+03
       193  24 -4.707474E+06 -7.046401E+05 -8.424137E+03 -1.820934E+06 -8.923158E+03  7.404618E+03
       193  25 -4.752351E+06 -7.206016E+05 -1.663072E+04 -1.833228E+06  1.856128E+03  6.084640E+02
       193  26 -4.901964E+06 -7.268459E+05 -4.758920E+04 -1.822233E+06 -2.570477E+03  4.430084E+03
       193  27 -4.979859E+06 -8.070888E+05 -8.090011E+04 -1.894749E+06 -6.956450E+03  8.138173E+03
       194   1 -4.253514E+06 -5.316240E+05  1.114706E+05 -1.697683E+06  1.352139E+04 -8.818286E+03
       194   2 -4.182762E+06 -4.577881E+05  1.307971E+05 -1.630267E+06  2.435721E+04 -9.865670E+03
       194   3 -4.050729E+06 -4.600779E+05  1.405865E+05 -1.636126E+06  3.499615E+04 -1.036212E+04
       194   4 -4.709401E+06 -7.019643E+05 -1.065020E+04 -1.819859E+06  1.150427E+04 -9.571402E+03
       194   5 -4.740612E+06 -6.679555E+05 -1.844283E+04 -1.781703E+06  2.256474E+04 -1.053651E+04
       194   6 -4.710600E+06 -7.101287E+05 -3.595817E+04 -1.816831E+06  3.342660E+04 -1.095107E+04
       194   7 -5.165086E+06 -8.722930E+05 -1.327890E+05 -1.941953E+06  9.488788E+03 -1.032391E+04
       194   8 -5.298160E+06 -8.781045E+05 -1.677102E+05 -1.933016E+06  2.077404E+04 -1.120669E+04
       194   9 -5.370050E+06 -9.601529E+05 -2.125417E+05 -1.997363E+06  3.185888E+04 -1.153934E+04
       194  10 -4.253514E+06 -5.316241E+05  1.114701E+05 -1.697683E+06  1.498528E-09 -2.200275E-10
       194  11 -4.182762E+06 -4.577884E+05  1.307958E+05 -1.630266E+06 -7.616999E-10  2.036394E-09
       194  12 -4.050731E+06 -4.600783E+05  1.405840E+05 -1.636125E+06 -2.404559E-10  1.046773E-09
       194  13 -4.709402E+06 -7.019645E+05 -1.065062E+04 -1.819859E+06  3.895962E-10  4.773638E-10
       194  14 -4.740612E+06 -6.679558E+05 -1.844400E+04 -1.781703E+06 -3.140065E-09 -1.781372E-09
       194  15 -4.710602E+06 -7.101291E+05 -3.596050E+04 -1.816831E+06 -7.971329E-10 -1.936436E-09
       194  16 -5.165086E+06 -8.722932E+05 -1.327894E+05 -1.941953E+06 -2.107655E-09 -6.101490E-10
       194  17 -5.298160E+06 -8.781048E+05 -1.677112E+05 -1.933016E+06  1.158730E-09  3.069713E-09
       194  18 -5.370051E+06 -9.601533E+05 -2.125439E+05 -1.997362E+06 -1.871945E-09  1.362621E-09
       194  19 -4.253514E+06 -5.316240E+05  1.114706E+05 -1.697683E+06 -1.352139E+04  8.818286E+03
       194  20 -4.182762E+06 -4.577881E+05  1.307971E+05 -1.630267E+06 -2.435721E+04  9.865670E+03
       194  21 -4.050729E+06 -4.600779E+05  1.405865E+05 -1.636126E+06 -3.499615E+04  1.036212E+04
       194  22 -4.709401E+06 -7.019643E+05 -1.065020E+04 -1.819859E+06 -1.150427E+04  9.571402E+03
       194  23 -4.740612E+06 -6.679555E+05 -1.844283E+04 -1.781703E+06 -2.256474E+04  1.053651E+04
       194  24 -4.710600E+06 -7.101287E+05 -3.595817E+04 -1.816831E+06 -3.342660E+04  1.095107E+04
       194  25 -5.165086E+06 -8.722930E+05 -1.327890E+05 -1.941953E+06 -9.488788E+03  1.032391E+04
       194  26 -5.298160E+06 -8.781045E+05 -1.677102E+05 -1.933016E+06 -2.077404E+04  1.120669E+04
       194  27 -5.370050E+06 -9.601529E+05 -2.125417E+05 -1.997363E+06 -3.185888E+04  1.153934E+04
       195   1 -3.894811E+06 -3.956347E+05  1.728727E+05 -1.604643E+06  4.319857E+04 -1.030149E+04
       195   2 -3.835696E+06 -3.198400E+05  1.608868E+05 -1.540010E+06  8.464539E+04  1.086339E+03
       195   3 -3.761515E+06 -3.838655E+05  9.525641E+04 -1.512624E+06  1.250119E+05  1.538540E+04
       195   4 -4.717100E+06 -6.969740E+05 -4.578265E+04 -1.819107E+06  4.100821E+04 -1.112353E+04
       195   5 -4.729478E+06 -6.613167E+05 -7.906465E+04 -1.787608E+06  8.363147E+04  7.019495E+02
       195   6 -4.727084E+06 -7.658052E+05 -1.669914E+05 -1.793356E+06  1.251684E+05  1.543663E+04
       195   7 -5.538734E+06 -9.982829E+05 -2.644967E+05 -2.033316E+06  3.882102E+04 -1.194446E+04
       195   8 -5.622484E+06 -1.002740E+06 -3.190867E+05 -2.034880E+06  8.261910E+04  3.181526E+02
       195   9 -5.691744E+06 -1.147664E+06 -4.293230E+05 -2.073681E+06  1.253246E+05  1.548769E+04
       195  10 -3.894813E+06 -3.956353E+05  1.728690E+05 -1.604642E+06  1.341821E-09  2.385047E-09
       195  11 -3.835703E+06 -3.198419E+05  1.608733E+05 -1.540010E+06  4.645034E-10  1.085944E-09
       195  12 -3.761532E+06 -3.838699E+05  9.522640E+04 -1.512625E+06 -9.888110E-10  1.492248E-11
       195  13 -4.717102E+06 -6.969746E+05 -4.578606E+04 -1.819106E+06  2.405830E-10 -1.319228E-09
       195  14 -4.729486E+06 -6.613186E+05 -7.907789E+04 -1.787608E+06  2.202749E-09  8.742640E-10
       195  15 -4.727101E+06 -7.658097E+05 -1.670215E+05 -1.793357E+06  6.810002E-10 -3.436896E-11
       195  16 -5.538735E+06 -9.982835E+05 -2.644998E+05 -2.033316E+06 -3.354398E-09  5.818732E-10
       195  17 -5.622491E+06 -1.002742E+06 -3.190996E+05 -2.034880E+06 -3.165685E-10  6.447626E-10
       195  18 -5.691761E+06 -1.147668E+06 -4.293532E+05 -2.073683E+06  1.895563E-09  1.387122E-09
       195  19 -3.894811E+06 -3.956347E+05  1.728727E+05 -1.604643E+06 -4.319857E+04  1.030149E+04
       195  20 -3.835696E+06 -3.198400E+05  1.608868E+05 -1.540010E+06 -8.464539E+04 -1.086339E+03
       195  21 -3.761515E+06 -3.838655E+05  9.525641E+04 -1.512624E+06 -1.250119E+05 -1.538540E+04
       195  22 -4.717100E+06 -6.969740E+05 -4.578265E+04 -1.819107E+06 -4.100821E+04  1.112353E+04
       195  23 -4.729478E+06 -6.613167E+05 -7.906465E+04 -1.787608E+06 -8.363147E+04 -7.019495E+02
       195  24 -4.727084E+06 -7.658052E+05 -1.669914E+05 -1.793356E+06 -1.251684E+05 -1.543663E+04
       195  25 -5.538734E+06 -9.982829E+05 -2.644967E+05 -2.033316E+06 -3.882102E+04  1.194446E+04
       195  26 -5.622484E+06 -1.002740E+06 -3.190867E+05 -2.034880E+06 -8.261910E+04 -3.181526E+02
       195  27 -5.691744E+06 -1.147664E+06 -4.293230E+05 -2.073681E+06 -1.253246E+05 -1.548769E+04
       196   1 -3.617579E+06 -3.134761E+05  8.680853E+04 -1.598074E+06  1.633798E+05  2.365643E+04
       196   2 -3.557408E+06 -1.141674E+05 -3.097086E+04 -1.458945E+06  3.367967E+05  8.636152E+04
       196   3 -3.767846E+06 -6.926714E+05 -4.818628E+05 -1.160349E+06  5.000904E+05  1.759139E+05
       196   4 -4.757517E+06 -6.746246E+05 -2.046347E+05 -1.837673E+06  1.564977E+05  2.108130E+04
       196   5 -4.663539E+06 -5.772613E+05 -3.352777E+05 -1.806927E+06  3.409832E+05  8.790791E+04
       196   6 -4.842939E+06 -1.260815E+06 -8.083307E+05 -1.616566E+06  5.153419E+05  1.815272E+05
       196   7 -5.896195E+06 -1.035781E+06 -4.961802E+05 -2.076916E+06  1.496294E+05  1.850942E+04
       196   8 -5.768471E+06 -1.040201E+06 -6.396971E+05 -2.154316E+06  3.451610E+05  8.945018E+04
       196   9 -5.916834E+06 -1.828517E+06 -1.134909E+06 -2.071952E+06  5.305636E+05  1.871191E+05
       196  10 -3.617608E+06 -3.134839E+05  8.675698E+04 -1.598077E+06 -2.227686E-09  1.332786E-10
       196  11 -3.557532E+06 -1.142061E+05 -3.119956E+04 -1.458969E+06 -6.717418E-10  2.925846E-09
       196  12 -3.768124E+06 -6.927725E+05 -4.823944E+05 -1.160420E+06  4.930829E-10  1.062159E-09
       196  13 -4.757544E+06 -6.746318E+05 -2.046819E+05 -1.837676E+06 -1.023139E-09  9.649627E-10
       196  14 -4.663667E+06 -5.773012E+05 -3.355128E+05 -1.806951E+06  7.516459E-09 -1.224959E-09
       196  15 -4.843235E+06 -1.260922E+06 -8.088966E+05 -1.616642E+06  4.082837E-10  1.073916E-09
       196  16 -5.896219E+06 -1.035787E+06 -4.962234E+05 -2.076918E+06  2.049046E-09  8.235189E-10
       196  17 -5.768602E+06 -1.040242E+06 -6.399386E+05 -2.154341E+06 -8.382501E-10  1.776637E-09
       196  18 -5.917148E+06 -1.828632E+06 -1.135511E+06 -2.072033E+06 -1.042405E-09  4.964663E-10
       196  19 -3.617579E+06 -3.134761E+05  8.680853E+04 -1.598074E+06 -1.633798E+05 -2.365643E+04
       196  20 -3.557408E+06 -1.141674E+05 -3.097086E+04 -1.458945E+06 -3.367967E+05 -8.636152E+04
       196  21 -3.767846E+06 -6.926714E+05 -4.818628E+05 -1.160349E+06 -5.000904E+05 -1.759139E+05
       196  22 -4.757517E+06 -6.746246E+05 -2.046347E+05 -1.837673E+06 -1.564977E+05 -2.108130E+04
       196  23 -4.663539E+06 -5.772613E+05 -3.352777E+05 -1.806927E+06 -3.409832E+05 -8.790791E+04
       196  24 -4.842939E+06 -1.260815E+06 -8.083307E+05 -1.616566E+06 -5.153419E+05 -1.815272E+05
       196  25 -5.896195E+06 -1.035781E+06 -4.961802E+05 -2.076916E+06 -1.496294E+05 -1.850942E+04
       196  26 -5.768471E+06 -1.040201E+06 -6.396971E+05 -2.154316E+06 -3.451610E+05 -8.945018E+04
       196  27 -5.916834E+06 -1.828517E+06 -1.134909E+06 -2.071952E+06 -5.305636E+05 -1.871191E+05
       197   1 -3.488756E+05  1.653348E+04  7.841304E+04  3.609750E+04  1.821061E+05  8.277723E+03
       197   2 -3.364451E+05 -2.274107E+05 -6.343982E+04  1.193669E+04  1.233680E+05  2.343707E+04
       197   3 -2.450704E+05 -1.906569E+05 -9.663479E+04 -5.490091E+04  6.467094E+04  2.143281E+04
       197   4  4.774509E+05  2.221562E+05  2.825840E+05 -2.657042E+04  1.931878E+05  8.290754E+03
       197   5  4.373724E+05 -3.543865E+04  1.231129E+05 -4.909265E+03  1.265446E+05  2.343932E+04
       197   6  4.775035E+05 -1.115921E+04  7.768561E+04 -2.592073E+04  5.994855E+04  2.142505E+04
       197   7  1.304407E+06  4.277432E+05  4.867070E+05 -8.932231E+04  2.042840E+05  8.301548E+03
       197   8  1.211738E+06  1.564909E+05  3.096231E+05 -2.177663E+04  1.297252E+05  2.344139E+04
       197   9  1.200557E+06  1.683034E+05  2.519692E+05  3.093082E+03  5.522065E+04  2.141685E+04
       197  10 -3.489113E+05  1.652450E+04  7.835056E+04  3.609629E+04 -1.167576E-09  9.094630E-10
       197  11 -3.364616E+05 -2.274154E+05 -6.346946E+04  1.193436E+04 -1.129702E-09 -8.260344E-10
       197  12 -2.450750E+05 -1.906585E+05 -9.664351E+04 -5.490203E+04 -3.628619E-10 -3.711365E-10
       197  13  4.774109E+05  2.221461E+05  2.825138E+05 -2.657171E+04  1.075929E-09  5.992407E-10
       197  14  4.373550E+05 -3.544353E+04  1.230818E+05 -4.911653E+03  1.407666E-09 -2.989337E-09
       197  15  4.774995E+05 -1.116067E+04  7.767800E+04 -2.592177E+04 -1.952210E-09 -2.187658E-10
       197  16  1.304362E+06  4.277319E+05  4.866286E+05 -8.932367E+04  6.107294E-10 -9.673022E-11
       197  17  1.211720E+06  1.564858E+05  3.095905E+05 -2.177907E+04 -2.131463E-09 -3.150055E-10
       197  18  1.200553E+06  1.683021E+05  2.519626E+05  3.092130E+03 -1.075397E-09 -8.572041E-10
       197  19 -3.488756E+05  1.653348E+04  7.841304E+04  3.609750E+04 -1.821061E+05 -8.277723E+03
       197  20 -3.364451E+05 -2.274107E+05 -6.343982E+04  1.193669E+04 -1.233680E+05 -2.343707E+04
       197  21 -2.450704E+05 -1.906569E+05 -9.663479E+04 -5.490091E+04 -6.467094E+04 -2.143281E+04
       197  22  4.774509E+05  2.221562E+05  2.825840E+05 -2.657042E+04 -1.931878E+05 -8.290754E+03
       197  23  4.373724E+05 -3.543865E+04  1.231129E+05 -4.909265E+03 -1.265446E+05 -2.343932E+04
       197  24  4.775035E+05 -1.115921E+04  7.768561E+04 -2.592073E+04 -5.994855E+04 -2.142505E+04
       197  25  1.304407E+06  4.277432E+05  4.867070E+05 -8.932231E+04 -2.042840E+05 -8.301548E+03
       197  26  1.211738E+06  1.564909E+05  3.096231E+05 -2.177663E+04 -1.297252E+05 -2.344139E+04
       197  27  1.200557E+06  1.683034E+05  2.519692E+05  3.093082E+03 -5.522065E+04 -2.141685E+04
       198   1 -1.839393E+05 -1.356003E+05 -9.269984E+04 -2.002075E+04  4.762897E+04  1.774691E+04
       198   2 -1.393084E+05 -1.521106E+05 -1.119297E+05 -4.139117E+03  3.184197E+04  1.720689E+04
       198   3 -8.406835E+04 -1.369105E+05 -1.128205E+05 -2.942565E+04  1.605392E+04  1.525749E+04
       198   4  4.620776E+05  2.480774E+04  6.352997E+04 -2.580765E+04  4.774942E+04  1.774540E+04
       198   5  4.567304E+05 -4.146120E+03  3.195890E+04 -5.204991E+03  3.130445E+04  1.720504E+04
       198   6  4.620945E+05 -1.292297E+03  1.917004E+04 -2.576771E+04  1.485971E+04  1.525567E+04
       198   7  1.108476E+06  1.851854E+05  2.197299E+05 -3.160074E+04  4.786998E+04  1.774389E+04
       198   8  1.053094E+06  1.437924E+05  1.758220E+05 -6.271994E+03  3.076641E+04  1.720320E+04
       198   9  1.008530E+06  1.343042E+05  1.511392E+05 -2.210660E+04  1.366446E+04  1.525384E+04
       198  10 -1.839418E+05 -1.356013E+05 -9.270470E+04 -2.002144E+04  9.463515E-10 -1.481020E-09
       198  11 -1.393096E+05 -1.521112E+05 -1.119321E+05 -4.139558E+03  1.980668E-10  5.457473E-10
       198  12 -8.406869E+04 -1.369108E+05 -1.128215E+05 -2.942585E+04  1.142878E-09 -8.169865E-10
       198  13  4.620750E+05  2.480679E+04  6.352510E+04 -2.580834E+04 -1.075875E-09 -7.827738E-10
       198  14  4.567293E+05 -4.146701E+03  3.195650E+04 -5.205425E+03 -5.379692E-10 -4.569001E-10
       198  15  4.620942E+05 -1.292606E+03  1.916918E+04 -2.576790E+04 -2.220550E-09 -7.939886E-10
       198  16  1.108473E+06  1.851844E+05  2.197250E+05 -3.160143E+04  8.658911E-10  2.165818E-10
       198  17  1.053093E+06  1.437918E+05  1.758197E+05 -6.272420E+03 -1.745836E-09 -1.742475E-09
       198  18  1.008530E+06  1.343039E+05  1.511385E+05 -2.210677E+04 -1.389692E-09  2.488212E-10
       198  19 -1.839393E+05 -1.356003E+05 -9.269984E+04 -2.002075E+04 -4.762897E+04 -1.774691E+04
       198  20 -1.393084E+05 -1.521106E+05 -1.119297E+05 -4.139117E+03 -3.184197E+04 -1.720689E+04
       198  21 -8.406835E+04 -1.369105E+05 -1.128205E+05 -2.942565E+04 -1.605392E+04 -1.525749E+04
       198  22  4.620776E+05  2.480774E+04  6.352997E+04 -2.580765E+04 -4.774942E+04 -1.774540E+04
       198  23  4.567304E+05 -4.146120E+03  3.195890E+04 -5.204991E+03 -3.130445E+04 -1.720504E+04
       198  24  4.620945E+05 -1.292297E+03  1.917004E+04 -2.576771E+04 -1.485971E+04 -1.525567E+04
       198  25  1.108476E+06  1.851854E+05  2.197299E+05 -3.160074E+04 -4.786998E+04 -1.774389E+04
       198  26  1.053094E+06  1.437924E+05  1.758220E+05 -6.271994E+03 -3.076641E+04 -1.720320E+04
       198  27  1.008530E+06  1.343042E+05  1.511392E+05 -2.210660E+04 -1.366446E+04 -1.525384E+04
       199   1 -1.140231E+04 -1.143527E+05 -9.868092E+04 -2.524715E+04  1.261139E+04  1.392435E+04
       199   2  3.649076E+04 -1.054610E+05 -9.394930E+04 -5.515720E+03  8.576904E+03  1.212929E+04
       199   3  8.608778E+04 -9.301967E+04 -8.564291E+04 -2.600114E+04  4.540293E+03  1.023211E+04
       199   4  4.601146E+05  2.672782E+03  1.503942E+04 -2.556946E+04  1.182329E+04  1.392312E+04
       199   5  4.592644E+05 -5.144697E+02  8.116938E+03 -5.461084E+03  7.739412E+03  1.212841E+04
       199   6  4.601225E+05 -1.450077E+02  4.801435E+03 -2.556782E+04  3.653724E+03  1.023162E+04
       199   7  9.318348E+05  1.196820E+05  1.287439E+05 -2.589204E+04  1.103459E+04  1.392190E+04
       199   8  8.822013E+05  1.044190E+05  1.101704E+05 -5.406426E+03  6.901351E+03  1.212753E+04
       199   9  8.342851E+05  9.271942E+04  9.523574E+04 -2.513425E+04  2.766622E+03  1.023113E+04
       199  10 -1.140253E+04 -1.143529E+05 -9.868158E+04 -2.524729E+04  1.781676E-09  1.829480E-10
       199  11  3.649064E+04 -1.054612E+05 -9.394971E+04 -5.515804E+03  1.464919E-09  4.426304E-10
       199  12  8.608773E+04 -9.301979E+04 -8.564315E+04 -2.600118E+04 -1.769636E-09  2.054937E-10
       199  13  4.601144E+05  2.672536E+03  1.503879E+04 -2.556959E+04  8.547730E-12 -1.957715E-10
       199  14  4.592643E+05 -5.146438E+02  8.116550E+03 -5.461159E+03  6.171406E-10 -2.786291E-11
       199  15  4.601225E+05 -1.451237E+02  4.801213E+03 -2.556785E+04  6.188465E-10  2.475599E-10
       199  16  9.318346E+05  1.196818E+05  1.287433E+05 -2.589217E+04 -1.233959E-09 -2.715568E-10
       199  17  8.822013E+05  1.044188E+05  1.101700E+05 -5.406493E+03  1.619941E-11 -7.981615E-10
       199  18  8.342851E+05  9.271931E+04  9.523553E+04 -2.513427E+04  4.459259E-10  1.357128E-10
       199  19 -1.140231E+04 -1.143527E+05 -9.868092E+04 -2.524715E+04 -1.261139E+04 -1.392435E+04
       199  20  3.649076E+04 -1.054610E+05 -9.394930E+04 -5.515720E+03 -8.576904E+03 -1.212929E+04
       199  21  8.608778E+04 -9.301967E+04 -8.564291E+04 -2.600114E+04 -4.540293E+03 -1.023211E+04
       199  22  4.601146E+05  2.672782E+03  1.503942E+04 -2.556946E+04 -1.182329E+04 -1.392312E+04
       199  23  4.592644E+05 -5.144697E+02  8.116938E+03 -5.461084E+03 -7.739412E+03 -1.212841E+04
       199  24  4.601225E+05 -1.450077E+02  4.801435E+03 -2.556782E+04 -3.653724E+03 -1.023162E+04
       199  25  9.318348E+05  1.196820E+05  1.287439E+05 -2.589204E+04 -1.103459E+04 -1.392190E+04
       199  26  8.822013E+05  1.044190E+05  1.101704E+05 -5.406426E+03 -6.901351E+03 -1.212753E+04
       199  27  8.342851E+05  9.271942E+04  9.523574E+04 -2.513425E+04 -2.766622E+03 -1.023113E+04
       200   1  1.589971E+05 -7.437606E+04 -6.876118E+04 -2.540556E+04  3.739236E+03  9.116845E+03
       200   2  2.068198E+05 -6.282852E+04 -5.889069E+04 -5.625045E+03  2.669627E+03  7.247695E+03
       200   3  2.549601E+05 -5.086694E+04 -4.820545E+04 -2.542048E+04  1.598848E+03  5.379345E+03
       200   4  4.598271E+05  2.653736E+02  3.714852E+03 -2.542601E+04  2.887441E+03  9.116576E+03
       200   5  4.596715E+05 -6.857287E+01  2.147758E+03 -5.638550E+03  1.817700E+03  7.247652E+03
       200   6  4.598312E+05  1.158037E+01  1.395325E+03 -2.542604E+04  7.468712E+02  5.379537E+03
       200   7  7.607399E+05  7.490021E+04  7.618443E+04 -2.544648E+04  2.035235E+03  9.116308E+03
       200   8  7.125816E+05  6.268671E+04  6.318163E+04 -5.652057E+03  9.654272E+02  7.247610E+03
       200   9  6.647406E+05  5.088703E+04  5.099308E+04 -2.543159E+04 -1.053859E+02  5.379728E+03
       200  10  1.589971E+05 -7.437615E+04 -6.876137E+04 -2.540559E+04  1.103351E-10  4.593109E-10
       200  11  2.068198E+05 -6.282858E+04 -5.889080E+04 -5.625061E+03 -8.655070E-10  6.456048E-10
       200  12  2.549600E+05 -5.086698E+04 -4.820551E+04 -2.542049E+04  1.847603E-09 -6.962085E-10
       200  13  4.598271E+05  2.652821E+02  3.714681E+03 -2.542604E+04 -1.230508E-09  3.894966E-10
       200  14  4.596715E+05 -6.863018E+01  2.147653E+03 -5.638560E+03 -4.556168E-10 -1.087610E-10
       200  15  4.598312E+05  1.154914E+01  1.395269E+03 -2.542604E+04  4.763336E-10 -8.188411E-10
       200  16  7.607398E+05  7.490012E+04  7.618427E+04 -2.544649E+04  6.683834E-10  3.147866E-10
       200  17  7.125816E+05  6.268665E+04  6.318153E+04 -5.652063E+03  4.135229E-10 -4.534216E-10
       200  18  6.647406E+05  5.088700E+04  5.099303E+04 -2.543159E+04  1.547514E-09 -7.110448E-10
       200  19  1.589971E+05 -7.437606E+04 -6.876118E+04 -2.540556E+04 -3.739236E+03 -9.116845E+03
       200  20  2.068198E+05 -6.282852E+04 -5.889069E+04 -5.625045E+03 -2.669627E+03 -7.247695E+03
       200  21  2.549601E+05 -5.086694E+04 -4.820545E+04 -2.542048E+04 -1.598848E+03 -5.379345E+03
       200  22  4.598271E+05  2.653736E+02  3.714852E+03 -2.542601E+04 -2.887441E+03 -9.116576E+03
       200  23  4.596715E+05 -6.857287E+01  2.147758E+03 -5.638550E+03 -1.817700E+03 -7.247652E+03
       200  24  4.598312E+05  1.158037E+01  1.395325E+03 -2.542604E+04 -7.468712E+02 -5.379537E+03
       200  25  7.607399E+05  7.490021E+04  7.618443E+04 -2.544648E+04 -2.035235E+03 -9.116308E+03
       200  26  7.125816E+05  6.268671E+04  6.318163E+04 -5.652057E+03 -9.654272E+02 -7.247610E+03
       200  27  6.647406E+05  5.088703E+04  5.099308E+04 -2.543159E+04  1.053859E+02 -5.379728E+03
       201   1  3.272512E+05 -3.282890E+04 -3.066694E+04 -2.531185E+04  1.363738E+03  4.293028E+03
       201   2  3.748170E+05 -2.109420E+04 -1.950566E+04 -5.703447E+03  8.651275E+02  2.433556E+03
       201   3  4.224562E+05 -9.197486E+03 -7.987000E+03 -2.535111E+04  3.661266E+02  5.825981E+02
       201   4  4.597840E+05  3.512237E+01  1.177320E+03 -2.535510E+04  5.134910E+02  4.293329E+03
       201   5  4.597490E+05 -1.546320E+01  9.949986E+02 -5.727216E+03  1.866336E+01  2.433928E+03
       201   6  4.597853E+05  9.562899E+01  1.167700E+03 -2.535507E+04 -4.765165E+02  5.830489E+02
       201   7  5.923329E+05  3.289787E+04  3.302033E+04 -2.539835E+04 -3.369371E+02  4.293630E+03
       201   8  5.446876E+05  2.106275E+04  2.149514E+04 -5.750987E+03 -8.279161E+02  2.434300E+03
       201   9  4.971156E+05  9.388641E+03  1.032230E+04 -2.535902E+04 -1.319210E+03  5.834997E+02
       201  10  3.272512E+05 -3.282892E+04 -3.066697E+04 -2.531185E+04  4.248361E-10 -8.493334E-10
       201  11  3.748170E+05 -2.109421E+04 -1.950567E+04 -5.703448E+03  1.480331E-09  1.949694E-10
       201  12  4.224562E+05 -9.197486E+03 -7.987001E+03 -2.535111E+04 -3.448535E-10  1.946761E-10
       201  13  4.597840E+05  3.510251E+01  1.177285E+03 -2.535510E+04 -1.577042E-10 -1.445742E-11
       201  14  4.597490E+05 -1.546956E+01  9.949875E+02 -5.727216E+03 -7.043494E-10  8.932743E-10
       201  15  4.597853E+05  9.562856E+01  1.167699E+03 -2.535507E+04 -3.660378E-11 -5.718646E-10
       201  16  5.923329E+05  3.289785E+04  3.302030E+04 -2.539835E+04 -9.498976E-10  8.174830E-11
       201  17  5.446876E+05  2.106274E+04  2.149513E+04 -5.750986E+03 -2.159608E-09  9.245041E-10
       201  18  4.971156E+05  9.388640E+03  1.032230E+04 -2.535902E+04 -1.101810E-09  9.657906E-11
       201  19  3.272512E+05 -3.282890E+04 -3.066694E+04 -2.531185E+04 -1.363738E+03 -4.293028E+03
       201  20  3.748170E+05 -2.109420E+04 -1.950566E+04 -5.703447E+03 -8.651275E+02 -2.433556E+03
       201  21  4.224562E+05 -9.197486E+03 -7.987000E+03 -2.535111E+04 -3.661266E+02 -5.825981E+02
       201  22  4.597840E+05  3.512237E+01  1.177320E+03 -2.535510E+04 -5.134910E+02 -4.293329E+03
       201  23  4.597490E+05 -1.546320E+01  9.949986E+02 -5.727216E+03 -1.866336E+01 -2.433928E+03
       201  24  4.597853E+05  9.562899E+01  1.167700E+03 -2.535507E+04  4.765165E+02 -5.830489E+02
       201  25  5.923329E+05  3.289787E+04  3.302033E+04 -2.539835E+04  3.369371E+02 -4.293630E+03
       201  26  5.446876E+05  2.106275E+04  2.149514E+04 -5.750987E+03  8.279161E+02 -2.434300E+03
       201  27  4.971156E+05  9.388641E+03  1.032230E+04 -2.535902E+04  1.319210E+03 -5.834997E+02
       202   1  4.945689E+05  8.642997E+03  9.885952E+03 -2.527545E+04  1.575707E+02 -5.071819E+02
       202   2  5.420092E+05  2.032172E+04  2.194056E+04 -5.777700E+03 -9.148754E+02 -2.362927E+03
       202   3  5.897807E+05  3.289394E+04  3.490853E+04 -2.553122E+04 -1.987043E+03 -4.151437E+03
       202   4  4.598413E+05 -4.067136E+00  1.359237E+03 -2.535426E+04 -7.047157E+02 -5.067197E+02
       202   5  4.596789E+05 -1.090409E+02  2.071151E+03 -5.728323E+03 -1.746393E+03 -2.362559E+03
       202   6  4.598397E+05  6.742128E+02  3.675149E+03 -2.535396E+04 -2.787711E+03 -4.151152E+03
       202   7  4.251148E+05 -8.651220E+03 -7.167564E+03 -2.543307E+04 -1.566954E+03 -5.062573E+02
       202   8  3.773549E+05 -2.054030E+04 -1.779874E+04 -5.678951E+03 -2.577802E+03 -2.362190E+03
       202   9  3.299142E+05 -3.154675E+04 -2.755943E+04 -2.517674E+04 -3.588212E+03 -4.150866E+03
       202  10  4.945689E+05  8.642997E+03  9.885952E+03 -2.527545E+04  5.659953E-10  3.695440E-10
       202  11  5.420092E+05  2.032171E+04  2.194055E+04 -5.777702E+03  1.658181E-09 -4.040422E-10
       202  12  5.897807E+05  3.289392E+04  3.490849E+04 -2.553123E+04 -1.140833E-10  5.820906E-10
       202  13  4.598413E+05 -4.067545E+00  1.359235E+03 -2.535426E+04 -9.323938E-10 -6.549546E-10
       202  14  4.596789E+05 -1.090478E+02  2.071134E+03 -5.728326E+03 -1.367034E-09 -8.252991E-10
       202  15  4.598397E+05  6.741922E+02  3.675102E+03 -2.535397E+04  2.222639E-09  6.116414E-10
       202  16  4.251148E+05 -8.651221E+03 -7.167569E+03 -2.543307E+04 -2.036154E-10  2.197047E-10
       202  17  3.773548E+05 -2.054031E+04 -1.779876E+04 -5.678956E+03 -1.177070E-09 -7.574064E-10
       202  18  3.299142E+05 -3.154677E+04 -2.755949E+04 -2.517675E+04  8.717033E-10  3.926697E-11
       202  19  4.945689E+05  8.642997E+03  9.885952E+03 -2.527545E+04 -1.575707E+02  5.071819E+02
       202  20  5.420092E+05  2.032172E+04  2.194056E+04 -5.777700E+03  9.148754E+02  2.362927E+03
       202  21  5.897807E+05  3.289394E+04  3.490853E+04 -2.553122E+04  1.987043E+03  4.151437E+03
       202  22  4.598413E+05 -4.067136E+00  1.359237E+03 -2.535426E+04  7.047157E+02  5.067197E+02
       202  23  4.596789E+05 -1.090409E+02  2.071151E+03 -5.728323E+03  1.746393E+03  2.362559E+03
       202  24  4.598397E+05  6.742128E+02  3.675149E+03 -2.535396E+04  2.787711E+03  4.151152E+03
       202  25  4.251148E+05 -8.651220E+03 -7.167564E+03 -2.543307E+04  1.566954E+03  5.062573E+02
       202  26  3.773549E+05 -2.054030E+04 -1.779874E+04 -5.678951E+03  2.577802E+03  2.362190E+03
       202  27  3.299142E+05 -3.154675E+04 -2.755943E+04 -2.517674E+04  3.588212E+03  4.150866E+03
       203   1  6.626129E+05  4.994802E+04  5.360179E+04 -2.468346E+04 -2.488833E+03 -5.357298E+03
       203   2  7.093273E+05  6.111255E+04  6.808043E+04 -6.072549E+03 -6.832496E+03 -7.216843E+03
       203   3  7.586091E+05  8.000203E+04  8.732940E+04 -2.700822E+04 -1.117545E+04 -8.242912E+03
       203   4  4.603169E+05 -2.751463E+02  4.650755E+03 -2.542015E+04 -3.527467E+03 -5.357030E+03
       203   5  4.590639E+05 -9.836189E+02  7.698955E+03 -5.646173E+03 -7.489311E+03 -7.216917E+03
       203   6  4.603112E+05  5.968565E+03  1.525414E+04 -2.541968E+04 -1.145011E+04 -8.243190E+03
       203   7  2.580583E+05 -5.050131E+04 -4.430322E+04 -2.615660E+04 -4.565765E+03 -5.356759E+03
       203   8  2.088576E+05 -6.308436E+04 -5.268699E+04 -5.219967E+03 -8.145863E+03 -7.216993E+03
       203   9  1.620944E+05 -6.807139E+04 -5.682750E+04 -2.383190E+04 -1.172465E+04 -8.243469E+03
       203  10  6.626129E+05  4.994799E+04  5.360173E+04 -2.468347E+04 -6.407840E-10  3.401482E-10
       203  11  7.093273E+05  6.111248E+04  6.808024E+04 -6.072589E+03  9.183241E-10 -1.249822E-10
       203  12  7.586090E+05  8.000192E+04  8.732904E+04 -2.700830E+04  3.147655E-10 -7.069521E-10
       203  13  4.603169E+05 -2.751805E+02  4.650677E+03 -2.542016E+04  2.158697E-09  5.081054E-10
       203  14  4.590638E+05 -9.836899E+02  7.698752E+03 -5.646216E+03  8.266968E-11 -1.032201E-10
       203  15  4.603110E+05  5.968457E+03  1.525377E+04 -2.541976E+04  2.631574E-09 -5.621484E-10
       203  16  2.580582E+05 -5.050135E+04 -4.430331E+04 -2.615661E+04 -8.176636E-10  3.070897E-10
       203  17  2.088576E+05 -6.308443E+04 -5.268722E+04 -5.220014E+03  3.288611E-10 -1.706622E-10
       203  18  1.620943E+05 -6.807150E+04 -5.682788E+04 -2.383198E+04 -4.562906E-10 -3.581160E-10
       203  19  6.626129E+05  4.994802E+04  5.360179E+04 -2.468346E+04  2.488833E+03  5.357298E+03
       203  20  7.093273E+05  6.111255E+04  6.808043E+04 -6.072549E+03  6.832496E+03  7.216843E+03
       203  21  7.586091E+05  8.000203E+04  8.732940E+04 -2.700822E+04  1.117545E+04  8.242912E+03
       203  22  4.603169E+05 -2.751463E+02  4.650755E+03 -2.542015E+04  3.527467E+03  5.357030E+03
       203  23  4.590639E+05 -9.836189E+02  7.698955E+03 -5.646173E+03  7.489311E+03  7.216917E+03
       203  24  4.603112E+05  5.968565E+03  1.525414E+04 -2.541968E+04  1.145011E+04  8.243190E+03
       203  25  2.580583E+05 -5.050131E+04 -4.430322E+04 -2.615660E+04  4.565765E+03  5.356759E+03
       203  26  2.088576E+05 -6.308436E+04 -5.268699E+04 -5.219967E+03  8.145863E+03  7.216993E+03
       203  27  1.620944E+05 -6.807139E+04 -5.682750E+04 -2.383190E+04  1.172465E+04  8.243469E+03
       204   1  8.355897E+05  8.952818E+04  1.082653E+05 -1.877489E+04 -1.126543E+04 -1.080160E+04
       204   2  8.744313E+05  9.567280E+04  1.307206E+05 -9.791129E+03 -3.185175E+04 -1.260617E+04
       204   3  9.333327E+05  1.702464E+05  1.837288E+05 -4.080151E+04 -5.244485E+04 -4.338793E+03
       204   4  4.640273E+05 -2.654409E+03  1.865011E+04 -2.551057E+04 -1.438048E+04 -1.080220E+04
       204   5  4.543814E+05 -8.508476E+03  2.952866E+04 -5.529266E+03 -3.035936E+04 -1.260637E+04
       204   6  4.640087E+05  5.329209E+04  6.777713E+04 -2.554288E+04 -4.634334E+04 -4.336322E+03
       204   7  9.259109E+04 -9.484689E+04 -7.097485E+04 -3.224222E+04 -1.749367E+04 -1.080273E+04
       204   8  3.449278E+04 -1.127025E+05 -7.167588E+04 -1.270308E+03 -2.886798E+04 -1.260655E+04
       204   9 -5.114826E+03 -6.367776E+04 -4.819058E+04 -1.029582E+04 -4.024642E+04 -4.333551E+03
       204  10  8.355895E+05  8.952802E+04  1.082648E+05 -1.877499E+04  8.909241E-11 -6.009789E-10
       204  11  8.744301E+05  9.567235E+04  1.307184E+05 -9.791452E+03 -7.688928E-10  1.199834E-10
       204  12  9.333298E+05  1.702457E+05  1.837236E+05 -4.080169E+04  6.222403E-10  4.481574E-10
       204  13  4.640270E+05 -2.654590E+03  1.864950E+04 -2.551070E+04 -1.389701E-09 -5.259046E-10
       204  14  4.543804E+05 -8.508894E+03  2.952663E+04 -5.529574E+03  1.615767E-09  1.509592E-10
       204  15  4.640064E+05  5.329150E+04  6.777306E+04 -2.554305E+04  1.839408E-09 -2.142635E-10
       204  16  9.259073E+04 -9.484710E+04 -7.097564E+04 -3.224237E+04 -7.772194E-10 -2.554793E-10
       204  17  3.449184E+04 -1.127029E+05 -7.167775E+04 -1.270601E+03 -6.955942E-11 -2.337591E-10
       204  18 -5.116570E+03 -6.367822E+04 -4.819366E+04 -1.029596E+04  5.049728E-10  5.630509E-10
       204  19  8.355897E+05  8.952818E+04  1.082653E+05 -1.877489E+04  1.126543E+04  1.080160E+04
       204  20  8.744313E+05  9.567280E+04  1.307206E+05 -9.791129E+03  3.185175E+04  1.260617E+04
       204  21  9.333327E+05  1.702464E+05  1.837288E+05 -4.080151E+04  5.244485E+04  4.338793E+03
       204  22  4.640273E+05 -2.654409E+03  1.865011E+04 -2.551057E+04  1.438048E+04  1.080220E+04
       204  23  4.543814E+05 -8.508476E+03  2.952866E+04 -5.529266E+03  3.035936E+04  1.260637E+04
       204  24  4.640087E+05  5.329209E+04  6.777713E+04 -2.554288E+04  4.634334E+04  4.336322E+03
       204  25  9.259109E+04 -9.484689E+04 -7.097485E+04 -3.224222E+04  1.749367E+04  1.080273E+04
       204  26  3.449278E+04 -1.127025E+05 -7.167588E+04 -1.270308E+03  2.886798E+04  1.260655E+04
       204  27 -5.114826E+03 -6.367776E+04 -4.819058E+04 -1.029582E+04  4.024642E+04  4.333551E+03
       205   1  7.781050E+05  2.314756E+06  7.500276E+05 -8.433432E+05  2.843472E+04  2.382482E+05
       205   2  5.287857E+05  1.612830E+06  4.589222E+05 -7.483017E+05  8.858786E+04  8.645363E+04
       205   3  3.458323E+05  9.468907E+05  2.829274E+05 -7.833024E+05  8.371774E+04 -6.536179E+04
       205   4  8.919863E+04 -4.715294E+05  9.148655E+04 -7.791719E+05  2.927809E+04  5.888524E+04
       205   5  2.866893E+04 -4.779083E+05  4.921208E+04 -7.143282E+05  8.886836E+04  3.400066E+04
       205   6  1.266650E+04 -4.706115E+05  3.418917E+04 -7.795198E+05  8.334881E+04  8.920801E+03
       205   7 -6.002333E+05 -3.250617E+06 -5.674703E+05 -7.152775E+05  3.008680E+04 -1.196798E+05
       205   8 -4.717064E+05 -2.564454E+06 -3.606982E+05 -6.804644E+05  8.914373E+04 -1.827996E+04
       205   9 -3.206059E+05 -1.886137E+06 -2.146008E+05 -7.757426E+05  8.298024E+04  8.303900E+04
       205  10  7.780889E+05  2.314695E+06  7.499198E+05 -8.433487E+05  4.007457E-10 -1.082182E-09
       205  11  5.287753E+05  1.612820E+06  4.588934E+05 -7.483079E+05 -3.056587E-10 -5.418177E-09
       205  12  3.458236E+05  9.468842E+05  2.829062E+05 -7.832980E+05  1.362671E-09 -1.936979E-09
       205  13  8.919678E+04 -4.715334E+05  9.147841E+04 -7.791733E+05 -1.138737E-09  1.582719E-09
       205  14  2.866013E+04 -4.779116E+05  4.919505E+04 -7.143307E+05 -1.536427E-09 -4.148672E-09
       205  15  1.265901E+04 -4.706134E+05  3.417596E+04 -7.795204E+05  5.210008E-10  8.073591E-10
       205  16 -6.002381E+05 -3.250633E+06 -5.674990E+05 -7.152746E+05  3.623968E-10  5.718343E-11
       205  17 -4.717151E+05 -2.564457E+06 -3.607138E+05 -6.804631E+05  5.896105E-10  1.750425E-09
       205  18 -3.206152E+05 -1.886146E+06 -2.146268E+05 -7.757481E+05 -2.049964E-09  7.407940E-10
       205  19  7.781050E+05  2.314756E+06  7.500276E+05 -8.433432E+05 -2.843472E+04 -2.382482E+05
       205  20  5.287857E+05  1.612830E+06  4.589222E+05 -7.483017E+05 -8.858786E+04 -8.645363E+04
       205  21  3.458323E+05  9.468907E+05  2.829274E+05 -7.833024E+05 -8.371774E+04  6.536179E+04
       205  22  8.919863E+04 -4.715294E+05  9.148655E+04 -7.791719E+05 -2.927809E+04 -5.888524E+04
       205  23  2.866893E+04 -4.779083E+05  4.921208E+04 -7.143282E+05 -8.886836E+04 -3.400066E+04
       205  24  1.266650E+04 -4.706115E+05  3.418917E+04 -7.795198E+05 -8.334881E+04 -8.920801E+03
       205  25 -6.002333E+05 -3.250617E+06 -5.674703E+05 -7.152775E+05 -3.008680E+04  1.196798E+05
       205  26 -4.717064E+05 -2.564454E+06 -3.606982E+05 -6.804644E+05 -8.914373E+04  1.827996E+04
       205  27 -3.206059E+05 -1.886137E+06 -2.146008E+05 -7.757426E+05 -8.298024E+04 -8.303900E+04
       206   1  2.423946E+05  5.067469E+05  2.021139E+05 -7.877696E+05  5.920237E+04 -6.809577E+04
       206   2  7.900702E+04 -1.787911E+05  8.128106E+04 -7.130672E+05  2.173403E+04 -8.805791E+04
       206   3 -7.287347E+04 -8.596503E+05 -2.405038E+04 -7.726554E+05 -1.712247E+04 -1.080128E+05
       206   4  1.239394E+04 -4.726209E+05  3.174111E+04 -7.804393E+05  5.882958E+04  3.617414E+03
       206   5  1.046540E+04 -4.744255E+05  3.425301E+04 -7.132784E+05  2.134082E+04 -1.367313E+04
       206   6  1.960038E+04 -4.724819E+05  5.040285E+04 -7.804045E+05 -1.753673E+04 -3.097683E+04
       206   7 -2.176557E+05 -1.451038E+06 -1.386461E+05 -7.731192E+05  5.845811E+04  7.522097E+04
       206   8 -5.807760E+04 -7.699610E+05 -1.275647E+04 -7.134894E+05  2.094744E+04  6.067752E+04
       206   9  1.120687E+05 -8.515622E+04  1.248715E+05 -7.881583E+05 -1.795275E+04  4.610609E+04
       206  10  2.423896E+05  5.067410E+05  2.020986E+05 -7.877663E+05  6.582211E-10 -6.126314E-10
       206  11  7.900443E+04 -1.787995E+05  8.126561E+04 -7.130656E+05  1.719063E-09 -6.150090E-09
       206  12 -7.287692E+04 -8.596629E+05 -2.407289E+04 -7.726569E+05  1.276781E-09 -2.665149E-09
       206  13  1.239022E+04 -4.726219E+05  3.173458E+04 -7.804395E+05  5.485066E-11  2.109596E-09
       206  14  1.046486E+04 -4.744258E+05  3.425181E+04 -7.132781E+05 -4.602665E-09 -5.074070E-09
       206  15  1.959979E+04 -4.724830E+05  5.040047E+04 -7.804049E+05 -1.830429E-10  3.302306E-10
       206  16 -2.176609E+05 -1.451045E+06 -1.386632E+05 -7.731228E+05 -8.578065E-10 -4.364515E-10
       206  17 -5.807907E+04 -7.699651E+05 -1.276423E+04 -7.134904E+05 -2.455888E-09  1.253068E-09
       206  18  1.120678E+05 -8.515859E+04  1.248669E+05 -7.881576E+05  1.411228E-09  9.963649E-10
       206  19  2.423946E+05  5.067469E+05  2.021139E+05 -7.877696E+05 -5.920237E+04  6.809577E+04
       206  20  7.900702E+04 -1.787911E+05  8.128106E+04 -7.130672E+05 -2.173403E+04  8.805791E+04
       206  21 -7.287347E+04 -8.596503E+05 -2.405038E+04 -7.726554E+05  1.712247E+04  1.080128E+05
       206  22  1.239394E+04 -4.726209E+05  3.174111E+04 -7.804393E+05 -5.882958E+04 -3.617414E+03
       206  23  1.046540E+04 -4.744255E+05  3.425301E+04 -7.132784E+05 -2.134082E+04  1.367313E+04
       206  24  1.960038E+04 -4.724819E+05  5.040285E+04 -7.804045E+05  1.753673E+04  3.097683E+04
       206  25 -2.176557E+05 -1.451038E+06 -1.386461E+05 -7.731192E+05 -5.845811E+04 -7.522097E+04
       206  26 -5.807760E+04 -7.699610E+05 -1.275647E+04 -7.134894E+05 -2.094744E+04 -6.067752E+04
       206  27  1.120687E+05 -8.515622E+04  1.248715E+05 -7.881583E+05  1.795275E+04 -4.610609E+04
       207   1 -1.744042E+05 -1.290047E+06 -8.762363E+04 -7.809725E+05 -4.271123E+04 -1.185938E+05
       207   2 -2.980542E+05 -1.980019E+06 -1.901805E+05 -6.442488E+05 -5.764219E+04 -7.463283E+04
       207   3 -3.335906E+05 -2.654138E+06 -2.996319E+05 -6.385185E+05 -2.050750E+04 -3.054153E+04
       207   4  2.078059E+04 -4.661141E+05  6.367815E+04 -7.797310E+05 -4.312914E+04 -3.966912E+04
       207   5  6.288778E+04 -4.828537E+05  1.113507E+05 -7.138383E+05 -5.751143E+04 -9.676964E+04
       207   6  2.105439E+05 -4.667400E+05  2.223269E+05 -7.788437E+05 -1.989595E+04 -1.536952E+05
       207   7  2.159301E+05  3.584925E+05  2.149756E+05 -7.784866E+05 -4.354637E+04  3.935775E+04
       207   8  4.237081E+05  1.016464E+06  4.127712E+05 -7.835956E+05 -5.737590E+04 -1.189587E+05
       207   9  7.544104E+05  1.725132E+06  7.440157E+05 -9.196597E+05 -1.922990E+04 -2.772815E+05
       207  10 -1.744099E+05 -1.290063E+06 -8.765357E+04 -7.809766E+05  2.062853E-09 -5.266322E-10
       207  11 -2.980593E+05 -1.980026E+06 -1.901973E+05 -6.442523E+05  3.171473E-09 -6.679516E-09
       207  12 -3.335913E+05 -2.654139E+06 -2.996345E+05 -6.385190E+05  2.936168E-10 -3.974795E-09
       207  13  2.077817E+04 -4.661163E+05  6.367169E+04 -7.797324E+05  3.387682E-09  1.719069E-09
       207  14  6.288171E+04 -4.828647E+05  1.113268E+05 -7.138428E+05 -3.119121E-09 -4.700850E-09
       207  15  2.105371E+05 -4.667655E+05  2.222817E+05 -7.788462E+05  9.599842E-10  7.395580E-10
       207  16  2.159277E+05  3.584903E+05  2.149691E+05 -7.784853E+05  1.156404E-09 -1.499962E-09
       207  17  4.237008E+05  1.016448E+06  4.127384E+05 -7.836011E+05  3.383190E-09  1.983923E-09
       207  18  7.543894E+05  1.725050E+06  7.438709E+05 -9.196640E+05  1.776986E-09  3.177287E-09
       207  19 -1.744042E+05 -1.290047E+06 -8.762363E+04 -7.809725E+05  4.271123E+04  1.185938E+05
       207  20 -2.980542E+05 -1.980019E+06 -1.901805E+05 -6.442488E+05  5.764219E+04  7.463283E+04
       207  21 -3.335906E+05 -2.654138E+06 -2.996319E+05 -6.385185E+05  2.050750E+04  3.054153E+04
       207  22  2.078059E+04 -4.661141E+05  6.367815E+04 -7.797310E+05  4.312914E+04  3.966912E+04
       207  23  6.288778E+04 -4.828537E+05  1.113507E+05 -7.138383E+05  5.751143E+04  9.676964E+04
       207  24  2.105439E+05 -4.667400E+05  2.223269E+05 -7.788437E+05  1.989595E+04  1.536952E+05
       207  25  2.159301E+05  3.584925E+05  2.149756E+05 -7.784866E+05  4.354637E+04 -3.935775E+04
       207  26  4.237081E+05  1.016464E+06  4.127712E+05 -7.835956E+05  5.737590E+04  1.189587E+05
       207  27  7.544104E+05  1.725132E+06  7.440157E+05 -9.196597E+05  1.922990E+04  2.772815E+05
       208   1 -2.994471E+06 -1.136221E+06 -6.061033E+05 -1.082174E+06 -2.003964E+05 -3.193232E+04
       208   2 -2.797984E+06 -1.069897E+06 -4.572460E+05 -1.020700E+06 -1.313042E+05  9.739104E+04
       208   3 -2.586014E+06 -1.026601E+06 -3.838212E+05 -9.954621E+05 -3.775751E+04  1.622993E+05
       208   4 -3.912753E+05 -1.861306E+05  5.604455E+04 -3.972884E+05  2.178122E+04  5.205181E+04
       208   5 -4.135475E+05 -2.077348E+05  2.621137E+04 -3.709869E+05 -2.584031E+04  1.371547E+05
       208   6 -3.971472E+05 -2.291887E+05  1.378665E+04 -3.809266E+05 -4.909822E+04  1.579600E+05
       208   7  2.218565E+06  7.643127E+05  7.178362E+05  2.901697E+05  2.449772E+05  1.363939E+05
       208   8  1.976758E+06  6.548785E+05  5.094267E+05  2.810239E+05  8.006012E+04  1.770774E+05
       208   9  1.796810E+06  5.687037E+05  4.112350E+05  2.356485E+05 -6.048214E+04  1.536044E+05
       208  10 -2.994514E+06 -1.136233E+06 -6.061811E+05 -1.082179E+06 -2.411573E-09 -1.750587E-10
       208  11 -2.798005E+06 -1.069912E+06 -4.572963E+05 -1.020690E+06 -1.271449E-09 -3.235508E-10
       208  12 -2.586023E+06 -1.026629E+06 -3.838734E+05 -9.954572E+05 -2.600469E-09  1.357848E-09
       208  13 -3.912765E+05 -1.861336E+05  5.603856E+04 -3.972893E+05 -3.955573E-10 -1.176209E-09
       208  14 -4.135533E+05 -2.077551E+05  2.617477E+04 -3.709840E+05  2.754890E-09 -2.342840E-09
       208  15 -3.971565E+05 -2.292161E+05  1.373524E+04 -3.809204E+05  1.550751E-09  2.978351E-09
       208  16  2.218496E+06  7.642767E+05  7.176889E+05  2.901429E+05 -1.684248E-10  2.301376E-09
       208  17  1.976742E+06  6.548431E+05  5.093559E+05  2.810125E+05 -2.712824E-09 -3.827016E-10
       208  18  1.796800E+06  5.686773E+05  4.111838E+05  2.356560E+05  1.798257E-09  2.563135E-09
       208  19 -2.994471E+06 -1.136221E+06 -6.061033E+05 -1.082174E+06  2.003964E+05  3.193232E+04
       208  20 -2.797984E+06 -1.069897E+06 -4.572460E+05 -1.020700E+06  1.313042E+05 -9.739104E+04
       208  21 -2.586014E+06 -1.026601E+06 -3.838212E+05 -9.954621E+05  3.775751E+04 -1.622993E+05
       208  22 -3.912753E+05 -1.861306E+05  5.604455E+04 -3.972884E+05 -2.178122E+04 -5.205181E+04
       208  23 -4.135475E+05 -2.077348E+05  2.621137E+04 -3.709869E+05  2.584031E+04 -1.371547E+05
       208  24 -3.971472E+05 -2.291887E+05  1.378665E+04 -3.809266E+05  4.909822E+04 -1.579600E+05
       208  25  2.218565E+06  7.643127E+05  7.178362E+05  2.901697E+05 -2.449772E+05 -1.363939E+05
       208  26  1.976758E+06  6.548785E+05  5.094267E+05  2.810239E+05 -8.006012E+04 -1.770774E+05
       208  27  1.796810E+06  5.687037E+05  4.112350E+05  2.356485E+05  6.048214E+04 -1.536044E+05
       209   1 -2.461327E+06 -9.774295E+05 -3.587814E+05 -9.588686E+05 -4.362661E+04  1.542376E+05
       209   2 -2.281634E+06 -8.918680E+05 -3.176921E+05 -8.880017E+05 -3.304708E+04  1.515135E+05
       209   3 -2.073129E+06 -8.363830E+05 -2.828150E+05 -8.510346E+05 -2.018953E+04  1.427037E+05
       209   4 -3.979457E+05 -2.298281E+05  1.031538E+04 -3.824689E+05 -4.872504E+04  1.522580E+05
       209   5 -4.134181E+05 -2.167438E+05  5.353092E+03 -3.651374E+05 -4.918334E+04  1.453885E+05
       209   6 -3.979320E+05 -2.315412E+05  2.944217E+03 -3.817124E+05 -4.737025E+04  1.324427E+05
       209   7  1.669938E+06  5.181833E+05  3.792697E+05  1.957235E+05 -5.384176E+04  1.502718E+05
       209   8  1.458499E+06  4.587221E+05  3.282948E+05  1.592003E+05 -6.537146E+04  1.392441E+05
       209   9  1.280238E+06  3.735752E+05  2.886245E+05  8.879463E+04 -7.462895E+04  1.221525E+05
       209  10 -2.461336E+06 -9.774555E+05 -3.588297E+05 -9.588631E+05  1.576015E-09  1.999944E-09
       209  11 -2.281641E+06 -8.918930E+05 -3.177373E+05 -8.879977E+05  9.218999E-10  1.988165E-10
       209  12 -2.073135E+06 -8.364050E+05 -2.828540E+05 -8.510323E+05 -1.615779E-09  9.050477E-11
       209  13 -3.979545E+05 -2.298536E+05  1.026736E+04 -3.824629E+05  5.206179E-11  1.858618E-09
       209  14 -4.134263E+05 -2.167671E+05  5.308836E+03 -3.651317E+05  1.032839E-09 -1.192362E-09
       209  15 -3.979391E+05 -2.315607E+05  2.907047E+03 -3.817073E+05 -7.561243E-10 -1.472104E-09
       209  16  1.669929E+06  5.181582E+05  3.792218E+05  1.957300E+05 -4.385016E-09  2.196846E-09
       209  17  1.458489E+06  4.587001E+05  3.282503E+05  1.592076E+05 -2.952764E-09  4.123963E-10
       209  18  1.280228E+06  3.735576E+05  2.885860E+05  8.880197E+04 -6.861789E-10  4.628627E-10
       209  19 -2.461327E+06 -9.774295E+05 -3.587814E+05 -9.588686E+05  4.362661E+04 -1.542376E+05
       209  20 -2.281634E+06 -8.918680E+05 -3.176921E+05 -8.880017E+05  3.304708E+04 -1.515135E+05
       209  21 -2.073129E+06 -8.363830E+05 -2.828150E+05 -8.510346E+05  2.018953E+04 -1.427037E+05
       209  22 -3.979457E+05 -2.298281E+05  1.031538E+04 -3.824689E+05  4.872504E+04 -1.522580E+05
       209  23 -4.134181E+05 -2.167438E+05  5.353092E+03 -3.651374E+05  4.918334E+04 -1.453885E+05
       209  24 -3.979320E+05 -2.315412E+05  2.944217E+03 -3.817124E+05  4.737025E+04 -1.324427E+05
       209  25  1.669938E+06  5.181833E+05  3.792697E+05  1.957235E+05  5.384176E+04 -1.502718E+05
       209  26  1.458499E+06  4.587221E+05  3.282948E+05  1.592003E+05  6.537146E+04 -1.392441E+05
       209  27  1.280238E+06  3.735752E+05  2.886245E+05  8.879463E+04  7.462895E+04 -1.221525E+05
       210   1 -1.948468E+06 -7.907023E+05 -2.609326E+05 -8.160182E+05 -1.781963E+04  1.334754E+05
       210   2 -1.769305E+06 -7.052050E+05 -2.283565E+05 -7.444292E+05 -1.169326E+04  1.186989E+05
       210   3 -1.560039E+06 -6.496943E+05 -1.961001E+05 -7.069680E+05 -5.363928E+03  1.033353E+05
       210   4 -3.979482E+05 -2.314955E+05  2.187181E+03 -3.819085E+05 -4.443493E+04  1.234381E+05
       210   5 -4.129559E+05 -2.164056E+05  1.149004E+03 -3.648723E+05 -3.937483E+04  1.082771E+05
       210   6 -3.977005E+05 -2.310936E+05  6.287332E+02 -3.819760E+05 -3.411223E+04  9.252961E+04
       210   7  1.155154E+06  3.279592E+05  2.652504E+05  5.322434E+04 -7.112141E+04  1.133742E+05
       210   8  9.453648E+05  2.725815E+05  2.306113E+05  1.546568E+04 -6.712100E+04  9.783105E+04
       210   9  7.660810E+05  1.876427E+05  1.973254E+05 -5.641231E+04 -6.291787E+04  8.170244E+04
       210  10 -1.948473E+06 -7.907215E+05 -2.609667E+05 -8.160162E+05  8.315260E-12  4.318874E-11
       210  11 -1.769309E+06 -7.052202E+05 -2.283833E+05 -7.444280E+05 -9.596519E-10  6.524667E-11
       210  12 -1.560042E+06 -6.497058E+05 -1.961202E+05 -7.069675E+05 -2.764897E-09  7.225187E-10
       210  13 -3.979544E+05 -2.315124E+05  2.154846E+03 -3.819041E+05  5.410212E-11 -9.022656E-10
       210  14 -4.129607E+05 -2.164186E+05  1.124066E+03 -3.648689E+05 -2.894997E-09  4.796210E-11
       210  15 -3.977040E+05 -2.311031E+05  6.104626E+02 -3.819734E+05 -1.084150E-09  4.352563E-10
       210  16  1.155145E+06  3.279441E+05  2.652167E+05  5.323083E+04 -1.107802E-09 -1.000469E-09
       210  17  9.453574E+05  2.725700E+05  2.305849E+05  1.547097E+04 -8.013708E-10 -1.345766E-10
       210  18  7.660750E+05  1.876345E+05  1.973055E+05 -5.640818E+04  1.277264E-09 -1.375919E-10
       210  19 -1.948468E+06 -7.907023E+05 -2.609326E+05 -8.160182E+05  1.781963E+04 -1.334754E+05
       210  20 -1.769305E+06 -7.052050E+05 -2.283565E+05 -7.444292E+05  1.169326E+04 -1.186989E+05
       210  21 -1.560039E+06 -6.496943E+05 -1.961001E+05 -7.069680E+05  5.363928E+03 -1.033353E+05
       210  22 -3.979482E+05 -2.314955E+05  2.187181E+03 -3.819085E+05  4.443493E+04 -1.234381E+05
       210  23 -4.129559E+05 -2.164056E+05  1.149004E+03 -3.648723E+05  3.937483E+04 -1.082771E+05
       210  24 -3.977005E+05 -2.310936E+05  6.287332E+02 -3.819760E+05  3.411223E+04 -9.252961E+04
       210  25  1.155154E+06  3.279592E+05  2.652504E+05  5.322434E+04  7.112141E+04 -1.133742E+05
       210  26  9.453648E+05  2.725815E+05  2.306113E+05  1.546568E+04  6.712100E+04 -9.783105E+04
       210  27  7.660810E+05  1.876427E+05  1.973254E+05 -5.641231E+04  6.291787E+04 -8.170244E+04
       211   1 -1.435113E+06 -6.043747E+05 -1.741740E+05 -6.720782E+05 -2.023593E+03  9.405622E+04
       211   2 -1.255426E+06 -5.191393E+05 -1.419625E+05 -6.004470E+05  3.951508E+03  7.822831E+04
       211   3 -1.045637E+06 -4.638654E+05 -1.097436E+05 -5.630898E+05  9.937985E+03  6.233919E+04
       211   4 -3.976677E+05 -2.310206E+05  4.429589E+02 -3.820246E+05 -3.073515E+04  8.327242E+04
       211   5 -4.126305E+05 -2.158929E+05  1.680510E+02 -3.649152E+05 -2.487280E+04  6.741272E+04
       211   6 -3.975124E+05 -2.307074E+05 -1.541330E+01 -3.820935E+05 -1.899906E+04  5.149176E+04
       211   7  6.409163E+05  1.424376E+05  1.750326E+05 -9.151860E+04 -5.949747E+04  7.246958E+04
       211   8  4.309238E+05  8.742497E+04  1.422836E+05 -1.290830E+05 -5.373874E+04  5.658152E+04
       211   9  2.510685E+05  2.495493E+03  1.097071E+05 -2.009177E+05 -4.796854E+04  4.063217E+04
       211  10 -1.435115E+06 -6.043842E+05 -1.741906E+05 -6.720780E+05 -2.132612E-09  1.818831E-09
       211  11 -1.255427E+06 -5.191459E+05 -1.419740E+05 -6.004472E+05  4.306561E-10  1.868187E-09
       211  12 -1.045638E+06 -4.638696E+05 -1.097511E+05 -5.630903E+05  7.193396E-10  1.016200E-09
       211  13 -3.976705E+05 -2.310283E+05  4.281571E+02 -3.820225E+05  6.490090E-10  8.368740E-10
       211  14 -4.126323E+05 -2.158980E+05  1.583513E+02 -3.649139E+05  1.448258E-09  1.075302E-09
       211  15 -3.975135E+05 -2.307104E+05 -2.107249E+01 -3.820927E+05  7.432676E-09  1.188906E-09
       211  16  6.409111E+05  1.424310E+05  1.750161E+05 -9.151513E+04  1.255553E-09 -2.364259E-10
       211  17  4.309199E+05  8.742076E+04  1.422722E+05 -1.290806E+05  2.068904E-09  3.557053E-10
       211  18  2.510656E+05  2.493104E+03  1.096997E+05 -2.009161E+05  3.023975E-09  1.184411E-09
       211  19 -1.435113E+06 -6.043747E+05 -1.741740E+05 -6.720782E+05  2.023593E+03 -9.405622E+04
       211  20 -1.255426E+06 -5.191393E+05 -1.419625E+05 -6.004470E+05 -3.951508E+03 -7.822831E+04
       211  21 -1.045637E+06 -4.638654E+05 -1.097436E+05 -5.630898E+05 -9.937985E+03 -6.233919E+04
       211  22 -3.976677E+05 -2.310206E+05  4.429589E+02 -3.820246E+05  3.073515E+04 -8.327242E+04
       211  23 -4.126305E+05 -2.158929E+05  1.680510E+02 -3.649152E+05  2.487280E+04 -6.741272E+04
       211  24 -3.975124E+05 -2.307074E+05 -1.541330E+01 -3.820935E+05  1.899906E+04 -5.149176E+04
       211  25  6.409163E+05  1.424376E+05  1.750326E+05 -9.151860E+04  5.949747E+04 -7.246958E+04
       211  26  4.309238E+05  8.742497E+04  1.422836E+05 -1.290830E+05  5.373874E+04 -5.658152E+04
       211  27  2.510685E+05  2.495493E+03  1.097071E+05 -2.009177E+05  4.796854E+04 -4.063217E+04
       212   1 -9.204465E+05 -4.186296E+05 -8.775828E+04 -5.282177E+05  1.343161E+04  5.307359E+04
       212   2 -7.403976E+05 -3.335345E+05 -5.558765E+04 -4.565771E+05  1.954219E+04  3.721459E+04
       212   3 -5.303192E+05 -2.784114E+05 -2.351549E+04 -4.192833E+05  2.564030E+04  2.137626E+04
       212   4 -3.974953E+05 -2.306651E+05 -1.160037E+02 -3.821150E+05 -1.551452E+04  4.222704E+04
       212   5 -4.124534E+05 -2.156055E+05 -3.624711E+02 -3.649503E+05 -9.369560E+03  2.638502E+04
       212   6 -3.974312E+05 -2.305282E+05 -7.384720E+02 -3.821468E+05 -3.237119E+03  1.056368E+04
       212   7  1.257493E+05 -4.267269E+04  8.752288E+04 -2.358964E+05 -4.448655E+04  3.137077E+04
       212   8 -8.439452E+04 -9.766581E+04  5.486299E+04 -2.732781E+05 -3.829738E+04  1.554942E+04
       212   9 -2.645242E+05 -1.826431E+05  2.204122E+04 -3.450027E+05 -3.212080E+04 -2.512503E+02
       212  10 -9.204474E+05 -4.186327E+05 -8.776391E+04 -5.282183E+05  2.413765E-09  1.104762E-09
       212  11 -7.403984E+05 -3.335361E+05 -5.559097E+04 -4.565777E+05  1.992135E-09 -8.439699E-11
       212  12 -5.303200E+05 -2.784120E+05 -2.351759E+04 -4.192838E+05  1.410684E-09 -1.200289E-10
       212  13 -3.974960E+05 -2.306671E+05 -1.198058E+02 -3.821145E+05  6.164583E-09  1.014687E-09
       212  14 -4.124537E+05 -2.156063E+05 -3.639439E+02 -3.649501E+05  3.508931E-09  4.720937E-10
       212  15 -3.974313E+05 -2.305283E+05 -7.387013E+02 -3.821468E+05  1.902561E-09  7.636872E-10
       212  16  1.257469E+05 -4.267428E+04  8.751732E+04 -2.358953E+05  4.273091E-09  1.320197E-09
       212  17 -8.439616E+04 -9.766646E+04  5.485978E+04 -2.732776E+05  1.245737E-09  1.971775E-09
       212  18 -2.645253E+05 -1.826434E+05  2.203928E+04 -3.450028E+05 -1.181817E-09  1.382579E-09
       212  19 -9.204465E+05 -4.186296E+05 -8.775828E+04 -5.282177E+05 -1.343161E+04 -5.307359E+04
       212  20 -7.403976E+05 -3.335345E+05 -5.558765E+04 -4.565771E+05 -1.954219E+04 -3.721459E+04
       212  21 -5.303192E+05 -2.784114E+05 -2.351549E+04 -4.192833E+05 -2.564030E+04 -2.137626E+04
       212  22 -3.974953E+05 -2.306651E+05 -1.160037E+02 -3.821150E+05  1.551452E+04 -4.222704E+04
       212  23 -4.124534E+05 -2.156055E+05 -3.624711E+02 -3.649503E+05  9.369560E+03 -2.638502E+04
       212  24 -3.974312E+05 -2.305282E+05 -7.384720E+02 -3.821468E+05  3.237119E+03 -1.056368E+04
       212  25  1.257493E+05 -4.267269E+04  8.752288E+04 -2.358964E+05  4.448655E+04 -3.137077E+04
       212  26 -8.439452E+04 -9.766581E+04  5.486299E+04 -2.732781E+05  3.829738E+04 -1.554942E+04
       212  27 -2.645242E+05 -1.826431E+05  2.204122E+04 -3.450027E+05  3.212080E+04  2.512503E+02
       213   1 -4.049756E+05 -2.332161E+05 -1.667657E+03 -3.844135E+05  2.928611E+04  1.218394E+04
       213   2 -2.247961E+05 -1.481896E+05  3.010156E+04 -3.127336E+05  3.554576E+04 -3.412138E+03
       213   3 -1.465128E+04 -9.315475E+04  6.159734E+04 -2.753897E+05  4.168774E+04 -1.868787E+04
       213   4 -3.974609E+05 -2.305145E+05 -1.011628E+03 -3.821600E+05  3.742019E+02  1.358971E+03
       213   5 -4.123889E+05 -2.155467E+05 -1.886567E+03 -3.649551E+05  7.210706E+03 -1.402347E+04
       213   6 -3.975113E+05 -2.306924E+05 -3.496214E+03 -3.821045E+05  1.392939E+04 -2.908552E+04
       213   7 -3.899442E+05 -2.278121E+05 -3.519867E+02 -3.799059E+05 -2.853837E+04 -9.466261E+03
       213   8 -5.999435E+05 -2.829002E+05 -3.387251E+04 -4.171616E+05 -2.111541E+04 -2.463146E+04
       213   9 -7.802139E+05 -3.682152E+05 -6.859049E+04 -4.887574E+05 -1.381079E+04 -3.947636E+04
       213  10 -4.049766E+05 -2.332165E+05 -1.669549E+03 -3.844138E+05 -8.372008E-10  3.460888E-10
       213  11 -2.247975E+05 -1.481899E+05  3.009916E+04 -3.127335E+05  1.498907E-09  1.900841E-09
       213  12 -1.465324E+04 -9.315559E+04  6.159342E+04 -2.753891E+05  1.049114E-09  8.351652E-10
       213  13 -3.974609E+05 -2.305145E+05 -1.011631E+03 -3.821600E+05  1.730224E-09  1.308749E-09
       213  14 -4.123890E+05 -2.155470E+05 -1.887034E+03 -3.649550E+05  1.285029E-09  9.411679E-10
       213  15 -3.975117E+05 -2.306934E+05 -3.498168E+03 -3.821042E+05  1.651119E-09  4.415933E-11
       213  16 -3.899451E+05 -2.278124E+05 -3.536872E+02 -3.799061E+05  1.953915E-09  2.344187E-09
       213  17 -5.999441E+05 -2.829010E+05 -3.387449E+04 -4.171621E+05  3.591301E-10  1.681919E-09
       213  18 -7.802145E+05 -3.682169E+05 -6.859378E+04 -4.887578E+05 -4.817269E-09 -1.710691E-10
       213  19 -4.049756E+05 -2.332161E+05 -1.667657E+03 -3.844135E+05 -2.928611E+04 -1.218394E+04
       213  20 -2.247961E+05 -1.481896E+05  3.010156E+04 -3.127336E+05 -3.554576E+04  3.412138E+03
       213  21 -1.465128E+04 -9.315475E+04  6.159734E+04 -2.753897E+05 -4.168774E+04  1.868787E+04
       213  22 -3.974609E+05 -2.305145E+05 -1.011628E+03 -3.821600E+05 -3.742019E+02 -1.358971E+03
       213  23 -4.123889E+05 -2.155467E+05 -1.886567E+03 -3.649551E+05 -7.210706E+03  1.402347E+04
       213  24 -3.975113E+05 -2.306924E+05 -3.496214E+03 -3.821045E+05 -1.392939E+04  2.908552E+04
       213  25 -3.899442E+05 -2.278121E+05 -3.519867E+02 -3.799059E+05  2.853837E+04  9.466261E+03
       213  26 -5.999435E+05 -2.829002E+05 -3.387251E+04 -4.171616E+05  2.111541E+04  2.463146E+04
       213  27 -7.802139E+05 -3.682152E+05 -6.859049E+04 -4.887574E+05  1.381079E+04  3.947636E+04
       214   1  1.108637E+05 -4.804744E+04  8.284466E+04 -2.407337E+05  4.605196E+04 -2.738233E+04
       214   2  2.901490E+05  3.734209E+04  1.140721E+05 -1.679924E+05  4.938087E+04 -4.179457E+04
       214   3  4.990729E+05  9.170305E+04  1.463112E+05 -1.288985E+05  5.144387E+04 -5.281506E+04
       214   4 -3.977832E+05 -2.306715E+05 -4.672905E+03 -3.821488E+05  1.796447E+04 -3.790636E+04
       214   5 -4.122927E+05 -2.164894E+05 -8.619698E+03 -3.646073E+05  2.745991E+04 -5.001600E+04
       214   6 -3.984241E+05 -2.345646E+05 -1.644245E+04 -3.807313E+05  3.568923E+04 -5.873151E+04
       214   7 -9.061486E+05 -4.132679E+05 -9.219303E+04 -5.234538E+05 -1.009828E+04 -4.842117E+04
       214   8 -1.114211E+06 -4.702720E+05 -1.313245E+05 -5.610139E+05  5.565330E+03 -5.822748E+04
       214   9 -1.295083E+06 -5.607574E+05 -1.792261E+05 -6.322265E+05  1.995870E+04 -6.463882E+04
       214  10  1.108612E+05 -4.804881E+04  8.283927E+04 -2.407327E+05 -1.576256E-08 -5.386537E-09
       214  11  2.901459E+05  3.733956E+04  1.140642E+05 -1.679908E+05  3.523179E-09  7.504760E-10
       214  12  4.990693E+05  9.169935E+04  1.463010E+05 -1.288963E+05  1.966881E-08  7.744873E-09
       214  13 -3.977839E+05 -2.306731E+05 -4.676211E+03 -3.821483E+05  2.541639E-09 -1.152227E-09
       214  14 -4.122942E+05 -2.164922E+05 -8.625813E+03 -3.646062E+05  4.262787E-09 -3.870839E-09
       214  15 -3.984264E+05 -2.345686E+05 -1.645132E+04 -3.807296E+05  3.028098E-09 -6.040925E-09
       214  16 -9.061493E+05 -4.132705E+05 -9.219763E+04 -5.234541E+05  8.325245E-09  5.895879E-09
       214  17 -1.114212E+06 -4.702756E+05 -1.313309E+05 -5.610136E+05  1.489392E-10  1.952493E-09
       214  18 -1.295085E+06 -5.607620E+05 -1.792347E+05 -6.322255E+05 -1.457847E-08 -2.368164E-09
       214  19  1.108637E+05 -4.804744E+04  8.284466E+04 -2.407337E+05 -4.605196E+04  2.738233E+04
       214  20  2.901490E+05  3.734209E+04  1.140721E+05 -1.679924E+05 -4.938087E+04  4.179457E+04
       214  21  4.990729E+05  9.170305E+04  1.463112E+05 -1.288985E+05 -5.144387E+04  5.281506E+04
       214  22 -3.977832E+05 -2.306715E+05 -4.672905E+03 -3.821488E+05 -1.796447E+04  3.790636E+04
       214  23 -4.122927E+05 -2.164894E+05 -8.619698E+03 -3.646073E+05 -2.745991E+04  5.001600E+04
       214  24 -3.984241E+05 -2.345646E+05 -1.644245E+04 -3.807313E+05 -3.568923E+04  5.873151E+04
       214  25 -9.061486E+05 -4.132679E+05 -9.219303E+04 -5.234538E+05  1.009828E+04  4.842117E+04
       214  26 -1.114211E+06 -4.702720E+05 -1.313245E+05 -5.610139E+05 -5.565330E+03  5.822748E+04
       214  27 -1.295083E+06 -5.607574E+05 -1.792261E+05 -6.322265E+05 -1.995870E+04  6.463882E+04
       215   1  6.268312E+05  1.351166E+05  1.665382E+05 -9.794957E+04  6.004470E+04 -5.754234E+04
       215   2  7.887409E+05  2.270125E+05  2.088278E+05 -2.239906E+03  1.359569E+04 -6.650754E+04
       215   3  9.736638E+05  2.630686E+05  2.756594E+05  7.149381E+04 -4.638638E+04 -3.953546E+04
       215   4 -4.013780E+05 -2.343391E+05 -2.193090E+04 -3.812981E+05  4.077108E+04 -6.478271E+04
       215   5 -4.112905E+05 -2.341360E+05 -4.192919E+04 -3.575004E+05  5.981665E+04 -4.917570E+04
       215   6 -4.112172E+05 -3.027970E+05 -8.927885E+04 -3.556979E+05  6.532964E+04  2.413194E+03
       215   7 -1.428485E+06 -6.037027E+05 -2.104391E+05 -6.642134E+05  2.153139E+04 -7.201058E+04
       215   8 -1.609815E+06 -6.951122E+05 -2.927481E+05 -7.121050E+05  1.059408E+05 -3.188439E+04
       215   9 -1.794137E+06 -8.684047E+05 -4.543120E+05 -7.819664E+05  1.767686E+05  4.423640E+04
       215  10  6.268264E+05  1.351121E+05  1.665252E+05 -9.794678E+04 -1.474908E-08 -4.735358E-09
       215  11  7.887396E+05  2.270077E+05  2.088192E+05 -2.239178E+03 -3.322276E-09  6.062769E-10
       215  12  9.736611E+05  2.630663E+05  2.756524E+05  7.149233E+04  9.532267E-09  4.151628E-09
       215  13 -4.013809E+05 -2.343441E+05 -2.194191E+04 -3.812960E+05  2.826280E-09 -6.120873E-09
       215  14 -4.112950E+05 -2.341396E+05 -4.194046E+04 -3.574981E+05  6.290257E-10 -4.226708E-09
       215  15 -4.112218E+05 -3.027981E+05 -8.928688E+04 -3.556980E+05 -1.499165E-09 -9.800290E-10
       215  16 -1.428487E+06 -6.037084E+05 -2.104497E+05 -6.642121E+05  1.786755E-08  9.654803E-09
       215  17 -1.609827E+06 -6.951163E+05 -2.927712E+05 -7.121023E+05 -1.114863E-09  1.746989E-09
       215  18 -1.794172E+06 -8.684153E+05 -4.543746E+05 -7.819727E+05 -9.057841E-09 -3.850105E-09
       215  19  6.268312E+05  1.351166E+05  1.665382E+05 -9.794957E+04 -6.004470E+04  5.754234E+04
       215  20  7.887409E+05  2.270125E+05  2.088278E+05 -2.239906E+03 -1.359569E+04  6.650754E+04
       215  21  9.736638E+05  2.630686E+05  2.756594E+05  7.149381E+04  4.638638E+04  3.953546E+04
       215  22 -4.013780E+05 -2.343391E+05 -2.193090E+04 -3.812981E+05 -4.077108E+04  6.478271E+04
       215  23 -4.112905E+05 -2.341360E+05 -4.192919E+04 -3.575004E+05 -5.981665E+04  4.917570E+04
       215  24 -4.112172E+05 -3.027970E+05 -8.927885E+04 -3.556979E+05 -6.532964E+04 -2.413194E+03
       215  25 -1.428485E+06 -6.037027E+05 -2.104391E+05 -6.642134E+05 -2.153139E+04  7.201058E+04
       215  26 -1.609815E+06 -6.951122E+05 -2.927481E+05 -7.121050E+05 -1.059408E+05  3.188439E+04
       215  27 -1.794137E+06 -8.684047E+05 -4.543120E+05 -7.819664E+05 -1.767686E+05 -4.423640E+04
       216   1 -4.529373E+05 -1.686951E+05 -1.466132E+05 -1.016306E+05 -2.149941E+04  1.322313E+04
       216   2 -3.268951E+05 -1.909934E+05 -1.200399E+05 -1.229588E+05  2.863301E+03  4.403672E+04
       216   3 -1.955061E+05 -1.796498E+05 -1.009186E+05 -1.646821E+05  2.725095E+04  5.209721E+04
       216   4  6.231759E+05  9.637272E+04  1.031434E+05 -1.661462E+05  7.266348E+04  1.326852E+04
       216   5  6.161670E+05  3.190709E+04  5.169434E+04 -1.559368E+05  4.625514E+04  4.404613E+04
       216   6  6.232820E+05  9.862760E+03  2.803446E+04 -1.661171E+05  1.986713E+04  5.208904E+04
       216   7  1.700386E+06  3.613795E+05  3.528578E+05 -2.307744E+05  1.669884E+05  1.329432E+04
       216   8  1.560100E+06  2.547625E+05  2.234006E+05 -1.889664E+05  8.971109E+04  4.405093E+04
       216   9  1.442738E+06  1.993422E+05  1.569712E+05 -1.675540E+05  1.247391E+04  5.208091E+04
       216  10 -4.529379E+05 -1.686954E+05 -1.466144E+05 -1.016304E+05  9.101114E-10  1.203410E-10
       216  11 -3.268957E+05 -1.909954E+05 -1.200435E+05 -1.229589E+05 -7.554205E-10  5.579522E-10
       216  12 -1.955076E+05 -1.796529E+05 -1.009251E+05 -1.646833E+05 -3.937195E-09  7.760251E-10
       216  13  6.231701E+05  9.637112E+04  1.031332E+05 -1.661470E+05 -1.740810E-09  5.537235E-10
       216  14  6.161642E+05  3.190443E+04  5.168668E+04 -1.559385E+05  3.829079E-10  5.378319E-10
       216  15  6.232808E+05  9.859740E+03  2.802862E+04 -1.661179E+05  7.690149E-10  7.053616E-10
       216  16  1.700356E+06  3.613718E+05  3.528052E+05 -2.307762E+05  3.671904E-11  5.235732E-10
       216  17  1.560091E+06  2.547583E+05  2.233818E+05 -1.889695E+05  7.461177E-10  7.656306E-10
       216  18  1.442737E+06  1.993392E+05  1.569658E+05 -1.675545E+05  4.378603E-09  1.873529E-09
       216  19 -4.529373E+05 -1.686951E+05 -1.466132E+05 -1.016306E+05  2.149941E+04 -1.322313E+04
       216  20 -3.268951E+05 -1.909934E+05 -1.200399E+05 -1.229588E+05 -2.863301E+03 -4.403672E+04
       216  21 -1.955061E+05 -1.796498E+05 -1.009186E+05 -1.646821E+05 -2.725095E+04 -5.209721E+04
       216  22  6.231759E+05  9.637272E+04  1.031434E+05 -1.661462E+05 -7.266348E+04 -1.326852E+04
       216  23  6.161670E+05  3.190709E+04  5.169434E+04 -1.559368E+05 -4.625514E+04 -4.404613E+04
       216  24  6.232820E+05  9.862760E+03  2.803446E+04 -1.661171E+05 -1.986713E+04 -5.208904E+04
       216  25  1.700386E+06  3.613795E+05  3.528578E+05 -2.307744E+05 -1.669884E+05 -1.329432E+04
       216  26  1.560100E+06  2.547625E+05  2.234006E+05 -1.889664E+05 -8.971109E+04 -4.405093E+04
       216  27  1.442738E+06  1.993422E+05  1.569712E+05 -1.675540E+05 -1.247391E+04 -5.208091E+04
       217   1 -1.168525E+05 -1.625587E+05 -9.180218E+04 -1.623963E+05  2.441452E+04  4.921993E+04
       217   2  1.126250E+04 -1.371494E+05 -7.658772E+04 -1.536348E+05  2.511552E+04  4.411538E+04
       217   3  1.400047E+05 -1.091201E+05 -6.116155E+04 -1.668777E+05  2.581534E+04  3.615076E+04
       217   4  6.205470E+05  7.437043E+03  2.097810E+04 -1.664802E+05  1.622825E+04  4.921288E+04
       217   5  6.197165E+05  2.091085E+03  1.136881E+04 -1.554788E+05  1.053979E+04  4.410990E+04
       217   6  6.206033E+05  4.725398E+02  6.403381E+03 -1.664798E+05  4.850043E+03  3.614832E+04
       217   7  1.358491E+06  1.774067E+05  1.337469E+05 -1.705692E+05  8.032636E+03  4.920596E+04
       217   8  1.228544E+06  1.413148E+05  9.932021E+04 -1.573246E+05 -4.049619E+03  4.410451E+04
       217   9  1.101437E+06  1.100551E+05  7.396691E+04 -1.660816E+05 -1.613077E+04  3.614585E+04
       217  10 -1.168538E+05 -1.625614E+05 -9.180786E+04 -1.623972E+05  1.835290E-09  5.028464E-10
       217  11  1.126129E+04 -1.371517E+05 -7.659256E+04 -1.536357E+05  1.503305E-09 -7.143352E-10
       217  12  1.400036E+05 -1.091217E+05 -6.116526E+04 -1.668784E+05 -1.043998E-09 -1.084978E-09
       217  13  6.205461E+05  7.434371E+03  2.097306E+04 -1.664809E+05 -7.400660E-10  1.320076E-09
       217  14  6.197158E+05  2.088965E+03  1.136494E+04 -1.554792E+05 -2.258238E-09 -1.177926E-10
       217  15  6.206029E+05  4.711299E+02  6.400880E+03 -1.664800E+05 -3.734761E-10 -7.317006E-10
       217  16  1.358490E+06  1.774040E+05  1.337422E+05 -1.705695E+05 -8.665662E-10  1.330739E-09
       217  17  1.228544E+06  1.413127E+05  9.931653E+04 -1.573245E+05  6.216958E-12  1.437807E-10
       217  18  1.101436E+06  1.100536E+05  7.396396E+04 -1.660812E+05  1.449299E-09 -1.744338E-10
       217  19 -1.168525E+05 -1.625587E+05 -9.180218E+04 -1.623963E+05 -2.441452E+04 -4.921993E+04
       217  20  1.126250E+04 -1.371494E+05 -7.658772E+04 -1.536348E+05 -2.511552E+04 -4.411538E+04
       217  21  1.400047E+05 -1.091201E+05 -6.116155E+04 -1.668777E+05 -2.581534E+04 -3.615076E+04
       217  22  6.205470E+05  7.437043E+03  2.097810E+04 -1.664802E+05 -1.622825E+04 -4.921288E+04
       217  23  6.197165E+05  2.091085E+03  1.136881E+04 -1.554788E+05 -1.053979E+04 -4.410990E+04
       217  24  6.206033E+05  4.725398E+02  6.403381E+03 -1.664798E+05 -4.850043E+03 -3.614832E+04
       217  25  1.358491E+06  1.774067E+05  1.337469E+05 -1.705692E+05 -8.032636E+03 -4.920596E+04
       217  26  1.228544E+06  1.413148E+05  9.932021E+04 -1.573246E+05  4.049619E+03 -4.410451E+04
       217  27  1.101437E+06  1.100551E+05  7.396691E+04 -1.660816E+05  1.613077E+04 -3.614585E+04
       218   1  2.197214E+05 -9.087025E+04 -5.084180E+04 -1.665773E+05  2.496194E+04  3.056539E+04
       218   2  3.480072E+05 -6.192066E+04 -3.483161E+04 -1.555301E+05  2.441340E+04  2.095071E+04
       218   3  4.764399E+05 -3.280671E+04 -1.841754E+04 -1.666797E+05  2.386339E+04  1.097804E+04
       218   4  6.202950E+05  3.426497E+02  4.835725E+03 -1.665231E+05  3.897211E+03  3.056451E+04
       218   5  6.201719E+05 -6.164775E+00  2.724165E+03 -1.554251E+05  2.546573E+03  2.095157E+04
       218   6  6.203195E+05 -5.075460E+01  1.571918E+03 -1.665232E+05  1.194577E+03  1.098071E+04
       218   7  1.021032E+06  9.154869E+04  6.051297E+04 -1.664689E+05 -1.718050E+04  3.056362E+04
       218   8  8.924128E+05  6.190533E+04  4.028088E+04 -1.553200E+05 -1.932941E+04  2.095242E+04
       218   9  7.642212E+05  3.270456E+04  2.156305E+04 -1.663667E+05 -2.147925E+04  1.098336E+04
       218  10  2.197205E+05 -9.087143E+04 -5.084473E+04 -1.665779E+05 -8.457589E-10 -9.806621E-10
       218  11  3.480064E+05 -6.192129E+04 -3.483355E+04 -1.555305E+05 -2.237356E-09 -6.697464E-10
       218  12  4.764392E+05 -3.280699E+04 -1.841883E+04 -1.666799E+05 -2.169160E-09  4.113443E-10
       218  13  6.202948E+05  3.416421E+02  4.833940E+03 -1.665232E+05  8.709872E-10 -3.921471E-10
       218  14  6.201718E+05 -6.638046E+00  2.723328E+03 -1.554251E+05  5.879503E-10  2.944803E-10
       218  15  6.203194E+05 -5.088450E+01  1.571689E+03 -1.665232E+05  6.691521E-10  1.199195E-09
       218  16  1.021032E+06  9.154761E+04  6.051066E+04 -1.664685E+05 -6.632946E-10  2.255141E-10
       218  17  8.924123E+05  6.190476E+04  4.027936E+04 -1.553197E+05  4.228532E-10  1.107009E-09
       218  18  7.642206E+05  3.270431E+04  2.156196E+04 -1.663665E+05  1.695631E-10  1.981847E-09
       218  19  2.197214E+05 -9.087025E+04 -5.084180E+04 -1.665773E+05 -2.496194E+04 -3.056539E+04
       218  20  3.480072E+05 -6.192066E+04 -3.483161E+04 -1.555301E+05 -2.441340E+04 -2.095071E+04
       218  21  4.764399E+05 -3.280671E+04 -1.841754E+04 -1.666797E+05 -2.386339E+04 -1.097804E+04
       218  22  6.202950E+05  3.426497E+02  4.835725E+03 -1.665231E+05 -3.897211E+03 -3.056451E+04
       218  23  6.201719E+05 -6.164775E+00  2.724165E+03 -1.554251E+05 -2.546573E+03 -2.095157E+04
       218  24  6.203195E+05 -5.075460E+01  1.571918E+03 -1.665232E+05 -1.194577E+03 -1.098071E+04
       218  25  1.021032E+06  9.154869E+04  6.051297E+04 -1.664689E+05  1.718050E+04 -3.056362E+04
       218  26  8.924128E+05  6.190533E+04  4.028088E+04 -1.553200E+05  1.932941E+04 -2.095242E+04
       218  27  7.642212E+05  3.270456E+04  2.156305E+04 -1.663667E+05  2.147925E+04 -1.098336E+04
       219   1  5.562554E+05 -1.456582E+04 -7.441133E+03 -1.666344E+05  2.362861E+04  5.055459E+03
       219   2  6.845897E+05  1.453522E+04  9.354907E+03 -1.554901E+05  2.336253E+04 -5.117947E+03
       219   3  8.129905E+05  4.363706E+04  2.632847E+04 -1.665653E+05  2.309678E+04 -1.532888E+04
       219   4  6.202763E+05 -4.162414E+01  1.201439E+03 -1.665284E+05  9.467455E+02  5.058516E+03
       219   5  6.202424E+05 -5.289651E+01  7.123090E+02 -1.554187E+05  5.943415E+02 -5.115288E+03
       219   6  6.202707E+05 -4.862057E+01  4.585079E+02 -1.665285E+05  2.423087E+02 -1.532665E+04
       219   7  6.843024E+05  1.448267E+04  9.845904E+03 -1.664225E+05 -2.173735E+04  5.061566E+03
       219   8  5.559004E+05 -1.464091E+04 -7.928380E+03 -1.553472E+05 -2.217160E+04 -5.112635E+03
       219   9  4.275899E+05 -4.373562E+04 -2.540982E+04 -1.664916E+05 -2.260540E+04 -1.532442E+04
       219  10  5.562548E+05 -1.456600E+04 -7.442229E+03 -1.666344E+05  1.516977E-09  1.164812E-09
       219  11  6.845892E+05  1.453505E+04  9.353833E+03 -1.554900E+05  9.840182E-10  1.662026E-09
       219  12  8.129899E+05  4.363667E+04  2.632702E+04 -1.665650E+05 -2.048420E-09  1.211110E-09
       219  13  6.202763E+05 -4.165187E+01  1.201389E+03 -1.665284E+05  6.182225E-11  1.549856E-09
       219  14  6.202424E+05 -5.292471E+01  7.122591E+02 -1.554186E+05  1.004251E-09  1.356724E-09
       219  15  6.202707E+05 -4.887291E+01  4.580662E+02 -1.665285E+05 -1.045363E-09  8.703736E-10
       219  16  6.843019E+05  1.448252E+04  9.844969E+03 -1.664224E+05 -9.510601E-10  1.889000E-09
       219  17  5.558999E+05 -1.464107E+04 -7.929352E+03 -1.553473E+05  1.170630E-09  1.078817E-09
       219  18  4.275893E+05 -4.373601E+04 -2.541122E+04 -1.664919E+05  3.369013E-09  4.423413E-10
       219  19  5.562554E+05 -1.456582E+04 -7.441133E+03 -1.666344E+05 -2.362861E+04 -5.055459E+03
       219  20  6.845897E+05  1.453522E+04  9.354907E+03 -1.554901E+05 -2.336253E+04  5.117947E+03
       219  21  8.129905E+05  4.363706E+04  2.632847E+04 -1.665653E+05 -2.309678E+04  1.532888E+04
       219  22  6.202763E+05 -4.162414E+01  1.201439E+03 -1.665284E+05 -9.467455E+02 -5.058516E+03
       219  23  6.202424E+05 -5.289651E+01  7.123090E+02 -1.554187E+05 -5.943415E+02  5.115288E+03
       219  24  6.202707E+05 -4.862057E+01  4.585079E+02 -1.665285E+05 -2.423087E+02  1.532665E+04
       219  25  6.843024E+05  1.448267E+04  9.845904E+03 -1.664225E+05  2.173735E+04 -5.061566E+03
       219  26  5.559004E+05 -1.464091E+04 -7.928380E+03 -1.553472E+05  2.217160E+04  5.112635E+03
       219  27  4.275899E+05 -4.373562E+04 -2.540982E+04 -1.664916E+05  2.260540E+04  1.532442E+04
       220   1  8.928534E+05  6.184651E+04  3.754948E+04 -1.665530E+05  2.302244E+04 -2.128601E+04
       220   2  1.021249E+06  9.092153E+04  5.473843E+04 -1.553948E+05  2.273654E+04 -3.148599E+04
       220   3  1.149731E+06  1.200160E+05  7.212571E+04 -1.664616E+05  2.245283E+04 -4.162943E+04
       220   4  6.202605E+05 -5.612478E+01  3.881942E+02 -1.665298E+05  1.652518E+02 -2.128467E+04
       220   5  6.202192E+05 -8.938566E+01  3.279690E+02 -1.554169E+05  3.486626E+00 -3.148726E+04
       220   6  6.202253E+05 -1.243708E+02  3.785957E+02 -1.665298E+05 -1.560341E+02 -4.163333E+04
       220   7  3.477442E+05 -6.196171E+04 -3.677190E+04 -1.665067E+05 -2.268237E+04 -2.128333E+04
       220   8  2.193540E+05 -9.110698E+04 -5.408214E+04 -1.554391E+05 -2.271558E+04 -3.148854E+04
       220   9  9.100602E+04 -1.202766E+05 -7.136932E+04 -1.665980E+05 -2.274653E+04 -4.163722E+04
       220  10  8.928527E+05  6.184588E+04  3.754764E+04 -1.665526E+05 -6.597561E-08 -2.136832E-10
       220  11  1.021248E+06  9.092032E+04  5.473560E+04 -1.553942E+05  8.289870E-10 -2.644046E-09
       220  12  1.149730E+06  1.200140E+05  7.212150E+04 -1.664608E+05  6.579188E-08 -3.117860E-09
       220  13  6.202604E+05 -5.661141E+01  3.873426E+02 -1.665298E+05  5.018211E-10 -2.736152E-10
       220  14  6.202189E+05 -9.045061E+01  3.261054E+02 -1.554169E+05 -1.640643E-09 -2.298517E-09
       220  15  6.202248E+05 -1.262327E+02  3.753374E+02 -1.665299E+05  1.363208E-10 -2.708337E-09
       220  16  3.477435E+05 -6.196234E+04 -3.677372E+04 -1.665071E+05  6.404937E-08 -5.016959E-10
       220  17  2.193532E+05 -9.110819E+04 -5.408497E+04 -1.554396E+05  5.746598E-10 -2.334950E-09
       220  18  9.100499E+04 -1.202786E+05 -7.137356E+04 -1.665988E+05 -6.678672E-08 -2.535858E-09
       220  19  8.928534E+05  6.184651E+04  3.754948E+04 -1.665530E+05 -2.302244E+04  2.128601E+04
       220  20  1.021249E+06  9.092153E+04  5.473843E+04 -1.553948E+05 -2.273654E+04  3.148599E+04
       220  21  1.149731E+06  1.200160E+05  7.212571E+04 -1.664616E+05 -2.245283E+04  4.162943E+04
       220  22  6.202605E+05 -5.612478E+01  3.881942E+02 -1.665298E+05 -1.652518E+02  2.128467E+04
       220  23  6.202192E+05 -8.938566E+01  3.279690E+02 -1.554169E+05 -3.486626E+00  3.148726E+04
       220  24  6.202253E+05 -1.243708E+02  3.785957E+02 -1.665298E+05  1.560341E+02  4.163333E+04
       220  25  3.477442E+05 -6.196171E+04 -3.677190E+04 -1.665067E+05  2.268237E+04  2.128333E+04
       220  26  2.193540E+05 -9.110698E+04 -5.408214E+04 -1.554391E+05  2.271558E+04  3.148854E+04
       220  27  9.100602E+04 -1.202766E+05 -7.136932E+04 -1.665980E+05  2.274653E+04  4.163722E+04
       221   1  1.229702E+06  1.382378E+05  8.357808E+04 -1.664170E+05  2.236887E+04 -4.753306E+04
       221   2  1.358106E+06  1.673998E+05  1.015696E+05 -1.552377E+05  2.090168E+04 -5.738728E+04
       221   3  1.486843E+06  1.968211E+05  1.205967E+05 -1.662656E+05  1.943799E+04 -6.673534E+04
       221   4  6.202248E+05 -1.514234E+02  4.461531E+02 -1.665261E+05 -2.284972E+02 -4.753913E+04
       221   5  6.201315E+05 -2.000792E+02  6.851241E+02 -1.554216E+05 -5.654530E+02 -5.739787E+04
       221   6  6.201600E+05 -1.843749E+02  1.175544E+03 -1.665261E+05 -8.986606E+02 -6.675015E+04
       221   7  1.112567E+04 -1.385566E+05 -8.268771E+04 -1.666350E+05 -2.280472E+04 -4.754518E+04
       221   8 -1.172897E+05 -1.678234E+05 -1.002034E+05 -1.556053E+05 -2.200827E+04 -5.740845E+04
       221   9 -2.457609E+05 -1.972225E+05 -1.182526E+05 -1.667861E+05 -2.120824E+04 -6.676495E+04
       221  10  1.229701E+06  1.382353E+05  8.357289E+04 -1.664162E+05  4.441654E-10 -1.950064E-09
       221  11  1.358105E+06  1.673962E+05  1.015626E+05 -1.552367E+05 -1.713609E-10 -1.534852E-09
       221  12  1.486842E+06  1.968162E+05  1.205877E+05 -1.662646E+05  3.719561E-09 -9.980759E-10
       221  13  6.202242E+05 -1.538509E+02  4.419048E+02 -1.665261E+05  1.167251E-09 -1.709649E-09
       221  14  6.201306E+05 -2.036181E+02  6.789306E+02 -1.554217E+05  4.317967E-10 -4.124696E-10
       221  15  6.201588E+05 -1.891611E+02  1.167167E+03 -1.665261E+05 -3.184802E-10 -3.919280E-10
       221  16  1.112451E+04 -1.385591E+05 -8.269294E+04 -1.666359E+05  1.372390E-09 -1.601886E-09
       221  17 -1.172911E+05 -1.678271E+05 -1.002105E+05 -1.556063E+05 -1.355982E-09  3.318869E-10
       221  18 -2.457625E+05 -1.972275E+05 -1.182618E+05 -1.667872E+05 -3.838195E-09  8.464617E-10
       221  19  1.229702E+06  1.382378E+05  8.357808E+04 -1.664170E+05 -2.236887E+04  4.753306E+04
       221  20  1.358106E+06  1.673998E+05  1.015696E+05 -1.552377E+05 -2.090168E+04  5.738728E+04
       221  21  1.486843E+06  1.968211E+05  1.205967E+05 -1.662656E+05 -1.943799E+04  6.673534E+04
       221  22  6.202248E+05 -1.514234E+02  4.461531E+02 -1.665261E+05  2.284972E+02  4.753913E+04
       221  23  6.201315E+05 -2.000792E+02  6.851241E+02 -1.554216E+05  5.654530E+02  5.739787E+04
       221  24  6.201600E+05 -1.843749E+02  1.175544E+03 -1.665261E+05  8.986606E+02  6.675015E+04
       221  25  1.112567E+04 -1.385566E+05 -8.268771E+04 -1.666350E+05  2.280472E+04  4.754518E+04
       221  26 -1.172897E+05 -1.678234E+05 -1.002034E+05 -1.556053E+05  2.200827E+04  5.740845E+04
       221  27 -2.457609E+05 -1.972225E+05 -1.182526E+05 -1.667861E+05  2.120824E+04  6.676495E+04
       222   1  1.567223E+06  2.152810E+05  1.331258E+05 -1.660523E+05  1.907612E+04 -7.216044E+04
       222   2  1.694954E+06  2.455003E+05  1.560561E+05 -1.554608E+05  8.660117E+03 -7.917026E+04
       222   3  1.824787E+06  2.781773E+05  1.864004E+05 -1.668000E+05 -1.757437E+03 -8.212810E+04
       222   4  6.202200E+05 -1.909880E+02  1.546242E+03 -1.664646E+05 -1.125958E+03 -7.217837E+04
       222   5  6.199160E+05  1.183388E+02  2.713040E+03 -1.554985E+05 -2.475410E+03 -7.918944E+04
       222   6  6.201262E+05  1.315923E+03  5.009679E+03 -1.664652E+05 -3.824201E+03 -8.214487E+04
       222   7 -3.258738E+05 -2.157024E+05 -1.300427E+05 -1.668762E+05 -2.129865E+04 -7.219629E+04
       222   8 -4.539561E+05 -2.453158E+05 -1.506466E+05 -1.555360E+05 -1.359252E+04 -7.920864E+04
       222   9 -5.830821E+05 -2.756144E+05 -1.764102E+05 -1.661312E+05 -5.887119E+03 -8.216166E+04
       222  10  1.567221E+06  2.152753E+05  1.331153E+05 -1.660512E+05 -9.775388E-09 -6.994879E-10
       222  11  1.694952E+06  2.454935E+05  1.560442E+05 -1.554603E+05  2.384025E-08  5.810263E-10
       222  12  1.824785E+06  2.781701E+05  1.863877E+05 -1.668001E+05  5.498454E-08  1.104437E-09
       222  13  6.202186E+05 -1.965843E+02  1.536446E+03 -1.664647E+05  1.548813E-10 -2.198147E-10
       222  14  6.199143E+05  1.116012E+02  2.701241E+03 -1.554986E+05  1.273217E-09  5.252336E-10
       222  15  6.201243E+05  1.308671E+03  4.996967E+03 -1.664655E+05  1.690994E-09  1.207777E-09
       222  16 -3.258757E+05 -2.157081E+05 -1.300533E+05 -1.668775E+05  1.097934E-08  5.253969E-10
       222  17 -4.539579E+05 -2.453226E+05 -1.506587E+05 -1.555369E+05 -2.188243E-08  2.122799E-09
       222  18 -5.830839E+05 -2.756216E+05 -1.764230E+05 -1.661316E+05 -5.494081E-08  1.595020E-09
       222  19  1.567223E+06  2.152810E+05  1.331258E+05 -1.660523E+05 -1.907612E+04  7.216044E+04
       222  20  1.694954E+06  2.455003E+05  1.560561E+05 -1.554608E+05 -8.660117E+03  7.917026E+04
       222  21  1.824787E+06  2.781773E+05  1.864004E+05 -1.668000E+05  1.757437E+03  8.212810E+04
       222  22  6.202200E+05 -1.909880E+02  1.546242E+03 -1.664646E+05  1.125958E+03  7.217837E+04
       222  23  6.199160E+05  1.183388E+02  2.713040E+03 -1.554985E+05  2.475410E+03  7.918944E+04
       222  24  6.201262E+05  1.315923E+03  5.009679E+03 -1.664652E+05  3.824201E+03  8.214487E+04
       222  25 -3.258738E+05 -2.157024E+05 -1.300427E+05 -1.668762E+05  2.129865E+04  7.219629E+04
       222  26 -4.539561E+05 -2.453158E+05 -1.506466E+05 -1.555360E+05  1.359252E+04  7.920864E+04
       222  27 -5.830821E+05 -2.756144E+05 -1.764102E+05 -1.661312E+05  5.887119E+03  8.216166E+04
       223   1  1.907769E+06  2.987964E+05  2.063240E+05 -1.655185E+05 -3.757190E+03 -8.371530E+04
       223   2  2.028953E+06  3.392623E+05  2.654698E+05 -1.630988E+05 -8.219532E+04 -6.807690E+04
       223   3  2.166191E+06  4.024478E+05  3.812967E+05 -1.803046E+05 -1.607079E+05 -2.019975E+04
       223   4  6.207648E+05  1.854181E+03  6.696846E+03 -1.659496E+05 -4.693342E+03 -8.373254E+04
       223   5  6.189272E+05  7.085638E+03  1.231945E+04 -1.561473E+05 -1.095985E+04 -6.802453E+04
       223   6  6.206420E+05  2.255359E+04  2.460519E+04 -1.659672E+05 -1.727958E+04 -2.004597E+04
       223   7 -6.645893E+05 -2.951688E+05 -1.929687E+05 -1.663798E+05 -5.627625E+03 -8.374981E+04
       223   8 -7.891549E+05 -3.251985E+05 -2.408887E+05 -1.492122E+05  6.011883E+04 -6.797052E+04
       223   9 -9.226599E+05 -3.574959E+05 -3.321681E+05 -1.516660E+05  1.257955E+05 -1.988543E+04
       223  10  1.907767E+06  2.987889E+05  2.063108E+05 -1.655188E+05 -5.383439E-08  1.754609E-10
       223  11  2.028944E+06  3.392555E+05  2.654485E+05 -1.631033E+05 -2.231206E-08 -2.374104E-09
       223  12  2.166163E+06  4.024405E+05  3.812476E+05 -1.803072E+05  8.070510E-09 -6.907124E-10
       223  13  6.207629E+05  1.846644E+03  6.683625E+03 -1.659499E+05  7.186308E-10 -2.459109E-09
       223  14  6.189259E+05  7.080636E+03  1.231053E+04 -1.561479E+05 -2.242925E-09  2.866922E-09
       223  15  6.206416E+05  2.255308E+04  2.460388E+04 -1.659675E+05  1.997354E-09  1.727435E-10
       223  16 -6.645912E+05 -2.951763E+05 -1.929819E+05 -1.663802E+05  5.246546E-08  8.258294E-10
       223  17 -7.891601E+05 -3.252045E+05 -2.409041E+05 -1.492089E+05  2.088503E-08  1.947618E-09
       223  18 -9.226770E+05 -3.575006E+05 -3.321986E+05 -1.516640E+05 -9.136421E-09 -1.078971E-09
       223  19  1.907769E+06  2.987964E+05  2.063240E+05 -1.655185E+05  3.757190E+03  8.371530E+04
       223  20  2.028953E+06  3.392623E+05  2.654698E+05 -1.630988E+05  8.219532E+04  6.807690E+04
       223  21  2.166191E+06  4.024478E+05  3.812967E+05 -1.803046E+05  1.607079E+05  2.019975E+04
       223  22  6.207648E+05  1.854181E+03  6.696846E+03 -1.659496E+05  4.693342E+03  8.373254E+04
       223  23  6.189272E+05  7.085638E+03  1.231945E+04 -1.561473E+05  1.095985E+04  6.802453E+04
       223  24  6.206420E+05  2.255359E+04  2.460519E+04 -1.659672E+05  1.727958E+04  2.004597E+04
       223  25 -6.645893E+05 -2.951688E+05 -1.929687E+05 -1.663798E+05  5.627625E+03  8.374981E+04
       223  26 -7.891549E+05 -3.251985E+05 -2.408887E+05 -1.492122E+05 -6.011883E+04  6.797052E+04
       223  27 -9.226599E+05 -3.574959E+05 -3.321681E+05 -1.516660E+05 -1.257955E+05  1.988543E+04
       224   1  3.755288E+05  1.663991E+06  3.591642E+05 -5.004426E+05  1.399760E+04  1.075987E+05
       224   2  2.619885E+05  1.279189E+06  2.160747E+05 -4.639831E+05  4.237491E+04  3.200702E+04
       224   3  1.675470E+05  9.090541E+05  1.268734E+05 -4.900855E+05  3.908261E+04 -4.355773E+04
       224   4  1.551605E+04  2.059944E+05  1.564638E+04 -4.888708E+05  1.416249E+04  9.001751E+03
       224   5  5.985118E+03  2.049911E+05  9.416196E+03 -4.575974E+05  4.242989E+04  4.268005E+03
       224   6  3.296625E+03  2.062631E+05  7.958732E+03 -4.888898E+05  3.900358E+04 -4.854433E+02
       224   7 -3.446428E+05 -1.250029E+06 -3.279814E+05 -4.773247E+05  1.432398E+04 -8.936548E+04
       224   8 -2.500861E+05 -8.680964E+05 -1.972927E+05 -4.512221E+05  4.248438E+04 -2.342420E+04
       224   9 -1.609788E+05 -4.960381E+05 -1.109649E+05 -4.876951E+05  3.892465E+04  4.253972E+04
       224  10  3.755255E+05  1.663978E+06  3.591422E+05 -5.004438E+05  1.615691E-09  6.922577E-08
       224  11  2.619863E+05  1.279187E+06  2.160694E+05 -4.639842E+05  1.026112E-09  8.235911E-10
       224  12  1.675448E+05  9.090517E+05  1.268670E+05 -4.900842E+05  3.215660E-11 -7.136438E-08
       224  13  1.551582E+04  2.059942E+05  1.564585E+04 -4.888709E+05  1.026905E-09  5.547170E-11
       224  14  5.983179E+03  2.049905E+05  9.412777E+03 -4.575975E+05 -1.984523E-09 -5.615340E-10
       224  15  3.294992E+03  2.062627E+05  7.955873E+03 -4.888898E+05 -9.227186E-10  1.071860E-10
       224  16 -3.446452E+05 -1.250038E+06 -3.279968E+05 -4.773237E+05  1.292487E-09 -6.817778E-08
       224  17 -2.500882E+05 -8.680975E+05 -1.972971E+05 -4.512213E+05  3.627385E-09 -2.379513E-10
       224  18 -1.609809E+05 -4.960404E+05 -1.109712E+05 -4.876965E+05 -4.062444E-11  7.052392E-08
       224  19  3.755288E+05  1.663991E+06  3.591642E+05 -5.004426E+05 -1.399760E+04 -1.075987E+05
       224  20  2.619885E+05  1.279189E+06  2.160747E+05 -4.639831E+05 -4.237491E+04 -3.200702E+04
       224  21  1.675470E+05  9.090541E+05  1.268734E+05 -4.900855E+05 -3.908261E+04  4.355773E+04
       224  22  1.551605E+04  2.059944E+05  1.564638E+04 -4.888708E+05 -1.416249E+04 -9.001751E+03
       224  23  5.985118E+03  2.049911E+05  9.416196E+03 -4.575974E+05 -4.242989E+04 -4.268005E+03
       224  24  3.296625E+03  2.062631E+05  7.958732E+03 -4.888898E+05 -3.900358E+04  4.854433E+02
       224  25 -3.446428E+05 -1.250029E+06 -3.279814E+05 -4.773247E+05 -1.432398E+04  8.936548E+04
       224  26 -2.500861E+05 -8.680964E+05 -1.972927E+05 -4.512221E+05 -4.248438E+04  2.342420E+04
       224  27 -1.609788E+05 -4.960381E+05 -1.109649E+05 -4.876951E+05 -3.892465E+04 -4.253972E+04
       225   1  1.118649E+05  6.719208E+05  8.643760E+04 -4.909104E+05  2.641647E+04 -4.588235E+04
       225   2  2.393630E+04  2.939440E+05  2.404931E+04 -4.558067E+05  6.473415E+03 -5.250719E+04
       225   3 -5.992645E+04 -8.216967E+04 -3.306389E+04 -4.853512E+05 -1.392264E+04 -5.912985E+04
       225   4  3.128495E+03  2.061516E+05  8.306501E+03 -4.893521E+05  2.633117E+04 -1.817177E+03
       225   5  3.661396E+03  2.053896E+05  1.117088E+04 -4.570243E+05  6.385214E+03 -7.442595E+03
       225   6  8.091689E+03  2.061734E+05  1.861109E+04 -4.893437E+05 -1.401386E+04 -1.306956E+04
       225   7 -1.056182E+05 -2.593997E+05 -6.982409E+04 -4.877949E+05  2.624603E+04  4.221605E+04
       225   8 -1.661277E+04  1.168474E+05 -1.700054E+03 -4.582418E+05  6.296827E+03  3.761584E+04
       225   9  7.610640E+04  4.946021E+05  7.029086E+04 -4.933381E+05 -1.410565E+04  3.301151E+04
       225  10  1.118636E+05  6.719183E+05  8.643234E+04 -4.909095E+05 -1.927161E-09  5.084526E-09
       225  11  2.393551E+04  2.939410E+05  2.404406E+04 -4.558064E+05  4.386046E-09  3.795375E-08
       225  12 -5.992759E+04 -8.217348E+04 -3.307083E+04 -4.853519E+05  4.563605E-09  6.249753E-08
       225  13  3.127749E+03  2.061514E+05  8.305192E+03 -4.893521E+05 -3.213484E-09 -1.009680E-10
       225  14  3.661337E+03  2.053895E+05  1.117070E+04 -4.570243E+05 -7.471703E-09 -6.847309E-10
       225  15  8.091432E+03  2.061732E+05  1.861040E+04 -4.893439E+05 -1.400518E-08  2.991682E-10
       225  16 -1.056195E+05 -2.594018E+05 -6.982874E+04 -4.877958E+05  1.298927E-09 -3.986279E-09
       225  17 -1.661319E+04  1.168459E+05 -1.702788E+03 -4.582420E+05  3.539799E-09 -3.765648E-08
       225  18  7.610589E+04  4.946009E+05  7.028844E+04 -4.933378E+05  4.717874E-09 -6.321332E-08
       225  19  1.118649E+05  6.719208E+05  8.643760E+04 -4.909104E+05 -2.641647E+04  4.588235E+04
       225  20  2.393630E+04  2.939440E+05  2.404931E+04 -4.558067E+05 -6.473415E+03  5.250719E+04
       225  21 -5.992645E+04 -8.216967E+04 -3.306389E+04 -4.853512E+05  1.392264E+04  5.912985E+04
       225  22  3.128495E+03  2.061516E+05  8.306501E+03 -4.893521E+05 -2.633117E+04  1.817177E+03
       225  23  3.661396E+03  2.053896E+05  1.117088E+04 -4.570243E+05 -6.385214E+03  7.442595E+03
       225  24  8.091689E+03  2.061734E+05  1.861109E+04 -4.893437E+05  1.401386E+04  1.306956E+04
       225  25 -1.056182E+05 -2.593997E+05 -6.982409E+04 -4.877949E+05 -2.624603E+04 -4.221605E+04
       225  26 -1.661277E+04  1.168474E+05 -1.700054E+03 -4.582418E+05 -6.296827E+03 -3.761584E+04
       225  27  7.610640E+04  4.946021E+05  7.029086E+04 -4.933381E+05  1.410565E+04 -3.301151E+04
       226   1 -1.132635E+05 -3.164866E+05 -6.743301E+04 -4.868890E+05 -2.702532E+04 -6.149262E+04
       226   2 -1.861142E+05 -6.940009E+05 -1.316376E+05 -4.282182E+05 -3.335108E+04 -2.140257E+04
       226   3 -2.336444E+05 -1.070337E+06 -2.156542E+05 -4.324170E+05 -1.163518E+04  1.868348E+04
       226   4  1.009529E+04  2.084347E+05  2.435474E+04 -4.889492E+05 -2.711203E+04 -1.630557E+04
       226   5  2.846413E+04  2.023798E+05  4.402238E+04 -4.574680E+05 -3.331462E+04 -3.876590E+04
       226   6  8.299345E+04  2.082033E+05  8.731150E+04 -4.888340E+05 -1.149776E+04 -6.120594E+04
       226   7  1.334402E+05  7.336302E+05  1.161403E+05 -4.910110E+05 -2.719900E+04  2.891856E+04
       226   8  2.429973E+05  1.099534E+06  2.196452E+05 -4.867604E+05 -3.327656E+04 -5.615376E+04
       226   9  3.995289E+05  1.488267E+06  3.901891E+05 -5.453667E+05 -1.134600E+04 -1.412591E+05
       226  10 -1.132653E+05 -3.164909E+05 -6.744150E+04 -4.868903E+05  5.914408E-09 -1.352282E-07
       226  11 -1.861155E+05 -6.940017E+05 -1.316405E+05 -4.282188E+05  5.424277E-09 -3.742545E-08
       226  12 -2.336446E+05 -1.070338E+06 -2.156551E+05 -4.324168E+05  1.667180E-09  6.156129E-08
       226  13  1.009443E+04  2.084342E+05  2.435285E+04 -4.889495E+05 -1.014601E-08  7.765569E-11
       226  14  2.846253E+04  2.023779E+05  4.401747E+04 -4.574691E+05 -6.426383E-09 -4.931684E-10
       226  15  8.299230E+04  2.081993E+05  8.730421E+04 -4.888345E+05  4.523734E-10  9.056501E-11
       226  16  1.334392E+05  7.336291E+05  1.161374E+05 -4.910103E+05  5.560220E-09  1.369337E-07
       226  17  2.429952E+05  1.099530E+06  2.196372E+05 -4.867619E+05  1.475065E-09  3.804610E-08
       226  18  3.995234E+05  1.488246E+06  3.901515E+05 -5.453680E+05  1.023421E-09 -6.224192E-08
       226  19 -1.132635E+05 -3.164866E+05 -6.743301E+04 -4.868890E+05  2.702532E+04  6.149262E+04
       226  20 -1.861142E+05 -6.940009E+05 -1.316376E+05 -4.282182E+05  3.335108E+04  2.140257E+04
       226  21 -2.336444E+05 -1.070337E+06 -2.156542E+05 -4.324170E+05  1.163518E+04 -1.868348E+04
       226  22  1.009529E+04  2.084347E+05  2.435474E+04 -4.889492E+05  2.711203E+04  1.630557E+04
       226  23  2.846413E+04  2.023798E+05  4.402238E+04 -4.574680E+05  3.331462E+04  3.876590E+04
       226  24  8.299345E+04  2.082033E+05  8.731150E+04 -4.888340E+05  1.149776E+04  6.120594E+04
       226  25  1.334402E+05  7.336302E+05  1.161403E+05 -4.910110E+05  2.719900E+04 -2.891856E+04
       226  26  2.429973E+05  1.099534E+06  2.196452E+05 -4.867604E+05  3.327656E+04  5.615376E+04
       226  27  3.995289E+05  1.488267E+06  3.901891E+05 -5.453667E+05  1.134600E+04  1.412591E+05
       227   1 -7.469154E+05 -3.974468E+05 -2.319281E+05 -3.178392E+05 -1.105531E+05 -3.328988E+04
       227   2 -6.983508E+05 -2.851687E+05 -1.399264E+05 -2.961063E+05 -6.878403E+04  1.321937E+03
       227   3 -6.674389E+05 -2.319535E+05 -9.752308E+04 -2.717317E+05 -2.221236E+04  2.317971E+04
       227   4 -2.785366E+05 -1.681760E+05 -1.016919E+05 -1.343970E+05 -6.883042E+04 -1.762482E+04
       227   5 -2.665097E+05 -1.020274E+05 -4.775017E+04 -1.503301E+05 -5.024401E+04  8.281697E+03
       227   6 -2.675252E+05 -9.032836E+04 -2.500869E+04 -1.636287E+05 -2.686121E+04  2.143183E+04
       227   7  1.900605E+05  6.115623E+04  2.852973E+04  4.918406E+04 -2.707414E+04 -1.938026E+03
       227   8  1.655244E+05  8.114790E+04  4.441678E+04 -4.454272E+03 -3.169025E+04  1.524852E+04
       227   9  1.325593E+05  5.131102E+04  4.750088E+04 -5.546074E+04 -3.151330E+04  1.968280E+04
       227  10 -7.469288E+05 -3.974513E+05 -2.319532E+05 -3.178422E+05  4.408134E-10 -2.173631E-10
       227  11 -6.983559E+05 -2.851699E+05 -1.399353E+05 -2.961062E+05  2.565456E-09 -1.486109E-09
       227  12 -6.674396E+05 -2.319542E+05 -9.752501E+04 -2.717313E+05  9.383556E-11  4.129163E-10
       227  13 -2.785417E+05 -1.681776E+05 -1.017014E+05 -1.343979E+05 -8.761212E-10  7.420766E-11
       227  14 -2.665125E+05 -1.020282E+05 -4.775504E+04 -1.503298E+05  2.924741E-09  2.999229E-10
       227  15 -2.675261E+05 -9.032905E+04 -2.501090E+04 -1.636282E+05  2.852581E-09  1.237653E-10
       227  16  1.900597E+05  6.115603E+04  2.852834E+04  4.918402E+04  2.623071E-10 -1.561698E-10
       227  17  1.655232E+05  8.114738E+04  4.441446E+04 -4.453883E+03 -5.510490E-10  3.363832E-10
       227  18  1.325582E+05  5.131034E+04  4.749829E+04 -5.546024E+04 -4.519707E-11  2.334735E-09
       227  19 -7.469154E+05 -3.974468E+05 -2.319281E+05 -3.178392E+05  1.105531E+05  3.328988E+04
       227  20 -6.983508E+05 -2.851687E+05 -1.399264E+05 -2.961063E+05  6.878403E+04 -1.321937E+03
       227  21 -6.674389E+05 -2.319535E+05 -9.752308E+04 -2.717317E+05  2.221236E+04 -2.317971E+04
       227  22 -2.785366E+05 -1.681760E+05 -1.016919E+05 -1.343970E+05  6.883042E+04  1.762482E+04
       227  23 -2.665097E+05 -1.020274E+05 -4.775017E+04 -1.503301E+05  5.024401E+04 -8.281697E+03
       227  24 -2.675252E+05 -9.032836E+04 -2.500869E+04 -1.636287E+05  2.686121E+04 -2.143183E+04
       227  25  1.900605E+05  6.115623E+04  2.852973E+04  4.918406E+04  2.707414E+04  1.938026E+03
       227  26  1.655244E+05  8.114790E+04  4.441678E+04 -4.454272E+03  3.169025E+04 -1.524852E+04
       227  27  1.325593E+05  5.131102E+04  4.750088E+04 -5.546074E+04  3.151330E+04 -1.968280E+04
       228   1 -6.248947E+05 -2.227025E+05 -8.380346E+04 -2.651960E+05 -1.997387E+04  2.199440E+04
       228   2 -5.741306E+05 -1.939753E+05 -6.311917E+04 -2.452992E+05 -1.190547E+04  2.220641E+04
       228   3 -5.171524E+05 -1.768311E+05 -4.860435E+04 -2.344020E+05 -3.385639E+03  2.121597E+04
       228   4 -2.645040E+05 -9.033648E+04 -1.874826E+04 -1.625928E+05 -2.337641E+04  2.071491E+04
       228   5 -2.675247E+05 -8.265908E+04 -9.836524E+03 -1.588793E+05 -1.749209E+04  2.010755E+04
       228   6 -2.638999E+05 -8.613071E+04 -5.360453E+03 -1.641667E+05 -1.115705E+04  1.829779E+04
       228   7  9.601993E+04  4.204151E+04  4.630146E+04 -5.993464E+04 -2.678102E+04  1.943461E+04
       228   8  3.918096E+04  2.866671E+04  4.344346E+04 -7.241945E+04 -2.308164E+04  1.800756E+04
       228   9 -1.057640E+04  4.576902E+03  3.788266E+04 -9.390393E+04 -1.893191E+04  1.537834E+04
       228  10 -6.248953E+05 -2.227031E+05 -8.380512E+04 -2.651956E+05  2.935589E-09  1.098368E-09
       228  11 -5.741308E+05 -1.939759E+05 -6.312037E+04 -2.452989E+05 -2.808633E-10  3.053333E-10
       228  12 -5.171525E+05 -1.768316E+05 -4.860521E+04 -2.344019E+05  1.914436E-10 -5.704992E-10
       228  13 -2.645047E+05 -9.033709E+04 -1.875009E+04 -1.625924E+05  1.414002E-09  1.971655E-09
       228  14 -2.675251E+05 -8.265960E+04 -9.837859E+03 -1.588790E+05 -2.559294E-09 -8.705492E-10
       228  15 -2.639001E+05 -8.613111E+04 -5.361316E+03 -1.641665E+05 -2.279884E-09 -9.539862E-10
       228  16  9.601906E+04  4.204091E+04  4.629940E+04 -5.993422E+04 -1.358251E-09  8.739285E-11
       228  17  3.918030E+04  2.866622E+04  4.344185E+04 -7.241911E+04  3.761947E-10  4.087425E-10
       228  18 -1.057685E+04  4.576552E+03  3.788154E+04 -9.390370E+04  1.879812E-09 -1.287493E-09
       228  19 -6.248947E+05 -2.227025E+05 -8.380346E+04 -2.651960E+05  1.997387E+04 -2.199440E+04
       228  20 -5.741306E+05 -1.939753E+05 -6.311917E+04 -2.452992E+05  1.190547E+04 -2.220641E+04
       228  21 -5.171524E+05 -1.768311E+05 -4.860435E+04 -2.344020E+05  3.385639E+03 -2.121597E+04
       228  22 -2.645040E+05 -9.033648E+04 -1.874826E+04 -1.625928E+05  2.337641E+04 -2.071491E+04
       228  23 -2.675247E+05 -8.265908E+04 -9.836524E+03 -1.588793E+05  1.749209E+04 -2.010755E+04
       228  24 -2.638999E+05 -8.613071E+04 -5.360453E+03 -1.641667E+05  1.115705E+04 -1.829779E+04
       228  25  9.601993E+04  4.204151E+04  4.630146E+04 -5.993464E+04  2.678102E+04 -1.943461E+04
       228  26  3.918096E+04  2.866671E+04  4.344346E+04 -7.241945E+04  2.308164E+04 -1.800756E+04
       228  27 -1.057640E+04  4.576902E+03  3.788266E+04 -9.390393E+04  1.893191E+04 -1.537834E+04
       229   1 -4.815723E+05 -1.644524E+05 -4.097976E+04 -2.248415E+05 -1.820832E+03  1.893505E+04
       229   2 -4.311213E+05 -1.404891E+05 -2.986339E+04 -2.048541E+05  1.089562E+03  1.516109E+04
       229   3 -3.725261E+05 -1.251158E+05 -1.977037E+04 -1.944616E+05  4.042132E+03  1.127331E+04
       229   4 -2.636393E+05 -8.615614E+04 -4.023705E+03 -1.640705E+05 -9.476458E+03  1.606080E+04
       229   5 -2.677165E+05 -8.180735E+04 -2.208553E+03 -1.592990E+05 -6.772868E+03  1.220977E+04
       229   6 -2.636117E+05 -8.600738E+04 -1.252780E+03 -1.641234E+05 -4.027236E+03  8.244908E+03
       229   7 -4.565567E+04 -7.855242E+03  3.293130E+04 -1.032796E+05 -1.713494E+04  1.318548E+04
       229   8 -1.042841E+05 -2.312324E+04  2.544558E+04 -1.137330E+05 -1.463745E+04  9.257645E+03
       229   9 -1.546858E+05 -4.689825E+04  1.726444E+04 -1.337806E+05 -1.209802E+04  5.215974E+03
       229  10 -4.815724E+05 -1.644527E+05 -4.098044E+04 -2.248415E+05  2.262456E-10 -9.239829E-10
       229  11 -4.311214E+05 -1.404894E+05 -2.986382E+04 -2.048541E+05  9.552665E-10 -2.377495E-10
       229  12 -3.725261E+05 -1.251159E+05 -1.977064E+04 -1.944617E+05 -4.706344E-10  1.261933E-09
       229  13 -2.636394E+05 -8.615644E+04 -4.024358E+03 -1.640704E+05 -1.670044E-09 -1.754236E-09
       229  14 -2.677166E+05 -8.180752E+04 -2.208919E+03 -1.592990E+05 -7.246593E-10 -6.077533E-10
       229  15 -2.636117E+05 -8.600746E+04 -1.252938E+03 -1.641234E+05 -2.804592E-10 -1.457483E-09
       229  16 -4.565603E+04 -7.855507E+03  3.293042E+04 -1.032795E+05  1.338958E-09 -1.013469E-09
       229  17 -1.042843E+05 -2.312338E+04  2.544502E+04 -1.137329E+05  2.741406E-09 -1.898391E-09
       229  18 -1.546859E+05 -4.689832E+04  1.726411E+04 -1.337805E+05  1.465270E-10 -3.634836E-09
       229  19 -4.815723E+05 -1.644524E+05 -4.097976E+04 -2.248415E+05  1.820832E+03 -1.893505E+04
       229  20 -4.311213E+05 -1.404891E+05 -2.986339E+04 -2.048541E+05 -1.089562E+03 -1.516109E+04
       229  21 -3.725261E+05 -1.251158E+05 -1.977037E+04 -1.944616E+05 -4.042132E+03 -1.127331E+04
       229  22 -2.636393E+05 -8.615614E+04 -4.023705E+03 -1.640705E+05  9.476458E+03 -1.606080E+04
       229  23 -2.677165E+05 -8.180735E+04 -2.208553E+03 -1.592990E+05  6.772868E+03 -1.220977E+04
       229  24 -2.636117E+05 -8.600738E+04 -1.252780E+03 -1.641234E+05  4.027236E+03 -8.244908E+03
       229  25 -4.565567E+04 -7.855242E+03  3.293130E+04 -1.032796E+05  1.713494E+04 -1.318548E+04
       229  26 -1.042841E+05 -2.312324E+04  2.544558E+04 -1.137330E+05  1.463745E+04 -9.257645E+03
       229  27 -1.546858E+05 -4.689825E+04  1.726444E+04 -1.337806E+05  1.209802E+04 -5.215974E+03
       230   1 -3.374579E+05 -1.125059E+05 -1.330739E+04 -1.847089E+05  5.185588E+03  8.754186E+03
       230   2 -2.870972E+05 -8.874580E+04 -3.891578E+03 -1.646776E+05  7.178964E+03  4.443190E+03
       230   3 -2.283921E+05 -7.338471E+04  5.278070E+03 -1.542529E+05  9.175835E+03  1.226946E+02
       230   4 -2.635807E+05 -8.601347E+04 -9.708414E+02 -1.641108E+05 -2.873593E+03  5.729792E+03
       230   5 -2.677524E+05 -8.181979E+04 -6.255165E+02 -1.593048E+05 -8.978915E+02  1.412211E+03
       230   6 -2.635809E+05 -8.602253E+04 -5.129740E+02 -1.641069E+05  1.081269E+03 -2.914871E+03
       230   7 -1.896968E+05 -5.952012E+04  1.136607E+04 -1.435102E+05 -1.093388E+04  2.704986E+03
       230   8 -2.484070E+05 -7.489365E+04  2.640846E+03 -1.539317E+05 -8.975059E+03 -1.618884E+03
       230   9 -2.987681E+05 -9.866017E+04 -6.303769E+03 -1.739604E+05 -7.012813E+03 -5.952256E+03
       230  10 -3.374580E+05 -1.125060E+05 -1.330758E+04 -1.847089E+05 -4.309552E-09  8.448920E-10
       230  11 -2.870972E+05 -8.874584E+04 -3.891712E+03 -1.646776E+05  1.638848E-08  7.040013E-09
       230  12 -2.283922E+05 -7.338473E+04  5.277911E+03 -1.542529E+05  2.980428E-08  1.096044E-08
       230  13 -2.635808E+05 -8.601351E+04 -9.709186E+02 -1.641108E+05  1.204378E-09  3.008518E-11
       230  14 -2.677524E+05 -8.181979E+04 -6.255217E+02 -1.593048E+05 -2.797322E-09  4.983823E-09
       230  15 -2.635809E+05 -8.602254E+04 -5.129922E+02 -1.641069E+05  4.436590E-09  1.117340E-08
       230  16 -1.896969E+05 -5.952016E+04  1.136583E+04 -1.435102E+05  2.336871E-09 -2.588865E-09
       230  17 -2.484071E+05 -7.489367E+04  2.640689E+03 -1.539317E+05 -1.012022E-08 -5.118889E-09
       230  18 -2.987682E+05 -9.866022E+04 -6.303928E+03 -1.739604E+05 -1.830565E-08 -6.260185E-09
       230  19 -3.374579E+05 -1.125059E+05 -1.330739E+04 -1.847089E+05 -5.185588E+03 -8.754186E+03
       230  20 -2.870972E+05 -8.874580E+04 -3.891578E+03 -1.646776E+05 -7.178964E+03 -4.443190E+03
       230  21 -2.283921E+05 -7.338471E+04  5.278070E+03 -1.542529E+05 -9.175835E+03 -1.226946E+02
       230  22 -2.635807E+05 -8.601347E+04 -9.708414E+02 -1.641108E+05  2.873593E+03 -5.729792E+03
       230  23 -2.677524E+05 -8.181979E+04 -6.255165E+02 -1.593048E+05  8.978915E+02 -1.412211E+03
       230  24 -2.635809E+05 -8.602253E+04 -5.129740E+02 -1.641069E+05 -1.081269E+03  2.914871E+03
       230  25 -1.896968E+05 -5.952012E+04  1.136607E+04 -1.435102E+05  1.093388E+04 -2.704986E+03
       230  26 -2.484070E+05 -7.489365E+04  2.640846E+03 -1.539317E+05  8.975059E+03  1.618884E+03
       230  27 -2.987681E+05 -9.866017E+04 -6.303769E+03 -1.739604E+05  7.012813E+03  5.952256E+03
       231   1 -1.933765E+05 -6.075453E+04  1.143661E+04 -1.444911E+05  1.023481E+04 -2.434566E+03
       231   2 -1.430169E+05 -3.699254E+04  2.032264E+04 -1.244627E+05  1.222666E+04 -6.754843E+03
       231   3 -8.431213E+04 -2.162322E+04  2.896710E+04 -1.140404E+05  1.421427E+04 -1.106265E+04
       231   4 -2.635833E+05 -8.602323E+04 -5.256855E+02 -1.641071E+05  2.140116E+03 -5.472281E+03
       231   5 -2.677540E+05 -8.182260E+04 -6.962113E+02 -1.593050E+05  4.154080E+03 -9.784677E+03
       231   6 -2.635869E+05 -8.601926E+04 -1.125889E+03 -1.641104E+05  6.163779E+03 -1.408463E+04
       231   7 -3.337840E+05 -1.112911E+05 -1.248763E+04 -1.837207E+05 -5.953524E+03 -8.509599E+03
       231   8 -3.924744E+05 -1.266511E+05 -2.171519E+04 -1.941408E+05 -3.916780E+03 -1.281387E+04
       231   9 -4.428291E+05 -1.504128E+05 -3.121995E+04 -2.141672E+05 -1.884323E+03 -1.710573E+04
       231  10 -1.933766E+05 -6.075456E+04  1.143641E+04 -1.444911E+05 -1.567413E-08 -7.971257E-09
       231  11 -1.430170E+05 -3.699263E+04  2.032227E+04 -1.244626E+05 -2.082861E-08 -9.701020E-09
       231  12 -8.431238E+04 -2.162341E+04  2.896649E+04 -1.140403E+05 -1.041304E-08 -4.936153E-09
       231  13 -2.635833E+05 -8.602327E+04 -5.257503E+02 -1.641071E+05  2.522363E-09  9.952764E-09
       231  14 -2.677540E+05 -8.182271E+04 -6.964236E+02 -1.593050E+05 -8.510332E-09  1.681759E-09
       231  15 -2.635870E+05 -8.601948E+04 -1.126333E+03 -1.641103E+05 -2.376209E-09 -7.367911E-10
       231  16 -3.337840E+05 -1.112912E+05 -1.248784E+04 -1.837208E+05  2.142380E-08  9.436355E-09
       231  17 -3.924745E+05 -1.266512E+05 -2.171553E+04 -1.941408E+05  7.307920E-09  4.060910E-09
       231  18 -4.428292E+05 -1.504131E+05 -3.122051E+04 -2.141673E+05  4.978385E-09  1.321604E-09
       231  19 -1.933765E+05 -6.075453E+04  1.143661E+04 -1.444911E+05 -1.023481E+04  2.434566E+03
       231  20 -1.430169E+05 -3.699254E+04  2.032264E+04 -1.244627E+05 -1.222666E+04  6.754843E+03
       231  21 -8.431213E+04 -2.162322E+04  2.896710E+04 -1.140404E+05 -1.421427E+04  1.106265E+04
       231  22 -2.635833E+05 -8.602323E+04 -5.256855E+02 -1.641071E+05 -2.140116E+03  5.472281E+03
       231  23 -2.677540E+05 -8.182260E+04 -6.962113E+02 -1.593050E+05 -4.154080E+03  9.784677E+03
       231  24 -2.635869E+05 -8.601926E+04 -1.125889E+03 -1.641104E+05 -6.163779E+03  1.408463E+04
       231  25 -3.337840E+05 -1.112911E+05 -1.248763E+04 -1.837207E+05  5.953524E+03  8.509599E+03
       231  26 -3.924744E+05 -1.266511E+05 -2.171519E+04 -1.941408E+05  3.916780E+03  1.281387E+04
       231  27 -4.428291E+05 -1.504128E+05 -3.121995E+04 -2.141672E+05  1.884323E+03  1.710573E+04
       232   1 -4.931298E+04 -9.006683E+03  3.480714E+04 -1.043165E+05  1.540991E+04 -1.355907E+04
       232   2  1.080369E+03  1.476420E+04  4.281782E+04 -8.426805E+04  1.810082E+04 -1.752477E+04
       232   3  5.966881E+04  3.000613E+04  5.001034E+04 -7.380964E+04  2.074126E+04 -2.135345E+04
       232   4 -2.636268E+05 -8.601398E+04 -1.466575E+03 -1.641254E+05  7.347283E+03 -1.658602E+04
       232   5 -2.677170E+05 -8.181605E+04 -2.607593E+03 -1.592978E+05  1.028643E+04 -2.045945E+04
       232   6 -2.636643E+05 -8.619691E+04 -4.763806E+03 -1.640618E+05  1.317501E+04 -2.419584E+04
       232   7 -4.778916E+05 -1.630167E+05 -3.774121E+04 -2.239148E+05 -7.123882E+02 -1.961187E+04
       232   8 -5.364359E+05 -1.783885E+05 -4.803423E+04 -2.342967E+05  2.475689E+03 -2.339277E+04
       232   9 -5.868824E+05 -2.023883E+05 -5.953952E+04 -2.542691E+05  5.613021E+03 -2.703664E+04
       232  10 -4.931328E+04 -9.006944E+03  3.480635E+04 -1.043164E+05  2.186350E-10 -1.148074E-09
       232  11  1.079935E+03  1.476378E+04  4.281662E+04 -8.426779E+04 -9.924775E-10 -1.626661E-09
       232  12  5.966822E+04  3.000553E+04  5.000868E+04 -7.380929E+04 -8.489051E-10 -7.576279E-10
       232  13 -2.636270E+05 -8.601429E+04 -1.467193E+03 -1.641253E+05  1.222869E-09 -5.254991E-10
       232  14 -2.677173E+05 -8.181653E+04 -2.608578E+03 -1.592976E+05  8.807440E-11 -6.777759E-10
       232  15 -2.636646E+05 -8.619759E+04 -4.765232E+03 -1.640616E+05  1.114914E-09 -1.812639E-09
       232  16 -4.778917E+05 -1.630171E+05 -3.774193E+04 -2.239148E+05  2.304261E-09  1.130250E-10
       232  17 -5.364361E+05 -1.783891E+05 -4.803527E+04 -2.342966E+05  1.147149E-09  5.348657E-11
       232  18 -5.868827E+05 -2.023891E+05 -5.954095E+04 -2.542690E+05  2.049641E-09 -2.929595E-10
       232  19 -4.931298E+04 -9.006683E+03  3.480714E+04 -1.043165E+05 -1.540991E+04  1.355907E+04
       232  20  1.080369E+03  1.476420E+04  4.281782E+04 -8.426805E+04 -1.810082E+04  1.752477E+04
       232  21  5.966881E+04  3.000613E+04  5.001034E+04 -7.380964E+04 -2.074126E+04  2.135345E+04
       232  22 -2.636268E+05 -8.601398E+04 -1.466575E+03 -1.641254E+05 -7.347283E+03  1.658602E+04
       232  23 -2.677170E+05 -8.181605E+04 -2.607593E+03 -1.592978E+05 -1.028643E+04  2.045945E+04
       232  24 -2.636643E+05 -8.619691E+04 -4.763806E+03 -1.640618E+05 -1.317501E+04  2.419584E+04
       232  25 -4.778916E+05 -1.630167E+05 -3.774121E+04 -2.239148E+05  7.123882E+02  1.961187E+04
       232  26 -5.364359E+05 -1.783885E+05 -4.803423E+04 -2.342967E+05 -2.475689E+03  2.339277E+04
       232  27 -5.868824E+05 -2.023883E+05 -5.953952E+04 -2.542691E+05 -5.613021E+03  2.703664E+04
       233   1  9.474122E+04  4.239925E+04  5.473375E+04 -6.450271E+04  2.269125E+04 -2.346937E+04
       233   2  1.443570E+05  6.654136E+04  5.965806E+04 -4.275811E+04  2.725939E+04 -2.575896E+04
       233   3  2.008173E+05  7.955417E+04  6.140936E+04 -2.989086E+04  3.128658E+04 -2.660469E+04
       233   4 -2.639716E+05 -8.616629E+04 -6.348460E+03 -1.641730E+05  1.498569E+04 -2.636473E+04
       233   5 -2.674921E+05 -8.283387E+04 -1.165524E+04 -1.588006E+05  2.217796E+04 -2.767006E+04
       233   6 -2.646931E+05 -9.115368E+04 -2.221699E+04 -1.623079E+05  2.882878E+04 -2.753109E+04
       233   7 -6.225516E+05 -2.147209E+05 -6.743504E+04 -2.637905E+05  7.284770E+03 -2.925836E+04
       233   8 -6.791636E+05 -2.321928E+05 -8.297406E+04 -2.747715E+05  1.710008E+04 -2.957980E+04
       233   9 -7.299751E+05 -2.618392E+05 -1.058507E+05 -2.946318E+05  2.637294E+04 -2.845674E+04
       233  10  9.474052E+04  4.239852E+04  5.473175E+04 -6.450228E+04 -3.514309E-10  1.857910E-10
       233  11  1.443560E+05  6.654045E+04  5.965541E+04 -4.275754E+04 -1.092830E-09  1.286025E-09
       233  12  2.008160E+05  7.955315E+04  6.140619E+04 -2.989019E+04  1.166350E-09  2.321988E-10
       233  13 -2.639720E+05 -8.616710E+04 -6.350188E+03 -1.641726E+05  2.177680E-09 -7.289664E-10
       233  14 -2.674928E+05 -8.283483E+04 -1.165760E+04 -1.588001E+05  2.337692E-09 -1.014669E-09
       233  15 -2.646942E+05 -9.115472E+04 -2.221998E+04 -1.623073E+05  1.592786E-09 -9.321043E-10
       233  16 -6.225518E+05 -2.147218E+05 -6.743675E+04 -2.637903E+05  2.496704E-09 -7.969246E-10
       233  17 -6.791641E+05 -2.321938E+05 -8.297625E+04 -2.747711E+05  3.045482E-09 -8.527412E-10
       233  18 -7.299761E+05 -2.618403E+05 -1.058535E+05 -2.946312E+05  9.076659E-10 -1.277995E-09
       233  19  9.474122E+04  4.239925E+04  5.473375E+04 -6.450271E+04 -2.269125E+04  2.346937E+04
       233  20  1.443570E+05  6.654136E+04  5.965806E+04 -4.275811E+04 -2.725939E+04  2.575896E+04
       233  21  2.008173E+05  7.955417E+04  6.140936E+04 -2.989086E+04 -3.128658E+04  2.660469E+04
       233  22 -2.639716E+05 -8.616629E+04 -6.348460E+03 -1.641730E+05 -1.498569E+04  2.636473E+04
       233  23 -2.674921E+05 -8.283387E+04 -1.165524E+04 -1.588006E+05 -2.217796E+04  2.767006E+04
       233  24 -2.646931E+05 -9.115368E+04 -2.221699E+04 -1.623079E+05 -2.882878E+04  2.753109E+04
       233  25 -6.225516E+05 -2.147209E+05 -6.743504E+04 -2.637905E+05 -7.284770E+03  2.925836E+04
       233  26 -6.791636E+05 -2.321928E+05 -8.297406E+04 -2.747715E+05 -1.710008E+04  2.957980E+04
       233  27 -7.299751E+05 -2.618392E+05 -1.058507E+05 -2.946318E+05 -2.637294E+04  2.845674E+04
       234   1  2.376232E+05  8.820536E+04  6.170498E+04 -2.639030E+04  3.672994E+04 -2.639641E+04
       234   2  2.673081E+05  1.191866E+05  5.653937E+04  3.030539E+04  3.621112E+04 -2.032202E+04
       234   3  2.855088E+05  9.277770E+04  3.649723E+04  9.192645E+04  2.993337E+04  1.065921E+03
       234   4 -2.682742E+05 -9.114158E+04 -2.963549E+04 -1.635323E+05  3.277309E+04 -2.788629E+04
       234   5 -2.662941E+05 -1.057863E+05 -5.658598E+04 -1.486730E+05  6.012191E+04 -1.133932E+04
       234   6 -2.813417E+05 -1.833773E+05 -1.205093E+05 -1.288870E+05  8.170783E+04  2.052711E+04
       234   7 -7.739020E+05 -2.704668E+05 -1.209846E+05 -3.005712E+05  2.881970E+04 -2.937494E+04
       234   8 -7.995893E+05 -3.307028E+05 -1.697215E+05 -3.274965E+05  8.401028E+04 -2.367956E+03
       234   9 -8.478434E+05 -4.594297E+05 -2.775275E+05 -3.494875E+05  1.334292E+05  3.995495E+04
       234  10  2.376216E+05  8.820425E+04  6.170114E+04 -2.638952E+04  1.726444E-09 -1.794368E-09
       234  11  2.673066E+05  1.191858E+05  5.653613E+04  3.030599E+04  7.626076E-09  9.312497E-10
       234  12  2.855079E+05  9.277746E+04  3.649554E+04  9.192642E+04  4.767505E-09  6.572786E-10
       234  13 -2.682756E+05 -9.114270E+04 -2.963897E+04 -1.635316E+05  5.556656E-09 -1.065559E-09
       234  14 -2.662981E+05 -1.057874E+05 -5.659302E+04 -1.486724E+05  8.651846E-09  7.519169E-10
       234  15 -2.813490E+05 -1.833796E+05 -1.205226E+05 -1.288884E+05  4.840188E-09  1.926857E-09
       234  16 -7.739031E+05 -2.704679E+05 -1.209878E+05 -3.005705E+05  3.522548E-09  5.558853E-10
       234  17 -7.995969E+05 -3.307047E+05 -1.697348E+05 -3.274963E+05  7.173698E-09  1.805343E-09
       234  18 -8.478630E+05 -4.594362E+05 -2.775640E+05 -3.494918E+05  1.940917E-09 -8.456286E-10
       234  19  2.376232E+05  8.820536E+04  6.170498E+04 -2.639030E+04 -3.672994E+04  2.639641E+04
       234  20  2.673081E+05  1.191866E+05  5.653937E+04  3.030539E+04 -3.621112E+04  2.032202E+04
       234  21  2.855088E+05  9.277770E+04  3.649723E+04  9.192645E+04 -2.993337E+04 -1.065921E+03
       234  22 -2.682742E+05 -9.114158E+04 -2.963549E+04 -1.635323E+05 -3.277309E+04  2.788629E+04
       234  23 -2.662941E+05 -1.057863E+05 -5.658598E+04 -1.486730E+05 -6.012191E+04  1.133932E+04
       234  24 -2.813417E+05 -1.833773E+05 -1.205093E+05 -1.288870E+05 -8.170783E+04 -2.052711E+04
       234  25 -7.739020E+05 -2.704668E+05 -1.209846E+05 -3.005712E+05 -2.881970E+04  2.937494E+04
       234  26 -7.995893E+05 -3.307028E+05 -1.697215E+05 -3.274965E+05 -8.401028E+04  2.367956E+03
       234  27 -8.478434E+05 -4.594297E+05 -2.775275E+05 -3.494875E+05 -1.334292E+05 -3.995495E+04
       235   1  9.877098E+05  1.355002E+05  1.178885E+05  7.998757E+03  3.003109E+04 -1.119284E+04
       235   2  9.488304E+05  1.615163E+05  1.027357E+05  2.723127E+04  1.037790E+04 -3.882342E+04
       235   3  9.068211E+05  1.646845E+05  9.468500E+04  5.202367E+04 -9.296941E+03 -4.939171E+04
       235   4  1.624374E+05 -6.724641E+04 -7.192923E+04  5.225685E+04 -5.067356E+04 -1.131845E+04
       235   5  1.673215E+05 -2.235114E+04 -3.605566E+04  4.942402E+04 -3.220348E+04 -3.889869E+04
       235   6  1.624521E+05 -6.936640E+03 -1.954217E+04  5.215086E+04 -1.375637E+04 -4.940538E+04
       235   7 -6.621872E+05 -2.700296E+05 -2.617665E+05  9.645547E+04 -1.312719E+05 -1.145564E+04
       235   8 -6.135867E+05 -2.062493E+05 -1.748628E+05  7.158782E+04 -7.473286E+04 -3.897706E+04
       235   9 -5.813632E+05 -1.785846E+05 -1.337815E+05  5.227764E+04 -1.821066E+04 -4.941907E+04
       235  10  9.877088E+05  1.354998E+05  1.178866E+05  7.999027E+03  3.414753E-09 -6.384995E-10
       235  11  9.488299E+05  1.615147E+05  1.027327E+05  2.723159E+04  6.829217E-10 -3.863526E-09
       235  12  9.068204E+05  1.646819E+05  9.468025E+04  5.202330E+04 -1.080446E-09 -3.174534E-09
       235  13  1.624346E+05 -6.724723E+04 -7.193429E+04  5.225639E+04  4.726064E-10  8.609117E-10
       235  14  1.673199E+05 -2.235305E+04 -3.606045E+04  4.942302E+04  2.056066E-09 -2.682535E-09
       235  15  1.624513E+05 -6.939312E+03 -1.954711E+04  5.215031E+04  4.052514E-10 -7.125008E-10
       235  16 -6.622058E+05 -2.700344E+05 -2.617991E+05  9.645426E+04 -4.780346E-09 -1.011515E-10
       235  17 -6.135931E+05 -2.062525E+05 -1.748762E+05  7.158547E+04 -1.703714E-09 -5.663046E-09
       235  18 -5.813642E+05 -1.785873E+05 -1.337867E+05  5.227691E+04  1.843639E-09 -5.033614E-09
       235  19  9.877098E+05  1.355002E+05  1.178885E+05  7.998757E+03 -3.003109E+04  1.119284E+04
       235  20  9.488304E+05  1.615163E+05  1.027357E+05  2.723127E+04 -1.037790E+04  3.882342E+04
       235  21  9.068211E+05  1.646845E+05  9.468500E+04  5.202367E+04  9.296941E+03  4.939171E+04
       235  22  1.624374E+05 -6.724641E+04 -7.192923E+04  5.225685E+04  5.067356E+04  1.131845E+04
       235  23  1.673215E+05 -2.235114E+04 -3.605566E+04  4.942402E+04  3.220348E+04  3.889869E+04
       235  24  1.624521E+05 -6.936640E+03 -1.954217E+04  5.215086E+04  1.375637E+04  4.940538E+04
       235  25 -6.621872E+05 -2.700296E+05 -2.617665E+05  9.645547E+04  1.312719E+05  1.145564E+04
       235  26 -6.135867E+05 -2.062493E+05 -1.748628E+05  7.158782E+04  7.473286E+04  3.897706E+04
       235  27 -5.813632E+05 -1.785846E+05 -1.337815E+05  5.227764E+04  1.821066E+04  4.941907E+04
       236   1  8.825741E+05  1.597308E+05  9.240498E+04  5.048771E+04 -7.354527E+03 -4.984337E+04
       236   2  8.425126E+05  1.531561E+05  8.798881E+04  4.868087E+04 -8.171086E+03 -5.050678E+04
       236   3  8.021229E+05  1.448491E+05  8.367352E+04  5.365854E+04 -8.992132E+03 -4.902500E+04
       236   4  1.643682E+05 -5.215490E+03 -1.462512E+04  5.242925E+04 -1.122051E+04 -4.985617E+04
       236   5  1.649575E+05 -1.452528E+03 -7.929087E+03  4.903172E+04 -7.246981E+03 -5.051054E+04
       236   6  1.643857E+05 -2.541176E+02 -4.457833E+03  5.241924E+04 -3.277894E+03 -4.901848E+04
       236   7 -5.533199E+05 -1.701861E+05 -1.216650E+05  5.436821E+04 -1.508221E+04 -4.986901E+04
       236   8 -5.121335E+05 -1.560818E+05 -1.038534E+05  4.938195E+04 -6.323837E+03 -5.051430E+04
       236   9 -4.729389E+05 -1.453753E+05 -9.259378E+04  5.118104E+04  2.430744E+03 -4.901199E+04
       236  10  8.825734E+05  1.597282E+05  9.240021E+04  5.048742E+04 -3.114174E-08 -3.561191E-09
       236  11  8.425119E+05  1.531534E+05  8.798389E+04  4.868054E+04  6.862190E-09  4.555066E-09
       236  12  8.021222E+05  1.448465E+05  8.366885E+04  5.365819E+04  4.005180E-08  8.172864E-09
       236  13  1.643674E+05 -5.218193E+03 -1.463003E+04  5.242880E+04  1.547477E-09 -4.228262E-09
       236  14  1.649567E+05 -1.455282E+03 -7.933980E+03  4.903143E+04  5.328207E-09 -7.161971E-09
       236  15  1.643850E+05 -2.567008E+02 -4.462369E+03  5.241911E+04 -1.088727E-09 -1.424241E-08
       236  16 -5.533209E+05 -1.701888E+05 -1.216701E+05  5.436761E+04  2.997797E-08  6.866124E-10
       236  17 -5.121342E+05 -1.560846E+05 -1.038583E+05  4.938169E+04 -7.396680E-09  3.476347E-09
       236  18 -4.729395E+05 -1.453778E+05 -9.259830E+04  5.118114E+04 -4.091594E-08  5.012746E-09
       236  19  8.825741E+05  1.597308E+05  9.240498E+04  5.048771E+04  7.354527E+03  4.984337E+04
       236  20  8.425126E+05  1.531561E+05  8.798881E+04  4.868087E+04  8.171086E+03  5.050678E+04
       236  21  8.021229E+05  1.448491E+05  8.367352E+04  5.365854E+04  8.992132E+03  4.902500E+04
       236  22  1.643682E+05 -5.215490E+03 -1.462512E+04  5.242925E+04  1.122051E+04  4.985617E+04
       236  23  1.649575E+05 -1.452528E+03 -7.929087E+03  4.903172E+04  7.246981E+03  5.051054E+04
       236  24  1.643857E+05 -2.541176E+02 -4.457833E+03  5.241924E+04  3.277894E+03  4.901848E+04
       236  25 -5.533199E+05 -1.701861E+05 -1.216650E+05  5.436821E+04  1.508221E+04  4.986901E+04
       236  26 -5.121335E+05 -1.560818E+05 -1.038534E+05  4.938195E+04  6.323837E+03  5.051430E+04
       236  27 -4.729389E+05 -1.453753E+05 -9.259378E+04  5.118104E+04 -2.430744E+03  4.901199E+04
       237   1  7.772001E+05  1.391400E+05  8.077719E+04  5.344601E+04 -8.404174E+03 -4.744707E+04
       237   2  7.370652E+05  1.301458E+05  7.615965E+04  4.999400E+04 -8.069702E+03 -4.472251E+04
       237   3  6.968531E+05  1.210740E+05  7.130089E+04  5.347395E+04 -7.736753E+03 -4.172885E+04
       237   4  1.646088E+05 -1.398810E+02 -3.365009E+03  5.245271E+04 -2.616973E+03 -4.743977E+04
       237   5  1.647083E+05  1.232918E+02 -1.891954E+03  4.898616E+04 -1.682218E+03 -4.471291E+04
       237   6  1.646244E+05  2.045487E+02 -1.077232E+03  5.245195E+04 -7.489657E+02 -4.171683E+04
       237   7 -4.476014E+05 -1.394362E+05 -8.751121E+04  5.146022E+04  3.164781E+03 -4.743248E+04
       237   8 -4.073157E+05 -1.299135E+05 -7.994678E+04  4.797911E+04  4.699650E+03 -4.470333E+04
       237   9 -3.673162E+05 -1.206772E+05 -7.345801E+04  5.143069E+04  6.233109E+03 -4.170482E+04
       237  10  7.771994E+05  1.391376E+05  8.077283E+04  5.344569E+04 -3.967945E-08  9.171439E-09
       237  11  7.370646E+05  1.301437E+05  7.615577E+04  4.999371E+04 -3.304369E-09  5.468888E-09
       237  12  6.968526E+05  1.210721E+05  7.129751E+04  5.347369E+04  2.969428E-08  1.057323E-09
       237  13  1.646082E+05 -1.422997E+02 -3.369252E+03  5.245261E+04  4.288387E-10 -1.475657E-08
       237  14  1.647077E+05  1.211441E+02 -1.895717E+03  4.898610E+04 -1.073332E-09 -5.985646E-09
       237  15  1.646239E+05  2.026796E+02 -1.080503E+03  5.245192E+04 -2.816308E-09  1.601355E-09
       237  16 -4.476020E+05 -1.394386E+05 -8.751546E+04  5.146034E+04  3.947957E-08  6.049621E-09
       237  17 -4.073163E+05 -1.299156E+05 -7.995058E+04  4.797928E+04  2.371613E-09  4.526859E-09
       237  18 -3.673167E+05 -1.206790E+05 -7.346136E+04  5.143090E+04 -3.171332E-08 -1.031136E-10
       237  19  7.772001E+05  1.391400E+05  8.077719E+04  5.344601E+04  8.404174E+03  4.744707E+04
       237  20  7.370652E+05  1.301458E+05  7.615965E+04  4.999400E+04  8.069702E+03  4.472251E+04
       237  21  6.968531E+05  1.210740E+05  7.130089E+04  5.347395E+04  7.736753E+03  4.172885E+04
       237  22  1.646088E+05 -1.398810E+02 -3.365009E+03  5.245271E+04  2.616973E+03  4.743977E+04
       237  23  1.647083E+05  1.232918E+02 -1.891954E+03  4.898616E+04  1.682218E+03  4.471291E+04
       237  24  1.646244E+05  2.045487E+02 -1.077232E+03  5.245195E+04  7.489657E+02  4.171683E+04
       237  25 -4.476014E+05 -1.394362E+05 -8.751121E+04  5.146022E+04 -3.164781E+03  4.743248E+04
       237  26 -4.073157E+05 -1.299135E+05 -7.994678E+04  4.797911E+04 -4.699650E+03  4.470333E+04
       237  27 -3.673162E+05 -1.206772E+05 -7.345801E+04  5.143069E+04 -6.233109E+03  4.170482E+04
       238   1  6.718864E+05  1.153656E+05  6.797998E+04  5.341267E+04 -7.579497E+03 -3.989724E+04
       238   2  6.317600E+05  1.062497E+05  6.287762E+04  4.987130E+04 -7.432003E+03 -3.674892E+04
       238   3  5.915985E+05  9.716689E+04  5.767980E+04  5.327552E+04 -7.285419E+03 -3.356731E+04
       238   4  1.646588E+05  2.091969E+02 -8.143866E+02  5.245505E+04 -5.837201E+02 -3.988458E+04
       238   5  1.646903E+05  2.100487E+02 -4.600931E+02  4.898210E+04 -3.622971E+02 -3.673514E+04
       238   6  1.646716E+05  2.310735E+02 -2.529795E+02  5.245502E+04 -1.417747E+02 -3.355241E+04
       238   7 -3.423069E+05 -1.149583E+05 -6.961109E+04  5.149810E+04  6.406607E+03 -3.987194E+04
       238   8 -3.021573E+05 -1.058390E+05 -6.379974E+04  4.809346E+04  6.702338E+03 -3.672138E+04
       238   9 -2.620698E+05 -9.671261E+04 -5.818736E+04  5.163500E+04  6.997185E+03 -3.353752E+04
       238  10  6.718859E+05  1.153638E+05  6.797688E+04  5.341242E+04  6.684226E-08  1.182889E-09
       238  11  6.317595E+05  1.062482E+05  6.287497E+04  4.987108E+04  1.794272E-09  8.563021E-09
       238  12  5.915982E+05  9.716567E+04  5.767758E+04  5.327532E+04 -6.530133E-08  7.205959E-09
       238  13  1.646584E+05  2.074885E+02 -8.173769E+02  5.245503E+04  6.077053E-10  2.020002E-09
       238  14  1.646900E+05  2.085995E+02 -4.626295E+02  4.898209E+04 -1.383649E-09  8.213280E-09
       238  15  1.646713E+05  2.298645E+02 -2.550952E+02  5.245501E+04  6.304192E-10  3.641832E-09
       238  16 -3.423074E+05 -1.149600E+05 -6.961415E+04  5.149830E+04 -6.987095E-08  1.238279E-10
       238  17 -3.021577E+05 -1.058404E+05 -6.380236E+04  4.809366E+04 -3.601415E-09  3.827438E-09
       238  18 -2.620701E+05 -9.671383E+04 -5.818956E+04  5.163519E+04  6.480513E-08  2.715526E-09
       238  19  6.718864E+05  1.153656E+05  6.797998E+04  5.341267E+04  7.579497E+03  3.989724E+04
       238  20  6.317600E+05  1.062497E+05  6.287762E+04  4.987130E+04  7.432003E+03  3.674892E+04
       238  21  5.915985E+05  9.716689E+04  5.767980E+04  5.327552E+04  7.285419E+03  3.356731E+04
       238  22  1.646588E+05  2.091969E+02 -8.143866E+02  5.245505E+04  5.837201E+02  3.988458E+04
       238  23  1.646903E+05  2.100487E+02 -4.600931E+02  4.898210E+04  3.622971E+02  3.673514E+04
       238  24  1.646716E+05  2.310735E+02 -2.529795E+02  5.245502E+04  1.417747E+02  3.355241E+04
       238  25 -3.423069E+05 -1.149583E+05 -6.961109E+04  5.149810E+04 -6.406607E+03  3.987194E+04
       238  26 -3.021573E+05 -1.058390E+05 -6.379974E+04  4.809346E+04 -6.702338E+03  3.672138E+04
       238  27 -2.620698E+05 -9.671261E+04 -5.818736E+04  5.163500E+04 -6.997185E+03  3.353752E+04
       239   1  5.666369E+05  9.147250E+04  5.421785E+04  5.323284E+04 -7.249817E+03 -3.170473E+04
       239   2  5.265295E+05  8.236526E+04  4.894445E+04  4.969024E+04 -7.224077E+03 -2.850471E+04
       239   3  4.863949E+05  7.329576E+04  4.365301E+04  5.309552E+04 -7.198989E+03 -2.530119E+04
       239   4  1.646801E+05  2.336295E+02 -1.834586E+02  5.245553E+04 -1.061353E+02 -3.168933E+04
       239   5  1.646999E+05  2.216881E+02 -8.198888E+01  4.898147E+04 -7.276861E+01 -2.848855E+04
       239   6  1.646900E+05  2.463544E+02 -3.820312E+00  5.245552E+04 -4.005158E+01 -2.528427E+04
       239   7 -2.371122E+05 -9.101220E+04 -5.458613E+04  5.167864E+04  7.033136E+03 -3.167395E+04
       239   8 -1.969965E+05 -8.192752E+04 -4.910950E+04  4.827304E+04  7.074566E+03 -2.847240E+04
       239   9 -1.569095E+05 -7.280751E+04 -4.366147E+04  5.181579E+04  7.115349E+03 -2.526736E+04
       239  10  5.666366E+05  9.147141E+04  5.421587E+04  5.323266E+04  1.545440E-08  1.062061E-09
       239  11  5.265293E+05  8.236437E+04  4.894283E+04  4.969008E+04  4.304976E-09 -2.532132E-09
       239  12  4.863947E+05  7.329506E+04  4.365171E+04  5.309538E+04 -7.254995E-09 -2.076733E-09
       239  13  1.646798E+05  2.325510E+02 -1.853459E+02  5.245553E+04  1.827901E-09  7.115350E-09
       239  14  1.646996E+05  2.208165E+02 -8.351415E+01  4.898147E+04  7.100054E-10  3.788740E-10
       239  15  1.646898E+05  2.456679E+02 -5.021766E+00  5.245552E+04  1.315485E-09 -2.109653E-09
       239  16 -2.371126E+05 -9.101329E+04 -5.458810E+04  5.167882E+04 -1.538359E-08  4.697428E-09
       239  17 -1.969968E+05 -8.192841E+04 -4.911112E+04  4.827320E+04 -4.812345E-09 -1.904766E-09
       239  18 -1.569097E+05 -7.280820E+04 -4.366277E+04  5.181594E+04  8.609559E-09 -1.098260E-09
       239  19  5.666369E+05  9.147250E+04  5.421785E+04  5.323284E+04  7.249817E+03  3.170473E+04
       239  20  5.265295E+05  8.236526E+04  4.894445E+04  4.969024E+04  7.224077E+03  2.850471E+04
       239  21  4.863949E+05  7.329576E+04  4.365301E+04  5.309552E+04  7.198989E+03  2.530119E+04
       239  22  1.646801E+05  2.336295E+02 -1.834586E+02  5.245553E+04  1.061353E+02  3.168933E+04
       239  23  1.646999E+05  2.216881E+02 -8.198888E+01  4.898147E+04  7.276861E+01  2.848855E+04
       239  24  1.646900E+05  2.463544E+02 -3.820312E+00  5.245552E+04  4.005158E+01  2.528427E+04
       239  25 -2.371122E+05 -9.101220E+04 -5.458613E+04  5.167864E+04 -7.033136E+03  3.167395E+04
       239  26 -1.969965E+05 -8.192752E+04 -4.910950E+04  4.827304E+04 -7.074566E+03  2.847240E+04
       239  27 -1.569095E+05 -7.280751E+04 -4.366147E+04  5.181579E+04 -7.115349E+03  2.526736E+04
       240   1  4.614461E+05  6.760620E+04  4.016553E+04  5.305262E+04 -7.204954E+03 -2.343560E+04
       240   2  4.213511E+05  5.850750E+04  3.488464E+04  4.950212E+04 -7.266564E+03 -2.023149E+04
       240   3  3.812384E+05  4.946124E+04  2.964445E+04  5.289589E+04 -7.328622E+03 -1.702919E+04
       240   4  1.646954E+05  2.496857E+02  3.255516E+01  5.245471E+04 -4.680243E+01 -2.341830E+04
       240   5  1.647082E+05  2.415750E+02  1.168686E+02  4.898246E+04 -1.126610E+02 -2.021368E+04
       240   6  1.647024E+05  2.866790E+02  2.446909E+02  5.245463E+04 -1.789704E+02 -1.701086E+04
       240   7 -1.319656E+05 -6.711061E+04 -4.010107E+04  5.185703E+04  7.108087E+03 -2.340102E+04
       240   8 -9.186762E+04 -5.802717E+04 -3.465135E+04  4.846297E+04  7.038422E+03 -2.019588E+04
       240   9 -5.178585E+04 -4.888989E+04 -2.915533E+04  5.201350E+04  6.968303E+03 -1.699255E+04
       240  10  4.614459E+05  6.760560E+04  4.016440E+04  5.305249E+04  6.858000E-08  4.738183E-09
       240  11  4.213509E+05  5.850705E+04  3.488377E+04  4.950200E+04 -7.775321E-10  2.265707E-09
       240  12  3.812383E+05  4.946092E+04  2.964380E+04  5.289579E+04 -6.976033E-08  3.584894E-09
       240  13  1.646952E+05  2.490968E+02  3.152449E+01  5.245471E+04  1.767788E-09  7.729393E-10
       240  14  1.647080E+05  2.411362E+02  1.161006E+02  4.898245E+04  1.814064E-09  1.246840E-09
       240  15  1.647023E+05  2.863683E+02  2.441470E+02  5.245463E+04 -6.673548E-10  2.106834E-09
       240  16 -1.319658E+05 -6.711121E+04 -4.010219E+04  5.185717E+04 -6.718034E-08  2.291111E-09
       240  17 -9.186778E+04 -5.802763E+04 -3.465221E+04  4.846308E+04  1.154215E-09 -7.002176E-09
       240  18 -5.178598E+04 -4.889021E+04 -2.915597E+04  5.201359E+04  7.137842E-08 -1.144908E-09
       240  19  4.614461E+05  6.760620E+04  4.016553E+04  5.305262E+04  7.204954E+03  2.343560E+04
       240  20  4.213511E+05  5.850750E+04  3.488464E+04  4.950212E+04  7.266564E+03  2.023149E+04
       240  21  3.812384E+05  4.946124E+04  2.964445E+04  5.289589E+04  7.328622E+03  1.702919E+04
       240  22  1.646954E+05  2.496857E+02  3.255516E+01  5.245471E+04  4.680243E+01  2.341830E+04
       240  23  1.647082E+05  2.415750E+02  1.168686E+02  4.898246E+04  1.126610E+02  2.021368E+04
       240  24  1.647024E+05  2.866790E+02  2.446909E+02  5.245463E+04  1.789704E+02  1.701086E+04
       240  25 -1.319656E+05 -6.711061E+04 -4.010107E+04  5.185703E+04 -7.108087E+03  2.340102E+04
       240  26 -9.186762E+04 -5.802717E+04 -3.465135E+04  4.846297E+04 -7.038422E+03  2.019588E+04
       240  27 -5.178585E+04 -4.888989E+04 -2.915533E+04  5.201350E+04 -6.968303E+03  1.699255E+04
       241   1  3.563123E+05  4.378044E+04  2.620840E+04  5.286435E+04 -7.381102E+03 -1.516553E+04
       241   2  3.161956E+05  3.476518E+04  2.110469E+04  4.918912E+04 -7.658067E+03 -1.197297E+04
       241   3  2.761310E+05  2.598248E+04  1.622575E+04  5.245452E+04 -7.935240E+03 -8.796369E+03
       241   4  1.647209E+05  2.976222E+02  3.335915E+02  5.245389E+04 -2.325777E+02 -1.514697E+04
       241   5  1.646949E+05  3.740405E+02  6.083336E+02  4.898303E+04 -5.454246E+02 -1.195419E+04
       241   6  1.647250E+05  6.891256E+02  1.132448E+03  5.245287E+04 -8.584944E+02 -8.777381E+03
       241   7 -2.683311E+04 -4.318675E+04 -2.554137E+04  5.204353E+04  6.913843E+03 -1.512841E+04
       241   8  1.321768E+04 -3.401807E+04 -1.988805E+04  4.877697E+04  6.565562E+03 -1.193541E+04
       241   9  5.333169E+04 -2.460474E+04 -1.396078E+04  5.245121E+04  6.217040E+03 -8.758390E+03
       241  10  3.563122E+05  4.378018E+04  2.620786E+04  5.286426E+04 -3.421851E-09  5.433822E-09
       241  11  3.161955E+05  3.476501E+04  2.110431E+04  4.918905E+04  2.891959E-09 -7.303847E-10
       241  12  2.761309E+05  2.598238E+04  1.622548E+04  5.245446E+04  6.516155E-09  3.352530E-09
       241  13  1.647208E+05  2.973758E+02  3.331603E+02  5.245388E+04 -3.945133E-10  1.056910E-09
       241  14  1.646949E+05  3.738870E+02  6.080644E+02  4.898302E+04  1.773024E-09  2.112126E-09
       241  15  1.647250E+05  6.890426E+02  1.132302E+03  5.245286E+04 -8.264423E-10 -1.314846E-09
       241  16 -2.683323E+04 -4.318701E+04 -2.554189E+04  5.204362E+04  2.567688E-09  1.055614E-09
       241  17  1.321759E+04 -3.401823E+04 -1.988840E+04  4.877703E+04 -1.383114E-09 -2.170412E-10
       241  18  5.333162E+04 -2.460483E+04 -1.396100E+04  5.245125E+04 -8.241360E-09 -6.736532E-09
       241  19  3.563123E+05  4.378044E+04  2.620840E+04  5.286435E+04  7.381102E+03  1.516553E+04
       241  20  3.161956E+05  3.476518E+04  2.110469E+04  4.918912E+04  7.658067E+03  1.197297E+04
       241  21  2.761310E+05  2.598248E+04  1.622575E+04  5.245452E+04  7.935240E+03  8.796369E+03
       241  22  1.647209E+05  2.976222E+02  3.335915E+02  5.245389E+04  2.325777E+02  1.514697E+04
       241  23  1.646949E+05  3.740405E+02  6.083336E+02  4.898303E+04  5.454246E+02  1.195419E+04
       241  24  1.647250E+05  6.891256E+02  1.132448E+03  5.245287E+04  8.584944E+02  8.777381E+03
       241  25 -2.683311E+04 -4.318675E+04 -2.554137E+04  5.204353E+04 -6.913843E+03  1.512841E+04
       241  26  1.321768E+04 -3.401807E+04 -1.988805E+04  4.877697E+04 -6.565562E+03  1.193541E+04
       241  27  5.333169E+04 -2.460474E+04 -1.396078E+04  5.245121E+04 -6.217040E+03  8.758390E+03
       242   1  2.513341E+05  2.042034E+04  1.306080E+04  5.254197E+04 -8.131745E+03 -6.948252E+03
       242   2  2.109203E+05  1.248015E+04  8.843475E+03  4.727486E+04 -9.288488E+03 -3.846872E+03
       242   3  1.711830E+05  6.823458E+03  5.935565E+03  4.893548E+04 -1.044494E+04 -8.715159E+02
       242   4  1.648744E+05  8.235881E+02  1.515599E+03  5.245086E+04 -1.059785E+03 -6.929156E+03
       242   5  1.645128E+05  2.003318E+03  2.799639E+03  4.898076E+04 -2.498007E+03 -3.828472E+03
       242   6  1.648753E+05  5.515640E+03  5.588558E+03  5.243833E+04 -3.936006E+03 -8.538236E+02
       242   7  7.842242E+04 -1.877346E+04 -1.002947E+04  5.235975E+04  6.011236E+03 -6.910061E+03
       242   8  1.181075E+05 -8.473569E+03 -3.244036E+03  5.068653E+04  4.291990E+03 -3.810033E+03
       242   9  1.585678E+05  4.207891E+03  5.241719E+03  5.594114E+04  2.572869E+03 -8.360578E+02
       242  10  2.513340E+05  2.042027E+04  1.306058E+04  5.254193E+04  6.699362E-08  4.550391E-09
       242  11  2.109202E+05  1.248011E+04  8.843285E+03  4.727483E+04  1.068147E-09 -2.717880E-09
       242  12  1.711829E+05  6.823427E+03  5.935359E+03  4.893547E+04 -6.641738E-08 -1.648788E-09
       242  13  1.648744E+05  8.235362E+02  1.515507E+03  5.245085E+04  8.431147E-10  3.505160E-09
       242  14  1.645128E+05  2.003301E+03  2.799599E+03  4.898075E+04  1.204817E-09 -6.369540E-09
       242  15  1.648753E+05  5.515635E+03  5.588528E+03  5.243833E+04 -1.786034E-10  3.352362E-09
       242  16  7.842237E+04 -1.877352E+04 -1.002963E+04  5.235978E+04 -6.501351E-08 -9.060374E-11
       242  17  1.181075E+05 -8.473590E+03 -3.244098E+03  5.068654E+04 -6.749017E-10  1.910785E-09
       242  18  1.585678E+05  4.207888E+03  5.241706E+03  5.594114E+04  6.597017E-08 -6.827722E-10
       242  19  2.513341E+05  2.042034E+04  1.306080E+04  5.254197E+04  8.131745E+03  6.948252E+03
       242  20  2.109203E+05  1.248015E+04  8.843475E+03  4.727486E+04  9.288488E+03  3.846872E+03
       242  21  1.711830E+05  6.823458E+03  5.935565E+03  4.893548E+04  1.044494E+04  8.715159E+02
       242  22  1.648744E+05  8.235881E+02  1.515599E+03  5.245086E+04  1.059785E+03  6.929156E+03
       242  23  1.645128E+05  2.003318E+03  2.799639E+03  4.898076E+04  2.498007E+03  3.828472E+03
       242  24  1.648753E+05  5.515640E+03  5.588558E+03  5.243833E+04  3.936006E+03  8.538236E+02
       242  25  7.842242E+04 -1.877346E+04 -1.002947E+04  5.235975E+04 -6.011236E+03  6.910061E+03
       242  26  1.181075E+05 -8.473569E+03 -3.244036E+03  5.068653E+04 -4.291990E+03  3.810033E+03
       242  27  1.585678E+05  4.207891E+03  5.241719E+03  5.594114E+04 -2.572869E+03  8.360578E+02
       243   1 -1.798894E+04  4.496890E+05 -1.274750E+04 -8.435537E+04 -3.413028E+03 -8.880714E+03
       243   2 -4.495411E+04  3.869048E+05 -2.509095E+04 -7.150770E+04 -1.319390E+04 -9.071622E+03
       243   3 -6.282278E+04  3.263811E+05 -3.505300E+04 -7.107963E+04 -1.988205E+04 -9.257588E+03
       243   4  1.974770E+04  6.043953E+05  2.155972E+04 -7.160390E+04 -3.447557E+03  1.315310E+04
       243   5  5.608740E+03  6.027429E+05  1.211770E+04 -6.540763E+04 -1.321797E+04  6.945390E+03
       243   6  1.608773E+03  6.043912E+05  9.232226E+03 -7.162990E+04 -1.989614E+04  7.426051E+02
       243   7  5.748361E+04  7.591253E+05  5.586737E+04 -5.884921E+04 -3.481177E+03  3.519234E+04
       243   8  5.616938E+04  8.186273E+05  4.932574E+04 -5.930535E+04 -1.324171E+04  2.296779E+04
       243   9  6.603652E+04  8.824784E+05  5.351583E+04 -7.218039E+04 -1.991025E+04  1.074711E+04
       243  10 -1.798897E+04  4.496889E+05 -1.274767E+04 -8.435540E+04 -5.306277E-11  1.579260E-10
       243  11 -4.495432E+04  3.869047E+05 -2.509143E+04 -7.150780E+04 -1.242864E-09 -4.734658E-09
       243  12 -6.282323E+04  3.263809E+05 -3.505390E+04 -7.107978E+04 -6.034514E-10 -1.794134E-09
       243  13  1.974764E+04  6.043951E+05  2.155937E+04 -7.160387E+04  1.563421E-09 -6.223582E-11
       243  14  5.608539E+03  6.027428E+05  1.211728E+04 -6.540755E+04 -2.022192E-10 -2.809122E-09
       243  15  1.608348E+03  6.043911E+05  9.231480E+03 -7.162988E+04 -1.939245E-09 -1.929818E-09
       243  16  5.748327E+04  7.591240E+05  5.586502E+04 -5.884912E+04  6.168319E-10  7.294564E-10
       243  17  5.616905E+04  8.186267E+05  4.932442E+04 -5.930510E+04  1.121724E-09  3.266427E-10
       243  18  6.603606E+04  8.824782E+05  5.351486E+04 -7.218022E+04 -2.324901E-09  1.470519E-09
       243  19 -1.798894E+04  4.496890E+05 -1.274750E+04 -8.435537E+04  3.413028E+03  8.880714E+03
       243  20 -4.495411E+04  3.869048E+05 -2.509095E+04 -7.150770E+04  1.319390E+04  9.071622E+03
       243  21 -6.282278E+04  3.263811E+05 -3.505300E+04 -7.107963E+04  1.988205E+04  9.257588E+03
       243  22  1.974770E+04  6.043953E+05  2.155972E+04 -7.160390E+04  3.447557E+03 -1.315310E+04
       243  23  5.608740E+03  6.027429E+05  1.211770E+04 -6.540763E+04  1.321797E+04 -6.945390E+03
       243  24  1.608773E+03  6.043912E+05  9.232226E+03 -7.162990E+04  1.989614E+04 -7.426051E+02
       243  25  5.748361E+04  7.591253E+05  5.586737E+04 -5.884921E+04  3.481177E+03 -3.519234E+04
       243  26  5.616938E+04  8.186273E+05  4.932574E+04 -5.930535E+04  1.324171E+04 -2.296779E+04
       243  27  6.603652E+04  8.824784E+05  5.351583E+04 -7.218039E+04  1.991025E+04 -1.074711E+04
       244   1 -7.197678E+04  2.869021E+05 -4.117175E+04 -7.227780E+04 -2.284520E+04 -1.090674E+04
       244   2 -8.632117E+04  2.246839E+05 -4.902986E+04 -6.451739E+04 -2.719112E+04 -1.300533E+04
       244   3 -9.801284E+04  1.633786E+05 -5.486730E+04 -6.889305E+04 -2.975504E+04 -1.510058E+04
       244   4  1.465400E+03  6.039885E+05  9.125353E+03 -7.156485E+04 -2.285905E+04 -7.179954E+02
       244   5  1.385883E+03  6.032249E+05  1.112458E+04 -6.549484E+04 -2.719896E+04 -6.284748E+03
       244   6  4.559933E+03  6.039711E+05  1.755010E+04 -7.156025E+04 -2.975741E+04 -1.184838E+04
       244   7  7.490263E+04  9.211752E+05  5.942029E+04 -7.085149E+04 -2.287287E+04  9.475765E+03
       244   8  8.908583E+04  9.819084E+05  7.127552E+04 -6.647285E+04 -2.720681E+04  4.397777E+02
       244   9  1.071228E+05  1.044756E+06  8.996189E+04 -7.422933E+04 -2.975981E+04 -8.593945E+03
       244  10 -7.197737E+04  2.869018E+05 -4.117295E+04 -7.227800E+04 -2.085397E-09  1.934600E-09
       244  11 -8.632201E+04  2.246835E+05 -4.903157E+04 -6.451767E+04 -4.954347E-10 -3.975362E-09
       244  12 -9.801385E+04  1.633782E+05 -5.486939E+04 -6.889341E+04 -2.632768E-10 -3.234366E-09
       244  13  1.464838E+03  6.039884E+05  9.124370E+03 -7.156486E+04 -1.171902E-09  1.499741E-10
       244  14  1.385078E+03  6.032247E+05  1.112311E+04 -6.549498E+04  7.421474E-10 -2.676930E-09
       244  15  4.558944E+03  6.039707E+05  1.754817E+04 -7.156053E+04 -1.473849E-09 -1.955933E-09
       244  16  7.490205E+04  9.211749E+05  5.941914E+04 -7.085132E+04 -2.085518E-09 -1.367137E-09
       244  17  8.908503E+04  9.819082E+05  7.127413E+04 -6.647284E+04 -3.336193E-10  2.226761E-10
       244  18  1.071218E+05  1.044755E+06  8.996009E+04 -7.422954E+04 -2.150271E-09  2.688927E-09
       244  19 -7.197678E+04  2.869021E+05 -4.117175E+04 -7.227780E+04  2.284520E+04  1.090674E+04
       244  20 -8.632117E+04  2.246839E+05 -4.902986E+04 -6.451739E+04  2.719112E+04  1.300533E+04
       244  21 -9.801284E+04  1.633786E+05 -5.486730E+04 -6.889305E+04  2.975504E+04  1.510058E+04
       244  22  1.465400E+03  6.039885E+05  9.125353E+03 -7.156485E+04  2.285905E+04  7.179954E+02
       244  23  1.385883E+03  6.032249E+05  1.112458E+04 -6.549484E+04  2.719896E+04  6.284748E+03
       244  24  4.559933E+03  6.039711E+05  1.755010E+04 -7.156025E+04  2.975741E+04  1.184838E+04
       244  25  7.490263E+04  9.211752E+05  5.942029E+04 -7.085149E+04  2.287287E+04 -9.475765E+03
       244  26  8.908583E+04  9.819084E+05  7.127552E+04 -6.647285E+04  2.720681E+04 -4.397777E+02
       244  27  1.071228E+05  1.044756E+06  8.996189E+04 -7.422933E+04  2.975981E+04  8.593945E+03
       245   1 -1.071246E+05  1.257426E+05 -5.787184E+04 -7.248038E+04 -3.131794E+04 -1.868253E+04
       245   2 -1.076391E+05  6.007932E+04 -6.132290E+04 -4.192208E+04 -2.647233E+04 -1.269065E+04
       245   3 -7.497352E+04  1.932277E+03 -6.037527E+04 -2.253496E+04 -7.952879E+03 -6.685948E+03
       245   4  5.034367E+03  6.063224E+05  2.255471E+04 -7.135327E+04 -3.132078E+04 -1.483781E+04
       245   5  2.071827E+04  6.002434E+05  4.015990E+04 -6.572601E+04 -2.644233E+04 -3.543859E+04
       245   6  7.417823E+04  6.062803E+05  8.061557E+04 -7.126788E+04 -7.895982E+03 -5.602633E+04
       245   7  1.171813E+05  1.087130E+06  1.029741E+05 -7.022518E+04 -3.132360E+04 -1.099020E+04
       245   8  1.490611E+05  1.140692E+06  1.416322E+05 -8.955107E+04 -2.641060E+04 -5.820583E+04
       245   9  2.233143E+05  1.210975E+06  2.215920E+05 -1.200484E+05 -7.831373E+03 -1.054144E+05
       245  10 -1.071257E+05  1.257420E+05 -5.787434E+04 -7.248085E+04 -1.023421E-09 -6.041559E-08
       245  11 -1.076399E+05  6.007896E+04 -6.132452E+04 -4.192235E+04 -1.637740E-10 -3.821052E-09
       245  12 -7.497360E+04  1.932212E+03 -6.037547E+04 -2.253500E+04  3.941011E-10  5.877589E-08
       245  13  5.033254E+03  6.063219E+05  2.255245E+04 -7.135364E+04  1.437993E-09 -6.579055E-11
       245  14  2.071718E+04  6.002419E+05  4.015622E+04 -6.572676E+04  5.127198E-10 -2.525133E-09
       245  15  7.417732E+04  6.062769E+05  8.060956E+04 -7.126823E+04  1.679093E-09 -1.582518E-09
       245  16  1.171802E+05  1.087129E+06  1.029721E+05 -7.022545E+04 -1.063352E-09  6.120724E-08
       245  17  1.490594E+05  1.140688E+06  1.416246E+05 -8.955230E+04  3.350791E-10  5.066739E-10
       245  18  2.233112E+05  1.210963E+06  2.215711E+05 -1.200491E+05  1.173218E-09 -5.904565E-08
       245  19 -1.071246E+05  1.257426E+05 -5.787184E+04 -7.248038E+04  3.131794E+04  1.868253E+04
       245  20 -1.076391E+05  6.007932E+04 -6.132290E+04 -4.192208E+04  2.647233E+04  1.269065E+04
       245  21 -7.497352E+04  1.932277E+03 -6.037527E+04 -2.253496E+04  7.952879E+03  6.685948E+03
       245  22  5.034367E+03  6.063224E+05  2.255471E+04 -7.135327E+04  3.132078E+04  1.483781E+04
       245  23  2.071827E+04  6.002434E+05  4.015990E+04 -6.572601E+04  2.644233E+04  3.543859E+04
       245  24  7.417823E+04  6.062803E+05  8.061557E+04 -7.126788E+04  7.895982E+03  5.602633E+04
       245  25  1.171813E+05  1.087130E+06  1.029741E+05 -7.022518E+04  3.132360E+04  1.099020E+04
       245  26  1.490611E+05  1.140692E+06  1.416322E+05 -8.955107E+04  2.641060E+04  5.820583E+04
       245  27  2.233143E+05  1.210975E+06  2.215920E+05 -1.200484E+05  7.831373E+03  1.054144E+05
       246   1  9.886541E+05  3.200647E+05  1.506665E+05  3.583456E+05  4.969311E+04  6.385976E+03
       246   2  9.299685E+05  3.196999E+05  1.158396E+05  3.431868E+05  3.282683E+04 -2.944637E+04
       246   3  8.647167E+05  3.163975E+05  9.805683E+04  3.392473E+05  9.365257E+03 -4.775357E+04
       246   4  2.164031E+05  5.353226E+04 -4.084862E+04  1.697232E+05 -2.264074E+04 -2.087178E+04
       246   5  2.255101E+05  7.393463E+04 -1.949189E+04  1.583503E+05 -2.832059E+03 -4.289253E+04
       246   6  2.207832E+05  8.413252E+04 -1.013107E+04  1.581986E+05  1.037371E+04 -4.737898E+04
       246   7 -5.552208E+05 -2.129664E+05 -2.323774E+05 -1.868536E+04 -9.487290E+04 -4.809791E+04
       246   8 -4.784150E+05 -1.717897E+05 -1.548347E+05 -2.629157E+04 -3.844672E+04 -5.632367E+04
       246   9 -4.227072E+05 -1.480898E+05 -1.183291E+05 -2.267403E+04  1.138106E+04 -4.700481E+04
       246  10  9.886515E+05  3.200640E+05  1.506618E+05  3.583453E+05 -2.119863E-09  3.446559E-10
       246  11  9.299671E+05  3.196986E+05  1.158359E+05  3.431876E+05  1.643417E-10 -1.996627E-10
       246  12  8.647160E+05  3.163950E+05  9.805238E+04  3.392476E+05  2.289747E-09  5.073801E-09
       246  13  2.164024E+05  5.353165E+04 -4.085041E+04  1.697228E+05 -5.594459E-10  4.352558E-09
       246  14  2.255096E+05  7.393266E+04 -1.949536E+04  1.583502E+05  5.723555E-10  2.114475E-09
       246  15  2.207825E+05  8.413008E+04 -1.013549E+04  1.581990E+05 -9.099126E-10  2.195918E-09
       246  16 -5.552310E+05 -2.129713E+05 -2.323987E+05 -1.868904E+04  2.498667E-09  4.489123E-09
       246  17 -4.784174E+05 -1.717935E+05 -1.548434E+05 -2.629332E+04 -4.901519E-09  4.588879E-10
       246  18 -4.227079E+05 -1.480922E+05 -1.183335E+05 -2.267360E+04 -3.097412E-09 -7.652670E-10
       246  19  9.886541E+05  3.200647E+05  1.506665E+05  3.583456E+05 -4.969311E+04 -6.385976E+03
       246  20  9.299685E+05  3.196999E+05  1.158396E+05  3.431868E+05 -3.282683E+04  2.944637E+04
       246  21  8.647167E+05  3.163975E+05  9.805683E+04  3.392473E+05 -9.365257E+03  4.775357E+04
       246  22  2.164031E+05  5.353226E+04 -4.084862E+04  1.697232E+05  2.264074E+04  2.087178E+04
       246  23  2.255101E+05  7.393463E+04 -1.949189E+04  1.583503E+05  2.832059E+03  4.289253E+04
       246  24  2.207832E+05  8.413252E+04 -1.013107E+04  1.581986E+05 -1.037371E+04  4.737898E+04
       246  25 -5.552208E+05 -2.129664E+05 -2.323774E+05 -1.868536E+04  9.487290E+04  4.809791E+04
       246  26 -4.784150E+05 -1.717897E+05 -1.548347E+05 -2.629157E+04  3.844672E+04  5.632367E+04
       246  27 -4.227072E+05 -1.480898E+05 -1.183291E+05 -2.267403E+04 -1.138106E+04  4.700481E+04
       247   1  8.309743E+05  3.031034E+05  9.218210E+04  3.287652E+05  1.073221E+04 -4.625373E+04
       247   2  7.793454E+05  2.811389E+05  8.239946E+04  3.094713E+05  8.214620E+03 -4.585218E+04
       247   3  7.205316E+05  2.659764E+05  7.401819E+04  2.987102E+05  4.966037E+03 -4.351499E+04
       247   4  2.217107E+05  8.504124E+04 -7.525491E+03  1.586202E+05  1.118816E+04 -4.608712E+04
       247   5  2.258715E+05  8.314384E+04 -3.914714E+03  1.539420E+05  1.271968E+04 -4.415744E+04
       247   6  2.220433E+05  8.724658E+04 -2.110001E+03  1.577962E+05  1.351972E+04 -4.029116E+04
       247   7 -3.871642E+05 -1.329868E+05 -1.072436E+05 -1.137103E+04  1.164365E+04 -4.592069E+04
       247   8 -3.272762E+05 -1.148205E+05 -9.023490E+04 -1.458128E+03  1.722052E+04 -4.246429E+04
       247   9 -2.761766E+05 -9.145643E+04 -7.824143E+04  1.698871E+04  2.206616E+04 -3.707006E+04
       247  10  8.309736E+05  3.031010E+05  9.217786E+04  3.287656E+05 -1.416168E-09  5.718248E-10
       247  11  7.793448E+05  2.811366E+05  8.239538E+04  3.094716E+05  5.999540E-09  2.217192E-09
       247  12  7.205311E+05  2.659744E+05  7.401459E+04  2.987103E+05  8.037286E-09  2.261374E-09
       247  13  2.217100E+05  8.503893E+04 -7.529718E+03  1.586206E+05 -1.977734E-10 -1.056692E-09
       247  14  2.258708E+05  8.314170E+04 -3.918683E+03  1.539425E+05  6.128236E-09  1.395311E-09
       247  15  2.220426E+05  8.724478E+04 -2.113396E+03  1.577966E+05  6.279898E-09  7.423381E-11
       247  16 -3.871649E+05 -1.329891E+05 -1.072478E+05 -1.137060E+04  6.173009E-09  1.327890E-09
       247  17 -3.272770E+05 -1.148225E+05 -9.023885E+04 -1.457539E+03  1.127297E-08  7.169204E-09
       247  18 -2.761775E+05 -9.145804E+04 -7.824493E+04  1.698936E+04  9.027223E-09  3.219202E-09
       247  19  8.309743E+05  3.031034E+05  9.218210E+04  3.287652E+05 -1.073221E+04  4.625373E+04
       247  20  7.793454E+05  2.811389E+05  8.239946E+04  3.094713E+05 -8.214620E+03  4.585218E+04
       247  21  7.205316E+05  2.659764E+05  7.401819E+04  2.987102E+05 -4.966037E+03  4.351499E+04
       247  22  2.217107E+05  8.504124E+04 -7.525491E+03  1.586202E+05 -1.118816E+04  4.608712E+04
       247  23  2.258715E+05  8.314384E+04 -3.914714E+03  1.539420E+05 -1.271968E+04  4.415744E+04
       247  24  2.220433E+05  8.724658E+04 -2.110001E+03  1.577962E+05 -1.351972E+04  4.029116E+04
       247  25 -3.871642E+05 -1.329868E+05 -1.072436E+05 -1.137103E+04 -1.164365E+04  4.592069E+04
       247  26 -3.272762E+05 -1.148205E+05 -9.023490E+04 -1.458128E+03 -1.722052E+04  4.246429E+04
       247  27 -2.761766E+05 -9.145643E+04 -7.824143E+04  1.698871E+04 -2.206616E+04  3.707006E+04
       248   1  6.862325E+05  2.535333E+05  6.882379E+04  2.889651E+05  4.391547E+03 -4.094102E+04
       248   2  6.352178E+05  2.303283E+05  6.089653E+04  2.693337E+05  2.797556E+03 -3.678586E+04
       248   3  5.768398E+05  2.144972E+05  5.298875E+04  2.580951E+05  1.122145E+03 -3.241827E+04
       248   4  2.221361E+05  8.731504E+04 -1.574250E+03  1.578493E+05  1.288154E+04 -3.774028E+04
       248   5  2.258839E+05  8.374643E+04 -8.421359E+02  1.536292E+05  1.173168E+04 -3.341610E+04
       248   6  2.221759E+05  8.746371E+04 -4.433187E+02  1.578013E+05  1.050037E+04 -2.887938E+04
       248   7 -2.417214E+05 -7.887769E+04 -7.197326E+04  2.682733E+04  2.136474E+04 -3.454210E+04
       248   8 -1.832685E+05 -6.281713E+04 -6.258256E+04  3.799668E+04  2.065960E+04 -3.004868E+04
       248   9 -1.323560E+05 -3.955762E+04 -5.387777E+04  5.756034E+04  1.987305E+04 -2.534259E+04
       248  10  6.862321E+05  2.535315E+05  6.882060E+04  2.889652E+05  5.024355E-09  1.474215E-09
       248  11  6.352175E+05  2.303268E+05  6.089397E+04  2.693338E+05 -1.076053E-09 -1.127075E-09
       248  12  5.768396E+05  2.144960E+05  5.298677E+04  2.580951E+05 -5.429217E-09  1.399113E-09
       248  13  2.221356E+05  8.731347E+04 -1.577238E+03  1.578497E+05  3.351775E-09  1.054811E-09
       248  14  2.258834E+05  8.374520E+04 -8.444933E+02  1.536296E+05 -2.275994E-09 -3.756175E-09
       248  15  2.221755E+05  8.746278E+04 -4.450935E+02  1.578015E+05 -1.052479E-09  2.058991E-09
       248  16 -2.417222E+05 -7.887909E+04 -7.197636E+04  2.682793E+04  5.252068E-09 -3.633520E-10
       248  17 -1.832692E+05 -6.281822E+04 -6.258506E+04  3.799718E+04 -1.572697E-09  2.758170E-09
       248  18 -1.323566E+05 -3.955842E+04 -5.387972E+04  5.756075E+04  1.174404E-09  3.557289E-10
       248  19  6.862325E+05  2.535333E+05  6.882379E+04  2.889651E+05 -4.391547E+03  4.094102E+04
       248  20  6.352178E+05  2.303283E+05  6.089653E+04  2.693337E+05 -2.797556E+03  3.678586E+04
       248  21  5.768398E+05  2.144972E+05  5.298875E+04  2.580951E+05 -1.122145E+03  3.241827E+04
       248  22  2.221361E+05  8.731504E+04 -1.574250E+03  1.578493E+05 -1.288154E+04  3.774028E+04
       248  23  2.258839E+05  8.374643E+04 -8.421359E+02  1.536292E+05 -1.173168E+04  3.341610E+04
       248  24  2.221759E+05  8.746371E+04 -4.433187E+02  1.578013E+05 -1.050037E+04  2.887938E+04
       248  25 -2.417214E+05 -7.887769E+04 -7.197326E+04  2.682733E+04 -2.136474E+04  3.454210E+04
       248  26 -1.832685E+05 -6.281713E+04 -6.258256E+04  3.799668E+04 -2.065960E+04  3.004868E+04
       248  27 -1.323560E+05 -3.955762E+04 -5.387777E+04  5.756034E+04 -1.987305E+04  2.534259E+04
       249   1  5.425382E+05  2.021681E+05  4.769078E+04  2.484108E+05  2.056611E+02 -2.977544E+04
       249   2  4.916007E+05  1.789408E+05  3.974409E+04  2.287655E+05 -1.467797E+03 -2.527720E+04
       249   3  4.332820E+05  1.631047E+05  3.178407E+04  2.175102E+05 -3.150125E+03 -2.075760E+04
       249   4  2.221908E+05  8.747081E+04 -3.179941E+02  1.578073E+05  9.575051E+03 -2.623915E+04
       249   5  2.258937E+05  8.378770E+04 -1.325033E+02  1.536122E+05  7.945998E+03 -2.172319E+04
       249   6  2.222030E+05  8.748648E+04  3.838314E+00  1.578057E+05  6.308081E+03 -1.718587E+04
       249   7 -9.804489E+04 -2.721509E+04 -4.832756E+04  6.724801E+04  1.893934E+04 -2.270479E+04
       249   8 -3.973484E+04 -1.135696E+04 -4.000908E+04  7.848972E+04  1.735548E+04 -1.817080E+04
       249   9  1.117507E+04  1.187419E+04 -3.177581E+04  9.812126E+04  1.576278E+04 -1.361546E+04
       249  10  5.425379E+05  2.021671E+05  4.768912E+04  2.484108E+05 -2.425737E-09  1.228322E-09
       249  11  4.916005E+05  1.789401E+05  3.974289E+04  2.287654E+05 -1.896332E-10  3.256905E-09
       249  12  4.332819E+05  1.631043E+05  3.178324E+04  2.175101E+05  1.092372E-09 -1.877033E-09
       249  13  2.221906E+05  8.747005E+04 -3.194604E+02  1.578075E+05 -8.271338E-10 -2.383839E-09
       249  14  2.258935E+05  8.378717E+04 -1.335089E+02  1.536123E+05  3.591957E-10 -3.180801E-09
       249  15  2.222029E+05  8.748615E+04  3.208419E+00  1.578058E+05 -3.152767E-10  5.689679E-09
       249  16 -9.804541E+04 -2.721574E+04 -4.832921E+04  6.724836E+04 -8.188586E-10  2.813027E-09
       249  17 -3.973525E+04 -1.135740E+04 -4.001026E+04  7.848997E+04  7.970883E-10  4.746602E-09
       249  18  1.117476E+04  1.187392E+04 -3.177663E+04  9.812143E+04  1.874489E-09  1.541621E-10
       249  19  5.425382E+05  2.021681E+05  4.769078E+04  2.484108E+05 -2.056611E+02  2.977544E+04
       249  20  4.916007E+05  1.789408E+05  3.974409E+04  2.287655E+05  1.467797E+03  2.527720E+04
       249  21  4.332820E+05  1.631047E+05  3.178407E+04  2.175102E+05  3.150125E+03  2.075760E+04
       249  22  2.221908E+05  8.747081E+04 -3.179941E+02  1.578073E+05 -9.575051E+03  2.623915E+04
       249  23  2.258937E+05  8.378770E+04 -1.325033E+02  1.536122E+05 -7.945998E+03  2.172319E+04
       249  24  2.222030E+05  8.748648E+04  3.838314E+00  1.578057E+05 -6.308081E+03  1.718587E+04
       249  25 -9.804489E+04 -2.721509E+04 -4.832756E+04  6.724801E+04 -1.893934E+04  2.270479E+04
       249  26 -3.973484E+04 -1.135696E+04 -4.000908E+04  7.848972E+04 -1.735548E+04  1.817080E+04
       249  27  1.117507E+04  1.187419E+04 -3.177581E+04  9.812126E+04 -1.576278E+04  1.361546E+04
       250   1  3.989966E+05  1.507903E+05  2.645672E+04  2.078357E+05 -4.148772E+03 -1.812601E+04
       250   2  3.480751E+05  1.275699E+05  1.852799E+04  1.882026E+05 -5.944759E+03 -1.364267E+04
       250   3  2.897828E+05  1.117423E+05  1.066740E+04  1.769611E+05 -7.737478E+03 -9.168940E+03
       250   4  2.222122E+05  8.748868E+04  6.732278E+01  1.578084E+05  5.307551E+03 -1.455457E+04
       250   5  2.258987E+05  8.379077E+04  2.216013E+02  1.536137E+05  3.491198E+03 -1.007844E+04
       250   6  2.222164E+05  8.748978E+04  4.601668E+02  1.578097E+05  1.678113E+03 -5.611961E+03
       250   7  4.545975E+04  2.418971E+04 -2.632266E+04  1.077939E+05  1.476115E+04 -1.098416E+04
       250   8  1.037380E+05  4.001300E+04 -1.808481E+04  1.190309E+05  1.292526E+04 -6.514943E+03
       250   9  1.546551E+05  6.323781E+04 -9.746750E+03  1.386603E+05  1.109263E+04 -2.055391E+03
       250  10  3.989965E+05  1.507899E+05  2.645607E+04  2.078356E+05 -6.654296E-08 -2.709709E-08
       250  11  3.480750E+05  1.275697E+05  1.852758E+04  1.882026E+05  3.565856E-10 -7.090421E-09
       250  12  2.897827E+05  1.117422E+05  1.066713E+04  1.769610E+05  6.888505E-08  1.565085E-08
       250  13  2.222122E+05  8.748844E+04  6.687170E+01  1.578084E+05  3.005421E-09 -1.053358E-09
       250  14  2.258987E+05  8.379065E+04  2.213874E+02  1.536137E+05  5.991080E-09  3.669870E-09
       250  15  2.222164E+05  8.748974E+04  4.601023E+02  1.578097E+05  4.332843E-09  9.723773E-10
       250  16  4.545948E+04  2.418952E+04 -2.632330E+04  1.077940E+05  7.325426E-08  3.012549E-08
       250  17  1.037378E+05  4.001291E+04 -1.808520E+04  1.190310E+05  6.106476E-09  4.303455E-09
       250  18  1.546549E+05  6.323777E+04 -9.746989E+03  1.386603E+05 -6.334550E-08 -2.317638E-08
       250  19  3.989966E+05  1.507903E+05  2.645672E+04  2.078357E+05  4.148772E+03  1.812601E+04
       250  20  3.480751E+05  1.275699E+05  1.852799E+04  1.882026E+05  5.944759E+03  1.364267E+04
       250  21  2.897828E+05  1.117423E+05  1.066740E+04  1.769611E+05  7.737478E+03  9.168940E+03
       250  22  2.222122E+05  8.748868E+04  6.732278E+01  1.578084E+05 -5.307551E+03  1.455457E+04
       250  23  2.258987E+05  8.379077E+04  2.216013E+02  1.536137E+05 -3.491198E+03  1.007844E+04
       250  24  2.222164E+05  8.748978E+04  4.601668E+02  1.578097E+05 -1.678113E+03  5.611961E+03
       250  25  4.545975E+04  2.418971E+04 -2.632266E+04  1.077939E+05 -1.476115E+04  1.098416E+04
       250  26  1.037380E+05  4.001300E+04 -1.808481E+04  1.190309E+05 -1.292526E+04  6.514943E+03
       250  27  1.546551E+05  6.323781E+04 -9.746750E+03  1.386603E+05 -1.109263E+04  2.055391E+03
       251   1  2.555090E+05  9.943794E+04  5.434314E+03  1.673113E+05 -8.820815E+03 -6.578242E+03
       251   2  2.045868E+05  7.620241E+04 -2.206636E+03  1.476499E+05 -1.086418E+04 -2.262742E+03
       251   3  1.463670E+05  6.043984E+04 -9.554966E+03  1.363641E+05 -1.286750E+04  1.947139E+03
       251   4  2.222379E+05  8.748776E+04  6.284398E+02  1.578171E+05  5.974821E+02 -3.020141E+03
       251   5  2.258767E+05  8.380435E+04  1.166809E+03  1.536016E+05 -1.667211E+03  1.211657E+03
       251   6  2.222581E+05  8.763712E+04  2.172732E+03  1.577602E+05 -3.891900E+03  5.337847E+03
       251   7  1.889685E+05  7.553795E+04 -4.176949E+03  1.483236E+05  1.001514E+04  5.377133E+02
       251   8  2.471673E+05  9.140641E+04  4.540610E+03  1.595535E+05  7.530093E+03  4.686181E+03
       251   9  2.981566E+05  1.148354E+05  1.390094E+04  1.791591E+05  5.084963E+03  8.729032E+03
       251  10  2.555089E+05  9.943787E+04  5.434087E+03  1.673113E+05  1.747728E-10 -5.103376E-09
       251  11  2.045867E+05  7.620238E+04 -2.206868E+03  1.476499E+05 -7.534572E-09 -6.289152E-09
       251  12  1.463668E+05  6.043979E+04 -9.555284E+03  1.363641E+05 -9.720293E-09  3.098284E-09
       251  13  2.222379E+05  8.748776E+04  6.284219E+02  1.578171E+05 -6.269879E-10  2.745023E-09
       251  14  2.258767E+05  8.380435E+04  1.166801E+03  1.536016E+05 -5.674046E-09 -3.898294E-09
       251  15  2.222581E+05  8.763709E+04  2.172650E+03  1.577602E+05 -4.350777E-09 -7.780501E-09
       251  16  1.889684E+05  7.553792E+04 -4.177138E+03  1.483236E+05 -3.558549E-09 -8.675137E-10
       251  17  2.471673E+05  9.140637E+04  4.540462E+03  1.595535E+05 -6.083977E-09 -8.204660E-09
       251  18  2.981565E+05  1.148354E+05  1.390075E+04  1.791591E+05  3.458826E-09 -5.809287E-10
       251  19  2.555090E+05  9.943794E+04  5.434314E+03  1.673113E+05  8.820815E+03  6.578242E+03
       251  20  2.045868E+05  7.620241E+04 -2.206636E+03  1.476499E+05  1.086418E+04  2.262742E+03
       251  21  1.463670E+05  6.043984E+04 -9.554966E+03  1.363641E+05  1.286750E+04 -1.947139E+03
       251  22  2.222379E+05  8.748776E+04  6.284398E+02  1.578171E+05 -5.974821E+02  3.020141E+03
       251  23  2.258767E+05  8.380435E+04  1.166809E+03  1.536016E+05  1.667211E+03 -1.211657E+03
       251  24  2.222581E+05  8.763712E+04  2.172732E+03  1.577602E+05  3.891900E+03 -5.337847E+03
       251  25  1.889685E+05  7.553795E+04 -4.176949E+03  1.483236E+05 -1.001514E+04 -5.377133E+02
       251  26  2.471673E+05  9.140641E+04  4.540610E+03  1.595535E+05 -7.530093E+03 -4.686181E+03
       251  27  2.981566E+05  1.148354E+05  1.390094E+04  1.791591E+05 -5.084963E+03 -8.729032E+03
       252   1  1.120614E+05  4.824794E+04 -1.436772E+04  1.268678E+05 -1.424764E+04  4.327372E+03
       252   2  6.169141E+04  2.480778E+04 -2.099593E+04  1.061853E+05 -1.641100E+04  7.886421E+03
       252   3  4.611580E+03  1.008753E+04 -2.671099E+04  9.348912E+04 -1.821228E+04  1.048795E+04
       252   4  2.224207E+05  8.767521E+04  2.911362E+03  1.577930E+05 -5.242005E+03  7.729251E+03
       252   5  2.257871E+05  8.459761E+04  5.390328E+03  1.532401E+05 -9.407982E+03  1.053127E+04
       252   6  2.228369E+05  9.063577E+04  1.036906E+04  1.566720E+05 -1.321196E+04  1.237589E+04
       252   7  3.327932E+05  1.271038E+05  2.019057E+04  1.887234E+05  3.765317E+03  1.113176E+04
       252   8  3.899107E+05  1.443901E+05  3.177596E+04  2.003064E+05 -2.403042E+03  1.317687E+04
       252   9  4.411103E+05  1.711884E+05  4.744718E+04  2.198751E+05 -8.209844E+03  1.426456E+04
       252  10  1.120612E+05  4.824787E+04 -1.436814E+04  1.268679E+05 -3.701074E-09  1.812060E-09
       252  11  6.169110E+04  2.480764E+04 -2.099655E+04  1.061854E+05 -5.864050E-09 -1.147609E-09
       252  12  4.611194E+03  1.008732E+04 -2.671182E+04  9.348927E+04 -4.402355E-09 -3.588586E-09
       252  13  2.224207E+05  8.767514E+04  2.911198E+03  1.577930E+05 -1.561060E-09  7.228631E-10
       252  14  2.257870E+05  8.459747E+04  5.389954E+03  1.532402E+05 -9.962046E-10 -1.550642E-09
       252  15  2.228367E+05  9.063555E+04  1.036844E+04  1.566721E+05 -6.165704E-10  1.554887E-09
       252  16  3.327932E+05  1.271036E+05  2.019031E+04  1.887233E+05  2.826678E-09 -2.270878E-09
       252  17  3.899107E+05  1.443899E+05  3.177562E+04  2.003064E+05  3.192221E-09 -8.826433E-10
       252  18  4.411101E+05  1.711881E+05  4.744667E+04  2.198752E+05  5.063149E-09  7.125464E-10
       252  19  1.120614E+05  4.824794E+04 -1.436772E+04  1.268678E+05  1.424764E+04 -4.327372E+03
       252  20  6.169141E+04  2.480778E+04 -2.099593E+04  1.061853E+05  1.641100E+04 -7.886421E+03
       252  21  4.611580E+03  1.008753E+04 -2.671099E+04  9.348912E+04  1.821228E+04 -1.048795E+04
       252  22  2.224207E+05  8.767521E+04  2.911362E+03  1.577930E+05  5.242005E+03 -7.729251E+03
       252  23  2.257871E+05  8.459761E+04  5.390328E+03  1.532401E+05  9.407982E+03 -1.053127E+04
       252  24  2.228369E+05  9.063577E+04  1.036906E+04  1.566720E+05  1.321196E+04 -1.237589E+04
       252  25  3.327932E+05  1.271038E+05  2.019057E+04  1.887234E+05 -3.765317E+03 -1.113176E+04
       252  26  3.899107E+05  1.443901E+05  3.177596E+04  2.003064E+05  2.403042E+03 -1.317687E+04
       252  27  4.411103E+05  1.711884E+05  4.744718E+04  2.198751E+05  8.209844E+03 -1.426456E+04
       253   1 -2.995098E+04 -4.990281E+02 -3.002829E+04  8.541674E+04 -2.071658E+04  1.154957E+04
       253   2 -7.050767E+04 -2.646911E+04 -3.463372E+04  4.887810E+04 -1.578655E+04  1.134573E+04
       253   3 -1.111343E+05 -2.625838E+04 -3.704833E+04  1.464451E+04 -7.586690E+03  2.477197E+03
       253   4  2.244831E+05  9.148188E+04  1.396010E+04  1.568201E+05 -1.544650E+04  1.353914E+04
       253   5  2.257249E+05  9.767840E+04  2.684557E+04  1.477053E+05 -2.862587E+04  6.496200E+03
       253   6  2.304793E+05  1.336368E+05  5.627368E+04  1.408959E+05 -3.853671E+04 -9.209023E+03
       253   7  4.789904E+05  1.834710E+05  5.794798E+04  2.282520E+05 -1.017402E+04  1.552962E+04
       253   8  5.220488E+05  2.218415E+05  8.832090E+04  2.465787E+05 -4.147171E+04  1.643395E+03
       253   9  5.722040E+05  2.935567E+05  1.495871E+05  2.672144E+05 -6.950458E+04 -2.090593E+04
       253  10 -2.995147E+04 -4.992866E+02 -3.002934E+04  8.541693E+04 -1.049365E-09  1.049623E-09
       253  11 -7.050797E+04 -2.646931E+04 -3.463443E+04  4.887824E+04  1.397367E-09  5.568326E-09
       253  12 -1.111344E+05 -2.625841E+04 -3.704845E+04  1.464452E+04  1.261196E-09 -1.418438E-10
       253  13  2.244828E+05  9.148162E+04  1.395930E+04  1.568202E+05 -3.687129E-10  5.292529E-09
       253  14  2.257240E+05  9.767814E+04  2.684395E+04  1.477054E+05 -2.051273E-09  6.009596E-09
       253  15  2.304777E+05  1.336363E+05  5.627074E+04  1.408956E+05 -3.460730E-10  2.262121E-09
       253  16  4.789903E+05  1.834707E+05  5.794733E+04  2.282521E+05  2.096975E-09 -2.137002E-09
       253  17  5.220470E+05  2.218410E+05  8.831766E+04  2.465788E+05 -2.233832E-09  2.576976E-09
       253  18  5.721987E+05  2.935550E+05  1.495772E+05  2.672132E+05 -2.272698E-09 -2.828949E-09
       253  19 -2.995098E+04 -4.990281E+02 -3.002829E+04  8.541674E+04  2.071658E+04 -1.154957E+04
       253  20 -7.050767E+04 -2.646911E+04 -3.463372E+04  4.887810E+04  1.578655E+04 -1.134573E+04
       253  21 -1.111343E+05 -2.625838E+04 -3.704833E+04  1.464451E+04  7.586690E+03 -2.477197E+03
       253  22  2.244831E+05  9.148188E+04  1.396010E+04  1.568201E+05  1.544650E+04 -1.353914E+04
       253  23  2.257249E+05  9.767840E+04  2.684557E+04  1.477053E+05  2.862587E+04 -6.496200E+03
       253  24  2.304793E+05  1.336368E+05  5.627368E+04  1.408959E+05  3.853671E+04  9.209023E+03
       253  25  4.789904E+05  1.834710E+05  5.794798E+04  2.282520E+05  1.017402E+04 -1.552962E+04
       253  26  5.220488E+05  2.218415E+05  8.832090E+04  2.465787E+05  4.147171E+04 -1.643395E+03
       253  27  5.722040E+05  2.935567E+05  1.495871E+05  2.672144E+05  6.950458E+04  2.090593E+04
       254   1  1.431098E+05  1.354818E+04  7.108116E+03  1.272890E+03 -1.840348E+04 -6.318616E+02
       254   2  1.431465E+05  3.830539E+04  2.164235E+04 -1.427190E+03 -1.223643E+04 -1.709427E+03
       254   3  1.350489E+05  3.327425E+04  2.474068E+04  4.876087E+03 -6.073443E+03 -1.377100E+03
       254   4  4.870247E+03 -2.098058E+04 -2.738229E+04  3.429004E+03 -1.870297E+04 -6.327571E+02
       254   5  8.958172E+03  4.801546E+03 -1.171812E+04 -1.102561E+03 -1.230027E+04 -1.709651E+03
       254   6  4.869130E+03  7.509330E+02 -7.655299E+03  3.369358E+03 -5.901598E+03 -1.376556E+03
       254   7 -1.333519E+05 -5.551075E+04 -6.187414E+04  5.584627E+03 -1.900239E+04 -6.336548E+02
       254   8 -1.252138E+05 -2.870365E+04 -4.507993E+04 -7.780144E+02 -1.236410E+04 -1.709875E+03
       254   9 -1.252953E+05 -3.177365E+04 -4.005255E+04  1.862932E+03 -5.729789E+03 -1.376012E+03
       254  10  1.431094E+05  1.354809E+04  7.107479E+03  1.272880E+03  8.115247E-11  2.827163E-09
       254  11  1.431463E+05  3.830535E+04  2.164206E+04 -1.427207E+03  2.419086E-11  1.348801E-08
       254  12  1.350489E+05  3.327424E+04  2.474061E+04  4.876080E+03  1.339659E-09  4.264990E-09
       254  13  4.869871E+03 -2.098067E+04 -2.738295E+04  3.428995E+03 -2.160882E-09 -4.170693E-09
       254  14  8.958009E+03  4.801502E+03 -1.171841E+04 -1.102578E+03  3.070502E-09 -5.994435E-09
       254  15  4.869093E+03  7.509216E+02 -7.655368E+03  3.369351E+03 -5.499144E-09  9.398222E-10
       254  16 -1.333523E+05 -5.551085E+04 -6.187482E+04  5.584617E+03  3.486646E-11 -1.008284E-09
       254  17 -1.252139E+05 -2.870370E+04 -4.508023E+04 -7.780314E+02 -2.206549E-09  7.430686E-09
       254  18 -1.252953E+05 -3.177366E+04 -4.005262E+04  1.862926E+03 -8.270717E-10 -2.125802E-09
       254  19  1.431098E+05  1.354818E+04  7.108116E+03  1.272890E+03  1.840348E+04  6.318616E+02
       254  20  1.431465E+05  3.830539E+04  2.164235E+04 -1.427190E+03  1.223643E+04  1.709427E+03
       254  21  1.350489E+05  3.327425E+04  2.474068E+04  4.876087E+03  6.073443E+03  1.377100E+03
       254  22  4.870247E+03 -2.098058E+04 -2.738229E+04  3.429004E+03  1.870297E+04  6.327571E+02
       254  23  8.958172E+03  4.801546E+03 -1.171812E+04 -1.102561E+03  1.230027E+04  1.709651E+03
       254  24  4.869130E+03  7.509330E+02 -7.655299E+03  3.369358E+03  5.901598E+03  1.376556E+03
       254  25 -1.333519E+05 -5.551075E+04 -6.187414E+04  5.584627E+03  1.900239E+04  6.336548E+02
       254  26 -1.252138E+05 -2.870365E+04 -4.507993E+04 -7.780144E+02  1.236410E+04  1.709875E+03
       254  27 -1.252953E+05 -3.177365E+04 -4.005255E+04  1.862932E+03  5.729789E+03  1.376012E+03
       255   1  1.067579E+05  2.193515E+04  1.863914E+04  3.285159E+03 -4.618505E+03 -1.065831E+03
       255   2  1.033982E+05  2.477513E+04  2.093921E+04 -9.232863E+02 -3.067608E+03 -1.091733E+03
       255   3  9.874896E+04  2.320312E+04  2.112999E+04  3.811382E+03 -1.517532E+03 -9.037240E+02
       255   4  6.400541E+03 -3.127673E+03 -6.333291E+03  3.383991E+03 -4.641186E+03 -1.065919E+03
       255   5  7.048195E+03  7.124972E+02 -3.028572E+03 -1.093063E+03 -3.054574E+03 -1.091699E+03
       255   6  6.399782E+03  1.340668E+02 -1.858204E+03  3.373090E+03 -1.468773E+03 -9.035529E+02
       255   7 -9.394765E+04 -2.819125E+04 -3.130648E+04  3.482799E+03 -4.663864E+03 -1.066008E+03
       255   8 -8.929339E+04 -2.335084E+04 -2.699705E+04 -1.262821E+03 -3.041542E+03 -1.091664E+03
       255   9 -8.594166E+04 -2.293562E+04 -2.484704E+04  2.934856E+03 -1.420021E+03 -9.033819E+02
       255  10  1.067578E+05  2.193515E+04  1.863910E+04  3.285155E+03 -3.327116E-09 -2.366450E-09
       255  11  1.033982E+05  2.477513E+04  2.093919E+04 -9.232890E+02 -1.747754E-09  3.816375E-09
       255  12  9.874896E+04  2.320311E+04  2.112999E+04  3.811381E+03  1.587877E-09  1.184358E-08
       255  13  6.400518E+03 -3.127680E+03 -6.333333E+03  3.383987E+03 -1.625789E-11  9.470247E-09
       255  14  7.048184E+03  7.124934E+02 -3.028592E+03 -1.093066E+03 -2.210766E-09 -1.823921E-08
       255  15  6.399780E+03  1.340653E+02 -1.858209E+03  3.373089E+03  9.463005E-10  8.365117E-09
       255  16 -9.394768E+04 -2.819126E+04 -3.130652E+04  3.482795E+03  1.283696E-09 -7.465751E-09
       255  17 -8.929340E+04 -2.335084E+04 -2.699707E+04 -1.262823E+03 -2.880118E-09 -5.082695E-09
       255  18 -8.594166E+04 -2.293562E+04 -2.484704E+04  2.934855E+03 -3.164688E-09 -7.194535E-10
       255  19  1.067579E+05  2.193515E+04  1.863914E+04  3.285159E+03  4.618505E+03  1.065831E+03
       255  20  1.033982E+05  2.477513E+04  2.093921E+04 -9.232863E+02  3.067608E+03  1.091733E+03
       255  21  9.874896E+04  2.320312E+04  2.112999E+04  3.811382E+03  1.517532E+03  9.037240E+02
       255  22  6.400541E+03 -3.127673E+03 -6.333291E+03  3.383991E+03  4.641186E+03  1.065919E+03
       255  23  7.048195E+03  7.124972E+02 -3.028572E+03 -1.093063E+03  3.054574E+03  1.091699E+03
       255  24  6.399782E+03  1.340668E+02 -1.858204E+03  3.373090E+03  1.468773E+03  9.035529E+02
       255  25 -9.394765E+04 -2.819125E+04 -3.130648E+04  3.482799E+03  4.663864E+03  1.066008E+03
       255  26 -8.929339E+04 -2.335084E+04 -2.699705E+04 -1.262821E+03  3.041542E+03  1.091664E+03
       255  27 -8.594166E+04 -2.293562E+04 -2.484704E+04  2.934856E+03  1.420021E+03  9.033819E+02
       256   1  6.921796E+04  1.518098E+04  1.408173E+04  3.501738E+03 -1.187521E+03 -7.774226E+02
       256   2  6.535031E+04  1.473201E+04  1.384741E+04 -9.289115E+02 -8.198119E+02 -6.457977E+02
       256   3  6.123459E+04  1.368861E+04  1.321451E+04  3.562692E+03 -4.522638E+02 -4.819850E+02
       256   4  6.634057E+03 -4.477634E+02 -1.479081E+03  3.373435E+03 -1.168263E+03 -7.773553E+02
       256   5  6.758312E+03  9.797907E+01 -7.298234E+02 -1.088652E+03 -7.951800E+02 -6.457066E+02
       256   6  6.633591E+03  4.832641E+01 -3.828877E+02  3.371566E+03 -4.222550E+02 -4.818687E+02
       256   7 -5.594630E+04 -1.607680E+04 -1.704019E+04  3.245142E+03 -1.149008E+03 -7.772881E+02
       256   8 -5.183057E+04 -1.453631E+04 -1.530731E+04 -1.248381E+03 -7.705503E+02 -6.456155E+02
       256   9 -4.796470E+04 -1.359218E+04 -1.398051E+04  3.180454E+03 -3.922488E+02 -4.817524E+02
       256  10  6.921796E+04  1.518098E+04  1.408173E+04  3.501737E+03  3.749514E-09 -3.603181E-09
       256  11  6.535031E+04  1.473201E+04  1.384741E+04 -9.289119E+02 -1.358900E-10 -1.158911E-08
       256  12  6.123459E+04  1.368861E+04  1.321451E+04  3.562692E+03 -7.454434E-10 -1.286676E-08
       256  13  6.634055E+03 -4.477644E+02 -1.479085E+03  3.373435E+03 -1.062891E-09 -4.839315E-09
       256  14  6.758311E+03  9.797845E+01 -7.298254E+02 -1.088653E+03  2.696231E-09 -8.935515E-09
       256  15  6.633591E+03  4.832611E+01 -3.828885E+02  3.371566E+03 -1.189231E-10 -1.239119E-08
       256  16 -5.594630E+04 -1.607680E+04 -1.704019E+04  3.245141E+03 -1.521698E-09 -1.060606E-08
       256  17 -5.183057E+04 -1.453632E+04 -1.530731E+04 -1.248381E+03 -1.118364E-09  2.670067E-09
       256  18 -4.796470E+04 -1.359218E+04 -1.398051E+04  3.180453E+03  1.627295E-09  6.454529E-09
       256  19  6.921796E+04  1.518098E+04  1.408173E+04  3.501738E+03  1.187521E+03  7.774226E+02
       256  20  6.535031E+04  1.473201E+04  1.384741E+04 -9.289115E+02  8.198119E+02  6.457977E+02
       256  21  6.123459E+04  1.368861E+04  1.321451E+04  3.562692E+03  4.522638E+02  4.819850E+02
       256  22  6.634057E+03 -4.477634E+02 -1.479081E+03  3.373435E+03  1.168263E+03  7.773553E+02
       256  23  6.758312E+03  9.797907E+01 -7.298234E+02 -1.088652E+03  7.951800E+02  6.457066E+02
       256  24  6.633591E+03  4.832641E+01 -3.828877E+02  3.371566E+03  4.222550E+02  4.818687E+02
       256  25 -5.594630E+04 -1.607680E+04 -1.704019E+04  3.245142E+03  1.149008E+03  7.772881E+02
       256  26 -5.183057E+04 -1.453631E+04 -1.530731E+04 -1.248381E+03  7.705503E+02  6.456155E+02
       256  27 -4.796470E+04 -1.359218E+04 -1.398051E+04  3.180454E+03  3.922488E+02  4.817524E+02
       257   1  3.154545E+04  6.164663E+03  5.916578E+03  3.441218E+03 -3.903815E+02 -3.842133E+02
       257   2  2.759783E+04  5.215702E+03  5.179545E+03 -1.023386E+03 -3.823902E+02 -2.295130E+02
       257   3  2.356903E+04  4.288812E+03  4.425307E+03  3.423992E+03 -3.744305E+02 -7.071107E+01
       257   4  6.671667E+03 -4.560908E+01 -2.599441E+02  3.370171E+03 -3.647321E+02 -3.841115E+02
       257   5  6.712242E+03 -9.159089E-01 -1.687564E+01 -1.086054E+03 -3.560528E+02 -2.294071E+02
       257   6  6.671501E+03  6.572906E+01  2.085093E+02  3.369722E+03 -3.474050E+02 -7.060092E+01
       257   7 -1.820155E+04 -6.255928E+03 -6.436512E+03  3.299126E+03 -3.390837E+02 -3.840098E+02
       257   8 -1.417295E+04 -5.217567E+03 -5.213329E+03 -1.148720E+03 -3.297162E+02 -2.293012E+02
       257   9 -1.022577E+04 -4.157376E+03 -4.008310E+03  3.315453E+03 -3.203803E+02 -7.049078E+01
       257  10  3.154545E+04  6.164663E+03  5.916577E+03  3.441218E+03 -1.687928E-09 -1.232665E-08
       257  11  2.759783E+04  5.215702E+03  5.179545E+03 -1.023386E+03  1.086572E-09  3.996941E-09
       257  12  2.356903E+04  4.288812E+03  4.425307E+03  3.423992E+03 -1.764612E-09 -1.636963E-09
       257  13  6.671667E+03 -4.560928E+01 -2.599446E+02  3.370171E+03 -1.087656E-09 -4.296857E-10
       257  14  6.712241E+03 -9.159993E-01 -1.687598E+01 -1.086054E+03 -1.625806E-09 -2.883207E-09
       257  15  6.671501E+03  6.572902E+01  2.085091E+02  3.369722E+03  9.511875E-10 -1.080148E-08
       257  16 -1.820155E+04 -6.255928E+03 -6.436513E+03  3.299126E+03  2.217105E-09  5.998565E-09
       257  17 -1.417295E+04 -5.217567E+03 -5.213329E+03 -1.148720E+03 -3.675585E-10  1.637595E-08
       257  18 -1.022577E+04 -4.157376E+03 -4.008310E+03  3.315453E+03  1.909247E-09 -1.787095E-09
       257  19  3.154545E+04  6.164663E+03  5.916578E+03  3.441218E+03  3.903815E+02  3.842133E+02
       257  20  2.759783E+04  5.215702E+03  5.179545E+03 -1.023386E+03  3.823902E+02  2.295130E+02
       257  21  2.356903E+04  4.288812E+03  4.425307E+03  3.423992E+03  3.744305E+02  7.071107E+01
       257  22  6.671667E+03 -4.560908E+01 -2.599441E+02  3.370171E+03  3.647321E+02  3.841115E+02
       257  23  6.712242E+03 -9.159080E-01 -1.687564E+01 -1.086054E+03  3.560528E+02  2.294071E+02
       257  24  6.671501E+03  6.572906E+01  2.085093E+02  3.369722E+03  3.474050E+02  7.060092E+01
       257  25 -1.820155E+04 -6.255928E+03 -6.436512E+03  3.299126E+03  3.390837E+02  3.840098E+02
       257  26 -1.417295E+04 -5.217567E+03 -5.213329E+03 -1.148720E+03  3.297162E+02  2.293012E+02
       257  27 -1.022577E+04 -4.157376E+03 -4.008310E+03  3.315453E+03  3.203803E+02  7.049078E+01
       258   1 -6.111278E+03 -3.193622E+03 -2.871051E+03  3.346067E+03 -4.235805E+02  2.301115E+01
       258   2 -1.012848E+04 -4.261084E+03 -3.519268E+03 -1.139522E+03 -7.571546E+02  1.804330E+02
       258   3 -1.408588E+04 -4.913693E+03 -3.864475E+03  3.285700E+03 -1.090693E+03  3.338794E+02
       258   4  6.702908E+03  9.429075E+00  3.297989E+02  3.370035E+03 -3.965784E+02  2.312135E+01
       258   5  6.673058E+03 -6.441786E+01  6.611135E+02 -1.085901E+03 -7.308289E+02  1.805393E+02
       258   6  6.703045E+03  2.766867E+02  1.295886E+03  3.368959E+03 -1.065046E+03  3.339818E+02
       258   7  1.951724E+04  3.212467E+03  3.530636E+03  3.394002E+03 -3.695757E+02  2.323155E+01
       258   8  2.347485E+04  4.132227E+03  4.841474E+03 -1.032278E+03 -7.045025E+02  1.806456E+02
       258   9  2.749236E+04  5.467034E+03  6.456216E+03  3.452221E+03 -1.039398E+03  3.340842E+02
       258  10 -6.111278E+03 -3.193622E+03 -2.871051E+03  3.346068E+03 -3.910799E-09 -4.908216E-09
       258  11 -1.012848E+04 -4.261084E+03 -3.519269E+03 -1.139522E+03 -4.626469E-10 -4.041943E-09
       258  12 -1.408588E+04 -4.913693E+03 -3.864478E+03  3.285700E+03 -2.459963E-09 -5.351542E-09
       258  13  6.702908E+03  9.429032E+00  3.297986E+02  3.370035E+03  1.088522E-09  5.811146E-10
       258  14  6.673058E+03 -6.441804E+01  6.611124E+02 -1.085901E+03  3.507131E-11 -9.346507E-09
       258  15  6.703043E+03  2.766863E+02  1.295884E+03  3.368960E+03  9.702443E-10 -5.208238E-09
       258  16  1.951724E+04  3.212467E+03  3.530636E+03  3.394002E+03  2.333182E-09 -6.472617E-09
       258  17  2.347485E+04  4.132227E+03  4.841473E+03 -1.032278E+03 -2.439122E-09 -2.127845E-08
       258  18  2.749236E+04  5.467033E+03  6.456214E+03  3.452221E+03  2.654351E-09 -1.227208E-08
       258  19 -6.111278E+03 -3.193622E+03 -2.871051E+03  3.346067E+03  4.235805E+02 -2.301115E+01
       258  20 -1.012848E+04 -4.261084E+03 -3.519268E+03 -1.139522E+03  7.571546E+02 -1.804330E+02
       258  21 -1.408588E+04 -4.913693E+03 -3.864475E+03  3.285700E+03  1.090693E+03 -3.338794E+02
       258  22  6.702908E+03  9.429074E+00  3.297989E+02  3.370035E+03  3.965784E+02 -2.312135E+01
       258  23  6.673058E+03 -6.441786E+01  6.611135E+02 -1.085901E+03  7.308289E+02 -1.805393E+02
       258  24  6.703045E+03  2.766867E+02  1.295886E+03  3.368959E+03  1.065046E+03 -3.339818E+02
       258  25  1.951724E+04  3.212467E+03  3.530636E+03  3.394002E+03  3.695757E+02 -2.323155E+01
       258  26  2.347485E+04  4.132227E+03  4.841474E+03 -1.032278E+03  7.045025E+02 -1.806456E+02
       258  27  2.749236E+04  5.467034E+03  6.456216E+03  3.452221E+03  1.039398E+03 -3.340842E+02
       259   1 -4.365410E+04 -1.264687E+04 -1.090807E+04  3.323439E+03 -1.364086E+03  4.302400E+02
       259   2 -4.802251E+04 -1.401590E+04 -1.075727E+04 -1.280671E+03 -2.794410E+03  5.871755E+02
       259   3 -5.163567E+04 -1.288173E+04 -9.061135E+03  3.027124E+03 -4.224591E+03  7.130778E+02
       259   4  6.857034E+03 -2.859932E+01  1.672285E+03  3.372173E+03 -1.334238E+03  4.303569E+02
       259   5  6.479189E+03 -4.020954E+02  2.803305E+03 -1.087089E+03 -2.769887E+03  5.872673E+02
       259   6  6.857493E+03  1.728427E+03  5.483267E+03  3.365505E+03 -4.205402E+03  7.131450E+02
       259   7  5.737048E+04  1.258948E+04  1.425245E+04  3.420910E+03 -1.304388E+03  4.304738E+02
       259   8  6.098358E+04  1.321149E+04  1.636366E+04 -8.934929E+02 -2.745362E+03  5.873590E+02
       259   9  6.535376E+04  1.633832E+04  2.002741E+04  3.703915E+03 -4.186211E+03  7.132123E+02
       259  10 -4.365410E+04 -1.264688E+04 -1.090808E+04  3.323439E+03 -6.419706E-09 -2.651047E-09
       259  11 -4.802252E+04 -1.401590E+04 -1.075728E+04 -1.280669E+03 -1.945016E-09 -6.210220E-09
       259  12 -5.163569E+04 -1.288173E+04 -9.061170E+03  3.027127E+03  4.050750E-10 -2.200267E-09
       259  13  6.857032E+03 -2.859999E+01  1.672281E+03  3.372174E+03  2.168508E-09 -3.723465E-09
       259  14  6.479181E+03 -4.020978E+02  2.803290E+03 -1.087088E+03  3.744772E-09  1.020114E-09
       259  15  6.857474E+03  1.728421E+03  5.483233E+03  3.365508E+03 -1.096185E-09  4.600532E-09
       259  16  5.737048E+04  1.258948E+04  1.425245E+04  3.420910E+03  4.860511E-09  3.568537E-09
       259  17  6.098357E+04  1.321148E+04  1.636364E+04 -8.934916E+02  1.286873E-10 -5.192734E-09
       259  18  6.535374E+04  1.633832E+04  2.002738E+04  3.703917E+03  8.811367E-10  1.607262E-08
       259  19 -4.365410E+04 -1.264687E+04 -1.090807E+04  3.323439E+03  1.364086E+03 -4.302400E+02
       259  20 -4.802251E+04 -1.401590E+04 -1.075727E+04 -1.280671E+03  2.794410E+03 -5.871755E+02
       259  21 -5.163567E+04 -1.288173E+04 -9.061135E+03  3.027124E+03  4.224591E+03 -7.130778E+02
       259  22  6.857034E+03 -2.859932E+01  1.672285E+03  3.372173E+03  1.334238E+03 -4.303569E+02
       259  23  6.479189E+03 -4.020954E+02  2.803305E+03 -1.087089E+03  2.769887E+03 -5.872673E+02
       259  24  6.857493E+03  1.728427E+03  5.483267E+03  3.365505E+03  4.205402E+03 -7.131450E+02
       259  25  5.737048E+04  1.258948E+04  1.425245E+04  3.420910E+03  1.304388E+03 -4.304738E+02
       259  26  6.098358E+04  1.321149E+04  1.636366E+04 -8.934929E+02  2.745362E+03 -5.873590E+02
       259  27  6.535376E+04  1.633832E+04  2.002741E+04  3.703915E+03  4.186211E+03 -7.132123E+02
       260   1 -8.048398E+04 -2.240050E+04 -1.510554E+04  3.798953E+03 -5.370627E+03  8.334400E+02
       260   2 -8.690715E+04 -2.568849E+04 -1.189141E+04 -1.633707E+03 -1.113492E+04  9.961184E+02
       260   3 -8.846927E+04 -1.256207E+04 -8.192460E+02  1.829471E+03 -1.689842E+04  9.528855E+02
       260   4  7.769319E+03 -3.598814E+02  6.864368E+03  3.380198E+03 -5.322951E+03  8.336150E+02
       260   5  5.336569E+03 -2.645290E+03  1.105805E+04 -1.087785E+03 -1.112259E+04  9.961470E+02
       260   6  7.770259E+03  1.148852E+04  2.313348E+04  3.339983E+03 -1.692149E+04  9.527632E+02
       260   7  9.602969E+04  2.168016E+04  2.883369E+04  2.961376E+03 -5.275268E+03  8.337900E+02
       260   8  9.758801E+04  2.039727E+04  3.400687E+04 -5.417892E+02 -1.111027E+04  9.961756E+02
       260   9  1.040182E+05  3.553843E+04  4.708552E+04  4.850722E+03 -1.694455E+04  9.526409E+02
       260  10 -8.048402E+04 -2.240051E+04 -1.510560E+04  3.798956E+03  3.956554E-09 -2.558507E-09
       260  11 -8.690729E+04 -2.568852E+04 -1.189165E+04 -1.633698E+03 -6.390971E-10  1.421352E-10
       260  12 -8.846958E+04 -1.256215E+04 -8.197844E+02  1.829484E+03 -3.352206E-09 -8.256327E-09
       260  13  7.769288E+03 -3.598897E+02  6.864313E+03  3.380201E+03 -1.069055E-09 -6.980902E-09
       260  14  5.336436E+03 -2.645324E+03  1.105781E+04 -1.087776E+03  5.047095E-10  2.046369E-09
       260  15  7.769951E+03  1.148844E+04  2.313294E+04  3.339996E+03 -2.113196E-09 -2.594780E-09
       260  16  9.602966E+04  2.168015E+04  2.883364E+04  2.961380E+03 -4.483481E-09 -1.022011E-09
       260  17  9.758788E+04  2.039724E+04  3.400664E+04 -5.417803E+02 -3.542368E-09 -1.786782E-08
       260  18  1.040179E+05  3.553835E+04  4.708498E+04  4.850735E+03  3.631242E-09  1.072201E-09
       260  19 -8.048398E+04 -2.240050E+04 -1.510554E+04  3.798953E+03  5.370627E+03 -8.334400E+02
       260  20 -8.690715E+04 -2.568849E+04 -1.189141E+04 -1.633707E+03  1.113492E+04 -9.961184E+02
       260  21 -8.846927E+04 -1.256207E+04 -8.192460E+02  1.829471E+03  1.689842E+04 -9.528855E+02
       260  22  7.769319E+03 -3.598814E+02  6.864368E+03  3.380198E+03  5.322951E+03 -8.336150E+02
       260  23  5.336569E+03 -2.645290E+03  1.105805E+04 -1.087785E+03  1.112259E+04 -9.961470E+02
       260  24  7.770259E+03  1.148852E+04  2.313348E+04  3.339983E+03  1.692149E+04 -9.527632E+02
       260  25  9.602969E+04  2.168016E+04  2.883369E+04  2.961376E+03  5.275268E+03 -8.337900E+02
       260  26  9.758801E+04  2.039727E+04  3.400687E+04 -5.417892E+02  1.111027E+04 -9.961756E+02
       260  27  1.040182E+05  3.553843E+04  4.708552E+04  4.850722E+03  1.694455E+04 -9.526409E+02
       261   1 -1.126217E+05 -3.408263E+04 -3.392734E+03  7.448640E+03 -2.170427E+04  1.240183E+03
       261   2 -1.318078E+05 -5.007746E+04  1.035717E+04 -3.640113E+03 -4.480458E+04  1.487016E+03
       261   3 -1.205881E+05  4.309126E+04  6.646292E+04 -5.980959E+03 -6.790026E+04  3.760624E+02
       261   4  1.345069E+04 -2.625459E+03  2.797670E+04  3.411563E+03 -2.153920E+04  1.240857E+03
       261   5 -1.767577E+03 -1.758177E+04  4.269548E+04 -1.074014E+03 -4.487195E+04  1.486627E+03
       261   6  1.345378E+04  7.665351E+04  9.992513E+04  3.188212E+03 -6.820024E+04  3.742439E+02
       261   7  1.395376E+05  2.883059E+04  5.934495E+04 -6.263448E+02 -2.137410E+04  1.241529E+03
       261   8  1.282880E+05  1.491268E+04  7.503253E+04  1.492611E+03 -4.493934E+04  1.486238E+03
       261   9  1.475121E+05  1.102147E+05  1.333860E+05  1.235935E+04 -6.850027E+04  3.724168E+02
       261  10 -1.126223E+05 -3.408276E+04 -3.393622E+03  7.448661E+03  4.487121E-10 -6.222022E-09
       261  11 -1.318099E+05 -5.007800E+04  1.035339E+04 -3.640059E+03  2.017710E-09 -1.315986E-09
       261  12 -1.205931E+05  4.309002E+04  6.645425E+04 -5.980938E+03  1.017552E-09  7.406842E-09
       261  13  1.345019E+04 -2.625585E+03  2.797582E+04  3.411585E+03 -1.074770E-09  2.824841E-10
       261  14 -1.769740E+03 -1.758231E+04  4.269169E+04 -1.073960E+03 -1.211244E-09  8.314678E-10
       261  15  1.344878E+04  7.665226E+04  9.991639E+04  3.188233E+03 -7.803182E-10  3.764767E-10
       261  16  1.395371E+05  2.883046E+04  5.934409E+04 -6.263234E+02 -2.545633E-09  4.551598E-09
       261  17  1.282858E+05  1.491213E+04  7.502873E+04  1.492665E+03 -1.338701E-09  7.913316E-09
       261  18  1.475071E+05  1.102135E+05  1.333772E+05  1.235937E+04  4.618050E-10  2.356832E-10
       261  19 -1.126217E+05 -3.408263E+04 -3.392734E+03  7.448640E+03  2.170427E+04 -1.240183E+03
       261  20 -1.318078E+05 -5.007746E+04  1.035717E+04 -3.640113E+03  4.480458E+04 -1.487016E+03
       261  21 -1.205881E+05  4.309126E+04  6.646292E+04 -5.980959E+03  6.790026E+04 -3.760624E+02
       261  22  1.345069E+04 -2.625459E+03  2.797670E+04  3.411563E+03  2.153920E+04 -1.240857E+03
       261  23 -1.767577E+03 -1.758177E+04  4.269548E+04 -1.074014E+03  4.487195E+04 -1.486627E+03
       261  24  1.345378E+04  7.665351E+04  9.992513E+04  3.188212E+03  6.820024E+04 -3.742439E+02
       261  25  1.395376E+05  2.883059E+04  5.934495E+04 -6.263448E+02  2.137410E+04 -1.241529E+03
       261  26  1.282880E+05  1.491268E+04  7.503253E+04  1.492611E+03  4.493934E+04 -1.486238E+03
       261  27  1.475121E+05  1.102147E+05  1.333860E+05  1.235935E+04  6.850027E+04 -3.724168E+02
       262   1 -2.478771E+05 -1.156177E+06 -2.850606E+05  8.106271E+04 -3.572426E+03 -1.228110E+05
       262   2 -6.735380E+04 -1.058257E+06 -1.674972E+05  2.216219E+04 -1.072294E+04 -7.498719E+04
       262   3 -6.638390E+04 -1.010963E+06 -1.259067E+05  2.263953E+04 -8.123658E+03 -2.713440E+04
       262   4 -1.393669E+05 -7.227210E+05 -1.776722E+05  3.964542E+04 -3.577621E+03 -1.174377E+05
       262   5  2.227474E+04 -6.977778E+05 -8.050510E+04  1.013201E+04 -1.072333E+04 -7.402756E+04
       262   6  5.185337E+03 -7.226658E+05 -5.620631E+04  3.999946E+04 -8.117209E+03 -3.059442E+04
       262   7 -3.086438E+04 -2.890902E+05 -7.029688E+04 -1.800775E+03 -3.583534E+03 -1.120606E+05
       262   8  1.118943E+05 -3.371793E+05  6.477772E+03 -1.905126E+03 -1.072376E+04 -7.306737E+04
       262   9  7.674966E+04 -4.342920E+05  1.348829E+04  5.736752E+04 -8.110956E+03 -3.405605E+04
       262  10 -2.478811E+05 -1.156193E+06 -2.850890E+05  8.106236E+04  1.799786E-09  1.221145E-09
       262  11 -6.735543E+04 -1.058263E+06 -1.675080E+05  2.216154E+04 -1.147047E-09 -7.070369E-10
       262  12 -6.638417E+04 -1.010964E+06 -1.259082E+05  2.263936E+04  2.894310E-09  5.089496E-09
       262  13 -1.393706E+05 -7.227359E+05 -1.776982E+05  3.964508E+04  2.334865E-09  6.166610E-11
       262  14  2.227314E+04 -6.977837E+05 -8.051562E+04  1.013137E+04 -1.182081E-09 -1.830797E-09
       262  15  5.185015E+03 -7.226668E+05 -5.620819E+04  3.999926E+04  3.801361E-09  4.185633E-09
       262  16 -3.086776E+04 -2.891037E+05 -7.032051E+04 -1.801098E+03 -4.282221E-10  1.599800E-09
       262  17  1.118927E+05 -3.371851E+05  6.467517E+03 -1.905757E+03  1.803644E-09  1.246505E-11
       262  18  7.674927E+04 -4.342933E+05  1.348599E+04  5.736730E+04  4.534435E-10 -1.023513E-08
       262  19 -2.478771E+05 -1.156177E+06 -2.850606E+05  8.106271E+04  3.572426E+03  1.228110E+05
       262  20 -6.735380E+04 -1.058257E+06 -1.674972E+05  2.216219E+04  1.072294E+04  7.498719E+04
       262  21 -6.638390E+04 -1.010963E+06 -1.259067E+05  2.263953E+04  8.123658E+03  2.713440E+04
       262  22 -1.393669E+05 -7.227210E+05 -1.776722E+05  3.964542E+04  3.577621E+03  1.174377E+05
       262  23  2.227474E+04 -6.977778E+05 -8.050510E+04  1.013201E+04  1.072333E+04  7.402756E+04
       262  24  5.185337E+03 -7.226658E+05 -5.620631E+04  3.999946E+04  8.117209E+03  3.059442E+04
       262  25 -3.086438E+04 -2.890902E+05 -7.029688E+04 -1.800775E+03  3.583534E+03  1.120606E+05
       262  26  1.118943E+05 -3.371793E+05  6.477772E+03 -1.905126E+03  1.072376E+04  7.306737E+04
       262  27  7.674966E+04 -4.342920E+05  1.348829E+04  5.736752E+04  8.110956E+03  3.405605E+04
       263   1 -5.919553E+04 -8.912966E+05 -9.258802E+04  4.638317E+04 -4.993683E+03 -2.055741E+04
       263   2 -2.100212E+04 -8.120001E+05 -6.225968E+04  1.013167E+04 -2.992352E+03 -1.248755E+03
       263   3 -2.075654E+04 -7.444000E+05 -5.393807E+04  3.442907E+04 -6.410245E+02  1.806226E+04
       263   4 -1.514603E+04 -7.141823E+05 -4.975665E+04  4.013844E+04 -4.991749E+03 -2.140981E+04
       263   5  4.756816E+03 -7.083447E+05 -3.721223E+04  9.866399E+03 -2.990422E+03 -2.256773E+03
       263   6 -1.325717E+04 -7.141791E+05 -4.656261E+04  4.014334E+04 -6.387699E+02  1.689637E+04
       263   7  2.890131E+04 -5.370392E+05 -6.927525E+03  3.389193E+04 -4.989797E+03 -2.226246E+04
       263   8  3.051497E+04 -6.046794E+05 -1.216554E+04  9.601087E+03 -2.988491E+03 -3.264959E+03
       263   9 -5.757730E+03 -6.839573E+05 -3.918720E+04  4.585790E+04 -6.365368E+02  1.573042E+04
       263  10 -5.919567E+04 -8.912971E+05 -9.258886E+04  4.638309E+04  2.027748E-09 -9.007037E-10
       263  11 -2.100213E+04 -8.120001E+05 -6.225970E+04  1.013167E+04 -5.161901E-09 -3.692762E-09
       263  12 -2.075663E+04 -7.444003E+05 -5.393868E+04  3.442908E+04  2.910826E-09  4.851775E-09
       263  13 -1.514618E+04 -7.141828E+05 -4.975756E+04  4.013835E+04  1.163427E-09  1.095796E-09
       263  14  4.756805E+03 -7.083447E+05 -3.721226E+04  9.866393E+03 -3.580668E-09 -1.715114E-09
       263  15 -1.325724E+04 -7.141794E+05 -4.656315E+04  4.014335E+04  4.469929E-10  1.207290E-09
       263  16  2.890115E+04 -5.370398E+05 -6.928504E+03  3.389184E+04  8.820141E-10  2.989821E-09
       263  17  3.051496E+04 -6.046794E+05 -1.216558E+04  9.601079E+03 -3.827550E-10  9.890023E-10
       263  18 -5.757797E+03 -6.839576E+05 -3.918767E+04  4.585790E+04 -6.325644E-10 -7.637094E-09
       263  19 -5.919553E+04 -8.912966E+05 -9.258802E+04  4.638317E+04  4.993683E+03  2.055741E+04
       263  20 -2.100212E+04 -8.120001E+05 -6.225968E+04  1.013167E+04  2.992352E+03  1.248755E+03
       263  21 -2.075654E+04 -7.444000E+05 -5.393807E+04  3.442907E+04  6.410245E+02 -1.806226E+04
       263  22 -1.514603E+04 -7.141823E+05 -4.975665E+04  4.013844E+04  4.991749E+03  2.140981E+04
       263  23  4.756816E+03 -7.083447E+05 -3.721223E+04  9.866399E+03  2.990422E+03  2.256773E+03
       263  24 -1.325717E+04 -7.141791E+05 -4.656261E+04  4.014334E+04  6.387699E+02 -1.689637E+04
       263  25  2.890131E+04 -5.370392E+05 -6.927525E+03  3.389193E+04  4.989797E+03  2.226246E+04
       263  26  3.051497E+04 -6.046794E+05 -1.216554E+04  9.601087E+03  2.988491E+03  3.264959E+03
       263  27 -5.757730E+03 -6.839573E+05 -3.918720E+04  4.585790E+04  6.365368E+02 -1.573042E+04
       264   1  2.442247E+04 -6.399701E+05 -3.192357E+04  5.589650E+04  1.954472E+03  2.795264E+04
       264   2  5.828066E+04 -5.446351E+05 -3.491750E+04 -4.078883E+02  4.625484E+03  6.432613E+04
       264   3 -6.636061E+04 -4.933316E+05 -1.011561E+05  3.464613E+03  1.679034E+03  1.006932E+05
       264   4  4.223501E+03 -7.214653E+05 -5.170372E+04  4.014821E+04  1.958326E+03  2.542153E+04
       264   5  1.983594E+04 -6.992398E+05 -7.219600E+04  9.930326E+03  4.626575E+03  6.434484E+04
       264   6 -1.235188E+05 -7.215105E+05 -1.577187E+05  3.989198E+04  1.679797E+03  1.032573E+05
       264   7 -1.597501E+04 -8.029540E+05 -7.148420E+04  2.440200E+04  1.962310E+03  2.289076E+04
       264   8 -1.861013E+04 -8.538224E+05 -1.094762E+05  2.026596E+04  4.627666E+03  6.436355E+04
       264   9 -1.806760E+05 -9.496392E+05 -2.142846E+05  7.630595E+04  1.680861E+03  1.058204E+05
       264  10  2.442225E+04 -6.399709E+05 -3.192504E+04  5.589645E+04  2.674585E-09 -5.803637E-10
       264  11  5.827953E+04 -5.446396E+05 -3.492532E+04 -4.081280E+02 -4.728007E-09 -2.387329E-09
       264  12 -6.636334E+04 -4.933425E+05 -1.011752E+05  3.464477E+03 -2.163513E-09  2.765680E-09
       264  13  4.223323E+03 -7.214660E+05 -5.170494E+04  4.014817E+04  1.850609E-09 -1.013340E-09
       264  14  1.983480E+04 -6.992443E+05 -7.220383E+04  9.930086E+03 -1.372752E-09 -5.344535E-09
       264  15 -1.235217E+05 -7.215219E+05 -1.577388E+05  3.989184E+04 -1.801312E-09  2.817853E-09
       264  16 -1.597516E+04 -8.029545E+05 -7.148519E+04  2.440197E+04 -4.943330E-10  1.247783E-10
       264  17 -1.861127E+04 -8.538269E+05 -1.094840E+05  2.026572E+04 -5.358337E-10 -6.944499E-10
       264  18 -1.806790E+05 -9.496513E+05 -2.143056E+05  7.630580E+04  1.995169E-09 -6.646403E-09
       264  19  2.442247E+04 -6.399701E+05 -3.192357E+04  5.589650E+04 -1.954472E+03 -2.795264E+04
       264  20  5.828066E+04 -5.446351E+05 -3.491750E+04 -4.078883E+02 -4.625484E+03 -6.432613E+04
       264  21 -6.636061E+04 -4.933316E+05 -1.011561E+05  3.464613E+03 -1.679034E+03 -1.006932E+05
       264  22  4.223501E+03 -7.214653E+05 -5.170372E+04  4.014821E+04 -1.958326E+03 -2.542153E+04
       264  23  1.983594E+04 -6.992398E+05 -7.219600E+04  9.930326E+03 -4.626575E+03 -6.434484E+04
       264  24 -1.235188E+05 -7.215105E+05 -1.577187E+05  3.989198E+04 -1.679797E+03 -1.032573E+05
       264  25 -1.597501E+04 -8.029540E+05 -7.148420E+04  2.440200E+04 -1.962310E+03 -2.289076E+04
       264  26 -1.861013E+04 -8.538224E+05 -1.094762E+05  2.026596E+04 -4.627666E+03 -6.436355E+04
       264  27 -1.806760E+05 -9.496392E+05 -2.142846E+05  7.630595E+04 -1.680861E+03 -1.058204E+05
       265   1  9.959994E+05  3.367469E+05  2.179565E+05  3.487881E+05  9.575421E+04  3.317725E+04
       265   2  9.615114E+05  1.883570E+05  1.264207E+05  3.557842E+05  6.240572E+04  1.463988E+04
       265   3  9.687985E+05  1.869291E+05  9.780278E+04  3.432457E+05  2.676042E+04  2.179523E+03
       265   4  7.441726E+05  2.130388E+05  1.437285E+05  2.508028E+05  9.221233E+04  3.183249E+04
       265   5  7.161118E+05  8.775756E+04  5.967381E+04  2.802638E+05  6.147399E+04  1.428617E+04
       265   6  7.293293E+05  1.089525E+05  3.648928E+04  2.901849E+05  2.843768E+04  2.814864E+03
       265   7  4.924110E+05  8.934938E+04  6.949502E+04  1.528583E+05  8.867204E+04  3.048875E+04
       265   8  4.707710E+05 -1.283492E+04 -7.078342E+03  2.047715E+05  6.054267E+04  1.393264E+04
       265   9  4.899145E+05  3.097589E+04 -2.482894E+04  2.371408E+05  3.011423E+04  3.450021E+03
       265  10  9.959893E+05  3.367432E+05  2.179372E+05  3.487856E+05  3.982036E-09  5.708532E-09
       265  11  9.615071E+05  1.883557E+05  1.264130E+05  3.557835E+05  4.704041E-10  5.058328E-09
       265  12  9.687977E+05  1.869289E+05  9.780143E+04  3.432456E+05 -4.818063E-09  5.633079E-09
       265  13  7.441633E+05  2.130354E+05  1.437107E+05  2.508004E+05  6.678199E-12 -6.245934E-09
       265  14  7.161077E+05  8.775633E+04  5.966633E+04  2.802631E+05 -1.933057E-09 -2.662482E-09
       265  15  7.293284E+05  1.089523E+05  3.648775E+04  2.901848E+05  4.021945E-10 -3.779526E-09
       265  16  4.924024E+05  8.934627E+04  6.947852E+04  1.528561E+05 -2.575748E-09 -4.210942E-09
       265  17  4.707670E+05 -1.283611E+04 -7.085588E+03  2.047708E+05  1.679288E-10 -5.355971E-09
       265  18  4.899136E+05  3.097563E+04 -2.483067E+04  2.371407E+05  1.142614E-10 -1.908756E-09
       265  19  9.959994E+05  3.367469E+05  2.179565E+05  3.487881E+05 -9.575421E+04 -3.317725E+04
       265  20  9.615114E+05  1.883570E+05  1.264207E+05  3.557842E+05 -6.240572E+04 -1.463988E+04
       265  21  9.687985E+05  1.869291E+05  9.780278E+04  3.432457E+05 -2.676042E+04 -2.179523E+03
       265  22  7.441726E+05  2.130388E+05  1.437285E+05  2.508028E+05 -9.221233E+04 -3.183249E+04
       265  23  7.161118E+05  8.775756E+04  5.967381E+04  2.802638E+05 -6.147399E+04 -1.428617E+04
       265  24  7.293293E+05  1.089525E+05  3.648928E+04  2.901849E+05 -2.843768E+04 -2.814864E+03
       265  25  4.924110E+05  8.934938E+04  6.949502E+04  1.528583E+05 -8.867204E+04 -3.048875E+04
       265  26  4.707710E+05 -1.283492E+04 -7.078342E+03  2.047715E+05 -6.054267E+04 -1.393264E+04
       265  27  4.899145E+05  3.097589E+04 -2.482894E+04  2.371408E+05 -3.011423E+04 -3.450021E+03
       266   1  9.194272E+05  2.008310E+05  8.229138E+04  3.378537E+05  2.264287E+04  2.211233E+03
       266   2  9.032369E+05  1.713317E+05  6.122550E+04  3.275054E+05  1.493365E+04 -3.697591E+02
       266   3  8.811802E+05  1.703585E+05  5.010803E+04  3.277599E+05  7.023325E+03 -2.419691E+03
       266   4  7.247684E+05  1.241706E+05  2.977016E+04  2.812029E+05  2.265124E+04  2.214128E+03
       266   5  7.268586E+05  1.038716E+05  1.410514E+04  2.781973E+05  1.517130E+04 -2.798785E+02
       266   6  7.230384E+05  1.120562E+05  8.209347E+03  2.857942E+05  7.489983E+03 -2.242910E+03
       266   7  5.301461E+05  4.751351E+04 -2.275444E+04  2.245684E+05  2.265960E+04  2.217022E+03
       266   8  5.505104E+05  3.641373E+04 -3.301788E+04  2.289019E+05  1.540887E+04 -1.900271E+02
       266   9  5.649210E+05  5.375524E+04 -3.369137E+04  2.438380E+05  7.956509E+03 -2.066177E+03
       266  10  9.194267E+05  2.008309E+05  8.229041E+04  3.378537E+05 -3.396311E-10 -3.447652E-09
       266  11  9.032367E+05  1.713316E+05  6.122508E+04  3.275054E+05  1.716738E-09 -6.743102E-09
       266  12  8.811801E+05  1.703585E+05  5.010792E+04  3.277599E+05 -1.687631E-09  2.634101E-09
       266  13  7.247679E+05  1.241705E+05  2.976919E+04  2.812029E+05 -1.772035E-09 -1.797534E-09
       266  14  7.268583E+05  1.038715E+05  1.410471E+04  2.781973E+05  3.340888E-09  1.388554E-08
       266  15  7.230383E+05  1.120561E+05  8.209232E+03  2.857942E+05 -1.629406E-09  4.332698E-10
       266  16  5.301456E+05  4.751336E+04 -2.275541E+04  2.245684E+05 -3.505189E-09 -5.738304E-09
       266  17  5.505102E+05  3.641367E+04 -3.301833E+04  2.289020E+05  9.364305E-10 -6.528174E-09
       266  18  5.649209E+05  5.375521E+04 -3.369150E+04  2.438380E+05  2.866229E-09  3.181961E-09
       266  19  9.194272E+05  2.008310E+05  8.229138E+04  3.378537E+05 -2.264287E+04 -2.211233E+03
       266  20  9.032369E+05  1.713317E+05  6.122550E+04  3.275054E+05 -1.493365E+04  3.697591E+02
       266  21  8.811802E+05  1.703585E+05  5.010803E+04  3.277599E+05 -7.023325E+03  2.419691E+03
       266  22  7.247684E+05  1.241706E+05  2.977016E+04  2.812029E+05 -2.265124E+04 -2.214128E+03
       266  23  7.268586E+05  1.038716E+05  1.410514E+04  2.781973E+05 -1.517130E+04  2.798785E+02
       266  24  7.230384E+05  1.120562E+05  8.209347E+03  2.857942E+05 -7.489983E+03  2.242910E+03
       266  25  5.301461E+05  4.751351E+04 -2.275444E+04  2.245684E+05 -2.265960E+04 -2.217022E+03
       266  26  5.505104E+05  3.641373E+04 -3.301788E+04  2.289019E+05 -1.540887E+04  1.900271E+02
       266  27  5.649210E+05  5.375524E+04 -3.369137E+04  2.438380E+05 -7.956509E+03  2.066177E+03
       267   1  8.471431E+05  1.611544E+05  3.964574E+04  3.192539E+05  5.773468E+03 -2.258476E+03
       267   2  8.337056E+05  1.458871E+05  3.145209E+04  3.072127E+05  3.777607E+03 -2.144146E+03
       267   3  8.087817E+05  1.448817E+05  2.503095E+04  3.087820E+05  1.766670E+03 -1.990619E+03
       267   4  7.224923E+05  1.137160E+05  6.440927E+03  2.846372E+05  6.089939E+03 -2.138582E+03
       267   5  7.281384E+05  1.058940E+05  3.316393E+03  2.780948E+05  4.111186E+03 -2.017715E+03
       267   6  7.222949E+05  1.123310E+05  1.951225E+03  2.851630E+05  2.117299E+03 -1.857669E+03
       267   7  5.978561E+05  6.627849E+04 -2.676533E+04  2.500268E+05  6.406342E+03 -2.018714E+03
       267   8  6.225818E+05  6.590156E+04 -2.482032E+04  2.489814E+05  4.444702E+03 -1.891308E+03
       267   9  6.358152E+05  7.978077E+04 -2.112916E+04  2.615470E+05  2.467874E+03 -1.724739E+03
       267  10  8.471431E+05  1.611544E+05  3.964567E+04  3.192539E+05  1.209855E-09 -4.232099E-10
       267  11  8.337056E+05  1.458871E+05  3.145206E+04  3.072127E+05  1.494046E-09 -8.022530E-09
       267  12  8.087817E+05  1.448817E+05  2.503094E+04  3.087820E+05 -5.962096E-09 -4.918913E-09
       267  13  7.224923E+05  1.137160E+05  6.440849E+03  2.846373E+05  2.516814E-09  4.471791E-10
       267  14  7.281384E+05  1.058940E+05  3.316354E+03  2.780948E+05  3.438841E-09 -1.544641E-08
       267  15  7.222949E+05  1.123310E+05  1.951210E+03  2.851630E+05 -1.772310E-09 -2.187055E-09
       267  16  5.978561E+05  6.627848E+04 -2.676541E+04  2.500268E+05 -8.733928E-10 -1.223238E-09
       267  17  6.225818E+05  6.590155E+04 -2.482036E+04  2.489814E+05  2.706421E-09  7.905765E-09
       267  18  6.358152E+05  7.978076E+04 -2.112917E+04  2.615470E+05  2.229386E-09  3.499303E-09
       267  19  8.471431E+05  1.611544E+05  3.964574E+04  3.192539E+05 -5.773468E+03  2.258476E+03
       267  20  8.337056E+05  1.458871E+05  3.145209E+04  3.072127E+05 -3.777607E+03  2.144146E+03
       267  21  8.087817E+05  1.448817E+05  2.503095E+04  3.087820E+05 -1.766670E+03  1.990619E+03
       267  22  7.224923E+05  1.137160E+05  6.440927E+03  2.846372E+05 -6.089939E+03  2.138582E+03
       267  23  7.281384E+05  1.058940E+05  3.316393E+03  2.780948E+05 -4.111186E+03  2.017715E+03
       267  24  7.222949E+05  1.123310E+05  1.951225E+03  2.851630E+05 -2.117299E+03  1.857669E+03
       267  25  5.978561E+05  6.627849E+04 -2.676533E+04  2.500268E+05 -6.406342E+03  2.018714E+03
       267  26  6.225818E+05  6.590156E+04 -2.482032E+04  2.489814E+05 -4.444702E+03  1.891308E+03
       267  27  6.358152E+05  7.978077E+04 -2.112916E+04  2.615470E+05 -2.467874E+03  1.724739E+03
       268   1  7.772210E+05  1.332903E+05  1.613384E+04  3.001561E+05  1.313654E+03 -1.624843E+03
       268   2  7.643234E+05  1.198253E+05  1.061044E+04  2.880714E+05  5.101158E+02 -1.026813E+03
       268   3  7.393723E+05  1.188227E+05  5.528272E+03  2.897282E+05 -2.937378E+02 -4.281049E+02
       268   4  7.222487E+05  1.124746E+05  1.553727E+03  2.849868E+05  1.650801E+03 -1.496981E+03
       268   5  7.282666E+05  1.061791E+05  1.002604E+03  2.781406E+05  8.475937E+02 -8.988103E+02
       268   6  7.222306E+05  1.123460E+05  8.925209E+02  2.850357E+05  4.405207E+01 -2.999647E+02
       268   7  6.672796E+05  9.165919E+04 -1.302661E+04  2.698188E+05  1.987915E+03 -1.369132E+03
       268   8  6.922112E+05  9.253294E+04 -8.605345E+03  2.682102E+05  1.185050E+03 -7.708153E+02
       268   9  7.050892E+05  1.058693E+05 -3.743268E+03  2.803434E+05  3.818325E+02 -1.718279E+02
       268  10  7.772209E+05  1.332903E+05  1.613383E+04  3.001561E+05  1.199252E-09  1.936354E-09
       268  11  7.643234E+05  1.198252E+05  1.061044E+04  2.880714E+05  6.423475E-09  8.532223E-10
       268  12  7.393723E+05  1.188227E+05  5.528272E+03  2.897282E+05  3.463535E-09 -4.503365E-09
       268  13  7.222487E+05  1.124746E+05  1.553718E+03  2.849868E+05 -1.777086E-09 -3.227705E-09
       268  14  7.282666E+05  1.061791E+05  1.002601E+03  2.781406E+05 -4.939985E-12  5.608232E-09
       268  15  7.222306E+05  1.123460E+05  8.925207E+02  2.850357E+05  2.407227E-09 -1.117316E-08
       268  16  6.672796E+05  9.165919E+04 -1.302662E+04  2.698188E+05 -4.898480E-09 -2.601669E-10
       268  17  6.922111E+05  9.253294E+04 -8.605349E+03  2.682102E+05 -8.581072E-10 -1.169598E-08
       268  18  7.050892E+05  1.058693E+05 -3.743268E+03  2.803434E+05  4.144163E-09  1.336945E-09
       268  19  7.772210E+05  1.332903E+05  1.613384E+04  3.001561E+05 -1.313654E+03  1.624843E+03
       268  20  7.643234E+05  1.198253E+05  1.061044E+04  2.880714E+05 -5.101158E+02  1.026813E+03
       268  21  7.393723E+05  1.188227E+05  5.528272E+03  2.897282E+05  2.937378E+02  4.281049E+02
       268  22  7.222487E+05  1.124746E+05  1.553727E+03  2.849868E+05 -1.650801E+03  1.496981E+03
       268  23  7.282666E+05  1.061791E+05  1.002604E+03  2.781406E+05 -8.475937E+02  8.988103E+02
       268  24  7.222306E+05  1.123460E+05  8.925209E+02  2.850357E+05 -4.405207E+01  2.999647E+02
       268  25  6.672796E+05  9.165919E+04 -1.302661E+04  2.698188E+05 -1.987915E+03  1.369132E+03
       268  26  6.922112E+05  9.253294E+04 -8.605345E+03  2.682102E+05 -1.185050E+03  7.708153E+02
       268  27  7.050892E+05  1.058693E+05 -3.743268E+03  2.803434E+05 -3.818325E+02  1.718279E+02
       269   1  7.082546E+05  1.070649E+05 -2.847924E+03  2.812317E+05 -6.200765E+02 -2.572804E+01
       269   2  6.953697E+05  9.372353E+04 -7.464020E+03  2.690886E+05 -1.571995E+03  5.165701E+02
       269   3  6.704953E+05  9.293583E+04 -1.150215E+04  2.706611E+05 -2.523478E+03  1.058050E+03
       269   4  7.222403E+05  1.123345E+05  9.444905E+02  2.850420E+05 -2.823714E+02  1.023811E+02
       269   5  7.282507E+05  1.061665E+05  1.297654E+03  2.781430E+05 -1.234691E+03  6.445101E+02
       269   6  7.222712E+05  1.125521E+05  2.229064E+03  2.849593E+05 -2.186597E+03  1.185814E+03
       269   7  7.362262E+05  1.176041E+05  4.736888E+03  2.888524E+05  5.534193E+01  2.304933E+02
       269   8  7.611326E+05  1.186095E+05  1.005922E+04  2.871977E+05 -8.973678E+02  7.724573E+02
       269   9  7.740496E+05  1.321685E+05  1.596001E+04  2.992585E+05 -1.849685E+03  1.313589E+03
       269  10  7.082546E+05  1.070649E+05 -2.847925E+03  2.812317E+05 -4.674671E-09 -1.219507E-08
       269  11  6.953697E+05  9.372353E+04 -7.464025E+03  2.690886E+05 -7.182823E-09 -1.434500E-08
       269  12  6.704953E+05  9.293583E+04 -1.150216E+04  2.706611E+05  1.254509E-09 -1.003338E-08
       269  13  7.222403E+05  1.123345E+05  9.444904E+02  2.850420E+05  2.514976E-09  1.231689E-08
       269  14  7.282507E+05  1.061665E+05  1.297650E+03  2.781430E+05  3.924227E-09 -5.215069E-09
       269  15  7.222712E+05  1.125521E+05  2.229052E+03  2.849593E+05  3.595037E-10 -5.480233E-09
       269  16  7.362262E+05  1.176041E+05  4.736888E+03  2.888524E+05  1.225308E-08  9.239049E-09
       269  17  7.611326E+05  1.186095E+05  1.005922E+04  2.871977E+05  6.261559E-09  7.548580E-09
       269  18  7.740496E+05  1.321685E+05  1.596000E+04  2.992585E+05  2.963247E-09  1.135016E-08
       269  19  7.082546E+05  1.070649E+05 -2.847924E+03  2.812317E+05  6.200765E+02  2.572804E+01
       269  20  6.953697E+05  9.372353E+04 -7.464020E+03  2.690886E+05  1.571995E+03 -5.165701E+02
       269  21  6.704953E+05  9.293583E+04 -1.150215E+04  2.706611E+05  2.523478E+03 -1.058050E+03
       269  22  7.222403E+05  1.123345E+05  9.444905E+02  2.850420E+05  2.823714E+02 -1.023811E+02
       269  23  7.282507E+05  1.061665E+05  1.297654E+03  2.781430E+05  1.234691E+03 -6.445101E+02
       269  24  7.222712E+05  1.125521E+05  2.229064E+03  2.849593E+05  2.186597E+03 -1.185814E+03
       269  25  7.362262E+05  1.176041E+05  4.736888E+03  2.888524E+05 -5.534193E+01 -2.304933E+02
       269  26  7.611326E+05  1.186095E+05  1.005922E+04  2.871977E+05  8.973678E+02 -7.724573E+02
       269  27  7.740496E+05  1.321685E+05  1.596001E+04  2.992585E+05  1.849685E+03 -1.313589E+03
       270   1  6.390201E+05  8.103758E+04 -1.936757E+04  2.625438E+05 -3.133309E+03  1.364032E+03
       270   2  6.257098E+05  6.697064E+04 -2.231124E+04  2.498600E+05 -5.951395E+03  1.210950E+03
       270   3  6.013864E+05  6.808473E+04 -2.262775E+04  2.505564E+05 -8.754383E+03  1.018803E+03
       270   4  7.223683E+05  1.123061E+05  2.859609E+03  2.851991E+05 -2.783065E+03  1.496840E+03
       270   5  7.280232E+05  1.057649E+05  4.966797E+03  2.781102E+05 -5.618283E+03  1.337210E+03
       270   6  7.226681E+05  1.144079E+05  9.714489E+03  2.844013E+05 -8.438484E+03  1.138485E+03
       270   7  8.057234E+05  1.435751E+05  2.508624E+04  3.078572E+05 -2.432769E+03  1.629668E+03
       270   8  8.303468E+05  1.445599E+05  3.224396E+04  3.063647E+05 -5.285109E+03  1.463493E+03
       270   9  8.439640E+05  1.607321E+05  4.205545E+04  3.182523E+05 -8.122517E+03  1.258193E+03
       270  10  6.390201E+05  8.103757E+04 -1.936759E+04  2.625438E+05 -3.169853E-09 -6.426402E-09
       270  11  6.257098E+05  6.697062E+04 -2.231131E+04  2.498600E+05 -3.088355E-09 -7.037560E-09
       270  12  6.013863E+05  6.808471E+04 -2.262790E+04  2.505564E+05 -2.806360E-09 -6.043920E-10
       270  13  7.223683E+05  1.123061E+05  2.859591E+03  2.851991E+05  2.282734E-09 -5.629777E-09
       270  14  7.280232E+05  1.057649E+05  4.966734E+03  2.781102E+05  6.593105E-09 -4.199031E-09
       270  15  7.226680E+05  1.144079E+05  9.714353E+03  2.844013E+05 -1.725616E-09 -7.269101E-09
       270  16  8.057234E+05  1.435751E+05  2.508622E+04  3.078572E+05  6.513129E-09 -3.890161E-09
       270  17  8.303467E+05  1.445599E+05  3.224390E+04  3.063647E+05  6.318162E-09  4.188240E-09
       270  18  8.439640E+05  1.607320E+05  4.205532E+04  3.182523E+05  1.464727E-10  6.327617E-09
       270  19  6.390201E+05  8.103758E+04 -1.936757E+04  2.625438E+05  3.133309E+03 -1.364032E+03
       270  20  6.257098E+05  6.697064E+04 -2.231124E+04  2.498600E+05  5.951395E+03 -1.210950E+03
       270  21  6.013864E+05  6.808473E+04 -2.262775E+04  2.505564E+05  8.754383E+03 -1.018803E+03
       270  22  7.223683E+05  1.123061E+05  2.859609E+03  2.851991E+05  2.783065E+03 -1.496840E+03
       270  23  7.280232E+05  1.057649E+05  4.966797E+03  2.781102E+05  5.618283E+03 -1.337210E+03
       270  24  7.226681E+05  1.144079E+05  9.714489E+03  2.844013E+05  8.438484E+03 -1.138485E+03
       270  25  8.057234E+05  1.435751E+05  2.508624E+04  3.078572E+05  2.432769E+03 -1.629668E+03
       270  26  8.303468E+05  1.445599E+05  3.224396E+04  3.063647E+05  5.285109E+03 -1.463493E+03
       270  27  8.439640E+05  1.607321E+05  4.205545E+04  3.182523E+05  8.122517E+03 -1.258193E+03
       271   1  5.681621E+05  5.536058E+04 -2.862538E+04  2.456876E+05 -1.090753E+04  8.357963E+02
       271   2  5.533117E+05  3.628096E+04 -2.491013E+04  2.296264E+05 -2.213227E+04 -2.470705E+03
       271   3  5.360499E+05  5.365291E+04 -6.602846E+03  2.221513E+05 -3.315802E+04 -6.300746E+03
       271   4  7.235404E+05  1.118489E+05  1.239524E+04  2.860988E+05 -1.044337E+04  1.011668E+03
       271   5  7.260342E+05  1.027678E+05  2.132417E+04  2.783323E+05 -2.189495E+04 -2.380966E+03
       271   6  7.261585E+05  1.301783E+05  4.502157E+04  2.791520E+05 -3.314792E+04 -6.297354E+03
       271   7  8.789415E+05  1.683382E+05  5.341370E+04  3.265188E+05 -9.979086E+03  1.187584E+03
       271   8  8.987854E+05  1.692567E+05  6.755584E+04  3.270506E+05 -2.165755E+04 -2.291197E+03
       271   9  9.163026E+05  2.067074E+05  9.664286E+04  3.361689E+05 -3.313782E+04 -6.293959E+03
       271  10  5.681620E+05  5.536054E+04 -2.862560E+04  2.456877E+05 -4.578296E-10  2.847046E-09
       271  11  5.533112E+05  3.628082E+04 -2.491106E+04  2.296263E+05  1.502170E-11 -3.345877E-09
       271  12  5.360487E+05  5.365257E+04 -6.604985E+03  2.221512E+05  3.015783E-09 -9.215301E-09
       271  13  7.235403E+05  1.118489E+05  1.239504E+04  2.860988E+05 -6.981758E-09 -1.782987E-09
       271  14  7.260337E+05  1.027676E+05  2.132326E+04  2.783323E+05  1.829645E-10 -1.286590E-09
       271  15  7.261573E+05  1.301780E+05  4.501943E+04  2.791518E+05 -1.803461E-09 -3.136917E-09
       271  16  8.789414E+05  1.683382E+05  5.341351E+04  3.265188E+05 -4.984060E-09  7.583466E-09
       271  17  8.987849E+05  1.692566E+05  6.755495E+04  3.270506E+05 -5.640707E-09  5.688157E-09
       271  18  9.163014E+05  2.067071E+05  9.664072E+04  3.361688E+05 -5.430847E-09  9.723685E-09
       271  19  5.681621E+05  5.536058E+04 -2.862538E+04  2.456876E+05  1.090753E+04 -8.357963E+02
       271  20  5.533117E+05  3.628096E+04 -2.491013E+04  2.296264E+05  2.213227E+04  2.470705E+03
       271  21  5.360499E+05  5.365291E+04 -6.602846E+03  2.221513E+05  3.315802E+04  6.300746E+03
       271  22  7.235404E+05  1.118489E+05  1.239524E+04  2.860988E+05  1.044337E+04 -1.011668E+03
       271  23  7.260342E+05  1.027678E+05  2.132417E+04  2.783323E+05  2.189495E+04  2.380966E+03
       271  24  7.261585E+05  1.301783E+05  4.502157E+04  2.791520E+05  3.314792E+04  6.297354E+03
       271  25  8.789415E+05  1.683382E+05  5.341370E+04  3.265188E+05  9.979086E+03 -1.187584E+03
       271  26  8.987854E+05  1.692567E+05  6.755584E+04  3.270506E+05  2.165755E+04  2.291197E+03
       271  27  9.163026E+05  2.067074E+05  9.664286E+04  3.361689E+05  3.313782E+04  6.293959E+03
       272   1  4.925045E+05  3.507597E+04 -5.213734E+03  2.458265E+05 -4.328121E+04 -8.558529E+03
       272   2  4.708176E+05 -2.373675E+04  2.444210E+04  2.036823E+05 -9.049464E+04 -2.539061E+04
       272   3  5.179124E+05  1.316484E+05  1.441387E+05  1.241886E+05 -1.354409E+05 -4.820909E+04
       272   4  7.331150E+05  1.070983E+05  5.518509E+04  2.926630E+05 -4.162505E+04 -7.930183E+03
       272   5  7.097144E+05  7.848356E+04  9.026434E+04  2.815515E+05 -9.141653E+04 -2.574178E+04
       272   6  7.555714E+05  2.645234E+05  2.173988E+05  2.330994E+05 -1.389411E+05 -4.954434E+04
       272   7  9.737819E+05  1.791199E+05  1.155798E+05  3.395134E+05 -3.996818E+04 -7.301693E+03
       272   8  9.486659E+05  1.807117E+05  1.560811E+05  3.594490E+05 -9.233880E+04 -2.609314E+04
       272   9  9.932876E+05  3.974242E+05  2.906530E+05  3.420534E+05 -1.424427E+05 -5.088073E+04
       272  10  4.925025E+05  3.507538E+04 -5.217388E+03  2.458262E+05  1.484257E-09 -5.029784E-09
       272  11  4.708086E+05 -2.373964E+04  2.442551E+04  2.036804E+05 -1.261136E-09  1.943866E-09
       272  12  5.178920E+05  1.316410E+05  1.440999E+05  1.241834E+05 -2.424332E-09 -8.960534E-10
       272  13  7.331131E+05  1.070978E+05  5.518172E+04  2.926627E+05 -4.075565E-10  3.770178E-10
       272  14  7.097053E+05  7.848061E+04  9.024741E+04  2.815496E+05 -2.219969E-09 -1.154002E-08
       272  15  7.555500E+05  2.645156E+05  2.173580E+05  2.330939E+05  1.839223E-09  7.728847E-11
       272  16  9.737802E+05  1.791194E+05  1.155767E+05  3.395132E+05 -4.356065E-09  4.852139E-09
       272  17  9.486566E+05  1.807087E+05  1.560638E+05  3.594471E+05  2.525386E-09 -1.042886E-08
       272  18  9.932651E+05  3.974159E+05  2.906101E+05  3.420476E+05  3.294635E-09 -6.042488E-09
       272  19  4.925045E+05  3.507597E+04 -5.213734E+03  2.458265E+05  4.328121E+04  8.558529E+03
       272  20  4.708176E+05 -2.373675E+04  2.444210E+04  2.036823E+05  9.049464E+04  2.539061E+04
       272  21  5.179124E+05  1.316484E+05  1.441387E+05  1.241886E+05  1.354409E+05  4.820909E+04
       272  22  7.331150E+05  1.070983E+05  5.518509E+04  2.926630E+05  4.162505E+04  7.930183E+03
       272  23  7.097144E+05  7.848356E+04  9.026434E+04  2.815515E+05  9.141653E+04  2.574178E+04
       272  24  7.555714E+05  2.645234E+05  2.173988E+05  2.330994E+05  1.389411E+05  4.954434E+04
       272  25  9.737819E+05  1.791199E+05  1.155798E+05  3.395134E+05  3.996818E+04  7.301693E+03
       272  26  9.486659E+05  1.807117E+05  1.560811E+05  3.594490E+05  9.233880E+04  2.609314E+04
       272  27  9.932876E+05  3.974242E+05  2.906530E+05  3.420534E+05  1.424427E+05  5.088073E+04
       273   1 -3.457890E+04 -6.784784E+05 -4.307985E+04  1.161118E+04 -1.069024E+02 -2.414717E+04
       273   2  7.187995E+02 -6.709644E+05 -2.258960E+04  4.491770E+03 -4.645986E+02 -1.399877E+04
       273   3 -3.070548E+03 -6.745365E+05 -1.848170E+04 -1.065817E+03 -4.176962E+02 -3.849109E+03
       273   4 -2.985286E+04 -6.597869E+05 -3.844254E+04  2.756179E+03 -1.072165E+02 -2.390488E+04
       273   5  4.885962E+03 -6.542551E+05 -1.855500E+04  2.016416E+03 -4.646998E+02 -1.394064E+04
       273   6  5.701556E+02 -6.597773E+05 -1.492152E+04  2.838655E+03 -4.173805E+02 -3.975190E+03
       273   7 -2.512656E+04 -6.410949E+05 -3.380520E+04 -6.099094E+03 -1.075375E+02 -2.366257E+04
       273   8  9.053126E+03 -6.375456E+05 -1.452042E+04 -4.590047E+02 -4.648015E+02 -1.388251E+04
       273   9  4.210901E+03 -6.450179E+05 -1.136133E+04  6.743222E+03 -4.170664E+02 -4.101274E+03
       273  10 -3.457906E+04 -6.784790E+05 -4.308095E+04  1.161118E+04 -2.970063E-09 -6.830989E-09
       273  11  7.187466E+02 -6.709646E+05 -2.258997E+04  4.491765E+03 -3.173973E-09 -5.740716E-09
       273  12 -3.070553E+03 -6.745365E+05 -1.848173E+04 -1.065819E+03  1.577965E-09 -4.289597E-09
       273  13 -2.985302E+04 -6.597875E+05 -3.844361E+04  2.756177E+03 -1.666297E-09  4.362948E-09
       273  14  4.885909E+03 -6.542553E+05 -1.855536E+04  2.016411E+03 -1.416881E-09  5.788485E-09
       273  15  5.701511E+02 -6.597773E+05 -1.492155E+04  2.838654E+03  4.086709E-09 -5.342997E-09
       273  16 -2.512671E+04 -6.410955E+05 -3.380626E+04 -6.099096E+03 -1.235044E-09  8.691121E-09
       273  17  9.053074E+03 -6.375458E+05 -1.452078E+04 -4.590099E+02 -1.149913E-09 -2.341274E-09
       273  18  4.210897E+03 -6.450179E+05 -1.136137E+04  6.743220E+03 -3.414371E-11  1.805822E-09
       273  19 -3.457890E+04 -6.784784E+05 -4.307985E+04  1.161118E+04  1.069024E+02  2.414717E+04
       273  20  7.187995E+02 -6.709644E+05 -2.258960E+04  4.491770E+03  4.645986E+02  1.399877E+04
       273  21 -3.070548E+03 -6.745365E+05 -1.848170E+04 -1.065817E+03  4.176962E+02  3.849109E+03
       273  22 -2.985286E+04 -6.597869E+05 -3.844254E+04  2.756179E+03  1.072165E+02  2.390488E+04
       273  23  4.885962E+03 -6.542551E+05 -1.855500E+04  2.016416E+03  4.646998E+02  1.394064E+04
       273  24  5.701556E+02 -6.597773E+05 -1.492152E+04  2.838655E+03  4.173805E+02  3.975190E+03
       273  25 -2.512656E+04 -6.410949E+05 -3.380520E+04 -6.099094E+03  1.075375E+02  2.366257E+04
       273  26  9.053126E+03 -6.375456E+05 -1.452042E+04 -4.590047E+02  4.648015E+02  1.388251E+04
       273  27  4.210901E+03 -6.450179E+05 -1.136133E+04  6.743222E+03  4.170664E+02  4.101274E+03
       274   1 -5.886356E+03 -6.700065E+05 -1.725346E+04  4.825334E+03 -3.195816E+02 -1.406357E+03
       274   2 -5.376747E+02 -6.656716E+05 -1.676543E+04  1.710217E+03 -2.942944E+02  6.038621E+03
       274   3 -9.815344E+03 -6.659532E+05 -2.478232E+04  2.507481E+02 -2.366601E+02  1.348369E+04
       274   4 -2.975504E+03 -6.583481E+05 -1.443002E+04  2.835135E+03 -3.195411E+02 -1.419633E+03
       274   5  1.852902E+03 -6.560422E+05 -1.443928E+04  2.000676E+03 -2.942162E+02  6.010690E+03
       274   6 -7.942393E+03 -6.583504E+05 -2.294319E+04  2.821872E+03 -2.364898E+02  1.344108E+04
       274   7 -6.464720E+01 -6.466895E+05 -1.160658E+04  8.448991E+02 -3.195005E+02 -1.432909E+03
       274   8  4.243473E+03 -6.464128E+05 -1.211313E+04  2.291139E+03 -2.941380E+02  5.982758E+03
       274   9 -6.069422E+03 -6.507475E+05 -2.110406E+04  5.393028E+03 -2.363198E+02  1.339847E+04
       274  10 -5.886357E+03 -6.700065E+05 -1.725347E+04  4.825334E+03  2.053852E-09 -7.273327E-09
       274  11 -5.376846E+02 -6.656716E+05 -1.676550E+04  1.710218E+03  2.216952E-10 -6.670094E-09
       274  12 -9.815393E+03 -6.659534E+05 -2.478267E+04  2.507507E+02  3.311825E-09 -2.172424E-09
       274  13 -2.975505E+03 -6.583481E+05 -1.443002E+04  2.835135E+03  6.006495E-10 -4.310608E-09
       274  14  1.852892E+03 -6.560423E+05 -1.443934E+04  2.000677E+03 -1.093713E-09  5.567862E-09
       274  15 -7.942442E+03 -6.583506E+05 -2.294353E+04  2.821875E+03  5.415770E-10 -1.419777E-08
       274  16 -6.464786E+01 -6.466895E+05 -1.160659E+04  8.448988E+02 -1.973591E-10  1.128927E-08
       274  17  4.243463E+03 -6.464129E+05 -1.211320E+04  2.291141E+03 -1.173539E-09  1.712449E-09
       274  18 -6.069470E+03 -6.507477E+05 -2.110439E+04  5.393030E+03  2.279046E-09  3.511853E-10
       274  19 -5.886356E+03 -6.700065E+05 -1.725346E+04  4.825334E+03  3.195816E+02  1.406357E+03
       274  20 -5.376747E+02 -6.656716E+05 -1.676543E+04  1.710217E+03  2.942944E+02 -6.038621E+03
       274  21 -9.815344E+03 -6.659532E+05 -2.478232E+04  2.507481E+02  2.366601E+02 -1.348369E+04
       274  22 -2.975504E+03 -6.583481E+05 -1.443002E+04  2.835135E+03  3.195411E+02  1.419633E+03
       274  23  1.852902E+03 -6.560422E+05 -1.443928E+04  2.000676E+03  2.942162E+02 -6.010690E+03
       274  24 -7.942393E+03 -6.583504E+05 -2.294319E+04  2.821872E+03  2.364898E+02 -1.344108E+04
       274  25 -6.464720E+01 -6.466895E+05 -1.160658E+04  8.448991E+02  3.195005E+02  1.432909E+03
       274  26  4.243473E+03 -6.464128E+05 -1.211313E+04  2.291139E+03  2.941380E+02 -5.982758E+03
       274  27 -6.069422E+03 -6.507475E+05 -2.110406E+04  5.393028E+03  2.363198E+02 -1.339847E+04
       275   1  2.019194E+03 -6.674809E+05 -2.803006E+04  1.200079E+04 -1.926964E+02  1.779537E+04
       275   2  1.091638E+04 -6.526081E+05 -4.127360E+04 -3.898072E+03 -1.747329E+02  3.976742E+04
       275   3 -7.199334E+04 -6.635457E+05 -9.178102E+04 -1.827373E+04 -1.790913E+02  6.173929E+04
       275   4  3.178575E+03 -6.630555E+05 -2.695385E+04  2.867851E+03 -1.928512E+02  1.775535E+04
       275   5  1.148499E+04 -6.501613E+05 -4.068955E+04  2.006130E+03 -1.742731E+02  3.973716E+04
       275   6 -7.201788E+04 -6.630795E+05 -9.169600E+04  2.667119E+03 -1.769517E+02  6.171872E+04
       275   7  4.338269E+03 -6.586299E+05 -2.587759E+04 -6.265149E+03 -1.930049E+02  1.771534E+04
       275   8  1.205373E+04 -6.477143E+05 -4.010549E+04  7.910356E+03 -1.738140E+02  3.970690E+04
       275   9 -7.204077E+04 -6.626123E+05 -9.161074E+04  2.360798E+04 -1.748134E+02  6.169815E+04
       275  10  2.019108E+03 -6.674812E+05 -2.803066E+04  1.200079E+04  1.509120E-09 -6.446562E-09
       275  11  1.091595E+04 -6.526098E+05 -4.127657E+04 -3.898066E+03 -2.507486E-09  6.720711E-11
       275  12 -7.199436E+04 -6.635498E+05 -9.178820E+04 -1.827372E+04 -1.682362E-09  5.770334E-10
       275  13  3.178490E+03 -6.630558E+05 -2.695444E+04  2.867854E+03  2.810181E-09  7.871649E-11
       275  14  1.148456E+04 -6.501630E+05 -4.069252E+04  2.006136E+03  9.243593E-11  7.905293E-09
       275  15 -7.201890E+04 -6.630836E+05 -9.170317E+04  2.667128E+03 -1.905767E-09 -8.779351E-09
       275  16  4.338184E+03 -6.586303E+05 -2.587818E+04 -6.265146E+03  1.969555E-09  5.143026E-09
       275  17  1.205330E+04 -6.477160E+05 -4.010845E+04  7.910362E+03 -6.374220E-10 -6.949226E-09
       275  18 -7.204179E+04 -6.626164E+05 -9.161790E+04  2.360799E+04 -1.608532E-09 -1.855336E-09
       275  19  2.019194E+03 -6.674809E+05 -2.803006E+04  1.200079E+04  1.926964E+02 -1.779537E+04
       275  20  1.091638E+04 -6.526081E+05 -4.127360E+04 -3.898072E+03  1.747329E+02 -3.976742E+04
       275  21 -7.199334E+04 -6.635457E+05 -9.178102E+04 -1.827373E+04  1.790913E+02 -6.173929E+04
       275  22  3.178575E+03 -6.630555E+05 -2.695385E+04  2.867851E+03  1.928512E+02 -1.775535E+04
       275  23  1.148499E+04 -6.501613E+05 -4.068955E+04  2.006130E+03  1.742731E+02 -3.973716E+04
       275  24 -7.201788E+04 -6.630795E+05 -9.169600E+04  2.667119E+03  1.769517E+02 -6.171872E+04
       275  25  4.338269E+03 -6.586299E+05 -2.587759E+04 -6.265149E+03  1.930049E+02 -1.771534E+04
       275  26  1.205373E+04 -6.477143E+05 -4.010549E+04  7.910356E+03  1.738140E+02 -3.970690E+04
       275  27 -7.204077E+04 -6.626123E+05 -9.161074E+04  2.360798E+04  1.748134E+02 -6.169815E+04
       276   1  5.480509E+05  1.938815E+04  4.368950E+04  1.704818E+03  7.039314E+04  1.135907E+03
       276   2  5.417439E+05 -7.611207E+04 -1.320503E+04  5.838635E+03  4.655136E+04  2.957576E+03
       276   3  5.674958E+05 -5.820018E+04 -2.610982E+04 -1.176310E+04  2.271224E+04  2.295878E+03
       276   4  7.895683E+05  7.966130E+04  1.039035E+05 -7.240248E+03  7.093360E+04  1.135734E+03
       276   5  7.735212E+05 -1.827933E+04  4.437827E+04  3.694371E+03  4.666594E+04  2.957475E+03
       276   6  7.895948E+05 -2.756721E+03  2.912605E+04 -7.105989E+03  2.240130E+04  2.295734E+03
       276   7  1.031139E+06  1.399304E+05  1.641133E+05 -1.618881E+04  7.147427E+04  1.135546E+03
       276   8  1.005347E+06  3.954939E+04  1.019576E+05  1.549291E+03  4.678055E+04  2.957373E+03
       276   9  1.011739E+06  5.268312E+04  8.435823E+04 -2.447223E+03  2.209025E+04  2.295584E+03
       276  10  5.480456E+05  1.938682E+04  4.368019E+04  1.704754E+03  1.186859E-11  6.070150E-11
       276  11  5.417416E+05 -7.611266E+04 -1.320911E+04  5.838524E+03 -1.012883E-09  1.390195E-10
       276  12  5.674952E+05 -5.820033E+04 -2.611080E+04 -1.176314E+04 -5.394317E-10  8.829938E-11
       276  13  7.895629E+05  7.965995E+04  1.038941E+05 -7.240313E+03  9.406852E-10  8.409665E-11
       276  14  7.735188E+05 -1.827992E+04  4.437417E+04  3.694260E+03 -2.824593E-10  3.653548E-11
       276  15  7.895942E+05 -2.756862E+03  2.912510E+04 -7.106030E+03 -1.063618E-09 -1.526399E-11
       276  16  1.031133E+06  1.399290E+05  1.641037E+05 -1.618888E+04 -1.593209E-10  1.282175E-10
       276  17  1.005345E+06  3.954880E+04  1.019534E+05  1.549179E+03  6.398356E-10  1.377268E-10
       276  18  1.011738E+06  5.268298E+04  8.435731E+04 -2.447264E+03  2.210676E-10 -8.449722E-11
       276  19  5.480509E+05  1.938815E+04  4.368950E+04  1.704818E+03 -7.039314E+04 -1.135907E+03
       276  20  5.417439E+05 -7.611207E+04 -1.320503E+04  5.838635E+03 -4.655136E+04 -2.957576E+03
       276  21  5.674958E+05 -5.820018E+04 -2.610982E+04 -1.176310E+04 -2.271224E+04 -2.295878E+03
       276  22  7.895683E+05  7.966130E+04  1.039035E+05 -7.240248E+03 -7.093360E+04 -1.135734E+03
       276  23  7.735212E+05 -1.827933E+04  4.437827E+04  3.694371E+03 -4.666594E+04 -2.957475E+03
       276  24  7.895948E+05 -2.756721E+03  2.912605E+04 -7.105989E+03 -2.240130E+04 -2.295734E+03
       276  25  1.031139E+06  1.399304E+05  1.641133E+05 -1.618881E+04 -7.147427E+04 -1.135546E+03
       276  26  1.005347E+06  3.954939E+04  1.019576E+05  1.549291E+03 -4.678055E+04 -2.957373E+03
       276  27  1.011739E+06  5.268312E+04  8.435823E+04 -2.447223E+03 -2.209025E+04 -2.295584E+03
       277   1  6.252084E+05 -2.763656E+04 -1.530939E+04 -4.873747E+03  1.756051E+04  1.697104E+03
       277   2  6.302137E+05 -4.037148E+04 -2.595312E+04  2.689977E+03  1.156627E+04  1.691971E+03
       277   3  6.404876E+05 -3.612336E+04 -2.840214E+04 -6.804902E+03  5.571966E+03  1.374160E+03
       277   4  7.836298E+05  1.189913E+04  2.408021E+04 -6.113332E+03  1.758960E+04  1.697059E+03
       277   5  7.809933E+05 -2.742875E+03  1.152781E+04  2.419605E+03  1.154142E+04  1.691930E+03
       277   6  7.836335E+05 -3.947226E+02  7.206069E+03 -6.105792E+03  5.493251E+03  1.374139E+03
       277   7  9.420740E+05  5.143294E+04  6.346793E+04 -7.353237E+03  1.761869E+04  1.697013E+03
       277   8  9.317935E+05  3.488402E+04  4.900704E+04  2.149165E+03  1.151656E+04  1.691889E+03
       277   9  9.267979E+05  3.533238E+04  4.281274E+04 -5.406520E+03  5.414518E+03  1.374117E+03
       277  10  6.252081E+05 -2.763664E+04 -1.530997E+04 -4.873771E+03 -5.408590E-10 -1.212811E-10
       277  11  6.302135E+05 -4.037152E+04 -2.595337E+04  2.689961E+03 -7.643517E-10  1.471134E-10
       277  12  6.404876E+05 -3.612337E+04 -2.840220E+04 -6.804909E+03 -1.166280E-10 -1.899311E-11
       277  13  7.836295E+05  1.189904E+04  2.407963E+04 -6.113356E+03 -1.721362E-10 -1.075467E-12
       277  14  7.809931E+05 -2.742913E+03  1.152756E+04  2.419589E+03  9.062237E-11 -8.635288E-11
       277  15  7.836335E+05 -3.947327E+02  7.206009E+03 -6.105798E+03 -7.607748E-10 -5.119924E-11
       277  16  9.420736E+05  5.143285E+04  6.346735E+04 -7.353261E+03 -3.453932E-10 -1.427665E-10
       277  17  9.317933E+05  3.488398E+04  4.900679E+04  2.149149E+03  5.177051E-10  2.230376E-10
       277  18  9.267979E+05  3.533237E+04  4.281268E+04 -5.406526E+03  3.193491E-10  2.205303E-11
       277  19  6.252084E+05 -2.763656E+04 -1.530939E+04 -4.873747E+03 -1.756051E+04 -1.697104E+03
       277  20  6.302137E+05 -4.037148E+04 -2.595312E+04  2.689977E+03 -1.156627E+04 -1.691971E+03
       277  21  6.404876E+05 -3.612336E+04 -2.840214E+04 -6.804902E+03 -5.571966E+03 -1.374160E+03
       277  22  7.836298E+05  1.189913E+04  2.408021E+04 -6.113332E+03 -1.758960E+04 -1.697059E+03
       277  23  7.809933E+05 -2.742875E+03  1.152781E+04  2.419605E+03 -1.154142E+04 -1.691930E+03
       277  24  7.836335E+05 -3.947226E+02  7.206069E+03 -6.105792E+03 -5.493251E+03 -1.374139E+03
       277  25  9.420740E+05  5.143294E+04  6.346793E+04 -7.353237E+03 -1.761869E+04 -1.697013E+03
       277  26  9.317935E+05  3.488402E+04  4.900704E+04  2.149165E+03 -1.151656E+04 -1.691889E+03
       277  27  9.267979E+05  3.533238E+04  4.281274E+04 -5.406520E+03 -5.414518E+03 -1.374117E+03
       278   1  6.911678E+05 -2.106842E+04 -1.694883E+04 -5.304383E+03  4.353879E+03  1.158157E+03
       278   2  6.970994E+05 -2.165364E+04 -1.811371E+04  1.690330E+03  2.798072E+03  9.271940E+02
       278   3  7.039373E+05 -1.968800E+04 -1.761549E+04 -5.571208E+03  1.242179E+03  6.837048E+02
       278   4  7.826655E+05  1.762102E+03  5.780300E+03 -5.485207E+03  4.316514E+03  1.158146E+03
       278   5  7.822122E+05 -4.130320E+02  3.045678E+03  1.642826E+03  2.758398E+03  9.271928E+02
       278   6  7.826656E+05 -3.708309E+01  1.975617E+03 -5.485272E+03  1.200210E+03  6.837135E+02
       278   7  8.741708E+05  2.459200E+04  2.850880E+04 -5.666057E+03  4.279144E+03  1.158135E+03
       278   8  8.673316E+05  2.082703E+04  2.420453E+04  1.595315E+03  2.718717E+03  9.271916E+02
       278   9  8.613995E+05  1.961337E+04  2.156626E+04 -5.399324E+03  1.158236E+03  6.837222E+02
       278  10  6.911678E+05 -2.106843E+04 -1.694887E+04 -5.304387E+03 -3.841726E-11 -1.089728E-10
       278  11  6.970994E+05 -2.165364E+04 -1.811373E+04  1.690328E+03 -1.732264E-10  9.133463E-11
       278  12  7.039373E+05 -1.968800E+04 -1.761549E+04 -5.571209E+03 -4.808146E-10 -1.134823E-10
       278  13  7.826655E+05  1.762096E+03  5.780263E+03 -5.485211E+03 -3.392854E-11 -2.669505E-11
       278  14  7.822122E+05 -4.130349E+02  3.045662E+03  1.642824E+03  2.777363E-10 -8.320295E-11
       278  15  7.826656E+05 -3.708398E+01  1.975613E+03 -5.485272E+03  7.980228E-10 -4.577795E-11
       278  16  8.741708E+05  2.459199E+04  2.850877E+04 -5.666061E+03  4.245152E-11  3.341258E-11
       278  17  8.673316E+05  2.082703E+04  2.420451E+04  1.595313E+03 -2.309407E-10  2.331505E-10
       278  18  8.613995E+05  1.961337E+04  2.156626E+04 -5.399325E+03  2.694981E-10 -1.789381E-10
       278  19  6.911678E+05 -2.106842E+04 -1.694883E+04 -5.304383E+03 -4.353879E+03 -1.158157E+03
       278  20  6.970994E+05 -2.165364E+04 -1.811371E+04  1.690330E+03 -2.798072E+03 -9.271940E+02
       278  21  7.039373E+05 -1.968800E+04 -1.761549E+04 -5.571208E+03 -1.242179E+03 -6.837048E+02
       278  22  7.826655E+05  1.762102E+03  5.780300E+03 -5.485207E+03 -4.316514E+03 -1.158146E+03
       278  23  7.822122E+05 -4.130320E+02  3.045678E+03  1.642826E+03 -2.758398E+03 -9.271928E+02
       278  24  7.826656E+05 -3.708309E+01  1.975617E+03 -5.485272E+03 -1.200210E+03 -6.837135E+02
       278  25  8.741708E+05  2.459200E+04  2.850880E+04 -5.666057E+03 -4.279144E+03 -1.158135E+03
       278  26  8.673316E+05  2.082703E+04  2.420453E+04  1.595315E+03 -2.718717E+03 -9.271916E+02
       278  27  8.613995E+05  1.961337E+04  2.156626E+04 -5.399324E+03 -1.158236E+03 -6.837222E+02
       279   1  7.486201E+05 -8.196429E+03 -6.753996E+03 -5.149305E+03  9.114302E+02  5.402632E+02
       279   2  7.543014E+05 -7.097740E+03 -5.777625E+03  1.283419E+03  3.016972E+02  3.043849E+02
       279   3  7.601852E+05 -5.481954E+03 -4.276647E+03 -5.201237E+03 -3.080769E+02  7.644215E+01
       279   4  7.825107E+05  2.572638E+02  1.652361E+03 -5.187658E+03  8.710904E+02  5.402770E+02
       279   5  7.824095E+05 -8.332490E+01  1.210134E+03  1.270986E+03  2.626636E+02  3.044011E+02
       279   6  7.825104E+05  9.292274E+01  1.291569E+03 -5.187713E+03 -3.457986E+02  7.646052E+01
       279   7  8.164023E+05  8.710870E+03  1.005863E+04 -5.226013E+03  8.307485E+02  5.402909E+02
       279   8  8.105183E+05  6.931031E+03  8.197833E+03  1.258552E+03  2.236283E+02  3.044173E+02
       279   9  8.048362E+05  5.667762E+03  6.859747E+03 -5.174189E+03 -3.835216E+02  7.647889E+01
       279  10  7.486201E+05 -8.196429E+03 -6.753998E+03 -5.149305E+03 -1.764419E-10  1.795042E-10
       279  11  7.543014E+05 -7.097740E+03 -5.777626E+03  1.283419E+03 -5.356413E-11  1.847926E-10
       279  12  7.601852E+05 -5.481954E+03 -4.276647E+03 -5.201237E+03  5.071948E-10 -1.127574E-10
       279  13  7.825107E+05  2.572632E+02  1.652359E+03 -5.187658E+03 -1.691905E-10 -5.718965E-11
       279  14  7.824095E+05 -8.332501E+01  1.210133E+03  1.270986E+03 -1.699029E-10  2.173595E-10
       279  15  7.825104E+05  9.292270E+01  1.291569E+03 -5.187713E+03  2.399096E-10  2.196373E-11
       279  16  8.164023E+05  8.710870E+03  1.005863E+04 -5.226013E+03  4.066161E-10 -2.215909E-10
       279  17  8.105183E+05  6.931030E+03  8.197833E+03  1.258552E+03  4.984307E-10  5.883911E-11
       279  18  8.048362E+05  5.667762E+03  6.859747E+03 -5.174189E+03 -4.275927E-10 -6.824044E-11
       279  19  7.486201E+05 -8.196429E+03 -6.753996E+03 -5.149305E+03 -9.114302E+02 -5.402632E+02
       279  20  7.543014E+05 -7.097740E+03 -5.777625E+03  1.283419E+03 -3.016972E+02 -3.043849E+02
       279  21  7.601852E+05 -5.481954E+03 -4.276647E+03 -5.201237E+03  3.080769E+02 -7.644215E+01
       279  22  7.825107E+05  2.572638E+02  1.652361E+03 -5.187658E+03 -8.710904E+02 -5.402770E+02
       279  23  7.824095E+05 -8.332490E+01  1.210134E+03  1.270986E+03 -2.626636E+02 -3.044011E+02
       279  24  7.825104E+05  9.292274E+01  1.291569E+03 -5.187713E+03  3.457986E+02 -7.646052E+01
       279  25  8.164023E+05  8.710870E+03  1.005863E+04 -5.226013E+03 -8.307485E+02 -5.402909E+02
       279  26  8.105183E+05  6.931031E+03  8.197833E+03  1.258552E+03 -2.236283E+02 -3.044173E+02
       279  27  8.048362E+05  5.667762E+03  6.859747E+03 -5.174189E+03  3.835216E+02 -7.647889E+01
       280   1  8.028140E+05  5.082350E+03  6.500245E+03 -5.145491E+03 -5.560520E+02 -5.352405E+01
       280   2  8.083959E+05  6.333830E+03  8.537790E+03  1.248195E+03 -1.596029E+03 -2.814243E+02
       280   3  8.143584E+05  8.596947E+03  1.150310E+04 -5.250447E+03 -2.635993E+03 -5.162577E+02
       280   4  7.825502E+05  2.208777E+01  1.444654E+03 -5.182241E+03 -5.938625E+02 -5.350548E+01
       280   5  7.823596E+05 -1.633279E+02  2.065335E+03  1.264067E+03 -1.634968E+03 -2.814079E+02
       280   6  7.825499E+05  6.631189E+02  3.614596E+03 -5.181986E+03 -2.676050E+03 -5.162436E+02
       280   7  7.622868E+05 -5.038205E+03 -3.610969E+03 -5.218990E+03 -6.316717E+02 -5.348691E+01
       280   8  7.563240E+05 -6.660536E+03 -4.407171E+03  1.279938E+03 -1.673905E+03 -2.813915E+02
       280   9  7.507424E+05 -7.270785E+03 -4.273982E+03 -5.113529E+03 -2.716104E+03 -5.162295E+02
       280  10  8.028140E+05  5.082350E+03  6.500245E+03 -5.145491E+03  5.095612E-10 -4.326394E-11
       280  11  8.083959E+05  6.333829E+03  8.537785E+03  1.248194E+03 -1.146011E-10 -1.018936E-10
       280  12  8.143584E+05  8.596945E+03  1.150309E+04 -5.250448E+03 -2.486731E-10  2.413715E-10
       280  13  7.825502E+05  2.208768E+01  1.444653E+03 -5.182241E+03 -6.331406E-10  5.789963E-11
       280  14  7.823596E+05 -1.633287E+02  2.065330E+03  1.264066E+03 -5.739639E-10  5.113201E-11
       280  15  7.825499E+05  6.631167E+02  3.614582E+03 -5.181987E+03  3.254138E-10  1.490242E-10
       280  16  7.622868E+05 -5.038205E+03 -3.610969E+03 -5.218990E+03 -4.721608E-10 -1.545274E-10
       280  17  7.563240E+05 -6.660537E+03 -4.407176E+03  1.279938E+03  4.662251E-10  6.878704E-11
       280  18  7.507423E+05 -7.270788E+03 -4.273997E+03 -5.113530E+03  3.825875E-10  2.009749E-10
       280  19  8.028140E+05  5.082350E+03  6.500245E+03 -5.145491E+03  5.560520E+02  5.352405E+01
       280  20  8.083959E+05  6.333830E+03  8.537790E+03  1.248195E+03  1.596029E+03  2.814243E+02
       280  21  8.143584E+05  8.596947E+03  1.150310E+04 -5.250447E+03  2.635993E+03  5.162577E+02
       280  22  7.825502E+05  2.208777E+01  1.444654E+03 -5.182241E+03  5.938625E+02  5.350548E+01
       280  23  7.823596E+05 -1.633279E+02  2.065335E+03  1.264067E+03  1.634968E+03  2.814079E+02
       280  24  7.825499E+05  6.631189E+02  3.614596E+03 -5.181986E+03  2.676050E+03  5.162436E+02
       280  25  7.622868E+05 -5.038205E+03 -3.610969E+03 -5.218990E+03  6.316717E+02  5.348691E+01
       280  26  7.563240E+05 -6.660536E+03 -4.407171E+03  1.279938E+03  1.673905E+03  2.813915E+02
       280  27  7.507424E+05 -7.270785E+03 -4.273982E+03 -5.113529E+03  2.716104E+03  5.162295E+02
       281   1  8.594332E+05  1.895536E+04  2.359945E+04 -5.217940E+03 -3.375733E+03 -6.590341E+02
       281   2  8.646937E+05  1.962704E+04  2.809206E+04  1.518163E+03 -7.217777E+03 -9.015212E+02
       281   3  8.721290E+05  2.675406E+04  3.670970E+04 -5.928250E+03 -1.105972E+04 -1.131563E+03
       281   4  7.829473E+05 -1.340188E+02  4.567699E+03 -5.469059E+03 -3.417472E+03 -6.590234E+02
       281   5  7.818589E+05 -1.043016E+03  7.501114E+03  1.622392E+03 -7.256973E+03 -9.015225E+02
       281   6  7.829453E+05  4.503397E+03  1.455822E+04 -5.468794E+03 -1.109634E+04 -1.131580E+03
       281   7  7.064666E+05 -1.922383E+04 -1.446449E+04 -5.720148E+03 -3.459207E+03 -6.590127E+02
       281   8  6.990303E+05 -2.171358E+04 -1.309034E+04  1.726606E+03 -7.296163E+03 -9.015237E+02
       281   9  6.937688E+05 -1.774786E+04 -7.593841E+03 -5.009403E+03 -1.113294E+04 -1.131597E+03
       281  10  8.594332E+05  1.895535E+04  2.359943E+04 -5.217942E+03 -2.589144E-10 -1.798280E-10
       281  11  8.646936E+05  1.962702E+04  2.809196E+04  1.518158E+03  1.340452E-10  1.390556E-11
       281  12  8.721289E+05  2.675403E+04  3.670946E+04 -5.928260E+03 -8.808306E-11 -1.517931E-10
       281  13  7.829472E+05 -1.340224E+02  4.567676E+03 -5.469061E+03  1.445913E-10  1.596909E-11
       281  14  7.818588E+05 -1.043031E+03  7.501014E+03  1.622386E+03  3.398370E-10 -6.811697E-11
       281  15  7.829452E+05  4.503362E+03  1.455799E+04 -5.468804E+03  2.409411E-10 -8.327872E-11
       281  16  7.064666E+05 -1.922384E+04 -1.446451E+04 -5.720149E+03 -1.848299E-10 -1.434432E-10
       281  17  6.990302E+05 -2.171360E+04 -1.309044E+04  1.726601E+03  2.663517E-10 -2.440887E-11
       281  18  6.937686E+05 -1.774790E+04 -7.594076E+03 -5.009413E+03 -4.084981E-10  4.885800E-11
       281  19  8.594332E+05  1.895536E+04  2.359945E+04 -5.217940E+03  3.375733E+03  6.590341E+02
       281  20  8.646937E+05  1.962704E+04  2.809206E+04  1.518163E+03  7.217777E+03  9.015212E+02
       281  21  8.721290E+05  2.675406E+04  3.670970E+04 -5.928250E+03  1.105972E+04  1.131563E+03
       281  22  7.829473E+05 -1.340188E+02  4.567699E+03 -5.469059E+03  3.417472E+03  6.590234E+02
       281  23  7.818589E+05 -1.043016E+03  7.501114E+03  1.622392E+03  7.256973E+03  9.015225E+02
       281  24  7.829453E+05  4.503397E+03  1.455822E+04 -5.468794E+03  1.109634E+04  1.131580E+03
       281  25  7.064666E+05 -1.922383E+04 -1.446449E+04 -5.720148E+03  3.459207E+03  6.590127E+02
       281  26  6.990303E+05 -2.171358E+04 -1.309034E+04  1.726606E+03  7.296163E+03  9.015237E+02
       281  27  6.937688E+05 -1.774786E+04 -7.593841E+03 -5.009403E+03  1.113294E+04  1.131597E+03
       282   1  9.258472E+05  3.404241E+04  5.314446E+04 -4.309067E+03 -1.398522E+04 -1.346607E+03
       282   2  9.269028E+05  2.997299E+04  6.608664E+04  1.625631E+03 -2.939953E+04 -1.667374E+03
       282   3  9.410037E+05  6.914707E+04  9.991170E+04 -9.376413E+03 -4.481435E+04 -1.683800E+03
       282   4  7.853582E+05 -1.017240E+03  1.820308E+04 -6.075812E+03 -1.406229E+04 -1.346592E+03
       282   5  7.788326E+05 -6.972543E+03  2.928613E+04  2.383532E+03 -2.942221E+04 -1.667444E+03
       282   6  7.853457E+05  3.031177E+04  6.121788E+04 -6.094047E+03 -4.478245E+04 -1.684048E+03
       282   7  6.448872E+05 -3.607837E+04 -1.673978E+04 -7.842158E+03 -1.413935E+04 -1.346576E+03
       282   8  6.307822E+05 -4.391972E+04 -7.516014E+03  3.141250E+03 -2.944488E+04 -1.667514E+03
       282   9  6.297097E+05 -8.525300E+03  2.252225E+04 -2.812506E+03 -4.475055E+04 -1.684296E+03
       282  10  9.258470E+05  3.404236E+04  5.314409E+04 -4.309082E+03  2.705693E-10 -1.733858E-10
       282  11  9.269019E+05  2.997275E+04  6.608502E+04  1.625591E+03 -1.507748E-10  7.613710E-11
       282  12  9.410015E+05  6.914653E+04  9.990792E+04 -9.376474E+03  4.877659E-10  1.625657E-10
       282  13  7.853580E+05 -1.017295E+03  1.820270E+04 -6.075827E+03 -2.299616E-11 -1.463208E-10
       282  14  7.788316E+05 -6.972778E+03  2.928450E+04  2.383492E+03 -2.343480E-10  1.039538E-11
       282  15  7.853435E+05  3.031123E+04  6.121411E+04 -6.094107E+03  7.408303E-10  2.024746E-10
       282  16  6.448870E+05 -3.607842E+04 -1.674016E+04 -7.842174E+03 -3.066157E-10  8.226257E-11
       282  17  6.307813E+05 -4.391995E+04 -7.517647E+03  3.141211E+03  4.172355E-10 -4.623460E-10
       282  18  6.297075E+05 -8.525840E+03  2.251848E+04 -2.812567E+03  1.911871E-10  2.227353E-10
       282  19  9.258472E+05  3.404241E+04  5.314446E+04 -4.309067E+03  1.398522E+04  1.346607E+03
       282  20  9.269028E+05  2.997299E+04  6.608664E+04  1.625631E+03  2.939953E+04  1.667374E+03
       282  21  9.410037E+05  6.914707E+04  9.991170E+04 -9.376413E+03  4.481435E+04  1.683800E+03
       282  22  7.853582E+05 -1.017240E+03  1.820308E+04 -6.075812E+03  1.406229E+04  1.346592E+03
       282  23  7.788326E+05 -6.972543E+03  2.928613E+04  2.383532E+03  2.942221E+04  1.667444E+03
       282  24  7.853457E+05  3.031177E+04  6.121788E+04 -6.094047E+03  4.478245E+04  1.684048E+03
       282  25  6.448872E+05 -3.607837E+04 -1.673978E+04 -7.842158E+03  1.413935E+04  1.346576E+03
       282  26  6.307822E+05 -4.391972E+04 -7.516014E+03  3.141250E+03  2.944488E+04  1.667514E+03
       282  27  6.297097E+05 -8.525300E+03  2.252225E+04 -2.812506E+03  4.475055E+04  1.684296E+03
       283   1  1.019119E+06  4.758710E+04  1.284147E+05  4.582187E+03 -5.670786E+04 -2.286704E+03
       283   2  9.883602E+05  1.048216E+04  1.696787E+05 -2.136271E+03 -1.188680E+05 -2.998373E+03
       283   3  1.038394E+06  2.619846E+05  3.236434E+05 -3.063255E+04 -1.810313E+05 -1.288650E+03
       283   4  8.004047E+05 -7.010294E+03  7.403386E+04 -7.054892E+03 -5.700865E+04 -2.285944E+03
       283   5  7.599976E+05 -4.647332E+04  1.129624E+05  3.667789E+03 -1.187421E+05 -2.999435E+03
       283   6  8.003374E+05  2.026523E+05  2.643253E+05 -7.386653E+03 -1.804777E+05 -1.294630E+03
       283   7  5.817342E+05 -6.161078E+04  1.964952E+04 -1.868788E+04 -5.730933E+04 -2.285173E+03
       283   8  5.316824E+05 -1.034326E+05  5.624219E+04  9.469701E+03 -1.186162E+05 -3.000496E+03
       283   9  5.623335E+05  1.433178E+05  2.050033E+05  1.585032E+04 -1.799243E+05 -1.300571E+03
       283  10  1.019115E+06  4.758624E+04  1.284087E+05  4.582083E+03  6.645437E-10  6.439988E-10
       283  11  9.883450E+05  1.047837E+04  1.696522E+05 -2.136558E+03 -8.311723E-10 -3.363781E-11
       283  12  1.038359E+06  2.619758E+05  3.235820E+05 -3.063274E+04 -3.383288E-11 -2.024691E-10
       283  13  8.004012E+05 -7.011171E+03  7.402775E+04 -7.054997E+03  1.255793E-09  3.039852E-10
       283  14  7.599825E+05 -4.647711E+04  1.129359E+05  3.667502E+03 -2.944854E-10 -2.672379E-10
       283  15  8.003024E+05  2.026436E+05  2.642642E+05 -7.386841E+03 -1.637415E-10 -5.792208E-11
       283  16  5.817306E+05 -6.161166E+04  1.964335E+04 -1.868799E+04  3.818407E-10  3.015270E-10
       283  17  5.316673E+05 -1.034364E+05  5.621575E+04  9.469414E+03  2.485278E-10  2.729835E-10
       283  18  5.622987E+05  1.433091E+05  2.049425E+05  1.585014E+04  3.423163E-10 -8.419663E-11
       283  19  1.019119E+06  4.758710E+04  1.284147E+05  4.582187E+03  5.670786E+04  2.286704E+03
       283  20  9.883602E+05  1.048216E+04  1.696787E+05 -2.136271E+03  1.188680E+05  2.998373E+03
       283  21  1.038394E+06  2.619846E+05  3.236434E+05 -3.063255E+04  1.810313E+05  1.288650E+03
       283  22  8.004047E+05 -7.010294E+03  7.403386E+04 -7.054892E+03  5.700865E+04  2.285944E+03
       283  23  7.599976E+05 -4.647332E+04  1.129624E+05  3.667789E+03  1.187421E+05  2.999435E+03
       283  24  8.003374E+05  2.026523E+05  2.643253E+05 -7.386653E+03  1.804777E+05  1.294630E+03
       283  25  5.817342E+05 -6.161078E+04  1.964952E+04 -1.868788E+04  5.730933E+04  2.285173E+03
       283  26  5.316824E+05 -1.034326E+05  5.624219E+04  9.469701E+03  1.186162E+05  3.000496E+03
       283  27  5.623335E+05  1.433178E+05  2.050033E+05  1.585032E+04  1.799243E+05  1.300571E+03
       284   1  1.083270E+05  8.891631E+05  1.303019E+05 -2.247820E+04  4.814110E+02  6.701546E+04
       284   2  1.393797E+04  8.600213E+05  7.069773E+04  1.146284E+02  1.502752E+03  4.475658E+04
       284   3  2.379768E+04  8.598059E+05  5.163014E+04 -9.979685E+03  8.176951E+02  2.249416E+04
       284   4  7.389345E+04  7.514094E+05  9.595477E+04 -1.375845E+04  4.829412E+02  6.669780E+04
       284   5 -1.677226E+04  7.369804E+05  4.013765E+04  2.511445E+03  1.502985E+03  4.473024E+04
       284   6 -3.228645E+03  7.514336E+05  2.466150E+04 -1.390601E+04  8.169369E+02  2.275861E+04
       284   7  3.945879E+04  6.136731E+05  6.160629E+04 -5.040627E+03  4.844627E+02  6.638021E+04
       284   8 -4.748361E+04  6.139533E+05  9.576443E+03  4.907794E+03  1.503219E+03  4.470390E+04
       284   9 -3.025579E+04  6.430720E+05 -2.308019E+03 -1.783165E+04  8.161752E+02  2.302301E+04
       284  10  1.083258E+05  8.891583E+05  1.302934E+05 -2.247822E+04  3.539855E-10 -1.784929E-10
       284  11  1.393743E+04  8.600191E+05  7.069397E+04  1.145743E+02 -2.863376E-10 -8.230106E-11
       284  12  2.379754E+04  8.598054E+05  5.162919E+04 -9.979700E+03  9.006577E-10  1.316764E-10
       284  13  7.389226E+04  7.514047E+05  9.594642E+04 -1.375847E+04  6.988795E-10 -1.398523E-10
       284  14 -1.677280E+04  7.369783E+05  4.013389E+04  2.511391E+03 -2.400553E-09  2.953235E-10
       284  15 -3.228784E+03  7.514331E+05  2.466052E+04 -1.390603E+04  9.601091E-10  4.339947E-11
       284  16  3.945761E+04  6.136683E+05  6.159802E+04 -5.040653E+03 -5.885265E-10  1.630131E-10
       284  17 -4.748415E+04  6.139511E+05  9.572687E+03  4.907740E+03 -1.657675E-09  1.633891E-10
       284  18 -3.025593E+04  6.430714E+05 -2.309015E+03 -1.783167E+04 -1.433283E-10 -1.565265E-10
       284  19  1.083270E+05  8.891631E+05  1.303019E+05 -2.247820E+04 -4.814110E+02 -6.701546E+04
       284  20  1.393797E+04  8.600213E+05  7.069773E+04  1.146284E+02 -1.502752E+03 -4.475658E+04
       284  21  2.379768E+04  8.598059E+05  5.163014E+04 -9.979685E+03 -8.176951E+02 -2.249416E+04
       284  22  7.389345E+04  7.514094E+05  9.595477E+04 -1.375845E+04 -4.829412E+02 -6.669780E+04
       284  23 -1.677226E+04  7.369804E+05  4.013765E+04  2.511445E+03 -1.502985E+03 -4.473024E+04
       284  24 -3.228645E+03  7.514336E+05  2.466150E+04 -1.390601E+04 -8.169369E+02 -2.275861E+04
       284  25  3.945879E+04  6.136731E+05  6.160629E+04 -5.040627E+03 -4.844627E+02 -6.638021E+04
       284  26 -4.748361E+04  6.139533E+05  9.576443E+03  4.907794E+03 -1.503219E+03 -4.470390E+04
       284  27 -3.025579E+04  6.430720E+05 -2.308019E+03 -1.783165E+04 -8.161752E+02 -2.302301E+04
       285   1  1.178553E+04  7.476048E+05  1.982873E+04 -1.451247E+04  1.805631E+02  1.871774E+04
       285   2 -4.414793E+03  7.322718E+05  2.780862E+03  1.779253E+03 -1.731579E+02  1.568832E+04
       285   3 -1.184764E+04  7.193392E+05 -1.014229E+04 -1.348130E+04 -4.959953E+02  1.265907E+04
       285   4  1.127050E+04  7.455455E+05  1.933790E+04 -1.357884E+04  1.804392E+02  1.878114E+04
       285   5 -1.403376E+03  7.443489E+05  5.782300E+03  2.177598E+03 -1.732849E+02  1.574662E+04
       285   6 -5.308870E+03  7.455536E+05 -3.644850E+03 -1.361818E+04 -4.961210E+02  1.271220E+04
       285   7  1.075547E+04  7.434862E+05  1.884707E+04 -1.264522E+04  1.803154E+02  1.884454E+04
       285   8  1.608031E+03  7.564262E+05  8.783726E+03  2.575951E+03 -1.734118E+02  1.580492E+04
       285   9  1.229846E+03  7.717686E+05  2.852537E+03 -1.375508E+04 -4.962467E+02  1.276534E+04
       285  10  1.178544E+04  7.476044E+05  1.982807E+04 -1.451247E+04 -1.273532E-11 -2.905364E-10
       285  11 -4.414859E+03  7.322716E+05  2.780400E+03  1.779256E+03 -3.450758E-10 -2.220784E-10
       285  12 -1.184768E+04  7.193391E+05 -1.014259E+04 -1.348129E+04 -1.168658E-09  3.565594E-10
       285  13  1.127041E+04  7.455451E+05  1.933724E+04 -1.357885E+04  8.621360E-11  5.070803E-11
       285  14 -1.403442E+03  7.443487E+05  5.781834E+03  2.177600E+03  8.445920E-10 -1.933254E-10
       285  15 -5.308914E+03  7.455534E+05 -3.645153E+03 -1.361818E+04  1.654640E-09 -2.497540E-10
       285  16  1.075538E+04  7.434859E+05  1.884640E+04 -1.264522E+04  3.487692E-11  3.073584E-10
       285  17  1.607964E+03  7.564259E+05  8.783258E+03  2.575953E+03 -2.229363E-09  1.899677E-10
       285  18  1.229803E+03  7.717684E+05  2.852231E+03 -1.375507E+04 -4.122712E-11 -3.034143E-10
       285  19  1.178553E+04  7.476048E+05  1.982873E+04 -1.451247E+04 -1.805631E+02 -1.871774E+04
       285  20 -4.414793E+03  7.322718E+05  2.780862E+03  1.779253E+03  1.731579E+02 -1.568832E+04
       285  21 -1.184764E+04  7.193392E+05 -1.014229E+04 -1.348130E+04  4.959953E+02 -1.265907E+04
       285  22  1.127050E+04  7.455455E+05  1.933790E+04 -1.357884E+04 -1.804392E+02 -1.878114E+04
       285  23 -1.403376E+03  7.443489E+05  5.782300E+03  2.177598E+03  1.732849E+02 -1.574662E+04
       285  24 -5.308870E+03  7.455536E+05 -3.644850E+03 -1.361818E+04  4.961210E+02 -1.271220E+04
       285  25  1.075547E+04  7.434862E+05  1.884707E+04 -1.264522E+04 -1.803154E+02 -1.884454E+04
       285  26  1.608031E+03  7.564262E+05  8.783726E+03  2.575951E+03  1.734118E+02 -1.580492E+04
       285  27  1.229846E+03  7.717686E+05  2.852537E+03 -1.375508E+04  4.962467E+02 -1.276534E+04
       286   1 -3.045473E+04  6.088352E+05 -4.035476E+04 -1.203454E+04 -1.176660E+03  1.338818E+04
       286   2 -2.978542E+04  6.000808E+05 -5.325361E+04  1.888564E+03 -1.955058E+03  2.273984E+04
       286   3 -7.408335E+04  5.789250E+05 -8.346851E+04 -1.760240E+04 -7.712847E+02  3.209503E+04
       286   4  2.863885E+03  7.422672E+05 -7.144662E+03 -1.399040E+04 -1.177350E+03  1.368260E+04
       286   5  7.232459E+03  7.484475E+05 -1.639886E+04  2.684299E+03 -1.954925E+03  2.270632E+04
       286   6 -3.330353E+04  7.422862E+05 -4.273844E+04 -1.405469E+04 -7.704507E+02  3.173380E+04
       286   7  3.618117E+04  8.757154E+05  2.606410E+04 -1.594667E+04 -1.178042E+03  1.397708E+04
       286   8  4.424869E+04  8.968343E+05  2.045424E+04  3.480234E+03 -1.954793E+03  2.267279E+04
       286   9  7.474320E+03  9.056716E+05 -2.010367E+03 -1.050604E+04 -7.696210E+02  3.137248E+04
       286  10 -3.045478E+04  6.088350E+05 -4.035510E+04 -1.203452E+04  9.706877E-11 -2.436395E-10
       286  11 -2.978557E+04  6.000802E+05 -5.325458E+04  1.888600E+03  3.386741E-10 -2.289384E-10
       286  12 -7.408362E+04  5.789239E+05 -8.347044E+04 -1.760238E+04 -3.186411E-10  1.160247E-10
       286  13  2.863833E+03  7.422670E+05 -7.145016E+03 -1.399039E+04 -1.279185E-09  1.597354E-10
       286  14  7.232317E+03  7.484470E+05 -1.639983E+04  2.684335E+03  3.869855E-10 -1.272968E-10
       286  15 -3.330381E+04  7.422851E+05 -4.274033E+04 -1.405467E+04 -5.942726E-10  3.740292E-11
       286  16  3.618112E+04  8.757151E+05  2.606373E+04 -1.594666E+04  1.104997E-09  6.367586E-11
       286  17  4.424855E+04  8.968337E+05  2.045327E+04  3.480270E+03 -8.575524E-10  9.309774E-11
       286  18  7.474055E+03  9.056705E+05 -2.012215E+03 -1.050602E+04 -1.079149E-09  9.120410E-12
       286  19 -3.045473E+04  6.088352E+05 -4.035476E+04 -1.203454E+04  1.176660E+03 -1.338818E+04
       286  20 -2.978542E+04  6.000808E+05 -5.325361E+04  1.888564E+03  1.955058E+03 -2.273984E+04
       286  21 -7.408335E+04  5.789250E+05 -8.346851E+04 -1.760240E+04  7.712847E+02 -3.209503E+04
       286  22  2.863885E+03  7.422672E+05 -7.144662E+03 -1.399040E+04  1.177350E+03 -1.368260E+04
       286  23  7.232459E+03  7.484475E+05 -1.639886E+04  2.684299E+03  1.954925E+03 -2.270632E+04
       286  24 -3.330353E+04  7.422862E+05 -4.273844E+04 -1.405469E+04  7.704507E+02 -3.173380E+04
       286  25  3.618117E+04  8.757154E+05  2.606410E+04 -1.594667E+04  1.178042E+03 -1.397708E+04
       286  26  4.424869E+04  8.968343E+05  2.045424E+04  3.480234E+03  1.954793E+03 -2.267279E+04
       286  27  7.474320E+03  9.056716E+05 -2.010367E+03 -1.050604E+04  7.696210E+02 -3.137248E+04
       287   1 -8.521448E+05 -3.114542E+05 -2.574394E+05 -2.626195E+05 -1.452361E+05 -5.423741E+04
       287   2 -8.035601E+05 -1.073925E+05 -1.218296E+05 -3.122184E+05 -9.382428E+04 -3.383088E+04
       287   3 -8.485186E+05 -1.327483E+05 -8.775458E+04 -3.015212E+05 -4.202110E+04 -1.446183E+04
       287   4 -7.607882E+05 -2.594305E+05 -2.287882E+05 -2.198627E+05 -1.450296E+05 -5.416467E+04
       287   5 -7.026441E+05 -6.476981E+04 -9.324738E+04 -2.801443E+05 -9.377421E+04 -3.381286E+04
       287   6 -7.379983E+05 -9.947404E+04 -5.910534E+04 -2.801346E+05 -4.212655E+04 -1.450083E+04
       287   7 -6.694229E+05 -2.074025E+05 -2.001378E+05 -1.770992E+05 -1.448230E+05 -5.409191E+04
       287   8 -6.017183E+05 -2.214586E+04 -6.466616E+04 -2.480653E+05 -9.372412E+04 -3.379485E+04
       287   9 -6.274662E+05 -6.619996E+04 -3.045703E+04 -2.587451E+05 -4.223202E+04 -1.453983E+04
       287  10 -8.521683E+05 -3.114631E+05 -2.574847E+05 -2.626258E+05 -3.589411E-10 -1.228082E-10
       287  11 -8.035698E+05 -1.073961E+05 -1.218483E+05 -3.122210E+05  2.546206E-10 -2.145590E-10
       287  12 -8.485206E+05 -1.327490E+05 -8.775829E+04 -3.015217E+05 -3.756799E-10 -3.747891E-11
       287  13 -7.608116E+05 -2.594393E+05 -2.288333E+05 -2.198690E+05  1.020335E-09 -1.068221E-10
       287  14 -7.026539E+05 -6.477340E+04 -9.326608E+04 -2.801469E+05 -3.325579E-10 -2.888419E-10
       287  15 -7.380003E+05 -9.947474E+04 -5.910908E+04 -2.801351E+05 -9.450174E-10 -1.180513E-10
       287  16 -6.694462E+05 -2.074113E+05 -2.001828E+05 -1.771055E+05  4.928950E-10 -6.919386E-11
       287  17 -6.017281E+05 -2.214945E+04 -6.468484E+04 -2.480679E+05 -9.747576E-11 -1.956615E-10
       287  18 -6.274682E+05 -6.620066E+04 -3.046079E+04 -2.587456E+05  1.489257E-10  2.515415E-10
       287  19 -8.521448E+05 -3.114542E+05 -2.574394E+05 -2.626195E+05  1.452361E+05  5.423741E+04
       287  20 -8.035601E+05 -1.073925E+05 -1.218296E+05 -3.122184E+05  9.382428E+04  3.383088E+04
       287  21 -8.485186E+05 -1.327483E+05 -8.775458E+04 -3.015212E+05  4.202110E+04  1.446183E+04
       287  22 -7.607882E+05 -2.594305E+05 -2.287882E+05 -2.198627E+05  1.450296E+05  5.416467E+04
       287  23 -7.026441E+05 -6.476981E+04 -9.324738E+04 -2.801443E+05  9.377421E+04  3.381286E+04
       287  24 -7.379983E+05 -9.947404E+04 -5.910534E+04 -2.801346E+05  4.212655E+04  1.450083E+04
       287  25 -6.694229E+05 -2.074025E+05 -2.001378E+05 -1.770992E+05  1.448230E+05  5.409191E+04
       287  26 -6.017183E+05 -2.214586E+04 -6.466616E+04 -2.480653E+05  9.372412E+04  3.379485E+04
       287  27 -6.274662E+05 -6.619996E+04 -3.045703E+04 -2.587451E+05  4.223202E+04  1.453983E+04
       288   1 -8.286732E+05 -1.666789E+05 -7.634049E+04 -2.950420E+05 -3.312011E+04 -1.128396E+04
       288   2 -8.210044E+05 -1.346206E+05 -4.920933E+04 -3.010896E+05 -2.145495E+04 -6.755406E+03
       288   3 -8.259654E+05 -1.390315E+05 -4.025807E+04 -3.003324E+05 -9.707641E+03 -2.444879E+03
       288   4 -7.300117E+05 -1.268408E+05 -4.873415E+04 -2.655668E+05 -3.308783E+04 -1.127199E+04
       288   5 -7.219918E+05 -9.658064E+04 -2.190615E+04 -2.734936E+05 -2.145515E+04 -6.755525E+03
       288   6 -7.265931E+05 -1.027799E+05 -1.323006E+04 -2.746162E+05 -9.740328E+03 -2.457153E+03
       288   7 -6.313408E+05 -8.700173E+04 -2.112876E+04 -2.360872E+05 -3.305554E+04 -1.126002E+04
       288   8 -6.229698E+05 -5.854003E+04  5.396127E+03 -2.458935E+05 -2.145536E+04 -6.755643E+03
       288   9 -6.272113E+05 -6.652791E+04  1.379709E+04 -2.488964E+05 -9.773022E+03 -2.469429E+03
       288  10 -8.286744E+05 -1.666793E+05 -7.634280E+04 -2.950423E+05 -1.366559E-09 -4.332557E-10
       288  11 -8.210049E+05 -1.346208E+05 -4.921029E+04 -3.010897E+05 -1.623047E-09 -1.725409E-10
       288  12 -8.259655E+05 -1.390316E+05 -4.025826E+04 -3.003324E+05  1.087802E-10  4.360151E-10
       288  13 -7.300129E+05 -1.268412E+05 -4.873645E+04 -2.655671E+05 -3.112290E-10  5.545936E-11
       288  14 -7.219923E+05 -9.658082E+04 -2.190710E+04 -2.734937E+05 -1.882785E-09 -1.186082E-10
       288  15 -7.265932E+05 -1.027800E+05 -1.323025E+04 -2.746163E+05 -6.306715E-10  1.089248E-10
       288  16 -6.313421E+05 -8.700216E+04 -2.113105E+04 -2.360875E+05 -1.259707E-10  2.983108E-11
       288  17 -6.229704E+05 -5.854020E+04  5.395175E+03 -2.458937E+05  5.420861E-10 -5.854204E-10
       288  18 -6.272114E+05 -6.652795E+04  1.379690E+04 -2.488965E+05 -5.282018E-10 -5.644648E-10
       288  19 -8.286732E+05 -1.666789E+05 -7.634049E+04 -2.950420E+05  3.312011E+04  1.128396E+04
       288  20 -8.210044E+05 -1.346206E+05 -4.920933E+04 -3.010896E+05  2.145495E+04  6.755406E+03
       288  21 -8.259654E+05 -1.390315E+05 -4.025807E+04 -3.003324E+05  9.707641E+03  2.444879E+03
       288  22 -7.300117E+05 -1.268408E+05 -4.873415E+04 -2.655668E+05  3.308783E+04  1.127199E+04
       288  23 -7.219918E+05 -9.658064E+04 -2.190615E+04 -2.734936E+05  2.145515E+04  6.755525E+03
       288  24 -7.265931E+05 -1.027799E+05 -1.323006E+04 -2.746162E+05  9.740328E+03  2.457153E+03
       288  25 -6.313408E+05 -8.700173E+04 -2.112876E+04 -2.360872E+05  3.305554E+04  1.126002E+04
       288  26 -6.229698E+05 -5.854003E+04  5.396127E+03 -2.458935E+05  2.145536E+04  6.755643E+03
       288  27 -6.272113E+05 -6.652791E+04  1.379709E+04 -2.488964E+05  9.773022E+03  2.469429E+03
       289   1 -8.097126E+05 -1.395731E+05 -3.392179E+04 -2.962301E+05 -7.732917E+03 -1.777239E+03
       289   2 -8.082772E+05 -1.323354E+05 -2.788949E+04 -2.946618E+05 -5.034549E+03 -8.133056E+02
       289   3 -8.054097E+05 -1.339680E+05 -2.525898E+04 -2.959523E+05 -2.306286E+03  7.088537E+01
       289   4 -7.249632E+05 -1.071963E+05 -1.058907E+04 -2.727969E+05 -7.734278E+03 -1.777766E+03
       289   5 -7.254260E+05 -1.009649E+05 -5.133195E+03 -2.720426E+05 -5.048083E+03 -8.183987E+02
       289   6 -7.244539E+05 -1.036008E+05 -3.069084E+03 -2.741470E+05 -2.332005E+03  6.122505E+01
       289   7 -6.402070E+05 -7.481898E+04  1.274298E+04 -2.493609E+05 -7.735639E+03 -1.778294E+03
       289   8 -6.425682E+05 -6.959397E+04  1.762246E+04 -2.494207E+05 -5.061619E+03 -8.234924E+02
       289   9 -6.434919E+05 -7.323324E+04  1.912019E+04 -2.523393E+05 -2.357727E+03  5.156338E+01
       289  10 -8.097126E+05 -1.395731E+05 -3.392191E+04 -2.962302E+05  5.585582E-11 -1.877348E-10
       289  11 -8.082772E+05 -1.323355E+05 -2.788954E+04 -2.946619E+05 -3.026598E-10 -3.833796E-10
       289  12 -8.054097E+05 -1.339680E+05 -2.525899E+04 -2.959523E+05 -2.259436E-10 -1.565784E-10
       289  13 -7.249633E+05 -1.071963E+05 -1.058919E+04 -2.727970E+05 -3.245006E-10  1.427539E-10
       289  14 -7.254260E+05 -1.009649E+05 -5.133244E+03 -2.720426E+05  1.175285E-10  2.980461E-10
       289  15 -7.244539E+05 -1.036008E+05 -3.069094E+03 -2.741470E+05 -6.417885E-10 -5.047598E-11
       289  16 -6.402071E+05 -7.481900E+04  1.274286E+04 -2.493609E+05 -4.690678E-10 -1.053868E-10
       289  17 -6.425682E+05 -6.959398E+04  1.762241E+04 -2.494207E+05 -6.788315E-10 -2.285859E-10
       289  18 -6.434919E+05 -7.323324E+04  1.912018E+04 -2.523393E+05  1.346807E-10  2.622455E-11
       289  19 -8.097126E+05 -1.395731E+05 -3.392179E+04 -2.962301E+05  7.732917E+03  1.777239E+03
       289  20 -8.082772E+05 -1.323354E+05 -2.788949E+04 -2.946618E+05  5.034549E+03  8.133056E+02
       289  21 -8.054097E+05 -1.339680E+05 -2.525898E+04 -2.959523E+05  2.306286E+03 -7.088537E+01
       289  22 -7.249632E+05 -1.071963E+05 -1.058907E+04 -2.727969E+05  7.734278E+03  1.777766E+03
       289  23 -7.254260E+05 -1.009649E+05 -5.133195E+03 -2.720426E+05  5.048083E+03  8.183987E+02
       289  24 -7.244539E+05 -1.036008E+05 -3.069084E+03 -2.741470E+05  2.332005E+03 -6.122505E+01
       289  25 -6.402070E+05 -7.481898E+04  1.274298E+04 -2.493609E+05  7.735639E+03  1.778294E+03
       289  26 -6.425682E+05 -6.959397E+04  1.762246E+04 -2.494207E+05  5.061619E+03  8.234924E+02
       289  27 -6.434919E+05 -7.323324E+04  1.912019E+04 -2.523393E+05  2.357727E+03 -5.156338E+01
       290   1 -7.832702E+05 -1.269426E+05 -1.874282E+04 -2.903490E+05 -1.831486E+03  1.649707E+02
       290   2 -7.826886E+05 -1.226007E+05 -1.691248E+04 -2.868144E+05 -1.057337E+03  3.343499E+02
       290   3 -7.774381E+05 -1.242054E+05 -1.586169E+04 -2.888522E+05 -2.676628E+02  4.622767E+02
       290   4 -7.239525E+05 -1.044987E+05 -2.461723E+03 -2.741687E+05 -1.845020E+03  1.598868E+02
       290   5 -7.262548E+05 -1.012937E+05 -1.424281E+03 -2.714698E+05 -1.077316E+03  3.268510E+02
       290   6 -7.238871E+05 -1.040339E+05 -1.161243E+03 -2.743431E+05 -2.940936E+02  4.523631E+02
       290   7 -6.646313E+05 -8.205449E+04  1.381907E+04 -2.579869E+05 -1.858555E+03  1.548023E+02
       290   8 -6.698180E+05 -7.998643E+04  1.406363E+04 -2.561238E+05 -1.097298E+03  3.193514E+02
       290   9 -6.703333E+05 -8.386227E+04  1.353894E+04 -2.598329E+05 -3.205269E+02  4.424485E+02
       290  10 -7.832702E+05 -1.269426E+05 -1.874283E+04 -2.903490E+05 -5.306867E-11 -6.790094E-11
       290  11 -7.826886E+05 -1.226007E+05 -1.691248E+04 -2.868144E+05  3.674137E-10  5.057522E-10
       290  12 -7.774381E+05 -1.242054E+05 -1.586169E+04 -2.888522E+05 -1.269309E-10  1.204293E-10
       290  13 -7.239525E+05 -1.044987E+05 -2.461730E+03 -2.741687E+05 -4.835263E-10 -7.029834E-11
       290  14 -7.262548E+05 -1.012937E+05 -1.424284E+03 -2.714698E+05  6.753992E-11  2.208413E-12
       290  15 -7.238871E+05 -1.040339E+05 -1.161244E+03 -2.743431E+05 -1.577974E-10  1.277671E-10
       290  16 -6.646314E+05 -8.205449E+04  1.381907E+04 -2.579869E+05  2.664659E-10 -1.912885E-10
       290  17 -6.698180E+05 -7.998643E+04  1.406363E+04 -2.561238E+05  5.447359E-10  1.448184E-11
       290  18 -6.703333E+05 -8.386227E+04  1.353894E+04 -2.598329E+05  4.476516E-12 -8.948168E-11
       290  19 -7.832702E+05 -1.269426E+05 -1.874282E+04 -2.903490E+05  1.831486E+03 -1.649707E+02
       290  20 -7.826886E+05 -1.226007E+05 -1.691248E+04 -2.868144E+05  1.057337E+03 -3.343499E+02
       290  21 -7.774381E+05 -1.242054E+05 -1.586169E+04 -2.888522E+05  2.676628E+02 -4.622767E+02
       290  22 -7.239525E+05 -1.044987E+05 -2.461723E+03 -2.741687E+05  1.845020E+03 -1.598868E+02
       290  23 -7.262548E+05 -1.012937E+05 -1.424281E+03 -2.714698E+05  1.077316E+03 -3.268510E+02
       290  24 -7.238871E+05 -1.040339E+05 -1.161243E+03 -2.743431E+05  2.940936E+02 -4.523631E+02
       290  25 -6.646313E+05 -8.205449E+04  1.381907E+04 -2.579869E+05  1.858555E+03 -1.548023E+02
       290  26 -6.698180E+05 -7.998643E+04  1.406363E+04 -2.561238E+05  1.097298E+03 -3.193514E+02
       290  27 -6.703333E+05 -8.386227E+04  1.353894E+04 -2.598329E+05  3.205269E+02 -4.424485E+02
       291   1 -7.503178E+05 -1.142926E+05 -8.454433E+03 -2.818135E+05 -4.690429E+01  4.433474E+02
       291   2 -7.497177E+05 -1.098320E+05 -7.771442E+03 -2.775132E+05  7.213373E+02  5.706730E+02
       291   3 -7.436642E+05 -1.121115E+05 -7.856295E+03 -2.797334E+05  1.494600E+03  6.845630E+02
       291   4 -7.237137E+05 -1.042215E+05 -1.159222E+03 -2.745493E+05 -6.798487E+01  4.354430E+02
       291   5 -7.264715E+05 -1.010699E+05 -1.394528E+03 -2.712074E+05  6.981716E+02  5.619888E+02
       291   6 -7.237756E+05 -1.046579E+05 -2.396008E+03 -2.743859E+05  1.469345E+03  6.750977E+02
       291   7 -6.971091E+05 -9.415034E+04  6.135919E+03 -2.672848E+05 -8.906643E+01  4.275383E+02
       291   8 -7.032249E+05 -9.230773E+04  4.982336E+03 -2.649013E+05  6.750050E+02  5.533042E+02
       291   9 -7.038866E+05 -9.720434E+04  3.064247E+03 -2.690383E+05  1.444090E+03  6.656320E+02
       291  10 -7.503178E+05 -1.142926E+05 -8.454433E+03 -2.818135E+05  2.233266E-10  2.732020E-10
       291  11 -7.497177E+05 -1.098320E+05 -7.771444E+03 -2.775132E+05  9.185436E-10  3.417119E-10
       291  12 -7.436642E+05 -1.121115E+05 -7.856300E+03 -2.797334E+05  2.905909E-11  1.088395E-10
       291  13 -7.237137E+05 -1.042215E+05 -1.159222E+03 -2.745493E+05  5.063307E-10  1.918141E-10
       291  14 -7.264715E+05 -1.010699E+05 -1.394530E+03 -2.712074E+05  7.977024E-10  2.162780E-10
       291  15 -7.237756E+05 -1.046579E+05 -2.396013E+03 -2.743859E+05  6.025335E-10  9.353119E-11
       291  16 -6.971091E+05 -9.415034E+04  6.135918E+03 -2.672848E+05  3.922642E-10  9.488328E-11
       291  17 -7.032249E+05 -9.230773E+04  4.982335E+03 -2.649013E+05  8.552933E-10  9.933495E-11
       291  18 -7.038866E+05 -9.720434E+04  3.064242E+03 -2.690383E+05  3.264972E-11  2.894588E-10
       291  19 -7.503178E+05 -1.142926E+05 -8.454433E+03 -2.818135E+05  4.690429E+01 -4.433474E+02
       291  20 -7.497177E+05 -1.098320E+05 -7.771442E+03 -2.775132E+05 -7.213373E+02 -5.706730E+02
       291  21 -7.436642E+05 -1.121115E+05 -7.856295E+03 -2.797334E+05 -1.494600E+03 -6.845630E+02
       291  22 -7.237137E+05 -1.042215E+05 -1.159222E+03 -2.745493E+05  6.798487E+01 -4.354430E+02
       291  23 -7.264715E+05 -1.010699E+05 -1.394528E+03 -2.712074E+05 -6.981716E+02 -5.619888E+02
       291  24 -7.237756E+05 -1.046579E+05 -2.396008E+03 -2.743859E+05 -1.469345E+03 -6.750977E+02
       291  25 -6.971091E+05 -9.415034E+04  6.135919E+03 -2.672848E+05  8.906643E+01 -4.275383E+02
       291  26 -7.032249E+05 -9.230773E+04  4.982336E+03 -2.649013E+05 -6.750050E+02 -5.533042E+02
       291  27 -7.038866E+05 -9.720434E+04  3.064247E+03 -2.690383E+05 -1.444090E+03 -6.656320E+02
       292   1 -7.145168E+05 -1.007560E+05 -4.243815E+02 -2.723795E+05  1.981271E+03  7.545379E+02
       292   2 -7.133738E+05 -9.548140E+04 -1.478691E+03 -2.677675E+05  4.625471E+03  1.565509E+03
       292   3 -7.085019E+05 -1.012498E+05 -5.840196E+03 -2.687535E+05  7.259238E+03  2.404311E+03
       292   4 -7.239490E+05 -1.041221E+05 -2.987101E+03 -2.747401E+05  1.954249E+03  7.444116E+02
       292   5 -7.260586E+05 -1.003408E+05 -4.973545E+03 -2.712891E+05  4.602773E+03  1.557001E+03
       292   6 -7.244401E+05 -1.076034E+05 -1.027067E+04 -2.734361E+05  7.240846E+03  2.397412E+03
       292   7 -7.333811E+05 -1.074883E+05 -5.549829E+03 -2.771007E+05  1.927228E+03  7.342855E+02
       292   8 -7.387432E+05 -1.052002E+05 -8.468412E+03 -2.748106E+05  4.580075E+03  1.548492E+03
       292   9 -7.403781E+05 -1.139569E+05 -1.470116E+04 -2.781185E+05  7.222456E+03  2.390513E+03
       292  10 -7.145168E+05 -1.007560E+05 -4.243900E+02 -2.723795E+05 -3.643801E-10 -3.408705E-11
       292  11 -7.133738E+05 -9.548141E+04 -1.478736E+03 -2.677675E+05 -1.057478E-09 -3.739387E-10
       292  12 -7.085020E+05 -1.012498E+05 -5.840306E+03 -2.687535E+05 -3.718198E-10 -3.250034E-10
       292  13 -7.239490E+05 -1.041221E+05 -2.987109E+03 -2.747401E+05 -2.126606E-10 -7.530801E-11
       292  14 -7.260586E+05 -1.003408E+05 -4.973590E+03 -2.712891E+05 -1.262218E-09 -5.235573E-10
       292  15 -7.244402E+05 -1.076034E+05 -1.027078E+04 -2.734361E+05 -2.242411E-10  1.525473E-10
       292  16 -7.333811E+05 -1.074883E+05 -5.549837E+03 -2.771007E+05 -5.549460E-10  1.027447E-10
       292  17 -7.387432E+05 -1.052002E+05 -8.468456E+03 -2.748106E+05 -9.009237E-10  3.012590E-11
       292  18 -7.403781E+05 -1.139570E+05 -1.470126E+04 -2.781185E+05 -3.281110E-10  6.735288E-10
       292  19 -7.145168E+05 -1.007560E+05 -4.243815E+02 -2.723795E+05 -1.981271E+03 -7.545379E+02
       292  20 -7.133738E+05 -9.548140E+04 -1.478691E+03 -2.677675E+05 -4.625471E+03 -1.565509E+03
       292  21 -7.085019E+05 -1.012498E+05 -5.840196E+03 -2.687535E+05 -7.259238E+03 -2.404311E+03
       292  22 -7.239490E+05 -1.041221E+05 -2.987101E+03 -2.747401E+05 -1.954249E+03 -7.444116E+02
       292  23 -7.260586E+05 -1.003408E+05 -4.973545E+03 -2.712891E+05 -4.602773E+03 -1.557001E+03
       292  24 -7.244401E+05 -1.076034E+05 -1.027067E+04 -2.734361E+05 -7.240846E+03 -2.397412E+03
       292  25 -7.333811E+05 -1.074883E+05 -5.549829E+03 -2.771007E+05 -1.927228E+03 -7.342855E+02
       292  26 -7.387432E+05 -1.052002E+05 -8.468412E+03 -2.748106E+05 -4.580075E+03 -1.548492E+03
       292  27 -7.403781E+05 -1.139569E+05 -1.470116E+04 -2.781185E+05 -7.222456E+03 -2.390513E+03
       293   1 -6.807283E+05 -8.785106E+04 -7.125141E+02 -2.645605E+05  9.244996E+03  3.022829E+03
       293   2 -6.762673E+05 -7.752113E+04 -8.276255E+03 -2.590034E+05  2.060730E+04  7.094874E+03
       293   3 -6.805122E+05 -1.061710E+05 -3.343896E+04 -2.510465E+05  3.191015E+04  1.132619E+04
       293   4 -7.257642E+05 -1.035828E+05 -1.283121E+04 -2.754943E+05  9.206136E+03  3.008282E+03
       293   5 -7.230558E+05 -9.576124E+04 -2.122909E+04 -2.723186E+05  2.059262E+04  7.089343E+03
       293   6 -7.290594E+05 -1.269259E+05 -4.724619E+04 -2.667431E+05  3.191962E+04  1.132958E+04
       293   7 -7.707981E+05 -1.193145E+05 -2.495010E+04 -2.864275E+05  9.167279E+03  2.993737E+03
       293   8 -7.698423E+05 -1.140012E+05 -3.418213E+04 -2.856330E+05  2.057795E+04  7.083813E+03
       293   9 -7.776043E+05 -1.476806E+05 -6.105364E+04 -2.824385E+05  3.192908E+04  1.133297E+04
       293  10 -6.807284E+05 -8.785110E+04 -7.126921E+02 -2.645605E+05 -2.587822E-10  1.680376E-10
       293  11 -6.762677E+05 -7.752130E+04 -8.277149E+03 -2.590035E+05 -3.508549E-10 -1.547818E-10
       293  12 -6.805134E+05 -1.061714E+05 -3.344112E+04 -2.510468E+05 -2.333611E-10  1.088023E-10
       293  13 -7.257642E+05 -1.035829E+05 -1.283139E+04 -2.754943E+05  3.064205E-10  1.251551E-10
       293  14 -7.230563E+05 -9.576141E+04 -2.122998E+04 -2.723188E+05  9.494844E-11 -8.263726E-11
       293  15 -7.290605E+05 -1.269263E+05 -4.724834E+04 -2.667434E+05  3.727548E-10  5.108970E-11
       293  16 -7.707982E+05 -1.193146E+05 -2.495027E+04 -2.864275E+05  1.115510E-10  1.823794E-12
       293  17 -7.698428E+05 -1.140014E+05 -3.418302E+04 -2.856331E+05  4.611544E-11  6.257143E-11
       293  18 -7.776054E+05 -1.476810E+05 -6.105580E+04 -2.824388E+05 -1.882305E-11 -1.579870E-11
       293  19 -6.807283E+05 -8.785106E+04 -7.125141E+02 -2.645605E+05 -9.244996E+03 -3.022829E+03
       293  20 -6.762673E+05 -7.752113E+04 -8.276255E+03 -2.590034E+05 -2.060730E+04 -7.094874E+03
       293  21 -6.805122E+05 -1.061710E+05 -3.343896E+04 -2.510465E+05 -3.191015E+04 -1.132619E+04
       293  22 -7.257642E+05 -1.035828E+05 -1.283121E+04 -2.754943E+05 -9.206136E+03 -3.008282E+03
       293  23 -7.230558E+05 -9.576124E+04 -2.122909E+04 -2.723186E+05 -2.059262E+04 -7.089343E+03
       293  24 -7.290594E+05 -1.269259E+05 -4.724619E+04 -2.667431E+05 -3.191962E+04 -1.132958E+04
       293  25 -7.707981E+05 -1.193145E+05 -2.495010E+04 -2.864275E+05 -9.167279E+03 -2.993737E+03
       293  26 -7.698423E+05 -1.140012E+05 -3.418213E+04 -2.856330E+05 -2.057795E+04 -7.083813E+03
       293  27 -7.776043E+05 -1.476806E+05 -6.105364E+04 -2.824385E+05 -3.192908E+04 -1.133297E+04
       294   1 -6.569852E+05 -7.871128E+04 -3.706977E+04 -2.678512E+05  4.081126E+04  1.443970E+04
       294   2 -6.316161E+05 -3.288590E+04 -6.953458E+04 -2.542760E+05  9.079929E+04  3.295914E+04
       294   3 -6.923864E+05 -2.138980E+05 -2.001934E+05 -1.874619E+05  1.404585E+05  5.235784E+04
       294   4 -7.366551E+05 -1.005337E+05 -5.729737E+04 -2.810198E+05  4.070569E+04  1.440076E+04
       294   5 -7.045403E+05 -6.469782E+04 -9.038612E+04 -2.785100E+05  9.082611E+04  3.296841E+04
       294   6 -7.586017E+05 -2.557423E+05 -2.217831E+05 -2.227582E+05  1.406182E+05  5.241304E+04
       294   7 -8.163188E+05 -1.223564E+05 -7.752541E+04 -2.941873E+05  4.060013E+04  1.436182E+04
       294   8 -7.774592E+05 -9.650887E+04 -1.112382E+05 -3.027412E+05  9.085292E+04  3.297768E+04
       294   9 -8.248119E+05 -2.975832E+05 -2.433731E+05 -2.580503E+05  1.407779E+05  5.246822E+04
       294  10 -6.569871E+05 -7.871195E+04 -3.707329E+04 -2.678516E+05  2.922685E-10  1.386810E-10
       294  11 -6.316253E+05 -3.288929E+04 -6.955214E+04 -2.542784E+05 -2.555379E-10  6.807590E-12
       294  12 -6.924083E+05 -2.139063E+05 -2.002357E+05 -1.874678E+05  2.959105E-12 -7.631469E-11
       294  13 -7.366569E+05 -1.005344E+05 -5.730087E+04 -2.810203E+05  1.890150E-10 -6.106726E-12
       294  14 -7.045494E+05 -6.470121E+04 -9.040369E+04 -2.785124E+05 -4.018698E-10 -9.295446E-11
       294  15 -7.586237E+05 -2.557506E+05 -2.218255E+05 -2.227641E+05  4.296931E-10 -5.567832E-11
       294  16 -8.163206E+05 -1.223570E+05 -7.752890E+04 -2.941877E+05 -1.735719E-10  1.638173E-11
       294  17 -7.774683E+05 -9.651226E+04 -1.112557E+05 -3.027436E+05 -4.082033E-10  1.164211E-10
       294  18 -8.248340E+05 -2.975915E+05 -2.434155E+05 -2.580562E+05 -1.507919E-10 -1.907058E-10
       294  19 -6.569852E+05 -7.871128E+04 -3.706977E+04 -2.678512E+05 -4.081126E+04 -1.443970E+04
       294  20 -6.316161E+05 -3.288590E+04 -6.953458E+04 -2.542760E+05 -9.079929E+04 -3.295914E+04
       294  21 -6.923864E+05 -2.138980E+05 -2.001934E+05 -1.874619E+05 -1.404585E+05 -5.235784E+04
       294  22 -7.366551E+05 -1.005337E+05 -5.729737E+04 -2.810198E+05 -4.070569E+04 -1.440076E+04
       294  23 -7.045403E+05 -6.469782E+04 -9.038612E+04 -2.785100E+05 -9.082611E+04 -3.296841E+04
       294  24 -7.586017E+05 -2.557423E+05 -2.217831E+05 -2.227582E+05 -1.406182E+05 -5.241304E+04
       294  25 -8.163188E+05 -1.223564E+05 -7.752541E+04 -2.941873E+05 -4.060013E+04 -1.436182E+04
       294  26 -7.774592E+05 -9.650887E+04 -1.112382E+05 -3.027412E+05 -9.085292E+04 -3.297768E+04
       294  27 -8.248119E+05 -2.975832E+05 -2.433731E+05 -2.580503E+05 -1.407779E+05 -5.246822E+04
       295   1 -1.690385E+05  8.605453E+03  4.569280E+04 -1.027817E+01  1.070528E+05  2.071302E+03
       295   2 -1.777056E+05 -1.367116E+05 -4.073261E+04  8.113922E+03  7.088293E+04  5.499526E+03
       295   3 -1.363990E+05 -1.089060E+05 -5.992006E+04 -2.025790E+04  3.471721E+04  4.306447E+03
       295   4  2.829870E+05  1.215078E+05  1.584685E+05 -1.358542E+04  1.080795E+05  2.070322E+03
       295   5  2.579467E+05 -2.792525E+04  6.757795E+04  4.751572E+03  7.110950E+04  5.499039E+03
       295   6  2.829859E+05 -4.161334E+03  4.444640E+04 -1.340608E+04  3.414466E+04  4.306688E+03
       295   7  7.351982E+05  2.343955E+05  2.712289E+05 -2.717051E+04  1.091070E+05  2.069298E+03
       295   8  6.937712E+05  8.084687E+04  1.758743E+05  1.386829E+03  7.133622E+04  5.498549E+03
       295   9  7.025304E+05  1.005702E+05  1.487997E+05 -6.549619E+03  3.357171E+04  4.306917E+03
       295  10 -1.690508E+05  8.602371E+03  4.567125E+04 -1.045675E+01  1.237559E-10  3.357283E-10
       295  11 -1.777110E+05 -1.367130E+05 -4.074211E+04  8.113608E+03 -3.743556E-10 -3.206612E-10
       295  12 -1.364003E+05 -1.089063E+05 -5.992237E+04 -2.025802E+04  4.153777E-11 -1.521261E-10
       295  13  2.829745E+05  1.215047E+05  1.584465E+05 -1.358560E+04  8.004670E-10 -3.415907E-10
       295  14  2.579413E+05 -2.792664E+04  6.756840E+04  4.751257E+03 -5.469970E-10  3.754281E-11
       295  15  2.829846E+05 -4.161667E+03  4.444417E+04 -1.340620E+04 -3.348164E-10 -2.389703E-10
       295  16  7.351854E+05  2.343923E+05  2.712065E+05 -2.717070E+04 -4.592796E-10  5.867595E-10
       295  17  6.937658E+05  8.084547E+04  1.758647E+05  1.386513E+03  3.025410E-10 -1.395949E-10
       295  18  7.025292E+05  1.005699E+05  1.487975E+05 -6.549736E+03  2.839285E-10 -1.004953E-10
       295  19 -1.690385E+05  8.605453E+03  4.569280E+04 -1.027817E+01 -1.070528E+05 -2.071302E+03
       295  20 -1.777056E+05 -1.367116E+05 -4.073261E+04  8.113922E+03 -7.088293E+04 -5.499526E+03
       295  21 -1.363990E+05 -1.089060E+05 -5.992006E+04 -2.025790E+04 -3.471721E+04 -4.306447E+03
       295  22  2.829870E+05  1.215078E+05  1.584685E+05 -1.358542E+04 -1.080795E+05 -2.070322E+03
       295  23  2.579467E+05 -2.792525E+04  6.757795E+04  4.751572E+03 -7.110950E+04 -5.499039E+03
       295  24  2.829859E+05 -4.161334E+03  4.444640E+04 -1.340608E+04 -3.414466E+04 -4.306688E+03
       295  25  7.351982E+05  2.343955E+05  2.712289E+05 -2.717051E+04 -1.091070E+05 -2.069298E+03
       295  26  6.937712E+05  8.084687E+04  1.758743E+05  1.386829E+03 -7.133622E+04 -5.498549E+03
       295  27  7.025304E+05  1.005702E+05  1.487997E+05 -6.549619E+03 -3.357171E+04 -4.306917E+03
       296   1 -3.032916E+04 -5.781322E+04 -3.894498E+04 -1.063361E+04  2.673087E+04  3.218558E+03
       296   2 -1.966900E+04 -7.642419E+04 -5.439997E+04  4.575079E+03  1.763870E+04  3.231710E+03
       296   3 -5.686397E+02 -6.905752E+04 -5.728675E+04 -1.347623E+04  8.545096E+03  2.584980E+03
       296   4  2.737610E+05  1.813128E+04  3.671446E+04 -1.273059E+04  2.679668E+04  3.218344E+03
       296   5  2.695301E+05 -4.202943E+03  1.753529E+04  3.894344E+03  1.758964E+04  3.231648E+03
       296   6  2.737553E+05 -5.460696E+02  1.099972E+04 -1.273970E+04  8.381402E+03  2.585166E+03
       296   7  5.779351E+05  9.406884E+04  1.123670E+05 -1.482859E+04  2.686251E+04  3.218128E+03
       296   8  5.588050E+05  6.801202E+04  8.946428E+04  3.213309E+03  1.754057E+04  3.231587E+03
       296   9  5.481475E+05  6.795972E+04  7.928055E+04 -1.200283E+04  8.217635E+03  2.585351E+03
       296  10 -3.032993E+04 -5.781342E+04 -3.894635E+04 -1.063368E+04 -1.799149E-11 -5.200955E-11
       296  11 -1.966934E+04 -7.642429E+04 -5.440057E+04  4.575033E+03  4.502863E-10 -3.155275E-11
       296  12 -5.687199E+02 -6.905754E+04 -5.728690E+04 -1.347625E+04  3.381315E-11  7.392355E-10
       296  13  2.737602E+05  1.813107E+04  3.671309E+04 -1.273066E+04 -2.742129E-10  7.332212E-12
       296  14  2.695297E+05 -4.203037E+03  1.753469E+04  3.894298E+03 -7.107403E-10 -1.062813E-09
       296  15  2.737552E+05 -5.460956E+02  1.099958E+04 -1.273972E+04  1.165055E-09  5.796362E-10
       296  16  5.779343E+05  9.406863E+04  1.123656E+05 -1.482866E+04 -1.404146E-10 -3.750785E-10
       296  17  5.588047E+05  6.801193E+04  8.946369E+04  3.213264E+03 -1.322175E-10 -1.547277E-10
       296  18  5.481474E+05  6.795970E+04  7.928041E+04 -1.200284E+04 -8.680632E-11  3.164746E-10
       296  19 -3.032916E+04 -5.781322E+04 -3.894498E+04 -1.063361E+04 -2.673087E+04 -3.218558E+03
       296  20 -1.966900E+04 -7.642419E+04 -5.439997E+04  4.575079E+03 -1.763870E+04 -3.231710E+03
       296  21 -5.686397E+02 -6.905752E+04 -5.728675E+04 -1.347623E+04 -8.545096E+03 -2.584980E+03
       296  22  2.737610E+05  1.813128E+04  3.671446E+04 -1.273059E+04 -2.679668E+04 -3.218344E+03
       296  23  2.695301E+05 -4.202943E+03  1.753529E+04  3.894344E+03 -1.758964E+04 -3.231648E+03
       296  24  2.737553E+05 -5.460696E+02  1.099972E+04 -1.273970E+04 -8.381402E+03 -2.585166E+03
       296  25  5.779351E+05  9.406884E+04  1.123670E+05 -1.482859E+04 -2.686251E+04 -3.218128E+03
       296  26  5.588050E+05  6.801202E+04  8.946428E+04  3.213309E+03 -1.754057E+04 -3.231587E+03
       296  27  5.481475E+05  6.795972E+04  7.928055E+04 -1.200283E+04 -8.217635E+03 -2.585351E+03
       297   1  1.053109E+05 -3.896912E+04 -3.267876E+04 -1.184285E+04  6.657036E+03  2.146029E+03
       297   2  1.186866E+05 -3.880241E+04 -3.339366E+04  3.667624E+03  4.305208E+03  1.666778E+03
       297   3  1.334415E+05 -3.466010E+04 -3.156813E+04 -1.225249E+04  1.952804E+03  1.108234E+03
       297   4  2.721991E+05  2.698908E+03  8.799094E+03 -1.232596E+04  6.583667E+03  2.146116E+03
       297   5  2.715066E+05 -6.411670E+02  4.620251E+03  3.386756E+03  4.217948E+03  1.666924E+03
       297   6  2.721953E+05 -3.752631E+00  2.991000E+03 -1.233063E+04  1.851708E+03  1.108448E+03
       297   7  4.391125E+05  4.436485E+04  5.027487E+04 -1.280919E+04  6.510277E+03  2.146202E+03
       297   8  4.243478E+05  3.751832E+04  4.263241E+04  3.105829E+03  4.130667E+03  1.667071E+03
       297   9  4.109667E+05  3.465115E+04  3.754868E+04 -1.240878E+04  1.750588E+03  1.108662E+03
       297  10  1.053109E+05 -3.896914E+04 -3.267885E+04 -1.184287E+04  7.989298E-10  1.210935E-10
       297  11  1.186866E+05 -3.880242E+04 -3.339370E+04  3.667618E+03  1.967938E-09  1.341326E-10
       297  12  1.334415E+05 -3.466011E+04 -3.156814E+04 -1.225249E+04 -3.763059E-10 -1.038583E-09
       297  13  2.721990E+05  2.698892E+03  8.799004E+03 -1.232598E+04 -3.729766E-10  2.051098E-10
       297  14  2.715066E+05 -6.411748E+02  4.620212E+03  3.386750E+03 -3.423608E-10  9.752971E-10
       297  15  2.721953E+05 -3.754871E+00  2.990991E+03 -1.233063E+04  5.262296E-10  1.875791E-09
       297  16  4.391124E+05  4.436483E+04  5.027478E+04 -1.280920E+04 -2.094593E-10  6.394601E-11
       297  17  4.243478E+05  3.751831E+04  4.263237E+04  3.105823E+03 -1.187458E-09 -1.599165E-09
       297  18  4.109667E+05  3.465115E+04  3.754868E+04 -1.240878E+04 -6.857252E-10 -1.865188E-10
       297  19  1.053109E+05 -3.896912E+04 -3.267876E+04 -1.184285E+04 -6.657036E+03 -2.146029E+03
       297  20  1.186866E+05 -3.880241E+04 -3.339366E+04  3.667624E+03 -4.305208E+03 -1.666778E+03
       297  21  1.334415E+05 -3.466010E+04 -3.156813E+04 -1.225249E+04 -1.952804E+03 -1.108234E+03
       297  22  2.721991E+05  2.698908E+03  8.799094E+03 -1.232596E+04 -6.583667E+03 -2.146116E+03
       297  23  2.715066E+05 -6.411670E+02  4.620251E+03  3.386756E+03 -4.217948E+03 -1.666924E+03
       297  24  2.721953E+05 -3.752631E+00  2.991000E+03 -1.233063E+04 -1.851708E+03 -1.108448E+03
       297  25  4.391125E+05  4.436485E+04  5.027487E+04 -1.280919E+04 -6.510277E+03 -2.146202E+03
       297  26  4.243478E+05  3.751832E+04  4.263241E+04  3.105829E+03 -4.130667E+03 -1.667071E+03
       297  27  4.109667E+05  3.465115E+04  3.754868E+04 -1.240878E+04 -1.750588E+03 -1.108662E+03
       298   1  2.364043E+05 -8.431276E+03 -6.312222E+03 -1.206566E+04  1.443928E+03  7.750429E+02
       298   2  2.500728E+05 -5.571585E+03 -3.628165E+03  3.230676E+03  5.458699E+02  2.371292E+02
       298   3  2.638967E+05 -1.844944E+03 -1.794242E+02 -1.218541E+04 -3.522709E+02 -3.101962E+02
       298   4  2.719292E+05  4.308678E+02  2.481461E+03 -1.216898E+04  1.354013E+03  7.752519E+02
       298   5  2.718511E+05 -1.336462E+02  1.788791E+03  3.186894E+03  4.543321E+02  2.373469E+02
       298   6  2.719287E+05  1.691183E+02  1.861967E+03 -1.216958E+04 -4.454115E+02 -3.099692E+02
       298   7  3.074553E+05  9.292917E+03  1.127505E+04 -1.227230E+04  1.264092E+03  7.754610E+02
       298   8  2.936299E+05  5.304257E+03  7.205712E+03  3.143111E+03  3.627910E+02  2.375646E+02
       298   9  2.799607E+05  2.183176E+03  3.903352E+03 -1.215376E+04 -5.385533E+02 -3.097421E+02
       298  10  2.364043E+05 -8.431277E+03 -6.312227E+03 -1.206566E+04  2.143097E-10  1.413089E-10
       298  11  2.500728E+05 -5.571585E+03 -3.628166E+03  3.230676E+03  1.467983E-09  3.027732E-10
       298  12  2.638967E+05 -1.844944E+03 -1.794247E+02 -1.218541E+04  5.761677E-10 -1.532908E-09
       298  13  2.719292E+05  4.308666E+02  2.481456E+03 -1.216898E+04 -6.687994E-10 -1.312340E-09
       298  14  2.718511E+05 -1.336463E+02  1.788791E+03  3.186894E+03  7.585928E-10  4.707401E-10
       298  15  2.719287E+05  1.691181E+02  1.861966E+03 -1.216958E+04 -4.640746E-11 -2.169272E-09
       298  16  3.074553E+05  9.292916E+03  1.127505E+04 -1.227230E+04  2.413323E-10  1.044727E-09
       298  17  2.936299E+05  5.304257E+03  7.205712E+03  3.143111E+03  1.353302E-09 -5.176934E-10
       298  18  2.799607E+05  2.183175E+03  3.903352E+03 -1.215376E+04 -1.342145E-10 -3.193915E-09
       298  19  2.364043E+05 -8.431276E+03 -6.312222E+03 -1.206566E+04 -1.443928E+03 -7.750429E+02
       298  20  2.500728E+05 -5.571585E+03 -3.628165E+03  3.230676E+03 -5.458699E+02 -2.371292E+02
       298  21  2.638967E+05 -1.844944E+03 -1.794242E+02 -1.218541E+04  3.522709E+02  3.101962E+02
       298  22  2.719292E+05  4.308678E+02  2.481461E+03 -1.216898E+04 -1.354013E+03 -7.752519E+02
       298  23  2.718511E+05 -1.336462E+02  1.788791E+03  3.186894E+03 -4.543321E+02 -2.373469E+02
       298  24  2.719287E+05  1.691183E+02  1.861967E+03 -1.216958E+04  4.454115E+02  3.099692E+02
       298  25  3.074553E+05  9.292917E+03  1.127505E+04 -1.227230E+04 -1.264092E+03 -7.754610E+02
       298  26  2.936299E+05  5.304257E+03  7.205712E+03  3.143111E+03 -3.627910E+02 -2.375646E+02
       298  27  2.799607E+05  2.183176E+03  3.903352E+03 -1.215376E+04  5.385533E+02  3.097421E+02
       299   1  3.666133E+05  2.371994E+04  2.564743E+04 -1.235971E+04 -7.115373E+02 -6.301306E+02
       299   2  3.802650E+05  2.685297E+04  2.990615E+04  3.099534E+03 -2.182929E+03 -1.175633E+03
       299   3  3.944353E+05  3.149860E+04  3.548951E+04 -1.250949E+04 -3.654111E+03 -1.724446E+03
       299   4  2.720062E+05  9.030121E+01  2.073217E+03 -1.224919E+04 -8.034384E+02 -6.299169E+02
       299   5  2.717484E+05 -2.409581E+02  2.915967E+03  3.285959E+03 -2.275163E+03 -1.175445E+03
       299   6  2.720089E+05  9.405384E+02  5.083709E+03 -1.224750E+04 -3.746646E+03 -1.724283E+03
       299   7  1.774072E+05 -2.354001E+04 -2.150167E+04 -1.213867E+04 -8.953254E+02 -6.297032E+02
       299   8  1.632425E+05 -2.733577E+04 -2.407510E+04  3.472357E+03 -2.367382E+03 -1.175256E+03
       299   9  1.495962E+05 -2.961865E+04 -2.532321E+04 -1.198556E+04 -3.839163E+03 -1.724120E+03
       299  10  3.666133E+05  2.371994E+04  2.564743E+04 -1.235971E+04 -6.108064E-11  4.038321E-10
       299  11  3.802650E+05  2.685297E+04  2.990614E+04  3.099532E+03  7.888976E-10  3.730001E-09
       299  12  3.944353E+05  3.149859E+04  3.548948E+04 -1.250949E+04  8.320653E-10 -1.627344E-09
       299  13  2.720062E+05  9.030061E+01  2.073215E+03 -1.224919E+04 -1.278187E-09 -7.049747E-10
       299  14  2.717484E+05 -2.409610E+02  2.915954E+03  3.285957E+03 -4.637469E-10 -1.565510E-10
       299  15  2.720089E+05  9.405314E+02  5.083677E+03 -1.224751E+04 -2.382617E-10 -6.194062E-11
       299  16  1.774072E+05 -2.354001E+04 -2.150167E+04 -1.213867E+04  7.782709E-10 -4.801673E-10
       299  17  1.632424E+05 -2.733577E+04 -2.407511E+04  3.472355E+03  3.067874E-10 -1.290239E-10
       299  18  1.495962E+05 -2.961865E+04 -2.532324E+04 -1.198556E+04 -9.622469E-10 -3.978287E-10
       299  19  3.666133E+05  2.371994E+04  2.564743E+04 -1.235971E+04  7.115373E+02  6.301306E+02
       299  20  3.802650E+05  2.685297E+04  2.990615E+04  3.099534E+03  2.182929E+03  1.175633E+03
       299  21  3.944353E+05  3.149860E+04  3.548951E+04 -1.250949E+04  3.654111E+03  1.724446E+03
       299  22  2.720062E+05  9.030121E+01  2.073217E+03 -1.224919E+04  8.034384E+02  6.299169E+02
       299  23  2.717484E+05 -2.409581E+02  2.915967E+03  3.285959E+03  2.275163E+03  1.175445E+03
       299  24  2.720089E+05  9.405384E+02  5.083709E+03 -1.224750E+04  3.746646E+03  1.724283E+03
       299  25  1.774072E+05 -2.354001E+04 -2.150167E+04 -1.213867E+04  8.953254E+02  6.297032E+02
       299  26  1.632425E+05 -2.733577E+04 -2.407510E+04  3.472357E+03  2.367382E+03  1.175256E+03
       299  27  1.495962E+05 -2.961865E+04 -2.532321E+04 -1.198556E+04  3.839163E+03  1.724120E+03
       300   1  5.007246E+05  5.681783E+04  6.321217E+04 -1.251222E+04 -4.691874E+03 -2.068340E+03
       300   2  5.135546E+05  5.909320E+04  7.084759E+04  3.312712E+03 -1.009332E+04 -2.639350E+03
       300   3  5.298474E+05  7.049225E+04  8.437420E+04 -1.337849E+04 -1.549421E+04 -3.127174E+03
       300   4  2.726501E+05 -1.293248E+02  6.446103E+03 -1.257295E+04 -4.795231E+03 -2.068197E+03
       300   5  2.709225E+05 -1.480619E+03  1.050690E+04  3.688638E+03 -1.018084E+04 -2.639298E+03
       300   6  2.726558E+05  6.290925E+03  2.044952E+04 -1.256669E+04 -1.556576E+04 -3.127204E+03
       300   7  4.462274E+04 -5.708039E+04 -5.032386E+04 -1.263364E+04 -4.898549E+03 -2.068054E+03
       300   8  2.834366E+04 -6.205886E+04 -4.983819E+04  4.064435E+03 -1.026832E+04 -2.639245E+03
       300   9  1.552414E+04 -5.791536E+04 -4.348010E+04 -1.175521E+04 -1.563729E+04 -3.127234E+03
       300  10  5.007246E+05  5.681782E+04  6.321212E+04 -1.251222E+04 -3.440548E-11 -1.896035E-09
       300  11  5.135545E+05  5.909317E+04  7.084738E+04  3.312690E+03 -8.096337E-10  1.843639E-09
       300  12  5.298472E+05  7.049217E+04  8.437373E+04 -1.337853E+04 -1.093249E-09  1.132136E-10
       300  13  2.726501E+05 -1.293355E+02  6.446052E+03 -1.257296E+04 -2.074241E-09  1.992515E-11
       300  14  2.709223E+05 -1.480654E+03  1.050670E+04  3.688616E+03  8.575152E-10  2.686659E-10
       300  15  2.726555E+05  6.290850E+03  2.044905E+04 -1.256673E+04  1.152842E-10 -2.193904E-10
       300  16  4.462271E+04 -5.708040E+04 -5.032391E+04 -1.263365E+04  5.185676E-11 -4.260703E-10
       300  17  2.834354E+04 -6.205890E+04 -4.983840E+04  4.064413E+03  5.142325E-10  2.182370E-09
       300  18  1.552388E+04 -5.791544E+04 -4.348058E+04 -1.175525E+04  1.309846E-09  4.701375E-10
       300  19  5.007246E+05  5.681783E+04  6.321217E+04 -1.251222E+04  4.691874E+03  2.068340E+03
       300  20  5.135546E+05  5.909320E+04  7.084759E+04  3.312712E+03  1.009332E+04  2.639350E+03
       300  21  5.298474E+05  7.049225E+04  8.437420E+04 -1.337849E+04  1.549421E+04  3.127174E+03
       300  22  2.726501E+05 -1.293248E+02  6.446103E+03 -1.257295E+04  4.795231E+03  2.068197E+03
       300  23  2.709225E+05 -1.480619E+03  1.050690E+04  3.688638E+03  1.018084E+04  2.639298E+03
       300  24  2.726558E+05  6.290925E+03  2.044952E+04 -1.256669E+04  1.556576E+04  3.127204E+03
       300  25  4.462274E+04 -5.708039E+04 -5.032386E+04 -1.263364E+04  4.898549E+03  2.068054E+03
       300  26  2.834366E+04 -6.205886E+04 -4.983819E+04  4.064435E+03  1.026832E+04  2.639245E+03
       300  27  1.552414E+04 -5.791536E+04 -4.348010E+04 -1.175521E+04  1.563729E+04  3.127234E+03
       301   1  6.457329E+05  9.087070E+04  1.175520E+05 -1.087273E+04 -1.956594E+04 -3.608855E+03
       301   2  6.517148E+05  8.634769E+04  1.368390E+05  3.327944E+03 -4.125505E+04 -4.316730E+03
       301   3  6.772034E+05  1.425973E+05  1.857303E+05 -1.764249E+04 -6.294407E+04 -4.244680E+03
       301   4  2.761952E+05 -1.382067E+03  2.561419E+04 -1.315393E+04 -1.974444E+04 -3.608802E+03
       301   5  2.664519E+05 -9.823008E+03  4.104748E+04  4.416780E+03 -4.129066E+04 -4.316976E+03
       301   6  2.762014E+05  4.250396E+04  8.599898E+04 -1.318493E+04 -6.283625E+04 -4.245243E+03
       301   7 -9.321860E+04 -9.364507E+04 -6.633388E+04 -1.543375E+04 -1.992282E+04 -3.608749E+03
       301   8 -1.186764E+05 -1.060048E+05 -5.475512E+04  5.504937E+03 -4.132624E+04 -4.317221E+03
       301   9 -1.246549E+05 -5.760135E+04 -1.374435E+04 -8.730269E+03 -6.272849E+04 -4.245804E+03
       301  10  6.457324E+05  9.087058E+04  1.175513E+05 -1.087278E+04 -2.001281E-10 -5.407167E-10
       301  11  6.517130E+05  8.634721E+04  1.368357E+05  3.327800E+03  8.051353E-10 -3.535373E-10
       301  12  6.771992E+05  1.425962E+05  1.857228E+05 -1.764270E+04  4.781639E-10  1.635184E-10
       301  13  2.761948E+05 -1.382185E+03  2.561343E+04 -1.315399E+04 -3.140178E-10  2.962760E-11
       301  14  2.664501E+05 -9.823486E+03  4.104424E+04  4.416636E+03  4.445667E-10 -4.131150E-10
       301  15  2.761971E+05  4.250288E+04  8.599153E+04 -1.318514E+04 -1.271054E-09  5.716929E-10
       301  16 -9.321902E+04 -9.364519E+04 -6.633465E+04 -1.543381E+04  7.045992E-10 -3.309493E-10
       301  17 -1.186782E+05 -1.060053E+05 -5.475837E+04  5.504793E+03  2.625085E-11 -9.100245E-10
       301  18 -1.246591E+05 -5.760242E+04 -1.375178E+04 -8.730483E+03 -5.257834E-10  6.864630E-10
       301  19  6.457329E+05  9.087070E+04  1.175520E+05 -1.087273E+04  1.956594E+04  3.608855E+03
       301  20  6.517148E+05  8.634769E+04  1.368390E+05  3.327944E+03  4.125505E+04  4.316730E+03
       301  21  6.772034E+05  1.425973E+05  1.857303E+05 -1.764249E+04  6.294407E+04  4.244680E+03
       301  22  2.761952E+05 -1.382067E+03  2.561419E+04 -1.315393E+04  1.974444E+04  3.608802E+03
       301  23  2.664519E+05 -9.823008E+03  4.104748E+04  4.416780E+03  4.129066E+04  4.316976E+03
       301  24  2.762014E+05  4.250396E+04  8.599898E+04 -1.318493E+04  6.283625E+04  4.245243E+03
       301  25 -9.321860E+04 -9.364507E+04 -6.633388E+04 -1.543375E+04  1.992282E+04  3.608749E+03
       301  26 -1.186764E+05 -1.060048E+05 -5.475512E+04  5.504937E+03  4.132624E+04  4.317221E+03
       301  27 -1.246549E+05 -5.760135E+04 -1.374435E+04 -8.730269E+03  6.272849E+04  4.245804E+03
       302   1  8.212384E+05  1.209289E+05  2.343042E+05  2.642366E+03 -7.937090E+04 -5.555677E+03
       302   2  7.810058E+05  6.970373E+04  2.930024E+05 -1.923055E+03 -1.670062E+05 -7.115858E+03
       302   3  8.566857E+05  4.240505E+05  5.107435E+05 -4.659188E+04 -2.546584E+05 -3.148025E+03
       302   4  2.975809E+05 -9.833855E+03  1.040663E+05 -1.398241E+04 -8.003216E+04 -5.554731E+03
       302   5  2.396660E+05 -6.536260E+04  1.585028E+05  5.611903E+03 -1.666725E+05 -7.117751E+03
       302   6  2.975849E+05  2.846928E+05  3.713903E+05 -1.489657E+04 -2.533270E+05 -3.157440E+03
       302   7 -2.258275E+05 -1.406162E+05 -2.619211E+04 -3.059325E+04 -8.069283E+04 -5.553748E+03
       302   8 -3.014080E+05 -2.004507E+05  2.398132E+04  1.314014E+04 -1.663390E+05 -7.119637E+03
       302   9 -2.612304E+05  1.453154E+05  2.320141E+05  1.677000E+04 -2.519967E+05 -3.166728E+03
       302  10  8.212317E+05  1.209272E+05  2.342924E+05  2.642011E+03 -6.043806E-10  5.223146E-10
       302  11  7.809759E+05  6.969620E+04  2.929499E+05 -1.924011E+03 -1.554828E-09  3.550698E-10
       302  12  8.566162E+05  4.240331E+05  5.106218E+05 -4.659252E+04  4.364979E-10 -3.330853E-10
       302  13  2.975740E+05 -9.835606E+03  1.040542E+05 -1.398277E+04  8.170277E-10  1.296282E-09
       302  14  2.396362E+05 -6.537011E+04  1.584505E+05  5.610948E+03  6.407727E-10  2.867956E-09
       302  15  2.975160E+05  2.846756E+05  3.712697E+05 -1.489722E+04 -1.722960E-09 -2.378653E-10
       302  16 -2.258345E+05 -1.406180E+05 -2.620441E+04 -3.059361E+04 -8.854747E-10  1.231992E-09
       302  17 -3.014377E+05 -2.004582E+05  2.392921E+04  1.313919E+04  1.614711E-11 -7.515072E-10
       302  18 -2.612986E+05  1.452984E+05  2.318947E+05  1.676935E+04  7.303400E-10 -1.646945E-09
       302  19  8.212384E+05  1.209289E+05  2.343042E+05  2.642366E+03  7.937090E+04  5.555677E+03
       302  20  7.810058E+05  6.970373E+04  2.930024E+05 -1.923055E+03  1.670062E+05  7.115858E+03
       302  21  8.566857E+05  4.240505E+05  5.107435E+05 -4.659188E+04  2.546584E+05  3.148025E+03
       302  22  2.975809E+05 -9.833855E+03  1.040663E+05 -1.398241E+04  8.003216E+04  5.554731E+03
       302  23  2.396660E+05 -6.536260E+04  1.585028E+05  5.611903E+03  1.666725E+05  7.117751E+03
       302  24  2.975849E+05  2.846928E+05  3.713903E+05 -1.489657E+04  2.533270E+05  3.157440E+03
       302  25 -2.258275E+05 -1.406162E+05 -2.619211E+04 -3.059325E+04  8.069283E+04  5.553748E+03
       302  26 -3.014080E+05 -2.004507E+05  2.398132E+04  1.314014E+04  1.663390E+05  7.119637E+03
       302  27 -2.612304E+05  1.453154E+05  2.320141E+05  1.677000E+04  2.519967E+05  3.166728E+03
       303   1  1.587721E+05  4.389246E+05  1.965202E+05 -3.295731E+04  4.169879E+02  1.110584E+05
       303   2  1.560165E+02  3.929159E+05  9.817628E+04  1.474268E+03  1.392761E+03  7.272773E+04
       303   3  1.931471E+04  3.962209E+05  6.920123E+04 -1.162260E+04  4.679200E+02  3.439341E+04
       303   4  1.245979E+05  3.023801E+05  1.624556E+05 -1.830450E+04  4.201891E+02  1.107315E+05
       303   5 -2.861031E+04  2.777510E+05  6.956150E+04  5.339964E+03  1.393211E+03  7.272774E+04
       303   6 -4.082504E+03  3.023894E+05  4.582054E+04 -1.854398E+04  4.667935E+02  3.471896E+04
       303   7  9.042308E+04  1.658529E+05  1.283897E+05 -3.654907E+03  4.233755E+02  1.104047E+05
       303   8 -5.737757E+04  1.625982E+05  4.094575E+04  9.204949E+03  1.393661E+03  7.272774E+04
       303   9 -2.748020E+04  2.085660E+05  2.243922E+04 -2.546432E+04  4.656596E+02  3.504447E+04
       303  10  1.587688E+05  4.389114E+05  1.964970E+05 -3.295735E+04  2.959807E-10 -5.238444E-11
       303  11  1.545957E+02  3.929103E+05  9.816634E+04  1.474187E+03  7.619061E-11 -1.582565E-09
       303  12  1.931439E+04  3.962197E+05  6.919901E+04 -1.162261E+04  7.016586E-10  6.311236E-10
       303  13  1.245946E+05  3.023669E+05  1.624325E+05 -1.830454E+04  6.587062E-10 -9.592719E-10
       303  14 -2.861173E+04  2.777454E+05  6.955156E+04  5.339883E+03 -3.529189E-09  1.271827E-10
       303  15 -4.082827E+03  3.023882E+05  4.581828E+04 -1.854399E+04  5.769457E-10  9.468737E-10
       303  16  9.041981E+04  1.658398E+05  1.283668E+05 -3.654944E+03 -9.164859E-10  6.113202E-10
       303  17 -5.737900E+04  1.625925E+05  4.093581E+04  9.204868E+03 -1.394336E-09  2.679757E-10
       303  18 -2.748053E+04  2.085647E+05  2.243691E+04 -2.546433E+04  7.844349E-11 -3.449471E-11
       303  19  1.587721E+05  4.389246E+05  1.965202E+05 -3.295731E+04 -4.169879E+02 -1.110584E+05
       303  20  1.560165E+02  3.929159E+05  9.817628E+04  1.474268E+03 -1.392761E+03 -7.272773E+04
       303  21  1.931471E+04  3.962209E+05  6.920123E+04 -1.162260E+04 -4.679200E+02 -3.439341E+04
       303  22  1.245979E+05  3.023801E+05  1.624556E+05 -1.830450E+04 -4.201891E+02 -1.107315E+05
       303  23 -2.861031E+04  2.777510E+05  6.956150E+04  5.339964E+03 -1.393211E+03 -7.272774E+04
       303  24 -4.082504E+03  3.023894E+05  4.582054E+04 -1.854398E+04 -4.667935E+02 -3.471896E+04
       303  25  9.042308E+04  1.658529E+05  1.283897E+05 -3.654907E+03 -4.233755E+02 -1.104047E+05
       303  26 -5.737757E+04  1.625982E+05  4.094575E+04  9.204949E+03 -1.393661E+03 -7.272774E+04
       303  27 -2.748020E+04  2.085660E+05  2.243922E+04 -2.546432E+04 -4.656596E+02 -3.504447E+04
       304   1  2.573003E+03  2.286852E+05  2.194894E+04 -2.044232E+04 -3.945250E+02  2.701230E+04
       304   2 -2.596234E+04  2.033160E+05 -2.658334E+03  4.995777E+03 -1.006063E+03  1.724047E+04
       304   3 -2.638051E+04  1.860706E+05 -1.391234E+04 -1.713376E+04 -1.388126E+03  7.469725E+03
       304   4  1.868910E+04  2.932446E+05  3.804524E+04 -1.843965E+04 -3.947238E+02  2.714034E+04
       304   5 -4.524567E+03  2.891832E+05  1.869607E+04  5.323157E+03 -1.006229E+03  1.732911E+04
       304   6  3.839034E+02  2.932513E+05  1.272675E+04 -1.848120E+04 -1.388222E+03  7.518627E+03
       304   7  3.480491E+04  3.578078E+05  5.414123E+04 -1.643678E+04 -3.949217E+02  2.726840E+04
       304   8  1.691265E+04  3.750571E+05  4.004993E+04  5.650585E+03 -1.006395E+03  1.741776E+04
       304   9  2.714746E+04  4.004425E+05  3.936499E+04 -1.982886E+04 -1.388318E+03  7.567537E+03
       304  10  2.572807E+03  2.286844E+05  2.194757E+04 -2.044231E+04  3.806942E-10  8.735321E-11
       304  11 -2.596242E+04  2.033157E+05 -2.658894E+03  4.995791E+03  1.069359E-10 -1.041788E-09
       304  12 -2.638053E+04  1.860706E+05 -1.391245E+04 -1.713375E+04 -3.110417E-10  1.321761E-09
       304  13  1.868891E+04  2.932439E+05  3.804385E+04 -1.843965E+04  4.021105E-10 -1.201170E-09
       304  14 -4.524648E+03  2.891829E+05  1.869551E+04  5.323171E+03 -1.746922E-10 -7.693761E-11
       304  15  3.838862E+02  2.932513E+05  1.272664E+04 -1.848119E+04  8.306060E-10  8.135238E-10
       304  16  3.480471E+04  3.578070E+05  5.413983E+04 -1.643677E+04  4.954687E-10  6.034493E-10
       304  17  1.691257E+04  3.750568E+05  4.004935E+04  5.650599E+03 -1.679388E-09 -2.495325E-10
       304  18  2.714744E+04  4.004424E+05  3.936488E+04 -1.982886E+04  3.852944E-10 -7.792195E-10
       304  19  2.573003E+03  2.286852E+05  2.194894E+04 -2.044232E+04  3.945250E+02 -2.701230E+04
       304  20 -2.596234E+04  2.033160E+05 -2.658334E+03  4.995777E+03  1.006063E+03 -1.724047E+04
       304  21 -2.638051E+04  1.860706E+05 -1.391234E+04 -1.713376E+04  1.388126E+03 -7.469725E+03
       304  22  1.868910E+04  2.932446E+05  3.804524E+04 -1.843965E+04  3.947238E+02 -2.714034E+04
       304  23 -4.524567E+03  2.891832E+05  1.869607E+04  5.323157E+03  1.006229E+03 -1.732911E+04
       304  24  3.839034E+02  2.932513E+05  1.272675E+04 -1.848120E+04  1.388222E+03 -7.518627E+03
       304  25  3.480491E+04  3.578078E+05  5.414123E+04 -1.643678E+04  3.949217E+02 -2.726840E+04
       304  26  1.691265E+04  3.750571E+05  4.004993E+04  5.650585E+03  1.006395E+03 -1.741776E+04
       304  27  2.714746E+04  4.004425E+05  3.936499E+04 -1.982886E+04  1.388318E+03 -7.567537E+03
       305   1 -6.430735E+04  2.436427E+04 -5.590972E+04 -1.912590E+04 -2.481828E+03  4.874882E+03
       305   2 -7.463190E+04  5.192566E+01 -6.486455E+04  6.199272E+03 -3.698391E+03  1.604342E+03
       305   3 -7.149798E+04 -1.977689E+04 -6.818732E+04 -1.773089E+04 -1.351017E+03 -1.661980E+03
       305   4  2.645071E+03  2.924423E+05  1.082774E+04 -1.884166E+04 -2.482659E+03  5.381277E+03
       305   5 -2.196453E+03  2.901559E+05  7.246497E+03  5.785396E+03 -3.698166E+03  1.510533E+03
       305   6  6.521497E+03  2.924549E+05  9.712223E+03 -1.884142E+04 -1.350458E+03 -2.356101E+03
       305   7  6.959209E+04  5.605855E+05  7.755980E+04 -1.855725E+04 -2.483489E+03  5.887889E+03
       305   8  7.023268E+04  5.803361E+05  7.935124E+04  5.371349E+03 -3.697941E+03  1.416680E+03
       305   9  8.453363E+04  6.047750E+05  8.760443E+04 -1.995250E+04 -1.349897E+03 -3.050570E+03
       305  10 -6.430736E+04  2.436424E+04 -5.590978E+04 -1.912589E+04  4.743852E-10 -3.051809E-10
       305  11 -7.463192E+04  5.191922E+01 -6.486458E+04  6.199277E+03  7.554238E-10 -1.412639E-09
       305  12 -7.149798E+04 -1.977689E+04 -6.818733E+04 -1.773089E+04  1.502390E-11 -8.366624E-11
       305  13  2.645057E+03  2.924423E+05  1.082767E+04 -1.884164E+04 -1.731815E-09 -7.349696E-10
       305  14 -2.196468E+03  2.901558E+05  7.246467E+03  5.785400E+03 -4.945417E-11  8.309164E-11
       305  15  6.521494E+03  2.924549E+05  9.712209E+03 -1.884143E+04 -6.599986E-10  1.976809E-10
       305  16  6.959207E+04  5.605854E+05  7.755973E+04 -1.855724E+04  1.616329E-09  8.282994E-10
       305  17  7.023266E+04  5.803361E+05  7.935121E+04  5.371353E+03 -4.026019E-10  5.683979E-10
       305  18  8.453363E+04  6.047750E+05  8.760441E+04 -1.995251E+04 -5.910513E-10  3.450201E-10
       305  19 -6.430735E+04  2.436427E+04 -5.590972E+04 -1.912590E+04  2.481828E+03 -4.874882E+03
       305  20 -7.463190E+04  5.192566E+01 -6.486455E+04  6.199272E+03  3.698391E+03 -1.604342E+03
       305  21 -7.149798E+04 -1.977689E+04 -6.818732E+04 -1.773089E+04  1.351017E+03  1.661980E+03
       305  22  2.645071E+03  2.924423E+05  1.082774E+04 -1.884166E+04  2.482659E+03 -5.381277E+03
       305  23 -2.196453E+03  2.901559E+05  7.246497E+03  5.785396E+03  3.698166E+03 -1.510533E+03
       305  24  6.521497E+03  2.924549E+05  9.712223E+03 -1.884142E+04  1.350458E+03  2.356101E+03
       305  25  6.959209E+04  5.605855E+05  7.755980E+04 -1.855725E+04  2.483489E+03 -5.887889E+03
       305  26  7.023268E+04  5.803361E+05  7.935124E+04  5.371349E+03  3.697941E+03 -1.416680E+03
       305  27  8.453363E+04  6.047750E+05  8.760443E+04 -1.995250E+04  1.349897E+03  3.050570E+03
       306   1 -1.928720E+06 -5.229395E+05 -3.473940E+05 -6.434794E+05 -2.068152E+05 -7.760884E+04
       306   2 -1.860191E+06 -2.410266E+05 -1.559231E+05 -7.237251E+05 -1.334239E+05 -4.910866E+04
       306   3 -1.938354E+06 -2.735850E+05 -1.093301E+05 -7.031038E+05 -5.983909E+04 -2.112990E+04
       306   4 -1.871172E+06 -4.762935E+05 -3.265471E+05 -6.023828E+05 -2.066748E+05 -7.756633E+04
       306   5 -1.781505E+06 -2.049061E+05 -1.330316E+05 -6.957991E+05 -1.333603E+05 -4.908640E+04
       306   6 -1.838503E+06 -2.479515E+05 -8.432215E+04 -6.883541E+05 -5.984942E+04 -2.113234E+04
       306   7 -1.813620E+06 -4.296422E+05 -3.057003E+05 -5.612815E+05 -2.065344E+05 -7.752380E+04
       306   8 -1.702814E+06 -1.687843E+05 -1.101408E+05 -6.678697E+05 -1.332966E+05 -4.906414E+04
       306   9 -1.738642E+06 -2.223183E+05 -5.931489E+04 -6.736029E+05 -5.985976E+04 -2.113478E+04
       306  10 -1.928768E+06 -5.229575E+05 -3.474860E+05 -6.434924E+05 -6.155779E-10 -1.314511E-10
       306  11 -1.860210E+06 -2.410340E+05 -1.559612E+05 -7.237304E+05 -9.234666E-10 -2.182235E-10
       306  12 -1.938358E+06 -2.735865E+05 -1.093377E+05 -7.031048E+05  2.907460E-10 -1.235922E-10
       306  13 -1.871220E+06 -4.763115E+05 -3.266390E+05 -6.023957E+05  5.989833E-10 -3.601365E-10
       306  14 -1.781525E+06 -2.049135E+05 -1.330697E+05 -6.958044E+05 -6.561918E-10 -9.079938E-10
       306  15 -1.838507E+06 -2.479529E+05 -8.432974E+04 -6.883551E+05 -6.901950E-10 -8.078683E-10
       306  16 -1.813667E+06 -4.296602E+05 -3.057921E+05 -5.612944E+05  6.566599E-10 -8.053525E-10
       306  17 -1.702834E+06 -1.687917E+05 -1.101788E+05 -6.678750E+05  1.110125E-09 -1.317991E-09
       306  18 -1.738646E+06 -2.223198E+05 -5.932248E+04 -6.736039E+05 -2.676963E-10 -6.187563E-10
       306  19 -1.928720E+06 -5.229395E+05 -3.473940E+05 -6.434794E+05  2.068152E+05  7.760884E+04
       306  20 -1.860191E+06 -2.410266E+05 -1.559231E+05 -7.237251E+05  1.334239E+05  4.910866E+04
       306  21 -1.938354E+06 -2.735850E+05 -1.093301E+05 -7.031038E+05  5.983909E+04  2.112990E+04
       306  22 -1.871172E+06 -4.762935E+05 -3.265471E+05 -6.023828E+05  2.066748E+05  7.756633E+04
       306  23 -1.781505E+06 -2.049061E+05 -1.330316E+05 -6.957991E+05  1.333603E+05  4.908640E+04
       306  24 -1.838503E+06 -2.479515E+05 -8.432215E+04 -6.883541E+05  5.984942E+04  2.113234E+04
       306  25 -1.813620E+06 -4.296422E+05 -3.057003E+05 -5.612815E+05  2.065344E+05  7.752380E+04
       306  26 -1.702814E+06 -1.687843E+05 -1.101408E+05 -6.678697E+05  1.332966E+05  4.906414E+04
       306  27 -1.738642E+06 -2.223183E+05 -5.931489E+04 -6.736029E+05  5.985976E+04  2.113478E+04
       307   1 -1.967078E+06 -3.444860E+05 -1.089315E+05 -7.103041E+05 -4.717499E+04 -1.620698E+04
       307   2 -1.956938E+06 -3.059828E+05 -7.181263E+04 -7.262811E+05 -3.062110E+04 -9.566165E+03
       307   3 -1.974836E+06 -3.094274E+05 -6.062153E+04 -7.209914E+05 -1.395240E+04 -3.229260E+03
       307   4 -1.826433E+06 -2.876409E+05 -6.950869E+04 -6.683020E+05 -4.710291E+04 -1.618022E+04
       307   5 -1.809968E+06 -2.495134E+05 -3.123765E+04 -6.853839E+05 -3.059313E+04 -9.555734E+03
       307   6 -1.821528E+06 -2.533179E+05 -1.885484E+04 -6.812003E+05 -1.396838E+04 -3.235247E+03
       307   7 -1.685768E+06 -2.307938E+05 -3.008774E+04 -6.262911E+05 -4.703082E+04 -1.615345E+04
       307   8 -1.662977E+06 -1.930426E+05  9.335350E+03 -6.444778E+05 -3.056516E+04 -9.545300E+03
       307   9 -1.668197E+06 -1.972075E+05  2.290974E+04 -6.414004E+05 -1.398436E+04 -3.241236E+03
       307  10 -1.967081E+06 -3.444869E+05 -1.089362E+05 -7.103047E+05  2.913882E-10 -1.504476E-10
       307  11 -1.956939E+06 -3.059832E+05 -7.181457E+04 -7.262813E+05  1.046019E-09 -1.550621E-10
       307  12 -1.974836E+06 -3.094275E+05 -6.062192E+04 -7.209915E+05  7.527759E-10 -2.334250E-10
       307  13 -1.826435E+06 -2.876418E+05 -6.951337E+04 -6.683026E+05  2.187192E-10 -3.238021E-10
       307  14 -1.809969E+06 -2.495138E+05 -3.123959E+04 -6.853841E+05  9.879158E-10  2.515514E-10
       307  15 -1.821528E+06 -2.533180E+05 -1.885523E+04 -6.812003E+05 -2.951861E-10  7.629510E-10
       307  16 -1.685771E+06 -2.307947E+05 -3.009240E+04 -6.262917E+05 -6.209185E-10 -1.051417E-09
       307  17 -1.662978E+06 -1.930430E+05  9.333417E+03 -6.444781E+05 -9.964752E-10  4.517892E-10
       307  18 -1.668198E+06 -1.972076E+05  2.290935E+04 -6.414005E+05  2.711876E-10 -6.273261E-10
       307  19 -1.967078E+06 -3.444860E+05 -1.089315E+05 -7.103041E+05  4.717499E+04  1.620698E+04
       307  20 -1.956938E+06 -3.059828E+05 -7.181263E+04 -7.262811E+05  3.062110E+04  9.566165E+03
       307  21 -1.974836E+06 -3.094274E+05 -6.062153E+04 -7.209914E+05  1.395240E+04  3.229260E+03
       307  22 -1.826433E+06 -2.876409E+05 -6.950869E+04 -6.683020E+05  4.710291E+04  1.618022E+04
       307  23 -1.809968E+06 -2.495134E+05 -3.123765E+04 -6.853839E+05  3.059313E+04  9.555734E+03
       307  24 -1.821528E+06 -2.533179E+05 -1.885484E+04 -6.812003E+05  1.396838E+04  3.235247E+03
       307  25 -1.685768E+06 -2.307938E+05 -3.008774E+04 -6.262911E+05  4.703082E+04  1.615345E+04
       307  26 -1.662977E+06 -1.930426E+05  9.335350E+03 -6.444778E+05  3.056516E+04  9.545300E+03
       307  27 -1.668197E+06 -1.972075E+05  2.290974E+04 -6.414004E+05  1.398436E+04  3.241236E+03
       308   1 -1.986896E+06 -3.251846E+05 -6.162600E+04 -7.264363E+05 -1.121211E+04 -2.138111E+03
       308   2 -1.985343E+06 -3.181756E+05 -5.376143E+04 -7.275767E+05 -7.415205E+03 -5.617414E+02
       308   3 -1.986134E+06 -3.191568E+05 -5.071246E+04 -7.274352E+05 -3.511783E+03  7.306724E+02
       308   4 -1.817957E+06 -2.608179E+05 -1.507799E+04 -6.799882E+05 -1.117126E+04 -2.122822E+03
       308   5 -1.816425E+06 -2.542640E+05 -7.323476E+03 -6.815897E+05 -7.417886E+03 -5.627905E+02
       308   6 -1.817227E+06 -2.556905E+05 -4.348964E+03 -6.819097E+05 -3.558013E+03  7.133165E+02
       308   7 -1.648991E+06 -1.964496E+05  3.146734E+04 -6.335287E+05 -1.113039E+04 -2.107528E+03
       308   8 -1.647479E+06 -1.903508E+05  3.911187E+04 -6.355914E+05 -7.420567E+03 -5.638399E+02
       308   9 -1.648291E+06 -1.922226E+05  4.201197E+04 -6.363730E+05 -3.604257E+03  6.959556E+02
       308  10 -1.986896E+06 -3.251847E+05 -6.162624E+04 -7.264363E+05 -2.467013E-10 -8.809762E-10
       308  11 -1.985343E+06 -3.181756E+05 -5.376154E+04 -7.275767E+05  2.020385E-10  1.096008E-10
       308  12 -1.986134E+06 -3.191568E+05 -5.071249E+04 -7.274352E+05  4.436965E-10 -5.012640E-10
       308  13 -1.817957E+06 -2.608180E+05 -1.507824E+04 -6.799882E+05 -5.613008E-10  6.463548E-10
       308  14 -1.816425E+06 -2.542640E+05 -7.323580E+03 -6.815897E+05  2.889442E-10  4.042152E-10
       308  15 -1.817227E+06 -2.556905E+05 -4.348989E+03 -6.819097E+05 -1.158174E-11 -2.396326E-10
       308  16 -1.648991E+06 -1.964496E+05  3.146710E+04 -6.335287E+05  1.730958E-10  1.831349E-10
       308  17 -1.647479E+06 -1.903508E+05  3.911176E+04 -6.355914E+05  1.091962E-10 -1.609769E-10
       308  18 -1.648291E+06 -1.922226E+05  4.201194E+04 -6.363730E+05  3.034571E-10  9.567595E-10
       308  19 -1.986896E+06 -3.251846E+05 -6.162600E+04 -7.264363E+05  1.121211E+04  2.138111E+03
       308  20 -1.985343E+06 -3.181756E+05 -5.376143E+04 -7.275767E+05  7.415205E+03  5.617414E+02
       308  21 -1.986134E+06 -3.191568E+05 -5.071246E+04 -7.274352E+05  3.511783E+03 -7.306724E+02
       308  22 -1.817957E+06 -2.608179E+05 -1.507799E+04 -6.799882E+05  1.117126E+04  2.122822E+03
       308  23 -1.816425E+06 -2.542640E+05 -7.323476E+03 -6.815897E+05  7.417886E+03  5.627905E+02
       308  24 -1.817227E+06 -2.556905E+05 -4.348964E+03 -6.819097E+05  3.558013E+03 -7.133165E+02
       308  25 -1.648991E+06 -1.964496E+05  3.146734E+04 -6.335287E+05  1.113039E+04  2.107528E+03
       308  26 -1.647479E+06 -1.903508E+05  3.911187E+04 -6.355914E+05  7.420567E+03  5.638399E+02
       308  27 -1.648291E+06 -1.922226E+05  4.201197E+04 -6.363730E+05  3.604257E+03 -6.959556E+02
       309   1 -1.961164E+06 -3.134218E+05 -4.358590E+04 -7.230914E+05 -2.884744E+03  8.744060E+02
       309   2 -1.960346E+06 -3.063282E+05 -4.077745E+04 -7.171429E+05 -1.789179E+03  1.181392E+03
       309   3 -1.951424E+06 -3.089116E+05 -3.904169E+04 -7.205314E+05 -6.080534E+02  1.259164E+03
       309   4 -1.815216E+06 -2.582807E+05 -3.482888E+03 -6.834379E+05 -2.881353E+03  8.756431E+02
       309   5 -1.819224E+06 -2.531039E+05 -2.015520E+03 -6.788978E+05 -1.821503E+03  1.169272E+03
       309   6 -1.815120E+06 -2.575965E+05 -1.592280E+03 -6.836943E+05 -6.761115E+02  1.233708E+03
       309   7 -1.669247E+06 -2.031384E+05  3.661818E+04 -6.437761E+05 -2.877962E+03  8.768805E+02
       309   8 -1.678082E+06 -1.998784E+05  3.674457E+04 -6.406448E+05 -1.853836E+03  1.157148E+03
       309   9 -1.678799E+06 -2.062804E+05  3.585540E+04 -6.468500E+05 -7.441859E+02  1.208245E+03
       309  10 -1.961164E+06 -3.134218E+05 -4.358592E+04 -7.230914E+05  2.591231E-10 -7.028984E-10
       309  11 -1.960346E+06 -3.063282E+05 -4.077746E+04 -7.171429E+05  2.414714E-09 -4.890941E-11
       309  12 -1.951424E+06 -3.089116E+05 -3.904170E+04 -7.205314E+05  1.112706E-09  2.939792E-10
       309  13 -1.815216E+06 -2.582807E+05 -3.482905E+03 -6.834379E+05  5.398884E-10  4.894238E-11
       309  14 -1.819224E+06 -2.531039E+05 -2.015529E+03 -6.788978E+05  9.603687E-10  1.106614E-09
       309  15 -1.815120E+06 -2.575965E+05 -1.592284E+03 -6.836943E+05  9.843034E-10  1.415319E-09
       309  16 -1.669247E+06 -2.031384E+05  3.661816E+04 -6.437761E+05  8.482737E-10  4.697461E-10
       309  17 -1.678082E+06 -1.998784E+05  3.674456E+04 -6.406448E+05  9.621406E-10 -3.027170E-10
       309  18 -1.678799E+06 -2.062804E+05  3.585540E+04 -6.468500E+05 -7.270476E-10 -8.419955E-10
       309  19 -1.961164E+06 -3.134218E+05 -4.358590E+04 -7.230914E+05  2.884744E+03 -8.744060E+02
       309  20 -1.960346E+06 -3.063282E+05 -4.077745E+04 -7.171429E+05  1.789179E+03 -1.181392E+03
       309  21 -1.951424E+06 -3.089116E+05 -3.904169E+04 -7.205314E+05  6.080534E+02 -1.259164E+03
       309  22 -1.815216E+06 -2.582807E+05 -3.482888E+03 -6.834379E+05  2.881353E+03 -8.756431E+02
       309  23 -1.819224E+06 -2.531039E+05 -2.015520E+03 -6.788978E+05  1.821503E+03 -1.169272E+03
       309  24 -1.815120E+06 -2.575965E+05 -1.592280E+03 -6.836943E+05  6.761115E+02 -1.233708E+03
       309  25 -1.669247E+06 -2.031384E+05  3.661818E+04 -6.437761E+05  2.877962E+03 -8.768805E+02
       309  26 -1.678082E+06 -1.998784E+05  3.674457E+04 -6.406448E+05  1.853836E+03 -1.157148E+03
       309  27 -1.678799E+06 -2.062804E+05  3.585540E+04 -6.468500E+05  7.441859E+02 -1.208245E+03
       310   1 -1.893965E+06 -2.890225E+05 -2.354186E+04 -7.067818E+05 -3.055042E+02  1.148106E+03
       310   2 -1.892702E+06 -2.787196E+05 -2.165034E+04 -6.966151E+05  7.757537E+02  1.232481E+03
       310   3 -1.878089E+06 -2.834464E+05 -2.079239E+04 -7.021156E+05  1.898365E+03  1.205797E+03
       310   4 -1.813958E+06 -2.588360E+05 -1.585837E+03 -6.850807E+05 -3.407807E+02  1.134917E+03
       310   5 -1.820675E+06 -2.516023E+05 -1.876920E+03 -6.771434E+05  7.231652E+02  1.212837E+03
       310   6 -1.814039E+06 -2.593947E+05 -3.187787E+03 -6.848733E+05  1.828447E+03  1.179700E+03
       310   7 -1.733946E+06 -2.286492E+05  2.036962E+04 -6.633770E+05 -3.760624E+02  1.121726E+03
       310   8 -1.748643E+06 -2.244847E+05  1.789603E+04 -6.576697E+05  6.705699E+02  1.193191E+03
       310   9 -1.749984E+06 -2.353427E+05  1.441644E+04 -6.676294E+05  1.758522E+03  1.153600E+03
       310  10 -1.893965E+06 -2.890225E+05 -2.354186E+04 -7.067818E+05  5.326170E-10  1.288402E-10
       310  11 -1.892702E+06 -2.787196E+05 -2.165034E+04 -6.966151E+05  8.774059E-10  5.640352E-10
       310  12 -1.878089E+06 -2.834465E+05 -2.079240E+04 -7.021156E+05  2.314337E-10  3.345055E-10
       310  13 -1.813958E+06 -2.588361E+05 -1.585839E+03 -6.850807E+05 -2.811715E-10 -3.168754E-10
       310  14 -1.820675E+06 -2.516023E+05 -1.876923E+03 -6.771434E+05  1.685496E-10 -2.239560E-10
       310  15 -1.814039E+06 -2.593947E+05 -3.187796E+03 -6.848733E+05  1.130567E-09  3.956852E-10
       310  16 -1.733946E+06 -2.286492E+05  2.036962E+04 -6.633770E+05 -1.383207E-09 -1.115334E-09
       310  17 -1.748643E+06 -2.244847E+05  1.789603E+04 -6.576697E+05 -1.185392E-09  6.955313E-10
       310  18 -1.749984E+06 -2.353427E+05  1.441643E+04 -6.676294E+05 -1.805552E-10 -2.225516E-09
       310  19 -1.893965E+06 -2.890225E+05 -2.354186E+04 -7.067818E+05  3.055042E+02 -1.148106E+03
       310  20 -1.892702E+06 -2.787196E+05 -2.165034E+04 -6.966151E+05 -7.757537E+02 -1.232481E+03
       310  21 -1.878089E+06 -2.834464E+05 -2.079239E+04 -7.021156E+05 -1.898365E+03 -1.205797E+03
       310  22 -1.813958E+06 -2.588360E+05 -1.585837E+03 -6.850807E+05  3.407807E+02 -1.134917E+03
       310  23 -1.820675E+06 -2.516023E+05 -1.876920E+03 -6.771434E+05 -7.231652E+02 -1.212837E+03
       310  24 -1.814039E+06 -2.593947E+05 -3.187787E+03 -6.848733E+05 -1.828447E+03 -1.179700E+03
       310  25 -1.733946E+06 -2.286492E+05  2.036962E+04 -6.633770E+05  3.760624E+02 -1.121726E+03
       310  26 -1.748643E+06 -2.244847E+05  1.789603E+04 -6.576697E+05 -6.705699E+02 -1.193191E+03
       310  27 -1.749984E+06 -2.353427E+05  1.441644E+04 -6.676294E+05 -1.758522E+03 -1.153600E+03
       311   1 -1.804550E+06 -2.556593E+05 -1.395257E+03 -6.833764E+05  2.586857E+03  1.166154E+03
       311   2 -1.802432E+06 -2.433994E+05 -1.632742E+03 -6.718703E+05  6.159251E+03  2.055369E+03
       311   3 -1.788057E+06 -2.531333E+05 -6.264828E+03 -6.762740E+05  9.707418E+03  3.009762E+03
       311   4 -1.814005E+06 -2.589669E+05 -3.972203E+03 -6.856639E+05  2.520557E+03  1.141415E+03
       311   5 -1.820458E+06 -2.502847E+05 -6.600302E+03 -6.768461E+05  6.103072E+03  2.034400E+03
       311   6 -1.814657E+06 -2.635986E+05 -1.363117E+04 -6.839380E+05  9.661312E+03  2.992542E+03
       311   7 -1.823460E+06 -2.622745E+05 -6.549155E+03 -6.879513E+05  2.454257E+03  1.116676E+03
       311   8 -1.838484E+06 -2.571701E+05 -1.156789E+04 -6.818216E+05  6.046895E+03  2.013432E+03
       311   9 -1.841256E+06 -2.740637E+05 -2.099759E+04 -6.916017E+05  9.615208E+03  2.975323E+03
       311  10 -1.804550E+06 -2.556593E+05 -1.395272E+03 -6.833764E+05 -1.291964E-09 -9.803179E-10
       311  11 -1.802432E+06 -2.433994E+05 -1.632821E+03 -6.718703E+05 -1.485591E-09  1.681461E-11
       311  12 -1.788057E+06 -2.531334E+05 -6.265023E+03 -6.762740E+05  3.206167E-10 -1.207955E-09
       311  13 -1.814005E+06 -2.589669E+05 -3.972217E+03 -6.856639E+05  8.742787E-10  2.973742E-10
       311  14 -1.820458E+06 -2.502848E+05 -6.600380E+03 -6.768461E+05 -3.757099E-10  2.787462E-10
       311  15 -1.814657E+06 -2.635986E+05 -1.363137E+04 -6.839380E+05 -7.257889E-10  5.883587E-10
       311  16 -1.823460E+06 -2.622745E+05 -6.549168E+03 -6.879513E+05  1.224334E-09 -5.451938E-10
       311  17 -1.838484E+06 -2.571701E+05 -1.156797E+04 -6.818216E+05  7.508464E-10  1.319470E-09
       311  18 -1.841257E+06 -2.740638E+05 -2.099778E+04 -6.916017E+05 -4.691845E-10 -1.875780E-09
       311  19 -1.804550E+06 -2.556593E+05 -1.395257E+03 -6.833764E+05 -2.586857E+03 -1.166154E+03
       311  20 -1.802432E+06 -2.433994E+05 -1.632742E+03 -6.718703E+05 -6.159251E+03 -2.055369E+03
       311  21 -1.788057E+06 -2.531333E+05 -6.264828E+03 -6.762740E+05 -9.707418E+03 -3.009762E+03
       311  22 -1.814005E+06 -2.589669E+05 -3.972203E+03 -6.856639E+05 -2.520557E+03 -1.141415E+03
       311  23 -1.820458E+06 -2.502847E+05 -6.600302E+03 -6.768461E+05 -6.103072E+03 -2.034400E+03
       311  24 -1.814657E+06 -2.635986E+05 -1.363117E+04 -6.839380E+05 -9.661312E+03 -2.992542E+03
       311  25 -1.823460E+06 -2.622745E+05 -6.549155E+03 -6.879513E+05 -2.454257E+03 -1.116676E+03
       311  26 -1.838484E+06 -2.571701E+05 -1.156789E+04 -6.818216E+05 -6.046895E+03 -2.013432E+03
       311  27 -1.841256E+06 -2.740637E+05 -2.099759E+04 -6.916017E+05 -9.615208E+03 -2.975323E+03
       312   1 -1.719780E+06 -2.228193E+05  9.342679E+03 -6.615308E+05  1.240989E+04  3.705948E+03
       312   2 -1.713501E+06 -2.054985E+05  7.888945E+01 -6.504493E+05  2.753088E+04  8.895928E+03
       312   3 -1.713648E+06 -2.450001E+05 -3.252343E+04 -6.420108E+05  4.250092E+04  1.449025E+04
       312   4 -1.816907E+06 -2.577315E+05 -1.702139E+04 -6.860726E+05  1.231394E+04  3.670156E+03
       312   5 -1.815874E+06 -2.448392E+05 -2.817811E+04 -6.789548E+05  2.749598E+04  8.882829E+03
       312   6 -1.821283E+06 -2.887862E+05 -6.272489E+04 -6.744795E+05  4.252690E+04  1.449967E+04
       312   7 -1.914024E+06 -2.926435E+05 -4.338629E+04 -7.106110E+05  1.221801E+04  3.634370E+03
       312   8 -1.918237E+06 -2.841792E+05 -5.643606E+04 -7.074561E+05  2.746108E+04  8.869732E+03
       312   9 -1.928906E+06 -3.325712E+05 -9.292742E+04 -7.069430E+05  4.255288E+04  1.450909E+04
       312  10 -1.719780E+06 -2.228194E+05  9.342363E+03 -6.615309E+05  9.950801E-10  1.099172E-09
       312  11 -1.713502E+06 -2.054988E+05  7.731144E+01 -6.504495E+05 -9.918648E-11 -7.728278E-10
       312  12 -1.713650E+06 -2.450008E+05 -3.252724E+04 -6.420113E+05 -6.809570E-10 -7.936082E-10
       312  13 -1.816907E+06 -2.577316E+05 -1.702170E+04 -6.860726E+05  6.730435E-10  1.329713E-09
       312  14 -1.815875E+06 -2.448395E+05 -2.817968E+04 -6.789550E+05  5.536416E-10  1.060775E-09
       312  15 -1.821285E+06 -2.887870E+05 -6.272870E+04 -6.744800E+05 -4.286766E-10 -9.051743E-10
       312  16 -1.914024E+06 -2.926435E+05 -4.338660E+04 -7.106110E+05  2.854610E-10 -3.908664E-10
       312  17 -1.918238E+06 -2.841795E+05 -5.643763E+04 -7.074563E+05 -3.312793E-10 -6.034188E-11
       312  18 -1.928908E+06 -3.325719E+05 -9.293123E+04 -7.069435E+05 -3.967307E-11  3.190606E-10
       312  19 -1.719780E+06 -2.228193E+05  9.342679E+03 -6.615308E+05 -1.240989E+04 -3.705948E+03
       312  20 -1.713501E+06 -2.054985E+05  7.888945E+01 -6.504493E+05 -2.753088E+04 -8.895928E+03
       312  21 -1.713648E+06 -2.450001E+05 -3.252343E+04 -6.420108E+05 -4.250092E+04 -1.449025E+04
       312  22 -1.816907E+06 -2.577315E+05 -1.702139E+04 -6.860726E+05 -1.231394E+04 -3.670156E+03
       312  23 -1.815874E+06 -2.448392E+05 -2.817811E+04 -6.789548E+05 -2.749598E+04 -8.882829E+03
       312  24 -1.821283E+06 -2.887862E+05 -6.272489E+04 -6.744795E+05 -4.252690E+04 -1.449967E+04
       312  25 -1.914024E+06 -2.926435E+05 -4.338629E+04 -7.106110E+05 -1.221801E+04 -3.634370E+03
       312  26 -1.918237E+06 -2.841792E+05 -5.643606E+04 -7.074561E+05 -2.746108E+04 -8.869732E+03
       312  27 -1.928906E+06 -3.325712E+05 -9.292742E+04 -7.069430E+05 -4.255288E+04 -1.450909E+04
       313   1 -1.669894E+06 -2.021804E+05 -3.357712E+04 -6.593269E+05  5.443740E+04  1.852248E+04
       313   2 -1.636319E+06 -1.413360E+05 -7.674112E+04 -6.412846E+05  1.207785E+05  4.289005E+04
       313   3 -1.716840E+06 -3.819064E+05 -2.502533E+05 -5.526377E+05  1.864444E+05  6.906833E+04
       313   4 -1.832470E+06 -2.525565E+05 -7.606390E+04 -6.921042E+05  5.422317E+04  1.844352E+04
       313   5 -1.789971E+06 -2.049615E+05 -1.200449E+05 -6.887940E+05  1.208323E+05  4.290875E+04
       313   6 -1.861650E+06 -4.588811E+05 -2.946124E+05 -6.148712E+05  1.867670E+05  6.918080E+04
       313   7 -1.995022E+06 -3.029329E+05 -1.185528E+05 -7.248747E+05  5.400899E+04  1.836456E+04
       313   8 -1.943601E+06 -2.685843E+05 -1.633510E+05 -7.362923E+05  1.208860E+05  4.292745E+04
       313   9 -2.006438E+06 -5.358474E+05 -3.389736E+05 -6.770894E+05  1.870896E+05  6.929321E+04
       313  10 -1.669897E+06 -2.021816E+05 -3.358335E+04 -6.593277E+05 -1.964194E-11  1.254400E-09
       313  11 -1.636335E+06 -1.413419E+05 -7.677208E+04 -6.412888E+05 -4.376168E-10 -8.616000E-10
       313  12 -1.716879E+06 -3.819209E+05 -2.503278E+05 -5.526481E+05 -2.017313E-10 -4.936094E-12
       313  13 -1.832474E+06 -2.525576E+05 -7.607008E+04 -6.921050E+05 -2.279857E-10  4.255964E-10
       313  14 -1.789987E+06 -2.049674E+05 -1.200759E+05 -6.887982E+05 -4.730064E-10  3.615675E-10
       313  15 -1.861689E+06 -4.588956E+05 -2.946872E+05 -6.148816E+05 -5.428545E-10 -2.984303E-10
       313  16 -1.995025E+06 -3.029341E+05 -1.185590E+05 -7.248755E+05 -4.799652E-10 -1.023815E-09
       313  17 -1.943617E+06 -2.685902E+05 -1.633820E+05 -7.362965E+05 -8.633507E-10 -5.163208E-10
       313  18 -2.006477E+06 -5.358620E+05 -3.390487E+05 -6.770998E+05 -5.504227E-10  7.802342E-11
       313  19 -1.669894E+06 -2.021804E+05 -3.357712E+04 -6.593269E+05 -5.443740E+04 -1.852248E+04
       313  20 -1.636319E+06 -1.413360E+05 -7.674112E+04 -6.412846E+05 -1.207785E+05 -4.289005E+04
       313  21 -1.716840E+06 -3.819064E+05 -2.502533E+05 -5.526377E+05 -1.864444E+05 -6.906833E+04
       313  22 -1.832470E+06 -2.525565E+05 -7.606390E+04 -6.921042E+05 -5.422317E+04 -1.844352E+04
       313  23 -1.789971E+06 -2.049615E+05 -1.200449E+05 -6.887940E+05 -1.208323E+05 -4.290875E+04
       313  24 -1.861650E+06 -4.588811E+05 -2.946124E+05 -6.148712E+05 -1.867670E+05 -6.918080E+04
       313  25 -1.995022E+06 -3.029329E+05 -1.185528E+05 -7.248747E+05 -5.400899E+04 -1.836456E+04
       313  26 -1.943601E+06 -2.685843E+05 -1.633510E+05 -7.362923E+05 -1.208860E+05 -4.292745E+04
       313  27 -2.006438E+06 -5.358474E+05 -3.389736E+05 -6.770894E+05 -1.870896E+05 -6.929321E+04
       314   1  3.464736E+06  7.377935E+05  9.982746E+05  7.752960E+04  7.609343E+05  4.532879E+03
       314   2  3.329344E+06 -3.037195E+05  3.691099E+05  4.370160E+04  5.013842E+05  6.724846E+03
       314   3  3.533576E+06 -1.295666E+05  2.129459E+05 -6.711195E+04  2.418099E+05  4.324005E+03
       314   4  3.933340E+06  8.535744E+05  1.114525E+06 -2.078324E+04  7.622353E+05  4.415720E+03
       314   5  3.764325E+06 -1.956633E+05  4.767830E+05  1.911302E+04  5.017255E+05  6.705044E+03
       314   6  3.934840E+06 -2.954591E+04  3.124484E+05 -1.798551E+04  2.412057E+05  4.341678E+03
       314   7  4.402163E+06  9.693754E+05  1.230765E+06 -1.191700E+05  7.635372E+05  4.298228E+03
       314   8  4.199477E+06 -8.761895E+04  5.844425E+05 -5.492832E+03  5.020670E+05  6.685227E+03
       314   9  4.336254E+06  7.047171E+04  4.119403E+05  3.117249E+04  2.406011E+05  4.359246E+03
       314  10  3.464118E+06  7.376391E+05  9.971924E+05  7.752684E+04 -6.518966E-10  2.745481E-09
       314  11  3.329075E+06 -3.037865E+05  3.686400E+05  4.369889E+04 -2.606619E-09  2.915073E-09
       314  12  3.533513E+06 -1.295822E+05  2.128366E+05 -6.711280E+04  1.047210E-09  7.371297E-10
       314  13  3.932720E+06  8.534196E+05  1.113440E+06 -2.078595E+04  1.293109E-09  2.033953E-09
       314  14  3.764056E+06 -1.957304E+05  4.763128E+05  1.911031E+04 -2.538781E-09  6.055029E-10
       314  15  3.934778E+06 -2.956143E+04  3.123398E+05 -1.798635E+04  5.292404E-10  3.369629E-10
       314  16  4.401540E+06  9.692202E+05  1.229677E+06 -1.191727E+05 -6.682604E-10  1.355014E-09
       314  17  4.199208E+06 -8.768607E+04  5.839720E+05 -5.495530E+03 -8.446170E-10  3.414889E-09
       314  18  4.336192E+06  7.045629E+04  4.118323E+05  3.117164E+04 -6.658201E-10 -2.018251E-10
       314  19  3.464736E+06  7.377935E+05  9.982746E+05  7.752960E+04 -7.609343E+05 -4.532879E+03
       314  20  3.329344E+06 -3.037195E+05  3.691099E+05  4.370160E+04 -5.013842E+05 -6.724846E+03
       314  21  3.533576E+06 -1.295666E+05  2.129459E+05 -6.711195E+04 -2.418099E+05 -4.324005E+03
       314  22  3.933340E+06  8.535744E+05  1.114525E+06 -2.078324E+04 -7.622353E+05 -4.415720E+03
       314  23  3.764325E+06 -1.956633E+05  4.767830E+05  1.911302E+04 -5.017255E+05 -6.705044E+03
       314  24  3.934840E+06 -2.954591E+04  3.124484E+05 -1.798551E+04 -2.412057E+05 -4.341678E+03
       314  25  4.402163E+06  9.693754E+05  1.230765E+06 -1.191700E+05 -7.635372E+05 -4.298228E+03
       314  26  4.199477E+06 -8.761895E+04  5.844425E+05 -5.492832E+03 -5.020670E+05 -6.685227E+03
       314  27  4.336254E+06  7.047171E+04  4.119403E+05  3.117249E+04 -2.406011E+05 -4.359246E+03
       315   1  3.642957E+06  7.098797E+04  2.018629E+05  3.968468E+03  1.894310E+05  2.810314E+03
       315   2  3.632238E+06 -8.201322E+04  7.133270E+04  1.157761E+04  1.245283E+05  2.465806E+03
       315   3  3.675923E+06 -5.293877E+04  2.852242E+04 -1.732626E+04  5.962665E+04  1.859890E+03
       315   4  3.871079E+06  1.276763E+05  2.583636E+05 -9.972959E+03  1.894566E+05  2.805990E+03
       315   5  3.844034E+06 -2.934073E+04  1.238035E+05  8.370935E+03  1.244883E+05  2.465045E+03
       315   6  3.871383E+06 -4.305249E+03  7.698576E+04 -9.797344E+03  5.952266E+04  1.860502E+03
       315   7  4.099248E+06  1.843615E+05  3.148605E+05 -2.391950E+04  1.894823E+05  2.801666E+03
       315   8  4.055869E+06  2.332845E+04  1.762711E+05  5.163157E+03  1.244482E+05  2.464285E+03
       315   9  4.066877E+06  4.432564E+04  1.254463E+05 -2.266072E+03  5.941863E+04  1.861112E+03
       315  10  3.642919E+06  7.097840E+04  2.017959E+05  3.968040E+03 -5.257130E-10 -1.805494E-09
       315  11  3.632222E+06 -8.201736E+04  7.130372E+04  1.157737E+04  7.339459E-11 -2.825707E-10
       315  12  3.675919E+06 -5.293972E+04  2.851577E+04 -1.732635E+04  4.539667E-10 -7.462540E-10
       315  13  3.871041E+06  1.276667E+05  2.582965E+05 -9.973387E+03  1.391340E-09 -1.454864E-09
       315  14  3.844017E+06 -2.934487E+04  1.237746E+05  8.370688E+03  5.735629E-10 -5.659568E-10
       315  15  3.871379E+06 -4.306196E+03  7.697914E+04 -9.797433E+03 -1.344494E-09 -8.061163E-10
       315  16  4.099210E+06  1.843519E+05  3.147934E+05 -2.391993E+04  1.040175E-09 -3.940442E-10
       315  17  4.055853E+06  2.332432E+04  1.762421E+05  5.162911E+03 -9.473759E-10 -2.116710E-09
       315  18  4.066873E+06  4.432469E+04  1.254397E+05 -2.266161E+03  1.548005E-10 -1.072347E-09
       315  19  3.642957E+06  7.098797E+04  2.018629E+05  3.968468E+03 -1.894310E+05 -2.810314E+03
       315  20  3.632238E+06 -8.201322E+04  7.133270E+04  1.157761E+04 -1.245283E+05 -2.465806E+03
       315  21  3.675923E+06 -5.293877E+04  2.852242E+04 -1.732626E+04 -5.962665E+04 -1.859890E+03
       315  22  3.871079E+06  1.276763E+05  2.583636E+05 -9.972959E+03 -1.894566E+05 -2.805990E+03
       315  23  3.844034E+06 -2.934073E+04  1.238035E+05  8.370935E+03 -1.244883E+05 -2.465045E+03
       315  24  3.871383E+06 -4.305249E+03  7.698576E+04 -9.797344E+03 -5.952266E+04 -1.860502E+03
       315  25  4.099248E+06  1.843615E+05  3.148605E+05 -2.391950E+04 -1.894823E+05 -2.801666E+03
       315  26  4.055869E+06  2.332845E+04  1.762711E+05  5.163157E+03 -1.244482E+05 -2.464285E+03
       315  27  4.066877E+06  4.432564E+04  1.254463E+05 -2.266072E+03 -5.941863E+04 -1.861112E+03
       316   1  3.752331E+06 -8.101038E+03  3.467742E+04 -3.919150E+03  4.702277E+04  1.488904E+03
       316   2  3.756067E+06 -2.943715E+04  6.977473E+03  3.723788E+03  3.064346E+04  1.074417E+03
       316   3  3.768828E+06 -2.357405E+04 -3.282342E+03 -6.962131E+03  1.426375E+04  8.348566E+02
       316   4  3.861249E+06  1.897985E+04  6.163114E+04 -5.815842E+03  4.694477E+04  1.488707E+03
       316   5  3.856770E+06 -4.390327E+03  3.193087E+04  3.352749E+03  3.059243E+04  1.074373E+03
       316   6  3.861310E+06 -5.685120E+02  1.964986E+04 -5.807279E+03  1.423989E+04  8.348729E+02
       316   7  3.970177E+06  4.605988E+04  8.858398E+04 -7.712866E+03  4.686676E+04  1.488511E+03
       316   8  3.957483E+06  2.065574E+04  5.688352E+04  2.981650E+03  3.054139E+04  1.074328E+03
       316   9  3.953800E+06  2.243639E+04  4.258143E+04 -4.652256E+03  1.421603E+04  8.348892E+02
       316  10  3.752328E+06 -8.101630E+03  3.467328E+04 -3.919206E+03  8.414009E-10  6.834319E-11
       316  11  3.756066E+06 -2.943740E+04  6.975717E+03  3.723761E+03 -5.145691E-10  8.731734E-10
       316  12  3.768827E+06 -2.357410E+04 -3.282723E+03 -6.962140E+03  3.937039E-10  1.849109E-09
       316  13  3.861246E+06  1.897926E+04  6.162702E+04 -5.815898E+03  2.516822E-10 -4.438834E-11
       316  14  3.856769E+06 -4.390578E+03  3.192912E+04  3.352723E+03 -4.170659E-10 -6.882141E-11
       316  15  3.861310E+06 -5.685668E+02  1.964948E+04 -5.807288E+03  8.732972E-12  3.661215E-10
       316  16  3.970175E+06  4.605929E+04  8.857988E+04 -7.712922E+03 -7.601422E-10  2.379896E-10
       316  17  3.957482E+06  2.065549E+04  5.688177E+04  2.981624E+03 -1.484548E-10 -4.784005E-10
       316  18  3.953800E+06  2.243634E+04  4.258105E+04 -4.652266E+03 -9.924737E-10  1.413590E-09
       316  19  3.752331E+06 -8.101038E+03  3.467742E+04 -3.919150E+03 -4.702277E+04 -1.488904E+03
       316  20  3.756067E+06 -2.943715E+04  6.977473E+03  3.723788E+03 -3.064346E+04 -1.074417E+03
       316  21  3.768828E+06 -2.357405E+04 -3.282342E+03 -6.962131E+03 -1.426375E+04 -8.348566E+02
       316  22  3.861249E+06  1.897985E+04  6.163114E+04 -5.815842E+03 -4.694477E+04 -1.488707E+03
       316  23  3.856770E+06 -4.390327E+03  3.193087E+04  3.352749E+03 -3.059243E+04 -1.074373E+03
       316  24  3.861310E+06 -5.685120E+02  1.964986E+04 -5.807279E+03 -1.423989E+04 -8.348729E+02
       316  25  3.970177E+06  4.605988E+04  8.858398E+04 -7.712866E+03 -4.686676E+04 -1.488511E+03
       316  26  3.957483E+06  2.065574E+04  5.688352E+04  2.981650E+03 -3.054139E+04 -1.074328E+03
       316  27  3.953800E+06  2.243639E+04  4.258143E+04 -4.652256E+03 -1.421603E+04 -8.348892E+02
       317   1  3.812193E+06 -9.022843E+03  3.981619E+03 -3.709737E+03  1.107945E+04  7.027086E+02
       317   2  3.815832E+06 -1.141310E+04 -1.174606E+03  1.088137E+03  6.280933E+03  4.483599E+02
       317   3  3.821221E+06 -9.346933E+03 -2.103432E+03 -4.163437E+03  1.482366E+03  3.090983E+02
       317   4  3.859689E+06  2.785489E+03  1.572843E+04 -3.969979E+03  1.102739E+04  7.026995E+02
       317   5  3.858821E+06 -7.210855E+02  9.478104E+03  1.054764E+03  6.247970E+03  4.483594E+02
       317   6  3.859700E+06  2.252815E+02  7.441742E+03 -3.969895E+03  1.468541E+03  3.090994E+02
       317   7  3.907186E+06  1.459365E+04  2.747508E+04 -4.230241E+03  1.097531E+04  7.026904E+02
       317   8  3.901811E+06  9.970795E+03  2.013068E+04  1.021389E+03  6.215004E+03  4.483588E+02
       317   9  3.898180E+06  9.797385E+03  1.698681E+04 -3.776342E+03  1.454714E+03  3.091005E+02
       317  10  3.812193E+06 -9.022876E+03  3.981388E+03 -3.709744E+03  1.188097E-09  2.762574E-10
       317  11  3.815832E+06 -1.141311E+04 -1.174681E+03  1.088134E+03 -1.829086E-09 -8.113805E-10
       317  12  3.821221E+06 -9.346933E+03 -2.103436E+03 -4.163438E+03 -4.829910E-10  4.563939E-10
       317  13  3.859689E+06  2.785456E+03  1.572820E+04 -3.969985E+03 -8.367051E-10  4.570196E-10
       317  14  3.858821E+06 -7.210961E+02  9.478031E+03  1.054762E+03  1.569007E-10 -2.745160E-10
       317  15  3.859700E+06  2.252809E+02  7.441738E+03 -3.969896E+03 -7.117813E-10 -2.654660E-10
       317  16  3.907186E+06  1.459362E+04  2.747485E+04 -4.230247E+03  3.036056E-10 -6.526729E-10
       317  17  3.901811E+06  9.970785E+03  2.013061E+04  1.021387E+03 -4.765555E-10  7.210462E-10
       317  18  3.898180E+06  9.797385E+03  1.698680E+04 -3.776342E+03  2.093538E-09  3.435472E-10
       317  19  3.812193E+06 -9.022843E+03  3.981619E+03 -3.709737E+03 -1.107945E+04 -7.027086E+02
       317  20  3.815832E+06 -1.141310E+04 -1.174606E+03  1.088137E+03 -6.280933E+03 -4.483599E+02
       317  21  3.821221E+06 -9.346933E+03 -2.103432E+03 -4.163437E+03 -1.482366E+03 -3.090983E+02
       317  22  3.859689E+06  2.785489E+03  1.572843E+04 -3.969979E+03 -1.102739E+04 -7.026995E+02
       317  23  3.858821E+06 -7.210855E+02  9.478104E+03  1.054764E+03 -6.247970E+03 -4.483594E+02
       317  24  3.859700E+06  2.252815E+02  7.441742E+03 -3.969895E+03 -1.468541E+03 -3.090994E+02
       317  25  3.907186E+06  1.459365E+04  2.747508E+04 -4.230241E+03 -1.097531E+04 -7.026904E+02
       317  26  3.901811E+06  9.970795E+03  2.013068E+04  1.021389E+03 -6.215004E+03 -4.483588E+02
       317  27  3.898180E+06  9.797385E+03  1.698681E+04 -3.776342E+03 -1.454714E+03 -3.091005E+02
       318   1  3.848369E+06 -2.456299E+03  4.402265E+03 -3.156320E+03  1.692819E+02  2.391845E+02
       318   2  3.850843E+06 -2.593232E+03  6.020980E+03  2.142223E+02 -3.876899E+03  8.364271E+01
       318   3  3.854743E+06  8.938289E+02  1.116732E+04 -3.526537E+03 -7.923050E+03 -4.220623E+01
       318   4  3.859628E+06  3.413409E+02  7.178915E+03 -3.317089E+03  1.404223E+02  2.391886E+02
       318   5  3.858912E+06 -5.864210E+02  8.020530E+03  2.387273E+02 -3.900797E+03  8.364649E+01
       318   6  3.859621E+06  2.108941E+03  1.238632E+04 -3.316755E+03 -7.941966E+03 -4.220538E+01
       318   7  3.870888E+06  3.138971E+03  9.955557E+03 -3.477861E+03  1.115623E+02  2.391928E+02
       318   8  3.866981E+06  1.420385E+03  1.002008E+04  2.632326E+02 -3.924695E+03  8.365026E+01
       318   9  3.864499E+06  3.324052E+03  1.360533E+04 -3.106970E+03 -7.960882E+03 -4.220455E+01
       318  10  3.848369E+06 -2.456299E+03  4.402264E+03 -3.156320E+03  6.975919E-10 -1.164479E-09
       318  11  3.850843E+06 -2.593236E+03  6.020952E+03  2.142225E+02 -1.242960E-10 -8.582159E-10
       318  12  3.854743E+06  8.938122E+02  1.116720E+04 -3.526538E+03 -7.833394E-10  1.593463E-09
       318  13  3.859628E+06  3.413408E+02  7.178915E+03 -3.317089E+03 -8.667170E-10  2.193805E-10
       318  14  3.858912E+06 -5.864250E+02  8.020502E+03  2.387275E+02 -1.123104E-09  5.843545E-10
       318  15  3.859621E+06  2.108924E+03  1.238620E+04 -3.316755E+03 -3.450125E-10 -4.467249E-10
       318  16  3.870888E+06  3.138971E+03  9.955557E+03 -3.477861E+03  6.420059E-10  1.959950E-11
       318  17  3.866981E+06  1.420381E+03  1.002005E+04  2.632328E+02 -4.615629E-10  3.297511E-10
       318  18  3.864499E+06  3.324035E+03  1.360521E+04 -3.106970E+03  3.780289E-10 -1.635917E-09
       318  19  3.848369E+06 -2.456299E+03  4.402265E+03 -3.156320E+03 -1.692819E+02 -2.391845E+02
       318  20  3.850843E+06 -2.593232E+03  6.020980E+03  2.142223E+02  3.876899E+03 -8.364271E+01
       318  21  3.854743E+06  8.938289E+02  1.116732E+04 -3.526537E+03  7.923050E+03  4.220623E+01
       318  22  3.859628E+06  3.413409E+02  7.178915E+03 -3.317089E+03 -1.404223E+02 -2.391886E+02
       318  23  3.858912E+06 -5.864210E+02  8.020530E+03  2.387273E+02  3.900797E+03 -8.364649E+01
       318  24  3.859621E+06  2.108941E+03  1.238632E+04 -3.316755E+03  7.941966E+03  4.220538E+01
       318  25  3.870888E+06  3.138971E+03  9.955557E+03 -3.477861E+03 -1.115623E+02 -2.391928E+02
       318  26  3.866981E+06  1.420385E+03  1.002008E+04  2.632326E+02  3.924695E+03 -8.365026E+01
       318  27  3.864499E+06  3.324052E+03  1.360533E+04 -3.106970E+03  7.960882E+03  4.220455E+01
       319   1  3.879820E+06  4.321630E+03  1.994735E+04 -2.635214E+03 -1.042897E+04 -1.073031E+02
       319   2  3.879981E+06  2.286691E+03  2.993906E+04  1.698787E+02 -2.289004E+04 -2.381275E+02
       319   3  3.886903E+06  2.086857E+04  5.316106E+04 -4.970012E+03 -3.535149E+04 -3.925025E+02
       319   4  3.860813E+06 -4.070405E+02  1.522796E+04 -3.502829E+03 -1.044918E+04 -1.072852E+02
       319   5  3.857408E+06 -3.327284E+03  2.434634E+04  4.703976E+02 -2.291383E+04 -2.381358E+02
       319   6  3.860765E+06  1.437033E+04  4.669785E+04 -3.501359E+03 -3.537880E+04 -3.925839E+02
       319   7  3.841806E+06 -5.135735E+03  1.050853E+04 -4.370417E+03 -1.046940E+04 -1.072672E+02
       319   8  3.834836E+06 -8.941297E+03  1.875358E+04  7.709056E+02 -2.293763E+04 -2.381441E+02
       319   9  3.834628E+06  7.872043E+03  4.023458E+04 -2.032767E+03 -3.540610E+04 -3.926654E+02
       319  10  3.879819E+06  4.321601E+03  1.994715E+04 -2.635215E+03 -1.291006E-09  1.955412E-09
       319  11  3.879980E+06  2.286552E+03  2.993809E+04  1.698744E+02 -7.870906E-10 -7.281091E-10
       319  12  3.886902E+06  2.086824E+04  5.315872E+04 -4.970023E+03 -8.633335E-10 -3.233346E-10
       319  13  3.860813E+06 -4.070696E+02  1.522775E+04 -3.502829E+03 -4.539485E-10  5.832535E-11
       319  14  3.857408E+06 -3.327424E+03  2.434536E+04  4.703932E+02 -7.040790E-11  4.388424E-10
       319  15  3.860764E+06  1.437000E+04  4.669551E+04 -3.501370E+03 -4.914991E-10  4.637728E-10
       319  16  3.841806E+06 -5.135764E+03  1.050833E+04 -4.370417E+03 -1.077950E-09 -5.364598E-10
       319  17  3.834835E+06 -8.941437E+03  1.875260E+04  7.709013E+02  2.360238E-09 -1.422161E-09
       319  18  3.834627E+06  7.871709E+03  4.023224E+04 -2.032778E+03  4.983839E-10 -2.300346E-09
       319  19  3.879820E+06  4.321630E+03  1.994735E+04 -2.635214E+03  1.042897E+04  1.073031E+02
       319  20  3.879981E+06  2.286691E+03  2.993906E+04  1.698787E+02  2.289004E+04  2.381275E+02
       319  21  3.886903E+06  2.086857E+04  5.316106E+04 -4.970012E+03  3.535149E+04  3.925025E+02
       319  22  3.860813E+06 -4.070405E+02  1.522796E+04 -3.502829E+03  1.044918E+04  1.072852E+02
       319  23  3.857408E+06 -3.327284E+03  2.434634E+04  4.703976E+02  2.291383E+04  2.381358E+02
       319  24  3.860765E+06  1.437033E+04  4.669785E+04 -3.501359E+03  3.537880E+04  3.925839E+02
       319  25  3.841806E+06 -5.135735E+03  1.050853E+04 -4.370417E+03  1.046940E+04  1.072672E+02
       319  26  3.834836E+06 -8.941297E+03  1.875358E+04  7.709056E+02  2.293763E+04  2.381441E+02
       319  27  3.834628E+06  7.872043E+03  4.023458E+04 -2.032767E+03  3.540610E+04  3.926654E+02
       320   1  3.927710E+06  1.150785E+04  7.296740E+04  1.001409E+03 -4.485774E+04 -5.230332E+02
       320   2  3.913044E+06 -5.974700E+03  1.097622E+05 -6.664254E+02 -9.400478E+04 -7.297093E+02
       320   3  3.939149E+06  1.142146E+05  2.128420E+05 -1.535642E+04 -1.431533E+05 -8.289288E+02
       320   4  3.868368E+06 -3.251735E+03  5.825357E+04 -4.626235E+03 -4.489901E+04 -5.226296E+02
       320   5  3.847864E+06 -2.218401E+04  9.361671E+04  1.876364E+03 -9.402358E+04 -7.300984E+02
       320   6  3.868131E+06  9.655937E+04  1.952544E+05 -4.643179E+03 -1.431492E+05 -8.313914E+02
       320   7  3.809029E+06 -1.801147E+04  4.353948E+04 -1.025334E+04 -4.494027E+04 -5.222254E+02
       320   8  3.782687E+06 -3.839362E+04  7.747086E+04  4.418887E+03 -9.404238E+04 -7.304878E+02
       320   9  3.797117E+06  7.890416E+04  1.776665E+05  6.068848E+03 -1.431451E+05 -8.338541E+02
       320  10  3.927707E+06  1.150731E+04  7.296364E+04  1.001390E+03  1.452269E-09  1.303860E-09
       320  11  3.913035E+06 -5.977055E+03  1.097457E+05 -6.664805E+02 -4.643604E-10 -9.346387E-10
       320  12  3.939127E+06  1.142092E+05  2.128038E+05 -1.535652E+04 -3.967794E-10 -7.465053E-10
       320  13  3.868365E+06 -3.252273E+03  5.824980E+04 -4.626253E+03 -1.271614E-09  5.146221E-10
       320  14  3.847854E+06 -2.218637E+04  9.360020E+04  1.876308E+03  6.923263E-10 -1.560626E-09
       320  15  3.868109E+06  9.655391E+04  1.952161E+05 -4.643274E+03  3.608546E-10 -7.382544E-11
       320  16  3.809027E+06 -1.801200E+04  4.353571E+04 -1.025336E+04  6.167021E-11 -1.392295E-10
       320  17  3.782678E+06 -3.839597E+04  7.745434E+04  4.418832E+03 -2.588708E-09 -7.011668E-10
       320  18  3.797095E+06  7.889870E+04  1.776282E+05  6.068752E+03  8.748608E-10 -2.063624E-10
       320  19  3.927710E+06  1.150785E+04  7.296740E+04  1.001409E+03  4.485774E+04  5.230332E+02
       320  20  3.913044E+06 -5.974700E+03  1.097622E+05 -6.664254E+02  9.400478E+04  7.297093E+02
       320  21  3.939149E+06  1.142146E+05  2.128420E+05 -1.535642E+04  1.431533E+05  8.289288E+02
       320  22  3.868368E+06 -3.251735E+03  5.825357E+04 -4.626235E+03  4.489901E+04  5.226296E+02
       320  23  3.847864E+06 -2.218401E+04  9.361671E+04  1.876364E+03  9.402358E+04  7.300984E+02
       320  24  3.868131E+06  9.655937E+04  1.952544E+05 -4.643179E+03  1.431492E+05  8.313914E+02
       320  25  3.809029E+06 -1.801147E+04  4.353948E+04 -1.025334E+04  4.494027E+04  5.222254E+02
       320  26  3.782687E+06 -3.839362E+04  7.747086E+04  4.418887E+03  9.404238E+04  7.304878E+02
       320  27  3.797117E+06  7.890416E+04  1.776665E+05  6.068848E+03  1.431451E+05  8.338541E+02
       321   1  4.047040E+06  1.027718E+04  2.685021E+05  2.952330E+04 -1.820258E+05 -1.333082E+03
       321   2  3.930261E+06 -1.124948E+05  3.954980E+05 -1.387207E+04 -3.792392E+05 -1.984898E+03
       321   3  4.068516E+06  6.831727E+05  8.800720E+05 -8.289142E+04 -5.764410E+05 -1.028883E+03
       321   4  3.916072E+06 -2.232123E+04  2.360411E+05 -7.276563E+03 -1.822350E+05 -1.322442E+03
       321   5  3.787956E+06 -1.478571E+05  3.602796E+05  5.274357E+03 -3.791432E+05 -1.996533E+03
       321   6  3.914876E+06  6.450946E+05  8.419442E+05 -7.789275E+03 -5.760363E+05 -1.097963E+03
       321   7  3.785123E+06 -5.491587E+04  2.035795E+05 -4.406871E+04 -1.824441E+05 -1.311775E+03
       321   8  3.645671E+06 -1.832195E+05  3.250599E+05  2.441642E+04 -3.790472E+05 -2.008163E+03
       321   9  3.761269E+06  6.070358E+05  8.038176E+05  6.729439E+04 -5.756316E+05 -1.166960E+03
       321  10  4.047005E+06  1.026836E+04  2.684403E+05  2.952311E+04 -7.685236E-10  1.174119E-09
       321  11  3.930107E+06 -1.125331E+05  3.952294E+05 -1.387268E+04 -1.424480E-09 -7.125500E-10
       321  12  4.068161E+06  6.830842E+05  8.794516E+05 -8.289191E+04 -8.286322E-10  1.036002E-10
       321  13  3.916037E+06 -2.233008E+04  2.359791E+05 -7.276757E+03 -2.511341E-09 -5.058664E-11
       321  14  3.787802E+06 -1.478954E+05  3.600111E+05  5.273749E+03 -1.078849E-09 -1.973844E-10
       321  15  3.914521E+06  6.450062E+05  8.413245E+05 -7.789784E+03  6.369716E-10 -6.156408E-10
       321  16  3.785088E+06 -5.492474E+04  2.035173E+05 -4.406890E+04 -6.183541E-10 -1.098752E-10
       321  17  3.645517E+06 -1.832578E+05  3.247915E+05  2.441581E+04  3.022776E-10 -4.745910E-10
       321  18  3.760915E+06  6.069475E+05  8.031986E+05  6.729386E+04  1.289160E-09  5.789449E-10
       321  19  4.047040E+06  1.027718E+04  2.685021E+05  2.952330E+04  1.820258E+05  1.333082E+03
       321  20  3.930261E+06 -1.124948E+05  3.954980E+05 -1.387207E+04  3.792392E+05  1.984898E+03
       321  21  4.068516E+06  6.831727E+05  8.800720E+05 -8.289142E+04  5.764410E+05  1.028883E+03
       321  22  3.916072E+06 -2.232123E+04  2.360411E+05 -7.276563E+03  1.822350E+05  1.322442E+03
       321  23  3.787956E+06 -1.478571E+05  3.602796E+05  5.274357E+03  3.791432E+05  1.996533E+03
       321  24  3.914876E+06  6.450946E+05  8.419442E+05 -7.789275E+03  5.760363E+05  1.097963E+03
       321  25  3.785123E+06 -5.491587E+04  2.035795E+05 -4.406871E+04  1.824441E+05  1.311775E+03
       321  26  3.645671E+06 -1.832195E+05  3.250599E+05  2.441642E+04  3.790472E+05  2.008163E+03
       321  27  3.761269E+06  6.070358E+05  8.038176E+05  6.729439E+04  5.756316E+05  1.166960E+03
       322   1  2.886167E+05  4.880527E+05  3.991564E+05 -3.911428E+04 -2.197729E+03  3.110507E+05
       322   2 -1.501717E+05  4.197906E+05  1.381182E+05 -1.313528E+04 -3.905920E+03  1.996213E+05
       322   3 -7.404380E+04  4.955537E+05  7.853091E+04  2.191272E+04 -3.116266E+03  8.819349E+04
       322   4  3.565649E+05  7.615712E+05  4.672840E+05  1.912538E+03 -2.179022E+03  3.117085E+05
       322   5 -8.290508E+04  6.895957E+05  2.051448E+05 -3.228326E+03 -3.903013E+03  1.998140E+05
       322   6 -7.500259E+03  7.616638E+05  1.447161E+05  7.018554E+02 -3.118481E+03  8.792194E+04
       322   7  4.245139E+05  1.035161E+06  5.354071E+05  4.295747E+04 -2.160236E+03  3.123665E+05
       322   8 -1.564355E+04  9.594669E+05  2.721660E+05  6.682978E+03 -3.900101E+03  2.000068E+05
       322   9  5.903962E+04  1.027839E+06  2.108962E+05 -2.051807E+04 -3.120677E+03  8.765026E+04
       322  10  2.885908E+05  4.879489E+05  3.989747E+05 -3.911373E+04 -1.366115E-10  9.597550E-10
       322  11 -1.501824E+05  4.197479E+05  1.380434E+05 -1.313465E+04 -1.247364E-09 -6.401142E-10
       322  12 -7.404589E+04  4.955453E+05  7.851629E+04  2.191295E+04  1.229845E-09  1.487250E-10
       322  13  3.565389E+05  7.614670E+05  4.671017E+05  1.913084E+03  1.434749E-09  3.512027E-09
       322  14 -8.291579E+04  6.895528E+05  2.050698E+05 -3.227698E+03 -2.833905E-09  1.789070E-09
       322  15 -7.502341E+03  7.616555E+05  1.447016E+05  7.020761E+02  1.137507E-09  1.912487E-09
       322  16  4.244877E+05  1.035057E+06  5.352240E+05  4.295802E+04 -2.281009E-10  7.022033E-10
       322  17 -1.565428E+04  9.594240E+05  2.720909E+05  6.683606E+03  2.039789E-11 -7.879744E-10
       322  18  5.903755E+04  1.027831E+06  2.108818E+05 -2.051785E+04  3.715028E-10 -5.361271E-10
       322  19  2.886167E+05  4.880527E+05  3.991564E+05 -3.911428E+04  2.197729E+03 -3.110507E+05
       322  20 -1.501717E+05  4.197906E+05  1.381182E+05 -1.313528E+04  3.905920E+03 -1.996213E+05
       322  21 -7.404380E+04  4.955537E+05  7.853091E+04  2.191272E+04  3.116266E+03 -8.819349E+04
       322  22  3.565649E+05  7.615712E+05  4.672840E+05  1.912538E+03  2.179022E+03 -3.117085E+05
       322  23 -8.290508E+04  6.895957E+05  2.051448E+05 -3.228326E+03  3.903013E+03 -1.998140E+05
       322  24 -7.500259E+03  7.616638E+05  1.447161E+05  7.018554E+02  3.118481E+03 -8.792194E+04
       322  25  4.245139E+05  1.035161E+06  5.354071E+05  4.295747E+04  2.160236E+03 -3.123665E+05
       322  26 -1.564355E+04  9.594669E+05  2.721660E+05  6.682978E+03  3.900101E+03 -2.000068E+05
       322  27  5.903962E+04  1.027839E+06  2.108962E+05 -2.051807E+04  3.120677E+03 -8.765026E+04
       323   1 -1.022013E+04  4.872336E+05  6.390040E+04 -7.796698E+03 -2.642852E+03  6.330745E+04
       323   2 -8.209055E+04  4.696938E+05  1.985620E+04 -1.713423E+03 -2.848864E+03  2.042169E+04
       323   3 -3.133242E+04  4.890241E+05  3.450932E+04  6.461554E+03 -2.438248E+03 -2.246291E+04
       323   4  5.228835E+04  7.378207E+05  1.262200E+05 -4.022348E+02 -2.642248E+03  6.342704E+04
       323   5 -1.977042E+04  7.193863E+05  8.192878E+04 -1.483891E+03 -2.848776E+03  2.042228E+04
       323   6  3.079342E+04  7.378286E+05  9.640108E+04 -4.739191E+02 -2.437798E+03 -2.258126E+04
       323   7  1.147923E+05  9.884649E+05  1.885349E+05  6.995242E+03 -2.641642E+03  6.354667E+04
       323   8  4.254503E+04  9.691353E+05  1.439967E+05 -1.254244E+03 -2.848688E+03  2.042286E+04
       323   9  9.291480E+04  9.866893E+05  1.582882E+05 -7.412154E+03 -2.437346E+03 -2.269966E+04
       323  10 -1.022121E+04  4.872293E+05  6.389286E+04 -7.796563E+03  1.845443E-10  7.964937E-10
       323  11 -8.209067E+04  4.696933E+05  1.985541E+04 -1.713376E+03 -4.024731E-11 -4.305181E-10
       323  12 -3.133257E+04  4.890236E+05  3.450836E+04  6.461510E+03 -6.788446E-11  1.397950E-10
       323  13  5.228726E+04  7.378164E+05  1.262124E+05 -4.020998E+02  4.098108E-10  2.280737E-09
       323  14 -1.977054E+04  7.193858E+05  8.192798E+04 -1.483844E+03  6.725883E-10  4.443732E-10
       323  15  3.079328E+04  7.378281E+05  9.640011E+04 -4.739634E+02  1.023388E-09  7.631843E-10
       323  16  1.147912E+05  9.884606E+05  1.885273E+05  6.995377E+03  6.949611E-10  3.073656E-10
       323  17  4.254491E+04  9.691348E+05  1.439959E+05 -1.254197E+03 -9.774443E-10 -5.449920E-10
       323  18  9.291465E+04  9.866887E+05  1.582872E+05 -7.412198E+03 -6.285725E-11 -4.983297E-10
       323  19 -1.022013E+04  4.872336E+05  6.390040E+04 -7.796698E+03  2.642852E+03 -6.330745E+04
       323  20 -8.209055E+04  4.696938E+05  1.985620E+04 -1.713423E+03  2.848864E+03 -2.042169E+04
       323  21 -3.133242E+04  4.890241E+05  3.450932E+04  6.461554E+03  2.438248E+03  2.246291E+04
       323  22  5.228835E+04  7.378207E+05  1.262200E+05 -4.022348E+02  2.642248E+03 -6.342704E+04
       323  23 -1.977042E+04  7.193863E+05  8.192878E+04 -1.483891E+03  2.848776E+03 -2.042228E+04
       323  24  3.079342E+04  7.378286E+05  9.640108E+04 -4.739191E+02  2.437798E+03  2.258126E+04
       323  25  1.147923E+05  9.884649E+05  1.885349E+05  6.995242E+03  2.641642E+03 -6.354667E+04
       323  26  4.254503E+04  9.691353E+05  1.439967E+05 -1.254244E+03  2.848688E+03 -2.042286E+04
       323  27  9.291480E+04  9.866893E+05  1.582882E+05 -7.412154E+03  2.437346E+03  2.269966E+04
       324   1 -6.234986E+04  4.981604E+05  4.089798E+04 -1.473622E+04 -2.745416E+03 -4.089996E+04
       324   2 -1.149745E+05  4.513272E+05  6.883869E+04  6.502093E+03 -3.058260E+03 -1.121784E+05
       324   3  1.538693E+05  4.947720E+05  2.236774E+05  2.405105E+04 -1.047009E+03 -1.834535E+05
       324   4  4.044640E+02  7.497198E+05  1.034315E+05 -1.765334E+03 -2.746451E+03 -4.065175E+04
       324   5 -5.177213E+04  7.045301E+05  1.317573E+05  8.819432E+01 -3.056953E+03 -1.123471E+05
       324   6  2.175213E+05  7.496550E+05  2.872339E+05 -1.748441E+03 -1.039332E+03 -1.840394E+05
       324   7  6.315468E+04  1.001337E+06  1.659604E+05  1.121082E+04 -2.747477E+03 -4.040343E+04
       324   8  1.142555E+04  9.577912E+05  1.946712E+05 -6.328312E+03 -3.055643E+03 -1.125159E+05
       324   9  2.811708E+05  1.004598E+06  3.507859E+05 -2.755852E+04 -1.031609E+03 -1.846256E+05
       324  10 -6.235032E+04  4.981586E+05  4.089482E+04 -1.473631E+04  1.917717E-10  1.667754E-10
       324  11 -1.149778E+05  4.513137E+05  6.881505E+04  6.501817E+03 -1.490553E-10 -1.044183E-10
       324  12  1.538603E+05  4.947359E+05  2.236142E+05  2.405089E+04 -1.113935E-10  2.053309E-10
       324  13  4.040130E+02  7.497180E+05  1.034284E+05 -1.765424E+03 -5.553581E-10  1.179174E-09
       324  14 -5.177552E+04  7.045165E+05  1.317336E+05  8.791782E+01 -8.203868E-10 -1.307893E-10
       324  15  2.175122E+05  7.496187E+05  2.871704E+05 -1.748595E+03 -1.309824E-10  5.525573E-12
       324  16  6.315424E+04  1.001335E+06  1.659573E+05  1.121073E+04  3.816189E-10  3.542948E-10
       324  17  1.142214E+04  9.577776E+05  1.946474E+05 -6.328589E+03 -9.761510E-10 -7.639887E-11
       324  18  2.811617E+05  1.004562E+06  3.507220E+05 -2.755867E+04 -3.861522E-10 -3.947718E-10
       324  19 -6.234986E+04  4.981604E+05  4.089798E+04 -1.473622E+04  2.745416E+03  4.089996E+04
       324  20 -1.149745E+05  4.513272E+05  6.883869E+04  6.502093E+03  3.058260E+03  1.121784E+05
       324  21  1.538693E+05  4.947720E+05  2.236774E+05  2.405105E+04  1.047009E+03  1.834535E+05
       324  22  4.044640E+02  7.497198E+05  1.034315E+05 -1.765334E+03  2.746451E+03  4.065175E+04
       324  23 -5.177213E+04  7.045301E+05  1.317573E+05  8.819432E+01  3.056953E+03  1.123471E+05
       324  24  2.175213E+05  7.496550E+05  2.872339E+05 -1.748441E+03  1.039332E+03  1.840394E+05
       324  25  6.315468E+04  1.001337E+06  1.659604E+05  1.121082E+04  2.747477E+03  4.040343E+04
       324  26  1.142555E+04  9.577912E+05  1.946712E+05 -6.328312E+03  3.055643E+03  1.125159E+05
       324  27  2.811708E+05  1.004598E+06  3.507859E+05 -2.755852E+04  1.031609E+03  1.846256E+05
       325   1 -4.075050E+06 -1.408894E+06 -7.268948E+05 -1.506884E+06 -3.227047E+05 -8.603962E+04
       325   2 -3.969075E+06 -1.176999E+06 -4.869791E+05 -1.466264E+06 -2.102992E+05  4.270917E+04
       325   3 -3.907226E+06 -1.068458E+06 -3.816251E+05 -1.419627E+06 -7.836226E+04  1.201050E+05
       325   4 -2.085782E+06 -5.540413E+05 -1.972839E+05 -8.528309E+05 -1.399693E+05 -1.692318E+04
       325   5 -2.062131E+06 -4.264089E+05 -9.264132E+04 -8.842146E+05 -1.203746E+05  7.666774E+04
       325   6 -2.063967E+06 -4.034596E+05 -4.846952E+04 -9.096255E+05 -8.131453E+04  1.189441E+05
       325   7 -9.257162E+04  3.014256E+05  3.321099E+05 -1.967424E+05  4.340548E+04  5.251308E+04
       325   8 -1.513956E+05  3.246526E+05  3.015397E+05 -3.004436E+05 -3.015193E+04  1.107571E+05
       325   9 -2.170821E+05  2.618623E+05  2.845758E+05 -3.982010E+05 -8.427622E+04  1.177798E+05
       325  10 -4.075164E+06 -1.408930E+06 -7.271059E+05 -1.506907E+06 -2.249674E-11  1.648446E-10
       325  11 -3.969123E+06 -1.177013E+06 -4.870661E+05 -1.466257E+06 -1.905332E-09 -7.979790E-10
       325  12 -3.907237E+06 -1.068475E+06 -3.816637E+05 -1.419619E+06 -4.696514E-10  5.951242E-10
       325  13 -2.085803E+06 -5.540469E+05 -1.973214E+05 -8.528328E+05  2.261567E-09 -1.582057E-09
       325  14 -2.062148E+06 -4.264191E+05 -9.267962E+04 -8.842071E+05  9.246039E-10 -3.605929E-09
       325  15 -2.063977E+06 -4.034765E+05 -4.850849E+04 -9.096177E+05 -2.437774E-09  1.698459E-09
       325  16 -9.257438E+04  3.014221E+05  3.321012E+05 -1.967442E+05  2.768453E-10  1.950821E-09
       325  17 -1.513999E+05  3.246392E+05  3.015150E+05 -3.004409E+05  6.562909E-10 -1.740327E-09
       325  18 -2.170935E+05  2.618455E+05  2.845364E+05 -3.981930E+05  2.707492E-10  5.614942E-10
       325  19 -4.075050E+06 -1.408894E+06 -7.268948E+05 -1.506884E+06  3.227047E+05  8.603962E+04
       325  20 -3.969075E+06 -1.176999E+06 -4.869791E+05 -1.466264E+06  2.102992E+05 -4.270917E+04
       325  21 -3.907226E+06 -1.068458E+06 -3.816251E+05 -1.419627E+06  7.836226E+04 -1.201050E+05
       325  22 -2.085782E+06 -5.540413E+05 -1.972839E+05 -8.528309E+05  1.399693E+05  1.692318E+04
       325  23 -2.062131E+06 -4.264089E+05 -9.264132E+04 -8.842146E+05  1.203746E+05 -7.666774E+04
       325  24 -2.063967E+06 -4.034596E+05 -4.846952E+04 -9.096255E+05  8.131453E+04 -1.189441E+05
       325  25 -9.257162E+04  3.014256E+05  3.321099E+05 -1.967424E+05 -4.340548E+04 -5.251308E+04
       325  26 -1.513956E+05  3.246526E+05  3.015397E+05 -3.004436E+05  3.015193E+04 -1.107571E+05
       325  27 -2.170821E+05  2.618623E+05  2.845758E+05 -3.982010E+05  8.427622E+04 -1.177798E+05
       326   1 -3.818787E+06 -1.048007E+06 -3.515473E+05 -1.405598E+06 -7.709474E+04  1.181815E+05
       326   2 -3.713334E+06 -9.874107E+05 -3.044603E+05 -1.364317E+06 -5.817642E+04  1.238372E+05
       326   3 -3.595344E+06 -9.511918E+05 -2.729299E+05 -1.341555E+06 -3.742045E+04  1.246142E+05
       326   4 -2.057739E+06 -4.037803E+05 -3.634300E+04 -9.080218E+05 -7.507652E+04  1.188996E+05
       326   5 -2.064210E+06 -3.882828E+05 -1.909776E+04 -9.003081E+05 -6.495752E+04  1.212380E+05
       326   6 -2.056394E+06 -3.953952E+05 -1.037944E+04 -9.111150E+05 -5.300733E+04  1.187033E+05
       326   7 -2.933985E+05  2.407611E+05  2.787579E+05 -4.091146E+05 -7.305215E+04  1.196202E+05
       326   8 -4.121923E+05  2.111176E+05  2.661835E+05 -4.351394E+05 -7.175787E+04  1.186315E+05
       326   9 -5.149276E+05  1.606316E+05  2.521026E+05 -4.796743E+05 -6.863539E+04  1.127771E+05
       326  10 -3.818798E+06 -1.048024E+06 -3.515847E+05 -1.405591E+06  2.750423E-10  4.849378E-10
       326  11 -3.713342E+06 -9.874281E+05 -3.044955E+05 -1.364311E+06  1.354934E-10  6.214072E-10
       326  12 -3.595350E+06 -9.512089E+05 -2.729616E+05 -1.341551E+06 -1.061538E-09  1.116755E-09
       326  13 -2.057749E+06 -4.037970E+05 -3.638012E+04 -9.080146E+05  1.121873E-09  1.029028E-09
       326  14 -2.064219E+06 -3.882997E+05 -1.913328E+04 -9.003018E+05 -1.974262E-09 -1.078797E-09
       326  15 -2.056401E+06 -3.954110E+05 -1.041116E+04 -9.111099E+05  1.233194E-09 -1.324971E-09
       326  16 -2.934081E+05  2.407443E+05  2.787210E+05 -4.091075E+05 -3.896120E-10  2.107465E-09
       326  17 -4.122016E+05  2.111012E+05  2.661474E+05 -4.351325E+05 -1.216489E-09  1.473542E-09
       326  18 -5.149361E+05  1.606167E+05  2.520699E+05 -4.796680E+05 -1.124958E-09  1.642266E-09
       326  19 -3.818787E+06 -1.048007E+06 -3.515473E+05 -1.405598E+06  7.709474E+04 -1.181815E+05
       326  20 -3.713334E+06 -9.874107E+05 -3.044603E+05 -1.364317E+06  5.817642E+04 -1.238372E+05
       326  21 -3.595344E+06 -9.511918E+05 -2.729299E+05 -1.341555E+06  3.742045E+04 -1.246142E+05
       326  22 -2.057739E+06 -4.037803E+05 -3.634300E+04 -9.080218E+05  7.507652E+04 -1.188996E+05
       326  23 -2.064210E+06 -3.882828E+05 -1.909776E+04 -9.003081E+05  6.495752E+04 -1.212380E+05
       326  24 -2.056394E+06 -3.953952E+05 -1.037944E+04 -9.111150E+05  5.300733E+04 -1.187033E+05
       326  25 -2.933985E+05  2.407611E+05  2.787579E+05 -4.091146E+05  7.305215E+04 -1.196202E+05
       326  26 -4.121923E+05  2.111176E+05  2.661835E+05 -4.351394E+05  7.175787E+04 -1.186315E+05
       326  27 -5.149276E+05  1.606316E+05  2.521026E+05 -4.796743E+05  6.863539E+04 -1.127771E+05
       327   1 -3.520948E+06 -9.249512E+05 -2.569045E+05 -1.321435E+06 -3.446356E+04  1.198701E+05
       327   2 -3.415146E+06 -8.739885E+05 -2.332507E+05 -1.279214E+06 -2.816602E+04  1.123868E+05
       327   3 -3.291986E+06 -8.411749E+05 -2.119191E+05 -1.257124E+06 -2.169077E+04  1.044058E+05
       327   4 -2.055798E+06 -3.954712E+05 -7.798099E+03 -9.110401E+05 -4.964401E+04  1.141184E+05
       327   5 -2.064460E+06 -3.862188E+05 -4.297966E+03 -9.010472E+05 -4.424134E+04  1.063074E+05
       327   6 -2.055605E+06 -3.949366E+05 -2.408325E+03 -9.111896E+05 -3.866181E+04  9.799915E+04
       327   7 -5.883341E+05  1.342312E+05  2.412560E+05 -4.997276E+05 -6.486294E+04  1.083524E+05
       327   8 -7.118130E+05  1.017375E+05  2.246096E+05 -5.221033E+05 -6.035414E+04  1.002140E+05
       327   9 -8.175867E+05  5.145554E+04  2.070633E+05 -5.646054E+05 -5.566898E+04  9.157892E+04
       327  10 -3.520953E+06 -9.249670E+05 -2.569337E+05 -1.321432E+06 -1.958820E-09  8.222921E-11
       327  11 -3.415150E+06 -8.740022E+05 -2.332759E+05 -1.279211E+06 -2.546564E-09  1.667873E-09
       327  12 -3.291990E+06 -8.411867E+05 -2.119404E+05 -1.257122E+06 -1.492690E-09  6.596197E-10
       327  13 -2.055804E+06 -3.954858E+05 -7.827169E+03 -9.110356E+05  1.910306E-10 -5.347590E-10
       327  14 -2.064465E+06 -3.862314E+05 -4.322852E+03 -9.010434E+05  2.067261E-09  1.639098E-09
       327  15 -2.055609E+06 -3.949473E+05 -2.429157E+03 -9.111865E+05 -6.936294E-10  1.813888E-09
       327  16 -5.883418E+05  1.342175E+05  2.412261E+05 -4.997220E+05  1.288108E-09  3.140977E-10
       327  17 -7.118196E+05  1.017258E+05  2.245839E+05 -5.220984E+05  5.134116E-10  1.284011E-09
       327  18 -8.175922E+05  5.144572E+04  2.070418E+05 -5.646013E+05  8.423376E-10  1.483772E-09
       327  19 -3.520948E+06 -9.249512E+05 -2.569045E+05 -1.321435E+06  3.446356E+04 -1.198701E+05
       327  20 -3.415146E+06 -8.739885E+05 -2.332507E+05 -1.279214E+06  2.816602E+04 -1.123868E+05
       327  21 -3.291986E+06 -8.411749E+05 -2.119191E+05 -1.257124E+06  2.169077E+04 -1.044058E+05
       327  22 -2.055798E+06 -3.954712E+05 -7.798099E+03 -9.110401E+05  4.964401E+04 -1.141184E+05
       327  23 -2.064460E+06 -3.862188E+05 -4.297966E+03 -9.010472E+05  4.424134E+04 -1.063074E+05
       327  24 -2.055605E+06 -3.949366E+05 -2.408325E+03 -9.111896E+05  3.866181E+04 -9.799915E+04
       327  25 -5.883341E+05  1.342312E+05  2.412560E+05 -4.997276E+05  6.486294E+04 -1.083524E+05
       327  26 -7.118130E+05  1.017375E+05  2.246096E+05 -5.221033E+05  6.035414E+04 -1.002140E+05
       327  27 -8.175867E+05  5.145554E+04  2.070633E+05 -5.646054E+05  5.566898E+04 -9.157892E+04
       328   1 -3.217823E+06 -8.142989E+05 -1.982168E+05 -1.236445E+06 -1.926446E+04  9.907031E+04
       328   2 -3.110948E+06 -7.634028E+05 -1.781126E+05 -1.193750E+06 -1.499592E+04  8.993086E+04
       328   3 -2.986146E+06 -7.304049E+05 -1.585133E+05 -1.171473E+06 -1.070702E+04  8.071492E+04
       328   4 -2.055475E+06 -3.949403E+05 -1.858756E+03 -9.112263E+05 -3.624723E+04  9.266447E+04
       328   5 -2.064391E+06 -3.859073E+05 -1.180562E+03 -9.010345E+05 -3.211548E+04  8.348138E+04
       328   6 -2.055367E+06 -3.947459E+05 -9.005954E+02 -9.112639E+05 -2.796351E+04  7.422176E+04
       328   7 -8.916937E+05  2.454973E+04  1.944619E+05 -5.854370E+05 -5.326379E+04  8.624596E+04
       328   8 -1.016662E+06 -8.301635E+03  1.757240E+05 -6.078536E+05 -4.926585E+04  7.702033E+04
       328   9 -1.123651E+06 -5.899626E+04  1.566933E+05 -6.506848E+05 -4.524779E+04  6.771818E+04
       328  10 -3.217826E+06 -8.143095E+05 -1.982359E+05 -1.236444E+06 -4.552307E-09  1.063365E-09
       328  11 -3.110951E+06 -7.634115E+05 -1.781282E+05 -1.193749E+06 -3.703080E-09  8.787001E-10
       328  12 -2.986148E+06 -7.304119E+05 -1.585258E+05 -1.171472E+06 -2.121496E-09 -1.230651E-09
       328  13 -2.055479E+06 -3.949498E+05 -1.877340E+03 -9.112236E+05 -6.710803E-11  1.815247E-09
       328  14 -2.064394E+06 -3.859150E+05 -1.195579E+03 -9.010324E+05  2.152781E-10  2.006120E-09
       328  15 -2.055370E+06 -3.947520E+05 -9.124035E+02 -9.112622E+05 -3.258701E-11  4.880285E-10
       328  16 -8.916987E+05  2.454099E+04  1.944426E+05 -5.854333E+05  3.401890E-09  3.005984E-09
       328  17 -1.016666E+06 -8.308647E+03  1.757083E+05 -6.078505E+05  1.285147E-09  3.615194E-09
       328  18 -1.123655E+06 -5.900173E+04  1.566808E+05 -6.506824E+05  1.062022E-09  1.747460E-09
       328  19 -3.217823E+06 -8.142989E+05 -1.982168E+05 -1.236445E+06  1.926446E+04 -9.907031E+04
       328  20 -3.110948E+06 -7.634028E+05 -1.781126E+05 -1.193750E+06  1.499592E+04 -8.993086E+04
       328  21 -2.986146E+06 -7.304049E+05 -1.585133E+05 -1.171473E+06  1.070702E+04 -8.071492E+04
       328  22 -2.055475E+06 -3.949403E+05 -1.858756E+03 -9.112263E+05  3.624723E+04 -9.266447E+04
       328  23 -2.064391E+06 -3.859073E+05 -1.180562E+03 -9.010345E+05  3.211548E+04 -8.348138E+04
       328  24 -2.055367E+06 -3.947459E+05 -9.005954E+02 -9.112639E+05  2.796351E+04 -7.422176E+04
       328  25 -8.916937E+05  2.454973E+04  1.944619E+05 -5.854370E+05  5.326379E+04 -8.624596E+04
       328  26 -1.016662E+06 -8.301635E+03  1.757240E+05 -6.078536E+05  4.926585E+04 -7.702033E+04
       328  27 -1.123651E+06 -5.899626E+04  1.566933E+05 -6.506848E+05  4.524779E+04 -6.771818E+04
       329   1 -2.911336E+06 -7.032947E+05 -1.452735E+05 -1.150625E+06 -8.432178E+03  7.523509E+04
       329   2 -2.803473E+06 -6.521045E+05 -1.260194E+05 -1.107656E+06 -4.241831E+03  6.590816E+04
       329   3 -2.677591E+06 -6.189359E+05 -1.071929E+05 -1.085300E+06 -4.942800E+01  5.655958E+04
       329   4 -2.055316E+06 -3.947360E+05 -8.963123E+02 -9.113095E+05 -2.572742E+04  6.873132E+04
       329   5 -2.064277E+06 -3.856397E+05 -1.130822E+03 -9.010216E+05 -2.157554E+04  5.939552E+04
       329   6 -2.055228E+06 -3.945575E+05 -1.764353E+03 -9.113494E+05 -1.742173E+04  5.003805E+04
       329   7 -1.198510E+06 -8.610370E+04  1.434631E+05 -6.716831E+05 -4.304810E+04  6.221800E+04
       329   8 -1.324500E+06 -1.191216E+05  1.237436E+05 -6.941560E+05 -3.893116E+04  5.287464E+04
       329   9 -1.432457E+06 -1.701428E+05  1.036533E+05 -7.372364E+05 -3.481242E+04  4.350960E+04
       329  10 -2.911338E+06 -7.033008E+05 -1.452843E+05 -1.150625E+06 -6.625534E-08 -2.713753E-08
       329  11 -2.803474E+06 -6.521092E+05 -1.260276E+05 -1.107656E+06 -1.590687E-09 -2.705668E-09
       329  12 -2.677592E+06 -6.189393E+05 -1.071989E+05 -1.085300E+06  7.087930E-08  2.723026E-08
       329  13 -2.055317E+06 -3.947413E+05 -9.064218E+02 -9.113081E+05 -1.870198E-09 -3.028767E-09
       329  14 -2.064278E+06 -3.856436E+05 -1.138318E+03 -9.010205E+05 -5.268734E-09 -8.115555E-09
       329  15 -2.055229E+06 -3.945603E+05 -1.769623E+03 -9.113487E+05 -1.953586E-11 -8.097898E-09
       329  16 -1.198513E+06 -8.610835E+04  1.434523E+05 -6.716809E+05  6.290287E-08  2.338191E-08
       329  17 -1.324502E+06 -1.191250E+05  1.237355E+05 -6.941544E+05 -5.871389E-09 -3.969591E-09
       329  18 -1.432459E+06 -1.701451E+05  1.036475E+05 -7.372352E+05 -7.100948E-08 -2.612985E-08
       329  19 -2.911336E+06 -7.032947E+05 -1.452735E+05 -1.150625E+06  8.432178E+03 -7.523509E+04
       329  20 -2.803473E+06 -6.521045E+05 -1.260194E+05 -1.107656E+06  4.241831E+03 -6.590816E+04
       329  21 -2.677591E+06 -6.189359E+05 -1.071929E+05 -1.085300E+06  4.942800E+01 -5.655958E+04
       329  22 -2.055316E+06 -3.947360E+05 -8.963123E+02 -9.113095E+05  2.572742E+04 -6.873132E+04
       329  23 -2.064277E+06 -3.856397E+05 -1.130822E+03 -9.010216E+05  2.157554E+04 -5.939552E+04
       329  24 -2.055228E+06 -3.945575E+05 -1.764353E+03 -9.113494E+05  1.742173E+04 -5.003805E+04
       329  25 -1.198510E+06 -8.610370E+04  1.434631E+05 -6.716831E+05  4.304810E+04 -6.221800E+04
       329  26 -1.324500E+06 -1.191216E+05  1.237436E+05 -6.941560E+05  3.893116E+04 -5.287464E+04
       329  27 -1.432457E+06 -1.701428E+05  1.036533E+05 -7.372364E+05  3.481242E+04 -4.350960E+04
       330   1 -2.602241E+06 -5.917045E+05 -9.438690E+04 -1.064401E+06  2.415349E+03  5.111228E+04
       330   2 -2.493597E+06 -5.403109E+05 -7.651737E+04 -1.021196E+06  7.915877E+03  4.225973E+04
       330   3 -2.367157E+06 -5.073034E+05 -6.013272E+04 -9.987295E+05  1.339060E+04  3.346763E+04
       330   4 -2.055256E+06 -3.945412E+05 -2.289846E+03 -9.114106E+05 -1.499174E+04  4.458030E+04
       330   5 -2.064126E+06 -3.854121E+05 -4.050750E+03 -9.010029E+05 -9.381351E+03  3.577213E+04
       330   6 -2.055242E+06 -3.946932E+05 -7.386167E+03 -9.113385E+05 -3.797144E+03  2.702426E+04
       330   7 -1.507944E+06 -1.973451E+05  8.980249E+04 -7.582917E+05 -3.241537E+04  3.804210E+04
       330   8 -1.634456E+06 -2.304936E+05  6.841305E+04 -7.807303E+05 -2.669143E+04  2.927970E+04
       330   9 -1.743223E+06 -2.820729E+05  4.535914E+04 -8.239059E+05 -2.099410E+04  2.057742E+04
       330  10 -2.602241E+06 -5.917073E+05 -9.439182E+04 -1.064401E+06 -1.253531E-08 -2.436935E-09
       330  11 -2.493597E+06 -5.403128E+05 -7.652085E+04 -1.021197E+06 -2.140218E-09  1.425221E-09
       330  12 -2.367158E+06 -5.073047E+05 -6.013516E+04 -9.987299E+05  1.139015E-08  5.115090E-09
       330  13 -2.055257E+06 -3.945433E+05 -2.293998E+03 -9.114101E+05  1.211445E-09 -6.538450E-09
       330  14 -2.064127E+06 -3.854135E+05 -4.053317E+03 -9.010026E+05 -3.410768E-09 -4.383311E-09
       330  15 -2.055243E+06 -3.946940E+05 -7.387565E+03 -9.113385E+05 -1.461499E-09 -7.699464E-10
       330  16 -1.507946E+06 -1.973470E+05  8.979779E+04 -7.582907E+05  1.483863E-08  6.967575E-09
       330  17 -1.634457E+06 -2.304948E+05  6.841010E+04 -7.807297E+05 -1.303117E-09  1.176726E-09
       330  18 -1.743224E+06 -2.820735E+05  4.535751E+04 -8.239056E+05 -1.369650E-08 -3.810724E-09
       330  19 -2.602241E+06 -5.917045E+05 -9.438690E+04 -1.064401E+06 -2.415349E+03 -5.111228E+04
       330  20 -2.493597E+06 -5.403109E+05 -7.651737E+04 -1.021196E+06 -7.915877E+03 -4.225973E+04
       330  21 -2.367157E+06 -5.073034E+05 -6.013272E+04 -9.987295E+05 -1.339060E+04 -3.346763E+04
       330  22 -2.055256E+06 -3.945412E+05 -2.289846E+03 -9.114106E+05  1.499174E+04 -4.458030E+04
       330  23 -2.064126E+06 -3.854121E+05 -4.050750E+03 -9.010029E+05  9.381351E+03 -3.577213E+04
       330  24 -2.055242E+06 -3.946932E+05 -7.386167E+03 -9.113385E+05  3.797144E+03 -2.702426E+04
       330  25 -1.507944E+06 -1.973451E+05  8.980249E+04 -7.582917E+05  3.241537E+04 -3.804210E+04
       330  26 -1.634456E+06 -2.304936E+05  6.841305E+04 -7.807303E+05  2.669143E+04 -2.927970E+04
       330  27 -1.743223E+06 -2.820729E+05  4.535914E+04 -8.239059E+05  2.099410E+04 -2.057742E+04
       331   1 -2.291404E+06 -4.803993E+05 -4.914249E+04 -9.784405E+05  1.691780E+04  2.844749E+04
       331   2 -2.183397E+06 -4.284306E+05 -3.709925E+04 -9.323336E+05  2.800106E+04  2.219190E+04
       331   3 -2.060084E+06 -3.994960E+05 -3.208081E+04 -9.060277E+05  3.878614E+04  1.673239E+04
       331   4 -2.055685E+06 -3.946504E+05 -9.846060E+03 -9.115521E+05 -3.625507E+02  2.197069E+04
       331   5 -2.063730E+06 -3.868207E+05 -1.807876E+04 -9.002142E+05  1.216434E+04  1.625687E+04
       331   6 -2.056771E+06 -4.023136E+05 -3.448444E+04 -9.086839E+05  2.439171E+04  1.133841E+04
       331   7 -1.819909E+06 -3.088963E+05  2.944961E+04 -8.446401E+05 -1.764971E+04  1.549126E+04
       331   8 -1.944048E+06 -3.452093E+05  9.425384E+02 -8.680889E+05 -3.675624E+03  1.032071E+04
       331   9 -2.053458E+06 -4.051311E+05 -3.688715E+04 -9.113400E+05  9.997073E+03  5.944572E+03
       331  10 -2.291404E+06 -4.804002E+05 -4.914455E+04 -9.784409E+05  2.378434E-09  1.429403E-09
       331  11 -2.183398E+06 -4.284313E+05 -3.710166E+04 -9.323341E+05 -6.400928E-09 -2.057049E-10
       331  12 -2.060086E+06 -3.994967E+05 -3.208417E+04 -9.060282E+05 -6.885619E-09 -3.522276E-12
       331  13 -2.055686E+06 -3.946509E+05 -9.846967E+03 -9.115521E+05 -3.339655E-09 -1.526260E-10
       331  14 -2.063730E+06 -3.868210E+05 -1.807953E+04 -9.002144E+05 -8.935714E-09 -2.010157E-09
       331  15 -2.056772E+06 -4.023139E+05 -3.448580E+04 -9.086841E+05 -4.592273E-09 -8.719724E-10
       331  16 -1.819910E+06 -3.088966E+05  2.944857E+04 -8.446399E+05 -8.209002E-09 -1.743861E-09
       331  17 -1.944048E+06 -3.452094E+05  9.423131E+02 -8.680889E+05 -9.200229E-09 -2.558649E-09
       331  18 -2.053458E+06 -4.051311E+05 -3.688741E+04 -9.113400E+05  8.797575E-10  3.250616E-10
       331  19 -2.291404E+06 -4.803993E+05 -4.914249E+04 -9.784405E+05 -1.691780E+04 -2.844749E+04
       331  20 -2.183397E+06 -4.284306E+05 -3.709925E+04 -9.323336E+05 -2.800106E+04 -2.219190E+04
       331  21 -2.060084E+06 -3.994960E+05 -3.208081E+04 -9.060277E+05 -3.878614E+04 -1.673239E+04
       331  22 -2.055685E+06 -3.946504E+05 -9.846060E+03 -9.115521E+05  3.625507E+02 -2.197069E+04
       331  23 -2.063730E+06 -3.868207E+05 -1.807876E+04 -9.002142E+05 -1.216434E+04 -1.625687E+04
       331  24 -2.056771E+06 -4.023136E+05 -3.448444E+04 -9.086839E+05 -2.439171E+04 -1.133841E+04
       331  25 -1.819909E+06 -3.088963E+05  2.944961E+04 -8.446401E+05  1.764971E+04 -1.549126E+04
       331  26 -1.944048E+06 -3.452093E+05  9.425384E+02 -8.680889E+05  3.675624E+03 -1.032071E+04
       331  27 -2.053458E+06 -4.051311E+05 -3.688715E+04 -9.113400E+05 -9.997073E+03 -5.944572E+03
       332   1 -1.982141E+06 -3.790105E+05 -2.935702E+04 -8.950591E+05  4.670066E+04  1.390678E+04
       332   2 -1.903418E+06 -3.175254E+05 -4.454137E+04 -7.928324E+05  7.843767E+04  2.110188E+04
       332   3 -1.842150E+06 -3.569003E+05 -1.049616E+05 -6.898540E+05  1.069818E+05  3.683092E+04
       332   4 -2.062161E+06 -4.024306E+05 -4.600573E+04 -9.107889E+05  3.146512E+04  8.198355E+03
       332   5 -2.062057E+06 -4.222049E+05 -8.787771E+04 -8.843010E+05  7.867044E+04  2.118174E+04
       332   6 -2.082519E+06 -5.459513E+05 -1.872866E+05 -8.570759E+05  1.226766E+05  4.269166E+04
       332   7 -2.142174E+06 -4.258506E+05 -6.265390E+04 -9.265170E+05  1.623162E+04  2.490314E+03
       332   8 -2.220661E+06 -5.268586E+05 -1.312141E+05 -9.757410E+05  7.890313E+04  2.126152E+04
       332   9 -2.322795E+06 -7.349058E+05 -2.696089E+05 -1.024213E+06  1.383642E+05  4.854335E+04
       332  10 -1.982144E+06 -3.790113E+05 -2.936149E+04 -8.950597E+05 -3.524014E-10  1.957770E-09
       332  11 -1.903424E+06 -3.175275E+05 -4.455381E+04 -7.928337E+05 -2.233629E-10  7.852944E-10
       332  12 -1.842162E+06 -3.569049E+05 -1.049857E+05 -6.898572E+05  5.998646E-10  3.259981E-10
       332  13 -2.062162E+06 -4.024309E+05 -4.600772E+04 -9.107891E+05  2.691141E-10  1.261623E-09
       332  14 -2.062064E+06 -4.222070E+05 -8.789023E+04 -8.843024E+05  9.662363E-10  8.960732E-10
       332  15 -2.082535E+06 -5.459573E+05 -1.873184E+05 -8.570802E+05 -7.026472E-12  1.986979E-10
       332  16 -2.142175E+06 -4.258506E+05 -6.265441E+04 -9.265171E+05 -5.184570E-10 -6.860599E-10
       332  17 -2.220668E+06 -5.268607E+05 -1.312267E+05 -9.757424E+05 -8.775558E-10 -1.537775E-10
       332  18 -2.322816E+06 -7.349135E+05 -2.696495E+05 -1.024218E+06 -7.146003E-10 -2.226980E-10
       332  19 -1.982141E+06 -3.790105E+05 -2.935702E+04 -8.950591E+05 -4.670066E+04 -1.390678E+04
       332  20 -1.903418E+06 -3.175254E+05 -4.454137E+04 -7.928324E+05 -7.843767E+04 -2.110188E+04
       332  21 -1.842150E+06 -3.569003E+05 -1.049616E+05 -6.898540E+05 -1.069818E+05 -3.683092E+04
       332  22 -2.062161E+06 -4.024306E+05 -4.600573E+04 -9.107889E+05 -3.146512E+04 -8.198355E+03
       332  23 -2.062057E+06 -4.222049E+05 -8.787771E+04 -8.843010E+05 -7.867044E+04 -2.118174E+04
       332  24 -2.082519E+06 -5.459513E+05 -1.872866E+05 -8.570759E+05 -1.226766E+05 -4.269166E+04
       332  25 -2.142174E+06 -4.258506E+05 -6.265390E+04 -9.265170E+05 -1.623162E+04 -2.490314E+03
       332  26 -2.220661E+06 -5.268586E+05 -1.312141E+05 -9.757410E+05 -7.890313E+04 -2.126152E+04
       332  27 -2.322795E+06 -7.349058E+05 -2.696089E+05 -1.024213E+06 -1.383642E+05 -4.854335E+04
       333   1  5.895022E+05  1.095859E+05  1.541761E+05  3.841162E+04  1.389677E+05  2.117404E+03
       333   2  5.782837E+05 -7.480526E+04  4.284701E+04  1.181449E+04  9.215258E+04  5.970387E+03
       333   3  6.248482E+05 -5.272929E+04  1.361929E+04 -2.927190E+04  4.533809E+04  5.295901E+03
       333   4  8.046508E+05  1.631090E+05  2.073078E+05 -8.810621E+03  1.418142E+05  2.109115E+03
       333   5  7.756213E+05 -2.588114E+04  9.038564E+04 -1.498795E+03  9.291566E+04  5.968808E+03
       333   6  8.047137E+05 -8.082687E+03  5.698991E+04 -8.676068E+03  4.401920E+04  5.296556E+03
       333   7  1.019846E+06  2.166370E+05  2.604374E+05 -5.604924E+04  1.446618E+05  2.100397E+03
       333   8  9.729950E+05  2.304080E+04  1.379216E+05 -1.481633E+04  9.367897E+04  5.967196E+03
       333   9  9.846096E+05  3.656315E+04  1.003584E+05  1.192574E+04  4.269992E+04  5.297124E+03
       333  10  5.894814E+05  1.095807E+05  1.541398E+05  3.841139E+04  2.348998E-09 -9.508701E-10
       333  11  5.782746E+05 -7.480757E+04  4.283100E+04  1.181405E+04 -5.678811E-10  5.850255E-11
       333  12  6.248460E+05 -5.272987E+04  1.361537E+04 -2.927209E+04 -9.517887E-10 -5.035720E-10
       333  13  8.046293E+05  1.631036E+05  2.072701E+05 -8.810861E+03 -7.890140E-10  3.790739E-10
       333  14  7.756121E+05 -2.588350E+04  9.036937E+04 -1.499241E+03  2.086137E-09 -3.930398E-10
       333  15  8.047116E+05 -8.083237E+03  5.698622E+04 -8.676255E+03  1.842893E-09 -7.068409E-10
       333  16  1.019824E+06  2.166314E+05  2.603981E+05 -5.604949E+04 -9.989376E-10  2.584654E-10
       333  17  9.729855E+05  2.303841E+04  1.379051E+05 -1.481678E+04  8.636201E-11 -4.871620E-10
       333  18  9.846077E+05  3.656263E+04  1.003550E+05  1.192556E+04  3.681367E-09  9.807210E-10
       333  19  5.895022E+05  1.095859E+05  1.541761E+05  3.841162E+04 -1.389677E+05 -2.117404E+03
       333  20  5.782837E+05 -7.480526E+04  4.284701E+04  1.181449E+04 -9.215258E+04 -5.970387E+03
       333  21  6.248482E+05 -5.272929E+04  1.361929E+04 -2.927190E+04 -4.533809E+04 -5.295901E+03
       333  22  8.046508E+05  1.631090E+05  2.073078E+05 -8.810621E+03 -1.418142E+05 -2.109115E+03
       333  23  7.756213E+05 -2.588114E+04  9.038564E+04 -1.498795E+03 -9.291566E+04 -5.968808E+03
       333  24  8.047137E+05 -8.082687E+03  5.698991E+04 -8.676068E+03 -4.401920E+04 -5.296556E+03
       333  25  1.019846E+06  2.166370E+05  2.604374E+05 -5.604924E+04 -1.446618E+05 -2.100397E+03
       333  26  9.729950E+05  2.304080E+04  1.379216E+05 -1.481633E+04 -9.367897E+04 -5.967196E+03
       333  27  9.846096E+05  3.656315E+04  1.003584E+05  1.192574E+04 -4.269992E+04 -5.297124E+03
       334   1  6.395817E+05 -1.986266E+04  9.439983E+03 -3.804550E+03  3.510533E+04  4.241045E+03
       334   2  6.527705E+05 -3.695461E+04 -9.550869E+03 -4.647055E+02  2.319289E+04  3.953986E+03
       334   3  6.733852E+05 -3.070068E+04 -1.494628E+04 -1.105064E+04  1.128022E+04  3.297071E+03
       334   4  7.934409E+05  1.831474E+04  4.661873E+04 -8.597535E+03  3.506728E+04  4.240684E+03
       334   5  7.897199E+05 -2.979841E+03  2.348769E+04 -1.630257E+03  2.298328E+04  3.953798E+03
       334   6  7.934522E+05 -9.017976E+02  1.406864E+04 -8.588465E+03  1.089938E+04  3.296953E+03
       334   7  9.473218E+05  5.649050E+04  8.379579E+04 -1.339171E+04  3.502923E+04  4.240323E+03
       334   8  9.266863E+05  3.099357E+04  5.652492E+04 -2.796068E+03  2.277363E+04  3.953610E+03
       334   9  9.135323E+05  2.889606E+04  4.308253E+04 -6.125810E+03  1.051846E+04  3.296832E+03
       334  10  6.395804E+05 -1.986301E+04  9.437635E+03 -3.804670E+03  4.143215E-10 -3.199922E-10
       334  11  6.527700E+05 -3.695477E+04 -9.551908E+03 -4.647793E+02 -9.038679E-10  2.986509E-10
       334  12  6.733851E+05 -3.070073E+04 -1.494654E+04 -1.105067E+04  1.620878E-11  3.613111E-10
       334  13  7.934396E+05  1.831439E+04  4.661639E+04 -8.597654E+03  2.404595E-09  9.615171E-10
       334  14  7.897193E+05 -2.979999E+03  2.348667E+04 -1.630330E+03  3.233676E-09  6.823138E-10
       334  15  7.934520E+05 -9.018411E+02  1.406840E+04 -8.588494E+03 -5.110477E-10 -2.524904E-10
       334  16  9.473205E+05  5.649015E+04  8.379345E+04 -1.339183E+04  7.447930E-10  8.661757E-10
       334  17  9.266858E+05  3.099341E+04  5.652392E+04 -2.796141E+03  1.918956E-09  4.084398E-10
       334  18  9.135321E+05  2.889602E+04  4.308230E+04 -6.125838E+03  1.420464E-09 -3.584670E-10
       334  19  6.395817E+05 -1.986266E+04  9.439983E+03 -3.804550E+03 -3.510533E+04 -4.241045E+03
       334  20  6.527705E+05 -3.695461E+04 -9.550869E+03 -4.647055E+02 -2.319289E+04 -3.953986E+03
       334  21  6.733852E+05 -3.070068E+04 -1.494628E+04 -1.105064E+04 -1.128022E+04 -3.297071E+03
       334  22  7.934409E+05  1.831474E+04  4.661873E+04 -8.597535E+03 -3.506728E+04 -4.240684E+03
       334  23  7.897199E+05 -2.979841E+03  2.348769E+04 -1.630257E+03 -2.298328E+04 -3.953798E+03
       334  24  7.934522E+05 -9.017976E+02  1.406864E+04 -8.588465E+03 -1.089938E+04 -3.296953E+03
       334  25  9.473218E+05  5.649050E+04  8.379579E+04 -1.339171E+04 -3.502923E+04 -4.240323E+03
       334  26  9.266863E+05  3.099357E+04  5.652492E+04 -2.796068E+03 -2.277363E+04 -3.953610E+03
       334  27  9.135323E+05  2.889606E+04  4.308253E+04 -6.125810E+03 -1.051846E+04 -3.296832E+03
       335   1  6.971792E+05 -2.150041E+04 -1.179098E+04 -8.113984E+03  8.943922E+03  2.863237E+03
       335   2  7.131174E+05 -1.979525E+04 -1.291225E+04 -1.679705E+03  5.938174E+03  2.248696E+03
       335   3  7.301182E+05 -1.546927E+04 -1.141964E+04 -8.821669E+03  2.932296E+03  1.607901E+03
       335   4  7.920325E+05  2.023260E+03  1.105338E+04 -8.513941E+03  8.670667E+03  2.863127E+03
       335   5  7.915015E+05 -3.489946E+02  6.000235E+03 -1.725600E+03  5.652513E+03  2.248611E+03
       335   6  7.920349E+05 -9.842279E+01  3.569317E+03 -8.513391E+03  2.634307E+03  1.607841E+03
       335   7  8.868940E+05  2.554627E+04  3.389710E+04 -8.913959E+03  8.397371E+03  2.863017E+03
       335   8  8.698911E+05  1.909682E+04  2.491228E+04 -1.771501E+03  5.366816E+03  2.248527E+03
       335   9  8.539551E+05  1.527215E+04  1.855800E+04 -8.205083E+03  2.336288E+03  1.607780E+03
       335  10  6.971791E+05 -2.150044E+04 -1.179115E+04 -8.114005E+03 -1.016688E-09 -6.268634E-11
       335  11  7.131174E+05 -1.979527E+04 -1.291232E+04 -1.679716E+03 -1.429798E-09 -1.004078E-09
       335  12  7.301182E+05 -1.546928E+04 -1.141967E+04 -8.821673E+03  6.576601E-10  3.339692E-10
       335  13  7.920324E+05  2.023231E+03  1.105322E+04 -8.513961E+03  8.170223E-10 -3.143994E-10
       335  14  7.915014E+05 -3.490086E+02  6.000165E+03 -1.725610E+03  1.681025E-09 -2.288080E-10
       335  15  7.920349E+05 -9.842743E+01  3.569299E+03 -8.513395E+03 -1.093011E-09 -1.893983E-11
       335  16  8.868939E+05  2.554625E+04  3.389695E+04 -8.913979E+03  2.908105E-09 -3.888674E-10
       335  17  8.698911E+05  1.909680E+04  2.491221E+04 -1.771511E+03 -1.441986E-10 -1.193647E-10
       335  18  8.539551E+05  1.527214E+04  1.855799E+04 -8.205086E+03  1.265554E-09  3.897439E-10
       335  19  6.971792E+05 -2.150041E+04 -1.179098E+04 -8.113984E+03 -8.943922E+03 -2.863237E+03
       335  20  7.131174E+05 -1.979525E+04 -1.291225E+04 -1.679705E+03 -5.938174E+03 -2.248696E+03
       335  21  7.301182E+05 -1.546927E+04 -1.141964E+04 -8.821669E+03 -2.932296E+03 -1.607901E+03
       335  22  7.920325E+05  2.023260E+03  1.105338E+04 -8.513941E+03 -8.670667E+03 -2.863127E+03
       335  23  7.915015E+05 -3.489946E+02  6.000235E+03 -1.725600E+03 -5.652513E+03 -2.248611E+03
       335  24  7.920349E+05 -9.842279E+01  3.569317E+03 -8.513391E+03 -2.634307E+03 -1.607841E+03
       335  25  8.868940E+05  2.554627E+04  3.389710E+04 -8.913959E+03 -8.397371E+03 -2.863017E+03
       335  26  8.698911E+05  1.909682E+04  2.491228E+04 -1.771501E+03 -5.366816E+03 -2.248527E+03
       335  27  8.539551E+05  1.527215E+04  1.855800E+04 -8.205083E+03 -2.336288E+03 -1.607780E+03
       336   1  7.546750E+05 -8.996757E+03 -6.120886E+03 -8.464332E+03  2.351144E+03  1.232433E+03
       336   2  7.708523E+05 -5.228277E+03 -3.338290E+03 -1.781331E+03  1.504202E+03  5.989026E+02
       336   3  7.872220E+05 -1.155905E+03  7.240816E+01 -8.515385E+03  6.571965E+02 -3.561550E+01
       336   4  7.918416E+05  2.137739E+02  2.797020E+03 -8.478226E+03  2.062344E+03  1.232384E+03
       336   5  7.917459E+05 -4.495403E+01  1.702836E+03 -1.769697E+03  1.214900E+03  5.988596E+02
       336   6  7.918421E+05  2.388382E-01  1.237020E+03 -8.478196E+03  3.674138E+02 -3.565169E+01
       336   7  8.290095E+05  9.424204E+03  1.171483E+04 -8.492120E+03  1.773527E+03  1.232335E+03
       336   8  8.126398E+05  5.138337E+03  6.743932E+03 -1.758064E+03  9.255879E+02  5.988165E+02
       336   9  7.964622E+05  1.156381E+03  2.401630E+03 -8.441006E+03  7.762897E+01 -3.568791E+01
       336  10  7.546750E+05 -8.996760E+03 -6.120899E+03 -8.464335E+03  1.847072E-10  2.874917E-10
       336  11  7.708523E+05 -5.228278E+03 -3.338295E+03 -1.781332E+03  1.052288E-09 -6.860016E-10
       336  12  7.872220E+05 -1.155905E+03  7.240735E+01 -8.515385E+03 -4.813684E-10 -5.959376E-13
       336  13  7.918416E+05  2.137711E+02  2.797009E+03 -8.478228E+03  5.891295E-11  9.267767E-11
       336  14  7.917459E+05 -4.495481E+01  1.702833E+03 -1.769698E+03  9.765433E-10 -7.075487E-10
       336  15  7.918421E+05  2.388006E-01  1.237020E+03 -8.478196E+03  3.300765E-10  4.157264E-10
       336  16  8.290095E+05  9.424202E+03  1.171482E+04 -8.492122E+03 -1.123663E-09 -1.220636E-10
       336  17  8.126398E+05  5.138336E+03  6.743930E+03 -1.758064E+03  4.812089E-10 -9.079529E-10
       336  18  7.964622E+05  1.156381E+03  2.401630E+03 -8.441006E+03  9.752387E-10  4.324926E-10
       336  19  7.546750E+05 -8.996757E+03 -6.120886E+03 -8.464332E+03 -2.351144E+03 -1.232433E+03
       336  20  7.708523E+05 -5.228277E+03 -3.338290E+03 -1.781331E+03 -1.504202E+03 -5.989026E+02
       336  21  7.872220E+05 -1.155905E+03  7.240816E+01 -8.515385E+03 -6.571965E+02  3.561550E+01
       336  22  7.918416E+05  2.137739E+02  2.797020E+03 -8.478226E+03 -2.062344E+03 -1.232384E+03
       336  23  7.917459E+05 -4.495403E+01  1.702836E+03 -1.769697E+03 -1.214900E+03 -5.988596E+02
       336  24  7.918421E+05  2.388382E-01  1.237020E+03 -8.478196E+03 -3.674138E+02  3.565169E+01
       336  25  8.290095E+05  9.424204E+03  1.171483E+04 -8.492120E+03 -1.773527E+03 -1.232335E+03
       336  26  8.126398E+05  5.138337E+03  6.743932E+03 -1.758064E+03 -9.255879E+02 -5.988165E+02
       336  27  7.964622E+05  1.156381E+03  2.401630E+03 -8.441006E+03 -7.762897E+01  3.568791E+01
       337   1  8.118361E+05  4.987009E+03  6.026097E+03 -8.465254E+03  4.417935E+02 -4.052500E+02
       337   2  8.280732E+05  8.978287E+03  9.982773E+03 -1.757281E+03 -1.659267E+02 -1.040377E+03
       337   3  8.444448E+05  1.316141E+04  1.438416E+04 -8.491040E+03 -7.736099E+02 -1.675395E+03
       337   4  7.918292E+05  1.379002E+01  1.149145E+03 -8.483701E+03  1.518978E+02 -4.052879E+02
       337   5  7.917618E+05 -2.960408E+01  1.221971E+03 -1.762820E+03 -4.557489E+02 -1.040427E+03
       337   6  7.918288E+05  1.188628E+02  1.739491E+03 -8.483720E+03 -1.063343E+03 -1.675456E+03
       337   7  7.718226E+05 -4.959458E+03 -3.727836E+03 -8.502149E+03 -1.379886E+02 -4.053259E+02
       337   8  7.554517E+05 -9.037591E+03 -7.538924E+03 -1.768359E+03 -7.455541E+02 -1.040476E+03
       337   9  7.392154E+05 -1.292389E+04 -1.090537E+04 -8.476400E+03 -1.353051E+03 -1.675516E+03
       337  10  8.118361E+05  4.987009E+03  6.026096E+03 -8.465254E+03  1.073252E-09  1.189948E-10
       337  11  8.280732E+05  8.978286E+03  9.982771E+03 -1.757281E+03 -7.172215E-10 -4.104690E-10
       337  12  8.444448E+05  1.316141E+04  1.438415E+04 -8.491041E+03 -1.572314E-09 -9.195843E-11
       337  13  7.918292E+05  1.378984E+01  1.149144E+03 -8.483701E+03  2.709702E-09  7.827263E-10
       337  14  7.917618E+05 -2.960530E+01  1.221969E+03 -1.762820E+03  2.772301E-09  1.965938E-10
       337  15  7.918288E+05  1.188595E+02  1.739484E+03 -8.483721E+03 -1.904345E-09  2.836395E-10
       337  16  7.718226E+05 -4.959458E+03 -3.727836E+03 -8.502149E+03 -9.865031E-10  1.001117E-09
       337  17  7.554517E+05 -9.037593E+03 -7.538927E+03 -1.768360E+03 -5.662745E-10 -6.330808E-11
       337  18  7.392154E+05 -1.292389E+04 -1.090538E+04 -8.476402E+03 -9.476335E-10  2.745466E-10
       337  19  8.118361E+05  4.987009E+03  6.026097E+03 -8.465254E+03 -4.417935E+02  4.052500E+02
       337  20  8.280732E+05  8.978287E+03  9.982773E+03 -1.757281E+03  1.659267E+02  1.040377E+03
       337  21  8.444448E+05  1.316141E+04  1.438416E+04 -8.491040E+03  7.736099E+02  1.675395E+03
       337  22  7.918292E+05  1.379002E+01  1.149145E+03 -8.483701E+03 -1.518978E+02  4.052879E+02
       337  23  7.917618E+05 -2.960408E+01  1.221971E+03 -1.762820E+03  4.557489E+02  1.040427E+03
       337  24  7.918288E+05  1.188628E+02  1.739491E+03 -8.483720E+03  1.063343E+03  1.675456E+03
       337  25  7.718226E+05 -4.959458E+03 -3.727836E+03 -8.502149E+03  1.379886E+02  4.053259E+02
       337  26  7.554517E+05 -9.037591E+03 -7.538924E+03 -1.768359E+03  7.455541E+02  1.040476E+03
       337  27  7.392154E+05 -1.292389E+04 -1.090537E+04 -8.476400E+03  1.353051E+03  1.675516E+03
       338   1  8.693975E+05  1.916867E+04  2.088368E+04 -8.349726E+03 -1.112830E+03 -2.052513E+03
       338   2  8.856454E+05  2.312213E+04  2.616695E+04 -1.719953E+03 -2.877638E+03 -2.695969E+03
       338   3  9.025181E+05  2.857161E+04  3.297635E+04 -8.743497E+03 -4.642341E+03 -3.311815E+03
       338   4  7.919365E+05 -5.690686E+01  2.145617E+03 -8.530629E+03 -1.412558E+03 -2.052590E+03
       338   5  7.916243E+05 -2.011075E+02  3.483844E+03 -1.704092E+03 -3.164527E+03 -2.696073E+03
       338   6  7.919349E+05  1.148701E+03  6.339557E+03 -8.530998E+03 -4.916344E+03 -3.311945E+03
       338   7  7.144810E+05 -1.928292E+04 -1.659288E+04 -8.711510E+03 -1.712248E+03 -2.052666E+03
       338   8  6.976113E+05 -2.352499E+04 -1.919989E+04 -1.688234E+03 -3.451373E+03 -2.696177E+03
       338   9  6.813629E+05 -2.627510E+04 -2.029811E+04 -8.318537E+03 -5.190299E+03 -3.312075E+03
       338  10  8.693975E+05  1.916866E+04  2.088367E+04 -8.349728E+03  1.926011E-09  6.044021E-10
       338  11  8.856453E+05  2.312212E+04  2.616692E+04 -1.719959E+03 -1.912260E-09 -3.584342E-10
       338  12  9.025181E+05  2.857159E+04  3.297629E+04 -8.743510E+03 -3.095920E-09  1.637445E-10
       338  13  7.919365E+05 -5.691193E+01  2.145605E+03 -8.530631E+03 -1.085822E-09  4.070658E-10
       338  14  7.916243E+05 -2.011180E+02  3.483812E+03 -1.704099E+03  3.285723E-10 -7.580262E-11
       338  15  7.919349E+05  1.148683E+03  6.339491E+03 -8.531011E+03 -1.851473E-09 -1.287425E-10
       338  16  7.144810E+05 -1.928293E+04 -1.659289E+04 -8.711513E+03 -7.268538E-10  6.656404E-11
       338  17  6.976113E+05 -2.352501E+04 -1.919993E+04 -1.688241E+03 -4.855598E-10 -3.373151E-10
       338  18  6.813629E+05 -2.627512E+04 -2.029818E+04 -8.318551E+03  6.754570E-10  2.648285E-10
       338  19  8.693975E+05  1.916867E+04  2.088368E+04 -8.349726E+03  1.112830E+03  2.052513E+03
       338  20  8.856454E+05  2.312213E+04  2.616695E+04 -1.719953E+03  2.877638E+03  2.695969E+03
       338  21  9.025181E+05  2.857161E+04  3.297635E+04 -8.743497E+03  4.642341E+03  3.311815E+03
       338  22  7.919365E+05 -5.690686E+01  2.145617E+03 -8.530629E+03  1.412558E+03  2.052590E+03
       338  23  7.916243E+05 -2.011075E+02  3.483844E+03 -1.704092E+03  3.164527E+03  2.696073E+03
       338  24  7.919349E+05  1.148701E+03  6.339557E+03 -8.530998E+03  4.916344E+03  3.311945E+03
       338  25  7.144810E+05 -1.928292E+04 -1.659288E+04 -8.711510E+03  1.712248E+03  2.052666E+03
       338  26  6.976113E+05 -2.352499E+04 -1.919989E+04 -1.688234E+03  3.451373E+03  2.696177E+03
       338  27  6.813629E+05 -2.627510E+04 -2.029811E+04 -8.318537E+03  5.190299E+03  3.312075E+03
       339   1  9.287348E+05  3.322473E+04  4.090262E+04 -7.190863E+03 -5.803329E+03 -3.752151E+03
       339   2  9.436319E+05  3.625433E+04  5.032024E+04 -2.229992E+03 -1.288497E+04 -4.412153E+03
       339   3  9.628365E+05  5.263809E+04  6.769190E+04 -1.131511E+04 -1.996695E+04 -4.674098E+03
       339   4  7.927458E+05 -5.184990E+02  8.051200E+03 -8.616204E+03 -6.193262E+03 -3.752337E+03
       339   5  7.906042E+05 -1.703131E+03  1.340883E+04 -1.596131E+03 -1.309168E+04 -4.412338E+03
       339   6  7.927389E+05  1.043642E+04  2.659479E+04 -8.622182E+03 -1.999024E+04 -4.674283E+03
       339   7  6.567738E+05 -3.426307E+04 -2.480155E+04 -1.004123E+04 -6.583111E+03 -3.752521E+03
       339   8  6.375979E+05 -3.966230E+04 -2.350426E+04 -9.624294E+02 -1.329834E+04 -4.412523E+03
       339   9  6.226678E+05 -3.176733E+04 -1.450440E+04 -5.929992E+03 -2.001352E+04 -4.674469E+03
       339  10  9.287347E+05  3.322470E+04  4.090253E+04 -7.190880E+03 -2.627408E-09 -1.295363E-10
       339  11  9.436317E+05  3.625427E+04  5.031989E+04 -2.230038E+03 -7.291928E-10 -5.862088E-10
       339  12  9.628360E+05  5.263796E+04  6.769111E+04 -1.131519E+04  3.342029E-10 -8.950135E-10
       339  13  7.927458E+05 -5.185244E+02  8.051101E+03 -8.616223E+03 -1.068928E-09 -1.416080E-10
       339  14  7.906040E+05 -1.703198E+03  1.340847E+04 -1.596178E+03  1.740460E-09 -3.717358E-10
       339  15  7.927385E+05  1.043629E+04  2.659400E+04 -8.622257E+03 -3.872442E-10 -8.239500E-10
       339  16  6.567737E+05 -3.426309E+04 -2.480165E+04 -1.004125E+04 -2.097459E-11  1.327120E-10
       339  17  6.375977E+05 -3.966237E+04 -2.350463E+04 -9.624766E+02  3.512370E-10  1.020730E-09
       339  18  6.226674E+05 -3.176746E+04 -1.450519E+04 -5.930067E+03  5.744248E-10 -4.837607E-10
       339  19  9.287348E+05  3.322473E+04  4.090262E+04 -7.190863E+03  5.803329E+03  3.752151E+03
       339  20  9.436319E+05  3.625433E+04  5.032024E+04 -2.229992E+03  1.288497E+04  4.412153E+03
       339  21  9.628365E+05  5.263809E+04  6.769190E+04 -1.131511E+04  1.996695E+04  4.674098E+03
       339  22  7.927458E+05 -5.184990E+02  8.051200E+03 -8.616204E+03  6.193262E+03  3.752337E+03
       339  23  7.906042E+05 -1.703131E+03  1.340883E+04 -1.596131E+03  1.309168E+04  4.412338E+03
       339  24  7.927389E+05  1.043642E+04  2.659479E+04 -8.622182E+03  1.999024E+04  4.674283E+03
       339  25  6.567738E+05 -3.426307E+04 -2.480155E+04 -1.004123E+04  6.583111E+03  3.752521E+03
       339  26  6.375979E+05 -3.966230E+04 -2.350426E+04 -9.624294E+02  1.329834E+04  4.412523E+03
       339  27  6.226678E+05 -3.176733E+04 -1.450440E+04 -5.929992E+03  2.001352E+04  4.674469E+03
       340   1  9.955798E+05  4.411221E+04  7.985204E+04  3.083667E+03 -2.369479E+04 -5.780892E+03
       340   2  9.966304E+05  3.830299E+04  1.031030E+05 -8.982137E+03 -5.381633E+04 -6.443963E+03
       340   3  1.031250E+06  1.507908E+05  1.755354E+05 -3.565960E+04 -8.394295E+04 -2.228383E+03
       340   4  7.991708E+05 -4.617766E+03  3.250759E+04 -8.717453E+03 -2.509650E+04 -5.781471E+03
       340   5  7.825555E+05 -1.476756E+04  5.154232E+04 -1.455344E+03 -5.298293E+04 -6.444108E+03
       340   6  7.991328E+05  9.301262E+04  1.182196E+05 -8.804147E+03 -8.087344E+04 -2.229227E+03
       340   7  6.027973E+05 -5.335003E+04 -1.483953E+04 -2.051484E+04 -2.649777E+04 -5.781997E+03
       340   8  5.685227E+05 -6.784123E+04 -2.157355E+01  6.068840E+03 -5.214980E+04 -6.444234E+03
       340   9  5.670660E+05  3.523313E+04  6.090031E+04  1.804126E+04 -7.780508E+04 -2.229807E+03
       340  10  9.955792E+05  4.411202E+04  7.985092E+04  3.083557E+03  2.191810E-09 -1.374103E-09
       340  11  9.966272E+05  3.830217E+04  1.030975E+05 -8.982417E+03 -4.012299E-10 -2.673095E-09
       340  12  1.031243E+06  1.507889E+05  1.755222E+05 -3.565975E+04 -1.099684E-09 -8.685575E-10
       340  13  7.991701E+05 -4.617971E+03  3.250635E+04 -8.717570E+03 -1.898859E-09 -3.542912E-09
       340  14  7.825525E+05 -1.476835E+04  5.153697E+04 -1.455619E+03  2.135128E-09  1.158242E-09
       340  15  7.991258E+05  9.301087E+04  1.182074E+05 -8.804292E+03 -1.640215E-10 -1.982134E-10
       340  16  6.027966E+05 -5.335026E+04 -1.484091E+04 -2.051496E+04 -6.603390E-10 -1.211822E-09
       340  17  5.685198E+05 -6.784200E+04 -2.675745E+01  6.068569E+03 -2.107119E-10  8.101663E-10
       340  18  5.670595E+05  3.523150E+04  6.088894E+04  1.804112E+04  7.518619E-10 -9.777020E-10
       340  19  9.955798E+05  4.411221E+04  7.985204E+04  3.083667E+03  2.369479E+04  5.780892E+03
       340  20  9.966304E+05  3.830299E+04  1.031030E+05 -8.982137E+03  5.381633E+04  6.443963E+03
       340  21  1.031250E+06  1.507908E+05  1.755354E+05 -3.565960E+04  8.394295E+04  2.228383E+03
       340  22  7.991708E+05 -4.617766E+03  3.250759E+04 -8.717453E+03  2.509650E+04  5.781471E+03
       340  23  7.825555E+05 -1.476756E+04  5.154232E+04 -1.455344E+03  5.298293E+04  6.444108E+03
       340  24  7.991328E+05  9.301262E+04  1.182196E+05 -8.804147E+03  8.087344E+04  2.229227E+03
       340  25  6.027973E+05 -5.335003E+04 -1.483953E+04 -2.051484E+04  2.649777E+04  5.781997E+03
       340  26  5.685227E+05 -6.784123E+04 -2.157355E+01  6.068840E+03  5.214980E+04  6.444234E+03
       340  27  5.670660E+05  3.523313E+04  6.090031E+04  1.804126E+04  7.780508E+04  2.229807E+03
       341   1  1.573521E+06  6.475141E+06  1.606850E+06 -7.476831E+05  4.837457E+04  1.969511E+05
       341   2  1.054802E+06  5.130496E+06  1.149046E+06 -1.856043E+05  1.320057E+05  8.416560E+04
       341   3  7.725757E+05  3.873962E+06  8.257561E+05 -6.875762E+05  8.468347E+04 -2.907769E+04
       341   4  1.600812E+05  7.865923E+05  2.053789E+05 -6.871174E+05  4.863232E+04  1.279075E+05
       341   5 -2.917505E+04  7.491836E+05  9.682728E+04 -1.551288E+05  1.321151E+05  7.579038E+04
       341   6  8.527899E+03  7.883881E+05  8.160124E+04 -6.875962E+05  8.424802E+04  2.297544E+04
       341   7 -1.255747E+06 -4.872728E+06 -1.198462E+06 -6.270649E+05  4.887826E+04  5.948634E+04
       341   8 -1.114543E+06 -3.614661E+06 -9.567535E+05 -1.248415E+05  1.322241E+05  6.747220E+04
       341   9 -7.562116E+05 -2.288514E+06 -6.632236E+05 -6.875924E+05  8.381140E+04  7.477177E+04
       341  10  1.573508E+06  6.475099E+06  1.606773E+06 -7.476908E+05  4.426902E-10 -1.542758E-09
       341  11  1.054781E+06  5.130484E+06  1.149000E+06 -1.856132E+05 -2.171495E-09 -9.428039E-10
       341  12  7.725678E+05  3.873959E+06  8.257410E+05 -6.875742E+05  8.993657E-10 -7.379835E-09
       341  13  1.600742E+05  7.865741E+05  2.053437E+05 -6.871224E+05 -9.380858E-10 -2.285579E-09
       341  14 -2.919534E+04  7.491728E+05  9.678367E+04 -1.551369E+05 -2.169038E-09  5.683810E-09
       341  15  8.520130E+03  7.883857E+05  8.158689E+04 -6.875977E+05  5.305549E-10 -2.225276E-08
       341  16 -1.255751E+06 -4.872733E+06 -1.198473E+06 -6.270673E+05 -1.718264E-09  1.555129E-09
       341  17 -1.114563E+06 -3.614671E+06 -9.567950E+05 -1.248487E+05  2.673630E-10  1.022337E-08
       341  18 -7.562206E+05 -2.288522E+06 -6.632474E+05 -6.875975E+05  2.114650E-10  2.985382E-10
       341  19  1.573521E+06  6.475141E+06  1.606850E+06 -7.476831E+05 -4.837457E+04 -1.969511E+05
       341  20  1.054802E+06  5.130496E+06  1.149046E+06 -1.856043E+05 -1.320057E+05 -8.416560E+04
       341  21  7.725757E+05  3.873962E+06  8.257561E+05 -6.875762E+05 -8.468347E+04  2.907769E+04
       341  22  1.600812E+05  7.865923E+05  2.053789E+05 -6.871174E+05 -4.863232E+04 -1.279075E+05
       341  23 -2.917505E+04  7.491836E+05  9.682728E+04 -1.551288E+05 -1.321151E+05 -7.579038E+04
       341  24  8.527899E+03  7.883881E+05  8.160124E+04 -6.875962E+05 -8.424802E+04 -2.297544E+04
       341  25 -1.255747E+06 -4.872728E+06 -1.198462E+06 -6.270649E+05 -4.887826E+04 -5.948634E+04
       341  26 -1.114543E+06 -3.614661E+06 -9.567535E+05 -1.248415E+05 -1.322241E+05 -6.747220E+04
       341  27 -7.562116E+05 -2.288514E+06 -6.632236E+05 -6.875924E+05 -8.381140E+04 -7.477177E+04
       342   1  3.063054E+05  1.903871E+06  3.489132E+05 -7.038525E+05  3.440969E+04 -9.542391E+03
       342   2 -4.570578E+04  6.136553E+05  3.951664E+04 -1.536639E+05 -4.118712E+03 -4.952487E+04
       342   3 -3.073073E+05 -6.698072E+05 -2.263284E+05 -6.635059E+05 -4.208932E+04 -8.940646E+04
       342   4  2.621897E+04  7.748870E+05  7.724265E+04 -6.864304E+05  3.423983E+04  8.340382E+03
       342   5 -6.315820E+03  7.722283E+05  7.777775E+04 -1.563276E+05 -4.280403E+03 -3.190322E+04
       342   6  5.170219E+04  7.748137E+05  1.221335E+05 -6.862010E+05 -4.224534E+04 -7.212700E+04
       342   7 -2.539593E+05 -3.529329E+05 -1.945174E+05 -6.690366E+05  3.407080E+04  2.619082E+04
       342   8  3.307249E+04  9.308250E+05  1.160382E+05 -1.589919E+05 -4.442225E+03 -1.427709E+04
       342   9  4.105608E+05  2.221344E+06  4.704475E+05 -7.089437E+05 -4.240243E+04 -5.480729E+04
       342  10  3.063041E+05  1.903871E+06  3.489108E+05 -7.038522E+05 -5.873139E-10 -8.450597E-09
       342  11 -4.570645E+04  6.136526E+05  3.951200E+04 -1.536640E+05  3.045919E-09 -1.033912E-09
       342  12 -3.073114E+05 -6.698163E+05 -2.263468E+05 -6.635089E+05 -5.751131E-09 -6.557506E-09
       342  13  2.621769E+04  7.748866E+05  7.724031E+04 -6.864306E+05  7.099797E-10 -9.390843E-09
       342  14 -6.316112E+03  7.722272E+05  7.777580E+04 -1.563277E+05  5.861070E-09  9.355296E-09
       342  15  5.169888E+04  7.748076E+05  1.221204E+05 -6.862035E+05  6.867949E-09 -2.402970E-08
       342  16 -2.539607E+05 -3.529340E+05 -1.945209E+05 -6.690373E+05  8.536526E-10  8.373787E-09
       342  17  3.307241E+04  9.308247E+05  1.160378E+05 -1.589919E+05 -9.123938E-09  1.554084E-08
       342  18  4.105581E+05  2.221341E+06  4.704385E+05 -7.089455E+05 -7.814266E-10 -3.812165E-10
       342  19  3.063054E+05  1.903871E+06  3.489132E+05 -7.038525E+05 -3.440969E+04  9.542391E+03
       342  20 -4.570578E+04  6.136553E+05  3.951664E+04 -1.536639E+05  4.118712E+03  4.952487E+04
       342  21 -3.073073E+05 -6.698072E+05 -2.263284E+05 -6.635059E+05  4.208932E+04  8.940646E+04
       342  22  2.621897E+04  7.748870E+05  7.724265E+04 -6.864304E+05 -3.423983E+04 -8.340382E+03
       342  23 -6.315820E+03  7.722283E+05  7.777775E+04 -1.563276E+05  4.280403E+03  3.190322E+04
       342  24  5.170219E+04  7.748137E+05  1.221335E+05 -6.862010E+05  4.224534E+04  7.212700E+04
       342  25 -2.539593E+05 -3.529329E+05 -1.945174E+05 -6.690366E+05 -3.407080E+04 -2.619082E+04
       342  26  3.307249E+04  9.308250E+05  1.160382E+05 -1.589919E+05  4.442225E+03  1.427709E+04
       342  27  4.105608E+05  2.221344E+06  4.704475E+05 -7.089437E+05  4.240243E+04  5.480729E+04
       343   1 -8.488067E+05 -2.587520E+06 -6.760032E+05 -7.141658E+05 -9.264108E+04 -1.491260E+05
       343   2 -1.229776E+06 -3.956075E+06 -9.171439E+05 -1.069518E+05 -1.410422E+05 -2.019423E+05
       343   3 -1.114260E+06 -5.173034E+06 -9.959686E+05 -5.657368E+05 -5.157891E+04 -2.539978E+05
       343   4 -5.677174E+03  8.064879E+05  1.453780E+05 -6.880465E+05 -9.307397E+04 -9.609957E+04
       343   5 -6.491632E+04  7.255365E+05  2.134513E+05 -1.548422E+05 -1.409100E+05 -2.122414E+05
       343   6  3.814829E+05  8.044986E+05  4.868682E+05 -6.870021E+05 -5.132786E+04 -3.277433E+05
       343   7  8.366152E+05  4.211054E+06  9.659437E+05 -6.617554E+05 -9.350109E+04 -4.278210E+04
       343   8  1.098346E+06  5.427261E+06  1.342478E+06 -2.030692E+05 -1.407769E+05 -2.226135E+05
       343   9  1.874599E+06  6.814676E+06  1.967067E+06 -8.094076E+05 -5.104966E+04 -4.021903E+05
       343  10 -8.488219E+05 -2.587547E+06 -6.760614E+05 -7.141769E+05 -2.876814E-09 -7.977894E-09
       343  11 -1.229809E+06 -3.956124E+06 -9.172584E+05 -1.069748E+05  1.432697E-09 -2.413599E-10
       343  12 -1.114281E+06 -5.173105E+06 -9.960959E+05 -5.657474E+05  6.210182E-10  6.793487E-11
       343  13 -5.688969E+03  8.064757E+05  1.453443E+05 -6.880537E+05 -5.032451E-09 -8.077923E-09
       343  14 -6.494973E+04  7.254828E+05  2.133294E+05 -1.548663E+05  1.121954E-09  5.074395E-09
       343  15  3.814512E+05  8.043826E+05  4.866616E+05 -6.870157E+05 -9.524555E-10 -3.486486E-09
       343  16  8.366053E+05  4.211050E+06  9.659238E+05 -6.617586E+05  4.933112E-09  7.759787E-09
       343  17  1.098312E+06  5.427203E+06  1.342349E+06 -2.030943E+05 -1.776374E-09  7.383465E-09
       343  18  1.874554E+06  6.814503E+06  1.966761E+06 -8.094241E+05 -2.373432E-09 -9.966778E-10
       343  19 -8.488067E+05 -2.587520E+06 -6.760032E+05 -7.141658E+05  9.264108E+04  1.491260E+05
       343  20 -1.229776E+06 -3.956075E+06 -9.171439E+05 -1.069518E+05  1.410422E+05  2.019423E+05
       343  21 -1.114260E+06 -5.173034E+06 -9.959686E+05 -5.657368E+05  5.157891E+04  2.539978E+05
       343  22 -5.677174E+03  8.064879E+05  1.453780E+05 -6.880465E+05  9.307397E+04  9.609957E+04
       343  23 -6.491632E+04  7.255365E+05  2.134513E+05 -1.548422E+05  1.409100E+05  2.122414E+05
       343  24  3.814829E+05  8.044986E+05  4.868682E+05 -6.870021E+05  5.132786E+04  3.277433E+05
       343  25  8.366152E+05  4.211054E+06  9.659437E+05 -6.617554E+05  9.350109E+04  4.278210E+04
       343  26  1.098346E+06  5.427261E+06  1.342478E+06 -2.030692E+05  1.407769E+05  2.226135E+05
       343  27  1.874599E+06  6.814676E+06  1.967067E+06 -8.094076E+05  5.104966E+04  4.021903E+05
       344   1 -9.739706E+05 -4.205375E+05 -2.137471E+05 -4.202479E+05 -1.125549E+05 -3.660675E+04
       344   2 -9.363445E+05 -3.039583E+05 -1.208791E+05 -4.003954E+05 -6.926512E+04 -7.269305E+03
       344   3 -9.186904E+05 -2.449205E+05 -7.749181E+04 -3.752902E+05 -2.266898E+04  1.329322E+04
       344   4 -6.502521E+05 -2.329513E+05 -1.188220E+05 -2.633850E+05 -7.950574E+04 -2.419946E+04
       344   5 -6.357700E+05 -1.614184E+05 -5.667175E+04 -2.827550E+05 -5.452949E+04 -1.736583E+03
       344   6 -6.376170E+05 -1.437841E+05 -2.946398E+04 -2.968778E+05 -2.625066E+04  1.194635E+04
       344   7 -3.264230E+05 -4.530821E+04 -2.390291E+04 -1.064358E+05 -4.643849E+04 -1.177647E+04
       344   8 -3.350993E+05 -1.885098E+04  7.531669E+03 -1.650561E+05 -3.978633E+04  3.800948E+03
       344   9 -3.564572E+05 -4.263915E+04  1.856234E+04 -2.184315E+05 -2.983409E+04  1.059883E+04
       344  10 -9.739846E+05 -4.205424E+05 -2.137735E+05 -4.202512E+05 -2.530736E-09 -1.111326E-09
       344  11 -9.363497E+05 -3.039597E+05 -1.208882E+05 -4.003958E+05  7.996563E-09  2.434615E-09
       344  12 -9.186910E+05 -2.449208E+05 -7.749311E+04 -3.752899E+05  7.189683E-09  4.305113E-09
       344  13 -6.502590E+05 -2.329536E+05 -1.188350E+05 -2.633865E+05  3.851785E-09  1.750870E-09
       344  14 -6.357732E+05 -1.614192E+05 -5.667735E+04 -2.827551E+05  6.966752E-09  3.082655E-09
       344  15 -6.376178E+05 -1.437845E+05 -2.946555E+04 -2.968775E+05  2.614546E-09  1.531819E-09
       344  16 -3.264253E+05 -4.530893E+04 -2.390722E+04 -1.064362E+05  8.883564E-09  2.620765E-09
       344  17 -3.351010E+05 -1.885142E+04  7.528666E+03 -1.650560E+05  7.856711E-09  1.427325E-09
       344  18 -3.564582E+05 -4.263951E+04  1.856046E+04 -2.184313E+05 -2.068233E-09 -1.580384E-09
       344  19 -9.739706E+05 -4.205375E+05 -2.137471E+05 -4.202479E+05  1.125549E+05  3.660675E+04
       344  20 -9.363445E+05 -3.039583E+05 -1.208791E+05 -4.003954E+05  6.926512E+04  7.269305E+03
       344  21 -9.186904E+05 -2.449205E+05 -7.749181E+04 -3.752902E+05  2.266898E+04 -1.329322E+04
       344  22 -6.502521E+05 -2.329513E+05 -1.188220E+05 -2.633850E+05  7.950574E+04  2.419946E+04
       344  23 -6.357700E+05 -1.614184E+05 -5.667175E+04 -2.827550E+05  5.452949E+04  1.736583E+03
       344  24 -6.376170E+05 -1.437841E+05 -2.946398E+04 -2.968778E+05  2.625066E+04 -1.194635E+04
       344  25 -3.264230E+05 -4.530821E+04 -2.390291E+04 -1.064358E+05  4.643849E+04  1.177647E+04
       344  26 -3.350993E+05 -1.885098E+04  7.531669E+03 -1.650561E+05  3.978633E+04 -3.800948E+03
       344  27 -3.564572E+05 -4.263915E+04  1.856234E+04 -2.184315E+05  2.983409E+04 -1.059883E+04
       345   1 -8.836021E+05 -2.352206E+05 -6.392702E+04 -3.700494E+05 -1.914946E+04  1.314441E+04
       345   2 -8.412463E+05 -2.090672E+05 -4.409938E+04 -3.538678E+05 -1.060203E+04  1.399686E+04
       345   3 -7.953941E+05 -1.931005E+05 -3.115750E+04 -3.438518E+05 -1.689452E+03  1.387820E+04
       345   4 -6.342360E+05 -1.418793E+05 -2.188616E+04 -2.964434E+05 -2.245462E+04  1.190160E+04
       345   5 -6.357354E+05 -1.338362E+05 -1.138331E+04 -2.945419E+05 -1.593227E+04  1.199368E+04
       345   6 -6.333373E+05 -1.355773E+05 -6.158085E+03 -2.988069E+05 -9.045319E+03  1.111457E+04
       345   7 -3.848063E+05 -4.853142E+04  2.015234E+04 -2.228100E+05 -2.576115E+04  1.065823E+04
       345   8 -4.301789E+05 -5.860022E+04  2.133210E+04 -2.351974E+05 -2.126437E+04  9.989763E+03
       345   9 -4.712500E+05 -7.805063E+04  1.884171E+04 -2.537503E+05 -1.640331E+04  8.350161E+03
       345  10 -8.836025E+05 -2.352209E+05 -6.392803E+04 -3.700491E+05  5.618941E-08  2.352051E-08
       345  11 -8.412465E+05 -2.090675E+05 -4.409996E+04 -3.538677E+05  9.846433E-09  5.915240E-09
       345  12 -7.953942E+05 -1.931007E+05 -3.115787E+04 -3.438518E+05 -5.187820E-08 -1.907814E-08
       345  13 -6.342366E+05 -1.418796E+05 -2.188737E+04 -2.964432E+05  3.094878E-09  2.069226E-09
       345  14 -6.357357E+05 -1.338364E+05 -1.138406E+04 -2.945418E+05  1.096740E-08  3.504345E-09
       345  15 -6.333374E+05 -1.355774E+05 -6.158470E+03 -2.988068E+05  5.089344E-09  3.848907E-09
       345  16 -3.848070E+05 -4.853172E+04  2.015088E+04 -2.228098E+05 -4.831437E-08 -1.938973E-08
       345  17 -4.301794E+05 -5.860045E+04  2.133106E+04 -2.351972E+05  1.105493E-08  6.555649E-09
       345  18 -4.712503E+05 -7.805078E+04  1.884107E+04 -2.537502E+05  6.013118E-08  2.806633E-08
       345  19 -8.836021E+05 -2.352206E+05 -6.392702E+04 -3.700494E+05  1.914946E+04 -1.314441E+04
       345  20 -8.412463E+05 -2.090672E+05 -4.409938E+04 -3.538678E+05  1.060203E+04 -1.399686E+04
       345  21 -7.953941E+05 -1.931005E+05 -3.115750E+04 -3.438518E+05  1.689452E+03 -1.387820E+04
       345  22 -6.342360E+05 -1.418793E+05 -2.188616E+04 -2.964434E+05  2.245462E+04 -1.190160E+04
       345  23 -6.357354E+05 -1.338362E+05 -1.138331E+04 -2.945419E+05  1.593227E+04 -1.199368E+04
       345  24 -6.333373E+05 -1.355773E+05 -6.158085E+03 -2.988069E+05  9.045319E+03 -1.111457E+04
       345  25 -3.848063E+05 -4.853142E+04  2.015234E+04 -2.228100E+05  2.576115E+04 -1.065823E+04
       345  26 -4.301789E+05 -5.860022E+04  2.133210E+04 -2.351974E+05  2.126437E+04 -9.989763E+03
       345  27 -4.712500E+05 -7.805063E+04  1.884171E+04 -2.537503E+05  1.640331E+04 -8.350161E+03
       346   1 -7.663805E+05 -1.830827E+05 -2.498426E+04 -3.361319E+05 -1.081770E+02  1.209506E+04
       346   2 -7.241213E+05 -1.635604E+05 -1.592029E+04 -3.200136E+05  2.708243E+03  9.086854E+03
       346   3 -6.760862E+05 -1.504429E+05 -8.037170E+03 -3.108309E+05  5.564905E+03  5.971055E+03
       346   4 -6.330017E+05 -1.354794E+05 -4.607094E+03 -2.987278E+05 -7.435156E+03  9.342527E+03
       346   5 -6.358858E+05 -1.321336E+05 -2.507598E+03 -2.953211E+05 -4.843283E+03  6.250237E+03
       346   6 -6.329516E+05 -1.351481E+05 -1.410831E+03 -2.988507E+05 -2.211292E+03  3.050327E+03
       346   7 -4.996036E+05 -8.787431E+04  1.577004E+04 -2.613160E+05 -1.476380E+04  6.589371E+03
       346   8 -5.476423E+05 -1.007062E+05  1.090507E+04 -2.706254E+05 -1.239590E+04  3.413214E+03
       346   9 -5.898154E+05 -1.198533E+05  5.215590E+03 -2.868699E+05 -9.987965E+03  1.294251E+02
       346  10 -7.663806E+05 -1.830828E+05 -2.498454E+04 -3.361319E+05 -1.318738E-09 -6.389095E-11
       346  11 -7.241213E+05 -1.635605E+05 -1.592046E+04 -3.200136E+05 -3.541225E-09 -1.434470E-10
       346  12 -6.760862E+05 -1.504430E+05 -8.037295E+03 -3.108309E+05 -3.727365E-09 -1.039254E-09
       346  13 -6.330018E+05 -1.354795E+05 -4.607362E+03 -2.987277E+05 -6.862136E-10  2.337709E-09
       346  14 -6.358858E+05 -1.321336E+05 -2.507716E+03 -2.953211E+05 -1.308994E-09  2.436280E-09
       346  15 -6.329516E+05 -1.351481E+05 -1.410857E+03 -2.988507E+05 -8.689586E-10  4.299951E-10
       346  16 -4.996039E+05 -8.787441E+04  1.576954E+04 -2.613159E+05  7.147051E-10  5.306655E-09
       346  17 -5.476425E+05 -1.007062E+05  1.090476E+04 -2.706254E+05  3.184616E-09  2.208825E-09
       346  18 -5.898155E+05 -1.198533E+05  5.215402E+03 -2.868699E+05  3.662628E-09  1.341179E-09
       346  19 -7.663805E+05 -1.830827E+05 -2.498426E+04 -3.361319E+05  1.081770E+02 -1.209506E+04
       346  20 -7.241213E+05 -1.635604E+05 -1.592029E+04 -3.200136E+05 -2.708243E+03 -9.086854E+03
       346  21 -6.760862E+05 -1.504429E+05 -8.037170E+03 -3.108309E+05 -5.564905E+03 -5.971055E+03
       346  22 -6.330017E+05 -1.354794E+05 -4.607094E+03 -2.987278E+05  7.435156E+03 -9.342527E+03
       346  23 -6.358858E+05 -1.321336E+05 -2.507598E+03 -2.953211E+05  4.843283E+03 -6.250237E+03
       346  24 -6.329516E+05 -1.351481E+05 -1.410831E+03 -2.988507E+05  2.211292E+03 -3.050327E+03
       346  25 -4.996036E+05 -8.787431E+04  1.577004E+04 -2.613160E+05  1.476380E+04 -6.589371E+03
       346  26 -5.476423E+05 -1.007062E+05  1.090507E+04 -2.706254E+05  1.239590E+04 -3.413214E+03
       346  27 -5.898154E+05 -1.198533E+05  5.215590E+03 -2.868699E+05  9.987965E+03 -1.294251E+02
       347   1 -6.476486E+05 -1.403223E+05 -3.237720E+03 -3.028970E+05  6.581912E+03  3.875364E+03
       347   2 -6.054893E+05 -1.211942E+05  3.873502E+03 -2.867397E+05  8.341212E+03  2.825173E+02
       347   3 -5.572952E+05 -1.081733E+05  1.071374E+04 -2.775478E+05  1.010421E+04 -3.319934E+03
       347   4 -6.329117E+05 -1.351516E+05 -1.085913E+03 -2.988346E+05 -1.191382E+03  9.557784E+02
       347   5 -6.359303E+05 -1.321033E+05 -6.799653E+02 -2.953501E+05  5.474651E+02 -2.644859E+03
       347   6 -6.329134E+05 -1.351589E+05 -5.293232E+02 -2.988322E+05  2.289980E+03 -6.255106E+03
       347   7 -6.181742E+05 -1.299808E+05  1.066203E+03 -2.947720E+05 -8.964966E+03 -1.963913E+03
       347   8 -6.663703E+05 -1.430123E+05 -5.233238E+03 -3.039601E+05 -7.245928E+03 -5.572101E+03
       347   9 -7.085252E+05 -1.621438E+05 -1.177220E+04 -3.201141E+05 -5.523250E+03 -9.189901E+03
       347  10 -6.476487E+05 -1.403224E+05 -3.237830E+03 -3.028971E+05 -4.532068E-09 -2.727690E-09
       347  11 -6.054894E+05 -1.211943E+05  3.873371E+03 -2.867397E+05 -3.468996E-08 -1.336773E-08
       347  12 -5.572953E+05 -1.081733E+05  1.071353E+04 -2.775478E+05 -6.733834E-08 -2.177860E-08
       347  13 -6.329117E+05 -1.351516E+05 -1.085917E+03 -2.988346E+05  5.928668E-10 -2.621213E-09
       347  14 -6.359303E+05 -1.321033E+05 -6.799790E+02 -2.953501E+05  2.197693E-09 -9.278694E-09
       347  15 -6.329134E+05 -1.351589E+05 -5.294065E+02 -2.988322E+05 -3.927753E-09 -1.747752E-08
       347  16 -6.181743E+05 -1.299808E+05  1.066045E+03 -2.947721E+05  5.405341E-09  3.293505E-09
       347  17 -6.663704E+05 -1.430123E+05 -5.233395E+03 -3.039601E+05  3.126022E-08  1.530713E-08
       347  18 -7.085253E+05 -1.621439E+05 -1.177242E+04 -3.201142E+05  4.851316E-08  2.256024E-08
       347  19 -6.476486E+05 -1.403223E+05 -3.237720E+03 -3.028970E+05 -6.581912E+03 -3.875364E+03
       347  20 -6.054893E+05 -1.211942E+05  3.873502E+03 -2.867397E+05 -8.341212E+03 -2.825173E+02
       347  21 -5.572952E+05 -1.081733E+05  1.071374E+04 -2.775478E+05 -1.010421E+04  3.319934E+03
       347  22 -6.329117E+05 -1.351516E+05 -1.085913E+03 -2.988346E+05  1.191382E+03 -9.557784E+02
       347  23 -6.359303E+05 -1.321033E+05 -6.799653E+02 -2.953501E+05 -5.474651E+02  2.644859E+03
       347  24 -6.329134E+05 -1.351589E+05 -5.293232E+02 -2.988322E+05 -2.289980E+03  6.255106E+03
       347  25 -6.181742E+05 -1.299808E+05  1.066203E+03 -2.947720E+05  8.964966E+03  1.963913E+03
       347  26 -6.663703E+05 -1.430123E+05 -5.233238E+03 -3.039601E+05  7.245928E+03  5.572101E+03
       347  27 -7.085252E+05 -1.621438E+05 -1.177220E+04 -3.201141E+05  5.523250E+03  9.189901E+03
       348   1 -5.289345E+05 -9.803155E+04  1.517572E+04 -2.696010E+05  1.101009E+04 -5.465930E+03
       348   2 -4.868012E+05 -7.891295E+04  2.172819E+04 -2.534468E+05  1.270726E+04 -9.088069E+03
       348   3 -4.386238E+05 -6.588754E+04  2.806019E+04 -2.442539E+05  1.439832E+04 -1.269293E+04
       348   4 -6.329154E+05 -1.351602E+05 -5.263687E+02 -2.988311E+05  3.196564E+03 -8.400989E+03
       348   5 -6.359354E+05 -1.321140E+05 -6.632178E+02 -2.953494E+05  4.929298E+03 -1.201020E+04
       348   6 -6.329204E+05 -1.351681E+05 -1.048776E+03 -2.988298E+05  6.655911E+03 -1.560217E+04
       348   7 -7.368830E+05 -1.722871E+05 -1.622798E+04 -3.280562E+05 -4.615489E+03 -1.133549E+04
       348   8 -7.850453E+05 -1.853126E+05 -2.305463E+04 -3.372425E+05 -2.846690E+03 -1.493160E+04
       348   9 -8.271783E+05 -2.044455E+05 -3.015859E+04 -3.533902E+05 -1.084027E+03 -1.851048E+04
       348  10 -5.289347E+05 -9.803161E+04  1.517543E+04 -2.696009E+05  4.495702E-08  2.247111E-08
       348  11 -4.868014E+05 -7.891308E+04  2.172773E+04 -2.534467E+05  2.967939E-08  1.591013E-08
       348  12 -4.386241E+05 -6.588777E+04  2.805950E+04 -2.442537E+05  6.142901E-09  4.555725E-09
       348  13 -6.329154E+05 -1.351603E+05 -5.265205E+02 -2.988310E+05 -5.364095E-09 -1.633450E-08
       348  14 -6.359354E+05 -1.321141E+05 -6.635344E+02 -2.953494E+05  3.575341E-09 -7.652401E-09
       348  15 -6.329205E+05 -1.351684E+05 -1.049316E+03 -2.988297E+05  2.114391E-09 -1.428745E-09
       348  16 -7.368831E+05 -1.722873E+05 -1.622826E+04 -3.280562E+05 -6.519539E-08 -2.061391E-08
       348  17 -7.850454E+05 -1.853128E+05 -2.305506E+04 -3.372426E+05 -3.210953E-08 -1.120338E-08
       348  18 -8.271784E+05 -2.044459E+05 -3.015923E+04 -3.533902E+05 -3.987530E-09 -1.544314E-09
       348  19 -5.289345E+05 -9.803155E+04  1.517572E+04 -2.696010E+05 -1.101009E+04  5.465930E+03
       348  20 -4.868012E+05 -7.891295E+04  2.172819E+04 -2.534468E+05 -1.270726E+04  9.088069E+03
       348  21 -4.386238E+05 -6.588754E+04  2.806019E+04 -2.442539E+05 -1.439832E+04  1.269293E+04
       348  22 -6.329154E+05 -1.351602E+05 -5.263687E+02 -2.988311E+05 -3.196564E+03  8.400989E+03
       348  23 -6.359354E+05 -1.321140E+05 -6.632178E+02 -2.953494E+05 -4.929298E+03  1.201020E+04
       348  24 -6.329204E+05 -1.351681E+05 -1.048776E+03 -2.988298E+05 -6.655911E+03  1.560217E+04
       348  25 -7.368830E+05 -1.722871E+05 -1.622798E+04 -3.280562E+05  4.615489E+03  1.133549E+04
       348  26 -7.850453E+05 -1.853126E+05 -2.305463E+04 -3.372425E+05  2.846690E+03  1.493160E+04
       348  27 -8.271783E+05 -2.044455E+05 -3.015859E+04 -3.533902E+05  1.084027E+03  1.851048E+04
       349   1 -4.102933E+05 -5.576485E+04  3.222748E+04 -2.363488E+05  1.541114E+04 -1.478155E+04
       349   2 -3.681980E+05 -3.663797E+04  3.800475E+04 -2.201252E+05  1.764934E+04 -1.808145E+04
       349   3 -3.202146E+05 -2.378399E+04  4.308106E+04 -2.108221E+05  1.982855E+04 -2.122250E+04
       349   4 -6.329632E+05 -1.351666E+05 -1.359567E+03 -2.988426E+05  7.666208E+03 -1.769211E+04
       349   5 -6.359021E+05 -1.321637E+05 -2.411556E+03 -2.953215E+05  1.023522E+04 -2.086850E+04
       349   6 -6.330207E+05 -1.354997E+05 -4.427123E+03 -2.987220E+05  1.274515E+04 -2.388601E+04
       349   7 -8.555792E+05 -2.145630E+05 -3.494695E+04 -3.613151E+05 -7.579042E+01 -2.060158E+04
       349   8 -9.035268E+05 -2.276810E+05 -4.282805E+04 -3.704867E+05  2.824521E+03 -2.365427E+04
       349   9 -9.457166E+05 -2.472035E+05 -5.193530E+04 -3.865791E+05  5.665607E+03 -2.654808E+04
       349  10 -4.102936E+05 -5.576515E+04  3.222663E+04 -2.363486E+05  3.854043E-09  1.985676E-09
       349  11 -3.681984E+05 -3.663840E+04  3.800355E+04 -2.201250E+05  3.023247E-09  1.269487E-09
       349  12 -3.202152E+05 -2.378458E+04  4.307947E+04 -2.108217E+05  2.060775E-09  1.009747E-09
       349  13 -6.329634E+05 -1.351670E+05 -1.360266E+03 -2.988424E+05 -1.405848E-09  6.092144E-10
       349  14 -6.359024E+05 -1.321642E+05 -2.412571E+03 -2.953213E+05 -2.163776E-09  1.281410E-09
       349  15 -6.330210E+05 -1.355004E+05 -4.428500E+03 -2.987218E+05 -2.599028E-10 -2.511097E-10
       349  16 -8.555793E+05 -2.145635E+05 -3.494775E+04 -3.613151E+05 -3.636923E-09 -7.986175E-10
       349  17 -9.035269E+05 -2.276816E+05 -4.282911E+04 -3.704866E+05 -3.977957E-09 -3.271004E-10
       349  18 -9.457168E+05 -2.472043E+05 -5.193668E+04 -3.865789E+05 -2.529696E-09  1.093921E-09
       349  19 -4.102933E+05 -5.576485E+04  3.222748E+04 -2.363488E+05 -1.541114E+04  1.478155E+04
       349  20 -3.681980E+05 -3.663797E+04  3.800475E+04 -2.201252E+05 -1.764934E+04  1.808145E+04
       349  21 -3.202146E+05 -2.378399E+04  4.308106E+04 -2.108221E+05 -1.982855E+04  2.122250E+04
       349  22 -6.329632E+05 -1.351666E+05 -1.359567E+03 -2.988426E+05 -7.666208E+03  1.769211E+04
       349  23 -6.359021E+05 -1.321637E+05 -2.411556E+03 -2.953215E+05 -1.023522E+04  2.086850E+04
       349  24 -6.330207E+05 -1.354997E+05 -4.427123E+03 -2.987220E+05 -1.274515E+04  2.388601E+04
       349  25 -8.555792E+05 -2.145630E+05 -3.494695E+04 -3.613151E+05  7.579042E+01  2.060158E+04
       349  26 -9.035268E+05 -2.276810E+05 -4.282805E+04 -3.704867E+05 -2.824521E+03  2.365427E+04
       349  27 -9.457166E+05 -2.472035E+05 -5.193530E+04 -3.865791E+05 -5.665607E+03  2.654808E+04
       350   1 -2.918937E+05 -1.393040E+04  4.628482E+04 -2.032326E+05  2.142960E+04 -2.294027E+04
       350   2 -2.509618E+05  5.516714E+03  4.945248E+04 -1.848739E+05  2.499465E+04 -2.467997E+04
       350   3 -2.054903E+05  1.596523E+04  4.990953E+04 -1.726545E+05  2.802563E+04 -2.499676E+04
       350   4 -6.333489E+05 -1.355889E+05 -5.915384E+03 -2.987874E+05  1.430485E+04 -2.561986E+04
       350   5 -6.357593E+05 -1.338262E+05 -1.093443E+04 -2.945808E+05  2.083882E+04 -2.624458E+04
       350   6 -6.342226E+05 -1.416533E+05 -2.102035E+04 -2.965154E+05  2.683834E+04 -2.544594E+04
       350   7 -9.746822E+05 -2.572367E+05 -5.811823E+04 -3.942938E+05  7.184152E+03 -2.829793E+04
       350   8 -1.020399E+06 -2.731535E+05 -7.132449E+04 -4.042240E+05  1.668568E+04 -2.780815E+04
       350   9 -1.062758E+06 -2.992509E+05 -9.195455E+04 -4.202952E+05  2.565192E+04 -2.589479E+04
       350  10 -2.918943E+05 -1.393108E+04  4.628297E+04 -2.032322E+05  1.925416E-09  1.042415E-09
       350  11 -2.509626E+05  5.515893E+03  4.945017E+04 -1.848734E+05  1.029922E-09  1.867706E-09
       350  12 -2.054913E+05  1.596435E+04  4.990688E+04 -1.726539E+05 -1.580686E-09  1.345362E-09
       350  13 -6.333493E+05 -1.355896E+05 -5.917002E+03 -2.987871E+05  1.222961E-10 -5.252204E-10
       350  14 -6.357599E+05 -1.338270E+05 -1.093654E+04 -2.945804E+05  5.371806E-10  6.327597E-10
       350  15 -6.342236E+05 -1.416542E+05 -2.102292E+04 -2.965148E+05  7.810457E-11  2.376193E-10
       350  16 -9.746825E+05 -2.572376E+05 -5.811983E+04 -3.942936E+05 -2.055221E-09  1.417243E-09
       350  17 -1.020400E+06 -2.731544E+05 -7.132646E+04 -4.042237E+05 -1.798545E-09  1.468361E-09
       350  18 -1.062759E+06 -2.992518E+05 -9.195705E+04 -4.202946E+05  2.073586E-10  9.401626E-11
       350  19 -2.918937E+05 -1.393040E+04  4.628482E+04 -2.032326E+05 -2.142960E+04  2.294027E+04
       350  20 -2.509618E+05  5.516714E+03  4.945248E+04 -1.848739E+05 -2.499465E+04  2.467997E+04
       350  21 -2.054903E+05  1.596523E+04  4.990953E+04 -1.726545E+05 -2.802563E+04  2.499676E+04
       350  22 -6.333489E+05 -1.355889E+05 -5.915384E+03 -2.987874E+05 -1.430485E+04  2.561986E+04
       350  23 -6.357593E+05 -1.338262E+05 -1.093443E+04 -2.945808E+05 -2.083882E+04  2.624458E+04
       350  24 -6.342226E+05 -1.416533E+05 -2.102035E+04 -2.965154E+05 -2.683834E+04  2.544594E+04
       350  25 -9.746822E+05 -2.572367E+05 -5.811823E+04 -3.942938E+05 -7.184152E+03  2.829793E+04
       350  26 -1.020399E+06 -2.731535E+05 -7.132449E+04 -4.042240E+05 -1.668568E+04  2.780815E+04
       350  27 -1.062758E+06 -2.992509E+05 -9.195455E+04 -4.202952E+05 -2.565192E+04  2.589479E+04
       351   1 -1.769788E+05  2.228707E+04  4.932173E+04 -1.680489E+05  3.193806E+04 -2.451752E+04
       351   2 -1.555183E+05  4.630673E+04  4.377012E+04 -1.168923E+05  3.108506E+04 -1.836300E+04
       351   3 -1.444366E+05  2.397291E+04  2.595875E+04 -6.063647E+04  2.539458E+04  6.468603E+02
       351   4 -6.375233E+05 -1.434317E+05 -2.829717E+04 -2.968711E+05  3.034553E+04 -2.511924E+04
       351   5 -6.357441E+05 -1.603870E+05 -5.442963E+04 -2.833345E+05  5.633897E+04 -8.868235E+03
       351   6 -6.496838E+05 -2.290449E+05 -1.141187E+05 -2.646981E+05  7.749176E+04  2.024249E+04
       351   7 -1.097841E+06 -3.091290E+05 -1.059213E+05 -4.256034E+05  2.875427E+04 -2.572049E+04
       351   8 -1.115716E+06 -3.670281E+05 -1.526349E+05 -4.496446E+05  8.157154E+04  6.152455E+02
       351   9 -1.154645E+06 -4.819689E+05 -2.542013E+05 -4.685802E+05  1.295410E+05  3.980659E+04
       351  10 -1.769801E+05  2.228615E+04  4.931869E+04 -1.680483E+05 -1.830779E-09  1.339468E-09
       351  11 -1.555195E+05  4.630611E+04  4.376767E+04 -1.168918E+05 -1.422774E-10 -6.909193E-10
       351  12 -1.444373E+05  2.397273E+04  2.595753E+04 -6.063648E+04  5.141766E-10  1.151234E-09
       351  13 -6.375244E+05 -1.434327E+05 -2.830009E+04 -2.968704E+05 -2.723195E-09  1.670948E-10
       351  14 -6.357476E+05 -1.603879E+05 -5.443575E+04 -2.833341E+05 -4.946800E-10  1.229982E-09
       351  15 -6.496904E+05 -2.290470E+05 -1.141307E+05 -2.646994E+05 -1.495879E-09  2.563322E-09
       351  16 -1.097842E+06 -3.091300E+05 -1.059241E+05 -4.256028E+05  1.492478E-09 -7.076438E-10
       351  17 -1.115723E+06 -3.670299E+05 -1.526474E+05 -4.496446E+05  6.115431E-10  1.975492E-09
       351  18 -1.154664E+06 -4.819751E+05 -2.542359E+05 -4.685844E+05 -7.151101E-10  8.307817E-11
       351  19 -1.769788E+05  2.228707E+04  4.932173E+04 -1.680489E+05 -3.193806E+04  2.451752E+04
       351  20 -1.555183E+05  4.630673E+04  4.377012E+04 -1.168923E+05 -3.108506E+04  1.836300E+04
       351  21 -1.444366E+05  2.397291E+04  2.595875E+04 -6.063647E+04 -2.539458E+04 -6.468603E+02
       351  22 -6.375233E+05 -1.434317E+05 -2.829717E+04 -2.968711E+05 -3.034553E+04  2.511924E+04
       351  23 -6.357441E+05 -1.603870E+05 -5.442963E+04 -2.833345E+05 -5.633897E+04  8.868235E+03
       351  24 -6.496838E+05 -2.290449E+05 -1.141187E+05 -2.646981E+05 -7.749176E+04 -2.024249E+04
       351  25 -1.097841E+06 -3.091290E+05 -1.059213E+05 -4.256034E+05 -2.875427E+04  2.572049E+04
       351  26 -1.115716E+06 -3.670281E+05 -1.526349E+05 -4.496446E+05 -8.157154E+04 -6.152455E+02
       351  27 -1.154645E+06 -4.819689E+05 -2.542013E+05 -4.685802E+05 -1.295410E+05 -3.980659E+04
       352   1 -3.312234E+05 -6.234598E+04 -1.009470E+05 -3.269902E+04 -1.178180E+05 -3.065475E+03
       352   2 -3.226850E+05  9.597100E+04 -6.159475E+03 -1.015982E+04 -7.868645E+04 -8.978893E+03
       352   3 -3.635273E+05  7.682137E+04  1.880726E+04  2.557167E+04 -3.956447E+04 -8.369399E+03
       352   4 -6.445755E+05 -1.404494E+05 -1.784337E+05  7.779014E+03 -1.219739E+05 -3.077728E+03
       352   5 -6.195935E+05  2.226967E+04 -7.778282E+04  1.099557E+03 -7.988944E+04 -8.982147E+03
       352   6 -6.445316E+05  6.960204E+03 -4.902962E+04  7.612796E+03 -3.781338E+04 -8.365965E+03
       352   7 -9.578347E+05 -2.185540E+05 -2.559268E+05  4.823656E+04 -1.261276E+05 -3.090527E+03
       352   8 -9.164210E+05 -5.143762E+04 -1.494124E+05  1.235350E+04 -8.109185E+04 -8.985446E+03
       352   9 -9.254628E+05 -6.290554E+04 -1.168720E+05 -1.033794E+04 -3.606308E+04 -8.362631E+03
       352  10 -3.312383E+05 -6.234972E+04 -1.009731E+05 -3.269931E+04  2.224041E-11  1.995448E-10
       352  11 -3.226917E+05  9.596925E+04 -6.171268E+03 -1.016039E+04  7.375104E-10 -8.998274E-10
       352  12 -3.635290E+05  7.682087E+04  1.880418E+04  2.557140E+04 -2.145514E-10 -1.466350E-09
       352  13 -6.445915E+05 -1.404534E+05 -1.784617E+05  7.778711E+03 -2.042695E-10  1.397172E-09
       352  14 -6.196004E+05  2.226787E+04 -7.779498E+04  1.098979E+03  3.285851E-10  6.985604E-11
       352  15 -6.445331E+05  6.959744E+03 -4.903244E+04  7.612541E+03  4.495247E-10  5.142122E-10
       352  16 -9.578518E+05 -2.185583E+05 -2.559567E+05  4.823625E+04 -4.909425E-10  7.127708E-10
       352  17 -9.164280E+05 -5.143948E+04 -1.494249E+05  1.235291E+04  1.740590E-09 -2.364005E-09
       352  18 -9.254643E+05 -6.290597E+04 -1.168746E+05 -1.033819E+04  7.690160E-10 -3.871237E-09
       352  19 -3.312234E+05 -6.234598E+04 -1.009470E+05 -3.269902E+04  1.178180E+05  3.065475E+03
       352  20 -3.226850E+05  9.597100E+04 -6.159475E+03 -1.015982E+04  7.868645E+04  8.978893E+03
       352  21 -3.635273E+05  7.682137E+04  1.880726E+04  2.557167E+04  3.956447E+04  8.369399E+03
       352  22 -6.445755E+05 -1.404494E+05 -1.784337E+05  7.779014E+03  1.219739E+05  3.077728E+03
       352  23 -6.195935E+05  2.226967E+04 -7.778282E+04  1.099557E+03  7.988944E+04  8.982147E+03
       352  24 -6.445316E+05  6.960204E+03 -4.902962E+04  7.612796E+03  3.781338E+04  8.365965E+03
       352  25 -9.578347E+05 -2.185540E+05 -2.559268E+05  4.823656E+04  1.261276E+05  3.090527E+03
       352  26 -9.164210E+05 -5.143762E+04 -1.494124E+05  1.235350E+04  8.109185E+04  8.985446E+03
       352  27 -9.254628E+05 -6.290554E+04 -1.168720E+05 -1.033794E+04  3.606308E+04  8.362631E+03
       353   1 -3.788458E+05  4.783246E+04  2.184878E+04  3.974741E+03 -3.005221E+04 -7.043129E+03
       353   2 -3.925775E+05  6.195013E+04  3.755087E+04  1.368596E+02 -1.991010E+04 -6.925753E+03
       353   3 -4.126219E+05  5.602699E+04  4.164183E+04  1.023423E+04 -9.769268E+03 -6.249565E+03
       353   4 -6.348583E+05 -1.577523E+04 -4.011051E+04  7.851181E+03 -3.012482E+04 -7.043634E+03
       353   5 -6.316745E+05  2.555592E+03 -2.021056E+04  8.699855E+02 -1.973190E+04 -6.925655E+03
       353   6 -6.348498E+05  7.976793E+02 -1.209943E+04  7.824421E+03 -9.339972E+03 -6.248870E+03
       353   7 -8.908109E+05 -7.938766E+04 -1.020745E+05  1.172599E+04 -3.019741E+04 -7.044139E+03
       353   8 -8.707193E+05 -5.684313E+04 -7.797609E+04  1.602806E+03 -1.955377E+04 -6.925556E+03
       353   9 -8.570325E+05 -5.443523E+04 -6.584423E+04  5.415457E+03 -8.910829E+03 -6.248179E+03
       353  10 -3.788468E+05  4.783216E+04  2.184699E+04  3.974570E+03  1.865607E-09 -3.258114E-09
       353  11 -3.925779E+05  6.194997E+04  3.755004E+04  1.367485E+02 -1.060352E-09  6.397230E-10
       353  12 -4.126220E+05  5.602693E+04  4.164158E+04  1.023418E+04 -2.467937E-09  2.984033E-09
       353  13 -6.348593E+05 -1.577553E+04 -4.011231E+04  7.851010E+03  1.077097E-09 -2.867527E-09
       353  14 -6.316750E+05  2.555436E+03 -2.021138E+04  8.698754E+02 -7.688658E-11 -1.153714E-09
       353  15 -6.348499E+05  7.976139E+02 -1.209966E+04  7.824374E+03  1.932855E-09 -6.314789E-10
       353  16 -8.908119E+05 -7.938796E+04 -1.020763E+05  1.172582E+04  1.588208E-10 -1.630851E-09
       353  17 -8.707197E+05 -5.684328E+04 -7.797690E+04  1.602696E+03  8.035458E-10 -1.019956E-09
       353  18 -8.570326E+05 -5.443530E+04 -6.584445E+04  5.415412E+03  2.523222E-09  1.200608E-09
       353  19 -3.788458E+05  4.783246E+04  2.184878E+04  3.974741E+03  3.005221E+04  7.043129E+03
       353  20 -3.925775E+05  6.195013E+04  3.755087E+04  1.368596E+02  1.991010E+04  6.925753E+03
       353  21 -4.126219E+05  5.602699E+04  4.164183E+04  1.023423E+04  9.769268E+03  6.249565E+03
       353  22 -6.348583E+05 -1.577523E+04 -4.011051E+04  7.851181E+03  3.012482E+04  7.043634E+03
       353  23 -6.316745E+05  2.555592E+03 -2.021056E+04  8.699855E+02  1.973190E+04  6.925655E+03
       353  24 -6.348498E+05  7.976793E+02 -1.209943E+04  7.824421E+03  9.339972E+03  6.248870E+03
       353  25 -8.908109E+05 -7.938766E+04 -1.020745E+05  1.172599E+04  3.019741E+04  7.044139E+03
       353  26 -8.707193E+05 -5.684313E+04 -7.797609E+04  1.602806E+03  1.955377E+04  6.925556E+03
       353  27 -8.570325E+05 -5.443523E+04 -6.584423E+04  5.415457E+03  8.910829E+03  6.248179E+03
       354   1 -4.375534E+05  4.698062E+04  3.782753E+04  7.879110E+03 -7.704090E+03 -5.775561E+03
       354   2 -4.546300E+05  4.465769E+04  3.796474E+04  9.428477E+02 -5.127526E+03 -5.137022E+03
       354   3 -4.726233E+05  4.013454E+04  3.586696E+04  8.476060E+03 -2.551416E+03 -4.442754E+03
       354   4 -6.336394E+05 -1.726539E+03 -9.512562E+03  7.954319E+03 -7.426513E+03 -5.775140E+03
       354   5 -6.331774E+05  2.981670E+02 -5.177030E+03  7.176009E+02 -4.825293E+03 -5.136492E+03
       354   6 -6.336370E+05  1.179649E+02 -3.094131E+03  7.950626E+03 -2.224455E+03 -4.442109E+03
       354   7 -8.296902E+05 -5.043651E+04 -5.685541E+04  8.029486E+03 -7.149024E+03 -5.774719E+03
       354   8 -8.116957E+05 -4.406369E+04 -4.832108E+04  4.924041E+02 -4.523146E+03 -5.135962E+03
       354   9 -7.946271E+05 -3.990051E+04 -4.205708E+04  7.425316E+03 -1.897578E+03 -4.441465E+03
       354  10 -4.375534E+05  4.698057E+04  3.782735E+04  7.879074E+03  3.700335E-10  4.363451E-09
       354  11 -4.546300E+05  4.465766E+04  3.796464E+04  9.428265E+02  3.408630E-09  2.397913E-09
       354  12 -4.726233E+05  4.013452E+04  3.586691E+04  8.476051E+03  6.363251E-09 -4.807347E-10
       354  13 -6.336395E+05 -1.726590E+03 -9.512729E+03  7.954284E+03  4.284266E-10 -1.174868E-09
       354  14 -6.331774E+05  2.981324E+02 -5.177123E+03  7.175810E+02  1.081644E-11  2.774337E-09
       354  15 -6.336370E+05  1.179424E+02 -3.094177E+03  7.950618E+03  1.557506E-09  6.297859E-09
       354  16 -8.296903E+05 -5.043656E+04 -5.685557E+04  8.029453E+03 -9.681821E-10  3.113520E-09
       354  17 -8.116957E+05 -4.406373E+04 -4.832117E+04  4.923854E+02 -4.434411E-09  3.845227E-09
       354  18 -7.946271E+05 -3.990053E+04 -4.205713E+04  7.425309E+03 -4.848530E-09  4.230123E-09
       354  19 -4.375534E+05  4.698062E+04  3.782753E+04  7.879110E+03  7.704090E+03  5.775561E+03
       354  20 -4.546300E+05  4.465769E+04  3.796474E+04  9.428477E+02  5.127526E+03  5.137022E+03
       354  21 -4.726233E+05  4.013454E+04  3.586696E+04  8.476060E+03  2.551416E+03  4.442754E+03
       354  22 -6.336394E+05 -1.726539E+03 -9.512562E+03  7.954319E+03  7.426513E+03  5.775140E+03
       354  23 -6.331774E+05  2.981670E+02 -5.177030E+03  7.176009E+02  4.825293E+03  5.136492E+03
       354  24 -6.336370E+05  1.179649E+02 -3.094131E+03  7.950626E+03  2.224455E+03  4.442109E+03
       354  25 -8.296902E+05 -5.043651E+04 -5.685541E+04  8.029486E+03  7.149024E+03  5.774719E+03
       354  26 -8.116957E+05 -4.406369E+04 -4.832108E+04  4.924041E+02  4.523146E+03  5.135962E+03
       354  27 -7.946271E+05 -3.990051E+04 -4.205708E+04  7.425316E+03  1.897578E+03  4.441465E+03
       355   1 -4.994597E+05  3.313339E+04  2.988808E+04  8.245378E+03 -2.043839E+03 -4.030232E+03
       355   2 -5.173492E+05  2.886920E+04  2.650231E+04  8.204125E+02 -1.287633E+03 -3.332770E+03
       355   3 -5.354552E+05  2.440203E+04  2.255882E+04  8.245013E+03 -5.316716E+02 -2.625160E+03
       355   4 -6.334785E+05 -1.537066E+02 -2.442537E+03  8.036562E+03 -1.728833E+03 -4.029578E+03
       355   5 -6.333690E+05  4.292406E+01 -1.532664E+03  6.114773E+02 -9.681538E+02 -3.332067E+03
       355   6 -6.334776E+05  3.570967E+01 -1.183760E+03  8.036131E+03 -2.076963E+02 -2.624406E+03
       355   7 -7.674808E+05 -3.344211E+04 -3.477444E+04  7.827782E+03 -1.413895E+03 -4.028925E+03
       355   8 -7.493766E+05 -2.878433E+04 -2.956860E+04  4.025741E+02 -6.487336E+02 -3.331364E+03
       355   9 -7.314911E+05 -2.433131E+04 -2.492703E+04  7.827278E+03  1.162280E+02 -2.623652E+03
       355  10 -4.994597E+05  3.313337E+04  2.988804E+04  8.245372E+03 -8.823766E-10 -4.042273E-11
       355  11 -5.173492E+05  2.886918E+04  2.650229E+04  8.204091E+02 -3.072358E-09  6.009944E-09
       355  12 -5.354552E+05  2.440202E+04  2.255881E+04  8.245012E+03 -5.375694E-11  5.518173E-09
       355  13 -6.334785E+05 -1.537248E+02 -2.442573E+03  8.036557E+03  1.051585E-09  2.396582E-09
       355  14 -6.333690E+05  4.291189E+01 -1.532687E+03  6.114747E+02 -1.991135E-09  3.104666E-09
       355  15 -6.334776E+05  3.570226E+01 -1.183773E+03  8.036131E+03  8.446182E-10  1.773336E-10
       355  16 -7.674808E+05 -3.344213E+04 -3.477447E+04  7.827777E+03  8.900261E-10  2.766649E-09
       355  17 -7.493766E+05 -2.878435E+04 -2.956863E+04  4.025723E+02  1.743671E-09 -2.732005E-09
       355  18 -7.314911E+05 -2.433132E+04 -2.492705E+04  7.827278E+03  9.710902E-11 -2.086421E-09
       355  19 -4.994597E+05  3.313339E+04  2.988808E+04  8.245378E+03  2.043839E+03  4.030232E+03
       355  20 -5.173492E+05  2.886920E+04  2.650231E+04  8.204125E+02  1.287633E+03  3.332770E+03
       355  21 -5.354552E+05  2.440203E+04  2.255882E+04  8.245013E+03  5.316716E+02  2.625160E+03
       355  22 -6.334785E+05 -1.537066E+02 -2.442537E+03  8.036562E+03  1.728833E+03  4.029578E+03
       355  23 -6.333690E+05  4.292406E+01 -1.532664E+03  6.114773E+02  9.681538E+02  3.332067E+03
       355  24 -6.334776E+05  3.570967E+01 -1.183760E+03  8.036131E+03  2.076963E+02  2.624406E+03
       355  25 -7.674808E+05 -3.344211E+04 -3.477444E+04  7.827782E+03  1.413895E+03  4.028925E+03
       355  26 -7.493766E+05 -2.878433E+04 -2.956860E+04  4.025741E+02  6.487336E+02  3.331364E+03
       355  27 -7.314911E+05 -2.433131E+04 -2.492703E+04  7.827278E+03 -1.162280E+02  2.623652E+03
       356   1 -5.630018E+05  1.752768E+04  1.582628E+04  8.192000E+03 -3.223921E+02 -2.210577E+03
       356   2 -5.811564E+05  1.301210E+04  1.128858E+04  6.435022E+02  3.359282E+02 -1.497524E+03
       356   3 -5.995241E+05  8.344208E+03  6.264894E+03  8.165688E+03  9.941498E+02 -7.832010E+02
       356   4 -6.334752E+05  2.863670E+01 -1.147747E+03  8.085285E+03  1.514622E+00 -2.209802E+03
       356   5 -6.333685E+05  3.897981E+01 -1.328461E+03  5.500700E+02  6.603597E+02 -1.496730E+03
       356   6 -6.334751E+05 -1.029905E+02 -1.995466E+03  8.085617E+03  1.319125E+03 -7.823869E+02
       356   7 -7.039440E+05 -1.747077E+04 -1.812213E+04  7.978580E+03  3.253847E+02 -2.209027E+03
       356   8 -6.855781E+05 -1.293434E+04 -1.394570E+04  4.566442E+02  9.847640E+02 -1.495936E+03
       356   9 -6.674250E+05 -8.550274E+03 -1.025591E+04  8.005549E+03  1.644083E+03 -7.815729E+02
       356  10 -5.630018E+05  1.752768E+04  1.582627E+04  8.191999E+03  2.526740E-09  1.214267E-09
       356  11 -5.811564E+05  1.301210E+04  1.128858E+04  6.435026E+02  1.502897E-09  1.101825E-09
       356  12 -5.995241E+05  8.344207E+03  6.264891E+03  8.165688E+03  1.770896E-09 -3.110510E-09
       356  13 -6.334752E+05  2.863146E+01 -1.147756E+03  8.085285E+03 -4.432055E-10  7.607598E-09
       356  14 -6.333685E+05  3.897729E+01 -1.328466E+03  5.500708E+02  3.123042E-09  1.821509E-09
       356  15 -6.334751E+05 -1.029916E+02 -1.995470E+03  8.085618E+03 -3.645535E-10 -3.981729E-09
       356  16 -7.039440E+05 -1.747078E+04 -1.812214E+04  7.978581E+03 -2.828668E-09  3.315746E-09
       356  17 -6.855781E+05 -1.293434E+04 -1.394571E+04  4.566454E+02 -5.205623E-09 -6.100284E-10
       356  18 -6.674250E+05 -8.550275E+03 -1.025591E+04  8.005550E+03 -2.974171E-10 -5.172512E-09
       356  19 -5.630018E+05  1.752768E+04  1.582628E+04  8.192000E+03  3.223921E+02  2.210577E+03
       356  20 -5.811564E+05  1.301210E+04  1.128858E+04  6.435022E+02 -3.359282E+02  1.497524E+03
       356  21 -5.995241E+05  8.344208E+03  6.264894E+03  8.165688E+03 -9.941498E+02  7.832010E+02
       356  22 -6.334752E+05  2.863670E+01 -1.147747E+03  8.085285E+03 -1.514622E+00  2.209802E+03
       356  23 -6.333685E+05  3.897981E+01 -1.328461E+03  5.500700E+02 -6.603597E+02  1.496730E+03
       356  24 -6.334751E+05 -1.029905E+02 -1.995466E+03  8.085617E+03 -1.319125E+03  7.823869E+02
       356  25 -7.039440E+05 -1.747077E+04 -1.812213E+04  7.978580E+03 -3.253847E+02  2.209027E+03
       356  26 -6.855781E+05 -1.293434E+04 -1.394570E+04  4.566442E+02 -9.847640E+02  1.495936E+03
       356  27 -6.674250E+05 -8.550274E+03 -1.025591E+04  8.005549E+03 -1.644083E+03  7.815729E+02
       357   1 -6.274485E+05  1.625140E+03 -1.063333E+03  7.904827E+03  1.389274E+03 -3.616981E+02
       357   2 -6.453770E+05 -2.780363E+03 -7.050679E+03  5.546698E+02  3.464957E+03  3.592695E+02
       357   3 -6.640995E+05 -8.902789E+03 -1.483977E+04  8.328689E+03  5.540655E+03  1.055735E+03
       357   4 -6.336034E+05  1.082657E+02 -2.494467E+03  8.096087E+03  1.720996E+03 -3.608614E+02
       357   5 -6.332077E+05  2.430992E+02 -4.110318E+03  5.358144E+02  3.785550E+03  3.600727E+02
       357   6 -6.336045E+05 -1.336994E+03 -7.520093E+03  8.099706E+03  5.850180E+03  1.056504E+03
       357   7 -6.397582E+05 -1.408611E+03 -3.925602E+03  8.287345E+03  2.052714E+03 -3.600246E+02
       357   8 -6.210384E+05  3.266551E+03 -1.169966E+03  5.169586E+02  4.106149E+03  3.608758E+02
       357   9 -6.031087E+05  6.228733E+03 -2.004848E+02  7.870712E+03  6.159720E+03  1.057273E+03
       357  10 -6.274485E+05  1.625139E+03 -1.063337E+03  7.904828E+03 -2.885039E-09  1.021871E-09
       357  11 -6.453770E+05 -2.780367E+03 -7.050702E+03  5.546688E+02 -1.125039E-09  1.073630E-09
       357  12 -6.640996E+05 -8.902799E+03 -1.483983E+04  8.328685E+03 -6.958250E-10  4.746484E-11
       357  13 -6.336034E+05  1.082648E+02 -2.494472E+03  8.096088E+03 -4.990186E-12 -1.908832E-09
       357  14 -6.332078E+05  2.430952E+02 -4.110345E+03  5.358134E+02 -1.487434E-09  7.695541E-10
       357  15 -6.336046E+05 -1.337005E+03 -7.520159E+03  8.099701E+03 -1.325198E-09  2.847206E-10
       357  16 -6.397582E+05 -1.408612E+03 -3.925610E+03  8.287346E+03  2.406754E-09 -1.925600E-09
       357  17 -6.210384E+05  3.266546E+03 -1.169998E+03  5.169574E+02  3.602860E-10 -7.253781E-09
       357  18 -6.031087E+05  6.228721E+03 -2.005583E+02  7.870706E+03 -1.363186E-09 -2.712545E-09
       357  19 -6.274485E+05  1.625140E+03 -1.063333E+03  7.904827E+03 -1.389274E+03  3.616981E+02
       357  20 -6.453770E+05 -2.780363E+03 -7.050679E+03  5.546698E+02 -3.464957E+03 -3.592695E+02
       357  21 -6.640995E+05 -8.902789E+03 -1.483977E+04  8.328689E+03 -5.540655E+03 -1.055735E+03
       357  22 -6.336034E+05  1.082657E+02 -2.494467E+03  8.096087E+03 -1.720996E+03  3.608614E+02
       357  23 -6.332077E+05  2.430992E+02 -4.110318E+03  5.358144E+02 -3.785550E+03 -3.600727E+02
       357  24 -6.336045E+05 -1.336994E+03 -7.520093E+03  8.099706E+03 -5.850180E+03 -1.056504E+03
       357  25 -6.397582E+05 -1.408611E+03 -3.925602E+03  8.287345E+03 -2.052714E+03  3.600246E+02
       357  26 -6.210384E+05  3.266551E+03 -1.169966E+03  5.169586E+02 -4.106149E+03 -3.608758E+02
       357  27 -6.031087E+05  6.228733E+03 -2.004848E+02  7.870712E+03 -6.159720E+03 -1.057273E+03
       358   1 -6.927877E+05 -1.383644E+04 -2.368162E+04  6.305742E+03  6.972486E+03  1.516664E+03
       358   2 -7.084237E+05 -1.695415E+04 -3.440331E+04  1.249312E+03  1.530122E+04  2.246156E+03
       358   3 -7.291889E+05 -3.591051E+04 -5.452919E+04  1.121931E+04  2.363034E+04  2.685203E+03
       358   4 -6.345630E+05  6.520747E+02 -9.557607E+03  8.065551E+03  7.362170E+03  1.517643E+03
       358   5 -6.320130E+05  2.027071E+03 -1.594289E+04  5.679979E+02  1.555945E+04  2.246746E+03
       358   6 -6.345693E+05 -1.241265E+04 -3.164011E+04  8.096867E+03  2.375738E+04  2.685355E+03
       358   7 -5.763352E+05  1.514035E+04  4.566169E+03  9.825523E+03  7.751891E+03  1.518624E+03
       358   8 -5.555971E+05  2.100787E+04  2.517105E+03 -1.134036E+02  1.581772E+04  2.247335E+03
       358   9 -5.399414E+05  1.108459E+04 -8.751672E+03  4.973936E+03  2.388443E+04  2.685505E+03
       358  10 -6.927878E+05 -1.383646E+04 -2.368172E+04  6.305733E+03  1.918740E-10  3.824135E-09
       358  11 -7.084239E+05 -1.695422E+04 -3.440376E+04  1.249284E+03 -1.721400E-09  2.274793E-09
       358  12 -7.291895E+05 -3.591066E+04 -5.453026E+04  1.121926E+04 -2.766822E-09  3.353685E-09
       358  13 -6.345631E+05  6.520576E+02 -9.557713E+03  8.065542E+03 -2.153807E-09  1.253258E-09
       358  14 -6.320133E+05  2.027000E+03 -1.594336E+04  5.679698E+02  1.192418E-09  1.612803E-09
       358  15 -6.345699E+05 -1.241281E+04 -3.164119E+04  8.096815E+03  7.896725E-10 -1.046518E-09
       358  16 -5.763353E+05  1.514034E+04  4.566052E+03  9.825514E+03 -2.065533E-09 -7.222106E-10
       358  17 -5.555974E+05  2.100780E+04  2.516625E+03 -1.134323E+02 -1.370374E-09 -3.118535E-09
       358  18 -5.399420E+05  1.108443E+04 -8.752758E+03  4.973884E+03  3.095152E-09 -3.564419E-09
       358  19 -6.927877E+05 -1.383644E+04 -2.368162E+04  6.305742E+03 -6.972486E+03 -1.516664E+03
       358  20 -7.084237E+05 -1.695415E+04 -3.440331E+04  1.249312E+03 -1.530122E+04 -2.246156E+03
       358  21 -7.291889E+05 -3.591051E+04 -5.452919E+04  1.121931E+04 -2.363034E+04 -2.685203E+03
       358  22 -6.345630E+05  6.520747E+02 -9.557607E+03  8.065551E+03 -7.362170E+03 -1.517643E+03
       358  23 -6.320130E+05  2.027071E+03 -1.594289E+04  5.679979E+02 -1.555945E+04 -2.246746E+03
       358  24 -6.345693E+05 -1.241265E+04 -3.164011E+04  8.096867E+03 -2.375738E+04 -2.685355E+03
       358  25 -5.763352E+05  1.514035E+04  4.566169E+03  9.825523E+03 -7.751891E+03 -1.518624E+03
       358  26 -5.555971E+05  2.100787E+04  2.517105E+03 -1.134036E+02 -1.581772E+04 -2.247335E+03
       358  27 -5.399414E+05  1.108459E+04 -8.751672E+03  4.973936E+03 -2.388443E+04 -2.685505E+03
       359   1 -7.641349E+05 -2.486077E+04 -6.814967E+04 -6.174100E+03  2.873548E+04  3.600455E+03
       359   2 -7.622510E+05 -1.709091E+04 -9.505760E+04  9.518479E+03  6.347288E+04  4.344609E+03
       359   3 -8.001306E+05 -1.499935E+05 -1.797794E+05  4.006459E+04  9.821755E+04  1.661978E+03
       359   4 -6.422019E+05  5.518392E+03 -3.867453E+04  7.956228E+03  2.982237E+04  3.603603E+03
       359   5 -6.224774E+05  1.757940E+04 -6.134348E+04  6.559204E+02  6.300414E+04  4.342563E+03
       359   6 -6.422374E+05 -1.107464E+05 -1.407358E+05  8.209975E+03  9.619426E+04  1.652501E+03
       359   7 -5.202549E+05  3.589720E+04 -9.200337E+03  2.208934E+04  3.090948E+04  3.606800E+03
       359   8 -4.826857E+05  5.224859E+04 -2.763072E+04 -8.208652E+03  6.253530E+04  4.340530E+03
       359   9 -4.843193E+05 -7.149732E+04 -1.016936E+05 -2.365277E+04  9.417046E+04  1.643233E+03
       359  10 -7.641358E+05 -2.486100E+04 -6.815125E+04 -6.174183E+03 -3.843895E-09  1.814167E-09
       359  11 -7.622553E+05 -1.709201E+04 -9.506521E+04  9.518256E+03 -1.158204E-09 -2.940094E-09
       359  12 -8.001410E+05 -1.499961E+05 -1.797975E+05  4.006446E+04  2.312676E-09 -1.375114E-09
       359  13 -6.422029E+05  5.518139E+03 -3.867622E+04  7.956141E+03 -4.532531E-10  6.654449E-09
       359  14 -6.224816E+05  1.757832E+04 -6.135098E+04  6.557000E+02  4.973400E-10 -4.651716E-09
       359  15 -6.422473E+05 -1.107489E+05 -1.407532E+05  8.209847E+03 -1.499893E-09  3.204522E-09
       359  16 -5.202560E+05  3.589693E+04 -9.202159E+03  2.208925E+04  1.940804E-09  2.954503E-09
       359  17 -4.826899E+05  5.224752E+04 -2.763811E+04 -8.208871E+03 -6.711673E-10 -5.523347E-11
       359  18 -4.843288E+05 -7.149970E+04 -1.017103E+05 -2.365289E+04 -2.013005E-09 -5.636374E-10
       359  19 -7.641349E+05 -2.486077E+04 -6.814967E+04 -6.174100E+03 -2.873548E+04 -3.600455E+03
       359  20 -7.622510E+05 -1.709091E+04 -9.505760E+04  9.518479E+03 -6.347288E+04 -4.344609E+03
       359  21 -8.001306E+05 -1.499935E+05 -1.797794E+05  4.006459E+04 -9.821755E+04 -1.661978E+03
       359  22 -6.422019E+05  5.518392E+03 -3.867453E+04  7.956228E+03 -2.982237E+04 -3.603603E+03
       359  23 -6.224774E+05  1.757940E+04 -6.134348E+04  6.559204E+02 -6.300414E+04 -4.342563E+03
       359  24 -6.422374E+05 -1.107464E+05 -1.407358E+05  8.209975E+03 -9.619426E+04 -1.652501E+03
       359  25 -5.202549E+05  3.589720E+04 -9.200337E+03  2.208934E+04 -3.090948E+04 -3.606800E+03
       359  26 -4.826857E+05  5.224859E+04 -2.763072E+04 -8.208652E+03 -6.253530E+04 -4.340530E+03
       359  27 -4.843193E+05 -7.149732E+04 -1.016936E+05 -2.365277E+04 -9.417046E+04 -1.643233E+03
       360   1  5.169188E+05  2.871153E+06  5.876665E+05 -1.970977E+05  8.548445E+03  2.307043E+05
       360   2  1.568097E+05  2.602107E+06  3.474422E+05 -5.160299E+04  2.401830E+04  1.367210E+05
       360   3  1.362155E+05  2.430141E+06  2.530988E+05 -8.687301E+04  1.603696E+04  4.272723E+04
       360   4  2.616304E+05  1.846134E+06  3.347128E+05 -1.192053E+05  8.595189E+03  2.181112E+05
       360   5 -4.222928E+04  1.798617E+06  1.542665E+05 -2.902291E+04  2.402827E+04  1.349778E+05
       360   6 -8.210847E+03  1.846413E+06  1.123538E+05 -1.195966E+05  1.601345E+04  5.179975E+04
       360   7  6.286345E+03  8.220791E+05  8.168526E+04 -4.144064E+04  8.638842E+03  2.055385E+05
       360   8 -2.413133E+05  9.957154E+05 -3.895472E+04 -6.471784E+03  2.403812E+04  1.332368E+05
       360   9 -1.526578E+05  1.262999E+06 -2.841469E+04 -1.522891E+05  1.598899E+04  6.086377E+04
       360  10  5.169045E+05  2.871096E+06  5.875668E+05 -1.970993E+05 -2.045340E-10  2.087199E-09
       360  11  1.568041E+05  2.602087E+06  3.474061E+05 -5.160563E+04 -1.701596E-11  3.858958E-09
       360  12  1.362147E+05  2.430139E+06  2.530949E+05 -8.687356E+04 -1.266066E-09  2.019505E-09
       360  13  2.616176E+05  1.846083E+06  3.346236E+05 -1.192068E+05  7.463083E-10  7.877400E-10
       360  14 -4.223477E+04  1.798597E+06  1.542313E+05 -2.902552E+04  2.614902E-09 -3.734469E-09
       360  15 -8.211840E+03  1.846410E+06  1.123482E+05 -1.195972E+05 -1.473855E-09  3.222077E-09
       360  16  6.274942E+03  8.220337E+05  8.160583E+04 -4.144207E+04  3.650694E-10 -1.248762E-09
       360  17 -2.413187E+05  9.956962E+05 -3.898911E+04 -6.474363E+03  2.091732E-09 -4.491030E-09
       360  18 -1.526590E+05  1.262995E+06 -2.842212E+04 -1.522899E+05  1.590351E-09 -4.267181E-09
       360  19  5.169188E+05  2.871153E+06  5.876665E+05 -1.970977E+05 -8.548445E+03 -2.307043E+05
       360  20  1.568097E+05  2.602107E+06  3.474422E+05 -5.160299E+04 -2.401830E+04 -1.367210E+05
       360  21  1.362155E+05  2.430141E+06  2.530988E+05 -8.687301E+04 -1.603696E+04 -4.272723E+04
       360  22  2.616304E+05  1.846134E+06  3.347128E+05 -1.192053E+05 -8.595189E+03 -2.181112E+05
       360  23 -4.222928E+04  1.798617E+06  1.542665E+05 -2.902291E+04 -2.402827E+04 -1.349778E+05
       360  24 -8.210847E+03  1.846413E+06  1.123538E+05 -1.195966E+05 -1.601345E+04 -5.179975E+04
       360  25  6.286345E+03  8.220791E+05  8.168526E+04 -4.144064E+04 -8.638842E+03 -2.055385E+05
       360  26 -2.413133E+05  9.957154E+05 -3.895472E+04 -6.471784E+03 -2.403812E+04 -1.332368E+05
       360  27 -1.526578E+05  1.262999E+06 -2.841469E+04 -1.522891E+05 -1.598899E+04 -6.086377E+04
       361   1  9.110984E+04  2.085269E+06  1.633847E+05 -1.321636E+05  7.428585E+03  3.020661E+04
       361   2 -1.407540E+03  1.855570E+06  9.385214E+04 -2.928262E+04  1.116287E+03 -1.353546E+04
       361   3 -7.640429E+03  1.652062E+06  7.407252E+04 -1.046291E+05 -5.317115E+03 -5.726363E+04
       361   4  2.806134E+04  1.831070E+06  1.021898E+05 -1.188804E+05  7.421848E+03  3.310920E+04
       361   5 -1.071411E+04  1.817997E+06  8.480013E+04 -2.975702E+04  1.108722E+03 -1.057019E+04
       361   6  3.678996E+04  1.831062E+06  1.171280E+05 -1.188570E+05 -5.323731E+03 -5.425068E+04
       361   7 -3.499122E+04  1.576931E+06  4.099043E+04 -1.056025E+05  7.415233E+03  3.601060E+04
       361   8 -2.002078E+04  1.780426E+06  7.574806E+04 -3.023140E+04  1.101152E+03 -7.605104E+03
       361   9  8.121876E+04  2.010092E+06  1.601813E+05 -1.330890E+05 -5.330484E+03 -5.123687E+04
       361  10  9.110953E+04  2.085268E+06  1.633829E+05 -1.321638E+05  1.304224E-10  1.781542E-10
       361  11 -1.407591E+03  1.855570E+06  9.385179E+04 -2.928261E+04 -2.928017E-10 -1.545109E-09
       361  12 -7.641336E+03  1.652058E+06  7.406632E+04 -1.046294E+05 -2.322628E-09 -2.089467E-09
       361  13  2.806098E+04  1.831069E+06  1.021877E+05 -1.188806E+05 -2.925665E-09  2.382672E-09
       361  14 -1.071414E+04  1.817997E+06  8.479992E+04 -2.975701E+04  6.860098E-10 -5.565172E-09
       361  15  3.678914E+04  1.831059E+06  1.171224E+05 -1.188573E+05  1.471854E-09  3.189349E-09
       361  16 -3.499162E+04  1.576929E+06  4.098790E+04 -1.056028E+05 -2.844363E-10  9.606476E-10
       361  17 -2.002080E+04  1.780426E+06  7.574794E+04 -3.023139E+04 -2.641628E-09  5.283920E-10
       361  18  8.121803E+04  2.010089E+06  1.601763E+05 -1.330893E+05 -6.869662E-10  1.690574E-10
       361  19  9.110984E+04  2.085269E+06  1.633847E+05 -1.321636E+05 -7.428585E+03 -3.020661E+04
       361  20 -1.407540E+03  1.855570E+06  9.385214E+04 -2.928262E+04 -1.116287E+03  1.353546E+04
       361  21 -7.640429E+03  1.652062E+06  7.407252E+04 -1.046291E+05  5.317115E+03  5.726363E+04
       361  22  2.806134E+04  1.831070E+06  1.021898E+05 -1.188804E+05 -7.421848E+03 -3.310920E+04
       361  23 -1.071411E+04  1.817997E+06  8.480013E+04 -2.975702E+04 -1.108722E+03  1.057019E+04
       361  24  3.678996E+04  1.831062E+06  1.171280E+05 -1.188570E+05  5.323731E+03  5.425068E+04
       361  25 -3.499122E+04  1.576931E+06  4.099043E+04 -1.056025E+05 -7.415233E+03 -3.601060E+04
       361  26 -2.002078E+04  1.780426E+06  7.574806E+04 -3.023140E+04 -1.101152E+03  7.605104E+03
       361  27  8.121876E+04  2.010092E+06  1.601813E+05 -1.330890E+05  5.330484E+03  5.123687E+04
       362   1 -1.384066E+05  1.344318E+06  1.090898E+04 -1.614232E+05 -1.366668E+04 -8.473028E+04
       362   2 -2.339495E+05  1.064882E+06  1.828192E+04 -5.663739E+02 -2.166266E+04 -1.788889E+05
       362   3  9.934377E+04  9.048616E+05  1.941187E+05 -1.983951E+04 -7.777148E+03 -2.729662E+05
       362   4 -1.276548E+04  1.852129E+06  1.334587E+05 -1.195067E+05 -1.369371E+04 -7.603430E+04
       362   5 -5.374338E+04  1.791497E+06  1.931334E+05 -2.917589E+04 -2.165027E+04 -1.803017E+05
       362   6  3.355705E+05  1.851793E+06  4.281162E+05 -1.189433E+05 -7.715307E+03 -2.845221E+05
       362   7  1.128636E+05  2.360180E+06  2.559912E+05 -7.755574E+04 -1.371956E+04 -6.733122E+04
       362   8  1.264273E+05  2.518595E+06  3.679476E+05 -5.781871E+04 -2.163777E+04 -1.817160E+05
       362   9  5.717670E+05  2.799557E+06  6.620529E+05 -2.181978E+05 -7.649858E+03 -2.960953E+05
       362  10 -1.384087E+05  1.344310E+06  1.089516E+04 -1.614242E+05 -5.978946E-10  9.123222E-10
       362  11 -2.339586E+05  1.064848E+06  1.822101E+04 -5.694940E+02  7.010662E-10  7.347854E-10
       362  12  9.932374E+04  9.047816E+05  1.939788E+05 -1.984122E+04 -7.782059E-12  7.069376E-10
       362  13 -1.276723E+04  1.852123E+06  1.334475E+05 -1.195076E+05 -6.312921E-10  3.170483E-09
       362  14 -5.375258E+04  1.791462E+06  1.930716E+05 -2.917903E+04  1.641801E-09 -4.282620E-09
       362  15  3.355488E+05  1.851706E+06  4.279644E+05 -1.189451E+05 -4.347892E-10  2.301872E-09
       362  16  1.128622E+05  2.360175E+06  2.559824E+05 -7.755649E+04  1.281141E-09  3.882210E-10
       362  17  1.264180E+05  2.518560E+06  3.678850E+05 -5.782188E+04 -9.005215E-10 -1.955925E-09
       362  18  5.717435E+05  2.799464E+06  6.618887E+05 -2.181996E+05 -1.245179E-09 -1.619514E-09
       362  19 -1.384066E+05  1.344318E+06  1.090898E+04 -1.614232E+05  1.366668E+04  8.473028E+04
       362  20 -2.339495E+05  1.064882E+06  1.828192E+04 -5.663739E+02  2.166266E+04  1.788889E+05
       362  21  9.934377E+04  9.048616E+05  1.941187E+05 -1.983951E+04  7.777148E+03  2.729662E+05
       362  22 -1.276548E+04  1.852129E+06  1.334587E+05 -1.195067E+05  1.369371E+04  7.603430E+04
       362  23 -5.374338E+04  1.791497E+06  1.931334E+05 -2.917589E+04  2.165027E+04  1.803017E+05
       362  24  3.355705E+05  1.851793E+06  4.281162E+05 -1.189433E+05  7.715307E+03  2.845221E+05
       362  25  1.128636E+05  2.360180E+06  2.559912E+05 -7.755574E+04  1.371956E+04  6.733122E+04
       362  26  1.264273E+05  2.518595E+06  3.679476E+05 -5.781871E+04  2.163777E+04  1.817160E+05
       362  27  5.717670E+05  2.799557E+06  6.620529E+05 -2.181978E+05  7.649858E+03  2.960953E+05
       363   1 -1.406857E+05 -6.765997E+04 -7.251029E+04 -4.122412E+04 -6.335882E+04 -2.434056E+04
       363   2 -1.196556E+05  2.015573E+04 -1.347186E+04 -6.488421E+04 -4.050256E+04 -1.671786E+04
       363   3 -1.422016E+05  9.772177E+03  1.141250E+03 -5.908753E+04 -1.804344E+04 -8.041061E+03
       363   4 -2.482801E+05 -1.006976E+05 -1.005932E+05 -6.270313E+04 -6.356783E+04 -2.442018E+04
       363   5 -2.214899E+05 -1.640180E+04 -4.101095E+04 -9.066496E+04 -4.054970E+04 -1.673579E+04
       363   6 -2.383140E+05 -3.034714E+04 -2.598825E+04 -8.916823E+04 -1.792847E+04 -7.997627E+03
       363   7 -3.558632E+05 -1.337352E+05 -1.286769E+05 -8.417916E+04 -6.377680E+04 -2.449979E+04
       363   8 -3.233140E+05 -5.295891E+04 -6.855092E+04 -1.164420E+05 -4.059684E+04 -1.675371E+04
       363   9 -3.344175E+05 -7.046535E+04 -5.311863E+04 -1.192445E+05 -1.781352E+04 -7.954201E+03
       363  10 -1.406901E+05 -6.766168E+04 -7.251895E+04 -4.122536E+04 -4.822078E-10  1.180845E-09
       363  11 -1.196574E+05  2.015499E+04 -1.347546E+04 -6.488475E+04  6.133192E-10 -1.171688E-09
       363  12 -1.422020E+05  9.772020E+03  1.140517E+03 -5.908765E+04 -1.576781E-11 -2.547395E-09
       363  13 -2.482846E+05 -1.006993E+05 -1.006019E+05 -6.270438E+04 -7.913800E-10  2.181755E-09
       363  14 -2.214917E+05 -1.640254E+04 -4.101457E+04 -9.066551E+04 -2.317160E-09 -1.763946E-09
       363  15 -2.383144E+05 -3.034729E+04 -2.598898E+04 -8.916834E+04 -8.206523E-10 -1.851934E-10
       363  16 -3.558677E+05 -1.337369E+05 -1.286857E+05 -8.418042E+04  1.759771E-09 -5.373830E-10
       363  17 -3.233159E+05 -5.295966E+04 -6.855455E+04 -1.164425E+05  2.119203E-10 -1.986354E-09
       363  18 -3.344179E+05 -7.046550E+04 -5.311934E+04 -1.192446E+05 -1.378148E-09  1.645934E-09
       363  19 -1.406857E+05 -6.765997E+04 -7.251029E+04 -4.122412E+04  6.335882E+04  2.434056E+04
       363  20 -1.196556E+05  2.015573E+04 -1.347186E+04 -6.488421E+04  4.050256E+04  1.671786E+04
       363  21 -1.422016E+05  9.772177E+03  1.141250E+03 -5.908753E+04  1.804344E+04  8.041061E+03
       363  22 -2.482801E+05 -1.006976E+05 -1.005932E+05 -6.270313E+04  6.356783E+04  2.442018E+04
       363  23 -2.214899E+05 -1.640180E+04 -4.101095E+04 -9.066496E+04  4.054970E+04  1.673579E+04
       363  24 -2.383140E+05 -3.034714E+04 -2.598825E+04 -8.916823E+04  1.792847E+04  7.997627E+03
       363  25 -3.558632E+05 -1.337352E+05 -1.286769E+05 -8.417916E+04  6.377680E+04  2.449979E+04
       363  26 -3.233140E+05 -5.295891E+04 -6.855092E+04 -1.164420E+05  4.059684E+04  1.675371E+04
       363  27 -3.344175E+05 -7.046535E+04 -5.311863E+04 -1.192445E+05  1.781352E+04  7.954201E+03
       364   1 -1.503571E+05 -1.106261E+04  1.630020E+03 -6.036378E+04 -1.403077E+04 -6.299566E+03
       364   2 -1.473182E+05  5.303622E+01  1.288748E+04 -6.603561E+04 -8.899513E+03 -4.439114E+03
       364   3 -1.539414E+05 -7.038694E+02  1.619455E+04 -6.399111E+04 -3.835162E+03 -2.400996E+03
       364   4 -2.351480E+05 -4.203866E+04 -2.142846E+04 -8.237504E+04 -1.405332E+04 -6.308107E+03
       364   5 -2.295623E+05 -3.081050E+04 -9.631926E+03 -8.822596E+04 -8.894815E+03 -4.437358E+03
       364   6 -2.336448E+05 -3.146156E+04 -5.808220E+03 -8.636035E+04 -3.803194E+03 -2.388941E+03
       364   7 -3.199320E+05 -7.301444E+04 -4.448761E+04 -1.043837E+05 -1.407587E+04 -6.316647E+03
       364   8 -3.117999E+05 -6.167370E+04 -3.215196E+04 -1.104137E+05 -8.890118E+03 -4.435602E+03
       364   9 -3.133421E+05 -6.221883E+04 -2.781158E+04 -1.087270E+05 -3.771230E+03 -2.376887E+03
       364  10 -1.503573E+05 -1.106270E+04  1.629575E+03 -6.036385E+04 -1.897108E-09 -2.679913E-09
       364  11 -1.473183E+05  5.299379E+01  1.288730E+04 -6.603564E+04  1.061561E-09 -8.593744E-10
       364  12 -1.539414E+05 -7.038796E+02  1.619451E+04 -6.399112E+04  6.089226E-10  9.208777E-10
       364  13 -2.351482E+05 -4.203875E+04 -2.142891E+04 -8.237511E+04 -1.269116E-09  2.244880E-09
       364  14 -2.295624E+05 -3.081055E+04 -9.632112E+03 -8.822599E+04 -1.052637E-09 -3.722301E-09
       364  15 -2.336448E+05 -3.146157E+04 -5.808258E+03 -8.636035E+04 -1.971160E-09 -2.209884E-09
       364  16 -3.199323E+05 -7.301454E+04 -4.448805E+04 -1.043837E+05  1.567229E-10  4.315170E-09
       364  17 -3.118000E+05 -6.167375E+04 -3.215214E+04 -1.104137E+05 -1.043692E-09  3.967468E-09
       364  18 -3.133421E+05 -6.221884E+04 -2.781162E+04 -1.087270E+05 -1.540040E-10  1.284315E-09
       364  19 -1.503571E+05 -1.106261E+04  1.630020E+03 -6.036378E+04  1.403077E+04  6.299566E+03
       364  20 -1.473182E+05  5.303622E+01  1.288748E+04 -6.603561E+04  8.899513E+03  4.439114E+03
       364  21 -1.539414E+05 -7.038694E+02  1.619455E+04 -6.399111E+04  3.835162E+03  2.400996E+03
       364  22 -2.351480E+05 -4.203866E+04 -2.142846E+04 -8.237504E+04  1.405332E+04  6.308107E+03
       364  23 -2.295623E+05 -3.081050E+04 -9.631926E+03 -8.822596E+04  8.894815E+03  4.437358E+03
       364  24 -2.336448E+05 -3.146156E+04 -5.808220E+03 -8.636035E+04  3.803194E+03  2.388941E+03
       364  25 -3.199320E+05 -7.301444E+04 -4.448761E+04 -1.043837E+05  1.407587E+04  6.316647E+03
       364  26 -3.117999E+05 -6.167370E+04 -3.215196E+04 -1.104137E+05  8.890118E+03  4.435602E+03
       364  27 -3.133421E+05 -6.221883E+04 -2.781158E+04 -1.087270E+05  3.771230E+03  2.376887E+03
       365   1 -1.703836E+05 -9.482807E+03  1.256840E+04 -6.822133E+04 -2.971759E+03 -1.984982E+03
       365   2 -1.701629E+05 -1.018674E+04  1.438340E+04 -7.146673E+04 -1.842072E+03 -1.479017E+03
       365   3 -1.747227E+05 -9.366504E+03  1.472230E+04 -6.980566E+04 -7.267506E+02 -9.350763E+02
       365   4 -2.332176E+05 -3.312161E+04 -4.644824E+03 -8.523590E+04 -2.963523E+03 -1.981882E+03
       365   5 -2.307138E+05 -3.309031E+04 -2.233899E+03 -8.798833E+04 -1.827979E+03 -1.473703E+03
       365   6 -2.329918E+05 -3.153607E+04 -1.303831E+03 -8.583418E+04 -7.067942E+02 -9.275447E+02
       365   7 -2.960477E+05 -5.676018E+04 -2.185839E+04 -1.022489E+05 -2.955289E+03 -1.978782E+03
       365   8 -2.912613E+05 -5.599367E+04 -1.885153E+04 -1.045085E+05 -1.813887E+03 -1.468389E+03
       365   9 -2.912578E+05 -5.370545E+04 -1.733029E+04 -1.018614E+05 -6.868399E+02 -9.200138E+02
       365  10 -1.703836E+05 -9.482814E+03  1.256837E+04 -6.822134E+04 -1.466771E-09  7.543013E-10
       365  11 -1.701629E+05 -1.018675E+04  1.438339E+04 -7.146673E+04  1.399963E-09  7.242104E-09
       365  12 -1.747227E+05 -9.366505E+03  1.472230E+04 -6.980566E+04  6.512787E-10 -6.114675E-11
       365  13 -2.332176E+05 -3.312162E+04 -4.644848E+03 -8.523591E+04  2.246259E-09  2.687705E-10
       365  14 -2.307139E+05 -3.309031E+04 -2.233909E+03 -8.798833E+04  3.644026E-09  1.912081E-09
       365  15 -2.329918E+05 -3.153607E+04 -1.303834E+03 -8.583418E+04 -3.044021E-10  4.573866E-09
       365  16 -2.960478E+05 -5.676018E+04 -2.185841E+04 -1.022489E+05  3.180407E-09  8.449352E-10
       365  17 -2.912613E+05 -5.599367E+04 -1.885154E+04 -1.045085E+05  9.009295E-10 -1.585692E-09
       365  18 -2.912578E+05 -5.370545E+04 -1.733029E+04 -1.018614E+05 -4.074508E-10  4.140119E-09
       365  19 -1.703836E+05 -9.482807E+03  1.256840E+04 -6.822133E+04  2.971759E+03  1.984982E+03
       365  20 -1.701629E+05 -1.018674E+04  1.438340E+04 -7.146673E+04  1.842072E+03  1.479017E+03
       365  21 -1.747227E+05 -9.366504E+03  1.472230E+04 -6.980566E+04  7.267506E+02  9.350763E+02
       365  22 -2.332176E+05 -3.312161E+04 -4.644824E+03 -8.523590E+04  2.963523E+03  1.981882E+03
       365  23 -2.307138E+05 -3.309031E+04 -2.233899E+03 -8.798833E+04  1.827979E+03  1.473703E+03
       365  24 -2.329918E+05 -3.153607E+04 -1.303831E+03 -8.583418E+04  7.067942E+02  9.275447E+02
       365  25 -2.960477E+05 -5.676018E+04 -2.185839E+04 -1.022489E+05  2.955289E+03  1.978782E+03
       365  26 -2.912613E+05 -5.599367E+04 -1.885153E+04 -1.045085E+05  1.813887E+03  1.468389E+03
       365  27 -2.912578E+05 -5.370545E+04 -1.733029E+04 -1.018614E+05  6.868399E+02  9.200138E+02
       366   1 -1.939084E+05 -1.694413E+04  9.693032E+03 -7.493458E+04 -5.528905E+02 -7.950954E+02
       366   2 -1.941370E+05 -1.960109E+04  9.554750E+03 -7.799777E+04 -3.269928E+02 -5.966277E+02
       366   3 -1.986459E+05 -1.847347E+04  9.129437E+03 -7.629041E+04 -1.054742E+02 -3.866332E+02
       366   4 -2.329787E+05 -3.172771E+04 -1.022461E+03 -8.560213E+04 -5.381899E+02 -7.895458E+02
       366   5 -2.308216E+05 -3.350161E+04 -5.179796E+02 -8.803208E+04 -3.104950E+02 -5.903973E+02
       366   6 -2.329452E+05 -3.149131E+04 -3.019736E+02 -8.569148E+04 -8.717850E+01 -3.797214E+02
       366   7 -2.720476E+05 -4.651119E+04 -1.173809E+04 -9.626908E+04 -5.234902E+02 -7.839966E+02
       366   8 -2.675049E+05 -4.740204E+04 -1.059083E+04 -9.806586E+04 -2.939983E+02 -5.841674E+02
       366   9 -2.672433E+05 -4.450907E+04 -9.733483E+03 -9.509209E+04 -6.888389E+01 -3.728100E+02
       366  10 -1.939084E+05 -1.694413E+04  9.693030E+03 -7.493458E+04  3.031228E-10  1.442179E-09
       366  11 -1.941370E+05 -1.960109E+04  9.554749E+03 -7.799777E+04 -4.230737E-09 -2.093272E-10
       366  12 -1.986459E+05 -1.847347E+04  9.129437E+03 -7.629041E+04 -1.441426E-09 -2.241031E-09
       366  13 -2.329787E+05 -3.172771E+04 -1.022463E+03 -8.560213E+04 -2.744580E-09  4.420425E-09
       366  14 -2.308216E+05 -3.350161E+04 -5.179805E+02 -8.803208E+04 -1.254066E-09  5.567875E-09
       366  15 -2.329452E+05 -3.149131E+04 -3.019739E+02 -8.569148E+04 -3.337857E-09 -6.492931E-10
       366  16 -2.720476E+05 -4.651119E+04 -1.173809E+04 -9.626908E+04  5.379634E-10  4.260426E-09
       366  17 -2.675049E+05 -4.740204E+04 -1.059083E+04 -9.806586E+04 -6.735623E-10  2.175631E-09
       366  18 -2.672433E+05 -4.450907E+04 -9.733484E+03 -9.509209E+04 -2.925163E-10 -2.548239E-09
       366  19 -1.939084E+05 -1.694413E+04  9.693032E+03 -7.493458E+04  5.528905E+02  7.950954E+02
       366  20 -1.941370E+05 -1.960109E+04  9.554750E+03 -7.799777E+04  3.269928E+02  5.966277E+02
       366  21 -1.986459E+05 -1.847347E+04  9.129437E+03 -7.629041E+04  1.054742E+02  3.866332E+02
       366  22 -2.329787E+05 -3.172771E+04 -1.022461E+03 -8.560213E+04  5.381899E+02  7.895458E+02
       366  23 -2.308216E+05 -3.350161E+04 -5.179796E+02 -8.803208E+04  3.104950E+02  5.903973E+02
       366  24 -2.329452E+05 -3.149131E+04 -3.019736E+02 -8.569148E+04  8.717850E+01  3.797214E+02
       366  25 -2.720476E+05 -4.651119E+04 -1.173809E+04 -9.626908E+04  5.234902E+02  7.839966E+02
       366  26 -2.675049E+05 -4.740204E+04 -1.059083E+04 -9.806586E+04  2.939983E+02  5.841674E+02
       366  27 -2.672433E+05 -4.450907E+04 -9.733483E+03 -9.509209E+04  6.888389E+01  3.728100E+02
       367   1 -2.190675E+05 -2.622935E+04  3.568821E+03 -8.182801E+04 -8.432132E+01 -3.033309E+02
       367   2 -2.193681E+05 -2.925493E+04  3.002619E+03 -8.494241E+04 -5.522259E+01 -1.678856E+02
       367   3 -2.239887E+05 -2.806094E+04  2.366194E+03 -8.318022E+04 -2.635685E+01 -3.183811E+01
       367   4 -2.329678E+05 -3.149424E+04 -2.384253E+02 -8.563010E+04 -6.724143E+01 -2.968770E+02
       367   5 -2.308060E+05 -3.359125E+04 -1.385086E+02 -8.807325E+04 -3.804937E+01 -1.613957E+02
       367   6 -2.329642E+05 -3.146868E+04 -1.088767E+02 -8.563979E+04 -9.090025E+00 -2.531215E+01
       367   7 -2.468679E+05 -3.675912E+04 -4.045693E+03 -8.943213E+04 -5.016195E+01 -2.904233E+02
       367   8 -2.422438E+05 -3.792756E+04 -3.279650E+03 -9.120404E+04 -2.087649E+01 -1.549060E+02
       367   9 -2.419396E+05 -3.487642E+04 -2.583955E+03 -8.809933E+04  8.176529E+00 -1.878630E+01
       367  10 -2.190675E+05 -2.622935E+04  3.568821E+03 -8.182801E+04 -2.958523E-09 -2.542932E-09
       367  11 -2.193681E+05 -2.925493E+04  3.002619E+03 -8.494241E+04 -2.308853E-09  2.278564E-09
       367  12 -2.239887E+05 -2.806094E+04  2.366194E+03 -8.318022E+04  1.150891E-09 -5.680702E-09
       367  13 -2.329678E+05 -3.149424E+04 -2.384255E+02 -8.563010E+04 -9.106624E-10 -4.181998E-09
       367  14 -2.308060E+05 -3.359125E+04 -1.385087E+02 -8.807325E+04 -3.409307E-09  4.723258E-11
       367  15 -2.329642E+05 -3.146868E+04 -1.088767E+02 -8.563979E+04 -1.151706E-09  4.017960E-10
       367  16 -2.468679E+05 -3.675912E+04 -4.045693E+03 -8.943213E+04  4.817368E-10  1.820805E-09
       367  17 -2.422438E+05 -3.792756E+04 -3.279650E+03 -9.120404E+04 -1.538729E-09  2.714315E-09
       367  18 -2.419396E+05 -3.487642E+04 -2.583955E+03 -8.809933E+04 -1.079337E-09 -6.721884E-10
       367  19 -2.190675E+05 -2.622935E+04  3.568821E+03 -8.182801E+04  8.432132E+01  3.033309E+02
       367  20 -2.193681E+05 -2.925493E+04  3.002619E+03 -8.494241E+04  5.522259E+01  1.678856E+02
       367  21 -2.239887E+05 -2.806094E+04  2.366194E+03 -8.318022E+04  2.635685E+01  3.183811E+01
       367  22 -2.329678E+05 -3.149424E+04 -2.384253E+02 -8.563010E+04  6.724143E+01  2.968770E+02
       367  23 -2.308060E+05 -3.359125E+04 -1.385086E+02 -8.807325E+04  3.804937E+01  1.613957E+02
       367  24 -2.329642E+05 -3.146868E+04 -1.088767E+02 -8.563979E+04  9.090025E+00  2.531215E+01
       367  25 -2.468679E+05 -3.675912E+04 -4.045693E+03 -8.943213E+04  5.016195E+01  2.904233E+02
       367  26 -2.422438E+05 -3.792756E+04 -3.279650E+03 -9.120404E+04  2.087649E+01  1.549060E+02
       367  27 -2.419396E+05 -3.487642E+04 -2.583955E+03 -8.809933E+04 -8.176529E+00  1.878630E+01
       368   1 -2.447543E+05 -3.594198E+04 -3.353914E+03 -8.887697E+04 -3.673364E+01  4.278440E+01
       368   2 -2.450568E+05 -3.898291E+04 -4.033229E+03 -9.197048E+04 -1.440261E+01  1.810226E+02
       368   3 -2.496798E+05 -3.785415E+04 -4.789252E+03 -9.018815E+04  1.538374E+01  2.995608E+02
       368   4 -2.329621E+05 -3.146530E+04 -1.049333E+02 -8.564538E+04 -1.732475E+01  5.011983E+01
       368   5 -2.308067E+05 -3.358192E+04 -1.203716E+02 -8.807139E+04  1.909557E+00  1.871868E+02
       368   6 -2.329710E+05 -3.152825E+04 -2.100574E+02 -8.562157E+04  2.859941E+01  3.045542E+02
       368   7 -2.211698E+05 -2.698862E+04  3.144032E+03 -8.241375E+04  2.084522E+00  5.745541E+01
       368   8 -2.165564E+05 -2.818092E+04  3.792467E+03 -8.417222E+04  1.822214E+01  1.933511E+02
       368   9 -2.162620E+05 -2.520233E+04  4.369116E+03 -8.105487E+04  4.181548E+01  3.095476E+02
       368  10 -2.447543E+05 -3.594198E+04 -3.353914E+03 -8.887697E+04  9.544539E-10  1.320249E-09
       368  11 -2.450568E+05 -3.898291E+04 -4.033229E+03 -9.197048E+04  2.731004E-10  4.058657E-09
       368  12 -2.496798E+05 -3.785415E+04 -4.789252E+03 -9.018815E+04  1.403085E-09 -3.524774E-09
       368  13 -2.329621E+05 -3.146530E+04 -1.049333E+02 -8.564538E+04 -2.598276E-09 -1.065609E-09
       368  14 -2.308067E+05 -3.358192E+04 -1.203717E+02 -8.807139E+04 -2.588460E-09 -9.647043E-10
       368  15 -2.329710E+05 -3.152825E+04 -2.100575E+02 -8.562157E+04 -3.304303E-10 -3.367320E-09
       368  16 -2.211698E+05 -2.698862E+04  3.144032E+03 -8.241375E+04 -1.770338E-09 -3.818219E-09
       368  17 -2.165564E+05 -2.818092E+04  3.792467E+03 -8.417222E+04 -1.641586E-09 -4.826471E-09
       368  18 -2.162620E+05 -2.520233E+04  4.369116E+03 -8.105487E+04  5.184916E-10 -2.326658E-09
       368  19 -2.447543E+05 -3.594198E+04 -3.353914E+03 -8.887697E+04  3.673364E+01 -4.278440E+01
       368  20 -2.450568E+05 -3.898291E+04 -4.033229E+03 -9.197048E+04  1.440261E+01 -1.810226E+02
       368  21 -2.496798E+05 -3.785415E+04 -4.789252E+03 -9.018815E+04 -1.538374E+01 -2.995608E+02
       368  22 -2.329621E+05 -3.146530E+04 -1.049333E+02 -8.564538E+04  1.732475E+01 -5.011983E+01
       368  23 -2.308067E+05 -3.358192E+04 -1.203716E+02 -8.807139E+04 -1.909557E+00 -1.871868E+02
       368  24 -2.329710E+05 -3.152825E+04 -2.100574E+02 -8.562157E+04 -2.859941E+01 -3.045542E+02
       368  25 -2.211698E+05 -2.698862E+04  3.144032E+03 -8.241375E+04 -2.084522E+00 -5.745541E+01
       368  26 -2.165564E+05 -2.818092E+04  3.792467E+03 -8.417222E+04 -1.822214E+01 -1.933511E+02
       368  27 -2.162620E+05 -2.520233E+04  4.369116E+03 -8.105487E+04 -4.181548E+01 -3.095476E+02
       369   1 -2.699653E+05 -4.554863E+04 -1.043311E+04 -9.586073E+04  7.957608E+00  3.894497E+02
       369   2 -2.702045E+05 -4.836643E+04 -1.122615E+04 -9.880317E+04  1.987962E+02  6.013427E+02
       369   3 -2.747960E+05 -4.772369E+04 -1.236675E+04 -9.691875E+04  4.336949E+02  6.966348E+02
       369   4 -2.329501E+05 -3.149073E+04 -2.538529E+02 -8.570606E+04  3.636834E+01  4.001828E+02
       369   5 -2.308075E+05 -3.344598E+04 -4.115782E+02 -8.803517E+04  2.088861E+02  6.051517E+02
       369   6 -2.330136E+05 -3.193705E+04 -9.023192E+02 -8.553743E+04  4.254636E+02  6.935237E+02
       369   7 -1.959336E+05 -1.743275E+04  9.925281E+03 -7.555086E+04  6.478095E+01  4.109166E+02
       369   8 -1.914090E+05 -1.852545E+04  1.040285E+04 -7.726656E+04  2.189767E+02  6.089610E+02
       369   9 -1.912296E+05 -1.615033E+04  1.056194E+04 -7.415544E+04  4.172317E+02  6.904124E+02
       369  10 -2.699653E+05 -4.554863E+04 -1.043311E+04 -9.586073E+04  1.228002E-10 -7.000083E-10
       369  11 -2.702045E+05 -4.836643E+04 -1.122615E+04 -9.880317E+04 -1.212707E-09  4.528783E-09
       369  12 -2.747960E+05 -4.772369E+04 -1.236675E+04 -9.691875E+04 -6.048829E-12 -1.372499E-09
       369  13 -2.329501E+05 -3.149073E+04 -2.538532E+02 -8.570606E+04 -2.135892E-09  5.131910E-09
       369  14 -2.308075E+05 -3.344598E+04 -4.115790E+02 -8.803517E+04 -4.947121E-09 -6.551463E-10
       369  15 -2.330136E+05 -3.193705E+04 -9.023204E+02 -8.553743E+04 -4.439516E-10 -1.777975E-09
       369  16 -1.959336E+05 -1.743275E+04  9.925281E+03 -7.555086E+04  2.166770E-09  1.195844E-09
       369  17 -1.914090E+05 -1.852545E+04  1.040285E+04 -7.726656E+04  4.765286E-11 -1.573287E-09
       369  18 -1.912296E+05 -1.615033E+04  1.056194E+04 -7.415544E+04 -9.560701E-10  1.517625E-09
       369  19 -2.699653E+05 -4.554863E+04 -1.043311E+04 -9.586073E+04 -7.957608E+00 -3.894497E+02
       369  20 -2.702045E+05 -4.836643E+04 -1.122615E+04 -9.880317E+04 -1.987962E+02 -6.013427E+02
       369  21 -2.747960E+05 -4.772369E+04 -1.236675E+04 -9.691875E+04 -4.336949E+02 -6.966348E+02
       369  22 -2.329501E+05 -3.149073E+04 -2.538529E+02 -8.570606E+04 -3.636834E+01 -4.001828E+02
       369  23 -2.308075E+05 -3.344598E+04 -4.115782E+02 -8.803517E+04 -2.088861E+02 -6.051517E+02
       369  24 -2.330136E+05 -3.193705E+04 -9.023192E+02 -8.553743E+04 -4.254636E+02 -6.935237E+02
       369  25 -1.959336E+05 -1.743275E+04  9.925281E+03 -7.555086E+04 -6.478095E+01 -4.109166E+02
       369  26 -1.914090E+05 -1.852545E+04  1.040285E+04 -7.726656E+04 -2.189767E+02 -6.089610E+02
       369  27 -1.912296E+05 -1.615033E+04  1.056194E+04 -7.415544E+04 -4.172317E+02 -6.904124E+02
       370   1 -2.937986E+05 -5.468215E+04 -1.780381E+04 -1.026707E+05  4.429151E+02  8.910786E+02
       370   2 -2.936328E+05 -5.656485E+04 -1.901448E+04 -1.052025E+05  1.439332E+03  1.476928E+03
       370   3 -2.989217E+05 -5.892954E+04 -2.217303E+04 -1.023352E+05  2.704945E+03  1.349449E+03
       370   4 -2.330703E+05 -3.151191E+04 -1.090707E+03 -8.590005E+04  5.279015E+02  9.231625E+02
       370   5 -2.305642E+05 -3.275795E+04 -1.726431E+03 -8.804285E+04  1.412259E+03  1.466703E+03
       370   6 -2.334904E+05 -3.446343E+04 -4.221006E+03 -8.478650E+04  2.565800E+03  1.296950E+03
       370   7 -1.723384E+05 -8.341417E+03  1.562208E+04 -6.912787E+04  6.128971E+02  9.552500E+02
       370   8 -1.674918E+05 -8.950842E+03  1.556125E+04 -7.088163E+04  1.385183E+03  1.456477E+03
       370   9 -1.680552E+05 -9.997148E+03  1.373060E+04 -6.723622E+04  2.426638E+03  1.244445E+03
       370  10 -2.937986E+05 -5.468215E+04 -1.780381E+04 -1.026707E+05 -1.682337E-09 -6.310614E-09
       370  11 -2.936328E+05 -5.656485E+04 -1.901448E+04 -1.052025E+05 -2.553554E-09  4.372696E-09
       370  12 -2.989217E+05 -5.892955E+04 -2.217305E+04 -1.023352E+05 -7.781457E-10  1.810710E-09
       370  13 -2.330703E+05 -3.151191E+04 -1.090709E+03 -8.590005E+04 -1.378210E-10 -1.739460E-09
       370  14 -2.305642E+05 -3.275796E+04 -1.726439E+03 -8.804285E+04 -1.754337E-09  1.218508E-08
       370  15 -2.334904E+05 -3.446343E+04 -4.221022E+03 -8.478651E+04 -2.778663E-09  3.643428E-09
       370  16 -1.723384E+05 -8.341419E+03  1.562207E+04 -6.912787E+04  2.978869E-09 -2.849545E-09
       370  17 -1.674918E+05 -8.950844E+03  1.556124E+04 -7.088163E+04 -1.177649E-09  2.767602E-09
       370  18 -1.680552E+05 -9.997151E+03  1.373058E+04 -6.723622E+04 -1.893288E-09 -7.466957E-10
       370  19 -2.937986E+05 -5.468215E+04 -1.780381E+04 -1.026707E+05 -4.429151E+02 -8.910786E+02
       370  20 -2.936328E+05 -5.656485E+04 -1.901448E+04 -1.052025E+05 -1.439332E+03 -1.476928E+03
       370  21 -2.989217E+05 -5.892954E+04 -2.217303E+04 -1.023352E+05 -2.704945E+03 -1.349449E+03
       370  22 -2.330703E+05 -3.151191E+04 -1.090707E+03 -8.590005E+04 -5.279015E+02 -9.231625E+02
       370  23 -2.305642E+05 -3.275795E+04 -1.726431E+03 -8.804285E+04 -1.412259E+03 -1.466703E+03
       370  24 -2.334904E+05 -3.446343E+04 -4.221006E+03 -8.478650E+04 -2.565800E+03 -1.296950E+03
       370  25 -1.723384E+05 -8.341417E+03  1.562208E+04 -6.912787E+04 -6.128971E+02 -9.552500E+02
       370  26 -1.674918E+05 -8.950842E+03  1.556125E+04 -7.088163E+04 -1.385183E+03 -1.456477E+03
       370  27 -1.680552E+05 -9.997148E+03  1.373060E+04 -6.723622E+04 -2.426638E+03 -1.244445E+03
       371   1 -1.990001E+05  7.917970E+03 -2.722354E+04 -1.872983E+04 -1.022718E+05 -5.242514E+03
       371   2 -2.124689E+05  1.442920E+05  5.109266E+04 -7.116139E+03 -6.963305E+04 -1.517935E+04
       371   3 -2.696331E+05  1.222022E+05  6.859911E+04  3.341503E+04 -3.702334E+04 -1.383428E+04
       371   4 -7.358043E+05 -1.258579E+05 -1.599668E+05  1.687863E+04 -1.093406E+05 -5.264687E+03
       371   5 -7.134672E+05  1.993585E+04 -6.975552E+04  2.263682E+03 -7.158840E+04 -1.518633E+04
       371   6 -7.357537E+05  6.305681E+03 -4.394492E+04  1.656822E+04 -3.386297E+04 -1.382481E+04
       371   7 -1.272343E+06 -2.596505E+05 -2.927306E+05  5.245610E+04 -1.164033E+05 -5.287684E+03
       371   8 -1.214236E+06 -1.044383E+05 -1.906216E+05  1.163576E+04 -7.354215E+04 -1.519337E+04
       371   9 -1.201675E+06 -1.096057E+05 -1.565044E+05 -2.660301E+02 -3.070497E+04 -1.381550E+04
       371  10 -1.990114E+05  7.915131E+03 -2.724325E+04 -1.873026E+04 -4.029973E-09  1.720007E-09
       371  11 -2.124742E+05  1.442905E+05  5.108312E+04 -7.116991E+03 -2.968494E-09  7.866297E-09
       371  12 -2.696346E+05  1.222016E+05  6.859618E+04  3.341462E+04 -1.270823E-09  4.357331E-09
       371  13 -7.358172E+05 -1.258612E+05 -1.599894E+05  1.687816E+04 -5.703683E-10 -3.201507E-09
       371  14 -7.134728E+05  1.993423E+04 -6.976559E+04  2.262806E+03  3.030699E-09 -9.652116E-09
       371  15 -7.357549E+05  6.305168E+03 -4.394744E+04  1.656785E+04  6.552518E-10  1.913369E-09
       371  16 -1.272358E+06 -2.596542E+05 -2.927562E+05  5.245561E+04  3.529992E-09  4.490178E-10
       371  17 -1.214241E+06 -1.044400E+05 -1.906322E+05  1.163486E+04  4.484453E-10  6.739167E-09
       371  18 -1.201676E+06 -1.096062E+05 -1.565065E+05 -2.663719E+02  4.021660E-10  1.036572E-10
       371  19 -1.990001E+05  7.917970E+03 -2.722354E+04 -1.872983E+04  1.022718E+05  5.242514E+03
       371  20 -2.124689E+05  1.442920E+05  5.109266E+04 -7.116139E+03  6.963305E+04  1.517935E+04
       371  21 -2.696331E+05  1.222022E+05  6.859911E+04  3.341503E+04  3.702334E+04  1.383428E+04
       371  22 -7.358043E+05 -1.258579E+05 -1.599668E+05  1.687863E+04  1.093406E+05  5.264687E+03
       371  23 -7.134672E+05  1.993585E+04 -6.975552E+04  2.263682E+03  7.158840E+04  1.518633E+04
       371  24 -7.357537E+05  6.305681E+03 -4.394492E+04  1.656822E+04  3.386297E+04  1.382481E+04
       371  25 -1.272343E+06 -2.596505E+05 -2.927306E+05  5.245610E+04  1.164033E+05  5.287684E+03
       371  26 -1.214236E+06 -1.044383E+05 -1.906216E+05  1.163576E+04  7.354215E+04  1.519337E+04
       371  27 -1.201675E+06 -1.096057E+05 -1.565044E+05 -2.660301E+02  3.070497E+04  1.381550E+04
       372   1 -3.154984E+05  8.818479E+04  6.365135E+04  1.420397E+04 -2.698461E+04 -1.136552E+04
       372   2 -3.493685E+05  9.541297E+04  7.243689E+04  1.843710E+03 -1.810203E+04 -1.087045E+04
       372   3 -3.888908E+05  8.487984E+04  7.098746E+04  1.974573E+04 -9.224214E+03 -9.408722E+03
       372   4 -7.271091E+05 -1.408094E+04 -3.595594E+04  1.700082E+04 -2.697973E+04 -1.136615E+04
       372   5 -7.242363E+05  2.287644E+03 -1.812496E+04  1.845473E+03 -1.766211E+04 -1.086944E+04
       372   6 -7.270972E+05  8.129991E+02 -1.083638E+04  1.695377E+04 -8.348740E+03 -9.405893E+03
       372   7 -1.138565E+06 -1.163591E+05 -1.355754E+05  1.979568E+04 -2.697484E+04 -1.136679E+04
       372   8 -1.098975E+06 -9.084797E+04 -1.086969E+05  1.847129E+03 -1.722245E+04 -1.086844E+04
       372   9 -1.065199E+06 -8.326220E+04 -9.266844E+04  1.416324E+04 -7.473741E+03 -9.403070E+03
       372  10 -3.154992E+05  8.818445E+04  6.364974E+04  1.420372E+04 -8.742120E-10 -1.148097E-09
       372  11 -3.493689E+05  9.541275E+04  7.243605E+04  1.843552E+03 -2.314227E-09  5.681398E-09
       372  12 -3.888909E+05  8.487972E+04  7.098713E+04  1.974566E+04  1.796279E-09  1.013644E-08
       372  13 -7.271099E+05 -1.408128E+04 -3.595755E+04  1.700057E+04  5.387295E-10  1.044813E-08
       372  14 -7.242367E+05  2.287433E+03 -1.812577E+04  1.845319E+03  8.608098E-10 -2.114884E-08
       372  15 -7.270973E+05  8.128854E+02 -1.083667E+04  1.695370E+04 -1.277439E-09  1.091517E-08
       372  16 -1.138566E+06 -1.163594E+05 -1.355770E+05  1.979543E+04  1.855707E-09 -8.259013E-09
       372  17 -1.098976E+06 -9.084817E+04 -1.086977E+05  1.846978E+03 -2.137777E-10 -3.610261E-09
       372  18 -1.065199E+06 -8.326231E+04 -9.266871E+04  1.416318E+04 -2.633112E-09  2.125457E-09
       372  19 -3.154984E+05  8.818479E+04  6.365135E+04  1.420397E+04  2.698461E+04  1.136552E+04
       372  20 -3.493685E+05  9.541297E+04  7.243689E+04  1.843710E+03  1.810203E+04  1.087045E+04
       372  21 -3.888908E+05  8.487984E+04  7.098746E+04  1.974573E+04  9.224214E+03  9.408722E+03
       372  22 -7.271091E+05 -1.408094E+04 -3.595594E+04  1.700082E+04  2.697973E+04  1.136615E+04
       372  23 -7.242363E+05  2.287644E+03 -1.812496E+04  1.845473E+03  1.766211E+04  1.086944E+04
       372  24 -7.270972E+05  8.129991E+02 -1.083638E+04  1.695377E+04  8.348740E+03  9.405893E+03
       372  25 -1.138565E+06 -1.163591E+05 -1.355754E+05  1.979568E+04  2.697484E+04  1.136679E+04
       372  26 -1.098975E+06 -9.084797E+04 -1.086969E+05  1.847129E+03  1.722245E+04  1.086844E+04
       372  27 -1.065199E+06 -8.326220E+04 -9.266844E+04  1.416324E+04  7.473741E+03  9.403070E+03
       373   1 -4.444028E+05  6.849694E+04  5.943880E+04  1.763077E+04 -7.251298E+03 -8.417827E+03
       373   2 -4.817056E+05  6.086567E+04  5.428746E+04  2.238933E+03 -4.969398E+03 -7.021653E+03
       373   3 -5.199691E+05  5.144902E+04  4.715711E+04  1.802868E+04 -2.688773E+03 -5.530953E+03
       373   4 -7.260294E+05 -1.456954E+03 -8.522020E+03  1.717738E+04 -6.638418E+03 -8.415812E+03
       373   5 -7.255427E+05  2.790866E+02 -4.633845E+03  1.583054E+03 -4.314408E+03 -7.019311E+03
       373   6 -7.260251E+05  2.221213E+02 -2.754438E+03  1.717108E+04 -1.991533E+03 -5.528264E+03
       373   7 -1.007583E+06 -7.141665E+04 -7.648852E+04  1.672413E+04 -6.025815E+03 -8.413798E+03
       373   8 -9.693253E+05 -6.031185E+04 -6.355942E+04  9.273807E+02 -3.659673E+03 -7.016970E+03
       373   9 -9.320423E+05 -5.100789E+04 -5.266904E+04  1.631373E+04 -1.294524E+03 -5.525577E+03
       373  10 -4.444029E+05  6.849685E+04  5.943857E+04  1.763072E+04  4.488051E-09 -5.037671E-09
       373  11 -4.817057E+05  6.086561E+04  5.428732E+04  2.238905E+03 -2.127836E-09 -9.705682E-09
       373  12 -5.199691E+05  5.144898E+04  4.715704E+04  1.802867E+04  1.397688E-09 -5.543372E-09
       373  13 -7.260295E+05 -1.457042E+03 -8.522236E+03  1.717733E+04 -3.830888E-11 -2.103761E-09
       373  14 -7.255427E+05  2.790287E+02 -4.633972E+03  1.583029E+03  2.279850E-10 -6.160105E-09
       373  15 -7.260251E+05  2.220874E+02 -2.754503E+03  1.717107E+04  1.262644E-09 -7.363237E-09
       373  16 -1.007583E+06 -7.141673E+04 -7.648872E+04  1.672408E+04 -5.181881E-09 -5.662952E-09
       373  17 -9.693253E+05 -6.031191E+04 -6.355953E+04  9.273600E+02 -4.538152E-10  5.234630E-09
       373  18 -9.320423E+05 -5.100792E+04 -5.266910E+04  1.631373E+04 -3.059485E-10  7.158840E-09
       373  19 -4.444028E+05  6.849694E+04  5.943880E+04  1.763077E+04  7.251298E+03  8.417827E+03
       373  20 -4.817056E+05  6.086567E+04  5.428746E+04  2.238933E+03  4.969398E+03  7.021653E+03
       373  21 -5.199691E+05  5.144902E+04  4.715711E+04  1.802868E+04  2.688773E+03  5.530953E+03
       373  22 -7.260294E+05 -1.456954E+03 -8.522020E+03  1.717738E+04  6.638418E+03  8.415812E+03
       373  23 -7.255427E+05  2.790866E+02 -4.633845E+03  1.583054E+03  4.314408E+03  7.019311E+03
       373  24 -7.260251E+05  2.221213E+02 -2.754438E+03  1.717108E+04  1.991533E+03  5.528264E+03
       373  25 -1.007583E+06 -7.141665E+04 -7.648852E+04  1.672413E+04  6.025815E+03  8.413798E+03
       373  26 -9.693253E+05 -6.031185E+04 -6.355942E+04  9.273807E+02  3.659673E+03  7.016970E+03
       373  27 -9.320423E+05 -5.100789E+04 -5.266904E+04  1.631373E+04  1.294524E+03  5.525577E+03
       374   1 -5.777511E+05  3.676269E+04  3.351616E+04  1.772765E+04 -2.230277E+03 -4.649044E+03
       374   2 -6.159719E+05  2.732320E+04  2.517990E+04  1.784944E+03 -1.577392E+03 -3.156142E+03
       374   3 -6.545846E+05  1.789947E+04  1.635594E+04  1.754545E+04 -9.249808E+02 -1.650152E+03
       374   4 -7.258915E+05 -2.565334E+01 -2.168529E+03  1.728943E+04 -1.553979E+03 -4.646348E+03
       374   5 -7.256936E+05  5.763770E+01 -1.336192E+03  1.437279E+03 -8.952901E+02 -3.153344E+03
       374   6 -7.258900E+05  1.557495E+02 -9.955973E+02  1.728869E+04 -2.370332E+02 -1.647246E+03
       374   7 -8.740118E+05 -3.681560E+04 -3.785478E+04  1.685129E+04 -8.778428E+02 -4.643652E+03
       374   8 -8.354043E+05 -2.720880E+04 -2.785315E+04  1.089664E+03 -2.133080E+02 -3.150547E+03
       374   9 -7.971907E+05 -1.758835E+04 -1.834751E+04  1.703195E+04  4.508355E+02 -1.644341E+03
       374  10 -5.777511E+05  3.676267E+04  3.351611E+04  1.772764E+04  2.267420E-09 -7.228854E-09
       374  11 -6.159719E+05  2.732319E+04  2.517988E+04  1.784940E+03 -4.448358E-09  3.743539E-09
       374  12 -6.545846E+05  1.789947E+04  1.635594E+04  1.754545E+04 -6.175464E-09  3.585605E-10
       374  13 -7.258915E+05 -2.567717E+01 -2.168574E+03  1.728942E+04 -2.326301E-11  1.592840E-09
       374  14 -7.256936E+05  5.762681E+01 -1.336212E+03  1.437276E+03  1.116704E-09 -4.935930E-09
       374  15 -7.258900E+05  1.557466E+02 -9.956025E+02  1.728869E+04 -3.510169E-10 -6.649922E-09
       374  16 -8.740118E+05 -3.681562E+04 -3.785483E+04  1.685129E+04 -2.209640E-09  4.075274E-09
       374  17 -8.354043E+05 -2.720881E+04 -2.785317E+04  1.089663E+03  1.157639E-09  1.295287E-08
       374  18 -7.971907E+05 -1.758835E+04 -1.834751E+04  1.703195E+04  6.850038E-09  2.250144E-09
       374  19 -5.777511E+05  3.676269E+04  3.351616E+04  1.772765E+04  2.230277E+03  4.649044E+03
       374  20 -6.159719E+05  2.732320E+04  2.517990E+04  1.784944E+03  1.577392E+03  3.156142E+03
       374  21 -6.545846E+05  1.789947E+04  1.635594E+04  1.754545E+04  9.249808E+02  1.650152E+03
       374  22 -7.258915E+05 -2.565334E+01 -2.168529E+03  1.728943E+04  1.553979E+03  4.646348E+03
       374  23 -7.256936E+05  5.763770E+01 -1.336192E+03  1.437279E+03  8.952901E+02  3.153344E+03
       374  24 -7.258900E+05  1.557495E+02 -9.955973E+02  1.728869E+04  2.370332E+02  1.647246E+03
       374  25 -8.740118E+05 -3.681560E+04 -3.785478E+04  1.685129E+04  8.778428E+02  4.643652E+03
       374  26 -8.354043E+05 -2.720880E+04 -2.785315E+04  1.089664E+03  2.133080E+02  3.150547E+03
       374  27 -7.971907E+05 -1.758835E+04 -1.834751E+04  1.703195E+04 -4.508355E+02  1.644341E+03
       375   1 -7.130886E+05  3.302359E+03  2.030724E+03  1.734023E+04 -7.540401E+02 -7.698519E+02
       375   2 -7.514636E+05 -6.352804E+03 -7.270989E+03  1.319352E+03 -2.385026E+02  7.389239E+02
       375   3 -7.902170E+05 -1.592127E+04 -1.695809E+04  1.712717E+04  2.771127E+02  2.240919E+03
       375   4 -7.258853E+05  1.460960E+02 -9.434386E+02  1.731659E+04 -6.610184E+01 -7.669242E+02
       375   5 -7.256957E+05  5.099018E+01 -1.043281E+03  1.402498E+03  4.463344E+02  7.418170E+02
       375   6 -7.258858E+05  4.308718E+01 -1.526401E+03  1.731702E+04  9.588805E+02  2.243783E+03
       375   7 -7.386819E+05 -3.010178E+03 -3.917611E+03  1.729294E+04  6.218224E+02 -7.639964E+02
       375   8 -6.999271E+05  6.454736E+03  5.184381E+03  1.485647E+03  1.131200E+03  7.447102E+02
       375   9 -6.615508E+05  1.600714E+04  1.390500E+04  1.750689E+04  1.640719E+03  2.246647E+03
       375  10 -7.130886E+05  3.302358E+03  2.030722E+03  1.734023E+04 -4.481913E-09  1.022430E-09
       375  11 -7.514636E+05 -6.352804E+03 -7.270990E+03  1.319352E+03 -2.004743E-09 -9.790732E-09
       375  12 -7.902170E+05 -1.592127E+04 -1.695810E+04  1.712717E+04 -4.250423E-09 -6.861900E-09
       375  13 -7.258853E+05  1.460954E+02 -9.434397E+02  1.731659E+04 -1.608811E-09  6.392765E-09
       375  14 -7.256957E+05  5.098954E+01 -1.043283E+03  1.402498E+03  1.154627E-09 -8.109623E-09
       375  15 -7.258858E+05  4.308153E+01 -1.526412E+03  1.731702E+04  8.090674E-10 -1.285474E-08
       375  16 -7.386819E+05 -3.010179E+03 -3.917613E+03  1.729294E+04  2.585046E-09 -2.984641E-09
       375  17 -6.999271E+05  6.454735E+03  5.184377E+03  1.485646E+03  8.742761E-10 -2.111303E-08
       375  18 -6.615508E+05  1.600714E+04  1.390498E+04  1.750688E+04  5.129131E-09 -1.192843E-08
       375  19 -7.130886E+05  3.302359E+03  2.030724E+03  1.734023E+04  7.540401E+02  7.698519E+02
       375  20 -7.514636E+05 -6.352804E+03 -7.270989E+03  1.319352E+03  2.385026E+02 -7.389239E+02
       375  21 -7.902170E+05 -1.592127E+04 -1.695809E+04  1.712717E+04 -2.771127E+02 -2.240919E+03
       375  22 -7.258853E+05  1.460960E+02 -9.434386E+02  1.731659E+04  6.610184E+01  7.669242E+02
       375  23 -7.256957E+05  5.099018E+01 -1.043281E+03  1.402498E+03 -4.463344E+02 -7.418170E+02
       375  24 -7.258858E+05  4.308718E+01 -1.526401E+03  1.731702E+04 -9.588805E+02 -2.243783E+03
       375  25 -7.386819E+05 -3.010178E+03 -3.917611E+03  1.729294E+04 -6.218224E+02  7.639964E+02
       375  26 -6.999271E+05  6.454736E+03  5.184381E+03  1.485647E+03 -1.131200E+03 -7.447102E+02
       375  27 -6.615508E+05  1.600714E+04  1.390500E+04  1.750689E+04 -1.640719E+03 -2.246647E+03
       376   1 -8.486646E+05 -3.031280E+04 -3.166499E+04  1.671367E+04  5.615564E+02  3.127756E+03
       376   2 -8.865084E+05 -3.979545E+04 -4.199563E+04  1.022816E+03  2.149934E+03  4.631810E+03
       376   3 -9.251183E+05 -5.037858E+04 -5.369759E+04  1.688188E+04  3.739098E+03  6.057501E+03
       376   4 -7.259735E+05  2.050612E+02 -1.892275E+03  1.725324E+04  1.261704E+03  3.130647E+03
       376   5 -7.255946E+05  1.970321E+02 -3.102783E+03  1.480752E+03  2.814736E+03  4.634435E+03
       376   6 -7.259763E+05 -9.048579E+02 -5.659503E+03  1.725768E+04  4.368652E+03  6.059873E+03
       376   7 -6.032686E+05  3.072182E+04  2.787935E+04  1.779290E+04  1.961989E+03  3.133539E+03
       376   8 -5.646571E+05  4.018762E+04  3.578821E+04  1.938784E+03  3.479711E+03  4.637061E+03
       376   9 -5.267980E+05  4.856596E+04  4.237575E+04  1.763356E+04  4.998407E+03  6.062246E+03
       376  10 -8.486646E+05 -3.031281E+04 -3.166501E+04  1.671367E+04 -9.506785E-09 -1.083866E-09
       376  11 -8.865084E+05 -3.979547E+04 -4.199568E+04  1.022808E+03 -4.393737E-09 -4.322015E-09
       376  12 -9.251184E+05 -5.037862E+04 -5.369769E+04  1.688186E+04  1.297420E-09 -1.151532E-11
       376  13 -7.259735E+05  2.050503E+02 -1.892296E+03  1.725324E+04  1.083480E-09 -5.972501E-09
       376  14 -7.255946E+05  1.970070E+02 -3.102838E+03  1.480742E+03  1.068909E-09 -1.981912E-09
       376  15 -7.259764E+05 -9.049025E+02 -5.659608E+03  1.725766E+04  6.605986E-10  1.093648E-08
       376  16 -6.032686E+05  3.072181E+04  2.787932E+04  1.779290E+04  6.555802E-09  1.706771E-09
       376  17 -5.646572E+05  4.018759E+04  3.578815E+04  1.938771E+03  4.104737E-09 -7.411121E-09
       376  18 -5.267980E+05  4.856592E+04  4.237563E+04  1.763354E+04 -5.460880E-10  1.379890E-08
       376  19 -8.486646E+05 -3.031280E+04 -3.166499E+04  1.671367E+04 -5.615564E+02 -3.127756E+03
       376  20 -8.865084E+05 -3.979545E+04 -4.199563E+04  1.022816E+03 -2.149934E+03 -4.631810E+03
       376  21 -9.251183E+05 -5.037858E+04 -5.369759E+04  1.688188E+04 -3.739098E+03 -6.057501E+03
       376  22 -7.259735E+05  2.050612E+02 -1.892275E+03  1.725324E+04 -1.261704E+03 -3.130647E+03
       376  23 -7.255946E+05  1.970321E+02 -3.102783E+03  1.480752E+03 -2.814736E+03 -4.634435E+03
       376  24 -7.259763E+05 -9.048579E+02 -5.659503E+03  1.725768E+04 -4.368652E+03 -6.059873E+03
       376  25 -6.032686E+05  3.072182E+04  2.787935E+04  1.779290E+04 -1.961989E+03 -3.133539E+03
       376  26 -5.646571E+05  4.018762E+04  3.578821E+04  1.938784E+03 -3.479711E+03 -4.637061E+03
       376  27 -5.267980E+05  4.856596E+04  4.237575E+04  1.763356E+04 -4.998407E+03 -6.062246E+03
       377   1 -9.832878E+05 -6.321534E+04 -6.931610E+04  1.510249E+04  4.645372E+03  7.040836E+03
       377   2 -1.018730E+06 -7.154155E+04 -8.304788E+04  1.480218E+03  1.118406E+04  8.526541E+03
       377   3 -1.058135E+06 -9.164632E+04 -1.040224E+05  1.873928E+04  1.772620E+04  9.178955E+03
       377   4 -7.266799E+05  5.971417E+02 -7.183859E+03  1.709481E+04  5.501958E+03  7.043982E+03
       377   5 -7.247362E+05  1.523390E+03 -1.199618E+04  1.672036E+03  1.166376E+04  8.528029E+03
       377   6 -7.266884E+05 -9.260065E+03 -2.378658E+04  1.712978E+04  1.782939E+04  9.178925E+03
       377   7 -4.700116E+05  6.440480E+04  5.494364E+04  1.908790E+04  6.358898E+03  7.047133E+03
       377   8 -4.306632E+05  7.458200E+04  5.904931E+04  1.863871E+03  1.214367E+04  8.529518E+03
       377   9 -3.951417E+05  7.311814E+04  5.644132E+04  1.551934E+04  1.793263E+04  9.178895E+03
       377  10 -9.832879E+05 -6.321540E+04 -6.931623E+04  1.510246E+04  9.309333E-09  2.926482E-09
       377  11 -1.018730E+06 -7.154166E+04 -8.304825E+04  1.480142E+03  4.207986E-10  7.756751E-09
       377  12 -1.058135E+06 -9.164649E+04 -1.040231E+05  1.873915E+04 -2.499142E-09 -7.253172E-09
       377  13 -7.266799E+05  5.970803E+02 -7.184009E+03  1.709478E+04 -5.506296E-10 -5.101330E-09
       377  14 -7.247364E+05  1.523275E+03 -1.199658E+04  1.671955E+03  1.277094E-09  2.160468E-09
       377  15 -7.266888E+05 -9.260241E+03 -2.378733E+04  1.712965E+04  4.098758E-10  4.431816E-09
       377  16 -4.700117E+05  6.440474E+04  5.494347E+04  1.908787E+04 -9.919407E-09  1.004656E-09
       377  17 -4.306634E+05  7.458188E+04  5.904889E+04  1.863788E+03 -2.572354E-09 -1.904335E-08
       377  18 -3.951421E+05  7.311797E+04  5.644056E+04  1.551921E+04  2.984679E-09 -2.658396E-10
       377  19 -9.832878E+05 -6.321534E+04 -6.931610E+04  1.510249E+04 -4.645372E+03 -7.040836E+03
       377  20 -1.018730E+06 -7.154155E+04 -8.304788E+04  1.480218E+03 -1.118406E+04 -8.526541E+03
       377  21 -1.058135E+06 -9.164632E+04 -1.040224E+05  1.873928E+04 -1.772620E+04 -9.178955E+03
       377  22 -7.266799E+05  5.971417E+02 -7.183859E+03  1.709481E+04 -5.501958E+03 -7.043982E+03
       377  23 -7.247362E+05  1.523390E+03 -1.199618E+04  1.672036E+03 -1.166376E+04 -8.528029E+03
       377  24 -7.266884E+05 -9.260065E+03 -2.378658E+04  1.712978E+04 -1.782939E+04 -9.178925E+03
       377  25 -4.700116E+05  6.440480E+04  5.494364E+04  1.908790E+04 -6.358898E+03 -7.047133E+03
       377  26 -4.306632E+05  7.458200E+04  5.904931E+04  1.863871E+03 -1.214367E+04 -8.529518E+03
       377  27 -3.951417E+05  7.311814E+04  5.644132E+04  1.551934E+04 -1.793263E+04 -9.178895E+03
       378   1 -1.119681E+06 -9.211435E+04 -1.226359E+05  5.343474E+03  1.954928E+04  1.142650E+04
       378   2 -1.140817E+06 -9.191618E+04 -1.482737E+05  7.882253E+03  4.892640E+04  1.284033E+04
       378   3 -1.192319E+06 -1.978733E+05 -2.196001E+05  4.019631E+04  7.832945E+04  4.498927E+03
       378   4 -7.323993E+05  4.224251E+03 -2.906721E+04  1.677901E+04  2.237978E+04  1.143585E+04
       378   5 -7.176287E+05  1.318972E+04 -4.614025E+04  2.016756E+03  4.732945E+04  1.283433E+04
       378   6 -7.324350E+05 -8.319258E+04 -1.058027E+05  1.703017E+04  7.230706E+04  4.478869E+03
       378   7 -3.449804E+05  1.005523E+05  6.449077E+04  2.822161E+04  2.521205E+04  1.144531E+04
       378   8 -2.942763E+05  1.182827E+05  5.598042E+04 -3.852886E+03  4.573141E+04  1.282837E+04
       378   9 -2.723572E+05  3.147440E+04  7.979347E+03 -6.153306E+03  6.628018E+04  4.459270E+03
       378  10 -1.119681E+06 -9.211459E+04 -1.226368E+05  5.343294E+03 -2.993362E-09 -4.406538E-09
       378  11 -1.140820E+06 -9.191700E+04 -1.482785E+05  7.881747E+03  1.006068E-09 -3.292745E-09
       378  12 -1.192326E+06 -1.978749E+05 -2.196117E+05  4.019603E+04  3.825172E-09  1.079052E-08
       378  13 -7.323999E+05  4.223976E+03 -2.906840E+04  1.677881E+04 -1.524628E-11  4.230886E-09
       378  14 -7.176311E+05  1.318895E+04 -4.614477E+04  2.016266E+03  7.935397E-10  6.435749E-09
       378  15 -7.324407E+05 -8.319400E+04 -1.058126E+05  1.702991E+04 -7.061042E-10  8.312713E-09
       378  16 -3.449811E+05  1.005520E+05  6.448933E+04  2.822137E+04  2.512121E-09  8.564618E-09
       378  17 -2.942786E+05  1.182819E+05  5.597618E+04 -3.853358E+03 -2.543205E-09  6.426054E-09
       378  18 -2.723620E+05  3.147320E+04  7.971051E+03 -6.153544E+03 -3.746925E-09 -1.635646E-09
       378  19 -1.119681E+06 -9.211435E+04 -1.226359E+05  5.343474E+03 -1.954928E+04 -1.142650E+04
       378  20 -1.140817E+06 -9.191618E+04 -1.482737E+05  7.882253E+03 -4.892640E+04 -1.284033E+04
       378  21 -1.192319E+06 -1.978733E+05 -2.196001E+05  4.019631E+04 -7.832945E+04 -4.498927E+03
       378  22 -7.323993E+05  4.224251E+03 -2.906721E+04  1.677901E+04 -2.237978E+04 -1.143585E+04
       378  23 -7.176287E+05  1.318972E+04 -4.614025E+04  2.016756E+03 -4.732945E+04 -1.283433E+04
       378  24 -7.324350E+05 -8.319258E+04 -1.058027E+05  1.703017E+04 -7.230706E+04 -4.478869E+03
       378  25 -3.449804E+05  1.005523E+05  6.449077E+04  2.822161E+04 -2.521205E+04 -1.144531E+04
       378  26 -2.942763E+05  1.182827E+05  5.598042E+04 -3.852886E+03 -4.573141E+04 -1.282837E+04
       378  27 -2.723572E+05  3.147440E+04  7.979347E+03 -6.153306E+03 -6.628018E+04 -4.459270E+03
       379   1 -1.581535E+05 -6.133034E+05 -1.523993E+05  1.472902E+05 -6.312995E+03 -5.297147E+04
       379   2 -1.121872E+05 -4.913121E+05 -9.502138E+04  1.302198E+05 -1.988846E+04 -2.311362E+04
       379   3 -7.931748E+04 -3.763453E+05 -6.036263E+04  1.355524E+05 -2.027284E+04  6.779164E+03
       379   4 -1.756658E+04 -4.490814E+04 -1.834978E+04  1.355412E+05 -6.384636E+03 -1.390080E+04
       379   5 -5.241835E+03 -4.359835E+04 -8.275723E+03  1.243543E+05 -1.991138E+04 -9.660749E+03
       379   6 -1.558086E+03 -4.487300E+04 -3.116770E+03  1.355707E+05 -2.025085E+04 -5.392358E+03
       379   7  1.229986E+05  5.237880E+05  1.156832E+05  1.237815E+05 -6.457727E+03  2.520547E+04
       379   8  1.016918E+05  4.043086E+05  7.846122E+04  1.184844E+05 -1.993455E+04  3.801613E+03
       379   9  7.619548E+04  2.867075E+05  5.412587E+04  1.355891E+05 -2.022887E+04 -1.757018E+04
       379  10 -1.581543E+05 -6.133064E+05 -1.524046E+05  1.472900E+05  1.986288E-10  2.642437E-10
       379  11 -1.121877E+05 -4.913128E+05 -9.502313E+04  1.302194E+05  8.224698E-10  4.912400E-09
       379  12 -7.931794E+04 -3.763455E+05 -6.036349E+04  1.355525E+05  1.267132E-09  2.406557E-09
       379  13 -1.756667E+04 -4.490836E+04 -1.835022E+04  1.355412E+05  2.297119E-09 -1.066764E-09
       379  14 -5.242286E+03 -4.359856E+04 -8.276643E+03  1.243541E+05 -1.917843E-09 -5.985095E-09
       379  15 -1.558534E+03 -4.487315E+04 -3.117595E+03  1.355706E+05  1.648782E-09  6.510514E-10
       379  16  1.229984E+05  5.237873E+05  1.156820E+05  1.237816E+05  1.273993E-09 -2.293240E-09
       379  17  1.016913E+05  4.043084E+05  7.846045E+04  1.184845E+05  4.133469E-10 -3.309800E-09
       379  18  7.619496E+04  2.867071E+05  5.412452E+04  1.355888E+05  2.059466E-10 -2.955148E-09
       379  19 -1.581535E+05 -6.133034E+05 -1.523993E+05  1.472902E+05  6.312995E+03  5.297147E+04
       379  20 -1.121872E+05 -4.913121E+05 -9.502138E+04  1.302198E+05  1.988846E+04  2.311362E+04
       379  21 -7.931748E+04 -3.763453E+05 -6.036263E+04  1.355524E+05  2.027284E+04 -6.779164E+03
       379  22 -1.756658E+04 -4.490814E+04 -1.834978E+04  1.355412E+05  6.384636E+03  1.390080E+04
       379  23 -5.241835E+03 -4.359835E+04 -8.275723E+03  1.243543E+05  1.991138E+04  9.660749E+03
       379  24 -1.558086E+03 -4.487300E+04 -3.116770E+03  1.355707E+05  2.025085E+04  5.392358E+03
       379  25  1.229986E+05  5.237880E+05  1.156832E+05  1.237815E+05  6.457727E+03 -2.520547E+04
       379  26  1.016918E+05  4.043086E+05  7.846122E+04  1.184844E+05  1.993455E+04 -3.801613E+03
       379  27  7.619548E+04  2.867075E+05  5.412587E+04  1.355891E+05  2.022887E+04  1.757018E+04
       380   1 -6.124527E+04 -2.997126E+05 -4.464129E+04  1.363277E+05 -1.617591E+04  6.518999E+03
       380   2 -3.192141E+04 -1.813980E+05 -1.918897E+04  1.249092E+05 -9.864154E+03  6.489879E+03
       380   3 -2.152371E+03 -6.283788E+04  6.423208E+03  1.367728E+05 -2.907110E+03  6.461390E+03
       380   4 -1.441525E+03 -4.419037E+04 -1.205854E+03  1.357620E+05 -1.615554E+04 -5.120816E+03
       380   5 -1.608826E+02 -4.440992E+04  2.592763E+03  1.241240E+05 -9.842206E+03 -6.405019E+03
       380   6  1.783624E+03 -4.417935E+04  7.423291E+03  1.357676E+05 -2.883684E+03 -7.688593E+03
       380   7  5.835883E+04  2.113964E+05  4.222796E+04  1.351961E+05 -1.613514E+04 -1.676527E+04
       380   8  3.159880E+04  9.259717E+04  2.437464E+04  1.233385E+05 -9.820229E+03 -1.930266E+04
       380   9  5.719722E+03 -2.552000E+04  8.424147E+03  1.347623E+05 -2.860212E+03 -2.183897E+04
       380  10 -6.124556E+04 -2.997127E+05 -4.464187E+04  1.363278E+05  1.646288E-09 -2.311194E-11
       380  11 -3.192153E+04 -1.813980E+05 -1.918924E+04  1.249093E+05  7.266112E-10  3.553382E-09
       380  12 -2.152391E+03 -6.283793E+04  6.423113E+03  1.367728E+05 -7.050561E-10 -4.049893E-10
       380  13 -1.441812E+03 -4.419047E+04 -1.206394E+03  1.357619E+05  2.160859E-09  1.079269E-09
       380  14 -1.609976E+02 -4.440999E+04  2.592504E+03  1.241239E+05  2.970061E-09 -4.081134E-09
       380  15  1.783599E+03 -4.417941E+04  7.423164E+03  1.357676E+05  8.256778E-11  7.560508E-10
       380  16  5.835848E+04  2.113960E+05  4.222695E+04  1.351958E+05  8.188374E-10 -3.624001E-09
       380  17  3.159860E+04  9.259674E+04  2.437376E+04  1.233383E+05  8.539350E-10 -2.742389E-09
       380  18  5.719585E+03 -2.552052E+04  8.423235E+03  1.347623E+05 -1.774596E-09 -2.008588E-10
       380  19 -6.124527E+04 -2.997126E+05 -4.464129E+04  1.363277E+05  1.617591E+04 -6.518999E+03
       380  20 -3.192141E+04 -1.813980E+05 -1.918897E+04  1.249092E+05  9.864154E+03 -6.489879E+03
       380  21 -2.152371E+03 -6.283788E+04  6.423208E+03  1.367728E+05  2.907110E+03 -6.461390E+03
       380  22 -1.441525E+03 -4.419037E+04 -1.205854E+03  1.357620E+05  1.615554E+04  5.120816E+03
       380  23 -1.608826E+02 -4.440992E+04  2.592763E+03  1.241240E+05  9.842206E+03  6.405019E+03
       380  24  1.783624E+03 -4.417935E+04  7.423291E+03  1.357676E+05  2.883684E+03  7.688593E+03
       380  25  5.835883E+04  2.113964E+05  4.222796E+04  1.351961E+05  1.613514E+04  1.676527E+04
       380  26  3.159880E+04  9.259717E+04  2.437464E+04  1.233385E+05  9.820229E+03  1.930266E+04
       380  27  5.719722E+03 -2.552000E+04  8.424147E+03  1.347623E+05  2.860212E+03  2.183897E+04
       381   1  1.585351E+04  1.413542E+04  2.261584E+04  1.346959E+05  1.696841E+03  5.416508E+03
       381   2  5.247824E+04  1.282800E+05  5.699042E+04  1.361663E+05  5.586364E+03 -1.891562E+04
       381   3  1.111417E+05  2.512272E+05  1.127401E+05  1.605417E+05  2.359793E+03 -4.326627E+04
       381   4  2.032434E+03 -4.285923E+04  1.052518E+04  1.356761E+05  1.720724E+03 -8.982258E+03
       381   5  1.035311E+04 -4.606208E+04  2.044917E+04  1.242567E+05  5.587807E+03 -1.947835E+04
       381   6  3.831524E+04 -4.287188E+04  4.214375E+04  1.357405E+05  2.338885E+03 -2.998840E+04
       381   7 -1.178874E+04 -9.985038E+04 -1.564883E+03  1.366561E+05  1.744563E+03 -2.337972E+04
       381   8 -3.177344E+04 -2.203751E+05 -1.609370E+04  1.123505E+05  5.589271E+03 -2.004092E+04
       381   9 -3.451505E+04 -3.368900E+05 -2.845777E+04  1.109510E+05  2.316913E+03 -1.671680E+04
       381  10  1.585350E+04  1.413539E+04  2.261578E+04  1.346959E+05 -5.215225E-10  1.701907E-09
       381  11  5.247812E+04  1.282796E+05  5.698969E+04  1.361664E+05 -1.071295E-09  4.964744E-09
       381  12  1.111412E+05  2.512252E+05  1.127366E+05  1.605418E+05 -9.287206E-10  1.472608E-09
       381  13  2.032409E+03 -4.285932E+04  1.052503E+04  1.356761E+05 -3.038221E-09 -3.137907E-12
       381  14  1.035297E+04 -4.606249E+04  2.044840E+04  1.242568E+05  4.461854E-11 -6.795157E-09
       381  15  3.831499E+04 -4.287285E+04  4.214205E+04  1.357405E+05  2.127080E-10  1.708867E-09
       381  16 -1.178889E+04 -9.985096E+04 -1.565916E+03  1.366562E+05 -1.314436E-09 -4.445568E-09
       381  17 -3.177358E+04 -2.203756E+05 -1.609452E+04  1.123506E+05  9.020779E-10 -7.093745E-09
       381  18 -3.451513E+04 -3.368903E+05 -2.845831E+04  1.109511E+05 -4.439297E-10 -2.745026E-09
       381  19  1.585351E+04  1.413542E+04  2.261584E+04  1.346959E+05 -1.696841E+03 -5.416508E+03
       381  20  5.247824E+04  1.282800E+05  5.699042E+04  1.361663E+05 -5.586364E+03  1.891562E+04
       381  21  1.111417E+05  2.512272E+05  1.127401E+05  1.605417E+05 -2.359793E+03  4.326627E+04
       381  22  2.032434E+03 -4.285923E+04  1.052518E+04  1.356761E+05 -1.720724E+03  8.982258E+03
       381  23  1.035311E+04 -4.606208E+04  2.044917E+04  1.242567E+05 -5.587807E+03  1.947835E+04
       381  24  3.831524E+04 -4.287188E+04  4.214375E+04  1.357405E+05 -2.338885E+03  2.998840E+04
       381  25 -1.178874E+04 -9.985038E+04 -1.564883E+03  1.366561E+05 -1.744563E+03  2.337972E+04
       381  26 -3.177344E+04 -2.203751E+05 -1.609370E+04  1.123505E+05 -5.589271E+03  2.004092E+04
       381  27 -3.451505E+04 -3.368900E+05 -2.845777E+04  1.109510E+05 -2.316913E+03  1.671680E+04
       382   1  1.199916E+06  4.313815E+05  2.912512E+05  4.132374E+05  1.218416E+05  4.150666E+04
       382   2  1.154752E+06  2.425498E+05  1.747593E+05  4.205940E+05  7.965595E+04  1.674040E+04
       382   3  1.161045E+06  2.406774E+05  1.380922E+05  4.050119E+05  3.409142E+04  9.280503E+02
       382   4  8.222096E+05  2.527975E+05  1.813152E+05  2.732941E+05  1.165698E+05  3.950741E+04
       382   5  7.875077E+05  9.399803E+04  7.526898E+04  3.095823E+05  7.823651E+04  1.620195E+04
       382   6  8.035382E+05  1.214544E+05  4.603452E+04  3.229218E+05  3.652202E+04  1.847821E+03
       382   7  4.446466E+05  7.424846E+04  7.136623E+04  1.334365E+05  1.113015E+05  3.751024E+04
       382   8  4.203945E+05 -5.453960E+04 -2.423319E+04  1.986319E+05  7.681798E+04  1.566389E+04
       382   9  4.461534E+05  2.232256E+03 -4.603374E+04  2.408707E+05  3.895109E+04  2.767166E+03
       382  10  1.199900E+06  4.313756E+05  2.912201E+05  4.132333E+05  1.841092E-09  3.120739E-09
       382  11  1.154745E+06  2.425478E+05  1.747468E+05  4.205929E+05 -4.919856E-09 -2.499021E-10
       382  12  1.161044E+06  2.406771E+05  1.380900E+05  4.050119E+05 -3.268147E-09  2.255810E-09
       382  13  8.221946E+05  2.527922E+05  1.812867E+05  2.732904E+05 -1.724733E-09 -7.426754E-09
       382  14  7.875010E+05  9.399611E+04  7.525700E+04  3.095812E+05 -3.626580E-09 -8.038852E-09
       382  15  8.035368E+05  1.214540E+05  4.603201E+04  3.229217E+05 -3.996042E-09 -4.105668E-09
       382  16  4.446329E+05  7.424362E+04  7.134033E+04  1.334332E+05 -3.136506E-09 -4.253562E-09
       382  17  4.203881E+05 -5.454144E+04 -2.424473E+04  1.986309E+05 -1.787888E-10 -5.117584E-09
       382  18  4.461518E+05  2.231841E+03 -4.603660E+04  2.408706E+05  1.320237E-09 -2.345503E-09
       382  19  1.199916E+06  4.313815E+05  2.912512E+05  4.132374E+05 -1.218416E+05 -4.150666E+04
       382  20  1.154752E+06  2.425498E+05  1.747593E+05  4.205940E+05 -7.965595E+04 -1.674040E+04
       382  21  1.161045E+06  2.406774E+05  1.380922E+05  4.050119E+05 -3.409142E+04 -9.280503E+02
       382  22  8.222096E+05  2.527975E+05  1.813152E+05  2.732941E+05 -1.165698E+05 -3.950741E+04
       382  23  7.875077E+05  9.399803E+04  7.526898E+04  3.095823E+05 -7.823651E+04 -1.620195E+04
       382  24  8.035382E+05  1.214544E+05  4.603452E+04  3.229218E+05 -3.652202E+04 -1.847821E+03
       382  25  4.446466E+05  7.424846E+04  7.136623E+04  1.334365E+05 -1.113015E+05 -3.751024E+04
       382  26  4.203945E+05 -5.453960E+04 -2.423319E+04  1.986319E+05 -7.681798E+04 -1.566389E+04
       382  27  4.461534E+05  2.232256E+03 -4.603374E+04  2.408707E+05 -3.895109E+04 -2.767166E+03
       383   1  1.095461E+06  2.569253E+05  1.176824E+05  3.972648E+05  2.915985E+04  1.344440E+03
       383   2  1.073733E+06  2.184423E+05  9.058223E+04  3.830379E+05  1.940204E+04 -1.961056E+03
       383   3  1.043494E+06  2.171400E+05  7.607988E+04  3.835516E+05  9.349435E+03 -4.488020E+03
       383   4  7.978199E+05  1.406014E+05  3.755446E+04  3.115359E+05  2.912911E+04  1.332271E+03
       383   5  8.010193E+05  1.144056E+05  1.778587E+04  3.070582E+05  1.970859E+04 -1.845321E+03
       383   6  7.956436E+05  1.253294E+05  1.035270E+04  3.173205E+05  9.992784E+03 -4.244478E+03
       383   7  5.002640E+05  2.428462E+04 -4.258135E+04  2.258445E+05  2.909839E+04  1.320106E+03
       383   8  5.283774E+05  1.037390E+04 -5.501691E+04  2.311087E+05  2.001498E+04 -1.729643E+03
       383   9  5.478527E+05  3.352220E+04 -5.537961E+04  2.511130E+05  1.063585E+04 -4.001039E+03
       383  10  1.095460E+06  2.569251E+05  1.176808E+05  3.972648E+05  6.785836E-09 -3.297181E-09
       383  11  1.073733E+06  2.184422E+05  9.058152E+04  3.830379E+05  4.120247E-10 -1.258497E-08
       383  12  1.043494E+06  2.171400E+05  7.607968E+04  3.835517E+05 -5.662660E-09 -1.062818E-09
       383  13  7.978189E+05  1.406012E+05  3.755287E+04  3.115359E+05  4.909364E-10 -5.061047E-10
       383  14  8.010189E+05  1.144054E+05  1.778513E+04  3.070582E+05  1.644891E-09  7.996963E-09
       383  15  7.956434E+05  1.253294E+05  1.035248E+04  3.173205E+05 -1.681386E-09  3.467515E-10
       383  16  5.002631E+05  2.428439E+04 -4.258295E+04  2.258445E+05 -6.304020E-09 -6.971186E-09
       383  17  5.283769E+05  1.037378E+04 -5.501767E+04  2.311088E+05  5.168618E-09 -6.359767E-09
       383  18  5.478526E+05  3.352215E+04 -5.537985E+04  2.511130E+05  6.714539E-09  4.237538E-09
       383  19  1.095461E+06  2.569253E+05  1.176824E+05  3.972648E+05 -2.915985E+04 -1.344440E+03
       383  20  1.073733E+06  2.184423E+05  9.058223E+04  3.830379E+05 -1.940204E+04  1.961056E+03
       383  21  1.043494E+06  2.171400E+05  7.607988E+04  3.835516E+05 -9.349435E+03  4.488020E+03
       383  22  7.978199E+05  1.406014E+05  3.755446E+04  3.115359E+05 -2.912911E+04 -1.332271E+03
       383  23  8.010193E+05  1.144056E+05  1.778587E+04  3.070582E+05 -1.970859E+04  1.845321E+03
       383  24  7.956436E+05  1.253294E+05  1.035270E+04  3.173205E+05 -9.992784E+03  4.244478E+03
       383  25  5.002640E+05  2.428462E+04 -4.258135E+04  2.258445E+05 -2.909839E+04 -1.320106E+03
       383  26  5.283774E+05  1.037390E+04 -5.501691E+04  2.311087E+05 -2.001498E+04  1.729643E+03
       383  27  5.478527E+05  3.352220E+04 -5.537961E+04  2.511130E+05 -1.063585E+04  4.001039E+03
       384   1  9.978444E+05  2.044487E+05  6.214074E+04  3.720211E+05  7.783360E+03 -4.214525E+03
       384   2  9.798409E+05  1.841380E+05  5.139424E+04  3.558619E+05  5.250905E+03 -4.011644E+03
       384   3  9.463966E+05  1.828001E+05  4.288513E+04  3.579880E+05  2.697480E+03 -3.754751E+03
       384   4  7.949930E+05  1.273742E+05  8.116939E+03  3.158092E+05  8.205132E+03 -4.054853E+03
       384   5  8.025922E+05  1.170206E+05  4.165293E+03  3.069964E+05  5.696487E+03 -3.842831E+03
       384   6  7.947459E+05  1.256360E+05  2.432947E+03  3.164692E+05  3.166777E+03 -3.576827E+03
       384   7  5.921807E+05  5.030215E+04 -4.591059E+04  2.596136E+05  8.626752E+03 -3.895238E+03
       384   8  6.253735E+05  4.990506E+04 -4.306645E+04  2.581434E+05  6.141931E+03 -3.674072E+03
       384   9  6.431174E+05  6.847330E+04 -3.802125E+04  2.749595E+05  3.635948E+03 -3.398950E+03
       384  10  9.978443E+05  2.044487E+05  6.214059E+04  3.720212E+05  2.139625E-09 -1.782044E-09
       384  11  9.798408E+05  1.841380E+05  5.139415E+04  3.558619E+05  2.654938E-10 -4.795300E-09
       384  12  9.463966E+05  1.828001E+05  4.288509E+04  3.579880E+05 -4.123408E-09 -2.154063E-09
       384  13  7.949929E+05  1.273742E+05  8.116782E+03  3.158092E+05 -1.648775E-09  4.498685E-10
       384  14  8.025922E+05  1.170206E+05  4.165205E+03  3.069964E+05  5.840897E-09 -1.234884E-08
       384  15  7.947459E+05  1.256360E+05  2.432904E+03  3.164692E+05  4.833197E-12  3.701584E-09
       384  16  5.921806E+05  5.030211E+04 -4.591076E+04  2.596137E+05 -4.477236E-09 -5.817579E-09
       384  17  6.253735E+05  4.990504E+04 -4.306655E+04  2.581434E+05  4.908622E-10  1.009862E-08
       384  18  6.431173E+05  6.847328E+04 -3.802129E+04  2.749595E+05  5.212763E-09  3.689179E-09
       384  19  9.978444E+05  2.044487E+05  6.214074E+04  3.720211E+05 -7.783360E+03  4.214525E+03
       384  20  9.798409E+05  1.841380E+05  5.139424E+04  3.558619E+05 -5.250905E+03  4.011644E+03
       384  21  9.463966E+05  1.828001E+05  4.288513E+04  3.579880E+05 -2.697480E+03  3.754751E+03
       384  22  7.949930E+05  1.273742E+05  8.116939E+03  3.158092E+05 -8.205132E+03  4.054853E+03
       384  23  8.025922E+05  1.170206E+05  4.165293E+03  3.069964E+05 -5.696487E+03  3.842831E+03
       384  24  7.947459E+05  1.256360E+05  2.432947E+03  3.164692E+05 -3.166777E+03  3.576827E+03
       384  25  5.921807E+05  5.030215E+04 -4.591059E+04  2.596136E+05 -8.626752E+03  3.895238E+03
       384  26  6.253735E+05  4.990506E+04 -4.306645E+04  2.581434E+05 -6.141931E+03  3.674072E+03
       384  27  6.431174E+05  6.847330E+04 -3.802125E+04  2.749595E+05 -3.635948E+03  3.398950E+03
       385   1  9.043359E+05  1.672767E+05  3.103436E+04  3.464362E+05  2.121186E+03 -3.255106E+03
       385   2  8.872061E+05  1.494080E+05  2.370179E+04  3.303820E+05  1.125007E+03 -2.432010E+03
       385   3  8.540491E+05  1.480709E+05  1.689624E+04  3.325853E+05  1.295997E+02 -1.611544E+03
       385   4  7.947181E+05  1.257790E+05  1.919620E+03  3.162048E+05  2.570436E+03 -3.084725E+03
       385   5  8.027207E+05  1.174314E+05  1.191276E+03  3.071073E+05  1.573241E+03 -2.261962E+03
       385   6  7.946955E+05  1.256157E+05  9.908935E+02  3.162672E+05  5.767883E+02 -1.441836E+03
       385   7  6.851122E+05  8.428221E+04 -2.719609E+04  2.859783E+05  3.019598E+03 -2.914377E+03
       385   8  7.182422E+05  8.545513E+04 -2.131986E+04  2.838354E+05  2.021408E+03 -2.091939E+03
       385   9  7.353452E+05  1.031606E+05 -1.491480E+04  2.999504E+05  1.023931E+03 -1.272146E+03
       385  10  9.043359E+05  1.672767E+05  3.103433E+04  3.464362E+05  6.669373E-10  2.378158E-09
       385  11  8.872061E+05  1.494080E+05  2.370177E+04  3.303820E+05  3.814090E-09  2.235035E-09
       385  12  8.540491E+05  1.480709E+05  1.689624E+04  3.325853E+05 -1.198097E-09 -1.051730E-08
       385  13  7.947181E+05  1.257790E+05  1.919590E+03  3.162048E+05  4.578941E-11 -1.450995E-09
       385  14  8.027207E+05  1.174314E+05  1.191261E+03  3.071073E+05  2.751753E-09  1.054919E-10
       385  15  7.946955E+05  1.256157E+05  9.908890E+02  3.162672E+05 -1.214265E-09 -1.582673E-08
       385  16  6.851122E+05  8.428220E+04 -2.719612E+04  2.859783E+05 -3.235799E-09  6.432904E-10
       385  17  7.182422E+05  8.545512E+04 -2.131987E+04  2.838354E+05  2.954830E-10 -1.027101E-08
       385  18  7.353452E+05  1.031606E+05 -1.491481E+04  2.999504E+05  4.677670E-09  3.485637E-09
       385  19  9.043359E+05  1.672767E+05  3.103436E+04  3.464362E+05 -2.121186E+03  3.255106E+03
       385  20  8.872061E+05  1.494080E+05  2.370179E+04  3.303820E+05 -1.125007E+03  2.432010E+03
       385  21  8.540491E+05  1.480709E+05  1.689624E+04  3.325853E+05 -1.295997E+02  1.611544E+03
       385  22  7.947181E+05  1.257790E+05  1.919620E+03  3.162048E+05 -2.570436E+03  3.084725E+03
       385  23  8.027207E+05  1.174314E+05  1.191276E+03  3.071073E+05 -1.573241E+03  2.261962E+03
       385  24  7.946955E+05  1.256157E+05  9.908935E+02  3.162672E+05 -5.767883E+02  1.441836E+03
       385  25  6.851122E+05  8.428221E+04 -2.719609E+04  2.859783E+05 -3.019598E+03  2.914377E+03
       385  26  7.182422E+05  8.545513E+04 -2.131986E+04  2.838354E+05 -2.021408E+03  2.091939E+03
       385  27  7.353452E+05  1.031606E+05 -1.491480E+04  2.999504E+05 -1.023931E+03  1.272146E+03
       386   1  8.129039E+05  1.324815E+05  5.766296E+03  3.212891E+05 -2.664706E+02 -1.065712E+03
       386   2  7.959393E+05  1.149101E+05 -4.815350E+02  3.052901E+05 -1.322228E+03 -2.732287E+02
       386   3  7.630870E+05  1.137839E+05 -6.147535E+03  3.073902E+05 -2.376465E+03  5.154610E+02
       386   4  7.947253E+05  1.255815E+05  1.011761E+03  3.162380E+05  1.801481E+02 -8.962016E+02
       386   5  8.026844E+05  1.174637E+05  1.315748E+03  3.071488E+05 -8.772551E+02 -1.043496E+02
       386   6  7.947552E+05  1.257911E+05  2.202853E+03  3.161583E+05 -1.933167E+03  6.837004E+02
       386   7  7.765471E+05  1.186815E+05 -3.742802E+03  3.111870E+05  6.267524E+02 -7.266971E+02
       386   8  8.094294E+05  1.200172E+05  3.113025E+03  3.090075E+05 -4.322775E+02  6.453134E+01
       386   9  8.264243E+05  1.377984E+05  1.055313E+04  3.249268E+05 -1.489845E+03  8.519489E+02
       386  10  8.129039E+05  1.324815E+05  5.766294E+03  3.212891E+05 -1.850871E-09 -1.444582E-08
       386  11  7.959393E+05  1.149101E+05 -4.815385E+02  3.052901E+05 -2.949557E-09 -1.011819E-08
       386  12  7.630870E+05  1.137839E+05 -6.147547E+03  3.073902E+05 -2.980391E-09 -1.372494E-08
       386  13  7.947253E+05  1.255815E+05  1.011759E+03  3.162380E+05 -2.965147E-09  1.545305E-08
       386  14  8.026844E+05  1.174637E+05  1.315746E+03  3.071488E+05 -3.648169E-09 -9.024240E-09
       386  15  7.947552E+05  1.257911E+05  2.202845E+03  3.161583E+05  1.637039E-09 -9.384410E-09
       386  16  7.765471E+05  1.186815E+05 -3.742803E+03  3.111870E+05  1.778942E-09  5.916575E-09
       386  17  8.094294E+05  1.200172E+05  3.113025E+03  3.090075E+05 -1.747240E-09  6.997828E-09
       386  18  8.264243E+05  1.377984E+05  1.055313E+04  3.249268E+05  7.754429E-09  1.521453E-08
       386  19  8.129039E+05  1.324815E+05  5.766296E+03  3.212891E+05  2.664706E+02  1.065712E+03
       386  20  7.959393E+05  1.149101E+05 -4.815350E+02  3.052901E+05  1.322228E+03  2.732287E+02
       386  21  7.630870E+05  1.137839E+05 -6.147535E+03  3.073902E+05  2.376465E+03 -5.154610E+02
       386  22  7.947253E+05  1.255815E+05  1.011761E+03  3.162380E+05 -1.801481E+02  8.962016E+02
       386  23  8.026844E+05  1.174637E+05  1.315748E+03  3.071488E+05  8.772551E+02  1.043496E+02
       386  24  7.947552E+05  1.257911E+05  2.202853E+03  3.161583E+05  1.933167E+03 -6.837004E+02
       386  25  7.765471E+05  1.186815E+05 -3.742802E+03  3.111870E+05 -6.267524E+02  7.266971E+02
       386  26  8.094294E+05  1.200172E+05  3.113025E+03  3.090075E+05  4.322775E+02 -6.453134E+01
       386  27  8.264243E+05  1.377984E+05  1.055313E+04  3.249268E+05  1.489845E+03 -8.519489E+02
       387   1  7.217683E+05  9.813983E+04 -1.670561E+04  2.965374E+05 -3.038346E+03  9.693551E+02
       387   2  7.044160E+05  7.988972E+04 -2.127985E+04  2.800351E+05 -5.893057E+03  1.087971E+03
       387   3  6.721494E+05  8.061815E+04 -2.328956E+04  2.812783E+05 -8.729405E+03  1.159198E+03
       387   4  7.948549E+05  1.255464E+05  2.811817E+03  3.163859E+05 -2.579363E+03  1.143524E+03
       387   5  8.024562E+05  1.170792E+05  4.859630E+03  3.071243E+05 -5.454751E+03  1.254228E+03
       387   6  7.951470E+05  1.275943E+05  9.488190E+03  3.156079E+05 -8.311885E+03  1.317506E+03
       387   7  8.679468E+05  1.529534E+05  2.232883E+04  3.362366E+05 -2.120319E+03  1.317715E+03
       387   8  9.005058E+05  1.542693E+05  3.099831E+04  3.342174E+05 -5.016369E+03  1.420515E+03
       387   9  9.181592E+05  1.745714E+05  4.226462E+04  3.499437E+05 -7.894274E+03  1.475849E+03
       387  10  7.217683E+05  9.813982E+04 -1.670563E+04  2.965374E+05 -2.289204E-09 -4.431604E-09
       387  11  7.044159E+05  7.988971E+04 -2.127992E+04  2.800351E+05 -2.011436E-09 -1.272251E-08
       387  12  6.721493E+05  8.061813E+04 -2.328971E+04  2.812783E+05 -6.369084E-09 -2.613977E-09
       387  13  7.948549E+05  1.255464E+05  2.811802E+03  3.163859E+05  1.167044E-09 -5.700592E-09
       387  14  8.024562E+05  1.170792E+05  4.859572E+03  3.071243E+05  1.042296E-09 -1.050615E-08
       387  15  7.951469E+05  1.275943E+05  9.488057E+03  3.156079E+05  5.300080E-10 -4.199933E-09
       387  16  8.679468E+05  1.529534E+05  2.232882E+04  3.362366E+05  5.558432E-09 -6.492286E-09
       387  17  9.005058E+05  1.542693E+05  3.099826E+04  3.342174E+05  6.643568E-09 -1.426324E-09
       387  18  9.181592E+05  1.745714E+05  4.226450E+04  3.499437E+05  3.094571E-09  1.076655E-08
       387  19  7.217683E+05  9.813983E+04 -1.670561E+04  2.965374E+05  3.038346E+03 -9.693551E+02
       387  20  7.044160E+05  7.988972E+04 -2.127985E+04  2.800351E+05  5.893057E+03 -1.087971E+03
       387  21  6.721494E+05  8.061815E+04 -2.328956E+04  2.812783E+05  8.729405E+03 -1.159198E+03
       387  22  7.948549E+05  1.255464E+05  2.811817E+03  3.163859E+05  2.579363E+03 -1.143524E+03
       387  23  8.024562E+05  1.170792E+05  4.859630E+03  3.071243E+05  5.454751E+03 -1.254228E+03
       387  24  7.951470E+05  1.275943E+05  9.488190E+03  3.156079E+05  8.311885E+03 -1.317506E+03
       387  25  8.679468E+05  1.529534E+05  2.232883E+04  3.362366E+05  2.120319E+03 -1.317715E+03
       387  26  9.005058E+05  1.542693E+05  3.099831E+04  3.342174E+05  5.016369E+03 -1.420515E+03
       387  27  9.181592E+05  1.745714E+05  4.226462E+04  3.499437E+05  7.894274E+03 -1.475849E+03
       388   1  6.290439E+05  6.417119E+04 -3.203021E+04  2.736061E+05 -1.092857E+04  1.141752E+03
       388   2  6.101019E+05  4.095233E+04 -3.012951E+04  2.537395E+05 -2.194281E+04 -1.797582E+03
       388   3  5.845794E+05  5.753354E+04 -1.401972E+04  2.470253E+05 -3.272172E+04 -5.355240E+03
       388   4  7.959848E+05  1.251152E+05  1.210448E+04  3.172838E+05 -1.033588E+04  1.366470E+03
       388   5  8.005279E+05  1.141312E+05  2.081568E+04  3.073172E+05 -2.161775E+04 -1.674551E+03
       388   6  7.985402E+05  1.429948E+05  4.394445E+04  3.105028E+05 -3.266478E+04 -5.334120E+03
       388   7  9.629520E+05  1.860604E+05  5.623666E+04  3.609718E+05 -9.743024E+03  1.591250E+03
       388   8  9.909889E+05  1.873126E+05  7.175769E+04  3.609099E+05 -2.129257E+04 -1.551477E+03
       388   9  1.012546E+06  2.284606E+05  1.019047E+05  3.740006E+05 -3.260782E+04 -5.312990E+03
       388  10  6.290438E+05  6.417115E+04 -3.203043E+04  2.736061E+05  6.081695E-09  8.399372E-09
       388  11  6.101014E+05  4.095219E+04 -3.013042E+04  2.537394E+05  2.185687E-09  8.098398E-10
       388  12  5.845782E+05  5.753323E+04 -1.402179E+04  2.470252E+05 -4.368025E-09 -7.768501E-10
       388  13  7.959847E+05  1.251152E+05  1.210427E+04  3.172838E+05 -2.380716E-09 -2.291750E-09
       388  14  8.005274E+05  1.141310E+05  2.081480E+04  3.073172E+05 -4.956334E-09  1.270266E-10
       388  15  7.985390E+05  1.429945E+05  4.394239E+04  3.105026E+05 -4.080162E-09  1.799806E-09
       388  16  9.629519E+05  1.860604E+05  5.623648E+04  3.609718E+05 -7.343640E-09  7.278237E-09
       388  17  9.909884E+05  1.873124E+05  7.175683E+04  3.609099E+05 -3.170281E-09  9.847509E-09
       388  18  1.012545E+06  2.284603E+05  1.019026E+05  3.740005E+05 -1.037503E-09  1.584161E-08
       388  19  6.290439E+05  6.417119E+04 -3.203021E+04  2.736061E+05  1.092857E+04 -1.141752E+03
       388  20  6.101019E+05  4.095233E+04 -3.012951E+04  2.537395E+05  2.194281E+04  1.797582E+03
       388  21  5.845794E+05  5.753354E+04 -1.401972E+04  2.470253E+05  3.272172E+04  5.355240E+03
       388  22  7.959848E+05  1.251152E+05  1.210448E+04  3.172838E+05  1.033588E+04 -1.366470E+03
       388  23  8.005279E+05  1.141312E+05  2.081568E+04  3.073172E+05  2.161775E+04  1.674551E+03
       388  24  7.985402E+05  1.429948E+05  4.394445E+04  3.105028E+05  3.266478E+04  5.334120E+03
       388  25  9.629520E+05  1.860604E+05  5.623666E+04  3.609718E+05  9.743024E+03 -1.591250E+03
       388  26  9.909889E+05  1.873126E+05  7.175769E+04  3.609099E+05  2.129257E+04  1.551477E+03
       388  27  1.012546E+06  2.284606E+05  1.019047E+05  3.740006E+05  3.260782E+04  5.312990E+03
       389   1  5.310622E+05  3.530083E+04 -1.558066E+04  2.671519E+05 -4.307231E+04 -7.345574E+03
       389   2  5.052664E+05 -2.686851E+04  1.157323E+04  2.216818E+05 -8.873251E+04 -2.329079E+04
       389   3  5.421753E+05  1.243072E+05  1.262020E+05  1.447051E+05 -1.317127E+05 -4.630977E+04
       389   4  8.052984E+05  1.205105E+05  5.386610E+04  3.237352E+05 -4.107018E+04 -6.585963E+03
       389   5  7.846259E+05  9.038052E+04  8.809660E+04  3.104082E+05 -8.977560E+04 -2.368798E+04
       389   6  8.272221E+05  2.741378E+05  2.121826E+05  2.655837E+05 -1.358020E+05 -4.786777E+04
       389   7  1.079608E+06  2.057197E+05  1.233073E+05  3.803383E+05 -3.906707E+04 -5.826130E+03
       389   8  1.064060E+06  2.076391E+05  1.646125E+05  3.991720E+05 -9.081920E+04 -2.408540E+04
       389   9  1.112349E+06  4.239975E+05  2.981546E+05  3.865188E+05 -1.398934E+05 -4.942721E+04
       389  10  5.310602E+05  3.530028E+04 -1.558424E+04  2.671517E+05  6.598160E-09  4.995881E-09
       389  11  5.052578E+05 -2.687120E+04  1.155743E+04  2.216802E+05  3.821333E-09  4.288468E-09
       389  12  5.421561E+05  1.243002E+05  1.261654E+05  1.447002E+05 -3.166592E-09 -1.301784E-09
       389  13  8.052966E+05  1.205100E+05  5.386286E+04  3.237349E+05 -5.505704E-09  6.526778E-09
       389  14  7.846171E+05  9.037776E+04  8.808043E+04  3.104065E+05  3.826586E-09 -4.058562E-09
       389  15  8.272017E+05  2.741305E+05  2.121437E+05  2.655785E+05 -2.738627E-09  3.879474E-09
       389  16  1.079606E+06  2.057193E+05  1.233044E+05  3.803381E+05 -1.130637E-08  1.081656E-08
       389  17  1.064051E+06  2.076363E+05  1.645960E+05  3.991702E+05 -3.164087E-09 -2.360290E-09
       389  18  1.112328E+06  4.239896E+05  2.981134E+05  3.865132E+05  2.062505E-09 -3.862904E-09
       389  19  5.310622E+05  3.530083E+04 -1.558066E+04  2.671519E+05  4.307231E+04  7.345574E+03
       389  20  5.052664E+05 -2.686851E+04  1.157323E+04  2.216818E+05  8.873251E+04  2.329079E+04
       389  21  5.421753E+05  1.243072E+05  1.262020E+05  1.447051E+05  1.317127E+05  4.630977E+04
       389  22  8.052984E+05  1.205105E+05  5.386610E+04  3.237352E+05  4.107018E+04  6.585963E+03
       389  23  7.846259E+05  9.038052E+04  8.809660E+04  3.104082E+05  8.977560E+04  2.368798E+04
       389  24  8.272221E+05  2.741378E+05  2.121826E+05  2.655837E+05  1.358020E+05  4.786777E+04
       389  25  1.079608E+06  2.057197E+05  1.233073E+05  3.803383E+05  3.906707E+04  5.826130E+03
       389  26  1.064060E+06  2.076391E+05  1.646125E+05  3.991720E+05  9.081920E+04  2.408540E+04
       389  27  1.112349E+06  4.239975E+05  2.981546E+05  3.865188E+05  1.398934E+05  4.942721E+04
       390   1 -1.919640E+05 -1.029821E+06 -1.959774E+05  9.005089E+04 -5.865009E+03 -2.517220E+04
       390   2 -1.278292E+05 -8.703814E+05 -1.398722E+05  2.139282E+04 -1.600074E+04 -1.117273E+04
       390   3 -9.237976E+04 -7.188433E+05 -9.986691E+04  8.052430E+04 -1.022807E+04  2.864494E+03
       390   4 -2.120532E+04 -3.460936E+05 -2.665833E+04  8.271098E+04 -5.884073E+03 -1.695976E+04
       390   5  3.230699E+03 -3.427496E+05 -1.262604E+04  1.884426E+04 -1.600186E+04 -1.019794E+04
       390   6  2.540295E+02 -3.460647E+05 -9.652272E+03  8.276163E+04 -1.021700E+04 -3.402050E+03
       390   7  1.495186E+05  3.380596E+05  1.426262E+05  7.536320E+04 -5.903322E+03 -8.738256E+03
       390   8  1.342703E+05  1.851371E+05  1.146002E+05  1.629365E+04 -1.600299E+04 -9.222309E+03
       390   9  9.287768E+04  2.684110E+04  8.055252E+04  8.500036E+04 -1.020598E+04 -9.672348E+03
       390  10 -1.919642E+05 -1.029822E+06 -1.959786E+05  9.005077E+04 -3.143918E-10 -3.495573E-09
       390  11 -1.278295E+05 -8.703816E+05 -1.398729E+05  2.139268E+04 -1.499434E-09 -2.880419E-09
       390  12 -9.237987E+04 -7.188434E+05 -9.986712E+04  8.052432E+04  1.119307E-09 -3.065598E-09
       390  13 -2.120543E+04 -3.460939E+05 -2.665893E+04  8.271090E+04  5.749596E-10  5.932626E-11
       390  14  3.230396E+03 -3.427498E+05 -1.262671E+04  1.884413E+04 -2.223825E-09  3.576015E-09
       390  15  2.539144E+02 -3.460648E+05 -9.652490E+03  8.276160E+04  3.751812E-10 -6.784767E-09
       390  16  1.495185E+05  3.380595E+05  1.426260E+05  7.536316E+04  8.117932E-12  8.426927E-09
       390  17  1.342700E+05  1.851369E+05  1.145995E+05  1.629353E+04 -1.006631E-09  2.988424E-09
       390  18  9.287754E+04  2.684097E+04  8.055215E+04  8.500028E+04  2.728011E-10 -3.632620E-09
       390  19 -1.919640E+05 -1.029821E+06 -1.959774E+05  9.005089E+04  5.865009E+03  2.517220E+04
       390  20 -1.278292E+05 -8.703814E+05 -1.398722E+05  2.139282E+04  1.600074E+04  1.117273E+04
       390  21 -9.237976E+04 -7.188433E+05 -9.986691E+04  8.052430E+04  1.022807E+04 -2.864494E+03
       390  22 -2.120532E+04 -3.460936E+05 -2.665833E+04  8.271098E+04  5.884073E+03  1.695976E+04
       390  23  3.230699E+03 -3.427496E+05 -1.262604E+04  1.884426E+04  1.600186E+04  1.019794E+04
       390  24  2.540295E+02 -3.460647E+05 -9.652272E+03  8.276163E+04  1.021700E+04  3.402050E+03
       390  25  1.495186E+05  3.380596E+05  1.426262E+05  7.536320E+04  5.903322E+03  8.738256E+03
       390  26  1.342703E+05  1.851371E+05  1.146002E+05  1.629365E+04  1.600299E+04  9.222309E+03
       390  27  9.287768E+04  2.684110E+04  8.055252E+04  8.500036E+04  1.020598E+04  9.672348E+03
       391   1 -3.632901E+04 -4.815597E+05 -4.202362E+04  8.429137E+04 -4.163207E+03  4.020152E+02
       391   2  5.845700E+03 -3.245708E+05 -3.782154E+03  1.849310E+04  5.507616E+02  4.734046E+03
       391   3  3.893123E+04 -1.698334E+05  2.947822E+04  8.119927E+04  5.200298E+03  9.067261E+03
       391   4 -2.429368E+03 -3.450575E+05 -9.116651E+03  8.290653E+04 -4.159677E+03 -1.764604E+03
       391   5  1.039515E+03 -3.439186E+05 -8.455214E+03  1.865216E+04  5.543257E+02  2.596756E+03
       391   6 -4.584364E+03 -3.450589E+05 -1.279381E+04  8.290286E+04  5.203849E+03  6.958232E+03
       391   7  3.146892E+04 -2.085382E+05  2.378901E+04  8.152138E+04 -4.156138E+03 -3.931699E+03
       391   8 -3.766694E+03 -3.632661E+05 -1.312828E+04  1.881121E+04  5.578888E+02  4.595337E+02
       391   9 -4.810219E+04 -5.202564E+05 -5.506802E+04  8.460598E+04  5.207389E+03  4.849796E+03
       391  10 -3.632903E+04 -4.815597E+05 -4.202366E+04  8.429137E+04 -2.147804E-10 -2.313618E-09
       391  11  5.845694E+03 -3.245709E+05 -3.782197E+03  1.849310E+04 -5.557277E-10 -2.884631E-09
       391  12  3.893118E+04 -1.698335E+05  2.947802E+04  8.119923E+04  2.183216E-09  1.311477E-09
       391  13 -2.429387E+03 -3.450575E+05 -9.116689E+03  8.290652E+04  3.427865E-11 -7.415853E-12
       391  14  1.039513E+03 -3.439186E+05 -8.455228E+03  1.865216E+04  2.814742E-10 -1.454239E-09
       391  15 -4.584406E+03 -3.450590E+05 -1.279395E+04  8.290283E+04  1.082219E-09 -1.183706E-08
       391  16  3.146890E+04 -2.085382E+05  2.378895E+04  8.152137E+04  1.134343E-09  5.283251E-09
       391  17 -3.766694E+03 -3.632661E+05 -1.312829E+04  1.881121E+04 -2.260390E-09 -3.227984E-09
       391  18 -4.810222E+04 -5.202564E+05 -5.506811E+04  8.460596E+04 -1.246510E-09 -1.657182E-09
       391  19 -3.632901E+04 -4.815597E+05 -4.202362E+04  8.429137E+04  4.163207E+03 -4.020152E+02
       391  20  5.845700E+03 -3.245708E+05 -3.782154E+03  1.849310E+04 -5.507616E+02 -4.734046E+03
       391  21  3.893123E+04 -1.698334E+05  2.947822E+04  8.119927E+04 -5.200298E+03 -9.067261E+03
       391  22 -2.429368E+03 -3.450575E+05 -9.116651E+03  8.290653E+04  4.159677E+03  1.764604E+03
       391  23  1.039515E+03 -3.439186E+05 -8.455214E+03  1.865216E+04 -5.543257E+02 -2.596756E+03
       391  24 -4.584364E+03 -3.450589E+05 -1.279381E+04  8.290286E+04 -5.203849E+03 -6.958232E+03
       391  25  3.146892E+04 -2.085382E+05  2.378901E+04  8.152138E+04  4.156138E+03  3.931699E+03
       391  26 -3.766694E+03 -3.632661E+05 -1.312828E+04  1.881121E+04 -5.578888E+02 -4.595337E+02
       391  27 -4.810219E+04 -5.202564E+05 -5.506802E+04  8.460598E+04 -5.207389E+03 -4.849796E+03
       392   1  1.035889E+05  6.412006E+04  8.468563E+04  8.716822E+04  1.134878E+04  1.580255E+04
       392   2  1.466872E+05  2.254545E+05  1.143395E+05  1.472871E+04  1.712829E+04  2.019355E+04
       392   3  1.409427E+05  3.751926E+05  1.291645E+05  6.994467E+04  6.234366E+03  2.454876E+04
       392   4  1.373747E+03 -3.474687E+05 -1.484494E+04  8.275001E+04  1.136038E+04  9.355273E+03
       392   5  6.065718E+03 -3.410104E+05 -2.218929E+04  1.886800E+04  1.712693E+04  2.134216E+04
       392   6 -3.942693E+04 -3.475027E+05 -4.964955E+04  8.265059E+04  6.213474E+03  3.329191E+04
       392   7 -1.008537E+05 -7.589024E+05 -1.143875E+05  7.833479E+04  1.137207E+04  2.912260E+03
       392   8 -1.345791E+05 -9.071817E+05 -1.587410E+05  2.300365E+04  1.712559E+04  2.248971E+04
       392   9 -2.198350E+05 -1.069723E+06 -2.285021E+05  9.534198E+04  6.192928E+03  4.202487E+04
       392  10  1.035887E+05  6.411975E+04  8.468492E+04  8.716808E+04  2.266978E-09 -2.275578E-09
       392  11  1.466868E+05  2.254539E+05  1.143382E+05  1.472843E+04  3.430699E-10 -1.689943E-09
       392  12  1.409425E+05  3.751920E+05  1.291633E+05  6.994455E+04 -1.293273E-09 -1.750329E-09
       392  13  1.373585E+03 -3.474688E+05 -1.484535E+04  8.274992E+04 -8.567575E-10 -2.207011E-09
       392  14  6.065281E+03 -3.410110E+05 -2.219070E+04  1.886770E+04 -6.572157E-10  3.897567E-09
       392  15 -3.942727E+04 -3.475039E+05 -4.965171E+04  8.265042E+04 -1.225249E-09 -7.719729E-09
       392  16 -1.008538E+05 -7.589024E+05 -1.143878E+05  7.833476E+04  1.325094E-10  7.613587E-09
       392  17 -1.345796E+05 -9.071823E+05 -1.587425E+05  2.300334E+04 -2.334609E-09 -6.202697E-09
       392  18 -2.198355E+05 -1.069725E+06 -2.285055E+05  9.534177E+04 -1.371296E-09  9.026398E-10
       392  19  1.035889E+05  6.412006E+04  8.468563E+04  8.716822E+04 -1.134878E+04 -1.580255E+04
       392  20  1.466872E+05  2.254545E+05  1.143395E+05  1.472871E+04 -1.712829E+04 -2.019355E+04
       392  21  1.409427E+05  3.751926E+05  1.291645E+05  6.994467E+04 -6.234366E+03 -2.454876E+04
       392  22  1.373747E+03 -3.474687E+05 -1.484494E+04  8.275001E+04 -1.136038E+04 -9.355273E+03
       392  23  6.065718E+03 -3.410104E+05 -2.218929E+04  1.886800E+04 -1.712693E+04 -2.134216E+04
       392  24 -3.942693E+04 -3.475027E+05 -4.964955E+04  8.265059E+04 -6.213474E+03 -3.329191E+04
       392  25 -1.008537E+05 -7.589024E+05 -1.143875E+05  7.833479E+04 -1.137207E+04 -2.912260E+03
       392  26 -1.345791E+05 -9.071817E+05 -1.587410E+05  2.300365E+04 -1.712559E+04 -2.248971E+04
       392  27 -2.198350E+05 -1.069723E+06 -2.285021E+05  9.534198E+04 -6.192928E+03 -4.202487E+04
       393   1  9.877017E+05 -1.200020E+04 -1.301896E+03 -1.501861E+03  3.071201E+04  8.381266E+02
       393   2  9.886706E+05 -5.293319E+04 -2.525252E+04  4.523878E+03  2.039204E+04  2.276753E+03
       393   3  1.003787E+06 -4.414375E+04 -2.998571E+04 -7.386895E+03  1.007435E+04  1.773135E+03
       393   4  1.175837E+06  3.494470E+04  4.558566E+04 -5.345491E+03  3.112636E+04  8.385414E+02
       393   5  1.168746E+06 -8.019712E+03  1.946570E+04  3.649594E+03  2.047685E+04  2.276780E+03
       393   6  1.175855E+06 -1.212286E+03  1.278755E+04 -5.291450E+03  9.829758E+03  1.772923E+03
       393   7  1.364004E+06  8.188700E+04  9.247056E+04 -9.190298E+03  3.154083E+04  8.389511E+02
       393   8  1.348850E+06  3.689134E+04  6.418150E+04  2.775049E+03  2.056168E+04  2.276807E+03
       393   9  1.347950E+06  4.171697E+04  5.555861E+04 -3.195432E+03  9.585097E+03  1.772708E+03
       393  10  9.877007E+05 -1.200046E+04 -1.303667E+03 -1.501881E+03 -1.002041E-10 -1.089898E-11
       393  11  9.886702E+05 -5.293330E+04 -2.525331E+04  4.523840E+03 -3.787075E-10 -1.393543E-11
       393  12  1.003787E+06 -4.414378E+04 -2.998591E+04 -7.386909E+03  6.281347E-11  2.539985E-10
       393  13  1.175836E+06  3.494444E+04  4.558384E+04 -5.345512E+03  8.569355E-12 -1.067654E-10
       393  14  1.168745E+06 -8.019830E+03  1.946491E+04  3.649557E+03  4.730276E-12 -1.978177E-10
       393  15  1.175855E+06 -1.212316E+03  1.278737E+04 -5.291464E+03  1.598304E-11 -7.020455E-11
       393  16  1.364003E+06  8.188673E+04  9.246870E+04 -9.190319E+03  5.214018E-10 -2.410863E-10
       393  17  1.348850E+06  3.689122E+04  6.418070E+04  2.775011E+03 -4.401936E-10 -5.170678E-11
       393  18  1.347950E+06  4.171694E+04  5.555843E+04 -3.195446E+03  4.163561E-11 -2.639512E-10
       393  19  9.877017E+05 -1.200020E+04 -1.301896E+03 -1.501861E+03 -3.071201E+04 -8.381266E+02
       393  20  9.886706E+05 -5.293319E+04 -2.525252E+04  4.523878E+03 -2.039204E+04 -2.276753E+03
       393  21  1.003787E+06 -4.414375E+04 -2.998571E+04 -7.386895E+03 -1.007435E+04 -1.773135E+03
       393  22  1.175837E+06  3.494470E+04  4.558566E+04 -5.345491E+03 -3.112636E+04 -8.385414E+02
       393  23  1.168746E+06 -8.019712E+03  1.946570E+04  3.649594E+03 -2.047685E+04 -2.276780E+03
       393  24  1.175855E+06 -1.212286E+03  1.278755E+04 -5.291450E+03 -9.829758E+03 -1.772923E+03
       393  25  1.364004E+06  8.188700E+04  9.247056E+04 -9.190298E+03 -3.154083E+04 -8.389511E+02
       393  26  1.348850E+06  3.689134E+04  6.418150E+04  2.775049E+03 -2.056168E+04 -2.276807E+03
       393  27  1.347950E+06  4.171697E+04  5.555861E+04 -3.195432E+03 -9.585097E+03 -1.772708E+03
       394   1  1.051223E+06 -2.521929E+04 -1.974896E+04 -3.622742E+03  7.696783E+03  1.303390E+03
       394   2  1.055708E+06 -3.022292E+04 -2.384136E+04  2.278127E+03  5.075855E+03  1.300720E+03
       394   3  1.062546E+06 -2.778676E+04 -2.433898E+04 -4.456428E+03  2.454949E+03  1.078859E+03
       394   4  1.173223E+06  5.214112E+03  1.057161E+04 -4.132989E+03  7.716110E+03  1.303381E+03
       394   5  1.172046E+06 -1.202723E+03  5.065302E+03  2.186552E+03  5.057849E+03  1.300694E+03
       394   6  1.173226E+06 -1.740470E+02  3.179163E+03 -4.129178E+03  2.399635E+03  1.078832E+03
       394   7  1.295238E+06  3.564640E+04  4.089106E+04 -4.643339E+03  7.735441E+03  1.303372E+03
       394   8  1.288395E+06  2.781646E+04  3.397095E+04  2.094958E+03  5.039840E+03  1.300668E+03
       394   9  1.283918E+06  2.743775E+04  3.069640E+04 -3.801871E+03  2.344311E+03  1.078804E+03
       394  10  1.051223E+06 -2.521931E+04 -1.974907E+04 -3.622750E+03  9.256218E-11 -3.368963E-11
       394  11  1.055708E+06 -3.022293E+04 -2.384141E+04  2.278121E+03 -2.340833E-10  3.781363E-10
       394  12  1.062546E+06 -2.778676E+04 -2.433900E+04 -4.456430E+03  5.708896E-11  2.077239E-10
       394  13  1.173223E+06  5.214095E+03  1.057149E+04 -4.132997E+03 -7.703007E-11  1.016643E-10
       394  14  1.172046E+06 -1.202732E+03  5.065251E+03  2.186547E+03 -3.249808E-11  1.481122E-10
       394  15  1.173226E+06 -1.740498E+02  3.179150E+03 -4.129180E+03  5.599656E-11  2.337966E-10
       394  16  1.295237E+06  3.564638E+04  4.089095E+04 -4.643348E+03  7.603238E-11  5.444094E-11
       394  17  1.288395E+06  2.781645E+04  3.397090E+04  2.094953E+03 -2.302049E-10  4.775900E-10
       394  18  1.283918E+06  2.743775E+04  3.069638E+04 -3.801873E+03  7.206262E-11  3.828326E-10
       394  19  1.051223E+06 -2.521929E+04 -1.974896E+04 -3.622742E+03 -7.696783E+03 -1.303390E+03
       394  20  1.055708E+06 -3.022292E+04 -2.384136E+04  2.278127E+03 -5.075855E+03 -1.300720E+03
       394  21  1.062546E+06 -2.778676E+04 -2.433898E+04 -4.456428E+03 -2.454949E+03 -1.078859E+03
       394  22  1.173223E+06  5.214112E+03  1.057161E+04 -4.132989E+03 -7.716110E+03 -1.303381E+03
       394  23  1.172046E+06 -1.202723E+03  5.065302E+03  2.186552E+03 -5.057849E+03 -1.300694E+03
       394  24  1.173226E+06 -1.740470E+02  3.179163E+03 -4.129178E+03 -2.399635E+03 -1.078832E+03
       394  25  1.295238E+06  3.564640E+04  4.089106E+04 -4.643339E+03 -7.735441E+03 -1.303372E+03
       394  26  1.288395E+06  2.781646E+04  3.397095E+04  2.094958E+03 -5.039840E+03 -1.300668E+03
       394  27  1.283918E+06  2.743775E+04  3.069640E+04 -3.801871E+03 -2.344311E+03 -1.078804E+03
       395   1  1.098158E+06 -1.784672E+04 -1.597860E+04 -3.327888E+03  1.907170E+03  9.244528E+02
       395   2  1.102124E+06 -1.775872E+04 -1.614021E+04  1.278652E+03  1.204667E+03  7.643952E+02
       395   3  1.106512E+06 -1.655021E+04 -1.555452E+04 -3.438360E+03  5.021193E+02  6.161491E+02
       395   4  1.172798E+06  7.695652E+02  2.556844E+03 -3.394494E+03  1.879427E+03  9.244397E+02
       395   5  1.172586E+06 -1.818719E+02  1.369751E+03  1.267329E+03  1.178837E+03  7.643874E+02
       395   6  1.172798E+06 -1.317735E+01  9.285894E+02 -3.394334E+03  4.782066E+02  6.161460E+02
       395   7  1.247442E+06  1.938543E+04  2.109187E+04 -3.461109E+03  1.851681E+03  9.244266E+02
       395   8  1.243053E+06  1.739460E+04  1.887934E+04  1.256005E+03  1.153004E+03  7.643796E+02
       395   9  1.239087E+06  1.652352E+04  1.741137E+04 -3.350302E+03  4.542914E+02  6.161429E+02
       395  10  1.098158E+06 -1.784672E+04 -1.597861E+04 -3.327889E+03  2.558388E-11  2.476680E-11
       395  11  1.102124E+06 -1.775872E+04 -1.614022E+04  1.278651E+03  3.987993E-11  1.620652E-10
       395  12  1.106512E+06 -1.655021E+04 -1.555452E+04 -3.438361E+03 -1.099425E-12  2.442043E-10
       395  13  1.172798E+06  7.695633E+02  2.556836E+03 -3.394495E+03 -2.647771E-11  8.114531E-11
       395  14  1.172586E+06 -1.818729E+02  1.369747E+03  1.267328E+03 -3.367555E-11 -5.342524E-11
       395  15  1.172798E+06 -1.317782E+01  9.285882E+02 -3.394334E+03  4.011536E-11 -4.585680E-11
       395  16  1.247442E+06  1.938543E+04  2.109186E+04 -3.461110E+03  2.421773E-11  5.181222E-11
       395  17  1.243053E+06  1.739460E+04  1.887934E+04  1.256004E+03 -5.309961E-11 -2.411707E-10
       395  18  1.239087E+06  1.652352E+04  1.741137E+04 -3.350302E+03  3.743818E-11  2.914109E-10
       395  19  1.098158E+06 -1.784672E+04 -1.597860E+04 -3.327888E+03 -1.907170E+03 -9.244528E+02
       395  20  1.102124E+06 -1.775872E+04 -1.614021E+04  1.278652E+03 -1.204667E+03 -7.643952E+02
       395  21  1.106512E+06 -1.655021E+04 -1.555452E+04 -3.438360E+03 -5.021193E+02 -6.161491E+02
       395  22  1.172798E+06  7.695652E+02  2.556844E+03 -3.394494E+03 -1.879427E+03 -9.244397E+02
       395  23  1.172586E+06 -1.818719E+02  1.369751E+03  1.267329E+03 -1.178837E+03 -7.643874E+02
       395  24  1.172798E+06 -1.317735E+01  9.285894E+02 -3.394334E+03 -4.782066E+02 -6.161460E+02
       395  25  1.247442E+06  1.938543E+04  2.109187E+04 -3.461109E+03 -1.851681E+03 -9.244266E+02
       395  26  1.243053E+06  1.739460E+04  1.887934E+04  1.256005E+03 -1.153004E+03 -7.643796E+02
       395  27  1.239087E+06  1.652352E+04  1.741137E+04 -3.350302E+03 -4.542914E+02 -6.161429E+02
       396   1  1.133983E+06 -9.553197E+03 -8.812484E+03 -2.961030E+03  3.474456E+02  5.281268E+02
       396   2  1.137258E+06 -8.876697E+03 -8.134061E+03  7.526356E+02  8.739430E+00  3.814512E+02
       396   3  1.140654E+06 -7.934942E+03 -7.167167E+03 -2.983782E+03 -3.299918E+02  2.582583E+02
       396   4  1.172731E+06  1.100234E+02  8.045162E+02 -2.978056E+03  3.208033E+02  5.281272E+02
       396   5  1.172672E+06 -4.302015E+01  6.662356E+02  7.469744E+02 -1.397027E+01  3.814534E+02
       396   6  1.172731E+06  6.849046E+01  8.136748E+02 -2.978052E+03 -3.487670E+02  2.582616E+02
       396   7  1.211481E+06  9.773131E+03  1.042140E+04 -2.995083E+03  2.941593E+02  5.281277E+02
       396   8  1.208086E+06  8.790563E+03  9.466438E+03  7.413129E+02 -3.668125E+01  3.814556E+02
       396   9  1.204809E+06  8.071845E+03  8.794440E+03 -2.972321E+03 -3.675432E+02  2.582650E+02
       396  10  1.133983E+06 -9.553197E+03 -8.812485E+03 -2.961030E+03  9.351649E-11  4.426016E-11
       396  11  1.137258E+06 -8.876697E+03 -8.134061E+03  7.526356E+02  2.370970E-10  1.357758E-10
       396  12  1.140654E+06 -7.934942E+03 -7.167168E+03 -2.983782E+03 -1.790145E-10  3.721960E-11
       396  13  1.172731E+06  1.100231E+02  8.045154E+02 -2.978056E+03  8.661383E-11 -3.354596E-11
       396  14  1.172672E+06 -4.302031E+01  6.662353E+02  7.469744E+02 -1.924626E-11  2.494846E-10
       396  15  1.172731E+06  6.849035E+01  8.136745E+02 -2.978052E+03 -1.544377E-10  2.266783E-10
       396  16  1.211481E+06  9.773131E+03  1.042140E+04 -2.995084E+03  1.165712E-10 -1.700484E-10
       396  17  1.208086E+06  8.790563E+03  9.466438E+03  7.413130E+02  6.024466E-11 -1.209362E-10
       396  18  1.204809E+06  8.071845E+03  8.794440E+03 -2.972321E+03  5.122492E-11  1.083319E-10
       396  19  1.133983E+06 -9.553197E+03 -8.812484E+03 -2.961030E+03 -3.474456E+02 -5.281268E+02
       396  20  1.137258E+06 -8.876697E+03 -8.134061E+03  7.526356E+02 -8.739430E+00 -3.814512E+02
       396  21  1.140654E+06 -7.934942E+03 -7.167167E+03 -2.983782E+03  3.299918E+02 -2.582583E+02
       396  22  1.172731E+06  1.100234E+02  8.045162E+02 -2.978056E+03 -3.208033E+02 -5.281272E+02
       396  23  1.172672E+06 -4.302015E+01  6.662356E+02  7.469744E+02  1.397027E+01 -3.814534E+02
       396  24  1.172731E+06  6.849046E+01  8.136748E+02 -2.978052E+03  3.487670E+02 -2.582616E+02
       396  25  1.211481E+06  9.773131E+03  1.042140E+04 -2.995083E+03 -2.941593E+02 -5.281277E+02
       396  26  1.208086E+06  8.790563E+03  9.466438E+03  7.413129E+02  3.668125E+01 -3.814556E+02
       396  27  1.204809E+06  8.071845E+03  8.794440E+03 -2.972321E+03  3.675432E+02 -2.582650E+02
       397   1  1.163950E+06 -2.194522E+03 -1.227693E+03 -2.782427E+03 -4.869829E+02  1.885444E+02
       397   2  1.166824E+06 -1.564149E+03  4.525232E+00  5.398218E+02 -1.218121E+03  6.223007E+01
       397   3  1.169968E+06 -2.156884E+02  1.890802E+03 -2.857528E+03 -1.949264E+03 -5.618405E+01
       397   4  1.172765E+06  2.233352E+00  9.525584E+02 -2.815774E+03 -5.089314E+02  1.885496E+02
       397   5  1.172629E+06 -1.159730E+02  1.447284E+03  5.440867E+02 -1.238746E+03  6.223520E+01
       397   6  1.172764E+06  4.836752E+02  2.595149E+03 -2.815647E+03 -1.968563E+03 -5.617907E+01
       397   7  1.181580E+06  2.198983E+03  3.132804E+03 -2.849122E+03 -5.308801E+02  1.885548E+02
       397   8  1.178435E+06  1.332200E+03  2.890040E+03  5.483516E+02 -1.259372E+03  6.224033E+01
       397   9  1.175561E+06  1.183038E+03  3.299495E+03 -2.773766E+03 -1.987861E+03 -5.617409E+01
       397  10  1.163950E+06 -2.194523E+03 -1.227694E+03 -2.782427E+03 -1.851551E-10  2.213651E-10
       397  11  1.166824E+06 -1.564149E+03  4.522442E+00  5.398219E+02  1.343686E-10 -7.883568E-12
       397  12  1.169968E+06 -2.156894E+02  1.890795E+03 -2.857528E+03 -1.478291E-10  6.185110E-10
       397  13  1.172765E+06  2.233244E+00  9.525578E+02 -2.815774E+03 -2.405662E-10  1.545701E-10
       397  14  1.172629E+06 -1.159735E+02  1.447281E+03  5.440867E+02 -1.922397E-11  1.879569E-10
       397  15  1.172764E+06  4.836741E+02  2.595141E+03 -2.815647E+03 -9.866128E-11  4.282906E-10
       397  16  1.181580E+06  2.198983E+03  3.132804E+03 -2.849122E+03  4.684615E-11  2.256147E-10
       397  17  1.178435E+06  1.332199E+03  2.890037E+03  5.483516E+02  3.600815E-11 -2.834723E-10
       397  18  1.175561E+06  1.183037E+03  3.299487E+03 -2.773766E+03  5.891062E-11  2.201045E-10
       397  19  1.163950E+06 -2.194522E+03 -1.227693E+03 -2.782427E+03  4.869829E+02 -1.885444E+02
       397  20  1.166824E+06 -1.564149E+03  4.525232E+00  5.398218E+02  1.218121E+03 -6.223007E+01
       397  21  1.169968E+06 -2.156884E+02  1.890802E+03 -2.857528E+03  1.949264E+03  5.618405E+01
       397  22  1.172765E+06  2.233352E+00  9.525584E+02 -2.815774E+03  5.089314E+02 -1.885496E+02
       397  23  1.172629E+06 -1.159730E+02  1.447284E+03  5.440867E+02  1.238746E+03 -6.223520E+01
       397  24  1.172764E+06  4.836752E+02  2.595149E+03 -2.815647E+03  1.968563E+03  5.617907E+01
       397  25  1.181580E+06  2.198983E+03  3.132804E+03 -2.849122E+03  5.308801E+02 -1.885548E+02
       397  26  1.178435E+06  1.332200E+03  2.890040E+03  5.483516E+02  1.259372E+03 -6.224033E+01
       397  27  1.175561E+06  1.183038E+03  3.299495E+03 -2.773766E+03  1.987861E+03  5.617409E+01
       398   1  1.192811E+06  4.829806E+03  8.212765E+03 -2.689484E+03 -2.480571E+03 -1.262553E+02
       398   2  1.195187E+06  4.958151E+03  1.113009E+04  5.571578E+02 -5.264829E+03 -2.489852E+02
       398   3  1.199097E+06  9.774211E+03  1.702973E+04 -3.218540E+03 -8.049053E+03 -3.650109E+02
       398   4  1.173046E+06 -1.021988E+02  3.291770E+03 -2.883232E+03 -2.501841E+03 -1.262493E+02
       398   5  1.172277E+06 -7.564682E+02  5.437402E+03  6.282447E+02 -5.284881E+03 -2.489821E+02
       398   6  1.173042E+06  3.276879E+03  1.056460E+04 -2.882638E+03 -8.067872E+03 -3.650129E+02
       398   7  1.153280E+06 -5.034233E+03 -1.629254E+03 -3.076973E+03 -2.523111E+03 -1.262433E+02
       398   8  1.149367E+06 -6.471126E+03 -2.553285E+02  6.993289E+02 -5.304931E+03 -2.489790E+02
       398   9  1.146988E+06 -3.220503E+03  4.099413E+03 -2.546749E+03 -8.086689E+03 -3.650149E+02
       398  10  1.192811E+06  4.829804E+03  8.212754E+03 -2.689484E+03  6.874830E-11  4.550170E-10
       398  11  1.195187E+06  4.958143E+03  1.113004E+04  5.571568E+02  2.523391E-10 -2.505270E-10
       398  12  1.199097E+06  9.774193E+03  1.702961E+04 -3.218542E+03  1.686088E-10  2.958264E-10
       398  13  1.173045E+06 -1.022005E+02  3.291759E+03 -2.883232E+03  1.731478E-10 -2.511489E-11
       398  14  1.172277E+06 -7.564757E+02  5.437349E+03  6.282436E+02  2.404446E-10 -2.660163E-10
       398  15  1.173042E+06  3.276861E+03  1.056448E+04 -2.882640E+03  7.375978E-11 -6.897937E-11
       398  16  1.153280E+06 -5.034234E+03 -1.629266E+03 -3.076973E+03 -2.941384E-12 -1.629527E-10
       398  17  1.149367E+06 -6.471134E+03 -2.553815E+02  6.993278E+02  9.358154E-11 -5.293020E-10
       398  18  1.146988E+06 -3.220521E+03  4.099290E+03 -2.546752E+03 -1.377679E-10 -1.946468E-10
       398  19  1.192811E+06  4.829806E+03  8.212765E+03 -2.689484E+03  2.480571E+03  1.262553E+02
       398  20  1.195187E+06  4.958151E+03  1.113009E+04  5.571578E+02  5.264829E+03  2.489852E+02
       398  21  1.199097E+06  9.774211E+03  1.702973E+04 -3.218540E+03  8.049053E+03  3.650109E+02
       398  22  1.173046E+06 -1.021988E+02  3.291770E+03 -2.883232E+03  2.501841E+03  1.262493E+02
       398  23  1.172277E+06 -7.564682E+02  5.437402E+03  6.282447E+02  5.284881E+03  2.489821E+02
       398  24  1.173042E+06  3.276879E+03  1.056460E+04 -2.882638E+03  8.067872E+03  3.650129E+02
       398  25  1.153280E+06 -5.034233E+03 -1.629254E+03 -3.076973E+03  2.523111E+03  1.262433E+02
       398  26  1.149367E+06 -6.471126E+03 -2.553285E+02  6.993289E+02  5.304931E+03  2.489790E+02
       398  27  1.146988E+06 -3.220503E+03  4.099413E+03 -2.546749E+03  8.086689E+03  3.650149E+02
       399   1  1.226157E+06  1.207637E+04  2.598412E+04 -1.916141E+03 -1.018378E+04 -4.657795E+02
       399   2  1.225252E+06  8.694776E+03  3.497169E+04  4.321550E+02 -2.136154E+04 -6.180952E+02
       399   3  1.233675E+06  3.671334E+04  5.908216E+04 -5.626224E+03 -3.253957E+04 -6.445089E+02
       399   4  1.174776E+06 -7.411113E+02  1.320725E+04 -3.190485E+03 -1.021964E+04 -4.657562E+02
       399   5  1.170105E+06 -5.060087E+03  2.127115E+04  1.012210E+03 -2.137535E+04 -6.181181E+02
       399   6  1.174760E+06  2.201877E+04  4.444364E+04 -3.191777E+03 -3.253126E+04 -6.446397E+02
       399   7  1.123398E+06 -1.355878E+04  4.301838E+02 -4.464723E+03 -1.025549E+04 -4.657327E+02
       399   8  1.114961E+06 -1.881518E+04  7.570391E+03  1.592213E+03 -2.138916E+04 -6.181410E+02
       399   9  1.115848E+06  7.323965E+03  2.980486E+04 -7.575603E+02 -3.252296E+04 -6.447704E+02
       399  10  1.226157E+06  1.207634E+04  2.598393E+04 -1.916145E+03  3.023675E-11  7.596169E-11
       399  11  1.225251E+06  8.694653E+03  3.497083E+04  4.321444E+02  1.041446E-10 -1.403009E-10
       399  12  1.233674E+06  3.671306E+04  5.908017E+04 -5.626241E+03  5.039865E-11  4.006625E-10
       399  13  1.174776E+06 -7.411396E+02  1.320706E+04 -3.190488E+03 -2.906066E-10  8.456627E-11
       399  14  1.170105E+06 -5.060210E+03  2.127030E+04  1.012199E+03 -8.198225E-11  2.315507E-10
       399  15  1.174759E+06  2.201849E+04  4.444165E+04 -3.191794E+03 -1.549250E-10  3.216799E-10
       399  16  1.123398E+06 -1.355881E+04  4.299861E+02 -4.464727E+03  9.570972E-11  4.620284E-11
       399  17  1.114961E+06 -1.881530E+04  7.569533E+03  1.592203E+03 -2.299629E-10  3.582416E-10
       399  18  1.115847E+06  7.323681E+03  2.980288E+04 -7.575771E+02 -7.466389E-11  7.523335E-10
       399  19  1.226157E+06  1.207637E+04  2.598412E+04 -1.916141E+03  1.018378E+04  4.657795E+02
       399  20  1.225252E+06  8.694776E+03  3.497169E+04  4.321550E+02  2.136154E+04  6.180952E+02
       399  21  1.233675E+06  3.671334E+04  5.908216E+04 -5.626224E+03  3.253957E+04  6.445089E+02
       399  22  1.174776E+06 -7.411113E+02  1.320725E+04 -3.190485E+03  1.021964E+04  4.657562E+02
       399  23  1.170105E+06 -5.060087E+03  2.127115E+04  1.012210E+03  2.137535E+04  6.181181E+02
       399  24  1.174760E+06  2.201877E+04  4.444364E+04 -3.191777E+03  3.253126E+04  6.446397E+02
       399  25  1.123398E+06 -1.355878E+04  4.301838E+02 -4.464723E+03  1.025549E+04  4.657327E+02
       399  26  1.114961E+06 -1.881518E+04  7.570391E+03  1.592213E+03  2.138916E+04  6.181410E+02
       399  27  1.115848E+06  7.323965E+03  2.980486E+04 -7.575603E+02  3.252296E+04  6.447704E+02
       400   1  1.276527E+06  1.758133E+04  7.632370E+04  4.584165E+03 -4.127059E+04 -9.174382E+02
       400   2  1.252326E+06 -9.827553E+03  1.058232E+05 -2.577788E+03 -8.628517E+04 -1.229821E+03
       400   3  1.286424E+06  1.722603E+05  2.169853E+05 -2.091129E+04 -1.312999E+05 -4.867674E+02
       400   4  1.185659E+06 -5.087754E+03  5.373737E+04 -3.783927E+03 -4.140656E+04 -9.169112E+02
       400   5  1.156479E+06 -3.372781E+04  8.202658E+04  1.765731E+03 -8.623778E+04 -1.230423E+03
       400   6  1.185575E+06  1.471137E+05  1.918604E+05 -3.855662E+03 -1.310687E+05 -4.902673E+02
       400   7  1.094799E+06 -2.775719E+04  3.115046E+04 -1.215080E+04 -4.154251E+04 -9.163805E+02
       400   8  1.060640E+06 -5.762868E+04  5.822929E+04  6.108580E+03 -8.619039E+04 -1.231025E+03
       400   9  1.084735E+06  1.219675E+05  1.667348E+05  1.319720E+04 -1.308376E+05 -4.937551E+02
       400  10  1.276525E+06  1.758087E+04  7.632050E+04  4.584135E+03  2.695907E-10  1.734543E-10
       400  11  1.252318E+06 -9.829548E+03  1.058092E+05 -2.577873E+03 -7.311995E-11 -3.275547E-11
       400  12  1.286405E+06  1.722557E+05  2.169530E+05 -2.091134E+04 -5.746355E-11 -2.486562E-11
       400  13  1.185657E+06 -5.088214E+03  5.373415E+04 -3.783958E+03 -1.347275E-10  1.685766E-10
       400  14  1.156471E+06 -3.372980E+04  8.201262E+04  1.765646E+03  8.294563E-11 -2.435830E-10
       400  15  1.185556E+06  1.471091E+05  1.918281E+05 -3.855714E+03 -3.402509E-10 -2.073894E-10
       400  16  1.094797E+06 -2.775766E+04  3.114723E+04 -1.215083E+04 -1.044192E-10  5.617941E-10
       400  17  1.060633E+06 -5.763068E+04  5.821535E+04  6.108495E+03 -1.217926E-10  1.329337E-11
       400  18  1.084717E+06  1.219629E+05  1.667027E+05  1.319714E+04  1.921350E-10  5.166714E-11
       400  19  1.276527E+06  1.758133E+04  7.632370E+04  4.584165E+03  4.127059E+04  9.174382E+02
       400  20  1.252326E+06 -9.827553E+03  1.058232E+05 -2.577788E+03  8.628517E+04  1.229821E+03
       400  21  1.286424E+06  1.722603E+05  2.169853E+05 -2.091129E+04  1.312999E+05  4.867674E+02
       400  22  1.185659E+06 -5.087754E+03  5.373737E+04 -3.783927E+03  4.140656E+04  9.169112E+02
       400  23  1.156479E+06 -3.372781E+04  8.202658E+04  1.765731E+03  8.623778E+04  1.230423E+03
       400  24  1.185575E+06  1.471137E+05  1.918604E+05 -3.855662E+03  1.310687E+05  4.902673E+02
       400  25  1.094799E+06 -2.775719E+04  3.115046E+04 -1.215080E+04  4.154251E+04  9.163805E+02
       400  26  1.060640E+06 -5.762868E+04  5.822929E+04  6.108580E+03  8.619039E+04  1.231025E+03
       400  27  1.084735E+06  1.219675E+05  1.667348E+05  1.319720E+04  1.308376E+05  4.937551E+02
       401   1  2.335459E+05 -1.693303E+04 -9.998658E+03 -1.676718E+03  1.978664E+04  6.749459E+02
       401   2  2.341333E+05 -4.344238E+04 -2.547989E+04  2.155001E+03  1.316865E+04  1.913575E+03
       401   3  2.438739E+05 -3.774644E+04 -2.855389E+04 -5.508595E+03  6.551199E+03  1.540168E+03
       401   4  3.919323E+05  2.263229E+04  2.951068E+04 -4.247410E+03  2.013424E+04  6.750097E+02
       401   5  3.873346E+05 -5.196971E+03  1.259826E+04  1.505204E+03  1.324380E+04  1.913545E+03
       401   6  3.919352E+05 -7.778576E+02  8.279972E+03 -4.237344E+03  6.353965E+03  1.540177E+03
       401   7  5.503414E+05  6.219573E+04  6.901813E+04 -6.818761E+03  2.048193E+04  6.750707E+02
       401   8  5.405572E+05  3.304668E+04  5.067466E+04  8.552455E+02  1.331897E+04  1.913515E+03
       401   9  5.400164E+05  3.618908E+04  4.511219E+04 -2.965789E+03  6.156683E+03  1.540186E+03
       401  10  2.335454E+05 -1.693313E+04 -9.999394E+03 -1.676729E+03  2.368538E-10  9.922643E-11
       401  11  2.341331E+05 -4.344243E+04 -2.548023E+04  2.154981E+03  1.300658E-10 -2.324332E-10
       401  12  2.438738E+05 -3.774645E+04 -2.855398E+04 -5.508603E+03 -2.286848E-10 -3.363907E-10
       401  13  3.919318E+05  2.263218E+04  2.950992E+04 -4.247421E+03 -4.325932E-11 -7.574559E-11
       401  14  3.873344E+05 -5.197022E+03  1.259792E+04  1.505184E+03  3.280010E-14 -2.492218E-10
       401  15  3.919352E+05 -7.778710E+02  8.279892E+03 -4.237352E+03  8.931437E-11 -2.079220E-10
       401  16  5.503410E+05  6.219562E+04  6.901734E+04 -6.818772E+03  1.020419E-10  5.201153E-11
       401  17  5.405570E+05  3.304662E+04  5.067432E+04  8.552250E+02  3.937410E-11 -2.631193E-11
       401  18  5.400164E+05  3.618907E+04  4.511212E+04 -2.965797E+03  1.481315E-10 -1.443303E-10
       401  19  2.335459E+05 -1.693303E+04 -9.998658E+03 -1.676718E+03 -1.978664E+04 -6.749459E+02
       401  20  2.341333E+05 -4.344238E+04 -2.547989E+04  2.155001E+03 -1.316865E+04 -1.913575E+03
       401  21  2.438739E+05 -3.774644E+04 -2.855389E+04 -5.508595E+03 -6.551199E+03 -1.540168E+03
       401  22  3.919323E+05  2.263229E+04  2.951068E+04 -4.247410E+03 -2.013424E+04 -6.750097E+02
       401  23  3.873346E+05 -5.196971E+03  1.259826E+04  1.505204E+03 -1.324380E+04 -1.913545E+03
       401  24  3.919352E+05 -7.778576E+02  8.279972E+03 -4.237344E+03 -6.353965E+03 -1.540177E+03
       401  25  5.503414E+05  6.219573E+04  6.901813E+04 -6.818761E+03 -2.048193E+04 -6.750707E+02
       401  26  5.405572E+05  3.304668E+04  5.067466E+04  8.552455E+02 -1.331897E+04 -1.913515E+03
       401  27  5.400164E+05  3.618908E+04  4.511219E+04 -2.965789E+03 -6.156683E+03 -1.540186E+03
       402   1  2.777153E+05 -2.471261E+04 -2.114323E+04 -3.503262E+03  4.961223E+03  1.178775E+03
       402   2  2.814001E+05 -2.776210E+04 -2.358923E+04  1.200525E+03  3.275015E+03  1.208085E+03
       402   3  2.866199E+05 -2.597698E+04 -2.370758E+04 -4.042926E+03  1.588627E+03  1.015786E+03
       402   4  3.902357E+05  3.381625E+03  6.847547E+03 -3.895447E+03  4.985316E+03  1.178753E+03
       402   5  3.894651E+05 -7.820819E+02  3.284828E+03  1.077683E+03  3.261589E+03  1.208077E+03
       402   6  3.902356E+05 -1.051327E+02  2.075489E+03 -3.896311E+03  1.537695E+03  1.015808E+03
       402   7  5.027676E+05  3.147491E+04  3.483737E+04 -4.287703E+03  5.009413E+03  1.178731E+03
       402   8  4.975407E+05  2.619706E+04  3.015801E+04  9.548203E+02  3.248161E+03  1.208069E+03
       402   9  4.938610E+05  2.576591E+04  2.785775E+04 -3.749670E+03  1.486754E+03  1.015829E+03
       402  10  2.777152E+05 -2.471261E+04 -2.114327E+04 -3.503266E+03 -2.222190E-10 -1.923967E-10
       402  11  2.814001E+05 -2.776210E+04 -2.358925E+04  1.200521E+03  3.879472E-10 -8.518559E-11
       402  12  2.866199E+05 -2.597698E+04 -2.370758E+04 -4.042927E+03 -2.319338E-11  2.666039E-10
       402  13  3.902357E+05  3.381617E+03  6.847498E+03 -3.895452E+03 -5.344094E-11 -1.668478E-10
       402  14  3.894651E+05 -7.820863E+02  3.284806E+03  1.077679E+03  5.785263E-12 -5.691627E-10
       402  15  3.902356E+05 -1.051344E+02  2.075482E+03 -3.896312E+03 -1.316848E-10  2.390156E-10
       402  16  5.027676E+05  3.147490E+04  3.483732E+04 -4.287708E+03  3.182000E-11 -8.469766E-11
       402  17  4.975407E+05  2.619705E+04  3.015799E+04  9.548171E+02 -3.215751E-11 -1.344391E-10
       402  18  4.938610E+05  2.576591E+04  2.785774E+04 -3.749671E+03  2.127696E-11  1.424434E-10
       402  19  2.777153E+05 -2.471261E+04 -2.114323E+04 -3.503262E+03 -4.961223E+03 -1.178775E+03
       402  20  2.814001E+05 -2.776210E+04 -2.358923E+04  1.200525E+03 -3.275015E+03 -1.208085E+03
       402  21  2.866199E+05 -2.597698E+04 -2.370758E+04 -4.042926E+03 -1.588627E+03 -1.015786E+03
       402  22  3.902357E+05  3.381625E+03  6.847547E+03 -3.895447E+03 -4.985316E+03 -1.178753E+03
       402  23  3.894651E+05 -7.820819E+02  3.284828E+03  1.077683E+03 -3.261589E+03 -1.208077E+03
       402  24  3.902356E+05 -1.051327E+02  2.075489E+03 -3.896311E+03 -1.537695E+03 -1.015808E+03
       402  25  5.027676E+05  3.147491E+04  3.483737E+04 -4.287703E+03 -5.009413E+03 -1.178731E+03
       402  26  4.975407E+05  2.619706E+04  3.015801E+04  9.548203E+02 -3.248161E+03 -1.208069E+03
       402  27  4.938610E+05  2.576591E+04  2.785775E+04 -3.749670E+03 -1.486754E+03 -1.015829E+03
       403   1  3.176065E+05 -1.755823E+04 -1.630641E+04 -3.574461E+03  1.218366E+03  8.821031E+02
       403   2  3.214539E+05 -1.718894E+04 -1.607748E+04  8.410528E+02  7.487803E+02  7.461825E+02
       403   3  3.255776E+05 -1.607215E+04 -1.535039E+04 -3.647708E+03  2.791290E+02  5.909843E+02
       403   4  3.899564E+05  5.030279E+02  1.677480E+03 -3.663943E+03  1.197180E+03  8.821115E+02
       403   5  3.898178E+05 -1.209066E+02  9.251445E+02  7.879855E+02  7.243060E+02  7.461977E+02
       403   6  3.899560E+05  3.176734E+00  6.732062E+02 -3.664300E+03  2.513692E+02  5.910070E+02
       403   7  4.623111E+05  1.856389E+04  1.966098E+04 -3.753434E+03  1.175992E+03  8.821200E+02
       403   8  4.581859E+05  1.694677E+04  1.792742E+04  7.349132E+02  6.998289E+02  7.462128E+02
       403   9  4.543382E+05  1.607819E+04  1.669650E+04 -3.680892E+03  2.236065E+02  5.910297E+02
       403  10  3.176065E+05 -1.755823E+04 -1.630641E+04 -3.574462E+03 -9.696165E-11 -4.901084E-11
       403  11  3.214539E+05 -1.718894E+04 -1.607748E+04  8.410524E+02  4.852945E-10  2.249289E-10
       403  12  3.255776E+05 -1.607215E+04 -1.535040E+04 -3.647708E+03 -4.365185E-10 -3.123416E-10
       403  13  3.899564E+05  5.030267E+02  1.677476E+03 -3.663944E+03  8.395708E-12 -2.959089E-11
       403  14  3.898178E+05 -1.209073E+02  9.251425E+02  7.879851E+02 -3.748849E-10  4.124214E-10
       403  15  3.899560E+05  3.176341E+00  6.732055E+02 -3.664300E+03  3.743071E-10  8.138249E-10
       403  16  4.623111E+05  1.856389E+04  1.966097E+04 -3.753435E+03  1.074828E-10  1.037583E-10
       403  17  4.581859E+05  1.694677E+04  1.792742E+04  7.349128E+02  3.040292E-10 -5.428716E-10
       403  18  4.543382E+05  1.607819E+04  1.669650E+04 -3.680892E+03  2.377272E-10 -6.180180E-11
       403  19  3.176065E+05 -1.755823E+04 -1.630641E+04 -3.574461E+03 -1.218366E+03 -8.821031E+02
       403  20  3.214539E+05 -1.718894E+04 -1.607748E+04  8.410528E+02 -7.487803E+02 -7.461825E+02
       403  21  3.255776E+05 -1.607215E+04 -1.535039E+04 -3.647708E+03 -2.791290E+02 -5.909843E+02
       403  22  3.899564E+05  5.030279E+02  1.677480E+03 -3.663943E+03 -1.197180E+03 -8.821115E+02
       403  23  3.898178E+05 -1.209066E+02  9.251445E+02  7.879855E+02 -7.243060E+02 -7.461977E+02
       403  24  3.899560E+05  3.176734E+00  6.732062E+02 -3.664300E+03 -2.513692E+02 -5.910070E+02
       403  25  4.623111E+05  1.856389E+04  1.966098E+04 -3.753434E+03 -1.175992E+03 -8.821200E+02
       403  26  4.581859E+05  1.694677E+04  1.792742E+04  7.349132E+02 -6.998289E+02 -7.462128E+02
       403  27  4.543382E+05  1.607819E+04  1.669650E+04 -3.680892E+03 -2.236065E+02 -5.910297E+02
       404   1  3.540878E+05 -8.866323E+03 -8.284359E+03 -3.493621E+03  1.597840E+02  4.980185E+02
       404   2  3.577654E+05 -8.052746E+03 -7.392934E+03  6.497509E+02 -1.380919E+02  3.489360E+02
       404   3  3.615284E+05 -7.004944E+03 -6.251555E+03 -3.517216E+03 -4.359830E+02  2.035708E+02
       404   4  3.899145E+05  7.582528E+01  6.141459E+02 -3.532179E+03  1.343697E+02  4.980423E+02
       404   5  3.898716E+05 -3.708152E+01  5.921799E+02  6.229860E+02 -1.628954E+02  3.489612E+02
       404   6  3.899142E+05  8.413875E+01  8.197495E+02 -3.532162E+03 -4.601739E+02  2.035974E+02
       404   7  4.257423E+05  9.017877E+03  9.512555E+03 -3.570739E+03  1.089539E+02  4.980662E+02
       404   8  4.219788E+05  7.978506E+03  8.577217E+03  5.962201E+02 -1.877002E+02  3.489865E+02
       404   9  4.183008E+05  7.173161E+03  7.890994E+03 -3.547107E+03 -4.843658E+02  2.036240E+02
       404  10  3.540878E+05 -8.866323E+03 -8.284360E+03 -3.493621E+03 -2.426306E-10 -5.821851E-12
       404  11  3.577654E+05 -8.052746E+03 -7.392934E+03  6.497509E+02  7.848605E-10  1.383882E-10
       404  12  3.615284E+05 -7.004945E+03 -6.251556E+03 -3.517216E+03  3.180519E-10 -4.739188E-10
       404  13  3.899145E+05  7.582501E+01  6.141454E+02 -3.532179E+03  1.963152E-10 -5.707915E-10
       404  14  3.898716E+05 -3.708166E+01  5.921796E+02  6.229861E+02 -3.397682E-10  2.226591E-10
       404  15  3.899142E+05  8.413864E+01  8.197491E+02 -3.532161E+03 -1.287528E-11 -9.124809E-10
       404  16  4.257423E+05  9.017877E+03  9.512555E+03 -3.570739E+03 -1.562763E-10  3.968621E-10
       404  17  4.219788E+05  7.978506E+03  8.577216E+03  5.962201E+02  4.249148E-10 -3.345122E-10
       404  18  4.183008E+05  7.173161E+03  7.890993E+03 -3.547107E+03 -4.319097E-10 -1.276071E-09
       404  19  3.540878E+05 -8.866323E+03 -8.284359E+03 -3.493621E+03 -1.597840E+02 -4.980185E+02
       404  20  3.577654E+05 -8.052746E+03 -7.392934E+03  6.497509E+02  1.380919E+02 -3.489360E+02
       404  21  3.615284E+05 -7.004944E+03 -6.251555E+03 -3.517216E+03  4.359830E+02 -2.035708E+02
       404  22  3.899145E+05  7.582528E+01  6.141459E+02 -3.532179E+03 -1.343697E+02 -4.980423E+02
       404  23  3.898716E+05 -3.708152E+01  5.921799E+02  6.229860E+02  1.628954E+02 -3.489612E+02
       404  24  3.899142E+05  8.413875E+01  8.197495E+02 -3.532162E+03  4.601739E+02 -2.035974E+02
       404  25  4.257423E+05  9.017877E+03  9.512555E+03 -3.570739E+03 -1.089539E+02 -4.980662E+02
       404  26  4.219788E+05  7.978506E+03  8.577217E+03  5.962201E+02  1.877002E+02 -3.489865E+02
       404  27  4.183008E+05  7.173161E+03  7.890994E+03 -3.547107E+03  4.843658E+02 -2.036240E+02
       405   1  3.888510E+05 -2.732559E+02  7.322097E+02 -3.457541E+03 -5.999680E+02  1.189490E+02
       405   2  3.923512E+05  5.032511E+02  2.211316E+03  5.664334E+02 -1.397799E+03 -2.642842E+01
       405   3  3.961342E+05  2.087189E+03  4.406761E+03 -3.545120E+03 -2.195643E+03 -1.689254E+02
       405   4  3.899583E+05  9.728125E-01  9.960091E+02 -3.493561E+03 -6.247961E+02  1.189773E+02
       405   5  3.898169E+05 -1.294599E+02  1.581073E+03  5.745119E+02 -1.422140E+03 -2.640089E+01
       405   6  3.899581E+05  5.474443E+02  2.882128E+03 -3.492944E+03 -2.219493E+03 -1.688987E+02
       405   7  3.910657E+05  2.752014E+02  1.259808E+03 -3.529582E+03 -6.496243E+02  1.190056E+02
       405   8  3.872826E+05 -7.621713E+02  9.508287E+02  5.825903E+02 -1.446482E+03 -2.637336E+01
       405   9  3.837820E+05 -9.923030E+02  1.357493E+03 -3.440768E+03 -2.243342E+03 -1.688720E+02
       405  10  3.888510E+05 -2.732560E+02  7.322090E+02 -3.457541E+03 -4.981407E-10  5.763317E-10
       405  11  3.923512E+05  5.032506E+02  2.211313E+03  5.664333E+02 -1.901340E-10  2.027447E-09
       405  12  3.961342E+05  2.087187E+03  4.406752E+03 -3.545120E+03  4.860988E-10 -9.626546E-10
       405  13  3.899583E+05  9.726925E-01  9.960084E+02 -3.493561E+03 -1.305470E-10 -9.913896E-11
       405  14  3.898169E+05 -1.294604E+02  1.581069E+03  5.745118E+02  2.406939E-10 -1.801948E-11
       405  15  3.899581E+05  5.474429E+02  2.882119E+03 -3.492944E+03  4.812917E-11 -3.108290E-11
       405  16  3.910657E+05  2.752013E+02  1.259808E+03 -3.529582E+03 -2.093700E-10 -1.070341E-10
       405  17  3.872826E+05 -7.621718E+02  9.508248E+02  5.825903E+02  3.099198E-10  6.928592E-11
       405  18  3.837820E+05 -9.923044E+02  1.357483E+03 -3.440769E+03 -6.217866E-10 -4.307104E-10
       405  19  3.888510E+05 -2.732559E+02  7.322097E+02 -3.457541E+03  5.999680E+02 -1.189490E+02
       405  20  3.923512E+05  5.032511E+02  2.211316E+03  5.664334E+02  1.397799E+03  2.642842E+01
       405  21  3.961342E+05  2.087189E+03  4.406761E+03 -3.545120E+03  2.195643E+03  1.689254E+02
       405  22  3.899583E+05  9.728124E-01  9.960091E+02 -3.493561E+03  6.247961E+02 -1.189773E+02
       405  23  3.898169E+05 -1.294599E+02  1.581073E+03  5.745119E+02  1.422140E+03  2.640089E+01
       405  24  3.899581E+05  5.474443E+02  2.882128E+03 -3.492944E+03  2.219493E+03  1.688987E+02
       405  25  3.910657E+05  2.752014E+02  1.259808E+03 -3.529582E+03  6.496243E+02 -1.190056E+02
       405  26  3.872826E+05 -7.621713E+02  9.508287E+02  5.825903E+02  1.446482E+03  2.637336E+01
       405  27  3.837820E+05 -9.923030E+02  1.357493E+03 -3.440768E+03  2.243342E+03  1.688720E+02
       406   1  4.238321E+05  8.269725E+03  1.202457E+04 -3.353287E+03 -2.785982E+03 -2.564702E+02
       406   2  4.267218E+05  8.463782E+03  1.535370E+04  5.350674E+02 -5.899219E+03 -4.026000E+02
       406   3  4.313250E+05  1.392392E+04  2.202355E+04 -3.944799E+03 -9.012441E+03 -5.301599E+02
       406   4  3.902758E+05 -1.093233E+02  3.667789E+03 -3.546360E+03 -2.812572E+03 -2.564406E+02
       406   5  3.894187E+05 -8.490505E+02  6.076846E+03  6.396219E+02 -5.922523E+03 -4.025780E+02
       406   6  3.902748E+05  3.676911E+03  1.182449E+04 -3.542647E+03 -9.032439E+03 -5.301480E+02
       406   7  3.567204E+05 -8.488456E+03 -4.689079E+03 -3.739422E+03 -2.839160E+03 -2.564109E+02
       406   8  3.521169E+05 -1.016199E+04 -3.200114E+03  7.441705E+02 -5.945825E+03 -4.025561E+02
       406   9  3.492261E+05 -6.570222E+03  1.625307E+03 -3.140521E+03 -9.052436E+03 -5.301362E+02
       406  10  4.238321E+05  8.269723E+03  1.202456E+04 -3.353288E+03 -3.244083E-10 -1.094076E-09
       406  11  4.267218E+05  8.463773E+03  1.535363E+04  5.350654E+02  9.364282E-11  1.915623E-10
       406  12  4.313250E+05  1.392390E+04  2.202339E+04 -3.944803E+03 -3.206088E-11 -4.006273E-11
       406  13  3.902757E+05 -1.093255E+02  3.667774E+03 -3.546361E+03 -7.074036E-11 -2.852514E-10
       406  14  3.894187E+05 -8.490601E+02  6.076779E+03  6.396200E+02  7.027952E-11 -9.604175E-12
       406  15  3.902747E+05  3.676889E+03  1.182434E+04 -3.542650E+03  2.422710E-10 -4.851596E-10
       406  16  3.567204E+05 -8.488459E+03 -4.689095E+03 -3.739423E+03  1.032967E-10 -2.363565E-10
       406  17  3.521169E+05 -1.016200E+04 -3.200180E+03  7.441686E+02  5.154000E-10  1.715752E-09
       406  18  3.492260E+05 -6.570244E+03  1.625152E+03 -3.140524E+03 -3.715476E-10  1.863013E-10
       406  19  4.238321E+05  8.269725E+03  1.202457E+04 -3.353287E+03  2.785982E+03  2.564702E+02
       406  20  4.267218E+05  8.463782E+03  1.535370E+04  5.350674E+02  5.899219E+03  4.026000E+02
       406  21  4.313250E+05  1.392392E+04  2.202355E+04 -3.944799E+03  9.012441E+03  5.301599E+02
       406  22  3.902758E+05 -1.093233E+02  3.667789E+03 -3.546360E+03  2.812572E+03  2.564406E+02
       406  23  3.894187E+05 -8.490505E+02  6.076846E+03  6.396219E+02  5.922523E+03  4.025780E+02
       406  24  3.902748E+05  3.676911E+03  1.182449E+04 -3.542647E+03  9.032439E+03  5.301480E+02
       406  25  3.567204E+05 -8.488456E+03 -4.689079E+03 -3.739422E+03  2.839160E+03  2.564109E+02
       406  26  3.521169E+05 -1.016199E+04 -3.200114E+03  7.441705E+02  5.945825E+03  4.025561E+02
       406  27  3.492261E+05 -6.570222E+03  1.625307E+03 -3.140521E+03  9.052436E+03  5.301362E+02
       407   1  4.621314E+05  1.662771E+04  3.218341E+04 -2.311082E+03 -1.139657E+04 -6.459573E+02
       407   2  4.609360E+05  1.278898E+04  4.220653E+04  1.299580E+02 -2.391573E+04 -8.118972E+02
       407   3  4.702064E+05  4.415538E+04  6.918498E+04 -6.445145E+03 -3.643469E+04 -8.084136E+02
       407   4  3.922191E+05 -8.244606E+02  1.478620E+04 -3.695229E+03 -1.143971E+04 -6.458961E+02
       407   5  3.869855E+05 -5.673080E+03  2.381841E+04  8.213460E+02 -2.392909E+04 -8.119179E+02
       407   6  3.922139E+05  2.468054E+04  4.978677E+04 -3.678303E+03 -3.641820E+04 -8.085910E+02
       407   7  3.223112E+05 -1.827699E+04 -2.611375E+03 -5.079219E+03 -1.148284E+04 -6.458347E+02
       407   8  3.130399E+05 -2.413555E+04  5.429890E+03  1.512653E+03 -2.394245E+04 -8.119387E+02
       407   9  3.142268E+05  5.205271E+03  3.038810E+04 -9.118086E+02 -3.640170E+04 -8.087682E+02
       407  10  4.621312E+05  1.662768E+04  3.218316E+04 -2.311088E+03 -1.990391E-10  3.358828E-10
       407  11  4.609354E+05  1.278883E+04  4.220545E+04  1.299423E+02  1.513586E-11 -9.585919E-10
       407  12  4.702050E+05  4.415502E+04  6.918249E+04 -6.445169E+03 -2.043474E-10 -5.786545E-10
       407  13  3.922189E+05 -8.244961E+02  1.478595E+04 -3.695235E+03  1.431904E-10  1.419159E-10
       407  14  3.869848E+05 -5.673234E+03  2.381734E+04  8.213303E+02 -5.421974E-10  9.737951E-10
       407  15  3.922124E+05  2.468018E+04  4.978427E+04 -3.678327E+03 -1.121845E-10 -3.835340E-10
       407  16  3.223110E+05 -1.827703E+04 -2.611623E+03 -5.079225E+03 -5.992717E-11 -7.874945E-11
       407  17  3.130393E+05 -2.413571E+04  5.428812E+03  1.512637E+03  4.420804E-10 -1.708195E-10
       407  18  3.142254E+05  5.204915E+03  3.038561E+04 -9.118323E+02  1.406496E-10  4.603825E-11
       407  19  4.621314E+05  1.662771E+04  3.218341E+04 -2.311082E+03  1.139657E+04  6.459573E+02
       407  20  4.609360E+05  1.278898E+04  4.220653E+04  1.299580E+02  2.391573E+04  8.118972E+02
       407  21  4.702064E+05  4.415538E+04  6.918498E+04 -6.445145E+03  3.643469E+04  8.084136E+02
       407  22  3.922191E+05 -8.244606E+02  1.478620E+04 -3.695229E+03  1.143971E+04  6.458961E+02
       407  23  3.869855E+05 -5.673080E+03  2.381841E+04  8.213460E+02  2.392909E+04  8.119179E+02
       407  24  3.922139E+05  2.468054E+04  4.978677E+04 -3.678303E+03  3.641820E+04  8.085910E+02
       407  25  3.223112E+05 -1.827699E+04 -2.611375E+03 -5.079219E+03  1.148284E+04  6.458347E+02
       407  26  3.130399E+05 -2.413555E+04  5.429890E+03  1.512653E+03  2.394245E+04  8.119387E+02
       407  27  3.142268E+05  5.205271E+03  3.038810E+04 -9.118086E+02  3.640170E+04  8.087682E+02
       408   1  5.141796E+05  2.169387E+04  8.750221E+04  5.359262E+03 -4.620431E+04 -1.097196E+03
       408   2  4.860386E+05 -9.265957E+03  1.203111E+05 -3.786369E+03 -9.663242E+04 -1.395901E+03
       408   3  5.232698E+05  1.945741E+05  2.446631E+05 -2.307578E+04 -1.470605E+05 -4.765310E+02
       408   4  4.044171E+05 -5.695387E+03  6.020169E+04 -3.953262E+03 -4.635583E+04 -1.096429E+03
       408   5  3.717311E+05 -3.780252E+04  9.190456E+04  1.132042E+03 -9.657143E+04 -1.396699E+03
       408   6  4.043919E+05  1.648756E+05  2.150151E+05 -3.925603E+03 -1.467866E+05 -4.811061E+02
       408   7  2.946657E+05 -3.308522E+04  3.290031E+04 -1.326414E+04 -4.650733E+04 -1.095657E+03
       408   8  2.574355E+05 -6.633997E+04  6.349708E+04  6.049549E+03 -9.651045E+04 -1.397496E+03
       408   9  2.855276E+05  1.351774E+05  1.853662E+05  1.522091E+04 -1.465128E+05 -4.856650E+02
       408  10  5.141773E+05  2.169329E+04  8.749820E+04  5.359221E+03 -3.077591E-10 -5.894444E-10
       408  11  4.860285E+05 -9.268463E+03  1.202935E+05 -3.786478E+03 -3.415051E-10 -7.530276E-11
       408  12  5.232466E+05  1.945683E+05  2.446225E+05 -2.307584E+04 -1.291292E-10 -1.188833E-10
       408  13  4.044148E+05 -5.695965E+03  6.019765E+04 -3.953303E+03 -1.222542E-10 -9.227421E-10
       408  14  3.717211E+05 -3.780502E+04  9.188704E+04  1.131933E+03 -2.043557E-10 -8.018734E-10
       408  15  4.043688E+05  1.648699E+05  2.149746E+05 -3.925660E+03  1.274262E-10  1.131470E-10
       408  16  2.946634E+05 -3.308580E+04  3.289624E+04 -1.326418E+04  1.021441E-10 -3.064377E-10
       408  17  2.574255E+05 -6.634247E+04  6.347958E+04  6.049440E+03  2.578368E-10 -1.042979E-09
       408  18  2.855045E+05  1.351717E+05  1.853259E+05  1.522085E+04  6.297860E-11 -3.234446E-10
       408  19  5.141796E+05  2.169387E+04  8.750221E+04  5.359262E+03  4.620431E+04  1.097196E+03
       408  20  4.860386E+05 -9.265957E+03  1.203111E+05 -3.786369E+03  9.663242E+04  1.395901E+03
       408  21  5.232698E+05  1.945741E+05  2.446631E+05 -2.307578E+04  1.470605E+05  4.765310E+02
       408  22  4.044171E+05 -5.695387E+03  6.020169E+04 -3.953262E+03  4.635583E+04  1.096429E+03
       408  23  3.717311E+05 -3.780252E+04  9.190456E+04  1.132042E+03  9.657143E+04  1.396699E+03
       408  24  4.043919E+05  1.648756E+05  2.150151E+05 -3.925603E+03  1.467866E+05  4.811061E+02
       408  25  2.946657E+05 -3.308522E+04  3.290031E+04 -1.326414E+04  4.650733E+04  1.095657E+03
       408  26  2.574355E+05 -6.633997E+04  6.349708E+04  6.049549E+03  9.651045E+04  1.397496E+03
       408  27  2.855276E+05  1.351774E+05  1.853662E+05  1.522091E+04  1.465128E+05  4.856650E+02
       409   1 -1.501386E+06 -1.286582E+05 -1.725403E+05 -1.708277E+04 -1.283103E+05 -2.551013E+02
       409   2 -1.472490E+06  4.901611E+04 -6.465642E+04 -4.304559E+03 -8.444470E+04 -7.891005E+02
       409   3 -1.500738E+06  2.095933E+04 -3.679809E+04  7.850917E+03 -4.057971E+04 -7.099817E+02
       409   4 -1.564642E+06 -1.444965E+05 -1.883538E+05 -3.466658E+02 -1.284413E+05 -2.585639E+02
       409   5 -1.536002E+06  3.312967E+04 -8.047562E+04 -3.282297E+01 -8.447708E+04 -7.896907E+02
       409   6 -1.564529E+06  4.995841E+03 -5.269738E+04 -3.422037E+02 -4.051351E+04 -7.094377E+02
       409   7 -1.627894E+06 -1.603340E+05 -2.041675E+05  1.638773E+04 -1.285722E+05 -2.620339E+02
       409   8 -1.599511E+06  1.724299E+04 -9.629511E+04  4.238475E+03 -8.450946E+04 -7.902815E+02
       409   9 -1.628317E+06 -1.096770E+04 -6.859695E+04 -8.534481E+03 -4.044731E+04 -7.088954E+02
       409  10 -1.501404E+06 -1.286627E+05 -1.725713E+05 -1.708279E+04  1.633123E-11 -2.232030E-10
       409  11 -1.472497E+06  4.901419E+04 -6.466986E+04 -4.304613E+03  2.292202E-10 -4.801162E-10
       409  12 -1.500740E+06  2.095888E+04 -3.680119E+04  7.850894E+03 -2.140195E-10 -4.156508E-10
       409  13 -1.564660E+06 -1.445010E+05 -1.883849E+05 -3.466925E+02  2.438303E-10 -3.505727E-10
       409  14 -1.536010E+06  3.312774E+04 -8.048907E+04 -3.287673E+01  4.242223E-10 -9.249941E-10
       409  15 -1.564531E+06  4.995399E+03 -5.270048E+04 -3.422269E+02  1.716098E-10 -4.182619E-10
       409  16 -1.627912E+06 -1.603385E+05 -2.041987E+05  1.638770E+04  1.027091E-10 -4.384894E-10
       409  17 -1.599518E+06  1.724106E+04 -9.630857E+04  4.238421E+03  4.826065E-10 -5.849804E-10
       409  18 -1.628319E+06 -1.096814E+04 -6.860003E+04 -8.534504E+03  1.391121E-10 -5.066560E-10
       409  19 -1.501386E+06 -1.286582E+05 -1.725403E+05 -1.708277E+04  1.283103E+05  2.551013E+02
       409  20 -1.472490E+06  4.901611E+04 -6.465642E+04 -4.304559E+03  8.444470E+04  7.891005E+02
       409  21 -1.500738E+06  2.095933E+04 -3.679809E+04  7.850917E+03  4.057971E+04  7.099817E+02
       409  22 -1.564642E+06 -1.444965E+05 -1.883538E+05 -3.466658E+02  1.284413E+05  2.585639E+02
       409  23 -1.536002E+06  3.312967E+04 -8.047562E+04 -3.282297E+01  8.447708E+04  7.896907E+02
       409  24 -1.564529E+06  4.995841E+03 -5.269738E+04 -3.422037E+02  4.051351E+04  7.094377E+02
       409  25 -1.627894E+06 -1.603340E+05 -2.041675E+05  1.638773E+04  1.285722E+05  2.620339E+02
       409  26 -1.599511E+06  1.724299E+04 -9.629511E+04  4.238475E+03  8.450946E+04  7.902815E+02
       409  27 -1.628317E+06 -1.096770E+04 -6.859695E+04 -8.534481E+03  4.044731E+04  7.088954E+02
       410   1 -1.493052E+06 -6.413956E+03 -2.841625E+04 -2.057039E+03 -3.181155E+04 -6.181558E+02
       410   2 -1.489535E+06  1.992376E+04 -5.943529E+03 -1.401430E+03 -2.091405E+04 -6.808713E+02
       410   3 -1.495119E+06  1.542878E+04  1.721204E+03  1.587252E+03 -1.001672E+04 -5.990318E+02
       410   4 -1.553879E+06 -2.163154E+04 -4.358177E+04  3.190058E+02 -3.183250E+04 -6.182875E+02
       410   5 -1.549315E+06  4.968921E+03 -2.084001E+04 -8.505037E+02 -2.091170E+04 -6.808937E+02
       410   6 -1.553857E+06  7.310081E+02 -1.292346E+04  3.131023E+02 -9.991076E+03 -5.990031E+02
       410   7 -1.614702E+06 -3.684938E+04 -5.874757E+04  2.694817E+03 -3.185344E+04 -6.184194E+02
       410   8 -1.609091E+06 -9.986187E+03 -3.573676E+04 -2.996310E+02 -2.090936E+04 -6.809161E+02
       410   9 -1.612592E+06 -1.396702E+04 -2.756838E+04 -9.609265E+02 -9.965429E+03 -5.989744E+02
       410  10 -1.493053E+06 -6.414229E+03 -2.841816E+04 -2.057055E+03  3.956158E-10 -2.848716E-10
       410  11 -1.489536E+06  1.992364E+04 -5.944354E+03 -1.401441E+03 -6.883923E-10  2.510714E-10
       410  12 -1.495119E+06  1.542875E+04  1.721014E+03  1.587247E+03  6.325585E-10 -6.656198E-10
       410  13 -1.553880E+06 -2.163181E+04 -4.358368E+04  3.189899E+02 -3.362381E-10 -2.216129E-10
       410  14 -1.549315E+06  4.968803E+03 -2.084083E+04 -8.505152E+02 -4.539904E-10  5.786672E-11
       410  15 -1.553857E+06  7.309808E+02 -1.292365E+04  3.130975E+02  4.357850E-10 -4.077399E-10
       410  16 -1.614703E+06 -3.684966E+04 -5.874948E+04  2.694801E+03 -3.981492E-10 -2.890665E-10
       410  17 -1.609092E+06 -9.986305E+03 -3.573758E+04 -2.996425E+02  7.887527E-10 -4.219257E-10
       410  18 -1.612592E+06 -1.396705E+04 -2.756857E+04 -9.609313E+02 -4.189850E-10 -4.784364E-11
       410  19 -1.493052E+06 -6.413956E+03 -2.841625E+04 -2.057039E+03  3.181155E+04  6.181558E+02
       410  20 -1.489535E+06  1.992376E+04 -5.943529E+03 -1.401430E+03  2.091405E+04  6.808713E+02
       410  21 -1.495119E+06  1.542878E+04  1.721204E+03  1.587252E+03  1.001672E+04  5.990318E+02
       410  22 -1.553879E+06 -2.163154E+04 -4.358177E+04  3.190058E+02  3.183250E+04  6.182875E+02
       410  23 -1.549315E+06  4.968921E+03 -2.084001E+04 -8.505037E+02  2.091170E+04  6.808937E+02
       410  24 -1.553857E+06  7.310081E+02 -1.292346E+04  3.131023E+02  9.991076E+03  5.990031E+02
       410  25 -1.614702E+06 -3.684938E+04 -5.874757E+04  2.694817E+03  3.185344E+04  6.184194E+02
       410  26 -1.609091E+06 -9.986187E+03 -3.573676E+04 -2.996310E+02  2.090936E+04  6.809161E+02
       410  27 -1.612592E+06 -1.396702E+04 -2.756838E+04 -9.609265E+02  9.965429E+03  5.989744E+02
       411   1 -1.505579E+06  8.435143E+03  1.273637E+03  5.586978E+02 -7.894791E+03 -5.455392E+02
       411   2 -1.506980E+06  1.185899E+04  5.774486E+03 -1.584473E+03 -5.193661E+03 -4.964061E+02
       411   3 -1.509871E+06  1.069005E+04  7.367928E+03  1.080281E+03 -2.492545E+03 -3.893968E+02
       411   4 -1.552168E+06 -3.219829E+03 -1.033433E+04  8.665079E+02 -7.891241E+03 -5.455440E+02
       411   5 -1.551421E+06  7.408013E+02 -5.300637E+03 -1.538349E+03 -5.180587E+03 -4.964010E+02
       411   6 -1.552164E+06  1.068012E+02 -3.181128E+03  8.647377E+02 -2.469937E+03 -3.893821E+02
       411   7 -1.598756E+06 -1.487496E+04 -2.194246E+04  1.174295E+03 -7.887692E+03 -5.455489E+02
       411   8 -1.595860E+06 -1.037754E+04 -1.637591E+04 -1.492229E+03 -5.167514E+03 -4.963959E+02
       411   9 -1.594456E+06 -1.047658E+04 -1.373032E+04  6.492085E+02 -2.447331E+03 -3.893675E+02
       411  10 -1.505579E+06  8.435126E+03  1.273519E+03  5.586943E+02 -3.196948E-10  1.162957E-10
       411  11 -1.506980E+06  1.185898E+04  5.774435E+03 -1.584475E+03 -7.414247E-10  5.739772E-10
       411  12 -1.509871E+06  1.069004E+04  7.367916E+03  1.080280E+03  6.007634E-10 -6.252220E-10
       411  13 -1.552169E+06 -3.219846E+03 -1.033445E+04  8.665044E+02 -1.671534E-11 -4.448472E-10
       411  14 -1.551421E+06  7.407938E+02 -5.300688E+03 -1.538351E+03 -2.971096E-10  4.045511E-10
       411  15 -1.552164E+06  1.067994E+02 -3.181139E+03  8.647369E+02 -1.353784E-10 -4.883817E-11
       411  16 -1.598756E+06 -1.487498E+04 -2.194258E+04  1.174291E+03 -3.981741E-11 -7.757477E-10
       411  17 -1.595860E+06 -1.037754E+04 -1.637596E+04 -1.492231E+03  3.613495E-10 -8.042534E-10
       411  18 -1.594456E+06 -1.047658E+04 -1.373033E+04  6.492078E+02  1.984191E-10 -8.218284E-10
       411  19 -1.505579E+06  8.435143E+03  1.273637E+03  5.586978E+02  7.894791E+03  5.455392E+02
       411  20 -1.506980E+06  1.185899E+04  5.774486E+03 -1.584473E+03  5.193661E+03  4.964061E+02
       411  21 -1.509871E+06  1.069005E+04  7.367928E+03  1.080281E+03  2.492545E+03  3.893968E+02
       411  22 -1.552168E+06 -3.219829E+03 -1.033433E+04  8.665079E+02  7.891241E+03  5.455440E+02
       411  23 -1.551421E+06  7.408013E+02 -5.300637E+03 -1.538349E+03  5.180587E+03  4.964010E+02
       411  24 -1.552164E+06  1.068012E+02 -3.181128E+03  8.647377E+02  2.469937E+03  3.893821E+02
       411  25 -1.598756E+06 -1.487496E+04 -2.194246E+04  1.174295E+03  7.887692E+03  5.455489E+02
       411  26 -1.595860E+06 -1.037754E+04 -1.637591E+04 -1.492229E+03  5.167514E+03  4.963959E+02
       411  27 -1.594456E+06 -1.047658E+04 -1.373032E+04  6.492085E+02  2.447331E+03  3.893675E+02
       412   1 -1.528580E+06  5.357366E+03  3.312784E+03  1.179629E+03 -1.971892E+03 -3.239002E+02
       412   2 -1.531286E+06  5.230247E+03  3.771048E+03 -1.959875E+03 -1.304612E+03 -2.276124E+02
       412   3 -1.534254E+06  4.432211E+03  3.624762E+03  1.248314E+03 -6.373621E+02 -1.089134E+02
       412   4 -1.551892E+06 -4.733446E+02 -2.489764E+03  1.207773E+03 -1.957657E+03 -3.238908E+02
       412   5 -1.551760E+06  1.080430E+02 -1.331328E+03 -1.966257E+03 -1.286642E+03 -2.275993E+02
       412   6 -1.551891E+06  1.785051E+01 -7.800578E+02  1.207418E+03 -6.156539E+02 -1.088963E+02
       412   7 -1.575203E+06 -6.304096E+03 -8.292353E+03  1.235916E+03 -1.943423E+03 -3.238815E+02
       412   8 -1.572233E+06 -5.014192E+03 -6.433735E+03 -1.972639E+03 -1.268673E+03 -2.275863E+02
       412   9 -1.569527E+06 -4.396533E+03 -5.184901E+03  1.166523E+03 -5.939463E+02 -1.088792E+02
       412  10 -1.528580E+06  5.357365E+03  3.312776E+03  1.179628E+03  5.629997E-10 -4.659512E-10
       412  11 -1.531286E+06  5.230246E+03  3.771045E+03 -1.959875E+03  3.227311E-10 -9.976988E-10
       412  12 -1.534254E+06  4.432211E+03  3.624761E+03  1.248314E+03  7.334250E-10 -1.223775E-09
       412  13 -1.551892E+06 -4.733458E+02 -2.489772E+03  1.207773E+03  4.605296E-10 -6.052976E-10
       412  14 -1.551760E+06  1.080425E+02 -1.331331E+03 -1.966257E+03 -2.134001E-10  7.456035E-10
       412  15 -1.551891E+06  1.785040E+01 -7.800585E+02  1.207418E+03 -3.502475E-10 -3.184438E-11
       412  16 -1.575203E+06 -6.304097E+03 -8.292360E+03  1.235916E+03 -6.731894E-10  7.261554E-10
       412  17 -1.572233E+06 -5.014193E+03 -6.433738E+03 -1.972639E+03 -3.685199E-10 -4.645923E-11
       412  18 -1.569527E+06 -4.396534E+03 -5.184902E+03  1.166523E+03 -6.989945E-10  4.849245E-10
       412  19 -1.528580E+06  5.357366E+03  3.312784E+03  1.179629E+03  1.971892E+03  3.239002E+02
       412  20 -1.531286E+06  5.230247E+03  3.771048E+03 -1.959875E+03  1.304612E+03  2.276124E+02
       412  21 -1.534254E+06  4.432211E+03  3.624762E+03  1.248314E+03  6.373621E+02  1.089134E+02
       412  22 -1.551892E+06 -4.733446E+02 -2.489764E+03  1.207773E+03  1.957657E+03  3.238908E+02
       412  23 -1.551760E+06  1.080430E+02 -1.331328E+03 -1.966257E+03  1.286642E+03  2.275993E+02
       412  24 -1.551891E+06  1.785051E+01 -7.800578E+02  1.207418E+03  6.156539E+02  1.088963E+02
       412  25 -1.575203E+06 -6.304096E+03 -8.292353E+03  1.235916E+03  1.943423E+03  3.238815E+02
       412  26 -1.572233E+06 -5.014192E+03 -6.433735E+03 -1.972639E+03  1.268673E+03  2.275863E+02
       412  27 -1.569527E+06 -4.396533E+03 -5.184901E+03  1.166523E+03  5.939463E+02  1.088792E+02
       413   1 -1.556338E+06 -1.192312E+03 -1.728446E+03  1.269642E+03 -5.113942E+02 -3.445845E+01
       413   2 -1.559286E+06 -1.855475E+03 -2.182145E+03 -2.056049E+03 -3.496278E+02  8.256469E+01
       413   3 -1.562288E+06 -2.602856E+03 -2.764967E+03  1.274603E+03 -1.878533E+02  1.903087E+02
       413   4 -1.551844E+06 -6.629338E+01 -5.994561E+02  1.276165E+03 -4.910181E+02 -3.444209E+01
       413   5 -1.551817E+06  1.306790E+01 -3.208530E+02 -2.052034E+03 -3.308070E+02  8.257942E+01
       413   6 -1.551844E+06  8.471222E+00 -1.703019E+02  1.276105E+03 -1.705870E+02  1.903219E+02
       413   7 -1.547351E+06  1.059724E+03  5.295319E+02  1.282687E+03 -4.706419E+02 -3.442574E+01
       413   8 -1.544349E+06  1.881606E+03  1.540434E+03 -2.048019E+03 -3.119860E+02  8.259414E+01
       413   9 -1.541400E+06  2.619790E+03  2.424355E+03  1.277607E+03 -1.533205E+02  1.903351E+02
       413  10 -1.556338E+06 -1.192312E+03 -1.728446E+03  1.269642E+03  1.915111E-10  6.622675E-11
       413  11 -1.559286E+06 -1.855475E+03 -2.182145E+03 -2.056049E+03 -7.380450E-10  4.676296E-10
       413  12 -1.562288E+06 -2.602856E+03 -2.764967E+03  1.274603E+03  3.304759E-10  3.208899E-10
       413  13 -1.551844E+06 -6.629345E+01 -5.994566E+02  1.276165E+03  6.960920E-10 -1.107829E-09
       413  14 -1.551817E+06  1.306786E+01 -3.208532E+02 -2.052034E+03  4.266151E-10 -6.700301E-10
       413  15 -1.551844E+06  8.471175E+00 -1.703020E+02  1.276105E+03 -8.935750E-10  1.084335E-09
       413  16 -1.547351E+06  1.059723E+03  5.295315E+02  1.282687E+03  1.586823E-10 -3.461126E-10
       413  17 -1.544349E+06  1.881606E+03  1.540434E+03 -2.048019E+03  4.250284E-10 -8.879502E-10
       413  18 -1.541400E+06  2.619790E+03  2.424355E+03  1.277607E+03 -5.377793E-10 -1.034133E-11
       413  19 -1.556338E+06 -1.192312E+03 -1.728446E+03  1.269642E+03  5.113942E+02  3.445845E+01
       413  20 -1.559286E+06 -1.855475E+03 -2.182145E+03 -2.056049E+03  3.496278E+02 -8.256469E+01
       413  21 -1.562288E+06 -2.602856E+03 -2.764967E+03  1.274603E+03  1.878533E+02 -1.903087E+02
       413  22 -1.551844E+06 -6.629338E+01 -5.994561E+02  1.276165E+03  4.910181E+02  3.444209E+01
       413  23 -1.551817E+06  1.306790E+01 -3.208530E+02 -2.052034E+03  3.308070E+02 -8.257942E+01
       413  24 -1.551844E+06  8.471222E+00 -1.703019E+02  1.276105E+03  1.705870E+02 -1.903219E+02
       413  25 -1.547351E+06  1.059724E+03  5.295319E+02  1.282687E+03  4.706419E+02  3.442574E+01
       413  26 -1.544349E+06  1.881606E+03  1.540434E+03 -2.048019E+03  3.119860E+02 -8.259414E+01
       413  27 -1.541400E+06  2.619790E+03  2.424355E+03  1.277607E+03  1.533205E+02 -1.903351E+02
       414   1 -1.583255E+06 -7.871791E+03 -7.958292E+03  1.041263E+03 -1.679718E+02  2.622878E+02
       414   2 -1.585795E+06 -8.503314E+03 -8.495673E+03 -1.796358E+03 -1.450246E+02  3.773755E+02
       414   3 -1.588327E+06 -9.098238E+03 -9.038553E+03  1.037996E+03 -1.220301E+02  4.450585E+02
       414   4 -1.551830E+06 -7.759723E+00 -1.172327E+02  1.057386E+03 -1.447080E+02  2.623044E+02
       414   5 -1.551835E+06 -6.787317E+00 -3.218715E+01 -1.778605E+03 -1.297088E+02  3.773848E+02
       414   6 -1.551830E+06  3.217666E+01  5.289891E+01  1.057360E+03 -1.146623E+02  4.450615E+02
       414   7 -1.520405E+06  7.856197E+03  7.723752E+03  1.073509E+03 -1.214430E+02  2.623211E+02
       414   8 -1.517874E+06  8.489653E+03  8.431212E+03 -1.760851E+03 -1.143922E+02  3.773940E+02
       414   9 -1.515332E+06  9.162491E+03  9.144250E+03  1.076724E+03 -1.072941E+02  4.450645E+02
       414  10 -1.583255E+06 -7.871791E+03 -7.958292E+03  1.041263E+03  5.987643E-10 -1.179695E-09
       414  11 -1.585795E+06 -8.503314E+03 -8.495673E+03 -1.796358E+03 -4.700331E-10  1.610620E-10
       414  12 -1.588327E+06 -9.098238E+03 -9.038553E+03  1.037996E+03  5.621388E-10  2.500631E-11
       414  13 -1.551830E+06 -7.759803E+00 -1.172329E+02  1.057386E+03 -6.115615E-10  5.581161E-10
       414  14 -1.551835E+06 -6.787474E+00 -3.218745E+01 -1.778605E+03 -9.430360E-10  1.426188E-09
       414  15 -1.551830E+06  3.217645E+01  5.289851E+01  1.057360E+03  1.936341E-10 -3.285943E-10
       414  16 -1.520405E+06  7.856197E+03  7.723752E+03  1.073509E+03  1.310591E-10 -1.021767E-09
       414  17 -1.517874E+06  8.489652E+03  8.431211E+03 -1.760851E+03 -8.646501E-10  8.612344E-10
       414  18 -1.515332E+06  9.162490E+03  9.144250E+03  1.076724E+03 -6.150769E-10  1.247012E-10
       414  19 -1.583255E+06 -7.871791E+03 -7.958292E+03  1.041263E+03  1.679718E+02 -2.622878E+02
       414  20 -1.585795E+06 -8.503314E+03 -8.495673E+03 -1.796358E+03  1.450246E+02 -3.773755E+02
       414  21 -1.588327E+06 -9.098238E+03 -9.038553E+03  1.037996E+03  1.220301E+02 -4.450585E+02
       414  22 -1.551830E+06 -7.759723E+00 -1.172327E+02  1.057386E+03  1.447080E+02 -2.623044E+02
       414  23 -1.551835E+06 -6.787317E+00 -3.218715E+01 -1.778605E+03  1.297088E+02 -3.773848E+02
       414  24 -1.551830E+06  3.217666E+01  5.289891E+01  1.057360E+03  1.146623E+02 -4.450615E+02
       414  25 -1.520405E+06  7.856197E+03  7.723752E+03  1.073509E+03  1.214430E+02 -2.623211E+02
       414  26 -1.517874E+06  8.489653E+03  8.431212E+03 -1.760851E+03  1.143922E+02 -3.773940E+02
       414  27 -1.515332E+06  9.162491E+03  9.144250E+03  1.076724E+03  1.072941E+02 -4.450645E+02
       415   1 -1.604061E+06 -1.308163E+04 -1.293963E+04  5.831588E+02 -1.560267E+02  5.105546E+02
       415   2 -1.605720E+06 -1.352408E+04 -1.324024E+04 -1.224241E+03 -2.285010E+02  6.083007E+02
       415   3 -1.607269E+06 -1.366679E+04 -1.341365E+04  5.550681E+02 -3.008989E+02  5.661770E+02
       415   4 -1.551807E+06 -6.470958E+00  9.085125E+01  5.940140E+02 -1.279115E+02  5.105682E+02
       415   5 -1.551864E+06 -4.978309E+01  1.808110E+02 -1.199374E+03 -2.238453E+02  6.082996E+02
       415   6 -1.551807E+06  2.107124E+02  4.142755E+02  5.939280E+02 -3.197028E+02  5.661665E+02
       415   7 -1.499551E+06  1.306848E+04  1.312112E+04  6.048698E+02 -9.979391E+01  5.105819E+02
       415   8 -1.498006E+06  1.342430E+04  1.360164E+04 -1.174505E+03 -2.191892E+02  6.082985E+02
       415   9 -1.496342E+06  1.408799E+04  1.424197E+04  6.327911E+02 -3.385085E+02  5.661560E+02
       415  10 -1.604061E+06 -1.308163E+04 -1.293963E+04  5.831589E+02 -1.578262E-10  5.573995E-10
       415  11 -1.605720E+06 -1.352408E+04 -1.324024E+04 -1.224241E+03 -5.350295E-10 -1.191151E-10
       415  12 -1.607269E+06 -1.366679E+04 -1.341365E+04  5.550682E+02  1.371071E-11 -1.007065E-10
       415  13 -1.551807E+06 -6.471242E+00  9.085073E+01  5.940141E+02  5.068855E-11 -4.274666E-10
       415  14 -1.551864E+06 -4.978351E+01  1.808102E+02 -1.199374E+03 -2.803119E-10 -3.187983E-10
       415  15 -1.551807E+06  2.107121E+02  4.142747E+02  5.939281E+02  2.097753E-10 -2.021126E-10
       415  16 -1.499551E+06  1.306848E+04  1.312112E+04  6.048698E+02 -2.307027E-10  7.460606E-11
       415  17 -1.498006E+06  1.342430E+04  1.360164E+04 -1.174504E+03  1.361549E-10 -7.088715E-10
       415  18 -1.496342E+06  1.408799E+04  1.424197E+04  6.327913E+02 -1.354868E-10  4.351372E-10
       415  19 -1.604061E+06 -1.308163E+04 -1.293963E+04  5.831588E+02  1.560267E+02 -5.105546E+02
       415  20 -1.605720E+06 -1.352408E+04 -1.324024E+04 -1.224241E+03  2.285010E+02 -6.083007E+02
       415  21 -1.607269E+06 -1.366679E+04 -1.341365E+04  5.550681E+02  3.008989E+02 -5.661770E+02
       415  22 -1.551807E+06 -6.470958E+00  9.085125E+01  5.940140E+02  1.279115E+02 -5.105682E+02
       415  23 -1.551864E+06 -4.978309E+01  1.808110E+02 -1.199374E+03  2.238453E+02 -6.082996E+02
       415  24 -1.551807E+06  2.107124E+02  4.142755E+02  5.939280E+02  3.197028E+02 -5.661665E+02
       415  25 -1.499551E+06  1.306848E+04  1.312112E+04  6.048698E+02  9.979391E+01 -5.105819E+02
       415  26 -1.498006E+06  1.342430E+04  1.360164E+04 -1.174505E+03  2.191892E+02 -6.082985E+02
       415  27 -1.496342E+06  1.408799E+04  1.424197E+04  6.327911E+02  3.385085E+02 -5.661560E+02
       416   1 -1.614636E+06 -1.579545E+04 -1.518090E+04  3.945058E+01 -4.736919E+02  6.764134E+02
       416   2 -1.615289E+06 -1.615808E+04 -1.498733E+04 -4.776482E+02 -7.946222E+02  7.844252E+02
       416   3 -1.615362E+06 -1.452789E+04 -1.407818E+04 -1.921532E+02 -1.115462E+03  2.676575E+02
       416   4 -1.551700E+06 -4.857758E+01  5.068226E+02 -2.463257E+01 -4.032124E+02  6.764320E+02
       416   5 -1.551998E+06 -3.246612E+02  7.774077E+02 -4.260050E+02 -8.289377E+02  7.844128E+02
       416   6 -1.551699E+06  1.410186E+03  1.836439E+03 -2.479029E+01 -1.254571E+03  2.676421E+02
       416   7 -1.488760E+06  1.569800E+04  1.619424E+04 -8.872253E+01 -3.327258E+02  6.764506E+02
       416   8 -1.488704E+06  1.550845E+04  1.654185E+04 -3.743567E+02 -8.632567E+02  7.844005E+02
       416   9 -1.488031E+06  1.734796E+04  1.775075E+04  1.425897E+02 -1.393694E+03  2.676266E+02
       416  10 -1.614636E+06 -1.579545E+04 -1.518090E+04  3.945084E+01  5.169523E-10  6.457925E-11
       416  11 -1.615289E+06 -1.615808E+04 -1.498733E+04 -4.776477E+02  5.753144E-11  2.123857E-11
       416  12 -1.615362E+06 -1.452789E+04 -1.407818E+04 -1.921529E+02 -2.200920E-10 -1.049585E-10
       416  13 -1.551700E+06 -4.857811E+01  5.068214E+02 -2.463235E+01  1.155824E-09 -3.887159E-10
       416  14 -1.551998E+06 -3.246620E+02  7.774053E+02 -4.260045E+02 -1.680461E-11 -5.990714E-11
       416  15 -1.551699E+06  1.410186E+03  1.836436E+03 -2.479002E+01  1.325701E-10 -1.390189E-10
       416  16 -1.488760E+06  1.569800E+04  1.619424E+04 -8.872235E+01 -1.055507E-10  3.895653E-10
       416  17 -1.488704E+06  1.550845E+04  1.654184E+04 -3.743561E+02  2.254639E-10 -1.631691E-11
       416  18 -1.488031E+06  1.734796E+04  1.775075E+04  1.425900E+02 -3.232399E-10 -3.235898E-10
       416  19 -1.614636E+06 -1.579545E+04 -1.518090E+04  3.945058E+01  4.736919E+02 -6.764134E+02
       416  20 -1.615289E+06 -1.615808E+04 -1.498733E+04 -4.776482E+02  7.946222E+02 -7.844252E+02
       416  21 -1.615362E+06 -1.452789E+04 -1.407818E+04 -1.921532E+02  1.115462E+03 -2.676575E+02
       416  22 -1.551700E+06 -4.857758E+01  5.068226E+02 -2.463257E+01  4.032124E+02 -6.764320E+02
       416  23 -1.551998E+06 -3.246612E+02  7.774077E+02 -4.260050E+02  8.289377E+02 -7.844128E+02
       416  24 -1.551699E+06  1.410186E+03  1.836439E+03 -2.479029E+01  1.254571E+03 -2.676421E+02
       416  25 -1.488760E+06  1.569800E+04  1.619424E+04 -8.872253E+01  3.327258E+02 -6.764506E+02
       416  26 -1.488704E+06  1.550845E+04  1.654185E+04 -3.743567E+02  8.632567E+02 -7.844005E+02
       416  27 -1.488031E+06  1.734796E+04  1.775075E+04  1.425897E+02  1.393694E+03 -2.676266E+02
       417   1  5.920720E+06  1.176496E+06  1.531869E+06  1.410230E+05  1.038800E+06  7.615988E+01
       417   2  5.687955E+06 -2.522230E+05  6.632284E+05  3.434962E+04  6.838809E+05 -5.307140E+02
       417   3  5.913530E+06 -2.765010E+04  4.378927E+05 -6.083269E+04  3.289154E+05 -4.242271E+02
       417   4  5.859673E+06  1.161282E+06  1.516737E+06  5.369809E+03  1.038618E+06 -1.488170E+02
       417   5  5.632083E+06 -2.661090E+05  6.494246E+05 -2.952966E+02  6.838307E+05 -5.685509E+02
       417   6  5.862833E+06 -4.018928E+04  4.253658E+05  5.500196E+03  3.289945E+05 -3.893737E+02
       417   7  5.798669E+06  1.146137E+06  1.501614E+06 -1.302701E+05  1.038435E+06 -3.737340E+02
       417   8  5.576217E+06 -2.799908E+05  6.356211E+05 -3.493712E+04  6.837805E+05 -6.063853E+02
       417   9  5.812148E+06 -5.271226E+04  4.128411E+05  7.182771E+04  3.290737E+05 -3.545011E+02
       417  10  5.919570E+06  1.176210E+06  1.529860E+06  1.410230E+05 -4.973876E-10 -1.191251E-09
       417  11  5.687456E+06 -2.523471E+05  6.623578E+05  3.434992E+04  2.640030E-09 -3.280448E-09
       417  12  5.913415E+06 -2.767880E+04  4.376913E+05 -6.083258E+04 -2.292097E-09 -3.242118E-09
       417  13  5.858524E+06  1.160996E+06  1.514728E+06  5.369935E+03  2.150712E-09 -8.866448E-10
       417  14  5.631584E+06 -2.662331E+05  6.485540E+05 -2.949843E+02  1.956413E-09 -2.795203E-09
       417  15  5.862718E+06 -4.021800E+04  4.251644E+05  5.500299E+03 -2.267260E-09 -3.101029E-09
       417  16  5.797520E+06  1.145851E+06  1.499606E+06 -1.302699E+05  1.435139E-09 -7.622614E-10
       417  17  5.575718E+06 -2.801149E+05  6.347506E+05 -3.493679E+04  2.227431E-09 -2.540980E-09
       417  18  5.812033E+06 -5.274099E+04  4.126395E+05  7.182780E+04  4.343241E-09 -2.298828E-09
       417  19  5.920720E+06  1.176496E+06  1.531869E+06  1.410230E+05 -1.038800E+06 -7.615988E+01
       417  20  5.687955E+06 -2.522230E+05  6.632284E+05  3.434962E+04 -6.838809E+05  5.307140E+02
       417  21  5.913530E+06 -2.765010E+04  4.378927E+05 -6.083269E+04 -3.289154E+05  4.242271E+02
       417  22  5.859673E+06  1.161282E+06  1.516737E+06  5.369809E+03 -1.038618E+06  1.488170E+02
       417  23  5.632083E+06 -2.661090E+05  6.494246E+05 -2.952966E+02 -6.838307E+05  5.685509E+02
       417  24  5.862833E+06 -4.018928E+04  4.253658E+05  5.500196E+03 -3.289945E+05  3.893737E+02
       417  25  5.798669E+06  1.146137E+06  1.501614E+06 -1.302701E+05 -1.038435E+06  3.737340E+02
       417  26  5.576217E+06 -2.799908E+05  6.356211E+05 -3.493712E+04 -6.837805E+05  6.063853E+02
       417  27  5.812148E+06 -5.271226E+04  4.128411E+05  7.182771E+04 -3.290737E+05  3.545011E+02
       418   1  5.802108E+06  1.802473E+05  3.582243E+05  2.323825E+04  2.584264E+05 -1.999363E+02
       418   2  5.763695E+06 -3.405696E+04  1.745978E+05  6.194260E+03  1.698304E+05 -1.937851E+02
       418   3  5.798539E+06 -5.273954E+02  1.102485E+05 -6.206241E+03  8.123820E+04 -1.671427E+02
       418   4  5.776366E+06  1.738426E+05  3.518595E+05  3.886351E+03  2.584252E+05 -2.079190E+02
       418   5  5.740054E+06 -3.992875E+04  1.687527E+05  1.595336E+03  1.698352E+05 -1.950291E+02
       418   6  5.777000E+06 -5.862958E+03  1.049223E+05  3.947663E+03  8.124875E+04 -1.658209E+02
       418   7  5.750624E+06  1.674393E+05  3.454949E+05 -1.546475E+04  2.584240E+05 -2.159018E+02
       418   8  5.716413E+06 -4.580051E+04  1.629075E+05 -3.003415E+03  1.698401E+05 -1.962731E+02
       418   9  5.755462E+06 -1.119817E+04  9.959615E+04  1.410122E+04  8.125930E+04 -1.644988E+02
       418  10  5.802037E+06  1.802296E+05  3.580999E+05  2.323829E+04 -2.343775E-09 -3.401293E-09
       418  11  5.763665E+06 -3.406461E+04  1.745441E+05  6.194287E+03  1.671893E-09 -7.322880E-10
       418  12  5.798532E+06 -5.291471E+02  1.102363E+05 -6.206230E+03 -3.671588E-10  3.888391E-10
       418  13  5.776294E+06  1.738249E+05  3.517352E+05  3.886394E+03  1.995769E-09 -1.823471E-09
       418  14  5.740023E+06 -3.993641E+04  1.686990E+05  1.595363E+03  2.891950E-09 -4.374770E-10
       418  15  5.776993E+06 -5.864711E+03  1.049101E+05  3.947673E+03 -2.040317E-09 -3.737366E-10
       418  16  5.750553E+06  1.674216E+05  3.453706E+05 -1.546470E+04  1.467223E-09 -1.591990E-09
       418  17  5.716382E+06 -4.580817E+04  1.628538E+05 -3.003388E+03  1.039096E-09 -2.090098E-09
       418  18  5.755455E+06 -1.119992E+04  9.958386E+04  1.410123E+04 -2.897545E-10  1.466412E-09
       418  19  5.802108E+06  1.802473E+05  3.582243E+05  2.323825E+04 -2.584264E+05  1.999363E+02
       418  20  5.763695E+06 -3.405696E+04  1.745978E+05  6.194260E+03 -1.698304E+05  1.937851E+02
       418  21  5.798539E+06 -5.273954E+02  1.102485E+05 -6.206241E+03 -8.123820E+04  1.671427E+02
       418  22  5.776366E+06  1.738426E+05  3.518595E+05  3.886351E+03 -2.584252E+05  2.079190E+02
       418  23  5.740054E+06 -3.992875E+04  1.687527E+05  1.595336E+03 -1.698352E+05  1.950291E+02
       418  24  5.777000E+06 -5.862958E+03  1.049223E+05  3.947663E+03 -8.124875E+04  1.658209E+02
       418  25  5.750624E+06  1.674393E+05  3.454949E+05 -1.546475E+04 -2.584240E+05  2.159018E+02
       418  26  5.716413E+06 -4.580051E+04  1.629075E+05 -3.003415E+03 -1.698401E+05  1.962731E+02
       418  27  5.755462E+06 -1.119817E+04  9.959615E+04  1.410122E+04 -8.125930E+04  1.644988E+02
       419   1  5.774816E+06  2.873819E+04  8.688481E+04  5.923965E+03  6.407055E+04 -1.301615E+02
       419   2  5.768025E+06 -3.315620E+03  4.625715E+04  2.943487E+03  4.173452E+04 -9.197892E+01
       419   3  5.773358E+06  1.691954E+03  2.933793E+04  1.722004E+03  1.939933E+04 -8.782578E+01
       419   4  5.763293E+06  2.587619E+04  8.403906E+04  3.277311E+03  6.408080E+04 -1.304275E+02
       419   5  5.757294E+06 -5.979474E+03  4.360355E+04  2.403690E+03  4.173936E+04 -9.201256E+01
       419   6  5.763421E+06 -7.724700E+02  2.688053E+04  3.289049E+03  1.939872E+04 -8.777752E+01
       419   7  5.751770E+06  2.301420E+04  8.119330E+04  6.307065E+02  6.409106E+04 -1.306936E+02
       419   8  5.746563E+06 -8.643336E+03  4.094994E+04  1.863902E+03  4.174420E+04 -9.204620E+01
       419   9  5.753485E+06 -3.236892E+03  2.442313E+04  4.856069E+03  1.939811E+04 -8.772926E+01
       419  10  5.774812E+06  2.873710E+04  8.687717E+04  5.923972E+03 -1.121871E-09  1.210033E-09
       419  11  5.768023E+06 -3.316082E+03  4.625390E+04  2.943490E+03 -4.118811E-09 -1.569741E-09
       419  12  5.773357E+06  1.691854E+03  2.933723E+04  1.722005E+03 -7.425513E-10  1.616085E-09
       419  13  5.763289E+06  2.587510E+04  8.403141E+04  3.277318E+03 -2.277970E-09 -2.571052E-11
       419  14  5.757292E+06 -5.979937E+03  4.360030E+04  2.403693E+03  5.399239E-10 -3.268890E-10
       419  15  5.763421E+06 -7.725699E+02  2.687983E+04  3.289050E+03 -3.980020E-09  2.240862E-10
       419  16  5.751765E+06  2.301311E+04  8.118565E+04  6.307132E+02 -1.602329E-09 -1.500436E-10
       419  17  5.746562E+06 -8.643799E+03  4.094670E+04  1.863905E+03 -2.257901E-09 -6.887945E-10
       419  18  5.753484E+06 -3.236992E+03  2.442243E+04  4.856070E+03  3.216571E-10 -2.938289E-10
       419  19  5.774816E+06  2.873819E+04  8.688481E+04  5.923965E+03 -6.407055E+04  1.301615E+02
       419  20  5.768025E+06 -3.315620E+03  4.625715E+04  2.943487E+03 -4.173452E+04  9.197892E+01
       419  21  5.773358E+06  1.691954E+03  2.933793E+04  1.722004E+03 -1.939933E+04  8.782578E+01
       419  22  5.763293E+06  2.587619E+04  8.403906E+04  3.277311E+03 -6.408080E+04  1.304275E+02
       419  23  5.757294E+06 -5.979474E+03  4.360355E+04  2.403690E+03 -4.173936E+04  9.201256E+01
       419  24  5.763421E+06 -7.724700E+02  2.688053E+04  3.289049E+03 -1.939872E+04  8.777752E+01
       419  25  5.751770E+06  2.301420E+04  8.119330E+04  6.307065E+02 -6.409106E+04  1.306936E+02
       419  26  5.746563E+06 -8.643336E+03  4.094994E+04  1.863902E+03 -4.174420E+04  9.204620E+01
       419  27  5.753485E+06 -3.236892E+03  2.442313E+04  4.856069E+03 -1.939811E+04  8.772926E+01
       420   1  5.767979E+06  5.476842E+03  2.322818E+04  3.320290E+03  1.498752E+04 -8.027355E+01
       420   2  5.766668E+06  6.504942E+02  1.474621E+04  2.858933E+03  8.377444E+03 -6.277128E+01
       420   3  5.767738E+06  1.945735E+03  1.206861E+04  2.689945E+03  1.767320E+03 -7.557329E+01
       420   4  5.761240E+06  3.804249E+03  2.156361E+04  2.957943E+03  1.499348E+04 -8.027935E+01
       420   5  5.760061E+06 -9.895719E+02  1.311205E+04  2.812596E+03  8.378335E+03 -6.277148E+01
       420   6  5.761262E+06  3.391072E+02  1.046841E+04  2.959622E+03  1.763144E+03 -7.557468E+01
       420   7  5.754501E+06  2.131654E+03  1.989903E+04  2.595601E+03  1.499943E+04 -8.028515E+01
       420   8  5.753453E+06 -2.629641E+03  1.147789E+04  2.766258E+03  8.379225E+03 -6.277167E+01
       420   9  5.754787E+06 -1.267524E+03  8.868198E+03  3.229296E+03  1.758968E+03 -7.557608E+01
       420  10  5.767979E+06  5.476782E+03  2.322776E+04  3.320291E+03  1.920499E-11  6.267235E-10
       420  11  5.766668E+06  6.504755E+02  1.474608E+04  2.858934E+03 -8.663572E-10  3.747846E-11
       420  12  5.767738E+06  1.945734E+03  1.206860E+04  2.689945E+03 -2.597721E-09 -3.202742E-11
       420  13  5.761240E+06  3.804190E+03  2.156319E+04  2.957944E+03  6.724848E-11  1.046281E-09
       420  14  5.760061E+06 -9.895905E+02  1.311192E+04  2.812596E+03 -1.511321E-09 -4.872171E-10
       420  15  5.761262E+06  3.391063E+02  1.046840E+04  2.959622E+03  1.425502E-09  4.844098E-10
       420  16  5.754501E+06  2.131594E+03  1.989861E+04  2.595602E+03  6.748084E-10  2.322257E-09
       420  17  5.753453E+06 -2.629660E+03  1.147776E+04  2.766259E+03 -1.478057E-09 -1.841116E-09
       420  18  5.754787E+06 -1.267525E+03  8.868192E+03  3.229296E+03  1.234603E-09  1.309658E-09
       420  19  5.767979E+06  5.476842E+03  2.322818E+04  3.320290E+03 -1.498752E+04  8.027355E+01
       420  20  5.766668E+06  6.504942E+02  1.474621E+04  2.858933E+03 -8.377444E+03  6.277128E+01
       420  21  5.767738E+06  1.945735E+03  1.206861E+04  2.689945E+03 -1.767320E+03  7.557329E+01
       420  22  5.761240E+06  3.804249E+03  2.156361E+04  2.957943E+03 -1.499348E+04  8.027935E+01
       420  23  5.760061E+06 -9.895719E+02  1.311205E+04  2.812596E+03 -8.378335E+03  6.277148E+01
       420  24  5.761262E+06  3.391072E+02  1.046841E+04  2.959622E+03 -1.763144E+03  7.557468E+01
       420  25  5.754501E+06  2.131654E+03  1.989903E+04  2.595601E+03 -1.499943E+04  8.028515E+01
       420  26  5.753453E+06 -2.629641E+03  1.147789E+04  2.766258E+03 -8.379225E+03  6.277167E+01
       420  27  5.754787E+06 -1.267524E+03  8.868198E+03  3.229296E+03 -1.758968E+03  7.557608E+01
       421   1  5.768670E+06  2.316588E+03  1.205023E+04  2.921051E+03 -1.200312E+02 -7.875440E+01
       421   2  5.768049E+06  1.109380E+03  1.357734E+04  3.121594E+03 -5.975158E+03 -8.326070E+01
       421   3  5.769499E+06  5.168541E+03  2.020719E+04  2.379897E+03 -1.183029E+04 -1.232257E+02
       421   4  5.761193E+06  4.607879E+02  1.020156E+04  2.685158E+03 -1.172840E+02 -7.875300E+01
       421   5  5.760149E+06 -8.512003E+02  1.162375E+04  3.155553E+03 -5.978346E+03 -8.326279E+01
       421   6  5.761177E+06  3.104243E+03  1.815279E+04  2.683708E+03 -1.183941E+04 -1.232365E+02
       421   7  5.753717E+06 -1.395016E+03  8.352888E+03  2.449268E+03 -1.145369E+02 -7.875161E+01
       421   8  5.752250E+06 -2.811785E+03  9.670142E+03  3.189513E+03 -5.981534E+03 -8.326489E+01
       421   9  5.752855E+06  1.039941E+03  1.609840E+04  2.987515E+03 -1.184853E+04 -1.232474E+02
       421  10  5.768670E+06  2.316588E+03  1.205023E+04  2.921051E+03 -1.446211E-09  1.007240E-10
       421  11  5.768049E+06  1.109370E+03  1.357728E+04  3.121593E+03  1.624024E-09 -5.537699E-10
       421  12  5.769499E+06  5.168504E+03  2.020693E+04  2.379896E+03 -5.545213E-10  1.543666E-09
       421  13  5.761193E+06  4.607879E+02  1.020156E+04  2.685158E+03  4.221420E-09  1.837077E-09
       421  14  5.760149E+06 -8.512098E+02  1.162368E+04  3.155553E+03  3.548671E-09  1.206654E-09
       421  15  5.761177E+06  3.104206E+03  1.815253E+04  2.683707E+03  3.377175E-10 -3.036069E-10
       421  16  5.753717E+06 -1.395016E+03  8.352888E+03  2.449268E+03  3.020928E-09  2.328809E-09
       421  17  5.752250E+06 -2.811795E+03  9.670076E+03  3.189512E+03 -1.109429E-09  1.253751E-11
       421  18  5.752855E+06  1.039903E+03  1.609813E+04  2.987514E+03 -6.876763E-10 -8.688310E-10
       421  19  5.768670E+06  2.316588E+03  1.205023E+04  2.921051E+03  1.200312E+02  7.875440E+01
       421  20  5.768049E+06  1.109380E+03  1.357734E+04  3.121594E+03  5.975158E+03  8.326070E+01
       421  21  5.769499E+06  5.168541E+03  2.020719E+04  2.379897E+03  1.183029E+04  1.232257E+02
       421  22  5.761193E+06  4.607879E+02  1.020156E+04  2.685158E+03  1.172840E+02  7.875300E+01
       421  23  5.760149E+06 -8.512003E+02  1.162375E+04  3.155553E+03  5.978346E+03  8.326279E+01
       421  24  5.761177E+06  3.104243E+03  1.815279E+04  2.683708E+03  1.183941E+04  1.232365E+02
       421  25  5.753717E+06 -1.395016E+03  8.352888E+03  2.449268E+03  1.145369E+02  7.875161E+01
       421  26  5.752250E+06 -2.811785E+03  9.670142E+03  3.189513E+03  5.981534E+03  8.326489E+01
       421  27  5.752855E+06  1.039941E+03  1.609840E+04  2.987515E+03  1.184853E+04  1.232474E+02
       422   1  5.777277E+06  2.954710E+03  2.592217E+04  3.530692E+03 -1.552382E+04 -1.422786E+02
       422   2  5.773581E+06 -1.004232E+03  3.973660E+04  3.281526E+03 -3.388837E+04 -1.819966E+02
       422   3  5.779824E+06  2.535816E+04  7.300802E+04  7.350952E+01 -5.225296E+04 -2.694505E+02
       422   4  5.762938E+06 -6.061844E+02  2.237443E+04  2.240999E+03 -1.552452E+04 -1.422473E+02
       422   5  5.757916E+06 -4.891567E+03  3.586303E+04  3.713825E+03 -3.389676E+04 -1.820255E+02
       422   6  5.762834E+06  2.114613E+04  6.881428E+04  2.227763E+03 -5.226899E+04 -2.696410E+02
       422   7  5.748599E+06 -4.167088E+03  1.882667E+04  9.513352E+02 -1.552523E+04 -1.422161E+02
       422   8  5.742251E+06 -8.778919E+03  3.198944E+04  4.146114E+03 -3.390515E+04 -1.820544E+02
       422   9  5.745844E+06  1.693411E+04  6.462052E+04  4.381958E+03 -5.228503E+04 -2.698316E+02
       422  10  5.777277E+06  2.954646E+03  2.592172E+04  3.530691E+03  1.463190E-09 -8.427703E-11
       422  11  5.773580E+06 -1.004536E+03  3.973446E+04  3.281521E+03 -5.059724E-09 -2.055102E-09
       422  12  5.779821E+06  2.535743E+04  7.300294E+04  7.349821E+01  6.101119E-10  4.429414E-10
       422  13  5.762938E+06 -6.062484E+02  2.237398E+04  2.240997E+03  4.735083E-10 -3.289978E-10
       422  14  5.757915E+06 -4.891872E+03  3.586089E+04  3.713820E+03 -2.615830E-09 -1.627387E-10
       422  15  5.762831E+06  2.114541E+04  6.880919E+04  2.227752E+03 -1.416609E-09 -2.313309E-11
       422  16  5.748599E+06 -4.167152E+03  1.882622E+04  9.513334E+02 -1.871030E-09 -3.137252E-10
       422  17  5.742249E+06 -8.779225E+03  3.198730E+04  4.146109E+03 -1.705920E-09  1.037606E-09
       422  18  5.745841E+06  1.693338E+04  6.461543E+04  4.381947E+03 -5.182773E-10 -1.158800E-09
       422  19  5.777277E+06  2.954710E+03  2.592217E+04  3.530692E+03  1.552382E+04  1.422786E+02
       422  20  5.773581E+06 -1.004232E+03  3.973660E+04  3.281526E+03  3.388837E+04  1.819966E+02
       422  21  5.779824E+06  2.535816E+04  7.300802E+04  7.350952E+01  5.225296E+04  2.694505E+02
       422  22  5.762938E+06 -6.061844E+02  2.237443E+04  2.240999E+03  1.552452E+04  1.422473E+02
       422  23  5.757916E+06 -4.891567E+03  3.586303E+04  3.713825E+03  3.389676E+04  1.820255E+02
       422  24  5.762834E+06  2.114613E+04  6.881428E+04  2.227763E+03  5.226899E+04  2.696410E+02
       422  25  5.748599E+06 -4.167088E+03  1.882667E+04  9.513352E+02  1.552523E+04  1.422161E+02
       422  26  5.742251E+06 -8.778919E+03  3.198944E+04  4.146114E+03  3.390515E+04  1.820544E+02
       422  27  5.745844E+06  1.693411E+04  6.462052E+04  4.381958E+03  5.228503E+04  2.698316E+02
       423   1  5.806971E+06  3.397296E+03  9.400110E+04  9.587492E+03 -6.630409E+04 -3.459833E+02
       423   2  5.780094E+06 -2.363625E+04  1.469310E+05  1.218536E+03 -1.387415E+05 -4.938275E+02
       423   3  5.813111E+06  1.518723E+05  2.973604E+05 -1.463222E+04 -2.111827E+05 -6.098529E+02
       423   4  5.774035E+06 -4.790945E+03  8.585030E+04  1.268058E+03 -6.632150E+04 -3.451163E+02
       423   5  5.743825E+06 -3.263080E+04  1.379666E+05  4.953112E+03 -1.387502E+05 -4.946665E+02
       423   6  5.773513E+06  1.420759E+05  2.875807E+05  1.156654E+03 -2.111824E+05 -6.151853E+02
       423   7  5.741100E+06 -1.297901E+04  7.769946E+04 -7.050938E+03 -6.633892E+04 -3.442488E+02
       423   8  5.707558E+06 -4.162540E+04  1.290022E+05  8.687471E+03 -1.387590E+05 -4.955057E+02
       423   9  5.733916E+06  1.322803E+05  2.778010E+05  1.694452E+04 -2.111822E+05 -6.205180E+02
       423  10  5.806966E+06  3.396129E+03  9.399292E+04  9.587474E+03 -2.654455E-10  2.548327E-10
       423  11  5.780073E+06 -2.364136E+04  1.468951E+05  1.218481E+03 -2.978882E-09  4.969737E-10
       423  12  5.813064E+06  1.518605E+05  2.972773E+05 -1.463232E+04  1.065951E-09  2.775031E-10
       423  13  5.774030E+06 -4.792113E+03  8.584211E+04  1.268040E+03  2.024116E-10  7.308781E-10
       423  14  5.743805E+06 -3.263591E+04  1.379308E+05  4.953057E+03 -9.015594E-13  1.091903E-09
       423  15  5.773465E+06  1.420641E+05  2.874976E+05  1.156549E+03 -4.359022E-10 -7.086641E-10
       423  16  5.741095E+06 -1.298018E+04  7.769127E+04 -7.050956E+03  2.117356E-09  6.535537E-10
       423  17  5.707538E+06 -4.163051E+04  1.289664E+05  8.687416E+03  6.575292E-09  3.933241E-09
       423  18  5.733869E+06  1.322684E+05  2.777180E+05  1.694442E+04  2.945549E-09  5.014657E-10
       423  19  5.806971E+06  3.397296E+03  9.400110E+04  9.587492E+03  6.630409E+04  3.459833E+02
       423  20  5.780094E+06 -2.363625E+04  1.469310E+05  1.218536E+03  1.387415E+05  4.938275E+02
       423  21  5.813111E+06  1.518723E+05  2.973604E+05 -1.463222E+04  2.111827E+05  6.098529E+02
       423  22  5.774035E+06 -4.790945E+03  8.585030E+04  1.268058E+03  6.632150E+04  3.451163E+02
       423  23  5.743825E+06 -3.263080E+04  1.379666E+05  4.953112E+03  1.387502E+05  4.946665E+02
       423  24  5.773513E+06  1.420759E+05  2.875807E+05  1.156654E+03  2.111824E+05  6.151853E+02
       423  25  5.741100E+06 -1.297901E+04  7.769946E+04 -7.050938E+03  6.633892E+04  3.442488E+02
       423  26  5.707558E+06 -4.162540E+04  1.290022E+05  8.687471E+03  1.387590E+05  4.955057E+02
       423  27  5.733916E+06  1.322803E+05  2.778010E+05  1.694452E+04  2.111822E+05  6.205180E+02
       424   1  5.922510E+06 -1.330243E+04  3.670219E+05  5.328271E+04 -2.687214E+05 -9.974350E+02
       424   2  5.742104E+06 -1.960720E+05  5.519882E+05 -2.025704E+04 -5.589444E+05 -1.610192E+03
       424   3  5.936360E+06  9.723442E+05  1.262721E+06 -1.128777E+05 -8.491430E+05 -1.199071E+03
       424   4  5.844189E+06 -3.285525E+04  3.476316E+05 -9.888821E+02 -2.688482E+05 -9.742862E+02
       424   5  5.655536E+06 -2.174890E+05  5.306191E+05  7.992143E+03 -5.588754E+05 -1.635401E+03
       424   6  5.841550E+06  9.491046E+05  1.239289E+06 -2.086107E+03 -8.488743E+05 -1.349063E+03
       424   7  5.765880E+06 -5.239757E+04  3.282423E+05 -5.525368E+04 -2.689750E+05 -9.511130E+02
       424   8  5.568975E+06 -2.389034E+05  5.092498E+05  3.623741E+04 -5.588064E+05 -1.660607E+03
       424   9  5.746774E+06  9.259100E+05  1.215862E+06  1.086888E+05 -8.486057E+05 -1.498980E+03
       424  10  5.922433E+06 -1.332159E+04  3.668875E+05  5.328249E+04 -8.562567E-10 -5.853665E-10
       424  11  5.741771E+06 -1.961549E+05  5.514066E+05 -2.025776E+04 -5.269578E-09 -1.723104E-09
       424  12  5.935592E+06  9.721529E+05  1.261379E+06 -1.128786E+05 -9.342627E-10 -1.078532E-10
       424  13  5.844112E+06 -3.287443E+04  3.474970E+05 -9.890926E+02 -6.595449E-09 -4.070858E-09
       424  14  5.655203E+06 -2.175718E+05  5.300375E+05  7.991410E+03  4.977705E-09  3.194945E-09
       424  15  5.840782E+06  9.489133E+05  1.237947E+06 -2.087027E+03  4.907709E-12  4.716454E-10
       424  16  5.765803E+06 -5.241677E+04  3.281076E+05 -5.525388E+04  2.296510E-09 -7.741507E-10
       424  17  5.568642E+06 -2.389863E+05  5.086683E+05  3.623667E+04  6.525109E-09  2.450570E-09
       424  18  5.746007E+06  9.257189E+05  1.214521E+06  1.086878E+05 -5.702913E-11 -3.663714E-10
       424  19  5.922510E+06 -1.330243E+04  3.670219E+05  5.328271E+04  2.687214E+05  9.974350E+02
       424  20  5.742104E+06 -1.960720E+05  5.519882E+05 -2.025704E+04  5.589444E+05  1.610192E+03
       424  21  5.936360E+06  9.723442E+05  1.262721E+06 -1.128777E+05  8.491430E+05  1.199071E+03
       424  22  5.844189E+06 -3.285525E+04  3.476316E+05 -9.888821E+02  2.688482E+05  9.742862E+02
       424  23  5.655536E+06 -2.174890E+05  5.306191E+05  7.992143E+03  5.588754E+05  1.635401E+03
       424  24  5.841550E+06  9.491046E+05  1.239289E+06 -2.086107E+03  8.488743E+05  1.349063E+03
       424  25  5.765880E+06 -5.239757E+04  3.282423E+05 -5.525368E+04  2.689750E+05  9.511130E+02
       424  26  5.568975E+06 -2.389034E+05  5.092498E+05  3.623741E+04  5.588064E+05  1.660607E+03
       424  27  5.746774E+06  9.259100E+05  1.215862E+06  1.086888E+05  8.486057E+05  1.498980E+03
       425   1  4.222824E+05  1.652224E+05  1.530477E+05  4.527104E+04  4.987740E+04 -1.024547E+04
       425   2  3.707261E+05  1.592291E+05  1.188948E+05  4.723668E+04  2.267333E+04 -3.494651E+04
       425   3  3.217647E+05  1.493843E+05  1.015074E+05  5.783300E+04 -4.546046E+03 -4.298256E+04
       425   4 -3.238312E+05 -1.864292E+04 -2.041340E+04  5.670317E+04 -1.429476E+04 -1.032949E+04
       425   5 -3.223005E+05 -5.145142E+03 -1.008082E+04  5.237501E+04 -9.080816E+03 -3.499462E+04
       425   6 -3.238064E+05 -1.129647E+03 -5.492210E+03  5.667744E+04 -3.885241E+03 -4.298566E+04
       425   7 -1.069422E+06 -2.025448E+05 -1.938965E+05  6.812129E+04 -7.839037E+04 -1.041593E+04
       425   8 -1.014860E+06 -1.695464E+05 -1.390731E+05  5.750729E+04 -4.080043E+04 -3.504328E+04
       425   9 -9.689658E+05 -1.516651E+05 -1.125043E+05  5.552295E+04 -3.225098E+03 -4.298876E+04
       425  10  4.222797E+05  1.652216E+05  1.530429E+05  4.527145E+04  1.890797E-09 -3.418913E-10
       425  11  3.707253E+05  1.592277E+05  1.188916E+05  4.723732E+04 -2.054000E-09 -2.192567E-09
       425  12  3.217642E+05  1.493823E+05  1.015039E+05  5.783284E+04 -2.811186E-09 -8.060803E-10
       425  13 -3.238314E+05 -1.864309E+04 -2.041398E+04  5.670305E+04  1.090223E-09  1.000467E-09
       425  14 -3.223009E+05 -5.146479E+03 -1.008328E+04  5.237476E+04 -2.328470E-09 -1.442721E-09
       425  15 -3.238070E+05 -1.131635E+03 -5.495710E+03  5.667730E+04  6.305308E-10  1.327988E-09
       425  16 -1.069429E+06 -2.025466E+05 -1.939083E+05  6.812063E+04 -1.432304E-09  4.015802E-10
       425  17 -1.014862E+06 -1.695481E+05 -1.390785E+05  5.750614E+04  1.182593E-09 -3.525642E-09
       425  18 -9.689663E+05 -1.516671E+05 -1.125078E+05  5.552284E+04  3.584971E-09 -3.388040E-09
       425  19  4.222824E+05  1.652224E+05  1.530477E+05  4.527104E+04 -4.987740E+04  1.024547E+04
       425  20  3.707261E+05  1.592291E+05  1.188948E+05  4.723668E+04 -2.267333E+04  3.494651E+04
       425  21  3.217647E+05  1.493843E+05  1.015074E+05  5.783300E+04  4.546046E+03  4.298256E+04
       425  22 -3.238312E+05 -1.864292E+04 -2.041340E+04  5.670317E+04  1.429476E+04  1.032949E+04
       425  23 -3.223005E+05 -5.145142E+03 -1.008082E+04  5.237501E+04  9.080816E+03  3.499462E+04
       425  24 -3.238064E+05 -1.129647E+03 -5.492210E+03  5.667744E+04  3.885241E+03  4.298566E+04
       425  25 -1.069422E+06 -2.025448E+05 -1.938965E+05  6.812129E+04  7.839037E+04  1.041593E+04
       425  26 -1.014860E+06 -1.695464E+05 -1.390731E+05  5.750729E+04  4.080043E+04  3.504328E+04
       425  27 -9.689658E+05 -1.516651E+05 -1.125043E+05  5.552295E+04  3.225098E+03  4.298876E+04
       426   1  2.895782E+05  1.414992E+05  9.557062E+04  5.713895E+04 -3.126617E+03 -4.225976E+04
       426   2  2.392341E+05  1.299591E+05  8.592551E+04  5.254044E+04 -5.480629E+03 -4.139275E+04
       426   3  1.891853E+05  1.184194E+05  7.781114E+04  5.774091E+04 -7.838228E+03 -3.873172E+04
       426   4 -3.231936E+05 -9.968537E+02 -4.143755E+03  5.693959E+04 -3.175113E+03 -4.226372E+04
       426   5 -3.230280E+05 -1.356419E+02 -2.268602E+03  5.203885E+04 -2.040777E+03 -4.139056E+04
       426   6 -3.231745E+05  1.204237E+02 -1.284978E+03  5.693767E+04 -9.101555E+02 -3.872254E+04
       426   7 -9.355932E+05 -1.435120E+05 -1.038687E+05  5.674027E+04 -3.223563E+03 -4.226768E+04
       426   8 -8.849749E+05 -1.302460E+05 -9.047032E+04  5.153760E+04  1.396078E+03 -4.138837E+04
       426   9 -8.352718E+05 -1.181913E+05 -8.038685E+04  5.613500E+04  6.012419E+03 -3.871337E+04
       426  10  2.895777E+05  1.414973E+05  9.556725E+04  5.713885E+04 -8.634054E-09 -7.654007E-10
       426  11  2.392336E+05  1.299573E+05  8.592223E+04  5.254026E+04 -3.800769E-08  2.904710E-09
       426  12  1.891849E+05  1.184178E+05  7.780821E+04  5.774067E+04 -6.015149E-08  3.774132E-09
       426  13 -3.231941E+05 -9.987742E+02 -4.147130E+03  5.693948E+04  2.804606E-10 -2.439024E-09
       426  14 -3.230285E+05 -1.374824E+02 -2.271828E+03  5.203879E+04 -3.261234E-10 -7.041096E-09
       426  15 -3.231749E+05  1.188136E+02 -1.287797E+03  5.693764E+04  1.405878E-09 -1.665172E-08
       426  16 -9.355937E+05 -1.435140E+05 -1.038720E+05  5.674016E+04  9.079409E-09  1.626137E-09
       426  17 -8.849754E+05 -1.302479E+05 -9.047355E+04  5.153765E+04  3.706882E-08  3.628819E-09
       426  18 -8.352723E+05 -1.181929E+05 -8.038973E+04  5.613518E+04  6.141309E-08  2.923041E-09
       426  19  2.895782E+05  1.414992E+05  9.557062E+04  5.713895E+04  3.126617E+03  4.225976E+04
       426  20  2.392341E+05  1.299591E+05  8.592551E+04  5.254044E+04  5.480629E+03  4.139275E+04
       426  21  1.891853E+05  1.184194E+05  7.781114E+04  5.774091E+04  7.838228E+03  3.873172E+04
       426  22 -3.231936E+05 -9.968537E+02 -4.143755E+03  5.693959E+04  3.175113E+03  4.226372E+04
       426  23 -3.230280E+05 -1.356419E+02 -2.268602E+03  5.203885E+04  2.040777E+03  4.139056E+04
       426  24 -3.231745E+05  1.204237E+02 -1.284978E+03  5.693767E+04  9.101555E+02  3.872254E+04
       426  25 -9.355932E+05 -1.435120E+05 -1.038687E+05  5.674027E+04  3.223563E+03  4.226768E+04
       426  26 -8.849749E+05 -1.302460E+05 -9.047032E+04  5.153760E+04 -1.396078E+03  4.138837E+04
       426  27 -8.352718E+05 -1.181913E+05 -8.038685E+04  5.613500E+04 -6.012419E+03  3.871337E+04
       427   1  1.572708E+05  1.109738E+05  7.282485E+04  5.766252E+04 -7.572078E+03 -3.660129E+04
       427   2  1.070309E+05  9.936214E+04  6.525844E+04  5.264355E+04 -7.677919E+03 -3.297991E+04
       427   3  5.679346E+04  8.781373E+04  5.776844E+04  5.755696E+04 -7.785129E+03 -2.916441E+04
       427   4 -3.231137E+05  1.279495E+02 -9.753380E+02  5.696749E+04 -7.183177E+02 -3.659158E+04
       427   5 -3.230736E+05  1.671852E+02 -5.581399E+02  5.200103E+04 -4.471465E+02 -3.296853E+04
       427   6 -3.230991E+05  2.043042E+02 -3.265716E+02  5.696736E+04 -1.773512E+02 -2.915128E+04
       427   7 -8.032673E+05 -1.107291E+05 -7.478044E+04  5.627291E+04  6.130345E+03 -3.658189E+04
       427   8 -7.529928E+05 -9.903666E+04 -6.637853E+04  5.135889E+04  6.778812E+03 -3.295715E+04
       427   9 -7.028470E+05 -8.741205E+04 -5.842449E+04  5.637806E+04  7.425952E+03 -2.913817E+04
       427  10  1.572704E+05  1.109724E+05  7.282222E+04  5.766230E+04  5.962898E-08  4.234707E-09
       427  11  1.070305E+05  9.936095E+04  6.525628E+04  5.264334E+04  3.615897E-08  2.949963E-09
       427  12  5.679317E+04  8.781280E+04  5.776673E+04  5.755678E+04  7.390089E-09  6.302230E-10
       427  13 -3.231141E+05  1.265117E+02 -9.778548E+02  5.696747E+04 -4.883363E-10 -1.845438E-08
       427  14 -3.230739E+05  1.660181E+02 -5.601825E+02  5.200102E+04 -2.591733E-09 -7.551315E-09
       427  15 -3.230993E+05  2.033918E+02 -3.281684E+02  5.696736E+04 -5.643842E-10  1.706527E-09
       427  16 -8.032677E+05 -1.107305E+05 -7.478303E+04  5.627309E+04 -5.927579E-08  2.231659E-09
       427  17 -7.529931E+05 -9.903784E+04 -6.638066E+04  5.135907E+04 -3.514270E-08  3.273022E-09
       427  18 -7.028473E+05 -8.741298E+04 -5.842619E+04  5.637824E+04 -6.901428E-09  5.109937E-10
       427  19  1.572708E+05  1.109738E+05  7.282485E+04  5.766252E+04  7.572078E+03  3.660129E+04
       427  20  1.070309E+05  9.936214E+04  6.525844E+04  5.264355E+04  7.677919E+03  3.297991E+04
       427  21  5.679346E+04  8.781373E+04  5.776844E+04  5.755696E+04  7.785129E+03  2.916441E+04
       427  22 -3.231137E+05  1.279495E+02 -9.753380E+02  5.696749E+04  7.183177E+02  3.659158E+04
       427  23 -3.230736E+05  1.671852E+02 -5.581399E+02  5.200103E+04  4.471465E+02  3.296853E+04
       427  24 -3.230991E+05  2.043042E+02 -3.265716E+02  5.696736E+04  1.773512E+02  2.915128E+04
       427  25 -8.032673E+05 -1.107291E+05 -7.478044E+04  5.627291E+04 -6.130345E+03  3.658189E+04
       427  26 -7.529928E+05 -9.903666E+04 -6.637853E+04  5.135889E+04 -6.778812E+03  3.295715E+04
       427  27 -7.028470E+05 -8.741205E+04 -5.842449E+04  5.637806E+04 -7.425952E+03  2.913817E+04
       428   1  2.489230E+04  8.041880E+04  5.275365E+04  5.751265E+04 -7.730334E+03 -2.688064E+04
       428   2 -2.536870E+04  6.883064E+04  4.523394E+04  5.246154E+04 -7.696087E+03 -2.296031E+04
       428   3 -7.566094E+04  5.728784E+04  3.769130E+04  5.736354E+04 -7.662624E+03 -1.901908E+04
       428   4 -3.230893E+05  2.085177E+02 -2.547447E+02  5.697195E+04 -1.290524E+02 -2.686701E+04
       428   5 -3.230635E+05  1.995680E+02 -1.649497E+02  5.199525E+04 -5.458084E+01 -2.294587E+04
       428   6 -3.230792E+05  2.288457E+02 -1.264241E+02  5.697193E+04  1.910903E+01 -1.900384E+04
       428   7 -6.709495E+05 -8.000755E+04 -5.326549E+04  5.643151E+04  7.468135E+03 -2.685338E+04
       428   8 -6.206693E+05 -6.843574E+04 -4.556551E+04  5.152915E+04  7.583404E+03 -2.293144E+04
       428   9 -5.704360E+05 -5.683306E+04 -3.794524E+04  5.658044E+04  7.697899E+03 -1.898859E+04
       428  10  2.489204E+04  8.041801E+04  5.275218E+04  5.751248E+04  6.081529E-09  1.294757E-09
       428  11 -2.536891E+04  6.883006E+04  4.523283E+04  5.246140E+04  4.620626E-09  7.059636E-09
       428  12 -7.566110E+04  5.728743E+04  3.769051E+04  5.736343E+04  5.084382E-09  4.084256E-09
       428  13 -3.230895E+05  2.077426E+02 -2.561010E+02  5.697195E+04  4.811873E-10  1.144748E-09
       428  14 -3.230636E+05  1.990027E+02 -1.659389E+02  5.199525E+04 -2.629703E-09  7.046411E-09
       428  15 -3.230793E+05  2.284580E+02 -1.271027E+02  5.697193E+04  5.110971E-10  1.924857E-09
       428  16 -6.709498E+05 -8.000834E+04 -5.326695E+04  5.643167E+04 -5.317981E-09  1.023308E-09
       428  17 -6.206695E+05 -6.843632E+04 -4.556660E+04  5.152929E+04 -5.290907E-09  1.722751E-09
       428  18 -5.704362E+05 -5.683347E+04 -3.794603E+04  5.658056E+04 -4.465205E-09  3.823222E-10
       428  19  2.489230E+04  8.041880E+04  5.275365E+04  5.751265E+04  7.730334E+03  2.688064E+04
       428  20 -2.536870E+04  6.883064E+04  4.523394E+04  5.246154E+04  7.696087E+03  2.296031E+04
       428  21 -7.566094E+04  5.728784E+04  3.769130E+04  5.736354E+04  7.662624E+03  1.901908E+04
       428  22 -3.230893E+05  2.085177E+02 -2.547447E+02  5.697195E+04  1.290524E+02  2.686701E+04
       428  23 -3.230635E+05  1.995680E+02 -1.649497E+02  5.199525E+04  5.458084E+01  2.294587E+04
       428  24 -3.230792E+05  2.288457E+02 -1.264241E+02  5.697193E+04 -1.910903E+01  1.900384E+04
       428  25 -6.709495E+05 -8.000755E+04 -5.326549E+04  5.643151E+04 -7.468135E+03  2.685338E+04
       428  26 -6.206693E+05 -6.843574E+04 -4.556551E+04  5.152915E+04 -7.583404E+03  2.293144E+04
       428  27 -5.704360E+05 -5.683306E+04 -3.794524E+04  5.658044E+04 -7.697899E+03  1.898859E+04
       429   1 -1.075805E+05  4.989333E+04  3.262598E+04  5.731504E+04 -7.644973E+03 -1.671796E+04
       429   2 -1.578566E+05  3.830321E+04  2.502518E+04  5.224919E+04 -7.570290E+03 -1.276822E+04
       429   3 -2.081800E+05  2.675038E+04  1.737040E+04  5.714496E+04 -7.496014E+03 -8.823858E+03
       429   4 -3.230777E+05  2.329266E+02 -1.232501E+02  5.697379E+04  3.722236E+01 -1.670237E+04
       429   5 -3.230512E+05  2.206524E+02 -1.454865E+02  5.199290E+04  1.012066E+02 -1.275226E+04
       429   6 -3.230721E+05  2.477857E+02 -2.141944E+02  5.697377E+04  1.647901E+02 -8.807510E+03
       429   7 -5.385282E+05 -4.942967E+04 -3.287323E+04  5.663264E+04  7.716856E+03 -1.668680E+04
       429   8 -4.882184E+05 -3.786319E+04 -2.531651E+04  5.173666E+04  7.770741E+03 -1.273629E+04
       429   9 -4.379508E+05 -2.625542E+04 -1.779886E+04  5.680261E+04  7.824231E+03 -8.791165E+03
       429  10 -1.075806E+05  4.989301E+04  3.262534E+04  5.731494E+04  1.502041E-08  4.680513E-10
       429  11 -1.578567E+05  3.830302E+04  2.502476E+04  5.224911E+04  6.787867E-09 -5.250436E-10
       429  12 -2.081801E+05  2.675028E+04  1.737015E+04  5.714491E+04 -2.015341E-09  8.510116E-10
       429  13 -3.230777E+05  2.326271E+02 -1.237743E+02  5.697379E+04  2.444594E-09  4.697305E-09
       429  14 -3.230512E+05  2.204778E+02 -1.457921E+02  5.199290E+04  1.365107E-10  6.418472E-10
       429  15 -3.230721E+05  2.477024E+02 -2.143403E+02  5.697377E+04  7.676432E-10  9.619269E-10
       429  16 -5.385283E+05 -4.942998E+04 -3.287386E+04  5.663275E+04 -1.298146E-08  1.630930E-09
       429  17 -4.882185E+05 -3.786338E+04 -2.531693E+04  5.173674E+04 -5.780959E-09 -2.249652E-09
       429  18 -4.379508E+05 -2.625552E+04 -1.779912E+04  5.680267E+04  4.040408E-09 -1.622556E-10
       429  19 -1.075805E+05  4.989333E+04  3.262598E+04  5.731504E+04  7.644973E+03  1.671796E+04
       429  20 -1.578566E+05  3.830321E+04  2.502518E+04  5.224919E+04  7.570290E+03  1.276822E+04
       429  21 -2.081800E+05  2.675038E+04  1.737040E+04  5.714496E+04  7.496014E+03  8.823858E+03
       429  22 -3.230777E+05  2.329266E+02 -1.232501E+02  5.697379E+04 -3.722236E+01  1.670237E+04
       429  23 -3.230512E+05  2.206524E+02 -1.454865E+02  5.199290E+04 -1.012066E+02  1.275226E+04
       429  24 -3.230721E+05  2.477857E+02 -2.141944E+02  5.697377E+04 -1.647901E+02  8.807510E+03
       429  25 -5.385282E+05 -4.942967E+04 -3.287323E+04  5.663264E+04 -7.716856E+03  1.668680E+04
       429  26 -4.882184E+05 -3.786319E+04 -2.531651E+04  5.173666E+04 -7.770741E+03  1.273629E+04
       429  27 -4.379508E+05 -2.625542E+04 -1.779886E+04  5.680261E+04 -7.824231E+03  8.791165E+03
       430   1 -2.401171E+05  1.935068E+04  1.223567E+04  5.708395E+04 -7.460613E+03 -6.526247E+03
       430   2 -2.903745E+05  7.740949E+03  4.415362E+03  5.201875E+04 -7.095348E+03 -2.619380E+03
       430   3 -3.407334E+05 -3.886766E+03 -3.662802E+03  5.691195E+04 -6.730042E+03  1.212124E+03
       430   4 -3.230778E+05  2.515081E+02 -2.719551E+02  5.697301E+04  2.036433E+02 -6.509749E+03
       430   5 -3.230380E+05  2.313673E+02 -4.577507E+02  5.199384E+04  4.221455E+02 -2.603119E+03
       430   6 -3.230767E+05  2.188033E+02 -7.995921E+02  5.697309E+04  6.407185E+02  1.228145E+03
       430   7 -4.060315E+05 -1.884796E+04 -1.277950E+04  5.686208E+04  7.866915E+03 -6.493253E+03
       430   8 -3.557003E+05 -7.278234E+03 -5.330672E+03  5.196893E+04  7.939260E+03 -2.586859E+03
       430   9 -3.054197E+05  4.324386E+03  2.063814E+03  5.703423E+04  8.011681E+03  1.244167E+03
       430  10 -2.401172E+05  1.935062E+04  1.223549E+04  5.708391E+04  1.226716E-07  6.525947E-09
       430  11 -2.903746E+05  7.740928E+03  4.415255E+03  5.201873E+04 -1.030870E-09  4.952065E-09
       430  12 -3.407334E+05 -3.886780E+03 -3.662890E+03  5.691195E+04 -1.251158E-07  4.304912E-09
       430  13 -3.230778E+05  2.514625E+02 -2.720348E+02  5.697301E+04  5.904485E-10  4.046864E-09
       430  14 -3.230380E+05  2.313600E+02 -4.577638E+02  5.199384E+04 -1.286905E-09  5.472203E-09
       430  15 -3.230767E+05  2.188016E+02 -7.995957E+02  5.697309E+04  1.140251E-09  5.333640E-09
       430  16 -4.060315E+05 -1.884802E+04 -1.277970E+04  5.686213E+04 -1.213804E-07  6.090599E-09
       430  17 -3.557003E+05 -7.278259E+03 -5.330803E+03  5.196895E+04  2.830448E-09 -5.000213E-10
       430  18 -3.054197E+05  4.324367E+03  2.063690E+03  5.703422E+04  1.264664E-07  2.916572E-09
       430  19 -2.401171E+05  1.935068E+04  1.223567E+04  5.708395E+04  7.460613E+03  6.526247E+03
       430  20 -2.903745E+05  7.740949E+03  4.415362E+03  5.201875E+04  7.095348E+03  2.619380E+03
       430  21 -3.407334E+05 -3.886766E+03 -3.662802E+03  5.691195E+04  6.730042E+03 -1.212124E+03
       430  22 -3.230778E+05  2.515081E+02 -2.719551E+02  5.697301E+04 -2.036433E+02  6.509749E+03
       430  23 -3.230380E+05  2.313673E+02 -4.577507E+02  5.199384E+04 -4.221455E+02  2.603119E+03
       430  24 -3.230767E+05  2.188033E+02 -7.995921E+02  5.697309E+04 -6.407185E+02 -1.228145E+03
       430  25 -4.060315E+05 -1.884796E+04 -1.277950E+04  5.686208E+04 -7.866915E+03  6.493253E+03
       430  26 -3.557003E+05 -7.278234E+03 -5.330672E+03  5.196893E+04 -7.939260E+03  2.586859E+03
       430  27 -3.054197E+05  4.324386E+03  2.063814E+03  5.703423E+04 -8.011681E+03 -1.244167E+03
       431   1 -3.727470E+05 -1.131471E+04 -9.078273E+03  5.678118E+04 -6.604862E+03  3.451079E+03
       431   2 -4.227895E+05 -2.319319E+04 -1.805926E+04  5.201478E+04 -4.315448E+03  6.912436E+03
       431   3 -4.733589E+05 -3.579660E+04 -2.872726E+04  5.715822E+04 -2.024615E+03  9.669294E+03
       431   4 -3.231246E+05  2.194091E+02 -1.053544E+03  5.696204E+04  7.956346E+02  3.467118E+03
       431   5 -3.229803E+05  1.729494E+01 -1.856617E+03  5.200812E+04  1.716058E+03  6.925308E+03
       431   6 -3.231283E+05 -6.719919E+02 -3.395765E+03  5.696395E+04  2.638096E+03  9.679056E+03
       431   7 -2.734997E+05  1.175344E+04  6.971323E+03  5.714292E+04  8.196702E+03  3.483161E+03
       431   8 -2.231612E+05  2.322730E+04  1.434588E+04  5.200145E+04  7.748501E+03  6.938178E+03
       431   9 -1.728754E+05  3.445144E+04  2.193509E+04  5.676961E+04  7.301900E+03  9.688815E+03
       431  10 -3.727471E+05 -1.131474E+04 -9.078377E+03  5.678120E+04 -7.928499E-09  5.647043E-09
       431  11 -4.227895E+05 -2.319325E+04 -1.805938E+04  5.201481E+04  2.922928E-10  1.381384E-09
       431  12 -4.733589E+05 -3.579670E+04 -2.872744E+04  5.715824E+04  6.498228E-09  2.650189E-09
       431  13 -3.231247E+05  2.193960E+02 -1.053568E+03  5.696204E+04  2.720971E-09  3.143057E-09
       431  14 -3.229803E+05  1.724266E+01 -1.856713E+03  5.200811E+04 -8.492863E-10  4.319866E-09
       431  15 -3.231283E+05 -6.720943E+02 -3.395954E+03  5.696393E+04  2.289961E-09  5.627731E-11
       431  16 -2.734998E+05  1.175341E+04  6.971174E+03  5.714290E+04  8.955268E-09  2.879968E-09
       431  17 -2.231612E+05  2.322723E+04  1.434568E+04  5.200141E+04  8.924502E-10  1.416696E-10
       431  18 -1.728755E+05  3.445133E+04  2.193482E+04  5.676955E+04 -5.351238E-09 -5.018190E-09
       431  19 -3.727470E+05 -1.131471E+04 -9.078273E+03  5.678118E+04  6.604862E+03 -3.451079E+03
       431  20 -4.227895E+05 -2.319319E+04 -1.805926E+04  5.201478E+04  4.315448E+03 -6.912436E+03
       431  21 -4.733589E+05 -3.579660E+04 -2.872726E+04  5.715822E+04  2.024615E+03 -9.669294E+03
       431  22 -3.231246E+05  2.194091E+02 -1.053544E+03  5.696204E+04 -7.956346E+02 -3.467118E+03
       431  23 -3.229803E+05  1.729494E+01 -1.856617E+03  5.200812E+04 -1.716058E+03 -6.925308E+03
       431  24 -3.231283E+05 -6.719919E+02 -3.395765E+03  5.696395E+04 -2.638096E+03 -9.679056E+03
       431  25 -2.734997E+05  1.175344E+04  6.971323E+03  5.714292E+04 -8.196702E+03 -3.483161E+03
       431  26 -2.231612E+05  2.322730E+04  1.434588E+04  5.200145E+04 -7.748501E+03 -6.938178E+03
       431  27 -1.728754E+05  3.445144E+04  2.193509E+04  5.676961E+04 -7.301900E+03 -9.688815E+03
       432   1 -5.061522E+05 -4.355454E+04 -3.577820E+04  5.622879E+04 -1.724148E+03  1.135574E+04
       432   2 -5.541282E+05 -5.932880E+04 -5.277344E+04  5.661018E+04  1.524033E+04  1.066004E+04
       432   3 -6.068561E+05 -8.510227E+04 -8.332729E+04  6.645164E+04  3.221613E+04  3.414957E+03
       432   4 -3.236301E+05 -7.749048E+02 -4.501892E+03  5.686102E+04  3.217193E+03  1.136593E+04
       432   5 -3.223641E+05 -4.072753E+03 -8.259164E+03  5.214578E+04  7.459655E+03  1.064339E+04
       432   6 -3.236400E+05 -1.515760E+04 -1.673399E+04  5.689080E+04  1.171480E+04  3.372297E+03
       432   7 -1.410751E+05  4.200296E+04  2.677339E+04  5.749344E+04  8.159943E+03  1.137613E+04
       432   8 -9.054819E+04  5.118023E+04  3.625289E+04  4.767964E+04 -3.238566E+02  1.062685E+04
       432   9 -4.034898E+04  5.478193E+04  4.985543E+04  4.732553E+04 -8.795824E+03  3.330280E+03
       432  10 -5.061522E+05 -4.355468E+04 -3.577845E+04  5.622880E+04 -2.023449E-09  1.259129E-09
       432  11 -5.541285E+05 -5.932898E+04 -5.277409E+04  5.661005E+04 -2.466329E-09 -3.080347E-09
       432  12 -6.068572E+05 -8.510256E+04 -8.332926E+04  6.645155E+04  3.495985E-10 -1.244326E-09
       432  13 -3.236301E+05 -7.750463E+02 -4.502155E+03  5.686099E+04  8.555194E-10  2.911112E-09
       432  14 -3.223642E+05 -4.072889E+03 -8.259482E+03  5.214572E+04 -1.104609E-09 -6.896857E-09
       432  15 -3.236402E+05 -1.515765E+04 -1.673427E+04  5.689076E+04  6.476445E-10  1.182384E-09
       432  16 -1.410752E+05  4.200281E+04  2.677302E+04  5.749336E+04  4.228541E-09 -3.600815E-10
       432  17 -9.054822E+04  5.118011E+04  3.625267E+04  4.767965E+04  2.006421E-09 -7.895178E-11
       432  18 -4.034906E+04  5.478189E+04  4.985526E+04  4.732555E+04  1.758852E-09 -8.074398E-10
       432  19 -5.061522E+05 -4.355454E+04 -3.577820E+04  5.622879E+04  1.724148E+03 -1.135574E+04
       432  20 -5.541282E+05 -5.932880E+04 -5.277344E+04  5.661018E+04 -1.524033E+04 -1.066004E+04
       432  21 -6.068561E+05 -8.510227E+04 -8.332729E+04  6.645164E+04 -3.221613E+04 -3.414957E+03
       432  22 -3.236301E+05 -7.749048E+02 -4.501892E+03  5.686102E+04 -3.217193E+03 -1.136593E+04
       432  23 -3.223641E+05 -4.072753E+03 -8.259164E+03  5.214578E+04 -7.459655E+03 -1.064339E+04
       432  24 -3.236400E+05 -1.515760E+04 -1.673399E+04  5.689080E+04 -1.171480E+04 -3.372297E+03
       432  25 -1.410751E+05  4.200296E+04  2.677339E+04  5.749344E+04 -8.159943E+03 -1.137613E+04
       432  26 -9.054819E+04  5.118023E+04  3.625289E+04  4.767964E+04  3.238566E+02 -1.062685E+04
       432  27 -4.034898E+04  5.478193E+04  4.985543E+04  4.732553E+04  8.795824E+03 -3.330280E+03
       433   1 -3.682103E+05  2.821671E+04 -2.521831E+03 -1.494206E+04 -8.770267E+04 -5.347130E+03
       433   2 -3.835286E+05  1.456954E+05  6.413499E+04 -6.243114E+03 -6.014439E+04 -1.562608E+04
       433   3 -4.366119E+05  1.256463E+05  7.852620E+04  3.042029E+04 -3.261341E+04 -1.433717E+04
       433   4 -9.199794E+05 -1.093587E+05 -1.389977E+05  1.591625E+04 -9.499124E+04 -5.367069E+03
       433   5 -9.005954E+05  1.731101E+04 -6.061744E+04  1.807468E+03 -6.218668E+04 -1.563272E+04
       433   6 -9.199236E+05  5.477465E+03 -3.818256E+04  1.566512E+04 -2.940756E+04 -1.432830E+04
       433   7 -1.471469E+06 -2.469533E+05 -2.754955E+05  4.674696E+04 -1.022733E+05 -5.387744E+03
       433   8 -1.417417E+06 -1.110927E+05 -1.853890E+05  9.851170E+03 -6.422725E+04 -1.563943E+04
       433   9 -1.403021E+06 -1.147077E+05 -1.549079E+05  9.213324E+02 -2.620418E+04 -1.431958E+04
       433  10 -3.682186E+05  2.821461E+04 -2.536348E+03 -1.494244E+04 -2.503196E-09  4.050682E-09
       433  11 -3.835325E+05  1.456942E+05  6.412773E+04 -6.243871E+03  6.864661E-10  8.513494E-09
       433  12 -4.366131E+05  1.256458E+05  7.852381E+04  3.041991E+04 -1.022022E-09  3.937350E-09
       433  13 -9.199891E+05 -1.093612E+05 -1.390147E+05  1.591584E+04  1.306413E-10 -3.682675E-09
       433  14 -9.005997E+05  1.730970E+04 -6.062518E+04  1.806685E+03  3.344693E-09 -3.766620E-09
       433  15 -9.199246E+05  5.477012E+03 -3.818458E+04  1.566478E+04  3.996048E-09  1.768092E-09
       433  16 -1.471480E+06 -2.469561E+05 -2.755152E+05  4.674651E+04  2.385298E-09  1.010604E-09
       433  17 -1.417422E+06 -1.110940E+05 -1.853972E+05  9.850360E+03  1.495436E-09  9.604022E-09
       433  18 -1.403022E+06 -1.147081E+05 -1.549096E+05  9.210300E+02  2.713379E-10  1.915847E-09
       433  19 -3.682103E+05  2.821671E+04 -2.521831E+03 -1.494206E+04  8.770267E+04  5.347130E+03
       433  20 -3.835286E+05  1.456954E+05  6.413499E+04 -6.243114E+03  6.014439E+04  1.562608E+04
       433  21 -4.366119E+05  1.256463E+05  7.852620E+04  3.042029E+04  3.261341E+04  1.433717E+04
       433  22 -9.199794E+05 -1.093587E+05 -1.389977E+05  1.591625E+04  9.499124E+04  5.367069E+03
       433  23 -9.005954E+05  1.731101E+04 -6.061744E+04  1.807468E+03  6.218668E+04  1.563272E+04
       433  24 -9.199236E+05  5.477465E+03 -3.818256E+04  1.566512E+04  2.940756E+04  1.432830E+04
       433  25 -1.471469E+06 -2.469533E+05 -2.754955E+05  4.674696E+04  1.022733E+05  5.387744E+03
       433  26 -1.417417E+06 -1.110927E+05 -1.853890E+05  9.851170E+03  6.422725E+04  1.563943E+04
       433  27 -1.403021E+06 -1.147077E+05 -1.549079E+05  9.213324E+02  2.620418E+04  1.431958E+04
       434   1 -4.823796E+05  9.463482E+04  7.284726E+04  1.386491E+04 -2.340232E+04 -1.185024E+04
       434   2 -5.160315E+05  9.985572E+04  7.942170E+04  1.404634E+03 -1.575202E+04 -1.141088E+04
       434   3 -5.545522E+05  8.967558E+04  7.715963E+04  1.870235E+04 -8.106394E+03 -9.974081E+03
       434   4 -9.124196E+05 -1.223683E+04 -3.124358E+04  1.617298E+04 -2.342873E+04 -1.185097E+04
       434   5 -9.099371E+05  1.980489E+03 -1.575838E+04  1.273705E+03 -1.532891E+04 -1.141002E+04
       434   6 -9.124069E+05  7.128725E+02 -9.426758E+03  1.613379E+04 -7.233335E+03 -9.971406E+03
       434   7 -1.342290E+06 -1.191220E+05 -1.353477E+05  1.847931E+04 -2.345511E+04 -1.185171E+04
       434   8 -1.303701E+06 -9.590611E+04 -1.109496E+05  1.142745E+03 -1.490607E+04 -1.140916E+04
       434   9 -1.270144E+06 -8.825921E+04 -9.602235E+04  1.356661E+04 -6.360778E+03 -9.968737E+03
       434  10 -4.823802E+05  9.463453E+04  7.284597E+04  1.386469E+04 -2.505309E-09 -3.601643E-09
       434  11 -5.160318E+05  9.985552E+04  7.942099E+04  1.404489E+03  1.843573E-09  5.134610E-10
       434  12 -5.545523E+05  8.967546E+04  7.715931E+04  1.870228E+04  1.088946E-09  8.433825E-09
       434  13 -9.124203E+05 -1.223713E+04 -3.124488E+04  1.617275E+04 -6.225337E-10  7.957536E-09
       434  14 -9.099374E+05  1.980286E+03 -1.575907E+04  1.273564E+03  4.467718E-09 -1.832189E-08
       434  15 -9.124069E+05  7.127517E+02 -9.427043E+03  1.613373E+04  2.569232E-09  9.902310E-09
       434  16 -1.342291E+06 -1.191223E+05 -1.353490E+05  1.847909E+04  2.983355E-09 -6.986727E-09
       434  17 -1.303701E+06 -9.590631E+04 -1.109503E+05  1.142608E+03 -2.095129E-10 -4.922487E-09
       434  18 -1.270144E+06 -8.825933E+04 -9.602261E+04  1.356656E+04 -4.515857E-09  1.837028E-09
       434  19 -4.823796E+05  9.463482E+04  7.284726E+04  1.386491E+04  2.340232E+04  1.185024E+04
       434  20 -5.160315E+05  9.985572E+04  7.942170E+04  1.404634E+03  1.575202E+04  1.141088E+04
       434  21 -5.545522E+05  8.967558E+04  7.715963E+04  1.870235E+04  8.106394E+03  9.974081E+03
       434  22 -9.124196E+05 -1.223683E+04 -3.124358E+04  1.617298E+04  2.342873E+04  1.185097E+04
       434  23 -9.099371E+05  1.980489E+03 -1.575838E+04  1.273705E+03  1.532891E+04  1.141002E+04
       434  24 -9.124069E+05  7.128725E+02 -9.426758E+03  1.613379E+04  7.233335E+03  9.971406E+03
       434  25 -1.342290E+06 -1.191220E+05 -1.353477E+05  1.847931E+04  2.345511E+04  1.185171E+04
       434  26 -1.303701E+06 -9.590611E+04 -1.109496E+05  1.142745E+03  1.490607E+04  1.140916E+04
       434  27 -1.270144E+06 -8.825921E+04 -9.602235E+04  1.356661E+04  6.360778E+03  9.968737E+03
       435   1 -6.096125E+05  7.373845E+04  6.544690E+04  1.695245E+04 -6.350167E+03 -8.989533E+03
       435   2 -6.467470E+05  6.592579E+04  5.982090E+04  1.626826E+03 -4.360313E+03 -7.608394E+03
       435   3 -6.847162E+05  5.658780E+04  5.247574E+04  1.729543E+04 -2.371803E+03 -6.125170E+03
       435   4 -9.114844E+05 -1.260964E+03 -7.422295E+03  1.642468E+04 -5.745525E+03 -8.987647E+03
       435   5 -9.110602E+05  2.387953E+02 -4.060672E+03  9.244771E+02 -3.710062E+03 -7.606160E+03
       435   6 -9.114798E+05  2.050216E+02 -2.450348E+03  1.641933E+04 -1.675823E+03 -6.122566E+03
       435   7 -1.213273E+06 -7.626705E+04 -8.029802E+04  1.589709E+04 -5.141176E+03 -8.985762E+03
       435   8 -1.175309E+06 -6.545332E+04 -6.794726E+04  2.223683E+02 -3.060087E+03 -7.603928E+03
       435   9 -1.138196E+06 -5.618153E+04 -5.738014E+04  1.554350E+04 -9.800968E+02 -6.119964E+03
       435  10 -6.096126E+05  7.373835E+04  6.544667E+04  1.695240E+04  1.030820E-09 -2.806098E-09
       435  11 -6.467471E+05  6.592573E+04  5.982076E+04  1.626800E+03  1.480439E-09 -6.255298E-09
       435  12 -6.847162E+05  5.658776E+04  5.247566E+04  1.729542E+04 -1.601550E-09 -7.824105E-09
       435  13 -9.114845E+05 -1.261059E+03 -7.422509E+03  1.642464E+04  5.997349E-10 -9.358238E-10
       435  14 -9.110602E+05  2.387295E+02 -4.060806E+03  9.244543E+02  1.620765E-09 -5.646532E-09
       435  15 -9.114798E+05  2.049807E+02 -2.450424E+03  1.641932E+04  4.711060E-09 -3.887672E-09
       435  16 -1.213273E+06 -7.626714E+04 -8.029822E+04  1.589705E+04 -1.006922E-09 -5.008510E-09
       435  17 -1.175309E+06 -6.545338E+04 -6.794738E+04  2.223495E+02  6.161456E-10  4.520700E-09
       435  18 -1.138196E+06 -5.618157E+04 -5.738021E+04  1.554350E+04 -1.743675E-09  1.293197E-08
       435  19 -6.096125E+05  7.373845E+04  6.544690E+04  1.695245E+04  6.350167E+03  8.989533E+03
       435  20 -6.467470E+05  6.592579E+04  5.982090E+04  1.626826E+03  4.360313E+03  7.608394E+03
       435  21 -6.847162E+05  5.658780E+04  5.247574E+04  1.729543E+04  2.371803E+03  6.125170E+03
       435  22 -9.114844E+05 -1.260964E+03 -7.422295E+03  1.642468E+04  5.745525E+03  8.987647E+03
       435  23 -9.110602E+05  2.387953E+02 -4.060672E+03  9.244771E+02  3.710062E+03  7.606160E+03
       435  24 -9.114798E+05  2.050216E+02 -2.450348E+03  1.641933E+04  1.675823E+03  6.122566E+03
       435  25 -1.213273E+06 -7.626705E+04 -8.029802E+04  1.589709E+04  5.141176E+03  8.985762E+03
       435  26 -1.175309E+06 -6.545332E+04 -6.794726E+04  2.223683E+02  3.060087E+03  7.603928E+03
       435  27 -1.138196E+06 -5.618153E+04 -5.738014E+04  1.554350E+04  9.800968E+02  6.119964E+03
       436   1 -7.424049E+05  4.196045E+04  3.876415E+04  1.707752E+04 -1.959077E+03 -5.244773E+03
       436   2 -7.806612E+05  3.249050E+04  3.025207E+04  1.123563E+03 -1.328033E+03 -3.752819E+03
       436   3 -8.192912E+05  2.305410E+04  2.127320E+04  1.689817E+04 -6.975468E+02 -2.244130E+03
       436   4 -9.113694E+05 -1.062535E+01 -1.961305E+03  1.658457E+04 -1.284123E+03 -5.242149E+03
       436   5 -9.111803E+05  5.065453E+01 -1.296141E+03  7.197694E+02 -6.456240E+02 -3.750072E+03
       436   6 -9.113676E+05  1.442491E+02 -1.102962E+03  1.658394E+04 -7.643934E+00 -2.241254E+03
       436   7 -1.080308E+06 -4.198379E+04 -4.268880E+04  1.609172E+04 -6.093521E+02 -5.239525E+03
       436   8 -1.041684E+06 -3.239044E+04 -3.284557E+04  3.160453E+02  3.664179E+01 -3.747326E+03
       436   9 -1.003436E+06 -2.276623E+04 -2.347974E+04  1.626976E+04  6.821568E+02 -2.238378E+03
       436  10 -7.424049E+05  4.196042E+04  3.876409E+04  1.707751E+04  1.969434E-09 -1.042213E-08
       436  11 -7.806612E+05  3.249049E+04  3.025204E+04  1.123559E+03 -2.194346E-10  3.048522E-09
       436  12 -8.192912E+05  2.305409E+04  2.127319E+04  1.689817E+04 -5.563565E-09  1.620762E-09
       436  13 -9.113694E+05 -1.065529E+01 -1.961359E+03  1.658456E+04 -2.064923E-11  9.153096E-10
       436  14 -9.111803E+05  5.063932E+01 -1.296168E+03  7.197675E+02  1.226032E-09 -6.777365E-09
       436  15 -9.113676E+05  1.442437E+02 -1.102971E+03  1.658394E+04  4.624365E-09 -3.460435E-09
       436  16 -1.080308E+06 -4.198382E+04 -4.268885E+04  1.609172E+04 -9.519050E-10  6.707611E-09
       436  17 -1.041684E+06 -3.239045E+04 -3.284560E+04  3.160454E+02  2.451588E-09  1.821798E-08
       436  18 -1.003436E+06 -2.276623E+04 -2.347975E+04  1.626976E+04  8.133050E-10  3.331535E-09
       436  19 -7.424049E+05  4.196045E+04  3.876415E+04  1.707752E+04  1.959077E+03  5.244773E+03
       436  20 -7.806612E+05  3.249050E+04  3.025207E+04  1.123563E+03  1.328033E+03  3.752819E+03
       436  21 -8.192912E+05  2.305410E+04  2.127320E+04  1.689817E+04  6.975468E+02  2.244130E+03
       436  22 -9.113694E+05 -1.062535E+01 -1.961305E+03  1.658457E+04  1.284123E+03  5.242149E+03
       436  23 -9.111803E+05  5.065453E+01 -1.296141E+03  7.197694E+02  6.456240E+02  3.750072E+03
       436  24 -9.113676E+05  1.442491E+02 -1.102962E+03  1.658394E+04  7.643934E+00  2.241254E+03
       436  25 -1.080308E+06 -4.198379E+04 -4.268880E+04  1.609172E+04  6.093521E+02  5.239525E+03
       436  26 -1.041684E+06 -3.239044E+04 -3.284557E+04  3.160453E+02 -3.664179E+01  3.747326E+03
       436  27 -1.003436E+06 -2.276623E+04 -2.347974E+04  1.626976E+04 -6.821568E+02  2.238378E+03
       437   1 -8.779887E+05  8.421360E+03  6.819183E+03  1.671182E+04 -5.000031E+02 -1.360864E+03
       437   2 -9.164987E+05 -1.266464E+03 -2.737666E+03  6.318563E+02  2.163963E+02  1.543655E+02
       437   3 -9.554351E+05 -1.095146E+04 -1.283200E+04  1.651511E+04  9.327804E+02  1.664306E+03
       437   4 -9.113769E+05  1.464353E+02 -1.132853E+03  1.663596E+04  1.900208E+02 -1.357954E+03
       437   5 -9.111632E+05  5.981272E+01 -1.447954E+03  6.547232E+02  9.039879E+02  1.572592E+02
       437   6 -9.113773E+05 -2.358690E+01 -2.298891E+03  1.663668E+04  1.617985E+03  1.667189E+03
       437   7 -9.447641E+05 -8.128570E+03 -9.084965E+03  1.656010E+04  8.800077E+02 -1.355043E+03
       437   8 -9.058277E+05  1.386087E+03 -1.582426E+02  6.775902E+02  1.591585E+03  1.601529E+02
       437   9 -8.673178E+05  1.090414E+04  8.234084E+03  1.675825E+04  2.303237E+03  1.670071E+03
       437  10 -8.779887E+05  8.421358E+03  6.819179E+03  1.671182E+04 -7.653167E-09 -1.542933E-09
       437  11 -9.164987E+05 -1.266464E+03 -2.737666E+03  6.318563E+02  1.543668E-09 -8.204409E-09
       437  12 -9.554351E+05 -1.095146E+04 -1.283201E+04  1.651511E+04 -1.022573E-09 -5.857110E-09
       437  13 -9.113769E+05  1.464334E+02 -1.132856E+03  1.663596E+04 -1.568941E-10  7.418227E-09
       437  14 -9.111632E+05  5.981247E+01 -1.447956E+03  6.547231E+02  1.682723E-09 -3.553872E-09
       437  15 -9.113773E+05 -2.359059E+01 -2.298901E+03  1.663667E+04  4.756295E-09 -7.422238E-09
       437  16 -9.447641E+05 -8.128572E+03 -9.084970E+03  1.656010E+04  5.990336E-09 -2.040911E-09
       437  17 -9.058277E+05  1.386087E+03 -1.582474E+02  6.775900E+02  1.353577E-09 -2.218626E-08
       437  18 -8.673178E+05  1.090414E+04  8.234069E+03  1.675825E+04 -2.443770E-09 -1.171336E-08
       437  19 -8.779887E+05  8.421360E+03  6.819183E+03  1.671182E+04  5.000031E+02  1.360864E+03
       437  20 -9.164987E+05 -1.266464E+03 -2.737666E+03  6.318563E+02 -2.163963E+02 -1.543655E+02
       437  21 -9.554351E+05 -1.095146E+04 -1.283200E+04  1.651511E+04 -9.327804E+02 -1.664306E+03
       437  22 -9.113769E+05  1.464353E+02 -1.132853E+03  1.663596E+04 -1.900208E+02  1.357954E+03
       437  23 -9.111632E+05  5.981272E+01 -1.447954E+03  6.547232E+02 -9.039879E+02 -1.572592E+02
       437  24 -9.113773E+05 -2.358690E+01 -2.298891E+03  1.663668E+04 -1.617985E+03 -1.667189E+03
       437  25 -9.447641E+05 -8.128570E+03 -9.084965E+03  1.656010E+04 -8.800077E+02  1.355043E+03
       437  26 -9.058277E+05  1.386087E+03 -1.582426E+02  6.775902E+02 -1.591585E+03 -1.601529E+02
       437  27 -8.673178E+05  1.090414E+04  8.234084E+03  1.675825E+04 -2.303237E+03 -1.670071E+03
       438   1 -1.014226E+06 -2.532408E+04 -2.785519E+04  1.600644E+04  1.378341E+03  2.555837E+03
       438   2 -1.052074E+06 -3.477295E+04 -3.896719E+04  3.497787E+02  3.849285E+03  4.070434E+03
       438   3 -1.091010E+06 -4.610427E+04 -5.222380E+04  1.638391E+04  6.320899E+03  5.508391E+03
       438   4 -9.115251E+05  2.315986E+02 -2.908497E+03  1.657330E+04  2.081165E+03  2.558754E+03
       438   5 -9.109858E+05  2.987798E+02 -4.859717E+03  7.316212E+02  4.517696E+03  4.073102E+03
       438   6 -9.115287E+05 -1.509948E+03 -8.930951E+03  1.658030E+04  6.955047E+03  5.510821E+03
       438   7 -8.088145E+05  2.578651E+04  2.203743E+04  1.714023E+04  2.784106E+03  2.561673E+03
       438   8 -7.698794E+05  3.536905E+04  2.924633E+04  1.113532E+03  5.186258E+03  4.075771E+03
       438   9 -7.320183E+05  4.308202E+04  3.435959E+04  1.677673E+04  7.589378E+03  5.513251E+03
       438  10 -1.014226E+06 -2.532409E+04 -2.785520E+04  1.600644E+04 -3.679058E-09 -2.318330E-09
       438  11 -1.052074E+06 -3.477297E+04 -3.896725E+04  3.497661E+02  5.527643E-10 -8.190172E-09
       438  12 -1.091010E+06 -4.610432E+04 -5.222393E+04  1.638388E+04 -2.555454E-09 -1.520017E-09
       438  13 -9.115251E+05  2.315904E+02 -2.908517E+03  1.657329E+04  1.078966E-09 -2.346166E-09
       438  14 -9.109858E+05  2.987565E+02 -4.859787E+03  7.316064E+02  1.917731E-09  2.847666E-09
       438  15 -9.115288E+05 -1.509993E+03 -8.931099E+03  1.658027E+04  4.134806E-09  6.546903E-09
       438  16 -8.088145E+05  2.578650E+04  2.203740E+04  1.714022E+04  1.752673E-09  5.349743E-09
       438  17 -7.698794E+05  3.536902E+04  2.924625E+04  1.113515E+03  4.289120E-09 -7.938177E-09
       438  18 -7.320184E+05  4.308197E+04  3.435942E+04  1.677669E+04 -5.688786E-10  5.127252E-09
       438  19 -1.014226E+06 -2.532408E+04 -2.785519E+04  1.600644E+04 -1.378341E+03 -2.555837E+03
       438  20 -1.052074E+06 -3.477295E+04 -3.896719E+04  3.497787E+02 -3.849285E+03 -4.070434E+03
       438  21 -1.091010E+06 -4.610427E+04 -5.222380E+04  1.638391E+04 -6.320899E+03 -5.508391E+03
       438  22 -9.115251E+05  2.315986E+02 -2.908497E+03  1.657330E+04 -2.081165E+03 -2.558754E+03
       438  23 -9.109858E+05  2.987798E+02 -4.859717E+03  7.316212E+02 -4.517696E+03 -4.073102E+03
       438  24 -9.115287E+05 -1.509948E+03 -8.930951E+03  1.658030E+04 -6.955047E+03 -5.510821E+03
       438  25 -8.088145E+05  2.578651E+04  2.203743E+04  1.714023E+04 -2.784106E+03 -2.561673E+03
       438  26 -7.698794E+05  3.536905E+04  2.924633E+04  1.113532E+03 -5.186258E+03 -4.075771E+03
       438  27 -7.320183E+05  4.308202E+04  3.435959E+04  1.677673E+04 -7.589378E+03 -5.513251E+03
       439   1 -1.149791E+06 -5.812804E+04 -6.879464E+04  1.372452E+04  7.895782E+03  6.492461E+03
       439   2 -1.184171E+06 -6.583710E+04 -8.534352E+04  1.160746E+03  1.800793E+04  7.994991E+03
       439   3 -1.224743E+06 -9.229217E+04 -1.132116E+05  1.953441E+04  2.812316E+04  8.693664E+03
       439   4 -9.126550E+05  8.635239E+02 -1.135550E+04  1.639006E+04  8.747508E+03  6.495664E+03
       439   5 -9.095986E+05  2.410551E+03 -1.897363E+04  9.497765E+02  1.849748E+04  7.996556E+03
       439   6 -9.126683E+05 -1.472060E+04 -3.765519E+04  1.644624E+04  2.825112E+04  8.693657E+03
       439   7 -6.754680E+05  5.985098E+04  4.607959E+04  1.905657E+04  9.599559E+03  6.498873E+03
       439   8 -6.349571E+05  7.065268E+04  4.739085E+04  7.386491E+02  1.898723E+04  7.998120E+03
       439   9 -6.005049E+05  6.284388E+04  3.789417E+04  1.335644E+04  2.837914E+04  8.693650E+03
       439  10 -1.149791E+06 -5.812810E+04 -6.879484E+04  1.372448E+04  8.171537E-09 -5.756883E-09
       439  11 -1.184171E+06 -6.583725E+04 -8.534425E+04  1.160630E+03  2.317863E-09  1.278351E-09
       439  12 -1.224743E+06 -9.229247E+04 -1.132132E+05  1.953421E+04 -1.916288E-09 -5.591109E-09
       439  13 -9.126551E+05  8.634581E+02 -1.135573E+04  1.639002E+04  8.252016E-11 -1.051609E-08
       439  14 -9.095990E+05  2.410391E+03 -1.897439E+04  9.496573E+02 -7.712532E-10  8.239968E-09
       439  15 -9.126692E+05 -1.472089E+04 -3.765684E+04  1.644605E+04  2.240263E-09  1.268726E-10
       439  16 -6.754681E+05  5.985091E+04  4.607933E+04  1.905652E+04 -7.603790E-09 -3.335335E-09
       439  17 -6.349575E+05  7.065251E+04  4.739005E+04  7.385268E+02 -1.356542E-09 -2.292168E-08
       439  18 -6.005058E+05  6.284358E+04  3.789251E+04  1.335624E+04 -1.236384E-09 -3.554177E-09
       439  19 -1.149791E+06 -5.812804E+04 -6.879464E+04  1.372452E+04 -7.895782E+03 -6.492461E+03
       439  20 -1.184171E+06 -6.583710E+04 -8.534352E+04  1.160746E+03 -1.800793E+04 -7.994991E+03
       439  21 -1.224743E+06 -9.229217E+04 -1.132116E+05  1.953441E+04 -2.812316E+04 -8.693664E+03
       439  22 -9.126550E+05  8.635239E+02 -1.135550E+04  1.639006E+04 -8.747508E+03 -6.495664E+03
       439  23 -9.095986E+05  2.410551E+03 -1.897363E+04  9.497765E+02 -1.849748E+04 -7.996556E+03
       439  24 -9.126683E+05 -1.472060E+04 -3.765519E+04  1.644624E+04 -2.825112E+04 -8.693657E+03
       439  25 -6.754680E+05  5.985098E+04  4.607959E+04  1.905657E+04 -9.599559E+03 -6.498873E+03
       439  26 -6.349571E+05  7.065268E+04  4.739085E+04  7.386491E+02 -1.898723E+04 -7.998120E+03
       439  27 -6.005049E+05  6.284388E+04  3.789417E+04  1.335644E+04 -2.837914E+04 -8.693650E+03
       440   1 -1.289508E+06 -8.493577E+04 -1.349138E+05 -1.492524E+03  3.271647E+04  1.089029E+04
       440   2 -1.301860E+06 -7.930858E+04 -1.704416E+05  1.121385E+04  7.645718E+04  1.234888E+04
       440   3 -1.361894E+06 -2.414424E+05 -2.764331E+05  5.367175E+04  1.202227E+05  4.442651E+03
       440   4 -9.217283E+05  6.628699E+03 -4.602316E+04  1.601222E+04  3.545979E+04  1.090014E+04
       440   5 -8.983037E+05  2.090490E+04 -7.303459E+04  1.340668E+03  7.495830E+04  1.234232E+04
       440   6 -9.217933E+05 -1.317863E+05 -1.675285E+05  1.642242E+04  1.144846E+05  4.418494E+03
       440   7 -5.538241E+05  9.818436E+04  4.285799E+04  3.352729E+04  3.820472E+04  1.091013E+04
       440   8 -4.945974E+05  1.211069E+05  2.436081E+04 -8.539079E+03  7.345843E+04  1.233581E+04
       440   9 -4.815131E+05 -2.213943E+04 -5.863739E+04 -2.085352E+04  1.087423E+05  4.395037E+03
       440  10 -1.289509E+06 -8.493619E+04 -1.349161E+05 -1.492811E+03  2.056484E-09 -7.284952E-09
       440  11 -1.301867E+06 -7.931031E+04 -1.704529E+05  1.121309E+04  1.927349E-09 -1.624371E-09
       440  12 -1.361909E+06 -2.414463E+05 -2.764604E+05  5.367132E+04 -4.355829E-09  5.043119E-09
       440  13 -9.217296E+05  6.628234E+03 -4.602575E+04  1.601191E+04  5.724014E-10  7.847711E-09
       440  14 -8.983098E+05  2.090323E+04 -7.304545E+04  1.339922E+03  8.488258E-10  5.350477E-09
       440  15 -9.218074E+05 -1.317899E+05 -1.675532E+05  1.642201E+04  1.799447E-09  2.052310E-09
       440  16 -5.538257E+05  9.818384E+04  4.285502E+04  3.352695E+04 -2.746794E-09  5.471539E-09
       440  17 -4.946032E+05  1.211053E+05  2.435038E+04 -8.539809E+03 -1.534623E-09  9.238907E-09
       440  18 -4.815258E+05 -2.214263E+04 -5.865966E+04 -2.085391E+04  2.327340E-11 -1.980065E-09
       440  19 -1.289508E+06 -8.493577E+04 -1.349138E+05 -1.492524E+03 -3.271647E+04 -1.089029E+04
       440  20 -1.301860E+06 -7.930858E+04 -1.704416E+05  1.121385E+04 -7.645718E+04 -1.234888E+04
       440  21 -1.361894E+06 -2.414424E+05 -2.764331E+05  5.367175E+04 -1.202227E+05 -4.442651E+03
       440  22 -9.217283E+05  6.628699E+03 -4.602316E+04  1.601222E+04 -3.545979E+04 -1.090014E+04
       440  23 -8.983037E+05  2.090490E+04 -7.303459E+04  1.340668E+03 -7.495830E+04 -1.234232E+04
       440  24 -9.217933E+05 -1.317863E+05 -1.675285E+05  1.642242E+04 -1.144846E+05 -4.418494E+03
       440  25 -5.538241E+05  9.818436E+04  4.285799E+04  3.352729E+04 -3.820472E+04 -1.091013E+04
       440  26 -4.945974E+05  1.211069E+05  2.436081E+04 -8.539079E+03 -7.345843E+04 -1.233581E+04
       440  27 -4.815131E+05 -2.213943E+04 -5.863739E+04 -2.085352E+04 -1.087423E+05 -4.395037E+03
